# vtk DataFile Version 2.0
Calculation C:\Users\NickSteudtner\Documents\GitHub\TOCHNOG\standsicherheit_phiC at time 9.000000000000e+00 
ASCII
DATASET UNSTRUCTURED_GRID
Field FieldData 1
Time 1 1 double
9.000000000000e+00

POINTS 1067 float
0.0 0.0 0.0 
5.000000000000e+01 -1.000000000000e+01 0.0 
0.0 -2.000000000000e+01 0.0 
5.000000000000e+01 -2.000000000000e+01 0.0 
0.0 -9.999999999991e-01 0.0 
0.0 -1.999999999998e+00 0.0 
0.0 -2.999999999997e+00 0.0 
0.0 -3.999999999994e+00 0.0 
0.0 -4.999999999991e+00 0.0 
0.0 -5.999999999988e+00 0.0 
0.0 -6.999999999985e+00 0.0 
0.0 -7.999999999982e+00 0.0 
0.0 -8.999999999983e+00 0.0 
0.0 -9.999999999985e+00 0.0 
0.0 -1.099999999999e+01 0.0 
0.0 -1.199999999999e+01 0.0 
0.0 -1.299999999999e+01 0.0 
0.0 -1.399999999999e+01 0.0 
0.0 -1.499999999999e+01 0.0 
0.0 -1.599999999999e+01 0.0 
0.0 -1.700000000000e+01 0.0 
0.0 -1.800000000000e+01 0.0 
0.0 -1.900000000000e+01 0.0 
4.900000000001e+01 -2.000000000000e+01 0.0 
4.800000000001e+01 -2.000000000000e+01 0.0 
4.700000000002e+01 -2.000000000000e+01 0.0 
4.600000000003e+01 -2.000000000000e+01 0.0 
4.500000000004e+01 -2.000000000000e+01 0.0 
4.400000000004e+01 -2.000000000000e+01 0.0 
4.300000000005e+01 -2.000000000000e+01 0.0 
4.200000000006e+01 -2.000000000000e+01 0.0 
4.100000000006e+01 -2.000000000000e+01 0.0 
4.000000000007e+01 -2.000000000000e+01 0.0 
3.900000000008e+01 -2.000000000000e+01 0.0 
3.800000000009e+01 -2.000000000000e+01 0.0 
3.700000000009e+01 -2.000000000000e+01 0.0 
3.600000000010e+01 -2.000000000000e+01 0.0 
3.500000000011e+01 -2.000000000000e+01 0.0 
3.400000000011e+01 -2.000000000000e+01 0.0 
3.300000000012e+01 -2.000000000000e+01 0.0 
3.200000000013e+01 -2.000000000000e+01 0.0 
3.100000000013e+01 -2.000000000000e+01 0.0 
3.000000000013e+01 -2.000000000000e+01 0.0 
2.900000000013e+01 -2.000000000000e+01 0.0 
2.800000000013e+01 -2.000000000000e+01 0.0 
2.700000000013e+01 -2.000000000000e+01 0.0 
2.600000000013e+01 -2.000000000000e+01 0.0 
2.500000000013e+01 -2.000000000000e+01 0.0 
2.400000000013e+01 -2.000000000000e+01 0.0 
2.300000000013e+01 -2.000000000000e+01 0.0 
2.200000000013e+01 -2.000000000000e+01 0.0 
2.100000000013e+01 -2.000000000000e+01 0.0 
2.000000000013e+01 -2.000000000000e+01 0.0 
1.900000000013e+01 -2.000000000000e+01 0.0 
1.800000000013e+01 -2.000000000000e+01 0.0 
1.700000000012e+01 -2.000000000000e+01 0.0 
1.600000000011e+01 -2.000000000000e+01 0.0 
1.500000000011e+01 -2.000000000000e+01 0.0 
1.400000000010e+01 -2.000000000000e+01 0.0 
1.300000000009e+01 -2.000000000000e+01 0.0 
1.200000000009e+01 -2.000000000000e+01 0.0 
1.100000000008e+01 -2.000000000000e+01 0.0 
1.000000000007e+01 -2.000000000000e+01 0.0 
9.000000000064e+00 -2.000000000000e+01 0.0 
8.000000000057e+00 -2.000000000000e+01 0.0 
7.000000000050e+00 -2.000000000000e+01 0.0 
6.000000000043e+00 -2.000000000000e+01 0.0 
5.000000000036e+00 -2.000000000000e+01 0.0 
4.000000000028e+00 -2.000000000000e+01 0.0 
3.000000000021e+00 -2.000000000000e+01 0.0 
2.000000000014e+00 -2.000000000000e+01 0.0 
1.000000000007e+00 -2.000000000000e+01 0.0 
5.000000000000e+01 -1.100000000000e+01 0.0 
5.000000000000e+01 -1.200000000000e+01 0.0 
5.000000000000e+01 -1.300000000000e+01 0.0 
5.000000000000e+01 -1.400000000000e+01 0.0 
5.000000000000e+01 -1.500000000000e+01 0.0 
5.000000000000e+01 -1.600000000000e+01 0.0 
5.000000000000e+01 -1.700000000000e+01 0.0 
5.000000000000e+01 -1.800000000000e+01 0.0 
5.000000000000e+01 -1.900000000000e+01 0.0 
2.000000000000e+01 0.0 0.0 
3.500000000000e+01 -1.000000000000e+01 0.0 
2.150000000000e+01 -1.000000000000e+00 0.0 
2.300000000000e+01 -2.000000000000e+00 0.0 
2.450000000000e+01 -3.000000000000e+00 0.0 
2.600000000000e+01 -4.000000000000e+00 0.0 
2.750000000000e+01 -5.000000000000e+00 0.0 
2.900000000000e+01 -6.000000000000e+00 0.0 
3.050000000000e+01 -7.000000000000e+00 0.0 
3.200000000000e+01 -8.000000000000e+00 0.0 
3.350000000000e+01 -9.000000000000e+00 0.0 
5.000000000000e+01 -8.000000000000e+00 0.0 
5.000000000000e+01 -9.000000000000e+00 0.0 
4.900000000000e+01 -1.000000000000e+01 0.0 
4.800000000000e+01 -1.000000000000e+01 0.0 
4.700000000000e+01 -1.000000000000e+01 0.0 
4.600000000000e+01 -1.000000000000e+01 0.0 
4.500000000000e+01 -1.000000000000e+01 0.0 
4.400000000000e+01 -1.000000000000e+01 0.0 
4.300000000000e+01 -1.000000000000e+01 0.0 
4.200000000000e+01 -1.000000000000e+01 0.0 
4.100000000000e+01 -1.000000000000e+01 0.0 
4.000000000000e+01 -1.000000000000e+01 0.0 
3.900000000000e+01 -1.000000000000e+01 0.0 
3.800000000000e+01 -1.000000000000e+01 0.0 
3.700000000000e+01 -1.000000000000e+01 0.0 
3.600000000000e+01 -1.000000000000e+01 0.0 
1.900000000000e+01 0.0 0.0 
1.800000000000e+01 0.0 0.0 
1.700000000000e+01 0.0 0.0 
1.600000000000e+01 0.0 0.0 
1.500000000000e+01 0.0 0.0 
1.400000000000e+01 0.0 0.0 
1.300000000000e+01 0.0 0.0 
1.200000000000e+01 0.0 0.0 
1.100000000000e+01 0.0 0.0 
1.000000000000e+01 0.0 0.0 
9.000000000000e+00 0.0 0.0 
8.000000000000e+00 0.0 0.0 
7.000000000000e+00 0.0 0.0 
6.000000000000e+00 0.0 0.0 
5.000000000000e+00 0.0 0.0 
4.000000000000e+00 0.0 0.0 
3.000000000000e+00 0.0 0.0 
2.000000000000e+00 0.0 0.0 
1.000000000000e+00 0.0 0.0 
4.900000000000e+01 -8.000000000000e+00 0.0 
4.800000000000e+01 -8.000000000000e+00 0.0 
4.700000000000e+01 -8.000000000000e+00 0.0 
4.600000000000e+01 -8.000000000000e+00 0.0 
4.500000000000e+01 -8.000000000000e+00 0.0 
4.400000000000e+01 -8.000000000000e+00 0.0 
4.300000000000e+01 -8.000000000000e+00 0.0 
4.200000000000e+01 -8.000000000000e+00 0.0 
4.100000000000e+01 -8.000000000000e+00 0.0 
4.000000000000e+01 -8.000000000000e+00 0.0 
3.900000000000e+01 -8.000000000000e+00 0.0 
3.800000000000e+01 -8.000000000000e+00 0.0 
3.700000000000e+01 -8.000000000000e+00 0.0 
3.600000000000e+01 -8.000000000000e+00 0.0 
3.500000000000e+01 -8.000000000000e+00 0.0 
3.400000000000e+01 -8.000000000000e+00 0.0 
3.300000000000e+01 -8.000000000000e+00 0.0 
3.447058823527e+01 -9.000000000000e+00 0.0 
3.544117647055e+01 -9.000000000000e+00 0.0 
3.641176470582e+01 -9.000000000000e+00 0.0 
3.738235294109e+01 -9.000000000000e+00 0.0 
3.835294117637e+01 -9.000000000000e+00 0.0 
3.932352941164e+01 -9.000000000000e+00 0.0 
4.029411764691e+01 -9.000000000000e+00 0.0 
4.126470588219e+01 -9.000000000000e+00 0.0 
4.223529411748e+01 -9.000000000000e+00 0.0 
4.320588235279e+01 -9.000000000000e+00 0.0 
4.417647058811e+01 -9.000000000000e+00 0.0 
4.514705882342e+01 -9.000000000000e+00 0.0 
4.611764705874e+01 -9.000000000000e+00 0.0 
4.708823529405e+01 -9.000000000000e+00 0.0 
4.805882352937e+01 -9.000000000000e+00 0.0 
4.902941176468e+01 -9.000000000000e+00 0.0 
2.075000000000e+01 -5.000000000006e-01 0.0 
2.225000000000e+01 -1.500000000000e+00 0.0 
2.375000000000e+01 -2.500000000000e+00 0.0 
2.525000000000e+01 -3.500000000000e+00 0.0 
2.675000000000e+01 -4.500000000000e+00 0.0 
2.825000000000e+01 -5.500000000000e+00 0.0 
2.975000000000e+01 -6.500000000000e+00 0.0 
3.125000000000e+01 -7.500000000000e+00 0.0 
3.275000000000e+01 -8.500000000000e+00 0.0 
3.425000000000e+01 -9.500000000000e+00 0.0 
2.226951693683e+01 -2.403913980114e+00 0.0 
1.650149491944e+01 -1.913490915758e+01 0.0 
1.050042386896e+01 -8.504605092970e-01 0.0 
1.553146524712e+01 -8.281255032105e-01 0.0 
1.150000000008e+01 -1.913397459621e+01 0.0 
2.530060260647e+01 -4.428336431260e+00 0.0 
8.651114563942e-01 -1.052096295641e+01 0.0 
2.050000000013e+01 -1.913397459622e+01 0.0 
2.819198729811e+01 -6.399519052838e+00 0.0 
2.445670302931e+01 -1.915649188023e+01 0.0 
3.117591465718e+01 -8.394293040695e+00 0.0 
7.465053044742e+00 -1.920411160581e+01 0.0 
6.398295709691e+00 -8.230098819370e-01 0.0 
2.849659607461e+01 -1.914296187762e+01 0.0 
3.418732642882e+01 -1.040265792588e+01 0.0 
8.386450935063e-01 -6.533605142809e+00 0.0 
9.178661865596e-01 -1.329769195597e+01 0.0 
3.149448624493e+01 -1.910466733764e+01 0.0 
3.552916747426e+01 -1.914628590759e+01 0.0 
4.449210346537e+01 -1.914359085008e+01 0.0 
4.140975975145e+01 -1.906941860733e+01 0.0 
3.847475958753e+01 -1.916622382724e+01 0.0 
3.653774794640e+01 -1.088712800241e+01 0.0 
4.047886341787e+01 -1.090139014048e+01 0.0 
4.348006339825e+01 -1.092792621489e+01 0.0 
4.919519968029e+01 -1.451526755068e+01 0.0 
4.500000000032e+00 -1.913397459621e+01 0.0 
1.856136921614e+01 -8.212235170404e-01 0.0 
3.499895312306e+00 -8.661165539723e-01 0.0 
9.076088696565e-01 -1.642306201891e+01 0.0 
4.655174095477e+01 -1.086183387525e+01 0.0 
9.430688970604e-01 -3.496112672958e+00 0.0 
3.353992337063e+01 -1.901202090820e+01 0.0 
2.249746016977e+01 -1.921262287282e+01 0.0 
2.650122741777e+01 -1.916123026018e+01 0.0 
1.863571384842e+01 -1.908325534840e+01 0.0 
1.450089971693e+01 -1.917691901860e+01 0.0 
1.350044695317e+01 -8.659695299584e-01 0.0 
3.849987469880e+01 -1.084154983397e+01 0.0 
9.454419857884e+00 -1.900818879936e+01 0.0 
4.917398660523e+01 -1.645692866081e+01 0.0 
8.500000000000e+00 -8.660254037844e-01 0.0 
8.660319230785e-01 -8.500111697188e+00 0.0 
4.649022621545e+01 -1.930506220113e+01 0.0 
2.667688107845e+01 -5.420288124331e+00 0.0 
2.379251615665e+01 -3.412225477429e+00 0.0 
2.966631491830e+01 -7.389030232731e+00 0.0 
3.267915035995e+01 -9.396934932445e+00 0.0 
2.074836922338e+01 -1.320054020319e+00 0.0 
4.915985743621e+01 -1.261973384855e+01 0.0 
2.527129768623e+00 -1.931592414663e+01 0.0 
1.538676247410e+00 -8.436956619311e-01 0.0 
4.908096641539e+01 -1.842484004551e+01 0.0 
3.478612492673e+01 -1.090889364140e+01 0.0 
3.409757055860e+01 -1.131991530427e+01 0.0 
3.501895309466e+01 -1.177687842717e+01 0.0 
3.407758073088e+01 -1.224293381580e+01 0.0 
3.484541875390e+01 -1.277051428430e+01 0.0 
3.400322025842e+01 -1.319022775640e+01 0.0 
3.321672625034e+01 -1.266779191233e+01 0.0 
3.315244139236e+01 -1.360984106532e+01 0.0 
3.236335186892e+01 -1.308463225210e+01 0.0 
3.478337442841e+01 -1.372341158982e+01 0.0 
3.230105923633e+01 -1.403023731610e+01 0.0 
3.150954055289e+01 -1.350301767700e+01 0.0 
3.144604792090e+01 -1.444931742516e+01 0.0 
3.065653897123e+01 -1.392357262981e+01 0.0 
3.071897610812e+01 -1.297447031198e+01 0.0 
2.986790411740e+01 -1.339226181535e+01 0.0 
2.993181466745e+01 -1.244703272398e+01 0.0 
2.908023061869e+01 -1.286254537734e+01 0.0 
2.901619051372e+01 -1.380881655279e+01 0.0 
2.822986160390e+01 -1.327695262116e+01 0.0 
2.829453476870e+01 -1.233265343811e+01 0.0 
2.744542905518e+01 -1.274510491105e+01 0.0 
2.751120089246e+01 -1.180368086886e+01 0.0 
2.666218649885e+01 -1.221619339205e+01 0.0 
2.672371209234e+01 -1.127125228527e+01 0.0 
2.587763216302e+01 -1.168539979114e+01 0.0 
2.581165585299e+01 -1.262994410089e+01 0.0 
2.502890882577e+01 -1.209827323619e+01 0.0 
2.509631327757e+01 -1.115492410304e+01 0.0 
2.424662989877e+01 -1.156630981079e+01 0.0 
2.431704046904e+01 -1.062389179334e+01 0.0 
2.346445438728e+01 -1.103427680694e+01 0.0 
2.339382552877e+01 -1.197964871788e+01 0.0 
2.260936050780e+01 -1.144513277642e+01 0.0 
2.268075012022e+01 -1.049911928216e+01 0.0 
2.182525737661e+01 -1.090920811464e+01 0.0 
2.189682319817e+01 -9.961716944568e+00 0.0 
2.104174127792e+01 -1.037266986667e+01 0.0 
2.111304367575e+01 -9.424179358711e+00 0.0 
2.025306185381e+01 -9.832727364719e+00 0.0 
2.018141124247e+01 -1.079140628871e+01 0.0 
1.938594498257e+01 -1.025147354112e+01 0.0 
1.946106490453e+01 -9.288010758448e+00 0.0 
1.858929958352e+01 -9.706319802516e+00 0.0 
1.851540991219e+01 -1.067205988724e+01 0.0 
1.771485303178e+01 -1.012504443115e+01 0.0 
1.764134552256e+01 -1.109360378538e+01 0.0 
1.683745148095e+01 -1.054496365337e+01 0.0 
1.691852964353e+01 -9.582555261178e+00 0.0 
1.603603813062e+01 -1.000160132379e+01 0.0 
1.595824239350e+01 -1.096750698862e+01 0.0 
1.515080624291e+01 -1.041639501931e+01 0.0 
1.523171602559e+01 -9.451711491453e+00 0.0 
1.434621060709e+01 -9.871956467464e+00 0.0 
1.426777178765e+01 -1.083749501371e+01 0.0 
1.345775282374e+01 -1.028803175500e+01 0.0 
1.354103873368e+01 -9.324918457162e+00 0.0 
1.265072018622e+01 -9.742612837270e+00 0.0 
1.257285762070e+01 -1.071557782384e+01 0.0 
1.175874815690e+01 -1.015972324288e+01 0.0 
1.184203019714e+01 -9.193604071377e+00 0.0 
1.094927709905e+01 -9.612103238656e+00 0.0 
1.086938022910e+01 -1.058685085646e+01 0.0 
1.005424098961e+01 -1.002939116380e+01 0.0 
9.977974613295e+00 -1.101324897989e+01 0.0 
1.012915646404e+01 -9.051815821181e+00 0.0 
9.237127782494e+00 -9.471239055559e+00 0.0 
9.308426593771e+00 -8.483376461131e+00 0.0 
8.418806073345e+00 -8.910712374517e+00 0.0 
2.253688464062e+01 -1.239459402279e+01 0.0 
8.495126726666e+00 -7.921646665254e+00 0.0 
9.389727383206e+00 -7.512103628377e+00 0.0 
7.601560812974e+00 -8.349460349344e+00 0.0 
7.525680547759e+00 -9.339736686940e+00 0.0 
7.677888324502e+00 -7.359727833346e+00 0.0 
6.782001206724e+00 -7.788454494773e+00 0.0 
6.858778622885e+00 -6.797338062822e+00 0.0 
2.196596590865e+01 -8.979025665442e+00 0.0 
2.816540108272e+01 -1.422634142353e+01 0.0 
5.961601194403e+00 -7.226824010712e+00 0.0 
6.038171749656e+00 -6.234825887079e+00 0.0 
6.936257279557e+00 -5.805287640737e+00 0.0 
6.115068918323e+00 -5.242109758768e+00 0.0 
3.564391741903e+01 -1.329240553876e+01 0.0 
3.558115605778e+01 -1.425902892003e+01 0.0 
3.645445282201e+01 -1.381970786460e+01 0.0 
3.639744204358e+01 -1.479198128612e+01 0.0 
3.727266909778e+01 -1.435399586226e+01 0.0 
5.216667013081e+00 -5.671788584287e+00 0.0 
3.220697293295e+01 -1.499594545107e+01 0.0 
3.551112158269e+01 -1.523479869250e+01 0.0 
2.836056961467e+01 -1.139032434851e+01 0.0 
2.516730388602e+01 -1.021382726837e+01 0.0 
1.844436907403e+01 -1.164097215196e+01 0.0 
5.885434318740e+00 -8.218694781467e+00 0.0 
5.064071066867e+00 -7.656614643901e+00 0.0 
4.988089103470e+00 -8.649722082718e+00 0.0 
1.079421050408e+01 -1.157014985435e+01 0.0 
9.902420005256e+00 -1.199903342656e+01 0.0 
1.071994252214e+01 -1.255727909771e+01 0.0 
9.826974788171e+00 -1.298659581767e+01 0.0 
1.064607883789e+01 -1.354595476388e+01 0.0 
9.751541265343e+00 -1.397556905071e+01 0.0 
8.932296185869e+00 -1.341553353988e+01 0.0 
8.856399248106e+00 -1.440570715508e+01 0.0 
8.036186803543e+00 -1.384470558472e+01 0.0 
1.057112875118e+01 -1.453516759081e+01 0.0 
1.146582585687e+01 -1.410539926903e+01 0.0 
7.959894480382e+00 -1.483563350928e+01 0.0 
7.138792279156e+00 -1.427465094140e+01 0.0 
7.062506792418e+00 -1.526615385482e+01 0.0 
6.240693558277e+00 -1.470508863040e+01 0.0 
6.316957575451e+00 -1.371212581281e+01 0.0 
5.418183007107e+00 -1.414253605022e+01 0.0 
5.494748364428e+00 -1.314886770603e+01 0.0 
1.756825565873e+01 -1.206433872514e+01 0.0 
1.837565773345e+01 -1.261356468266e+01 0.0 
1.749574831391e+01 -1.303769280014e+01 0.0 
1.830539187332e+01 -1.358828364284e+01 0.0 
1.742278925170e+01 -1.401367746928e+01 0.0 
1.823303007798e+01 -1.456432294258e+01 0.0 
1.734941694138e+01 -1.499213734361e+01 0.0 
1.653760041637e+01 -1.443920312098e+01 0.0 
3.056237977307e+01 -1.487132260174e+01 0.0 
1.866469084762e+01 -8.742953000418e+00 0.0 
1.953669694916e+01 -8.326038909849e+00 0.0 
1.874194303780e+01 -7.780688158966e+00 0.0 
1.961032016741e+01 -7.366854697285e+00 0.0 
1.881715755159e+01 -6.821102209649e+00 0.0 
1.968369797150e+01 -6.407747217358e+00 0.0 
1.889237123259e+01 -5.858375520026e+00 0.0 
1.802038875366e+01 -6.276202618170e+00 0.0 
1.809793837984e+01 -5.307629520489e+00 0.0 
1.721985207997e+01 -5.728242054488e+00 0.0 
1.729850893523e+01 -4.756990819347e+00 0.0 
1.641745664240e+01 -5.174636548624e+00 0.0 
2.495978509456e+01 -1.304406404294e+01 0.0 
1.911567814831e+01 -1.413854250293e+01 0.0 
1.904387332608e+01 -1.511463127723e+01 0.0 
1.992115934240e+01 -1.468788025898e+01 0.0 
7.013706899628e+00 -4.812582868662e+00 0.0 
5.342091874585e+00 -1.513658157269e+01 0.0 
1.139098043784e+01 -1.509488509480e+01 0.0 
1.228151810610e+01 -1.465617481983e+01 0.0 
1.646373110164e+01 -1.541993323337e+01 0.0 
5.293328636712e+00 -4.678385108584e+00 0.0 
1.975965862987e+01 -5.448124345648e+00 0.0 
2.054318374236e+01 -5.992561293251e+00 0.0 
3.721453439063e+01 -1.533216152738e+01 0.0 
3.809302733893e+01 -1.489235527381e+01 0.0 
1.220852788900e+01 -1.565304565230e+01 0.0 
4.394120899730e+00 -5.108397613210e+00 0.0 
8.779354620288e+00 -1.539524721159e+01 0.0 
1.817791047702e+01 -4.338570146253e+00 0.0 
4.518860013839e+00 -1.457343189307e+01 0.0 
4.442712140414e+00 -1.556841391069e+01 0.0 
8.115343466391e+00 -1.285760324283e+01 0.0 
1.985334703171e+01 -1.566478400426e+01 0.0 
2.071953850276e+01 -1.522074243119e+01 0.0 
1.634012953883e+01 -6.154777738301e+00 0.0 
1.553479994708e+01 -5.593730508879e+00 0.0 
1.561265946942e+01 -4.617761762647e+00 0.0 
1.470674212978e+01 -5.064576488228e+00 0.0 
1.464498299883e+01 -6.026514471420e+00 0.0 
1.383271561817e+01 -5.467796261169e+00 0.0 
1.389241253067e+01 -4.504338666645e+00 0.0 
1.301868735463e+01 -4.907185188626e+00 0.0 
1.294514184846e+01 -5.888160903592e+00 0.0 
1.212955968622e+01 -5.328262335277e+00 0.0 
1.220721122383e+01 -4.341264976687e+00 0.0 
1.131324345897e+01 -4.766773516508e+00 0.0 
5.266597955397e+00 -1.613148974258e+01 0.0 
1.737805990867e+01 -3.786677807525e+00 0.0 
3.078438094513e+01 -1.203225297748e+01 0.0 
1.131569882285e+01 -1.608511932110e+01 0.0 
1.728478341782e+01 -1.596017432313e+01 0.0 
3.803465906019e+01 -1.587509751228e+01 0.0 
3.891681276677e+01 -1.543395196905e+01 0.0 
3.897340985302e+01 -1.444710288980e+01 0.0 
3.980095968193e+01 -1.499059496613e+01 0.0 
3.974334598189e+01 -1.597921884150e+01 0.0 
4.062964983717e+01 -1.553518690417e+01 0.0 
4.068729602479e+01 -1.454434445295e+01 0.0 
4.151772679790e+01 -1.508974196007e+01 0.0 
4.157505195739e+01 -1.409694289912e+01 0.0 
4.240699932656e+01 -1.464347955968e+01 0.0 
4.234898051011e+01 -1.563721375790e+01 0.0 
4.323934606035e+01 -1.519082036405e+01 0.0 
4.329740528208e+01 -1.419587509788e+01 0.0 
4.413056841369e+01 -1.474359631875e+01 0.0 
4.418850110108e+01 -1.374786684042e+01 0.0 
4.502219770667e+01 -1.429605103525e+01 0.0 
4.496411937907e+01 -1.529215882720e+01 0.0 
4.490027319897e+00 -4.154167794594e+00 0.0 
1.565080385988e+01 -1.486411982419e+01 0.0 
1.557610691279e+01 -1.584855627870e+01 0.0 
4.195350646612e+00 -8.089117689096e+00 0.0 
4.124027797830e+00 -9.082831955007e+00 0.0 
4.917944318925e+00 -9.643530901533e+00 0.0 
4.020105689502e+00 -1.007439673661e+01 0.0 
4.587185899277e+01 -1.484039992728e+01 0.0 
4.580078661551e+01 -1.584043391042e+01 0.0 
2.061956522375e+01 -5.046701343981e+00 0.0 
2.139572955529e+01 -5.579553449826e+00 0.0 
3.715344357292e+01 -1.631485124583e+01 0.0 
3.618886196443e+00 -1.500471207167e+01 0.0 
3.695606940204e+00 -1.400939692294e+01 0.0 
2.438890661143e+01 -9.686110599723e+00 0.0 
2.523267572778e+01 -9.276766000622e+00 0.0 
2.446094171539e+01 -8.751904591412e+00 0.0 
2.529089822738e+01 -8.321495612547e+00 0.0 
2.606882688827e+01 -8.864724051119e+00 0.0 
2.452116646430e+01 -7.792756462004e+00 0.0 
1.235543269617e+01 -1.365845617339e+01 0.0 
4.318116874181e+01 -1.618567469992e+01 0.0 
7.835066111909e+00 -5.376366223896e+00 0.0 
7.905687335704e+00 -4.382539065697e+00 0.0 
3.542640009567e+00 -1.600035116542e+01 0.0 
1.572431503071e+01 -1.388358386695e+01 0.0 
2.574684696680e+01 -1.357896141127e+01 0.0 
2.488842657651e+01 -1.399674354505e+01 0.0 
2.568301775611e+01 -1.453552048595e+01 0.0 
2.481535572009e+01 -1.495542756508e+01 0.0 
2.561729699688e+01 -1.549784648532e+01 0.0 
2.474623061296e+01 -1.592058894178e+01 0.0 
2.394234041695e+01 -1.537572575827e+01 0.0 
2.065825452567e+01 -1.621899055217e+01 0.0 
2.387180528935e+01 -1.634552264687e+01 0.0 
4.585364400844e+01 -1.383912334080e+01 0.0 
1.998744432052e+01 -1.370317155541e+01 0.0 
1.205356951443e+01 -6.313580285498e+00 0.0 
5.396543905849e+00 -3.731818611283e+00 0.0 
1.139652573295e+01 -3.745819399350e+00 0.0 
3.574124306703e+00 -4.551456826011e+00 0.0 
3.494140761930e+00 -5.539787055649e+00 0.0 
1.213651452413e+01 -1.664505033022e+01 0.0 
2.555045568519e+01 -1.646529356744e+01 0.0 
2.641671114986e+01 -1.603899382371e+01 0.0 
2.612920721894e+01 -7.906435260873e+00 0.0 
2.690339829698e+01 -8.456969591431e+00 0.0 
1.978024383368e+01 -1.664410216353e+01 0.0 
3.732829979082e+01 -1.336926601859e+01 0.0 
4.074336584605e+01 -1.355133328401e+01 0.0 
4.163204691081e+01 -1.310280943992e+01 0.0 
3.773826114429e+00 -3.493444309145e+00 0.0 
1.228783001032e+01 -3.374822835872e+00 0.0 
4.057110462520e+01 -1.652588478000e+01 0.0 
2.132535497898e+01 -6.523623360525e+00 0.0 
2.216932532211e+01 -6.110044769206e+00 0.0 
1.825781152128e+01 -3.370146817147e+00 0.0 
1.745679445888e+01 -2.812942552063e+00 0.0 
4.666517057280e+01 -1.539981381543e+01 0.0 
4.660575894464e+01 -1.639014410186e+01 0.0 
4.838230979954e+00 -1.063643436446e+01 0.0 
3.938942630206e+00 -1.106778981745e+01 0.0 
1.302967218620e+01 -1.621373452436e+01 0.0 
1.049548003190e+01 -4.204825123240e+00 0.0 
4.573571907195e+01 -1.683820511148e+01 0.0 
1.483686335807e+01 -1.430849689310e+01 0.0 
1.490982658890e+01 -1.332679386284e+01 0.0 
3.190805600162e+00 -9.510968358545e+00 0.0 
2.146625721848e+01 -4.642437303115e+00 0.0 
2.069866208266e+01 -4.111852942193e+00 0.0 
1.286859345584e+01 -6.873252723348e+00 0.0 
1.041794493184e+01 -5.194814260291e+00 0.0 
2.671081808965e+00 -4.976806516331e+00 0.0 
1.295786792925e+01 -1.720506531799e+01 0.0 
3.968438206511e+01 -1.696869067241e+01 0.0 
2.308550456051e+01 -1.579963151273e+01 0.0 
2.315593682844e+01 -1.482967445235e+01 0.0 
2.299471449450e+01 -1.677069968132e+01 0.0 
1.057344714696e+01 -3.214252277840e+00 0.0 
1.124057603753e+01 -1.707713739755e+01 0.0 
2.718402535754e+00 -1.543629882103e+01 0.0 
2.638549692805e+01 -1.696744916809e+01 0.0 
2.723416349007e+01 -1.658104204545e+01 0.0 
2.210193351704e+01 -7.046769643417e+00 0.0 
2.295180925161e+01 -6.657397605239e+00 0.0 
2.301355235833e+01 -5.709111896800e+00 0.0 
2.379052718281e+01 -6.254965406962e+00 0.0 
3.243528601237e+01 -1.214181853533e+01 0.0 
2.287977995457e+01 -7.583722368300e+00 0.0 
2.999876029544e+01 -1.150837653096e+01 0.0 
3.084435366963e+01 -1.109693775882e+01 0.0 
3.006650579669e+01 -1.057778994262e+01 0.0 
2.683802665066e+01 -9.386863216633e+00 0.0 
2.768641973621e+01 -8.988883915666e+00 0.0 
2.040296980397e+01 -7.903629133404e+00 0.0 
1.925235024054e+01 -1.218872783130e+01 0.0 
5.735667000424e+00 -1.020577277283e+01 0.0 
6.396559909872e+00 -1.272326295703e+01 0.0 
1.161199420714e+01 -1.212812778229e+01 0.0 
4.229046132615e+01 -1.663084237572e+01 0.0 
4.312275399692e+01 -1.718087491556e+01 0.0 
4.335502068163e+01 -1.320039231514e+01 0.0 
4.424630298089e+01 -1.275160688731e+01 0.0 
7.090116643816e+00 -3.818998061530e+00 0.0 
7.989472176569e+00 -3.389238711200e+00 0.0 
9.085824861778e+00 -1.144036167408e+01 0.0 
1.041972423731e+01 -1.651614080893e+01 0.0 
3.797525112640e+01 -1.686052038746e+01 0.0 
3.709114253394e+01 -1.730125999865e+01 0.0 
3.626966748340e+01 -1.675477052919e+01 0.0 
1.385164591440e+01 -1.677597757552e+01 0.0 
1.787152588784e+01 -8.198993896093e+00 0.0 
1.668849729812e+01 -1.248560611628e+01 0.0 
1.659546177905e+01 -3.232482605530e+00 0.0 
2.332214717345e+01 -1.292598167641e+01 0.0 
7.168238450786e+00 -2.824711686516e+00 0.0 
2.894878403906e+01 -1.475427524446e+01 0.0 
2.646763248247e+00 -1.643270107952e+01 0.0 
3.467431944285e+00 -1.699648837348e+01 0.0 
2.059475877282e+01 -1.719473628526e+01 0.0 
3.333868355437e+01 -1.080596971682e+01 0.0 
2.246451062637e+01 -1.334557761546e+01 0.0 
2.167821896388e+01 -1.280847834858e+01 0.0 
3.089653185767e+01 -1.017198487212e+01 0.0 
3.012604365669e+01 -9.657298805968e+00 0.0 
2.929627299435e+01 -1.006100135274e+01 0.0 
2.936201435219e+01 -9.136748899251e+00 0.0 
1.198219052702e+01 -7.291887238230e+00 0.0 
1.116702076035e+01 -6.731976101053e+00 0.0 
2.551388807505e+01 -1.746927036981e+01 0.0 
2.378639090370e+01 -1.728678807149e+01 0.0 
2.718543627188e+01 -1.748668016909e+01 0.0 
2.804681050301e+01 -1.712626668293e+01 0.0 
1.970737034667e+01 -1.762317646822e+01 0.0 
1.889535776135e+01 -1.707158098231e+01 0.0 
2.593777711283e+00 -5.971157087874e+00 0.0 
2.773468281110e+01 -8.067164273938e+00 0.0 
4.051205884347e+01 -1.751819982458e+01 0.0 
3.166903145421e+01 -1.068032992414e+01 0.0 
1.033042452886e+01 -1.748285844336e+01 0.0 
9.519274604626e+00 -1.694349240233e+01 0.0 
1.668308673328e+01 -2.255861778986e+00 0.0 
1.570531902832e+01 -2.676795860126e+00 0.0 
4.655826903379e+01 -1.736656245706e+01 0.0 
2.384148070773e+01 -5.328744256413e+00 0.0 
2.460255123641e+01 -5.852182672816e+00 0.0 
2.306638135119e+01 -4.798935440613e+00 0.0 
8.467720450578e-01 -1.849576263072e+01 0.0 
4.849657322345e+01 -1.084860705506e+01 0.0 
2.565860899507e+00 -1.742859793981e+01 0.0 
2.764418872564e+01 -9.927142821799e+00 0.0 
4.565165880064e+01 -1.785336695404e+01 0.0 
2.162231831329e+01 -1.376528337468e+01 0.0 
2.360646352969e+01 -9.136041963102e+00 0.0 
1.392738739903e+01 -1.578285505772e+01 0.0 
4.756405947478e+01 -1.683706841809e+01 0.0 
4.740895034054e+01 -1.793766756892e+01 0.0 
4.080779328826e+01 -1.257387192544e+01 0.0 
4.168907939671e+01 -1.210739129181e+01 0.0 
3.991197722154e+01 -1.300815793917e+01 0.0 
1.905536506762e+01 -3.940076697685e+00 0.0 
1.923879596617e+01 -2.875000734166e+00 0.0 
4.401386745746e+01 -1.673483229438e+01 0.0 
4.247233362525e+00 -7.094581653070e+00 0.0 
3.286051630211e+00 -7.635300020553e+00 0.0 
9.609533347623e+00 -4.594311677967e+00 0.0 
9.523554636369e+00 -5.595597029530e+00 0.0 
5.660336628893e+00 -1.119290329628e+01 0.0 
6.558070063295e+00 -1.076385809362e+01 0.0 
2.809866407414e+01 -1.518037766799e+01 0.0 
2.888868674504e+01 -1.570360690070e+01 0.0 
2.654431550819e+01 -1.411217777162e+01 0.0 
1.402158265969e+01 -1.375404617952e+01 0.0 
1.409592494026e+01 -1.277071998942e+01 0.0 
1.499355196178e+01 -1.235270737023e+01 0.0 
4.221535326155e+01 -1.759335617494e+01 0.0 
4.305583287033e+01 -1.822663146802e+01 0.0 
1.280748808359e+01 -7.834332838285e+00 0.0 
1.368988389326e+01 -7.420529606172e+00 0.0 
1.110091796060e+01 -7.683966794328e+00 0.0 
3.963446145980e+01 -1.794331310122e+01 0.0 
3.423932362213e+00 -1.796415590455e+01 0.0 
4.280814572302e+00 -1.752272834860e+01 0.0 
8.050136380041e+00 -2.421582378631e+00 0.0 
8.888674091650e+00 -2.984264211327e+00 0.0 
2.152839430898e+01 -3.732609965436e+00 0.0 
2.077799585292e+01 -3.183896021866e+00 0.0 
3.618719395821e+01 -1.770276572576e+01 0.0 
3.538165138340e+01 -1.718709995539e+01 0.0 
3.702925326420e+01 -1.828844288807e+01 0.0 
1.756739438711e+00 -5.353284859169e+00 0.0 
2.233710191104e+01 -1.527265621324e+01 0.0 
1.389483555057e+01 -1.771797164730e+01 0.0 
1.475634224300e+01 -1.728357428390e+01 0.0 
1.298797563052e+01 -1.825968924755e+01 0.0 
2.145331271866e+01 -1.673705379077e+01 0.0 
2.133282821169e+01 -1.769400773673e+01 0.0 
2.292139194136e+01 -1.774915400288e+01 0.0 
1.750750053243e+01 -1.861475593469e+00 0.0 
4.830478841772e+01 -1.752611802221e+01 0.0 
4.341203507805e+01 -1.220326745522e+01 0.0 
1.685254151866e+01 -1.443085301632e+00 0.0 
4.431538535165e+01 -1.171841387375e+01 0.0 
4.511308610496e+01 -1.229557320599e+01 0.0 
4.510133242889e+01 -1.123680627466e+01 0.0 
1.846818030617e+00 -4.410877617069e+00 0.0 
3.995468694584e+01 -1.186571542989e+01 0.0 
3.901387459804e+01 -1.242507616755e+01 0.0 
8.966735877533e+00 -1.837818700423e+00 0.0 
4.049310011091e+01 -1.848269508791e+01 0.0 
7.278862053803e+00 -1.918523922691e+00 0.0 
6.429715522129e+00 -2.316676521184e+00 0.0 
9.443505505022e+00 -1.792198868094e+01 0.0 
8.620386951051e+00 -1.737590365556e+01 0.0 
8.571868171503e+00 -1.834436667826e+01 0.0 
7.758629848526e+00 -1.775677907213e+01 0.0 
7.806648388584e+00 -1.680761266021e+01 0.0 
6.908555145436e+00 -1.723746463044e+01 0.0 
4.251709122090e+01 -1.156937480156e+01 0.0 
6.931136405615e+00 -1.832465719263e+01 0.0 
6.015545461353e+00 -1.768865355295e+01 0.0 
5.960535926343e+00 -1.872011001764e+01 0.0 
3.023253444786e+01 -8.761960642196e+00 0.0 
2.454622702599e+01 -6.749421992767e+00 0.0 
2.537499741604e+01 -6.347634963783e+00 0.0 
2.544077378460e+01 -5.431358513649e+00 0.0 
2.801367161747e+01 -1.820907270221e+01 0.0 
2.884507806914e+01 -1.762032095326e+01 0.0 
1.821474531936e+00 -1.588901260460e+01 0.0 
1.821006262604e+00 -1.489370287756e+01 0.0 
4.599962488908e+01 -1.176478780598e+01 0.0 
4.705457470007e+01 -1.172182804229e+01 0.0 
4.667668314802e+01 -1.263464558483e+01 0.0 
4.759648056504e+01 -1.252380987933e+01 0.0 
4.728041618103e+01 -1.341928568376e+01 0.0 
4.825209352360e+01 -1.330491640804e+01 0.0 
4.778118233428e+01 -1.420151961695e+01 0.0 
2.388192727579e+01 -1.826934810142e+01 0.0 
2.381714684947e+01 -4.385917965223e+00 0.0 
3.172733219247e+01 -9.758744265248e+00 0.0 
1.882012070658e+01 -1.805540597212e+01 0.0 
1.805667505243e+01 -1.742221226236e+01 0.0 
2.852599958080e+01 -8.597196079481e+00 0.0 
2.856486123437e+01 -7.661382718527e+00 0.0 
1.111792842875e+01 -1.818223852980e+01 0.0 
2.203322722466e+01 -7.986646678802e+00 0.0 
3.955703676900e+01 -1.903246763601e+01 0.0 
1.944842206513e+01 -8.038750575182e-01 0.0 
1.909882767783e+01 -1.746322740933e+00 0.0 
2.281147422941e+01 -8.525912918334e+00 0.0 
2.850633001468e+01 -9.533271335986e+00 0.0 
2.532883344309e+01 -7.308951659710e+00 0.0 
2.620475466461e+01 -6.979208585400e+00 0.0 
1.396278270396e+01 -1.475095389807e+01 0.0 
9.791001166724e+00 -2.554159793552e+00 0.0 
2.229293380421e+01 -4.269762271052e+00 0.0 
4.677238984118e+01 -1.430071795514e+01 0.0 
2.228658385918e+01 -3.344747535984e+00 0.0 
8.940223674553e-01 -1.543595733415e+01 0.0 
2.118566862474e+01 -8.435876987696e+00 0.0 
2.678325936437e+01 -1.032621195706e+01 0.0 
2.223400220487e+01 -5.179046761770e+00 0.0 
2.375370625384e+01 -7.251580562134e+00 0.0 
3.156971327386e+01 -1.255534750737e+01 0.0 
3.328226391312e+01 -1.172914813316e+01 0.0 
3.250948774219e+01 -1.120157009348e+01 0.0 
2.032993445717e+01 -8.867880112202e+00 0.0 
2.697226974856e+01 -7.536633082045e+00 0.0 
2.707377810386e+01 -6.590835263295e+00 0.0 
2.914099246827e+01 -1.191678458549e+01 0.0 
3.544824072239e+01 -1.621126558525e+01 0.0 
3.456511855436e+01 -1.665054783843e+01 0.0 
3.448395810225e+01 -1.759117813016e+01 0.0 
3.368378673938e+01 -1.708037781328e+01 0.0 
3.375560452567e+01 -1.610973066913e+01 0.0 
3.288001547988e+01 -1.654324255651e+01 0.0 
3.282475929147e+01 -1.749725654692e+01 0.0 
3.199880906313e+01 -1.697294088625e+01 0.0 
3.197001272932e+01 -1.811667776864e+01 0.0 
3.111884713021e+01 -1.742166785755e+01 0.0 
3.120418962865e+01 -1.642155709385e+01 0.0 
3.034666704371e+01 -1.683123833816e+01 0.0 
3.026224379976e+01 -1.772592851714e+01 0.0 
3.046632362943e+01 -1.582232843075e+01 0.0 
1.961344017324e+01 -1.857459447985e+01 0.0 
2.274975894774e+01 -9.532738811922e+00 0.0 
1.833923246887e+01 -2.396746883672e+00 0.0 
1.988859500848e+01 -2.249244376594e+00 0.0 
2.758045562861e+01 -1.086434261689e+01 0.0 
3.247300178163e+01 -1.909930104252e+01 0.0 
3.461947482503e+01 -1.911879848019e+01 0.0 
2.047161538662e+01 -6.941478180358e+00 0.0 
2.750230940214e+01 -1.915490590764e+01 0.0 
3.165081350803e+01 -1.161860780120e+01 0.0 
1.897456727641e+01 -4.889634688522e+00 0.0 
2.549338539756e+01 -1.914858252089e+01 0.0 
3.462873135081e+01 -1.567482276144e+01 0.0 
3.384432415243e+01 -1.512280684518e+01 0.0 
3.471433767690e+01 -1.469086942990e+01 0.0 
3.651470373046e+01 -1.918207952149e+01 0.0 
3.901742690249e+01 -1.345028556517e+01 0.0 
2.153224102692e+01 -1.920169709333e+01 0.0 
1.918382939341e+01 -1.316226275662e+01 0.0 
2.005389162382e+01 -1.271962165174e+01 0.0 
2.011472087878e+01 -1.175029352900e+01 0.0 
3.210679478412e+01 -1.598038618242e+01 0.0 
1.752175226543e+01 -1.914713022656e+01 0.0 
1.696897240059e+01 -1.832772588765e+01 0.0 
1.599682523337e+01 -1.832599992024e+01 0.0 
1.644507199462e+01 -1.743697981535e+01 0.0 
1.549987712903e+01 -1.915192375101e+01 0.0 
3.050250861901e+01 -1.918943550234e+01 0.0 
2.949944061527e+01 -1.922950455235e+01 0.0 
1.375892575273e+01 -6.447160534926e+00 0.0 
1.457223670180e+01 -7.006709243857e+00 0.0 
1.450818793236e+01 -7.965943451779e+00 0.0 
1.538804712402e+01 -7.553409623699e+00 0.0 
1.545817644768e+01 -6.580929593419e+00 0.0 
1.626506893751e+01 -7.129032608911e+00 0.0 
1.619833811522e+01 -8.086588580887e+00 0.0 
1.714448609609e+01 -6.697429609777e+00 0.0 
2.887616543568e+01 -1.668015232137e+01 0.0 
1.349814589130e+01 -1.918225301544e+01 0.0 
1.153887772210e+01 -1.311384581217e+01 0.0 
1.242708159886e+01 -1.267046795531e+01 0.0 
1.249799674267e+01 -1.169005616014e+01 0.0 
6.631723893693e+00 -9.774184881867e+00 0.0 
7.451471631867e+00 -1.033148796006e+01 0.0 
7.377795355458e+00 -1.132196345268e+01 0.0 
5.810931797536e+00 -9.211654212252e+00 0.0 
2.402683899133e+01 -1.441378562320e+01 0.0 
1.249768692036e+01 -1.917388426624e+01 0.0 
1.580373499437e+01 -1.290751860664e+01 0.0 
8.344650507834e+00 -9.898403995170e+00 0.0 
3.750622115305e+01 -1.086526401533e+01 0.0 
3.699391251667e+01 -1.171695900794e+01 0.0 
3.606517829518e+01 -1.173717504500e+01 0.0 
3.650257641795e+01 -1.270047380221e+01 0.0 
3.808951488918e+01 -1.183518714175e+01 0.0 
4.760380962420e+00 -1.162484888315e+01 0.0 
3.861210370848e+00 -1.205657631736e+01 0.0 
3.038284309476e+00 -1.149851280664e+01 0.0 
2.961598794889e+00 -1.248856794980e+01 0.0 
2.138953225512e+00 -1.193212674534e+01 0.0 
2.227383593457e+00 -1.096258903918e+01 0.0 
2.043265419276e+00 -1.292158472959e+01 0.0 
1.252449446028e+00 -1.225502002753e+01 0.0 
3.949985210740e+01 -1.086594001795e+01 0.0 
1.453499444792e+01 -8.768805922472e-01 0.0 
1.403518950933e+01 -1.749965556633e+00 0.0 
1.300715031023e+01 -1.714737233040e+00 0.0 
1.350929389899e+01 -2.527443911291e+00 0.0 
1.449600910711e+01 -2.595486162864e+00 0.0 
1.395693872901e+01 -3.484211041558e+00 0.0 
1.495105865208e+01 -3.364609636216e+00 0.0 
1.508822528740e+01 -1.766586020494e+00 0.0 
1.250223858430e+01 -8.634590186802e-01 0.0 
1.200279523409e+01 -1.709044504992e+00 0.0 
1.150086239419e+01 -8.592789190668e-01 0.0 
1.101482754194e+01 -1.677730591922e+00 0.0 
1.148018564526e+01 -2.659323866909e+00 0.0 
8.800552119754e+00 -3.989875954728e+00 0.0 
3.452790439430e+00 -1.901136170646e+01 0.0 
8.658451825200e-01 -9.503462241795e+00 0.0 
1.694787786797e+00 -9.000589234502e+00 0.0 
1.703436717094e+00 -8.038819004041e+00 0.0 
2.594197971110e+00 -8.563955242845e+00 0.0 
1.630513735412e+00 -9.907244747511e+00 0.0 
8.566859292791e-01 -7.512203837972e+00 0.0 
1.685461277022e+00 -7.164280248030e+00 0.0 
2.506394468801e+00 -8.623386730818e-01 0.0 
2.007475081581e+00 -1.727729545205e+00 0.0 
9.211534699767e-01 -1.628791366312e+00 0.0 
1.500000000020e+00 -2.598063549486e+00 0.0 
2.482078929963e+00 -2.553580088725e+00 0.0 
2.999795253092e+00 -1.732169015019e+00 0.0 
3.999712607169e+00 -1.728832897453e+00 0.0 
4.499752199340e+00 -8.656478679175e-01 0.0 
4.964377774841e+00 -1.730129617941e+00 0.0 
4.425017908337e+00 -2.597541756243e+00 0.0 
5.446573195014e+00 -8.410144840023e-01 0.0 
4.915722346614e+01 -1.550640962770e+01 0.0 
4.826794919243e+01 -1.600000000000e+01 0.0 
1.053139533193e+01 -1.911782884365e+01 0.0 
4.156049861949e+01 -1.095160998589e+01 0.0 
9.494526624416e+00 -8.650570090219e-01 0.0 
4.555762166964e+01 -1.897098103585e+01 0.0 
4.250656411371e+01 -1.914387356218e+01 0.0 
4.350906466345e+01 -1.917234727395e+01 0.0 
8.759665722424e-01 -1.746422130609e+01 0.0 
1.698936011838e+00 -1.795012186674e+01 0.0 
4.742476811029e+01 -1.900090177972e+01 0.0 
7.749196752349e+00 -6.368049313489e+00 0.0 
3.361572113416e+01 -1.798765193915e+01 0.0 
4.484660149212e+01 -1.728661231383e+01 0.0 
1.984038172228e+01 -4.502575320116e+00 0.0 
1.035080352627e+01 -6.166639575753e+00 0.0 
2.753558010652e+00 -1.444909521181e+01 0.0 
7.217069543032e+00 -1.328635391078e+01 0.0 
4.364336727739e+00 -1.655585677381e+01 0.0 
4.595208426108e+00 -1.357919665443e+01 0.0 
6.164967006980e+00 -1.569873454630e+01 0.0 
1.487855768353e+01 -1.826523774028e+01 0.0 
2.791876456372e+00 -4.019632415181e+00 0.0 
4.246464893515e+01 -1.364898659620e+01 0.0 
4.503855590351e+01 -1.329552780944e+01 0.0 
4.407239109604e+01 -1.573900004093e+01 0.0 
5.141054449252e+00 -6.664290382472e+00 0.0 
3.141083947149e+00 -1.055790764912e+01 0.0 
6.196463198741e+00 -4.256497932609e+00 0.0 
2.599618716181e+01 -1.836893455464e+01 0.0 
2.923057372337e+01 -1.098461757645e+01 0.0 
1.168343877486e+01 -1.114079645041e+01 0.0 
6.706222096238e+00 -8.780364234441e+00 0.0 
8.567858614669e+00 -6.943121440850e+00 0.0 
1.123755132901e+01 -5.753525820030e+00 0.0 
2.353456234423e+01 -1.008536320953e+01 0.0 
9.162073319168e+00 -1.045593739109e+01 0.0 
9.676343469685e+00 -1.496493008366e+01 0.0 
4.490637882905e+01 -1.628778970202e+01 0.0 
7.398129387772e+00 -9.639977982323e-01 0.0 
1.049641705805e+01 -1.552503975272e+01 0.0 
9.010356286268e+00 -1.242805042052e+01 0.0 
3.985573925497e+01 -1.399863651620e+01 0.0 
1.816196318262e+01 -1.554066497931e+01 0.0 
1.306332244168e+01 -3.963646550326e+00 0.0 
4.145850903932e+01 -1.608094559275e+01 0.0 
3.794664933633e+01 -1.779020121986e+01 0.0 
3.819614412903e+01 -1.290749321016e+01 0.0 
6.270014188119e+00 -3.255093186826e+00 0.0 
4.251165370388e+01 -1.263870364997e+01 0.0 
1.207347709171e+01 -1.763942826023e+01 0.0 
3.633240829927e+01 -1.577330481104e+01 0.0 
4.319052668832e+00 -6.101812561904e+00 0.0 
1.676492415806e+01 -1.151547901392e+01 0.0 
2.594059220037e+01 -1.074225223009e+01 0.0 
3.340750911501e+01 -9.898764354137e+00 0.0 
4.397619591281e+01 -1.769773736461e+01 0.0 
2.175611595028e+01 -1.185718747128e+01 0.0 
1.641818733106e+01 -1.640685203215e+01 0.0 
1.661211421753e+01 -1.346121366338e+01 0.0 
3.428853504935e+00 -6.551993389271e+00 0.0 
8.700728832502e+00 -1.638460872825e+01 0.0 
1.931369795309e+01 -1.121629383702e+01 0.0 
4.139798872363e+01 -1.706922153459e+01 0.0 
2.647837478700e+01 -1.507353829290e+01 0.0 
1.779469616424e+01 -9.161615782908e+00 0.0 
3.885879219319e+01 -1.642026488918e+01 0.0 
1.338194936770e+01 -1.125916521471e+01 0.0 
1.897071181111e+01 -1.609204322578e+01 0.0 
2.844308548793e+01 -1.046221003096e+01 0.0 
2.659854702194e+01 -1.316109415760e+01 0.0 
2.979604503271e+01 -1.433296157755e+01 0.0 
2.417694041347e+01 -1.251231397779e+01 0.0 
1.807401327411e+00 -1.388891148480e+01 0.0 
9.599810618782e+00 -1.595439365034e+01 0.0 
1.652144692160e+01 -4.205392788472e+00 0.0 
2.367839450246e+01 -8.188385218643e+00 0.0 
3.814894930468e+01 -1.390748338767e+01 0.0 
2.466448215774e+01 -1.685878545680e+01 0.0 
4.134044524611e+01 -1.806610045954e+01 0.0 
2.600511411958e+01 -9.801774120648e+00 0.0 
7.882158050716e+00 -1.582364037353e+01 0.0 
3.881607873422e+01 -1.737970515013e+01 0.0 
8.270182347708e+00 -1.088622154920e+01 0.0 
8.672520392520e-01 -4.532984309881e+00 0.0 
1.993447205337e+01 -3.579061902667e+00 0.0 
1.794616079549e+01 -7.238038888498e+00 0.0 
2.097277068165e+01 -1.132450168636e+01 0.0 
8.194803300681e+00 -1.187214224265e+01 0.0 
3.522279404911e+01 -1.823342818178e+01 0.0 
6.984481050295e+00 -1.625271465557e+01 0.0 
1.309433007797e+01 -1.521718594215e+01 0.0 
2.150246167611e+01 -1.885399038185e+00 0.0 
3.250689370209e+01 -1.028789870535e+01 0.0 
6.085886272238e+00 -1.668342132851e+01 0.0 
1.588455661727e+01 -1.193498985921e+01 0.0 
1.809323400821e+01 -1.651110084195e+01 0.0 
1.348885082381e+00 -1.136065576512e+01 0.0 
2.497670221995e+01 -1.834631276173e+01 0.0 
2.937062818424e+01 -8.233711194470e+00 0.0 
5.185823744469e+00 -1.711566910207e+01 0.0 
1.477497877209e+01 -1.530177014512e+01 0.0 
2.125346158933e+01 -7.473003997367e+00 0.0 
4.751561118290e+01 -1.084897772632e+01 0.0 
5.056026576843e+00 -1.825750475525e+01 0.0 
1.473948554523e+01 -1.634577436309e+01 0.0 
2.410566630936e+01 -1.345970002612e+01 0.0 
1.507337507513e+01 -1.138527895328e+01 0.0 
3.189857338687e+01 -8.887781229006e+00 0.0 
7.298712468334e+00 -1.230231046246e+01 0.0 
2.738235495295e+01 -1.368931690364e+01 0.0 
3.750141041969e+01 -1.920449893070e+01 0.0 
1.557271965640e+01 -1.683317951731e+01 0.0 
3.393731848929e+01 -1.413034777044e+01 0.0 
6.482156824153e+00 -1.174575135362e+01 0.0 
2.077971718439e+01 -1.421279621836e+01 0.0 
3.455084320178e+00 -2.562590040585e+00 0.0 
3.099056096250e+01 -9.270280416035e+00 0.0 
5.580176125418e+00 -1.217387969259e+01 0.0 
1.707247630389e+01 -7.660651981710e+00 0.0 
1.418658814174e+01 -1.180390575393e+01 0.0 
2.049103025389e+01 -1.811296706038e+01 0.0 
4.680386172316e+00 -1.260396879301e+01 0.0 
1.699679896554e+01 -8.624561788199e+00 0.0 
3.779470168555e+00 -1.303424899720e+01 0.0 
3.036589870126e+01 -7.879832518349e+00 0.0 
3.306993001774e+01 -1.457671062095e+01 0.0 
2.840150110165e+00 -1.346530088269e+01 0.0 
2.732011135052e+01 -1.464591214560e+01 0.0 
5.423639259568e+00 -2.659711955016e+00 0.0 
2.324455961696e+01 -1.387269388211e+01 0.0 
1.752768355571e+00 -1.693128613594e+01 0.0 
1.020244783051e+01 -8.076834012808e+00 0.0 
1.330873875224e+01 -1.222417528206e+01 0.0 
3.297727364880e+01 -1.555480372087e+01 0.0 
2.890929955439e+01 -6.868664170731e+00 0.0 
1.323294664622e+01 -1.320754260334e+01 0.0 
2.726532861246e+01 -1.560593120806e+01 0.0 
2.240020643398e+01 -1.429299177247e+01 0.0 
2.090445823633e+01 -1.228128621332e+01 0.0 
1.315809881502e+01 -1.420739326938e+01 0.0 
2.781328038068e+01 -7.181956082300e+00 0.0 
8.614200829057e+00 -5.936933226306e+00 0.0 
8.714765730069e+00 -4.979270529687e+00 0.0 
1.611881701099e+01 -9.041973294003e+00 0.0 
2.806830314340e+01 -1.614622947108e+01 0.0 
2.084435391396e+00 -3.385085422913e+00 0.0 
3.133211811152e+01 -1.542347619750e+01 0.0 
9.693114650768e+00 -3.590281506442e+00 0.0 
1.531883592202e+01 -8.504584946143e+00 0.0 
2.151589117094e+01 -1.578915763018e+01 0.0 
4.918943882696e+01 -1.355538828056e+01 0.0 
1.443236615188e+01 -8.918701794549e+00 0.0 
8.276250966452e-01 -5.537685192197e+00 0.0 
1.362790867918e+01 -8.374718262212e+00 0.0 
2.083767477370e+01 -1.324843956035e+01 0.0 
1.273834678703e+01 -8.790890389337e+00 0.0 
1.192275845670e+01 -8.242261327467e+00 0.0 
4.477236023583e+01 -1.824312396664e+01 0.0 
1.102989384254e+01 -8.649855800911e+00 0.0 
4.849096516045e+01 -1.917293752213e+01 0.0 
1.588996752238e+00 -1.910230934687e+01 0.0 
4.904245197583e+01 -1.159839008158e+01 0.0 
2.753852929608e+01 -5.782128488093e+00 0.0 
1.756133602833e+01 -8.306130313187e-01 0.0 
2.615423700951e+01 -6.153865090092e+00 0.0 
1.028818761294e+01 -7.122020845892e+00 0.0 
2.970818901196e+01 -1.527821347593e+01 0.0 
4.801461623449e+01 -1.164472570985e+01 0.0 
9.455722100419e+00 -6.546069291118e+00 0.0 
3.089099236677e+01 -1.835339328261e+01 0.0 
2.350000000013e+01 -1.920825896750e+01 0.0 
4.830620531887e+01 -1.506626155470e+01 0.0 
1.725381944701e+01 -1.688794487850e+01 0.0 
2.156246225273e+01 -1.475893794002e+01 0.0 
4.919319648787e+01 -1.742767505896e+01 0.0 
4.437935623576e+01 -1.077662927266e+01 0.0 
1.001520521978e+01 -1.652692675208e+00 0.0 
9.067160240050e-01 -1.441937727541e+01 0.0 
2.603365149390e+01 -4.755996613848e+00 0.0 
2.458344439002e+01 -4.873645517696e+00 0.0 
2.304312390142e+01 -3.836552768096e+00 0.0 
2.546923202198e+00 -6.902480355749e+00 0.0 
1.251534969393e+01 -2.490989965776e+00 0.0 
2.454061833377e+01 -3.933354231935e+00 0.0 
1.788186558740e+01 -1.827424884923e+01 0.0 
4.090785243552e+01 -1.166553231904e+01 0.0 
2.230128851568e+01 -1.623015738726e+01 0.0 
2.302362347568e+01 -2.916239960270e+00 0.0 
3.878119254461e+01 -1.830091164002e+01 0.0 
2.210081359958e+01 -1.829238229150e+01 0.0 
8.443704882233e+00 -1.921993252862e+01 0.0 
2.218405824691e+01 -1.724557581508e+01 0.0 
2.151157503963e+01 -2.790636689331e+00 0.0 
3.741658958955e+01 -1.250400191722e+01 0.0 
2.697247663737e+01 -1.838290202309e+01 0.0 
4.743362342862e+01 -1.585850773010e+01 0.0 
6.671345075358e+00 -1.924977576322e+01 0.0 
3.900825404537e+01 -1.157220003875e+01 0.0 
4.649692961375e+01 -1.836335837481e+01 0.0 
1.578831424832e+01 -3.678284023361e+00 0.0 
4.814208768888e+01 -1.841249298770e+01 0.0 
2.964123298315e+01 -1.625739458193e+01 0.0 
4.580760351902e+01 -1.284294554687e+01 0.0 
3.561520879615e+01 -1.245548941949e+01 0.0 
2.555418095658e+00 -1.841101588290e+01 0.0 
3.288468366144e+01 -1.834258164109e+01 0.0 
2.065894391445e+01 -2.240688571739e+00 0.0 
4.739171429915e+01 -1.496536413446e+01 0.0 
3.478086729185e+00 -8.576434653209e+00 0.0 
1.606010630246e+01 -1.588421807951e+00 0.0 
1.018329200594e+01 -1.834320874317e+01 0.0 
2.957213339430e+01 -1.720496954591e+01 0.0 
4.142712790164e+00 -1.837794506222e+01 0.0 
6.698721532573e-01 -2.499999999997e+00 0.0 
8.037039123140e+00 -1.571229354954e+00 0.0 
1.203541361428e+01 -1.847784298001e+01 0.0 
2.899968332038e+01 -1.848264722179e+01 0.0 
1.469229460948e+01 -4.219485753730e+00 0.0 
4.049590781957e+01 -1.932812501995e+01 0.0 
1.996211678340e+01 -1.506329754720e+00 0.0 
4.250588298353e+01 -1.067383247529e+01 0.0 
5.831497011152e+00 -1.635396227234e+00 0.0 
5.317606125670e+00 -1.923927974868e+01 0.0 
4.208546426993e+01 -1.842830665025e+01 0.0 
2.327553405011e+00 -9.459409929662e+00 0.0 
3.568351902251e+01 -1.096637218582e+01 0.0 
1.682104374890e+00 -6.231413350963e+00 0.0 
2.451812238018e+01 -1.766524914339e+01 0.0 
1.058003429638e+01 -2.391839617098e+00 0.0 
4.399988753123e+01 -1.851998776342e+01 0.0 
1.400000000010e+01 -1.852293523028e+01 0.0 
3.604719565984e+01 -1.850662876800e+01 0.0 
1.951297136734e+01 -1.938092349694e+01 0.0 
1.821365318472e+01 -1.531276353287e+00 0.0 
2.298031859732e+01 -1.854635324722e+01 0.0 
1.552168066204e+01 -1.764280741977e+01 0.0 
4.572957713638e+01 -1.073347898229e+01 0.0 
3.429637429624e+01 -1.838861552790e+01 0.0 
2.427434426052e+00 -7.705577451869e+00 0.0 
4.662792031485e+00 -3.359424455416e+00 0.0 
4.926794919243e+01 -1.926794919243e+01 0.0 
7.320508075690e-01 -7.320508075688e-01 0.0 
4.926794919243e+01 -1.073205080757e+01 0.0 
7.320508075705e-01 -1.926794919243e+01 0.0 
2.917460242467e+00 -3.202866455310e+00 0.0 
4.838200575963e+01 -1.232674147454e+01 0.0 
2.998445708009e+01 -1.854403752148e+01 0.0 
5.949940090766e-01 -1.152762038165e+01 0.0 
4.844763495759e+01 -1.678092548787e+01 0.0 
1.301685480160e+01 -3.170056592566e+00 0.0 
1.650046335855e+01 -6.731535384067e-01 0.0 
4.854881540991e+01 -1.405224059779e+01 0.0 
2.119545114693e+01 -1.846813384545e+01 0.0 
3.797852849897e+01 -1.857978513215e+01 0.0 
4.649823708745e+01 -1.338351810816e+01 0.0 
2.012685900976e+01 -2.889659035009e+00 0.0 
2.953271913273e+01 -1.791558075192e+01 0.0 
2.408509097292e+00 -1.021949208421e+01 0.0 
2.642589566221e+01 -1.773216561448e+01 0.0 
1.730010270775e+01 -1.763165076721e+01 0.0 
2.017406551304e+01 -8.513536440582e-01 0.0 
5.254761581934e-01 -1.249999999999e+01 0.0 
6.640448215642e+00 -1.545337834885e+00 0.0 
7.843361506349e+00 -1.852719839527e+01 0.0 
1.588442191088e+00 -1.066158564320e+01 0.0 
3.331250000000e+01 -8.420918367347e+00 0.0 
4.951470588234e+01 -8.500000000000e+00 0.0 
3.480610198624e+01 -9.413633635267e+00 0.0 
4.951470588234e+01 -9.500000000000e+00 0.0 

CELLS 1996 7984 
3 214 684 960 
3 684 214 962 
3 694 187 705 
3 807 572 996 
3 574 634 800 
3 664 577 703 
3 194 616 618 
3 214 641 962 
3 616 194 634 
3 567 802 996 
3 186 761 762 
3 641 214 976 
3 806 958 1002 
3 623 754 844 
3 958 220 1002 
3 213 807 996 
3 622 193 763 
3 577 664 702 
3 201 621 943 
3 621 201 881 
3 802 567 955 
3 932 178 938 
3 659 932 938 
3 609 608 818 
3 308 464 753 
3 761 186 870 
3 107 82 1023 
3 653 179 895 
3 306 308 753 
3 818 608 1028 
3 558 768 770 
3 211 624 801 
3 694 705 1003 
3 19 199 674 
3 209 628 630 
3 637 66 994 
3 66 637 1020 
3 656 205 700 
3 620 98 973 
3 98 620 1034 
3 896 638 922 
3 174 660 799 
3 977 175 981 
3 82 223 1023 
3 615 222 972 
3 654 977 981 
3 768 558 771 
3 222 615 998 
3 764 765 771 
3 754 623 995 
3 216 659 896 
3 606 621 881 
3 384 997 1015 
3 216 896 922 
3 706 188 886 
3 979 551 1024 
3 606 881 950 
3 199 644 674 
3 467 795 913 
3 802 213 996 
3 173 1007 1048 
3 987 613 989 
3 433 461 667 
3 997 770 1015 
3 778 597 1002 
3 659 216 932 
3 1007 617 1048 
3 187 694 967 
3 494 455 776 
3 183 642 708 
3 870 813 924 
3 33 32 662 
3 653 895 1025 
3 4 5 788 
3 785 979 1024 
3 625 190 876 
3 706 886 1035 
3 673 978 985 
3 795 467 1037 
3 978 215 985 
3 455 468 776 
3 193 622 983 
3 178 684 938 
3 684 178 960 
3 634 574 846 
3 616 634 846 
3 645 870 975 
3 18 19 674 
3 699 696 944 
3 574 800 983 
3 801 624 974 
3 225 752 1023 
3 798 969 993 
3 993 969 1005 
3 191 33 662 
3 700 205 1030 
3 622 763 995 
3 799 660 1008 
3 219 651 948 
3 667 461 668 
3 800 634 1018 
3 220 778 1002 
3 381 947 971 
3 612 987 989 
3 502 500 678 
3 765 768 771 
3 805 806 928 
3 571 798 993 
3 173 764 771 
3 901 196 1020 
3 346 699 944 
3 4 788 1039 
3 569 665 701 
3 536 852 890 
3 580 782 1006 
3 640 667 668 
3 435 433 667 
3 209 630 988 
3 651 219 1043 
3 639 435 667 
3 670 600 945 
3 223 225 1023 
3 798 571 1046 
3 435 639 678 
3 990 889 1004 
3 655 905 914 
3 782 580 1036 
3 905 180 914 
3 190 625 1016 
3 602 990 1004 
3 761 870 924 
3 572 807 998 
3 509 566 666 
3 180 638 914 
3 628 209 1008 
3 806 563 958 
3 645 813 870 
3 666 566 866 
3 610 738 1028 
3 542 658 666 
3 592 803 804 
3 642 183 1014 
3 844 754 991 
3 451 423 672 
3 658 509 666 
3 638 180 922 
3 566 704 866 
3 678 504 873 
3 194 618 973 
3 665 300 701 
3 624 211 1012 
3 959 965 1043 
3 789 201 943 
3 217 655 890 
3 738 610 747 
3 639 502 678 
3 674 645 975 
3 641 175 977 
3 947 607 971 
3 200 646 647 
3 661 300 665 
3 644 199 928 
3 494 670 945 
3 806 565 928 
3 681 554 709 
3 196 901 1010 
3 959 564 965 
3 500 504 678 
3 852 217 890 
3 186 762 1059 
3 175 641 976 
3 300 661 675 
3 423 474 672 
3 646 200 1034 
3 504 665 873 
3 655 217 905 
3 548 737 942 
3 782 483 1006 
3 179 653 968 
3 708 642 992 
3 640 668 962 
3 483 782 1022 
3 725 855 909 
3 658 542 896 
3 641 640 962 
3 681 536 890 
3 665 569 873 
3 189 802 955 
3 312 721 931 
3 199 805 928 
3 654 215 978 
3 510 675 899 
3 696 721 944 
3 81 108 663 
3 542 638 896 
3 898 570 902 
3 794 926 1019 
3 809 202 1035 
3 307 232 714 
3 929 288 956 
3 418 898 902 
3 752 225 1001 
3 753 464 991 
3 608 610 1028 
3 939 830 966 
3 676 247 704 
3 506 396 709 
3 313 307 714 
3 503 681 709 
3 554 681 890 
3 452 912 952 
3 737 586 942 
3 663 197 664 
3 668 684 962 
3 668 461 683 
3 566 676 704 
3 721 691 931 
3 577 576 882 
3 570 669 888 
3 620 646 1034 
3 675 661 899 
3 366 888 937 
3 626 836 1060 
3 712 313 714 
3 836 182 1060 
3 794 795 926 
3 215 654 981 
3 939 582 940 
3 686 313 712 
3 582 581 940 
3 562 671 677 
3 388 769 841 
3 600 777 945 
3 855 418 909 
3 554 506 709 
3 597 778 1010 
3 108 197 663 
3 471 501 677 
3 261 300 675 
3 659 658 896 
3 669 570 898 
3 637 901 1020 
3 923 312 931 
3 370 352 707 
3 418 902 909 
3 870 186 975 
3 704 314 866 
3 713 714 910 
3 613 987 1032 
3 261 675 682 
3 501 562 677 
3 231 503 679 
3 662 32 1016 
3 247 676 851 
3 720 263 859 
3 647 646 648 
3 776 468 980 
3 503 680 681 
3 470 370 707 
3 576 710 811 
3 558 770 997 
3 313 686 848 
3 396 679 709 
3 435 678 873 
3 686 525 848 
3 721 312 944 
3 314 685 827 
3 181 635 994 
3 511 720 859 
3 239 505 685 
3 569 701 832 
3 511 719 720 
3 353 369 710 
3 751 192 752 
3 265 262 682 
3 382 733 734 
3 713 923 931 
3 108 109 197 
3 503 229 680 
3 352 350 707 
3 426 471 677 
3 355 353 710 
3 234 231 679 
3 624 670 974 
3 462 552 683 
3 511 718 719 
3 679 503 709 
3 751 752 753 
3 472 577 702 
3 382 734 736 
3 383 386 733 
3 668 683 684 
3 713 910 923 
3 461 462 683 
3 348 265 682 
3 675 510 682 
3 472 576 577 
3 701 257 832 
3 601 671 673 
3 37 188 706 
3 39 202 705 
3 248 247 851 
3 369 352 370 
3 425 426 484 
3 240 239 685 
3 369 370 425 
3 382 383 733 
3 314 827 866 
3 803 592 1021 
3 707 510 899 
3 912 568 952 
3 601 484 671 
3 206 57 726 
3 425 370 426 
3 245 314 704 
3 472 376 576 
3 748 441 856 
3 262 261 682 
3 386 730 733 
3 505 396 506 
3 42 727 728 
3 350 348 510 
3 511 339 718 
3 485 484 601 
3 716 401 839 
3 888 669 937 
3 501 502 560 
3 575 716 839 
3 204 45 708 
3 478 570 888 
3 41 187 727 
3 844 464 874 
3 699 346 964 
3 562 560 654 
3 507 506 539 
3 239 396 505 
3 239 237 396 
3 315 851 877 
3 179 47 711 
3 306 753 1001 
3 680 536 681 
3 510 348 682 
3 581 777 940 
3 539 554 655 
3 501 500 502 
3 200 647 900 
3 386 729 730 
3 350 510 707 
3 690 712 713 
3 471 500 501 
3 505 506 507 
3 339 341 718 
3 514 741 828 
3 50 203 717 
3 542 540 638 
3 354 356 736 
3 595 929 956 
3 561 640 641 
3 560 502 561 
3 696 693 721 
3 245 243 314 
3 552 658 659 
3 507 539 540 
3 54 205 722 
3 205 656 982 
3 693 691 721 
3 713 712 714 
3 741 281 828 
3 433 434 461 
3 353 352 369 
3 351 350 352 
3 247 245 704 
3 528 748 856 
3 296 742 743 
3 689 687 690 
3 356 382 736 
3 430 315 431 
3 685 505 827 
3 432 431 433 
3 187 40 705 
3 202 38 706 
3 202 809 1003 
3 514 740 741 
3 525 427 848 
3 501 560 562 
3 349 348 350 
3 576 376 710 
3 462 509 552 
3 750 751 754 
3 716 844 874 
3 726 724 818 
3 697 696 699 
3 231 229 503 
3 238 237 239 
3 376 355 710 
3 773 775 776 
3 300 259 701 
3 253 251 315 
3 259 257 701 
3 170 889 990 
3 647 648 649 
3 777 581 945 
3 426 470 471 
3 57 56 726 
3 360 362 452 
3 224 536 680 
3 201 789 1011 
3 851 676 877 
3 261 259 300 
3 237 234 679 
3 183 43 728 
3 539 506 554 
3 243 240 685 
3 296 743 749 
3 687 686 712 
3 514 739 740 
3 44 183 708 
3 41 40 187 
3 37 36 188 
3 39 38 202 
3 236 234 237 
3 690 687 712 
3 695 693 696 
3 433 431 434 
3 461 434 462 
3 745 742 829 
3 689 690 691 
3 46 204 711 
3 604 525 686 
3 718 452 719 
3 604 686 687 
3 445 443 746 
3 253 315 430 
3 552 509 658 
3 425 484 485 
3 191 662 986 
3 432 433 435 
3 826 545 895 
3 742 296 829 
3 387 390 729 
3 206 726 818 
3 471 499 500 
3 42 41 727 
3 202 706 1035 
3 244 243 245 
3 773 774 775 
3 44 43 183 
3 171 722 723 
3 386 387 729 
3 341 360 718 
3 177 51 717 
3 116 172 774 
3 430 431 432 
3 242 240 243 
3 246 245 247 
3 314 243 685 
3 484 426 677 
3 46 45 204 
3 347 265 348 
3 473 472 702 
3 635 181 1061 
3 774 172 775 
3 541 540 542 
3 768 769 770 
3 655 554 890 
3 171 55 722 
3 48 47 179 
3 396 237 679 
3 765 767 768 
3 614 473 702 
3 768 767 769 
3 858 556 871 
3 750 192 751 
3 226 224 680 
3 50 49 203 
3 208 750 754 
3 188 36 715 
3 448 445 746 
3 575 623 716 
3 561 639 640 
3 360 452 718 
3 576 811 882 
3 52 51 177 
3 40 39 705 
3 38 37 706 
3 514 322 739 
3 317 319 745 
3 253 430 832 
3 322 324 739 
3 54 53 205 
3 426 370 470 
3 733 732 734 
3 730 731 732 
3 465 575 839 
3 58 206 738 
3 765 766 767 
3 56 55 171 
3 729 594 730 
3 43 42 728 
3 695 696 697 
3 115 116 774 
3 430 569 832 
3 524 427 525 
3 45 44 708 
3 236 237 238 
3 491 448 492 
3 485 601 602 
3 724 723 725 
3 486 593 594 
3 730 594 731 
3 764 207 765 
3 47 46 711 
3 710 369 811 
3 478 526 570 
3 575 622 623 
3 812 544 831 
3 730 732 733 
3 238 239 240 
3 51 50 717 
3 319 421 745 
3 330 366 436 
3 250 248 251 
3 589 482 590 
3 734 732 735 
3 739 436 740 
3 251 248 851 
3 587 444 861 
3 360 361 362 
3 252 251 253 
3 289 291 749 
3 471 470 499 
3 317 745 829 
3 492 448 746 
3 316 339 511 
3 56 171 726 
3 603 525 604 
3 487 812 831 
3 55 54 722 
3 171 723 724 
3 258 257 259 
3 765 207 766 
3 59 738 747 
3 688 687 689 
3 390 486 729 
3 58 57 206 
3 324 330 739 
3 462 508 509 
3 229 226 680 
3 316 511 859 
3 320 514 828 
3 482 441 748 
3 714 232 910 
3 541 666 866 
3 362 380 381 
3 649 648 650 
3 291 296 749 
3 341 343 360 
3 486 543 593 
3 513 335 814 
3 114 115 772 
3 500 499 504 
3 486 594 729 
3 742 584 743 
3 256 254 257 
3 330 436 739 
3 465 573 575 
3 390 453 486 
3 59 58 738 
3 242 243 244 
3 512 583 584 
3 244 245 246 
3 512 584 742 
3 772 115 774 
3 228 226 229 
3 781 780 782 
3 182 121 796 
3 421 476 512 
3 330 365 366 
3 810 480 835 
3 590 748 892 
3 590 482 748 
3 224 184 536 
3 208 105 750 
3 605 715 908 
3 246 247 248 
3 121 122 796 
3 600 520 777 
3 766 772 773 
3 582 939 966 
3 498 548 942 
3 578 810 835 
3 375 858 871 
3 299 297 808 
3 337 335 513 
3 478 489 526 
3 395 376 472 
3 212 780 781 
3 185 784 785 
3 174 60 747 
3 60 59 747 
3 780 779 783 
3 512 476 583 
3 320 322 514 
3 526 608 609 
3 520 439 777 
3 373 458 478 
3 794 792 795 
3 421 512 745 
3 743 584 744 
3 198 791 792 
3 212 779 780 
3 524 525 603 
3 122 123 793 
3 106 192 750 
3 106 107 192 
3 441 345 856 
3 185 10 784 
3 486 453 543 
3 671 484 677 
3 631 629 632 
3 711 204 826 
3 515 409 842 
3 561 502 639 
3 624 600 670 
3 507 540 541 
3 102 193 800 
3 101 102 800 
3 122 793 796 
3 793 792 794 
3 787 789 790 
3 363 304 438 
3 198 786 791 
3 779 176 783 
3 173 112 764 
3 304 299 808 
3 652 650 672 
3 104 105 208 
3 548 643 737 
3 324 329 330 
3 649 650 651 
3 10 11 784 
3 787 790 791 
3 30 29 803 
3 190 30 803 
3 575 573 622 
3 193 103 763 
3 784 781 785 
3 28 189 804 
3 438 304 808 
3 105 106 750 
3 104 208 763 
3 539 655 914 
3 36 35 715 
3 803 29 804 
3 198 792 793 
3 123 198 793 
3 599 520 600 
3 743 744 880 
3 805 563 806 
3 111 112 173 
3 210 797 798 
3 113 207 764 
3 481 441 482 
3 113 114 207 
3 112 113 764 
3 588 482 589 
3 534 597 598 
3 651 650 652 
3 827 541 866 
3 786 787 791 
3 336 337 816 
3 25 24 807 
3 213 25 807 
3 103 104 763 
3 417 345 441 
3 29 28 804 
3 491 492 607 
3 787 788 789 
3 786 221 787 
3 787 221 788 
3 11 12 212 
3 220 69 778 
3 80 79 222 
3 125 221 786 
3 13 176 779 
3 70 69 220 
3 68 196 778 
3 61 174 799 
3 76 195 797 
3 78 77 210 
3 69 68 778 
3 68 67 196 
3 210 77 797 
3 125 126 221 
3 99 100 194 
3 102 103 193 
3 198 124 786 
3 65 64 181 
3 209 62 799 
3 63 62 209 
3 124 125 786 
3 123 124 198 
3 61 60 174 
3 62 61 799 
3 76 75 195 
3 96 97 200 
3 77 76 797 
3 74 73 219 
3 94 95 564 
3 120 121 182 
3 118 119 211 
3 117 118 801 
3 116 117 172 
3 13 14 176 
3 12 13 779 
3 118 211 801 
3 16 17 186 
3 172 117 801 
3 34 33 191 
3 28 27 189 
3 31 30 190 
3 6 7 201 
3 9 10 185 
3 27 26 802 
3 19 20 199 
3 26 25 213 
3 20 21 805 
3 21 22 563 
3 212 12 779 
3 189 27 802 
3 26 213 802 
3 199 20 805 
3 21 563 805 
3 428 429 813 
3 207 114 772 
3 319 420 421 
3 793 794 796 
3 631 632 633 
3 512 742 745 
3 394 378 815 
3 363 438 439 
3 926 627 1019 
3 534 598 815 
3 421 422 476 
3 212 781 784 
3 378 440 815 
3 571 572 615 
3 11 212 784 
3 366 365 373 
3 328 326 379 
3 428 377 429 
3 496 428 813 
3 347 348 349 
3 541 542 666 
3 257 254 832 
3 336 335 337 
3 440 533 534 
3 644 496 645 
3 487 581 582 
3 559 480 567 
3 475 424 480 
3 620 619 646 
3 334 332 335 
3 377 336 816 
3 571 559 572 
3 475 559 571 
3 379 326 838 
3 534 565 597 
3 437 409 515 
3 644 645 674 
3 635 633 636 
3 567 480 810 
3 414 412 415 
3 330 329 365 
3 374 456 457 
3 393 479 487 
3 599 600 624 
3 766 207 772 
3 475 480 559 
3 534 533 565 
3 773 772 774 
3 692 691 693 
3 618 518 619 
3 364 378 394 
3 440 496 533 
3 543 544 595 
3 533 496 644 
3 618 619 620 
3 360 343 361 
3 635 636 637 
3 606 488 621 
3 630 629 631 
3 423 415 424 
3 457 488 551 
3 487 582 812 
3 759 757 760 
3 411 413 517 
3 298 302 317 
3 474 424 475 
3 414 423 451 
3 583 476 755 
3 645 496 813 
3 440 428 496 
3 423 424 474 
3 416 368 454 
3 476 422 477 
3 449 535 611 
3 415 822 835 
3 421 420 422 
3 328 379 814 
3 628 556 629 
3 414 415 423 
3 557 473 614 
3 531 626 627 
3 357 355 376 
3 440 534 815 
3 413 412 414 
3 761 759 762 
3 517 518 616 
3 478 458 489 
3 755 477 756 
3 378 428 440 
3 457 456 488 
3 631 633 635 
3 476 477 755 
3 551 488 606 
3 477 422 824 
3 317 318 319 
3 303 299 304 
3 758 759 761 
3 120 182 836 
3 211 119 836 
3 429 377 816 
3 374 416 456 
3 334 335 336 
3 335 332 814 
3 291 295 296 
3 390 391 453 
3 437 515 516 
3 703 577 1053 
3 319 419 420 
3 526 489 608 
3 456 416 467 
3 517 413 518 
3 616 518 618 
3 519 439 520 
3 555 522 556 
3 408 406 409 
3 374 368 416 
3 591 515 860 
3 516 515 591 
3 311 368 374 
3 640 639 667 
3 305 304 363 
3 378 377 428 
3 756 757 758 
3 604 687 688 
3 437 516 578 
3 364 336 377 
3 334 336 364 
3 363 439 519 
3 364 377 378 
3 408 409 410 
3 758 757 759 
3 411 412 413 
3 410 409 437 
3 263 264 859 
3 822 578 835 
3 422 483 824 
3 756 477 757 
3 419 318 579 
3 293 290 294 
3 411 410 412 
3 285 287 320 
3 303 305 311 
3 531 520 599 
3 408 410 411 
3 303 304 305 
3 628 629 630 
3 415 412 822 
3 364 394 817 
3 171 724 726 
3 422 420 483 
3 311 305 368 
3 519 520 531 
3 333 332 334 
3 414 451 821 
3 531 599 626 
3 317 302 318 
3 621 488 819 
3 411 517 820 
3 319 318 419 
3 332 328 814 
3 419 579 580 
3 480 424 835 
3 302 299 303 
3 327 331 375 
3 487 479 581 
3 331 328 332 
3 760 757 824 
3 333 334 817 
3 734 735 916 
3 488 456 819 
3 619 518 821 
3 481 482 588 
3 431 315 877 
3 413 414 821 
3 393 487 831 
3 405 407 465 
3 456 467 819 
3 632 629 858 
3 417 441 481 
3 362 361 380 
3 516 591 592 
3 320 321 322 
3 454 368 825 
3 325 323 326 
3 555 556 628 
3 543 453 544 
3 334 364 817 
3 412 410 822 
3 387 389 390 
3 327 326 328 
3 573 466 574 
3 457 551 857 
3 298 299 302 
3 250 251 252 
3 331 332 333 
3 462 434 508 
3 252 253 254 
3 407 406 408 
3 518 413 821 
3 465 466 573 
3 757 477 824 
3 495 397 522 
3 322 323 324 
3 517 616 846 
3 694 693 695 
3 381 380 449 
3 327 328 331 
3 410 437 822 
3 291 293 295 
3 295 297 298 
3 363 519 825 
3 324 325 329 
3 298 317 829 
3 407 408 820 
3 465 407 466 
3 267 269 316 
3 808 297 830 
3 349 350 351 
3 298 297 299 
3 295 293 297 
3 305 363 825 
3 373 397 458 
3 286 284 288 
3 437 578 822 
3 282 284 285 
3 324 323 325 
3 320 287 321 
3 256 257 258 
3 368 305 825 
3 495 522 555 
3 495 555 660 
3 442 444 587 
3 291 290 293 
3 322 321 323 
3 408 411 820 
3 296 295 829 
3 430 432 569 
3 302 303 823 
3 453 391 831 
3 289 290 291 
3 303 311 823 
3 374 457 849 
3 321 287 521 
3 325 326 327 
3 460 497 498 
3 119 120 836 
3 278 276 279 
3 282 280 283 
3 289 288 290 
3 466 407 820 
3 285 286 287 
3 318 302 823 
3 286 288 289 
3 424 415 835 
3 579 318 823 
3 531 627 845 
3 825 519 845 
3 544 453 831 
3 293 294 830 
3 278 280 281 
3 285 284 286 
3 393 455 479 
3 454 825 845 
3 716 623 844 
3 823 311 849 
3 373 365 397 
3 446 459 460 
3 230 229 231 
3 469 403 490 
3 498 547 548 
3 264 267 859 
3 444 446 861 
3 391 392 393 
3 289 749 833 
3 260 259 261 
3 383 385 386 
3 455 392 468 
3 295 298 829 
3 282 283 284 
3 281 280 282 
3 579 823 849 
3 285 320 828 
3 278 279 280 
3 274 276 277 
3 297 293 830 
3 344 342 345 
3 405 406 407 
3 274 272 275 
3 458 397 495 
3 390 389 391 
3 608 489 610 
3 281 282 828 
3 548 642 643 
3 241 240 242 
3 391 393 831 
3 233 231 234 
3 523 427 524 
3 281 741 864 
3 504 661 665 
3 235 234 236 
3 315 251 851 
3 393 392 455 
3 625 596 662 
3 479 455 494 
3 656 550 657 
3 810 578 853 
3 367 345 417 
3 820 517 846 
3 404 403 469 
3 277 276 278 
3 316 338 339 
3 553 490 596 
3 327 375 834 
3 402 404 405 
3 481 588 669 
3 391 389 392 
3 402 400 403 
3 711 826 895 
3 495 660 847 
3 286 289 833 
3 466 820 846 
3 574 466 846 
3 282 285 828 
3 329 325 834 
3 365 329 837 
3 519 531 845 
3 351 352 353 
3 270 272 273 
3 274 275 276 
3 254 253 832 
3 553 596 625 
3 689 691 692 
3 578 516 853 
3 509 508 566 
3 399 371 427 
3 325 327 834 
3 591 860 876 
3 372 400 401 
3 287 286 833 
3 270 268 271 
3 402 403 404 
3 469 490 553 
3 409 406 842 
3 405 404 406 
3 556 522 871 
3 549 463 550 
3 522 397 837 
3 326 323 838 
3 638 540 914 
3 344 367 398 
3 309 307 313 
3 311 374 849 
3 273 272 274 
3 590 892 904 
3 339 340 341 
3 356 358 382 
3 270 271 272 
3 341 342 343 
3 507 541 827 
3 521 287 833 
3 401 716 874 
3 634 194 1018 
3 84 161 170 
3 323 321 838 
3 367 417 418 
3 688 689 809 
3 316 269 338 
3 321 521 838 
3 405 465 839 
3 85 162 215 
3 344 345 367 
3 340 338 528 
3 505 507 827 
3 329 834 837 
3 386 385 387 
3 397 365 837 
3 489 458 847 
3 343 342 344 
3 406 404 842 
3 450 448 491 
3 458 495 847 
3 86 163 175 
3 401 402 839 
3 611 535 612 
3 404 469 842 
3 341 340 342 
3 269 268 270 
3 911 583 915 
3 395 472 473 
3 515 842 860 
3 849 457 857 
3 87 164 214 
3 447 445 448 
3 516 592 853 
3 387 388 389 
3 249 248 250 
3 401 400 402 
3 880 744 885 
3 382 358 383 
3 504 499 661 
3 468 392 841 
3 387 385 388 
3 389 388 841 
3 339 338 340 
3 715 35 908 
3 88 165 178 
3 629 556 858 
3 266 265 347 
3 310 372 874 
3 357 376 395 
3 610 489 847 
3 392 389 841 
3 580 579 857 
3 361 343 840 
3 278 281 864 
3 449 463 535 
3 432 435 873 
3 309 313 848 
3 549 550 656 
3 402 405 839 
3 689 692 809 
3 400 399 863 
3 399 427 523 
3 369 425 811 
3 632 858 878 
3 372 399 400 
3 263 720 884 
3 89 166 216 
3 549 656 700 
3 354 353 355 
3 579 849 857 
3 449 380 463 
3 201 7 881 
3 255 254 256 
3 344 398 840 
3 523 524 843 
3 524 603 605 
3 343 344 840 
3 490 403 863 
3 264 262 265 
3 446 460 861 
3 90 167 180 
3 695 697 698 
3 91 168 217 
3 169 91 852 
3 267 316 859 
3 82 169 184 
3 537 292 538 
3 258 259 260 
3 270 273 850 
3 383 358 384 
3 267 268 269 
3 469 553 860 
3 692 693 694 
3 375 331 878 
3 535 463 549 
3 277 278 864 
3 399 523 863 
3 269 270 850 
3 633 632 887 
3 403 400 863 
3 427 371 848 
3 345 342 856 
3 264 266 267 
3 460 459 497 
3 238 240 241 
3 383 384 385 
3 354 355 356 
3 569 432 873 
3 246 248 249 
3 636 633 891 
3 372 371 399 
3 267 266 268 
3 442 587 867 
3 398 367 855 
3 842 469 860 
3 498 497 547 
3 464 310 874 
3 570 526 902 
3 338 269 850 
3 367 418 855 
3 252 254 255 
3 596 490 879 
3 548 547 642 
3 340 528 856 
3 356 355 357 
3 450 491 493 
3 255 292 530 
3 264 265 266 
3 342 340 856 
3 373 478 888 
3 356 357 358 
3 528 338 850 
3 233 234 235 
3 636 891 897 
3 235 236 346 
3 447 448 450 
3 230 231 233 
3 227 226 228 
3 241 242 301 
3 550 463 865 
3 858 375 878 
3 310 371 372 
3 524 605 843 
3 228 229 230 
3 347 349 527 
3 450 493 546 
3 860 553 876 
3 256 258 854 
3 255 256 292 
3 266 347 862 
3 371 309 848 
3 508 434 877 
3 537 538 568 
3 434 431 877 
3 380 361 865 
3 546 613 653 
3 271 268 862 
3 395 473 529 
3 603 604 886 
3 566 508 676 
3 904 277 917 
3 546 493 613 
3 310 309 371 
3 834 375 871 
3 260 261 262 
3 529 473 557 
3 897 598 901 
3 249 250 359 
3 362 381 912 
3 497 459 545 
3 557 614 617 
3 837 834 871 
3 470 707 899 
3 308 310 464 
3 379 885 906 
3 268 266 862 
3 633 887 891 
3 530 292 537 
3 347 527 862 
3 249 359 442 
3 529 557 558 
3 444 445 446 
3 361 840 865 
3 643 642 1014 
3 446 447 459 
3 354 736 883 
3 331 333 878 
3 553 625 876 
3 700 177 918 
3 463 380 865 
3 263 262 264 
3 442 443 444 
3 815 598 897 
3 759 760 894 
3 446 445 447 
3 372 401 874 
3 632 878 887 
3 522 837 871 
3 96 200 900 
3 564 95 900 
3 233 235 312 
3 444 443 445 
3 513 814 906 
3 241 301 532 
3 538 292 854 
3 725 909 1033 
3 260 262 263 
3 34 191 908 
3 225 224 226 
3 292 256 854 
3 379 838 885 
3 351 353 354 
3 521 833 880 
3 442 359 443 
3 244 246 867 
3 308 309 310 
3 532 301 585 
3 532 585 586 
3 790 789 943 
3 833 749 880 
3 676 508 877 
3 236 238 868 
3 346 236 868 
3 657 550 893 
3 7 8 881 
3 384 358 872 
3 250 252 869 
3 749 743 880 
3 91 217 852 
3 184 169 852 
3 308 307 309 
3 425 485 811 
3 885 744 906 
3 418 417 898 
3 358 357 872 
3 179 711 895 
3 863 523 879 
3 584 583 911 
3 878 333 887 
3 795 792 913 
3 481 669 898 
3 359 250 869 
3 791 790 913 
3 490 863 879 
3 357 395 872 
3 238 241 868 
3 246 249 867 
3 274 277 904 
3 740 436 933 
3 523 843 879 
3 436 366 937 
3 255 530 869 
3 252 255 869 
3 161 83 889 
3 395 529 872 
3 447 450 875 
3 227 228 232 
3 450 546 875 
3 499 470 899 
3 691 690 931 
3 545 459 875 
3 536 184 852 
3 459 447 875 
3 333 817 887 
3 746 443 903 
3 521 880 885 
3 838 521 885 
3 604 688 886 
3 741 740 930 
3 249 442 867 
3 720 719 936 
3 366 373 888 
3 854 258 884 
3 883 736 916 
3 748 528 892 
3 527 349 883 
3 241 532 868 
3 527 883 916 
3 301 242 907 
3 550 865 893 
3 865 840 893 
3 258 260 884 
3 306 307 308 
3 887 817 891 
3 817 394 891 
3 485 602 882 
3 301 907 925 
3 636 897 901 
3 552 659 938 
3 513 911 915 
3 170 161 889 
3 891 394 897 
3 351 354 883 
3 762 759 894 
3 912 381 971 
3 306 232 307 
3 227 232 306 
3 359 869 903 
3 90 180 905 
3 217 168 905 
3 394 815 897 
3 933 436 937 
3 590 904 917 
3 417 481 898 
3 850 273 892 
3 349 351 883 
3 168 90 905 
3 225 226 227 
3 95 96 900 
3 840 398 893 
3 260 263 884 
3 549 700 918 
3 533 644 928 
3 528 850 892 
3 637 636 901 
3 916 735 920 
3 612 535 918 
3 869 530 903 
3 492 746 927 
3 526 609 902 
3 290 288 929 
3 867 587 907 
3 892 273 904 
3 244 867 907 
3 661 499 899 
3 607 492 935 
3 273 274 904 
3 814 379 906 
3 242 244 907 
3 1004 218 1017 
3 719 452 952 
3 673 170 990 
3 454 845 926 
3 513 906 911 
3 460 498 934 
3 232 228 910 
3 89 216 922 
3 35 34 908 
3 83 160 218 
3 180 167 922 
3 589 590 917 
3 583 755 915 
3 540 539 914 
3 946 731 949 
3 930 740 933 
3 443 359 903 
3 452 362 912 
3 697 999 1009 
3 811 485 882 
3 744 584 911 
3 915 755 919 
3 808 830 939 
3 223 184 224 
3 228 230 910 
3 18 674 975 
3 792 791 913 
3 617 614 961 
3 777 439 940 
3 755 756 919 
3 271 920 941 
3 732 731 946 
3 736 734 916 
3 337 513 915 
3 233 312 923 
3 919 756 921 
3 271 862 920 
3 907 587 925 
3 623 622 995 
3 381 449 947 
3 756 758 921 
3 337 915 919 
3 88 178 932 
3 275 272 941 
3 921 758 924 
3 195 75 948 
3 74 219 948 
3 216 166 932 
3 816 337 919 
3 594 593 951 
3 673 671 978 
3 535 549 918 
3 581 479 945 
3 951 593 953 
3 936 719 952 
3 167 89 922 
3 758 761 924 
3 9 185 950 
3 223 224 225 
3 816 919 921 
3 277 864 917 
3 906 744 911 
3 664 703 1017 
3 972 210 1046 
3 279 276 949 
3 855 725 970 
3 492 927 935 
3 429 816 921 
3 429 921 924 
3 920 735 941 
3 494 776 1026 
3 703 1004 1017 
3 813 429 924 
3 902 609 909 
3 543 595 954 
3 587 861 925 
3 684 683 938 
3 585 301 925 
3 660 174 1013 
3 109 110 961 
3 24 23 957 
3 71 70 958 
3 73 72 959 
3 283 280 953 
3 746 903 927 
3 862 527 920 
3 845 627 926 
3 83 218 889 
3 810 853 955 
3 230 233 923 
3 82 184 223 
3 48 179 968 
3 881 8 950 
3 203 49 968 
3 910 230 923 
3 288 284 956 
3 903 530 927 
3 283 953 954 
3 562 654 978 
3 954 595 956 
3 312 235 944 
3 565 533 928 
3 279 949 951 
3 585 925 934 
3 961 110 1048 
3 275 941 946 
3 690 713 931 
3 294 290 929 
3 595 544 963 
3 530 537 927 
3 769 388 1015 
3 87 214 960 
3 178 165 960 
3 294 963 966 
3 589 917 930 
3 854 884 936 
3 925 861 934 
3 694 695 967 
3 166 88 932 
3 797 195 969 
3 642 547 992 
3 527 916 920 
3 170 673 985 
3 683 552 938 
3 864 741 930 
3 532 586 964 
3 917 864 930 
3 577 882 1053 
3 588 589 933 
3 654 560 977 
3 884 720 936 
3 589 930 933 
3 927 537 935 
3 451 672 1052 
3 830 294 966 
3 601 673 990 
3 588 933 937 
3 561 641 977 
3 961 614 1031 
3 222 79 972 
3 78 210 972 
3 775 172 974 
3 669 588 937 
3 438 939 940 
3 438 808 939 
3 934 498 942 
3 537 568 935 
3 861 460 934 
3 275 946 949 
3 98 99 973 
3 209 799 1008 
3 439 438 940 
3 398 855 970 
3 538 854 936 
3 621 819 943 
3 346 868 964 
3 272 271 941 
3 773 776 980 
3 735 732 946 
3 17 18 975 
3 235 346 944 
3 479 494 945 
3 762 894 1045 
3 586 585 942 
3 449 611 947 
3 929 595 963 
3 950 185 1024 
3 538 936 952 
3 75 74 948 
3 767 766 980 
3 826 204 992 
3 705 202 1003 
3 219 959 1043 
3 662 596 986 
3 727 187 967 
3 276 275 949 
3 279 951 953 
3 723 722 982 
3 197 109 961 
3 8 9 950 
3 762 1045 1059 
3 294 929 963 
3 731 594 951 
3 86 175 976 
3 214 164 976 
3 622 573 983 
3 941 735 946 
3 857 551 979 
3 491 607 984 
3 181 64 988 
3 63 209 988 
3 280 279 953 
3 208 754 995 
3 617 961 1048 
3 85 215 981 
3 770 769 1015 
3 175 163 981 
3 568 538 952 
3 593 543 954 
3 949 731 951 
3 771 558 1007 
3 615 972 1046 
3 953 593 954 
3 567 810 955 
3 475 571 993 
3 807 24 957 
3 70 220 958 
3 219 73 959 
3 283 954 956 
3 165 87 960 
3 284 283 956 
3 66 65 994 
3 84 170 985 
3 215 162 985 
3 657 893 970 
3 800 193 983 
3 572 559 996 
3 585 934 942 
3 611 612 989 
3 697 699 999 
3 648 646 1000 
3 963 812 966 
3 544 812 963 
3 969 195 1049 
3 984 611 989 
3 192 107 1023 
3 564 900 965 
3 647 649 965 
3 646 619 1000 
3 529 558 997 
3 812 582 966 
3 592 804 1027 
3 821 451 1000 
3 177 700 1030 
3 695 698 967 
3 868 532 964 
3 879 843 986 
3 483 420 1006 
3 419 580 1006 
3 660 555 1008 
3 173 771 1007 
3 606 950 1024 
3 49 48 968 
3 6 201 1011 
3 900 647 965 
3 724 725 1033 
3 599 624 1012 
3 182 796 1019 
3 31 190 1016 
3 101 800 1018 
3 876 190 1021 
3 723 982 1057 
3 194 100 1018 
3 197 961 1031 
3 807 957 998 
3 454 926 1037 
3 592 591 1021 
3 67 66 1020 
3 692 694 1003 
3 384 872 997 
3 754 751 991 
3 782 780 1022 
3 607 947 984 
3 52 177 1030 
3 798 797 969 
3 205 53 1030 
3 558 557 1007 
3 635 637 994 
3 385 384 1015 
3 790 943 1042 
3 206 818 1028 
3 715 605 1029 
3 625 662 1016 
3 618 620 973 
3 225 227 1001 
3 671 562 978 
3 727 967 1044 
3 785 781 1036 
3 602 1004 1053 
3 947 611 984 
3 97 98 1034 
3 605 603 1029 
3 3 80 1038 
3 23 3 1038 
3 126 0 1039 
3 0 4 1039 
3 72 1 1040 
3 1 94 1040 
3 2 71 1041 
3 22 2 1041 
3 788 221 1039 
3 111 173 1048 
3 901 598 1010 
3 546 653 1025 
3 467 416 1037 
3 631 635 1061 
3 16 186 1059 
3 176 14 1045 
3 672 650 1052 
3 841 769 1047 
3 607 935 971 
3 926 795 1037 
3 824 483 1055 
3 967 698 1044 
3 79 78 972 
3 894 176 1045 
3 649 651 1043 
3 545 826 1056 
3 999 737 1009 
3 964 586 999 
3 99 194 973 
3 568 912 971 
3 886 688 1035 
3 551 606 1024 
3 172 801 974 
3 497 545 1056 
3 893 398 970 
3 769 767 1047 
3 652 969 1049 
3 778 196 1010 
3 545 875 1025 
3 895 545 1025 
3 186 17 975 
3 663 664 1017 
3 164 86 976 
3 560 561 977 
3 751 753 991 
3 935 568 971 
3 853 592 1027 
3 722 205 982 
3 766 773 980 
3 775 974 1026 
3 163 85 981 
3 672 474 1005 
3 580 857 979 
3 843 605 1051 
3 943 819 1042 
3 656 657 982 
3 573 574 983 
3 717 203 987 
3 493 491 984 
3 753 752 1001 
3 747 610 1013 
3 605 908 1051 
3 957 222 998 
3 162 84 985 
3 596 879 986 
3 204 708 992 
3 982 657 1057 
3 493 984 989 
3 64 63 988 
3 699 964 999 
3 81 663 1058 
3 602 601 990 
3 698 697 1009 
3 464 844 991 
3 565 806 1002 
3 613 493 989 
3 181 988 1061 
3 474 475 993 
3 177 717 1050 
3 847 660 1013 
3 610 847 1013 
3 979 785 1036 
3 65 181 994 
3 763 208 995 
3 559 567 996 
3 776 775 1026 
3 571 615 1046 
3 652 672 1005 
3 788 5 1011 
3 872 529 997 
3 586 737 999 
3 190 803 1021 
3 615 572 998 
3 918 177 1050 
3 619 821 1000 
3 211 836 1012 
3 702 664 1031 
3 836 626 1012 
3 670 494 1026 
3 160 81 1058 
3 483 1022 1055 
3 597 565 1002 
3 809 692 1003 
3 227 306 1001 
3 420 419 1006 
3 555 628 1008 
3 609 818 1033 
3 987 203 1032 
3 826 992 1056 
3 737 643 1009 
3 974 670 1026 
3 557 617 1007 
3 598 597 1010 
3 789 788 1011 
3 5 6 1011 
3 889 218 1004 
3 626 599 1012 
3 174 747 1013 
3 183 728 1014 
3 955 853 1027 
3 203 968 1032 
3 909 609 1033 
3 1000 451 1052 
3 32 31 1016 
3 388 385 1015 
3 100 101 1018 
3 767 980 1047 
3 796 794 1019 
3 196 67 1020 
3 752 192 1023 
3 913 790 1042 
3 780 783 1022 
3 1014 728 1044 
3 591 876 1021 
3 188 715 1029 
3 185 785 1024 
3 614 702 1031 
3 988 630 1061 
3 957 23 1038 
3 71 958 1041 
3 959 72 1040 
3 818 724 1033 
3 467 913 1042 
3 986 843 1051 
3 182 1019 1060 
3 738 206 1028 
3 886 188 1029 
3 664 197 1031 
3 875 546 1025 
3 474 993 1005 
3 804 189 1027 
3 53 52 1030 
3 195 948 1049 
3 728 727 1044 
3 603 886 1029 
3 969 652 1005 
3 1014 1044 1054 
3 781 782 1036 
3 200 97 1034 
3 653 613 1032 
3 80 222 1038 
3 221 126 1039 
3 94 564 1040 
3 563 22 1041 
3 416 454 1037 
3 725 723 1057 
3 688 809 1035 
3 189 955 1027 
3 819 467 1042 
3 1004 703 1053 
3 14 15 1045 
3 210 798 1046 
3 110 111 1048 
3 908 191 1051 
3 651 652 1049 
3 468 841 1047 
3 650 648 1052 
3 968 653 1032 
3 1045 15 1059 
3 218 160 1058 
3 580 979 1036 
3 760 824 1055 
3 15 16 1059 
3 612 918 1050 
3 783 176 1062 
3 894 760 1062 
3 627 626 1060 
3 630 631 1061 
3 547 497 1056 
3 882 602 1053 
3 222 957 1038 
3 958 563 1041 
3 564 959 1040 
3 948 651 1049 
3 1055 783 1062 
3 760 1055 1062 
3 176 894 1062 
3 657 970 1057 
3 980 468 1047 
3 992 547 1056 
3 965 649 1043 
3 191 986 1051 
3 970 725 1057 
3 648 1000 1052 
3 698 1009 1054 
3 987 612 1050 
3 717 987 1050 
3 1017 218 1058 
3 1009 643 1054 
3 643 1014 1054 
3 1019 627 1060 
3 1022 783 1055 
3 663 1017 1058 
3 1044 698 1054 
3 158 159 127 
3 128 158 127 
3 157 158 128 
3 129 157 128 
3 156 157 129 
3 130 156 129 
3 155 156 130 
3 131 155 130 
3 154 155 131 
3 132 154 131 
3 153 154 132 
3 133 153 132 
3 152 153 133 
3 91 142 1063 
3 152 133 134 
3 151 152 134 
3 142 143 1063 
3 135 151 134 
3 151 135 150 
3 142 91 144 
3 135 136 150 
3 136 149 150 
3 136 137 149 
3 137 148 149 
3 137 138 148 
3 168 91 1063 
3 138 147 148 
3 138 139 147 
3 139 140 146 
3 139 146 147 
3 140 141 145 
3 140 145 146 
3 141 142 144 
3 141 144 145 
3 143 168 1063 
3 93 92 1064 
3 127 159 1064 
3 92 127 1064 
3 159 93 1064 
3 90 168 143 
3 158 159 94 
3 158 94 95 
3 157 158 95 
3 157 95 96 
3 156 157 96 
3 156 96 97 
3 155 156 97 
3 155 97 98 
3 154 155 98 
3 154 98 99 
3 153 154 99 
3 153 99 100 
3 145 82 1065 
3 152 153 100 
3 107 82 145 
3 152 100 101 
3 151 152 101 
3 102 151 101 
3 150 151 102 
3 103 150 102 
3 149 150 103 
3 149 103 104 
3 144 145 1065 
3 149 104 148 
3 104 105 148 
3 105 147 148 
3 105 106 147 
3 106 107 146 
3 147 106 146 
3 146 107 145 
3 82 169 1065 
3 169 144 1065 
3 93 1 1066 
3 94 159 1066 
3 1 94 1066 
3 159 93 1066 
3 169 91 144 

CELL_TYPES 1996
5
5
5
5
5
5
5
5
5
5
5
5
5
5
5
5
5
5
5
5
5
5
5
5
5
5
5
5
5
5
5
5
5
5
5
5
5
5
5
5
5
5
5
5
5
5
5
5
5
5
5
5
5
5
5
5
5
5
5
5
5
5
5
5
5
5
5
5
5
5
5
5
5
5
5
5
5
5
5
5
5
5
5
5
5
5
5
5
5
5
5
5
5
5
5
5
5
5
5
5
5
5
5
5
5
5
5
5
5
5
5
5
5
5
5
5
5
5
5
5
5
5
5
5
5
5
5
5
5
5
5
5
5
5
5
5
5
5
5
5
5
5
5
5
5
5
5
5
5
5
5
5
5
5
5
5
5
5
5
5
5
5
5
5
5
5
5
5
5
5
5
5
5
5
5
5
5
5
5
5
5
5
5
5
5
5
5
5
5
5
5
5
5
5
5
5
5
5
5
5
5
5
5
5
5
5
5
5
5
5
5
5
5
5
5
5
5
5
5
5
5
5
5
5
5
5
5
5
5
5
5
5
5
5
5
5
5
5
5
5
5
5
5
5
5
5
5
5
5
5
5
5
5
5
5
5
5
5
5
5
5
5
5
5
5
5
5
5
5
5
5
5
5
5
5
5
5
5
5
5
5
5
5
5
5
5
5
5
5
5
5
5
5
5
5
5
5
5
5
5
5
5
5
5
5
5
5
5
5
5
5
5
5
5
5
5
5
5
5
5
5
5
5
5
5
5
5
5
5
5
5
5
5
5
5
5
5
5
5
5
5
5
5
5
5
5
5
5
5
5
5
5
5
5
5
5
5
5
5
5
5
5
5
5
5
5
5
5
5
5
5
5
5
5
5
5
5
5
5
5
5
5
5
5
5
5
5
5
5
5
5
5
5
5
5
5
5
5
5
5
5
5
5
5
5
5
5
5
5
5
5
5
5
5
5
5
5
5
5
5
5
5
5
5
5
5
5
5
5
5
5
5
5
5
5
5
5
5
5
5
5
5
5
5
5
5
5
5
5
5
5
5
5
5
5
5
5
5
5
5
5
5
5
5
5
5
5
5
5
5
5
5
5
5
5
5
5
5
5
5
5
5
5
5
5
5
5
5
5
5
5
5
5
5
5
5
5
5
5
5
5
5
5
5
5
5
5
5
5
5
5
5
5
5
5
5
5
5
5
5
5
5
5
5
5
5
5
5
5
5
5
5
5
5
5
5
5
5
5
5
5
5
5
5
5
5
5
5
5
5
5
5
5
5
5
5
5
5
5
5
5
5
5
5
5
5
5
5
5
5
5
5
5
5
5
5
5
5
5
5
5
5
5
5
5
5
5
5
5
5
5
5
5
5
5
5
5
5
5
5
5
5
5
5
5
5
5
5
5
5
5
5
5
5
5
5
5
5
5
5
5
5
5
5
5
5
5
5
5
5
5
5
5
5
5
5
5
5
5
5
5
5
5
5
5
5
5
5
5
5
5
5
5
5
5
5
5
5
5
5
5
5
5
5
5
5
5
5
5
5
5
5
5
5
5
5
5
5
5
5
5
5
5
5
5
5
5
5
5
5
5
5
5
5
5
5
5
5
5
5
5
5
5
5
5
5
5
5
5
5
5
5
5
5
5
5
5
5
5
5
5
5
5
5
5
5
5
5
5
5
5
5
5
5
5
5
5
5
5
5
5
5
5
5
5
5
5
5
5
5
5
5
5
5
5
5
5
5
5
5
5
5
5
5
5
5
5
5
5
5
5
5
5
5
5
5
5
5
5
5
5
5
5
5
5
5
5
5
5
5
5
5
5
5
5
5
5
5
5
5
5
5
5
5
5
5
5
5
5
5
5
5
5
5
5
5
5
5
5
5
5
5
5
5
5
5
5
5
5
5
5
5
5
5
5
5
5
5
5
5
5
5
5
5
5
5
5
5
5
5
5
5
5
5
5
5
5
5
5
5
5
5
5
5
5
5
5
5
5
5
5
5
5
5
5
5
5
5
5
5
5
5
5
5
5
5
5
5
5
5
5
5
5
5
5
5
5
5
5
5
5
5
5
5
5
5
5
5
5
5
5
5
5
5
5
5
5
5
5
5
5
5
5
5
5
5
5
5
5
5
5
5
5
5
5
5
5
5
5
5
5
5
5
5
5
5
5
5
5
5
5
5
5
5
5
5
5
5
5
5
5
5
5
5
5
5
5
5
5
5
5
5
5
5
5
5
5
5
5
5
5
5
5
5
5
5
5
5
5
5
5
5
5
5
5
5
5
5
5
5
5
5
5
5
5
5
5
5
5
5
5
5
5
5
5
5
5
5
5
5
5
5
5
5
5
5
5
5
5
5
5
5
5
5
5
5
5
5
5
5
5
5
5
5
5
5
5
5
5
5
5
5
5
5
5
5
5
5
5
5
5
5
5
5
5
5
5
5
5
5
5
5
5
5
5
5
5
5
5
5
5
5
5
5
5
5
5
5
5
5
5
5
5
5
5
5
5
5
5
5
5
5
5
5
5
5
5
5
5
5
5
5
5
5
5
5
5
5
5
5
5
5
5
5
5
5
5
5
5
5
5
5
5
5
5
5
5
5
5
5
5
5
5
5
5
5
5
5
5
5
5
5
5
5
5
5
5
5
5
5
5
5
5
5
5
5
5
5
5
5
5
5
5
5
5
5
5
5
5
5
5
5
5
5
5
5
5
5
5
5
5
5
5
5
5
5
5
5
5
5
5
5
5
5
5
5
5
5
5
5
5
5
5
5
5
5
5
5
5
5
5
5
5
5
5
5
5
5
5
5
5
5
5
5
5
5
5
5
5
5
5
5
5
5
5
5
5
5
5
5
5
5
5
5
5
5
5
5
5
5
5
5
5
5
5
5
5
5
5
5
5
5
5
5
5
5
5
5
5
5
5
5
5
5
5
5
5
5
5
5
5
5
5
5
5
5
5
5
5
5
5
5
5
5
5
5
5
5
5
5
5
5
5
5
5
5
5
5
5
5
5
5
5
5
5
5
5
5
5
5
5
5
5
5
5
5
5
5
5
5
5
5
5
5
5
5
5
5
5
5
5
5
5
5
5
5
5
5
5
5
5
5
5
5
5
5
5
5
5
5
5
5
5
5
5
5
5
5
5
5
5
5
5
5
5
5
5
5
5
5
5
5
5
5
5
5
5
5
5
5
5
5
5
5
5
5
5
5
5
5
5
5
5
5
5
5
5
5
5
5
5
5
5
5
5
5
5
5
5
5
5
5
5
5
5
5
5
5
5
5
5
5
5
5
5
5
5
5
5
5
5
5
5
5
5
5
5
5
5
5
5
5
5
5
5
5
5
5
5
5
5
5
5
5
5
5
5
5
5
5
5
5
5
5
5
5
5
5
5
5
5
5
5
5
5
5
5
5
5
5
5
5
5
5
5
5
5
5
5
5
5
5
5
5
5
5
5
5
5
5
5
5
5
5
5
5
5
5
5
5
5
5
5
5
5
5
5
5
5
5
5
5
5
5
5
5
5
5
5
5
5
5
5
5
5
5
5
5
5
5
5
5
5
5
5
5
5
5
5
5
5
5
5
5
5
5
5
5
5
5
5
5
5
5
5
5
5
5
5
5
5
5
5
5
5
5
5
5
5
5
5
5
5
5
5
5
5
5
5
5
5
5
5
5
5
5
5
5
5
5
5
5
5
5
5
5
5
5
5
5
5
5
5
5
5
5
5
5
5
5
5
5
5
5
5
5
5
5
5
5
5
5
5
5
5
5
5
5
5
5
5
5
5
5
5
5
5
5
5
5
5
5
5
5
5
5
5
5
5
5
5
5
5
5
5
5
5
5
5
5
5
5
5
5
5
5
5
5
5
5
5
5
5
5
5
5
5
5
5
5
5
5
5
5
5
5
5
5
5
5
5
5
5
5
5
5
5
5
5
5
5
5
5
5
5
5
5
5
5
5
5
5
5
5
5
5
5
5
5
5
5
5
5
5
5
5
5
5
5
5
5
5
5
5
5
5
5
5
5
5
5
5
5
5
5
5
5
5
5
5
5
5
5
5
5
5
5
5
5
5
5
5
5
5
5
5
5
5
5
5
5
5
5
5
5
5
5
5
5
5
5
5
5
5
5
5
5
5
5
5
5
5
5
5
5
5
5
5
5
5
5
5
5
5
5
5
5
5
5
5
5
5
5
5
5
5
5
5
5
5
5
5
5
5
5
5
5
5
5
5
5
5
5
5
5
5
5
5
5
5
5
5
5
5
5
5
5
5
5
5
5
5
5
5
5
5
5
5
5
5
5
5
5
5
5
5
5
5
5
5
5
5
5
5
5
5
5
5
5
5
5
5
5
5
5
5
5
5
5
5
5
5
5
5
5
5
5
5
5
5
5
5
5
5
5
5
5
5
5
5
5
5
5
5
5
5
5
5
5
5
5
5
5
5
5
5
5
5
5
5
5
5
5
5
5
5
5
5
5
5
5
5
5
5
5
5
5
5
5
5
5
5
5
5
5
5
5
5
5
5
5
5
5
5
5
5

POINT_DATA 1067

VECTORS coord float
0.0 0.0 0.0 
5.000000000000e+01 -1.000000000000e+01 0.0 
0.0 -2.000000000000e+01 0.0 
5.000000000000e+01 -2.000000000000e+01 0.0 
0.0 -9.999999999991e-01 0.0 
0.0 -1.999999999998e+00 0.0 
0.0 -2.999999999997e+00 0.0 
0.0 -3.999999999994e+00 0.0 
0.0 -4.999999999991e+00 0.0 
0.0 -5.999999999988e+00 0.0 
0.0 -6.999999999985e+00 0.0 
0.0 -7.999999999982e+00 0.0 
0.0 -8.999999999983e+00 0.0 
0.0 -9.999999999985e+00 0.0 
0.0 -1.099999999999e+01 0.0 
0.0 -1.199999999999e+01 0.0 
0.0 -1.299999999999e+01 0.0 
0.0 -1.399999999999e+01 0.0 
0.0 -1.499999999999e+01 0.0 
0.0 -1.599999999999e+01 0.0 
0.0 -1.700000000000e+01 0.0 
0.0 -1.800000000000e+01 0.0 
0.0 -1.900000000000e+01 0.0 
4.900000000001e+01 -2.000000000000e+01 0.0 
4.800000000001e+01 -2.000000000000e+01 0.0 
4.700000000002e+01 -2.000000000000e+01 0.0 
4.600000000003e+01 -2.000000000000e+01 0.0 
4.500000000004e+01 -2.000000000000e+01 0.0 
4.400000000004e+01 -2.000000000000e+01 0.0 
4.300000000005e+01 -2.000000000000e+01 0.0 
4.200000000006e+01 -2.000000000000e+01 0.0 
4.100000000006e+01 -2.000000000000e+01 0.0 
4.000000000007e+01 -2.000000000000e+01 0.0 
3.900000000008e+01 -2.000000000000e+01 0.0 
3.800000000009e+01 -2.000000000000e+01 0.0 
3.700000000009e+01 -2.000000000000e+01 0.0 
3.600000000010e+01 -2.000000000000e+01 0.0 
3.500000000011e+01 -2.000000000000e+01 0.0 
3.400000000011e+01 -2.000000000000e+01 0.0 
3.300000000012e+01 -2.000000000000e+01 0.0 
3.200000000013e+01 -2.000000000000e+01 0.0 
3.100000000013e+01 -2.000000000000e+01 0.0 
3.000000000013e+01 -2.000000000000e+01 0.0 
2.900000000013e+01 -2.000000000000e+01 0.0 
2.800000000013e+01 -2.000000000000e+01 0.0 
2.700000000013e+01 -2.000000000000e+01 0.0 
2.600000000013e+01 -2.000000000000e+01 0.0 
2.500000000013e+01 -2.000000000000e+01 0.0 
2.400000000013e+01 -2.000000000000e+01 0.0 
2.300000000013e+01 -2.000000000000e+01 0.0 
2.200000000013e+01 -2.000000000000e+01 0.0 
2.100000000013e+01 -2.000000000000e+01 0.0 
2.000000000013e+01 -2.000000000000e+01 0.0 
1.900000000013e+01 -2.000000000000e+01 0.0 
1.800000000013e+01 -2.000000000000e+01 0.0 
1.700000000012e+01 -2.000000000000e+01 0.0 
1.600000000011e+01 -2.000000000000e+01 0.0 
1.500000000011e+01 -2.000000000000e+01 0.0 
1.400000000010e+01 -2.000000000000e+01 0.0 
1.300000000009e+01 -2.000000000000e+01 0.0 
1.200000000009e+01 -2.000000000000e+01 0.0 
1.100000000008e+01 -2.000000000000e+01 0.0 
1.000000000007e+01 -2.000000000000e+01 0.0 
9.000000000064e+00 -2.000000000000e+01 0.0 
8.000000000057e+00 -2.000000000000e+01 0.0 
7.000000000050e+00 -2.000000000000e+01 0.0 
6.000000000043e+00 -2.000000000000e+01 0.0 
5.000000000036e+00 -2.000000000000e+01 0.0 
4.000000000028e+00 -2.000000000000e+01 0.0 
3.000000000021e+00 -2.000000000000e+01 0.0 
2.000000000014e+00 -2.000000000000e+01 0.0 
1.000000000007e+00 -2.000000000000e+01 0.0 
5.000000000000e+01 -1.100000000000e+01 0.0 
5.000000000000e+01 -1.200000000000e+01 0.0 
5.000000000000e+01 -1.300000000000e+01 0.0 
5.000000000000e+01 -1.400000000000e+01 0.0 
5.000000000000e+01 -1.500000000000e+01 0.0 
5.000000000000e+01 -1.600000000000e+01 0.0 
5.000000000000e+01 -1.700000000000e+01 0.0 
5.000000000000e+01 -1.800000000000e+01 0.0 
5.000000000000e+01 -1.900000000000e+01 0.0 
2.000000000000e+01 0.0 0.0 
3.500000000000e+01 -1.000000000000e+01 0.0 
2.150000000000e+01 -1.000000000000e+00 0.0 
2.300000000000e+01 -2.000000000000e+00 0.0 
2.450000000000e+01 -3.000000000000e+00 0.0 
2.600000000000e+01 -4.000000000000e+00 0.0 
2.750000000000e+01 -5.000000000000e+00 0.0 
2.900000000000e+01 -6.000000000000e+00 0.0 
3.050000000000e+01 -7.000000000000e+00 0.0 
3.200000000000e+01 -8.000000000000e+00 0.0 
3.350000000000e+01 -9.000000000000e+00 0.0 
5.000000000000e+01 -8.000000000000e+00 0.0 
5.000000000000e+01 -9.000000000000e+00 0.0 
4.900000000000e+01 -1.000000000000e+01 0.0 
4.800000000000e+01 -1.000000000000e+01 0.0 
4.700000000000e+01 -1.000000000000e+01 0.0 
4.600000000000e+01 -1.000000000000e+01 0.0 
4.500000000000e+01 -1.000000000000e+01 0.0 
4.400000000000e+01 -1.000000000000e+01 0.0 
4.300000000000e+01 -1.000000000000e+01 0.0 
4.200000000000e+01 -1.000000000000e+01 0.0 
4.100000000000e+01 -1.000000000000e+01 0.0 
4.000000000000e+01 -1.000000000000e+01 0.0 
3.900000000000e+01 -1.000000000000e+01 0.0 
3.800000000000e+01 -1.000000000000e+01 0.0 
3.700000000000e+01 -1.000000000000e+01 0.0 
3.600000000000e+01 -1.000000000000e+01 0.0 
1.900000000000e+01 0.0 0.0 
1.800000000000e+01 0.0 0.0 
1.700000000000e+01 0.0 0.0 
1.600000000000e+01 0.0 0.0 
1.500000000000e+01 0.0 0.0 
1.400000000000e+01 0.0 0.0 
1.300000000000e+01 0.0 0.0 
1.200000000000e+01 0.0 0.0 
1.100000000000e+01 0.0 0.0 
1.000000000000e+01 0.0 0.0 
9.000000000000e+00 0.0 0.0 
8.000000000000e+00 0.0 0.0 
7.000000000000e+00 0.0 0.0 
6.000000000000e+00 0.0 0.0 
5.000000000000e+00 0.0 0.0 
4.000000000000e+00 0.0 0.0 
3.000000000000e+00 0.0 0.0 
2.000000000000e+00 0.0 0.0 
1.000000000000e+00 0.0 0.0 
4.900000000000e+01 -8.000000000000e+00 0.0 
4.800000000000e+01 -8.000000000000e+00 0.0 
4.700000000000e+01 -8.000000000000e+00 0.0 
4.600000000000e+01 -8.000000000000e+00 0.0 
4.500000000000e+01 -8.000000000000e+00 0.0 
4.400000000000e+01 -8.000000000000e+00 0.0 
4.300000000000e+01 -8.000000000000e+00 0.0 
4.200000000000e+01 -8.000000000000e+00 0.0 
4.100000000000e+01 -8.000000000000e+00 0.0 
4.000000000000e+01 -8.000000000000e+00 0.0 
3.900000000000e+01 -8.000000000000e+00 0.0 
3.800000000000e+01 -8.000000000000e+00 0.0 
3.700000000000e+01 -8.000000000000e+00 0.0 
3.600000000000e+01 -8.000000000000e+00 0.0 
3.500000000000e+01 -8.000000000000e+00 0.0 
3.400000000000e+01 -8.000000000000e+00 0.0 
3.300000000000e+01 -8.000000000000e+00 0.0 
3.447058823527e+01 -9.000000000000e+00 0.0 
3.544117647055e+01 -9.000000000000e+00 0.0 
3.641176470582e+01 -9.000000000000e+00 0.0 
3.738235294109e+01 -9.000000000000e+00 0.0 
3.835294117637e+01 -9.000000000000e+00 0.0 
3.932352941164e+01 -9.000000000000e+00 0.0 
4.029411764691e+01 -9.000000000000e+00 0.0 
4.126470588219e+01 -9.000000000000e+00 0.0 
4.223529411748e+01 -9.000000000000e+00 0.0 
4.320588235279e+01 -9.000000000000e+00 0.0 
4.417647058811e+01 -9.000000000000e+00 0.0 
4.514705882342e+01 -9.000000000000e+00 0.0 
4.611764705874e+01 -9.000000000000e+00 0.0 
4.708823529405e+01 -9.000000000000e+00 0.0 
4.805882352937e+01 -9.000000000000e+00 0.0 
4.902941176468e+01 -9.000000000000e+00 0.0 
2.075000000000e+01 -5.000000000006e-01 0.0 
2.225000000000e+01 -1.500000000000e+00 0.0 
2.375000000000e+01 -2.500000000000e+00 0.0 
2.525000000000e+01 -3.500000000000e+00 0.0 
2.675000000000e+01 -4.500000000000e+00 0.0 
2.825000000000e+01 -5.500000000000e+00 0.0 
2.975000000000e+01 -6.500000000000e+00 0.0 
3.125000000000e+01 -7.500000000000e+00 0.0 
3.275000000000e+01 -8.500000000000e+00 0.0 
3.425000000000e+01 -9.500000000000e+00 0.0 
2.226951693683e+01 -2.403913980114e+00 0.0 
1.650149491944e+01 -1.913490915758e+01 0.0 
1.050042386896e+01 -8.504605092970e-01 0.0 
1.553146524712e+01 -8.281255032105e-01 0.0 
1.150000000008e+01 -1.913397459621e+01 0.0 
2.530060260647e+01 -4.428336431260e+00 0.0 
8.651114563942e-01 -1.052096295641e+01 0.0 
2.050000000013e+01 -1.913397459622e+01 0.0 
2.819198729811e+01 -6.399519052838e+00 0.0 
2.445670302931e+01 -1.915649188023e+01 0.0 
3.117591465718e+01 -8.394293040695e+00 0.0 
7.465053044742e+00 -1.920411160581e+01 0.0 
6.398295709691e+00 -8.230098819370e-01 0.0 
2.849659607461e+01 -1.914296187762e+01 0.0 
3.418732642882e+01 -1.040265792588e+01 0.0 
8.386450935063e-01 -6.533605142809e+00 0.0 
9.178661865596e-01 -1.329769195597e+01 0.0 
3.149448624493e+01 -1.910466733764e+01 0.0 
3.552916747426e+01 -1.914628590759e+01 0.0 
4.449210346537e+01 -1.914359085008e+01 0.0 
4.140975975145e+01 -1.906941860733e+01 0.0 
3.847475958753e+01 -1.916622382724e+01 0.0 
3.653774794640e+01 -1.088712800241e+01 0.0 
4.047886341787e+01 -1.090139014048e+01 0.0 
4.348006339825e+01 -1.092792621489e+01 0.0 
4.919519968029e+01 -1.451526755068e+01 0.0 
4.500000000032e+00 -1.913397459621e+01 0.0 
1.856136921614e+01 -8.212235170404e-01 0.0 
3.499895312306e+00 -8.661165539723e-01 0.0 
9.076088696565e-01 -1.642306201891e+01 0.0 
4.655174095477e+01 -1.086183387525e+01 0.0 
9.430688970604e-01 -3.496112672958e+00 0.0 
3.353992337063e+01 -1.901202090820e+01 0.0 
2.249746016977e+01 -1.921262287282e+01 0.0 
2.650122741777e+01 -1.916123026018e+01 0.0 
1.863571384842e+01 -1.908325534840e+01 0.0 
1.450089971693e+01 -1.917691901860e+01 0.0 
1.350044695317e+01 -8.659695299584e-01 0.0 
3.849987469880e+01 -1.084154983397e+01 0.0 
9.454419857884e+00 -1.900818879936e+01 0.0 
4.917398660523e+01 -1.645692866081e+01 0.0 
8.500000000000e+00 -8.660254037844e-01 0.0 
8.660319230785e-01 -8.500111697188e+00 0.0 
4.649022621545e+01 -1.930506220113e+01 0.0 
2.667688107845e+01 -5.420288124331e+00 0.0 
2.379251615665e+01 -3.412225477429e+00 0.0 
2.966631491830e+01 -7.389030232731e+00 0.0 
3.267915035995e+01 -9.396934932445e+00 0.0 
2.074836922338e+01 -1.320054020319e+00 0.0 
4.915985743621e+01 -1.261973384855e+01 0.0 
2.527129768623e+00 -1.931592414663e+01 0.0 
1.538676247410e+00 -8.436956619311e-01 0.0 
4.908096641539e+01 -1.842484004551e+01 0.0 
3.478612492673e+01 -1.090889364140e+01 0.0 
3.409757055860e+01 -1.131991530427e+01 0.0 
3.501895309466e+01 -1.177687842717e+01 0.0 
3.407758073088e+01 -1.224293381580e+01 0.0 
3.484541875390e+01 -1.277051428430e+01 0.0 
3.400322025842e+01 -1.319022775640e+01 0.0 
3.321672625034e+01 -1.266779191233e+01 0.0 
3.315244139236e+01 -1.360984106532e+01 0.0 
3.236335186892e+01 -1.308463225210e+01 0.0 
3.478337442841e+01 -1.372341158982e+01 0.0 
3.230105923633e+01 -1.403023731610e+01 0.0 
3.150954055289e+01 -1.350301767700e+01 0.0 
3.144604792090e+01 -1.444931742516e+01 0.0 
3.065653897123e+01 -1.392357262981e+01 0.0 
3.071897610812e+01 -1.297447031198e+01 0.0 
2.986790411740e+01 -1.339226181535e+01 0.0 
2.993181466745e+01 -1.244703272398e+01 0.0 
2.908023061869e+01 -1.286254537734e+01 0.0 
2.901619051372e+01 -1.380881655279e+01 0.0 
2.822986160390e+01 -1.327695262116e+01 0.0 
2.829453476870e+01 -1.233265343811e+01 0.0 
2.744542905518e+01 -1.274510491105e+01 0.0 
2.751120089246e+01 -1.180368086886e+01 0.0 
2.666218649885e+01 -1.221619339205e+01 0.0 
2.672371209234e+01 -1.127125228527e+01 0.0 
2.587763216302e+01 -1.168539979114e+01 0.0 
2.581165585299e+01 -1.262994410089e+01 0.0 
2.502890882577e+01 -1.209827323619e+01 0.0 
2.509631327757e+01 -1.115492410304e+01 0.0 
2.424662989877e+01 -1.156630981079e+01 0.0 
2.431704046904e+01 -1.062389179334e+01 0.0 
2.346445438728e+01 -1.103427680694e+01 0.0 
2.339382552877e+01 -1.197964871788e+01 0.0 
2.260936050780e+01 -1.144513277642e+01 0.0 
2.268075012022e+01 -1.049911928216e+01 0.0 
2.182525737661e+01 -1.090920811464e+01 0.0 
2.189682319817e+01 -9.961716944568e+00 0.0 
2.104174127792e+01 -1.037266986667e+01 0.0 
2.111304367575e+01 -9.424179358711e+00 0.0 
2.025306185381e+01 -9.832727364719e+00 0.0 
2.018141124247e+01 -1.079140628871e+01 0.0 
1.938594498257e+01 -1.025147354112e+01 0.0 
1.946106490453e+01 -9.288010758448e+00 0.0 
1.858929958352e+01 -9.706319802516e+00 0.0 
1.851540991219e+01 -1.067205988724e+01 0.0 
1.771485303178e+01 -1.012504443115e+01 0.0 
1.764134552256e+01 -1.109360378538e+01 0.0 
1.683745148095e+01 -1.054496365337e+01 0.0 
1.691852964353e+01 -9.582555261178e+00 0.0 
1.603603813062e+01 -1.000160132379e+01 0.0 
1.595824239350e+01 -1.096750698862e+01 0.0 
1.515080624291e+01 -1.041639501931e+01 0.0 
1.523171602559e+01 -9.451711491453e+00 0.0 
1.434621060709e+01 -9.871956467464e+00 0.0 
1.426777178765e+01 -1.083749501371e+01 0.0 
1.345775282374e+01 -1.028803175500e+01 0.0 
1.354103873368e+01 -9.324918457162e+00 0.0 
1.265072018622e+01 -9.742612837270e+00 0.0 
1.257285762070e+01 -1.071557782384e+01 0.0 
1.175874815690e+01 -1.015972324288e+01 0.0 
1.184203019714e+01 -9.193604071377e+00 0.0 
1.094927709905e+01 -9.612103238656e+00 0.0 
1.086938022910e+01 -1.058685085646e+01 0.0 
1.005424098961e+01 -1.002939116380e+01 0.0 
9.977974613295e+00 -1.101324897989e+01 0.0 
1.012915646404e+01 -9.051815821181e+00 0.0 
9.237127782494e+00 -9.471239055559e+00 0.0 
9.308426593771e+00 -8.483376461131e+00 0.0 
8.418806073345e+00 -8.910712374517e+00 0.0 
2.253688464062e+01 -1.239459402279e+01 0.0 
8.495126726666e+00 -7.921646665254e+00 0.0 
9.389727383206e+00 -7.512103628377e+00 0.0 
7.601560812974e+00 -8.349460349344e+00 0.0 
7.525680547759e+00 -9.339736686940e+00 0.0 
7.677888324502e+00 -7.359727833346e+00 0.0 
6.782001206724e+00 -7.788454494773e+00 0.0 
6.858778622885e+00 -6.797338062822e+00 0.0 
2.196596590865e+01 -8.979025665442e+00 0.0 
2.816540108272e+01 -1.422634142353e+01 0.0 
5.961601194403e+00 -7.226824010712e+00 0.0 
6.038171749656e+00 -6.234825887079e+00 0.0 
6.936257279557e+00 -5.805287640737e+00 0.0 
6.115068918323e+00 -5.242109758768e+00 0.0 
3.564391741903e+01 -1.329240553876e+01 0.0 
3.558115605778e+01 -1.425902892003e+01 0.0 
3.645445282201e+01 -1.381970786460e+01 0.0 
3.639744204358e+01 -1.479198128612e+01 0.0 
3.727266909778e+01 -1.435399586226e+01 0.0 
5.216667013081e+00 -5.671788584287e+00 0.0 
3.220697293295e+01 -1.499594545107e+01 0.0 
3.551112158269e+01 -1.523479869250e+01 0.0 
2.836056961467e+01 -1.139032434851e+01 0.0 
2.516730388602e+01 -1.021382726837e+01 0.0 
1.844436907403e+01 -1.164097215196e+01 0.0 
5.885434318740e+00 -8.218694781467e+00 0.0 
5.064071066867e+00 -7.656614643901e+00 0.0 
4.988089103470e+00 -8.649722082718e+00 0.0 
1.079421050408e+01 -1.157014985435e+01 0.0 
9.902420005256e+00 -1.199903342656e+01 0.0 
1.071994252214e+01 -1.255727909771e+01 0.0 
9.826974788171e+00 -1.298659581767e+01 0.0 
1.064607883789e+01 -1.354595476388e+01 0.0 
9.751541265343e+00 -1.397556905071e+01 0.0 
8.932296185869e+00 -1.341553353988e+01 0.0 
8.856399248106e+00 -1.440570715508e+01 0.0 
8.036186803543e+00 -1.384470558472e+01 0.0 
1.057112875118e+01 -1.453516759081e+01 0.0 
1.146582585687e+01 -1.410539926903e+01 0.0 
7.959894480382e+00 -1.483563350928e+01 0.0 
7.138792279156e+00 -1.427465094140e+01 0.0 
7.062506792418e+00 -1.526615385482e+01 0.0 
6.240693558277e+00 -1.470508863040e+01 0.0 
6.316957575451e+00 -1.371212581281e+01 0.0 
5.418183007107e+00 -1.414253605022e+01 0.0 
5.494748364428e+00 -1.314886770603e+01 0.0 
1.756825565873e+01 -1.206433872514e+01 0.0 
1.837565773345e+01 -1.261356468266e+01 0.0 
1.749574831391e+01 -1.303769280014e+01 0.0 
1.830539187332e+01 -1.358828364284e+01 0.0 
1.742278925170e+01 -1.401367746928e+01 0.0 
1.823303007798e+01 -1.456432294258e+01 0.0 
1.734941694138e+01 -1.499213734361e+01 0.0 
1.653760041637e+01 -1.443920312098e+01 0.0 
3.056237977307e+01 -1.487132260174e+01 0.0 
1.866469084762e+01 -8.742953000418e+00 0.0 
1.953669694916e+01 -8.326038909849e+00 0.0 
1.874194303780e+01 -7.780688158966e+00 0.0 
1.961032016741e+01 -7.366854697285e+00 0.0 
1.881715755159e+01 -6.821102209649e+00 0.0 
1.968369797150e+01 -6.407747217358e+00 0.0 
1.889237123259e+01 -5.858375520026e+00 0.0 
1.802038875366e+01 -6.276202618170e+00 0.0 
1.809793837984e+01 -5.307629520489e+00 0.0 
1.721985207997e+01 -5.728242054488e+00 0.0 
1.729850893523e+01 -4.756990819347e+00 0.0 
1.641745664240e+01 -5.174636548624e+00 0.0 
2.495978509456e+01 -1.304406404294e+01 0.0 
1.911567814831e+01 -1.413854250293e+01 0.0 
1.904387332608e+01 -1.511463127723e+01 0.0 
1.992115934240e+01 -1.468788025898e+01 0.0 
7.013706899628e+00 -4.812582868662e+00 0.0 
5.342091874585e+00 -1.513658157269e+01 0.0 
1.139098043784e+01 -1.509488509480e+01 0.0 
1.228151810610e+01 -1.465617481983e+01 0.0 
1.646373110164e+01 -1.541993323337e+01 0.0 
5.293328636712e+00 -4.678385108584e+00 0.0 
1.975965862987e+01 -5.448124345648e+00 0.0 
2.054318374236e+01 -5.992561293251e+00 0.0 
3.721453439063e+01 -1.533216152738e+01 0.0 
3.809302733893e+01 -1.489235527381e+01 0.0 
1.220852788900e+01 -1.565304565230e+01 0.0 
4.394120899730e+00 -5.108397613210e+00 0.0 
8.779354620288e+00 -1.539524721159e+01 0.0 
1.817791047702e+01 -4.338570146253e+00 0.0 
4.518860013839e+00 -1.457343189307e+01 0.0 
4.442712140414e+00 -1.556841391069e+01 0.0 
8.115343466391e+00 -1.285760324283e+01 0.0 
1.985334703171e+01 -1.566478400426e+01 0.0 
2.071953850276e+01 -1.522074243119e+01 0.0 
1.634012953883e+01 -6.154777738301e+00 0.0 
1.553479994708e+01 -5.593730508879e+00 0.0 
1.561265946942e+01 -4.617761762647e+00 0.0 
1.470674212978e+01 -5.064576488228e+00 0.0 
1.464498299883e+01 -6.026514471420e+00 0.0 
1.383271561817e+01 -5.467796261169e+00 0.0 
1.389241253067e+01 -4.504338666645e+00 0.0 
1.301868735463e+01 -4.907185188626e+00 0.0 
1.294514184846e+01 -5.888160903592e+00 0.0 
1.212955968622e+01 -5.328262335277e+00 0.0 
1.220721122383e+01 -4.341264976687e+00 0.0 
1.131324345897e+01 -4.766773516508e+00 0.0 
5.266597955397e+00 -1.613148974258e+01 0.0 
1.737805990867e+01 -3.786677807525e+00 0.0 
3.078438094513e+01 -1.203225297748e+01 0.0 
1.131569882285e+01 -1.608511932110e+01 0.0 
1.728478341782e+01 -1.596017432313e+01 0.0 
3.803465906019e+01 -1.587509751228e+01 0.0 
3.891681276677e+01 -1.543395196905e+01 0.0 
3.897340985302e+01 -1.444710288980e+01 0.0 
3.980095968193e+01 -1.499059496613e+01 0.0 
3.974334598189e+01 -1.597921884150e+01 0.0 
4.062964983717e+01 -1.553518690417e+01 0.0 
4.068729602479e+01 -1.454434445295e+01 0.0 
4.151772679790e+01 -1.508974196007e+01 0.0 
4.157505195739e+01 -1.409694289912e+01 0.0 
4.240699932656e+01 -1.464347955968e+01 0.0 
4.234898051011e+01 -1.563721375790e+01 0.0 
4.323934606035e+01 -1.519082036405e+01 0.0 
4.329740528208e+01 -1.419587509788e+01 0.0 
4.413056841369e+01 -1.474359631875e+01 0.0 
4.418850110108e+01 -1.374786684042e+01 0.0 
4.502219770667e+01 -1.429605103525e+01 0.0 
4.496411937907e+01 -1.529215882720e+01 0.0 
4.490027319897e+00 -4.154167794594e+00 0.0 
1.565080385988e+01 -1.486411982419e+01 0.0 
1.557610691279e+01 -1.584855627870e+01 0.0 
4.195350646612e+00 -8.089117689096e+00 0.0 
4.124027797830e+00 -9.082831955007e+00 0.0 
4.917944318925e+00 -9.643530901533e+00 0.0 
4.020105689502e+00 -1.007439673661e+01 0.0 
4.587185899277e+01 -1.484039992728e+01 0.0 
4.580078661551e+01 -1.584043391042e+01 0.0 
2.061956522375e+01 -5.046701343981e+00 0.0 
2.139572955529e+01 -5.579553449826e+00 0.0 
3.715344357292e+01 -1.631485124583e+01 0.0 
3.618886196443e+00 -1.500471207167e+01 0.0 
3.695606940204e+00 -1.400939692294e+01 0.0 
2.438890661143e+01 -9.686110599723e+00 0.0 
2.523267572778e+01 -9.276766000622e+00 0.0 
2.446094171539e+01 -8.751904591412e+00 0.0 
2.529089822738e+01 -8.321495612547e+00 0.0 
2.606882688827e+01 -8.864724051119e+00 0.0 
2.452116646430e+01 -7.792756462004e+00 0.0 
1.235543269617e+01 -1.365845617339e+01 0.0 
4.318116874181e+01 -1.618567469992e+01 0.0 
7.835066111909e+00 -5.376366223896e+00 0.0 
7.905687335704e+00 -4.382539065697e+00 0.0 
3.542640009567e+00 -1.600035116542e+01 0.0 
1.572431503071e+01 -1.388358386695e+01 0.0 
2.574684696680e+01 -1.357896141127e+01 0.0 
2.488842657651e+01 -1.399674354505e+01 0.0 
2.568301775611e+01 -1.453552048595e+01 0.0 
2.481535572009e+01 -1.495542756508e+01 0.0 
2.561729699688e+01 -1.549784648532e+01 0.0 
2.474623061296e+01 -1.592058894178e+01 0.0 
2.394234041695e+01 -1.537572575827e+01 0.0 
2.065825452567e+01 -1.621899055217e+01 0.0 
2.387180528935e+01 -1.634552264687e+01 0.0 
4.585364400844e+01 -1.383912334080e+01 0.0 
1.998744432052e+01 -1.370317155541e+01 0.0 
1.205356951443e+01 -6.313580285498e+00 0.0 
5.396543905849e+00 -3.731818611283e+00 0.0 
1.139652573295e+01 -3.745819399350e+00 0.0 
3.574124306703e+00 -4.551456826011e+00 0.0 
3.494140761930e+00 -5.539787055649e+00 0.0 
1.213651452413e+01 -1.664505033022e+01 0.0 
2.555045568519e+01 -1.646529356744e+01 0.0 
2.641671114986e+01 -1.603899382371e+01 0.0 
2.612920721894e+01 -7.906435260873e+00 0.0 
2.690339829698e+01 -8.456969591431e+00 0.0 
1.978024383368e+01 -1.664410216353e+01 0.0 
3.732829979082e+01 -1.336926601859e+01 0.0 
4.074336584605e+01 -1.355133328401e+01 0.0 
4.163204691081e+01 -1.310280943992e+01 0.0 
3.773826114429e+00 -3.493444309145e+00 0.0 
1.228783001032e+01 -3.374822835872e+00 0.0 
4.057110462520e+01 -1.652588478000e+01 0.0 
2.132535497898e+01 -6.523623360525e+00 0.0 
2.216932532211e+01 -6.110044769206e+00 0.0 
1.825781152128e+01 -3.370146817147e+00 0.0 
1.745679445888e+01 -2.812942552063e+00 0.0 
4.666517057280e+01 -1.539981381543e+01 0.0 
4.660575894464e+01 -1.639014410186e+01 0.0 
4.838230979954e+00 -1.063643436446e+01 0.0 
3.938942630206e+00 -1.106778981745e+01 0.0 
1.302967218620e+01 -1.621373452436e+01 0.0 
1.049548003190e+01 -4.204825123240e+00 0.0 
4.573571907195e+01 -1.683820511148e+01 0.0 
1.483686335807e+01 -1.430849689310e+01 0.0 
1.490982658890e+01 -1.332679386284e+01 0.0 
3.190805600162e+00 -9.510968358545e+00 0.0 
2.146625721848e+01 -4.642437303115e+00 0.0 
2.069866208266e+01 -4.111852942193e+00 0.0 
1.286859345584e+01 -6.873252723348e+00 0.0 
1.041794493184e+01 -5.194814260291e+00 0.0 
2.671081808965e+00 -4.976806516331e+00 0.0 
1.295786792925e+01 -1.720506531799e+01 0.0 
3.968438206511e+01 -1.696869067241e+01 0.0 
2.308550456051e+01 -1.579963151273e+01 0.0 
2.315593682844e+01 -1.482967445235e+01 0.0 
2.299471449450e+01 -1.677069968132e+01 0.0 
1.057344714696e+01 -3.214252277840e+00 0.0 
1.124057603753e+01 -1.707713739755e+01 0.0 
2.718402535754e+00 -1.543629882103e+01 0.0 
2.638549692805e+01 -1.696744916809e+01 0.0 
2.723416349007e+01 -1.658104204545e+01 0.0 
2.210193351704e+01 -7.046769643417e+00 0.0 
2.295180925161e+01 -6.657397605239e+00 0.0 
2.301355235833e+01 -5.709111896800e+00 0.0 
2.379052718281e+01 -6.254965406962e+00 0.0 
3.243528601237e+01 -1.214181853533e+01 0.0 
2.287977995457e+01 -7.583722368300e+00 0.0 
2.999876029544e+01 -1.150837653096e+01 0.0 
3.084435366963e+01 -1.109693775882e+01 0.0 
3.006650579669e+01 -1.057778994262e+01 0.0 
2.683802665066e+01 -9.386863216633e+00 0.0 
2.768641973621e+01 -8.988883915666e+00 0.0 
2.040296980397e+01 -7.903629133404e+00 0.0 
1.925235024054e+01 -1.218872783130e+01 0.0 
5.735667000424e+00 -1.020577277283e+01 0.0 
6.396559909872e+00 -1.272326295703e+01 0.0 
1.161199420714e+01 -1.212812778229e+01 0.0 
4.229046132615e+01 -1.663084237572e+01 0.0 
4.312275399692e+01 -1.718087491556e+01 0.0 
4.335502068163e+01 -1.320039231514e+01 0.0 
4.424630298089e+01 -1.275160688731e+01 0.0 
7.090116643816e+00 -3.818998061530e+00 0.0 
7.989472176569e+00 -3.389238711200e+00 0.0 
9.085824861778e+00 -1.144036167408e+01 0.0 
1.041972423731e+01 -1.651614080893e+01 0.0 
3.797525112640e+01 -1.686052038746e+01 0.0 
3.709114253394e+01 -1.730125999865e+01 0.0 
3.626966748340e+01 -1.675477052919e+01 0.0 
1.385164591440e+01 -1.677597757552e+01 0.0 
1.787152588784e+01 -8.198993896093e+00 0.0 
1.668849729812e+01 -1.248560611628e+01 0.0 
1.659546177905e+01 -3.232482605530e+00 0.0 
2.332214717345e+01 -1.292598167641e+01 0.0 
7.168238450786e+00 -2.824711686516e+00 0.0 
2.894878403906e+01 -1.475427524446e+01 0.0 
2.646763248247e+00 -1.643270107952e+01 0.0 
3.467431944285e+00 -1.699648837348e+01 0.0 
2.059475877282e+01 -1.719473628526e+01 0.0 
3.333868355437e+01 -1.080596971682e+01 0.0 
2.246451062637e+01 -1.334557761546e+01 0.0 
2.167821896388e+01 -1.280847834858e+01 0.0 
3.089653185767e+01 -1.017198487212e+01 0.0 
3.012604365669e+01 -9.657298805968e+00 0.0 
2.929627299435e+01 -1.006100135274e+01 0.0 
2.936201435219e+01 -9.136748899251e+00 0.0 
1.198219052702e+01 -7.291887238230e+00 0.0 
1.116702076035e+01 -6.731976101053e+00 0.0 
2.551388807505e+01 -1.746927036981e+01 0.0 
2.378639090370e+01 -1.728678807149e+01 0.0 
2.718543627188e+01 -1.748668016909e+01 0.0 
2.804681050301e+01 -1.712626668293e+01 0.0 
1.970737034667e+01 -1.762317646822e+01 0.0 
1.889535776135e+01 -1.707158098231e+01 0.0 
2.593777711283e+00 -5.971157087874e+00 0.0 
2.773468281110e+01 -8.067164273938e+00 0.0 
4.051205884347e+01 -1.751819982458e+01 0.0 
3.166903145421e+01 -1.068032992414e+01 0.0 
1.033042452886e+01 -1.748285844336e+01 0.0 
9.519274604626e+00 -1.694349240233e+01 0.0 
1.668308673328e+01 -2.255861778986e+00 0.0 
1.570531902832e+01 -2.676795860126e+00 0.0 
4.655826903379e+01 -1.736656245706e+01 0.0 
2.384148070773e+01 -5.328744256413e+00 0.0 
2.460255123641e+01 -5.852182672816e+00 0.0 
2.306638135119e+01 -4.798935440613e+00 0.0 
8.467720450578e-01 -1.849576263072e+01 0.0 
4.849657322345e+01 -1.084860705506e+01 0.0 
2.565860899507e+00 -1.742859793981e+01 0.0 
2.764418872564e+01 -9.927142821799e+00 0.0 
4.565165880064e+01 -1.785336695404e+01 0.0 
2.162231831329e+01 -1.376528337468e+01 0.0 
2.360646352969e+01 -9.136041963102e+00 0.0 
1.392738739903e+01 -1.578285505772e+01 0.0 
4.756405947478e+01 -1.683706841809e+01 0.0 
4.740895034054e+01 -1.793766756892e+01 0.0 
4.080779328826e+01 -1.257387192544e+01 0.0 
4.168907939671e+01 -1.210739129181e+01 0.0 
3.991197722154e+01 -1.300815793917e+01 0.0 
1.905536506762e+01 -3.940076697685e+00 0.0 
1.923879596617e+01 -2.875000734166e+00 0.0 
4.401386745746e+01 -1.673483229438e+01 0.0 
4.247233362525e+00 -7.094581653070e+00 0.0 
3.286051630211e+00 -7.635300020553e+00 0.0 
9.609533347623e+00 -4.594311677967e+00 0.0 
9.523554636369e+00 -5.595597029530e+00 0.0 
5.660336628893e+00 -1.119290329628e+01 0.0 
6.558070063295e+00 -1.076385809362e+01 0.0 
2.809866407414e+01 -1.518037766799e+01 0.0 
2.888868674504e+01 -1.570360690070e+01 0.0 
2.654431550819e+01 -1.411217777162e+01 0.0 
1.402158265969e+01 -1.375404617952e+01 0.0 
1.409592494026e+01 -1.277071998942e+01 0.0 
1.499355196178e+01 -1.235270737023e+01 0.0 
4.221535326155e+01 -1.759335617494e+01 0.0 
4.305583287033e+01 -1.822663146802e+01 0.0 
1.280748808359e+01 -7.834332838285e+00 0.0 
1.368988389326e+01 -7.420529606172e+00 0.0 
1.110091796060e+01 -7.683966794328e+00 0.0 
3.963446145980e+01 -1.794331310122e+01 0.0 
3.423932362213e+00 -1.796415590455e+01 0.0 
4.280814572302e+00 -1.752272834860e+01 0.0 
8.050136380041e+00 -2.421582378631e+00 0.0 
8.888674091650e+00 -2.984264211327e+00 0.0 
2.152839430898e+01 -3.732609965436e+00 0.0 
2.077799585292e+01 -3.183896021866e+00 0.0 
3.618719395821e+01 -1.770276572576e+01 0.0 
3.538165138340e+01 -1.718709995539e+01 0.0 
3.702925326420e+01 -1.828844288807e+01 0.0 
1.756739438711e+00 -5.353284859169e+00 0.0 
2.233710191104e+01 -1.527265621324e+01 0.0 
1.389483555057e+01 -1.771797164730e+01 0.0 
1.475634224300e+01 -1.728357428390e+01 0.0 
1.298797563052e+01 -1.825968924755e+01 0.0 
2.145331271866e+01 -1.673705379077e+01 0.0 
2.133282821169e+01 -1.769400773673e+01 0.0 
2.292139194136e+01 -1.774915400288e+01 0.0 
1.750750053243e+01 -1.861475593469e+00 0.0 
4.830478841772e+01 -1.752611802221e+01 0.0 
4.341203507805e+01 -1.220326745522e+01 0.0 
1.685254151866e+01 -1.443085301632e+00 0.0 
4.431538535165e+01 -1.171841387375e+01 0.0 
4.511308610496e+01 -1.229557320599e+01 0.0 
4.510133242889e+01 -1.123680627466e+01 0.0 
1.846818030617e+00 -4.410877617069e+00 0.0 
3.995468694584e+01 -1.186571542989e+01 0.0 
3.901387459804e+01 -1.242507616755e+01 0.0 
8.966735877533e+00 -1.837818700423e+00 0.0 
4.049310011091e+01 -1.848269508791e+01 0.0 
7.278862053803e+00 -1.918523922691e+00 0.0 
6.429715522129e+00 -2.316676521184e+00 0.0 
9.443505505022e+00 -1.792198868094e+01 0.0 
8.620386951051e+00 -1.737590365556e+01 0.0 
8.571868171503e+00 -1.834436667826e+01 0.0 
7.758629848526e+00 -1.775677907213e+01 0.0 
7.806648388584e+00 -1.680761266021e+01 0.0 
6.908555145436e+00 -1.723746463044e+01 0.0 
4.251709122090e+01 -1.156937480156e+01 0.0 
6.931136405615e+00 -1.832465719263e+01 0.0 
6.015545461353e+00 -1.768865355295e+01 0.0 
5.960535926343e+00 -1.872011001764e+01 0.0 
3.023253444786e+01 -8.761960642196e+00 0.0 
2.454622702599e+01 -6.749421992767e+00 0.0 
2.537499741604e+01 -6.347634963783e+00 0.0 
2.544077378460e+01 -5.431358513649e+00 0.0 
2.801367161747e+01 -1.820907270221e+01 0.0 
2.884507806914e+01 -1.762032095326e+01 0.0 
1.821474531936e+00 -1.588901260460e+01 0.0 
1.821006262604e+00 -1.489370287756e+01 0.0 
4.599962488908e+01 -1.176478780598e+01 0.0 
4.705457470007e+01 -1.172182804229e+01 0.0 
4.667668314802e+01 -1.263464558483e+01 0.0 
4.759648056504e+01 -1.252380987933e+01 0.0 
4.728041618103e+01 -1.341928568376e+01 0.0 
4.825209352360e+01 -1.330491640804e+01 0.0 
4.778118233428e+01 -1.420151961695e+01 0.0 
2.388192727579e+01 -1.826934810142e+01 0.0 
2.381714684947e+01 -4.385917965223e+00 0.0 
3.172733219247e+01 -9.758744265248e+00 0.0 
1.882012070658e+01 -1.805540597212e+01 0.0 
1.805667505243e+01 -1.742221226236e+01 0.0 
2.852599958080e+01 -8.597196079481e+00 0.0 
2.856486123437e+01 -7.661382718527e+00 0.0 
1.111792842875e+01 -1.818223852980e+01 0.0 
2.203322722466e+01 -7.986646678802e+00 0.0 
3.955703676900e+01 -1.903246763601e+01 0.0 
1.944842206513e+01 -8.038750575182e-01 0.0 
1.909882767783e+01 -1.746322740933e+00 0.0 
2.281147422941e+01 -8.525912918334e+00 0.0 
2.850633001468e+01 -9.533271335986e+00 0.0 
2.532883344309e+01 -7.308951659710e+00 0.0 
2.620475466461e+01 -6.979208585400e+00 0.0 
1.396278270396e+01 -1.475095389807e+01 0.0 
9.791001166724e+00 -2.554159793552e+00 0.0 
2.229293380421e+01 -4.269762271052e+00 0.0 
4.677238984118e+01 -1.430071795514e+01 0.0 
2.228658385918e+01 -3.344747535984e+00 0.0 
8.940223674553e-01 -1.543595733415e+01 0.0 
2.118566862474e+01 -8.435876987696e+00 0.0 
2.678325936437e+01 -1.032621195706e+01 0.0 
2.223400220487e+01 -5.179046761770e+00 0.0 
2.375370625384e+01 -7.251580562134e+00 0.0 
3.156971327386e+01 -1.255534750737e+01 0.0 
3.328226391312e+01 -1.172914813316e+01 0.0 
3.250948774219e+01 -1.120157009348e+01 0.0 
2.032993445717e+01 -8.867880112202e+00 0.0 
2.697226974856e+01 -7.536633082045e+00 0.0 
2.707377810386e+01 -6.590835263295e+00 0.0 
2.914099246827e+01 -1.191678458549e+01 0.0 
3.544824072239e+01 -1.621126558525e+01 0.0 
3.456511855436e+01 -1.665054783843e+01 0.0 
3.448395810225e+01 -1.759117813016e+01 0.0 
3.368378673938e+01 -1.708037781328e+01 0.0 
3.375560452567e+01 -1.610973066913e+01 0.0 
3.288001547988e+01 -1.654324255651e+01 0.0 
3.282475929147e+01 -1.749725654692e+01 0.0 
3.199880906313e+01 -1.697294088625e+01 0.0 
3.197001272932e+01 -1.811667776864e+01 0.0 
3.111884713021e+01 -1.742166785755e+01 0.0 
3.120418962865e+01 -1.642155709385e+01 0.0 
3.034666704371e+01 -1.683123833816e+01 0.0 
3.026224379976e+01 -1.772592851714e+01 0.0 
3.046632362943e+01 -1.582232843075e+01 0.0 
1.961344017324e+01 -1.857459447985e+01 0.0 
2.274975894774e+01 -9.532738811922e+00 0.0 
1.833923246887e+01 -2.396746883672e+00 0.0 
1.988859500848e+01 -2.249244376594e+00 0.0 
2.758045562861e+01 -1.086434261689e+01 0.0 
3.247300178163e+01 -1.909930104252e+01 0.0 
3.461947482503e+01 -1.911879848019e+01 0.0 
2.047161538662e+01 -6.941478180358e+00 0.0 
2.750230940214e+01 -1.915490590764e+01 0.0 
3.165081350803e+01 -1.161860780120e+01 0.0 
1.897456727641e+01 -4.889634688522e+00 0.0 
2.549338539756e+01 -1.914858252089e+01 0.0 
3.462873135081e+01 -1.567482276144e+01 0.0 
3.384432415243e+01 -1.512280684518e+01 0.0 
3.471433767690e+01 -1.469086942990e+01 0.0 
3.651470373046e+01 -1.918207952149e+01 0.0 
3.901742690249e+01 -1.345028556517e+01 0.0 
2.153224102692e+01 -1.920169709333e+01 0.0 
1.918382939341e+01 -1.316226275662e+01 0.0 
2.005389162382e+01 -1.271962165174e+01 0.0 
2.011472087878e+01 -1.175029352900e+01 0.0 
3.210679478412e+01 -1.598038618242e+01 0.0 
1.752175226543e+01 -1.914713022656e+01 0.0 
1.696897240059e+01 -1.832772588765e+01 0.0 
1.599682523337e+01 -1.832599992024e+01 0.0 
1.644507199462e+01 -1.743697981535e+01 0.0 
1.549987712903e+01 -1.915192375101e+01 0.0 
3.050250861901e+01 -1.918943550234e+01 0.0 
2.949944061527e+01 -1.922950455235e+01 0.0 
1.375892575273e+01 -6.447160534926e+00 0.0 
1.457223670180e+01 -7.006709243857e+00 0.0 
1.450818793236e+01 -7.965943451779e+00 0.0 
1.538804712402e+01 -7.553409623699e+00 0.0 
1.545817644768e+01 -6.580929593419e+00 0.0 
1.626506893751e+01 -7.129032608911e+00 0.0 
1.619833811522e+01 -8.086588580887e+00 0.0 
1.714448609609e+01 -6.697429609777e+00 0.0 
2.887616543568e+01 -1.668015232137e+01 0.0 
1.349814589130e+01 -1.918225301544e+01 0.0 
1.153887772210e+01 -1.311384581217e+01 0.0 
1.242708159886e+01 -1.267046795531e+01 0.0 
1.249799674267e+01 -1.169005616014e+01 0.0 
6.631723893693e+00 -9.774184881867e+00 0.0 
7.451471631867e+00 -1.033148796006e+01 0.0 
7.377795355458e+00 -1.132196345268e+01 0.0 
5.810931797536e+00 -9.211654212252e+00 0.0 
2.402683899133e+01 -1.441378562320e+01 0.0 
1.249768692036e+01 -1.917388426624e+01 0.0 
1.580373499437e+01 -1.290751860664e+01 0.0 
8.344650507834e+00 -9.898403995170e+00 0.0 
3.750622115305e+01 -1.086526401533e+01 0.0 
3.699391251667e+01 -1.171695900794e+01 0.0 
3.606517829518e+01 -1.173717504500e+01 0.0 
3.650257641795e+01 -1.270047380221e+01 0.0 
3.808951488918e+01 -1.183518714175e+01 0.0 
4.760380962420e+00 -1.162484888315e+01 0.0 
3.861210370848e+00 -1.205657631736e+01 0.0 
3.038284309476e+00 -1.149851280664e+01 0.0 
2.961598794889e+00 -1.248856794980e+01 0.0 
2.138953225512e+00 -1.193212674534e+01 0.0 
2.227383593457e+00 -1.096258903918e+01 0.0 
2.043265419276e+00 -1.292158472959e+01 0.0 
1.252449446028e+00 -1.225502002753e+01 0.0 
3.949985210740e+01 -1.086594001795e+01 0.0 
1.453499444792e+01 -8.768805922472e-01 0.0 
1.403518950933e+01 -1.749965556633e+00 0.0 
1.300715031023e+01 -1.714737233040e+00 0.0 
1.350929389899e+01 -2.527443911291e+00 0.0 
1.449600910711e+01 -2.595486162864e+00 0.0 
1.395693872901e+01 -3.484211041558e+00 0.0 
1.495105865208e+01 -3.364609636216e+00 0.0 
1.508822528740e+01 -1.766586020494e+00 0.0 
1.250223858430e+01 -8.634590186802e-01 0.0 
1.200279523409e+01 -1.709044504992e+00 0.0 
1.150086239419e+01 -8.592789190668e-01 0.0 
1.101482754194e+01 -1.677730591922e+00 0.0 
1.148018564526e+01 -2.659323866909e+00 0.0 
8.800552119754e+00 -3.989875954728e+00 0.0 
3.452790439430e+00 -1.901136170646e+01 0.0 
8.658451825200e-01 -9.503462241795e+00 0.0 
1.694787786797e+00 -9.000589234502e+00 0.0 
1.703436717094e+00 -8.038819004041e+00 0.0 
2.594197971110e+00 -8.563955242845e+00 0.0 
1.630513735412e+00 -9.907244747511e+00 0.0 
8.566859292791e-01 -7.512203837972e+00 0.0 
1.685461277022e+00 -7.164280248030e+00 0.0 
2.506394468801e+00 -8.623386730818e-01 0.0 
2.007475081581e+00 -1.727729545205e+00 0.0 
9.211534699767e-01 -1.628791366312e+00 0.0 
1.500000000020e+00 -2.598063549486e+00 0.0 
2.482078929963e+00 -2.553580088725e+00 0.0 
2.999795253092e+00 -1.732169015019e+00 0.0 
3.999712607169e+00 -1.728832897453e+00 0.0 
4.499752199340e+00 -8.656478679175e-01 0.0 
4.964377774841e+00 -1.730129617941e+00 0.0 
4.425017908337e+00 -2.597541756243e+00 0.0 
5.446573195014e+00 -8.410144840023e-01 0.0 
4.915722346614e+01 -1.550640962770e+01 0.0 
4.826794919243e+01 -1.600000000000e+01 0.0 
1.053139533193e+01 -1.911782884365e+01 0.0 
4.156049861949e+01 -1.095160998589e+01 0.0 
9.494526624416e+00 -8.650570090219e-01 0.0 
4.555762166964e+01 -1.897098103585e+01 0.0 
4.250656411371e+01 -1.914387356218e+01 0.0 
4.350906466345e+01 -1.917234727395e+01 0.0 
8.759665722424e-01 -1.746422130609e+01 0.0 
1.698936011838e+00 -1.795012186674e+01 0.0 
4.742476811029e+01 -1.900090177972e+01 0.0 
7.749196752349e+00 -6.368049313489e+00 0.0 
3.361572113416e+01 -1.798765193915e+01 0.0 
4.484660149212e+01 -1.728661231383e+01 0.0 
1.984038172228e+01 -4.502575320116e+00 0.0 
1.035080352627e+01 -6.166639575753e+00 0.0 
2.753558010652e+00 -1.444909521181e+01 0.0 
7.217069543032e+00 -1.328635391078e+01 0.0 
4.364336727739e+00 -1.655585677381e+01 0.0 
4.595208426108e+00 -1.357919665443e+01 0.0 
6.164967006980e+00 -1.569873454630e+01 0.0 
1.487855768353e+01 -1.826523774028e+01 0.0 
2.791876456372e+00 -4.019632415181e+00 0.0 
4.246464893515e+01 -1.364898659620e+01 0.0 
4.503855590351e+01 -1.329552780944e+01 0.0 
4.407239109604e+01 -1.573900004093e+01 0.0 
5.141054449252e+00 -6.664290382472e+00 0.0 
3.141083947149e+00 -1.055790764912e+01 0.0 
6.196463198741e+00 -4.256497932609e+00 0.0 
2.599618716181e+01 -1.836893455464e+01 0.0 
2.923057372337e+01 -1.098461757645e+01 0.0 
1.168343877486e+01 -1.114079645041e+01 0.0 
6.706222096238e+00 -8.780364234441e+00 0.0 
8.567858614669e+00 -6.943121440850e+00 0.0 
1.123755132901e+01 -5.753525820030e+00 0.0 
2.353456234423e+01 -1.008536320953e+01 0.0 
9.162073319168e+00 -1.045593739109e+01 0.0 
9.676343469685e+00 -1.496493008366e+01 0.0 
4.490637882905e+01 -1.628778970202e+01 0.0 
7.398129387772e+00 -9.639977982323e-01 0.0 
1.049641705805e+01 -1.552503975272e+01 0.0 
9.010356286268e+00 -1.242805042052e+01 0.0 
3.985573925497e+01 -1.399863651620e+01 0.0 
1.816196318262e+01 -1.554066497931e+01 0.0 
1.306332244168e+01 -3.963646550326e+00 0.0 
4.145850903932e+01 -1.608094559275e+01 0.0 
3.794664933633e+01 -1.779020121986e+01 0.0 
3.819614412903e+01 -1.290749321016e+01 0.0 
6.270014188119e+00 -3.255093186826e+00 0.0 
4.251165370388e+01 -1.263870364997e+01 0.0 
1.207347709171e+01 -1.763942826023e+01 0.0 
3.633240829927e+01 -1.577330481104e+01 0.0 
4.319052668832e+00 -6.101812561904e+00 0.0 
1.676492415806e+01 -1.151547901392e+01 0.0 
2.594059220037e+01 -1.074225223009e+01 0.0 
3.340750911501e+01 -9.898764354137e+00 0.0 
4.397619591281e+01 -1.769773736461e+01 0.0 
2.175611595028e+01 -1.185718747128e+01 0.0 
1.641818733106e+01 -1.640685203215e+01 0.0 
1.661211421753e+01 -1.346121366338e+01 0.0 
3.428853504935e+00 -6.551993389271e+00 0.0 
8.700728832502e+00 -1.638460872825e+01 0.0 
1.931369795309e+01 -1.121629383702e+01 0.0 
4.139798872363e+01 -1.706922153459e+01 0.0 
2.647837478700e+01 -1.507353829290e+01 0.0 
1.779469616424e+01 -9.161615782908e+00 0.0 
3.885879219319e+01 -1.642026488918e+01 0.0 
1.338194936770e+01 -1.125916521471e+01 0.0 
1.897071181111e+01 -1.609204322578e+01 0.0 
2.844308548793e+01 -1.046221003096e+01 0.0 
2.659854702194e+01 -1.316109415760e+01 0.0 
2.979604503271e+01 -1.433296157755e+01 0.0 
2.417694041347e+01 -1.251231397779e+01 0.0 
1.807401327411e+00 -1.388891148480e+01 0.0 
9.599810618782e+00 -1.595439365034e+01 0.0 
1.652144692160e+01 -4.205392788472e+00 0.0 
2.367839450246e+01 -8.188385218643e+00 0.0 
3.814894930468e+01 -1.390748338767e+01 0.0 
2.466448215774e+01 -1.685878545680e+01 0.0 
4.134044524611e+01 -1.806610045954e+01 0.0 
2.600511411958e+01 -9.801774120648e+00 0.0 
7.882158050716e+00 -1.582364037353e+01 0.0 
3.881607873422e+01 -1.737970515013e+01 0.0 
8.270182347708e+00 -1.088622154920e+01 0.0 
8.672520392520e-01 -4.532984309881e+00 0.0 
1.993447205337e+01 -3.579061902667e+00 0.0 
1.794616079549e+01 -7.238038888498e+00 0.0 
2.097277068165e+01 -1.132450168636e+01 0.0 
8.194803300681e+00 -1.187214224265e+01 0.0 
3.522279404911e+01 -1.823342818178e+01 0.0 
6.984481050295e+00 -1.625271465557e+01 0.0 
1.309433007797e+01 -1.521718594215e+01 0.0 
2.150246167611e+01 -1.885399038185e+00 0.0 
3.250689370209e+01 -1.028789870535e+01 0.0 
6.085886272238e+00 -1.668342132851e+01 0.0 
1.588455661727e+01 -1.193498985921e+01 0.0 
1.809323400821e+01 -1.651110084195e+01 0.0 
1.348885082381e+00 -1.136065576512e+01 0.0 
2.497670221995e+01 -1.834631276173e+01 0.0 
2.937062818424e+01 -8.233711194470e+00 0.0 
5.185823744469e+00 -1.711566910207e+01 0.0 
1.477497877209e+01 -1.530177014512e+01 0.0 
2.125346158933e+01 -7.473003997367e+00 0.0 
4.751561118290e+01 -1.084897772632e+01 0.0 
5.056026576843e+00 -1.825750475525e+01 0.0 
1.473948554523e+01 -1.634577436309e+01 0.0 
2.410566630936e+01 -1.345970002612e+01 0.0 
1.507337507513e+01 -1.138527895328e+01 0.0 
3.189857338687e+01 -8.887781229006e+00 0.0 
7.298712468334e+00 -1.230231046246e+01 0.0 
2.738235495295e+01 -1.368931690364e+01 0.0 
3.750141041969e+01 -1.920449893070e+01 0.0 
1.557271965640e+01 -1.683317951731e+01 0.0 
3.393731848929e+01 -1.413034777044e+01 0.0 
6.482156824153e+00 -1.174575135362e+01 0.0 
2.077971718439e+01 -1.421279621836e+01 0.0 
3.455084320178e+00 -2.562590040585e+00 0.0 
3.099056096250e+01 -9.270280416035e+00 0.0 
5.580176125418e+00 -1.217387969259e+01 0.0 
1.707247630389e+01 -7.660651981710e+00 0.0 
1.418658814174e+01 -1.180390575393e+01 0.0 
2.049103025389e+01 -1.811296706038e+01 0.0 
4.680386172316e+00 -1.260396879301e+01 0.0 
1.699679896554e+01 -8.624561788199e+00 0.0 
3.779470168555e+00 -1.303424899720e+01 0.0 
3.036589870126e+01 -7.879832518349e+00 0.0 
3.306993001774e+01 -1.457671062095e+01 0.0 
2.840150110165e+00 -1.346530088269e+01 0.0 
2.732011135052e+01 -1.464591214560e+01 0.0 
5.423639259568e+00 -2.659711955016e+00 0.0 
2.324455961696e+01 -1.387269388211e+01 0.0 
1.752768355571e+00 -1.693128613594e+01 0.0 
1.020244783051e+01 -8.076834012808e+00 0.0 
1.330873875224e+01 -1.222417528206e+01 0.0 
3.297727364880e+01 -1.555480372087e+01 0.0 
2.890929955439e+01 -6.868664170731e+00 0.0 
1.323294664622e+01 -1.320754260334e+01 0.0 
2.726532861246e+01 -1.560593120806e+01 0.0 
2.240020643398e+01 -1.429299177247e+01 0.0 
2.090445823633e+01 -1.228128621332e+01 0.0 
1.315809881502e+01 -1.420739326938e+01 0.0 
2.781328038068e+01 -7.181956082300e+00 0.0 
8.614200829057e+00 -5.936933226306e+00 0.0 
8.714765730069e+00 -4.979270529687e+00 0.0 
1.611881701099e+01 -9.041973294003e+00 0.0 
2.806830314340e+01 -1.614622947108e+01 0.0 
2.084435391396e+00 -3.385085422913e+00 0.0 
3.133211811152e+01 -1.542347619750e+01 0.0 
9.693114650768e+00 -3.590281506442e+00 0.0 
1.531883592202e+01 -8.504584946143e+00 0.0 
2.151589117094e+01 -1.578915763018e+01 0.0 
4.918943882696e+01 -1.355538828056e+01 0.0 
1.443236615188e+01 -8.918701794549e+00 0.0 
8.276250966452e-01 -5.537685192197e+00 0.0 
1.362790867918e+01 -8.374718262212e+00 0.0 
2.083767477370e+01 -1.324843956035e+01 0.0 
1.273834678703e+01 -8.790890389337e+00 0.0 
1.192275845670e+01 -8.242261327467e+00 0.0 
4.477236023583e+01 -1.824312396664e+01 0.0 
1.102989384254e+01 -8.649855800911e+00 0.0 
4.849096516045e+01 -1.917293752213e+01 0.0 
1.588996752238e+00 -1.910230934687e+01 0.0 
4.904245197583e+01 -1.159839008158e+01 0.0 
2.753852929608e+01 -5.782128488093e+00 0.0 
1.756133602833e+01 -8.306130313187e-01 0.0 
2.615423700951e+01 -6.153865090092e+00 0.0 
1.028818761294e+01 -7.122020845892e+00 0.0 
2.970818901196e+01 -1.527821347593e+01 0.0 
4.801461623449e+01 -1.164472570985e+01 0.0 
9.455722100419e+00 -6.546069291118e+00 0.0 
3.089099236677e+01 -1.835339328261e+01 0.0 
2.350000000013e+01 -1.920825896750e+01 0.0 
4.830620531887e+01 -1.506626155470e+01 0.0 
1.725381944701e+01 -1.688794487850e+01 0.0 
2.156246225273e+01 -1.475893794002e+01 0.0 
4.919319648787e+01 -1.742767505896e+01 0.0 
4.437935623576e+01 -1.077662927266e+01 0.0 
1.001520521978e+01 -1.652692675208e+00 0.0 
9.067160240050e-01 -1.441937727541e+01 0.0 
2.603365149390e+01 -4.755996613848e+00 0.0 
2.458344439002e+01 -4.873645517696e+00 0.0 
2.304312390142e+01 -3.836552768096e+00 0.0 
2.546923202198e+00 -6.902480355749e+00 0.0 
1.251534969393e+01 -2.490989965776e+00 0.0 
2.454061833377e+01 -3.933354231935e+00 0.0 
1.788186558740e+01 -1.827424884923e+01 0.0 
4.090785243552e+01 -1.166553231904e+01 0.0 
2.230128851568e+01 -1.623015738726e+01 0.0 
2.302362347568e+01 -2.916239960270e+00 0.0 
3.878119254461e+01 -1.830091164002e+01 0.0 
2.210081359958e+01 -1.829238229150e+01 0.0 
8.443704882233e+00 -1.921993252862e+01 0.0 
2.218405824691e+01 -1.724557581508e+01 0.0 
2.151157503963e+01 -2.790636689331e+00 0.0 
3.741658958955e+01 -1.250400191722e+01 0.0 
2.697247663737e+01 -1.838290202309e+01 0.0 
4.743362342862e+01 -1.585850773010e+01 0.0 
6.671345075358e+00 -1.924977576322e+01 0.0 
3.900825404537e+01 -1.157220003875e+01 0.0 
4.649692961375e+01 -1.836335837481e+01 0.0 
1.578831424832e+01 -3.678284023361e+00 0.0 
4.814208768888e+01 -1.841249298770e+01 0.0 
2.964123298315e+01 -1.625739458193e+01 0.0 
4.580760351902e+01 -1.284294554687e+01 0.0 
3.561520879615e+01 -1.245548941949e+01 0.0 
2.555418095658e+00 -1.841101588290e+01 0.0 
3.288468366144e+01 -1.834258164109e+01 0.0 
2.065894391445e+01 -2.240688571739e+00 0.0 
4.739171429915e+01 -1.496536413446e+01 0.0 
3.478086729185e+00 -8.576434653209e+00 0.0 
1.606010630246e+01 -1.588421807951e+00 0.0 
1.018329200594e+01 -1.834320874317e+01 0.0 
2.957213339430e+01 -1.720496954591e+01 0.0 
4.142712790164e+00 -1.837794506222e+01 0.0 
6.698721532573e-01 -2.499999999997e+00 0.0 
8.037039123140e+00 -1.571229354954e+00 0.0 
1.203541361428e+01 -1.847784298001e+01 0.0 
2.899968332038e+01 -1.848264722179e+01 0.0 
1.469229460948e+01 -4.219485753730e+00 0.0 
4.049590781957e+01 -1.932812501995e+01 0.0 
1.996211678340e+01 -1.506329754720e+00 0.0 
4.250588298353e+01 -1.067383247529e+01 0.0 
5.831497011152e+00 -1.635396227234e+00 0.0 
5.317606125670e+00 -1.923927974868e+01 0.0 
4.208546426993e+01 -1.842830665025e+01 0.0 
2.327553405011e+00 -9.459409929662e+00 0.0 
3.568351902251e+01 -1.096637218582e+01 0.0 
1.682104374890e+00 -6.231413350963e+00 0.0 
2.451812238018e+01 -1.766524914339e+01 0.0 
1.058003429638e+01 -2.391839617098e+00 0.0 
4.399988753123e+01 -1.851998776342e+01 0.0 
1.400000000010e+01 -1.852293523028e+01 0.0 
3.604719565984e+01 -1.850662876800e+01 0.0 
1.951297136734e+01 -1.938092349694e+01 0.0 
1.821365318472e+01 -1.531276353287e+00 0.0 
2.298031859732e+01 -1.854635324722e+01 0.0 
1.552168066204e+01 -1.764280741977e+01 0.0 
4.572957713638e+01 -1.073347898229e+01 0.0 
3.429637429624e+01 -1.838861552790e+01 0.0 
2.427434426052e+00 -7.705577451869e+00 0.0 
4.662792031485e+00 -3.359424455416e+00 0.0 
4.926794919243e+01 -1.926794919243e+01 0.0 
7.320508075690e-01 -7.320508075688e-01 0.0 
4.926794919243e+01 -1.073205080757e+01 0.0 
7.320508075705e-01 -1.926794919243e+01 0.0 
2.917460242467e+00 -3.202866455310e+00 0.0 
4.838200575963e+01 -1.232674147454e+01 0.0 
2.998445708009e+01 -1.854403752148e+01 0.0 
5.949940090766e-01 -1.152762038165e+01 0.0 
4.844763495759e+01 -1.678092548787e+01 0.0 
1.301685480160e+01 -3.170056592566e+00 0.0 
1.650046335855e+01 -6.731535384067e-01 0.0 
4.854881540991e+01 -1.405224059779e+01 0.0 
2.119545114693e+01 -1.846813384545e+01 0.0 
3.797852849897e+01 -1.857978513215e+01 0.0 
4.649823708745e+01 -1.338351810816e+01 0.0 
2.012685900976e+01 -2.889659035009e+00 0.0 
2.953271913273e+01 -1.791558075192e+01 0.0 
2.408509097292e+00 -1.021949208421e+01 0.0 
2.642589566221e+01 -1.773216561448e+01 0.0 
1.730010270775e+01 -1.763165076721e+01 0.0 
2.017406551304e+01 -8.513536440582e-01 0.0 
5.254761581934e-01 -1.249999999999e+01 0.0 
6.640448215642e+00 -1.545337834885e+00 0.0 
7.843361506349e+00 -1.852719839527e+01 0.0 
1.588442191088e+00 -1.066158564320e+01 0.0 
3.331250000000e+01 -8.420918367347e+00 0.0 
4.951470588234e+01 -8.500000000000e+00 0.0 
3.480610198624e+01 -9.413633635267e+00 0.0 
4.951470588234e+01 -9.500000000000e+00 0.0 

SCALARS node_number int
LOOKUP_TABLE default
1
2
3
4
5
6
7
8
9
10
11
12
13
14
15
16
17
18
19
20
21
22
23
24
25
26
27
28
29
30
31
32
33
34
35
36
37
38
39
40
41
42
43
44
45
46
47
48
49
50
51
52
53
54
55
56
57
58
59
60
61
62
63
64
65
66
67
68
69
70
71
72
73
74
75
76
77
78
79
80
81
82
84
85
86
87
88
89
90
91
92
93
101
102
104
105
106
107
108
109
110
111
112
113
114
115
116
117
118
119
120
121
122
123
124
125
126
127
128
129
130
131
132
133
134
135
136
329
330
331
332
333
334
335
336
337
338
339
340
341
342
343
344
345
346
347
348
349
350
351
352
353
354
355
356
357
358
359
360
361
362
363
364
365
366
367
368
369
370
371
372
373
374
375
376
377
378
379
380
381
382
383
384
385
386
387
388
389
390
391
392
393
394
395
396
397
398
399
400
401
402
403
404
405
406
407
408
409
410
411
412
413
414
415
416
417
418
419
420
421
422
423
424
425
426
427
428
429
430
431
432
433
434
435
436
437
438
439
440
441
442
443
444
445
446
447
448
449
450
451
452
453
454
455
456
457
458
459
460
461
462
463
464
465
466
467
468
469
470
471
472
473
474
475
476
477
478
479
480
481
482
483
484
485
486
487
488
489
490
491
492
493
494
495
496
497
498
499
500
501
502
503
504
505
506
507
508
509
510
511
512
513
514
515
516
517
518
519
520
521
522
523
524
525
526
527
528
529
530
531
532
533
534
535
536
537
538
539
540
541
542
543
544
545
546
547
548
549
550
551
552
553
554
555
556
557
558
559
560
561
562
563
564
565
566
567
568
569
570
571
572
573
574
575
576
577
578
579
580
581
582
583
584
585
586
587
588
589
590
591
592
593
594
595
596
597
598
599
600
601
602
603
604
605
606
607
608
609
610
611
612
613
614
615
616
617
618
619
620
621
622
623
624
625
626
627
628
629
630
631
632
633
634
635
636
637
638
639
640
641
642
643
644
645
646
647
648
649
650
651
652
653
654
655
656
657
658
659
660
661
662
663
664
665
666
667
668
669
670
671
672
673
674
675
676
677
678
679
680
681
682
683
684
685
686
687
688
689
690
691
692
693
694
695
696
697
698
699
700
701
702
703
704
705
706
707
708
709
710
711
712
713
714
715
716
717
718
719
720
721
722
723
724
725
726
727
728
729
730
731
732
733
734
735
736
737
738
739
740
741
742
743
744
745
746
747
748
749
750
751
752
753
754
755
756
757
758
759
760
761
762
763
764
765
766
767
768
769
770
771
772
773
774
775
776
777
778
779
780
781
782
783
784
785
786
787
788
789
790
791
792
793
794
795
796
797
798
799
800
801
802
803
804
805
806
807
808
809
810
811
812
813
814
815
816
817
818
819
820
821
822
823
824
825
826
827
828
829
830
831
832
833
834
835
836
837
838
839
840
841
842
843
844
845
846
847
848
849
850
851
852
853
854
855
856
857
858
859
860
861
862
863
864
865
866
867
868
869
870
871
872
873
874
875
876
877
878
879
880
881
882
883
884
885
886
887
888
889
890
891
892
893
894
895
896
897
898
899
900
901
902
903
904
905
906
907
908
909
910
911
912
913
914
915
916
917
918
919
920
921
922
923
924
925
926
927
928
929
930
931
932
933
934
935
936
937
938
939
940
941
942
943
944
945
946
947
948
949
950
951
952
953
954
955
956
957
958
959
960
961
962
963
964
965
966
967
968
969
970
971
972
973
974
975
976
977
978
979
980
981
982
983
984
985
986
987
988
989
990
991
992
993
994
995
996
997
998
999
1000
1001
1002
1003
1004
1005
1006
1007
1008
1009
1010
1011
1012
1013
1014
1015
1016
1017
1018
1019
1020
1021
1022
1023
1024
1025
1026
1027
1028
1029
1030
1031
1032
1033
1034
1035
1036
1037
1038
1039
1040
1041
1042
1043
1044
1045
1046
1047
1048
1049
1050
1051
1052
1053
1054
1055
1056
1057
1058
1059
1060
1061
1062
1063
1064
1065
1066
1067
1068
1069
1070
1071
1072
1073
1074
1075
1076
1077
1078
1079
1080
1081
1082
1083
1084
1085
1086
1087
1088
1089
1090
1091
1092
1093
1094
1095
1096
1097
1098
1099
1100
1101
1102
1103
1104
1105
1106
1107
1108
1109
1110
1111
1112
1113
1114
1115
1116
1117
1118
1119
1120
1121
1122
1123
1124
1125
1126
1127
1128
1129
1130
1131
1132
1133
1134
1135
1136
1137
1138
1139
1140
1141
1142
1143
1144
1145
1146
1147
1148
1149
1150
1151
1152
1153
1154
1155
1156
1157
1158
1159
1160
1161
1162
1163
1164
1165
1166
1167
1168
1169
1170
1171
1172
1173
1174
1175
1176
1177
1178
1179
1180
1181
1182
1183
1184
1185
1186
1187
1188
1189
1190
1191
1192
1193
1194
1195
1196
1197
1198
1199
1200
1201
1202
1203
1204
1205
1206
1207
1208
1209
1210
1211
1212
1213
1214
1215
1216
1217
1218
1219
1220
1221
1222
1223
1224
1225
1226
1227
1228
1229
1230
1231
1232
1233
1234
1235
1236
1237
1238
1239
1240
1241
1242
1243
1244
1245
1246
1247
1248
1249
1250
1251
1252
1253
1254
1255
1256
1257
1258
1259
1260
1261
1262
1263
1264
1281
1282
1283
1284

VECTORS node_mesh_deformation float
0.0 6.406775262709e-02 0.0 
0.000000000000e+00 1.444104785442e-01 0.0 
0.0 0.000000000000e+00 0.0 
0.000000000000e+00 0.000000000000e+00 0.0 
0.0 6.501379201202e-02 0.0 
0.0 6.525949412874e-02 0.0 
0.0 6.484792033847e-02 0.0 
0.0 6.377805496760e-02 0.0 
0.0 6.207568124257e-02 0.0 
0.0 5.988737537560e-02 0.0 
0.0 5.729911232581e-02 0.0 
0.0 5.437587631376e-02 0.0 
0.0 5.117964707097e-02 0.0 
0.0 4.774902815577e-02 0.0 
0.0 4.409373222484e-02 0.0 
0.0 4.022563038721e-02 0.0 
0.0 3.613480716465e-02 0.0 
0.0 3.181337839577e-02 0.0 
0.0 2.722986913704e-02 0.0 
0.0 2.236713140169e-02 0.0 
0.0 1.721681878325e-02 0.0 
0.0 1.176715182210e-02 0.0 
0.0 6.025310131559e-03 0.0 
0.000000000000e+00 0.000000000000e+00 0.0 
0.000000000000e+00 0.000000000000e+00 0.0 
0.000000000000e+00 0.000000000000e+00 0.0 
0.000000000000e+00 0.000000000000e+00 0.0 
0.000000000000e+00 0.000000000000e+00 0.0 
0.000000000000e+00 0.000000000000e+00 0.0 
0.000000000000e+00 0.000000000000e+00 0.0 
0.000000000000e+00 0.000000000000e+00 0.0 
0.000000000000e+00 0.000000000000e+00 0.0 
0.000000000000e+00 0.000000000000e+00 0.0 
0.000000000000e+00 0.000000000000e+00 0.0 
0.000000000000e+00 0.000000000000e+00 0.0 
0.000000000000e+00 0.000000000000e+00 0.0 
0.000000000000e+00 0.000000000000e+00 0.0 
0.000000000000e+00 0.000000000000e+00 0.0 
0.000000000000e+00 0.000000000000e+00 0.0 
0.000000000000e+00 0.000000000000e+00 0.0 
0.000000000000e+00 0.000000000000e+00 0.0 
0.000000000000e+00 0.000000000000e+00 0.0 
0.000000000000e+00 0.000000000000e+00 0.0 
0.000000000000e+00 0.000000000000e+00 0.0 
0.000000000000e+00 0.000000000000e+00 0.0 
0.000000000000e+00 0.000000000000e+00 0.0 
0.000000000000e+00 0.000000000000e+00 0.0 
0.000000000000e+00 0.000000000000e+00 0.0 
0.000000000000e+00 0.000000000000e+00 0.0 
0.000000000000e+00 0.000000000000e+00 0.0 
0.000000000000e+00 0.000000000000e+00 0.0 
0.000000000000e+00 0.000000000000e+00 0.0 
0.000000000000e+00 0.000000000000e+00 0.0 
0.000000000000e+00 0.000000000000e+00 0.0 
0.000000000000e+00 0.000000000000e+00 0.0 
0.000000000000e+00 0.000000000000e+00 0.0 
0.000000000000e+00 0.000000000000e+00 0.0 
0.000000000000e+00 0.000000000000e+00 0.0 
0.000000000000e+00 0.000000000000e+00 0.0 
0.000000000000e+00 0.000000000000e+00 0.0 
0.000000000000e+00 0.000000000000e+00 0.0 
0.000000000000e+00 0.000000000000e+00 0.0 
0.000000000000e+00 0.000000000000e+00 0.0 
0.000000000000e+00 0.000000000000e+00 0.0 
0.000000000000e+00 0.000000000000e+00 0.0 
0.000000000000e+00 0.000000000000e+00 0.0 
0.000000000000e+00 0.000000000000e+00 0.0 
0.000000000000e+00 0.000000000000e+00 0.0 
0.000000000000e+00 0.000000000000e+00 0.0 
0.000000000000e+00 0.000000000000e+00 0.0 
0.000000000000e+00 0.000000000000e+00 0.0 
0.000000000000e+00 0.000000000000e+00 0.0 
0.000000000000e+00 1.314552462627e-01 0.0 
0.000000000000e+00 1.180978123394e-01 0.0 
0.000000000000e+00 1.043589679724e-01 0.0 
0.000000000000e+00 9.027075331336e-02 0.0 
0.000000000000e+00 7.585877187131e-02 0.0 
0.000000000000e+00 6.115480424121e-02 0.0 
0.000000000000e+00 4.618899686755e-02 0.0 
0.000000000000e+00 3.099032578649e-02 0.0 
0.000000000000e+00 1.559225022262e-02 0.0 
-8.421898072083e-03 -7.531985093507e-03 0.0 
3.236773228232e-02 1.319612078140e-01 0.0 
-6.259319546409e-04 2.200073943557e-02 0.0 
7.013770431932e-03 4.649403645595e-02 0.0 
1.423882974803e-02 6.889671076271e-02 0.0 
2.090173214628e-02 8.920135363697e-02 0.0 
2.701500330073e-02 1.071659344112e-01 0.0 
3.218525984963e-02 1.219179396543e-01 0.0 
3.559500493670e-02 1.324103543436e-01 0.0 
3.575413141115e-02 1.379449156794e-01 0.0 
3.476126712558e-02 1.372385512222e-01 0.0 
0.000000000000e+00 1.690359871450e-01 0.0 
0.000000000000e+00 1.569467285167e-01 0.0 
1.841975901115e-03 1.444113630501e-01 0.0 
3.680340249673e-03 1.444059340296e-01 0.0 
5.537816934755e-03 1.443781880405e-01 0.0 
7.418362093574e-03 1.443198806168e-01 0.0 
9.328563168324e-03 1.442258645373e-01 0.0 
1.127040768543e-02 1.440538344730e-01 0.0 
1.326565913761e-02 1.438064890948e-01 0.0 
1.530847988039e-02 1.434199062689e-01 0.0 
1.742927102950e-02 1.428859692275e-01 0.0 
1.963467632186e-02 1.421233714646e-01 0.0 
2.193001018227e-02 1.410732638088e-01 0.0 
2.434113384071e-02 1.396465953419e-01 0.0 
2.687319741689e-02 1.377446719487e-01 0.0 
2.953593512287e-02 1.352305053241e-01 0.0 
-5.079364604367e-03 -2.284078215807e-02 0.0 
-8.677860476070e-05 -3.110542765671e-02 0.0 
5.395581571932e-03 -3.415975711052e-02 0.0 
1.136881358221e-02 -3.162032772719e-02 0.0 
1.584583688270e-02 -2.105478648937e-02 0.0 
1.850361578525e-02 -7.528359244064e-03 0.0 
1.952197762924e-02 2.966221706015e-03 0.0 
1.980821008867e-02 1.179139991571e-02 0.0 
1.990392709804e-02 1.963570792627e-02 0.0 
1.970589664652e-02 2.690912841305e-02 0.0 
1.912888977590e-02 3.359792621417e-02 0.0 
1.823759829188e-02 3.963499255576e-02 0.0 
1.696538088172e-02 4.516526470034e-02 0.0 
1.524897233594e-02 5.010810327259e-02 0.0 
1.319365020559e-02 5.435664294051e-02 0.0 
1.089355092850e-02 5.781381796968e-02 0.0 
8.386642201809e-03 6.055920462881e-02 0.0 
5.713022505532e-03 6.256277783374e-02 0.0 
2.872422653105e-03 6.370400139878e-02 0.0 
1.850768194778e-03 1.690714062347e-01 0.0 
3.631074095267e-03 1.690407462332e-01 0.0 
5.421632164385e-03 1.690132374098e-01 0.0 
7.222142212036e-03 1.689605274498e-01 0.0 
9.030460012752e-03 1.688630315346e-01 0.0 
1.084752540292e-02 1.687008593110e-01 0.0 
1.267164988378e-02 1.684496440786e-01 0.0 
1.450442265248e-02 1.680708438268e-01 0.0 
1.634888406345e-02 1.675250436856e-01 0.0 
1.820285956933e-02 1.667591932906e-01 0.0 
2.006468958621e-02 1.656909095121e-01 0.0 
2.193967729367e-02 1.642387990271e-01 0.0 
2.384120016145e-02 1.622935265060e-01 0.0 
2.579715811869e-02 1.597238770445e-01 0.0 
2.779859739687e-02 1.563497881944e-01 0.0 
2.991294509984e-02 1.519505650000e-01 0.0 
3.210975188736e-02 1.461661384255e-01 0.0 
3.197489480949e-02 1.422208021102e-01 0.0 
2.946871364652e-02 1.459781690692e-01 0.0 
2.704968210837e-02 1.488479836834e-01 0.0 
2.476455253137e-02 1.510670793279e-01 0.0 
2.258118017959e-02 1.527483891972e-01 0.0 
2.047826918978e-02 1.540057451501e-01 0.0 
1.843483239674e-02 1.549336947445e-01 0.0 
1.645475083941e-02 1.556040474877e-01 0.0 
1.452181776921e-02 1.560807498458e-01 0.0 
1.263215216584e-02 1.564180799398e-01 0.0 
1.077305295573e-02 1.566392811072e-01 0.0 
8.943203145591e-03 1.567871018497e-01 0.0 
7.132833280849e-03 1.568731156087e-01 0.0 
5.340634202810e-03 1.569225907234e-01 0.0 
3.560618430704e-03 1.569439248022e-01 0.0 
1.778120077589e-03 1.569176906854e-01 0.0 
-4.058319414739e-03 8.579827945198e-03 0.0 
3.170897224187e-03 3.445154420072e-02 0.0 
1.068132301081e-02 5.793687313968e-02 0.0 
1.763875477887e-02 7.931602316393e-02 0.0 
2.408149128876e-02 9.858203921143e-02 0.0 
2.978740651590e-02 1.150691886096e-01 0.0 
3.418081522790e-02 1.277404178685e-01 0.0 
3.623730092104e-02 1.358199781730e-01 0.0 
3.540245496541e-02 1.382023906570e-01 0.0 
3.376311153249e-02 1.350280020463e-01 0.0 
1.225892240896e-02 3.327565961871e-02 0.0 
3.209726353095e-03 4.019354780841e-03 0.0 
1.384797682962e-02 2.315435059923e-02 0.0 
8.091801744454e-03 -2.536839836490e-02 0.0 
3.274224032950e-04 4.022280330542e-03 0.0 
2.584496086766e-02 7.634084440265e-02 0.0 
-1.035573230735e-03 4.567578993294e-02 0.0 
5.922319814680e-03 4.994431691912e-03 0.0 
3.646050236259e-02 1.081411108303e-01 0.0 
7.661030484709e-03 6.505540632364e-03 0.0 
3.984346499624e-02 1.258864171786e-01 0.0 
-6.438965734326e-04 4.222613533774e-03 0.0 
1.219073277677e-02 4.862701921335e-02 0.0 
8.274526631990e-03 8.723392881457e-03 0.0 
3.526151398360e-02 1.235480192633e-01 0.0 
-7.388607517242e-04 5.828469172230e-02 0.0 
-8.803219065590e-04 3.474499890371e-02 0.0 
7.970013000030e-03 1.069141921628e-02 0.0 
5.872032084866e-03 1.177889677568e-02 0.0 
1.809931464301e-03 1.322666908855e-02 0.0 
3.294202291805e-03 1.410184583538e-02 0.0 
4.297346942167e-03 1.222158058961e-02 0.0 
2.867954736583e-02 1.252600890497e-01 0.0 
1.875570150954e-02 1.308164177249e-01 0.0 
1.232065725454e-02 1.319159694542e-01 0.0 
1.208581100094e-03 8.287744201660e-02 0.0 
-7.005503397322e-04 4.967885997004e-03 0.0 
3.081078226010e-03 -2.434372769159e-02 0.0 
7.418825131432e-03 5.997872329630e-02 0.0 
-5.473503632941e-04 2.016368509679e-02 0.0 
6.342432603716e-03 1.332108656838e-01 0.0 
4.315575158225e-04 6.408078734302e-02 0.0 
7.837646315245e-03 1.281951908262e-02 0.0 
6.421793457530e-03 5.237049374713e-03 0.0 
8.056329580270e-03 7.478415238921e-03 0.0 
4.952976934327e-03 4.686559499962e-03 0.0 
1.783255757662e-03 3.680374221034e-03 0.0 
1.120615140735e-02 -2.378759102392e-03 0.0 
2.348131138245e-02 1.295139751818e-01 0.0 
-4.071455920176e-04 4.871523984583e-03 0.0 
9.167738032545e-04 5.433640594787e-02 0.0 
1.375242917917e-02 3.677961622251e-02 0.0 
-1.030895921213e-03 5.256125377893e-02 0.0 
9.141178120231e-04 1.080330864497e-02 0.0 
3.185651965570e-02 9.257321597115e-02 0.0 
1.921357888066e-02 5.599831244157e-02 0.0 
3.944312554020e-02 1.192514289800e-01 0.0 
3.831439745755e-02 1.272204389781e-01 0.0 
4.338757660769e-03 8.175132308435e-03 0.0 
1.457215864740e-03 1.096283535603e-01 0.0 
-3.640683470807e-04 4.075909161450e-03 0.0 
3.447288260766e-03 6.401178154079e-02 0.0 
5.052557289318e-04 2.445367006298e-02 0.0 
3.372372680673e-02 1.196092089859e-01 0.0 
3.585777946419e-02 1.117156969576e-01 0.0 
3.298956337423e-02 1.093593197247e-01 0.0 
3.526422335107e-02 1.000835155521e-01 0.0 
3.249425181658e-02 9.598529949370e-02 0.0 
3.397995700669e-02 8.793675161713e-02 0.0 
3.695900417099e-02 9.144657919199e-02 0.0 
3.507515086947e-02 7.980471445280e-02 0.0 
3.816724386746e-02 8.290451079477e-02 0.0 
3.087467187714e-02 8.346658362492e-02 0.0 
3.567990722647e-02 7.172535847126e-02 0.0 
3.883167647455e-02 7.445558538789e-02 0.0 
3.576298611846e-02 6.383069077702e-02 0.0 
3.891364476849e-02 6.623829866973e-02 0.0 
4.174283914899e-02 7.622399265207e-02 0.0 
4.179024529072e-02 6.772245926722e-02 0.0 
4.429544227705e-02 7.694213778570e-02 0.0 
4.430020732085e-02 6.815836155127e-02 0.0 
4.123224939033e-02 5.965464544220e-02 0.0 
4.365372795091e-02 5.990475223071e-02 0.0 
4.630280398203e-02 6.753451832251e-02 0.0 
4.556447667085e-02 5.912441940753e-02 0.0 
4.774600176532e-02 6.583599584186e-02 0.0 
4.688917565937e-02 5.730018458571e-02 0.0 
4.859178838774e-02 6.305863423319e-02 0.0 
4.760265053061e-02 5.448457322301e-02 0.0 
4.536000285671e-02 4.951961951124e-02 0.0 
4.592995138191e-02 4.675709033168e-02 0.0 
4.766088743967e-02 5.074986416418e-02 0.0 
4.583175730156e-02 4.313776516116e-02 0.0 
4.704984730173e-02 4.619263517626e-02 0.0 
4.505510521278e-02 3.879468399654e-02 0.0 
4.335172089000e-02 3.651600658485e-02 0.0 
4.239914143678e-02 3.247689517023e-02 0.0 
4.357797464902e-02 3.381471894932e-02 0.0 
4.065716780794e-02 2.776112013964e-02 0.0 
4.134363251633e-02 2.811739678060e-02 0.0 
3.813612747065e-02 2.245188478268e-02 0.0 
3.839042522764e-02 2.192833598449e-02 0.0 
3.489244951082e-02 1.686212402003e-02 0.0 
3.434040714635e-02 1.806672169054e-02 0.0 
3.086362787859e-02 1.320704073391e-02 0.0 
3.105077070474e-02 1.133292832595e-02 0.0 
2.687661380628e-02 8.633438427189e-03 0.0 
2.651566525192e-02 1.093519305696e-02 0.0 
2.249831562427e-02 7.363243552554e-03 0.0 
2.205566508671e-02 9.905497828290e-03 0.0 
1.811894562085e-02 7.340895375075e-03 0.0 
1.829249788045e-02 4.534035313476e-03 0.0 
1.411277012041e-02 5.605091468583e-03 0.0 
1.397381080330e-02 8.325177415818e-03 0.0 
1.026073260927e-02 7.542958591618e-03 0.0 
1.021052986089e-02 4.821075912323e-03 0.0 
6.782826752984e-03 7.696843565874e-03 0.0 
6.988270887835e-03 9.841426778346e-03 0.0 
3.959423083399e-03 1.065372682402e-02 0.0 
3.653155968792e-03 8.772536238657e-03 0.0 
1.296956201534e-03 1.229030834942e-02 0.0 
1.624875758299e-03 1.366959575113e-02 0.0 
-6.931574652835e-04 1.586599980680e-02 0.0 
-9.779740906861e-04 1.476231918392e-02 0.0 
-2.594778632377e-03 1.876216536361e-02 0.0 
-2.290390548792e-03 1.933724550721e-02 0.0 
-3.842191240183e-03 2.252835217580e-02 0.0 
-3.456710703430e-03 2.249475278664e-02 0.0 
-4.066885623670e-03 2.233855526607e-02 0.0 
-4.963027464662e-03 2.623867917800e-02 0.0 
-5.044725671999e-03 2.646257014291e-02 0.0 
-5.633001942554e-03 3.035902270875e-02 0.0 
4.028677437031e-02 3.089104977338e-02 0.0 
-5.487049552404e-03 3.095565439829e-02 0.0 
-4.809354064855e-03 2.651691903061e-02 0.0 
-5.841160006588e-03 3.475650845441e-02 0.0 
-5.886070977385e-03 3.365448264576e-02 0.0 
-5.427212467157e-03 3.570407070818e-02 0.0 
-5.620164097937e-03 3.930293934342e-02 0.0 
-4.919782336727e-03 4.054349963403e-02 0.0 
4.116187467555e-02 2.835314571448e-02 0.0 
4.008198532482e-02 5.210397004660e-02 0.0 
-5.023196688176e-03 4.384440167274e-02 0.0 
-4.049229949659e-03 4.530857258859e-02 0.0 
-3.667316981976e-03 4.161995481243e-02 0.0 
-2.490369737493e-03 4.655696384331e-02 0.0 
2.952705943108e-02 9.132261428985e-02 0.0 
2.766627432560e-02 7.832515477724e-02 0.0 
2.651858436694e-02 8.601036312854e-02 0.0 
2.439680603440e-02 7.265634080477e-02 0.0 
2.345467485267e-02 8.005865613555e-02 0.0 
-2.929429611250e-03 4.984105681720e-02 0.0 
3.234446106739e-02 6.019012689068e-02 0.0 
2.499419104554e-02 6.511353315707e-02 0.0 
4.790985866944e-02 7.506641273749e-02 0.0 
4.833748636374e-02 5.465465637299e-02 0.0 
2.569641724719e-02 1.304772776452e-02 0.0 
-5.510515662977e-03 4.217922759345e-02 0.0 
-4.831573328152e-03 4.639245124452e-02 0.0 
-5.121665507905e-03 4.431545963807e-02 0.0 
-1.852058406030e-03 1.962074719577e-02 0.0 
-2.916377575128e-03 2.212931521640e-02 0.0 
-1.293176811785e-03 1.951211050314e-02 0.0 
-2.289096577879e-03 2.135124427044e-02 0.0 
-7.156185256001e-04 1.892191642858e-02 0.0 
-1.702851507893e-03 2.009631152319e-02 0.0 
-2.941851705710e-03 2.274576999643e-02 0.0 
-2.365157965608e-03 2.085318219496e-02 0.0 
-3.300437733653e-03 2.366383379951e-02 0.0 
-2.950959145487e-04 1.777489345970e-02 0.0 
1.041483019282e-03 1.689492717039e-02 0.0 
-2.734881644259e-03 2.117534924987e-02 0.0 
-3.405740115454e-03 2.409334199131e-02 0.0 
-2.856833496160e-03 2.105286978817e-02 0.0 
-3.296799659821e-03 2.404520648671e-02 0.0 
-3.853720935329e-03 2.719504224662e-02 0.0 
-3.522471766226e-03 2.716611538887e-02 0.0 
-4.066022685491e-03 3.042671017187e-02 0.0 
2.126764876955e-02 1.214428607551e-02 0.0 
2.442636420606e-02 1.475247838595e-02 0.0 
2.015640642895e-02 1.383579344615e-02 0.0 
2.262905286115e-02 1.566758204670e-02 0.0 
1.865850801481e-02 1.451002900236e-02 0.0 
2.044477631457e-02 1.559669741306e-02 0.0 
1.667788977821e-02 1.430612654144e-02 0.0 
1.497323671161e-02 1.378076249947e-02 0.0 
3.531424333136e-02 5.609198144288e-02 0.0 
2.679706655375e-02 6.180021612927e-03 0.0 
3.070889795183e-02 9.350332721500e-03 0.0 
2.620005823043e-02 3.529474405704e-03 0.0 
2.968418329122e-02 7.281365885183e-03 0.0 
2.502910602410e-02 7.842326858496e-04 0.0 
2.802566458379e-02 5.191199028618e-03 0.0 
2.338087457594e-02 -2.052648239864e-03 0.0 
2.029643161428e-02 -4.806488154066e-03 0.0 
1.866628709293e-02 -8.335028234898e-03 0.0 
1.566141966123e-02 -9.074477883549e-03 0.0 
1.422683809478e-02 -1.307100288096e-02 0.0 
1.138619209130e-02 -1.159961664978e-02 0.0 
4.319276014401e-02 4.255637696055e-02 0.0 
2.443413678213e-02 1.734458954936e-02 0.0 
2.157656377510e-02 1.646328796515e-02 0.0 
2.551135311633e-02 1.870151235526e-02 0.0 
-1.771919746312e-03 4.254181609938e-02 0.0 
-3.006098618696e-03 2.354014891290e-02 0.0 
1.180925991029e-03 1.576947284247e-02 0.0 
2.836867215015e-03 1.525845293903e-02 0.0 
1.319456060780e-02 1.334231854041e-02 0.0 
-1.131785857140e-03 5.115567121529e-02 0.0 
2.576363090508e-02 3.158806343894e-03 0.0 
3.018855211088e-02 1.172966746827e-02 0.0 
2.113105697276e-02 6.636562633669e-02 0.0 
2.040942972859e-02 7.359382386461e-02 0.0 
2.623733619716e-03 1.405178746556e-02 0.0 
-1.697810672401e-03 5.400277325008e-02 0.0 
-1.923137189099e-03 1.845357671460e-02 0.0 
1.649948012559e-02 -1.200991636785e-02 0.0 
-3.050840634264e-03 2.666003045195e-02 0.0 
-2.570517438500e-03 2.261104120428e-02 0.0 
-3.928918460426e-03 2.569769358420e-02 0.0 
2.201943482386e-02 1.698375954027e-02 0.0 
2.592826381869e-02 1.964611797826e-02 0.0 
1.239210093875e-02 -7.640501941462e-03 0.0 
8.387909357827e-03 -8.251231220758e-03 0.0 
7.649699887697e-03 -1.206243890438e-02 0.0 
4.976558700372e-03 -6.697692248120e-03 0.0 
5.499338338891e-03 -3.618535855676e-03 0.0 
2.670033148698e-03 -1.082157250107e-03 0.0 
2.589729290262e-03 -3.554637651875e-03 0.0 
7.804375923062e-04 3.041307358196e-03 0.0 
5.837351418982e-04 4.972335357760e-03 0.0 
-8.063981932551e-04 9.545192014727e-03 0.0 
4.582821026133e-05 8.364870325796e-03 0.0 
-1.131454467179e-03 1.497515432486e-02 0.0 
-2.501745933865e-03 1.952063184558e-02 0.0 
1.245515568881e-02 -1.718531511688e-02 0.0 
4.363951343228e-02 8.612732181887e-02 0.0 
1.087171834111e-03 1.397765133500e-02 0.0 
1.428909118242e-02 1.328345023543e-02 0.0 
1.791711462098e-02 5.959910340673e-02 0.0 
1.741762182611e-02 6.669464792382e-02 0.0 
1.941609622988e-02 8.080460668484e-02 0.0 
1.664138130806e-02 7.374915589796e-02 0.0 
1.452153051464e-02 5.942484688352e-02 0.0 
1.396380142889e-02 6.639625389426e-02 0.0 
1.564452997916e-02 8.073542665939e-02 0.0 
1.317090574062e-02 7.330181454379e-02 0.0 
1.447301773111e-02 8.760905136726e-02 0.0 
1.218713506175e-02 8.011263491232e-02 0.0 
1.081751977109e-02 6.562840464287e-02 0.0 
1.001127075833e-02 7.242290388677e-02 0.0 
1.105236034971e-02 8.682765306098e-02 0.0 
9.034103548920e-03 7.913201478533e-02 0.0 
9.797872831960e-03 9.342722707320e-02 0.0 
7.915603628099e-03 8.574511568009e-02 0.0 
7.144472633442e-03 7.128466533836e-02 0.0 
1.576992104404e-04 5.515688425298e-02 0.0 
1.161900820763e-02 1.335846595592e-02 0.0 
1.004689546251e-02 1.260421403508e-02 0.0 
-4.388346209589e-03 4.809199115839e-02 0.0 
-4.528160257300e-03 4.563486435446e-02 0.0 
-5.122195263596e-03 4.199506248565e-02 0.0 
-4.399436037754e-03 4.300426810420e-02 0.0 
6.128621276318e-03 7.799199802505e-02 0.0 
5.410693632129e-03 6.332119695395e-02 0.0 
2.718284239145e-02 1.075872234725e-02 0.0 
3.126238505709e-02 2.029902456924e-02 0.0 
1.808213063176e-02 5.249647240709e-02 0.0 
-2.476252183838e-03 2.571351221750e-02 0.0 
-2.896400316603e-03 2.979580556646e-02 0.0 
4.723818471340e-02 4.918334627480e-02 0.0 
4.791277965097e-02 5.846911703612e-02 0.0 
4.637780609790e-02 5.218881140092e-02 0.0 
4.630280906079e-02 6.232144398711e-02 0.0 
4.778070593014e-02 6.872155074560e-02 0.0 
4.430856482795e-02 5.521694361054e-02 0.0 
2.746114813499e-03 1.574407270878e-02 0.0 
8.620078376794e-03 5.777088411310e-02 0.0 
-3.023885416575e-03 3.722711005182e-02 0.0 
-8.066775915339e-04 3.790494528140e-02 0.0 
-2.057898284843e-03 2.130138872769e-02 0.0 
1.275215224445e-02 1.326901630845e-02 0.0 
4.213875514902e-02 4.434107436027e-02 0.0 
3.956938802315e-02 3.804436785218e-02 0.0 
3.810877426322e-02 3.884464656318e-02 0.0 
3.526073628973e-02 3.313884886827e-02 0.0 
3.336640068178e-02 3.297057111807e-02 0.0 
3.026090678668e-02 2.781770610414e-02 0.0 
3.203375911906e-02 2.811471115429e-02 0.0 
2.173111110608e-02 1.703076985676e-02 0.0 
2.684471942369e-02 2.324383231002e-02 0.0 
6.788977239516e-03 9.238142023256e-02 0.0 
2.857437960083e-02 1.964426045907e-02 0.0 
-1.199400748495e-03 1.092547789516e-02 0.0 
1.199380025370e-03 5.196924265785e-02 0.0 
7.985097494920e-04 1.451104139474e-02 0.0 
-5.344385130450e-04 5.762021842880e-02 0.0 
-1.930697777370e-03 5.605357540900e-02 0.0 
2.170592776498e-03 1.212789390740e-02 0.0 
2.785223669879e-02 2.668280630997e-02 0.0 
3.088525225161e-02 3.193444117402e-02 0.0 
4.538491612339e-02 7.356170155376e-02 0.0 
4.683663822046e-02 7.985336071451e-02 0.0 
1.800249934223e-02 1.449233047363e-02 0.0 
2.506538239016e-02 9.370542517266e-02 0.0 
1.683396053127e-02 9.487198186314e-02 0.0 
1.534381067970e-02 1.016675339657e-01 0.0 
1.512890426316e-03 5.845743873580e-02 0.0 
1.806124558893e-03 7.551497345603e-03 0.0 
1.177276207191e-02 5.186824953850e-02 0.0 
3.426294122020e-02 2.044667276810e-02 0.0 
3.500492564319e-02 2.962346796251e-02 0.0 
1.400174830804e-02 -1.578573770544e-02 0.0 
1.039851092859e-02 -2.161125055298e-02 0.0 
4.560099741951e-03 6.989677371251e-02 0.0 
3.898317458280e-03 5.522171400439e-02 0.0 
-4.879813670290e-03 3.945877269272e-02 0.0 
-4.114338929649e-03 4.006627550131e-02 0.0 
3.928718672043e-03 1.254089261272e-02 0.0 
-3.803838614456e-04 2.091269036620e-02 0.0 
4.463710943561e-03 4.843442809000e-02 0.0 
9.601121890814e-03 1.343723291729e-02 0.0 
1.012187997828e-02 1.293814873479e-02 0.0 
-3.688184368086e-03 4.643005230886e-02 0.0 
2.735221372266e-02 2.045847308594e-02 0.0 
2.341694760693e-02 1.008028104191e-02 0.0 
5.948277619137e-04 7.040189087591e-03 0.0 
-2.196128500314e-03 2.104077243013e-02 0.0 
-8.996142207898e-04 5.921613265497e-02 0.0 
3.038626692526e-03 1.038925903041e-02 0.0 
1.183216908290e-02 4.493535014615e-02 0.0 
2.854937025585e-02 2.379623911060e-02 0.0 
3.319429908145e-02 2.770817473290e-02 0.0 
2.323528931239e-02 1.926982253583e-02 0.0 
2.364162368107e-03 2.096062671134e-02 0.0 
8.267188189350e-04 1.149671784547e-02 0.0 
-1.841576774049e-03 2.438714265806e-02 0.0 
2.512575435102e-02 2.510118324093e-02 0.0 
2.785031339680e-02 3.006714843573e-02 0.0 
3.795657744797e-02 2.901865114742e-02 0.0 
3.851208999130e-02 3.875414918144e-02 0.0 
3.459559585166e-02 4.034542373438e-02 0.0 
3.786687018867e-02 4.963967633640e-02 0.0 
3.979095775439e-02 9.410810636188e-02 0.0 
4.126585650553e-02 3.733498377960e-02 0.0 
4.575672670211e-02 8.607513256728e-02 0.0 
4.449363669535e-02 9.592605663908e-02 0.0 
4.611659791037e-02 9.513562283080e-02 0.0 
4.862678719546e-02 7.424374266166e-02 0.0 
4.762035675268e-02 8.533037300522e-02 0.0 
3.401046785367e-02 1.426588537382e-02 0.0 
2.885592171668e-02 1.645538055560e-02 0.0 
-5.465730741461e-03 3.820146493220e-02 0.0 
-4.446545720339e-03 2.995096655514e-02 0.0 
1.075603848300e-04 1.728791888346e-02 0.0 
9.041019185268e-03 5.092492091826e-02 0.0 
6.870408407224e-03 4.290561600316e-02 0.0 
1.176497917963e-02 1.009511480490e-01 0.0 
1.028912443441e-02 1.074168610443e-01 0.0 
8.872960541160e-04 4.328457270033e-02 0.0 
2.201071944681e-03 3.841108984206e-02 0.0 
-4.198850444363e-03 2.518721032594e-02 0.0 
-5.925017745589e-05 1.364457597253e-02 0.0 
1.474071823299e-02 4.544720109351e-02 0.0 
1.428711266283e-02 3.849074316686e-02 0.0 
1.785302693961e-02 4.540974890367e-02 0.0 
4.970297257040e-03 1.115512496009e-02 0.0 
2.226649077243e-02 1.666940473893e-03 0.0 
1.709112252952e-02 1.201527816287e-02 0.0 
8.973821172898e-03 -2.024045069366e-02 0.0 
4.070125721851e-02 3.400711516139e-02 0.0 
4.345637216367e-03 4.382430433454e-02 0.0 
3.737883607663e-02 5.102988914750e-02 0.0 
-1.500054186079e-03 1.965492169220e-02 0.0 
-1.643627564076e-03 1.653122892527e-02 0.0 
1.705723660214e-02 1.374132334356e-02 0.0 
3.807386921080e-02 1.144939891611e-01 0.0 
3.728996088966e-02 2.899064501217e-02 0.0 
3.671163466003e-02 2.625143126501e-02 0.0 
4.424099913351e-02 1.055624446118e-01 0.0 
4.533524192924e-02 1.040545134034e-01 0.0 
4.720003744927e-02 9.319240365557e-02 0.0 
4.586472882406e-02 1.014179410334e-01 0.0 
-1.309759338056e-03 1.233669932083e-02 0.0 
-2.658733718707e-03 1.644444829636e-02 0.0 
2.130167381744e-02 1.978838931301e-02 0.0 
2.110042738265e-02 1.798713286547e-02 0.0 
2.172218087516e-02 2.254536861394e-02 0.0 
2.427683724818e-02 2.725715068846e-02 0.0 
1.346264212790e-02 1.124474066687e-02 0.0 
1.441327893144e-02 1.229548430964e-02 0.0 
-1.827572124025e-03 5.731885778805e-02 0.0 
4.514038084205e-02 9.161230367764e-02 0.0 
9.058640481797e-03 3.716345722385e-02 0.0 
4.264260919592e-02 1.059259995163e-01 0.0 
-1.200700363579e-04 1.071061207650e-02 0.0 
-8.369727809256e-04 1.300567794297e-02 0.0 
7.480426706223e-03 -2.502846618352e-02 0.0 
5.988073953882e-03 -2.015738379706e-02 0.0 
3.063600165895e-03 4.052481305182e-02 0.0 
3.304165953438e-02 5.212185069653e-02 0.0 
3.611839705020e-02 6.131985888125e-02 0.0 
2.968935231057e-02 4.215069480933e-02 0.0 
-2.628831478891e-04 8.931408494899e-03 0.0 
2.742828826001e-03 1.334462582638e-01 0.0 
-1.145165334544e-03 1.459253749669e-02 0.0 
4.883480610459e-02 7.900547285423e-02 0.0 
3.290135865505e-03 3.306797542738e-02 0.0 
3.358682505309e-02 2.489886171030e-02 0.0 
4.551456977234e-02 4.307061792811e-02 0.0 
6.117689637835e-03 1.282017606176e-02 0.0 
2.499859975323e-03 4.858354681157e-02 0.0 
1.849090707935e-03 3.188603843329e-02 0.0 
1.751310082942e-02 1.085253060174e-01 0.0 
1.582152112195e-02 1.154268758302e-01 0.0 
1.923704317584e-02 1.018456843105e-01 0.0 
1.820900436467e-02 -7.840429032575e-03 0.0 
1.443085412503e-02 -1.023580729421e-02 0.0 
6.612804859309e-03 4.975373946770e-02 0.0 
-3.924882205448e-03 5.039148986178e-02 0.0 
-3.440754509652e-03 5.165568836229e-02 0.0 
-1.343183561227e-03 2.679234279007e-02 0.0 
-3.132483712053e-03 2.669760042900e-02 0.0 
-5.097962170132e-03 3.586478058778e-02 0.0 
-5.503271334887e-03 3.441929016834e-02 0.0 
3.572244105729e-02 4.408783101456e-02 0.0 
3.270509674680e-02 4.225926493475e-02 0.0 
4.051150585517e-02 4.526804203997e-02 0.0 
7.258157765738e-03 1.374601632748e-02 0.0 
7.245974361840e-03 1.296530558850e-02 0.0 
1.023634335723e-02 1.162333488725e-02 0.0 
6.938084627166e-03 3.650458509634e-02 0.0 
4.656004360989e-03 2.710109726116e-02 0.0 
7.209752582682e-04 8.961309953499e-03 0.0 
3.136355221818e-03 4.121757058701e-03 0.0 
-2.842715736529e-03 1.723527778577e-02 0.0 
8.620931460477e-03 3.055373176873e-02 0.0 
-1.205306045153e-03 1.154389776729e-02 0.0 
-1.639877276538e-03 1.357229111071e-02 0.0 
5.977370762123e-03 3.889486577464e-02 0.0 
3.531903304681e-03 3.303343650744e-02 0.0 
2.239847346044e-02 2.097289693305e-02 0.0 
1.837755867762e-02 9.852325789975e-03 0.0 
1.358741219182e-02 3.213719786755e-02 0.0 
1.721806597286e-02 3.851873031440e-02 0.0 
9.749545270232e-03 2.441614198053e-02 0.0 
-8.585096213987e-04 6.013678520214e-02 0.0 
2.957921841429e-02 2.366673265114e-02 0.0 
3.795779141477e-03 8.820737560157e-03 0.0 
5.871428535665e-03 9.908388469114e-03 0.0 
2.025302072227e-03 7.238423854172e-03 0.0 
2.089266424131e-02 1.667903067324e-02 0.0 
1.554741959421e-02 1.260256986205e-02 0.0 
1.716522167298e-02 1.419004966798e-02 0.0 
7.796540612212e-03 -2.585485826646e-02 0.0 
1.393040623242e-03 3.817894915361e-02 0.0 
1.217255715461e-02 1.147715105804e-01 0.0 
6.584219453000e-03 -2.864389025299e-02 0.0 
1.050731153733e-02 1.215578510046e-01 0.0 
8.807955201682e-03 1.138468173138e-01 0.0 
9.074325090104e-03 1.281202443333e-01 0.0 
-1.274142293397e-04 6.173755686263e-02 0.0 
1.984940259150e-02 1.175388739630e-01 0.0 
2.181819199311e-02 1.089797047286e-01 0.0 
8.488044516485e-03 3.344959360616e-02 0.0 
5.882615735075e-03 2.276442332726e-02 0.0 
8.049327877525e-03 4.379765105591e-02 0.0 
6.143976141608e-03 4.821201218236e-02 0.0 
-6.664937718543e-04 9.485789151928e-03 0.0 
-1.274892960952e-03 1.202563042227e-02 0.0 
-9.312518825126e-04 8.057234396087e-03 0.0 
-1.455662230703e-03 1.094243827308e-02 0.0 
-1.867109536931e-03 1.476551935074e-02 0.0 
-1.906287458287e-03 1.363075747743e-02 0.0 
1.420221652646e-02 1.230693102536e-01 0.0 
-1.298916139972e-03 8.691519384474e-03 0.0 
-1.742027456701e-03 1.205178049896e-02 0.0 
-1.078586230733e-03 6.963296453879e-03 0.0 
4.330200911702e-02 1.132490018975e-01 0.0 
4.056817351929e-02 5.815846988878e-02 0.0 
3.877205473063e-02 7.021214107890e-02 0.0 
3.322152647204e-02 7.452075272236e-02 0.0 
1.630203898984e-02 1.735017315338e-02 0.0 
2.063251711106e-02 2.410027325644e-02 0.0 
-1.184561367107e-03 2.262407038798e-02 0.0 
-1.397225953035e-03 2.733237758503e-02 0.0 
7.270231177031e-03 1.211620114989e-01 0.0 
5.317208925661e-03 1.218039265758e-01 0.0 
5.815219125687e-03 1.093432269276e-01 0.0 
4.201374343879e-03 1.109160310657e-01 0.0 
4.530177575781e-03 9.843999769821e-02 0.0 
2.919472851708e-03 1.000844213782e-01 0.0 
3.457650932688e-03 8.735218151998e-02 0.0 
1.441670013684e-02 1.220889829033e-02 0.0 
2.688951517968e-02 5.388407900548e-02 0.0 
4.171033202385e-02 1.162795848113e-01 0.0 
1.006304879473e-02 9.009453410474e-03 0.0 
1.143799436124e-02 1.066019609252e-02 0.0 
4.587042963812e-02 9.694769359317e-02 0.0 
4.260669596099e-02 1.041133913026e-01 0.0 
4.183346090585e-04 7.927402480650e-03 0.0 
3.999554508125e-02 2.861773459151e-02 0.0 
4.387039183783e-03 1.437416766710e-02 0.0 
1.745862307420e-03 -1.421993157856e-02 0.0 
8.610389336518e-03 -1.560665080878e-02 0.0 
4.303132999562e-02 3.612946080573e-02 0.0 
4.772232086124e-02 8.995768612605e-02 0.0 
4.316956174685e-02 6.622960196761e-02 0.0 
4.170785756958e-02 7.856267370014e-02 0.0 
6.878116848268e-03 1.371313169530e-02 0.0 
5.077419709041e-03 2.719034180678e-02 0.0 
2.614327596788e-02 3.170927849337e-02 0.0 
5.029546083065e-03 8.587452559725e-02 0.0 
1.994797545921e-02 3.236997186494e-02 0.0 
-6.493456437693e-04 2.506222506817e-02 0.0 
3.785495903714e-02 2.136127702265e-02 0.0 
4.919127480798e-02 6.870699926645e-02 0.0 
3.110018286290e-02 3.051051444602e-02 0.0 
4.176691338776e-02 4.750919078260e-02 0.0 
4.108606916290e-02 8.506200014915e-02 0.0 
3.800139005320e-02 1.030787253516e-01 0.0 
4.041636095396e-02 1.053245496768e-01 0.0 
3.480998169039e-02 1.559841075449e-02 0.0 
4.377138370374e-02 8.554275008643e-02 0.0 
3.913379793248e-02 9.194452347178e-02 0.0 
4.638085339022e-02 7.655268289692e-02 0.0 
2.150666022158e-02 5.184159739800e-02 0.0 
2.102943280713e-02 4.468459573951e-02 0.0 
1.623649953859e-02 3.213086813289e-02 0.0 
2.008935147188e-02 3.783952613916e-02 0.0 
2.487405723495e-02 5.036195312730e-02 0.0 
2.407504944380e-02 4.327830076412e-02 0.0 
1.867735116225e-02 3.139789121574e-02 0.0 
2.277576606394e-02 3.651044694616e-02 0.0 
1.536745892472e-02 2.285061842772e-02 0.0 
2.078238915706e-02 2.985619037553e-02 0.0 
2.682968890864e-02 4.126082480113e-02 0.0 
2.518891467856e-02 3.492678078728e-02 0.0 
1.925256988204e-02 2.518418168152e-02 0.0 
3.086484160355e-02 4.587410009995e-02 0.0 
8.483839237606e-03 7.353584393439e-03 0.0 
4.382649407885e-02 3.501352110897e-02 0.0 
1.087021045302e-02 -1.954637247385e-02 0.0 
1.206695473411e-02 -4.290685779872e-03 0.0 
4.886008514379e-02 7.246956414780e-02 0.0 
7.614056708640e-03 1.123719334019e-02 0.0 
6.529613236921e-03 1.183156800843e-02 0.0 
3.242904219507e-02 1.292396401742e-02 0.0 
8.195848596092e-03 8.070673072829e-03 0.0 
4.231769511964e-02 9.566755935019e-02 0.0 
2.110336288422e-02 -4.948301825228e-03 0.0 
8.000225414627e-03 7.070676503570e-03 0.0 
2.517046464865e-02 5.763976989889e-02 0.0 
2.880850053237e-02 6.309503562778e-02 0.0 
2.844820778074e-02 7.070055478907e-02 0.0 
5.181074621532e-03 1.154295653821e-02 0.0 
2.085233361009e-02 9.484621653200e-02 0.0 
6.000511912585e-03 4.941856879711e-03 0.0 
2.687419108726e-02 1.736485917140e-02 0.0 
3.125182788561e-02 1.972260805938e-02 0.0 
3.315959443060e-02 1.909915020015e-02 0.0 
2.804615726548e-02 4.841435820854e-02 0.0 
3.859303935624e-03 4.088899417745e-03 0.0 
6.530868293751e-03 7.232558812497e-03 0.0 
5.276244950313e-03 7.006554171234e-03 0.0 
8.512473831416e-03 9.849082231369e-03 0.0 
2.491011488690e-03 3.863441321318e-03 0.0 
7.515929089116e-03 9.231767409808e-03 0.0 
7.351791624682e-03 8.321365669168e-03 0.0 
2.899358922578e-03 1.546011282517e-03 0.0 
5.950417649323e-03 -5.136441744895e-04 0.0 
6.297276739666e-03 2.389328224311e-03 0.0 
9.614672685370e-03 -1.233455157404e-03 0.0 
9.106913596957e-03 -4.620678057401e-03 0.0 
1.318282245871e-02 -3.965264050799e-03 0.0 
1.373581594505e-02 -5.441053887303e-04 0.0 
1.681674702990e-02 -5.327958261491e-03 0.0 
2.700124847932e-02 3.316090923152e-02 0.0 
1.250270299899e-03 3.694914984191e-03 0.0 
6.258063728755e-04 1.737662047964e-02 0.0 
2.355846215991e-03 1.554088803051e-02 0.0 
1.952587724032e-03 1.480031588210e-02 0.0 
-5.816567491535e-03 3.626848191865e-02 0.0 
-5.650544660226e-03 3.233844286032e-02 0.0 
-5.203839507730e-03 3.075928487366e-02 0.0 
-5.627545793648e-03 4.030154657700e-02 0.0 
3.655908863437e-02 3.251042828563e-02 0.0 
7.190652892302e-04 3.762055343508e-03 0.0 
1.340568508352e-02 1.232646865096e-02 0.0 
-5.486158612293e-03 2.960208225805e-02 0.0 
2.604652444737e-02 1.276031589397e-01 0.0 
2.741504249754e-02 1.153656826744e-01 0.0 
2.997868405918e-02 1.129694325175e-01 0.0 
2.809356739746e-02 1.012114314984e-01 0.0 
2.447913282516e-02 1.157526892238e-01 0.0 
-4.489965718262e-03 3.667277355623e-02 0.0 
-3.738137762466e-03 3.688016011845e-02 0.0 
-3.227885506441e-03 4.006503511037e-02 0.0 
-2.893842905263e-03 3.653413566070e-02 0.0 
-2.275313624033e-03 3.949999853676e-02 0.0 
-2.528189954493e-03 4.298356418387e-02 0.0 
-1.984617858712e-03 3.570222222233e-02 0.0 
-1.322626698122e-03 3.886614165371e-02 0.0 
2.104115961507e-02 1.304184869762e-01 0.0 
9.279197557312e-03 -1.453612389416e-02 0.0 
5.795418127606e-03 -8.638396064125e-03 0.0 
6.876199986566e-03 1.959204046904e-03 0.0 
3.745269770407e-03 -3.171398140640e-03 0.0 
4.140402883293e-03 -1.192266176958e-02 0.0 
2.699855168824e-03 -5.981705501664e-03 0.0 
4.516327428787e-03 -1.306165558680e-02 0.0 
5.285765862229e-03 -1.885849121406e-02 0.0 
1.246259232886e-02 7.225768258047e-03 0.0 
7.808754302305e-03 1.088240518788e-02 0.0 
1.329920237408e-02 1.555556523748e-02 0.0 
8.621240820389e-03 1.883913129716e-02 0.0 
3.963977654392e-03 1.441306471839e-02 0.0 
1.999311331975e-04 3.267513883628e-02 0.0 
-6.706940018897e-04 5.770940782149e-03 0.0 
-1.053948230995e-03 4.925400154399e-02 0.0 
-2.031375322646e-03 5.027292631487e-02 0.0 
-1.937263815375e-03 5.326270961605e-02 0.0 
-3.004134283518e-03 5.041071505849e-02 0.0 
-1.952039147974e-03 4.730010135502e-02 0.0 
-9.301473459233e-04 5.557592653551e-02 0.0 
-1.708309058119e-03 5.580348217437e-02 0.0 
5.456060256552e-03 6.239435181894e-02 0.0 
3.173374473630e-03 6.364885166730e-02 0.0 
1.566279805374e-03 6.498251842021e-02 0.0 
1.532261636038e-03 6.420702299339e-02 0.0 
2.536464165473e-03 6.255222134703e-02 0.0 
4.645465424175e-03 6.156575069559e-02 0.0 
6.014388383921e-03 5.870958367643e-02 0.0 
9.240558103607e-03 5.679921476128e-02 0.0 
7.153740689576e-03 5.519855529333e-02 0.0 
4.095707987441e-03 5.695934551739e-02 0.0 
1.082169839515e-02 5.307607549315e-02 0.0 
1.114530915302e-03 6.843867398650e-02 0.0 
2.120124709137e-03 6.111772946798e-02 0.0 
-6.856027184377e-05 4.200602657889e-03 0.0 
1.635763781944e-02 1.308670581580e-01 0.0 
1.391659679676e-02 3.033963754086e-02 0.0 
1.718788573008e-03 1.592778232675e-02 0.0 
2.592080710805e-03 1.308108103164e-02 0.0 
2.098429322217e-03 1.272789066489e-02 0.0 
-4.102718447105e-04 1.468510076095e-02 0.0 
-6.618914510255e-04 1.193690206178e-02 0.0 
9.401763171724e-04 1.553495156983e-02 0.0 
-4.517669427496e-03 3.654867398168e-02 0.0 
1.479979508273e-02 2.610664742261e-02 0.0 
4.823180604596e-03 4.157535578457e-02 0.0 
2.280435604581e-02 1.291858064477e-03 0.0 
-3.261454082912e-03 2.126932778773e-02 0.0 
-2.155309024499e-03 2.878226065964e-02 0.0 
-4.002404845157e-03 2.670319821573e-02 0.0 
-2.114899511634e-03 1.822764283181e-02 0.0 
-3.534838887615e-03 3.035544341610e-02 0.0 
-2.766504130178e-03 2.049020306375e-02 0.0 
4.108298798286e-03 7.102986542233e-03 0.0 
3.731722377291e-04 6.049938133208e-02 0.0 
1.316718970807e-02 9.434768195035e-02 0.0 
8.526525918370e-03 9.996312085666e-02 0.0 
7.977672009524e-03 6.456530971889e-02 0.0 
-4.132280956304e-03 4.823795827024e-02 0.0 
-3.524156359673e-03 4.314869116886e-02 0.0 
-2.863525801375e-04 4.753925782739e-02 0.0 
1.470804071620e-02 1.368023325203e-02 0.0 
4.733898697777e-02 8.499489504139e-02 0.0 
-3.418453445292e-04 1.674680846528e-02 0.0 
-5.881631893268e-03 3.788779410136e-02 0.0 
-4.935310917178e-03 3.144481720051e-02 0.0 
-2.135596909396e-03 1.565864775929e-02 0.0 
4.578999088980e-02 4.094712240399e-02 0.0 
-4.674614046094e-03 2.584847405716e-02 0.0 
-1.273197340252e-03 1.830605941360e-02 0.0 
6.116899602880e-03 5.656787531512e-02 0.0 
1.252647675112e-02 4.334557958141e-02 0.0 
-9.366337810413e-05 1.602208703066e-02 0.0 
-3.585800405355e-03 2.416843990846e-02 0.0 
1.821116470200e-02 8.792488358283e-02 0.0 
1.779894541693e-02 1.468622667578e-02 0.0 
1.236518034924e-03 1.583785001283e-03 0.0 
1.142288369689e-02 5.879184575394e-02 0.0 
1.108122289346e-02 3.203337383406e-02 0.0 
2.345726150917e-02 1.013517130082e-01 0.0 
2.750985453139e-03 4.830086628541e-02 0.0 
1.381646124907e-02 1.084940849837e-01 0.0 
1.550213441050e-03 9.458269832727e-03 0.0 
2.151446575716e-02 5.907189717655e-02 0.0 
-3.057944383852e-03 5.235365615148e-02 0.0 
1.770895172652e-02 9.918377661625e-03 0.0 
4.879148880206e-02 5.928237699872e-02 0.0 
3.704177276795e-02 1.258152012102e-01 0.0 
4.978368140236e-03 3.524324251226e-02 0.0 
3.915502495441e-02 2.719740081377e-02 0.0 
1.104704409364e-02 1.206385768229e-02 0.0 
1.627622679239e-02 1.335932833079e-02 0.0 
-2.898852028266e-03 5.401154224596e-02 0.0 
-1.583375554521e-03 1.552159323739e-02 0.0 
3.011556672338e-02 1.495314132294e-02 0.0 
9.220708894361e-03 4.414173628857e-02 0.0 
3.608578509841e-02 3.876166402950e-02 0.0 
2.257994288204e-02 4.652454847434e-03 0.0 
1.479820010317e-02 5.243677633354e-02 0.0 
4.267021415655e-03 1.223891315741e-02 0.0 
1.824764121150e-02 1.477844053555e-02 0.0 
4.839049344115e-02 8.259170180388e-02 0.0 
4.416040941959e-02 5.138042928657e-02 0.0 
3.846263476332e-02 5.844590731460e-02 0.0 
4.360891453114e-02 3.991441882975e-02 0.0 
-1.584752422935e-03 3.180578155975e-02 0.0 
-1.006310067407e-03 1.594930834795e-02 0.0 
1.041386642776e-02 -1.581335600221e-02 0.0 
4.419734934066e-02 4.522792668566e-02 0.0 
2.223907267713e-02 8.747000701293e-02 0.0 
2.469447687534e-02 2.218982843542e-02 0.0 
6.522879060512e-03 2.921798891173e-02 0.0 
4.886952293359e-02 6.401353520868e-02 0.0 
-2.279039053493e-03 1.821278422624e-02 0.0 
1.163535747134e-02 3.846140426268e-02 0.0 
-5.112308380285e-03 2.861179969989e-02 0.0 
-1.289304866745e-04 6.262876133929e-02 0.0 
1.935340880039e-02 -2.345290652244e-04 0.0 
2.149606229523e-02 -1.493424732470e-03 0.0 
3.715023114958e-02 2.285985530662e-02 0.0 
-4.564930195526e-03 2.732610042728e-02 0.0 
1.177986362128e-02 2.412074805376e-02 0.0 
-2.381745896023e-03 1.757183424679e-02 0.0 
4.554899981660e-03 1.393269608142e-02 0.0 
8.491674391738e-03 2.104270629943e-02 0.0 
4.018231394060e-02 1.158049914876e-01 0.0 
-2.273958274019e-03 1.653987101622e-02 0.0 
1.370734852877e-02 1.059654908448e-02 0.0 
1.471422083772e-02 1.297663112594e-02 0.0 
-1.534617906847e-03 4.228329439888e-02 0.0 
1.445810103151e-02 1.279194830885e-02 0.0 
4.346937726023e-02 1.089314913864e-01 0.0 
-2.005488900926e-03 1.514859000162e-02 0.0 
8.656724015722e-03 1.309634968276e-02 0.0 
3.645337915923e-02 2.081632612579e-02 0.0 
4.548744954306e-03 1.334145187996e-01 0.0 
-1.354443052859e-03 9.581980798519e-03 0.0 
7.311444613594e-03 1.183600060109e-02 0.0 
4.045499300362e-02 3.642281002725e-02 0.0 
1.027229372110e-02 9.841621385160e-03 0.0 
3.935084872935e-02 1.271260407994e-01 0.0 
-4.627307602422e-03 2.890733299742e-02 0.0 
4.238925506616e-02 5.227386891739e-02 0.0 
4.546671351576e-03 1.146808025577e-02 0.0 
8.256177198916e-03 1.102030742405e-02 0.0 
3.185693839887e-02 7.589162620644e-02 0.0 
-5.019455964095e-03 3.232073192448e-02 0.0 
2.962820486814e-02 2.151166994534e-02 0.0 
3.435670815951e-03 6.013452738874e-02 0.0 
4.273981017367e-02 1.153515513955e-01 0.0 
-4.606615001201e-03 3.328144563168e-02 0.0 
1.764505660005e-02 -1.815711664140e-03 0.0 
7.158679392422e-03 1.157587636546e-02 0.0 
1.206412597358e-02 9.923655175690e-03 0.0 
-4.023380954300e-03 3.364894890695e-02 0.0 
1.813890599872e-02 1.518338687369e-03 0.0 
-3.320456951435e-03 3.347601004763e-02 0.0 
4.009205489465e-02 1.227598820186e-01 0.0 
3.231672939729e-02 6.779342773238e-02 0.0 
-2.512474149872e-03 3.283831113166e-02 0.0 
3.835834228595e-02 4.514239180402e-02 0.0 
4.502848383934e-03 5.287697706143e-02 0.0 
3.725107198292e-02 3.112663232722e-02 0.0 
-9.251398750003e-04 1.738952074577e-02 0.0 
-4.109383274438e-03 2.202837620706e-02 0.0 
4.522808525808e-03 1.353234906870e-02 0.0 
2.867169954518e-02 5.561263553512e-02 0.0 
3.811682211300e-02 1.141589313911e-01 0.0 
4.816076358608e-03 1.439502709318e-02 0.0 
3.355361910436e-02 3.777665682736e-02 0.0 
3.374158083266e-02 2.665580970348e-02 0.0 
3.538532394689e-02 2.295292501994e-02 0.0 
4.867216664998e-03 1.455734031623e-02 0.0 
4.142005521055e-02 9.810055831210e-02 0.0 
-3.862879786860e-03 3.206021048402e-02 0.0 
-2.230864550580e-03 3.230448677382e-02 0.0 
1.407192405040e-02 2.672281239040e-03 0.0 
3.048658432219e-02 3.587896951541e-02 0.0 
1.019771279823e-03 6.268305714532e-02 0.0 
3.181749701801e-02 5.270409664632e-02 0.0 
1.292131629977e-03 2.700700779893e-02 0.0 
9.993471947137e-03 1.903827136625e-03 0.0 
2.551459227724e-02 1.999990820344e-02 0.0 
1.325205729707e-03 9.657196246653e-02 0.0 
6.597545620068e-03 5.152331666581e-03 0.0 
-4.764964899104e-04 6.067825416593e-02 0.0 
3.387139023834e-03 6.510351800369e-03 0.0 
3.275693572987e-02 2.257026752544e-02 0.0 
9.744278411699e-04 1.073143449559e-02 0.0 
-1.225068685985e-03 1.355644417186e-02 0.0 
3.352304254577e-03 2.703812595313e-02 0.0 
-2.802575127145e-03 1.802434109364e-02 0.0 
4.676127734129e-04 1.288038442307e-02 0.0 
-3.082689173848e-04 5.387668866316e-03 0.0 
1.720745768601e-03 1.235130677155e-01 0.0 
3.321433059619e-02 1.030083823654e-01 0.0 
4.958867983337e-03 -3.040122593904e-02 0.0 
3.728121709349e-02 8.158792482433e-02 0.0 
-3.841884025620e-03 2.157415623542e-02 0.0 
3.433373276994e-02 4.898890750740e-02 0.0 
3.575665111839e-03 1.228699366795e-01 0.0 
-4.196092587867e-03 2.659617886741e-02 0.0 
1.424394324040e-02 1.898559751952e-02 0.0 
6.857160227888e-03 5.669373912248e-03 0.0 
2.391906752258e-03 7.486583660352e-02 0.0 
1.165225165288e-02 1.155339019752e-02 0.0 
2.987305169630e-02 2.283286304030e-02 0.0 
6.908303939142e-04 3.970509389038e-02 0.0 
1.052437395813e-02 1.340713510867e-01 0.0 
9.224557200538e-03 2.627006796486e-02 0.0 
-7.595093322930e-04 2.981485967108e-02 0.0 
2.750346698290e-02 8.617755700551e-02 0.0 
2.993666070688e-02 6.395504632631e-02 0.0 
2.325084868037e-02 4.328162435440e-02 0.0 
-2.400687077248e-03 5.514710973117e-02 0.0 
4.168232870450e-03 5.966217314790e-03 0.0 
2.270828102496e-02 6.630605508012e-02 0.0 
7.862578837408e-03 7.751655915435e-03 0.0 
1.769153090626e-02 1.209490156235e-01 0.0 
2.500415176056e-02 2.019338566933e-02 0.0 
1.585491895059e-02 4.475369597217e-02 0.0 
8.040314883253e-03 2.496979990739e-02 0.0 
1.276498475577e-02 1.041008549477e-02 0.0 
-5.078461723063e-04 3.998820412964e-03 0.0 
1.933276722754e-02 1.569664680402e-02 0.0 
1.615362513627e-02 2.077887913009e-02 0.0 
2.581055854941e-02 1.056192554591e-01 0.0 
1.479851294098e-02 1.458729416814e-02 0.0 
3.237476019002e-03 6.318382572447e-02 0.0 
-6.579671672506e-04 4.078452074872e-03 0.0 
2.220107476293e-02 1.204894662413e-01 0.0 
2.047907691626e-03 2.531714382083e-02 0.0 
7.319628433679e-03 -1.631999890907e-02 0.0 
1.042967999162e-03 2.462073147398e-02 0.0 
2.915479498181e-02 3.916592695084e-02 0.0 
7.325690118122e-03 1.063801933108e-01 0.0 
3.073925872977e-02 1.022889518130e-01 0.0 
-7.795932031351e-04 9.260917994396e-03 0.0 
1.302587621895e-02 2.092958534858e-02 0.0 
1.234408671544e-02 7.186427436490e-03 0.0 
3.747080258002e-03 7.629547828866e-02 0.0 
-3.876554364050e-03 4.858703353005e-02 0.0 
6.214037348528e-03 -2.616804213306e-02 0.0 
-1.903558492220e-04 7.549081587776e-03 0.0 
2.325500767670e-02 2.949598122331e-02 0.0 
-1.140948534636e-03 9.156218710370e-03 0.0 
7.271769693395e-04 6.494823661030e-02 0.0 
9.845990906983e-03 3.947705127464e-02 0.0 
1.000872758794e-03 6.569891344981e-03 0.0 
1.388318169300e-02 1.575486994786e-02 0.0 
4.373799915630e-03 -9.068613777546e-03 0.0 
2.727374628421e-03 1.010186528692e-02 0.0 
6.812228670633e-03 -5.078026397664e-03 0.0 
1.433256000485e-02 1.349166761387e-01 0.0 
8.317318351815e-03 5.144048386036e-02 0.0 
-6.559126236754e-04 4.290673140652e-03 0.0 
4.847857320229e-03 2.389069787195e-02 0.0 
-2.750310994187e-03 4.798581492094e-02 0.0 
3.112646697534e-02 1.219215576405e-01 0.0 
-1.328883381540e-03 5.824391121249e-02 0.0 
1.919889215296e-02 1.686820118926e-02 0.0 
5.512911099395e-03 2.158417341376e-02 0.0 
3.332394236871e-03 2.274426828091e-02 0.0 
2.664381069973e-03 6.193313796373e-03 0.0 
9.420241175810e-03 2.085287916873e-02 0.0 
3.795881260775e-03 3.384051349201e-03 0.0 
7.063877674490e-03 -2.398948186733e-02 0.0 
1.167720982093e-02 9.628724857198e-03 0.0 
6.408249607576e-03 9.046035726019e-03 0.0 
7.908053649174e-03 1.348221508250e-01 0.0 
1.159030678303e-02 2.140243301256e-02 0.0 
-2.619668970861e-03 5.317305602438e-02 0.0 
2.124627211153e-03 5.541898666635e-02 0.0 
1.991880449452e-04 1.142148021534e-02 0.0 
1.720224177782e-03 6.455922522288e-02 0.0 
1.335011686216e-03 1.349634815259e-01 0.0 
-1.193400199448e-04 4.423795203547e-03 0.0 
1.737822278618e-03 6.108227620358e-02 0.0 
2.843261781273e-03 1.136344784399e-01 0.0 
1.310495586582e-02 1.601442646908e-02 0.0 
-6.662918962099e-04 4.198510005228e-02 0.0 
1.597825092077e-03 4.945471189004e-02 0.0 
2.435480109439e-03 1.392172998904e-03 0.0 
7.062052761686e-03 -3.157322324625e-02 0.0 
2.284454002826e-03 8.950819115945e-02 0.0 
1.070750728022e-02 8.771766235117e-03 0.0 
7.447415963036e-03 2.062858498151e-02 0.0 
5.882874370414e-03 9.888664011270e-02 0.0 
1.592766356259e-02 5.372632519682e-04 0.0 
1.817760713819e-02 2.215273145959e-02 0.0 
-2.819542032232e-03 4.535291616525e-02 0.0 
1.972102900344e-02 1.927801688446e-02 0.0 
9.357478553074e-03 9.595377643265e-03 0.0 
9.753418441427e-04 -2.698760154388e-03 0.0 
-5.569877678647e-04 3.814246315155e-02 0.0 
9.328950658290e-03 4.739255845892e-02 0.0 
-1.015664117890e-03 7.437385563815e-03 0.0 
-1.856764073551e-03 4.467240815456e-02 0.0 
3.322040356802e-02 1.430730967762e-01 0.0 
8.843675649715e-04 1.630449205974e-01 0.0 
3.192688171487e-02 1.384869802313e-01 0.0 
8.961330239217e-04 1.507277815218e-01 0.0 

VECTORS node_bounda_dof_materi_velocity_x float
1.000000000000e+00 0.0 0.0 
1.000000000000e+00 0.0 0.0 
1.000000000000e+00 0.0 0.0 
1.000000000000e+00 0.0 0.0 
1.000000000000e+00 0.0 0.0 
1.000000000000e+00 0.0 0.0 
1.000000000000e+00 0.0 0.0 
1.000000000000e+00 0.0 0.0 
1.000000000000e+00 0.0 0.0 
1.000000000000e+00 0.0 0.0 
1.000000000000e+00 0.0 0.0 
1.000000000000e+00 0.0 0.0 
1.000000000000e+00 0.0 0.0 
1.000000000000e+00 0.0 0.0 
1.000000000000e+00 0.0 0.0 
1.000000000000e+00 0.0 0.0 
1.000000000000e+00 0.0 0.0 
1.000000000000e+00 0.0 0.0 
1.000000000000e+00 0.0 0.0 
1.000000000000e+00 0.0 0.0 
1.000000000000e+00 0.0 0.0 
1.000000000000e+00 0.0 0.0 
1.000000000000e+00 0.0 0.0 
1.000000000000e+00 0.0 0.0 
1.000000000000e+00 0.0 0.0 
1.000000000000e+00 0.0 0.0 
1.000000000000e+00 0.0 0.0 
1.000000000000e+00 0.0 0.0 
1.000000000000e+00 0.0 0.0 
1.000000000000e+00 0.0 0.0 
1.000000000000e+00 0.0 0.0 
1.000000000000e+00 0.0 0.0 
1.000000000000e+00 0.0 0.0 
1.000000000000e+00 0.0 0.0 
1.000000000000e+00 0.0 0.0 
1.000000000000e+00 0.0 0.0 
1.000000000000e+00 0.0 0.0 
1.000000000000e+00 0.0 0.0 
1.000000000000e+00 0.0 0.0 
1.000000000000e+00 0.0 0.0 
1.000000000000e+00 0.0 0.0 
1.000000000000e+00 0.0 0.0 
1.000000000000e+00 0.0 0.0 
1.000000000000e+00 0.0 0.0 
1.000000000000e+00 0.0 0.0 
1.000000000000e+00 0.0 0.0 
1.000000000000e+00 0.0 0.0 
1.000000000000e+00 0.0 0.0 
1.000000000000e+00 0.0 0.0 
1.000000000000e+00 0.0 0.0 
1.000000000000e+00 0.0 0.0 
1.000000000000e+00 0.0 0.0 
1.000000000000e+00 0.0 0.0 
1.000000000000e+00 0.0 0.0 
1.000000000000e+00 0.0 0.0 
1.000000000000e+00 0.0 0.0 
1.000000000000e+00 0.0 0.0 
1.000000000000e+00 0.0 0.0 
1.000000000000e+00 0.0 0.0 
1.000000000000e+00 0.0 0.0 
1.000000000000e+00 0.0 0.0 
1.000000000000e+00 0.0 0.0 
1.000000000000e+00 0.0 0.0 
1.000000000000e+00 0.0 0.0 
1.000000000000e+00 0.0 0.0 
1.000000000000e+00 0.0 0.0 
1.000000000000e+00 0.0 0.0 
1.000000000000e+00 0.0 0.0 
1.000000000000e+00 0.0 0.0 
1.000000000000e+00 0.0 0.0 
1.000000000000e+00 0.0 0.0 
1.000000000000e+00 0.0 0.0 
1.000000000000e+00 0.0 0.0 
1.000000000000e+00 0.0 0.0 
1.000000000000e+00 0.0 0.0 
1.000000000000e+00 0.0 0.0 
1.000000000000e+00 0.0 0.0 
1.000000000000e+00 0.0 0.0 
1.000000000000e+00 0.0 0.0 
1.000000000000e+00 0.0 0.0 
1.000000000000e+00 0.0 0.0 
0.0 0.0 0.0 
0.0 0.0 0.0 
0.0 0.0 0.0 
0.0 0.0 0.0 
0.0 0.0 0.0 
0.0 0.0 0.0 
0.0 0.0 0.0 
0.0 0.0 0.0 
0.0 0.0 0.0 
0.0 0.0 0.0 
0.0 0.0 0.0 
1.000000000000e+00 0.0 0.0 
1.000000000000e+00 0.0 0.0 
0.0 0.0 0.0 
0.0 0.0 0.0 
0.0 0.0 0.0 
0.0 0.0 0.0 
0.0 0.0 0.0 
0.0 0.0 0.0 
0.0 0.0 0.0 
0.0 0.0 0.0 
0.0 0.0 0.0 
0.0 0.0 0.0 
0.0 0.0 0.0 
0.0 0.0 0.0 
0.0 0.0 0.0 
0.0 0.0 0.0 
0.0 0.0 0.0 
0.0 0.0 0.0 
0.0 0.0 0.0 
0.0 0.0 0.0 
0.0 0.0 0.0 
0.0 0.0 0.0 
0.0 0.0 0.0 
0.0 0.0 0.0 
0.0 0.0 0.0 
0.0 0.0 0.0 
0.0 0.0 0.0 
0.0 0.0 0.0 
0.0 0.0 0.0 
0.0 0.0 0.0 
0.0 0.0 0.0 
0.0 0.0 0.0 
0.0 0.0 0.0 
0.0 0.0 0.0 
0.0 0.0 0.0 
0.0 0.0 0.0 
0.0 0.0 0.0 
0.0 0.0 0.0 
0.0 0.0 0.0 
0.0 0.0 0.0 
0.0 0.0 0.0 
0.0 0.0 0.0 
0.0 0.0 0.0 
0.0 0.0 0.0 
0.0 0.0 0.0 
0.0 0.0 0.0 
0.0 0.0 0.0 
0.0 0.0 0.0 
0.0 0.0 0.0 
0.0 0.0 0.0 
0.0 0.0 0.0 
0.0 0.0 0.0 
0.0 0.0 0.0 
0.0 0.0 0.0 
0.0 0.0 0.0 
0.0 0.0 0.0 
0.0 0.0 0.0 
0.0 0.0 0.0 
0.0 0.0 0.0 
0.0 0.0 0.0 
0.0 0.0 0.0 
0.0 0.0 0.0 
0.0 0.0 0.0 
0.0 0.0 0.0 
0.0 0.0 0.0 
0.0 0.0 0.0 
0.0 0.0 0.0 
0.0 0.0 0.0 
0.0 0.0 0.0 
0.0 0.0 0.0 
0.0 0.0 0.0 
0.0 0.0 0.0 
0.0 0.0 0.0 
0.0 0.0 0.0 
0.0 0.0 0.0 
0.0 0.0 0.0 
0.0 0.0 0.0 
0.0 0.0 0.0 
0.0 0.0 0.0 
0.0 0.0 0.0 
0.0 0.0 0.0 
0.0 0.0 0.0 
0.0 0.0 0.0 
0.0 0.0 0.0 
0.0 0.0 0.0 
0.0 0.0 0.0 
0.0 0.0 0.0 
0.0 0.0 0.0 
0.0 0.0 0.0 
0.0 0.0 0.0 
0.0 0.0 0.0 
0.0 0.0 0.0 
0.0 0.0 0.0 
0.0 0.0 0.0 
0.0 0.0 0.0 
0.0 0.0 0.0 
0.0 0.0 0.0 
0.0 0.0 0.0 
0.0 0.0 0.0 
0.0 0.0 0.0 
0.0 0.0 0.0 
0.0 0.0 0.0 
0.0 0.0 0.0 
0.0 0.0 0.0 
0.0 0.0 0.0 
0.0 0.0 0.0 
0.0 0.0 0.0 
0.0 0.0 0.0 
0.0 0.0 0.0 
0.0 0.0 0.0 
0.0 0.0 0.0 
0.0 0.0 0.0 
0.0 0.0 0.0 
0.0 0.0 0.0 
0.0 0.0 0.0 
0.0 0.0 0.0 
0.0 0.0 0.0 
0.0 0.0 0.0 
0.0 0.0 0.0 
0.0 0.0 0.0 
0.0 0.0 0.0 
0.0 0.0 0.0 
0.0 0.0 0.0 
0.0 0.0 0.0 
0.0 0.0 0.0 
0.0 0.0 0.0 
0.0 0.0 0.0 
0.0 0.0 0.0 
0.0 0.0 0.0 
0.0 0.0 0.0 
0.0 0.0 0.0 
0.0 0.0 0.0 
0.0 0.0 0.0 
0.0 0.0 0.0 
0.0 0.0 0.0 
0.0 0.0 0.0 
0.0 0.0 0.0 
0.0 0.0 0.0 
0.0 0.0 0.0 
0.0 0.0 0.0 
0.0 0.0 0.0 
0.0 0.0 0.0 
0.0 0.0 0.0 
0.0 0.0 0.0 
0.0 0.0 0.0 
0.0 0.0 0.0 
0.0 0.0 0.0 
0.0 0.0 0.0 
0.0 0.0 0.0 
0.0 0.0 0.0 
0.0 0.0 0.0 
0.0 0.0 0.0 
0.0 0.0 0.0 
0.0 0.0 0.0 
0.0 0.0 0.0 
0.0 0.0 0.0 
0.0 0.0 0.0 
0.0 0.0 0.0 
0.0 0.0 0.0 
0.0 0.0 0.0 
0.0 0.0 0.0 
0.0 0.0 0.0 
0.0 0.0 0.0 
0.0 0.0 0.0 
0.0 0.0 0.0 
0.0 0.0 0.0 
0.0 0.0 0.0 
0.0 0.0 0.0 
0.0 0.0 0.0 
0.0 0.0 0.0 
0.0 0.0 0.0 
0.0 0.0 0.0 
0.0 0.0 0.0 
0.0 0.0 0.0 
0.0 0.0 0.0 
0.0 0.0 0.0 
0.0 0.0 0.0 
0.0 0.0 0.0 
0.0 0.0 0.0 
0.0 0.0 0.0 
0.0 0.0 0.0 
0.0 0.0 0.0 
0.0 0.0 0.0 
0.0 0.0 0.0 
0.0 0.0 0.0 
0.0 0.0 0.0 
0.0 0.0 0.0 
0.0 0.0 0.0 
0.0 0.0 0.0 
0.0 0.0 0.0 
0.0 0.0 0.0 
0.0 0.0 0.0 
0.0 0.0 0.0 
0.0 0.0 0.0 
0.0 0.0 0.0 
0.0 0.0 0.0 
0.0 0.0 0.0 
0.0 0.0 0.0 
0.0 0.0 0.0 
0.0 0.0 0.0 
0.0 0.0 0.0 
0.0 0.0 0.0 
0.0 0.0 0.0 
0.0 0.0 0.0 
0.0 0.0 0.0 
0.0 0.0 0.0 
0.0 0.0 0.0 
0.0 0.0 0.0 
0.0 0.0 0.0 
0.0 0.0 0.0 
0.0 0.0 0.0 
0.0 0.0 0.0 
0.0 0.0 0.0 
0.0 0.0 0.0 
0.0 0.0 0.0 
0.0 0.0 0.0 
0.0 0.0 0.0 
0.0 0.0 0.0 
0.0 0.0 0.0 
0.0 0.0 0.0 
0.0 0.0 0.0 
0.0 0.0 0.0 
0.0 0.0 0.0 
0.0 0.0 0.0 
0.0 0.0 0.0 
0.0 0.0 0.0 
0.0 0.0 0.0 
0.0 0.0 0.0 
0.0 0.0 0.0 
0.0 0.0 0.0 
0.0 0.0 0.0 
0.0 0.0 0.0 
0.0 0.0 0.0 
0.0 0.0 0.0 
0.0 0.0 0.0 
0.0 0.0 0.0 
0.0 0.0 0.0 
0.0 0.0 0.0 
0.0 0.0 0.0 
0.0 0.0 0.0 
0.0 0.0 0.0 
0.0 0.0 0.0 
0.0 0.0 0.0 
0.0 0.0 0.0 
0.0 0.0 0.0 
0.0 0.0 0.0 
0.0 0.0 0.0 
0.0 0.0 0.0 
0.0 0.0 0.0 
0.0 0.0 0.0 
0.0 0.0 0.0 
0.0 0.0 0.0 
0.0 0.0 0.0 
0.0 0.0 0.0 
0.0 0.0 0.0 
0.0 0.0 0.0 
0.0 0.0 0.0 
0.0 0.0 0.0 
0.0 0.0 0.0 
0.0 0.0 0.0 
0.0 0.0 0.0 
0.0 0.0 0.0 
0.0 0.0 0.0 
0.0 0.0 0.0 
0.0 0.0 0.0 
0.0 0.0 0.0 
0.0 0.0 0.0 
0.0 0.0 0.0 
0.0 0.0 0.0 
0.0 0.0 0.0 
0.0 0.0 0.0 
0.0 0.0 0.0 
0.0 0.0 0.0 
0.0 0.0 0.0 
0.0 0.0 0.0 
0.0 0.0 0.0 
0.0 0.0 0.0 
0.0 0.0 0.0 
0.0 0.0 0.0 
0.0 0.0 0.0 
0.0 0.0 0.0 
0.0 0.0 0.0 
0.0 0.0 0.0 
0.0 0.0 0.0 
0.0 0.0 0.0 
0.0 0.0 0.0 
0.0 0.0 0.0 
0.0 0.0 0.0 
0.0 0.0 0.0 
0.0 0.0 0.0 
0.0 0.0 0.0 
0.0 0.0 0.0 
0.0 0.0 0.0 
0.0 0.0 0.0 
0.0 0.0 0.0 
0.0 0.0 0.0 
0.0 0.0 0.0 
0.0 0.0 0.0 
0.0 0.0 0.0 
0.0 0.0 0.0 
0.0 0.0 0.0 
0.0 0.0 0.0 
0.0 0.0 0.0 
0.0 0.0 0.0 
0.0 0.0 0.0 
0.0 0.0 0.0 
0.0 0.0 0.0 
0.0 0.0 0.0 
0.0 0.0 0.0 
0.0 0.0 0.0 
0.0 0.0 0.0 
0.0 0.0 0.0 
0.0 0.0 0.0 
0.0 0.0 0.0 
0.0 0.0 0.0 
0.0 0.0 0.0 
0.0 0.0 0.0 
0.0 0.0 0.0 
0.0 0.0 0.0 
0.0 0.0 0.0 
0.0 0.0 0.0 
0.0 0.0 0.0 
0.0 0.0 0.0 
0.0 0.0 0.0 
0.0 0.0 0.0 
0.0 0.0 0.0 
0.0 0.0 0.0 
0.0 0.0 0.0 
0.0 0.0 0.0 
0.0 0.0 0.0 
0.0 0.0 0.0 
0.0 0.0 0.0 
0.0 0.0 0.0 
0.0 0.0 0.0 
0.0 0.0 0.0 
0.0 0.0 0.0 
0.0 0.0 0.0 
0.0 0.0 0.0 
0.0 0.0 0.0 
0.0 0.0 0.0 
0.0 0.0 0.0 
0.0 0.0 0.0 
0.0 0.0 0.0 
0.0 0.0 0.0 
0.0 0.0 0.0 
0.0 0.0 0.0 
0.0 0.0 0.0 
0.0 0.0 0.0 
0.0 0.0 0.0 
0.0 0.0 0.0 
0.0 0.0 0.0 
0.0 0.0 0.0 
0.0 0.0 0.0 
0.0 0.0 0.0 
0.0 0.0 0.0 
0.0 0.0 0.0 
0.0 0.0 0.0 
0.0 0.0 0.0 
0.0 0.0 0.0 
0.0 0.0 0.0 
0.0 0.0 0.0 
0.0 0.0 0.0 
0.0 0.0 0.0 
0.0 0.0 0.0 
0.0 0.0 0.0 
0.0 0.0 0.0 
0.0 0.0 0.0 
0.0 0.0 0.0 
0.0 0.0 0.0 
0.0 0.0 0.0 
0.0 0.0 0.0 
0.0 0.0 0.0 
0.0 0.0 0.0 
0.0 0.0 0.0 
0.0 0.0 0.0 
0.0 0.0 0.0 
0.0 0.0 0.0 
0.0 0.0 0.0 
0.0 0.0 0.0 
0.0 0.0 0.0 
0.0 0.0 0.0 
0.0 0.0 0.0 
0.0 0.0 0.0 
0.0 0.0 0.0 
0.0 0.0 0.0 
0.0 0.0 0.0 
0.0 0.0 0.0 
0.0 0.0 0.0 
0.0 0.0 0.0 
0.0 0.0 0.0 
0.0 0.0 0.0 
0.0 0.0 0.0 
0.0 0.0 0.0 
0.0 0.0 0.0 
0.0 0.0 0.0 
0.0 0.0 0.0 
0.0 0.0 0.0 
0.0 0.0 0.0 
0.0 0.0 0.0 
0.0 0.0 0.0 
0.0 0.0 0.0 
0.0 0.0 0.0 
0.0 0.0 0.0 
0.0 0.0 0.0 
0.0 0.0 0.0 
0.0 0.0 0.0 
0.0 0.0 0.0 
0.0 0.0 0.0 
0.0 0.0 0.0 
0.0 0.0 0.0 
0.0 0.0 0.0 
0.0 0.0 0.0 
0.0 0.0 0.0 
0.0 0.0 0.0 
0.0 0.0 0.0 
0.0 0.0 0.0 
0.0 0.0 0.0 
0.0 0.0 0.0 
0.0 0.0 0.0 
0.0 0.0 0.0 
0.0 0.0 0.0 
0.0 0.0 0.0 
0.0 0.0 0.0 
0.0 0.0 0.0 
0.0 0.0 0.0 
0.0 0.0 0.0 
0.0 0.0 0.0 
0.0 0.0 0.0 
0.0 0.0 0.0 
0.0 0.0 0.0 
0.0 0.0 0.0 
0.0 0.0 0.0 
0.0 0.0 0.0 
0.0 0.0 0.0 
0.0 0.0 0.0 
0.0 0.0 0.0 
0.0 0.0 0.0 
0.0 0.0 0.0 
0.0 0.0 0.0 
0.0 0.0 0.0 
0.0 0.0 0.0 
0.0 0.0 0.0 
0.0 0.0 0.0 
0.0 0.0 0.0 
0.0 0.0 0.0 
0.0 0.0 0.0 
0.0 0.0 0.0 
0.0 0.0 0.0 
0.0 0.0 0.0 
0.0 0.0 0.0 
0.0 0.0 0.0 
0.0 0.0 0.0 
0.0 0.0 0.0 
0.0 0.0 0.0 
0.0 0.0 0.0 
0.0 0.0 0.0 
0.0 0.0 0.0 
0.0 0.0 0.0 
0.0 0.0 0.0 
0.0 0.0 0.0 
0.0 0.0 0.0 
0.0 0.0 0.0 
0.0 0.0 0.0 
0.0 0.0 0.0 
0.0 0.0 0.0 
0.0 0.0 0.0 
0.0 0.0 0.0 
0.0 0.0 0.0 
0.0 0.0 0.0 
0.0 0.0 0.0 
0.0 0.0 0.0 
0.0 0.0 0.0 
0.0 0.0 0.0 
0.0 0.0 0.0 
0.0 0.0 0.0 
0.0 0.0 0.0 
0.0 0.0 0.0 
0.0 0.0 0.0 
0.0 0.0 0.0 
0.0 0.0 0.0 
0.0 0.0 0.0 
0.0 0.0 0.0 
0.0 0.0 0.0 
0.0 0.0 0.0 
0.0 0.0 0.0 
0.0 0.0 0.0 
0.0 0.0 0.0 
0.0 0.0 0.0 
0.0 0.0 0.0 
0.0 0.0 0.0 
0.0 0.0 0.0 
0.0 0.0 0.0 
0.0 0.0 0.0 
0.0 0.0 0.0 
0.0 0.0 0.0 
0.0 0.0 0.0 
0.0 0.0 0.0 
0.0 0.0 0.0 
0.0 0.0 0.0 
0.0 0.0 0.0 
0.0 0.0 0.0 
0.0 0.0 0.0 
0.0 0.0 0.0 
0.0 0.0 0.0 
0.0 0.0 0.0 
0.0 0.0 0.0 
0.0 0.0 0.0 
0.0 0.0 0.0 
0.0 0.0 0.0 
0.0 0.0 0.0 
0.0 0.0 0.0 
0.0 0.0 0.0 
0.0 0.0 0.0 
0.0 0.0 0.0 
0.0 0.0 0.0 
0.0 0.0 0.0 
0.0 0.0 0.0 
0.0 0.0 0.0 
0.0 0.0 0.0 
0.0 0.0 0.0 
0.0 0.0 0.0 
0.0 0.0 0.0 
0.0 0.0 0.0 
0.0 0.0 0.0 
0.0 0.0 0.0 
0.0 0.0 0.0 
0.0 0.0 0.0 
0.0 0.0 0.0 
0.0 0.0 0.0 
0.0 0.0 0.0 
0.0 0.0 0.0 
0.0 0.0 0.0 
0.0 0.0 0.0 
0.0 0.0 0.0 
0.0 0.0 0.0 
0.0 0.0 0.0 
0.0 0.0 0.0 
0.0 0.0 0.0 
0.0 0.0 0.0 
0.0 0.0 0.0 
0.0 0.0 0.0 
0.0 0.0 0.0 
0.0 0.0 0.0 
0.0 0.0 0.0 
0.0 0.0 0.0 
0.0 0.0 0.0 
0.0 0.0 0.0 
0.0 0.0 0.0 
0.0 0.0 0.0 
0.0 0.0 0.0 
0.0 0.0 0.0 
0.0 0.0 0.0 
0.0 0.0 0.0 
0.0 0.0 0.0 
0.0 0.0 0.0 
0.0 0.0 0.0 
0.0 0.0 0.0 
0.0 0.0 0.0 
0.0 0.0 0.0 
0.0 0.0 0.0 
0.0 0.0 0.0 
0.0 0.0 0.0 
0.0 0.0 0.0 
0.0 0.0 0.0 
0.0 0.0 0.0 
0.0 0.0 0.0 
0.0 0.0 0.0 
0.0 0.0 0.0 
0.0 0.0 0.0 
0.0 0.0 0.0 
0.0 0.0 0.0 
0.0 0.0 0.0 
0.0 0.0 0.0 
0.0 0.0 0.0 
0.0 0.0 0.0 
0.0 0.0 0.0 
0.0 0.0 0.0 
0.0 0.0 0.0 
0.0 0.0 0.0 
0.0 0.0 0.0 
0.0 0.0 0.0 
0.0 0.0 0.0 
0.0 0.0 0.0 
0.0 0.0 0.0 
0.0 0.0 0.0 
0.0 0.0 0.0 
0.0 0.0 0.0 
0.0 0.0 0.0 
0.0 0.0 0.0 
0.0 0.0 0.0 
0.0 0.0 0.0 
0.0 0.0 0.0 
0.0 0.0 0.0 
0.0 0.0 0.0 
0.0 0.0 0.0 
0.0 0.0 0.0 
0.0 0.0 0.0 
0.0 0.0 0.0 
0.0 0.0 0.0 
0.0 0.0 0.0 
0.0 0.0 0.0 
0.0 0.0 0.0 
0.0 0.0 0.0 
0.0 0.0 0.0 
0.0 0.0 0.0 
0.0 0.0 0.0 
0.0 0.0 0.0 
0.0 0.0 0.0 
0.0 0.0 0.0 
0.0 0.0 0.0 
0.0 0.0 0.0 
0.0 0.0 0.0 
0.0 0.0 0.0 
0.0 0.0 0.0 
0.0 0.0 0.0 
0.0 0.0 0.0 
0.0 0.0 0.0 
0.0 0.0 0.0 
0.0 0.0 0.0 
0.0 0.0 0.0 
0.0 0.0 0.0 
0.0 0.0 0.0 
0.0 0.0 0.0 
0.0 0.0 0.0 
0.0 0.0 0.0 
0.0 0.0 0.0 
0.0 0.0 0.0 
0.0 0.0 0.0 
0.0 0.0 0.0 
0.0 0.0 0.0 
0.0 0.0 0.0 
0.0 0.0 0.0 
0.0 0.0 0.0 
0.0 0.0 0.0 
0.0 0.0 0.0 
0.0 0.0 0.0 
0.0 0.0 0.0 
0.0 0.0 0.0 
0.0 0.0 0.0 
0.0 0.0 0.0 
0.0 0.0 0.0 
0.0 0.0 0.0 
0.0 0.0 0.0 
0.0 0.0 0.0 
0.0 0.0 0.0 
0.0 0.0 0.0 
0.0 0.0 0.0 
0.0 0.0 0.0 
0.0 0.0 0.0 
0.0 0.0 0.0 
0.0 0.0 0.0 
0.0 0.0 0.0 
0.0 0.0 0.0 
0.0 0.0 0.0 
0.0 0.0 0.0 
0.0 0.0 0.0 
0.0 0.0 0.0 
0.0 0.0 0.0 
0.0 0.0 0.0 
0.0 0.0 0.0 
0.0 0.0 0.0 
0.0 0.0 0.0 
0.0 0.0 0.0 
0.0 0.0 0.0 
0.0 0.0 0.0 
0.0 0.0 0.0 
0.0 0.0 0.0 
0.0 0.0 0.0 
0.0 0.0 0.0 
0.0 0.0 0.0 
0.0 0.0 0.0 
0.0 0.0 0.0 
0.0 0.0 0.0 
0.0 0.0 0.0 
0.0 0.0 0.0 
0.0 0.0 0.0 
0.0 0.0 0.0 
0.0 0.0 0.0 
0.0 0.0 0.0 
0.0 0.0 0.0 
0.0 0.0 0.0 
0.0 0.0 0.0 
0.0 0.0 0.0 
0.0 0.0 0.0 
0.0 0.0 0.0 
0.0 0.0 0.0 
0.0 0.0 0.0 
0.0 0.0 0.0 
0.0 0.0 0.0 
0.0 0.0 0.0 
0.0 0.0 0.0 
0.0 0.0 0.0 
0.0 0.0 0.0 
0.0 0.0 0.0 
0.0 0.0 0.0 
0.0 0.0 0.0 
0.0 0.0 0.0 
0.0 0.0 0.0 
0.0 0.0 0.0 
0.0 0.0 0.0 
0.0 0.0 0.0 
0.0 0.0 0.0 
0.0 0.0 0.0 
0.0 0.0 0.0 
0.0 0.0 0.0 
0.0 0.0 0.0 
0.0 0.0 0.0 
0.0 0.0 0.0 
0.0 0.0 0.0 
0.0 0.0 0.0 
0.0 0.0 0.0 
0.0 0.0 0.0 
0.0 0.0 0.0 
0.0 0.0 0.0 
0.0 0.0 0.0 
0.0 0.0 0.0 
0.0 0.0 0.0 
0.0 0.0 0.0 
0.0 0.0 0.0 
0.0 0.0 0.0 
0.0 0.0 0.0 
0.0 0.0 0.0 
0.0 0.0 0.0 
0.0 0.0 0.0 
0.0 0.0 0.0 
0.0 0.0 0.0 
0.0 0.0 0.0 
0.0 0.0 0.0 
0.0 0.0 0.0 
0.0 0.0 0.0 
0.0 0.0 0.0 
0.0 0.0 0.0 
0.0 0.0 0.0 
0.0 0.0 0.0 
0.0 0.0 0.0 
0.0 0.0 0.0 
0.0 0.0 0.0 
0.0 0.0 0.0 
0.0 0.0 0.0 
0.0 0.0 0.0 
0.0 0.0 0.0 
0.0 0.0 0.0 
0.0 0.0 0.0 
0.0 0.0 0.0 
0.0 0.0 0.0 
0.0 0.0 0.0 
0.0 0.0 0.0 
0.0 0.0 0.0 
0.0 0.0 0.0 
0.0 0.0 0.0 
0.0 0.0 0.0 
0.0 0.0 0.0 
0.0 0.0 0.0 
0.0 0.0 0.0 
0.0 0.0 0.0 
0.0 0.0 0.0 
0.0 0.0 0.0 
0.0 0.0 0.0 
0.0 0.0 0.0 
0.0 0.0 0.0 
0.0 0.0 0.0 
0.0 0.0 0.0 
0.0 0.0 0.0 
0.0 0.0 0.0 
0.0 0.0 0.0 
0.0 0.0 0.0 
0.0 0.0 0.0 
0.0 0.0 0.0 
0.0 0.0 0.0 
0.0 0.0 0.0 
0.0 0.0 0.0 
0.0 0.0 0.0 
0.0 0.0 0.0 
0.0 0.0 0.0 
0.0 0.0 0.0 
0.0 0.0 0.0 
0.0 0.0 0.0 
0.0 0.0 0.0 
0.0 0.0 0.0 
0.0 0.0 0.0 
0.0 0.0 0.0 
0.0 0.0 0.0 
0.0 0.0 0.0 
0.0 0.0 0.0 
0.0 0.0 0.0 
0.0 0.0 0.0 
0.0 0.0 0.0 
0.0 0.0 0.0 
0.0 0.0 0.0 
0.0 0.0 0.0 
0.0 0.0 0.0 
0.0 0.0 0.0 
0.0 0.0 0.0 
0.0 0.0 0.0 
0.0 0.0 0.0 
0.0 0.0 0.0 
0.0 0.0 0.0 
0.0 0.0 0.0 
0.0 0.0 0.0 
0.0 0.0 0.0 
0.0 0.0 0.0 
0.0 0.0 0.0 
0.0 0.0 0.0 
0.0 0.0 0.0 
0.0 0.0 0.0 
0.0 0.0 0.0 
0.0 0.0 0.0 
0.0 0.0 0.0 
0.0 0.0 0.0 
0.0 0.0 0.0 
0.0 0.0 0.0 
0.0 0.0 0.0 
0.0 0.0 0.0 
0.0 0.0 0.0 
0.0 0.0 0.0 
0.0 0.0 0.0 
0.0 0.0 0.0 
0.0 0.0 0.0 
0.0 0.0 0.0 
0.0 0.0 0.0 
0.0 0.0 0.0 
0.0 0.0 0.0 
0.0 0.0 0.0 
0.0 0.0 0.0 
0.0 0.0 0.0 
0.0 0.0 0.0 
0.0 0.0 0.0 
0.0 0.0 0.0 
0.0 0.0 0.0 
0.0 0.0 0.0 
0.0 0.0 0.0 
0.0 0.0 0.0 
0.0 0.0 0.0 
0.0 0.0 0.0 
0.0 0.0 0.0 
0.0 0.0 0.0 
0.0 0.0 0.0 
0.0 0.0 0.0 
0.0 0.0 0.0 
0.0 0.0 0.0 
0.0 0.0 0.0 
0.0 0.0 0.0 
0.0 0.0 0.0 
0.0 0.0 0.0 
0.0 0.0 0.0 
0.0 0.0 0.0 
0.0 0.0 0.0 
0.0 0.0 0.0 
0.0 0.0 0.0 
0.0 0.0 0.0 
0.0 0.0 0.0 
0.0 0.0 0.0 
0.0 0.0 0.0 
0.0 0.0 0.0 
0.0 0.0 0.0 
0.0 0.0 0.0 
0.0 0.0 0.0 
0.0 0.0 0.0 
0.0 0.0 0.0 
0.0 0.0 0.0 
0.0 0.0 0.0 
0.0 0.0 0.0 
0.0 0.0 0.0 
0.0 0.0 0.0 
0.0 0.0 0.0 
0.0 0.0 0.0 
0.0 0.0 0.0 
0.0 0.0 0.0 
0.0 0.0 0.0 
0.0 0.0 0.0 
0.0 0.0 0.0 
0.0 0.0 0.0 
0.0 0.0 0.0 
0.0 0.0 0.0 
0.0 0.0 0.0 
0.0 0.0 0.0 
0.0 0.0 0.0 
0.0 0.0 0.0 
0.0 0.0 0.0 
0.0 0.0 0.0 
0.0 0.0 0.0 
0.0 0.0 0.0 
0.0 0.0 0.0 
0.0 0.0 0.0 
0.0 0.0 0.0 
0.0 0.0 0.0 
0.0 0.0 0.0 
0.0 0.0 0.0 
0.0 0.0 0.0 
0.0 0.0 0.0 
0.0 0.0 0.0 
0.0 0.0 0.0 
0.0 0.0 0.0 
0.0 0.0 0.0 
0.0 0.0 0.0 
0.0 0.0 0.0 
0.0 0.0 0.0 
0.0 0.0 0.0 
0.0 0.0 0.0 
0.0 0.0 0.0 
0.0 0.0 0.0 
0.0 0.0 0.0 
0.0 0.0 0.0 
0.0 0.0 0.0 
0.0 0.0 0.0 
0.0 0.0 0.0 
0.0 0.0 0.0 
0.0 0.0 0.0 
0.0 0.0 0.0 
0.0 0.0 0.0 
0.0 0.0 0.0 
0.0 0.0 0.0 
0.0 0.0 0.0 
0.0 0.0 0.0 
0.0 0.0 0.0 
0.0 0.0 0.0 
0.0 0.0 0.0 
0.0 0.0 0.0 
0.0 0.0 0.0 
0.0 0.0 0.0 
0.0 0.0 0.0 
0.0 0.0 0.0 
0.0 0.0 0.0 
0.0 0.0 0.0 
0.0 0.0 0.0 
0.0 0.0 0.0 
0.0 0.0 0.0 
0.0 0.0 0.0 
0.0 0.0 0.0 
0.0 0.0 0.0 
0.0 0.0 0.0 
0.0 0.0 0.0 
0.0 0.0 0.0 
0.0 0.0 0.0 
0.0 0.0 0.0 
0.0 0.0 0.0 
0.0 0.0 0.0 
0.0 0.0 0.0 
0.0 0.0 0.0 
0.0 0.0 0.0 
0.0 0.0 0.0 
0.0 0.0 0.0 
0.0 0.0 0.0 
0.0 0.0 0.0 
0.0 0.0 0.0 
0.0 0.0 0.0 
0.0 0.0 0.0 
0.0 0.0 0.0 
0.0 0.0 0.0 
0.0 0.0 0.0 
0.0 0.0 0.0 
0.0 0.0 0.0 
0.0 0.0 0.0 
0.0 0.0 0.0 
0.0 0.0 0.0 
0.0 0.0 0.0 
0.0 0.0 0.0 
0.0 0.0 0.0 
0.0 0.0 0.0 
0.0 0.0 0.0 
0.0 0.0 0.0 
0.0 0.0 0.0 
0.0 0.0 0.0 
0.0 0.0 0.0 
0.0 0.0 0.0 
0.0 0.0 0.0 
0.0 0.0 0.0 
0.0 0.0 0.0 
0.0 0.0 0.0 
0.0 0.0 0.0 
0.0 0.0 0.0 
0.0 0.0 0.0 
0.0 0.0 0.0 
0.0 0.0 0.0 
0.0 0.0 0.0 

VECTORS node_bounda_dof_materi_velocity_y float
0.0 0.0 0.0 
0.0 0.0 0.0 
0.0 1.000000000000e+00 0.0 
0.0 1.000000000000e+00 0.0 
0.0 0.0 0.0 
0.0 0.0 0.0 
0.0 0.0 0.0 
0.0 0.0 0.0 
0.0 0.0 0.0 
0.0 0.0 0.0 
0.0 0.0 0.0 
0.0 0.0 0.0 
0.0 0.0 0.0 
0.0 0.0 0.0 
0.0 0.0 0.0 
0.0 0.0 0.0 
0.0 0.0 0.0 
0.0 0.0 0.0 
0.0 0.0 0.0 
0.0 0.0 0.0 
0.0 0.0 0.0 
0.0 0.0 0.0 
0.0 0.0 0.0 
0.0 1.000000000000e+00 0.0 
0.0 1.000000000000e+00 0.0 
0.0 1.000000000000e+00 0.0 
0.0 1.000000000000e+00 0.0 
0.0 1.000000000000e+00 0.0 
0.0 1.000000000000e+00 0.0 
0.0 1.000000000000e+00 0.0 
0.0 1.000000000000e+00 0.0 
0.0 1.000000000000e+00 0.0 
0.0 1.000000000000e+00 0.0 
0.0 1.000000000000e+00 0.0 
0.0 1.000000000000e+00 0.0 
0.0 1.000000000000e+00 0.0 
0.0 1.000000000000e+00 0.0 
0.0 1.000000000000e+00 0.0 
0.0 1.000000000000e+00 0.0 
0.0 1.000000000000e+00 0.0 
0.0 1.000000000000e+00 0.0 
0.0 1.000000000000e+00 0.0 
0.0 1.000000000000e+00 0.0 
0.0 1.000000000000e+00 0.0 
0.0 1.000000000000e+00 0.0 
0.0 1.000000000000e+00 0.0 
0.0 1.000000000000e+00 0.0 
0.0 1.000000000000e+00 0.0 
0.0 1.000000000000e+00 0.0 
0.0 1.000000000000e+00 0.0 
0.0 1.000000000000e+00 0.0 
0.0 1.000000000000e+00 0.0 
0.0 1.000000000000e+00 0.0 
0.0 1.000000000000e+00 0.0 
0.0 1.000000000000e+00 0.0 
0.0 1.000000000000e+00 0.0 
0.0 1.000000000000e+00 0.0 
0.0 1.000000000000e+00 0.0 
0.0 1.000000000000e+00 0.0 
0.0 1.000000000000e+00 0.0 
0.0 1.000000000000e+00 0.0 
0.0 1.000000000000e+00 0.0 
0.0 1.000000000000e+00 0.0 
0.0 1.000000000000e+00 0.0 
0.0 1.000000000000e+00 0.0 
0.0 1.000000000000e+00 0.0 
0.0 1.000000000000e+00 0.0 
0.0 1.000000000000e+00 0.0 
0.0 1.000000000000e+00 0.0 
0.0 1.000000000000e+00 0.0 
0.0 1.000000000000e+00 0.0 
0.0 1.000000000000e+00 0.0 
0.0 0.0 0.0 
0.0 0.0 0.0 
0.0 0.0 0.0 
0.0 0.0 0.0 
0.0 0.0 0.0 
0.0 0.0 0.0 
0.0 0.0 0.0 
0.0 0.0 0.0 
0.0 0.0 0.0 
0.0 0.0 0.0 
0.0 0.0 0.0 
0.0 0.0 0.0 
0.0 0.0 0.0 
0.0 0.0 0.0 
0.0 0.0 0.0 
0.0 0.0 0.0 
0.0 0.0 0.0 
0.0 0.0 0.0 
0.0 0.0 0.0 
0.0 0.0 0.0 
0.0 0.0 0.0 
0.0 0.0 0.0 
0.0 0.0 0.0 
0.0 0.0 0.0 
0.0 0.0 0.0 
0.0 0.0 0.0 
0.0 0.0 0.0 
0.0 0.0 0.0 
0.0 0.0 0.0 
0.0 0.0 0.0 
0.0 0.0 0.0 
0.0 0.0 0.0 
0.0 0.0 0.0 
0.0 0.0 0.0 
0.0 0.0 0.0 
0.0 0.0 0.0 
0.0 0.0 0.0 
0.0 0.0 0.0 
0.0 0.0 0.0 
0.0 0.0 0.0 
0.0 0.0 0.0 
0.0 0.0 0.0 
0.0 0.0 0.0 
0.0 0.0 0.0 
0.0 0.0 0.0 
0.0 0.0 0.0 
0.0 0.0 0.0 
0.0 0.0 0.0 
0.0 0.0 0.0 
0.0 0.0 0.0 
0.0 0.0 0.0 
0.0 0.0 0.0 
0.0 0.0 0.0 
0.0 0.0 0.0 
0.0 0.0 0.0 
0.0 0.0 0.0 
0.0 0.0 0.0 
0.0 0.0 0.0 
0.0 0.0 0.0 
0.0 0.0 0.0 
0.0 0.0 0.0 
0.0 0.0 0.0 
0.0 0.0 0.0 
0.0 0.0 0.0 
0.0 0.0 0.0 
0.0 0.0 0.0 
0.0 0.0 0.0 
0.0 0.0 0.0 
0.0 0.0 0.0 
0.0 0.0 0.0 
0.0 0.0 0.0 
0.0 0.0 0.0 
0.0 0.0 0.0 
0.0 0.0 0.0 
0.0 0.0 0.0 
0.0 0.0 0.0 
0.0 0.0 0.0 
0.0 0.0 0.0 
0.0 0.0 0.0 
0.0 0.0 0.0 
0.0 0.0 0.0 
0.0 0.0 0.0 
0.0 0.0 0.0 
0.0 0.0 0.0 
0.0 0.0 0.0 
0.0 0.0 0.0 
0.0 0.0 0.0 
0.0 0.0 0.0 
0.0 0.0 0.0 
0.0 0.0 0.0 
0.0 0.0 0.0 
0.0 0.0 0.0 
0.0 0.0 0.0 
0.0 0.0 0.0 
0.0 0.0 0.0 
0.0 0.0 0.0 
0.0 0.0 0.0 
0.0 0.0 0.0 
0.0 0.0 0.0 
0.0 0.0 0.0 
0.0 0.0 0.0 
0.0 0.0 0.0 
0.0 0.0 0.0 
0.0 0.0 0.0 
0.0 0.0 0.0 
0.0 0.0 0.0 
0.0 0.0 0.0 
0.0 0.0 0.0 
0.0 0.0 0.0 
0.0 0.0 0.0 
0.0 0.0 0.0 
0.0 0.0 0.0 
0.0 0.0 0.0 
0.0 0.0 0.0 
0.0 0.0 0.0 
0.0 0.0 0.0 
0.0 0.0 0.0 
0.0 0.0 0.0 
0.0 0.0 0.0 
0.0 0.0 0.0 
0.0 0.0 0.0 
0.0 0.0 0.0 
0.0 0.0 0.0 
0.0 0.0 0.0 
0.0 0.0 0.0 
0.0 0.0 0.0 
0.0 0.0 0.0 
0.0 0.0 0.0 
0.0 0.0 0.0 
0.0 0.0 0.0 
0.0 0.0 0.0 
0.0 0.0 0.0 
0.0 0.0 0.0 
0.0 0.0 0.0 
0.0 0.0 0.0 
0.0 0.0 0.0 
0.0 0.0 0.0 
0.0 0.0 0.0 
0.0 0.0 0.0 
0.0 0.0 0.0 
0.0 0.0 0.0 
0.0 0.0 0.0 
0.0 0.0 0.0 
0.0 0.0 0.0 
0.0 0.0 0.0 
0.0 0.0 0.0 
0.0 0.0 0.0 
0.0 0.0 0.0 
0.0 0.0 0.0 
0.0 0.0 0.0 
0.0 0.0 0.0 
0.0 0.0 0.0 
0.0 0.0 0.0 
0.0 0.0 0.0 
0.0 0.0 0.0 
0.0 0.0 0.0 
0.0 0.0 0.0 
0.0 0.0 0.0 
0.0 0.0 0.0 
0.0 0.0 0.0 
0.0 0.0 0.0 
0.0 0.0 0.0 
0.0 0.0 0.0 
0.0 0.0 0.0 
0.0 0.0 0.0 
0.0 0.0 0.0 
0.0 0.0 0.0 
0.0 0.0 0.0 
0.0 0.0 0.0 
0.0 0.0 0.0 
0.0 0.0 0.0 
0.0 0.0 0.0 
0.0 0.0 0.0 
0.0 0.0 0.0 
0.0 0.0 0.0 
0.0 0.0 0.0 
0.0 0.0 0.0 
0.0 0.0 0.0 
0.0 0.0 0.0 
0.0 0.0 0.0 
0.0 0.0 0.0 
0.0 0.0 0.0 
0.0 0.0 0.0 
0.0 0.0 0.0 
0.0 0.0 0.0 
0.0 0.0 0.0 
0.0 0.0 0.0 
0.0 0.0 0.0 
0.0 0.0 0.0 
0.0 0.0 0.0 
0.0 0.0 0.0 
0.0 0.0 0.0 
0.0 0.0 0.0 
0.0 0.0 0.0 
0.0 0.0 0.0 
0.0 0.0 0.0 
0.0 0.0 0.0 
0.0 0.0 0.0 
0.0 0.0 0.0 
0.0 0.0 0.0 
0.0 0.0 0.0 
0.0 0.0 0.0 
0.0 0.0 0.0 
0.0 0.0 0.0 
0.0 0.0 0.0 
0.0 0.0 0.0 
0.0 0.0 0.0 
0.0 0.0 0.0 
0.0 0.0 0.0 
0.0 0.0 0.0 
0.0 0.0 0.0 
0.0 0.0 0.0 
0.0 0.0 0.0 
0.0 0.0 0.0 
0.0 0.0 0.0 
0.0 0.0 0.0 
0.0 0.0 0.0 
0.0 0.0 0.0 
0.0 0.0 0.0 
0.0 0.0 0.0 
0.0 0.0 0.0 
0.0 0.0 0.0 
0.0 0.0 0.0 
0.0 0.0 0.0 
0.0 0.0 0.0 
0.0 0.0 0.0 
0.0 0.0 0.0 
0.0 0.0 0.0 
0.0 0.0 0.0 
0.0 0.0 0.0 
0.0 0.0 0.0 
0.0 0.0 0.0 
0.0 0.0 0.0 
0.0 0.0 0.0 
0.0 0.0 0.0 
0.0 0.0 0.0 
0.0 0.0 0.0 
0.0 0.0 0.0 
0.0 0.0 0.0 
0.0 0.0 0.0 
0.0 0.0 0.0 
0.0 0.0 0.0 
0.0 0.0 0.0 
0.0 0.0 0.0 
0.0 0.0 0.0 
0.0 0.0 0.0 
0.0 0.0 0.0 
0.0 0.0 0.0 
0.0 0.0 0.0 
0.0 0.0 0.0 
0.0 0.0 0.0 
0.0 0.0 0.0 
0.0 0.0 0.0 
0.0 0.0 0.0 
0.0 0.0 0.0 
0.0 0.0 0.0 
0.0 0.0 0.0 
0.0 0.0 0.0 
0.0 0.0 0.0 
0.0 0.0 0.0 
0.0 0.0 0.0 
0.0 0.0 0.0 
0.0 0.0 0.0 
0.0 0.0 0.0 
0.0 0.0 0.0 
0.0 0.0 0.0 
0.0 0.0 0.0 
0.0 0.0 0.0 
0.0 0.0 0.0 
0.0 0.0 0.0 
0.0 0.0 0.0 
0.0 0.0 0.0 
0.0 0.0 0.0 
0.0 0.0 0.0 
0.0 0.0 0.0 
0.0 0.0 0.0 
0.0 0.0 0.0 
0.0 0.0 0.0 
0.0 0.0 0.0 
0.0 0.0 0.0 
0.0 0.0 0.0 
0.0 0.0 0.0 
0.0 0.0 0.0 
0.0 0.0 0.0 
0.0 0.0 0.0 
0.0 0.0 0.0 
0.0 0.0 0.0 
0.0 0.0 0.0 
0.0 0.0 0.0 
0.0 0.0 0.0 
0.0 0.0 0.0 
0.0 0.0 0.0 
0.0 0.0 0.0 
0.0 0.0 0.0 
0.0 0.0 0.0 
0.0 0.0 0.0 
0.0 0.0 0.0 
0.0 0.0 0.0 
0.0 0.0 0.0 
0.0 0.0 0.0 
0.0 0.0 0.0 
0.0 0.0 0.0 
0.0 0.0 0.0 
0.0 0.0 0.0 
0.0 0.0 0.0 
0.0 0.0 0.0 
0.0 0.0 0.0 
0.0 0.0 0.0 
0.0 0.0 0.0 
0.0 0.0 0.0 
0.0 0.0 0.0 
0.0 0.0 0.0 
0.0 0.0 0.0 
0.0 0.0 0.0 
0.0 0.0 0.0 
0.0 0.0 0.0 
0.0 0.0 0.0 
0.0 0.0 0.0 
0.0 0.0 0.0 
0.0 0.0 0.0 
0.0 0.0 0.0 
0.0 0.0 0.0 
0.0 0.0 0.0 
0.0 0.0 0.0 
0.0 0.0 0.0 
0.0 0.0 0.0 
0.0 0.0 0.0 
0.0 0.0 0.0 
0.0 0.0 0.0 
0.0 0.0 0.0 
0.0 0.0 0.0 
0.0 0.0 0.0 
0.0 0.0 0.0 
0.0 0.0 0.0 
0.0 0.0 0.0 
0.0 0.0 0.0 
0.0 0.0 0.0 
0.0 0.0 0.0 
0.0 0.0 0.0 
0.0 0.0 0.0 
0.0 0.0 0.0 
0.0 0.0 0.0 
0.0 0.0 0.0 
0.0 0.0 0.0 
0.0 0.0 0.0 
0.0 0.0 0.0 
0.0 0.0 0.0 
0.0 0.0 0.0 
0.0 0.0 0.0 
0.0 0.0 0.0 
0.0 0.0 0.0 
0.0 0.0 0.0 
0.0 0.0 0.0 
0.0 0.0 0.0 
0.0 0.0 0.0 
0.0 0.0 0.0 
0.0 0.0 0.0 
0.0 0.0 0.0 
0.0 0.0 0.0 
0.0 0.0 0.0 
0.0 0.0 0.0 
0.0 0.0 0.0 
0.0 0.0 0.0 
0.0 0.0 0.0 
0.0 0.0 0.0 
0.0 0.0 0.0 
0.0 0.0 0.0 
0.0 0.0 0.0 
0.0 0.0 0.0 
0.0 0.0 0.0 
0.0 0.0 0.0 
0.0 0.0 0.0 
0.0 0.0 0.0 
0.0 0.0 0.0 
0.0 0.0 0.0 
0.0 0.0 0.0 
0.0 0.0 0.0 
0.0 0.0 0.0 
0.0 0.0 0.0 
0.0 0.0 0.0 
0.0 0.0 0.0 
0.0 0.0 0.0 
0.0 0.0 0.0 
0.0 0.0 0.0 
0.0 0.0 0.0 
0.0 0.0 0.0 
0.0 0.0 0.0 
0.0 0.0 0.0 
0.0 0.0 0.0 
0.0 0.0 0.0 
0.0 0.0 0.0 
0.0 0.0 0.0 
0.0 0.0 0.0 
0.0 0.0 0.0 
0.0 0.0 0.0 
0.0 0.0 0.0 
0.0 0.0 0.0 
0.0 0.0 0.0 
0.0 0.0 0.0 
0.0 0.0 0.0 
0.0 0.0 0.0 
0.0 0.0 0.0 
0.0 0.0 0.0 
0.0 0.0 0.0 
0.0 0.0 0.0 
0.0 0.0 0.0 
0.0 0.0 0.0 
0.0 0.0 0.0 
0.0 0.0 0.0 
0.0 0.0 0.0 
0.0 0.0 0.0 
0.0 0.0 0.0 
0.0 0.0 0.0 
0.0 0.0 0.0 
0.0 0.0 0.0 
0.0 0.0 0.0 
0.0 0.0 0.0 
0.0 0.0 0.0 
0.0 0.0 0.0 
0.0 0.0 0.0 
0.0 0.0 0.0 
0.0 0.0 0.0 
0.0 0.0 0.0 
0.0 0.0 0.0 
0.0 0.0 0.0 
0.0 0.0 0.0 
0.0 0.0 0.0 
0.0 0.0 0.0 
0.0 0.0 0.0 
0.0 0.0 0.0 
0.0 0.0 0.0 
0.0 0.0 0.0 
0.0 0.0 0.0 
0.0 0.0 0.0 
0.0 0.0 0.0 
0.0 0.0 0.0 
0.0 0.0 0.0 
0.0 0.0 0.0 
0.0 0.0 0.0 
0.0 0.0 0.0 
0.0 0.0 0.0 
0.0 0.0 0.0 
0.0 0.0 0.0 
0.0 0.0 0.0 
0.0 0.0 0.0 
0.0 0.0 0.0 
0.0 0.0 0.0 
0.0 0.0 0.0 
0.0 0.0 0.0 
0.0 0.0 0.0 
0.0 0.0 0.0 
0.0 0.0 0.0 
0.0 0.0 0.0 
0.0 0.0 0.0 
0.0 0.0 0.0 
0.0 0.0 0.0 
0.0 0.0 0.0 
0.0 0.0 0.0 
0.0 0.0 0.0 
0.0 0.0 0.0 
0.0 0.0 0.0 
0.0 0.0 0.0 
0.0 0.0 0.0 
0.0 0.0 0.0 
0.0 0.0 0.0 
0.0 0.0 0.0 
0.0 0.0 0.0 
0.0 0.0 0.0 
0.0 0.0 0.0 
0.0 0.0 0.0 
0.0 0.0 0.0 
0.0 0.0 0.0 
0.0 0.0 0.0 
0.0 0.0 0.0 
0.0 0.0 0.0 
0.0 0.0 0.0 
0.0 0.0 0.0 
0.0 0.0 0.0 
0.0 0.0 0.0 
0.0 0.0 0.0 
0.0 0.0 0.0 
0.0 0.0 0.0 
0.0 0.0 0.0 
0.0 0.0 0.0 
0.0 0.0 0.0 
0.0 0.0 0.0 
0.0 0.0 0.0 
0.0 0.0 0.0 
0.0 0.0 0.0 
0.0 0.0 0.0 
0.0 0.0 0.0 
0.0 0.0 0.0 
0.0 0.0 0.0 
0.0 0.0 0.0 
0.0 0.0 0.0 
0.0 0.0 0.0 
0.0 0.0 0.0 
0.0 0.0 0.0 
0.0 0.0 0.0 
0.0 0.0 0.0 
0.0 0.0 0.0 
0.0 0.0 0.0 
0.0 0.0 0.0 
0.0 0.0 0.0 
0.0 0.0 0.0 
0.0 0.0 0.0 
0.0 0.0 0.0 
0.0 0.0 0.0 
0.0 0.0 0.0 
0.0 0.0 0.0 
0.0 0.0 0.0 
0.0 0.0 0.0 
0.0 0.0 0.0 
0.0 0.0 0.0 
0.0 0.0 0.0 
0.0 0.0 0.0 
0.0 0.0 0.0 
0.0 0.0 0.0 
0.0 0.0 0.0 
0.0 0.0 0.0 
0.0 0.0 0.0 
0.0 0.0 0.0 
0.0 0.0 0.0 
0.0 0.0 0.0 
0.0 0.0 0.0 
0.0 0.0 0.0 
0.0 0.0 0.0 
0.0 0.0 0.0 
0.0 0.0 0.0 
0.0 0.0 0.0 
0.0 0.0 0.0 
0.0 0.0 0.0 
0.0 0.0 0.0 
0.0 0.0 0.0 
0.0 0.0 0.0 
0.0 0.0 0.0 
0.0 0.0 0.0 
0.0 0.0 0.0 
0.0 0.0 0.0 
0.0 0.0 0.0 
0.0 0.0 0.0 
0.0 0.0 0.0 
0.0 0.0 0.0 
0.0 0.0 0.0 
0.0 0.0 0.0 
0.0 0.0 0.0 
0.0 0.0 0.0 
0.0 0.0 0.0 
0.0 0.0 0.0 
0.0 0.0 0.0 
0.0 0.0 0.0 
0.0 0.0 0.0 
0.0 0.0 0.0 
0.0 0.0 0.0 
0.0 0.0 0.0 
0.0 0.0 0.0 
0.0 0.0 0.0 
0.0 0.0 0.0 
0.0 0.0 0.0 
0.0 0.0 0.0 
0.0 0.0 0.0 
0.0 0.0 0.0 
0.0 0.0 0.0 
0.0 0.0 0.0 
0.0 0.0 0.0 
0.0 0.0 0.0 
0.0 0.0 0.0 
0.0 0.0 0.0 
0.0 0.0 0.0 
0.0 0.0 0.0 
0.0 0.0 0.0 
0.0 0.0 0.0 
0.0 0.0 0.0 
0.0 0.0 0.0 
0.0 0.0 0.0 
0.0 0.0 0.0 
0.0 0.0 0.0 
0.0 0.0 0.0 
0.0 0.0 0.0 
0.0 0.0 0.0 
0.0 0.0 0.0 
0.0 0.0 0.0 
0.0 0.0 0.0 
0.0 0.0 0.0 
0.0 0.0 0.0 
0.0 0.0 0.0 
0.0 0.0 0.0 
0.0 0.0 0.0 
0.0 0.0 0.0 
0.0 0.0 0.0 
0.0 0.0 0.0 
0.0 0.0 0.0 
0.0 0.0 0.0 
0.0 0.0 0.0 
0.0 0.0 0.0 
0.0 0.0 0.0 
0.0 0.0 0.0 
0.0 0.0 0.0 
0.0 0.0 0.0 
0.0 0.0 0.0 
0.0 0.0 0.0 
0.0 0.0 0.0 
0.0 0.0 0.0 
0.0 0.0 0.0 
0.0 0.0 0.0 
0.0 0.0 0.0 
0.0 0.0 0.0 
0.0 0.0 0.0 
0.0 0.0 0.0 
0.0 0.0 0.0 
0.0 0.0 0.0 
0.0 0.0 0.0 
0.0 0.0 0.0 
0.0 0.0 0.0 
0.0 0.0 0.0 
0.0 0.0 0.0 
0.0 0.0 0.0 
0.0 0.0 0.0 
0.0 0.0 0.0 
0.0 0.0 0.0 
0.0 0.0 0.0 
0.0 0.0 0.0 
0.0 0.0 0.0 
0.0 0.0 0.0 
0.0 0.0 0.0 
0.0 0.0 0.0 
0.0 0.0 0.0 
0.0 0.0 0.0 
0.0 0.0 0.0 
0.0 0.0 0.0 
0.0 0.0 0.0 
0.0 0.0 0.0 
0.0 0.0 0.0 
0.0 0.0 0.0 
0.0 0.0 0.0 
0.0 0.0 0.0 
0.0 0.0 0.0 
0.0 0.0 0.0 
0.0 0.0 0.0 
0.0 0.0 0.0 
0.0 0.0 0.0 
0.0 0.0 0.0 
0.0 0.0 0.0 
0.0 0.0 0.0 
0.0 0.0 0.0 
0.0 0.0 0.0 
0.0 0.0 0.0 
0.0 0.0 0.0 
0.0 0.0 0.0 
0.0 0.0 0.0 
0.0 0.0 0.0 
0.0 0.0 0.0 
0.0 0.0 0.0 
0.0 0.0 0.0 
0.0 0.0 0.0 
0.0 0.0 0.0 
0.0 0.0 0.0 
0.0 0.0 0.0 
0.0 0.0 0.0 
0.0 0.0 0.0 
0.0 0.0 0.0 
0.0 0.0 0.0 
0.0 0.0 0.0 
0.0 0.0 0.0 
0.0 0.0 0.0 
0.0 0.0 0.0 
0.0 0.0 0.0 
0.0 0.0 0.0 
0.0 0.0 0.0 
0.0 0.0 0.0 
0.0 0.0 0.0 
0.0 0.0 0.0 
0.0 0.0 0.0 
0.0 0.0 0.0 
0.0 0.0 0.0 
0.0 0.0 0.0 
0.0 0.0 0.0 
0.0 0.0 0.0 
0.0 0.0 0.0 
0.0 0.0 0.0 
0.0 0.0 0.0 
0.0 0.0 0.0 
0.0 0.0 0.0 
0.0 0.0 0.0 
0.0 0.0 0.0 
0.0 0.0 0.0 
0.0 0.0 0.0 
0.0 0.0 0.0 
0.0 0.0 0.0 
0.0 0.0 0.0 
0.0 0.0 0.0 
0.0 0.0 0.0 
0.0 0.0 0.0 
0.0 0.0 0.0 
0.0 0.0 0.0 
0.0 0.0 0.0 
0.0 0.0 0.0 
0.0 0.0 0.0 
0.0 0.0 0.0 
0.0 0.0 0.0 
0.0 0.0 0.0 
0.0 0.0 0.0 
0.0 0.0 0.0 
0.0 0.0 0.0 
0.0 0.0 0.0 
0.0 0.0 0.0 
0.0 0.0 0.0 
0.0 0.0 0.0 
0.0 0.0 0.0 
0.0 0.0 0.0 
0.0 0.0 0.0 
0.0 0.0 0.0 
0.0 0.0 0.0 
0.0 0.0 0.0 
0.0 0.0 0.0 
0.0 0.0 0.0 
0.0 0.0 0.0 
0.0 0.0 0.0 
0.0 0.0 0.0 
0.0 0.0 0.0 
0.0 0.0 0.0 
0.0 0.0 0.0 
0.0 0.0 0.0 
0.0 0.0 0.0 
0.0 0.0 0.0 
0.0 0.0 0.0 
0.0 0.0 0.0 
0.0 0.0 0.0 
0.0 0.0 0.0 
0.0 0.0 0.0 
0.0 0.0 0.0 
0.0 0.0 0.0 
0.0 0.0 0.0 
0.0 0.0 0.0 
0.0 0.0 0.0 
0.0 0.0 0.0 
0.0 0.0 0.0 
0.0 0.0 0.0 
0.0 0.0 0.0 
0.0 0.0 0.0 
0.0 0.0 0.0 
0.0 0.0 0.0 
0.0 0.0 0.0 
0.0 0.0 0.0 
0.0 0.0 0.0 
0.0 0.0 0.0 
0.0 0.0 0.0 
0.0 0.0 0.0 
0.0 0.0 0.0 
0.0 0.0 0.0 
0.0 0.0 0.0 
0.0 0.0 0.0 
0.0 0.0 0.0 
0.0 0.0 0.0 
0.0 0.0 0.0 
0.0 0.0 0.0 
0.0 0.0 0.0 
0.0 0.0 0.0 
0.0 0.0 0.0 
0.0 0.0 0.0 
0.0 0.0 0.0 
0.0 0.0 0.0 
0.0 0.0 0.0 
0.0 0.0 0.0 
0.0 0.0 0.0 
0.0 0.0 0.0 
0.0 0.0 0.0 
0.0 0.0 0.0 
0.0 0.0 0.0 
0.0 0.0 0.0 
0.0 0.0 0.0 
0.0 0.0 0.0 
0.0 0.0 0.0 
0.0 0.0 0.0 
0.0 0.0 0.0 
0.0 0.0 0.0 
0.0 0.0 0.0 
0.0 0.0 0.0 
0.0 0.0 0.0 
0.0 0.0 0.0 
0.0 0.0 0.0 
0.0 0.0 0.0 
0.0 0.0 0.0 
0.0 0.0 0.0 
0.0 0.0 0.0 
0.0 0.0 0.0 
0.0 0.0 0.0 
0.0 0.0 0.0 
0.0 0.0 0.0 
0.0 0.0 0.0 
0.0 0.0 0.0 
0.0 0.0 0.0 
0.0 0.0 0.0 
0.0 0.0 0.0 
0.0 0.0 0.0 
0.0 0.0 0.0 
0.0 0.0 0.0 
0.0 0.0 0.0 
0.0 0.0 0.0 
0.0 0.0 0.0 
0.0 0.0 0.0 
0.0 0.0 0.0 
0.0 0.0 0.0 
0.0 0.0 0.0 
0.0 0.0 0.0 
0.0 0.0 0.0 
0.0 0.0 0.0 
0.0 0.0 0.0 
0.0 0.0 0.0 
0.0 0.0 0.0 
0.0 0.0 0.0 
0.0 0.0 0.0 
0.0 0.0 0.0 
0.0 0.0 0.0 
0.0 0.0 0.0 
0.0 0.0 0.0 
0.0 0.0 0.0 
0.0 0.0 0.0 
0.0 0.0 0.0 
0.0 0.0 0.0 
0.0 0.0 0.0 
0.0 0.0 0.0 
0.0 0.0 0.0 
0.0 0.0 0.0 
0.0 0.0 0.0 
0.0 0.0 0.0 
0.0 0.0 0.0 
0.0 0.0 0.0 
0.0 0.0 0.0 
0.0 0.0 0.0 
0.0 0.0 0.0 
0.0 0.0 0.0 
0.0 0.0 0.0 
0.0 0.0 0.0 
0.0 0.0 0.0 
0.0 0.0 0.0 
0.0 0.0 0.0 
0.0 0.0 0.0 
0.0 0.0 0.0 
0.0 0.0 0.0 
0.0 0.0 0.0 
0.0 0.0 0.0 
0.0 0.0 0.0 
0.0 0.0 0.0 
0.0 0.0 0.0 
0.0 0.0 0.0 
0.0 0.0 0.0 
0.0 0.0 0.0 
0.0 0.0 0.0 
0.0 0.0 0.0 
0.0 0.0 0.0 
0.0 0.0 0.0 
0.0 0.0 0.0 
0.0 0.0 0.0 
0.0 0.0 0.0 
0.0 0.0 0.0 
0.0 0.0 0.0 
0.0 0.0 0.0 
0.0 0.0 0.0 
0.0 0.0 0.0 
0.0 0.0 0.0 
0.0 0.0 0.0 
0.0 0.0 0.0 
0.0 0.0 0.0 
0.0 0.0 0.0 
0.0 0.0 0.0 
0.0 0.0 0.0 
0.0 0.0 0.0 
0.0 0.0 0.0 
0.0 0.0 0.0 
0.0 0.0 0.0 
0.0 0.0 0.0 
0.0 0.0 0.0 
0.0 0.0 0.0 
0.0 0.0 0.0 
0.0 0.0 0.0 
0.0 0.0 0.0 
0.0 0.0 0.0 
0.0 0.0 0.0 
0.0 0.0 0.0 
0.0 0.0 0.0 
0.0 0.0 0.0 
0.0 0.0 0.0 
0.0 0.0 0.0 
0.0 0.0 0.0 
0.0 0.0 0.0 
0.0 0.0 0.0 
0.0 0.0 0.0 
0.0 0.0 0.0 
0.0 0.0 0.0 
0.0 0.0 0.0 
0.0 0.0 0.0 
0.0 0.0 0.0 
0.0 0.0 0.0 
0.0 0.0 0.0 
0.0 0.0 0.0 
0.0 0.0 0.0 
0.0 0.0 0.0 
0.0 0.0 0.0 
0.0 0.0 0.0 
0.0 0.0 0.0 
0.0 0.0 0.0 
0.0 0.0 0.0 
0.0 0.0 0.0 
0.0 0.0 0.0 
0.0 0.0 0.0 
0.0 0.0 0.0 
0.0 0.0 0.0 
0.0 0.0 0.0 
0.0 0.0 0.0 
0.0 0.0 0.0 
0.0 0.0 0.0 
0.0 0.0 0.0 
0.0 0.0 0.0 
0.0 0.0 0.0 
0.0 0.0 0.0 
0.0 0.0 0.0 
0.0 0.0 0.0 
0.0 0.0 0.0 
0.0 0.0 0.0 
0.0 0.0 0.0 
0.0 0.0 0.0 
0.0 0.0 0.0 
0.0 0.0 0.0 
0.0 0.0 0.0 
0.0 0.0 0.0 
0.0 0.0 0.0 
0.0 0.0 0.0 
0.0 0.0 0.0 
0.0 0.0 0.0 
0.0 0.0 0.0 
0.0 0.0 0.0 
0.0 0.0 0.0 
0.0 0.0 0.0 
0.0 0.0 0.0 
0.0 0.0 0.0 
0.0 0.0 0.0 
0.0 0.0 0.0 
0.0 0.0 0.0 
0.0 0.0 0.0 
0.0 0.0 0.0 
0.0 0.0 0.0 
0.0 0.0 0.0 
0.0 0.0 0.0 
0.0 0.0 0.0 
0.0 0.0 0.0 
0.0 0.0 0.0 
0.0 0.0 0.0 
0.0 0.0 0.0 
0.0 0.0 0.0 
0.0 0.0 0.0 
0.0 0.0 0.0 
0.0 0.0 0.0 
0.0 0.0 0.0 
0.0 0.0 0.0 
0.0 0.0 0.0 
0.0 0.0 0.0 
0.0 0.0 0.0 
0.0 0.0 0.0 
0.0 0.0 0.0 
0.0 0.0 0.0 
0.0 0.0 0.0 
0.0 0.0 0.0 
0.0 0.0 0.0 
0.0 0.0 0.0 
0.0 0.0 0.0 
0.0 0.0 0.0 
0.0 0.0 0.0 
0.0 0.0 0.0 
0.0 0.0 0.0 
0.0 0.0 0.0 
0.0 0.0 0.0 
0.0 0.0 0.0 
0.0 0.0 0.0 
0.0 0.0 0.0 
0.0 0.0 0.0 
0.0 0.0 0.0 
0.0 0.0 0.0 
0.0 0.0 0.0 
0.0 0.0 0.0 
0.0 0.0 0.0 
0.0 0.0 0.0 
0.0 0.0 0.0 
0.0 0.0 0.0 
0.0 0.0 0.0 
0.0 0.0 0.0 
0.0 0.0 0.0 
0.0 0.0 0.0 
0.0 0.0 0.0 
0.0 0.0 0.0 
0.0 0.0 0.0 
0.0 0.0 0.0 
0.0 0.0 0.0 
0.0 0.0 0.0 
0.0 0.0 0.0 

SCALARS node_boundary float
LOOKUP_TABLE default
1.000000000000e+00 
1.000000000000e+00 
1.000000000000e+00 
1.000000000000e+00 
1.000000000000e+00 
1.000000000000e+00 
1.000000000000e+00 
1.000000000000e+00 
1.000000000000e+00 
1.000000000000e+00 
1.000000000000e+00 
1.000000000000e+00 
1.000000000000e+00 
1.000000000000e+00 
1.000000000000e+00 
1.000000000000e+00 
1.000000000000e+00 
1.000000000000e+00 
1.000000000000e+00 
1.000000000000e+00 
1.000000000000e+00 
1.000000000000e+00 
1.000000000000e+00 
1.000000000000e+00 
1.000000000000e+00 
1.000000000000e+00 
1.000000000000e+00 
1.000000000000e+00 
1.000000000000e+00 
1.000000000000e+00 
1.000000000000e+00 
1.000000000000e+00 
1.000000000000e+00 
1.000000000000e+00 
1.000000000000e+00 
1.000000000000e+00 
1.000000000000e+00 
1.000000000000e+00 
1.000000000000e+00 
1.000000000000e+00 
1.000000000000e+00 
1.000000000000e+00 
1.000000000000e+00 
1.000000000000e+00 
1.000000000000e+00 
1.000000000000e+00 
1.000000000000e+00 
1.000000000000e+00 
1.000000000000e+00 
1.000000000000e+00 
1.000000000000e+00 
1.000000000000e+00 
1.000000000000e+00 
1.000000000000e+00 
1.000000000000e+00 
1.000000000000e+00 
1.000000000000e+00 
1.000000000000e+00 
1.000000000000e+00 
1.000000000000e+00 
1.000000000000e+00 
1.000000000000e+00 
1.000000000000e+00 
1.000000000000e+00 
1.000000000000e+00 
1.000000000000e+00 
1.000000000000e+00 
1.000000000000e+00 
1.000000000000e+00 
1.000000000000e+00 
1.000000000000e+00 
1.000000000000e+00 
1.000000000000e+00 
1.000000000000e+00 
1.000000000000e+00 
1.000000000000e+00 
1.000000000000e+00 
1.000000000000e+00 
1.000000000000e+00 
1.000000000000e+00 
1.000000000000e+00 
1.000000000000e+00 
0.0
1.000000000000e+00 
1.000000000000e+00 
1.000000000000e+00 
1.000000000000e+00 
1.000000000000e+00 
1.000000000000e+00 
1.000000000000e+00 
1.000000000000e+00 
0.0
1.000000000000e+00 
1.000000000000e+00 
0.0
0.0
0.0
0.0
0.0
0.0
0.0
0.0
0.0
0.0
0.0
0.0
0.0
0.0
1.000000000000e+00 
1.000000000000e+00 
1.000000000000e+00 
1.000000000000e+00 
1.000000000000e+00 
1.000000000000e+00 
1.000000000000e+00 
1.000000000000e+00 
1.000000000000e+00 
1.000000000000e+00 
1.000000000000e+00 
1.000000000000e+00 
1.000000000000e+00 
1.000000000000e+00 
1.000000000000e+00 
1.000000000000e+00 
1.000000000000e+00 
1.000000000000e+00 
1.000000000000e+00 
1.000000000000e+00 
1.000000000000e+00 
1.000000000000e+00 
1.000000000000e+00 
1.000000000000e+00 
1.000000000000e+00 
1.000000000000e+00 
1.000000000000e+00 
1.000000000000e+00 
1.000000000000e+00 
1.000000000000e+00 
1.000000000000e+00 
1.000000000000e+00 
1.000000000000e+00 
1.000000000000e+00 
1.000000000000e+00 
1.000000000000e+00 
0.0
0.0
0.0
0.0
0.0
0.0
0.0
0.0
0.0
0.0
0.0
0.0
0.0
0.0
0.0
0.0
1.000000000000e+00 
1.000000000000e+00 
1.000000000000e+00 
1.000000000000e+00 
1.000000000000e+00 
1.000000000000e+00 
1.000000000000e+00 
1.000000000000e+00 
0.0
0.0
0.0
0.0
0.0
0.0
0.0
0.0
0.0
0.0
0.0
0.0
0.0
0.0
0.0
0.0
0.0
0.0
0.0
0.0
0.0
0.0
0.0
0.0
0.0
0.0
0.0
0.0
0.0
0.0
0.0
0.0
0.0
0.0
0.0
0.0
0.0
0.0
0.0
0.0
0.0
0.0
0.0
0.0
0.0
0.0
0.0
0.0
0.0
0.0
0.0
0.0
0.0
0.0
0.0
0.0
0.0
0.0
0.0
0.0
0.0
0.0
0.0
0.0
0.0
0.0
0.0
0.0
0.0
0.0
0.0
0.0
0.0
0.0
0.0
0.0
0.0
0.0
0.0
0.0
0.0
0.0
0.0
0.0
0.0
0.0
0.0
0.0
0.0
0.0
0.0
0.0
0.0
0.0
0.0
0.0
0.0
0.0
0.0
0.0
0.0
0.0
0.0
0.0
0.0
0.0
0.0
0.0
0.0
0.0
0.0
0.0
0.0
0.0
0.0
0.0
0.0
0.0
0.0
0.0
0.0
0.0
0.0
0.0
0.0
0.0
0.0
0.0
0.0
0.0
0.0
0.0
0.0
0.0
0.0
0.0
0.0
0.0
0.0
0.0
0.0
0.0
0.0
0.0
0.0
0.0
0.0
0.0
0.0
0.0
0.0
0.0
0.0
0.0
0.0
0.0
0.0
0.0
0.0
0.0
0.0
0.0
0.0
0.0
0.0
0.0
0.0
0.0
0.0
0.0
0.0
0.0
0.0
0.0
0.0
0.0
0.0
0.0
0.0
0.0
0.0
0.0
0.0
0.0
0.0
0.0
0.0
0.0
0.0
0.0
0.0
0.0
0.0
0.0
0.0
0.0
0.0
0.0
0.0
0.0
0.0
0.0
0.0
0.0
0.0
0.0
0.0
0.0
0.0
0.0
0.0
0.0
0.0
0.0
0.0
0.0
0.0
0.0
0.0
0.0
0.0
0.0
0.0
0.0
0.0
0.0
0.0
0.0
0.0
0.0
0.0
0.0
0.0
0.0
0.0
0.0
0.0
0.0
0.0
0.0
0.0
0.0
0.0
0.0
0.0
0.0
0.0
0.0
0.0
0.0
0.0
0.0
0.0
0.0
0.0
0.0
0.0
0.0
0.0
0.0
0.0
0.0
0.0
0.0
0.0
0.0
0.0
0.0
0.0
0.0
0.0
0.0
0.0
0.0
0.0
0.0
0.0
0.0
0.0
0.0
0.0
0.0
0.0
0.0
0.0
0.0
0.0
0.0
0.0
0.0
0.0
0.0
0.0
0.0
0.0
0.0
0.0
0.0
0.0
0.0
0.0
0.0
0.0
0.0
0.0
0.0
0.0
0.0
0.0
0.0
0.0
0.0
0.0
0.0
0.0
0.0
0.0
0.0
0.0
0.0
0.0
0.0
0.0
0.0
0.0
0.0
0.0
0.0
0.0
0.0
0.0
0.0
0.0
0.0
0.0
0.0
0.0
0.0
0.0
0.0
0.0
0.0
0.0
0.0
0.0
0.0
0.0
0.0
0.0
0.0
0.0
0.0
0.0
0.0
0.0
0.0
0.0
0.0
0.0
0.0
0.0
0.0
0.0
0.0
0.0
0.0
0.0
0.0
0.0
0.0
0.0
0.0
0.0
0.0
0.0
0.0
0.0
0.0
0.0
0.0
0.0
0.0
0.0
0.0
0.0
0.0
0.0
0.0
0.0
0.0
0.0
0.0
0.0
0.0
0.0
0.0
0.0
0.0
0.0
0.0
0.0
0.0
0.0
0.0
0.0
0.0
0.0
0.0
0.0
0.0
0.0
0.0
0.0
0.0
0.0
0.0
0.0
0.0
0.0
0.0
0.0
0.0
0.0
0.0
0.0
0.0
0.0
0.0
0.0
0.0
0.0
0.0
0.0
0.0
0.0
0.0
0.0
0.0
0.0
0.0
0.0
0.0
0.0
0.0
0.0
0.0
0.0
0.0
0.0
0.0
0.0
0.0
0.0
0.0
0.0
0.0
0.0
0.0
0.0
0.0
0.0
0.0
0.0
0.0
0.0
0.0
0.0
0.0
0.0
0.0
0.0
0.0
0.0
0.0
0.0
0.0
0.0
0.0
0.0
0.0
0.0
0.0
0.0
0.0
0.0
0.0
0.0
0.0
0.0
0.0
0.0
0.0
0.0
0.0
0.0
0.0
0.0
0.0
0.0
0.0
0.0
0.0
0.0
0.0
0.0
0.0
0.0
0.0
0.0
0.0
0.0
0.0
0.0
0.0
0.0
0.0
0.0
0.0
0.0
0.0
0.0
0.0
0.0
0.0
0.0
0.0
0.0
0.0
0.0
0.0
0.0
0.0
0.0
0.0
0.0
0.0
0.0
0.0
0.0
0.0
0.0
0.0
0.0
0.0
0.0
0.0
0.0
0.0
0.0
0.0
0.0
0.0
0.0
0.0
0.0
0.0
0.0
0.0
0.0
0.0
0.0
0.0
0.0
0.0
0.0
0.0
0.0
0.0
0.0
0.0
0.0
0.0
0.0
0.0
0.0
0.0
0.0
0.0
0.0
0.0
0.0
0.0
0.0
0.0
0.0
0.0
0.0
0.0
0.0
0.0
0.0
0.0
0.0
0.0
0.0
0.0
0.0
0.0
0.0
0.0
0.0
0.0
0.0
0.0
0.0
0.0
0.0
0.0
0.0
0.0
0.0
0.0
0.0
0.0
0.0
0.0
0.0
0.0
0.0
0.0
0.0
0.0
0.0
0.0
0.0
0.0
0.0
0.0
0.0
0.0
0.0
0.0
0.0
0.0
0.0
0.0
0.0
0.0
0.0
0.0
0.0
0.0
0.0
0.0
0.0
0.0
0.0
0.0
0.0
0.0
0.0
0.0
0.0
0.0
0.0
0.0
0.0
0.0
0.0
0.0
0.0
0.0
0.0
0.0
0.0
0.0
0.0
0.0
0.0
0.0
0.0
0.0
0.0
0.0
0.0
0.0
0.0
0.0
0.0
0.0
0.0
0.0
0.0
0.0
0.0
0.0
0.0
0.0
0.0
0.0
0.0
0.0
0.0
0.0
0.0
0.0
0.0
0.0
0.0
0.0
0.0
0.0
0.0
0.0
0.0
0.0
0.0
0.0
0.0
0.0
0.0
0.0
0.0
0.0
0.0
0.0
0.0
0.0
0.0
0.0
0.0
0.0
0.0
0.0
0.0
0.0
0.0
0.0
0.0
0.0
0.0
0.0
0.0
0.0
0.0
0.0
0.0
0.0
0.0
0.0
0.0
0.0
0.0
0.0
0.0
0.0
0.0
0.0
0.0
0.0
0.0
0.0
0.0
0.0
0.0
0.0
0.0
0.0
0.0
0.0
0.0
0.0
0.0
0.0
0.0
0.0
0.0
0.0
0.0
0.0
0.0
0.0
0.0
0.0
0.0
0.0
0.0
0.0
0.0
0.0
0.0
0.0
0.0
0.0
0.0
0.0
0.0
0.0
0.0
0.0
0.0
0.0
0.0
0.0
0.0
0.0
0.0
0.0
0.0
0.0
0.0
0.0
0.0
0.0
0.0
0.0
0.0
0.0
0.0
0.0
0.0
0.0
0.0
0.0
0.0
0.0
0.0
0.0
0.0
0.0
0.0
0.0
0.0
0.0
0.0
0.0
0.0
0.0
0.0
0.0
0.0
0.0
0.0
0.0
0.0
0.0
0.0
0.0
0.0
0.0
0.0
0.0
0.0
0.0
0.0
0.0
0.0
0.0
0.0
0.0
0.0
0.0
0.0
0.0
0.0
0.0
0.0
0.0
0.0
0.0
0.0
0.0
0.0
0.0
0.0
0.0
0.0
0.0
0.0
0.0
0.0
0.0
0.0
0.0
0.0
0.0
0.0
0.0
0.0
0.0
0.0
0.0
0.0
0.0
0.0
0.0
0.0
0.0
0.0
0.0
0.0
0.0
0.0
0.0
0.0
0.0
0.0
0.0
0.0

VECTORS node_force_edge float
0.0 0.0 0.0 
0.0 0.0 0.0 
0.0 0.0 0.0 
0.0 0.0 0.0 
0.0 0.0 0.0 
0.0 0.0 0.0 
0.0 0.0 0.0 
0.0 0.0 0.0 
0.0 0.0 0.0 
0.0 0.0 0.0 
0.0 0.0 0.0 
0.0 0.0 0.0 
0.0 0.0 0.0 
0.0 0.0 0.0 
0.0 0.0 0.0 
0.0 0.0 0.0 
0.0 0.0 0.0 
0.0 0.0 0.0 
0.0 0.0 0.0 
0.0 0.0 0.0 
0.0 0.0 0.0 
0.0 0.0 0.0 
0.0 0.0 0.0 
0.0 0.0 0.0 
0.0 0.0 0.0 
0.0 0.0 0.0 
0.0 0.0 0.0 
0.0 0.0 0.0 
0.0 0.0 0.0 
0.0 0.0 0.0 
0.0 0.0 0.0 
0.0 0.0 0.0 
0.0 0.0 0.0 
0.0 0.0 0.0 
0.0 0.0 0.0 
0.0 0.0 0.0 
0.0 0.0 0.0 
0.0 0.0 0.0 
0.0 0.0 0.0 
0.0 0.0 0.0 
0.0 0.0 0.0 
0.0 0.0 0.0 
0.0 0.0 0.0 
0.0 0.0 0.0 
0.0 0.0 0.0 
0.0 0.0 0.0 
0.0 0.0 0.0 
0.0 0.0 0.0 
0.0 0.0 0.0 
0.0 0.0 0.0 
0.0 0.0 0.0 
0.0 0.0 0.0 
0.0 0.0 0.0 
0.0 0.0 0.0 
0.0 0.0 0.0 
0.0 0.0 0.0 
0.0 0.0 0.0 
0.0 0.0 0.0 
0.0 0.0 0.0 
0.0 0.0 0.0 
0.0 0.0 0.0 
0.0 0.0 0.0 
0.0 0.0 0.0 
0.0 0.0 0.0 
0.0 0.0 0.0 
0.0 0.0 0.0 
0.0 0.0 0.0 
0.0 0.0 0.0 
0.0 0.0 0.0 
0.0 0.0 0.0 
0.0 0.0 0.0 
0.0 0.0 0.0 
0.0 0.0 0.0 
0.0 0.0 0.0 
0.0 0.0 0.0 
0.0 0.0 0.0 
0.0 0.0 0.0 
0.0 0.0 0.0 
0.0 0.0 0.0 
0.0 0.0 0.0 
0.0 0.0 0.0 
0.0 -1.000000000000e+02 0.0 
0.0 0.0 0.0 
0.0 0.0 0.0 
0.0 0.0 0.0 
0.0 0.0 0.0 
0.0 0.0 0.0 
0.0 0.0 0.0 
0.0 0.0 0.0 
0.0 0.0 0.0 
0.0 0.0 0.0 
0.0 0.0 0.0 
0.0 0.0 0.0 
0.0 0.0 0.0 
0.0 0.0 0.0 
0.0 0.0 0.0 
0.0 0.0 0.0 
0.0 0.0 0.0 
0.0 0.0 0.0 
0.0 0.0 0.0 
0.0 0.0 0.0 
0.0 0.0 0.0 
0.0 0.0 0.0 
0.0 0.0 0.0 
0.0 0.0 0.0 
0.0 0.0 0.0 
0.0 0.0 0.0 
0.0 0.0 0.0 
0.0 -1.000000000000e+02 0.0 
0.0 -1.000000000000e+02 0.0 
0.0 -1.000000000000e+02 0.0 
0.0 -1.000000000000e+02 0.0 
0.0 -1.000000000000e+02 0.0 
0.0 0.0 0.0 
0.0 0.0 0.0 
0.0 0.0 0.0 
0.0 0.0 0.0 
0.0 0.0 0.0 
0.0 0.0 0.0 
0.0 0.0 0.0 
0.0 0.0 0.0 
0.0 0.0 0.0 
0.0 0.0 0.0 
0.0 0.0 0.0 
0.0 0.0 0.0 
0.0 0.0 0.0 
0.0 0.0 0.0 
0.0 0.0 0.0 
0.0 0.0 0.0 
0.0 0.0 0.0 
0.0 0.0 0.0 
0.0 0.0 0.0 
0.0 0.0 0.0 
0.0 0.0 0.0 
0.0 0.0 0.0 
0.0 0.0 0.0 
0.0 0.0 0.0 
0.0 0.0 0.0 
0.0 0.0 0.0 
0.0 0.0 0.0 
0.0 0.0 0.0 
0.0 0.0 0.0 
0.0 0.0 0.0 
0.0 0.0 0.0 
0.0 0.0 0.0 
0.0 0.0 0.0 
0.0 0.0 0.0 
0.0 0.0 0.0 
0.0 0.0 0.0 
0.0 0.0 0.0 
0.0 0.0 0.0 
0.0 0.0 0.0 
0.0 0.0 0.0 
0.0 0.0 0.0 
0.0 0.0 0.0 
0.0 0.0 0.0 
0.0 0.0 0.0 
0.0 0.0 0.0 
0.0 0.0 0.0 
0.0 0.0 0.0 
0.0 0.0 0.0 
0.0 0.0 0.0 
0.0 0.0 0.0 
0.0 0.0 0.0 
0.0 0.0 0.0 
0.0 0.0 0.0 
0.0 0.0 0.0 
0.0 0.0 0.0 
0.0 0.0 0.0 
0.0 0.0 0.0 
0.0 0.0 0.0 
0.0 0.0 0.0 
0.0 0.0 0.0 
0.0 0.0 0.0 
0.0 0.0 0.0 
0.0 0.0 0.0 
0.0 0.0 0.0 
0.0 0.0 0.0 
0.0 0.0 0.0 
0.0 0.0 0.0 
0.0 0.0 0.0 
0.0 0.0 0.0 
0.0 0.0 0.0 
0.0 0.0 0.0 
0.0 0.0 0.0 
0.0 0.0 0.0 
0.0 0.0 0.0 
0.0 0.0 0.0 
0.0 0.0 0.0 
0.0 0.0 0.0 
0.0 0.0 0.0 
0.0 0.0 0.0 
0.0 0.0 0.0 
0.0 0.0 0.0 
0.0 0.0 0.0 
0.0 0.0 0.0 
0.0 0.0 0.0 
0.0 0.0 0.0 
0.0 0.0 0.0 
0.0 0.0 0.0 
0.0 0.0 0.0 
0.0 0.0 0.0 
0.0 0.0 0.0 
0.0 0.0 0.0 
0.0 0.0 0.0 
0.0 0.0 0.0 
0.0 0.0 0.0 
0.0 0.0 0.0 
0.0 0.0 0.0 
0.0 0.0 0.0 
0.0 0.0 0.0 
0.0 0.0 0.0 
0.0 0.0 0.0 
0.0 0.0 0.0 
0.0 0.0 0.0 
0.0 0.0 0.0 
0.0 0.0 0.0 
0.0 0.0 0.0 
0.0 0.0 0.0 
0.0 0.0 0.0 
0.0 0.0 0.0 
0.0 0.0 0.0 
0.0 0.0 0.0 
0.0 0.0 0.0 
0.0 0.0 0.0 
0.0 0.0 0.0 
0.0 0.0 0.0 
0.0 0.0 0.0 
0.0 0.0 0.0 
0.0 0.0 0.0 
0.0 0.0 0.0 
0.0 0.0 0.0 
0.0 0.0 0.0 
0.0 0.0 0.0 
0.0 0.0 0.0 
0.0 0.0 0.0 
0.0 0.0 0.0 
0.0 0.0 0.0 
0.0 0.0 0.0 
0.0 0.0 0.0 
0.0 0.0 0.0 
0.0 0.0 0.0 
0.0 0.0 0.0 
0.0 0.0 0.0 
0.0 0.0 0.0 
0.0 0.0 0.0 
0.0 0.0 0.0 
0.0 0.0 0.0 
0.0 0.0 0.0 
0.0 0.0 0.0 
0.0 0.0 0.0 
0.0 0.0 0.0 
0.0 0.0 0.0 
0.0 0.0 0.0 
0.0 0.0 0.0 
0.0 0.0 0.0 
0.0 0.0 0.0 
0.0 0.0 0.0 
0.0 0.0 0.0 
0.0 0.0 0.0 
0.0 0.0 0.0 
0.0 0.0 0.0 
0.0 0.0 0.0 
0.0 0.0 0.0 
0.0 0.0 0.0 
0.0 0.0 0.0 
0.0 0.0 0.0 
0.0 0.0 0.0 
0.0 0.0 0.0 
0.0 0.0 0.0 
0.0 0.0 0.0 
0.0 0.0 0.0 
0.0 0.0 0.0 
0.0 0.0 0.0 
0.0 0.0 0.0 
0.0 0.0 0.0 
0.0 0.0 0.0 
0.0 0.0 0.0 
0.0 0.0 0.0 
0.0 0.0 0.0 
0.0 0.0 0.0 
0.0 0.0 0.0 
0.0 0.0 0.0 
0.0 0.0 0.0 
0.0 0.0 0.0 
0.0 0.0 0.0 
0.0 0.0 0.0 
0.0 0.0 0.0 
0.0 0.0 0.0 
0.0 0.0 0.0 
0.0 0.0 0.0 
0.0 0.0 0.0 
0.0 0.0 0.0 
0.0 0.0 0.0 
0.0 0.0 0.0 
0.0 0.0 0.0 
0.0 0.0 0.0 
0.0 0.0 0.0 
0.0 0.0 0.0 
0.0 0.0 0.0 
0.0 0.0 0.0 
0.0 0.0 0.0 
0.0 0.0 0.0 
0.0 0.0 0.0 
0.0 0.0 0.0 
0.0 0.0 0.0 
0.0 0.0 0.0 
0.0 0.0 0.0 
0.0 0.0 0.0 
0.0 0.0 0.0 
0.0 0.0 0.0 
0.0 0.0 0.0 
0.0 0.0 0.0 
0.0 0.0 0.0 
0.0 0.0 0.0 
0.0 0.0 0.0 
0.0 0.0 0.0 
0.0 0.0 0.0 
0.0 0.0 0.0 
0.0 0.0 0.0 
0.0 0.0 0.0 
0.0 0.0 0.0 
0.0 0.0 0.0 
0.0 0.0 0.0 
0.0 0.0 0.0 
0.0 0.0 0.0 
0.0 0.0 0.0 
0.0 0.0 0.0 
0.0 0.0 0.0 
0.0 0.0 0.0 
0.0 0.0 0.0 
0.0 0.0 0.0 
0.0 0.0 0.0 
0.0 0.0 0.0 
0.0 0.0 0.0 
0.0 0.0 0.0 
0.0 0.0 0.0 
0.0 0.0 0.0 
0.0 0.0 0.0 
0.0 0.0 0.0 
0.0 0.0 0.0 
0.0 0.0 0.0 
0.0 0.0 0.0 
0.0 0.0 0.0 
0.0 0.0 0.0 
0.0 0.0 0.0 
0.0 0.0 0.0 
0.0 0.0 0.0 
0.0 0.0 0.0 
0.0 0.0 0.0 
0.0 0.0 0.0 
0.0 0.0 0.0 
0.0 0.0 0.0 
0.0 0.0 0.0 
0.0 0.0 0.0 
0.0 0.0 0.0 
0.0 0.0 0.0 
0.0 0.0 0.0 
0.0 0.0 0.0 
0.0 0.0 0.0 
0.0 0.0 0.0 
0.0 0.0 0.0 
0.0 0.0 0.0 
0.0 0.0 0.0 
0.0 0.0 0.0 
0.0 0.0 0.0 
0.0 0.0 0.0 
0.0 0.0 0.0 
0.0 0.0 0.0 
0.0 0.0 0.0 
0.0 0.0 0.0 
0.0 0.0 0.0 
0.0 0.0 0.0 
0.0 0.0 0.0 
0.0 0.0 0.0 
0.0 0.0 0.0 
0.0 0.0 0.0 
0.0 0.0 0.0 
0.0 0.0 0.0 
0.0 0.0 0.0 
0.0 0.0 0.0 
0.0 0.0 0.0 
0.0 0.0 0.0 
0.0 0.0 0.0 
0.0 0.0 0.0 
0.0 0.0 0.0 
0.0 0.0 0.0 
0.0 0.0 0.0 
0.0 0.0 0.0 
0.0 0.0 0.0 
0.0 0.0 0.0 
0.0 0.0 0.0 
0.0 0.0 0.0 
0.0 0.0 0.0 
0.0 0.0 0.0 
0.0 0.0 0.0 
0.0 0.0 0.0 
0.0 0.0 0.0 
0.0 0.0 0.0 
0.0 0.0 0.0 
0.0 0.0 0.0 
0.0 0.0 0.0 
0.0 0.0 0.0 
0.0 0.0 0.0 
0.0 0.0 0.0 
0.0 0.0 0.0 
0.0 0.0 0.0 
0.0 0.0 0.0 
0.0 0.0 0.0 
0.0 0.0 0.0 
0.0 0.0 0.0 
0.0 0.0 0.0 
0.0 0.0 0.0 
0.0 0.0 0.0 
0.0 0.0 0.0 
0.0 0.0 0.0 
0.0 0.0 0.0 
0.0 0.0 0.0 
0.0 0.0 0.0 
0.0 0.0 0.0 
0.0 0.0 0.0 
0.0 0.0 0.0 
0.0 0.0 0.0 
0.0 0.0 0.0 
0.0 0.0 0.0 
0.0 0.0 0.0 
0.0 0.0 0.0 
0.0 0.0 0.0 
0.0 0.0 0.0 
0.0 0.0 0.0 
0.0 0.0 0.0 
0.0 0.0 0.0 
0.0 0.0 0.0 
0.0 0.0 0.0 
0.0 0.0 0.0 
0.0 0.0 0.0 
0.0 0.0 0.0 
0.0 0.0 0.0 
0.0 0.0 0.0 
0.0 0.0 0.0 
0.0 0.0 0.0 
0.0 0.0 0.0 
0.0 0.0 0.0 
0.0 0.0 0.0 
0.0 0.0 0.0 
0.0 0.0 0.0 
0.0 0.0 0.0 
0.0 0.0 0.0 
0.0 0.0 0.0 
0.0 0.0 0.0 
0.0 0.0 0.0 
0.0 0.0 0.0 
0.0 0.0 0.0 
0.0 0.0 0.0 
0.0 0.0 0.0 
0.0 0.0 0.0 
0.0 0.0 0.0 
0.0 0.0 0.0 
0.0 0.0 0.0 
0.0 0.0 0.0 
0.0 0.0 0.0 
0.0 0.0 0.0 
0.0 0.0 0.0 
0.0 0.0 0.0 
0.0 0.0 0.0 
0.0 0.0 0.0 
0.0 0.0 0.0 
0.0 0.0 0.0 
0.0 0.0 0.0 
0.0 0.0 0.0 
0.0 0.0 0.0 
0.0 0.0 0.0 
0.0 0.0 0.0 
0.0 0.0 0.0 
0.0 0.0 0.0 
0.0 0.0 0.0 
0.0 0.0 0.0 
0.0 0.0 0.0 
0.0 0.0 0.0 
0.0 0.0 0.0 
0.0 0.0 0.0 
0.0 0.0 0.0 
0.0 0.0 0.0 
0.0 0.0 0.0 
0.0 0.0 0.0 
0.0 0.0 0.0 
0.0 0.0 0.0 
0.0 0.0 0.0 
0.0 0.0 0.0 
0.0 0.0 0.0 
0.0 0.0 0.0 
0.0 0.0 0.0 
0.0 0.0 0.0 
0.0 0.0 0.0 
0.0 0.0 0.0 
0.0 0.0 0.0 
0.0 0.0 0.0 
0.0 0.0 0.0 
0.0 0.0 0.0 
0.0 0.0 0.0 
0.0 0.0 0.0 
0.0 0.0 0.0 
0.0 0.0 0.0 
0.0 0.0 0.0 
0.0 0.0 0.0 
0.0 0.0 0.0 
0.0 0.0 0.0 
0.0 0.0 0.0 
0.0 0.0 0.0 
0.0 0.0 0.0 
0.0 0.0 0.0 
0.0 0.0 0.0 
0.0 0.0 0.0 
0.0 0.0 0.0 
0.0 0.0 0.0 
0.0 0.0 0.0 
0.0 0.0 0.0 
0.0 0.0 0.0 
0.0 0.0 0.0 
0.0 0.0 0.0 
0.0 0.0 0.0 
0.0 0.0 0.0 
0.0 0.0 0.0 
0.0 0.0 0.0 
0.0 0.0 0.0 
0.0 0.0 0.0 
0.0 0.0 0.0 
0.0 0.0 0.0 
0.0 0.0 0.0 
0.0 0.0 0.0 
0.0 0.0 0.0 
0.0 0.0 0.0 
0.0 0.0 0.0 
0.0 0.0 0.0 
0.0 0.0 0.0 
0.0 0.0 0.0 
0.0 0.0 0.0 
0.0 0.0 0.0 
0.0 0.0 0.0 
0.0 0.0 0.0 
0.0 0.0 0.0 
0.0 0.0 0.0 
0.0 0.0 0.0 
0.0 0.0 0.0 
0.0 0.0 0.0 
0.0 0.0 0.0 
0.0 0.0 0.0 
0.0 0.0 0.0 
0.0 0.0 0.0 
0.0 0.0 0.0 
0.0 0.0 0.0 
0.0 0.0 0.0 
0.0 0.0 0.0 
0.0 0.0 0.0 
0.0 0.0 0.0 
0.0 0.0 0.0 
0.0 0.0 0.0 
0.0 0.0 0.0 
0.0 0.0 0.0 
0.0 0.0 0.0 
0.0 0.0 0.0 
0.0 0.0 0.0 
0.0 0.0 0.0 
0.0 0.0 0.0 
0.0 0.0 0.0 
0.0 0.0 0.0 
0.0 0.0 0.0 
0.0 0.0 0.0 
0.0 0.0 0.0 
0.0 0.0 0.0 
0.0 0.0 0.0 
0.0 0.0 0.0 
0.0 0.0 0.0 
0.0 0.0 0.0 
0.0 0.0 0.0 
0.0 0.0 0.0 
0.0 0.0 0.0 
0.0 0.0 0.0 
0.0 0.0 0.0 
0.0 0.0 0.0 
0.0 0.0 0.0 
0.0 0.0 0.0 
0.0 0.0 0.0 
0.0 0.0 0.0 
0.0 0.0 0.0 
0.0 0.0 0.0 
0.0 0.0 0.0 
0.0 0.0 0.0 
0.0 0.0 0.0 
0.0 0.0 0.0 
0.0 0.0 0.0 
0.0 0.0 0.0 
0.0 0.0 0.0 
0.0 0.0 0.0 
0.0 0.0 0.0 
0.0 0.0 0.0 
0.0 0.0 0.0 
0.0 0.0 0.0 
0.0 0.0 0.0 
0.0 0.0 0.0 
0.0 0.0 0.0 
0.0 0.0 0.0 
0.0 0.0 0.0 
0.0 0.0 0.0 
0.0 0.0 0.0 
0.0 0.0 0.0 
0.0 0.0 0.0 
0.0 0.0 0.0 
0.0 0.0 0.0 
0.0 0.0 0.0 
0.0 0.0 0.0 
0.0 0.0 0.0 
0.0 0.0 0.0 
0.0 0.0 0.0 
0.0 0.0 0.0 
0.0 0.0 0.0 
0.0 0.0 0.0 
0.0 0.0 0.0 
0.0 0.0 0.0 
0.0 0.0 0.0 
0.0 0.0 0.0 
0.0 0.0 0.0 
0.0 0.0 0.0 
0.0 0.0 0.0 
0.0 0.0 0.0 
0.0 0.0 0.0 
0.0 0.0 0.0 
0.0 0.0 0.0 
0.0 0.0 0.0 
0.0 0.0 0.0 
0.0 0.0 0.0 
0.0 0.0 0.0 
0.0 0.0 0.0 
0.0 0.0 0.0 
0.0 0.0 0.0 
0.0 0.0 0.0 
0.0 0.0 0.0 
0.0 0.0 0.0 
0.0 0.0 0.0 
0.0 0.0 0.0 
0.0 0.0 0.0 
0.0 0.0 0.0 
0.0 0.0 0.0 
0.0 0.0 0.0 
0.0 0.0 0.0 
0.0 0.0 0.0 
0.0 0.0 0.0 
0.0 0.0 0.0 
0.0 0.0 0.0 
0.0 0.0 0.0 
0.0 0.0 0.0 
0.0 0.0 0.0 
0.0 0.0 0.0 
0.0 0.0 0.0 
0.0 0.0 0.0 
0.0 0.0 0.0 
0.0 0.0 0.0 
0.0 0.0 0.0 
0.0 0.0 0.0 
0.0 0.0 0.0 
0.0 0.0 0.0 
0.0 0.0 0.0 
0.0 0.0 0.0 
0.0 0.0 0.0 
0.0 0.0 0.0 
0.0 0.0 0.0 
0.0 0.0 0.0 
0.0 0.0 0.0 
0.0 0.0 0.0 
0.0 0.0 0.0 
0.0 0.0 0.0 
0.0 0.0 0.0 
0.0 0.0 0.0 
0.0 0.0 0.0 
0.0 0.0 0.0 
0.0 0.0 0.0 
0.0 0.0 0.0 
0.0 0.0 0.0 
0.0 0.0 0.0 
0.0 0.0 0.0 
0.0 0.0 0.0 
0.0 0.0 0.0 
0.0 0.0 0.0 
0.0 0.0 0.0 
0.0 0.0 0.0 
0.0 0.0 0.0 
0.0 0.0 0.0 
0.0 0.0 0.0 
0.0 0.0 0.0 
0.0 0.0 0.0 
0.0 0.0 0.0 
0.0 0.0 0.0 
0.0 0.0 0.0 
0.0 0.0 0.0 
0.0 0.0 0.0 
0.0 0.0 0.0 
0.0 0.0 0.0 
0.0 0.0 0.0 
0.0 0.0 0.0 
0.0 0.0 0.0 
0.0 0.0 0.0 
0.0 0.0 0.0 
0.0 0.0 0.0 
0.0 0.0 0.0 
0.0 0.0 0.0 
0.0 0.0 0.0 
0.0 0.0 0.0 
0.0 0.0 0.0 
0.0 0.0 0.0 
0.0 0.0 0.0 
0.0 0.0 0.0 
0.0 0.0 0.0 
0.0 0.0 0.0 
0.0 0.0 0.0 
0.0 0.0 0.0 
0.0 0.0 0.0 
0.0 0.0 0.0 
0.0 0.0 0.0 
0.0 0.0 0.0 
0.0 0.0 0.0 
0.0 0.0 0.0 
0.0 0.0 0.0 
0.0 0.0 0.0 
0.0 0.0 0.0 
0.0 0.0 0.0 
0.0 0.0 0.0 
0.0 0.0 0.0 
0.0 0.0 0.0 
0.0 0.0 0.0 
0.0 0.0 0.0 
0.0 0.0 0.0 
0.0 0.0 0.0 
0.0 0.0 0.0 
0.0 0.0 0.0 
0.0 0.0 0.0 
0.0 0.0 0.0 
0.0 0.0 0.0 
0.0 0.0 0.0 
0.0 0.0 0.0 
0.0 0.0 0.0 
0.0 0.0 0.0 
0.0 0.0 0.0 
0.0 0.0 0.0 
0.0 0.0 0.0 
0.0 0.0 0.0 
0.0 0.0 0.0 
0.0 0.0 0.0 
0.0 0.0 0.0 
0.0 0.0 0.0 
0.0 0.0 0.0 
0.0 0.0 0.0 
0.0 0.0 0.0 
0.0 0.0 0.0 
0.0 0.0 0.0 
0.0 0.0 0.0 
0.0 0.0 0.0 
0.0 0.0 0.0 
0.0 0.0 0.0 
0.0 0.0 0.0 
0.0 0.0 0.0 
0.0 0.0 0.0 
0.0 0.0 0.0 
0.0 0.0 0.0 
0.0 0.0 0.0 
0.0 0.0 0.0 
0.0 0.0 0.0 
0.0 0.0 0.0 
0.0 0.0 0.0 
0.0 0.0 0.0 
0.0 0.0 0.0 
0.0 0.0 0.0 
0.0 0.0 0.0 
0.0 0.0 0.0 
0.0 0.0 0.0 
0.0 0.0 0.0 
0.0 0.0 0.0 
0.0 0.0 0.0 
0.0 0.0 0.0 
0.0 0.0 0.0 
0.0 0.0 0.0 
0.0 0.0 0.0 
0.0 0.0 0.0 
0.0 0.0 0.0 
0.0 0.0 0.0 
0.0 0.0 0.0 
0.0 0.0 0.0 
0.0 0.0 0.0 
0.0 0.0 0.0 
0.0 0.0 0.0 
0.0 0.0 0.0 
0.0 0.0 0.0 
0.0 0.0 0.0 
0.0 0.0 0.0 
0.0 0.0 0.0 
0.0 0.0 0.0 
0.0 0.0 0.0 
0.0 0.0 0.0 
0.0 0.0 0.0 
0.0 0.0 0.0 
0.0 0.0 0.0 
0.0 0.0 0.0 
0.0 0.0 0.0 
0.0 0.0 0.0 
0.0 0.0 0.0 
0.0 0.0 0.0 
0.0 0.0 0.0 
0.0 0.0 0.0 
0.0 0.0 0.0 
0.0 0.0 0.0 
0.0 0.0 0.0 
0.0 0.0 0.0 
0.0 0.0 0.0 
0.0 0.0 0.0 
0.0 0.0 0.0 
0.0 0.0 0.0 
0.0 0.0 0.0 
0.0 0.0 0.0 
0.0 0.0 0.0 
0.0 0.0 0.0 
0.0 0.0 0.0 
0.0 0.0 0.0 
0.0 0.0 0.0 
0.0 0.0 0.0 
0.0 0.0 0.0 
0.0 0.0 0.0 
0.0 0.0 0.0 
0.0 0.0 0.0 
0.0 0.0 0.0 
0.0 0.0 0.0 
0.0 0.0 0.0 
0.0 0.0 0.0 
0.0 0.0 0.0 
0.0 0.0 0.0 
0.0 0.0 0.0 
0.0 0.0 0.0 
0.0 0.0 0.0 
0.0 0.0 0.0 
0.0 0.0 0.0 
0.0 0.0 0.0 
0.0 0.0 0.0 
0.0 0.0 0.0 
0.0 0.0 0.0 
0.0 0.0 0.0 
0.0 0.0 0.0 
0.0 0.0 0.0 
0.0 0.0 0.0 
0.0 0.0 0.0 
0.0 0.0 0.0 
0.0 0.0 0.0 
0.0 0.0 0.0 
0.0 0.0 0.0 
0.0 0.0 0.0 
0.0 0.0 0.0 
0.0 0.0 0.0 
0.0 0.0 0.0 
0.0 0.0 0.0 
0.0 0.0 0.0 
0.0 0.0 0.0 
0.0 0.0 0.0 
0.0 0.0 0.0 
0.0 0.0 0.0 
0.0 0.0 0.0 
0.0 0.0 0.0 
0.0 0.0 0.0 
0.0 0.0 0.0 
0.0 0.0 0.0 
0.0 0.0 0.0 
0.0 0.0 0.0 
0.0 0.0 0.0 
0.0 0.0 0.0 
0.0 0.0 0.0 
0.0 0.0 0.0 
0.0 0.0 0.0 
0.0 0.0 0.0 
0.0 0.0 0.0 
0.0 0.0 0.0 
0.0 0.0 0.0 
0.0 0.0 0.0 
0.0 0.0 0.0 
0.0 0.0 0.0 
0.0 0.0 0.0 
0.0 0.0 0.0 
0.0 0.0 0.0 
0.0 0.0 0.0 
0.0 0.0 0.0 
0.0 0.0 0.0 
0.0 0.0 0.0 
0.0 0.0 0.0 
0.0 0.0 0.0 
0.0 0.0 0.0 
0.0 0.0 0.0 
0.0 0.0 0.0 
0.0 0.0 0.0 
0.0 0.0 0.0 
0.0 0.0 0.0 
0.0 0.0 0.0 
0.0 0.0 0.0 
0.0 0.0 0.0 
0.0 0.0 0.0 
0.0 0.0 0.0 
0.0 0.0 0.0 
0.0 0.0 0.0 
0.0 0.0 0.0 
0.0 0.0 0.0 
0.0 0.0 0.0 
0.0 0.0 0.0 
0.0 0.0 0.0 
0.0 0.0 0.0 
0.0 0.0 0.0 
0.0 0.0 0.0 
0.0 0.0 0.0 
0.0 0.0 0.0 
0.0 0.0 0.0 
0.0 0.0 0.0 
0.0 0.0 0.0 
0.0 0.0 0.0 
0.0 0.0 0.0 
0.0 0.0 0.0 
0.0 0.0 0.0 
0.0 0.0 0.0 
0.0 0.0 0.0 
0.0 0.0 0.0 
0.0 0.0 0.0 
0.0 0.0 0.0 
0.0 0.0 0.0 
0.0 0.0 0.0 
0.0 0.0 0.0 
0.0 0.0 0.0 
0.0 0.0 0.0 
0.0 0.0 0.0 
0.0 0.0 0.0 
0.0 0.0 0.0 
0.0 0.0 0.0 
0.0 0.0 0.0 
0.0 0.0 0.0 
0.0 0.0 0.0 
0.0 0.0 0.0 
0.0 0.0 0.0 
0.0 0.0 0.0 
0.0 0.0 0.0 
0.0 0.0 0.0 
0.0 0.0 0.0 
0.0 0.0 0.0 
0.0 0.0 0.0 
0.0 0.0 0.0 
0.0 0.0 0.0 
0.0 0.0 0.0 
0.0 0.0 0.0 
0.0 0.0 0.0 
0.0 0.0 0.0 
0.0 0.0 0.0 
0.0 0.0 0.0 
0.0 0.0 0.0 
0.0 0.0 0.0 
0.0 0.0 0.0 
0.0 0.0 0.0 
0.0 0.0 0.0 
0.0 0.0 0.0 
0.0 0.0 0.0 
0.0 0.0 0.0 
0.0 0.0 0.0 
0.0 0.0 0.0 
0.0 0.0 0.0 
0.0 0.0 0.0 
0.0 0.0 0.0 
0.0 0.0 0.0 
0.0 0.0 0.0 
0.0 0.0 0.0 
0.0 0.0 0.0 
0.0 0.0 0.0 
0.0 0.0 0.0 
0.0 0.0 0.0 
0.0 0.0 0.0 
0.0 0.0 0.0 
0.0 0.0 0.0 
0.0 0.0 0.0 
0.0 0.0 0.0 
0.0 0.0 0.0 
0.0 0.0 0.0 
0.0 0.0 0.0 
0.0 0.0 0.0 
0.0 0.0 0.0 
0.0 0.0 0.0 
0.0 0.0 0.0 
0.0 0.0 0.0 
0.0 0.0 0.0 
0.0 0.0 0.0 
0.0 0.0 0.0 
0.0 0.0 0.0 
0.0 0.0 0.0 
0.0 0.0 0.0 
0.0 0.0 0.0 
0.0 0.0 0.0 
0.0 0.0 0.0 
0.0 0.0 0.0 
0.0 0.0 0.0 
0.0 0.0 0.0 
0.0 0.0 0.0 
0.0 0.0 0.0 
0.0 0.0 0.0 
0.0 0.0 0.0 
0.0 0.0 0.0 
0.0 0.0 0.0 
0.0 0.0 0.0 
0.0 0.0 0.0 
0.0 0.0 0.0 
0.0 0.0 0.0 
0.0 0.0 0.0 
0.0 0.0 0.0 
0.0 0.0 0.0 
0.0 0.0 0.0 
0.0 0.0 0.0 
0.0 0.0 0.0 
0.0 0.0 0.0 
0.0 0.0 0.0 
0.0 0.0 0.0 
0.0 0.0 0.0 
0.0 0.0 0.0 
0.0 0.0 0.0 
0.0 0.0 0.0 
0.0 0.0 0.0 
0.0 0.0 0.0 
0.0 0.0 0.0 
0.0 0.0 0.0 
0.0 0.0 0.0 
0.0 0.0 0.0 
0.0 0.0 0.0 
0.0 0.0 0.0 
0.0 0.0 0.0 
0.0 0.0 0.0 
0.0 0.0 0.0 
0.0 0.0 0.0 
0.0 0.0 0.0 
0.0 0.0 0.0 
0.0 0.0 0.0 
0.0 0.0 0.0 
0.0 0.0 0.0 
0.0 0.0 0.0 
0.0 0.0 0.0 
0.0 0.0 0.0 
0.0 0.0 0.0 
0.0 0.0 0.0 
0.0 0.0 0.0 
0.0 0.0 0.0 
0.0 0.0 0.0 
0.0 0.0 0.0 
0.0 0.0 0.0 
0.0 0.0 0.0 
0.0 0.0 0.0 
0.0 0.0 0.0 
0.0 0.0 0.0 
0.0 0.0 0.0 
0.0 0.0 0.0 
0.0 0.0 0.0 
0.0 0.0 0.0 
0.0 0.0 0.0 
0.0 0.0 0.0 
0.0 0.0 0.0 
0.0 0.0 0.0 
0.0 0.0 0.0 
0.0 0.0 0.0 
0.0 0.0 0.0 
0.0 0.0 0.0 
0.0 0.0 0.0 
0.0 0.0 0.0 
0.0 0.0 0.0 
0.0 0.0 0.0 

VECTORS node_force_gravity float
0.0 -1.962000000000e+01 0.0 
0.0 -1.962000000000e+01 0.0 
0.0 -1.962000000000e+01 0.0 
0.0 -1.962000000000e+01 0.0 
0.0 -1.962000000000e+01 0.0 
0.0 -1.962000000000e+01 0.0 
0.0 -1.962000000000e+01 0.0 
0.0 -1.962000000000e+01 0.0 
0.0 -1.962000000000e+01 0.0 
0.0 -1.962000000000e+01 0.0 
0.0 -1.962000000000e+01 0.0 
0.0 -1.962000000000e+01 0.0 
0.0 -1.962000000000e+01 0.0 
0.0 -1.962000000000e+01 0.0 
0.0 -1.962000000000e+01 0.0 
0.0 -1.962000000000e+01 0.0 
0.0 -1.962000000000e+01 0.0 
0.0 -1.962000000000e+01 0.0 
0.0 -1.962000000000e+01 0.0 
0.0 -1.962000000000e+01 0.0 
0.0 -1.962000000000e+01 0.0 
0.0 -1.962000000000e+01 0.0 
0.0 -1.962000000000e+01 0.0 
0.0 -1.962000000000e+01 0.0 
0.0 -1.962000000000e+01 0.0 
0.0 -1.962000000000e+01 0.0 
0.0 -1.962000000000e+01 0.0 
0.0 -1.962000000000e+01 0.0 
0.0 -1.962000000000e+01 0.0 
0.0 -1.962000000000e+01 0.0 
0.0 -1.962000000000e+01 0.0 
0.0 -1.962000000000e+01 0.0 
0.0 -1.962000000000e+01 0.0 
0.0 -1.962000000000e+01 0.0 
0.0 -1.962000000000e+01 0.0 
0.0 -1.962000000000e+01 0.0 
0.0 -1.962000000000e+01 0.0 
0.0 -1.962000000000e+01 0.0 
0.0 -1.962000000000e+01 0.0 
0.0 -1.962000000000e+01 0.0 
0.0 -1.962000000000e+01 0.0 
0.0 -1.962000000000e+01 0.0 
0.0 -1.962000000000e+01 0.0 
0.0 -1.962000000000e+01 0.0 
0.0 -1.962000000000e+01 0.0 
0.0 -1.962000000000e+01 0.0 
0.0 -1.962000000000e+01 0.0 
0.0 -1.962000000000e+01 0.0 
0.0 -1.962000000000e+01 0.0 
0.0 -1.962000000000e+01 0.0 
0.0 -1.962000000000e+01 0.0 
0.0 -1.962000000000e+01 0.0 
0.0 -1.962000000000e+01 0.0 
0.0 -1.962000000000e+01 0.0 
0.0 -1.962000000000e+01 0.0 
0.0 -1.962000000000e+01 0.0 
0.0 -1.962000000000e+01 0.0 
0.0 -1.962000000000e+01 0.0 
0.0 -1.962000000000e+01 0.0 
0.0 -1.962000000000e+01 0.0 
0.0 -1.962000000000e+01 0.0 
0.0 -1.962000000000e+01 0.0 
0.0 -1.962000000000e+01 0.0 
0.0 -1.962000000000e+01 0.0 
0.0 -1.962000000000e+01 0.0 
0.0 -1.962000000000e+01 0.0 
0.0 -1.962000000000e+01 0.0 
0.0 -1.962000000000e+01 0.0 
0.0 -1.962000000000e+01 0.0 
0.0 -1.962000000000e+01 0.0 
0.0 -1.962000000000e+01 0.0 
0.0 -1.962000000000e+01 0.0 
0.0 -1.962000000000e+01 0.0 
0.0 -1.962000000000e+01 0.0 
0.0 -1.962000000000e+01 0.0 
0.0 -1.962000000000e+01 0.0 
0.0 -1.962000000000e+01 0.0 
0.0 -1.962000000000e+01 0.0 
0.0 -1.962000000000e+01 0.0 
0.0 -1.962000000000e+01 0.0 
0.0 -1.962000000000e+01 0.0 
0.0 -1.962000000000e+01 0.0 
0.0 -1.962000000000e+01 0.0 
0.0 -1.962000000000e+01 0.0 
0.0 -1.962000000000e+01 0.0 
0.0 -1.962000000000e+01 0.0 
0.0 -1.962000000000e+01 0.0 
0.0 -1.962000000000e+01 0.0 
0.0 -1.962000000000e+01 0.0 
0.0 -1.962000000000e+01 0.0 
0.0 -1.962000000000e+01 0.0 
0.0 -1.962000000000e+01 0.0 
0.0 -1.962000000000e+01 0.0 
0.0 -1.962000000000e+01 0.0 
0.0 -1.962000000000e+01 0.0 
0.0 -1.962000000000e+01 0.0 
0.0 -1.962000000000e+01 0.0 
0.0 -1.962000000000e+01 0.0 
0.0 -1.962000000000e+01 0.0 
0.0 -1.962000000000e+01 0.0 
0.0 -1.962000000000e+01 0.0 
0.0 -1.962000000000e+01 0.0 
0.0 -1.962000000000e+01 0.0 
0.0 -1.962000000000e+01 0.0 
0.0 -1.962000000000e+01 0.0 
0.0 -1.962000000000e+01 0.0 
0.0 -1.962000000000e+01 0.0 
0.0 -1.962000000000e+01 0.0 
0.0 -1.962000000000e+01 0.0 
0.0 -1.962000000000e+01 0.0 
0.0 -1.962000000000e+01 0.0 
0.0 -1.962000000000e+01 0.0 
0.0 -1.962000000000e+01 0.0 
0.0 -1.962000000000e+01 0.0 
0.0 -1.962000000000e+01 0.0 
0.0 -1.962000000000e+01 0.0 
0.0 -1.962000000000e+01 0.0 
0.0 -1.962000000000e+01 0.0 
0.0 -1.962000000000e+01 0.0 
0.0 -1.962000000000e+01 0.0 
0.0 -1.962000000000e+01 0.0 
0.0 -1.962000000000e+01 0.0 
0.0 -1.962000000000e+01 0.0 
0.0 -1.962000000000e+01 0.0 
0.0 -1.962000000000e+01 0.0 
0.0 -1.962000000000e+01 0.0 
0.0 -1.962000000000e+01 0.0 
0.0 -1.962000000000e+01 0.0 
0.0 -1.962000000000e+01 0.0 
0.0 -1.962000000000e+01 0.0 
0.0 -1.962000000000e+01 0.0 
0.0 -1.962000000000e+01 0.0 
0.0 -1.962000000000e+01 0.0 
0.0 -1.962000000000e+01 0.0 
0.0 -1.962000000000e+01 0.0 
0.0 -1.962000000000e+01 0.0 
0.0 -1.962000000000e+01 0.0 
0.0 -1.962000000000e+01 0.0 
0.0 -1.962000000000e+01 0.0 
0.0 -1.962000000000e+01 0.0 
0.0 -1.962000000000e+01 0.0 
0.0 -1.962000000000e+01 0.0 
0.0 -1.962000000000e+01 0.0 
0.0 -1.962000000000e+01 0.0 
0.0 -1.962000000000e+01 0.0 
0.0 -1.962000000000e+01 0.0 
0.0 -1.962000000000e+01 0.0 
0.0 -1.962000000000e+01 0.0 
0.0 -1.962000000000e+01 0.0 
0.0 -1.962000000000e+01 0.0 
0.0 -1.962000000000e+01 0.0 
0.0 -1.962000000000e+01 0.0 
0.0 -1.962000000000e+01 0.0 
0.0 -1.962000000000e+01 0.0 
0.0 -1.962000000000e+01 0.0 
0.0 -1.962000000000e+01 0.0 
0.0 -1.962000000000e+01 0.0 
0.0 -1.962000000000e+01 0.0 
0.0 -1.962000000000e+01 0.0 
0.0 -1.962000000000e+01 0.0 
0.0 -1.962000000000e+01 0.0 
0.0 -1.962000000000e+01 0.0 
0.0 -1.962000000000e+01 0.0 
0.0 -1.962000000000e+01 0.0 
0.0 -1.962000000000e+01 0.0 
0.0 -1.962000000000e+01 0.0 
0.0 -1.962000000000e+01 0.0 
0.0 -1.962000000000e+01 0.0 
0.0 -1.962000000000e+01 0.0 
0.0 -1.962000000000e+01 0.0 
0.0 -1.962000000000e+01 0.0 
0.0 -1.962000000000e+01 0.0 
0.0 -1.962000000000e+01 0.0 
0.0 -1.962000000000e+01 0.0 
0.0 -1.962000000000e+01 0.0 
0.0 -1.962000000000e+01 0.0 
0.0 -1.962000000000e+01 0.0 
0.0 -1.962000000000e+01 0.0 
0.0 -1.962000000000e+01 0.0 
0.0 -1.962000000000e+01 0.0 
0.0 -1.962000000000e+01 0.0 
0.0 -1.962000000000e+01 0.0 
0.0 -1.962000000000e+01 0.0 
0.0 -1.962000000000e+01 0.0 
0.0 -1.962000000000e+01 0.0 
0.0 -1.962000000000e+01 0.0 
0.0 -1.962000000000e+01 0.0 
0.0 -1.962000000000e+01 0.0 
0.0 -1.962000000000e+01 0.0 
0.0 -1.962000000000e+01 0.0 
0.0 -1.962000000000e+01 0.0 
0.0 -1.962000000000e+01 0.0 
0.0 -1.962000000000e+01 0.0 
0.0 -1.962000000000e+01 0.0 
0.0 -1.962000000000e+01 0.0 
0.0 -1.962000000000e+01 0.0 
0.0 -1.962000000000e+01 0.0 
0.0 -1.962000000000e+01 0.0 
0.0 -1.962000000000e+01 0.0 
0.0 -1.962000000000e+01 0.0 
0.0 -1.962000000000e+01 0.0 
0.0 -1.962000000000e+01 0.0 
0.0 -1.962000000000e+01 0.0 
0.0 -1.962000000000e+01 0.0 
0.0 -1.962000000000e+01 0.0 
0.0 -1.962000000000e+01 0.0 
0.0 -1.962000000000e+01 0.0 
0.0 -1.962000000000e+01 0.0 
0.0 -1.962000000000e+01 0.0 
0.0 -1.962000000000e+01 0.0 
0.0 -1.962000000000e+01 0.0 
0.0 -1.962000000000e+01 0.0 
0.0 -1.962000000000e+01 0.0 
0.0 -1.962000000000e+01 0.0 
0.0 -1.962000000000e+01 0.0 
0.0 -1.962000000000e+01 0.0 
0.0 -1.962000000000e+01 0.0 
0.0 -1.962000000000e+01 0.0 
0.0 -1.962000000000e+01 0.0 
0.0 -1.962000000000e+01 0.0 
0.0 -1.962000000000e+01 0.0 
0.0 -1.962000000000e+01 0.0 
0.0 -1.962000000000e+01 0.0 
0.0 -1.962000000000e+01 0.0 
0.0 -1.962000000000e+01 0.0 
0.0 -1.962000000000e+01 0.0 
0.0 -1.962000000000e+01 0.0 
0.0 -1.962000000000e+01 0.0 
0.0 -1.962000000000e+01 0.0 
0.0 -1.962000000000e+01 0.0 
0.0 -1.962000000000e+01 0.0 
0.0 -1.962000000000e+01 0.0 
0.0 -1.962000000000e+01 0.0 
0.0 -1.962000000000e+01 0.0 
0.0 -1.962000000000e+01 0.0 
0.0 -1.962000000000e+01 0.0 
0.0 -1.962000000000e+01 0.0 
0.0 -1.962000000000e+01 0.0 
0.0 -1.962000000000e+01 0.0 
0.0 -1.962000000000e+01 0.0 
0.0 -1.962000000000e+01 0.0 
0.0 -1.962000000000e+01 0.0 
0.0 -1.962000000000e+01 0.0 
0.0 -1.962000000000e+01 0.0 
0.0 -1.962000000000e+01 0.0 
0.0 -1.962000000000e+01 0.0 
0.0 -1.962000000000e+01 0.0 
0.0 -1.962000000000e+01 0.0 
0.0 -1.962000000000e+01 0.0 
0.0 -1.962000000000e+01 0.0 
0.0 -1.962000000000e+01 0.0 
0.0 -1.962000000000e+01 0.0 
0.0 -1.962000000000e+01 0.0 
0.0 -1.962000000000e+01 0.0 
0.0 -1.962000000000e+01 0.0 
0.0 -1.962000000000e+01 0.0 
0.0 -1.962000000000e+01 0.0 
0.0 -1.962000000000e+01 0.0 
0.0 -1.962000000000e+01 0.0 
0.0 -1.962000000000e+01 0.0 
0.0 -1.962000000000e+01 0.0 
0.0 -1.962000000000e+01 0.0 
0.0 -1.962000000000e+01 0.0 
0.0 -1.962000000000e+01 0.0 
0.0 -1.962000000000e+01 0.0 
0.0 -1.962000000000e+01 0.0 
0.0 -1.962000000000e+01 0.0 
0.0 -1.962000000000e+01 0.0 
0.0 -1.962000000000e+01 0.0 
0.0 -1.962000000000e+01 0.0 
0.0 -1.962000000000e+01 0.0 
0.0 -1.962000000000e+01 0.0 
0.0 -1.962000000000e+01 0.0 
0.0 -1.962000000000e+01 0.0 
0.0 -1.962000000000e+01 0.0 
0.0 -1.962000000000e+01 0.0 
0.0 -1.962000000000e+01 0.0 
0.0 -1.962000000000e+01 0.0 
0.0 -1.962000000000e+01 0.0 
0.0 -1.962000000000e+01 0.0 
0.0 -1.962000000000e+01 0.0 
0.0 -1.962000000000e+01 0.0 
0.0 -1.962000000000e+01 0.0 
0.0 -1.962000000000e+01 0.0 
0.0 -1.962000000000e+01 0.0 
0.0 -1.962000000000e+01 0.0 
0.0 -1.962000000000e+01 0.0 
0.0 -1.962000000000e+01 0.0 
0.0 -1.962000000000e+01 0.0 
0.0 -1.962000000000e+01 0.0 
0.0 -1.962000000000e+01 0.0 
0.0 -1.962000000000e+01 0.0 
0.0 -1.962000000000e+01 0.0 
0.0 -1.962000000000e+01 0.0 
0.0 -1.962000000000e+01 0.0 
0.0 -1.962000000000e+01 0.0 
0.0 -1.962000000000e+01 0.0 
0.0 -1.962000000000e+01 0.0 
0.0 -1.962000000000e+01 0.0 
0.0 -1.962000000000e+01 0.0 
0.0 -1.962000000000e+01 0.0 
0.0 -1.962000000000e+01 0.0 
0.0 -1.962000000000e+01 0.0 
0.0 -1.962000000000e+01 0.0 
0.0 -1.962000000000e+01 0.0 
0.0 -1.962000000000e+01 0.0 
0.0 -1.962000000000e+01 0.0 
0.0 -1.962000000000e+01 0.0 
0.0 -1.962000000000e+01 0.0 
0.0 -1.962000000000e+01 0.0 
0.0 -1.962000000000e+01 0.0 
0.0 -1.962000000000e+01 0.0 
0.0 -1.962000000000e+01 0.0 
0.0 -1.962000000000e+01 0.0 
0.0 -1.962000000000e+01 0.0 
0.0 -1.962000000000e+01 0.0 
0.0 -1.962000000000e+01 0.0 
0.0 -1.962000000000e+01 0.0 
0.0 -1.962000000000e+01 0.0 
0.0 -1.962000000000e+01 0.0 
0.0 -1.962000000000e+01 0.0 
0.0 -1.962000000000e+01 0.0 
0.0 -1.962000000000e+01 0.0 
0.0 -1.962000000000e+01 0.0 
0.0 -1.962000000000e+01 0.0 
0.0 -1.962000000000e+01 0.0 
0.0 -1.962000000000e+01 0.0 
0.0 -1.962000000000e+01 0.0 
0.0 -1.962000000000e+01 0.0 
0.0 -1.962000000000e+01 0.0 
0.0 -1.962000000000e+01 0.0 
0.0 -1.962000000000e+01 0.0 
0.0 -1.962000000000e+01 0.0 
0.0 -1.962000000000e+01 0.0 
0.0 -1.962000000000e+01 0.0 
0.0 -1.962000000000e+01 0.0 
0.0 -1.962000000000e+01 0.0 
0.0 -1.962000000000e+01 0.0 
0.0 -1.962000000000e+01 0.0 
0.0 -1.962000000000e+01 0.0 
0.0 -1.962000000000e+01 0.0 
0.0 -1.962000000000e+01 0.0 
0.0 -1.962000000000e+01 0.0 
0.0 -1.962000000000e+01 0.0 
0.0 -1.962000000000e+01 0.0 
0.0 -1.962000000000e+01 0.0 
0.0 -1.962000000000e+01 0.0 
0.0 -1.962000000000e+01 0.0 
0.0 -1.962000000000e+01 0.0 
0.0 -1.962000000000e+01 0.0 
0.0 -1.962000000000e+01 0.0 
0.0 -1.962000000000e+01 0.0 
0.0 -1.962000000000e+01 0.0 
0.0 -1.962000000000e+01 0.0 
0.0 -1.962000000000e+01 0.0 
0.0 -1.962000000000e+01 0.0 
0.0 -1.962000000000e+01 0.0 
0.0 -1.962000000000e+01 0.0 
0.0 -1.962000000000e+01 0.0 
0.0 -1.962000000000e+01 0.0 
0.0 -1.962000000000e+01 0.0 
0.0 -1.962000000000e+01 0.0 
0.0 -1.962000000000e+01 0.0 
0.0 -1.962000000000e+01 0.0 
0.0 -1.962000000000e+01 0.0 
0.0 -1.962000000000e+01 0.0 
0.0 -1.962000000000e+01 0.0 
0.0 -1.962000000000e+01 0.0 
0.0 -1.962000000000e+01 0.0 
0.0 -1.962000000000e+01 0.0 
0.0 -1.962000000000e+01 0.0 
0.0 -1.962000000000e+01 0.0 
0.0 -1.962000000000e+01 0.0 
0.0 -1.962000000000e+01 0.0 
0.0 -1.962000000000e+01 0.0 
0.0 -1.962000000000e+01 0.0 
0.0 -1.962000000000e+01 0.0 
0.0 -1.962000000000e+01 0.0 
0.0 -1.962000000000e+01 0.0 
0.0 -1.962000000000e+01 0.0 
0.0 -1.962000000000e+01 0.0 
0.0 -1.962000000000e+01 0.0 
0.0 -1.962000000000e+01 0.0 
0.0 -1.962000000000e+01 0.0 
0.0 -1.962000000000e+01 0.0 
0.0 -1.962000000000e+01 0.0 
0.0 -1.962000000000e+01 0.0 
0.0 -1.962000000000e+01 0.0 
0.0 -1.962000000000e+01 0.0 
0.0 -1.962000000000e+01 0.0 
0.0 -1.962000000000e+01 0.0 
0.0 -1.962000000000e+01 0.0 
0.0 -1.962000000000e+01 0.0 
0.0 -1.962000000000e+01 0.0 
0.0 -1.962000000000e+01 0.0 
0.0 -1.962000000000e+01 0.0 
0.0 -1.962000000000e+01 0.0 
0.0 -1.962000000000e+01 0.0 
0.0 -1.962000000000e+01 0.0 
0.0 -1.962000000000e+01 0.0 
0.0 -1.962000000000e+01 0.0 
0.0 -1.962000000000e+01 0.0 
0.0 -1.962000000000e+01 0.0 
0.0 -1.962000000000e+01 0.0 
0.0 -1.962000000000e+01 0.0 
0.0 -1.962000000000e+01 0.0 
0.0 -1.962000000000e+01 0.0 
0.0 -1.962000000000e+01 0.0 
0.0 -1.962000000000e+01 0.0 
0.0 -1.962000000000e+01 0.0 
0.0 -1.962000000000e+01 0.0 
0.0 -1.962000000000e+01 0.0 
0.0 -1.962000000000e+01 0.0 
0.0 -1.962000000000e+01 0.0 
0.0 -1.962000000000e+01 0.0 
0.0 -1.962000000000e+01 0.0 
0.0 -1.962000000000e+01 0.0 
0.0 -1.962000000000e+01 0.0 
0.0 -1.962000000000e+01 0.0 
0.0 -1.962000000000e+01 0.0 
0.0 -1.962000000000e+01 0.0 
0.0 -1.962000000000e+01 0.0 
0.0 -1.962000000000e+01 0.0 
0.0 -1.962000000000e+01 0.0 
0.0 -1.962000000000e+01 0.0 
0.0 -1.962000000000e+01 0.0 
0.0 -1.962000000000e+01 0.0 
0.0 -1.962000000000e+01 0.0 
0.0 -1.962000000000e+01 0.0 
0.0 -1.962000000000e+01 0.0 
0.0 -1.962000000000e+01 0.0 
0.0 -1.962000000000e+01 0.0 
0.0 -1.962000000000e+01 0.0 
0.0 -1.962000000000e+01 0.0 
0.0 -1.962000000000e+01 0.0 
0.0 -1.962000000000e+01 0.0 
0.0 -1.962000000000e+01 0.0 
0.0 -1.962000000000e+01 0.0 
0.0 -1.962000000000e+01 0.0 
0.0 -1.962000000000e+01 0.0 
0.0 -1.962000000000e+01 0.0 
0.0 -1.962000000000e+01 0.0 
0.0 -1.962000000000e+01 0.0 
0.0 -1.962000000000e+01 0.0 
0.0 -1.962000000000e+01 0.0 
0.0 -1.962000000000e+01 0.0 
0.0 -1.962000000000e+01 0.0 
0.0 -1.962000000000e+01 0.0 
0.0 -1.962000000000e+01 0.0 
0.0 -1.962000000000e+01 0.0 
0.0 -1.962000000000e+01 0.0 
0.0 -1.962000000000e+01 0.0 
0.0 -1.962000000000e+01 0.0 
0.0 -1.962000000000e+01 0.0 
0.0 -1.962000000000e+01 0.0 
0.0 -1.962000000000e+01 0.0 
0.0 -1.962000000000e+01 0.0 
0.0 -1.962000000000e+01 0.0 
0.0 -1.962000000000e+01 0.0 
0.0 -1.962000000000e+01 0.0 
0.0 -1.962000000000e+01 0.0 
0.0 -1.962000000000e+01 0.0 
0.0 -1.962000000000e+01 0.0 
0.0 -1.962000000000e+01 0.0 
0.0 -1.962000000000e+01 0.0 
0.0 -1.962000000000e+01 0.0 
0.0 -1.962000000000e+01 0.0 
0.0 -1.962000000000e+01 0.0 
0.0 -1.962000000000e+01 0.0 
0.0 -1.962000000000e+01 0.0 
0.0 -1.962000000000e+01 0.0 
0.0 -1.962000000000e+01 0.0 
0.0 -1.962000000000e+01 0.0 
0.0 -1.962000000000e+01 0.0 
0.0 -1.962000000000e+01 0.0 
0.0 -1.962000000000e+01 0.0 
0.0 -1.962000000000e+01 0.0 
0.0 -1.962000000000e+01 0.0 
0.0 -1.962000000000e+01 0.0 
0.0 -1.962000000000e+01 0.0 
0.0 -1.962000000000e+01 0.0 
0.0 -1.962000000000e+01 0.0 
0.0 -1.962000000000e+01 0.0 
0.0 -1.962000000000e+01 0.0 
0.0 -1.962000000000e+01 0.0 
0.0 -1.962000000000e+01 0.0 
0.0 -1.962000000000e+01 0.0 
0.0 -1.962000000000e+01 0.0 
0.0 -1.962000000000e+01 0.0 
0.0 -1.962000000000e+01 0.0 
0.0 -1.962000000000e+01 0.0 
0.0 -1.962000000000e+01 0.0 
0.0 -1.962000000000e+01 0.0 
0.0 -1.962000000000e+01 0.0 
0.0 -1.962000000000e+01 0.0 
0.0 -1.962000000000e+01 0.0 
0.0 -1.962000000000e+01 0.0 
0.0 -1.962000000000e+01 0.0 
0.0 -1.962000000000e+01 0.0 
0.0 -1.962000000000e+01 0.0 
0.0 -1.962000000000e+01 0.0 
0.0 -1.962000000000e+01 0.0 
0.0 -1.962000000000e+01 0.0 
0.0 -1.962000000000e+01 0.0 
0.0 -1.962000000000e+01 0.0 
0.0 -1.962000000000e+01 0.0 
0.0 -1.962000000000e+01 0.0 
0.0 -1.962000000000e+01 0.0 
0.0 -1.962000000000e+01 0.0 
0.0 -1.962000000000e+01 0.0 
0.0 -1.962000000000e+01 0.0 
0.0 -1.962000000000e+01 0.0 
0.0 -1.962000000000e+01 0.0 
0.0 -1.962000000000e+01 0.0 
0.0 -1.962000000000e+01 0.0 
0.0 -1.962000000000e+01 0.0 
0.0 -1.962000000000e+01 0.0 
0.0 -1.962000000000e+01 0.0 
0.0 -1.962000000000e+01 0.0 
0.0 -1.962000000000e+01 0.0 
0.0 -1.962000000000e+01 0.0 
0.0 -1.962000000000e+01 0.0 
0.0 -1.962000000000e+01 0.0 
0.0 -1.962000000000e+01 0.0 
0.0 -1.962000000000e+01 0.0 
0.0 -1.962000000000e+01 0.0 
0.0 -1.962000000000e+01 0.0 
0.0 -1.962000000000e+01 0.0 
0.0 -1.962000000000e+01 0.0 
0.0 -1.962000000000e+01 0.0 
0.0 -1.962000000000e+01 0.0 
0.0 -1.962000000000e+01 0.0 
0.0 -1.962000000000e+01 0.0 
0.0 -1.962000000000e+01 0.0 
0.0 -1.962000000000e+01 0.0 
0.0 -1.962000000000e+01 0.0 
0.0 -1.962000000000e+01 0.0 
0.0 -1.962000000000e+01 0.0 
0.0 -1.962000000000e+01 0.0 
0.0 -1.962000000000e+01 0.0 
0.0 -1.962000000000e+01 0.0 
0.0 -1.962000000000e+01 0.0 
0.0 -1.962000000000e+01 0.0 
0.0 -1.962000000000e+01 0.0 
0.0 -1.962000000000e+01 0.0 
0.0 -1.962000000000e+01 0.0 
0.0 -1.962000000000e+01 0.0 
0.0 -1.962000000000e+01 0.0 
0.0 -1.962000000000e+01 0.0 
0.0 -1.962000000000e+01 0.0 
0.0 -1.962000000000e+01 0.0 
0.0 -1.962000000000e+01 0.0 
0.0 -1.962000000000e+01 0.0 
0.0 -1.962000000000e+01 0.0 
0.0 -1.962000000000e+01 0.0 
0.0 -1.962000000000e+01 0.0 
0.0 -1.962000000000e+01 0.0 
0.0 -1.962000000000e+01 0.0 
0.0 -1.962000000000e+01 0.0 
0.0 -1.962000000000e+01 0.0 
0.0 -1.962000000000e+01 0.0 
0.0 -1.962000000000e+01 0.0 
0.0 -1.962000000000e+01 0.0 
0.0 -1.962000000000e+01 0.0 
0.0 -1.962000000000e+01 0.0 
0.0 -1.962000000000e+01 0.0 
0.0 -1.962000000000e+01 0.0 
0.0 -1.962000000000e+01 0.0 
0.0 -1.962000000000e+01 0.0 
0.0 -1.962000000000e+01 0.0 
0.0 -1.962000000000e+01 0.0 
0.0 -1.962000000000e+01 0.0 
0.0 -1.962000000000e+01 0.0 
0.0 -1.962000000000e+01 0.0 
0.0 -1.962000000000e+01 0.0 
0.0 -1.962000000000e+01 0.0 
0.0 -1.962000000000e+01 0.0 
0.0 -1.962000000000e+01 0.0 
0.0 -1.962000000000e+01 0.0 
0.0 -1.962000000000e+01 0.0 
0.0 -1.962000000000e+01 0.0 
0.0 -1.962000000000e+01 0.0 
0.0 -1.962000000000e+01 0.0 
0.0 -1.962000000000e+01 0.0 
0.0 -1.962000000000e+01 0.0 
0.0 -1.962000000000e+01 0.0 
0.0 -1.962000000000e+01 0.0 
0.0 -1.962000000000e+01 0.0 
0.0 -1.962000000000e+01 0.0 
0.0 -1.962000000000e+01 0.0 
0.0 -1.962000000000e+01 0.0 
0.0 -1.962000000000e+01 0.0 
0.0 -1.962000000000e+01 0.0 
0.0 -1.962000000000e+01 0.0 
0.0 -1.962000000000e+01 0.0 
0.0 -1.962000000000e+01 0.0 
0.0 -1.962000000000e+01 0.0 
0.0 -1.962000000000e+01 0.0 
0.0 -1.962000000000e+01 0.0 
0.0 -1.962000000000e+01 0.0 
0.0 -1.962000000000e+01 0.0 
0.0 -1.962000000000e+01 0.0 
0.0 -1.962000000000e+01 0.0 
0.0 -1.962000000000e+01 0.0 
0.0 -1.962000000000e+01 0.0 
0.0 -1.962000000000e+01 0.0 
0.0 -1.962000000000e+01 0.0 
0.0 -1.962000000000e+01 0.0 
0.0 -1.962000000000e+01 0.0 
0.0 -1.962000000000e+01 0.0 
0.0 -1.962000000000e+01 0.0 
0.0 -1.962000000000e+01 0.0 
0.0 -1.962000000000e+01 0.0 
0.0 -1.962000000000e+01 0.0 
0.0 -1.962000000000e+01 0.0 
0.0 -1.962000000000e+01 0.0 
0.0 -1.962000000000e+01 0.0 
0.0 -1.962000000000e+01 0.0 
0.0 -1.962000000000e+01 0.0 
0.0 -1.962000000000e+01 0.0 
0.0 -1.962000000000e+01 0.0 
0.0 -1.962000000000e+01 0.0 
0.0 -1.962000000000e+01 0.0 
0.0 -1.962000000000e+01 0.0 
0.0 -1.962000000000e+01 0.0 
0.0 -1.962000000000e+01 0.0 
0.0 -1.962000000000e+01 0.0 
0.0 -1.962000000000e+01 0.0 
0.0 -1.962000000000e+01 0.0 
0.0 -1.962000000000e+01 0.0 
0.0 -1.962000000000e+01 0.0 
0.0 -1.962000000000e+01 0.0 
0.0 -1.962000000000e+01 0.0 
0.0 -1.962000000000e+01 0.0 
0.0 -1.962000000000e+01 0.0 
0.0 -1.962000000000e+01 0.0 
0.0 -1.962000000000e+01 0.0 
0.0 -1.962000000000e+01 0.0 
0.0 -1.962000000000e+01 0.0 
0.0 -1.962000000000e+01 0.0 
0.0 -1.962000000000e+01 0.0 
0.0 -1.962000000000e+01 0.0 
0.0 -1.962000000000e+01 0.0 
0.0 -1.962000000000e+01 0.0 
0.0 -1.962000000000e+01 0.0 
0.0 -1.962000000000e+01 0.0 
0.0 -1.962000000000e+01 0.0 
0.0 -1.962000000000e+01 0.0 
0.0 -1.962000000000e+01 0.0 
0.0 -1.962000000000e+01 0.0 
0.0 -1.962000000000e+01 0.0 
0.0 -1.962000000000e+01 0.0 
0.0 -1.962000000000e+01 0.0 
0.0 -1.962000000000e+01 0.0 
0.0 -1.962000000000e+01 0.0 
0.0 -1.962000000000e+01 0.0 
0.0 -1.962000000000e+01 0.0 
0.0 -1.962000000000e+01 0.0 
0.0 -1.962000000000e+01 0.0 
0.0 -1.962000000000e+01 0.0 
0.0 -1.962000000000e+01 0.0 
0.0 -1.962000000000e+01 0.0 
0.0 -1.962000000000e+01 0.0 
0.0 -1.962000000000e+01 0.0 
0.0 -1.962000000000e+01 0.0 
0.0 -1.962000000000e+01 0.0 
0.0 -1.962000000000e+01 0.0 
0.0 -1.962000000000e+01 0.0 
0.0 -1.962000000000e+01 0.0 
0.0 -1.962000000000e+01 0.0 
0.0 -1.962000000000e+01 0.0 
0.0 -1.962000000000e+01 0.0 
0.0 -1.962000000000e+01 0.0 
0.0 -1.962000000000e+01 0.0 
0.0 -1.962000000000e+01 0.0 
0.0 -1.962000000000e+01 0.0 
0.0 -1.962000000000e+01 0.0 
0.0 -1.962000000000e+01 0.0 
0.0 -1.962000000000e+01 0.0 
0.0 -1.962000000000e+01 0.0 
0.0 -1.962000000000e+01 0.0 
0.0 -1.962000000000e+01 0.0 
0.0 -1.962000000000e+01 0.0 
0.0 -1.962000000000e+01 0.0 
0.0 -1.962000000000e+01 0.0 
0.0 -1.962000000000e+01 0.0 
0.0 -1.962000000000e+01 0.0 
0.0 -1.962000000000e+01 0.0 
0.0 -1.962000000000e+01 0.0 
0.0 -1.962000000000e+01 0.0 
0.0 -1.962000000000e+01 0.0 
0.0 -1.962000000000e+01 0.0 
0.0 -1.962000000000e+01 0.0 
0.0 -1.962000000000e+01 0.0 
0.0 -1.962000000000e+01 0.0 
0.0 -1.962000000000e+01 0.0 
0.0 -1.962000000000e+01 0.0 
0.0 -1.962000000000e+01 0.0 
0.0 -1.962000000000e+01 0.0 
0.0 -1.962000000000e+01 0.0 
0.0 -1.962000000000e+01 0.0 
0.0 -1.962000000000e+01 0.0 
0.0 -1.962000000000e+01 0.0 
0.0 -1.962000000000e+01 0.0 
0.0 -1.962000000000e+01 0.0 
0.0 -1.962000000000e+01 0.0 
0.0 -1.962000000000e+01 0.0 
0.0 -1.962000000000e+01 0.0 
0.0 -1.962000000000e+01 0.0 
0.0 -1.962000000000e+01 0.0 
0.0 -1.962000000000e+01 0.0 
0.0 -1.962000000000e+01 0.0 
0.0 -1.962000000000e+01 0.0 
0.0 -1.962000000000e+01 0.0 
0.0 -1.962000000000e+01 0.0 
0.0 -1.962000000000e+01 0.0 
0.0 -1.962000000000e+01 0.0 
0.0 -1.962000000000e+01 0.0 
0.0 -1.962000000000e+01 0.0 
0.0 -1.962000000000e+01 0.0 
0.0 -1.962000000000e+01 0.0 
0.0 -1.962000000000e+01 0.0 
0.0 -1.962000000000e+01 0.0 
0.0 -1.962000000000e+01 0.0 
0.0 -1.962000000000e+01 0.0 
0.0 -1.962000000000e+01 0.0 
0.0 -1.962000000000e+01 0.0 
0.0 -1.962000000000e+01 0.0 
0.0 -1.962000000000e+01 0.0 
0.0 -1.962000000000e+01 0.0 
0.0 -1.962000000000e+01 0.0 
0.0 -1.962000000000e+01 0.0 
0.0 -1.962000000000e+01 0.0 
0.0 -1.962000000000e+01 0.0 
0.0 -1.962000000000e+01 0.0 
0.0 -1.962000000000e+01 0.0 
0.0 -1.962000000000e+01 0.0 
0.0 -1.962000000000e+01 0.0 
0.0 -1.962000000000e+01 0.0 
0.0 -1.962000000000e+01 0.0 
0.0 -1.962000000000e+01 0.0 
0.0 -1.962000000000e+01 0.0 
0.0 -1.962000000000e+01 0.0 
0.0 -1.962000000000e+01 0.0 
0.0 -1.962000000000e+01 0.0 
0.0 -1.962000000000e+01 0.0 
0.0 -1.962000000000e+01 0.0 
0.0 -1.962000000000e+01 0.0 
0.0 -1.962000000000e+01 0.0 
0.0 -1.962000000000e+01 0.0 
0.0 -1.962000000000e+01 0.0 
0.0 -1.962000000000e+01 0.0 
0.0 -1.962000000000e+01 0.0 
0.0 -1.962000000000e+01 0.0 
0.0 -1.962000000000e+01 0.0 
0.0 -1.962000000000e+01 0.0 
0.0 -1.962000000000e+01 0.0 
0.0 -1.962000000000e+01 0.0 
0.0 -1.962000000000e+01 0.0 
0.0 -1.962000000000e+01 0.0 
0.0 -1.962000000000e+01 0.0 
0.0 -1.962000000000e+01 0.0 
0.0 -1.962000000000e+01 0.0 
0.0 -1.962000000000e+01 0.0 
0.0 -1.962000000000e+01 0.0 
0.0 -1.962000000000e+01 0.0 
0.0 -1.962000000000e+01 0.0 
0.0 -1.962000000000e+01 0.0 
0.0 -1.962000000000e+01 0.0 
0.0 -1.962000000000e+01 0.0 
0.0 -1.962000000000e+01 0.0 
0.0 -1.962000000000e+01 0.0 
0.0 -1.962000000000e+01 0.0 
0.0 -1.962000000000e+01 0.0 
0.0 -1.962000000000e+01 0.0 
0.0 -1.962000000000e+01 0.0 
0.0 -1.962000000000e+01 0.0 
0.0 -1.962000000000e+01 0.0 
0.0 -1.962000000000e+01 0.0 
0.0 -1.962000000000e+01 0.0 
0.0 -1.962000000000e+01 0.0 
0.0 -1.962000000000e+01 0.0 
0.0 -1.962000000000e+01 0.0 
0.0 -1.962000000000e+01 0.0 
0.0 -1.962000000000e+01 0.0 
0.0 -1.962000000000e+01 0.0 
0.0 -1.962000000000e+01 0.0 
0.0 -1.962000000000e+01 0.0 
0.0 -1.962000000000e+01 0.0 
0.0 -1.962000000000e+01 0.0 
0.0 -1.962000000000e+01 0.0 
0.0 -1.962000000000e+01 0.0 
0.0 -1.962000000000e+01 0.0 
0.0 -1.962000000000e+01 0.0 
0.0 -1.962000000000e+01 0.0 
0.0 -1.962000000000e+01 0.0 
0.0 -1.962000000000e+01 0.0 
0.0 -1.962000000000e+01 0.0 
0.0 -1.962000000000e+01 0.0 
0.0 -1.962000000000e+01 0.0 
0.0 -1.962000000000e+01 0.0 
0.0 -1.962000000000e+01 0.0 
0.0 -1.962000000000e+01 0.0 
0.0 -1.962000000000e+01 0.0 
0.0 -1.962000000000e+01 0.0 
0.0 -1.962000000000e+01 0.0 
0.0 -1.962000000000e+01 0.0 
0.0 -1.962000000000e+01 0.0 
0.0 -1.962000000000e+01 0.0 
0.0 -1.962000000000e+01 0.0 
0.0 -1.962000000000e+01 0.0 
0.0 -1.962000000000e+01 0.0 
0.0 -1.962000000000e+01 0.0 
0.0 -1.962000000000e+01 0.0 
0.0 -1.962000000000e+01 0.0 
0.0 -1.962000000000e+01 0.0 
0.0 -1.962000000000e+01 0.0 
0.0 -1.962000000000e+01 0.0 
0.0 -1.962000000000e+01 0.0 
0.0 -1.962000000000e+01 0.0 
0.0 -1.962000000000e+01 0.0 
0.0 -1.962000000000e+01 0.0 
0.0 -1.962000000000e+01 0.0 
0.0 -1.962000000000e+01 0.0 
0.0 -1.962000000000e+01 0.0 
0.0 -1.962000000000e+01 0.0 
0.0 -1.962000000000e+01 0.0 
0.0 -1.962000000000e+01 0.0 
0.0 -1.962000000000e+01 0.0 
0.0 -1.962000000000e+01 0.0 
0.0 -1.962000000000e+01 0.0 
0.0 -1.962000000000e+01 0.0 
0.0 -1.962000000000e+01 0.0 
0.0 -1.962000000000e+01 0.0 
0.0 -1.962000000000e+01 0.0 
0.0 -1.962000000000e+01 0.0 
0.0 -1.962000000000e+01 0.0 
0.0 -1.962000000000e+01 0.0 
0.0 -1.962000000000e+01 0.0 
0.0 -1.962000000000e+01 0.0 
0.0 -1.962000000000e+01 0.0 
0.0 -1.962000000000e+01 0.0 
0.0 -1.962000000000e+01 0.0 
0.0 -1.962000000000e+01 0.0 
0.0 -1.962000000000e+01 0.0 
0.0 -1.962000000000e+01 0.0 
0.0 -1.962000000000e+01 0.0 
0.0 -1.962000000000e+01 0.0 
0.0 -1.962000000000e+01 0.0 
0.0 -1.962000000000e+01 0.0 
0.0 -1.962000000000e+01 0.0 
0.0 -1.962000000000e+01 0.0 
0.0 -1.962000000000e+01 0.0 
0.0 -1.962000000000e+01 0.0 
0.0 -1.962000000000e+01 0.0 
0.0 -1.962000000000e+01 0.0 
0.0 -1.962000000000e+01 0.0 
0.0 -1.962000000000e+01 0.0 
0.0 -1.962000000000e+01 0.0 
0.0 -1.962000000000e+01 0.0 
0.0 -1.962000000000e+01 0.0 
0.0 -1.962000000000e+01 0.0 
0.0 -1.962000000000e+01 0.0 
0.0 -1.962000000000e+01 0.0 
0.0 -1.962000000000e+01 0.0 
0.0 -1.962000000000e+01 0.0 
0.0 -1.962000000000e+01 0.0 
0.0 -1.962000000000e+01 0.0 
0.0 -1.962000000000e+01 0.0 
0.0 -1.962000000000e+01 0.0 
0.0 -1.962000000000e+01 0.0 
0.0 -1.962000000000e+01 0.0 
0.0 -1.962000000000e+01 0.0 
0.0 -1.962000000000e+01 0.0 
0.0 -1.962000000000e+01 0.0 
0.0 -1.962000000000e+01 0.0 
0.0 -1.962000000000e+01 0.0 
0.0 -1.962000000000e+01 0.0 
0.0 -1.962000000000e+01 0.0 
0.0 -1.962000000000e+01 0.0 
0.0 -1.962000000000e+01 0.0 
0.0 -1.962000000000e+01 0.0 
0.0 -1.962000000000e+01 0.0 
0.0 -1.962000000000e+01 0.0 
0.0 -1.962000000000e+01 0.0 
0.0 -1.962000000000e+01 0.0 
0.0 -1.962000000000e+01 0.0 
0.0 -1.962000000000e+01 0.0 
0.0 -1.962000000000e+01 0.0 
0.0 -1.962000000000e+01 0.0 
0.0 -1.962000000000e+01 0.0 
0.0 -1.962000000000e+01 0.0 
0.0 -1.962000000000e+01 0.0 
0.0 -1.962000000000e+01 0.0 
0.0 -1.962000000000e+01 0.0 
0.0 -1.962000000000e+01 0.0 
0.0 -1.962000000000e+01 0.0 
0.0 -1.962000000000e+01 0.0 
0.0 -1.962000000000e+01 0.0 
0.0 -1.962000000000e+01 0.0 
0.0 -1.962000000000e+01 0.0 
0.0 -1.962000000000e+01 0.0 
0.0 -1.962000000000e+01 0.0 
0.0 -1.962000000000e+01 0.0 
0.0 -1.962000000000e+01 0.0 
0.0 -1.962000000000e+01 0.0 
0.0 -1.962000000000e+01 0.0 
0.0 -1.962000000000e+01 0.0 
0.0 -1.962000000000e+01 0.0 
0.0 -1.962000000000e+01 0.0 
0.0 -1.962000000000e+01 0.0 
0.0 -1.962000000000e+01 0.0 
0.0 -1.962000000000e+01 0.0 
0.0 -1.962000000000e+01 0.0 
0.0 -1.962000000000e+01 0.0 
0.0 -1.962000000000e+01 0.0 
0.0 -1.962000000000e+01 0.0 
0.0 -1.962000000000e+01 0.0 
0.0 -1.962000000000e+01 0.0 
0.0 -1.962000000000e+01 0.0 
0.0 -1.962000000000e+01 0.0 
0.0 -1.962000000000e+01 0.0 
0.0 -1.962000000000e+01 0.0 
0.0 -1.962000000000e+01 0.0 
0.0 -1.962000000000e+01 0.0 
0.0 -1.962000000000e+01 0.0 
0.0 -1.962000000000e+01 0.0 
0.0 -1.962000000000e+01 0.0 
0.0 -1.962000000000e+01 0.0 
0.0 -1.962000000000e+01 0.0 
0.0 -1.962000000000e+01 0.0 
0.0 -1.962000000000e+01 0.0 
0.0 -1.962000000000e+01 0.0 
0.0 -1.962000000000e+01 0.0 
0.0 -1.962000000000e+01 0.0 
0.0 -1.962000000000e+01 0.0 
0.0 -1.962000000000e+01 0.0 
0.0 -1.962000000000e+01 0.0 
0.0 -1.962000000000e+01 0.0 
0.0 -1.962000000000e+01 0.0 
0.0 -1.962000000000e+01 0.0 
0.0 -1.962000000000e+01 0.0 
0.0 -1.962000000000e+01 0.0 
0.0 -1.962000000000e+01 0.0 
0.0 -1.962000000000e+01 0.0 
0.0 -1.962000000000e+01 0.0 
0.0 -1.962000000000e+01 0.0 
0.0 -1.962000000000e+01 0.0 
0.0 -1.962000000000e+01 0.0 
0.0 -1.962000000000e+01 0.0 
0.0 -1.962000000000e+01 0.0 
0.0 -1.962000000000e+01 0.0 
0.0 -1.962000000000e+01 0.0 
0.0 -1.962000000000e+01 0.0 
0.0 -1.962000000000e+01 0.0 
0.0 -1.962000000000e+01 0.0 
0.0 -1.962000000000e+01 0.0 
0.0 -1.962000000000e+01 0.0 
0.0 -1.962000000000e+01 0.0 
0.0 -1.962000000000e+01 0.0 
0.0 -1.962000000000e+01 0.0 
0.0 -1.962000000000e+01 0.0 
0.0 -1.962000000000e+01 0.0 
0.0 -1.962000000000e+01 0.0 
0.0 -1.962000000000e+01 0.0 
0.0 -1.962000000000e+01 0.0 
0.0 -1.962000000000e+01 0.0 
0.0 -1.962000000000e+01 0.0 
0.0 -1.962000000000e+01 0.0 
0.0 -1.962000000000e+01 0.0 
0.0 -1.962000000000e+01 0.0 
0.0 -1.962000000000e+01 0.0 
0.0 -1.962000000000e+01 0.0 
0.0 -1.962000000000e+01 0.0 
0.0 -1.962000000000e+01 0.0 
0.0 -1.962000000000e+01 0.0 
0.0 -1.962000000000e+01 0.0 
0.0 -1.962000000000e+01 0.0 
0.0 -1.962000000000e+01 0.0 
0.0 -1.962000000000e+01 0.0 
0.0 -1.962000000000e+01 0.0 
0.0 -1.962000000000e+01 0.0 
0.0 -1.962000000000e+01 0.0 
0.0 -1.962000000000e+01 0.0 
0.0 -1.962000000000e+01 0.0 
0.0 -1.962000000000e+01 0.0 
0.0 -1.962000000000e+01 0.0 
0.0 -1.962000000000e+01 0.0 
0.0 -1.962000000000e+01 0.0 
0.0 -1.962000000000e+01 0.0 
0.0 -1.962000000000e+01 0.0 
0.0 -1.962000000000e+01 0.0 
0.0 -1.962000000000e+01 0.0 
0.0 -1.962000000000e+01 0.0 
0.0 -1.962000000000e+01 0.0 
0.0 -1.962000000000e+01 0.0 
0.0 -1.962000000000e+01 0.0 
0.0 -1.962000000000e+01 0.0 
0.0 -1.962000000000e+01 0.0 
0.0 -1.962000000000e+01 0.0 
0.0 -1.962000000000e+01 0.0 
0.0 -1.962000000000e+01 0.0 
0.0 -1.962000000000e+01 0.0 
0.0 -1.962000000000e+01 0.0 
0.0 -1.962000000000e+01 0.0 
0.0 -1.962000000000e+01 0.0 
0.0 -1.962000000000e+01 0.0 
0.0 -1.962000000000e+01 0.0 
0.0 -1.962000000000e+01 0.0 
0.0 -1.962000000000e+01 0.0 
0.0 -1.962000000000e+01 0.0 
0.0 -1.962000000000e+01 0.0 
0.0 -1.962000000000e+01 0.0 
0.0 -1.962000000000e+01 0.0 
0.0 -1.962000000000e+01 0.0 
0.0 -1.962000000000e+01 0.0 
0.0 -1.962000000000e+01 0.0 
0.0 -1.962000000000e+01 0.0 
0.0 -1.962000000000e+01 0.0 
0.0 -1.962000000000e+01 0.0 
0.0 -1.962000000000e+01 0.0 
0.0 -1.962000000000e+01 0.0 
0.0 -1.962000000000e+01 0.0 
0.0 -1.962000000000e+01 0.0 
0.0 -1.962000000000e+01 0.0 
0.0 -1.962000000000e+01 0.0 
0.0 -1.962000000000e+01 0.0 
0.0 -1.962000000000e+01 0.0 
0.0 -1.962000000000e+01 0.0 
0.0 -1.962000000000e+01 0.0 
0.0 -1.962000000000e+01 0.0 
0.0 -1.962000000000e+01 0.0 
0.0 -1.962000000000e+01 0.0 
0.0 -1.962000000000e+01 0.0 
0.0 -1.962000000000e+01 0.0 
0.0 -1.962000000000e+01 0.0 
0.0 -1.962000000000e+01 0.0 
0.0 -1.962000000000e+01 0.0 
0.0 -1.962000000000e+01 0.0 
0.0 -1.962000000000e+01 0.0 
0.0 -1.962000000000e+01 0.0 
0.0 -1.962000000000e+01 0.0 
0.0 -1.962000000000e+01 0.0 
0.0 -1.962000000000e+01 0.0 
0.0 -1.962000000000e+01 0.0 
0.0 -1.962000000000e+01 0.0 
0.0 -1.962000000000e+01 0.0 
0.0 -1.962000000000e+01 0.0 
0.0 -1.962000000000e+01 0.0 
0.0 -1.962000000000e+01 0.0 
0.0 -1.962000000000e+01 0.0 
0.0 -1.962000000000e+01 0.0 
0.0 -1.962000000000e+01 0.0 
0.0 -1.962000000000e+01 0.0 
0.0 -1.962000000000e+01 0.0 
0.0 -1.962000000000e+01 0.0 
0.0 -1.962000000000e+01 0.0 
0.0 -1.962000000000e+01 0.0 
0.0 -1.962000000000e+01 0.0 
0.0 -1.962000000000e+01 0.0 
0.0 -1.962000000000e+01 0.0 
0.0 -1.962000000000e+01 0.0 
0.0 -1.962000000000e+01 0.0 
0.0 -1.962000000000e+01 0.0 
0.0 -1.962000000000e+01 0.0 
0.0 -1.962000000000e+01 0.0 
0.0 -1.962000000000e+01 0.0 

VECTORS node_rhside_materi_fixed float
-4.970981486319e+00 0.0 0.0 
3.508753339769e+01 0.0 0.0 
-8.386915236078e+01 -2.003721827423e+02 0.0 
5.047270336765e+01 -1.213487337263e+02 0.0 
-8.254701522758e+00 0.0 0.0 
-1.127730561833e+01 0.0 0.0 
-1.379605855669e+01 0.0 0.0 
-2.470923932212e+01 0.0 0.0 
-4.021214386812e+01 0.0 0.0 
-5.386508005997e+01 0.0 0.0 
-6.595652025383e+01 0.0 0.0 
-7.660102094804e+01 0.0 0.0 
-8.575637156733e+01 0.0 0.0 
-9.386504389279e+01 0.0 0.0 
-1.012497360029e+02 0.0 0.0 
-1.077897581591e+02 0.0 0.0 
-1.136150040827e+02 0.0 0.0 
-1.194833838808e+02 0.0 0.0 
-1.249258228957e+02 0.0 0.0 
-1.320842095706e+02 0.0 0.0 
-1.415144480505e+02 0.0 0.0 
-1.511963494464e+02 0.0 0.0 
-1.613808879672e+02 0.0 0.0 
1.131296574227e+00 -2.414333395775e+02 0.0 
1.965454537524e+00 -2.429338515108e+02 0.0 
5.254938918080e+00 -2.421988363842e+02 0.0 
4.228128268214e+00 -2.426139990388e+02 0.0 
7.380017100058e+00 -2.439863350712e+02 0.0 
8.636161178799e+00 -2.438286811230e+02 0.0 
1.003863202752e+01 -2.454327911949e+02 0.0 
1.192034508875e+01 -2.470346987814e+02 0.0 
1.526040875135e+01 -2.477396278984e+02 0.0 
1.489058231302e+01 -2.497015683316e+02 0.0 
1.897857678861e+01 -2.531652030830e+02 0.0 
2.105687311980e+01 -2.549440154599e+02 0.0 
2.317249775698e+01 -2.592887262953e+02 0.0 
2.542863074557e+01 -2.627965397868e+02 0.0 
2.802473520873e+01 -2.674038200842e+02 0.0 
2.995477614444e+01 -2.731638607075e+02 0.0 
3.318092024905e+01 -2.789162463572e+02 0.0 
3.473540290360e+01 -2.854712382134e+02 0.0 
3.637296712079e+01 -2.923566555908e+02 0.0 
3.746131617304e+01 -2.992632986230e+02 0.0 
3.787490270267e+01 -3.066862748571e+02 0.0 
3.870416241644e+01 -3.146779408064e+02 0.0 
3.851333600383e+01 -3.220822400952e+02 0.0 
3.816515752262e+01 -3.294710021990e+02 0.0 
3.742927341177e+01 -3.368403294136e+02 0.0 
3.613448649869e+01 -3.436351836384e+02 0.0 
3.475098860301e+01 -3.500461535789e+02 0.0 
3.311147794066e+01 -3.561534697917e+02 0.0 
3.149760743028e+01 -3.619847523781e+02 0.0 
2.937806497135e+01 -3.671094011971e+02 0.0 
2.764054804823e+01 -3.717418682969e+02 0.0 
2.546652760062e+01 -3.766686774365e+02 0.0 
2.342926119691e+01 -3.804449569939e+02 0.0 
2.135375516578e+01 -3.842184122476e+02 0.0 
1.913743516624e+01 -3.873998133062e+02 0.0 
1.711034995567e+01 -3.902079183778e+02 0.0 
1.513537652461e+01 -3.925318064960e+02 0.0 
1.315251847984e+01 -3.945343115419e+02 0.0 
1.140430189470e+01 -3.960071607310e+02 0.0 
9.825514558970e+00 -3.975611504020e+02 0.0 
8.207058771237e+00 -3.983053330915e+02 0.0 
6.960201185148e+00 -3.988631212621e+02 0.0 
5.742100175437e+00 -3.991878048366e+02 0.0 
4.729965894238e+00 -4.002770006313e+02 0.0 
3.612437239686e+00 -3.997084220573e+02 0.0 
2.749919658585e+00 -4.005226492805e+02 0.0 
2.298815326250e+00 -4.001051946211e+02 0.0 
1.324298402374e+00 -4.003442660796e+02 0.0 
6.230917386478e-01 -4.002491347733e+02 0.0 
4.279886827319e+01 0.0 0.0 
5.108752886254e+01 0.0 0.0 
5.872219390212e+01 0.0 0.0 
6.591334486691e+01 0.0 0.0 
7.292466187471e+01 0.0 0.0 
7.999747257896e+01 0.0 0.0 
8.624694372368e+01 0.0 0.0 
9.176470422332e+01 0.0 0.0 
9.854769916526e+01 0.0 0.0 
0.0 0.0 0.0 
0.0 0.0 0.0 
0.0 0.0 0.0 
0.0 0.0 0.0 
0.0 0.0 0.0 
0.0 0.0 0.0 
0.0 0.0 0.0 
0.0 0.0 0.0 
0.0 0.0 0.0 
0.0 0.0 0.0 
0.0 0.0 0.0 
1.101536237087e+01 0.0 0.0 
2.725860745337e+01 0.0 0.0 
0.0 0.0 0.0 
0.0 0.0 0.0 
0.0 0.0 0.0 
0.0 0.0 0.0 
0.0 0.0 0.0 
0.0 0.0 0.0 
0.0 0.0 0.0 
0.0 0.0 0.0 
0.0 0.0 0.0 
0.0 0.0 0.0 
0.0 0.0 0.0 
0.0 0.0 0.0 
0.0 0.0 0.0 
0.0 0.0 0.0 
0.0 0.0 0.0 
0.0 0.0 0.0 
0.0 0.0 0.0 
0.0 0.0 0.0 
0.0 0.0 0.0 
0.0 0.0 0.0 
0.0 0.0 0.0 
0.0 0.0 0.0 
0.0 0.0 0.0 
0.0 0.0 0.0 
0.0 0.0 0.0 
0.0 0.0 0.0 
0.0 0.0 0.0 
0.0 0.0 0.0 
0.0 0.0 0.0 
0.0 0.0 0.0 
0.0 0.0 0.0 
0.0 0.0 0.0 
0.0 0.0 0.0 
0.0 0.0 0.0 
0.0 0.0 0.0 
0.0 0.0 0.0 
0.0 0.0 0.0 
0.0 0.0 0.0 
0.0 0.0 0.0 
0.0 0.0 0.0 
0.0 0.0 0.0 
0.0 0.0 0.0 
0.0 0.0 0.0 
0.0 0.0 0.0 
0.0 0.0 0.0 
0.0 0.0 0.0 
0.0 0.0 0.0 
0.0 0.0 0.0 
0.0 0.0 0.0 
0.0 0.0 0.0 
0.0 0.0 0.0 
0.0 0.0 0.0 
0.0 0.0 0.0 
0.0 0.0 0.0 
0.0 0.0 0.0 
0.0 0.0 0.0 
0.0 0.0 0.0 
0.0 0.0 0.0 
0.0 0.0 0.0 
0.0 0.0 0.0 
0.0 0.0 0.0 
0.0 0.0 0.0 
0.0 0.0 0.0 
0.0 0.0 0.0 
0.0 0.0 0.0 
0.0 0.0 0.0 
0.0 0.0 0.0 
0.0 0.0 0.0 
0.0 0.0 0.0 
0.0 0.0 0.0 
0.0 0.0 0.0 
0.0 0.0 0.0 
0.0 0.0 0.0 
0.0 0.0 0.0 
0.0 0.0 0.0 
0.0 0.0 0.0 
0.0 0.0 0.0 
0.0 0.0 0.0 
0.0 0.0 0.0 
0.0 0.0 0.0 
0.0 0.0 0.0 
0.0 0.0 0.0 
0.0 0.0 0.0 
0.0 0.0 0.0 
0.0 0.0 0.0 
0.0 0.0 0.0 
0.0 0.0 0.0 
0.0 0.0 0.0 
0.0 0.0 0.0 
0.0 0.0 0.0 
0.0 0.0 0.0 
0.0 0.0 0.0 
0.0 0.0 0.0 
0.0 0.0 0.0 
0.0 0.0 0.0 
0.0 0.0 0.0 
0.0 0.0 0.0 
0.0 0.0 0.0 
0.0 0.0 0.0 
0.0 0.0 0.0 
0.0 0.0 0.0 
0.0 0.0 0.0 
0.0 0.0 0.0 
0.0 0.0 0.0 
0.0 0.0 0.0 
0.0 0.0 0.0 
0.0 0.0 0.0 
0.0 0.0 0.0 
0.0 0.0 0.0 
0.0 0.0 0.0 
0.0 0.0 0.0 
0.0 0.0 0.0 
0.0 0.0 0.0 
0.0 0.0 0.0 
0.0 0.0 0.0 
0.0 0.0 0.0 
0.0 0.0 0.0 
0.0 0.0 0.0 
0.0 0.0 0.0 
0.0 0.0 0.0 
0.0 0.0 0.0 
0.0 0.0 0.0 
0.0 0.0 0.0 
0.0 0.0 0.0 
0.0 0.0 0.0 
0.0 0.0 0.0 
0.0 0.0 0.0 
0.0 0.0 0.0 
0.0 0.0 0.0 
0.0 0.0 0.0 
0.0 0.0 0.0 
0.0 0.0 0.0 
0.0 0.0 0.0 
0.0 0.0 0.0 
0.0 0.0 0.0 
0.0 0.0 0.0 
0.0 0.0 0.0 
0.0 0.0 0.0 
0.0 0.0 0.0 
0.0 0.0 0.0 
0.0 0.0 0.0 
0.0 0.0 0.0 
0.0 0.0 0.0 
0.0 0.0 0.0 
0.0 0.0 0.0 
0.0 0.0 0.0 
0.0 0.0 0.0 
0.0 0.0 0.0 
0.0 0.0 0.0 
0.0 0.0 0.0 
0.0 0.0 0.0 
0.0 0.0 0.0 
0.0 0.0 0.0 
0.0 0.0 0.0 
0.0 0.0 0.0 
0.0 0.0 0.0 
0.0 0.0 0.0 
0.0 0.0 0.0 
0.0 0.0 0.0 
0.0 0.0 0.0 
0.0 0.0 0.0 
0.0 0.0 0.0 
0.0 0.0 0.0 
0.0 0.0 0.0 
0.0 0.0 0.0 
0.0 0.0 0.0 
0.0 0.0 0.0 
0.0 0.0 0.0 
0.0 0.0 0.0 
0.0 0.0 0.0 
0.0 0.0 0.0 
0.0 0.0 0.0 
0.0 0.0 0.0 
0.0 0.0 0.0 
0.0 0.0 0.0 
0.0 0.0 0.0 
0.0 0.0 0.0 
0.0 0.0 0.0 
0.0 0.0 0.0 
0.0 0.0 0.0 
0.0 0.0 0.0 
0.0 0.0 0.0 
0.0 0.0 0.0 
0.0 0.0 0.0 
0.0 0.0 0.0 
0.0 0.0 0.0 
0.0 0.0 0.0 
0.0 0.0 0.0 
0.0 0.0 0.0 
0.0 0.0 0.0 
0.0 0.0 0.0 
0.0 0.0 0.0 
0.0 0.0 0.0 
0.0 0.0 0.0 
0.0 0.0 0.0 
0.0 0.0 0.0 
0.0 0.0 0.0 
0.0 0.0 0.0 
0.0 0.0 0.0 
0.0 0.0 0.0 
0.0 0.0 0.0 
0.0 0.0 0.0 
0.0 0.0 0.0 
0.0 0.0 0.0 
0.0 0.0 0.0 
0.0 0.0 0.0 
0.0 0.0 0.0 
0.0 0.0 0.0 
0.0 0.0 0.0 
0.0 0.0 0.0 
0.0 0.0 0.0 
0.0 0.0 0.0 
0.0 0.0 0.0 
0.0 0.0 0.0 
0.0 0.0 0.0 
0.0 0.0 0.0 
0.0 0.0 0.0 
0.0 0.0 0.0 
0.0 0.0 0.0 
0.0 0.0 0.0 
0.0 0.0 0.0 
0.0 0.0 0.0 
0.0 0.0 0.0 
0.0 0.0 0.0 
0.0 0.0 0.0 
0.0 0.0 0.0 
0.0 0.0 0.0 
0.0 0.0 0.0 
0.0 0.0 0.0 
0.0 0.0 0.0 
0.0 0.0 0.0 
0.0 0.0 0.0 
0.0 0.0 0.0 
0.0 0.0 0.0 
0.0 0.0 0.0 
0.0 0.0 0.0 
0.0 0.0 0.0 
0.0 0.0 0.0 
0.0 0.0 0.0 
0.0 0.0 0.0 
0.0 0.0 0.0 
0.0 0.0 0.0 
0.0 0.0 0.0 
0.0 0.0 0.0 
0.0 0.0 0.0 
0.0 0.0 0.0 
0.0 0.0 0.0 
0.0 0.0 0.0 
0.0 0.0 0.0 
0.0 0.0 0.0 
0.0 0.0 0.0 
0.0 0.0 0.0 
0.0 0.0 0.0 
0.0 0.0 0.0 
0.0 0.0 0.0 
0.0 0.0 0.0 
0.0 0.0 0.0 
0.0 0.0 0.0 
0.0 0.0 0.0 
0.0 0.0 0.0 
0.0 0.0 0.0 
0.0 0.0 0.0 
0.0 0.0 0.0 
0.0 0.0 0.0 
0.0 0.0 0.0 
0.0 0.0 0.0 
0.0 0.0 0.0 
0.0 0.0 0.0 
0.0 0.0 0.0 
0.0 0.0 0.0 
0.0 0.0 0.0 
0.0 0.0 0.0 
0.0 0.0 0.0 
0.0 0.0 0.0 
0.0 0.0 0.0 
0.0 0.0 0.0 
0.0 0.0 0.0 
0.0 0.0 0.0 
0.0 0.0 0.0 
0.0 0.0 0.0 
0.0 0.0 0.0 
0.0 0.0 0.0 
0.0 0.0 0.0 
0.0 0.0 0.0 
0.0 0.0 0.0 
0.0 0.0 0.0 
0.0 0.0 0.0 
0.0 0.0 0.0 
0.0 0.0 0.0 
0.0 0.0 0.0 
0.0 0.0 0.0 
0.0 0.0 0.0 
0.0 0.0 0.0 
0.0 0.0 0.0 
0.0 0.0 0.0 
0.0 0.0 0.0 
0.0 0.0 0.0 
0.0 0.0 0.0 
0.0 0.0 0.0 
0.0 0.0 0.0 
0.0 0.0 0.0 
0.0 0.0 0.0 
0.0 0.0 0.0 
0.0 0.0 0.0 
0.0 0.0 0.0 
0.0 0.0 0.0 
0.0 0.0 0.0 
0.0 0.0 0.0 
0.0 0.0 0.0 
0.0 0.0 0.0 
0.0 0.0 0.0 
0.0 0.0 0.0 
0.0 0.0 0.0 
0.0 0.0 0.0 
0.0 0.0 0.0 
0.0 0.0 0.0 
0.0 0.0 0.0 
0.0 0.0 0.0 
0.0 0.0 0.0 
0.0 0.0 0.0 
0.0 0.0 0.0 
0.0 0.0 0.0 
0.0 0.0 0.0 
0.0 0.0 0.0 
0.0 0.0 0.0 
0.0 0.0 0.0 
0.0 0.0 0.0 
0.0 0.0 0.0 
0.0 0.0 0.0 
0.0 0.0 0.0 
0.0 0.0 0.0 
0.0 0.0 0.0 
0.0 0.0 0.0 
0.0 0.0 0.0 
0.0 0.0 0.0 
0.0 0.0 0.0 
0.0 0.0 0.0 
0.0 0.0 0.0 
0.0 0.0 0.0 
0.0 0.0 0.0 
0.0 0.0 0.0 
0.0 0.0 0.0 
0.0 0.0 0.0 
0.0 0.0 0.0 
0.0 0.0 0.0 
0.0 0.0 0.0 
0.0 0.0 0.0 
0.0 0.0 0.0 
0.0 0.0 0.0 
0.0 0.0 0.0 
0.0 0.0 0.0 
0.0 0.0 0.0 
0.0 0.0 0.0 
0.0 0.0 0.0 
0.0 0.0 0.0 
0.0 0.0 0.0 
0.0 0.0 0.0 
0.0 0.0 0.0 
0.0 0.0 0.0 
0.0 0.0 0.0 
0.0 0.0 0.0 
0.0 0.0 0.0 
0.0 0.0 0.0 
0.0 0.0 0.0 
0.0 0.0 0.0 
0.0 0.0 0.0 
0.0 0.0 0.0 
0.0 0.0 0.0 
0.0 0.0 0.0 
0.0 0.0 0.0 
0.0 0.0 0.0 
0.0 0.0 0.0 
0.0 0.0 0.0 
0.0 0.0 0.0 
0.0 0.0 0.0 
0.0 0.0 0.0 
0.0 0.0 0.0 
0.0 0.0 0.0 
0.0 0.0 0.0 
0.0 0.0 0.0 
0.0 0.0 0.0 
0.0 0.0 0.0 
0.0 0.0 0.0 
0.0 0.0 0.0 
0.0 0.0 0.0 
0.0 0.0 0.0 
0.0 0.0 0.0 
0.0 0.0 0.0 
0.0 0.0 0.0 
0.0 0.0 0.0 
0.0 0.0 0.0 
0.0 0.0 0.0 
0.0 0.0 0.0 
0.0 0.0 0.0 
0.0 0.0 0.0 
0.0 0.0 0.0 
0.0 0.0 0.0 
0.0 0.0 0.0 
0.0 0.0 0.0 
0.0 0.0 0.0 
0.0 0.0 0.0 
0.0 0.0 0.0 
0.0 0.0 0.0 
0.0 0.0 0.0 
0.0 0.0 0.0 
0.0 0.0 0.0 
0.0 0.0 0.0 
0.0 0.0 0.0 
0.0 0.0 0.0 
0.0 0.0 0.0 
0.0 0.0 0.0 
0.0 0.0 0.0 
0.0 0.0 0.0 
0.0 0.0 0.0 
0.0 0.0 0.0 
0.0 0.0 0.0 
0.0 0.0 0.0 
0.0 0.0 0.0 
0.0 0.0 0.0 
0.0 0.0 0.0 
0.0 0.0 0.0 
0.0 0.0 0.0 
0.0 0.0 0.0 
0.0 0.0 0.0 
0.0 0.0 0.0 
0.0 0.0 0.0 
0.0 0.0 0.0 
0.0 0.0 0.0 
0.0 0.0 0.0 
0.0 0.0 0.0 
0.0 0.0 0.0 
0.0 0.0 0.0 
0.0 0.0 0.0 
0.0 0.0 0.0 
0.0 0.0 0.0 
0.0 0.0 0.0 
0.0 0.0 0.0 
0.0 0.0 0.0 
0.0 0.0 0.0 
0.0 0.0 0.0 
0.0 0.0 0.0 
0.0 0.0 0.0 
0.0 0.0 0.0 
0.0 0.0 0.0 
0.0 0.0 0.0 
0.0 0.0 0.0 
0.0 0.0 0.0 
0.0 0.0 0.0 
0.0 0.0 0.0 
0.0 0.0 0.0 
0.0 0.0 0.0 
0.0 0.0 0.0 
0.0 0.0 0.0 
0.0 0.0 0.0 
0.0 0.0 0.0 
0.0 0.0 0.0 
0.0 0.0 0.0 
0.0 0.0 0.0 
0.0 0.0 0.0 
0.0 0.0 0.0 
0.0 0.0 0.0 
0.0 0.0 0.0 
0.0 0.0 0.0 
0.0 0.0 0.0 
0.0 0.0 0.0 
0.0 0.0 0.0 
0.0 0.0 0.0 
0.0 0.0 0.0 
0.0 0.0 0.0 
0.0 0.0 0.0 
0.0 0.0 0.0 
0.0 0.0 0.0 
0.0 0.0 0.0 
0.0 0.0 0.0 
0.0 0.0 0.0 
0.0 0.0 0.0 
0.0 0.0 0.0 
0.0 0.0 0.0 
0.0 0.0 0.0 
0.0 0.0 0.0 
0.0 0.0 0.0 
0.0 0.0 0.0 
0.0 0.0 0.0 
0.0 0.0 0.0 
0.0 0.0 0.0 
0.0 0.0 0.0 
0.0 0.0 0.0 
0.0 0.0 0.0 
0.0 0.0 0.0 
0.0 0.0 0.0 
0.0 0.0 0.0 
0.0 0.0 0.0 
0.0 0.0 0.0 
0.0 0.0 0.0 
0.0 0.0 0.0 
0.0 0.0 0.0 
0.0 0.0 0.0 
0.0 0.0 0.0 
0.0 0.0 0.0 
0.0 0.0 0.0 
0.0 0.0 0.0 
0.0 0.0 0.0 
0.0 0.0 0.0 
0.0 0.0 0.0 
0.0 0.0 0.0 
0.0 0.0 0.0 
0.0 0.0 0.0 
0.0 0.0 0.0 
0.0 0.0 0.0 
0.0 0.0 0.0 
0.0 0.0 0.0 
0.0 0.0 0.0 
0.0 0.0 0.0 
0.0 0.0 0.0 
0.0 0.0 0.0 
0.0 0.0 0.0 
0.0 0.0 0.0 
0.0 0.0 0.0 
0.0 0.0 0.0 
0.0 0.0 0.0 
0.0 0.0 0.0 
0.0 0.0 0.0 
0.0 0.0 0.0 
0.0 0.0 0.0 
0.0 0.0 0.0 
0.0 0.0 0.0 
0.0 0.0 0.0 
0.0 0.0 0.0 
0.0 0.0 0.0 
0.0 0.0 0.0 
0.0 0.0 0.0 
0.0 0.0 0.0 
0.0 0.0 0.0 
0.0 0.0 0.0 
0.0 0.0 0.0 
0.0 0.0 0.0 
0.0 0.0 0.0 
0.0 0.0 0.0 
0.0 0.0 0.0 
0.0 0.0 0.0 
0.0 0.0 0.0 
0.0 0.0 0.0 
0.0 0.0 0.0 
0.0 0.0 0.0 
0.0 0.0 0.0 
0.0 0.0 0.0 
0.0 0.0 0.0 
0.0 0.0 0.0 
0.0 0.0 0.0 
0.0 0.0 0.0 
0.0 0.0 0.0 
0.0 0.0 0.0 
0.0 0.0 0.0 
0.0 0.0 0.0 
0.0 0.0 0.0 
0.0 0.0 0.0 
0.0 0.0 0.0 
0.0 0.0 0.0 
0.0 0.0 0.0 
0.0 0.0 0.0 
0.0 0.0 0.0 
0.0 0.0 0.0 
0.0 0.0 0.0 
0.0 0.0 0.0 
0.0 0.0 0.0 
0.0 0.0 0.0 
0.0 0.0 0.0 
0.0 0.0 0.0 
0.0 0.0 0.0 
0.0 0.0 0.0 
0.0 0.0 0.0 
0.0 0.0 0.0 
0.0 0.0 0.0 
0.0 0.0 0.0 
0.0 0.0 0.0 
0.0 0.0 0.0 
0.0 0.0 0.0 
0.0 0.0 0.0 
0.0 0.0 0.0 
0.0 0.0 0.0 
0.0 0.0 0.0 
0.0 0.0 0.0 
0.0 0.0 0.0 
0.0 0.0 0.0 
0.0 0.0 0.0 
0.0 0.0 0.0 
0.0 0.0 0.0 
0.0 0.0 0.0 
0.0 0.0 0.0 
0.0 0.0 0.0 
0.0 0.0 0.0 
0.0 0.0 0.0 
0.0 0.0 0.0 
0.0 0.0 0.0 
0.0 0.0 0.0 
0.0 0.0 0.0 
0.0 0.0 0.0 
0.0 0.0 0.0 
0.0 0.0 0.0 
0.0 0.0 0.0 
0.0 0.0 0.0 
0.0 0.0 0.0 
0.0 0.0 0.0 
0.0 0.0 0.0 
0.0 0.0 0.0 
0.0 0.0 0.0 
0.0 0.0 0.0 
0.0 0.0 0.0 
0.0 0.0 0.0 
0.0 0.0 0.0 
0.0 0.0 0.0 
0.0 0.0 0.0 
0.0 0.0 0.0 
0.0 0.0 0.0 
0.0 0.0 0.0 
0.0 0.0 0.0 
0.0 0.0 0.0 
0.0 0.0 0.0 
0.0 0.0 0.0 
0.0 0.0 0.0 
0.0 0.0 0.0 
0.0 0.0 0.0 
0.0 0.0 0.0 
0.0 0.0 0.0 
0.0 0.0 0.0 
0.0 0.0 0.0 
0.0 0.0 0.0 
0.0 0.0 0.0 
0.0 0.0 0.0 
0.0 0.0 0.0 
0.0 0.0 0.0 
0.0 0.0 0.0 
0.0 0.0 0.0 
0.0 0.0 0.0 
0.0 0.0 0.0 
0.0 0.0 0.0 
0.0 0.0 0.0 
0.0 0.0 0.0 
0.0 0.0 0.0 
0.0 0.0 0.0 
0.0 0.0 0.0 
0.0 0.0 0.0 
0.0 0.0 0.0 
0.0 0.0 0.0 
0.0 0.0 0.0 
0.0 0.0 0.0 
0.0 0.0 0.0 
0.0 0.0 0.0 
0.0 0.0 0.0 
0.0 0.0 0.0 
0.0 0.0 0.0 
0.0 0.0 0.0 
0.0 0.0 0.0 
0.0 0.0 0.0 
0.0 0.0 0.0 
0.0 0.0 0.0 
0.0 0.0 0.0 
0.0 0.0 0.0 
0.0 0.0 0.0 
0.0 0.0 0.0 
0.0 0.0 0.0 
0.0 0.0 0.0 
0.0 0.0 0.0 
0.0 0.0 0.0 
0.0 0.0 0.0 
0.0 0.0 0.0 
0.0 0.0 0.0 
0.0 0.0 0.0 
0.0 0.0 0.0 
0.0 0.0 0.0 
0.0 0.0 0.0 
0.0 0.0 0.0 
0.0 0.0 0.0 
0.0 0.0 0.0 
0.0 0.0 0.0 
0.0 0.0 0.0 
0.0 0.0 0.0 
0.0 0.0 0.0 
0.0 0.0 0.0 
0.0 0.0 0.0 
0.0 0.0 0.0 
0.0 0.0 0.0 
0.0 0.0 0.0 
0.0 0.0 0.0 
0.0 0.0 0.0 
0.0 0.0 0.0 
0.0 0.0 0.0 
0.0 0.0 0.0 
0.0 0.0 0.0 
0.0 0.0 0.0 
0.0 0.0 0.0 
0.0 0.0 0.0 
0.0 0.0 0.0 
0.0 0.0 0.0 
0.0 0.0 0.0 
0.0 0.0 0.0 
0.0 0.0 0.0 
0.0 0.0 0.0 
0.0 0.0 0.0 
0.0 0.0 0.0 
0.0 0.0 0.0 
0.0 0.0 0.0 
0.0 0.0 0.0 
0.0 0.0 0.0 
0.0 0.0 0.0 
0.0 0.0 0.0 
0.0 0.0 0.0 
0.0 0.0 0.0 
0.0 0.0 0.0 
0.0 0.0 0.0 
0.0 0.0 0.0 
0.0 0.0 0.0 
0.0 0.0 0.0 
0.0 0.0 0.0 
0.0 0.0 0.0 
0.0 0.0 0.0 
0.0 0.0 0.0 
0.0 0.0 0.0 
0.0 0.0 0.0 
0.0 0.0 0.0 
0.0 0.0 0.0 
0.0 0.0 0.0 
0.0 0.0 0.0 
0.0 0.0 0.0 
0.0 0.0 0.0 
0.0 0.0 0.0 
0.0 0.0 0.0 
0.0 0.0 0.0 
0.0 0.0 0.0 
0.0 0.0 0.0 
0.0 0.0 0.0 
0.0 0.0 0.0 
0.0 0.0 0.0 
0.0 0.0 0.0 
0.0 0.0 0.0 
0.0 0.0 0.0 
0.0 0.0 0.0 
0.0 0.0 0.0 
0.0 0.0 0.0 
0.0 0.0 0.0 
0.0 0.0 0.0 
0.0 0.0 0.0 
0.0 0.0 0.0 
0.0 0.0 0.0 
0.0 0.0 0.0 
0.0 0.0 0.0 
0.0 0.0 0.0 
0.0 0.0 0.0 
0.0 0.0 0.0 
0.0 0.0 0.0 
0.0 0.0 0.0 
0.0 0.0 0.0 
0.0 0.0 0.0 
0.0 0.0 0.0 
0.0 0.0 0.0 
0.0 0.0 0.0 
0.0 0.0 0.0 
0.0 0.0 0.0 
0.0 0.0 0.0 
0.0 0.0 0.0 
0.0 0.0 0.0 
0.0 0.0 0.0 
0.0 0.0 0.0 
0.0 0.0 0.0 
0.0 0.0 0.0 
0.0 0.0 0.0 
0.0 0.0 0.0 
0.0 0.0 0.0 
0.0 0.0 0.0 
0.0 0.0 0.0 
0.0 0.0 0.0 
0.0 0.0 0.0 
0.0 0.0 0.0 
0.0 0.0 0.0 
0.0 0.0 0.0 
0.0 0.0 0.0 
0.0 0.0 0.0 
0.0 0.0 0.0 
0.0 0.0 0.0 
0.0 0.0 0.0 
0.0 0.0 0.0 
0.0 0.0 0.0 
0.0 0.0 0.0 
0.0 0.0 0.0 
0.0 0.0 0.0 
0.0 0.0 0.0 
0.0 0.0 0.0 
0.0 0.0 0.0 
0.0 0.0 0.0 
0.0 0.0 0.0 
0.0 0.0 0.0 
0.0 0.0 0.0 
0.0 0.0 0.0 
0.0 0.0 0.0 
0.0 0.0 0.0 
0.0 0.0 0.0 
0.0 0.0 0.0 
0.0 0.0 0.0 
0.0 0.0 0.0 
0.0 0.0 0.0 
0.0 0.0 0.0 
0.0 0.0 0.0 
0.0 0.0 0.0 
0.0 0.0 0.0 
0.0 0.0 0.0 
0.0 0.0 0.0 
0.0 0.0 0.0 
0.0 0.0 0.0 
0.0 0.0 0.0 
0.0 0.0 0.0 
0.0 0.0 0.0 
0.0 0.0 0.0 
0.0 0.0 0.0 
0.0 0.0 0.0 
0.0 0.0 0.0 
0.0 0.0 0.0 
0.0 0.0 0.0 
0.0 0.0 0.0 
0.0 0.0 0.0 
0.0 0.0 0.0 
0.0 0.0 0.0 
0.0 0.0 0.0 
0.0 0.0 0.0 
0.0 0.0 0.0 
0.0 0.0 0.0 
0.0 0.0 0.0 
0.0 0.0 0.0 
0.0 0.0 0.0 
0.0 0.0 0.0 
0.0 0.0 0.0 
0.0 0.0 0.0 
0.0 0.0 0.0 
0.0 0.0 0.0 
0.0 0.0 0.0 
0.0 0.0 0.0 
0.0 0.0 0.0 
0.0 0.0 0.0 
0.0 0.0 0.0 
0.0 0.0 0.0 
0.0 0.0 0.0 
0.0 0.0 0.0 
0.0 0.0 0.0 
0.0 0.0 0.0 
0.0 0.0 0.0 
0.0 0.0 0.0 
0.0 0.0 0.0 
0.0 0.0 0.0 
0.0 0.0 0.0 
0.0 0.0 0.0 
0.0 0.0 0.0 
0.0 0.0 0.0 
0.0 0.0 0.0 
0.0 0.0 0.0 
0.0 0.0 0.0 
0.0 0.0 0.0 
0.0 0.0 0.0 
0.0 0.0 0.0 
0.0 0.0 0.0 
0.0 0.0 0.0 
0.0 0.0 0.0 
0.0 0.0 0.0 
0.0 0.0 0.0 
0.0 0.0 0.0 
0.0 0.0 0.0 
0.0 0.0 0.0 
0.0 0.0 0.0 
0.0 0.0 0.0 
0.0 0.0 0.0 
0.0 0.0 0.0 
0.0 0.0 0.0 
0.0 0.0 0.0 
0.0 0.0 0.0 
0.0 0.0 0.0 
0.0 0.0 0.0 
0.0 0.0 0.0 
0.0 0.0 0.0 
0.0 0.0 0.0 
0.0 0.0 0.0 
0.0 0.0 0.0 
0.0 0.0 0.0 
0.0 0.0 0.0 
0.0 0.0 0.0 
0.0 0.0 0.0 
0.0 0.0 0.0 
0.0 0.0 0.0 
0.0 0.0 0.0 
0.0 0.0 0.0 
0.0 0.0 0.0 
0.0 0.0 0.0 
0.0 0.0 0.0 
0.0 0.0 0.0 
0.0 0.0 0.0 
0.0 0.0 0.0 
0.0 0.0 0.0 
0.0 0.0 0.0 
0.0 0.0 0.0 
0.0 0.0 0.0 
0.0 0.0 0.0 
0.0 0.0 0.0 
0.0 0.0 0.0 
0.0 0.0 0.0 
0.0 0.0 0.0 
0.0 0.0 0.0 
0.0 0.0 0.0 
0.0 0.0 0.0 
0.0 0.0 0.0 
0.0 0.0 0.0 
0.0 0.0 0.0 
0.0 0.0 0.0 
0.0 0.0 0.0 
0.0 0.0 0.0 
0.0 0.0 0.0 
0.0 0.0 0.0 
0.0 0.0 0.0 
0.0 0.0 0.0 
0.0 0.0 0.0 
0.0 0.0 0.0 
0.0 0.0 0.0 
0.0 0.0 0.0 
0.0 0.0 0.0 
0.0 0.0 0.0 
0.0 0.0 0.0 
0.0 0.0 0.0 
0.0 0.0 0.0 
0.0 0.0 0.0 
0.0 0.0 0.0 
0.0 0.0 0.0 
0.0 0.0 0.0 
0.0 0.0 0.0 
0.0 0.0 0.0 
0.0 0.0 0.0 
0.0 0.0 0.0 
0.0 0.0 0.0 
0.0 0.0 0.0 
0.0 0.0 0.0 
0.0 0.0 0.0 
0.0 0.0 0.0 
0.0 0.0 0.0 
0.0 0.0 0.0 
0.0 0.0 0.0 
0.0 0.0 0.0 
0.0 0.0 0.0 
0.0 0.0 0.0 
0.0 0.0 0.0 
0.0 0.0 0.0 
0.0 0.0 0.0 
0.0 0.0 0.0 
0.0 0.0 0.0 
0.0 0.0 0.0 
0.0 0.0 0.0 
0.0 0.0 0.0 
0.0 0.0 0.0 
0.0 0.0 0.0 
0.0 0.0 0.0 
0.0 0.0 0.0 
0.0 0.0 0.0 
0.0 0.0 0.0 
0.0 0.0 0.0 
0.0 0.0 0.0 
0.0 0.0 0.0 
0.0 0.0 0.0 
0.0 0.0 0.0 
0.0 0.0 0.0 
0.0 0.0 0.0 
0.0 0.0 0.0 
0.0 0.0 0.0 
0.0 0.0 0.0 
0.0 0.0 0.0 
0.0 0.0 0.0 
0.0 0.0 0.0 
0.0 0.0 0.0 
0.0 0.0 0.0 
0.0 0.0 0.0 

VECTORS node_materi_velocity float
0.0 -3.329945141330e-04 0.0 
0.0 1.002667861399e-02 0.0 
0.0 0.0 0.0 
0.0 0.0 0.0 
0.0 -3.180014442634e-04 0.0 
0.0 -3.028266100220e-04 0.0 
0.0 -2.870307191545e-04 0.0 
0.0 -2.703423592145e-04 0.0 
0.0 -2.523666026185e-04 0.0 
0.0 -2.330710116181e-04 0.0 
0.0 -2.124663287405e-04 0.0 
0.0 -1.906309058201e-04 0.0 
0.0 -1.678323804145e-04 0.0 
0.0 -1.444199165796e-04 0.0 
0.0 -1.208961138177e-04 0.0 
0.0 -9.788580255557e-05 0.0 
0.0 -7.589163354817e-05 0.0 
0.0 -5.512627343844e-05 0.0 
0.0 -3.676747060883e-05 0.0 
0.0 -2.134107632509e-05 0.0 
0.0 -9.357345367155e-06 0.0 
0.0 -1.600723590660e-06 0.0 
0.0 1.301048706064e-06 0.0 
0.0 0.0 0.0 
0.0 0.0 0.0 
0.0 0.0 0.0 
0.0 0.0 0.0 
0.0 0.0 0.0 
0.0 0.0 0.0 
0.0 0.0 0.0 
0.0 0.0 0.0 
0.0 0.0 0.0 
0.0 0.0 0.0 
0.0 0.0 0.0 
0.0 0.0 0.0 
0.0 0.0 0.0 
0.0 0.0 0.0 
0.0 0.0 0.0 
0.0 0.0 0.0 
0.0 0.0 0.0 
0.0 0.0 0.0 
0.0 0.0 0.0 
0.0 0.0 0.0 
0.0 0.0 0.0 
0.0 0.0 0.0 
0.0 0.0 0.0 
0.0 0.0 0.0 
0.0 0.0 0.0 
0.0 0.0 0.0 
0.0 0.0 0.0 
0.0 0.0 0.0 
0.0 0.0 0.0 
0.0 0.0 0.0 
0.0 0.0 0.0 
0.0 0.0 0.0 
0.0 0.0 0.0 
0.0 0.0 0.0 
0.0 0.0 0.0 
0.0 0.0 0.0 
0.0 0.0 0.0 
0.0 0.0 0.0 
0.0 0.0 0.0 
0.0 0.0 0.0 
0.0 0.0 0.0 
0.0 0.0 0.0 
0.0 0.0 0.0 
0.0 0.0 0.0 
0.0 0.0 0.0 
0.0 0.0 0.0 
0.0 0.0 0.0 
0.0 0.0 0.0 
0.0 0.0 0.0 
0.0 9.006224134235e-03 0.0 
0.0 7.984067906450e-03 0.0 
0.0 6.961475420956e-03 0.0 
0.0 5.940033092690e-03 0.0 
0.0 4.922728369583e-03 0.0 
0.0 3.912045259736e-03 0.0 
0.0 2.911236065404e-03 0.0 
0.0 1.923780869275e-03 0.0 
0.0 9.530650733996e-04 0.0 
2.205165624077e-04 -7.782173747730e-05 0.0 
1.831927610016e-03 8.351226584506e-03 0.0 
2.437623655978e-04 7.547359267578e-05 0.0 
2.737123887486e-04 2.512571811033e-04 0.0 
3.204857625907e-04 5.169037755698e-04 0.0 
4.011679813444e-04 9.067808366137e-04 0.0 
5.597193557886e-04 1.481977941675e-03 0.0 
9.436113254544e-04 2.347952438383e-03 0.0 
2.274370328933e-03 3.691115582015e-03 0.0 
1.670699800282e-03 6.529621483868e-03 0.0 
1.643484013920e-03 8.089456658141e-03 0.0 
0.0 1.208036905110e-02 0.0 
0.0 1.104599759882e-02 0.0 
1.136413247279e-04 1.002918463755e-02 0.0 
2.271439219494e-04 1.003379023234e-02 0.0 
3.375075667802e-04 1.003520226115e-02 0.0 
4.460625218332e-04 1.003784363518e-02 0.0 
5.529986515793e-04 1.004021878252e-02 0.0 
6.583187440136e-04 1.003903233779e-02 0.0 
7.629766257401e-04 1.002977633165e-02 0.0 
8.644590247144e-04 1.000554729036e-02 0.0 
9.672466067423e-04 9.960073874923e-03 0.0 
1.072008052374e-03 9.883437334280e-03 0.0 
1.181869631730e-03 9.761417366291e-03 0.0 
1.303081042423e-03 9.576610786272e-03 0.0 
1.443942927552e-03 9.304370782795e-03 0.0 
1.614148733912e-03 8.911975556297e-03 0.0 
2.315936760027e-04 -1.446944758746e-04 0.0 
2.499343404025e-04 -2.087823879460e-04 0.0 
2.693895586134e-04 -2.614822912054e-04 0.0 
2.874950316281e-04 -3.023815413638e-04 0.0 
3.005971683775e-04 -3.331325911527e-04 0.0 
3.086245695023e-04 -3.545015996168e-04 0.0 
3.113623003542e-04 -3.679650501114e-04 0.0 
3.087339403241e-04 -3.754285874273e-04 0.0 
3.010611335362e-04 -3.780606590053e-04 0.0 
2.885983626485e-04 -3.769710303605e-04 0.0 
2.716976215669e-04 -3.735966232149e-04 0.0 
2.510680618589e-04 -3.682452657775e-04 0.0 
2.268306009641e-04 -3.621532282032e-04 0.0 
1.997753458696e-04 -3.557330094877e-04 0.0 
1.702233388804e-04 -3.497018369602e-04 0.0 
1.386151307008e-04 -3.441794256391e-04 0.0 
1.053377292985e-04 -3.395237765568e-04 0.0 
7.086639189559e-05 -3.360792278471e-04 0.0 
3.565591411789e-05 -3.339247903012e-04 0.0 
1.520953063080e-04 1.207775087400e-02 0.0 
2.368264546698e-04 1.206431298984e-02 0.0 
3.344603004463e-04 1.206102019459e-02 0.0 
4.355631517599e-04 1.206383882137e-02 0.0 
5.328197913564e-04 1.206368215705e-02 0.0 
6.208444389031e-04 1.205803097190e-02 0.0 
6.948084156909e-04 1.204311566233e-02 0.0 
7.491485873308e-04 1.201055115245e-02 0.0 
7.817492727931e-04 1.195601361150e-02 0.0 
7.953406367658e-04 1.187647719348e-02 0.0 
7.847798242189e-04 1.175312997654e-02 0.0 
7.471217990859e-04 1.157216828685e-02 0.0 
6.839810278550e-04 1.131354467712e-02 0.0 
6.087219988560e-04 1.094456994591e-02 0.0 
5.191837817498e-04 1.043208819109e-02 0.0 
4.698845417734e-04 9.690855500031e-03 0.0 
4.843789737270e-04 8.816468388895e-03 0.0 
1.371560052303e-03 9.044678140554e-03 0.0 
1.227243571699e-03 9.682020631771e-03 0.0 
1.130257383417e-03 1.012632862774e-02 0.0 
1.064101175106e-03 1.044469736251e-02 0.0 
1.011648017219e-03 1.066555086884e-02 0.0 
9.613830788842e-04 1.081697678755e-02 0.0 
9.072817979321e-04 1.091796255726e-02 0.0 
8.469953940363e-04 1.098279640287e-02 0.0 
7.779539227559e-04 1.102227049060e-02 0.0 
6.999277962506e-04 1.104364723731e-02 0.0 
6.138822485836e-04 1.105178776291e-02 0.0 
5.213723141060e-04 1.105331271116e-02 0.0 
4.243037573777e-04 1.105194944864e-02 0.0 
3.249680320717e-04 1.105097578251e-02 0.0 
2.229591250323e-04 1.105376708422e-02 0.0 
1.129552236083e-04 1.105059173252e-02 0.0 
2.408791858271e-04 -5.021100831578e-06 0.0 
2.554585253353e-04 1.510412839071e-04 0.0 
2.949381864636e-04 3.718562850537e-04 0.0 
3.544230985135e-04 6.922001319618e-04 0.0 
4.630767078475e-04 1.166578418548e-03 0.0 
7.062462448126e-04 1.876253363351e-03 0.0 
1.374918806089e-03 2.928949954212e-03 0.0 
2.333107380544e-03 5.088382856276e-03 0.0 
1.565745121515e-03 7.462906660214e-03 0.0 
1.769621641821e-03 8.300397324843e-03 0.0 
3.300835737080e-04 1.492404365884e-04 0.0 
1.810702294588e-04 2.625299183359e-05 0.0 
2.985964517917e-04 -3.727493348402e-04 0.0 
3.232003584989e-04 -3.216920992715e-04 0.0 
9.590255158118e-05 8.818179676923e-06 0.0 
5.169752892488e-04 7.005308563765e-04 0.0 
3.476969063034e-05 -1.325873433583e-04 0.0 
2.889607205286e-04 6.153984623269e-05 0.0 
1.123978603672e-03 1.860009763720e-03 0.0 
4.196884960584e-04 1.296664047187e-04 0.0 
2.127446392937e-03 4.742877148407e-03 0.0 
4.853459935313e-05 3.946778781106e-06 0.0 
2.080286844681e-04 -3.484635983681e-04 0.0 
5.692094845251e-04 2.676753208481e-04 0.0 
2.221931982148e-03 7.311292282514e-03 0.0 
3.235220504245e-05 -2.228599234732e-04 0.0 
3.258679516274e-05 -6.950506709152e-05 0.0 
6.426109782269e-04 4.326644719284e-04 0.0 
5.340242008931e-04 6.138226128354e-04 0.0 
1.506141576704e-04 8.032679066014e-04 0.0 
2.905233868567e-04 8.429862148095e-04 0.0 
3.935312918936e-04 7.002269617569e-04 0.0 
1.791783345546e-03 8.210687456740e-03 0.0 
1.126272995404e-03 8.999655520369e-03 0.0 
7.496154941651e-04 9.089530402026e-03 0.0 
8.505209118992e-05 5.415288908523e-03 0.0 
2.836807981983e-05 2.491880369261e-06 0.0 
2.885511614035e-04 -1.806739308794e-04 0.0 
1.194303940245e-04 -3.293854572371e-04 0.0 
2.080722352301e-05 -1.581857868303e-05 0.0 
3.930546470312e-04 9.158171309028e-03 0.0 
3.325457806742e-05 -2.797369647975e-04 0.0 
6.818223967418e-04 6.023660795827e-04 0.0 
3.257211086603e-04 8.312466587997e-05 0.0 
4.918967680040e-04 1.857268843375e-04 0.0 
2.465927077456e-04 4.405205980500e-05 0.0 
1.342606455532e-04 1.586175538191e-05 0.0 
3.272505227385e-04 -3.620043878676e-04 0.0 
1.412537025758e-03 8.806577709432e-03 0.0 
8.204189900237e-05 6.280220356968e-06 0.0 
6.895805566802e-05 3.452706043928e-03 0.0 
2.605688730198e-04 -3.631465450122e-04 0.0 
3.489697133906e-05 -1.799134329525e-04 0.0 
7.441887683365e-05 6.563824298246e-04 0.0 
7.255621739264e-04 1.132406128531e-03 0.0 
4.006168168246e-04 3.746702377737e-04 0.0 
1.931135408225e-03 3.062564429901e-03 0.0 
2.213143484410e-03 6.540564041743e-03 0.0 
2.781040006826e-04 -1.578078856295e-05 0.0 
9.591370065260e-05 7.351064384393e-03 0.0 
1.260508588303e-05 1.622795158753e-06 0.0 
5.332743778499e-05 -3.222898884339e-04 0.0 
3.961952628652e-05 1.506871185250e-03 0.0 
2.216668176088e-03 7.259098768972e-03 0.0 
2.484673426398e-03 6.378633585621e-03 0.0 
2.340244617811e-03 6.563229279972e-03 0.0 
2.583950466808e-03 5.561724553117e-03 0.0 
2.447992945593e-03 5.553255300106e-03 0.0 
2.589876716844e-03 4.751068573531e-03 0.0 
2.725129975722e-03 4.665492190944e-03 0.0 
2.662109067512e-03 3.977576112194e-03 0.0 
2.778795547153e-03 3.841219700256e-03 0.0 
2.415941326305e-03 4.700050017923e-03 0.0 
2.662403317366e-03 3.265911786752e-03 0.0 
2.756124639450e-03 3.109327285054e-03 0.0 
2.598496456710e-03 2.636735057846e-03 0.0 
2.672115655428e-03 2.484989721254e-03 0.0 
2.785769384085e-03 2.866805204005e-03 0.0 
2.685193876868e-03 2.270929812404e-03 0.0 
2.748620146384e-03 2.562617405774e-03 0.0 
2.638809426020e-03 2.013670338108e-03 0.0 
2.547994549149e-03 1.783869951869e-03 0.0 
2.500517486864e-03 1.572245286647e-03 0.0 
2.541301646559e-03 1.735896758116e-03 0.0 
2.408632540327e-03 1.345737479155e-03 0.0 
2.404077921629e-03 1.455329704919e-03 0.0 
2.282463425131e-03 1.117563539047e-03 0.0 
2.238364448849e-03 1.183469649712e-03 0.0 
2.131945051247e-03 8.981704159162e-04 0.0 
2.146210325949e-03 8.512542339536e-04 0.0 
2.012336140234e-03 6.741324339926e-04 0.0 
1.967130381918e-03 6.956677604865e-04 0.0 
1.865255327581e-03 5.098296986828e-04 0.0 
1.795913121518e-03 5.140794177486e-04 0.0 
1.712160334334e-03 3.620902558601e-04 0.0 
1.753413346973e-03 3.664856800068e-04 0.0 
1.618151750610e-03 2.460136027635e-04 0.0 
1.558755308687e-03 2.326123232472e-04 0.0 
1.482126185911e-03 1.400126421451e-04 0.0 
1.410166418683e-03 1.216071710846e-04 0.0 
1.349540770670e-03 4.866297290076e-05 0.0 
1.270037855887e-03 2.813564198477e-05 0.0 
1.222612682011e-03 -2.917179870381e-05 0.0 
1.279401071507e-03 -3.959565924058e-06 0.0 
1.165127742287e-03 -6.925923947521e-05 0.0 
1.103457971389e-03 -9.455514072786e-05 0.0 
1.056879539239e-03 -1.243865397555e-04 0.0 
1.099136378171e-03 -9.521453160462e-05 0.0 
1.001535781370e-03 -1.420906717973e-04 0.0 
1.026531248250e-03 -1.099169621976e-04 0.0 
9.393755928772e-04 -1.501469279092e-04 0.0 
9.100990207910e-04 -1.812126781235e-04 0.0 
8.565744259405e-04 -1.839502940156e-04 0.0 
8.723800518520e-04 -1.506677959463e-04 0.0 
7.978218443933e-04 -1.804137353828e-04 0.0 
7.779685391543e-04 -2.124953564179e-04 0.0 
7.268617042093e-04 -2.052408422304e-04 0.0 
7.360744299669e-04 -1.719087470848e-04 0.0 
6.719915362684e-04 -1.940549028712e-04 0.0 
6.595656219540e-04 -2.259448627953e-04 0.0 
6.107812561228e-04 -2.125022365161e-04 0.0 
6.153224986685e-04 -1.797489354871e-04 0.0 
5.595892240083e-04 -1.967900275383e-04 0.0 
5.523439733461e-04 -2.278811113963e-04 0.0 
5.062094933142e-04 -2.108437463439e-04 0.0 
5.073460477943e-04 -1.794633988724e-04 0.0 
4.585050357013e-04 -1.928307328129e-04 0.0 
4.545790273526e-04 -1.616224733634e-04 0.0 
4.544117103621e-04 -2.227895603016e-04 0.0 
4.110561221601e-04 -2.041740385988e-04 0.0 
4.049731849412e-04 -2.328479162690e-04 0.0 
3.652764831510e-04 -2.138378696640e-04 0.0 
1.633651728211e-03 2.573599508480e-04 0.0 
3.586070787073e-04 -2.409786933669e-04 0.0 
3.942557567884e-04 -2.592710811487e-04 0.0 
3.214891685208e-04 -2.220953173391e-04 0.0 
3.243323152991e-04 -1.949296851422e-04 0.0 
3.146408569872e-04 -2.477020128447e-04 0.0 
2.795976530793e-04 -2.292293629433e-04 0.0 
2.731232897965e-04 -2.533766635207e-04 0.0 
1.300042577661e-03 1.050092744120e-04 0.0 
2.383855622934e-03 1.391038378298e-03 0.0 
2.396731138410e-04 -2.355979215953e-04 0.0 
2.340007171815e-04 -2.583361960514e-04 0.0 
2.646244501170e-04 -2.755928359641e-04 0.0 
2.271241296781e-04 -2.791871326936e-04 0.0 
2.272681163942e-03 5.442596444505e-03 0.0 
2.213921953294e-03 4.549172604351e-03 0.0 
2.081000425112e-03 5.238556501698e-03 0.0 
1.989545257725e-03 4.318672289980e-03 0.0 
1.871750276868e-03 4.947458861858e-03 0.0 
1.971377282529e-04 -2.629439409321e-04 0.0 
2.462860800449e-03 2.686138622029e-03 0.0 
2.062638528109e-03 3.686971197977e-03 0.0 
2.506906395191e-03 1.881253869206e-03 0.0 
1.867817143410e-03 7.102403443099e-04 0.0 
1.116407246248e-03 -6.300776537615e-05 0.0 
2.432689735711e-04 -2.112187705113e-04 0.0 
2.049065757293e-04 -2.184673231312e-04 0.0 
2.061126180531e-04 -1.940270234658e-04 0.0 
4.991635548622e-04 -1.470565112389e-04 0.0 
4.417386770529e-04 -1.301653935603e-04 0.0 
4.803545144575e-04 -1.147630014827e-04 0.0 
4.192575220910e-04 -9.945602424217e-05 0.0 
4.502315956398e-04 -8.379456448207e-05 0.0 
3.867716025496e-04 -7.060986717159e-05 0.0 
3.609558850462e-04 -8.488167554314e-05 0.0 
3.273700456136e-04 -5.830009550899e-05 0.0 
3.059522810301e-04 -7.129801178905e-05 0.0 
4.085762121048e-04 -5.541364945187e-05 0.0 
4.777355897775e-04 -6.680657506025e-05 0.0 
2.723912125482e-04 -4.707401765051e-05 0.0 
2.546318738771e-04 -5.890155426553e-05 0.0 
2.220932256299e-04 -3.710481403168e-05 0.0 
2.073265121342e-04 -4.779710937090e-05 0.0 
2.329527176749e-04 -7.046749744498e-05 0.0 
1.882967923315e-04 -5.851521733972e-05 0.0 
2.081001492381e-04 -8.175470754208e-05 0.0 
1.027349459084e-03 -7.573639862520e-05 0.0 
1.105341147049e-03 -2.980674433152e-05 0.0 
1.001359548171e-03 -4.149255731641e-05 0.0 
1.062936557603e-03 1.939704554582e-06 0.0 
9.466226146499e-04 -9.398042044033e-06 0.0 
9.877212620395e-04 2.977429675260e-05 0.0 
8.620600884798e-04 1.830782352313e-05 0.0 
8.335170267813e-04 -1.474235451557e-05 0.0 
2.479560508259e-03 2.086771961035e-03 0.0 
9.935499661173e-04 -1.488720536453e-04 0.0 
1.020632140026e-03 -1.143247022687e-04 0.0 
9.136791907646e-04 -1.673647049161e-04 0.0 
9.221027975321e-04 -1.274867301329e-04 0.0 
8.221962031362e-04 -1.791908363660e-04 0.0 
8.136422700242e-04 -1.332861237461e-04 0.0 
7.238784668295e-04 -1.840668806209e-04 0.0 
7.342649753382e-04 -2.217908127579e-04 0.0 
6.459430424719e-04 -2.262673835112e-04 0.0 
6.566551802429e-04 -2.569485147792e-04 0.0 
5.783428773639e-04 -2.614363352698e-04 0.0 
5.880820970041e-04 -2.858478382535e-04 0.0 
1.998973169568e-03 6.430653052184e-04 0.0 
1.117825927895e-03 4.899474519448e-05 0.0 
1.017893940597e-03 7.026375675346e-05 0.0 
1.161970016722e-03 9.836053959839e-05 0.0 
2.551349507484e-04 -2.956681810125e-04 0.0 
1.642172077179e-04 -3.797039471526e-05 0.0 
4.251152642237e-04 -3.950532658812e-05 0.0 
5.006942015048e-04 -4.888387476469e-05 0.0 
7.424214002570e-04 1.172999689616e-05 0.0 
1.920578002968e-04 -2.825561511882e-04 0.0 
7.013414096443e-04 -1.316398142372e-04 0.0 
7.905340588060e-04 -7.105847131806e-05 0.0 
1.751282326702e-03 4.007145194172e-03 0.0 
1.652495520902e-03 4.588622126656e-03 0.0 
4.349012844745e-04 -2.322114158124e-05 0.0 
1.623168762865e-04 -2.675248415668e-04 0.0 
2.852697041482e-04 -3.512609611138e-05 0.0 
5.578955987781e-04 -2.246768814054e-04 0.0 
1.472268631509e-04 -4.786229970047e-05 0.0 
1.254328666798e-04 -2.936153291282e-05 0.0 
3.321537519619e-04 -9.812028652771e-05 0.0 
1.033174578679e-03 1.107255589267e-04 0.0 
1.193486260151e-03 1.480494308058e-04 0.0 
6.570511041390e-04 -2.758301973653e-04 0.0 
5.884178078789e-04 -2.998452518530e-04 0.0 
5.277082817803e-04 -3.094600652822e-04 0.0 
5.288102294316e-04 -3.194016160131e-04 0.0 
5.803701336743e-04 -3.049671783476e-04 0.0 
5.201498124255e-04 -3.205289932429e-04 0.0 
4.749484113225e-04 -3.341097338382e-04 0.0 
4.664219429122e-04 -3.325524452148e-04 0.0 
5.051343127952e-04 -3.154494959939e-04 0.0 
4.520746636190e-04 -3.250639753183e-04 0.0 
4.186934660948e-04 -3.412076761744e-04 0.0 
4.044984939686e-04 -3.319227302307e-04 0.0 
1.361777928816e-04 -2.089412837841e-05 0.0 
5.016617616883e-04 -2.605724730291e-04 0.0 
2.818431594366e-03 3.240791503694e-03 0.0 
3.597921659923e-04 -1.699056170230e-05 0.0 
7.497725860681e-04 3.922187784815e-05 0.0 
1.504940266244e-03 3.634294442232e-03 0.0 
1.427441936415e-03 4.176872843455e-03 0.0 
1.524657781856e-03 5.166728127941e-03 0.0 
1.323492176305e-03 4.715793878424e-03 0.0 
1.201743766293e-03 3.724928213960e-03 0.0 
1.121992603532e-03 4.235218794479e-03 0.0 
1.202880588915e-03 5.245281041890e-03 0.0 
1.024817315122e-03 4.738944381229e-03 0.0 
1.073872683358e-03 5.760507624284e-03 0.0 
9.172735014396e-04 5.233017601191e-03 0.0 
8.496218683281e-04 4.216079477370e-03 0.0 
7.622516666826e-04 4.695510640599e-03 0.0 
8.049613435787e-04 5.717687911729e-03 0.0 
6.673205867745e-04 5.168767118117e-03 0.0 
6.917960077757e-04 6.192804251803e-03 0.0 
5.682572050292e-04 5.636047064358e-03 0.0 
5.338987059424e-04 4.616826879210e-03 0.0 
1.599894932699e-04 -2.855241957384e-04 0.0 
7.252724492161e-04 -1.600264723191e-05 0.0 
6.299461744282e-04 8.617579540035e-06 0.0 
1.704827337649e-04 -2.024079556753e-04 0.0 
1.699125664342e-04 -1.779707818752e-04 0.0 
2.048978099290e-04 -1.685990283433e-04 0.0 
1.657357005043e-04 -1.528665767986e-04 0.0 
4.459122675115e-04 5.082959665354e-03 0.0 
4.084117353963e-04 4.065709453731e-03 0.0 
6.662957553301e-04 -6.264728954532e-05 0.0 
7.523482059814e-04 9.832808478083e-06 0.0 
1.546491375156e-03 3.096344979603e-03 0.0 
1.098957386580e-04 -3.852635933292e-05 0.0 
1.263941503370e-04 -5.809525774166e-05 0.0 
1.678832498739e-03 5.146023128340e-04 0.0 
1.717465984753e-03 7.167678509617e-04 0.0 
1.519113607550e-03 5.134030312037e-04 0.0 
1.515707121036e-03 7.163564888279e-04 0.0 
1.739320456385e-03 9.698976503695e-04 0.0 
1.317230864736e-03 5.108059587287e-04 0.0 
5.517256848207e-04 -7.910455827665e-05 0.0 
6.816886082908e-04 3.684213863278e-03 0.0 
2.931162670355e-04 -2.928511516822e-04 0.0 
2.805279113993e-04 -3.118775830442e-04 0.0 
9.105837410898e-05 -2.207860778613e-05 0.0 
7.964372108120e-04 -4.632506551765e-05 0.0 
2.096435209024e-03 7.923351202053e-04 0.0 
1.923891355961e-03 6.009244391723e-04 0.0 
1.979799699518e-03 7.200409973720e-04 0.0 
1.784829163575e-03 5.465822314226e-04 0.0 
1.793843980987e-03 6.330391168560e-04 0.0 
1.580751334859e-03 4.794524455485e-04 0.0 
1.586804665683e-03 4.125792978457e-04 0.0 
1.028274167381e-03 1.485684805540e-04 0.0 
1.367883583144e-03 3.600209800677e-04 0.0 
4.749128523625e-04 6.107791500922e-03 0.0 
1.250560073562e-03 7.778670250293e-05 0.0 
4.842299508619e-04 -3.052702431179e-04 0.0 
1.884950130897e-04 -2.997511603022e-04 0.0 
3.758257049820e-04 -3.475896281341e-04 0.0 
1.294676569193e-04 -2.721858783844e-04 0.0 
1.310967698065e-04 -2.531571294643e-04 0.0 
3.553044414208e-04 -3.544562531891e-06 0.0 
1.537757504484e-03 5.302763704235e-04 0.0 
1.764034752176e-03 7.035159926240e-04 0.0 
1.496506838639e-03 9.716469827797e-04 0.0 
1.747353102561e-03 1.287942503738e-03 0.0 
8.630120001550e-04 1.123686119273e-04 0.0 
1.904243582989e-03 5.927821754800e-03 0.0 
1.227528154234e-03 6.271865372738e-03 0.0 
1.076282932546e-03 6.792231856208e-03 0.0 
1.320453793040e-04 -2.916317613436e-04 0.0 
3.869249118880e-04 -3.534817605811e-04 0.0 
9.814024409243e-04 3.245184684147e-03 0.0 
8.930219441954e-04 2.430327667141e-06 0.0 
8.545512040033e-04 9.716095259189e-05 0.0 
4.741169242863e-04 -2.182807593102e-04 0.0 
4.296250370391e-04 -2.554963164581e-04 0.0 
3.364498400460e-04 4.515566521296e-03 0.0 
2.968102676420e-04 3.514572458292e-03 0.0 
2.002663841323e-04 -1.427047767086e-04 0.0 
1.599935854179e-04 -1.276696953548e-04 0.0 
4.361794201017e-04 -7.035411123309e-06 0.0 
3.619821789719e-04 -3.365771329424e-04 0.0 
3.473159683659e-04 3.061679054220e-03 0.0 
6.987385239932e-04 -4.304611630575e-05 0.0 
7.532449909263e-04 -7.571738827024e-05 0.0 
1.307213700295e-04 -1.630003452795e-04 0.0 
6.170926262638e-04 2.412342855209e-05 0.0 
5.492452739371e-04 -4.834280838478e-05 0.0 
5.413060363562e-04 -2.943398398345e-04 0.0 
3.853601284970e-04 -3.190911253517e-04 0.0 
9.826936175680e-05 -2.594121625490e-04 0.0 
3.399680998640e-04 8.391505347631e-06 0.0 
1.012530921363e-03 2.758628724477e-03 0.0 
1.391961957397e-03 3.121196351369e-04 0.0 
1.564886383617e-03 3.394740305863e-04 0.0 
1.160032416197e-03 2.693471703449e-04 0.0 
3.398438429483e-04 -3.509756197483e-04 0.0 
2.825063626966e-04 -6.010689174278e-07 0.0 
7.645512709142e-05 -3.037335014174e-05 0.0 
1.468058989199e-03 5.698925617902e-04 0.0 
1.691044655576e-03 7.519028006655e-04 0.0 
1.011341379428e-03 9.155140293643e-05 0.0 
9.801081924587e-04 2.056551354859e-04 0.0 
8.005673874717e-04 2.167518165247e-04 0.0 
9.270872953603e-04 3.475746622986e-04 0.0 
2.811030725505e-03 4.446747929277e-03 0.0 
1.151895503234e-03 2.017483667385e-04 0.0 
2.731693658974e-03 2.837302410393e-03 0.0 
2.765974247720e-03 3.599498876727e-03 0.0 
2.629356382946e-03 3.089410569066e-03 0.0 
1.965399103511e-03 1.268192596907e-03 0.0 
1.999053584835e-03 1.669831398515e-03 0.0 
1.034271839736e-03 -6.439056227139e-05 0.0 
1.207980901168e-03 -8.704737508269e-06 0.0 
2.413413246851e-04 -1.590054352051e-04 0.0 
2.533447125467e-04 -9.547557258180e-05 0.0 
5.435972608767e-04 -1.303432029060e-04 0.0 
7.360523621315e-04 3.213990271991e-03 0.0 
5.609498746115e-04 2.688580280542e-03 0.0 
8.145262895290e-04 6.745957471955e-03 0.0 
6.910926695647e-04 7.220204101733e-03 0.0 
2.458652791917e-04 -3.135513076406e-04 0.0 
2.692098948309e-04 -3.286002053168e-04 0.0 
4.021887518455e-04 -1.438890366199e-04 0.0 
2.917629446616e-04 -1.125409138893e-05 0.0 
1.277191624451e-03 2.708759622150e-03 0.0 
1.256021420131e-03 2.216839903755e-03 0.0 
1.543558540013e-03 2.571556484679e-03 0.0 
4.266481100638e-04 8.432427062394e-06 0.0 
8.936995815843e-04 -1.934962910438e-04 0.0 
9.360931680042e-04 -8.076532489629e-05 0.0 
4.536880617140e-04 -2.901802655216e-04 0.0 
1.744836628666e-03 3.658804880263e-04 0.0 
2.381909878490e-04 -3.292620968435e-04 0.0 
2.380205172594e-03 1.538568499995e-03 0.0 
6.130855033321e-05 -1.587816160245e-05 0.0 
7.023645897530e-05 -9.433987389013e-06 0.0 
8.211701620169e-04 1.358897263737e-04 0.0 
2.548229510201e-03 6.177862426035e-03 0.0 
1.602000925850e-03 2.644594245345e-04 0.0 
1.508454659171e-03 1.758718342804e-04 0.0 
2.619759471157e-03 3.927982097428e-03 0.0 
2.448034696026e-03 3.305694357165e-03 0.0 
2.447149401147e-03 2.597284490739e-03 0.0 
2.252424713104e-03 2.746666673830e-03 0.0 
5.130973322342e-04 -2.820546734695e-04 0.0 
4.583397916334e-04 -2.916585545688e-04 0.0 
1.202322930373e-03 4.097930249201e-04 0.0 
1.095944261403e-03 2.925464368327e-04 0.0 
1.343112613291e-03 5.754836704175e-04 0.0 
1.565414562392e-03 7.633759176107e-04 0.0 
6.543237138368e-04 1.005671995685e-04 0.0 
7.078733732600e-04 8.493122316482e-05 0.0 
9.865225847201e-05 -2.397862136028e-04 0.0 
1.751026598163e-03 1.685482836587e-03 0.0 
7.789933727105e-04 2.278074472793e-03 0.0 
2.726842761820e-03 4.538130449278e-03 0.0 
2.197466687077e-04 1.847014377141e-06 0.0 
2.312052504761e-04 -6.863315519896e-06 0.0 
3.919715025818e-04 -2.866322387381e-04 0.0 
4.119231802348e-04 -3.181484901567e-04 0.0 
2.390020676061e-04 2.539901921459e-03 0.0 
7.321831032632e-04 3.617308831977e-04 0.0 
8.516097779476e-04 5.161791467150e-04 0.0 
6.358281209233e-04 2.332733309094e-04 0.0 
8.827452460705e-06 8.876800080750e-07 0.0 
1.712937678079e-04 9.164370560108e-03 0.0 
4.483150709598e-05 -5.343948229710e-06 0.0 
2.193607958349e-03 1.625317744864e-03 0.0 
2.630615334547e-04 2.055535677823e-03 0.0 
1.458964204238e-03 1.903342445262e-04 0.0 
1.493757165920e-03 3.474445971231e-04 0.0 
5.252305681395e-04 -1.011239302269e-05 0.0 
1.909601321826e-04 3.069317746011e-03 0.0 
1.448911757583e-04 1.980214934296e-03 0.0 
1.199287857304e-03 7.291426294378e-03 0.0 
1.040441664941e-03 7.827124406627e-03 0.0 
1.373792738772e-03 6.758520560748e-03 0.0 
5.284196499915e-04 -1.740170332979e-04 0.0 
4.286337121790e-04 -1.545776120060e-04 0.0 
5.253851183033e-04 3.147558335038e-03 0.0 
1.682180857536e-04 -2.255240686383e-04 0.0 
1.314520034628e-04 -2.077135234792e-04 0.0 
3.423664807363e-04 -3.235550746418e-04 0.0 
3.614470297022e-04 -3.041599515224e-04 0.0 
2.346931048787e-04 -1.324479549828e-04 0.0 
2.781963599671e-04 -1.490023451119e-04 0.0 
2.190450468331e-03 1.193389845333e-03 0.0 
2.135784382943e-03 1.283393059169e-03 0.0 
2.168023835826e-03 9.429301088591e-04 0.0 
6.651923241266e-04 -6.842685267754e-05 0.0 
7.060921727346e-04 -1.023699419121e-04 0.0 
7.876222688744e-04 -1.105349307895e-04 0.0 
5.813649661602e-04 2.261805442853e-03 0.0 
3.910358109988e-04 1.664671675684e-03 0.0 
5.725990275153e-04 -2.700542140656e-04 0.0 
6.038185357491e-04 -2.803436501928e-04 0.0 
4.802168537270e-04 -2.675050370600e-04 0.0 
7.594584698569e-04 1.835786050506e-03 0.0 
4.904986148360e-05 -1.411942652394e-06 0.0 
7.430859235888e-05 -4.064786334497e-06 0.0 
2.598094780938e-04 -3.424419273346e-04 0.0 
2.898562383398e-04 -3.420200209412e-04 0.0 
4.962623770931e-04 4.190989632698e-05 0.0 
4.433088366346e-04 -3.058670246244e-05 0.0 
1.202877410385e-03 1.776203094900e-03 0.0 
1.493203384147e-03 2.078408646272e-03 0.0 
8.792755874583e-04 1.371682843895e-03 0.0 
6.542013357277e-05 -2.486398902671e-04 0.0 
1.388021414157e-03 2.579492784235e-04 0.0 
3.213514668831e-04 1.909417455506e-05 0.0 
4.148611063944e-04 2.189425883456e-05 0.0 
2.254703008590e-04 1.596150293572e-05 0.0 
1.005167220944e-03 1.813114839585e-04 0.0 
7.579051504812e-04 1.499685036623e-04 0.0 
8.701778658960e-04 2.126825635694e-04 0.0 
3.646820400880e-04 -2.483968779424e-04 0.0 
1.071959943840e-04 2.386704854568e-03 0.0 
7.970636262541e-04 7.776656830068e-03 0.0 
3.443904618542e-04 -2.764283893595e-04 0.0 
6.688103208739e-04 8.284445681764e-03 0.0 
5.761512054606e-04 7.693121167034e-03 0.0 
5.652861654348e-04 8.778494741562e-03 0.0 
6.678337826875e-05 -2.663110835987e-04 0.0 
1.302219442321e-03 7.952091420346e-03 0.0 
1.515115896020e-03 7.246511560020e-03 0.0 
2.771995424553e-04 -3.564913900360e-04 0.0 
5.186991905569e-04 1.366215651683e-03 0.0 
2.345849293537e-04 -3.421318897531e-04 0.0 
2.124520451320e-04 -3.299558913215e-04 0.0 
1.637087005060e-04 2.868998315750e-06 0.0 
1.778584172867e-04 -3.103176105407e-06 0.0 
1.161679538973e-04 4.152610280669e-06 0.0 
1.349152973656e-04 -1.516852191432e-07 0.0 
1.850438655697e-04 -1.059448666877e-05 0.0 
1.407495869116e-04 -6.140033580914e-06 0.0 
8.971695003151e-04 8.413457991342e-03 0.0 
9.007281974343e-05 2.364263331073e-06 0.0 
1.019834430889e-04 -2.464822765840e-06 0.0 
5.816607773967e-05 2.342636443939e-06 0.0 
2.233168586505e-03 3.533698971757e-03 0.0 
1.068992374747e-03 5.048962756779e-04 0.0 
9.971676377369e-04 7.120201549960e-04 0.0 
7.484684918384e-04 7.269108679563e-04 0.0 
1.072659987103e-03 4.961028290047e-04 0.0 
1.407249724590e-03 7.481424840833e-04 0.0 
4.692601206788e-05 -2.311785582203e-05 0.0 
5.507993446768e-05 -3.902703112087e-05 0.0 
4.644179201198e-04 8.236687293208e-03 0.0 
3.399597256712e-04 8.276805290960e-03 0.0 
3.850989540024e-04 7.343233511889e-03 0.0 
2.767057821461e-04 7.453211226917e-03 0.0 
3.090247855206e-04 6.537051713383e-03 0.0 
1.978408352343e-04 6.651685486908e-03 0.0 
2.424856837541e-04 5.736271360627e-03 0.0 
7.639126997241e-04 2.145130528148e-04 0.0 
5.528506849914e-04 3.677540567344e-04 0.0 
2.512565360490e-03 5.029324478567e-03 0.0 
4.993435909240e-04 7.355065396934e-05 0.0 
5.815574618245e-04 6.679053324581e-05 0.0 
2.023841597744e-03 2.173328851728e-03 0.0 
1.754042714926e-03 2.179042358480e-03 0.0 
1.832523391502e-04 8.923773731565e-06 0.0 
1.160826442636e-03 9.401214163632e-05 0.0 
3.976454488349e-04 8.400010758199e-04 0.0 
2.732087814191e-04 -1.188994483434e-04 0.0 
3.400624198584e-04 -1.532314859575e-04 0.0 
1.311955517179e-03 2.061959912830e-04 0.0 
2.237619415100e-03 2.121373480990e-03 0.0 
1.259116150969e-03 7.092164663189e-04 0.0 
1.223190535184e-03 9.779385467731e-04 0.0 
6.057711202784e-04 -3.722931559952e-05 0.0 
3.068773226844e-04 -3.539926342184e-04 0.0 
5.592671865061e-04 1.281102361099e-04 0.0 
3.559436137252e-04 5.636060430251e-03 0.0 
4.341358914547e-04 1.400294349994e-04 0.0 
2.482734816103e-05 -2.971460019531e-05 0.0 
1.159311885621e-03 1.188042603308e-05 0.0 
2.130738528690e-03 1.234378469848e-03 0.0 
7.001373223227e-04 1.102467858348e-04 0.0 
1.141455643803e-03 3.446512224824e-04 0.0 
2.834771523457e-03 3.587566017464e-03 0.0 
2.695093266429e-03 5.400449696509e-03 0.0 
2.744336760420e-03 5.088976727123e-03 0.0 
1.138997720188e-03 -4.981258843485e-05 0.0 
1.473832780760e-03 1.291369470039e-03 0.0 
1.143528634435e-03 1.303012252288e-03 0.0 
2.650842530388e-03 2.223831216990e-03 0.0 
1.821819242767e-03 2.865211870617e-03 0.0 
1.778069660447e-03 2.333430936704e-03 0.0 
1.400407157978e-03 1.639124970382e-03 0.0 
1.681240192324e-03 1.853375023984e-03 0.0 
2.041059570064e-03 2.521355367499e-03 0.0 
1.943988914840e-03 2.012545127379e-03 0.0 
1.536025743900e-03 1.434896220989e-03 0.0 
1.795834461818e-03 1.566631516482e-03 0.0 
1.240385363294e-03 9.677114231421e-04 0.0 
1.591684817914e-03 1.177838828702e-03 0.0 
2.019512434283e-03 1.646994029263e-03 0.0 
1.833619756547e-03 1.273402994849e-03 0.0 
1.421506772354e-03 9.112577624535e-04 0.0 
2.208991404105e-03 1.691426736682e-03 0.0 
4.143092839792e-04 7.469469172827e-05 0.0 
1.456637900150e-03 2.188330244568e-04 0.0 
3.968302666377e-04 -2.072450339293e-04 0.0 
3.680569717937e-04 -9.940411254052e-05 0.0 
2.330953895687e-03 1.549736165906e-03 0.0 
6.404819893457e-04 4.908457820538e-04 0.0 
5.843169055949e-04 5.897260527380e-04 0.0 
9.150434597400e-04 -7.180919736151e-05 0.0 
5.304604870592e-04 2.232835711490e-04 0.0 
2.827620488505e-03 4.084404771842e-03 0.0 
6.236712132110e-04 -1.818706279675e-04 0.0 
4.619400129115e-04 1.579350637884e-04 0.0 
2.080952321426e-03 3.081498066150e-03 0.0 
2.314545335915e-03 3.237338186538e-03 0.0 
2.293856279952e-03 3.879035690348e-03 0.0 
4.760996329135e-04 6.242566728444e-04 0.0 
1.551912351379e-03 6.187451463523e-03 0.0 
2.965883264639e-04 6.903923409059e-05 0.0 
1.180748993384e-03 2.167501951636e-05 0.0 
1.297876935544e-03 5.204520153615e-05 0.0 
1.305645049984e-03 2.376015915223e-05 0.0 
2.174791652689e-03 2.118268518708e-03 0.0 
2.017112247496e-04 3.136767811170e-05 0.0 
3.543015726646e-04 4.401040487847e-05 0.0 
3.147464909204e-04 3.405065553698e-05 0.0 
4.827606478689e-04 4.186332490887e-05 0.0 
1.573157472943e-04 2.106966835905e-05 0.0 
5.777435023633e-04 3.425969913340e-04 0.0 
5.358692632762e-04 2.816043429571e-04 0.0 
5.640482584817e-04 -3.025186836351e-04 0.0 
6.294180902858e-04 -2.857841893090e-04 0.0 
6.719967209927e-04 -2.625528274762e-04 0.0 
7.010849495237e-04 -2.648390755603e-04 0.0 
6.475939082765e-04 -2.848467824994e-04 0.0 
7.218411706462e-04 -2.602211973818e-04 0.0 
7.788719327641e-04 -2.393374026500e-04 0.0 
7.330289102202e-04 -2.465758872457e-04 0.0 
1.806928633940e-03 1.019566449860e-03 0.0 
1.183937314249e-04 1.341045972850e-05 0.0 
5.172810791059e-04 -9.764153414250e-05 0.0 
5.871608085195e-04 -1.119131044297e-04 0.0 
6.078903428718e-04 -1.458891292028e-04 0.0 
2.828743362243e-04 -1.764757837464e-04 0.0 
3.223676105218e-04 -1.667228653601e-04 0.0 
3.148383249476e-04 -1.382065999815e-04 0.0 
2.440705209905e-04 -1.855436201638e-04 0.0 
1.745848357263e-03 4.530384227890e-04 0.0 
1.040095512095e-04 1.043227993743e-05 0.0 
8.442770359685e-04 -8.012871891746e-05 0.0 
3.668428491740e-04 -1.852974463450e-04 0.0 
1.591863821296e-03 8.553061217668e-03 0.0 
1.859557148767e-03 7.510257119285e-03 0.0 
2.075851380009e-03 7.138720192591e-03 0.0 
2.076884841200e-03 6.341258137842e-03 0.0 
1.645588584076e-03 7.687707349328e-03 0.0 
1.923418461622e-04 -1.170660828079e-04 0.0 
1.515927854854e-04 -1.030129728613e-04 0.0 
1.207692650291e-04 -1.139524097432e-04 0.0 
1.126722475063e-04 -9.028976743715e-05 0.0 
8.300635052131e-05 -1.014827326138e-04 0.0 
8.928289715252e-05 -1.246762338881e-04 0.0 
7.508625754685e-05 -7.874978484095e-05 0.0 
4.760536464407e-05 -9.264282837521e-05 0.0 
1.262065241760e-03 8.937949248426e-03 0.0 
3.285079788038e-04 -3.460742211810e-04 0.0 
3.565607780358e-04 -3.533766582739e-04 0.0 
3.462895252992e-04 -3.639096986702e-04 0.0 
3.794497016408e-04 -3.556312786517e-04 0.0 
3.956865421098e-04 -3.431782737886e-04 0.0 
4.278950486388e-04 -3.446563043439e-04 0.0 
4.402143517004e-04 -3.310532953450e-04 0.0 
3.629360939296e-04 -3.343268069523e-04 0.0 
3.219245908363e-04 -3.704241317207e-04 0.0 
3.337048674445e-04 -3.681007003845e-04 0.0 
3.122566569274e-04 -3.736857385179e-04 0.0 
3.172511135227e-04 -3.679842507480e-04 0.0 
3.473374941898e-04 -3.605852703499e-04 0.0 
3.037776598588e-04 -3.266321327858e-04 0.0 
2.480210484528e-05 2.327992178410e-06 0.0 
3.511848937661e-05 -1.566303429009e-04 0.0 
6.874666112310e-05 -1.699777076658e-04 0.0 
6.830825464924e-05 -1.921351332397e-04 0.0 
1.051455334616e-04 -1.831173567964e-04 0.0 
6.616760103895e-05 -1.484710141925e-04 0.0 
3.392549665128e-05 -2.020419766358e-04 0.0 
6.622683606624e-05 -2.114070659588e-04 0.0 
8.634110808661e-05 -3.249820060006e-04 0.0 
6.889956080831e-05 -3.103749306835e-04 0.0 
3.173840037218e-05 -3.091967704834e-04 0.0 
5.198044226854e-05 -2.956244235907e-04 0.0 
8.562954456908e-05 -2.995076954201e-04 0.0 
1.023095279156e-04 -3.143205356446e-04 0.0 
1.351460632675e-04 -3.199279378300e-04 0.0 
1.515515365462e-04 -3.351209738374e-04 0.0 
1.658370481780e-04 -3.263909915194e-04 0.0 
1.506886839634e-04 -3.099474999785e-04 0.0 
1.805960238505e-04 -3.416156281514e-04 0.0 
8.137209048279e-05 4.409483469009e-03 0.0 
1.575266383600e-04 3.910172266251e-03 0.0 
8.461744326950e-05 7.001237670566e-06 0.0 
9.892817863929e-04 9.016334113987e-03 0.0 
2.813262769452e-04 -3.687342046605e-04 0.0 
1.406838143431e-04 9.699076920189e-04 0.0 
2.247633403851e-04 7.875382456838e-04 0.0 
1.778213840154e-04 7.698547475753e-04 0.0 
1.488700323735e-05 -5.170369354982e-06 0.0 
2.390729305144e-05 -1.749430169431e-06 0.0 
7.560715778757e-05 9.475674729896e-04 0.0 
3.045148578558e-04 -2.713492276761e-04 0.0 
1.259526717069e-03 1.253840502507e-03 0.0 
3.843556797170e-04 2.607626902434e-03 0.0 
5.924852975968e-04 -1.232294847309e-04 0.0 
4.079856557946e-04 -2.989464356872e-04 0.0 
8.877589072325e-05 -4.795724315338e-05 0.0 
2.809925301817e-04 -8.362892551398e-05 0.0 
1.008229527426e-04 -1.455044464296e-05 0.0 
1.657220907620e-04 -6.925718559050e-05 0.0 
1.766424212180e-04 -2.838177649833e-05 0.0 
2.851061338566e-04 2.633377323548e-05 0.0 
9.955479063238e-05 -2.771355624657e-04 0.0 
9.428120518611e-04 6.260279062885e-03 0.0 
5.853051902999e-04 6.664261965390e-03 0.0 
6.129756580307e-04 4.152306901449e-03 0.0 
2.017018630141e-04 -2.415406259361e-04 0.0 
1.278218812125e-04 -1.371965729833e-04 0.0 
2.202188663194e-04 -2.979269135190e-04 0.0 
8.655257638698e-04 3.120639114004e-04 0.0 
2.587748356763e-03 2.428265760226e-03 0.0 
5.572889544093e-04 -1.638664909338e-04 0.0 
2.831143685966e-04 -2.034585841566e-04 0.0 
3.477882154217e-04 -2.658839029616e-04 0.0 
4.323843436798e-04 -3.133698623846e-04 0.0 
1.623936117056e-03 3.547934655150e-04 0.0 
4.103601228059e-04 -1.742933351180e-04 0.0 
3.443340551777e-04 -4.478563963927e-05 0.0 
4.733520938013e-04 3.607129490793e-03 0.0 
2.343576125506e-04 -3.542325182398e-04 0.0 
3.556179109258e-04 -3.083925824918e-05 0.0 
3.859125471488e-04 -1.137320751386e-04 0.0 
1.379772913949e-03 5.730422616645e-03 0.0 
8.795160834088e-04 5.133918858868e-05 0.0 
4.281958910790e-04 -3.454545638140e-04 0.0 
9.250443655214e-04 3.733464424557e-03 0.0 
9.851196138947e-04 1.868715418084e-03 0.0 
1.708859837722e-03 6.599739074157e-03 0.0 
2.138680249693e-04 -3.149474971484e-04 0.0 
9.337642008862e-04 7.307397018822e-03 0.0 
2.624122472356e-04 8.957079372054e-06 0.0 
1.810525060160e-03 3.426688340238e-03 0.0 
1.655784384989e-04 -2.473112982117e-04 0.0 
9.493759297493e-04 -1.159077850428e-04 0.0 
2.056361087790e-03 9.327916502222e-04 0.0 
2.246488655088e-03 7.043389096696e-03 0.0 
4.060409802288e-04 2.192474337368e-03 0.0 
1.516607783989e-03 1.592390005190e-04 0.0 
6.265224128351e-04 3.122940464392e-05 0.0 
8.978594223067e-04 -4.632214660213e-05 0.0 
1.331473026528e-04 -2.321838314880e-04 0.0 
2.351791298650e-04 -1.640570520136e-05 0.0 
1.200965122615e-03 -4.014576485535e-05 0.0 
7.720895447494e-04 2.750750505228e-03 0.0 
2.002485453540e-03 8.305051870671e-04 0.0 
9.563005109187e-04 -1.702563776500e-04 0.0 
1.256196671169e-03 3.214171118467e-03 0.0 
6.722594893172e-04 -1.600787296426e-04 0.0 
8.809873845006e-04 8.313770092051e-05 0.0 
2.403789227698e-03 2.015974264407e-03 0.0 
2.259285018462e-03 1.036562204875e-03 0.0 
2.543677651379e-03 1.964171438178e-03 0.0 
1.882403734045e-03 4.997801602341e-04 0.0 
6.130669745309e-05 -5.796597250584e-05 0.0 
2.922305857188e-04 -2.314074500142e-05 0.0 
5.201915835972e-04 -2.899400703642e-04 0.0 
1.329071255737e-03 3.428008210187e-04 0.0 
1.720140931679e-03 5.574544122429e-03 0.0 
1.318567715761e-03 3.986804207956e-04 0.0 
5.614242140976e-04 1.784342659292e-03 0.0 
1.924405313175e-03 9.569723666942e-04 0.0 
2.318069838532e-04 -2.655405304679e-05 0.0 
1.017242501448e-03 2.307526312851e-03 0.0 
3.622887261054e-04 -1.559598327353e-04 0.0 
3.152148749581e-05 -2.616204184691e-04 0.0 
4.926276451971e-04 -1.093124678097e-04 0.0 
8.182181547691e-04 -2.108309992412e-04 0.0 
1.397537935177e-03 7.215365031456e-05 0.0 
3.509301042514e-04 -1.266346175089e-04 0.0 
1.045054246993e-03 1.261862347957e-03 0.0 
1.838965463218e-04 -1.927643718263e-05 0.0 
5.166453322099e-04 -2.982176981533e-05 0.0 
3.020041781760e-04 6.488616376536e-05 0.0 
2.576066966074e-03 5.681227061680e-03 0.0 
1.415934025140e-04 -1.317219033611e-05 0.0 
8.693458543347e-04 -1.154952327466e-04 0.0 
7.395594647814e-04 6.416776482265e-05 0.0 
5.318446004437e-05 -1.134692053348e-04 0.0 
8.052741323007e-04 2.579374340144e-04 0.0 
2.054495814266e-03 2.824866390991e-03 0.0 
1.048427478381e-04 -8.147475370263e-06 0.0 
6.229412394032e-04 -1.441683004261e-05 0.0 
1.031023234371e-03 2.853018053348e-06 0.0 
2.836026979924e-04 9.167810710270e-03 0.0 
6.445829365933e-05 8.972166389693e-07 0.0 
5.220912040051e-04 8.882287626933e-06 0.0 
1.843807743326e-03 4.817080984421e-04 0.0 
8.018825438543e-04 -1.458793883201e-04 0.0 
2.171600838517e-03 5.716468727565e-03 0.0 
3.011147706669e-04 -1.103557730912e-04 0.0 
2.341763683128e-03 1.220546901845e-03 0.0 
4.183541086430e-04 6.401122670791e-04 0.0 
5.163325781896e-04 2.608232076344e-05 0.0 
2.498260696558e-03 3.998251032991e-03 0.0 
2.685463019308e-04 -1.218008828247e-04 0.0 
1.312518307553e-03 1.366806296489e-04 0.0 
1.184217852581e-04 -3.042899699584e-04 0.0 
2.391692576098e-03 4.274460673077e-03 0.0 
2.236415265539e-04 -1.064661023479e-04 0.0 
8.033286391925e-04 -2.301837146730e-04 0.0 
7.298482923578e-04 -1.371473263914e-04 0.0 
5.866675927385e-04 1.077847600491e-04 0.0 
1.808639750090e-04 -9.240341963540e-05 0.0 
8.637607067295e-04 -2.081305897388e-04 0.0 
1.403585407614e-04 -7.966939581746e-05 0.0 
2.145089731957e-03 3.747617906282e-03 0.0 
2.510763379085e-03 3.299654219463e-03 0.0 
1.009782020763e-04 -6.817181250368e-05 0.0 
2.200619925405e-03 1.078164496174e-03 0.0 
1.830549194780e-04 -3.166368934974e-04 0.0 
1.683182796119e-03 3.576705113123e-04 0.0 
3.546408306466e-05 -1.013546466413e-05 0.0 
4.434832496984e-04 -2.509181093471e-04 0.0 
6.584315178535e-04 -1.256922812897e-04 0.0 
2.272850161810e-03 2.644829318421e-03 0.0 
1.443055878147e-03 2.351856731376e-03 0.0 
6.284947282775e-04 -9.140731678163e-05 0.0 
1.984959950958e-03 9.220543125945e-04 0.0 
1.522538758715e-03 2.657136749525e-04 0.0 
1.409517849441e-03 9.616065817090e-05 0.0 
5.812553966316e-04 -5.882201363239e-05 0.0 
1.441042193088e-03 1.685195943319e-03 0.0 
3.325704131743e-04 -2.888658222977e-04 0.0 
3.188285686918e-04 -3.088375027454e-04 0.0 
8.246360058913e-04 -2.137814249142e-04 0.0 
1.920611951486e-03 9.880175690221e-04 0.0 
7.328372238880e-05 -2.846633212381e-04 0.0 
2.355365583163e-03 2.141520993985e-03 0.0 
3.235565447251e-04 -3.399668856363e-04 0.0 
7.455399679130e-04 -2.405869286428e-04 0.0 
1.200954375053e-03 1.960648520211e-04 0.0 
9.065550120966e-05 6.394349603443e-03 0.0 
7.052426588802e-04 -2.355634136278e-04 0.0 
3.100886088864e-05 -2.427820920126e-04 0.0 
6.367828126189e-04 -2.547482016304e-04 0.0 
1.381661819329e-03 1.184475883315e-04 0.0 
5.966380781422e-04 -2.425767891749e-04 0.0 
5.366200233612e-04 -2.563895126258e-04 0.0 
2.739533353848e-04 1.667606598838e-03 0.0 
4.969355871698e-04 -2.402691671169e-04 0.0 
3.772967238885e-05 7.841404247324e-04 0.0 
1.010759965103e-05 2.199064218919e-06 0.0 
1.096647357685e-04 8.396026124169e-03 0.0 
8.433265338506e-04 1.506456209934e-03 0.0 
3.032426904931e-04 -2.396965852449e-04 0.0 
9.630766900394e-04 9.518361907450e-04 0.0 
4.281757060953e-04 -2.763205285275e-04 0.0 
2.323883598289e-03 1.643353054934e-03 0.0 
2.281318602131e-04 8.351757470216e-03 0.0 
3.788956972375e-04 -2.831729355163e-04 0.0 
1.099000265457e-03 7.299686619010e-04 0.0 
3.598672292745e-04 1.003529008705e-04 0.0 
1.723786923504e-04 4.854561409358e-03 0.0 
6.173027969880e-04 5.117885894824e-05 0.0 
1.357729035877e-03 1.979052310689e-04 0.0 
5.305220095088e-05 2.486416553560e-03 0.0 
6.394692488987e-04 9.248582453438e-03 0.0 
2.982330870486e-04 -3.645091566755e-04 0.0 
2.899274056722e-05 -4.726086721462e-05 0.0 
5.639621690910e-04 9.160651708833e-04 0.0 
6.310540826468e-04 5.193308550330e-04 0.0 
4.827356389718e-04 2.421304413916e-04 0.0 
9.959204971563e-05 -2.201989492799e-04 0.0 
3.625619620298e-04 -3.613847424551e-04 0.0 
4.536030271118e-04 5.204203339975e-04 0.0 
4.041018101663e-04 5.589040995240e-05 0.0 
1.132537954038e-03 8.240922691091e-03 0.0 
1.208523105505e-03 2.403528527137e-04 0.0 
3.630205927677e-04 2.501890895065e-04 0.0 
7.209976132119e-04 1.466403833420e-03 0.0 
6.364431388647e-04 1.460746083433e-04 0.0 
5.583628911084e-05 4.250120397090e-06 0.0 
9.525693903272e-04 2.021793084814e-04 0.0 
3.886873503321e-04 5.330658963525e-05 0.0 
1.850887668311e-03 6.826110717715e-03 0.0 
9.193473404549e-04 3.711765742742e-04 0.0 
2.405205513747e-04 4.052267028254e-03 0.0 
3.924654526957e-05 3.154946076980e-06 0.0 
1.434935496717e-03 8.132903179153e-03 0.0 
1.634010263178e-04 1.560797499021e-03 0.0 
4.720358973269e-04 -3.125500339755e-04 0.0 
8.229679399217e-05 1.518115327844e-03 0.0 
2.016523210348e-03 1.314180856980e-03 0.0 
4.904869448886e-04 7.130756756852e-03 0.0 
2.263172383853e-03 6.217564712793e-03 0.0 
2.856114289464e-05 8.071994625530e-07 0.0 
1.091076268996e-03 9.506076136953e-04 0.0 
3.533245335823e-04 -3.223107410336e-05 0.0 
2.705504767103e-04 4.958371136951e-03 0.0 
1.417397874583e-04 -1.867975329331e-04 0.0 
3.554169230858e-04 -3.069001317599e-04 0.0 
1.478367618257e-04 6.745259814963e-06 0.0 
1.637444579764e-03 9.893996620341e-04 0.0 
4.842576455652e-05 9.138746770101e-07 0.0 
2.321021912451e-05 -2.954583006066e-04 0.0 
2.526998617014e-04 -3.522033483708e-04 0.0 
1.756473670994e-04 1.168696534246e-05 0.0 
9.706928485384e-04 5.032934454601e-04 0.0 
4.814190245671e-04 -3.292350164300e-04 0.0 
2.450886106067e-04 5.959380049688e-04 0.0 
3.087626454117e-04 -8.711603716316e-05 0.0 
8.538300965540e-04 9.332343587930e-03 0.0 
1.921848265533e-04 -3.341155960376e-04 0.0 
3.058197042572e-05 2.707119521182e-06 0.0 
4.152684455123e-04 1.455649854290e-03 0.0 
9.488736419440e-05 -1.610488691086e-04 0.0 
2.009060135847e-03 7.739380389969e-03 0.0 
6.438252733233e-05 -2.310287758645e-04 0.0 
1.035843249261e-03 3.103500667598e-04 0.0 
3.222467617453e-04 -3.598552526474e-04 0.0 
2.770035338030e-04 1.394947986218e-03 0.0 
2.201144367117e-04 1.980564263563e-05 0.0 
8.479569043569e-04 1.126950412001e-03 0.0 
1.860817338621e-04 3.665735973953e-05 0.0 
3.373110173609e-04 -2.075652299394e-04 0.0 
5.995355611754e-04 1.538083320232e-04 0.0 
4.030297922691e-04 3.165156915450e-05 0.0 
4.850570160997e-04 9.291865118328e-03 0.0 
1.011939831367e-03 1.064051691440e-03 0.0 
9.686872313786e-05 -2.020021689554e-04 0.0 
1.616734571925e-04 -2.999400577192e-04 0.0 
1.590404200127e-05 6.949880774049e-04 0.0 
2.547092134329e-05 -3.224807518900e-04 0.0 
8.322443836757e-05 9.280879850780e-03 0.0 
3.912349482099e-06 1.620153812868e-06 0.0 
1.017886991177e-04 -2.913231182648e-04 0.0 
1.857447375461e-04 7.652611989574e-03 0.0 
9.679852617732e-04 5.646415973202e-04 0.0 
2.325751555748e-05 -1.088123107372e-04 0.0 
1.208996662086e-04 3.127955186321e-03 0.0 
3.956490825785e-04 -3.535962291918e-04 0.0 
3.082857831071e-04 -2.876722151661e-04 0.0 
1.589916217804e-04 5.887721681503e-03 0.0 
5.251234888270e-04 1.102612474285e-04 0.0 
6.744030916192e-04 1.183893350047e-03 0.0 
4.019402335929e-04 6.575645488194e-03 0.0 
4.220941953840e-04 -8.593103133381e-05 0.0 
1.295028389684e-03 7.438867874677e-04 0.0 
9.777839509680e-05 -1.430901646583e-04 0.0 
1.174364027126e-03 4.515653531668e-04 0.0 
4.969730481106e-04 5.292932839733e-05 0.0 
2.657057975870e-04 -6.592015304577e-05 0.0 
1.971632254569e-05 -8.672569262431e-05 0.0 
2.153751723547e-04 -3.416545590990e-04 0.0 
9.286807159816e-05 3.594503258552e-06 0.0 
6.380395934761e-05 -1.304912646792e-04 0.0 
1.060468462086e-03 8.571227633718e-03 0.0 
6.625347450922e-05 1.155877884007e-02 0.0 
1.565810358020e-03 8.837871288892e-03 0.0 
5.550288928010e-05 1.053771946777e-02 0.0 

VECTORS node_materi_displacement float
0.0 6.406775262709e-02 0.0 
0.0 1.444104785442e-01 0.0 
0.0 0.0 0.0 
0.0 0.0 0.0 
0.0 6.501379201202e-02 0.0 
0.0 6.525949412874e-02 0.0 
0.0 6.484792033847e-02 0.0 
0.0 6.377805496760e-02 0.0 
0.0 6.207568124257e-02 0.0 
0.0 5.988737537560e-02 0.0 
0.0 5.729911232580e-02 0.0 
0.0 5.437587631376e-02 0.0 
0.0 5.117964707097e-02 0.0 
0.0 4.774902815577e-02 0.0 
0.0 4.409373222484e-02 0.0 
0.0 4.022563038721e-02 0.0 
0.0 3.613480716465e-02 0.0 
0.0 3.181337839577e-02 0.0 
0.0 2.722986913704e-02 0.0 
0.0 2.236713140169e-02 0.0 
0.0 1.721681878326e-02 0.0 
0.0 1.176715182210e-02 0.0 
0.0 6.025310131560e-03 0.0 
0.0 0.0 0.0 
0.0 0.0 0.0 
0.0 0.0 0.0 
0.0 0.0 0.0 
0.0 0.0 0.0 
0.0 0.0 0.0 
0.0 0.0 0.0 
0.0 0.0 0.0 
0.0 0.0 0.0 
0.0 0.0 0.0 
0.0 0.0 0.0 
0.0 0.0 0.0 
0.0 0.0 0.0 
0.0 0.0 0.0 
0.0 0.0 0.0 
0.0 0.0 0.0 
0.0 0.0 0.0 
0.0 0.0 0.0 
0.0 0.0 0.0 
0.0 0.0 0.0 
0.0 0.0 0.0 
0.0 0.0 0.0 
0.0 0.0 0.0 
0.0 0.0 0.0 
0.0 0.0 0.0 
0.0 0.0 0.0 
0.0 0.0 0.0 
0.0 0.0 0.0 
0.0 0.0 0.0 
0.0 0.0 0.0 
0.0 0.0 0.0 
0.0 0.0 0.0 
0.0 0.0 0.0 
0.0 0.0 0.0 
0.0 0.0 0.0 
0.0 0.0 0.0 
0.0 0.0 0.0 
0.0 0.0 0.0 
0.0 0.0 0.0 
0.0 0.0 0.0 
0.0 0.0 0.0 
0.0 0.0 0.0 
0.0 0.0 0.0 
0.0 0.0 0.0 
0.0 0.0 0.0 
0.0 0.0 0.0 
0.0 0.0 0.0 
0.0 0.0 0.0 
0.0 0.0 0.0 
0.0 1.314552462627e-01 0.0 
0.0 1.180978123394e-01 0.0 
0.0 1.043589679724e-01 0.0 
0.0 9.027075331336e-02 0.0 
0.0 7.585877187131e-02 0.0 
0.0 6.115480424121e-02 0.0 
0.0 4.618899686755e-02 0.0 
0.0 3.099032578649e-02 0.0 
0.0 1.559225022262e-02 0.0 
-8.421898072081e-03 -7.531985093507e-03 0.0 
3.236773228231e-02 1.319612078140e-01 0.0 
-6.259319546422e-04 2.200073943557e-02 0.0 
7.013770431934e-03 4.649403645595e-02 0.0 
1.423882974803e-02 6.889671076271e-02 0.0 
2.090173214628e-02 8.920135363697e-02 0.0 
2.701500330072e-02 1.071659344112e-01 0.0 
3.218525984963e-02 1.219179396543e-01 0.0 
3.559500493670e-02 1.324103543436e-01 0.0 
3.575413141115e-02 1.379449156794e-01 0.0 
3.476126712558e-02 1.372385512222e-01 0.0 
0.0 1.690359871450e-01 0.0 
0.0 1.569467285167e-01 0.0 
1.841975901113e-03 1.444113630501e-01 0.0 
3.680340249676e-03 1.444059340296e-01 0.0 
5.537816934754e-03 1.443781880405e-01 0.0 
7.418362093571e-03 1.443198806168e-01 0.0 
9.328563168322e-03 1.442258645373e-01 0.0 
1.127040768543e-02 1.440538344730e-01 0.0 
1.326565913761e-02 1.438064890948e-01 0.0 
1.530847988039e-02 1.434199062689e-01 0.0 
1.742927102950e-02 1.428859692275e-01 0.0 
1.963467632187e-02 1.421233714646e-01 0.0 
2.193001018227e-02 1.410732638088e-01 0.0 
2.434113384071e-02 1.396465953419e-01 0.0 
2.687319741689e-02 1.377446719487e-01 0.0 
2.953593512287e-02 1.352305053241e-01 0.0 
-5.079364604367e-03 -2.284078215807e-02 0.0 
-8.677860476169e-05 -3.110542765671e-02 0.0 
5.395581571933e-03 -3.415975711052e-02 0.0 
1.136881358220e-02 -3.162032772719e-02 0.0 
1.584583688269e-02 -2.105478648937e-02 0.0 
1.850361578525e-02 -7.528359244064e-03 0.0 
1.952197762924e-02 2.966221706015e-03 0.0 
1.980821008867e-02 1.179139991571e-02 0.0 
1.990392709804e-02 1.963570792627e-02 0.0 
1.970589664652e-02 2.690912841305e-02 0.0 
1.912888977590e-02 3.359792621417e-02 0.0 
1.823759829189e-02 3.963499255576e-02 0.0 
1.696538088172e-02 4.516526470034e-02 0.0 
1.524897233594e-02 5.010810327259e-02 0.0 
1.319365020559e-02 5.435664294051e-02 0.0 
1.089355092850e-02 5.781381796968e-02 0.0 
8.386642201809e-03 6.055920462881e-02 0.0 
5.713022505532e-03 6.256277783374e-02 0.0 
2.872422653105e-03 6.370400139878e-02 0.0 
1.850768194776e-03 1.690714062347e-01 0.0 
3.631074095264e-03 1.690407462332e-01 0.0 
5.421632164384e-03 1.690132374098e-01 0.0 
7.222142212036e-03 1.689605274498e-01 0.0 
9.030460012755e-03 1.688630315346e-01 0.0 
1.084752540293e-02 1.687008593110e-01 0.0 
1.267164988377e-02 1.684496440786e-01 0.0 
1.450442265248e-02 1.680708438268e-01 0.0 
1.634888406345e-02 1.675250436856e-01 0.0 
1.820285956933e-02 1.667591932906e-01 0.0 
2.006468958621e-02 1.656909095121e-01 0.0 
2.193967729367e-02 1.642387990271e-01 0.0 
2.384120016145e-02 1.622935265060e-01 0.0 
2.579715811869e-02 1.597238770445e-01 0.0 
2.779859739687e-02 1.563497881944e-01 0.0 
2.991294509984e-02 1.519505650000e-01 0.0 
3.210975188736e-02 1.461661384255e-01 0.0 
3.197489480948e-02 1.422208021102e-01 0.0 
2.946871364652e-02 1.459781690692e-01 0.0 
2.704968210837e-02 1.488479836834e-01 0.0 
2.476455253137e-02 1.510670793279e-01 0.0 
2.258118017959e-02 1.527483891972e-01 0.0 
2.047826918978e-02 1.540057451501e-01 0.0 
1.843483239674e-02 1.549336947445e-01 0.0 
1.645475083941e-02 1.556040474877e-01 0.0 
1.452181776922e-02 1.560807498458e-01 0.0 
1.263215216583e-02 1.564180799398e-01 0.0 
1.077305295573e-02 1.566392811072e-01 0.0 
8.943203145593e-03 1.567871018497e-01 0.0 
7.132833280852e-03 1.568731156087e-01 0.0 
5.340634202812e-03 1.569225907234e-01 0.0 
3.560618430701e-03 1.569439248022e-01 0.0 
1.778120077589e-03 1.569176906854e-01 0.0 
-4.058319414738e-03 8.579827945198e-03 0.0 
3.170897224188e-03 3.445154420072e-02 0.0 
1.068132301082e-02 5.793687313968e-02 0.0 
1.763875477887e-02 7.931602316393e-02 0.0 
2.408149128876e-02 9.858203921143e-02 0.0 
2.978740651590e-02 1.150691886096e-01 0.0 
3.418081522790e-02 1.277404178685e-01 0.0 
3.623730092104e-02 1.358199781730e-01 0.0 
3.540245496541e-02 1.382023906570e-01 0.0 
3.376311153249e-02 1.350280020463e-01 0.0 
1.225892240896e-02 3.327565961871e-02 0.0 
3.209726353093e-03 4.019354780842e-03 0.0 
1.384797682962e-02 2.315435059923e-02 0.0 
8.091801744454e-03 -2.536839836490e-02 0.0 
3.274224032958e-04 4.022280330542e-03 0.0 
2.584496086766e-02 7.634084440265e-02 0.0 
-1.035573230735e-03 4.567578993294e-02 0.0 
5.922319814681e-03 4.994431691914e-03 0.0 
3.646050236260e-02 1.081411108303e-01 0.0 
7.661030484710e-03 6.505540632365e-03 0.0 
3.984346499624e-02 1.258864171786e-01 0.0 
-6.438965734324e-04 4.222613533773e-03 0.0 
1.219073277677e-02 4.862701921335e-02 0.0 
8.274526631991e-03 8.723392881456e-03 0.0 
3.526151398360e-02 1.235480192633e-01 0.0 
-7.388607517242e-04 5.828469172230e-02 0.0 
-8.803219065590e-04 3.474499890371e-02 0.0 
7.970013000029e-03 1.069141921628e-02 0.0 
5.872032084864e-03 1.177889677568e-02 0.0 
1.809931464302e-03 1.322666908855e-02 0.0 
3.294202291806e-03 1.410184583538e-02 0.0 
4.297346942168e-03 1.222158058961e-02 0.0 
2.867954736583e-02 1.252600890497e-01 0.0 
1.875570150954e-02 1.308164177249e-01 0.0 
1.232065725454e-02 1.319159694542e-01 0.0 
1.208581100096e-03 8.287744201660e-02 0.0 
-7.005503397317e-04 4.967885997006e-03 0.0 
3.081078226010e-03 -2.434372769159e-02 0.0 
7.418825131432e-03 5.997872329630e-02 0.0 
-5.473503632941e-04 2.016368509679e-02 0.0 
6.342432603718e-03 1.332108656838e-01 0.0 
4.315575158225e-04 6.408078734302e-02 0.0 
7.837646315242e-03 1.281951908262e-02 0.0 
6.421793457531e-03 5.237049374714e-03 0.0 
8.056329580272e-03 7.478415238923e-03 0.0 
4.952976934328e-03 4.686559499964e-03 0.0 
1.783255757662e-03 3.680374221033e-03 0.0 
1.120615140735e-02 -2.378759102392e-03 0.0 
2.348131138245e-02 1.295139751818e-01 0.0 
-4.071455920181e-04 4.871523984584e-03 0.0 
9.167738032517e-04 5.433640594787e-02 0.0 
1.375242917917e-02 3.677961622251e-02 0.0 
-1.030895921213e-03 5.256125377893e-02 0.0 
9.141178120196e-04 1.080330864497e-02 0.0 
3.185651965570e-02 9.257321597115e-02 0.0 
1.921357888066e-02 5.599831244157e-02 0.0 
3.944312554020e-02 1.192514289800e-01 0.0 
3.831439745755e-02 1.272204389781e-01 0.0 
4.338757660769e-03 8.175132308435e-03 0.0 
1.457215864739e-03 1.096283535603e-01 0.0 
-3.640683470807e-04 4.075909161451e-03 0.0 
3.447288260766e-03 6.401178154079e-02 0.0 
5.052557289340e-04 2.445367006298e-02 0.0 
3.372372680673e-02 1.196092089859e-01 0.0 
3.585777946420e-02 1.117156969576e-01 0.0 
3.298956337423e-02 1.093593197247e-01 0.0 
3.526422335107e-02 1.000835155521e-01 0.0 
3.249425181658e-02 9.598529949370e-02 0.0 
3.397995700669e-02 8.793675161713e-02 0.0 
3.695900417099e-02 9.144657919199e-02 0.0 
3.507515086947e-02 7.980471445280e-02 0.0 
3.816724386746e-02 8.290451079477e-02 0.0 
3.087467187715e-02 8.346658362492e-02 0.0 
3.567990722647e-02 7.172535847126e-02 0.0 
3.883167647455e-02 7.445558538789e-02 0.0 
3.576298611845e-02 6.383069077702e-02 0.0 
3.891364476849e-02 6.623829866973e-02 0.0 
4.174283914899e-02 7.622399265207e-02 0.0 
4.179024529072e-02 6.772245926722e-02 0.0 
4.429544227705e-02 7.694213778570e-02 0.0 
4.430020732085e-02 6.815836155127e-02 0.0 
4.123224939033e-02 5.965464544220e-02 0.0 
4.365372795092e-02 5.990475223071e-02 0.0 
4.630280398203e-02 6.753451832251e-02 0.0 
4.556447667085e-02 5.912441940753e-02 0.0 
4.774600176532e-02 6.583599584186e-02 0.0 
4.688917565937e-02 5.730018458571e-02 0.0 
4.859178838774e-02 6.305863423319e-02 0.0 
4.760265053061e-02 5.448457322301e-02 0.0 
4.536000285672e-02 4.951961951124e-02 0.0 
4.592995138192e-02 4.675709033168e-02 0.0 
4.766088743967e-02 5.074986416418e-02 0.0 
4.583175730155e-02 4.313776516116e-02 0.0 
4.704984730173e-02 4.619263517626e-02 0.0 
4.505510521278e-02 3.879468399654e-02 0.0 
4.335172089001e-02 3.651600658485e-02 0.0 
4.239914143678e-02 3.247689517023e-02 0.0 
4.357797464902e-02 3.381471894932e-02 0.0 
4.065716780794e-02 2.776112013964e-02 0.0 
4.134363251633e-02 2.811739678060e-02 0.0 
3.813612747065e-02 2.245188478268e-02 0.0 
3.839042522764e-02 2.192833598449e-02 0.0 
3.489244951082e-02 1.686212402003e-02 0.0 
3.434040714634e-02 1.806672169054e-02 0.0 
3.086362787859e-02 1.320704073391e-02 0.0 
3.105077070474e-02 1.133292832595e-02 0.0 
2.687661380628e-02 8.633438427189e-03 0.0 
2.651566525193e-02 1.093519305696e-02 0.0 
2.249831562427e-02 7.363243552554e-03 0.0 
2.205566508672e-02 9.905497828290e-03 0.0 
1.811894562085e-02 7.340895375075e-03 0.0 
1.829249788045e-02 4.534035313476e-03 0.0 
1.411277012041e-02 5.605091468584e-03 0.0 
1.397381080330e-02 8.325177415819e-03 0.0 
1.026073260927e-02 7.542958591618e-03 0.0 
1.021052986089e-02 4.821075912323e-03 0.0 
6.782826752983e-03 7.696843565874e-03 0.0 
6.988270887835e-03 9.841426778346e-03 0.0 
3.959423083400e-03 1.065372682402e-02 0.0 
3.653155968792e-03 8.772536238657e-03 0.0 
1.296956201534e-03 1.229030834942e-02 0.0 
1.624875758299e-03 1.366959575113e-02 0.0 
-6.931574652829e-04 1.586599980680e-02 0.0 
-9.779740906865e-04 1.476231918392e-02 0.0 
-2.594778632377e-03 1.876216536361e-02 0.0 
-2.290390548793e-03 1.933724550721e-02 0.0 
-3.842191240183e-03 2.252835217580e-02 0.0 
-3.456710703430e-03 2.249475278664e-02 0.0 
-4.066885623670e-03 2.233855526607e-02 0.0 
-4.963027464662e-03 2.623867917800e-02 0.0 
-5.044725671998e-03 2.646257014291e-02 0.0 
-5.633001942554e-03 3.035902270875e-02 0.0 
4.028677437031e-02 3.089104977338e-02 0.0 
-5.487049552404e-03 3.095565439829e-02 0.0 
-4.809354064856e-03 2.651691903061e-02 0.0 
-5.841160006588e-03 3.475650845441e-02 0.0 
-5.886070977385e-03 3.365448264576e-02 0.0 
-5.427212467157e-03 3.570407070818e-02 0.0 
-5.620164097936e-03 3.930293934342e-02 0.0 
-4.919782336727e-03 4.054349963403e-02 0.0 
4.116187467555e-02 2.835314571448e-02 0.0 
4.008198532482e-02 5.210397004660e-02 0.0 
-5.023196688175e-03 4.384440167274e-02 0.0 
-4.049229949659e-03 4.530857258859e-02 0.0 
-3.667316981976e-03 4.161995481243e-02 0.0 
-2.490369737493e-03 4.655696384331e-02 0.0 
2.952705943109e-02 9.132261428985e-02 0.0 
2.766627432560e-02 7.832515477724e-02 0.0 
2.651858436694e-02 8.601036312854e-02 0.0 
2.439680603440e-02 7.265634080477e-02 0.0 
2.345467485267e-02 8.005865613555e-02 0.0 
-2.929429611250e-03 4.984105681720e-02 0.0 
3.234446106739e-02 6.019012689068e-02 0.0 
2.499419104553e-02 6.511353315707e-02 0.0 
4.790985866944e-02 7.506641273749e-02 0.0 
4.833748636374e-02 5.465465637299e-02 0.0 
2.569641724719e-02 1.304772776452e-02 0.0 
-5.510515662977e-03 4.217922759345e-02 0.0 
-4.831573328153e-03 4.639245124452e-02 0.0 
-5.121665507905e-03 4.431545963807e-02 0.0 
-1.852058406030e-03 1.962074719577e-02 0.0 
-2.916377575128e-03 2.212931521640e-02 0.0 
-1.293176811786e-03 1.951211050314e-02 0.0 
-2.289096577880e-03 2.135124427044e-02 0.0 
-7.156185256002e-04 1.892191642858e-02 0.0 
-1.702851507894e-03 2.009631152319e-02 0.0 
-2.941851705710e-03 2.274576999643e-02 0.0 
-2.365157965608e-03 2.085318219496e-02 0.0 
-3.300437733653e-03 2.366383379951e-02 0.0 
-2.950959145481e-04 1.777489345970e-02 0.0 
1.041483019281e-03 1.689492717040e-02 0.0 
-2.734881644259e-03 2.117534924987e-02 0.0 
-3.405740115454e-03 2.409334199131e-02 0.0 
-2.856833496159e-03 2.105286978817e-02 0.0 
-3.296799659821e-03 2.404520648671e-02 0.0 
-3.853720935328e-03 2.719504224662e-02 0.0 
-3.522471766226e-03 2.716611538887e-02 0.0 
-4.066022685491e-03 3.042671017187e-02 0.0 
2.126764876955e-02 1.214428607551e-02 0.0 
2.442636420606e-02 1.475247838595e-02 0.0 
2.015640642895e-02 1.383579344615e-02 0.0 
2.262905286115e-02 1.566758204670e-02 0.0 
1.865850801481e-02 1.451002900236e-02 0.0 
2.044477631457e-02 1.559669741306e-02 0.0 
1.667788977821e-02 1.430612654144e-02 0.0 
1.497323671161e-02 1.378076249947e-02 0.0 
3.531424333136e-02 5.609198144288e-02 0.0 
2.679706655375e-02 6.180021612928e-03 0.0 
3.070889795183e-02 9.350332721500e-03 0.0 
2.620005823042e-02 3.529474405703e-03 0.0 
2.968418329121e-02 7.281365885184e-03 0.0 
2.502910602410e-02 7.842326858494e-04 0.0 
2.802566458379e-02 5.191199028618e-03 0.0 
2.338087457594e-02 -2.052648239863e-03 0.0 
2.029643161428e-02 -4.806488154066e-03 0.0 
1.866628709293e-02 -8.335028234897e-03 0.0 
1.566141966123e-02 -9.074477883549e-03 0.0 
1.422683809478e-02 -1.307100288096e-02 0.0 
1.138619209130e-02 -1.159961664978e-02 0.0 
4.319276014401e-02 4.255637696056e-02 0.0 
2.443413678213e-02 1.734458954936e-02 0.0 
2.157656377510e-02 1.646328796515e-02 0.0 
2.551135311633e-02 1.870151235525e-02 0.0 
-1.771919746312e-03 4.254181609938e-02 0.0 
-3.006098618696e-03 2.354014891290e-02 0.0 
1.180925991030e-03 1.576947284247e-02 0.0 
2.836867215015e-03 1.525845293903e-02 0.0 
1.319456060780e-02 1.334231854041e-02 0.0 
-1.131785857140e-03 5.115567121529e-02 0.0 
2.576363090508e-02 3.158806343894e-03 0.0 
3.018855211088e-02 1.172966746827e-02 0.0 
2.113105697276e-02 6.636562633669e-02 0.0 
2.040942972860e-02 7.359382386461e-02 0.0 
2.623733619716e-03 1.405178746556e-02 0.0 
-1.697810672401e-03 5.400277325008e-02 0.0 
-1.923137189099e-03 1.845357671460e-02 0.0 
1.649948012559e-02 -1.200991636785e-02 0.0 
-3.050840634263e-03 2.666003045195e-02 0.0 
-2.570517438500e-03 2.261104120428e-02 0.0 
-3.928918460426e-03 2.569769358420e-02 0.0 
2.201943482386e-02 1.698375954027e-02 0.0 
2.592826381869e-02 1.964611797826e-02 0.0 
1.239210093875e-02 -7.640501941462e-03 0.0 
8.387909357826e-03 -8.251231220758e-03 0.0 
7.649699887697e-03 -1.206243890438e-02 0.0 
4.976558700372e-03 -6.697692248120e-03 0.0 
5.499338338891e-03 -3.618535855676e-03 0.0 
2.670033148698e-03 -1.082157250107e-03 0.0 
2.589729290263e-03 -3.554637651875e-03 0.0 
7.804375923067e-04 3.041307358196e-03 0.0 
5.837351418976e-04 4.972335357760e-03 0.0 
-8.063981932555e-04 9.545192014727e-03 0.0 
4.582821026099e-05 8.364870325796e-03 0.0 
-1.131454467180e-03 1.497515432486e-02 0.0 
-2.501745933866e-03 1.952063184558e-02 0.0 
1.245515568881e-02 -1.718531511688e-02 0.0 
4.363951343228e-02 8.612732181888e-02 0.0 
1.087171834112e-03 1.397765133500e-02 0.0 
1.428909118242e-02 1.328345023543e-02 0.0 
1.791711462098e-02 5.959910340672e-02 0.0 
1.741762182611e-02 6.669464792382e-02 0.0 
1.941609622988e-02 8.080460668484e-02 0.0 
1.664138130806e-02 7.374915589796e-02 0.0 
1.452153051464e-02 5.942484688352e-02 0.0 
1.396380142888e-02 6.639625389426e-02 0.0 
1.564452997916e-02 8.073542665939e-02 0.0 
1.317090574062e-02 7.330181454379e-02 0.0 
1.447301773111e-02 8.760905136726e-02 0.0 
1.218713506175e-02 8.011263491232e-02 0.0 
1.081751977108e-02 6.562840464287e-02 0.0 
1.001127075833e-02 7.242290388677e-02 0.0 
1.105236034971e-02 8.682765306098e-02 0.0 
9.034103548919e-03 7.913201478533e-02 0.0 
9.797872831961e-03 9.342722707320e-02 0.0 
7.915603628102e-03 8.574511568009e-02 0.0 
7.144472633445e-03 7.128466533836e-02 0.0 
1.576992104402e-04 5.515688425298e-02 0.0 
1.161900820763e-02 1.335846595592e-02 0.0 
1.004689546251e-02 1.260421403508e-02 0.0 
-4.388346209590e-03 4.809199115839e-02 0.0 
-4.528160257299e-03 4.563486435446e-02 0.0 
-5.122195263596e-03 4.199506248565e-02 0.0 
-4.399436037753e-03 4.300426810420e-02 0.0 
6.128621276320e-03 7.799199802505e-02 0.0 
5.410693632131e-03 6.332119695395e-02 0.0 
2.718284239145e-02 1.075872234725e-02 0.0 
3.126238505709e-02 2.029902456924e-02 0.0 
1.808213063176e-02 5.249647240709e-02 0.0 
-2.476252183838e-03 2.571351221750e-02 0.0 
-2.896400316603e-03 2.979580556646e-02 0.0 
4.723818471340e-02 4.918334627480e-02 0.0 
4.791277965097e-02 5.846911703612e-02 0.0 
4.637780609790e-02 5.218881140092e-02 0.0 
4.630280906080e-02 6.232144398711e-02 0.0 
4.778070593014e-02 6.872155074560e-02 0.0 
4.430856482795e-02 5.521694361054e-02 0.0 
2.746114813499e-03 1.574407270878e-02 0.0 
8.620078376796e-03 5.777088411310e-02 0.0 
-3.023885416576e-03 3.722711005182e-02 0.0 
-8.066775915335e-04 3.790494528140e-02 0.0 
-2.057898284843e-03 2.130138872769e-02 0.0 
1.275215224445e-02 1.326901630845e-02 0.0 
4.213875514902e-02 4.434107436027e-02 0.0 
3.956938802315e-02 3.804436785218e-02 0.0 
3.810877426322e-02 3.884464656318e-02 0.0 
3.526073628973e-02 3.313884886827e-02 0.0 
3.336640068178e-02 3.297057111807e-02 0.0 
3.026090678668e-02 2.781770610414e-02 0.0 
3.203375911906e-02 2.811471115429e-02 0.0 
2.173111110608e-02 1.703076985676e-02 0.0 
2.684471942368e-02 2.324383231002e-02 0.0 
6.788977239520e-03 9.238142023256e-02 0.0 
2.857437960083e-02 1.964426045907e-02 0.0 
-1.199400748496e-03 1.092547789516e-02 0.0 
1.199380025370e-03 5.196924265785e-02 0.0 
7.985097494925e-04 1.451104139474e-02 0.0 
-5.344385130451e-04 5.762021842880e-02 0.0 
-1.930697777370e-03 5.605357540900e-02 0.0 
2.170592776497e-03 1.212789390741e-02 0.0 
2.785223669880e-02 2.668280630997e-02 0.0 
3.088525225161e-02 3.193444117402e-02 0.0 
4.538491612339e-02 7.356170155376e-02 0.0 
4.683663822046e-02 7.985336071451e-02 0.0 
1.800249934223e-02 1.449233047363e-02 0.0 
2.506538239016e-02 9.370542517266e-02 0.0 
1.683396053127e-02 9.487198186314e-02 0.0 
1.534381067969e-02 1.016675339657e-01 0.0 
1.512890426316e-03 5.845743873580e-02 0.0 
1.806124558892e-03 7.551497345603e-03 0.0 
1.177276207191e-02 5.186824953850e-02 0.0 
3.426294122019e-02 2.044667276810e-02 0.0 
3.500492564319e-02 2.962346796251e-02 0.0 
1.400174830804e-02 -1.578573770544e-02 0.0 
1.039851092859e-02 -2.161125055298e-02 0.0 
4.560099741954e-03 6.989677371251e-02 0.0 
3.898317458276e-03 5.522171400439e-02 0.0 
-4.879813670290e-03 3.945877269272e-02 0.0 
-4.114338929649e-03 4.006627550131e-02 0.0 
3.928718672043e-03 1.254089261271e-02 0.0 
-3.803838614453e-04 2.091269036620e-02 0.0 
4.463710943559e-03 4.843442809001e-02 0.0 
9.601121890814e-03 1.343723291729e-02 0.0 
1.012187997828e-02 1.293814873479e-02 0.0 
-3.688184368086e-03 4.643005230886e-02 0.0 
2.735221372266e-02 2.045847308594e-02 0.0 
2.341694760693e-02 1.008028104191e-02 0.0 
5.948277619132e-04 7.040189087591e-03 0.0 
-2.196128500315e-03 2.104077243013e-02 0.0 
-8.996142207898e-04 5.921613265497e-02 0.0 
3.038626692525e-03 1.038925903041e-02 0.0 
1.183216908290e-02 4.493535014615e-02 0.0 
2.854937025585e-02 2.379623911060e-02 0.0 
3.319429908145e-02 2.770817473290e-02 0.0 
2.323528931239e-02 1.926982253582e-02 0.0 
2.364162368106e-03 2.096062671134e-02 0.0 
8.267188189345e-04 1.149671784547e-02 0.0 
-1.841576774049e-03 2.438714265806e-02 0.0 
2.512575435102e-02 2.510118324093e-02 0.0 
2.785031339680e-02 3.006714843573e-02 0.0 
3.795657744797e-02 2.901865114742e-02 0.0 
3.851208999130e-02 3.875414918144e-02 0.0 
3.459559585165e-02 4.034542373438e-02 0.0 
3.786687018867e-02 4.963967633640e-02 0.0 
3.979095775439e-02 9.410810636188e-02 0.0 
4.126585650553e-02 3.733498377960e-02 0.0 
4.575672670211e-02 8.607513256728e-02 0.0 
4.449363669535e-02 9.592605663908e-02 0.0 
4.611659791037e-02 9.513562283080e-02 0.0 
4.862678719546e-02 7.424374266166e-02 0.0 
4.762035675269e-02 8.533037300522e-02 0.0 
3.401046785367e-02 1.426588537382e-02 0.0 
2.885592171668e-02 1.645538055560e-02 0.0 
-5.465730741461e-03 3.820146493220e-02 0.0 
-4.446545720338e-03 2.995096655514e-02 0.0 
1.075603848293e-04 1.728791888346e-02 0.0 
9.041019185265e-03 5.092492091825e-02 0.0 
6.870408407223e-03 4.290561600316e-02 0.0 
1.176497917963e-02 1.009511480490e-01 0.0 
1.028912443441e-02 1.074168610443e-01 0.0 
8.872960541162e-04 4.328457270033e-02 0.0 
2.201071944681e-03 3.841108984206e-02 0.0 
-4.198850444362e-03 2.518721032594e-02 0.0 
-5.925017745539e-05 1.364457597253e-02 0.0 
1.474071823299e-02 4.544720109350e-02 0.0 
1.428711266283e-02 3.849074316686e-02 0.0 
1.785302693961e-02 4.540974890367e-02 0.0 
4.970297257040e-03 1.115512496009e-02 0.0 
2.226649077243e-02 1.666940473893e-03 0.0 
1.709112252952e-02 1.201527816287e-02 0.0 
8.973821172897e-03 -2.024045069366e-02 0.0 
4.070125721851e-02 3.400711516139e-02 0.0 
4.345637216367e-03 4.382430433454e-02 0.0 
3.737883607663e-02 5.102988914750e-02 0.0 
-1.500054186079e-03 1.965492169220e-02 0.0 
-1.643627564077e-03 1.653122892527e-02 0.0 
1.705723660214e-02 1.374132334356e-02 0.0 
3.807386921080e-02 1.144939891611e-01 0.0 
3.728996088966e-02 2.899064501217e-02 0.0 
3.671163466003e-02 2.625143126501e-02 0.0 
4.424099913351e-02 1.055624446118e-01 0.0 
4.533524192924e-02 1.040545134034e-01 0.0 
4.720003744927e-02 9.319240365557e-02 0.0 
4.586472882406e-02 1.014179410334e-01 0.0 
-1.309759338056e-03 1.233669932083e-02 0.0 
-2.658733718708e-03 1.644444829636e-02 0.0 
2.130167381744e-02 1.978838931301e-02 0.0 
2.110042738265e-02 1.798713286547e-02 0.0 
2.172218087516e-02 2.254536861394e-02 0.0 
2.427683724818e-02 2.725715068846e-02 0.0 
1.346264212790e-02 1.124474066687e-02 0.0 
1.441327893143e-02 1.229548430964e-02 0.0 
-1.827572124025e-03 5.731885778805e-02 0.0 
4.514038084205e-02 9.161230367764e-02 0.0 
9.058640481796e-03 3.716345722385e-02 0.0 
4.264260919592e-02 1.059259995163e-01 0.0 
-1.200700363579e-04 1.071061207650e-02 0.0 
-8.369727809251e-04 1.300567794297e-02 0.0 
7.480426706225e-03 -2.502846618352e-02 0.0 
5.988073953882e-03 -2.015738379706e-02 0.0 
3.063600165893e-03 4.052481305182e-02 0.0 
3.304165953438e-02 5.212185069653e-02 0.0 
3.611839705020e-02 6.131985888125e-02 0.0 
2.968935231057e-02 4.215069480932e-02 0.0 
-2.628831478892e-04 8.931408494897e-03 0.0 
2.742828826004e-03 1.334462582638e-01 0.0 
-1.145165334545e-03 1.459253749669e-02 0.0 
4.883480610459e-02 7.900547285423e-02 0.0 
3.290135865508e-03 3.306797542738e-02 0.0 
3.358682505309e-02 2.489886171030e-02 0.0 
4.551456977234e-02 4.307061792811e-02 0.0 
6.117689637834e-03 1.282017606176e-02 0.0 
2.499859975326e-03 4.858354681157e-02 0.0 
1.849090707934e-03 3.188603843329e-02 0.0 
1.751310082942e-02 1.085253060174e-01 0.0 
1.582152112195e-02 1.154268758302e-01 0.0 
1.923704317584e-02 1.018456843105e-01 0.0 
1.820900436468e-02 -7.840429032575e-03 0.0 
1.443085412503e-02 -1.023580729421e-02 0.0 
6.612804859305e-03 4.975373946770e-02 0.0 
-3.924882205448e-03 5.039148986178e-02 0.0 
-3.440754509653e-03 5.165568836229e-02 0.0 
-1.343183561227e-03 2.679234279007e-02 0.0 
-3.132483712052e-03 2.669760042900e-02 0.0 
-5.097962170132e-03 3.586478058778e-02 0.0 
-5.503271334887e-03 3.441929016834e-02 0.0 
3.572244105729e-02 4.408783101456e-02 0.0 
3.270509674680e-02 4.225926493475e-02 0.0 
4.051150585517e-02 4.526804203997e-02 0.0 
7.258157765739e-03 1.374601632748e-02 0.0 
7.245974361840e-03 1.296530558850e-02 0.0 
1.023634335723e-02 1.162333488724e-02 0.0 
6.938084627166e-03 3.650458509634e-02 0.0 
4.656004360992e-03 2.710109726116e-02 0.0 
7.209752582678e-04 8.961309953498e-03 0.0 
3.136355221818e-03 4.121757058700e-03 0.0 
-2.842715736529e-03 1.723527778577e-02 0.0 
8.620931460479e-03 3.055373176873e-02 0.0 
-1.205306045153e-03 1.154389776729e-02 0.0 
-1.639877276538e-03 1.357229111071e-02 0.0 
5.977370762122e-03 3.889486577464e-02 0.0 
3.531903304681e-03 3.303343650744e-02 0.0 
2.239847346044e-02 2.097289693305e-02 0.0 
1.837755867762e-02 9.852325789975e-03 0.0 
1.358741219183e-02 3.213719786755e-02 0.0 
1.721806597285e-02 3.851873031440e-02 0.0 
9.749545270234e-03 2.441614198053e-02 0.0 
-8.585096213986e-04 6.013678520214e-02 0.0 
2.957921841429e-02 2.366673265114e-02 0.0 
3.795779141476e-03 8.820737560158e-03 0.0 
5.871428535665e-03 9.908388469114e-03 0.0 
2.025302072226e-03 7.238423854172e-03 0.0 
2.089266424130e-02 1.667903067324e-02 0.0 
1.554741959421e-02 1.260256986205e-02 0.0 
1.716522167298e-02 1.419004966798e-02 0.0 
7.796540612212e-03 -2.585485826646e-02 0.0 
1.393040623239e-03 3.817894915361e-02 0.0 
1.217255715461e-02 1.147715105804e-01 0.0 
6.584219453000e-03 -2.864389025299e-02 0.0 
1.050731153733e-02 1.215578510046e-01 0.0 
8.807955201682e-03 1.138468173138e-01 0.0 
9.074325090104e-03 1.281202443333e-01 0.0 
-1.274142293397e-04 6.173755686263e-02 0.0 
1.984940259150e-02 1.175388739630e-01 0.0 
2.181819199311e-02 1.089797047286e-01 0.0 
8.488044516484e-03 3.344959360616e-02 0.0 
5.882615735076e-03 2.276442332726e-02 0.0 
8.049327877525e-03 4.379765105591e-02 0.0 
6.143976141608e-03 4.821201218236e-02 0.0 
-6.664937718552e-04 9.485789151928e-03 0.0 
-1.274892960952e-03 1.202563042227e-02 0.0 
-9.312518825119e-04 8.057234396089e-03 0.0 
-1.455662230703e-03 1.094243827308e-02 0.0 
-1.867109536931e-03 1.476551935074e-02 0.0 
-1.906287458288e-03 1.363075747743e-02 0.0 
1.420221652646e-02 1.230693102536e-01 0.0 
-1.298916139972e-03 8.691519384472e-03 0.0 
-1.742027456701e-03 1.205178049896e-02 0.0 
-1.078586230733e-03 6.963296453877e-03 0.0 
4.330200911702e-02 1.132490018975e-01 0.0 
4.056817351929e-02 5.815846988878e-02 0.0 
3.877205473063e-02 7.021214107890e-02 0.0 
3.322152647204e-02 7.452075272236e-02 0.0 
1.630203898984e-02 1.735017315338e-02 0.0 
2.063251711106e-02 2.410027325644e-02 0.0 
-1.184561367107e-03 2.262407038798e-02 0.0 
-1.397225953035e-03 2.733237758503e-02 0.0 
7.270231177029e-03 1.211620114989e-01 0.0 
5.317208925663e-03 1.218039265758e-01 0.0 
5.815219125683e-03 1.093432269276e-01 0.0 
4.201374343878e-03 1.109160310657e-01 0.0 
4.530177575784e-03 9.843999769821e-02 0.0 
2.919472851708e-03 1.000844213782e-01 0.0 
3.457650932688e-03 8.735218151998e-02 0.0 
1.441670013684e-02 1.220889829033e-02 0.0 
2.688951517968e-02 5.388407900548e-02 0.0 
4.171033202385e-02 1.162795848113e-01 0.0 
1.006304879473e-02 9.009453410474e-03 0.0 
1.143799436124e-02 1.066019609252e-02 0.0 
4.587042963812e-02 9.694769359317e-02 0.0 
4.260669596099e-02 1.041133913026e-01 0.0 
4.183346090584e-04 7.927402480651e-03 0.0 
3.999554508125e-02 2.861773459151e-02 0.0 
4.387039183783e-03 1.437416766710e-02 0.0 
1.745862307419e-03 -1.421993157856e-02 0.0 
8.610389336518e-03 -1.560665080878e-02 0.0 
4.303132999562e-02 3.612946080573e-02 0.0 
4.772232086124e-02 8.995768612605e-02 0.0 
4.316956174685e-02 6.622960196761e-02 0.0 
4.170785756958e-02 7.856267370014e-02 0.0 
6.878116848269e-03 1.371313169530e-02 0.0 
5.077419709041e-03 2.719034180678e-02 0.0 
2.614327596788e-02 3.170927849337e-02 0.0 
5.029546083065e-03 8.587452559725e-02 0.0 
1.994797545921e-02 3.236997186494e-02 0.0 
-6.493456437693e-04 2.506222506817e-02 0.0 
3.785495903714e-02 2.136127702265e-02 0.0 
4.919127480798e-02 6.870699926645e-02 0.0 
3.110018286290e-02 3.051051444602e-02 0.0 
4.176691338776e-02 4.750919078260e-02 0.0 
4.108606916290e-02 8.506200014915e-02 0.0 
3.800139005320e-02 1.030787253516e-01 0.0 
4.041636095395e-02 1.053245496768e-01 0.0 
3.480998169039e-02 1.559841075449e-02 0.0 
4.377138370374e-02 8.554275008643e-02 0.0 
3.913379793248e-02 9.194452347178e-02 0.0 
4.638085339022e-02 7.655268289692e-02 0.0 
2.150666022158e-02 5.184159739800e-02 0.0 
2.102943280713e-02 4.468459573952e-02 0.0 
1.623649953859e-02 3.213086813289e-02 0.0 
2.008935147188e-02 3.783952613916e-02 0.0 
2.487405723495e-02 5.036195312730e-02 0.0 
2.407504944380e-02 4.327830076412e-02 0.0 
1.867735116224e-02 3.139789121574e-02 0.0 
2.277576606394e-02 3.651044694616e-02 0.0 
1.536745892472e-02 2.285061842772e-02 0.0 
2.078238915706e-02 2.985619037553e-02 0.0 
2.682968890864e-02 4.126082480113e-02 0.0 
2.518891467856e-02 3.492678078728e-02 0.0 
1.925256988204e-02 2.518418168152e-02 0.0 
3.086484160355e-02 4.587410009995e-02 0.0 
8.483839237605e-03 7.353584393439e-03 0.0 
4.382649407885e-02 3.501352110897e-02 0.0 
1.087021045302e-02 -1.954637247385e-02 0.0 
1.206695473411e-02 -4.290685779872e-03 0.0 
4.886008514379e-02 7.246956414780e-02 0.0 
7.614056708640e-03 1.123719334019e-02 0.0 
6.529613236918e-03 1.183156800843e-02 0.0 
3.242904219507e-02 1.292396401742e-02 0.0 
8.195848596091e-03 8.070673072829e-03 0.0 
4.231769511964e-02 9.566755935019e-02 0.0 
2.110336288421e-02 -4.948301825228e-03 0.0 
8.000225414626e-03 7.070676503569e-03 0.0 
2.517046464865e-02 5.763976989889e-02 0.0 
2.880850053237e-02 6.309503562778e-02 0.0 
2.844820778074e-02 7.070055478907e-02 0.0 
5.181074621533e-03 1.154295653821e-02 0.0 
2.085233361009e-02 9.484621653200e-02 0.0 
6.000511912587e-03 4.941856879710e-03 0.0 
2.687419108726e-02 1.736485917140e-02 0.0 
3.125182788561e-02 1.972260805938e-02 0.0 
3.315959443060e-02 1.909915020015e-02 0.0 
2.804615726548e-02 4.841435820854e-02 0.0 
3.859303935623e-03 4.088899417746e-03 0.0 
6.530868293750e-03 7.232558812497e-03 0.0 
5.276244950313e-03 7.006554171234e-03 0.0 
8.512473831416e-03 9.849082231369e-03 0.0 
2.491011488690e-03 3.863441321317e-03 0.0 
7.515929089118e-03 9.231767409809e-03 0.0 
7.351791624683e-03 8.321365669167e-03 0.0 
2.899358922578e-03 1.546011282517e-03 0.0 
5.950417649324e-03 -5.136441744899e-04 0.0 
6.297276739665e-03 2.389328224311e-03 0.0 
9.614672685369e-03 -1.233455157404e-03 0.0 
9.106913596956e-03 -4.620678057401e-03 0.0 
1.318282245871e-02 -3.965264050799e-03 0.0 
1.373581594505e-02 -5.441053887311e-04 0.0 
1.681674702990e-02 -5.327958261491e-03 0.0 
2.700124847932e-02 3.316090923152e-02 0.0 
1.250270299898e-03 3.694914984192e-03 0.0 
6.258063728761e-04 1.737662047964e-02 0.0 
2.355846215991e-03 1.554088803051e-02 0.0 
1.952587724032e-03 1.480031588210e-02 0.0 
-5.816567491535e-03 3.626848191865e-02 0.0 
-5.650544660225e-03 3.233844286032e-02 0.0 
-5.203839507730e-03 3.075928487365e-02 0.0 
-5.627545793648e-03 4.030154657700e-02 0.0 
3.655908863437e-02 3.251042828563e-02 0.0 
7.190652892306e-04 3.762055343507e-03 0.0 
1.340568508352e-02 1.232646865096e-02 0.0 
-5.486158612292e-03 2.960208225805e-02 0.0 
2.604652444736e-02 1.276031589397e-01 0.0 
2.741504249755e-02 1.153656826744e-01 0.0 
2.997868405918e-02 1.129694325175e-01 0.0 
2.809356739746e-02 1.012114314984e-01 0.0 
2.447913282517e-02 1.157526892238e-01 0.0 
-4.489965718262e-03 3.667277355623e-02 0.0 
-3.738137762466e-03 3.688016011845e-02 0.0 
-3.227885506441e-03 4.006503511037e-02 0.0 
-2.893842905263e-03 3.653413566070e-02 0.0 
-2.275313624033e-03 3.949999853676e-02 0.0 
-2.528189954493e-03 4.298356418387e-02 0.0 
-1.984617858712e-03 3.570222222233e-02 0.0 
-1.322626698122e-03 3.886614165371e-02 0.0 
2.104115961506e-02 1.304184869762e-01 0.0 
9.279197557313e-03 -1.453612389416e-02 0.0 
5.795418127606e-03 -8.638396064125e-03 0.0 
6.876199986566e-03 1.959204046904e-03 0.0 
3.745269770408e-03 -3.171398140641e-03 0.0 
4.140402883293e-03 -1.192266176958e-02 0.0 
2.699855168825e-03 -5.981705501664e-03 0.0 
4.516327428787e-03 -1.306165558680e-02 0.0 
5.285765862229e-03 -1.885849121406e-02 0.0 
1.246259232886e-02 7.225768258047e-03 0.0 
7.808754302304e-03 1.088240518788e-02 0.0 
1.329920237408e-02 1.555556523748e-02 0.0 
8.621240820389e-03 1.883913129716e-02 0.0 
3.963977654391e-03 1.441306471839e-02 0.0 
1.999311331976e-04 3.267513883628e-02 0.0 
-6.706940018899e-04 5.770940782149e-03 0.0 
-1.053948230995e-03 4.925400154399e-02 0.0 
-2.031375322646e-03 5.027292631487e-02 0.0 
-1.937263815375e-03 5.326270961605e-02 0.0 
-3.004134283518e-03 5.041071505849e-02 0.0 
-1.952039147974e-03 4.730010135502e-02 0.0 
-9.301473459233e-04 5.557592653551e-02 0.0 
-1.708309058119e-03 5.580348217437e-02 0.0 
5.456060256552e-03 6.239435181894e-02 0.0 
3.173374473630e-03 6.364885166730e-02 0.0 
1.566279805374e-03 6.498251842021e-02 0.0 
1.532261636038e-03 6.420702299339e-02 0.0 
2.536464165473e-03 6.255222134703e-02 0.0 
4.645465424175e-03 6.156575069559e-02 0.0 
6.014388383921e-03 5.870958367643e-02 0.0 
9.240558103607e-03 5.679921476128e-02 0.0 
7.153740689576e-03 5.519855529333e-02 0.0 
4.095707987441e-03 5.695934551739e-02 0.0 
1.082169839515e-02 5.307607549315e-02 0.0 
1.114530915299e-03 6.843867398650e-02 0.0 
2.120124709139e-03 6.111772946798e-02 0.0 
-6.856027184393e-05 4.200602657889e-03 0.0 
1.635763781944e-02 1.308670581580e-01 0.0 
1.391659679676e-02 3.033963754086e-02 0.0 
1.718788573005e-03 1.592778232674e-02 0.0 
2.592080710807e-03 1.308108103164e-02 0.0 
2.098429322215e-03 1.272789066489e-02 0.0 
-4.102718447106e-04 1.468510076095e-02 0.0 
-6.618914510255e-04 1.193690206179e-02 0.0 
9.401763171728e-04 1.553495156984e-02 0.0 
-4.517669427495e-03 3.654867398168e-02 0.0 
1.479979508273e-02 2.610664742261e-02 0.0 
4.823180604600e-03 4.157535578457e-02 0.0 
2.280435604581e-02 1.291858064477e-03 0.0 
-3.261454082912e-03 2.126932778773e-02 0.0 
-2.155309024499e-03 2.878226065964e-02 0.0 
-4.002404845157e-03 2.670319821573e-02 0.0 
-2.114899511633e-03 1.822764283181e-02 0.0 
-3.534838887615e-03 3.035544341610e-02 0.0 
-2.766504130178e-03 2.049020306375e-02 0.0 
4.108298798287e-03 7.102986542231e-03 0.0 
3.731722377292e-04 6.049938133208e-02 0.0 
1.316718970807e-02 9.434768195035e-02 0.0 
8.526525918370e-03 9.996312085666e-02 0.0 
7.977672009522e-03 6.456530971889e-02 0.0 
-4.132280956304e-03 4.823795827024e-02 0.0 
-3.524156359673e-03 4.314869116886e-02 0.0 
-2.863525801371e-04 4.753925782739e-02 0.0 
1.470804071621e-02 1.368023325203e-02 0.0 
4.733898697777e-02 8.499489504139e-02 0.0 
-3.418453445291e-04 1.674680846528e-02 0.0 
-5.881631893268e-03 3.788779410136e-02 0.0 
-4.935310917178e-03 3.144481720051e-02 0.0 
-2.135596909395e-03 1.565864775929e-02 0.0 
4.578999088980e-02 4.094712240399e-02 0.0 
-4.674614046094e-03 2.584847405716e-02 0.0 
-1.273197340252e-03 1.830605941360e-02 0.0 
6.116899602882e-03 5.656787531512e-02 0.0 
1.252647675112e-02 4.334557958141e-02 0.0 
-9.366337810380e-05 1.602208703066e-02 0.0 
-3.585800405355e-03 2.416843990846e-02 0.0 
1.821116470200e-02 8.792488358283e-02 0.0 
1.779894541693e-02 1.468622667578e-02 0.0 
1.236518034924e-03 1.583785001283e-03 0.0 
1.142288369689e-02 5.879184575394e-02 0.0 
1.108122289346e-02 3.203337383406e-02 0.0 
2.345726150917e-02 1.013517130082e-01 0.0 
2.750985453140e-03 4.830086628541e-02 0.0 
1.381646124907e-02 1.084940849837e-01 0.0 
1.550213441050e-03 9.458269832726e-03 0.0 
2.151446575716e-02 5.907189717655e-02 0.0 
-3.057944383852e-03 5.235365615148e-02 0.0 
1.770895172652e-02 9.918377661626e-03 0.0 
4.879148880206e-02 5.928237699872e-02 0.0 
3.704177276795e-02 1.258152012102e-01 0.0 
4.978368140235e-03 3.524324251225e-02 0.0 
3.915502495441e-02 2.719740081377e-02 0.0 
1.104704409364e-02 1.206385768229e-02 0.0 
1.627622679239e-02 1.335932833079e-02 0.0 
-2.898852028266e-03 5.401154224596e-02 0.0 
-1.583375554521e-03 1.552159323739e-02 0.0 
3.011556672338e-02 1.495314132294e-02 0.0 
9.220708894363e-03 4.414173628856e-02 0.0 
3.608578509841e-02 3.876166402950e-02 0.0 
2.257994288204e-02 4.652454847434e-03 0.0 
1.479820010316e-02 5.243677633354e-02 0.0 
4.267021415656e-03 1.223891315741e-02 0.0 
1.824764121150e-02 1.477844053555e-02 0.0 
4.839049344115e-02 8.259170180388e-02 0.0 
4.416040941959e-02 5.138042928657e-02 0.0 
3.846263476332e-02 5.844590731460e-02 0.0 
4.360891453114e-02 3.991441882975e-02 0.0 
-1.584752422935e-03 3.180578155975e-02 0.0 
-1.006310067407e-03 1.594930834795e-02 0.0 
1.041386642776e-02 -1.581335600221e-02 0.0 
4.419734934066e-02 4.522792668566e-02 0.0 
2.223907267713e-02 8.747000701293e-02 0.0 
2.469447687534e-02 2.218982843542e-02 0.0 
6.522879060512e-03 2.921798891173e-02 0.0 
4.886952293359e-02 6.401353520868e-02 0.0 
-2.279039053493e-03 1.821278422624e-02 0.0 
1.163535747134e-02 3.846140426268e-02 0.0 
-5.112308380285e-03 2.861179969989e-02 0.0 
-1.289304866745e-04 6.262876133929e-02 0.0 
1.935340880039e-02 -2.345290652246e-04 0.0 
2.149606229523e-02 -1.493424732470e-03 0.0 
3.715023114958e-02 2.285985530662e-02 0.0 
-4.564930195526e-03 2.732610042728e-02 0.0 
1.177986362128e-02 2.412074805376e-02 0.0 
-2.381745896023e-03 1.757183424679e-02 0.0 
4.554899981660e-03 1.393269608142e-02 0.0 
8.491674391740e-03 2.104270629943e-02 0.0 
4.018231394060e-02 1.158049914876e-01 0.0 
-2.273958274019e-03 1.653987101622e-02 0.0 
1.370734852877e-02 1.059654908448e-02 0.0 
1.471422083772e-02 1.297663112594e-02 0.0 
-1.534617906847e-03 4.228329439888e-02 0.0 
1.445810103151e-02 1.279194830885e-02 0.0 
4.346937726023e-02 1.089314913864e-01 0.0 
-2.005488900927e-03 1.514859000162e-02 0.0 
8.656724015723e-03 1.309634968276e-02 0.0 
3.645337915923e-02 2.081632612579e-02 0.0 
4.548744954307e-03 1.334145187996e-01 0.0 
-1.354443052860e-03 9.581980798519e-03 0.0 
7.311444613594e-03 1.183600060109e-02 0.0 
4.045499300362e-02 3.642281002724e-02 0.0 
1.027229372110e-02 9.841621385160e-03 0.0 
3.935084872935e-02 1.271260407994e-01 0.0 
-4.627307602422e-03 2.890733299742e-02 0.0 
4.238925506616e-02 5.227386891739e-02 0.0 
4.546671351580e-03 1.146808025577e-02 0.0 
8.256177198916e-03 1.102030742405e-02 0.0 
3.185693839888e-02 7.589162620644e-02 0.0 
-5.019455964095e-03 3.232073192448e-02 0.0 
2.962820486814e-02 2.151166994534e-02 0.0 
3.435670815951e-03 6.013452738874e-02 0.0 
4.273981017367e-02 1.153515513955e-01 0.0 
-4.606615001201e-03 3.328144563168e-02 0.0 
1.764505660005e-02 -1.815711664140e-03 0.0 
7.158679392422e-03 1.157587636546e-02 0.0 
1.206412597359e-02 9.923655175691e-03 0.0 
-4.023380954300e-03 3.364894890695e-02 0.0 
1.813890599872e-02 1.518338687368e-03 0.0 
-3.320456951435e-03 3.347601004763e-02 0.0 
4.009205489465e-02 1.227598820186e-01 0.0 
3.231672939729e-02 6.779342773238e-02 0.0 
-2.512474149872e-03 3.283831113167e-02 0.0 
3.835834228595e-02 4.514239180402e-02 0.0 
4.502848383934e-03 5.287697706143e-02 0.0 
3.725107198292e-02 3.112663232722e-02 0.0 
-9.251398750003e-04 1.738952074577e-02 0.0 
-4.109383274438e-03 2.202837620706e-02 0.0 
4.522808525808e-03 1.353234906870e-02 0.0 
2.867169954518e-02 5.561263553512e-02 0.0 
3.811682211300e-02 1.141589313911e-01 0.0 
4.816076358609e-03 1.439502709318e-02 0.0 
3.355361910436e-02 3.777665682736e-02 0.0 
3.374158083267e-02 2.665580970348e-02 0.0 
3.538532394689e-02 2.295292501994e-02 0.0 
4.867216664998e-03 1.455734031623e-02 0.0 
4.142005521055e-02 9.810055831210e-02 0.0 
-3.862879786861e-03 3.206021048402e-02 0.0 
-2.230864550580e-03 3.230448677382e-02 0.0 
1.407192405040e-02 2.672281239040e-03 0.0 
3.048658432219e-02 3.587896951541e-02 0.0 
1.019771279823e-03 6.268305714532e-02 0.0 
3.181749701801e-02 5.270409664632e-02 0.0 
1.292131629977e-03 2.700700779893e-02 0.0 
9.993471947136e-03 1.903827136625e-03 0.0 
2.551459227724e-02 1.999990820344e-02 0.0 
1.325205729707e-03 9.657196246653e-02 0.0 
6.597545620068e-03 5.152331666582e-03 0.0 
-4.764964899105e-04 6.067825416593e-02 0.0 
3.387139023834e-03 6.510351800368e-03 0.0 
3.275693572987e-02 2.257026752544e-02 0.0 
9.744278411702e-04 1.073143449559e-02 0.0 
-1.225068685986e-03 1.355644417186e-02 0.0 
3.352304254577e-03 2.703812595314e-02 0.0 
-2.802575127145e-03 1.802434109364e-02 0.0 
4.676127734141e-04 1.288038442307e-02 0.0 
-3.082689173847e-04 5.387668866316e-03 0.0 
1.720745768604e-03 1.235130677155e-01 0.0 
3.321433059619e-02 1.030083823654e-01 0.0 
4.958867983336e-03 -3.040122593904e-02 0.0 
3.728121709349e-02 8.158792482433e-02 0.0 
-3.841884025621e-03 2.157415623542e-02 0.0 
3.433373276994e-02 4.898890750740e-02 0.0 
3.575665111838e-03 1.228699366795e-01 0.0 
-4.196092587867e-03 2.659617886741e-02 0.0 
1.424394324040e-02 1.898559751953e-02 0.0 
6.857160227889e-03 5.669373912249e-03 0.0 
2.391906752262e-03 7.486583660352e-02 0.0 
1.165225165288e-02 1.155339019752e-02 0.0 
2.987305169630e-02 2.283286304030e-02 0.0 
6.908303939169e-04 3.970509389038e-02 0.0 
1.052437395813e-02 1.340713510867e-01 0.0 
9.224557200538e-03 2.627006796486e-02 0.0 
-7.595093322930e-04 2.981485967108e-02 0.0 
2.750346698290e-02 8.617755700551e-02 0.0 
2.993666070688e-02 6.395504632631e-02 0.0 
2.325084868037e-02 4.328162435441e-02 0.0 
-2.400687077248e-03 5.514710973117e-02 0.0 
4.168232870450e-03 5.966217314790e-03 0.0 
2.270828102496e-02 6.630605508012e-02 0.0 
7.862578837409e-03 7.751655915434e-03 0.0 
1.769153090626e-02 1.209490156235e-01 0.0 
2.500415176056e-02 2.019338566933e-02 0.0 
1.585491895059e-02 4.475369597217e-02 0.0 
8.040314883250e-03 2.496979990739e-02 0.0 
1.276498475577e-02 1.041008549477e-02 0.0 
-5.078461723062e-04 3.998820412965e-03 0.0 
1.933276722754e-02 1.569664680402e-02 0.0 
1.615362513627e-02 2.077887913009e-02 0.0 
2.581055854941e-02 1.056192554591e-01 0.0 
1.479851294098e-02 1.458729416814e-02 0.0 
3.237476019006e-03 6.318382572447e-02 0.0 
-6.579671672504e-04 4.078452074872e-03 0.0 
2.220107476293e-02 1.204894662413e-01 0.0 
2.047907691628e-03 2.531714382083e-02 0.0 
7.319628433679e-03 -1.631999890907e-02 0.0 
1.042967999159e-03 2.462073147398e-02 0.0 
2.915479498181e-02 3.916592695084e-02 0.0 
7.325690118124e-03 1.063801933108e-01 0.0 
3.073925872977e-02 1.022889518130e-01 0.0 
-7.795932031349e-04 9.260917994396e-03 0.0 
1.302587621895e-02 2.092958534858e-02 0.0 
1.234408671544e-02 7.186427436490e-03 0.0 
3.747080257999e-03 7.629547828866e-02 0.0 
-3.876554364050e-03 4.858703353005e-02 0.0 
6.214037348527e-03 -2.616804213306e-02 0.0 
-1.903558492217e-04 7.549081587775e-03 0.0 
2.325500767670e-02 2.949598122330e-02 0.0 
-1.140948534636e-03 9.156218710371e-03 0.0 
7.271769693395e-04 6.494823661030e-02 0.0 
9.845990906984e-03 3.947705127464e-02 0.0 
1.000872758794e-03 6.569891344980e-03 0.0 
1.388318169300e-02 1.575486994786e-02 0.0 
4.373799915631e-03 -9.068613777546e-03 0.0 
2.727374628421e-03 1.010186528692e-02 0.0 
6.812228670631e-03 -5.078026397664e-03 0.0 
1.433256000485e-02 1.349166761387e-01 0.0 
8.317318351815e-03 5.144048386036e-02 0.0 
-6.559126236753e-04 4.290673140653e-03 0.0 
4.847857320230e-03 2.389069787195e-02 0.0 
-2.750310994187e-03 4.798581492094e-02 0.0 
3.112646697534e-02 1.219215576405e-01 0.0 
-1.328883381540e-03 5.824391121249e-02 0.0 
1.919889215296e-02 1.686820118926e-02 0.0 
5.512911099394e-03 2.158417341376e-02 0.0 
3.332394236871e-03 2.274426828091e-02 0.0 
2.664381069974e-03 6.193313796372e-03 0.0 
9.420241175813e-03 2.085287916873e-02 0.0 
3.795881260774e-03 3.384051349203e-03 0.0 
7.063877674491e-03 -2.398948186733e-02 0.0 
1.167720982093e-02 9.628724857196e-03 0.0 
6.408249607576e-03 9.046035726019e-03 0.0 
7.908053649172e-03 1.348221508250e-01 0.0 
1.159030678303e-02 2.140243301256e-02 0.0 
-2.619668970861e-03 5.317305602438e-02 0.0 
2.124627211154e-03 5.541898666635e-02 0.0 
1.991880449421e-04 1.142148021534e-02 0.0 
1.720224177782e-03 6.455922522288e-02 0.0 
1.335011686214e-03 1.349634815259e-01 0.0 
-1.193400199449e-04 4.423795203548e-03 0.0 
1.737822278618e-03 6.108227620358e-02 0.0 
2.843261781272e-03 1.136344784399e-01 0.0 
1.310495586582e-02 1.601442646908e-02 0.0 
-6.662918962099e-04 4.198510005228e-02 0.0 
1.597825092075e-03 4.945471189004e-02 0.0 
2.435480109438e-03 1.392172998904e-03 0.0 
7.062052761685e-03 -3.157322324625e-02 0.0 
2.284454002826e-03 8.950819115945e-02 0.0 
1.070750728022e-02 8.771766235119e-03 0.0 
7.447415963036e-03 2.062858498151e-02 0.0 
5.882874370412e-03 9.888664011270e-02 0.0 
1.592766356259e-02 5.372632519681e-04 0.0 
1.817760713819e-02 2.215273145959e-02 0.0 
-2.819542032232e-03 4.535291616525e-02 0.0 
1.972102900344e-02 1.927801688446e-02 0.0 
9.357478553073e-03 9.595377643266e-03 0.0 
9.753418441436e-04 -2.698760154388e-03 0.0 
-5.569877678647e-04 3.814246315155e-02 0.0 
9.328950658290e-03 4.739255845892e-02 0.0 
-1.015664117890e-03 7.437385563814e-03 0.0 
-1.856764073551e-03 4.467240815456e-02 0.0 
3.322040356803e-02 1.430730967762e-01 0.0 
8.843675649698e-04 1.630449205974e-01 0.0 
3.192688171488e-02 1.384869802313e-01 0.0 
8.961330239214e-04 1.507277815218e-01 0.0 

TENSORS node_materi_stress float
-9.019242545656e+00 2.885034858993e-02 0.0 
2.885034858993e-02 -8.504643521681e+00 0.0 
0.0 0.0 -4.022897397505e+00 
-3.516597845333e+01 4.335578033599e-01 0.0 
4.335578033599e-01 -3.986184035688e+01 0.0 
0.0 0.0 -2.210834564306e+01 
-1.667915482011e+02 -1.013164520417e-01 0.0 
-1.013164520417e-01 -3.920073067930e+02 0.0 
0.0 0.0 -1.672396564982e+02 
-1.005024348345e+02 9.469153699558e-01 0.0 
9.469153699558e-01 -2.325503139575e+02 0.0 
0.0 0.0 -9.951582463758e+01 
-8.629320420202e+00 -1.605754946540e-01 0.0 
-1.605754946540e-01 -2.076778048974e+01 0.0 
0.0 0.0 -6.598238005969e+00 
-1.127215694917e+01 -5.487391902730e-01 0.0 
-5.487391902730e-01 -4.033482244406e+01 0.0 
0.0 0.0 -1.280433580721e+01 
-1.439855756972e+01 -6.342378258724e-01 0.0 
-6.342378258724e-01 -5.856359093411e+01 0.0 
0.0 0.0 -2.069624219725e+01 
-2.491386595335e+01 -7.850022154081e-01 0.0 
-7.850022154081e-01 -7.971458416206e+01 0.0 
0.0 0.0 -3.023518771496e+01 
-4.047229218593e+01 -7.579972662646e-01 0.0 
-7.579972662646e-01 -1.003810272143e+02 0.0 
0.0 0.0 -3.942646637754e+01 
-5.411041242271e+01 -7.670757069103e-01 0.0 
-7.670757069103e-01 -1.209886564621e+02 0.0 
0.0 0.0 -4.852680304299e+01 
-6.608074453865e+01 -8.038990677541e-01 0.0 
-8.038990677541e-01 -1.417186721566e+02 0.0 
0.0 0.0 -5.756235876721e+01 
-7.657468774442e+01 -7.711460840164e-01 0.0 
-7.711460840164e-01 -1.624785338558e+02 0.0 
0.0 0.0 -6.652183876056e+01 
-8.570891630660e+01 -7.327666892362e-01 0.0 
-7.327666892362e-01 -1.832312488119e+02 0.0 
0.0 0.0 -7.543655628647e+01 
-9.386347866031e+01 -7.246717342444e-01 0.0 
-7.246717342444e-01 -2.040733523890e+02 0.0 
0.0 0.0 -8.432579714697e+01 
-1.011182034382e+02 -7.777293169260e-01 0.0 
-7.777293169260e-01 -2.252945494730e+02 0.0 
0.0 0.0 -9.332671673305e+01 
-1.077159896919e+02 -6.690819287632e-01 0.0 
-6.690819287632e-01 -2.456445599864e+02 0.0 
0.0 0.0 -1.021214533000e+02 
-1.134527160836e+02 -7.913587575722e-01 0.0 
-7.913587575722e-01 -2.639719482715e+02 0.0 
0.0 0.0 -1.101016294125e+02 
-1.190612880583e+02 -3.369468450484e-01 0.0 
-3.369468450484e-01 -2.839532313860e+02 0.0 
0.0 0.0 -1.187366506696e+02 
-1.246984413089e+02 -2.313087971372e-01 0.0 
-2.313087971372e-01 -3.041922469812e+02 0.0 
0.0 0.0 -1.276209789450e+02 
-1.318179572848e+02 -1.730836219759e-01 0.0 
-1.730836219759e-01 -3.236160592059e+02 0.0 
0.0 0.0 -1.362240494941e+02 
-1.412838170268e+02 -9.359297656113e-02 0.0 
-9.359297656113e-02 -3.430006861377e+02 0.0 
0.0 0.0 -1.448853509494e+02 
-1.511205871998e+02 -1.016695730258e-01 0.0 
-1.016695730258e-01 -3.624240365594e+02 0.0 
0.0 0.0 -1.536633871278e+02 
-1.606831991313e+02 -1.644027883929e-01 0.0 
-1.644027883929e-01 -3.808775388241e+02 0.0 
0.0 0.0 -1.620682213866e+02 
-1.007497153477e+02 1.476223565588e+00 0.0 
1.476223565588e+00 -2.338070742566e+02 0.0 
0.0 0.0 -9.996703688128e+01 
-1.002509210677e+02 2.661271418454e+00 0.0 
2.661271418454e+00 -2.328423039528e+02 0.0 
0.0 0.0 -9.952796750617e+01 
-1.004725557947e+02 4.200674400159e+00 0.0 
4.200674400159e+00 -2.332857790521e+02 0.0 
0.0 0.0 -9.972750045406e+01 
-1.005335985470e+02 5.185246707728e+00 0.0 
5.185246707728e+00 -2.336053298731e+02 0.0 
0.0 0.0 -9.984167852602e+01 
-1.007241382447e+02 6.706444633810e+00 0.0 
6.706444633810e+00 -2.334202623270e+02 0.0 
0.0 0.0 -9.984332017152e+01 
-1.012394538448e+02 8.255103748578e+00 0.0 
8.255103748578e+00 -2.346611261804e+02 0.0 
0.0 0.0 -1.003701740076e+02 
-1.021174240546e+02 9.958345958064e+00 0.0 
9.958345958064e+00 -2.359115206645e+02 0.0 
0.0 0.0 -1.010086834157e+02 
-1.023084913195e+02 1.187840392654e+01 0.0 
1.187840392654e+01 -2.367375080206e+02 0.0 
0.0 0.0 -1.013137998020e+02 
-1.034489966813e+02 1.389841589644e+01 0.0 
1.389841589644e+01 -2.390315931438e+02 0.0 
0.0 0.0 -1.023441769475e+02 
-1.040348261819e+02 1.562696879646e+01 0.0 
1.562696879646e+01 -2.408045527095e+02 0.0 
0.0 0.0 -1.030518136674e+02 
-1.051405745823e+02 1.781754266598e+01 0.0 
1.781754266598e+01 -2.424051612224e+02 0.0 
0.0 0.0 -1.038637207414e+02 
-1.064417334733e+02 2.011526567022e+01 0.0 
2.011526567022e+01 -2.457781842071e+02 0.0 
0.0 0.0 -1.052659753041e+02 
-1.084999178141e+02 2.244929839992e+01 0.0 
2.244929839992e+01 -2.498656140775e+02 0.0 
0.0 0.0 -1.071096595675e+02 
-1.096418467599e+02 2.474346663523e+01 0.0 
2.474346663523e+01 -2.533295342961e+02 0.0 
0.0 0.0 -1.084914143168e+02 
-1.117786542319e+02 2.700700792036e+01 0.0 
2.700700792036e+01 -2.576470621691e+02 0.0 
0.0 0.0 -1.104277149203e+02 
-1.133164528586e+02 2.898532549255e+01 0.0 
2.898532549255e+01 -2.621180919602e+02 0.0 
0.0 0.0 -1.122303634456e+02 
-1.158529108302e+02 3.104381386285e+01 0.0 
3.104381386285e+01 -2.679916064709e+02 0.0 
0.0 0.0 -1.147533551904e+02 
-1.191269259593e+02 3.293156130869e+01 0.0 
3.293156130869e+01 -2.756016932665e+02 0.0 
0.0 0.0 -1.180185857677e+02 
-1.218973307543e+02 3.449140164468e+01 0.0 
3.449140164468e+01 -2.830762390188e+02 0.0 
0.0 0.0 -1.210920709319e+02 
-1.248521086007e+02 3.570247527858e+01 0.0 
3.570247527858e+01 -2.908699972985e+02 0.0 
0.0 0.0 -1.243166317698e+02 
-1.276813470982e+02 3.637820421630e+01 0.0 
3.637820421630e+01 -2.984842494327e+02 0.0 
0.0 0.0 -1.274496789593e+02 
-1.308738650376e+02 3.685013852655e+01 0.0 
3.685013852655e+01 -3.061571565111e+02 0.0 
0.0 0.0 -1.307093064646e+02 
-1.337974475071e+02 3.681965214842e+01 0.0 
3.681965214842e+01 -3.139505156416e+02 0.0 
0.0 0.0 -1.339243889446e+02 
-1.367745315211e+02 3.642465990520e+01 0.0 
3.642465990520e+01 -3.215467736026e+02 0.0 
0.0 0.0 -1.370963915371e+02 
-1.398004107341e+02 3.568760448879e+01 0.0 
3.568760448879e+01 -3.291189337342e+02 0.0 
0.0 0.0 -1.402758033405e+02 
-1.427749969559e+02 3.471839055559e+01 0.0 
3.471839055559e+01 -3.364002230751e+02 0.0 
0.0 0.0 -1.433525660093e+02 
-1.454276438711e+02 3.340998239708e+01 0.0 
3.340998239708e+01 -3.431352423788e+02 0.0 
0.0 0.0 -1.461688658750e+02 
-1.479364420829e+02 3.190222991206e+01 0.0 
3.190222991206e+01 -3.492959625901e+02 0.0 
0.0 0.0 -1.487697214019e+02 
-1.501456358068e+02 3.019716450217e+01 0.0 
3.019716450217e+01 -3.548090395511e+02 0.0 
0.0 0.0 -1.510864026074e+02 
-1.528569354565e+02 2.863360211830e+01 0.0 
2.863360211830e+01 -3.606149104071e+02 0.0 
0.0 0.0 -1.536415537591e+02 
-1.544807014106e+02 2.644279184330e+01 0.0 
2.644279184330e+01 -3.653428078079e+02 0.0 
0.0 0.0 -1.555470527656e+02 
-1.559044132551e+02 2.461694521616e+01 0.0 
2.461694521616e+01 -3.689303733246e+02 0.0 
0.0 0.0 -1.570504359739e+02 
-1.577890849156e+02 2.252265406932e+01 0.0 
2.252265406932e+01 -3.732334757550e+02 0.0 
0.0 0.0 -1.589067682012e+02 
-1.594443676796e+02 2.056212873748e+01 0.0 
2.056212873748e+01 -3.770496036070e+02 0.0 
0.0 0.0 -1.605481913860e+02 
-1.608975164610e+02 1.854347077053e+01 0.0 
1.854347077053e+01 -3.804386726660e+02 0.0 
0.0 0.0 -1.620008567381e+02 
-1.622441336580e+02 1.657242686954e+01 0.0 
1.657242686954e+01 -3.833059559233e+02 0.0 
0.0 0.0 -1.632650268744e+02 
-1.632268922496e+02 1.465864019656e+01 0.0 
1.465864019656e+01 -3.856321240371e+02 0.0 
0.0 0.0 -1.642577048860e+02 
-1.640392558444e+02 1.278408961666e+01 0.0 
1.278408961666e+01 -3.873361564039e+02 0.0 
0.0 0.0 -1.650126236745e+02 
-1.645761047642e+02 1.112335204493e+01 0.0 
1.112335204493e+01 -3.885299041556e+02 0.0 
0.0 0.0 -1.655318026759e+02 
-1.649569866963e+02 9.463086566953e+00 0.0 
9.463086566953e+00 -3.893141491491e+02 0.0 
0.0 0.0 -1.658813407536e+02 
-1.656650678228e+02 8.161463053834e+00 0.0 
8.161463053834e+00 -3.904694288480e+02 0.0 
0.0 0.0 -1.664403490012e+02 
-1.664970852033e+02 6.772998051633e+00 0.0 
6.772998051633e+00 -3.918774342045e+02 0.0 
0.0 0.0 -1.671123558223e+02 
-1.668767895120e+02 5.748457460198e+00 0.0 
5.748457460198e+00 -3.925122690300e+02 0.0 
0.0 0.0 -1.674167175626e+02 
-1.656580191040e+02 4.581153559639e+00 0.0 
4.581153559639e+00 -3.904462794992e+02 0.0 
0.0 0.0 -1.664312895810e+02 
-1.670336695859e+02 3.554114246478e+00 0.0 
3.554114246478e+00 -3.925604908359e+02 0.0 
0.0 0.0 -1.674782481265e+02 
-1.666604795429e+02 2.761215141467e+00 0.0 
2.761215141467e+00 -3.918831469677e+02 0.0 
0.0 0.0 -1.671630879532e+02 
-1.670483246995e+02 2.229622076713e+00 0.0 
2.229622076713e+00 -3.924540594915e+02 0.0 
0.0 0.0 -1.674507152573e+02 
-1.673726888030e+02 1.286456269806e+00 0.0 
1.286456269806e+00 -3.930893161052e+02 0.0 
0.0 0.0 -1.677386014725e+02 
-1.673124708584e+02 7.531968435165e-01 0.0 
7.531968435165e-01 -3.929985208003e+02 0.0 
0.0 0.0 -1.676932974976e+02 
-4.352827906170e+01 3.346085372277e-01 0.0 
3.346085372277e-01 -5.969224500734e+01 0.0 
0.0 0.0 -3.056615722071e+01 
-5.127659637068e+01 4.216961643695e-01 0.0 
4.216961643695e-01 -7.953084971141e+01 0.0 
0.0 0.0 -3.884223382463e+01 
-5.890692076353e+01 4.538346882076e-01 0.0 
4.538346882076e-01 -9.929817532607e+01 0.0 
0.0 0.0 -4.706152882688e+01 
-6.602767688976e+01 5.373489904290e-01 0.0 
5.373489904290e-01 -1.187789001145e+02 0.0 
0.0 0.0 -5.504197310128e+01 
-7.300151915017e+01 5.453559577321e-01 0.0 
5.453559577321e-01 -1.388530362884e+02 0.0 
0.0 0.0 -6.315636663157e+01 
-7.993737024806e+01 6.460281883846e-01 0.0 
6.460281883846e-01 -1.591887161838e+02 0.0 
0.0 0.0 -7.133782592955e+01 
-8.616285504571e+01 6.440606297757e-01 0.0 
6.440606297757e-01 -1.794039330969e+02 0.0 
0.0 0.0 -7.927003644279e+01 
-9.192431549360e+01 7.839601042600e-01 0.0 
7.839601042600e-01 -1.995324996143e+02 0.0 
0.0 0.0 -8.703704453238e+01 
-9.804288151301e+01 8.576314913973e-01 0.0 
8.576314913973e-01 -2.205615585338e+02 0.0 
0.0 0.0 -9.518133201403e+01 
-6.871129369539e+01 3.221920733051e+01 0.0 
3.221920733051e+01 -6.966759287299e+01 0.0 
0.0 0.0 -4.193705012642e+01 
-5.106627169256e+01 8.086435812722e+00 0.0 
8.086435812722e+00 -4.426838975493e+01 0.0 
0.0 0.0 -2.769833898316e+01 
-4.900235077054e+01 3.415830697227e+01 0.0 
3.415830697227e+01 -3.208602424175e+01 0.0 
0.0 0.0 -2.292284199006e+01 
-4.577833336632e+01 3.109661414125e+01 0.0 
3.109661414125e+01 -3.062269819967e+01 0.0 
0.0 0.0 -1.904931808484e+01 
-4.446421626051e+01 3.005468967863e+01 0.0 
3.005468967863e+01 -2.890176862877e+01 0.0 
0.0 0.0 -1.840740280715e+01 
-4.243768313736e+01 2.921270426924e+01 0.0 
2.921270426924e+01 -2.758233984130e+01 0.0 
0.0 0.0 -1.796160999679e+01 
-4.056916899853e+01 2.824406926810e+01 0.0 
2.824406926810e+01 -2.764814458199e+01 0.0 
0.0 0.0 -1.707100044880e+01 
-3.933327089967e+01 2.686526824499e+01 0.0 
2.686526824499e+01 -2.739297915090e+01 0.0 
0.0 0.0 -1.525067269587e+01 
-4.210196741252e+01 2.623260654928e+01 0.0 
2.623260654928e+01 -2.703321645436e+01 0.0 
0.0 0.0 -1.574694710459e+01 
-5.299086861899e+01 1.891366446721e+01 0.0 
1.891366446721e+01 -2.247735839054e+01 0.0 
0.0 0.0 -1.946068684640e+01 
-4.589590648658e+01 9.770175824602e+00 0.0 
9.770175824602e+00 -2.384706234415e+01 0.0 
0.0 0.0 -1.894043466257e+01 
-2.282583773898e+01 8.135132146167e-01 0.0 
8.135132146167e-01 -7.317198573498e+00 0.0 
0.0 0.0 -8.642910893743e+00 
-2.718431318385e+01 5.611948603412e-01 0.0 
5.611948603412e-01 -1.954364095678e+01 0.0 
0.0 0.0 -1.361838624219e+01 
-3.435323887136e+01 -2.069892256438e-01 0.0 
-2.069892256438e-01 -3.718873529333e+01 0.0 
0.0 0.0 -2.106259224940e+01 
-3.500299214715e+01 4.661311221061e-02 0.0 
4.661311221061e-02 -3.832831519931e+01 0.0 
0.0 0.0 -2.159939220394e+01 
-3.506334478906e+01 8.092511125163e-02 0.0 
8.092511125163e-02 -3.837535402394e+01 0.0 
0.0 0.0 -2.163160964390e+01 
-3.520155287966e+01 1.505671967201e-01 0.0 
1.505671967201e-01 -3.817419681852e+01 0.0 
0.0 0.0 -2.161272490945e+01 
-3.670572014301e+01 1.988116608527e-01 0.0 
1.988116608527e-01 -4.083290349461e+01 0.0 
0.0 0.0 -2.286158709128e+01 
-3.595266887948e+01 1.888369139488e-01 0.0 
1.888369139488e-01 -3.848244276171e+01 0.0 
0.0 0.0 -2.193053349236e+01 
-3.646218352216e+01 3.124815076895e-01 0.0 
3.124815076895e-01 -3.834238381673e+01 0.0 
0.0 0.0 -2.204137020167e+01 
-3.697793990004e+01 3.548071384377e-01 0.0 
3.548071384377e-01 -3.855883289427e+01 0.0 
0.0 0.0 -2.226103183829e+01 
-3.784747312616e+01 6.184679309315e-01 0.0 
6.184679309315e-01 -3.905971149761e+01 0.0 
0.0 0.0 -2.267215538713e+01 
-3.874522307691e+01 8.970847911348e-01 0.0 
8.970847911348e-01 -3.912262357576e+01 0.0 
0.0 0.0 -2.296035399580e+01 
-3.994829270122e+01 1.448851673645e+00 0.0 
1.448851673645e+00 -3.927111337914e+01 0.0 
0.0 0.0 -2.336582182411e+01 
-4.138835826759e+01 2.228634572129e+00 0.0 
2.228634572129e+00 -3.953998023185e+01 0.0 
0.0 0.0 -2.385559646254e+01 
-4.351631120538e+01 3.347514625055e+00 0.0 
3.347514625055e+00 -4.025491754001e+01 0.0 
0.0 0.0 -2.463344771534e+01 
-4.619033518759e+01 5.069399342618e+00 0.0 
5.069399342618e+00 -4.147194875809e+01 0.0 
0.0 0.0 -2.567709743171e+01 
-9.481998079438e+01 1.579992850316e+01 0.0 
1.579992850316e+01 -9.619869347826e+01 0.0 
0.0 0.0 -5.766673529836e+01 
-1.127755232179e+02 3.570445903416e+00 0.0 
3.570445903416e+00 -1.041665991808e+02 0.0 
0.0 0.0 -6.544971150815e+01 
-1.195552859643e+02 -2.174416297482e+00 0.0 
-2.174416297482e+00 -1.038434611616e+02 0.0 
0.0 0.0 -6.735379448659e+01 
-1.088577385048e+02 -1.030536450851e+01 0.0 
-1.030536450851e+01 -9.501109576348e+01 0.0 
0.0 0.0 -6.149426784528e+01 
-7.280754388271e+01 -2.144947498562e+01 0.0 
-2.144947498562e+01 -5.664301160311e+01 0.0 
0.0 0.0 -3.921405688918e+01 
-3.979313805791e+01 -1.526962110652e+01 0.0 
-1.526962110652e+01 -1.985085659067e+01 0.0 
0.0 0.0 -1.761905745405e+01 
-2.261178314808e+01 -4.132164108465e+00 0.0 
-4.132164108465e+00 -1.082498091172e+01 0.0 
0.0 0.0 -9.462847893516e+00 
-1.604574536764e+01 -1.010401772595e+00 0.0 
-1.010401772595e+00 -9.231016419600e+00 0.0 
0.0 0.0 -6.956448235735e+00 
-1.315962598349e+01 2.117561840236e-02 0.0 
2.117561840236e-02 -8.563132169218e+00 0.0 
0.0 0.0 -6.146129397404e+00 
-1.214161974738e+01 3.474906853387e-01 0.0 
3.474906853387e-01 -7.906249803200e+00 0.0 
0.0 0.0 -5.582066617954e+00 
-1.144026970490e+01 1.458298524653e-01 0.0 
1.458298524653e-01 -7.978602767314e+00 0.0 
0.0 0.0 -5.171641502359e+00 
-1.127682575571e+01 -1.405002564831e-01 0.0 
-1.405002564831e-01 -8.749564853238e+00 0.0 
0.0 0.0 -5.146123190398e+00 
-1.077853110248e+01 -2.795044999758e-01 0.0 
-2.795044999758e-01 -8.549444808270e+00 0.0 
0.0 0.0 -4.477349297982e+00 
-1.006515240767e+01 -1.911200513269e-01 0.0 
-1.911200513269e-01 -7.881921294754e+00 0.0 
0.0 0.0 -4.069855596830e+00 
-9.385575262477e+00 -1.362810070965e-01 0.0 
-1.362810070965e-01 -7.953508403849e+00 0.0 
0.0 0.0 -3.878090680836e+00 
-9.044267870782e+00 -9.868313555000e-02 0.0 
-9.868313555000e-02 -8.216717538358e+00 0.0 
0.0 0.0 -3.835842093157e+00 
-8.798083228489e+00 -2.022402676527e-02 0.0 
-2.022402676527e-02 -8.263443014520e+00 0.0 
0.0 0.0 -3.749802721923e+00 
-8.716917298874e+00 -4.784032557586e-02 0.0 
-4.784032557586e-02 -7.803333596245e+00 0.0 
0.0 0.0 -3.626843277456e+00 
-8.977589394793e+00 -1.367998872643e-01 0.0 
-1.367998872643e-01 -7.131670554171e+00 0.0 
0.0 0.0 -3.585495739166e+00 
-2.281693186632e+01 -1.835031555943e-01 0.0 
-1.835031555943e-01 -9.534300838739e+00 0.0 
0.0 0.0 -9.305369811519e+00 
-2.268593037646e+01 3.974875445989e-02 0.0 
3.974875445989e-02 -9.717828694953e+00 0.0 
0.0 0.0 -9.321127721423e+00 
-2.271055035707e+01 -1.291415386663e-02 0.0 
-1.291415386663e-02 -9.657181512463e+00 0.0 
0.0 0.0 -9.310319560861e+00 
-2.269532499758e+01 -6.033105532728e-02 0.0 
-6.033105532728e-02 -9.665660596525e+00 0.0 
0.0 0.0 -9.308295678232e+00 
-2.267044344198e+01 -1.032453762729e-01 0.0 
-1.032453762729e-01 -9.646090328284e+00 0.0 
0.0 0.0 -9.294960131080e+00 
-2.256746384450e+01 -1.521634619424e-01 0.0 
-1.521634619424e-01 -9.632680922338e+00 0.0 
0.0 0.0 -9.260043430050e+00 
-2.245333714867e+01 -1.907371316770e-01 0.0 
-1.907371316770e-01 -9.632671347825e+00 0.0 
0.0 0.0 -9.225802548948e+00 
-2.232176153549e+01 -1.948112949699e-01 0.0 
-1.948112949699e-01 -9.598864664757e+00 0.0 
0.0 0.0 -9.176187860072e+00 
-2.222132996834e+01 -2.636398702006e-01 0.0 
-2.636398702006e-01 -9.545532791040e+00 0.0 
0.0 0.0 -9.130058827813e+00 
-2.207677708920e+01 -3.203935050525e-01 0.0 
-3.203935050525e-01 -9.561355836689e+00 0.0 
0.0 0.0 -9.091439877767e+00 
-2.217218385357e+01 -3.017470454794e-01 0.0 
-3.017470454794e-01 -9.569216368290e+00 0.0 
0.0 0.0 -9.038260351429e+00 
-2.249717777331e+01 -2.096174751151e-01 0.0 
-2.096174751151e-01 -9.591684739937e+00 0.0 
0.0 0.0 -9.054385851932e+00 
-2.319419064307e+01 3.450203654696e-02 0.0 
3.450203654696e-02 -9.708418149214e+00 0.0 
0.0 0.0 -9.191358591772e+00 
-2.464987446071e+01 5.603687268824e-01 0.0 
5.603687268824e-01 -9.825970284606e+00 0.0 
0.0 0.0 -9.408615645910e+00 
-2.678569551606e+01 1.522298144721e+00 0.0 
1.522298144721e+00 -1.042203935469e+01 0.0 
0.0 0.0 -9.926642945716e+00 
-3.153253254484e+01 3.775735985782e+00 0.0 
3.775735985782e+00 -1.034619884421e+01 0.0 
0.0 0.0 -1.070821939822e+01 
-3.995085268229e+01 6.221531608103e+00 0.0 
6.221531608103e+00 -5.698861339635e+00 0.0 
0.0 0.0 -1.115146174077e+01 
-3.803420116022e+01 4.733165053346e+00 0.0 
4.733165053346e+00 -1.907452754318e+01 0.0 
0.0 0.0 -1.570405070039e+01 
-3.628060087543e+01 3.313755647102e+00 0.0 
3.313755647102e+00 -2.234927836076e+01 0.0 
0.0 0.0 -1.649677497667e+01 
-3.272337817026e+01 1.665405372170e+00 0.0 
1.665405372170e+00 -2.051440826035e+01 0.0 
0.0 0.0 -1.514601849058e+01 
-3.084579298368e+01 9.287674788520e-01 0.0 
9.287674788520e-01 -2.008738694282e+01 0.0 
0.0 0.0 -1.463120041668e+01 
-2.955077731266e+01 5.233756007330e-01 0.0 
5.233756007330e-01 -1.989803440240e+01 0.0 
0.0 0.0 -1.430642720593e+01 
-2.869612506999e+01 2.415978920954e-01 0.0 
2.415978920954e-01 -1.981256863010e+01 0.0 
0.0 0.0 -1.411052825246e+01 
-2.813481435450e+01 7.051472811915e-02 0.0 
7.051472811915e-02 -1.967859257887e+01 0.0 
0.0 0.0 -1.394402208001e+01 
-2.776512045976e+01 4.281154224276e-02 0.0 
4.281154224276e-02 -1.961754801135e+01 0.0 
0.0 0.0 -1.381480054133e+01 
-2.759813375202e+01 -1.272822209398e-02 0.0 
-1.272822209398e-02 -1.966475128117e+01 0.0 
0.0 0.0 -1.377886550996e+01 
-2.739372840276e+01 -2.976719850084e-02 0.0 
-2.976719850084e-02 -1.962061953720e+01 0.0 
0.0 0.0 -1.370430438199e+01 
-2.726965488209e+01 -3.951658806457e-02 0.0 
-3.951658806457e-02 -1.959688930153e+01 0.0 
0.0 0.0 -1.365996325509e+01 
-2.718878824754e+01 3.410605388602e-03 0.0 
3.410605388602e-03 -1.959743437150e+01 0.0 
0.0 0.0 -1.363586678571e+01 
-2.708166093428e+01 -5.153981818531e-03 0.0 
-5.153981818531e-03 -1.960735218142e+01 0.0 
0.0 0.0 -1.360670393471e+01 
-2.700558695395e+01 5.713325319032e-02 0.0 
5.713325319032e-02 -1.952657057421e+01 0.0 
0.0 0.0 -1.355964725845e+01 
-2.699136062460e+01 1.861212691299e-01 0.0 
1.861212691299e-01 -1.962581801981e+01 0.0 
0.0 0.0 -1.358515359332e+01 
-2.710738535982e+01 -4.080316556260e-01 0.0 
-4.080316556260e-01 -1.977964541138e+01 0.0 
0.0 0.0 -1.366610923136e+01 
-5.152506895957e+01 3.787706181929e+01 0.0 
3.787706181929e+01 -4.014660023862e+01 0.0 
0.0 0.0 -2.808990874089e+01 
-4.689172785781e+01 3.253668468299e+01 0.0 
3.253668468299e+01 -3.166700111705e+01 0.0 
0.0 0.0 -2.031557946841e+01 
-4.491107541520e+01 3.035354389790e+01 0.0 
3.035354389790e+01 -2.941041569559e+01 0.0 
0.0 0.0 -1.844432367982e+01 
-4.385361541703e+01 2.972778191265e+01 0.0 
2.972778191265e+01 -2.862497348202e+01 0.0 
0.0 0.0 -1.849926460713e+01 
-4.241233332456e+01 2.947583144303e+01 0.0 
2.947583144303e+01 -2.800584452737e+01 0.0 
0.0 0.0 -1.800850552267e+01 
-3.984920656786e+01 2.799976451585e+01 0.0 
2.799976451585e+01 -2.764869782376e+01 0.0 
0.0 0.0 -1.610820536441e+01 
-3.974506780173e+01 2.634485686821e+01 0.0 
2.634485686821e+01 -2.732182223844e+01 0.0 
0.0 0.0 -1.461624396954e+01 
-4.873539033007e+01 2.592571299405e+01 0.0 
2.592571299405e+01 -2.701609709200e+01 0.0 
0.0 0.0 -1.863481230467e+01 
-4.891885006576e+01 1.222915137964e+01 0.0 
1.222915137964e+01 -1.783628141902e+01 0.0 
0.0 0.0 -1.738525951652e+01 
-4.925852042520e+01 9.004729160719e+00 0.0 
9.004729160719e+00 -3.549765325108e+01 0.0 
0.0 0.0 -2.414213749185e+01 
-4.693409744072e+01 3.292284946939e+01 0.0 
3.292284946939e+01 -4.187175728316e+01 0.0 
0.0 0.0 -2.300054131611e+01 
-1.521953615810e+02 2.105045218983e+01 0.0 
2.105045218983e+01 -3.673973121942e+02 0.0 
0.0 0.0 -1.554778021326e+02 
-1.558411192663e+01 -1.281447821796e+00 0.0 
-1.281447821796e+00 -1.721825585866e+01 0.0 
0.0 0.0 -8.959440062968e+00 
-6.591674133625e+01 -2.131510483089e+01 0.0 
-2.131510483089e+01 -8.559029458678e+01 0.0 
0.0 0.0 -4.627315727344e+01 
-1.582869036545e+02 1.155829017723e+01 0.0 
1.155829017723e+01 -3.800587806345e+02 0.0 
0.0 0.0 -1.611037052867e+02 
-4.404222298414e+01 3.011000533972e+01 0.0 
3.011000533972e+01 -3.778041232268e+01 0.0 
0.0 0.0 -2.135136591810e+01 
-9.784272294605e+01 -8.069504582134e-01 0.0 
-8.069504582134e-01 -2.155485007647e+02 0.0 
0.0 0.0 -8.916441854986e+01 
-1.445644365588e+02 2.847376083549e+01 0.0 
2.847376083549e+01 -3.488151596342e+02 0.0 
0.0 0.0 -1.476138788579e+02 
-4.230594262748e+01 2.891549934155e+01 0.0 
2.891549934155e+01 -3.773418398916e+01 0.0 
0.0 0.0 -1.963270023936e+01 
-1.362610066290e+02 3.445601205595e+01 0.0 
3.445601205595e+01 -3.249012801427e+02 0.0 
0.0 0.0 -1.379486860315e+02 
-5.362904068459e+01 2.553607445288e+01 0.0 
2.553607445288e+01 -3.817396500446e+01 0.0 
0.0 0.0 -2.371886552085e+01 
-1.618022289626e+02 5.951300893051e+00 0.0 
5.951300893051e+00 -3.847097516300e+02 0.0 
0.0 0.0 -1.635535941778e+02 
-1.046879897324e+01 -4.411829815321e-01 0.0 
-4.411829815321e-01 -1.623729025587e+01 0.0 
0.0 0.0 -6.250472416395e+00 
-1.263386613085e+02 3.597758771219e+01 0.0 
3.597758771219e+01 -2.941468287871e+02 0.0 
0.0 0.0 -1.257456470287e+02 
-5.863477873770e+01 1.282819930084e+01 0.0 
1.282819930084e+01 -5.706322737552e+01 0.0 
0.0 0.0 -3.372084237393e+01 
-6.088156426556e+01 -1.074546494413e+00 0.0 
-1.074546494413e+00 -1.324181210914e+02 0.0 
0.0 0.0 -5.346450601925e+01 
-1.152309943782e+02 -3.565755268759e-01 0.0 
-3.565755268759e-01 -2.709742153116e+02 0.0 
0.0 0.0 -1.130425559579e+02 
-1.191621756834e+02 3.313010440554e+01 0.0 
3.313010440554e+01 -2.705323711111e+02 0.0 
0.0 0.0 -1.165083640384e+02 
-1.103917381489e+02 2.513621536886e+01 0.0 
2.513621536886e+01 -2.469596498653e+02 0.0 
0.0 0.0 -1.068054164043e+02 
-9.995452876121e+01 7.409500275596e+00 0.0 
7.409500275596e+00 -2.261223143310e+02 0.0 
0.0 0.0 -9.742305292765e+01 
-1.019043628421e+02 1.236806348521e+01 0.0 
1.236806348521e+01 -2.275805483109e+02 0.0 
0.0 0.0 -9.844547334590e+01 
-1.057071996728e+02 1.868843211213e+01 0.0 
1.868843211213e+01 -2.363492168251e+02 0.0 
0.0 0.0 -1.022169249494e+02 
-5.469276037434e+01 6.584202697304e+00 0.0 
6.584202697304e+00 -6.045188782921e+01 0.0 
0.0 0.0 -3.413311124044e+01 
-4.723085568989e+01 1.820024295231e+00 0.0 
1.820024295231e+00 -5.729600405523e+01 0.0 
0.0 0.0 -3.095805792354e+01 
-4.507255075435e+01 9.526253732002e-01 0.0 
9.526253732002e-01 -5.816270131674e+01 0.0 
0.0 0.0 -3.057057562133e+01 
-6.968000072395e+01 6.380932114473e-01 0.0 
6.380932114473e-01 -1.289006611026e+02 0.0 
0.0 0.0 -5.917419854795e+01 
-1.621054819492e+02 3.204069436595e+00 0.0 
3.204069436595e+00 -3.842407349790e+02 0.0 
0.0 0.0 -1.635038650785e+02 
-7.671234581034e+01 1.240233634907e+01 0.0 
1.240233634907e+01 -1.056883854399e+02 0.0 
0.0 0.0 -5.553974801219e+01 
-8.955291517514e+00 -2.251555346779e-01 0.0 
-2.251555346779e-01 -1.727818496665e+01 0.0 
0.0 0.0 -5.778136020636e+00 
-1.361163721122e+02 3.405793113264e-01 0.0 
3.405793113264e-01 -3.326581424132e+02 0.0 
0.0 0.0 -1.402323543576e+02 
-4.236067200710e+01 2.505160672414e-01 0.0 
2.505160672414e-01 -5.572256999082e+01 0.0 
0.0 0.0 -2.902497259937e+01 
-1.940441396519e+01 -6.582784596877e-01 0.0 
-6.582784596877e-01 -6.907447548143e+01 0.0 
0.0 0.0 -2.538091518040e+01 
-1.134896100533e+02 2.907844776460e+01 0.0 
2.907844776460e+01 -2.537609887108e+02 0.0 
0.0 0.0 -1.097751796292e+02 
-1.413096158210e+02 3.196592251583e+01 0.0 
3.196592251583e+01 -3.388814391768e+02 0.0 
0.0 0.0 -1.436573164994e+02 
-1.313300603575e+02 3.594350313321e+01 0.0 
3.594350313321e+01 -3.098637463698e+02 0.0 
0.0 0.0 -1.319581420182e+02 
-1.475004526449e+02 2.502950449673e+01 0.0 
2.502950449673e+01 -3.572378527546e+02 0.0 
0.0 0.0 -1.510214916199e+02 
-1.555026345954e+02 1.717005587204e+01 0.0 
1.717005587204e+01 -3.744041051370e+02 0.0 
0.0 0.0 -1.585720219197e+02 
-3.483294200805e+01 -1.339110585413e+01 0.0 
-1.339110585413e+01 -2.555181944770e+01 0.0 
0.0 0.0 -1.597857478450e+01 
-4.998618144541e+01 3.364479929739e+00 0.0 
3.364479929739e+00 -5.753397260641e+01 0.0 
0.0 0.0 -3.185604621554e+01 
-1.581988256506e+02 8.326367773627e+00 0.0 
8.326367773627e+00 -3.795949185787e+02 0.0 
0.0 0.0 -1.609381232688e+02 
-8.284280447229e+01 9.054641312872e-01 0.0 
9.054641312872e-01 -1.688092265595e+02 0.0 
0.0 0.0 -7.509560930955e+01 
-1.192048818227e+01 -4.064287290595e-01 0.0 
-4.064287290595e-01 -1.680882139983e+01 0.0 
0.0 0.0 -7.732052360983e+00 
-8.129661798346e+01 -1.047949882443e+00 0.0 
-1.047949882443e+00 -1.730769447727e+02 0.0 
0.0 0.0 -7.100333720866e+01 
-9.998386364633e+01 4.569252191824e+00 0.0 
4.569252191824e+00 -2.281533919584e+02 0.0 
0.0 0.0 -9.804117668142e+01 
-4.303538958953e+01 2.979130180294e+01 0.0 
2.979130180294e+01 -3.995054801958e+01 0.0 
0.0 0.0 -2.143156703382e+01 
-4.531895244417e+01 3.099892114590e+01 0.0 
3.099892114590e+01 -3.905808225407e+01 0.0 
0.0 0.0 -2.153258922951e+01 
-4.482597147490e+01 2.812705432058e+01 0.0 
2.812705432058e+01 -3.822507225373e+01 0.0 
0.0 0.0 -1.932735703675e+01 
-5.544308979712e+01 1.759130065403e+01 0.0 
1.759130065403e+01 -4.258544272562e+01 0.0 
0.0 0.0 -2.709977738985e+01 
-5.049780294997e+01 3.774739902452e+01 0.0 
3.774739902452e+01 -4.826196787704e+01 0.0 
0.0 0.0 -2.940394811160e+01 
-5.588221850558e+01 2.870026830882e-01 0.0 
2.870026830882e-01 -9.096462965606e+01 0.0 
0.0 0.0 -4.365405444849e+01 
-1.640076473564e+02 1.719479559373e+00 0.0 
1.719479559373e+00 -3.874182462954e+02 0.0 
0.0 0.0 -1.650277680956e+02 
-8.492761085589e+00 -1.339472943900e-01 0.0 
-1.339472943900e-01 -1.638616387342e+01 0.0 
0.0 0.0 -5.416677900776e+00 
-9.455382299776e+01 1.123148928228e+00 0.0 
1.123148928228e+00 -2.088095639105e+02 0.0 
0.0 0.0 -9.060901607247e+01 
-6.093554840164e+01 1.175679421827e+01 0.0 
1.175679421827e+01 -6.526203039050e+01 0.0 
0.0 0.0 -3.727452152771e+01 
-6.587099371643e+01 1.586461763097e+01 0.0 
1.586461763097e+01 -7.822846912920e+01 0.0 
0.0 0.0 -4.264253591521e+01 
-6.753191051821e+01 1.359328505299e+01 0.0 
1.359328505299e+01 -8.504645977110e+01 0.0 
0.0 0.0 -4.537335852282e+01 
-7.299060562759e+01 1.827503147267e+01 0.0 
1.827503147267e+01 -1.010034212066e+02 0.0 
0.0 0.0 -5.179820805027e+01 
-7.554238832830e+01 1.637153311842e+01 0.0 
1.637153311842e+01 -1.085336156769e+02 0.0 
0.0 0.0 -5.482280120157e+01 
-7.988362149032e+01 1.994729788071e+01 0.0 
1.994729788071e+01 -1.232088147374e+02 0.0 
0.0 0.0 -6.052773086831e+01 
-7.724840173569e+01 2.199449727889e+01 0.0 
2.199449727889e+01 -1.167024467340e+02 0.0 
0.0 0.0 -5.778525454091e+01 
-8.382620228769e+01 2.315672332964e+01 0.0 
2.315672332964e+01 -1.388144293920e+02 0.0 
0.0 0.0 -6.639218950392e+01 
-8.075311674705e+01 2.513194879196e+01 0.0 
2.513194879196e+01 -1.332029411265e+02 0.0 
0.0 0.0 -6.378681736207e+01 
-8.274639628241e+01 1.831133389621e+01 0.0 
1.831133389621e+01 -1.308857356455e+02 0.0 
0.0 0.0 -6.368963957838e+01 
-8.725691901518e+01 2.584625789093e+01 0.0 
2.584625789093e+01 -1.550418934236e+02 0.0 
0.0 0.0 -7.228964373163e+01 
-8.388762518444e+01 2.757507013575e+01 0.0 
2.757507013575e+01 -1.502141715005e+02 0.0 
0.0 0.0 -6.983053900547e+01 
-9.042603114130e+01 2.796757854125e+01 0.0 
2.796757854125e+01 -1.716786330614e+02 0.0 
0.0 0.0 -7.823139926082e+01 
-8.683820888922e+01 2.937982762369e+01 0.0 
2.937982762369e+01 -1.674402593958e+02 0.0 
0.0 0.0 -7.588354048549e+01 
-8.053017652437e+01 2.923792934642e+01 0.0 
2.923792934642e+01 -1.464290249177e+02 0.0 
0.0 0.0 -6.751397963992e+01 
-8.315938414445e+01 3.065613622527e+01 0.0 
3.065613622527e+01 -1.640777388576e+02 0.0 
0.0 0.0 -7.367018169051e+01 
-7.756907420854e+01 3.052686433235e+01 0.0 
3.052686433235e+01 -1.435324155700e+02 0.0 
0.0 0.0 -6.527181116768e+01 
-7.990313701069e+01 3.158616617347e+01 0.0 
3.158616617347e+01 -1.614753716705e+02 0.0 
0.0 0.0 -7.150266212265e+01 
-8.583408264094e+01 3.146268124053e+01 0.0 
3.146268124053e+01 -1.815095289586e+02 0.0 
0.0 0.0 -7.976300724329e+01 
-8.219507431459e+01 3.204071669713e+01 0.0 
3.204071669713e+01 -1.790640294684e+02 0.0 
0.0 0.0 -7.764019136694e+01 
-7.692463834204e+01 3.209326080134e+01 0.0 
3.209326080134e+01 -1.594376480529e+02 0.0 
0.0 0.0 -6.930828621702e+01 
-7.896074633922e+01 3.219615772225e+01 0.0 
3.219615772225e+01 -1.770361003037e+02 0.0 
0.0 0.0 -7.549341252551e+01 
-7.412246209332e+01 3.233911195655e+01 0.0 
3.233911195655e+01 -1.578306454162e+02 0.0 
0.0 0.0 -6.711140404619e+01 
-7.601238976285e+01 3.203456165442e+01 0.0 
3.203456165442e+01 -1.753050854333e+02 0.0 
0.0 0.0 -7.329935407194e+01 
-7.120077100764e+01 3.233312142104e+01 0.0 
3.233312142104e+01 -1.564511525545e+02 0.0 
0.0 0.0 -6.510377000356e+01 
-7.309160676032e+01 3.169519609997e+01 0.0 
3.169519609997e+01 -1.737034237248e+02 0.0 
0.0 0.0 -7.153436528836e+01 
-7.790039191876e+01 3.131457658587e+01 0.0 
3.131457658587e+01 -1.921332672619e+02 0.0 
0.0 0.0 -7.939330590576e+01 
-7.481252586404e+01 3.062541000281e+01 0.0 
3.062541000281e+01 -1.901751626691e+02 0.0 
0.0 0.0 -7.780525537287e+01 
-6.989280848975e+01 3.124602273089e+01 0.0 
3.124602273089e+01 -1.720611864999e+02 0.0 
0.0 0.0 -7.037060687740e+01 
-7.160251544626e+01 2.985972135418e+01 0.0 
2.985972135418e+01 -1.880971787421e+02 0.0 
0.0 0.0 -7.666918703274e+01 
-6.641208438359e+01 3.068208683477e+01 0.0 
3.068208683477e+01 -1.703062026502e+02 0.0 
0.0 0.0 -6.962565301732e+01 
-6.785145570394e+01 2.902452914131e+01 0.0 
2.902452914131e+01 -1.857502228381e+02 0.0 
0.0 0.0 -7.577767168181e+01 
-7.318242849553e+01 2.811173093166e+01 0.0 
2.811173093166e+01 -2.031057380513e+02 0.0 
0.0 0.0 -8.271612601682e+01 
-6.948585949818e+01 2.699349125535e+01 0.0 
2.699349125535e+01 -1.998660327769e+02 0.0 
0.0 0.0 -8.162932865662e+01 
-6.407237742359e+01 2.784442968619e+01 0.0 
2.784442968619e+01 -1.826219065738e+02 0.0 
0.0 0.0 -7.445888398758e+01 
-6.591495858669e+01 2.550743703434e+01 0.0 
2.550743703434e+01 -1.962736709993e+02 0.0 
0.0 0.0 -8.015984037699e+01 
-6.063197638313e+01 2.633485082779e+01 0.0 
2.633485082779e+01 -1.796302805192e+02 0.0 
0.0 0.0 -7.272116992597e+01 
-6.247384137500e+01 2.352154522748e+01 0.0 
2.352154522748e+01 -1.931196411645e+02 0.0 
0.0 0.0 -7.805940909957e+01 
-5.750599349517e+01 2.407928254437e+01 0.0 
2.407928254437e+01 -1.771301600252e+02 0.0 
0.0 0.0 -7.006932562813e+01 
-5.946106600261e+01 2.073215022650e+01 0.0 
2.073215022650e+01 -1.902187537560e+02 0.0 
0.0 0.0 -7.509630714532e+01 
-6.457924444408e+01 2.042877122844e+01 0.0 
2.042877122844e+01 -2.057421539857e+02 0.0 
0.0 0.0 -8.337649618496e+01 
-6.177205000839e+01 1.726657110917e+01 0.0 
1.726657110917e+01 -2.022978990848e+02 0.0 
0.0 0.0 -8.029089241414e+01 
-5.685581797141e+01 1.727514951378e+01 0.0 
1.727514951378e+01 -1.871399480320e+02 0.0 
0.0 0.0 -7.211367224293e+01 
-5.941945771541e+01 1.342748781472e+01 0.0 
1.342748781472e+01 -1.983351246213e+02 0.0 
0.0 0.0 -7.706452096029e+01 
-6.446303082932e+01 1.385332391833e+01 0.0 
1.385332391833e+01 -2.133576400778e+02 0.0 
0.0 0.0 -8.561386634219e+01 
-6.239409936723e+01 9.777313472676e+00 0.0 
9.777313472676e+00 -2.083738594003e+02 0.0 
0.0 0.0 -8.222800824113e+01 
-6.762504791806e+01 1.062645521247e+01 0.0 
1.062645521247e+01 -2.233953767530e+02 0.0 
0.0 0.0 -9.090677153186e+01 
-6.583233367209e+01 6.467086303654e+00 0.0 
6.467086303654e+00 -2.175403669181e+02 0.0 
0.0 0.0 -8.758567408083e+01 
-6.079096474609e+01 5.248455828539e+00 0.0 
5.248455828539e+00 -2.027660615635e+02 0.0 
0.0 0.0 -7.910337151998e+01 
-6.450216129999e+01 2.035148065392e+00 0.0 
2.035148065392e+00 -2.107850594191e+02 0.0 
0.0 0.0 -8.429258385623e+01 
-6.986736014352e+01 3.811008644576e+00 0.0 
3.811008644576e+00 -2.258929193296e+02 0.0 
0.0 0.0 -9.256711787690e+01 
-6.882770493325e+01 -4.043952657810e-01 0.0 
-4.043952657810e-01 -2.184228777875e+02 0.0 
0.0 0.0 -8.914198859344e+01 
-6.350370061516e+01 -2.499688445489e+00 0.0 
-2.499688445489e+00 -2.030868199551e+02 0.0 
0.0 0.0 -8.103926761509e+01 
-6.800755226478e+01 -4.511583852905e+00 0.0 
-4.511583852905e+00 -2.101228804018e+02 0.0 
0.0 0.0 -8.548784942722e+01 
-7.393085951444e+01 -1.829284030607e+00 0.0 
-1.829284030607e+00 -2.269002300435e+02 0.0 
0.0 0.0 -9.333303533994e+01 
-7.320354713416e+01 -5.467267622145e+00 0.0 
-5.467267622145e+00 -2.178347228200e+02 0.0 
0.0 0.0 -8.932026541869e+01 
-6.714633780763e+01 -8.404512675235e+00 0.0 
-8.404512675235e+00 -2.009257700419e+02 0.0 
0.0 0.0 -8.157585036722e+01 
-7.250461856900e+01 -8.568694923759e+00 0.0 
-8.568694923759e+00 -2.075695267823e+02 0.0 
0.0 0.0 -8.490833905259e+01 
-7.941228015382e+01 -5.055550125294e+00 0.0 
-5.055550125294e+00 -2.254297858227e+02 0.0 
0.0 0.0 -9.298826135465e+01 
-7.862125007228e+01 -7.567117147979e+00 0.0 
-7.567117147979e+00 -2.147304985197e+02 0.0 
0.0 0.0 -8.835449042601e+01 
-7.179243262264e+01 -1.090876536854e+01 0.0 
-1.090876536854e+01 -1.961247381593e+02 0.0 
0.0 0.0 -8.019474520832e+01 
-7.754183480908e+01 -9.463660332388e+00 0.0 
-9.463660332388e+00 -2.033324879990e+02 0.0 
0.0 0.0 -8.344941862270e+01 
-8.449965539768e+01 -6.346292200739e+00 0.0 
-6.346292200739e+00 -2.224676016018e+02 0.0 
0.0 0.0 -9.160654859457e+01 
-8.310757986270e+01 -7.923153582280e+00 0.0 
-7.923153582280e+00 -2.109499292144e+02 0.0 
0.0 0.0 -8.656885684334e+01 
-8.989845005807e+01 -5.196037157682e+00 0.0 
-5.196037157682e+00 -2.302653463650e+02 0.0 
0.0 0.0 -9.447041603890e+01 
-7.599870022691e+01 -1.072660498122e+01 0.0 
-1.072660498122e+01 -1.912588763960e+02 0.0 
0.0 0.0 -7.829163078484e+01 
-8.125806374878e+01 -8.939159493726e+00 0.0 
-8.939159493726e+00 -1.989124202760e+02 0.0 
0.0 0.0 -8.132582571620e+01 
-7.384149862765e+01 -1.129264208608e+01 0.0 
-1.129264208608e+01 -1.787070291687e+02 0.0 
0.0 0.0 -7.290292101297e+01 
-7.886633511956e+01 -9.393395238121e+00 0.0 
-9.393395238121e+00 -1.865520093791e+02 0.0 
0.0 0.0 -7.594491263316e+01 
-7.499189597585e+01 2.625423786838e+01 0.0 
2.625423786838e+01 -2.170637041561e+02 0.0 
0.0 0.0 -8.848379673991e+01 
-7.096949361972e+01 -1.124612853308e+01 0.0 
-1.124612853308e+01 -1.659888211870e+02 0.0 
0.0 0.0 -6.742352764583e+01 
-6.625361610805e+01 -1.335978517615e+01 0.0 
-1.335978517615e+01 -1.583658939392e+02 0.0 
0.0 0.0 -6.448872663778e+01 
-7.581597036457e+01 -9.315619621758e+00 0.0 
-9.315619621758e+00 -1.740910266443e+02 0.0 
0.0 0.0 -7.047871564325e+01 
-8.367737740189e+01 -7.709777268253e+00 0.0 
-7.709777268253e+00 -1.946470823138e+02 0.0 
0.0 0.0 -7.888280125568e+01 
-6.729894128761e+01 -1.068636900710e+01 0.0 
-1.068636900710e+01 -1.532472218735e+02 0.0 
0.0 0.0 -6.186428295716e+01 
-7.202587438179e+01 -8.828367085658e+00 0.0 
-8.828367085658e+00 -1.616086664636e+02 0.0 
0.0 0.0 -6.494993941350e+01 
-6.279457664622e+01 -9.724778708496e+00 0.0 
-9.724778708496e+00 -1.405945329549e+02 0.0 
0.0 0.0 -5.621985206906e+01 
-5.570999416629e+01 2.706381026058e+01 0.0 
2.706381026058e+01 -1.626989105974e+02 0.0 
0.0 0.0 -6.490070835827e+01 
-8.866518486349e+01 3.176574503986e+01 0.0 
3.176574503986e+01 -1.986279949682e+02 0.0 
0.0 0.0 -8.578650491230e+01 
-6.745074465223e+01 -8.018229168745e+00 0.0 
-8.018229168745e+00 -1.491522103097e+02 0.0 
0.0 0.0 -5.936700586963e+01 
-5.742896853854e+01 -8.469593330356e+00 0.0 
-8.469593330356e+00 -1.280618542782e+02 0.0 
0.0 0.0 -5.053357601682e+01 
-5.312528560385e+01 -9.969802783572e+00 0.0 
-9.969802783572e+00 -1.193993382112e+02 0.0 
0.0 0.0 -4.735010682042e+01 
-4.680061712418e+01 -8.254409121305e+00 0.0 
-8.254409121305e+00 -1.069363265243e+02 0.0 
0.0 0.0 -4.158301088798e+01 
-7.842040539238e+01 1.514910560684e+01 0.0 
1.514910560684e+01 -1.172649187136e+02 0.0 
0.0 0.0 -5.830559723178e+01 
-8.497253491784e+01 1.689510412769e+01 0.0 
1.689510412769e+01 -1.390491941212e+02 0.0 
0.0 0.0 -6.680651871170e+01 
-8.020778217485e+01 1.379322935961e+01 0.0 
1.379322935961e+01 -1.252893601122e+02 0.0 
0.0 0.0 -6.124914268612e+01 
-8.703376826596e+01 1.581691353527e+01 0.0 
1.581691353527e+01 -1.475079010770e+02 0.0 
0.0 0.0 -6.996250080289e+01 
-8.250996058894e+01 1.294341987334e+01 0.0 
1.294341987334e+01 -1.348450184300e+02 0.0 
0.0 0.0 -6.480649370569e+01 
-5.114606105818e+01 -6.990194804581e+00 0.0 
-6.990194804581e+00 -1.156846679336e+02 0.0 
0.0 0.0 -4.483637692251e+01 
-9.367946879527e+01 2.657637875006e+01 0.0 
2.657637875006e+01 -1.769286511447e+02 0.0 
0.0 0.0 -8.078243598198e+01 
-9.129046846494e+01 1.868769723200e+01 0.0 
1.868769723200e+01 -1.609482837504e+02 0.0 
0.0 0.0 -7.527162566460e+01 
-7.202816443278e+01 3.211818743660e+01 0.0 
3.211818743660e+01 -1.397132669764e+02 0.0 
0.0 0.0 -6.080130838752e+01 
-6.464764782317e+01 3.190863790736e+01 0.0 
3.190863790736e+01 -1.537466988389e+02 0.0 
0.0 0.0 -6.309718902994e+01 
-7.011174202335e+01 1.424962828456e+01 0.0 
1.424962828456e+01 -2.287936074875e+02 0.0 
0.0 0.0 -9.411038653663e+01 
-7.665718975659e+01 -7.213761018970e+00 0.0 
-7.213761018970e+00 -1.699764449042e+02 0.0 
0.0 0.0 -6.801147231776e+01 
-7.207700335909e+01 -6.519141362999e+00 0.0 
-6.519141362999e+00 -1.577159147383e+02 0.0 
0.0 0.0 -6.252002055146e+01 
-8.107205411152e+01 -5.806210303183e+00 0.0 
-5.806210303183e+00 -1.784069862462e+02 0.0 
0.0 0.0 -7.141956371174e+01 
-9.106360692977e+01 -3.342681020005e+00 0.0 
-3.342681020005e+00 -2.413637732856e+02 0.0 
0.0 0.0 -9.931598652883e+01 
-9.593979102759e+01 -2.627445632724e+00 0.0 
-2.627445632724e+00 -2.492510611988e+02 0.0 
0.0 0.0 -1.019238748503e+02 
-9.670205731760e+01 -5.534340832124e-01 0.0 
-5.534340832124e-01 -2.599595113383e+02 0.0 
0.0 0.0 -1.064747615168e+02 
-1.013125958079e+02 -1.808564904916e-01 0.0 
-1.808564904916e-01 -2.679720322765e+02 0.0 
0.0 0.0 -1.094495155138e+02 
-1.024051509775e+02 1.961442095497e+00 0.0 
1.961442095497e+00 -2.783519675431e+02 0.0 
0.0 0.0 -1.137276003203e+02 
-1.073155899687e+02 2.082750450272e+00 0.0 
2.082750450272e+00 -2.865058882763e+02 0.0 
0.0 0.0 -1.173784239802e+02 
-1.057694735165e+02 2.029518022762e-01 0.0 
2.029518022762e-01 -2.759576894076e+02 0.0 
0.0 0.0 -1.129748697404e+02 
-1.121839122564e+02 2.207788119266e+00 0.0 
2.207788119266e+00 -2.946297036353e+02 0.0 
0.0 0.0 -1.213937533141e+02 
-1.101489928840e+02 5.691677283806e-01 0.0 
5.691677283806e-01 -2.839561310379e+02 0.0 
0.0 0.0 -1.169162784449e+02 
-1.102344310402e+02 3.931991757156e+00 0.0 
3.931991757156e+00 -2.967078076386e+02 0.0 
0.0 0.0 -1.216121244717e+02 
-1.047838402180e+02 4.053884983032e+00 0.0 
4.053884983032e+00 -2.882888062994e+02 0.0 
0.0 0.0 -1.176824827635e+02 
-1.170082235733e+02 2.298680806661e+00 0.0 
2.298680806661e+00 -3.027272183640e+02 0.0 
0.0 0.0 -1.253588223705e+02 
-1.144056601349e+02 8.919475675159e-01 0.0 
8.919475675159e-01 -2.919571863560e+02 0.0 
0.0 0.0 -1.208041886795e+02 
-1.218027377048e+02 2.326029980745e+00 0.0 
2.326029980745e+00 -3.107998925659e+02 0.0 
0.0 0.0 -1.292774114858e+02 
-1.185651106732e+02 1.140869389255e+00 0.0 
1.140869389255e+00 -2.999907715231e+02 0.0 
0.0 0.0 -1.246881136896e+02 
-1.125531201449e+02 -3.227167678559e-01 0.0 
-3.227167678559e-01 -2.808861905932e+02 0.0 
0.0 0.0 -1.161820613256e+02 
-1.163423873875e+02 9.329700772135e-02 0.0 
9.329700772135e-02 -2.889190932301e+02 0.0 
0.0 0.0 -1.200264031772e+02 
-1.106868558997e+02 -1.271419288176e+00 0.0 
-1.271419288176e+00 -2.696711085748e+02 0.0 
0.0 0.0 -1.114988502284e+02 
-7.375811385444e+01 1.153141871698e+01 0.0 
1.153141871698e+01 -2.390514917529e+02 0.0 
0.0 0.0 -9.917636856901e+01 
-7.679888995975e+01 1.478198781010e+01 0.0 
1.478198781010e+01 -2.451068509400e+02 0.0 
0.0 0.0 -1.016025852126e+02 
-8.120370048739e+01 1.282404097232e+01 0.0 
1.282404097232e+01 -2.557220771741e+02 0.0 
0.0 0.0 -1.059104299041e+02 
-8.498508153262e+01 1.583586638308e+01 0.0 
1.583586638308e+01 -2.617143234658e+02 0.0 
0.0 0.0 -1.074084561329e+02 
-9.090640386618e+01 1.444750831854e+01 0.0 
1.444750831854e+01 -2.728689622633e+02 0.0 
0.0 0.0 -1.116512111764e+02 
-9.559180439023e+01 1.716288811742e+01 0.0 
1.716288811742e+01 -2.789567230423e+02 0.0 
0.0 0.0 -1.134605257206e+02 
-1.017907191788e+02 1.606392428753e+01 0.0 
1.606392428753e+01 -2.903013601177e+02 0.0 
0.0 0.0 -1.180659984008e+02 
-9.729727604263e+01 1.339908315194e+01 0.0 
1.339908315194e+01 -2.837758845145e+02 0.0 
0.0 0.0 -1.157914224127e+02 
-9.347630491273e+01 2.959992230007e+01 0.0 
2.959992230007e+01 -1.884495554036e+02 0.0 
0.0 0.0 -8.417775809491e+01 
-5.456153395303e+01 1.316649667239e+01 0.0 
1.316649667239e+01 -1.837541916579e+02 0.0 
0.0 0.0 -6.953190935709e+01 
-5.213969161697e+01 1.744610325692e+01 0.0 
1.744610325692e+01 -1.723290645934e+02 0.0 
0.0 0.0 -6.486324360648e+01 
-4.990708507161e+01 1.297795626904e+01 0.0 
1.297795626904e+01 -1.697373117208e+02 0.0 
0.0 0.0 -6.271331469920e+01 
-4.787555689280e+01 1.776637593342e+01 0.0 
1.776637593342e+01 -1.579577123794e+02 0.0 
0.0 0.0 -5.810724127898e+01 
-4.561441923997e+01 1.316242164734e+01 0.0 
1.316242164734e+01 -1.561871880292e+02 0.0 
0.0 0.0 -5.655035923435e+01 
-4.422706703563e+01 1.856805862375e+01 0.0 
1.856805862375e+01 -1.438665889824e+02 0.0 
0.0 0.0 -5.202249431585e+01 
-4.188578943434e+01 1.385965372419e+01 0.0 
1.385965372419e+01 -1.431865862722e+02 0.0 
0.0 0.0 -5.145245808885e+01 
-4.370836891839e+01 7.575877577541e+00 0.0 
7.575877577541e+00 -1.536849519289e+02 0.0 
0.0 0.0 -5.548326744282e+01 
-3.992642806268e+01 7.728104892830e+00 0.0 
7.728104892830e+00 -1.418757439946e+02 0.0 
0.0 0.0 -5.159588374260e+01 
-4.239220942862e+01 1.005605949245e+00 0.0 
1.005605949245e+00 -1.496366650768e+02 0.0 
0.0 0.0 -5.442978246591e+01 
-3.833873840928e+01 3.785933956665e-01 0.0 
3.785933956665e-01 -1.386785870773e+02 0.0 
0.0 0.0 -5.139189223356e+01 
-4.162645031417e+01 -6.077229216024e+00 0.0 
-6.077229216024e+00 -1.427776361602e+02 0.0 
0.0 0.0 -5.226878758737e+01 
-8.001393268943e+01 3.025996127823e+01 0.0 
3.025996127823e+01 -2.082461981085e+02 0.0 
0.0 0.0 -8.541494316096e+01 
-8.954008119079e+01 1.857260002601e+01 0.0 
1.857260002601e+01 -2.673452454853e+02 0.0 
0.0 0.0 -1.087548388854e+02 
-1.005927288246e+02 1.961332251055e+01 0.0 
1.961332251055e+01 -2.848034731444e+02 0.0 
0.0 0.0 -1.157425698521e+02 
-9.472794484575e+01 2.087732576423e+01 0.0 
2.087732576423e+01 -2.726765997419e+02 0.0 
0.0 0.0 -1.106167687704e+02 
-4.304368408969e+01 -9.266725472742e+00 0.0 
-9.266725472742e+00 -9.824387907875e+01 0.0 
0.0 0.0 -3.841242104755e+01 
-1.226892212364e+02 1.279622655071e+00 0.0 
1.279622655071e+00 -3.080754305917e+02 0.0 
0.0 0.0 -1.285836698490e+02 
-1.139508299857e+02 5.882618141550e+00 0.0 
5.882618141550e+00 -3.065290842325e+02 0.0 
0.0 0.0 -1.257439742655e+02 
-1.080927718084e+02 6.256262070700e+00 0.0 
6.256262070700e+00 -2.976941884462e+02 0.0 
0.0 0.0 -1.214328530314e+02 
-1.080127516719e+02 1.507136354790e+01 0.0 
1.507136354790e+01 -3.013204593512e+02 0.0 
0.0 0.0 -1.226754289001e+02 
-3.958992447296e+01 -6.332581541452e+00 0.0 
-6.332581541452e+00 -9.480365802686e+01 0.0 
0.0 0.0 -3.605091530226e+01 
-4.124284028766e+01 1.999160138913e+01 0.0 
1.999160138913e+01 -1.300480789694e+02 0.0 
0.0 0.0 -4.682188403143e+01 
-4.375048231539e+01 2.353157913673e+01 0.0 
2.353157913673e+01 -1.295760040773e+02 0.0 
0.0 0.0 -4.735106442154e+01 
-8.898564854276e+01 1.492623070431e+01 0.0 
1.492623070431e+01 -1.564182324471e+02 0.0 
0.0 0.0 -7.322116429696e+01 
-8.454685521789e+01 1.226783068000e+01 0.0 
1.226783068000e+01 -1.442540278069e+02 0.0 
0.0 0.0 -6.824026490745e+01 
-1.181190747259e+02 7.961473230693e+00 0.0 
7.961473230693e+00 -3.159006381219e+02 0.0 
0.0 0.0 -1.298059138543e+02 
-4.382233040453e+01 -5.304189678726e+00 0.0 
-5.304189678726e+00 -1.036197542765e+02 0.0 
0.0 0.0 -3.964593666790e+01 
-1.208441262003e+02 3.728176193981e+00 0.0 
3.728176193981e+00 -3.132280898676e+02 0.0 
0.0 0.0 -1.298146767596e+02 
-3.645946734311e+01 8.649822502552e+00 0.0 
8.649822502552e+00 -1.313368410952e+02 0.0 
0.0 0.0 -4.900994931156e+01 
-1.199446736890e+02 3.867088062030e-01 0.0 
3.867088062030e-01 -2.970109943522e+02 0.0 
0.0 0.0 -1.238567128695e+02 
-1.268712809235e+02 1.305915493358e+00 0.0 
1.305915493358e+00 -3.161706950136e+02 0.0 
0.0 0.0 -1.324163057743e+02 
-1.045568292629e+02 -1.385816965127e+00 0.0 
-1.385816965127e+00 -2.650371009865e+02 0.0 
0.0 0.0 -1.084163641443e+02 
-1.056354608138e+02 2.184477158296e+01 0.0 
2.184477158296e+01 -2.904484134316e+02 0.0 
0.0 0.0 -1.184467667028e+02 
-9.982816118035e+01 2.294149809652e+01 0.0 
2.294149809652e+01 -2.778566415276e+02 0.0 
0.0 0.0 -1.130182667691e+02 
-4.571760833085e+01 -4.454166033401e+00 0.0 
-4.454166033401e+00 -1.551422856492e+02 0.0 
0.0 0.0 -5.679381934225e+01 
-4.551232633486e+01 -1.066740078605e+01 0.0 
-1.066740078605e+01 -1.455351305969e+02 0.0 
0.0 0.0 -5.327245569872e+01 
-4.163505897947e+01 -1.290284425224e+01 0.0 
-1.290284425224e+01 -1.321281352896e+02 0.0 
0.0 0.0 -4.798812943195e+01 
-4.627425482410e+01 -1.589713533657e+01 0.0 
-1.589713533657e+01 -1.334138662192e+02 0.0 
0.0 0.0 -4.905410927056e+01 
-4.966222999646e+01 -1.330791564342e+01 0.0 
-1.330791564342e+01 -1.485529726414e+02 0.0 
0.0 0.0 -5.540875441456e+01 
-4.993669606853e+01 -1.698841664389e+01 0.0 
-1.698841664389e+01 -1.354421996620e+02 0.0 
0.0 0.0 -5.096119199015e+01 
-4.709169441119e+01 -1.945298732954e+01 0.0 
-1.945298732954e+01 -1.185604262789e+02 0.0 
0.0 0.0 -4.404397526283e+01 
-5.001263668823e+01 -1.902505636685e+01 0.0 
-1.902505636685e+01 -1.198795261395e+02 0.0 
0.0 0.0 -4.539805303430e+01 
-5.316237158524e+01 -1.726630676085e+01 0.0 
-1.726630676085e+01 -1.381099395028e+02 0.0 
0.0 0.0 -5.337756424470e+01 
-5.232632747073e+01 -1.809444927076e+01 0.0 
-1.809444927076e+01 -1.227362536381e+02 0.0 
0.0 0.0 -4.803316352141e+01 
-4.941257443410e+01 -1.865848845317e+01 0.0 
-1.865848845317e+01 -1.026985448513e+02 0.0 
0.0 0.0 -4.014604497560e+01 
-5.017900955301e+01 -1.697893455652e+01 0.0 
-1.697893455652e+01 -1.063398726350e+02 0.0 
0.0 0.0 -4.252125199510e+01 
-1.313521637100e+02 2.152727339819e+00 0.0 
2.152727339819e+00 -3.269861346476e+02 0.0 
0.0 0.0 -1.371014895073e+02 
-3.432927510933e+01 1.444368115067e-01 0.0 
1.444368115067e-01 -1.293110078153e+02 0.0 
0.0 0.0 -4.947949983898e+01 
-7.507895720369e+01 2.882229623282e+01 0.0 
2.882229623282e+01 -1.252992553719e+02 0.0 
0.0 0.0 -5.893025595304e+01 
-1.240200206231e+02 7.418210809945e+00 0.0 
7.418210809945e+00 -3.247483077375e+02 0.0 
0.0 0.0 -1.342304985082e+02 
-1.127009353524e+02 1.752307015557e+01 0.0 
1.752307015557e+01 -3.077199078840e+02 0.0 
0.0 0.0 -1.257593627848e+02 
-9.081951123207e+01 1.417941411851e+01 0.0 
1.417941411851e+01 -1.656893391716e+02 0.0 
0.0 0.0 -7.655265512109e+01 
-8.652488531254e+01 1.170013248475e+01 0.0 
1.170013248475e+01 -1.540126118256e+02 0.0 
0.0 0.0 -7.176124914145e+01 
-7.980177364998e+01 9.744759377757e+00 0.0 
9.744759377757e+00 -1.327409607365e+02 0.0 
0.0 0.0 -6.336282031594e+01 
-8.203479013382e+01 9.386955631297e+00 0.0 
9.386955631297e+00 -1.429846135875e+02 0.0 
0.0 0.0 -6.710582111640e+01 
-8.843456132448e+01 1.120469802149e+01 0.0 
1.120469802149e+01 -1.641213547036e+02 0.0 
0.0 0.0 -7.536677480842e+01 
-8.420944524075e+01 9.046056072710e+00 0.0 
9.046056072710e+00 -1.533579850318e+02 0.0 
0.0 0.0 -7.087022908177e+01 
-7.742513692616e+01 7.352663342962e+00 0.0 
7.352663342962e+00 -1.324520781162e+02 0.0 
0.0 0.0 -6.256316451271e+01 
-7.990492570747e+01 7.137737220332e+00 0.0 
7.137737220332e+00 -1.429907025793e+02 0.0 
0.0 0.0 -6.646868848604e+01 
-7.281102108888e+01 5.602473686536e+00 0.0 
5.602473686536e+00 -1.223001048125e+02 0.0 
0.0 0.0 -5.813333777042e+01 
-7.556820465611e+01 5.493181549453e+00 0.0 
5.493181549453e+00 -1.329964725040e+02 0.0 
0.0 0.0 -6.216940314805e+01 
-8.235418815980e+01 6.884230979720e+00 0.0 
6.884230979720e+00 -1.536382795497e+02 0.0 
0.0 0.0 -7.039774031286e+01 
-7.829464678371e+01 5.346995192741e+00 0.0 
5.346995192741e+00 -1.438213303143e+02 0.0 
0.0 0.0 -6.623479312940e+01 
-7.123245995108e+01 4.107542866363e+00 0.0 
4.107542866363e+00 -1.233709254880e+02 0.0 
0.0 0.0 -5.798101563172e+01 
-7.423312402084e+01 4.042907490478e+00 0.0 
4.042907490478e+00 -1.342382237537e+02 0.0 
0.0 0.0 -6.214140433236e+01 
-6.694805119606e+01 2.997076045702e+00 0.0 
2.997076045702e+00 -1.139278498577e+02 0.0 
0.0 0.0 -5.386277031614e+01 
-7.023048748730e+01 2.982182736093e+00 0.0 
2.982182736093e+00 -1.247516378434e+02 0.0 
0.0 0.0 -5.809463759920e+01 
-7.722508709449e+01 3.832132497502e+00 0.0 
3.832132497502e+00 -1.451979484964e+02 0.0 
0.0 0.0 -6.632691067725e+01 
-3.111734783832e+01 -4.346415379591e+00 0.0 
-4.346415379591e+00 -8.343776675994e+01 0.0 
0.0 0.0 -3.128144128476e+01 
-1.035634076651e+02 1.247625078580e+01 0.0 
1.247625078580e+01 -2.943764582872e+02 0.0 
0.0 0.0 -1.197568965169e+02 
-1.143390494229e+02 1.412159553169e+01 0.0 
1.412159553169e+01 -3.120943252286e+02 0.0 
0.0 0.0 -1.275300123954e+02 
-7.674589170114e+01 -5.137589415869e+00 0.0 
-5.137589415869e+00 -1.668373274452e+02 0.0 
0.0 0.0 -6.665700480197e+01 
-8.525108532054e+01 -4.542893596816e+00 0.0 
-4.542893596816e+00 -1.865868740911e+02 0.0 
0.0 0.0 -7.547544830406e+01 
-8.901743578548e+01 -4.992752923089e+00 0.0 
-4.992752923089e+00 -1.987623022911e+02 0.0 
0.0 0.0 -8.035547480719e+01 
-9.299521264710e+01 -3.860586526735e+00 0.0 
-3.860586526735e+00 -2.072083315437e+02 0.0 
0.0 0.0 -8.464317822135e+01 
-7.343465452550e+01 2.790144915661e+00 0.0 
2.790144915661e+00 -1.356328608710e+02 0.0 
0.0 0.0 -6.232025461895e+01 
-8.012327235850e+01 3.486126291144e+00 0.0 
3.486126291144e+00 -1.562192906077e+02 0.0 
0.0 0.0 -7.050276888987e+01 
-4.188587552611e+01 2.542376642817e+01 0.0 
2.542376642817e+01 -1.148577434452e+02 0.0 
0.0 0.0 -4.203635559288e+01 
-4.399981151259e+01 2.768654713273e+01 0.0 
2.768654713273e+01 -1.135777734832e+02 0.0 
0.0 0.0 -4.265858740064e+01 
-9.488139847785e+01 1.678246614809e+01 0.0 
1.678246614809e+01 -1.780207983952e+02 0.0 
0.0 0.0 -8.147065906191e+01 
-1.234422494593e+02 5.739720629171e-01 0.0 
5.739720629171e-01 -3.052132200685e+02 0.0 
0.0 0.0 -1.276860346381e+02 
-1.176660507513e+02 -2.909492637273e-01 0.0 
-2.909492637273e-01 -2.858821170651e+02 0.0 
0.0 0.0 -1.191393089633e+02 
-6.112425973255e+01 3.149258169520e+01 0.0 
3.149258169520e+01 -1.523647965502e+02 0.0 
0.0 0.0 -6.244704459952e+01 
-5.938808067657e+01 3.247490325525e+01 0.0 
3.247490325525e+01 -1.352097344843e+02 0.0 
0.0 0.0 -5.585562628641e+01 
-5.607755394627e+01 3.215586647782e+01 0.0 
3.215586647782e+01 -1.341056977215e+02 0.0 
0.0 0.0 -5.519443498017e+01 
-5.430559891927e+01 3.276719270810e+01 0.0 
3.276719270810e+01 -1.161248994892e+02 0.0 
0.0 0.0 -4.849082967030e+01 
-5.733962691697e+01 3.283686687558e+01 0.0 
3.283686687558e+01 -1.173014877672e+02 0.0 
0.0 0.0 -4.896491885385e+01 
-5.145265754469e+01 3.265538894012e+01 0.0 
3.265538894012e+01 -1.152609754022e+02 0.0 
0.0 0.0 -4.800435914170e+01 
-9.917130102776e+01 4.223440100068e+00 0.0 
4.223440100068e+00 -2.795470794089e+02 0.0 
0.0 0.0 -1.142786222622e+02 
-8.479765223019e+01 6.578305704119e+00 0.0 
6.578305704119e+00 -1.644789207392e+02 0.0 
0.0 0.0 -7.438297189081e+01 
-4.949973937007e+01 -1.134057270145e+01 0.0 
-1.134057270145e+01 -1.108121828448e+02 0.0 
0.0 0.0 -4.423619492010e+01 
-4.043430735438e+01 -1.000252897305e+01 0.0 
-1.000252897305e+01 -8.968109156193e+01 0.0 
0.0 0.0 -3.540474268649e+01 
-1.311497053549e+02 1.235171730872e+00 0.0 
1.235171730872e+00 -3.243623185508e+02 0.0 
0.0 0.0 -1.362343696456e+02 
-9.328644542887e+01 1.055497883869e+01 0.0 
1.055497883869e+01 -2.768185914708e+02 0.0 
0.0 0.0 -1.136170927127e+02 
-8.358322310834e+01 3.103857104187e+01 0.0 
3.103857104187e+01 -2.104834996183e+02 0.0 
0.0 0.0 -8.749932534289e+01 
-8.649929839411e+01 2.989411900138e+01 0.0 
2.989411900138e+01 -2.261722158752e+02 0.0 
0.0 0.0 -9.327634968268e+01 
-9.082925107691e+01 3.072595456986e+01 0.0 
3.072595456986e+01 -2.288197894390e+02 0.0 
0.0 0.0 -9.549471215478e+01 
-9.463641329989e+01 2.977243686194e+01 0.0 
2.977243686194e+01 -2.442750892070e+02 0.0 
0.0 0.0 -1.012734507521e+02 
-9.923231501170e+01 3.081959698884e+01 0.0 
3.081959698884e+01 -2.473689214535e+02 0.0 
0.0 0.0 -1.035803709395e+02 
-1.034990990063e+02 3.009940769342e+01 0.0 
3.009940769342e+01 -2.625428278085e+02 0.0 
0.0 0.0 -1.094125780444e+02 
-9.887719305108e+01 2.872827435210e+01 0.0 
2.872827435210e+01 -2.590558858034e+02 0.0 
0.0 0.0 -1.069799236563e+02 
-1.106121937674e+02 2.397915848968e+01 0.0 
2.397915848968e+01 -2.958409092799e+02 0.0 
0.0 0.0 -1.215359309142e+02 
-1.082277078478e+02 2.935074592094e+01 0.0 
2.935074592094e+01 -2.770975313419e+02 0.0 
0.0 0.0 -1.151975717569e+02 
-6.629207120565e+01 2.034654318708e+00 0.0 
2.034654318708e+00 -1.150897898250e+02 0.0 
0.0 0.0 -5.401455830918e+01 
-8.433444428184e+01 2.025335712287e+01 0.0 
2.025335712287e+01 -2.552754003098e+02 0.0 
0.0 0.0 -1.040277291270e+02 
-5.574971071365e+01 -1.709299437099e+01 0.0 
-1.709299437099e+01 -1.415487787019e+02 0.0 
0.0 0.0 -5.637799715300e+01 
-2.735956240065e+01 -4.855233542258e+00 0.0 
-4.855233542258e+00 -7.433578349604e+01 0.0 
0.0 0.0 -2.747220077734e+01 
-4.511146735434e+01 -1.533431102446e+01 0.0 
-1.533431102446e+01 -8.430555323705e+01 0.0 
0.0 0.0 -3.365139707739e+01 
-3.545698906540e+01 -3.700001224783e+00 0.0 
-3.700001224783e+00 -9.134859754208e+01 0.0 
0.0 0.0 -3.475756636051e+01 
-4.875627783908e+01 -4.314366083437e+00 0.0 
-4.314366083437e+00 -1.122225652229e+02 0.0 
0.0 0.0 -4.360211763746e+01 
-1.287050381847e+02 9.478755706496e+00 0.0 
9.478755706496e+00 -3.340135064252e+02 0.0 
0.0 0.0 -1.384155633830e+02 
-1.079108912266e+02 3.130691705307e+01 0.0 
3.130691705307e+01 -2.659227527613e+02 0.0 
0.0 0.0 -1.117500931964e+02 
-1.035478180895e+02 3.162620309900e+01 0.0 
3.162620309900e+01 -2.503443656018e+02 0.0 
0.0 0.0 -1.057676551074e+02 
-5.215864348943e+01 3.271463149595e+01 0.0 
3.271463149595e+01 -9.785909093234e+01 0.0 
0.0 0.0 -4.155784153397e+01 
-5.493772482640e+01 3.265729397496e+01 0.0 
3.265729397496e+01 -9.886383890771e+01 0.0 
0.0 0.0 -4.191933617043e+01 
-1.167078973649e+02 2.306879699890e+01 0.0 
2.306879699890e+01 -3.083066349208e+02 0.0 
0.0 0.0 -1.271043596857e+02 
-7.536580336650e+01 1.081327489720e+01 0.0 
1.081327489720e+01 -1.132237183882e+02 0.0 
0.0 0.0 -5.617685652641e+01 
-7.003621995420e+01 5.654054509918e+00 0.0 
5.654054509918e+00 -1.117673095358e+02 0.0 
0.0 0.0 -5.414105884699e+01 
-6.503965403262e+01 4.087964330494e+00 0.0 
4.087964330494e+00 -1.017620881410e+02 0.0 
0.0 0.0 -4.964052265207e+01 
-2.142264479358e+01 -2.474826852295e+00 0.0 
-2.474826852295e+00 -6.912863385334e+01 0.0 
0.0 0.0 -2.541616997388e+01 
-4.562107315027e+01 -1.778137435065e+01 0.0 
-1.778137435065e+01 -8.115452776193e+01 0.0 
0.0 0.0 -3.191323077967e+01 
-9.034524528003e+01 1.069048985787e+01 0.0 
1.069048985787e+01 -1.744368546317e+02 0.0 
0.0 0.0 -7.903462997351e+01 
-4.593046493759e+01 2.629040184813e+01 0.0 
2.629040184813e+01 -1.293596416455e+02 0.0 
0.0 0.0 -4.867939698206e+01 
-4.584278230448e+01 2.943809731775e+01 0.0 
2.943809731775e+01 -1.132505078804e+02 0.0 
0.0 0.0 -4.398203400795e+01 
-3.344739424018e+01 1.107330037345e+01 0.0 
1.107330037345e+01 -1.221734701106e+02 0.0 
0.0 0.0 -4.784190887907e+01 
-3.077218372846e+01 3.497090146025e-01 0.0 
3.497090146025e-01 -1.226586386784e+02 0.0 
0.0 0.0 -4.831179161258e+01 
-7.661203754046e+01 2.385166944929e+00 0.0 
2.385166944929e+00 -1.463567261030e+02 0.0 
0.0 0.0 -6.649062909305e+01 
-8.310856312099e+01 2.994363069780e+00 0.0 
2.994363069780e+00 -1.668530061818e+02 0.0 
0.0 0.0 -7.458847079084e+01 
-9.623585115087e+01 -4.023917435259e+00 0.0 
-4.023917435259e+00 -2.189968113225e+02 0.0 
0.0 0.0 -8.943682074547e+01 
-9.995263477406e+01 -3.019456467624e+00 0.0 
-3.019456467624e+00 -2.273175940177e+02 0.0 
0.0 0.0 -9.349057060011e+01 
-1.226213607188e+02 1.018688434490e+01 0.0 
1.018688434490e+01 -3.247862594701e+02 0.0 
0.0 0.0 -1.338222860567e+02 
-4.552850356131e+01 -1.411223434977e+01 0.0 
-1.411223434977e+01 -9.015750423846e+01 0.0 
0.0 0.0 -3.639796287995e+01 
-8.653811561406e+01 4.241453016784e+00 0.0 
4.241453016784e+00 -1.768806317108e+02 0.0 
0.0 0.0 -7.862562419746e+01 
-9.950972286194e+01 9.776363451594e+00 0.0 
9.776363451594e+00 -2.869379254314e+02 0.0 
0.0 0.0 -1.170819977774e+02 
-8.997346181866e+01 7.689678120741e+00 0.0 
7.689678120741e+00 -2.693595213371e+02 0.0 
0.0 0.0 -1.113053958266e+02 
-8.916080996984e+01 -3.450887209780e+00 0.0 
-3.450887209780e+00 -1.949245529691e+02 0.0 
0.0 0.0 -7.970548399186e+01 
-4.350418740299e+01 2.967412257393e+01 0.0 
2.967412257393e+01 -9.759232868582e+01 0.0 
0.0 0.0 -3.758622298442e+01 
-4.171201974897e+01 2.820596433256e+01 0.0 
2.820596433256e+01 -1.001156953623e+02 0.0 
0.0 0.0 -3.809091061477e+01 
-5.679747249339e+01 -1.553128577227e+01 0.0 
-1.553128577227e+01 -1.557128750968e+02 0.0 
0.0 0.0 -6.163278972819e+01 
-5.100787060299e+01 -1.592120246542e+01 0.0 
-1.592120246542e+01 -1.112990334979e+02 0.0 
0.0 0.0 -4.510171883390e+01 
-4.060205789094e+01 -2.875956346191e+00 0.0 
-2.875956346191e+00 -9.996628055167e+01 0.0 
0.0 0.0 -3.880156222716e+01 
-1.336106788813e+02 1.165454985154e+01 0.0 
1.165454985154e+01 -3.427172453439e+02 0.0 
0.0 0.0 -1.424983772676e+02 
-9.417646703325e+01 1.287806504560e+01 0.0 
1.287806504560e+01 -1.852898973321e+02 0.0 
0.0 0.0 -8.343990930961e+01 
-1.036657752884e+02 2.773089587201e+01 0.0 
2.773089587201e+01 -2.731665368333e+02 0.0 
0.0 0.0 -1.126496936365e+02 
-9.408110834500e+01 2.720239361165e+01 0.0 
2.720239361165e+01 -2.552706637123e+02 0.0 
0.0 0.0 -1.044055316172e+02 
-1.137134142810e+02 2.859565588591e+01 0.0 
2.859565588591e+01 -2.912805986066e+02 0.0 
0.0 0.0 -1.210982038663e+02 
-3.926329707306e+01 -1.121890352466e+01 0.0 
-1.121890352466e+01 -6.858072108934e+01 0.0 
0.0 0.0 -2.771571916977e+01 
-1.347696766239e+02 8.791801419147e+00 0.0 
8.791801419147e+00 -3.431561488728e+02 0.0 
0.0 0.0 -1.429777476490e+02 
-1.269848737098e+02 6.266410373347e-01 0.0 
6.266410373347e-01 -3.135632723512e+02 0.0 
0.0 0.0 -1.315457023016e+02 
-1.116448076910e+02 3.224442012987e+01 0.0 
3.224442012987e+01 -2.684127196509e+02 0.0 
0.0 0.0 -1.136172582026e+02 
-1.075880335546e+02 3.221303601251e+01 0.0 
3.221303601251e+01 -2.534989728634e+02 0.0 
0.0 0.0 -1.079261019254e+02 
-4.793480295243e+01 2.848174864796e+01 0.0 
2.848174864796e+01 -1.296369781675e+02 0.0 
0.0 0.0 -5.039775513453e+01 
-4.743263840169e+01 3.094185586789e+01 0.0 
3.094185586789e+01 -1.135442607802e+02 0.0 
0.0 0.0 -4.571682539650e+01 
-4.600983449493e+01 3.152582031511e+01 0.0 
3.152582031511e+01 -9.603624179655e+01 0.0 
0.0 0.0 -3.926351893635e+01 
-4.688599566147e+01 3.226700050635e+01 0.0 
3.226700050635e+01 -9.610915176845e+01 0.0 
0.0 0.0 -4.024207110273e+01 
-7.445621653363e+01 2.419386316777e+01 0.0 
2.419386316777e+01 -1.110571068711e+02 0.0 
0.0 0.0 -5.501632368947e+01 
-5.012928947156e+01 3.025118759351e+01 0.0 
3.025118759351e+01 -1.305947422032e+02 0.0 
0.0 0.0 -5.250504535433e+01 
-7.243280076423e+01 3.019632225061e+01 0.0 
3.019632225061e+01 -1.227659491646e+02 0.0 
0.0 0.0 -5.659282846072e+01 
-6.965948227705e+01 2.818000024389e+01 0.0 
2.818000024389e+01 -1.039112992699e+02 0.0 
0.0 0.0 -5.006468868584e+01 
-6.703124146586e+01 2.968927494066e+01 0.0 
2.968927494066e+01 -1.019802663282e+02 0.0 
0.0 0.0 -4.785081517531e+01 
-6.049520789542e+01 3.277340001703e+01 0.0 
3.277340001703e+01 -1.181796312055e+02 0.0 
0.0 0.0 -4.930366183337e+01 
-5.798529869493e+01 3.242544387775e+01 0.0 
3.242544387775e+01 -9.935805613800e+01 0.0 
0.0 0.0 -4.223442917701e+01 
-5.025108139549e+01 2.159051705677e+01 0.0 
2.159051705677e+01 -1.593893506594e+02 0.0 
0.0 0.0 -6.012223683479e+01 
-7.321579837218e+01 1.731201004469e+01 0.0 
1.731201004469e+01 -2.338498775686e+02 0.0 
0.0 0.0 -9.662670178533e+01 
-9.231081851999e+01 -5.097772045850e+00 0.0 
-5.097772045850e+00 -2.108420083409e+02 0.0 
0.0 0.0 -8.532659337547e+01 
-1.069715984710e+02 -1.908714987572e+00 0.0 
-1.908714987572e+00 -2.616967237214e+02 0.0 
0.0 0.0 -1.076509463324e+02 
-9.175853555873e+01 -9.614673035449e-01 0.0 
-9.614673035449e-01 -2.518292927894e+02 0.0 
0.0 0.0 -1.038494016554e+02 
-8.848985837256e+01 8.250468419793e+00 0.0 
8.250468419793e+00 -1.743428320400e+02 0.0 
0.0 0.0 -7.844980712377e+01 
-9.071651268756e+01 7.770205087794e+00 0.0 
7.770205087794e+00 -1.853168895691e+02 0.0 
0.0 0.0 -8.241002067698e+01 
-6.365897945471e+01 2.929202717743e+00 0.0 
2.929202717743e+00 -1.030960728007e+02 0.0 
0.0 0.0 -4.962651567663e+01 
-5.933002597464e+01 2.032547088586e+00 0.0 
2.032547088586e+00 -9.371502780284e+01 0.0 
0.0 0.0 -4.551351613325e+01 
-3.301024164563e+01 -7.377777912576e+00 0.0 
-7.377777912576e+00 -7.722041507241e+01 0.0 
0.0 0.0 -2.962583528150e+01 
-3.153869174289e+01 -7.413871342458e+00 0.0 
-7.413871342458e+00 -6.876335321843e+01 0.0 
0.0 0.0 -2.673576485104e+01 
-9.470372788564e+01 -4.219187385988e+00 0.0 
-4.219187385988e+00 -2.380691874094e+02 0.0 
0.0 0.0 -9.711781196340e+01 
-1.297795757158e+02 6.895737445803e+00 0.0 
6.895737445803e+00 -3.333585390574e+02 0.0 
0.0 0.0 -1.385414344320e+02 
-9.628563681312e+01 1.592567116817e+01 0.0 
1.592567116817e+01 -1.869114726320e+02 0.0 
0.0 0.0 -8.455913283354e+01 
-1.000252042738e+02 1.856215564229e+01 0.0 
1.856215564229e+01 -1.994113095612e+02 0.0 
0.0 0.0 -8.943095415052e+01 
-9.870037866435e+01 1.946096119994e+01 0.0 
1.946096119994e+01 -1.908400478033e+02 0.0 
0.0 0.0 -8.646212794030e+01 
-1.272993949953e+02 1.249906659514e+01 0.0 
1.249906659514e+01 -3.329401969012e+02 0.0 
0.0 0.0 -1.376718775689e+02 
-5.265795727814e+01 8.338705184418e+00 0.0 
8.338705184418e+00 -1.798506076993e+02 0.0 
0.0 0.0 -6.725157931815e+01 
-7.828576203514e+01 9.552848023200e+00 0.0 
9.552848023200e+00 -2.491053756106e+02 0.0 
0.0 0.0 -1.037070840214e+02 
-3.412005528359e+01 -1.015140399367e+01 0.0 
-1.015140399367e+01 -1.224268914361e+02 0.0 
0.0 0.0 -4.787849312796e+01 
-7.875856289946e+01 2.757448015117e+01 0.0 
2.757448015117e+01 -2.205177225156e+02 0.0 
0.0 0.0 -8.977111595658e+01 
-2.329675088050e+01 -4.451498222086e+00 0.0 
-4.451498222086e+00 -5.673376484713e+01 0.0 
0.0 0.0 -2.127208481487e+01 
-9.273543264375e+01 3.132904104231e+01 0.0 
3.132904104231e+01 -2.014577146159e+02 0.0 
0.0 0.0 -8.785794417791e+01 
-1.357270385027e+02 1.049419905120e+00 0.0 
1.049419905120e+00 -3.327290357557e+02 0.0 
0.0 0.0 -1.401368222775e+02 
-1.407016661513e+02 1.680517549316e+00 0.0 
1.680517549316e+00 -3.432727011000e+02 0.0 
0.0 0.0 -1.447923101754e+02 
-1.215421293777e+02 2.525516748831e+01 0.0 
2.525516748831e+01 -3.136303196802e+02 0.0 
0.0 0.0 -1.301517347174e+02 
-6.426968651026e+01 1.812091541319e+01 0.0 
1.812091541319e+01 -7.193560690787e+01 0.0 
0.0 0.0 -3.972779792116e+01 
-8.122941005825e+01 2.575077139558e+01 0.0 
2.575077139558e+01 -2.341107631415e+02 0.0 
0.0 0.0 -9.518597438960e+01 
-7.724554069121e+01 2.422072917276e+01 0.0 
2.422072917276e+01 -2.300826132396e+02 0.0 
0.0 0.0 -9.393613105106e+01 
-6.396190396164e+01 2.728427706606e+01 0.0 
2.728427706606e+01 -8.262316125302e+01 0.0 
0.0 0.0 -4.121007820293e+01 
-6.132304756146e+01 2.897805497174e+01 0.0 
2.897805497174e+01 -8.104178004556e+01 0.0 
0.0 0.0 -3.905679385897e+01 
-6.421216386479e+01 3.088276511753e+01 0.0 
3.088276511753e+01 -1.006332592899e+02 0.0 
0.0 0.0 -4.564560572762e+01 
-5.851176863522e+01 3.052498044850e+01 0.0 
3.052498044850e+01 -8.022262371237e+01 0.0 
0.0 0.0 -3.690813541867e+01 
-5.989311188221e+01 -1.585486553315e+01 0.0 
-1.585486553315e+01 -1.599226302802e+02 0.0 
0.0 0.0 -6.447558422218e+01 
-5.842075523056e+01 -1.674453720098e+01 0.0 
-1.674453720098e+01 -1.460040257409e+02 0.0 
0.0 0.0 -5.905727814228e+01 
-1.175333594133e+02 3.241661840726e+01 0.0 
3.241661840726e+01 -2.857262486454e+02 0.0 
0.0 0.0 -1.205778824176e+02 
-1.177878308161e+02 3.035094316680e+01 0.0 
3.035094316680e+01 -2.949917241815e+02 0.0 
0.0 0.0 -1.234338664993e+02 
-1.153866249179e+02 3.322520685660e+01 0.0 
3.322520685660e+01 -2.721684879754e+02 0.0 
0.0 0.0 -1.158665338680e+02 
-1.115592323270e+02 3.276026818722e+01 0.0 
3.276026818722e+01 -2.573702144579e+02 0.0 
0.0 0.0 -1.102788340354e+02 
-1.279992687049e+02 2.446087904921e+01 0.0 
2.446087904921e+01 -3.260728109655e+02 0.0 
0.0 0.0 -1.358216239011e+02 
-1.228189228149e+02 2.217344394843e+01 0.0 
2.217344394843e+01 -3.201818220802e+02 0.0 
0.0 0.0 -1.325002234685e+02 
-5.346619367136e+01 -3.227681296280e+00 0.0 
-3.227681296280e+00 -1.201545111253e+02 0.0 
0.0 0.0 -4.750491772257e+01 
-5.227409246451e+01 3.198095063899e+01 0.0 
3.198095063899e+01 -7.992867104734e+01 0.0 
0.0 0.0 -3.477900600715e+01 
-9.594379990566e+01 1.223250922722e+01 0.0 
1.223250922722e+01 -1.955023172061e+02 0.0 
0.0 0.0 -8.703383513354e+01 
-6.633882566928e+01 2.513801637004e+01 0.0 
2.513801637004e+01 -8.484325525350e+01 0.0 
0.0 0.0 -4.339003407814e+01 
-1.404490744903e+02 8.067608929804e+00 0.0 
8.067608929804e+00 -3.513626597408e+02 0.0 
0.0 0.0 -1.471435202693e+02 
-1.354425378619e+02 6.403761683096e+00 0.0 
6.403761683096e+00 -3.418308247619e+02 0.0 
0.0 0.0 -1.427820087871e+02 
-3.403958895608e+01 -1.166778559739e+01 0.0 
-1.166778559739e+01 -1.182061843808e+02 0.0 
0.0 0.0 -4.778642834275e+01 
-3.708968835885e+01 -2.087151372444e+01 0.0 
-2.087151372444e+01 -1.071424462649e+02 0.0 
0.0 0.0 -4.277049526109e+01 
-8.935772517343e+01 3.613137689821e+00 0.0 
3.613137689821e+00 -1.878623018786e+02 0.0 
0.0 0.0 -8.276600811562e+01 
-4.576866389656e+01 3.207645522525e+01 0.0 
3.207645522525e+01 -7.737569298452e+01 0.0 
0.0 0.0 -3.371117110153e+01 
-4.581662346282e+01 3.207796964634e+01 0.0 
3.207796964634e+01 -7.674279990025e+01 0.0 
0.0 0.0 -3.390425205084e+01 
-4.535981309271e+01 3.199486084134e+01 0.0 
3.199486084134e+01 -7.804349978421e+01 0.0 
0.0 0.0 -3.323941861908e+01 
-1.558346772397e+02 4.897906633621e-01 0.0 
4.897906633621e-01 -3.713605706088e+02 0.0 
0.0 0.0 -1.577585743546e+02 
-4.188151004403e+01 1.285883384744e-01 0.0 
1.285883384744e-01 -5.526746688676e+01 0.0 
0.0 0.0 -2.874469307924e+01 
-1.454703942630e+02 1.335569314482e+00 0.0 
1.335569314482e+00 -3.517745590720e+02 0.0 
0.0 0.0 -1.487734860005e+02 
-6.375166214418e+01 3.252745184978e+01 0.0 
3.252745184978e+01 -1.189462229333e+02 0.0 
0.0 0.0 -5.024908493613e+01 
-9.268914832849e+01 4.937941886991e+00 0.0 
4.937941886991e+00 -1.980625453088e+02 0.0 
0.0 0.0 -8.682550809118e+01 
-8.461674804373e+01 2.395471160092e+01 0.0 
2.395471160092e+01 -2.470457556627e+02 0.0 
0.0 0.0 -1.002959079969e+02 
-5.725723852044e+01 3.086800283226e+01 0.0 
3.086800283226e+01 -1.505583233913e+02 0.0 
0.0 0.0 -6.129752241889e+01 
-1.163981897859e+02 1.093726804782e+01 0.0 
1.093726804782e+01 -3.151579010905e+02 0.0 
0.0 0.0 -1.290668272629e+02 
-8.580500430218e+01 2.410283566027e+00 0.0 
2.410283566027e+00 -1.767055545633e+02 0.0 
0.0 0.0 -7.835316765963e+01 
-9.218799113563e+01 2.798841927391e+00 0.0 
2.798841927391e+00 -1.993721526236e+02 0.0 
0.0 0.0 -8.706804312777e+01 
-6.195345606987e+01 3.990516929496e+00 0.0 
3.990516929496e+00 -9.120584994886e+01 0.0 
0.0 0.0 -4.554779180562e+01 
-5.653384572050e+01 2.783927818629e+00 0.0 
2.783927818629e+00 -8.091782280792e+01 0.0 
0.0 0.0 -4.083550055853e+01 
-6.692132926818e+01 5.656843290625e+00 0.0 
5.656843290625e+00 -1.007309543359e+02 0.0 
0.0 0.0 -4.989568508124e+01 
-3.629334816041e+01 1.765298209255e+01 0.0 
1.765298209255e+01 -1.190637692108e+02 0.0 
0.0 0.0 -4.437452258644e+01 
-3.558450802403e+01 2.308870321641e+01 0.0 
2.308870321641e+01 -1.056584260040e+02 0.0 
0.0 0.0 -4.251356518059e+01 
-8.717618171807e+01 6.129529459132e+00 0.0 
6.129529459132e+00 -1.753108604448e+02 0.0 
0.0 0.0 -7.834611264887e+01 
-6.692882387342e+01 -5.572209596062e+00 0.0 
-5.572209596062e+00 -1.455603673240e+02 0.0 
0.0 0.0 -5.747900996483e+01 
-7.245008966936e+01 -4.295194161010e+00 0.0 
-4.295194161010e+00 -1.560894004389e+02 0.0 
0.0 0.0 -6.260086341051e+01 
-4.588456491487e+01 -1.334591555316e+01 0.0 
-1.334591555316e+01 -9.616749246609e+01 0.0 
0.0 0.0 -3.883858034217e+01 
-5.244507523510e+01 -1.473221933158e+01 0.0 
-1.473221933158e+01 -1.171799072113e+02 0.0 
0.0 0.0 -4.751562975864e+01 
-9.898429859022e+01 -3.889350543235e+00 0.0 
-3.889350543235e+00 -2.307737739120e+02 0.0 
0.0 0.0 -9.423606326560e+01 
-9.504768755187e+01 -4.882653280486e+00 0.0 
-4.882653280486e+00 -2.227612425754e+02 0.0 
0.0 0.0 -9.035131427134e+01 
-9.604350881495e+01 3.168851543260e+01 0.0 
3.168851543260e+01 -2.181934973967e+02 0.0 
0.0 0.0 -9.387110186349e+01 
-9.991503280231e+01 3.151071342017e+01 0.0 
3.151071342017e+01 -2.213985713776e+02 0.0 
0.0 0.0 -9.599408125398e+01 
-8.755516380320e+01 3.152195047891e+01 0.0 
3.152195047891e+01 -2.127559339289e+02 0.0 
0.0 0.0 -8.962340186378e+01 
-9.599958696238e+01 7.097412761872e+00 0.0 
7.097412761872e+00 -2.789574744579e+02 0.0 
0.0 0.0 -1.143980767473e+02 
-8.775850169142e+01 4.841632768059e+00 0.0 
4.841632768059e+00 -2.612231695269e+02 0.0 
0.0 0.0 -1.084862855529e+02 
-8.162800862437e+01 5.137757716599e+00 0.0 
5.137757716599e+00 -2.518531666650e+02 0.0 
0.0 0.0 -1.048019614584e+02 
-9.378281694083e+01 9.517135281060e+00 0.0 
9.517135281060e+00 -1.948328106174e+02 0.0 
0.0 0.0 -8.618468826746e+01 
-9.659478366954e+01 8.861505596546e+00 0.0 
8.861505596546e+00 -2.082495064758e+02 0.0 
0.0 0.0 -9.105328704361e+01 
-6.100389601265e+01 -1.379648104983e+01 0.0 
-1.379648104983e+01 -1.729627436198e+02 0.0 
0.0 0.0 -6.953002658267e+01 
-5.732275448243e+01 -1.272040707534e+01 0.0 
-1.272040707534e+01 -1.683821267223e+02 0.0 
0.0 0.0 -6.629046467228e+01 
-6.396220379894e+01 -1.504795474005e+01 0.0 
-1.504795474005e+01 -1.650197835332e+02 0.0 
0.0 0.0 -6.713134065618e+01 
-9.936706433865e+01 1.446096570029e+01 0.0 
1.446096570029e+01 -2.065670591219e+02 0.0 
0.0 0.0 -9.138023703818e+01 
-1.503401249683e+02 1.945958595630e+00 0.0 
1.945958595630e+00 -3.618978520084e+02 0.0 
0.0 0.0 -1.532713930930e+02 
-1.457080053289e+02 2.443277022857e+00 0.0 
2.443277022857e+00 -3.536778792384e+02 0.0 
0.0 0.0 -1.494157653702e+02 
-2.249848618707e+01 -3.978391101547e+00 0.0 
-3.978391101547e+00 -4.864165848702e+01 0.0 
0.0 0.0 -1.858721809210e+01 
-3.055940071596e+01 -7.089403655011e+00 0.0 
-7.089403655011e+00 -6.037212731015e+01 0.0 
0.0 0.0 -2.363472363186e+01 
-4.382628327066e+01 3.172921604980e+01 0.0 
3.172921604980e+01 -8.089360307253e+01 0.0 
0.0 0.0 -3.251595604872e+01 
-4.234743326874e+01 3.134842197543e+01 0.0 
3.134842197543e+01 -8.496393734346e+01 0.0 
0.0 0.0 -3.397124199787e+01 
-1.032988529556e+02 2.116433060865e+01 0.0 
2.116433060865e+01 -2.119478432711e+02 0.0 
0.0 0.0 -9.417400886801e+01 
-1.024756621062e+02 2.218796835563e+01 0.0 
2.218796835563e+01 -2.046188063623e+02 0.0 
0.0 0.0 -9.172834054055e+01 
-1.049904840035e+02 2.041369307516e+01 0.0 
2.041369307516e+01 -2.224213039682e+02 0.0 
0.0 0.0 -9.782353639153e+01 
-4.440400403964e+01 -2.004175426944e+00 0.0 
-2.004175426944e+00 -1.066822478513e+02 0.0 
0.0 0.0 -4.199745732160e+01 
-9.891904905388e+01 2.594894367927e+01 0.0 
2.594894367927e+01 -2.689266864487e+02 0.0 
0.0 0.0 -1.099537206508e+02 
-1.382902803347e+02 1.394846883372e+01 0.0 
1.394846883372e+01 -3.498731478246e+02 0.0 
0.0 0.0 -1.460490284478e+02 
-1.316417752562e+02 1.488725015829e+01 0.0 
1.488725015829e+01 -3.398544938908e+02 0.0 
0.0 0.0 -1.410488807441e+02 
-1.460502131875e+02 1.315131647259e+01 0.0 
1.315131647259e+01 -3.618343403456e+02 0.0 
0.0 0.0 -1.519653660599e+02 
-1.152721423126e+02 2.606145816189e+01 0.0 
2.606145816189e+01 -3.007014966664e+02 0.0 
0.0 0.0 -1.243920916937e+02 
-1.260131206290e+02 2.727064861539e+01 0.0 
2.727064861539e+01 -3.182349393927e+02 0.0 
0.0 0.0 -1.328744180065e+02 
-1.240443453046e+02 2.976204791222e+01 0.0 
2.976204791222e+01 -3.090701631469e+02 0.0 
0.0 0.0 -1.295343525355e+02 
-3.954033696272e+01 1.135564820361e+00 0.0 
1.135564820361e+00 -1.205310652132e+02 0.0 
0.0 0.0 -4.989419317293e+01 
-8.984091291679e+01 1.867286917077e+00 0.0 
1.867286917077e+00 -1.919442819399e+02 0.0 
0.0 0.0 -8.413555845702e+01 
-5.523739321704e+01 1.880183587820e+00 0.0 
1.880183587820e+00 -8.201551287430e+01 0.0 
0.0 0.0 -4.077587182740e+01 
-5.126327251693e+01 -7.235537875402e+00 0.0 
-7.235537875402e+00 -1.155400067126e+02 0.0 
0.0 0.0 -5.148328230275e+01 
-5.085525526262e+01 1.208590016231e+00 0.0 
1.208590016231e+00 -7.294968013810e+01 0.0 
0.0 0.0 -3.674148062022e+01 
-5.492455323378e+01 1.353169345549e+00 0.0 
1.353169345549e+00 -8.435002596589e+01 0.0 
0.0 0.0 -4.138237375990e+01 
-4.607428479076e+01 7.374664057974e-01 0.0 
7.374664057974e-01 -6.277559307583e+01 0.0 
0.0 0.0 -3.225496335998e+01 
-3.048768164996e+01 -1.713251384620e+00 0.0 
-1.713251384620e+00 -8.656768358001e+01 0.0 
0.0 0.0 -3.313963788075e+01 
-5.709698977572e+01 3.775510821324e+00 0.0 
3.775510821324e+00 -7.701071704847e+01 0.0 
0.0 0.0 -3.983231204726e+01 
-6.405680381652e+01 5.922496635076e+00 0.0 
5.922496635076e+00 -9.028712008173e+01 0.0 
0.0 0.0 -4.590317716948e+01 
-2.008536923759e+01 -3.262776661526e+00 0.0 
-3.262776661526e+00 -3.676334645330e+01 0.0 
0.0 0.0 -1.482724092158e+01 
-1.003452311133e+02 1.346039123378e+01 0.0 
1.346039123378e+01 -2.162413710784e+02 0.0 
0.0 0.0 -9.457598065752e+01 
-1.545682902771e+01 -1.542257053508e+00 0.0 
-1.542257053508e+00 -3.780586776825e+01 0.0 
0.0 0.0 -1.424935231333e+01 
-1.672674564098e+01 -1.839898240234e+00 0.0 
-1.839898240234e+00 -4.564000569613e+01 0.0 
0.0 0.0 -1.671056367106e+01 
-1.460881408936e+02 7.375059671805e+00 0.0 
7.375059671805e+00 -3.600044523220e+02 0.0 
0.0 0.0 -1.514277779647e+02 
-1.408666737131e+02 5.874471326806e+00 0.0 
5.874471326806e+00 -3.500677006622e+02 0.0 
0.0 0.0 -1.468803123126e+02 
-1.511837615781e+02 6.704393694075e+00 0.0 
6.704393694075e+00 -3.677551547732e+02 0.0 
0.0 0.0 -1.552816749054e+02 
-1.458792293582e+02 5.308331215103e+00 0.0 
5.308331215103e+00 -3.576415590449e+02 0.0 
0.0 0.0 -1.506562365209e+02 
-1.359131492979e+02 4.552037978022e+00 0.0 
4.552037978022e+00 -3.398234518054e+02 0.0 
0.0 0.0 -1.423209803310e+02 
-1.412189964647e+02 4.166946564825e+00 0.0 
4.166946564825e+00 -3.482629638331e+02 0.0 
0.0 0.0 -1.464445880893e+02 
-5.128568990931e+01 1.776447222232e+00 0.0 
1.776447222232e+00 -7.084867304658e+01 0.0 
0.0 0.0 -3.624030888677e+01 
-1.526230395296e+02 4.937569579640e+00 0.0 
4.937569579640e+00 -3.686261305930e+02 0.0 
0.0 0.0 -1.559747510368e+02 
-1.466105832949e+02 3.729483257385e+00 0.0 
3.729483257385e+00 -3.569119836291e+02 0.0 
0.0 0.0 -1.506567700772e+02 
-1.576675350080e+02 4.269423955434e+00 0.0 
4.269423955434e+00 -3.773593767166e+02 0.0 
0.0 0.0 -1.601080735174e+02 
-5.574217247199e+01 2.826851365186e+01 0.0 
2.826851365186e+01 -5.991784904201e+01 0.0 
0.0 0.0 -3.037610065859e+01 
-4.794194792065e+01 3.266292156811e+01 0.0 
3.266292156811e+01 -9.591236640335e+01 0.0 
0.0 0.0 -4.074036467146e+01 
-4.631627921464e+01 3.213988568555e+01 0.0 
3.213988568555e+01 -7.693034283603e+01 0.0 
0.0 0.0 -3.419544736960e+01 
-4.431494484013e+01 3.114879553511e+01 0.0 
3.114879553511e+01 -5.582556848825e+01 0.0 
0.0 0.0 -2.699989069776e+01 
-1.199943526255e+02 3.419773336246e+01 0.0 
3.419773336246e+01 -2.789931542700e+02 0.0 
0.0 0.0 -1.192962520686e+02 
-1.141828097477e+02 3.294752115004e+01 0.0 
3.294752115004e+01 -2.600739307727e+02 0.0 
0.0 0.0 -1.118770221561e+02 
-1.310672642512e+02 5.366347911487e-01 0.0 
5.366347911487e-01 -3.225095725300e+02 0.0 
0.0 0.0 -1.356336800701e+02 
-1.239190638627e+02 1.707824827890e-01 0.0 
1.707824827890e-01 -3.030548333877e+02 0.0 
0.0 0.0 -1.269961268339e+02 
-5.016969136147e+01 7.596444737406e-01 0.0 
7.596444737406e-01 -7.402354595159e+01 0.0 
0.0 0.0 -3.685797119392e+01 
-4.931803365364e+01 5.711236924563e-01 0.0 
5.711236924563e-01 -7.293678978059e+01 0.0 
0.0 0.0 -3.627644703027e+01 
-5.655689136702e+01 8.454778123184e-01 0.0 
8.454778123184e-01 -9.095192100830e+01 0.0 
0.0 0.0 -4.385264371260e+01 
-5.520890000791e+01 6.898903896666e-01 0.0 
6.898903896666e-01 -8.847527962299e+01 0.0 
0.0 0.0 -4.270525388927e+01 
-6.222712014251e+01 9.828897281654e-01 0.0 
9.828897281654e-01 -1.066758682686e+02 0.0 
0.0 0.0 -5.027089652335e+01 
-6.097421763146e+01 7.490703699774e-01 0.0 
7.490703699774e-01 -1.038930897212e+02 0.0 
0.0 0.0 -4.906019220580e+01 
-6.792985266039e+01 1.296851159042e+00 0.0 
1.296851159042e+00 -1.225405654437e+02 0.0 
0.0 0.0 -5.674112543124e+01 
-1.280746675670e+02 3.193029757342e+01 0.0 
3.193029757342e+01 -3.128426789727e+02 0.0 
0.0 0.0 -1.318752039619e+02 
-4.523667573936e+01 3.169241509887e+01 0.0 
3.169241509887e+01 -5.841537115825e+01 0.0 
0.0 0.0 -2.743740306476e+01 
-6.031862526152e+01 2.351346843872e+01 0.0 
2.351346843872e+01 -6.259957891918e+01 0.0 
0.0 0.0 -3.429324026273e+01 
-1.343067797963e+02 2.358177511239e+01 0.0 
2.358177511239e+01 -3.378292910871e+02 0.0 
0.0 0.0 -1.412408212650e+02 
-1.282497640045e+02 2.116139712700e+01 0.0 
2.116139712700e+01 -3.303813756963e+02 0.0 
0.0 0.0 -1.371893419102e+02 
-5.511894867243e+01 3.147163186256e+01 0.0 
3.147163186256e+01 -7.982259762582e+01 0.0 
0.0 0.0 -3.513164295465e+01 
-4.899372598085e+01 3.050103488937e+01 0.0 
3.050103488937e+01 -5.983021210901e+01 0.0 
0.0 0.0 -2.717403924898e+01 
-1.472196824342e+02 9.959668059752e+00 0.0 
9.959668059752e+00 -3.632359566438e+02 0.0 
0.0 0.0 -1.527366917234e+02 
-5.129927903264e+01 2.774932898389e+01 0.0 
2.774932898389e+01 -1.459507737448e+02 0.0 
0.0 0.0 -5.732402070556e+01 
-1.039107059911e+02 1.607085542450e+01 0.0 
1.607085542450e+01 -2.305243266394e+02 0.0 
0.0 0.0 -9.993050978916e+01 
-6.417290614952e+01 2.836099605081e+01 0.0 
2.836099605081e+01 -8.596948260666e+01 0.0 
0.0 0.0 -4.585792271900e+01 
-4.323473585887e+01 2.611106834065e+01 0.0 
2.611106834065e+01 -1.003463758527e+02 0.0 
0.0 0.0 -4.460166504256e+01 
-5.406374230957e+01 2.953231968573e+01 0.0 
2.953231968573e+01 -1.476852341652e+02 0.0 
0.0 0.0 -5.960047736611e+01 
-6.127993990819e+01 3.185149175302e+01 0.0 
3.185149175302e+01 -9.987103477526e+01 0.0 
0.0 0.0 -4.353754283157e+01 
-4.961033050816e+01 3.273387456820e+01 0.0 
3.273387456820e+01 -9.631826135369e+01 0.0 
0.0 0.0 -4.107524464338e+01 
-4.783986977818e+01 3.232829571373e+01 0.0 
3.232829571373e+01 -7.841205355756e+01 0.0 
0.0 0.0 -3.454387118960e+01 
-1.057562684581e+02 9.107060608490e+00 0.0 
9.107060608490e+00 -2.969312643639e+02 0.0 
0.0 0.0 -1.209245523751e+02 
-3.039684726945e+01 -7.149417108851e+00 0.0 
-7.149417108851e+00 -5.333994088257e+01 0.0 
0.0 0.0 -2.127324986653e+01 
-4.498479465509e+01 3.191416507396e+01 0.0 
3.191416507396e+01 -7.922890602296e+01 0.0 
0.0 0.0 -3.288708807444e+01 
-6.929953215108e+01 1.684698966636e+00 0.0 
1.684698966636e+00 -1.248976845164e+02 0.0 
0.0 0.0 -5.785916500025e+01 
-4.601076341874e+01 3.289702912707e+01 0.0 
3.289702912707e+01 -6.113692508261e+01 0.0 
0.0 0.0 -2.773498834031e+01 
-1.275752771928e+02 1.669160150053e-01 0.0 
1.669160150053e-01 -3.131681802926e+02 0.0 
0.0 0.0 -1.315529298428e+02 
-5.287811302547e+01 2.465833235847e+01 0.0 
2.465833235847e+01 -1.609035125825e+02 0.0 
0.0 0.0 -6.233703449658e+01 
-6.600467284227e+01 3.260467790778e+01 0.0 
3.260467790778e+01 -1.373857091173e+02 0.0 
0.0 0.0 -5.706760750556e+01 
-4.492424947157e+01 3.069779556437e+01 0.0 
3.069779556437e+01 -9.650143246653e+01 0.0 
0.0 0.0 -3.824958060350e+01 
-4.918084858300e+01 3.225052344075e+01 0.0 
3.225052344075e+01 -1.146539970324e+02 0.0 
0.0 0.0 -4.726070696957e+01 
-7.769949547041e+01 2.712310879801e+01 0.0 
2.712310879801e+01 -1.286651846784e+02 0.0 
0.0 0.0 -6.128683239806e+01 
-7.056865436206e+01 2.045251750617e+01 0.0 
2.045251750617e+01 -9.418124538710e+01 0.0 
0.0 0.0 -4.879567476937e+01 
-6.862148918216e+01 2.275949872197e+01 0.0 
2.275949872197e+01 -8.889869186480e+01 0.0 
0.0 0.0 -4.603267282440e+01 
-5.470330477545e+01 2.109802353253e+01 0.0 
2.109802353253e+01 -1.746574309649e+02 0.0 
0.0 0.0 -6.724901177355e+01 
-4.968126066025e+01 3.212358238275e+01 0.0 
3.212358238275e+01 -7.928796160325e+01 0.0 
0.0 0.0 -3.460016904750e+01 
-4.491335398681e+01 3.100090826574e+01 0.0 
3.100090826574e+01 -5.710263034570e+01 0.0 
0.0 0.0 -2.689720826918e+01 
-7.480352136057e+01 3.146214683319e+01 0.0 
3.146214683319e+01 -1.413032258365e+02 0.0 
0.0 0.0 -6.299612088492e+01 
-9.711617434578e+01 2.038707314857e+01 0.0 
2.038707314857e+01 -1.827879032158e+02 0.0 
0.0 0.0 -8.357122326847e+01 
-1.007421811193e+02 2.303997362689e+01 0.0 
2.303997362689e+01 -1.968484560778e+02 0.0 
0.0 0.0 -8.887719115914e+01 
-1.057236898069e+02 2.469902262358e+01 0.0 
2.469902262358e+01 -2.179624525054e+02 0.0 
0.0 0.0 -9.670584269367e+01 
-1.043907666879e+02 2.557463513205e+01 0.0 
2.557463513205e+01 -2.115127658681e+02 0.0 
0.0 0.0 -9.437105976681e+01 
-9.890614949788e+01 2.412256557958e+01 0.0 
2.412256557958e+01 -1.899268574314e+02 0.0 
0.0 0.0 -8.624990207878e+01 
-1.024735858588e+02 2.654751598753e+01 0.0 
2.654751598753e+01 -2.050837125210e+02 0.0 
0.0 0.0 -9.186718951394e+01 
-1.077402402690e+02 2.782983879689e+01 0.0 
2.782983879689e+01 -2.262955127688e+02 0.0 
0.0 0.0 -9.981072591133e+01 
-1.062708382632e+02 2.870414289429e+01 0.0 
2.870414289429e+01 -2.213017922835e+02 0.0 
0.0 0.0 -9.787178916401e+01 
-1.126955276581e+02 3.047000838798e+01 0.0 
3.047000838798e+01 -2.457541926765e+02 0.0 
0.0 0.0 -1.071349161004e+02 
-1.098060075110e+02 3.068797601550e+01 0.0 
3.068797601550e+01 -2.371480004964e+02 0.0 
0.0 0.0 -1.036862024022e+02 
-1.033771069944e+02 2.938408067044e+01 0.0 
2.938408067044e+01 -2.152529758249e+02 0.0 
0.0 0.0 -9.518902484581e+01 
-1.066569009930e+02 3.087881455721e+01 0.0 
3.087881455721e+01 -2.307469830390e+02 0.0 
0.0 0.0 -1.008211652096e+02 
-1.130193799592e+02 3.221644765518e+01 0.0 
3.221644765518e+01 -2.509163894469e+02 0.0 
0.0 0.0 -1.087807308219e+02 
-1.001643097105e+02 3.011001707302e+01 0.0 
3.011001707302e+01 -2.096979951083e+02 0.0 
0.0 0.0 -9.255869144562e+01 
-1.396403667818e+02 2.589210071838e+01 0.0 
2.589210071838e+01 -3.434744810393e+02 0.0 
0.0 0.0 -1.445344543463e+02 
-5.883607575015e+01 2.869227201470e+01 0.0 
2.869227201470e+01 -1.651964875764e+02 0.0 
0.0 0.0 -6.709440349812e+01 
-3.364850605136e+01 1.347427362394e+01 0.0 
1.347427362394e+01 -1.167079426340e+02 0.0 
0.0 0.0 -4.742166794329e+01 
-4.091509404001e+01 3.257863472241e+01 0.0 
3.257863472241e+01 -8.861306963336e+01 0.0 
0.0 0.0 -3.914242938010e+01 
-6.909535125396e+01 3.247467090710e+01 0.0 
3.247467090710e+01 -1.384669097085e+02 0.0 
0.0 0.0 -5.859512395907e+01 
-1.164772083793e+02 3.146553892760e+01 0.0 
3.146553892760e+01 -2.632336744327e+02 0.0 
0.0 0.0 -1.135132648436e+02 
-1.123443245853e+02 2.720400674294e+01 0.0 
2.720400674294e+01 -2.510430340832e+02 0.0 
0.0 0.0 -1.086162076005e+02 
-4.657254099167e+01 2.233089600540e+01 0.0 
2.233089600540e+01 -1.444199450761e+02 0.0 
0.0 0.0 -5.344297513554e+01 
-1.288022142797e+02 3.617741209522e+01 0.0 
3.617741209522e+01 -3.017316158536e+02 0.0 
0.0 0.0 -1.287601490400e+02 
-7.217721982537e+01 2.628956678424e+01 0.0 
2.628956678424e+01 -1.068933553373e+02 0.0 
0.0 0.0 -5.248004162709e+01 
-3.875009894686e+01 1.514945223761e+01 0.0 
1.514945223761e+01 -1.308281064387e+02 0.0 
0.0 0.0 -4.745122664128e+01 
-1.338547624532e+02 3.540622314122e+01 0.0 
3.540622314122e+01 -3.174639611045e+02 0.0 
0.0 0.0 -1.349956170673e+02 
-9.523746588321e+01 2.147028213726e+01 0.0 
2.147028213726e+01 -1.751004477795e+02 0.0 
0.0 0.0 -8.070137409882e+01 
-9.295801928346e+01 2.274051196656e+01 0.0 
2.274051196656e+01 -1.677307942973e+02 0.0 
0.0 0.0 -7.780664407422e+01 
-8.915786754758e+01 1.990197775686e+01 0.0 
1.990197775686e+01 -1.529802886948e+02 0.0 
0.0 0.0 -7.224144687271e+01 
-1.090847756136e+02 2.308009317019e+01 0.0 
2.308009317019e+01 -2.432987327027e+02 0.0 
0.0 0.0 -1.053150524949e+02 
-7.218995535673e+01 7.740921973384e+00 0.0 
7.740921973384e+00 -1.114478281595e+02 0.0 
0.0 0.0 -5.469133505487e+01 
-1.433549462721e+02 3.055804501956e+01 0.0 
3.055804501956e+01 -3.442418237040e+02 0.0 
0.0 0.0 -1.458790309928e+02 
-8.022612550822e+01 1.779322854920e+01 0.0 
1.779322854920e+01 -2.503917380081e+02 0.0 
0.0 0.0 -1.030423665757e+02 
-7.657722090466e+01 1.995869842378e+01 0.0 
1.995869842378e+01 -2.383717843517e+02 0.0 
0.0 0.0 -9.818416788025e+01 
-7.027486959603e+01 2.007622932014e+01 0.0 
2.007622932014e+01 -2.217908300602e+02 0.0 
0.0 0.0 -9.121048287657e+01 
-9.997280739195e+01 2.749178145111e+01 0.0 
2.749178145111e+01 -1.989973455689e+02 0.0 
0.0 0.0 -8.929104588825e+01 
-1.504072185263e+02 2.295747192005e+01 0.0 
2.295747192005e+01 -3.633739118128e+02 0.0 
0.0 0.0 -1.537343391017e+02 
-1.410156020167e+02 2.061016404980e+01 0.0 
2.061016404980e+01 -3.512017525182e+02 0.0 
0.0 0.0 -1.472652063605e+02 
-1.426266756275e+02 1.886652434049e+01 0.0 
1.886652434049e+01 -3.546935074078e+02 0.0 
0.0 0.0 -1.487960549106e+02 
-1.310694668309e+02 1.830116667253e+01 0.0 
1.830116667253e+01 -3.373287987134e+02 0.0 
0.0 0.0 -1.401194796633e+02 
-1.537135226275e+02 1.901918990688e+01 0.0 
1.901918990688e+01 -3.709425090655e+02 0.0 
0.0 0.0 -1.569968095079e+02 
-1.217445417273e+02 3.452849176600e+01 0.0 
3.452849176600e+01 -2.793057971581e+02 0.0 
0.0 0.0 -1.199151016656e+02 
-1.242571464535e+02 3.553710489947e+01 0.0 
3.553710489947e+01 -2.873693095774e+02 0.0 
0.0 0.0 -1.230879368093e+02 
-5.344276445218e+01 -1.480940241160e+01 0.0 
-1.480940241160e+01 -1.521176119958e+02 0.0 
0.0 0.0 -5.847527123333e+01 
-5.355841451160e+01 -1.098375764942e+01 0.0 
-1.098375764942e+01 -1.640017276645e+02 0.0 
0.0 0.0 -6.263808068487e+01 
-5.784674594742e+01 -8.903557989910e+00 0.0 
-8.903557989910e+00 -1.791959075762e+02 0.0 
0.0 0.0 -7.015824171398e+01 
-5.391491298727e+01 -6.244620220703e+00 0.0 
-6.244620220703e+00 -1.740550575535e+02 0.0 
0.0 0.0 -6.620412748862e+01 
-4.961385322476e+01 -8.354285076793e+00 0.0 
-8.354285076793e+00 -1.596668054402e+02 0.0 
0.0 0.0 -5.936910647677e+01 
-5.004451071629e+01 -2.701901328869e+00 0.0 
-2.701901328869e+00 -1.683862527087e+02 0.0 
0.0 0.0 -6.250234542984e+01 
-5.474321829072e+01 -1.095741278530e+00 0.0 
-1.095741278530e+00 -1.821107685679e+02 0.0 
0.0 0.0 -6.913567154935e+01 
-4.649688640623e+01 1.900578150300e+00 0.0 
1.900578150300e+00 -1.618057926059e+02 0.0 
0.0 0.0 -5.900492223707e+01 
-1.072244741532e+02 3.205447915778e+01 0.0 
3.205447915778e+01 -2.411721254930e+02 0.0 
0.0 0.0 -1.041189798938e+02 
-1.566762129140e+02 1.515778910212e+01 0.0 
1.515778910212e+01 -3.769998192034e+02 0.0 
0.0 0.0 -1.597028096352e+02 
-9.744132318106e+01 1.848300529701e+00 0.0 
1.848300529701e+00 -2.700763788742e+02 0.0 
0.0 0.0 -1.106319136525e+02 
-9.231037499239e+01 1.711931844609e+00 0.0 
1.711931844609e+00 -2.615614160190e+02 0.0 
0.0 0.0 -1.079128301863e+02 
-8.618766801129e+01 -1.473800739275e+00 0.0 
-1.473800739275e+00 -2.435349795439e+02 0.0 
0.0 0.0 -1.008496983435e+02 
-8.815757924449e+01 -6.289903763440e+00 0.0 
-6.289903763440e+00 -2.027577068231e+02 0.0 
0.0 0.0 -8.185037109410e+01 
-9.083446932168e+01 -6.010195461119e+00 0.0 
-6.010195461119e+00 -2.147798677735e+02 0.0 
0.0 0.0 -8.704818976961e+01 
-9.728644008296e+01 -4.317157207073e+00 0.0 
-4.317157207073e+00 -2.344902721656e+02 0.0 
0.0 0.0 -9.531629341288e+01 
-8.490820127595e+01 -6.198829989737e+00 0.0 
-6.198829989737e+00 -1.905997346836e+02 0.0 
0.0 0.0 -7.658946369415e+01 
-8.992428567262e+01 2.852212970161e+01 0.0 
2.852212970161e+01 -2.410758755751e+02 0.0 
0.0 0.0 -9.889115490443e+01 
-1.577063940822e+02 1.343074895144e+01 0.0 
1.343074895144e+01 -3.788857585729e+02 0.0 
0.0 0.0 -1.605776457965e+02 
-8.379961365774e+01 8.360493487104e+00 0.0 
8.360493487104e+00 -2.594473139836e+02 0.0 
0.0 0.0 -1.077576360480e+02 
-8.623924043901e+01 -7.351692980914e+00 0.0 
-7.351692980914e+00 -2.067874312449e+02 0.0 
0.0 0.0 -8.420229661706e+01 
-5.225344454863e+01 4.825855984134e+00 0.0 
4.825855984134e+00 -5.880221949617e+01 0.0 
0.0 0.0 -3.291669921344e+01 
-6.189745860890e+01 7.772517523973e+00 0.0 
7.772517523973e+00 -7.811167380664e+01 0.0 
0.0 0.0 -4.160273972466e+01 
-6.475959503789e+01 1.042938937778e+01 0.0 
1.042938937778e+01 -8.060737113066e+01 0.0 
0.0 0.0 -4.321008985057e+01 
-7.169554152371e+01 1.143943352654e+01 0.0 
1.143943352654e+01 -1.002407400678e+02 0.0 
0.0 0.0 -5.118088447747e+01 
-6.052415867951e+01 6.202875077968e+00 0.0 
6.202875077968e+00 -7.847597961449e+01 0.0 
0.0 0.0 -4.130004148820e+01 
-1.026980116493e+02 -2.980675908271e+00 0.0 
-2.980675908271e+00 -2.388907713350e+02 0.0 
0.0 0.0 -9.824008254840e+01 
-1.062073794944e+02 -2.147937789714e+00 0.0 
-2.147937789714e+00 -2.470942519484e+02 0.0 
0.0 0.0 -1.021414985573e+02 
-1.034407922901e+02 -2.147844222857e+00 0.0 
-2.147844222857e+00 -2.357384798519e+02 0.0 
0.0 0.0 -9.745500941729e+01 
-1.095354143956e+02 -1.407516019982e+00 0.0 
-1.407516019982e+00 -2.553787383717e+02 0.0 
0.0 0.0 -1.059929622564e+02 
-1.065663467824e+02 -1.309480106824e+00 0.0 
-1.309480106824e+00 -2.437145927629e+02 0.0 
0.0 0.0 -1.011336040439e+02 
-1.006609680942e+02 -1.836240030630e+00 0.0 
-1.836240030630e+00 -2.253563803156e+02 0.0 
0.0 0.0 -9.320697472549e+01 
-1.125847593068e+02 -7.613021768080e-01 0.0 
-7.613021768080e-01 -2.633742470128e+02 0.0 
0.0 0.0 -1.096610682013e+02 
-1.090273632943e+02 -7.389696492778e-01 0.0 
-7.389696492778e-01 -2.505232643788e+02 0.0 
0.0 0.0 -1.041920672131e+02 
-4.859987610859e+01 2.575210299178e+00 0.0 
2.575210299178e+00 -5.719377619643e+01 0.0 
0.0 0.0 -3.133809569151e+01 
-4.838557731774e+01 -2.428002051688e+01 0.0 
-2.428002051688e+01 -4.724859173465e+01 0.0 
0.0 0.0 -2.865275280528e+01 
-4.393369411207e+01 -2.470084555123e+01 0.0 
-2.470084555123e+01 -5.891086983550e+01 0.0 
0.0 0.0 -2.705185890496e+01 
-3.857455976029e+01 -1.587696909587e+01 0.0 
-1.587696909587e+01 -4.467040811512e+01 0.0 
0.0 0.0 -1.967363093483e+01 
-4.499531487999e+01 -2.234016310601e+01 0.0 
-2.234016310601e+01 -7.228620294254e+01 0.0 
0.0 0.0 -2.868027624890e+01 
-4.281520299674e+01 -2.485403000525e+01 0.0 
-2.485403000525e+01 -8.846563958693e+01 0.0 
0.0 0.0 -3.568392650894e+01 
-4.522548378105e+01 -2.200991368556e+01 0.0 
-2.200991368556e+01 -9.914504666075e+01 0.0 
0.0 0.0 -3.766819850696e+01 
-4.127242901773e+01 -2.123033901405e+01 0.0 
-2.123033901405e+01 -1.080678714732e+02 0.0 
0.0 0.0 -4.041591436005e+01 
-4.305050801669e+01 -2.844694203689e+01 0.0 
-2.844694203689e+01 -8.215595998489e+01 0.0 
0.0 0.0 -3.760154778651e+01 
-2.552521836243e+01 -6.329277245071e+00 0.0 
-6.329277245071e+00 -2.017534497549e+01 0.0 
0.0 0.0 -1.198826306865e+01 
-3.209687548345e+01 -9.844210100715e+00 0.0 
-9.844210100715e+00 -3.906797928585e+01 0.0 
0.0 0.0 -1.731796910302e+01 
-1.927152484025e+01 -3.037414406078e+00 0.0 
-3.037414406078e+00 -1.837008693228e+01 0.0 
0.0 0.0 -9.868752558532e+00 
-2.648279541266e+01 -6.229461004306e+00 0.0 
-6.229461004306e+00 -3.605725014273e+01 0.0 
0.0 0.0 -1.543653999791e+01 
-3.808317216070e+01 -1.199673206762e+01 0.0 
-1.199673206762e+01 -5.916911290042e+01 0.0 
0.0 0.0 -2.401741414254e+01 
-3.916454288163e+01 -1.036022249921e+01 0.0 
-1.036022249921e+01 -8.180913419159e+01 0.0 
0.0 0.0 -3.255608295714e+01 
-1.609753372813e+02 2.227345366970e+00 0.0 
2.227345366970e+00 -3.819157490045e+02 0.0 
0.0 0.0 -1.624673258857e+02 
-8.976935599315e+01 -9.866096110703e-01 0.0 
-9.866096110703e-01 -1.935928019912e+02 0.0 
0.0 0.0 -7.979237864315e+01 
-8.551586097484e+01 -2.074674649715e+00 0.0 
-2.074674649715e+00 -1.838565536824e+02 0.0 
0.0 0.0 -7.541831757637e+01 
-7.700294160195e+01 -2.215397500400e+00 0.0 
-2.215397500400e+00 -1.639404220206e+02 0.0 
0.0 0.0 -6.687996576473e+01 
-8.145293724197e+01 -3.134742601355e+00 0.0 
-3.134742601355e+00 -1.751706456428e+02 0.0 
0.0 0.0 -7.134530490011e+01 
-9.275270215668e+01 -1.817129621445e+00 0.0 
-1.817129621445e+00 -2.019492478441e+02 0.0 
0.0 0.0 -8.321447722736e+01 
-7.174792125633e+01 -1.139769185285e+00 0.0 
-1.139769185285e+00 -1.526517081650e+02 0.0 
0.0 0.0 -6.221037066904e+01 
-6.761972660369e+01 -2.238410537019e+00 0.0 
-2.238410537019e+00 -1.454722145393e+02 0.0 
0.0 0.0 -5.889766459718e+01 
-8.680618826384e+00 -6.045191348285e-02 0.0 
-6.045191348285e-02 -1.723440038407e+01 0.0 
0.0 0.0 -5.705318969999e+00 
-1.056551855748e+01 -2.192286376712e-01 0.0 
-2.192286376712e-01 -3.369286299514e+01 0.0 
0.0 0.0 -1.058984015841e+01 
-1.025069053203e+01 -2.485666928638e-01 0.0 
-2.485666928638e-01 -3.199826038703e+01 0.0 
0.0 0.0 -1.001858571524e+01 
-1.322303656081e+01 -5.032118596825e-01 0.0 
-5.032118596825e-01 -5.046592689731e+01 0.0 
0.0 0.0 -1.705108206939e+01 
-1.367564980641e+01 -6.693364148504e-01 0.0 
-6.693364148504e-01 -5.022458652650e+01 0.0 
0.0 0.0 -1.708193533418e+01 
-1.118931320682e+01 -4.480033148665e-01 0.0 
-4.480033148665e-01 -3.413437793052e+01 0.0 
0.0 0.0 -1.088450404811e+01 
-1.154603810892e+01 -7.391706803429e-01 0.0 
-7.391706803429e-01 -3.415336064631e+01 0.0 
0.0 0.0 -1.107442901001e+01 
-9.259782291401e+00 -3.321600716690e-01 0.0 
-3.321600716690e-01 -1.706270161715e+01 0.0 
0.0 0.0 -5.821743695083e+00 
-1.208389705293e+01 -8.801159913852e-01 0.0 
-8.801159913852e-01 -3.390008146553e+01 0.0 
0.0 0.0 -1.132401055293e+01 
-1.537440846586e+01 -1.516257472925e+00 0.0 
-1.516257472925e+00 -5.113880671534e+01 0.0 
0.0 0.0 -1.788563971210e+01 
-9.617469532633e+00 -4.092965380508e-01 0.0 
-4.092965380508e-01 -1.645793725146e+01 0.0 
0.0 0.0 -5.826398575168e+00 
-7.662700444334e+01 7.718694369995e-01 0.0 
7.718694369995e-01 -1.491985896467e+02 0.0 
0.0 0.0 -6.734767822702e+01 
-8.016507435714e+01 1.538643194969e+00 0.0 
1.538643194969e+00 -1.602433847946e+02 0.0 
0.0 0.0 -7.172253774553e+01 
-1.587507843579e+02 1.010230971948e+01 0.0 
1.010230971948e+01 -3.807757672379e+02 0.0 
0.0 0.0 -1.614579654788e+02 
-4.690829458369e+01 1.593949798796e+00 0.0 
1.593949798796e+00 -5.877485566041e+01 0.0 
0.0 0.0 -3.130494507323e+01 
-1.343075162786e+01 -6.771128451308e-01 0.0 
-6.771128451308e-01 -1.692534752672e+01 0.0 
0.0 0.0 -8.422701092943e+00 
-9.870597896828e+01 5.679556888848e+00 0.0 
5.679556888848e+00 -2.221765580391e+02 0.0 
0.0 0.0 -9.586476110221e+01 
-1.014882201139e+02 1.054463794788e+01 0.0 
1.054463794788e+01 -2.279815124713e+02 0.0 
0.0 0.0 -9.844091977555e+01 
-1.007938505292e+02 8.845068049154e+00 0.0 
8.845068049154e+00 -2.273076154000e+02 0.0 
0.0 0.0 -9.803043977878e+01 
-1.459397108351e+02 4.093176967592e-01 0.0 
4.093176967592e-01 -3.522480787567e+02 0.0 
0.0 0.0 -1.490563368775e+02 
-1.507552906257e+02 9.342523122754e-01 0.0 
9.342523122754e-01 -3.617721113093e+02 0.0 
0.0 0.0 -1.533582205805e+02 
-9.810276451157e+01 3.157350968495e+00 0.0 
3.157350968495e+00 -2.220499754394e+02 0.0 
0.0 0.0 -9.564582198530e+01 
-5.843402751326e+01 -1.148141881920e+01 0.0 
-1.148141881920e+01 -1.320524494541e+02 0.0 
0.0 0.0 -5.307029158061e+01 
-1.097249026259e+02 2.723055899254e+01 0.0 
2.723055899254e+01 -2.324857274053e+02 0.0 
0.0 0.0 -1.022631890094e+02 
-8.962522496236e+01 5.574657034857e+00 0.0 
5.574657034857e+00 -1.862978976950e+02 0.0 
0.0 0.0 -8.237693679720e+01 
-3.935269711471e+01 2.233522093033e+01 0.0 
2.233522093033e+01 -1.165919640269e+02 0.0 
0.0 0.0 -4.232532473969e+01 
-5.619318108733e+01 -1.628866551008e+01 0.0 
-1.628866551008e+01 -1.316843638205e+02 0.0 
0.0 0.0 -5.343577828682e+01 
-1.209027111680e+02 2.611960326969e-02 0.0 
2.611960326969e-02 -2.942532744133e+02 0.0 
0.0 0.0 -1.230032747536e+02 
-1.086204108726e+02 -8.230859256478e-01 0.0 
-8.230859256478e-01 -2.729552526615e+02 0.0 
0.0 0.0 -1.123348199398e+02 
-1.360123679949e+02 1.949042277560e+00 0.0 
1.949042277560e+00 -3.350463242467e+02 0.0 
0.0 0.0 -1.409176076725e+02 
-1.142571120344e+02 -7.198182860967e-01 0.0 
-7.198182860967e-01 -2.777513058897e+02 0.0 
0.0 0.0 -1.153272080005e+02 
-1.265834560377e+02 2.278646401658e+00 0.0 
2.278646401658e+00 -3.188832696849e+02 0.0 
0.0 0.0 -1.331952672062e+02 
-1.433440083126e+02 1.654070149905e+01 0.0 
1.654070149905e+01 -3.570778389708e+02 0.0 
0.0 0.0 -1.497265541850e+02 
-2.648985958357e+01 -2.319883746364e+00 0.0 
-2.319883746364e+00 -8.001914281361e+01 0.0 
0.0 0.0 -3.016817959321e+01 
-6.817318733678e+01 4.110030576462e+00 0.0 
4.110030576462e+00 -1.124706573319e+02 0.0 
0.0 0.0 -5.379315340059e+01 
-6.282137440687e+01 2.079463851358e+00 0.0 
2.079463851358e+00 -1.045412740367e+02 0.0 
0.0 0.0 -4.980879453308e+01 
-8.100199111217e+01 5.098405513000e+00 0.0 
5.098405513000e+00 -1.547321604305e+02 0.0 
0.0 0.0 -7.032024546280e+01 
-6.207848596197e+01 -6.954525189698e+00 0.0 
-6.954525189698e+00 -1.367747013236e+02 0.0 
0.0 0.0 -5.373832580773e+01 
-9.697377046085e+01 -2.772136922643e+00 0.0 
-2.772136922643e+00 -2.164351921029e+02 0.0 
0.0 0.0 -8.905849208768e+01 
-3.558140377209e+01 -7.064071267256e+00 0.0 
-7.064071267256e+00 -8.600418714836e+01 0.0 
0.0 0.0 -3.270572916786e+01 
-1.251678665414e+02 3.402002860477e+01 0.0 
3.402002860477e+01 -2.987870912624e+02 0.0 
0.0 0.0 -1.267864873412e+02 
-6.967906318177e+01 3.125085154005e+01 0.0 
3.125085154005e+01 -1.210002722383e+02 0.0 
0.0 0.0 -5.436610934453e+01 
-8.551763675578e+01 -4.188744486184e+00 0.0 
-4.188744486184e+00 -2.333998026804e+02 0.0 
0.0 0.0 -9.639363276252e+01 
-8.050157994614e+01 -7.636757724699e+00 0.0 
-7.636757724699e+00 -1.823354334506e+02 0.0 
0.0 0.0 -7.347219791455e+01 
-6.280314490907e+01 -1.268388394410e+01 0.0 
-1.268388394410e+01 -1.451119303267e+02 0.0 
0.0 0.0 -5.881607517847e+01 
-5.398646194334e+01 -1.734792209203e+01 0.0 
-1.734792209203e+01 -1.265557083437e+02 0.0 
0.0 0.0 -5.083686214507e+01 
-6.243514634232e+01 2.994201635686e+01 0.0 
2.994201635686e+01 -1.682121044398e+02 0.0 
0.0 0.0 -6.857258462873e+01 
-8.829043528993e+01 -6.525757653153e+00 0.0 
-6.525757653153e+00 -2.186881035609e+02 0.0 
0.0 0.0 -8.940990570065e+01 
-1.155807376890e+02 3.832071055557e+00 0.0 
3.832071055557e+00 -3.049987716335e+02 0.0 
0.0 0.0 -1.257345106772e+02 
-8.367983408147e+01 4.743550128059e+00 0.0 
4.743550128059e+00 -1.657270646906e+02 0.0 
0.0 0.0 -7.442206963162e+01 
-1.169122163429e+01 -5.663584831390e-01 0.0 
-5.663584831390e-01 -1.890011240427e+01 0.0 
0.0 0.0 -7.845678713177e+00 
-1.196462414951e+02 5.537375798630e+00 0.0 
5.537375798630e+00 -3.150829874621e+02 0.0 
0.0 0.0 -1.300187686872e+02 
-1.003637183141e+02 -1.990941299034e+00 0.0 
-1.990941299034e+00 -2.571249447975e+02 0.0 
0.0 0.0 -1.049020901643e+02 
-7.489214692029e+01 7.526554161256e+00 0.0 
7.526554161256e+00 -1.219897245350e+02 0.0 
0.0 0.0 -5.866456143658e+01 
-1.065944558280e+02 1.851722278800e+01 0.0 
1.851722278800e+01 -2.964947833443e+02 0.0 
0.0 0.0 -1.207468412575e+02 
-4.827986313001e+01 -2.058210996637e+01 0.0 
-2.058210996637e+01 -1.011775639448e+02 0.0 
0.0 0.0 -3.873337083628e+01 
-8.638512820691e+01 8.650370558456e+00 0.0 
8.650370558456e+00 -1.638488076682e+02 0.0 
0.0 0.0 -7.467018076253e+01 
-1.007748991213e+02 1.748123151134e+01 0.0 
1.748123151134e+01 -2.073396371537e+02 0.0 
0.0 0.0 -9.203436088249e+01 
-6.953453538116e+01 8.225261955570e+00 0.0 
8.225261955570e+00 -1.010932051287e+02 0.0 
0.0 0.0 -5.078832215297e+01 
-2.463575941951e+01 -4.648558420627e+00 0.0 
-4.648558420627e+00 -6.536211971767e+01 0.0 
0.0 0.0 -2.416605850330e+01 
-6.004680625735e+01 2.812411433000e+00 0.0 
2.812411433000e+00 -9.188929207464e+01 0.0 
0.0 0.0 -4.518082949960e+01 
-1.399136741467e+02 1.076594548267e+01 0.0 
1.076594548267e+01 -3.519448487631e+02 0.0 
0.0 0.0 -1.471575568729e+02 
-9.316470843632e+01 1.765869805741e+01 0.0 
1.765869805741e+01 -1.692445745524e+02 0.0 
0.0 0.0 -7.832278489662e+01 
-5.592007072428e+01 -5.674642804793e+00 0.0 
-5.674642804793e+00 -1.245182635889e+02 0.0 
0.0 0.0 -4.850381654433e+01 
-7.144046503549e+01 7.853695559876e+00 0.0 
7.853695559876e+00 -2.327814668153e+02 0.0 
0.0 0.0 -9.592873225714e+01 
-6.804282132442e+01 3.216340262415e+01 0.0 
3.216340262415e+01 -1.551271067503e+02 0.0 
0.0 0.0 -6.381921219143e+01 
-5.658512393752e+01 1.485630128956e+01 0.0 
1.485630128956e+01 -4.851171056011e+01 0.0 
0.0 0.0 -2.994262496972e+01 
-9.256122060219e+01 6.969481837184e+00 0.0 
6.969481837184e+00 -1.955510503395e+02 0.0 
0.0 0.0 -8.603368128250e+01 
-7.140562784983e+01 2.470779400587e+01 0.0 
2.470779400587e+01 -2.130637755433e+02 0.0 
0.0 0.0 -8.729771607484e+01 
-1.190165766513e+02 1.660415473162e+01 0.0 
1.660415473162e+01 -3.188948628510e+02 0.0 
0.0 0.0 -1.309734318507e+02 
-8.693717713673e+01 1.148077968657e+01 0.0 
1.148077968657e+01 -2.663818053093e+02 0.0 
0.0 0.0 -1.098765892684e+02 
-6.085934881908e+01 -4.479266958375e+00 0.0 
-4.479266958375e+00 -1.332515464525e+02 0.0 
0.0 0.0 -5.263903673975e+01 
-1.306622033573e+02 4.905148273002e+00 0.0 
4.905148273002e+00 -3.317855135642e+02 0.0 
0.0 0.0 -1.383343150764e+02 
-6.710457426972e+01 1.726947604440e+01 0.0 
1.726947604440e+01 -2.177177803374e+02 0.0 
0.0 0.0 -8.878012135284e+01 
-9.228474992922e+01 1.012131762468e+01 0.0 
1.012131762468e+01 -1.848543830591e+02 0.0 
0.0 0.0 -8.274173989649e+01 
-9.533807341321e+01 3.137473377279e+01 0.0 
3.137473377279e+01 -2.315605178016e+02 0.0 
0.0 0.0 -9.766957736445e+01 
-5.745841799651e+01 9.010037113524e+00 0.0 
9.010037113524e+00 -1.937837807334e+02 0.0 
0.0 0.0 -7.422099489247e+01 
-9.245202729823e+01 1.351146747011e+01 0.0 
1.351146747011e+01 -1.752135284790e+02 0.0 
0.0 0.0 -7.989966673316e+01 
-7.985763837311e+01 -2.029945453661e+00 0.0 
-2.029945453661e+00 -2.352282591708e+02 0.0 
0.0 0.0 -9.724354881726e+01 
-1.116060656643e+02 2.082292445081e+01 0.0 
2.082292445081e+01 -3.025039379689e+02 0.0 
0.0 0.0 -1.238330010900e+02 
-6.680064831701e+01 3.201740703008e+01 0.0 
3.201740703008e+01 -1.198226804103e+02 0.0 
0.0 0.0 -5.213826891574e+01 
-8.113983644429e+01 3.184169429503e+01 0.0 
3.184169429503e+01 -1.940751742942e+02 0.0 
0.0 0.0 -8.156344811007e+01 
-8.971498669168e+01 3.060046264908e+01 0.0 
3.060046264908e+01 -1.845466752928e+02 0.0 
0.0 0.0 -8.187849859534e+01 
-7.661917449870e+01 2.921775965626e+01 0.0 
2.921775965626e+01 -2.058150527222e+02 0.0 
0.0 0.0 -8.391181348588e+01 
-1.183886940971e+02 -3.308411875918e-01 0.0 
-3.308411875918e-01 -2.833205936571e+02 0.0 
0.0 0.0 -1.183369745069e+02 
-1.252138078310e+02 5.229089271128e+00 0.0 
5.229089271128e+00 -3.234948782331e+02 0.0 
0.0 0.0 -1.342126058192e+02 
-3.770125434553e+01 -7.853615093606e+00 0.0 
-7.853615093606e+00 -1.320452341697e+02 0.0 
0.0 0.0 -4.949239123815e+01 
-5.273742802766e+01 3.168641352033e+01 0.0 
3.168641352033e+01 -1.327534438281e+02 0.0 
0.0 0.0 -5.422009953362e+01 
-7.747253462437e+01 1.020862395196e+01 0.0 
1.020862395196e+01 -1.227491231108e+02 0.0 
0.0 0.0 -5.966649732055e+01 
-1.124643737106e+02 3.081299523451e+01 0.0 
3.081299523451e+01 -2.804714559351e+02 0.0 
0.0 0.0 -1.174807488937e+02 
-9.759299681186e+01 1.137951018731e+01 0.0 
1.137951018731e+01 -2.057677369497e+02 0.0 
0.0 0.0 -9.060822012847e+01 
-6.269425473615e+01 3.260382093560e+01 0.0 
3.260382093560e+01 -1.363505828603e+02 0.0 
0.0 0.0 -5.629778851659e+01 
-1.260511753579e+02 3.578791922685e+00 0.0 
3.578791922685e+00 -3.213726556813e+02 0.0 
0.0 0.0 -1.338271493117e+02 
-9.749814806771e+01 1.513427975726e+01 0.0 
1.513427975726e+01 -1.960352086424e+02 0.0 
0.0 0.0 -8.766000701302e+01 
-9.300561682304e+01 -5.332672816577e+00 0.0 
-5.332672816577e+00 -2.265581558464e+02 0.0 
0.0 0.0 -9.214884500770e+01 
-3.431840967790e+01 -8.718039974192e-01 0.0 
-8.718039974192e-01 -9.166455995399e+01 0.0 
0.0 0.0 -3.553557480819e+01 
-3.938205405014e+01 2.617182406919e+01 0.0 
2.617182406919e+01 -1.035655972693e+02 0.0 
0.0 0.0 -3.982315914671e+01 
-4.794164735032e+01 7.802986031146e+00 0.0 
7.802986031146e+00 -1.663984848690e+02 0.0 
0.0 0.0 -6.079196865598e+01 
-6.789370132880e+01 2.288192362286e+01 0.0 
2.288192362286e+01 -2.093115850630e+02 0.0 
0.0 0.0 -8.570895640328e+01 
-9.905397731896e+01 -3.369519431697e+00 0.0 
-3.369519431697e+00 -2.459418867973e+02 0.0 
0.0 0.0 -1.001717360992e+02 
-1.076005918070e+02 2.423573188404e+01 0.0 
2.423573188404e+01 -2.285873029791e+02 0.0 
0.0 0.0 -1.004563684358e+02 
-1.311810888012e+02 3.374307700196e+00 0.0 
3.374307700196e+00 -3.294807980419e+02 0.0 
0.0 0.0 -1.377985660529e+02 
-1.120518975388e+02 8.538187865911e+00 0.0 
8.538187865911e+00 -3.066738787883e+02 0.0 
0.0 0.0 -1.252177328981e+02 
-4.815396304999e+01 3.503555045468e+01 0.0 
3.503555045468e+01 -4.393567471839e+01 0.0 
0.0 0.0 -2.513044270717e+01 
-6.225743963299e+01 2.074711636645e+01 0.0 
2.074711636645e+01 -6.624902662796e+01 0.0 
0.0 0.0 -3.673608334898e+01 
-1.362352293850e+02 3.115692423428e+00 0.0 
3.115692423428e+00 -3.376638982619e+02 0.0 
0.0 0.0 -1.417697382941e+02 
-7.610100012371e+01 5.986859812764e+00 0.0 
5.986859812764e+00 -2.421007914312e+02 0.0 
0.0 0.0 -1.005121539390e+02 
-1.175380387351e+02 1.983061863084e+01 0.0 
1.983061863084e+01 -3.138590230640e+02 0.0 
0.0 0.0 -1.290191185398e+02 
-1.030298258988e+02 -1.099564114429e+00 0.0 
-1.099564114429e+00 -2.315083963575e+02 0.0 
0.0 0.0 -9.602670247954e+01 
-1.268837249388e+02 3.331199868614e+01 0.0 
3.331199868614e+01 -3.059420521948e+02 0.0 
0.0 0.0 -1.294477331401e+02 
-5.186259359489e+01 2.984453687215e+01 0.0 
2.984453687215e+01 -5.955009088118e+01 0.0 
0.0 0.0 -2.811741781443e+01 
-1.412240906897e+02 2.776740423389e+00 0.0 
2.776740423389e+00 -3.461530716976e+02 0.0 
0.0 0.0 -1.458131487162e+02 
-1.098936432874e+02 1.165554811468e+01 0.0 
1.165554811468e+01 -3.048590108445e+02 0.0 
0.0 0.0 -1.241937206504e+02 
-4.886030260355e+01 2.533221026275e+01 0.0 
2.533221026275e+01 -1.450451974716e+02 0.0 
0.0 0.0 -5.526244508021e+01 
-4.228999074698e+01 2.134685624350e-01 0.0 
2.134685624350e-01 -5.584977787772e+01 0.0 
0.0 0.0 -2.904193058741e+01 
-1.527077475469e+02 3.232202172842e+00 0.0 
3.232202172842e+00 -3.674700572539e+02 0.0 
0.0 0.0 -1.556533414402e+02 
-1.208908874758e+02 1.332999898253e+01 0.0 
1.332999898253e+01 -3.228004612341e+02 0.0 
0.0 0.0 -1.327074046130e+02 
-8.245120090437e+01 2.882854240014e+01 0.0 
2.882854240014e+01 -2.234724494856e+02 0.0 
0.0 0.0 -9.125478309452e+01 
-7.474125641547e+01 2.075300987836e+00 0.0 
2.075300987836e+00 -2.348521244024e+02 0.0 
0.0 0.0 -9.699115917698e+01 
-5.433166987991e+01 2.094242000562e+01 0.0 
2.094242000562e+01 -3.833294773626e+01 0.0 
0.0 0.0 -2.479319917676e+01 
-1.031102696754e+02 -2.605113255535e+00 0.0 
-2.605113255535e+00 -2.538348029184e+02 0.0 
0.0 0.0 -1.037477363281e+02 
-8.470947875391e+01 3.200842763920e+01 0.0 
3.200842763920e+01 -1.961563761864e+02 0.0 
0.0 0.0 -8.365947425634e+01 
-1.073805629087e+02 2.083833205763e+01 0.0 
2.083833205763e+01 -2.399339919886e+02 0.0 
0.0 0.0 -1.037943664692e+02 
-1.253733752011e+02 1.567354304218e+01 0.0 
1.567354304218e+01 -3.293522791118e+02 0.0 
0.0 0.0 -1.360176962939e+02 
-8.664951940961e+01 2.139933978988e+01 0.0 
2.139933978988e+01 -1.453737817957e+02 0.0 
0.0 0.0 -6.920699036160e+01 
-1.012551942653e+02 -3.428706203497e+00 0.0 
-3.428706203497e+00 -2.423790820834e+02 0.0 
0.0 0.0 -9.900277588453e+01 
-8.913156953354e+01 2.231203055560e+01 0.0 
2.231203055560e+01 -2.599302061333e+02 0.0 
0.0 0.0 -1.054131259375e+02 
-1.429506090275e+01 -9.664408199492e-01 0.0 
-9.664408199492e-01 -5.044626918109e+01 0.0 
0.0 0.0 -1.733658356497e+01 
-5.819653339972e+01 2.605752687534e+01 0.0 
2.605752687534e+01 -6.082604041075e+01 0.0 
0.0 0.0 -3.233313346191e+01 
-1.050140789696e+02 -2.615071448856e+00 0.0 
-2.615071448856e+00 -2.503487305777e+02 0.0 
0.0 0.0 -1.029546165069e+02 
-5.110821680407e+01 2.987329896837e+00 0.0 
2.987329896837e+00 -1.748983261437e+02 0.0 
0.0 0.0 -6.492754672108e+01 
-8.052631162174e+01 1.498322037281e+00 0.0 
1.498322037281e+00 -2.439394889890e+02 0.0 
0.0 0.0 -1.011807530863e+02 
-1.324427117346e+02 2.668520837032e+01 0.0 
2.668520837032e+01 -3.309675208344e+02 0.0 
0.0 0.0 -1.386230697707e+02 
-1.086059078607e+02 -1.872951755109e+00 0.0 
-1.872951755109e+00 -2.584390542075e+02 0.0 
0.0 0.0 -1.068344452554e+02 
-5.591765067785e+01 4.086360849668e+00 0.0 
4.086360849668e+00 -1.886373565610e+02 0.0 
0.0 0.0 -7.173826773809e+01 
-1.120261560110e+02 -1.221617162395e+00 0.0 
-1.221617162395e+00 -2.665913162603e+02 0.0 
0.0 0.0 -1.106615205949e+02 
-4.811590798528e+01 2.753567801763e+01 0.0 
2.753567801763e+01 -3.761468340522e+01 0.0 
0.0 0.0 -2.102277297828e+01 
-9.031636185681e+01 2.422727706802e+01 0.0 
2.422727706802e+01 -1.609498722042e+02 0.0 
0.0 0.0 -7.497987021831e+01 
-1.152790656515e+02 -6.718519740314e-01 0.0 
-6.718519740314e-01 -2.747800698839e+02 0.0 
0.0 0.0 -1.144629509233e+02 
-9.180639189844e+01 3.170516097164e+01 0.0 
3.170516097164e+01 -2.152964158428e+02 0.0 
0.0 0.0 -9.173084232238e+01 
-1.728525326148e+01 -2.012835643824e+00 0.0 
-2.012835643824e+00 -5.286660289629e+01 0.0 
0.0 0.0 -1.891964178671e+01 
-8.549132937902e+01 2.719007890775e+01 0.0 
2.719007890775e+01 -2.377362138525e+02 0.0 
0.0 0.0 -9.679005065041e+01 
-1.406617802781e+02 7.604789490999e-01 0.0 
7.604789490999e-01 -3.420048674337e+02 0.0 
0.0 0.0 -1.443999943135e+02 
-6.877259721633e+01 -1.330316840210e+01 0.0 
-1.330316840210e+01 -1.713687495328e+02 0.0 
0.0 0.0 -6.995158637501e+01 
-8.672601497195e+01 1.597929073714e+00 0.0 
1.597929073714e+00 -2.528063065276e+02 0.0 
0.0 0.0 -1.048951903824e+02 
-9.652944394133e+01 2.532189433099e+01 0.0 
2.532189433099e+01 -1.831795782108e+02 0.0 
0.0 0.0 -8.351270664565e+01 
-4.310346864342e+01 2.833019238504e+01 0.0 
2.833019238504e+01 -3.828596941367e+01 0.0 
0.0 0.0 -1.915805732175e+01 
-9.350337526820e+01 4.500960937159e+00 0.0 
4.500960937159e+00 -2.704756953578e+02 0.0 
0.0 0.0 -1.114376274171e+02 
-9.963924304162e+01 3.176733743996e+01 0.0 
3.176733743996e+01 -2.345141638320e+02 0.0 
0.0 0.0 -9.984602206208e+01 
-8.929349973486e+01 2.555175272676e+01 0.0 
2.555175272676e+01 -2.512398970045e+02 0.0 
0.0 0.0 -1.020798130993e+02 
-7.372160760370e+01 2.238228125157e+01 0.0 
2.238228125157e+01 -2.259401347610e+02 0.0 
0.0 0.0 -9.283984591495e+01 
-1.020417353930e+02 6.638225581546e+00 0.0 
6.638225581546e+00 -2.884376125271e+02 0.0 
0.0 0.0 -1.176125046655e+02 
-4.691683492900e+01 3.095454893379e+01 0.0 
3.095454893379e+01 -5.974846049185e+01 0.0 
0.0 0.0 -2.737049005985e+01 
-5.485173466828e+01 -1.320497475097e+01 0.0 
-1.320497475097e+01 -1.239841005835e+02 0.0 
0.0 0.0 -5.009076287806e+01 
-4.698217287659e+01 -1.248608577358e+01 0.0 
-1.248608577358e+01 -1.029310931377e+02 0.0 
0.0 0.0 -4.138261967582e+01 
-5.951708733505e+01 4.162791729808e-01 0.0 
4.162791729808e-01 -1.961958337007e+02 0.0 
0.0 0.0 -7.624953451001e+01 
-1.036735340857e+02 3.196987245217e+01 0.0 
3.196987245217e+01 -2.377030817882e+02 0.0 
0.0 0.0 -1.020129847622e+02 
-1.833167502522e+01 -1.156454996925e+00 0.0 
-1.156454996925e+00 -6.707608410417e+01 0.0 
0.0 0.0 -2.447628371804e+01 
-9.697571191824e+01 2.856800513450e+01 0.0 
2.856800513450e+01 -1.933805012477e+02 0.0 
0.0 0.0 -8.670686394979e+01 
-3.873400550579e+01 -1.049438373988e+01 0.0 
-1.049438373988e+01 -7.474311285117e+01 0.0 
0.0 0.0 -2.988638497382e+01 
-5.859966699271e+01 -4.464105858994e+00 0.0 
-4.464105858994e+00 -1.884823870514e+02 0.0 
0.0 0.0 -7.339191330270e+01 
-1.046662886726e+02 2.493098455972e+01 0.0 
2.493098455972e+01 -2.827466463955e+02 0.0 
0.0 0.0 -1.158238805204e+02 
-6.315269180535e+01 5.691641608956e-01 0.0 
5.691641608956e-01 -1.102380211865e+02 0.0 
0.0 0.0 -5.161721389754e+01 
-6.273478266505e+01 -6.848034823886e+00 0.0 
-6.848034823886e+00 -1.943471948651e+02 0.0 
0.0 0.0 -7.775815305109e+01 
-4.846796228658e+01 -1.007725924092e+00 0.0 
-1.007725924092e+00 -1.120941222964e+02 0.0 
0.0 0.0 -4.457410185109e+01 
-6.196655604157e+01 -1.066604223007e+01 0.0 
-1.066604223007e+01 -1.843456318936e+02 0.0 
0.0 0.0 -7.400773692632e+01 
-8.025981896646e+01 2.218580089796e+01 0.0 
2.218580089796e+01 -2.427561383518e+02 0.0 
0.0 0.0 -9.914677090179e+01 
-6.635362233147e+01 -1.157787833146e+01 0.0 
-1.157787833146e+01 -1.901750050193e+02 0.0 
0.0 0.0 -7.718912748578e+01 
-6.532774637907e+01 -1.384863083290e+01 0.0 
-1.384863083290e+01 -1.780452874530e+02 0.0 
0.0 0.0 -7.232231576036e+01 
-9.518281436791e+01 6.401115451842e+00 0.0 
6.401115451842e+00 -2.069641642946e+02 0.0 
0.0 0.0 -9.024409359876e+01 
-7.063790066880e+01 -1.249430842904e+01 0.0 
-1.249430842904e+01 -1.840660149179e+02 0.0 
0.0 0.0 -7.523201664772e+01 
-9.927300577523e+01 1.904951418158e+00 0.0 
1.904951418158e+00 -2.254878878437e+02 0.0 
0.0 0.0 -9.702826808568e+01 
-1.618264525608e+02 1.041199890244e+00 0.0 
1.041199890244e+00 -3.830646139627e+02 0.0 
0.0 0.0 -1.630673199571e+02 
-4.810382064872e+01 2.999079947484e-01 0.0 
2.999079947484e-01 -7.091738960319e+01 0.0 
0.0 0.0 -3.530636307557e+01 
-4.160102811077e+01 2.904785860273e+01 0.0 
2.904785860273e+01 -3.509653735202e+01 0.0 
0.0 0.0 -1.908120108418e+01 
-7.938638242854e+01 2.293560873759e+00 0.0 
2.293560873759e+00 -1.111759713793e+02 0.0 
0.0 0.0 -5.804845470553e+01 
-4.525965441349e+01 3.148804493992e+01 0.0 
3.148804493992e+01 -6.168309612838e+01 0.0 
0.0 0.0 -2.901975608643e+01 
-6.205338739799e+01 -1.529378479170e+01 0.0 
-1.529378479170e+01 -1.515903032288e+02 0.0 
0.0 0.0 -6.172527635611e+01 
-9.656464801954e+01 3.076016330409e+01 0.0 
3.076016330409e+01 -2.050314387346e+02 0.0 
0.0 0.0 -9.007882602625e+01 
-4.859101858941e+01 3.119333051921e-01 0.0 
3.119333051921e-01 -7.163922656868e+01 0.0 
0.0 0.0 -3.566907354743e+01 
-5.913658579828e+01 -1.465908586348e+01 0.0 
-1.465908586348e+01 -1.378583746717e+02 0.0 
0.0 0.0 -5.604061626244e+01 
-1.159579955585e+02 3.238023606271e+01 0.0 
3.238023606271e+01 -2.589047686387e+02 0.0 
0.0 0.0 -1.120588292592e+02 
-1.390664276193e+02 3.345748277421e+01 0.0 
3.345748277421e+01 -3.322939091746e+02 0.0 
0.0 0.0 -1.410081010382e+02 
-7.344514441643e+01 1.215538672735e+00 0.0 
1.215538672735e+00 -1.392937834141e+02 0.0 
0.0 0.0 -6.342167834917e+01 
-1.234711745590e+02 1.885414287029e+01 0.0 
1.885414287029e+01 -3.243248615491e+02 0.0 
0.0 0.0 -1.339388108324e+02 
-9.421998170265e+01 2.417258007103e+01 0.0 
2.417258007103e+01 -2.647134514656e+02 0.0 
0.0 0.0 -1.075073721115e+02 
-8.829806795425e+01 9.788810887640e-01 0.0 
9.788810887640e-01 -1.874532250185e+02 0.0 
0.0 0.0 -8.232538789182e+01 
-4.294976424185e+01 8.366626471236e-01 0.0 
8.366626471236e-01 -5.451965113174e+01 0.0 
0.0 0.0 -2.884082461208e+01 
-2.252212588495e+01 -4.185624825386e+00 0.0 
-4.185624825386e+00 -3.432455837400e+01 0.0 
0.0 0.0 -1.477129292876e+01 
-1.215494514913e+02 -6.288528881594e-02 0.0 
-6.288528881594e-02 -2.932435316924e+02 0.0 
0.0 0.0 -1.227727597129e+02 
-4.286737127610e+01 2.974729316830e+01 0.0 
2.974729316830e+01 -3.472681072083e+01 0.0 
0.0 0.0 -2.011450512556e+01 
-4.489311928914e+01 3.132471934799e+01 0.0 
3.132471934799e+01 -5.753149303426e+01 0.0 
0.0 0.0 -2.752405830867e+01 
-4.561984403588e+01 3.226023268236e+01 0.0 
3.226023268236e+01 -5.941652527885e+01 0.0 
0.0 0.0 -2.742243945359e+01 
-6.465407112542e+01 -3.300991152789e+00 0.0 
-3.300991152789e+00 -1.400173544361e+02 0.0 
0.0 0.0 -5.610491779912e+01 
-4.186943744041e+01 -1.642282290293e+01 0.0 
-1.642282290293e+01 -6.115992998920e+01 0.0 
0.0 0.0 -2.446888888542e+01 
-4.464325434414e+01 3.045758836450e+01 0.0 
3.045758836450e+01 -3.851835082926e+01 0.0 
0.0 0.0 -2.152648996937e+01 
-1.389351038257e+02 2.227838595785e+01 0.0 
2.227838595785e+01 -3.463783759789e+02 0.0 
0.0 0.0 -1.451940439414e+02 
-5.417400601598e+01 2.912591737072e+00 0.0 
2.912591737072e+00 -7.296178345267e+01 0.0 
0.0 0.0 -3.774073684060e+01 
-1.091036302599e+02 2.682663592583e+01 0.0 
2.682663592583e+01 -2.868501720522e+02 0.0 
0.0 0.0 -1.183861406936e+02 
-4.598723759996e+01 3.167355922538e+01 0.0 
3.167355922538e+01 -4.004028210526e+01 0.0 
0.0 0.0 -2.182897173877e+01 
-1.020203748670e+02 1.680293514833e+01 0.0 
1.680293514833e+01 -2.167939038588e+02 0.0 
0.0 0.0 -9.524428361773e+01 
-1.317036152099e+02 2.957879280745e+01 0.0 
2.957879280745e+01 -3.250006857079e+02 0.0 
0.0 0.0 -1.366112902753e+02 
-1.610327908333e+02 7.168833832369e+00 0.0 
7.168833832369e+00 -3.839282198114e+02 0.0 
0.0 0.0 -1.630883031934e+02 
-1.197732826716e+02 2.794964013332e+01 0.0 
2.794964013332e+01 -3.052251585935e+02 0.0 
0.0 0.0 -1.270995323795e+02 
-4.603972195525e+01 3.411259629815e+01 0.0 
3.411259629815e+01 -6.342511228662e+01 0.0 
0.0 0.0 -2.843583527779e+01 
-6.810980276860e+01 9.009187521694e+00 0.0 
9.009187521694e+00 -9.388045724251e+01 0.0 
0.0 0.0 -4.819707800333e+01 
-1.231451592553e+02 3.446244463083e+01 0.0 
3.446244463083e+01 -2.908179815713e+02 0.0 
0.0 0.0 -1.237889422480e+02 
-7.928590020783e+01 2.022864322662e+00 0.0 
2.022864322662e+00 -1.554183149858e+02 0.0 
0.0 0.0 -7.001126455810e+01 
-1.625695654502e+02 4.988754866518e+00 0.0 
4.988754866518e+00 -3.857042901720e+02 0.0 
0.0 0.0 -1.640821566867e+02 
-5.618019421177e+01 4.208069948515e+00 0.0 
4.208069948515e+00 -7.149498102943e+01 0.0 
0.0 0.0 -3.790255257236e+01 
-9.489934802410e+01 4.084000901754e+00 0.0 
4.084000901754e+00 -2.089078167804e+02 0.0 
0.0 0.0 -9.074214944136e+01 
-3.832760791514e+01 -1.579452676613e+01 0.0 
-1.579452676613e+01 -1.206743731090e+02 0.0 
0.0 0.0 -4.465357238376e+01 
-9.447823506940e+01 2.037059748474e+00 0.0 
2.037059748474e+00 -2.087718735720e+02 0.0 
0.0 0.0 -9.057503259242e+01 
-1.035254166811e+02 3.126634888244e+01 0.0 
3.126634888244e+01 -2.256223019003e+02 0.0 
0.0 0.0 -9.834431557442e+01 
-5.908024766898e+01 1.309059921181e+00 0.0 
1.309059921181e+00 -9.592430551093e+01 0.0 
0.0 0.0 -4.610136595397e+01 
-7.181070669613e+01 1.328688818222e+01 0.0 
1.328688818222e+01 -9.782678768739e+01 0.0 
0.0 0.0 -5.049124831506e+01 
-1.553508047516e+02 1.518648189022e+00 0.0 
1.518648189022e+00 -3.707306301339e+02 0.0 
0.0 0.0 -1.574244304656e+02 
-1.120772889022e+02 2.933268187933e+01 0.0 
2.933268187933e+01 -2.442334383528e+02 0.0 
0.0 0.0 -1.064932181765e+02 
-4.542061018422e+01 3.561358374688e+01 0.0 
3.561358374688e+01 -7.060772493123e+01 0.0 
0.0 0.0 -3.249343480949e+01 
-7.367195238212e+01 1.564622109330e+00 0.0 
1.564622109330e+00 -1.382734710468e+02 0.0 
0.0 0.0 -6.318362702867e+01 
-8.125779006855e+01 -4.123830212805e+00 0.0 
-4.123830212805e+00 -1.759229306369e+02 0.0 
0.0 0.0 -7.116600098193e+01 
-4.286824732022e+01 -2.040521876743e+01 0.0 
-2.040521876743e+01 -1.047937079943e+02 0.0 
0.0 0.0 -4.563550182451e+01 
-1.500301224167e+02 8.679786990679e+00 0.0 
8.679786990679e+00 -3.670286265682e+02 0.0 
0.0 0.0 -1.547176246955e+02 
-1.099470673787e+02 3.200844843387e+01 0.0 
3.200844843387e+01 -2.449543800260e+02 0.0 
0.0 0.0 -1.060704342214e+02 
-1.541786114231e+02 2.509414659795e+00 0.0 
2.509414659795e+00 -3.695711363663e+02 0.0 
0.0 0.0 -1.567249243368e+02 
-1.270168975599e+01 -3.102508694857e-01 0.0 
-3.102508694857e-01 -4.972993433096e+01 0.0 
0.0 0.0 -1.664954572116e+01 
-1.531519799753e+01 -1.488364791335e+00 0.0 
-1.488364791335e+00 -3.124892554418e+01 0.0 
0.0 0.0 -1.247367793869e+01 
-1.496601941497e+02 1.178168200205e+01 0.0 
1.178168200205e+01 -3.673433413902e+02 0.0 
0.0 0.0 -1.547010606620e+02 
-1.200994756496e+02 3.422001796290e+01 0.0 
3.422001796290e+01 -2.756223255250e+02 0.0 
0.0 0.0 -1.183165403524e+02 
-4.349486508276e+01 -1.863697384467e+01 0.0 
-1.863697384467e+01 -1.185579005294e+02 0.0 
0.0 0.0 -4.307606788480e+01 
-1.041416948599e+02 1.452887115419e+01 0.0 
1.452887115419e+01 -2.349969005017e+02 0.0 
0.0 0.0 -1.013415786085e+02 
-4.737756364478e+01 3.808182528568e+01 0.0 
3.808182528568e+01 -7.673932230532e+01 0.0 
0.0 0.0 -3.816569841022e+01 
-4.335043947714e+01 8.607664320058e-01 0.0 
8.607664320058e-01 -5.252455806005e+01 0.0 
0.0 0.0 -2.836249926116e+01 
-1.273202022410e+01 -8.691092786425e-01 0.0 
-8.691092786425e-01 -3.227650988743e+01 0.0 
0.0 0.0 -1.127222158240e+01 
-1.627817041277e+02 4.008535510737e+00 0.0 
4.008535510737e+00 -3.855892241489e+02 0.0 
0.0 0.0 -1.641112784830e+02 
-9.816370344102e+01 1.040678326122e+01 0.0 
1.040678326122e+01 -2.128365193103e+02 0.0 
0.0 0.0 -9.290006682541e+01 
-8.911787695868e+01 -2.697386616689e+00 0.0 
-2.697386616689e+00 -1.931441011177e+02 0.0 
0.0 0.0 -7.926869421177e+01 
-5.773005060567e+01 9.000570898968e+00 0.0 
9.000570898968e+00 -6.303523718891e+01 0.0 
0.0 0.0 -3.576754148331e+01 
-5.681882545664e+01 -2.173269601743e+00 0.0 
-2.173269601743e+00 -1.262715377573e+02 0.0 
0.0 0.0 -5.054065879958e+01 
-1.204979310217e+02 3.162792242696e+01 0.0 
3.162792242696e+01 -2.964893466532e+02 0.0 
0.0 0.0 -1.246961833025e+02 
-3.204213494019e+01 -8.230946164637e+00 0.0 
-8.230946164637e+00 -4.978620068370e+01 0.0 
0.0 0.0 -2.042292130169e+01 
-9.721687344039e+01 7.741321737554e+00 0.0 
7.741321737554e+00 -2.132700359643e+02 0.0 
0.0 0.0 -9.274607282141e+01 
-1.477781071772e+02 1.530527961161e+01 0.0 
1.530527961161e+01 -3.641853299989e+02 0.0 
0.0 0.0 -1.531890311528e+02 
-1.073196452065e+02 2.280438777732e+01 0.0 
2.280438777732e+01 -2.306736433232e+02 0.0 
0.0 0.0 -1.009979865589e+02 
-1.494860202684e+02 2.734517568023e+01 0.0 
2.734517568023e+01 -3.582258211080e+02 0.0 
0.0 0.0 -1.519135524129e+02 
-5.008526079137e+01 1.234813885316e+01 0.0 
1.234813885316e+01 -1.150201287542e+02 0.0 
0.0 0.0 -5.106289321696e+01 
-1.328508858527e+02 3.144298989211e+01 0.0 
3.144298989211e+01 -3.240130287169e+02 0.0 
0.0 0.0 -1.366591743709e+02 
-1.347805865601e+02 1.680174745663e+01 0.0 
1.680174745663e+01 -3.439597009454e+02 0.0 
0.0 0.0 -1.432220862517e+02 
-4.215889254620e+01 2.156876852765e-01 0.0 
2.156876852765e-01 -5.428054231700e+01 0.0 
0.0 0.0 -2.853183045896e+01 
-1.096632739324e+02 2.618020296367e+01 0.0 
2.618020296367e+01 -2.364425531248e+02 0.0 
0.0 0.0 -1.034317481172e+02 
-7.305090402225e+01 -3.179809886627e+00 0.0 
-3.179809886627e+00 -1.564952663184e+02 0.0 
0.0 0.0 -6.335504178800e+01 
-2.115146776422e+01 -2.804884841149e+00 0.0 
-2.804884841149e+00 -6.635567625759e+01 0.0 
0.0 0.0 -2.425744553837e+01 
-9.961794603712e+01 1.039032551068e+00 0.0 
1.039032551068e+00 -2.274681027589e+02 0.0 
0.0 0.0 -9.772581463882e+01 
-8.810790111827e+00 -7.799904763505e-02 0.0 
-7.799904763505e-02 -1.413445069209e+01 0.0 
0.0 0.0 -5.047371262228e+00 
-4.089003362527e+01 1.363630700215e-01 0.0 
1.363630700215e-01 -5.322355857065e+01 0.0 
0.0 0.0 -2.783407765878e+01 
-1.640757472840e+02 3.045969927150e-01 0.0 
3.045969927150e-01 -3.871892668685e+02 0.0 
0.0 0.0 -1.649795042457e+02 
-1.696730091022e+01 -1.542176060427e+00 0.0 
-1.542176060427e+00 -6.318325819002e+01 0.0 
0.0 0.0 -2.282511316569e+01 
-5.395970665967e+01 5.238068703886e-01 0.0 
5.238068703886e-01 -8.536313107928e+01 0.0 
0.0 0.0 -4.139685132169e+01 
-1.186779844893e+02 3.367122205509e+01 0.0 
3.367122205509e+01 -2.691490355083e+02 0.0 
0.0 0.0 -1.159481059993e+02 
-1.048898286228e+02 -5.142541157602e-01 0.0 
-5.142541157602e-01 -2.366107914291e+02 0.0 
0.0 0.0 -9.824331186693e+01 
-8.490738820821e+01 1.756905043676e+00 0.0 
1.756905043676e+00 -1.757511093796e+02 0.0 
0.0 0.0 -7.779754927635e+01 
-4.627786889055e+01 -2.081318539564e+01 0.0 
-2.081318539564e+01 -8.224863257788e+01 0.0 
0.0 0.0 -3.198527984861e+01 
-8.268930644203e+01 -6.980310268159e+00 0.0 
-6.980310268159e+00 -1.073275194231e+02 0.0 
0.0 0.0 -5.775057067724e+01 
-6.704833643060e+01 9.649346638289e-01 0.0 
9.649346638289e-01 -1.207007042664e+02 0.0 
0.0 0.0 -5.592471220909e+01 
-1.354258870500e+02 2.838312715067e+01 0.0 
2.838312715067e+01 -3.336703217328e+02 0.0 
0.0 0.0 -1.403288626348e+02 
-1.044814618240e+02 1.890982060719e+01 0.0 
1.890982060719e+01 -2.249060027627e+02 0.0 
0.0 0.0 -9.841623937599e+01 
-6.288948336734e+01 1.282158740605e+00 0.0 
1.282158740605e+00 -1.068696017916e+02 0.0 
0.0 0.0 -5.052772554767e+01 
-4.075996568360e+01 3.048260588380e+01 0.0 
3.048260588380e+01 -9.058971617494e+01 0.0 
0.0 0.0 -3.717879255355e+01 
-1.154288819180e+02 3.303455603598e+01 0.0 
3.303455603598e+01 -2.608320818573e+02 0.0 
0.0 0.0 -1.124782891326e+02 
-9.496097835177e+01 -2.322089829998e+00 0.0 
-2.322089829998e+00 -2.087675430855e+02 0.0 
0.0 0.0 -8.604952546441e+01 
-1.185818807044e+02 3.342937857696e+01 0.0 
3.342937857696e+01 -2.831831331064e+02 0.0 
0.0 0.0 -1.201295041432e+02 
-1.323394328827e+02 2.025646092646e+01 0.0 
2.025646092646e+01 -3.378189989758e+02 0.0 
0.0 0.0 -1.406475295576e+02 
-5.557701322378e+01 3.825649832823e+01 0.0 
3.825649832823e+01 -6.039889298030e+01 0.0 
0.0 0.0 -3.562725758692e+01 
-1.103599749359e+02 -3.699605899100e-01 0.0 
-3.699605899100e-01 -2.541357568588e+02 0.0 
0.0 0.0 -1.057746638653e+02 
-1.310918752120e+01 -7.136533357161e-01 0.0 
-7.136533357161e-01 -3.022507643231e+01 0.0 
0.0 0.0 -1.117280669594e+01 
-1.543421956466e+02 6.094078530587e+00 0.0 
6.094078530587e+00 -3.724612780660e+02 0.0 
0.0 0.0 -1.576410421138e+02 
-9.823259735117e+01 -1.504754929490e+00 0.0 
-1.504754929490e+00 -2.172879793740e+02 0.0 
0.0 0.0 -8.984225953354e+01 
-3.751867122502e+01 5.992847652689e+00 0.0 
5.992847652689e+00 -7.980544479389e+00 0.0 
0.0 0.0 -1.130391239282e+01 
-2.361666652216e+01 2.948724229196e-02 0.0 
2.948724229196e-02 -1.044393516024e+01 0.0 
0.0 0.0 -9.818180504721e+00 
-4.437857127768e+01 6.452355471388e+00 0.0 
6.452355471388e+00 -3.058507236159e+01 0.0 
0.0 0.0 -2.143138017566e+01 
-3.076135403934e+01 -1.704794892007e-01 0.0 
-1.704794892007e-01 -2.885326458901e+01 0.0 
0.0 0.0 -1.748438558851e+01 

TENSORS node_materi_strain_total float
2.611146290080e-03 -2.896845902173e-05 0.0 
-2.896845902173e-05 -9.905773321749e-04 0.0 
0.0 0.0 0.0 
-1.838547205026e-03 -1.633973900304e-05 0.0 
-1.633973900304e-05 1.275773803517e-02 0.0 
0.0 0.0 0.0 
-8.151074946622e-05 -3.632875032466e-05 0.0 
-3.632875032466e-05 6.034163380368e-03 0.0 
0.0 0.0 0.0 
-1.360479647607e-04 6.557850729660e-05 0.0 
6.557850729660e-05 1.559714117279e-02 0.0 
0.0 0.0 0.0 
2.057790314508e-03 -4.550112719959e-05 0.0 
-4.550112719959e-05 -5.838381125927e-04 0.0 
0.0 0.0 0.0 
1.423562207554e-03 -3.039990265585e-05 0.0 
-3.039990265585e-05 1.028427558574e-04 0.0 
0.0 0.0 0.0 
7.534549514674e-04 -5.497343838253e-05 0.0 
-5.497343838253e-05 7.461294841458e-04 0.0 
0.0 0.0 0.0 
1.615312225087e-04 -7.441747654283e-05 0.0 
-7.441747654283e-05 1.401713285363e-03 0.0 
0.0 0.0 0.0 
-3.555426435811e-04 -1.004821007455e-04 0.0 
-1.004821007455e-04 1.949496554477e-03 0.0 
0.0 0.0 0.0 
-7.250712141862e-04 -1.100108576043e-04 0.0 
-1.100108576043e-04 2.391894024650e-03 0.0 
0.0 0.0 0.0 
-9.821491556016e-04 -1.184907310178e-04 0.0 
-1.184907310178e-04 2.757619265899e-03 0.0 
0.0 0.0 0.0 
-1.137936128307e-03 -1.261674116328e-04 0.0 
-1.261674116328e-04 3.055956424303e-03 0.0 
0.0 0.0 0.0 
-1.203791066354e-03 -1.271543827379e-04 0.0 
-1.271543827379e-04 3.307704499959e-03 0.0 
0.0 0.0 0.0 
-1.207226348130e-03 -1.200624842618e-04 0.0 
-1.200624842618e-04 3.534261071515e-03 0.0 
0.0 0.0 0.0 
-1.161410055018e-03 -9.988371776010e-05 0.0 
-9.988371776010e-05 3.751050060653e-03 0.0 
0.0 0.0 0.0 
-1.090799470662e-03 -6.852404076735e-05 0.0 
-6.852404076735e-05 3.974792375331e-03 0.0 
0.0 0.0 0.0 
-1.001267438833e-03 -7.025618200821e-05 0.0 
-7.025618200821e-05 4.197879287700e-03 0.0 
0.0 0.0 0.0 
-8.933827264874e-04 -7.768232724157e-05 0.0 
-7.768232724157e-05 4.433976095596e-03 0.0 
0.0 0.0 0.0 
-7.794716827536e-04 -6.336028633613e-05 0.0 
-6.336028633613e-05 4.707721815265e-03 0.0 
0.0 0.0 0.0 
-6.616084793115e-04 -5.134276136124e-05 0.0 
-5.134276136124e-05 4.991332200509e-03 0.0 
0.0 0.0 0.0 
-5.336804997505e-04 -4.078519737109e-05 0.0 
-4.078519737109e-05 5.288340636147e-03 0.0 
0.0 0.0 0.0 
-3.888336655343e-04 -3.385460728690e-05 0.0 
-3.385460728690e-05 5.590529581976e-03 0.0 
0.0 0.0 0.0 
-2.308734703119e-04 -2.853893428082e-05 0.0 
-2.853893428082e-05 5.870603829967e-03 0.0 
0.0 0.0 0.0 
-9.960752992622e-05 2.079786699914e-04 0.0 
2.079786699914e-04 1.558904486580e-02 0.0 
0.0 0.0 0.0 
-1.070755989206e-04 3.805997405760e-04 0.0 
3.805997405760e-04 1.556125051762e-02 0.0 
0.0 0.0 0.0 
-1.076979221855e-04 5.562693743709e-04 0.0 
5.562693743709e-04 1.554749111220e-02 0.0 
0.0 0.0 0.0 
-1.042056159919e-04 7.634578881505e-04 0.0 
7.634578881505e-04 1.550945028387e-02 0.0 
0.0 0.0 0.0 
-1.301314514032e-04 9.492973260459e-04 0.0 
9.492973260459e-04 1.546172912879e-02 0.0 
0.0 0.0 0.0 
-1.204573691423e-04 1.171064483189e-03 0.0 
1.171064483189e-03 1.541149118217e-02 0.0 
0.0 0.0 0.0 
-1.377298857388e-04 1.405941167498e-03 0.0 
1.405941167498e-03 1.532830348730e-02 0.0 
0.0 0.0 0.0 
-1.392797110665e-04 1.657495615786e-03 0.0 
1.657495615786e-03 1.521731762042e-02 0.0 
0.0 0.0 0.0 
-1.454188194139e-04 1.905137536624e-03 0.0 
1.905137536624e-03 1.509970831780e-02 0.0 
0.0 0.0 0.0 
-1.323684064388e-04 2.182595195230e-03 0.0 
2.182595195230e-03 1.493894522033e-02 0.0 
0.0 0.0 0.0 
-1.713611371672e-04 2.447188267288e-03 0.0 
2.447188267288e-03 1.475880284410e-02 0.0 
0.0 0.0 0.0 
-1.564447190663e-04 2.748856196486e-03 0.0 
2.748856196486e-03 1.453907299404e-02 0.0 
0.0 0.0 0.0 
-1.686139193173e-04 3.055393992596e-03 0.0 
3.055393992596e-03 1.426283972709e-02 0.0 
0.0 0.0 0.0 
-1.535042275647e-04 3.350659022370e-03 0.0 
3.350659022370e-03 1.395144054347e-02 0.0 
0.0 0.0 0.0 
-1.685195498981e-04 3.638683439459e-03 0.0 
3.638683439459e-03 1.360089205754e-02 0.0 
0.0 0.0 0.0 
-1.492047783773e-04 3.908916400788e-03 0.0 
3.908916400788e-03 1.318579559836e-02 0.0 
0.0 0.0 0.0 
-1.533207586895e-04 4.168703166382e-03 0.0 
4.168703166382e-03 1.272862852570e-02 0.0 
0.0 0.0 0.0 
-1.371054331743e-04 4.419247067544e-03 0.0 
4.419247067544e-03 1.221190880106e-02 0.0 
0.0 0.0 0.0 
-1.059783493652e-04 4.620815712118e-03 0.0 
4.620815712118e-03 1.167014321796e-02 0.0 
0.0 0.0 0.0 
-7.067250502975e-05 4.780359368582e-03 0.0 
4.780359368582e-03 1.109696114156e-02 0.0 
0.0 0.0 0.0 
-3.052599914525e-05 4.883404588831e-03 0.0 
4.883404588831e-03 1.048417781079e-02 0.0 
0.0 0.0 0.0 
-1.236931336657e-05 4.927863753659e-03 0.0 
4.927863753659e-03 9.865132551297e-03 0.0 
0.0 0.0 0.0 
2.613145700773e-05 4.914654296176e-03 0.0 
4.914654296176e-03 9.233004802773e-03 0.0 
0.0 0.0 0.0 
5.829718763965e-05 4.835722050088e-03 0.0 
4.835722050088e-03 8.610045942632e-03 0.0 
0.0 0.0 0.0 
8.554597327759e-05 4.701710722384e-03 0.0 
4.701710722384e-03 8.013748280786e-03 0.0 
0.0 0.0 0.0 
1.197777919679e-04 4.516910851576e-03 0.0 
4.516910851576e-03 7.443625416209e-03 0.0 
0.0 0.0 0.0 
1.325525016044e-04 4.271281712892e-03 0.0 
4.271281712892e-03 6.906400184743e-03 0.0 
0.0 0.0 0.0 
1.750093971629e-04 3.979191591800e-03 0.0 
3.979191591800e-03 6.417964424112e-03 0.0 
0.0 0.0 0.0 
1.816836887341e-04 3.641433723388e-03 0.0 
3.641433723388e-03 5.973694340662e-03 0.0 
0.0 0.0 0.0 
1.727655821139e-04 3.288300407961e-03 0.0 
3.288300407961e-03 5.624375127557e-03 0.0 
0.0 0.0 0.0 
1.981370441467e-04 2.910356837678e-03 0.0 
2.910356837678e-03 5.268472469644e-03 0.0 
0.0 0.0 0.0 
2.332719937224e-04 2.516472145077e-03 0.0 
2.516472145077e-03 4.947623869551e-03 0.0 
0.0 0.0 0.0 
2.286191730270e-04 2.077589000553e-03 0.0 
2.077589000553e-03 4.719486217472e-03 0.0 
0.0 0.0 0.0 
2.203455540699e-04 1.675349721750e-03 0.0 
1.675349721750e-03 4.600979488968e-03 0.0 
0.0 0.0 0.0 
2.148308819211e-04 1.288581451454e-03 0.0 
1.288581451454e-03 4.513696682313e-03 0.0 
0.0 0.0 0.0 
1.738952777675e-04 9.176921827148e-04 0.0 
9.176921827148e-04 4.494901727701e-03 0.0 
0.0 0.0 0.0 
1.803312959894e-04 5.949228550781e-04 0.0 
5.949228550781e-04 4.536163940681e-03 0.0 
0.0 0.0 0.0 
1.391042214615e-04 2.984485785965e-04 0.0 
2.984485785965e-04 4.599540031228e-03 0.0 
0.0 0.0 0.0 
1.370542706046e-04 5.589695315212e-05 0.0 
5.589695315212e-05 4.703909483387e-03 0.0 
0.0 0.0 0.0 
9.625508849280e-05 -1.450189732630e-04 0.0 
-1.450189732630e-04 4.837839527805e-03 0.0 
0.0 0.0 0.0 
6.844803143953e-05 -2.915429451710e-04 0.0 
-2.915429451710e-04 5.011215289612e-03 0.0 
0.0 0.0 0.0 
4.244095363459e-05 -3.879971157777e-04 0.0 
-3.879971157777e-04 5.213403855504e-03 0.0 
0.0 0.0 0.0 
2.216971399009e-05 -4.436431308970e-04 0.0 
-4.436431308970e-04 5.374040454237e-03 0.0 
0.0 0.0 0.0 
-3.635586285328e-06 -4.575369331374e-04 0.0 
-4.575369331374e-04 5.487605776143e-03 0.0 
0.0 0.0 0.0 
-1.785848608216e-05 -4.346082766881e-04 0.0 
-4.346082766881e-04 5.685774401947e-03 0.0 
0.0 0.0 0.0 
-3.847377986114e-05 -3.864646987692e-04 0.0 
-3.864646987692e-04 5.787195831277e-03 0.0 
0.0 0.0 0.0 
-4.240371177244e-05 -3.226733561493e-04 0.0 
-3.226733561493e-04 5.893672930970e-03 0.0 
0.0 0.0 0.0 
-5.123191030724e-05 -2.207884346864e-04 0.0 
-2.207884346864e-04 5.981827386222e-03 0.0 
0.0 0.0 0.0 
-5.882395034259e-05 -1.290768133165e-04 0.0 
-1.290768133165e-04 6.024312109874e-03 0.0 
0.0 0.0 0.0 
-1.811506036319e-03 -5.846953071764e-06 0.0 
-5.846953071764e-06 1.317296017149e-02 0.0 
0.0 0.0 0.0 
-1.768627039023e-03 -6.202337139669e-07 0.0 
-6.202337139669e-07 1.356548007588e-02 0.0 
0.0 0.0 0.0 
-1.688096865959e-03 5.406242352814e-06 0.0 
5.406242352814e-06 1.392758588141e-02 0.0 
0.0 0.0 0.0 
-1.570032576840e-03 1.287677408337e-05 0.0 
1.287677408337e-05 1.425580933883e-02 0.0 
0.0 0.0 0.0 
-1.412048148529e-03 2.155638499596e-05 0.0 
2.155638499596e-05 1.456058834393e-02 0.0 
0.0 0.0 0.0 
-1.215153462864e-03 2.976327190063e-05 0.0 
2.976327190063e-05 1.483566374991e-02 0.0 
0.0 0.0 0.0 
-9.785329899813e-04 3.597856724666e-05 0.0 
3.597856724666e-05 1.507920903683e-02 0.0 
0.0 0.0 0.0 
-6.922389907068e-04 4.676151779735e-05 0.0 
4.676151779735e-05 1.529550552180e-02 0.0 
0.0 0.0 0.0 
-3.988100126998e-04 5.021675008888e-05 0.0 
5.021675008888e-05 1.548525007825e-02 0.0 
0.0 0.0 0.0 
-2.311488560365e-03 3.058345474144e-03 0.0 
3.058345474144e-03 -2.045326651863e-03 0.0 
0.0 0.0 0.0 
-2.921478727946e-03 1.246022552708e-03 0.0 
1.246022552708e-03 1.257544957042e-02 0.0 
0.0 0.0 0.0 
-2.090234477452e-03 3.770726306213e-03 0.0 
3.770726306213e-03 9.064767316491e-04 0.0 
0.0 0.0 0.0 
-1.663567507067e-03 3.552364898389e-03 0.0 
3.552364898389e-03 2.112426577263e-03 0.0 
0.0 0.0 0.0 
-1.600930643439e-03 3.540822840889e-03 0.0 
3.540822840889e-03 3.286051232079e-03 0.0 
0.0 0.0 0.0 
-1.635042042399e-03 3.418193042620e-03 0.0 
3.418193042620e-03 4.485825471637e-03 0.0 
0.0 0.0 0.0 
-1.688549933009e-03 3.311471866059e-03 0.0 
3.311471866059e-03 5.802447480387e-03 0.0 
0.0 0.0 0.0 
-1.821299843156e-03 3.208899089150e-03 0.0 
3.208899089150e-03 7.317990147069e-03 0.0 
0.0 0.0 0.0 
-2.218711029027e-03 3.142609518862e-03 0.0 
3.142609518862e-03 8.993166593270e-03 0.0 
0.0 0.0 0.0 
-3.236659091773e-03 2.396012696850e-03 0.0 
2.396012696850e-03 1.113275027656e-02 0.0 
0.0 0.0 0.0 
-2.958594419831e-03 1.460327424725e-03 0.0 
1.460327424725e-03 1.206318755643e-02 0.0 
0.0 0.0 0.0 
-1.836550679458e-03 -2.954803618720e-05 0.0 
-2.954803618720e-05 1.205288453768e-02 0.0 
0.0 0.0 0.0 
-1.833228828147e-03 -2.192545189780e-05 0.0 
-2.192545189780e-05 1.231494668798e-02 0.0 
0.0 0.0 0.0 
-1.836229270432e-03 1.199806595212e-05 0.0 
1.199806595212e-05 1.270240200127e-02 0.0 
0.0 0.0 0.0 
-1.844435405558e-03 1.270965662633e-05 0.0 
1.270965662633e-05 1.273269875222e-02 0.0 
0.0 0.0 0.0 
-1.863989141509e-03 2.049409607492e-05 0.0 
2.049409607492e-05 1.273730621345e-02 0.0 
0.0 0.0 0.0 
-1.890984306902e-03 2.754494577430e-05 0.0 
2.754494577430e-05 1.273424390022e-02 0.0 
0.0 0.0 0.0 
-1.923835689437e-03 5.286677647107e-05 0.0 
5.286677647107e-05 1.279429730629e-02 0.0 
0.0 0.0 0.0 
-1.964120615580e-03 6.089200618392e-05 0.0 
6.089200618392e-05 1.275000006644e-02 0.0 
0.0 0.0 0.0 
-2.017231289901e-03 8.332444461844e-05 0.0 
8.332444461844e-05 1.274880878864e-02 0.0 
0.0 0.0 0.0 
-2.070386294158e-03 1.189444352787e-04 0.0 
1.189444352787e-04 1.275320510569e-02 0.0 
0.0 0.0 0.0 
-2.153021474315e-03 1.693039488466e-04 0.0 
1.693039488466e-04 1.276752860820e-02 0.0 
0.0 0.0 0.0 
-2.241846383607e-03 2.377386521050e-04 0.0 
2.377386521050e-04 1.276291559511e-02 0.0 
0.0 0.0 0.0 
-2.338201791962e-03 3.337864182479e-04 0.0 
3.337864182479e-04 1.275204327300e-02 0.0 
0.0 0.0 0.0 
-2.450910739806e-03 4.621444917999e-04 0.0 
4.621444917999e-04 1.273393122963e-02 0.0 
0.0 0.0 0.0 
-2.574760241562e-03 6.420657392317e-04 0.0 
6.420657392317e-04 1.269783031376e-02 0.0 
0.0 0.0 0.0 
-2.713027833758e-03 8.866748321592e-04 0.0 
8.866748321592e-04 1.265079704156e-02 0.0 
0.0 0.0 0.0 
-3.219947942988e-03 1.369327136940e-03 0.0 
1.369327136940e-03 -3.026454427898e-03 0.0 
0.0 0.0 0.0 
-4.101570348181e-03 3.094386449627e-04 0.0 
3.094386449627e-04 -3.037332114910e-03 0.0 
0.0 0.0 0.0 
-4.524129261399e-03 -1.884494124485e-04 0.0 
-1.884494124485e-04 -2.872823476184e-03 0.0 
0.0 0.0 0.0 
-4.104834123824e-03 -8.931315907374e-04 0.0 
-8.931315907374e-04 -2.615656530080e-03 0.0 
0.0 0.0 0.0 
-2.911435539439e-03 -1.858954498754e-03 0.0 
-1.858954498754e-03 -1.182137864230e-03 0.0 
0.0 0.0 0.0 
-1.813047891176e-03 -1.401212293917e-03 0.0 
-1.401212293917e-03 2.246146167549e-04 0.0 
0.0 0.0 0.0 
-8.469786028080e-04 -4.494098311980e-04 0.0 
-4.494098311980e-04 2.914815397786e-04 0.0 
0.0 0.0 0.0 
-3.946149119500e-04 -1.623186646924e-04 0.0 
-1.623186646924e-04 2.602037141040e-04 0.0 
0.0 0.0 0.0 
-1.269838966536e-04 -1.117737445858e-04 0.0 
-1.117737445858e-04 2.112975060766e-04 0.0 
0.0 0.0 0.0 
2.027643419785e-04 -1.598182500994e-04 0.0 
-1.598182500994e-04 9.601215074032e-05 0.0 
0.0 0.0 0.0 
5.424712809175e-04 -1.726941370806e-04 0.0 
-1.726941370806e-04 -6.029851046248e-05 0.0 
0.0 0.0 0.0 
9.279286735716e-04 -1.922132492652e-04 0.0 
-1.922132492652e-04 -2.403436942255e-04 0.0 
0.0 0.0 0.0 
1.344885522808e-03 -1.810110902199e-04 0.0 
-1.810110902199e-04 -4.336538536236e-04 0.0 
0.0 0.0 0.0 
1.709167101068e-03 -1.711854732343e-04 0.0 
-1.711854732343e-04 -5.947806839903e-04 0.0 
0.0 0.0 0.0 
1.976745079790e-03 -1.362934403028e-04 0.0 
-1.362934403028e-04 -7.049196928121e-04 0.0 
0.0 0.0 0.0 
2.209204644082e-03 -1.033078853052e-04 0.0 
-1.033078853052e-04 -8.005791191632e-04 0.0 
0.0 0.0 0.0 
2.388245660064e-03 -8.136449440192e-05 0.0 
-8.136449440192e-05 -8.767796901055e-04 0.0 
0.0 0.0 0.0 
2.539853277837e-03 -4.948161149874e-05 0.0 
-4.948161149874e-05 -9.566230354249e-04 0.0 
0.0 0.0 0.0 
2.652740964935e-03 1.702132215647e-05 0.0 
1.702132215647e-05 -1.001347721316e-03 0.0 
0.0 0.0 0.0 
-1.831935173093e-03 1.235716714147e-05 0.0 
1.235716714147e-05 1.210618364996e-02 0.0 
0.0 0.0 0.0 
-1.801606537854e-03 -1.142255938325e-05 0.0 
-1.142255938325e-05 1.209660443383e-02 0.0 
0.0 0.0 0.0 
-1.812525419248e-03 -2.504071992367e-05 0.0 
-2.504071992367e-05 1.209394379077e-02 0.0 
0.0 0.0 0.0 
-1.824685801981e-03 -3.208195492288e-05 0.0 
-3.208195492288e-05 1.209390602783e-02 0.0 
0.0 0.0 0.0 
-1.836894331745e-03 -3.381386300076e-05 0.0 
-3.381386300076e-05 1.209293030601e-02 0.0 
0.0 0.0 0.0 
-1.852208473593e-03 -3.408289576141e-05 0.0 
-3.408289576141e-05 1.209175945043e-02 0.0 
0.0 0.0 0.0 
-1.867941815646e-03 -2.807763792627e-05 0.0 
-2.807763792627e-05 1.208854246038e-02 0.0 
0.0 0.0 0.0 
-1.889580326422e-03 -1.882983389627e-05 0.0 
-1.882983389627e-05 1.208345144892e-02 0.0 
0.0 0.0 0.0 
-1.912840315219e-03 -2.489720177093e-06 0.0 
-2.489720177093e-06 1.207334701373e-02 0.0 
0.0 0.0 0.0 
-1.940388214304e-03 2.430187345495e-05 0.0 
2.430187345495e-05 1.206274321311e-02 0.0 
0.0 0.0 0.0 
-1.967817763215e-03 6.368372534769e-05 0.0 
6.368372534769e-05 1.204599600325e-02 0.0 
0.0 0.0 0.0 
-2.008681908535e-03 1.234194511827e-04 0.0 
1.234194511827e-04 1.202498083241e-02 0.0 
0.0 0.0 0.0 
-2.070618917633e-03 2.115640576345e-04 0.0 
2.115640576345e-04 1.200161617823e-02 0.0 
0.0 0.0 0.0 
-2.149910919872e-03 3.351191004363e-04 0.0 
3.351191004363e-04 1.196252084039e-02 0.0 
0.0 0.0 0.0 
-2.232637675966e-03 5.375346787687e-04 0.0 
5.375346787687e-04 1.191322883410e-02 0.0 
0.0 0.0 0.0 
-2.459328263702e-03 8.356297552525e-04 0.0 
8.356297552525e-04 1.187152073499e-02 0.0 
0.0 0.0 0.0 
-3.005950814235e-03 1.146825075446e-03 0.0 
1.146825075446e-03 1.197819972017e-02 0.0 
0.0 0.0 0.0 
-2.661460843885e-03 9.036796272157e-04 0.0 
9.036796272157e-04 1.213510002955e-02 0.0 
0.0 0.0 0.0 
-2.537716153922e-03 6.885560428016e-04 0.0 
6.885560428016e-04 1.222014760001e-02 0.0 
0.0 0.0 0.0 
-2.385353094561e-03 4.459609249087e-04 0.0 
4.459609249087e-04 1.225974064537e-02 0.0 
0.0 0.0 0.0 
-2.273568100075e-03 3.050027659569e-04 0.0 
3.050027659569e-04 1.228441457774e-02 0.0 
0.0 0.0 0.0 
-2.186408799540e-03 2.046001931862e-04 0.0 
2.046001931862e-04 1.230183876825e-02 0.0 
0.0 0.0 0.0 
-2.116858874698e-03 1.332698823474e-04 0.0 
1.332698823474e-04 1.231283229048e-02 0.0 
0.0 0.0 0.0 
-2.058377849360e-03 8.177173936283e-05 0.0 
8.177173936283e-05 1.231861246109e-02 0.0 
0.0 0.0 0.0 
-2.004739036149e-03 4.597340193596e-05 0.0 
4.597340193596e-05 1.232203778441e-02 0.0 
0.0 0.0 0.0 
-1.958743917572e-03 2.417355208969e-05 0.0 
2.417355208969e-05 1.232386648431e-02 0.0 
0.0 0.0 0.0 
-1.924017237885e-03 6.150395524519e-06 0.0 
6.150395524519e-06 1.232235525673e-02 0.0 
0.0 0.0 0.0 
-1.893396769248e-03 -2.269733570123e-06 0.0 
-2.269733570123e-06 1.232157950907e-02 0.0 
0.0 0.0 0.0 
-1.869929599884e-03 -8.674214377319e-06 0.0 
-8.674214377319e-06 1.231924876135e-02 0.0 
0.0 0.0 0.0 
-1.850755100592e-03 -9.083505001573e-06 0.0 
-9.083505001573e-06 1.231928075168e-02 0.0 
0.0 0.0 0.0 
-1.834827054008e-03 -6.213870477714e-06 0.0 
-6.213870477714e-06 1.231748166930e-02 0.0 
0.0 0.0 0.0 
-1.826601407721e-03 -5.027736542650e-06 0.0 
-5.027736542650e-06 1.232185862786e-02 0.0 
0.0 0.0 0.0 
-1.837502498489e-03 1.884449339889e-05 0.0 
1.884449339889e-05 1.232560112087e-02 0.0 
0.0 0.0 0.0 
-2.175619293186e-03 4.353827383178e-03 0.0 
4.353827383178e-03 -1.917420203410e-04 0.0 
0.0 0.0 0.0 
-1.773664987608e-03 3.519235785531e-03 0.0 
3.519235785531e-03 1.490503098179e-03 0.0 
0.0 0.0 0.0 
-1.608902550517e-03 3.549868054070e-03 0.0 
3.549868054070e-03 2.707584173492e-03 0.0 
0.0 0.0 0.0 
-1.617415348202e-03 3.493508458513e-03 0.0 
3.493508458513e-03 3.873835707111e-03 0.0 
0.0 0.0 0.0 
-1.691308049698e-03 3.438978879994e-03 0.0 
3.438978879994e-03 5.112383492438e-03 0.0 
0.0 0.0 0.0 
-1.747369592530e-03 3.314743705165e-03 0.0 
3.314743705165e-03 6.544967946115e-03 0.0 
0.0 0.0 0.0 
-1.961075637342e-03 3.177054163078e-03 0.0 
3.177054163078e-03 8.133267260659e-03 0.0 
0.0 0.0 0.0 
-2.732837485577e-03 3.083419580699e-03 0.0 
3.083419580699e-03 9.960160564773e-03 0.0 
0.0 0.0 0.0 
-3.210646878066e-03 1.744681156227e-03 0.0 
1.744681156227e-03 1.187672635088e-02 0.0 
0.0 0.0 0.0 
-2.954124617430e-03 1.387343033526e-03 0.0 
1.387343033526e-03 1.235504601592e-02 0.0 
0.0 0.0 0.0 
-1.317150316071e-03 3.708489907140e-03 0.0 
3.708489907140e-03 1.438904525799e-03 0.0 
0.0 0.0 0.0 
6.652936264321e-04 1.820479995365e-03 0.0 
1.820479995365e-03 4.245326518296e-03 0.0 
0.0 0.0 0.0 
-2.588447410971e-04 -4.225010551235e-04 0.0 
-4.225010551235e-04 3.679523643179e-04 0.0 
0.0 0.0 0.0 
-1.696092675098e-03 -1.899018731078e-03 0.0 
-1.899018731078e-03 -2.702262880514e-03 0.0 
0.0 0.0 0.0 
4.043588806038e-04 1.586024552825e-04 0.0 
1.586024552825e-04 4.333879639582e-03 0.0 
0.0 0.0 0.0 
-1.335372072129e-03 3.598389734120e-03 0.0 
3.598389734120e-03 3.975577039833e-03 0.0 
0.0 0.0 0.0 
-1.169903872761e-03 -2.507308939809e-04 0.0 
-2.507308939809e-04 3.625219627609e-03 0.0 
0.0 0.0 0.0 
6.172937843388e-04 3.387090398255e-03 0.0 
3.387090398255e-03 5.323857084163e-03 0.0 
0.0 0.0 0.0 
-1.616873612875e-03 3.478870904884e-03 0.0 
3.478870904884e-03 6.682406870332e-03 0.0 
0.0 0.0 0.0 
3.157784322356e-04 4.525620069488e-03 0.0 
4.525620069488e-03 7.415952175384e-03 0.0 
0.0 0.0 0.0 
-2.771614924445e-03 3.104647019235e-03 0.0 
3.104647019235e-03 1.019813862250e-02 0.0 
0.0 0.0 0.0 
9.151503759071e-05 -4.307320819952e-04 0.0 
-4.307320819952e-04 5.108745764285e-03 0.0 
0.0 0.0 0.0 
1.200622551281e-03 -3.028974095109e-04 0.0 
-3.028974095109e-04 -2.670106798145e-04 0.0 
0.0 0.0 0.0 
-6.798159355916e-05 4.822524135694e-03 0.0 
4.822524135694e-03 1.002058763696e-02 0.0 
0.0 0.0 0.0 
-3.024904500067e-03 1.814747994738e-03 0.0 
1.814747994738e-03 1.241111973373e-02 0.0 
0.0 0.0 0.0 
-8.712064317944e-04 -2.093307223424e-04 0.0 
-2.093307223424e-04 2.584393325904e-03 0.0 
0.0 0.0 0.0 
-9.376975896334e-04 -2.107887268235e-04 0.0 
-2.107887268235e-04 4.236226302921e-03 0.0 
0.0 0.0 0.0 
-3.411544826661e-04 4.436414709857e-03 0.0 
4.436414709857e-03 1.186322140433e-02 0.0 
0.0 0.0 0.0 
-4.652415879403e-04 3.412562533853e-03 0.0 
3.412562533853e-03 1.377387259449e-02 0.0 
0.0 0.0 0.0 
-3.587822518983e-04 1.041259191587e-03 0.0 
1.041259191587e-03 1.537766153321e-02 0.0 
0.0 0.0 0.0 
-4.629673932372e-04 1.737180868502e-03 0.0 
1.737180868502e-03 1.511198104273e-02 0.0 
0.0 0.0 0.0 
-4.632560110032e-04 2.549862966032e-03 0.0 
2.549862966032e-03 1.462608050314e-02 0.0 
0.0 0.0 0.0 
-2.752453756694e-03 1.047891788578e-03 0.0 
1.047891788578e-03 1.297340600349e-02 0.0 
0.0 0.0 0.0 
-2.266957731062e-03 3.631878198481e-04 0.0 
3.631878198481e-04 1.314873286900e-02 0.0 
0.0 0.0 0.0 
-2.028025709475e-03 1.776769671752e-04 0.0 
1.776769671752e-04 1.317698882355e-02 0.0 
0.0 0.0 0.0 
-1.496800790192e-03 7.103560055008e-05 0.0 
7.103560055008e-05 1.441710201561e-02 0.0 
0.0 0.0 0.0 
-7.624490845716e-05 -4.245615073717e-04 0.0 
-4.245615073717e-04 5.576756196714e-03 0.0 
0.0 0.0 0.0 
-1.834958475840e-03 1.074869150252e-03 0.0 
1.074869150252e-03 -3.635957091551e-03 0.0 
0.0 0.0 0.0 
1.912809978745e-03 -1.570134665033e-04 0.0 
-1.570134665033e-04 -5.491224087963e-04 0.0 
0.0 0.0 0.0 
-5.850961152193e-04 -1.236503353428e-04 0.0 
-1.236503353428e-04 5.106734445635e-03 0.0 
0.0 0.0 0.0 
-1.873972123895e-03 6.798912807640e-05 0.0 
6.798912807640e-05 1.310899865741e-02 0.0 
0.0 0.0 0.0 
4.514390872113e-04 -1.106570610936e-04 0.0 
-1.106570610936e-04 1.082573774165e-03 0.0 
0.0 0.0 0.0 
-4.911979149147e-04 3.914251342790e-03 0.0 
3.914251342790e-03 1.293424954228e-02 0.0 
0.0 0.0 0.0 
4.502798022491e-04 4.063395310450e-03 0.0 
4.063395310450e-03 6.339019324250e-03 0.0 
0.0 0.0 0.0 
1.192196183537e-04 4.794881079694e-03 0.0 
4.794881079694e-03 8.702623532384e-03 0.0 
0.0 0.0 0.0 
7.179280313503e-04 2.677870987308e-03 0.0 
2.677870987308e-03 4.640690925613e-03 0.0 
0.0 0.0 0.0 
5.598573374293e-04 1.061774391459e-03 0.0 
1.061774391459e-03 4.133036351554e-03 0.0 
0.0 0.0 0.0 
-1.321787491083e-03 -1.642532159715e-03 0.0 
-1.642532159715e-03 4.772347789599e-04 0.0 
0.0 0.0 0.0 
-2.489711299832e-03 6.070855655774e-04 0.0 
6.070855655774e-04 1.309621061795e-02 0.0 
0.0 0.0 0.0 
2.774424045450e-04 -2.428229763102e-04 0.0 
-2.428229763102e-04 4.589357606687e-03 0.0 
0.0 0.0 0.0 
-1.113323041447e-03 1.106643974115e-04 0.0 
1.106643974115e-04 1.495531268332e-02 0.0 
0.0 0.0 0.0 
4.327442873058e-04 -3.220378037440e-04 0.0 
-3.220378037440e-04 8.528732780888e-05 0.0 
0.0 0.0 0.0 
-1.166592523514e-03 -2.536227387652e-04 0.0 
-2.536227387652e-04 3.166236172267e-03 0.0 
0.0 0.0 0.0 
-2.861908541559e-04 6.478439775866e-04 0.0 
6.478439775866e-04 1.548432572511e-02 0.0 
0.0 0.0 0.0 
-1.377360109231e-03 3.588877890715e-03 0.0 
3.588877890715e-03 5.194220310223e-03 0.0 
0.0 0.0 0.0 
-1.255101106440e-03 3.693597235616e-03 0.0 
3.693597235616e-03 2.722581043885e-03 0.0 
0.0 0.0 0.0 
-1.993200655955e-03 3.416603533871e-03 0.0 
3.416603533871e-03 8.339993400070e-03 0.0 
0.0 0.0 0.0 
-2.993202520329e-03 2.309513716688e-03 0.0 
2.309513716688e-03 1.158317366254e-02 0.0 
0.0 0.0 0.0 
-1.689315868327e-03 4.156263692670e-03 0.0 
4.156263692670e-03 -1.749316674773e-04 0.0 
0.0 0.0 0.0 
-1.727820371706e-03 4.091856538491e-05 0.0 
4.091856538491e-05 1.378054152012e-02 0.0 
0.0 0.0 0.0 
-1.251649399169e-04 -2.761916764616e-04 0.0 
-2.761916764616e-04 5.858725372222e-03 0.0 
0.0 0.0 0.0 
2.184740595673e-03 -5.748424421468e-05 0.0 
-5.748424421468e-05 -6.885263978177e-04 0.0 
0.0 0.0 0.0 
-5.511595070520e-04 1.621778515662e-04 0.0 
1.621778515662e-04 1.537827981701e-02 0.0 
0.0 0.0 0.0 
-3.003067306150e-03 1.686221360124e-03 0.0 
1.686221360124e-03 1.269477747290e-02 0.0 
0.0 0.0 0.0 
-2.939939582879e-03 2.168026567586e-03 0.0 
2.168026567586e-03 1.248212561171e-02 0.0 
0.0 0.0 0.0 
-2.876854955368e-03 1.908883564047e-03 0.0 
1.908883564047e-03 1.285289319535e-02 0.0 
0.0 0.0 0.0 
-2.758949647693e-03 2.458580498327e-03 0.0 
2.458580498327e-03 1.251253043334e-02 0.0 
0.0 0.0 0.0 
-2.693243123534e-03 2.235341636949e-03 0.0 
2.235341636949e-03 1.291151733092e-02 0.0 
0.0 0.0 0.0 
-2.524536975743e-03 2.675204180051e-03 0.0 
2.675204180051e-03 1.255324289216e-02 0.0 
0.0 0.0 0.0 
-2.545083703400e-03 2.923554523087e-03 0.0 
2.923554523087e-03 1.207226354397e-02 0.0 
0.0 0.0 0.0 
-2.282327692422e-03 3.083983677028e-03 0.0 
3.083983677028e-03 1.210428675608e-02 0.0 
0.0 0.0 0.0 
-2.240915627979e-03 3.335000269275e-03 0.0 
3.335000269275e-03 1.152534419201e-02 0.0 
0.0 0.0 0.0 
-2.470094995399e-03 2.476339071460e-03 0.0 
2.476339071460e-03 1.297170401936e-02 0.0 
0.0 0.0 0.0 
-1.973994940348e-03 3.440448472238e-03 0.0 
3.440448472238e-03 1.157430929085e-02 0.0 
0.0 0.0 0.0 
-1.877385787731e-03 3.675474006032e-03 0.0 
3.675474006032e-03 1.090832963640e-02 0.0 
0.0 0.0 0.0 
-1.619795218373e-03 3.738536507841e-03 0.0 
3.738536507841e-03 1.098375570196e-02 0.0 
0.0 0.0 0.0 
-1.476782141181e-03 3.946611405978e-03 0.0 
3.946611405978e-03 1.024817454506e-02 0.0 
0.0 0.0 0.0 
-1.705677174116e-03 3.912215486725e-03 0.0 
3.912215486725e-03 1.015251491366e-02 0.0 
0.0 0.0 0.0 
-1.266280962185e-03 4.154115258721e-03 0.0 
4.154115258721e-03 9.431304550535e-03 0.0 
0.0 0.0 0.0 
-1.462049429510e-03 4.112043024120e-03 0.0 
4.112043024120e-03 9.312403512311e-03 0.0 
0.0 0.0 0.0 
-9.859722870446e-04 4.323437354764e-03 0.0 
4.323437354764e-03 8.536436249236e-03 0.0 
0.0 0.0 0.0 
-8.141157433851e-04 4.317415485585e-03 0.0 
4.317415485585e-03 8.703636716236e-03 0.0 
0.0 0.0 0.0 
-4.993587119707e-04 4.454114615391e-03 0.0 
4.454114615391e-03 7.760012325591e-03 0.0 
0.0 0.0 0.0 
-6.426142455454e-04 4.442634273377e-03 0.0 
4.442634273377e-03 7.573349453695e-03 0.0 
0.0 0.0 0.0 
-1.318605800133e-04 4.540407418385e-03 0.0 
4.540407418385e-03 6.760288744523e-03 0.0 
0.0 0.0 0.0 
-2.608467889789e-04 4.523244159503e-03 0.0 
4.523244159503e-03 6.565386777748e-03 0.0 
0.0 0.0 0.0 
2.722243204729e-04 4.574741000536e-03 0.0 
4.574741000536e-03 5.724192557367e-03 0.0 
0.0 0.0 0.0 
1.541407304504e-04 4.556295186979e-03 0.0 
4.556295186979e-03 5.526291723427e-03 0.0 
0.0 0.0 0.0 
7.069637356102e-04 4.556603375745e-03 0.0 
4.556603375745e-03 4.667938772797e-03 0.0 
0.0 0.0 0.0 
7.921836571462e-04 4.551965755011e-03 0.0 
4.551965755011e-03 4.919570149951e-03 0.0 
0.0 0.0 0.0 
1.242977114670e-03 4.484643381060e-03 0.0 
4.484643381060e-03 3.852912299566e-03 0.0 
0.0 0.0 0.0 
1.165938777338e-03 4.482434363125e-03 0.0 
4.482434363125e-03 3.617552915717e-03 0.0 
0.0 0.0 0.0 
1.710430126346e-03 4.347052156723e-03 0.0 
4.347052156723e-03 2.806565577112e-03 0.0 
0.0 0.0 0.0 
1.624933566150e-03 4.341796014943e-03 0.0 
4.341796014943e-03 2.605606611792e-03 0.0 
0.0 0.0 0.0 
2.192548738816e-03 4.145731351784e-03 0.0 
4.145731351784e-03 1.800844737380e-03 0.0 
0.0 0.0 0.0 
2.215661649545e-03 4.143755480093e-03 0.0 
4.143755480093e-03 2.070940435006e-03 0.0 
0.0 0.0 0.0 
2.737168110881e-03 3.902888675590e-03 0.0 
3.902888675590e-03 1.056011942472e-03 0.0 
0.0 0.0 0.0 
2.740635294333e-03 3.944838703361e-03 0.0 
3.944838703361e-03 7.841685178325e-04 0.0 
0.0 0.0 0.0 
3.331614618808e-03 3.654414243905e-03 0.0 
3.654414243905e-03 1.231869888946e-05 0.0 
0.0 0.0 0.0 
3.324014768330e-03 3.735252507106e-03 0.0 
3.735252507106e-03 -2.228838350127e-04 0.0 
0.0 0.0 0.0 
3.909119661203e-03 3.332073088828e-03 0.0 
3.332073088828e-03 -9.421304741896e-04 0.0 
0.0 0.0 0.0 
3.873286078761e-03 3.406221502488e-03 0.0 
3.406221502488e-03 -1.092243655280e-03 0.0 
0.0 0.0 0.0 
4.408091949250e-03 2.883673825290e-03 0.0 
2.883673825290e-03 -1.723720268657e-03 0.0 
0.0 0.0 0.0 
4.355108444701e-03 2.829206592220e-03 0.0 
2.829206592220e-03 -1.519717653399e-03 0.0 
0.0 0.0 0.0 
4.765340651212e-03 2.285097727757e-03 0.0 
2.285097727757e-03 -2.197511909870e-03 0.0 
0.0 0.0 0.0 
4.780163043087e-03 2.332773819159e-03 0.0 
2.332773819159e-03 -2.380572328639e-03 0.0 
0.0 0.0 0.0 
5.025639022340e-03 1.648499404464e-03 0.0 
1.648499404464e-03 -2.714264965259e-03 0.0 
0.0 0.0 0.0 
4.930368510706e-03 1.657371369945e-03 0.0 
1.657371369945e-03 -2.491195201693e-03 0.0 
0.0 0.0 0.0 
5.061382070362e-03 9.766771096819e-04 0.0 
9.766771096819e-04 -2.861840612216e-03 0.0 
0.0 0.0 0.0 
4.900043341753e-03 1.037545633818e-03 0.0 
1.037545633818e-03 -2.585391757327e-03 0.0 
0.0 0.0 0.0 
4.892317013211e-03 3.492023536438e-04 0.0 
3.492023536438e-04 -2.825981445920e-03 0.0 
0.0 0.0 0.0 
5.006881478310e-03 2.445011002849e-04 0.0 
2.445011002849e-04 -3.073971928121e-03 0.0 
0.0 0.0 0.0 
4.699572383778e-03 -3.514260987972e-04 0.0 
-3.514260987972e-04 -2.883220831057e-03 0.0 
0.0 0.0 0.0 
4.516985030815e-03 -1.871945590742e-04 0.0 
-1.871945590742e-04 -2.540879400259e-03 0.0 
0.0 0.0 0.0 
4.206083869310e-03 -8.168557780021e-04 0.0 
-8.168557780021e-04 -2.468006908244e-03 0.0 
0.0 0.0 0.0 
4.346303555263e-03 -1.039785563463e-03 0.0 
-1.039785563463e-03 -2.783092848513e-03 0.0 
0.0 0.0 0.0 
3.761783761804e-03 -1.386758661985e-03 0.0 
-1.386758661985e-03 -2.232077491799e-03 0.0 
0.0 0.0 0.0 
3.600665210858e-03 -1.122277241047e-03 0.0 
-1.122277241047e-03 -1.862518809027e-03 0.0 
0.0 0.0 0.0 
3.158289559969e-03 -1.582031833588e-03 0.0 
-1.582031833588e-03 -1.588328388313e-03 0.0 
0.0 0.0 0.0 
3.233544042925e-03 -1.861760037179e-03 0.0 
-1.861760037179e-03 -1.879823350495e-03 0.0 
0.0 0.0 0.0 
2.690150526313e-03 -1.974762961401e-03 0.0 
-1.974762961401e-03 -1.241458888260e-03 0.0 
0.0 0.0 0.0 
2.687015650106e-03 -1.741350495139e-03 0.0 
-1.741350495139e-03 -1.051559937853e-03 0.0 
0.0 0.0 0.0 
2.253914436142e-03 -2.065040208599e-03 0.0 
-2.065040208599e-03 -7.193785635271e-04 0.0 
0.0 0.0 0.0 
2.211430990389e-03 -2.286890019965e-03 0.0 
-2.286890019965e-03 -8.500596449948e-04 0.0 
0.0 0.0 0.0 
1.793761960467e-03 -2.301460833465e-03 0.0 
-2.301460833465e-03 -3.296635816233e-04 0.0 
0.0 0.0 0.0 
1.798173671628e-03 -2.084602463432e-03 0.0 
-2.084602463432e-03 -1.495718648600e-04 0.0 
0.0 0.0 0.0 
1.356958392492e-03 -2.243222858960e-03 0.0 
-2.243222858960e-03 2.309543954392e-04 0.0 
0.0 0.0 0.0 
1.341541829027e-03 -2.035865353161e-03 0.0 
-2.035865353161e-03 4.685841889781e-04 0.0 
0.0 0.0 0.0 
1.320904315704e-03 -2.434761757987e-03 0.0 
-2.434761757987e-03 9.346737190807e-05 0.0 
0.0 0.0 0.0 
9.183182545265e-04 -2.310464492971e-03 0.0 
-2.310464492971e-03 6.288565205529e-04 0.0 
0.0 0.0 0.0 
8.614378531961e-04 -2.455400885845e-03 0.0 
-2.455400885845e-03 5.228987036670e-04 0.0 
0.0 0.0 0.0 
4.998049729293e-04 -2.280517119419e-03 0.0 
-2.280517119419e-03 1.021108869761e-03 0.0 
0.0 0.0 0.0 
2.675573330488e-03 3.893443132135e-03 0.0 
3.893443132135e-03 1.421560801962e-03 0.0 
0.0 0.0 0.0 
4.405593234552e-04 -2.361794331440e-03 0.0 
-2.361794331440e-03 9.258552308857e-04 0.0 
0.0 0.0 0.0 
7.580022035022e-04 -2.532580505058e-03 0.0 
-2.532580505058e-03 4.732455314747e-04 0.0 
0.0 0.0 0.0 
1.280929484719e-04 -2.157802154289e-03 0.0 
-2.157802154289e-03 1.376463400752e-03 0.0 
0.0 0.0 0.0 
1.609595991482e-04 -2.071739730785e-03 0.0 
-2.071739730785e-03 1.517074331117e-03 0.0 
0.0 0.0 0.0 
8.807535950613e-05 -2.172486366058e-03 0.0 
-2.172486366058e-03 1.268983298732e-03 0.0 
0.0 0.0 0.0 
-1.763546903853e-04 -1.958678047850e-03 0.0 
-1.958678047850e-03 1.671236218246e-03 0.0 
0.0 0.0 0.0 
-1.777441281762e-04 -1.912928809395e-03 0.0 
-1.912928809395e-03 1.535819333942e-03 0.0 
0.0 0.0 0.0 
3.199701183924e-03 3.811880968975e-03 0.0 
3.811880968975e-03 -3.244849344327e-04 0.0 
0.0 0.0 0.0 
-3.631618371553e-04 4.403719883994e-03 0.0 
4.403719883994e-03 7.985420787813e-03 0.0 
0.0 0.0 0.0 
-4.002930555435e-04 -1.700101543739e-03 0.0 
-1.700101543739e-03 1.891009154563e-03 0.0 
0.0 0.0 0.0 
-3.437617706606e-04 -1.604023073139e-03 0.0 
-1.604023073139e-03 1.708844930332e-03 0.0 
0.0 0.0 0.0 
-1.684136423477e-04 -1.789969285372e-03 0.0 
-1.789969285372e-03 1.405119871297e-03 0.0 
0.0 0.0 0.0 
-2.521184923795e-04 -1.434267880848e-03 0.0 
-1.434267880848e-03 1.505381084854e-03 0.0 
0.0 0.0 0.0 
-2.605488761480e-03 2.076488889443e-03 0.0 
2.076488889443e-03 1.323878545631e-02 0.0 
0.0 0.0 0.0 
-2.359935724112e-03 2.311286544727e-03 0.0 
2.311286544727e-03 1.334059164897e-02 0.0 
0.0 0.0 0.0 
-2.470509186027e-03 1.916697906231e-03 0.0 
1.916697906231e-03 1.355325469331e-02 0.0 
0.0 0.0 0.0 
-2.225951142700e-03 2.177160737978e-03 0.0 
2.177160737978e-03 1.367727851977e-02 0.0 
0.0 0.0 0.0 
-2.318711981527e-03 1.809934514340e-03 0.0 
1.809934514340e-03 1.383770596858e-02 0.0 
0.0 0.0 0.0 
-4.001008059865e-04 -1.273445421671e-03 0.0 
-1.273445421671e-03 1.778138418907e-03 0.0 
0.0 0.0 0.0 
-1.694745187137e-03 3.550021351937e-03 0.0 
3.550021351937e-03 1.164045535887e-02 0.0 
0.0 0.0 0.0 
-2.082248190791e-03 2.544622777140e-03 0.0 
2.544622777140e-03 1.343514476301e-02 0.0 
0.0 0.0 0.0 
-7.958976545494e-04 4.395304611040e-03 0.0 
4.395304611040e-03 7.431505668641e-03 0.0 
0.0 0.0 0.0 
1.044619798738e-03 4.464411286868e-03 0.0 
4.464411286868e-03 3.467148071217e-03 0.0 
0.0 0.0 0.0 
4.716417283256e-03 1.682365782542e-03 0.0 
1.682365782542e-03 -2.139251404920e-03 0.0 
0.0 0.0 0.0 
-4.255125939741e-04 -1.724194000326e-03 0.0 
-1.724194000326e-03 2.063755637765e-03 0.0 
0.0 0.0 0.0 
-6.117824106469e-04 -1.474553698045e-03 0.0 
-1.474553698045e-03 2.237384379922e-03 0.0 
0.0 0.0 0.0 
-6.449308922270e-04 -1.476109506452e-03 0.0 
-1.476109506452e-03 2.433986842718e-03 0.0 
0.0 0.0 0.0 
1.749882302272e-03 -1.863202880332e-03 0.0 
-1.863202880332e-03 1.441243905228e-04 0.0 
0.0 0.0 0.0 
1.304918194356e-03 -1.811051471000e-03 0.0 
-1.811051471000e-03 8.000099641087e-04 0.0 
0.0 0.0 0.0 
1.683073069925e-03 -1.619694718435e-03 0.0 
-1.619694718435e-03 5.424370257586e-04 0.0 
0.0 0.0 0.0 
1.265975472242e-03 -1.548921191605e-03 0.0 
-1.548921191605e-03 1.207732174899e-03 0.0 
0.0 0.0 0.0 
1.604887752262e-03 -1.321358063277e-03 0.0 
-1.321358063277e-03 1.029438125639e-03 0.0 
0.0 0.0 0.0 
1.207474665651e-03 -1.243997936484e-03 0.0 
-1.243997936484e-03 1.681599536865e-03 0.0 
0.0 0.0 0.0 
8.927249020387e-04 -1.427884062865e-03 0.0 
-1.427884062865e-03 1.841594708928e-03 0.0 
0.0 0.0 0.0 
8.478152074776e-04 -1.138691503862e-03 0.0 
-1.138691503862e-03 2.296500504408e-03 0.0 
0.0 0.0 0.0 
5.633446838028e-04 -1.278327919259e-03 0.0 
-1.278327919259e-03 2.432661935731e-03 0.0 
0.0 0.0 0.0 
1.484421596878e-03 -9.855220766121e-04 0.0 
-9.855220766121e-04 1.585495690124e-03 0.0 
0.0 0.0 0.0 
1.900156829781e-03 -1.007121945046e-03 0.0 
-1.007121945046e-03 9.348680978777e-04 0.0 
0.0 0.0 0.0 
5.330467162965e-04 -1.017653918133e-03 0.0 
-1.017653918133e-03 2.866974008188e-03 0.0 
0.0 0.0 0.0 
2.788383374394e-04 -1.114954118644e-03 0.0 
-1.114954118644e-03 2.976745281564e-03 0.0 
0.0 0.0 0.0 
2.658360413703e-04 -8.887724396066e-04 0.0 
-8.887724396066e-04 3.391248700581e-03 0.0 
0.0 0.0 0.0 
3.579595091709e-05 -9.491255443875e-04 0.0 
-9.491255443875e-04 3.472574427013e-03 0.0 
0.0 0.0 0.0 
7.054692246156e-06 -1.154933665840e-03 0.0 
-1.154933665840e-03 3.109507976529e-03 0.0 
0.0 0.0 0.0 
-2.035158989416e-04 -9.588301959203e-04 0.0 
-9.588301959203e-04 3.565645287200e-03 0.0 
0.0 0.0 0.0 
-2.549772403643e-04 -1.143229446667e-03 0.0 
-1.143229446667e-03 3.243216559965e-03 0.0 
0.0 0.0 0.0 
4.599185915347e-03 1.107033669267e-03 0.0 
1.107033669267e-03 -2.118438861743e-03 0.0 
0.0 0.0 0.0 
4.336141162026e-03 1.741459205070e-03 0.0 
1.741459205070e-03 -1.501095350265e-03 0.0 
0.0 0.0 0.0 
4.127104018360e-03 1.212245813950e-03 0.0 
1.212245813950e-03 -1.299796509998e-03 0.0 
0.0 0.0 0.0 
3.824844621545e-03 1.798803754198e-03 0.0 
1.798803754198e-03 -5.344253986328e-04 0.0 
0.0 0.0 0.0 
3.601757913210e-03 1.352692892002e-03 0.0 
1.352692892002e-03 -3.099915308545e-04 0.0 
0.0 0.0 0.0 
3.314113116732e-03 1.866804379565e-03 0.0 
1.866804379565e-03 4.093509723228e-04 0.0 
0.0 0.0 0.0 
3.115635167068e-03 1.499869138084e-03 0.0 
1.499869138084e-03 5.812551325777e-04 0.0 
0.0 0.0 0.0 
3.328508696450e-03 9.849243205984e-04 0.0 
9.849243205984e-04 -2.362050188548e-05 0.0 
0.0 0.0 0.0 
-1.240995821754e-03 3.981210976638e-03 0.0 
3.981210976638e-03 1.035468381380e-02 0.0 
0.0 0.0 0.0 
5.020046301181e-03 1.670280002168e-03 0.0 
1.670280002168e-03 -2.951369732762e-03 0.0 
0.0 0.0 0.0 
4.676387732305e-03 2.395037500556e-03 0.0 
2.395037500556e-03 -2.551293673267e-03 0.0 
0.0 0.0 0.0 
4.894200320697e-03 1.696041345281e-03 0.0 
1.696041345281e-03 -3.148789782007e-03 0.0 
0.0 0.0 0.0 
4.459185533943e-03 2.478077479404e-03 0.0 
2.478077479404e-03 -2.663615165996e-03 0.0 
0.0 0.0 0.0 
4.639619987915e-03 1.776070919090e-03 0.0 
1.776070919090e-03 -3.291999489759e-03 0.0 
0.0 0.0 0.0 
4.115577770903e-03 2.637592348750e-03 0.0 
2.637592348750e-03 -2.724867556757e-03 0.0 
0.0 0.0 0.0 
4.263896800085e-03 1.907151224883e-03 0.0 
1.907151224883e-03 -3.439811729080e-03 0.0 
0.0 0.0 0.0 
4.624027878164e-03 9.095610044869e-04 0.0 
9.095610044869e-04 -3.783748327885e-03 0.0 
0.0 0.0 0.0 
4.179462212136e-03 9.624539573550e-04 0.0 
9.624539573550e-04 -4.008105002071e-03 0.0 
0.0 0.0 0.0 
4.390118514403e-03 -9.034663491914e-05 0.0 
-9.034663491914e-05 -4.060709582205e-03 0.0 
0.0 0.0 0.0 
3.846318447000e-03 -1.016340700004e-04 0.0 
-1.016340700004e-04 -4.288072144995e-03 0.0 
0.0 0.0 0.0 
3.995901229861e-03 -1.132939356058e-03 0.0 
-1.132939356058e-03 -4.055104643571e-03 0.0 
0.0 0.0 0.0 
1.284486071503e-03 4.455158502339e-03 0.0 
4.455158502339e-03 4.169297308541e-03 0.0 
0.0 0.0 0.0 
3.441033958988e-03 2.290512797754e-03 0.0 
2.290512797754e-03 3.282373920523e-04 0.0 
0.0 0.0 0.0 
2.963684493435e-03 2.314371633124e-03 0.0 
2.314371633124e-03 1.200725841697e-03 0.0 
0.0 0.0 0.0 
3.025702046651e-03 2.695404311707e-03 0.0 
2.695404311707e-03 1.210799173868e-03 0.0 
0.0 0.0 0.0 
-1.345094861201e-04 -1.575626668854e-03 0.0 
-1.575626668854e-03 1.257756779983e-03 0.0 
0.0 0.0 0.0 
-1.662194648287e-04 -7.878983480387e-04 0.0 
-7.878983480387e-04 3.919278606954e-03 0.0 
0.0 0.0 0.0 
1.699106058487e-03 -6.687608583370e-04 0.0 
-6.687608583370e-04 1.569231432762e-03 0.0 
0.0 0.0 0.0 
2.116575423937e-03 -6.244395154414e-04 0.0 
-6.244395154414e-04 9.426358578210e-04 0.0 
0.0 0.0 0.0 
2.857228229591e-03 1.179137594668e-03 0.0 
1.179137594668e-03 8.496635290582e-04 0.0 
0.0 0.0 0.0 
-2.147697621326e-04 -1.075753214397e-03 0.0 
-1.075753214397e-03 1.492546001294e-03 0.0 
0.0 0.0 0.0 
3.638064942255e-03 2.829003833114e-03 0.0 
2.829003833114e-03 -2.751847201071e-03 0.0 
0.0 0.0 0.0 
3.349978975921e-03 3.356828503270e-03 0.0 
3.356828503270e-03 -1.897965154935e-03 0.0 
0.0 0.0 0.0 
-2.062004383139e-03 2.063780725413e-03 0.0 
2.063780725413e-03 1.397361482289e-02 0.0 
0.0 0.0 0.0 
-2.144552614048e-03 1.723064260624e-03 0.0 
1.723064260624e-03 1.409403560471e-02 0.0 
0.0 0.0 0.0 
1.835000995761e-03 -3.124639687618e-04 0.0 
-3.124639687618e-04 1.644637460341e-03 0.0 
0.0 0.0 0.0 
-3.386744480035e-04 -9.419607841843e-04 0.0 
-9.419607841843e-04 1.743960299239e-03 0.0 
0.0 0.0 0.0 
7.624969708416e-04 -8.640181329246e-04 0.0 
-8.640181329246e-04 2.793420038934e-03 0.0 
0.0 0.0 0.0 
3.533684475550e-03 1.072217744488e-03 0.0 
1.072217744488e-03 -4.181063623027e-03 0.0 
0.0 0.0 0.0 
-3.701780829016e-04 -7.701509037241e-04 0.0 
-7.701509037241e-04 3.970457480688e-03 0.0 
0.0 0.0 0.0 
-3.164240645751e-04 -6.314736404679e-04 0.0 
-6.314736404679e-04 4.311280706380e-03 0.0 
0.0 0.0 0.0 
5.624372172032e-04 -1.536464259586e-03 0.0 
-1.536464259586e-03 2.043338758058e-03 0.0 
0.0 0.0 0.0 
2.582954308971e-03 2.702029479932e-03 0.0 
2.702029479932e-03 2.034128292424e-03 0.0 
0.0 0.0 0.0 
2.604981593663e-03 3.033046380968e-03 0.0 
3.033046380968e-03 2.105432607079e-03 0.0 
0.0 0.0 0.0 
4.349979024476e-03 -1.003514505249e-03 0.0 
-1.003514505249e-03 -3.803799691116e-03 0.0 
0.0 0.0 0.0 
3.833392911154e-03 -1.954227229405e-03 0.0 
-1.954227229405e-03 -3.518160180235e-03 0.0 
0.0 0.0 0.0 
3.494094706590e-03 -2.177351091847e-03 0.0 
-2.177351091847e-03 -3.673838174874e-03 0.0 
0.0 0.0 0.0 
3.093683293161e-03 -2.742131133366e-03 0.0 
-2.742131133366e-03 -2.904344418162e-03 0.0 
0.0 0.0 0.0 
3.448963336405e-03 -2.442409976860e-03 0.0 
-2.442409976860e-03 -2.887547317331e-03 0.0 
0.0 0.0 0.0 
2.659162336553e-03 -2.976093842154e-03 0.0 
-2.976093842154e-03 -2.225668221042e-03 0.0 
0.0 0.0 0.0 
2.193923779418e-03 -3.266899533892e-03 0.0 
-3.266899533892e-03 -2.068053022763e-03 0.0 
0.0 0.0 0.0 
1.797112792495e-03 -3.268471805075e-03 0.0 
-3.268471805075e-03 -1.366119134488e-03 0.0 
0.0 0.0 0.0 
2.216416260405e-03 -3.037451120713e-03 0.0 
-3.037451120713e-03 -1.579331234705e-03 0.0 
0.0 0.0 0.0 
1.398946975264e-03 -3.087762250234e-03 0.0 
-3.087762250234e-03 -7.922250309915e-04 0.0 
0.0 0.0 0.0 
8.337513968447e-04 -3.095377981799e-03 0.0 
-3.095377981799e-03 -4.512799339929e-04 0.0 
0.0 0.0 0.0 
6.387533507389e-04 -2.829225873952e-03 0.0 
-2.829225873952e-03 -4.817385745935e-05 0.0 
0.0 0.0 0.0 
-1.393373404019e-04 -6.350845615213e-04 0.0 
-6.350845615213e-04 4.297820714236e-03 0.0 
0.0 0.0 0.0 
3.165460080187e-03 -7.165162516805e-05 0.0 
-7.165162516805e-05 -4.507829256958e-03 0.0 
0.0 0.0 0.0 
-1.914618011151e-03 3.821783358081e-03 0.0 
3.821783358081e-03 1.007682809718e-02 0.0 
0.0 0.0 0.0 
1.448986963003e-03 -3.851556599509e-04 0.0 
-3.851556599509e-04 2.224089845079e-03 0.0 
0.0 0.0 0.0 
2.620314897877e-03 1.643391638610e-03 0.0 
1.643391638610e-03 1.441580264110e-03 0.0 
0.0 0.0 0.0 
-1.871503166352e-03 1.968481668348e-03 0.0 
1.968481668348e-03 1.423864956024e-02 0.0 
0.0 0.0 0.0 
-1.951177100987e-03 1.648593916143e-03 0.0 
1.648593916143e-03 1.432367212418e-02 0.0 
0.0 0.0 0.0 
-2.180894624247e-03 1.403143065269e-03 0.0 
1.403143065269e-03 1.414108486561e-02 0.0 
0.0 0.0 0.0 
-1.993954043824e-03 1.350037999374e-03 0.0 
1.350037999374e-03 1.434694549575e-02 0.0 
0.0 0.0 0.0 
-1.738414578254e-03 1.579372526021e-03 0.0 
1.579372526021e-03 1.452751907092e-02 0.0 
0.0 0.0 0.0 
-1.793477870671e-03 1.297660455097e-03 0.0 
1.297660455097e-03 1.453521820690e-02 0.0 
0.0 0.0 0.0 
-2.008127487789e-03 1.081133634140e-03 0.0 
1.081133634140e-03 1.431865190436e-02 0.0 
0.0 0.0 0.0 
-1.824005217162e-03 1.044027405812e-03 0.0 
1.044027405812e-03 1.449847440756e-02 0.0 
0.0 0.0 0.0 
-2.001271086786e-03 8.447635772705e-04 0.0 
8.447635772705e-04 1.424817725108e-02 0.0 
0.0 0.0 0.0 
-1.835826558710e-03 8.216347490382e-04 0.0 
8.216347490382e-04 1.442396871598e-02 0.0 
0.0 0.0 0.0 
-1.630711622342e-03 1.001536631372e-03 0.0 
1.001536631372e-03 1.466641981804e-02 0.0 
0.0 0.0 0.0 
-1.661325325793e-03 7.900997521446e-04 0.0 
7.900997521446e-04 1.458821642294e-02 0.0 
0.0 0.0 0.0 
-1.835016791424e-03 6.305807441420e-04 0.0 
6.305807441420e-04 1.431759309378e-02 0.0 
0.0 0.0 0.0 
-1.681315668147e-03 6.066473694017e-04 0.0 
6.066473694017e-04 1.448417434480e-02 0.0 
0.0 0.0 0.0 
-1.828152686196e-03 4.700068071801e-04 0.0 
4.700068071801e-04 1.418821080093e-02 0.0 
0.0 0.0 0.0 
-1.695588337981e-03 4.512976900427e-04 0.0 
4.512976900427e-04 1.435815062476e-02 0.0 
0.0 0.0 0.0 
-1.520433710892e-03 5.699681598521e-04 0.0 
5.699681598521e-04 1.464125101816e-02 0.0 
0.0 0.0 0.0 
-2.924045755925e-05 -7.639970677997e-04 0.0 
-7.639970677997e-04 1.367163674075e-03 0.0 
0.0 0.0 0.0 
3.007941416660e-03 6.777017165665e-04 0.0 
6.777017165665e-04 3.421020034901e-04 0.0 
0.0 0.0 0.0 
2.542618723646e-03 9.039076913588e-04 0.0 
9.039076913588e-04 1.200748110737e-03 0.0 
0.0 0.0 0.0 
-7.953052100029e-04 -1.239989776298e-03 0.0 
-1.239989776298e-03 2.555198024055e-03 0.0 
0.0 0.0 0.0 
-8.256398139425e-04 -1.219011540994e-03 0.0 
-1.219011540994e-03 2.775440970697e-03 0.0 
0.0 0.0 0.0 
-6.431461222523e-04 -1.426986103073e-03 0.0 
-1.426986103073e-03 2.645319742996e-03 0.0 
0.0 0.0 0.0 
-8.223899876368e-04 -1.163465273577e-03 0.0 
-1.163465273577e-03 3.003606921155e-03 0.0 
0.0 0.0 0.0 
-1.557910482148e-03 4.173414825949e-04 0.0 
4.173414825949e-04 1.451846638383e-02 0.0 
0.0 0.0 0.0 
-1.354607560755e-03 5.183158757192e-04 0.0 
5.183158757192e-04 1.478963158841e-02 0.0 
0.0 0.0 0.0 
2.757773094369e-03 3.570429987581e-03 0.0 
3.570429987581e-03 -1.783962205653e-03 0.0 
0.0 0.0 0.0 
2.393307092229e-03 3.847816212859e-03 0.0 
3.847816212859e-03 -8.730650698123e-04 0.0 
0.0 0.0 0.0 
-1.750506238100e-03 2.304345795032e-03 0.0 
2.304345795032e-03 1.408697067106e-02 0.0 
0.0 0.0 0.0 
-4.922981645414e-04 -5.898309190381e-04 0.0 
-5.898309190381e-04 4.321341737045e-03 0.0 
0.0 0.0 0.0 
-5.690524022599e-04 -7.096144936140e-04 0.0 
-7.096144936140e-04 4.016870742502e-03 0.0 
0.0 0.0 0.0 
1.475959987486e-03 4.329974315427e-03 0.0 
4.329974315427e-03 2.497069388491e-03 0.0 
0.0 0.0 0.0 
8.616470677633e-04 4.425061028828e-03 0.0 
4.425061028828e-03 3.401078044758e-03 0.0 
0.0 0.0 0.0 
1.252468631207e-03 4.304321063529e-03 0.0 
4.304321063529e-03 2.468712760728e-03 0.0 
0.0 0.0 0.0 
6.020235246017e-04 4.342087998203e-03 0.0 
4.342087998203e-03 3.407019597190e-03 0.0 
0.0 0.0 0.0 
2.438511942682e-04 4.420614076903e-03 0.0 
4.420614076903e-03 4.336777317726e-03 0.0 
0.0 0.0 0.0 
9.362714250776e-04 4.233004286780e-03 0.0 
4.233004286780e-03 2.497793911654e-03 0.0 
0.0 0.0 0.0 
2.344890549002e-03 -9.833307978638e-04 0.0 
-9.833307978638e-04 2.618702919414e-04 0.0 
0.0 0.0 0.0 
-1.429068287904e-03 9.494893048796e-04 0.0 
9.494893048796e-04 1.481959695882e-02 0.0 
0.0 0.0 0.0 
-2.715741295341e-05 -1.956340900325e-03 0.0 
-1.956340900325e-03 1.131507206004e-03 0.0 
0.0 0.0 0.0 
-7.785387520443e-05 -1.696282303760e-03 0.0 
-1.696282303760e-03 1.060035155959e-03 0.0 
0.0 0.0 0.0 
-4.185927642629e-04 -4.834549726219e-04 0.0 
-4.834549726219e-04 4.649430719363e-03 0.0 
0.0 0.0 0.0 
3.437998159983e-03 4.186127090681e-04 0.0 
4.186127090681e-04 -5.230817777879e-04 0.0 
0.0 0.0 0.0 
8.443414430887e-04 4.496906572905e-03 0.0 
4.496906572905e-03 5.243337684096e-03 0.0 
0.0 0.0 0.0 
1.277470501194e-03 4.354965771172e-03 0.0 
4.354965771172e-03 4.575163350861e-03 0.0 
0.0 0.0 0.0 
8.493474402921e-04 4.386003290912e-03 0.0 
4.386003290912e-03 5.636006314693e-03 0.0 
0.0 0.0 0.0 
1.212653258304e-03 4.233970397154e-03 0.0 
4.233970397154e-03 5.040823613200e-03 0.0 
0.0 0.0 0.0 
8.066727938181e-04 4.300567203237e-03 0.0 
4.300567203237e-03 6.069428522089e-03 0.0 
0.0 0.0 0.0 
1.091784362599e-03 4.168030583893e-03 0.0 
4.168030583893e-03 5.539757078857e-03 0.0 
0.0 0.0 0.0 
1.502572122872e-03 4.039918288874e-03 0.0 
4.039918288874e-03 4.539453341985e-03 0.0 
0.0 0.0 0.0 
2.194094141601e-03 3.048031197168e-03 0.0 
3.048031197168e-03 2.890809186811e-03 0.0 
0.0 0.0 0.0 
1.301301373609e-03 4.005115708569e-03 0.0 
4.005115708569e-03 5.111523143656e-03 0.0 
0.0 0.0 0.0 
-1.711142090540e-03 3.256604918708e-04 0.0 
3.256604918708e-04 1.421201770187e-02 0.0 
0.0 0.0 0.0 
3.464431983633e-03 2.755802690974e-03 0.0 
2.755802690974e-03 3.430081962322e-04 0.0 
0.0 0.0 0.0 
1.762274060531e-03 -2.923181510083e-03 0.0 
-2.923181510083e-03 -9.832230874522e-04 0.0 
0.0 0.0 0.0 
4.875386341385e-05 -8.335353420497e-04 0.0 
-8.335353420497e-04 1.154288224784e-03 0.0 
0.0 0.0 0.0 
1.613668007769e-04 -2.601779685765e-03 0.0 
-2.601779685765e-03 2.896161575532e-04 0.0 
0.0 0.0 0.0 
-1.646518432215e-04 -6.430673125681e-04 0.0 
-6.430673125681e-04 1.596532875669e-03 0.0 
0.0 0.0 0.0 
-4.963869599547e-04 -7.953584608422e-04 0.0 
-7.953584608422e-04 2.003157625941e-03 0.0 
0.0 0.0 0.0 
1.506579100915e-03 -5.859726818550e-05 0.0 
-5.859726818550e-05 2.359834293610e-03 0.0 
0.0 0.0 0.0 
7.153114636417e-04 4.281676795190e-03 0.0 
4.281676795190e-03 6.538825934081e-03 0.0 
0.0 0.0 0.0 
4.433580857187e-04 4.350043351116e-03 0.0 
4.350043351116e-03 7.062007521388e-03 0.0 
0.0 0.0 0.0 
-2.409443261094e-05 4.289252618884e-03 0.0 
4.289252618884e-03 4.361951250348e-03 0.0 
0.0 0.0 0.0 
-3.600149687843e-04 4.314588721850e-03 0.0 
4.314588721850e-03 5.289641934466e-03 0.0 
0.0 0.0 0.0 
2.120202660021e-03 2.754976739907e-03 0.0 
2.754976739907e-03 2.842476472648e-03 0.0 
0.0 0.0 0.0 
-2.510494890052e-03 1.548354319636e-03 0.0 
1.548354319636e-03 1.367292775783e-02 0.0 
0.0 0.0 0.0 
-2.157948074055e-03 8.620379601546e-04 0.0 
8.620379601546e-04 1.406210156270e-02 0.0 
0.0 0.0 0.0 
-2.110966917245e-03 6.479201856662e-04 0.0 
6.479201856662e-04 1.395423256555e-02 0.0 
0.0 0.0 0.0 
3.151894413304e-04 -4.861874487797e-04 0.0 
-4.861874487797e-04 1.059936804692e-03 0.0 
0.0 0.0 0.0 
2.027061941654e-04 -2.935011777694e-03 0.0 
-2.935011777694e-03 2.502326803590e-05 0.0 
0.0 0.0 0.0 
-1.514009736461e-03 1.507657546045e-03 0.0 
1.507657546045e-03 1.471203154055e-02 0.0 
0.0 0.0 0.0 
2.970905342361e-03 3.699053844388e-03 0.0 
3.699053844388e-03 -1.057456318116e-03 0.0 
0.0 0.0 0.0 
2.027378387821e-03 4.005328074553e-03 0.0 
4.005328074553e-03 -4.472669957858e-05 0.0 
0.0 0.0 0.0 
2.656222245748e-03 1.264521234549e-03 0.0 
1.264521234549e-03 -4.299327582426e-03 0.0 
0.0 0.0 0.0 
2.318760515661e-03 -5.734028365686e-06 0.0 
-5.734028365686e-06 -4.647640644199e-03 0.0 
0.0 0.0 0.0 
-1.415303475010e-03 3.711572021875e-04 0.0 
3.711572021875e-04 1.467128790428e-02 0.0 
0.0 0.0 0.0 
-1.192937036931e-03 4.491124316485e-04 0.0 
4.491124316485e-04 1.492675951874e-02 0.0 
0.0 0.0 0.0 
-6.167938457253e-04 -1.339794783322e-03 0.0 
-1.339794783322e-03 2.869268972270e-03 0.0 
0.0 0.0 0.0 
-7.833720829301e-04 -1.075410174400e-03 0.0 
-1.075410174400e-03 3.234249752283e-03 0.0 
0.0 0.0 0.0 
1.881315731621e-03 7.070067922321e-05 0.0 
7.070067922321e-05 1.826975978240e-03 0.0 
0.0 0.0 0.0 
1.389397018056e-04 -2.403596389371e-03 0.0 
-2.403596389371e-03 4.982286775533e-04 0.0 
0.0 0.0 0.0 
-1.105855256437e-03 6.167422907709e-04 0.0 
6.167422907709e-04 1.502255985504e-02 0.0 
0.0 0.0 0.0 
3.056461317329e-03 1.456894253412e-04 0.0 
1.456894253412e-04 -4.778491306316e-05 0.0 
0.0 0.0 0.0 
3.420943551381e-03 -1.718812545128e-04 0.0 
-1.718812545128e-04 -8.809556278676e-04 0.0 
0.0 0.0 0.0 
-9.895369848272e-04 -9.399203001725e-04 0.0 
-9.399203001725e-04 3.102347745560e-03 0.0 
0.0 0.0 0.0 
1.617419208300e-03 3.973466516515e-03 0.0 
3.973466516515e-03 -5.877886557156e-04 0.0 
0.0 0.0 0.0 
1.907890919909e-03 3.780498492850e-03 0.0 
3.780498492850e-03 -1.555957342664e-03 0.0 
0.0 0.0 0.0 
2.485108808059e-03 -2.763812227302e-03 0.0 
-2.763812227302e-03 -1.670326737165e-03 0.0 
0.0 0.0 0.0 
4.929878624370e-04 -2.624740563226e-03 0.0 
-2.624740563226e-03 2.869567445168e-04 0.0 
0.0 0.0 0.0 
-3.225689368503e-04 -5.236691366341e-04 0.0 
-5.236691366341e-04 1.843989068222e-03 0.0 
0.0 0.0 0.0 
1.480393537183e-03 2.957487579439e-04 0.0 
2.957487579439e-04 2.587759354981e-03 0.0 
0.0 0.0 0.0 
-1.419590264017e-03 1.795189037244e-03 0.0 
1.795189037244e-03 1.467007920853e-02 0.0 
0.0 0.0 0.0 
1.699925942278e-03 3.814173069685e-03 0.0 
3.814173069685e-03 4.147699144450e-03 0.0 
0.0 0.0 0.0 
1.934929502726e-03 3.887842704738e-03 0.0 
3.887842704738e-03 3.526434668734e-03 0.0 
0.0 0.0 0.0 
1.418901567668e-03 3.812213044588e-03 0.0 
3.812213044588e-03 4.777525063790e-03 0.0 
0.0 0.0 0.0 
-2.110677223984e-04 -2.041237850787e-03 0.0 
-2.041237850787e-03 7.047286165730e-04 0.0 
0.0 0.0 0.0 
1.146012253435e-03 -1.665081429031e-04 0.0 
-1.665081429031e-04 2.911084564919e-03 0.0 
0.0 0.0 0.0 
-5.727224225625e-04 -4.217783481855e-04 0.0 
-4.217783481855e-04 4.621136871375e-03 0.0 
0.0 0.0 0.0 
3.797617798720e-04 4.384117560247e-03 0.0 
4.384117560247e-03 7.490422803166e-03 0.0 
0.0 0.0 0.0 
1.323292597836e-04 4.386645798236e-03 0.0 
4.386645798236e-03 8.005594236448e-03 0.0 
0.0 0.0 0.0 
2.568714175803e-03 3.924786781779e-03 0.0 
3.924786781779e-03 -2.426106187462e-04 0.0 
0.0 0.0 0.0 
1.652907576391e-03 4.096457411949e-03 0.0 
4.096457411949e-03 7.587682742155e-04 0.0 
0.0 0.0 0.0 
1.044495258050e-03 4.092708318749e-03 0.0 
4.092708318749e-03 1.025143631259e-03 0.0 
0.0 0.0 0.0 
7.765739710075e-04 4.111002201613e-03 0.0 
4.111002201613e-03 1.803585296052e-03 0.0 
0.0 0.0 0.0 
-2.481256420901e-03 3.190863663943e-03 0.0 
3.190863663943e-03 1.150059953423e-02 0.0 
0.0 0.0 0.0 
2.115131219937e-03 4.080823836906e-03 0.0 
4.080823836906e-03 6.008504676029e-04 0.0 
0.0 0.0 0.0 
-1.638789484327e-03 4.017772067594e-03 0.0 
4.017772067594e-03 9.224074693281e-03 0.0 
0.0 0.0 0.0 
-2.094315326256e-03 3.686020926681e-03 0.0 
3.686020926681e-03 1.002413449218e-02 0.0 
0.0 0.0 0.0 
-1.813174497808e-03 3.892202586349e-03 0.0 
3.892202586349e-03 9.162395431487e-03 0.0 
0.0 0.0 0.0 
-1.525831770700e-04 4.436794242485e-03 0.0 
4.436794242485e-03 5.310029733341e-03 0.0 
0.0 0.0 0.0 
-7.365444644001e-04 4.287871627892e-03 0.0 
4.287871627892e-03 6.265248325150e-03 0.0 
0.0 0.0 0.0 
4.123957822434e-03 3.043779933444e-03 0.0 
3.043779933444e-03 -1.939700116385e-03 0.0 
0.0 0.0 0.0 
4.353232436237e-03 2.282599951551e-03 0.0 
2.282599951551e-03 -1.438001952788e-03 0.0 
0.0 0.0 0.0 
-4.019545728928e-04 -1.595956760907e-03 0.0 
-1.595956760907e-03 2.455733864394e-03 0.0 
0.0 0.0 0.0 
-3.331571299248e-05 -1.364731850025e-03 0.0 
-1.364731850025e-03 2.779414642737e-03 0.0 
0.0 0.0 0.0 
2.141483973431e-03 -1.616201226970e-03 0.0 
-1.616201226970e-03 -1.304941123711e-04 0.0 
0.0 0.0 0.0 
-1.364393234587e-03 1.177925354441e-03 0.0 
1.177925354441e-03 1.486858049329e-02 0.0 
0.0 0.0 0.0 
-1.138828416398e-03 1.103410488068e-03 0.0 
1.103410488068e-03 1.501285833964e-02 0.0 
0.0 0.0 0.0 
-1.952989341680e-03 4.763605631365e-04 0.0 
4.763605631365e-04 1.400793787529e-02 0.0 
0.0 0.0 0.0 
-1.923481931571e-03 3.371133170605e-04 0.0 
3.371133170605e-04 1.385444446809e-02 0.0 
0.0 0.0 0.0 
-7.878489061279e-05 -1.272338335015e-03 0.0 
-1.272338335015e-03 1.080830263238e-03 0.0 
0.0 0.0 0.0 
-1.060702554263e-04 -1.347452710362e-03 0.0 
-1.347452710362e-03 9.578267319091e-04 0.0 
0.0 0.0 0.0 
9.210212329529e-04 -1.927101956059e-03 0.0 
-1.927101956059e-03 1.095159968964e-03 0.0 
0.0 0.0 0.0 
1.088032646083e-03 -4.314994060332e-04 0.0 
-4.314994060332e-04 2.789317398530e-03 0.0 
0.0 0.0 0.0 
-1.535866707367e-03 2.197987212810e-03 0.0 
2.197987212810e-03 1.435354709908e-02 0.0 
0.0 0.0 0.0 
-1.381863600255e-03 2.537544639534e-03 0.0 
2.537544639534e-03 1.417533347017e-02 0.0 
0.0 0.0 0.0 
-1.591201048689e-03 2.649491886706e-03 0.0 
2.649491886706e-03 1.387281291438e-02 0.0 
0.0 0.0 0.0 
1.841774499146e-03 4.738698852318e-04 0.0 
4.738698852318e-04 2.095580026981e-03 0.0 
0.0 0.0 0.0 
5.088561757369e-03 8.963347529354e-04 0.0 
8.963347529354e-04 -3.383594757523e-03 0.0 
0.0 0.0 0.0 
4.270492690467e-03 5.812604900532e-04 0.0 
5.812604900532e-04 -1.825635602334e-03 0.0 
0.0 0.0 0.0 
2.742460239764e-03 -1.357853796076e-03 0.0 
-1.357853796076e-03 -4.537068984895e-03 0.0 
0.0 0.0 0.0 
2.192825285323e-03 4.123091934042e-03 0.0 
4.123091934042e-03 2.442652724061e-03 0.0 
0.0 0.0 0.0 
5.785880136255e-05 -9.597182126512e-04 0.0 
-9.597182126512e-04 8.344411102335e-04 0.0 
0.0 0.0 0.0 
-6.434947284397e-04 4.282778902690e-03 0.0 
4.282778902690e-03 8.897160641540e-03 0.0 
0.0 0.0 0.0 
-4.797898933670e-04 -3.457232727766e-04 0.0 
-3.457232727766e-04 4.941189524311e-03 0.0 
0.0 0.0 0.0 
-3.481901942389e-04 -4.021173172059e-04 0.0 
-4.021173172059e-04 4.991912800351e-03 0.0 
0.0 0.0 0.0 
1.745592320637e-03 3.103545534277e-03 0.0 
3.103545534277e-03 3.660331963429e-03 0.0 
0.0 0.0 0.0 
-2.921050291863e-03 2.423968398607e-03 0.0 
2.423968398607e-03 1.203101666797e-02 0.0 
0.0 0.0 0.0 
2.567580013105e-03 3.838956350804e-03 0.0 
3.838956350804e-03 1.913814004724e-03 0.0 
0.0 0.0 0.0 
3.070040024408e-03 3.583751906905e-03 0.0 
3.583751906905e-03 8.813546388009e-04 0.0 
0.0 0.0 0.0 
-2.265321909882e-03 3.515254303639e-03 0.0 
3.515254303639e-03 9.986354330880e-03 0.0 
0.0 0.0 0.0 
-1.989275027853e-03 3.731432578150e-03 0.0 
3.731432578150e-03 9.139025935575e-03 0.0 
0.0 0.0 0.0 
-1.491283143328e-03 4.065219798963e-03 0.0 
4.065219798963e-03 8.247979100177e-03 0.0 
0.0 0.0 0.0 
-1.668114453082e-03 3.928552019760e-03 0.0 
3.928552019760e-03 8.215273822994e-03 0.0 
0.0 0.0 0.0 
1.990395762483e-03 -2.693902081226e-03 0.0 
-2.693902081226e-03 -1.023965364447e-03 0.0 
0.0 0.0 0.0 
1.377366414102e-03 -2.768540542187e-03 0.0 
-2.768540542187e-03 -4.303246269136e-04 0.0 
0.0 0.0 0.0 
5.637440705223e-04 4.364995904365e-03 0.0 
4.364995904365e-03 7.088730199127e-03 0.0 
0.0 0.0 0.0 
1.057986538422e-03 4.065795387605e-03 0.0 
4.065795387605e-03 5.697292268064e-03 0.0 
0.0 0.0 0.0 
1.345783721257e-04 4.479689687849e-03 0.0 
4.479689687849e-03 8.382791595408e-03 0.0 
0.0 0.0 0.0 
-1.034703535306e-04 4.427592760795e-03 0.0 
4.427592760795e-03 8.908902886430e-03 0.0 
0.0 0.0 0.0 
1.626703423113e-03 2.838942660943e-03 0.0 
2.838942660943e-03 3.641182459138e-03 0.0 
0.0 0.0 0.0 
1.991462174869e-03 2.463663581009e-03 0.0 
2.463663581009e-03 2.870435561227e-03 0.0 
0.0 0.0 0.0 
-6.490504328805e-04 -6.247249574165e-04 0.0 
-6.247249574165e-04 2.247240557838e-03 0.0 
0.0 0.0 0.0 
-9.376383880353e-04 4.117965162159e-03 0.0 
4.117965162159e-03 6.243360022631e-03 0.0 
0.0 0.0 0.0 
-1.174269552017e-03 1.705811158527e-03 0.0 
1.705811158527e-03 1.485418016110e-02 0.0 
0.0 0.0 0.0 
-2.498817289320e-03 3.257273952100e-03 0.0 
3.257273952100e-03 1.078253274731e-02 0.0 
0.0 0.0 0.0 
8.107705884365e-04 -2.569019724995e-04 0.0 
-2.569019724995e-04 3.430961975981e-03 0.0 
0.0 0.0 0.0 
7.657132545017e-04 -4.592780211652e-04 0.0 
-4.592780211652e-04 3.342264875586e-03 0.0 
0.0 0.0 0.0 
1.649350806001e-03 -1.198787364450e-03 0.0 
-1.198787364450e-03 -4.554288621899e-03 0.0 
0.0 0.0 0.0 
1.946566640732e-03 -2.767520856137e-03 0.0 
-2.767520856137e-03 -3.823904479613e-03 0.0 
0.0 0.0 0.0 
-9.243842860129e-04 5.242817713526e-04 0.0 
5.242817713526e-04 1.514976595123e-02 0.0 
0.0 0.0 0.0 
1.608716697360e-04 4.020174938182e-03 0.0 
4.020174938182e-03 2.088730204967e-03 0.0 
0.0 0.0 0.0 
-2.351051703634e-06 4.009508708746e-03 0.0 
4.009508708746e-03 2.830700619225e-03 0.0 
0.0 0.0 0.0 
3.406715572553e-04 4.029267133109e-03 0.0 
4.029267133109e-03 1.352919072792e-03 0.0 
0.0 0.0 0.0 
-2.967271371525e-04 -9.506455083812e-05 0.0 
-9.506455083812e-05 5.713210374566e-03 0.0 
0.0 0.0 0.0 
-1.830917484954e-03 2.492628941161e-05 0.0 
2.492628941161e-05 1.308709624929e-02 0.0 
0.0 0.0 0.0 
-3.762483125437e-04 -2.935409904777e-04 0.0 
-2.935409904777e-04 5.267208469032e-03 0.0 
0.0 0.0 0.0 
-5.668387047647e-04 4.401262840963e-03 0.0 
4.401262840963e-03 6.326002778543e-03 0.0 
0.0 0.0 0.0 
-8.094913920000e-04 7.124512243656e-04 0.0 
7.124512243656e-04 1.522706184397e-02 0.0 
0.0 0.0 0.0 
2.844084174156e-03 3.486451271117e-03 0.0 
3.486451271117e-03 1.536050016239e-03 0.0 
0.0 0.0 0.0 
1.932573683598e-03 4.188649877084e-03 0.0 
4.188649877084e-03 1.535475934223e-03 0.0 
0.0 0.0 0.0 
2.262867130641e-03 2.333427086541e-04 0.0 
2.333427086541e-04 1.299626723177e-03 0.0 
0.0 0.0 0.0 
-1.047617955182e-03 3.395589888207e-04 0.0 
3.395589888207e-04 1.504283237031e-02 0.0 
0.0 0.0 0.0 
-7.347619791597e-04 4.136716358367e-04 0.0 
4.136716358367e-04 1.527282643605e-02 0.0 
0.0 0.0 0.0 
-2.234612750209e-03 6.513620355026e-04 0.0 
6.513620355026e-04 1.375890944954e-02 0.0 
0.0 0.0 0.0 
-2.169740519246e-03 4.583031625031e-04 0.0 
4.583031625031e-04 1.360948108692e-02 0.0 
0.0 0.0 0.0 
-2.302204516742e-03 8.756678800579e-04 0.0 
8.756678800579e-04 1.385542397954e-02 0.0 
0.0 0.0 0.0 
3.089175776952e-03 2.329236908820e-03 0.0 
2.329236908820e-03 -3.674894869656e-03 0.0 
0.0 0.0 0.0 
1.891620762832e-03 2.730158307428e-03 0.0 
2.730158307428e-03 -3.476986023465e-03 0.0 
0.0 0.0 0.0 
-1.222716341171e-03 8.819574419973e-04 0.0 
8.819574419973e-04 1.496335471627e-02 0.0 
0.0 0.0 0.0 
-7.187105536524e-04 -1.191270607059e-03 0.0 
-1.191270607059e-03 2.335541001912e-03 0.0 
0.0 0.0 0.0 
-8.995983773074e-04 -9.520816268249e-04 0.0 
-9.520816268249e-04 2.662129098958e-03 0.0 
0.0 0.0 0.0 
1.152574700358e-04 -2.255543699427e-03 0.0 
-2.255543699427e-03 7.042724330582e-04 0.0 
0.0 0.0 0.0 
3.688038112753e-04 -2.463257438569e-03 0.0 
-2.463257438569e-03 5.865533963312e-04 0.0 
0.0 0.0 0.0 
-3.645563127736e-04 -1.472562029039e-03 0.0 
-1.472562029039e-03 2.691887575970e-03 0.0 
0.0 0.0 0.0 
-1.140575724191e-04 -1.714063342036e-03 0.0 
-1.714063342036e-03 2.224549667802e-03 0.0 
0.0 0.0 0.0 
-2.454111541379e-04 4.354372765097e-03 0.0 
4.354372765097e-03 8.246913720116e-03 0.0 
0.0 0.0 0.0 
-4.999884404121e-04 4.284656811873e-03 0.0 
4.284656811873e-03 9.133659738632e-03 0.0 
0.0 0.0 0.0 
4.333822579640e-04 4.481634142408e-03 0.0 
4.481634142408e-03 6.295577419382e-03 0.0 
0.0 0.0 0.0 
2.989734050086e-03 -4.000251676075e-04 0.0 
-4.000251676075e-04 -3.093882746015e-04 0.0 
0.0 0.0 0.0 
3.250522160186e-03 -7.096558570690e-04 0.0 
-7.096558570690e-04 -1.023680063457e-03 0.0 
0.0 0.0 0.0 
3.713814263046e-03 -4.131456569309e-04 0.0 
-4.131456569309e-04 -1.548359154853e-03 0.0 
0.0 0.0 0.0 
-1.036798281496e-03 1.339773066060e-03 0.0 
1.339773066060e-03 1.502352676099e-02 0.0 
0.0 0.0 0.0 
-7.626016151342e-04 1.253834461673e-03 0.0 
1.253834461673e-03 1.516828328460e-02 0.0 
0.0 0.0 0.0 
2.626477049365e-03 -2.479870786538e-03 0.0 
-2.479870786538e-03 -1.609650542859e-03 0.0 
0.0 0.0 0.0 
3.175735098877e-03 -2.394118557380e-03 0.0 
-2.394118557380e-03 -2.263836435348e-03 0.0 
0.0 0.0 0.0 
1.583325130692e-03 -2.632605437665e-03 0.0 
-2.632605437665e-03 -4.600571944529e-04 0.0 
0.0 0.0 0.0 
-1.043620901394e-03 2.002939312991e-03 0.0 
2.002939312991e-03 1.478161271565e-02 0.0 
0.0 0.0 0.0 
-2.635249788869e-04 -3.573332521305e-04 0.0 
-3.573332521305e-04 5.332601715214e-03 0.0 
0.0 0.0 0.0 
-2.180751044862e-04 -4.402500883447e-04 0.0 
-4.402500883447e-04 5.036897150454e-03 0.0 
0.0 0.0 0.0 
-2.070259619047e-05 -9.737575220790e-04 0.0 
-9.737575220790e-04 7.416062555397e-04 0.0 
0.0 0.0 0.0 
-1.621489429212e-04 -1.403983865440e-03 0.0 
-1.403983865440e-03 8.709974431043e-04 0.0 
0.0 0.0 0.0 
7.499925597132e-04 4.065547576654e-03 0.0 
4.065547576654e-03 -2.008722751899e-04 0.0 
0.0 0.0 0.0 
9.853959470911e-04 3.988878206696e-03 0.0 
3.988878206696e-03 -1.200832669456e-03 0.0 
0.0 0.0 0.0 
-1.187514301709e-03 2.876667736814e-03 0.0 
2.876667736814e-03 1.392702007462e-02 0.0 
0.0 0.0 0.0 
-1.396581916489e-03 3.004283516671e-03 0.0 
3.004283516671e-03 1.359063413012e-02 0.0 
0.0 0.0 0.0 
-9.297414732050e-04 2.784014955364e-03 0.0 
2.784014955364e-03 1.422485518661e-02 0.0 
0.0 0.0 0.0 
-4.410477108122e-04 -3.608795268190e-04 0.0 
-3.608795268190e-04 2.041310032398e-03 0.0 
0.0 0.0 0.0 
2.119042410256e-03 3.611834714128e-03 0.0 
3.611834714128e-03 3.201840176595e-03 0.0 
0.0 0.0 0.0 
1.376246173187e-03 6.734190046753e-04 0.0 
6.734190046753e-04 2.879727641540e-03 0.0 
0.0 0.0 0.0 
1.741252034793e-03 8.919465893853e-04 0.0 
8.919465893853e-04 2.458349147803e-03 0.0 
0.0 0.0 0.0 
9.861620642894e-04 4.752599077901e-04 0.0 
4.752599077901e-04 3.456781807423e-03 0.0 
0.0 0.0 0.0 
1.810140453324e-03 3.352036104201e-03 0.0 
3.352036104201e-03 3.738455273564e-03 0.0 
0.0 0.0 0.0 
1.356477808925e-03 3.409255011445e-03 0.0 
3.409255011445e-03 4.461921565793e-03 0.0 
0.0 0.0 0.0 
1.055582150195e-03 3.888250179748e-03 0.0 
3.888250179748e-03 5.445180734157e-03 0.0 
0.0 0.0 0.0 
9.864712265835e-04 9.573731272582e-05 0.0 
9.573731272582e-05 -4.587929747724e-03 0.0 
0.0 0.0 0.0 
-8.110231786441e-04 2.584081303359e-04 0.0 
2.584081303359e-04 1.521563420988e-02 0.0 
0.0 0.0 0.0 
-2.016777942956e-03 3.228145472911e-04 0.0 
3.228145472911e-04 1.364146183772e-02 0.0 
0.0 0.0 0.0 
1.906751477099e-05 -6.270799492015e-04 0.0 
-6.270799492015e-04 -4.301590719477e-03 0.0 
0.0 0.0 0.0 
-1.963246615060e-03 2.175241110991e-04 0.0 
2.175241110991e-04 1.346731008390e-02 0.0 
0.0 0.0 0.0 
-1.894852790846e-03 2.305864113743e-04 0.0 
2.305864113743e-04 1.368083586849e-02 0.0 
0.0 0.0 0.0 
-1.928718636078e-03 1.351919680693e-04 0.0 
1.351919680693e-04 1.326033984023e-02 0.0 
0.0 0.0 0.0 
-1.237997555984e-05 -2.992647159620e-04 0.0 
-2.992647159620e-04 1.555543282007e-03 0.0 
0.0 0.0 0.0 
-2.354259557364e-03 6.206408429302e-04 0.0 
6.206408429302e-04 1.349838765948e-02 0.0 
0.0 0.0 0.0 
-2.444410910673e-03 9.095155480796e-04 0.0 
9.095155480796e-04 1.364140176674e-02 0.0 
0.0 0.0 0.0 
-9.878689471210e-05 -8.467784839726e-04 0.0 
-8.467784839726e-04 5.980920938369e-04 0.0 
0.0 0.0 0.0 
-7.537045873016e-04 1.876878801180e-03 0.0 
1.876878801180e-03 1.495343876463e-02 0.0 
0.0 0.0 0.0 
3.144705758561e-04 -6.750288626362e-04 0.0 
-6.750288626362e-04 4.673142928372e-04 0.0 
0.0 0.0 0.0 
4.006523701335e-04 -6.928308191368e-04 0.0 
-6.928308191368e-04 5.729732573629e-04 0.0 
0.0 0.0 0.0 
5.613108921309e-04 -3.214489263472e-04 0.0 
-3.214489263472e-04 3.940029970565e-03 0.0 
0.0 0.0 0.0 
5.019771458149e-04 -4.792605451547e-04 0.0 
-4.792605451547e-04 3.853145827959e-03 0.0 
0.0 0.0 0.0 
3.309433932317e-04 -3.851990459559e-04 0.0 
-3.851990459559e-04 4.389637901186e-03 0.0 
0.0 0.0 0.0 
2.790904278840e-04 -4.795346974801e-04 0.0 
-4.795346974801e-04 4.300831176245e-03 0.0 
0.0 0.0 0.0 
3.829221383327e-04 -6.039635365806e-04 0.0 
-6.039635365806e-04 3.819250187155e-03 0.0 
0.0 0.0 0.0 
1.722222374468e-04 -5.555023563086e-04 0.0 
-5.555023563086e-04 4.291277879947e-03 0.0 
0.0 0.0 0.0 
-2.104035947604e-03 3.095815824139e-04 0.0 
3.095815824139e-04 1.342851391338e-02 0.0 
0.0 0.0 0.0 
1.144826951203e-04 -4.690710933400e-04 0.0 
-4.690710933400e-04 4.787499146318e-03 0.0 
0.0 0.0 0.0 
1.331751836525e-05 -5.041042094841e-04 0.0 
-5.041042094841e-04 4.725423773087e-03 0.0 
0.0 0.0 0.0 
-1.306630023531e-06 -4.740757801808e-04 0.0 
-4.740757801808e-04 5.197512802712e-03 0.0 
0.0 0.0 0.0 
-2.196252345447e-03 3.544462682684e-03 0.0 
3.544462682684e-03 9.174408817084e-03 0.0 
0.0 0.0 0.0 
5.202909993548e-04 4.146011758060e-03 0.0 
4.146011758060e-03 2.611265776132e-03 0.0 
0.0 0.0 0.0 
-1.774643580226e-04 4.023838879722e-03 0.0 
4.023838879722e-03 3.611003914081e-03 0.0 
0.0 0.0 0.0 
-7.640636329667e-04 3.813309124944e-03 0.0 
3.813309124944e-03 3.899671224301e-03 0.0 
0.0 0.0 0.0 
-4.986331299334e-05 4.595643764661e-03 0.0 
4.595643764661e-03 9.314096357531e-03 0.0 
0.0 0.0 0.0 
-2.756064100352e-04 4.449097345428e-03 0.0 
4.449097345428e-03 9.717260792725e-03 0.0 
0.0 0.0 0.0 
-6.026617602473e-04 -2.658100112772e-04 0.0 
-2.658100112772e-04 4.880203487324e-03 0.0 
0.0 0.0 0.0 
-7.078427011912e-04 -3.160670461844e-04 0.0 
-3.160670461844e-04 4.583832101410e-03 0.0 
0.0 0.0 0.0 
-1.875334055421e-03 1.421027499243e-04 0.0 
1.421027499243e-04 1.347661886974e-02 0.0 
0.0 0.0 0.0 
-1.833847726662e-03 9.577547687475e-05 0.0 
9.577547687475e-05 1.345097789505e-02 0.0 
0.0 0.0 0.0 
-1.793670553168e-03 1.688366477940e-04 0.0 
1.688366477940e-04 1.379228967013e-02 0.0 
0.0 0.0 0.0 
-1.767260723757e-03 1.113397841866e-04 0.0 
1.113397841866e-04 1.374521452562e-02 0.0 
0.0 0.0 0.0 
-1.696684373875e-03 1.824651800238e-04 0.0 
1.824651800238e-04 1.406623812895e-02 0.0 
0.0 0.0 0.0 
-1.681058030621e-03 1.093568539025e-04 0.0 
1.093568539025e-04 1.401344299402e-02 0.0 
0.0 0.0 0.0 
-1.580261716718e-03 1.791063805944e-04 0.0 
1.791063805944e-04 1.432174225891e-02 0.0 
0.0 0.0 0.0 
7.074906262213e-04 4.211841908235e-03 0.0 
4.211841908235e-03 6.425274914176e-03 0.0 
0.0 0.0 0.0 
-5.091009487819e-04 3.893186386148e-03 0.0 
3.893186386148e-03 2.389773884923e-03 0.0 
0.0 0.0 0.0 
-2.676907043962e-03 3.008650135810e-03 0.0 
3.008650135810e-03 1.080705968634e-02 0.0 
0.0 0.0 0.0 
1.441260920082e-03 2.557560039035e-03 0.0 
2.557560039035e-03 3.689074511531e-03 0.0 
0.0 0.0 0.0 
1.814609980937e-03 2.169514532493e-03 0.0 
2.169514532493e-03 2.934337449331e-03 0.0 
0.0 0.0 0.0 
-1.289795355327e-03 4.054496139793e-03 0.0 
4.054496139793e-03 7.223420200431e-03 0.0 
0.0 0.0 0.0 
-1.479995348121e-03 3.820718951474e-03 0.0 
3.820718951474e-03 7.242420527071e-03 0.0 
0.0 0.0 0.0 
7.512892329491e-04 -1.205577334458e-05 0.0 
-1.205577334458e-05 3.714133412653e-03 0.0 
0.0 0.0 0.0 
2.951938764761e-03 3.864256101286e-03 0.0 
3.864256101286e-03 -3.310574930040e-04 0.0 
0.0 0.0 0.0 
-5.242451167643e-04 2.219169933875e-03 0.0 
2.219169933875e-03 1.483728515324e-02 0.0 
0.0 0.0 0.0 
-1.587298563978e-03 2.457952991070e-03 0.0 
2.457952991070e-03 -2.769823243738e-03 0.0 
0.0 0.0 0.0 
2.826484609144e-04 2.414061954070e-03 0.0 
2.414061954070e-03 -3.423109720746e-03 0.0 
0.0 0.0 0.0 
2.438744689634e-03 4.064770450276e-03 0.0 
4.064770450276e-03 5.584929183889e-04 0.0 
0.0 0.0 0.0 
-1.131704354188e-03 4.204535079461e-03 0.0 
4.204535079461e-03 7.271695795784e-03 0.0 
0.0 0.0 0.0 
2.619215400651e-04 4.208695961304e-03 0.0 
4.208695961304e-03 3.468736630868e-03 0.0 
0.0 0.0 0.0 
-3.730587772867e-04 4.104100962740e-03 0.0 
4.104100962740e-03 4.442218886616e-03 0.0 
0.0 0.0 0.0 
2.655131307040e-03 -5.676745240010e-05 0.0 
-5.676745240010e-05 4.895783695527e-04 0.0 
0.0 0.0 0.0 
-2.522133467320e-04 -1.469685383606e-03 0.0 
-1.469685383606e-03 8.056377736132e-04 0.0 
0.0 0.0 0.0 
5.134283418937e-04 4.039128829520e-03 0.0 
4.039128829520e-03 6.094169437881e-04 0.0 
0.0 0.0 0.0 
-1.604799303440e-03 2.825805785871e-04 0.0 
2.825805785871e-04 1.435929256533e-02 0.0 
0.0 0.0 0.0 
-3.767197816579e-04 3.976599353808e-03 0.0 
3.976599353808e-03 1.021579965042e-03 0.0 
0.0 0.0 0.0 
-7.030817007354e-04 -1.467368830440e-04 0.0 
-1.467368830440e-04 4.811560017593e-03 0.0 
0.0 0.0 0.0 
3.703510277232e-03 3.482404840551e-03 0.0 
3.482404840551e-03 -1.156323677654e-03 0.0 
0.0 0.0 0.0 
1.359974694132e-05 4.511897117187e-03 0.0 
4.511897117187e-03 5.389498275073e-03 0.0 
0.0 0.0 0.0 
1.321578171881e-03 4.048333341729e-03 0.0 
4.048333341729e-03 2.477128636356e-04 0.0 
0.0 0.0 0.0 
1.275933756196e-03 4.158633680290e-03 0.0 
4.158633680290e-03 1.606118669287e-03 0.0 
0.0 0.0 0.0 
-2.118031299294e-03 3.592959837245e-03 0.0 
3.592959837245e-03 1.084980562798e-02 0.0 
0.0 0.0 0.0 
-2.762398774389e-03 2.714027772246e-03 0.0 
2.714027772246e-03 1.205792117421e-02 0.0 
0.0 0.0 0.0 
-2.673041770348e-03 2.983077311942e-03 0.0 
2.983077311942e-03 1.147525296902e-02 0.0 
0.0 0.0 0.0 
4.330080700585e-03 2.962818654472e-03 0.0 
2.962818654472e-03 -1.853340954490e-03 0.0 
0.0 0.0 0.0 
-6.300910727677e-04 4.124364307622e-03 0.0 
4.124364307622e-03 5.336067468699e-03 0.0 
0.0 0.0 0.0 
-1.019362155305e-03 3.822919958606e-03 0.0 
3.822919958606e-03 5.452233200146e-03 0.0 
0.0 0.0 0.0 
-1.148613244811e-03 4.269523708375e-03 0.0 
4.269523708375e-03 8.400017315948e-03 0.0 
0.0 0.0 0.0 
-1.760733201659e-03 2.768832733931e-03 0.0 
2.768832733931e-03 1.352018099904e-02 0.0 
0.0 0.0 0.0 
-1.546298694629e-03 3.113998043551e-03 0.0 
3.113998043551e-03 1.319420310375e-02 0.0 
0.0 0.0 0.0 
-1.173351784590e-03 3.330558138702e-03 0.0 
3.330558138702e-03 1.324541589357e-02 0.0 
0.0 0.0 0.0 
-1.310327502547e-03 3.441951009059e-03 0.0 
3.441951009059e-03 1.280765409050e-02 0.0 
0.0 0.0 0.0 
-1.651076617955e-03 3.243899782761e-03 0.0 
3.243899782761e-03 1.273621612360e-02 0.0 
0.0 0.0 0.0 
-1.385634724185e-03 3.557503514371e-03 0.0 
3.557503514371e-03 1.230199147485e-02 0.0 
0.0 0.0 0.0 
-1.040020179651e-03 3.744016013679e-03 0.0 
3.744016013679e-03 1.239650080024e-02 0.0 
0.0 0.0 0.0 
-1.093371354068e-03 3.850249614658e-03 0.0 
3.850249614658e-03 1.182631287225e-02 0.0 
0.0 0.0 0.0 
-7.310860916129e-04 4.080414144268e-03 0.0 
4.080414144268e-03 1.198163835101e-02 0.0 
0.0 0.0 0.0 
-8.024092735857e-04 4.107931745054e-03 0.0 
4.107931745054e-03 1.130630379992e-02 0.0 
0.0 0.0 0.0 
-1.076009467538e-03 3.945527159506e-03 0.0 
3.945527159506e-03 1.117771161379e-02 0.0 
0.0 0.0 0.0 
-7.743527205142e-04 4.152237589822e-03 0.0 
4.152237589822e-03 1.064130397646e-02 0.0 
0.0 0.0 0.0 
-5.612842567614e-04 4.321293843785e-03 0.0 
4.321293843785e-03 1.077258525208e-02 0.0 
0.0 0.0 0.0 
-1.006114208786e-03 4.050823363873e-03 0.0 
4.050823363873e-03 1.048301323109e-02 0.0 
0.0 0.0 0.0 
1.022984559730e-03 2.949475555748e-03 0.0 
2.949475555748e-03 4.457765685453e-03 0.0 
0.0 0.0 0.0 
2.643895013525e-03 4.009890111052e-03 0.0 
4.009890111052e-03 6.173951841813e-04 0.0 
0.0 0.0 0.0 
1.519952206715e-03 1.272781412508e-03 0.0 
1.272781412508e-03 -4.253752149327e-03 0.0 
0.0 0.0 0.0 
7.052199764762e-04 3.654614155775e-03 0.0 
3.654614155775e-03 -2.627403482744e-03 0.0 
0.0 0.0 0.0 
-4.048583159289e-04 4.478382413530e-03 0.0 
4.478382413530e-03 6.421642050220e-03 0.0 
0.0 0.0 0.0 
-3.949760351932e-04 4.225363617056e-03 0.0 
4.225363617056e-03 1.239305403631e-02 0.0 
0.0 0.0 0.0 
-4.877454852128e-04 3.668501569997e-03 0.0 
3.668501569997e-03 1.341587756967e-02 0.0 
0.0 0.0 0.0 
3.802807190735e-03 3.173204797075e-03 0.0 
3.173204797075e-03 -1.954794390364e-03 0.0 
0.0 0.0 0.0 
1.946272885150e-05 4.837385676362e-03 0.0 
4.837385676362e-03 9.364018226965e-03 0.0 
0.0 0.0 0.0 
-2.328784250875e-03 3.446336834657e-03 0.0 
3.446336834657e-03 1.081055384447e-02 0.0 
0.0 0.0 0.0 
3.752118387357e-03 2.065058951518e-03 0.0 
2.065058951518e-03 -3.577738423879e-03 0.0 
0.0 0.0 0.0 
2.147089005923e-04 4.685483498398e-03 0.0 
4.685483498398e-03 8.056499673104e-03 0.0 
0.0 0.0 0.0 
-1.889004561753e-03 2.903141858603e-03 0.0 
2.903141858603e-03 1.312047520573e-02 0.0 
0.0 0.0 0.0 
-1.972248702078e-03 3.053845660522e-03 0.0 
3.053845660522e-03 1.266651946113e-02 0.0 
0.0 0.0 0.0 
-2.195517018783e-03 2.692286725436e-03 0.0 
2.692286725436e-03 1.304471801440e-02 0.0 
0.0 0.0 0.0 
-4.815998533781e-04 3.125618338366e-03 0.0 
3.125618338366e-03 1.411182482176e-02 0.0 
0.0 0.0 0.0 
-2.343244222297e-03 1.150282361471e-03 0.0 
1.150282361471e-03 1.391506455744e-02 0.0 
0.0 0.0 0.0 
5.070232809109e-04 3.769388856792e-03 0.0 
3.769388856792e-03 5.877193320292e-03 0.0 
0.0 0.0 0.0 
3.931013401581e-03 2.309773769264e-03 0.0 
2.309773769264e-03 -6.311871019148e-04 0.0 
0.0 0.0 0.0 
3.865970936014e-03 2.806759453868e-03 0.0 
2.806759453868e-03 -5.113552420186e-04 0.0 
0.0 0.0 0.0 
4.174000073215e-03 2.797666559994e-03 0.0 
2.797666559994e-03 -1.133183425462e-03 0.0 
0.0 0.0 0.0 
-1.399721742737e-03 3.680614126185e-03 0.0 
3.680614126185e-03 1.171921104516e-02 0.0 
0.0 0.0 0.0 
6.704549047667e-04 2.230064500422e-03 0.0 
2.230064500422e-03 4.415609428089e-03 0.0 
0.0 0.0 0.0 
1.245839359776e-03 1.882473823809e-03 0.0 
1.882473823809e-03 3.549508608185e-03 0.0 
0.0 0.0 0.0 
1.213414057587e-03 1.516967826444e-03 0.0 
1.516967826444e-03 3.425582588553e-03 0.0 
0.0 0.0 0.0 
1.770325153795e-03 1.549460559021e-03 0.0 
1.549460559021e-03 2.680820293338e-03 0.0 
0.0 0.0 0.0 
6.354721193808e-04 1.431395249511e-03 0.0 
1.431395249511e-03 4.145539437206e-03 0.0 
0.0 0.0 0.0 
-2.381993690693e-04 4.626662848860e-03 0.0 
4.626662848860e-03 1.128979150951e-02 0.0 
0.0 0.0 0.0 
-1.519261580580e-04 4.759558507671e-03 0.0 
4.759558507671e-03 1.068547978051e-02 0.0 
0.0 0.0 0.0 
2.981670072132e-03 -2.692115939686e-03 0.0 
-2.692115939686e-03 -2.288760352069e-03 0.0 
0.0 0.0 0.0 
3.682417516945e-03 -2.137265488369e-03 0.0 
-2.137265488369e-03 -2.829830345035e-03 0.0 
0.0 0.0 0.0 
3.813758574867e-03 -1.879607873051e-03 0.0 
-1.879607873051e-03 -2.718026606847e-03 0.0 
0.0 0.0 0.0 
4.282569786124e-03 -1.441368160166e-03 0.0 
-1.441368160166e-03 -3.210432173952e-03 0.0 
0.0 0.0 0.0 
4.100965979164e-03 -1.693698486614e-03 0.0 
-1.693698486614e-03 -3.359514394955e-03 0.0 
0.0 0.0 0.0 
4.601692160386e-03 -8.254092501462e-04 0.0 
-8.254092501462e-04 -3.591380428240e-03 0.0 
0.0 0.0 0.0 
4.755830226597e-03 -6.697396318546e-04 0.0 
-6.697396318546e-04 -3.401021508752e-03 0.0 
0.0 0.0 0.0 
4.729132812489e-03 -3.468266518230e-05 0.0 
-3.468266518230e-05 -3.807923319368e-03 0.0 
0.0 0.0 0.0 
-3.792809441671e-04 4.333661637831e-03 0.0 
4.333661637831e-03 9.414944459099e-03 0.0 
0.0 0.0 0.0 
5.197021411726e-04 7.229991080368e-04 0.0 
7.229991080368e-04 4.167669516783e-03 0.0 
0.0 0.0 0.0 
2.040100482302e-03 -1.348472942331e-03 0.0 
-1.348472942331e-03 3.498846729940e-04 0.0 
0.0 0.0 0.0 
2.505740815789e-03 -1.297297848172e-03 0.0 
-1.297297848172e-03 -3.343157624461e-04 0.0 
0.0 0.0 0.0 
2.622819664817e-03 -1.523344803806e-03 0.0 
-1.523344803806e-03 -7.683134303605e-04 0.0 
0.0 0.0 0.0 
-1.425507708371e-04 -1.840955328196e-03 0.0 
-1.840955328196e-03 2.001203065173e-03 0.0 
0.0 0.0 0.0 
1.848900808944e-04 -1.938784923621e-03 0.0 
-1.938784923621e-03 1.715179989759e-03 0.0 
0.0 0.0 0.0 
2.080347636885e-04 -1.773798487117e-03 0.0 
-1.773798487117e-03 1.966896325668e-03 0.0 
0.0 0.0 0.0 
-4.233664573874e-04 -1.682357177691e-03 0.0 
-1.682357177691e-03 2.246436703755e-03 0.0 
0.0 0.0 0.0 
1.648573199223e-03 4.142965127089e-03 0.0 
4.142965127089e-03 3.995821273241e-03 0.0 
0.0 0.0 0.0 
4.619468411244e-04 4.205729089861e-04 0.0 
4.205729089861e-04 4.230655145791e-03 0.0 
0.0 0.0 0.0 
3.843321980775e-03 1.507682740176e-04 0.0 
1.507682740176e-04 -1.379988494331e-03 0.0 
0.0 0.0 0.0 
5.324020888559e-04 -2.140099588604e-03 0.0 
-2.140099588604e-03 1.176341028357e-03 0.0 
0.0 0.0 0.0 
-2.631314696281e-03 8.000044451821e-04 0.0 
8.000044451821e-04 1.306097614059e-02 0.0 
0.0 0.0 0.0 
-2.696302180922e-03 1.185422738330e-03 0.0 
1.185422738330e-03 1.326418394043e-02 0.0 
0.0 0.0 0.0 
-2.830817689077e-03 1.496011562887e-03 0.0 
1.496011562887e-03 1.313387710885e-02 0.0 
0.0 0.0 0.0 
-2.672975396499e-03 1.616954384485e-03 0.0 
1.616954384485e-03 1.339216288420e-02 0.0 
0.0 0.0 0.0 
-2.578488751425e-03 9.481073009719e-04 0.0 
9.481073009719e-04 1.339526093899e-02 0.0 
0.0 0.0 0.0 
-5.658420344288e-04 -1.219986564508e-03 0.0 
-1.219986564508e-03 3.109140203696e-03 0.0 
0.0 0.0 0.0 
-7.192526827322e-04 -9.637921569186e-04 0.0 
-9.637921569186e-04 3.471121110913e-03 0.0 
0.0 0.0 0.0 
-9.043736509252e-04 -8.089802772515e-04 0.0 
-8.089802772515e-04 3.542853743025e-03 0.0 
0.0 0.0 0.0 
-8.287408004010e-04 -7.126093877664e-04 0.0 
-7.126093877664e-04 3.779068236322e-03 0.0 
0.0 0.0 0.0 
-9.813484861548e-04 -5.538744766904e-04 0.0 
-5.538744766904e-04 3.792972240912e-03 0.0 
0.0 0.0 0.0 
-1.043166166549e-03 -6.286365839889e-04 0.0 
-6.286365839889e-04 3.580025578520e-03 0.0 
0.0 0.0 0.0 
-9.032224186870e-04 -4.663055936606e-04 0.0 
-4.663055936606e-04 4.037063142621e-03 0.0 
0.0 0.0 0.0 
-1.026530602101e-03 -3.181873358262e-04 0.0 
-3.181873358262e-04 3.974241866288e-03 0.0 
0.0 0.0 0.0 
-2.386715421014e-03 4.656932338883e-04 0.0 
4.656932338883e-04 1.312809914122e-02 0.0 
0.0 0.0 0.0 
-1.602777315089e-03 -2.395095136725e-03 0.0 
-2.395095136725e-03 -7.014247470370e-04 0.0 
0.0 0.0 0.0 
-6.543435353611e-04 -3.219414591735e-03 0.0 
-3.219414591735e-03 -4.690712560530e-04 0.0 
0.0 0.0 0.0 
-8.555401826859e-04 -2.389691537763e-03 0.0 
-2.389691537763e-03 5.531462319342e-04 0.0 
0.0 0.0 0.0 
4.049170549240e-05 -3.368580331143e-03 0.0 
-3.368580331143e-03 -4.288187611974e-04 0.0 
0.0 0.0 0.0 
9.091849584701e-04 -3.491949897275e-03 0.0 
-3.491949897275e-03 -2.033856795120e-03 0.0 
0.0 0.0 0.0 
1.367622957585e-03 -3.426324738948e-03 0.0 
-3.426324738948e-03 -1.699080588668e-03 0.0 
0.0 0.0 0.0 
2.239556069799e-03 -3.243743328493e-03 0.0 
-3.243743328493e-03 -3.047851594447e-03 0.0 
0.0 0.0 0.0 
1.206029442585e-04 -3.209169411222e-03 0.0 
-3.209169411222e-03 -2.460726134614e-03 0.0 
0.0 0.0 0.0 
-8.788876064987e-04 -8.724097574439e-04 0.0 
-8.724097574439e-04 5.342225841375e-04 0.0 
0.0 0.0 0.0 
-7.379634246758e-04 -1.627062524227e-03 0.0 
-1.627062524227e-03 7.131165301526e-04 0.0 
0.0 0.0 0.0 
-5.527169150510e-04 -5.443609750709e-04 0.0 
-5.443609750709e-04 4.648010128372e-04 0.0 
0.0 0.0 0.0 
-5.180770816227e-04 -1.201782481738e-03 0.0 
-1.201782481738e-03 6.802330945889e-04 0.0 
0.0 0.0 0.0 
-3.548294894164e-04 -2.128759369752e-03 0.0 
-2.128759369752e-03 6.512952875606e-04 0.0 
0.0 0.0 0.0 
-7.717025522351e-05 -1.812101030024e-03 0.0 
-1.812101030024e-03 9.231728800732e-04 0.0 
0.0 0.0 0.0 
-1.370026860804e-04 -3.491371632229e-04 0.0 
-3.491371632229e-04 5.676950800043e-03 0.0 
0.0 0.0 0.0 
-1.196967962939e-03 -2.558241822449e-04 0.0 
-2.558241822449e-04 3.398743331649e-03 0.0 
0.0 0.0 0.0 
-1.148366647353e-03 -5.055003221002e-04 0.0 
-5.055003221002e-04 3.223923141485e-03 0.0 
0.0 0.0 0.0 
-1.092653625734e-03 -4.922142920937e-04 0.0 
-4.922142920937e-04 2.995739545628e-03 0.0 
0.0 0.0 0.0 
-1.046042491589e-03 -7.707904916440e-04 0.0 
-7.707904916440e-04 2.994313397854e-03 0.0 
0.0 0.0 0.0 
-1.152578004638e-03 -4.829609529049e-04 0.0 
-4.829609529049e-04 3.436853303113e-03 0.0 
0.0 0.0 0.0 
-1.064793172175e-03 -2.365483593691e-04 0.0 
-2.365483593691e-04 2.902402715998e-03 0.0 
0.0 0.0 0.0 
-9.675258159136e-04 -4.591421597544e-04 0.0 
-4.591421597544e-04 2.738243394139e-03 0.0 
0.0 0.0 0.0 
2.056878472116e-03 -1.177883855417e-04 0.0 
-1.177883855417e-04 -6.096934778548e-04 0.0 
0.0 0.0 0.0 
1.533327753273e-03 -1.479770862295e-04 0.0 
-1.479770862295e-04 -7.153274043242e-05 0.0 
0.0 0.0 0.0 
1.676875755756e-03 -3.534216984001e-05 0.0 
-3.534216984001e-05 -1.701877940345e-04 0.0 
0.0 0.0 0.0 
9.998546348077e-04 -1.469366844050e-04 0.0 
-1.469366844050e-04 4.959647635010e-04 0.0 
0.0 0.0 0.0 
9.691527651847e-04 -2.378664257491e-04 0.0 
-2.378664257491e-04 4.916939609401e-04 0.0 
0.0 0.0 0.0 
1.438453114947e-03 -2.308316349248e-04 0.0 
-2.308316349248e-04 -3.462105597407e-05 0.0 
0.0 0.0 0.0 
1.281192209457e-03 -3.083638148226e-04 0.0 
-3.083638148226e-04 2.506880371506e-05 0.0 
0.0 0.0 0.0 
1.714403652552e-03 -2.037947692542e-04 0.0 
-2.037947692542e-04 -4.631779652510e-04 0.0 
0.0 0.0 0.0 
1.080616452483e-03 -3.967271588591e-04 0.0 
-3.967271588591e-04 1.103299189107e-04 0.0 
0.0 0.0 0.0 
6.985828256985e-04 -4.585294526007e-04 0.0 
-4.585294526007e-04 5.845852404322e-04 0.0 
0.0 0.0 0.0 
1.480752597726e-03 -2.605012462767e-04 0.0 
-2.605012462767e-04 -3.751905894034e-04 0.0 
0.0 0.0 0.0 
-1.321316680276e-03 9.385732481145e-05 0.0 
9.385732481145e-05 1.470550440791e-02 0.0 
0.0 0.0 0.0 
-1.207666166485e-03 2.105775970762e-04 0.0 
2.105775970762e-04 1.484972879686e-02 0.0 
0.0 0.0 0.0 
3.425659308437e-04 -5.647235102329e-05 0.0 
-5.647235102329e-05 4.463557876948e-03 0.0 
0.0 0.0 0.0 
-2.173745119653e-03 2.871308929062e-04 0.0 
2.871308929062e-04 1.318347208587e-02 0.0 
0.0 0.0 0.0 
4.384234628444e-05 -3.769304445979e-04 0.0 
-3.769304445979e-04 2.579554746392e-04 0.0 
0.0 0.0 0.0 
-4.039769524238e-04 8.113726387683e-04 0.0 
8.113726387683e-04 1.540565055933e-02 0.0 
0.0 0.0 0.0 
-4.093675108581e-04 1.475508902735e-03 0.0 
1.475508902735e-03 1.523692344723e-02 0.0 
0.0 0.0 0.0 
-3.687556900204e-04 1.258543627537e-03 0.0 
1.258543627537e-03 1.532038431243e-02 0.0 
0.0 0.0 0.0 
-4.550864876817e-04 -1.041572879147e-04 0.0 
-1.041572879147e-04 5.416729905032e-03 0.0 
0.0 0.0 0.0 
-3.593826556753e-04 -1.913945496506e-04 0.0 
-1.913945496506e-04 5.519224049706e-03 0.0 
0.0 0.0 0.0 
-3.599863442832e-04 4.585325375702e-04 0.0 
4.585325375702e-04 1.546681558304e-02 0.0 
0.0 0.0 0.0 
3.478404528438e-05 -2.109768457389e-03 0.0 
-2.109768457389e-03 1.192629083569e-03 0.0 
0.0 0.0 0.0 
-9.633880095557e-04 3.669856435187e-03 0.0 
3.669856435187e-03 1.286997898772e-02 0.0 
0.0 0.0 0.0 
-1.013180947195e-03 8.045587528492e-04 0.0 
8.045587528492e-04 1.509606704321e-02 0.0 
0.0 0.0 0.0 
3.056460752053e-03 3.106576211453e-03 0.0 
3.106576211453e-03 -2.744411240949e-03 0.0 
0.0 0.0 0.0 
8.198842179612e-04 -2.692553360272e-03 0.0 
-2.692553360272e-03 1.240405328681e-04 0.0 
0.0 0.0 0.0 
-6.644991135666e-04 -5.041616574051e-04 0.0 
-5.041616574051e-04 4.324734947023e-03 0.0 
0.0 0.0 0.0 
2.620732715692e-04 -1.351098057439e-03 0.0 
-1.351098057439e-03 2.601746982117e-03 0.0 
0.0 0.0 0.0 
-2.669484264694e-04 -5.146389262052e-04 0.0 
-5.146389262052e-04 4.670290815791e-03 0.0 
0.0 0.0 0.0 
-4.321204078469e-04 -9.228998435101e-04 0.0 
-9.228998435101e-04 3.654577715247e-03 0.0 
0.0 0.0 0.0 
4.094476238018e-05 -7.603245927372e-04 0.0 
-7.603245927372e-04 3.869723599620e-03 0.0 
0.0 0.0 0.0 
1.182789054812e-03 1.101537663302e-03 0.0 
1.101537663302e-03 3.324909171311e-03 0.0 
0.0 0.0 0.0 
1.260805541092e-04 -4.239407822282e-04 0.0 
-4.239407822282e-04 1.349030015271e-03 0.0 
0.0 0.0 0.0 
-1.979578362980e-03 6.433130737968e-04 0.0 
6.433130737968e-04 1.414020085919e-02 0.0 
0.0 0.0 0.0 
-1.820697592722e-03 3.391682102393e-04 0.0 
3.391682102393e-04 1.404126276203e-02 0.0 
0.0 0.0 0.0 
-1.479749308448e-03 7.465281936394e-04 0.0 
7.465281936394e-04 1.474287436018e-02 0.0 
0.0 0.0 0.0 
-5.322677330412e-04 -1.406783132430e-03 0.0 
-1.406783132430e-03 2.023553939445e-03 0.0 
0.0 0.0 0.0 
-9.548348009014e-04 -8.928087213136e-04 0.0 
-8.928087213136e-04 3.325373167522e-03 0.0 
0.0 0.0 0.0 
-1.113150095212e-04 -1.180052715951e-03 0.0 
-1.180052715951e-03 1.265091314614e-03 0.0 
0.0 0.0 0.0 
3.119816890717e-04 4.545570972208e-03 0.0 
4.545570972208e-03 7.926224679844e-03 0.0 
0.0 0.0 0.0 
-1.320176086741e-03 4.183191197425e-03 0.0 
4.183191197425e-03 8.308819853307e-03 0.0 
0.0 0.0 0.0 
2.224409030582e-03 -1.841399947155e-03 0.0 
-1.841399947155e-03 -4.886868320245e-04 0.0 
0.0 0.0 0.0 
-1.635839784899e-04 -1.929035569633e-03 0.0 
-1.929035569633e-03 1.819662001495e-03 0.0 
0.0 0.0 0.0 
3.507231098430e-04 -2.367730383927e-03 0.0 
-2.367730383927e-03 8.740921598619e-04 0.0 
0.0 0.0 0.0 
1.067528412216e-03 -2.866101148872e-03 0.0 
-2.866101148872e-03 -2.959450161579e-04 0.0 
0.0 0.0 0.0 
2.105245871739e-03 4.161915467829e-03 0.0 
4.161915467829e-03 1.625008502177e-03 0.0 
0.0 0.0 0.0 
9.309833831500e-04 -2.128381071253e-03 0.0 
-2.128381071253e-03 8.200380981830e-04 0.0 
0.0 0.0 0.0 
1.104091509911e-03 -9.332695770813e-04 0.0 
-9.332695770813e-04 2.206612980592e-03 0.0 
0.0 0.0 0.0 
-1.293092702065e-03 6.903164628647e-04 0.0 
6.903164628647e-04 1.488773589061e-02 0.0 
0.0 0.0 0.0 
7.796767080421e-04 -3.592028287384e-04 0.0 
-3.592028287384e-04 -5.001232233722e-05 0.0 
0.0 0.0 0.0 
1.309854778456e-03 -6.787327628922e-04 0.0 
-6.787327628922e-04 2.176188623570e-03 0.0 
0.0 0.0 0.0 
9.087048073291e-04 -1.696003755963e-03 0.0 
-1.696003755963e-03 1.439776338466e-03 0.0 
0.0 0.0 0.0 
-2.182093421406e-03 1.116055560864e-03 0.0 
1.116055560864e-03 1.412572597868e-02 0.0 
0.0 0.0 0.0 
2.826243026785e-03 1.958365693841e-03 0.0 
1.958365693841e-03 1.277150765700e-03 0.0 
0.0 0.0 0.0 
1.095067083784e-03 -3.358496675362e-03 0.0 
-3.358496675362e-03 -9.907094778222e-04 0.0 
0.0 0.0 0.0 
-1.583582968236e-03 1.239997766908e-03 0.0 
1.239997766908e-03 1.470798913538e-02 0.0 
0.0 0.0 0.0 
-1.148914866548e-03 2.406168484307e-03 0.0 
2.406168484307e-03 1.443124501835e-02 0.0 
0.0 0.0 0.0 
-2.491096306428e-03 1.202754278759e-03 0.0 
1.202754278759e-03 1.369716107140e-02 0.0 
0.0 0.0 0.0 
1.044523013533e-04 -9.003292234144e-04 0.0 
-9.003292234144e-04 9.599908778592e-04 0.0 
0.0 0.0 0.0 
-2.067847732520e-03 4.675042369757e-04 0.0 
4.675042369757e-04 1.381098752247e-02 0.0 
0.0 0.0 0.0 
1.110192742971e-03 1.304557126965e-04 0.0 
1.304557126965e-04 3.094907440086e-03 0.0 
0.0 0.0 0.0 
-1.933550079045e-03 2.415866945351e-03 0.0 
2.415866945351e-03 1.378327408068e-02 0.0 
0.0 0.0 0.0 
-5.671769415392e-04 -1.096787924441e-03 0.0 
-1.096787924441e-03 2.061670078383e-03 0.0 
0.0 0.0 0.0 
4.659727897771e-03 4.616791926675e-04 0.0 
4.616791926675e-04 -2.438289549146e-03 0.0 
0.0 0.0 0.0 
5.956199631854e-04 4.538441222661e-03 0.0 
4.538441222661e-03 4.484080782351e-03 0.0 
0.0 0.0 0.0 
-3.015755494943e-03 2.024188259044e-03 0.0 
2.024188259044e-03 1.206151860756e-02 0.0 
0.0 0.0 0.0 
-9.117254668117e-04 1.001471570593e-03 0.0 
1.001471570593e-03 1.513798560875e-02 0.0 
0.0 0.0 0.0 
3.234777062051e-03 3.607190626573e-03 0.0 
3.607190626573e-03 3.817034160892e-04 0.0 
0.0 0.0 0.0 
2.357784188708e-03 1.362269053094e-03 0.0 
1.362269053094e-03 1.720564711939e-03 0.0 
0.0 0.0 0.0 
3.794462660150e-03 7.676609968918e-04 0.0 
7.676609968918e-04 -9.361327423728e-04 0.0 
0.0 0.0 0.0 
-7.332428007343e-04 -9.066344494939e-04 0.0 
-9.066344494939e-04 2.338660004876e-03 0.0 
0.0 0.0 0.0 
6.424256416535e-04 -6.411993338850e-04 0.0 
-6.411993338850e-04 3.316313195651e-03 0.0 
0.0 0.0 0.0 
4.630230092554e-03 2.266091096701e-03 0.0 
2.266091096701e-03 -1.928579013078e-03 0.0 
0.0 0.0 0.0 
-1.284219490993e-03 1.429851556935e-03 0.0 
1.429851556935e-03 1.487871734238e-02 0.0 
0.0 0.0 0.0 
4.609204804394e-04 4.389076941585e-03 0.0 
4.389076941585e-03 6.659758254618e-03 0.0 
0.0 0.0 0.0 
5.125891315844e-03 9.324341077476e-04 0.0 
9.324341077476e-04 -3.114405472627e-03 0.0 
0.0 0.0 0.0 
-1.653649205701e-03 1.881576351907e-03 0.0 
1.881576351907e-03 1.446974704944e-02 0.0 
0.0 0.0 0.0 
3.087688348866e-03 -1.348375346351e-03 0.0 
-1.348375346351e-03 -1.313583998600e-03 0.0 
0.0 0.0 0.0 
2.486479126881e-03 2.375836930173e-03 0.0 
2.375836930173e-03 2.041178680067e-03 0.0 
0.0 0.0 0.0 
-9.600874553522e-04 4.313781029782e-03 0.0 
4.313781029782e-03 7.337708710497e-03 0.0 
0.0 0.0 0.0 
3.687396494446e-04 4.560397702969e-03 0.0 
4.560397702969e-03 5.977932440869e-03 0.0 
0.0 0.0 0.0 
-1.058786936009e-03 4.149403403045e-03 0.0 
4.149403403045e-03 9.567831279349e-03 0.0 
0.0 0.0 0.0 
1.745017644603e-03 4.339064778919e-03 0.0 
4.339064778919e-03 3.102605529843e-03 0.0 
0.0 0.0 0.0 
-8.136908400478e-04 -3.773201324769e-04 0.0 
-3.773201324769e-04 4.306745391355e-03 0.0 
0.0 0.0 0.0 
9.544109264313e-04 -6.646368874159e-04 0.0 
-6.646368874159e-04 2.761970384107e-03 0.0 
0.0 0.0 0.0 
3.450467788130e-03 -1.232412758544e-03 0.0 
-1.232412758544e-03 -4.308164799138e-03 0.0 
0.0 0.0 0.0 
1.660354584113e-03 4.191632756624e-03 0.0 
4.191632756624e-03 1.524996568800e-03 0.0 
0.0 0.0 0.0 
-2.348484203148e-03 1.465085146865e-03 0.0 
1.465085146865e-03 1.391565304855e-02 0.0 
0.0 0.0 0.0 
9.213710203392e-04 4.172354189104e-03 0.0 
4.172354189104e-03 6.054461428160e-03 0.0 
0.0 0.0 0.0 
-9.302191814711e-04 1.602023699088e-03 0.0 
1.602023699088e-03 1.501183711812e-02 0.0 
0.0 0.0 0.0 
4.477845327350e-04 4.498025421369e-03 0.0 
4.498025421369e-03 4.373187778097e-03 0.0 
0.0 0.0 0.0 
4.690899297898e-04 -7.841240125582e-04 0.0 
-7.841240125582e-04 3.335541642530e-03 0.0 
0.0 0.0 0.0 
-1.296446810348e-03 2.097181577813e-03 0.0 
2.097181577813e-03 1.457930639745e-02 0.0 
0.0 0.0 0.0 
5.435694630977e-04 -1.968488632537e-03 0.0 
-1.968488632537e-03 1.406803273635e-03 0.0 
0.0 0.0 0.0 
-1.602640370296e-04 -1.468905192855e-04 0.0 
-1.468905192855e-04 1.726741767465e-03 0.0 
0.0 0.0 0.0 
2.141547962305e-03 3.415581067051e-03 0.0 
3.415581067051e-03 -2.603846807234e-03 0.0 
0.0 0.0 0.0 
4.914011016097e-03 8.805904112437e-04 0.0 
8.805904112437e-04 -3.574027079868e-03 0.0 
0.0 0.0 0.0 
3.825122178344e-03 3.264459405868e-03 0.0 
3.264459405868e-03 -6.412461769954e-04 0.0 
0.0 0.0 0.0 
5.525065138468e-04 -1.769505646078e-03 0.0 
-1.769505646078e-03 1.699115078697e-03 0.0 
0.0 0.0 0.0 
-9.326045362954e-04 3.282782637598e-03 0.0 
3.282782637598e-03 1.360357765681e-02 0.0 
0.0 0.0 0.0 
2.244787011142e-04 -6.965548786353e-04 0.0 
-6.965548786353e-04 3.833261180107e-03 0.0 
0.0 0.0 0.0 
2.239994490536e-03 -2.042972903851e-04 0.0 
-2.042972903851e-04 1.062828047190e-03 0.0 
0.0 0.0 0.0 
-1.448907167248e-03 3.769816664730e-03 0.0 
3.769816664730e-03 7.162967496179e-04 0.0 
0.0 0.0 0.0 
-2.825652040032e-03 2.709829573290e-03 0.0 
2.709829573290e-03 1.148005720858e-02 0.0 
0.0 0.0 0.0 
2.779804706462e-05 -6.072649310486e-04 0.0 
-6.072649310486e-04 4.287322336016e-03 0.0 
0.0 0.0 0.0 
4.218632259100e-03 -2.395375219190e-05 0.0 
-2.395375219190e-05 -2.041292357281e-03 0.0 
0.0 0.0 0.0 
2.327001203476e-03 2.064265711858e-03 0.0 
2.064265711858e-03 2.118039735446e-03 0.0 
0.0 0.0 0.0 
-1.098273147887e-03 -3.886912762402e-04 0.0 
-3.886912762402e-04 3.766094865732e-03 0.0 
0.0 0.0 0.0 
4.859903245632e-04 4.415381986414e-03 0.0 
4.415381986414e-03 7.229701167126e-03 0.0 
0.0 0.0 0.0 
-1.816112668418e-03 3.738338915075e-03 0.0 
3.738338915075e-03 8.220275126390e-03 0.0 
0.0 0.0 0.0 
-1.199928149852e-04 -5.226532516170e-04 0.0 
-5.226532516170e-04 4.699126003440e-03 0.0 
0.0 0.0 0.0 
2.649861541668e-03 4.338694184776e-04 0.0 
4.338694184776e-04 7.955824192343e-04 0.0 
0.0 0.0 0.0 
3.405291088151e-03 3.566962520901e-03 0.0 
3.566962520901e-03 -1.155702344906e-03 0.0 
0.0 0.0 0.0 
-1.847279196337e-03 4.592636177825e-05 0.0 
4.592636177825e-05 1.310503500377e-02 0.0 
0.0 0.0 0.0 
-9.486209635991e-05 -4.544434291692e-04 0.0 
-4.544434291692e-04 5.159451277047e-03 0.0 
0.0 0.0 0.0 
2.190730646025e-03 6.756215124305e-04 0.0 
6.756215124305e-04 1.636633680519e-03 0.0 
0.0 0.0 0.0 
1.729782561106e-03 4.274165782980e-03 0.0 
4.274165782980e-03 3.501485511693e-03 0.0 
0.0 0.0 0.0 
3.971360497747e-03 -5.944885873475e-04 0.0 
-5.944885873475e-04 -2.022735145922e-03 0.0 
0.0 0.0 0.0 
-2.926226492981e-03 2.651203053045e-03 0.0 
2.651203053045e-03 1.100847023910e-02 0.0 
0.0 0.0 0.0 
2.354830929665e-04 -1.577501693457e-03 0.0 
-1.577501693457e-03 2.263755052717e-03 0.0 
0.0 0.0 0.0 
-1.916097613425e-05 4.506412460273e-03 0.0 
4.506412460273e-03 7.005762251925e-03 0.0 
0.0 0.0 0.0 
-4.596087764986e-04 2.845774466342e-03 0.0 
2.845774466342e-03 1.438951544554e-02 0.0 
0.0 0.0 0.0 
2.030918041901e-03 1.096562817596e-03 0.0 
1.096562817596e-03 2.047398075119e-03 0.0 
0.0 0.0 0.0 
-2.267582541811e-03 2.868612225274e-03 0.0 
2.868612225274e-03 1.260694930210e-02 0.0 
0.0 0.0 0.0 
-7.676811235587e-05 -1.554061360276e-03 0.0 
-1.554061360276e-03 2.484540096326e-03 0.0 
0.0 0.0 0.0 
2.995965093324e-03 3.093632721125e-03 0.0 
3.093632721125e-03 1.310039557913e-03 0.0 
0.0 0.0 0.0 
8.799079174493e-04 -3.260580659950e-04 0.0 
-3.260580659950e-04 5.135590670997e-04 0.0 
0.0 0.0 0.0 
-2.464768031497e-03 3.292978611966e-03 0.0 
3.292978611966e-03 1.003365802380e-02 0.0 
0.0 0.0 0.0 
-3.122812352869e-04 -1.318841584129e-03 0.0 
-1.318841584129e-03 2.953099131608e-03 0.0 
0.0 0.0 0.0 
4.951772989547e-03 4.901509721039e-05 0.0 
4.901509721039e-05 -3.600824639021e-03 0.0 
0.0 0.0 0.0 
3.438233486109e-03 -9.054250940092e-04 0.0 
-9.054250940092e-04 -1.489378602180e-03 0.0 
0.0 0.0 0.0 
1.262185655634e-03 3.213368269400e-03 0.0 
3.213368269400e-03 4.428199197299e-03 0.0 
0.0 0.0 0.0 
-5.000623983618e-04 -1.077730199435e-03 0.0 
-1.077730199435e-03 3.368289791056e-03 0.0 
0.0 0.0 0.0 
5.036400730676e-03 1.381387937841e-04 0.0 
1.381387937841e-04 -3.361920715247e-03 0.0 
0.0 0.0 0.0 
-6.436569810174e-04 -8.388039418310e-04 0.0 
-8.388039418310e-04 3.730392292489e-03 0.0 
0.0 0.0 0.0 
-2.331568326825e-03 3.328875407176e-03 0.0 
3.328875407176e-03 9.278883020757e-03 0.0 
0.0 0.0 0.0 
-2.004939967514e-03 3.233512897133e-03 0.0 
3.233512897133e-03 1.215686503976e-02 0.0 
0.0 0.0 0.0 
-7.495008714488e-04 -6.045824610051e-04 0.0 
-6.045824610051e-04 4.047167836400e-03 0.0 
0.0 0.0 0.0 
6.851200224804e-05 4.423891999729e-03 0.0 
4.423891999729e-03 7.298466643423e-03 0.0 
0.0 0.0 0.0 
4.853758474712e-04 -6.148020740470e-04 0.0 
-6.148020740470e-04 6.802663005384e-04 0.0 
0.0 0.0 0.0 
2.102746640139e-03 4.017882854865e-03 0.0 
4.017882854865e-03 2.944328634091e-03 0.0 
0.0 0.0 0.0 
-4.898771850390e-04 -2.189592963821e-04 0.0 
-2.189592963821e-04 5.195852811491e-03 0.0 
0.0 0.0 0.0 
1.226428528019e-03 -2.573762565099e-03 0.0 
-2.573762565099e-03 2.891742245544e-05 0.0 
0.0 0.0 0.0 
2.976450375267e-03 -1.147174919737e-03 0.0 
-1.147174919737e-03 -9.646651078543e-04 0.0 
0.0 0.0 0.0 
-1.702290835779e-03 3.388866798171e-03 0.0 
3.388866798171e-03 1.222075130799e-02 0.0 
0.0 0.0 0.0 
-1.766647859078e-03 3.441604960163e-03 0.0 
3.441604960163e-03 7.479666892334e-03 0.0 
0.0 0.0 0.0 
2.797982360550e-03 -8.946171609153e-04 0.0 
-8.946171609153e-04 -4.080338589375e-04 0.0 
0.0 0.0 0.0 
1.210526777179e-04 4.374521698388e-03 0.0 
4.374521698388e-03 7.632038139289e-03 0.0 
0.0 0.0 0.0 
2.382470186017e-03 3.711125183297e-03 0.0 
3.711125183297e-03 2.529518980976e-03 0.0 
0.0 0.0 0.0 
3.626178913261e-03 3.244822820998e-03 0.0 
3.244822820998e-03 -1.599591174121e-04 0.0 
0.0 0.0 0.0 
2.554115225181e-03 -5.398904472825e-04 0.0 
-5.398904472825e-04 3.103506866255e-04 0.0 
0.0 0.0 0.0 
-1.213410604556e-03 3.863467163019e-03 0.0 
3.863467163019e-03 6.353915639689e-03 0.0 
0.0 0.0 0.0 
2.172914382182e-04 -2.292920402440e-03 0.0 
-2.292920402440e-03 8.788925610322e-04 0.0 
0.0 0.0 0.0 
6.882619945092e-05 -2.107338290353e-03 0.0 
-2.107338290353e-03 9.030059167600e-04 0.0 
0.0 0.0 0.0 
4.778397022753e-03 -5.183216389399e-04 0.0 
-5.183216389399e-04 -3.140982219884e-03 0.0 
0.0 0.0 0.0 
-1.663858029854e-04 4.353761772685e-03 0.0 
4.353761772685e-03 8.562844898530e-03 0.0 
0.0 0.0 0.0 
4.838109459494e-04 -2.404771191344e-04 0.0 
-2.404771191344e-04 1.017304361007e-03 0.0 
0.0 0.0 0.0 
-1.355748280433e-03 3.826104171753e-03 0.0 
3.826104171753e-03 1.107130010383e-02 0.0 
0.0 0.0 0.0 
-1.068611952656e-04 -1.916014143317e-03 0.0 
-1.916014143317e-03 8.020931168469e-04 0.0 
0.0 0.0 0.0 
4.367952464454e-03 -1.249616739028e-03 0.0 
-1.249616739028e-03 -3.022454248841e-03 0.0 
0.0 0.0 0.0 
2.199133168650e-03 3.332660861956e-03 0.0 
3.332660861956e-03 3.007358556226e-03 0.0 
0.0 0.0 0.0 
-1.635580545595e-03 5.221517323526e-05 0.0 
5.221517323526e-05 1.411649122095e-02 0.0 
0.0 0.0 0.0 
3.848282445371e-03 -1.656022156077e-03 0.0 
-1.656022156077e-03 -2.529973217909e-03 0.0 
0.0 0.0 0.0 
-5.728576236823e-04 -1.801965096171e-04 0.0 
-1.801965096171e-04 2.193564040042e-03 0.0 
0.0 0.0 0.0 
3.259269424650e-03 -2.136272796980e-03 0.0 
-2.136272796980e-03 -2.132922706893e-03 0.0 
0.0 0.0 0.0 
3.339744360148e-03 3.204919146892e-03 0.0 
3.204919146892e-03 5.126033831604e-04 0.0 
0.0 0.0 0.0 
2.676108330517e-03 -2.227769359029e-03 0.0 
-2.227769359029e-03 -1.441602109089e-03 0.0 
0.0 0.0 0.0 
2.122349122171e-03 -2.481623519778e-03 0.0 
-2.481623519778e-03 -9.563631459039e-04 0.0 
0.0 0.0 0.0 
-6.946464969959e-04 9.105291226391e-04 0.0 
9.105291226391e-04 1.525874125548e-02 0.0 
0.0 0.0 0.0 
1.717622191607e-03 -2.491183972586e-03 0.0 
-2.491183972586e-03 -4.206603159248e-04 0.0 
0.0 0.0 0.0 
-3.070866347676e-04 2.651060203602e-04 0.0 
2.651060203602e-04 1.551270461087e-02 0.0 
0.0 0.0 0.0 
-1.800337599371e-04 -1.792889055859e-04 0.0 
-1.792889055859e-04 5.853138576027e-03 0.0 
0.0 0.0 0.0 
-1.798846242605e-03 2.370505093311e-05 0.0 
2.370505093311e-05 1.339965755918e-02 0.0 
0.0 0.0 0.0 
-1.564926881895e-03 3.478425462594e-03 0.0 
3.478425462594e-03 6.041558787297e-03 0.0 
0.0 0.0 0.0 
-1.849287069327e-03 1.987752757258e-04 0.0 
1.987752757258e-04 -3.841936023631e-03 0.0 
0.0 0.0 0.0 
-7.399921819340e-04 3.877223221665e-03 0.0 
3.877223221665e-03 4.497731138275e-03 0.0 
0.0 0.0 0.0 
1.063020739216e-03 -2.660079766487e-03 0.0 
-2.660079766487e-03 3.230510639333e-05 0.0 
0.0 0.0 0.0 
-8.607129999420e-04 4.164884431223e-03 0.0 
4.164884431223e-03 9.727565597408e-03 0.0 
0.0 0.0 0.0 
-1.810767999395e-03 6.399545383759e-05 0.0 
6.399545383759e-05 1.342087440027e-02 0.0 
0.0 0.0 0.0 
5.909224572432e-04 -2.546042543334e-03 0.0 
-2.546042543334e-03 4.976197332781e-04 0.0 
0.0 0.0 0.0 
-5.073586658705e-04 4.343946454338e-03 0.0 
4.343946454338e-03 1.135049223786e-02 0.0 
0.0 0.0 0.0 
3.695550896910e-04 4.319676842211e-03 0.0 
4.319676842211e-03 6.868693304089e-03 0.0 
0.0 0.0 0.0 
-1.423283640189e-03 1.747956369379e-04 0.0 
1.747956369379e-04 1.457378826554e-02 0.0 
0.0 0.0 0.0 
2.091138345215e-03 1.787564580278e-03 0.0 
1.787564580278e-03 2.282974027958e-03 0.0 
0.0 0.0 0.0 
2.550846638460e-03 3.376239517932e-03 0.0 
3.376239517932e-03 2.261888401580e-03 0.0 
0.0 0.0 0.0 
-8.647855652384e-04 1.279740284957e-04 0.0 
1.279740284957e-04 1.517486844641e-02 0.0 
0.0 0.0 0.0 
-1.971090058619e-03 1.173933594377e-04 0.0 
1.173933594377e-04 1.309441361223e-02 0.0 
0.0 0.0 0.0 
-3.226811741695e-04 -9.624486254805e-04 0.0 
-9.624486254805e-04 6.314711295248e-04 0.0 
0.0 0.0 0.0 
-8.170225571525e-04 -1.723775778585e-04 0.0 
-1.723775778585e-04 4.530292454843e-03 0.0 
0.0 0.0 0.0 
-1.448660385205e-03 3.533611323246e-03 0.0 
3.533611323246e-03 4.620135880031e-03 0.0 
0.0 0.0 0.0 
-6.109402475403e-04 3.844524117147e-03 0.0 
3.844524117147e-03 3.077303861422e-03 0.0 
0.0 0.0 0.0 
-4.394481890351e-04 3.938325371550e-03 0.0 
3.938325371550e-03 1.717915238972e-03 0.0 
0.0 0.0 0.0 
-8.684280443498e-04 -6.844584676528e-04 0.0 
-6.844584676528e-04 2.565906140428e-03 0.0 
0.0 0.0 0.0 
-3.616052123763e-04 -2.715354214480e-03 0.0 
-2.715354214480e-03 4.394638295279e-04 0.0 
0.0 0.0 0.0 
-1.272968246638e-03 3.642476913994e-03 0.0 
3.642476913994e-03 3.330672073746e-03 0.0 
0.0 0.0 0.0 
1.261380068032e-03 2.231907432600e-03 0.0 
2.231907432600e-03 3.682027648251e-03 0.0 
0.0 0.0 0.0 
-2.255935158416e-03 4.669279953683e-04 0.0 
4.669279953683e-04 1.345128188436e-02 0.0 
0.0 0.0 0.0 
1.802701882095e-03 3.582856619776e-03 0.0 
3.582856619776e-03 3.890314053909e-03 0.0 
0.0 0.0 0.0 
-1.266109403266e-03 3.718236443776e-03 0.0 
3.718236443776e-03 2.113527734209e-03 0.0 
0.0 0.0 0.0 
-8.946024585825e-04 2.304974434204e-03 0.0 
2.304974434204e-03 1.463902321155e-02 0.0 
0.0 0.0 0.0 
9.503506900483e-04 3.752232883982e-03 0.0 
3.752232883982e-03 5.400926246638e-03 0.0 
0.0 0.0 0.0 
1.525368819484e-04 -3.706191234129e-04 0.0 
-3.706191234129e-04 4.916288851164e-03 0.0 
0.0 0.0 0.0 
1.431473371899e-03 3.621744413125e-03 0.0 
3.621744413125e-03 4.586158801359e-03 0.0 
0.0 0.0 0.0 
-2.875969431838e-04 4.070078112009e-03 0.0 
4.070078112009e-03 2.325043467090e-04 0.0 
0.0 0.0 0.0 
-2.618553734830e-03 1.296287219748e-03 0.0 
1.296287219748e-03 1.350778331904e-02 0.0 
0.0 0.0 0.0 
1.379122232487e-04 4.611382296239e-03 0.0 
4.611382296239e-03 8.616748441878e-03 0.0 
0.0 0.0 0.0 
-1.304134894876e-03 2.983474889461e-04 0.0 
2.983474889461e-04 1.479194374996e-02 0.0 
0.0 0.0 0.0 
3.007944534528e-05 -4.511374373711e-04 0.0 
-4.511374373711e-04 5.267913297778e-03 0.0 
0.0 0.0 0.0 
-2.468172580691e-03 6.974335306528e-04 0.0 
6.974335306528e-04 1.336991982095e-02 0.0 
0.0 0.0 0.0 
-5.896080157817e-04 5.952244065040e-04 0.0 
5.952244065040e-04 1.533977849601e-02 0.0 
0.0 0.0 0.0 
3.051557076286e-03 -2.444034887980e-03 0.0 
-2.444034887980e-03 -3.929372885585e-03 0.0 
0.0 0.0 0.0 
-5.568935147295e-04 3.071144244776e-04 0.0 
3.071144244776e-04 1.537159993470e-02 0.0 
0.0 0.0 0.0 
-6.793493228086e-04 4.218641115370e-03 0.0 
4.218641115370e-03 9.926874268023e-03 0.0 
0.0 0.0 0.0 
-1.815855511562e-03 2.401514847158e-04 0.0 
2.401514847158e-04 1.388709115716e-02 0.0 
0.0 0.0 0.0 
-2.762405181572e-03 1.864920432222e-03 0.0 
1.864920432222e-03 1.313651418580e-02 0.0 
0.0 0.0 0.0 
-2.488559834600e-04 -2.686153775861e-04 0.0 
-2.686153775861e-04 5.586590753241e-03 0.0 
0.0 0.0 0.0 
-7.431174736825e-04 3.922601184561e-03 0.0 
3.922601184561e-03 1.253599013202e-02 0.0 
0.0 0.0 0.0 
-1.273678005527e-04 4.116846286077e-03 0.0 
4.116846286077e-03 -1.022737672185e-03 0.0 
0.0 0.0 0.0 
-1.470000802452e-03 2.652660178544e-04 0.0 
2.652660178544e-04 1.456032506243e-02 0.0 
0.0 0.0 0.0 
-9.325367218171e-04 -1.038116064183e-03 0.0 
-1.038116064183e-03 2.832164384355e-03 0.0 
0.0 0.0 0.0 
4.670937963611e-04 -1.994579366014e-03 0.0 
-1.994579366014e-03 -3.890501369690e-03 0.0 
0.0 0.0 0.0 
5.476599757234e-04 -1.602375604998e-04 0.0 
-1.602375604998e-04 4.027044437592e-03 0.0 
0.0 0.0 0.0 
-5.106744573439e-04 4.306939241252e-03 0.0 
4.306939241252e-03 1.014504676992e-02 0.0 
0.0 0.0 0.0 
-1.686726543747e-04 -3.967601185555e-04 0.0 
-3.967601185555e-04 5.365208204261e-03 0.0 
0.0 0.0 0.0 
1.074798436534e-03 -3.354323497292e-05 0.0 
-3.354323497292e-05 4.490377880244e-04 0.0 
0.0 0.0 0.0 
2.255335979130e-04 -6.107918535005e-04 0.0 
-6.107918535005e-04 3.776329879888e-04 0.0 
0.0 0.0 0.0 
7.612871046764e-04 2.359421635570e-04 0.0 
2.359421635570e-04 3.762656532740e-03 0.0 
0.0 0.0 0.0 
-2.224355398341e-04 4.596161147081e-03 0.0 
4.596161147081e-03 1.014907658552e-02 0.0 
0.0 0.0 0.0 
2.679633659291e-03 -3.058945104294e-03 0.0 
-3.058945104294e-03 -2.858901696963e-03 0.0 
0.0 0.0 0.0 
-3.724608830999e-04 2.015677901622e-03 0.0 
2.015677901622e-03 1.500532347639e-02 0.0 
0.0 0.0 0.0 
-5.980920079899e-04 3.670461533961e-03 0.0 
3.670461533961e-03 -2.049234526533e-03 0.0 
0.0 0.0 0.0 
-2.087490874504e-03 1.891976286792e-04 0.0 
1.891976286792e-04 1.306433370329e-02 0.0 
0.0 0.0 0.0 
8.842518978909e-04 -4.817856040693e-04 0.0 
-4.817856040693e-04 1.588021322911e-04 0.0 
0.0 0.0 0.0 
-2.752378549071e-05 -4.622205583350e-04 0.0 
-4.622205583350e-04 5.490721240533e-03 0.0 
0.0 0.0 0.0 
-7.224182029685e-04 1.482114048559e-03 0.0 
1.482114048559e-03 1.511949443666e-02 0.0 
0.0 0.0 0.0 
-1.108621236689e-03 -6.889613236210e-04 0.0 
-6.889613236210e-04 3.259140655074e-03 0.0 
0.0 0.0 0.0 
-2.869105910121e-03 1.365384899544e-03 0.0 
1.365384899544e-03 1.285425320024e-02 0.0 
0.0 0.0 0.0 
-7.563552036698e-04 -4.131435019865e-04 0.0 
-4.131435019865e-04 2.429081111779e-03 0.0 
0.0 0.0 0.0 
7.644187296214e-04 4.252121769396e-03 0.0 
4.252121769396e-03 6.460062544027e-03 0.0 
0.0 0.0 0.0 
-4.164856505559e-04 -1.580297741053e-03 0.0 
-1.580297741053e-03 7.894323117093e-04 0.0 
0.0 0.0 0.0 
-6.300574990684e-04 1.090180617072e-03 0.0 
1.090180617072e-03 1.525859549914e-02 0.0 
0.0 0.0 0.0 
9.504654532652e-04 8.101393384470e-04 0.0 
8.101393384470e-04 3.586662232187e-03 0.0 
0.0 0.0 0.0 
-8.283394605951e-04 3.100621194620e-03 0.0 
3.100621194620e-03 1.393525381503e-02 0.0 
0.0 0.0 0.0 
4.924500390429e-04 3.086975188785e-03 0.0 
3.086975188785e-03 5.221064116231e-03 0.0 
0.0 0.0 0.0 
8.472814355120e-05 1.070172033940e-03 0.0 
1.070172033940e-03 -4.215854240379e-03 0.0 
0.0 0.0 0.0 
7.155625371077e-04 4.046949992759e-03 0.0 
4.046949992759e-03 6.098447812662e-03 0.0 
0.0 0.0 0.0 
1.597910347030e-03 1.245885072963e-03 0.0 
1.245885072963e-03 2.777913972896e-03 0.0 
0.0 0.0 0.0 
-1.906958691361e-03 8.854582259343e-05 0.0 
8.854582259343e-05 1.308280991770e-02 0.0 
0.0 0.0 0.0 
-8.104714649015e-04 3.556243704534e-03 0.0 
3.556243704534e-03 1.322921716383e-02 0.0 
0.0 0.0 0.0 
-1.000832941035e-03 -6.920486067251e-04 0.0 
-6.920486067251e-04 2.816974571812e-03 0.0 
0.0 0.0 0.0 
2.970067673594e-04 -6.084760425180e-04 0.0 
-6.084760425180e-04 9.905686815412e-04 0.0 
0.0 0.0 0.0 
-2.509911089097e-04 1.296538898457e-04 0.0 
1.296538898457e-04 1.554226120872e-02 0.0 
0.0 0.0 0.0 
2.364118667362e-03 -8.473349865394e-06 0.0 
-8.473349865394e-06 -8.100130397850e-04 0.0 
0.0 0.0 0.0 
-1.827560200497e-03 7.406966898791e-06 0.0 
7.406966898791e-06 1.304084566531e-02 0.0 
0.0 0.0 0.0 
-1.497262880837e-04 -7.764240681209e-05 0.0 
-7.764240681209e-05 5.955843449847e-03 0.0 
0.0 0.0 0.0 
5.514546905278e-04 -3.304707926025e-04 0.0 
-3.304707926025e-04 8.947089870326e-04 0.0 
0.0 0.0 0.0 
-1.764754924618e-03 6.777406872329e-05 0.0 
6.777406872329e-05 1.368204087074e-02 0.0 
0.0 0.0 0.0 
-3.485565661884e-04 4.510025476731e-03 0.0 
4.510025476731e-03 1.079052798966e-02 0.0 
0.0 0.0 0.0 
-1.114090238885e-03 -1.744526985957e-04 0.0 
-1.744526985957e-04 3.865891666421e-03 0.0 
0.0 0.0 0.0 
-1.018233058683e-03 2.117315530897e-04 0.0 
2.117315530897e-04 1.504249584441e-02 0.0 
0.0 0.0 0.0 
3.559954891678e-04 -3.273552679991e-03 0.0 
-3.273552679991e-03 -3.903084172017e-04 0.0 
0.0 0.0 0.0 
-2.161357099616e-03 -6.049602232405e-04 0.0 
-6.049602232405e-04 -3.650549029297e-03 0.0 
0.0 0.0 0.0 
-1.574423951220e-03 1.180581578920e-04 0.0 
1.180581578920e-04 1.429384738403e-02 0.0 
0.0 0.0 0.0 
9.578856053056e-04 3.513879779370e-03 0.0 
3.513879779370e-03 5.070284429215e-03 0.0 
0.0 0.0 0.0 
-8.015358155279e-04 2.579483406170e-03 0.0 
2.579483406170e-03 1.447857775194e-02 0.0 
0.0 0.0 0.0 
-1.735759258984e-03 2.380798263448e-04 0.0 
2.380798263448e-04 1.407342707195e-02 0.0 
0.0 0.0 0.0 
1.177722086476e-03 3.772011470937e-03 0.0 
3.772011470937e-03 -2.184142446392e-03 0.0 
0.0 0.0 0.0 
-3.867571034770e-04 4.444076192425e-03 0.0 
4.444076192425e-03 1.032050514828e-02 0.0 
0.0 0.0 0.0 
-1.083728367645e-03 -6.890467224655e-04 0.0 
-6.890467224655e-04 3.391093898910e-03 0.0 
0.0 0.0 0.0 
2.909782461529e-04 4.488372214138e-03 0.0 
4.488372214138e-03 7.937070594999e-03 0.0 
0.0 0.0 0.0 
1.648889263898e-03 1.922226662139e-03 0.0 
1.922226662139e-03 3.008576906401e-03 0.0 
0.0 0.0 0.0 
-1.763896361235e-03 3.863199569156e-03 0.0 
3.863199569156e-03 -1.388736565786e-03 0.0 
0.0 0.0 0.0 
-1.039655695668e-03 -1.390896979442e-04 0.0 
-1.390896979442e-04 4.057524169838e-03 0.0 
0.0 0.0 0.0 
7.150142102677e-04 -5.190715694124e-04 0.0 
-5.190715694124e-04 1.809062555411e-04 0.0 
0.0 0.0 0.0 
1.967089541613e-04 -4.294464313632e-04 0.0 
-4.294464313632e-04 4.690245797247e-03 0.0 
0.0 0.0 0.0 
-1.127195347204e-03 -4.774649886218e-04 0.0 
-4.774649886218e-04 3.575286840479e-03 0.0 
0.0 0.0 0.0 
-2.845331185719e-03 1.088921410899e-03 0.0 
1.088921410899e-03 1.208351385519e-02 0.0 
0.0 0.0 0.0 
-1.841314251371e-03 2.627834819570e-06 0.0 
2.627834819570e-06 1.212196742106e-02 0.0 
0.0 0.0 0.0 
-2.835535053052e-03 1.060559602730e-03 0.0 
1.060559602730e-03 1.239325290007e-02 0.0 
0.0 0.0 0.0 
-1.837096369069e-03 4.303739910332e-06 0.0 
4.303739910332e-06 1.252036509215e-02 0.0 
0.0 0.0 0.0 

TENSORS node_materi_strain_plasti float
2.934499401238e-03 -6.293764513238e-05 0.0 
-6.293764513238e-05 -1.067748591947e-03 0.0 
0.0 0.0 -1.096634683480e-04 
-1.402797370443e-03 -1.078294972551e-04 0.0 
-1.078294972551e-04 4.900277451411e-03 0.0 
0.0 0.0 -6.959116756397e-04 
-1.452967895051e-03 -5.509598229541e-05 0.0 
-5.509598229541e-05 7.203997768270e-03 0.0 
0.0 0.0 -1.332621093165e-03 
-1.383162840862e-03 -3.297498286580e-05 0.0 
-3.297498286580e-05 8.816768276200e-03 0.0 
0.0 0.0 -1.332621093165e-03 
2.013745495957e-03 -6.316916865917e-05 0.0 
-6.316916865917e-05 -5.120452549012e-04 0.0 
0.0 0.0 -2.200719611176e-04 
9.770148188976e-04 3.431498766894e-05 0.0 
3.431498766894e-05 4.169221136190e-04 0.0 
0.0 0.0 -3.137585542919e-04 
-7.178028314759e-05 -1.232028049961e-08 0.0 
-1.232028049961e-08 1.149279144839e-03 0.0 
0.0 0.0 -2.794359002296e-04 
-6.436375512209e-04 -1.276790241492e-05 0.0 
-1.276790241492e-05 1.873669559697e-03 0.0 
0.0 0.0 -3.439875543896e-04 
-7.879199919424e-04 -6.957800867177e-05 0.0 
-6.957800867177e-05 2.362265819291e-03 0.0 
0.0 0.0 -5.230155850880e-04 
-9.090757292185e-04 -8.706192601079e-05 0.0 
-8.706192601079e-05 2.790274002592e-03 0.0 
0.0 0.0 -6.679173279409e-04 
-1.029732123068e-03 -9.763895695819e-05 0.0 
-9.763895695819e-05 3.189834221624e-03 0.0 
0.0 0.0 -7.858430676574e-04 
-1.146480183378e-03 -1.186695020361e-04 0.0 
-1.186695020361e-04 3.556707151380e-03 0.0 
0.0 0.0 -8.797909670055e-04 
-1.263272361791e-03 -1.272958726748e-04 0.0 
-1.272958726748e-04 3.899470374148e-03 0.0 
0.0 0.0 -9.497524971825e-04 
-1.384672616284e-03 -1.145152012545e-04 0.0 
-1.145152012545e-04 4.236966414279e-03 0.0 
0.0 0.0 -1.004045332643e-03 
-1.526674903082e-03 -6.496102058636e-05 0.0 
-6.496102058636e-05 4.605045077914e-03 0.0 
0.0 0.0 -1.040527029177e-03 
-1.665462947768e-03 -2.107388054909e-05 0.0 
-2.107388054909e-05 4.948618842847e-03 0.0 
0.0 0.0 -1.059523297737e-03 
-1.782894097401e-03 -3.343512703910e-06 0.0 
-3.343512703910e-06 5.233549116132e-03 0.0 
0.0 0.0 -1.072054170059e-03 
-1.938902930101e-03 -9.696053467476e-05 0.0 
-9.696053467476e-05 5.600248017308e-03 0.0 
0.0 0.0 -1.073655443973e-03 
-2.100363589718e-03 -8.662704783515e-05 0.0 
-8.662704783515e-05 5.970821215845e-03 0.0 
0.0 0.0 -1.067605311830e-03 
-2.135124898814e-03 -7.268436157999e-05 0.0 
-7.268436157999e-05 6.300803109141e-03 0.0 
0.0 0.0 -1.091655094700e-03 
-2.004143563035e-03 -6.534761213825e-05 0.0 
-6.534761213825e-05 6.588381292475e-03 0.0 
0.0 0.0 -1.158330123333e-03 
-1.835283495390e-03 -5.008648858264e-05 0.0 
-5.008648858264e-05 6.864752160643e-03 0.0 
0.0 0.0 -1.226073836101e-03 
-1.640741500190e-03 -2.858138524020e-05 0.0 
-2.858138524020e-05 7.123085926045e-03 0.0 
0.0 0.0 -1.289832767750e-03 
-1.368677421570e-03 1.600785886141e-04 0.0 
1.600785886141e-04 8.818553082708e-03 0.0 
0.0 0.0 -1.336902025401e-03 
-1.377365391022e-03 2.999124352866e-04 0.0 
2.999124352866e-04 8.800585598907e-03 0.0 
0.0 0.0 -1.332945767435e-03 
-1.378029629414e-03 3.844218527142e-04 0.0 
3.844218527142e-04 8.780564209488e-03 0.0 
0.0 0.0 -1.334903170087e-03 
-1.378699113984e-03 6.281396802948e-04 0.0 
6.281396802948e-04 8.766528136653e-03 0.0 
0.0 0.0 -1.334459899807e-03 
-1.385861616700e-03 7.361442488981e-04 0.0 
7.361442488981e-04 8.736115872586e-03 0.0 
0.0 0.0 -1.332067731643e-03 
-1.380170718422e-03 9.112443166240e-04 0.0 
9.112443166240e-04 8.705993944759e-03 0.0 
0.0 0.0 -1.335050935171e-03 
-1.376694153872e-03 1.085769035599e-03 0.0 
1.085769035599e-03 8.675777653225e-03 0.0 
0.0 0.0 -1.335055123498e-03 
-1.386603367251e-03 1.256067884305e-03 0.0 
1.256067884305e-03 8.631282104952e-03 0.0 
0.0 0.0 -1.333530254363e-03 
-1.385927681412e-03 1.401216317866e-03 0.0 
1.401216317866e-03 8.584979043230e-03 0.0 
0.0 0.0 -1.336259905589e-03 
-1.382886472311e-03 1.656515799073e-03 0.0 
1.656515799073e-03 8.524207830888e-03 0.0 
0.0 0.0 -1.335712483792e-03 
-1.394014418558e-03 1.806002472474e-03 0.0 
1.806002472474e-03 8.445999086005e-03 0.0 
0.0 0.0 -1.333313947604e-03 
-1.390408237112e-03 2.011066343467e-03 0.0 
2.011066343467e-03 8.361388601017e-03 0.0 
0.0 0.0 -1.335862559377e-03 
-1.384222329824e-03 2.219576262539e-03 0.0 
2.219576262539e-03 8.276324698237e-03 0.0 
0.0 0.0 -1.336097458551e-03 
-1.389035125892e-03 2.412450494632e-03 0.0 
2.412450494632e-03 8.157453667495e-03 0.0 
0.0 0.0 -1.335235043394e-03 
-1.385735689378e-03 2.596152172723e-03 0.0 
2.596152172723e-03 8.026403168300e-03 0.0 
0.0 0.0 -1.334297546486e-03 
-1.387385464636e-03 2.793709716201e-03 0.0 
2.793709716201e-03 7.870413974245e-03 0.0 
0.0 0.0 -1.332308435384e-03 
-1.390045521020e-03 2.956478596536e-03 0.0 
2.956478596536e-03 7.707669454312e-03 0.0 
0.0 0.0 -1.332019584455e-03 
-1.374441407390e-03 3.130356841580e-03 0.0 
3.130356841580e-03 7.548288379511e-03 0.0 
0.0 0.0 -1.333392124151e-03 
-1.370916614240e-03 3.263121805825e-03 0.0 
3.263121805825e-03 7.369253492750e-03 0.0 
0.0 0.0 -1.334727449481e-03 
-1.360841402714e-03 3.372289688876e-03 0.0 
3.372289688876e-03 7.166176364928e-03 0.0 
0.0 0.0 -1.336576889699e-03 
-1.346336485325e-03 3.461253780169e-03 0.0 
3.461253780169e-03 6.951403103377e-03 0.0 
0.0 0.0 -1.335888391555e-03 
-1.332890796825e-03 3.468370162717e-03 0.0 
3.468370162717e-03 6.730314385053e-03 0.0 
0.0 0.0 -1.334783226448e-03 
-1.319924003398e-03 3.447235553293e-03 0.0 
3.447235553293e-03 6.491181615044e-03 0.0 
0.0 0.0 -1.335053869153e-03 
-1.304557536433e-03 3.357836383275e-03 0.0 
3.357836383275e-03 6.252969737423e-03 0.0 
0.0 0.0 -1.334960189349e-03 
-1.290544710403e-03 3.217570000044e-03 0.0 
3.217570000044e-03 6.038359705784e-03 0.0 
0.0 0.0 -1.334889991128e-03 
-1.266052279295e-03 3.015967340183e-03 0.0 
3.015967340183e-03 5.820251815716e-03 0.0 
0.0 0.0 -1.335774086633e-03 
-1.268292395628e-03 2.751499810292e-03 0.0 
2.751499810292e-03 5.611006951901e-03 0.0 
0.0 0.0 -1.336605656894e-03 
-1.233716587758e-03 2.428663332176e-03 0.0 
2.428663332176e-03 5.432453778555e-03 0.0 
0.0 0.0 -1.336508443943e-03 
-1.235192718271e-03 2.048692266400e-03 0.0 
2.048692266400e-03 5.281516895731e-03 0.0 
0.0 0.0 -1.335343284290e-03 
-1.233233161047e-03 1.613443115418e-03 0.0 
1.613443115418e-03 5.176753839955e-03 0.0 
0.0 0.0 -1.337998490269e-03 
-1.231527167288e-03 1.237296422517e-03 0.0 
1.237296422517e-03 5.075978590578e-03 0.0 
0.0 0.0 -1.337247094005e-03 
-1.199833465241e-03 7.660071193524e-04 0.0 
7.660071193524e-04 4.984249579952e-03 0.0 
0.0 0.0 -1.333783489999e-03 
-1.202795443341e-03 2.512512957567e-04 0.0 
2.512512957567e-04 4.957451962835e-03 0.0 
0.0 0.0 -1.334548731617e-03 
-1.209938913942e-03 -2.134028709971e-04 0.0 
-2.134028709971e-04 5.026425426342e-03 0.0 
0.0 0.0 -1.334619746794e-03 
-1.216034057197e-03 -6.370386973179e-04 0.0 
-6.370386973179e-04 5.098251117921e-03 0.0 
0.0 0.0 -1.335242115105e-03 
-1.250273571860e-03 -1.037169625291e-03 0.0 
-1.037169625291e-03 5.212102119693e-03 0.0 
0.0 0.0 -1.335691437541e-03 
-1.244652277412e-03 -1.350985257247e-03 0.0 
-1.350985257247e-03 5.369562904984e-03 0.0 
0.0 0.0 -1.335646478247e-03 
-1.280185566221e-03 -1.619011709695e-03 0.0 
-1.619011709695e-03 5.525208807417e-03 0.0 
0.0 0.0 -1.334931242407e-03 
-1.279873673449e-03 -1.816253781483e-03 0.0 
-1.816253781483e-03 5.699667194469e-03 0.0 
0.0 0.0 -1.334100791702e-03 
-1.316092894892e-03 -1.930306284798e-03 0.0 
-1.930306284798e-03 5.897360744271e-03 0.0 
0.0 0.0 -1.332237298415e-03 
-1.332492949627e-03 -1.997739486340e-03 0.0 
-1.997739486340e-03 6.101236304603e-03 0.0 
0.0 0.0 -1.333749945600e-03 
-1.347535005711e-03 -1.949980560505e-03 0.0 
-1.949980560505e-03 6.326575568891e-03 0.0 
0.0 0.0 -1.336652505695e-03 
-1.361718678089e-03 -1.883685554895e-03 0.0 
-1.883685554895e-03 6.509663460433e-03 0.0 
0.0 0.0 -1.337094627689e-03 
-1.399643089063e-03 -1.709140483279e-03 0.0 
-1.709140483279e-03 6.643034708910e-03 0.0 
0.0 0.0 -1.328990728106e-03 
-1.392288690639e-03 -1.485263022766e-03 0.0 
-1.485263022766e-03 6.836967868930e-03 0.0 
0.0 0.0 -1.335900064369e-03 
-1.414556676199e-03 -1.251540022059e-03 0.0 
-1.251540022059e-03 6.954271934946e-03 0.0 
0.0 0.0 -1.332523500780e-03 
-1.412496609790e-03 -1.031814538929e-03 0.0 
-1.031814538929e-03 7.047562735813e-03 0.0 
0.0 0.0 -1.335219049675e-03 
-1.419510763784e-03 -6.645626228058e-04 0.0 
-6.645626228058e-04 7.146959411296e-03 0.0 
0.0 0.0 -1.336566422126e-03 
-1.427684607805e-03 -3.887077461759e-04 0.0 
-3.887077461759e-04 7.195451913880e-03 0.0 
0.0 0.0 -1.335855682064e-03 
-1.453017564014e-03 -6.969271926299e-05 0.0 
-6.969271926299e-05 5.335351891541e-03 0.0 
0.0 0.0 -7.648954205800e-04 
-1.520880417330e-03 -7.433446925198e-05 0.0 
-7.433446925198e-05 5.819919600560e-03 0.0 
0.0 0.0 -8.298981322982e-04 
-1.557423966696e-03 -6.785219458369e-05 0.0 
-6.785219458369e-05 6.258440284560e-03 0.0 
0.0 0.0 -8.959277352460e-04 
-1.578985001560e-03 -6.738694350763e-05 0.0 
-6.738694350763e-05 6.671688470532e-03 0.0 
0.0 0.0 -9.610467530554e-04 
-1.585789406967e-03 -5.141559601497e-05 0.0 
-5.141559601497e-05 7.089803706817e-03 0.0 
0.0 0.0 -1.026987810050e-03 
-1.562649818793e-03 -5.245167551875e-05 0.0 
-5.245167551875e-05 7.497011482479e-03 0.0 
0.0 0.0 -1.092790196867e-03 
-1.539445803207e-03 -3.968004133447e-05 0.0 
-3.968004133447e-05 7.888080790164e-03 0.0 
0.0 0.0 -1.158290425478e-03 
-1.493157212652e-03 -4.236338247704e-05 0.0 
-4.236338247704e-05 8.249034422054e-03 0.0 
0.0 0.0 -1.224481705251e-03 
-1.439591118906e-03 -4.822262499776e-05 0.0 
-4.822262499776e-05 8.655254164316e-03 0.0 
0.0 0.0 -1.288782062784e-03 
8.945882279276e-06 5.320283443327e-04 0.0 
5.320283443327e-04 -8.945882279271e-06 0.0 
0.0 0.0 0.0 
-1.624278093923e-03 1.090396231210e-03 0.0 
1.090396231210e-03 4.601022683819e-03 0.0 
0.0 0.0 -7.280202007920e-04 
-8.113647881872e-06 1.620679403900e-03 0.0 
1.620679403900e-03 4.236879322718e-04 0.0 
0.0 0.0 -1.781032647385e-04 
2.419898888436e-04 1.714650012296e-03 0.0 
1.714650012296e-03 7.169103887313e-04 0.0 
0.0 0.0 -4.109572618178e-04 
1.972324976643e-04 1.872166137481e-03 0.0 
1.872166137481e-03 8.763202269977e-04 0.0 
0.0 0.0 -4.600940248552e-04 
-9.545047460227e-07 1.772850678572e-03 0.0 
1.772850678572e-03 1.137689485315e-03 0.0 
0.0 0.0 -4.871721345294e-04 
-2.294684798328e-04 1.727305058981e-03 0.0 
1.727305058981e-03 1.576796951367e-03 0.0 
0.0 0.0 -5.774264878005e-04 
-4.707427197219e-04 1.761151682502e-03 0.0 
1.761151682502e-03 2.189479290700e-03 0.0 
0.0 0.0 -7.366013875622e-04 
-7.529811060546e-04 1.738233902516e-03 0.0 
1.738233902516e-03 2.841897866327e-03 0.0 
0.0 0.0 -8.183718370474e-04 
-1.093051802687e-03 1.513656886051e-03 0.0 
1.513656886051e-03 3.477220395781e-03 0.0 
0.0 0.0 -7.623417978719e-04 
-1.352818007869e-03 1.227157706519e-03 0.0 
1.227157706519e-03 3.981454431592e-03 0.0 
0.0 0.0 -7.303644794522e-04 
-1.189585908427e-03 -2.001050295746e-04 0.0 
-2.001050295746e-04 4.133545025485e-03 0.0 
0.0 0.0 -5.822222222222e-04 
-1.284181826536e-03 -1.411246795881e-04 0.0 
-1.411246795881e-04 4.401802096581e-03 0.0 
0.0 0.0 -6.266666666667e-04 
-1.371869470260e-03 5.987426434916e-05 0.0 
5.987426434916e-05 4.821720366173e-03 0.0 
0.0 0.0 -6.874962403976e-04 
-1.373883297749e-03 1.733970713616e-05 0.0 
1.733970713616e-05 4.853900323376e-03 0.0 
0.0 0.0 -6.910932206029e-04 
-1.391096625977e-03 2.696117286623e-05 0.0 
2.696117286623e-05 4.858420634372e-03 0.0 
0.0 0.0 -6.911911970487e-04 
-1.403621533613e-03 2.899157745045e-05 0.0 
2.899157745045e-05 4.851539021186e-03 0.0 
0.0 0.0 -6.903356507966e-04 
-1.422086472761e-03 7.127286506100e-05 0.0 
7.127286506100e-05 4.925418991949e-03 0.0 
0.0 0.0 -6.980756478071e-04 
-1.440013737492e-03 8.905228061672e-05 0.0 
8.905228061672e-05 4.855137559965e-03 0.0 
0.0 0.0 -6.911448554634e-04 
-1.457810866496e-03 1.124854279040e-04 0.0 
1.124854279040e-04 4.842862400746e-03 0.0 
0.0 0.0 -6.903833977050e-04 
-1.485479761852e-03 1.763889665616e-04 0.0 
1.763889665616e-04 4.844524201239e-03 0.0 
0.0 0.0 -6.905588330458e-04 
-1.530071715646e-03 2.314067896651e-04 0.0 
2.314067896651e-04 4.843027902445e-03 0.0 
0.0 0.0 -6.922444453805e-04 
-1.565434249602e-03 3.199826070801e-04 0.0 
3.199826070801e-04 4.827774349685e-03 0.0 
0.0 0.0 -6.916098530255e-04 
-1.592220907441e-03 4.164385463974e-04 0.0 
4.164385463974e-04 4.800836260159e-03 0.0 
0.0 0.0 -6.911665914957e-04 
-1.624093306590e-03 5.379923244308e-04 0.0 
5.379923244308e-04 4.762121973516e-03 0.0 
0.0 0.0 -6.926885898885e-04 
-1.636272666442e-03 7.038956101205e-04 0.0 
7.038956101205e-04 4.710840836171e-03 0.0 
0.0 0.0 -6.980272606831e-04 
-1.642234561257e-03 8.946537782645e-04 0.0 
8.946537782645e-04 4.660104212790e-03 0.0 
0.0 0.0 -7.070206663417e-04 
0.0 0.0 0.0 
0.0 0.0 0.0 
0.0 0.0 0.0 
0.0 0.0 0.0 
0.0 0.0 0.0 
0.0 0.0 0.0 
0.0 0.0 0.0 
0.0 0.0 0.0 
0.0 0.0 0.0 
0.0 0.0 0.0 
0.0 0.0 0.0 
0.0 0.0 0.0 
0.0 0.0 0.0 
0.0 0.0 0.0 
0.0 0.0 0.0 
6.460969664659e-05 -1.556902627030e-04 0.0 
-1.556902627030e-04 3.828112054754e-05 0.0 
0.0 0.0 -4.409606451177e-05 
2.290958672754e-04 -1.825778835954e-04 0.0 
-1.825778835954e-04 1.295802149226e-05 0.0 
0.0 0.0 -6.349991864517e-05 
3.258301092639e-04 -1.495010221350e-04 0.0 
-1.495010221350e-04 5.825232736603e-05 0.0 
0.0 0.0 -6.729406355132e-05 
4.308097979006e-04 -2.272179296947e-04 0.0 
-2.272179296947e-04 4.144525422736e-05 0.0 
0.0 0.0 -5.004267624003e-05 
7.170242557017e-04 -3.798682189908e-04 0.0 
-3.798682189908e-04 -8.718929718944e-05 0.0 
0.0 0.0 -5.423469082675e-05 
1.016505377143e-03 -3.706654485886e-04 0.0 
-3.706654485886e-04 -2.196691987021e-04 0.0 
0.0 0.0 -6.924701466199e-05 
1.374691841568e-03 -3.600731207399e-04 0.0 
-3.600731207399e-04 -3.650587174241e-04 0.0 
0.0 0.0 -8.456438766380e-05 
1.776444192994e-03 -3.135747337774e-04 0.0 
-3.135747337774e-04 -5.394471043759e-04 0.0 
0.0 0.0 -1.145437528706e-04 
2.116489510919e-03 -3.092434709054e-04 0.0 
-3.092434709054e-04 -6.971504040322e-04 0.0 
0.0 0.0 -1.122699804219e-04 
2.340534228900e-03 -2.489648393755e-04 0.0 
-2.489648393755e-04 -7.939335318199e-04 0.0 
0.0 0.0 -1.135261812993e-04 
2.545448873624e-03 -1.895106937816e-04 0.0 
-1.895106937816e-04 -8.695809182027e-04 0.0 
0.0 0.0 -1.151526711856e-04 
2.708912883130e-03 -1.592234908312e-04 0.0 
-1.592234908312e-04 -9.353356256089e-04 0.0 
0.0 0.0 -1.168504208365e-04 
2.867102977547e-03 -9.067089989766e-05 0.0 
-9.067089989766e-05 -1.037120165575e-03 0.0 
0.0 0.0 -1.138900488129e-04 
3.013559206580e-03 5.775462477208e-05 0.0 
5.775462477208e-05 -1.103986210354e-03 0.0 
0.0 0.0 -1.064965418423e-04 
-1.248710906121e-03 5.652154791928e-05 0.0 
5.652154791928e-05 4.243802116759e-03 0.0 
0.0 0.0 -5.877777777778e-04 
-1.232953270714e-03 -2.973490287289e-05 0.0 
-2.973490287289e-05 4.222837036718e-03 0.0 
0.0 0.0 -5.896296296296e-04 
-1.240801713205e-03 -4.784298651045e-05 0.0 
-4.784298651045e-05 4.215857011759e-03 0.0 
0.0 0.0 -5.896296296296e-04 
-1.254106223934e-03 -5.370652692236e-05 0.0 
-5.370652692236e-05 4.216729505932e-03 0.0 
0.0 0.0 -5.896296296296e-04 
-1.267315407763e-03 -4.973186078088e-05 0.0 
-4.973186078088e-05 4.215213441616e-03 0.0 
0.0 0.0 -5.896296296296e-04 
-1.288528333971e-03 -4.179079145281e-05 0.0 
-4.179079145281e-05 4.215906551612e-03 0.0 
0.0 0.0 -5.896296296296e-04 
-1.311185113300e-03 -2.309417302853e-05 0.0 
-2.309417302853e-05 4.215656274799e-03 0.0 
0.0 0.0 -5.896296296296e-04 
-1.339926904182e-03 -3.892376664422e-06 0.0 
-3.892376664422e-06 4.211935290515e-03 0.0 
0.0 0.0 -5.896296296296e-04 
-1.367893112670e-03 4.071813714726e-05 0.0 
4.071813714726e-05 4.201206609065e-03 0.0 
0.0 0.0 -5.896296296296e-04 
-1.404621952276e-03 1.041386211190e-04 0.0 
1.041386211190e-04 4.195321114740e-03 0.0 
0.0 0.0 -5.896296296296e-04 
-1.424784670334e-03 1.796702719118e-04 0.0 
1.796702719118e-04 4.178253395553e-03 0.0 
0.0 0.0 -5.952402773050e-04 
-1.444754431781e-03 2.831725980521e-04 0.0 
2.831725980521e-04 4.151913727749e-03 0.0 
0.0 0.0 -6.011144897657e-04 
-1.465298039211e-03 4.171477622675e-04 0.0 
4.171477622675e-04 4.119651588670e-03 0.0 
0.0 0.0 -6.082578993572e-04 
-1.454240637398e-03 5.731076215464e-04 0.0 
5.731076215464e-04 4.054934242418e-03 0.0 
0.0 0.0 -6.252388148087e-04 
-1.416861250533e-03 8.112043457857e-04 0.0 
8.112043457857e-04 3.992303207027e-03 0.0 
0.0 0.0 -6.453414639969e-04 
-1.338480218532e-03 1.016798606303e-03 0.0 
1.016798606303e-03 3.873198317490e-03 0.0 
0.0 0.0 -6.839257608705e-04 
-1.226543665429e-03 1.215251338821e-03 0.0 
1.215251338821e-03 3.678405563347e-03 0.0 
0.0 0.0 -7.165400661258e-04 
-1.413371839818e-03 9.869439785182e-04 0.0 
9.869439785182e-04 4.044630377487e-03 0.0 
0.0 0.0 -6.871907024512e-04 
-1.498556740945e-03 8.027277734388e-04 0.0 
8.027277734388e-04 4.217784539438e-03 0.0 
0.0 0.0 -6.754388315825e-04 
-1.517003084896e-03 6.032515853078e-04 0.0 
6.032515853078e-04 4.269979929512e-03 0.0 
0.0 0.0 -6.550211625735e-04 
-1.511553648353e-03 4.490191689128e-04 0.0 
4.490191689128e-04 4.314033839254e-03 0.0 
0.0 0.0 -6.432502374181e-04 
-1.500446210863e-03 3.184819489120e-04 0.0 
3.184819489120e-04 4.351230304708e-03 0.0 
0.0 0.0 -6.352144205724e-04 
-1.482245807683e-03 2.246627967315e-04 0.0 
2.246627967315e-04 4.377537132701e-03 0.0 
0.0 0.0 -6.294719905043e-04 
-1.455175852238e-03 1.513209258517e-04 0.0 
1.513209258517e-04 4.388941904323e-03 0.0 
0.0 0.0 -6.266666666667e-04 
-1.422377976552e-03 8.452613654984e-05 0.0 
8.452613654984e-05 4.398275898476e-03 0.0 
0.0 0.0 -6.266666666667e-04 
-1.387740669927e-03 5.055332934235e-05 0.0 
5.055332934235e-05 4.407309917814e-03 0.0 
0.0 0.0 -6.266666666667e-04 
-1.364267156085e-03 1.746043878918e-05 0.0 
1.746043878918e-05 4.408435903517e-03 0.0 
0.0 0.0 -6.266666666667e-04 
-1.340556828241e-03 2.310074790946e-06 0.0 
2.310074790946e-06 4.409446433091e-03 0.0 
0.0 0.0 -6.266666666667e-04 
-1.322009739859e-03 -1.793960035533e-05 0.0 
-1.793960035533e-05 4.409251285455e-03 0.0 
0.0 0.0 -6.266666666667e-04 
-1.309592160630e-03 -1.727365315460e-05 0.0 
-1.727365315460e-05 4.412670266398e-03 0.0 
0.0 0.0 -6.266666666667e-04 
-1.296178947065e-03 -2.233083817508e-05 0.0 
-2.233083817508e-05 4.407948356665e-03 0.0 
0.0 0.0 -6.266666666667e-04 
-1.291396798343e-03 -4.231649306782e-05 0.0 
-4.231649306782e-05 4.418716211488e-03 0.0 
0.0 0.0 -6.266666666667e-04 
-1.299258567356e-03 1.084144737729e-04 0.0 
1.084144737729e-04 4.428774256468e-03 0.0 
0.0 0.0 -6.266666666667e-04 
-1.560323964248e-04 2.142297384346e-03 0.0 
2.142297384346e-03 1.827731482054e-04 0.0 
0.0 0.0 -1.146032219169e-05 
1.936976575994e-04 1.398779559345e-03 0.0 
1.398779559345e-03 5.900772889955e-04 0.0 
0.0 0.0 -3.359035485407e-04 
2.417267202073e-04 1.838455165837e-03 0.0 
1.838455165837e-03 7.923036657008e-04 0.0 
0.0 0.0 -4.431558796749e-04 
1.101677228067e-04 1.834201385501e-03 0.0 
1.834201385501e-03 9.860182752854e-04 0.0 
0.0 0.0 -4.697939991823e-04 
-1.015326029610e-04 1.768813643197e-03 0.0 
1.768813643197e-03 1.327052849400e-03 0.0 
0.0 0.0 -5.252229627595e-04 
-3.500664412641e-04 1.776194894250e-03 0.0 
1.776194894250e-03 1.890650442787e-03 0.0 
0.0 0.0 -6.602502863668e-04 
-6.021316177337e-04 1.787666469000e-03 0.0 
1.787666469000e-03 2.539974038930e-03 0.0 
0.0 0.0 -8.188873791818e-04 
-9.157055857138e-04 1.673048909096e-03 0.0 
1.673048909096e-03 3.149566572632e-03 0.0 
0.0 0.0 -7.915848623382e-04 
-1.225714614829e-03 1.369642739983e-03 0.0 
1.369642739983e-03 3.733219339734e-03 0.0 
0.0 0.0 -7.479789176966e-04 
-1.501649114425e-03 1.213866345860e-03 0.0 
1.213866345860e-03 4.312722460883e-03 0.0 
0.0 0.0 -7.242776845527e-04 
3.539823178863e-04 1.710352572919e-03 0.0 
1.710352572919e-03 5.866051080763e-04 0.0 
0.0 0.0 -4.031088968411e-04 
-9.225734973571e-04 -7.785055507500e-06 0.0 
-7.785055507500e-06 4.710905526494e-03 0.0 
0.0 0.0 -1.303388942653e-03 
2.002003524453e-04 -6.228844878024e-04 0.0 
-6.228844878024e-04 2.361800845582e-04 0.0 
0.0 0.0 -1.150931346421e-04 
6.351277012352e-06 -1.034192914689e-04 0.0 
-1.034192914689e-04 -6.351277012353e-06 0.0 
0.0 0.0 0.0 
-1.143124804619e-03 -1.686232053488e-03 0.0 
-1.686232053488e-03 5.409600557008e-03 0.0 
0.0 0.0 -1.303360877099e-03 
1.234786051762e-04 1.977711876023e-03 0.0 
1.977711876023e-03 1.061132021132e-03 0.0 
0.0 0.0 -5.076902684178e-04 
-1.444704152341e-03 -3.615903752048e-04 0.0 
-3.615903752048e-04 4.407515592965e-03 0.0 
0.0 0.0 -1.026919993916e-03 
-9.479894819801e-04 1.838728918359e-03 0.0 
1.838728918359e-03 4.893992345869e-03 0.0 
0.0 0.0 -1.300998267065e-03 
-3.669420938573e-04 1.945721923899e-03 0.0 
1.945721923899e-03 2.035468676857e-03 0.0 
0.0 0.0 -7.150828212858e-04 
-1.134501767780e-03 3.078864715943e-03 0.0 
3.078864715943e-03 5.708971873236e-03 0.0 
0.0 0.0 -1.304014651794e-03 
-9.933335184060e-04 1.783041133304e-03 0.0 
1.783041133304e-03 3.368272424712e-03 0.0 
0.0 0.0 -8.139337748180e-04 
-1.367928456590e-03 -1.893022985453e-03 0.0 
-1.893022985453e-03 6.315060285992e-03 0.0 
0.0 0.0 -1.307658508868e-03 
1.393566666495e-03 -5.293231022229e-04 0.0 
-5.293231022229e-04 -2.919979710108e-04 0.0 
0.0 0.0 -1.726441863791e-04 
-1.321068622768e-03 3.408933067941e-03 0.0 
3.408933067941e-03 6.699280987615e-03 0.0 
0.0 0.0 -1.304481600125e-03 
-1.625241511018e-03 1.405941443998e-03 0.0 
1.405941443998e-03 4.657250357868e-03 0.0 
0.0 0.0 -7.595448291451e-04 
-9.674687493222e-04 -2.324067189866e-04 0.0 
-2.324067189866e-04 3.002016490702e-03 0.0 
0.0 0.0 -7.390740322083e-04 
-1.821851265128e-03 -3.597710289885e-04 0.0 
-3.597710289885e-04 5.333319395799e-03 0.0 
0.0 0.0 -1.073818338595e-03 
-1.412437544610e-03 3.130277989420e-03 0.0 
3.130277989420e-03 7.340714354146e-03 0.0 
0.0 0.0 -1.301280071178e-03 
-1.458721797288e-03 2.468181070438e-03 0.0 
2.468181070438e-03 8.007112846752e-03 0.0 
0.0 0.0 -1.304294760550e-03 
-1.442626291436e-03 7.982050020717e-04 0.0 
7.982050020717e-04 8.632923623264e-03 0.0 
0.0 0.0 -1.303238611779e-03 
-1.460924372811e-03 1.330564066234e-03 0.0 
1.330564066234e-03 8.482170570322e-03 0.0 
0.0 0.0 -1.297727402575e-03 
-1.466071718827e-03 1.860397699296e-03 0.0 
1.860397699296e-03 8.323259225048e-03 0.0 
0.0 0.0 -1.305306183856e-03 
-1.723504189141e-03 9.545217762893e-04 0.0 
9.545217762893e-04 5.069531762335e-03 0.0 
0.0 0.0 -7.528866907182e-04 
-1.609633540750e-03 4.109047618561e-04 0.0 
4.109047618561e-04 5.236232241604e-03 0.0 
0.0 0.0 -7.529849494387e-04 
-1.529214909887e-03 1.902322029956e-04 0.0 
1.902322029956e-04 5.302594416650e-03 0.0 
0.0 0.0 -7.580270452736e-04 
-1.581306103182e-03 3.146837778263e-05 0.0 
3.146837778263e-05 6.876614414943e-03 0.0 
0.0 0.0 -9.950081682429e-04 
-1.500312298629e-03 -1.404495050420e-03 0.0 
-1.404495050420e-03 6.813712989149e-03 0.0 
0.0 0.0 -1.302874185639e-03 
0.0 0.0 0.0 
0.0 0.0 0.0 
0.0 0.0 0.0 
1.991019007460e-03 -2.749999736625e-04 0.0 
-2.749999736625e-04 -4.994877663417e-04 0.0 
0.0 0.0 -1.971444476807e-04 
-2.064700972320e-03 -3.063344179821e-04 0.0 
-3.063344179821e-04 6.409893202118e-03 0.0 
0.0 0.0 -1.122886395833e-03 
-1.468245391393e-03 9.255547116428e-05 0.0 
9.255547116428e-05 5.268982738319e-03 0.0 
0.0 0.0 -7.500338828344e-04 
-3.768246537726e-04 -1.072125225081e-04 0.0 
-1.072125225081e-04 1.532862867376e-03 0.0 
0.0 0.0 -3.103003023327e-04 
-1.462480749969e-03 2.788238406384e-03 0.0 
2.788238406384e-03 7.654884390723e-03 0.0 
0.0 0.0 -1.293200138473e-03 
-1.060495443339e-03 2.586030718155e-03 0.0 
2.586030718155e-03 5.302800007763e-03 0.0 
0.0 0.0 -1.307307853467e-03 
-1.239947575843e-03 3.359554949631e-03 0.0 
3.359554949631e-03 6.201507605709e-03 0.0 
0.0 0.0 -1.304733450272e-03 
-8.851569131084e-04 1.017294528516e-03 0.0 
1.017294528516e-03 4.688446957818e-03 0.0 
0.0 0.0 -1.297928233296e-03 
-1.011734799512e-03 -8.525942349034e-04 0.0 
-8.525942349034e-04 4.907050266684e-03 0.0 
0.0 0.0 -1.305578568836e-03 
1.120011211769e-04 -9.639393047147e-04 0.0 
-9.639393047147e-04 3.552641554252e-04 0.0 
0.0 0.0 -2.002565471152e-04 
-1.668530992619e-03 6.309946100002e-04 0.0 
6.309946100002e-04 5.166924460567e-03 0.0 
0.0 0.0 -7.500980793755e-04 
-1.253144254253e-03 -1.928883033382e-03 0.0 
-1.928883033382e-03 5.781747753778e-03 0.0 
0.0 0.0 -1.293180865222e-03 
-1.565497950727e-03 6.438167873332e-05 0.0 
6.438167873332e-05 7.693447317596e-03 0.0 
0.0 0.0 -1.123598490052e-03 
6.785802533228e-04 -5.736279611176e-04 0.0 
-5.736279611176e-04 1.838174080765e-07 0.0 
0.0 0.0 -1.171618051616e-04 
-1.195500737651e-03 -3.256008312402e-04 0.0 
-3.256008312402e-04 3.719620558921e-03 0.0 
0.0 0.0 -9.209925479532e-04 
-1.429805954471e-03 5.036842419237e-04 0.0 
5.036842419237e-04 8.739646127293e-03 0.0 
0.0 0.0 -1.311981303940e-03 
-9.905702435701e-05 2.013930135586e-03 0.0 
2.013930135586e-03 1.485122832027e-03 0.0 
0.0 0.0 -5.940282032871e-04 
3.261360612195e-04 2.014048139277e-03 0.0 
2.014048139277e-03 7.944417754282e-04 0.0 
0.0 0.0 -4.802476442776e-04 
-6.470413752911e-04 1.957850985508e-03 0.0 
1.957850985508e-03 2.728601734132e-03 0.0 
0.0 0.0 -8.637206373099e-04 
-1.316804590616e-03 1.569868653343e-03 0.0 
1.569868653343e-03 4.005894671503e-03 0.0 
0.0 0.0 -7.800224789174e-04 
3.541243027130e-05 1.769644887756e-03 0.0 
1.769644887756e-03 2.058677403140e-04 0.0 
0.0 0.0 -1.034057873937e-04 
-1.536524951872e-03 3.208999903453e-05 0.0 
3.208999903453e-05 6.068754859848e-03 0.0 
0.0 0.0 -8.684787984471e-04 
-1.527482046669e-03 -8.504264765478e-04 0.0 
-8.504264765478e-04 7.084540485198e-03 0.0 
0.0 0.0 -1.313906642692e-03 
2.259445629762e-03 -9.175095740177e-05 0.0 
-9.175095740177e-05 -6.502150918460e-04 0.0 
0.0 0.0 -1.918888419282e-04 
-1.463207116020e-03 1.296765555730e-04 0.0 
1.296765555730e-04 8.413961701398e-03 0.0 
0.0 0.0 -1.253930875827e-03 
-1.717988966153e-03 1.334598389081e-03 0.0 
1.334598389081e-03 4.909530889206e-03 0.0 
0.0 0.0 -7.655439890770e-04 
-1.720228455065e-03 1.586186079137e-03 0.0 
1.586186079137e-03 4.967329360851e-03 0.0 
0.0 0.0 -7.934218816250e-04 
-1.768015179977e-03 1.461597718910e-03 0.0 
1.461597718910e-03 5.276074626724e-03 0.0 
0.0 0.0 -8.115680642089e-04 
-1.765114281844e-03 1.749488874724e-03 0.0 
1.749488874724e-03 5.323901634960e-03 0.0 
0.0 0.0 -8.428390908522e-04 
-1.776011419960e-03 1.632950866705e-03 0.0 
1.632950866705e-03 5.614599388379e-03 0.0 
0.0 0.0 -8.784658474099e-04 
-1.753067371520e-03 1.892876727445e-03 0.0 
1.892876727445e-03 5.647697331923e-03 0.0 
0.0 0.0 -9.060409163497e-04 
-1.729403370927e-03 2.034729517834e-03 0.0 
2.034729517834e-03 5.329326258993e-03 0.0 
0.0 0.0 -8.711257577414e-04 
-1.705524146156e-03 2.154135310252e-03 0.0 
2.154135310252e-03 5.649528349792e-03 0.0 
0.0 0.0 -9.341442283280e-04 
-1.669480427723e-03 2.313796081278e-03 0.0 
2.313796081278e-03 5.302391134739e-03 0.0 
0.0 0.0 -8.989774131092e-04 
-1.760017773414e-03 1.778713600910e-03 0.0 
1.778713600910e-03 5.960915318729e-03 0.0 
0.0 0.0 -9.415083590319e-04 
-1.639128685698e-03 2.400878910049e-03 0.0 
2.400878910049e-03 5.620671151866e-03 0.0 
0.0 0.0 -9.622976032585e-04 
-1.585968914987e-03 2.571269188534e-03 0.0 
2.571269188534e-03 5.245482773901e-03 0.0 
0.0 0.0 -9.268639294333e-04 
-1.553264337981e-03 2.629359401866e-03 0.0 
2.629359401866e-03 5.564461608518e-03 0.0 
0.0 0.0 -9.903372159162e-04 
-1.482148429882e-03 2.800719357184e-03 0.0 
2.800719357184e-03 5.162964478957e-03 0.0 
0.0 0.0 -9.547708836903e-04 
-1.480872876733e-03 2.756523220070e-03 0.0 
2.756523220070e-03 4.843370134984e-03 0.0 
0.0 0.0 -9.032660992691e-04 
-1.370066982921e-03 2.994500238396e-03 0.0 
2.994500238396e-03 4.734217419357e-03 0.0 
0.0 0.0 -9.261835667446e-04 
-1.296697830142e-03 2.932762897298e-03 0.0 
2.932762897298e-03 4.406716792506e-03 0.0 
0.0 0.0 -9.004111975071e-04 
-1.176154479742e-03 3.171939239460e-03 0.0 
3.171939239460e-03 4.268382598936e-03 0.0 
0.0 0.0 -9.182233496599e-04 
-1.237826052231e-03 3.181299556145e-03 0.0 
3.181299556145e-03 4.604885530242e-03 0.0 
0.0 0.0 -9.498701766430e-04 
-1.038924370446e-03 3.354505003279e-03 0.0 
3.354505003279e-03 4.108768898160e-03 0.0 
0.0 0.0 -9.343221806050e-04 
-9.113966935237e-04 3.322436674522e-03 0.0 
3.322436674522e-03 3.767445704006e-03 0.0 
0.0 0.0 -9.288662988139e-04 
-7.681433481646e-04 3.500147498246e-03 0.0 
3.500147498246e-03 3.577220508926e-03 0.0 
0.0 0.0 -9.367850320061e-04 
-6.050859616232e-04 3.441042246538e-03 0.0 
3.441042246538e-03 3.246213294712e-03 0.0 
0.0 0.0 -9.518642033955e-04 
-4.467796431526e-04 3.596824647640e-03 0.0 
3.596824647640e-03 3.023253834938e-03 0.0 
0.0 0.0 -9.541337235040e-04 
-2.817347476968e-04 3.508182660979e-03 0.0 
3.508182660979e-03 2.709346421897e-03 0.0 
0.0 0.0 -9.642822318347e-04 
-1.040481770833e-04 3.619372760828e-03 0.0 
3.619372760828e-03 2.449228749823e-03 0.0 
0.0 0.0 -9.459728402633e-04 
-2.870166289118e-04 3.676071568470e-03 0.0 
3.676071568470e-03 2.794184702227e-03 0.0 
0.0 0.0 -9.498144071847e-04 
6.429436302438e-05 3.660882361634e-03 0.0 
3.660882361634e-03 2.186835241716e-03 0.0 
0.0 0.0 -9.193128608805e-04 
2.331588354861e-04 3.548891452897e-03 0.0 
3.548891452897e-03 1.871725410986e-03 0.0 
0.0 0.0 -8.913707482552e-04 
4.174760030635e-04 3.518419278721e-03 0.0 
3.518419278721e-03 1.585153718146e-03 0.0 
0.0 0.0 -8.538425857873e-04 
5.455280992742e-04 3.365363645192e-03 0.0 
3.365363645192e-03 1.323229666393e-03 0.0 
0.0 0.0 -8.008961852862e-04 
7.498486656370e-04 3.260544319073e-03 0.0 
3.260544319073e-03 1.013594496255e-03 0.0 
0.0 0.0 -7.557613550964e-04 
5.794043773309e-04 3.414810932032e-03 0.0 
3.414810932032e-03 1.312272080423e-03 0.0 
0.0 0.0 -8.100034870355e-04 
9.766186802750e-04 3.126905533587e-03 0.0 
3.126905533587e-03 6.756506724320e-04 0.0 
0.0 0.0 -7.081154368744e-04 
1.170764685342e-03 3.063309594450e-03 0.0 
3.063309594450e-03 3.918842971428e-04 0.0 
0.0 0.0 -6.697067067790e-04 
1.469956798013e-03 2.887539401857e-03 0.0 
2.887539401857e-03 -6.720200421086e-06 0.0 
0.0 0.0 -6.271013989681e-04 
1.655398318796e-03 2.905797537394e-03 0.0 
2.905797537394e-03 -2.066635196578e-04 0.0 
0.0 0.0 -6.208863424878e-04 
1.958892900495e-03 2.587078338226e-03 0.0 
2.587078338226e-03 -5.601119320347e-04 0.0 
0.0 0.0 -5.994775579116e-04 
2.135455672651e-03 2.638700697284e-03 0.0 
2.638700697284e-03 -6.211030008372e-04 0.0 
0.0 0.0 -6.490082879202e-04 
2.410352153471e-03 2.173774944653e-03 0.0 
2.173774944653e-03 -9.107525055140e-04 0.0 
0.0 0.0 -6.426855634101e-04 
2.158594858366e-03 2.117426171510e-03 0.0 
2.117426171510e-03 -8.346185089651e-04 0.0 
0.0 0.0 -5.674184354577e-04 
2.548284906519e-03 1.577323129924e-03 0.0 
1.577323129924e-03 -1.120076299841e-03 0.0 
0.0 0.0 -6.120894028618e-04 
2.766282761562e-03 1.671188389262e-03 0.0 
1.671188389262e-03 -1.152705968468e-03 0.0 
0.0 0.0 -6.915329113260e-04 
2.831831315373e-03 9.695675877105e-04 0.0 
9.695675877105e-04 -1.281170566415e-03 0.0 
0.0 0.0 -6.645688924106e-04 
2.536993124922e-03 9.134999273791e-04 0.0 
9.134999273791e-04 -1.229619517363e-03 0.0 
0.0 0.0 -5.603029746683e-04 
2.733867997822e-03 2.586198841001e-04 0.0 
2.586198841001e-04 -1.313858956396e-03 0.0 
0.0 0.0 -6.085753034686e-04 
2.382754168972e-03 2.331723641419e-04 0.0 
2.331723641419e-04 -1.217161318829e-03 0.0 
0.0 0.0 -4.995397929185e-04 
2.475502276821e-03 -4.225569186791e-04 0.0 
-4.225569186791e-04 -1.235276730126e-03 0.0 
0.0 0.0 -5.315252342980e-04 
2.783353977069e-03 -4.207301430438e-04 0.0 
-4.207301430438e-04 -1.298298732893e-03 0.0 
0.0 0.0 -6.364522475042e-04 
2.431423533239e-03 -1.055611195596e-03 0.0 
-1.055611195596e-03 -1.141139443354e-03 0.0 
0.0 0.0 -5.529788956651e-04 
2.074488083004e-03 -1.034963949875e-03 0.0 
-1.034963949875e-03 -9.657239908617e-04 0.0 
0.0 0.0 -4.751846109182e-04 
1.948746609120e-03 -1.563616376602e-03 0.0 
-1.563616376602e-03 -7.896259199600e-04 0.0 
0.0 0.0 -4.967660096401e-04 
2.266914827687e-03 -1.646291796375e-03 0.0 
-1.646291796375e-03 -9.610891233280e-04 0.0 
0.0 0.0 -5.596395875825e-04 
1.725234701887e-03 -1.991509456133e-03 0.0 
-1.991509456133e-03 -5.081914327056e-04 0.0 
0.0 0.0 -5.215899725061e-04 
1.402225958191e-03 -1.927478583456e-03 0.0 
-1.927478583456e-03 -1.960854800127e-04 0.0 
0.0 0.0 -5.169173477906e-04 
1.209383151701e-03 -2.216403946003e-03 0.0 
-2.216403946003e-03 7.890654783241e-05 0.0 
0.0 0.0 -5.521241569428e-04 
1.437995882087e-03 -2.266737877318e-03 0.0 
-2.266737877318e-03 -1.663516021812e-04 0.0 
0.0 0.0 -5.449904056737e-04 
1.024600490131e-03 -2.464285469351e-03 0.0 
-2.464285469351e-03 3.533750076132e-04 0.0 
0.0 0.0 -5.905609276045e-04 
8.985317602796e-04 -2.606405635227e-03 0.0 
-2.606405635227e-03 5.292322287010e-04 0.0 
0.0 0.0 -6.118988524203e-04 
7.560704768117e-04 -2.818446778216e-03 0.0 
-2.818446778216e-03 7.706212678724e-04 0.0 
0.0 0.0 -6.542964620075e-04 
8.580312086144e-04 -2.682927376050e-03 0.0 
-2.682927376050e-03 6.007672926437e-04 0.0 
0.0 0.0 -6.251993576820e-04 
5.867828103229e-04 -2.962553875983e-03 0.0 
-2.962553875983e-03 1.034857146591e-03 0.0 
0.0 0.0 -6.949885529632e-04 
4.441790608849e-04 -3.069180945402e-03 0.0 
-3.069180945402e-03 1.277969962145e-03 0.0 
0.0 0.0 -7.380638670128e-04 
2.783519300776e-04 -3.113099096991e-03 0.0 
-3.113099096991e-03 1.538449359472e-03 0.0 
0.0 0.0 -7.786291240925e-04 
1.058234640362e-04 -3.171084265656e-03 0.0 
-3.171084265656e-03 1.852966267041e-03 0.0 
0.0 0.0 -8.394813133188e-04 
3.929316153892e-04 -3.010245319228e-03 0.0 
-3.010245319228e-03 1.308656505855e-03 0.0 
0.0 0.0 -7.292520519616e-04 
9.932532998196e-05 -3.071474673695e-03 0.0 
-3.071474673695e-03 1.797955184989e-03 0.0 
0.0 0.0 -8.131202207017e-04 
1.861203807317e-04 -2.953410476768e-03 0.0 
-2.953410476768e-03 1.579421639320e-03 0.0 
0.0 0.0 -7.566608657364e-04 
-8.642223961803e-05 -2.932845730897e-03 0.0 
-2.932845730897e-03 2.045062282812e-03 0.0 
0.0 0.0 -8.394171613687e-04 
7.378179429990e-04 3.236151700417e-03 0.0 
3.236151700417e-03 1.055249139964e-03 0.0 
0.0 0.0 -7.684573212697e-04 
-2.470987176264e-05 -2.774259717146e-03 0.0 
-2.774259717146e-03 1.827411113102e-03 0.0 
0.0 0.0 -7.725862462883e-04 
2.168591650758e-04 -2.749464912916e-03 0.0 
-2.749464912916e-03 1.402707795240e-03 0.0 
0.0 0.0 -6.941001258497e-04 
-2.655633051019e-04 -2.700896907473e-03 0.0 
-2.700896907473e-03 2.263406073752e-03 0.0 
0.0 0.0 -8.562183294215e-04 
-3.538412369767e-04 -2.807118068406e-03 0.0 
-2.807118068406e-03 2.524613030834e-03 0.0 
0.0 0.0 -9.303307687962e-04 
-2.182790499822e-04 -2.492668770886e-03 0.0 
-2.492668770886e-03 2.032114690057e-03 0.0 
0.0 0.0 -7.773581314605e-04 
-4.250446102995e-04 -2.387105800852e-03 0.0 
-2.387105800852e-03 2.436232383686e-03 0.0 
0.0 0.0 -8.619376171656e-04 
-3.808762253420e-04 -2.140229309317e-03 0.0 
-2.140229309317e-03 2.184406533220e-03 0.0 
0.0 0.0 -7.729415605190e-04 
1.763159166294e-03 2.932701492782e-03 0.0 
2.932701492782e-03 -2.697944395366e-04 0.0 
0.0 0.0 -6.400134543247e-04 
-1.088844513542e-03 3.301377294412e-03 0.0 
3.301377294412e-03 4.460583281383e-03 0.0 
0.0 0.0 -9.751682721562e-04 
-5.557439599788e-04 -2.010376698230e-03 0.0 
-2.010376698230e-03 2.553174357475e-03 0.0 
0.0 0.0 -8.560415989269e-04 
-5.027177784437e-04 -1.739983302349e-03 0.0 
-1.739983302349e-03 2.268016728775e-03 0.0 
0.0 0.0 -7.565566929991e-04 
-3.487326511453e-04 -1.851839421592e-03 0.0 
-1.851839421592e-03 1.937346492323e-03 0.0 
0.0 0.0 -6.808345033620e-04 
-4.519877827048e-04 -1.437771514004e-03 0.0 
-1.437771514004e-03 1.973465387895e-03 0.0 
0.0 0.0 -6.520618307959e-04 
-1.774841257907e-03 1.527132807035e-03 0.0 
1.527132807035e-03 5.918357799879e-03 0.0 
0.0 0.0 -9.126358703463e-04 
-1.762808846704e-03 1.694088373988e-03 0.0 
1.694088373988e-03 6.266633471383e-03 0.0 
0.0 0.0 -9.772611937912e-04 
-1.774288393461e-03 1.442569390130e-03 0.0 
1.442569390130e-03 6.194015386497e-03 0.0 
0.0 0.0 -9.468612964576e-04 
-1.759396418391e-03 1.612723129842e-03 0.0 
1.612723129842e-03 6.563174828670e-03 0.0 
0.0 0.0 -1.012955122490e-03 
-1.767929614200e-03 1.376342917300e-03 0.0 
1.376342917300e-03 6.485124768915e-03 0.0 
0.0 0.0 -9.835180958883e-04 
-5.788967960072e-04 -1.335257077215e-03 0.0 
-1.335257077215e-03 2.277225899990e-03 0.0 
0.0 0.0 -7.256352817785e-04 
-1.603689512328e-03 2.493470387195e-03 0.0 
2.493470387195e-03 5.946173640174e-03 0.0 
0.0 0.0 -1.026687169009e-03 
-1.736212695290e-03 1.850044700733e-03 0.0 
1.850044700733e-03 6.615422803056e-03 0.0 
0.0 0.0 -1.042264213861e-03 
-7.638319934371e-04 3.223456733069e-03 0.0 
3.223456733069e-03 3.455847564200e-03 0.0 
0.0 0.0 -9.409285294772e-04 
3.366430025168e-04 3.397992003127e-03 0.0 
3.397992003127e-03 1.628840077963e-03 0.0 
0.0 0.0 -8.423498916340e-04 
2.156368313925e-03 8.947959957603e-04 0.0 
8.947959957603e-04 -1.035979942615e-03 0.0 
0.0 0.0 -4.801664448473e-04 
-6.227154585167e-04 -2.198002757365e-03 0.0 
-2.198002757365e-03 2.831211668969e-03 0.0 
0.0 0.0 -9.464983759081e-04 
-7.218347779198e-04 -1.819122893170e-03 0.0 
-1.819122893170e-03 2.913297155100e-03 0.0 
0.0 0.0 -9.383242106009e-04 
-8.133368797394e-04 -1.945809227020e-03 0.0 
-1.945809227020e-03 3.204453228297e-03 0.0 
0.0 0.0 -1.004955155493e-03 
2.358180408842e-04 -3.147007717197e-03 0.0 
-3.147007717197e-03 1.628184027877e-03 0.0 
0.0 0.0 -7.988580294692e-04 
-1.225410220003e-04 -3.166679032327e-03 0.0 
-3.166679032327e-03 2.260222165472e-03 0.0 
0.0 0.0 -9.088386183890e-04 
-3.596074933626e-05 -3.143460862446e-03 0.0 
-3.143460862446e-03 2.089404171616e-03 0.0 
0.0 0.0 -8.720661220001e-04 
-3.940691537939e-04 -3.066493924859e-03 0.0 
-3.066493924859e-03 2.736277962959e-03 0.0 
0.0 0.0 -9.548449181928e-04 
-3.127433245065e-04 -2.982699423106e-03 0.0 
-2.982699423106e-03 2.620883950583e-03 0.0 
0.0 0.0 -9.363521337227e-04 
-6.475470341843e-04 -2.849005951016e-03 0.0 
-2.849005951016e-03 3.244198139691e-03 0.0 
0.0 0.0 -9.829094188347e-04 
-7.290342086422e-04 -2.890946438125e-03 0.0 
-2.890946438125e-03 3.342200867435e-03 0.0 
0.0 0.0 -9.972914379494e-04 
-9.540874880885e-04 -2.660066281729e-03 0.0 
-2.660066281729e-03 3.821872870679e-03 0.0 
0.0 0.0 -1.003716470558e-03 
-1.033871380646e-03 -2.655311578103e-03 0.0 
-2.655311578103e-03 3.899288306138e-03 0.0 
0.0 0.0 -1.010717982506e-03 
-5.020318707035e-04 -2.652589391131e-03 0.0 
-2.652589391131e-03 3.162848563043e-03 0.0 
0.0 0.0 -1.000386703517e-03 
-1.738328040713e-04 -2.716917287151e-03 0.0 
-2.716917287151e-03 2.542650585114e-03 0.0 
0.0 0.0 -9.561072799058e-04 
-1.217140716833e-03 -2.433745842754e-03 0.0 
-2.433745842754e-03 4.355239653684e-03 0.0 
0.0 0.0 -1.026468870702e-03 
-1.301004518180e-03 -2.384512482324e-03 0.0 
-2.384512482324e-03 4.413129634354e-03 0.0 
0.0 0.0 -1.025303715086e-03 
-1.433223260983e-03 -2.180723409209e-03 0.0 
-2.180723409209e-03 4.841898264917e-03 0.0 
0.0 0.0 -1.051254241329e-03 
-1.533782143048e-03 -2.096001782913e-03 0.0 
-2.096001782913e-03 4.882119290392e-03 0.0 
0.0 0.0 -1.038917832539e-03 
-1.344970022650e-03 -2.253929758585e-03 0.0 
-2.253929758585e-03 4.461736113479e-03 0.0 
0.0 0.0 -1.037516479237e-03 
-1.569102967331e-03 -1.933831873179e-03 0.0 
-1.933831873179e-03 4.899834166201e-03 0.0 
0.0 0.0 -1.046305699947e-03 
-1.376153231101e-03 -2.066079550050e-03 0.0 
-2.066079550050e-03 4.500968763913e-03 0.0 
0.0 0.0 -1.050803148915e-03 
1.947540486422e-03 2.152880942579e-04 0.0 
2.152880942579e-04 -9.005037723215e-04 0.0 
0.0 0.0 -4.487300203286e-04 
1.680967532914e-03 9.207071897223e-04 0.0 
9.207071897223e-04 -5.014207716637e-04 0.0 
0.0 0.0 -5.055200405360e-04 
1.438850481880e-03 2.016578593639e-04 0.0 
2.016578593639e-04 -1.625086232559e-04 0.0 
0.0 0.0 -5.470036536960e-04 
1.202172879279e-03 8.527240019949e-04 0.0 
8.527240019949e-04 3.828898779410e-04 0.0 
0.0 0.0 -6.793126102372e-04 
1.037530362003e-03 2.011510087903e-04 0.0 
2.011510087903e-04 7.506062236288e-04 0.0 
0.0 0.0 -7.663442509849e-04 
8.675854264309e-04 7.587081521114e-04 0.0 
7.587081521114e-04 1.231843798103e-03 0.0 
0.0 0.0 -8.979051750036e-04 
7.349701041777e-04 2.153247329944e-04 0.0 
2.153247329944e-04 1.546423059999e-03 0.0 
0.0 0.0 -9.701408636527e-04 
8.610381847209e-04 -3.526591051395e-04 0.0 
-3.526591051395e-04 1.156465632251e-03 0.0 
0.0 0.0 -8.646444929881e-04 
-1.453224264520e-03 2.831768754596e-03 0.0 
2.831768754596e-03 5.484804576212e-03 0.0 
0.0 0.0 -1.018102500310e-03 
3.008867090267e-03 1.058367247789e-03 0.0 
1.058367247789e-03 -1.343458179845e-03 0.0 
0.0 0.0 -7.137466758949e-04 
2.853497805066e-03 1.766083769912e-03 0.0 
1.766083769912e-03 -1.173072932721e-03 0.0 
0.0 0.0 -7.201820881480e-04 
3.053541270561e-03 1.142570270594e-03 0.0 
1.142570270594e-03 -1.348374367158e-03 0.0 
0.0 0.0 -7.307858157443e-04 
2.838618046953e-03 1.876649797015e-03 0.0 
1.876649797015e-03 -1.126367864291e-03 0.0 
0.0 0.0 -7.338215068551e-04 
2.971080593981e-03 1.270655419308e-03 0.0 
1.270655419308e-03 -1.289312095888e-03 0.0 
0.0 0.0 -7.207579277541e-04 
2.719217330289e-03 2.056721202716e-03 0.0 
2.056721202716e-03 -1.037451596634e-03 0.0 
0.0 0.0 -7.207567429950e-04 
2.772942118414e-03 1.411962470906e-03 0.0 
1.411962470906e-03 -1.228640855760e-03 0.0 
0.0 0.0 -6.618433982802e-04 
2.936188635973e-03 5.059698955333e-04 0.0 
5.059698955333e-04 -1.379043216914e-03 0.0 
0.0 0.0 -6.673480367399e-04 
2.617932977065e-03 5.853697332861e-04 0.0 
5.853697332861e-04 -1.334188021617e-03 0.0 
0.0 0.0 -5.501764094776e-04 
2.753067280877e-03 -3.549983010408e-04 0.0 
-3.549983010408e-04 -1.367545839080e-03 0.0 
0.0 0.0 -5.937949036274e-04 
2.283697930113e-03 -2.688909952497e-04 0.0 
-2.688909952497e-04 -1.277221164065e-03 0.0 
0.0 0.0 -4.313471854492e-04 
2.525026440165e-03 -1.212492314672e-03 0.0 
-1.212492314672e-03 -1.245102357231e-03 0.0 
0.0 0.0 -5.485388926860e-04 
-1.241644147846e-04 3.665257049786e-03 0.0 
3.665257049786e-03 2.568141902724e-03 0.0 
0.0 0.0 -9.405629120884e-04 
9.458807958305e-04 1.361774924333e-03 0.0 
1.361774924333e-03 9.904922510770e-04 0.0 
0.0 0.0 -8.298741629604e-04 
6.513001348098e-04 1.229100697752e-03 0.0 
1.229100697752e-03 1.753882193068e-03 0.0 
0.0 0.0 -9.993981362447e-04 
6.963768604448e-04 1.772072157614e-03 0.0 
1.772072157614e-03 1.581186938205e-03 0.0 
0.0 0.0 -9.522937794042e-04 
-3.189420848090e-04 -1.545020922433e-03 0.0 
-1.545020922433e-03 1.685829119162e-03 0.0 
0.0 0.0 -5.858087290083e-04 
-1.729227017080e-03 -1.797597956290e-03 0.0 
-1.797597956290e-03 5.304685395965e-03 0.0 
0.0 0.0 -1.052155339158e-03 
-3.558894212413e-04 -2.357175527876e-03 0.0 
-2.357175527876e-03 3.123019306479e-03 0.0 
0.0 0.0 -1.032922975483e-03 
-3.685387661375e-05 -2.333297789804e-03 0.0 
-2.333297789804e-03 2.519376975604e-03 0.0 
0.0 0.0 -9.972889278909e-04 
5.502284084495e-04 -2.540944922989e-04 0.0 
-2.540944922989e-04 1.932880194956e-03 0.0 
0.0 0.0 -1.036234461364e-03 
-5.051250462252e-04 -1.053858961610e-03 0.0 
-1.053858961610e-03 1.923683454344e-03 0.0 
0.0 0.0 -5.970694122200e-04 
2.486914527932e-03 2.192796758779e-03 0.0 
2.192796758779e-03 -9.291035182538e-04 0.0 
0.0 0.0 -6.676332898623e-04 
2.328692636026e-03 2.634849956172e-03 0.0 
2.634849956172e-03 -6.738088910713e-04 0.0 
0.0 0.0 -7.092358906949e-04 
-1.744623678677e-03 1.540348128746e-03 0.0 
1.540348128746e-03 6.846449706807e-03 0.0 
0.0 0.0 -1.048874596840e-03 
-1.750773001735e-03 1.319704536713e-03 0.0 
1.319704536713e-03 6.756146718387e-03 0.0 
0.0 0.0 -1.019458214591e-03 
-2.480160767706e-04 -2.004916630844e-03 0.0 
-2.004916630844e-03 3.137306023889e-03 0.0 
0.0 0.0 -1.070157681403e-03 
-6.234076530390e-04 -9.645286907226e-04 0.0 
-9.645286907226e-04 2.209865459266e-03 0.0 
0.0 0.0 -6.466873288763e-04 
-1.068414060457e-03 -2.374253472806e-03 0.0 
-2.374253472806e-03 4.293485734694e-03 0.0 
0.0 0.0 -1.053463316161e-03 
2.067995625182e-03 6.451329218673e-04 0.0 
6.451329218673e-04 -1.186041327943e-03 0.0 
0.0 0.0 -3.779804131024e-04 
-1.762784595192e-03 -1.607331333857e-03 0.0 
-1.607331333857e-03 5.293267446583e-03 0.0 
0.0 0.0 -1.053563116650e-03 
-1.867913240625e-03 -1.489305966451e-03 0.0 
-1.489305966451e-03 5.673891533939e-03 0.0 
0.0 0.0 -1.070920355653e-03 
-7.933761041048e-04 -2.832720245216e-03 0.0 
-2.832720245216e-03 3.452224715287e-03 0.0 
0.0 0.0 -1.021320298254e-03 
4.031722277788e-04 1.617631885485e-03 0.0 
1.617631885485e-03 2.296315845658e-03 0.0 
0.0 0.0 -1.069468904140e-03 
4.279180701410e-04 2.089566425205e-03 0.0 
2.089566425205e-03 2.165414708705e-03 0.0 
0.0 0.0 -1.033921039166e-03 
2.748961671600e-03 -1.234973564708e-03 0.0 
-1.234973564708e-03 -1.253110519415e-03 0.0 
0.0 0.0 -6.410790652217e-04 
2.518060065866e-03 -2.059438322562e-03 0.0 
-2.059438322562e-03 -1.018220698221e-03 0.0 
0.0 0.0 -6.427883004194e-04 
2.357888963389e-03 -2.118209179973e-03 0.0 
-2.118209179973e-03 -9.914742540871e-04 0.0 
0.0 0.0 -5.856063039867e-04 
2.191323313200e-03 -2.728758808394e-03 0.0 
-2.728758808394e-03 -6.479650369089e-04 0.0 
0.0 0.0 -6.614392612675e-04 
2.278763046571e-03 -2.578114575528e-03 0.0 
-2.578114575528e-03 -7.103706415061e-04 0.0 
0.0 0.0 -6.721681735992e-04 
1.895457018917e-03 -3.007528799367e-03 0.0 
-3.007528799367e-03 -3.206537863592e-04 0.0 
0.0 0.0 -6.749156710960e-04 
1.780393766489e-03 -3.161947930664e-03 0.0 
-3.161947930664e-03 -1.991738640969e-04 0.0 
0.0 0.0 -6.776656724536e-04 
1.498218282607e-03 -3.239267173229e-03 0.0 
-3.239267173229e-03 1.323736015907e-04 0.0 
0.0 0.0 -6.988250932278e-04 
1.538218957511e-03 -3.082075736210e-03 0.0 
-3.082075736210e-03 7.246781046873e-07 0.0 
0.0 0.0 -6.595472724067e-04 
1.116756184221e-03 -3.039153293536e-03 0.0 
-3.039153293536e-03 4.098621490744e-04 0.0 
0.0 0.0 -6.542649999838e-04 
9.813252680918e-04 -2.956617965048e-03 0.0 
-2.956617965048e-03 5.482338783846e-04 0.0 
0.0 0.0 -6.555253484899e-04 
6.892512545273e-04 -2.715436424775e-03 0.0 
-2.715436424775e-03 7.414890539001e-04 0.0 
0.0 0.0 -6.131744178975e-04 
-1.739487401810e-03 -1.643308528611e-03 0.0 
-1.643308528611e-03 5.674904400731e-03 0.0 
0.0 0.0 -1.101875158976e-03 
1.625849311047e-03 -1.683389643306e-04 0.0 
-1.683389643306e-04 -1.097136295050e-03 0.0 
0.0 0.0 -2.265912925699e-04 
-1.396148361601e-03 2.647702035806e-03 0.0 
2.647702035806e-03 4.519072400057e-03 0.0 
0.0 0.0 -8.810844588398e-04 
-5.349333944456e-04 -2.056134526959e-03 0.0 
-2.056134526959e-03 3.696128141265e-03 0.0 
0.0 0.0 -1.099012274073e-03 
4.001314244547e-04 2.494511169208e-04 0.0 
2.494511169208e-04 2.291122324032e-03 0.0 
0.0 0.0 -1.088453095952e-03 
-1.720074879915e-03 1.479198222822e-03 0.0 
1.479198222822e-03 7.120039440071e-03 0.0 
0.0 0.0 -1.085032576515e-03 
-1.727265597861e-03 1.269164868262e-03 0.0 
1.269164868262e-03 7.020339379643e-03 0.0 
0.0 0.0 -1.055603631703e-03 
-1.745923234167e-03 1.117194505061e-03 0.0 
1.117194505061e-03 6.644193117880e-03 0.0 
0.0 0.0 -9.897378988699e-04 
-1.726111739886e-03 1.073003689324e-03 0.0 
1.073003689324e-03 6.905750690588e-03 0.0 
0.0 0.0 -1.026001677571e-03 
-1.697815529865e-03 1.216597394983e-03 0.0 
1.216597394983e-03 7.279055033116e-03 0.0 
0.0 0.0 -1.091942449670e-03 
-1.699755368788e-03 1.027337857590e-03 0.0 
1.027337857590e-03 7.158023142695e-03 0.0 
0.0 0.0 -1.062342898562e-03 
-1.716352618538e-03 8.878056221667e-04 0.0 
8.878056221667e-04 6.774679391188e-03 0.0 
0.0 0.0 -9.962627399151e-04 
-1.692178280540e-03 8.508470267666e-04 0.0 
8.508470267666e-04 7.019991579685e-03 0.0 
0.0 0.0 -1.032646955902e-03 
-1.695660932446e-03 7.184317155414e-04 0.0 
7.184317155414e-04 6.625583462411e-03 0.0 
0.0 0.0 -9.664557332607e-04 
-1.677486126932e-03 6.911180295046e-04 0.0 
6.911180295046e-04 6.868534941944e-03 0.0 
0.0 0.0 -1.002889032254e-03 
-1.663620555798e-03 8.098065595925e-04 0.0 
8.098065595925e-04 7.259384762552e-03 0.0 
0.0 0.0 -1.069134413525e-03 
-1.655525420696e-03 6.533870042141e-04 0.0 
6.533870042141e-04 7.107625883104e-03 0.0 
0.0 0.0 -1.039387411609e-03 
-1.659615819212e-03 5.491873914478e-04 0.0 
5.491873914478e-04 6.708579784798e-03 0.0 
0.0 0.0 -9.730575354659e-04 
-1.642941155605e-03 5.125241071205e-04 0.0 
5.125241071205e-04 6.945188648216e-03 0.0 
0.0 0.0 -1.009574527126e-03 
-1.637255380195e-03 4.205204331053e-04 0.0 
4.205204331053e-04 6.536272510904e-03 0.0 
0.0 0.0 -9.431603702596e-04 
-1.623420800787e-03 3.856837058294e-04 0.0 
3.856837058294e-04 6.767271635738e-03 0.0 
0.0 0.0 -9.796061197752e-04 
-1.622026920778e-03 4.757000201370e-04 0.0 
4.757000201370e-04 7.177981971167e-03 0.0 
0.0 0.0 -1.046101832713e-03 
-5.260638759536e-04 -7.746154698035e-04 0.0 
-7.746154698035e-04 1.804698088172e-03 0.0 
0.0 0.0 -4.826019863697e-04 
6.384355500235e-04 -8.071467030727e-04 0.0 
-8.071467030727e-04 1.625869863801e-03 0.0 
0.0 0.0 -9.660701661439e-04 
3.155700960172e-04 -6.399278427758e-04 0.0 
-6.399278427758e-04 2.369342842803e-03 0.0 
0.0 0.0 -1.083831836676e-03 
-8.892645420983e-04 -1.589464053846e-03 0.0 
-1.589464053846e-03 3.243112049151e-03 0.0 
0.0 0.0 -9.683295300234e-04 
-9.893521759344e-04 -1.650588191873e-03 0.0 
-1.650588191873e-03 3.517832807879e-03 0.0 
0.0 0.0 -1.010934236754e-03 
-9.339052402119e-04 -1.988561699477e-03 0.0 
-1.988561699477e-03 3.508091553521e-03 0.0 
0.0 0.0 -1.041462402745e-03 
-1.131758993546e-03 -1.657762215853e-03 0.0 
-1.657762215853e-03 3.856452720899e-03 0.0 
0.0 0.0 -1.033211989474e-03 
-1.610140258144e-03 3.510578464752e-04 0.0 
3.510578464752e-04 7.002203508451e-03 0.0 
0.0 0.0 -1.015477767897e-03 
-1.603569950634e-03 4.323698609735e-04 0.0 
4.323698609735e-04 7.406712470395e-03 0.0 
0.0 0.0 -1.082739357160e-03 
2.075859047304e-03 2.734073794279e-03 0.0 
2.734073794279e-03 -5.151566843200e-04 0.0 
0.0 0.0 -6.688724412789e-04 
1.829803788864e-03 2.896630922712e-03 0.0 
2.896630922712e-03 -2.437374272620e-04 0.0 
0.0 0.0 -6.797427264007e-04 
-1.702624885041e-03 1.699730791061e-03 0.0 
1.699730791061e-03 7.199957864770e-03 0.0 
0.0 0.0 -1.114382729655e-03 
-1.921178658721e-03 -1.279150328982e-03 0.0 
-1.279150328982e-03 5.641022297000e-03 0.0 
0.0 0.0 -1.061085778683e-03 
-1.759404772593e-03 -1.368797781515e-03 0.0 
-1.368797781515e-03 5.258990087990e-03 0.0 
0.0 0.0 -1.062669991958e-03 
6.091469494368e-04 3.201234470351e-03 0.0 
3.201234470351e-03 1.145920310691e-03 0.0 
0.0 0.0 -7.521716829121e-04 
3.812479400786e-04 3.221138826746e-03 0.0 
3.221138826746e-03 1.454024134529e-03 0.0 
0.0 0.0 -7.865451748317e-04 
6.223231318809e-04 3.034958604236e-03 0.0 
3.034958604236e-03 1.026602646357e-03 0.0 
0.0 0.0 -7.066824763876e-04 
3.755190555598e-04 3.004529260336e-03 0.0 
3.004529260336e-03 1.328866931440e-03 0.0 
0.0 0.0 -7.304511372856e-04 
1.504650344152e-04 3.149504562038e-03 0.0 
3.149504562038e-03 1.760988080228e-03 0.0 
0.0 0.0 -8.191941919899e-04 
5.829936888595e-04 2.805741157272e-03 0.0 
2.805741157272e-03 9.386435949221e-04 0.0 
0.0 0.0 -6.521302644778e-04 
1.691581229929e-04 -2.698724546406e-03 0.0 
-2.698724546406e-03 1.880405331260e-03 0.0 
0.0 0.0 -8.664312523603e-04 
-1.632170864774e-03 7.587389543785e-04 0.0 
7.587389543785e-04 7.494664304375e-03 0.0 
0.0 0.0 -1.105708206284e-03 
-1.867627977739e-04 -1.946982532398e-03 0.0 
-1.946982532398e-03 1.623581017794e-03 0.0 
0.0 0.0 -6.157792371515e-04 
-1.766459924498e-04 -1.658792918857e-03 0.0 
-1.658792918857e-03 1.424250676640e-03 0.0 
0.0 0.0 -5.346877217957e-04 
-1.953846352874e-03 -1.181006378595e-03 0.0 
-1.181006378595e-03 5.993034579258e-03 0.0 
0.0 0.0 -1.094582683422e-03 
9.227653006670e-04 -9.923042472365e-04 0.0 
-9.923042472365e-04 8.348026981178e-04 0.0 
0.0 0.0 -7.532434280506e-04 
-4.484070588213e-04 3.613794165219e-03 0.0 
3.613794165219e-03 3.179623750880e-03 0.0 
0.0 0.0 -9.533529749162e-04 
-2.780489895403e-04 3.528284248772e-03 0.0 
3.528284248772e-03 2.993445099109e-03 0.0 
0.0 0.0 -9.681750457242e-04 
-5.507055311170e-04 3.446174456380e-03 0.0 
3.446174456380e-03 3.597530854088e-03 0.0 
0.0 0.0 -9.957130113267e-04 
-3.863084581791e-04 3.307385071573e-03 0.0 
3.307385071573e-03 3.448440357162e-03 0.0 
0.0 0.0 -1.023751803962e-03 
-6.300320690614e-04 3.259070928407e-03 0.0 
3.259070928407e-03 4.039542678780e-03 0.0 
0.0 0.0 -1.059873349132e-03 
-5.085717340789e-04 3.118830500926e-03 0.0 
3.118830500926e-03 3.927747937877e-03 0.0 
0.0 0.0 -1.087854580038e-03 
-2.514557000785e-04 3.100269023384e-03 0.0 
3.100269023384e-03 3.340960341130e-03 0.0 
0.0 0.0 -1.051791170495e-03 
1.399069373120e-04 1.939674922792e-03 0.0 
1.939674922792e-03 2.839420856551e-03 0.0 
0.0 0.0 -1.107463318235e-03 
-4.186704419438e-04 2.922768790841e-03 0.0 
2.922768790841e-03 3.866682433006e-03 0.0 
0.0 0.0 -1.115916943430e-03 
-1.595806012880e-03 2.986475684988e-04 0.0 
2.986475684988e-04 6.569860539438e-03 0.0 
0.0 0.0 -9.487150400336e-04 
9.874874757951e-04 2.001023480651e-03 0.0 
2.001023480651e-03 8.096298849095e-04 0.0 
0.0 0.0 -7.701931545877e-04 
1.099587361542e-03 -2.883577329194e-03 0.0 
-2.883577329194e-03 3.196281228081e-04 0.0 
0.0 0.0 -6.082352075787e-04 
-4.120182269500e-04 -8.254968701079e-04 0.0 
-8.254968701079e-04 1.533206618467e-03 0.0 
0.0 0.0 -4.510100977180e-04 
5.592980566656e-04 -2.545612127290e-03 0.0 
-2.545612127290e-03 8.296765578219e-04 0.0 
0.0 0.0 -5.952748347803e-04 
-6.262840441887e-04 -6.448010795071e-04 0.0 
-6.448010795071e-04 2.035833554771e-03 0.0 
0.0 0.0 -5.222488353909e-04 
-7.319508735308e-04 -8.428934672220e-04 0.0 
-8.428934672220e-04 2.464651158961e-03 0.0 
0.0 0.0 -6.822577977165e-04 
-4.713603530403e-04 -1.760178858830e-03 0.0 
-1.760178858830e-03 3.749274242464e-03 0.0 
0.0 0.0 -1.136360603439e-03 
-7.414846696447e-04 3.136821301181e-03 0.0 
3.136821301181e-03 4.510208953631e-03 0.0 
0.0 0.0 -1.124065295910e-03 
-8.446432131550e-04 3.218211498406e-03 0.0 
3.218211498406e-03 4.600039828402e-03 0.0 
0.0 0.0 -1.095615423988e-03 
1.374965702112e-04 2.907969111804e-03 0.0 
2.907969111804e-03 1.629175485309e-03 0.0 
0.0 0.0 -7.571451666514e-04 
-7.702727876907e-05 2.968579821374e-03 0.0 
2.968579821374e-03 2.049330152496e-03 0.0 
0.0 0.0 -8.452726601685e-04 
8.289727363508e-05 1.511362000005e-03 0.0 
1.511362000005e-03 2.985439199539e-03 0.0 
0.0 0.0 -1.136278651916e-03 
-1.765237675762e-03 1.222407657091e-03 0.0 
1.222407657091e-03 6.114667953270e-03 0.0 
0.0 0.0 -9.177848451843e-04 
-1.710580504207e-03 7.440398052567e-04 0.0 
7.440398052567e-04 6.380060456859e-03 0.0 
0.0 0.0 -9.302130594432e-04 
-1.676565589941e-03 5.872598873801e-04 0.0 
5.872598873801e-04 6.215440748447e-03 0.0 
0.0 0.0 -9.001900590098e-04 
-3.803857748505e-04 -5.434049098283e-04 0.0 
-5.434049098283e-04 1.471759670645e-03 0.0 
0.0 0.0 -3.494697005546e-04 
7.568627899495e-04 -2.787918667943e-03 0.0 
-2.787918667943e-03 7.221354992753e-04 0.0 
0.0 0.0 -6.338564096678e-04 
-1.662120244785e-03 1.162296850059e-03 0.0 
1.162296850059e-03 7.529797322482e-03 0.0 
0.0 0.0 -1.128363834889e-03 
2.037234962576e-03 2.841104701767e-03 0.0 
2.841104701767e-03 -4.145658898484e-04 0.0 
0.0 0.0 -6.954296025976e-04 
1.531315725723e-03 2.908052614029e-03 0.0 
2.908052614029e-03 2.448474694820e-06 0.0 
0.0 0.0 -6.573275144647e-04 
1.261589428094e-03 6.096704043663e-04 0.0 
6.096704043663e-04 -9.183369249884e-04 0.0 
0.0 0.0 -1.471082156167e-04 
7.631106832774e-04 -7.208428592914e-05 0.0 
-7.208428592914e-05 -6.801595576129e-04 0.0 
0.0 0.0 -3.555048242768e-05 
-1.589929625905e-03 3.288854672539e-04 0.0 
3.288854672539e-04 7.214274616426e-03 0.0 
0.0 0.0 -1.051814883004e-03 
-1.572388470156e-03 3.792019312018e-04 0.0 
3.792019312018e-04 7.619653826889e-03 0.0 
0.0 0.0 -1.117859435171e-03 
-1.078769339999e-03 -1.982110544533e-03 0.0 
-1.982110544533e-03 3.829235274235e-03 0.0 
0.0 0.0 -1.051224796075e-03 
-1.274189695606e-03 -1.627447894412e-03 0.0 
-1.627447894412e-03 4.185605639052e-03 0.0 
0.0 0.0 -1.050863174419e-03 
-1.969895269108e-04 -1.624325261337e-03 0.0 
-1.624325261337e-03 3.218036131210e-03 0.0 
0.0 0.0 -1.107558395918e-03 
3.636511301315e-04 -2.361072158115e-03 0.0 
-2.361072158115e-03 9.584204304499e-04 0.0 
0.0 0.0 -5.666020973920e-04 
-1.569287665322e-03 4.982993919659e-04 0.0 
4.982993919659e-04 7.796117196338e-03 0.0 
0.0 0.0 -1.149181664990e-03 
6.559202405712e-04 -1.403190814261e-03 0.0 
-1.403190814261e-03 1.391837788957e-03 0.0 
0.0 0.0 -8.776105840836e-04 
9.173022590222e-04 -1.676640049954e-03 0.0 
-1.676640049954e-03 6.107363237665e-04 0.0 
0.0 0.0 -6.548736783380e-04 
-1.171879392758e-03 -1.281686817317e-03 0.0 
-1.281686817317e-03 3.846852730435e-03 0.0 
0.0 0.0 -1.001803992689e-03 
1.504150752549e-03 2.803418453549e-03 0.0 
2.803418453549e-03 -4.311377337536e-05 0.0 
0.0 0.0 -6.261587053603e-04 
1.650316852641e-03 2.671963168056e-03 0.0 
2.671963168056e-03 -3.170419596538e-04 0.0 
0.0 0.0 -5.714035255658e-04 
1.466801754994e-03 -2.835534920743e-03 0.0 
-2.835534920743e-03 -6.856056088169e-05 0.0 
0.0 0.0 -5.992462260482e-04 
4.198225928608e-04 -2.489806032447e-03 0.0 
-2.489806032447e-03 9.452515050113e-04 0.0 
0.0 0.0 -5.850317562309e-04 
-7.228005656972e-04 -5.488391732617e-04 0.0 
-5.488391732617e-04 2.276834511977e-03 0.0 
0.0 0.0 -5.562745863746e-04 
-4.637036380639e-04 -1.428624458379e-03 0.0 
-1.428624458379e-03 3.853108176796e-03 0.0 
0.0 0.0 -1.173829981771e-03 
-1.646663843551e-03 1.358180133252e-03 0.0 
1.358180133252e-03 7.637691352308e-03 0.0 
0.0 0.0 -1.157575248917e-03 
-1.588531343900e-04 2.821657521555e-03 0.0 
2.821657521555e-03 3.283406077172e-03 0.0 
0.0 0.0 -1.080172819833e-03 
2.446831455112e-05 3.060603850123e-03 0.0 
3.060603850123e-03 2.728589719442e-03 0.0 
0.0 0.0 -1.015677837919e-03 
-3.660685555016e-04 2.667845735617e-03 0.0 
2.667845735617e-03 3.843962247037e-03 0.0 
0.0 0.0 -1.144955025780e-03 
2.673047132891e-04 -2.137865757300e-03 0.0 
-2.137865757300e-03 9.516698016607e-04 0.0 
0.0 0.0 -5.224176492642e-04 
-7.311483308604e-04 -1.856928531792e-03 0.0 
-1.856928531792e-03 4.285424001286e-03 0.0 
0.0 0.0 -1.165794428787e-03 
-2.038713827362e-03 -9.521744761757e-04 0.0 
-9.521744761757e-04 5.942161280998e-03 0.0 
0.0 0.0 -1.070719593515e-03 
-9.487823984943e-04 3.179202297983e-03 0.0 
3.179202297983e-03 5.046317585578e-03 0.0 
0.0 0.0 -1.157598467365e-03 
-1.028189826122e-03 3.189698687636e-03 0.0 
3.189698687636e-03 5.131498804919e-03 0.0 
0.0 0.0 -1.131219827106e-03 
1.693489723556e-03 2.912737131245e-03 0.0 
2.912737131245e-03 -1.493629984725e-04 0.0 
0.0 0.0 -6.617685964645e-04 
1.185947765099e-03 2.829659806798e-03 0.0 
2.829659806798e-03 2.506006467406e-04 0.0 
0.0 0.0 -6.156636050741e-04 
1.024663306531e-03 2.720941116212e-03 0.0 
2.720941116212e-03 3.858661710823e-04 0.0 
0.0 0.0 -6.045126332627e-04 
7.581467413336e-04 2.629057648791e-03 0.0 
2.629057648791e-03 6.283993164515e-04 0.0 
0.0 0.0 -5.942340247651e-04 
-1.648477658061e-03 2.188124378807e-03 0.0 
2.188124378807e-03 4.981950326516e-03 0.0 
0.0 0.0 -8.520119503206e-04 
1.288363213325e-03 2.918108490938e-03 0.0 
2.918108490938e-03 1.603315013667e-04 0.0 
0.0 0.0 -6.208691634391e-04 
-1.164374950017e-03 2.801514945082e-03 0.0 
2.801514945082e-03 4.086272555253e-03 0.0 
0.0 0.0 -8.983830653277e-04 
-1.269722602642e-03 2.487508477755e-03 0.0 
2.487508477755e-03 4.199128990551e-03 0.0 
0.0 0.0 -8.736227209573e-04 
-1.046332524412e-03 2.638264182984e-03 0.0 
2.638264182984e-03 3.789437134256e-03 0.0 
0.0 0.0 -8.954616384525e-04 
-9.535589006008e-05 3.192865815352e-03 0.0 
3.192865815352e-03 2.227004452414e-03 0.0 
0.0 0.0 -9.127067050351e-04 
-3.022280285659e-04 2.955332983640e-03 0.0 
2.955332983640e-03 2.491438051520e-03 0.0 
0.0 0.0 -9.307589223859e-04 
2.556968385694e-03 2.345203577048e-03 0.0 
2.345203577048e-03 -8.968266888023e-04 0.0 
0.0 0.0 -7.114892986678e-04 
1.812389688023e-03 1.564451495357e-03 0.0 
1.564451495357e-03 -6.179615212951e-04 0.0 
0.0 0.0 -5.118977857407e-04 
-8.515674767651e-04 -2.308299700533e-03 0.0 
-2.308299700533e-03 3.434983390257e-03 0.0 
0.0 0.0 -1.054912416397e-03 
-1.137266829401e-03 -2.398619768870e-03 0.0 
-2.398619768870e-03 4.055285407119e-03 0.0 
0.0 0.0 -1.045074301760e-03 
3.367977982503e-04 -3.065748121326e-03 0.0 
-3.065748121326e-03 1.429094799845e-03 0.0 
0.0 0.0 -7.568111134693e-04 
-1.629365191565e-03 9.257695161170e-04 0.0 
9.257695161170e-04 7.634439739813e-03 0.0 
0.0 0.0 -1.135109731873e-03 
-1.590870954180e-03 8.599854275843e-04 0.0 
8.599854275843e-04 7.870981141839e-03 0.0 
0.0 0.0 -1.171938512032e-03 
-1.643416432560e-03 4.449926551975e-04 0.0 
4.449926551975e-04 6.296597502974e-03 0.0 
0.0 0.0 -9.065739516476e-04 
-1.602464872442e-03 3.219184720994e-04 0.0 
3.219184720994e-04 6.108782366366e-03 0.0 
0.0 0.0 -8.764137937918e-04 
-2.696764371388e-04 -1.265861831851e-03 0.0 
-1.265861831851e-03 1.411045974668e-03 0.0 
0.0 0.0 -4.842067647502e-04 
-1.400634450087e-04 -1.409834388031e-03 0.0 
-1.409834388031e-03 1.204297259864e-03 0.0 
0.0 0.0 -4.502468535423e-04 
-2.319199994023e-04 -3.122878098546e-03 0.0 
-3.122878098546e-03 2.451044877422e-03 0.0 
0.0 0.0 -9.437206122825e-04 
-7.988578011231e-04 -2.058259969339e-03 0.0 
-2.058259969339e-03 4.234722114073e-03 0.0 
0.0 0.0 -1.127529358476e-03 
-1.669665556383e-03 1.635524756470e-03 0.0 
1.635524756470e-03 7.469407833496e-03 0.0 
0.0 0.0 -1.150095860580e-03 
-1.643068085807e-03 1.857648967737e-03 0.0 
1.857648967737e-03 7.542411325100e-03 0.0 
0.0 0.0 -1.179372829571e-03 
-1.673921977860e-03 1.925750498755e-03 0.0 
1.925750498755e-03 7.258395415596e-03 0.0 
0.0 0.0 -1.143369325255e-03 
-2.014473825755e-04 -1.218765106027e-03 0.0 
-1.218765106027e-03 3.345673547677e-03 0.0 
0.0 0.0 -1.144273392007e-03 
3.110341159347e-03 3.472939405717e-04 0.0 
3.472939405717e-04 -1.445647776500e-03 0.0 
0.0 0.0 -7.134400212203e-04 
1.600864292633e-03 -4.933060105816e-04 0.0 
-4.933060105816e-04 -5.124875882504e-04 0.0 
0.0 0.0 -4.664471590211e-04 
1.395368066446e-03 -9.561308999161e-04 0.0 
-9.561308999161e-04 -1.034414870566e-03 0.0 
0.0 0.0 -1.546942268056e-04 
3.758232775366e-04 3.466607308548e-03 0.0 
3.466607308548e-03 1.708095271688e-03 0.0 
0.0 0.0 -8.625807428358e-04 
-1.387284875597e-04 -1.147843400141e-03 0.0 
-1.147843400141e-03 1.071097091449e-03 0.0 
0.0 0.0 -3.720583479433e-04 
-1.231098641636e-03 3.135190691380e-03 0.0 
3.135190691380e-03 4.944666622865e-03 0.0 
0.0 0.0 -1.010319580236e-03 
-1.984786992954e-03 -8.733459957740e-04 0.0 
-8.733459957740e-04 6.259759611652e-03 0.0 
0.0 0.0 -1.122815839103e-03 
-1.861926426933e-03 -1.095524342960e-03 0.0 
-1.095524342960e-03 6.311220838631e-03 0.0 
0.0 0.0 -1.159213750608e-03 
-1.725327838232e-04 1.829528703914e-03 0.0 
1.829528703914e-03 3.501045676607e-03 0.0 
0.0 0.0 -1.171959308352e-03 
-1.590101240846e-03 1.706978125594e-03 0.0 
1.706978125594e-03 4.660773429978e-03 0.0 
0.0 0.0 -7.960146267056e-04 
5.073336669335e-04 3.214445659709e-03 0.0 
3.214445659709e-03 1.538412133141e-03 0.0 
0.0 0.0 -8.506774374544e-04 
8.851619009454e-04 2.969244090533e-03 0.0 
2.969244090533e-03 8.376787810317e-04 0.0 
0.0 0.0 -7.383602922759e-04 
-1.156062255108e-03 2.301233915827e-03 0.0 
2.301233915827e-03 3.896290621430e-03 0.0 
0.0 0.0 -8.625652443140e-04 
-9.471297243856e-04 2.440002294532e-03 0.0 
2.440002294532e-03 3.517004994648e-03 0.0 
0.0 0.0 -8.875966840820e-04 
-8.066787093543e-04 2.777426977554e-03 0.0 
2.777426977554e-03 3.370899001042e-03 0.0 
0.0 0.0 -9.244972712473e-04 
-7.192390311965e-04 2.566107428446e-03 0.0 
2.566107428446e-03 3.124935059627e-03 0.0 
0.0 0.0 -9.234394568817e-04 
1.009712769882e-03 -2.639627470040e-03 0.0 
-2.639627470040e-03 3.518698063256e-04 0.0 
0.0 0.0 -5.835353898034e-04 
7.225051380104e-04 -2.634694636205e-03 0.0 
-2.634694636205e-03 6.767854285005e-04 0.0 
0.0 0.0 -5.996959570761e-04 
-8.921567267479e-04 3.111111284804e-03 0.0 
3.111111284804e-03 5.059665355678e-03 0.0 
0.0 0.0 -1.192042136895e-03 
-6.099967263224e-04 2.870760626298e-03 0.0 
2.870760626298e-03 4.411064189710e-03 0.0 
0.0 0.0 -1.178660172201e-03 
-1.100042912757e-03 3.200343520554e-03 0.0 
3.200343520554e-03 5.573219155758e-03 0.0 
0.0 0.0 -1.193029175878e-03 
-1.160667669830e-03 3.176739035806e-03 0.0 
3.176739035806e-03 5.649176834465e-03 0.0 
0.0 0.0 -1.168165168231e-03 
-2.521445186915e-04 1.437999620024e-03 0.0 
1.437999620024e-03 3.663538457504e-03 0.0 
0.0 0.0 -1.200910491468e-03 
-1.175265126893e-05 1.083930210957e-03 0.0 
1.083930210957e-03 3.184478001405e-03 0.0 
0.0 0.0 -1.164168769488e-03 
-8.338945190871e-04 -6.899851568111e-04 0.0 
-6.899851568111e-04 2.693161182237e-03 0.0 
0.0 0.0 -7.014880017679e-04 
-2.848117966112e-04 2.692565546894e-03 0.0 
2.692565546894e-03 2.299445011333e-03 0.0 
0.0 0.0 -8.634142348809e-04 
-1.596224494799e-03 1.291320717670e-03 0.0 
1.291320717670e-03 7.883322151599e-03 0.0 
0.0 0.0 -1.194151889699e-03 
-1.353314944435e-03 2.157291733394e-03 0.0 
2.157291733394e-03 4.270289119183e-03 0.0 
0.0 0.0 -8.433929263471e-04 
-9.622501338421e-04 -1.912189492832e-03 0.0 
-1.912189492832e-03 4.776924830183e-03 0.0 
0.0 0.0 -1.192835421428e-03 
-1.026421419571e-03 -2.028541400734e-03 0.0 
-2.028541400734e-03 4.755168212354e-03 0.0 
0.0 0.0 -1.156047193884e-03 
4.478208592864e-04 -3.751585586859e-04 0.0 
-3.751585586859e-04 -4.241673929217e-04 0.0 
0.0 0.0 -1.013719987055e-05 
1.244125017972e-03 -1.917312666705e-03 0.0 
-1.917312666705e-03 -7.538799606522e-04 0.0 
0.0 0.0 -2.101050245656e-04 
-1.537691014338e-03 4.222863431362e-04 0.0 
4.222863431362e-04 8.020533850651e-03 0.0 
0.0 0.0 -1.184588873336e-03 
6.358527835684e-04 2.480430970654e-03 0.0 
2.480430970654e-03 6.941509382628e-04 0.0 
0.0 0.0 -5.700015950705e-04 
4.499471129459e-04 2.458836012126e-03 0.0 
2.458836012126e-03 9.036367217386e-04 0.0 
0.0 0.0 -5.801073577219e-04 
8.196974528425e-04 2.512758387053e-03 0.0 
2.512758387053e-03 5.135885621210e-04 0.0 
0.0 0.0 -5.714082921272e-04 
-1.721775180469e-03 -2.750261499923e-04 0.0 
-2.750261499923e-04 6.955705942823e-03 0.0 
0.0 0.0 -1.258310293365e-03 
-1.440319018305e-03 2.756393348766e-05 0.0 
2.756393348766e-05 5.261443928406e-03 0.0 
0.0 0.0 -7.479256703001e-04 
-1.851935248777e-03 -8.185806621322e-04 0.0 
-8.185806621322e-04 6.555435669483e-03 0.0 
0.0 0.0 -1.189418985649e-03 
-3.624356194934e-04 3.164434027964e-03 0.0 
3.164434027964e-03 2.710514095153e-03 0.0 
0.0 0.0 -9.658202727595e-04 
-1.517819935298e-03 5.689925216528e-04 0.0 
5.689925216528e-04 8.183121975380e-03 0.0 
0.0 0.0 -1.216510697198e-03 
6.201224625516e-04 2.820752531408e-03 0.0 
2.820752531408e-03 1.452084294343e-03 0.0 
0.0 0.0 -8.651011823288e-04 
9.038760669871e-04 3.026845929911e-03 0.0 
3.026845929911e-03 6.793831834175e-04 0.0 
0.0 0.0 -6.785396787449e-04 
8.674105580954e-05 -1.429107710981e-03 0.0 
-1.429107710981e-03 2.679701546003e-03 0.0 
0.0 0.0 -1.078177493492e-03 
-1.550932841916e-03 2.613354928632e-04 0.0 
2.613354928632e-04 7.825402361396e-03 0.0 
0.0 0.0 -1.149140729088e-03 
-1.512659112896e-03 3.422106709257e-04 0.0 
3.422106709257e-04 8.249752470507e-03 0.0 
0.0 0.0 -1.221625961084e-03 
-1.676659295308e-03 6.110344698925e-04 0.0 
6.110344698925e-04 5.968416883272e-03 0.0 
0.0 0.0 -8.638707813346e-04 
-1.641988205188e-03 4.340588364437e-04 0.0 
4.340588364437e-04 5.771155948817e-03 0.0 
0.0 0.0 -8.327709333130e-04 
-1.719162707249e-03 7.708162564075e-04 0.0 
7.708162564075e-04 6.112617701018e-03 0.0 
0.0 0.0 -8.925140200429e-04 
1.977927820577e-03 1.598623588264e-03 0.0 
1.598623588264e-03 -1.019208972965e-03 0.0 
0.0 0.0 -4.108795061196e-04 
1.108521086627e-03 1.458274724011e-03 0.0 
1.458274724011e-03 -6.824978449185e-04 0.0 
0.0 0.0 -1.825813893037e-04 
-1.599533954581e-03 7.014631110784e-04 0.0 
7.014631110784e-04 7.724369133548e-03 0.0 
0.0 0.0 -1.142090266074e-03 
-7.915237200633e-04 -1.416691550801e-03 0.0 
-1.416691550801e-03 2.916147842675e-03 0.0 
0.0 0.0 -8.917970384883e-04 
-9.526528541598e-04 -1.159662932408e-03 0.0 
-1.159662932408e-03 3.237497577102e-03 0.0 
0.0 0.0 -9.066540859529e-04 
1.679025679155e-04 -2.197795369639e-03 0.0 
-2.197795369639e-03 1.134113528401e-03 0.0 
0.0 0.0 -5.580068984213e-04 
1.993437938488e-04 -2.372930192997e-03 0.0 
-2.372930192997e-03 1.192906332053e-03 0.0 
0.0 0.0 -5.966786253865e-04 
-1.011942446972e-03 -2.270969963916e-03 0.0 
-2.270969963916e-03 3.766401779748e-03 0.0 
0.0 0.0 -1.058899862332e-03 
-7.573046355122e-04 -2.581800115454e-03 0.0 
-2.581800115454e-03 3.322201121737e-03 0.0 
0.0 0.0 -1.050266080739e-03 
-1.095827954621e-03 3.216069521876e-03 0.0 
3.216069521876e-03 4.826499025112e-03 0.0 
0.0 0.0 -1.038692069610e-03 
-1.234301998555e-03 3.107456630916e-03 0.0 
3.107456630916e-03 5.310904523361e-03 0.0 
0.0 0.0 -1.074129358999e-03 
-7.180889207275e-04 3.499463535137e-03 0.0 
3.499463535137e-03 3.763199671929e-03 0.0 
0.0 0.0 -9.722238801078e-04 
6.053063119579e-04 -2.030268547273e-03 0.0 
-2.030268547273e-03 1.237774920504e-03 0.0 
0.0 0.0 -7.898919567692e-04 
8.551862749054e-04 -2.258528060602e-03 0.0 
-2.258528060602e-03 5.423122765455e-04 0.0 
0.0 0.0 -5.989279506218e-04 
1.198969096751e-03 -1.716835984739e-03 0.0 
-1.716835984739e-03 -1.728528183354e-05 0.0 
0.0 0.0 -5.064359206787e-04 
-1.578160803348e-03 1.029909350069e-03 0.0 
1.029909350069e-03 7.988225935028e-03 0.0 
0.0 0.0 -1.199867006878e-03 
-1.525066789097e-03 9.716746199443e-04 0.0 
9.716746199443e-04 8.273760627129e-03 0.0 
0.0 0.0 -1.242728214876e-03 
1.321351467926e-03 -2.568351524438e-03 0.0 
-2.568351524438e-03 -2.315153931387e-07 0.0 
0.0 0.0 -5.661942653711e-04 
1.809254267051e-03 -2.583366555036e-03 0.0 
-2.583366555036e-03 -4.342692756295e-04 0.0 
0.0 0.0 -5.892792820380e-04 
6.921033763950e-04 -2.656898720389e-03 0.0 
-2.656898720389e-03 7.465441525006e-04 0.0 
0.0 0.0 -6.165632266696e-04 
-1.574485567314e-03 1.499311237931e-03 0.0 
1.499311237931e-03 7.988348182121e-03 0.0 
0.0 0.0 -1.223056365294e-03 
-1.741572698048e-03 -1.051965994170e-03 0.0 
-1.051965994170e-03 6.624165410999e-03 0.0 
0.0 0.0 -1.224004481682e-03 
-1.735235085971e-03 -1.304001527318e-03 0.0 
-1.304001527318e-03 6.344789461694e-03 0.0 
0.0 0.0 -1.195820777905e-03 
-2.679240954609e-05 -1.257927253223e-03 0.0 
-1.257927253223e-03 9.029103496679e-04 0.0 
0.0 0.0 -3.450663815859e-04 
-3.035170911774e-06 -1.579137764012e-03 0.0 
-1.579137764012e-03 1.039327180488e-03 0.0 
0.0 0.0 -4.410249086127e-04 
1.155100538592e-03 2.631364371344e-03 0.0 
2.631364371344e-03 1.868470155697e-04 0.0 
0.0 0.0 -5.751203803551e-04 
1.215808673203e-03 2.544029937651e-03 0.0 
2.544029937651e-03 -5.958635491021e-05 0.0 
0.0 0.0 -4.955238506970e-04 
-1.603953202991e-03 2.084851501461e-03 0.0 
2.084851501461e-03 7.579130278610e-03 0.0 
0.0 0.0 -1.207258722210e-03 
-1.637778905667e-03 2.162652518366e-03 0.0 
2.162652518366e-03 7.304299819900e-03 0.0 
0.0 0.0 -1.172631524865e-03 
-1.556077565275e-03 2.029656444368e-03 0.0 
2.029656444368e-03 7.905393318382e-03 0.0 
0.0 0.0 -1.247471551777e-03 
-8.078621275666e-04 -3.743686463011e-04 0.0 
-3.743686463011e-04 2.476609172107e-03 0.0 
0.0 0.0 -5.753817989848e-04 
1.173818397494e-04 2.725852523849e-03 0.0 
2.725852523849e-03 2.691650762888e-03 0.0 
0.0 0.0 -1.045322365442e-03 
-5.040778805934e-04 -1.070896588493e-03 0.0 
-1.070896588493e-03 3.980562278462e-03 0.0 
0.0 0.0 -1.207899217314e-03 
-2.520428194526e-04 -7.965635153337e-04 0.0 
-7.965635153337e-04 3.542662319704e-03 0.0 
0.0 0.0 -1.178012378629e-03 
-7.711086010594e-04 -1.329041706335e-03 0.0 
-1.329041706335e-03 4.567355749165e-03 0.0 
0.0 0.0 -1.244624083072e-03 
-1.223572839919e-04 2.186752793674e-03 0.0 
2.186752793674e-03 3.375840631155e-03 0.0 
0.0 0.0 -1.142102124289e-03 
-4.435966474857e-04 2.091597596222e-03 0.0 
2.091597596222e-03 3.997165180884e-03 0.0 
0.0 0.0 -1.205428683694e-03 
-6.295415077105e-04 2.617745388046e-03 0.0 
2.617745388046e-03 4.421095216534e-03 0.0 
0.0 0.0 -1.209323031234e-03 
8.913702169857e-05 -5.356610077544e-06 0.0 
-5.356610077544e-06 -8.913702169857e-05 0.0 
0.0 0.0 0.0 
-1.516551893121e-03 1.931531950452e-04 0.0 
1.931531950452e-04 8.105824831205e-03 0.0 
0.0 0.0 -1.199992767657e-03 
-1.600603275175e-03 3.197306060267e-04 0.0 
3.197306060267e-04 5.842030124630e-03 0.0 
0.0 0.0 -8.371571859873e-04 
0.0 0.0 0.0 
0.0 0.0 0.0 
0.0 0.0 0.0 
-1.547068004807e-03 2.255592860515e-04 0.0 
2.255592860515e-04 5.653808019545e-03 0.0 
0.0 0.0 -8.070151920887e-04 
-1.566358775821e-03 2.266234695203e-04 0.0 
2.266234695203e-04 5.919104175052e-03 0.0 
0.0 0.0 -8.451615393777e-04 
-1.505853756260e-03 1.425564258005e-04 0.0 
1.425564258005e-04 5.404792730384e-03 0.0 
0.0 0.0 -7.748096441827e-04 
-6.628775469822e-04 -3.015658585898e-04 0.0 
-3.015658585898e-04 2.010090265861e-03 0.0 
0.0 0.0 -4.206613647546e-04 
-1.675398106948e-03 5.868598101642e-04 0.0 
5.868598101642e-04 5.623434088204e-03 0.0 
0.0 0.0 -8.174106193842e-04 
-1.726757844430e-03 7.924650127462e-04 0.0 
7.924650127462e-04 5.855419414792e-03 0.0 
0.0 0.0 -8.556612431672e-04 
8.558548932515e-05 -1.128009013281e-03 0.0 
-1.128009013281e-03 6.309628739441e-04 0.0 
0.0 0.0 -2.713320700168e-04 
-1.513004436039e-03 1.420623121839e-03 0.0 
1.420623121839e-03 8.214217499082e-03 0.0 
0.0 0.0 -1.259301554906e-03 
1.749391661274e-04 -1.082733169331e-03 0.0 
-1.082733169331e-03 5.892299780132e-04 0.0 
0.0 0.0 -2.441793916413e-04 
1.147662153238e-04 -1.066745943300e-03 0.0 
-1.066745943300e-03 7.910181080930e-04 0.0 
0.0 0.0 -2.872885922025e-04 
-1.122672355991e-03 -1.921241529141e-03 0.0 
-1.921241529141e-03 5.266335920734e-03 0.0 
0.0 0.0 -1.221214701962e-03 
-1.203549749022e-03 -1.976762786956e-03 0.0 
-1.976762786956e-03 5.228557791274e-03 0.0 
0.0 0.0 -1.184344882880e-03 
-1.271935696370e-03 -1.932492998885e-03 0.0 
-1.932492998885e-03 5.682500405781e-03 0.0 
0.0 0.0 -1.247726601234e-03 
-1.345935677545e-03 -1.879180138911e-03 0.0 
-1.879180138911e-03 5.631962343118e-03 0.0 
0.0 0.0 -1.211018817991e-03 
-1.319489507466e-03 -1.996946989352e-03 0.0 
-1.996946989352e-03 5.223869660522e-03 0.0 
0.0 0.0 -1.147066289601e-03 
-1.457152980048e-03 -1.833275450520e-03 0.0 
-1.833275450520e-03 5.658001904065e-03 0.0 
0.0 0.0 -1.176490610025e-03 
-1.598701855115e-03 3.112456463076e-04 0.0 
3.112456463076e-04 5.594187128056e-03 0.0 
0.0 0.0 -7.985989294648e-04 
-1.425017338431e-03 -1.793987580484e-03 0.0 
-1.793987580484e-03 6.077694866820e-03 0.0 
0.0 0.0 -1.249018369598e-03 
-1.544794874514e-03 -1.654652183582e-03 0.0 
-1.654652183582e-03 6.043342076509e-03 0.0 
0.0 0.0 -1.207442871744e-03 
-1.490747382805e-03 -1.688185045970e-03 0.0 
-1.688185045970e-03 6.481641932430e-03 0.0 
0.0 0.0 -1.277927415301e-03 
-8.701201880038e-04 2.189049665711e-03 0.0 
2.189049665711e-03 3.268695103799e-03 0.0 
0.0 0.0 -8.722607330507e-04 
5.310970710450e-04 2.630450444314e-03 0.0 
2.630450444314e-03 9.000089298474e-04 0.0 
0.0 0.0 -6.133311432396e-04 
2.617133158352e-04 2.476764240616e-03 0.0 
2.476764240616e-03 1.164640329384e-03 0.0 
0.0 0.0 -6.112944193795e-04 
1.728571300418e-04 2.227493690469e-03 0.0 
2.227493690469e-03 1.142483149507e-03 0.0 
0.0 0.0 -5.637172626637e-04 
-1.229541831672e-03 3.263680413163e-03 0.0 
3.263680413163e-03 6.138633277811e-03 0.0 
0.0 0.0 -1.240180566941e-03 
-1.276361500880e-03 3.187291024850e-03 0.0 
3.187291024850e-03 6.099399323178e-03 0.0 
0.0 0.0 -1.200590015451e-03 
-2.088598425736e-03 -6.246367196868e-04 0.0 
-6.246367196868e-04 6.194373546362e-03 0.0 
0.0 0.0 -1.090180627845e-03 
-2.041663287848e-03 -6.617363893855e-04 0.0 
-6.617363893855e-04 5.852171557009e-03 0.0 
0.0 0.0 -1.067141795818e-03 
-1.532469855713e-03 1.525337910669e-04 0.0 
1.525337910669e-04 5.692847008020e-03 0.0 
0.0 0.0 -8.108182148135e-04 
-1.511312180107e-03 9.255618039040e-05 0.0 
9.255618039040e-05 5.666580148835e-03 0.0 
0.0 0.0 -8.077352941366e-04 
-1.560488436606e-03 1.911238081195e-04 0.0 
1.911238081195e-04 6.070956180256e-03 0.0 
0.0 0.0 -8.678526801547e-04 
-1.544526745633e-03 1.030985674976e-04 0.0 
1.030985674976e-04 6.005801825662e-03 0.0 
0.0 0.0 -8.609153521579e-04 
-1.580530064686e-03 1.945628071657e-04 0.0 
1.945628071657e-04 6.420611350931e-03 0.0 
0.0 0.0 -9.200517378055e-04 
-1.559403933791e-03 8.887484367551e-05 0.0 
8.887484367551e-05 6.359767284502e-03 0.0 
0.0 0.0 -9.108947733944e-04 
-1.583263469338e-03 1.334252269549e-04 0.0 
1.334252269549e-04 6.753346818615e-03 0.0 
0.0 0.0 -9.726914458129e-04 
-8.669769815257e-04 2.889098903744e-03 0.0 
2.889098903744e-03 5.024560399167e-03 0.0 
0.0 0.0 -1.245087786853e-03 
4.982055672495e-04 2.293020821825e-03 0.0 
2.293020821825e-03 7.508210362061e-04 0.0 
0.0 0.0 -5.352971157667e-04 
-1.245162061090e-03 1.941632408908e-03 0.0 
1.941632408908e-03 3.965163190857e-03 0.0 
0.0 0.0 -8.237883836899e-04 
-3.879507205886e-04 1.027612391922e-03 0.0 
1.027612391922e-03 3.877749242080e-03 0.0 
0.0 0.0 -1.228261380050e-03 
-1.475502455479e-04 6.710535629733e-04 0.0 
6.710535629733e-04 3.400758398957e-03 0.0 
0.0 0.0 -1.187396807988e-03 
-4.877113708210e-04 2.653909423409e-03 0.0 
2.653909423409e-03 2.711925927626e-03 0.0 
0.0 0.0 -9.301491777014e-04 
-4.673273112926e-04 2.354591855457e-03 0.0 
2.354591855457e-03 2.518811343451e-03 0.0 
0.0 0.0 -8.783714799336e-04 
-9.656459474725e-04 -1.750454010380e-03 0.0 
-1.750454010380e-03 4.960948450779e-03 0.0 
0.0 0.0 -1.238794375355e-03 
1.773029984471e-03 2.918628512030e-03 0.0 
2.918628512030e-03 -2.405794798709e-04 0.0 
0.0 0.0 -6.567645019713e-04 
-1.474754496101e-03 1.652724927503e-03 0.0 
1.652724927503e-03 8.365646577830e-03 0.0 
0.0 0.0 -1.295459716840e-03 
0.0 0.0 0.0 
0.0 0.0 0.0 
0.0 0.0 0.0 
1.498393906149e-04 3.022053957605e-04 0.0 
3.022053957605e-04 -1.163750170629e-04 0.0 
0.0 0.0 -1.434187437942e-05 
1.327025876230e-03 3.010605488358e-03 0.0 
3.010605488358e-03 1.473338213913e-04 0.0 
0.0 0.0 -6.318684418375e-04 
-5.499021132442e-04 2.888144921732e-03 0.0 
2.888144921732e-03 2.938437648155e-03 0.0 
0.0 0.0 -9.558721723632e-04 
3.323415439528e-04 2.743520330787e-03 0.0 
2.743520330787e-03 1.229329144075e-03 0.0 
0.0 0.0 -6.692874377263e-04 
9.209566797494e-05 2.604630668434e-03 0.0 
2.604630668434e-03 1.511290340994e-03 0.0 
0.0 0.0 -6.871654324154e-04 
3.645468755337e-04 -1.692092076938e-03 0.0 
-1.692092076938e-03 1.976975662064e-03 0.0 
0.0 0.0 -9.759998253719e-04 
1.091376312940e-04 -1.700138468344e-03 0.0 
-1.700138468344e-03 9.084482070208e-04 0.0 
0.0 0.0 -4.293607968937e-04 
9.860679807434e-04 2.546469046220e-03 0.0 
2.546469046220e-03 3.575313038065e-04 0.0 
0.0 0.0 -5.758282648071e-04 
-1.592993118431e-03 2.731466696240e-04 0.0 
2.731466696240e-04 6.800272037187e-03 0.0 
0.0 0.0 -9.796923013958e-04 
6.911227834126e-04 2.251046992259e-03 0.0 
2.251046992259e-03 5.130124139505e-04 0.0 
0.0 0.0 -5.160579417270e-04 
-2.121618955622e-03 -3.224058753556e-04 0.0 
-3.224058753556e-04 6.099005119318e-03 0.0 
0.0 0.0 -1.073807358551e-03 
2.201373567652e-03 2.690698738968e-03 0.0 
2.690698738968e-03 -6.091920316776e-04 0.0 
0.0 0.0 -6.823635154174e-04 
-1.638384935320e-04 3.372316730358e-03 0.0 
3.372316730358e-03 2.445531910937e-03 0.0 
0.0 0.0 -9.519839029876e-04 
1.275974649949e-03 2.775715452302e-03 0.0 
2.775715452302e-03 1.801999389927e-04 0.0 
0.0 0.0 -6.240748238320e-04 
8.350192799097e-04 2.727176630851e-03 0.0 
2.727176630851e-03 5.820764688072e-04 0.0 
0.0 0.0 -6.073267494501e-04 
-1.574296698924e-03 2.484580816168e-03 0.0 
2.484580816168e-03 4.927078130058e-03 0.0 
0.0 0.0 -8.786961992330e-04 
-1.699341285066e-03 1.882952510091e-03 0.0 
1.882952510091e-03 5.001649373791e-03 0.0 
0.0 0.0 -8.239340753773e-04 
-1.544077067517e-03 2.021174845409e-03 0.0 
2.021174845409e-03 4.648313902463e-03 0.0 
0.0 0.0 -8.287327148421e-04 
2.547623254183e-03 2.268646563305e-03 0.0 
2.268646563305e-03 -9.255766277510e-04 0.0 
0.0 0.0 -6.951628398994e-04 
-9.793607364304e-05 2.680641002234e-03 0.0 
2.680641002234e-03 1.905972935152e-03 0.0 
0.0 0.0 -7.748729406467e-04 
-1.401926105552e-04 2.272349151151e-03 0.0 
2.272349151151e-03 1.732062029039e-03 0.0 
0.0 0.0 -6.822297507788e-04 
-1.042335079289e-03 3.085608632330e-03 0.0 
3.085608632330e-03 3.939330989580e-03 0.0 
0.0 0.0 -9.170298757010e-04 
-1.694312562690e-03 2.003906122110e-03 0.0 
2.003906122110e-03 6.960974899569e-03 0.0 
0.0 0.0 -1.107475121065e-03 
-1.654341182746e-03 2.234400658440e-03 0.0 
2.234400658440e-03 6.989596744706e-03 0.0 
0.0 0.0 -1.136341617999e-03 
-1.591073595122e-03 2.379952355984e-03 0.0 
2.379952355984e-03 7.311228899108e-03 0.0 
0.0 0.0 -1.199268560344e-03 
-1.606550985090e-03 2.450965261895e-03 0.0 
2.450965261895e-03 7.002228799418e-03 0.0 
0.0 0.0 -1.164598082371e-03 
-1.654615127137e-03 2.306554865062e-03 0.0 
2.306554865062e-03 6.662432923767e-03 0.0 
0.0 0.0 -1.100413285504e-03 
-1.595489437176e-03 2.513437590904e-03 0.0 
2.513437590904e-03 6.653696588520e-03 0.0 
0.0 0.0 -1.129075729544e-03 
-1.546389988990e-03 2.664193302564e-03 0.0 
2.664193302564e-03 6.994860909819e-03 0.0 
0.0 0.0 -1.193594387005e-03 
-1.524710140769e-03 2.725114460972e-03 0.0 
2.725114460972e-03 6.640657221836e-03 0.0 
0.0 0.0 -1.159256375294e-03 
-1.483453285402e-03 2.879360167952e-03 0.0 
2.879360167952e-03 7.061959584516e-03 0.0 
0.0 0.0 -1.234286862126e-03 
-1.459335345335e-03 2.896614314087e-03 0.0 
2.896614314087e-03 6.597331098230e-03 0.0 
0.0 0.0 -1.187309181180e-03 
-1.487240193726e-03 2.797813669470e-03 0.0 
2.797813669470e-03 6.237817525026e-03 0.0 
0.0 0.0 -1.120864512401e-03 
-1.416348664038e-03 2.952147323061e-03 0.0 
2.952147323061e-03 6.179572228468e-03 0.0 
0.0 0.0 -1.147759711419e-03 
-1.401702611885e-03 3.058403427338e-03 0.0 
3.058403427338e-03 6.528924407833e-03 0.0 
0.0 0.0 -1.207767947030e-03 
-1.429554607918e-03 2.882577101757e-03 0.0 
2.882577101757e-03 5.825437132677e-03 0.0 
0.0 0.0 -1.082593982084e-03 
-6.657140394303e-04 1.410986986977e-03 0.0 
1.410986986977e-03 4.342280522210e-03 0.0 
0.0 0.0 -1.264544343569e-03 
1.285034861164e-03 3.046453072889e-03 0.0 
3.046453072889e-03 2.156214386420e-04 0.0 
0.0 0.0 -6.431384142027e-04 
3.221685064304e-04 2.100220635338e-04 0.0 
2.100220635338e-04 -3.125792772457e-04 0.0 
0.0 0.0 -4.109669650583e-06 
7.277286052914e-04 1.662264959666e-03 0.0 
1.662264959666e-03 -4.217765524128e-04 0.0 
0.0 0.0 -1.311223083766e-04 
-4.639929809661e-04 3.327821869830e-03 0.0 
3.327821869830e-03 2.959449472573e-03 0.0 
0.0 0.0 -9.691543639280e-04 
-1.437907230863e-03 2.996700486661e-03 0.0 
2.996700486661e-03 7.518201304671e-03 0.0 
0.0 0.0 -1.299806302097e-03 
-1.466395687024e-03 2.621641971218e-03 0.0 
2.621641971218e-03 7.881651097987e-03 0.0 
0.0 0.0 -1.301753673823e-03 
2.487482228611e-03 2.475720953215e-03 0.0 
2.475720953215e-03 -8.077451105291e-04 0.0 
0.0 0.0 -7.198873363210e-04 
-1.280305576935e-03 3.404019922885e-03 0.0 
3.404019922885e-03 6.453749912264e-03 0.0 
0.0 0.0 -1.303413959896e-03 
-1.478986277362e-03 2.335815426712e-03 0.0 
2.335815426712e-03 4.599949913439e-03 0.0 
0.0 0.0 -8.572908036711e-04 
2.443469762099e-03 1.504212848516e-03 0.0 
1.504212848516e-03 -1.149517681368e-03 0.0 
0.0 0.0 -5.545508917418e-04 
-1.188451958700e-03 3.233888318984e-03 0.0 
3.233888318984e-03 5.957074391346e-03 0.0 
0.0 0.0 -1.304286792737e-03 
-1.700650587437e-03 2.084768146748e-03 0.0 
2.084768146748e-03 6.648225866754e-03 0.0 
0.0 0.0 -1.071440646998e-03 
-1.693986595116e-03 2.166002580174e-03 0.0 
2.166002580174e-03 6.318613390721e-03 0.0 
0.0 0.0 -1.034857077839e-03 
-1.735485188954e-03 1.934897306350e-03 0.0 
1.934897306350e-03 6.303939504401e-03 0.0 
0.0 0.0 -1.006057961993e-03 
-1.460757887231e-03 2.250687193900e-03 0.0 
2.250687193900e-03 8.134933915156e-03 0.0 
0.0 0.0 -1.305867370806e-03 
-1.749991994699e-03 9.588049142227e-04 0.0 
9.588049142227e-04 6.254499179949e-03 0.0 
0.0 0.0 -9.232948652302e-04 
-1.017747060708e-03 2.242049910193e-03 0.0 
2.242049910193e-03 5.131073367086e-03 0.0 
0.0 0.0 -1.306016332489e-03 
1.333415972402e-03 1.535387923333e-03 0.0 
1.535387923333e-03 1.136937242501e-04 0.0 
0.0 0.0 -6.201898699939e-04 
1.391903311676e-03 2.154011180947e-03 0.0 
2.154011180947e-03 1.151631227135e-05 0.0 
0.0 0.0 -6.014655531204e-04 
1.815463505361e-03 2.115453371163e-03 0.0 
2.115453371163e-03 -5.458577548768e-04 0.0 
0.0 0.0 -5.441167502075e-04 
-1.566214445404e-03 2.595986134179e-03 0.0 
2.595986134179e-03 6.282321888988e-03 0.0 
0.0 0.0 -1.092245366321e-03 
-9.205735445318e-04 4.808338680360e-04 0.0 
4.808338680360e-04 4.693547071086e-03 0.0 
0.0 0.0 -1.302677999426e-03 
-5.441937307524e-04 1.925192123183e-04 0.0 
1.925192123183e-04 4.093065944914e-03 0.0 
0.0 0.0 -1.248400714067e-03 
-5.696920249624e-04 -2.362618994637e-04 0.0 
-2.362618994637e-04 4.138723512730e-03 0.0 
0.0 0.0 -1.248426544684e-03 
-2.031241474020e-04 -7.328110519664e-05 0.0 
-7.328110519664e-05 3.471353297543e-03 0.0 
0.0 0.0 -1.189114855724e-03 
-9.524782035086e-04 -4.338690848369e-04 0.0 
-4.338690848369e-04 4.786583626593e-03 0.0 
0.0 0.0 -1.303398793257e-03 
-1.386313891139e-03 3.268387124946e-03 0.0 
3.268387124946e-03 7.156994535034e-03 0.0 
0.0 0.0 -1.306665994082e-03 
-1.359095365040e-03 3.359352166101e-03 0.0 
3.359352166101e-03 6.950855487648e-03 0.0 
0.0 0.0 -1.308500709484e-03 
1.902852668699e-03 -2.817268794694e-03 0.0 
-2.817268794694e-03 -4.032967653229e-04 0.0 
0.0 0.0 -6.426668157327e-04 
2.253407391376e-03 -2.370679650838e-03 0.0 
-2.370679650838e-03 -7.551607023086e-04 0.0 
0.0 0.0 -6.421057238860e-04 
2.152188401618e-03 -2.215932361183e-03 0.0 
-2.215932361183e-03 -7.648493634962e-04 0.0 
0.0 0.0 -5.945738734806e-04 
2.568498674833e-03 -1.800335482077e-03 0.0 
-1.800335482077e-03 -1.054151680982e-03 0.0 
0.0 0.0 -6.490058545078e-04 
2.589267859695e-03 -1.939320893250e-03 0.0 
-1.939320893250e-03 -1.034701238564e-03 0.0 
0.0 0.0 -6.662428376277e-04 
2.845251393852e-03 -1.182488936622e-03 0.0 
-1.182488936622e-03 -1.266140625123e-03 0.0 
0.0 0.0 -6.767617580267e-04 
2.841382791890e-03 -1.149550775431e-03 0.0 
-1.149550775431e-03 -1.284812658761e-03 0.0 
0.0 0.0 -6.671014856266e-04 
2.966198092938e-03 -3.987988764167e-04 0.0 
-3.987988764167e-04 -1.382086548665e-03 0.0 
0.0 0.0 -6.789049475453e-04 
-1.248651035025e-03 3.111213554981e-03 0.0 
3.111213554981e-03 5.700369437698e-03 0.0 
0.0 0.0 -1.138512926666e-03 
-1.048382069547e-03 -1.181351894960e-03 0.0 
-1.181351894960e-03 5.065835417687e-03 0.0 
0.0 0.0 -1.305779161548e-03 
4.789526992596e-05 -3.017317976477e-03 0.0 
-3.017317976477e-03 1.955725826502e-03 0.0 
0.0 0.0 -8.490207048509e-04 
4.255875009583e-04 -2.891330549410e-03 0.0 
-2.891330549410e-03 1.272940405536e-03 0.0 
0.0 0.0 -7.279405313547e-04 
7.016485745697e-04 -2.791230812805e-03 0.0 
-2.791230812805e-03 8.160956132734e-04 0.0 
0.0 0.0 -6.504617947899e-04 
-6.090620729236e-04 -2.591660670729e-03 0.0 
-2.591660670729e-03 2.996920806010e-03 0.0 
0.0 0.0 -1.013136008453e-03 
-4.847718747428e-04 -2.835802633982e-03 0.0 
-2.835802633982e-03 2.833935359093e-03 0.0 
0.0 0.0 -9.978061834832e-04 
-6.569091499038e-04 -2.799289725008e-03 0.0 
-2.799289725008e-03 3.183472627718e-03 0.0 
0.0 0.0 -1.035689958333e-03 
-7.207313198164e-04 -2.290250490495e-03 0.0 
-2.290250490495e-03 3.125345330795e-03 0.0 
0.0 0.0 -1.018322119518e-03 
-1.167877884792e-04 3.342094439232e-03 0.0 
3.342094439232e-03 2.837618912037e-03 0.0 
0.0 0.0 -9.882323209451e-04 
-1.091898030697e-03 -1.486850666943e-03 0.0 
-1.486850666943e-03 5.227315460995e-03 0.0 
0.0 0.0 -1.305003056577e-03 
1.225364256890e-03 -1.147615656396e-03 0.0 
-1.147615656396e-03 3.835923769498e-05 0.0 
0.0 0.0 -5.415957833937e-04 
-1.980397502487e-04 -3.005905727183e-03 0.0 
-3.005905727183e-03 2.314319347710e-03 0.0 
0.0 0.0 -9.069769703405e-04 
-1.707142071172e-03 7.635271864477e-04 0.0 
7.635271864477e-04 5.127553643252e-03 0.0 
0.0 0.0 -7.516786372745e-04 
-1.746908817975e-03 1.023609105839e-03 0.0 
1.023609105839e-03 5.442206395915e-03 0.0 
0.0 0.0 -8.094822736869e-04 
-1.772933357879e-03 1.184262300292e-03 0.0 
1.184262300292e-03 5.385289162601e-03 0.0 
0.0 0.0 -8.097394517040e-04 
-1.768350599280e-03 1.251073624371e-03 0.0 
1.251073624371e-03 5.764313646979e-03 0.0 
0.0 0.0 -8.733121467894e-04 
-1.727990335715e-03 8.210495884293e-04 0.0 
8.210495884293e-04 5.545557871090e-03 0.0 
0.0 0.0 -8.155917408702e-04 
-1.236784994223e-03 -1.923322638249e-03 0.0 
-1.923322638249e-03 4.168389852977e-03 0.0 
0.0 0.0 -1.057296815204e-03 
-1.427088068768e-03 -1.555275096953e-03 0.0 
-1.555275096953e-03 4.526520888732e-03 0.0 
0.0 0.0 -1.060211733922e-03 
-1.439309846138e-03 -1.245667555875e-03 0.0 
-1.245667555875e-03 4.501167157264e-03 0.0 
0.0 0.0 -1.053704044192e-03 
-1.586214255689e-03 -1.181249332069e-03 0.0 
-1.181249332069e-03 4.840144294026e-03 0.0 
0.0 0.0 -1.064485974018e-03 
-1.568580492753e-03 -8.807724015312e-04 0.0 
-8.807724015312e-04 4.760936091880e-03 0.0 
0.0 0.0 -1.058069710598e-03 
-1.437909822652e-03 -9.389915626686e-04 0.0 
-9.389915626686e-04 4.447516747931e-03 0.0 
0.0 0.0 -1.040756414728e-03 
-1.718221607956e-03 -8.006521433412e-04 0.0 
-8.006521433412e-04 5.111220650433e-03 0.0 
0.0 0.0 -1.068385751750e-03 
-1.669418493281e-03 -5.082865991109e-04 0.0 
-5.082865991109e-04 4.972394175886e-03 0.0 
0.0 0.0 -1.061946884890e-03 
-1.641647603362e-03 4.850166825857e-04 0.0 
4.850166825857e-04 5.202247326036e-03 0.0 
0.0 0.0 -7.509531518293e-04 
4.681733094658e-05 -5.816533838581e-04 0.0 
-5.816533838581e-04 9.454411860111e-05 0.0 
0.0 0.0 -6.058347837758e-05 
4.397814964137e-04 -2.157349287924e-03 0.0 
-2.157349287924e-03 4.211423268835e-04 0.0 
0.0 0.0 -3.689673528416e-04 
3.155046189534e-04 -2.027375098909e-03 0.0 
-2.027375098909e-03 7.742453397045e-04 0.0 
0.0 0.0 -4.670356965677e-04 
8.520514226530e-04 -2.864865723911e-03 0.0 
-2.864865723911e-03 5.535726049248e-04 0.0 
0.0 0.0 -6.024102975334e-04 
1.107532573262e-03 -2.675867926973e-03 0.0 
-2.675867926973e-03 -1.282410957994e-04 0.0 
0.0 0.0 -4.196963474839e-04 
1.414391538560e-03 -3.037597772400e-03 0.0 
-3.037597772400e-03 4.732794591137e-06 0.0 
0.0 0.0 -6.081961427792e-04 
1.798568626031e-03 -2.807561227883e-03 0.0 
-2.807561227883e-03 -5.963916264621e-04 0.0 
0.0 0.0 -5.152187141009e-04 
4.798167785024e-04 -1.487535536050e-03 0.0 
-1.487535536050e-03 -2.160815451901e-04 0.0 
0.0 0.0 -1.130293857052e-04 
1.221925142391e-04 -6.477447924089e-04 0.0 
-6.477447924089e-04 3.263707583015e-04 0.0 
0.0 0.0 -1.721226713898e-04 
1.600896537738e-04 -1.547795297662e-03 0.0 
-1.547795297662e-03 7.330764534416e-04 0.0 
0.0 0.0 -3.827854745209e-04 
1.103966075786e-04 -5.622367864216e-04 0.0 
-5.622367864216e-04 3.103757836854e-04 0.0 
0.0 0.0 -1.517934084529e-04 
1.053013884946e-04 -1.323791722729e-03 0.0 
-1.323791722729e-03 6.739471651028e-04 0.0 
0.0 0.0 -3.339636658274e-04 
3.430982234410e-04 -2.178085181117e-03 0.0 
-2.178085181117e-03 8.728126235658e-04 0.0 
0.0 0.0 -5.211046487172e-04 
-1.935346954464e-05 -1.828430160185e-03 0.0 
-1.828430160185e-03 1.220825087692e-03 0.0 
0.0 0.0 -5.149164077774e-04 
-1.561183168720e-03 -1.084347523387e-03 0.0 
-1.084347523387e-03 6.914233553436e-03 0.0 
0.0 0.0 -1.294874803588e-03 
-1.312931512090e-03 -3.406360319044e-04 0.0 
-3.406360319044e-04 4.053324067572e-03 0.0 
0.0 0.0 -9.806349194848e-04 
-1.232619789514e-03 -6.513903715833e-04 0.0 
-6.513903715833e-04 3.864959534980e-03 0.0 
0.0 0.0 -9.593735700280e-04 
-1.113036939270e-03 -6.004263507847e-04 0.0 
-6.004263507847e-04 3.522372894904e-03 0.0 
0.0 0.0 -8.977078860960e-04 
-1.116965318077e-03 -9.982255990531e-04 0.0 
-9.982255990531e-04 3.625196753216e-03 0.0 
0.0 0.0 -9.469176294500e-04 
-1.332244483269e-03 -6.509527714259e-04 0.0 
-6.509527714259e-04 4.142116544653e-03 0.0 
0.0 0.0 -1.006312639172e-03 
-1.080865388107e-03 -2.755367266220e-04 0.0 
-2.755367266220e-04 3.371661966390e-03 0.0 
0.0 0.0 -8.426599334973e-04 
-1.024104142748e-03 -5.302931597588e-04 0.0 
-5.302931597588e-04 3.225767958481e-03 0.0 
0.0 0.0 -8.124903673991e-04 
2.119334771273e-03 -2.250984394130e-04 0.0 
-2.250984394130e-04 -5.528535054759e-04 0.0 
0.0 0.0 -1.954030217304e-04 
1.237953986699e-03 -2.579545419294e-04 0.0 
-2.579545419294e-04 1.543244489082e-04 0.0 
0.0 0.0 -2.932658944931e-04 
1.411332111426e-03 -2.759944625030e-05 0.0 
-2.759944625030e-05 3.743876493098e-05 0.0 
0.0 0.0 -2.856593951198e-04 
3.600465984566e-04 -2.066499797985e-04 0.0 
-2.066499797985e-04 8.608267290585e-04 0.0 
0.0 0.0 -3.080440922735e-04 
3.653305054747e-04 -3.597145395908e-04 0.0 
-3.597145395908e-04 8.532226922973e-04 0.0 
0.0 0.0 -3.086108473030e-04 
1.169231949576e-03 -3.840093619394e-04 0.0 
-3.840093619394e-04 1.923594400946e-04 0.0 
0.0 0.0 -2.956379591255e-04 
1.031256041784e-03 -4.886047117192e-04 0.0 
-4.886047117192e-04 2.379226924498e-04 0.0 
0.0 0.0 -2.908089562448e-04 
1.816529586793e-03 -3.500151260859e-04 0.0 
-3.500151260859e-04 -4.323507490206e-04 0.0 
0.0 0.0 -1.958374107737e-04 
8.667756449627e-04 -6.409008792115e-04 0.0 
-6.409008792115e-04 2.928477416533e-04 0.0 
0.0 0.0 -2.796976375194e-04 
1.702636575089e-04 -6.542409432277e-04 0.0 
-6.542409432277e-04 9.095668014512e-04 0.0 
0.0 0.0 -3.106791268491e-04 
1.620102908946e-03 -4.500577592913e-04 0.0 
-4.500577592913e-04 -3.726586433767e-04 0.0 
0.0 0.0 -1.892091717599e-04 
-1.577535716708e-03 5.392394720966e-05 0.0 
5.392394720966e-05 7.299934411769e-03 0.0 
0.0 0.0 -1.060427308513e-03 
-1.573061893325e-03 1.544570403577e-04 0.0 
1.544570403577e-04 7.509050943264e-03 0.0 
0.0 0.0 -1.097082233180e-03 
-1.192953449252e-03 -1.864011720090e-03 0.0 
-1.864011720090e-03 5.605209134645e-03 0.0 
0.0 0.0 -1.300897016293e-03 
-1.579855819088e-03 2.979771540211e-04 0.0 
2.979771540211e-04 5.293250471981e-03 0.0 
0.0 0.0 -7.584009903415e-04 
3.744709763724e-04 -6.364946627065e-04 0.0 
-6.364946627065e-04 1.401291707387e-04 0.0 
0.0 0.0 -1.034024162715e-04 
-1.449845600680e-03 6.382887501364e-04 0.0 
6.382887501364e-04 8.609834207447e-03 0.0 
0.0 0.0 -1.292107529982e-03 
-1.448440923656e-03 1.123280561170e-03 0.0 
1.123280561170e-03 8.566022624529e-03 0.0 
0.0 0.0 -1.303172775453e-03 
-1.434083243244e-03 9.839421265548e-04 0.0 
9.839421265548e-04 8.603548743914e-03 0.0 
0.0 0.0 -1.304823151597e-03 
-1.916252571144e-03 -2.792629766010e-04 0.0 
-2.792629766010e-04 6.698528630947e-03 0.0 
0.0 0.0 -1.191058493115e-03 
-1.809292576517e-03 -5.447261667623e-04 0.0 
-5.447261667623e-04 6.787910699568e-03 0.0 
0.0 0.0 -1.224322658093e-03 
-1.441620689681e-03 3.697909072679e-04 0.0 
3.697909072679e-04 8.644537781625e-03 0.0 
0.0 0.0 -1.294569364341e-03 
-1.966831809583e-04 -2.229424319449e-03 0.0 
-2.229424319449e-03 1.821439975238e-03 0.0 
0.0 0.0 -6.963243404055e-04 
-1.542446802675e-03 2.619749311667e-03 0.0 
2.619749311667e-03 7.342230023592e-03 0.0 
0.0 0.0 -1.225740639889e-03 
-1.563624804990e-03 6.428436196565e-04 0.0 
6.428436196565e-04 7.948413338163e-03 0.0 
0.0 0.0 -1.178628832109e-03 
2.201456429693e-03 2.341714128316e-03 0.0 
2.341714128316e-03 -8.075777083502e-04 0.0 
0.0 0.0 -5.973765948613e-04 
4.529977292289e-04 -2.561738032130e-03 0.0 
-2.561738032130e-03 9.606788663604e-04 0.0 
0.0 0.0 -6.058613981097e-04 
-1.912750157524e-03 -1.012850712710e-03 0.0 
-1.012850712710e-03 5.577288917285e-03 0.0 
0.0 0.0 -1.066202199875e-03 
-1.088098720313e-03 -2.559527887766e-03 0.0 
-2.559527887766e-03 3.979421504262e-03 0.0 
0.0 0.0 -1.028256539386e-03 
-1.822459650115e-03 -1.367111847188e-03 0.0 
-1.367111847188e-03 6.015979930005e-03 0.0 
0.0 0.0 -1.130390451587e-03 
-1.582105737625e-03 -1.721031184097e-03 0.0 
-1.721031184097e-03 4.901863080820e-03 0.0 
0.0 0.0 -1.057243679378e-03 
-1.608185598285e-03 -1.915614561762e-03 0.0 
-1.915614561762e-03 5.282640092044e-03 0.0 
0.0 0.0 -1.076106726067e-03 
-6.144948469041e-04 -6.639795998970e-04 0.0 
-6.639795998970e-04 4.224201553889e-03 0.0 
0.0 0.0 -1.244129926109e-03 
-5.789303246957e-04 -4.457683817534e-04 0.0 
-4.457683817534e-04 1.808907778624e-03 0.0 
0.0 0.0 -3.862231446352e-04 
-1.669791442216e-03 5.742208476735e-04 0.0 
5.742208476735e-04 6.461493581352e-03 0.0 
0.0 0.0 -9.364826870394e-04 
-1.605975857622e-03 3.178960195767e-04 0.0 
3.178960195767e-04 6.348918363535e-03 0.0 
0.0 0.0 -9.130351872960e-04 
-1.629937813867e-03 6.093327650254e-04 0.0 
6.093327650254e-04 7.342083193620e-03 0.0 
0.0 0.0 -1.075939795031e-03 
-6.482537929307e-04 -1.608115231979e-03 0.0 
-1.608115231979e-03 2.605453652753e-03 0.0 
0.0 0.0 -8.387999399238e-04 
-1.303549504287e-03 -1.305113709369e-03 0.0 
-1.305113709369e-03 4.181114019267e-03 0.0 
0.0 0.0 -1.034705495726e-03 
-3.971862798800e-04 -1.135666412244e-03 0.0 
-1.135666412244e-03 1.660229728604e-03 0.0 
0.0 0.0 -5.350964027253e-04 
-1.079760018860e-03 3.194336986256e-03 0.0 
3.194336986256e-03 5.659153012299e-03 0.0 
0.0 0.0 -1.251461238623e-03 
-9.146057249504e-04 2.949568127909e-03 0.0 
2.949568127909e-03 3.641380823932e-03 0.0 
0.0 0.0 -9.215523041033e-04 
5.869540678773e-04 -2.956750850037e-03 0.0 
-2.956750850037e-03 1.034406097070e-03 0.0 
0.0 0.0 -6.948686421203e-04 
-4.983222250127e-04 -2.534366466985e-03 0.0 
-2.534366466985e-03 2.700875388843e-03 0.0 
0.0 0.0 -9.439513559275e-04 
-3.730260252317e-06 -2.536920884211e-03 0.0 
-2.536920884211e-03 1.637062224885e-03 0.0 
0.0 0.0 -6.999994134141e-04 
7.353476243331e-04 -2.725229135126e-03 0.0 
-2.725229135126e-03 6.766599510438e-04 0.0 
0.0 0.0 -6.051461037329e-04 
8.595376325540e-04 3.133881433802e-03 0.0 
3.133881433802e-03 8.059885165152e-04 0.0 
0.0 0.0 -7.137969210297e-04 
-4.203429083409e-05 -3.125630815959e-03 0.0 
-3.125630815959e-03 2.086027069296e-03 0.0 
0.0 0.0 -8.759969050552e-04 
-8.028650656472e-04 -2.530764803792e-03 0.0 
-2.530764803792e-03 3.746131268308e-03 0.0 
0.0 0.0 -1.026962916580e-03 
-1.603305794962e-03 5.584175701992e-04 0.0 
5.584175701992e-04 7.571764629350e-03 0.0 
0.0 0.0 -1.112552678551e-03 
9.600606219979e-04 -6.202368537327e-04 0.0 
-6.202368537327e-04 -7.835338607429e-05 0.0 
0.0 0.0 -1.528964725408e-04 
-6.507698434307e-04 -2.317277330880e-03 0.0 
-2.317277330880e-03 3.698342537328e-03 0.0 
0.0 0.0 -1.061672265243e-03 
-4.694800132291e-04 -3.046911020093e-03 0.0 
-3.046911020093e-03 2.876301697078e-03 0.0 
0.0 0.0 -9.848592602066e-04 
-1.735611780566e-03 9.275084004437e-04 0.0 
9.275084004437e-04 6.521846032081e-03 0.0 
0.0 0.0 -9.599091010803e-04 
5.517342203791e-04 7.070794377615e-04 0.0 
7.070794377615e-04 1.993016539601e-03 0.0 
0.0 0.0 -1.047968735850e-03 
1.251262826807e-03 -3.149427623220e-03 0.0 
-3.149427623220e-03 3.147933255355e-04 0.0 
0.0 0.0 -6.711669224326e-04 
-1.667035138543e-03 9.805979703494e-04 0.0 
9.805979703494e-04 7.401003517057e-03 0.0 
0.0 0.0 -1.098747615487e-03 
-1.603855099599e-03 1.782256839983e-03 0.0 
1.782256839983e-03 7.796685969376e-03 0.0 
0.0 0.0 -1.212453547082e-03 
-1.753933973529e-03 9.797964852189e-04 0.0 
9.797964852189e-04 5.978451539688e-03 0.0 
0.0 0.0 -8.875094802107e-04 
-2.613102227183e-04 -9.949083205869e-04 0.0 
-9.949083205869e-04 1.295268273910e-03 0.0 
0.0 0.0 -4.064699368096e-04 
-1.648709990180e-03 4.475238255647e-04 0.0 
4.475238255647e-04 6.036264205668e-03 0.0 
0.0 0.0 -8.692469099983e-04 
-7.203164161434e-04 -1.605185791603e-03 0.0 
-1.605185791603e-03 4.351922217429e-03 0.0 
0.0 0.0 -1.202705989510e-03 
-1.725470359675e-03 1.770892894084e-03 0.0 
1.770892894084e-03 6.914744693878e-03 0.0 
0.0 0.0 -1.078220320736e-03 
-7.065492097226e-04 -1.209971096051e-03 0.0 
-1.209971096051e-03 2.577314578998e-03 0.0 
0.0 0.0 -7.821142971127e-04 
2.080536798912e-03 -4.379488450435e-04 0.0 
-4.379488450435e-04 -1.014496050842e-03 0.0 
0.0 0.0 -4.568746063161e-04 
3.673244141799e-05 3.501892657137e-03 0.0 
3.501892657137e-03 2.162557991526e-03 0.0 
0.0 0.0 -9.249336466263e-04 
-1.472424715948e-03 1.473284294565e-03 0.0 
1.473284294565e-03 4.326140179341e-03 0.0 
0.0 0.0 -7.656857982150e-04 
-1.552562983666e-03 7.948996227407e-04 0.0 
7.948996227407e-04 8.084351316505e-03 0.0 
0.0 0.0 -1.206557591227e-03 
1.197294541337e-03 2.931696958795e-03 0.0 
2.931696958795e-03 3.430979437177e-04 0.0 
0.0 0.0 -6.601682078804e-04 
2.014691518502e-04 -1.535153806246e-04 0.0 
-1.535153806246e-04 2.672995857900e-03 0.0 
0.0 0.0 -1.120054252910e-03 
1.167692333485e-03 -4.546798185550e-04 0.0 
-4.546798185550e-04 3.225795309946e-04 0.0 
0.0 0.0 -6.386879419198e-04 
-8.300689796229e-04 -1.036862626203e-03 0.0 
-1.036862626203e-03 2.843866615447e-03 0.0 
0.0 0.0 -8.092532257643e-04 
-1.141410086144e-03 -2.132624368424e-03 0.0 
-2.132624368424e-03 4.763879094691e-03 0.0 
0.0 0.0 -1.118919378802e-03 
2.226178382358e-03 1.538806345707e-03 0.0 
1.538806345707e-03 -1.000001690931e-03 0.0 
0.0 0.0 -5.255042963258e-04 
-1.621773390463e-03 1.105341392258e-03 0.0 
1.105341392258e-03 7.770539650855e-03 0.0 
0.0 0.0 -1.164614768973e-03 
-7.726765049569e-04 3.339866695887e-03 0.0 
3.339866695887e-03 4.168840091130e-03 0.0 
0.0 0.0 -1.031533309622e-03 
2.985503110291e-03 3.031284491510e-04 0.0 
3.031284491510e-04 -1.381029514076e-03 0.0 
0.0 0.0 -6.876315412354e-04 
-1.686948173027e-03 1.421165008995e-03 0.0 
1.421165008995e-03 7.380565372555e-03 0.0 
0.0 0.0 -1.121170216299e-03 
1.011452247809e-03 -2.344893480733e-03 0.0 
-2.344893480733e-03 3.172812092828e-04 0.0 
0.0 0.0 -5.694571958966e-04 
3.273818053523e-04 1.142366955538e-03 0.0 
1.142366955538e-03 2.480645691333e-03 0.0 
0.0 0.0 -1.099429584637e-03 
-6.433175181119e-04 3.077878174349e-03 0.0 
3.077878174349e-03 3.183682229986e-03 0.0 
0.0 0.0 -9.539696108702e-04 
-6.121546724542e-04 3.601568394799e-03 0.0 
3.601568394799e-03 3.377991454684e-03 0.0 
0.0 0.0 -9.441813108648e-04 
-1.362049427310e-03 2.994726613582e-03 0.0 
2.994726613582e-03 5.058459491364e-03 0.0 
0.0 0.0 -9.824247929831e-04 
2.242703281786e-04 3.613717884088e-03 0.0 
3.613717884088e-03 1.934819861174e-03 0.0 
0.0 0.0 -8.887186042024e-04 
-1.881029170096e-03 -6.972944591045e-04 0.0 
-6.972944591045e-04 5.485539571048e-03 0.0 
0.0 0.0 -1.071820694527e-03 
-9.158007506096e-04 -2.235649248494e-03 0.0 
-2.235649248494e-03 4.248678740424e-03 0.0 
0.0 0.0 -1.090315851396e-03 
2.052665481287e-03 -1.103532234197e-03 0.0 
-1.103532234197e-03 -1.175556670273e-03 0.0 
0.0 0.0 -3.759037761492e-04 
8.914746630086e-04 2.890953836391e-03 0.0 
2.890953836391e-03 6.027493594732e-04 0.0 
0.0 0.0 -6.403817239208e-04 
-1.758945777430e-03 1.160675475390e-03 0.0 
1.160675475390e-03 6.378359981790e-03 0.0 
0.0 0.0 -9.536514739466e-04 
-6.639671926482e-04 3.003789204226e-03 0.0 
3.003789204226e-03 4.418789612070e-03 0.0 
0.0 0.0 -1.150585697120e-03 
-1.554201493046e-03 1.231598965710e-03 0.0 
1.231598965710e-03 8.128380504732e-03 0.0 
0.0 0.0 -1.229329624135e-03 
1.209824795641e-04 3.344721880567e-03 0.0 
3.344721880567e-03 1.935063257791e-03 0.0 
0.0 0.0 -8.811624588665e-04 
-1.286404788732e-03 -2.188571958382e-03 0.0 
-2.188571958382e-03 4.794074532598e-03 0.0 
0.0 0.0 -1.081576975854e-03 
-1.629163603093e-03 1.571087997701e-03 0.0 
1.571087997701e-03 7.723510960528e-03 0.0 
0.0 0.0 -1.185355684152e-03 
-3.559661832873e-04 -3.012647310201e-03 0.0 
-3.012647310201e-03 2.646809915025e-03 0.0 
0.0 0.0 -9.737892037141e-04 
-7.230165557545e-04 -1.426683456850e-04 0.0 
-1.426683456850e-04 2.147619513236e-03 0.0 
0.0 0.0 -4.572648740992e-04 
1.660426463556e-03 2.294712628775e-03 0.0 
2.294712628775e-03 -6.270108860030e-04 0.0 
0.0 0.0 -4.428923903797e-04 
3.083725212360e-03 4.086632437554e-04 0.0 
4.086632437554e-04 -1.411678867675e-03 0.0 
0.0 0.0 -7.165912905795e-04 
1.695879907660e-03 2.562718717107e-03 0.0 
2.562718717107e-03 -3.302884133479e-04 0.0 
0.0 0.0 -5.852534975623e-04 
-5.576706971117e-04 -2.954961257328e-03 0.0 
-2.954961257328e-03 3.029681223364e-03 0.0 
0.0 0.0 -1.013304783341e-03 
-1.555713883054e-03 2.364705081961e-03 0.0 
2.364705081961e-03 7.663070105557e-03 0.0 
0.0 0.0 -1.242275372262e-03 
-1.459222448555e-03 -1.977989758638e-03 0.0 
-1.977989758638e-03 5.249777589170e-03 0.0 
0.0 0.0 -1.110186454522e-03 
5.809827755289e-05 -1.888547144195e-03 0.0 
-1.888547144195e-03 2.563693945277e-03 0.0 
0.0 0.0 -1.040857148505e-03 
2.547643884911e-04 1.466804583982e-03 0.0 
1.466804583982e-03 4.258694285539e-04 0.0 
0.0 0.0 -2.917002073050e-04 
-1.420828704055e-03 1.823492309729e-03 0.0 
1.823492309729e-03 4.313202363895e-03 0.0 
0.0 0.0 -8.070275419711e-04 
-1.590933393314e-03 -1.754583215491e-03 0.0 
-1.754583215491e-03 5.664446844218e-03 0.0 
0.0 0.0 -1.139074001596e-03 
1.644076570115e-03 -1.085629871930e-03 0.0 
-1.085629871930e-03 -5.732577340253e-04 0.0 
0.0 0.0 -4.589223583244e-04 
2.052489302078e-04 6.912241943710e-04 0.0 
6.912241943710e-04 2.710009798059e-03 0.0 
0.0 0.0 -1.126725356868e-03 
-1.535445043143e-03 -5.867914393128e-04 0.0 
-5.867914393128e-04 4.647107690583e-03 0.0 
0.0 0.0 -1.044109258258e-03 
-9.859779036616e-04 3.056684200562e-03 0.0 
3.056684200562e-03 5.375983574251e-03 0.0 
0.0 0.0 -1.249754184115e-03 
-6.610476002560e-04 2.303624772309e-03 0.0 
2.303624772309e-03 2.903406990762e-03 0.0 
0.0 0.0 -9.028501661438e-04 
-1.686501264746e-03 -1.526608176621e-03 0.0 
-1.526608176621e-03 6.045524770636e-03 0.0 
0.0 0.0 -1.168790087466e-03 
3.742641179637e-04 -1.152556169589e-03 0.0 
-1.152556169589e-03 2.146769681943e-03 0.0 
0.0 0.0 -1.036257385577e-03 
2.158291477526e-03 2.743008596258e-03 0.0 
2.743008596258e-03 -5.432811980168e-04 0.0 
0.0 0.0 -6.921472626470e-04 
-1.448920855555e-03 5.485150606776e-05 0.0 
5.485150606776e-05 5.277752212934e-03 0.0 
0.0 0.0 -7.498068730476e-04 
-1.593954056461e-03 -1.469135234964e-03 0.0 
-1.469135234964e-03 6.450266463409e-03 0.0 
0.0 0.0 -1.243807156011e-03 
5.209000563453e-05 -9.592901321100e-04 0.0 
-9.592901321100e-04 2.854437082012e-03 0.0 
0.0 0.0 -1.114542488500e-03 
3.461661553033e-05 3.551384216602e-03 0.0 
3.551384216602e-03 2.362376837699e-03 0.0 
0.0 0.0 -9.321888224300e-04 
1.558216832635e-03 -1.548696012587e-03 0.0 
-1.548696012587e-03 -4.269730613691e-04 0.0 
0.0 0.0 -4.848187591141e-04 
-1.159109189925e-03 1.672386638450e-03 0.0 
1.672386638450e-03 3.686907530899e-03 0.0 
0.0 0.0 -7.928834912169e-04 
-8.622534806161e-04 -2.703450422620e-03 0.0 
-2.703450422620e-03 3.567462389003e-03 0.0 
0.0 0.0 -1.042489463686e-03 
-8.810352068874e-04 3.464697463085e-03 0.0 
3.464697463085e-03 3.935493660585e-03 0.0 
0.0 0.0 -9.528746205426e-04 
-1.455694182561e-03 2.079571376027e-03 0.0 
2.079571376027e-03 8.238502292373e-03 0.0 
0.0 0.0 -1.306889097489e-03 
-4.021262128289e-05 -5.236218254538e-04 0.0 
-5.236218254538e-04 3.069008893941e-03 0.0 
0.0 0.0 -1.148622835147e-03 
-1.725562695568e-03 2.028005553636e-03 0.0 
2.028005553636e-03 5.979413828880e-03 0.0 
0.0 0.0 -9.696660045843e-04 
-9.371362615476e-04 -2.513813645279e-03 0.0 
-2.513813645279e-03 3.674904326905e-03 0.0 
0.0 0.0 -1.055577742195e-03 
6.828857261752e-04 2.319846812613e-03 0.0 
2.319846812613e-03 1.471382999158e-03 0.0 
0.0 0.0 -9.020111454724e-04 
3.069126660921e-04 -4.845997231989e-04 0.0 
-4.845997231989e-04 8.592191971431e-04 0.0 
0.0 0.0 -3.093966206321e-04 
-1.066278201586e-03 2.069319232208e-03 0.0 
2.069319232208e-03 3.624795843977e-03 0.0 
0.0 0.0 -8.430048313659e-04 
-1.188974335056e-03 -2.184404117123e-03 0.0 
-2.184404117123e-03 4.121734009211e-03 0.0 
0.0 0.0 -1.055179846540e-03 
3.051680346467e-03 -4.197736543643e-04 0.0 
-4.197736543643e-04 -1.412706451387e-03 0.0 
0.0 0.0 -7.024173836058e-04 
1.117277129867e-03 -2.070559341147e-03 0.0 
-2.070559341147e-03 1.215006496444e-04 0.0 
0.0 0.0 -5.309047626477e-04 
-5.077233341081e-04 1.801300421280e-03 0.0 
1.801300421280e-03 4.164826850224e-03 0.0 
0.0 0.0 -1.234277959947e-03 
-1.405357231203e-03 -1.830815427985e-03 0.0 
-1.830815427985e-03 4.525691195773e-03 0.0 
0.0 0.0 -1.058821591963e-03 
2.981871888689e-03 -4.320249597075e-04 0.0 
-4.320249597075e-04 -1.387251596233e-03 0.0 
0.0 0.0 -6.834086967669e-04 
-1.589234832291e-03 -1.465860908847e-03 0.0 
-1.465860908847e-03 4.884351969089e-03 0.0 
0.0 0.0 -1.063846254002e-03 
-8.219124233661e-04 1.884899957964e-03 0.0 
1.884899957964e-03 3.049244611375e-03 0.0 
0.0 0.0 -8.384157971481e-04 
-1.674104129450e-03 2.267631102477e-03 0.0 
2.267631102477e-03 5.977690423385e-03 0.0 
0.0 0.0 -9.983267706061e-04 
-1.746776969671e-03 -1.092710579845e-03 0.0 
-1.092710579845e-03 5.203384673320e-03 0.0 
0.0 0.0 -1.068006041337e-03 
-9.280916248974e-04 3.352222764373e-03 0.0 
3.352222764373e-03 4.310032082870e-03 0.0 
0.0 0.0 -1.003151257071e-03 
2.463563334715e-05 -8.807126364979e-04 0.0 
-8.807126364979e-04 9.974910621111e-04 0.0 
0.0 0.0 -3.190932086048e-04 
1.865633619246e-04 3.322818699054e-03 0.0 
3.322818699054e-03 2.196662702388e-03 0.0 
0.0 0.0 -9.369607680273e-04 
-1.969274810505e-03 -5.697349439415e-04 0.0 
-5.697349439415e-04 6.492408088354e-03 0.0 
0.0 0.0 -1.155419075730e-03 
4.460939102830e-04 -2.841642607168e-03 0.0 
-2.841642607168e-03 1.136269056788e-03 0.0 
0.0 0.0 -6.781555573162e-04 
7.887889646567e-04 -2.571324212251e-03 0.0 
-2.571324212251e-03 6.415432993246e-04 0.0 
0.0 0.0 -6.129995417062e-04 
-1.637827184878e-03 2.388605245637e-03 0.0 
2.388605245637e-03 6.314063370822e-03 0.0 
0.0 0.0 -1.063653581392e-03 
-4.992814516217e-04 1.972643240252e-03 0.0 
1.972643240252e-03 2.384387457051e-03 0.0 
0.0 0.0 -8.079025737556e-04 
5.124750958276e-04 -2.569400884271e-03 0.0 
-2.569400884271e-03 1.193670865080e-03 0.0 
0.0 0.0 -7.312054118175e-04 
-9.641562230990e-04 3.242704907183e-03 0.0 
3.242704907183e-03 4.707911026065e-03 0.0 
0.0 0.0 -1.067288052377e-03 
3.154663455590e-04 2.993279893955e-03 0.0 
2.993279893955e-03 2.102244501383e-03 0.0 
0.0 0.0 -9.588566822092e-04 
1.346446614896e-03 2.610050225058e-03 0.0 
2.610050225058e-03 1.067961116776e-04 0.0 
0.0 0.0 -6.228183113887e-04 
2.887356895726e-04 -2.230406662033e-03 0.0 
-2.230406662033e-03 1.886206335840e-03 0.0 
0.0 0.0 -9.159128653295e-04 
-3.070381522363e-04 2.361479177514e-03 0.0 
2.361479177514e-03 2.144874392585e-03 0.0 
0.0 0.0 -7.876441030066e-04 
-4.603323552836e-06 -2.296978514711e-03 0.0 
-2.296978514711e-03 1.485132063043e-03 0.0 
0.0 0.0 -6.345123169243e-04 
-1.725456702673e-05 -2.050421713285e-03 0.0 
-2.050421713285e-03 1.350463780520e-03 0.0 
0.0 0.0 -5.713753772113e-04 
2.694499012180e-03 -1.108798334530e-03 0.0 
-1.108798334530e-03 -1.215742971782e-03 0.0 
0.0 0.0 -6.337525887422e-04 
-1.125553493016e-03 3.166078986994e-03 0.0 
3.166078986994e-03 5.226172467772e-03 0.0 
0.0 0.0 -1.103081964739e-03 
-3.505794759798e-04 -2.805020388018e-04 0.0 
-2.805020388018e-04 1.476517852756e-03 0.0 
0.0 0.0 -3.018576685516e-04 
-1.520679869667e-03 2.700420786858e-03 0.0 
2.700420786858e-03 5.894437551981e-03 0.0 
0.0 0.0 -1.054898413167e-03 
1.434637815246e-04 -2.013001771722e-03 0.0 
-2.013001771722e-03 1.061630091320e-03 0.0 
0.0 0.0 -5.164688026476e-04 
2.470206604480e-03 -1.725455129164e-03 0.0 
-1.725455129164e-03 -1.033453851675e-03 0.0 
0.0 0.0 -6.157511797736e-04 
1.550603106910e-04 2.343951066894e-03 0.0 
2.343951066894e-03 2.741523029304e-03 0.0 
0.0 0.0 -1.077081564483e-03 
-1.567382262079e-03 5.775225248615e-06 0.0 
5.775225248615e-06 6.502023960398e-03 0.0 
0.0 0.0 -9.315431351609e-04 
1.994050342792e-03 -2.125051609346e-03 0.0 
-2.125051609346e-03 -7.055681148420e-04 0.0 
0.0 0.0 -5.522066691216e-04 
-8.473530892992e-04 -1.857205257249e-04 0.0 
-1.857205257249e-04 2.593065685554e-03 0.0 
0.0 0.0 -6.119633700263e-04 
1.664939330105e-03 -2.423764940749e-03 0.0 
-2.423764940749e-03 -3.798301328600e-04 0.0 
0.0 0.0 -5.507610845334e-04 
9.691114688175e-04 2.564299471471e-03 0.0 
2.564299471471e-03 7.430038862534e-04 0.0 
0.0 0.0 -7.337637236018e-04 
1.166584806499e-03 -2.448706473937e-03 0.0 
-2.448706473937e-03 1.644568183363e-04 0.0 
0.0 0.0 -5.704464106438e-04 
9.207629563978e-04 -2.562817695187e-03 0.0 
-2.562817695187e-03 4.684807333005e-04 0.0 
0.0 0.0 -5.953901527278e-04 
-1.509599202053e-03 7.115315669588e-04 0.0 
7.115315669588e-04 8.319494978419e-03 0.0 
0.0 0.0 -1.242975171717e-03 
6.644834369663e-04 -2.816687817472e-03 0.0 
-2.816687817472e-03 8.638079814567e-04 0.0 
0.0 0.0 -6.549820364670e-04 
-1.417913046649e-03 2.000204615730e-04 0.0 
2.000204615730e-04 8.717353493565e-03 0.0 
0.0 0.0 -1.305370344976e-03 
-1.585981038622e-03 -5.390524588140e-04 0.0 
-5.390524588140e-04 7.088561262435e-03 0.0 
0.0 0.0 -1.298405437673e-03 
-1.489518803289e-03 -4.573950556845e-06 0.0 
-4.573950556845e-06 5.635615486584e-03 0.0 
0.0 0.0 -7.997855503562e-04 
-2.605550091072e-04 1.921888767382e-03 0.0 
1.921888767382e-03 1.771030104647e-03 0.0 
0.0 0.0 -6.473464695169e-04 
0.0 0.0 0.0 
0.0 0.0 0.0 
0.0 0.0 0.0 
5.300339532942e-05 2.296518653744e-03 0.0 
2.296518653744e-03 1.380741919417e-03 0.0 
0.0 0.0 -6.144622777483e-04 
4.589079226346e-04 -2.669236835745e-03 0.0 
-2.669236835745e-03 1.017039993413e-03 0.0 
0.0 0.0 -6.325491068774e-04 
-1.344360499523e-03 2.998007223071e-03 0.0 
2.998007223071e-03 5.396263019476e-03 0.0 
0.0 0.0 -1.045752072333e-03 
-1.493847809746e-03 7.392246810856e-05 0.0 
7.392246810856e-05 5.643210332918e-03 0.0 
0.0 0.0 -8.029817139903e-04 
2.189770723719e-04 -2.551176870332e-03 0.0 
-2.551176870332e-03 1.274969331798e-03 0.0 
0.0 0.0 -6.402627446442e-04 
-1.419524211431e-03 3.075318657805e-03 0.0 
3.075318657805e-03 6.922500903080e-03 0.0 
0.0 0.0 -1.250093291501e-03 
-1.105460999237e-03 2.840056670224e-03 0.0 
2.840056670224e-03 5.499135179184e-03 0.0 
0.0 0.0 -1.306737725957e-03 
-1.583352928322e-03 1.388979039351e-04 0.0 
1.388979039351e-04 7.093261842357e-03 0.0 
0.0 0.0 -1.028769680629e-03 
3.110761131384e-05 3.070777297068e-04 0.0 
3.070777297068e-04 2.990066827201e-03 0.0 
0.0 0.0 -1.152835590205e-03 
4.038330844269e-04 2.562565156884e-03 0.0 
2.562565156884e-03 2.099896012322e-03 0.0 
0.0 0.0 -9.954397186036e-04 
-1.532870607185e-03 8.627533493903e-05 0.0 
8.627533493903e-05 8.032571934377e-03 0.0 
0.0 0.0 -1.185717314024e-03 
-1.493423908883e-03 8.976519337403e-05 0.0 
8.976519337403e-05 5.235057922781e-03 0.0 
0.0 0.0 -7.451086181774e-04 
8.476467916489e-05 -1.199388947894e-03 0.0 
-1.199388947894e-03 6.043361303539e-04 0.0 
0.0 0.0 -2.642930028689e-04 
-1.995343437528e-03 -3.338550389889e-04 0.0 
-3.338550389889e-04 5.735331553200e-03 0.0 
0.0 0.0 -1.072300834510e-03 
-4.728391316331e-06 1.911025163986e-03 0.0 
1.911025163986e-03 1.236688893795e-03 0.0 
0.0 0.0 -5.279830724910e-04 
3.550394143264e-04 2.259430213976e-03 0.0 
2.259430213976e-03 9.034181507030e-04 0.0 
0.0 0.0 -5.393389564412e-04 
6.085214745978e-04 2.284877078157e-03 0.0 
2.284877078157e-03 6.261355702317e-04 0.0 
0.0 0.0 -5.291387334984e-04 
-9.396181000691e-04 -7.967451354887e-04 0.0 
-7.967451354887e-04 3.058992386408e-03 0.0 
0.0 0.0 -8.121166773320e-04 
5.494964702923e-04 -2.584085792452e-03 0.0 
-2.584085792452e-03 8.433772001581e-04 0.0 
0.0 0.0 -5.969458587645e-04 
2.401282782028e-04 2.005638511475e-03 0.0 
2.005638511475e-03 9.040366262875e-04 0.0 
0.0 0.0 -4.903563876387e-04 
-5.261734606055e-04 6.022279658391e-04 0.0 
6.022279658391e-04 4.033101031005e-03 0.0 
0.0 0.0 -1.245112051941e-03 
-1.636730137181e-03 4.290067563108e-04 0.0 
4.290067563108e-04 5.580276288558e-03 0.0 
0.0 0.0 -8.050116406322e-04 
-1.121915910908e-04 2.515763012409e-03 0.0 
2.515763012409e-03 3.291467473346e-03 0.0 
0.0 0.0 -1.110409235593e-03 
3.679053624996e-04 1.946389288486e-03 0.0 
1.946389288486e-03 7.047317248665e-04 0.0 
0.0 0.0 -4.597016088712e-04 
-1.554707372438e-03 1.697440109364e-03 0.0 
1.697440109364e-03 8.056864122716e-03 0.0 
0.0 0.0 -1.247366155457e-03 
-7.215899275846e-04 2.377475014672e-03 0.0 
2.377475014672e-03 4.622150950018e-03 0.0 
0.0 0.0 -1.246608778627e-03 
-1.331856878630e-03 -1.983836111103e-03 0.0 
-1.983836111103e-03 6.114923973583e-03 0.0 
0.0 0.0 -1.306249356034e-03 
-3.798399904625e-04 2.398884536475e-03 0.0 
2.398884536475e-03 3.901175645834e-03 0.0 
0.0 0.0 -1.176371721005e-03 
7.581050863864e-04 2.227306199006e-03 0.0 
2.227306199006e-03 3.618205949459e-04 0.0 
0.0 0.0 -4.799681491424e-04 
-1.753134334940e-03 1.030981935736e-03 0.0 
1.030981935736e-03 5.768775069705e-03 0.0 
0.0 0.0 -8.603500797662e-04 
-1.168709675212e-03 3.249274189801e-03 0.0 
3.249274189801e-03 5.927681969270e-03 0.0 
0.0 0.0 -1.250827372426e-03 
-1.580586288305e-03 2.460651619642e-04 0.0 
2.460651619642e-04 7.417010690682e-03 0.0 
0.0 0.0 -1.080253149739e-03 
-1.410996846028e-03 -1.766992384939e-03 0.0 
-1.766992384939e-03 6.482040820837e-03 0.0 
0.0 0.0 -1.309985050881e-03 
-1.682012249170e-03 6.654682702296e-04 0.0 
6.654682702296e-04 5.457303072723e-03 0.0 
0.0 0.0 -7.979019438933e-04 
-1.482092413582e-03 4.825553233706e-04 0.0 
4.825553233706e-04 8.388620482460e-03 0.0 
0.0 0.0 -1.252774941638e-03 
2.053124764649e-03 -2.150351803165e-03 0.0 
-2.150351803165e-03 -1.002699963371e-03 0.0 
0.0 0.0 -4.501820576904e-04 
-1.472782165905e-03 2.611384925530e-04 0.0 
2.611384925530e-04 8.403666031078e-03 0.0 
0.0 0.0 -1.254166199180e-03 
-1.340636802885e-03 3.017781757784e-03 0.0 
3.017781757784e-03 5.759872352408e-03 0.0 
0.0 0.0 -1.110316242656e-03 
-1.575034003637e-03 2.533992497604e-04 0.0 
2.533992497604e-04 6.175537215494e-03 0.0 
0.0 0.0 -8.840149073763e-04 
-1.771751416511e-03 1.426780246192e-03 0.0 
1.426780246192e-03 5.587137473215e-03 0.0 
0.0 0.0 -8.570326279659e-04 
-1.684907386527e-03 -8.004631079360e-04 0.0 
-8.004631079360e-04 6.831074281255e-03 0.0 
0.0 0.0 -1.256337174517e-03 
-1.508670120193e-03 2.760870843371e-03 0.0 
2.760870843371e-03 7.327066348949e-03 0.0 
0.0 0.0 -1.249505442739e-03 
6.883790236625e-04 2.060671389361e-03 0.0 
2.060671389361e-03 2.237385116846e-05 0.0 
0.0 0.0 -3.046083749275e-04 
-1.585370214117e-03 2.593308700915e-04 0.0 
2.593308700915e-04 7.073771685170e-03 0.0 
0.0 0.0 -1.024357608964e-03 
-1.028891659838e-03 -1.361434891480e-03 0.0 
-1.361434891480e-03 3.507211596145e-03 0.0 
0.0 0.0 -9.709766588611e-04 
2.096603589134e-04 -4.522541456736e-04 0.0 
-4.522541456736e-04 -1.685826935135e-04 0.0 
0.0 0.0 -1.760471374282e-05 
-1.108111334259e-03 -1.824971532717e-03 0.0 
-1.824971532717e-03 5.280702358381e-03 0.0 
0.0 0.0 -1.249521112489e-03 
-1.346888651128e-03 3.065747420634e-03 0.0 
3.065747420634e-03 6.117675129117e-03 0.0 
0.0 0.0 -1.172189067419e-03 
-1.641216111045e-03 -1.228485444809e-03 0.0 
-1.228485444809e-03 6.632464522082e-03 0.0 
0.0 0.0 -1.251863004148e-03 
4.253395517685e-04 -1.330965256832e-05 0.0 
-1.330965256832e-05 8.162616228349e-04 0.0 
0.0 0.0 -3.073113677837e-04 
2.659967583917e-04 -9.636004765028e-04 0.0 
-9.636004765028e-04 4.197455964224e-04 0.0 
0.0 0.0 -2.058019112872e-04 
-9.341108583894e-04 -1.570273886574e-03 0.0 
-1.570273886574e-03 4.919000747850e-03 0.0 
0.0 0.0 -1.258522865334e-03 
-1.325021295734e-03 3.260852513925e-03 0.0 
3.260852513925e-03 6.529415890564e-03 0.0 
0.0 0.0 -1.257106814994e-03 
2.069780564081e-03 -2.887481408844e-03 0.0 
-2.887481408844e-03 -5.620999085580e-04 0.0 
0.0 0.0 -6.461488523668e-04 
-1.444494309143e-03 1.513018136519e-03 0.0 
1.513018136519e-03 8.529509024149e-03 0.0 
0.0 0.0 -1.314710167832e-03 
1.606042082751e-04 7.400733517384e-04 0.0 
7.400733517384e-04 -6.805152101560e-05 0.0 
0.0 0.0 -3.966543739693e-05 
-1.527500430813e-03 2.291957424775e-04 0.0 
2.291957424775e-04 5.159544215479e-03 0.0 
0.0 0.0 -7.389643750272e-04 
7.522855132365e-04 -8.129255998406e-04 0.0 
-8.129255998406e-04 2.933811725579e-04 0.0 
0.0 0.0 -2.584822669346e-04 
-1.451285018422e-03 -1.619253938531e-03 0.0 
-1.619253938531e-03 6.712702821616e-03 0.0 
0.0 0.0 -1.308531455474e-03 
-1.521082113150e-03 1.160385665173e-03 0.0 
1.160385665173e-03 8.292813149207e-03 0.0 
0.0 0.0 -1.254845750201e-03 
-1.245470008181e-03 -9.103756336826e-04 0.0 
-9.103756336826e-04 3.950697369425e-03 0.0 
0.0 0.0 -9.904446095582e-04 
-1.723966937065e-03 1.170670843267e-03 0.0 
1.170670843267e-03 5.001993590100e-03 0.0 
0.0 0.0 -7.582784842146e-04 
-9.206532372436e-04 -4.495869396707e-04 0.0 
-4.495869396707e-04 2.876332750162e-03 0.0 
0.0 0.0 -7.084058105195e-04 
-8.029287135569e-04 3.022070318119e-03 0.0 
3.022070318119e-03 4.846485263972e-03 0.0 
0.0 0.0 -1.203498912175e-03 
1.578052768763e-04 -1.733898146901e-03 0.0 
-1.733898146901e-03 8.518457615679e-04 0.0 
0.0 0.0 -4.327075879046e-04 
-1.502885003929e-03 8.385321329672e-04 0.0 
8.385321329672e-04 8.406515819115e-03 0.0 
0.0 0.0 -1.260296891839e-03 
-7.798982579111e-04 -1.032636455785e-03 0.0 
-1.032636455785e-03 4.559837266151e-03 0.0 
0.0 0.0 -1.261416966621e-03 
-1.541080814648e-03 2.248481841172e-03 0.0 
2.248481841172e-03 7.871819285488e-03 0.0 
0.0 0.0 -1.260618436842e-03 
-1.035661708301e-03 1.434119926330e-03 0.0 
1.434119926330e-03 4.999968609048e-03 0.0 
0.0 0.0 -1.317725628150e-03 
0.0 0.0 0.0 
0.0 0.0 0.0 
0.0 0.0 0.0 
-8.775793509473e-04 2.643781737553e-03 0.0 
2.643781737553e-03 4.999185491909e-03 0.0 
0.0 0.0 -1.263090216482e-03 
-3.359262024726e-04 -4.205327465571e-04 0.0 
-4.205327465571e-04 3.690481845722e-03 0.0 
0.0 0.0 -1.202239909569e-03 
-1.469921091904e-03 1.397057797389e-04 0.0 
1.397057797389e-04 5.245389338611e-03 0.0 
0.0 0.0 -7.439744481034e-04 
-1.522980262771e-03 2.574585562032e-03 0.0 
2.574585562032e-03 7.567445771786e-03 0.0 
0.0 0.0 -1.252574368527e-03 
-1.039501310576e-03 -8.329301664350e-04 0.0 
-8.329301664350e-04 3.357758752277e-03 0.0 
0.0 0.0 -8.789764298429e-04 
-3.276933337434e-04 -7.307720459036e-04 0.0 
-7.307720459036e-04 1.390604940151e-03 0.0 
0.0 0.0 -3.555153606766e-04 
-1.400496614823e-03 7.920880417302e-05 0.0 
7.920880417302e-05 8.744396333073e-03 0.0 
0.0 0.0 -1.313490227100e-03 
2.520733888645e-03 -3.426864807379e-06 0.0 
-3.426864807379e-06 -8.047604136628e-04 0.0 
0.0 0.0 -1.695477456824e-04 
-1.436285120339e-03 -8.822331672806e-06 0.0 
-8.822331672806e-06 5.224558560537e-03 0.0 
0.0 0.0 -7.402411036050e-04 
-1.541544735514e-03 -2.080816256948e-04 0.0 
-2.080816256948e-04 7.171789726740e-03 0.0 
0.0 0.0 -1.313492844077e-03 
-2.510837729256e-04 -3.936310680644e-04 0.0 
-3.936310680644e-04 1.321735893226e-03 0.0 
0.0 0.0 -2.948614013126e-04 
-1.524937947447e-03 4.475494657923e-05 0.0 
4.475494657923e-05 5.953624986698e-03 0.0 
0.0 0.0 -8.489638187885e-04 
-1.372178966628e-03 3.183705797245e-03 0.0 
3.183705797245e-03 6.771642373061e-03 0.0 
0.0 0.0 -1.260211869575e-03 
-1.590513358799e-03 -2.597680171264e-04 0.0 
-2.597680171264e-04 4.769333481416e-03 0.0 
0.0 0.0 -1.052454572086e-03 
-1.550492385742e-03 1.189328986090e-04 0.0 
1.189328986090e-04 7.800235903878e-03 0.0 
0.0 0.0 -1.148445367820e-03 
9.452528930191e-04 -2.939486558072e-03 0.0 
-2.939486558072e-03 5.700922820308e-04 0.0 
0.0 0.0 -6.494336464500e-04 
0.0 0.0 0.0 
0.0 0.0 0.0 
0.0 0.0 0.0 
-1.577256117848e-03 6.886097405366e-05 0.0 
6.886097405366e-05 6.718118974100e-03 0.0 
0.0 0.0 -9.668795991591e-04 
-7.257532866393e-04 2.108017519290e-03 0.0 
2.108017519290e-03 4.551210106726e-03 0.0 
0.0 0.0 -1.258714341260e-03 
-1.539880904137e-03 1.881264573762e-03 0.0 
1.881264573762e-03 8.091722768049e-03 0.0 
0.0 0.0 -1.263997700767e-03 
-1.584367033562e-03 2.539188043181e-04 0.0 
2.539188043181e-04 6.423614681133e-03 0.0 
0.0 0.0 -9.199601189493e-04 
1.149887053528e-03 2.260371255349e-03 0.0 
2.260371255349e-03 -3.607458547944e-04 0.0 
0.0 0.0 -3.382033708860e-04 
-1.352077778871e-03 3.162162671945e-03 0.0 
3.162162671945e-03 6.429958482634e-03 0.0 
0.0 0.0 -1.221038716794e-03 
-1.328731786449e-03 -9.755978743980e-04 0.0 
-9.755978743980e-04 4.177204897338e-03 0.0 
0.0 0.0 -1.017329335709e-03 
-1.052088232510e-03 3.182318808270e-03 0.0 
3.182318808270e-03 5.489904176315e-03 0.0 
0.0 0.0 -1.208939113964e-03 
-2.749523466846e-04 3.333334303576e-04 0.0 
3.333334303576e-04 3.590145673266e-03 0.0 
0.0 0.0 -1.203806565432e-03 
-3.491753937305e-05 1.095272761420e-03 0.0 
1.095272761420e-03 3.491753937305e-05 0.0 
0.0 0.0 0.0 
-1.710135402111e-03 -2.140528936374e-04 0.0 
-2.140528936374e-04 5.062773823412e-03 0.0 
0.0 0.0 -1.067873332563e-03 
6.585939474405e-04 -9.144432273007e-04 0.0 
-9.144432273007e-04 2.765533765623e-04 0.0 
0.0 0.0 -2.242399343496e-04 
-1.352905233575e-03 -1.915199808028e-03 0.0 
-1.915199808028e-03 5.962667998270e-03 0.0 
0.0 0.0 -1.263714160583e-03 
-1.428737268169e-03 -6.941057894653e-04 0.0 
-6.941057894653e-04 4.390777467220e-03 0.0 
0.0 0.0 -1.028704531826e-03 
-1.289129316325e-03 1.139082561999e-03 0.0 
1.139082561999e-03 3.808146100502e-03 0.0 
0.0 0.0 -7.157438960634e-04 
-1.238778796526e-03 1.445476418680e-07 0.0 
1.445476418680e-07 4.216199491205e-03 0.0 
0.0 0.0 -5.933333333333e-04 
-1.543151210513e-03 1.002710923754e-03 0.0 
1.002710923754e-03 4.354039341919e-03 0.0 
0.0 0.0 -6.963727196364e-04 
-1.346425769997e-03 3.815725794878e-05 0.0 
3.815725794878e-05 4.612334605524e-03 0.0 
0.0 0.0 -6.600000000000e-04 

SCALARS node_materi_plasti_kappa_shear float
LOOKUP_TABLE default
2.115083374134e-03
3.458023789683e-03
4.967886194112e-03
5.876066285134e-03
1.429593561868e-03
9.260891180627e-04
9.750663137551e-04
1.375519170543e-03
1.749514182145e-03
2.072909783402e-03
2.372334959694e-03
2.646556194044e-03
2.900020015941e-03
3.146970300908e-03
3.414657029732e-03
3.664527045737e-03
3.866039465253e-03
4.132559423194e-03
4.398804352871e-03
4.605615939913e-03
4.743184926543e-03
4.864835234233e-03
4.967891461667e-03
5.874817732443e-03
5.871659258458e-03
5.865996944230e-03
5.879052454380e-03
5.875406408010e-03
5.881746665879e-03
5.893121739855e-03
5.904403498293e-03
5.911667380715e-03
5.942687471040e-03
5.945547502064e-03
5.964504727329e-03
5.990682248078e-03
6.003086871528e-03
6.009687630856e-03
6.018022142948e-03
6.013722829185e-03
6.018405848819e-03
6.000999157977e-03
5.961878918865e-03
5.908140669358e-03
5.805875616932e-03
5.680054112450e-03
5.512945864727e-03
5.326235031303e-03
5.099814575695e-03
4.848871496600e-03
4.578436030419e-03
4.312126051031e-03
4.068983510438e-03
3.878948019144e-03
3.696536407386e-03
3.610414615740e-03
3.648906839705e-03
3.740049181565e-03
3.899047133921e-03
4.078094335185e-03
4.265058537564e-03
4.435125269456e-03
4.594665148187e-03
4.735181100800e-03
4.838272090162e-03
4.913247143246e-03
4.935696440884e-03
4.963163630605e-03
4.970148499816e-03
4.972729571996e-03
4.968771048834e-03
4.969260551934e-03
3.740141790492e-03
4.058111443788e-03
4.339280484927e-03
4.600412294281e-03
4.861219744616e-03
5.105119180278e-03
5.341101545075e-03
5.553418984263e-03
5.788796962491e-03
5.321137192029e-04
3.540835783254e-03
1.668836562085e-03
1.806164222754e-03
1.988465623784e-03
1.960646228179e-03
2.080219020031e-03
2.392787930825e-03
2.723536012173e-03
2.967301747240e-03
3.168094353423e-03
2.925124318590e-03
3.120103201879e-03
3.399382940078e-03
3.415840330809e-03
3.424362395235e-03
3.424497136894e-03
3.479931295206e-03
3.440294557840e-03
3.439848037433e-03
3.453307638175e-03
3.471621284897e-03
3.481974088033e-03
3.486271779339e-03
3.492543524408e-03
3.498742868845e-03
3.518045244631e-03
0.0
0.0
0.0
0.0
0.0
1.744449562148e-04
3.008916063010e-04
4.050478665291e-04
5.046139784359e-04
6.936516565607e-04
8.134086808571e-04
1.035447660179e-03
1.317664285716e-03
1.556461179225e-03
1.698703308833e-03
1.829256340020e-03
1.936274606327e-03
2.057713747761e-03
2.160946537055e-03
3.004084634868e-03
2.981914186084e-03
2.980727678495e-03
2.985874012750e-03
2.989474762083e-03
2.997055606617e-03
3.004567088526e-03
3.012334666515e-03
3.016324111398e-03
3.027464570277e-03
3.029602545475e-03
3.031043064134e-03
3.037368743052e-03
3.026898546288e-03
3.038050977539e-03
3.017239385356e-03
2.960483835694e-03
3.125502671646e-03
3.195441658547e-03
3.182187427784e-03
3.176497158046e-03
3.175725551500e-03
3.174775535585e-03
3.166739352413e-03
3.157972763163e-03
3.150169453340e-03
3.142150136721e-03
3.134434164911e-03
3.127916890668e-03
3.125563909718e-03
3.118279613313e-03
3.123246277339e-03
3.139058430584e-03
2.154378764753e-03
1.474374331820e-03
1.940173948538e-03
1.976172725544e-03
2.018544812754e-03
2.257702925448e-03
2.595112877480e-03
2.855195681536e-03
3.062472728628e-03
3.384322342055e-03
1.792071878644e-03
3.375143360345e-03
7.233637867985e-04
1.036141330496e-04
4.185730067683e-03
2.132887875458e-03
3.290669112102e-03
3.943090107724e-03
2.459850990970e-03
5.049081016827e-03
3.049657566422e-03
4.807738799368e-03
1.182564866658e-03
5.746835578076e-03
3.688122146157e-03
2.243660734344e-03
3.956138881533e-03
5.918594875086e-03
5.957497874511e-03
5.833020523938e-03
5.849817635203e-03
5.907569221224e-03
3.796891756948e-03
3.753148626160e-03
3.750719424971e-03
4.728883318265e-03
4.949356106529e-03
0.0
1.446675358332e-03
4.662329876841e-03
3.701848086155e-03
1.172285973879e-03
5.916122430582e-03
4.554740200655e-03
5.468890302383e-03
3.503959695460e-03
3.612570973627e-03
1.012610592318e-03
3.764133124860e-03
4.509011244357e-03
5.226961181745e-03
8.281022762432e-04
2.786147332295e-03
5.862108365073e-03
2.293034409321e-03
2.118172696952e-03
2.814022264942e-03
3.328976841209e-03
1.796430627611e-03
4.215679675405e-03
4.988678889666e-03
1.603073179023e-03
5.647207016452e-03
3.826980774528e-03
3.959485929510e-03
4.093805969592e-03
4.237157459642e-03
4.355175514086e-03
4.475551541186e-03
4.360600218784e-03
4.584917723766e-03
4.472803770017e-03
4.603457862675e-03
4.678779703983e-03
4.566901197709e-03
4.755547519284e-03
4.640471696753e-03
4.457539912409e-03
4.538567241607e-03
4.334573614265e-03
4.420847848507e-03
4.584491396975e-03
4.467742894371e-03
4.290813753397e-03
4.341561214995e-03
4.161369484108e-03
4.203844918484e-03
4.020961676830e-03
4.033609205765e-03
4.190038035743e-03
3.995998885876e-03
3.816070395907e-03
3.728966813226e-03
3.537030536043e-03
3.407128807490e-03
3.586398617854e-03
3.288807272957e-03
3.252863900070e-03
3.170185754012e-03
3.233111113295e-03
3.074120756272e-03
3.162643393988e-03
2.933378461356e-03
2.797468942969e-03
2.619962109437e-03
2.778421306725e-03
2.482787310082e-03
2.288870685994e-03
2.245276885126e-03
2.009188259652e-03
2.106063465321e-03
2.298880449605e-03
2.277186157407e-03
2.045146607384e-03
2.269833337432e-03
2.492081268530e-03
2.449252250951e-03
2.235847836527e-03
2.412279828812e-03
2.543747264894e-03
2.600115002725e-03
2.727482019444e-03
2.938942653524e-03
2.800953391655e-03
3.099410076939e-03
3.236731448007e-03
3.326718393122e-03
3.458435113975e-03
3.182252973246e-03
3.349632840797e-03
3.182734544931e-03
3.297058188961e-03
3.395874895856e-03
3.084763359842e-03
2.947638229530e-03
3.173599872694e-03
3.367971322397e-03
2.907366739478e-03
2.989778207621e-03
2.681037591212e-03
3.273090083598e-03
4.583977419968e-03
2.763122244056e-03
2.422279070482e-03
2.341976270933e-03
2.055104190934e-03
4.487857016271e-03
4.743988105410e-03
4.617567667593e-03
4.883368050274e-03
4.763228887328e-03
2.160659489003e-03
4.890919826071e-03
4.994559216403e-03
4.077898647515e-03
3.620014606063e-03
2.026865546520e-03
3.041451028518e-03
2.832922892333e-03
3.077663964186e-03
3.380542676541e-03
3.577929148800e-03
3.502531489785e-03
3.663458989421e-03
3.546277218969e-03
3.702657791091e-03
3.786178392521e-03
3.850978684801e-03
3.897450996605e-03
3.504687425170e-03
3.291824593051e-03
3.999992240266e-03
4.016767369501e-03
4.146857594668e-03
4.147424783067e-03
3.977096144328e-03
4.088166746606e-03
3.903561376438e-03
1.647610095171e-03
1.670364952503e-03
1.200482357020e-03
1.361632881091e-03
1.080278838397e-03
1.418148903541e-03
1.352867822665e-03
1.212666352797e-03
4.813044669928e-03
2.629702736151e-03
2.873791510621e-03
2.692884768804e-03
2.922961960319e-03
2.693279210870e-03
2.967619989366e-03
2.640231682294e-03
2.442231823403e-03
2.256451765602e-03
2.304389301660e-03
1.970174595809e-03
2.413972446824e-03
4.105974986965e-03
1.752978929951e-03
1.881015725757e-03
2.212471553438e-03
1.986920103444e-03
4.283844059938e-03
3.257008008793e-03
2.972866264147e-03
1.546774196166e-03
1.779410363677e-03
2.938187575973e-03
3.188246772319e-03
5.018824155785e-03
4.900262887059e-03
3.011629305590e-03
1.908912131209e-03
3.906913380700e-03
1.895281348439e-03
4.211749337744e-03
4.409990212532e-03
3.799088406628e-03
2.355436507833e-03
2.649299599465e-03
2.548634680734e-03
2.876527123569e-03
2.844168383616e-03
3.212913817799e-03
3.129285464298e-03
3.337589162415e-03
3.439166685576e-03
3.438974933722e-03
3.303340296455e-03
3.181680302338e-03
3.085186834318e-03
2.829834518630e-03
4.432489689449e-03
1.483659745450e-03
4.217722169449e-03
3.341461549787e-03
1.739764648709e-03
5.152372939051e-03
5.035369681437e-03
4.778294671962e-03
4.917428704147e-03
5.167012334313e-03
5.050565403691e-03
4.795745429522e-03
4.929418857156e-03
4.668419815856e-03
4.805864584515e-03
5.058823087727e-03
4.939281816885e-03
4.682797093272e-03
4.818002280012e-03
4.556116505805e-03
4.690388347301e-03
4.950293242362e-03
1.552403935002e-03
1.574322739071e-03
1.877343647282e-03
2.891197733424e-03
3.092514519054e-03
3.276732472821e-03
3.305456961863e-03
4.827759947093e-03
5.081593595751e-03
3.163419766099e-03
3.211991907021e-03
5.265451275810e-03
4.339993450943e-03
4.108622684801e-03
3.351327486416e-03
3.414147971325e-03
3.173366515349e-03
3.179934844101e-03
3.412464276917e-03
2.933374923412e-03
3.048978120526e-03
5.184623155997e-03
2.285735175407e-03
1.964820094476e-03
4.525309975274e-03
1.417417973454e-03
4.266164728390e-03
4.121971091758e-03
4.284403972733e-03
4.105296115865e-03
4.321717176209e-03
4.160575813868e-03
3.892235684062e-03
2.811745021311e-03
3.984494120429e-03
4.554222149543e-03
2.269911801835e-03
3.028107761873e-03
1.410044382037e-03
2.660796390280e-03
1.642549087339e-03
2.019881341573e-03
3.191265930906e-03
4.449437667659e-03
4.556738233615e-03
3.151991049237e-03
3.330144195961e-03
2.615443417616e-03
4.499456307731e-03
4.528967056282e-03
4.393751219098e-03
1.261306655149e-03
2.904934706402e-03
5.293699107592e-03
3.240583809678e-03
3.137492166912e-03
1.326987575174e-03
7.734678318549e-04
4.951662652887e-03
5.199111337285e-03
3.458302994746e-03
3.498814191065e-03
2.813032372855e-03
2.488302007795e-03
5.318301846901e-03
1.850643022250e-03
1.900800904807e-03
3.131639576739e-03
3.027700141336e-03
2.957799237182e-03
3.061527549215e-03
2.613926403272e-03
1.775348210848e-03
3.082947151770e-03
5.403046930315e-03
3.649594930354e-03
3.629629087466e-03
3.791790756931e-03
2.266631384107e-03
3.561658471125e-03
4.464949176004e-03
4.749074667133e-03
4.803902692703e-03
3.195369272568e-03
2.992485238832e-03
2.855378574955e-03
2.741778446605e-03
4.234794425954e-03
3.108532495677e-03
4.079034698662e-03
3.940552543924e-03
3.815579800974e-03
3.588995439569e-03
3.476421980838e-03
3.087431809056e-03
2.199698414150e-03
3.435465997500e-03
3.826462726601e-03
3.261674752205e-03
5.297684949133e-03
5.419151855637e-03
4.414057560104e-03
4.275097580202e-03
1.647451024479e-03
1.675335589964e-03
3.606226530559e-03
3.650868628108e-03
5.391618930748e-03
5.502109459713e-03
5.372609048885e-03
2.675369016162e-03
2.527778908692e-03
1.410070067518e-03
1.620197969852e-03
3.704561518482e-03
1.421863687494e-03
4.706685273956e-03
4.622442071867e-03
4.666940698600e-03
3.076866095470e-03
3.811195532018e-03
3.440349836705e-03
3.147617514472e-03
3.657267983904e-03
3.541815125300e-03
3.706500821150e-03
3.438152628286e-03
2.775184890772e-03
2.746720812631e-03
4.705097558488e-03
4.212391869045e-03
5.032584068110e-03
5.060540397521e-03
2.962566848859e-03
2.515241370603e-03
2.118397082965e-03
3.180431248684e-03
5.518846616804e-03
3.789817242396e-03
3.891070071717e-03
3.945571653991e-03
5.986403847301e-04
2.213189616717e-03
5.440739059520e-03
2.585939956196e-03
2.577091143894e-03
2.623503978078e-03
4.897871729883e-03
3.686454329978e-03
4.752961752010e-03
3.733356492718e-03
5.550112872523e-03
3.071330919958e-03
3.165660564610e-03
2.415063932661e-03
5.310812901883e-03
5.569340241546e-03
4.247537830652e-03
4.096212274891e-03
4.376310335557e-03
2.295285634796e-03
1.760148970824e-03
5.307204263575e-03
2.597022010623e-03
2.677083653507e-03
2.361042937549e-03
2.540509620076e-03
3.590752619766e-03
3.561980325172e-03
4.687546968051e-03
4.862462070621e-03
4.404636295064e-03
2.304172143242e-03
2.399216396593e-03
1.964677543140e-03
5.518361070662e-03
5.664420780412e-03
2.775557848670e-03
2.950132041529e-03
2.770175388850e-03
5.630497223971e-03
4.810959073252e-03
4.708255592783e-03
1.439105625328e-03
1.764440458605e-03
2.782344288704e-03
2.711314613078e-03
5.598196232206e-03
5.483018715217e-03
5.749000539319e-03
1.876891076347e-03
3.340823531716e-03
3.019076182411e-03
2.638636300015e-03
3.496239648933e-03
3.233921457243e-03
3.509435497577e-03
4.060457021751e-03
9.830298147041e-05
5.472024458089e-03
4.113394862956e-03
0.0
3.974022231900e-03
4.142147385999e-03
3.808811843470e-03
1.512139063608e-03
4.035840610883e-03
4.228908811524e-03
1.229665042051e-03
5.727754258707e-03
1.213722886229e-03
1.289130077108e-03
4.190343840825e-03
4.208177283858e-03
4.453725484854e-03
4.415818037714e-03
4.236650972425e-03
4.433395698974e-03
3.960847876624e-03
4.646929544122e-03
4.602784854752e-03
4.854292446809e-03
3.246379902709e-03
2.751258169961e-03
2.634703286177e-03
2.390161293581e-03
5.366413333148e-03
5.305369359066e-03
4.571502884887e-03
4.361148070354e-03
3.986570332512e-03
3.958169901241e-03
4.225562744729e-03
4.178369498049e-03
4.446132963819e-03
4.399693690965e-03
4.649688467265e-03
4.553994310106e-03
2.395247212063e-03
3.489844342941e-03
2.935834930029e-03
2.507685734422e-03
3.320342588166e-03
3.002197588997e-03
3.920773109245e-03
3.240450602112e-03
5.870937815019e-03
0.0
3.323452107101e-04
3.218749665587e-03
3.600131537244e-03
2.907036869022e-03
2.836905823125e-03
2.270773315379e-03
1.834790987996e-03
2.673096930044e-03
4.690114924130e-03
2.348836148975e-03
4.492676789655e-03
3.205482778443e-03
3.817317219374e-03
2.948492527326e-03
2.849084286571e-03
4.354187352303e-03
4.105094102283e-03
3.949385469094e-03
3.043885708512e-03
3.025811206364e-03
2.606730506197e-03
4.199509327046e-03
5.239720060421e-03
5.342311723545e-03
5.568723597318e-03
5.436074129988e-03
5.195127512815e-03
5.275945829576e-03
5.522846822361e-03
5.362101483362e-03
5.654790167380e-03
5.418798555265e-03
5.183358795615e-03
5.228039527145e-03
5.462723589554e-03
5.010149217662e-03
3.394314338742e-03
3.254416177728e-03
3.998143781564e-04
1.780285334436e-03
3.960367887196e-03
5.943039136803e-03
5.959345631699e-03
3.141346465330e-03
5.620347987340e-03
4.084459886071e-03
2.498622170437e-03
5.268940025094e-03
5.099701809653e-03
4.951938385870e-03
4.853275658762e-03
5.939990338712e-03
4.510478805277e-03
4.274617599746e-03
1.914060081792e-03
2.484209945367e-03
2.639018446471e-03
5.114013007791e-03
3.400229055209e-03
2.914794698409e-03
2.950236209629e-03
2.471629201444e-03
3.451405133461e-03
5.898428211788e-03
5.845499826008e-03
3.178797580669e-03
2.960279401288e-03
2.804058035340e-03
2.729987471253e-03
2.829725808593e-03
2.578048860295e-03
2.561856093753e-03
2.441038645177e-03
5.056780879738e-03
3.797514540817e-03
3.350528560522e-03
3.070190277767e-03
2.914035417259e-03
3.410817836896e-03
3.523130452731e-03
3.651707279838e-03
3.259955241283e-03
3.906281668705e-03
3.999951674760e-03
1.514180247365e-03
3.455226154399e-03
3.780489020667e-03
4.041242521720e-03
4.062468817485e-03
4.304541709678e-03
4.049230948442e-03
3.629888373411e-03
3.687995609435e-03
3.556481715217e-03
3.766062809759e-03
3.630392003192e-03
3.425625743275e-03
3.859887208052e-03
3.712754465682e-03
3.753295504860e-03
5.944650398121e-04
2.225590346816e-03
2.127823725117e-03
2.979469021594e-03
2.824219377905e-03
3.230470095965e-03
3.141720754719e-03
1.550829825203e-03
7.467435189644e-04
1.647650571366e-03
6.781160949691e-04
1.418844655901e-03
2.293180220520e-03
2.042650195457e-03
4.943618431220e-03
3.031335723016e-03
2.945155604069e-03
2.688743593994e-03
2.875725181900e-03
3.142994710358e-03
2.523324995075e-03
2.457510238830e-03
1.510421340239e-03
1.007815092101e-03
1.077602730068e-03
9.323160320548e-04
9.716390507349e-04
1.014619391924e-03
1.008787792094e-03
1.356424777816e-03
1.016122513265e-03
1.104929402575e-03
1.269761046994e-03
4.987755442147e-03
5.116267723268e-03
4.373987183766e-03
3.768398534654e-03
7.723067608076e-04
5.801414033109e-03
5.849888523554e-03
5.842497446698e-03
4.794097655678e-03
4.842845514710e-03
5.795857190058e-03
2.602280117318e-03
5.684608119029e-03
5.426766964233e-03
2.915293754372e-03
2.687040126660e-03
4.231633519162e-03
3.882386612765e-03
4.556515040672e-03
3.998756045770e-03
4.293387971553e-03
3.074535552154e-03
1.408470089399e-03
4.539066931421e-03
4.423048734156e-03
5.069081138623e-03
2.521812465648e-03
3.361884437641e-03
1.678049688451e-03
5.074061553586e-03
3.958676471230e-03
3.095099427902e-03
3.226856089265e-03
2.810734054587e-03
2.838974017310e-03
3.275246495708e-03
3.484344474013e-03
3.705978157807e-03
5.196157012198e-03
1.018518931270e-03
3.521375643282e-03
3.706077620756e-03
4.658000838490e-03
1.709680317594e-03
3.305261692782e-03
5.177694957922e-03
5.612493104205e-03
4.353675085413e-03
1.412398444283e-03
4.259060800004e-03
3.477784717748e-03
5.132413977016e-03
2.272689532028e-03
1.816489196477e-03
3.846604393139e-03
3.494167407997e-03
5.528278511332e-03
3.146089818610e-03
1.957139825605e-03
1.112448474458e-03
2.360079505855e-03
4.023485214536e-03
2.432815649017e-03
5.414327495685e-03
4.449676466395e-03
2.421354826549e-03
5.279237453520e-03
2.481134471885e-03
2.154599998102e-03
3.850201562972e-03
4.337013816297e-03
4.689567346140e-03
3.889632788579e-03
4.106706360112e-03
3.777078850776e-03
2.080073589128e-03
3.024091218619e-03
4.636084587167e-03
4.310138882828e-03
5.639613987774e-03
3.640972516568e-03
4.095996415080e-03
5.509310551577e-03
3.587895264237e-03
1.596224348258e-03
2.654907617398e-03
2.518196502036e-03
2.963465931010e-03
3.699806971781e-03
5.746687556824e-03
4.270512341207e-03
2.658558888212e-03
1.528342692343e-03
3.642720607827e-03
4.434127154033e-03
1.755325851135e-03
2.085706409627e-03
3.490851329931e-03
4.839928513279e-03
3.143753996542e-03
4.591157827228e-03
1.995758212990e-03
3.213796841356e-03
3.698867822439e-03
4.783484472751e-03
2.274372036269e-03
3.942041855717e-03
2.018129477521e-03
3.179171001688e-03
3.766024258519e-03
4.461967294443e-03
5.932012927013e-03
2.263421662546e-03
4.710985723029e-03
3.694491554536e-03
2.635139483983e-03
1.025903351167e-03
3.364049018946e-03
3.741140459926e-03
2.496086040746e-03
2.247981960543e-03
3.447314890980e-03
3.806063609485e-03
2.443637327429e-03
3.889607978100e-03
2.932212877137e-03
4.809565923031e-03
3.991122142150e-03
4.535682597544e-03
1.253579093275e-03
3.692076032167e-03
4.710605835282e-03
2.989317964917e-03
2.692080032987e-03
5.041460301469e-03
2.649271473601e-03
2.763935828314e-03
4.635607043239e-03
3.377136231024e-03
2.886852932384e-03
2.656221383019e-03
2.841982051278e-03
2.546121946090e-03
2.280710634061e-03
2.448224017802e-03
4.844932991548e-03
1.159538546380e-03
4.958406181658e-03
2.170695742773e-03
2.635116820678e-03
3.060192089563e-03
4.490482294088e-03
2.676098572190e-03
1.933023820066e-03
2.768539009112e-03
2.773761821372e-03
2.620450107336e-03
2.685714993396e-03
5.648300186419e-03
2.938653539912e-03
5.823614188445e-03
4.963188208300e-03
3.932121989893e-03
2.324149862710e-03
0.0
2.514548860694e-03
2.801591293186e-03
4.851561224056e-03
3.937231005468e-03
2.729494295403e-03
5.675085357911e-03
4.803426685540e-03
4.862248751244e-03
2.171293786245e-03
3.009255413908e-03
5.428982077181e-03
3.693412385959e-03
1.283308417236e-03
4.241990484630e-03
2.118254558368e-03
2.377043969348e-03
2.382468483149e-03
2.413239708947e-03
2.697664909012e-03
2.126804265286e-03
2.932528478253e-03
3.975655703172e-03
3.423996743188e-03
2.040734890307e-03
5.723862858496e-03
4.029709976472e-03
4.729446121623e-03
3.643538952676e-03
2.324384274866e-03
4.240145590125e-03
5.248251932663e-03
5.065638731077e-03
4.865415511008e-03
3.950525462167e-03
5.659251463191e-03
2.734727135404e-03
5.648629554702e-03
5.043134290996e-03
4.301884988432e-03
4.260018092810e-03
4.871863521837e-03
5.738997361023e-03
2.142169266280e-03
4.855264715639e-03
2.941329875457e-03
4.982839675412e-04
4.155649936064e-03
5.251942821196e-03
4.831609780295e-03
9.013000089023e-04
1.077083856090e-03
3.817677234665e-03
5.571067232882e-03
3.300048357497e-03
5.920327576545e-03
7.577862853330e-04
3.663422898644e-03
1.060195543772e-03
4.951255767582e-03
5.712619248511e-03
3.070814862917e-03
3.822820158157e-03
2.186156026243e-03
4.538463984820e-03
1.851321241038e-03
5.716697476405e-03
3.395600169627e-03
5.810236312995e-03
3.850312672382e-03
0.0
4.395921499424e-03
2.651166453379e-03
3.693193394849e-03
5.779881690989e-03
2.632058365002e-03
1.305216945228e-03
5.834411797515e-03
1.794472957361e-03
3.663155821034e-03
4.974463401011e-03
1.126337765141e-03
4.139350774126e-03
5.652422135997e-03
3.542221846802e-03
5.289169342971e-03
3.063748398770e-03
0.0
4.627165150353e-03
3.844266386451e-03
5.798941796910e-03
4.453871606854e-03
2.441774290393e-03
5.465528199286e-03
3.248665564557e-03
4.976193501889e-03
2.571640358639e-03
1.100794412980e-03
3.751244995352e-03
1.075195837059e-03
4.615840899057e-03
3.326084611542e-03
3.017196360310e-03
2.991431796678e-03
3.343927869160e-03
3.270124677663e-03

SCALARS node_materi_plasti_phimob float
LOOKUP_TABLE default
-5.186562594724e+01
-1.122280589923e+01
2.065950334621e+01
1.835501033370e+01
-3.003516479986e+01
-2.035384005443e+00
1.128566984705e+01
1.444583316069e+01
1.332493725361e+01
1.481788217067e+01
1.609665446422e+01
1.706936654777e+01
1.782631935989e+01
1.844525711943e+01
1.896818480314e+01
1.934523401428e+01
1.961793252956e+01
1.998772209281e+01
2.066851462760e+01
2.108115966110e+01
2.102249127278e+01
2.091174651284e+01
2.078280669460e+01
1.840967614325e+01
1.840555838446e+01
1.843393519103e+01
1.846964810363e+01
1.848332713310e+01
1.856033785279e+01
1.863003158300e+01
1.874572623195e+01
1.888174873604e+01
1.903402430735e+01
1.917255826165e+01
1.939698521003e+01
1.961772765559e+01
1.994464089565e+01
2.018128103762e+01
2.052567047984e+01
2.080065835115e+01
2.105456249380e+01
2.134393109061e+01
2.156969050934e+01
2.173149438843e+01
2.180026842525e+01
2.187066965479e+01
2.187876707124e+01
2.184737211587e+01
2.178908168692e+01
2.172623735729e+01
2.164047519988e+01
2.155517181854e+01
2.143067098878e+01
2.137839955162e+01
2.131016646801e+01
2.121657749023e+01
2.114310638465e+01
2.107895388570e+01
2.100538218878e+01
2.096084545926e+01
2.090657111734e+01
2.087044704905e+01
2.083445832080e+01
2.078657869529e+01
2.074056384744e+01
2.071585152385e+01
2.074114741868e+01
2.067515894604e+01
2.067785764948e+01
2.065768373088e+01
2.065118978450e+01
2.065262208332e+01
-9.080515162416e-01
5.066463139976e+00
8.790781847588e+00
1.133198162598e+01
1.327262747351e+01
1.476310533249e+01
1.597970182047e+01
1.698997794357e+01
1.784738910091e+01
1.881389543162e+01
-8.098659372563e-01
3.418578473577e+01
2.982494870228e+01
2.934209275864e+01
2.917908536574e+01
2.734902137333e+01
2.455711628927e+01
2.293815832754e+01
1.601320617285e+01
1.885507148184e+00
-2.330097581821e+01
-2.057399819061e+01
-1.261212080606e+01
-1.209806312642e+01
-1.208264908628e+01
-1.212583971991e+01
-1.048188139822e+01
-1.177070065005e+01
-1.167062169804e+01
-1.138413820775e+01
-1.087816477480e+01
-1.046782455321e+01
-9.809503661163e+00
-8.666667958914e+00
-6.887188370709e+00
-4.486927144850e+00
1.012578654569e+01
8.727666063262e+00
9.402796958529e+00
1.032249994400e+01
1.143506543433e+01
2.741552451645e+00
-2.342749694732e+01
-3.829573025547e+01
-4.546214554533e+01
-4.813307777926e+01
-4.884419521915e+01
-4.920519182173e+01
-5.062961291309e+01
-5.208636655139e+01
-5.308695182204e+01
-5.393137334125e+01
-5.439136735509e+01
-5.436390907371e+01
-5.439855799831e+01
-2.454661478226e+01
-2.540818694725e+01
-2.535214472025e+01
-2.538034565916e+01
-2.541980382059e+01
-2.559649029361e+01
-2.580203907572e+01
-2.603670314500e+01
-2.622572102522e+01
-2.653126079489e+01
-2.643010816583e+01
-2.600865338219e+01
-2.497149565850e+01
-2.255461696644e+01
-1.876857256113e+01
-1.043203666825e+01
7.242619448298e+00
-6.728817784397e+00
-1.020562990684e+01
-1.426356370160e+01
-1.669473065746e+01
-1.839704645115e+01
-1.957012628238e+01
-2.028830477110e+01
-2.071223652552e+01
-2.092929661183e+01
-2.114711826357e+01
-2.128088187412e+01
-2.137919752381e+01
-2.151105475299e+01
-2.158087252337e+01
-2.155812429187e+01
-2.101769382268e+01
3.499586537224e+01
3.174705581342e+01
2.944255226247e+01
2.902603097938e+01
2.943628000893e+01
2.689322969525e+01
2.328946840293e+01
2.247054344879e+01
1.141139676854e+01
-3.276259145253e-01
2.760670186308e+01
2.162263915000e+01
-3.439064185964e+01
1.318698996200e+01
2.124393936090e+01
2.503770177911e+01
1.874861524460e+01
2.193288616934e+01
2.335726000088e+01
2.204071451723e+01
1.720451036295e+01
2.093004700217e+01
-3.825859778877e+01
2.157981301622e+01
3.788684481875e+00
1.559686572234e+01
1.973502247893e+01
2.059648819908e+01
1.919320756457e+01
1.810022820006e+01
1.815778257819e+01
1.859815475307e+01
1.220855823734e-01
-2.609070246725e+00
-2.076535490594e+00
1.237161083989e+01
2.082136605358e+01
1.062752280587e+01
-3.705418824400e+01
2.107487451232e+01
-2.718156502484e+00
1.330911352489e+01
1.967544591717e+01
2.200074447773e+01
2.190889798428e+01
2.185331739281e+01
2.144232476868e+01
-1.179768030192e+00
-2.254300580660e+00
2.115641774097e+01
1.538606974735e+01
-3.739874102713e+01
1.750597124599e+01
1.817080708811e+01
2.394285900455e+01
2.584420054127e+01
2.131459521590e+01
6.842989195026e+00
3.206337824805e+01
7.380516966909e+00
2.075306193502e+01
-3.819687609618e+01
1.739350876323e+01
3.975202137869e+00
7.203537002755e+00
7.115983678528e+00
1.017305169785e+01
1.041945718731e+01
1.237557837454e+01
1.232219361353e+01
1.399618626204e+01
1.406902500800e+01
1.265542212837e+01
1.534884263896e+01
1.547783945283e+01
1.647004924068e+01
1.662393619129e+01
1.575340479929e+01
1.720736938686e+01
1.629728040441e+01
1.801772624823e+01
1.879674890834e+01
1.966409400557e+01
1.879780201777e+01
2.039549654063e+01
1.952970320749e+01
2.102816730338e+01
2.027606707605e+01
2.164889853939e+01
2.231378859688e+01
2.286910457719e+01
2.235782420128e+01
2.346385731748e+01
2.316060176783e+01
2.423417277005e+01
2.443058474237e+01
2.502687967072e+01
2.487970688196e+01
2.551336702229e+01
2.540272581262e+01
2.596687558403e+01
2.575750058822e+01
2.621247650288e+01
2.637729050466e+01
2.651357264286e+01
2.624902186388e+01
2.641115395509e+01
2.666113979437e+01
2.641330777088e+01
2.662573864604e+01
2.626291631817e+01
2.597797500007e+01
2.569426557833e+01
2.591655520166e+01
2.524593204187e+01
2.496914278337e+01
2.445863783237e+01
2.472324692135e+01
2.385159727735e+01
2.361663802440e+01
2.281402377362e+01
2.293928022342e+01
2.184950218752e+01
2.155236819656e+01
2.068424142910e+01
2.112249522364e+01
2.002092035817e+01
2.060942306250e+01
1.945244711505e+01
1.895965202986e+01
1.833902138359e+01
1.835654323479e+01
2.519516895982e+01
1.767253170406e+01
1.760910972757e+01
1.801801608684e+01
1.869620873203e+01
1.719356704202e+01
1.762950916935e+01
1.665576799579e+01
2.513931697447e+01
2.012693849238e+01
1.718474993988e+01
1.603317863309e+01
1.532918845381e+01
1.442481718353e+01
1.103346029600e+01
1.309685415313e+01
1.162479732532e+01
1.362908436640e+01
1.243023015137e+01
1.529491785420e+01
1.642565798313e+01
1.473095512294e+01
1.786337615225e+01
2.199937584250e+01
2.673170270916e+01
1.805895355068e+01
1.768359424692e+01
1.836538964906e+01
2.164125998077e+01
2.131365825646e+01
2.233417997198e+01
2.209038705463e+01
2.293712951588e+01
2.263581533356e+01
2.189707618277e+01
2.236140981721e+01
2.173548731413e+01
2.300827822233e+01
2.341312291388e+01
2.211217077813e+01
2.161110076830e+01
2.188256531156e+01
2.151798060748e+01
2.088987801513e+01
2.089320189902e+01
2.020655638443e+01
2.660989920210e+01
2.659338610468e+01
2.635502797256e+01
2.613159153949e+01
2.562027451411e+01
2.520521197065e+01
2.473656876233e+01
2.504251046886e+01
1.743916953291e+01
2.613245858404e+01
2.595124912172e+01
2.582384018442e+01
2.551669857283e+01
2.543483846987e+01
2.490655926300e+01
2.491579045177e+01
2.519380122340e+01
2.475316105377e+01
2.469581247901e+01
2.449427829464e+01
2.390325289964e+01
2.335292116812e+01
2.569197399644e+01
2.472213244506e+01
2.507451000192e+01
1.338575239046e+01
2.144292121916e+01
2.316440584375e+01
2.361940290221e+01
2.428987455200e+01
1.326307935098e+01
2.418246906807e+01
2.403269395101e+01
1.421405981829e+01
1.320699178857e+01
2.318909075642e+01
1.424377952384e+01
2.231359448583e+01
2.450174214805e+01
2.094098026358e+01
2.136231966475e+01
2.102305905909e+01
2.424287701205e+01
2.450141924863e+01
2.428796552791e+01
2.306777823853e+01
2.255660126014e+01
2.118942879018e+01
2.214909761093e+01
2.017167343782e+01
1.878616118987e+01
1.782033426145e+01
1.935895656766e+01
1.708211059991e+01
1.534350273091e+01
1.485938118419e+01
2.147365941748e+01
2.466953339566e+01
1.481272299811e+01
2.276685671949e+01
2.397166037272e+01
1.482074958325e+01
1.397364268886e+01
1.214998244972e+01
1.310157572904e+01
1.471835895314e+01
1.397308971431e+01
1.219112692088e+01
1.319215314381e+01
1.121068630327e+01
1.236442145142e+01
1.408703644711e+01
1.338063056994e+01
1.147869483442e+01
1.261749811189e+01
1.048799382815e+01
1.175933957131e+01
1.360529482108e+01
1.239702005912e+01
2.453229316311e+01
2.384659208044e+01
1.790746313332e+01
1.840779036106e+01
1.884181954417e+01
1.883689742549e+01
1.285035083499e+01
1.447830959281e+01
2.312286415731e+01
2.295216298749e+01
1.563862617265e+01
2.101806010697e+01
2.034739282535e+01
2.296073079191e+01
2.171835579937e+01
2.273697287802e+01
2.142316554824e+01
2.040860546887e+01
2.245238055391e+01
2.385711895861e+01
1.489650425367e+01
1.453639793516e+01
1.211929208502e+01
2.127615758460e+01
2.521784984764e+01
2.273067083303e+01
2.345563665846e+01
2.271439644811e+01
2.320270599344e+01
2.252434232155e+01
2.290465831682e+01
2.349801219363e+01
2.379033293823e+01
2.310940452697e+01
1.073573916297e+01
2.598282821304e+01
1.891150148405e+01
1.070445261363e+01
1.231359476644e+01
1.305545171935e+01
1.476023064176e+01
2.270000559902e+01
2.236567387321e+01
2.190635709449e+01
2.021388176350e+01
1.919698059301e+01
2.352558409725e+01
1.010035959127e+01
9.892954463236e+00
8.592328125200e+00
1.172548238344e+01
1.298531426466e+01
1.541381560907e+01
2.399208907998e+01
2.293366506567e+01
2.470880025701e+01
2.541508684124e+01
1.377174062420e+01
1.519943252770e+01
1.917154256967e+01
1.920322205611e+01
2.311785818239e+01
1.251364083727e+01
1.577052193324e+01
2.466317404608e+01
2.519473366089e+01
1.842197506307e+01
2.196838816950e+01
2.230161542877e+01
2.085894112585e+01
1.481550622014e+01
1.363101214216e+01
2.256245483631e+01
1.603404240467e+01
2.360830393598e+01
2.412801007380e+01
2.311940724980e+01
8.399950446348e+00
2.231006956952e+01
2.109778265716e+01
2.188942303056e+01
2.136955841862e+01
2.401155079718e+01
2.306689447061e+01
2.184275833231e+01
2.195617317924e+01
1.255758702960e+01
2.393798158490e+01
1.543222617711e+01
1.381837585484e+01
1.461515922898e+01
1.932124606620e+01
1.800244596038e+01
2.552857160572e+01
2.660542836994e+01
1.918148377162e+01
2.019854448194e+01
2.267205908782e+01
1.547909428402e+01
1.614862280601e+01
8.967091240288e+00
7.554636604597e+00
1.010122103532e+01
7.933007614765e+00
2.030556434633e+01
2.238187131704e+01
1.612884938316e+01
1.681774573508e+01
1.641191905486e+01
2.296890311832e+01
2.584474622208e+01
2.629665438497e+01
2.417155709912e+01
2.465736409735e+01
4.126783118916e+00
1.928826975641e+01
2.115383670289e+01
2.115219588570e+01
2.315315056992e+01
7.781695687419e+00
2.518986668160e+01
2.570716647012e+01
1.278161798110e+01
1.395153729987e+01
1.559354500844e+01
1.552041214038e+01
2.046091894683e+01
1.863782033661e+01
2.222058823796e+01
2.276010083867e+01
2.155458796235e+01
2.093601101135e+01
2.286803958307e+01
2.323911674937e+01
1.510674465623e+01
1.833859901008e+01
1.659664595837e+01
1.172543246266e+01
2.193975645798e+01
2.202977744350e+01
2.387813740385e+01
2.235773640095e+01
1.638286042662e+01
2.083615762965e+01
2.077198870301e+01
2.100083478996e+01
2.083501659003e+01
-2.800887550578e+00
2.101744972574e+01
1.816001382882e+01
1.685657494031e+01
2.541024515107e+01
2.400072835473e+01
2.356562740901e+01
1.579456321604e+01
1.696578434377e+01
6.751809355683e+00
4.765206095621e+00
8.272891176784e+00
2.388763627228e+01
2.412602272445e+01
1.561923082918e+01
1.707210265644e+01
1.726802084946e+01
1.303813688213e+01
1.511397487262e+01
1.946632839744e+01
1.944336225447e+01
2.039455546962e+01
1.975860838616e+01
2.197923472014e+01
2.463629165893e+01
2.482912046333e+01
2.548775092925e+01
1.663896960610e+01
1.729020880178e+01
2.196884292068e+01
2.247084050651e+01
1.971774921370e+01
1.713725383611e+01
2.100432760778e+01
2.113587250003e+01
1.690955585987e-02
5.302558429933e+00
2.174613573754e+01
2.252452982872e+01
1.746549086268e+01
1.715277521988e+01
1.788648807611e+01
1.419220830924e+01
2.414132763199e+01
2.236369055200e+01
2.280350813081e+01
2.192311115976e+01
2.339200719988e+01
2.280964922764e+01
2.264109021807e+01
2.018095077500e+01
1.663161166556e+01
5.178594170028e+00
1.573065174212e+01
3.095601525626e+00
5.876763886255e+00
-1.809785518603e-02
1.369190865619e+01
3.603943487913e+00
6.516408578180e+00
-9.687597920579e+00
1.761957467445e+01
-7.657562920673e+00
-9.173880571412e-01
2.163385740713e+01
2.172232997511e+01
2.136880546587e+01
2.145105835399e+01
2.174931574763e+01
2.149156246949e+01
2.340490389822e+00
2.117595103227e+01
2.125155687305e+01
2.101716522652e+01
1.455600319902e+01
2.176279928146e+01
2.058676586815e+01
2.112585163501e+01
2.132677654514e+01
2.065034549884e+01
2.112486186831e+01
2.071578293909e+01
3.468410435574e+00
3.301837224002e+00
7.279261000982e+00
6.869570936843e+00
9.773444379439e+00
9.413296795517e+00
1.167585269348e+01
2.236695072208e+01
2.119961199675e+01
1.032695858068e+01
2.257994187764e+01
2.296712391126e+01
1.704910236477e+01
1.830677155109e+01
2.174751985463e+01
2.473207867910e+01
1.829992735058e+01
1.625136955019e+01
2.161142064694e+01
2.442802804423e+01
1.676801399944e+01
2.113221433612e+01
2.024150982750e+01
2.414776771570e+01
2.600260881285e+00
2.120724157123e+01
1.185138963150e+01
2.226489302848e+01
2.094491627659e+01
2.539739170907e+01
1.968105971970e+01
2.182912312930e+01
2.315260614225e+01
1.435221031428e+01
1.026370780704e+01
1.083887234798e+01
2.590676068590e+01
1.936196027697e+01
2.053611912952e+01
1.702151994499e+01
1.604821612191e+01
1.686805160778e+01
1.781026205086e+01
1.760740889457e+01
1.665214501330e+01
1.745288085090e+01
1.826525161678e+01
1.816818365362e+01
1.925893959623e+01
1.903078728562e+01
1.813160762524e+01
1.906748846514e+01
1.991626655564e+01
1.824062360200e+01
2.220949698161e+01
2.470449857421e+01
2.428462001585e+01
2.474640720940e+01
1.874126601044e+01
2.025907419854e+01
1.943609107210e+01
2.489773819658e+01
2.175479695484e+01
1.309508733429e+01
2.432244712886e+01
2.198845729933e+01
1.573677703026e+01
1.549542996725e+01
1.436063145940e+01
1.895517638601e+01
9.778606470390e+00
2.194227094979e+01
2.640379172802e+01
2.634870611270e+01
2.640534228158e+01
1.735838597360e+01
2.171115633350e+01
2.226484767633e+01
2.217114900218e+01
2.285342311632e+01
2.154904951905e+01
2.104036598952e+01
2.136304514499e+01
2.144653363853e+01
2.301890341014e+01
2.369118002054e+01
2.421880546021e+01
2.365167783668e+01
2.471777830492e+01
2.505358416763e+01
2.509592770846e+01
2.020637016563e+01
2.137664111831e+01
2.326092793150e+01
2.362716389216e+01
2.319394788021e+01
1.901813323724e+01
1.926420101028e+01
1.973514719328e+01
1.873209573312e+01
2.391690107355e+01
2.129861216163e+01
2.582091497625e+01
1.895879308160e+01
-1.240708016343e+00
4.339819532843e+00
5.492818389601e+00
8.530963900511e+00
4.084884416363e+00
1.947358036286e+01
1.951752692550e+01
1.927072818847e+01
1.958102968594e+01
1.934996130472e+01
1.901309273206e+01
1.965023462648e+01
1.943297066256e+01
-2.608017273563e+00
1.400242978788e+01
1.372463244643e+01
5.052038776256e+00
1.362781583595e+01
1.785235118553e+01
1.714069362954e+01
2.006372539041e+01
2.025672696268e+01
-1.708998328106e+01
-2.648791724027e+00
-2.780398187154e+01
-8.028292491603e+00
6.396943801502e+00
1.080585034642e+01
2.082038480196e+01
1.817156326049e+01
1.794601167596e+01
1.723673234351e+01
1.777811287776e+01
1.845526354424e+01
1.667303964341e+01
1.642285300544e+01
-3.712273753590e+01
-9.631062842210e+00
-1.158760134165e+01
5.923526712931e+00
5.473909505935e+00
-9.473130864010e+00
-9.575050324444e+00
-3.718980343361e+01
-1.037442430933e+01
4.680187636862e+00
-3.793430174426e+01
1.407228722010e+01
1.485170671850e+01
2.118991645540e+01
-1.984344104229e+00
-3.688295443548e+01
1.792920434326e+01
1.816514874133e+01
1.813485950791e+01
2.097303751134e+01
2.092224355114e+01
1.794001592681e+01
1.609848048876e+01
1.839773659484e+01
1.627031836338e+01
2.340918928058e+01
1.662846230142e+01
2.048310681336e+01
2.093853098310e+01
2.130379611295e+01
2.026059254343e+01
2.167028930222e+01
2.213656437129e+01
1.360213351550e+01
1.013903105771e+01
9.324291409897e+00
1.427532998024e+01
1.667835173972e+01
1.891146514313e+01
1.207050045631e+01
2.197705098781e+01
1.620749119120e+01
2.218017911551e+01
1.840019730789e+01
1.677824407705e+01
1.677400493403e+01
2.411163104607e+01
1.958027969706e+01
2.264292016069e+01
1.507110132316e+01
-3.411968056273e+01
2.275196908290e+01
2.112330937938e+01
1.106242134067e+01
2.435523924971e+01
1.603376702323e+01
1.476254504569e+01
1.720537731263e+01
8.373665371711e+00
7.920328944212e+00
7.071640499911e+00
2.214434688386e+01
1.516150973599e+01
1.589931908674e+01
2.639958312728e+01
2.109064475312e+01
4.684036726296e+00
1.672940305009e+01
2.561598936285e+01
2.358340924996e+01
2.583998486990e+01
1.621691396809e+01
2.204773044059e+01
2.664394652876e+01
1.605116641895e+01
2.194861777907e+01
2.612396038062e+01
1.543144385881e+01
2.398762555236e+01
2.394177225442e+01
1.713744006908e+01
2.170727807338e+01
1.791793001000e+01
2.388799900909e+01
2.000820206915e+01
2.238163941938e+01
2.385813312404e+01
2.373895052260e+01
1.114266528529e+01
2.264703958177e+01
1.712217360723e+01
2.070175905149e+01
2.200843104522e+01
1.662735005962e+01
1.956933873615e+01
1.340451241687e+01
2.296128687240e+01
2.557525154171e+01
2.604064442756e+01
2.025270723676e+01
1.820592168104e+01
2.173313161302e+01
2.364752217530e+01
3.009560985041e+01
8.833611796644e+00
2.149396810052e+01
2.600238151798e+01
2.362414976764e+01
1.908870105351e+01
2.216280737803e+01
1.691616724437e+01
2.130486836036e+01
2.405163372573e+01
2.486676879643e+01
-2.608220178828e+00
2.105648483335e+01
2.339875186442e+01
2.411704207344e+01
2.546531020556e+01
1.100006114800e+01
2.024315352236e+01
2.097536957144e+01
1.875441408423e+01
2.316259166634e+01
1.409191949886e+01
1.977563602001e+01
2.536253646525e+01
5.069839400681e+00
1.211205903792e+01
1.976367942340e+01
2.539871748606e+01
2.483466614822e+01
2.258020517574e+01
1.978738208950e+01
2.568707117369e+01
1.983358254220e+01
2.039778548100e+01
1.535782956103e+01
1.989367264793e+01
2.116375429251e+01
4.266962659552e+00
2.457687141437e+01
2.105063992998e+01
1.886411999110e+01
2.412437321631e+01
1.649939976872e+01
2.191114510387e+01
2.432004299977e+01
2.125714530082e+01
2.476460104058e+01
2.607583846048e+01
2.411651238308e+01
1.951280964442e+01
1.555108136815e+01
1.373301090299e+01
2.538916217436e+01
2.065774090785e+01
1.311730887221e+01
1.734006069374e+01
9.500011807403e+00
2.463524948376e+01
2.400292305859e+01
1.030213886854e+01
2.410683087015e+01
1.415321005552e+01
2.311568344282e+01
2.598388265858e+01
2.253659671414e+01
2.124410690879e+01
1.727586902967e+01
2.022840958109e+01
1.804614829374e+01
2.076850160672e+01
2.815570102816e+00
2.486646111358e+01
9.994149829450e+00
2.045916614398e+01
1.801886054924e+01
1.861175793521e+01
3.017435336055e+00
1.656478362444e+01
2.008306879086e+01
2.201779446986e+01
1.327189585019e+01
2.326511246625e+01
2.470977582429e+01
1.642581783362e+01
-3.223249098722e+00
-1.123450589104e+01
2.026589079050e+01
2.618061262805e+01
2.090328882436e+01
2.173066610529e+01
1.633347870154e+01
9.652936914802e+00
2.528117859538e+01
2.234358061379e+01
2.788101258571e+00
2.355427987439e+01
2.645004274850e+01
1.764313730055e+01
2.246085401090e+01
2.100946191734e+01
2.301265663379e+01
2.367435593708e+01
7.367620400969e+00
2.175414388481e+01
1.446108197763e+01
2.087316721405e+01
2.288466250580e+00
1.739250154175e+01
2.249362506062e+01
1.740716421702e+01
1.931214296292e+01
8.056286962188e+00
8.632808422958e+00
2.086696332333e+01
1.909575781287e+01
2.558155297064e+01
1.314604282480e+01
1.798978114439e+01
1.948158862026e+01
2.153799250581e+01
1.996912805795e+01
2.097139970962e+01
6.079172725248e+00
-1.461468058585e+01
2.169472453593e+01
2.100840414141e+01
2.018900459277e+01
1.848908065257e+01
2.755174828289e+01
-4.334161189932e+00
-1.270558048788e+01
2.082313112684e+01
1.750004819559e+01
1.827262997231e+01
2.012726328773e+00
1.533243251965e+01
2.246220211339e+01
1.647085683777e+00
1.754306145858e+01
2.187694454829e+01
1.827824996496e+01
2.172881586140e+01
1.680031839468e+01
2.232173082402e+01
2.263171635473e+01
-3.261000577731e+00
1.858494602335e+01
1.706237428612e+01
1.049076891814e+01
1.813185440475e+01
-4.210644844443e+01
-3.557746783874e+00
2.072267079692e+01
1.206274455000e+01
6.305712049502e+00
2.064682373355e+01
1.917865413707e+01
1.580621951201e+01
1.433751304573e+01
1.023625100192e+01
1.152062743106e+01
2.236835987832e+01
1.800256092805e+01
9.754011380300e+00
2.323323811390e+01
2.047058361624e+01
1.865555227696e+01
2.189657307934e+01
2.274860425009e+01
2.821517755504e+01
1.948734772088e+01
-1.501494668719e+01
2.120028204528e+01
1.881342652125e+01
2.657138473146e+00
-2.333455156014e+01
-3.785038577815e+00
-1.745342120287e+01

SCALARS node_materi_stress_average_a_sig float
LOOKUP_TABLE default
-7.182261154947e+00
-3.237872148442e+01
-2.420128371641e+02
-1.441895244765e+02
-1.199844630530e+01
-2.147043840015e+01
-3.121946356703e+01
-4.495454594346e+01
-6.009326192593e+01
-7.454195730927e+01
-8.845392515416e+01
-1.018583534536e+02
-1.147922404683e+02
-1.274208760654e+02
-1.399131565481e+02
-1.518273343261e+02
-1.625087645892e+02
-1.739170567046e+02
-1.855038890784e+02
-1.972193553283e+02
-2.097232847046e+02
-2.224026702957e+02
-2.345429864473e+02
-1.448412754952e+02
-1.442070641756e+02
-1.444952784336e+02
-1.446602023154e+02
-1.446625735811e+02
-1.454235846776e+02
-1.463458760449e+02
-1.467865997141e+02
-1.482749222575e+02
-1.492970641863e+02
-1.504698188487e+02
-1.524952976615e+02
-1.551583971530e+02
-1.571542651243e+02
-1.599511437738e+02
-1.625549694215e+02
-1.661992908305e+02
-1.709157349978e+02
-1.753552135683e+02
-1.800129125563e+02
-1.845384251634e+02
-1.892467760044e+02
-1.938907840311e+02
-1.984725655536e+02
-2.030650492696e+02
-2.075092620134e+02
-2.115772507083e+02
-2.153340420250e+02
-2.186803593218e+02
-2.223711332076e+02
-2.251235206614e+02
-2.272950741845e+02
-2.299764429573e+02
-2.323473875575e+02
-2.344456819550e+02
-2.362717054852e+02
-2.377055737243e+02
-2.387960119743e+02
-2.395459371986e+02
-2.400508255330e+02
-2.408582818907e+02
-2.418289584100e+02
-2.422685920349e+02
-2.408451960614e+02
-2.423574695161e+02
-2.419022381546e+02
-2.423176998161e+02
-2.427335354602e+02
-2.426680963854e+02
-4.459556042992e+01
-5.654989330224e+01
-6.842220830549e+01
-7.994951670185e+01
-9.167030735671e+01
-1.034879707871e+02
-1.149456081951e+02
-1.261646198801e+02
-1.379285906869e+02
-6.010531223160e+01
-4.101100014355e+01
-3.467040566745e+01
-3.181678321694e+01
-3.059112923214e+01
-2.932721099182e+01
-2.842943800977e+01
-2.732564091548e+01
-2.829404365716e+01
-3.164297128531e+01
-2.956113449777e+01
-1.292864906874e+01
-2.011544679428e+01
-3.086818880470e+01
-3.164356651680e+01
-3.169010281897e+01
-3.166282486921e+01
-3.346673690963e+01
-3.212188171118e+01
-3.228197918018e+01
-3.259926821087e+01
-3.319311333697e+01
-3.360940021616e+01
-3.419507596816e+01
-3.492797832066e+01
-3.613489215358e+01
-3.777979379246e+01
-8.289513652366e+01
-9.413061130230e+01
-9.691751387082e+01
-8.845436737118e+01
-5.622153745833e+01
-2.575435070088e+01
-1.429987065111e+01
-1.074440334099e+01
-9.289629183371e+00
-8.543312056177e+00
-8.196837991525e+00
-8.390837933115e+00
-7.935108402911e+00
-7.338976433085e+00
-7.072391449054e+00
-7.032275834099e+00
-6.937109654977e+00
-6.715698057525e+00
-6.564918562710e+00
-1.388553417219e+01
-1.390829559761e+01
-1.389268381013e+01
-1.388976042411e+01
-1.387049796712e+01
-1.382006273229e+01
-1.377060368181e+01
-1.369893802010e+01
-1.363230719573e+01
-1.357652426789e+01
-1.359322019110e+01
-1.371441612173e+01
-1.403132246135e+01
-1.462815346374e+01
-1.571145927216e+01
-1.752898359576e+01
-1.893372525423e+01
-2.427092646793e+01
-2.504221807095e+01
-2.279460164040e+01
-2.185479344772e+01
-2.125174630700e+01
-2.087307398418e+01
-2.058580967113e+01
-2.039915633748e+01
-2.034725018105e+01
-2.023955077398e+01
-2.017550247957e+01
-2.014069646825e+01
-2.009857235014e+01
-2.003060159554e+01
-2.006744407925e+01
-2.018438000085e+01
-3.992052597969e+01
-3.295810281442e+01
-3.092193826354e+01
-3.032595116873e+01
-2.947556112487e+01
-2.786870325201e+01
-2.722771133657e+01
-3.146209990891e+01
-2.804679700043e+01
-3.629943705604e+01
-3.726879868000e+01
-2.250234919693e+02
-1.392060261609e+01
-6.592673106549e+01
-2.331497965252e+02
-3.439133374164e+01
-1.341852140869e+02
-2.136644916837e+02
-3.322427561867e+01
-1.997036576011e+02
-3.850729040330e+01
-2.366885249235e+02
-1.098552054850e+01
-1.820770457081e+02
-4.980628282905e+01
-8.225473045874e+01
-1.664159218826e+02
-1.687343036110e+02
-1.547189348062e+02
-1.411666320066e+02
-1.426434614996e+02
-1.480911138158e+02
-4.975925314799e+01
-4.516163922289e+01
-4.460194256414e+01
-8.591828679148e+01
-2.366166940022e+02
-7.931349308746e+01
-1.067053750160e+01
-2.030022896277e+02
-4.236940486576e+01
-3.795326820901e+01
-1.590085927978e+02
-2.079494571657e+02
-1.910506495818e+02
-2.185865990065e+02
-2.294929205507e+02
-2.545444541342e+01
-4.645873342245e+01
-2.329106224994e+02
-1.089158801138e+02
-1.215378731436e+01
-1.084589666550e+02
-1.420594774287e+02
-3.480583488098e+01
-3.530320797592e+01
-3.412613358846e+01
-4.170943663753e+01
-4.272123964621e+01
-6.350030087005e+01
-2.388178872491e+02
-1.009853428660e+01
-1.313241343269e+02
-5.449070010662e+01
-6.224733292028e+01
-6.598390960404e+01
-7.526407829483e+01
-7.963293506893e+01
-8.787338903201e+01
-8.391203433687e+01
-9.634427372788e+01
-9.258095841189e+01
-9.244059050210e+01
-1.048628187235e+02
-1.013107785635e+02
-1.134453544879e+02
-1.100540029235e+02
-9.815772702734e+01
-1.069691015642e+02
-9.545776698206e+01
-1.042937236013e+02
-1.157022062809e+02
-1.129664317167e+02
-1.018901908706e+02
-1.104967530561e+02
-9.968817051856e+01
-1.082056097560e+02
-9.758523118857e+01
-1.061097985912e+02
-1.164756550288e+02
-1.142643146353e+02
-1.041082006223e+02
-1.121229604070e+02
-1.021146466837e+02
-1.097931167413e+02
-1.196680975212e+02
-1.169937403106e+02
-1.070510559950e+02
-1.141161566543e+02
-1.043278089428e+02
-1.112176305463e+02
-1.015684930495e+02
-1.082587089680e+02
-1.178992982049e+02
-1.147869471691e+02
-1.053698127488e+02
-1.116063677657e+02
-1.211448457498e+02
-1.176653223362e+02
-1.273090654010e+02
-1.236527915570e+02
-1.142201326099e+02
-1.198599348584e+02
-1.294424657833e+02
-1.254641904381e+02
-1.158765960618e+02
-1.212060940313e+02
-1.313880416326e+02
-1.267861784576e+02
-1.165493194056e+02
-1.216608281346e+02
-1.326101091104e+02
-1.272354130060e+02
-1.160373053301e+02
-1.214412471436e+02
-1.328579351980e+02
-1.268754553068e+02
-1.382114041540e+02
-1.151830691359e+02
-1.204987699137e+02
-1.084838162698e+02
-1.137877523773e+02
-1.268464656239e+02
-1.014606141508e+02
-9.636941222834e+01
-1.067952375507e+02
-1.190690869905e+02
-9.413681537276e+01
-9.952816008628e+01
-8.653632055673e+01
-9.443653770731e+01
-1.243598949147e+02
-9.198998694385e+01
-7.867479961119e+01
-7.329157687850e+01
-6.510665151217e+01
-8.466364044590e+01
-9.694274925023e+01
-8.891542832440e+01
-1.015013900486e+02
-9.405382424155e+01
-7.055570197143e+01
-1.171301853073e+02
-1.091701259600e+02
-9.084757993223e+01
-9.383051189733e+01
-1.310052453492e+02
-1.048817023262e+02
-9.743764621629e+01
-1.102995346898e+02
-1.439144555814e+02
-1.490382423589e+02
-1.543787767242e+02
-1.595780478661e+02
-1.648282396136e+02
-1.703999674084e+02
-1.649006775548e+02
-1.760691230686e+02
-1.703404674556e+02
-1.761847877168e+02
-1.702517097603e+02
-1.816980881026e+02
-1.757223450568e+02
-1.872933472522e+02
-1.810813319620e+02
-1.698737906879e+02
-1.750959612649e+02
-1.639522715677e+02
-1.373286580588e+02
-1.411694420374e+02
-1.476120691885e+02
-1.513692870438e+02
-1.584755257686e+02
-1.626696843844e+02
-1.700526925658e+02
-1.656215276566e+02
-1.220345394704e+02
-1.026158783227e+02
-9.644399993896e+01
-9.411923716388e+01
-8.798017018371e+01
-8.611732216783e+01
-8.003871677796e+01
-7.884161126512e+01
-8.429219609672e+01
-7.779935193329e+01
-8.215288565712e+01
-7.613640590671e+01
-7.889095802059e+01
-1.245583579863e+02
-1.552133885205e+02
-1.670462572737e+02
-1.593404377860e+02
-5.989999473866e+01
-1.864494405590e+02
-1.820746294946e+02
-1.757399377620e+02
-1.773362133078e+02
-5.681483260069e+01
-7.270426776283e+01
-7.355918360473e+01
-1.062083484289e+02
-9.901371597742e+01
-1.879418755674e+02
-6.236267378298e+01
-1.879622976092e+02
-7.226875258328e+01
-1.802707936369e+02
-1.918194272372e+02
-1.593367647979e+02
-1.715102136494e+02
-1.635676898257e+02
-8.588457110744e+01
-8.143997087684e+01
-7.391710790034e+01
-7.624741010463e+01
-8.454131901746e+01
-7.878002924022e+01
-6.989869865096e+01
-7.176340528734e+01
-8.154995844423e+01
-7.436524821006e+01
-6.408572142033e+01
-6.634671139437e+01
-1.984799292883e+02
-7.103992758786e+01
-8.643615617619e+01
-1.943329422896e+02
-1.820600686737e+02
-1.110205018416e+02
-1.040995820932e+02
-9.196851823413e+01
-9.737507494592e+01
-1.093075636122e+02
-1.028125531181e+02
-9.081345985170e+01
-9.645477225761e+01
-8.441482122394e+01
-9.024469343607e+01
-1.021300693408e+02
-9.611692340914e+01
-8.419480035693e+01
-9.020425070230e+01
-7.824622378998e+01
-8.435892097662e+01
-9.624998208936e+01
-4.861218529434e+01
-1.725655874897e+02
-1.846544623490e+02
-1.034134079828e+02
-1.157711359053e+02
-1.227117376279e+02
-1.282822408041e+02
-9.046259000514e+01
-1.022817772854e+02
-6.625999152139e+01
-6.674539079880e+01
-1.181242853116e+02
-1.854471680553e+02
-1.742291589265e+02
-9.197870029408e+01
-8.348448048243e+01
-8.179256221599e+01
-7.297377602626e+01
-7.453534451266e+01
-7.157266402952e+01
-1.643323342329e+02
-1.078865149534e+02
-6.818270571165e+01
-5.517338053427e+01
-1.972487978504e+02
-1.612407098708e+02
-1.271886826898e+02
-1.353159546507e+02
-1.383812508902e+02
-1.467283177530e+02
-1.500605358016e+02
-1.584848349531e+02
-1.549710008369e+02
-1.759963446538e+02
-1.668409369822e+02
-7.846547311326e+01
-1.478791912396e+02
-8.455882885620e+01
-4.305584889134e+01
-5.435613922293e+01
-5.385438432266e+01
-6.819365356648e+01
-2.003780359976e+02
-1.618612457281e+02
-1.532199462662e+02
-6.385852531858e+01
-6.524029996818e+01
-1.840396306571e+02
-8.158879276037e+01
-7.864819611232e+01
-7.214742160855e+01
-3.865581620693e+01
-5.289627723062e+01
-1.146055766284e+02
-7.465650118837e+01
-6.769177473093e+01
-6.782092440995e+01
-6.724753800646e+01
-9.648646424552e+01
-1.081833466979e+02
-1.348898277396e+02
-1.402535997973e+02
-1.937433020818e+02
-5.736132355991e+01
-1.140147905074e+02
-1.678432153569e+02
-1.568794596608e+02
-1.212636156436e+02
-5.956091302441e+01
-5.997287524203e+01
-9.138104577279e+01
-6.913620764493e+01
-5.978996688992e+01
-2.062754338309e+02
-1.209687578917e+02
-1.631606685861e+02
-1.512524345582e+02
-1.753640722513e+02
-4.518657911072e+01
-2.069678577152e+02
-1.906979494542e+02
-1.645582618482e+02
-1.563377027811e+02
-7.598984541815e+01
-6.889790819279e+01
-6.043653174261e+01
-6.107907284422e+01
-8.017654903142e+01
-7.774302567636e+01
-8.393052612986e+01
-7.454515674427e+01
-7.228744098979e+01
-7.599283364475e+01
-6.652592800331e+01
-8.992088962991e+01
-1.345641259087e+02
-1.294931400788e+02
-1.587730895083e+02
-1.491457433345e+02
-1.137608325121e+02
-1.194811409779e+02
-7.212718931068e+01
-6.618618997024e+01
-4.661883066651e+01
-4.234593660412e+01
-1.432969090861e+02
-2.005598497351e+02
-1.225854140929e+02
-1.296224893285e+02
-1.253341848027e+02
-1.993038231551e+02
-9.992004809854e+01
-1.436994072224e+02
-6.814181328256e+01
-1.296824671239e+02
-3.376753351417e+01
-1.273503638125e+02
-2.028642988453e+02
-2.095888924756e+02
-1.884413945917e+02
-5.864436377976e+01
-1.368420491965e+02
-1.337547616606e+02
-6.259838113920e+01
-6.047387382200e+01
-7.016367629409e+01
-5.854750925542e+01
-9.476377546152e+01
-8.782735303791e+01
-1.746124968254e+02
-1.787378071656e+02
-1.678072155871e+02
-1.597360936068e+02
-1.966312345238e+02
-1.918336561212e+02
-7.370854083975e+01
-5.566058983967e+01
-1.261599840818e+02
-6.485737166697e+01
-2.129850848335e+02
-2.066851238037e+02
-6.667740055987e+01
-6.233420996159e+01
-1.199953450559e+02
-5.228517599420e+01
-5.215455847130e+01
-5.221424383200e+01
-2.283179407344e+02
-4.196455667001e+01
-2.153394797785e+02
-7.764899000453e+01
-1.258590672428e+02
-1.439861372344e+02
-8.970436144354e+01
-1.868743060464e+02
-1.136212421750e+02
-1.262093956290e+02
-6.623569927478e+01
-5.942905636232e+01
-7.251598956178e+01
-6.657721331920e+01
-6.125216640286e+01
-1.136110516039e+02
-8.998940038741e+01
-9.704678450624e+01
-6.029687924104e+01
-7.238020406834e+01
-1.413313785893e+02
-1.360534147995e+02
-1.360360360250e+02
-1.391025618113e+02
-1.299781665320e+02
-1.631183793892e+02
-1.524893189237e+02
-1.460943789159e+02
-1.249334386085e+02
-1.319658590630e+02
-1.011655554050e+02
-9.733178195900e+01
-9.870444266276e+01
-1.324381201663e+02
-2.218364566899e+02
-2.162672166458e+02
-2.990912092206e+01
-3.818875055266e+01
-5.241194746397e+01
-5.376087087002e+01
-1.364735683649e+02
-1.329409363363e+02
-1.417451081211e+02
-6.436123640417e+01
-1.592664853844e+02
-2.114041522024e+02
-2.041817166304e+02
-2.199499731977e+02
-1.801219102242e+02
-1.923741593427e+02
-1.875496203290e+02
-6.998853178295e+01
-1.219735844379e+02
-5.934292597291e+01
-7.276218717742e+01
-5.351547200698e+01
-6.021898431986e+01
-4.703494707552e+01
-5.006500103691e+01
-5.798000629048e+01
-6.674903368924e+01
-2.389198553749e+01
-1.370541942831e+02
-2.250401636976e+01
-2.635910500273e+01
-2.191734570601e+02
-2.126048955626e+02
-2.247401970856e+02
-2.180590083080e+02
-2.060191938114e+02
-2.119755161291e+02
-5.279155728089e+01
-2.257413070531e+02
-2.180597790004e+02
-2.317116617473e+02
-4.867870739086e+01
-6.153155966516e+01
-5.248068980676e+01
-4.238013467538e+01
-1.727612529880e+02
-1.620445875589e+02
-1.964035056171e+02
-1.846566746948e+02
-5.368373616900e+01
-5.284375682150e+01
-6.378715202931e+01
-6.212981117339e+01
-7.305796164483e+01
-7.130916651949e+01
-8.240384784512e+01
-1.909308501672e+02
-4.369648332079e+01
-5.240381481448e+01
-2.044589640495e+02
-1.986068272037e+02
-5.669106308430e+01
-4.533265911295e+01
-2.210641102671e+02
-8.485802449435e+01
-1.447885141399e+02
-6.533343715839e+01
-6.272759225138e+01
-8.711648461362e+01
-6.822950583834e+01
-6.233461216841e+01
-5.359859817512e+01
-1.745373617324e+02
-3.500334600618e+01
-5.236692958416e+01
-8.401879388926e+01
-4.496089228055e+01
-1.907654624427e+02
-9.203955336818e+01
-8.681932982172e+01
-5.989175418053e+01
-7.036518419499e+01
-8.921717084896e+01
-7.118185817284e+01
-6.785095129045e+01
-9.886991583797e+01
-5.452313043700e+01
-4.297106420056e+01
-9.303428936067e+01
-1.211584336100e+02
-1.288226094521e+02
-1.401306616686e+02
-1.367581974409e+02
-1.250276363360e+02
-1.331414959646e+02
-1.446154929830e+02
-1.418148065702e+02
-1.551948788117e+02
-1.502134034699e+02
-1.379397025551e+02
-1.460750164139e+02
-1.575721667427e+02
-1.341403320881e+02
-2.092164340558e+02
-9.704232227487e+01
-6.592603887621e+01
-5.622353101782e+01
-8.871912830719e+01
-1.644080492186e+02
-1.573345220897e+02
-8.147848706777e+01
-1.864313263911e+02
-7.718353892991e+01
-7.234314400893e+01
-1.954381135416e+02
-1.170130959205e+02
-1.128318192183e+02
-1.047932010384e+02
-1.525661869371e+02
-7.944303952370e+01
-2.111586003230e+02
-1.445534100307e+02
-1.377110577122e+02
-1.277587275109e+02
-1.294203996164e+02
-2.225051564803e+02
-2.131608536318e+02
-2.153720793153e+02
-2.028392484025e+02
-2.272176137336e+02
-1.736551468503e+02
-1.782381309467e+02
-8.801188256044e+01
-9.339940762032e+01
-1.024002984125e+02
-9.805803267645e+01
-8.954992171390e+01
-9.364436961829e+01
-1.019965528027e+02
-8.910253374975e+01
-1.508385265133e+02
-2.311262805842e+02
-1.593832052359e+02
-1.539282070659e+02
-1.435241152996e+02
-1.242552190539e+02
-1.308875089549e+02
-1.423643352205e+02
-1.173657998846e+02
-1.432971053841e+02
-2.323899328172e+02
-1.503348545631e+02
-1.257429894337e+02
-4.799078775275e+01
-6.053729071340e+01
-6.285901867304e+01
-7.437238868967e+01
-6.010005992740e+01
-1.466096218442e+02
-1.518143766667e+02
-1.455447605198e+02
-1.569690383412e+02
-1.504715145298e+02
-1.397414410451e+02
-1.618733581736e+02
-1.545808982954e+02
-4.571058266551e+01
-4.142897395255e+01
-4.329880761751e+01
-3.430619960341e+01
-4.865393135715e+01
-5.565492303087e+01
-6.067957631625e+01
-6.325207161699e+01
-5.426933859603e+01
-1.922960880219e+01
-2.949427462410e+01
-1.583678811036e+01
-2.599219518443e+01
-4.042323306789e+01
-5.117658667679e+01
-2.351194707238e+02
-1.210515122092e+02
-1.149302440779e+02
-1.026077764624e+02
-1.093229625950e+02
-1.259721424094e+02
-9.553666669678e+01
-9.066320191338e+01
-1.054011272682e+01
-1.828274057034e+01
-1.742251221143e+01
-2.691334850917e+01
-2.699405722236e+01
-1.873606506181e+01
-1.892460925508e+01
-1.071474253454e+01
-1.910266302380e+01
-2.813295163110e+01
-1.063393511976e+01
-9.772442410569e+01
-1.040436656324e+02
-2.336615056915e+02
-4.566269843911e+01
-1.292626674917e+01
-1.389157660365e+02
-1.426368841202e+02
-1.420439685694e+02
-2.157480421564e+02
-2.219618741718e+02
-1.385995206454e+02
-8.118558951598e+01
-1.481579396802e+02
-1.194333531515e+02
-6.608999529377e+01
-8.043777439820e+01
-1.793864201116e+02
-1.646368278246e+02
-2.039920999713e+02
-1.691118753082e+02
-1.928873309763e+02
-2.167161338228e+02
-4.555906066346e+01
-7.814566602307e+01
-7.239048099222e+01
-1.020181323352e+02
-8.419717103109e+01
-1.341558182172e+02
-5.143044002944e+01
-1.835804817150e+02
-8.168181492152e+01
-1.384370240662e+02
-1.121030704371e+02
-8.891038347143e+01
-7.712634414404e+01
-9.973994513696e+01
-1.321294815172e+02
-1.821046733332e+02
-1.079429894679e+02
-1.281233758391e+01
-1.882493325481e+02
-1.541302510920e+02
-8.518214429729e+01
-1.746120268100e+02
-6.273026597037e+01
-1.083013722125e+02
-1.333829657192e+02
-7.380535422096e+01
-3.805464588016e+01
-6.570564261053e+01
-2.130053599276e+02
-1.135773559618e+02
-7.631405028582e+01
-1.333835547026e+02
-9.566304675537e+01
-4.501315315578e+01
-1.247153174080e+02
-1.239223731560e+02
-1.896282904510e+02
-1.543985239048e+02
-8.224997733712e+01
-2.002606773326e+02
-1.245341586533e+02
-1.199602909616e+02
-1.415227228598e+02
-1.084877312075e+02
-1.158550741701e+02
-1.374431487871e+02
-1.793143349077e+02
-7.958719921437e+01
-1.189261529495e+02
-1.187133868599e+02
-1.221153469023e+02
-1.733487540870e+02
-1.943070972944e+02
-7.307962658445e+01
-7.990365712981e+01
-8.662938501857e+01
-1.701388595132e+02
-1.313229846300e+02
-8.511420870435e+01
-1.937503267836e+02
-1.270644545744e+02
-1.372375392257e+02
-5.383951481336e+01
-6.092360348873e+01
-9.171070029178e+01
-1.209714142650e+02
-1.483892000718e+02
-1.455480877406e+02
-1.994868176320e+02
-1.813145030751e+02
-3.907336015851e+01
-5.508084986998e+01
-2.052229553137e+02
-1.395713151647e+02
-1.868053934463e+02
-1.435216415786e+02
-1.874245034245e+02
-4.651003409683e+01
-2.110634370345e+02
-1.796487915941e+02
-8.305598171846e+01
-4.239389973737e+01
-2.252770487470e+02
-1.921329177743e+02
-1.323928111615e+02
-1.355281799983e+02
-3.915260559764e+01
-1.535642696407e+02
-1.215084430656e+02
-1.503696404555e+02
-1.969144502023e+02
-1.004100971890e+02
-1.475456840778e+02
-1.514916338681e+02
-2.735930454960e+01
-5.045190242413e+01
-1.527724753514e+02
-9.697802988963e+01
-1.418821845657e+02
-2.006777674466e+02
-1.579598024412e+02
-1.054310916590e+02
-1.630929976221e+02
-3.558445478959e+01
-1.087487014264e+02
-1.681740288196e+02
-1.329445500212e+02
-2.969049931483e+01
-1.400058646273e+02
-2.090222140084e+02
-1.033643110414e+02
-1.481425039606e+02
-1.210739095993e+02
-3.351583179295e+01
-1.584722326810e+02
-1.446664763119e+02
-1.475377366129e+02
-1.308338627599e+02
-1.693639508619e+02
-4.467859516023e+01
-7.630886604328e+01
-6.376529523005e+01
-1.106541518486e+02
-1.477965335454e+02
-3.662801428248e+01
-1.256876923719e+02
-4.778783444359e+01
-1.068246557823e+02
-1.677456051962e+02
-7.500264229645e+01
-1.116133768604e+02
-6.837872881135e+01
-1.067733082872e+02
-1.407209094067e+02
-1.112392516122e+02
-1.052317831975e+02
-1.307970240871e+02
-1.099786440781e+02
-1.405963872349e+02
-2.359861288269e+02
-5.144252444250e+01
-3.192625551566e+01
-8.287026950445e+01
-4.532083554276e+01
-9.178965566097e+01
-1.305583042601e+02
-5.196643956851e+01
-8.434519224413e+01
-1.623071978188e+02
-2.041228126107e+02
-9.205353539324e+01
-1.939116156468e+02
-1.554802684266e+02
-1.193588936215e+02
-4.210341332855e+01
-2.387265906257e+01
-1.791885809655e+02
-3.256956237417e+01
-4.331622354403e+01
-4.415293625611e+01
-8.692544778688e+01
-4.249941877168e+01
-3.489603171426e+01
-2.101691745820e+02
-5.495884210309e+01
-1.714466476686e+02
-3.595216381467e+01
-1.380195207812e+02
-1.977718637311e+02
-2.360164379460e+02
-1.840326578815e+02
-4.596688983989e+01
-7.006244600481e+01
-1.792506943582e+02
-1.015718265839e+02
-2.374520041029e+02
-5.519257593785e+01
-1.315164380820e+02
-6.788518446930e+01
-1.312750470779e+02
-1.424973447186e+02
-6.703530637796e+01
-7.337624756619e+01
-2.278352884504e+02
-1.542679818105e+02
-4.950725664164e+01
-9.170968348586e+01
-1.094489072291e+02
-6.443248571301e+01
-2.239254578935e+02
-1.536572938754e+02
-2.268248907087e+02
-2.636038993604e+01
-1.967926716013e+01
-2.239015320673e+02
-1.713461138423e+02
-6.837627783233e+01
-1.468267246567e+02
-5.409419478677e+01
-4.141249893278e+01
-1.876025056464e+01
-2.374940689199e+02
-1.346334298589e+02
-1.205102240960e+02
-5.217760975930e+01
-7.787700733783e+01
-1.805611536591e+02
-3.408375230853e+01
-1.344109940754e+02
-2.217174894430e+02
-1.463304250295e+02
-2.198751312631e+02
-7.205609425417e+01
-1.978410296469e+02
-2.073207912524e+02
-4.165708844072e+01
-1.498458583915e+02
-9.763373737621e+01
-3.725486318673e+01
-1.416039544783e+02
-9.330870688715e+00
-4.064922328490e+01
-2.387481727994e+02
-3.432522408864e+01
-6.023989635355e+01
-1.679250419990e+02
-1.465813106396e+02
-1.128186822881e+02
-5.350392710568e+01
-8.258913218079e+01
-8.122458430203e+01
-2.031416904725e+02
-1.426012346542e+02
-7.342893690219e+01
-5.617615813736e+01
-1.629130843026e+02
-1.299260156339e+02
-1.739648393180e+02
-2.036019871387e+02
-5.053438793034e+01
-1.567567985534e+02
-1.816902354982e+01
-2.281481719421e+02
-1.351209454196e+02
-1.893437603241e+01
-1.462626072904e+01
-3.213167460497e+01
-2.569966807229e+01

SCALARS node_materi_stress_size_dev_sd_sig float
LOOKUP_TABLE default
3.886700373161e+00
1.302391777195e+01
1.837052865583e+02
1.082299573770e+02
1.083817558093e+01
2.314246083412e+01
3.379625546231e+01
4.275255635679e+01
4.935941696799e+01
5.703252537302e+01
6.552307887570e+01
7.459174637254e+01
8.414084251309e+01
9.412723926887e+01
1.047212334965e+02
1.149741384220e+02
1.242941424715e+02
1.347672785540e+02
1.453780144078e+02
1.548352571828e+02
1.632507324385e+02
1.714999361653e+02
1.792253191623e+02
1.089818094394e+02
1.086219805454e+02
1.089091290236e+02
1.091827207844e+02
1.091202624940e+02
1.099166935444e+02
1.105981871711e+02
1.114425256491e+02
1.128809204770e+02
1.142336121642e+02
1.153858986065e+02
1.177390522003e+02
1.202626035501e+02
1.228806885970e+02
1.256041726170e+02
1.286472348611e+02
1.321762253764e+02
1.364122958438e+02
1.406604663104e+02
1.448565383614e+02
1.487355055852e+02
1.523743238342e+02
1.559900328781e+02
1.592936110637e+02
1.624244313836e+02
1.653185405321e+02
1.679106497848e+02
1.701603536849e+02
1.721066715165e+02
1.740893076989e+02
1.757588796203e+02
1.769278994713e+02
1.783228271132e+02
1.795948453722e+02
1.807187298024e+02
1.815996089726e+02
1.823559134862e+02
1.828212279192e+02
1.831454291432e+02
1.832998551427e+02
1.835994619536e+02
1.840210692191e+02
1.841900621723e+02
1.833384824802e+02
1.840293012039e+02
1.837301946832e+02
1.839059899328e+02
1.841566399714e+02
1.841196944451e+02
2.064211846933e+01
2.949320052985e+01
3.873701842035e+01
4.819234229678e+01
5.820973461939e+01
6.849576879411e+01
7.910055989721e+01
8.993019826876e+01
1.012317951983e+02
5.071233102466e+01
2.048723769771e+01
5.180413883629e+01
4.788901449812e+01
4.637163374200e+01
4.484272652987e+01
4.327184407174e+01
4.163505548849e+01
4.154488378016e+01
3.746468525976e+01
2.455987240968e+01
1.221203829998e+01
9.650777642734e+00
1.217909252639e+01
1.252443167197e+01
1.254024432627e+01
1.248881142290e+01
1.331539249764e+01
1.261215939020e+01
1.262014161313e+01
1.272085234894e+01
1.294355439480e+01
1.310664014605e+01
1.342895179216e+01
1.398350223699e+01
1.503844702417e+01
1.680006230463e+01
3.814360035864e+01
3.600616577671e+01
3.799877823731e+01
3.739700900579e+01
3.853164412781e+01
2.764858851461e+01
1.177748265353e+01
6.839955747001e+00
5.038567342263e+00
4.729073974142e+00
4.445427131584e+00
4.361796088899e+00
4.535945924073e+00
4.299654562554e+00
4.045724764037e+00
3.960767537888e+00
3.922005396472e+00
3.838415136862e+00
3.880280549596e+00
1.094295886312e+01
1.075416915546e+01
1.080243703138e+01
1.078786752334e+01
1.078153634526e+01
1.071873481878e+01
1.064144365682e+01
1.056857884429e+01
1.053006598042e+01
1.042579308925e+01
1.052240400232e+01
1.076743132609e+01
1.122823610579e+01
1.230314822633e+01
1.373737801265e+01
1.796460321476e+01
2.747471209420e+01
1.829282250778e+01
1.511753032071e+01
1.295483923240e+01
1.174169122175e+01
1.093122833940e+01
1.040065208310e+01
1.009622709834e+01
9.910890269433e+00
9.807401210861e+00
9.709611269063e+00
9.649723624395e+00
9.606433464003e+00
9.547210696241e+00
9.528076745620e+00
9.498685493316e+00
9.534812361896e+00
5.607159401799e+01
4.972844203589e+01
4.686519794842e+01
4.575197891921e+01
4.515155351174e+01
4.301004299625e+01
4.127765915965e+01
4.274292922582e+01
3.086535105994e+01
2.187580687079e+01
4.985996821706e+01
1.769098281921e+02
6.445085806484e+00
4.100714792391e+01
1.806779725019e+02
4.569344724087e+01
9.984455643750e+01
1.703664116915e+02
4.426916618599e+01
1.608960058535e+02
4.185281525562e+01
1.814877266876e+02
7.117447007551e+00
1.463844386785e+02
2.680433497401e+01
6.167952915271e+01
1.280675759541e+02
1.332028483709e+02
1.184593338235e+02
1.045906664689e+02
1.055148473960e+02
1.113051890913e+02
2.166914145073e+01
1.897079769724e+01
1.956552832157e+01
5.317167495668e+01
1.808612619415e+02
3.968913909991e+01
8.404763892507e+00
1.588227404554e+02
1.888137929898e+01
3.836039960153e+01
1.231463988201e+02
1.666168422574e+02
1.541392099071e+02
1.734802763929e+02
1.791457767682e+02
2.316033756764e+01
1.926088618404e+01
1.800467515696e+02
7.356948191836e+01
6.450261967040e+00
7.948834415506e+01
1.056498288029e+02
4.525602734062e+01
4.717955471575e+01
4.396082330793e+01
3.196451902515e+01
5.584135677252e+01
3.473273344676e+01
1.820152015797e+02
8.004277379441e+00
9.495415406656e+01
2.702589223453e+01
3.400364514074e+01
3.406063326829e+01
4.343136042641e+01
4.476135440371e+01
5.344158587693e+01
5.262831546065e+01
6.268980184057e+01
6.230871188748e+01
5.540066483177e+01
7.228400283102e+01
7.215873185576e+01
8.200852103541e+01
8.201295367297e+01
7.272964330749e+01
8.256339708610e+01
7.352651213241e+01
8.327825100295e+01
9.216363261571e+01
9.282740530200e+01
8.400311857177e+01
9.338320750668e+01
8.477638157279e+01
9.385955474194e+01
8.548241479782e+01
9.414738790956e+01
1.027055560465e+02
1.025865242829e+02
9.422926537524e+01
1.022456076152e+02
9.414391575905e+01
1.018355634516e+02
1.098578368256e+02
1.087784645499e+02
1.008513484005e+02
1.073662086588e+02
9.982893555870e+01
1.062538947774e+02
9.900954816108e+01
1.051572532035e+02
1.121868472322e+02
1.107022708689e+02
1.036474561979e+02
1.086235926725e+02
1.155954464730e+02
1.128270434451e+02
1.197736668548e+02
1.163725291070e+02
1.094684292364e+02
1.122727993876e+02
1.193344965141e+02
1.147546881917e+02
1.075856852325e+02
1.097851607452e+02
1.178082423944e+02
1.123584108129e+02
1.045201187138e+02
1.062743052733e+02
1.143088333612e+02
1.079118876275e+02
9.947008142095e+01
1.012710941004e+02
1.102299563836e+02
1.036065571709e+02
1.130280560552e+02
9.441420205420e+01
9.686521710849e+01
8.747821122603e+01
9.012599374435e+01
1.169543111551e+02
8.065402659667e+01
7.825516439260e+01
8.355171767500e+01
9.326534928315e+01
7.405555317276e+01
7.721333088738e+01
6.778046647096e+01
9.217788017845e+01
1.014686875019e+02
7.115150795694e+01
6.185356088700e+01
5.834688305942e+01
5.267318876561e+01
4.749272125358e+01
5.826937625266e+01
5.044616663853e+01
6.181393192049e+01
5.465942636784e+01
5.632554533229e+01
8.282245660072e+01
6.962921911278e+01
7.555104322379e+01
8.615363308568e+01
1.226291846841e+02
8.060669437488e+01
7.470522640642e+01
8.409486832075e+01
1.195865887081e+02
1.228642550153e+02
1.294963425534e+02
1.328798477341e+02
1.392955442369e+02
1.424085085377e+02
1.361122002935e+02
1.453859557846e+02
1.392347819246e+02
1.479335816131e+02
1.449661674176e+02
1.483829831038e+02
1.424354914425e+02
1.513920615753e+02
1.457070038605e+02
1.359868460491e+02
1.394286966531e+02
1.294923605030e+02
1.269263306558e+02
1.301887223626e+02
1.347805031632e+02
1.379021166876e+02
1.423426217898e+02
1.450268530231e+02
1.494595422044e+02
1.465290607707e+02
9.171681306563e+01
1.016558319795e+02
9.657894170954e+01
9.484721533092e+01
8.960422159652e+01
8.815313512160e+01
8.264941530689e+01
8.148836904902e+01
8.606476516413e+01
7.966311152467e+01
8.309972801470e+01
7.715416849828e+01
7.907437364143e+01
1.111368428860e+02
1.404806620843e+02
1.472557860181e+02
1.423572310609e+02
4.886562084008e+01
1.490300953085e+02
1.528794180869e+02
1.499217109148e+02
1.536877644791e+02
4.744672545923e+01
7.581134573593e+01
7.629402855315e+01
6.596508839925e+01
5.919442967552e+01
1.573379438919e+02
5.116844755209e+01
1.536402032325e+02
7.390503892256e+01
1.430047649809e+02
1.523602348951e+02
1.294995389476e+02
1.491841007664e+02
1.439880579570e+02
8.541643255613e+01
8.012478350828e+01
7.372878065078e+01
7.356158764086e+01
8.072762977129e+01
7.344140338689e+01
6.567668788610e+01
6.486365977543e+01
7.344944545925e+01
6.460390906396e+01
5.454940757498e+01
5.481850492111e+01
1.574692448300e+02
7.216706011034e+01
6.369733522639e+01
1.602324497408e+02
1.561568763275e+02
7.061802761090e+01
6.418515780476e+01
5.309075593200e+01
5.837818045007e+01
6.959383290523e+01
6.391314916215e+01
5.309636734228e+01
5.865620203311e+01
4.820201951677e+01
5.377439863181e+01
6.438871930170e+01
5.952702249839e+01
4.923106108443e+01
5.490247005831e+01
4.487031174127e+01
5.038634356461e+01
6.068451801437e+01
4.309324544820e+01
1.506627378438e+02
1.576300023756e+02
7.834266276691e+01
8.724311128235e+01
9.361037616567e+01
9.699834119899e+01
5.601664766016e+01
6.659178786931e+01
6.953674826293e+01
6.945428228099e+01
7.768278268196e+01
1.467157952179e+02
1.367509749123e+02
8.633748441513e+01
7.828620984708e+01
7.857089580158e+01
7.040818695877e+01
7.024956963055e+01
7.072267713040e+01
1.416384366228e+02
7.031949647213e+01
5.474466283984e+01
4.470931237047e+01
1.557329410278e+02
1.430624088948e+02
1.110922747256e+02
1.191325783293e+02
1.190283399626e+02
1.267591419114e+02
1.269351440286e+02
1.344303987936e+02
1.339176968658e+02
1.508434407125e+02
1.413576915961e+02
4.577836999886e+01
1.353337661764e+02
7.386690639379e+01
3.892048808163e+01
4.337510685001e+01
4.622065178686e+01
5.439051190758e+01
1.643608810024e+02
1.349474405672e+02
1.270929837954e+02
6.269561724686e+01
6.255837655630e+01
1.558262318332e+02
4.380769849739e+01
4.284364887644e+01
3.830838340508e+01
3.759138971290e+01
4.386456546530e+01
7.524766373359e+01
7.664723828141e+01
6.962996186098e+01
6.913852633935e+01
6.899020678081e+01
6.158866798200e+01
7.223172310686e+01
1.032786244167e+02
1.068144278917e+02
1.613340032699e+02
4.531421304517e+01
7.743032088856e+01
1.470403752005e+02
1.390087566146e+02
9.059480874335e+01
6.283471268584e+01
6.336306553789e+01
8.186579394423e+01
5.648864059357e+01
4.938995253388e+01
1.680348313571e+02
8.121046375247e+01
1.404645761016e+02
1.332776248622e+02
1.477079965781e+02
3.375395811873e+01
1.673593550776e+02
1.505158373481e+02
1.351294680955e+02
1.274201127349e+02
7.708745265706e+01
7.004437233117e+01
6.254214669946e+01
6.280962628676e+01
5.282096199046e+01
7.760829027487e+01
6.489509411080e+01
5.544148524063e+01
5.717819762999e+01
6.985990038373e+01
6.199828000358e+01
9.066323028179e+01
1.251396711954e+02
1.000141080617e+02
1.260850064917e+02
1.260587575427e+02
7.544408375100e+01
8.158902970263e+01
3.942363623378e+01
3.522024752970e+01
3.897788820986e+01
3.418018257398e+01
1.162376621119e+02
1.630543630281e+02
8.235758716033e+01
8.972706089149e+01
8.525768319181e+01
1.647855215450e+02
9.914079103764e+01
1.310391654211e+02
6.870992560944e+01
1.181435885131e+02
2.885919232480e+01
1.010582096456e+02
1.590886561008e+02
1.637713527917e+02
1.575471677593e+02
3.496960129054e+01
1.249615995724e+02
1.234145770617e+02
4.846827896287e+01
5.061527947659e+01
5.892743109150e+01
5.293036205169e+01
8.295641982655e+01
7.508494857855e+01
1.436165297706e+02
1.487641025046e+02
1.361795016123e+02
1.282416561997e+02
1.623574648597e+02
1.604371047539e+02
5.722277948704e+01
5.551586332639e+01
8.689937309787e+01
4.611200023734e+01
1.699267791894e+02
1.658477946051e+02
6.595138801532e+01
6.244231749977e+01
8.340695796745e+01
5.545079431485e+01
5.509824856059e+01
5.587056395078e+01
1.751973784676e+02
1.875559064005e+01
1.671251596590e+02
6.903203759607e+01
8.880299007244e+01
1.311583084293e+02
8.642127152387e+01
1.581281631734e+02
7.751664061772e+01
8.976612658819e+01
3.319162541567e+01
2.883349013979e+01
3.745747439203e+01
6.919657554827e+01
6.362433643356e+01
7.631793327370e+01
6.884001075260e+01
7.290025211863e+01
4.807391405861e+01
5.879410167494e+01
1.097334957351e+02
1.064710273432e+02
1.101610474949e+02
1.102383183690e+02
1.107593954984e+02
1.428217163757e+02
1.341502095717e+02
1.307619628673e+02
8.682684388151e+01
9.434616552469e+01
9.027340462882e+01
8.908453660329e+01
8.399101291247e+01
9.323509612360e+01
1.715740696142e+02
1.683488884391e+02
2.378373700667e+01
2.937087283814e+01
5.739560185685e+01
5.883004714277e+01
9.737575893903e+01
9.353576811633e+01
1.030635394478e+02
5.193776262698e+01
1.394475417171e+02
1.708207035892e+02
1.676250607329e+02
1.748146710895e+02
1.523454657719e+02
1.589726994953e+02
1.547174604616e+02
6.235384280424e+01
8.583179375381e+01
2.971039003952e+01
5.338204740472e+01
2.586606590706e+01
3.112584462132e+01
2.163854062925e+01
4.481133389895e+01
2.684763379498e+01
3.264952188832e+01
1.684111865398e+01
9.891875374754e+01
1.888666455407e+01
2.375711007931e+01
1.728383427138e+02
1.686153460694e+02
1.754372007871e+02
1.711511009740e+02
1.640650524479e+02
1.670622126449e+02
2.466946329345e+01
1.751527486760e+02
1.701643499675e+02
1.784917908185e+02
4.592835709422e+01
6.271143515604e+01
5.510063598495e+01
4.859598761397e+01
1.388057595398e+02
1.287958261144e+02
1.544833719171e+02
1.450240616739e+02
2.665177028550e+01
2.629237181416e+01
3.448210594233e+01
3.347010669796e+01
4.205535940522e+01
4.080027316799e+01
4.982360488512e+01
1.560129829494e+02
4.992187789164e+01
4.000446395995e+01
1.667864110221e+02
1.642630966741e+02
5.461936702747e+01
4.913190600306e+01
1.747365431863e+02
8.459719434296e+01
1.074728341791e+02
4.914449166115e+01
5.905310615827e+01
8.522032423632e+01
6.073064227386e+01
6.254414082689e+01
5.569731186303e+01
1.508353958009e+02
2.545966245395e+01
5.650268829259e+01
5.077147791676e+01
5.219125486088e+01
1.499386694211e+02
9.151048915347e+01
7.746937255430e+01
6.258903836599e+01
7.088218683233e+01
6.277127136624e+01
4.320995236284e+01
4.422248241902e+01
9.790082609291e+01
5.565531462815e+01
4.882576289658e+01
7.445989566516e+01
8.136513773606e+01
8.985178616228e+01
1.017222970527e+02
9.869493117059e+01
8.695832328091e+01
9.606931256395e+01
1.076470013618e+02
1.056427896175e+02
1.190537148277e+02
1.150594020121e+02
1.035682580421e+02
1.125968169232e+02
1.231036065300e+02
1.020077920184e+02
1.684951411035e+02
9.299504453055e+01
6.577358677714e+01
6.081060243364e+01
7.665897546410e+01
1.289740635132e+02
1.210743293350e+02
8.344686914313e+01
1.501960262516e+02
5.385426486670e+01
7.501735041566e+01
1.576176172229e+02
7.803079956836e+01
7.529867230866e+01
6.646994212955e+01
1.158493810918e+02
4.253709376137e+01
1.686341906343e+02
1.330267487997e+02
1.273931010524e+02
1.195337374296e+02
9.396846929285e+01
1.755723077339e+02
1.716159117029e+02
1.727617220056e+02
1.668591486359e+02
1.780845795206e+02
1.383083395114e+02
1.427966260065e+02
8.133644128857e+01
8.808823659570e+01
9.529261007020e+01
9.389794803492e+01
8.695824697244e+01
9.204196323589e+01
9.865801541095e+01
8.952148148489e+01
1.195827745638e+02
1.799520246864e+02
1.359165048968e+02
1.323062403276e+02
1.229434471386e+02
9.665907662997e+01
1.031324617063e+02
1.130044194653e+02
9.031204511681e+01
1.265237447575e+02
1.804340115493e+02
1.352223440201e+02
9.981218198289e+01
2.022036638027e+01
2.810783300573e+01
3.036842002700e+01
3.841749940086e+01
2.771725628337e+01
1.131433659155e+02
1.167684671388e+02
1.105870778091e+02
1.205692343693e+02
1.142785818985e+02
1.050209564939e+02
1.243345438708e+02
1.175592982750e+02
1.897481352363e+01
3.774298479074e+01
4.157362687954e+01
2.905002715465e+01
4.437321724196e+01
5.362544031110e+01
5.671699475892e+01
6.256600732912e+01
5.291311826970e+01
1.315620407135e+01
2.098829943898e+01
8.502013892085e+00
1.704641443596e+01
3.023041433657e+01
4.054668596350e+01
1.798186756856e+02
8.913514974709e+01
8.476935162367e+01
7.552213853448e+01
8.108397734627e+01
9.333206101272e+01
7.029418557793e+01
6.748407177864e+01
8.464853474361e+00
1.887602256520e+01
1.785578784155e+01
2.898136183228e+01
2.856892806261e+01
1.887087510042e+01
1.868358256771e+01
8.159386747354e+00
1.817369832677e+01
2.831351738781e+01
7.641966897312e+00
6.339265801012e+01
6.912297526038e+01
1.807531096929e+02
1.961393918592e+01
6.119331604696e+00
1.023087983496e+02
1.056057772148e+02
1.051908878343e+02
1.671932467198e+02
1.712468595029e+02
1.023177580948e+02
6.449175875819e+01
1.103522040788e+02
8.243011232725e+01
6.948248494691e+01
6.688618896618e+01
1.406904363270e+02
1.326935382637e+02
1.605691214722e+02
1.330616310024e+02
1.544173155411e+02
1.735501958113e+02
4.241196332324e+01
4.364040482401e+01
4.054407721714e+01
6.540023287163e+01
6.540722448179e+01
1.010026650770e+02
4.355402326671e+01
1.490801092846e+02
6.625244410752e+01
1.167095916731e+02
8.683446012186e+01
7.118729514266e+01
6.535865557861e+01
9.404540212464e+01
1.064161181780e+02
1.507824863360e+02
7.138875724479e+01
7.976661421735e+00
1.557089713212e+02
1.262144464841e+02
4.771962117235e+01
1.518849222169e+02
5.576832740182e+01
6.961719756611e+01
9.409447002436e+01
3.778836242049e+01
3.408629770648e+01
3.398077688204e+01
1.709219717285e+02
7.336252053856e+01
5.981114298525e+01
1.234630150377e+02
8.591769329070e+01
2.854278555964e+01
8.743570968911e+01
1.151803535014e+02
1.602736697399e+02
1.390579299791e+02
6.305279144224e+01
1.613249064059e+02
1.177122139016e+02
8.103876507511e+01
1.188767116426e+02
1.059055127308e+02
7.569041901835e+01
1.204253628486e+02
1.539657585111e+02
6.772047187758e+01
1.024643344202e+02
9.167614030021e+01
1.106454128371e+02
1.346882641393e+02
1.585225537505e+02
7.354106547725e+01
7.873250086241e+01
4.820697779362e+01
1.420260050499e+02
9.271683654427e+01
7.800144052660e+01
1.564833430069e+02
8.741816019746e+01
1.096562841699e+02
4.635042491427e+01
6.401199487166e+01
9.258367193204e+01
1.136302564415e+02
1.195747550521e+02
1.074408128451e+02
1.593496778211e+02
1.542884653279e+02
5.249270416097e+01
3.706275416749e+01
1.623133867754e+02
1.270357329706e+02
1.583235663629e+02
1.078862524888e+02
1.526180842224e+02
4.814949709039e+01
1.655287418899e+02
1.545650290884e+02
8.407098055973e+01
1.895884151107e+01
1.742225875879e+02
1.613573771326e+02
1.189292731811e+02
1.226947909767e+02
3.625518301759e+01
1.228618988040e+02
1.020201010263e+02
1.136114526210e+02
1.638830024077e+02
6.403580089920e+01
1.162588010117e+02
1.369911817851e+02
2.839023334903e+01
4.305672131430e+01
1.195720965199e+02
9.602444517930e+01
1.258623573321e+02
1.640317922266e+02
1.230963240300e+02
1.026813830764e+02
1.267744798976e+02
4.346986142585e+01
7.334145650317e+01
1.305699344370e+02
1.103774525200e+02
2.855059182245e+01
1.259732633249e+02
1.628948217304e+02
8.539056779635e+01
1.288484907706e+02
8.457414203210e+01
4.388647037767e+01
1.379075758476e+02
1.188581476546e+02
1.323583625782e+02
1.214598328957e+02
1.465508848802e+02
4.947776530858e+01
6.139599437453e+01
5.126813593777e+01
1.054343538514e+02
1.190390915903e+02
3.757898772072e+01
9.251195065652e+01
3.673261392473e+01
1.007533591088e+02
1.454070600952e+02
4.392583988097e+01
1.023424103352e+02
5.362989407921e+01
9.657236673507e+01
1.295359406439e+02
9.835180917613e+01
9.143708632313e+01
9.378855959318e+01
9.249960115574e+01
1.040174380423e+02
1.801417754303e+02
2.551417075509e+01
4.422898951870e+01
3.794724707617e+01
5.016419494342e+01
7.636772688274e+01
1.011572037679e+02
2.577228664940e+01
6.877544002530e+01
1.268904927737e+02
1.639586421834e+02
5.831510571150e+01
1.621023293215e+02
1.384006396004e+02
8.351652424840e+01
1.822568350670e+01
1.513076055391e+01
1.396909224988e+02
4.511795586413e+01
4.915718720749e+01
5.095570347850e+01
6.547108464012e+01
3.483001274129e+01
4.628394504791e+01
1.698283249204e+02
2.526165859567e+01
1.464902025748e+02
4.820071243720e+01
9.947733465165e+01
1.613772360576e+02
1.814434891211e+02
1.536900617405e+02
5.421689000649e+01
3.480712157547e+01
1.450738321417e+02
6.633520832243e+01
1.817113915070e+02
2.451743083986e+01
9.500598676943e+01
6.854918468238e+01
9.499765204785e+01
1.110550710634e+02
3.659937659848e+01
3.843287416122e+01
1.750296562263e+02
1.178010120148e+02
5.734156667930e+01
5.755152506301e+01
8.193367889190e+01
5.727230701392e+01
1.757254650594e+02
1.206620594636e+02
1.748730172228e+02
2.876088841472e+01
1.446558226660e+01
1.765039665898e+02
1.365792852970e+02
6.687341899807e+01
1.099411951106e+02
6.092686406852e+01
1.729213117958e+01
1.663159965352e+01
1.814697856431e+02
9.697442967362e+01
8.931167407626e+01
2.408378223182e+01
5.951638221187e+01
1.488908409256e+02
2.393429213036e+01
9.725210992591e+01
1.758657744023e+02
1.083084927235e+02
1.738097632269e+02
5.544631042398e+01
1.608217484715e+02
1.691316480049e+02
1.822001192562e+01
1.124219877050e+02
7.255512826932e+01
3.592832154428e+01
1.051804506448e+02
6.457971794214e+00
1.795653208977e+01
1.818041021529e+02
3.565238834225e+01
3.203477483959e+01
1.328181983036e+02
1.103656564513e+02
7.727990621718e+01
4.698833432260e+01
3.641979459961e+01
4.900281396901e+01
1.648629999924e+02
1.043775281013e+02
4.191791374380e+01
6.034260840100e+01
1.287210624065e+02
9.682185122680e+01
1.418774041922e+02
1.669624809753e+02
5.720208382115e+01
1.193095912384e+02
1.486324339354e+01
1.769721042395e+02
1.008308467803e+02
2.440112445831e+01
1.101991914339e+01
1.871204263953e+01
1.015454718932e+01

SCALARS node_materi_strain_total_average_a_ept float
LOOKUP_TABLE default
5.401896526350e-04
3.639730276714e-03
1.984217543634e-03
5.153697736009e-03
4.913174006383e-04
5.088016544704e-04
4.998614785377e-04
5.210815026240e-04
5.313179702987e-04
5.556076034878e-04
5.918233700993e-04
6.393400986654e-04
7.013044778685e-04
7.756782411281e-04
8.632133352115e-04
9.613309682228e-04
1.065537282956e-03
1.180197789703e-03
1.309416710837e-03
1.443241240399e-03
1.584886712132e-03
1.733898638814e-03
1.879910119885e-03
5.163145778623e-03
5.151391639565e-03
5.146597730005e-03
5.135081555960e-03
5.110532559128e-03
5.097011271009e-03
5.063524533855e-03
5.026012636453e-03
4.984763166129e-03
4.935525604629e-03
4.862480568979e-03
4.794209424990e-03
4.698075269256e-03
4.599312105301e-03
4.477457502546e-03
4.345530273327e-03
4.191769255671e-03
4.024934455962e-03
3.854721622865e-03
3.675429545510e-03
3.484550603881e-03
3.284254412643e-03
3.086378753260e-03
2.889447710091e-03
2.699764751355e-03
2.521134402726e-03
2.346317562116e-03
2.197657940425e-03
2.051792676465e-03
1.932380236557e-03
1.822203171264e-03
1.726965287758e-03
1.649368463500e-03
1.607108347679e-03
1.576175854745e-03
1.556265668489e-03
1.572165078890e-03
1.579548084230e-03
1.613654584664e-03
1.644698205432e-03
1.693221107017e-03
1.751948269713e-03
1.798736722742e-03
1.827990063286e-03
1.889305305288e-03
1.916240683805e-03
1.950423073066e-03
1.976865158638e-03
1.988496053177e-03
3.787151378389e-03
3.932284345619e-03
4.079829671816e-03
4.228592253996e-03
4.382846731800e-03
4.540170095684e-03
4.700225348950e-03
4.867755510366e-03
5.028813355184e-03
-1.452271737409e-03
3.217990280823e-03
-3.945859152677e-04
1.496196900655e-04
5.617068628800e-04
9.502611430793e-04
1.371299182460e-03
1.832230101304e-03
2.258151854747e-03
2.632030394930e-03
3.034864378865e-03
3.405444619409e-03
3.493905953279e-03
3.622057576945e-03
3.629421115553e-03
3.624439023980e-03
3.614419864439e-03
3.623487205619e-03
3.595293150287e-03
3.577192499581e-03
3.560939603846e-03
3.538169044627e-03
3.507023070502e-03
3.471280493678e-03
3.427673496607e-03
3.374356690732e-03
3.312589735936e-03
-2.082134123629e-03
-2.379634154364e-03
-2.465650912527e-03
-2.240163551301e-03
-1.364524467890e-03
-5.294777581402e-04
-1.851656876765e-04
-4.480373261532e-05
2.810453647433e-05
9.959216423960e-05
1.607242568183e-04
2.291949931154e-04
3.037438897282e-04
3.714621390260e-04
4.239417956595e-04
4.695418416396e-04
5.038219899863e-04
5.277434141375e-04
5.504644145396e-04
3.424749492288e-03
3.431665965324e-03
3.427139457174e-03
3.423073408616e-03
3.418678658087e-03
3.413183658945e-03
3.406866881577e-03
3.397957040834e-03
3.386835566171e-03
3.374118332937e-03
3.359392746678e-03
3.338766307957e-03
3.310332420200e-03
3.270869973506e-03
3.226863719377e-03
3.137397490430e-03
2.990749635312e-03
3.157879728556e-03
3.227477148695e-03
3.291462516937e-03
3.336948825888e-03
3.371809989571e-03
3.398657805260e-03
3.420078203910e-03
3.439099582753e-03
3.455040855579e-03
3.466112672949e-03
3.476060913273e-03
3.483106387156e-03
3.489508550363e-03
3.494218205097e-03
3.498419073380e-03
3.496032874126e-03
-7.891204378422e-04
-9.438729647627e-05
3.662272076585e-04
7.521401196365e-04
1.140358480913e-03
1.599199451195e-03
2.057397207772e-03
2.409107693065e-03
2.888693157603e-03
3.133640466164e-03
4.058473657582e-05
1.636873381576e-03
3.636920774027e-05
-1.466118518537e-03
1.579412840062e-03
8.800683225680e-04
8.184385849493e-04
1.980383622834e-03
1.688511085819e-03
2.577243535873e-03
2.475507899353e-03
1.733420267292e-03
3.112039571555e-04
3.317535347802e-03
3.128738411221e-03
5.710622980366e-04
1.099509571096e-03
3.840688973888e-03
4.436210335517e-03
5.006293093770e-03
4.883004549831e-03
4.720941497379e-03
3.406984082264e-03
3.627258379312e-03
3.716321038023e-03
4.306767075139e-03
1.833503762752e-03
-1.823638522463e-03
4.545625233162e-04
1.507212776805e-03
3.745008844504e-03
5.113376204587e-04
4.147683875789e-03
2.263099708833e-03
2.940614383579e-03
1.786206318988e-03
1.564297896328e-03
-2.815175707075e-04
3.535499772706e-03
1.622266670411e-03
4.613996547291e-03
1.726772050382e-04
6.665478829179e-04
5.066044956984e-03
1.272286733664e-03
4.891599791483e-04
2.115597581372e-03
2.863323714069e-03
-6.214158452681e-04
4.017573716137e-03
1.911186810768e-03
4.987380659519e-04
4.942373436653e-03
3.230570055583e-03
3.180728676276e-03
3.325346079995e-03
3.251193595215e-03
3.406091402462e-03
3.342901972140e-03
3.175726613524e-03
3.273986354553e-03
3.094809521345e-03
3.500536341319e-03
3.200104783501e-03
3.010314616224e-03
3.121320161195e-03
2.923797467961e-03
2.815612579847e-03
2.721674529450e-03
2.616784694267e-03
2.516821320731e-03
2.629840324283e-03
2.420217871207e-03
2.310245069383e-03
2.209476054837e-03
2.101513329590e-03
1.998805625947e-03
1.893477484626e-03
1.791634169469e-03
1.903917935699e-03
1.698629804745e-03
1.594497231018e-03
1.505665234486e-03
1.410180059314e-03
1.331131158732e-03
1.428867361517e-03
1.264393351117e-03
1.174934604055e-03
1.114644439233e-03
1.033710311106e-03
9.889963956712e-04
9.270141411604e-04
8.947905601975e-04
9.451302637671e-04
8.559429137804e-04
7.998635714827e-04
7.704580190270e-04
8.130577696708e-04
7.331804860488e-04
7.715505281419e-04
6.887785224302e-04
6.443031833964e-04
6.054505175735e-04
6.587018768520e-04
5.793589870218e-04
5.210702355833e-04
5.099020900016e-04
5.793821339436e-04
5.233203905523e-04
4.512402308102e-04
4.828972126846e-04
5.451519040841e-04
5.115119575384e-04
4.537904484648e-04
4.880327929478e-04
5.495339355893e-04
5.293042626437e-04
6.033753393351e-04
4.714572292041e-04
5.157249250265e-04
4.614455189544e-04
5.069712808966e-04
1.365711377483e-03
4.554715181136e-04
4.104159116589e-04
5.015187830747e-04
5.593446434219e-04
4.523528860794e-04
4.982938426202e-04
4.526917352553e-04
9.584054164969e-04
2.540752983553e-03
4.969053663399e-04
4.550277198903e-04
4.122354096499e-04
4.177541974915e-04
3.544432231609e-03
3.660218641621e-03
3.694248502427e-03
3.817109125691e-03
3.839664662350e-03
4.593458709734e-04
3.315236723910e-03
3.784298857407e-03
2.211869338030e-03
1.503922623318e-03
8.590552927787e-04
5.460810145970e-04
5.418673230917e-04
5.963519834969e-04
6.313355642649e-04
7.016427194884e-04
7.418366985610e-04
8.245692157137e-04
8.781086259672e-04
9.630247341722e-04
9.114398703221e-04
1.048105237295e-03
9.986688731781e-04
1.023305762334e-03
9.450083092195e-04
1.133340241495e-03
1.085194539668e-03
1.219028247317e-03
1.169456792643e-03
1.038854222925e-03
1.120709796086e-03
9.960797732002e-04
8.269156845345e-04
9.450152705871e-04
9.424358361206e-04
1.096806407637e-03
1.097255460785e-03
1.241154696351e-03
1.232296766549e-03
1.101629398188e-03
3.037895997350e-03
6.895588561398e-04
7.083646863462e-04
5.818035128967e-04
5.985234559824e-04
4.492068327189e-04
4.635700713820e-04
2.746950236685e-04
2.800931834262e-04
5.711907002176e-05
1.098029773993e-04
-1.472512326651e-04
-1.973447123660e-05
1.817927793348e-03
1.256423783680e-03
1.388136778377e-03
1.412167073506e-03
3.744157646209e-04
1.251019714042e-03
1.089445830416e-03
1.019737093919e-03
1.235630586216e-03
4.259254130539e-04
2.954059137280e-04
4.840046069953e-04
3.970536813252e-03
3.983160996888e-03
1.159879485367e-03
4.684286170783e-04
1.185305669925e-03
-2.157930491591e-04
1.200093132595e-03
1.331618880602e-03
8.685919917537e-04
1.539027533798e-03
1.570138066914e-03
1.820597777865e-04
1.050775769729e-04
-5.991448942785e-05
6.311295833301e-05
1.871386730249e-04
1.444980385037e-04
4.195691888495e-05
1.436645526689e-04
2.123616752331e-04
2.022406480908e-04
1.274904876173e-04
1.968598310932e-04
1.386161124611e-03
-4.474563922571e-04
2.720736695342e-03
1.224358936027e-03
1.353965053996e-03
4.122382131297e-03
4.124165007732e-03
3.986730080455e-03
4.117663817309e-03
4.263034830887e-03
4.247246778742e-03
4.103508138858e-03
4.224823063466e-03
4.082302054765e-03
4.196047385756e-03
4.345236065233e-03
4.308963699049e-03
4.160858767451e-03
4.267619558883e-03
4.120019371579e-03
4.220854095594e-03
4.373605769090e-03
4.459744055053e-04
1.116681140050e-03
1.247788944794e-03
5.866309380174e-04
6.499337189180e-04
6.673912069144e-04
7.270723111729e-04
4.320185300561e-03
4.478341342553e-03
3.246036295721e-04
5.067473408056e-04
4.112154810988e-03
1.276347857501e-03
1.149272780081e-03
1.324343125326e-03
1.420908370841e-03
1.240393797311e-03
1.336347707264e-03
1.526876170665e-03
1.144688445577e-03
8.689202803146e-04
4.463509556973e-03
3.681165976834e-04
3.273937602516e-04
1.410279318367e-03
9.716387940649e-04
2.029226375728e-03
1.950877950685e-03
2.161784584995e-03
2.084492290501e-03
2.292033771969e-03
2.210513813819e-03
2.014008488286e-03
1.694967776137e-03
2.137608172422e-03
4.166958537111e-03
1.269146726622e-03
2.596836576930e-04
4.010140293993e-04
1.503276527767e-04
4.772936774824e-04
5.022568886620e-04
1.288804464841e-03
2.418045799241e-03
2.501788535702e-03
1.445952272579e-03
1.643208988561e-03
1.654226377556e-03
3.720810955926e-03
3.968051162882e-03
3.947755216101e-03
4.583754153408e-04
7.590982073376e-05
4.399340601364e-03
6.378163414151e-04
6.608838960809e-04
-5.477017788927e-04
-7.762933761792e-04
4.418661476425e-03
4.577940827269e-03
7.508250421815e-04
8.169592231177e-04
1.236097236621e-03
2.123894597863e-04
4.638901532869e-03
1.002892134755e-03
8.466626411712e-04
7.042702535776e-04
3.432101841948e-04
1.173111924151e-04
2.715940236310e-04
2.599815356513e-04
5.071400437906e-04
1.356050964055e-03
4.416829648172e-03
1.949208362243e-03
1.820454723820e-03
2.065475543819e-03
1.645536313915e-04
1.352365606118e-03
1.349471482938e-03
2.623394861013e-03
2.712641165411e-03
7.753678523522e-04
8.038919502020e-04
6.898796297697e-04
8.600530890198e-04
3.006447704442e-03
9.053272291800e-04
2.528428402984e-03
2.643273055309e-03
2.449740311226e-03
1.719148852090e-03
1.842901286917e-03
7.280859020164e-04
9.717434944831e-04
6.845930971672e-04
9.153663099150e-04
6.703299536867e-04
4.501395752901e-03
4.624676641079e-03
4.018316177869e-03
3.976987512172e-03
3.340151242085e-04
2.839188254943e-04
6.720604006391e-04
1.292450014871e-03
4.272560130572e-03
4.264489956638e-03
4.093870621896e-03
1.312451508709e-03
5.683223332818e-04
8.149523627109e-04
-5.982029150438e-04
1.545159336461e-03
2.974333038653e-04
2.751221971033e-03
1.487133210315e-03
1.547907535371e-03
1.801974761355e-03
3.036655458701e-03
1.493798005943e-03
1.317131554403e-03
2.573677473666e-03
2.383250302574e-03
2.252231985616e-03
2.182386456637e-03
3.221434660120e-04
3.156805957295e-04
2.550824756550e-03
2.251759602162e-03
2.839123322511e-03
2.935144177633e-03
1.755961960750e-03
1.620632578698e-03
5.327300416526e-04
1.768573878198e-03
4.559970203027e-03
2.761238485997e-03
1.413910854806e-03
1.369326043362e-03
-9.683126052993e-04
-6.257792796272e-04
4.741793888406e-03
7.498672915676e-04
9.427831891738e-04
5.645302100158e-04
1.805494412471e-03
3.752059588112e-03
1.630320052163e-03
1.919721357926e-03
4.805856817322e-03
1.460044730132e-03
1.156016539273e-03
1.187497951273e-03
4.665071471710e-03
4.846021485629e-03
3.841432233111e-03
3.813246855890e-03
3.851073154268e-03
-1.952396975680e-04
-5.284550868776e-04
4.580212791700e-03
5.389434827533e-04
5.875102405501e-04
2.731766343647e-04
3.184524025355e-04
7.757770877320e-04
7.034973651278e-04
2.667167521993e-03
2.877890432740e-03
2.242986559115e-03
8.934485918282e-04
7.422806989097e-04
7.218183693979e-04
4.662242826499e-03
4.801893889823e-03
3.389421688355e-04
3.039662211763e-04
3.744226454130e-04
4.579330604751e-03
1.689692245442e-03
1.606274015323e-03
2.403012197831e-04
2.362828333944e-04
1.830400948411e-04
-7.181224078815e-05
4.246501924303e-03
4.064684071210e-03
4.431704571135e-03
5.334207738621e-04
1.773627528950e-03
1.418657938242e-03
1.399867060865e-03
1.480981290571e-03
1.849531908963e-03
1.939466458239e-03
2.166920961451e-03
-1.200486173714e-03
4.801537010412e-03
3.874894631589e-03
-1.427507734902e-03
3.834687822948e-03
3.928661025880e-03
3.777207068052e-03
5.143877688158e-04
3.714709367371e-03
3.732330285355e-03
1.664350663749e-04
4.733244725775e-03
2.605949562311e-04
3.245418758321e-04
1.500446954232e-03
1.451707657925e-03
1.573527098139e-03
1.526640534710e-03
1.400724108496e-03
1.487833372465e-03
3.774825988592e-03
1.633993947146e-03
1.579580430484e-03
1.732068724229e-03
2.326052157212e-03
1.043852258496e-03
1.144513185353e-03
1.045202530445e-03
3.088077681513e-03
3.147218127563e-03
1.425847242359e-03
1.291996466740e-03
3.867094938108e-03
3.872376722797e-03
3.999539705653e-03
3.992651267286e-03
4.123184585025e-03
4.110794987801e-03
4.247160180732e-03
2.377588513466e-03
6.268909787138e-04
2.710050880794e-03
1.710111810538e-03
1.582982476756e-03
1.977874948368e-03
1.920808392983e-03
1.488474215201e-03
8.736270905858e-04
4.771013345492e-03
-1.452373935906e-03
-1.046820419944e-03
9.990792026742e-04
2.046663813865e-03
1.243552723644e-03
1.356386703110e-03
1.048236558864e-03
1.844748089604e-04
3.742817618939e-04
4.251497753962e-03
2.149533944615e-04
1.369492772286e-03
8.490621998594e-04
1.801032674005e-03
5.230970118390e-04
9.606841418276e-04
2.910591442896e-03
3.098507466606e-03
2.934070399556e-03
8.255799153648e-04
1.568658798644e-03
1.477623681614e-03
2.417134690379e-03
3.919815932461e-03
3.882634803040e-03
4.024021369662e-03
3.832442195985e-03
3.695046501883e-03
3.638785583555e-03
3.785493540198e-03
3.577647172728e-03
3.750184086467e-03
3.501298175446e-03
3.367234048750e-03
3.288983751981e-03
3.403766998439e-03
3.158966340769e-03
1.826916748394e-03
1.087096732569e-03
-9.112666475374e-04
-6.407278354225e-04
2.005594578097e-03
3.999359333706e-03
4.309377361487e-03
6.160042667904e-04
3.127826985272e-03
2.827256531198e-03
5.812665449269e-05
2.757069524566e-03
3.743823547992e-03
3.564756919686e-03
3.616400331871e-03
4.543408322795e-03
3.857273445047e-03
2.128072200401e-03
1.099942099889e-03
1.118205231332e-03
1.013605549251e-03
3.439829767474e-03
1.695354777619e-03
1.598449322654e-03
1.546332215380e-03
1.483715149044e-03
1.593670518862e-03
3.683864046813e-03
3.511184540819e-03
2.309699066877e-04
2.841957239700e-04
3.652439893400e-04
3.573792040573e-04
2.471505280693e-04
3.367705773819e-04
4.516029059485e-04
3.070698310405e-04
3.011887838311e-03
1.562457219319e-03
7.966617184321e-04
7.238083511144e-04
6.181687448188e-04
6.195507647786e-04
6.333566902178e-04
7.249770297857e-04
6.076900821225e-04
1.881464824155e-03
1.564200662305e-03
8.211111621480e-04
5.695810390709e-04
3.476553814770e-03
3.522627253168e-03
3.434353139924e-03
3.573062495900e-03
3.605590729190e-03
8.477660564224e-04
9.172894760601e-04
8.794933640332e-04
9.834424786404e-04
9.372079182524e-04
8.456198039901e-04
1.044613574645e-03
9.825704213956e-04
3.580461240068e-03
-7.680673540420e-04
-3.744715971380e-04
-1.007979835839e-04
-1.294423519017e-04
-3.748906122165e-04
-1.104858770279e-04
-2.694318415492e-04
-7.800410634517e-04
-1.148883407871e-04
-8.282298174419e-06
-2.930530073794e-05
5.405200432207e-05
9.882193271473e-05
2.820008749499e-04
1.846649371321e-03
7.339251229033e-04
6.918521647107e-04
6.343619732983e-04
6.494236354216e-04
7.614250994918e-04
6.125365146075e-04
5.902391927417e-04
4.823949980872e-04
4.872650042801e-04
5.022293205740e-04
4.986064661029e-04
4.869489087083e-04
4.679440196576e-04
4.354203377239e-04
4.170752291005e-04
3.969821237977e-04
4.277226887103e-04
3.685206694408e-04
4.461395909212e-03
4.547354210125e-03
1.602041269264e-03
3.669908988740e-03
1.005992736412e-04
5.000557868969e-03
4.942518645458e-03
4.983876207468e-03
1.653881139117e-03
1.719947131343e-03
5.035609746253e-03
4.091377096177e-04
3.968863659390e-03
4.694295365338e-03
1.040165037012e-04
3.146415836098e-04
1.220078611152e-03
9.546067512288e-04
1.467780796441e-03
1.074152435800e-03
1.303556120667e-03
1.502566075374e-03
4.917035231267e-04
4.053540832071e-03
4.073521723103e-03
4.421041683911e-03
4.970954021345e-04
7.901794555404e-04
3.845921016976e-04
2.746068789639e-03
2.329547922188e-03
5.785740661860e-04
5.520260076685e-04
4.082717565683e-04
2.571944653526e-04
1.243418124639e-03
5.836738271110e-04
1.103568163501e-03
4.531547729516e-03
2.432214619016e-04
1.162014467342e-03
7.828270485984e-04
3.981210852423e-03
1.367797930828e-03
3.478586865381e-05
4.374802055714e-03
4.427443383936e-03
3.735354921659e-03
3.548143930708e-04
3.914379929985e-03
1.401700061019e-03
3.949908000546e-03
4.981643789478e-04
7.404794495416e-04
1.693233581845e-03
3.015254370872e-03
4.742086713980e-03
1.205493492713e-03
1.359449633549e-03
9.527766392591e-04
5.351390680471e-04
1.319579612435e-03
9.005503598251e-04
4.531499283795e-03
2.373559578352e-03
6.704952810722e-04
4.272032614579e-03
5.913681167554e-04
1.509219268983e-03
2.125873751715e-03
2.115557363438e-03
2.836348114446e-03
1.615874391482e-03
1.164351517102e-03
1.238793770179e-03
-2.858990036692e-04
1.061783717638e-03
3.855722948469e-03
2.325277482833e-03
4.693872645548e-03
1.606990770277e-03
1.268210524107e-03
4.427619862367e-03
6.501242455776e-04
5.221592434783e-04
-1.540996149763e-04
4.466613120763e-04
1.061292000449e-03
7.505405308479e-04
4.223657706837e-03
1.352579960407e-03
1.100940845909e-03
-2.442034725435e-04
2.884801722849e-03
1.438373461027e-03
7.257799672728e-04
1.481680312974e-03
8.892739059485e-04
2.571897163896e-03
2.134720819324e-03
1.526377729485e-03
1.148481320301e-03
7.498629144148e-04
3.752585269146e-03
1.688196393562e-03
1.275788108848e-03
1.743756024267e-03
6.495417839416e-04
2.694081248705e-03
8.330793818945e-04
2.328867091930e-03
4.643302223015e-03
1.359438705673e-03
3.446455586764e-03
8.025906613232e-04
1.435334883746e-03
4.644889948496e-04
2.522963330768e-03
8.802726321072e-04
4.503161168420e-04
6.496182946431e-04
1.896794950978e-03
9.560757975646e-04
5.581600051432e-04
1.028911770490e-03
2.315771564644e-03
3.383975024082e-03
1.099222321650e-03
2.455659548557e-03
3.885473826699e-04
1.682358424744e-03
1.568658542151e-03
4.184486501580e-04
6.705950891375e-04
3.506153490737e-03
1.904339677752e-03
7.966495005376e-04
2.584363605669e-03
1.637329722331e-03
1.155406598616e-03
9.548219706023e-04
1.713501678378e-03
3.653946664168e-04
3.239440387370e-04
5.458049342895e-04
2.798819698515e-03
5.003717689854e-04
3.238517274464e-03
2.317439738605e-04
4.484994052041e-04
1.735497241625e-03
4.160303558450e-03
4.394364091538e-04
5.402354721200e-04
3.754489059191e-04
1.284115914436e-03
4.115020738091e-04
3.886619920890e-04
4.854698252827e-03
4.323206252274e-04
5.068539325366e-03
1.891034938697e-03
3.866937105524e-03
1.492210635134e-03
-1.897074364319e-03
1.252579652114e-03
3.651086152031e-04
2.955617532489e-03
3.870035466960e-03
3.628473968404e-04
3.614377857331e-03
2.412749464593e-03
4.383501541783e-03
1.458037457724e-03
1.604245013347e-03
4.770027627056e-03
3.707774517869e-03
1.029299851184e-04
1.237756632563e-03
1.057158498275e-03
8.221212046274e-04
4.261556833123e-04
5.658260320261e-04
2.595287238387e-05
6.859012757027e-04
1.647802572094e-03
3.731782241982e-03
1.897671978668e-03
2.824727769811e-04
4.581473584323e-03
2.117092312229e-03
1.689608577704e-03
2.005877391086e-03
-1.836419882492e-05
3.629743194735e-03
2.918220221709e-03
4.495936285029e-03
1.765997581041e-03
3.633915746753e-03
4.916723493409e-03
-2.926052697662e-04
4.938235473323e-03
3.082508315072e-03
4.023745215199e-03
3.458036334743e-03
1.779244923260e-03
3.930957552778e-03
-3.833684909125e-04
4.363441419994e-03
6.332092208460e-04
-1.141135857776e-03
1.524901471105e-03
3.211457437524e-03
1.732178516629e-03
5.079454081860e-04
2.010555286339e-04
1.507981212472e-03
3.308880348563e-03
-5.975601255711e-05
4.877620864429e-03
-8.824421781742e-04
3.658947609595e-03
3.476846767273e-04
1.821065818347e-03
4.799025411232e-03
7.168398061285e-04
3.328382430038e-03
5.575753027030e-04
2.408160424549e-03
1.243155537178e-04
4.876179333356e-03
1.512375895151e-03
4.368971451479e-03
1.904504718425e-03
-1.377042032276e-03
2.271336783256e-03
1.458608106642e-03
3.725283742111e-03
4.139581899643e-03
6.053805435923e-04
4.291918163002e-04
5.097090033271e-03
5.180352091923e-04
3.737761821605e-03
1.935372387255e-03
4.820545591868e-04
3.972428648709e-03
3.480657141156e-03
9.172671425119e-04
4.674754261909e-03
-1.143764267799e-05
-1.937302042971e-03
4.239807810937e-03
2.009390011507e-03
4.559013978803e-03
4.112555937656e-03
-3.354734533052e-04
3.311249348268e-03
7.691218437549e-04
2.742682947051e-03
1.552488723433e-03
-1.050877642340e-03
1.005956158057e-03
2.986401552696e-04
1.628984917136e-03
8.160304977583e-04
3.079394223155e-03
3.426884389896e-03
3.185905949008e-03
3.561089574359e-03

SCALARS node_materi_strain_total_size_dev_sd_ept float
LOOKUP_TABLE default
2.631651983073e-03
1.124267584303e-02
4.960751301775e-03
1.279125176953e-02
1.963499493466e-03
1.123528784053e-03
6.171411796987e-04
1.089674536138e-03
1.760751071497e-03
2.311923580315e-03
2.747070509105e-03
3.072350475707e-03
3.308606134393e-03
3.488867520589e-03
3.633702189407e-03
3.771702176619e-03
3.902369761604e-03
4.036303424146e-03
4.199349173152e-03
4.371219422547e-03
4.551822794608e-03
4.731626720931e-03
4.890473867911e-03
1.277264767964e-02
1.276100261376e-02
1.276293639319e-02
1.275195887122e-02
1.274879223924e-02
1.274098829734e-02
1.272836817264e-02
1.270032789995e-02
1.267824295853e-02
1.263482529684e-02
1.260547242314e-02
1.255261754464e-02
1.248647904445e-02
1.239592969600e-02
1.230243150289e-02
1.215713051732e-02
1.200353594158e-02
1.181561304499e-02
1.159011274577e-02
1.132805656473e-02
1.100853842380e-02
1.065503141539e-02
1.024595104503e-02
9.790708910988e-03
9.304485902904e-03
8.783992105451e-03
8.227272349473e-03
7.641971330581e-03
7.043333912323e-03
6.487449616909e-03
5.897045116396e-03
5.315207858225e-03
4.774653915045e-03
4.368382547111e-03
4.035777915913e-03
3.827898966926e-03
3.728546630283e-03
3.724022709416e-03
3.786839564058e-03
3.916748751606e-03
4.084845803437e-03
4.274867986217e-03
4.423582186639e-03
4.528561299993e-03
4.690169994139e-03
4.772409315353e-03
4.851078683109e-03
4.915118623865e-03
4.946389455075e-03
1.156637175109e-02
1.186430408988e-02
1.211991532622e-02
1.233087411615e-02
1.250509919302e-02
1.263866508182e-02
1.273052653706e-02
1.278088127403e-02
1.280976859949e-02
4.680386197539e-03
1.177776421555e-02
5.758510211409e-03
5.692208489027e-03
6.122860492176e-03
6.592047578369e-03
7.267042392534e-03
8.209322639999e-03
9.500208617889e-03
1.118539639369e-02
1.144148949845e-02
1.067031073035e-02
1.088105991547e-02
1.119665749992e-02
1.122523004881e-02
1.123853150528e-02
1.124927615173e-02
1.131422991308e-02
1.129819846923e-02
1.132370588612e-02
1.135421344020e-02
1.140818545252e-02
1.145134474976e-02
1.149588001003e-02
1.154730645129e-02
1.159870391797e-02
1.166429672349e-02
3.204958228945e-03
3.041676202605e-03
3.248627924820e-03
3.198701632611e-03
3.346572786721e-03
2.534432101657e-03
1.050434975961e-03
5.197109542939e-04
2.887710011924e-04
2.676932200554e-04
5.292075875863e-04
9.138476603729e-04
1.336234153188e-03
1.708705010154e-03
1.975450518036e-03
2.209400031831e-03
2.392528061887e-03
2.556431073020e-03
2.670445304031e-03
1.071117394076e-02
1.068854021851e-02
1.069177835106e-02
1.069774766515e-02
1.070295938630e-02
1.070953678061e-02
1.071463561229e-02
1.072113266869e-02
1.072439803094e-02
1.072949382943e-02
1.072985921688e-02
1.073421400820e-02
1.074899391087e-02
1.076349665733e-02
1.078191221060e-02
1.090174597057e-02
1.132738602670e-02
1.122767505533e-02
1.120135720598e-02
1.113048677594e-02
1.108405721738e-02
1.104952646857e-02
1.102133510969e-02
1.099580378187e-02
1.097149046623e-02
1.095005066827e-02
1.093163052224e-02
1.091591887150e-02
1.090250369979e-02
1.089312296507e-02
1.088385683577e-02
1.088337793449e-02
1.089177814141e-02
6.388550452177e-03
5.487330964783e-03
5.892396691783e-03
6.350960078208e-03
6.982040315828e-03
7.758391644943e-03
8.802530913737e-03
1.040561157211e-02
1.150734819090e-02
1.165179591233e-02
5.595192991281e-03
4.129847973161e-03
7.452755649736e-04
3.308018861600e-03
3.393036037871e-03
6.415737523524e-03
3.553462991266e-03
6.316922567193e-03
7.932258086168e-03
8.725364404020e-03
1.061023698143e-02
4.179052652211e-03
1.185638725038e-03
1.067296368466e-02
1.184928473414e-02
2.558787167330e-03
3.909858046410e-03
1.166032949974e-02
1.241721770996e-02
1.278986820574e-02
1.277069709459e-02
1.266011743398e-02
1.196907673151e-02
1.178223553273e-02
1.167801073687e-02
1.242813772569e-02
4.623993919401e-03
2.986799554397e-03
1.841141664605e-03
4.431318303783e-03
1.154519764352e-02
7.847641110692e-04
1.210656719150e-02
7.618623229635e-03
9.787236583524e-03
5.178978657286e-03
3.508429237264e-03
2.670756928172e-03
1.187211963996e-02
3.655387267550e-03
1.269088123232e-02
5.590223512004e-04
3.190890214511e-03
1.279418686304e-02
7.055564749372e-03
5.962819379305e-03
9.134956967853e-03
1.136666233178e-02
6.022870744008e-03
1.201953995745e-02
4.851287237077e-03
2.123099143293e-03
1.278931994602e-02
1.202300813566e-02
1.197899320463e-02
1.214854111375e-02
1.202304777320e-02
1.221269695240e-02
1.203102855435e-02
1.179218477042e-02
1.177232892252e-02
1.146150850752e-02
1.224212893312e-02
1.143733583877e-02
1.106112421612e-02
1.104499966793e-02
1.061657549671e-02
1.062123962276e-02
1.014119240685e-02
1.010611483046e-02
9.603329507404e-03
9.640956855441e-03
9.086972036839e-03
9.012817359100e-03
8.503183924922e-03
8.416813246020e-03
7.919048248843e-03
7.831190221456e-03
7.361036595896e-03
7.442835438117e-03
6.925167735558e-03
6.855893356142e-03
6.464907042430e-03
6.416085783521e-03
6.091695834274e-03
6.116729843452e-03
5.854592972950e-03
5.925208257991e-03
5.837978928788e-03
5.983084734968e-03
5.953142605602e-03
6.068110533330e-03
6.052411520964e-03
5.882645454863e-03
5.981885869185e-03
6.122205935292e-03
6.023169081163e-03
5.833108784316e-03
5.839765032062e-03
5.573311988575e-03
5.544508445222e-03
5.778611195815e-03
5.435644632346e-03
5.062375036824e-03
4.910166578782e-03
5.289964637186e-03
4.711622411546e-03
4.236239808464e-03
4.084315948258e-03
4.506771631775e-03
3.984713086139e-03
3.674079844678e-03
3.652599688066e-03
3.931282620059e-03
3.633892673544e-03
3.322795888719e-03
3.334409182192e-03
3.035887957952e-03
3.597615632646e-03
3.334268239316e-03
3.526285488831e-03
3.304984925810e-03
5.822527278345e-03
3.403686595833e-03
3.622310456207e-03
3.235539568887e-03
3.158011122929e-03
3.231655999979e-03
3.122832144620e-03
3.015648825664e-03
6.053811060417e-03
9.127872268030e-03
2.962447609953e-03
2.750082273606e-03
2.810852360742e-03
2.433193158041e-03
1.236885705014e-02
1.241101009736e-02
1.249796680082e-02
1.256152449836e-02
1.261670255893e-02
2.435608237823e-03
1.142826678910e-02
1.244292284636e-02
8.934261968493e-03
6.796244019862e-03
5.501615201705e-03
3.080783143626e-03
2.974545883127e-03
3.103404467949e-03
2.971557853078e-03
2.725020143122e-03
2.592842028639e-03
2.412443044655e-03
2.194118852218e-03
2.144430900414e-03
2.402907968483e-03
2.300080022385e-03
2.551749852527e-03
1.875725869625e-03
1.958070848845e-03
2.592592804624e-03
2.809282309831e-03
2.948385972972e-03
3.123915096427e-03
3.016484523463e-03
3.290286367984e-03
3.197012580465e-03
5.102937657532e-03
4.943845281613e-03
4.358552793879e-03
4.216335362657e-03
3.621657396282e-03
3.674157891454e-03
3.160472895570e-03
3.062501904033e-03
1.061947234670e-02
6.169655135298e-03
6.192315342556e-03
6.213348563965e-03
6.179500496353e-03
6.169832230817e-03
6.134490912321e-03
6.087791075124e-03
6.092424073747e-03
5.947743905539e-03
5.978516356829e-03
5.756504017911e-03
5.914138578868e-03
6.986790013400e-03
4.207796344075e-03
3.893202960226e-03
4.378203831618e-03
2.478846954588e-03
3.454676590990e-03
1.638064164375e-03
1.740319533996e-03
2.661966071557e-03
2.010987866901e-03
6.045900342882e-03
6.054621762787e-03
1.267819653199e-02
1.271149605091e-02
1.493776165368e-03
2.066978963860e-03
2.379664518169e-03
5.668140864123e-03
3.573116100453e-03
3.763662698162e-03
2.636220324827e-03
4.278485741913e-03
4.713970260509e-03
5.941873024555e-03
5.888738107763e-03
5.930997476815e-03
5.747408928057e-03
5.662062163823e-03
5.447602539422e-03
5.516351043472e-03
5.138072911961e-03
5.071855120803e-03
4.640099215324e-03
4.473562696294e-03
4.037710152551e-03
3.678724588300e-03
5.454381575487e-03
1.059306651564e-02
1.686909662676e-03
2.974224583868e-03
1.276751354998e-02
1.278218244152e-02
1.268787426082e-02
1.275109552350e-02
1.282728860070e-02
1.279607990400e-02
1.268375855566e-02
1.273441603979e-02
1.258758601738e-02
1.264716802309e-02
1.277207941310e-02
1.269342629073e-02
1.253865167095e-02
1.259827134134e-02
1.241634414418e-02
1.248967655692e-02
1.264683340533e-02
1.562272397562e-03
2.518407090701e-03
2.206778755566e-03
3.033857122134e-03
3.176395825677e-03
3.185545335539e-03
3.289282638691e-03
1.255266091080e-02
1.268616740066e-02
5.997305364467e-03
5.944002192755e-03
1.270423481736e-02
3.837311735734e-03
3.674737118282e-03
6.375697171237e-03
6.739076788304e-03
6.332602125966e-03
6.657341484704e-03
7.138396600125e-03
6.246702672450e-03
2.288208751847e-03
1.279441274065e-02
2.920454764315e-03
2.561820259717e-03
4.036486104289e-03
3.100269868300e-03
7.503103420652e-03
7.005549940528e-03
7.545864444423e-03
7.049689138164e-03
7.662779109736e-03
7.208796398876e-03
6.583126052066e-03
4.809684805489e-03
6.796679460937e-03
1.237056722929e-02
4.740953521600e-03
4.578210456028e-03
1.497292163420e-03
3.685191530987e-03
1.649142451658e-03
2.183447893635e-03
1.691867286314e-03
7.898898086536e-03
8.314892260600e-03
7.039193233999e-03
7.565769419549e-03
4.421010152371e-03
1.251051708575e-02
1.251596456714e-02
1.237990610685e-02
1.032106012192e-03
4.153675159765e-03
1.285377636744e-02
6.007500482666e-03
5.906544421433e-03
5.276156789677e-03
5.016909948072e-03
1.260760010091e-02
1.271857011629e-02
3.242225234972e-03
3.374135481891e-03
1.517688421269e-03
3.418590267052e-03
1.277116832001e-02
2.523749610737e-03
3.222966187761e-03
3.298887016836e-03
5.846796817343e-03
5.882525221004e-03
4.901202231222e-03
3.728422730537e-03
1.811417141362e-03
1.883182282344e-03
1.285094220041e-02
6.147418083620e-03
6.038888079978e-03
6.411349025141e-03
2.965343528263e-03
2.087230019573e-03
4.071300904809e-03
8.604941868102e-03
8.973132482760e-03
5.971722454599e-03
5.910248099960e-03
5.849325675905e-03
5.952948119051e-03
1.147464428721e-02
5.973457588534e-03
1.004367060035e-02
1.053955654723e-02
9.976567093518e-03
7.663130259121e-03
8.147310295947e-03
6.140710869847e-03
5.348471845356e-03
3.143302265247e-03
2.989574433587e-03
2.911901164792e-03
1.284225758551e-02
1.284347978527e-02
1.233084485925e-02
1.218291492302e-02
2.019255428325e-03
2.078006463503e-03
2.849579586701e-03
2.079713667955e-03
1.277815269261e-02
1.269528525968e-02
1.259948980886e-02
1.750744813874e-03
6.162794447068e-03
4.500370943152e-03
5.542569514288e-03
6.132883264034e-03
1.508760415701e-03
9.672139174136e-03
4.271990854854e-03
4.263305440277e-03
5.095858443613e-03
1.172029493412e-02
5.747697403958e-03
5.539312287323e-03
1.047385003714e-02
9.913956946848e-03
9.385492098297e-03
9.319438814699e-03
4.383271377326e-03
4.136784775056e-03
8.315898080630e-03
7.171373303153e-03
9.286693811462e-03
9.630223155998e-03
4.772143896504e-03
4.057739336189e-03
2.323900867554e-03
8.024364372614e-03
1.286332678193e-02
1.099333678010e-02
2.561916188839e-03
2.560031728134e-03
4.850071887962e-03
5.705691142525e-03
1.278537483207e-02
5.918224714012e-03
6.123615865547e-03
5.784492312493e-03
4.792438220283e-03
1.150616079570e-02
4.481467400045e-03
8.247778863767e-03
1.281581378462e-02
5.325763563271e-03
6.096964839614e-03
1.639524552138e-03
1.274073130580e-02
1.279412280067e-02
1.228331484502e-02
1.211293846272e-02
1.242232725554e-02
5.812417123730e-03
5.453200468389e-03
1.280693834697e-02
2.817475415550e-03
2.945101454958e-03
3.234248333651e-03
3.508717679901e-03
3.148102224520e-03
3.058256203646e-03
9.200629822209e-03
9.774637416505e-03
8.056006348348e-03
2.638090200396e-03
3.311811611370e-03
3.868868806939e-03
1.285152777813e-02
1.283074533893e-02
4.630791445895e-03
5.137768948385e-03
4.019852848090e-03
1.283346969769e-02
4.494027249676e-03
4.250315435250e-03
1.507840121056e-03
2.135364484660e-03
5.793071868852e-03
5.849771959188e-03
1.256280928504e-02
1.245561103315e-02
1.264090133705e-02
1.941217306582e-03
5.603173870489e-03
2.248577348717e-03
2.188079809678e-03
2.606469507210e-03
5.427950214780e-03
5.806050735536e-03
6.849422345319e-03
4.209163213418e-03
1.277272717714e-02
1.205491051760e-02
3.630037164241e-03
1.188288346939e-02
1.202326681800e-02
1.169577882346e-02
1.343578273235e-03
1.212939407096e-02
1.232584909242e-02
1.310892333930e-03
1.280655818941e-02
1.012360177266e-03
1.064362473846e-03
3.048203031900e-03
3.039034352305e-03
3.499605471668e-03
3.470310268408e-03
3.094634256060e-03
3.524336482952e-03
1.192458389088e-02
3.919630223218e-03
3.918268276992e-03
4.296911744030e-03
9.893845410735e-03
6.180562762472e-03
6.443886267732e-03
6.449537725192e-03
1.001928586425e-02
1.021641349779e-02
4.268697239617e-03
4.087124926977e-03
1.184538942297e-02
1.180356917428e-02
1.206285896684e-02
1.201062585753e-02
1.223938015923e-02
1.218731111430e-02
1.239187547601e-02
7.765638660842e-03
5.924949499709e-03
1.095578360210e-02
4.471608579058e-03
3.714731712750e-03
8.659288735899e-03
8.530551757421e-03
2.777201241164e-03
6.033143383594e-03
1.272719878933e-02
3.993286014836e-03
4.490597017554e-03
6.025747245639e-03
8.772003571567e-03
6.548870892560e-03
6.931119407970e-03
1.999863664064e-03
2.220477692454e-03
5.730956339451e-03
1.243779192188e-02
5.716083744568e-03
4.249937146179e-03
6.094640260947e-03
7.747912733362e-03
5.810769722449e-03
6.002278754161e-03
1.107286918064e-02
1.178787334371e-02
1.143668554164e-02
6.139732383075e-03
7.450457797664e-03
7.310626844455e-03
9.529409653952e-03
1.245525889888e-02
1.227385203533e-02
1.226477833816e-02
1.205753604211e-02
1.204254627533e-02
1.178339334727e-02
1.182371776800e-02
1.150249118161e-02
1.162764213322e-02
1.120041543705e-02
1.110038769642e-02
1.076414808972e-02
1.090659913355e-02
1.066709740411e-02
5.320160712522e-03
5.998704622127e-03
4.599281074028e-03
5.734230293098e-03
8.333425833694e-03
1.189397177429e-02
1.230557899613e-02
6.105950969076e-03
1.025358042671e-02
1.104833232608e-02
5.949571870735e-03
9.276664326814e-03
1.226878269778e-02
1.203577796195e-02
1.225751706496e-02
1.252943895991e-02
1.253516808246e-02
7.044784224412e-03
4.784532932489e-03
5.216499200351e-03
5.592679949750e-03
1.144096511148e-02
4.612028651999e-03
3.684212501108e-03
3.261279282446e-03
2.918608009437e-03
3.750699880358e-03
1.138488412569e-02
1.106906063919e-02
5.335139692668e-03
5.519206868542e-03
5.347715876944e-03
5.693786383100e-03
5.801572020471e-03
5.924182788738e-03
5.871127254810e-03
6.048512816839e-03
9.956499110293e-03
3.370637513959e-03
2.452993708479e-03
2.860904033911e-03
3.311230815389e-03
3.106740739221e-03
3.048012238866e-03
2.937329856090e-03
3.127060386393e-03
6.510988532921e-03
3.335480453295e-03
3.833834062069e-03
3.139110545567e-03
1.193874573477e-02
1.219804766752e-02
1.223127194623e-02
1.238642726340e-02
1.220158109648e-02
3.287482713272e-03
3.449570536030e-03
3.515405636734e-03
3.616948299563e-03
3.650775410424e-03
3.542587775150e-03
3.778216352658e-03
3.762248789111e-03
1.183292144248e-02
3.572683983284e-03
4.577856157776e-03
3.525434774453e-03
4.778067186164e-03
5.378567653989e-03
5.310371780515e-03
5.927138579628e-03
4.984161174919e-03
1.593874766561e-03
2.519441272948e-03
1.054332637323e-03
1.900241651682e-03
3.095807665798e-03
2.680867438052e-03
4.718049590433e-03
3.391038528989e-03
3.284434392220e-03
3.073377921807e-03
3.159604470192e-03
3.444937546829e-03
2.923017846815e-03
2.794737773350e-03
1.982954510571e-03
1.299124249185e-03
1.444531568394e-03
7.369164753960e-04
7.634285738763e-04
1.232881848427e-03
1.124048840383e-03
1.647702366067e-03
1.010893201921e-03
8.375059941184e-04
1.435860571663e-03
1.258185978619e-02
1.265015011064e-02
3.513896683943e-03
1.175964695161e-02
5.676756616081e-04
1.279832725982e-02
1.278280873900e-02
1.278674916506e-02
4.622098613142e-03
4.667933091580e-03
1.279454501240e-02
3.134268487554e-03
1.209316054101e-02
1.281027628302e-02
6.011898086652e-03
3.858793257233e-03
3.897110972933e-03
2.784758433291e-03
3.993675351852e-03
3.432891521728e-03
3.321874245736e-03
2.847396523212e-03
1.212399603239e-03
1.246587880671e-02
1.228500436062e-02
1.272869916335e-02
2.755874730896e-03
3.419192932568e-03
1.988507640528e-03
9.034606786361e-03
9.460293276523e-03
3.311204318024e-03
3.141032925026e-03
3.405771669390e-03
4.178256212295e-03
6.089131928057e-03
3.094701779129e-03
2.043662164084e-03
1.275402163429e-02
8.312522524526e-04
1.822646407263e-03
2.610192186047e-03
1.261898199539e-02
3.417095633381e-03
4.973534643922e-03
1.282541185567e-02
1.274179606438e-02
1.244396997593e-02
1.475126580775e-03
1.222658498131e-02
2.225023189096e-03
1.259304438364e-02
2.496709324722e-03
5.141953511560e-03
7.283922101329e-03
1.164020668969e-02
1.282706447408e-02
5.680975698679e-03
2.585871852211e-03
3.705340501217e-03
2.606113237525e-03
2.647460297642e-03
5.744198167284e-03
1.286510563999e-02
8.135813744278e-03
6.030295033789e-03
1.282333835342e-02
3.721075874239e-03
3.847721752455e-03
8.855683653064e-03
8.002459043392e-03
1.014716268172e-02
6.518670402618e-03
3.927816982466e-03
2.195230053615e-03
5.767016523941e-03
6.069580564052e-03
1.260372676748e-02
7.490110852608e-03
1.285520128249e-02
7.214048080346e-03
2.783973876505e-03
1.281490684970e-02
2.959133927472e-03
1.494163483603e-03
5.884504554130e-03
6.154147690427e-03
5.742571256261e-03
2.786507257511e-03
1.240816451792e-02
3.197849544957e-03
1.610726948515e-03
5.554866548907e-03
1.137963675412e-02
3.593423478679e-03
4.514931949345e-03
3.440535297109e-03
3.649576964815e-03
8.464750242531e-03
9.227699883313e-03
3.956390955847e-03
2.018458543332e-03
6.057327412716e-03
1.152878626457e-02
4.300227060106e-03
1.872937139289e-03
6.532034871432e-03
4.393663784056e-03
1.104684355037e-02
2.841654208710e-03
8.568880475423e-03
1.260101158672e-02
2.275334308039e-03
1.203747503229e-02
3.012738114639e-03
4.863391679132e-03
7.767615492426e-04
1.045661317828e-02
3.157904460012e-03
6.073091878544e-03
3.796481995368e-03
5.573153395669e-03
3.343082483617e-03
5.980917997618e-03
3.544196210197e-03
9.879691802365e-03
1.176292915431e-02
3.747998108238e-03
8.621088019205e-03
1.000703716253e-03
6.073416682649e-03
4.466618808053e-03
3.772025028577e-03
3.327576126696e-03
1.176154990088e-02
8.477984551597e-03
2.773432055969e-03
8.746355489617e-03
5.619340250927e-03
5.497964849395e-03
2.113700673154e-03
7.930264956834e-03
3.306674441198e-03
3.063835317165e-03
5.687042550973e-03
9.368047022935e-03
7.959421853411e-04
1.105558244707e-02
2.799263701345e-03
5.543813421967e-03
5.201710967914e-03
1.224873560272e-02
5.110337361902e-03
2.080689194215e-03
4.886372247323e-03
5.197384635629e-03
4.319454039737e-03
4.157250584073e-03
1.281661264320e-02
3.870203211208e-03
1.279877323305e-02
4.860853109292e-03
1.174428314681e-02
7.514535140970e-03
2.731791511748e-03
6.792350571643e-03
3.857874095581e-03
1.019077322758e-02
1.176755784796e-02
3.628567942615e-03
1.129777175231e-02
8.195770541903e-03
1.252345361544e-02
3.098061420325e-03
5.167217635294e-03
1.275922217280e-02
1.158160829258e-02
1.524371967551e-03
4.080977725942e-03
6.712997702795e-03
6.113601932653e-03
5.798304488751e-03
2.704538977724e-03
3.881773196944e-03
6.151237198947e-03
4.118915986530e-03
1.202845273394e-02
5.766673548384e-03
5.786296259158e-03
1.275764193809e-02
6.692192048311e-03
3.987925425601e-03
6.102901066668e-03
5.767740477629e-03
1.237548576781e-02
9.552436289706e-03
1.265069408915e-02
4.336199129653e-03
1.209146095402e-02
1.280009829553e-02
6.036698716968e-03
1.279165136754e-02
1.030012822341e-02
1.215287623762e-02
1.229962186007e-02
4.681783473849e-03
1.192139213476e-02
5.875214667536e-03
1.253737760962e-02
3.137401474291e-03
4.405030996385e-03
3.097159507227e-03
1.045666471690e-02
4.486359268086e-03
7.648864611052e-04
9.046189679789e-04
2.833100357682e-03
1.060455374850e-02
5.835866124232e-03
1.272991825014e-02
5.400512878040e-03
1.161646813443e-02
9.532577665184e-04
4.541721132439e-03
1.282272940887e-02
3.355412991561e-03
1.199823975028e-02
2.425121170918e-03
7.815376718968e-03
2.396869312656e-03
1.281668139344e-02
2.866764639162e-03
1.252363422114e-02
5.973226474159e-03
3.792414524142e-03
7.414970775878e-03
2.644233333451e-03
1.154031501480e-02
1.222924259403e-02
2.965707007538e-03
1.121297764114e-03
1.279521472494e-02
2.332432283994e-03
1.146695911626e-02
4.926413199790e-03
7.911374991810e-04
1.195747552263e-02
1.099512269936e-02
3.704462969551e-03
1.272175923622e-02
4.659503759757e-03
2.733223162069e-03
1.236498477364e-02
6.261556242556e-03
1.269745318129e-02
1.226573376285e-02
5.854572682890e-03
1.064278709933e-02
3.442224650705e-03
8.989204580545e-03
3.453927876844e-03
5.619209017920e-03
3.814083751926e-03
9.029314234784e-04
3.800680589748e-03
3.537156153375e-03
1.131506561971e-02
1.072855704535e-02
1.155130121140e-02
1.104945361927e-02


CELL_DATA 1996

SCALARS element_number int
LOOKUP_TABLE default
407
408
409
410
411
412
413
414
415
416
417
418
419
420
421
422
423
424
425
426
427
428
429
430
431
432
433
434
435
436
437
438
439
440
441
442
443
444
445
446
447
448
449
450
451
452
453
454
455
456
457
458
459
460
461
462
463
464
465
466
467
468
469
470
471
472
473
474
475
476
477
478
479
480
481
482
483
484
485
486
487
488
489
490
491
492
493
494
495
496
497
498
499
500
501
502
503
504
505
506
507
508
509
510
511
512
513
514
515
516
517
518
519
520
521
522
523
524
525
526
527
528
529
530
531
532
533
534
535
536
537
538
539
540
541
542
543
544
545
546
547
548
549
550
551
552
553
554
555
556
557
558
559
560
561
562
563
564
565
566
567
568
569
570
571
572
573
574
575
576
577
578
579
580
581
582
583
584
585
586
587
588
589
590
591
592
593
594
595
596
597
598
599
600
601
602
603
604
605
606
607
608
609
610
611
612
613
614
615
616
617
618
619
620
621
622
623
624
625
626
627
628
629
630
631
632
633
634
635
636
637
638
639
640
641
642
643
644
645
646
647
648
649
650
651
652
653
654
655
656
657
658
659
660
661
662
663
664
665
666
667
668
669
670
671
672
673
674
675
676
677
678
679
680
681
682
683
684
685
686
687
688
689
690
691
692
693
694
695
696
697
698
699
700
701
702
703
704
705
706
707
708
709
710
711
712
713
714
715
716
717
718
719
720
721
722
723
724
725
726
727
728
729
730
731
732
733
734
735
736
737
738
739
740
741
742
743
744
745
746
747
748
749
750
751
752
753
754
755
756
757
758
759
760
761
762
763
764
765
766
767
768
769
770
771
772
773
774
775
776
777
778
779
780
781
782
783
784
785
786
787
788
789
790
791
792
793
794
795
796
797
798
799
800
801
802
803
804
805
806
807
808
809
810
811
812
813
814
815
816
817
818
819
820
821
822
823
824
825
826
827
828
829
830
831
832
833
834
835
836
837
838
839
840
841
842
843
844
845
846
847
848
849
850
851
852
853
854
855
856
857
858
859
860
861
862
863
864
865
866
867
868
869
870
871
872
873
874
875
876
877
878
879
880
881
882
883
884
885
886
887
888
889
890
891
892
893
894
895
896
897
898
899
900
901
902
903
904
905
906
907
908
909
910
911
912
913
914
915
916
917
918
919
920
921
922
923
924
925
926
927
928
929
930
931
932
933
934
935
936
937
938
939
940
941
942
943
944
945
946
947
948
949
950
951
952
953
954
955
956
957
958
959
960
961
962
963
964
965
966
967
968
969
970
971
972
973
974
975
976
977
978
979
980
981
982
983
984
985
986
987
988
989
990
991
992
993
994
995
996
997
998
999
1000
1001
1002
1003
1004
1005
1006
1007
1008
1009
1010
1011
1012
1013
1014
1015
1016
1017
1018
1019
1020
1021
1022
1023
1024
1025
1026
1027
1028
1029
1030
1031
1032
1033
1034
1035
1036
1037
1038
1039
1040
1041
1042
1043
1044
1045
1046
1047
1048
1049
1050
1051
1052
1053
1054
1055
1056
1057
1058
1059
1060
1061
1062
1063
1064
1065
1066
1067
1068
1069
1070
1071
1072
1073
1074
1075
1076
1077
1078
1079
1080
1081
1082
1083
1084
1085
1086
1087
1088
1089
1090
1091
1092
1093
1094
1095
1096
1097
1098
1099
1100
1101
1102
1103
1104
1105
1106
1107
1108
1109
1110
1111
1112
1113
1114
1115
1116
1117
1118
1119
1120
1121
1122
1123
1124
1125
1126
1127
1128
1129
1130
1131
1132
1133
1134
1135
1136
1137
1138
1139
1140
1141
1142
1143
1144
1145
1146
1147
1148
1149
1150
1151
1152
1153
1154
1155
1156
1157
1158
1159
1160
1161
1162
1163
1164
1165
1166
1167
1168
1169
1170
1171
1172
1173
1174
1175
1176
1177
1178
1179
1180
1181
1182
1183
1184
1185
1186
1187
1188
1189
1190
1191
1192
1193
1194
1195
1196
1197
1198
1199
1200
1201
1202
1203
1204
1205
1206
1207
1208
1209
1210
1211
1212
1213
1214
1215
1216
1217
1218
1219
1220
1221
1222
1223
1224
1225
1226
1227
1228
1229
1230
1231
1232
1233
1234
1235
1236
1237
1238
1239
1240
1241
1242
1243
1244
1245
1246
1247
1248
1249
1250
1251
1252
1253
1254
1255
1256
1257
1258
1259
1260
1261
1262
1263
1264
1265
1266
1267
1268
1269
1270
1271
1272
1273
1274
1275
1276
1277
1278
1279
1280
1281
1282
1283
1284
1285
1286
1287
1288
1289
1290
1291
1292
1293
1294
1295
1296
1297
1298
1299
1300
1301
1302
1303
1304
1305
1306
1307
1308
1309
1310
1311
1312
1313
1314
1315
1316
1317
1318
1319
1320
1321
1322
1323
1324
1325
1326
1327
1328
1329
1330
1331
1332
1333
1334
1335
1336
1337
1338
1339
1340
1341
1342
1343
1344
1345
1346
1347
1348
1349
1350
1351
1352
1353
1354
1355
1356
1357
1358
1359
1360
1361
1362
1363
1364
1365
1366
1367
1368
1369
1370
1371
1372
1373
1374
1375
1376
1377
1378
1379
1380
1381
1382
1383
1384
1385
1386
1387
1388
1389
1390
1391
1392
1393
1394
1395
1396
1397
1398
1399
1400
1401
1402
1403
1404
1405
1406
1407
1408
1409
1410
1411
1412
1413
1414
1415
1416
1417
1418
1419
1420
1421
1422
1423
1424
1425
1426
1427
1428
1429
1430
1431
1432
1433
1434
1435
1436
1437
1438
1439
1440
1441
1442
1443
1444
1445
1446
1447
1448
1449
1450
1451
1452
1453
1454
1455
1456
1457
1458
1459
1460
1461
1462
1463
1464
1465
1466
1467
1468
1469
1470
1471
1472
1473
1474
1475
1476
1477
1478
1479
1480
1481
1482
1483
1484
1485
1486
1487
1488
1489
1490
1491
1492
1493
1494
1495
1496
1497
1498
1499
1500
1501
1502
1503
1504
1505
1506
1507
1508
1509
1510
1511
1512
1513
1514
1515
1516
1517
1518
1519
1520
1521
1522
1523
1524
1525
1526
1527
1528
1529
1530
1531
1532
1533
1534
1535
1536
1537
1538
1539
1540
1541
1542
1543
1544
1545
1546
1547
1548
1549
1550
1551
1552
1553
1554
1555
1556
1557
1558
1559
1560
1561
1562
1563
1564
1565
1566
1567
1568
1569
1570
1571
1572
1573
1574
1575
1576
1577
1578
1579
1580
1581
1582
1583
1584
1585
1586
1587
1588
1589
1590
1591
1592
1593
1594
1595
1596
1597
1598
1599
1600
1601
1602
1603
1604
1605
1606
1607
1608
1609
1610
1611
1612
1613
1614
1615
1616
1617
1618
1619
1620
1621
1622
1623
1624
1625
1626
1627
1628
1629
1630
1631
1632
1633
1634
1635
1636
1637
1638
1639
1640
1641
1642
1643
1644
1645
1646
1647
1648
1649
1650
1651
1652
1653
1654
1655
1656
1657
1658
1659
1660
1661
1662
1663
1664
1665
1666
1667
1668
1669
1670
1671
1672
1673
1674
1675
1676
1677
1678
1679
1680
1681
1682
1683
1684
1685
1686
1687
1688
1689
1690
1691
1692
1693
1694
1695
1696
1697
1698
1699
1700
1701
1702
1703
1704
1705
1706
1707
1708
1709
1710
1711
1712
1713
1714
1715
1716
1717
1718
1719
1720
1721
1722
1723
1724
1725
1726
1727
1728
1729
1730
1731
1732
1733
1734
1735
1736
1737
1738
1739
1740
1741
1742
1743
1744
1745
1746
1747
1748
1749
1750
1751
1752
1753
1754
1755
1756
1757
1758
1759
1760
1761
1762
1763
1764
1765
1766
1767
1768
1769
1770
1771
1772
1773
1774
1775
1776
1777
1778
1779
1780
1781
1782
1783
1784
1785
1786
1787
1788
1789
1790
1791
1792
1793
1794
1795
1796
1797
1798
1799
1800
1801
1802
1803
1804
1805
1806
1807
1808
1809
1810
1811
1812
1813
1814
1815
1816
1817
1818
1819
1820
1821
1822
1823
1824
1825
1826
1827
1828
1829
1830
1831
1832
1833
1834
1835
1836
1837
1838
1839
1840
1841
1842
1843
1844
1845
1846
1847
1848
1849
1850
1851
1852
1853
1854
1855
1856
1857
1858
1859
1860
1861
1862
1863
1864
1865
1866
1867
1868
1869
1870
1871
1872
1873
1874
1875
1876
1877
1878
1879
1880
1881
1882
1883
1884
1885
1886
1887
1888
1889
1890
1891
1892
1893
1894
1895
1896
1897
1898
1899
1900
1901
1902
1903
1904
1905
1906
1907
1908
1909
1910
1911
1912
1913
1914
1915
1916
1917
1918
1919
1920
1921
1922
1923
1924
1925
1926
1927
1928
1929
1930
1931
1932
1933
1934
1935
1936
1937
1938
1939
1940
1941
1942
1943
1944
1945
1946
1947
1948
1949
1950
1951
1952
1953
1954
1955
1956
1957
1958
1959
1960
1961
1962
1963
1964
1965
1966
1967
1968
1969
1970
1971
1972
1973
1974
1975
1976
1977
1978
1979
1980
1981
1982
1983
1984
1985
1986
1987
1988
1989
1990
1991
1992
1993
1994
1995
1996
1997
1998
1999
2000
2001
2002
2003
2004
2005
2006
2007
2008
2009
2010
2011
2012
2013
2014
2015
2016
2017
2018
2019
2020
2021
2022
2023
2024
2025
2026
2027
2028
2029
2030
2031
2032
2033
2034
2035
2036
2037
2038
2039
2040
2041
2042
2043
2044
2045
2046
2047
2048
2049
2050
2051
2052
2053
2054
2055
2056
2057
2058
2059
2060
2061
2062
2063
2064
2065
2066
2067
2068
2069
2070
2071
2072
2073
2074
2075
2076
2077
2078
2079
2080
2081
2082
2083
2084
2085
2086
2087
2088
2089
2090
2091
2092
2093
2094
2095
2096
2097
2098
2099
2100
2101
2102
2103
2104
2105
2106
2107
2108
2109
2110
2111
2112
2113
2114
2115
2116
2117
2118
2119
2120
2121
2122
2123
2124
2125
2126
2127
2128
2129
2130
2131
2132
2133
2134
2135
2136
2137
2138
2139
2140
2141
2142
2143
2144
2145
2146
2147
2148
2149
2150
2151
2152
2153
2154
2155
2156
2157
2158
2159
2160
2161
2162
2163
2164
2165
2166
2167
2168
2169
2170
2171
2172
2173
2174
2175
2176
2177
2178
2179
2180
2181
2182
2183
2184
2185
2186
2187
2188
2189
2190
2191
2192
2193
2194
2195
2196
2197
2198
2199
2200
2201
2202
2203
2204
2205
2206
2207
2208
2209
2210
2211
2212
2213
2214
2215
2216
2217
2218
2219
2220
2221
2222
2223
2224
2225
2226
2227
2228
2229
2230
2231
2232
2233
2234
2235
2236
2237
2238
2239
2240
2241
2242
2243
2244
2245
2246
2247
2248
2249
2250
2251
2252
2253
2254
2255
2256
2257
2258
2259
2260
2261
2262
2263
2264
2265
2266
2267
2268
2269
2270
2271
2272
2273
2274
2275
2276
2277
2278
2279
2280
2281
2282
2283
2284
2285
2286
2287
2288
2289
2290
2291
2292
2293
2294
2295
2296
2297
2298
2299
2300
2301
2302
2303
2304
2305
2306
2307
2308
2309
2310
2311
2312
2313
2314
2315
2316
2317
2318
2319
2320
2321
2322
2323
2324
2325
2754
2755
2756
2757
2758
2759
2760
2761
2762
2763
2764
2765
2766
2767
2768
2769
2770
2771
2772
2773
2774
2775
2776
2777
2778
2779
2780
2781
2782
2783
2784
2785
2786
2787
2788
2789
2790
2791
2792
2793
2794
2795
2796
2797
2798
2799
2800
2801
2802
2803
2804
2805
2806
2807
2808
2809
2810
2811
2812
2813
2814
2815
2816
2817
2818
2819
2820
2821
2822
2823
2824
2825
2826
2827
2828
2829
2830

SCALARS element_group int
LOOKUP_TABLE default
0
0
0
0
0
0
0
0
0
0
0
0
0
0
0
0
0
0
0
0
0
0
0
0
0
0
0
0
0
0
0
0
0
0
0
0
0
0
0
0
0
0
0
0
0
0
0
0
0
0
0
0
0
0
0
0
0
0
0
0
0
0
0
0
0
0
0
0
0
0
0
0
0
0
0
0
0
0
0
0
0
0
0
0
0
0
0
0
0
0
0
0
0
0
0
0
0
0
0
0
0
0
0
0
0
0
0
0
0
0
0
0
0
0
0
0
0
0
0
0
0
0
0
0
0
0
0
0
0
0
0
0
0
0
0
0
0
0
0
0
0
0
0
0
0
0
0
0
0
0
0
0
0
0
0
0
0
0
0
0
0
0
0
0
0
0
0
0
0
0
0
0
0
0
0
0
0
0
0
0
0
0
0
0
0
0
0
0
0
0
0
0
0
0
0
0
0
0
0
0
0
0
0
0
0
0
0
0
0
0
0
0
0
0
0
0
0
0
0
0
0
0
0
0
0
0
0
0
0
0
0
0
0
0
0
0
0
0
0
0
0
0
0
0
0
0
0
0
0
0
0
0
0
0
0
0
0
0
0
0
0
0
0
0
0
0
0
0
0
0
0
0
0
0
0
0
0
0
0
0
0
0
0
0
0
0
0
0
0
0
0
0
0
0
0
0
0
0
0
0
0
0
0
0
0
0
0
0
0
0
0
0
0
0
0
0
0
0
0
0
0
0
0
0
0
0
0
0
0
0
0
0
0
0
0
0
0
0
0
0
0
0
0
0
0
0
0
0
0
0
0
0
0
0
0
0
0
0
0
0
0
0
0
0
0
0
0
0
0
0
0
0
0
0
0
0
0
0
0
0
0
0
0
0
0
0
0
0
0
0
0
0
0
0
0
0
0
0
0
0
0
0
0
0
0
0
0
0
0
0
0
0
0
0
0
0
0
0
0
0
0
0
0
0
0
0
0
0
0
0
0
0
0
0
0
0
0
0
0
0
0
0
0
0
0
0
0
0
0
0
0
0
0
0
0
0
0
0
0
0
0
0
0
0
0
0
0
0
0
0
0
0
0
0
0
0
0
0
0
0
0
0
0
0
0
0
0
0
0
0
0
0
0
0
0
0
0
0
0
0
0
0
0
0
0
0
0
0
0
0
0
0
0
0
0
0
0
0
0
0
0
0
0
0
0
0
0
0
0
0
0
0
0
0
0
0
0
0
0
0
0
0
0
0
0
0
0
0
0
0
0
0
0
0
0
0
0
0
0
0
0
0
0
0
0
0
0
0
0
0
0
0
0
0
0
0
0
0
0
0
0
0
0
0
0
0
0
0
0
0
0
0
0
0
0
0
0
0
0
0
0
0
0
0
0
0
0
0
0
0
0
0
0
0
0
0
0
0
0
0
0
0
0
0
0
0
0
0
0
0
0
0
0
0
0
0
0
0
0
0
0
0
0
0
0
0
0
0
0
0
0
0
0
0
0
0
0
0
0
0
0
0
0
0
0
0
0
0
0
0
0
0
0
0
0
0
0
0
0
0
0
0
0
0
0
0
0
0
0
0
0
0
0
0
0
0
0
0
0
0
0
0
0
0
0
0
0
0
0
0
0
0
0
0
0
0
0
0
0
0
0
0
0
0
0
0
0
0
0
0
0
0
0
0
0
0
0
0
0
0
0
0
0
0
0
0
0
0
0
0
0
0
0
0
0
0
0
0
0
0
0
0
0
0
0
0
0
0
0
0
0
0
0
0
0
0
0
0
0
0
0
0
0
0
0
0
0
0
0
0
0
0
0
0
0
0
0
0
0
0
0
0
0
0
0
0
0
0
0
0
0
0
0
0
0
0
0
0
0
0
0
0
0
0
0
0
0
0
0
0
0
0
0
0
0
0
0
0
0
0
0
0
0
0
0
0
0
0
0
0
0
0
0
0
0
0
0
0
0
0
0
0
0
0
0
0
0
0
0
0
0
0
0
0
0
0
0
0
0
0
0
0
0
0
0
0
0
0
0
0
0
0
0
0
0
0
0
0
0
0
0
0
0
0
0
0
0
0
0
0
0
0
0
0
0
0
0
0
0
0
0
0
0
0
0
0
0
0
0
0
0
0
0
0
0
0
0
0
0
0
0
0
0
0
0
0
0
0
0
0
0
0
0
0
0
0
0
0
0
0
0
0
0
0
0
0
0
0
0
0
0
0
0
0
0
0
0
0
0
0
0
0
0
0
0
0
0
0
0
0
0
0
0
0
0
0
0
0
0
0
0
0
0
0
0
0
0
0
0
0
0
0
0
0
0
0
0
0
0
0
0
0
0
0
0
0
0
0
0
0
0
0
0
0
0
0
0
0
0
0
0
0
0
0
0
0
0
0
0
0
0
0
0
0
0
0
0
0
0
0
0
0
0
0
0
0
0
0
0
0
0
0
0
0
0
0
0
0
0
0
0
0
0
0
0
0
0
0
0
0
0
0
0
0
0
0
0
0
0
0
0
0
0
0
0
0
0
0
0
0
0
0
0
0
0
0
0
0
0
0
0
0
0
0
0
0
0
0
0
0
0
0
0
0
0
0
0
0
0
0
0
0
0
0
0
0
0
0
0
0
0
0
0
0
0
0
0
0
0
0
0
0
0
0
0
0
0
0
0
0
0
0
0
0
0
0
0
0
0
0
0
0
0
0
0
0
0
0
0
0
0
0
0
0
0
0
0
0
0
0
0
0
0
0
0
0
0
0
0
0
0
0
0
0
0
0
0
0
0
0
0
0
0
0
0
0
0
0
0
0
0
0
0
0
0
0
0
0
0
0
0
0
0
0
0
0
0
0
0
0
0
0
0
0
0
0
0
0
0
0
0
0
0
0
0
0
0
0
0
0
0
0
0
0
0
0
0
0
0
0
0
0
0
0
0
0
0
0
0
0
0
0
0
0
0
0
0
0
0
0
0
0
0
0
0
0
0
0
0
0
0
0
0
0
0
0
0
0
0
0
0
0
0
0
0
0
0
0
0
0
0
0
0
0
0
0
0
0
0
0
0
0
0
0
0
0
0
0
0
0
0
0
0
0
0
0
0
0
0
0
0
0
0
0
0
0
0
0
0
0
0
0
0
0
0
0
0
0
0
0
0
0
0
0
0
0
0
0
0
0
0
0
0
0
0
0
0
0
0
0
0
0
0
0
0
0
0
0
0
0
0
0
0
0
0
0
0
0
0
0
0
0
0
0
0
0
0
0
0
0
0
0
0
0
0
0
0
0
0
0
0
0
0
0
0
0
0
0
0
0
0
0
0
0
0
0
0
0
0
0
0
0
0
0
0
0
0
0
0
0
0
0
0
0
0
0
0
0
0
0
0
0
0
0
0
0
0
0
0
0
0
0
0
0
0
0
0
0
0
0
0
0
0
0
0
0
0
0
0
0
0
0
0
0
0
0
0
0
0
0
0
0
0
0
0
0
0
0
0
0
0
0
0
0
0
0
0
0
0
0
0
0
0
0
0
0
0
0
0
0
0
0
0
0
0
0
0
0
0
0
0
0
0
0
0
0
0
0
0
0
0
0
0
0
0
0
0
0
0
0
0
0
0
0
0
0
0
0
0
0
0
0
0
0
0
0
0
0
0
0
0
0
0
0
0
0
0
0
0
0
0
0
0
0
0
0
0
0
0
0
0
0
0
0
0
0
0
0
0
0
0
0
0
0
0
0
0
0
0
0
0
0
0
0
0
0
0
0
0
0
0
0
0
0
0
0
0
0
0
0
0
0
0
0
0
0
0
0
0
0
0
0
0
0
0
0
0
0
0
0
0
0
0
0
0
0
0
0
0
0
0
0
0
0
0
0
0
0
0
0
0
0
0
0
0
0
0
0
0
0
0
0
0
0
0
0
0
0
0
0
0
0
0
0
0
0
0
0
0
0
0
0
0
0
0
0
0
0
0
0
0
0
0
0
0
0
0
0
0
0
0
0
0
0
0
0
0
0
0
0
0
0
0
0
0
0
0
0
0
0
0
0
0
0
0
0
0
0
0
0
0
0
0
0
0
0
0
0
0
0
0
0
0
0
0
0
0
0
0
0
0
0
0
0
0
0
0
0
0
0
0
0
0
0
0
0
0
0
0
0
0
0
0
0
0
0
0
0
0
0
0
0
0
0
0
0
0
0
0
0
0
0
0
0
0
0
0
0
0
0
0
0
0
0
0
0
0
0
0
0
0
0
0
0
0
0
0
0
0
0
0
0
0
0
0
0
0
0
0
0
0
0
0
0
0
0
0
0
0
0
0
0
0
0
0
0
0
0
0
0
0
0
0
0
0
0
0
0
0
0
0
0
0
0
0
0
0
0
0
0
0
0
0
0
0
0
0
0
0
0
0
0
0
0
0
0
0
0
0
0
0
0
0
0
0
0
0
0
0
0
0
0
0
0
0
0
0
0
0
0
0
0
0
0
0
0
0
0
0
0
0
0
0
0
0
0
0
0
0
0
0
0
0
0
0
0
0
0
0
0
0
0
0
0
0
0


VECTORS element_materi_velocity float
9.041391140707e-04 1.313958196918e-03 0.0 
9.440558328003e-04 1.129084857188e-03 0.0 
8.411594436222e-04 6.304072257081e-04 0.0 
1.279664532879e-04 1.496193302102e-03 0.0 
9.756309838832e-04 8.418972170652e-03 0.0 
3.789177012770e-04 -1.357377368347e-04 0.0 
7.384964804310e-04 8.383544304619e-03 0.0 
8.123691186014e-04 9.370510624109e-04 0.0 
8.146162069114e-04 8.426548407812e-03 0.0 
1.890487913718e-04 1.528746956287e-03 0.0 
5.175947245122e-05 -8.029922676923e-05 0.0 
6.793309449519e-04 9.251273891236e-04 0.0 
2.085867853237e-05 4.189445040135e-07 0.0 
1.623188105939e-03 7.177985994502e-03 0.0 
1.709127614290e-05 1.543019613408e-06 0.0 
1.044756869797e-04 1.054915800612e-03 0.0 
1.230185893162e-03 8.629898729714e-03 0.0 
3.885087995584e-04 -1.716847106310e-04 0.0 
5.777389290832e-05 -2.769037898781e-04 0.0 
4.385314794399e-05 -2.692228222884e-04 0.0 
2.258995610609e-04 1.564349989560e-03 0.0 
1.336025558302e-03 1.965687479472e-03 0.0 
1.546046928721e-03 2.072031677725e-03 0.0 
3.404395690447e-04 2.244073554170e-05 0.0 
2.020709616434e-03 5.835878798113e-03 0.0 
5.632658338756e-05 -6.874027481277e-05 0.0 
1.818378826592e-03 8.334194176924e-03 0.0 
6.629584426944e-04 2.007056305160e-04 0.0 
2.143522143418e-03 5.674137028015e-03 0.0 
2.755240124838e-04 2.174453014206e-05 0.0 
4.159413580150e-04 -3.307933530967e-04 0.0 
2.730315641401e-04 -3.627907132362e-04 0.0 
9.906478738787e-04 8.030549396304e-04 0.0 
1.521152389468e-05 -2.229141840114e-05 0.0 
1.206395178019e-04 4.433942984462e-06 0.0 
3.247087433641e-05 1.832527506973e-06 0.0 
2.958268272180e-05 1.683251988374e-06 0.0 
3.867485275496e-04 6.409913516754e-05 0.0 
5.859180219709e-04 9.355765325840e-03 0.0 
5.344472777046e-04 9.370192880804e-03 0.0 
2.144251377576e-03 3.368727756343e-03 0.0 
1.212574446670e-04 8.247730359685e-06 0.0 
5.338774663358e-04 5.800940151356e-04 0.0 
2.019218640651e-03 7.783235247816e-03 0.0 
6.662257387381e-05 2.126664197793e-03 0.0 
5.458359315833e-04 4.691684152549e-04 0.0 
3.901819387581e-04 -3.318845236325e-04 0.0 
7.637077155424e-05 1.803897122554e-03 0.0 
3.493349502564e-04 -3.445925621358e-04 0.0 
1.531879992271e-03 7.689040696167e-03 0.0 
1.913224645806e-03 2.688824393124e-03 0.0 
5.457499977911e-05 -2.588571307783e-04 0.0 
4.937210678914e-04 -3.170817052292e-04 0.0 
2.043573651483e-03 3.211682909058e-03 0.0 
7.211317844937e-04 8.218036711768e-04 0.0 
8.754227850666e-05 -2.303379795824e-04 0.0 
4.265016065241e-05 -2.510141335829e-04 0.0 
3.085352791731e-05 -2.288367823346e-05 0.0 
1.337186161751e-04 -3.019564104268e-04 0.0 
1.261679058315e-04 1.062362540288e-03 0.0 
3.289676882306e-04 -3.054214820658e-04 0.0 
8.197301316960e-04 1.869788267981e-04 0.0 
1.423776703548e-03 7.990733126422e-04 0.0 
4.645564245315e-04 -3.242794485835e-04 0.0 
3.413770307451e-05 5.744163295228e-07 0.0 
1.709411333766e-03 2.531154506586e-03 0.0 
3.360310560157e-04 -2.903335787619e-04 0.0 
9.939988689926e-04 7.101148523238e-04 0.0 
3.543356807067e-04 -3.530501727441e-04 0.0 
7.241099862291e-04 3.290205736673e-04 0.0 
8.368693008420e-05 -5.803167605430e-05 0.0 
1.325484829450e-04 2.800003586066e-04 0.0 
8.683433604286e-04 2.609335178630e-04 0.0 
1.057946679073e-05 -3.100082749229e-04 0.0 
7.673380437140e-05 -2.208782637011e-04 0.0 
4.568822638371e-04 1.331181508595e-03 0.0 
8.804369946515e-04 9.718800307116e-04 0.0 
4.266307077314e-04 2.107829886325e-04 0.0 
1.481358401533e-04 -3.005064396804e-04 0.0 
4.154576828547e-04 2.889965895573e-04 0.0 
3.700293703533e-04 -3.538855530217e-04 0.0 
1.187010130588e-03 8.397556543936e-03 0.0 
1.236183143732e-03 1.616072653109e-03 0.0 
1.036944590652e-03 1.556492741980e-03 0.0 
9.571251220476e-04 7.849326472264e-03 0.0 
8.759991091518e-04 7.832503946744e-03 0.0 
4.845979082933e-05 -4.808462361378e-05 0.0 
8.275782720345e-06 -2.927438237641e-05 0.0 
2.194623140517e-03 1.826647253310e-03 0.0 
1.054087135124e-03 8.361460403902e-03 0.0 
2.855863021497e-04 -3.632449171240e-04 0.0 
2.141718711223e-03 7.147109954177e-03 0.0 
1.901419606951e-04 4.272333567954e-03 0.0 
2.278165734785e-04 4.621733191521e-03 0.0 
2.637255802428e-04 5.134093458589e-04 0.0 
2.823279085290e-04 5.180137042427e-05 0.0 
1.333073393600e-03 8.340981282642e-03 0.0 
1.385688480818e-04 7.556757072365e-06 0.0 
1.281366790322e-04 6.799033158248e-03 0.0 
1.326271174931e-03 8.862673319572e-04 0.0 
9.134271277540e-04 8.920711897753e-03 0.0 
2.198944454098e-05 1.585995599905e-06 0.0 
1.250723223694e-03 1.806731712986e-04 0.0 
7.823058932244e-04 1.660741401624e-04 0.0 
1.016217043874e-03 2.992936734223e-04 0.0 
3.717278046917e-04 -3.436272463383e-04 0.0 
2.475279311782e-05 -5.685088062848e-06 0.0 
1.963357739725e-04 3.677252346839e-03 0.0 
3.382148104108e-04 -3.340310424683e-04 0.0 
4.113611463496e-05 2.032072176470e-06 0.0 
2.347972498509e-03 1.973239897234e-03 0.0 
1.906977390516e-05 -3.165596555456e-04 0.0 
1.420783527750e-03 2.574912042876e-04 0.0 
2.456928377121e-03 6.300826194804e-03 0.0 
1.261124414609e-04 -1.925428044029e-04 0.0 
1.159824774630e-03 7.997250560293e-04 0.0 
1.364018045580e-03 6.454596379585e-04 0.0 
8.468204733683e-05 4.894317011576e-06 0.0 
1.598330911443e-04 7.218453953625e-03 0.0 
1.215113130150e-03 5.749729002418e-04 0.0 
3.067633685831e-04 -3.453265135987e-04 0.0 
2.188657643249e-03 7.187236146304e-03 0.0 
1.564621455838e-04 3.369148399528e-03 0.0 
1.175892961095e-03 4.534511522964e-04 0.0 
3.480053540301e-04 2.865389309908e-05 0.0 
2.358619591702e-03 5.006751293070e-03 0.0 
1.111554200207e-04 -1.976110164103e-04 0.0 
2.230246602517e-03 4.911268849683e-03 0.0 
3.514370626734e-04 9.350466238205e-04 0.0 
3.951069068497e-04 -3.170395643519e-06 0.0 
7.912371902540e-05 -6.829585661682e-05 0.0 
1.009317091793e-04 1.481965911710e-03 0.0 
2.143426986095e-03 1.805507541456e-03 0.0 
2.250769185180e-03 4.183678931080e-03 0.0 
1.311957871114e-04 5.298159495894e-06 0.0 
1.428078172106e-05 4.457713525208e-07 0.0 
6.838750754801e-05 -4.831674892670e-05 0.0 
2.278338867049e-03 1.920888496754e-03 0.0 
1.879928229985e-04 1.639253509995e-05 0.0 
2.171295241983e-03 2.347123002183e-03 0.0 
2.645401784665e-04 1.074021556314e-03 0.0 
8.708541067221e-04 4.223571984376e-04 0.0 
1.735112030036e-03 7.037852380400e-03 0.0 
4.255895778664e-04 5.608937198842e-03 0.0 
2.086838199226e-03 1.988177910411e-03 0.0 
2.168568237133e-03 4.008064675482e-03 0.0 
2.309450360578e-03 1.730342725059e-03 0.0 
1.207474134258e-03 2.964001367465e-04 0.0 
6.859650213126e-04 8.874186179076e-03 0.0 
1.356211998330e-03 1.766794300506e-04 0.0 
2.634894257255e-04 -3.572804278063e-04 0.0 
1.745137778426e-04 8.133465194653e-03 0.0 
5.283958090825e-05 -2.866749032087e-04 0.0 
2.433925270325e-03 5.750371860663e-03 0.0 
1.492911944978e-04 1.326808086721e-05 0.0 
1.045845104637e-03 3.990407201530e-04 0.0 
3.630000773198e-05 -3.866749951027e-05 0.0 
6.321659545780e-04 6.489241931219e-04 0.0 
1.315568275029e-03 2.173064538378e-04 0.0 
3.991440976074e-04 8.557221297732e-03 0.0 
1.257608179158e-03 1.350724691104e-04 0.0 
3.439910621852e-05 -1.635729972307e-05 0.0 
3.234259034526e-04 -3.483117132010e-04 0.0 
3.473429440403e-05 -5.742947687758e-06 0.0 
2.766266670248e-03 4.570503982747e-03 0.0 
4.708404601189e-05 1.434323895080e-06 0.0 
1.696967879298e-04 8.637384718164e-03 0.0 
1.091153113165e-03 2.506849082356e-04 0.0 
2.345233035191e-03 6.421726733373e-03 0.0 
3.330282745083e-05 -8.295786269701e-05 0.0 
6.098019833927e-04 7.811689650720e-04 0.0 
1.206726968639e-03 7.030061402712e-05 0.0 
3.794352404276e-04 5.078195538967e-03 0.0 
4.475098610836e-04 8.895574573522e-03 0.0 
1.264307425384e-03 2.502483930134e-04 0.0 
2.299103227806e-03 5.762119082625e-03 0.0 
1.764318382606e-03 9.236533121642e-04 0.0 
1.258688969831e-04 -1.776384116696e-04 0.0 
5.144894750190e-04 1.481774528014e-04 0.0 
8.408226048723e-04 3.635209914760e-04 0.0 
1.061144954320e-03 8.805982975047e-04 0.0 
1.102514225618e-04 -1.690555237282e-04 0.0 
5.418718796312e-04 3.305835010541e-05 0.0 
2.110254041705e-03 2.581620638850e-03 0.0 
9.029042732049e-04 7.969224045658e-04 0.0 
2.622877745565e-03 5.649355404946e-03 0.0 
1.378261312945e-03 2.988138031416e-04 0.0 
1.884171024661e-04 1.146927399153e-03 0.0 
2.303500871649e-03 2.483078819719e-03 0.0 
2.371943660834e-05 -1.037480423405e-05 0.0 
4.787343802626e-04 3.281849119666e-04 0.0 
1.074868986576e-03 -1.655237272832e-05 0.0 
2.183223223378e-03 1.968927847318e-03 0.0 
2.417730066098e-04 -1.138052205651e-04 0.0 
2.180029704625e-03 3.035077345526e-03 0.0 
5.567543371826e-04 -5.215645146122e-06 0.0 
1.803589314031e-04 -3.257144936848e-04 0.0 
9.844296483925e-04 9.734194245100e-04 0.0 
2.307906519851e-03 4.376086104207e-03 0.0 
4.649435157434e-04 -2.379922789219e-04 0.0 
5.916595392788e-04 1.027679041453e-06 0.0 
2.226422793891e-03 6.639838061785e-03 0.0 
1.944005364166e-03 6.365063536786e-03 0.0 
2.556454014846e-04 1.828710670880e-05 0.0 
3.530847752778e-04 -2.793075535919e-04 0.0 
2.233352291076e-03 1.322528095155e-03 0.0 
2.804008776864e-03 3.641565050754e-03 0.0 
2.190138920452e-03 4.038393164225e-03 0.0 
2.794329324810e-03 4.540043142747e-03 0.0 
2.682415496105e-03 5.102778079360e-03 0.0 
1.314913400148e-03 1.109716401611e-04 0.0 
1.954441656123e-03 1.096992359350e-03 0.0 
3.006074542270e-04 -1.509349550601e-04 0.0 
1.109931953219e-03 1.077595663269e-03 0.0 
1.397843384861e-03 1.080318333197e-03 0.0 
2.218433460909e-03 1.469810793539e-03 0.0 
2.130543576446e-03 2.258547654836e-03 0.0 
4.832270024559e-04 -1.459690377045e-04 0.0 
5.492156735426e-04 -2.572115947918e-05 0.0 
5.049203672181e-04 8.769015717699e-03 0.0 
1.117053854209e-03 3.624852857425e-05 0.0 
5.328649767821e-04 -4.584255273747e-05 0.0 
2.281059047530e-04 -3.460063223640e-04 0.0 
2.145815709829e-03 3.549168318159e-03 0.0 
2.192538231245e-04 -3.481168919023e-04 0.0 
1.665268838731e-04 -3.176584616651e-04 0.0 
4.690235096426e-04 4.209482095019e-04 0.0 
3.376153371894e-04 -3.006210921885e-04 0.0 
1.988470030768e-03 3.211227044915e-03 0.0 
3.408806930434e-04 -3.121841763032e-04 0.0 
6.317442099174e-04 1.572101176180e-04 0.0 
4.436797836801e-04 -3.414068673320e-04 0.0 
3.057301476412e-04 -3.362063464544e-04 0.0 
5.909337218176e-04 2.197643498247e-05 0.0 
2.773479166015e-03 4.074011365949e-03 0.0 
4.075924362847e-05 6.099747343419e-07 0.0 
2.644512062751e-04 -1.480892850325e-04 0.0 
7.850853045992e-04 1.413865183171e-04 0.0 
1.243130773056e-03 4.834178080994e-05 0.0 
1.944126708979e-03 2.392412533733e-03 0.0 
5.846476426070e-04 -2.058617955494e-05 0.0 
5.106878060824e-05 1.982324201363e-06 0.0 
2.415491447114e-03 2.876874053304e-03 0.0 
8.397399295234e-04 -9.205126414189e-05 0.0 
5.561233188743e-04 1.452739597680e-05 0.0 
4.096207772768e-05 -5.824396893733e-05 0.0 
2.413883172859e-03 1.815654766506e-03 0.0 
2.368887437475e-03 3.704874969959e-03 0.0 
7.020521886454e-04 1.708551679786e-04 0.0 
1.189449153898e-03 -3.265506805667e-06 0.0 
7.121776102392e-04 1.867573110897e-04 0.0 
2.808199265372e-03 3.958511215666e-03 0.0 
2.142446864805e-04 4.786463602629e-04 0.0 
2.141821355110e-03 1.116879923261e-03 0.0 
1.262003748036e-03 -6.781723875728e-06 0.0 
3.964921999311e-04 7.952242032019e-03 0.0 
3.656081227025e-04 -3.584839244621e-04 0.0 
2.750153584118e-03 4.978724784303e-03 0.0 
8.661998209138e-04 -4.681244700414e-05 0.0 
5.815253869331e-04 -1.597057153321e-04 0.0 
4.413911430874e-04 -3.205839398257e-04 0.0 
1.898327610346e-03 3.326290469611e-03 0.0 
2.826941202110e-03 3.637587431000e-03 0.0 
1.262585921425e-03 3.994193340766e-04 0.0 
1.725300947647e-03 2.954485565178e-03 0.0 
2.331006012100e-03 2.315309378241e-03 0.0 
2.581832427447e-03 2.177783615474e-03 0.0 
5.928465478871e-05 3.155329396386e-06 0.0 
1.238197024589e-03 -8.363447737131e-06 0.0 
2.710385445248e-03 2.541250344385e-03 0.0 
1.524777061042e-03 3.070236956983e-04 0.0 
1.270500962232e-03 2.236687439337e-05 0.0 
6.829636965616e-04 -1.658591076086e-04 0.0 
1.909063958107e-03 7.619888256205e-03 0.0 
1.155022791196e-03 -5.784650928884e-05 0.0 
6.754953943539e-04 -2.736327257488e-04 0.0 
2.366052958937e-03 3.060607241474e-03 0.0 
2.566930592696e-04 -1.780502649000e-04 0.0 
2.743751322552e-03 4.837563272243e-03 0.0 
8.835961757654e-04 -1.108606837469e-04 0.0 
7.690122441025e-04 7.241351563493e-05 0.0 
6.644975741708e-04 -1.974016306999e-04 0.0 
2.789897236687e-03 3.512704334258e-03 0.0 
2.941033173961e-04 -3.583310603100e-04 0.0 
1.657404160495e-03 1.421598270122e-03 0.0 
1.228868943365e-03 2.167182784808e-05 0.0 
2.824474245822e-03 4.039572906194e-03 0.0 
2.004097789992e-03 6.996745149906e-03 0.0 
4.331936343677e-04 -1.933678017485e-04 0.0 
7.039737283351e-04 -2.608757606642e-04 0.0 
6.054606166099e-04 -2.965530709000e-04 0.0 
1.280183983460e-03 1.190773423033e-03 0.0 
2.441189803853e-03 3.511747812997e-03 0.0 
1.572564240654e-03 1.183652985519e-03 0.0 
1.087695943868e-03 -8.623081047713e-05 0.0 
1.110860481848e-03 -3.410757489105e-05 0.0 
4.770567621523e-04 -1.822918015380e-04 0.0 
1.546443108631e-03 2.687462710730e-04 0.0 
4.965551516846e-04 1.033498558121e-04 0.0 
3.727803688294e-04 4.011828885245e-04 0.0 
4.407681286958e-04 3.644039538788e-04 0.0 
2.142223529296e-03 1.004810571950e-03 0.0 
7.685059128248e-04 -1.119948031005e-04 0.0 
6.785788625251e-04 -9.563684171713e-06 0.0 
2.679424034264e-03 2.266706320290e-03 0.0 
7.193904079268e-04 -8.844852503354e-05 0.0 
6.310209400982e-04 -2.868407439059e-04 0.0 
2.499481326550e-03 2.108497964613e-03 0.0 
3.436891989654e-04 1.302619925219e-03 0.0 
9.934461779491e-04 -4.444891385985e-05 0.0 
1.384381443707e-03 1.484874875022e-04 0.0 
5.575407299543e-04 6.471452032964e-05 0.0 
9.719213094917e-05 1.231047458032e-05 0.0 
7.363926733725e-04 -4.129098412843e-05 0.0 
2.413979404169e-03 1.628773246677e-03 0.0 
5.201440576853e-04 -2.056582246712e-04 0.0 
8.461912230290e-04 -5.759197701241e-05 0.0 
1.210549419362e-03 -1.694958171796e-05 0.0 
6.191273774122e-04 -2.918660500520e-04 0.0 
2.772033167020e-03 3.225864263605e-03 0.0 
3.712042552132e-04 2.080671114304e-04 0.0 
9.923355924317e-04 -1.020673315577e-04 0.0 
1.164690347200e-03 -5.612154107810e-06 0.0 
5.542000924313e-04 5.896838831433e-06 0.0 
1.485447682394e-03 5.694867402703e-03 0.0 
5.678906163733e-04 -4.195769968241e-05 0.0 
8.199459286984e-04 3.086857873403e-04 0.0 
1.435159334700e-03 6.225464880305e-03 0.0 
3.407857516877e-04 1.363368184955e-04 0.0 
4.926851068170e-04 -1.565652465378e-05 0.0 
4.067848268634e-04 2.584204877541e-04 0.0 
1.777748117463e-03 6.034034983795e-03 0.0 
2.337478503551e-03 1.807183917550e-03 0.0 
6.402873030593e-04 3.209194236138e-04 0.0 
2.671696700607e-03 3.538963847740e-03 0.0 
2.766248466575e-03 2.880237106620e-03 0.0 
2.784273708278e-03 2.890071371157e-03 0.0 
1.949527848125e-03 8.666681204088e-04 0.0 
2.938761696566e-04 9.586715616903e-05 0.0 
2.204246129665e-03 6.000473098380e-03 0.0 
2.662553179017e-03 5.555762949889e-03 0.0 
1.064633899984e-03 -7.617595099164e-05 0.0 
3.216575697623e-04 -3.196749033910e-04 0.0 
2.619722531156e-03 4.498479008424e-03 0.0 
9.025876250969e-04 2.566605381031e-04 0.0 
3.388723568983e-04 8.867595770086e-03 0.0 
5.912788274806e-04 -2.977566837639e-04 0.0 
9.571393656695e-04 -8.789549658861e-05 0.0 
2.145519075801e-03 2.946730540062e-03 0.0 
8.784089279779e-04 1.731893015342e-04 0.0 
2.709008096546e-03 3.175403952062e-03 0.0 
1.116342232679e-03 -2.064006753526e-06 0.0 
5.695921860526e-04 -1.466996076808e-04 0.0 
2.074364783747e-04 5.072129999018e-05 0.0 
2.311209331878e-03 3.195353334251e-03 0.0 
7.079830219337e-04 -2.417717382609e-04 0.0 
4.735452301984e-04 -2.528974378414e-04 0.0 
8.657486358410e-04 6.517033898891e-04 0.0 
8.369600588570e-04 4.084948974038e-04 0.0 
1.996712849597e-03 1.777298021484e-03 0.0 
2.484095321127e-03 1.690826777414e-03 0.0 
1.842970303611e-03 2.012618015599e-03 0.0 
2.565716850043e-03 3.441029007886e-03 0.0 
1.494346441651e-04 2.513991263890e-05 0.0 
3.833460362786e-04 5.783104124225e-05 0.0 
1.971538343116e-03 1.899148387523e-03 0.0 
2.229784645764e-03 3.399290647679e-03 0.0 
5.935005986499e-04 -1.631681852079e-04 0.0 
1.583844805353e-03 8.859670406590e-04 0.0 
7.462873821660e-04 -1.496642728681e-04 0.0 
8.526470902308e-04 -1.466545634150e-04 0.0 
2.324465422055e-03 1.396178506846e-03 0.0 
8.927432087598e-04 -6.907206347196e-05 0.0 
3.098580873484e-04 -1.793761114162e-04 0.0 
1.833456474278e-03 2.236053776062e-03 0.0 
6.822450648674e-04 -2.597848664634e-04 0.0 
1.754705208967e-03 6.472035027019e-04 0.0 
2.656761515375e-03 2.496466462536e-03 0.0 
1.584095571113e-03 6.488424569977e-04 0.0 
4.276976558575e-04 3.078367513274e-04 0.0 
4.220464341123e-04 3.973640441069e-04 0.0 
1.010808460936e-03 9.356047319285e-04 0.0 
5.795494707560e-04 -1.293818121795e-04 0.0 
1.633524991776e-03 3.031529934840e-03 0.0 
7.228595372194e-04 2.705853435440e-04 0.0 
9.521380427744e-04 -1.363920457726e-04 0.0 
5.699954873269e-04 -1.935215142236e-04 0.0 
1.832477761853e-03 1.547752246280e-03 0.0 
1.699003184713e-03 7.917008562094e-03 0.0 
1.660304373593e-03 6.120578220036e-03 0.0 
2.523894573571e-04 2.715136571051e-05 0.0 
2.020707864978e-03 1.537274586931e-03 0.0 
2.771652082793e-03 4.317819940159e-03 0.0 
2.739861135779e-03 2.566784140727e-03 0.0 
6.091699514870e-04 -2.109382976280e-04 0.0 
3.327644917190e-04 -3.655567404941e-04 0.0 
1.388948965498e-03 1.484831566511e-04 0.0 
1.876953548949e-03 6.399958408483e-04 0.0 
1.475186542507e-03 1.910175062629e-04 0.0 
3.402583674053e-04 8.914439666299e-05 0.0 
3.339214872733e-04 7.691083343255e-03 0.0 
3.232335617734e-04 -3.300513643546e-04 0.0 
8.333071180600e-04 3.647469624571e-05 0.0 
5.243858243143e-05 7.023222786352e-06 0.0 
1.176785339393e-03 7.504732909860e-05 0.0 
2.575998734343e-03 5.985648569389e-03 0.0 
3.614841315349e-05 -2.902732296649e-04 0.0 
2.037168309885e-03 1.041380828921e-03 0.0 
1.326748950743e-03 8.491736249377e-05 0.0 
2.792221848997e-03 3.187899502174e-03 0.0 
3.683595826004e-04 1.830932212684e-04 0.0 
2.704192160232e-03 4.021870474478e-03 0.0 
2.610317867656e-03 1.991132771071e-03 0.0 
3.378475916650e-04 -1.823166656158e-04 0.0 
1.893613741547e-03 2.760046957824e-03 0.0 
5.493463828340e-04 -1.132992804927e-04 0.0 
3.665566571947e-04 1.636529639990e-04 0.0 
2.142036594090e-04 1.442214906428e-04 0.0 
1.780080669644e-04 2.046075376118e-04 0.0 
2.272741322473e-04 2.007886931942e-04 0.0 
2.738003226321e-03 2.820374070104e-03 0.0 
1.966693850645e-03 2.645428123451e-03 0.0 
1.802343904672e-03 1.463821458149e-03 0.0 
1.657497854058e-03 8.010073300530e-04 0.0 
1.661060132528e-03 1.076495712296e-03 0.0 
2.700197419371e-04 -1.884926626889e-04 0.0 
1.888762892409e-03 2.129091839621e-03 0.0 
3.179455936385e-04 1.145539827086e-04 0.0 
1.619527055642e-03 2.505059000523e-03 0.0 
1.243062000830e-03 5.050230785182e-05 0.0 
1.697697429120e-03 2.425683817864e-03 0.0 
1.818189625600e-03 5.335150311280e-04 0.0 
1.780854254556e-03 5.796406916308e-04 0.0 
1.924640593581e-03 1.842881028943e-03 0.0 
6.108778851770e-04 -2.895555645933e-05 0.0 
5.040581179801e-04 1.002210623665e-03 0.0 
1.450683864441e-03 5.801884929201e-04 0.0 
9.577076088479e-04 3.265981234450e-04 0.0 
2.967736733733e-04 -1.916213510151e-04 0.0 
5.297774612341e-04 -3.128323909573e-04 0.0 
1.922275089014e-04 2.108839899215e-05 0.0 
9.486669252966e-04 1.314558303381e-04 0.0 
1.925811674544e-04 1.141989971113e-04 0.0 
7.593597112345e-04 7.520479412535e-04 0.0 
2.451337369505e-03 1.512321314063e-03 0.0 
3.210708792982e-04 -3.699235632168e-04 0.0 
1.897364948417e-04 8.922510694936e-05 0.0 
2.456943422910e-04 3.387702494125e-05 0.0 
5.548560681938e-04 -3.093382850752e-04 0.0 
1.120503826294e-03 2.420315642181e-05 0.0 
1.951830156642e-04 4.352636010776e-05 0.0 
3.039714140851e-04 -3.748319107878e-04 0.0 
1.638470697014e-03 5.815910649998e-04 0.0 
2.560209519814e-03 1.773937460957e-03 0.0 
2.308301931870e-03 1.252120964559e-03 0.0 
2.566350190713e-03 1.946993948104e-03 0.0 
6.898593848559e-04 4.806767428833e-05 0.0 
1.639655893347e-04 6.190896144583e-05 0.0 
1.039213359178e-03 -1.192506322139e-04 0.0 
4.335240759877e-04 -2.270073698992e-04 0.0 
7.715849689824e-05 3.301848456910e-06 0.0 
3.093680740806e-04 -3.714731080354e-04 0.0 
2.382536270093e-03 2.883215173912e-03 0.0 
4.212653141497e-04 -3.396292911591e-04 0.0 
2.605158362795e-03 5.082893996508e-03 0.0 
1.275938180695e-04 1.920688998176e-05 0.0 
1.398961653528e-04 4.322213490625e-05 0.0 
2.812990833970e-03 3.231720908388e-03 0.0 
3.772323405955e-04 -3.507287369047e-04 0.0 
3.970457812549e-04 -2.370460761100e-04 0.0 
4.010104307965e-04 -3.478219522614e-04 0.0 
2.528716553533e-04 -1.546992190756e-05 0.0 
1.747734771870e-03 8.091335264564e-03 0.0 
2.587905719878e-03 5.780269278416e-03 0.0 
1.085737028868e-04 2.770822195999e-05 0.0 
1.549996477043e-03 8.349115425476e-03 0.0 
3.367079446022e-04 4.126930952266e-04 0.0 
1.705827395507e-03 4.707333173524e-04 0.0 
1.480273662057e-03 6.730827861430e-03 0.0 
9.725899301438e-04 5.776985257963e-04 0.0 
1.183044998280e-03 4.948548907126e-05 0.0 
5.378441975951e-04 -1.355196619461e-04 0.0 
9.632024017619e-05 2.051328207756e-05 0.0 
2.134939964486e-04 1.636152606846e-04 0.0 
1.947723018650e-04 1.965753509127e-04 0.0 
5.137442848133e-04 -1.142492461770e-04 0.0 
2.311507042049e-04 -1.969298047136e-04 0.0 
1.699560579105e-03 4.611583986992e-04 0.0 
4.826223964010e-04 -9.873303336908e-05 0.0 
8.219756924852e-05 1.468401993500e-05 0.0 
8.119680696609e-04 -1.959844505761e-05 0.0 
6.901733428155e-04 -2.699690184805e-04 0.0 
6.674999202674e-04 -2.710586974485e-04 0.0 
1.327031268985e-03 6.253602850044e-03 0.0 
8.421812565938e-05 9.757405036802e-06 0.0 
3.607666683253e-04 -3.576392118652e-04 0.0 
6.035674315292e-05 8.750997277864e-06 0.0 
5.990949615055e-04 -2.895488410457e-04 0.0 
1.786230877587e-04 9.386811431905e-05 0.0 
1.814939002915e-03 1.366078617605e-03 0.0 
3.073505769292e-04 -3.757249949835e-04 0.0 
1.598841927239e-03 4.056134584907e-04 0.0 
1.448690445100e-03 2.628247122679e-03 0.0 
1.768201623531e-04 7.442785704967e-05 0.0 
2.714359638794e-03 2.540908245888e-03 0.0 
1.514551002232e-03 3.547243211896e-04 0.0 
4.962721625549e-04 -1.233987150675e-05 0.0 
3.839362371513e-04 3.997479510811e-05 0.0 
5.725745332068e-04 -2.815792346976e-04 0.0 
6.350777823425e-04 -2.762268889927e-04 0.0 
3.374397598594e-04 -3.538184224409e-04 0.0 
1.539800043038e-04 5.264502126279e-05 0.0 
6.391659734840e-04 -1.455799756452e-04 0.0 
4.626860327683e-04 -2.905125694535e-06 0.0 
1.397042692371e-03 7.319041180371e-03 0.0 
4.329032637026e-04 -3.013249508802e-04 0.0 
6.593656493620e-04 -2.784900157896e-04 0.0 
2.690874483091e-03 2.282405852095e-03 0.0 
9.886277548798e-05 2.301307803020e-05 0.0 
2.183603163242e-04 -1.827232239909e-04 0.0 
5.100518253676e-04 -6.493166936720e-05 0.0 
2.037137191133e-03 7.559902034651e-04 0.0 
7.489864775118e-04 -9.620742032396e-05 0.0 
7.339326843113e-04 -2.547992251974e-04 0.0 
5.520558574820e-04 -9.621973228295e-05 0.0 
2.051812173652e-03 8.422099422083e-04 0.0 
2.050102996295e-03 8.311587644327e-04 0.0 
1.099229961738e-03 7.253968051544e-05 0.0 
1.876099610339e-03 5.731922923060e-04 0.0 
3.810584848284e-04 -2.011031182026e-04 0.0 
9.196381758755e-04 6.371422773182e-05 0.0 
2.568179543860e-04 -2.000736582772e-04 0.0 
1.632513135521e-03 4.016972504070e-04 0.0 
1.143243098155e-03 -3.383974907198e-05 0.0 
1.127953255843e-04 1.577422006422e-05 0.0 
1.413213111515e-03 2.142056075284e-03 0.0 
4.085767093238e-04 -3.104691411411e-04 0.0 
6.723707491655e-05 1.045589270390e-05 0.0 
2.833727643479e-04 3.477135074968e-05 0.0 
1.483682637760e-03 1.647440454923e-04 0.0 
3.433669420245e-04 -3.597635816039e-04 0.0 
7.413442754480e-05 7.947579888641e-06 0.0 
1.619905670250e-03 1.941976977024e-03 0.0 
5.368295358777e-04 -3.041026731545e-04 0.0 
4.475354851774e-05 5.287251793969e-06 0.0 
4.817494215077e-04 -8.274755789494e-05 0.0 
1.903935263636e-03 1.408655499720e-03 0.0 
2.668057902986e-03 5.209222146857e-03 0.0 
1.175117756677e-03 -3.728608924659e-05 0.0 
5.333499233827e-04 -1.470887350262e-04 0.0 
7.979864125689e-04 -6.739039090178e-05 0.0 
2.402686100939e-03 4.192445580421e-03 0.0 
2.362852681315e-03 2.244877412045e-03 0.0 
1.129543618517e-03 1.190451764436e-04 0.0 
3.236098405564e-04 7.111165484063e-03 0.0 
3.521505492080e-04 -1.980216670504e-04 0.0 
1.056161249179e-03 2.690291550055e-05 0.0 
5.423341320352e-04 -2.821495757899e-04 0.0 
2.557633201344e-04 -8.319066518025e-05 0.0 
3.140069438382e-04 -3.712725897531e-04 0.0 
1.047781691707e-03 1.663183017203e-04 0.0 
5.697242768623e-04 -2.924007245542e-04 0.0 
2.944794355710e-04 -1.640669980728e-04 0.0 
1.629689131210e-03 2.802387272903e-04 0.0 
5.155807845680e-04 -8.118422249313e-05 0.0 
1.266869583437e-03 6.773937409288e-03 0.0 
5.102234333377e-04 -3.050198596488e-04 0.0 
3.946457714163e-05 4.470153242832e-06 0.0 
2.483483891250e-03 1.551293174639e-03 0.0 
2.514102631770e-04 -1.468185784333e-04 0.0 
2.365057962362e-03 1.306210241040e-03 0.0 
2.674706736255e-04 -1.614945213545e-04 0.0 
3.143050626959e-04 -3.731794858886e-04 0.0 
2.632985719791e-03 4.992761772531e-03 0.0 
8.073348307799e-05 -1.817433992339e-04 0.0 
1.961333513961e-04 -3.486040786691e-04 0.0 
2.155018395821e-04 -1.567697467523e-04 0.0 
4.678483518353e-04 -5.173192547102e-05 0.0 
4.016745806280e-04 3.092145149149e-03 0.0 
8.337483863925e-04 -1.020529608179e-04 0.0 
7.950480985897e-04 -8.879367932574e-05 0.0 
2.418278306249e-03 6.622596098057e-03 0.0 
1.435827296492e-03 8.978749904457e-03 0.0 
5.912431096716e-04 8.786839279396e-04 0.0 
2.217590975076e-03 1.066401201558e-03 0.0 
1.835315695335e-04 -3.490168248664e-04 0.0 
2.876145976765e-04 -3.324174530146e-04 0.0 
3.339729945267e-04 -3.674781769251e-04 0.0 
3.576377133713e-04 -2.920662364455e-04 0.0 
1.725690389818e-03 8.344320957661e-04 0.0 
4.610309639405e-04 3.120771576088e-03 0.0 
2.708931399107e-04 -2.489084877139e-05 0.0 
2.974263348798e-04 -2.574759680138e-04 0.0 
2.314658598199e-04 -8.256592585629e-05 0.0 
4.009318766765e-04 3.262840428905e-06 0.0 
5.112247615843e-04 -2.345100379149e-04 0.0 
5.731729570380e-05 -1.806754246193e-04 0.0 
4.416817925332e-05 -2.121029886893e-04 0.0 
6.663736759689e-05 6.416819871450e-06 0.0 
3.466985040316e-05 3.477426645809e-06 0.0 
5.667758384622e-05 -1.583596882531e-04 0.0 
2.254336045653e-04 -1.447193889655e-04 0.0 
5.077051100655e-04 -1.307209052092e-04 0.0 
3.876202277804e-04 1.647362015067e-05 0.0 
2.845051553630e-04 -3.223699737156e-04 0.0 
4.087950486657e-04 -1.126703841215e-05 0.0 
1.505572651363e-04 -3.187554764426e-04 0.0 
2.301032185349e-04 -1.710493612374e-04 0.0 
3.051340984788e-04 -1.513106034845e-04 0.0 
1.189619950692e-04 -3.212113102372e-04 0.0 
4.625404061292e-05 -1.688404945064e-04 0.0 
1.334152456843e-03 2.188199827778e-03 0.0 
1.534633353758e-04 -3.430007454789e-04 0.0 
1.609196698131e-03 8.689373152401e-03 0.0 
1.616625002337e-03 8.809011265277e-03 0.0 
8.426045533000e-04 -3.579652221178e-05 0.0 
2.209256723124e-05 -2.124560762832e-04 0.0 
5.128777731507e-04 -2.938882521406e-04 0.0 
6.254990450308e-04 8.749348349892e-05 0.0 
1.659391934073e-04 -4.616449331108e-06 0.0 
6.064541815951e-04 2.185752865087e-04 0.0 
8.369061986603e-04 3.721178057972e-03 0.0 
9.492298160182e-04 4.562166948972e-04 0.0 
2.913110344932e-04 -3.508346817319e-04 0.0 
2.508180160040e-03 2.997463138990e-03 0.0 
1.027600462847e-03 9.325354503093e-03 0.0 
9.403291392832e-04 9.660651759757e-03 0.0 
1.674569664257e-04 -3.421461463163e-04 0.0 
1.508448826639e-04 -3.271466343956e-04 0.0 
6.883651588198e-05 -3.018356832314e-04 0.0 
2.709585559670e-04 -2.880373895529e-04 0.0 
1.026936766756e-04 -3.228959996274e-04 0.0 
4.535192701530e-05 -1.458962334839e-04 0.0 
3.174351685601e-04 -3.336329705351e-04 0.0 
2.807541992564e-04 -2.667729090536e-04 0.0 
3.024846943333e-04 5.969794501420e-03 0.0 
1.299162566637e-03 9.381535287332e-03 0.0 
1.593197640307e-03 8.436949505179e-04 0.0 
4.455144658407e-04 -6.867159633140e-05 0.0 
2.611904676337e-04 6.880649475736e-03 0.0 
1.130849888376e-05 -2.017130703988e-04 0.0 
8.561287776432e-05 -3.080677205828e-04 0.0 
7.492111346171e-05 2.625127485613e-04 0.0 
1.717622424139e-04 5.435081534978e-04 0.0 
1.291766679466e-03 7.334012758491e-03 0.0 
1.153448763179e-03 9.273680701025e-03 0.0 
5.615352912225e-05 -2.018613919448e-04 0.0 
1.094785138953e-04 5.243742180589e-04 0.0 
2.874185250028e-04 -2.799310717741e-04 0.0 
1.446295930424e-03 9.144680928912e-03 0.0 
1.285490633083e-03 9.168648108050e-03 0.0 
2.508005802582e-03 4.410589083024e-03 0.0 
1.586998776378e-04 2.080855576148e-04 0.0 
1.341949081335e-04 5.191309977530e-04 0.0 
1.353759979461e-04 -3.281447896348e-04 0.0 
1.365323537572e-04 -3.362286189045e-04 0.0 
2.729585370882e-04 -3.376873845309e-04 0.0 
3.331648871916e-04 -1.536297660256e-04 0.0 
1.587391624983e-05 -2.010706505446e-06 0.0 
3.037641861682e-04 -3.190687439293e-04 0.0 
1.026189281703e-04 3.924120593063e-03 0.0 
3.214610236815e-04 -3.541934028885e-04 0.0 
7.494735752439e-04 -5.502952336454e-05 0.0 
3.157457975317e-04 -3.614903458653e-04 0.0 
3.125765722279e-04 -3.445694706502e-04 0.0 
7.081764959292e-04 -8.217139428663e-05 0.0 
6.453163760593e-05 -4.970238791968e-06 0.0 
2.497837681697e-04 6.308336186973e-03 0.0 
2.479562328536e-03 2.347174838458e-03 0.0 
8.585006560350e-05 -3.165591574429e-04 0.0 
1.873730107772e-04 -6.984237015743e-05 0.0 
2.520238592919e-05 3.158558243299e-04 0.0 
5.000867820707e-05 5.346499676047e-04 0.0 
1.171980975288e-03 9.527601316332e-03 0.0 
7.850755622698e-04 -2.569002242171e-05 0.0 
5.927379467180e-05 2.566182491918e-04 0.0 
1.448289918390e-03 3.031809813822e-04 0.0 
5.087280114968e-05 -3.050653749192e-04 0.0 
6.952270222664e-05 -3.192156083727e-04 0.0 
5.132179965516e-05 -3.139538632003e-04 0.0 
1.163232377969e-05 -1.794589063957e-04 0.0 
1.246906357610e-05 1.316929112388e-06 0.0 
1.320650876217e-05 1.461239042641e-03 0.0 
7.017831258906e-05 -3.277837074272e-04 0.0 
2.329606000231e-05 -1.445458676129e-04 0.0 
4.201695294342e-06 5.409317195844e-07 0.0 
1.772339488837e-05 1.606624182557e-06 0.0 
6.017333161689e-05 5.273139115830e-06 0.0 
5.547472722424e-05 4.915833582372e-03 0.0 
2.298601855601e-05 3.425329123023e-03 0.0 
8.267368281761e-06 7.759973928033e-07 0.0 
9.456026606610e-06 8.306267897535e-07 0.0 
5.011004871694e-05 3.924744924224e-03 0.0 
5.328324793282e-05 -3.307646355274e-04 0.0 
7.236369546396e-04 9.719446357153e-03 0.0 
1.055175884840e-03 9.614388909857e-03 0.0 
1.037030771365e-04 -3.312970799315e-04 0.0 
1.617819978438e-05 1.315592927035e-06 0.0 
5.555311409062e-05 4.427152675845e-06 0.0 
2.734729966746e-05 2.093406785656e-06 0.0 
8.751507642689e-05 -3.335283368015e-04 0.0 
1.211277513413e-04 -3.376962198110e-04 0.0 
3.196751719373e-05 2.939393225641e-06 0.0 
2.820581442317e-05 2.333745890189e-06 0.0 
2.835069706331e-05 5.426016790265e-03 0.0 
3.922082452149e-04 9.743739068455e-03 0.0 
2.712403016093e-05 4.414752366109e-03 0.0 
3.197123355087e-05 7.432202570600e-03 0.0 
1.706930048284e-04 9.742448476665e-03 0.0 
2.115448771006e-04 -3.554499453530e-04 0.0 
2.611115188152e-04 -3.683294780015e-04 0.0 
2.805407537202e-04 -3.731006194119e-04 0.0 
2.960853159921e-04 -3.759270080687e-04 0.0 
1.158989687678e-05 -1.326344579185e-04 0.0 
1.170616312554e-05 -1.562942132983e-04 0.0 
2.711975905107e-04 -3.684924576292e-04 0.0 
1.086226505425e-05 -6.684099135938e-05 0.0 
2.895070304618e-04 -3.728181899537e-04 0.0 
1.311770972979e-04 2.334089872523e-04 0.0 
5.020471922347e-05 2.677559688671e-04 0.0 
9.684112895223e-05 2.809954049365e-04 0.0 
1.108485935581e-05 -2.790366810555e-04 0.0 
1.078406834748e-05 -2.227990879439e-04 0.0 
4.689460478103e-05 3.233025640063e-04 0.0 
6.935741174336e-06 -1.550566679176e-05 0.0 
2.480629227788e-05 2.187941432749e-04 0.0 
4.962334412450e-06 -5.376146104266e-06 0.0 
2.942484153568e-06 1.960017078262e-07 0.0 
2.333848690522e-05 -1.681253854226e-04 0.0 
9.709932400450e-05 5.910585328734e-04 0.0 
7.170089705891e-05 5.420967072812e-04 0.0 
1.189807558679e-05 -1.011543113506e-05 0.0 
7.904818566019e-06 -1.961137645856e-06 0.0 
1.083552599061e-04 -4.819295340932e-05 0.0 
3.201791379763e-04 -3.667978565666e-04 0.0 
1.936409981388e-04 -1.801989445614e-04 0.0 
1.659948695249e-04 -3.343758645027e-04 0.0 
1.535695832823e-04 -5.628735156277e-06 0.0 
2.560953939666e-04 -1.736749463718e-04 0.0 
1.208112041013e-04 -2.160203531140e-05 0.0 
2.762597097277e-04 -3.001323052463e-04 0.0 
1.958972637211e-04 -3.269027936188e-04 0.0 
8.178933469225e-05 -9.349739455489e-06 0.0 
1.902999648552e-04 -1.547234606168e-04 0.0 
4.571024087986e-05 -1.913635142760e-04 0.0 
1.057713978438e-04 -2.199686178064e-05 0.0 
1.476824341083e-04 2.478745844958e-03 0.0 
2.294082266344e-05 -1.908621051361e-04 0.0 
4.535702500676e-04 -3.720344764469e-05 0.0 
3.330206393461e-04 -8.476665795330e-05 0.0 
1.278389173820e-04 -4.816130559168e-05 0.0 
9.170891882423e-05 -3.895231754268e-05 0.0 
9.759537656361e-04 -1.435204869433e-04 0.0 
2.312397843117e-03 2.488441548520e-03 0.0 
1.631617253359e-03 3.164986815408e-04 0.0 
2.097832197482e-04 -7.024580744226e-05 0.0 
7.420112780583e-05 -1.579691892586e-05 0.0 
5.948702454233e-05 -3.083941236155e-05 0.0 
3.630578796451e-04 -3.156020505053e-04 0.0 
2.831265231422e-04 2.552372217834e-03 0.0 
3.508459904681e-04 3.547320322081e-03 0.0 
5.352850970051e-04 8.236101067268e-03 0.0 
2.316370345620e-04 -5.905538702714e-05 0.0 
1.670819154148e-04 -5.854490087690e-05 0.0 
1.916177918490e-04 2.529811533922e-03 0.0 
2.422574891436e-04 3.041264041921e-03 0.0 
3.596740613857e-04 -9.891134573650e-05 0.0 
5.470594251830e-05 -5.396626090372e-06 0.0 
7.557876129168e-04 3.704761204213e-03 0.0 
4.227776489887e-05 -3.061982904607e-05 0.0 
1.109352832480e-04 -2.080197671894e-06 0.0 
3.315777271792e-04 2.574947211492e-03 0.0 
5.898254992487e-04 5.140547020562e-03 0.0 
4.371423553687e-04 -5.390851703341e-05 0.0 
1.409604343374e-04 -2.642892831385e-04 0.0 
3.839469338125e-04 -3.291969961749e-04 0.0 
2.756217529630e-04 -3.469844461039e-04 0.0 
3.318215462913e-04 -3.654460727529e-04 0.0 
2.943761012047e-04 3.038717811324e-03 0.0 
5.879217213483e-05 -1.021869907372e-05 0.0 
3.226287050694e-04 -3.707368568744e-04 0.0 
1.758616373519e-03 1.671357621617e-03 0.0 
6.453513986331e-04 7.732590316844e-03 0.0 
1.419426224264e-04 -2.940868533550e-05 0.0 
7.627401717787e-05 -2.277670651011e-05 0.0 
4.838846591982e-04 -2.804060883661e-04 0.0 
6.156322983084e-05 -2.312312252207e-05 0.0 
6.034158972565e-04 8.252020530120e-03 0.0 
1.041147043511e-03 4.967759956685e-05 0.0 
8.340744685733e-05 7.473590030573e-07 0.0 
7.682429119944e-05 -2.581210454716e-04 0.0 
1.429805561832e-04 2.992496520396e-07 0.0 
4.627409029500e-04 4.588498666098e-03 0.0 
1.093394633451e-04 -2.507851685387e-04 0.0 
3.849309379979e-04 -3.073991708538e-04 0.0 
9.768617090099e-05 -1.133704587484e-04 0.0 
7.704278802945e-04 6.218816545162e-03 0.0 
2.541799134971e-04 -2.253486850166e-04 0.0 
3.472239476948e-04 4.031949477773e-03 0.0 
4.963607749677e-04 5.608932743545e-03 0.0 
2.091004450577e-04 -1.307396048331e-04 0.0 
7.343698409412e-05 -3.911920813866e-05 0.0 
9.246974661947e-05 -3.032610575360e-05 0.0 
3.969246143179e-04 4.554745213460e-03 0.0 
1.801807688855e-04 -2.892771690763e-04 0.0 
1.753318900182e-04 -1.410803496207e-04 0.0 
9.515371834473e-04 1.552565636288e-04 0.0 
5.400754859248e-04 4.125421090484e-03 0.0 
1.801820256225e-04 -1.664787956723e-04 0.0 
3.063661877246e-04 -8.434907461024e-05 0.0 
1.909241227563e-04 -2.365831103184e-06 0.0 
5.160227261610e-04 5.111944536307e-03 0.0 
3.954261932363e-04 -2.635084777129e-04 0.0 
2.284093207782e-04 -3.337832926394e-04 0.0 
5.940605062047e-04 -2.374602000621e-04 0.0 
8.737259527561e-05 -1.535434660603e-05 0.0 
6.424579331931e-04 5.665872811426e-03 0.0 
6.856599090408e-05 -9.095844861000e-05 0.0 
7.675608617826e-04 7.247606134585e-03 0.0 
3.771506537955e-04 -7.294894358563e-07 0.0 
1.679760723552e-04 -1.159162503413e-04 0.0 
1.087956598156e-04 -2.998883334396e-05 0.0 
1.196112628276e-04 -2.615850567992e-04 0.0 
1.219125680069e-04 -1.309151822995e-06 0.0 
1.842006052375e-04 -1.291468516238e-04 0.0 
8.744725126719e-05 -2.492794221396e-04 0.0 
1.511837223783e-04 -1.392442817122e-04 0.0 
2.180960557845e-04 -2.079043723694e-04 0.0 
2.572494856983e-04 -2.624352318454e-04 0.0 
9.025495185816e-05 -9.017409496398e-05 0.0 
2.230722993276e-04 -3.549497816037e-04 0.0 
2.486648491431e-04 -3.618747763432e-04 0.0 
1.464477014166e-04 -5.840491434421e-05 0.0 
1.505913421586e-04 -2.750783052299e-04 0.0 
2.095253407135e-04 -5.892660805187e-05 0.0 
2.561923739112e-04 -7.099932574150e-05 0.0 
3.370326556569e-04 -2.102876240485e-04 0.0 
4.804796424254e-04 -3.152612381434e-04 0.0 
6.595636150113e-04 3.195594805270e-03 0.0 
4.062616264522e-04 -1.133042519601e-04 0.0 
1.821693060841e-04 -1.914685870054e-04 0.0 
3.626558922703e-04 1.197270232169e-05 0.0 
1.405008431644e-04 -2.831139451555e-04 0.0 
7.324716556231e-04 6.719655275164e-03 0.0 
7.189888722309e-04 7.760435537855e-03 0.0 
2.652010284739e-04 -3.180096986672e-04 0.0 
2.475716212818e-04 -5.423464177227e-06 0.0 
9.305708949631e-04 4.729347153263e-03 0.0 
1.714547232844e-04 -2.785350628311e-04 0.0 
6.965022910137e-04 2.742182073357e-03 0.0 
6.261224009677e-04 2.721458665128e-03 0.0 
1.838374682787e-04 -2.710083112290e-04 0.0 
1.108425387818e-03 6.420442989976e-04 0.0 
2.489611768478e-04 -2.834827165567e-04 0.0 
1.275184894962e-04 -3.858339731540e-05 0.0 
1.283447660069e-04 -1.024183833472e-04 0.0 
1.557226734190e-03 2.016988184453e-03 0.0 
5.893412004019e-04 3.173450826286e-03 0.0 
1.665802877334e-04 -4.811597058515e-05 0.0 
1.866135040612e-04 -4.809424047529e-05 0.0 
2.605093804464e-04 -3.070323572324e-04 0.0 
1.456256458495e-04 -3.839807577618e-05 0.0 
8.430490121501e-04 4.714869239720e-03 0.0 
1.054826210189e-04 -1.019083032647e-04 0.0 
7.213593127097e-04 5.693086427217e-03 0.0 
7.645207144338e-04 4.198601327082e-03 0.0 
1.215164645470e-03 -3.778819008487e-05 0.0 
5.372376233784e-04 3.635664909093e-03 0.0 
1.414263172488e-04 -1.510211650205e-04 0.0 
1.441185453108e-04 -1.148783593197e-04 0.0 
1.812024650826e-04 -2.154664491482e-04 0.0 
3.859453401456e-04 -2.443658969282e-04 0.0 
7.448445323453e-04 5.193988556815e-03 0.0 
4.870295433364e-04 -1.627141278249e-04 0.0 
2.194208583708e-04 -2.668224232257e-04 0.0 
2.557367869246e-04 -3.334347431650e-04 0.0 
8.281621705669e-04 5.215405384506e-03 0.0 
2.419164323255e-04 -2.710387215697e-04 0.0 
1.525783572300e-04 1.306144163671e-06 0.0 
6.047316502492e-04 4.645966966259e-03 0.0 
1.590124739392e-04 -2.908209986400e-05 0.0 
2.177108225578e-04 2.712443857654e-05 0.0 
1.554565456560e-04 -1.646125679844e-04 0.0 
2.054398860759e-04 -2.748957416046e-04 0.0 
2.510887206239e-04 -3.238045366003e-04 0.0 
2.280172038804e-04 -4.793449255603e-05 0.0 
5.428250825639e-04 6.136033510223e-03 0.0 
2.441951317655e-04 -3.379453046437e-04 0.0 
2.292828877138e-04 -2.217613384126e-04 0.0 
8.820251021931e-05 -2.676196028711e-04 0.0 
8.540998949896e-04 6.241308148856e-03 0.0 
1.938339758491e-04 -2.049674340908e-04 0.0 
2.805255616963e-04 -7.127616385618e-05 0.0 
1.567176076604e-04 -2.118818492642e-04 0.0 
4.096932658545e-04 3.578172666248e-03 0.0 
2.489323736063e-04 -2.491035937225e-04 0.0 
2.950103207700e-04 -4.683340309029e-05 0.0 
3.632362627350e-04 -3.264077776453e-04 0.0 
2.776584558185e-04 -5.909119456836e-05 0.0 
1.126246811314e-04 -1.252750722049e-04 0.0 
2.020207196607e-04 -3.776123330030e-05 0.0 
7.680139142009e-04 -2.432474382349e-04 0.0 
1.090972697695e-04 -2.695778677997e-04 0.0 
6.175163551084e-04 7.192529078052e-03 0.0 
7.057252796821e-04 -6.239678575118e-05 0.0 
1.836562813779e-03 7.946601873219e-04 0.0 
6.151194677016e-04 6.164371093850e-03 0.0 
4.074143220485e-04 -3.214612393223e-04 0.0 
1.168093808836e-03 5.759218012971e-03 0.0 
1.203559422852e-04 -2.803177340646e-04 0.0 
1.993604709072e-04 -1.003445599185e-05 0.0 
7.401493946738e-04 -3.512460968510e-05 0.0 
1.071012845333e-03 9.311661842617e-05 0.0 
5.111168839235e-04 2.205019133026e-03 0.0 
4.737522487909e-04 -1.306616354273e-04 0.0 
2.002572265687e-04 -2.934114083365e-04 0.0 
3.889950032289e-04 -8.498252231897e-05 0.0 
2.048868732299e-04 -7.157676090017e-07 0.0 
4.852223582432e-04 -2.929944903854e-04 0.0 
1.827287136900e-04 -3.804976019483e-05 0.0 
6.808493038293e-04 4.672194886722e-03 0.0 
4.972353560443e-04 -3.228436448172e-04 0.0 
3.314260705633e-04 -7.149326094706e-05 0.0 
1.105337484931e-03 7.303594185738e-03 0.0 
1.209654436438e-04 -2.417090581850e-04 0.0 
2.641313522389e-04 -2.394013160198e-04 0.0 
1.948240616578e-03 6.265432977206e-04 0.0 
2.497054373517e-04 -4.769346198257e-05 0.0 
1.817357554153e-03 1.175344250338e-03 0.0 
1.791109594478e-03 4.619997907639e-04 0.0 
1.005321166640e-03 5.244156535568e-03 0.0 
6.560646225468e-04 6.692423439642e-03 0.0 
1.167699648028e-03 6.785174507775e-03 0.0 
1.361949105532e-04 -1.262728926938e-04 0.0 
3.113538244501e-04 -9.615240669550e-06 0.0 
4.499478773961e-04 -9.933786340230e-05 0.0 
8.484513722231e-04 7.276670440282e-03 0.0 
1.542634881009e-03 1.237393922775e-03 0.0 
1.084978335404e-03 1.357811567622e-04 0.0 
3.019045130640e-04 -5.889070831618e-05 0.0 
6.856386443347e-04 4.177343801775e-03 0.0 
3.484575767930e-04 -2.256372934567e-04 0.0 
3.052425595291e-04 -2.330088977091e-04 0.0 
2.404063654198e-04 -3.023821340574e-04 0.0 
4.151931367647e-04 -6.993936036851e-05 0.0 
2.686603317490e-04 -2.146355725371e-04 0.0 
9.779860788863e-04 5.751268096120e-03 0.0 
1.125894590046e-03 6.274868284410e-03 0.0 
1.080691624223e-03 -8.937975305946e-05 0.0 
3.223146434216e-04 -2.616450478275e-04 0.0 
8.859927304776e-04 -1.580140904717e-04 0.0 
2.891205999543e-04 -2.434360131029e-04 0.0 
3.315790347384e-04 -2.369253411836e-04 0.0 
2.341593155820e-04 -2.909274090751e-04 0.0 
3.833326306292e-04 -1.458542193848e-05 0.0 
4.730420797926e-04 -2.088213464861e-04 0.0 
6.066831282083e-04 3.661359699921e-03 0.0 
5.243815883723e-04 -1.956990575849e-04 0.0 
4.187535734268e-04 -8.462015196528e-05 0.0 
4.651604197559e-04 -1.462814593875e-04 0.0 
1.553011081736e-03 2.062128560520e-04 0.0 
2.131335987648e-04 -2.865567324669e-04 0.0 
2.646719920220e-04 -3.336048643071e-06 0.0 
2.285017901849e-04 3.389906397093e-06 0.0 
2.081419581456e-03 8.184354088121e-04 0.0 
3.762855822665e-04 -2.292214931000e-04 0.0 
4.471169045338e-04 -1.147948064284e-04 0.0 
8.883489656265e-04 5.736994858602e-03 0.0 
3.096452841388e-04 -2.068278622127e-04 0.0 
1.563901090737e-03 4.584833137203e-04 0.0 
2.251252313455e-04 -2.451582478609e-04 0.0 
4.562296527202e-04 -3.145680269403e-04 0.0 
3.937685967508e-04 -2.169532748439e-04 0.0 
2.109467694828e-04 -2.542735876398e-04 0.0 
1.529973615306e-04 -2.559977564142e-04 0.0 
4.328354854170e-04 -1.452256345145e-04 0.0 
3.583658444031e-04 -7.126387940791e-05 0.0 
1.641046132317e-03 6.751037850265e-04 0.0 
2.374187584579e-04 -3.615436707402e-04 0.0 
6.861396208106e-04 -2.084135359656e-04 0.0 
5.742381511591e-04 -2.123911251502e-04 0.0 
4.234803391545e-04 -2.199371717231e-04 0.0 
1.030989222589e-03 6.271006181126e-03 0.0 
4.734767036161e-04 -1.779722016829e-04 0.0 
2.154271841948e-04 -2.318686235542e-04 0.0 
4.413242894079e-04 -2.065981105711e-04 0.0 
4.718875117133e-04 4.096555274578e-03 0.0 
1.916088414990e-04 -2.285106725685e-04 0.0 
2.215036859834e-04 -3.247218284378e-04 0.0 
2.266507234935e-04 -3.088085727694e-04 0.0 
4.583180287250e-04 -3.034328866904e-04 0.0 
3.668836836391e-04 -2.553778924924e-04 0.0 
6.326984303532e-04 -1.954353582915e-04 0.0 
4.906868589366e-04 -1.943792926764e-04 0.0 
3.807687926409e-04 -3.386964971024e-04 0.0 
2.075273014595e-04 -3.042085236566e-04 0.0 
1.591962695040e-03 6.677900699233e-03 0.0 
1.881393432553e-04 -2.505986216933e-04 0.0 
4.066029048968e-04 -2.657234329055e-05 0.0 
1.698545412549e-03 6.222771599678e-04 0.0 
2.722011530129e-03 4.161429334464e-03 0.0 
1.065225709527e-03 3.242913874194e-03 0.0 
1.533190610420e-03 6.969207962312e-04 0.0 
1.155076414358e-03 -6.820651197839e-05 0.0 
1.925376378015e-03 7.278617670984e-04 0.0 
4.250888745608e-04 -3.327314605745e-04 0.0 
3.960863647133e-04 -1.879216066873e-04 0.0 
1.343248348413e-03 6.613526199003e-05 0.0 
5.658660569949e-04 -3.080713487379e-04 0.0 
3.938146943216e-04 -3.474263549632e-04 0.0 
2.947337300655e-04 -2.182610881464e-04 0.0 
5.393808968896e-04 -2.118382950928e-04 0.0 
5.952309929332e-04 -1.963470665139e-04 0.0 
1.784994624222e-04 -2.381253309287e-04 0.0 
5.212661856886e-04 -1.634621336817e-04 0.0 
6.474461381150e-04 -2.108340007276e-04 0.0 
7.535859928565e-04 -1.858544415660e-04 0.0 
3.403453837054e-04 -2.515215363911e-04 0.0 
8.807332433037e-04 -1.944191012157e-06 0.0 
1.100523529132e-03 5.248244349135e-03 0.0 
8.107882698294e-04 -1.922864619388e-04 0.0 
3.325343233699e-04 -7.045397717205e-06 0.0 
4.745436397755e-04 -3.243553055090e-04 0.0 
2.955966225354e-04 1.448239427947e-05 0.0 
5.774002256954e-04 -1.801351513197e-04 0.0 
1.348441424695e-03 6.692070768996e-04 0.0 
2.562440487344e-03 1.789928525541e-03 0.0 
4.296525004225e-04 -3.234521893112e-04 0.0 
2.732441167989e-03 3.405486257354e-03 0.0 
1.359901473246e-03 2.673981501836e-03 0.0 
6.318241102858e-04 -1.619055981108e-04 0.0 
1.208225821016e-03 1.673188332193e-04 0.0 
2.675578917196e-03 2.743684021385e-03 0.0 
1.963769537706e-03 7.795665850062e-04 0.0 
3.996725550152e-04 -3.402400115131e-04 0.0 
5.586010364162e-04 1.347334259337e-03 0.0 
3.592172423008e-04 -3.450474602750e-04 0.0 
5.962581420028e-04 7.509080345999e-05 0.0 
4.385939260830e-04 2.649219858280e-03 0.0 
7.670702920848e-04 -6.338334950438e-06 0.0 
8.970341807588e-04 6.771211184554e-03 0.0 
1.101712936917e-03 3.735110564195e-03 0.0 
7.116425568149e-04 -1.904014973955e-04 0.0 
1.083032617460e-03 -5.618363611096e-05 0.0 
8.503275879768e-04 2.290829749259e-03 0.0 
3.189912683131e-04 -4.607061041988e-05 0.0 
1.216121789584e-03 4.732097904931e-03 0.0 
6.565673227994e-04 -4.956742819427e-05 0.0 
4.457300242087e-04 -3.329413655692e-04 0.0 
1.317559293004e-03 4.205864978613e-03 0.0 
7.109133030273e-04 2.426454697344e-04 0.0 
2.427236496942e-04 5.759928062064e-06 0.0 
4.266404268891e-04 -1.904327021766e-04 0.0 
9.842863950979e-04 6.786635979305e-03 0.0 
1.016829599458e-03 7.308917760552e-03 0.0 
5.414080754040e-04 -1.800399724482e-04 0.0 
3.798939566107e-04 -5.693638542091e-05 0.0 
3.964364624181e-04 -4.191941142972e-05 0.0 
2.326414306700e-04 -3.192536338775e-04 0.0 
7.865723133300e-04 -1.655146135777e-04 0.0 
8.894433568899e-04 -1.615883392903e-04 0.0 
7.675506959190e-04 -1.993833113437e-04 0.0 
1.710669857636e-03 4.103210463746e-04 0.0 
6.857170110414e-04 1.826692058328e-03 0.0 
1.720418283688e-03 1.766938790784e-03 0.0 
4.974586577145e-04 2.676204317649e-03 0.0 
2.052686882232e-03 1.521113913429e-03 0.0 
1.600904656034e-03 3.579261538669e-03 0.0 
3.528252344469e-04 -5.789853410662e-05 0.0 
6.382929083357e-04 2.265632869125e-03 0.0 
1.534865079724e-03 4.644074366017e-03 0.0 
4.411480619533e-04 -1.762488470981e-04 0.0 
9.503367983459e-04 -1.578167592767e-04 0.0 
1.215742848710e-03 4.225313628954e-03 0.0 
9.243089116660e-04 2.760629293806e-03 0.0 
9.331611829904e-04 4.229496094385e-03 0.0 
1.116563502523e-03 4.739814739200e-03 0.0 
2.717329269521e-04 -1.375271730341e-05 0.0 
7.417363624173e-04 9.928901155353e-05 0.0 
3.357243405265e-04 -1.969463711347e-05 0.0 
3.887086514287e-04 -9.935659164132e-05 0.0 
2.357631952876e-03 3.704618000666e-03 0.0 
7.847513582683e-04 2.308656608915e-05 0.0 
2.088701913043e-03 4.184938697436e-03 0.0 
1.750110143461e-04 -2.592600269035e-04 0.0 
8.422587740619e-04 -1.716772751149e-04 0.0 
8.196168890211e-04 -1.239698506188e-04 0.0 
1.056545750941e-03 -2.311986569778e-05 0.0 
6.339294604620e-04 -2.728755167993e-04 0.0 
9.020163465362e-04 -1.717699666828e-04 0.0 
9.990934780976e-04 7.438653087715e-06 0.0 
2.554751380285e-03 2.704986940010e-03 0.0 
4.223759673347e-04 -1.599349483671e-04 0.0 
1.598903688304e-03 5.642907904631e-03 0.0 
8.335383636781e-04 8.945110660433e-03 0.0 
2.864181625973e-04 1.838463005329e-04 0.0 
4.156362487642e-04 -1.144511643137e-04 0.0 
6.992133413004e-04 1.448309734763e-06 0.0 
1.447058022457e-03 1.582113498958e-03 0.0 
1.056762651194e-03 -8.288704206632e-05 0.0 
4.099466586824e-04 -1.292621684396e-04 0.0 
1.270060552366e-03 5.749189677091e-03 0.0 
3.386802552930e-04 4.211434327991e-04 0.0 
8.126661718394e-04 5.098488634574e-06 0.0 
9.882673917528e-04 -6.599809361264e-05 0.0 
2.649599466227e-03 2.784992913228e-03 0.0 
3.695093927361e-04 -4.367951578011e-05 0.0 
5.431100585105e-04 -3.149659292012e-04 0.0 
3.801751137139e-04 -2.911171551320e-05 0.0 
3.192282628401e-04 4.601340729265e-06 0.0 
9.321346550564e-04 1.289469274390e-05 0.0 
1.023951428059e-03 4.235875866755e-03 0.0 
1.448883402075e-03 3.615733043501e-04 0.0 
3.000743504510e-04 1.603815974245e-06 0.0 
4.241887897022e-04 7.665039416507e-04 0.0 
1.409307624037e-03 5.204314874337e-03 0.0 
8.614141778141e-04 1.557232379982e-04 0.0 
1.009479803326e-03 3.737955967728e-03 0.0 
1.003639573475e-03 -1.631696493529e-05 0.0 
9.891475408323e-04 -1.340515206347e-04 0.0 
2.422936444544e-04 -1.202383133852e-04 0.0 
4.684679076712e-04 -2.447831829325e-04 0.0 
8.110620908008e-04 3.232735067259e-03 0.0 
1.432741703194e-04 -2.442174197213e-04 0.0 
5.827860791875e-04 1.260320829585e-03 0.0 
1.650795054706e-03 4.795379916056e-04 0.0 
4.526755552797e-04 2.181908764531e-03 0.0 
4.871733888867e-04 -3.290637240986e-04 0.0 
2.096830505810e-03 8.078523612875e-04 0.0 
1.425197298192e-03 4.686464949940e-03 0.0 
3.426857184348e-04 -1.402670167419e-04 0.0 
6.111836696740e-04 -2.871744291572e-04 0.0 
1.108021108433e-03 1.291039704371e-04 0.0 
4.112714230206e-04 -3.467146668565e-04 0.0 
5.079694843932e-04 -3.246801143647e-04 0.0 
4.565220817712e-04 -3.373722476223e-04 0.0 
1.044683384768e-03 -4.901190009105e-05 0.0 
2.981512471855e-04 4.214563133079e-04 0.0 
9.246120579795e-04 2.028071855151e-03 0.0 
2.147475992093e-04 -8.790732275556e-06 0.0 
1.051295825582e-03 -1.226045780429e-04 0.0 
1.748128909816e-03 5.036875036981e-03 0.0 
5.459667459435e-04 -2.488952299014e-04 0.0 
2.759502159862e-04 1.110336255180e-05 0.0 
4.377704333620e-04 -3.397382284011e-04 0.0 
1.442724639564e-04 -2.218071412018e-04 0.0 
9.617104286819e-04 5.045908069824e-05 0.0 
6.531911747514e-04 -1.779608560003e-04 0.0 
9.041521098509e-04 1.322756062850e-04 0.0 
1.388471909341e-03 4.556699369837e-04 0.0 
1.954236281998e-03 3.810777276065e-03 0.0 
6.205135593403e-04 8.634969223421e-05 0.0 
1.302048559723e-03 5.230499178987e-03 0.0 
1.492264217765e-03 1.514037249160e-03 0.0 
1.396192957943e-03 3.675112801385e-03 0.0 
1.442874421950e-03 3.146466347995e-03 0.0 
6.533741541904e-04 -1.058388628378e-04 0.0 
2.173433264293e-04 -1.785141497231e-05 0.0 
1.528292574520e-03 4.133263137447e-03 0.0 
1.327528018890e-03 3.065141451424e-05 0.0 
1.860141514415e-03 3.227543322043e-03 0.0 
5.226588629133e-04 8.293751508869e-05 0.0 
7.013621615465e-04 -2.107083589633e-04 0.0 
1.556479423018e-04 -2.350063994460e-04 0.0 
9.748202487382e-04 1.238875504693e-04 0.0 
2.159202185441e-05 -2.705665808270e-04 0.0 
1.694575143972e-03 3.248631795435e-04 0.0 
8.304495859856e-04 3.628962998665e-05 0.0 
1.172777552825e-03 2.264771647996e-03 0.0 
1.112724805991e-03 1.788241947517e-03 0.0 
9.097658113094e-04 3.314043628814e-05 0.0 
1.156823786275e-03 3.232576018968e-03 0.0 
1.163732798562e-03 -6.432872630229e-05 0.0 
1.853454728901e-03 7.223534321824e-04 0.0 
2.043751191255e-03 5.453627162850e-03 0.0 
1.615603782272e-03 1.120833195335e-03 0.0 
1.807457539948e-03 7.364309120033e-03 0.0 
1.886531436943e-03 7.811081026560e-03 0.0 
1.138836249011e-03 -6.612268727871e-05 0.0 
1.941160411328e-03 7.987638730621e-03 0.0 
1.581369104411e-03 2.325637365543e-04 0.0 
1.413944458421e-03 1.034275953768e-04 0.0 
9.203771914928e-04 -1.389075029661e-04 0.0 
5.680693955545e-04 -2.983843851296e-04 0.0 
1.042401135930e-03 -1.157407218665e-04 0.0 
8.441617861281e-04 2.758003220723e-03 0.0 
1.524081856337e-03 1.323079720204e-03 0.0 
2.631559668499e-04 -3.625138893623e-05 0.0 
7.795019586696e-04 1.162751792898e-04 0.0 
6.934418185175e-04 -1.753474598662e-04 0.0 
1.346109520621e-03 3.185741727616e-03 0.0 
9.717609236256e-04 -1.253238917165e-04 0.0 
1.698966662677e-04 -1.200365247744e-05 0.0 
1.295127457959e-03 3.705324058627e-03 0.0 
1.702766254006e-03 3.510059504671e-03 0.0 
8.926663545793e-04 -2.348751438724e-05 0.0 
1.107047886566e-03 -9.628677027845e-05 0.0 
1.589950415286e-03 6.012283082792e-04 0.0 
2.623999284012e-03 2.022823367460e-03 0.0 
5.483121063636e-04 -3.095689777161e-04 0.0 
6.789543993510e-04 -2.350022370161e-04 0.0 
1.447314009736e-03 4.012161497818e-04 0.0 
2.186872934109e-03 9.556627296389e-04 0.0 
1.281088108382e-04 -7.259015560956e-06 0.0 
1.636239371283e-03 4.076687254353e-03 0.0 
1.052517232927e-03 -1.205639143858e-04 0.0 
2.174581354437e-03 9.239424779797e-04 0.0 
7.062387997201e-04 2.739375979608e-05 0.0 
8.928454503984e-04 3.243133204644e-03 0.0 
1.500738752689e-03 6.324263442910e-04 0.0 
1.832044930512e-03 5.483274913029e-03 0.0 
4.913232940695e-04 2.400773888879e-06 0.0 
1.001085545694e-03 -1.005203819552e-04 0.0 
6.662966625067e-04 1.719232702670e-05 0.0 
1.776943002963e-03 4.128018781833e-04 0.0 
9.297439642228e-04 2.300647029278e-03 0.0 
1.327062387595e-03 6.116541390110e-04 0.0 
9.451040461604e-04 -5.619334293828e-05 0.0 
6.269803666929e-04 -2.482174111867e-04 0.0 
1.306625985579e-03 3.138292618498e-04 0.0 
1.710633901283e-03 3.299087062937e-04 0.0 
1.108488417638e-03 -9.606697331953e-05 0.0 
9.486138617090e-04 -3.240424865419e-05 0.0 
4.625753455954e-04 -2.002610750663e-05 0.0 
6.076933848703e-04 -2.680775627675e-04 0.0 
9.709395189457e-04 -9.080316952142e-05 0.0 
2.672341471175e-03 3.003991376551e-03 0.0 
1.161398644803e-04 -7.928162824072e-06 0.0 
2.583390873466e-03 2.402832246712e-03 0.0 
1.511813194562e-03 4.173509078206e-04 0.0 
2.701102644010e-03 3.694902533067e-03 0.0 
2.540606709748e-03 5.288682808918e-03 0.0 
2.477455886315e-03 1.582384538938e-03 0.0 
8.172909193052e-04 9.347917867088e-05 0.0 
2.507519392888e-04 -2.602861811985e-05 0.0 
1.758509374824e-03 4.514408727562e-03 0.0 
1.040138873828e-03 1.819079388578e-03 0.0 
2.659038586693e-03 4.464712292223e-03 0.0 
9.336429128220e-04 -1.699110165351e-04 0.0 
1.207953420248e-03 3.073048624151e-04 0.0 
7.041690438525e-04 2.271055879105e-03 0.0 
1.538961906837e-03 1.817550818092e-04 0.0 
1.668405608598e-03 2.899530778728e-04 0.0 
1.002243338758e-03 -1.478383236836e-04 0.0 
1.850450881529e-03 3.917501941463e-03 0.0 
1.876374957690e-03 1.065020871323e-03 0.0 
1.523139929753e-03 2.102218344470e-04 0.0 
1.793730584771e-03 8.812126226751e-04 0.0 
9.773519679256e-04 8.804233886687e-05 0.0 
9.100116090079e-04 2.399140177390e-04 0.0 
9.559784376931e-04 -1.645199091903e-04 0.0 
4.616582868138e-04 -2.687496850029e-04 0.0 
1.247045013841e-03 1.705491363043e-03 0.0 
2.096581863517e-03 1.375962937206e-03 0.0 
7.559350887263e-04 -1.516451539321e-04 0.0 
1.042051514499e-03 2.581920569157e-04 0.0 
1.870859287098e-03 4.424425448670e-03 0.0 
3.072781150149e-04 -3.435082691736e-05 0.0 
1.280730436189e-03 1.587560539391e-05 0.0 
4.250948671116e-04 -2.774362735726e-04 0.0 
8.120321128544e-05 -3.771681688597e-06 0.0 
2.052506545251e-03 7.228173243882e-04 0.0 
1.222658194809e-03 1.276968666843e-04 0.0 
1.402713141352e-03 5.033206523779e-04 0.0 
3.670146681747e-04 -2.704858353467e-04 0.0 
3.307275172741e-04 -3.292188096329e-05 0.0 
9.463628794354e-04 -2.217528388034e-05 0.0 
1.952331428323e-03 5.371279039452e-03 0.0 
3.280662089601e-04 -1.117035590426e-04 0.0 
1.004905277176e-03 -1.455778630676e-04 0.0 
1.554131785825e-04 -1.286288703322e-05 0.0 
1.660163094242e-03 2.958999544696e-04 0.0 
9.478500195401e-04 -1.708749074464e-04 0.0 
2.080539568180e-03 7.622182197924e-04 0.0 
4.191942481769e-04 -2.983203314721e-04 0.0 
1.852824281360e-03 6.332207818835e-04 0.0 
9.261324695022e-04 6.824688208755e-05 0.0 
1.150200853410e-03 5.825129195161e-04 0.0 
1.637450940110e-03 5.475893109427e-04 0.0 
7.618373467758e-04 -2.263992330816e-04 0.0 
2.420971406771e-04 -3.691096157633e-05 0.0 
6.197055924550e-04 1.809544261256e-03 0.0 
4.299791990821e-04 8.133976600336e-05 0.0 
9.257246544449e-04 1.020772905915e-04 0.0 
1.222380498601e-03 -3.413020136769e-05 0.0 
2.000042088167e-03 7.044335189166e-04 0.0 
9.332476431318e-05 -8.920902115905e-06 0.0 
7.515790257273e-05 -1.132093906123e-04 0.0 
1.719808159807e-03 5.530245979424e-04 0.0 
1.632431411479e-03 5.109964792342e-03 0.0 
2.002491319149e-04 -1.880832563273e-05 0.0 
3.132038137687e-04 -2.174469821318e-05 0.0 
3.380549706013e-04 9.453728093484e-03 0.0 
2.273467959166e-04 9.455323834240e-03 0.0 
2.574586858175e-03 2.862928488876e-03 0.0 
1.896173406351e-03 6.225158893223e-04 0.0 
2.784840044651e-04 -9.648675706231e-05 0.0 
2.437351781559e-03 1.571158943388e-03 0.0 
1.552904723790e-03 1.974902618825e-04 0.0 
4.673743394426e-04 3.319907160894e-05 0.0 
1.283851508062e-03 5.177202757631e-06 0.0 
2.706284668455e-04 4.467797429453e-04 0.0 
2.469622837005e-03 6.167862472904e-03 0.0 
1.589470420937e-03 2.208708513769e-04 0.0 
3.563321344540e-04 -1.128289930584e-04 0.0 
7.601132151013e-04 -1.950161765816e-04 0.0 
3.916125335856e-04 -1.580474014911e-04 0.0 
2.006433244851e-03 6.787749548654e-04 0.0 
2.316793661307e-03 1.166621074359e-03 0.0 
1.980765319902e-03 4.834895884512e-03 0.0 
2.318170421286e-03 1.374332241209e-03 0.0 
2.235480007956e-03 1.338450468166e-03 0.0 
7.029790307547e-05 -2.932651467496e-04 0.0 
3.798305660284e-04 -1.718502047328e-04 0.0 
2.006847648459e-03 1.153181144483e-03 0.0 
2.633662394558e-03 2.240030323945e-03 0.0 
2.565117938355e-03 2.178644373489e-03 0.0 
6.763300999553e-04 7.196317374443e-05 0.0 
1.050716249860e-05 -2.614431267673e-04 0.0 
5.453273207939e-04 -2.950826579666e-04 0.0 
1.919998400620e-03 5.612474309699e-04 0.0 
3.504997286004e-04 -1.693267148135e-04 0.0 
2.034372051139e-03 7.224469932193e-03 0.0 
2.079347426352e-03 7.551692901351e-03 0.0 
2.094822545377e-03 4.702133798676e-03 0.0 
6.026754422880e-04 -7.807319422032e-05 0.0 
3.222943999553e-04 -1.250656635272e-04 0.0 
6.593866210158e-04 -7.267299244826e-06 0.0 
5.622055193218e-04 -2.790747479625e-04 0.0 
5.623008804235e-04 1.818463008405e-04 0.0 
1.183543599023e-03 2.743485684489e-03 0.0 
2.604785889255e-04 -1.344170609731e-04 0.0 
2.125989186016e-04 -2.764510142037e-05 0.0 
1.347521774963e-04 -3.113884692556e-04 0.0 
6.424836278916e-04 -3.156408731596e-05 0.0 
1.964571014616e-03 6.056592998150e-04 0.0 
1.021202859142e-04 -3.060394003410e-04 0.0 
1.095323364660e-03 2.760108718598e-03 0.0 
5.333987408831e-04 -2.706496262210e-04 0.0 
2.592288692465e-03 2.006323734150e-03 0.0 
2.229319589847e-03 1.001793325958e-03 0.0 
7.785929394048e-04 -1.660672902626e-04 0.0 
5.891270738725e-04 -9.414165982932e-05 0.0 
1.093184579931e-03 2.295000451028e-03 0.0 
5.445584276523e-04 -6.227014889124e-05 0.0 
1.793551236561e-03 4.107154427557e-04 0.0 
1.833690802866e-03 4.586985129746e-04 0.0 
2.670750230363e-04 9.713368011607e-05 0.0 
4.918471356665e-04 -2.802309363049e-04 0.0 
1.422400877922e-03 4.127179488039e-04 0.0 
2.484603662914e-03 5.001457963853e-03 0.0 
1.260798520103e-03 3.504159458987e-04 0.0 
9.784621859980e-04 3.227824955231e-05 0.0 
2.085966215571e-03 2.392909937766e-03 0.0 
1.352882716873e-03 4.462499387131e-04 0.0 
2.338883382479e-03 6.844181268415e-03 0.0 
1.479025518368e-03 4.694697455892e-04 0.0 
1.942107310565e-04 -2.825434257088e-05 0.0 
1.837849152183e-03 5.118903201345e-04 0.0 
3.718025274008e-04 -1.421611622881e-04 0.0 
3.796771344152e-04 -1.280852430892e-04 0.0 
1.312888263039e-03 1.659798654870e-03 0.0 
6.178275564149e-04 -1.278315049740e-04 0.0 
2.167310184478e-03 8.933838530112e-04 0.0 
1.337679944989e-03 5.732200628643e-05 0.0 
4.840802727297e-04 -3.397559538709e-05 0.0 
1.465423968359e-03 1.238017643262e-04 0.0 
7.848585680606e-04 -2.291968670533e-04 0.0 
8.832386861024e-04 -9.212975885345e-05 0.0 
8.751989757060e-04 -1.905639984004e-04 0.0 
2.490625791041e-03 1.762203296681e-03 0.0 
8.384154585153e-04 -2.115036683193e-04 0.0 
2.408712264309e-03 1.394610188930e-03 0.0 
7.761400741807e-04 7.741222963599e-05 0.0 
8.333543108969e-04 6.621488477728e-05 0.0 
1.409734963919e-03 8.694308845349e-05 0.0 
2.189201180783e-03 5.076775183518e-03 0.0 
1.673774566846e-04 -2.027680133902e-05 0.0 
1.514712055379e-04 -2.081603173762e-05 0.0 
4.950605852563e-04 -6.274732621897e-05 0.0 
2.308746410489e-03 1.229916592106e-03 0.0 
9.042816152877e-05 -3.238360499044e-06 0.0 
1.648703835392e-03 1.849907046129e-03 0.0 
2.485108470104e-04 -1.079141859181e-04 0.0 
2.958487590731e-04 1.217226280869e-04 0.0 
1.275379810779e-04 -1.407126469493e-05 0.0 
7.915597777478e-04 -2.039375494550e-04 0.0 
6.126539173658e-05 -1.025315887746e-04 0.0 
1.287911201194e-03 1.608784305078e-04 0.0 
2.300848147847e-03 4.897273022260e-03 0.0 
2.378871811947e-03 5.231967254178e-03 0.0 
1.908394882313e-03 5.415178546315e-04 0.0 
1.989915677246e-03 5.662989119947e-03 0.0 
1.983496481480e-03 6.573313143174e-03 0.0 
1.139478311541e-04 -1.453068279721e-05 0.0 
5.871586032433e-04 -7.644462956355e-05 0.0 
7.731177016955e-04 -1.311872151670e-04 0.0 
6.823174042042e-04 -2.448853119342e-05 0.0 
8.970339453120e-04 -1.273569379119e-04 0.0 
8.513645162233e-04 -1.857955135077e-04 0.0 
1.802681920105e-03 6.569665623882e-03 0.0 
2.457396010071e-03 5.892736377732e-03 0.0 
2.827513955740e-04 9.745601067922e-03 0.0 
7.896160447528e-04 5.157627708649e-05 0.0 
1.342159925785e-03 3.895235243042e-05 0.0 
5.517668635182e-04 9.434888378195e-05 0.0 
4.789954848859e-05 -1.637716069620e-05 0.0 
9.182716506960e-04 -1.040561142285e-04 0.0 
7.486927149596e-05 2.583434390228e-07 0.0 
8.153204262287e-04 -2.258839023540e-04 0.0 
7.219143017456e-04 1.312143300284e-04 0.0 
1.823682702012e-03 4.491229155675e-04 0.0 
1.664639179000e-03 3.833943215625e-04 0.0 
4.545334734878e-04 1.306965784130e-05 0.0 
4.342893816672e-04 -2.355185286393e-04 0.0 
2.256357512472e-03 1.066679738526e-03 0.0 
8.478694833470e-04 -1.373474723377e-04 0.0 
2.336560413972e-03 1.200948861958e-03 0.0 
1.067730352145e-03 6.280552087537e-05 0.0 
1.491815518830e-03 2.877123279874e-04 0.0 
8.240281466998e-04 -1.589869732164e-04 0.0 
3.047536842702e-04 -9.736832837762e-05 0.0 
2.416971236773e-03 1.379509889216e-03 0.0 
3.133970598922e-04 -4.504263327649e-05 0.0 
1.310032942812e-03 8.275983079018e-05 0.0 
3.843022718316e-04 1.141921537410e-04 0.0 
1.951393191790e-04 -3.104451836493e-04 0.0 
2.743352617148e-04 -1.092107428326e-04 0.0 
1.813346452903e-03 7.924910352946e-04 0.0 
2.501359579903e-03 4.483123208148e-03 0.0 
2.116865156372e-03 3.500432639399e-03 0.0 
1.394513695477e-04 2.133707556930e-04 0.0 
2.542485173692e-04 1.822390109375e-05 0.0 
2.201881168479e-03 4.526292636988e-03 0.0 
7.411875779889e-04 -1.166840663643e-04 0.0 
2.168921591982e-04 -1.186600467129e-04 0.0 
2.486495581094e-03 3.836045709223e-03 0.0 
7.075931159286e-04 -2.462343899156e-04 0.0 
6.246956848835e-04 -1.096709008337e-04 0.0 
1.922224089618e-03 5.752326142776e-04 0.0 
1.241682799279e-03 1.042759572501e-04 0.0 
1.829195848886e-03 1.192327837954e-03 0.0 
5.447860722437e-04 -9.362825364178e-05 0.0 
2.871936622818e-04 -1.363366093061e-04 0.0 
1.989491159084e-04 -1.053118682637e-04 0.0 
3.282911621506e-04 -2.753663176451e-04 0.0 
2.307757861545e-03 6.983008212369e-03 0.0 
2.583415493638e-03 4.242298572905e-03 0.0 
1.794002957608e-05 -3.791431267292e-05 0.0 
1.186257921471e-04 -3.128461478110e-04 0.0 
3.374383974785e-04 -2.548406175156e-04 0.0 
3.010447133166e-04 -3.157824061918e-04 0.0 
1.749328688855e-04 -1.041608251015e-04 0.0 
8.661652444706e-04 -2.010415642589e-04 0.0 
7.062072128098e-04 -2.559929438931e-04 0.0 
7.527329066863e-04 -2.456602664335e-04 0.0 
2.283621294462e-04 -9.456546082393e-05 0.0 
2.545342498967e-03 3.083901542748e-03 0.0 
1.576051004186e-04 -9.169526277137e-05 0.0 
9.100534128131e-04 -1.865332151708e-04 0.0 
2.236802481453e-03 1.080547168959e-03 0.0 
1.417423611686e-03 7.777168719839e-03 0.0 
1.140904934195e-03 1.642275877936e-04 0.0 
1.348745245844e-04 -9.099071203862e-05 0.0 
2.042018836003e-04 -9.354140984180e-05 0.0 
1.170215269091e-03 2.186606311159e-03 0.0 
8.197263236620e-04 -2.034090251159e-04 0.0 
1.180029967813e-04 -7.937699191943e-05 0.0 
5.856919746653e-05 5.916557201552e-03 0.0 
6.218973395409e-05 6.902296469597e-03 0.0 
1.583036697487e-03 2.781123705163e-03 0.0 
1.848954050030e-04 -8.113843758933e-05 0.0 
6.044001252944e-04 -2.683820219629e-04 0.0 
4.920462389775e-04 1.700900375003e-04 0.0 
6.873871561974e-04 1.147472286637e-04 0.0 
3.426350681444e-04 -3.333663644069e-04 0.0 
6.020066394255e-04 -2.557930682903e-04 0.0 
1.363018868104e-03 8.888448267950e-05 0.0 
2.250855813811e-03 4.175705448191e-03 0.0 
9.624556904314e-05 -7.907045492726e-05 0.0 
2.112035531036e-05 -2.329043423679e-04 0.0 
2.347195406766e-03 6.733653878188e-03 0.0 
1.623148688442e-04 -8.044333368112e-05 0.0 
7.127274038806e-04 -1.563782677063e-04 0.0 
2.948331325151e-04 -1.234544186325e-04 0.0 
3.389606790213e-04 -1.132505452204e-04 0.0 
8.096997427584e-05 3.022359261270e-03 0.0 
6.972233283479e-04 -2.222497062178e-04 0.0 
5.755286192307e-04 4.142386283368e-05 0.0 
1.590202646150e-03 3.209527389503e-04 0.0 
1.441582606201e-04 -6.900727971654e-05 0.0 
1.225769643915e-04 -6.864548868760e-05 0.0 
8.224228817950e-04 -2.204164724344e-04 0.0 
3.364760329611e-04 -3.571387142485e-04 0.0 
3.433813835959e-04 -7.291707460234e-05 0.0 
1.053827477122e-04 -5.807477113290e-05 0.0 
4.844282961964e-04 1.895295574165e-05 0.0 
5.099780697741e-04 -2.686497410518e-04 0.0 
2.123709738257e-03 9.505332640334e-04 0.0 
1.352801202761e-03 1.426525888549e-03 0.0 
2.258308672223e-03 1.220864239935e-03 0.0 
1.516007526103e-04 9.809639583650e-06 0.0 
2.741888631696e-04 -2.366537547987e-04 0.0 
1.257655746295e-05 2.613801415775e-04 0.0 
3.369199883676e-06 7.330214063062e-07 0.0 
3.655491192283e-05 8.462106054951e-03 0.0 
5.865877692037e-04 -2.276533790291e-04 0.0 
1.757612965569e-03 4.308056775145e-04 0.0 
9.045869330775e-04 -1.906277528109e-04 0.0 
2.031249965264e-04 -3.205134273224e-04 0.0 
2.746235148188e-04 4.152632262606e-05 0.0 
3.547833317769e-04 2.155902612880e-03 0.0 
2.611758587988e-03 3.514380706136e-03 0.0 
2.090175922751e-03 7.640539211997e-03 0.0 
2.598519084443e-04 7.667310186307e-05 0.0 
2.084344946148e-05 -2.522563710334e-04 0.0 
2.285294459783e-04 6.115918891681e-05 0.0 
2.557044381052e-03 3.758493788216e-03 0.0 
4.858522636154e-04 -2.246341579208e-04 0.0 
1.757275722704e-03 4.017530325935e-04 0.0 
5.618673582832e-04 -2.422824710657e-04 0.0 
5.571381482955e-04 2.810526096785e-04 0.0 
5.045908214194e-04 -2.547212389342e-04 0.0 
2.472240946774e-03 2.488131557953e-03 0.0 
4.720138016462e-05 -1.045252483210e-05 0.0 
6.671970311511e-04 -2.387521593512e-04 0.0 
2.125343448231e-03 1.064536218034e-03 0.0 
2.936393440712e-04 -2.629503638721e-04 0.0 
7.827148376529e-04 -2.222879033250e-04 0.0 
2.209485022596e-03 2.801174290819e-03 0.0 
4.142373971426e-04 -2.476790355883e-04 0.0 
4.555774504852e-04 -2.784947067188e-04 0.0 
1.676673450212e-03 3.293368079577e-04 0.0 
4.614208281761e-04 -3.360003515373e-04 0.0 
7.095360211885e-04 1.373613426713e-03 0.0 
8.911837941116e-04 1.747573112335e-03 0.0 
4.004423867071e-04 -2.729215150642e-04 0.0 
6.981239943153e-04 -1.217365165311e-04 0.0 
1.441221189536e-03 1.091844363348e-04 0.0 
2.062688443301e-03 9.435746652786e-04 0.0 
1.310356815555e-03 9.585063045817e-04 0.0 
1.253862003230e-03 2.542919707990e-03 0.0 
1.129342913410e-04 4.893111262296e-03 0.0 
1.111706646950e-03 4.809210245655e-04 0.0 
8.535963091688e-04 -2.106035318185e-04 0.0 
3.757466859768e-04 1.798196536981e-04 0.0 
1.555300524004e-03 1.554016083315e-03 0.0 
6.461937833475e-04 -1.438867133783e-04 0.0 
2.279957717942e-03 1.488438204700e-03 0.0 
6.868464331761e-04 -1.409727791079e-04 0.0 
4.477851842534e-04 -1.166070370498e-04 0.0 
6.665930750462e-04 -8.740137045709e-05 0.0 
6.386959569672e-04 4.162719316550e-04 0.0 
1.370900278201e-03 6.402482254590e-05 0.0 
6.643394729552e-04 -1.064898466611e-04 0.0 
1.602574160228e-03 2.959478702664e-04 0.0 
4.109322332269e-04 6.106499139789e-03 0.0 
3.736465564825e-04 -2.694426398755e-04 0.0 
4.396952062933e-04 7.841530698721e-05 0.0 
6.249808163452e-04 -7.288539436385e-05 0.0 
7.437107841443e-04 5.874736232347e-04 0.0 
3.350785826473e-04 -2.318862310422e-04 0.0 
3.089057574580e-05 1.972356202695e-03 0.0 
4.067008553963e-05 2.950119554297e-03 0.0 
3.046935507877e-04 -3.684142474212e-04 0.0 
6.174062803455e-04 -5.482606063648e-05 0.0 
3.148384163005e-04 -2.968514922418e-04 0.0 
3.100671793552e-04 -2.843554005520e-04 0.0 
1.865538852673e-03 8.873248940940e-04 0.0 
1.527834629601e-03 2.401691146710e-04 0.0 
1.917160052225e-03 8.186918307619e-04 0.0 
7.429170553159e-04 -2.295485662295e-04 0.0 
6.169288814972e-04 9.775944524581e-03 0.0 
1.048320346992e-04 6.675572614166e-06 0.0 
2.974909157088e-04 -3.045220791572e-04 0.0 
6.645325986304e-04 4.054338048010e-05 0.0 
1.478193430867e-03 1.437571643234e-04 0.0 
7.987396376331e-05 -2.760366557675e-04 0.0 
2.449040585976e-03 1.898098818049e-03 0.0 
8.637698175409e-04 -1.929814656845e-04 0.0 
3.478681078880e-04 -3.633569043965e-04 0.0 
7.418322834003e-04 -2.482544689511e-04 0.0 
9.664246855739e-06 -4.638487042063e-05 0.0 
2.477807516044e-03 2.288342670955e-03 0.0 
3.417941888818e-04 -3.425065461090e-04 0.0 
4.134911341531e-05 -1.049747814824e-04 0.0 
2.082282267587e-03 1.154933491175e-03 0.0 
1.078131921126e-03 1.753149388446e-04 0.0 
4.506252698402e-04 -2.649145583116e-04 0.0 
4.258119775447e-05 -2.322235971168e-04 0.0 
1.433211442647e-03 1.301600269276e-04 0.0 
3.021850040322e-05 6.431952705696e-03 0.0 
3.627670629900e-04 -3.603085732590e-04 0.0 
7.589232907762e-04 2.896557900040e-04 0.0 
8.044602183613e-04 6.812731584440e-04 0.0 
1.304410579891e-04 7.799900832712e-03 0.0 
6.260338439679e-04 1.380730319915e-03 0.0 
7.731182486823e-04 5.017433750545e-04 0.0 
7.366909674146e-04 -2.177665374253e-04 0.0 
6.309955042384e-04 -2.410899512002e-04 0.0 
3.200382025268e-04 4.375616431419e-05 0.0 
2.805760640997e-04 -2.097176346901e-04 0.0 
1.033628696288e-05 -2.427399020830e-04 0.0 
3.019306758241e-05 -9.606027724557e-05 0.0 
4.219715708607e-04 -2.621699063411e-04 0.0 
6.375326897869e-04 -2.658815597665e-04 0.0 
4.940351465614e-04 8.411256212912e-04 0.0 
5.842003502883e-04 1.071683239321e-03 0.0 
1.211348417888e-03 7.828146801939e-03 0.0 
7.830159688561e-04 -2.312352520690e-04 0.0 
1.104638702802e-04 -2.307229981235e-04 0.0 
1.329502159020e-03 2.701405887580e-04 0.0 
3.479029615465e-05 2.732299726065e-06 0.0 
4.595939603774e-05 3.510113584686e-06 0.0 
6.223283187396e-04 -2.270079628288e-04 0.0 
1.497687035517e-03 8.209062745971e-03 0.0 
3.186396451515e-04 -2.679323965902e-04 0.0 
3.915685355090e-04 4.706647824470e-04 0.0 
4.498428083021e-04 -3.349815387063e-04 0.0 
4.416671382913e-04 6.377171074453e-04 0.0 
1.449693560913e-03 1.615512223793e-04 0.0 
5.407721277036e-04 -2.694994667203e-04 0.0 
6.713407308306e-04 -2.509548142448e-04 0.0 
3.767587324167e-04 -3.197918096230e-04 0.0 
9.371595384785e-05 2.667025531483e-03 0.0 
5.686190430062e-04 -2.563401719554e-04 0.0 
3.071235161855e-04 2.110256393032e-03 0.0 
2.427636503998e-04 3.545385744186e-03 0.0 
3.777894339214e-05 5.772359659073e-04 0.0 
7.570895178017e-06 1.273953125891e-06 0.0 
6.852614547370e-05 7.910386138337e-03 0.0 
5.286331946257e-04 -2.415132637130e-04 0.0 
7.030973781506e-04 1.621562504986e-03 0.0 
5.184963512767e-04 -2.263313416190e-04 0.0 
1.308218175652e-05 1.051648692327e-06 0.0 
3.222721850748e-04 2.168955690660e-04 0.0 
3.528585320186e-04 3.322385374447e-04 0.0 
6.461399078646e-04 6.071238567223e-05 0.0 
1.082697578612e-03 8.752304108482e-03 0.0 
1.824314232274e-04 2.026971451592e-03 0.0 
2.032007456925e-03 1.034487242317e-03 0.0 
9.052139205842e-04 1.778197653674e-04 0.0 
2.019711457000e-03 1.426336862837e-03 0.0 
4.466679396703e-04 7.570225853983e-03 0.0 
4.050190197091e-04 -2.861466332437e-04 0.0 
4.315003845078e-04 -2.889751729278e-04 0.0 
1.388074684402e-04 5.385857333128e-03 0.0 
1.055419905592e-03 2.079478817179e-04 0.0 
1.804997405102e-03 8.287347801002e-03 0.0 
2.276761086711e-04 8.894646246865e-03 0.0 
2.815991226768e-04 8.027257996031e-03 0.0 
5.103520234897e-04 7.686855072365e-03 0.0 
4.458823797586e-04 -3.069595965513e-04 0.0 
3.827761275781e-04 -2.954264409087e-04 0.0 
2.819535762724e-04 1.276491469826e-03 0.0 
5.169016625170e-04 6.634270074388e-03 0.0 
2.964505794566e-04 5.763063256683e-05 0.0 
1.370730618575e-03 9.396884176855e-04 0.0 
2.415922140754e-03 1.715364331036e-03 0.0 
9.077865761850e-04 1.880881854785e-03 0.0 
1.474579079740e-04 -1.759228866959e-04 0.0 
1.478915082287e-04 -1.989730040292e-04 0.0 
1.836119232279e-04 5.838682641223e-06 0.0 
3.471844585048e-04 -3.209730126613e-04 0.0 
5.360384059791e-05 -2.408169193814e-04 0.0 
1.199557430915e-04 3.345096695682e-05 0.0 
1.882159906397e-05 -2.874086615195e-04 0.0 
2.838980946256e-04 8.598791157149e-03 0.0 
4.001789770195e-04 3.585518320012e-05 0.0 
2.632362940835e-04 -3.503788885804e-04 0.0 
1.936031782906e-04 -3.413982741857e-04 0.0 
1.785373324878e-04 4.796414065928e-04 0.0 
9.025236358871e-04 9.451408330759e-03 0.0 
4.224053488222e-04 1.360992909464e-03 0.0 
4.184588103138e-04 5.094338107607e-05 0.0 
7.888074054864e-04 9.483883440534e-03 0.0 
3.097016230858e-04 -2.093119153546e-04 0.0 
6.521120805620e-05 1.083274408522e-03 0.0 
1.777411299201e-04 -3.054427038396e-04 0.0 
4.625564075571e-04 1.794042324276e-03 0.0 
1.019399014191e-05 9.023731737272e-07 0.0 
1.289162458730e-03 1.117738419275e-03 0.0 
5.066452542348e-04 -3.039833898740e-04 0.0 
1.785344467051e-03 7.341358395443e-03 0.0 
8.959318625971e-05 -1.713813111903e-04 0.0 
1.265832964905e-03 2.314556610527e-04 0.0 
1.583474847969e-04 3.273240199074e-05 0.0 
1.370924737311e-04 4.391405714873e-03 0.0 
1.442248138692e-04 2.690313984818e-05 0.0 
3.864372019675e-04 -3.038936202183e-04 0.0 
6.249514758422e-05 2.620615283997e-06 0.0 
5.126458452597e-04 -3.193655659084e-04 0.0 
8.690065535852e-05 -2.918313783077e-04 0.0 
2.131604053738e-04 2.066705708434e-05 0.0 
7.344440415762e-04 1.040963309580e-03 0.0 
3.871444166662e-04 9.340515774907e-04 0.0 
6.245219117358e-04 8.770507625588e-03 0.0 
2.350469982419e-03 6.111349764290e-03 0.0 
5.592769821338e-04 2.011713361369e-04 0.0 
8.815763431978e-04 5.457357501851e-04 0.0 
7.713460461778e-05 -2.018481227179e-04 0.0 
4.062425218670e-04 -4.958293596654e-05 0.0 
1.138214900501e-03 2.059097295644e-04 0.0 
4.947060631707e-04 9.789975845344e-03 0.0 
9.767033007333e-04 1.424945450265e-03 0.0 
5.301347333757e-06 5.493510502682e-04 0.0 
5.301347333757e-06 2.316626924683e-04 0.0 
2.037561182039e-05 -3.298000187747e-04 0.0 
8.490307114430e-06 -3.244922367621e-04 0.0 
2.774147945586e-05 9.437927533002e-03 0.0 
6.562192103181e-05 9.778914367439e-03 0.0 
1.304116494033e-06 5.400512709561e-07 0.0 
1.304116494033e-06 9.737341729774e-07 0.0 
3.684558650015e-05 -3.179891369357e-04 0.0 
3.063270577447e-04 -3.039152852671e-04 0.0 
6.239755019158e-05 -7.512316728391e-07 0.0 
9.652334034629e-04 2.724698521358e-04 0.0 
1.512361099221e-04 -2.923653382671e-04 0.0 
1.059520629024e-04 1.935693790161e-06 0.0 
1.743437256948e-05 -7.737413108800e-05 0.0 
1.934240206261e-05 -1.207652559711e-04 0.0 
3.556362109462e-04 6.249585877276e-03 0.0 
4.172466740987e-04 -3.479023657832e-04 0.0 
1.422763069583e-03 2.405227281483e-04 0.0 
1.651390202113e-04 -3.088414837317e-04 0.0 
1.187738821130e-04 -1.477623609737e-04 0.0 
1.162830766528e-03 7.352893405582e-04 0.0 
1.768406698363e-05 2.440477829413e-03 0.0 
3.707055541073e-05 -1.182896198101e-04 0.0 
2.200971183088e-04 7.252502901133e-03 0.0 
1.080737573790e-03 3.911407631624e-04 0.0 
1.820298808017e-03 1.107715656291e-03 0.0 
2.158730397193e-03 1.413642323694e-03 0.0 
6.824678290258e-04 9.459048397750e-03 0.0 
1.376403849223e-03 1.749733684147e-04 0.0 
1.152467078779e-03 1.321679669926e-03 0.0 
7.615163979237e-05 -2.398182932448e-04 0.0 
2.927186052618e-04 -3.686642320587e-04 0.0 
1.281581982233e-03 4.770836466257e-04 0.0 
7.022116159458e-04 5.152283387301e-05 0.0 
4.009979442860e-04 -3.512946040625e-04 0.0 
1.912853326283e-04 5.492851483829e-03 0.0 
3.386531640721e-05 1.911249074893e-06 0.0 
1.185577965132e-03 3.729411708252e-04 0.0 
1.014480103978e-03 3.260268418981e-04 0.0 
2.052651190999e-05 -5.729740258153e-05 0.0 
3.073446155631e-04 -1.197489904880e-04 0.0 
4.760689527610e-04 9.964748086817e-04 0.0 
7.382823212859e-04 4.657469616485e-04 0.0 
1.929109886093e-03 6.892541991614e-03 0.0 
1.446410666277e-03 2.179843835159e-04 0.0 
3.580267750102e-04 1.750697999757e-03 0.0 
2.841352475538e-04 4.377004928970e-05 0.0 
3.475187849245e-04 -3.644650471699e-04 0.0 
3.125769874389e-04 -3.641162200236e-04 0.0 
3.761706294053e-04 5.765080805097e-04 0.0 
3.209813101605e-04 5.036666029499e-03 0.0 
1.213971186104e-04 -2.200321014157e-04 0.0 
8.462660976574e-04 1.474763870676e-03 0.0 
9.154240404629e-05 -2.843740006562e-04 0.0 
4.950009543049e-04 6.541053238919e-05 0.0 
1.124089158761e-03 7.786491130699e-03 0.0 
4.195841913296e-04 9.941283610463e-05 0.0 
1.253505826366e-03 2.739398860652e-04 0.0 
2.138636201688e-03 6.565847681075e-03 0.0 
1.683757397226e-04 1.269358273853e-05 0.0 
6.573442625735e-04 1.065229487007e-03 0.0 
5.321533088918e-05 1.269708979275e-03 0.0 
3.105570559933e-04 2.911008518878e-04 0.0 
8.325661948391e-04 1.869905398926e-03 0.0 
6.472348651727e-04 2.600623432536e-04 0.0 
4.942107733672e-04 5.853675719852e-05 0.0 
1.107041637343e-03 2.372931105133e-04 0.0 
1.861209637028e-05 1.416706799030e-06 0.0 
2.183132737580e-03 1.549653549532e-03 0.0 
2.531437138046e-04 -8.754711295549e-05 0.0 
4.427528546866e-04 2.154326116659e-05 0.0 
1.630857036221e-03 1.058020139779e-03 0.0 
1.821330363007e-03 6.451223848891e-03 0.0 
3.243331434735e-05 -2.095392978863e-06 0.0 
9.942598908066e-04 2.280696807986e-04 0.0 
6.574632002071e-05 3.930467478916e-06 0.0 
2.912602196876e-04 4.027468669281e-03 0.0 
3.702241786065e-04 8.028010925059e-05 0.0 
2.071039844951e-04 9.855939482027e-06 0.0 
2.211766383980e-04 1.220184921674e-05 0.0 
8.756253630658e-05 -2.112027280647e-04 0.0 
2.926038154090e-05 2.367241619362e-06 0.0 
1.369845921412e-03 8.625810045670e-03 0.0 
2.218215424595e-04 2.052078366101e-03 0.0 
3.289451231526e-04 -3.628082579151e-04 0.0 
1.396852642584e-04 2.861325928967e-03 0.0 
2.896599247299e-04 5.443567642609e-03 0.0 
1.831620649890e-05 -3.024938937040e-04 0.0 
4.819718475460e-04 -2.975567899538e-04 0.0 
1.986412075744e-03 1.205713455336e-03 0.0 
3.101850575847e-04 1.028724771594e-03 0.0 
1.114613213782e-04 1.961678372236e-03 0.0 
4.669172673647e-04 9.319528457010e-05 0.0 
5.506477802164e-04 7.162713296425e-03 0.0 
2.492087824239e-04 -3.565274705409e-04 0.0 
3.580679012856e-04 -1.893472499421e-04 0.0 
2.405474678686e-04 -3.495225854546e-04 0.0 
3.229893091260e-04 -3.549411688714e-04 0.0 
2.423671819406e-04 -4.958766378488e-05 0.0 
1.077957097736e-04 -1.557131263488e-04 0.0 
4.081417049141e-05 -1.982897139850e-06 0.0 
1.295542909989e-03 1.213114779064e-03 0.0 
2.327948831129e-03 5.737805485801e-03 0.0 
1.607116958858e-04 -1.890587568278e-04 0.0 
1.770973770131e-04 3.820424169285e-06 0.0 
3.676656775067e-04 2.662653374151e-05 0.0 
5.205666029001e-04 1.276692020822e-04 0.0 
9.864123771502e-04 3.782686129471e-04 0.0 
1.617207646098e-03 9.190361986591e-04 0.0 
3.091190571594e-04 -3.594523478471e-04 0.0 
3.639262958406e-04 -2.899869199525e-04 0.0 
5.726140613300e-05 -1.520951436627e-06 0.0 
3.564302058841e-05 -3.000931648936e-04 0.0 
7.736739708169e-06 -2.951052099277e-04 0.0 
3.111442374803e-04 5.624767033017e-06 0.0 
2.490314230497e-04 -3.455923884862e-04 0.0 
1.251864899634e-04 1.031247498560e-05 0.0 
6.919238654466e-04 3.508577030884e-04 0.0 
3.189992831389e-04 1.751676307475e-03 0.0 
4.283746330367e-04 1.124286329245e-04 0.0 
4.447411589510e-04 2.654271625083e-05 0.0 
4.557800102813e-04 6.604731248656e-03 0.0 
8.169620353558e-05 1.986460016563e-04 0.0 
4.950592217737e-04 -3.275821220938e-04 0.0 
8.270885823361e-04 9.789222403313e-03 0.0 
3.792202487497e-04 -3.568707500995e-04 0.0 
1.795392995273e-04 -3.340407385695e-04 0.0 
1.965001674852e-05 1.732999963481e-06 0.0 
1.958898287134e-03 7.696262679767e-03 0.0 
1.019466763149e-04 -2.983735945478e-04 0.0 
7.660054211882e-05 -1.598325303223e-04 0.0 
8.248491245293e-04 4.498464619125e-04 0.0 
5.193525419234e-04 1.833932652145e-03 0.0 
6.193602460545e-04 7.883432325601e-04 0.0 
5.432052281368e-05 -2.217652550988e-04 0.0 
3.662744413622e-04 -2.210690472704e-04 0.0 
8.829077153543e-05 3.999077978770e-06 0.0 
1.787790479671e-05 4.930428340458e-04 0.0 
4.673316377708e-06 1.273072677262e-06 0.0 
6.429639137869e-05 8.894376703061e-03 0.0 
3.342941390154e-04 3.067866597565e-05 0.0 
1.174186212266e-04 -2.957482831889e-04 0.0 
7.935067729086e-04 1.506337533850e-03 0.0 
2.051962277920e-04 -3.414112511682e-04 0.0 
1.575896045633e-04 1.635928591534e-05 0.0 
8.090117840810e-04 1.000878457598e-03 0.0 
3.219748662076e-04 -1.804902155921e-04 0.0 
1.150118408809e-03 3.338589747960e-04 0.0 
2.825069560437e-04 4.508734895500e-03 0.0 
2.018130251629e-04 9.893568801316e-04 0.0 
6.202724462072e-05 1.221911991318e-05 0.0 
1.115664047267e-04 5.899120064490e-03 0.0 
6.938660091376e-04 3.962809772038e-04 0.0 
1.031962853911e-03 1.388338618286e-03 0.0 
2.284716176049e-04 5.183067968978e-03 0.0 
1.077902166665e-03 6.039406100827e-04 0.0 
9.010750374957e-05 -1.924182196638e-04 0.0 
4.413913949880e-04 9.495960020846e-03 0.0 
7.445420422652e-04 1.936679828025e-04 0.0 
1.850785609593e-05 1.051641445351e-03 0.0 
3.815142441539e-05 -3.262318102084e-04 0.0 
1.227198436345e-04 9.491478349478e-03 0.0 
4.246600647601e-06 1.269627509002e-06 0.0 
1.700526545174e-04 -2.950718045866e-04 0.0 
4.446784228814e-04 4.626768606156e-05 0.0 
1.223957902138e-03 1.319005721443e-03 0.0 
2.338570089527e-04 1.288607497219e-03 0.0 
1.111296230180e-04 -2.866968140247e-04 0.0 
3.811585669200e-04 -7.252207265923e-05 0.0 
7.752505185828e-06 -1.091980757035e-04 0.0 
1.157947867456e-04 3.496944498834e-03 0.0 
2.883901244495e-04 -2.838453492451e-04 0.0 
4.954294973853e-04 8.414108596277e-04 0.0 
1.997727135896e-04 6.091892843013e-03 0.0 
4.035899618485e-04 -3.508441845290e-04 0.0 
3.653546577053e-04 6.818643571155e-03 0.0 
5.744384967247e-04 1.562247619028e-04 0.0 
1.432461270106e-05 -9.780793530569e-05 0.0 
2.615629946989e-04 -2.890734748010e-05 0.0 
1.093042587721e-04 -2.099715472382e-04 0.0 
1.049610578206e-04 -1.349876571766e-04 0.0 
6.572107515230e-06 -8.683437624268e-05 0.0 
6.232320773489e-04 1.226715037133e-04 0.0 
5.491375033896e-05 -1.371832074100e-04 0.0 
6.875710551483e-05 -1.228789013007e-04 0.0 
2.208040489468e-04 -3.379141133912e-04 0.0 
1.146504409537e-04 2.531809440026e-06 0.0 
1.328511876539e-03 5.323138617915e-04 0.0 
4.526768924052e-04 -7.527673386864e-05 0.0 
3.108441355888e-05 9.953332291290e-04 0.0 
7.615800531277e-06 1.568966013287e-06 0.0 
1.213943139813e-04 8.947092178352e-03 0.0 
1.491626527415e-04 6.311252257285e-03 0.0 
7.591665182779e-05 -1.406841478433e-04 0.0 
8.362175053231e-05 -1.327525544085e-04 0.0 
5.058603667410e-05 -1.255159377908e-04 0.0 
5.652777689744e-04 5.696624019713e-05 0.0 
3.817119854988e-04 -3.561542440760e-04 0.0 
1.145607993624e-03 4.660751992862e-04 0.0 
2.301941266351e-04 7.819193562236e-03 0.0 
5.963106655749e-04 1.116841381741e-03 0.0 
5.323454976558e-04 4.865717075148e-05 0.0 
4.258420441613e-04 7.016545252312e-03 0.0 
1.451326580601e-03 8.815147373184e-04 0.0 
6.398239260576e-04 1.354347864780e-04 0.0 
4.860516513852e-04 1.084583632875e-04 0.0 
2.841908145605e-04 -5.627232625729e-05 0.0 
1.446574231346e-03 8.271429778617e-04 0.0 
1.224323654271e-03 6.651075723371e-04 0.0 
2.066706813467e-04 -3.352420154860e-04 0.0 
8.627778677672e-05 -1.508700159865e-04 0.0 
2.825590748060e-04 -9.064521285078e-05 0.0 
1.228173474604e-03 7.399287157472e-04 0.0 
1.626698849829e-04 1.139403656358e-02 0.0 
2.039602953367e-04 1.173194364935e-02 0.0 
2.615845372579e-04 1.138968528552e-02 0.0 
2.987515957293e-04 1.172543632231e-02 0.0 
3.612440299652e-04 1.138798180858e-02 0.0 
3.981090698613e-04 1.172560282154e-02 0.0 
4.604130744145e-04 1.138970032706e-02 0.0 
4.965850857407e-04 1.172694456319e-02 0.0 
5.560247846820e-04 1.138959421037e-02 0.0 
5.891821596143e-04 1.172450029729e-02 0.0 
6.448848279124e-04 1.138448865737e-02 0.0 
6.718602169482e-04 1.171493129051e-02 0.0 
7.242300448992e-04 1.136967779675e-02 0.0 
1.057945672593e-03 8.783846597297e-03 0.0 
7.406369752592e-04 1.169197910179e-02 0.0 
7.913659680410e-04 1.133853934864e-02 0.0 
6.715773258621e-04 9.026183840881e-03 0.0 
7.926310847201e-04 1.164978705561e-02 0.0 
8.453421549205e-04 1.128559085721e-02 0.0 
1.161642869332e-03 8.941663432909e-03 0.0 
8.281239024970e-04 1.158348445408e-02 0.0 
8.880018378607e-04 1.120380551276e-02 0.0 
8.471678466230e-04 1.148219465252e-02 0.0 
9.192703067742e-04 1.107855254431e-02 0.0 
8.478498801748e-04 1.133028304408e-02 0.0 
1.423232532507e-03 8.041196984024e-03 0.0 
9.409569971370e-04 1.089413883940e-02 0.0 
8.317346673489e-04 1.111013677549e-02 0.0 
8.076534700427e-04 1.079481441692e-02 0.0 
9.594465287926e-04 1.062819022246e-02 0.0 
7.850497841015e-04 1.035289292292e-02 0.0 
9.887409846573e-04 1.025097306847e-02 0.0 
7.868761252754e-04 9.722540610560e-03 0.0 
1.039329135250e-03 9.719595654473e-03 0.0 
1.036864185776e-03 8.283534227609e-03 0.0 
2.208449150307e-05 1.156171516333e-02 0.0 
1.104346681419e-04 1.156237381553e-02 0.0 
7.278292693908e-05 1.190563292173e-02 0.0 
5.973623270585e-05 1.121845605714e-02 0.0 
1.240274631841e-03 7.602998844326e-03 0.0 
1.498518911228e-04 1.071118115143e-02 0.0 
1.879147905698e-04 1.037224731804e-02 0.0 
2.583570263511e-04 1.071284436636e-02 0.0 
2.965398402671e-04 1.037332275867e-02 0.0 
3.622597854099e-04 1.071270916410e-02 0.0 
4.026246153304e-04 1.037499844833e-02 0.0 
4.639128644390e-04 1.071436859833e-02 0.0 
5.068111625062e-04 1.037712504295e-02 0.0 
5.627510714230e-04 1.071510641886e-02 0.0 
6.083998813922e-04 1.037701296107e-02 0.0 
6.573762629493e-04 1.071148911267e-02 0.0 
7.070743886681e-04 1.037081863558e-02 0.0 
1.541660513245e-03 8.957039501723e-03 0.0 
7.469527815822e-04 1.069856468652e-02 0.0 
1.557773305209e-03 8.981740924191e-03 0.0 
8.017965244035e-04 1.035253137087e-02 0.0 
8.298027805022e-04 1.067020472794e-02 0.0 
8.929003418310e-04 1.031613918938e-02 0.0 
9.071745995702e-04 1.062027761168e-02 0.0 
9.821788190161e-04 1.025382458882e-02 0.0 
9.802243097300e-04 1.053945889303e-02 0.0 
1.071753587663e-03 1.015394382937e-02 0.0 
1.388204660674e-03 9.188190020406e-03 0.0 
1.051633575945e-03 1.041464834090e-02 0.0 
1.165532897124e-03 1.000119300713e-02 0.0 
1.126276744916e-03 1.022895300587e-02 0.0 
1.270375048360e-03 9.775226310525e-03 0.0 
1.396116348294e-03 9.447558322278e-03 0.0 
1.212767162025e-03 9.958465591015e-03 0.0 
1.323883229676e-03 9.573441605270e-03 0.0 
1.722453203286e-03 8.496498399414e-03 0.0 
1.568997350715e-03 8.727648918096e-03 0.0 
1.850096309337e-05 1.053679856019e-02 0.0 
9.403314587210e-05 1.053916527928e-02 0.0 
5.638140466932e-05 1.019786090644e-02 0.0 
5.615270429615e-05 1.087810293304e-02 0.0 
1.594888569348e-03 8.478177374513e-03 0.0 

VECTORS element_materi_displacement float
0.0 0.0 0.0 
0.0 0.0 0.0 
0.0 0.0 0.0 
0.0 0.0 0.0 
0.0 0.0 0.0 
0.0 0.0 0.0 
0.0 0.0 0.0 
0.0 0.0 0.0 
0.0 0.0 0.0 
0.0 0.0 0.0 
0.0 0.0 0.0 
0.0 0.0 0.0 
0.0 0.0 0.0 
0.0 0.0 0.0 
0.0 0.0 0.0 
0.0 0.0 0.0 
0.0 0.0 0.0 
0.0 0.0 0.0 
0.0 0.0 0.0 
0.0 0.0 0.0 
0.0 0.0 0.0 
0.0 0.0 0.0 
0.0 0.0 0.0 
0.0 0.0 0.0 
0.0 0.0 0.0 
0.0 0.0 0.0 
0.0 0.0 0.0 
0.0 0.0 0.0 
0.0 0.0 0.0 
0.0 0.0 0.0 
0.0 0.0 0.0 
0.0 0.0 0.0 
0.0 0.0 0.0 
0.0 0.0 0.0 
0.0 0.0 0.0 
0.0 0.0 0.0 
0.0 0.0 0.0 
0.0 0.0 0.0 
0.0 0.0 0.0 
0.0 0.0 0.0 
0.0 0.0 0.0 
0.0 0.0 0.0 
0.0 0.0 0.0 
0.0 0.0 0.0 
0.0 0.0 0.0 
0.0 0.0 0.0 
0.0 0.0 0.0 
0.0 0.0 0.0 
0.0 0.0 0.0 
0.0 0.0 0.0 
0.0 0.0 0.0 
0.0 0.0 0.0 
0.0 0.0 0.0 
0.0 0.0 0.0 
0.0 0.0 0.0 
0.0 0.0 0.0 
0.0 0.0 0.0 
0.0 0.0 0.0 
0.0 0.0 0.0 
0.0 0.0 0.0 
0.0 0.0 0.0 
0.0 0.0 0.0 
0.0 0.0 0.0 
0.0 0.0 0.0 
0.0 0.0 0.0 
0.0 0.0 0.0 
0.0 0.0 0.0 
0.0 0.0 0.0 
0.0 0.0 0.0 
0.0 0.0 0.0 
0.0 0.0 0.0 
0.0 0.0 0.0 
0.0 0.0 0.0 
0.0 0.0 0.0 
0.0 0.0 0.0 
0.0 0.0 0.0 
0.0 0.0 0.0 
0.0 0.0 0.0 
0.0 0.0 0.0 
0.0 0.0 0.0 
0.0 0.0 0.0 
0.0 0.0 0.0 
0.0 0.0 0.0 
0.0 0.0 0.0 
0.0 0.0 0.0 
0.0 0.0 0.0 
0.0 0.0 0.0 
0.0 0.0 0.0 
0.0 0.0 0.0 
0.0 0.0 0.0 
0.0 0.0 0.0 
0.0 0.0 0.0 
0.0 0.0 0.0 
0.0 0.0 0.0 
0.0 0.0 0.0 
0.0 0.0 0.0 
0.0 0.0 0.0 
0.0 0.0 0.0 
0.0 0.0 0.0 
0.0 0.0 0.0 
0.0 0.0 0.0 
0.0 0.0 0.0 
0.0 0.0 0.0 
0.0 0.0 0.0 
0.0 0.0 0.0 
0.0 0.0 0.0 
0.0 0.0 0.0 
0.0 0.0 0.0 
0.0 0.0 0.0 
0.0 0.0 0.0 
0.0 0.0 0.0 
0.0 0.0 0.0 
0.0 0.0 0.0 
0.0 0.0 0.0 
0.0 0.0 0.0 
0.0 0.0 0.0 
0.0 0.0 0.0 
0.0 0.0 0.0 
0.0 0.0 0.0 
0.0 0.0 0.0 
0.0 0.0 0.0 
0.0 0.0 0.0 
0.0 0.0 0.0 
0.0 0.0 0.0 
0.0 0.0 0.0 
0.0 0.0 0.0 
0.0 0.0 0.0 
0.0 0.0 0.0 
0.0 0.0 0.0 
0.0 0.0 0.0 
0.0 0.0 0.0 
0.0 0.0 0.0 
0.0 0.0 0.0 
0.0 0.0 0.0 
0.0 0.0 0.0 
0.0 0.0 0.0 
0.0 0.0 0.0 
0.0 0.0 0.0 
0.0 0.0 0.0 
0.0 0.0 0.0 
0.0 0.0 0.0 
0.0 0.0 0.0 
0.0 0.0 0.0 
0.0 0.0 0.0 
0.0 0.0 0.0 
0.0 0.0 0.0 
0.0 0.0 0.0 
0.0 0.0 0.0 
0.0 0.0 0.0 
0.0 0.0 0.0 
0.0 0.0 0.0 
0.0 0.0 0.0 
0.0 0.0 0.0 
0.0 0.0 0.0 
0.0 0.0 0.0 
0.0 0.0 0.0 
0.0 0.0 0.0 
0.0 0.0 0.0 
0.0 0.0 0.0 
0.0 0.0 0.0 
0.0 0.0 0.0 
0.0 0.0 0.0 
0.0 0.0 0.0 
0.0 0.0 0.0 
0.0 0.0 0.0 
0.0 0.0 0.0 
0.0 0.0 0.0 
0.0 0.0 0.0 
0.0 0.0 0.0 
0.0 0.0 0.0 
0.0 0.0 0.0 
0.0 0.0 0.0 
0.0 0.0 0.0 
0.0 0.0 0.0 
0.0 0.0 0.0 
0.0 0.0 0.0 
0.0 0.0 0.0 
0.0 0.0 0.0 
0.0 0.0 0.0 
0.0 0.0 0.0 
0.0 0.0 0.0 
0.0 0.0 0.0 
0.0 0.0 0.0 
0.0 0.0 0.0 
0.0 0.0 0.0 
0.0 0.0 0.0 
0.0 0.0 0.0 
0.0 0.0 0.0 
0.0 0.0 0.0 
0.0 0.0 0.0 
0.0 0.0 0.0 
0.0 0.0 0.0 
0.0 0.0 0.0 
0.0 0.0 0.0 
0.0 0.0 0.0 
0.0 0.0 0.0 
0.0 0.0 0.0 
0.0 0.0 0.0 
0.0 0.0 0.0 
0.0 0.0 0.0 
0.0 0.0 0.0 
0.0 0.0 0.0 
0.0 0.0 0.0 
0.0 0.0 0.0 
0.0 0.0 0.0 
0.0 0.0 0.0 
0.0 0.0 0.0 
0.0 0.0 0.0 
0.0 0.0 0.0 
0.0 0.0 0.0 
0.0 0.0 0.0 
0.0 0.0 0.0 
0.0 0.0 0.0 
0.0 0.0 0.0 
0.0 0.0 0.0 
0.0 0.0 0.0 
0.0 0.0 0.0 
0.0 0.0 0.0 
0.0 0.0 0.0 
0.0 0.0 0.0 
0.0 0.0 0.0 
0.0 0.0 0.0 
0.0 0.0 0.0 
0.0 0.0 0.0 
0.0 0.0 0.0 
0.0 0.0 0.0 
0.0 0.0 0.0 
0.0 0.0 0.0 
0.0 0.0 0.0 
0.0 0.0 0.0 
0.0 0.0 0.0 
0.0 0.0 0.0 
0.0 0.0 0.0 
0.0 0.0 0.0 
0.0 0.0 0.0 
0.0 0.0 0.0 
0.0 0.0 0.0 
0.0 0.0 0.0 
0.0 0.0 0.0 
0.0 0.0 0.0 
0.0 0.0 0.0 
0.0 0.0 0.0 
0.0 0.0 0.0 
0.0 0.0 0.0 
0.0 0.0 0.0 
0.0 0.0 0.0 
0.0 0.0 0.0 
0.0 0.0 0.0 
0.0 0.0 0.0 
0.0 0.0 0.0 
0.0 0.0 0.0 
0.0 0.0 0.0 
0.0 0.0 0.0 
0.0 0.0 0.0 
0.0 0.0 0.0 
0.0 0.0 0.0 
0.0 0.0 0.0 
0.0 0.0 0.0 
0.0 0.0 0.0 
0.0 0.0 0.0 
0.0 0.0 0.0 
0.0 0.0 0.0 
0.0 0.0 0.0 
0.0 0.0 0.0 
0.0 0.0 0.0 
0.0 0.0 0.0 
0.0 0.0 0.0 
0.0 0.0 0.0 
0.0 0.0 0.0 
0.0 0.0 0.0 
0.0 0.0 0.0 
0.0 0.0 0.0 
0.0 0.0 0.0 
0.0 0.0 0.0 
0.0 0.0 0.0 
0.0 0.0 0.0 
0.0 0.0 0.0 
0.0 0.0 0.0 
0.0 0.0 0.0 
0.0 0.0 0.0 
0.0 0.0 0.0 
0.0 0.0 0.0 
0.0 0.0 0.0 
0.0 0.0 0.0 
0.0 0.0 0.0 
0.0 0.0 0.0 
0.0 0.0 0.0 
0.0 0.0 0.0 
0.0 0.0 0.0 
0.0 0.0 0.0 
0.0 0.0 0.0 
0.0 0.0 0.0 
0.0 0.0 0.0 
0.0 0.0 0.0 
0.0 0.0 0.0 
0.0 0.0 0.0 
0.0 0.0 0.0 
0.0 0.0 0.0 
0.0 0.0 0.0 
0.0 0.0 0.0 
0.0 0.0 0.0 
0.0 0.0 0.0 
0.0 0.0 0.0 
0.0 0.0 0.0 
0.0 0.0 0.0 
0.0 0.0 0.0 
0.0 0.0 0.0 
0.0 0.0 0.0 
0.0 0.0 0.0 
0.0 0.0 0.0 
0.0 0.0 0.0 
0.0 0.0 0.0 
0.0 0.0 0.0 
0.0 0.0 0.0 
0.0 0.0 0.0 
0.0 0.0 0.0 
0.0 0.0 0.0 
0.0 0.0 0.0 
0.0 0.0 0.0 
0.0 0.0 0.0 
0.0 0.0 0.0 
0.0 0.0 0.0 
0.0 0.0 0.0 
0.0 0.0 0.0 
0.0 0.0 0.0 
0.0 0.0 0.0 
0.0 0.0 0.0 
0.0 0.0 0.0 
0.0 0.0 0.0 
0.0 0.0 0.0 
0.0 0.0 0.0 
0.0 0.0 0.0 
0.0 0.0 0.0 
0.0 0.0 0.0 
0.0 0.0 0.0 
0.0 0.0 0.0 
0.0 0.0 0.0 
0.0 0.0 0.0 
0.0 0.0 0.0 
0.0 0.0 0.0 
0.0 0.0 0.0 
0.0 0.0 0.0 
0.0 0.0 0.0 
0.0 0.0 0.0 
0.0 0.0 0.0 
0.0 0.0 0.0 
0.0 0.0 0.0 
0.0 0.0 0.0 
0.0 0.0 0.0 
0.0 0.0 0.0 
0.0 0.0 0.0 
0.0 0.0 0.0 
0.0 0.0 0.0 
0.0 0.0 0.0 
0.0 0.0 0.0 
0.0 0.0 0.0 
0.0 0.0 0.0 
0.0 0.0 0.0 
0.0 0.0 0.0 
0.0 0.0 0.0 
0.0 0.0 0.0 
0.0 0.0 0.0 
0.0 0.0 0.0 
0.0 0.0 0.0 
0.0 0.0 0.0 
0.0 0.0 0.0 
0.0 0.0 0.0 
0.0 0.0 0.0 
0.0 0.0 0.0 
0.0 0.0 0.0 
0.0 0.0 0.0 
0.0 0.0 0.0 
0.0 0.0 0.0 
0.0 0.0 0.0 
0.0 0.0 0.0 
0.0 0.0 0.0 
0.0 0.0 0.0 
0.0 0.0 0.0 
0.0 0.0 0.0 
0.0 0.0 0.0 
0.0 0.0 0.0 
0.0 0.0 0.0 
0.0 0.0 0.0 
0.0 0.0 0.0 
0.0 0.0 0.0 
0.0 0.0 0.0 
0.0 0.0 0.0 
0.0 0.0 0.0 
0.0 0.0 0.0 
0.0 0.0 0.0 
0.0 0.0 0.0 
0.0 0.0 0.0 
0.0 0.0 0.0 
0.0 0.0 0.0 
0.0 0.0 0.0 
0.0 0.0 0.0 
0.0 0.0 0.0 
0.0 0.0 0.0 
0.0 0.0 0.0 
0.0 0.0 0.0 
0.0 0.0 0.0 
0.0 0.0 0.0 
0.0 0.0 0.0 
0.0 0.0 0.0 
0.0 0.0 0.0 
0.0 0.0 0.0 
0.0 0.0 0.0 
0.0 0.0 0.0 
0.0 0.0 0.0 
0.0 0.0 0.0 
0.0 0.0 0.0 
0.0 0.0 0.0 
0.0 0.0 0.0 
0.0 0.0 0.0 
0.0 0.0 0.0 
0.0 0.0 0.0 
0.0 0.0 0.0 
0.0 0.0 0.0 
0.0 0.0 0.0 
0.0 0.0 0.0 
0.0 0.0 0.0 
0.0 0.0 0.0 
0.0 0.0 0.0 
0.0 0.0 0.0 
0.0 0.0 0.0 
0.0 0.0 0.0 
0.0 0.0 0.0 
0.0 0.0 0.0 
0.0 0.0 0.0 
0.0 0.0 0.0 
0.0 0.0 0.0 
0.0 0.0 0.0 
0.0 0.0 0.0 
0.0 0.0 0.0 
0.0 0.0 0.0 
0.0 0.0 0.0 
0.0 0.0 0.0 
0.0 0.0 0.0 
0.0 0.0 0.0 
0.0 0.0 0.0 
0.0 0.0 0.0 
0.0 0.0 0.0 
0.0 0.0 0.0 
0.0 0.0 0.0 
0.0 0.0 0.0 
0.0 0.0 0.0 
0.0 0.0 0.0 
0.0 0.0 0.0 
0.0 0.0 0.0 
0.0 0.0 0.0 
0.0 0.0 0.0 
0.0 0.0 0.0 
0.0 0.0 0.0 
0.0 0.0 0.0 
0.0 0.0 0.0 
0.0 0.0 0.0 
0.0 0.0 0.0 
0.0 0.0 0.0 
0.0 0.0 0.0 
0.0 0.0 0.0 
0.0 0.0 0.0 
0.0 0.0 0.0 
0.0 0.0 0.0 
0.0 0.0 0.0 
0.0 0.0 0.0 
0.0 0.0 0.0 
0.0 0.0 0.0 
0.0 0.0 0.0 
0.0 0.0 0.0 
0.0 0.0 0.0 
0.0 0.0 0.0 
0.0 0.0 0.0 
0.0 0.0 0.0 
0.0 0.0 0.0 
0.0 0.0 0.0 
0.0 0.0 0.0 
0.0 0.0 0.0 
0.0 0.0 0.0 
0.0 0.0 0.0 
0.0 0.0 0.0 
0.0 0.0 0.0 
0.0 0.0 0.0 
0.0 0.0 0.0 
0.0 0.0 0.0 
0.0 0.0 0.0 
0.0 0.0 0.0 
0.0 0.0 0.0 
0.0 0.0 0.0 
0.0 0.0 0.0 
0.0 0.0 0.0 
0.0 0.0 0.0 
0.0 0.0 0.0 
0.0 0.0 0.0 
0.0 0.0 0.0 
0.0 0.0 0.0 
0.0 0.0 0.0 
0.0 0.0 0.0 
0.0 0.0 0.0 
0.0 0.0 0.0 
0.0 0.0 0.0 
0.0 0.0 0.0 
0.0 0.0 0.0 
0.0 0.0 0.0 
0.0 0.0 0.0 
0.0 0.0 0.0 
0.0 0.0 0.0 
0.0 0.0 0.0 
0.0 0.0 0.0 
0.0 0.0 0.0 
0.0 0.0 0.0 
0.0 0.0 0.0 
0.0 0.0 0.0 
0.0 0.0 0.0 
0.0 0.0 0.0 
0.0 0.0 0.0 
0.0 0.0 0.0 
0.0 0.0 0.0 
0.0 0.0 0.0 
0.0 0.0 0.0 
0.0 0.0 0.0 
0.0 0.0 0.0 
0.0 0.0 0.0 
0.0 0.0 0.0 
0.0 0.0 0.0 
0.0 0.0 0.0 
0.0 0.0 0.0 
0.0 0.0 0.0 
0.0 0.0 0.0 
0.0 0.0 0.0 
0.0 0.0 0.0 
0.0 0.0 0.0 
0.0 0.0 0.0 
0.0 0.0 0.0 
0.0 0.0 0.0 
0.0 0.0 0.0 
0.0 0.0 0.0 
0.0 0.0 0.0 
0.0 0.0 0.0 
0.0 0.0 0.0 
0.0 0.0 0.0 
0.0 0.0 0.0 
0.0 0.0 0.0 
0.0 0.0 0.0 
0.0 0.0 0.0 
0.0 0.0 0.0 
0.0 0.0 0.0 
0.0 0.0 0.0 
0.0 0.0 0.0 
0.0 0.0 0.0 
0.0 0.0 0.0 
0.0 0.0 0.0 
0.0 0.0 0.0 
0.0 0.0 0.0 
0.0 0.0 0.0 
0.0 0.0 0.0 
0.0 0.0 0.0 
0.0 0.0 0.0 
0.0 0.0 0.0 
0.0 0.0 0.0 
0.0 0.0 0.0 
0.0 0.0 0.0 
0.0 0.0 0.0 
0.0 0.0 0.0 
0.0 0.0 0.0 
0.0 0.0 0.0 
0.0 0.0 0.0 
0.0 0.0 0.0 
0.0 0.0 0.0 
0.0 0.0 0.0 
0.0 0.0 0.0 
0.0 0.0 0.0 
0.0 0.0 0.0 
0.0 0.0 0.0 
0.0 0.0 0.0 
0.0 0.0 0.0 
0.0 0.0 0.0 
0.0 0.0 0.0 
0.0 0.0 0.0 
0.0 0.0 0.0 
0.0 0.0 0.0 
0.0 0.0 0.0 
0.0 0.0 0.0 
0.0 0.0 0.0 
0.0 0.0 0.0 
0.0 0.0 0.0 
0.0 0.0 0.0 
0.0 0.0 0.0 
0.0 0.0 0.0 
0.0 0.0 0.0 
0.0 0.0 0.0 
0.0 0.0 0.0 
0.0 0.0 0.0 
0.0 0.0 0.0 
0.0 0.0 0.0 
0.0 0.0 0.0 
0.0 0.0 0.0 
0.0 0.0 0.0 
0.0 0.0 0.0 
0.0 0.0 0.0 
0.0 0.0 0.0 
0.0 0.0 0.0 
0.0 0.0 0.0 
0.0 0.0 0.0 
0.0 0.0 0.0 
0.0 0.0 0.0 
0.0 0.0 0.0 
0.0 0.0 0.0 
0.0 0.0 0.0 
0.0 0.0 0.0 
0.0 0.0 0.0 
0.0 0.0 0.0 
0.0 0.0 0.0 
0.0 0.0 0.0 
0.0 0.0 0.0 
0.0 0.0 0.0 
0.0 0.0 0.0 
0.0 0.0 0.0 
0.0 0.0 0.0 
0.0 0.0 0.0 
0.0 0.0 0.0 
0.0 0.0 0.0 
0.0 0.0 0.0 
0.0 0.0 0.0 
0.0 0.0 0.0 
0.0 0.0 0.0 
0.0 0.0 0.0 
0.0 0.0 0.0 
0.0 0.0 0.0 
0.0 0.0 0.0 
0.0 0.0 0.0 
0.0 0.0 0.0 
0.0 0.0 0.0 
0.0 0.0 0.0 
0.0 0.0 0.0 
0.0 0.0 0.0 
0.0 0.0 0.0 
0.0 0.0 0.0 
0.0 0.0 0.0 
0.0 0.0 0.0 
0.0 0.0 0.0 
0.0 0.0 0.0 
0.0 0.0 0.0 
0.0 0.0 0.0 
0.0 0.0 0.0 
0.0 0.0 0.0 
0.0 0.0 0.0 
0.0 0.0 0.0 
0.0 0.0 0.0 
0.0 0.0 0.0 
0.0 0.0 0.0 
0.0 0.0 0.0 
0.0 0.0 0.0 
0.0 0.0 0.0 
0.0 0.0 0.0 
0.0 0.0 0.0 
0.0 0.0 0.0 
0.0 0.0 0.0 
0.0 0.0 0.0 
0.0 0.0 0.0 
0.0 0.0 0.0 
0.0 0.0 0.0 
0.0 0.0 0.0 
0.0 0.0 0.0 
0.0 0.0 0.0 
0.0 0.0 0.0 
0.0 0.0 0.0 
0.0 0.0 0.0 
0.0 0.0 0.0 
0.0 0.0 0.0 
0.0 0.0 0.0 
0.0 0.0 0.0 
0.0 0.0 0.0 
0.0 0.0 0.0 
0.0 0.0 0.0 
0.0 0.0 0.0 
0.0 0.0 0.0 
0.0 0.0 0.0 
0.0 0.0 0.0 
0.0 0.0 0.0 
0.0 0.0 0.0 
0.0 0.0 0.0 
0.0 0.0 0.0 
0.0 0.0 0.0 
0.0 0.0 0.0 
0.0 0.0 0.0 
0.0 0.0 0.0 
0.0 0.0 0.0 
0.0 0.0 0.0 
0.0 0.0 0.0 
0.0 0.0 0.0 
0.0 0.0 0.0 
0.0 0.0 0.0 
0.0 0.0 0.0 
0.0 0.0 0.0 
0.0 0.0 0.0 
0.0 0.0 0.0 
0.0 0.0 0.0 
0.0 0.0 0.0 
0.0 0.0 0.0 
0.0 0.0 0.0 
0.0 0.0 0.0 
0.0 0.0 0.0 
0.0 0.0 0.0 
0.0 0.0 0.0 
0.0 0.0 0.0 
0.0 0.0 0.0 
0.0 0.0 0.0 
0.0 0.0 0.0 
0.0 0.0 0.0 
0.0 0.0 0.0 
0.0 0.0 0.0 
0.0 0.0 0.0 
0.0 0.0 0.0 
0.0 0.0 0.0 
0.0 0.0 0.0 
0.0 0.0 0.0 
0.0 0.0 0.0 
0.0 0.0 0.0 
0.0 0.0 0.0 
0.0 0.0 0.0 
0.0 0.0 0.0 
0.0 0.0 0.0 
0.0 0.0 0.0 
0.0 0.0 0.0 
0.0 0.0 0.0 
0.0 0.0 0.0 
0.0 0.0 0.0 
0.0 0.0 0.0 
0.0 0.0 0.0 
0.0 0.0 0.0 
0.0 0.0 0.0 
0.0 0.0 0.0 
0.0 0.0 0.0 
0.0 0.0 0.0 
0.0 0.0 0.0 
0.0 0.0 0.0 
0.0 0.0 0.0 
0.0 0.0 0.0 
0.0 0.0 0.0 
0.0 0.0 0.0 
0.0 0.0 0.0 
0.0 0.0 0.0 
0.0 0.0 0.0 
0.0 0.0 0.0 
0.0 0.0 0.0 
0.0 0.0 0.0 
0.0 0.0 0.0 
0.0 0.0 0.0 
0.0 0.0 0.0 
0.0 0.0 0.0 
0.0 0.0 0.0 
0.0 0.0 0.0 
0.0 0.0 0.0 
0.0 0.0 0.0 
0.0 0.0 0.0 
0.0 0.0 0.0 
0.0 0.0 0.0 
0.0 0.0 0.0 
0.0 0.0 0.0 
0.0 0.0 0.0 
0.0 0.0 0.0 
0.0 0.0 0.0 
0.0 0.0 0.0 
0.0 0.0 0.0 
0.0 0.0 0.0 
0.0 0.0 0.0 
0.0 0.0 0.0 
0.0 0.0 0.0 
0.0 0.0 0.0 
0.0 0.0 0.0 
0.0 0.0 0.0 
0.0 0.0 0.0 
0.0 0.0 0.0 
0.0 0.0 0.0 
0.0 0.0 0.0 
0.0 0.0 0.0 
0.0 0.0 0.0 
0.0 0.0 0.0 
0.0 0.0 0.0 
0.0 0.0 0.0 
0.0 0.0 0.0 
0.0 0.0 0.0 
0.0 0.0 0.0 
0.0 0.0 0.0 
0.0 0.0 0.0 
0.0 0.0 0.0 
0.0 0.0 0.0 
0.0 0.0 0.0 
0.0 0.0 0.0 
0.0 0.0 0.0 
0.0 0.0 0.0 
0.0 0.0 0.0 
0.0 0.0 0.0 
0.0 0.0 0.0 
0.0 0.0 0.0 
0.0 0.0 0.0 
0.0 0.0 0.0 
0.0 0.0 0.0 
0.0 0.0 0.0 
0.0 0.0 0.0 
0.0 0.0 0.0 
0.0 0.0 0.0 
0.0 0.0 0.0 
0.0 0.0 0.0 
0.0 0.0 0.0 
0.0 0.0 0.0 
0.0 0.0 0.0 
0.0 0.0 0.0 
0.0 0.0 0.0 
0.0 0.0 0.0 
0.0 0.0 0.0 
0.0 0.0 0.0 
0.0 0.0 0.0 
0.0 0.0 0.0 
0.0 0.0 0.0 
0.0 0.0 0.0 
0.0 0.0 0.0 
0.0 0.0 0.0 
0.0 0.0 0.0 
0.0 0.0 0.0 
0.0 0.0 0.0 
0.0 0.0 0.0 
0.0 0.0 0.0 
0.0 0.0 0.0 
0.0 0.0 0.0 
0.0 0.0 0.0 
0.0 0.0 0.0 
0.0 0.0 0.0 
0.0 0.0 0.0 
0.0 0.0 0.0 
0.0 0.0 0.0 
0.0 0.0 0.0 
0.0 0.0 0.0 
0.0 0.0 0.0 
0.0 0.0 0.0 
0.0 0.0 0.0 
0.0 0.0 0.0 
0.0 0.0 0.0 
0.0 0.0 0.0 
0.0 0.0 0.0 
0.0 0.0 0.0 
0.0 0.0 0.0 
0.0 0.0 0.0 
0.0 0.0 0.0 
0.0 0.0 0.0 
0.0 0.0 0.0 
0.0 0.0 0.0 
0.0 0.0 0.0 
0.0 0.0 0.0 
0.0 0.0 0.0 
0.0 0.0 0.0 
0.0 0.0 0.0 
0.0 0.0 0.0 
0.0 0.0 0.0 
0.0 0.0 0.0 
0.0 0.0 0.0 
0.0 0.0 0.0 
0.0 0.0 0.0 
0.0 0.0 0.0 
0.0 0.0 0.0 
0.0 0.0 0.0 
0.0 0.0 0.0 
0.0 0.0 0.0 
0.0 0.0 0.0 
0.0 0.0 0.0 
0.0 0.0 0.0 
0.0 0.0 0.0 
0.0 0.0 0.0 
0.0 0.0 0.0 
0.0 0.0 0.0 
0.0 0.0 0.0 
0.0 0.0 0.0 
0.0 0.0 0.0 
0.0 0.0 0.0 
0.0 0.0 0.0 
0.0 0.0 0.0 
0.0 0.0 0.0 
0.0 0.0 0.0 
0.0 0.0 0.0 
0.0 0.0 0.0 
0.0 0.0 0.0 
0.0 0.0 0.0 
0.0 0.0 0.0 
0.0 0.0 0.0 
0.0 0.0 0.0 
0.0 0.0 0.0 
0.0 0.0 0.0 
0.0 0.0 0.0 
0.0 0.0 0.0 
0.0 0.0 0.0 
0.0 0.0 0.0 
0.0 0.0 0.0 
0.0 0.0 0.0 
0.0 0.0 0.0 
0.0 0.0 0.0 
0.0 0.0 0.0 
0.0 0.0 0.0 
0.0 0.0 0.0 
0.0 0.0 0.0 
0.0 0.0 0.0 
0.0 0.0 0.0 
0.0 0.0 0.0 
0.0 0.0 0.0 
0.0 0.0 0.0 
0.0 0.0 0.0 
0.0 0.0 0.0 
0.0 0.0 0.0 
0.0 0.0 0.0 
0.0 0.0 0.0 
0.0 0.0 0.0 
0.0 0.0 0.0 
0.0 0.0 0.0 
0.0 0.0 0.0 
0.0 0.0 0.0 
0.0 0.0 0.0 
0.0 0.0 0.0 
0.0 0.0 0.0 
0.0 0.0 0.0 
0.0 0.0 0.0 
0.0 0.0 0.0 
0.0 0.0 0.0 
0.0 0.0 0.0 
0.0 0.0 0.0 
0.0 0.0 0.0 
0.0 0.0 0.0 
0.0 0.0 0.0 
0.0 0.0 0.0 
0.0 0.0 0.0 
0.0 0.0 0.0 
0.0 0.0 0.0 
0.0 0.0 0.0 
0.0 0.0 0.0 
0.0 0.0 0.0 
0.0 0.0 0.0 
0.0 0.0 0.0 
0.0 0.0 0.0 
0.0 0.0 0.0 
0.0 0.0 0.0 
0.0 0.0 0.0 
0.0 0.0 0.0 
0.0 0.0 0.0 
0.0 0.0 0.0 
0.0 0.0 0.0 
0.0 0.0 0.0 
0.0 0.0 0.0 
0.0 0.0 0.0 
0.0 0.0 0.0 
0.0 0.0 0.0 
0.0 0.0 0.0 
0.0 0.0 0.0 
0.0 0.0 0.0 
0.0 0.0 0.0 
0.0 0.0 0.0 
0.0 0.0 0.0 
0.0 0.0 0.0 
0.0 0.0 0.0 
0.0 0.0 0.0 
0.0 0.0 0.0 
0.0 0.0 0.0 
0.0 0.0 0.0 
0.0 0.0 0.0 
0.0 0.0 0.0 
0.0 0.0 0.0 
0.0 0.0 0.0 
0.0 0.0 0.0 
0.0 0.0 0.0 
0.0 0.0 0.0 
0.0 0.0 0.0 
0.0 0.0 0.0 
0.0 0.0 0.0 
0.0 0.0 0.0 
0.0 0.0 0.0 
0.0 0.0 0.0 
0.0 0.0 0.0 
0.0 0.0 0.0 
0.0 0.0 0.0 
0.0 0.0 0.0 
0.0 0.0 0.0 
0.0 0.0 0.0 
0.0 0.0 0.0 
0.0 0.0 0.0 
0.0 0.0 0.0 
0.0 0.0 0.0 
0.0 0.0 0.0 
0.0 0.0 0.0 
0.0 0.0 0.0 
0.0 0.0 0.0 
0.0 0.0 0.0 
0.0 0.0 0.0 
0.0 0.0 0.0 
0.0 0.0 0.0 
0.0 0.0 0.0 
0.0 0.0 0.0 
0.0 0.0 0.0 
0.0 0.0 0.0 
0.0 0.0 0.0 
0.0 0.0 0.0 
0.0 0.0 0.0 
0.0 0.0 0.0 
0.0 0.0 0.0 
0.0 0.0 0.0 
0.0 0.0 0.0 
0.0 0.0 0.0 
0.0 0.0 0.0 
0.0 0.0 0.0 
0.0 0.0 0.0 
0.0 0.0 0.0 
0.0 0.0 0.0 
0.0 0.0 0.0 
0.0 0.0 0.0 
0.0 0.0 0.0 
0.0 0.0 0.0 
0.0 0.0 0.0 
0.0 0.0 0.0 
0.0 0.0 0.0 
0.0 0.0 0.0 
0.0 0.0 0.0 
0.0 0.0 0.0 
0.0 0.0 0.0 
0.0 0.0 0.0 
0.0 0.0 0.0 
0.0 0.0 0.0 
0.0 0.0 0.0 
0.0 0.0 0.0 
0.0 0.0 0.0 
0.0 0.0 0.0 
0.0 0.0 0.0 
0.0 0.0 0.0 
0.0 0.0 0.0 
0.0 0.0 0.0 
0.0 0.0 0.0 
0.0 0.0 0.0 
0.0 0.0 0.0 
0.0 0.0 0.0 
0.0 0.0 0.0 
0.0 0.0 0.0 
0.0 0.0 0.0 
0.0 0.0 0.0 
0.0 0.0 0.0 
0.0 0.0 0.0 
0.0 0.0 0.0 
0.0 0.0 0.0 
0.0 0.0 0.0 
0.0 0.0 0.0 
0.0 0.0 0.0 
0.0 0.0 0.0 
0.0 0.0 0.0 
0.0 0.0 0.0 
0.0 0.0 0.0 
0.0 0.0 0.0 
0.0 0.0 0.0 
0.0 0.0 0.0 
0.0 0.0 0.0 
0.0 0.0 0.0 
0.0 0.0 0.0 
0.0 0.0 0.0 
0.0 0.0 0.0 
0.0 0.0 0.0 
0.0 0.0 0.0 
0.0 0.0 0.0 
0.0 0.0 0.0 
0.0 0.0 0.0 
0.0 0.0 0.0 
0.0 0.0 0.0 
0.0 0.0 0.0 
0.0 0.0 0.0 
0.0 0.0 0.0 
0.0 0.0 0.0 
0.0 0.0 0.0 
0.0 0.0 0.0 
0.0 0.0 0.0 
0.0 0.0 0.0 
0.0 0.0 0.0 
0.0 0.0 0.0 
0.0 0.0 0.0 
0.0 0.0 0.0 
0.0 0.0 0.0 
0.0 0.0 0.0 
0.0 0.0 0.0 
0.0 0.0 0.0 
0.0 0.0 0.0 
0.0 0.0 0.0 
0.0 0.0 0.0 
0.0 0.0 0.0 
0.0 0.0 0.0 
0.0 0.0 0.0 
0.0 0.0 0.0 
0.0 0.0 0.0 
0.0 0.0 0.0 
0.0 0.0 0.0 
0.0 0.0 0.0 
0.0 0.0 0.0 
0.0 0.0 0.0 
0.0 0.0 0.0 
0.0 0.0 0.0 
0.0 0.0 0.0 
0.0 0.0 0.0 
0.0 0.0 0.0 
0.0 0.0 0.0 
0.0 0.0 0.0 
0.0 0.0 0.0 
0.0 0.0 0.0 
0.0 0.0 0.0 
0.0 0.0 0.0 
0.0 0.0 0.0 
0.0 0.0 0.0 
0.0 0.0 0.0 
0.0 0.0 0.0 
0.0 0.0 0.0 
0.0 0.0 0.0 
0.0 0.0 0.0 
0.0 0.0 0.0 
0.0 0.0 0.0 
0.0 0.0 0.0 
0.0 0.0 0.0 
0.0 0.0 0.0 
0.0 0.0 0.0 
0.0 0.0 0.0 
0.0 0.0 0.0 
0.0 0.0 0.0 
0.0 0.0 0.0 
0.0 0.0 0.0 
0.0 0.0 0.0 
0.0 0.0 0.0 
0.0 0.0 0.0 
0.0 0.0 0.0 
0.0 0.0 0.0 
0.0 0.0 0.0 
0.0 0.0 0.0 
0.0 0.0 0.0 
0.0 0.0 0.0 
0.0 0.0 0.0 
0.0 0.0 0.0 
0.0 0.0 0.0 
0.0 0.0 0.0 
0.0 0.0 0.0 
0.0 0.0 0.0 
0.0 0.0 0.0 
0.0 0.0 0.0 
0.0 0.0 0.0 
0.0 0.0 0.0 
0.0 0.0 0.0 
0.0 0.0 0.0 
0.0 0.0 0.0 
0.0 0.0 0.0 
0.0 0.0 0.0 
0.0 0.0 0.0 
0.0 0.0 0.0 
0.0 0.0 0.0 
0.0 0.0 0.0 
0.0 0.0 0.0 
0.0 0.0 0.0 
0.0 0.0 0.0 
0.0 0.0 0.0 
0.0 0.0 0.0 
0.0 0.0 0.0 
0.0 0.0 0.0 
0.0 0.0 0.0 
0.0 0.0 0.0 
0.0 0.0 0.0 
0.0 0.0 0.0 
0.0 0.0 0.0 
0.0 0.0 0.0 
0.0 0.0 0.0 
0.0 0.0 0.0 
0.0 0.0 0.0 
0.0 0.0 0.0 
0.0 0.0 0.0 
0.0 0.0 0.0 
0.0 0.0 0.0 
0.0 0.0 0.0 
0.0 0.0 0.0 
0.0 0.0 0.0 
0.0 0.0 0.0 
0.0 0.0 0.0 
0.0 0.0 0.0 
0.0 0.0 0.0 
0.0 0.0 0.0 
0.0 0.0 0.0 
0.0 0.0 0.0 
0.0 0.0 0.0 
0.0 0.0 0.0 
0.0 0.0 0.0 
0.0 0.0 0.0 
0.0 0.0 0.0 
0.0 0.0 0.0 
0.0 0.0 0.0 
0.0 0.0 0.0 
0.0 0.0 0.0 
0.0 0.0 0.0 
0.0 0.0 0.0 
0.0 0.0 0.0 
0.0 0.0 0.0 
0.0 0.0 0.0 
0.0 0.0 0.0 
0.0 0.0 0.0 
0.0 0.0 0.0 
0.0 0.0 0.0 
0.0 0.0 0.0 
0.0 0.0 0.0 
0.0 0.0 0.0 
0.0 0.0 0.0 
0.0 0.0 0.0 
0.0 0.0 0.0 
0.0 0.0 0.0 
0.0 0.0 0.0 
0.0 0.0 0.0 
0.0 0.0 0.0 
0.0 0.0 0.0 
0.0 0.0 0.0 
0.0 0.0 0.0 
0.0 0.0 0.0 
0.0 0.0 0.0 
0.0 0.0 0.0 
0.0 0.0 0.0 
0.0 0.0 0.0 
0.0 0.0 0.0 
0.0 0.0 0.0 
0.0 0.0 0.0 
0.0 0.0 0.0 
0.0 0.0 0.0 
0.0 0.0 0.0 
0.0 0.0 0.0 
0.0 0.0 0.0 
0.0 0.0 0.0 
0.0 0.0 0.0 
0.0 0.0 0.0 
0.0 0.0 0.0 
0.0 0.0 0.0 
0.0 0.0 0.0 
0.0 0.0 0.0 
0.0 0.0 0.0 
0.0 0.0 0.0 
0.0 0.0 0.0 
0.0 0.0 0.0 
0.0 0.0 0.0 
0.0 0.0 0.0 
0.0 0.0 0.0 
0.0 0.0 0.0 
0.0 0.0 0.0 
0.0 0.0 0.0 
0.0 0.0 0.0 
0.0 0.0 0.0 
0.0 0.0 0.0 
0.0 0.0 0.0 
0.0 0.0 0.0 
0.0 0.0 0.0 
0.0 0.0 0.0 
0.0 0.0 0.0 
0.0 0.0 0.0 
0.0 0.0 0.0 
0.0 0.0 0.0 
0.0 0.0 0.0 
0.0 0.0 0.0 
0.0 0.0 0.0 
0.0 0.0 0.0 
0.0 0.0 0.0 
0.0 0.0 0.0 
0.0 0.0 0.0 
0.0 0.0 0.0 
0.0 0.0 0.0 
0.0 0.0 0.0 
0.0 0.0 0.0 
0.0 0.0 0.0 
0.0 0.0 0.0 
0.0 0.0 0.0 
0.0 0.0 0.0 
0.0 0.0 0.0 
0.0 0.0 0.0 
0.0 0.0 0.0 
0.0 0.0 0.0 
0.0 0.0 0.0 
0.0 0.0 0.0 
0.0 0.0 0.0 
0.0 0.0 0.0 
0.0 0.0 0.0 
0.0 0.0 0.0 
0.0 0.0 0.0 
0.0 0.0 0.0 
0.0 0.0 0.0 
0.0 0.0 0.0 
0.0 0.0 0.0 
0.0 0.0 0.0 
0.0 0.0 0.0 
0.0 0.0 0.0 
0.0 0.0 0.0 
0.0 0.0 0.0 
0.0 0.0 0.0 
0.0 0.0 0.0 
0.0 0.0 0.0 
0.0 0.0 0.0 
0.0 0.0 0.0 
0.0 0.0 0.0 
0.0 0.0 0.0 
0.0 0.0 0.0 
0.0 0.0 0.0 
0.0 0.0 0.0 
0.0 0.0 0.0 
0.0 0.0 0.0 
0.0 0.0 0.0 
0.0 0.0 0.0 
0.0 0.0 0.0 
0.0 0.0 0.0 
0.0 0.0 0.0 
0.0 0.0 0.0 
0.0 0.0 0.0 
0.0 0.0 0.0 
0.0 0.0 0.0 
0.0 0.0 0.0 
0.0 0.0 0.0 
0.0 0.0 0.0 
0.0 0.0 0.0 
0.0 0.0 0.0 
0.0 0.0 0.0 
0.0 0.0 0.0 
0.0 0.0 0.0 
0.0 0.0 0.0 
0.0 0.0 0.0 
0.0 0.0 0.0 
0.0 0.0 0.0 
0.0 0.0 0.0 
0.0 0.0 0.0 
0.0 0.0 0.0 
0.0 0.0 0.0 
0.0 0.0 0.0 
0.0 0.0 0.0 
0.0 0.0 0.0 
0.0 0.0 0.0 
0.0 0.0 0.0 
0.0 0.0 0.0 
0.0 0.0 0.0 
0.0 0.0 0.0 
0.0 0.0 0.0 
0.0 0.0 0.0 
0.0 0.0 0.0 
0.0 0.0 0.0 
0.0 0.0 0.0 
0.0 0.0 0.0 
0.0 0.0 0.0 
0.0 0.0 0.0 
0.0 0.0 0.0 
0.0 0.0 0.0 
0.0 0.0 0.0 
0.0 0.0 0.0 
0.0 0.0 0.0 
0.0 0.0 0.0 
0.0 0.0 0.0 
0.0 0.0 0.0 
0.0 0.0 0.0 
0.0 0.0 0.0 
0.0 0.0 0.0 
0.0 0.0 0.0 
0.0 0.0 0.0 
0.0 0.0 0.0 
0.0 0.0 0.0 
0.0 0.0 0.0 
0.0 0.0 0.0 
0.0 0.0 0.0 
0.0 0.0 0.0 
0.0 0.0 0.0 
0.0 0.0 0.0 
0.0 0.0 0.0 
0.0 0.0 0.0 
0.0 0.0 0.0 
0.0 0.0 0.0 
0.0 0.0 0.0 
0.0 0.0 0.0 
0.0 0.0 0.0 
0.0 0.0 0.0 
0.0 0.0 0.0 
0.0 0.0 0.0 
0.0 0.0 0.0 
0.0 0.0 0.0 
0.0 0.0 0.0 
0.0 0.0 0.0 
0.0 0.0 0.0 
0.0 0.0 0.0 
0.0 0.0 0.0 
0.0 0.0 0.0 
0.0 0.0 0.0 
0.0 0.0 0.0 
0.0 0.0 0.0 
0.0 0.0 0.0 
0.0 0.0 0.0 
0.0 0.0 0.0 
0.0 0.0 0.0 
0.0 0.0 0.0 
0.0 0.0 0.0 
0.0 0.0 0.0 
0.0 0.0 0.0 
0.0 0.0 0.0 
0.0 0.0 0.0 
0.0 0.0 0.0 
0.0 0.0 0.0 
0.0 0.0 0.0 
0.0 0.0 0.0 
0.0 0.0 0.0 
0.0 0.0 0.0 
0.0 0.0 0.0 
0.0 0.0 0.0 
0.0 0.0 0.0 
0.0 0.0 0.0 
0.0 0.0 0.0 
0.0 0.0 0.0 
0.0 0.0 0.0 
0.0 0.0 0.0 
0.0 0.0 0.0 
0.0 0.0 0.0 
0.0 0.0 0.0 
0.0 0.0 0.0 
0.0 0.0 0.0 
0.0 0.0 0.0 
0.0 0.0 0.0 
0.0 0.0 0.0 
0.0 0.0 0.0 
0.0 0.0 0.0 
0.0 0.0 0.0 
0.0 0.0 0.0 
0.0 0.0 0.0 
0.0 0.0 0.0 
0.0 0.0 0.0 
0.0 0.0 0.0 
0.0 0.0 0.0 
0.0 0.0 0.0 
0.0 0.0 0.0 
0.0 0.0 0.0 
0.0 0.0 0.0 
0.0 0.0 0.0 
0.0 0.0 0.0 
0.0 0.0 0.0 
0.0 0.0 0.0 
0.0 0.0 0.0 
0.0 0.0 0.0 
0.0 0.0 0.0 
0.0 0.0 0.0 
0.0 0.0 0.0 
0.0 0.0 0.0 
0.0 0.0 0.0 
0.0 0.0 0.0 
0.0 0.0 0.0 
0.0 0.0 0.0 
0.0 0.0 0.0 
0.0 0.0 0.0 
0.0 0.0 0.0 
0.0 0.0 0.0 
0.0 0.0 0.0 
0.0 0.0 0.0 
0.0 0.0 0.0 
0.0 0.0 0.0 
0.0 0.0 0.0 
0.0 0.0 0.0 
0.0 0.0 0.0 
0.0 0.0 0.0 
0.0 0.0 0.0 
0.0 0.0 0.0 
0.0 0.0 0.0 
0.0 0.0 0.0 
0.0 0.0 0.0 
0.0 0.0 0.0 
0.0 0.0 0.0 
0.0 0.0 0.0 
0.0 0.0 0.0 
0.0 0.0 0.0 
0.0 0.0 0.0 
0.0 0.0 0.0 
0.0 0.0 0.0 
0.0 0.0 0.0 
0.0 0.0 0.0 
0.0 0.0 0.0 
0.0 0.0 0.0 
0.0 0.0 0.0 
0.0 0.0 0.0 
0.0 0.0 0.0 
0.0 0.0 0.0 
0.0 0.0 0.0 
0.0 0.0 0.0 
0.0 0.0 0.0 
0.0 0.0 0.0 
0.0 0.0 0.0 
0.0 0.0 0.0 
0.0 0.0 0.0 
0.0 0.0 0.0 
0.0 0.0 0.0 
0.0 0.0 0.0 
0.0 0.0 0.0 
0.0 0.0 0.0 
0.0 0.0 0.0 
0.0 0.0 0.0 
0.0 0.0 0.0 
0.0 0.0 0.0 
0.0 0.0 0.0 
0.0 0.0 0.0 
0.0 0.0 0.0 
0.0 0.0 0.0 
0.0 0.0 0.0 
0.0 0.0 0.0 
0.0 0.0 0.0 
0.0 0.0 0.0 
0.0 0.0 0.0 
0.0 0.0 0.0 
0.0 0.0 0.0 
0.0 0.0 0.0 
0.0 0.0 0.0 
0.0 0.0 0.0 
0.0 0.0 0.0 
0.0 0.0 0.0 
0.0 0.0 0.0 
0.0 0.0 0.0 
0.0 0.0 0.0 
0.0 0.0 0.0 
0.0 0.0 0.0 
0.0 0.0 0.0 
0.0 0.0 0.0 
0.0 0.0 0.0 
0.0 0.0 0.0 
0.0 0.0 0.0 
0.0 0.0 0.0 
0.0 0.0 0.0 
0.0 0.0 0.0 
0.0 0.0 0.0 
0.0 0.0 0.0 
0.0 0.0 0.0 
0.0 0.0 0.0 
0.0 0.0 0.0 
0.0 0.0 0.0 
0.0 0.0 0.0 
0.0 0.0 0.0 
0.0 0.0 0.0 
0.0 0.0 0.0 
0.0 0.0 0.0 
0.0 0.0 0.0 
0.0 0.0 0.0 
0.0 0.0 0.0 
0.0 0.0 0.0 
0.0 0.0 0.0 
0.0 0.0 0.0 
0.0 0.0 0.0 
0.0 0.0 0.0 
0.0 0.0 0.0 
0.0 0.0 0.0 
0.0 0.0 0.0 
0.0 0.0 0.0 
0.0 0.0 0.0 
0.0 0.0 0.0 
0.0 0.0 0.0 
0.0 0.0 0.0 
0.0 0.0 0.0 
0.0 0.0 0.0 
0.0 0.0 0.0 
0.0 0.0 0.0 
0.0 0.0 0.0 
0.0 0.0 0.0 
0.0 0.0 0.0 
0.0 0.0 0.0 
0.0 0.0 0.0 
0.0 0.0 0.0 
0.0 0.0 0.0 
0.0 0.0 0.0 
0.0 0.0 0.0 
0.0 0.0 0.0 
0.0 0.0 0.0 
0.0 0.0 0.0 
0.0 0.0 0.0 
0.0 0.0 0.0 
0.0 0.0 0.0 
0.0 0.0 0.0 
0.0 0.0 0.0 
0.0 0.0 0.0 
0.0 0.0 0.0 
0.0 0.0 0.0 
0.0 0.0 0.0 
0.0 0.0 0.0 
0.0 0.0 0.0 
0.0 0.0 0.0 
0.0 0.0 0.0 
0.0 0.0 0.0 
0.0 0.0 0.0 
0.0 0.0 0.0 
0.0 0.0 0.0 
0.0 0.0 0.0 
0.0 0.0 0.0 
0.0 0.0 0.0 
0.0 0.0 0.0 
0.0 0.0 0.0 
0.0 0.0 0.0 
0.0 0.0 0.0 
0.0 0.0 0.0 
0.0 0.0 0.0 
0.0 0.0 0.0 
0.0 0.0 0.0 
0.0 0.0 0.0 
0.0 0.0 0.0 
0.0 0.0 0.0 
0.0 0.0 0.0 
0.0 0.0 0.0 
0.0 0.0 0.0 
0.0 0.0 0.0 
0.0 0.0 0.0 
0.0 0.0 0.0 
0.0 0.0 0.0 
0.0 0.0 0.0 
0.0 0.0 0.0 
0.0 0.0 0.0 
0.0 0.0 0.0 
0.0 0.0 0.0 
0.0 0.0 0.0 
0.0 0.0 0.0 
0.0 0.0 0.0 
0.0 0.0 0.0 
0.0 0.0 0.0 
0.0 0.0 0.0 
0.0 0.0 0.0 
0.0 0.0 0.0 
0.0 0.0 0.0 
0.0 0.0 0.0 
0.0 0.0 0.0 
0.0 0.0 0.0 
0.0 0.0 0.0 
0.0 0.0 0.0 
0.0 0.0 0.0 
0.0 0.0 0.0 
0.0 0.0 0.0 
0.0 0.0 0.0 
0.0 0.0 0.0 
0.0 0.0 0.0 
0.0 0.0 0.0 
0.0 0.0 0.0 
0.0 0.0 0.0 
0.0 0.0 0.0 
0.0 0.0 0.0 
0.0 0.0 0.0 
0.0 0.0 0.0 
0.0 0.0 0.0 
0.0 0.0 0.0 
0.0 0.0 0.0 
0.0 0.0 0.0 
0.0 0.0 0.0 
0.0 0.0 0.0 
0.0 0.0 0.0 
0.0 0.0 0.0 
0.0 0.0 0.0 
0.0 0.0 0.0 
0.0 0.0 0.0 
0.0 0.0 0.0 
0.0 0.0 0.0 
0.0 0.0 0.0 
0.0 0.0 0.0 
0.0 0.0 0.0 
0.0 0.0 0.0 
0.0 0.0 0.0 
0.0 0.0 0.0 
0.0 0.0 0.0 
0.0 0.0 0.0 
0.0 0.0 0.0 
0.0 0.0 0.0 
0.0 0.0 0.0 
0.0 0.0 0.0 
0.0 0.0 0.0 
0.0 0.0 0.0 
0.0 0.0 0.0 
0.0 0.0 0.0 
0.0 0.0 0.0 
0.0 0.0 0.0 
0.0 0.0 0.0 
0.0 0.0 0.0 
0.0 0.0 0.0 
0.0 0.0 0.0 
0.0 0.0 0.0 
0.0 0.0 0.0 
0.0 0.0 0.0 
0.0 0.0 0.0 
0.0 0.0 0.0 
0.0 0.0 0.0 
0.0 0.0 0.0 
0.0 0.0 0.0 
0.0 0.0 0.0 
0.0 0.0 0.0 
0.0 0.0 0.0 
0.0 0.0 0.0 
0.0 0.0 0.0 
0.0 0.0 0.0 
0.0 0.0 0.0 
0.0 0.0 0.0 
0.0 0.0 0.0 
0.0 0.0 0.0 
0.0 0.0 0.0 
0.0 0.0 0.0 
0.0 0.0 0.0 
0.0 0.0 0.0 
0.0 0.0 0.0 
0.0 0.0 0.0 
0.0 0.0 0.0 
0.0 0.0 0.0 
0.0 0.0 0.0 
0.0 0.0 0.0 
0.0 0.0 0.0 
0.0 0.0 0.0 
0.0 0.0 0.0 
0.0 0.0 0.0 
0.0 0.0 0.0 
0.0 0.0 0.0 
0.0 0.0 0.0 
0.0 0.0 0.0 
0.0 0.0 0.0 
0.0 0.0 0.0 
0.0 0.0 0.0 
0.0 0.0 0.0 
0.0 0.0 0.0 
0.0 0.0 0.0 
0.0 0.0 0.0 
0.0 0.0 0.0 
0.0 0.0 0.0 
0.0 0.0 0.0 
0.0 0.0 0.0 
0.0 0.0 0.0 
0.0 0.0 0.0 
0.0 0.0 0.0 
0.0 0.0 0.0 
0.0 0.0 0.0 
0.0 0.0 0.0 
0.0 0.0 0.0 
0.0 0.0 0.0 
0.0 0.0 0.0 
0.0 0.0 0.0 
0.0 0.0 0.0 
0.0 0.0 0.0 
0.0 0.0 0.0 
0.0 0.0 0.0 
0.0 0.0 0.0 
0.0 0.0 0.0 
0.0 0.0 0.0 
0.0 0.0 0.0 
0.0 0.0 0.0 
0.0 0.0 0.0 
0.0 0.0 0.0 
0.0 0.0 0.0 
0.0 0.0 0.0 
0.0 0.0 0.0 
0.0 0.0 0.0 
0.0 0.0 0.0 
0.0 0.0 0.0 
0.0 0.0 0.0 
0.0 0.0 0.0 
0.0 0.0 0.0 
0.0 0.0 0.0 
0.0 0.0 0.0 
0.0 0.0 0.0 
0.0 0.0 0.0 
0.0 0.0 0.0 
0.0 0.0 0.0 
0.0 0.0 0.0 
0.0 0.0 0.0 
0.0 0.0 0.0 
0.0 0.0 0.0 
0.0 0.0 0.0 
0.0 0.0 0.0 
0.0 0.0 0.0 
0.0 0.0 0.0 
0.0 0.0 0.0 
0.0 0.0 0.0 
0.0 0.0 0.0 
0.0 0.0 0.0 
0.0 0.0 0.0 
0.0 0.0 0.0 
0.0 0.0 0.0 
0.0 0.0 0.0 
0.0 0.0 0.0 
0.0 0.0 0.0 
0.0 0.0 0.0 
0.0 0.0 0.0 
0.0 0.0 0.0 
0.0 0.0 0.0 
0.0 0.0 0.0 
0.0 0.0 0.0 
0.0 0.0 0.0 
0.0 0.0 0.0 
0.0 0.0 0.0 
0.0 0.0 0.0 
0.0 0.0 0.0 
0.0 0.0 0.0 
0.0 0.0 0.0 
0.0 0.0 0.0 
0.0 0.0 0.0 
0.0 0.0 0.0 
0.0 0.0 0.0 
0.0 0.0 0.0 
0.0 0.0 0.0 
0.0 0.0 0.0 
0.0 0.0 0.0 
0.0 0.0 0.0 
0.0 0.0 0.0 
0.0 0.0 0.0 
0.0 0.0 0.0 
0.0 0.0 0.0 
0.0 0.0 0.0 
0.0 0.0 0.0 
0.0 0.0 0.0 
0.0 0.0 0.0 
0.0 0.0 0.0 
0.0 0.0 0.0 
0.0 0.0 0.0 
0.0 0.0 0.0 
0.0 0.0 0.0 
0.0 0.0 0.0 
0.0 0.0 0.0 
0.0 0.0 0.0 
0.0 0.0 0.0 
0.0 0.0 0.0 
0.0 0.0 0.0 
0.0 0.0 0.0 
0.0 0.0 0.0 
0.0 0.0 0.0 
0.0 0.0 0.0 
0.0 0.0 0.0 
0.0 0.0 0.0 
0.0 0.0 0.0 
0.0 0.0 0.0 
0.0 0.0 0.0 
0.0 0.0 0.0 
0.0 0.0 0.0 
0.0 0.0 0.0 
0.0 0.0 0.0 
0.0 0.0 0.0 
0.0 0.0 0.0 
0.0 0.0 0.0 
0.0 0.0 0.0 
0.0 0.0 0.0 
0.0 0.0 0.0 
0.0 0.0 0.0 
0.0 0.0 0.0 
0.0 0.0 0.0 
0.0 0.0 0.0 
0.0 0.0 0.0 
0.0 0.0 0.0 
0.0 0.0 0.0 
0.0 0.0 0.0 
0.0 0.0 0.0 
0.0 0.0 0.0 
0.0 0.0 0.0 
0.0 0.0 0.0 
0.0 0.0 0.0 
0.0 0.0 0.0 
0.0 0.0 0.0 
0.0 0.0 0.0 
0.0 0.0 0.0 
0.0 0.0 0.0 
0.0 0.0 0.0 
0.0 0.0 0.0 
0.0 0.0 0.0 
0.0 0.0 0.0 
0.0 0.0 0.0 
0.0 0.0 0.0 
0.0 0.0 0.0 
0.0 0.0 0.0 
0.0 0.0 0.0 
0.0 0.0 0.0 
0.0 0.0 0.0 
0.0 0.0 0.0 
0.0 0.0 0.0 
0.0 0.0 0.0 
0.0 0.0 0.0 
0.0 0.0 0.0 
0.0 0.0 0.0 
0.0 0.0 0.0 
0.0 0.0 0.0 
0.0 0.0 0.0 
0.0 0.0 0.0 
0.0 0.0 0.0 
0.0 0.0 0.0 
0.0 0.0 0.0 
0.0 0.0 0.0 
0.0 0.0 0.0 
0.0 0.0 0.0 
0.0 0.0 0.0 
0.0 0.0 0.0 
0.0 0.0 0.0 
0.0 0.0 0.0 
0.0 0.0 0.0 
0.0 0.0 0.0 
0.0 0.0 0.0 
0.0 0.0 0.0 
0.0 0.0 0.0 
0.0 0.0 0.0 
0.0 0.0 0.0 
0.0 0.0 0.0 
0.0 0.0 0.0 
0.0 0.0 0.0 
0.0 0.0 0.0 
0.0 0.0 0.0 
0.0 0.0 0.0 
0.0 0.0 0.0 
0.0 0.0 0.0 
0.0 0.0 0.0 
0.0 0.0 0.0 
0.0 0.0 0.0 
0.0 0.0 0.0 
0.0 0.0 0.0 
0.0 0.0 0.0 
0.0 0.0 0.0 
0.0 0.0 0.0 
0.0 0.0 0.0 
0.0 0.0 0.0 
0.0 0.0 0.0 
0.0 0.0 0.0 
0.0 0.0 0.0 
0.0 0.0 0.0 
0.0 0.0 0.0 
0.0 0.0 0.0 
0.0 0.0 0.0 
0.0 0.0 0.0 
0.0 0.0 0.0 
0.0 0.0 0.0 
0.0 0.0 0.0 
0.0 0.0 0.0 
0.0 0.0 0.0 
0.0 0.0 0.0 
0.0 0.0 0.0 
0.0 0.0 0.0 
0.0 0.0 0.0 
0.0 0.0 0.0 
0.0 0.0 0.0 
0.0 0.0 0.0 
0.0 0.0 0.0 
0.0 0.0 0.0 
0.0 0.0 0.0 
0.0 0.0 0.0 
0.0 0.0 0.0 
0.0 0.0 0.0 
0.0 0.0 0.0 
0.0 0.0 0.0 
0.0 0.0 0.0 
0.0 0.0 0.0 
0.0 0.0 0.0 
0.0 0.0 0.0 
0.0 0.0 0.0 
0.0 0.0 0.0 
0.0 0.0 0.0 
0.0 0.0 0.0 
0.0 0.0 0.0 
0.0 0.0 0.0 
0.0 0.0 0.0 
0.0 0.0 0.0 
0.0 0.0 0.0 
0.0 0.0 0.0 
0.0 0.0 0.0 
0.0 0.0 0.0 
0.0 0.0 0.0 
0.0 0.0 0.0 
0.0 0.0 0.0 
0.0 0.0 0.0 
0.0 0.0 0.0 
0.0 0.0 0.0 
0.0 0.0 0.0 
0.0 0.0 0.0 
0.0 0.0 0.0 
0.0 0.0 0.0 
0.0 0.0 0.0 
0.0 0.0 0.0 
0.0 0.0 0.0 
0.0 0.0 0.0 
0.0 0.0 0.0 
0.0 0.0 0.0 
0.0 0.0 0.0 
0.0 0.0 0.0 
0.0 0.0 0.0 
0.0 0.0 0.0 
0.0 0.0 0.0 
0.0 0.0 0.0 
0.0 0.0 0.0 
0.0 0.0 0.0 
0.0 0.0 0.0 
0.0 0.0 0.0 
0.0 0.0 0.0 
0.0 0.0 0.0 
0.0 0.0 0.0 
0.0 0.0 0.0 
0.0 0.0 0.0 
0.0 0.0 0.0 
0.0 0.0 0.0 
0.0 0.0 0.0 
0.0 0.0 0.0 
0.0 0.0 0.0 
0.0 0.0 0.0 
0.0 0.0 0.0 
0.0 0.0 0.0 
0.0 0.0 0.0 
0.0 0.0 0.0 
0.0 0.0 0.0 
0.0 0.0 0.0 
0.0 0.0 0.0 
0.0 0.0 0.0 
0.0 0.0 0.0 
0.0 0.0 0.0 
0.0 0.0 0.0 
0.0 0.0 0.0 
0.0 0.0 0.0 

TENSORS element_materi_stress float
-4.324793543334e+01 3.139142345485e+01 0.0 
3.139142345485e+01 -4.754665853171e+01 0.0 
0.0 0.0 -2.289841825438e+01 
-4.382022664010e+01 2.947619032500e+01 0.0 
2.947619032500e+01 -5.035041963233e+01 0.0 
0.0 0.0 -2.530724425715e+01 
-1.138328988256e+02 3.060550868983e+01 0.0 
3.060550868983e+01 -2.559925869305e+02 0.0 
0.0 0.0 -1.105476457268e+02 
-9.570864392929e+01 3.901554207656e+00 0.0 
3.901554207656e+00 -2.104773811800e+02 0.0 
0.0 0.0 -9.145580753278e+01 
-5.103363384310e+01 8.973390939971e-01 0.0 
8.973390939971e-01 -6.999655432201e+01 0.0 
0.0 0.0 -3.590905644953e+01 
-3.937102189026e+01 3.004170881953e+01 0.0 
3.004170881953e+01 -9.351278561296e+01 0.0 
0.0 0.0 -4.064943472502e+01 
-4.971914110891e+01 1.326361805424e-01 0.0 
1.326361805424e-01 -7.002590200947e+01 0.0 
0.0 0.0 -3.552351293551e+01 
-4.600049772717e+01 3.188037763961e+01 0.0 
3.188037763961e+01 -5.317176510066e+01 0.0 
0.0 0.0 -2.592380408609e+01 
-5.130019032295e+01 2.682025519612e+00 0.0 
2.682025519612e+00 -7.108882830694e+01 0.0 
0.0 0.0 -3.631670558897e+01 
-9.499248125716e+01 4.221744234462e+00 0.0 
4.221744234462e+00 -2.088072962500e+02 0.0 
0.0 0.0 -9.073993325216e+01 
-1.116518560300e+02 -1.170976789677e+00 0.0 
-1.170976789677e+00 -2.601995309786e+02 0.0 
0.0 0.0 -1.083755012804e+02 
-4.047884393883e+01 2.909674332209e+01 0.0 
2.909674332209e+01 -4.322897539880e+01 0.0 
0.0 0.0 -2.227313815533e+01 
-1.557753409596e+02 1.691770470293e-01 0.0 
1.691770470293e-01 -3.717438298624e+02 0.0 
0.0 0.0 -1.578557512466e+02 
-6.374810166112e+01 5.655734598945e+00 0.0 
5.655734598945e+00 -8.971251671889e+01 0.0 
0.0 0.0 -4.563818551400e+01 
-1.604049342534e+02 2.263600359223e+00 0.0 
2.263600359223e+00 -3.797593972612e+02 0.0 
0.0 0.0 -1.616492994544e+02 
-9.664943112418e+01 3.335207231944e+00 0.0 
3.335207231944e+00 -2.187725313818e+02 0.0 
0.0 0.0 -9.422658875179e+01 
-5.175072383321e+01 2.799642143743e+00 0.0 
2.799642143743e+00 -6.665730028365e+01 0.0 
0.0 0.0 -3.512240723506e+01 
-3.013887512859e+01 1.910259983388e+01 0.0 
1.910259983388e+01 -1.097886194538e+02 0.0 
0.0 0.0 -4.431760516098e+01 
-2.021012345062e+01 -5.361156312671e-01 0.0 
-5.361156312671e-01 -7.746474605471e+01 0.0 
0.0 0.0 -2.890246085160e+01 
-3.005598327845e+01 -1.916741485714e+00 0.0 
-1.916741485714e+00 -8.007588384020e+01 0.0 
0.0 0.0 -3.045945017099e+01 
-9.708348363166e+01 6.485432225094e+00 0.0 
6.485432225094e+00 -2.102371717740e+02 0.0 
0.0 0.0 -9.179619662171e+01 
-4.310080991058e+01 2.858279958187e+01 0.0 
2.858279958187e+01 -4.798175014813e+01 0.0 
0.0 0.0 -2.258094691339e+01 
-4.668417048154e+01 3.112759466598e+01 0.0 
3.112759466598e+01 -5.009179269055e+01 0.0 
0.0 0.0 -2.384456214207e+01 
-1.382907290478e+02 1.603189139407e+01 0.0 
1.603189139407e+01 -3.487722503714e+02 0.0 
0.0 0.0 -1.457188938258e+02 
-7.431754912415e+01 1.068116403730e+01 0.0 
1.068116403730e+01 -1.122143609403e+02 0.0 
0.0 0.0 -5.555957301934e+01 
-1.164569182078e+02 1.067685876454e-01 0.0 
1.067685876454e-01 -2.739676797307e+02 0.0 
0.0 0.0 -1.142960940859e+02 
-5.213720048294e+01 8.315302191249e+00 0.0 
8.315302191249e+00 -5.336647708546e+01 0.0 
0.0 0.0 -3.125110327052e+01 
-1.302867411537e+02 3.422842983652e+01 0.0 
3.422842983652e+01 -3.164810141743e+02 0.0 
0.0 0.0 -1.336303265984e+02 
-7.830188465532e+01 1.474025634978e+01 0.0 
1.474025634978e+01 -1.144149634466e+02 0.0 
0.0 0.0 -5.741505443057e+01 
-1.426253878669e+02 1.430766289562e+01 0.0 
1.430766289562e+01 -3.573302341192e+02 0.0 
0.0 0.0 -1.495866865958e+02 
-4.079993918049e+01 -2.303298398990e+01 0.0 
-2.303298398990e+01 -9.871635178011e+01 0.0 
0.0 0.0 -3.827853671047e+01 
-1.514219419022e+01 -2.223495125079e-01 0.0 
-2.223495125079e-01 -2.498015112056e+01 0.0 
0.0 0.0 -1.163670359324e+01 
-1.160405476190e+02 3.128090756910e+01 0.0 
3.128090756910e+01 -2.552940289466e+02 0.0 
0.0 0.0 -1.110003729697e+02 
-1.315121110496e+02 9.990206241563e-01 0.0 
9.990206241563e-01 -3.228342071556e+02 0.0 
0.0 0.0 -1.359038954616e+02 
-1.524749446150e+02 8.557212165672e+00 0.0 
8.557212165672e+00 -3.698524929499e+02 0.0 
0.0 0.0 -1.562982312695e+02 
-1.630530959073e+02 3.205191619831e+00 0.0 
3.205191619831e+00 -3.877226124618e+02 0.0 
0.0 0.0 -1.648327125107e+02 
-1.637441198816e+02 5.895048704319e+00 0.0 
5.895048704319e+00 -3.877811640722e+02 0.0 
0.0 0.0 -1.650575851861e+02 
-1.399165062738e+02 2.367656007507e+01 0.0 
2.367656007507e+01 -3.469758090423e+02 0.0 
0.0 0.0 -1.456676945948e+02 
-4.176288183720e+01 1.746243752872e+00 0.0 
1.746243752872e+00 -5.139053363829e+01 0.0 
0.0 0.0 -2.754602464265e+01 
-4.116818654188e+01 -1.031015699829e+00 0.0 
-1.031015699829e+00 -5.179093056177e+01 0.0 
0.0 0.0 -2.748773513109e+01 
-5.134910054722e+01 3.011060689915e+01 0.0 
3.011060689915e+01 -4.880893580830e+01 0.0 
0.0 0.0 -2.517754833831e+01 
-1.553716460828e+02 1.038569962029e+01 0.0 
1.038569962029e+01 -3.733155394018e+02 0.0 
0.0 0.0 -1.582061556454e+02 
-4.408138621024e+01 3.137258489090e+01 0.0 
3.137258489090e+01 -4.756975330356e+01 0.0 
0.0 0.0 -2.429987776727e+01 
-5.564024007597e+01 8.295819802634e+00 0.0 
8.295819802634e+00 -5.343860857020e+01 0.0 
0.0 0.0 -3.201308478727e+01 
-9.261460159126e+01 1.529820018962e+00 0.0 
1.529820018962e+00 -1.987107371718e+02 0.0 
0.0 0.0 -8.699760162893e+01 
-4.499466226404e+01 3.029843566405e+01 0.0 
3.029843566405e+01 -4.836378917799e+01 0.0 
0.0 0.0 -2.452537820139e+01 
-3.753395373770e+01 -2.533591306568e+01 0.0 
-2.533591306568e+01 -9.523784772303e+01 0.0 
0.0 0.0 -3.900009274030e+01 
-9.085584234395e+01 1.492423047871e+00 0.0 
1.492423047871e+00 -1.996666743722e+02 0.0 
0.0 0.0 -8.675675501486e+01 
-3.642244838602e+01 -2.705170882789e+01 0.0 
-2.705170882789e+01 -5.758027259926e+01 0.0 
0.0 0.0 -2.853959704608e+01 
-6.190311373115e+01 6.388277015702e+00 0.0 
6.388277015702e+00 -8.092797985033e+01 0.0 
0.0 0.0 -4.244932807444e+01 
-4.869734572758e+01 3.116064242681e+01 0.0 
3.116064242681e+01 -5.055270586633e+01 0.0 
0.0 0.0 -2.359151288996e+01 
-3.400432741157e+01 -7.723380913619e-01 0.0 
-7.723380913619e-01 -9.771240635302e+01 0.0 
0.0 0.0 -3.805435898591e+01 
-4.261393167583e+01 -1.731766360490e+01 0.0 
-1.731766360490e+01 -1.252874082342e+02 0.0 
0.0 0.0 -4.585223942127e+01 
-4.812394527046e+01 2.727973496227e+01 0.0 
2.727973496227e+01 -4.807862419689e+01 0.0 
0.0 0.0 -2.371045905469e+01 
-1.074740355954e+02 2.462325951311e+01 0.0 
2.462325951311e+01 -2.378830401872e+02 0.0 
0.0 0.0 -1.032071227348e+02 
-5.791310004533e+01 -2.083876762418e+00 0.0 
-2.083876762418e+00 -1.308002512956e+02 0.0 
0.0 0.0 -5.228928952053e+01 
-4.409766367070e+01 -2.184325905215e+00 0.0 
-2.184325905215e+00 -1.009361008908e+02 0.0 
0.0 0.0 -3.972481150664e+01 
-1.309309729662e+02 -4.849824943126e-01 0.0 
-4.849824943126e-01 -3.226436020505e+02 0.0 
0.0 0.0 -1.356723725050e+02 
-1.725896038350e+01 -1.031501864219e+00 0.0 
-1.031501864219e+00 -5.951657540263e+01 0.0 
0.0 0.0 -2.123410287585e+01 
-9.764528562213e+01 5.342563936668e+00 0.0 
5.342563936668e+00 -2.192401118941e+02 0.0 
0.0 0.0 -9.466561925486e+01 
-6.327042065174e+01 -2.513221281708e+01 0.0 
-2.513221281708e+01 -9.374367319280e+01 0.0 
0.0 0.0 -4.813412843655e+01 
-1.240953708262e+02 2.797825943193e+01 0.0 
2.797825943193e+01 -3.141165723266e+02 0.0 
0.0 0.0 -1.310635829458e+02 
-5.163650504537e+01 3.351486620770e+01 0.0 
3.351486620770e+01 -1.060460578852e+02 0.0 
0.0 0.0 -4.499803763369e+01 
-3.820949307150e+01 -1.763564249525e+01 0.0 
-1.763564249525e+01 -1.123379599032e+02 0.0 
0.0 0.0 -3.818056676109e+01 
-1.555102610705e+02 2.818152716180e+00 0.0 
2.818152716180e+00 -3.714842211869e+02 0.0 
0.0 0.0 -1.576983446772e+02 
-4.520931381379e+01 2.781783657080e+01 0.0 
2.781783657080e+01 -4.792666487764e+01 0.0 
0.0 0.0 -2.236664046258e+01 
-4.755107525422e+01 -8.475644253958e+00 0.0 
-8.475644253958e+00 -1.193739549245e+02 0.0 
0.0 0.0 -5.131239593627e+01 
-1.185395408034e+02 3.321125329200e+01 0.0 
3.321125329200e+01 -2.609998468919e+02 0.0 
0.0 0.0 -1.134618163086e+02 
-4.062309700095e+01 -1.211170924567e+01 0.0 
-1.211170924567e+01 -7.139834736227e+01 0.0 
0.0 0.0 -2.800375512881e+01 
-1.237825127895e+02 3.410097420189e+01 0.0 
3.410097420189e+01 -2.888374565214e+02 0.0 
0.0 0.0 -1.233859907933e+02 
-1.192768455865e+02 3.696884122855e-01 0.0 
3.696884122855e-01 -2.848777846670e+02 0.0 
0.0 0.0 -1.189800268955e+02 
-1.022900179134e+02 1.644968896735e+01 0.0 
1.644968896735e+01 -2.400100417979e+02 0.0 
0.0 0.0 -1.022900179134e+02 
-1.251610404750e+02 3.138160944772e+01 0.0 
3.138160944772e+01 -3.030573309689e+02 0.0 
0.0 0.0 -1.280655114332e+02 
-9.209665879287e+00 -6.388333613886e-01 0.0 
-6.388333613886e-01 -2.992012360208e+01 0.0 
0.0 0.0 -8.963748646217e+00 
-6.401178221960e+01 -3.374570405803e+00 0.0 
-3.374570405803e+00 -1.357268433327e+02 0.0 
0.0 0.0 -5.451261405440e+01 
-1.009276022734e+02 1.291121430124e+01 0.0 
1.291121430124e+01 -2.166391233200e+02 0.0 
0.0 0.0 -9.487001767803e+01 
-1.131395775155e+02 2.681291420688e+01 0.0 
2.681291420688e+01 -2.429522999445e+02 0.0 
0.0 0.0 -1.064275632380e+02 
-4.567513672157e+01 3.166955102047e+01 0.0 
3.166955102047e+01 -4.943622777866e+01 0.0 
0.0 0.0 -2.447379962313e+01 
-1.808229891291e+01 -3.139813340575e+00 0.0 
-3.139813340575e+00 -5.884568837031e+01 0.0 
0.0 0.0 -2.116627864957e+01 
-4.575821052559e+01 3.232069081135e+01 0.0 
3.232069081135e+01 -4.955776899979e+01 0.0 
0.0 0.0 -2.428804880020e+01 
-4.207474047205e+01 -1.499811023152e+01 0.0 
-1.499811023152e+01 -7.234637863257e+01 0.0 
0.0 0.0 -2.876578675432e+01 
-5.155941451352e+01 2.308296295711e+00 0.0 
2.308296295711e+00 -6.575442024582e+01 0.0 
0.0 0.0 -3.479415042780e+01 
-4.632956340976e+01 3.171370850521e+01 0.0 
3.171370850521e+01 -5.071965930202e+01 0.0 
0.0 0.0 -2.463546531994e+01 
-4.099184682059e+01 2.874280294989e+01 0.0 
2.874280294989e+01 -4.356824322769e+01 0.0 
0.0 0.0 -2.208679594920e+01 
-5.676721355694e+01 3.386577510964e+00 0.0 
3.386577510964e+00 -8.175202297132e+01 0.0 
0.0 0.0 -4.115577095848e+01 
-5.456092965351e+01 1.067296764587e+00 0.0 
1.067296764587e+00 -8.077282321286e+01 0.0 
0.0 0.0 -4.020012585991e+01 
-1.218816140801e+02 7.210899132477e-01 0.0 
7.210899132477e-01 -2.931514289664e+02 0.0 
0.0 0.0 -1.227025691377e+02 
-1.273736044109e+02 -7.898145900029e-01 0.0 
-7.898145900029e-01 -3.143674857807e+02 0.0 
0.0 0.0 -1.321038606980e+02 
-1.012336924035e+02 3.061177704735e+01 0.0 
3.061177704735e+01 -2.053306772345e+02 0.0 
0.0 0.0 -9.156931089139e+01 
-5.287584484772e+01 3.497411039307e+00 0.0 
3.497411039307e+00 -6.993650238888e+01 0.0 
0.0 0.0 -3.644370417098e+01 
-1.764902748087e+01 -3.526381992393e+00 0.0 
-3.526381992393e+00 -2.664370431988e+01 0.0 
0.0 0.0 -1.226569125637e+01 
-6.190132669545e+01 1.035502594394e+01 0.0 
1.035502594394e+01 -7.210475060274e+01 0.0 
0.0 0.0 -3.980182318946e+01 
-7.646089797211e+01 1.758553471872e+00 0.0 
1.758553471872e+00 -1.500546531551e+02 0.0 
0.0 0.0 -6.755466533815e+01 
-7.668494160420e+01 1.306096944195e+00 0.0 
1.306096944195e+00 -1.467229159320e+02 0.0 
0.0 0.0 -6.662235726085e+01 
-1.095908107073e+02 1.824402846996e+01 0.0 
1.824402846996e+01 -2.442766865744e+02 0.0 
0.0 0.0 -1.057602491845e+02 
-1.465628347931e+02 2.706314039839e+01 0.0 
2.706314039839e+01 -3.523045740101e+02 0.0 
0.0 0.0 -1.492602226410e+02 
-5.362668179119e+01 3.721369449388e+00 0.0 
3.721369449388e+00 -6.579878971026e+01 0.0 
0.0 0.0 -3.542764145044e+01 
-1.516142933148e+02 9.941936838578e+00 0.0 
9.941936838578e+00 -3.721990387165e+02 0.0 
0.0 0.0 -1.567439996094e+02 
-5.960585104678e+01 9.559201861406e-01 0.0 
9.559201861406e-01 -1.006167931301e+02 0.0 
0.0 0.0 -4.766679325306e+01 
-5.006785739305e+01 3.210445731118e+01 0.0 
3.210445731118e+01 -8.846105326157e+01 0.0 
0.0 0.0 -3.764285858020e+01 
-4.792003260666e+01 2.227603608574e+00 0.0 
2.227603608574e+00 -6.109119310083e+01 0.0 
0.0 0.0 -3.230336771225e+01 
-1.598051437460e+02 9.237158659048e-01 0.0 
9.237158659048e-01 -3.793830981179e+02 0.0 
0.0 0.0 -1.613564725592e+02 
-1.001286978570e+02 2.502489340851e+01 0.0 
2.502489340851e+01 -2.743530202606e+02 0.0 
0.0 0.0 -1.119445154353e+02 
-1.264713523575e+02 2.936240249144e+01 0.0 
2.936240249144e+01 -3.154378930037e+02 0.0 
0.0 0.0 -1.321727736084e+02 
-4.687130268308e+01 3.152002241092e+01 0.0 
3.152002241092e+01 -1.053393564491e+02 0.0 
0.0 0.0 -4.283948401245e+01 
-5.152973742441e+01 -3.012951643338e+01 0.0 
-3.012951643338e+01 -7.794393328039e+01 0.0 
0.0 0.0 -3.659466033319e+01 
-1.457937210400e+02 1.631222142064e+00 0.0 
1.631222142064e+00 -3.519018019178e+02 0.0 
0.0 0.0 -1.489086568873e+02 
-8.305936060203e+01 1.817984237680e+00 0.0 
1.817984237680e+00 -1.664272044034e+02 0.0 
0.0 0.0 -7.444596950164e+01 
-5.563380589139e+01 -3.763244911508e+01 0.0 
-3.763244911508e+01 -7.181436807925e+01 0.0 
0.0 0.0 -3.939164956318e+01 
-1.594112284672e+02 3.831357873316e+00 0.0 
3.831357873316e+00 -3.775738726168e+02 0.0 
0.0 0.0 -1.606955303252e+02 
-9.627611442848e+01 2.835553660200e+01 0.0 
2.835553660200e+01 -1.982265621314e+02 0.0 
0.0 0.0 -8.795080296797e+01 
-9.495494682844e+00 3.867603685210e-02 0.0 
3.867603685210e-02 -2.154437616900e+01 0.0 
0.0 0.0 -7.146476418697e+00 
-5.790882117246e+01 3.050630619314e+01 0.0 
3.050630619314e+01 -1.574927143965e+02 0.0 
0.0 0.0 -6.510448630765e+01 
-6.290314815472e+01 1.984438087503e+01 0.0 
1.984438087503e+01 -6.125524699737e+01 0.0 
0.0 0.0 -3.570719253360e+01 
-7.864588137534e+01 -3.589908845902e+00 0.0 
-3.589908845902e+00 -1.669724433228e+02 0.0 
0.0 0.0 -6.756207306976e+01 
-4.703037681475e+01 3.319844340496e+01 0.0 
3.319844340496e+01 -8.551098379305e+01 0.0 
0.0 0.0 -3.776403448355e+01 
-5.180520838871e+01 3.187804236482e+01 0.0 
3.187804236482e+01 -1.061069553380e+02 0.0 
0.0 0.0 -4.450621290048e+01 
-1.567584339563e+02 6.620519992796e+00 0.0 
6.620519992796e+00 -3.765381759575e+02 0.0 
0.0 0.0 -1.595889829741e+02 
-5.743030330336e+01 -2.442592768005e-01 0.0 
-2.442592768005e-01 -9.392959821642e+01 0.0 
0.0 0.0 -4.500797045594e+01 
-4.910794222447e+01 3.397182449762e+01 0.0 
3.397182449762e+01 -1.055109645159e+02 0.0 
0.0 0.0 -4.448510495642e+01 
-3.200334891670e+01 -6.443081577244e+00 0.0 
-6.443081577244e+00 -6.307990976219e+01 0.0 
0.0 0.0 -2.354077708775e+01 
-6.331272827535e+01 1.147226788547e+01 0.0 
1.147226788547e+01 -7.529822842663e+01 0.0 
0.0 0.0 -4.118328701059e+01 
-8.212573047822e+01 2.044185438283e+00 0.0 
2.044185438283e+00 -1.675801037517e+02 0.0 
0.0 0.0 -7.451175026898e+01 
-4.929611562147e+01 3.151440424327e+01 0.0 
3.151440424327e+01 -1.054096575940e+02 0.0 
0.0 0.0 -4.403712523830e+01 
-4.765363696327e+01 3.568793069678e+01 0.0 
3.568793069678e+01 -5.404787458357e+01 0.0 
0.0 0.0 -2.775403299739e+01 
-5.851774116999e+01 2.558736791475e+01 0.0 
2.558736791475e+01 -5.234106002244e+01 0.0 
0.0 0.0 -3.021370959027e+01 
-7.563007692309e+01 -3.892411935044e+00 0.0 
-3.892411935044e+00 -1.647643991510e+02 0.0 
0.0 0.0 -6.661428209624e+01 
-5.440516460218e+01 2.306277615616e+01 0.0 
2.306277615616e+01 -4.826841674470e+01 0.0 
0.0 0.0 -2.748314676599e+01 
-1.008307454051e+02 1.304813908823e+01 0.0 
1.304813908823e+01 -2.256698523070e+02 0.0 
0.0 0.0 -9.755017931363e+01 
-4.616708933109e+01 3.511818579940e+01 0.0 
3.511818579940e+01 -7.649546262697e+01 0.0 
0.0 0.0 -3.183240088616e+01 
-1.144303982175e+02 -1.226898302684e+00 0.0 
-1.226898302684e+00 -2.726355626875e+02 0.0 
0.0 0.0 -1.136390143437e+02 
-9.480664782300e+01 1.954740731604e+00 0.0 
1.954740731604e+00 -2.101737331305e+02 0.0 
0.0 0.0 -9.109411428605e+01 
-6.216058397342e+01 3.200848484852e+01 0.0 
3.200848484852e+01 -1.093998665346e+02 0.0 
0.0 0.0 -4.649818321067e+01 
-5.605468358310e+01 2.755793436393e+01 0.0 
2.755793436393e+01 -5.083448700378e+01 0.0 
0.0 0.0 -2.818985743467e+01 
-1.508155249853e+02 7.157078321286e+00 0.0 
7.157078321286e+00 -3.691816482566e+02 0.0 
0.0 0.0 -1.555991519726e+02 
-1.562728116964e+02 1.953398965899e+00 0.0 
1.953398965899e+00 -3.724416441381e+02 0.0 
0.0 0.0 -1.582143367504e+02 
-1.203195396483e+02 -7.350116820786e-01 0.0 
-7.350116820786e-01 -2.929661407509e+02 0.0 
0.0 0.0 -1.224802820268e+02 
-6.301095411994e+01 3.271580110705e+01 0.0 
3.271580110705e+01 -1.098084710654e+02 0.0 
0.0 0.0 -4.765729498800e+01 
-1.491470296161e+02 1.453983729074e+01 0.0 
1.453983729074e+01 -3.688685736246e+02 0.0 
0.0 0.0 -1.550046809722e+02 
-5.938093733503e+01 3.075929463263e+01 0.0 
3.075929463263e+01 -9.016226219366e+01 0.0 
0.0 0.0 -3.937269923735e+01 
-9.751005843912e+01 9.194002789542e+00 0.0 
9.194002789542e+00 -2.175691952440e+02 0.0 
0.0 0.0 -9.412377610495e+01 
-1.230185680274e+02 3.563090146492e+01 0.0 
3.563090146492e+01 -2.861454141139e+02 0.0 
0.0 0.0 -1.223491946424e+02 
-6.654009945837e+01 8.865655408673e+00 0.0 
8.865655408673e+00 -8.997059632215e+01 0.0 
0.0 0.0 -4.655320873416e+01 
-6.948427710493e+01 1.540431669043e+00 0.0 
1.540431669043e+00 -1.252516448150e+02 0.0 
0.0 0.0 -5.802077657596e+01 
-5.734125903158e+01 3.265939599518e+01 0.0 
3.265939599518e+01 -8.951666477933e+01 0.0 
0.0 0.0 -3.862892322322e+01 
-5.386746004250e+01 2.592494325671e+01 0.0 
2.592494325671e+01 -4.885742956878e+01 0.0 
0.0 0.0 -2.656531091594e+01 
-6.777461761658e+01 3.208038210283e+01 0.0 
3.208038210283e+01 -1.288718555821e+02 0.0 
0.0 0.0 -5.426534114549e+01 
-4.939470606191e+01 3.102750504511e+01 0.0 
3.102750504511e+01 -1.235368150515e+02 0.0 
0.0 0.0 -4.944287354430e+01 
-4.733838193613e+01 1.768925957549e+00 0.0 
1.768925957549e+00 -6.369314749552e+01 0.0 
0.0 0.0 -3.290945882949e+01 
-5.463292662480e+01 2.767512599168e+01 0.0 
2.767512599168e+01 -1.545551143834e+02 0.0 
0.0 0.0 -6.168150102438e+01 
-1.232316229865e+01 -1.102489749355e+00 0.0 
-1.102489749355e+00 -2.565728774440e+01 0.0 
0.0 0.0 -1.017944480992e+01 
-5.146093278361e+01 3.916229287123e-01 0.0 
3.916229287123e-01 -7.860477319525e+01 0.0 
0.0 0.0 -3.861971179366e+01 
-1.484294028870e+01 -1.083711402478e+00 0.0 
-1.083711402478e+00 -5.991650681061e+01 0.0 
0.0 0.0 -2.138332827386e+01 
-6.109888605625e+01 2.265614258853e+01 0.0 
2.265614258853e+01 -5.673769934607e+01 0.0 
0.0 0.0 -3.308561347412e+01 
-1.542005760236e+02 1.356141638789e+01 0.0 
1.356141638789e+01 -3.713616183218e+02 0.0 
0.0 0.0 -1.572686583036e+02 
-4.809126564498e+01 3.386106481072e+01 0.0 
3.386106481072e+01 -1.059452764281e+02 0.0 
0.0 0.0 -4.440744157553e+01 
-1.238202879423e+02 -7.289873953657e-01 0.0 
-7.289873953657e-01 -3.031520285412e+02 0.0 
0.0 0.0 -1.270718326952e+02 
-4.478632970075e+01 2.995798705325e+01 0.0 
2.995798705325e+01 -4.773186212513e+01 0.0 
0.0 0.0 -2.451145060227e+01 
-9.879865568118e+01 2.401628288187e+01 0.0 
2.401628288187e+01 -2.736548394056e+02 0.0 
0.0 0.0 -1.113360485260e+02 
-4.597453597785e+01 4.374484208674e-01 0.0 
4.374484208674e-01 -6.492664160332e+01 0.0 
0.0 0.0 -3.287035327435e+01 
-5.504174846443e+01 2.930225131443e+01 0.0 
2.930225131443e+01 -1.557523805566e+02 0.0 
0.0 0.0 -6.266431840589e+01 
-1.358681950734e+02 1.535922129638e+00 0.0 
1.535922129638e+00 -3.322956969876e+02 0.0 
0.0 0.0 -1.400491676183e+02 
-3.698752193985e+01 -1.065557209230e+01 0.0 
-1.065557209230e+01 -6.422636999853e+01 0.0 
0.0 0.0 -2.683938194615e+01 
-1.453867485747e+02 5.772951304397e-02 0.0 
5.772951304397e-02 -3.514904897211e+02 0.0 
0.0 0.0 -1.486631714888e+02 
-6.912990044006e+01 2.362243026884e+01 0.0 
2.362243026884e+01 -9.551250665120e+01 0.0 
0.0 0.0 -4.781541915346e+01 
-1.564847775853e+02 3.055096265079e+00 0.0 
3.055096265079e+00 -3.757812334141e+02 0.0 
0.0 0.0 -1.592798032998e+02 
-4.513892088555e+01 8.092893899611e-02 0.0 
8.092893899611e-02 -6.388985787742e+01 0.0 
0.0 0.0 -3.230863362889e+01 
-5.004092089757e+01 3.199812376785e+01 0.0 
3.199812376785e+01 -1.228913684471e+02 0.0 
0.0 0.0 -5.086528502648e+01 
-5.629034706667e+01 1.628018616768e+01 0.0 
1.628018616768e+01 -5.188056695178e+01 0.0 
0.0 0.0 -3.060970161348e+01 
-1.122911970561e+02 2.862378032799e-03 0.0 
2.862378032799e-03 -2.613833256828e+02 0.0 
0.0 0.0 -1.087560534128e+02 
-4.479278284504e+01 3.188042418505e+01 0.0 
3.188042418505e+01 -4.642345368331e+01 0.0 
0.0 0.0 -2.411897736429e+01 
-5.175026385319e+01 2.558477314919e+01 0.0 
2.558477314919e+01 -1.524862398291e+02 0.0 
0.0 0.0 -5.922524017121e+01 
-7.377268402327e+01 3.202269171916e+00 0.0 
3.202269171916e+00 -1.365283163754e+02 0.0 
0.0 0.0 -6.269030011961e+01 
-4.581002640382e+01 -1.280388720104e-01 0.0 
-1.280388720104e-01 -6.373951107137e+01 0.0 
0.0 0.0 -3.246486124256e+01 
-5.354329137216e+01 3.116168830966e+01 0.0 
3.116168830966e+01 -1.398604048071e+02 0.0 
0.0 0.0 -5.790056564001e+01 
-5.531712816877e+01 1.929341070054e+01 0.0 
1.929341070054e+01 -4.810404402625e+01 0.0 
0.0 0.0 -2.839748211539e+01 
-1.071915127306e+02 3.126153938431e+01 0.0 
3.126153938431e+01 -2.472418056856e+02 0.0 
0.0 0.0 -1.059299955249e+02 
-8.439949021403e+01 -3.441164332073e+00 0.0 
-3.441164332073e+00 -1.846620463107e+02 0.0 
0.0 0.0 -7.514974462618e+01 
-1.342657144033e+02 3.191041988598e+01 0.0 
3.191041988598e+01 -3.217559378109e+02 0.0 
0.0 0.0 -1.364064956643e+02 
-1.252212407317e+02 3.629605405046e+01 0.0 
3.629605405046e+01 -2.929379421617e+02 0.0 
0.0 0.0 -1.250477548680e+02 
-4.672734440967e+01 3.129617919850e+01 0.0 
3.129617919850e+01 -6.991673544603e+01 0.0 
0.0 0.0 -3.101410816906e+01 
-8.666565410631e+01 -3.320893409073e+00 0.0 
-3.320893409073e+00 -1.853578100586e+02 0.0 
0.0 0.0 -7.588490205667e+01 
-1.257662008676e+02 1.784251948846e+01 0.0 
1.784251948846e+01 -3.283391520089e+02 0.0 
0.0 0.0 -1.358316058629e+02 
-5.433640128682e+01 3.178525559554e+01 0.0 
3.178525559554e+01 -6.935133991105e+01 0.0 
0.0 0.0 -3.189364491584e+01 
-4.395124836948e+01 3.204079210641e+01 0.0 
3.204079210641e+01 -6.618836078004e+01 0.0 
0.0 0.0 -3.116232223288e+01 
-6.457737363471e+01 1.932007311735e+01 0.0 
1.932007311735e+01 -7.711888795096e+01 0.0 
0.0 0.0 -4.106739356832e+01 
-5.327628923480e+01 3.023535773222e+01 0.0 
3.023535773222e+01 -1.411451528389e+02 0.0 
0.0 0.0 -5.615164212384e+01 
-9.556622060143e+01 5.994166470088e+00 0.0 
5.994166470088e+00 -2.154851500775e+02 0.0 
0.0 0.0 -9.291541120368e+01 
-9.578896178340e+01 2.538651432426e+01 0.0 
2.538651432426e+01 -1.868942265621e+02 0.0 
0.0 0.0 -8.440495650365e+01 
-1.407481174831e+02 -4.811919464228e-01 0.0 
-4.811919464228e-01 -3.421222754991e+02 0.0 
0.0 0.0 -1.444611178947e+02 
-4.567596253792e+01 3.116951656107e+01 0.0 
3.116951656107e+01 -4.885405179032e+01 0.0 
0.0 0.0 -2.447485180842e+01 
-4.925700762359e+01 2.299358995601e+01 0.0 
2.299358995601e+01 -1.512200903120e+02 0.0 
0.0 0.0 -5.693047043815e+01 
-9.932676769081e+01 2.743489720114e+01 0.0 
2.743489720114e+01 -2.033675157965e+02 0.0 
0.0 0.0 -9.040828504619e+01 
-8.907719300598e+01 2.857983921919e+01 0.0 
2.857983921919e+01 -7.839460964480e+01 0.0 
0.0 0.0 -5.050949914774e+01 
-5.660702074108e+01 2.888669385883e+01 0.0 
2.888669385883e+01 -7.042908148604e+01 0.0 
0.0 0.0 -3.314517995235e+01 
-1.168830749798e+02 1.303956162117e+01 0.0 
1.303956162117e+01 -3.147501947688e+02 0.0 
0.0 0.0 -1.290899809246e+02 
-1.600559940342e+01 -6.090712034686e-01 0.0 
-6.090712034686e-01 -4.243201845170e+01 0.0 
0.0 0.0 -1.503343154479e+01 
-1.109854114427e+02 2.683022235162e+01 0.0 
2.683022235162e+01 -2.421198210280e+02 0.0 
0.0 0.0 -1.055315697412e+02 
-8.433531497862e+01 1.728052242956e+01 0.0 
1.728052242956e+01 -1.407433215977e+02 0.0 
0.0 0.0 -6.712359097289e+01 
-6.985065449230e+01 -1.100837301715e+01 0.0 
-1.100837301715e+01 -1.803811260821e+02 0.0 
0.0 0.0 -7.281041162003e+01 
-1.138724705446e+02 1.204420486115e+01 0.0 
1.204420486115e+01 -3.133660459230e+02 0.0 
0.0 0.0 -1.277715549403e+02 
-7.073973834086e+01 1.332353444828e+01 0.0 
1.332353444828e+01 -9.203092470053e+01 0.0 
0.0 0.0 -4.843119891242e+01 
-7.433010418728e+01 1.143108973219e+01 0.0 
1.143108973219e+01 -1.045445026446e+02 0.0 
0.0 0.0 -5.326238204956e+01 
-1.448712144996e+02 1.487208519788e+01 0.0 
1.487208519788e+01 -3.580489740613e+02 0.0 
0.0 0.0 -1.504760565683e+02 
-5.773647618897e+01 -1.343999236999e+01 0.0 
-1.343999236999e+01 -1.342508294211e+02 0.0 
0.0 0.0 -5.398226516869e+01 
-7.018308700067e+01 3.252968439583e+01 0.0 
3.252968439583e+01 -1.471874300623e+02 0.0 
0.0 0.0 -6.095614450015e+01 
-7.274880314977e+01 2.676991845439e+01 0.0 
2.676991845439e+01 -1.142437977965e+02 0.0 
0.0 0.0 -5.445509840330e+01 
-8.999432872750e+01 1.953058123273e+01 0.0 
1.953058123273e+01 -1.510236098370e+02 0.0 
0.0 0.0 -7.190538156934e+01 
-7.229887556211e+01 2.587538170914e+01 0.0 
2.587538170914e+01 -1.005278060379e+02 0.0 
0.0 0.0 -5.093231457534e+01 
-6.629725863647e+01 2.451021314663e+01 0.0 
2.451021314663e+01 -7.756095246315e+01 0.0 
0.0 0.0 -4.153073124828e+01 
-8.365156061746e+01 2.245413561943e+01 0.0 
2.245413561943e+01 -2.510918140691e+02 0.0 
0.0 0.0 -1.007789590760e+02 
-1.038550523315e+02 3.276700894191e+01 0.0 
3.276700894191e+01 -2.313312278836e+02 0.0 
0.0 0.0 -1.001558840645e+02 
-6.303433610701e+01 2.707351891269e+01 0.0 
2.707351891269e+01 -9.053659322431e+01 0.0 
0.0 0.0 -4.719508590456e+01 
-4.579895492101e+01 3.274668543009e+01 0.0 
3.274668543009e+01 -6.878819968284e+01 0.0 
0.0 0.0 -3.169130168695e+01 
-4.951096692661e+01 3.280564540120e+01 0.0 
3.280564540120e+01 -8.789886892669e+01 0.0 
0.0 0.0 -3.829346042567e+01 
-6.510468666392e+01 3.276235681955e+01 0.0 
3.276235681955e+01 -1.285921108128e+02 0.0 
0.0 0.0 -5.411801181928e+01 
-1.008777034065e+02 2.753147231254e+01 0.0 
2.753147231254e+01 -1.951837142732e+02 0.0 
0.0 0.0 -8.841842530392e+01 
-3.744662192745e+01 2.268649837488e+01 0.0 
2.268649837488e+01 -1.150034795467e+02 0.0 
0.0 0.0 -4.377848430388e+01 
-1.125328787893e+02 1.050466837638e+01 0.0 
1.050466837638e+01 -3.068633251276e+02 0.0 
0.0 0.0 -1.254188611751e+02 
-4.607282630957e+01 1.525894642832e+00 0.0 
1.525894642832e+00 -6.256214732451e+01 0.0 
0.0 0.0 -3.219049209022e+01 
-5.225865776553e+01 2.706107329488e+01 0.0 
2.706107329488e+01 -1.548104392072e+02 0.0 
0.0 0.0 -6.051934456431e+01 
-1.086038760202e+02 8.039560135133e+00 0.0 
8.039560135133e+00 -2.984619767791e+02 0.0 
0.0 0.0 -1.217197558398e+02 
-1.277667859361e+01 -2.546012224362e-01 0.0 
-2.546012224362e-01 -2.817005902924e+01 0.0 
0.0 0.0 -1.041820017268e+01 
-9.068216989829e+01 1.902035152436e+01 0.0 
1.902035152436e+01 -1.628991444290e+02 0.0 
0.0 0.0 -7.567439429820e+01 
-1.347450594016e+01 -4.674756517592e-01 0.0 
-4.674756517592e-01 -2.419432914101e+01 0.0 
0.0 0.0 -9.670752781494e+00 
-1.198526342467e+01 -1.616013048300e+00 0.0 
-1.616013048300e+00 -4.278739030537e+01 0.0 
0.0 0.0 -1.442591990589e+01 
-4.460135135690e+01 3.157452440095e+01 0.0 
3.157452440095e+01 -4.834225001237e+01 0.0 
0.0 0.0 -2.413141601960e+01 
-5.078418693556e+01 -1.344799521552e+01 0.0 
-1.344799521552e+01 -1.134958577380e+02 0.0 
0.0 0.0 -4.568923939776e+01 
-9.596442698565e+01 2.108351920383e+01 0.0 
2.108351920383e+01 -1.727922727049e+02 0.0 
0.0 0.0 -8.022700990716e+01 
-4.875467411957e+01 -1.388834130628e+01 0.0 
-1.388834130628e+01 -1.061869827431e+02 0.0 
0.0 0.0 -4.295422938874e+01 
-4.642142111168e+01 3.256862505617e+01 0.0 
3.256862505617e+01 -8.900694518924e+01 0.0 
0.0 0.0 -3.673295813726e+01 
-4.942014096318e+01 -2.223740864189e+01 0.0 
-2.223740864189e+01 -1.107052605851e+02 0.0 
0.0 0.0 -4.220591233457e+01 
-3.731466868971e+01 -1.054434087447e+01 0.0 
-1.054434087447e+01 -7.154313865251e+01 0.0 
0.0 0.0 -2.933234758062e+01 
-1.186790803321e+02 1.441642745241e+01 0.0 
1.441642745241e+01 -3.204288025287e+02 0.0 
0.0 0.0 -1.313323648582e+02 
-6.948325793863e+01 2.798220570303e+01 0.0 
2.798220570303e+01 -9.582371021155e+01 0.0 
0.0 0.0 -4.796231870491e+01 
-1.549931917210e+02 1.275393790661e+00 0.0 
1.275393790661e+00 -3.713844492054e+02 0.0 
0.0 0.0 -1.575132922779e+02 
-6.947048245755e+01 1.308333472149e+01 0.0 
1.308333472149e+01 -1.093411903317e+02 0.0 
0.0 0.0 -5.418520136164e+01 
-4.706230056494e+01 3.174785353789e+01 0.0 
3.174785353789e+01 -1.063056638141e+02 0.0 
0.0 0.0 -4.254362501894e+01 
-5.653624674097e+01 2.647627434263e+01 0.0 
2.647627434263e+01 -1.710263532321e+02 0.0 
0.0 0.0 -6.782262184762e+01 
-5.206174799616e+01 2.984428749032e+01 0.0 
2.984428749032e+01 -7.007985801845e+01 0.0 
0.0 0.0 -3.118616173545e+01 
-1.092948482524e+02 9.620463912847e+00 0.0 
9.620463912847e+00 -3.053920108851e+02 0.0 
0.0 0.0 -1.240060577412e+02 
-1.573510175040e+02 2.906400318570e+00 0.0 
2.906400318570e+00 -3.775402708161e+02 0.0 
0.0 0.0 -1.600673864960e+02 
-9.458987518925e+01 2.649279532441e+01 0.0 
2.649279532441e+01 -1.729397114206e+02 0.0 
0.0 0.0 -7.985887598295e+01 
-4.354765978380e+01 2.043444945880e+01 0.0 
2.043444945880e+01 -1.351591674859e+02 0.0 
0.0 0.0 -4.808486753217e+01 
-1.211855252043e+02 1.533748980274e+01 0.0 
1.533748980274e+01 -3.215120221539e+02 0.0 
0.0 0.0 -1.324092642075e+02 
-1.179668488422e+02 -1.220684053967e+00 0.0 
-1.220684053967e+00 -2.823249651398e+02 0.0 
0.0 0.0 -1.179238605521e+02 
-6.823601703977e+01 3.278442990726e+01 0.0 
3.278442990726e+01 -1.297702523276e+02 0.0 
0.0 0.0 -5.645354609397e+01 
-8.835200206005e+01 2.017316628462e+01 0.0 
2.017316628462e+01 -1.551879725838e+02 0.0 
0.0 0.0 -7.266199239314e+01 
-1.304535251169e+02 3.072734485130e+01 0.0 
3.072734485130e+01 -3.178145662446e+02 0.0 
0.0 0.0 -1.340804274085e+02 
-5.388314774775e+01 2.241490620348e+01 0.0 
2.241490620348e+01 -1.670637193554e+02 0.0 
0.0 0.0 -6.425958422630e+01 
-4.415325318314e+01 3.082847888076e+01 0.0 
3.082847888076e+01 -8.630836621643e+01 0.0 
0.0 0.0 -3.505908943740e+01 
-7.786620327988e+01 2.689525254673e+01 0.0 
2.689525254673e+01 -1.226274648967e+02 0.0 
0.0 0.0 -5.974810045297e+01 
-1.074712117095e+02 1.574493966139e+01 0.0 
1.574493966139e+01 -2.422693688443e+02 0.0 
0.0 0.0 -1.045221741662e+02 
-6.718309005982e+01 3.218805594128e+01 0.0 
3.218805594128e+01 -1.467566230405e+02 0.0 
0.0 0.0 -6.055518083271e+01 
-6.656216955854e+01 1.877643795747e+01 0.0 
1.877643795747e+01 -2.111864365098e+02 0.0 
0.0 0.0 -8.619012668225e+01 
-5.354229909853e+01 1.038686637090e+00 0.0 
1.038686637090e+00 -8.247688937881e+01 0.0 
0.0 0.0 -4.040575654320e+01 
-4.452622946882e+01 -1.625111127280e+01 0.0 
-1.625111127280e+01 -6.949658413445e+01 0.0 
0.0 0.0 -2.778824453270e+01 
-7.030430920191e+01 2.115925015381e+01 0.0 
2.115925015381e+01 -9.872889927110e+01 0.0 
0.0 0.0 -4.987128239372e+01 
-4.661193294283e+01 2.532157749682e+01 0.0 
2.532157749682e+01 -1.390909462627e+02 0.0 
0.0 0.0 -5.245401023285e+01 
-3.944608973270e+01 2.004124484271e+01 0.0 
2.004124484271e+01 -1.272730059159e+02 0.0 
0.0 0.0 -4.742551651610e+01 
-4.043031577631e+01 -2.080663025006e+01 0.0 
-2.080663025006e+01 -1.172505514024e+02 0.0 
0.0 0.0 -4.404617496345e+01 
-9.262032420516e+01 1.801724184384e+01 0.0 
1.801724184384e+01 -1.708052593469e+02 0.0 
0.0 0.0 -7.862767506561e+01 
-7.493063825957e+01 2.871636056766e+01 0.0 
2.871636056766e+01 -1.182542006681e+02 0.0 
0.0 0.0 -5.714578258628e+01 
-5.139078058896e+01 3.358202036664e+01 0.0 
3.358202036664e+01 -1.248015082245e+02 0.0 
0.0 0.0 -5.197203242036e+01 
-9.784000323330e+01 1.999621309496e+01 0.0 
1.999621309496e+01 -1.810123780616e+02 0.0 
0.0 0.0 -8.325571438846e+01 
-9.781876707373e+01 2.863673205840e+01 0.0 
2.863673205840e+01 -1.886961118513e+02 0.0 
0.0 0.0 -8.555446367751e+01 
-7.127089712531e+01 3.245788992960e+01 0.0 
3.245788992960e+01 -1.313041195446e+02 0.0 
0.0 0.0 -5.868927430332e+01 
-1.589765211200e+02 5.002794610738e+00 0.0 
5.002794610738e+00 -3.778968809889e+02 0.0 
0.0 0.0 -1.606620206327e+02 
-7.038052786924e+01 1.859368407598e+01 0.0 
1.859368407598e+01 -2.281037134322e+02 0.0 
0.0 0.0 -9.399495913408e+01 
-7.422280675593e+01 3.173688160311e+01 0.0 
3.173688160311e+01 -1.333088066326e+02 0.0 
0.0 0.0 -6.094622360857e+01 
-5.796380603266e+01 2.876762430710e+01 0.0 
2.876762430710e+01 -1.584380809697e+02 0.0 
0.0 0.0 -6.329807277800e+01 
-7.280207436804e+01 1.866366929100e+01 0.0 
1.866366929100e+01 -2.276293856656e+02 0.0 
0.0 0.0 -9.399876131747e+01 
-4.154227279050e+01 1.775192728519e+01 0.0 
1.775192728519e+01 -1.389368179255e+02 0.0 
0.0 0.0 -5.073677750737e+01 
-5.839436090914e+01 7.339986701291e+00 0.0 
7.339986701291e+00 -6.858518347133e+01 0.0 
0.0 0.0 -3.769386331414e+01 
-5.613107865228e+01 1.886654309743e+01 0.0 
1.886654309743e+01 -1.804020406569e+02 0.0 
0.0 0.0 -6.929086936090e+01 
-4.977708658839e+01 -6.430606910338e+00 0.0 
-6.430606910338e+00 -1.624380431603e+02 0.0 
0.0 0.0 -6.074624113544e+01 
-9.227035390845e+01 2.302434650421e+01 0.0 
2.302434650421e+01 -1.710202875222e+02 0.0 
0.0 0.0 -7.858719242921e+01 
-1.259122669196e+02 5.736611568799e+00 0.0 
5.736611568799e+00 -1.008602804582e+02 0.0 
0.0 0.0 -6.830550538569e+01 
-7.486310990850e+01 2.376127111560e+01 0.0 
2.376127111560e+01 -1.061450310411e+02 0.0 
0.0 0.0 -5.390244228488e+01 
-4.701014975725e+01 2.064529555567e+01 0.0 
2.064529555567e+01 -1.528533119277e+02 0.0 
0.0 0.0 -5.681833255331e+01 
-4.313031732254e+01 2.832348148178e+01 0.0 
2.832348148178e+01 -1.033096970045e+02 0.0 
0.0 0.0 -3.907077644842e+01 
-3.902524693370e+01 1.081812607379e+01 0.0 
1.081812607379e+01 -1.356967755295e+02 0.0 
0.0 0.0 -4.825031875693e+01 
-8.053728449414e+01 2.562156327291e+01 0.0 
2.562156327291e+01 -1.389907196175e+02 0.0 
0.0 0.0 -6.545840123350e+01 
-2.335654616728e+01 -3.297449420060e+00 0.0 
-3.297449420060e+00 -4.205073133369e+01 0.0 
0.0 0.0 -1.578550688418e+01 
-5.236737994454e+01 3.222965261446e+01 0.0 
3.222965261446e+01 -8.916661396224e+01 0.0 
0.0 0.0 -3.854758832331e+01 
-7.656844150876e+01 1.819599893918e+01 0.0 
1.819599893918e+01 -2.434750922533e+02 0.0 
0.0 0.0 -1.011353480205e+02 
-7.447184360207e+01 2.477110400238e+01 0.0 
2.477110400238e+01 -1.169981106585e+02 0.0 
0.0 0.0 -5.656931633924e+01 
-6.758045340470e+01 1.038943240755e+01 0.0 
1.038943240755e+01 -8.959575407836e+01 0.0 
0.0 0.0 -4.675286224492e+01 
-3.584710902702e+01 2.038175209687e+01 0.0 
2.038175209687e+01 -1.203341927406e+02 0.0 
0.0 0.0 -4.936515174007e+01 
-4.611559284952e+01 -7.175017749339e-01 0.0 
-7.175017749339e-01 -1.617666602156e+02 0.0 
0.0 0.0 -5.871151841637e+01 
-5.031318688172e+01 -1.202365867395e+01 0.0 
-1.202365867395e+01 -1.535533518954e+02 0.0 
0.0 0.0 -5.773007974977e+01 
-4.790371820402e+01 3.181836353646e+01 0.0 
3.181836353646e+01 -6.989648023518e+01 0.0 
0.0 0.0 -3.085746379219e+01 
-9.115075825789e+01 2.392698326889e+01 0.0 
2.392698326889e+01 -1.573760605534e+02 0.0 
0.0 0.0 -7.415804564340e+01 
-5.218444175292e+01 3.251296516048e+01 0.0 
3.251296516048e+01 -8.942480755421e+01 0.0 
0.0 0.0 -3.792273994354e+01 
-5.517482133978e+01 1.950022824711e+01 0.0 
1.950022824711e+01 -1.814382726409e+02 0.0 
0.0 0.0 -6.981855876347e+01 
-5.358335442177e+01 2.341937720462e+01 0.0 
2.341937720462e+01 -1.688142335593e+02 0.0 
0.0 0.0 -6.526494573188e+01 
-3.252045615889e+01 1.505956591814e+01 0.0 
1.505956591814e+01 -1.120102681351e+02 0.0 
0.0 0.0 -4.338555595079e+01 
-6.324851968518e+01 2.981852383150e+01 0.0 
2.981852383150e+01 -1.754732180709e+02 0.0 
0.0 0.0 -7.251155480749e+01 
-4.356298753353e+01 3.153349649993e+01 0.0 
3.153349649993e+01 -6.953877872639e+01 0.0 
0.0 0.0 -2.910004884614e+01 
-1.166254033010e+02 2.797408715055e+01 0.0 
2.797408715055e+01 -2.599498812529e+02 0.0 
0.0 0.0 -1.125725853662e+02 
-1.196649703847e+02 3.227920683923e+01 0.0 
3.227920683923e+01 -2.695560411652e+02 0.0 
0.0 0.0 -1.163663034650e+02 
-7.232017788020e+01 3.244796162601e+01 0.0 
3.244796162601e+01 -1.648162150876e+02 0.0 
0.0 0.0 -6.793336520632e+01 
-4.417673784895e+01 2.184308628728e+01 0.0 
2.184308628728e+01 -1.389240867049e+02 0.0 
0.0 0.0 -5.108096465383e+01 
-4.104758430601e+01 2.660461231821e+01 0.0 
2.660461231821e+01 -1.035982214111e+02 0.0 
0.0 0.0 -3.742885941551e+01 
-7.836700849153e+01 3.047345547271e+01 0.0 
3.047345547271e+01 -1.512977820865e+02 0.0 
0.0 0.0 -6.730778222357e+01 
-4.059452450624e+01 2.196101931712e+01 0.0 
2.196101931712e+01 -1.203810696132e+02 0.0 
0.0 0.0 -4.242512690349e+01 
-4.503324471616e+01 -7.025953405939e+00 0.0 
-7.025953405939e+00 -1.523043042983e+02 0.0 
0.0 0.0 -5.511949693041e+01 
-7.061390575953e+01 3.129116707608e+01 0.0 
3.129116707608e+01 -1.297187358353e+02 0.0 
0.0 0.0 -5.656618808603e+01 
-1.014638505802e+02 1.031317386517e+01 0.0 
1.031317386517e+01 -2.201586570059e+02 0.0 
0.0 0.0 -9.608675227582e+01 
-4.952628456905e+01 2.420058048020e+01 0.0 
2.420058048020e+01 -1.537574398725e+02 0.0 
0.0 0.0 -5.858894883975e+01 
-8.418711338064e+01 2.190903560678e+01 0.0 
2.190903560678e+01 -2.512260089466e+02 0.0 
0.0 0.0 -1.031747571425e+02 
-4.549760875716e+01 3.208366212719e+01 0.0 
3.208366212719e+01 -9.043122569738e+01 0.0 
0.0 0.0 -3.654162450486e+01 
-1.570296720380e+02 1.903670709759e+01 0.0 
1.903670709759e+01 -3.787693041928e+02 0.0 
0.0 0.0 -1.603396928692e+02 
-4.464690991364e+01 2.677805980768e+01 0.0 
2.677805980768e+01 -1.243586250699e+02 0.0 
0.0 0.0 -4.674311112252e+01 
-7.309839080926e+01 3.204908880465e+01 0.0 
3.204908880465e+01 -1.482813787307e+02 0.0 
0.0 0.0 -6.288758278223e+01 
-3.698128687156e+01 1.543115184746e+01 0.0 
1.543115184746e+01 -1.290238593195e+02 0.0 
0.0 0.0 -4.936095692443e+01 
-8.638765834965e+01 9.238923531434e+00 0.0 
9.238923531434e+00 -2.673065092979e+02 0.0 
0.0 0.0 -1.100754149154e+02 
-5.814095276749e+01 2.302817261258e+01 0.0 
2.302817261258e+01 -1.847637984384e+02 0.0 
0.0 0.0 -7.280171140907e+01 
-4.895799782002e+01 -1.019092160912e+01 0.0 
-1.019092160912e+01 -1.552783526662e+02 0.0 
0.0 0.0 -5.676132323112e+01 
-7.206805394067e+01 3.031283861160e+01 0.0 
3.031283861160e+01 -1.147578253191e+02 0.0 
0.0 0.0 -5.452788985424e+01 
-1.266987778616e+02 3.692865122055e+01 0.0 
3.692865122055e+01 -2.916090467010e+02 0.0 
0.0 0.0 -1.250923473688e+02 
-5.075046632886e+01 1.987299902284e+01 0.0 
1.987299902284e+01 -1.668163858366e+02 0.0 
0.0 0.0 -6.301533665583e+01 
-7.661579451910e+01 1.700305167189e+01 0.0 
1.700305167189e+01 -2.414268608877e+02 0.0 
0.0 0.0 -9.971299174645e+01 
-4.164468342929e+01 2.931479325268e+01 0.0 
2.931479325268e+01 -8.755086686623e+01 0.0 
0.0 0.0 -3.331601741845e+01 
-7.421423401435e+01 7.312693889220e+00 0.0 
7.312693889220e+00 -1.209954500725e+02 0.0 
0.0 0.0 -5.816290522606e+01 
-1.051594409287e+02 7.207937677511e+00 0.0 
7.207937677511e+00 -2.968467166804e+02 0.0 
0.0 0.0 -1.202018472827e+02 
-4.604955799837e+01 3.106808319830e+01 0.0 
3.106808319830e+01 -8.666997954344e+01 0.0 
0.0 0.0 -3.621167876343e+01 
-7.290771137533e+01 7.880376864148e+00 0.0 
7.880376864148e+00 -1.125088031621e+02 0.0 
0.0 0.0 -5.522495436123e+01 
-1.333529076975e+02 3.805129704442e+01 0.0 
3.805129704442e+01 -3.137595323363e+02 0.0 
0.0 0.0 -1.337337320102e+02 
-1.159203371358e+02 8.963856004624e+00 0.0 
8.963856004624e+00 -3.152066491917e+02 0.0 
0.0 0.0 -1.289380958982e+02 
-1.246577928427e+02 3.572366168536e+01 0.0 
3.572366168536e+01 -2.841489184093e+02 0.0 
0.0 0.0 -1.222420133756e+02 
-7.574162109621e+01 1.075731537684e+01 0.0 
1.075731537684e+01 -1.129932404142e+02 0.0 
0.0 0.0 -5.622045845312e+01 
-9.710834564534e+01 3.118650481054e+01 0.0 
3.118650481054e+01 -1.993968342856e+02 0.0 
0.0 0.0 -8.855155397927e+01 
-4.537939454416e+01 3.091815087106e+01 0.0 
3.091815087106e+01 -6.808589015696e+01 0.0 
0.0 0.0 -3.017967556591e+01 
-6.686123628357e+01 2.967367226969e+01 0.0 
2.967367226969e+01 -9.358759068825e+01 0.0 
0.0 0.0 -4.572767238508e+01 
-7.575420364341e+01 2.898378810404e+01 0.0 
2.898378810404e+01 -1.329600179226e+02 0.0 
0.0 0.0 -6.095596114007e+01 
-7.714576415949e+01 3.067677301746e+01 0.0 
3.067677301746e+01 -1.361227279174e+02 0.0 
0.0 0.0 -6.336592177990e+01 
-6.406116254846e+01 3.157882098701e+01 0.0 
3.157882098701e+01 -1.454992993380e+02 0.0 
0.0 0.0 -5.901375488364e+01 
-1.380782626294e+02 3.690563091132e+01 0.0 
3.690563091132e+01 -3.282698721991e+02 0.0 
0.0 0.0 -1.395044404485e+02 
-7.388752167519e+01 1.277213743270e+01 0.0 
1.277213743270e+01 -1.066741888689e+02 0.0 
0.0 0.0 -5.376851316323e+01 
-6.912121761767e+01 2.206964393605e+01 0.0 
2.206964393605e+01 -8.394309881453e+01 0.0 
0.0 0.0 -4.497889600726e+01 
-5.130647372361e+01 1.935891382996e+01 0.0 
1.935891382996e+01 -1.654625211387e+02 0.0 
0.0 0.0 -6.205840114970e+01 
-4.426991454837e+01 -1.263951193124e+01 0.0 
-1.263951193124e+01 -9.271243001155e+01 0.0 
0.0 0.0 -3.762618525844e+01 
-6.408092536480e+01 2.697234042761e+01 0.0 
2.697234042761e+01 -7.424849809550e+01 0.0 
0.0 0.0 -3.907967020207e+01 
-4.769357862775e+01 3.263534114196e+01 0.0 
3.263534114196e+01 -1.055644301292e+02 0.0 
0.0 0.0 -4.380021287266e+01 
-4.618334281009e+01 5.497503033381e-01 0.0 
5.497503033381e-01 -6.472804166755e+01 0.0 
0.0 0.0 -3.287341534329e+01 
-5.438321561906e+01 -1.410967719666e+01 0.0 
-1.410967719666e+01 -1.577307493008e+02 0.0 
0.0 0.0 -6.118743052009e+01 
-4.708290170607e+01 1.969764184702e+01 0.0 
1.969764184702e+01 -1.502654332376e+02 0.0 
0.0 0.0 -5.487531819345e+01 
-9.458764572476e+01 2.174579605978e+01 0.0 
2.174579605978e+01 -1.777963482821e+02 0.0 
0.0 0.0 -8.131519820206e+01 
-4.486132269434e+01 2.972788691262e+01 0.0 
2.972788691262e+01 -1.038532593142e+02 0.0 
0.0 0.0 -4.080224854935e+01 
-7.013155496308e+01 2.847216005395e+01 0.0 
2.847216005395e+01 -1.120818135629e+02 0.0 
0.0 0.0 -5.217895526343e+01 
-8.008731192675e+01 1.521980538257e+01 0.0 
1.521980538257e+01 -2.530489776206e+02 0.0 
0.0 0.0 -1.055651259440e+02 
-8.597040434848e+01 -1.058546552395e+00 0.0 
-1.058546552395e+00 -2.410398739433e+02 0.0 
0.0 0.0 -9.891583396571e+01 
-1.450514955974e+02 3.280001549613e+01 0.0 
3.280001549613e+01 -3.481196162505e+02 0.0 
0.0 0.0 -1.475513335544e+02 
-5.824467963662e+01 3.048904982313e+01 0.0 
3.048904982313e+01 -7.072581813542e+01 0.0 
0.0 0.0 -3.455440465810e+01 
-4.352802580979e+01 4.780640007113e+00 0.0 
4.780640007113e+00 -1.564946589886e+02 0.0 
0.0 0.0 -5.663965194028e+01 
-6.978827721362e+01 -1.511326012073e+01 0.0 
-1.511326012073e+01 -1.753310726341e+02 0.0 
0.0 0.0 -7.239780931303e+01 
-4.573411848084e+01 3.055073611947e+01 0.0 
3.055073611947e+01 -6.764154579498e+01 0.0 
0.0 0.0 -3.042876323068e+01 
-4.590849219478e+01 3.364041890315e+01 0.0 
3.364041890315e+01 -8.685199938075e+01 0.0 
0.0 0.0 -3.748454923517e+01 
-1.041046585162e+02 2.948963594541e+01 0.0 
2.948963594541e+01 -2.108502758830e+02 0.0 
0.0 0.0 -9.408648031975e+01 
-7.318157469515e+01 3.273548775519e+01 0.0 
3.273548775519e+01 -1.496096994497e+02 0.0 
0.0 0.0 -6.509677739336e+01 
-5.204436922729e+01 3.212752491648e+01 0.0 
3.212752491648e+01 -6.997368933187e+01 0.0 
0.0 0.0 -3.087315408038e+01 
-6.429375397323e+01 2.769521422066e+01 0.0 
2.769521422066e+01 -9.126888424934e+01 0.0 
0.0 0.0 -4.342914479798e+01 
-1.519655077012e+02 2.526611598213e+01 0.0 
2.526611598213e+01 -3.673797451577e+02 0.0 
0.0 0.0 -1.554035758577e+02 
-1.401689101463e+02 2.494087265749e+01 0.0 
2.494087265749e+01 -3.477344106023e+02 0.0 
0.0 0.0 -1.459709962246e+02 
-1.019199858810e+02 2.647143686490e+01 0.0 
2.647143686490e+01 -2.089922290472e+02 0.0 
0.0 0.0 -9.287366447847e+01 
-9.393866937751e+01 2.242031671346e+01 0.0 
2.242031671346e+01 -1.651225076817e+02 0.0 
0.0 0.0 -7.731835311777e+01 
-8.573348296010e+01 -4.955124589327e+00 0.0 
-4.955124589327e+00 -2.364381603785e+02 0.0 
0.0 0.0 -9.854810885244e+01 
-5.456607897078e+01 3.209937206265e+01 0.0 
3.209937206265e+01 -1.077846355424e+02 0.0 
0.0 0.0 -4.479572837754e+01 
-4.111071054716e+01 1.650630529589e+01 0.0 
1.650630529589e+01 -1.353439486141e+02 0.0 
0.0 0.0 -4.764001621433e+01 
-4.504122638682e+01 1.552909425966e+01 0.0 
1.552909425966e+01 -1.494910927438e+02 0.0 
0.0 0.0 -5.325268475669e+01 
-7.017530839358e+01 3.264208341247e+01 0.0 
3.264208341247e+01 -1.480984307357e+02 0.0 
0.0 0.0 -6.289011741330e+01 
-8.352776476402e+01 1.057510510500e+01 0.0 
1.057510510500e+01 -2.591736140518e+02 0.0 
0.0 0.0 -1.077866775493e+02 
-8.966184765121e+01 -6.690525320314e+00 0.0 
-6.690525320314e+00 -2.053177956779e+02 0.0 
0.0 0.0 -8.393134047928e+01 
-1.003338565919e+02 2.333499724068e+01 0.0 
2.333499724068e+01 -1.999664418217e+02 0.0 
0.0 0.0 -8.969008952408e+01 
-4.561708924790e+01 -1.998494396094e+00 0.0 
-1.998494396094e+00 -1.556711974476e+02 0.0 
0.0 0.0 -5.694013286154e+01 
-6.094146783307e+01 3.077144085988e+01 0.0 
3.077144085988e+01 -1.441035026514e+02 0.0 
0.0 0.0 -5.854087561049e+01 
-7.312229671767e+01 3.021200196839e+01 0.0 
3.021200196839e+01 -1.309094696213e+02 0.0 
0.0 0.0 -5.868232972900e+01 
-5.634044340683e+01 3.120000003338e+01 0.0 
3.120000003338e+01 -1.256309632721e+02 0.0 
0.0 0.0 -5.144296658797e+01 
-1.229660255756e+02 3.426434015100e+01 0.0 
3.426434015100e+01 -2.771706577608e+02 0.0 
0.0 0.0 -1.196410050009e+02 
-1.172530039403e+02 2.987402332670e+01 0.0 
2.987402332670e+01 -2.640627817309e+02 0.0 
0.0 0.0 -1.139947357014e+02 
-1.141398012111e+02 2.971804957459e+01 0.0 
2.971804957459e+01 -2.440695310259e+02 0.0 
0.0 0.0 -1.070627996711e+02 
-9.253832373521e+01 -1.273073546072e+00 0.0 
-1.273073546072e+00 -2.543763224775e+02 0.0 
0.0 0.0 -1.060709684109e+02 
-9.424400883888e+01 1.713422523364e+01 0.0 
1.713422523364e+01 -1.789596106678e+02 0.0 
0.0 0.0 -8.156108585200e+01 
-4.623899390101e+01 3.314727821914e+01 0.0 
3.314727821914e+01 -8.751575176185e+01 0.0 
0.0 0.0 -3.716425897630e+01 
-4.922590837307e+01 1.529678000987e+01 0.0 
1.529678000987e+01 -1.638669962218e+02 0.0 
0.0 0.0 -5.998666926161e+01 
-3.566998988601e+01 1.186251663325e+01 0.0 
1.186251663325e+01 -1.238312787582e+02 0.0 
0.0 0.0 -4.495218841818e+01 
-5.459859516433e+01 3.268848656676e+01 0.0 
3.268848656676e+01 -8.973114246706e+01 0.0 
0.0 0.0 -3.805982174426e+01 
-5.724864964496e+01 5.733989360347e+00 0.0 
5.733989360347e+00 -6.758621979358e+01 0.0 
0.0 0.0 -3.705046083156e+01 
-7.157486047339e+01 7.527216993061e+00 0.0 
7.527216993061e+00 -1.107790949133e+02 0.0 
0.0 0.0 -5.430618661601e+01 
-1.456945118053e+02 1.873025262564e+01 0.0 
1.873025262564e+01 -3.622259911289e+02 0.0 
0.0 0.0 -1.519761508803e+02 
-1.023301086662e+02 2.888735355364e+01 0.0 
2.888735355364e+01 -2.192500061625e+02 0.0 
0.0 0.0 -9.607403444860e+01 
-7.693295764730e+01 2.270091947896e+01 0.0 
2.270091947896e+01 -1.213153293216e+02 0.0 
0.0 0.0 -5.907448609068e+01 
-8.070854361953e+01 2.933934750416e+01 0.0 
2.933934750416e+01 -1.535737712415e+02 0.0 
0.0 0.0 -6.951072639378e+01 
-3.890075338947e+01 1.234015616634e+01 0.0 
1.234015616634e+01 -1.379483955917e+02 0.0 
0.0 0.0 -5.083842295822e+01 
-3.534584993923e+01 -1.020302493474e+01 0.0 
-1.020302493474e+01 -4.715779177168e+01 0.0 
0.0 0.0 -1.998705994516e+01 
-5.987718099810e+01 2.850049676670e+01 0.0 
2.850049676670e+01 -1.729402499806e+02 0.0 
0.0 0.0 -7.091325572953e+01 
-6.591488105054e+01 3.025768767756e+01 0.0 
3.025768767756e+01 -1.624103659870e+02 0.0 
0.0 0.0 -6.563579254185e+01 
-5.938519998768e+01 2.688555499809e+01 0.0 
2.688555499809e+01 -1.722795476570e+02 0.0 
0.0 0.0 -6.905755034167e+01 
-4.675416483684e+01 3.486299560348e+01 0.0 
3.486299560348e+01 -5.456253290884e+01 0.0 
0.0 0.0 -2.672094843006e+01 
-5.214632957034e+01 3.694359123910e-01 0.0 
3.694359123910e-01 -8.123505218593e+01 0.0 
0.0 0.0 -3.961441452688e+01 
-4.113424156896e+01 -1.087771835280e+01 0.0 
-1.087771835280e+01 -8.483069178719e+01 0.0 
0.0 0.0 -3.347104075360e+01 
-4.667492551158e+01 2.899767660318e+01 0.0 
2.899767660318e+01 -1.232766288169e+02 0.0 
0.0 0.0 -4.750975362142e+01 
-1.621804810010e+02 1.928638770311e+01 0.0 
1.928638770311e+01 -3.797544556689e+02 0.0 
0.0 0.0 -1.621804810010e+02 
-8.955968995940e+01 2.090122490712e+01 0.0 
2.090122490712e+01 -2.641797467522e+02 0.0 
0.0 0.0 -1.061642035992e+02 
-6.534426933236e+01 1.678647108942e+01 0.0 
1.678647108942e+01 -8.161764263375e+01 0.0 
0.0 0.0 -4.329188172814e+01 
-1.563229615704e+01 -8.290258799343e-01 0.0 
-8.290258799343e-01 -5.909838349876e+01 0.0 
0.0 0.0 -2.062936495712e+01 
-6.683539813356e+01 3.296459780215e+01 0.0 
3.296459780215e+01 -1.461010200345e+02 0.0 
0.0 0.0 -6.083085750258e+01 
-5.642159831626e+01 2.484393999887e+01 0.0 
2.484393999887e+01 -1.694331256024e+02 0.0 
0.0 0.0 -6.709731297098e+01 
-8.056472311754e+01 2.926027375661e+01 0.0 
2.926027375661e+01 -1.396636496222e+02 0.0 
0.0 0.0 -6.566851182194e+01 
-1.285433496078e+02 3.750670149930e+01 0.0 
3.750670149930e+01 -2.989511343620e+02 0.0 
0.0 0.0 -1.278483451909e+02 
-6.666398738658e+01 2.586920637065e+01 0.0 
2.586920637065e+01 -9.297305804118e+01 0.0 
0.0 0.0 -4.553619750406e+01 
-7.606991790531e+01 3.250159087852e+01 0.0 
3.250159087852e+01 -1.514037611636e+02 0.0 
0.0 0.0 -6.723663377889e+01 
-8.501956649110e+01 -6.844892704988e+00 0.0 
-6.844892704988e+00 -2.042363103614e+02 0.0 
0.0 0.0 -8.190439995125e+01 
-9.662350849922e+01 2.079637783781e+01 0.0 
2.079637783781e+01 -1.850814405203e+02 0.0 
0.0 0.0 -8.411148470587e+01 
-9.106199069731e+01 1.864375683393e+00 0.0 
1.864375683393e+00 -2.594631329614e+02 0.0 
0.0 0.0 -1.059432021969e+02 
-1.314401786887e+02 3.820474337492e+01 0.0 
3.820474337492e+01 -3.063814978774e+02 0.0 
0.0 0.0 -1.309465029698e+02 
-1.188681452313e+02 3.317104022025e+01 0.0 
3.317104022025e+01 -2.786923388730e+02 0.0 
0.0 0.0 -1.188681452313e+02 
-1.083613597943e+02 2.545791465407e+01 0.0 
2.545791465407e+01 -2.541765061867e+02 0.0 
0.0 0.0 -1.083613597943e+02 
-1.123471550351e+02 2.949293119450e+01 0.0 
2.949293119450e+01 -2.634766950819e+02 0.0 
0.0 0.0 -1.123471550351e+02 
-8.373610113139e+01 2.775391228610e+01 0.0 
2.775391228610e+01 -1.566941261930e+02 0.0 
0.0 0.0 -7.172906819731e+01 
-9.962837481380e+01 2.375533148430e+01 0.0 
2.375533148430e+01 -1.869109730591e+02 0.0 
0.0 0.0 -8.556180436188e+01 
-1.054757774959e+02 2.854890753933e+01 0.0 
2.854890753933e+01 -2.255300163759e+02 0.0 
0.0 0.0 -9.890173816156e+01 
-5.741746655686e+01 3.384531368206e+01 0.0 
3.384531368206e+01 -1.259228385925e+02 0.0 
0.0 0.0 -5.289787593868e+01 
-5.498601084786e+01 3.325048283250e+01 0.0 
3.325048283250e+01 -1.075391224240e+02 0.0 
0.0 0.0 -4.569422424317e+01 
-8.625633614235e+01 -6.458223972362e+00 0.0 
-6.458223972362e+00 -1.931063776061e+02 0.0 
0.0 0.0 -7.837571938846e+01 
-1.032372504964e+02 2.640303117218e+01 0.0 
2.640303117218e+01 -2.018478519386e+02 0.0 
0.0 0.0 -9.112553073050e+01 
-1.356504007315e+02 3.766850129759e+01 0.0 
3.766850129759e+01 -3.210695352005e+02 0.0 
0.0 0.0 -1.366159807796e+02 
-9.818904244440e+01 1.978996342836e+01 0.0 
1.978996342836e+01 -1.925450980194e+02 0.0 
0.0 0.0 -8.682024213915e+01 
-7.988997820889e+01 2.001323405858e+01 0.0 
2.001323405858e+01 -2.465403021867e+02 0.0 
0.0 0.0 -1.001977043178e+02 
-1.014597407069e+02 2.263912348263e+01 0.0 
2.263912348263e+01 -1.944909706416e+02 0.0 
0.0 0.0 -8.838521340457e+01 
-8.988960630846e+01 3.026540347814e+01 0.0 
3.026540347814e+01 -2.351537643467e+02 0.0 
0.0 0.0 -9.711301119656e+01 
-6.496358434787e+01 3.282647707999e+01 0.0 
3.282647707999e+01 -1.620687679355e+02 0.0 
0.0 0.0 -6.720410794521e+01 
-5.554897715768e+01 3.165403254522e+01 0.0 
3.165403254522e+01 -8.985177152057e+01 0.0 
0.0 0.0 -3.883527453567e+01 
-4.405704327837e+01 2.932333331590e+01 0.0 
2.932333331590e+01 -1.098957355653e+02 0.0 
0.0 0.0 -4.213980198874e+01 
-1.007595333958e+02 1.647623231215e+01 0.0 
1.647623231215e+01 -2.245590609124e+02 0.0 
0.0 0.0 -9.719557829244e+01 
-5.406789114706e+01 3.406556189798e+01 0.0 
3.406556189798e+01 -1.252579463051e+02 0.0 
0.0 0.0 -5.230415658344e+01 
-1.229888119466e+02 3.218656207458e+01 0.0 
3.218656207458e+01 -2.948383210430e+02 0.0 
0.0 0.0 -1.249481398969e+02 
-8.258056720038e+01 -7.340395939634e+00 0.0 
-7.340395939634e+00 -1.921142831921e+02 0.0 
0.0 0.0 -7.679137599879e+01 
-5.481450321044e+01 -1.756416115283e+01 0.0 
-1.756416115283e+01 -1.453532338268e+02 0.0 
0.0 0.0 -5.672443501719e+01 
-1.515873662161e+02 1.689514140037e+01 0.0 
1.689514140037e+01 -3.664131736407e+02 0.0 
0.0 0.0 -1.550001619570e+02 
-4.843505780877e+01 3.087937150957e+01 0.0 
3.087937150957e+01 -1.229882083703e+02 0.0 
0.0 0.0 -4.887613409574e+01 
-1.221660541889e+02 3.457950302844e+01 0.0 
3.457950302844e+01 -2.863874597741e+02 0.0 
0.0 0.0 -1.221660541889e+02 
-1.092247275591e+02 2.635073430395e+01 0.0 
2.635073430395e+01 -2.425954023159e+02 0.0 
0.0 0.0 -1.051460389625e+02 
-7.809022181293e+01 3.188797623157e+01 0.0 
3.188797623157e+01 -1.675227664377e+02 0.0 
0.0 0.0 -7.135659229876e+01 
-2.353234703296e+01 -5.729665794986e+00 0.0 
-5.729665794986e+00 -2.778786548484e+01 0.0 
0.0 0.0 -1.305376305010e+01 
-1.288091979352e+02 3.602863956284e+01 0.0 
3.602863956284e+01 -3.018881285155e+02 0.0 
0.0 0.0 -1.288091979352e+02 
-1.487693222690e+02 2.092494644124e+01 0.0 
2.092494644124e+01 -3.594590918956e+02 0.0 
0.0 0.0 -1.520685242494e+02 
-4.862448256425e+01 -1.433885814126e+01 0.0 
-1.433885814126e+01 -1.427471125370e+02 0.0 
0.0 0.0 -5.261510993254e+01 
-8.436255651213e+01 1.835912185290e+01 0.0 
1.835912185290e+01 -2.588686001581e+02 0.0 
0.0 0.0 -1.048901382986e+02 
-1.469070622144e+02 3.096245413146e+01 0.0 
3.096245413146e+01 -3.535241465059e+02 0.0 
0.0 0.0 -1.497293626161e+02 
-1.266476841815e+01 -1.084279507731e+00 0.0 
-1.084279507731e+00 -9.064295367502e+00 0.0 
0.0 0.0 -7.088632278485e+00 
-5.938233416036e+01 3.373369533765e+01 0.0 
3.373369533765e+01 -1.438493311897e+02 0.0 
0.0 0.0 -5.988457064656e+01 
-8.065329234104e+01 3.134799712648e+01 0.0 
3.134799712648e+01 -1.692326063763e+02 0.0 
0.0 0.0 -7.352931481284e+01 
-7.535315599855e+01 3.224384677447e+01 0.0 
3.224384677447e+01 -1.661245814134e+02 0.0 
0.0 0.0 -6.906629591013e+01 
-7.576820116767e+01 3.139106114682e+01 0.0 
3.139106114682e+01 -1.495954159705e+02 0.0 
0.0 0.0 -6.511448166621e+01 
-4.557400312491e+01 3.056417013280e+01 0.0 
3.056417013280e+01 -1.073813392694e+02 0.0 
0.0 0.0 -4.188071771163e+01 
-1.356672163349e+02 3.609062675895e+01 0.0 
3.609062675895e+01 -3.178901714482e+02 0.0 
0.0 0.0 -1.356672163349e+02 
-5.388588594199e+01 1.534719026513e+01 0.0 
1.534719026513e+01 -1.783069587531e+02 0.0 
0.0 0.0 -6.709345984351e+01 
-2.897049031120e+01 4.964372661552e+00 0.0 
4.964372661552e+00 -1.171077150232e+02 0.0 
0.0 0.0 -4.668340701796e+01 
-1.557701469519e+02 5.536533879770e+00 0.0 
5.536533879770e+00 -3.765689236516e+02 0.0 
0.0 0.0 -1.593017211811e+02 
-2.080406538461e+01 -3.172707126932e+00 0.0 
-3.172707126932e+00 -2.620999423640e+01 0.0 
0.0 0.0 -1.128762044350e+01 
-6.173362804962e+01 2.927395917067e+01 0.0 
2.927395917067e+01 -9.026138014210e+01 0.0 
0.0 0.0 -4.136395896880e+01 
-3.921220448384e+01 -2.200459045838e+01 0.0 
-2.200459045838e+01 -9.951803492571e+01 0.0 
0.0 0.0 -3.832124764174e+01 
-6.237762424912e+01 2.187170230347e+01 0.0 
2.187170230347e+01 -7.294080605843e+01 0.0 
0.0 0.0 -3.841586765607e+01 
-1.538939253748e+02 2.313097484374e+01 0.0 
2.313097484374e+01 -3.715959920637e+02 0.0 
0.0 0.0 -1.572469752315e+02 
-1.423169920761e+02 3.464233089597e+01 0.0 
3.464233089597e+01 -3.334063148441e+02 0.0 
0.0 0.0 -1.423169920761e+02 
-7.782628006924e+01 2.747409864177e+01 0.0 
2.747409864177e+01 -1.354569626075e+02 0.0 
0.0 0.0 -6.313088195445e+01 
-3.896715651122e+01 -2.353335840188e+01 0.0 
-2.353335840188e+01 -7.096143707233e+01 0.0 
0.0 0.0 -2.663246134651e+01 
-2.997278419981e+01 9.340069220730e+00 0.0 
9.340069220730e+00 -1.224197412997e+02 0.0 
0.0 0.0 -4.807481265958e+01 
-4.884822664277e+01 -2.508781768230e+01 0.0 
-2.508781768230e+01 -8.841623273999e+01 0.0 
0.0 0.0 -3.527656028144e+01 
-1.312369065110e+02 6.452403917223e+00 0.0 
6.452403917223e+00 -3.333173724820e+02 0.0 
0.0 0.0 -1.389662836979e+02 
-5.808989479591e+01 6.720348540220e+00 0.0 
6.720348540220e+00 -6.965896059930e+01 0.0 
0.0 0.0 -3.792465661856e+01 
-7.097023309248e+01 1.983549357077e+01 0.0 
1.983549357077e+01 -9.031123218983e+01 0.0 
0.0 0.0 -4.798443958469e+01 
-1.481228200970e+02 3.221437262950e+01 0.0 
3.221437262950e+01 -3.469532468929e+02 0.0 
0.0 0.0 -1.481228200970e+02 
-5.546085856560e+01 5.296099333265e+00 0.0 
5.296099333265e+00 -6.833506035863e+01 0.0 
0.0 0.0 -3.673877567727e+01 
-1.137012583201e+02 2.535220639515e+01 0.0 
2.535220639515e+01 -2.551319449829e+02 0.0 
0.0 0.0 -1.102499609909e+02 
-9.449016671771e+01 2.806588249260e+01 0.0 
2.806588249260e+01 -2.500938065964e+02 0.0 
0.0 0.0 -1.029751919942e+02 
-6.623372739246e+01 5.297423545814e+00 0.0 
5.297423545814e+00 -9.987774336479e+01 0.0 
0.0 0.0 -4.943344122717e+01 
-4.644049403050e+01 3.401754966107e+01 0.0 
3.401754966107e+01 -8.605087787363e+01 0.0 
0.0 0.0 -3.774823679543e+01 
-8.383267037371e+01 1.796815939010e+01 0.0 
1.796815939010e+01 -2.589905949423e+02 0.0 
0.0 0.0 -1.067528911270e+02 
-3.569564438588e+01 2.083691493888e+01 0.0 
2.083691493888e+01 -1.072407235891e+02 0.0 
0.0 0.0 -3.734443340524e+01 
-1.528948346516e+02 2.893673776451e+01 0.0 
2.893673776451e+01 -3.580879475204e+02 0.0 
0.0 0.0 -1.528948346516e+02 
-1.155466070710e+02 3.135930355483e+01 0.0 
3.135930355483e+01 -2.709420831656e+02 0.0 
0.0 0.0 -1.155466070710e+02 
-1.103491996004e+02 2.758902195645e+01 0.0 
2.758902195645e+01 -2.588147990677e+02 0.0 
0.0 0.0 -1.103491996004e+02 
-9.809883865500e+01 -6.028261607481e-01 0.0 
-6.028261607481e-01 -2.624252493387e+02 0.0 
0.0 0.0 -1.087840189892e+02 
-8.221990571863e+01 -5.919810869834e+00 0.0 
-5.919810869834e+00 -1.808428429066e+02 0.0 
0.0 0.0 -7.275227579516e+01 
-6.283515098194e+01 2.911657753056e+01 0.0 
2.911657753056e+01 -1.605911469929e+02 0.0 
0.0 0.0 -6.495374081307e+01 
-9.560100805209e+01 1.563283484991e+00 0.0 
1.563283484991e+00 -2.680212791079e+02 0.0 
0.0 0.0 -1.086866861480e+02 
-1.568506185656e+02 2.537036456081e+01 0.0 
2.537036456081e+01 -3.673181099864e+02 0.0 
0.0 0.0 -1.568506185656e+02 
-4.292512889686e+01 2.485128245270e+01 0.0 
2.485128245270e+01 -1.195421293271e+02 0.0 
0.0 0.0 -4.331830608437e+01 
-4.955237353691e+01 -4.932537948185e+00 0.0 
-4.932537948185e+00 -1.663717997697e+02 0.0 
0.0 0.0 -6.134911015777e+01 
-5.320310056145e+01 -8.057968185721e+00 0.0 
-8.057968185721e+00 -1.706560602330e+02 0.0 
0.0 0.0 -6.446943297843e+01 
-6.936543020861e+01 5.356931083501e+00 0.0 
5.356931083501e+00 -1.105900865717e+02 0.0 
0.0 0.0 -5.358665503408e+01 
-1.586694690710e+02 1.697435654958e+01 0.0 
1.697435654958e+01 -3.817710266627e+02 0.0 
0.0 0.0 -1.617321487201e+02 
-5.082185701332e+01 -2.529112047798e+01 0.0 
-2.529112047798e+01 -6.359902321632e+01 0.0 
0.0 0.0 -2.859923893745e+01 
-1.605762158736e+02 2.122263225868e+01 0.0 
2.122263225868e+01 -3.760111703717e+02 0.0 
0.0 0.0 -1.605762158736e+02 
-5.259709711263e+01 -1.213333342058e+01 0.0 
-1.213333342058e+01 -1.592209104754e+02 0.0 
0.0 0.0 -6.036224436353e+01 
-1.256914937516e+02 3.559927158676e+01 0.0 
3.559927158676e+01 -2.946134854205e+02 0.0 
0.0 0.0 -1.256914937516e+02 
-1.077916371940e+02 3.133191273573e+01 0.0 
3.133191273573e+01 -2.271893634973e+02 0.0 
0.0 0.0 -1.000943002074e+02 
-1.370189186976e+01 2.138873766326e-01 0.0 
2.138873766326e-01 -9.328272347999e+00 0.0 
0.0 0.0 -5.627041977314e+00 
-6.076786701683e+01 3.268326743358e+01 0.0 
3.268326743358e+01 -1.608568670159e+02 0.0 
0.0 0.0 -6.641753999195e+01 
-9.951537370288e+01 1.906666310636e+01 0.0 
1.906666310636e+01 -1.898187637975e+02 0.0 
0.0 0.0 -8.640024125011e+01 
-1.323722184888e+02 3.631703264189e+01 0.0 
3.631703264189e+01 -3.102018431405e+02 0.0 
0.0 0.0 -1.323722184888e+02 
-8.319964704900e+01 3.092317087242e+01 0.0 
3.092317087242e+01 -1.570629119247e+02 0.0 
0.0 0.0 -7.167876769212e+01 
-9.863605320626e+01 2.683910469699e+01 0.0 
2.683910469699e+01 -2.641298481404e+02 0.0 
0.0 0.0 -1.084297704040e+02 
-4.411365332947e+01 3.152713675342e+01 0.0 
3.152713675342e+01 -9.412470222839e+01 0.0 
0.0 0.0 -3.778161151614e+01 
-1.389816429282e+02 1.865604501799e+01 0.0 
1.865604501799e+01 -3.467547903261e+02 0.0 
0.0 0.0 -1.453209299763e+02 
-5.568979020555e+01 -1.311450334181e+01 0.0 
-1.311450334181e+01 -1.623235587142e+02 0.0 
0.0 0.0 -6.351474653602e+01 
-5.815984615105e+01 -1.188861357121e+01 0.0 
-1.188861357121e+01 -1.730693124603e+02 0.0 
0.0 0.0 -6.853966535994e+01 
-5.207717810788e+01 -2.757284553332e+01 0.0 
-2.757284553332e+01 -4.831714298594e+01 0.0 
0.0 0.0 -2.754237763585e+01 
-1.390059774968e+02 3.551485165907e+01 0.0 
3.551485165907e+01 -3.256806141592e+02 0.0 
0.0 0.0 -1.390059774968e+02 
-3.791624094879e+01 1.808274242441e+01 0.0 
1.808274242441e+01 -1.212823649112e+02 0.0 
0.0 0.0 -4.250413569089e+01 
-1.230369571488e+02 1.223078959500e+01 0.0 
1.223078959500e+01 -3.249639357989e+02 0.0 
0.0 0.0 -1.340002678843e+02 
-6.413951234569e+01 6.185996797330e+00 0.0 
6.185996797330e+00 -9.030144243723e+01 0.0 
0.0 0.0 -4.593228643488e+01 
-5.790966628064e+01 -1.871342106183e+01 0.0 
-1.871342106183e+01 -1.368699510341e+02 0.0 
0.0 0.0 -5.614246360117e+01 
-5.404922980536e+01 -9.522031913228e+00 0.0 
-9.522031913228e+00 -1.680549808512e+02 0.0 
0.0 0.0 -6.450838765610e+01 
-7.921611858134e+01 3.195094029264e+01 0.0 
3.195094029264e+01 -1.539313876192e+02 0.0 
0.0 0.0 -6.954425186016e+01 
-1.506350105544e+02 3.069230161055e+01 0.0 
3.069230161055e+01 -3.528150246270e+02 0.0 
0.0 0.0 -1.506350105544e+02 
-8.404117436215e+01 -6.179273271529e+00 0.0 
-6.179273271529e+00 -1.882383711115e+02 0.0 
0.0 0.0 -7.545402063259e+01 
-1.050311929104e+02 5.725340981286e+00 0.0 
5.725340981286e+00 -2.894660020808e+02 0.0 
0.0 0.0 -1.185297482275e+02 
-7.424002511738e+01 3.185867571080e+01 0.0 
3.185867571080e+01 -1.816879045088e+02 0.0 
0.0 0.0 -7.468083395026e+01 
-8.738733075681e+01 6.458892285428e+00 0.0 
6.458892285428e+00 -2.618706845323e+02 0.0 
0.0 0.0 -1.096386082827e+02 
-5.416282988130e+01 -4.323718428147e+00 0.0 
-4.323718428147e+00 -1.761188923236e+02 0.0 
0.0 0.0 -6.701078836814e+01 
-9.824385226265e+01 2.450949550738e+00 0.0 
2.450949550738e+00 -2.719344876708e+02 0.0 
0.0 0.0 -1.127171193856e+02 
-6.901797047572e+01 3.117127979444e+01 0.0 
3.117127979444e+01 -1.641324919882e+02 0.0 
0.0 0.0 -6.685144416927e+01 
-9.083922907371e+01 3.213638760966e+01 0.0 
3.213638760966e+01 -2.220850325234e+02 0.0 
0.0 0.0 -9.347727847912e+01 
-9.456174773271e+01 1.862901618056e+01 0.0 
1.862901618056e+01 -2.757414780980e+02 0.0 
0.0 0.0 -1.125779378074e+02 
-7.059684232710e+01 3.181047981367e+01 0.0 
3.181047981367e+01 -1.800577415483e+02 0.0 
0.0 0.0 -7.434591177321e+01 
-8.012892663841e+01 -7.978068587149e+00 0.0 
-7.978068587149e+00 -1.961600975980e+02 0.0 
0.0 0.0 -7.894838439033e+01 
-4.489276992474e+01 2.695231386147e+01 0.0 
2.695231386147e+01 -1.197695899620e+02 0.0 
0.0 0.0 -4.508966631381e+01 
-7.958774141515e+01 -7.418349597106e+00 0.0 
-7.418349597106e+00 -1.798231143436e+02 0.0 
0.0 0.0 -7.163264335533e+01 
-9.410235823997e+01 2.902903223502e+01 0.0 
2.902903223502e+01 -2.501725839585e+02 0.0 
0.0 0.0 -1.028824826595e+02 
-7.306833267803e+01 1.526830469878e+01 0.0 
1.526830469878e+01 -2.385536874779e+02 0.0 
0.0 0.0 -9.880932790374e+01 
-1.555764061644e+02 2.117736625067e+01 0.0 
2.117736625067e+01 -3.753831847804e+02 0.0 
0.0 0.0 -1.588878772834e+02 
-1.032055901239e+02 2.165746198145e+01 0.0 
2.165746198145e+01 -2.025126353696e+02 0.0 
0.0 0.0 -9.131546764803e+01 
-5.230407904778e+01 -1.570435732578e+01 0.0 
-1.570435732578e+01 -1.213686705147e+02 0.0 
0.0 0.0 -4.845785519767e+01 
-1.588971134984e+02 2.321435510554e+01 0.0 
2.321435510554e+01 -3.720932648296e+02 0.0 
0.0 0.0 -1.588971134984e+02 
-1.441436012638e+02 2.085750898074e+01 0.0 
2.085750898074e+01 -3.588254890730e+02 0.0 
0.0 0.0 -1.504907271011e+02 
-6.514144806086e+01 2.764594706681e+01 0.0 
2.764594706681e+01 -1.901012059961e+02 0.0 
0.0 0.0 -7.845220922363e+01 
-3.378378722957e+01 -1.462652363293e+01 0.0 
-1.462652363293e+01 -3.506340985878e+01 0.0 
0.0 0.0 -1.440281813067e+01 
-1.596193258030e+02 1.498678182561e+01 0.0 
1.498678182561e+01 -3.840865532376e+02 0.0 
0.0 0.0 -1.627117637122e+02 
-1.048858028944e+02 2.512209160542e+01 0.0 
2.512209160542e+01 -2.083439284413e+02 0.0 
0.0 0.0 -9.356891940071e+01 
-5.202026869576e+01 -1.517683205036e+01 0.0 
-1.517683205036e+01 -1.456675689781e+02 0.0 
0.0 0.0 -5.527274216454e+01 
-1.634823963441e+02 1.730731751090e+01 0.0 
1.730731751090e+01 -3.827922581363e+02 0.0 
0.0 0.0 -1.634823963441e+02 
-1.033428882689e+02 2.902549559349e+00 0.0 
2.902549559349e+00 -2.802996444176e+02 0.0 
0.0 0.0 -1.150763029256e+02 
-5.848065669709e+01 3.269340315765e+01 0.0 
3.269340315765e+01 -1.086929573496e+02 0.0 
0.0 0.0 -4.621302940215e+01 
-7.280878701944e+01 1.910297517134e+01 0.0 
1.910297517134e+01 -1.043415683723e+02 0.0 
0.0 0.0 -5.274510661752e+01 
-6.985961928993e+01 1.614735159129e+01 0.0 
1.614735159129e+01 -2.239105256949e+02 0.0 
0.0 0.0 -9.210882258978e+01 
-9.201242850405e+01 -3.926881863734e+00 0.0 
-3.926881863734e+00 -2.442265296067e+02 0.0 
0.0 0.0 -1.017475691042e+02 
-9.028039423392e+01 9.685796068369e+00 0.0 
9.685796068369e+00 -2.690579099020e+02 0.0 
0.0 0.0 -1.116875743548e+02 
-8.764472024348e+01 2.098692835642e+01 0.0 
2.098692835642e+01 -1.429051760396e+02 0.0 
0.0 0.0 -6.876496888491e+01 
-6.501796022703e+01 3.101034432453e+01 0.0 
3.101034432453e+01 -1.099330836726e+02 0.0 
0.0 0.0 -4.794923155058e+01 
-9.960840850255e+01 2.083313923930e+01 0.0 
2.083313923930e+01 -2.812842904118e+02 0.0 
0.0 0.0 -1.139974362495e+02 
-5.951297830094e+01 9.943100847704e-01 0.0 
9.943100847704e-01 -9.839638792744e+01 0.0 
0.0 0.0 -4.697280986851e+01 
-8.513105787006e+01 -8.539528429715e+00 0.0 
-8.539528429715e+00 -1.973134623702e+02 0.0 
0.0 0.0 -8.127724154714e+01 
-8.917916395032e+01 1.611010744062e+01 0.0 
1.611010744062e+01 -2.698711076205e+02 0.0 
0.0 0.0 -1.107609539343e+02 
-6.224777580947e+01 -1.642926086933e+01 0.0 
-1.642926086933e+01 -1.669384384512e+02 0.0 
0.0 0.0 -6.805303071066e+01 
-1.070957564696e+02 -1.453956253512e+00 0.0 
-1.453956253512e+00 -2.706879267153e+02 0.0 
0.0 0.0 -1.115236353643e+02 
-1.639723496446e+01 -1.654514471752e+00 0.0 
-1.654514471752e+00 -9.032134203831e+00 0.0 
0.0 0.0 -6.456831157940e+00 
-4.669364769860e+01 2.889038946444e+01 0.0 
2.889038946444e+01 -1.206289419710e+02 0.0 
0.0 0.0 -4.711758782234e+01 
-5.821701951097e+01 -1.553355250789e+01 0.0 
-1.553355250789e+01 -1.619860968567e+02 0.0 
0.0 0.0 -6.468966540212e+01 
-8.958396464488e+01 -5.849199124944e+00 0.0 
-5.849199124944e+00 -2.123401112691e+02 0.0 
0.0 0.0 -8.524859347610e+01 
-6.823539442749e+01 2.941681861203e+01 0.0 
2.941681861203e+01 -1.934316502666e+02 0.0 
0.0 0.0 -7.972223190664e+01 
-9.829936115037e+01 2.911471060482e+00 0.0 
2.911471060482e+00 -2.783144797488e+02 0.0 
0.0 0.0 -1.125841522698e+02 
-6.799826415771e+01 5.947890714601e+00 0.0 
5.947890714601e+00 -1.025093898549e+02 0.0 
0.0 0.0 -5.075229620378e+01 
-5.797963943815e+01 -1.778680065243e+01 0.0 
-1.778680065243e+01 -1.486242487406e+02 0.0 
0.0 0.0 -5.976314604203e+01 
-1.645805355590e+02 1.543560654815e+01 0.0 
1.543560654815e+01 -3.853545829709e+02 0.0 
0.0 0.0 -1.645805355590e+02 
-7.778462213015e+01 3.269545166945e+01 0.0 
3.269545166945e+01 -1.692616389195e+02 0.0 
0.0 0.0 -7.351591735203e+01 
-9.382973641451e+01 -4.976719761300e+00 0.0 
-4.976719761300e+00 -2.203682889870e+02 0.0 
0.0 0.0 -8.949148722716e+01 
-7.483612085044e+01 3.247618876092e+01 0.0 
3.247618876092e+01 -1.673470157298e+02 0.0 
0.0 0.0 -7.137105847935e+01 
-9.377577686309e+01 -5.203335509044e+00 0.0 
-5.203335509044e+00 -2.133342147581e+02 0.0 
0.0 0.0 -8.641334212609e+01 
-1.803810926870e+01 -1.590578222666e+00 0.0 
-1.590578222666e+00 -9.332642706971e+00 0.0 
0.0 0.0 -8.785471571952e+00 
-7.801634008905e+01 2.125188255174e+01 0.0 
2.125188255174e+01 -1.131729619087e+02 0.0 
0.0 0.0 -5.695679059932e+01 
-8.150611860773e+01 -3.335230215989e+00 0.0 
-3.335230215989e+00 -1.735840697089e+02 0.0 
0.0 0.0 -7.090538714750e+01 
-6.624781219524e+00 -5.291632825216e-01 0.0 
-5.291632825216e-01 -8.791064345793e+00 0.0 
0.0 0.0 -2.901244118549e+00 
-9.128382668745e+01 -5.241916140068e+00 0.0 
-5.241916140068e+00 -2.083961253125e+02 0.0 
0.0 0.0 -8.459939951940e+01 
-1.075027750788e+02 4.592045876185e+00 0.0 
4.592045876185e+00 -2.966937007705e+02 0.0 
0.0 0.0 -1.208589427548e+02 
-8.576911407346e+01 4.228882609421e+00 0.0 
4.228882609421e+00 -1.754078125167e+02 0.0 
0.0 0.0 -7.795307797704e+01 
-8.089180212025e+01 6.874799863816e+00 0.0 
6.874799863816e+00 -2.528307910871e+02 0.0 
0.0 0.0 -1.053698331284e+02 
-8.357562949797e+01 6.634824123476e+00 0.0 
6.634824123476e+00 -2.595458200660e+02 0.0 
0.0 0.0 -1.076359458181e+02 
-6.538449847923e+01 1.711894656633e+01 0.0 
1.711894656633e+01 -6.921793969133e+01 0.0 
0.0 0.0 -3.947321694918e+01 
-4.671958994928e+01 3.052912582398e+00 0.0 
3.052912582398e+00 -4.827398525970e+01 0.0 
0.0 0.0 -2.809807256269e+01 
-1.045357670499e+02 2.088434729987e+01 0.0 
2.088434729987e+01 -2.309973982487e+02 0.0 
0.0 0.0 -1.002599495896e+02 
-7.198980671305e+01 3.194709637615e+01 0.0 
3.194709637615e+01 -1.657236349874e+02 0.0 
0.0 0.0 -6.922151615874e+01 
-1.140580765775e+01 5.430188969750e-02 0.0 
5.430188969750e-02 -7.195709450035e+00 0.0 
0.0 0.0 -4.503177754548e+00 
-3.284959658835e+01 -7.080405183181e+00 0.0 
-7.080405183181e+00 -7.076369785962e+01 0.0 
0.0 0.0 -2.672323068876e+01 
-2.922310910201e+01 -8.828808542118e+00 0.0 
-8.828808542118e+00 -2.969751779303e+01 0.0 
0.0 0.0 -1.406727148374e+01 
-5.672043736826e+01 -1.500429440252e+01 0.0 
-1.500429440252e+01 -1.273973531621e+02 0.0 
0.0 0.0 -5.216371644905e+01 
-1.078784957988e+02 3.322458125608e+01 0.0 
3.322458125608e+01 -2.476589836119e+02 0.0 
0.0 0.0 -1.062612438232e+02 
-8.786524213368e+01 6.143388834397e+00 0.0 
6.143388834397e+00 -1.766278866860e+02 0.0 
0.0 0.0 -7.894793864592e+01 
-1.245987680000e+02 3.729030658567e+00 0.0 
3.729030658567e+00 -3.219776061052e+02 0.0 
0.0 0.0 -1.335729122316e+02 
-6.362138165996e+01 -1.045805489734e+01 0.0 
-1.045805489734e+01 -1.430269955647e+02 0.0 
0.0 0.0 -5.780554007122e+01 
-1.122490833632e+02 -7.503573802687e-01 0.0 
-7.503573802687e-01 -2.718700111704e+02 0.0 
0.0 0.0 -1.123071686655e+02 
-1.269731496394e+02 1.045379817602e+01 0.0 
1.045379817602e+01 -3.332557044997e+02 0.0 
0.0 0.0 -1.376686562417e+02 
-3.351726052540e+01 3.722448156690e+00 0.0 
3.722448156690e+00 -1.257300674623e+02 0.0 
0.0 0.0 -4.778344969102e+01 
-8.144611696929e+01 -8.618262596429e-01 0.0 
-8.618262596429e-01 -1.739960270468e+02 0.0 
0.0 0.0 -7.129416475093e+01 
-6.740560657349e+01 -2.359058363688e+00 0.0 
-2.359058363688e+00 -1.421423656484e+02 0.0 
0.0 0.0 -5.767038357926e+01 
-1.606361547696e+02 1.296776236596e+01 0.0 
1.296776236596e+01 -3.858847060968e+02 0.0 
0.0 0.0 -1.635562582599e+02 
-1.654808153870e+02 1.355353221592e+01 0.0 
1.355353221592e+01 -3.874552359029e+02 0.0 
0.0 0.0 -1.654808153870e+02 
-8.982200800906e+01 -9.280360906284e-01 0.0 
-9.280360906284e-01 -1.934976330239e+02 0.0 
0.0 0.0 -7.966260189929e+01 
-9.763152113748e+01 -3.947338637096e+00 0.0 
-3.947338637096e+00 -2.213657188540e+02 0.0 
0.0 0.0 -9.013320838681e+01 
-9.086922741231e+01 -7.718513817132e-01 0.0 
-7.718513817132e-01 -2.494446484088e+02 0.0 
0.0 0.0 -1.016348172655e+02 
-1.317207561781e+02 1.286829627525e+01 0.0 
1.286829627525e+01 -3.413353240540e+02 0.0 
0.0 0.0 -1.415168240696e+02 
-3.804080069774e+01 -1.030529053390e+01 0.0 
-1.030529053390e+01 -7.933450191757e+01 0.0 
0.0 0.0 -3.202801044084e+01 
-1.220992372532e+02 8.238584085124e+00 0.0 
8.238584085124e+00 -3.244299926764e+02 0.0 
0.0 0.0 -1.335587689789e+02 
-1.545738932511e+01 -9.880669355141e-01 0.0 
-9.880669355141e-01 -4.324418772030e+01 0.0 
0.0 0.0 -1.481914629548e+01 
-9.025706705238e+01 -5.019579513248e+00 0.0 
-5.019579513248e+00 -2.012542436987e+02 0.0 
0.0 0.0 -8.098026789747e+01 
-9.665715757375e+01 -5.037375853055e+00 0.0 
-5.037375853055e+00 -2.252742088163e+02 0.0 
0.0 0.0 -9.171042190962e+01 
-7.980862622861e+00 -5.309007321881e-01 0.0 
-5.309007321881e-01 -2.545223276489e+01 0.0 
0.0 0.0 -7.445830587139e+00 
-8.565850111091e+01 -2.168088963929e+00 0.0 
-2.168088963929e+00 -1.832056436122e+02 0.0 
0.0 0.0 -7.535596768305e+01 
-9.920825364278e+01 1.912124035485e+01 0.0 
1.912124035485e+01 -2.001918009040e+02 0.0 
0.0 0.0 -8.942001636404e+01 
-1.078321147235e+01 -7.768320492911e-03 0.0 
-7.768320492911e-03 -7.517452182539e+00 0.0 
0.0 0.0 -4.404748309824e+00 
-4.915562019803e+01 4.300302610174e+00 0.0 
4.300302610174e+00 -4.915672042531e+01 0.0 
0.0 0.0 -2.909370218700e+01 
-4.912787823865e+01 5.579568761635e+00 0.0 
5.579568761635e+00 -5.130710403091e+01 0.0 
0.0 0.0 -2.973049468087e+01 
-9.360501457799e+01 1.276297361384e+01 0.0 
1.276297361384e+01 -2.758464875159e+02 0.0 
0.0 0.0 -1.132675030041e+02 
-6.606950403986e+01 1.810196755907e-01 0.0 
1.810196755907e-01 -1.420949361273e+02 0.0 
0.0 0.0 -5.772028418631e+01 
-5.463034130041e+01 -1.514676521182e+01 0.0 
-1.514676521182e+01 -1.487373388398e+02 0.0 
0.0 0.0 -5.850340751376e+01 
-4.320420152219e+01 3.015416429681e+01 0.0 
3.015416429681e+01 -8.669658330547e+01 0.0 
0.0 0.0 -3.421031686733e+01 
-1.402214478130e+02 4.366712832024e+00 0.0 
4.366712832024e+00 -3.484826014246e+02 0.0 
0.0 0.0 -1.462112147713e+02 
-1.294455177381e+02 3.390487424885e+01 0.0 
3.390487424885e+01 -3.062721412681e+02 0.0 
0.0 0.0 -1.303152977019e+02 
-8.709495602376e+01 8.612725324927e+00 0.0 
8.612725324927e+00 -1.647819402003e+02 0.0 
0.0 0.0 -7.516306886721e+01 
-4.670177681987e+01 3.087707257309e+01 0.0 
3.087707257309e+01 -8.628386868002e+01 0.0 
0.0 0.0 -3.670906015714e+01 
-2.825106074095e+01 -7.576570966282e+00 0.0 
-7.576570966282e+00 -4.931670755444e+01 0.0 
0.0 0.0 -2.050802790391e+01 
-6.398405922642e+01 3.097287049620e+01 0.0 
3.097287049620e+01 -9.170768501934e+01 0.0 
0.0 0.0 -4.344826628689e+01 
-4.319788326780e+01 1.075124608473e+00 0.0 
1.075124608473e+00 -4.859481950819e+01 0.0 
0.0 0.0 -2.713781083280e+01 
-4.152440140854e+01 1.039137613446e+00 0.0 
1.039137613446e+00 -4.850545374983e+01 0.0 
0.0 0.0 -2.660895654751e+01 
-5.967706657327e+00 -4.553765904942e-01 0.0 
-4.553765904942e-01 -9.147363578973e+00 0.0 
0.0 0.0 -2.726345978134e+00 
-8.321124727635e+00 -7.142826087467e-01 0.0 
-7.142826087467e-01 -2.531173824974e+01 0.0 
0.0 0.0 -7.452369195923e+00 
-1.002316268158e+01 -3.425882760823e-01 0.0 
-3.425882760823e-01 -4.173658484818e+01 0.0 
0.0 0.0 -1.333300476506e+01 
-4.915934029259e+01 -1.092735466636e+01 0.0 
-1.092735466636e+01 -1.087696271968e+02 0.0 
0.0 0.0 -4.329495047185e+01 
-1.176582017317e+01 -1.245607634270e-01 0.0 
-1.245607634270e-01 -2.603736750515e+01 0.0 
0.0 0.0 -8.735953811747e+00 
-9.330814274953e+01 -1.932378937299e+00 0.0 
-1.932378937299e+00 -2.038268322666e+02 0.0 
0.0 0.0 -8.405425630356e+01 
-5.281148291777e+01 -1.413429495512e+01 0.0 
-1.413429495512e+01 -5.981294167009e+01 0.0 
0.0 0.0 -3.435566274151e+01 
-5.790649178339e+01 -1.097388451073e+01 0.0 
-1.097388451073e+01 -1.297289696572e+02 0.0 
0.0 0.0 -5.173970187998e+01 
-6.509612847887e+01 1.040800292330e+00 0.0 
1.040800292330e+00 -1.153451423890e+02 0.0 
0.0 0.0 -5.373238126036e+01 
-4.500500418822e+01 2.569682783867e+00 0.0 
2.569682783867e+00 -4.908718128387e+01 0.0 
0.0 0.0 -2.782765564163e+01 
-1.116646226756e+02 3.345818737647e+01 0.0 
3.345818737647e+01 -2.511379702043e+02 0.0 
0.0 0.0 -1.084407778640e+02 
-1.038645096840e+02 2.693141128128e+00 0.0 
2.693141128128e+00 -2.867295774132e+02 0.0 
0.0 0.0 -1.167782261291e+02 
-5.815319470982e+01 4.847750715913e-01 0.0 
4.847750715913e-01 -9.741688736740e+01 0.0 
0.0 0.0 -4.627102462317e+01 
-7.166845106681e+01 -1.273251649794e+00 0.0 
-1.273251649794e+00 -1.519521326573e+02 0.0 
0.0 0.0 -6.198306192270e+01 
-1.404623332539e+01 -3.245485155861e-01 0.0 
-3.245485155861e-01 -4.294399870117e+01 0.0 
0.0 0.0 -1.386719654207e+01 
-1.003212830084e+02 1.088399133635e+01 0.0 
1.088399133635e+01 -2.354163270195e+02 0.0 
0.0 0.0 -1.003212830084e+02 
-1.057841375873e+02 1.203804582595e+01 0.0 
1.203804582595e+01 -2.382160725292e+02 0.0 
0.0 0.0 -1.028000630349e+02 
-6.088333012929e+01 3.272440738355e+00 0.0 
3.272440738355e+00 -8.859826062494e+01 0.0 
0.0 0.0 -4.444447722627e+01 
-4.401535142981e+01 1.480431526950e+00 0.0 
1.480431526950e+00 -4.824344645397e+01 0.0 
0.0 0.0 -2.727763936513e+01 
-7.189254353049e+01 -1.189750074120e+00 0.0 
-1.189750074120e+00 -1.545455322066e+02 0.0 
0.0 0.0 -6.295061647273e+01 
-1.042786502415e+02 8.482975266138e+00 0.0 
8.482975266138e+00 -2.359573855247e+02 0.0 
0.0 0.0 -1.016708107299e+02 
-5.376054978454e+01 -1.067725158988e+01 0.0 
-1.067725158988e+01 -1.214559020956e+02 0.0 
0.0 0.0 -4.853005647721e+01 
-4.684605413799e+01 3.851483478397e+00 0.0 
3.851483478397e+00 -4.980237054049e+01 0.0 
0.0 0.0 -2.859452740355e+01 
-4.568171590233e+01 2.097224431345e+00 0.0 
2.097224431345e+00 -4.820199121350e+01 0.0 
0.0 0.0 -2.776511213475e+01 
-6.051944656018e+01 2.469984669741e+01 0.0 
2.469984669741e+01 -7.122536596639e+01 0.0 
0.0 0.0 -3.656709853847e+01 
-1.068629221652e+02 2.342027885648e+01 0.0 
2.342027885648e+01 -2.506801517187e+02 0.0 
0.0 0.0 -1.068629221652e+02 
-1.060011730544e+02 1.008853386683e+01 0.0 
1.008853386683e+01 -2.375819974054e+02 0.0 
0.0 0.0 -1.026749511379e+02 
-1.207594717307e+01 -2.893218929093e-01 0.0 
-2.893218929093e-01 -2.579457346007e+01 0.0 
0.0 0.0 -8.729586784375e+00 
-5.891946390826e+00 -2.633981336578e-01 0.0 
-2.633981336578e-01 -9.296612446170e+00 0.0 
0.0 0.0 -2.788063157544e+00 
-2.994568811143e+01 -7.736015823787e+00 0.0 
-7.736015823787e+00 -5.880131833173e+01 0.0 
0.0 0.0 -2.399778193012e+01 
-9.166040834460e+01 -5.135356046389e+00 0.0 
-5.135356046389e+00 -2.241539452301e+02 0.0 
0.0 0.0 -9.015451177268e+01 
-1.507877800293e+02 -4.112695014961e-01 0.0 
-4.112695014961e-01 -3.619356025904e+02 0.0 
0.0 0.0 -1.534170147859e+02 
-1.067635314954e+02 -2.351191356761e+01 0.0 
-2.351191356761e+01 -7.600156350956e+01 0.0 
0.0 0.0 -5.510557033588e+01 
-7.988406244212e+01 1.682206283408e+00 0.0 
1.682206283408e+00 -1.589490595628e+02 0.0 
0.0 0.0 -7.124993660147e+01 
-3.452093136838e+01 -1.258660823571e+01 0.0 
-1.258660823571e+01 -1.185229544365e+01 0.0 
0.0 0.0 -1.390629225491e+01 
-9.274955705313e+01 8.509874229658e+00 0.0 
8.509874229658e+00 -2.773714705713e+02 0.0 
0.0 0.0 -1.132501636568e+02 
-2.601086557037e+01 -6.520038649710e+00 0.0 
-6.520038649710e+00 -1.358574469869e+01 0.0 
0.0 0.0 -1.076994251711e+01 
-5.884761723497e+01 -2.670221643414e+01 0.0 
-2.670221643414e+01 -3.411452962968e+01 0.0 
0.0 0.0 -2.818093759015e+01 
-8.946799444407e+01 5.856109017445e+00 0.0 
5.856109017445e+00 -2.692975900661e+02 0.0 
0.0 0.0 -1.103443734063e+02 
-1.452426131778e+02 1.149194887798e+00 0.0 
1.149194887798e+00 -3.524097049694e+02 0.0 
0.0 0.0 -1.488956954442e+02 
-6.559172675364e+01 1.438930868089e+00 0.0 
1.438930868089e+00 -1.144730527816e+02 0.0 
0.0 0.0 -5.361943386057e+01 
-6.615043513923e+01 3.222231766276e+01 0.0 
3.222231766276e+01 -1.108336839791e+02 0.0 
0.0 0.0 -4.993801163037e+01 
-7.625325499430e+00 -2.365833817548e-01 0.0 
-2.365833817548e-01 -2.536446427249e+01 0.0 
0.0 0.0 -7.399554037980e+00 
-1.156309781869e+02 -5.694413181035e-02 0.0 
-5.694413181035e-02 -2.798191643517e+02 0.0 
0.0 0.0 -1.161192869009e+02 
-9.868492802220e+01 3.407014172745e+00 0.0 
3.407014172745e+00 -2.315981653851e+02 0.0 
0.0 0.0 -9.868492802220e+01 
-1.029860497590e+02 4.493046262867e+00 0.0 
4.493046262867e+00 -2.341835626976e+02 0.0 
0.0 0.0 -1.007508837370e+02 
-4.350399663063e+01 1.729718454198e+00 0.0 
1.729718454198e+00 -4.866678396090e+01 0.0 
0.0 0.0 -2.725123417746e+01 
-9.684962745641e+01 1.125499609527e+01 0.0 
1.125499609527e+01 -2.849624962542e+02 0.0 
0.0 0.0 -1.161141223553e+02 
-1.000298161009e+02 8.902512671013e+00 0.0 
8.902512671013e+00 -2.347362375687e+02 0.0 
0.0 0.0 -1.000298161009e+02 
-9.901636953287e+01 2.788749733743e+01 0.0 
2.788749733743e+01 -2.645092007019e+02 0.0 
0.0 0.0 -1.086576710704e+02 
-1.303546906625e+01 -3.199404407882e-01 0.0 
-3.199404407882e-01 -4.162173252530e+01 0.0 
0.0 0.0 -1.308430674773e+01 
-1.141267848916e+01 -4.070272833682e-02 0.0 
-4.070272833682e-02 -2.580380760106e+01 0.0 
0.0 0.0 -8.596693217455e+00 
-7.250242283082e+00 -5.100848347901e-02 0.0 
-5.100848347901e-02 -2.468659002263e+01 0.0 
0.0 0.0 -7.258285640163e+00 
-8.137809237542e+01 -1.185308701848e+00 0.0 
-1.185308701848e+00 -1.727749395975e+02 0.0 
0.0 0.0 -7.096580808782e+01 
-1.655863964017e+02 2.582713878327e+00 0.0 
2.582713878327e+00 -3.917254971819e+02 0.0 
0.0 0.0 -1.667935680751e+02 
-9.541816962873e+01 1.154342011325e+00 0.0 
1.154342011325e+00 -2.109095821059e+02 0.0 
0.0 0.0 -9.149832552037e+01 
-5.343284860238e+00 7.492452041802e-02 0.0 
7.492452041802e-02 -9.246521868511e+00 0.0 
0.0 0.0 -2.565019399147e+00 
-9.407882754504e+01 1.218376912958e-01 0.0 
1.218376912958e-01 -2.041078962064e+02 0.0 
0.0 0.0 -8.433758520142e+01 
-1.681751256458e+02 1.706241230965e+00 0.0 
1.706241230965e+00 -3.937419598402e+02 0.0 
0.0 0.0 -1.681751256458e+02 
-1.648991326056e+02 2.631262221601e+00 0.0 
2.631262221601e+00 -3.911240601826e+02 0.0 
0.0 0.0 -1.664069578365e+02 
-1.612379456269e+02 1.129725880807e+01 0.0 
1.129725880807e+01 -3.871121855803e+02 0.0 
0.0 0.0 -1.641050393622e+02 
-7.298463398706e+01 -3.932289229636e-01 0.0 
-3.932289229636e-01 -1.388149025355e+02 0.0 
0.0 0.0 -6.313986095676e+01 
-8.329110334335e+01 9.983996102670e-01 0.0 
9.983996102670e-01 -1.695100263220e+02 0.0 
0.0 0.0 -7.544033889959e+01 
-1.673834520511e+02 2.399911120845e+00 0.0 
2.399911120845e+00 -3.918947214525e+02 0.0 
0.0 0.0 -1.673834520511e+02 
-1.676988539720e+02 3.252472081955e+00 0.0 
3.252472081955e+00 -3.926306592681e+02 0.0 
0.0 0.0 -1.676988539720e+02 
-7.984507354948e+01 -8.258830046375e-02 0.0 
-8.258830046375e-02 -1.590212961322e+02 0.0 
0.0 0.0 -7.125991090449e+01 
-1.043039009607e+01 -3.005251027347e-01 0.0 
-3.005251027347e-01 -6.461473500263e+00 0.0 
0.0 0.0 -4.035484050461e+00 
-4.007465579393e+01 4.876262421590e-01 0.0 
4.876262421590e-01 -4.748804814710e+01 0.0 
0.0 0.0 -2.586881118231e+01 
-4.240589265113e+01 1.121014607115e+00 0.0 
1.121014607115e+00 -4.859610978631e+01 0.0 
0.0 0.0 -2.690060073123e+01 
-5.559526995986e+00 -1.178687333857e-01 0.0 
-1.178687333857e-01 -9.252235637233e+00 0.0 
0.0 0.0 -2.654666970908e+00 
-1.677114763800e+02 6.136493075691e+00 0.0 
6.136493075691e+00 -3.926601115534e+02 0.0 
0.0 0.0 -1.677114763800e+02 
-1.617242812270e+02 9.503530790399e+00 0.0 
9.503530790399e+00 -3.879335301032e+02 0.0 
0.0 0.0 -1.644973433991e+02 
-1.666571075727e+02 8.643905851840e+00 0.0 
8.643905851840e+00 -3.901999176695e+02 0.0 
0.0 0.0 -1.666571075727e+02 
-1.037707694031e+01 8.207960558914e-02 0.0 
8.207960558914e-02 -7.702005419960e+00 0.0 
0.0 0.0 -4.280026382758e+00 
-1.045764574917e+01 -2.488295249929e-02 0.0 
-2.488295249929e-02 -7.836087986366e+00 0.0 
0.0 0.0 -4.314714812102e+00 
-1.660007973766e+02 1.183097426809e+01 0.0 
1.183097426809e+01 -3.886685272120e+02 0.0 
0.0 0.0 -1.660007973766e+02 
-1.664895712891e+02 1.024182305862e+01 0.0 
1.024182305862e+01 -3.898089996746e+02 0.0 
0.0 0.0 -1.664895712891e+02 
-6.934398961209e+01 1.007023540809e+00 0.0 
1.007023540809e+00 -1.287093802325e+02 0.0 
0.0 0.0 -5.901601095337e+01 
-3.891159699452e+01 8.202855278665e-02 0.0 
8.202855278665e-02 -4.709597585656e+01 0.0 
0.0 0.0 -2.540227185533e+01 
-7.667593385135e+01 1.022273255351e+00 0.0 
1.022273255351e+00 -1.490348260972e+02 0.0 
0.0 0.0 -6.731322798457e+01 
-5.465154221394e+01 9.195869564607e-01 0.0 
9.195869564607e-01 -8.868571599567e+01 0.0 
0.0 0.0 -4.260117746288e+01 
-3.893701682768e+01 -7.213638291141e-03 0.0 
-7.213638291141e-03 -4.724664555009e+01 0.0 
0.0 0.0 -2.545509871333e+01 
-1.216486834573e+01 -9.849876115656e-02 0.0 
-9.849876115656e-02 -7.658990088433e+00 0.0 
0.0 0.0 -4.805144917393e+00 
-1.334017938131e+01 2.530061450211e-01 0.0 
2.530061450211e-01 -7.687907896479e+00 0.0 
0.0 0.0 -5.908426183337e+00 
-1.334824188776e+01 6.367892880931e-01 0.0 
6.367892880931e-01 -6.918094187943e+00 0.0 
0.0 0.0 -5.679900822711e+00 
-1.311221766256e+01 9.339189863058e-01 0.0 
9.339189863058e-01 -7.296828792154e+00 0.0 
0.0 0.0 -5.722713936415e+00 
-9.760852700931e+01 -1.157762197707e+00 0.0 
-1.157762197707e+00 -2.145031301522e+02 0.0 
0.0 0.0 -8.876215034484e+01 
-8.990308142658e+01 -1.138090696322e+00 0.0 
-1.138090696322e+00 -1.936090308085e+02 0.0 
0.0 0.0 -7.987765589466e+01 
-7.632387845630e+00 -4.523058757184e-01 0.0 
-4.523058757184e-01 -9.329806217522e+00 0.0 
0.0 0.0 -3.926597501027e+00 
-1.162961098384e+02 -9.529679745134e-01 0.0 
-9.529679745134e-01 -2.744537470256e+02 0.0 
0.0 0.0 -1.145756733305e+02 
-9.964399691809e+00 -5.282362183829e-01 0.0 
-5.282362183829e-01 -9.503826429504e+00 0.0 
0.0 0.0 -5.343585094736e+00 
-1.035408951264e+02 1.875891056061e+01 0.0 
1.875891056061e+01 -2.429287552949e+02 0.0 
0.0 0.0 -1.035408951264e+02 
-9.940989519196e+01 7.379823308584e+00 0.0 
7.379823308584e+00 -2.332897554479e+02 0.0 
0.0 0.0 -9.940989519196e+01 
-1.008200533628e+02 1.271317461732e+01 0.0 
1.271317461732e+01 -2.365801245132e+02 0.0 
0.0 0.0 -1.008200533628e+02 
-1.721020480951e+01 -1.512118054822e+00 0.0 
-1.512118054822e+00 -6.899898760542e+01 0.0 
0.0 0.0 -2.546275772448e+01 
-6.050427850926e+01 -1.319465229059e+00 0.0 
-1.319465229059e+00 -1.311089476853e+02 0.0 
0.0 0.0 -5.298373019263e+01 
-9.896224391456e+01 5.880296595540e+00 0.0 
5.880296595540e+00 -2.322452358006e+02 0.0 
0.0 0.0 -9.896224391456e+01 
-1.365681563939e+02 -7.284569000811e-01 0.0 
-7.284569000811e-01 -3.336464846815e+02 0.0 
0.0 0.0 -1.406643923226e+02 
-9.974668960302e+01 4.701962764866e+00 0.0 
4.701962764866e+00 -2.340756090737e+02 0.0 
0.0 0.0 -9.974668960302e+01 
-1.462126149796e+02 -7.554864845831e-01 0.0 
-7.554864845831e-01 -3.529489856270e+02 0.0 
0.0 0.0 -1.493484801820e+02 
-1.561237948487e+02 -8.189897505065e-01 0.0 
-8.189897505065e-01 -3.721499052502e+02 0.0 
0.0 0.0 -1.580821100297e+02 
-8.584557511780e+01 1.250993304610e-01 0.0 
1.250993304610e-01 -1.833097760297e+02 0.0 
0.0 0.0 -7.546620487692e+01 
-1.038002756277e+02 6.859213997305e+00 0.0 
6.859213997305e+00 -2.347257957325e+02 0.0 
0.0 0.0 -1.011578214081e+02 
-1.028918621233e+02 4.973480762777e+00 0.0 
4.973480762777e+00 -2.344951447449e+02 0.0 
0.0 0.0 -1.008161020605e+02 
-1.410706797071e+02 1.203164454981e+00 0.0 
1.203164454981e+00 -3.424065881046e+02 0.0 
0.0 0.0 -1.446431803435e+02 
-1.510253517712e+02 1.269467516012e+00 0.0 
1.269467516012e+00 -3.621732188012e+02 0.0 
0.0 0.0 -1.535595711717e+02 
-1.219134563682e+02 8.542376922807e-01 0.0 
8.542376922807e-01 -2.959149524115e+02 0.0 
0.0 0.0 -1.236817404561e+02 
-2.542724890940e+01 -4.221939203934e+00 0.0 
-4.221939203934e+00 -9.857063832656e+00 0.0 
0.0 0.0 -1.116177000550e+01 
-8.618588246514e+01 -4.572196989147e+00 0.0 
-4.572196989147e+00 -1.891068349528e+02 0.0 
0.0 0.0 -7.612361627780e+01 
-1.251875732720e+01 -2.628128837130e-01 0.0 
-2.628128837130e-01 -2.530846978538e+01 0.0 
0.0 0.0 -8.829348744700e+00 
-1.415431227730e+02 5.594542571456e+00 0.0 
5.594542571456e+00 -3.492239388468e+02 0.0 
0.0 0.0 -1.468301184860e+02 
-8.708698296503e+01 -6.197742714343e+00 0.0 
-6.197742714343e+00 -2.003334584350e+02 0.0 
0.0 0.0 -8.034185509590e+01 
-1.307371086525e+02 9.657137001113e-01 0.0 
9.657137001113e-01 -3.252585062357e+02 0.0 
0.0 0.0 -1.363986844665e+02 
-4.335186449037e+01 -9.785634307014e+00 0.0 
-9.785634307014e+00 -9.986384759826e+01 0.0 
0.0 0.0 -3.909131317636e+01 
-1.350515313410e+01 -2.039317198119e+00 0.0 
-2.039317198119e+00 -4.168655499940e+01 0.0 
0.0 0.0 -1.466062865661e+01 
-1.411974050568e+02 2.903264824678e+00 0.0 
2.903264824678e+00 -3.446910879864e+02 0.0 
0.0 0.0 -1.453665479130e+02 
-9.413902606248e+01 -3.747503305151e+00 0.0 
-3.747503305151e+00 -2.094307864070e+02 0.0 
0.0 0.0 -8.533576291283e+01 
-7.677390253633e+01 -2.342696799292e+00 0.0 
-2.342696799292e+00 -1.624667530376e+02 0.0 
0.0 0.0 -6.632123158207e+01 
-1.317161874704e+02 2.415836257758e+00 0.0 
2.415836257758e+00 -3.260028079681e+02 0.0 
0.0 0.0 -1.369156986316e+02 
-8.841152727246e+01 1.668063577118e+00 0.0 
1.668063577118e+00 -1.877382966186e+02 0.0 
0.0 0.0 -8.244494716732e+01 
-7.667751979102e+01 1.451220995926e-01 0.0 
1.451220995926e-01 -1.627085293126e+02 0.0 
0.0 0.0 -6.661664627116e+01 
-1.144726948801e+02 7.587165938213e+00 0.0 
7.587165938213e+00 -3.076106341374e+02 0.0 
0.0 0.0 -1.262249987052e+02 
-1.039226617865e+02 -3.636557863632e-01 0.0 
-3.636557863632e-01 -2.737593706511e+02 0.0 
0.0 0.0 -1.122391400158e+02 
-1.189205466237e+02 -5.103487869412e-01 0.0 
-5.103487869412e-01 -2.950541043858e+02 0.0 
0.0 0.0 -1.230783111583e+02 
-1.225558667227e+02 -3.426785993775e-01 0.0 
-3.426785993775e-01 -3.036466154887e+02 0.0 
0.0 0.0 -1.270711208626e+02 
-5.249459399449e+01 1.530050816661e+01 0.0 
1.530050816661e+01 -1.780832529695e+02 0.0 
0.0 0.0 -6.720703596476e+01 
-6.076794476214e+01 3.195562961018e+01 0.0 
3.195562961018e+01 -9.040586040593e+01 0.0 
0.0 0.0 -4.111892477959e+01 
-6.339665466858e+01 2.764001753544e+01 0.0 
2.764001753544e+01 -1.756227121707e+02 0.0 
0.0 0.0 -7.069248720180e+01 
-1.111785325398e+02 -1.084185844073e+00 0.0 
-1.084185844073e+00 -2.787469268363e+02 0.0 
0.0 0.0 -1.153682245492e+02 
-1.362469150183e+02 2.262583390293e+00 0.0 
2.262583390293e+00 -3.342473361538e+02 0.0 
0.0 0.0 -1.407482753516e+02 
-1.258623626914e+02 -3.947505949699e-01 0.0 
-3.947505949699e-01 -3.124027728303e+02 0.0 
0.0 0.0 -1.310795406565e+02 
-4.939874837808e+01 -1.452630558135e+01 0.0 
-1.452630558135e+01 -1.071346366729e+02 0.0 
0.0 0.0 -4.332743516057e+01 
-8.904953778173e+01 3.512447795645e+00 0.0 
3.512447795645e+00 -1.868872464516e+02 0.0 
0.0 0.0 -8.238103526998e+01 
-8.247478080462e+01 2.874574358463e+00 0.0 
2.874574358463e+00 -1.659519643873e+02 0.0 
0.0 0.0 -7.412802355757e+01 
-5.014973080327e+01 1.657144822491e-02 0.0 
1.657144822491e-02 -7.385661744205e+01 0.0 
0.0 0.0 -3.680190447360e+01 
-1.127764080255e+02 7.078289030682e-02 0.0 
7.078289030682e-02 -2.898504498133e+02 0.0 
0.0 0.0 -1.200026281560e+02 
-1.151535226353e+02 -7.545939658111e-01 0.0 
-7.545939658111e-01 -2.868966354107e+02 0.0 
0.0 0.0 -1.192318937481e+02 
-8.983214393304e+01 3.651285783910e+00 0.0 
3.651285783910e+00 -1.891293244351e+02 0.0 
0.0 0.0 -8.328844051043e+01 
-8.578807373062e+01 2.492827296440e+00 0.0 
2.492827296440e+00 -1.771019798915e+02 0.0 
0.0 0.0 -7.846701608664e+01 
-1.064052092945e+02 -1.116894498721e+00 0.0 
-1.116894498721e+00 -2.673974809448e+02 0.0 
0.0 0.0 -1.091595341815e+02 
-1.458092920523e+02 2.557108048818e+00 0.0 
2.557108048818e+00 -3.528326169170e+02 0.0 
0.0 0.0 -1.491925726908e+02 
-8.407907879927e+01 6.537028283225e+00 0.0 
6.537028283225e+00 -1.631481764093e+02 0.0 
0.0 0.0 -7.376817656257e+01 
-1.270744830407e+02 1.097117581736e+00 0.0 
1.097117581736e+00 -3.125849378534e+02 0.0 
0.0 0.0 -1.312616004828e+02 
-1.470388225743e+02 5.307435368294e+00 0.0 
5.307435368294e+00 -3.582391970165e+02 0.0 
0.0 0.0 -1.511834058772e+02 
-9.049806602837e+01 5.630179612659e+00 0.0 
5.630179612659e+00 -1.880024130965e+02 0.0 
0.0 0.0 -8.315014373747e+01 
-7.485622764719e+01 4.355307481320e+00 0.0 
4.355307481320e+00 -1.355413714050e+02 0.0 
0.0 0.0 -6.271927971565e+01 
-1.106623142153e+02 5.498761292761e+00 0.0 
5.498761292761e+00 -2.982294333654e+02 0.0 
0.0 0.0 -1.222675242742e+02 
-4.410186787639e+01 -5.496697513513e+00 0.0 
-5.496697513513e+00 -1.012041737003e+02 0.0 
0.0 0.0 -3.867384605189e+01 
-4.848839744004e+01 -1.552793139503e+01 0.0 
-1.552793139503e+01 -1.010655447772e+02 0.0 
0.0 0.0 -4.080636818665e+01 
-2.299204124863e+01 -3.156007505104e+00 0.0 
-3.156007505104e+00 -4.872799170042e+01 0.0 
0.0 0.0 -1.770617660000e+01 
-3.717764086269e+01 -1.481867986917e+01 0.0 
-1.481867986917e+01 -3.463525986651e+01 0.0 
0.0 0.0 -1.808824816294e+01 
-8.707634938334e+01 4.319329463140e+00 0.0 
4.319329463140e+00 -1.779056805170e+02 0.0 
0.0 0.0 -7.909460897009e+01 
-1.402284674266e+02 4.761166832177e-01 0.0 
4.761166832177e-01 -3.418613388289e+02 0.0 
0.0 0.0 -1.442269418767e+02 
-2.688796706734e+01 -6.861143160786e+00 0.0 
-6.861143160786e+00 -2.849745144996e+01 0.0 
0.0 0.0 -1.336998602985e+01 
-1.067085858185e+02 2.853438675340e+01 0.0 
2.853438675340e+01 -2.164688377973e+02 0.0 
0.0 0.0 -9.655322708472e+01 
-5.452149302466e+01 5.936873603949e-01 0.0 
5.936873603949e-01 -8.290242724415e+01 0.0 
0.0 0.0 -4.082717608064e+01 
-1.273843755903e+02 2.480725559953e+00 0.0 
2.480725559953e+00 -3.180732590271e+02 0.0 
0.0 0.0 -1.332372903852e+02 
-1.304305677920e+02 1.060987363933e-01 0.0 
1.060987363933e-01 -3.226854395032e+02 0.0 
0.0 0.0 -1.355348021886e+02 
-5.814256538588e+01 -1.481696462353e+01 0.0 
-1.481696462353e+01 -1.542643227472e+02 0.0 
0.0 0.0 -6.156563919136e+01 
-1.312823812820e+02 1.632528764542e+00 0.0 
1.632528764542e+00 -3.233611595722e+02 0.0 
0.0 0.0 -1.359930622562e+02 
-5.132007633296e+01 2.190397629516e+00 0.0 
2.190397629516e+00 -7.428912336837e+01 0.0 
0.0 0.0 -3.728275991040e+01 
-9.574465861650e+01 1.946797038478e+01 0.0 
1.946797038478e+01 -2.764199453409e+02 0.0 
0.0 0.0 -1.113829085455e+02 
-1.516128223545e+02 3.260905363956e+00 0.0 
3.260905363956e+00 -3.662760051057e+02 0.0 
0.0 0.0 -1.549666482381e+02 
-4.080622627623e+01 -3.116276727444e+00 0.0 
-3.116276727444e+00 -9.722119281421e+01 0.0 
0.0 0.0 -3.783351772839e+01 
-1.464212040174e+02 6.841066572461e+00 0.0 
6.841066572461e+00 -3.594423921766e+02 0.0 
0.0 0.0 -1.513590788582e+02 
-7.786601425462e+01 4.005810842756e+00 0.0 
4.005810842756e+00 -1.465881161596e+02 0.0 
0.0 0.0 -6.693623912426e+01 
-4.897084311582e+01 -4.574498207649e+00 0.0 
-4.574498207649e+00 -1.097741421334e+02 0.0 
0.0 0.0 -4.289104575160e+01 
-5.434719065364e+01 -1.697479494450e+01 0.0 
-1.697479494450e+01 -1.212644997066e+02 0.0 
0.0 0.0 -4.975892078514e+01 
-1.027283142410e+02 -2.515382547670e+00 0.0 
-2.515382547670e+00 -2.336980638596e+02 0.0 
0.0 0.0 -9.671961603488e+01 
-6.630172003739e+01 2.518144131337e+00 0.0 
2.518144131337e+00 -1.125278472731e+02 0.0 
0.0 0.0 -5.324887019313e+01 
-7.141425109268e+01 -8.582453449730e+00 0.0 
-8.582453449730e+00 -1.590599431748e+02 0.0 
0.0 0.0 -6.336619119413e+01 
-8.080262663730e+01 3.723465274592e+00 0.0 
3.723465274592e+00 -1.575240888561e+02 0.0 
0.0 0.0 -7.109801464801e+01 
-7.068747050184e+01 3.416904388581e+00 0.0 
3.416904388581e+00 -1.256694277886e+02 0.0 
0.0 0.0 -5.850706948714e+01 
-9.784353025645e+01 -4.121495392724e+00 0.0 
-4.121495392724e+00 -2.285291628703e+02 0.0 
0.0 0.0 -9.357554386999e+01 
-1.245560957733e+02 1.065237074165e+00 0.0 
1.065237074165e+00 -3.040716913840e+02 0.0 
0.0 0.0 -1.273809360045e+02 
-1.272219679974e+02 1.693410843255e+00 0.0 
1.693410843255e+00 -3.152119553290e+02 0.0 
0.0 0.0 -1.322147518409e+02 
-7.582699632199e+01 2.099712629330e+00 0.0 
2.099712629330e+00 -1.453347905776e+02 0.0 
0.0 0.0 -6.594853606987e+01 
-3.147826283216e+01 -4.440774330056e+00 0.0 
-4.440774330056e+00 -8.488528524174e+01 0.0 
0.0 0.0 -3.158368800119e+01 
-9.529313464302e+01 -4.239321892129e+00 0.0 
-4.239321892129e+00 -2.167768991874e+02 0.0 
0.0 0.0 -8.876767999786e+01 
-1.151739376539e+02 2.407582244990e+01 0.0 
2.407582244990e+01 -3.044178570301e+02 0.0 
0.0 0.0 -1.254775384052e+02 
-8.166915285623e+01 5.237285530035e+00 0.0 
5.237285530035e+00 -1.560673068152e+02 0.0 
0.0 0.0 -7.092093790144e+01 
-8.819763808325e+01 -5.196048319390e+00 0.0 
-5.196048319390e+00 -1.961474522640e+02 0.0 
0.0 0.0 -7.963978160304e+01 
-1.104053837950e+02 -3.182734718543e-01 0.0 
-3.182734718543e-01 -2.752573053131e+02 0.0 
0.0 0.0 -1.131535810301e+02 
-1.414475051192e+02 7.525648419729e+00 0.0 
7.525648419729e+00 -3.514086675703e+02 0.0 
0.0 0.0 -1.474568518069e+02 
-7.297048494638e+01 2.475740792343e+00 0.0 
2.475740792343e+00 -1.344248695098e+02 0.0 
0.0 0.0 -6.181860633684e+01 
-2.986083746360e+01 -8.824144855520e+00 0.0 
-8.824144855520e+00 -1.198073855818e+02 0.0 
0.0 0.0 -4.721056022179e+01 
-1.690123619424e+01 -7.152673217982e-01 0.0 
-7.152673217982e-01 -4.649862174218e+01 0.0 
0.0 0.0 -1.699795272352e+01 
-3.776047491898e+01 3.289521962037e+00 0.0 
3.289521962037e+00 -1.358567071522e+02 0.0 
0.0 0.0 -5.020490891530e+01 
-1.354853041763e+02 7.348374610913e-01 0.0 
7.348374610913e-01 -3.335941217446e+02 0.0 
0.0 0.0 -1.403238277763e+02 
-6.958495767533e+01 2.566771420597e+00 0.0 
2.566771420597e+00 -1.234416845828e+02 0.0 
0.0 0.0 -5.750799267743e+01 
-1.104754339651e+02 -1.344992571785e-01 0.0 
-1.344992571785e-01 -2.543169763109e+02 0.0 
0.0 0.0 -1.058273959874e+02 
-5.876568584777e+01 1.486617401735e+00 0.0 
1.486617401735e+00 -9.250384846306e+01 0.0 
0.0 0.0 -4.498086029325e+01 
-1.291067240023e+02 1.140402594330e+01 0.0 
1.140402594330e+01 -3.343580272026e+02 0.0 
0.0 0.0 -1.386394253615e+02 
-1.016664776665e+02 -3.324514418781e+00 0.0 
-3.324514418781e+00 -2.367539374753e+02 0.0 
0.0 0.0 -9.752991040021e+01 
-1.257972896751e+02 1.982636964383e-01 0.0 
1.982636964383e-01 -3.144322506063e+02 0.0 
0.0 0.0 -1.316688620844e+02 
-4.063768637065e+01 -2.661461516537e+00 0.0 
-2.661461516537e+00 -1.023123759105e+02 0.0 
0.0 0.0 -3.959733308019e+01 
-1.459127834871e+02 3.765070371245e+00 0.0 
3.765070371245e+00 -3.578485518307e+02 0.0 
0.0 0.0 -1.507284005953e+02 
-1.012240681183e+02 -2.845929244388e+00 0.0 
-2.845929244388e+00 -2.294821753038e+02 0.0 
0.0 0.0 -9.420932978592e+01 
-4.582550953853e+01 -1.693212333390e+00 0.0 
-1.693212333390e+00 -1.107679856727e+02 0.0 
0.0 0.0 -4.359695978411e+01 
-9.791060140060e+01 -2.613599710855e+00 0.0 
-2.613599710855e+00 -2.177289551927e+02 0.0 
0.0 0.0 -8.940712776126e+01 
-7.602773844897e+01 -7.170792063517e+00 0.0 
-7.170792063517e+00 -1.674676393599e+02 0.0 
0.0 0.0 -6.647815875832e+01 
-5.792363352229e+01 -8.894195620457e+00 0.0 
-8.894195620457e+00 -1.303543974132e+02 0.0 
0.0 0.0 -5.175877102932e+01 
-1.087811234079e+02 -1.895565814774e+00 0.0 
-1.895565814774e+00 -2.533544142879e+02 0.0 
0.0 0.0 -1.052225158902e+02 
-7.884559394393e+00 -5.924603488569e-01 0.0 
-5.924603488569e-01 -9.355828001712e+00 0.0 
0.0 0.0 -3.540573029691e+00 
-8.204132318501e+00 -5.269525245564e-01 0.0 
-5.269525245564e-01 -9.927270328572e+00 0.0 
0.0 0.0 -4.443613440995e+00 
-1.188329524318e+02 4.861979273041e-01 0.0 
4.861979273041e-01 -2.878532537618e+02 0.0 
0.0 0.0 -1.199071117269e+02 
-3.517552054891e+01 -3.485321302474e+00 0.0 
-3.485321302474e+00 -9.389681329987e+01 0.0 
0.0 0.0 -3.563516030727e+01 
-1.178106897630e+02 9.230207210413e-01 0.0 
9.230207210413e-01 -2.910285285275e+02 0.0 
0.0 0.0 -1.208536933616e+02 
-1.142082507082e+02 3.583952593703e-01 0.0 
3.583952593703e-01 -2.831333004962e+02 0.0 
0.0 0.0 -1.170370178568e+02 
-7.782355999469e+01 -8.588613555240e+00 0.0 
-8.588613555240e+00 -1.839813781195e+02 0.0 
0.0 0.0 -7.377765356083e+01 
-5.124016152642e+01 -1.671560282987e+01 0.0 
-1.671560282987e+01 -1.310691823543e+02 0.0 
0.0 0.0 -5.013371017052e+01 
-8.928171102523e+01 8.226458891778e+00 0.0 
8.226458891778e+00 -1.756395386823e+02 0.0 
0.0 0.0 -7.907637491225e+01 
-3.645970672678e+01 2.756917845425e+01 0.0 
2.756917845425e+01 -9.545873108630e+01 0.0 
0.0 0.0 -3.924744447698e+01 
-8.053312302111e+01 -5.875526210900e+00 0.0 
-5.875526210900e+00 -1.761077706774e+02 0.0 
0.0 0.0 -7.061042572423e+01 
-1.338398268657e+02 1.368336798804e+01 0.0 
1.368336798804e+01 -3.421329888064e+02 0.0 
0.0 0.0 -1.423918447016e+02 
-3.064648310339e+01 -4.597770542230e+00 0.0 
-4.597770542230e+00 -8.001317851922e+01 0.0 
0.0 0.0 -2.990204510227e+01 
-6.424263675960e+01 3.424831937511e+00 0.0 
3.424831937511e+00 -1.044640653026e+02 0.0 
0.0 0.0 -5.021201061865e+01 
-5.626043225339e+01 2.589186308216e+00 0.0 
2.589186308216e+00 -8.402327459109e+01 0.0 
0.0 0.0 -4.168511205335e+01 
-3.342756652333e+01 -7.610957678067e+00 0.0 
-7.610957678067e+00 -7.863781405402e+01 0.0 
0.0 0.0 -2.979462086286e+01 
-1.359098630608e+02 8.082186889549e+00 0.0 
8.082186889549e+00 -3.430065745985e+02 0.0 
0.0 0.0 -1.432749312978e+02 
-8.059739414844e+01 7.257928739591e+00 0.0 
7.257928739591e+00 -1.440826500149e+02 0.0 
0.0 0.0 -6.700401324899e+01 
-3.980819553947e+01 -6.266838969035e+00 0.0 
-6.266838969035e+00 -9.285093179526e+01 0.0 
0.0 0.0 -3.531292662680e+01 
-9.291387774445e+01 9.873552883611e+00 0.0 
9.873552883611e+00 -1.854097374487e+02 0.0 
0.0 0.0 -8.309708455794e+01 
-8.970622167102e+01 8.009122248792e+00 0.0 
8.009122248792e+00 -1.836342475869e+02 0.0 
0.0 0.0 -8.160214077736e+01 
-4.379127288356e+01 -5.360995876039e+00 0.0 
-5.360995876039e+00 -1.057232619835e+02 0.0 
0.0 0.0 -3.983080801943e+01 
-4.801409318262e+01 3.173561362289e+01 0.0 
3.173561362289e+01 -8.627355332843e+01 0.0 
0.0 0.0 -3.705521930596e+01 
-4.705128340585e+01 -8.604664066161e+00 0.0 
-8.604664066161e+00 -1.089037407071e+02 0.0 
0.0 0.0 -4.240240878286e+01 
-1.242443693684e+02 1.550947531847e+00 0.0 
1.550947531847e+00 -3.070194421895e+02 0.0 
0.0 0.0 -1.284014214261e+02 
-1.053177980917e+02 -2.573086205418e+00 0.0 
-2.573086205418e+00 -2.451100437971e+02 0.0 
0.0 0.0 -1.014287750978e+02 
-1.015218032097e+02 2.259192011053e+01 0.0 
2.259192011053e+01 -2.062969819828e+02 0.0 
0.0 0.0 -9.194563555776e+01 
-8.655241503320e+01 6.136959514240e+00 0.0 
6.136959514240e+00 -1.741265917882e+02 0.0 
0.0 0.0 -7.780370204642e+01 
-1.211682962904e+02 1.324043916780e+00 0.0 
1.324043916780e+00 -2.990046263103e+02 0.0 
0.0 0.0 -1.246456615056e+02 
-1.171123049096e+02 2.084413502019e-01 0.0 
2.084413502019e-01 -2.980186779442e+02 0.0 
0.0 0.0 -1.239396589978e+02 
-4.016985826783e+01 -9.752445656444e+00 0.0 
-9.752445656444e+00 -8.807127942539e+01 0.0 
0.0 0.0 -3.494053291577e+01 
-1.213483547846e+02 2.240062140393e-01 0.0 
2.240062140393e-01 -3.062379040551e+02 0.0 
0.0 0.0 -1.278758776519e+02 
-7.760694511417e+01 5.131365175844e+00 0.0 
5.131365175844e+00 -1.424541045877e+02 0.0 
0.0 0.0 -6.561831491057e+01 
-1.076075028950e+02 -9.888087198259e-01 0.0 
-9.888087198259e-01 -2.459649979149e+02 0.0 
0.0 0.0 -1.020067501547e+02 
-7.185780849902e+01 4.474034765453e+00 0.0 
4.474034765453e+00 -1.247269823619e+02 0.0 
0.0 0.0 -5.857543725828e+01 
-8.307043432700e+01 6.998402480843e+00 0.0 
6.998402480843e+00 -1.548714592367e+02 0.0 
0.0 0.0 -7.098256806910e+01 
-6.492113486411e+01 1.889312651008e+01 0.0 
1.889312651008e+01 -2.120309051464e+02 0.0 
0.0 0.0 -8.587362338952e+01 
-8.300627929295e+01 4.638549152774e+00 0.0 
4.638549152774e+00 -1.643425984598e+02 0.0 
0.0 0.0 -7.380466332584e+01 
-9.237645048266e+01 -4.121622100890e+00 0.0 
-4.121622100890e+00 -2.058431464011e+02 0.0 
0.0 0.0 -8.428916428827e+01 
-1.045311080464e+02 -1.835874587156e+00 0.0 
-1.835874587156e+00 -2.376471435489e+02 0.0 
0.0 0.0 -9.812260278156e+01 
-7.174076299959e+01 -6.671343734855e+00 0.0 
-6.671343734855e+00 -1.553949940259e+02 0.0 
0.0 0.0 -6.134114685914e+01 
-7.226696772215e+01 -1.263726141429e+01 0.0 
-1.263726141429e+01 -1.690915181233e+02 0.0 
0.0 0.0 -6.966433621488e+01 
-7.356550997611e+01 3.717717934936e+00 0.0 
3.717717934936e+00 -1.328240051833e+02 0.0 
0.0 0.0 -6.151685454783e+01 
-9.106402446779e+01 -6.032938026095e+00 0.0 
-6.032938026095e+00 -2.332208922176e+02 0.0 
0.0 0.0 -9.705712408757e+01 
-5.130245589607e+01 -7.192270474352e+00 0.0 
-7.192270474352e+00 -1.179162952108e+02 0.0 
0.0 0.0 -4.567375225846e+01 
-2.403936101330e+01 -3.867097301201e+00 0.0 
-3.867097301201e+00 -5.846206702179e+01 0.0 
0.0 0.0 -2.132709270597e+01 
-7.625085516857e+01 5.736079467758e+00 0.0 
5.736079467758e+00 -1.343043975352e+02 0.0 
0.0 0.0 -6.276657581112e+01 
-5.295041483446e+01 -9.741466247849e+00 0.0 
-9.741466247849e+00 -1.171833921975e+02 0.0 
0.0 0.0 -4.637475228129e+01 
-1.456799745267e+02 5.667875411177e+00 0.0 
5.667875411177e+00 -3.589581321740e+02 0.0 
0.0 0.0 -1.509914320102e+02 
-7.658027234287e+01 3.588759958213e+00 0.0 
3.588759958213e+00 -1.437779167185e+02 0.0 
0.0 0.0 -6.570745671840e+01 
-1.257527730104e+02 1.051443762242e+00 0.0 
1.051443762242e+00 -3.170710526960e+02 0.0 
0.0 0.0 -1.324471477119e+02 
-1.502126985404e+02 1.898928436390e+01 0.0 
1.898928436390e+01 -3.631089449810e+02 0.0 
0.0 0.0 -1.535964930564e+02 
-9.005442521055e+01 -3.245423831994e+00 0.0 
-3.245423831994e+00 -1.973227498101e+02 0.0 
0.0 0.0 -8.041955276485e+01 
-4.695910371640e+01 -8.239626650231e+00 0.0 
-8.239626650231e+00 -1.045867264915e+02 0.0 
0.0 0.0 -4.093395816025e+01 
-3.092913752317e+01 -7.883461534613e+00 0.0 
-7.883461534613e+00 -6.658072012587e+01 0.0 
0.0 0.0 -2.654385247770e+01 
-1.196065954069e+02 2.140078019287e+00 0.0 
2.140078019287e+00 -3.020358808663e+02 0.0 
0.0 0.0 -1.254724773097e+02 
-6.575927720974e+01 1.601355469422e+00 0.0 
1.601355469422e+00 -1.142943518406e+02 0.0 
0.0 0.0 -5.361608871510e+01 
-2.097350868613e+01 -4.747357016317e+00 0.0 
-4.747357016317e+00 -4.729101788636e+01 0.0 
0.0 0.0 -1.806359405352e+01 
-7.290115084028e+01 -6.619984506945e+00 0.0 
-6.619984506945e+00 -1.601821899012e+02 0.0 
0.0 0.0 -6.399744887216e+01 
-3.157342965957e+01 -1.161833893930e+00 0.0 
-1.161833893930e+00 -9.046324309945e+01 0.0 
0.0 0.0 -3.478602086581e+01 
-6.885619162473e+01 4.476077128960e+00 0.0 
4.476077128960e+00 -1.139398596153e+02 0.0 
0.0 0.0 -5.443881537200e+01 
-7.742450065310e+01 -5.119662414172e+00 0.0 
-5.119662414172e+00 -1.686784584691e+02 0.0 
0.0 0.0 -6.709888508234e+01 
-1.083750324837e+02 -1.354482858312e-01 0.0 
-1.354482858312e-01 -2.818020314970e+02 0.0 
0.0 0.0 -1.161252027597e+02 
-7.227634250396e+01 -4.199500493222e+00 0.0 
-4.199500493222e+00 -1.565058668590e+02 0.0 
0.0 0.0 -6.238426914956e+01 
-8.436084561283e+01 4.883304261378e+00 0.0 
4.883304261378e+00 -1.671286732958e+02 0.0 
0.0 0.0 -7.504685567260e+01 
-6.243039188360e+01 -9.469358812865e+00 0.0 
-9.469358812865e+00 -1.381010452768e+02 0.0 
0.0 0.0 -5.490270700777e+01 
-1.174175831361e+02 3.664170092600e+00 0.0 
3.664170092600e+00 -3.046050144052e+02 0.0 
0.0 0.0 -1.261648508978e+02 
-4.824989246168e+01 -1.495770333342e+01 0.0 
-1.495770333342e+01 -1.003232886729e+02 0.0 
0.0 0.0 -4.063434924945e+01 
-1.157305065898e+02 1.781519462880e+00 0.0 
1.781519462880e+00 -2.940583338463e+02 0.0 
0.0 0.0 -1.216077192315e+02 
-1.013696116971e+02 -1.716414324638e+00 0.0 
-1.716414324638e+00 -2.264941765924e+02 0.0 
0.0 0.0 -9.354553956098e+01 
-1.207154431011e+02 1.113818227480e+00 0.0 
1.113818227480e+00 -3.089640284699e+02 0.0 
0.0 0.0 -1.285038414713e+02 
-5.079469524336e+01 6.036319416887e-01 0.0 
6.036319416887e-01 -1.750329473854e+02 0.0 
0.0 0.0 -6.476933625474e+01 
-3.579865238483e+01 -4.048455398198e+00 0.0 
-4.048455398198e+00 -8.925874367975e+01 0.0 
0.0 0.0 -3.410449615284e+01 
-6.001323070070e+01 2.579302368641e+00 0.0 
2.579302368641e+00 -9.512815352351e+01 0.0 
0.0 0.0 -4.614241526726e+01 
-9.637986492605e+01 8.992573000070e+00 0.0 
8.992573000070e+00 -2.790136528850e+02 0.0 
0.0 0.0 -1.152757094408e+02 
-6.316566231033e+01 3.338770124573e+01 0.0 
3.338770124573e+01 -1.449412661085e+02 0.0 
0.0 0.0 -6.045793264439e+01 
-6.752450694331e+01 3.477016864292e+00 0.0 
3.477016864292e+00 -1.151381219334e+02 0.0 
0.0 0.0 -5.439878866301e+01 
-5.325891563674e+01 -1.783612221243e+01 0.0 
-1.783612221243e+01 -1.166375606429e+02 0.0 
0.0 0.0 -4.762538442393e+01 
-7.215538328981e+01 5.320680016496e+00 0.0 
5.320680016496e+00 -1.211325667386e+02 0.0 
0.0 0.0 -5.758638500853e+01 
-2.638172410820e+01 -1.910301075744e+00 0.0 
-1.910301075744e+00 -8.140630014283e+01 0.0 
0.0 0.0 -3.063251746858e+01 
-1.365095464055e+02 6.044024893368e+00 0.0 
6.044024893368e+00 -3.415377397219e+02 0.0 
0.0 0.0 -1.430141858382e+02 
-9.984642090211e+01 1.187730949356e+01 0.0 
1.187730949356e+01 -2.863666752835e+02 0.0 
0.0 0.0 -1.173077779896e+02 
-1.007726252511e+02 2.178471786282e+01 0.0 
2.178471786282e+01 -2.819677688081e+02 0.0 
0.0 0.0 -1.144221182177e+02 
-9.492568937067e+01 9.408380607667e+00 0.0 
9.408380607667e+00 -1.968810182908e+02 0.0 
0.0 0.0 -8.714201229845e+01 
-9.745149534057e+01 -2.942708972441e+00 0.0 
-2.942708972441e+00 -2.519042626986e+02 0.0 
0.0 0.0 -1.043726388966e+02 
-3.607570697467e+01 -7.133581676237e+00 0.0 
-7.133581676237e+00 -8.407465874742e+01 0.0 
0.0 0.0 -3.235817835696e+01 
-1.074396735261e+02 7.420306311919e-01 0.0 
7.420306311919e-01 -2.782132315414e+02 0.0 
0.0 0.0 -1.137470900697e+02 
-1.399252032930e+02 6.315648062907e+00 0.0 
6.315648062907e+00 -3.504953320271e+02 0.0 
0.0 0.0 -1.467261605960e+02 
-6.049491115596e+01 -1.819433375352e+01 0.0 
-1.819433375352e+01 -1.525604627294e+02 0.0 
0.0 0.0 -6.237335572757e+01 
-1.233692228329e+02 2.389075127211e+00 0.0 
2.389075127211e+00 -3.100470635175e+02 0.0 
0.0 0.0 -1.293563828414e+02 
-7.895396798451e+01 5.554853382348e+00 0.0 
5.554853382348e+00 -1.451173822708e+02 0.0 
0.0 0.0 -6.682140507660e+01 
-4.830811851600e+01 -1.713127989303e+01 0.0 
-1.713127989303e+01 -1.274624012775e+02 0.0 
0.0 0.0 -4.704570496933e+01 
-1.116878115970e+02 1.320579078956e+00 0.0 
1.320579078956e+00 -2.861219346118e+02 0.0 
0.0 0.0 -1.177189162245e+02 
-6.239813796719e+01 4.476608675408e+00 0.0 
4.476608675408e+00 -9.237128150701e+01 0.0 
0.0 0.0 -4.603082584226e+01 
-5.398732976230e+01 -3.111047470491e+00 0.0 
-3.111047470491e+00 -1.232549426974e+02 0.0 
0.0 0.0 -4.860794447069e+01 
-6.825525036056e+01 -8.387513285063e+00 0.0 
-8.387513285063e+00 -1.516722682081e+02 0.0 
0.0 0.0 -6.090257268631e+01 
-7.074800311898e+01 2.974831379485e+01 0.0 
2.974831379485e+01 -1.806216239542e+02 0.0 
0.0 0.0 -7.297898827571e+01 
-1.157371675954e+02 1.136358059083e+00 0.0 
1.136358059083e+00 -3.008631216168e+02 0.0 
0.0 0.0 -1.245800867636e+02 
-5.700926455165e+01 3.256877351790e+01 0.0 
3.256877351790e+01 -1.086283896892e+02 0.0 
0.0 0.0 -4.507861336618e+01 
-6.776316792534e+01 2.845521140390e+01 0.0 
2.845521140390e+01 -1.784185920183e+02 0.0 
0.0 0.0 -7.205225285049e+01 
-7.490693371007e+01 5.239840111563e+00 0.0 
5.239840111563e+00 -1.317324204143e+02 0.0 
0.0 0.0 -6.159180623730e+01 
-6.217667726174e+01 1.521657155021e+00 0.0 
1.521657155021e+00 -1.032683976927e+02 0.0 
0.0 0.0 -4.923352248632e+01 
-6.446210189020e+01 3.624546687669e+00 0.0 
3.624546687669e+00 -1.005681011311e+02 0.0 
0.0 0.0 -4.910906090640e+01 
-9.909041876960e+01 -3.257498952435e+00 0.0 
-3.257498952435e+00 -2.255164533983e+02 0.0 
0.0 0.0 -9.290677287387e+01 
-1.302858751552e+02 8.623805185431e+00 0.0 
8.623805185431e+00 -3.344244553981e+02 0.0 
0.0 0.0 -1.390130991660e+02 
-1.029610993203e+02 8.168771855286e-02 0.0 
8.168771855286e-02 -2.703226273097e+02 0.0 
0.0 0.0 -1.110276462459e+02 
-6.081798011569e+01 3.323339352227e+00 0.0 
3.323339352227e+00 -9.367840066236e+01 0.0 
0.0 0.0 -4.594891423342e+01 
-1.112198101467e+02 3.110224091906e+01 0.0 
3.110224091906e+01 -2.337406243927e+02 0.0 
0.0 0.0 -1.030881303618e+02 
-1.058594757999e+02 2.393843703801e+01 0.0 
2.393843703801e+01 -2.873091534682e+02 0.0 
0.0 0.0 -1.175505887805e+02 
-1.107725610521e+02 1.130285372497e+00 0.0 
1.130285372497e+00 -2.927378103078e+02 0.0 
0.0 0.0 -1.206531114080e+02 
-8.032016813192e+01 4.943552714716e+00 0.0 
4.943552714716e+00 -1.533566330721e+02 0.0 
0.0 0.0 -6.970304036120e+01 
-7.708635142448e+01 -1.035719440017e+01 0.0 
-1.035719440017e+01 -1.766930344774e+02 0.0 
0.0 0.0 -7.264340326653e+01 
-7.311826445491e+01 -9.485701475163e+00 0.0 
-9.485701475163e+00 -1.641867043890e+02 0.0 
0.0 0.0 -6.680240011287e+01 
-3.541631808072e+01 -7.335498598352e+00 0.0 
-7.335498598352e+00 -8.752805890755e+01 0.0 
0.0 0.0 -3.291805974233e+01 
-1.081023500029e+02 3.244825910449e+00 0.0 
3.244825910449e+00 -2.884011702626e+02 0.0 
0.0 0.0 -1.181277732879e+02 
-7.779235102381e+01 -7.571175626689e+00 0.0 
-7.571175626689e+00 -1.724829397393e+02 0.0 
0.0 0.0 -6.984211593145e+01 
-7.348442539471e+01 5.870672032228e+00 0.0 
5.870672032228e+00 -1.235028015131e+02 0.0 
0.0 0.0 -5.869616807233e+01 
-7.066416190000e+01 5.977503120755e+00 0.0 
5.977503120755e+00 -1.128319427352e+02 0.0 
0.0 0.0 -5.464883139057e+01 
-6.727796385274e+01 1.301544115066e+01 0.0 
1.301544115066e+01 -2.200672351629e+02 0.0 
0.0 0.0 -8.957257963692e+01 
-6.191494184378e+01 -1.182157592503e+01 0.0 
-1.182157592503e+01 -1.423544481848e+02 0.0 
0.0 0.0 -5.708918008927e+01 
-4.814268880474e+01 1.555644490546e+01 0.0 
1.555644490546e+01 -1.644530543085e+02 0.0 
0.0 0.0 -6.069510625299e+01 
-6.663031066750e+01 -1.016566512452e+01 0.0 
-1.016566512452e+01 -1.506835216094e+02 0.0 
0.0 0.0 -6.020981973977e+01 
-7.007516241818e+01 -1.042980708757e+01 0.0 
-1.042980708757e+01 -1.631991570573e+02 0.0 
0.0 0.0 -6.545750410599e+01 
-4.311344000079e+01 -9.194755542119e+00 0.0 
-9.194755542119e+00 -9.632672063743e+01 0.0 
0.0 0.0 -3.782726119610e+01 
-1.245165544017e+02 9.240396906055e+00 0.0 
9.240396906055e+00 -3.256638202236e+02 0.0 
0.0 0.0 -1.346541123876e+02 
-7.689981379490e+01 -7.993028241775e+00 0.0 
-7.993028241775e+00 -2.002856891638e+02 0.0 
0.0 0.0 -8.102333645541e+01 
-8.548210606452e+01 6.627432339915e+00 0.0 
6.627432339915e+00 -1.657311252465e+02 0.0 
0.0 0.0 -7.496396939332e+01 
-7.830062808717e+01 -6.373257739403e+00 0.0 
-6.373257739403e+00 -2.116312620041e+02 0.0 
0.0 0.0 -8.609890044940e+01 
-1.005590505366e+02 1.283164771514e+00 0.0 
1.283164771514e+00 -2.763375067475e+02 0.0 
0.0 0.0 -1.126689671852e+02 
-9.000476073037e+01 -2.923339809174e+00 0.0 
-2.923339809174e+00 -2.387722263076e+02 0.0 
0.0 0.0 -9.691498942475e+01 
-6.502704771177e+01 2.565971607329e+01 0.0 
2.565971607329e+01 -1.888231052815e+02 0.0 
0.0 0.0 -7.631727044427e+01 
-3.942700489148e+01 -6.553671747116e+00 0.0 
-6.553671747116e+00 -9.670108390180e+01 0.0 
0.0 0.0 -3.628593264892e+01 
-1.340363327754e+02 6.939891568057e+00 0.0 
6.939891568057e+00 -3.419141432741e+02 0.0 
0.0 0.0 -1.423851428149e+02 
-1.411692226362e+02 1.001161646571e+01 0.0 
1.001161646571e+01 -3.532827726282e+02 0.0 
0.0 0.0 -1.479355985793e+02 
-8.737835325364e+01 3.022932103684e+01 0.0 
3.022932103684e+01 -2.198153918333e+02 0.0 
0.0 0.0 -9.175812352607e+01 
-7.286668637375e+01 -1.012264702070e+01 0.0 
-1.012264702070e+01 -1.757560197825e+02 0.0 
0.0 0.0 -7.062151398565e+01 
-9.523067512537e+01 -6.481891879161e-01 0.0 
-6.481891879161e-01 -2.576390011658e+02 0.0 
0.0 0.0 -1.043427615554e+02 
-7.056267440067e+01 3.723203769736e+00 0.0 
3.723203769736e+00 -1.219024609592e+02 0.0 
0.0 0.0 -5.733954060796e+01 
-8.184766520389e+01 -8.254707659627e+00 0.0 
-8.254707659627e+00 -1.849192641617e+02 0.0 
0.0 0.0 -7.561479599678e+01 
-5.785515405525e+01 2.982403192957e+01 0.0 
2.982403192957e+01 -1.427191635154e+02 0.0 
0.0 0.0 -5.768143258986e+01 
-6.259086872950e+01 -7.083134734551e+00 0.0 
-7.083134734551e+00 -1.392366848851e+02 0.0 
0.0 0.0 -5.495024262333e+01 
-5.670743462134e+01 -1.843565729427e+01 0.0 
-1.843565729427e+01 -1.332462103315e+02 0.0 
0.0 0.0 -5.414224247704e+01 
-8.016142841598e+01 -1.077431943576e+01 0.0 
-1.077431943576e+01 -1.894080639266e+02 0.0 
0.0 0.0 -7.840127904848e+01 
-5.737604636531e+01 -8.437134092065e+00 0.0 
-8.437134092065e+00 -1.255793106859e+02 0.0 
0.0 0.0 -4.954123090074e+01 
-4.871305707339e+01 -4.157643867154e+00 0.0 
-4.157643867154e+00 -1.147588355363e+02 0.0 
0.0 0.0 -4.435026856349e+01 
-9.628169224536e+01 -4.685091399049e+00 0.0 
-4.685091399049e+00 -2.407771657109e+02 0.0 
0.0 0.0 -9.960362666493e+01 
-1.056338974467e+02 1.176993828322e+00 0.0 
1.176993828322e+00 -2.845430371763e+02 0.0 
0.0 0.0 -1.166530803869e+02 
-1.075080164049e+02 3.112223199576e+01 0.0 
3.112223199576e+01 -2.594629332327e+02 0.0 
0.0 0.0 -1.096912848913e+02 
-1.228616556732e+01 -1.475543899140e-01 0.0 
-1.475543899140e-01 -8.633516334664e+00 0.0 
0.0 0.0 -5.086329946861e+00 
-6.683580783193e+01 -5.609130601199e+00 0.0 
-5.609130601199e+00 -2.062122881914e+02 0.0 
0.0 0.0 -8.329911246782e+01 
-7.290625521425e+01 -7.320484110210e+00 0.0 
-7.320484110210e+00 -2.040214282976e+02 0.0 
0.0 0.0 -8.280960968824e+01 
-7.511389527920e+01 -9.245340647472e+00 0.0 
-9.245340647472e+00 -1.882394553676e+02 0.0 
0.0 0.0 -7.581698466635e+01 
-6.754847056342e+01 3.698078883597e+00 0.0 
3.698078883597e+00 -1.111311133590e+02 0.0 
0.0 0.0 -5.320387517672e+01 
-8.370742693168e+01 -5.409759057610e+00 0.0 
-5.409759057610e+00 -2.196083989957e+02 0.0 
0.0 0.0 -8.921394798586e+01 
-6.711255500675e+01 -7.966930223317e+00 0.0 
-7.966930223317e+00 -1.466611304121e+02 0.0 
0.0 0.0 -5.808287283411e+01 
-8.239614064895e+01 -1.041989016310e+01 0.0 
-1.041989016310e+01 -2.020209570566e+02 0.0 
0.0 0.0 -8.392092438916e+01 
-7.940837051964e+01 3.329890380347e+00 0.0 
3.329890380347e+00 -1.547881103701e+02 0.0 
0.0 0.0 -6.985894426692e+01 
-6.725531220581e+01 -5.566135235189e+00 0.0 
-5.566135235189e+00 -1.479110762617e+02 0.0 
0.0 0.0 -5.812161090267e+01 
-2.173029213112e+01 -5.178717845127e+00 0.0 
-5.178717845127e+00 -5.492481119715e+01 0.0 
0.0 0.0 -2.048473079536e+01 
-3.291159974367e+01 -7.367215694517e+00 0.0 
-7.367215694517e+00 -7.585926681219e+01 0.0 
0.0 0.0 -2.934265955717e+01 
-5.344577623960e+01 -1.627880648403e+01 0.0 
-1.627880648403e+01 -1.350552292160e+02 0.0 
0.0 0.0 -5.335212098707e+01 
-6.508820709844e+01 -1.217245174277e+01 0.0 
-1.217245174277e+01 -1.551606932453e+02 0.0 
0.0 0.0 -6.233315467809e+01 
-7.377449545584e+01 -4.947884349917e+00 0.0 
-4.947884349917e+00 -2.146894419977e+02 0.0 
0.0 0.0 -8.757855050523e+01 
-8.395112450483e+01 -9.319833830788e+00 0.0 
-9.319833830788e+00 -2.141099357333e+02 0.0 
0.0 0.0 -8.911618821753e+01 
-4.807274757496e+01 -1.562512307909e+01 0.0 
-1.562512307909e+01 -9.511257480486e+01 0.0 
0.0 0.0 -3.814457081727e+01 
-2.654435294123e+01 -4.799704345192e+00 0.0 
-4.799704345192e+00 -7.553533388376e+01 0.0 
0.0 0.0 -2.750228350570e+01 
-6.999511229922e+01 8.247805022731e+00 0.0 
8.247805022731e+00 -1.014605200554e+02 0.0 
0.0 0.0 -5.103668970638e+01 
-5.610341898226e+01 -5.653501190659e+00 0.0 
-5.653501190659e+00 -1.270179038862e+02 0.0 
0.0 0.0 -4.896590175764e+01 
-1.175311094619e+02 6.189587452947e+00 0.0 
6.189587452947e+00 -3.150347767425e+02 0.0 
0.0 0.0 -1.293697658613e+02 
-1.034833396425e+02 3.028593460190e+01 0.0 
3.028593460190e+01 -2.565498462173e+02 0.0 
0.0 0.0 -1.076099557579e+02 
-8.140349435844e+01 2.460835878749e+01 0.0 
2.460835878749e+01 -1.284286839236e+02 0.0 
0.0 0.0 -6.254965348461e+01 
-8.962950314028e+01 1.084314881084e+01 0.0 
1.084314881084e+01 -1.737247266043e+02 0.0 
0.0 0.0 -7.860626892337e+01 
-1.112461278115e+02 3.163902755687e+01 0.0 
3.163902755687e+01 -2.625621335138e+02 0.0 
0.0 0.0 -1.117424783976e+02 
-6.385075664925e+01 1.592792361264e+01 0.0 
1.592792361264e+01 -2.084185229728e+02 0.0 
0.0 0.0 -8.365525572033e+01 
-9.524880607422e+01 3.006157695017e+01 0.0 
3.006157695017e+01 -2.381196565622e+02 0.0 
0.0 0.0 -9.961053879094e+01 
-5.324950849156e+01 -1.904427603987e+01 0.0 
-1.904427603987e+01 -1.137943206746e+02 0.0 
0.0 0.0 -4.549750347328e+01 
-8.767585423831e+01 -8.287926938836e+00 0.0 
-8.287926938836e+00 -2.095911957775e+02 0.0 
0.0 0.0 -8.675594132803e+01 
-6.162175764158e+01 2.578034093728e+01 0.0 
2.578034093728e+01 -1.873596992684e+02 0.0 
0.0 0.0 -7.610152748825e+01 
-4.457854777234e+01 -1.265771997403e+01 0.0 
-1.265771997403e+01 -1.396457067280e+02 0.0 
0.0 0.0 -4.986469755981e+01 
-4.879089876554e+01 -1.843287840298e+01 0.0 
-1.843287840298e+01 -9.203836176611e+01 0.0 
0.0 0.0 -3.657396432642e+01 
-7.494481869128e+01 -8.777693552779e+00 0.0 
-8.777693552779e+00 -1.715666216607e+02 0.0 
0.0 0.0 -6.857653681649e+01 
-7.769091511407e+01 -1.115077998783e+01 0.0 
-1.115077998783e+01 -2.066536481850e+02 0.0 
0.0 0.0 -8.579208538158e+01 
-7.841990241973e+01 -8.824633205659e+00 0.0 
-8.824633205659e+00 -2.179964809518e+02 0.0 
0.0 0.0 -9.044484277841e+01 
-6.203271448220e+01 -7.020315662407e+00 0.0 
-7.020315662407e+00 -1.342421018103e+02 0.0 
0.0 0.0 -5.276809582789e+01 
-8.497970512355e+01 -3.458366066871e+00 0.0 
-3.458366066871e+00 -2.306140804742e+02 0.0 
0.0 0.0 -9.416878039434e+01 
-7.223023159127e+01 -9.218288464660e+00 0.0 
-9.218288464660e+00 -2.119569627148e+02 0.0 
0.0 0.0 -8.717159561709e+01 
-6.787982452980e+01 -2.018128738618e+00 0.0 
-2.018128738618e+00 -2.153854820965e+02 0.0 
0.0 0.0 -8.756857928080e+01 
-6.843358668133e+01 -1.175740953300e+01 0.0 
-1.175740953300e+01 -1.560325044360e+02 0.0 
0.0 0.0 -6.382125362384e+01 
-9.756619926296e+01 1.566549669230e+01 0.0 
1.566549669230e+01 -2.822213096793e+02 0.0 
0.0 0.0 -1.148607720774e+02 
-7.810675167528e+01 7.508067954575e+00 0.0 
7.508067954575e+00 -1.334697841149e+02 0.0 
0.0 0.0 -6.307296073706e+01 
-6.403269203277e+01 -1.029194261443e-01 0.0 
-1.029194261443e-01 -2.095464165409e+02 0.0 
0.0 0.0 -8.391090238681e+01 
-1.281368941240e+02 7.609383266721e+00 0.0 
7.609383266721e+00 -3.332935237191e+02 0.0 
0.0 0.0 -1.380291253529e+02 
-5.461153812466e+01 -1.922316398660e+01 0.0 
-1.922316398660e+01 -1.304830018393e+02 0.0 
0.0 0.0 -5.132564710461e+01 
-1.383937675503e+02 1.192750925143e+01 0.0 
1.192750925143e+01 -3.516191155353e+02 0.0 
0.0 0.0 -1.466038649257e+02 
-7.941477632741e+01 -4.249949361111e+00 0.0 
-4.249949361111e+00 -2.224591314942e+02 0.0 
0.0 0.0 -9.099715382571e+01 
-1.147679701392e+02 3.240796746874e+01 0.0 
3.240796746874e+01 -2.673223167096e+02 0.0 
0.0 0.0 -1.142270860546e+02 
-8.175907574555e+01 3.274776127642e+01 0.0 
3.274776127642e+01 -1.715187340988e+02 0.0 
0.0 0.0 -7.558334295330e+01 
-5.029289983394e+01 -1.711916817383e+01 0.0 
-1.711916817383e+01 -1.161566283231e+02 0.0 
0.0 0.0 -4.530110618352e+01 
-8.435668719402e+01 2.733068604856e+01 0.0 
2.733068604856e+01 -1.444747920764e+02 0.0 
0.0 0.0 -6.824944378112e+01 
-9.577763535742e+01 1.631915943266e+01 0.0 
1.631915943266e+01 -1.877324169638e+02 0.0 
0.0 0.0 -8.465301569636e+01 
-8.023771009067e+01 -1.617148329775e+00 0.0 
-1.617148329775e+00 -2.326114740908e+02 0.0 
0.0 0.0 -9.563319043334e+01 
-4.997937698878e+01 2.831318857329e+01 0.0 
2.831318857329e+01 -1.373056380086e+02 0.0 
0.0 0.0 -5.410035069488e+01 
-8.719846471460e+01 2.937545781266e+01 0.0 
2.937545781266e+01 -1.611011193517e+02 0.0 
0.0 0.0 -7.408987521989e+01 
-6.883912884876e+01 3.262969959399e+01 0.0 
3.262969959399e+01 -1.634569910127e+02 0.0 
0.0 0.0 -6.773067055407e+01 
-4.771158834084e+01 -1.672098643888e+01 0.0 
-1.672098643888e+01 -9.527260658730e+01 0.0 
0.0 0.0 -3.775257888594e+01 
-1.003328959904e+02 1.405295987227e+01 0.0 
1.405295987227e+01 -2.169580044911e+02 0.0 
0.0 0.0 -9.478727014446e+01 
-4.339573197169e+01 -1.411705874861e+01 0.0 
-1.411705874861e+01 -7.966505026918e+01 0.0 
0.0 0.0 -3.266772655158e+01 
-1.291362278836e+02 2.354001729349e+01 0.0 
2.354001729349e+01 -3.295718642014e+02 0.0 
0.0 0.0 -1.372124276255e+02 
-8.889859995596e+01 5.654410466709e+00 0.0 
5.654410466709e+00 -1.849080637607e+02 0.0 
0.0 0.0 -8.174199911499e+01 
-1.038417045025e+02 1.466116822735e+01 0.0 
1.466116822735e+01 -2.932093270001e+02 0.0 
0.0 0.0 -1.192298413320e+02 
-6.296966234310e+01 2.346206354690e+00 0.0 
2.346206354690e+00 -1.014624154879e+02 0.0 
0.0 0.0 -4.892962334931e+01 
-8.918348024440e+01 1.107120825881e+01 0.0 
1.107120825881e+01 -1.647957506280e+02 0.0 
0.0 0.0 -7.579376926172e+01 
-7.386900265407e+01 -4.829716615588e+00 0.0 
-4.829716615588e+00 -2.214819846230e+02 0.0 
0.0 0.0 -9.138927603850e+01 
-7.350134962203e+01 1.386310937400e+01 0.0 
1.386310937400e+01 -2.359028190479e+02 0.0 
0.0 0.0 -9.778241924777e+01 
-9.531976019768e+01 1.245114744822e+01 0.0 
1.245114744822e+01 -1.950085704352e+02 0.0 
0.0 0.0 -8.669849918987e+01 
-1.147784452465e+02 2.470232558795e+00 0.0 
2.470232558795e+00 -3.032615836049e+02 0.0 
0.0 0.0 -1.250120086554e+02 
-8.275742402816e+01 9.398736776771e+00 0.0 
9.398736776771e+00 -1.438101002769e+02 0.0 
0.0 0.0 -6.757025729150e+01 
-9.893207397197e+01 7.797597685048e+00 0.0 
7.797597685048e+00 -2.871364056706e+02 0.0 
0.0 0.0 -1.161838585634e+02 
-4.785642222645e+01 -1.802882730012e+01 0.0 
-1.802882730012e+01 -1.116681783055e+02 0.0 
0.0 0.0 -4.179877171949e+01 
-8.730953453730e+01 1.157417897188e+01 0.0 
1.157417897188e+01 -1.545158332851e+02 0.0 
0.0 0.0 -7.214761034672e+01 
-1.290064126331e+02 3.528092140008e+01 0.0 
3.528092140008e+01 -3.093508465548e+02 0.0 
0.0 0.0 -1.311071777564e+02 
-1.397329233828e+02 8.789048103991e+00 0.0 
8.789048103991e+00 -3.522920070199e+02 0.0 
0.0 0.0 -1.472074791208e+02 
-8.207213727186e+01 -6.929411190043e+00 0.0 
-6.929411190043e+00 -2.080547519297e+02 0.0 
0.0 0.0 -8.411144047485e+01 
-6.561769969403e+01 4.545945289564e+00 0.0 
4.545945289564e+00 -1.028852930567e+02 0.0 
0.0 0.0 -5.015089782521e+01 
-5.954735218087e+01 2.205103325967e+00 0.0 
2.205103325967e+00 -9.078479705670e+01 0.0 
0.0 0.0 -4.469964477127e+01 
-8.499502327107e+01 -7.483598483664e+00 0.0 
-7.483598483664e+00 -2.256210401857e+02 0.0 
0.0 0.0 -9.398435043272e+01 
-1.093453932400e+02 2.565019775731e+00 0.0 
2.565019775731e+00 -2.950315422244e+02 0.0 
0.0 0.0 -1.209130806393e+02 
-1.133388786565e+02 4.266042757462e+00 0.0 
4.266042757462e+00 -3.052294135351e+02 0.0 
0.0 0.0 -1.251704876575e+02 
-2.520696973504e+01 -4.317088313462e+00 0.0 
-4.317088313462e+00 -6.664535110942e+01 0.0 
0.0 0.0 -2.421528613316e+01 
-4.447591788981e+01 1.645012088523e+01 0.0 
1.645012088523e+01 -1.514279264181e+02 0.0 
0.0 0.0 -5.525810018479e+01 
-6.553489423071e+01 4.044346788272e+00 0.0 
4.044346788272e+00 -2.177409073967e+02 0.0 
0.0 0.0 -8.776656785387e+01 
-6.843928151676e+01 -3.009476949357e+00 0.0 
-3.009476949357e+00 -2.125304088005e+02 0.0 
0.0 0.0 -8.699854242718e+01 
-6.639887966875e+01 3.162608750297e+01 0.0 
3.162608750297e+01 -1.782906014189e+02 0.0 
0.0 0.0 -7.356211218008e+01 
-1.001216725456e+02 1.395392096911e+01 0.0 
1.395392096911e+01 -2.065551974045e+02 0.0 
0.0 0.0 -9.160306098504e+01 
-1.038969065620e+02 2.600099427001e+01 0.0 
2.600099427001e+01 -2.148517017435e+02 0.0 
0.0 0.0 -9.522458249165e+01 
-9.125244782813e+01 7.576436446757e+00 0.0 
7.576436446757e+00 -1.861288967276e+02 0.0 
0.0 0.0 -8.281440336671e+01 
-5.978172014550e+01 3.284886015317e+01 0.0 
3.284886015317e+01 -1.089559341768e+02 0.0 
0.0 0.0 -4.517134294609e+01 
-9.016761406732e+01 1.442854458993e+01 0.0 
1.442854458993e+01 -1.660631110721e+02 0.0 
0.0 0.0 -7.646921754184e+01 
-1.128131750597e+02 3.484467784426e+00 0.0 
3.484467784426e+00 -2.965088417059e+02 0.0 
0.0 0.0 -1.221605523123e+02 
-9.358075974153e+01 9.661088757697e+00 0.0 
9.661088757697e+00 -1.946261789071e+02 0.0 
0.0 0.0 -8.606208159460e+01 
-8.531198133203e+01 1.210339354228e+01 0.0 
1.210339354228e+01 -1.443705758636e+02 0.0 
0.0 0.0 -6.850476715868e+01 
-8.961883602397e+01 -7.466999010365e+00 0.0 
-7.466999010365e+00 -2.216198424076e+02 0.0 
0.0 0.0 -9.202730353721e+01 
-6.237821586760e+01 7.320651431544e+00 0.0 
7.320651431544e+00 -2.104416853240e+02 0.0 
0.0 0.0 -8.293014138003e+01 
-8.350485220866e+01 9.059098189165e+00 0.0 
9.059098189165e+00 -1.524764352459e+02 0.0 
0.0 0.0 -7.039438623638e+01 
-9.497496037259e+01 1.265707894847e+01 0.0 
1.265707894847e+01 -1.859240180029e+02 0.0 
0.0 0.0 -8.386969351265e+01 
-8.167632054618e+01 6.767935873889e+00 0.0 
6.767935873889e+00 -1.524913468495e+02 0.0 
0.0 0.0 -6.985030021869e+01 
-7.921776802445e+01 7.012996391352e+00 0.0 
7.012996391352e+00 -1.419057521940e+02 0.0 
0.0 0.0 -6.593705606554e+01 
-1.292153847905e+02 5.245182977091e+00 0.0 
5.245182977091e+00 -3.321803309877e+02 0.0 
0.0 0.0 -1.380187147335e+02 
-1.232241986724e+02 2.437288814970e+01 0.0 
2.437288814970e+01 -3.178056353259e+02 0.0 
0.0 0.0 -1.319089501995e+02 
-1.234524829738e+02 5.683986516783e+00 0.0 
5.683986516783e+00 -3.236967234973e+02 0.0 
0.0 0.0 -1.337447619413e+02 
-9.952758744834e+01 -5.413424397289e-01 0.0 
-5.413424397289e-01 -2.657110815203e+02 0.0 
0.0 0.0 -1.083314575638e+02 
-5.833009028139e+01 2.664185370941e+01 0.0 
2.664185370941e+01 -6.985134224972e+01 0.0 
0.0 0.0 -3.462430265215e+01 
-1.082389122998e+02 1.726302101756e+01 0.0 
1.726302101756e+01 -2.996367994188e+02 0.0 
0.0 0.0 -1.219627135156e+02 
-8.649212185939e+01 1.617424463176e+01 0.0 
1.617424463176e+01 -1.488476264281e+02 0.0 
0.0 0.0 -7.020192448624e+01 
-5.134406850543e+01 -7.057640544143e+00 0.0 
-7.057640544143e+00 -1.132845093438e+02 0.0 
0.0 0.0 -4.407261043854e+01 
-6.901583587996e+01 1.517937664727e+00 0.0 
1.517937664727e+00 -2.195210924282e+02 0.0 
0.0 0.0 -8.983120243211e+01 
-7.613355010822e+01 4.176423852194e+00 0.0 
4.176423852194e+00 -2.400718847883e+02 0.0 
0.0 0.0 -9.972137862044e+01 
-8.095813587443e+01 1.520621453765e+01 0.0 
1.520621453765e+01 -2.539234934948e+02 0.0 
0.0 0.0 -1.043507461960e+02 
-4.182030298393e+01 -1.935105958607e+00 0.0 
-1.935105958607e+00 -1.494729878601e+02 0.0 
0.0 0.0 -5.413088083351e+01 
-6.450004103284e+01 4.350347370344e+00 0.0 
4.350347370344e+00 -2.105277192239e+02 0.0 
0.0 0.0 -8.387624063657e+01 
-9.109137385452e+01 1.679788311420e+01 0.0 
1.679788311420e+01 -2.708280569596e+02 0.0 
0.0 0.0 -1.100816685010e+02 
-6.761895578427e+01 2.986146944087e+01 0.0 
2.986146944087e+01 -1.106578625200e+02 0.0 
0.0 0.0 -5.005524114949e+01 
-8.871395994926e+01 -4.658095643801e+00 0.0 
-4.658095643801e+00 -2.275935525503e+02 0.0 
0.0 0.0 -9.200550453312e+01 
-7.821408658561e+01 1.018001552533e+01 0.0 
1.018001552533e+01 -1.230653573889e+02 0.0 
0.0 0.0 -5.998383319236e+01 
-4.613213947274e+01 3.978408356575e-01 0.0 
3.978408356575e-01 -6.039061636556e+01 0.0 
0.0 0.0 -3.155682675149e+01 
-4.529754840557e+01 3.109720333226e+01 0.0 
3.109720333226e+01 -3.178773924400e+01 0.0 
0.0 0.0 -1.907669194203e+01 
-1.021574888908e+02 -2.002490436564e+00 0.0 
-2.002490436564e+00 -2.596087453743e+02 0.0 
0.0 0.0 -1.065791704628e+02 
-1.076339637813e+02 1.292071045879e+01 0.0 
1.292071045879e+01 -3.026554913886e+02 0.0 
0.0 0.0 -1.226868365510e+02 
-1.057449409507e+02 2.488177958112e+01 0.0 
2.488177958112e+01 -2.211998875612e+02 0.0 
0.0 0.0 -9.768344855357e+01 
-6.990994931011e+01 1.192523037371e+01 0.0 
1.192523037371e+01 -2.316707992737e+02 0.0 
0.0 0.0 -9.553122924050e+01 
-9.451263383308e+01 -2.562853991198e+00 0.0 
-2.562853991198e+00 -2.468049659355e+02 0.0 
0.0 0.0 -9.973006209727e+01 
-7.557197827887e+01 7.696775436487e+00 0.0 
7.696775436487e+00 -1.229717701831e+02 0.0 
0.0 0.0 -5.916312453859e+01 
-4.399902564428e+01 3.006546479779e+01 0.0 
3.006546479779e+01 -2.892676922313e+01 0.0 
0.0 0.0 -1.797144930612e+01 
-1.014269372975e+02 1.389807648600e+01 0.0 
1.389807648600e+01 -2.920210180826e+02 0.0 
0.0 0.0 -1.187726482920e+02 
-7.786125286393e+01 1.212863605781e+01 0.0 
1.212863605781e+01 -2.473084450615e+02 0.0 
0.0 0.0 -1.032885363415e+02 
-6.929788856462e+01 3.146026316258e+01 0.0 
3.146026316258e+01 -1.125777619294e+02 0.0 
0.0 0.0 -5.226561116900e+01 
-1.160931404422e+02 5.324159678405e+00 0.0 
5.324159678405e+00 -3.066257090309e+02 0.0 
0.0 0.0 -1.264156548419e+02 
-5.111594932134e+01 -1.652665826548e+01 0.0 
-1.652665826548e+01 -1.423625627208e+02 0.0 
0.0 0.0 -5.429388549402e+01 
-1.201972076217e+02 7.162105531734e+00 0.0 
7.162105531734e+00 -3.163765468442e+02 0.0 
0.0 0.0 -1.305721263398e+02 
-1.331140076572e+02 9.603080112801e+00 0.0 
9.603080112801e+00 -3.426056835324e+02 0.0 
0.0 0.0 -1.423159073569e+02 
-9.524638386186e+01 1.490590921459e+01 0.0 
1.490590921459e+01 -2.810746426109e+02 0.0 
0.0 0.0 -1.148651156569e+02 
-8.492438614041e+01 9.039654251021e+00 0.0 
9.039654251021e+00 -1.542622618884e+02 0.0 
0.0 0.0 -7.135599440866e+01 
-1.037725812430e+02 2.953820362115e+01 0.0 
2.953820362115e+01 -2.683868154853e+02 0.0 
0.0 0.0 -1.112478190185e+02 
-1.352568116698e+02 1.077706392497e+01 0.0 
1.077706392497e+01 -3.437299911972e+02 0.0 
0.0 0.0 -1.432960408601e+02 
-4.314155385386e+01 2.981358188028e+01 0.0 
2.981358188028e+01 -2.830660786175e+01 0.0 
0.0 0.0 -1.838101053669e+01 
-8.055201138413e+01 9.733824212086e+00 0.0 
9.733824212086e+00 -1.334497420308e+02 0.0 
0.0 0.0 -6.380052602448e+01 
-1.217173468935e+02 2.727938177798e+01 0.0 
2.727938177798e+01 -3.104232957487e+02 0.0 
0.0 0.0 -1.292421927926e+02 
-8.566876079841e+01 8.694642569142e+00 0.0 
8.694642569142e+00 -1.628976099576e+02 0.0 
0.0 0.0 -7.416991122680e+01 
-8.423194707755e+01 1.332206597053e+01 0.0 
1.332206597053e+01 -2.637457049414e+02 0.0 
0.0 0.0 -1.088021039237e+02 
-6.556820039323e+01 8.943650543624e+00 0.0 
8.943650543624e+00 -2.155325343214e+02 0.0 
0.0 0.0 -8.660887409192e+01 
-9.992476303371e+01 -3.694325883124e+00 0.0 
-3.694325883124e+00 -2.401009232871e+02 0.0 
0.0 0.0 -9.832913709134e+01 
-3.284776254702e+01 6.880511559982e+00 0.0 
6.880511559982e+00 -1.288347179828e+02 0.0 
0.0 0.0 -5.047293195016e+01 
-8.786330497166e+01 8.243922886422e+00 0.0 
8.243922886422e+00 -1.734433519127e+02 0.0 
0.0 0.0 -7.799199706531e+01 
-5.612688283593e+01 -5.884847925275e+00 0.0 
-5.884847925275e+00 -1.220309213595e+02 0.0 
0.0 0.0 -4.749226790690e+01 
-4.083455257560e+01 2.890226903056e+01 0.0 
2.890226903056e+01 -2.763093020392e+01 0.0 
0.0 0.0 -1.769047698524e+01 
-9.893236285063e+01 3.047496458076e+01 0.0 
3.047496458076e+01 -2.535857462875e+02 0.0 
0.0 0.0 -1.053554327414e+02 
-9.258059119708e+01 7.263872817528e+00 0.0 
7.263872817528e+00 -1.954910443386e+02 0.0 
0.0 0.0 -8.602149066070e+01 
-5.174302360366e+01 -1.977644453775e+01 0.0 
-1.977644453775e+01 -1.286114964433e+02 0.0 
0.0 0.0 -4.950233080087e+01 
-7.362171372574e+01 3.084024176909e+01 0.0 
3.084024176909e+01 -1.826129691009e+02 0.0 
0.0 0.0 -7.539887315700e+01 
-8.134340238422e+01 9.377172155786e+00 0.0 
9.377172155786e+00 -1.422330754967e+02 0.0 
0.0 0.0 -6.667294336427e+01 
-9.899489717247e+01 -4.498059609769e+00 0.0 
-4.498059609769e+00 -2.369527032831e+02 0.0 
0.0 0.0 -9.686535713755e+01 
-4.594233359923e+01 -8.617333754493e+00 0.0 
-8.617333754493e+00 -1.492005209134e+02 0.0 
0.0 0.0 -5.511464587623e+01 
-5.112379381035e+01 3.011623040070e+01 0.0 
3.011623040070e+01 -1.393452849338e+02 0.0 
0.0 0.0 -5.560360939798e+01 
-4.642461179381e+01 -1.861941582146e+01 0.0 
-1.861941582146e+01 -9.118778089227e+01 0.0 
0.0 0.0 -3.527998791699e+01 
-4.501409919552e+01 -1.659309787300e+01 0.0 
-1.659309787300e+01 -1.261163911665e+02 0.0 
0.0 0.0 -4.558568572696e+01 
-4.511430067217e+01 -1.888607576789e+01 0.0 
-1.888607576789e+01 -1.088220580895e+02 0.0 
0.0 0.0 -3.874240008001e+01 
-7.656241513816e+01 1.213144119569e+01 0.0 
1.213144119569e+01 -2.477852671112e+02 0.0 
0.0 0.0 -1.033949002373e+02 
-1.133820206983e+02 2.305909476998e+01 0.0 
2.305909476998e+01 -2.519887991627e+02 0.0 
0.0 0.0 -1.092112459583e+02 
-3.775419817692e+01 2.675156838017e+01 0.0 
2.675156838017e+01 -2.676218288028e+01 0.0 
0.0 0.0 -1.515512171997e+01 
-1.349203643968e+02 4.801499832079e+00 0.0 
4.801499832079e+00 -3.405766709059e+02 0.0 
0.0 0.0 -1.422491105908e+02 
-5.709920037753e+01 1.534376774094e+01 0.0 
1.534376774094e+01 -1.927784974724e+02 0.0 
0.0 0.0 -7.412626625288e+01 
-8.324858814163e+01 1.277256848728e+01 0.0 
1.277256848728e+01 -1.345558548299e+02 0.0 
0.0 0.0 -6.494133289145e+01 
-3.592703846723e+01 5.253140249540e+00 0.0 
5.253140249540e+00 -1.356307382872e+02 0.0 
0.0 0.0 -5.091976896219e+01 
-1.402365975730e+02 1.285551763764e+01 0.0 
1.285551763764e+01 -3.523319524869e+02 0.0 
0.0 0.0 -1.473705650180e+02 
-5.244241698641e+01 -2.110454671572e+01 0.0 
-2.110454671572e+01 -1.122300208819e+02 0.0 
0.0 0.0 -4.397346353148e+01 
-6.706752858249e+01 -5.702054811583e+00 0.0 
-5.702054811583e+00 -1.435328553899e+02 0.0 
0.0 0.0 -5.688518227823e+01 
-1.002941153273e+02 1.740482737371e+01 0.0 
1.740482737371e+01 -2.873201572320e+02 0.0 
0.0 0.0 -1.170060399196e+02 
-7.889331366915e+01 -5.738560915976e+00 0.0 
-5.738560915976e+00 -2.283840260234e+02 0.0 
0.0 0.0 -9.472772173280e+01 
-1.169145090962e+02 2.520283387749e+01 0.0 
2.520283387749e+01 -3.053677100211e+02 0.0 
0.0 0.0 -1.262846657352e+02 
-5.304800729748e+01 3.092048027042e+01 0.0 
3.092048027042e+01 -1.244788204356e+02 0.0 
0.0 0.0 -5.072152275118e+01 
-9.198943911365e+01 1.830024495547e+01 0.0 
1.830024495547e+01 -1.593217897566e+02 0.0 
0.0 0.0 -7.499336866107e+01 
-1.278079357405e+02 2.229310748534e+01 0.0 
2.229310748534e+01 -3.287358225894e+02 0.0 
0.0 0.0 -1.365631274990e+02 
-7.674151626042e+01 7.178723482093e+00 0.0 
7.178723482093e+00 -1.314224951898e+02 0.0 
0.0 0.0 -6.204920343505e+01 
-1.082458426320e+02 2.770491692293e+01 0.0 
2.770491692293e+01 -2.228667837025e+02 0.0 
0.0 0.0 -9.893378790036e+01 
-9.159233534852e+01 1.393875113568e+01 0.0 
1.393875113568e+01 -1.656055205729e+02 0.0 
0.0 0.0 -7.675935677644e+01 
-9.565187736085e+01 1.644011659350e+01 0.0 
1.644011659350e+01 -1.773744580707e+02 0.0 
0.0 0.0 -8.150790062945e+01 
-4.211655508430e+01 2.380452772487e+01 0.0 
2.380452772487e+01 -1.254201860476e+02 0.0 
0.0 0.0 -4.654428321864e+01 
-1.300413128754e+02 3.439808453538e+00 0.0 
3.439808453538e+00 -3.301694782408e+02 0.0 
0.0 0.0 -1.376632373349e+02 
-8.587824474486e+01 1.183931363942e+01 0.0 
1.183931363942e+01 -1.538291155448e+02 0.0 
0.0 0.0 -7.151220808691e+01 
-6.823941281070e+01 2.195419319427e+01 0.0 
2.195419319427e+01 -2.165324195976e+02 0.0 
0.0 0.0 -8.906119712362e+01 
-3.837551931766e+01 2.500863591004e+01 0.0 
2.500863591004e+01 -2.656884486777e+01 0.0 
0.0 0.0 -1.413214217368e+01 
-1.348557378820e+02 2.588465154991e+01 0.0 
2.588465154991e+01 -3.357004894922e+02 0.0 
0.0 0.0 -1.407668682123e+02 
-4.210101523295e+01 1.121566321391e+01 0.0 
1.121566321391e+01 -1.492319525474e+02 0.0 
0.0 0.0 -5.411046732412e+01 
-6.120028246646e+01 -4.273907639118e+00 0.0 
-4.273907639118e+00 -1.357753095971e+02 0.0 
0.0 0.0 -5.337375477150e+01 
-1.103697721703e+02 2.184118253558e+01 0.0 
2.184118253558e+01 -2.989970912913e+02 0.0 
0.0 0.0 -1.224100590385e+02 
-2.415034257106e+01 5.623155162305e-01 0.0 
5.623155162305e-01 -8.046076214907e+01 0.0 
0.0 0.0 -3.054642313003e+01 
-6.921428066663e+01 2.659171824074e+01 0.0 
2.659171824074e+01 -1.931643467929e+02 0.0 
0.0 0.0 -7.807359799801e+01 
-1.062707516198e+02 1.636041113817e+01 0.0 
1.636041113817e+01 -2.986279624249e+02 0.0 
0.0 0.0 -1.212682730966e+02 
-1.004102773938e+02 1.791486357379e+01 0.0 
1.791486357379e+01 -1.980982767916e+02 0.0 
0.0 0.0 -8.915256625561e+01 
-1.041520952502e+02 2.068458014693e+01 0.0 
2.068458014693e+01 -2.111819925870e+02 0.0 
0.0 0.0 -9.420022635116e+01 
-1.019951307309e+02 1.829063117659e+01 0.0 
1.829063117659e+01 -2.882264284898e+02 0.0 
0.0 0.0 -1.166664677662e+02 
-9.326618428792e+01 1.331256843478e+01 0.0 
1.331256843478e+01 -1.756938322675e+02 0.0 
0.0 0.0 -8.028800496663e+01 
-6.002169207436e+01 1.918207050351e+01 0.0 
1.918207050351e+01 -1.968517923406e+02 0.0 
0.0 0.0 -7.741733732186e+01 
-9.931853146090e+01 3.225273274166e+01 0.0 
3.225273274166e+01 -2.411413267378e+02 0.0 
0.0 0.0 -1.017379574596e+02 
-5.602003052607e+01 2.476514491130e+01 0.0 
2.476514491130e+01 -2.902991993914e+01 0.0 
0.0 0.0 -2.182520694804e+01 
-1.086489810591e+02 3.011120721250e+01 0.0 
3.011120721250e+01 -2.401587093219e+02 0.0 
0.0 0.0 -1.042423071143e+02 
-4.728884246866e+01 1.173885006109e+01 0.0 
1.173885006109e+01 -2.764383439909e+01 0.0 
0.0 0.0 -2.013826779316e+01 
-4.737514407441e+01 8.844843827103e+00 0.0 
8.844843827103e+00 -3.328713069596e+01 0.0 
0.0 0.0 -2.266632722916e+01 
-6.705323738728e+01 1.527833251891e+01 0.0 
1.527833251891e+01 -2.226565782680e+02 0.0 
0.0 0.0 -9.085794060106e+01 
-5.027848163606e+01 7.897778937795e+00 0.0 
7.897778937795e+00 -4.341270419557e+01 0.0 
0.0 0.0 -2.703335889235e+01 
-7.661087452068e+01 2.481830349135e+01 0.0 
2.481830349135e+01 -2.247564764967e+02 0.0 
0.0 0.0 -9.047962729131e+01 
-6.134467329430e+01 2.435282519902e+01 0.0 
2.435282519902e+01 -1.856678546108e+02 0.0 
0.0 0.0 -7.470516380174e+01 
-6.956662751444e+01 6.024607059312e+00 0.0 
6.024607059312e+00 -2.259725891667e+02 0.0 
0.0 0.0 -9.268408168447e+01 
-4.068189527661e+01 -8.946814224274e+00 0.0 
-8.946814224274e+00 -1.389255300048e+02 0.0 
0.0 0.0 -4.990545957922e+01 
-6.450931889675e+01 1.153684576209e+01 0.0 
1.153684576209e+01 -2.168082839667e+02 0.0 
0.0 0.0 -8.682800600492e+01 
-9.153172636345e+01 1.033351811461e+01 0.0 
1.033351811461e+01 -1.840626873965e+02 0.0 
0.0 0.0 -8.227832412799e+01 
-1.081962117207e+02 2.807824934367e+01 0.0 
2.807824934367e+01 -2.322287702052e+02 0.0 
0.0 0.0 -1.017274945778e+02 
-1.201675904565e+02 2.381544204194e+00 0.0 
2.381544204194e+00 -3.114656932024e+02 0.0 
0.0 0.0 -1.290899850977e+02 
-1.214939731558e+02 2.312784543919e+01 0.0 
2.312784543919e+01 -3.168065526035e+02 0.0 
0.0 0.0 -1.310901577278e+02 
-7.361843160271e+01 -2.460024785531e+00 0.0 
-2.460024785531e+00 -2.242836333700e+02 0.0 
0.0 0.0 -9.175533615070e+01 
-9.188835757085e+01 1.376519928532e+01 0.0 
1.376519928532e+01 -1.753112370369e+02 0.0 
0.0 0.0 -7.975987838231e+01 
-6.744602299369e+01 8.118914628825e+00 0.0 
8.118914628825e+00 -2.250267660761e+02 0.0 
0.0 0.0 -9.164813883814e+01 
-1.353940448449e+02 3.127246839791e+00 0.0 
3.127246839791e+00 -3.383394126411e+02 0.0 
0.0 0.0 -1.417200372458e+02 
-8.771381352834e+01 1.136798546345e+01 0.0 
1.136798546345e+01 -1.635215501906e+02 0.0 
0.0 0.0 -7.497060911569e+01 
-9.393188153975e+01 1.730608793245e+01 0.0 
1.730608793245e+01 -1.681764297991e+02 0.0 
0.0 0.0 -7.823249340167e+01 
-9.049417315842e+01 1.215178779688e+01 0.0 
1.215178779688e+01 -2.743946685546e+02 0.0 
0.0 0.0 -1.125036474154e+02 
-6.213223151861e+01 1.525019543943e+01 0.0 
1.525019543943e+01 -2.074413219088e+02 0.0 
0.0 0.0 -8.205232824583e+01 
-1.077803547747e+02 3.260433629387e+01 0.0 
3.260433629387e+01 -2.597218319378e+02 0.0 
0.0 0.0 -1.098506560138e+02 
-8.335340899935e+01 3.049525199403e+01 0.0 
3.049525199403e+01 -1.714679586783e+02 0.0 
0.0 0.0 -7.581464710716e+01 
-4.652474976311e+01 -1.473292468360e+01 0.0 
-1.473292468360e+01 -1.395813697418e+02 0.0 
0.0 0.0 -5.190035449691e+01 
-4.192119967173e+01 3.846003765260e+00 0.0 
3.846003765260e+00 -1.471542343421e+02 0.0 
0.0 0.0 -5.304722066656e+01 
-5.577149361065e+01 3.319142939794e+01 0.0 
3.319142939794e+01 -1.426979616112e+02 0.0 
0.0 0.0 -5.913196072204e+01 
-7.735994664986e+01 3.190592132332e+01 0.0 
3.190592132332e+01 -1.832473266760e+02 0.0 
0.0 0.0 -7.512015908859e+01 
-1.406436137098e+02 2.746631071825e+00 0.0 
2.746631071825e+00 -3.467048486642e+02 0.0 
0.0 0.0 -1.458045387122e+02 
-8.973863830002e+01 1.466455946718e+01 0.0 
1.466455946718e+01 -1.559525927320e+02 0.0 
0.0 0.0 -7.330736930960e+01 
-6.195467667128e+01 1.211120502627e+01 0.0 
1.211120502627e+01 -2.047538981873e+02 0.0 
0.0 0.0 -8.071708784410e+01 
-8.302763883553e+01 3.223018156515e+01 0.0 
3.223018156515e+01 -2.033143046555e+02 0.0 
0.0 0.0 -8.550258304731e+01 
-1.124327811042e+02 1.542269647429e+01 0.0 
1.542269647429e+01 -3.097029961521e+02 0.0 
0.0 0.0 -1.262407331769e+02 
-9.108304076107e+01 1.054334244534e+01 0.0 
1.054334244534e+01 -1.752163352007e+02 0.0 
0.0 0.0 -7.948981278852e+01 
-1.116832140718e+02 3.344059682510e+01 0.0 
3.344059682510e+01 -2.630257150541e+02 0.0 
0.0 0.0 -1.120126787377e+02 
-7.688112524983e+01 1.025317038742e+01 0.0 
1.025317038742e+01 -1.227696275521e+02 0.0 
0.0 0.0 -5.949522584057e+01 
-1.207210424096e+02 1.126426877691e+01 0.0 
1.126426877691e+01 -3.237712907707e+02 0.0 
0.0 0.0 -1.329476999541e+02 
-7.103883206185e+01 1.021864881589e+01 0.0 
1.021864881589e+01 -2.312666417171e+02 0.0 
0.0 0.0 -9.525180137876e+01 
-1.145022110462e+02 1.626250862339e+01 0.0 
1.626250862339e+01 -3.106971240650e+02 0.0 
0.0 0.0 -1.271598005334e+02 
-7.210035686684e+01 3.041732155280e+01 0.0 
3.041732155280e+01 -1.955734343611e+02 0.0 
0.0 0.0 -8.056334795388e+01 
-9.848838735721e+01 1.480067231487e+01 0.0 
1.480067231487e+01 -1.967039860207e+02 0.0 
0.0 0.0 -8.815771201337e+01 
-1.166066648061e+02 3.457030608081e+01 0.0 
3.457030608081e+01 -2.682980770220e+02 0.0 
0.0 0.0 -1.150714225484e+02 
-8.080010598850e+01 1.031398094954e+01 0.0 
1.031398094954e+01 -2.566201616020e+02 0.0 
0.0 0.0 -1.068323332419e+02 
-3.984987822923e+01 4.859158175653e+00 0.0 
4.859158175653e+00 -1.453663988046e+02 0.0 
0.0 0.0 -5.312396383446e+01 
-1.080764593509e+02 2.745318026254e+01 0.0 
2.745318026254e+01 -2.818842038970e+02 0.0 
0.0 0.0 -1.165881989744e+02 
-7.435005745178e+01 2.594567394673e+01 0.0 
2.594567394673e+01 -2.108403875391e+02 0.0 
0.0 0.0 -8.503721811214e+01 
-5.882222944252e+01 1.541109722859e+01 0.0 
1.541109722859e+01 -1.930621263282e+02 0.0 
0.0 0.0 -7.493554191499e+01 
-8.680834598178e+01 1.384190712271e+01 0.0 
1.384190712271e+01 -2.649493908339e+02 0.0 
0.0 0.0 -1.087939594843e+02 
-1.185917591333e+02 9.830252265342e+00 0.0 
9.830252265342e+00 -3.165032474510e+02 0.0 
0.0 0.0 -1.301285019753e+02 
-4.161676062912e+01 -3.518565897852e+00 0.0 
-3.518565897852e+00 -1.436605130180e+02 0.0 
0.0 0.0 -5.269684465911e+01 
-7.367488413055e+01 8.921446484778e+00 0.0 
8.921446484778e+00 -2.403749783058e+02 0.0 
0.0 0.0 -9.980932496820e+01 
-8.693249045494e+01 2.610852763767e+01 0.0 
2.610852763767e+01 -1.603606221419e+02 0.0 
0.0 0.0 -7.378793377905e+01 
-1.417690198026e+02 4.178362931227e+00 0.0 
4.178362931227e+00 -3.474695024980e+02 0.0 
0.0 0.0 -1.463715566902e+02 
-9.012468894885e+01 2.800217573439e+01 0.0 
2.800217573439e+01 -1.774239957546e+02 0.0 
0.0 0.0 -7.986460541104e+01 
-1.033296360490e+02 2.842245848610e+01 0.0 
2.842245848610e+01 -2.679665143522e+02 0.0 
0.0 0.0 -1.109888451204e+02 
-8.342207350854e+01 2.363491261710e+01 0.0 
2.363491261710e+01 -1.433806569234e+02 0.0 
0.0 0.0 -6.764081912957e+01 
-7.446278576984e+01 1.687758389769e+01 0.0 
1.687758389769e+01 -1.106842695665e+02 0.0 
0.0 0.0 -5.514411660089e+01 
-8.570767252151e+01 3.086368623050e+01 0.0 
3.086368623050e+01 -1.889154079517e+02 0.0 
0.0 0.0 -8.197822991873e+01 
-1.164077120435e+02 2.089063277612e+01 0.0 
2.089063277612e+01 -3.110006049162e+02 0.0 
0.0 0.0 -1.278224950879e+02 
-1.266663219549e+02 4.964121883234e+00 0.0 
4.964121883234e+00 -3.231342139294e+02 0.0 
0.0 0.0 -1.345401607653e+02 
-8.392875258926e+01 1.246569200202e+01 0.0 
1.246569200202e+01 -1.444844643050e+02 0.0 
0.0 0.0 -6.812396506827e+01 
-1.010875902959e+02 1.826642723917e+01 0.0 
1.826642723917e+01 -2.094446063236e+02 0.0 
0.0 0.0 -9.275965898583e+01 
-7.946572139141e+01 2.054157656820e+01 0.0 
2.054157656820e+01 -1.268111058367e+02 0.0 
0.0 0.0 -6.148304816843e+01 
-5.212423548231e+01 1.076348685433e+01 0.0 
1.076348685433e+01 -1.759476561876e+02 0.0 
0.0 0.0 -6.538710871945e+01 
-1.136036538724e+02 3.038297309760e+01 0.0 
3.038297309760e+01 -2.865991174105e+02 0.0 
0.0 0.0 -1.196608313849e+02 
-9.673578999316e+01 1.207248066041e+01 0.0 
1.207248066041e+01 -1.963680074889e+02 0.0 
0.0 0.0 -8.753113924461e+01 
-7.020176756482e+01 2.697670882204e+01 0.0 
2.697670882204e+01 -2.073529235972e+02 0.0 
0.0 0.0 -8.551251643771e+01 
-7.347258570634e+01 2.854253180754e+01 0.0 
2.854253180754e+01 -2.101161116805e+02 0.0 
0.0 0.0 -8.643256437710e+01 
-5.704032952771e+01 1.136585581249e+01 0.0 
1.136585581249e+01 -1.898288360194e+02 0.0 
0.0 0.0 -7.222658236951e+01 
-8.836259368719e+01 1.519817528408e+01 0.0 
1.519817528408e+01 -1.571919796826e+02 0.0 
0.0 0.0 -7.326637201093e+01 
-6.097783078266e+01 3.334599078557e+01 0.0 
3.334599078557e+01 -1.271234352634e+02 0.0 
0.0 0.0 -5.341353490711e+01 
-8.104660444439e+01 2.439007809779e+01 0.0 
2.439007809779e+01 -2.390503890357e+02 0.0 
0.0 0.0 -9.830903608761e+01 
-5.908110979198e+01 3.191126837282e+01 0.0 
3.191126837282e+01 -1.268105050915e+02 0.0 
0.0 0.0 -5.190953629040e+01 
-1.053652641074e+02 1.969375360675e+01 0.0 
1.969375360675e+01 -2.932699612435e+02 0.0 
0.0 0.0 -1.191905676053e+02 
-1.237608553587e+02 3.136869340581e+01 0.0 
3.136869340581e+01 -3.043254335551e+02 0.0 
0.0 0.0 -1.280258866741e+02 
-6.048610561973e+01 7.668722431911e+00 0.0 
7.668722431911e+00 -2.005606867905e+02 0.0 
0.0 0.0 -7.795462099140e+01 
-3.297017362123e+01 -6.240278887829e+00 0.0 
-6.240278887829e+00 -1.235631849881e+02 0.0 
0.0 0.0 -4.839289975370e+01 
-1.032548575104e+02 2.175814064233e+01 0.0 
2.175814064233e+01 -2.144784774492e+02 0.0 
0.0 0.0 -9.492000048788e+01 
-6.467741034571e+01 3.274882606754e+01 0.0 
3.274882606754e+01 -1.280490994280e+02 0.0 
0.0 0.0 -5.378433550725e+01 
-7.468788451224e+01 8.411042420502e-01 0.0 
8.411042420502e-01 -2.321964215262e+02 0.0 
0.0 0.0 -9.572505983026e+01 
-1.180230168784e+02 2.846848186262e+01 0.0 
2.846848186262e+01 -3.000835113021e+02 0.0 
0.0 0.0 -1.250319584542e+02 
-8.778441107299e+01 1.549432495021e+01 0.0 
1.549432495021e+01 -1.466408170918e+02 0.0 
0.0 0.0 -6.992756844945e+01 
-1.214360484080e+02 5.159957766496e+00 0.0 
5.159957766496e+00 -3.149244279582e+02 0.0 
0.0 0.0 -1.305081429099e+02 
-5.843225775697e+01 2.193206117140e+01 0.0 
2.193206117140e+01 -1.831342642544e+02 0.0 
0.0 0.0 -7.233319582654e+01 
-3.001105422792e+01 -4.022275611300e+00 0.0 
-4.022275611300e+00 -1.242190871945e+02 0.0 
0.0 0.0 -4.903613807226e+01 
-1.467342682695e+02 3.836595367593e+00 0.0 
3.836595367593e+00 -3.567190569553e+02 0.0 
0.0 0.0 -1.506359975674e+02 
-7.913221500610e+01 3.110923128003e+01 0.0 
3.110923128003e+01 -1.996525385193e+02 0.0 
0.0 0.0 -8.121242295006e+01 
-9.485348271622e+01 2.295866217195e+01 0.0 
2.295866217195e+01 -2.690827585014e+02 0.0 
0.0 0.0 -1.087808723653e+02 
-1.120738605410e+02 3.109805213938e+01 0.0 
3.109805213938e+01 -2.752579240902e+02 0.0 
0.0 0.0 -1.157995353894e+02 
-3.885330046396e+01 -3.654476357416e-01 0.0 
-3.654476357416e-01 -1.233967532411e+02 0.0 
0.0 0.0 -5.052849033620e+01 
-1.190182237372e+02 3.988588769490e+00 0.0 
3.988588769490e+00 -3.136405252767e+02 0.0 
0.0 0.0 -1.293976247042e+02 
-4.565631719099e+01 2.368583119388e+01 0.0 
2.368583119388e+01 -1.353933716702e+02 0.0 
0.0 0.0 -4.983637346173e+01 
-8.131700324288e+01 1.345906551629e+01 0.0 
1.345906551629e+01 -1.251773164294e+02 0.0 
0.0 0.0 -6.154829590170e+01 
-1.049020819793e+02 -2.465343063598e+00 0.0 
-2.465343063598e+00 -2.562249216819e+02 0.0 
0.0 0.0 -1.044547162827e+02 
-5.946807875477e+01 1.108280564062e+01 0.0 
1.108280564062e+01 -2.021460678119e+02 0.0 
0.0 0.0 -7.832931913440e+01 
-1.367815913990e+02 4.460753166338e+00 0.0 
4.460753166338e+00 -3.392218339995e+02 0.0 
0.0 0.0 -1.424010276196e+02 
-7.928645725019e+01 2.727292998134e+01 0.0 
2.727292998134e+01 -2.266459605285e+02 0.0 
0.0 0.0 -9.303185921820e+01 
-5.472495839412e+01 1.087817119488e+01 0.0 
1.087817119488e+01 -1.875799485457e+02 0.0 
0.0 0.0 -7.115100299244e+01 
-7.869211661938e+01 3.095052553450e+01 0.0 
3.095052553450e+01 -2.011356154742e+02 0.0 
0.0 0.0 -8.354831962807e+01 
-3.630745622624e+01 -1.850345472752e+01 0.0 
-1.850345472752e+01 -1.165285986462e+02 0.0 
0.0 0.0 -4.766018188827e+01 
-9.465978508718e+01 3.135305473162e+01 0.0 
3.135305473162e+01 -2.381219700777e+02 0.0 
0.0 0.0 -9.943452654948e+01 
-1.068179619127e+02 2.069964965469e+01 0.0 
2.069964965469e+01 -2.941015281438e+02 0.0 
0.0 0.0 -1.198758470170e+02 
-1.183059552900e+02 3.384709377442e+01 0.0 
3.384709377442e+01 -2.691619509534e+02 0.0 
0.0 0.0 -1.158403718730e+02 
-1.035758714162e+02 3.169036113206e+01 0.0 
3.169036113206e+01 -2.568669451332e+02 0.0 
0.0 0.0 -1.077328449648e+02 
-4.604375454634e+01 4.529386995875e+00 0.0 
4.529386995875e+00 -1.594789256685e+02 0.0 
0.0 0.0 -5.764769274916e+01 
-1.222239326100e+02 3.698207648715e+00 0.0 
3.698207648715e+00 -3.126333368054e+02 0.0 
0.0 0.0 -1.300571808246e+02 
-9.697888996146e+01 1.192690922250e+01 0.0 
1.192690922250e+01 -2.050954225088e+02 0.0 
0.0 0.0 -9.022229374107e+01 
-1.395864126264e+02 2.806645844152e+01 0.0 
2.806645844152e+01 -3.404639101919e+02 0.0 
0.0 0.0 -1.436150968455e+02 
-1.118372190513e+02 2.297739921532e+01 0.0 
2.297739921532e+01 -2.998622153668e+02 0.0 
0.0 0.0 -1.231098303254e+02 
-6.088425550151e+01 1.893501336075e+01 0.0 
1.893501336075e+01 -1.959827258119e+02 0.0 
0.0 0.0 -7.781126789231e+01 
-8.611033052656e+01 3.137399297803e+01 0.0 
3.137399297803e+01 -2.194952216967e+02 0.0 
0.0 0.0 -9.128166566698e+01 
-1.403084410328e+02 1.514291789107e+00 0.0 
1.514291789107e+00 -3.439716220112e+02 0.0 
0.0 0.0 -1.448840189132e+02 
-1.041227058501e+02 -7.278096477665e-01 0.0 
-7.278096477665e-01 -2.345181576061e+02 0.0 
0.0 0.0 -9.720225119483e+01 
-9.910755638926e+01 2.927392177564e+01 0.0 
2.927392177564e+01 -2.534137839926e+02 0.0 
0.0 0.0 -1.053564021145e+02 
-7.917492619952e+01 9.761456941838e+00 0.0 
9.761456941838e+00 -1.323315635664e+02 0.0 
0.0 0.0 -6.305194692978e+01 
-1.317694210757e+02 4.739892277955e+00 0.0 
4.739892277955e+00 -3.311875399569e+02 0.0 
0.0 0.0 -1.384870883098e+02 
-1.257775155393e+02 6.799371537903e+00 0.0 
6.799371537903e+00 -3.249290065885e+02 0.0 
0.0 0.0 -1.348119566383e+02 
-3.870870846849e+01 2.307465408605e-01 0.0 
2.307465408605e-01 -4.730969338665e+01 0.0 
0.0 0.0 -2.540552055654e+01 
-3.855210383638e+01 -3.101122935134e-02 0.0 
-3.101122935134e-02 -4.725440935757e+01 0.0 
0.0 0.0 -2.534195395819e+01 
-9.110161281646e+01 2.795022216463e+01 0.0 
2.795022216463e+01 -1.665239206478e+02 0.0 
0.0 0.0 -7.688766003927e+01 
-9.073900244612e+01 2.920139411286e+01 0.0 
2.920139411286e+01 -2.352814639409e+02 0.0 
0.0 0.0 -9.740613991610e+01 
-1.086960702136e+02 -1.554360996461e+00 0.0 
-1.554360996461e+00 -2.640741445726e+02 0.0 
0.0 0.0 -1.084682961183e+02 
-8.878750739867e+01 3.249937657902e+01 0.0 
3.249937657902e+01 -1.914776743834e+02 0.0 
0.0 0.0 -8.367955453462e+01 
-7.546732001406e+01 2.617253400689e+01 0.0 
2.617253400689e+01 -2.237152296492e+02 0.0 
0.0 0.0 -9.220372066473e+01 
-1.300193789779e+02 1.591383778123e+01 0.0 
1.591383778123e+01 -3.369365006580e+02 0.0 
0.0 0.0 -1.396867638908e+02 
-6.315615926303e+01 2.244904061334e+01 0.0 
2.244904061334e+01 -2.001779010338e+02 0.0 
0.0 0.0 -8.092346106125e+01 
-1.105294947146e+02 2.071836487674e+01 0.0 
2.071836487674e+01 -2.474779059755e+02 0.0 
0.0 0.0 -1.070022202070e+02 
-6.798238053242e+01 1.513178664169e+01 0.0 
1.513178664169e+01 -8.874075747248e+01 0.0 
0.0 0.0 -4.661694140147e+01 
-7.076408091204e+01 2.477345397644e+01 0.0 
2.477345397644e+01 -2.063080590425e+02 0.0 
0.0 0.0 -8.371779077599e+01 
-9.876366715664e+01 -2.215863164625e+00 0.0 
-2.215863164625e+00 -2.548067199533e+02 0.0 
0.0 0.0 -1.037900268457e+02 
-4.305957321190e+01 1.041577959116e+01 0.0 
1.041577959116e+01 -1.484820965985e+02 0.0 
0.0 0.0 -5.271906854557e+01 
-9.460565808454e+01 -5.856195628099e+00 0.0 
-5.856195628099e+00 -2.292025926246e+02 0.0 
0.0 0.0 -9.457130287385e+01 
-8.413635257162e+01 3.011468122554e+01 0.0 
3.011468122554e+01 -2.175245460652e+02 0.0 
0.0 0.0 -8.940100282166e+01 
-8.009349569707e+01 3.188550099451e+01 0.0 
3.188550099451e+01 -1.848527179765e+02 0.0 
0.0 0.0 -7.744129155126e+01 
-8.189988323704e+01 1.321569789684e+01 0.0 
1.321569789684e+01 -1.354420303719e+02 0.0 
0.0 0.0 -6.480257408269e+01 
-9.266102345426e+01 3.065467305985e+01 0.0 
3.065467305985e+01 -2.083727762351e+02 0.0 
0.0 0.0 -8.991013990682e+01 
-9.615265400121e+01 3.244506774396e+01 0.0 
3.244506774396e+01 -2.114837451305e+02 0.0 
0.0 0.0 -9.189091973952e+01 
-1.626401071748e+01 -2.171318057632e-02 0.0 
-2.171318057632e-02 -5.946146768632e+01 0.0 
0.0 0.0 -2.099000395402e+01 
-8.705616617166e+01 -5.955917507773e+00 0.0 
-5.955917507773e+00 -2.160666860759e+02 0.0 
0.0 0.0 -8.698794145686e+01 
-6.204436484994e+01 3.243454642034e+01 0.0 
3.243454642034e+01 -1.276279713259e+02 0.0 
0.0 0.0 -5.216111487143e+01 
-8.663591199266e+01 2.926136897511e+01 0.0 
2.926136897511e+01 -1.740873180423e+02 0.0 
0.0 0.0 -7.781696901049e+01 
-9.013443949881e+01 3.096288006144e+01 0.0 
3.096288006144e+01 -1.782720851082e+02 0.0 
0.0 0.0 -8.012195738211e+01 
-1.224194699971e+02 1.992808256025e+01 0.0 
1.992808256025e+01 -3.220884875851e+02 0.0 
0.0 0.0 -1.329523872747e+02 
-3.338105047947e+01 -1.405204107633e+00 0.0 
-1.405204107633e+00 -8.968400273171e+01 0.0 
0.0 0.0 -3.469638229038e+01 
-4.189487863457e+01 -1.078399643274e+01 0.0 
-1.078399643274e+01 -1.364651492892e+02 0.0 
0.0 0.0 -5.036916062487e+01 
-7.592021035410e+01 3.080594078372e+01 0.0 
3.080594078372e+01 -1.977114823737e+02 0.0 
0.0 0.0 -8.111629013441e+01 
-9.242387122452e+01 -6.503823717024e+00 0.0 
-6.503823717024e+00 -2.173568352864e+02 0.0 
0.0 0.0 -8.933987102872e+01 
-5.676600792054e+01 1.662716558118e+01 0.0 
1.662716558118e+01 -3.875298988003e+01 0.0 
0.0 0.0 -2.658912347458e+01 
-5.788848456591e+01 1.395525439140e+01 0.0 
1.395525439140e+01 -4.743350347625e+01 0.0 
0.0 0.0 -3.023519822704e+01 
-8.567416062552e+01 1.651879349323e+01 0.0 
1.651879349323e+01 -1.376031631311e+02 0.0 
0.0 0.0 -6.658319712698e+01 
-3.885263606810e+01 2.407104608524e+01 0.0 
2.407104608524e+01 -1.054926229639e+02 0.0 
0.0 0.0 -3.693695090837e+01 
-9.755479440375e+01 -3.484963098409e+00 0.0 
-3.484963098409e+00 -2.436301282302e+02 0.0 
0.0 0.0 -9.912394071778e+01 
-1.101610456290e+02 1.374823199168e+01 0.0 
1.374823199168e+01 -3.039064653122e+02 0.0 
0.0 0.0 -1.238202532824e+02 
-3.780253076156e+01 -2.661559028182e+00 0.0 
-2.661559028182e+00 -1.389411158760e+02 0.0 
0.0 0.0 -5.139573395124e+01 
-1.319420034903e+02 3.316255933043e+01 0.0 
3.316255933043e+01 -3.141407572450e+02 0.0 
0.0 0.0 -1.334248282206e+02 
-9.687146620991e+01 1.548052618501e+01 0.0 
1.548052618501e+01 -1.864647801438e+02 0.0 
0.0 0.0 -8.460087390612e+01 
-1.005384871493e+02 -3.832347319934e+00 0.0 
-3.832347319934e+00 -2.331523908741e+02 0.0 
0.0 0.0 -9.491546790775e+01 
-1.254384731749e+02 2.249177068472e+00 0.0 
2.249177068472e+00 -3.196456719527e+02 0.0 
0.0 0.0 -1.331252435383e+02 
-1.083523420441e+01 -1.281140445885e+00 0.0 
-1.281140445885e+00 -4.221292071939e+01 0.0 
0.0 0.0 -1.378709462152e+01 
-1.061027365991e+02 1.108573785306e+01 0.0 
1.108573785306e+01 -2.965810536936e+02 0.0 
0.0 0.0 -1.210919294225e+02 
-7.521298786191e+01 2.939005667837e+01 0.0 
2.939005667837e+01 -1.987644575577e+02 0.0 
0.0 0.0 -8.144412376975e+01 
-1.111196701965e+01 -8.401150294282e-01 0.0 
-8.401150294282e-01 -4.210369337593e+01 0.0 
0.0 0.0 -1.364594273407e+01 
-9.338000684385e+01 1.320377431639e+01 0.0 
1.320377431639e+01 -1.846842506621e+02 0.0 
0.0 0.0 -8.301927725178e+01 
-3.707574744955e+01 -4.950135087197e+00 0.0 
-4.950135087197e+00 -1.326160493258e+02 0.0 
0.0 0.0 -5.001013307903e+01 
-8.584267462481e+01 3.196673771324e+01 0.0 
3.196673771324e+01 -1.743430856396e+02 0.0 
0.0 0.0 -7.765572807932e+01 
-7.644181266813e+01 3.174881569714e+01 0.0 
3.174881569714e+01 -1.845352358165e+02 0.0 
0.0 0.0 -7.757580324358e+01 
-7.424187645415e+01 -6.009288819252e-01 0.0 
-6.009288819252e-01 -2.299779579426e+02 0.0 
0.0 0.0 -9.487792960034e+01 
-9.282956820009e+01 3.355939982772e+00 0.0 
3.355939982772e+00 -2.695167382724e+02 0.0 
0.0 0.0 -1.096064825270e+02 
-9.711420698589e+01 1.563416193876e+01 0.0 
1.563416193876e+01 -1.964876667853e+02 0.0 
0.0 0.0 -8.768056213136e+01 
-1.014429987357e+02 4.910606756903e+00 0.0 
4.910606756903e+00 -2.877714594094e+02 0.0 
0.0 0.0 -1.163643374435e+02 
-7.747077819641e+01 2.925207926600e+01 0.0 
2.925207926600e+01 -2.127399497374e+02 0.0 
0.0 0.0 -8.723169645105e+01 
-7.248651208518e+01 2.792106077613e+01 0.0 
2.792106077613e+01 -1.962001981967e+02 0.0 
0.0 0.0 -7.895833120876e+01 
-4.710531554307e+01 3.308215748428e+01 0.0 
3.308215748428e+01 -3.200496923404e+01 0.0 
0.0 0.0 -2.046609456095e+01 
-3.363766804551e+01 -3.799065122145e+00 0.0 
-3.799065122145e+00 -1.294912888455e+02 0.0 
0.0 0.0 -4.929781559780e+01 
-1.082231826214e+02 3.103637361757e+01 0.0 
3.103637361757e+01 -2.719629617495e+02 0.0 
0.0 0.0 -1.136558433113e+02 
-8.076577946348e+01 1.957012187030e+01 0.0 
1.957012187030e+01 -1.206628744921e+02 0.0 
0.0 0.0 -6.002859618667e+01 
-1.123607339500e+02 2.927128644070e+01 0.0 
2.927128644070e+01 -2.857855751566e+02 0.0 
0.0 0.0 -1.190438927320e+02 
-4.882171515855e+01 2.793372948070e+01 0.0 
2.793372948070e+01 -1.390851838340e+02 0.0 
0.0 0.0 -5.386827217821e+01 
-9.820108298828e+01 2.434377455217e+01 0.0 
2.434377455217e+01 -1.931579403264e+02 0.0 
0.0 0.0 -8.700770699441e+01 
-1.127259362743e+02 3.246445158281e+01 0.0 
3.246445158281e+01 -2.756789538530e+02 0.0 
0.0 0.0 -1.161214670382e+02 
-5.828761184286e+01 1.358597689494e+01 0.0 
1.358597689494e+01 -5.846082535928e+01 0.0 
0.0 0.0 -3.384820674046e+01 
-1.078259847113e+02 2.969836656842e+01 0.0 
2.969836656842e+01 -2.714610153360e+02 0.0 
0.0 0.0 -1.133861000142e+02 
-1.270948143405e+02 3.618540861435e+00 0.0 
3.618540861435e+00 -3.206573156845e+02 0.0 
0.0 0.0 -1.339256390075e+02 
-8.620015936471e+01 2.823418686950e+01 0.0 
2.823418686950e+01 -2.324188359076e+02 0.0 
0.0 0.0 -9.513233776237e+01 
-9.329269994043e+01 -4.046684390408e+00 0.0 
-4.046684390408e+00 -2.356161725781e+02 0.0 
0.0 0.0 -9.497408577655e+01 
-1.008157232612e+02 -3.506203263370e+00 0.0 
-3.506203263370e+00 -2.484206750569e+02 0.0 
0.0 0.0 -1.018222898347e+02 
-1.072229386417e+02 2.469120048847e+01 0.0 
2.469120048847e+01 -2.173886747114e+02 0.0 
0.0 0.0 -9.698348400591e+01 
-8.658160479358e+01 1.800894680258e+00 0.0 
1.800894680258e+00 -2.506273348564e+02 0.0 
0.0 0.0 -1.033057679137e+02 
-8.215454684333e+01 3.133272391116e+01 0.0 
3.133272391116e+01 -2.016159179847e+02 0.0 
0.0 0.0 -8.350425736723e+01 
-7.384857940797e+01 2.143826086184e+01 0.0 
2.143826086184e+01 -2.323813344633e+02 0.0 
0.0 0.0 -9.599753197484e+01 
-1.115030932254e+02 6.682852736480e+00 0.0 
6.682852736480e+00 -3.061613575002e+02 0.0 
0.0 0.0 -1.248993352177e+02 
-6.719894926084e+01 2.335923733583e+01 0.0 
2.335923733583e+01 -2.018613445059e+02 0.0 
0.0 0.0 -8.207807689577e+01 
-4.781236978559e+01 5.220112923139e+00 0.0 
5.220112923139e+00 -1.688341399173e+02 0.0 
0.0 0.0 -6.166345920854e+01 
-7.813443298065e+01 7.153512230531e+00 0.0 
7.153512230531e+00 -2.487692394967e+02 0.0 
0.0 0.0 -1.039903705222e+02 
-5.008461966611e+01 1.059521932739e+01 0.0 
1.059521932739e+01 -1.740717959599e+02 0.0 
0.0 0.0 -6.436227576154e+01 
-8.955415655577e+01 3.020327364996e+01 0.0 
3.020327364996e+01 -1.913343129995e+02 0.0 
0.0 0.0 -8.386654086659e+01 
-5.074203095735e+01 5.450106697932e+00 0.0 
5.450106697932e+00 -1.727370895622e+02 0.0 
0.0 0.0 -6.370118855060e+01 
-8.436337995467e+01 3.295783905349e+01 0.0 
3.295783905349e+01 -1.887619731251e+02 0.0 
0.0 0.0 -8.153760592394e+01 
-1.179179925521e+02 2.201593542566e+01 0.0 
2.201593542566e+01 -3.118885178632e+02 0.0 
0.0 0.0 -1.285419531246e+02 
-1.112902443187e+02 1.866017602634e+01 0.0 
1.866017602634e+01 -3.049008002800e+02 0.0 
0.0 0.0 -1.244573133796e+02 
-6.657586562753e+01 2.505018770909e+01 0.0 
2.505018770909e+01 -2.038355920045e+02 0.0 
0.0 0.0 -8.389380545885e+01 
-7.973621216421e+01 1.414439886420e+01 0.0 
1.414439886420e+01 -1.268843263539e+02 0.0 
0.0 0.0 -6.158616155544e+01 
-1.306081879726e+02 2.050235987185e+00 0.0 
2.050235987185e+00 -3.278330140167e+02 0.0 
0.0 0.0 -1.371323605968e+02 
-1.319602949690e+02 3.448764444395e+00 0.0 
3.448764444395e+00 -3.287271437251e+02 0.0 
0.0 0.0 -1.378062316082e+02 
-3.951508592009e+01 2.782462702226e+01 0.0 
2.782462702226e+01 -9.078736381630e+01 0.0 
0.0 0.0 -3.517445315805e+01 
-8.851922653650e+01 3.090220844760e+01 0.0 
3.090220844760e+01 -2.057552761122e+02 0.0 
0.0 0.0 -8.788235079461e+01 
-1.462543849955e+02 2.161475880195e+00 0.0 
2.161475880195e+00 -3.559714025189e+02 0.0 
0.0 0.0 -1.502677362543e+02 
-4.926540863871e+01 3.092832326581e+01 0.0 
3.092832326581e+01 -7.035656186924e+01 0.0 
0.0 0.0 -3.118220418343e+01 
-1.066002128526e+02 -2.357481334141e+00 0.0 
-2.357481334141e+00 -2.526201219401e+02 0.0 
0.0 0.0 -1.037051989868e+02 
-4.827231962480e+01 3.343069323242e+01 0.0 
3.343069323242e+01 -3.120829487309e+01 0.0 
0.0 0.0 -2.140395190226e+01 
-1.356486684574e+02 1.809406939595e+00 0.0 
1.809406939595e+00 -3.360270466679e+02 0.0 
0.0 0.0 -1.411027145376e+02 
-4.559664503762e+01 1.066779189193e+01 0.0 
1.066779189193e+01 -1.612678434286e+02 0.0 
0.0 0.0 -5.873550343122e+01 
-1.056830003353e+02 -1.594814653730e+00 0.0 
-1.594814653730e+00 -2.404349465981e+02 0.0 
0.0 0.0 -9.982309500164e+01 
-9.394281872456e+01 2.205820261004e+01 0.0 
2.205820261004e+01 -2.685412892597e+02 0.0 
0.0 0.0 -1.088925615602e+02 
-8.360307115179e+01 1.772208411465e+01 0.0 
1.772208411465e+01 -1.291931173792e+02 0.0 
0.0 0.0 -6.343885655930e+01 
-7.801542342296e+01 1.553514867218e+01 0.0 
1.553514867218e+01 -1.187416852957e+02 0.0 
0.0 0.0 -5.862713261559e+01 
-8.098958493042e+01 2.982021760672e+01 0.0 
2.982021760672e+01 -2.152405677405e+02 0.0 
0.0 0.0 -8.755984906382e+01 
-5.400234622208e+01 2.369604877935e+01 0.0 
2.369604877935e+01 -2.664123040832e+01 0.0 
0.0 0.0 -2.067505063984e+01 
-5.589732710184e+01 1.895204882520e+01 0.0 
1.895204882520e+01 -3.239352175049e+01 0.0 
0.0 0.0 -2.377847586836e+01 
-1.366297615804e+02 3.160309632616e+00 0.0 
3.160309632616e+00 -3.367597995341e+02 0.0 
0.0 0.0 -1.416168683344e+02 
-9.918083290736e+01 5.986332268227e+00 0.0 
5.986332268227e+00 -2.802793092711e+02 0.0 
0.0 0.0 -1.158698937196e+02 
-7.949771621145e+01 2.370195418476e+00 0.0 
2.370195418476e+00 -2.464055656520e+02 0.0 
0.0 0.0 -1.021455168876e+02 
-1.030476837193e+02 1.039508844816e+01 0.0 
1.039508844816e+01 -2.951582944844e+02 0.0 
0.0 0.0 -1.193825475914e+02 
-7.120029202925e+01 5.614149058923e+00 0.0 
5.614149058923e+00 -2.316620104802e+02 0.0 
0.0 0.0 -9.564378516766e+01 
-4.737046410892e+01 1.035529835061e+01 0.0 
1.035529835061e+01 -1.620011146776e+02 0.0 
0.0 0.0 -5.864169223484e+01 
-4.785031201461e+01 1.506286765773e+01 0.0 
1.506286765773e+01 -2.224941346535e+01 0.0 
0.0 0.0 -1.821133008069e+01 
-7.370310726232e+01 1.745046700279e+01 0.0 
1.745046700279e+01 -9.876973773005e+01 0.0 
0.0 0.0 -5.134185349771e+01 
-3.894168828416e+01 1.117400074544e-01 0.0 
1.117400074544e-01 -4.757149668608e+01 0.0 
0.0 0.0 -2.555395549107e+01 
-1.128985310589e+02 1.968764135852e+01 0.0 
1.968764135852e+01 -3.057918234952e+02 0.0 
0.0 0.0 -1.252071063662e+02 
-6.371233466658e+01 2.156481573473e+01 0.0 
2.156481573473e+01 -1.985425358147e+02 0.0 
0.0 0.0 -8.039930096080e+01 
-1.326117198747e+02 2.458978803002e+01 0.0 
2.458978803002e+01 -3.343899155962e+02 0.0 
0.0 0.0 -1.397004906413e+02 
-1.353851904533e+02 -1.660266397404e-01 0.0 
-1.660266397404e-01 -3.317692658862e+02 0.0 
0.0 0.0 -1.397463369018e+02 
-7.571613148317e+01 8.224407311533e+00 0.0 
8.224407311533e+00 -2.423858151459e+02 0.0 
0.0 0.0 -1.005352615056e+02 
-1.523448363324e+02 4.722088928815e+00 0.0 
4.722088928815e+00 -3.668109459714e+02 0.0 
0.0 0.0 -1.553467346912e+02 
-5.479635116207e+01 1.179205783648e+00 0.0 
1.179205783648e+00 -1.820484509855e+02 0.0 
0.0 0.0 -6.884826910789e+01 
-1.259509625625e+02 2.534812774419e+01 0.0 
2.534812774419e+01 -3.217680524921e+02 0.0 
0.0 0.0 -1.339157045164e+02 
-7.763497356416e+01 2.811720282661e+01 0.0 
2.811720282661e+01 -2.142336607274e+02 0.0 
0.0 0.0 -8.716059028746e+01 
-8.971096093316e+01 2.667210647598e+01 0.0 
2.667210647598e+01 -2.464502313414e+02 0.0 
0.0 0.0 -1.004483576824e+02 
-1.275046377303e+02 1.449387875961e+01 0.0 
1.449387875961e+01 -3.321819374773e+02 0.0 
0.0 0.0 -1.375059725623e+02 
-7.498983740917e+01 -1.302013598233e+01 0.0 
-1.302013598233e+01 -1.819453878975e+02 0.0 
0.0 0.0 -7.533141657970e+01 
-8.506391027154e+01 3.125267975162e+01 0.0 
3.125267975162e+01 -2.035942229128e+02 0.0 
0.0 0.0 -8.577787522014e+01 
-7.452979202071e+01 3.877866559588e+00 0.0 
3.877866559588e+00 -2.368850075891e+02 0.0 
0.0 0.0 -9.781229468989e+01 
-8.005761435015e+01 3.260026385060e+01 0.0 
3.260026385060e+01 -1.865386464194e+02 0.0 
0.0 0.0 -7.957887823088e+01 
-4.764183331358e+01 2.611845717086e+01 0.0 
2.611845717086e+01 -1.360046599338e+02 0.0 
0.0 0.0 -5.183126099911e+01 
-9.371054905865e+01 2.529391540926e+01 0.0 
2.529391540926e+01 -2.598628347337e+02 0.0 
0.0 0.0 -1.056720151377e+02 
-6.935671918608e+01 1.787144736632e+00 0.0 
1.787144736632e+00 -2.235759089165e+02 0.0 
0.0 0.0 -9.166477543340e+01 
-1.029419715653e+02 -1.834871805599e+00 0.0 
-1.834871805599e+00 -2.627768073746e+02 0.0 
0.0 0.0 -1.077011865098e+02 
-8.290240319460e+01 3.163156482645e+01 0.0 
3.163156482645e+01 -1.866938163393e+02 0.0 
0.0 0.0 -7.969673724080e+01 
-4.952442534581e+01 3.813416606357e+01 0.0 
3.813416606357e+01 -5.894807955723e+01 0.0 
0.0 0.0 -3.149815450975e+01 
-8.006105161903e+01 2.002619453835e+01 0.0 
2.002619453835e+01 -2.470463880284e+02 0.0 
0.0 0.0 -1.025145722590e+02 
-4.752467402579e+01 3.309025802364e+01 0.0 
3.309025802364e+01 -5.172875868354e+01 0.0 
0.0 0.0 -2.595119534639e+01 
-2.280073993663e+01 -5.181506301296e+00 0.0 
-5.181506301296e+00 -6.380370516641e+01 0.0 
0.0 0.0 -2.313570927605e+01 
-1.016163195532e+02 -2.940894048969e+00 0.0 
-2.940894048969e+00 -2.514704089649e+02 0.0 
0.0 0.0 -1.030233223817e+02 
-1.037088559119e+02 3.283885747262e+01 0.0 
3.283885747262e+01 -2.442693620282e+02 0.0 
0.0 0.0 -1.039934653820e+02 
-8.211406843415e+01 1.877319793415e+01 0.0 
1.877319793415e+01 -1.330682390688e+02 0.0 
0.0 0.0 -6.415469225089e+01 
-4.516880158739e+01 2.888678891677e+01 0.0 
2.888678891677e+01 -2.792473952047e+01 0.0 
0.0 0.0 -1.660408959475e+01 
-1.052548105790e+02 2.086852157331e+01 0.0 
2.086852157331e+01 -2.469278913510e+02 0.0 
0.0 0.0 -1.052548105790e+02 
-4.931625413233e+01 3.463286640438e+01 0.0 
3.463286640438e+01 -3.222755690827e+01 0.0 
0.0 0.0 -2.488744682033e+01 
-4.742455913164e+01 2.820959924983e+01 0.0 
2.820959924983e+01 -2.541230636203e+01 0.0 
0.0 0.0 -1.757462042063e+01 
-8.228202305152e+01 4.311410756202e+00 0.0 
4.311410756202e+00 -2.503942538644e+02 0.0 
0.0 0.0 -1.043004860134e+02 
-1.041377535499e+02 -2.763876265235e+00 0.0 
-2.763876265235e+00 -2.411261585997e+02 0.0 
0.0 0.0 -9.897153511054e+01 
-6.135207420151e+01 2.879538241035e+01 0.0 
2.879538241035e+01 -7.243557047746e+01 0.0 
0.0 0.0 -3.692068578993e+01 
-5.788959617914e+01 -6.334213348707e+00 0.0 
-6.334213348707e+00 -1.858954429697e+02 0.0 
0.0 0.0 -7.231997161578e+01 
-9.260691026548e+01 2.072504716564e+00 0.0 
2.072504716564e+00 -2.634504798751e+02 0.0 
0.0 0.0 -1.098334406839e+02 
-8.192033914717e+01 3.017505534422e+01 0.0 
3.017505534422e+01 -2.171594632942e+02 0.0 
0.0 0.0 -8.932394073242e+01 
-8.901171491257e+01 2.015719422362e+01 0.0 
2.015719422362e+01 -2.638035558801e+02 0.0 
0.0 0.0 -1.077580443831e+02 
-1.056834567644e+02 3.026963522261e+01 0.0 
3.026963522261e+01 -2.348327216322e+02 0.0 
0.0 0.0 -1.017548535190e+02 
-4.208901646848e+01 2.717484956586e+01 0.0 
2.717484956586e+01 -1.128428807340e+02 0.0 
0.0 0.0 -4.319662869887e+01 
-9.590100266572e+01 -4.396942114641e+00 0.0 
-4.396942114641e+00 -2.320982407478e+02 0.0 
0.0 0.0 -9.432857298136e+01 
-1.038104400956e+02 -3.011230036809e+00 0.0 
-3.011230036809e+00 -2.482380307836e+02 0.0 
0.0 0.0 -1.022526990516e+02 
-5.938034481433e+01 -1.253114841555e+01 0.0 
-1.253114841555e+01 -1.344856044571e+02 0.0 
0.0 0.0 -5.462680256019e+01 
-5.978940310737e+01 1.171036352895e+01 0.0 
1.171036352895e+01 -6.576431936281e+01 0.0 
0.0 0.0 -3.704757342167e+01 
-8.447703379397e+01 2.266942446220e+01 0.0 
2.266942446220e+01 -1.348534375516e+02 0.0 
0.0 0.0 -6.539914140368e+01 
-1.247402037468e+02 9.091423638208e-01 0.0 
9.091423638208e-01 -3.034268203743e+02 0.0 
0.0 0.0 -1.273040172141e+02 
-1.460567060041e+01 -6.313114668147e-01 0.0 
-6.313114668147e-01 -4.290451096349e+01 0.0 
0.0 0.0 -1.421254657563e+01 
-5.077151360566e+01 -7.862730866850e+00 0.0 
-7.862730866850e+00 -1.173166264437e+02 0.0 
0.0 0.0 -5.180483332361e+01 
-4.137803519666e+01 -1.071406811969e+01 0.0 
-1.071406811969e+01 -9.167034492108e+01 0.0 
0.0 0.0 -3.615568302057e+01 
-1.075058002090e+02 -1.817010091692e+00 0.0 
-1.817010091692e+00 -2.492151629773e+02 0.0 
0.0 0.0 -1.029014770721e+02 
-5.941971514301e+01 2.668444090166e+00 0.0 
2.668444090166e+00 -1.960940278412e+02 0.0 
0.0 0.0 -7.581355086730e+01 
-5.834048630386e+01 -7.368446913843e+00 0.0 
-7.368446913843e+00 -1.824716641239e+02 0.0 
0.0 0.0 -7.149323392905e+01 
-4.986448619827e+01 -4.106748532976e-01 0.0 
-4.106748532976e-01 -1.685891733979e+02 0.0 
0.0 0.0 -6.242707824655e+01 
-1.055721483740e+02 -2.395239912078e+00 0.0 
-2.395239912078e+00 -2.594577289648e+02 0.0 
0.0 0.0 -1.068780564777e+02 
-8.969829311146e+01 2.443346976774e+01 0.0 
2.443346976774e+01 -1.649504816122e+02 0.0 
0.0 0.0 -7.599463241708e+01 
-1.075542478636e+02 -2.366075500515e+00 0.0 
-2.366075500515e+00 -2.564515116775e+02 0.0 
0.0 0.0 -1.061188314636e+02 
-5.739850399158e+01 6.601017457186e+00 0.0 
6.601017457186e+00 -1.959681449065e+02 0.0 
0.0 0.0 -7.491249294039e+01 
-8.735033821602e+01 3.270600990542e+01 0.0 
3.270600990542e+01 -2.055943222096e+02 0.0 
0.0 0.0 -8.748339812769e+01 
-5.832125546948e+01 3.759742829931e+00 0.0 
3.759742829931e+00 -7.944251806380e+01 0.0 
0.0 0.0 -4.092913205999e+01 
-1.045760834818e+02 2.283565411133e+01 0.0 
2.283565411133e+01 -2.865693372640e+02 0.0 
0.0 0.0 -1.169436262237e+02 
-1.106688450894e+02 -9.710659347195e-01 0.0 
-9.710659347195e-01 -2.573877122145e+02 0.0 
0.0 0.0 -1.067473945285e+02 
-1.100391559118e+02 -1.468275261747e+00 0.0 
-1.468275261747e+00 -2.605494198911e+02 0.0 
0.0 0.0 -1.075910723231e+02 
-4.276683356710e+01 2.842698879701e+01 0.0 
2.842698879701e+01 -2.831898691817e+01 0.0 
0.0 0.0 -1.643960467753e+01 
-6.336629780188e+01 -4.803761949296e-01 0.0 
-4.803761949296e-01 -2.043701156300e+02 0.0 
0.0 0.0 -8.123740752382e+01 
-1.111243908767e+02 -1.769927960972e+00 0.0 
-1.769927960972e+00 -2.646839439349e+02 0.0 
0.0 0.0 -1.099464502472e+02 
-6.623145837456e+01 -2.980066323127e-01 0.0 
-2.980066323127e-01 -1.191444470030e+02 0.0 
0.0 0.0 -5.521277161328e+01 
-5.956163739401e+01 -4.611129546285e-01 0.0 
-4.611129546285e-01 -1.007259368746e+02 0.0 
0.0 0.0 -4.768627228057e+01 
-4.338090313254e+01 2.860868713680e+01 0.0 
2.860868713680e+01 -2.829885419329e+01 0.0 
0.0 0.0 -1.555929804483e+01 
-1.094512370227e+02 -1.873513199078e+00 0.0 
-1.873513199078e+00 -2.675834002346e+02 0.0 
0.0 0.0 -1.107292924541e+02 
-6.255621034241e+01 -1.355555185485e+01 0.0 
-1.355555185485e+01 -1.789189880893e+02 0.0 
0.0 0.0 -7.239674512239e+01 
-4.664393861395e+01 3.389500568041e+01 0.0 
3.389500568041e+01 -7.130705772354e+01 0.0 
0.0 0.0 -3.099740689223e+01 
-1.280020469042e+02 2.649699364109e+01 0.0 
2.649699364109e+01 -3.229984501857e+02 0.0 
0.0 0.0 -1.349001491270e+02 
-4.349991841259e+01 -1.318591281389e+01 0.0 
-1.318591281389e+01 -8.581692490882e+01 0.0 
0.0 0.0 -3.501824224222e+01 
-6.023447795722e+01 -1.121266057331e+01 0.0 
-1.121266057331e+01 -1.784332051925e+02 0.0 
0.0 0.0 -7.143255351580e+01 
-7.629320031527e+01 2.141483285376e+01 0.0 
2.141483285376e+01 -2.331582035131e+02 0.0 
0.0 0.0 -9.526108939188e+01 
-4.276158133250e+01 2.480239482102e+01 0.0 
2.480239482102e+01 -2.660606497483e+01 0.0 
0.0 0.0 -1.650460954534e+01 
-1.137128260127e+02 -2.466414841805e-01 0.0 
-2.466414841805e-01 -2.657713180811e+02 0.0 
0.0 0.0 -1.106058876200e+02 
-5.401222333666e+01 3.724958886671e-01 0.0 
3.724958886671e-01 -1.215161465490e+02 0.0 
0.0 0.0 -4.874568485931e+01 
-6.575517775471e+01 1.460464438867e+01 0.0 
1.460464438867e+01 -7.371892342500e+01 0.0 
0.0 0.0 -4.144116240611e+01 
-1.132745660614e+02 -7.016064408151e-01 0.0 
-7.016064408151e-01 -2.685967996808e+02 0.0 
0.0 0.0 -1.114132991679e+02 
-7.928813733370e+01 -1.908009404031e+00 0.0 
-1.908009404031e+00 -2.380759007027e+02 0.0 
0.0 0.0 -9.868203113906e+01 
-1.029503803375e+02 -3.350246520173e+00 0.0 
-3.350246520173e+00 -2.448324066864e+02 0.0 
0.0 0.0 -9.971495595828e+01 
-4.093184251923e+01 3.336154850860e+01 0.0 
3.336154850860e+01 -8.478286452598e+01 0.0 
0.0 0.0 -3.954837773765e+01 
-8.581334859202e+01 1.715733706980e+00 0.0 
1.715733706980e+00 -1.785062387008e+02 0.0 
0.0 0.0 -7.889587618786e+01 
-6.811938533376e+01 -7.521849298178e+00 0.0 
-7.521849298178e+00 -2.050623941339e+02 0.0 
0.0 0.0 -8.388286533046e+01 
-1.235786251499e+02 1.699975346643e+01 0.0 
1.699975346643e+01 -3.274656969595e+02 0.0 
0.0 0.0 -1.349132966328e+02 
-8.931035909912e+01 2.749270551519e+01 0.0 
2.749270551519e+01 -2.464992833979e+02 0.0 
0.0 0.0 -1.003428927491e+02 
-1.131994158683e+02 -1.418449906370e+00 0.0 
-1.418449906370e+00 -2.757585818985e+02 0.0 
0.0 0.0 -1.145623640052e+02 
-1.163354703064e+02 -1.025772309804e-01 0.0 
-1.025772309804e-01 -2.766693481556e+02 0.0 
0.0 0.0 -1.151807841569e+02 
-5.561943460152e+01 1.724250735030e+00 0.0 
1.724250735030e+00 -1.889463596924e+02 0.0 
0.0 0.0 -7.194739362808e+01 
-3.932452046168e+01 -1.182672436094e+01 0.0 
-1.182672436094e+01 -5.943531484995e+01 0.0 
0.0 0.0 -2.548836491763e+01 
-4.025209486135e+01 3.562937853397e+01 0.0 
3.562937853397e+01 -8.302711376457e+01 0.0 
0.0 0.0 -3.814524853315e+01 
-1.167944629091e+02 -1.054755277657e+00 0.0 
-1.054755277657e+00 -2.840424617774e+02 0.0 
0.0 0.0 -1.184255422762e+02 
-1.251785739859e+02 1.380059007357e+01 0.0 
1.380059007357e+01 -3.312212763107e+02 0.0 
0.0 0.0 -1.365199550890e+02 
-6.494406247926e+01 -1.691486179284e+01 0.0 
-1.691486179284e+01 -1.702609613734e+02 0.0 
0.0 0.0 -6.988711932000e+01 
-9.167151316877e+01 3.057712300477e+01 0.0 
3.057712300477e+01 -2.221323294391e+02 0.0 
0.0 0.0 -9.374115278236e+01 
-4.630123247886e+01 3.111718365871e+01 0.0 
3.111718365871e+01 -6.884875180814e+01 0.0 
0.0 0.0 -3.080376862445e+01 
-9.195229931533e+01 3.271668686870e+01 0.0 
3.271668686870e+01 -2.084848620016e+02 0.0 
0.0 0.0 -8.973114839509e+01 
-1.508577736410e+02 1.082244598040e+01 0.0 
1.082244598040e+01 -3.714808107309e+02 0.0 
0.0 0.0 -1.563015753116e+02 
-1.347661552592e+02 -7.207386546028e-01 0.0 
-7.207386546028e-01 -1.026714521074e+02 0.0 
0.0 0.0 -7.150815322040e+01 
-9.928965778573e+01 2.138907000451e+00 0.0 
2.138907000451e+00 -2.330092015000e+02 0.0 
0.0 0.0 -9.928965778573e+01 
-1.678763040283e+02 1.032001116008e+00 0.0 
1.032001116008e+00 -3.930447093993e+02 0.0 
0.0 0.0 -1.678763040283e+02 
-4.710748135144e+01 7.770313575673e-01 0.0 
7.770313575673e-01 -6.873791018806e+01 0.0 
0.0 0.0 -3.435361746185e+01 
-7.152542610486e+01 -1.247900675698e+01 0.0 
-1.247900675698e+01 -2.000685039303e+02 0.0 
0.0 0.0 -8.243388345768e+01 
-8.515246247171e+01 2.886616665842e+01 0.0 
2.886616665842e+01 -2.321660313000e+02 0.0 
0.0 0.0 -9.479554813150e+01 
-5.563253169114e+01 6.463650144067e+00 0.0 
6.463650144067e+00 -1.866190003264e+02 0.0 
0.0 0.0 -7.075195092669e+01 
-1.862060202934e+01 -1.047118024169e+00 0.0 
-1.047118024169e+00 -5.540425013707e+01 0.0 
0.0 0.0 -2.031568175233e+01 
-5.058548263623e+01 3.475989702813e+01 0.0 
3.475989702813e+01 -3.202554658295e+01 0.0 
0.0 0.0 -2.341498458889e+01 
-9.332172725416e+01 6.773988399751e+00 0.0 
6.773988399751e+00 -1.970232732365e+02 0.0 
0.0 0.0 -8.670350014720e+01 
-8.803035700567e+01 2.561972910986e+01 0.0 
2.561972910986e+01 -1.505608871399e+02 0.0 
0.0 0.0 -7.117737324366e+01 
-6.018019279480e+01 1.270087548561e+01 0.0 
1.270087548561e+01 -5.809007216785e+01 0.0 
0.0 0.0 -3.468750001289e+01 
-1.406763260209e+02 3.588670147549e+01 0.0 
3.588670147549e+01 -3.353537845831e+02 0.0 
0.0 0.0 -1.424090331812e+02 
-4.022109065611e+01 4.854700891784e-01 0.0 
4.854700891784e-01 -1.011182037591e+02 0.0 
0.0 0.0 -3.973202276520e+01 
-1.428284387456e+02 3.438943526643e+01 0.0 
3.438943526643e+01 -3.420119104456e+02 0.0 
0.0 0.0 -1.450521047574e+02 
-8.615853366811e+01 2.186633843300e+01 0.0 
2.186633843300e+01 -1.488518049770e+02 0.0 
0.0 0.0 -7.010310159354e+01 
-7.674185973696e+01 -1.267286183549e+01 0.0 
-1.267286183549e+01 -1.946806428086e+02 0.0 
0.0 0.0 -8.084671099837e+01 
-8.280968594804e+01 2.775842509540e+01 0.0 
2.775842509540e+01 -2.296161379437e+02 0.0 
0.0 0.0 -9.355643258952e+01 
-6.594734908057e+01 -1.081085830306e+01 0.0 
-1.081085830306e+01 -1.854789941901e+02 0.0 
0.0 0.0 -7.474581391006e+01 
-4.538720542418e+01 3.325659523763e+01 0.0 
3.325659523763e+01 -6.895119988505e+01 0.0 
0.0 0.0 -3.056035639877e+01 
-6.476196234782e+01 -1.247989254769e+01 0.0 
-1.247989254769e+01 -1.734773936296e+02 0.0 
0.0 0.0 -6.995008914253e+01 
-9.307930279732e+01 2.655853886095e+01 0.0 
2.655853886095e+01 -1.815674547740e+02 0.0 
0.0 0.0 -8.199402727139e+01 
-1.407887090441e+02 1.985218496017e+00 0.0 
1.985218496017e+00 -3.424496745901e+02 0.0 
0.0 0.0 -1.445715150903e+02 
-6.167422784161e+01 -7.952966043792e+00 0.0 
-7.952966043792e+00 -1.896416621395e+02 0.0 
0.0 0.0 -7.589114549823e+01 
-9.588242379430e+01 3.076148076106e+01 0.0 
3.076148076106e+01 -2.248478372041e+02 0.0 
0.0 0.0 -9.581907829952e+01 
-8.409878672986e+01 -2.442474354120e+00 0.0 
-2.442474354120e+00 -1.131444353475e+02 0.0 
0.0 0.0 -5.967422214644e+01 
-5.922932862080e+01 -1.801396014166e+00 0.0 
-1.801396014166e+00 -1.948993807445e+02 0.0 
0.0 0.0 -7.552124264164e+01 
-9.744868637210e+01 2.515246296837e+01 0.0 
2.515246296837e+01 -1.798815891604e+02 0.0 
0.0 0.0 -8.279908265975e+01 
-6.765017656563e+01 -1.195614801595e+01 0.0 
-1.195614801595e+01 -1.678017299144e+02 0.0 
0.0 0.0 -6.758199558276e+01 
-6.337463904439e+01 -1.750472958222e+01 0.0 
-1.750472958222e+01 -1.560660780206e+02 0.0 
0.0 0.0 -6.433671114275e+01 
-8.099942498617e+01 2.710056979092e+01 0.0 
2.710056979092e+01 -2.290302386175e+02 0.0 
0.0 0.0 -9.260889908110e+01 
-4.202339028044e+01 -1.932427786793e+01 0.0 
-1.932427786793e+01 -1.084284087264e+02 0.0 
0.0 0.0 -3.849052305727e+01 
-4.197193677324e+01 2.785734144154e+01 0.0 
2.785734144154e+01 -2.818387440973e+01 0.0 
0.0 0.0 -1.725129684404e+01 
-4.289240387993e+01 2.927512783517e+01 0.0 
2.927512783517e+01 -2.905428145867e+01 0.0 
0.0 0.0 -1.689826685616e+01 
-6.065611113989e+01 -1.374905070250e+01 0.0 
-1.374905070250e+01 -1.477196122613e+02 0.0 
0.0 0.0 -5.937186907301e+01 
-8.635835321883e+01 2.091354399303e+00 0.0 
2.091354399303e+00 -2.546669828674e+02 0.0 
0.0 0.0 -1.061927316847e+02 
-7.181919204545e+01 2.433197722293e+01 0.0 
2.433197722293e+01 -2.201859277627e+02 0.0 
0.0 0.0 -9.080103695348e+01 
-9.546255035972e+01 3.256745684228e+01 0.0 
3.256745684228e+01 -2.249638680903e+02 0.0 
0.0 0.0 -9.572792553500e+01 
-1.107315618818e+02 2.997686475438e+01 0.0 
2.997686475438e+01 -2.462286370177e+02 0.0 
0.0 0.0 -1.066880596699e+02 
-3.747878095499e+01 2.541724755778e+01 0.0 
2.541724755778e+01 -2.709776765426e+01 0.0 
0.0 0.0 -1.415729169010e+01 
-7.342774244705e+01 1.660042414845e+00 0.0 
1.660042414845e+00 -1.392291944342e+02 0.0 
0.0 0.0 -6.339708106438e+01 
-1.182575565947e+02 3.253083649595e+01 0.0 
3.253083649595e+01 -2.802489224078e+02 0.0 
0.0 0.0 -1.191519437008e+02 
-5.263936747779e+01 5.881596887911e+00 0.0 
5.881596887911e+00 -1.821481556141e+02 0.0 
0.0 0.0 -6.815594895819e+01 
-4.633629589533e+01 3.312536549816e+01 0.0 
3.312536549816e+01 -5.176568689664e+01 0.0 
0.0 0.0 -2.489643479739e+01 
-4.981982465453e+01 3.225768392518e+01 0.0 
3.225768392518e+01 -7.049224713304e+01 0.0 
0.0 0.0 -3.117599317585e+01 
-8.606448213972e+01 -1.739806098336e+00 0.0 
-1.739806098336e+00 -2.461167115168e+02 0.0 
0.0 0.0 -1.026243204849e+02 
-9.622913081386e+01 3.024522728119e+01 0.0 
3.024522728119e+01 -2.111176984232e+02 0.0 
0.0 0.0 -9.180404877112e+01 
-8.104375540271e+01 1.283876811684e+00 0.0 
1.283876811684e+00 -2.418978093212e+02 0.0 
0.0 0.0 -1.000386929628e+02 
-3.730776530923e+01 2.677961901732e+01 0.0 
2.677961901732e+01 -9.350090545223e+01 0.0 
0.0 0.0 -3.685127990638e+01 
-9.335432466589e+01 6.253280217166e+00 0.0 
6.253280217166e+00 -2.710309851029e+02 0.0 
0.0 0.0 -1.130653253659e+02 
-4.538147830894e+01 3.293726785845e+01 0.0 
3.293726785845e+01 -6.789504592678e+01 0.0 
0.0 0.0 -3.075274039449e+01 
-6.981645356170e+01 2.103113054030e+01 0.0 
2.103113054030e+01 -2.149116906924e+02 0.0 
0.0 0.0 -8.802032102716e+01 
-8.770098401140e+01 4.078749932811e+00 0.0 
4.078749932811e+00 -2.600785207286e+02 0.0 
0.0 0.0 -1.073761885643e+02 
-8.496508283591e+01 2.525049991061e+01 0.0 
2.525049991061e+01 -2.426553605144e+02 0.0 
0.0 0.0 -9.898817366888e+01 
-6.605021347402e+01 2.342312413680e+00 0.0 
2.342312413680e+00 -1.144000708170e+02 0.0 
0.0 0.0 -5.373508528732e+01 
-6.426531282757e+01 -1.438072567824e+01 0.0 
-1.438072567824e+01 -1.483875022162e+02 0.0 
0.0 0.0 -6.104379495074e+01 
-4.632154772226e+01 3.406849803979e+01 0.0 
3.406849803979e+01 -7.304504068691e+01 0.0 
0.0 0.0 -3.099104453657e+01 
-9.534763155895e+01 5.258958505411e+00 0.0 
5.258958505411e+00 -2.784981388967e+02 0.0 
0.0 0.0 -1.128744336419e+02 
-4.446079281880e+01 3.263450831988e+01 0.0 
3.263450831988e+01 -6.639301653481e+01 0.0 
0.0 0.0 -3.058077921275e+01 
-4.925568441240e+01 1.185875823981e+01 0.0 
1.185875823981e+01 -1.200790728366e+02 0.0 
0.0 0.0 -5.220821550072e+01 
-9.086473969970e+01 1.963716631726e-01 0.0 
1.963716631726e-01 -1.975478536314e+02 0.0 
0.0 0.0 -8.612377799933e+01 
-8.570742464140e+01 -6.738435922214e-02 0.0 
-6.738435922214e-02 -1.785617098631e+02 0.0 
0.0 0.0 -7.888074035135e+01 
-2.011096173179e+01 -3.867190304161e+00 0.0 
-3.867190304161e+00 -2.705808744146e+01 0.0 
0.0 0.0 -1.263036033510e+01 
-1.025156322073e+02 8.425958146093e+00 0.0 
8.425958146093e+00 -2.887680741261e+02 0.0 
0.0 0.0 -1.186447600654e+02 
-5.046850750903e+01 -1.237982052558e+01 0.0 
-1.237982052558e+01 -1.130121819575e+02 0.0 
0.0 0.0 -4.545208528685e+01 
-5.402045519355e+01 -1.242659757669e+01 0.0 
-1.242659757669e+01 -1.212627767651e+02 0.0 
0.0 0.0 -4.863046840579e+01 
-1.035034913289e+02 3.101292096865e+01 0.0 
3.101292096865e+01 -2.440147097395e+02 0.0 
0.0 0.0 -1.038554603205e+02 
-8.446801631217e+01 2.567224710145e+01 0.0 
2.567224710145e+01 -2.425261536563e+02 0.0 
0.0 0.0 -9.769825099053e+01 
-9.948781034193e+01 3.065312548818e+01 0.0 
3.065312548818e+01 -2.409208934569e+02 0.0 
0.0 0.0 -1.017226111397e+02 
-6.305259199637e+01 -5.522761173848e+00 0.0 
-5.522761173848e+00 -1.971098734493e+02 0.0 
0.0 0.0 -7.877878969250e+01 
-3.963209637618e+01 2.877652009247e-01 0.0 
2.877652009247e-01 -4.742175301249e+01 0.0 
0.0 0.0 -2.571615481660e+01 
-1.560669686071e+02 9.243609200927e+00 0.0 
9.243609200927e+00 -3.742853099510e+02 0.0 
0.0 0.0 -1.587056835674e+02 
-4.623771895034e+01 -1.184677754317e+01 0.0 
-1.184677754317e+01 -1.005087614553e+02 0.0 
0.0 0.0 -4.041829570253e+01 
-1.191405614078e+02 1.868102288471e+01 0.0 
1.868102288471e+01 -3.167354053920e+02 0.0 
0.0 0.0 -1.303627900399e+02 
-7.298245730179e+01 2.263285267110e+01 0.0 
2.263285267110e+01 -2.189591687024e+02 0.0 
0.0 0.0 -8.947315472137e+01 
-2.627599982334e+01 -2.776202478005e+00 0.0 
-2.776202478005e+00 -7.646862931850e+01 0.0 
0.0 0.0 -2.880201868177e+01 
-9.309461383929e+01 2.928188755489e+01 0.0 
2.928188755489e+01 -1.942831694433e+02 0.0 
0.0 0.0 -8.581333498479e+01 
-6.056320682177e+01 2.881552190085e+00 0.0 
2.881552190085e+00 -2.030041052949e+02 0.0 
0.0 0.0 -7.913318230418e+01 
-3.475415235903e+01 -1.105365241305e+01 0.0 
-1.105365241305e+01 -4.866961130590e+01 0.0 
0.0 0.0 -1.990348317752e+01 
-5.418145783478e+01 -3.263017935097e+00 0.0 
-3.263017935097e+00 -1.806569480194e+02 0.0 
0.0 0.0 -6.839381184221e+01 
-1.219815157689e+02 -8.132541652294e-01 0.0 
-8.132541652294e-01 -2.947824347887e+02 0.0 
0.0 0.0 -1.234550589230e+02 
-9.411962711562e+01 2.981054903718e+01 0.0 
2.981054903718e+01 -1.830946856987e+02 0.0 
0.0 0.0 -8.276429384429e+01 
-4.146433350693e+01 -1.125967672857e+01 0.0 
-1.125967672857e+01 -7.896164199776e+01 0.0 
0.0 0.0 -3.111652023255e+01 
-1.065119330670e+02 -2.948412896383e-01 0.0 
-2.948412896383e-01 -2.412289989388e+02 0.0 
0.0 0.0 -1.003555918827e+02 
-9.982232581166e+01 3.078300105508e+01 0.0 
3.078300105508e+01 -2.279034513357e+02 0.0 
0.0 0.0 -9.791773314422e+01 
-1.107793844024e+02 2.598102092576e+01 0.0 
2.598102092576e+01 -2.923843066046e+02 0.0 
0.0 0.0 -1.205491073021e+02 
-6.276171632266e+01 -1.345801977327e+01 0.0 
-1.345801977327e+01 -1.607188727941e+02 0.0 
0.0 0.0 -6.465067582739e+01 
-5.631285122463e+01 -2.355176514137e+00 0.0 
-2.355176514137e+00 -1.215495611526e+02 0.0 
0.0 0.0 -4.871402507492e+01 
-7.756976298999e+01 2.344463335947e+01 0.0 
2.344463335947e+01 -2.360444834323e+02 0.0 
0.0 0.0 -9.748594142099e+01 
-6.250758268264e+01 9.030300627905e-01 0.0 
9.030300627905e-01 -1.084828731080e+02 0.0 
0.0 0.0 -5.089713673719e+01 
-3.760313695405e+01 -1.530771629439e+01 0.0 
-1.530771629439e+01 -5.242960004642e+01 0.0 
0.0 0.0 -1.935795796242e+01 
-1.272200923609e+02 3.585134819170e+01 0.0 
3.585134819170e+01 -3.019196748811e+02 0.0 
0.0 0.0 -1.283419301726e+02 
-1.108122008001e+02 2.900396676162e+01 0.0 
2.900396676162e+01 -2.504466486276e+02 0.0 
0.0 0.0 -1.079776548283e+02 
-5.197321152875e+01 9.834110082762e-01 0.0 
9.834110082762e-01 -8.066081076915e+01 0.0 
0.0 0.0 -3.939020668937e+01 
-1.040508917176e+02 1.665893473903e+01 0.0 
1.665893473903e+01 -2.190664974167e+02 0.0 
0.0 0.0 -9.653521674030e+01 
-1.161086508216e+02 3.180482239482e+01 0.0 
3.180482239482e+01 -2.661898778014e+02 0.0 
0.0 0.0 -1.142895585869e+02 
-6.290201172238e+01 -4.081200914489e+00 0.0 
-4.081200914489e+00 -2.000647245656e+02 0.0 
0.0 0.0 -7.978872101857e+01 
-6.784697361917e+01 -1.150296898845e+01 0.0 
-1.150296898845e+01 -1.959969702701e+02 0.0 
0.0 0.0 -8.019883102085e+01 
-1.427609568698e+02 2.294562494146e+01 0.0 
2.294562494146e+01 -3.548186163727e+02 0.0 
0.0 0.0 -1.488738719727e+02 
-7.764814747499e+01 5.695464796052e+00 0.0 
5.695464796052e+00 -1.089680649769e+02 0.0 
0.0 0.0 -5.653547591834e+01 
-4.781473542220e+01 -1.354257780339e+00 0.0 
-1.354257780339e+00 -1.103408751521e+02 0.0 
0.0 0.0 -4.385099407704e+01 
-1.075507593126e+02 -1.241548283476e+00 0.0 
-1.241548283476e+00 -2.455758077634e+02 0.0 
0.0 0.0 -1.020147657134e+02 
-6.759492129461e+01 -1.526307350318e+01 0.0 
-1.526307350318e+01 -1.620343078745e+02 0.0 
0.0 0.0 -6.693720932718e+01 
-5.671656357195e+01 -1.009688775568e+01 0.0 
-1.009688775568e+01 -1.747738937378e+02 0.0 
0.0 0.0 -6.823972124969e+01 
-4.266278219856e+01 2.823407303585e+01 0.0 
2.823407303585e+01 -2.759502114386e+01 0.0 
0.0 0.0 -1.784537052542e+01 
-4.489373403842e+01 2.993476740696e+01 0.0 
2.993476740696e+01 -2.954121285990e+01 0.0 
0.0 0.0 -1.867659065450e+01 
-5.939801034763e+01 4.381087494812e+00 0.0 
4.381087494812e+00 -8.252228797360e+01 0.0 
0.0 0.0 -4.217608949637e+01 
-5.890454102130e+01 -2.494799768301e+00 0.0 
-2.494799768301e+00 -1.898610130013e+02 0.0 
0.0 0.0 -7.384443009504e+01 
-6.075929163455e+01 -4.655114822189e+00 0.0 
-4.655114822189e+00 -1.299777898505e+02 0.0 
0.0 0.0 -5.154624370740e+01 
-1.031554320829e+02 2.583966570891e+01 0.0 
2.583966570891e+01 -2.773048664883e+02 0.0 
0.0 0.0 -1.137380895714e+02 
-1.643362019250e+02 6.900735862019e+00 0.0 
6.900735862019e+00 -3.909371773488e+02 0.0 
0.0 0.0 -1.661820137821e+02 
-1.628945185908e+02 8.558718092472e+00 0.0 
8.558718092472e+00 -3.891733551632e+02 0.0 
0.0 0.0 -1.652203621262e+02 
-6.617140062803e+01 -8.621872655125e+00 0.0 
-8.621872655125e+00 -1.966843428015e+02 0.0 
0.0 0.0 -7.901155226888e+01 
-5.402913300261e+01 3.548084658111e+00 0.0 
3.548084658111e+00 -6.571127196644e+01 0.0 
0.0 0.0 -3.552212149072e+01 
-8.140587199741e+01 1.572649774116e+00 0.0 
1.572649774116e+00 -1.086713292929e+02 0.0 
0.0 0.0 -5.800544434420e+01 
-4.576283383643e+01 3.013022137344e+01 0.0 
3.013022137344e+01 -2.926599989734e+01 0.0 
0.0 0.0 -1.908548454328e+01 
-4.771019257652e+01 -2.267184787667e+01 0.0 
-2.267184787667e+01 -1.125164593544e+02 0.0 
0.0 0.0 -4.325304572351e+01 
-4.478850309639e+01 2.940138099299e+01 0.0 
2.940138099299e+01 -2.905577581847e+01 0.0 
0.0 0.0 -1.895150871266e+01 
-7.979622487637e+01 2.386597340996e+01 0.0 
2.386597340996e+01 -2.379699321211e+02 0.0 
0.0 0.0 -9.566530612035e+01 
-5.889901516229e+01 -1.362700694785e+01 0.0 
-1.362700694785e+01 -1.667742575400e+02 0.0 
0.0 0.0 -6.647095286975e+01 
-6.277088291704e+01 -9.675218164304e+00 0.0 
-9.675218164304e+00 -1.883090719325e+02 0.0 
0.0 0.0 -7.588742515098e+01 
-4.017066371461e+01 -2.709645032305e+01 0.0 
-2.709645032305e+01 -9.150734490930e+01 0.0 
0.0 0.0 -3.992957957984e+01 
-8.529825604875e+01 1.497578864409e+00 0.0 
1.497578864409e+00 -1.812527476379e+02 0.0 
0.0 0.0 -7.956530110600e+01 
-6.639610659899e+01 -1.483990271184e+01 0.0 
-1.483990271184e+01 -1.843880137314e+02 0.0 
0.0 0.0 -7.531213074141e+01 
-9.139860032850e+01 5.017092286203e+00 0.0 
5.017092286203e+00 -1.958179368735e+02 0.0 
0.0 0.0 -8.576496116059e+01 
-8.263440244218e+01 2.857029266808e+00 0.0 
2.857029266808e+00 -1.658525448112e+02 0.0 
0.0 0.0 -7.414608417602e+01 
-1.027781773952e+02 2.437893082165e+00 0.0 
2.437893082165e+00 -2.339195449734e+02 0.0 
0.0 0.0 -1.006093167106e+02 
-1.660666367351e+02 1.121126462444e+00 0.0 
1.121126462444e+00 -3.924812790761e+02 0.0 
0.0 0.0 -1.671643747434e+02 
-5.207076554665e+01 -4.315298209195e-01 0.0 
-4.315298209195e-01 -8.116892295051e+01 0.0 
0.0 0.0 -3.957190654915e+01 
-7.101798260551e+01 -1.441926269413e+01 0.0 
-1.441926269413e+01 -1.878921042537e+02 0.0 
0.0 0.0 -7.756778857843e+01 
-3.890101764674e+01 2.797259733220e+01 0.0 
2.797259733220e+01 -2.712962913232e+01 0.0 
0.0 0.0 -1.627122751711e+01 
-7.166666761656e+01 -9.272200359043e+00 0.0 
-9.272200359043e+00 -1.926337500992e+02 0.0 
0.0 0.0 -7.781929023394e+01 
-1.679218215335e+02 5.308463459277e+00 0.0 
5.308463459277e+00 -3.931509169115e+02 0.0 
0.0 0.0 -1.679218215335e+02 
-4.741958185597e+01 3.193058112637e+01 0.0 
3.193058112637e+01 -3.017753109286e+01 0.0 
0.0 0.0 -1.995402547857e+01 
-4.611633076390e+01 3.073310893079e+01 0.0 
3.073310893079e+01 -2.940165360147e+01 0.0 
0.0 0.0 -1.924428489943e+01 
-1.234779198599e+02 2.096824835409e+01 0.0 
2.096824835409e+01 -3.226600487398e+02 0.0 
0.0 0.0 -1.334413905799e+02 
-5.045586844386e+01 2.135636589397e+00 0.0 
2.135636589397e+00 -6.592992805345e+01 0.0 
0.0 0.0 -3.451573894919e+01 
-9.128752526833e+01 2.942180631907e+00 0.0 
2.942180631907e+00 -1.975263725697e+02 0.0 
0.0 0.0 -8.624416935141e+01 
-9.979032651295e+01 3.277018310696e+01 0.0 
3.277018310696e+01 -2.280683124729e+02 0.0 
0.0 0.0 -9.795759169576e+01 
-1.195266286115e+02 2.594047878720e+01 0.0 
2.594047878720e+01 -3.090280259262e+02 0.0 
0.0 0.0 -1.281663963613e+02 
-1.045698393483e+02 3.197672457123e+01 0.0 
3.197672457123e+01 -2.212372205878e+02 0.0 
0.0 0.0 -9.734211798083e+01 
-5.419293772591e+01 2.891058713154e-01 0.0 
2.891058713154e-01 -8.457268722270e+01 0.0 
0.0 0.0 -4.122968748458e+01 
-6.077596330947e+01 -1.682886748831e+01 0.0 
-1.682886748831e+01 -1.417948377242e+02 0.0 
0.0 0.0 -5.848181456256e+01 
-5.715697327691e+01 -1.495896770074e+01 0.0 
-1.495896770074e+01 -1.412081106981e+02 0.0 
0.0 0.0 -5.657337820378e+01 
-6.962084786311e+01 1.385549898852e-01 0.0 
1.385549898852e-01 -1.282933039576e+02 0.0 
0.0 0.0 -5.897424554622e+01 
-1.153067449645e+02 2.797512360163e+01 0.0 
2.797512360163e+01 -2.964359875615e+02 0.0 
0.0 0.0 -1.231228197578e+02 
-5.156615664055e+01 5.939544567414e+00 0.0 
5.939544567414e+00 -5.076144240760e+01 0.0 
0.0 0.0 -3.023658039068e+01 
-4.579921840147e+01 1.907264487494e-01 0.0 
1.907264487494e-01 -6.416378936208e+01 0.0 
0.0 0.0 -3.258890232907e+01 
-5.250681178374e+01 8.025615774921e-01 0.0 
8.025615774921e-01 -8.018287704156e+01 0.0 
0.0 0.0 -3.940690664759e+01 
-5.544548321136e+01 2.137843167865e+00 0.0 
2.137843167865e+00 -8.603032761840e+01 0.0 
0.0 0.0 -4.204274324893e+01 
-3.291520578521e+01 -1.408028935520e+01 0.0 
-1.408028935520e+01 -1.144125174327e+02 0.0 
0.0 0.0 -4.396094898077e+01 
-5.466521395551e+01 -1.455158453932e+01 0.0 
-1.455158453932e+01 -1.276001132450e+02 0.0 
0.0 0.0 -5.120023737059e+01 
-1.000982789195e+02 8.417603183952e+00 0.0 
8.417603183952e+00 -2.193193566449e+02 0.0 
0.0 0.0 -9.542529066932e+01 
-6.335724899603e+01 2.696237152119e+00 0.0 
2.696237152119e+00 -1.055251126313e+02 0.0 
0.0 0.0 -5.026470848820e+01 
-1.443089892411e+02 2.607200581537e+01 0.0 
2.607200581537e+01 -3.510121879032e+02 0.0 
0.0 0.0 -1.481963531433e+02 
-1.149682772887e+02 3.305672293199e+01 0.0 
3.305672293199e+01 -2.500406523728e+02 0.0 
0.0 0.0 -1.091026788985e+02 
-9.302812363874e+01 3.192662793987e+01 0.0 
3.192662793987e+01 -1.949600805238e+02 0.0 
0.0 0.0 -8.599646124877e+01 
-1.012460427861e+02 1.683838493028e+01 0.0 
1.683838493028e+01 -2.067604692789e+02 0.0 
0.0 0.0 -9.200195361949e+01 
-8.474295772436e+01 -4.628574243986e+00 0.0 
-4.628574243986e+00 -1.836432889112e+02 0.0 
0.0 0.0 -7.461088521720e+01 
-7.670813561019e+01 -5.219911656584e+00 0.0 
-5.219911656584e+00 -1.671437267085e+02 0.0 
0.0 0.0 -6.705887375929e+01 
-1.454681323540e+02 8.029414942546e+00 0.0 
8.029414942546e+00 -3.593466949629e+02 0.0 
0.0 0.0 -1.510444481951e+02 
-3.701243894601e+01 -2.343561445625e+01 0.0 
-2.343561445625e+01 -9.885199331809e+01 0.0 
0.0 0.0 -4.215370745645e+01 
-4.834920940920e+01 -1.010561322708e+00 0.0 
-1.010561322708e+00 -1.171038462746e+02 0.0 
0.0 0.0 -4.667707282344e+01 
-1.453316727706e+02 3.362613929531e+01 0.0 
3.362613929531e+01 -3.404405697981e+02 0.0 
0.0 0.0 -1.453316727706e+02 
-1.372900720093e+01 7.074477201715e-01 0.0 
7.074477201715e-01 -5.750605841128e+01 0.0 
0.0 0.0 -2.028262115469e+01 
-4.555488268128e+01 2.288593035592e-01 0.0 
2.288593035592e-01 -6.407123680636e+01 0.0 
0.0 0.0 -3.248783584629e+01 
-1.356685612231e+02 1.890262033266e+01 0.0 
1.890262033266e+01 -3.465051673099e+02 0.0 
0.0 0.0 -1.442521185599e+02 
-2.088355253655e+01 -3.958187484978e+00 0.0 
-3.958187484978e+00 -3.996685139973e+01 0.0 
0.0 0.0 -1.570913540346e+01 
-1.297251622447e+01 -1.722790927039e-01 0.0 
-1.722790927039e-01 -2.398833206794e+01 0.0 
0.0 0.0 -8.614427224266e+00 
-1.071836877583e+02 1.429579531137e+01 0.0 
1.429579531137e+01 -2.403804074319e+02 0.0 
0.0 0.0 -1.038692285571e+02 
-4.135039766816e+01 2.853960383744e-01 0.0 
2.853960383744e-01 -4.736953849970e+01 0.0 
0.0 0.0 -2.621598085036e+01 
-9.993549549379e+01 1.081999524892e+01 0.0 
1.081999524892e+01 -2.166314324515e+02 0.0 
0.0 0.0 -9.457007838359e+01 
-1.377157003094e+02 2.011232107027e+01 0.0 
2.011232107027e+01 -3.440842080912e+02 0.0 
0.0 0.0 -1.441399725202e+02 
-4.089989250577e+01 7.956512137790e-01 0.0 
7.956512137790e-01 -4.712375150021e+01 0.0 
0.0 0.0 -2.600709320179e+01 
-7.775851752025e+01 7.953997181910e+00 0.0 
7.953997181910e+00 -1.073808186502e+02 0.0 
0.0 0.0 -5.660283848500e+01 
-9.510547352811e+01 2.572001090486e+00 0.0 
2.572001090486e+00 -2.152249093278e+02 0.0 
0.0 0.0 -9.269911485676e+01 
-1.945211035764e+01 -2.555814528357e+00 0.0 
-2.555814528357e+00 -6.372622344007e+01 0.0 
0.0 0.0 -2.298482544700e+01 
-9.417090970953e+01 9.265294255510e+00 0.0 
9.265294255510e+00 -2.031994244486e+02 0.0 
0.0 0.0 -8.881110024745e+01 
-1.679130390935e+02 3.915910455128e+00 0.0 
3.915910455128e+00 -3.931304245515e+02 0.0 
0.0 0.0 -1.679130390935e+02 
-1.103081226097e+02 2.903503414783e+01 0.0 
2.903503414783e+01 -2.357948543510e+02 0.0 
0.0 0.0 -1.034308930882e+02 
-3.691792738660e+01 -1.066387463337e+01 0.0 
-1.066387463337e+01 -1.284111301717e+02 0.0 
0.0 0.0 -4.695852970101e+01 
-6.473915469277e+01 7.932285170733e+00 0.0 
7.932285170733e+00 -8.708821229138e+01 0.0 
0.0 0.0 -4.514821009525e+01 
-8.593028672590e+01 -2.110884231106e+00 0.0 
-2.110884231106e+00 -1.862326469890e+02 0.0 
0.0 0.0 -7.621179993095e+01 
-1.045860992633e+02 2.661113460193e+01 0.0 
2.661113460193e+01 -2.779988677109e+02 0.0 
0.0 0.0 -1.143754900923e+02 
-1.499667916415e+02 2.963272121832e+01 0.0 
2.963272121832e+01 -3.591020301895e+02 0.0 
0.0 0.0 -1.523206465493e+02 
-7.694458038296e+01 7.425118918200e-01 0.0 
7.425118918200e-01 -1.501422591185e+02 0.0 
0.0 0.0 -6.772605185044e+01 
-1.508823055899e+02 2.662666359703e+01 0.0 
2.662666359703e+01 -3.640555599258e+02 0.0 
0.0 0.0 -1.540813596547e+02 
-3.147028409137e+01 -1.724487435967e+01 0.0 
-1.724487435967e+01 -1.163439119602e+02 0.0 
0.0 0.0 -4.651795196450e+01 
-1.578993180680e+02 5.626908797117e+00 0.0 
5.626908797117e+00 -3.780252618724e+02 0.0 
0.0 0.0 -1.603773739821e+02 
-4.117697114012e+01 -1.497179193453e+01 0.0 
-1.497179193453e+01 -1.240982242959e+02 0.0 
0.0 0.0 -4.294303276839e+01 
-1.396861981712e+01 -1.673794556480e+00 0.0 
-1.673794556480e+00 -5.745843568388e+01 0.0 
0.0 0.0 -2.030172685545e+01 
-1.484065624918e+02 1.735807666307e+01 0.0 
1.735807666307e+01 -3.661223077864e+02 0.0 
0.0 0.0 -1.539586610835e+02 
-1.104375329430e+02 2.284755385999e+01 0.0 
2.284755385999e+01 -2.354295367169e+02 0.0 
0.0 0.0 -1.033601208980e+02 
-1.028795805039e+02 1.486920394932e+01 0.0 
1.486920394932e+01 -2.265306264391e+02 0.0 
0.0 0.0 -9.842306208289e+01 
-4.597200691969e+01 -2.329333883078e-02 0.0 
-2.329333883078e-02 -6.276420612000e+01 0.0 
0.0 0.0 -3.222086391191e+01 
-6.932891476634e+01 1.281526906006e+01 0.0 
1.281526906006e+01 -9.466189604027e+01 0.0 
0.0 0.0 -4.879724324198e+01 
-4.457861039206e+01 3.125003678326e+01 0.0 
3.125003678326e+01 -6.839284549574e+01 0.0 
0.0 0.0 -2.974017319883e+01 
-1.212399801845e+02 3.467230782037e+01 0.0 
3.467230782037e+01 -2.715875039091e+02 0.0 
0.0 0.0 -1.174482452281e+02 
-7.300591522650e+01 -3.310176413056e+00 0.0 
-3.310176413056e+00 -1.544290461651e+02 0.0 
0.0 0.0 -6.271944926170e+01 
-3.823336188987e+01 3.004443715579e+01 0.0 
3.004443715579e+01 -7.568686068142e+01 0.0 
0.0 0.0 -2.907992154883e+01 
-1.091288113500e+02 2.511692142890e+01 0.0 
2.511692142890e+01 -2.915195071274e+02 0.0 
0.0 0.0 -1.197944955432e+02 
-3.916760208793e+01 3.804368977843e-01 0.0 
3.804368977843e-01 -4.677456626791e+01 0.0 
0.0 0.0 -2.538265050675e+01 
-1.032778130950e+02 2.077690862384e+01 0.0 
2.077690862384e+01 -2.204145159857e+02 0.0 
0.0 0.0 -9.670769872421e+01 
-1.015485872718e+02 9.072205430230e-01 0.0 
9.072205430230e-01 -2.317026356548e+02 0.0 
0.0 0.0 -9.957536687798e+01 
-9.945628239717e+01 9.866101968885e-01 0.0 
9.866101968885e-01 -2.333979922601e+02 0.0 
0.0 0.0 -9.945628239717e+01 
-1.085568439284e+01 -6.073014339473e-02 0.0 
-6.073014339473e-02 -6.170445345236e+00 0.0 
0.0 0.0 -4.361305842016e+00 
-7.182800698475e+00 1.184308405746e-01 0.0 
1.184308405746e-01 -1.083884169813e+01 0.0 
0.0 0.0 -3.684488952993e+00 
-3.928289978191e+01 6.462034769932e-01 0.0 
6.462034769932e-01 -4.920339050226e+01 0.0 
0.0 0.0 -2.614588708525e+01 
-3.811101197955e+01 -8.307841475146e-02 0.0 
-8.307841475146e-02 -4.672886884590e+01 0.0 
0.0 0.0 -2.505196424763e+01 
-1.680637936220e+02 4.481082971461e-01 0.0 
4.481082971461e-01 -3.934821851180e+02 0.0 
0.0 0.0 -1.680637936220e+02 
-1.655193027801e+02 -6.507412012296e-01 0.0 
-6.507412012296e-01 -3.905324284680e+02 0.0 
0.0 0.0 -1.664155193744e+02 
-1.087327708951e+01 -4.372275565438e-01 0.0 
-4.372275565438e-01 -2.335549743108e+01 0.0 
0.0 0.0 -7.684887772412e+00 
-8.000876811524e+01 -4.044144074188e+00 0.0 
-4.044144074188e+00 -1.133172277509e+02 0.0 
0.0 0.0 -5.849822510705e+01 
-1.503737196742e+02 2.112400576324e+00 0.0 
2.112400576324e+00 -3.618936184847e+02 0.0 
0.0 0.0 -1.532802014477e+02 
-1.217608699923e+02 3.071859946198e+01 0.0 
3.071859946198e+01 -3.036651295992e+02 0.0 
0.0 0.0 -1.272277998775e+02 
-2.178942364439e+01 -2.267767061338e+00 0.0 
-2.267767061338e+00 -7.499089720669e+01 0.0 
0.0 0.0 -2.798630759388e+01 
-1.511508621516e+02 6.063338666359e+00 0.0 
6.063338666359e+00 -3.655280936852e+02 0.0 
0.0 0.0 -1.546036867510e+02 
-1.130477921055e+02 -1.641244025036e-02 0.0 
-1.641244025036e-02 -2.618667462796e+02 0.0 
0.0 0.0 -1.091914892880e+02 
-1.015082404350e+02 2.371154293620e-01 0.0 
2.371154293620e-01 -2.262997428757e+02 0.0 
0.0 0.0 -9.376465086667e+01 
-6.603645990894e+01 1.076468101601e+00 0.0 
1.076468101601e+00 -1.155192977486e+02 0.0 
0.0 0.0 -5.406672729725e+01 
-4.574787389280e+01 -2.085823082355e+01 0.0 
-2.085823082355e+01 -9.107417716304e+01 0.0 
0.0 0.0 -3.463955912988e+01 
-9.424718870429e+01 2.604516613621e+01 0.0 
2.604516613621e+01 -2.602295096518e+02 0.0 
0.0 0.0 -1.059430095068e+02 
-1.862730454459e+01 -1.041009203059e+00 0.0 
-1.041009203059e+00 -6.022607777404e+01 0.0 
0.0 0.0 -2.188129592428e+01 
-9.451626119474e+01 -2.158143258955e+00 0.0 
-2.158143258955e+00 -2.067671057641e+02 0.0 
0.0 0.0 -8.503936123255e+01 
-1.141599623708e+02 3.155944518271e+01 0.0 
3.155944518271e+01 -2.583820938396e+02 0.0 
0.0 0.0 -1.113626168631e+02 
-8.949003715239e+01 1.001166638282e+00 0.0 
1.001166638282e+00 -1.901400631057e+02 0.0 
0.0 0.0 -8.348903007744e+01 
-1.016343161530e+02 -1.183700622472e+00 0.0 
-1.183700622472e+00 -2.252218705467e+02 0.0 
0.0 0.0 -9.349822845784e+01 
-5.784874068182e+01 1.311359058112e+00 0.0 
1.311359058112e+00 -9.469764808620e+01 0.0 
0.0 0.0 -4.536391663041e+01 
-1.205581646063e+02 3.394353157051e+01 0.0 
3.394353157051e+01 -2.913778250490e+02 0.0 
0.0 0.0 -1.231807968966e+02 
-1.080004123474e+02 3.288555214858e+01 0.0 
3.288555214858e+01 -2.363618934411e+02 0.0 
0.0 0.0 -1.029086917365e+02 
-1.004599164090e+02 3.227852638469e+01 0.0 
3.227852638469e+01 -2.156841794841e+02 0.0 
0.0 0.0 -9.444322876791e+01 
-4.004345414005e+01 4.036716631030e-01 0.0 
4.036716631030e-01 -4.732861539239e+01 0.0 
0.0 0.0 -2.581162085973e+01 
-8.914272684981e+01 2.433495310177e+01 0.0 
2.433495310177e+01 -2.558358101431e+02 0.0 
0.0 0.0 -1.030935610979e+02 
-1.048190058970e+02 2.428420977446e+01 0.0 
2.428420977446e+01 -2.254490300344e+02 0.0 
0.0 0.0 -9.868041077943e+01 
-5.334108793161e+01 -3.248338181543e+00 0.0 
-3.248338181543e+00 -1.163519551023e+02 0.0 
0.0 0.0 -4.609802310109e+01 
-1.684825867088e+01 2.980724012411e-02 0.0 
2.980724012411e-02 -2.417650288491e+01 0.0 
0.0 0.0 -1.168372828958e+01 
-1.160368527285e+02 3.307995299052e+01 0.0 
3.307995299052e+01 -2.766980218499e+02 0.0 
0.0 0.0 -1.174204623735e+02 
-1.172240746242e+02 1.772362806017e+01 0.0 
1.772362806017e+01 -3.158244604208e+02 0.0 
0.0 0.0 -1.295145605135e+02 
-4.361635762779e+01 -2.188522244821e+01 0.0 
-2.188522244821e+01 -8.335675313058e+01 0.0 
0.0 0.0 -3.149054138028e+01 
-7.095979530529e+01 1.675177768130e+00 0.0 
1.675177768130e+00 -1.298798304551e+02 0.0 
0.0 0.0 -5.985188772811e+01 
-1.586497833730e+02 2.960267975271e+00 0.0 
2.960267975271e+00 -3.764141957042e+02 0.0 
0.0 0.0 -1.601191937232e+02 
-1.164325498620e+02 3.051186846547e+01 0.0 
3.051186846547e+01 -2.884486514502e+02 0.0 
0.0 0.0 -1.210643603937e+02 
-1.219173399341e+02 3.363191002754e+01 0.0 
3.363191002754e+01 -2.977840431825e+02 0.0 
0.0 0.0 -1.255104149350e+02 
-1.189062385677e+02 7.553816045975e-01 0.0 
7.553816045975e-01 -2.826235123439e+02 0.0 
0.0 0.0 -1.181792197552e+02 
-4.428287497370e+01 3.393704828550e+01 0.0 
3.393704828550e+01 -9.632982774394e+01 0.0 
0.0 0.0 -4.353598666635e+01 
-4.150871335965e+01 2.959045789158e+01 0.0 
2.959045789158e+01 -2.684539051830e+01 0.0 
0.0 0.0 -1.765844892827e+01 
-4.565406643210e+01 3.074753230139e+01 0.0 
3.074753230139e+01 -6.723549113731e+01 0.0 
0.0 0.0 -3.047412367385e+01 
-6.533223820590e+01 8.519062963697e+00 0.0 
8.519062963697e+00 -8.615571260587e+01 0.0 
0.0 0.0 -4.504638524353e+01 
-8.905980239900e+01 2.355598228781e+01 0.0 
2.355598228781e+01 -2.556662400732e+02 0.0 
0.0 0.0 -1.038345365426e+02 
-9.541410747068e+01 8.168211656450e+00 0.0 
8.168211656450e+00 -2.051278493579e+02 0.0 
0.0 0.0 -8.976258704859e+01 
-1.461564854445e+02 2.226281420618e+01 0.0 
2.226281420618e+01 -3.548967605578e+02 0.0 
0.0 0.0 -1.499159738007e+02 
-4.283782740011e+01 -1.638896575862e+01 0.0 
-1.638896575862e+01 -5.259763790967e+01 0.0 
0.0 0.0 -2.352625093173e+01 
-2.916993296418e+01 -6.871385850442e+00 0.0 
-6.871385850442e+00 -4.244999967586e+01 0.0 
0.0 0.0 -1.747523167199e+01 
-4.363078930082e+01 2.996838286466e+01 0.0 
2.996838286466e+01 -2.851253676585e+01 0.0 
0.0 0.0 -1.816527457204e+01 
-7.239411963377e+01 8.880325783237e-01 0.0 
8.880325783237e-01 -1.353005891958e+02 0.0 
0.0 0.0 -6.190841264887e+01 
-6.601477763277e+01 -3.248629081591e+00 0.0 
-3.248629081591e+00 -1.449374598207e+02 0.0 
0.0 0.0 -5.792882730378e+01 
-1.036490216301e+02 1.905353915974e+01 0.0 
1.905353915974e+01 -2.170507600384e+02 0.0 
0.0 0.0 -9.580993450055e+01 
-1.842835605407e+01 -8.471927327435e-01 0.0 
-8.471927327435e-01 -7.168671907102e+01 0.0 
0.0 0.0 -2.647816369155e+01 
-1.339553608518e+02 2.115544161307e+01 0.0 
2.115544161307e+01 -3.382573505951e+02 0.0 
0.0 0.0 -1.412638134341e+02 
-5.658089192719e+01 2.240527266133e+00 0.0 
2.240527266133e+00 -8.066577860162e+01 0.0 
0.0 0.0 -4.077400115864e+01 
-1.393414879252e+02 2.980843806961e+01 0.0 
2.980843806961e+01 -3.345671908329e+02 0.0 
0.0 0.0 -1.417726036274e+02 
-1.093377563147e+02 2.882772360502e+01 0.0 
2.882772360502e+01 -2.827842862872e+02 0.0 
0.0 0.0 -1.172366127806e+02 
-6.811903941346e+01 1.154289176254e+01 0.0 
1.154289176254e+01 -8.808569789023e+01 0.0 
0.0 0.0 -4.646142119110e+01 
-1.506843880797e+02 1.346940089266e+01 0.0 
1.346940089266e+01 -3.706355230932e+02 0.0 
0.0 0.0 -1.559959733519e+02 
-1.077935677606e+02 2.038249519659e+01 0.0 
2.038249519659e+01 -2.324303178773e+02 0.0 
0.0 0.0 -1.016671656914e+02 
-9.854175306427e+01 1.490907240258e+00 0.0 
1.490907240258e+00 -2.176062432218e+02 0.0 
0.0 0.0 -9.444439888583e+01 
-4.461786983742e+01 3.026205796512e+01 0.0 
3.026205796512e+01 -2.990282426216e+01 0.0 
0.0 0.0 -1.811723683391e+01 
-9.788877822335e+01 1.484815885824e+01 0.0 
1.484815885824e+01 -2.051100989633e+02 0.0 
0.0 0.0 -9.049966315601e+01 
-1.266442272822e+02 3.409437125775e+01 0.0 
3.409437125775e+01 -2.982714230846e+02 0.0 
0.0 0.0 -1.270746951101e+02 
-1.328532093322e+02 2.225324125860e+01 0.0 
2.225324125860e+01 -3.384789096546e+02 0.0 
0.0 0.0 -1.409996356960e+02 
-1.131069375837e+02 2.658924660857e+01 0.0 
2.658924660857e+01 -2.950575171379e+02 0.0 
0.0 0.0 -1.220493364165e+02 
-1.674435773048e+02 7.281765217190e+00 0.0 
7.281765217190e+00 -3.920350137113e+02 0.0 
0.0 0.0 -1.674435773048e+02 
-9.946775777102e+01 2.964220585336e+01 0.0 
2.964220585336e+01 -2.147466702479e+02 0.0 
0.0 0.0 -9.386432840567e+01 
-6.335196920392e+01 2.485536226522e+01 0.0 
2.485536226522e+01 -7.643417285376e+01 0.0 
0.0 0.0 -4.248758551783e+01 
-4.181721885222e+01 3.184770962578e+01 0.0 
3.184770962578e+01 -7.067100422990e+01 0.0 
0.0 0.0 -2.736538947020e+01 
-1.109173829262e+02 3.269605404754e+01 0.0 
3.269605404754e+01 -2.418138770326e+02 0.0 
0.0 0.0 -1.054193779876e+02 
-6.960741729866e+01 8.297844333177e+00 0.0 
8.297844333177e+00 -1.016432623486e+02 0.0 
0.0 0.0 -5.097520389417e+01 
-1.505153414542e+02 2.205255707111e+00 0.0 
2.205255707111e+00 -3.611192996261e+02 0.0 
0.0 0.0 -1.530903923241e+02 
-1.201326616862e+02 2.985232987912e+01 0.0 
2.985232987912e+01 -3.012749556052e+02 0.0 
0.0 0.0 -1.260222851874e+02 
-1.590219567766e+02 6.330832084462e+00 0.0 
6.330832084462e+00 -3.784696376118e+02 0.0 
0.0 0.0 -1.608474783165e+02 
-7.987514572785e+01 1.698952759240e+00 0.0 
1.698952759240e+00 -1.567817786279e+02 0.0 
0.0 0.0 -7.059707730672e+01 
-1.417645849768e+02 2.850887442507e+01 0.0 
2.850887442507e+01 -3.403416196578e+02 0.0 
0.0 0.0 -1.442318613904e+02 
-1.463237856275e+02 1.173751446675e+01 0.0 
1.173751446675e+01 -3.607348330461e+02 0.0 
0.0 0.0 -1.517175856021e+02 
-1.448179189702e+02 1.083344864987e+01 0.0 
1.083344864987e+01 -3.599746252960e+02 0.0 
0.0 0.0 -1.510377632798e+02 
-6.841759016259e+01 -2.229813541594e+00 0.0 
-2.229813541594e+00 -1.498927304970e+02 0.0 
0.0 0.0 -6.057999599191e+01 
-1.649970706223e+02 5.800415845626e+00 0.0 
5.800415845626e+00 -3.917257786253e+02 0.0 
0.0 0.0 -1.666168547743e+02 
-5.302078706440e+01 3.622875789445e+00 0.0 
3.622875789445e+00 -6.559434555630e+01 0.0 
0.0 0.0 -3.518453978621e+01 
-9.311272094353e+01 4.760755167886e+00 0.0 
4.760755167886e+00 -1.986232074070e+02 0.0 
0.0 0.0 -8.712077850515e+01 
-2.993361542317e+01 -7.532792014581e+00 0.0 
-7.532792014581e+00 -4.567976224615e+01 0.0 
0.0 0.0 -1.818520454161e+01 
-8.878379165668e+01 2.340609361953e+00 0.0 
2.340609361953e+00 -1.831094280313e+02 0.0 
0.0 0.0 -8.116796590640e+01 
-7.226284243376e+01 1.702578539559e+00 0.0 
1.702578539559e+00 -1.319387302742e+02 0.0 
0.0 0.0 -6.086047181239e+01 
-1.235034426948e+01 9.065893353633e-02 0.0 
9.065893353633e-02 -4.189861694449e+01 0.0 
0.0 0.0 -1.310591106285e+01 
-3.887877379540e+01 -1.426306025800e+01 0.0 
-1.426306025800e+01 -1.263466715098e+02 0.0 
0.0 0.0 -4.892297447495e+01 
-1.029711174466e+02 3.054544911419e+01 0.0 
3.054544911419e+01 -2.308711260086e+02 0.0 
0.0 0.0 -9.975267303658e+01 
-9.784881801382e+01 1.075008000344e+01 0.0 
1.075008000344e+01 -2.189468256237e+02 0.0 
0.0 0.0 -9.463869309126e+01 
-9.308145858765e+01 2.675226632149e+00 0.0 
2.675226632149e+00 -2.011878078078e+02 0.0 
0.0 0.0 -8.788077991863e+01 
-1.365223805600e+02 2.713707405220e+01 0.0 
2.713707405220e+01 -3.391742754709e+02 0.0 
0.0 0.0 -1.423089968093e+02 
-5.809730532971e+01 6.012140986505e-01 0.0 
6.012140986505e-01 -9.389350659887e+01 0.0 
0.0 0.0 -4.519724357857e+01 
-1.488087305933e+01 -3.874808572409e-01 0.0 
-3.874808572409e-01 -2.327050509145e+01 0.0 
0.0 0.0 -1.029752863739e+01 
-3.843387601069e+01 2.438996311087e+01 0.0 
2.438996311087e+01 -1.104305754100e+02 0.0 
0.0 0.0 -4.655078408551e+01 
-1.233163656672e+01 -1.587984387210e+00 0.0 
-1.587984387210e+00 -2.874927890325e+01 0.0 
0.0 0.0 -1.146275298313e+01 
-3.378457755723e+01 -7.342679971837e+00 0.0 
-7.342679971837e+00 -5.779760205833e+01 0.0 
0.0 0.0 -2.217856624189e+01 
-5.370471887628e+01 4.322242050711e+01 0.0 
4.322242050711e+01 -5.417399612041e+01 0.0 
0.0 0.0 -3.281406571369e+01 
-9.137043085622e+01 -3.240389291489e+00 0.0 
-3.240389291489e+00 -2.008757235275e+02 0.0 
0.0 0.0 -8.254477775729e+01 
-1.500938070259e+02 7.319874386826e-01 0.0 
7.319874386826e-01 -3.608939347488e+02 0.0 
0.0 0.0 -1.528963225324e+02 
-1.090857722712e+02 2.762545134352e+01 0.0 
2.762545134352e+01 -2.355621288130e+02 0.0 
0.0 0.0 -1.029943703253e+02 
-7.697831928483e+01 1.598060820751e+01 0.0 
1.598060820751e+01 -1.076812309370e+02 0.0 
0.0 0.0 -5.499786506655e+01 
-8.179248541885e+01 -3.739591985479e+00 0.0 
-3.739591985479e+00 -1.771931479313e+02 0.0 
0.0 0.0 -7.144842823724e+01 
-1.461856928224e+02 9.026895650059e+00 0.0 
9.026895650059e+00 -3.601304409541e+02 0.0 
0.0 0.0 -1.514948401329e+02 
-1.357444627562e+02 1.539845079257e+01 0.0 
1.539845079257e+01 -3.479402541212e+02 0.0 
0.0 0.0 -1.447054150632e+02 
-1.347038484101e+02 3.137822584465e+01 0.0 
3.137822584465e+01 -3.312433850820e+02 0.0 
0.0 0.0 -1.393841700477e+02 
-1.217881999636e+02 3.295293414291e+01 0.0 
3.295293414291e+01 -2.889637387784e+02 0.0 
0.0 0.0 -1.228255816226e+02 
-1.096641273873e+02 3.140913798120e+01 0.0 
3.140913798120e+01 -2.500887297347e+02 0.0 
0.0 0.0 -1.075258571366e+02 
-2.799802829470e+01 -7.581148625384e+00 0.0 
-7.581148625384e+00 -4.356832458822e+01 0.0 
0.0 0.0 -1.878723913532e+01 
-3.773460126339e+01 -2.104651639458e+01 0.0 
-2.104651639458e+01 -1.089413696608e+02 0.0 
0.0 0.0 -4.576524757344e+01 
-1.503915847620e+02 3.143914691642e+00 0.0 
3.143914691642e+00 -3.623821850231e+02 0.0 
0.0 0.0 -1.534321309355e+02 
-9.540340453786e+00 -4.222919782356e-01 0.0 
-4.222919782356e-01 -4.096088601467e+01 0.0 
0.0 0.0 -1.288648371858e+01 
-1.225646069874e+01 -1.098043142967e+00 0.0 
-1.098043142967e+00 -4.918572678562e+01 0.0 
0.0 0.0 -1.634334771257e+01 
-4.855285869572e+01 3.838962868298e+01 0.0 
3.838962868298e+01 -5.976483012783e+01 0.0 
0.0 0.0 -3.102264376345e+01 
-1.615676552638e+01 -4.056814778932e-01 0.0 
-4.056814778932e-01 -3.860070458207e+01 0.0 
0.0 0.0 -1.471952785954e+01 
-1.556171044301e+02 1.204560002056e+01 0.0 
1.204560002056e+01 -3.738909147850e+02 0.0 
0.0 0.0 -1.584524057645e+02 
-1.224381608023e+02 3.439356616928e+01 0.0 
3.439356616928e+01 -2.826773413325e+02 0.0 
0.0 0.0 -1.211346506405e+02 
-9.389984990712e+01 6.379971235910e+00 0.0 
6.379971235910e+00 -2.046271746155e+02 0.0 
0.0 0.0 -8.915810735680e+01 
-1.378096041508e+02 3.120504778870e+01 0.0 
3.120504778870e+01 -3.303932855572e+02 0.0 
0.0 0.0 -1.400608669124e+02 
-1.314114918391e+02 1.673039365469e+01 0.0 
1.673039365469e+01 -3.376759210103e+02 0.0 
0.0 0.0 -1.403262238548e+02 
-6.241393994732e+01 6.106848194012e-01 0.0 
6.106848194012e-01 -1.053981310572e+02 0.0 
0.0 0.0 -4.994362130137e+01 
-1.023432489227e+02 1.468627776063e+01 0.0 
1.468627776063e+01 -2.401342474864e+02 0.0 
0.0 0.0 -1.023432489227e+02 
-4.923521175215e+01 -1.990061928876e+01 0.0 
-1.990061928876e+01 -1.286789426624e+02 0.0 
0.0 0.0 -4.973699957730e+01 
-4.044973513238e+01 5.973404636436e-01 0.0 
5.973404636436e-01 -4.664769083397e+01 0.0 
0.0 0.0 -2.572922778991e+01 
-5.011515453079e+01 -2.293574333131e+01 0.0 
-2.293574333131e+01 -7.495417144962e+01 0.0 
0.0 0.0 -3.072489758533e+01 
-8.215248109528e+00 -1.090449268569e+00 0.0 
-1.090449268569e+00 -2.431668428067e+01 0.0 
0.0 0.0 -7.383847630809e+00 
-1.654891156922e+02 3.493960202350e+00 0.0 
3.493960202350e+00 -3.919203886881e+02 0.0 
0.0 0.0 -1.668228513141e+02 
-6.182265146375e+01 9.625465003093e+00 0.0 
9.625465003093e+00 -7.324191604081e+01 0.0 
0.0 0.0 -4.011937025137e+01 
-1.663990527724e+01 -8.132589309494e-01 0.0 
-8.132589309494e-01 -5.764333886351e+01 0.0 
0.0 0.0 -2.035373715443e+01 
-8.873213442613e+01 -3.043982136992e+00 0.0 
-3.043982136992e+00 -1.926233017137e+02 0.0 
0.0 0.0 -7.907998404650e+01 
-1.225751022334e+02 3.533243447448e+01 0.0 
3.533243447448e+01 -2.804528732948e+02 0.0 
0.0 0.0 -1.205083926584e+02 
-9.739944340778e+01 1.088537293308e+01 0.0 
1.088537293308e+01 -2.052462570220e+02 0.0 
0.0 0.0 -9.039371012894e+01 
-1.055891525051e+02 2.291707783969e+01 0.0 
2.291707783969e+01 -2.355645653865e+02 0.0 
0.0 0.0 -1.019461153675e+02 
-6.098492190946e+01 -9.670944238517e-01 0.0 
-9.670944238517e-01 -1.360967693858e+02 0.0 
0.0 0.0 -5.495292822307e+01 
-3.852790163088e+01 2.666884819736e+00 0.0 
2.666884819736e+00 -1.201668118764e+02 0.0 
0.0 0.0 -4.953824699567e+01 
-1.557420564461e+02 7.320431745272e+00 0.0 
7.320431745272e+00 -3.764159590757e+02 0.0 
0.0 0.0 -1.592474046565e+02 
-1.035032058603e+02 1.303153499425e+00 0.0 
1.303153499425e+00 -2.350140290096e+02 0.0 
0.0 0.0 -1.011551704610e+02 
-1.659973149249e+02 7.794811173950e-01 0.0 
7.794811173950e-01 -3.924686678835e+02 0.0 
0.0 0.0 -1.671397948425e+02 
-4.419445605176e+01 -4.194092228776e-01 0.0 
-4.194092228776e-01 -6.113543433171e+01 0.0 
0.0 0.0 -3.119896711504e+01 
-1.410590380042e+02 1.706343472199e+01 0.0 
1.706343472199e+01 -3.507406616276e+02 0.0 
0.0 0.0 -1.471399098896e+02 
-1.531862793131e+01 -1.201317182400e+00 0.0 
-1.201317182400e+00 -5.829657576157e+01 0.0 
0.0 0.0 -2.078607742829e+01 
-1.011422556361e+02 1.718001222628e+01 0.0 
1.718001222628e+01 -2.161960437043e+02 0.0 
0.0 0.0 -9.480148980211e+01 
-9.691562715133e+00 -7.872207521943e-01 0.0 
-7.872207521943e-01 -2.343519789031e+01 0.0 
0.0 0.0 -7.970692426979e+00 
-1.538403414115e+02 1.544873601074e+01 0.0 
1.544873601074e+01 -3.705565604031e+02 0.0 
0.0 0.0 -1.569190705444e+02 
-1.105992193776e+02 2.449274666057e+01 0.0 
2.449274666057e+01 -2.390519611959e+02 0.0 
0.0 0.0 -1.044953541720e+02 
-4.645032438262e+01 1.487109091346e+01 0.0 
1.487109091346e+01 -1.170433649978e+02 0.0 
0.0 0.0 -5.041438101788e+01 
-1.172178548448e+02 3.189562473210e+01 0.0 
3.189562473210e+01 -2.894915780654e+02 0.0 
0.0 0.0 -1.216128298731e+02 
-7.700065289861e+01 2.698569256175e+00 0.0 
2.698569256175e+00 -1.466707929855e+02 0.0 
0.0 0.0 -6.670143376522e+01 
-9.684512642007e+01 7.984780517453e+00 0.0 
7.984780517453e+00 -2.186815200125e+02 0.0 
0.0 0.0 -9.425799392977e+01 
-1.557091800764e+02 2.733134737205e+01 0.0 
2.733134737205e+01 -3.646547535115e+02 0.0 
0.0 0.0 -1.557091800764e+02 
-6.647133205980e+01 1.714173878420e+00 0.0 
1.714173878420e+00 -1.192127384525e+02 0.0 
0.0 0.0 -5.530522115369e+01 
-1.195959944644e+02 3.346200444646e+01 0.0 
3.346200444646e+01 -2.759119763536e+02 0.0 
0.0 0.0 -1.182523912454e+02 
-1.066945081115e+02 2.298765190248e+01 0.0 
2.298765190248e+01 -2.229076373309e+02 0.0 
0.0 0.0 -9.848064363274e+01 
-7.001720534028e+01 1.227833228400e+00 0.0 
1.227833228400e+00 -1.307343268465e+02 0.0 
0.0 0.0 -5.982545965602e+01 
-1.170285504848e+02 3.273478332418e+01 0.0 
3.273478332418e+01 -2.663247881373e+02 0.0 
0.0 0.0 -1.146060015866e+02 
-7.739305274140e+01 -2.252705240298e+00 0.0 
-2.252705240298e+00 -1.646211039588e+02 0.0 
0.0 0.0 -6.708894537344e+01 
-3.857582138780e+01 3.311614576064e-01 0.0 
3.311614576064e-01 -4.653555635945e+01 0.0 
0.0 0.0 -2.513341332418e+01 
-1.278006419616e+02 3.017717804251e+01 0.0 
3.017717804251e+01 -3.168059398479e+02 0.0 
0.0 0.0 -1.329819745428e+02 
-9.716188763855e+01 5.113319198436e-01 0.0 
5.113319198436e-01 -2.190724578406e+02 0.0 
0.0 0.0 -9.447030364374e+01 
-5.646693695468e+00 -4.914441566343e-02 0.0 
-4.914441566343e-02 -8.763092817013e+00 0.0 
0.0 0.0 -2.359697325020e+00 
-3.808082391984e+01 -1.792012627408e-01 0.0 
-1.792012627408e-01 -4.682608126313e+01 0.0 
0.0 0.0 -2.507207155489e+01 
-1.604064997650e+02 9.765225865574e-01 0.0 
9.765225865574e-01 -3.799502827542e+02 0.0 
0.0 0.0 -1.617070347558e+02 
-2.780620136159e+01 -5.020020072413e+00 0.0 
-5.020020072413e+00 -7.398949449683e+01 0.0 
0.0 0.0 -2.726852007713e+01 
-1.337223884600e+02 2.016453784712e+01 0.0 
2.016453784712e+01 -3.432683193508e+02 0.0 
0.0 0.0 -1.426972123432e+02 
-1.101476472479e+02 2.662293418145e+01 0.0 
2.662293418145e+01 -2.290962123010e+02 0.0 
0.0 0.0 -1.013731578647e+02 
-9.982700448459e+01 7.756042094008e+00 0.0 
7.756042094008e+00 -2.185942791908e+02 0.0 
0.0 0.0 -9.512638510261e+01 
-2.048099547138e+01 -3.175316899562e+00 0.0 
-3.175316899562e+00 -7.083122157009e+01 0.0 
0.0 0.0 -2.620586069874e+01 
-4.756080420241e+01 3.629135929570e+01 0.0 
3.629135929570e+01 -8.628385317700e+01 0.0 
0.0 0.0 -3.812164142772e+01 
-1.042378428703e+02 -1.412541182433e+00 0.0 
-1.412541182433e+00 -2.350807753911e+02 0.0 
0.0 0.0 -9.745334898765e+01 
-8.251581426539e+01 1.186417846753e+00 0.0 
1.186417846753e+00 -1.683070287763e+02 0.0 
0.0 0.0 -7.484685291252e+01 
-1.398009159037e+02 -3.360035883724e+00 0.0 
-3.360035883724e+00 -9.571449602996e+01 0.0 
0.0 0.0 -7.087900809291e+01 
-1.027877166500e+02 1.911716862932e+01 0.0 
1.911716862932e+01 -2.297816393164e+02 0.0 
0.0 0.0 -9.937080678992e+01 
-6.365141765048e+01 6.957862577457e-01 0.0 
6.957862577457e-01 -1.128723099161e+02 0.0 
0.0 0.0 -5.255711826997e+01 
-5.052983447167e+01 -2.178698202772e+01 0.0 
-2.178698202772e+01 -9.304608605704e+01 0.0 
0.0 0.0 -3.755890202477e+01 
-5.897223270285e+01 8.620539506097e-01 0.0 
8.620539506097e-01 -9.890444139784e+01 0.0 
0.0 0.0 -4.696300223020e+01 
-1.334868096243e+02 3.372715293338e+01 0.0 
3.372715293338e+01 -3.238079668529e+02 0.0 
0.0 0.0 -1.367884329432e+02 
-1.078958798987e+02 8.099912540962e-01 0.0 
8.099912540962e-01 -2.462575530588e+02 0.0 
0.0 0.0 -1.023732852934e+02 
-5.155423387010e+01 3.577589854637e+01 0.0 
3.577589854637e+01 -3.403824768718e+01 0.0 
0.0 0.0 -2.656821368864e+01 
-7.080788505768e+01 -4.213942303142e+00 0.0 
-4.213942303142e+00 -1.487690518200e+02 0.0 
0.0 0.0 -5.977253621669e+01 
-9.657927922041e+01 -2.765543188086e+00 0.0 
-2.765543188086e+00 -2.162613152691e+02 0.0 
0.0 0.0 -8.916298680916e+01 
-1.110142463067e+02 -1.404695857953e+00 0.0 
-1.404695857953e+00 -2.555953515094e+02 0.0 
0.0 0.0 -1.065377256190e+02 
-1.319827478799e+02 2.847280831287e+01 0.0 
2.847280831287e+01 -3.270105210697e+02 0.0 
0.0 0.0 -1.372979806849e+02 
-9.652696660802e+01 -7.298769478115e-01 0.0 
-7.298769478115e-01 -2.107234017621e+02 0.0 
0.0 0.0 -8.700222960746e+01 
-9.999295986489e+01 -1.792330850103e+00 0.0 
-1.792330850103e+00 -2.234897729125e+02 0.0 
0.0 0.0 -9.254921927302e+01 
-1.360114859916e+01 -1.542650895391e+00 0.0 
-1.542650895391e+00 -3.752552446640e+01 0.0 
0.0 0.0 -1.383408608759e+01 
-1.500259559070e+02 5.219256277072e+00 0.0 
5.219256277072e+00 -3.653237763056e+02 0.0 
0.0 0.0 -1.542049196638e+02 
-1.147865476252e+02 3.212135053462e+01 0.0 
3.212135053462e+01 -2.763098917405e+02 0.0 
0.0 0.0 -1.169289318097e+02 
-4.423819028972e+01 3.172843549594e+01 0.0 
3.172843549594e+01 -1.020182304778e+02 0.0 
0.0 0.0 -4.259367540784e+01 
-9.641976701784e+01 1.486846596161e+00 0.0 
1.486846596161e+00 -2.181533990296e+02 0.0 
0.0 0.0 -9.397194981423e+01 
-1.603918253277e+02 -3.038583629387e-02 0.0 
-3.038583629387e-02 -3.795127701187e+02 0.0 
0.0 0.0 -1.615713786339e+02 
-4.478097639328e+01 7.173007734840e-01 0.0 
7.173007734840e-01 -6.222401791026e+01 0.0 
0.0 0.0 -3.170149829106e+01 
-6.453828927434e+01 6.009804249636e-01 0.0 
6.009804249636e-01 -1.132453385506e+02 0.0 
0.0 0.0 -5.293508834748e+01 
-9.523608246846e+01 -2.497719601154e+00 0.0 
-2.497719601154e+00 -2.103932949987e+02 0.0 
0.0 0.0 -8.686578423990e+01 
-9.917293769195e+01 -1.499959625517e+00 0.0 
-1.499959625517e+00 -2.176767956536e+02 0.0 
0.0 0.0 -9.006223548009e+01 
-1.002340401225e+02 -1.003887622862e+00 0.0 
-1.003887622862e+00 -2.241566315428e+02 0.0 
0.0 0.0 -9.273182906725e+01 
-1.276563961025e+02 1.912335168247e+01 0.0 
1.912335168247e+01 -3.312315934018e+02 0.0 
0.0 0.0 -1.372663968513e+02 
-4.138012392969e+01 -1.659974834741e+01 0.0 
-1.659974834741e+01 -6.881197508913e+01 0.0 
0.0 0.0 -2.551249912280e+01 
-1.197396385983e+02 3.504912364623e+01 0.0 
3.504912364623e+01 -2.825661881141e+02 0.0 
0.0 0.0 -1.202917480137e+02 
-5.108534500081e+01 1.769006336434e-01 0.0 
1.769006336434e-01 -7.892282512939e+01 0.0 
0.0 0.0 -3.860245103906e+01 
-1.070347474429e+02 1.881588782400e+01 0.0 
1.881588782400e+01 -2.290712528770e+02 0.0 
0.0 0.0 -1.004318000960e+02 
-1.297494702097e+02 1.962885277384e+01 0.0 
1.962885277384e+01 -3.320319643804e+02 0.0 
0.0 0.0 -1.381344303770e+02 
-6.097457080358e+01 1.519274417734e+00 0.0 
1.519274417734e+00 -1.001260679371e+02 0.0 
0.0 0.0 -4.793019162220e+01 
-1.119533589127e+02 3.160889947398e+01 0.0 
3.160889947398e+01 -2.528680265991e+02 0.0 
0.0 0.0 -1.090464156535e+02 
-1.304296854692e+02 2.722069257868e+01 0.0 
2.722069257868e+01 -3.257418481157e+02 0.0 
0.0 0.0 -1.364514600755e+02 
-1.364300363641e+02 3.057618638455e+01 0.0 
3.057618638455e+01 -3.360833443499e+02 0.0 
0.0 0.0 -1.413540142142e+02 
-5.345356301967e+01 4.479193742167e+01 0.0 
4.479193742167e+01 -7.256754639877e+01 0.0 
0.0 0.0 -3.903224529856e+01 
-1.134636659345e+02 3.318141172930e+01 0.0 
3.318141172930e+01 -2.537610317162e+02 0.0 
0.0 0.0 -1.097674092952e+02 
-1.172305170599e+02 3.338132857011e+01 0.0 
3.338132857011e+01 -2.689715853180e+02 0.0 
0.0 0.0 -1.154606307134e+02 
-1.600204175793e+01 -5.163181567997e-01 0.0 
-5.163181567997e-01 -3.780027163459e+01 0.0 
0.0 0.0 -1.397030201097e+01 
-9.289087867886e+01 -1.770784014784e+00 0.0 
-1.770784014784e+00 -2.006310232996e+02 0.0 
0.0 0.0 -8.262200726746e+01 
-5.582058114895e+01 4.263687290075e+01 0.0 
4.263687290075e+01 -6.478050184140e+01 0.0 
0.0 0.0 -3.723417771587e+01 
-1.174683171979e+02 3.426635708236e+01 0.0 
3.426635708236e+01 -2.622349775157e+02 0.0 
0.0 0.0 -1.135109884141e+02 
-2.345698723071e+01 4.930153055640e-01 0.0 
4.930153055640e-01 -1.148936453734e+01 0.0 
0.0 0.0 -1.008390553041e+01 
-2.254536901175e+01 -6.949595439607e-02 0.0 
-6.949595439607e-02 -9.722978559851e+00 0.0 
0.0 0.0 -9.280504271481e+00 
-2.288873777242e+01 1.440121741541e-01 0.0 
1.440121741541e-01 -9.833228248229e+00 0.0 
0.0 0.0 -9.416589806195e+00 
-2.262368434519e+01 4.473004362169e-02 0.0 
4.473004362169e-02 -9.597279276779e+00 0.0 
0.0 0.0 -9.266289086592e+00 
-2.286869339562e+01 -1.802468394709e-02 0.0 
-1.802468394709e-02 -9.716594275023e+00 0.0 
0.0 0.0 -9.375586301193e+00 
-2.263927333041e+01 -6.544782127449e-02 0.0 
-6.544782127449e-02 -9.657670985588e+00 0.0 
0.0 0.0 -9.289083294798e+00 
-2.289446022890e+01 -1.492582626074e-02 0.0 
-1.492582626074e-02 -9.747052811175e+00 0.0 
0.0 0.0 -9.392453912023e+00 
-2.255224143344e+01 -1.006195184466e-01 0.0 
-1.006195184466e-01 -9.592257992812e+00 0.0 
0.0 0.0 -9.243349827875e+00 
-2.306037411939e+01 -3.878669458543e-02 0.0 
-3.878669458543e-02 -9.774751361146e+00 0.0 
0.0 0.0 -9.450537644160e+00 
-2.239871477313e+01 -1.703299157866e-01 0.0 
-1.703299157866e-01 -9.571261630893e+00 0.0 
0.0 0.0 -9.190992921206e+00 
-2.314379728930e+01 -5.184766686307e-02 0.0 
-5.184766686307e-02 -9.810838008270e+00 0.0 
0.0 0.0 -9.486390589272e+00 
-2.215987947106e+01 -2.343128031775e-01 0.0 
-2.343128031775e-01 -9.515943127850e+00 0.0 
0.0 0.0 -9.102746779672e+00 
-2.334488964059e+01 -5.312112910133e-02 0.0 
-5.312112910133e-02 -9.873486792078e+00 0.0 
0.0 0.0 -9.565512929802e+00 
-3.594609094217e+01 6.327649148951e+00 0.0 
6.327649148951e+00 -1.354028112785e+01 0.0 
0.0 0.0 -1.264388690912e+01 
-2.185524233436e+01 -2.847774627521e-01 0.0 
-2.847774627521e-01 -9.508584123546e+00 0.0 
0.0 0.0 -9.009147937371e+00 
-2.354207124112e+01 1.391239649351e-02 0.0 
1.391239649351e-02 -9.947742410410e+00 0.0 
0.0 0.0 -9.646944095459e+00 
-2.574276086166e+01 2.153196248444e+00 0.0 
2.153196248444e+00 -5.639847639906e+00 0.0 
0.0 0.0 -7.519439022288e+00 
-2.156797103098e+01 -3.135688186511e-01 0.0 
-3.135688186511e-01 -9.340267460314e+00 0.0 
0.0 0.0 -8.872471547388e+00 
-2.393292038228e+01 -5.012773688433e-02 0.0 
-5.012773688433e-02 -1.000894610094e+01 0.0 
0.0 0.0 -9.782559944964e+00 
-4.006637447616e+01 4.332264322894e+00 0.0 
4.332264322894e+00 -1.129784711042e+01 0.0 
0.0 0.0 -1.332341982079e+01 
-2.116309849175e+01 -4.272230550665e-01 0.0 
-4.272230550665e-01 -9.287384811870e+00 0.0 
0.0 0.0 -8.735144991087e+00 
-2.441819751439e+01 -6.142111123375e-02 0.0 
-6.142111123375e-02 -1.012448194737e+01 0.0 
0.0 0.0 -9.962803838528e+00 
-2.064903526146e+01 -4.725363488574e-01 0.0 
-4.725363488574e-01 -9.272200750828e+00 0.0 
0.0 0.0 -8.576370803687e+00 
-2.568450321848e+01 1.028758723962e-02 0.0 
1.028758723962e-02 -1.024088083789e+01 0.0 
0.0 0.0 -1.012513607152e+01 
-2.018301308078e+01 -4.429923748203e-01 0.0 
-4.429923748203e-01 -9.194567516156e+00 0.0 
0.0 0.0 -8.413274179081e+00 
-4.836682162424e+01 1.110974315794e+01 0.0 
1.110974315794e+01 -1.327418252016e+01 0.0 
0.0 0.0 -1.624853715687e+01 
-2.740298592694e+01 1.363867385956e-01 0.0 
1.363867385956e-01 -1.039092687035e+01 0.0 
0.0 0.0 -1.042135513306e+01 
-1.990553431220e+01 -3.222467891206e-01 0.0 
-3.222467891206e-01 -9.189559833309e+00 0.0 
0.0 0.0 -8.328528243653e+00 
-2.010254647885e+01 3.074996948209e-02 0.0 
3.074996948209e-02 -9.385094157013e+00 0.0 
0.0 0.0 -8.446292190760e+00 
-2.957449113815e+01 3.950029292794e-01 0.0 
3.950029292794e-01 -1.055060045732e+01 0.0 
0.0 0.0 -1.079925534090e+01 
-2.136514875889e+01 6.749042686313e-01 0.0 
6.749042686313e-01 -9.351310442639e+00 0.0 
0.0 0.0 -8.476061995384e+00 
-3.248192814440e+01 9.754519425339e-01 0.0 
9.754519425339e-01 -1.074150625416e+01 0.0 
0.0 0.0 -1.130349275158e+01 
-2.437490389938e+01 2.289834222838e+00 0.0 
2.289834222838e+00 -1.090681949866e+01 0.0 
0.0 0.0 -9.346131840671e+00 
-3.461703388992e+01 1.602155942694e+00 0.0 
1.602155942694e+00 -1.100798812278e+01 0.0 
0.0 0.0 -1.195773500109e+01 
-4.001901147202e+01 4.380802055416e+00 0.0 
4.380802055416e+00 5.321333703562e-01 0.0 
0.0 0.0 -8.803786483008e+00 
-2.384107161217e+01 1.439120606016e+00 0.0 
1.439120606016e+00 -9.352500774567e+00 0.0 
0.0 0.0 -9.558071716021e+00 
-2.345476735704e+01 -1.345437796762e+00 0.0 
-1.345437796762e+00 -1.164296388534e+01 0.0 
0.0 0.0 -1.012931937271e+01 
-2.181060386579e+01 1.879058232168e-01 0.0 
1.879058232168e-01 -5.281896372430e+00 0.0 
0.0 0.0 -7.727750071464e+00 
-2.536022325365e+01 -1.636396633037e-01 0.0 
-1.636396633037e-01 -1.549837960863e+01 0.0 
0.0 0.0 -1.185758085868e+01 
-5.409078571319e+01 1.213059652045e+01 0.0 
1.213059652045e+01 -1.198886974935e+01 0.0 
0.0 0.0 -1.713115971701e+01 
-3.059692021198e+01 4.208963287464e-01 0.0 
4.208963287464e-01 -2.814920816029e+01 0.0 
0.0 0.0 -1.722383851168e+01 
-3.123744087269e+01 5.088886298482e-02 0.0 
5.088886298482e-02 -2.928096832177e+01 0.0 
0.0 0.0 -1.775552275834e+01 
-3.122270864806e+01 7.741089772648e-02 0.0 
7.741089772648e-02 -2.927916029139e+01 0.0 
0.0 0.0 -1.775056068183e+01 
-3.112699441397e+01 7.786377274042e-02 0.0 
7.786377274042e-02 -2.933721098897e+01 0.0 
0.0 0.0 -1.773926162088e+01 
-3.130270314842e+01 1.680731484635e-02 0.0 
1.680731484635e-02 -2.939595036490e+01 0.0 
0.0 0.0 -1.780959605400e+01 
-3.138837742478e+01 -3.363552117857e-02 0.0 
-3.363552117857e-02 -2.954179686050e+01 0.0 
0.0 0.0 -1.787905228559e+01 
-3.139645807754e+01 8.430264690335e-02 0.0 
8.430264690335e-02 -2.958504779134e+01 0.0 
0.0 0.0 -1.789445176066e+01 
-3.176946130540e+01 5.910914641868e-02 0.0 
5.910914641868e-02 -2.951223777533e+01 0.0 
0.0 0.0 -1.798450972422e+01 
-3.145973432056e+01 3.138387830238e-02 0.0 
3.138387830238e-02 -2.937325849721e+01 0.0 
0.0 0.0 -1.784989784533e+01 
-3.198007853193e+01 -8.224155050426e-02 0.0 
-8.224155050426e-02 -2.956704470925e+01 0.0 
0.0 0.0 -1.806413697235e+01 
-3.157523025823e+01 7.472242104954e-02 0.0 
7.472242104954e-02 -2.948418160242e+01 0.0 
0.0 0.0 -1.791782355819e+01 
-3.241049817657e+01 -3.852249303945e-02 0.0 
-3.852249303945e-02 -2.960501370659e+01 0.0 
0.0 0.0 -1.820465356495e+01 
-4.422038260442e+01 6.937556141210e+00 0.0 
6.937556141210e+00 -3.473257685296e+01 0.0 
0.0 0.0 -2.258210868761e+01 
-3.172807558084e+01 1.244784801267e-01 0.0 
1.244784801267e-01 -2.943425398599e+01 0.0 
0.0 0.0 -1.794869887005e+01 
-4.539833254341e+01 4.349873544802e+00 0.0 
4.349873544802e+00 -3.133191667076e+01 0.0 
0.0 0.0 -2.180134250198e+01 
-3.321024394347e+01 -9.168486053205e-02 0.0 
-9.168486053205e-02 -2.975554472651e+01 0.0 
0.0 0.0 -1.848973660099e+01 
-3.190827977173e+01 2.148232432013e-01 0.0 
2.148232432013e-01 -2.946889564850e+01 0.0 
0.0 0.0 -1.801315262607e+01 
-3.342458147596e+01 8.383033249295e-02 0.0 
8.383033249295e-02 -2.960587390713e+01 0.0 
0.0 0.0 -1.850913661493e+01 
-3.221489885650e+01 3.079998368042e-01 0.0 
3.079998368042e-01 -2.933356254080e+01 0.0 
0.0 0.0 -1.806453841919e+01 
-3.431718109703e+01 8.370058725843e-02 0.0 
8.370058725843e-02 -2.972244949342e+01 0.0 
0.0 0.0 -1.881188917713e+01 
-3.276258978502e+01 5.701598478369e-01 0.0 
5.701598478369e-01 -2.959473057884e+01 0.0 
0.0 0.0 -1.830719610916e+01 
-3.546632686787e+01 3.974837234506e-01 0.0 
3.974837234506e-01 -2.991222118113e+01 0.0 
0.0 0.0 -1.921356441470e+01 
-3.874695413135e+01 4.952082609380e+00 0.0 
4.952082609380e+00 -2.788830213023e+01 0.0 
0.0 0.0 -1.919895166681e+01 
-3.319609777273e+01 1.005613654136e+00 0.0 
1.005613654136e+00 -2.973089648453e+01 0.0 
0.0 0.0 -1.847809827718e+01 
-3.683661484553e+01 8.933869948723e-01 0.0 
8.933869948723e-01 -3.002760615092e+01 0.0 
0.0 0.0 -1.965926629893e+01 
-3.400144903152e+01 1.537571004375e+00 0.0 
1.537571004375e+00 -2.980332855457e+01 0.0 
0.0 0.0 -1.874143327583e+01 
-3.892143745303e+01 1.466770588866e+00 0.0 
1.466770588866e+00 -3.024540960155e+01 0.0 
0.0 0.0 -2.021262359261e+01 
-4.177801716436e+01 2.527841910144e+00 0.0 
2.527841910144e+00 -3.067340430200e+01 0.0 
0.0 0.0 -2.088533151402e+01 
-3.526886004022e+01 2.359120401117e+00 0.0 
2.359120401117e+00 -3.034449633982e+01 0.0 
0.0 0.0 -1.928400691401e+01 
-3.713442605560e+01 3.704265080464e+00 0.0 
3.704265080464e+00 -3.139134805179e+01 0.0 
0.0 0.0 -2.015773223222e+01 
-4.960907171034e+01 8.107844585753e+00 0.0 
8.107844585753e+00 -3.550637274168e+01 0.0 
0.0 0.0 -2.451987472954e+01 
-4.493787666461e+01 5.811938549209e+00 0.0 
5.811938549209e+00 -2.421303772147e+01 0.0 
0.0 0.0 -1.942458561867e+01 
-3.061559286652e+01 1.255784634962e+00 0.0 
1.255784634962e+00 -2.951830641997e+01 0.0 
0.0 0.0 -1.764016978595e+01 
-3.085504910244e+01 -1.566537971690e+00 0.0 
-1.566537971690e+00 -2.809257925271e+01 0.0 
0.0 0.0 -1.728428850654e+01 
-3.265440918533e+01 -8.467848376425e-02 0.0 
-8.467848376425e-02 -3.399679565939e+01 0.0 
0.0 0.0 -1.959536145342e+01 
-2.892036500308e+01 -2.864861363104e-01 0.0 
-2.864861363104e-01 -2.380537702397e+01 0.0 
0.0 0.0 -1.541772260812e+01 
-4.546206389987e+01 9.410714673058e+00 0.0 
9.410714673058e+00 -2.913317067553e+01 0.0 
0.0 0.0 -2.097348025432e+01 

TENSORS element_materi_strain_total float
-1.206760240767e-03 3.879134425701e-03 0.0 
3.879134425701e-03 5.414417816834e-03 0.0 
0.0 0.0 0.0 
-1.120148658533e-03 3.566780035534e-03 0.0 
3.566780035534e-03 5.192640439494e-03 0.0 
0.0 0.0 0.0 
-4.059047737540e-04 4.087149504948e-03 0.0 
4.087149504948e-03 1.207041958016e-02 0.0 
0.0 0.0 0.0 
-6.127510527075e-04 4.350410709530e-04 0.0 
4.350410709530e-04 1.537899335913e-02 0.0 
0.0 0.0 0.0 
-2.104897152138e-03 3.710900006857e-04 0.0 
3.710900006857e-04 1.341610134950e-02 0.0 
0.0 0.0 0.0 
1.186494169598e-03 3.628480170354e-03 0.0 
3.628480170354e-03 -3.237321231986e-03 0.0 
0.0 0.0 0.0 
-1.961907745772e-03 2.633454191153e-04 0.0 
2.633454191153e-04 1.342671866516e-02 0.0 
0.0 0.0 0.0 
-1.044717370956e-03 3.956277561954e-03 0.0 
3.956277561954e-03 4.599348971821e-03 0.0 
0.0 0.0 0.0 
-2.106093524521e-03 2.346326280184e-04 0.0 
2.346326280184e-04 1.343019206908e-02 0.0 
0.0 0.0 0.0 
-5.913073080834e-04 7.676172900688e-04 0.0 
7.676172900688e-04 1.532972575441e-02 0.0 
0.0 0.0 0.0 
-9.403210585611e-04 -3.246579103369e-04 0.0 
-3.246579103369e-04 4.121544511397e-03 0.0 
0.0 0.0 0.0 
-1.036602276031e-03 3.503774739747e-03 0.0 
3.503774739747e-03 4.474650378786e-03 0.0 
0.0 0.0 0.0 
-2.878048093407e-04 -1.709228231170e-04 0.0 
-1.709228231170e-04 5.690126635256e-03 0.0 
0.0 0.0 0.0 
-2.424387957638e-03 1.019667095327e-03 0.0 
1.019667095327e-03 1.356191234646e-02 0.0 
0.0 0.0 0.0 
-1.628783376604e-04 -2.734998072708e-04 0.0 
-2.734998072708e-04 5.732776529693e-03 0.0 
0.0 0.0 0.0 
-3.648135613081e-04 6.267898303073e-04 0.0 
6.267898303073e-04 1.541197951277e-02 0.0 
0.0 0.0 0.0 
-2.329669299386e-03 5.098660179788e-04 0.0 
5.098660179788e-04 1.328629020442e-02 0.0 
0.0 0.0 0.0 
1.302393733848e-03 1.688412131437e-03 0.0 
1.688412131437e-03 -3.720282488331e-03 0.0 
0.0 0.0 0.0 
4.159443688545e-04 -1.612899137775e-04 0.0 
-1.612899137775e-04 1.233186944817e-03 0.0 
0.0 0.0 0.0 
-6.644019769997e-05 -2.744595550624e-04 0.0 
-2.744595550624e-04 1.480409839290e-03 0.0 
0.0 0.0 0.0 
-7.208003872038e-04 7.642519520535e-04 0.0 
7.642519520535e-04 1.533120885249e-02 0.0 
0.0 0.0 0.0 
-1.394987088816e-03 3.541812933976e-03 0.0 
3.541812933976e-03 6.662723918863e-03 0.0 
0.0 0.0 0.0 
-1.592657624101e-03 3.810727768815e-03 0.0 
3.810727768815e-03 7.200427884136e-03 0.0 
0.0 0.0 0.0 
1.414876135042e-03 9.021322655150e-04 0.0 
9.021322655150e-04 2.836894875232e-03 0.0 
0.0 0.0 0.0 
-2.442496053564e-03 1.679073574861e-03 0.0 
1.679073574861e-03 1.350230133152e-02 0.0 
0.0 0.0 0.0 
-9.178974582548e-04 -3.645678044095e-04 0.0 
-3.645678044095e-04 4.159615321274e-03 0.0 
0.0 0.0 0.0 
-2.831797159444e-03 1.275407290142e-03 0.0 
1.275407290142e-03 1.270139744496e-02 0.0 
0.0 0.0 0.0 
6.005233630799e-04 4.517838488546e-03 0.0 
4.517838488546e-03 7.097216803108e-03 0.0 
0.0 0.0 0.0 
-2.720157920368e-03 1.871882202723e-03 0.0 
1.871882202723e-03 1.348623430742e-02 0.0 
0.0 0.0 0.0 
1.185801151721e-03 8.177909901297e-04 0.0 
8.177909901297e-04 3.273844251271e-03 0.0 
0.0 0.0 0.0 
1.556944715412e-03 -3.277727631130e-03 0.0 
-3.277727631130e-03 -2.653439577668e-03 0.0 
0.0 0.0 0.0 
1.597215724958e-04 -4.909160464653e-04 0.0 
-4.909160464653e-04 3.164947041765e-04 0.0 
0.0 0.0 0.0 
-6.997009989342e-04 4.234788887871e-03 0.0 
4.234788887871e-03 1.229855003096e-02 0.0 
0.0 0.0 0.0 
-6.554376528285e-04 -1.138306784819e-04 0.0 
-1.138306784819e-04 4.960946247760e-03 0.0 
0.0 0.0 0.0 
4.174170031508e-04 -3.260705292500e-04 0.0 
-3.260705292500e-04 4.243884340661e-03 0.0 
0.0 0.0 0.0 
-3.706348495613e-05 -4.242163525719e-04 0.0 
-4.242163525719e-04 5.440402004427e-03 0.0 
0.0 0.0 0.0 
2.252113981482e-05 -5.363048120374e-04 0.0 
-5.363048120374e-04 5.433433093703e-03 0.0 
0.0 0.0 0.0 
1.130324923355e-03 2.682063048195e-03 0.0 
2.682063048195e-03 4.098962468798e-03 0.0 
0.0 0.0 0.0 
-1.980866857600e-03 5.180508090905e-05 0.0 
5.180508090905e-05 1.302688652577e-02 0.0 
0.0 0.0 0.0 
-1.896591980395e-03 1.353254149367e-04 0.0 
1.353254149367e-04 1.304000658086e-02 0.0 
0.0 0.0 0.0 
-2.218804106314e-03 3.664323037378e-03 0.0 
3.664323037378e-03 9.174338210509e-03 0.0 
0.0 0.0 0.0 
4.131747769027e-04 7.245217614770e-05 0.0 
7.245217614770e-05 4.056393711348e-03 0.0 
0.0 0.0 0.0 
-9.064304697970e-04 3.778587616113e-03 0.0 
3.778587616113e-03 3.196500012293e-03 0.0 
0.0 0.0 0.0 
-2.945389631261e-03 1.298590530682e-03 0.0 
1.298590530682e-03 1.279102058840e-02 0.0 
0.0 0.0 0.0 
-8.212782003267e-04 1.509404720914e-04 0.0 
1.509404720914e-04 1.529215734284e-02 0.0 
0.0 0.0 0.0 
-9.437152858113e-04 3.721619115636e-03 0.0 
3.721619115636e-03 3.191388035669e-03 0.0 
0.0 0.0 0.0 
1.546488791902e-03 -3.378627278315e-03 0.0 
-3.378627278315e-03 -3.341898484402e-03 0.0 
0.0 0.0 0.0 
-5.661569126306e-04 2.610183775314e-04 0.0 
2.610183775314e-04 1.529200295847e-02 0.0 
0.0 0.0 0.0 
-4.172351826465e-04 -2.747537697272e-03 0.0 
-2.747537697272e-03 -1.188388825586e-03 0.0 
0.0 0.0 0.0 
-2.603143268852e-03 8.610487710924e-04 0.0 
8.610487710924e-04 1.350373570381e-02 0.0 
0.0 0.0 0.0 
-1.854039617048e-03 3.810601003409e-03 0.0 
3.810601003409e-03 8.108312383480e-03 0.0 
0.0 0.0 0.0 
-9.630282660955e-05 -1.750384126822e-04 0.0 
-1.750384126822e-04 1.807091292956e-03 0.0 
0.0 0.0 0.0 
3.152266377120e-03 -2.882199050700e-03 0.0 
-2.882199050700e-03 -3.629950043086e-03 0.0 
0.0 0.0 0.0 
-1.940027919431e-03 3.410094579811e-03 0.0 
3.410094579811e-03 8.399249791532e-03 0.0 
0.0 0.0 0.0 
-5.327101208021e-04 3.323612894202e-03 0.0 
3.323612894202e-03 1.363889799863e-02 0.0 
0.0 0.0 0.0 
-7.332062926042e-04 -5.262926417514e-04 0.0 
-5.262926417514e-04 2.417665302262e-03 0.0 
0.0 0.0 0.0 
-4.836022613965e-04 -3.053537845595e-04 0.0 
-3.053537845595e-04 1.979864915900e-03 0.0 
0.0 0.0 0.0 
-6.318048040942e-04 -1.590565586460e-04 0.0 
-1.590565586460e-04 4.959696793158e-03 0.0 
0.0 0.0 0.0 
7.643633831806e-04 -4.607152472277e-04 0.0 
-4.607152472277e-04 6.892265976293e-04 0.0 
0.0 0.0 0.0 
-4.304300949391e-04 6.166171455635e-04 0.0 
6.166171455635e-04 1.541212766355e-02 0.0 
0.0 0.0 0.0 
-1.311811991983e-03 -2.178125110814e-03 0.0 
-2.178125110814e-03 -3.060246966778e-03 0.0 
0.0 0.0 0.0 
1.276031967058e-03 3.753023682558e-03 0.0 
3.753023682558e-03 4.944144317867e-03 0.0 
0.0 0.0 0.0 
4.454315341356e-04 4.301706035829e-03 0.0 
4.301706035829e-03 3.420853685399e-03 0.0 
0.0 0.0 0.0 
3.063281222838e-03 -2.913762448588e-03 0.0 
-2.913762448588e-03 -3.137156126400e-03 0.0 
0.0 0.0 0.0 
-2.243173035062e-04 -3.607713214261e-04 0.0 
-3.607713214261e-04 5.507079362248e-03 0.0 
0.0 0.0 0.0 
-1.648834041057e-03 3.469976482240e-03 0.0 
3.469976482240e-03 7.507148256814e-03 0.0 
0.0 0.0 0.0 
3.259811257783e-04 -7.345558353430e-04 0.0 
-7.345558353430e-04 -4.828433147337e-03 0.0 
0.0 0.0 0.0 
-6.723344312122e-04 4.398581296575e-03 0.0 
4.398581296575e-03 1.183235105027e-02 0.0 
0.0 0.0 0.0 
-1.961764974723e-05 -2.302610996272e-03 0.0 
-2.302610996272e-03 4.888768222191e-04 0.0 
0.0 0.0 0.0 
-2.397919721653e-05 4.562761533342e-03 0.0 
4.562761533342e-03 9.517822100112e-03 0.0 
0.0 0.0 0.0 
-7.774576624539e-04 -5.059155976432e-04 0.0 
-5.059155976432e-04 4.185992289121e-03 0.0 
0.0 0.0 0.0 
0.0 2.267127874502e-03 0.0 
2.267127874502e-03 1.485652387666e-02 0.0 
0.0 0.0 0.0 
5.533727235159e-04 4.167088073562e-03 0.0 
4.167088073562e-03 6.658935210891e-03 0.0 
0.0 0.0 0.0 
1.700346203346e-03 -1.008349680845e-04 0.0 
-1.008349680845e-04 -2.457021167191e-04 0.0 
0.0 0.0 0.0 
-9.263176958981e-04 -5.759268290208e-04 0.0 
-5.759268290208e-04 2.610456239841e-03 0.0 
0.0 0.0 0.0 
-7.993576383707e-04 1.682450611108e-03 0.0 
1.682450611108e-03 1.508011529494e-02 0.0 
0.0 0.0 0.0 
-8.903758313927e-04 3.612155272469e-03 0.0 
3.612155272469e-03 1.341173594140e-02 0.0 
0.0 0.0 0.0 
-8.704129107495e-04 3.812056208805e-03 0.0 
3.812056208805e-03 1.931752315382e-03 0.0 
0.0 0.0 0.0 
2.847162350654e-04 -4.397519746023e-04 0.0 
-4.397519746023e-04 9.121587900001e-04 0.0 
0.0 0.0 0.0 
-8.270741491164e-04 3.909671871336e-03 0.0 
3.909671871336e-03 1.935869596660e-03 0.0 
0.0 0.0 0.0 
-8.492860460341e-05 -2.554015239980e-03 0.0 
-2.554015239980e-03 5.279801893696e-04 0.0 
0.0 0.0 0.0 
-2.286760551478e-03 4.416276697151e-04 0.0 
4.416276697151e-04 1.334779649557e-02 0.0 
0.0 0.0 0.0 
-1.424146378074e-03 3.874552625367e-03 0.0 
3.874552625367e-03 6.347456613092e-03 0.0 
0.0 0.0 0.0 
-1.262492244339e-03 3.436892983203e-03 0.0 
3.436892983203e-03 5.941122533318e-03 0.0 
0.0 0.0 0.0 
-2.197315117594e-03 3.732494967247e-04 0.0 
3.732494967247e-04 1.362835062753e-02 0.0 
0.0 0.0 0.0 
-2.005178595306e-03 3.760360989696e-04 0.0 
3.760360989696e-04 1.362831731981e-02 0.0 
0.0 0.0 0.0 
-7.999413986168e-04 -3.029190600741e-04 0.0 
-3.029190600741e-04 4.446542930819e-03 0.0 
0.0 0.0 0.0 
-7.263192369756e-04 -2.667600432070e-05 0.0 
-2.667600432070e-05 4.862737735344e-03 0.0 
0.0 0.0 0.0 
-1.277285131605e-03 3.965805632861e-03 0.0 
3.965805632861e-03 1.111016789319e-02 0.0 
0.0 0.0 0.0 
-2.274441472058e-03 3.654232391599e-04 0.0 
3.654232391599e-04 1.341693887338e-02 0.0 
0.0 0.0 0.0 
-3.128540892321e-04 -5.992648219034e-04 0.0 
-5.992648219034e-04 5.731857366580e-04 0.0 
0.0 0.0 0.0 
-2.880238579400e-03 1.508645102742e-03 0.0 
1.508645102742e-03 1.307685971388e-02 0.0 
0.0 0.0 0.0 
-1.280964277661e-03 1.820102346640e-04 0.0 
1.820102346640e-04 1.472288532408e-02 0.0 
0.0 0.0 0.0 
-1.426320075452e-03 2.801641316705e-04 0.0 
2.801641316705e-04 1.468300072117e-02 0.0 
0.0 0.0 0.0 
-5.140834115016e-04 2.497398219285e-03 0.0 
2.497398219285e-03 1.476177737358e-02 0.0 
0.0 0.0 0.0 
6.272591707246e-04 2.956979147554e-03 0.0 
2.956979147554e-03 4.900770173770e-03 0.0 
0.0 0.0 0.0 
-2.462529119325e-03 5.467635910769e-04 0.0 
5.467635910769e-04 1.334736003705e-02 0.0 
0.0 0.0 0.0 
6.296092360976e-04 -9.480356234981e-05 0.0 
-9.480356234981e-05 4.181040210585e-03 0.0 
0.0 0.0 0.0 
-1.677301522430e-03 3.472164930305e-05 0.0 
3.472164930305e-05 1.395369909578e-02 0.0 
0.0 0.0 0.0 
-1.814462493304e-04 4.240072119101e-03 0.0 
4.240072119101e-03 4.380634193478e-03 0.0 
0.0 0.0 0.0 
-2.176828515515e-03 2.566649888749e-04 0.0 
2.566649888749e-04 1.323420802905e-02 0.0 
0.0 0.0 0.0 
-1.820394956851e-04 -2.540775118398e-04 0.0 
-2.540775118398e-04 5.731580934606e-03 0.0 
0.0 0.0 0.0 
2.422088145094e-03 3.226459601773e-03 0.0 
3.226459601773e-03 2.644446136090e-03 0.0 
0.0 0.0 0.0 
1.191602671941e-03 3.598165200118e-03 0.0 
3.598165200118e-03 4.969307695162e-03 0.0 
0.0 0.0 0.0 
1.128377844076e-03 4.106897156812e-03 0.0 
4.106897156812e-03 1.688134120897e-03 0.0 
0.0 0.0 0.0 
-4.570209063669e-04 -4.009712878825e-03 0.0 
-4.009712878825e-03 -1.417429010065e-03 0.0 
0.0 0.0 0.0 
-4.444358440698e-04 -2.044999445888e-04 0.0 
-2.044999445888e-04 5.361012362191e-03 0.0 
0.0 0.0 0.0 
-1.239411702403e-03 3.218711455881e-04 0.0 
3.218711455881e-04 1.492751084860e-02 0.0 
0.0 0.0 0.0 
-1.369545886371e-03 -3.571736797714e-03 0.0 
-3.571736797714e-03 -1.845172211081e-03 0.0 
0.0 0.0 0.0 
-3.835940488062e-05 -4.303082579585e-04 0.0 
-4.303082579585e-04 5.352524380247e-03 0.0 
0.0 0.0 0.0 
-1.106500408358e-03 3.936434215923e-03 0.0 
3.936434215923e-03 1.043294368547e-02 0.0 
0.0 0.0 0.0 
2.123154813123e-03 1.016692533965e-04 0.0 
1.016692533965e-04 -5.597728361315e-04 0.0 
0.0 0.0 0.0 
2.404378116172e-03 4.107056900953e-03 0.0 
4.107056900953e-03 5.474299257191e-04 0.0 
0.0 0.0 0.0 
-3.097068451533e-03 2.507065558419e-03 0.0 
2.507065558419e-03 1.203033284791e-02 0.0 
0.0 0.0 0.0 
-9.833197750297e-04 -8.803126690243e-04 0.0 
-8.803126690243e-04 2.847796656729e-03 0.0 
0.0 0.0 0.0 
5.428884163550e-05 4.086995157526e-03 0.0 
4.086995157526e-03 3.530469772580e-03 0.0 
0.0 0.0 0.0 
4.535513773578e-04 4.235815046113e-03 0.0 
4.235815046113e-03 3.425779533265e-03 0.0 
0.0 0.0 0.0 
2.072994559243e-04 -3.124718972442e-04 0.0 
-3.124718972442e-04 4.651440784321e-03 0.0 
0.0 0.0 0.0 
-1.724944997053e-03 1.077403991957e-04 0.0 
1.077403991957e-04 1.384384645793e-02 0.0 
0.0 0.0 0.0 
7.480149340415e-04 4.258852536821e-03 0.0 
4.258852536821e-03 2.528215648424e-03 0.0 
0.0 0.0 0.0 
-2.993441407040e-05 -1.606555496356e-03 0.0 
-1.606555496356e-03 8.259089623648e-04 0.0 
0.0 0.0 0.0 
-2.889696394474e-03 1.731029485282e-03 0.0 
1.731029485282e-03 1.271853481330e-02 0.0 
0.0 0.0 0.0 
-1.048066014295e-03 2.320595626751e-04 0.0 
2.320595626751e-04 1.494325317096e-02 0.0 
0.0 0.0 0.0 
7.707214094921e-04 4.113665905390e-03 0.0 
4.113665905390e-03 2.535177221334e-03 0.0 
0.0 0.0 0.0 
-9.978037365821e-04 3.880555686305e-03 0.0 
3.880555686305e-03 4.548907647453e-04 0.0 
0.0 0.0 0.0 
-2.825080338375e-03 3.132488740238e-03 0.0 
3.132488740238e-03 1.079821637025e-02 0.0 
0.0 0.0 0.0 
-9.774062023846e-04 -8.704140417405e-04 0.0 
-8.704140417405e-04 2.829765351414e-03 0.0 
0.0 0.0 0.0 
-2.568409439075e-03 2.955767948990e-03 0.0 
2.955767948990e-03 1.019081326536e-02 0.0 
0.0 0.0 0.0 
-4.358690145571e-04 1.933751189670e-03 0.0 
1.933751189670e-03 1.497810966360e-02 0.0 
0.0 0.0 0.0 
3.723774203224e-04 4.510140371311e-03 0.0 
4.510140371311e-03 -8.864066581846e-04 0.0 
0.0 0.0 0.0 
-8.097320634454e-04 -4.704331347342e-04 0.0 
-4.704331347342e-04 4.204810976574e-03 0.0 
0.0 0.0 0.0 
-5.512037379724e-04 4.487106965029e-04 0.0 
4.487106965029e-04 1.537938646402e-02 0.0 
0.0 0.0 0.0 
-7.137167868039e-04 4.281809522348e-03 0.0 
4.281809522348e-03 6.298841540381e-03 0.0 
0.0 0.0 0.0 
-2.591194258132e-03 3.366732528594e-03 0.0 
3.366732528594e-03 1.001791808886e-02 0.0 
0.0 0.0 0.0 
5.105875181735e-04 -2.169676660352e-04 0.0 
-2.169676660352e-04 4.246067507726e-03 0.0 
0.0 0.0 0.0 
-2.893931450400e-04 -1.996572838132e-04 0.0 
-1.996572838132e-04 5.695624657658e-03 0.0 
0.0 0.0 0.0 
-7.192896412811e-04 -3.802858562486e-04 0.0 
-3.802858562486e-04 4.444433042634e-03 0.0 
0.0 0.0 0.0 
-9.926417864753e-04 4.360359414215e-03 0.0 
4.360359414215e-03 7.291363669353e-03 0.0 
0.0 0.0 0.0 
9.928172054765e-04 6.749326567493e-04 0.0 
6.749326567493e-04 3.819237508994e-03 0.0 
0.0 0.0 0.0 
-1.266449661335e-03 4.039326160818e-03 0.0 
4.039326160818e-03 7.256589516660e-03 0.0 
0.0 0.0 0.0 
-4.213436925889e-04 1.291454333655e-03 0.0 
1.291454333655e-03 1.523678878522e-02 0.0 
0.0 0.0 0.0 
-7.965135878607e-05 4.828979155871e-03 0.0 
4.828979155871e-03 9.808037226885e-03 0.0 
0.0 0.0 0.0 
-2.662563068847e-03 1.122611628186e-03 0.0 
1.122611628186e-03 1.358474089854e-02 0.0 
0.0 0.0 0.0 
-1.598292134444e-03 3.848170862870e-04 0.0 
3.848170862870e-04 1.437360850401e-02 0.0 
0.0 0.0 0.0 
-1.172826589757e-03 4.251058658736e-03 0.0 
4.251058658736e-03 7.247649991462e-03 0.0 
0.0 0.0 0.0 
-2.388669414763e-03 3.245882374186e-03 0.0 
3.245882374186e-03 9.304744419931e-03 0.0 
0.0 0.0 0.0 
-5.492088515503e-04 4.385568127985e-03 0.0 
4.385568127985e-03 6.378104552071e-03 0.0 
0.0 0.0 0.0 
1.608501285731e-03 4.165249375762e-03 0.0 
4.165249375762e-03 1.546483576943e-03 0.0 
0.0 0.0 0.0 
-2.023613106048e-03 1.593915761342e-04 0.0 
1.593915761342e-04 1.327592239981e-02 0.0 
0.0 0.0 0.0 
2.723760804231e-03 3.969350493251e-03 0.0 
3.969350493251e-03 5.631118520353e-04 0.0 
0.0 0.0 0.0 
1.075490200666e-04 -4.551818092181e-04 0.0 
-4.551818092181e-04 3.628545417236e-04 0.0 
0.0 0.0 0.0 
-1.809161924686e-03 5.710616711668e-05 0.0 
5.710616711668e-05 1.354943811578e-02 0.0 
0.0 0.0 0.0 
4.215634543181e-04 -1.767778223681e-04 0.0 
-1.767778223681e-04 9.577975377846e-04 0.0 
0.0 0.0 0.0 
-2.990697271469e-03 2.815756867795e-03 0.0 
2.815756867795e-03 1.143014456798e-02 0.0 
0.0 0.0 0.0 
5.404887015918e-04 5.519137980854e-04 0.0 
5.519137980854e-04 3.821502711170e-03 0.0 
0.0 0.0 0.0 
9.901594722990e-04 4.211239666054e-03 0.0 
4.211239666054e-03 1.680612716135e-03 0.0 
0.0 0.0 0.0 
-7.488677828021e-04 -1.934707077685e-04 0.0 
-1.934707077685e-04 4.678716040889e-03 0.0 
0.0 0.0 0.0 
-1.047929407531e-03 3.677044559091e-03 0.0 
3.677044559091e-03 3.890559590198e-03 0.0 
0.0 0.0 0.0 
2.355681228994e-03 3.469898721311e-03 0.0 
3.469898721311e-03 2.622572506971e-03 0.0 
0.0 0.0 0.0 
-1.855656820704e-03 8.694484841702e-05 0.0 
8.694484841702e-05 1.330300283514e-02 0.0 
0.0 0.0 0.0 
2.947963333572e-03 4.010251112941e-03 0.0 
4.010251112941e-03 -3.701924704448e-04 0.0 
0.0 0.0 0.0 
-5.739256518206e-04 -2.317139216725e-04 0.0 
-2.317139216725e-04 5.038877273739e-03 0.0 
0.0 0.0 0.0 
-3.571532802737e-04 -1.774401806513e-03 0.0 
-1.774401806513e-03 8.605437075886e-04 0.0 
0.0 0.0 0.0 
-4.152186466281e-04 -1.989148503455e-04 0.0 
-1.989148503455e-04 5.360340594191e-03 0.0 
0.0 0.0 0.0 
-2.405131438367e-03 3.192934251811e-03 0.0 
3.192934251811e-03 1.081690447381e-02 0.0 
0.0 0.0 0.0 
-1.477340490953e-04 -4.506028353346e-04 0.0 
-4.506028353346e-04 5.422292221427e-03 0.0 
0.0 0.0 0.0 
-1.806835287593e-03 3.764102244854e-05 0.0 
3.764102244854e-05 1.326816253054e-02 0.0 
0.0 0.0 0.0 
1.755034302512e-03 4.143614076920e-03 0.0 
4.143614076920e-03 6.458692637239e-04 0.0 
0.0 0.0 0.0 
-2.816536538478e-03 2.267721992485e-03 0.0 
2.267721992485e-03 1.163554587322e-02 0.0 
0.0 0.0 0.0 
-1.020599668761e-03 -2.369811369143e-04 0.0 
-2.369811369143e-04 4.073541600324e-03 0.0 
0.0 0.0 0.0 
-1.093064767970e-03 3.835506429165e-03 0.0 
3.835506429165e-03 3.935730798876e-03 0.0 
0.0 0.0 0.0 
3.265849087994e-03 3.668704065786e-03 0.0 
3.668704065786e-03 -3.253541354744e-04 0.0 
0.0 0.0 0.0 
-1.568121280083e-03 3.119102605988e-04 0.0 
3.119102605988e-04 1.453291215085e-02 0.0 
0.0 0.0 0.0 
-1.884764389294e-03 1.187930835079e-04 0.0 
1.187930835079e-04 1.327493795519e-02 0.0 
0.0 0.0 0.0 
2.134816652145e-03 4.129403941203e-03 0.0 
4.129403941203e-03 5.336888463017e-04 0.0 
0.0 0.0 0.0 
-2.743071449735e-03 2.568605449107e-03 0.0 
2.568605449107e-03 1.101677791285e-02 0.0 
0.0 0.0 0.0 
-1.247904029745e-04 4.376882061654e-03 0.0 
4.376882061654e-03 8.744482842168e-03 0.0 
0.0 0.0 0.0 
-9.855929488810e-04 -9.602369445577e-04 0.0 
-9.602369445577e-04 2.929622184474e-03 0.0 
0.0 0.0 0.0 
4.136963958814e-04 4.195715786749e-03 0.0 
4.195715786749e-03 6.758237516976e-03 0.0 
0.0 0.0 0.0 
1.450071334475e-05 4.839481914900e-03 0.0 
4.839481914900e-03 9.207358157795e-03 0.0 
0.0 0.0 0.0 
-5.708178172167e-04 4.041785858388e-03 0.0 
4.041785858388e-03 4.490645682439e-03 0.0 
0.0 0.0 0.0 
-1.084091204774e-03 -7.862243300463e-04 0.0 
-7.862243300463e-04 3.187966735038e-03 0.0 
0.0 0.0 0.0 
2.033533192783e-03 1.330856442525e-03 0.0 
1.330856442525e-03 2.153868433484e-03 0.0 
0.0 0.0 0.0 
-1.708222649627e-03 4.007540320426e-03 0.0 
4.007540320426e-03 8.218706153154e-03 0.0 
0.0 0.0 0.0 
-4.142500474172e-04 3.822693793987e-03 0.0 
3.822693793987e-03 3.720742037627e-03 0.0 
0.0 0.0 0.0 
-2.699148643010e-03 2.657154516199e-03 0.0 
2.657154516199e-03 1.148652770428e-02 0.0 
0.0 0.0 0.0 
1.943627445036e-03 4.181972253758e-03 0.0 
4.181972253758e-03 1.524906392536e-03 0.0 
0.0 0.0 0.0 
-3.822896745553e-04 9.424107382822e-04 0.0 
9.424107382822e-04 1.532161698666e-02 0.0 
0.0 0.0 0.0 
-1.490202923207e-03 3.532867591039e-03 0.0 
3.532867591039e-03 1.170261383502e-02 0.0 
0.0 0.0 0.0 
-5.167318105963e-04 -1.160106601542e-04 0.0 
-1.160106601542e-04 5.265531411862e-03 0.0 
0.0 0.0 0.0 
-9.105844321140e-04 3.805612335741e-03 0.0 
3.805612335741e-03 2.563891948762e-03 0.0 
0.0 0.0 0.0 
3.742795614681e-03 3.282336221829e-03 0.0 
3.282336221829e-03 -1.149201634495e-03 0.0 
0.0 0.0 0.0 
-1.168050170135e-03 3.811879833197e-03 0.0 
3.811879833197e-03 1.114783201897e-02 0.0 
0.0 0.0 0.0 
-3.342533467714e-03 2.476919398997e-03 0.0 
2.476919398997e-03 -2.184479004240e-03 0.0 
0.0 0.0 0.0 
-1.809313630999e-03 3.707302732574e-03 0.0 
3.707302732574e-03 8.224443121200e-03 0.0 
0.0 0.0 0.0 
2.308754686952e-03 4.218187493251e-04 0.0 
4.218187493251e-04 1.219684248187e-03 0.0 
0.0 0.0 0.0 
9.775733786601e-04 -5.181125177550e-04 0.0 
-5.181125177550e-04 3.379933231671e-04 0.0 
0.0 0.0 0.0 
-6.818446452591e-04 3.773118205300e-03 0.0 
3.773118205300e-03 1.291929613477e-02 0.0 
0.0 0.0 0.0 
-2.230884032819e-03 2.485713106921e-03 0.0 
2.485713106921e-03 1.303101517008e-02 0.0 
0.0 0.0 0.0 
1.472487000984e-03 -2.481638259544e-03 0.0 
-2.481638259544e-03 4.336390081106e-05 0.0 
0.0 0.0 0.0 
2.555450708799e-03 7.032984309931e-04 0.0 
7.032984309931e-04 1.200260068789e-03 0.0 
0.0 0.0 0.0 
-2.906768817844e-03 1.859336156603e-03 0.0 
1.859336156603e-03 1.301670361003e-02 0.0 
0.0 0.0 0.0 
-2.743073032325e-03 1.522829119937e-03 0.0 
1.522829119937e-03 1.357467400731e-02 0.0 
0.0 0.0 0.0 
1.032165188719e-03 6.751269800130e-04 0.0 
6.751269800130e-04 3.239189853921e-03 0.0 
0.0 0.0 0.0 
3.634252924589e-04 -2.403014173798e-03 0.0 
-2.403014173798e-03 8.812792201243e-04 0.0 
0.0 0.0 0.0 
1.224103067288e-05 4.515356134695e-03 0.0 
4.515356134695e-03 5.447744913603e-03 0.0 
0.0 0.0 0.0 
-2.023499173912e-03 3.621045752689e-03 0.0 
3.621045752689e-03 1.007890671538e-02 0.0 
0.0 0.0 0.0 
-2.350377558816e-03 2.516955428114e-03 0.0 
2.516955428114e-03 1.338704486561e-02 0.0 
0.0 0.0 0.0 
-2.638439789727e-03 3.271667304467e-03 0.0 
3.271667304467e-03 1.148177574650e-02 0.0 
0.0 0.0 0.0 
-2.812677001144e-03 3.072745550465e-03 0.0 
3.072745550465e-03 1.148888846086e-02 0.0 
0.0 0.0 0.0 
3.289868660865e-03 2.997886907494e-03 0.0 
2.997886907494e-03 9.204825968283e-04 0.0 
0.0 0.0 0.0 
-4.501935601917e-04 4.308118862507e-03 0.0 
4.308118862507e-03 9.281366960224e-03 0.0 
0.0 0.0 0.0 
-1.372735017546e-03 2.346371639100e-03 0.0 
2.346371639100e-03 -2.782297809903e-03 0.0 
0.0 0.0 0.0 
-5.500270155470e-04 3.998578858462e-03 0.0 
3.998578858462e-03 4.485278559995e-03 0.0 
0.0 0.0 0.0 
-1.808583415105e-04 4.166831326907e-03 0.0 
4.166831326907e-03 4.392565138786e-03 0.0 
0.0 0.0 0.0 
-4.146177697119e-04 4.507385896819e-03 0.0 
4.507385896819e-03 6.360914005061e-03 0.0 
0.0 0.0 0.0 
-1.633583142563e-03 3.544602955456e-03 0.0 
3.544602955456e-03 1.225445113537e-02 0.0 
0.0 0.0 0.0 
2.968465994078e-03 3.122828110889e-03 0.0 
3.122828110889e-03 -4.023644584786e-03 0.0 
0.0 0.0 0.0 
2.322268392228e-03 -3.679240605137e-05 0.0 
-3.679240605137e-05 8.904188004626e-04 0.0 
0.0 0.0 0.0 
-1.944052195666e-03 7.780572704686e-05 0.0 
7.780572704686e-05 1.325753799295e-02 0.0 
0.0 0.0 0.0 
3.424922600318e-03 3.754164130371e-03 0.0 
3.754164130371e-03 -1.214065835000e-03 0.0 
0.0 0.0 0.0 
2.229966421734e-03 -4.926814798466e-04 0.0 
-4.926814798466e-04 6.914512195624e-04 0.0 
0.0 0.0 0.0 
6.872336353207e-04 -4.505707255965e-04 0.0 
-4.505707255965e-04 2.143265602579e-04 0.0 
0.0 0.0 0.0 
-1.945346570327e-03 2.717505374250e-03 0.0 
2.717505374250e-03 1.310547323282e-02 0.0 
0.0 0.0 0.0 
9.388529506926e-04 -5.074213717974e-04 0.0 
-5.074213717974e-04 -6.490412995819e-05 0.0 
0.0 0.0 0.0 
6.038099404750e-04 -4.536507529386e-04 0.0 
-4.536507529386e-04 4.929189056746e-04 0.0 
0.0 0.0 0.0 
-8.348208911506e-04 3.830464771688e-03 0.0 
3.830464771688e-03 2.565100810948e-03 0.0 
0.0 0.0 0.0 
1.702360691851e-04 -2.276269231153e-03 0.0 
-2.276269231153e-03 9.102195326087e-04 0.0 
0.0 0.0 0.0 
-2.046538835090e-03 2.725779243388e-03 0.0 
2.725779243388e-03 1.347921604827e-02 0.0 
0.0 0.0 0.0 
2.318156385814e-04 -2.335954994049e-03 0.0 
-2.335954994049e-03 6.475276345235e-04 0.0 
0.0 0.0 0.0 
8.187277974232e-04 4.142917708344e-03 0.0 
4.142917708344e-03 4.245949112980e-04 0.0 
0.0 0.0 0.0 
1.635116541620e-03 -3.718863257252e-03 0.0 
-3.718863257252e-03 -1.908435259959e-03 0.0 
0.0 0.0 0.0 
-2.703144766710e-04 -1.719335338644e-03 0.0 
-1.719335338644e-03 9.500574745389e-04 0.0 
0.0 0.0 0.0 
2.388044485184e-03 1.117166341429e-03 0.0 
1.117166341429e-03 1.607184161691e-03 0.0 
0.0 0.0 0.0 
-2.443449781758e-03 3.530893035534e-03 0.0 
3.530893035534e-03 1.080379505712e-02 0.0 
0.0 0.0 0.0 
-2.076503295337e-04 -3.334475451192e-04 0.0 
-3.334475451192e-04 5.508572639794e-03 0.0 
0.0 0.0 0.0 
-1.324724361645e-03 1.133889009196e-03 0.0 
1.133889009196e-03 -4.310712789203e-03 0.0 
0.0 0.0 0.0 
1.558405434575e-03 4.181645945749e-03 0.0 
4.181645945749e-03 7.289847615777e-05 0.0 
0.0 0.0 0.0 
3.673003671928e-03 3.666407489941e-03 0.0 
3.666407489941e-03 -1.172267643829e-03 0.0 
0.0 0.0 0.0 
-1.366268087090e-03 3.830171816848e-03 0.0 
3.830171816848e-03 7.196601098467e-03 0.0 
0.0 0.0 0.0 
2.628493728870e-03 2.390723585069e-04 0.0 
2.390723585069e-04 8.711335987255e-04 0.0 
0.0 0.0 0.0 
-6.820520414130e-05 -4.451278188373e-04 0.0 
-4.451278188373e-04 5.346746158181e-03 0.0 
0.0 0.0 0.0 
-1.931486537600e-03 3.401729964141e-03 0.0 
3.401729964141e-03 1.217947615170e-02 0.0 
0.0 0.0 0.0 
3.795327666261e-03 2.939338450180e-03 0.0 
2.939338450180e-03 -1.901631559383e-03 0.0 
0.0 0.0 0.0 
2.193250196921e-03 8.866255942607e-04 0.0 
8.866255942607e-04 1.608772658745e-03 0.0 
0.0 0.0 0.0 
-8.578268162346e-04 -2.397993417515e-04 0.0 
-2.397993417515e-04 4.399077787709e-03 0.0 
0.0 0.0 0.0 
-8.197596008965e-04 4.444467342845e-03 0.0 
4.444467342845e-03 7.370381519749e-03 0.0 
0.0 0.0 0.0 
-2.033694301176e-03 2.858382655148e-03 0.0 
2.858382655148e-03 1.266382309382e-02 0.0 
0.0 0.0 0.0 
7.674750794198e-04 3.860661170299e-03 0.0 
3.860661170299e-03 5.779377926166e-03 0.0 
0.0 0.0 0.0 
3.979470484754e-03 3.230225477057e-03 0.0 
3.230225477057e-03 -1.109817285366e-03 0.0 
0.0 0.0 0.0 
7.875112494167e-04 3.999216344294e-03 0.0 
3.999216344294e-03 1.203652438984e-03 0.0 
0.0 0.0 0.0 
-2.406761486329e-03 3.430116783250e-03 0.0 
3.430116783250e-03 1.150514100798e-02 0.0 
0.0 0.0 0.0 
-3.971052193165e-04 2.250983508836e-03 0.0 
2.250983508836e-03 1.492497695733e-02 0.0 
0.0 0.0 0.0 
1.664161064305e-04 4.560809371237e-03 0.0 
4.560809371237e-03 5.441404748780e-03 0.0 
0.0 0.0 0.0 
4.416347388891e-03 2.592430107577e-03 0.0 
2.592430107577e-03 -1.373016323683e-03 0.0 
0.0 0.0 0.0 
-1.860440886291e-03 1.390544190723e-04 0.0 
1.390544190723e-04 1.362866630192e-02 0.0 
0.0 0.0 0.0 
-2.476526112035e-04 -2.737838096901e-03 0.0 
-2.737838096901e-03 3.203229227202e-04 0.0 
0.0 0.0 0.0 
-2.534412914907e-03 2.917672282524e-03 0.0 
2.917672282524e-03 1.153700043413e-02 0.0 
0.0 0.0 0.0 
3.430324724052e-03 3.584504441540e-03 0.0 
3.584504441540e-03 -1.996873555589e-03 0.0 
0.0 0.0 0.0 
3.458835122329e-03 2.782643616451e-03 0.0 
2.782643616451e-03 -3.803717706939e-03 0.0 
0.0 0.0 0.0 
2.941405644433e-03 -3.291866175841e-03 0.0 
-3.291866175841e-03 -4.287305454841e-03 0.0 
0.0 0.0 0.0 
-1.818307775457e-03 2.590645528940e-03 0.0 
2.590645528940e-03 1.349567382441e-02 0.0 
0.0 0.0 0.0 
-2.246127546373e-03 3.678373573649e-03 0.0 
3.678373573649e-03 1.081551990809e-02 0.0 
0.0 0.0 0.0 
1.402808223067e-03 4.211135900805e-03 0.0 
4.211135900805e-03 1.540435116689e-03 0.0 
0.0 0.0 0.0 
-1.899204607045e-03 2.588141714088e-03 0.0 
2.588141714088e-03 1.383549195141e-02 0.0 
0.0 0.0 0.0 
-1.611523011884e-03 3.691686154351e-03 0.0 
3.691686154351e-03 1.167154692791e-02 0.0 
0.0 0.0 0.0 
-1.188762026120e-03 4.334022072343e-03 0.0 
4.334022072343e-03 8.333301012437e-03 0.0 
0.0 0.0 0.0 
5.853367733488e-05 -4.081244981804e-04 0.0 
-4.081244981804e-04 5.016503407415e-03 0.0 
0.0 0.0 0.0 
4.475494621199e-03 2.495858800320e-03 0.0 
2.495858800320e-03 -1.795827748837e-03 0.0 
0.0 0.0 0.0 
-1.520479073254e-03 4.180686922053e-03 0.0 
4.180686922053e-03 9.252287433051e-03 0.0 
0.0 0.0 0.0 
2.181270896900e-03 4.108912194589e-03 0.0 
4.108912194589e-03 1.579955413174e-03 0.0 
0.0 0.0 0.0 
4.121394773738e-03 2.607003845506e-03 0.0 
2.607003845506e-03 -8.631076620810e-04 0.0 
0.0 0.0 0.0 
4.020834908096e-03 2.520525210315e-03 0.0 
2.520525210315e-03 -3.645240332517e-03 0.0 
0.0 0.0 0.0 
-2.760498880726e-03 1.149743953283e-03 0.0 
1.149743953283e-03 1.318395921289e-02 0.0 
0.0 0.0 0.0 
4.542898238350e-03 2.658604693319e-03 0.0 
2.658604693319e-03 -1.769042044208e-03 0.0 
0.0 0.0 0.0 
4.276258641189e-03 -1.402120520982e-03 0.0 
-1.402120520982e-03 -3.644220750819e-03 0.0 
0.0 0.0 0.0 
-1.783150936972e-03 3.220286748292e-03 0.0 
3.220286748292e-03 1.221252180431e-02 0.0 
0.0 0.0 0.0 
-4.992585999605e-03 4.971730026293e-04 0.0 
4.971730026293e-04 -2.584171490252e-03 0.0 
0.0 0.0 0.0 
-2.747427500793e-03 3.008037255493e-03 0.0 
3.008037255493e-03 1.206338351379e-02 0.0 
0.0 0.0 0.0 
4.199611691817e-03 2.938298095893e-03 0.0 
2.938298095893e-03 -2.785758528051e-03 0.0 
0.0 0.0 0.0 
1.872519272040e-03 3.902354141288e-03 0.0 
3.902354141288e-03 1.101875902298e-04 0.0 
0.0 0.0 0.0 
4.065542102358e-03 1.407820600693e-03 0.0 
1.407820600693e-03 -3.456739929752e-03 0.0 
0.0 0.0 0.0 
-2.006321468256e-03 3.529554623408e-03 0.0 
3.529554623408e-03 1.090301081811e-02 0.0 
0.0 0.0 0.0 
-1.148681247116e-04 -1.172307533045e-03 0.0 
-1.172307533045e-03 7.135467640456e-04 0.0 
0.0 0.0 0.0 
-4.961631363550e-04 4.181136346408e-03 0.0 
4.181136346408e-03 5.309626124665e-03 0.0 
0.0 0.0 0.0 
4.144193385786e-03 2.523670684293e-03 0.0 
2.523670684293e-03 -1.166708886953e-03 0.0 
0.0 0.0 0.0 
-2.216057775113e-03 3.383107089789e-03 0.0 
3.383107089789e-03 1.086642116592e-02 0.0 
0.0 0.0 0.0 
-2.775525577581e-03 1.494229067146e-03 0.0 
1.494229067146e-03 1.324658854877e-02 0.0 
0.0 0.0 0.0 
2.152103902595e-03 2.272879566595e-03 0.0 
2.272879566595e-03 -4.527791728712e-03 0.0 
0.0 0.0 0.0 
4.708564212687e-03 -4.303272470494e-04 0.0 
-4.303272470494e-04 -3.796528727739e-03 0.0 
0.0 0.0 0.0 
3.741747219310e-03 -2.285237035242e-03 0.0 
-2.285237035242e-03 -3.401955858295e-03 0.0 
0.0 0.0 0.0 
-8.094920817511e-04 4.090342456058e-03 0.0 
4.090342456058e-03 5.373719972420e-03 0.0 
0.0 0.0 0.0 
-2.217683550287e-03 3.058654451383e-03 0.0 
3.058654451383e-03 1.262790718786e-02 0.0 
0.0 0.0 0.0 
-4.683366415416e-04 4.297237687283e-03 0.0 
4.297237687283e-03 5.292093896852e-03 0.0 
0.0 0.0 0.0 
4.676169006328e-03 2.708070936546e-03 0.0 
2.708070936546e-03 -2.543644325767e-03 0.0 
0.0 0.0 0.0 
4.135020203716e-03 3.292591658322e-03 0.0 
3.292591658322e-03 -1.967235531757e-03 0.0 
0.0 0.0 0.0 
2.440012369484e-03 1.735927246158e-03 0.0 
1.735927246158e-03 -3.530256901961e-03 0.0 
0.0 0.0 0.0 
2.554530194096e-03 4.052543108981e-03 0.0 
4.052543108981e-03 6.670642710236e-04 0.0 
0.0 0.0 0.0 
1.934891461397e-04 3.959531218382e-03 0.0 
3.959531218382e-03 8.145809736295e-04 0.0 
0.0 0.0 0.0 
-5.055586496944e-04 3.771992136979e-03 0.0 
3.771992136979e-03 1.357880645497e-02 0.0 
0.0 0.0 0.0 
-4.599622760686e-04 4.312856429882e-03 0.0 
4.312856429882e-03 1.273430803316e-02 0.0 
0.0 0.0 0.0 
5.707301032727e-04 4.562216970980e-03 0.0 
4.562216970980e-03 4.559510835390e-03 0.0 
0.0 0.0 0.0 
3.800494342914e-03 3.157793819763e-03 0.0 
3.157793819763e-03 -2.828231676798e-03 0.0 
0.0 0.0 0.0 
2.273994337547e-03 3.727547523620e-03 0.0 
3.727547523620e-03 -7.178329882283e-04 0.0 
0.0 0.0 0.0 
-1.113944959278e-03 4.224546690525e-03 0.0 
4.224546690525e-03 8.478847626249e-03 0.0 
0.0 0.0 0.0 
3.256636178538e-03 3.120766372096e-03 0.0 
3.120766372096e-03 -1.808398079165e-03 0.0 
0.0 0.0 0.0 
4.235675906842e-03 -1.384142710185e-03 0.0 
-1.384142710185e-03 -3.544812087607e-03 0.0 
0.0 0.0 0.0 
-9.364910380787e-04 4.281063135584e-03 0.0 
4.281063135584e-03 7.400359778913e-03 0.0 
0.0 0.0 0.0 
-7.599462457869e-04 1.427820440658e-03 0.0 
1.427820440658e-03 1.519489005656e-02 0.0 
0.0 0.0 0.0 
3.843405124573e-03 3.402697141250e-03 0.0 
3.402697141250e-03 -2.017077818806e-03 0.0 
0.0 0.0 0.0 
3.073072050032e-03 3.304957078633e-03 0.0 
3.304957078633e-03 8.843559836942e-04 0.0 
0.0 0.0 0.0 
1.023642310489e-03 4.132204675927e-03 0.0 
4.132204675927e-03 -3.756367269060e-04 0.0 
0.0 0.0 0.0 
6.444926457634e-04 1.313838766991e-03 0.0 
1.313838766991e-03 4.514094058115e-03 0.0 
0.0 0.0 0.0 
2.912948663689e-03 3.782634053795e-03 0.0 
3.782634053795e-03 -1.913053085795e-03 0.0 
0.0 0.0 0.0 
-3.985823481502e-04 4.461269713798e-03 0.0 
4.461269713798e-03 6.493734839070e-03 0.0 
0.0 0.0 0.0 
3.241042626950e-03 1.964910478846e-03 0.0 
1.964910478846e-03 -4.458032683578e-03 0.0 
0.0 0.0 0.0 
3.797927664699e-03 4.721329545977e-04 0.0 
4.721329545977e-04 -1.013157542908e-03 0.0 
0.0 0.0 0.0 
4.269713644903e-03 3.171930196064e-03 0.0 
3.171930196064e-03 -1.849104626597e-03 0.0 
0.0 0.0 0.0 
3.924007941260e-03 -1.990009471110e-03 0.0 
-1.990009471110e-03 -2.928012906839e-03 0.0 
0.0 0.0 0.0 
-2.000475368433e-03 3.902353086263e-03 0.0 
3.902353086263e-03 1.004273701436e-02 0.0 
0.0 0.0 0.0 
-2.120175150893e-04 4.934025808749e-03 0.0 
4.934025808749e-03 1.110155778492e-02 0.0 
0.0 0.0 0.0 
4.500613718591e-03 2.786964241172e-03 0.0 
2.786964241172e-03 -2.693354972836e-03 0.0 
0.0 0.0 0.0 
4.209726389652e-03 2.109502671760e-03 0.0 
2.109502671760e-03 -1.108732294650e-03 0.0 
0.0 0.0 0.0 
1.301754530592e-03 3.875251667352e-03 0.0 
3.875251667352e-03 -3.418364622149e-04 0.0 
0.0 0.0 0.0 
-2.146128661815e-03 1.233277633361e-03 0.0 
1.233277633361e-03 1.404533327967e-02 0.0 
0.0 0.0 0.0 
2.597128915237e-03 -2.300802833712e-04 0.0 
-2.300802833712e-04 6.568202862223e-04 0.0 
0.0 0.0 0.0 
5.298790025896e-04 4.045472012827e-03 0.0 
4.045472012827e-03 1.946599015332e-03 0.0 
0.0 0.0 0.0 
-2.384527095212e-03 1.037307292977e-03 0.0 
1.037307292977e-03 1.400332215933e-02 0.0 
0.0 0.0 0.0 
7.839437102319e-05 5.092420341685e-03 0.0 
5.092420341685e-03 9.233051908333e-03 0.0 
0.0 0.0 0.0 
2.205470623437e-03 5.723531587369e-05 0.0 
5.723531587369e-05 1.420680970863e-03 0.0 
0.0 0.0 0.0 
-3.179350480955e-04 4.775348887543e-03 0.0 
4.775348887543e-03 1.167984192499e-02 0.0 
0.0 0.0 0.0 
-2.565629378598e-03 1.400113796742e-03 0.0 
1.400113796742e-03 1.381289281004e-02 0.0 
0.0 0.0 0.0 
-1.135393286747e-03 4.076241004682e-03 0.0 
4.076241004682e-03 1.040499613912e-02 0.0 
0.0 0.0 0.0 
-1.376487850729e-04 3.933575908096e-03 0.0 
3.933575908096e-03 2.240642411804e-03 0.0 
0.0 0.0 0.0 
-2.186451309029e-03 3.765261436380e-03 0.0 
3.765261436380e-03 9.984987432074e-03 0.0 
0.0 0.0 0.0 
-1.581624018825e-03 3.963307781118e-03 0.0 
3.963307781118e-03 9.283605725824e-03 0.0 
0.0 0.0 0.0 
-1.809812467152e-03 3.998252786861e-03 0.0 
3.998252786861e-03 1.010403307467e-02 0.0 
0.0 0.0 0.0 
6.149747387518e-04 4.520476823075e-03 0.0 
4.520476823075e-03 4.413127572422e-03 0.0 
0.0 0.0 0.0 
2.566379198328e-04 4.865780260638e-03 0.0 
4.865780260638e-03 8.024169486433e-03 0.0 
0.0 0.0 0.0 
-2.606310548606e-03 1.892623203109e-03 0.0 
1.892623203109e-03 1.318649651022e-02 0.0 
0.0 0.0 0.0 
-2.948440834933e-03 2.786289966187e-03 0.0 
2.786289966187e-03 1.204042099452e-02 0.0 
0.0 0.0 0.0 
4.377212625456e-03 2.715488965522e-03 0.0 
2.715488965522e-03 -1.881201913247e-03 0.0 
0.0 0.0 0.0 
-6.745589960522e-05 -2.051926329944e-03 0.0 
-2.051926329944e-03 9.439843026591e-04 0.0 
0.0 0.0 0.0 
-2.625502921781e-03 3.351876282627e-03 0.0 
3.351876282627e-03 1.075695754593e-02 0.0 
0.0 0.0 0.0 
1.251492039608e-03 4.177313659335e-03 0.0 
4.177313659335e-03 8.598662896850e-04 0.0 
0.0 0.0 0.0 
-1.862299537562e-03 6.867897583299e-05 0.0 
6.867897583299e-05 1.328391385854e-02 0.0 
0.0 0.0 0.0 
3.267936567395e-03 -2.592779505539e-03 0.0 
-2.592779505539e-03 -2.834928679268e-03 0.0 
0.0 0.0 0.0 
4.144699647589e-03 2.782601372570e-03 0.0 
2.782601372570e-03 -1.930128827169e-03 0.0 
0.0 0.0 0.0 
-1.723419058666e-03 3.069949619282e-03 0.0 
3.069949619282e-03 1.272214218067e-02 0.0 
0.0 0.0 0.0 
1.523677422009e-03 4.026963606485e-03 0.0 
4.026963606485e-03 8.782910575085e-04 0.0 
0.0 0.0 0.0 
-1.743658066096e-03 3.839910611431e-03 0.0 
3.839910611431e-03 9.214633585239e-03 0.0 
0.0 0.0 0.0 
4.081017818558e-03 2.011847445684e-03 0.0 
2.011847445684e-03 -1.117182177496e-03 0.0 
0.0 0.0 0.0 
2.393091308309e-03 -1.629578843843e-03 0.0 
-1.629578843843e-03 -3.576841189546e-04 0.0 
0.0 0.0 0.0 
5.250281914886e-04 4.101316653110e-03 0.0 
4.101316653110e-03 6.412180734024e-03 0.0 
0.0 0.0 0.0 
-2.072308804711e-03 3.819988169800e-03 0.0 
3.819988169800e-03 9.119814569101e-03 0.0 
0.0 0.0 0.0 
4.722557857945e-03 4.952063664691e-04 0.0 
4.952063664691e-04 -4.063899395588e-03 0.0 
0.0 0.0 0.0 
1.475415638989e-03 -2.646464165622e-03 0.0 
-2.646464165622e-03 -4.387614290986e-04 0.0 
0.0 0.0 0.0 
-4.302454001528e-04 3.930818824828e-03 0.0 
3.930818824828e-03 3.705300610629e-03 0.0 
0.0 0.0 0.0 
4.429235621919e-04 4.093517918159e-03 0.0 
4.093517918159e-03 1.941575944573e-03 0.0 
0.0 0.0 0.0 
-1.317699626112e-03 3.816312608373e-03 0.0 
3.816312608373e-03 1.175610132310e-02 0.0 
0.0 0.0 0.0 
-6.595352652727e-04 4.487772505232e-03 0.0 
4.487772505232e-03 7.486624401194e-03 0.0 
0.0 0.0 0.0 
-1.375196418533e-03 4.059765016649e-03 0.0 
4.059765016649e-03 7.177547796957e-03 0.0 
0.0 0.0 0.0 
-1.904918674543e-03 3.677391264632e-03 0.0 
3.677391264632e-03 9.166627932907e-03 0.0 
0.0 0.0 0.0 
6.998159811673e-04 2.585482483548e-03 0.0 
2.585482483548e-03 4.936412736565e-03 0.0 
0.0 0.0 0.0 
1.237460164229e-03 2.562453194851e-03 0.0 
2.562453194851e-03 4.138432491243e-03 0.0 
0.0 0.0 0.0 
-1.177271582523e-03 3.686335614697e-03 0.0 
3.686335614697e-03 1.178272103057e-02 0.0 
0.0 0.0 0.0 
-2.161326747806e-03 2.884077722741e-03 0.0 
2.884077722741e-03 1.307812368135e-02 0.0 
0.0 0.0 0.0 
2.462460132431e-03 -1.770644994136e-03 0.0 
-1.770644994136e-03 -9.286535806506e-04 0.0 
0.0 0.0 0.0 
1.474928747098e-04 4.374687243552e-03 0.0 
4.374687243552e-03 4.341430780004e-03 0.0 
0.0 0.0 0.0 
4.012639965279e-03 2.304310566278e-03 0.0 
2.304310566278e-03 -2.694442962508e-03 0.0 
0.0 0.0 0.0 
4.445170932296e-03 2.143975419847e-03 0.0 
2.143975419847e-03 -2.665654397046e-03 0.0 
0.0 0.0 0.0 
-2.592223559374e-04 4.556247265039e-03 0.0 
4.556247265039e-03 6.478972471766e-03 0.0 
0.0 0.0 0.0 
3.913245088463e-03 4.229812323003e-04 0.0 
4.229812323003e-04 -1.402478967584e-03 0.0 
0.0 0.0 0.0 
3.908713912959e-05 -1.972031057552e-03 0.0 
-1.972031057552e-03 1.604115705495e-03 0.0 
0.0 0.0 0.0 
-1.387500270880e-03 3.281032662055e-03 0.0 
3.281032662055e-03 1.278790685290e-02 0.0 
0.0 0.0 0.0 
4.462530019626e-03 -6.426380383528e-04 0.0 
-6.426380383528e-04 -3.885364861897e-03 0.0 
0.0 0.0 0.0 
1.055091284921e-03 4.409883674202e-03 0.0 
4.409883674202e-03 3.418619393963e-03 0.0 
0.0 0.0 0.0 
-1.275364875213e-03 4.132657699822e-03 0.0 
4.132657699822e-03 8.372803042823e-03 0.0 
0.0 0.0 0.0 
8.092275076128e-04 4.356421280545e-03 0.0 
4.356421280545e-03 3.395945558060e-03 0.0 
0.0 0.0 0.0 
-4.113162995228e-04 4.580125385827e-03 0.0 
4.580125385827e-03 1.221836384973e-02 0.0 
0.0 0.0 0.0 
-4.476143351320e-04 4.055296143332e-03 0.0 
4.055296143332e-03 1.315525904755e-02 0.0 
0.0 0.0 0.0 
-9.057783108076e-04 3.838467863181e-03 0.0 
3.838467863181e-03 1.291085117379e-02 0.0 
0.0 0.0 0.0 
2.370566741198e-03 -1.553628120092e-03 0.0 
-1.553628120092e-03 -5.727682858444e-04 0.0 
0.0 0.0 0.0 
-1.650259951005e-03 2.480755080846e-03 0.0 
2.480755080846e-03 1.384820415917e-02 0.0 
0.0 0.0 0.0 
6.160064001008e-04 4.125638343803e-03 0.0 
4.125638343803e-03 1.189554509889e-03 0.0 
0.0 0.0 0.0 
4.693008204592e-03 2.061527836335e-03 0.0 
2.061527836335e-03 -2.583125157510e-03 0.0 
0.0 0.0 0.0 
3.466525592974e-03 1.519275940205e-03 0.0 
1.519275940205e-03 -3.588773738424e-03 0.0 
0.0 0.0 0.0 
-7.984579794831e-04 4.288223420579e-03 0.0 
4.288223420579e-03 6.227670612101e-03 0.0 
0.0 0.0 0.0 
-2.679207123348e-03 8.962396421309e-04 0.0 
8.962396421309e-04 1.329304228151e-02 0.0 
0.0 0.0 0.0 
-2.295073544547e-03 1.271040877725e-03 0.0 
1.271040877725e-03 1.382447344242e-02 0.0 
0.0 0.0 0.0 
1.188794347237e-03 1.386855547058e-03 0.0 
1.386855547058e-03 3.735337569692e-03 0.0 
0.0 0.0 0.0 
-8.208466798409e-04 4.029001489231e-03 0.0 
4.029001489231e-03 1.057372829948e-02 0.0 
0.0 0.0 0.0 
-2.344439058535e-03 3.134581268136e-03 0.0 
3.134581268136e-03 1.154987533703e-02 0.0 
0.0 0.0 0.0 
-1.403343297215e-03 4.062405316875e-03 0.0 
4.062405316875e-03 9.390175990420e-03 0.0 
0.0 0.0 0.0 
4.003768206937e-03 1.668738245538e-03 0.0 
1.668738245538e-03 -4.279442367490e-03 0.0 
0.0 0.0 0.0 
-6.822520611317e-04 -1.805122477044e-03 0.0 
-1.805122477044e-03 7.015039942748e-04 0.0 
0.0 0.0 0.0 
3.114186467968e-03 3.926306621521e-03 0.0 
3.926306621521e-03 -3.410439156726e-04 0.0 
0.0 0.0 0.0 
1.211750501109e-03 4.439445347737e-03 0.0 
4.439445347737e-03 3.526761209363e-03 0.0 
0.0 0.0 0.0 
2.885243601783e-03 3.895171347015e-03 0.0 
3.895171347015e-03 6.878535588082e-04 0.0 
0.0 0.0 0.0 
-8.157584527355e-04 3.891672643258e-03 0.0 
3.891672643258e-03 4.550961511640e-04 0.0 
0.0 0.0 0.0 
-1.777494079593e-03 1.293572438633e-04 0.0 
1.293572438633e-04 1.362247961716e-02 0.0 
0.0 0.0 0.0 
5.047159975224e-05 -2.037561453933e-03 0.0 
-2.037561453933e-03 7.711888408326e-04 0.0 
0.0 0.0 0.0 
2.529045335288e-03 3.999160042066e-03 0.0 
3.999160042066e-03 -1.003598182379e-03 0.0 
0.0 0.0 0.0 
0.0 1.468624720747e-03 0.0 
1.468624720747e-03 4.555535337673e-03 0.0 
0.0 0.0 0.0 
3.306962209338e-03 2.561466177259e-03 0.0 
2.561466177259e-03 8.069439266065e-04 0.0 
0.0 0.0 0.0 
-2.753067328986e-03 2.386288673340e-03 0.0 
2.386288673340e-03 1.208858308133e-02 0.0 
0.0 0.0 0.0 
1.038537573053e-03 -1.174329905388e-04 0.0 
-1.174329905388e-04 6.469066749135e-04 0.0 
0.0 0.0 0.0 
4.486610467980e-04 4.528905333261e-03 0.0 
4.528905333261e-03 4.412753878870e-03 0.0 
0.0 0.0 0.0 
3.473443737849e-03 3.630266030408e-03 0.0 
3.630266030408e-03 -3.011632932107e-04 0.0 
0.0 0.0 0.0 
-2.006750027482e-03 3.769239785471e-03 0.0 
3.769239785471e-03 1.087257472306e-02 0.0 
0.0 0.0 0.0 
-9.157799743575e-05 5.051995766675e-03 0.0 
5.051995766675e-03 1.047397876315e-02 0.0 
0.0 0.0 0.0 
-2.168358258310e-03 3.456661637789e-03 0.0 
3.456661637789e-03 1.001974714892e-02 0.0 
0.0 0.0 0.0 
-1.020872886224e-03 4.381995969068e-03 0.0 
4.381995969068e-03 8.458232320646e-03 0.0 
0.0 0.0 0.0 
3.104618150844e-04 -2.053662550468e-03 0.0 
-2.053662550468e-03 1.614812630496e-03 0.0 
0.0 0.0 0.0 
-1.623333742576e-03 2.949939043911e-03 0.0 
2.949939043911e-03 1.317643194625e-02 0.0 
0.0 0.0 0.0 
2.295231252775e-03 -1.397810350370e-03 0.0 
-1.397810350370e-03 6.575397919839e-05 0.0 
0.0 0.0 0.0 
-3.710794009970e-05 5.107119596483e-03 0.0 
5.107119596483e-03 9.866833258070e-03 0.0 
0.0 0.0 0.0 
0.0 4.450866887316e-03 0.0 
4.450866887316e-03 1.194128134245e-02 0.0 
0.0 0.0 0.0 
0.0 3.439109262141e-03 0.0 
3.439109262141e-03 1.379723830306e-02 0.0 
0.0 0.0 0.0 
0.0 3.966504139775e-03 0.0 
3.966504139775e-03 1.297549633294e-02 0.0 
0.0 0.0 0.0 
-1.618260506131e-03 3.841265445783e-03 0.0 
3.841265445783e-03 1.021890408204e-02 0.0 
0.0 0.0 0.0 
-1.834062416051e-03 3.071600148045e-03 0.0 
3.071600148045e-03 1.316146414501e-02 0.0 
0.0 0.0 0.0 
-8.553334068970e-04 3.973026290760e-03 0.0 
3.973026290760e-03 1.124751613662e-02 0.0 
0.0 0.0 0.0 
6.933877282311e-04 4.432362259936e-03 0.0 
4.432362259936e-03 3.387118863617e-03 0.0 
0.0 0.0 0.0 
9.315022787137e-05 4.354981300635e-03 0.0 
4.354981300635e-03 4.344129807570e-03 0.0 
0.0 0.0 0.0 
-2.617154263079e-04 -1.828621494895e-03 0.0 
-1.828621494895e-03 1.900095801309e-03 0.0 
0.0 0.0 0.0 
-1.586156487798e-03 3.407102737087e-03 0.0 
3.407102737087e-03 1.277033864150e-02 0.0 
0.0 0.0 0.0 
1.748915629189e-04 5.006518044682e-03 0.0 
5.006518044682e-03 8.609610290140e-03 0.0 
0.0 0.0 0.0 
-1.473520839911e-03 2.823385377285e-03 0.0 
2.823385377285e-03 1.357422427920e-02 0.0 
0.0 0.0 0.0 
3.776273353599e-03 2.615728595573e-03 0.0 
2.615728595573e-03 -1.070976294654e-04 0.0 
0.0 0.0 0.0 
-1.703493409873e-03 2.935105495976e-03 0.0 
2.935105495976e-03 1.356004794470e-02 0.0 
0.0 0.0 0.0 
1.368968049578e-03 4.243661948376e-03 0.0 
4.243661948376e-03 4.804631880148e-03 0.0 
0.0 0.0 0.0 
1.471944303972e-03 4.412563790116e-03 0.0 
4.412563790116e-03 2.519574647504e-03 0.0 
0.0 0.0 0.0 
-8.498087256188e-04 4.139114865281e-03 0.0 
4.139114865281e-03 6.243426645885e-03 0.0 
0.0 0.0 0.0 
2.212818793339e-03 4.041929321492e-03 0.0 
4.041929321492e-03 -1.766369522089e-03 0.0 
0.0 0.0 0.0 
-4.723883219822e-04 2.334369509354e-03 0.0 
2.334369509354e-03 1.467022334435e-02 0.0 
0.0 0.0 0.0 
1.063050125563e-03 4.351536123243e-03 0.0 
4.351536123243e-03 2.470989162796e-03 0.0 
0.0 0.0 0.0 
4.126981634918e-04 4.292249560368e-03 0.0 
4.292249560368e-03 7.343829242117e-03 0.0 
0.0 0.0 0.0 
-4.766786804866e-05 -1.959157804197e-03 0.0 
-1.959157804197e-03 1.918463395365e-03 0.0 
0.0 0.0 0.0 
2.552547881650e-03 -3.091155034703e-03 0.0 
-3.091155034703e-03 -2.249874295609e-03 0.0 
0.0 0.0 0.0 
6.514218251006e-04 1.185345323069e-03 0.0 
1.185345323069e-03 3.716787892660e-03 0.0 
0.0 0.0 0.0 
2.168777063256e-03 4.116343426760e-03 0.0 
4.116343426760e-03 -1.845449666982e-04 0.0 
0.0 0.0 0.0 
0.0 4.636231361495e-03 0.0 
4.636231361495e-03 1.138930638645e-02 0.0 
0.0 0.0 0.0 
-5.502139742555e-04 3.543004053743e-03 0.0 
3.543004053743e-03 1.328393456092e-02 0.0 
0.0 0.0 0.0 
-2.650651786364e-04 4.501868866888e-03 0.0 
4.501868866888e-03 6.663323098944e-03 0.0 
0.0 0.0 0.0 
-6.293771559573e-04 -9.701383382566e-04 0.0 
-9.701383382566e-04 7.564594170648e-04 0.0 
0.0 0.0 0.0 
0.0 4.827397064314e-03 0.0 
4.827397064314e-03 1.017853541591e-02 0.0 
0.0 0.0 0.0 
6.812391977349e-04 1.917497323349e-03 0.0 
1.917497323349e-03 3.914131239431e-03 0.0 
0.0 0.0 0.0 
3.158463559524e-03 -2.597895656584e-03 0.0 
-2.597895656584e-03 -2.327642885722e-03 0.0 
0.0 0.0 0.0 
3.747347803282e-03 2.113592621414e-03 0.0 
2.113592621414e-03 -1.181147257637e-04 0.0 
0.0 0.0 0.0 
5.450510662022e-04 3.746755568819e-03 0.0 
3.746755568819e-03 5.963556737520e-03 0.0 
0.0 0.0 0.0 
-4.832651321046e-04 -9.397089067005e-05 0.0 
-9.397089067005e-05 3.227005893680e-04 0.0 
0.0 0.0 0.0 
1.294734729778e-03 4.395286380716e-03 0.0 
4.395286380716e-03 2.460593565667e-03 0.0 
0.0 0.0 0.0 
-6.278346620462e-04 4.407957477131e-03 0.0 
4.407957477131e-03 7.671110933464e-03 0.0 
0.0 0.0 0.0 
1.381165162253e-04 4.558718600570e-03 0.0 
4.558718600570e-03 5.617068154823e-03 0.0 
0.0 0.0 0.0 
-7.722556487783e-04 4.363232896439e-03 0.0 
4.363232896439e-03 7.504632460482e-03 0.0 
0.0 0.0 0.0 
1.867192664739e-03 4.119267634140e-03 0.0 
4.119267634140e-03 -7.744907798239e-04 0.0 
0.0 0.0 0.0 
0.0 4.802467946663e-03 0.0 
4.802467946663e-03 8.915933520076e-03 0.0 
0.0 0.0 0.0 
4.837779162455e-03 2.032883222120e-03 0.0 
2.032883222120e-03 -2.438474234941e-03 0.0 
0.0 0.0 0.0 
2.136143079680e-03 4.686331349860e-04 0.0 
4.686331349860e-04 -4.225844296941e-03 0.0 
0.0 0.0 0.0 
1.677501648083e-04 -4.639745486299e-04 0.0 
-4.639745486299e-04 4.908436348127e-03 0.0 
0.0 0.0 0.0 
-4.955592939365e-04 -7.905863606788e-04 0.0 
-7.905863606788e-04 4.960153097608e-04 0.0 
0.0 0.0 0.0 
-1.599824623074e-03 3.871845483079e-03 0.0 
3.871845483079e-03 8.254193015499e-03 0.0 
0.0 0.0 0.0 
1.760693042207e-03 -3.130983137018e-03 0.0 
-3.130983137018e-03 -2.551119023673e-03 0.0 
0.0 0.0 0.0 
-2.537784334558e-03 2.938532954377e-03 0.0 
2.938532954377e-03 1.080890379723e-02 0.0 
0.0 0.0 0.0 
6.858575190809e-04 2.115088687485e-03 0.0 
2.115088687485e-03 4.718010243374e-03 0.0 
0.0 0.0 0.0 
0.0 4.541171747594e-03 0.0 
4.541171747594e-03 7.712481338245e-03 0.0 
0.0 0.0 0.0 
-1.826169492213e-03 3.767367167903e-03 0.0 
3.767367167903e-03 1.013616614474e-02 0.0 
0.0 0.0 0.0 
5.563406198479e-04 -3.338256233109e-03 0.0 
-3.338256233109e-03 -9.865319102513e-04 0.0 
0.0 0.0 0.0 
1.871377226066e-03 8.618368213790e-04 0.0 
8.618368213790e-04 -4.702980899924e-03 0.0 
0.0 0.0 0.0 
4.916634878185e-04 -3.816392225254e-03 0.0 
-3.816392225254e-03 -1.252722764658e-03 0.0 
0.0 0.0 0.0 
7.531025698515e-04 -6.096561276282e-04 0.0 
-6.096561276282e-04 3.056421206106e-03 0.0 
0.0 0.0 0.0 
-2.719389300132e-03 1.076374339909e-03 0.0 
1.076374339909e-03 1.309087307861e-02 0.0 
0.0 0.0 0.0 
-2.984425608092e-03 2.511272503046e-03 0.0 
2.511272503046e-03 1.250888050950e-02 0.0 
0.0 0.0 0.0 
0.0 4.077965460176e-03 0.0 
4.077965460176e-03 6.651259217400e-03 0.0 
0.0 0.0 0.0 
-2.583090401629e-03 8.354605126765e-04 0.0 
8.354605126765e-04 1.318517786951e-02 0.0 
0.0 0.0 0.0 
-4.605126826941e-04 3.445643876946e-03 0.0 
3.445643876946e-03 1.394451756888e-02 0.0 
0.0 0.0 0.0 
1.494728469514e-03 4.142503579112e-03 0.0 
4.142503579112e-03 4.243574256642e-03 0.0 
0.0 0.0 0.0 
-2.267450934453e-03 9.717208913639e-04 0.0 
9.717208913639e-04 1.378944943311e-02 0.0 
0.0 0.0 0.0 
2.445494724648e-04 4.132004771172e-03 0.0 
4.132004771172e-03 2.692398429152e-03 0.0 
0.0 0.0 0.0 
3.627521658610e-03 2.484300596862e-03 0.0 
2.484300596862e-03 -1.692868971617e-04 0.0 
0.0 0.0 0.0 
2.960172955897e-03 2.849836060371e-03 0.0 
2.849836060371e-03 -2.644943602249e-03 0.0 
0.0 0.0 0.0 
0.0 3.419252939233e-03 0.0 
3.419252939233e-03 5.767072963551e-03 0.0 
0.0 0.0 0.0 
0.0 4.226748929489e-03 0.0 
4.226748929489e-03 1.247608121100e-02 0.0 
0.0 0.0 0.0 
0.0 3.704948919258e-03 0.0 
3.704948919258e-03 1.342663141459e-02 0.0 
0.0 0.0 0.0 
1.890641256870e-03 -1.603356219920e-03 0.0 
-1.603356219920e-03 9.847314136735e-05 0.0 
0.0 0.0 0.0 
-5.082641764783e-04 -1.627947776461e-03 0.0 
-1.627947776461e-03 2.146991536258e-03 0.0 
0.0 0.0 0.0 
1.660715380521e-03 4.263168994229e-03 0.0 
4.263168994229e-03 2.541363542821e-03 0.0 
0.0 0.0 0.0 
1.852204142941e-03 -1.409045191767e-03 0.0 
-1.409045191767e-03 7.535113240278e-04 0.0 
0.0 0.0 0.0 
0.0 2.701393962698e-03 0.0 
2.701393962698e-03 5.112175447974e-03 0.0 
0.0 0.0 0.0 
2.904142280071e-03 3.555933882245e-03 0.0 
3.555933882245e-03 -9.396029728775e-04 0.0 
0.0 0.0 0.0 
4.477371011600e-03 -1.163078481397e-03 0.0 
-1.163078481397e-03 -3.376265704249e-03 0.0 
0.0 0.0 0.0 
4.067243002651e-03 -1.709449948695e-03 0.0 
-1.709449948695e-03 -2.840338660859e-03 0.0 
0.0 0.0 0.0 
-2.134576037742e-03 9.614421284480e-04 0.0 
9.614421284480e-04 1.401113139788e-02 0.0 
0.0 0.0 0.0 
5.216858333024e-04 9.053353267249e-04 0.0 
9.053353267249e-04 4.494835960646e-03 0.0 
0.0 0.0 0.0 
-9.391744295792e-04 -3.519169638340e-03 0.0 
-3.519169638340e-03 -5.754037763650e-05 0.0 
0.0 0.0 0.0 
0.0 1.855138325188e-03 0.0 
1.855138325188e-03 4.646164984926e-03 0.0 
0.0 0.0 0.0 
3.417138236834e-03 -2.318160151115e-03 0.0 
-2.318160151115e-03 -2.351821526118e-03 0.0 
0.0 0.0 0.0 
0.0 4.770820935502e-03 0.0 
4.770820935502e-03 1.080001925331e-02 0.0 
0.0 0.0 0.0 
-1.016841790641e-03 4.077137102614e-03 0.0 
4.077137102614e-03 1.123092401136e-02 0.0 
0.0 0.0 0.0 
-9.571700937394e-05 -1.068714887483e-04 0.0 
-1.068714887483e-04 1.759891863611e-04 0.0 
0.0 0.0 0.0 
1.897848700135e-03 4.238295524843e-03 0.0 
4.238295524843e-03 1.561982383480e-03 0.0 
0.0 0.0 0.0 
-1.709598696429e-03 2.468557883705e-03 0.0 
2.468557883705e-03 1.413669548601e-02 0.0 
0.0 0.0 0.0 
0.0 4.849074600181e-03 0.0 
4.849074600181e-03 9.550028979912e-03 0.0 
0.0 0.0 0.0 
-1.569727254507e-03 4.034762417456e-03 0.0 
4.034762417456e-03 1.019323546702e-02 0.0 
0.0 0.0 0.0 
1.760646242708e-03 3.909558525940e-03 0.0 
3.909558525940e-03 3.803775434019e-03 0.0 
0.0 0.0 0.0 
1.305707826855e-03 4.118151211004e-03 0.0 
4.118151211004e-03 -1.423622458840e-03 0.0 
0.0 0.0 0.0 
1.295872239940e-03 1.612390382058e-03 0.0 
1.612390382058e-03 3.077400191603e-03 0.0 
0.0 0.0 0.0 
2.884866008712e-03 -2.500789660875e-03 0.0 
-2.500789660875e-03 -1.700925691942e-03 0.0 
0.0 0.0 0.0 
3.467444198753e-03 -2.275591152986e-03 0.0 
-2.275591152986e-03 -2.762061235205e-03 0.0 
0.0 0.0 0.0 
-1.809596576708e-03 -3.362780917393e-03 0.0 
-3.362780917393e-03 -2.769731825136e-05 0.0 
0.0 0.0 0.0 
0.0 4.698180158919e-03 0.0 
4.698180158919e-03 8.304594017681e-03 0.0 
0.0 0.0 0.0 
3.497204391448e-03 2.491350095905e-03 0.0 
2.491350095905e-03 -2.692516468152e-03 0.0 
0.0 0.0 0.0 
1.955428236051e-03 2.469200142343e-04 0.0 
2.469200142343e-04 1.715657829613e-03 0.0 
0.0 0.0 0.0 
-2.466148039043e-03 7.899671075384e-04 0.0 
7.899671075384e-04 1.370094462197e-02 0.0 
0.0 0.0 0.0 
1.056027052697e-03 -2.850718474862e-03 0.0 
-2.850718474862e-03 -3.590720478289e-04 0.0 
0.0 0.0 0.0 
3.950735154780e-03 -1.937602700767e-03 0.0 
-1.937602700767e-03 -3.261819061924e-03 0.0 
0.0 0.0 0.0 
-1.343092761336e-03 4.243058647285e-03 0.0 
4.243058647285e-03 9.365471223655e-03 0.0 
0.0 0.0 0.0 
0.0 3.758292662113e-03 0.0 
3.758292662113e-03 6.190453320914e-03 0.0 
0.0 0.0 0.0 
-5.861772717864e-04 -1.545347698232e-03 0.0 
-1.545347698232e-03 2.555957230752e-03 0.0 
0.0 0.0 0.0 
2.037705185515e-03 -9.197938772559e-04 0.0 
-9.197938772559e-04 6.050911203173e-04 0.0 
0.0 0.0 0.0 
1.117064350856e-03 4.527319814824e-03 0.0 
4.527319814824e-03 3.710980398441e-03 0.0 
0.0 0.0 0.0 
3.413318814171e-03 -5.392217648215e-04 0.0 
-5.392217648215e-04 -1.272213522615e-03 0.0 
0.0 0.0 0.0 
4.499664604433e-03 -1.162749142370e-03 0.0 
-1.162749142370e-03 -3.472840132145e-03 0.0 
0.0 0.0 0.0 
2.225547322574e-03 -1.297158005635e-03 0.0 
-1.297158005635e-03 -5.786602990976e-05 0.0 
0.0 0.0 0.0 
7.474042162876e-04 4.543715859007e-03 0.0 
4.543715859007e-03 4.561193621519e-03 0.0 
0.0 0.0 0.0 
5.452987065391e-04 4.420808480889e-03 0.0 
4.420808480889e-03 6.474630196589e-03 0.0 
0.0 0.0 0.0 
3.174686515710e-03 2.442258804250e-03 0.0 
2.442258804250e-03 7.417503749516e-04 0.0 
0.0 0.0 0.0 
1.584237630542e-03 4.420400027457e-03 0.0 
4.420400027457e-03 2.668727651758e-03 0.0 
0.0 0.0 0.0 
6.818167692624e-04 -2.244716722264e-03 0.0 
-2.244716722264e-03 1.088432753875e-03 0.0 
0.0 0.0 0.0 
2.511845799759e-03 3.805501284969e-03 0.0 
3.805501284969e-03 -1.415941722905e-04 0.0 
0.0 0.0 0.0 
-3.533517316209e-04 -1.798949749490e-03 0.0 
-1.798949749490e-03 2.171780261408e-03 0.0 
0.0 0.0 0.0 
1.687850669644e-03 4.016969728498e-03 0.0 
4.016969728498e-03 4.264138334263e-03 0.0 
0.0 0.0 0.0 
4.576454895805e-03 1.936647667347e-03 0.0 
1.936647667347e-03 -1.957016026697e-03 0.0 
0.0 0.0 0.0 
6.610366622097e-04 1.702286119316e-03 0.0 
1.702286119316e-03 4.601238144307e-03 0.0 
0.0 0.0 0.0 
-1.540861794674e-03 2.809614093119e-03 0.0 
2.809614093119e-03 1.391491060817e-02 0.0 
0.0 0.0 0.0 
7.841903310124e-04 -2.691218895836e-03 0.0 
-2.691218895836e-03 2.086718988557e-04 0.0 
0.0 0.0 0.0 
0.0 2.262539988985e-03 0.0 
2.262539988985e-03 4.794283424115e-03 0.0 
0.0 0.0 0.0 
1.296541143593e-03 1.801448496964e-03 0.0 
1.801448496964e-03 3.842170876947e-03 0.0 
0.0 0.0 0.0 
3.182094823850e-03 3.819561343998e-03 0.0 
3.819561343998e-03 -1.644071063505e-04 0.0 
0.0 0.0 0.0 
-8.593747367134e-04 -2.339030185472e-03 0.0 
-2.339030185472e-03 8.631599054718e-04 0.0 
0.0 0.0 0.0 
5.409938879681e-04 5.850996435000e-04 0.0 
5.850996435000e-04 4.536174894117e-03 0.0 
0.0 0.0 0.0 
-1.480726008003e-03 3.268123279611e-03 0.0 
3.268123279611e-03 1.323278772235e-02 0.0 
0.0 0.0 0.0 
2.693968587257e-03 -2.793238247256e-03 0.0 
-2.793238247256e-03 -1.682182819477e-03 0.0 
0.0 0.0 0.0 
0.0 1.083280866624e-03 0.0 
1.083280866624e-03 4.471460651151e-03 0.0 
0.0 0.0 0.0 
1.768451688563e-03 -1.294083919300e-03 0.0 
-1.294083919300e-03 6.359932470323e-04 0.0 
0.0 0.0 0.0 
-2.928711213307e-04 4.341281806652e-03 0.0 
4.341281806652e-03 5.288263795112e-03 0.0 
0.0 0.0 0.0 
-2.606618458621e-03 2.674605952888e-03 0.0 
2.674605952888e-03 1.210925851198e-02 0.0 
0.0 0.0 0.0 
4.592130551243e-03 2.022916040081e-03 0.0 
2.022916040081e-03 -1.736619097510e-03 0.0 
0.0 0.0 0.0 
1.987558685417e-03 -1.836874288065e-03 0.0 
-1.836874288065e-03 -3.255603557829e-04 0.0 
0.0 0.0 0.0 
3.492789127821e-03 7.241658842055e-05 0.0 
7.241658842055e-05 -9.460895014600e-04 0.0 
0.0 0.0 0.0 
-2.451472901752e-03 2.691086065441e-03 0.0 
2.691086065441e-03 1.300282804270e-02 0.0 
0.0 0.0 0.0 
-1.092023952011e-03 4.169347468787e-03 0.0 
4.169347468787e-03 7.317833494500e-03 0.0 
0.0 0.0 0.0 
2.779150196641e-03 2.816972613286e-03 0.0 
2.816972613286e-03 1.602013822751e-03 0.0 
0.0 0.0 0.0 
-1.786293376817e-03 1.478932006587e-04 0.0 
1.478932006587e-04 1.392082970099e-02 0.0 
0.0 0.0 0.0 
3.680429002533e-04 -2.193038236839e-03 0.0 
-2.193038236839e-03 1.082441476111e-03 0.0 
0.0 0.0 0.0 
3.567821994737e-03 1.995392047685e-03 0.0 
1.995392047685e-03 -7.694146719550e-05 0.0 
0.0 0.0 0.0 
2.279096126505e-03 -2.731570421898e-03 0.0 
-2.731570421898e-03 -1.669130893123e-03 0.0 
0.0 0.0 0.0 
1.230796239640e-04 -1.273970823488e-03 0.0 
-1.273970823488e-03 2.943012767161e-03 0.0 
0.0 0.0 0.0 
-2.862324594242e-04 -2.422343926979e-04 0.0 
-2.422343926979e-04 1.543636056369e-04 0.0 
0.0 0.0 0.0 
2.090086786884e-03 4.007612545386e-03 0.0 
4.007612545386e-03 6.649938801775e-04 0.0 
0.0 0.0 0.0 
2.799965600130e-03 -2.759467042916e-03 0.0 
-2.759467042916e-03 -2.286111906218e-03 0.0 
0.0 0.0 0.0 
-1.207579835127e-05 -1.834938688186e-03 0.0 
-1.834938688186e-03 2.118115556514e-03 0.0 
0.0 0.0 0.0 
2.601652398422e-03 4.005560184781e-03 0.0 
4.005560184781e-03 8.888415516775e-04 0.0 
0.0 0.0 0.0 
2.208527230091e-03 -1.089383966994e-03 0.0 
-1.089383966994e-03 6.034423762478e-04 0.0 
0.0 0.0 0.0 
-2.335914960354e-03 7.780836071036e-04 0.0 
7.780836071036e-04 1.392152034827e-02 0.0 
0.0 0.0 0.0 
2.082581805816e-03 -3.033569424001e-03 0.0 
-3.033569424001e-03 -1.641140285882e-03 0.0 
0.0 0.0 0.0 
0.0 7.644603547955e-04 0.0 
7.644603547955e-04 4.518408571305e-03 0.0 
0.0 0.0 0.0 
-5.101218323150e-04 4.512977925504e-03 0.0 
4.512977925504e-03 7.656173507442e-03 0.0 
0.0 0.0 0.0 
-2.837745340355e-04 -1.598070623576e-03 0.0 
-1.598070623576e-03 2.584275110353e-03 0.0 
0.0 0.0 0.0 
-1.207921021017e-04 4.573588005492e-03 0.0 
4.573588005492e-03 6.652597700692e-03 0.0 
0.0 0.0 0.0 
-2.479474699751e-04 -1.734472254899e-03 0.0 
-1.734472254899e-03 2.104468075496e-03 0.0 
0.0 0.0 0.0 
-8.018952670519e-04 -1.378501126311e-04 0.0 
-1.378501126311e-04 4.502583503141e-04 0.0 
0.0 0.0 0.0 
-2.744119323385e-03 2.712536114121e-03 0.0 
2.712536114121e-03 1.252006619922e-02 0.0 
0.0 0.0 0.0 
-1.134006889589e-03 -6.269157215958e-04 0.0 
-6.269157215958e-04 3.120872351223e-03 0.0 
0.0 0.0 0.0 
1.355770627079e-03 -1.470100451926e-04 0.0 
-1.470100451926e-04 -4.585486912483e-04 0.0 
0.0 0.0 0.0 
-5.572003631663e-04 -1.465725115550e-03 0.0 
-1.465725115550e-03 2.773756281621e-03 0.0 
0.0 0.0 0.0 
2.003568788789e-03 -7.352687088350e-04 0.0 
-7.352687088350e-04 1.226522697103e-03 0.0 
0.0 0.0 0.0 
-1.090440320963e-03 7.547023717566e-04 0.0 
7.547023717566e-04 1.500128099917e-02 0.0 
0.0 0.0 0.0 
3.902222439212e-03 -1.727432403846e-04 0.0 
-1.727432403846e-04 -1.751245945334e-03 0.0 
0.0 0.0 0.0 
3.770425133904e-03 -1.299473410761e-04 0.0 
-1.299473410761e-04 -1.345208267958e-03 0.0 
0.0 0.0 0.0 
-3.151570981909e-03 2.209015246062e-03 0.0 
2.209015246062e-03 1.243392758288e-02 0.0 
0.0 0.0 0.0 
-2.569554819211e-03 5.541102012466e-04 0.0 
5.541102012466e-04 1.299842275779e-02 0.0 
0.0 0.0 0.0 
-5.199900999545e-04 2.829905016402e-03 0.0 
2.829905016402e-03 1.426249141108e-02 0.0 
0.0 0.0 0.0 
2.965629820384e-04 4.584422779353e-03 0.0 
4.584422779353e-03 5.613049216199e-03 0.0 
0.0 0.0 0.0 
2.055322130349e-03 -1.684155392072e-04 0.0 
-1.684155392072e-04 -7.333006720142e-04 0.0 
0.0 0.0 0.0 
-1.273845072081e-05 -1.539381195465e-03 0.0 
-1.539381195465e-03 9.165406942209e-04 0.0 
0.0 0.0 0.0 
-8.943214185361e-04 -1.423688315259e-03 0.0 
-1.423688315259e-03 9.201516718891e-04 0.0 
0.0 0.0 0.0 
3.937090022368e-04 -2.504856047800e-03 0.0 
-2.504856047800e-03 5.420924780333e-04 0.0 
0.0 0.0 0.0 
-1.440742014347e-04 4.374265924306e-03 0.0 
4.374265924306e-03 8.744606862643e-03 0.0 
0.0 0.0 0.0 
-1.241612453409e-03 7.448046057608e-04 0.0 
7.448046057608e-04 1.500300718042e-02 0.0 
0.0 0.0 0.0 
8.380326899100e-04 -6.947978103476e-04 0.0 
-6.947978103476e-04 3.041359260578e-03 0.0 
0.0 0.0 0.0 
9.749147778626e-06 -2.078235523588e-03 0.0 
-2.078235523588e-03 1.216469858082e-03 0.0 
0.0 0.0 0.0 
-1.445129600235e-04 -1.251738778425e-03 0.0 
-1.251738778425e-03 2.941167476321e-03 0.0 
0.0 0.0 0.0 
1.792519103195e-03 2.881303792677e-04 0.0 
2.881303792677e-04 2.184340631618e-03 0.0 
0.0 0.0 0.0 
3.100241648280e-03 3.708189427615e-04 0.0 
3.708189427615e-04 -4.194028960071e-03 0.0 
0.0 0.0 0.0 
-1.141913038845e-03 -3.854980634464e-04 0.0 
-3.854980634464e-04 3.116530987825e-03 0.0 
0.0 0.0 0.0 
-1.013147739224e-03 -3.519221568925e-04 0.0 
-3.519221568925e-04 2.751769221005e-03 0.0 
0.0 0.0 0.0 
4.173126643845e-04 2.710997561704e-04 0.0 
2.710997561704e-04 4.600182473904e-03 0.0 
0.0 0.0 0.0 
0.0 4.352085669389e-04 0.0 
4.352085669389e-04 4.553908356623e-03 0.0 
0.0 0.0 0.0 
-1.176643805759e-03 -3.990869893442e-04 0.0 
-3.990869893442e-04 3.335185073507e-03 0.0 
0.0 0.0 0.0 
-4.921149320488e-04 -1.484196224347e-03 0.0 
-1.484196224347e-03 2.568108326093e-03 0.0 
0.0 0.0 0.0 
1.911814596019e-03 -1.675959539531e-03 0.0 
-1.675959539531e-03 3.088209657898e-04 0.0 
0.0 0.0 0.0 
1.740394318988e-03 6.696474447810e-04 0.0 
6.696474447810e-04 2.478714163048e-03 0.0 
0.0 0.0 0.0 
-2.116516060269e-04 -1.627581199793e-03 0.0 
-1.627581199793e-03 1.041051836897e-03 0.0 
0.0 0.0 0.0 
1.811347211347e-03 -8.304017141652e-05 0.0 
-8.304017141652e-05 1.975070875144e-03 0.0 
0.0 0.0 0.0 
1.184834438654e-03 -4.252941894115e-04 0.0 
-4.252941894115e-04 2.330074427748e-04 0.0 
0.0 0.0 0.0 
-5.057049366617e-04 -1.576765677623e-03 0.0 
-1.576765677623e-03 2.341835535945e-03 0.0 
0.0 0.0 0.0 
5.541535766751e-05 -1.835820589329e-03 0.0 
-1.835820589329e-03 1.833603253745e-03 0.0 
0.0 0.0 0.0 
1.360974015884e-03 -2.196913281661e-04 0.0 
-2.196913281661e-04 -1.834139201664e-04 0.0 
0.0 0.0 0.0 
-1.193197737681e-03 -3.736640670099e-04 0.0 
-3.736640670099e-04 3.296351550407e-03 0.0 
0.0 0.0 0.0 
-1.273760403071e-03 2.726497171190e-03 0.0 
2.726497171190e-03 1.392735100230e-02 0.0 
0.0 0.0 0.0 
2.300099277094e-03 -1.098736003081e-04 0.0 
-1.098736003081e-04 -8.238079736115e-04 0.0 
0.0 0.0 0.0 
-2.704582957185e-03 7.498700512958e-04 0.0 
7.498700512958e-04 1.296490890312e-02 0.0 
0.0 0.0 0.0 
-2.662737705977e-03 9.327253985609e-04 0.0 
9.327253985609e-04 1.276298818543e-02 0.0 
0.0 0.0 0.0 
3.461057114099e-03 6.934431342620e-04 0.0 
6.934431342620e-04 -4.551683214795e-04 0.0 
0.0 0.0 0.0 
-9.796795689404e-04 -9.152906901064e-05 0.0 
-9.152906901064e-05 2.761358735839e-03 0.0 
0.0 0.0 0.0 
2.170174719931e-03 -2.764238566866e-03 0.0 
-2.764238566866e-03 -1.042468826351e-03 0.0 
0.0 0.0 0.0 
1.025112613094e-03 3.944598276561e-03 0.0 
3.944598276561e-03 4.494345449684e-04 0.0 
0.0 0.0 0.0 
4.105364004470e-04 -4.947315802176e-04 0.0 
-4.947315802176e-04 4.054906591413e-03 0.0 
0.0 0.0 0.0 
1.623238762434e-04 4.502907316587e-03 0.0 
4.502907316587e-03 8.150743297310e-03 0.0 
0.0 0.0 0.0 
-1.618242243734e-03 1.097972124009e-03 0.0 
1.097972124009e-03 1.477934690016e-02 0.0 
0.0 0.0 0.0 
3.166119052811e-04 4.031572796490e-03 0.0 
4.031572796490e-03 2.704723689689e-03 0.0 
0.0 0.0 0.0 
-3.594864676331e-04 -1.262054621542e-03 0.0 
-1.262054621542e-03 8.308893222608e-04 0.0 
0.0 0.0 0.0 
-1.893979859244e-03 3.961128618127e-03 0.0 
3.961128618127e-03 9.129877601433e-03 0.0 
0.0 0.0 0.0 
-2.225651934118e-03 2.331239821424e-04 0.0 
2.331239821424e-04 1.301353850203e-02 0.0 
0.0 0.0 0.0 
-2.120791149116e-03 2.054583941486e-04 0.0 
2.054583941486e-04 1.294456996748e-02 0.0 
0.0 0.0 0.0 
1.574813831928e-03 -1.305911813931e-04 0.0 
-1.305911813931e-04 -5.576504328105e-04 0.0 
0.0 0.0 0.0 
1.185186908158e-03 -2.944153750213e-04 0.0 
-2.944153750213e-04 -1.046558279177e-04 0.0 
0.0 0.0 0.0 
9.625395136645e-04 -1.882482055157e-04 0.0 
-1.882482055157e-04 3.504151207503e-04 0.0 
0.0 0.0 0.0 
-2.028316512289e-04 -1.805775396847e-03 0.0 
-1.805775396847e-03 1.360602634714e-03 0.0 
0.0 0.0 0.0 
1.983426479404e-03 -1.880408770217e-04 0.0 
-1.880408770217e-04 -4.275211209742e-04 0.0 
0.0 0.0 0.0 
-1.183569252256e-03 -3.575958884767e-04 0.0 
-3.575958884767e-04 3.517170740465e-03 0.0 
0.0 0.0 0.0 
-1.599504415276e-03 -1.224972229443e-03 0.0 
-1.224972229443e-03 -1.713740190678e-03 0.0 
0.0 0.0 0.0 
-1.632236651162e-04 -1.965179716760e-03 0.0 
-1.965179716760e-03 1.491636639626e-03 0.0 
0.0 0.0 0.0 
-1.592755684230e-03 2.091023405037e-04 0.0 
2.091023405037e-04 1.421727728657e-02 0.0 
0.0 0.0 0.0 
-2.411123658446e-03 5.080954939323e-04 0.0 
5.080954939323e-04 1.288785903408e-02 0.0 
0.0 0.0 0.0 
-3.653079312432e-04 4.377855765193e-03 0.0 
4.377855765193e-03 9.572119242860e-03 0.0 
0.0 0.0 0.0 
1.762227026293e-03 -1.078664593358e-03 0.0 
-1.078664593358e-03 1.280660490805e-03 0.0 
0.0 0.0 0.0 
-1.684412759169e-03 1.410504779875e-04 0.0 
1.410504779875e-04 1.391296793006e-02 0.0 
0.0 0.0 0.0 
-1.085750698282e-03 -1.318412488487e-04 0.0 
-1.318412488487e-04 2.923236012055e-03 0.0 
0.0 0.0 0.0 
1.490766969849e-03 -2.353695181350e-04 0.0 
-2.353695181350e-04 1.218014534330e-04 0.0 
0.0 0.0 0.0 
0.0 1.513842229548e-03 0.0 
1.513842229548e-03 1.527937983665e-02 0.0 
0.0 0.0 0.0 
-4.178391331994e-04 1.688674619612e-03 0.0 
1.688674619612e-03 1.521877138352e-02 0.0 
0.0 0.0 0.0 
-2.224610033647e-03 7.154862529168e-04 0.0 
7.154862529168e-04 1.370617591670e-02 0.0 
0.0 0.0 0.0 
-2.344240875967e-03 3.036571694948e-04 0.0 
3.036571694948e-04 1.301011003739e-02 0.0 
0.0 0.0 0.0 
-1.039861960129e-03 -3.482826461857e-04 0.0 
-3.482826461857e-04 2.886012416393e-03 0.0 
0.0 0.0 0.0 
-3.613721074268e-04 1.188796416119e-03 0.0 
1.188796416119e-03 1.541184089989e-02 0.0 
0.0 0.0 0.0 
-3.084546012055e-06 -1.966015989408e-03 0.0 
-1.966015989408e-03 1.155052577256e-03 0.0 
0.0 0.0 0.0 
-2.532063576181e-03 6.879719238334e-04 0.0 
6.879719238334e-04 1.283343195301e-02 0.0 
0.0 0.0 0.0 
-2.449660148775e-03 4.171349662031e-04 0.0 
4.171349662031e-04 1.300958341506e-02 0.0 
0.0 0.0 0.0 
-2.339305947853e-03 3.244640520714e-03 0.0 
3.244640520714e-03 1.003135792383e-02 0.0 
0.0 0.0 0.0 
0.0 3.167223928022e-03 0.0 
3.167223928022e-03 1.411256575846e-02 0.0 
0.0 0.0 0.0 
-4.131896572164e-04 1.436282118357e-03 0.0 
1.436282118357e-03 1.532723213812e-02 0.0 
0.0 0.0 0.0 
1.820736164803e-03 -2.485082976270e-04 0.0 
-2.485082976270e-04 -3.711234295427e-04 0.0 
0.0 0.0 0.0 
1.820605928461e-03 -1.095219156140e-04 0.0 
-1.095219156140e-04 -6.635898700741e-04 0.0 
0.0 0.0 0.0 
-2.856330841077e-04 -1.232755910061e-03 0.0 
-1.232755910061e-03 9.002926215174e-04 0.0 
0.0 0.0 0.0 
3.349530213665e-04 -1.890453317142e-03 0.0 
-1.890453317142e-03 1.840184230313e-03 0.0 
0.0 0.0 0.0 
-3.836953180895e-04 -8.869567093318e-05 0.0 
-8.869567093318e-05 5.579046271873e-03 0.0 
0.0 0.0 0.0 
-4.477023300490e-03 -2.037699175860e-03 0.0 
-2.037699175860e-03 -1.571749818568e-03 0.0 
0.0 0.0 0.0 
-1.234200315488e-03 9.194392092994e-05 0.0 
9.194392092994e-05 1.483634451585e-02 0.0 
0.0 0.0 0.0 
-1.763002926980e-03 -1.149351087569e-03 0.0 
-1.149351087569e-03 8.273736468183e-04 0.0 
0.0 0.0 0.0 
3.418307136697e-03 1.661290477362e-04 0.0 
1.661290477362e-04 -5.125373045173e-04 0.0 
0.0 0.0 0.0 
-1.018361843995e-03 -7.400937032220e-04 0.0 
-7.400937032220e-04 1.073937868905e-04 0.0 
0.0 0.0 0.0 
-2.657778902552e-03 -2.314192090959e-03 0.0 
-2.314192090959e-03 -2.609235834441e-04 0.0 
0.0 0.0 0.0 
3.351879483735e-03 -4.066640554232e-04 0.0 
-4.066640554232e-04 -7.525543243726e-04 0.0 
0.0 0.0 0.0 
-2.802965816360e-04 -3.675552571600e-04 0.0 
-3.675552571600e-04 5.167221408378e-03 0.0 
0.0 0.0 0.0 
-1.691576276372e-03 1.552465519938e-04 0.0 
1.552465519938e-04 1.418882207020e-02 0.0 
0.0 0.0 0.0 
-1.370399503102e-03 4.241880689277e-03 0.0 
4.241880689277e-03 8.268209248397e-03 0.0 
0.0 0.0 0.0 
1.491437871405e-03 -1.611953672622e-04 0.0 
-1.611953672622e-04 -2.387638247693e-04 0.0 
0.0 0.0 0.0 
-3.414057041150e-04 -1.034148224913e-03 0.0 
-1.034148224913e-03 3.400617987234e-03 0.0 
0.0 0.0 0.0 
0.0 4.705124571805e-04 0.0 
4.705124571805e-04 1.554897331871e-02 0.0 
0.0 0.0 0.0 
-3.230937665566e-04 5.405980896141e-04 0.0 
5.405980896141e-04 1.554777972104e-02 0.0 
0.0 0.0 0.0 
-2.295333860400e-03 3.758074051233e-04 0.0 
3.758074051233e-04 1.291045006068e-02 0.0 
0.0 0.0 0.0 
3.348980728995e-03 7.219258434362e-04 0.0 
7.219258434362e-04 -1.316559476094e-04 0.0 
0.0 0.0 0.0 
0.0 1.267699154590e-03 0.0 
1.267699154590e-03 1.537829848714e-02 0.0 
0.0 0.0 0.0 
1.898805713022e-03 3.758624765238e-03 0.0 
3.758624765238e-03 3.824966699554e-03 0.0 
0.0 0.0 0.0 
1.567864671439e-03 -1.249127777378e-04 0.0 
-1.249127777378e-04 7.075534847578e-05 0.0 
0.0 0.0 0.0 
2.103237943578e-03 -1.277317618475e-04 0.0 
-1.277317618475e-04 -4.806997248916e-04 0.0 
0.0 0.0 0.0 
1.584119549701e-03 -5.040488687897e-05 0.0 
-5.040488687897e-05 -2.527048155927e-04 0.0 
0.0 0.0 0.0 
-1.190367114354e-03 -1.247938429273e-04 0.0 
-1.247938429273e-04 3.196229242780e-03 0.0 
0.0 0.0 0.0 
-1.272111353173e-04 -3.627168436432e-04 0.0 
-3.627168436432e-04 5.885485983173e-03 0.0 
0.0 0.0 0.0 
-5.497685148754e-04 -2.754741423252e-06 0.0 
-2.754741423252e-06 1.539807556387e-02 0.0 
0.0 0.0 0.0 
2.105340284808e-03 -7.619696390647e-05 0.0 
-7.619696390647e-05 -7.951766399812e-04 0.0 
0.0 0.0 0.0 
-1.207390897232e-03 -1.479288433527e-04 0.0 
-1.479288433527e-04 3.516868368418e-03 0.0 
0.0 0.0 0.0 
0.0 -2.661023227802e-04 0.0 
-2.661023227802e-04 5.958270769762e-03 0.0 
0.0 0.0 0.0 
-1.154213395834e-04 -4.157302670609e-04 0.0 
-4.157302670609e-04 5.787904818547e-03 0.0 
0.0 0.0 0.0 
4.111628118137e-04 1.751227329220e-05 0.0 
1.751227329220e-05 4.705535163349e-03 0.0 
0.0 0.0 0.0 
-1.411977672428e-03 1.004981666153e-04 0.0 
1.004981666153e-04 1.456581595964e-02 0.0 
0.0 0.0 0.0 
-1.109877647336e-03 -1.205066888739e-05 0.0 
-1.205066888739e-05 1.496580737366e-02 0.0 
0.0 0.0 0.0 
0.0 -3.392009020246e-04 0.0 
-3.392009020246e-04 5.837262039975e-03 0.0 
0.0 0.0 0.0 
0.0 -4.044629272221e-04 0.0 
-4.044629272221e-04 5.736420635308e-03 0.0 
0.0 0.0 0.0 
-1.213131450174e-03 1.168445282960e-04 0.0 
1.168445282960e-04 1.483721624598e-02 0.0 
0.0 0.0 0.0 
2.840599852427e-03 -4.472767975201e-06 0.0 
-4.472767975201e-06 -1.093439507997e-03 0.0 
0.0 0.0 0.0 
-1.995251452177e-03 1.167511746474e-04 0.0 
1.167511746474e-04 1.294204313947e-02 0.0 
0.0 0.0 0.0 
-2.205405292363e-03 2.830544610746e-04 0.0 
2.830544610746e-04 1.294903658991e-02 0.0 
0.0 0.0 0.0 
1.984208557225e-03 -8.579024059781e-05 0.0 
-8.579024059781e-05 -7.347465982162e-04 0.0 
0.0 0.0 0.0 
0.0 -4.045143629000e-04 0.0 
-4.045143629000e-04 5.305534751588e-03 0.0 
0.0 0.0 0.0 
2.887652654784e-04 -1.909445169096e-04 0.0 
-1.909445169096e-04 4.840109278568e-03 0.0 
0.0 0.0 0.0 
0.0 -2.052535763635e-04 0.0 
-2.052535763635e-04 4.911745281190e-03 0.0 
0.0 0.0 0.0 
2.673619696277e-03 -6.777510261455e-05 0.0 
-6.777510261455e-05 -9.812529582963e-04 0.0 
0.0 0.0 0.0 
2.506908726691e-03 -9.052813999340e-05 0.0 
-9.052813999340e-05 -9.143395138042e-04 0.0 
0.0 0.0 0.0 
0.0 1.890374126802e-04 0.0 
1.890374126802e-04 4.644529263157e-03 0.0 
0.0 0.0 0.0 
0.0 -3.885882651601e-05 0.0 
-3.885882651601e-05 4.761664023655e-03 0.0 
0.0 0.0 0.0 
-1.501715482078e-03 -2.032496792070e-05 0.0 
-2.032496792070e-05 1.441198144204e-02 0.0 
0.0 0.0 0.0 
-1.880545158817e-03 5.140609105452e-05 0.0 
5.140609105452e-05 1.292730054668e-02 0.0 
0.0 0.0 0.0 
-1.322451291080e-03 -1.550404370676e-05 0.0 
-1.550404370676e-05 1.470396763010e-02 0.0 
0.0 0.0 0.0 
-1.734486416411e-03 -2.676219313559e-05 0.0 
-2.676219313559e-05 1.373884436706e-02 0.0 
0.0 0.0 0.0 
-1.838364348563e-03 1.722588689071e-05 0.0 
1.722588689071e-05 1.291807746189e-02 0.0 
0.0 0.0 0.0 
1.716408545777e-03 -1.981308353033e-04 0.0 
-1.981308353033e-04 -5.924926887084e-04 0.0 
0.0 0.0 0.0 
8.912914840165e-04 -1.717258870958e-04 0.0 
-1.717258870958e-04 -1.883972881478e-04 0.0 
0.0 0.0 0.0 
5.770068706197e-04 -1.667827539932e-04 0.0 
-1.667827539932e-04 -5.722157518318e-05 0.0 
0.0 0.0 0.0 
1.980304515179e-04 -1.344788543391e-04 0.0 
-1.344788543391e-04 1.352027425006e-04 0.0 
0.0 0.0 0.0 
-1.197040246180e-03 -9.765472807701e-05 0.0 
-9.765472807701e-05 3.655295930928e-03 0.0 
0.0 0.0 0.0 
-1.217247900979e-03 -1.146038813556e-04 0.0 
-1.146038813556e-04 3.430618915198e-03 0.0 
0.0 0.0 0.0 
1.591154881164e-04 -1.795737701529e-04 0.0 
-1.795737701529e-04 6.472333194352e-05 0.0 
0.0 0.0 0.0 
-9.590961290977e-04 -5.630105980433e-05 0.0 
-5.630105980433e-05 4.321428768872e-03 0.0 
0.0 0.0 0.0 
-1.667442962021e-04 -1.781931419658e-04 0.0 
-1.781931419658e-04 2.100552849036e-04 0.0 
0.0 0.0 0.0 
0.0 2.577038708077e-03 0.0 
2.577038708077e-03 1.465810728208e-02 0.0 
0.0 0.0 0.0 
0.0 1.056697878857e-03 0.0 
1.056697878857e-03 1.544433415948e-02 0.0 
0.0 0.0 0.0 
0.0 1.769969998198e-03 0.0 
1.769969998198e-03 1.515380164111e-02 0.0 
0.0 0.0 0.0 
4.576097432198e-04 -1.253138701397e-04 0.0 
-1.253138701397e-04 1.069865370871e-03 0.0 
0.0 0.0 0.0 
-8.810171995821e-04 -1.321018751940e-04 0.0 
-1.321018751940e-04 2.588263049804e-03 0.0 
0.0 0.0 0.0 
0.0 8.351588420032e-04 0.0 
8.351588420032e-04 1.547860912343e-02 0.0 
0.0 0.0 0.0 
-6.030685481304e-04 -1.352160128109e-05 0.0 
-1.352160128109e-05 5.150312618423e-03 0.0 
0.0 0.0 0.0 
0.0 6.576975763181e-04 0.0 
6.576975763181e-04 1.554572029685e-02 0.0 
0.0 0.0 0.0 
-4.683647272753e-04 -1.065399011260e-06 0.0 
-1.065399011260e-06 5.449666961151e-03 0.0 
0.0 0.0 0.0 
-3.104532671142e-04 6.405038130416e-06 0.0 
6.405038130416e-06 5.741841690527e-03 0.0 
0.0 0.0 0.0 
-1.203758183728e-03 -1.420654239306e-04 0.0 
-1.420654239306e-04 3.296265341899e-03 0.0 
0.0 0.0 0.0 
-3.903943542095e-04 9.560352572772e-04 0.0 
9.560352572772e-04 1.546224410345e-02 0.0 
0.0 0.0 0.0 
-3.126168479756e-04 7.975172461301e-04 0.0 
7.975172461301e-04 1.550402143133e-02 0.0 
0.0 0.0 0.0 
-5.296082238457e-04 -1.077685918209e-04 0.0 
-1.077685918209e-04 5.265042328868e-03 0.0 
0.0 0.0 0.0 
-3.876830022134e-04 -1.069034609798e-04 0.0 
-1.069034609798e-04 5.580080094249e-03 0.0 
0.0 0.0 0.0 
-6.116605837164e-04 -6.223707512649e-04 0.0 
-6.223707512649e-04 4.168551310554e-03 0.0 
0.0 0.0 0.0 
-1.236341505005e-03 -3.659013976743e-04 0.0 
-3.659013976743e-04 6.126872268084e-04 0.0 
0.0 0.0 0.0 
-7.123480195662e-04 -1.372719942546e-03 0.0 
-1.372719942546e-03 2.532217041660e-03 0.0 
0.0 0.0 0.0 
1.584979804871e-03 -3.298582455620e-04 0.0 
-3.298582455620e-04 -2.582402575495e-04 0.0 
0.0 0.0 0.0 
2.573311369969e-04 -5.636459668664e-04 0.0 
-5.636459668664e-04 4.062271488784e-03 0.0 
0.0 0.0 0.0 
-3.249852014694e-04 -1.716510669447e-03 0.0 
-1.716510669447e-03 2.361959856859e-03 0.0 
0.0 0.0 0.0 
-2.199437880792e-04 -5.620940870043e-04 0.0 
-5.620940870043e-04 4.493132848493e-03 0.0 
0.0 0.0 0.0 
6.760138389073e-06 -1.746404058714e-03 0.0 
-1.746404058714e-03 1.088742814782e-03 0.0 
0.0 0.0 0.0 
4.182820929564e-04 -6.272681791849e-04 0.0 
-6.272681791849e-04 5.135918794936e-04 0.0 
0.0 0.0 0.0 
-2.966676722850e-04 -4.803583179559e-04 0.0 
-4.803583179559e-04 4.857624460476e-03 0.0 
0.0 0.0 0.0 
-7.154135233524e-04 -1.315362423437e-03 0.0 
-1.315362423437e-03 2.750632866905e-03 0.0 
0.0 0.0 0.0 
-1.132628494191e-03 -3.738478921543e-04 0.0 
-3.738478921543e-04 3.043635892620e-03 0.0 
0.0 0.0 0.0 
-3.618876852775e-04 -5.673409519695e-04 0.0 
-5.673409519695e-04 4.494859994494e-03 0.0 
0.0 0.0 0.0 
-8.347603171441e-04 3.838106220260e-04 0.0 
3.838106220260e-04 1.516301814582e-02 0.0 
0.0 0.0 0.0 
-1.137690572284e-03 -1.218671431224e-04 0.0 
-1.218671431224e-04 3.048404018073e-03 0.0 
0.0 0.0 0.0 
1.819798973402e-03 -5.666869193926e-04 0.0 
-5.666869193926e-04 1.299336474619e-03 0.0 
0.0 0.0 0.0 
7.332497609864e-04 -1.393561498867e-03 0.0 
-1.393561498867e-03 2.228164372652e-03 0.0 
0.0 0.0 0.0 
-4.528907715053e-04 -6.680239744216e-04 0.0 
-6.680239744216e-04 4.174646032518e-03 0.0 
0.0 0.0 0.0 
-5.620941539334e-04 -4.850583006236e-04 0.0 
-4.850583006236e-04 4.476031285737e-03 0.0 
0.0 0.0 0.0 
4.973543676409e-03 2.065289801638e-03 0.0 
2.065289801638e-03 -3.167961435300e-03 0.0 
0.0 0.0 0.0 
-1.552567348746e-03 4.125309251860e-03 0.0 
4.125309251860e-03 8.217896562349e-03 0.0 
0.0 0.0 0.0 
2.297721509405e-03 4.064218411907e-03 0.0 
4.064218411907e-03 1.712446514156e-03 0.0 
0.0 0.0 0.0 
-1.106832781641e-04 -1.068337721677e-03 0.0 
-1.068337721677e-03 3.404516964365e-03 0.0 
0.0 0.0 0.0 
-4.379339032307e-04 -4.369416576482e-04 0.0 
-4.369416576482e-04 4.825733031812e-03 0.0 
0.0 0.0 0.0 
-6.245233818709e-04 -3.179213711216e-04 0.0 
-3.179213711216e-04 4.730296022084e-03 0.0 
0.0 0.0 0.0 
2.560015357116e-04 -2.428484358921e-03 0.0 
-2.428484358921e-03 6.632399888817e-04 0.0 
0.0 0.0 0.0 
-9.111211682219e-04 6.665963538847e-04 0.0 
6.665963538847e-04 1.512852736345e-02 0.0 
0.0 0.0 0.0 
-1.178191168371e-03 5.737428996345e-04 0.0 
5.737428996345e-04 1.491209567358e-02 0.0 
0.0 0.0 0.0 
-1.872706491903e-03 2.048057625344e-04 0.0 
2.048057625344e-04 1.348316455874e-02 0.0 
0.0 0.0 0.0 
1.531472381506e-04 -1.047715049902e-03 0.0 
-1.047715049902e-03 3.289116680774e-03 0.0 
0.0 0.0 0.0 
-3.023075282075e-04 -8.641217250240e-04 0.0 
-8.641217250240e-04 3.813953777467e-03 0.0 
0.0 0.0 0.0 
-9.416375626001e-04 3.757567427879e-04 0.0 
3.757567427879e-04 1.516741100074e-02 0.0 
0.0 0.0 0.0 
-1.037095296481e-03 4.979988741098e-04 0.0 
4.979988741098e-04 1.504743790261e-02 0.0 
0.0 0.0 0.0 
7.238014646793e-04 -1.602032902993e-03 0.0 
-1.602032902993e-03 1.637910988204e-03 0.0 
0.0 0.0 0.0 
-3.431752645627e-04 -3.822288907358e-04 0.0 
-3.822288907358e-04 5.168667720425e-03 0.0 
0.0 0.0 0.0 
-1.407596589054e-03 1.084892146171e-03 0.0 
1.084892146171e-03 1.478015694002e-02 0.0 
0.0 0.0 0.0 
-6.816134328145e-04 -2.660569134106e-04 0.0 
-2.660569134106e-04 4.730344836685e-03 0.0 
0.0 0.0 0.0 
9.729962869187e-05 -5.391989803260e-04 0.0 
-5.391989803260e-04 4.532275419800e-03 0.0 
0.0 0.0 0.0 
-1.030355231094e-03 6.626761142164e-04 0.0 
6.626761142164e-04 1.512999413715e-02 0.0 
0.0 0.0 0.0 
-1.692553614521e-03 5.034867790704e-04 0.0 
5.034867790704e-04 1.450913200536e-02 0.0 
0.0 0.0 0.0 
1.620461059435e-03 -9.255366045346e-04 0.0 
-9.255366045346e-04 1.257498655761e-03 0.0 
0.0 0.0 0.0 
-4.352908378166e-04 -8.565905991164e-04 0.0 
-8.565905991164e-04 1.840966990534e-03 0.0 
0.0 0.0 0.0 
3.244491696486e-04 -2.582781467754e-03 0.0 
-2.582781467754e-03 4.168406606497e-04 0.0 
0.0 0.0 0.0 
-1.478676432443e-05 -1.063820630573e-03 0.0 
-1.063820630573e-03 8.022955837232e-04 0.0 
0.0 0.0 0.0 
-1.244047357093e-03 -1.898035666961e-03 0.0 
-1.898035666961e-03 4.804914260219e-04 0.0 
0.0 0.0 0.0 
-1.118105611123e-03 4.800575552017e-04 0.0 
4.800575552017e-04 1.504937475438e-02 0.0 
0.0 0.0 0.0 
-3.975673842707e-04 -3.108068957323e-04 0.0 
-3.108068957323e-04 5.107413885424e-03 0.0 
0.0 0.0 0.0 
-8.104876318819e-04 -1.166748659440e-03 0.0 
-1.166748659440e-03 5.873832241543e-04 0.0 
0.0 0.0 0.0 
-1.321820126078e-03 3.694475597395e-03 0.0 
3.694475597395e-03 1.235724815848e-02 0.0 
0.0 0.0 0.0 
-1.886272384397e-03 2.812693437529e-04 0.0 
2.812693437529e-04 1.367162737591e-02 0.0 
0.0 0.0 0.0 
-2.500204051702e-04 -7.145106286331e-04 0.0 
-7.145106286331e-04 4.111496338115e-03 0.0 
0.0 0.0 0.0 
-4.737021565836e-04 -3.896052762769e-04 0.0 
-3.896052762769e-04 4.783136673839e-03 0.0 
0.0 0.0 0.0 
1.706207404892e-03 -2.639782306270e-03 0.0 
-2.639782306270e-03 -4.589244747993e-04 0.0 
0.0 0.0 0.0 
-5.805847589977e-04 -3.743694054703e-04 0.0 
-3.743694054703e-04 4.781498327830e-03 0.0 
0.0 0.0 0.0 
-1.964064683716e-03 1.589671504692e-04 0.0 
1.589671504692e-04 1.348215808238e-02 0.0 
0.0 0.0 0.0 
3.221863572248e-03 2.146066539057e-03 0.0 
2.146066539057e-03 7.850731408767e-04 0.0 
0.0 0.0 0.0 
3.583803311646e-05 -4.398120007172e-04 0.0 
-4.398120007172e-04 4.945806443934e-03 0.0 
0.0 0.0 0.0 
-3.793067707546e-04 -4.820850765711e-04 0.0 
-4.820850765711e-04 1.868374071316e-03 0.0 
0.0 0.0 0.0 
3.748960765664e-04 -4.701253092010e-04 0.0 
-4.701253092010e-04 4.126010480560e-03 0.0 
0.0 0.0 0.0 
-1.530516033481e-03 4.589585897930e-04 0.0 
4.589585897930e-04 1.466381808946e-02 0.0 
0.0 0.0 0.0 
-5.833842360952e-04 -7.153080631808e-04 0.0 
-7.153080631808e-04 2.095353484518e-03 0.0 
0.0 0.0 0.0 
5.734534926294e-04 -2.680752337297e-03 0.0 
-2.680752337297e-03 2.082315500498e-04 0.0 
0.0 0.0 0.0 
-9.763827756394e-04 -6.633240662427e-04 0.0 
-6.633240662427e-04 3.698352524773e-03 0.0 
0.0 0.0 0.0 
-1.820684591781e-03 5.512918163264e-04 0.0 
5.512918163264e-04 1.417129940718e-02 0.0 
0.0 0.0 0.0 
-3.717667232502e-04 -1.823721440071e-03 0.0 
-1.823721440071e-03 1.998833599496e-03 0.0 
0.0 0.0 0.0 
-1.366471854307e-03 4.027460735530e-04 0.0 
4.027460735530e-04 1.481503308721e-02 0.0 
0.0 0.0 0.0 
-1.700460799964e-03 3.558266458587e-04 0.0 
3.558266458587e-04 1.437258754140e-02 0.0 
0.0 0.0 0.0 
-5.053841195882e-04 -1.346850813664e-03 0.0 
-1.346850813664e-03 3.002887187357e-03 0.0 
0.0 0.0 0.0 
-6.728205697618e-04 -4.357483684829e-04 0.0 
-4.357483684829e-04 4.472659735350e-03 0.0 
0.0 0.0 0.0 
-5.226095142279e-04 -5.279673671378e-04 0.0 
-5.279673671378e-04 4.483199183410e-03 0.0 
0.0 0.0 0.0 
-1.400743926204e-03 4.756762595899e-04 0.0 
4.756762595899e-04 1.466078637007e-02 0.0 
0.0 0.0 0.0 
1.785365030482e-06 -8.319381132922e-04 0.0 
-8.319381132922e-04 1.309451788662e-03 0.0 
0.0 0.0 0.0 
-7.426446073980e-04 -1.202945453802e-03 0.0 
-1.202945453802e-03 3.135610207640e-03 0.0 
0.0 0.0 0.0 
1.982579658748e-03 3.171984120728e-03 0.0 
3.171984120728e-03 3.261697754962e-03 0.0 
0.0 0.0 0.0 
-1.494981591177e-03 6.254731443617e-04 0.0 
6.254731443617e-04 1.477370697049e-02 0.0 
0.0 0.0 0.0 
-7.820326189806e-04 -1.285995761049e-03 0.0 
-1.285995761049e-03 2.917519501091e-03 0.0 
0.0 0.0 0.0 
4.010556265235e-04 -1.427686903011e-03 0.0 
-1.427686903011e-03 2.235773672136e-03 0.0 
0.0 0.0 0.0 
5.930838273640e-04 -4.425446132534e-04 0.0 
-4.425446132534e-04 3.648731914826e-03 0.0 
0.0 0.0 0.0 
-1.549328718714e-03 5.168600534421e-04 0.0 
5.168600534421e-04 1.450708564721e-02 0.0 
0.0 0.0 0.0 
1.735930009682e-03 -8.331932066268e-04 0.0 
-8.331932066268e-04 -4.521931368090e-03 0.0 
0.0 0.0 0.0 
3.473367590807e-04 -7.274392978962e-04 0.0 
-7.274392978962e-04 6.419542259002e-04 0.0 
0.0 0.0 0.0 
3.797296598912e-03 2.923207094807e-04 0.0 
2.923207094807e-04 -4.050857145594e-03 0.0 
0.0 0.0 0.0 
-3.335003594487e-04 -4.348128840033e-04 0.0 
-4.348128840033e-04 4.824816295593e-03 0.0 
0.0 0.0 0.0 
-1.688774449259e-03 5.411926319377e-04 0.0 
5.411926319377e-04 1.434389184486e-02 0.0 
0.0 0.0 0.0 
-1.002976247069e-03 -4.523686032392e-04 0.0 
-4.523686032392e-04 3.906701995809e-03 0.0 
0.0 0.0 0.0 
-1.916885875096e-03 4.009568921368e-04 0.0 
4.009568921368e-04 1.384399923037e-02 0.0 
0.0 0.0 0.0 
1.590476369088e-03 8.785610432456e-05 0.0 
8.785610432456e-05 2.214413240270e-03 0.0 
0.0 0.0 0.0 
-6.790900654021e-04 -1.087293988512e-03 0.0 
-1.087293988512e-03 3.367487542380e-03 0.0 
0.0 0.0 0.0 
-3.819229668093e-04 -5.440616986957e-04 0.0 
-5.440616986957e-04 4.484839137032e-03 0.0 
0.0 0.0 0.0 
-2.713905738723e-04 -5.894046404583e-04 0.0 
-5.894046404583e-04 1.796647926260e-03 0.0 
0.0 0.0 0.0 
1.912392278387e-04 -4.733525806447e-04 0.0 
-4.733525806447e-04 4.534970186181e-03 0.0 
0.0 0.0 0.0 
-6.880055287982e-04 -1.223688669133e-03 0.0 
-1.223688669133e-03 2.984618964004e-03 0.0 
0.0 0.0 0.0 
-4.434043495891e-04 -4.420570931447e-04 0.0 
-4.420570931447e-04 2.052020577256e-03 0.0 
0.0 0.0 0.0 
-8.773078535699e-04 -1.045352154823e-03 0.0 
-1.045352154823e-03 3.110757485412e-03 0.0 
0.0 0.0 0.0 
-5.955285770446e-04 -1.588337674539e-03 0.0 
-1.588337674539e-03 2.360286812532e-03 0.0 
0.0 0.0 0.0 
-1.855090862350e-04 -1.764347829721e-03 0.0 
-1.764347829721e-03 1.460402824426e-03 0.0 
0.0 0.0 0.0 
-8.922369670153e-04 -5.773124551645e-04 0.0 
-5.773124551645e-04 3.929832292879e-03 0.0 
0.0 0.0 0.0 
1.046030612483e-03 -1.448195604310e-04 0.0 
-1.448195604310e-04 -3.121207218877e-04 0.0 
0.0 0.0 0.0 
6.202771265338e-04 -2.048309857742e-04 0.0 
-2.048309857742e-04 -1.362856442539e-04 0.0 
0.0 0.0 0.0 
-4.950749829981e-04 -8.240869061027e-04 0.0 
-8.240869061027e-04 3.808941867380e-03 0.0 
0.0 0.0 0.0 
-9.177791681669e-05 -7.034602889954e-04 0.0 
-7.034602889954e-04 1.547236732547e-03 0.0 
0.0 0.0 0.0 
-1.037818802236e-04 -1.048295902276e-03 0.0 
-1.048295902276e-03 3.290721512307e-03 0.0 
0.0 0.0 0.0 
1.250794097736e-04 -1.239543719273e-03 0.0 
-1.239543719273e-03 2.788512458245e-03 0.0 
0.0 0.0 0.0 
2.715624118559e-04 -2.180632780815e-03 0.0 
-2.180632780815e-03 1.448910875645e-03 0.0 
0.0 0.0 0.0 
1.878811534853e-03 -2.992153464624e-03 0.0 
-2.992153464624e-03 -9.197426118375e-04 0.0 
0.0 0.0 0.0 
-1.392117757320e-03 1.033555775618e-03 0.0 
1.033555775618e-03 1.492362114888e-02 0.0 
0.0 0.0 0.0 
1.595770971595e-03 3.322988483205e-03 0.0 
3.322988483205e-03 -3.044194069824e-03 0.0 
0.0 0.0 0.0 
-7.856693376099e-04 -1.336277292429e-03 0.0 
-1.336277292429e-03 2.678635152860e-03 0.0 
0.0 0.0 0.0 
1.528998637642e-03 4.956448135425e-04 0.0 
4.956448135425e-04 2.463202798823e-03 0.0 
0.0 0.0 0.0 
-9.114441161606e-05 -6.754673507596e-04 0.0 
-6.754673507596e-04 1.414800951348e-03 0.0 
0.0 0.0 0.0 
-1.961467999988e-03 3.981041472118e-04 0.0 
3.981041472118e-04 1.403116870719e-02 0.0 
0.0 0.0 0.0 
-2.029592163237e-03 2.597285046031e-04 0.0 
2.597285046031e-04 1.367514867945e-02 0.0 
0.0 0.0 0.0 
1.442347090164e-05 -1.436676348721e-03 0.0 
-1.436676348721e-03 1.007237700488e-03 0.0 
0.0 0.0 0.0 
8.720783966851e-04 -3.910075273977e-04 0.0 
-3.910075273977e-04 3.105583189090e-03 0.0 
0.0 0.0 0.0 
-1.852177520083e-03 9.206107564983e-04 0.0 
9.206107564983e-04 1.455484110634e-02 0.0 
0.0 0.0 0.0 
-3.155871432430e-04 -9.787273878674e-04 0.0 
-9.787273878674e-04 1.604829894902e-03 0.0 
0.0 0.0 0.0 
-1.325321298570e-03 1.269618460166e-03 0.0 
1.269618460166e-03 1.496236735144e-02 0.0 
0.0 0.0 0.0 
-1.107021354227e-03 1.262011466634e-03 0.0 
1.262011466634e-03 1.496222527917e-02 0.0 
0.0 0.0 0.0 
-2.449327787692e-04 -1.058082292183e-03 0.0 
-1.058082292183e-03 1.627754960088e-03 0.0 
0.0 0.0 0.0 
5.168880255058e-05 4.128734872434e-03 0.0 
4.128734872434e-03 3.526466952060e-03 0.0 
0.0 0.0 0.0 
-1.175052654474e-04 -1.591836787838e-03 0.0 
-1.591836787838e-03 1.326700798277e-03 0.0 
0.0 0.0 0.0 
-4.226109970559e-04 -6.915034220852e-04 0.0 
-6.915034220852e-04 4.140783473020e-03 0.0 
0.0 0.0 0.0 
-8.064892825083e-04 -8.270769602999e-04 0.0 
-8.270769602999e-04 3.673195293261e-03 0.0 
0.0 0.0 0.0 
-1.248676320390e-03 3.178187631705e-03 0.0 
3.178187631705e-03 1.324658001127e-02 0.0 
0.0 0.0 0.0 
-1.204481367478e-03 1.021696241997e-03 0.0 
1.021696241997e-03 1.492436691534e-02 0.0 
0.0 0.0 0.0 
-2.860256725844e-04 -8.638383402913e-04 0.0 
-8.638383402913e-04 3.741847286616e-03 0.0 
0.0 0.0 0.0 
-7.689133035493e-05 -8.742392613406e-04 0.0 
-8.742392613406e-04 3.742214195212e-03 0.0 
0.0 0.0 0.0 
-2.162287585616e-04 -1.539917855540e-03 0.0 
-1.539917855540e-03 1.191502286711e-03 0.0 
0.0 0.0 0.0 
-2.621585450585e-04 -7.093310544197e-04 0.0 
-7.093310544197e-04 4.142572447126e-03 0.0 
0.0 0.0 0.0 
-1.644667627980e-03 9.037839490644e-04 0.0 
9.037839490644e-04 1.455609860786e-02 0.0 
0.0 0.0 0.0 
-9.313033976635e-04 -6.994205358612e-04 0.0 
-6.994205358612e-04 3.654168641882e-03 0.0 
0.0 0.0 0.0 
-1.847484663265e-03 5.342193017661e-04 0.0 
5.342193017661e-04 1.434524051904e-02 0.0 
0.0 0.0 0.0 
-1.655147880419e-03 8.749260157894e-04 0.0 
8.749260157894e-04 1.471291122869e-02 0.0 
0.0 0.0 0.0 
4.660153814372e-03 2.535561309132e-03 0.0 
2.535561309132e-03 -2.157572289928e-03 0.0 
0.0 0.0 0.0 
-1.279799464670e-03 8.181472235642e-04 0.0 
8.181472235642e-04 1.486236388342e-02 0.0 
0.0 0.0 0.0 
-9.339618970493e-04 -1.025638771132e-03 0.0 
-1.025638771132e-03 3.226327883346e-03 0.0 
0.0 0.0 0.0 
-8.336171526133e-04 -9.573398715596e-04 0.0 
-9.573398715596e-04 3.348010167021e-03 0.0 
0.0 0.0 0.0 
-7.620068622333e-04 -1.342296640494e-03 0.0 
-1.342296640494e-03 2.478565818166e-03 0.0 
0.0 0.0 0.0 
6.723659120120e-04 -2.499993512786e-03 0.0 
-2.499993512786e-03 4.900559123986e-04 0.0 
0.0 0.0 0.0 
-1.670432620146e-03 7.073023594272e-04 0.0 
7.073023594272e-04 1.446213191234e-02 0.0 
0.0 0.0 0.0 
1.579395040542e-03 -2.049989446918e-03 0.0 
-2.049989446918e-03 -1.819616535581e-05 0.0 
0.0 0.0 0.0 
-2.724065938345e-04 -1.414654632387e-03 0.0 
-1.414654632387e-03 1.599985295576e-03 0.0 
0.0 0.0 0.0 
6.830655041723e-05 -1.045762761838e-03 0.0 
-1.045762761838e-03 8.754556347279e-04 0.0 
0.0 0.0 0.0 
-1.854869617914e-03 7.130462226920e-04 0.0 
7.130462226920e-04 1.446208960231e-02 0.0 
0.0 0.0 0.0 
-3.383276400467e-04 -1.646659991659e-03 0.0 
-1.646659991659e-03 1.636323753486e-03 0.0 
0.0 0.0 0.0 
4.875278399519e-04 -3.672876693514e-04 0.0 
-3.672876693514e-04 4.115423715034e-03 0.0 
0.0 0.0 0.0 
-1.510417964141e-03 6.789374106316e-04 0.0 
6.789374106316e-04 1.462179328882e-02 0.0 
0.0 0.0 0.0 
-5.243011517042e-05 -7.013736274185e-04 0.0 
-7.013736274185e-04 4.108364970253e-03 0.0 
0.0 0.0 0.0 
6.670872359738e-04 1.531421019886e-03 0.0 
1.531421019886e-03 3.750243620789e-03 0.0 
0.0 0.0 0.0 
-8.829794254708e-04 -1.105497077216e-03 0.0 
-1.105497077216e-03 2.880793582538e-03 0.0 
0.0 0.0 0.0 
-3.911947494296e-04 -1.306486640143e-03 0.0 
-1.306486640143e-03 1.666965061914e-03 0.0 
0.0 0.0 0.0 
-2.091284130216e-04 -1.202558846293e-03 0.0 
-1.202558846293e-03 1.006381903604e-03 0.0 
0.0 0.0 0.0 
1.495459763503e-04 -1.017726959946e-03 0.0 
-1.017726959946e-03 3.179655404544e-03 0.0 
0.0 0.0 0.0 
-1.705909198370e-03 4.060829858874e-04 0.0 
4.060829858874e-04 1.420773036191e-02 0.0 
0.0 0.0 0.0 
-1.909602752670e-05 -9.081226543618e-04 0.0 
-9.081226543618e-04 6.915291248053e-04 0.0 
0.0 0.0 0.0 
-4.659027761869e-04 -1.627428290523e-03 0.0 
-1.627428290523e-03 1.969241563376e-03 0.0 
0.0 0.0 0.0 
-2.195572339447e-05 -3.177470382195e-04 0.0 
-3.177470382195e-04 1.589023714266e-03 0.0 
0.0 0.0 0.0 
-1.993661341517e-03 5.538629311513e-04 0.0 
5.538629311513e-04 1.417158121637e-02 0.0 
0.0 0.0 0.0 
-6.815979708767e-04 -1.386026654507e-03 0.0 
-1.386026654507e-03 2.329833282245e-03 0.0 
0.0 0.0 0.0 
4.226294607954e-04 -1.224901583891e-03 0.0 
-1.224901583891e-03 2.784326399607e-03 0.0 
0.0 0.0 0.0 
-7.889911932896e-04 -1.093939979034e-03 0.0 
-1.093939979034e-03 2.452726834593e-03 0.0 
0.0 0.0 0.0 
-1.306918038850e-03 5.626784499316e-04 0.0 
5.626784499316e-04 1.491408620253e-02 0.0 
0.0 0.0 0.0 
-3.683509938986e-04 -1.771895475230e-03 0.0 
-1.771895475230e-03 1.827500213385e-03 0.0 
0.0 0.0 0.0 
6.509253589551e-04 -1.039345298073e-03 0.0 
-1.039345298073e-03 2.548090342464e-03 0.0 
0.0 0.0 0.0 
2.904230748588e-04 -2.501481938291e-03 0.0 
-2.501481938291e-03 4.043147540780e-04 0.0 
0.0 0.0 0.0 
4.057499792163e-04 -1.174079396736e-03 0.0 
-1.174079396736e-03 2.645707187837e-03 0.0 
0.0 0.0 0.0 
-9.988820073277e-04 -7.708793209761e-04 0.0 
-7.708793209761e-04 3.424381683968e-03 0.0 
0.0 0.0 0.0 
1.625464222141e-04 -8.426789167318e-04 0.0 
-8.426789167318e-04 3.664562364834e-03 0.0 
0.0 0.0 0.0 
4.920593899038e-03 -3.120757245347e-04 0.0 
-3.120757245347e-04 -3.593449015004e-03 0.0 
0.0 0.0 0.0 
-2.359719673959e-04 -5.954129082301e-04 0.0 
-5.954129082301e-04 1.662514635717e-03 0.0 
0.0 0.0 0.0 
-1.932672000889e-03 2.717251128796e-04 0.0 
2.717251128796e-04 1.387553483611e-02 0.0 
0.0 0.0 0.0 
3.078941611960e-03 -1.940000019124e-04 0.0 
-1.940000019124e-04 -4.571308462830e-04 0.0 
0.0 0.0 0.0 
8.884243960992e-04 4.489575107671e-03 0.0 
4.489575107671e-03 3.408311566928e-03 0.0 
0.0 0.0 0.0 
-1.836503247058e-03 3.843370440600e-04 0.0 
3.843370440600e-04 1.420847634785e-02 0.0 
0.0 0.0 0.0 
7.294095707611e-04 -2.863724381258e-03 0.0 
-2.863724381258e-03 -1.795583854138e-04 0.0 
0.0 0.0 0.0 
-1.979621092000e-03 9.471947358853e-04 0.0 
9.471947358853e-04 1.420302760088e-02 0.0 
0.0 0.0 0.0 
1.376646481888e-04 -4.380680878484e-04 0.0 
-4.380680878484e-04 1.317030017605e-03 0.0 
0.0 0.0 0.0 
4.831014664743e-04 -6.030169757520e-04 0.0 
-6.030169757520e-04 3.596013985641e-03 0.0 
0.0 0.0 0.0 
3.108927187585e-03 3.856286859561e-04 0.0 
3.856286859561e-04 -7.988204875242e-05 0.0 
0.0 0.0 0.0 
2.842378129946e-03 2.566198423143e-03 0.0 
2.566198423143e-03 1.636524414405e-03 0.0 
0.0 0.0 0.0 
-1.068224613774e-03 1.187829002791e-03 0.0 
1.187829002791e-03 1.510085503881e-02 0.0 
0.0 0.0 0.0 
1.520773475314e-03 -1.827029489931e-03 0.0 
-1.827029489931e-03 3.337663535858e-04 0.0 
0.0 0.0 0.0 
-2.258387913895e-04 -1.077436153633e-03 0.0 
-1.077436153633e-03 1.365697336279e-03 0.0 
0.0 0.0 0.0 
1.052276035785e-03 -1.461174828846e-03 0.0 
-1.461174828846e-03 1.440489783437e-03 0.0 
0.0 0.0 0.0 
7.303555375451e-04 -3.234031611486e-04 0.0 
-3.234031611486e-04 3.629457573877e-03 0.0 
0.0 0.0 0.0 
1.649648920077e-03 -2.874866027225e-03 0.0 
-2.874866027225e-03 -1.023554704236e-03 0.0 
0.0 0.0 0.0 
-6.979072063396e-05 -8.640971761290e-04 0.0 
-8.640971761290e-04 3.669176404404e-03 0.0 
0.0 0.0 0.0 
-1.678230697547e-03 6.747457335769e-04 0.0 
6.747457335769e-04 1.462285649835e-02 0.0 
0.0 0.0 0.0 
2.338634805763e-03 -3.040362085949e-03 0.0 
-3.040362085949e-03 -1.510705880914e-03 0.0 
0.0 0.0 0.0 
7.049741255505e-04 -1.325144708743e-03 0.0 
-1.325144708743e-03 2.065730469756e-03 0.0 
0.0 0.0 0.0 
-2.241446040616e-03 5.695427922297e-04 0.0 
5.695427922297e-04 1.379226584287e-02 0.0 
0.0 0.0 0.0 
-5.910585967394e-04 -7.264435337553e-04 0.0 
-7.264435337553e-04 2.175270953710e-03 0.0 
0.0 0.0 0.0 
-2.316058645706e-04 -1.859281651005e-03 0.0 
-1.859281651005e-03 1.595871995278e-03 0.0 
0.0 0.0 0.0 
1.309642397659e-03 4.449202151318e-03 0.0 
4.449202151318e-03 3.721160576097e-03 0.0 
0.0 0.0 0.0 
4.168779603499e-04 -9.857580021171e-04 0.0 
-9.857580021171e-04 3.173153558374e-03 0.0 
0.0 0.0 0.0 
-1.974111618667e-04 4.424671769542e-03 0.0 
4.424671769542e-03 5.276067370497e-03 0.0 
0.0 0.0 0.0 
1.781565031380e-03 4.270843357698e-03 0.0 
4.270843357698e-03 2.689973730900e-03 0.0 
0.0 0.0 0.0 
-1.817093305149e-03 9.281149117111e-04 0.0 
9.281149117111e-04 1.438561788724e-02 0.0 
0.0 0.0 0.0 
-1.814001165823e-03 4.108959017788e-04 0.0 
4.108959017788e-04 1.402918797949e-02 0.0 
0.0 0.0 0.0 
-2.097250131152e-03 7.252681114819e-04 0.0 
7.252681114819e-04 1.392744592123e-02 0.0 
0.0 0.0 0.0 
-8.795672897990e-04 -9.358409085697e-04 0.0 
-9.358409085697e-04 3.459014147243e-03 0.0 
0.0 0.0 0.0 
1.196822174738e-03 -3.454296928027e-04 0.0 
-3.454296928027e-04 2.566231086915e-03 0.0 
0.0 0.0 0.0 
1.448164193182e-03 -1.563183474292e-03 0.0 
-1.563183474292e-03 7.787977467102e-04 0.0 
0.0 0.0 0.0 
-2.081009753804e-03 4.021877409033e-04 0.0 
4.021877409033e-04 1.384439506245e-02 0.0 
0.0 0.0 0.0 
-1.051217031161e-03 3.997295332066e-03 0.0 
3.997295332066e-03 1.190562092748e-02 0.0 
0.0 0.0 0.0 
2.433868555301e-03 2.920946838352e-03 0.0 
2.920946838352e-03 2.510243918615e-03 0.0 
0.0 0.0 0.0 
7.124091497448e-04 -1.124593424304e-03 0.0 
-1.124593424304e-03 2.636269512400e-03 0.0 
0.0 0.0 0.0 
-1.464603510754e-03 8.667942323174e-04 0.0 
8.667942323174e-04 1.471321068809e-02 0.0 
0.0 0.0 0.0 
3.381307367962e-04 -2.297582846300e-03 0.0 
-2.297582846300e-03 9.671842059902e-04 0.0 
0.0 0.0 0.0 
1.580879410090e-05 -2.114864121581e-03 0.0 
-2.114864121581e-03 1.315746594546e-03 0.0 
0.0 0.0 0.0 
3.174850651932e-06 -1.325705380388e-03 0.0 
-1.325705380388e-03 1.157257511461e-03 0.0 
0.0 0.0 0.0 
1.357173421626e-03 -1.234138160981e-03 0.0 
-1.234138160981e-03 1.306545438604e-03 0.0 
0.0 0.0 0.0 
-2.582615792637e-04 -1.878779070874e-03 0.0 
-1.878779070874e-03 1.735400053521e-03 0.0 
0.0 0.0 0.0 
-2.023183367213e-03 7.404908207744e-04 0.0 
7.404908207744e-04 1.429194918669e-02 0.0 
0.0 0.0 0.0 
-2.182038152465e-03 7.628530174767e-04 0.0 
7.628530174767e-04 1.411136364264e-02 0.0 
0.0 0.0 0.0 
4.866913280047e-03 1.399998872406e-03 0.0 
1.399998872406e-03 -2.349781276031e-03 0.0 
0.0 0.0 0.0 
1.276729541002e-04 -2.228561379870e-03 0.0 
-2.228561379870e-03 1.237479024915e-03 0.0 
0.0 0.0 0.0 
4.772009008774e-03 2.155097910606e-03 0.0 
2.155097910606e-03 -3.323669113365e-03 0.0 
0.0 0.0 0.0 
-1.275243070153e-04 -2.038632660064e-03 0.0 
-2.038632660064e-03 1.623034472856e-03 0.0 
0.0 0.0 0.0 
2.035630137767e-04 -2.245027878696e-03 0.0 
-2.245027878696e-03 1.334706230961e-03 0.0 
0.0 0.0 0.0 
-2.804262305235e-04 -1.444120533799e-03 0.0 
-1.444120533799e-03 1.421734633952e-03 0.0 
0.0 0.0 0.0 
1.554556857454e-03 -2.713604656871e-04 0.0 
-2.713604656871e-04 2.003765885714e-03 0.0 
0.0 0.0 0.0 
1.556472652755e-03 -2.309513716659e-03 0.0 
-2.309513716659e-03 1.330687022432e-04 0.0 
0.0 0.0 0.0 
-1.450462622397e-03 8.150714173845e-04 0.0 
8.150714173845e-04 1.486331483191e-02 0.0 
0.0 0.0 0.0 
2.025631499456e-03 -2.123171537932e-03 0.0 
-2.123171537932e-03 -2.811250211954e-04 0.0 
0.0 0.0 0.0 
1.441106040968e-03 -1.349033039961e-03 0.0 
-1.349033039961e-03 1.421120506655e-03 0.0 
0.0 0.0 0.0 
1.512832832353e-03 -1.884895164859e-03 0.0 
-1.884895164859e-03 6.087422975407e-04 0.0 
0.0 0.0 0.0 
2.922569238443e-03 3.831977823486e-03 0.0 
3.831977823486e-03 9.132123176807e-04 0.0 
0.0 0.0 0.0 
-1.128504749950e-04 -1.201848699266e-03 0.0 
-1.201848699266e-03 1.380576965920e-03 0.0 
0.0 0.0 0.0 
1.055679519963e-03 -2.724073103569e-04 0.0 
-2.724073103569e-04 3.082105338415e-03 0.0 
0.0 0.0 0.0 
9.210904468495e-04 -1.693689117838e-04 0.0 
-1.693689117838e-04 3.297116159036e-03 0.0 
0.0 0.0 0.0 
7.432814459214e-04 4.477027751367e-03 0.0 
4.477027751367e-03 5.426370581255e-03 0.0 
0.0 0.0 0.0 
6.131078867599e-04 -2.374582091898e-03 0.0 
-2.374582091898e-03 9.774300974679e-04 0.0 
0.0 0.0 0.0 
1.474840755222e-03 -1.639594395169e-03 0.0 
-1.639594395169e-03 9.812526230704e-04 0.0 
0.0 0.0 0.0 
-1.822967913920e-03 7.237618334892e-04 0.0 
7.237618334892e-04 1.429321590543e-02 0.0 
0.0 0.0 0.0 
2.427119661452e-05 -2.071915954839e-03 0.0 
-2.071915954839e-03 1.433701903592e-03 0.0 
0.0 0.0 0.0 
1.475425525590e-03 4.260647528454e-03 0.0 
4.260647528454e-03 2.480282797509e-03 0.0 
0.0 0.0 0.0 
-3.919211116026e-04 -1.556115661140e-03 0.0 
-1.556115661140e-03 1.794329331231e-03 0.0 
0.0 0.0 0.0 
1.349585536826e-03 -3.063537371724e-03 0.0 
-3.063537371724e-03 -9.055842310480e-04 0.0 
0.0 0.0 0.0 
7.261691326483e-04 -2.392550038397e-03 0.0 
-2.392550038397e-03 5.622538094738e-04 0.0 
0.0 0.0 0.0 
-5.060551983459e-04 -1.470464848694e-03 0.0 
-1.470464848694e-03 1.934528163886e-03 0.0 
0.0 0.0 0.0 
-4.124476411324e-04 -8.948310731762e-04 0.0 
-8.948310731762e-04 1.901102012689e-03 0.0 
0.0 0.0 0.0 
1.135949410590e-03 -1.976161310265e-03 0.0 
-1.976161310265e-03 6.249462650776e-04 0.0 
0.0 0.0 0.0 
1.058751901891e-03 -1.247509500806e-03 0.0 
-1.247509500806e-03 2.051750441688e-03 0.0 
0.0 0.0 0.0 
3.919644966521e-04 4.364746656364e-03 0.0 
4.364746656364e-03 7.274441200061e-03 0.0 
0.0 0.0 0.0 
1.272217410165e-03 -2.000828749255e-04 0.0 
-2.000828749255e-04 -3.963481502748e-04 0.0 
0.0 0.0 0.0 
3.467205624252e-03 -1.566535097309e-03 0.0 
-1.566535097309e-03 -1.735731603197e-03 0.0 
0.0 0.0 0.0 
2.468505064652e-03 -2.064039281030e-03 0.0 
-2.064039281030e-03 -8.302904221097e-04 0.0 
0.0 0.0 0.0 
1.080152648870e-03 -2.398376079155e-03 0.0 
-2.398376079155e-03 5.612508235309e-04 0.0 
0.0 0.0 0.0 
-1.965710738714e-03 7.280649586416e-04 0.0 
7.280649586416e-04 1.411464148965e-02 0.0 
0.0 0.0 0.0 
1.553424213602e-03 -2.103878038690e-03 0.0 
-2.103878038690e-03 3.206198117931e-04 0.0 
0.0 0.0 0.0 
-5.722108637521e-04 -1.562166744468e-03 0.0 
-1.562166744468e-03 2.160278224614e-03 0.0 
0.0 0.0 0.0 
1.154275099930e-03 -2.379615540327e-03 0.0 
-2.379615540327e-03 1.461750751610e-04 0.0 
0.0 0.0 0.0 
-1.344804343319e-03 6.360929818134e-04 0.0 
6.360929818134e-04 1.477197010764e-02 0.0 
0.0 0.0 0.0 
-5.934474137876e-04 -1.341066183739e-03 0.0 
-1.341066183739e-03 2.126100578598e-03 0.0 
0.0 0.0 0.0 
4.671723478844e-05 -8.845794905191e-04 0.0 
-8.845794905191e-04 8.203585586020e-04 0.0 
0.0 0.0 0.0 
-1.779671980843e-04 -1.139325354150e-03 0.0 
-1.139325354150e-03 1.151634963405e-03 0.0 
0.0 0.0 0.0 
1.442841845685e-03 -2.810724206056e-03 0.0 
-2.810724206056e-03 -3.668478653588e-04 0.0 
0.0 0.0 0.0 
5.170058370907e-04 -2.423983026410e-03 0.0 
-2.423983026410e-03 8.992913274630e-04 0.0 
0.0 0.0 0.0 
2.913719153218e-03 -1.701482886613e-03 0.0 
-1.701482886613e-03 -1.190917836508e-03 0.0 
0.0 0.0 0.0 
1.600451717287e-03 -2.266259130793e-03 0.0 
-2.266259130793e-03 -2.548115893604e-04 0.0 
0.0 0.0 0.0 
3.603628486823e-04 -2.655074400437e-03 0.0 
-2.655074400437e-03 1.303811015669e-04 0.0 
0.0 0.0 0.0 
1.260177872131e-04 -8.918801744715e-04 0.0 
-8.918801744715e-04 1.113646476668e-03 0.0 
0.0 0.0 0.0 
-2.554983519701e-03 1.063046351468e-03 0.0 
1.063046351468e-03 1.379008576242e-02 0.0 
0.0 0.0 0.0 
-4.540051452965e-04 -1.230911052852e-03 0.0 
-1.230911052852e-03 1.897725827306e-03 0.0 
0.0 0.0 0.0 
1.739170341785e-03 -4.302313671594e-04 0.0 
-4.302313671594e-04 1.872054520538e-03 0.0 
0.0 0.0 0.0 
7.208779991916e-04 4.307360778269e-03 0.0 
4.307360778269e-03 6.294496493279e-03 0.0 
0.0 0.0 0.0 
-2.475135251658e-03 3.139494170670e-03 0.0 
3.139494170670e-03 1.207753507234e-02 0.0 
0.0 0.0 0.0 
-1.467966394598e-03 1.663438005988e-03 0.0 
1.663438005988e-03 1.461259557649e-02 0.0 
0.0 0.0 0.0 
1.376108564468e-04 4.400050126738e-03 0.0 
4.400050126738e-03 8.195695694051e-03 0.0 
0.0 0.0 0.0 
4.793408578959e-03 2.015627546140e-03 0.0 
2.015627546140e-03 -2.080452811830e-03 0.0 
0.0 0.0 0.0 
7.551733865656e-04 4.361735101957e-03 0.0 
4.361735101957e-03 5.841312542157e-03 0.0 
0.0 0.0 0.0 
9.411786096127e-04 -3.150615478637e-03 0.0 
-3.150615478637e-03 -6.380186918545e-04 0.0 
0.0 0.0 0.0 
7.538455775222e-04 -2.229252674457e-03 0.0 
-2.229252674457e-03 7.093951503092e-04 0.0 
0.0 0.0 0.0 
3.758029379455e-03 3.567436382368e-03 0.0 
3.567436382368e-03 -1.089424845970e-03 0.0 
0.0 0.0 0.0 
3.623737394347e-03 -2.271609656003e-03 0.0 
-2.271609656003e-03 -2.959134176344e-03 0.0 
0.0 0.0 0.0 
3.857407229404e-04 -2.968491760482e-03 0.0 
-2.968491760482e-03 -1.971086375543e-04 0.0 
0.0 0.0 0.0 
-8.477846231292e-05 -2.036789343502e-03 0.0 
-2.036789343502e-03 1.758530593778e-03 0.0 
0.0 0.0 0.0 
2.031313322225e-03 -2.290430302799e-03 0.0 
-2.290430302799e-03 -7.880106792681e-04 0.0 
0.0 0.0 0.0 
2.481611857170e-03 -2.005767925643e-03 0.0 
-2.005767925643e-03 -1.139449074472e-03 0.0 
0.0 0.0 0.0 
-6.759666654627e-04 -1.279974303687e-03 0.0 
-1.279974303687e-03 2.228361511033e-03 0.0 
0.0 0.0 0.0 
1.986919183985e-03 -1.904469352689e-03 0.0 
-1.904469352689e-03 -4.282675264067e-05 0.0 
0.0 0.0 0.0 
2.913873532829e-03 -1.866538721060e-03 0.0 
-1.866538721060e-03 -1.679707703616e-03 0.0 
0.0 0.0 0.0 
3.960842529657e-03 -1.070238691638e-03 0.0 
-1.070238691638e-03 -2.090663409325e-03 0.0 
0.0 0.0 0.0 
2.991825542957e-04 -2.329596632551e-03 0.0 
-2.329596632551e-03 8.864636110335e-04 0.0 
0.0 0.0 0.0 
3.309481823661e-03 1.263394822008e-03 0.0 
1.263394822008e-03 1.520951256251e-04 0.0 
0.0 0.0 0.0 
-2.039979865174e-03 9.618630191337e-04 0.0 
9.618630191337e-04 1.438246369938e-02 0.0 
0.0 0.0 0.0 
4.554833748453e-03 -6.682758089075e-04 0.0 
-6.682758089075e-04 -2.745835747251e-03 0.0 
0.0 0.0 0.0 
1.425399453411e-03 -1.830180943874e-04 0.0 
-1.830180943874e-04 2.540322322113e-03 0.0 
0.0 0.0 0.0 
1.751952947088e-03 -3.274228467742e-03 0.0 
-3.274228467742e-03 -1.472341514511e-03 0.0 
0.0 0.0 0.0 
1.355241607010e-03 4.801715340706e-04 0.0 
4.801715340706e-04 2.986519906943e-03 0.0 
0.0 0.0 0.0 
2.473204498457e-03 -1.846984930626e-03 0.0 
-1.846984930626e-03 -6.563047117173e-04 0.0 
0.0 0.0 0.0 
-6.935800422658e-06 4.520674727464e-03 0.0 
4.520674727464e-03 9.098056307339e-03 0.0 
0.0 0.0 0.0 
-8.477116533272e-04 4.403859172788e-03 0.0 
4.403859172788e-03 8.613779057724e-03 0.0 
0.0 0.0 0.0 
1.043116136314e-03 -2.916683563495e-03 0.0 
-2.916683563495e-03 -1.732794661538e-04 0.0 
0.0 0.0 0.0 
-2.136110934301e-03 3.505193778428e-03 0.0 
3.505193778428e-03 1.154295659398e-02 0.0 
0.0 0.0 0.0 
-1.450538763296e-03 2.377349012964e-03 0.0 
2.377349012964e-03 1.414718347079e-02 0.0 
0.0 0.0 0.0 
2.890447603790e-03 -1.490562078997e-03 0.0 
-1.490562078997e-03 -9.742121402960e-04 0.0 
0.0 0.0 0.0 
2.477921786648e-03 3.990587999549e-03 0.0 
3.990587999549e-03 5.520129641856e-04 0.0 
0.0 0.0 0.0 
-1.752891354356e-03 3.799179555992e-03 0.0 
3.799179555992e-03 1.094348610070e-02 0.0 
0.0 0.0 0.0 
1.025533567572e-03 4.514522978408e-03 0.0 
4.514522978408e-03 3.516494037124e-03 0.0 
0.0 0.0 0.0 
4.340037694148e-04 -2.806475952134e-03 0.0 
-2.806475952134e-03 1.545916364494e-04 0.0 
0.0 0.0 0.0 
-7.152490629800e-04 2.093553739115e-03 0.0 
2.093553739115e-03 1.483746271733e-02 0.0 
0.0 0.0 0.0 
-1.073602820257e-04 -2.324009765283e-03 0.0 
-2.324009765283e-03 6.329758332686e-04 0.0 
0.0 0.0 0.0 
1.755062496331e-03 2.429626749702e-03 0.0 
2.429626749702e-03 3.296334756299e-03 0.0 
0.0 0.0 0.0 
-9.984908337943e-04 9.482171421405e-04 0.0 
9.482171421405e-04 1.506324053297e-02 0.0 
0.0 0.0 0.0 
3.022478736068e-03 9.288854286415e-04 0.0 
9.288854286415e-04 4.265864232238e-04 0.0 
0.0 0.0 0.0 
-1.944226487894e-03 5.517598510893e-04 0.0 
5.517598510893e-04 1.398518362816e-02 0.0 
0.0 0.0 0.0 
-1.790280471917e-03 1.426090585444e-03 0.0 
1.426090585444e-03 1.463281221428e-02 0.0 
0.0 0.0 0.0 
3.407140590920e-03 -1.433990989917e-03 0.0 
-1.433990989917e-03 -2.027907834768e-03 0.0 
0.0 0.0 0.0 
4.580361453246e-03 1.463417948939e-03 0.0 
1.463417948939e-03 -1.890170424782e-03 0.0 
0.0 0.0 0.0 
-1.125205626699e-03 1.872963156664e-03 0.0 
1.872963156664e-03 1.473593999177e-02 0.0 
0.0 0.0 0.0 
9.753033185507e-04 -9.509757287030e-04 0.0 
-9.509757287030e-04 2.532363216365e-03 0.0 
0.0 0.0 0.0 
-2.038426645897e-03 1.214426966949e-03 0.0 
1.214426966949e-03 1.443597626478e-02 0.0 
0.0 0.0 0.0 
3.012242201324e-03 -6.950981766345e-05 0.0 
-6.950981766345e-05 5.319223487410e-05 0.0 
0.0 0.0 0.0 
1.429037086890e-03 -3.129355155182e-03 0.0 
-3.129355155182e-03 -6.443836705442e-04 0.0 
0.0 0.0 0.0 
-2.011985192612e-03 1.498125020500e-03 0.0 
1.498125020500e-03 1.444632024132e-02 0.0 
0.0 0.0 0.0 
4.299205058427e-04 4.685430627116e-03 0.0 
4.685430627116e-03 7.804026174980e-03 0.0 
0.0 0.0 0.0 
1.040187756425e-03 2.886063225142e-06 0.0 
2.886063225142e-06 3.257414405737e-03 0.0 
0.0 0.0 0.0 
1.113650298926e-03 -2.218275903224e-03 0.0 
-2.218275903224e-03 7.056315109673e-04 0.0 
0.0 0.0 0.0 
-2.127720328620e-03 5.619380476353e-04 0.0 
5.619380476353e-04 1.398463372887e-02 0.0 
0.0 0.0 0.0 
-2.051636111903e-03 5.398541865318e-04 0.0 
5.398541865318e-04 1.379504476803e-02 0.0 
0.0 0.0 0.0 
2.043220374895e-03 -2.059847273567e-03 0.0 
-2.059847273567e-03 -6.210914724007e-04 0.0 
0.0 0.0 0.0 
1.351013203463e-03 -1.027551725772e-03 0.0 
-1.027551725772e-03 1.924892007034e-03 0.0 
0.0 0.0 0.0 
1.580011376127e-03 -7.496518474481e-04 0.0 
-7.496518474481e-04 1.859542144417e-03 0.0 
0.0 0.0 0.0 
1.130167044372e-04 -9.898462250001e-04 0.0 
-9.898462250001e-04 9.709672137617e-04 0.0 
0.0 0.0 0.0 
4.440222026852e-03 2.341837740538e-03 0.0 
2.341837740538e-03 -3.473486216757e-03 0.0 
0.0 0.0 0.0 
4.832534900024e-03 -1.022179466558e-06 0.0 
-1.022179466558e-06 -2.835695761504e-03 0.0 
0.0 0.0 0.0 
4.057086307280e-03 -1.189993262408e-03 0.0 
-1.189993262408e-03 -2.654819544290e-03 0.0 
0.0 0.0 0.0 
2.039388549379e-03 4.244354572422e-03 0.0 
4.244354572422e-03 1.687238888406e-03 0.0 
0.0 0.0 0.0 
-1.106900468377e-03 1.808729307377e-03 0.0 
1.808729307377e-03 1.492313594427e-02 0.0 
0.0 0.0 0.0 
-1.133873149372e-03 3.610513417781e-03 0.0 
3.610513417781e-03 1.236634378043e-02 0.0 
0.0 0.0 0.0 
-1.161451305279e-03 9.438080211374e-04 0.0 
9.438080211374e-04 1.506383495357e-02 0.0 
0.0 0.0 0.0 
-5.915855834078e-04 4.425741493756e-03 0.0 
4.425741493756e-03 6.285637365958e-03 0.0 
0.0 0.0 0.0 
-1.791136428013e-03 2.131764569666e-03 0.0 
2.131764569666e-03 1.404821486979e-02 0.0 
0.0 0.0 0.0 
9.845273901741e-04 -1.144580362540e-03 0.0 
-1.144580362540e-03 1.944799043773e-03 0.0 
0.0 0.0 0.0 
-1.019527161639e-03 1.506080916228e-03 0.0 
1.506080916228e-03 1.495621160041e-02 0.0 
0.0 0.0 0.0 
-2.216791552535e-03 1.570109410466e-03 0.0 
1.570109410466e-03 1.424132875537e-02 0.0 
0.0 0.0 0.0 
1.163476372452e-03 -2.181794824066e-03 0.0 
-2.181794824066e-03 3.350428618309e-04 0.0 
0.0 0.0 0.0 
5.111063551292e-03 6.153753470644e-04 0.0 
6.153753470644e-04 -3.041262896121e-03 0.0 
0.0 0.0 0.0 
-1.754758533677e-03 1.435752410996e-03 0.0 
1.435752410996e-03 1.445271639105e-02 0.0 
0.0 0.0 0.0 
-1.476733604865e-03 1.627169652392e-03 0.0 
1.627169652392e-03 1.479300781481e-02 0.0 
0.0 0.0 0.0 
-1.606437872779e-03 1.127034796700e-03 0.0 
1.127034796700e-03 1.461516412518e-02 0.0 
0.0 0.0 0.0 
-1.796052369365e-03 1.166693978819e-03 0.0 
1.166693978819e-03 1.444070998993e-02 0.0 
0.0 0.0 0.0 
9.829419314789e-04 -4.911995744107e-04 0.0 
-4.911995744107e-04 3.035607089331e-03 0.0 
0.0 0.0 0.0 
1.883845792072e-03 2.704863124357e-03 0.0 
2.704863124357e-03 3.249040705667e-03 0.0 
0.0 0.0 0.0 
1.346347139246e-03 -4.757046370161e-04 0.0 
-4.757046370161e-04 2.461731151056e-03 0.0 
0.0 0.0 0.0 
1.083296123340e-03 -1.537880936937e-03 0.0 
-1.537880936937e-03 1.625522197828e-03 0.0 
0.0 0.0 0.0 
-2.097223857767e-03 3.462547253570e-03 0.0 
3.462547253570e-03 9.205194492900e-03 0.0 
0.0 0.0 0.0 
2.832346190738e-03 1.437877284593e-03 0.0 
1.437877284593e-03 1.016570427973e-03 0.0 
0.0 0.0 0.0 
-2.118118202815e-03 2.350513191912e-03 0.0 
2.350513191912e-03 1.340974069968e-02 0.0 
0.0 0.0 0.0 
-5.320103702432e-04 -1.160073063767e-03 0.0 
-1.160073063767e-03 1.941871204670e-03 0.0 
0.0 0.0 0.0 
4.452052256626e-03 -5.591906338147e-04 0.0 
-5.591906338147e-04 -2.743315846936e-03 0.0 
0.0 0.0 0.0 
4.034240571535e-03 -2.981533019103e-04 0.0 
-2.981533019103e-04 -1.816897941739e-03 0.0 
0.0 0.0 0.0 
4.106621376696e-03 1.548004524927e-03 0.0 
1.548004524927e-03 -1.050439910954e-03 0.0 
0.0 0.0 0.0 
4.381506654769e-03 -5.152262270369e-04 0.0 
-5.152262270369e-04 -4.066274145505e-03 0.0 
0.0 0.0 0.0 
4.844445493491e-03 -2.472339092010e-05 0.0 
-2.472339092010e-05 -2.931520319691e-03 0.0 
0.0 0.0 0.0 
3.546800641883e-03 1.649383814808e-03 0.0 
1.649383814808e-03 -2.552106981346e-05 0.0 
0.0 0.0 0.0 
-1.438903573791e-03 4.021807282649e-03 0.0 
4.021807282649e-03 8.299864678885e-03 0.0 
0.0 0.0 0.0 
1.104173104623e-03 -2.018473334165e-03 0.0 
-2.018473334165e-03 9.403500629819e-04 0.0 
0.0 0.0 0.0 
-2.411301578053e-03 1.325301121933e-03 0.0 
1.325301121933e-03 1.403772326767e-02 0.0 
0.0 0.0 0.0 
-2.033902780553e-03 2.458162812103e-04 0.0 
2.458162812103e-04 1.323391408530e-02 0.0 
0.0 0.0 0.0 
-1.601949407708e-03 3.541203530604e-03 0.0 
3.541203530604e-03 1.671631871932e-03 0.0 
0.0 0.0 0.0 
1.096169684957e-03 -1.742660474428e-03 0.0 
-1.742660474428e-03 9.992101916914e-04 0.0 
0.0 0.0 0.0 
2.880557580178e-03 9.287627514000e-04 0.0 
9.287627514000e-04 7.298210597857e-04 0.0 
0.0 0.0 0.0 
-1.043303844209e-03 3.489115743007e-03 0.0 
3.489115743007e-03 1.285175228304e-02 0.0 
0.0 0.0 0.0 
4.838797918540e-03 1.337061389521e-03 0.0 
1.337061389521e-03 -2.473935797821e-03 0.0 
0.0 0.0 0.0 
1.088943007702e-03 -1.795967991346e-03 0.0 
-1.795967991346e-03 1.252142053686e-03 0.0 
0.0 0.0 0.0 
-2.218288070617e-03 9.973861605320e-04 0.0 
9.973861605320e-04 1.419812046531e-02 0.0 
0.0 0.0 0.0 
-1.539994972631e-03 3.559439243623e-03 0.0 
3.559439243623e-03 2.896151384859e-03 0.0 
0.0 0.0 0.0 
3.172328633072e-03 1.239942654302e-03 0.0 
1.239942654302e-03 3.788781738863e-04 0.0 
0.0 0.0 0.0 
4.356058650311e-03 9.160786970944e-04 0.0 
9.160786970944e-04 -1.813421684138e-03 0.0 
0.0 0.0 0.0 
-1.711135504144e-03 4.087716304876e-03 0.0 
4.087716304876e-03 9.178381358384e-03 0.0 
0.0 0.0 0.0 
1.235643494322e-03 -8.975895275783e-04 0.0 
-8.975895275783e-04 1.883835404124e-03 0.0 
0.0 0.0 0.0 
2.977887336595e-03 -2.916928536681e-03 0.0 
-2.916928536681e-03 -2.873609397515e-03 0.0 
0.0 0.0 0.0 
1.431625811381e-03 -6.051897026525e-04 0.0 
-6.051897026525e-04 1.900434104136e-03 0.0 
0.0 0.0 0.0 
1.420800544965e-03 1.296899293663e-04 0.0 
1.296899293663e-04 2.702115361120e-03 0.0 
0.0 0.0 0.0 
3.406677241408e-03 1.589825656438e-03 0.0 
1.589825656438e-03 1.025920847955e-04 0.0 
0.0 0.0 0.0 
-1.832290370423e-03 1.159846972010e-03 0.0 
1.159846972010e-03 1.461204963730e-02 0.0 
0.0 0.0 0.0 
1.472412607014e-03 3.947056561911e-03 0.0 
3.947056561911e-03 4.829796230418e-03 0.0 
0.0 0.0 0.0 
1.236894169223e-03 -3.171091131283e-05 0.0 
-3.171091131283e-05 2.723318077297e-03 0.0 
0.0 0.0 0.0 
-1.600656750650e-03 3.483832832837e-03 0.0 
3.483832832837e-03 4.071247343636e-03 0.0 
0.0 0.0 0.0 
-2.232643779369e-03 1.267683206345e-03 0.0 
1.267683206345e-03 1.424483516397e-02 0.0 
0.0 0.0 0.0 
1.596840003581e-03 3.309138044475e-03 0.0 
3.309138044475e-03 4.104509416112e-03 0.0 
0.0 0.0 0.0 
-1.549058832747e-03 1.383151816361e-03 0.0 
1.383151816361e-03 1.463704474403e-02 0.0 
0.0 0.0 0.0 
3.899458094113e-03 1.474602070668e-03 0.0 
1.474602070668e-03 -8.183530405745e-04 0.0 
0.0 0.0 0.0 
4.952452425155e-03 7.055712267974e-04 0.0 
7.055712267974e-04 -2.725716266630e-03 0.0 
0.0 0.0 0.0 
-2.288382760500e-04 -1.445338286971e-03 0.0 
-1.445338286971e-03 2.830242987266e-03 0.0 
0.0 0.0 0.0 
2.867789847497e-03 7.739580379456e-04 0.0 
7.739580379456e-04 -4.860010923292e-03 0.0 
0.0 0.0 0.0 
-1.336060164618e-03 1.319502154045e-03 0.0 
1.319502154045e-03 1.480376534006e-02 0.0 
0.0 0.0 0.0 
-6.847498740723e-04 -9.895728553660e-04 0.0 
-9.895728553660e-04 2.209604387931e-03 0.0 
0.0 0.0 0.0 
-1.634394428512e-03 3.342367458698e-03 0.0 
3.342367458698e-03 5.337235476626e-03 0.0 
0.0 0.0 0.0 
1.245329165682e-03 4.151263176300e-03 0.0 
4.151263176300e-03 5.283213378529e-03 0.0 
0.0 0.0 0.0 
-8.996741003128e-04 1.171562420228e-03 0.0 
1.171562420228e-03 1.510224670205e-02 0.0 
0.0 0.0 0.0 
2.171237291084e-03 -3.385549509024e-03 0.0 
-3.385549509024e-03 -2.160212953592e-03 0.0 
0.0 0.0 0.0 
8.445176807961e-04 4.546698978669e-03 0.0 
4.546698978669e-03 4.783006571695e-03 0.0 
0.0 0.0 0.0 
-1.949513227705e-03 1.485003447935e-03 0.0 
1.485003447935e-03 1.425021150749e-02 0.0 
0.0 0.0 0.0 
3.881546341766e-04 -1.873047230400e-03 0.0 
-1.873047230400e-03 1.545752368563e-03 0.0 
0.0 0.0 0.0 
4.035338711740e-03 -1.646632287886e-03 0.0 
-1.646632287886e-03 -3.885597573128e-03 0.0 
0.0 0.0 0.0 
2.624426505703e-03 4.048475082619e-03 0.0 
4.048475082619e-03 -3.379457257138e-04 0.0 
0.0 0.0 0.0 
6.098491811304e-04 -3.033711244047e-03 0.0 
-3.033711244047e-03 -1.877871413898e-04 0.0 
0.0 0.0 0.0 
2.756203144701e-03 -2.824672229983e-03 0.0 
-2.824672229983e-03 -2.231963912897e-03 0.0 
0.0 0.0 0.0 
1.889115613063e-03 -3.297717312243e-03 0.0 
-3.297717312243e-03 -1.214097688302e-03 0.0 
0.0 0.0 0.0 
4.462665038202e-03 1.379334971760e-03 0.0 
1.379334971760e-03 -1.883031267014e-03 0.0 
0.0 0.0 0.0 
-5.058417579519e-04 3.141217484058e-03 0.0 
3.141217484058e-03 1.425978140441e-02 0.0 
0.0 0.0 0.0 
-1.676459137562e-03 3.183913072504e-03 0.0 
3.183913072504e-03 6.819830188792e-03 0.0 
0.0 0.0 0.0 
6.627172640858e-04 -4.978571231526e-04 0.0 
-4.978571231526e-04 3.577788280282e-03 0.0 
0.0 0.0 0.0 
5.016151209819e-03 2.005983106097e-03 0.0 
2.005983106097e-03 -2.897862382805e-03 0.0 
0.0 0.0 0.0 
-2.403390574768e-03 1.655383416816e-03 0.0 
1.655383416816e-03 1.401457297993e-02 0.0 
0.0 0.0 0.0 
3.593232179245e-03 6.172421500980e-04 0.0 
6.172421500980e-04 -4.515246843006e-03 0.0 
0.0 0.0 0.0 
1.194324961197e-03 2.929997870919e-04 0.0 
2.929997870919e-04 2.975964191114e-03 0.0 
0.0 0.0 0.0 
1.202699011080e-03 -3.483618300310e-03 0.0 
-3.483618300310e-03 -1.194973099064e-03 0.0 
0.0 0.0 0.0 
-8.479692341133e-04 -1.064981337608e-03 0.0 
-1.064981337608e-03 2.536135742419e-03 0.0 
0.0 0.0 0.0 
3.082727335214e-03 2.053549000638e-03 0.0 
2.053549000638e-03 8.145021137365e-04 0.0 
0.0 0.0 0.0 
2.900650655571e-03 -1.632660154817e-03 0.0 
-1.632660154817e-03 -1.419822283477e-03 0.0 
0.0 0.0 0.0 
1.990133914995e-03 2.980183636520e-03 0.0 
2.980183636520e-03 3.286628244351e-03 0.0 
0.0 0.0 0.0 
1.179482480944e-03 4.227020208308e-03 0.0 
4.227020208308e-03 2.486166787416e-03 0.0 
0.0 0.0 0.0 
-2.214800202243e-03 2.366337896234e-03 0.0 
2.366337896234e-03 1.373371990728e-02 0.0 
0.0 0.0 0.0 
1.742437158708e-03 2.607620067795e-03 0.0 
2.607620067795e-03 3.269184862604e-03 0.0 
0.0 0.0 0.0 
-1.976396883682e-03 1.199236943521e-03 0.0 
1.199236943521e-03 1.425161340590e-02 0.0 
0.0 0.0 0.0 
-1.230405255024e-03 3.595818214811e-03 0.0 
3.595818214811e-03 1.283679526281e-02 0.0 
0.0 0.0 0.0 
-1.951727040581e-03 1.804855907879e-03 0.0 
1.804855907879e-03 1.440636595035e-02 0.0 
0.0 0.0 0.0 
-1.851530910234e-03 2.128024487756e-03 0.0 
2.128024487756e-03 1.430572138849e-02 0.0 
0.0 0.0 0.0 
3.240579867256e-03 3.379276934327e-03 0.0 
3.379276934327e-03 -2.842253687285e-03 0.0 
0.0 0.0 0.0 
5.348302695432e-04 -6.510741118807e-04 0.0 
-6.510741118807e-04 3.568067171551e-03 0.0 
0.0 0.0 0.0 
-1.890611822245e-03 1.799341045276e-03 0.0 
1.799341045276e-03 1.418403721574e-02 0.0 
0.0 0.0 0.0 
4.184148165884e-03 3.016673519822e-03 0.0 
3.016673519822e-03 -1.430905180083e-03 0.0 
0.0 0.0 0.0 
-1.938848786137e-03 3.056051962955e-03 0.0 
3.056051962955e-03 8.433261833916e-03 0.0 
0.0 0.0 0.0 
1.347090230071e-03 2.826805982240e-03 0.0 
2.826805982240e-03 4.035197117072e-03 0.0 
0.0 0.0 0.0 
4.517032098805e-03 1.527352894736e-03 0.0 
1.527352894736e-03 -4.051317224765e-03 0.0 
0.0 0.0 0.0 
-6.438819530282e-04 -1.025365197795e-03 0.0 
-1.025365197795e-03 2.191355526665e-03 0.0 
0.0 0.0 0.0 
2.345451746766e-03 2.824134636537e-03 0.0 
2.824134636537e-03 2.415533545001e-03 0.0 
0.0 0.0 0.0 
1.756494573222e-04 4.155672697608e-05 0.0 
4.155672697608e-05 1.432900760183e-03 0.0 
0.0 0.0 0.0 
2.323727062833e-03 4.045235713812e-03 0.0 
4.045235713812e-03 1.927553699356e-03 0.0 
0.0 0.0 0.0 
2.914189198632e-03 1.701565192395e-03 0.0 
1.701565192395e-03 9.809939516492e-04 0.0 
0.0 0.0 0.0 
-1.471800037669e-03 2.333834486283e-03 0.0 
2.333834486283e-03 1.440731399390e-02 0.0 
0.0 0.0 0.0 
-1.303872204996e-03 2.697076722011e-03 0.0 
2.697076722011e-03 1.421245547468e-02 0.0 
0.0 0.0 0.0 
3.058787914900e-03 1.766609218765e-03 0.0 
1.766609218765e-03 8.564010315368e-04 0.0 
0.0 0.0 0.0 
-1.719063106477e-03 1.718700468396e-03 0.0 
1.718700468396e-03 1.460690092752e-02 0.0 
0.0 0.0 0.0 
4.730541465073e-03 2.590830014859e-03 0.0 
2.590830014859e-03 -2.362804099724e-03 0.0 
0.0 0.0 0.0 
5.201598558227e-04 4.349758628547e-03 0.0 
4.349758628547e-03 6.857786955457e-03 0.0 
0.0 0.0 0.0 
-3.158089499754e-03 2.965875084227e-03 0.0 
2.965875084227e-03 1.030394308465e-02 0.0 
0.0 0.0 0.0 
-5.906267415321e-04 4.166049097081e-03 0.0 
4.166049097081e-03 1.073448325443e-02 0.0 
0.0 0.0 0.0 
-2.868239497420e-03 1.756711073758e-03 0.0 
1.756711073758e-03 1.172778744069e-02 0.0 
0.0 0.0 0.0 
-2.828413957935e-03 1.462445194298e-03 0.0 
1.462445194298e-03 1.217789856076e-02 0.0 
0.0 0.0 0.0 
4.843845600657e-03 1.934152776957e-03 0.0 
1.934152776957e-03 -2.427985806680e-03 0.0 
0.0 0.0 0.0 
-2.835896705042e-03 1.366154338130e-03 0.0 
1.366154338130e-03 1.242668131483e-02 0.0 
0.0 0.0 0.0 
2.745363981838e-03 3.775741856419e-03 0.0 
3.775741856419e-03 1.647581303875e-03 0.0 
0.0 0.0 0.0 
3.531090599074e-03 3.572773317325e-03 0.0 
3.572773317325e-03 -1.291174076800e-04 0.0 
0.0 0.0 0.0 
4.679661677638e-03 1.177136727606e-04 0.0 
1.177136727606e-04 -2.667945323344e-03 0.0 
0.0 0.0 0.0 
3.903898685928e-03 -1.541777194675e-03 0.0 
-1.541777194675e-03 -3.744242913988e-03 0.0 
0.0 0.0 0.0 
5.067674697085e-03 1.304599783150e-03 0.0 
1.304599783150e-03 -2.817304862130e-03 0.0 
0.0 0.0 0.0 
-1.240610789527e-03 1.593616477762e-03 0.0 
1.593616477762e-03 1.479616482816e-02 0.0 
0.0 0.0 0.0 
-8.368863516388e-04 3.934052244657e-03 0.0 
3.934052244657e-03 1.190866965726e-02 0.0 
0.0 0.0 0.0 
6.410633498897e-04 -8.602891564243e-04 0.0 
-8.602891564243e-04 3.093632333507e-03 0.0 
0.0 0.0 0.0 
1.879564170846e-03 2.877043794673e-03 0.0 
2.877043794673e-03 3.223433264183e-03 0.0 
0.0 0.0 0.0 
3.347147803027e-03 -1.290983151810e-03 0.0 
-1.290983151810e-03 -1.475883068309e-03 0.0 
0.0 0.0 0.0 
-1.588834869958e-03 2.048708105582e-03 0.0 
2.048708105582e-03 1.431433007445e-02 0.0 
0.0 0.0 0.0 
4.933744031666e-03 6.822994456268e-04 0.0 
6.822994456268e-04 -2.753748108231e-03 0.0 
0.0 0.0 0.0 
2.852412528560e-04 -5.908959366742e-04 0.0 
-5.908959366742e-04 4.054305177871e-03 0.0 
0.0 0.0 0.0 
-1.686433770242e-03 1.734128664800e-03 0.0 
1.734128664800e-03 1.441376907484e-02 0.0 
0.0 0.0 0.0 
-2.049972679624e-03 2.239623735253e-03 0.0 
2.239623735253e-03 1.403580465213e-02 0.0 
0.0 0.0 0.0 
3.656725142804e-03 1.061954040940e-03 0.0 
1.061954040940e-03 -5.124584649591e-04 0.0 
0.0 0.0 0.0 
4.998794063348e-03 1.948442902341e-03 0.0 
1.948442902341e-03 -2.682230749492e-03 0.0 
0.0 0.0 0.0 
4.560801262530e-04 4.334798102228e-03 0.0 
4.334798102228e-03 7.276382443909e-03 0.0 
0.0 0.0 0.0 
-9.623768000571e-04 4.279206171787e-03 0.0 
4.279206171787e-03 8.631176333681e-03 0.0 
0.0 0.0 0.0 
3.459959548755e-03 -2.595964492440e-03 0.0 
-2.595964492440e-03 -3.573218472048e-03 0.0 
0.0 0.0 0.0 
4.396887429496e-03 3.276338030096e-04 0.0 
3.276338030096e-04 -3.858433980273e-03 0.0 
0.0 0.0 0.0 
1.692891417753e-03 4.235014859908e-03 0.0 
4.235014859908e-03 1.518298692917e-03 0.0 
0.0 0.0 0.0 
6.655030804097e-04 4.575245851635e-03 0.0 
4.575245851635e-03 4.779891993541e-03 0.0 
0.0 0.0 0.0 
8.647412417684e-05 -5.203582516098e-04 0.0 
-5.203582516098e-04 4.500102488756e-03 0.0 
0.0 0.0 0.0 
-2.155177927078e-03 1.898195893930e-03 0.0 
1.898195893930e-03 1.417322786264e-02 0.0 
0.0 0.0 0.0 
5.011574844139e-03 1.341406338676e-03 0.0 
1.341406338676e-03 -2.589415703998e-03 0.0 
0.0 0.0 0.0 
5.054824378821e-04 4.533398964290e-03 0.0 
4.533398964290e-03 6.126886360361e-03 0.0 
0.0 0.0 0.0 
2.683369225678e-03 1.404902753112e-03 0.0 
1.404902753112e-03 1.260442487475e-03 0.0 
0.0 0.0 0.0 
-1.559408325114e-03 1.352478738322e-03 0.0 
1.352478738322e-03 1.480056406554e-02 0.0 
0.0 0.0 0.0 
1.327237849493e-04 4.440695953320e-03 0.0 
4.440695953320e-03 8.191336001787e-03 0.0 
0.0 0.0 0.0 
-2.286521196917e-03 1.601188096398e-03 0.0 
1.601188096398e-03 1.377717857177e-02 0.0 
0.0 0.0 0.0 
2.156787116306e-03 4.718022200361e-04 0.0 
4.718022200361e-04 1.680184891213e-03 0.0 
0.0 0.0 0.0 
4.740677698023e-03 7.957430854071e-04 0.0 
7.957430854071e-04 -2.391864233119e-03 0.0 
0.0 0.0 0.0 
2.552289011811e-03 1.134454695961e-03 0.0 
1.134454695961e-03 1.285682602005e-03 0.0 
0.0 0.0 0.0 
2.111237881479e-03 4.244175870082e-03 0.0 
4.244175870082e-03 1.899014039787e-03 0.0 
0.0 0.0 0.0 
-1.366089498269e-03 1.923768450374e-03 0.0 
1.923768450374e-03 1.473136741844e-02 0.0 
0.0 0.0 0.0 
-1.173246415556e-04 4.515827959417e-03 0.0 
4.515827959417e-03 9.098456369522e-03 0.0 
0.0 0.0 0.0 
4.146416415444e-03 8.784576721037e-04 0.0 
8.784576721037e-04 -1.475229337105e-03 0.0 
0.0 0.0 0.0 
4.296246836308e-03 5.508574906724e-04 0.0 
5.508574906724e-04 -4.351839364551e-03 0.0 
0.0 0.0 0.0 
1.531862554152e-03 3.854160689122e-03 0.0 
3.854160689122e-03 4.438838456858e-03 0.0 
0.0 0.0 0.0 
2.304969466199e-03 4.053736720977e-03 0.0 
4.053736720977e-03 2.236001401497e-03 0.0 
0.0 0.0 0.0 
4.877439176497e-03 2.000270942014e-03 0.0 
2.000270942014e-03 -2.271606884388e-03 0.0 
0.0 0.0 0.0 
3.791404535391e-03 1.076996947147e-03 0.0 
1.076996947147e-03 -7.583038202006e-04 0.0 
0.0 0.0 0.0 
1.932652846611e-03 -1.728975669445e-04 0.0 
-1.728975669445e-04 1.451692321933e-03 0.0 
0.0 0.0 0.0 
4.080982288276e-03 -7.579132042762e-04 0.0 
-7.579132042762e-04 -4.138445745419e-03 0.0 
0.0 0.0 0.0 
4.616554733758e-03 7.505659228822e-04 0.0 
7.505659228822e-04 -2.258209763584e-03 0.0 
0.0 0.0 0.0 
-1.743980435863e-03 3.608410847110e-03 0.0 
3.608410847110e-03 1.096904550052e-02 0.0 
0.0 0.0 0.0 
-4.568807444194e-05 -5.725816735735e-04 0.0 
-5.725816735735e-04 4.508058250543e-03 0.0 
0.0 0.0 0.0 
-1.370924824104e-03 3.880227227147e-03 0.0 
3.880227227147e-03 1.032553461526e-02 0.0 
0.0 0.0 0.0 
1.354465582672e-03 4.072158161484e-03 0.0 
4.072158161484e-03 4.812222418041e-03 0.0 
0.0 0.0 0.0 
-2.076725568796e-03 3.271060991762e-03 0.0 
3.271060991762e-03 1.157354632265e-02 0.0 
0.0 0.0 0.0 
-2.539035786371e-03 2.425168151465e-03 0.0 
2.425168151465e-03 1.256391798954e-02 0.0 
0.0 0.0 0.0 
-5.113157384299e-04 4.403188188080e-03 0.0 
4.403188188080e-03 7.876505949961e-03 0.0 
0.0 0.0 0.0 
2.248672809329e-03 2.524059638462e-03 0.0 
2.524059638462e-03 2.434306636161e-03 0.0 
0.0 0.0 0.0 
5.827695900564e-04 -7.907938545491e-04 0.0 
-7.907938545491e-04 3.058229269748e-03 0.0 
0.0 0.0 0.0 
-2.072354861659e-03 1.877872225678e-03 0.0 
1.877872225678e-03 1.392396959510e-02 0.0 
0.0 0.0 0.0 
-1.081611496071e-03 2.621952561049e-03 0.0 
2.621952561049e-03 1.422100139332e-02 0.0 
0.0 0.0 0.0 
-2.352762627410e-03 2.872072377216e-03 0.0 
2.872072377216e-03 1.211346262948e-02 0.0 
0.0 0.0 0.0 
5.010657148100e-03 1.289940719667e-03 0.0 
1.289940719667e-03 -3.043708060237e-03 0.0 
0.0 0.0 0.0 
1.210110630552e-03 3.950248587418e-03 0.0 
3.950248587418e-03 5.411614017265e-03 0.0 
0.0 0.0 0.0 
-1.224389206491e-03 1.537812595086e-03 0.0 
1.537812595086e-03 1.495323086865e-02 0.0 
0.0 0.0 0.0 
3.147732713760e-03 3.735391198242e-03 0.0 
3.735391198242e-03 1.485948300421e-04 0.0 
0.0 0.0 0.0 
2.595250737820e-03 4.001409794321e-03 0.0 
4.001409794321e-03 1.214079059263e-03 0.0 
0.0 0.0 0.0 
5.078280579739e-03 1.309028586308e-03 0.0 
1.309028586308e-03 -2.789158198262e-03 0.0 
0.0 0.0 0.0 
-1.968755258900e-03 2.229697716742e-03 0.0 
2.229697716742e-03 1.375074998969e-02 0.0 
0.0 0.0 0.0 
2.974707367267e-04 4.470144417852e-03 0.0 
4.470144417852e-03 4.336037764354e-03 0.0 
0.0 0.0 0.0 
2.852524637098e-03 3.688902456150e-03 0.0 
3.688902456150e-03 1.163658197326e-03 0.0 
0.0 0.0 0.0 
4.290167599370e-04 4.466837469899e-03 0.0 
4.466837469899e-03 4.335879320315e-03 0.0 
0.0 0.0 0.0 
2.723329699054e-03 2.464348759381e-03 0.0 
2.464348759381e-03 1.594537613249e-03 0.0 
0.0 0.0 0.0 
8.682027446374e-04 4.035727215337e-03 0.0 
4.035727215337e-03 5.995984106230e-03 0.0 
0.0 0.0 0.0 
5.053932644006e-03 6.072454110550e-04 0.0 
6.072454110550e-04 -2.942028071810e-03 0.0 
0.0 0.0 0.0 
2.792823354698e-03 -8.449821884063e-04 0.0 
-8.449821884063e-04 -4.597711369303e-03 0.0 
0.0 0.0 0.0 
-1.075457472742e-03 3.084427315211e-03 0.0 
3.084427315211e-03 1.363778577464e-02 0.0 
0.0 0.0 0.0 
-1.392614506390e-04 4.446712590654e-03 0.0 
4.446712590654e-03 5.341155538435e-03 0.0 
0.0 0.0 0.0 
3.742785694296e-03 -8.224677191430e-04 0.0 
-8.224677191430e-04 -1.697775234032e-03 0.0 
0.0 0.0 0.0 
1.284772663348e-03 3.894727419108e-03 0.0 
3.894727419108e-03 5.065585758945e-03 0.0 
0.0 0.0 0.0 
-2.334629143557e-03 2.005530211211e-03 0.0 
2.005530211211e-03 1.390972196801e-02 0.0 
0.0 0.0 0.0 
8.868875176875e-04 -8.479069494506e-04 0.0 
-8.479069494506e-04 2.486845810940e-03 0.0 
0.0 0.0 0.0 
4.086055553675e-03 3.171063439088e-03 0.0 
3.171063439088e-03 -1.031684236705e-03 0.0 
0.0 0.0 0.0 
2.508499576346e-03 -4.606567694717e-04 0.0 
-4.606567694717e-04 -4.977365007644e-03 0.0 
0.0 0.0 0.0 
-1.554803311420e-04 -5.139087020839e-04 0.0 
-5.139087020839e-04 4.929171685723e-03 0.0 
0.0 0.0 0.0 
1.179092557923e-03 4.522200647959e-03 0.0 
4.522200647959e-03 3.985683988300e-03 0.0 
0.0 0.0 0.0 
2.858281807174e-03 2.912952649474e-03 0.0 
2.912952649474e-03 1.711985515771e-03 0.0 
0.0 0.0 0.0 
6.444040077733e-04 4.344364435968e-03 0.0 
4.344364435968e-03 6.787430007685e-03 0.0 
0.0 0.0 0.0 
1.011849788928e-03 -3.167212843094e-05 0.0 
-3.167212843094e-05 -4.708905123685e-03 0.0 
0.0 0.0 0.0 
1.191174135270e-03 -7.310131684429e-04 0.0 
-7.310131684429e-04 2.466942401315e-03 0.0 
0.0 0.0 0.0 
3.403474290118e-03 3.391789281018e-03 0.0 
3.391789281018e-03 -1.097296053184e-03 0.0 
0.0 0.0 0.0 
-2.581309309673e-03 1.746875406774e-03 0.0 
1.746875406774e-03 1.376165865779e-02 0.0 
0.0 0.0 0.0 
3.947106263200e-04 -1.669027289694e-03 0.0 
-1.669027289694e-03 1.866980223837e-03 0.0 
0.0 0.0 0.0 
5.171594260496e-03 1.285864551349e-03 0.0 
1.285864551349e-03 -3.055315872606e-03 0.0 
0.0 0.0 0.0 
1.157480541207e-04 -6.455624217302e-04 0.0 
-6.455624217302e-04 4.063742518292e-03 0.0 
0.0 0.0 0.0 
2.530003887951e-03 4.009311090331e-03 0.0 
4.009311090331e-03 1.613277360632e-03 0.0 
0.0 0.0 0.0 
5.203866030563e-03 1.318554577180e-03 0.0 
1.318554577180e-03 -3.371054085025e-03 0.0 
0.0 0.0 0.0 
9.247269716177e-04 4.521056797588e-03 0.0 
4.521056797588e-03 5.066739861983e-03 0.0 
0.0 0.0 0.0 
2.272362665714e-03 -2.359808647449e-03 0.0 
-2.359808647449e-03 -4.634670404497e-03 0.0 
0.0 0.0 0.0 
9.281718891736e-04 4.305221005083e-03 0.0 
4.305221005083e-03 5.848224781524e-03 0.0 
0.0 0.0 0.0 
2.737121708438e-03 2.213808272275e-03 0.0 
2.213808272275e-03 1.631967392965e-03 0.0 
0.0 0.0 0.0 
-2.962964756873e-04 4.448428567495e-03 0.0 
4.448428567495e-03 9.879135920225e-03 0.0 
0.0 0.0 0.0 
8.267253935892e-04 4.249869803814e-03 0.0 
4.249869803814e-03 6.301935381946e-03 0.0 
0.0 0.0 0.0 
4.748724208665e-03 3.624661780784e-04 0.0 
3.624661780784e-04 -3.624999088900e-03 0.0 
0.0 0.0 0.0 
3.712544996231e-04 -9.218582311439e-04 0.0 
-9.218582311439e-04 3.104991114543e-03 0.0 
0.0 0.0 0.0 
-8.717776161402e-04 1.794575761882e-03 0.0 
1.794575761882e-03 1.492360151891e-02 0.0 
0.0 0.0 0.0 
9.112462717089e-04 3.205350141753e-03 0.0 
3.205350141753e-03 4.831205371200e-03 0.0 
0.0 0.0 0.0 
2.373547526117e-03 2.619575608896e-03 0.0 
2.619575608896e-03 2.445916440523e-03 0.0 
0.0 0.0 0.0 
4.531706809022e-03 2.619853652054e-03 0.0 
2.619853652054e-03 -1.630404623861e-03 0.0 
0.0 0.0 0.0 
9.743654762440e-04 4.419512633868e-03 0.0 
4.419512633868e-03 5.433017382451e-03 0.0 
0.0 0.0 0.0 
-1.904063475471e-04 -4.579437919912e-04 0.0 
-4.579437919912e-04 4.852959010022e-03 0.0 
0.0 0.0 0.0 
-1.056467385397e-03 -5.156189665048e-04 0.0 
-5.156189665048e-04 3.672074743267e-03 0.0 
0.0 0.0 0.0 
1.088928238566e-03 4.229457901749e-03 0.0 
4.229457901749e-03 5.272814978174e-03 0.0 
0.0 0.0 0.0 
-2.128988946005e-03 1.537483571576e-03 0.0 
1.537483571576e-03 1.402707721950e-02 0.0 
0.0 0.0 0.0 
3.264923036790e-04 -7.204166480928e-04 0.0 
-7.204166480928e-04 3.579936707668e-03 0.0 
0.0 0.0 0.0 
1.074326714390e-03 -6.132476942151e-04 0.0 
-6.132476942151e-04 2.484646536370e-03 0.0 
0.0 0.0 0.0 
-1.861383020291e-03 3.663207195493e-05 0.0 
3.663207195493e-05 1.293748526076e-02 0.0 
0.0 0.0 0.0 
-1.840974722112e-03 2.748227130819e-05 0.0 
2.748227130819e-05 1.293097460192e-02 0.0 
0.0 0.0 0.0 
-1.879843735301e-03 3.592582222612e-03 0.0 
3.592582222612e-03 1.159915789786e-02 0.0 
0.0 0.0 0.0 
1.149793737309e-03 4.331714772305e-03 0.0 
4.331714772305e-03 4.792482404185e-03 0.0 
0.0 0.0 0.0 
9.981002417137e-05 -1.466983381606e-03 0.0 
-1.466983381606e-03 2.429923354967e-03 0.0 
0.0 0.0 0.0 
-6.716571381470e-04 4.340596216336e-03 0.0 
4.340596216336e-03 8.797364383821e-03 0.0 
0.0 0.0 0.0 
3.045775395111e-03 3.722701991861e-03 0.0 
3.722701991861e-03 5.746354896927e-04 0.0 
0.0 0.0 0.0 
1.795261768816e-03 1.250018106070e-03 0.0 
1.250018106070e-03 2.417640959839e-03 0.0 
0.0 0.0 0.0 
4.287635984474e-03 3.089760956357e-03 0.0 
3.089760956357e-03 -1.699281980848e-03 0.0 
0.0 0.0 0.0 
-4.693341571990e-04 2.811789315672e-03 0.0 
2.811789315672e-03 1.454293968164e-02 0.0 
0.0 0.0 0.0 
-2.764328933297e-03 2.178210143572e-03 0.0 
2.178210143572e-03 1.252320355280e-02 0.0 
0.0 0.0 0.0 
2.832076514006e-03 3.797757338900e-03 0.0 
3.797757338900e-03 1.243790196811e-03 0.0 
0.0 0.0 0.0 
7.210203405228e-04 -1.652975029584e-03 0.0 
-1.652975029584e-03 1.862270050930e-03 0.0 
0.0 0.0 0.0 
4.527109699122e-03 1.341060336739e-03 0.0 
1.341060336739e-03 -3.317643708180e-03 0.0 
0.0 0.0 0.0 
7.520084248325e-04 -2.048365683059e-03 0.0 
-2.048365683059e-03 9.470934056508e-04 0.0 
0.0 0.0 0.0 
1.185302581995e-03 4.467545121839e-03 0.0 
4.467545121839e-03 4.345092143375e-03 0.0 
0.0 0.0 0.0 
2.475835390059e-04 4.572776680432e-03 0.0 
4.572776680432e-03 5.842369569912e-03 0.0 
0.0 0.0 0.0 
-2.234066802586e-03 1.972757729161e-03 0.0 
1.972757729161e-03 1.363913403885e-02 0.0 
0.0 0.0 0.0 
-3.543936838701e-04 4.346280382193e-03 0.0 
4.346280382193e-03 8.115664452705e-03 0.0 
0.0 0.0 0.0 
-5.362208204780e-04 4.304131561802e-03 0.0 
4.304131561802e-03 9.007601515171e-03 0.0 
0.0 0.0 0.0 
9.607176174826e-04 -1.752118685720e-04 0.0 
-1.752118685720e-04 6.628113094591e-04 0.0 
0.0 0.0 0.0 
6.987465205439e-04 -2.074124008545e-03 0.0 
-2.074124008545e-03 1.282715597358e-03 0.0 
0.0 0.0 0.0 
8.159518097406e-06 4.512213376455e-03 0.0 
4.512213376455e-03 5.333016565691e-03 0.0 
0.0 0.0 0.0 
-1.202518067415e-03 4.078954966978e-03 0.0 
4.078954966978e-03 9.515390584580e-03 0.0 
0.0 0.0 0.0 
-1.346370840575e-03 4.045278822514e-03 0.0 
4.045278822514e-03 1.029249642079e-02 0.0 
0.0 0.0 0.0 
2.079113196823e-03 2.207235179678e-03 0.0 
2.207235179678e-03 2.506232910830e-03 0.0 
0.0 0.0 0.0 
-1.486655330158e-04 -1.394952864649e-04 0.0 
-1.394952864649e-04 1.702373725037e-03 0.0 
0.0 0.0 0.0 
3.675747550364e-03 -1.831258451249e-03 0.0 
-1.831258451249e-03 -4.104442132300e-03 0.0 
0.0 0.0 0.0 
1.641158645987e-03 4.420626933428e-03 0.0 
4.420626933428e-03 2.920208162837e-03 0.0 
0.0 0.0 0.0 
3.814989504694e-04 -2.045803339051e-03 0.0 
-2.045803339051e-03 1.280248561992e-03 0.0 
0.0 0.0 0.0 
-3.264039977714e-03 2.087103264262e-03 0.0 
2.087103264262e-03 1.205394615209e-02 0.0 
0.0 0.0 0.0 
-3.211468533189e-03 1.822797113366e-03 0.0 
1.822797113366e-03 1.236508041447e-02 0.0 
0.0 0.0 0.0 
-2.485337246099e-03 2.138127682605e-03 0.0 
2.138127682605e-03 1.362060451512e-02 0.0 
0.0 0.0 0.0 
2.649660725848e-03 3.370425720157e-03 0.0 
3.370425720157e-03 -1.655865871356e-03 0.0 
0.0 0.0 0.0 
3.661000320911e-04 -1.698340909271e-03 0.0 
-1.698340909271e-03 2.113259802461e-03 0.0 
0.0 0.0 0.0 
2.686120358983e-03 6.531383341095e-04 0.0 
6.531383341095e-04 7.727681134049e-04 0.0 
0.0 0.0 0.0 
3.897933488088e-03 -5.048287712273e-04 0.0 
-5.048287712273e-04 -4.391625351084e-03 0.0 
0.0 0.0 0.0 
2.644795387159e-04 4.354084582447e-03 0.0 
4.354084582447e-03 7.445854772081e-03 0.0 
0.0 0.0 0.0 
-1.613353093755e-03 2.017970475132e-03 0.0 
2.017970475132e-03 1.453645274729e-02 0.0 
0.0 0.0 0.0 
-2.242782833916e-04 -1.603979416357e-03 0.0 
-1.603979416357e-03 2.348519858134e-03 0.0 
0.0 0.0 0.0 
3.581295659474e-04 -7.603120732583e-04 0.0 
-7.603120732583e-04 3.608393258166e-03 0.0 
0.0 0.0 0.0 
7.737370536058e-04 -3.355130576932e-04 0.0 
-3.355130576932e-04 4.194547709973e-04 0.0 
0.0 0.0 0.0 
2.719765858258e-03 1.380193820751e-04 0.0 
1.380193820751e-04 3.746740654116e-04 0.0 
0.0 0.0 0.0 
1.366387054800e-03 4.441811760164e-03 0.0 
4.441811760164e-03 3.996434100028e-03 0.0 
0.0 0.0 0.0 
9.424286775030e-04 -2.539320779471e-04 0.0 
-2.539320779471e-04 3.630272904873e-04 0.0 
0.0 0.0 0.0 
-1.362483353192e-03 1.965094489651e-03 0.0 
1.965094489651e-03 1.454066352217e-02 0.0 
0.0 0.0 0.0 
3.412219291171e-03 -8.074827947500e-04 0.0 
-8.074827947500e-04 -4.280418420319e-03 0.0 
0.0 0.0 0.0 
-1.116627592578e-03 4.226304031947e-03 0.0 
4.226304031947e-03 9.492377703855e-03 0.0 
0.0 0.0 0.0 
4.063719072596e-04 4.583694085735e-03 0.0 
4.583694085735e-03 5.840178709036e-03 0.0 
0.0 0.0 0.0 
3.858676312266e-03 -9.250734441143e-04 0.0 
-9.250734441143e-04 -2.250223826915e-03 0.0 
0.0 0.0 0.0 
2.661034563122e-03 -1.037540223159e-03 0.0 
-1.037540223159e-03 -9.781128427466e-05 0.0 
0.0 0.0 0.0 
-1.239142569288e-03 2.282036709143e-03 0.0 
2.282036709143e-03 1.441028091957e-02 0.0 
0.0 0.0 0.0 
2.455933430217e-03 -6.816387853476e-04 0.0 
-6.816387853476e-04 5.675089512254e-04 0.0 
0.0 0.0 0.0 
2.124045577908e-03 4.240910181011e-03 0.0 
4.240910181011e-03 2.208685108846e-03 0.0 
0.0 0.0 0.0 
1.834739171031e-03 4.277064600354e-03 0.0 
4.277064600354e-03 2.940309301290e-03 0.0 
0.0 0.0 0.0 
-1.806066634252e-03 3.525919504858e-03 0.0 
3.525919504858e-03 1.130286447842e-03 0.0 
0.0 0.0 0.0 
3.226454160232e-03 -5.394638986572e-04 0.0 
-5.394638986572e-04 -4.599559025760e-03 0.0 
0.0 0.0 0.0 
1.068792224117e-03 4.129012348166e-03 0.0 
4.129012348166e-03 5.787920696745e-03 0.0 
0.0 0.0 0.0 
-2.698669432039e-03 2.492861483297e-03 0.0 
2.492861483297e-03 1.293500871112e-02 0.0 
0.0 0.0 0.0 
1.170164643149e-03 4.078057903313e-03 0.0 
4.078057903313e-03 5.388747042611e-03 0.0 
0.0 0.0 0.0 
3.046599624880e-03 3.857434134491e-03 0.0 
3.857434134491e-03 -1.165772972376e-03 0.0 
0.0 0.0 0.0 
-1.461103856777e-03 3.401990763813e-03 0.0 
3.401990763813e-03 1.228084610275e-02 0.0 
0.0 0.0 0.0 
6.773156840760e-04 4.277245539016e-03 0.0 
4.277245539016e-03 6.792275657959e-03 0.0 
0.0 0.0 0.0 
-2.877005510804e-03 1.997996431433e-03 0.0 
1.997996431433e-03 1.210630779688e-02 0.0 
0.0 0.0 0.0 
9.664655709669e-04 4.176422111846e-03 0.0 
4.176422111846e-03 5.780435619706e-03 0.0 
0.0 0.0 0.0 
1.366618237371e-04 -8.043004544425e-04 0.0 
-8.043004544425e-04 3.616736503022e-03 0.0 
0.0 0.0 0.0 
1.580587869836e-03 4.287878702067e-03 0.0 
4.287878702067e-03 3.718708811711e-03 0.0 
0.0 0.0 0.0 
7.060552271974e-04 -1.879138217027e-03 0.0 
-1.879138217027e-03 1.544825477934e-03 0.0 
0.0 0.0 0.0 
7.389982227728e-04 -1.844505200490e-03 0.0 
-1.844505200490e-03 1.261602548456e-03 0.0 
0.0 0.0 0.0 
-1.337481661340e-03 3.194981186729e-03 0.0 
3.194981186729e-03 1.361025616272e-02 0.0 
0.0 0.0 0.0 
2.767360522193e-03 -1.289654802547e-03 0.0 
-1.289654802547e-03 -6.130317131799e-04 0.0 
0.0 0.0 0.0 
7.328897448717e-04 4.562898168478e-03 0.0 
4.562898168478e-03 5.061919775152e-03 0.0 
0.0 0.0 0.0 
3.973946593514e-03 2.993030130203e-03 0.0 
2.993030130203e-03 -9.109764180772e-04 0.0 
0.0 0.0 0.0 
2.152479743965e-03 -3.505673219706e-04 0.0 
-3.505673219706e-04 1.265904684099e-03 0.0 
0.0 0.0 0.0 
3.464952392742e-03 3.496337350930e-03 0.0 
3.496337350930e-03 1.817784115847e-04 0.0 
0.0 0.0 0.0 
5.004719982643e-03 4.893011343048e-04 0.0 
4.893011343048e-04 -3.811769602598e-03 0.0 
0.0 0.0 0.0 
4.183322430553e-03 2.397694502476e-04 0.0 
2.397694502476e-04 -1.821750740742e-03 0.0 
0.0 0.0 0.0 
5.094631600807e-03 1.333584144516e-03 0.0 
1.333584144516e-03 -3.588927992030e-03 0.0 
0.0 0.0 0.0 
-7.750055377712e-04 4.251339132569e-03 0.0 
4.251339132569e-03 8.810616868373e-03 0.0 
0.0 0.0 0.0 
4.982782044020e-03 4.237369037525e-04 0.0 
4.237369037525e-04 -3.446922292478e-03 0.0 
0.0 0.0 0.0 
-3.500918340140e-04 4.481484891110e-03 0.0 
4.481484891110e-03 7.865130509352e-03 0.0 
0.0 0.0 0.0 
2.239641595948e-03 2.308576726060e-03 0.0 
2.308576726060e-03 2.467513495799e-03 0.0 
0.0 0.0 0.0 
2.596561422399e-03 2.124652575962e-03 0.0 
2.124652575962e-03 1.672830501706e-03 0.0 
0.0 0.0 0.0 
3.741247944980e-03 3.470444429450e-03 0.0 
3.470444429450e-03 -8.761488519404e-04 0.0 
0.0 0.0 0.0 
-2.359687783869e-03 2.091470841261e-03 0.0 
2.091470841261e-03 1.330959530915e-02 0.0 
0.0 0.0 0.0 
1.245992063448e-04 -6.578417376136e-04 0.0 
-6.578417376136e-04 4.076452915620e-03 0.0 
0.0 0.0 0.0 
-5.591804221050e-05 -6.916556440879e-04 0.0 
-6.916556440879e-04 4.083048439587e-03 0.0 
0.0 0.0 0.0 
1.445092193284e-03 3.511308195585e-03 0.0 
3.511308195585e-03 -1.320879631771e-03 0.0 
0.0 0.0 0.0 
-5.421737256328e-05 4.452009384150e-03 0.0 
4.452009384150e-03 7.150110150051e-03 0.0 
0.0 0.0 0.0 
-7.067044499931e-05 -4.506119600696e-04 0.0 
-4.506119600696e-04 4.913685385386e-03 0.0 
0.0 0.0 0.0 
-1.042976300896e-03 3.943071620881e-03 0.0 
3.943071620881e-03 6.264485742572e-03 0.0 
0.0 0.0 0.0 
-1.872997992943e-04 -1.440795331658e-03 0.0 
-1.440795331658e-03 2.626727885532e-03 0.0 
0.0 0.0 0.0 
-1.912978920864e-03 3.490584321132e-03 0.0 
3.490584321132e-03 1.669590974762e-03 0.0 
0.0 0.0 0.0 
-5.842698560221e-05 -5.555898576766e-04 0.0 
-5.555898576766e-04 4.492529403297e-03 0.0 
0.0 0.0 0.0 
4.831855974949e-03 1.403646447889e-03 0.0 
1.403646447889e-03 -3.786196569605e-03 0.0 
0.0 0.0 0.0 
-1.028724144145e-03 -4.152022331298e-04 0.0 
-4.152022331298e-04 3.896703246860e-03 0.0 
0.0 0.0 0.0 
2.759064288991e-03 3.183089520727e-03 0.0 
3.183089520727e-03 1.680082543000e-03 0.0 
0.0 0.0 0.0 
-2.615209520250e-03 2.284939017550e-03 0.0 
2.284939017550e-03 1.328554933420e-02 0.0 
0.0 0.0 0.0 
-2.498759535256e-03 2.248722848213e-03 0.0 
2.248722848213e-03 1.296595353708e-02 0.0 
0.0 0.0 0.0 
1.645601970482e-03 4.398855237909e-03 0.0 
4.398855237909e-03 3.264786274267e-03 0.0 
0.0 0.0 0.0 
-3.198702715450e-03 2.812448321361e-03 0.0 
2.812448321361e-03 1.112268511954e-02 0.0 
0.0 0.0 0.0 
-3.276630387158e-03 2.361183652721e-03 0.0 
2.361183652721e-03 1.163484002838e-02 0.0 
0.0 0.0 0.0 
-1.992847061789e-04 -5.852835243071e-04 0.0 
-5.852835243071e-04 4.498352285671e-03 0.0 
0.0 0.0 0.0 
2.480595562496e-03 -8.744699287915e-04 0.0 
-8.744699287915e-04 -4.914338195772e-05 0.0 
0.0 0.0 0.0 
3.635169479048e-03 -6.965257813553e-04 0.0 
-6.965257813553e-04 -1.748441148822e-03 0.0 
0.0 0.0 0.0 
3.000583908149e-03 4.478692558559e-04 0.0 
4.478692558559e-04 3.349744208880e-04 0.0 
0.0 0.0 0.0 
4.580370421268e-03 1.440430636375e-04 0.0 
1.440430636375e-04 -2.375246745748e-03 0.0 
0.0 0.0 0.0 
4.821352285499e-03 1.270807658922e-03 0.0 
1.270807658922e-03 -3.185346933599e-03 0.0 
0.0 0.0 0.0 
-2.945464628095e-03 2.076724205855e-03 0.0 
2.076724205855e-03 1.128748873821e-02 0.0 
0.0 0.0 0.0 
-2.915169776393e-03 2.249690124867e-03 0.0 
2.249690124867e-03 1.284985583700e-02 0.0 
0.0 0.0 0.0 
-1.857476685078e-03 3.232826651365e-05 0.0 
3.232826651365e-05 1.293081672553e-02 0.0 
0.0 0.0 0.0 
2.568070581128e-03 1.890009903011e-03 0.0 
1.890009903011e-03 1.706209602605e-03 0.0 
0.0 0.0 0.0 
4.050658505561e-03 3.120960008378e-03 0.0 
3.120960008378e-03 -8.271255219932e-04 0.0 
0.0 0.0 0.0 
1.399703616810e-03 2.957322002797e-03 0.0 
2.957322002797e-03 4.008913517813e-03 0.0 
0.0 0.0 0.0 
-5.235185318861e-04 -2.457418973421e-04 0.0 
-2.457418973421e-04 5.040507670449e-03 0.0 
0.0 0.0 0.0 
4.407358824273e-03 2.797099656909e-04 0.0 
2.797099656909e-04 -2.182723120851e-03 0.0 
0.0 0.0 0.0 
-2.334815635241e-05 -5.020623906085e-04 0.0 
-5.020623906085e-04 4.952614650102e-03 0.0 
0.0 0.0 0.0 
4.909571684962e-03 -3.289621022030e-04 0.0 
-3.289621022030e-04 -3.477714468974e-03 0.0 
0.0 0.0 0.0 
1.516856605481e-03 3.222922615467e-03 0.0 
3.222922615467e-03 4.024397813476e-03 0.0 
0.0 0.0 0.0 
1.858173447410e-03 4.255119960651e-03 0.0 
4.255119960651e-03 3.285210231792e-03 0.0 
0.0 0.0 0.0 
1.924317949976e-03 4.022713693512e-03 0.0 
4.022713693512e-03 3.203137798813e-03 0.0 
0.0 0.0 0.0 
1.876519582697e-03 6.710744395290e-04 0.0 
6.710744395290e-04 2.051379847571e-03 0.0 
0.0 0.0 0.0 
1.103771051799e-03 -2.556073468644e-03 0.0 
-2.556073468644e-03 5.663834600056e-05 0.0 
0.0 0.0 0.0 
3.138016219892e-04 4.543605324619e-03 0.0 
4.543605324619e-03 6.126345636214e-03 0.0 
0.0 0.0 0.0 
4.204278867758e-03 -3.363484504326e-04 0.0 
-3.363484504326e-04 -2.299889649275e-03 0.0 
0.0 0.0 0.0 
6.308645659203e-06 4.566012994260e-03 0.0 
4.566012994260e-03 6.869894594541e-03 0.0 
0.0 0.0 0.0 
2.970549274335e-03 3.713354216448e-03 0.0 
3.713354216448e-03 -2.907997555763e-04 0.0 
0.0 0.0 0.0 
2.192781065410e-03 3.755547766282e-03 0.0 
3.755547766282e-03 2.831883771693e-03 0.0 
0.0 0.0 0.0 
4.353012061576e-03 -4.883628271296e-04 0.0 
-4.883628271296e-04 -2.323183074748e-03 0.0 
0.0 0.0 0.0 
4.007854841874e-04 -1.473501933366e-03 0.0 
-1.473501933366e-03 2.428933240588e-03 0.0 
0.0 0.0 0.0 
-1.490765516917e-04 4.515220037732e-03 0.0 
4.515220037732e-03 6.877373995606e-03 0.0 
0.0 0.0 0.0 
-1.111385270049e-03 4.202616656181e-03 0.0 
4.202616656181e-03 -5.766402730595e-04 0.0 
0.0 0.0 0.0 
3.593212598288e-03 3.002856665825e-03 0.0 
3.002856665825e-03 -1.585698081404e-04 0.0 
0.0 0.0 0.0 
-9.597584343112e-04 3.829953283919e-03 0.0 
3.829953283919e-03 1.250164799338e-03 0.0 
0.0 0.0 0.0 
9.597798751115e-05 -8.241098482918e-04 0.0 
-8.241098482918e-04 9.661504589149e-04 0.0 
0.0 0.0 0.0 
7.622214777148e-05 -1.489126250110e-03 0.0 
-1.489126250110e-03 2.633171548092e-03 0.0 
0.0 0.0 0.0 
1.622420244094e-04 4.370316926204e-03 0.0 
4.370316926204e-03 7.813701393214e-03 0.0 
0.0 0.0 0.0 
-2.325574550276e-03 2.654711907338e-03 0.0 
2.654711907338e-03 1.260986932097e-02 0.0 
0.0 0.0 0.0 
-2.401485563467e-03 3.368568793812e-03 0.0 
3.368568793812e-03 9.218427092903e-03 0.0 
0.0 0.0 0.0 
0.0 2.857740565708e-03 0.0 
2.857740565708e-03 1.441617201839e-02 0.0 
0.0 0.0 0.0 
-2.246946718931e-03 3.982112496061e-03 0.0 
3.982112496061e-03 4.573070052976e-04 0.0 
0.0 0.0 0.0 
-2.724624219499e-03 3.281175858051e-03 0.0 
3.281175858051e-03 1.024872775668e-02 0.0 
0.0 0.0 0.0 
3.527509140408e-03 -6.422825120374e-04 0.0 
-6.422825120374e-04 -1.356148102648e-03 0.0 
0.0 0.0 0.0 
-4.529477315274e-04 -1.356936809317e-03 0.0 
-1.356936809317e-03 2.817291986614e-03 0.0 
0.0 0.0 0.0 
-2.367394347778e-03 3.595694679691e-03 0.0 
3.595694679691e-03 9.958448001611e-03 0.0 
0.0 0.0 0.0 
4.131671144022e-03 -1.521471427919e-03 0.0 
-1.521471427919e-03 -2.709090308450e-03 0.0 
0.0 0.0 0.0 
2.714704492873e-03 -1.207995587232e-03 0.0 
-1.207995587232e-03 -7.301712406660e-04 0.0 
0.0 0.0 0.0 
1.405805292200e-03 4.379481448578e-03 0.0 
4.379481448578e-03 4.357047483295e-03 0.0 
0.0 0.0 0.0 
3.192753421098e-03 2.872577202829e-03 0.0 
2.872577202829e-03 7.655769887260e-04 0.0 
0.0 0.0 0.0 
-5.259294760968e-04 4.214127184968e-03 0.0 
4.214127184968e-03 1.004715707640e-02 0.0 
0.0 0.0 0.0 
2.532311449538e-03 3.765924841509e-03 0.0 
3.765924841509e-03 -2.827170109713e-03 0.0 
0.0 0.0 0.0 
2.831529357161e-05 -1.677098479867e-03 0.0 
-1.677098479867e-03 2.358316152571e-03 0.0 
0.0 0.0 0.0 
-4.374960978512e-04 -1.200993805118e-03 0.0 
-1.200993805118e-03 3.248539958513e-03 0.0 
0.0 0.0 0.0 
2.310728864379e-04 -2.283826702331e-03 0.0 
-2.283826702331e-03 8.705810917442e-04 0.0 
0.0 0.0 0.0 
-2.879479409431e-03 1.814410894276e-03 0.0 
1.814410894276e-03 1.250854827428e-02 0.0 
0.0 0.0 0.0 
-2.487060134979e-03 2.893875046869e-03 0.0 
2.893875046869e-03 1.257713250267e-02 0.0 
0.0 0.0 0.0 
-7.744472948972e-04 -1.213304356364e-04 0.0 
-1.213304356364e-04 4.676918451725e-03 0.0 
0.0 0.0 0.0 
1.361684675636e-03 -3.267606410167e-04 0.0 
-3.267606410167e-04 1.571437861452e-04 0.0 
0.0 0.0 0.0 
8.955437555569e-05 -6.814366751270e-04 0.0 
-6.814366751270e-04 -4.483082936107e-03 0.0 
0.0 0.0 0.0 
4.866730193065e-05 -1.896820662367e-03 0.0 
-1.896820662367e-03 9.162141312906e-04 0.0 
0.0 0.0 0.0 
-6.321286634056e-04 -1.104155301304e-03 0.0 
-1.104155301304e-03 3.234015583307e-03 0.0 
0.0 0.0 0.0 
4.898693635350e-03 -1.854542818983e-04 0.0 
-1.854542818983e-04 -3.163424714417e-03 0.0 
0.0 0.0 0.0 
4.096863080459e-03 -1.679076799959e-03 0.0 
-1.679076799959e-03 -3.104638429858e-03 0.0 
0.0 0.0 0.0 
4.727700593369e-03 -4.821043845440e-04 0.0 
-4.821043845440e-04 -3.664978239484e-03 0.0 
0.0 0.0 0.0 
-1.671933145438e-04 -1.265776534861e-03 0.0 
-1.265776534861e-03 3.102484824351e-03 0.0 
0.0 0.0 0.0 
-1.795036208536e-03 3.393006743331e-03 0.0 
3.393006743331e-03 1.163724108533e-02 0.0 
0.0 0.0 0.0 
-6.001560319768e-04 -9.546133653428e-04 0.0 
-9.546133653428e-04 3.609992598323e-03 0.0 
0.0 0.0 0.0 
5.173510392789e-03 5.659141045830e-04 0.0 
5.659141045830e-04 -3.288034708280e-03 0.0 
0.0 0.0 0.0 
1.183096338151e-04 4.480142129766e-03 0.0 
4.480142129766e-03 7.145718625784e-03 0.0 
0.0 0.0 0.0 
-2.350351744351e-03 7.516430716884e-04 0.0 
7.516430716884e-04 1.350228273265e-02 0.0 
0.0 0.0 0.0 
2.377436568779e-03 3.137857062193e-03 0.0 
3.137857062193e-03 2.483823706246e-03 0.0 
0.0 0.0 0.0 
-7.640349004869e-04 -8.522734544929e-04 0.0 
-8.522734544929e-04 3.594025481183e-03 0.0 
0.0 0.0 0.0 
-3.999121924544e-04 -1.203208736848e-03 0.0 
-1.203208736848e-03 3.093307147373e-03 0.0 
0.0 0.0 0.0 
-2.019030274605e-03 3.352002049667e-03 0.0 
3.352002049667e-03 7.541161346133e-03 0.0 
0.0 0.0 0.0 
4.553924751139e-03 -7.439939914994e-04 0.0 
-7.439939914994e-04 -2.965396452554e-03 0.0 
0.0 0.0 0.0 
-7.222095369556e-04 -7.110792667007e-04 0.0 
-7.110792667007e-04 3.923313950934e-03 0.0 
0.0 0.0 0.0 
-1.573458477381e-03 8.204041377476e-05 0.0 
8.204041377476e-05 1.426723191545e-02 0.0 
0.0 0.0 0.0 
-1.694880410406e-03 6.606604379800e-05 0.0 
6.606604379800e-05 1.395569861817e-02 0.0 
0.0 0.0 0.0 
-2.175968008587e-03 3.384328381000e-03 0.0 
3.384328381000e-03 8.373561041778e-03 0.0 
0.0 0.0 0.0 
-3.661559928848e-04 -1.036166683276e-03 0.0 
-1.036166683276e-03 3.517204960144e-03 0.0 
0.0 0.0 0.0 
2.950416563697e-03 -2.450258798535e-03 0.0 
-2.450258798535e-03 -2.214498246382e-03 0.0 
0.0 0.0 0.0 
1.194967610552e-05 4.128357319301e-03 0.0 
4.128357319301e-03 8.169074082507e-04 0.0 
0.0 0.0 0.0 
1.507579570172e-03 3.060000993798e-03 0.0 
3.060000993798e-03 4.061325287489e-03 0.0 
0.0 0.0 0.0 
-6.971112908427e-05 -2.177853121425e-03 0.0 
-2.177853121425e-03 7.953790773745e-04 0.0 
0.0 0.0 0.0 
2.935472992514e-03 -2.246150714383e-03 0.0 
-2.246150714383e-03 -1.560294306404e-03 0.0 
0.0 0.0 0.0 
3.586804911160e-03 3.098266801808e-03 0.0 
3.098266801808e-03 1.383289526049e-04 0.0 
0.0 0.0 0.0 
-2.315798737478e-03 3.003207799819e-03 0.0 
3.003207799819e-03 9.327810852989e-03 0.0 
0.0 0.0 0.0 
-8.561707177765e-04 -6.084936540794e-04 0.0 
-6.084936540794e-04 3.899873757794e-03 0.0 
0.0 0.0 0.0 
-7.184569060268e-04 -6.453248576732e-05 0.0 
-6.453248576732e-05 2.399113157171e-03 0.0 
0.0 0.0 0.0 
-3.106765235557e-03 1.908961945218e-03 0.0 
1.908961945218e-03 1.282961066945e-02 0.0 
0.0 0.0 0.0 
-5.645254115983e-04 -9.672433047226e-04 0.0 
-9.672433047226e-04 3.506678498673e-03 0.0 
0.0 0.0 0.0 
3.287398334983e-03 -1.190909449661e-03 0.0 
-1.190909449661e-03 -1.632659480815e-03 0.0 
0.0 0.0 0.0 
7.527024325760e-05 -1.668030396693e-03 0.0 
-1.668030396693e-03 2.110262146358e-03 0.0 
0.0 0.0 0.0 
-1.199002810706e-04 2.891334204078e-03 0.0 
2.891334204078e-03 -2.330885314118e-03 0.0 
0.0 0.0 0.0 
-1.032342144331e-03 1.050288082634e-04 0.0 
1.050288082634e-04 1.507218420659e-02 0.0 
0.0 0.0 0.0 
3.537675335333e-03 -1.740702127220e-03 0.0 
-1.740702127220e-03 -2.401102815022e-03 0.0 
0.0 0.0 0.0 
2.173442151966e-03 1.576829520136e-03 0.0 
1.576829520136e-03 2.166612134326e-03 0.0 
0.0 0.0 0.0 
2.145175375598e-03 3.863641748956e-03 0.0 
3.863641748956e-03 3.230705974063e-03 0.0 
0.0 0.0 0.0 
-5.232528272779e-04 -8.116322170217e-04 0.0 
-8.116322170217e-04 3.880069200585e-03 0.0 
0.0 0.0 0.0 
-6.877631778087e-04 -7.359820427055e-04 0.0 
-7.359820427055e-04 3.868274025235e-03 0.0 
0.0 0.0 0.0 
4.997194950236e-03 -2.348571302740e-04 0.0 
-2.348571302740e-04 -3.391394284439e-03 0.0 
0.0 0.0 0.0 
-5.816551881318e-04 -1.944773096619e-03 0.0 
-1.944773096619e-03 8.200487207319e-04 0.0 
0.0 0.0 0.0 
4.387878825698e-04 3.905110696109e-03 0.0 
3.905110696109e-03 -2.537011708928e-03 0.0 
0.0 0.0 0.0 
-6.436720702528e-04 -5.955910701677e-04 0.0 
-5.955910701677e-04 4.200742018740e-03 0.0 
0.0 0.0 0.0 
2.053621584478e-03 8.991096404392e-04 0.0 
8.991096404392e-04 2.059520368609e-03 0.0 
0.0 0.0 0.0 
1.830042611248e-03 -2.666907759109e-03 0.0 
-2.666907759109e-03 -9.626134458459e-04 0.0 
0.0 0.0 0.0 
3.741197016369e-04 4.434822203514e-03 0.0 
4.434822203514e-03 6.473513116087e-03 0.0 
0.0 0.0 0.0 
-7.624684681214e-04 3.914158325919e-03 0.0 
3.914158325919e-03 5.410996465869e-03 0.0 
0.0 0.0 0.0 
-2.372952559073e-04 4.398760242094e-03 0.0 
4.398760242094e-03 8.107749280989e-03 0.0 
0.0 0.0 0.0 
7.646007045650e-04 1.107257207544e-04 0.0 
1.107257207544e-04 4.030487619515e-03 0.0 
0.0 0.0 0.0 
-5.482360176695e-03 -6.246401673224e-05 0.0 
-6.246401673224e-05 -2.460864361155e-03 0.0 
0.0 0.0 0.0 
0.0 2.826949510608e-04 0.0 
2.826949510608e-04 1.557365346348e-02 0.0 
0.0 0.0 0.0 
0.0 -1.717010845049e-04 0.0 
-1.717010845049e-04 6.001698745031e-03 0.0 
0.0 0.0 0.0 
-1.797033386497e-03 -2.651429830006e-05 0.0 
-2.651429830006e-05 1.335743392334e-02 0.0 
0.0 0.0 0.0 
2.431080753249e-03 -2.243134036795e-03 0.0 
-2.243134036795e-03 -1.276702993581e-03 0.0 
0.0 0.0 0.0 
1.834986186789e-03 4.144063110967e-03 0.0 
4.144063110967e-03 3.740736557869e-03 0.0 
0.0 0.0 0.0 
5.074163987470e-03 5.079974160104e-04 0.0 
5.079974160104e-04 -3.240841899781e-03 0.0 
0.0 0.0 0.0 
4.229512922542e-04 -6.722342480544e-04 0.0 
-6.722342480544e-04 7.371875958040e-04 0.0 
0.0 0.0 0.0 
-2.217690079174e-03 3.804146917720e-03 0.0 
3.804146917720e-03 1.131836741807e-03 0.0 
0.0 0.0 0.0 
-9.390573921577e-04 8.552672501498e-04 0.0 
8.552672501498e-04 1.519041956259e-02 0.0 
0.0 0.0 0.0 
-2.212272759290e-03 3.272436250187e-03 0.0 
3.272436250187e-03 1.212390834476e-02 0.0 
0.0 0.0 0.0 
-3.194005860027e-03 1.678113945161e-03 0.0 
1.678113945161e-03 1.262617301905e-02 0.0 
0.0 0.0 0.0 
3.593333759038e-04 4.679129550952e-03 0.0 
4.679129550952e-03 7.457753135457e-03 0.0 
0.0 0.0 0.0 
-3.422228607778e-04 -2.855280392002e-05 0.0 
-2.855280392002e-05 1.957810071422e-03 0.0 
0.0 0.0 0.0 
3.976575048132e-04 4.405448422319e-03 0.0 
4.405448422319e-03 6.907299561906e-03 0.0 
0.0 0.0 0.0 
-2.090009812398e-03 3.054963225466e-03 0.0 
3.054963225466e-03 1.216013566460e-02 0.0 
0.0 0.0 0.0 
1.558267439886e-03 -2.483353483590e-03 0.0 
-2.483353483590e-03 -3.796926162982e-04 0.0 
0.0 0.0 0.0 
2.053540599922e-03 4.179596237709e-03 0.0 
4.179596237709e-03 2.642423711225e-03 0.0 
0.0 0.0 0.0 
2.385913578422e-03 -2.272767138281e-03 0.0 
-2.272767138281e-03 -9.210498451740e-04 0.0 
0.0 0.0 0.0 
-4.821582644743e-05 4.047090715513e-03 0.0 
4.047090715513e-03 1.532449613290e-03 0.0 
0.0 0.0 0.0 
1.847789845995e-03 -2.484678565874e-03 0.0 
-2.484678565874e-03 -4.645678211270e-04 0.0 
0.0 0.0 0.0 
-1.460378706298e-03 3.688255436146e-03 0.0 
3.688255436146e-03 1.105269625538e-02 0.0 
0.0 0.0 0.0 
-4.654326252334e-04 -3.168745041895e-04 0.0 
-3.168745041895e-04 5.108847556512e-03 0.0 
0.0 0.0 0.0 
3.580132918741e-03 -1.856627730324e-03 0.0 
-1.856627730324e-03 -2.096786748730e-03 0.0 
0.0 0.0 0.0 
4.820808641792e-05 4.383559819331e-03 0.0 
4.383559819331e-03 7.457638612619e-03 0.0 
0.0 0.0 0.0 
-2.116795597229e-03 -2.116811106904e-04 0.0 
-2.116811106904e-04 -4.199663690614e-03 0.0 
0.0 0.0 0.0 
4.656511288763e-03 -8.507320378553e-04 0.0 
-8.507320378553e-04 -2.984076912218e-03 0.0 
0.0 0.0 0.0 
-1.914217617559e-03 3.231722766286e-03 0.0 
3.231722766286e-03 1.269459881879e-02 0.0 
0.0 0.0 0.0 
9.730604870870e-04 -2.510830124187e-03 0.0 
-2.510830124187e-03 4.897632331304e-04 0.0 
0.0 0.0 0.0 
1.300581551734e-03 -2.769594542941e-03 0.0 
-2.769594542941e-03 -4.389413982582e-04 0.0 
0.0 0.0 0.0 
2.286218732548e-03 3.999877413570e-03 0.0 
3.999877413570e-03 2.670318530376e-03 0.0 
0.0 0.0 0.0 
2.242486297116e-03 -3.109719991496e-03 0.0 
-3.109719991496e-03 -1.987925672471e-03 0.0 
0.0 0.0 0.0 
-1.789732284342e-03 3.315781861076e-03 0.0 
3.315781861076e-03 6.037179936779e-03 0.0 
0.0 0.0 0.0 
-1.924126553854e-03 3.484051764587e-03 0.0 
3.484051764587e-03 6.782146621797e-03 0.0 
0.0 0.0 0.0 
8.256785921890e-04 -2.563911891939e-03 0.0 
-2.563911891939e-03 4.718689504868e-04 0.0 
0.0 0.0 0.0 
3.189044253077e-03 -1.001227842264e-03 0.0 
-1.001227842264e-03 -1.285851371301e-03 0.0 
0.0 0.0 0.0 
3.637057164831e-03 3.401338170092e-03 0.0 
3.401338170092e-03 -4.698086995316e-04 0.0 
0.0 0.0 0.0 
1.619472200889e-04 4.394058219518e-03 0.0 
4.394058219518e-03 7.456070075008e-03 0.0 
0.0 0.0 0.0 
-5.265252395996e-04 4.113361050038e-03 0.0 
4.113361050038e-03 1.140295203457e-02 0.0 
0.0 0.0 0.0 
-1.768410117301e-03 3.090782145278e-03 0.0 
3.090782145278e-03 7.592978906282e-03 0.0 
0.0 0.0 0.0 
-1.423706088973e-03 6.598092579595e-05 0.0 
6.598092579595e-05 1.456847827630e-02 0.0 
0.0 0.0 0.0 
1.606435693700e-04 4.453352494139e-03 0.0 
4.453352494139e-03 8.589808420839e-03 0.0 
0.0 0.0 0.0 
5.165269733252e-03 5.041947564867e-04 0.0 
5.041947564867e-04 -3.610114215590e-03 0.0 
0.0 0.0 0.0 
-7.935375917217e-04 3.942901664465e-03 0.0 
3.942901664465e-03 1.254207917143e-03 0.0 
0.0 0.0 0.0 
-1.063227767326e-03 4.096479703157e-03 0.0 
4.096479703157e-03 6.237403213604e-03 0.0 
0.0 0.0 0.0 
2.852991680981e-03 -1.405999983223e-03 0.0 
-1.405999983223e-03 -1.163530743237e-03 0.0 
0.0 0.0 0.0 
-5.875249290789e-04 4.246303490502e-03 0.0 
4.246303490502e-03 9.015128710827e-03 0.0 
0.0 0.0 0.0 
3.247494014843e-03 -1.079137259595e-03 0.0 
-1.079137259595e-03 -1.215396275462e-03 0.0 
0.0 0.0 0.0 
1.596104198626e-03 3.339592443355e-03 0.0 
3.339592443355e-03 -2.255411158654e-03 0.0 
0.0 0.0 0.0 
2.934273982093e-03 -7.695049243081e-04 0.0 
-7.695049243081e-04 -6.953037565282e-04 0.0 
0.0 0.0 0.0 
-1.796204720952e-04 4.020755470213e-03 0.0 
4.020755470213e-03 2.245170489067e-03 0.0 
0.0 0.0 0.0 
3.872668896066e-03 3.081002956534e-03 0.0 
3.081002956534e-03 -4.252672200096e-04 0.0 
0.0 0.0 0.0 
3.087107287634e-03 -8.990340435600e-04 0.0 
-8.990340435600e-04 -7.800093032791e-04 0.0 
0.0 0.0 0.0 
2.372240996004e-03 3.897404924478e-03 0.0 
3.897404924478e-03 2.178649232201e-03 0.0 
0.0 0.0 0.0 
-1.703412627171e-03 2.372753401517e-04 0.0 
2.372753401517e-04 1.420272612203e-02 0.0 
0.0 0.0 0.0 
5.659791346746e-04 -2.537400388602e-03 0.0 
-2.537400388602e-03 4.694586838916e-04 0.0 
0.0 0.0 0.0 
1.579514245900e-04 4.186796427980e-03 0.0 
4.186796427980e-03 6.186637651040e-05 0.0 
0.0 0.0 0.0 
2.910178275084e-03 -5.791582584413e-04 0.0 
-5.791582584413e-04 -9.576418691948e-05 0.0 
0.0 0.0 0.0 
-2.816361607083e-04 3.967047965834e-03 0.0 
3.967047965834e-03 2.971366182172e-03 0.0 
0.0 0.0 0.0 
2.558860276543e-04 1.027759047450e-03 0.0 
1.027759047450e-03 -4.662057753219e-03 0.0 
0.0 0.0 0.0 
-6.706924004396e-04 1.530724523935e-04 0.0 
1.530724523935e-04 1.528976992048e-02 0.0 
0.0 0.0 0.0 
-9.694652658021e-04 1.300195282056e-04 0.0 
1.300195282056e-04 1.507314865578e-02 0.0 
0.0 0.0 0.0 
-4.523387077661e-04 -6.909249499807e-04 0.0 
-6.909249499807e-04 6.032448940376e-04 0.0 
0.0 0.0 0.0 
2.650888746320e-03 -3.813139478966e-04 0.0 
-3.813139478966e-04 9.123123161991e-05 0.0 
0.0 0.0 0.0 
1.387878844730e-04 -2.152764827181e-03 0.0 
-2.152764827181e-03 8.846277338923e-04 0.0 
0.0 0.0 0.0 
6.517494517855e-06 -2.136791432376e-03 0.0 
-2.136791432376e-03 1.184555309790e-03 0.0 
0.0 0.0 0.0 
1.135085976787e-04 4.369799202484e-03 0.0 
4.369799202484e-03 7.813784266933e-03 0.0 
0.0 0.0 0.0 
2.619127843193e-03 3.662500363878e-03 0.0 
3.662500363878e-03 2.209399403934e-03 0.0 
0.0 0.0 0.0 
4.088240119833e-04 4.373279015083e-03 0.0 
4.373279015083e-03 6.855236642409e-03 0.0 
0.0 0.0 0.0 
4.114713052563e-03 -1.466626476691e-03 0.0 
-1.466626476691e-03 -2.866188690574e-03 0.0 
0.0 0.0 0.0 
-1.941844517109e-03 9.205581710240e-05 0.0 
9.205581710240e-05 1.293763242990e-02 0.0 
0.0 0.0 0.0 
3.126834947695e-04 -1.041916498042e-04 0.0 
-1.041916498042e-04 4.236604874181e-03 0.0 
0.0 0.0 0.0 
-1.090937978594e-04 -1.930293697421e-03 0.0 
-1.930293697421e-03 1.115462165586e-03 0.0 
0.0 0.0 0.0 
2.316027064827e-03 1.609404565403e-03 0.0 
1.609404565403e-03 1.849598452652e-03 0.0 
0.0 0.0 0.0 
3.281068191858e-03 3.489617709413e-03 0.0 
3.489617709413e-03 6.112302679362e-04 0.0 
0.0 0.0 0.0 
7.378129624502e-05 -3.849682994593e-04 0.0 
-3.849682994593e-04 1.355173829398e-03 0.0 
0.0 0.0 0.0 
-9.760333164229e-04 4.086520831523e-03 0.0 
4.086520831523e-03 9.659518180153e-03 0.0 
0.0 0.0 0.0 
4.959643152935e-03 -1.113505881748e-04 0.0 
-1.113505881748e-04 -3.077560858408e-03 0.0 
0.0 0.0 0.0 
-5.058563646319e-04 -1.986836184650e-03 0.0 
-1.986836184650e-03 8.480215201128e-04 0.0 
0.0 0.0 0.0 
4.603541862821e-03 -9.962518878080e-04 0.0 
-9.962518878080e-04 -3.206691054677e-03 0.0 
0.0 0.0 0.0 
-8.376485163879e-04 -4.207441905131e-05 0.0 
-4.207441905131e-05 4.583509258727e-03 0.0 
0.0 0.0 0.0 
-1.510752254318e-03 3.862563758038e-03 0.0 
3.862563758038e-03 1.101261384202e-02 0.0 
0.0 0.0 0.0 
3.547452875385e-05 -2.180377643034e-03 0.0 
-2.180377643034e-03 6.094806383823e-04 0.0 
0.0 0.0 0.0 
-1.126190970755e-03 -2.886339326942e-04 0.0 
-2.886339326942e-04 3.870541754516e-03 0.0 
0.0 0.0 0.0 
-2.243513767194e-04 4.337387577453e-03 0.0 
4.337387577453e-03 8.397030613660e-03 0.0 
0.0 0.0 0.0 
2.035094405017e-03 3.253080888678e-03 0.0 
3.253080888678e-03 3.386927951694e-03 0.0 
0.0 0.0 0.0 
1.339913731293e-03 -2.588205286174e-03 0.0 
-2.588205286174e-03 3.465402411695e-06 0.0 
0.0 0.0 0.0 
-7.907762545215e-04 -3.255699140591e-04 0.0 
-3.255699140591e-04 2.393345178719e-03 0.0 
0.0 0.0 0.0 
3.405527722134e-03 3.405681157938e-03 0.0 
3.405681157938e-03 9.673841260471e-05 0.0 
0.0 0.0 0.0 
-1.634923771060e-03 -2.308512360397e-05 0.0 
-2.308512360397e-05 1.408821465899e-02 0.0 
0.0 0.0 0.0 
-2.908372382774e-04 -2.748384249835e-03 0.0 
-2.748384249835e-03 6.474354124395e-04 0.0 
0.0 0.0 0.0 
2.147394738796e-04 4.791516756965e-03 0.0 
4.791516756965e-03 8.497387220879e-03 0.0 
0.0 0.0 0.0 
-3.929718628798e-04 3.910512564320e-03 0.0 
3.910512564320e-03 1.256060151284e-02 0.0 
0.0 0.0 0.0 
-1.760947569776e-03 1.232970285455e-05 0.0 
1.232970285455e-05 1.359099864453e-02 0.0 
0.0 0.0 0.0 
-9.778160781857e-04 2.142544488099e-03 0.0 
2.142544488099e-03 1.483182435474e-02 0.0 
0.0 0.0 0.0 
-2.394363434118e-04 4.326416296934e-03 0.0 
4.326416296934e-03 1.143707067839e-02 0.0 
0.0 0.0 0.0 
4.140752183383e-03 -1.319091803417e-03 0.0 
-1.319091803417e-03 -2.482239744194e-03 0.0 
0.0 0.0 0.0 
2.970264049634e-03 -2.172541629896e-03 0.0 
-2.172541629896e-03 -2.033925933133e-03 0.0 
0.0 0.0 0.0 
1.219591883081e-03 2.206968944631e-03 0.0 
2.206968944631e-03 4.059688288308e-03 0.0 
0.0 0.0 0.0 
-1.829764868243e-03 4.936069489911e-04 0.0 
4.936069489911e-04 -4.066960493324e-03 0.0 
0.0 0.0 0.0 
-5.757395369497e-04 -1.333982118515e-04 0.0 
-1.333982118515e-04 2.188305866973e-03 0.0 
0.0 0.0 0.0 
-1.040371523318e-03 -1.912801986428e-04 0.0 
-1.912801986428e-04 3.976418088822e-03 0.0 
0.0 0.0 0.0 
9.939232579597e-04 -2.659364086423e-03 0.0 
-2.659364086423e-03 1.903508147749e-05 0.0 
0.0 0.0 0.0 
3.534579985136e-03 -2.060444537857e-03 0.0 
-2.060444537857e-03 -2.267600006223e-03 0.0 
0.0 0.0 0.0 
-1.674105161442e-03 3.354206266031e-03 0.0 
3.354206266031e-03 4.690383221806e-03 0.0 
0.0 0.0 0.0 
-1.809165505478e-03 3.558029152295e-03 0.0 
3.558029152295e-03 5.304069151219e-03 0.0 
0.0 0.0 0.0 
-2.359748114315e-03 5.891321895970e-04 0.0 
5.891321895970e-04 1.359786360798e-02 0.0 
0.0 0.0 0.0 
4.604414358093e-03 -9.835418039373e-04 0.0 
-9.835418039373e-04 -3.264040097270e-03 0.0 
0.0 0.0 0.0 
-8.259269881534e-04 -8.012774762554e-04 0.0 
-8.012774762554e-04 2.445568742389e-03 0.0 
0.0 0.0 0.0 
1.937356884802e-03 3.681490053669e-03 0.0 
3.681490053669e-03 3.528120622970e-03 0.0 
0.0 0.0 0.0 
1.273228609038e-04 -4.339627238485e-04 0.0 
-4.339627238485e-04 5.208427407444e-03 0.0 
0.0 0.0 0.0 
2.053440943186e-04 -3.438609985647e-04 0.0 
-3.438609985647e-04 4.995651180165e-03 0.0 
0.0 0.0 0.0 
2.932112796763e-03 -1.967614917267e-03 0.0 
-1.967614917267e-03 -1.331685299271e-03 0.0 
0.0 0.0 0.0 
-2.485979548700e-03 6.867819659535e-04 0.0 
6.867819659535e-04 1.329141953852e-02 0.0 
0.0 0.0 0.0 
-2.028037063278e-03 1.362963137567e-04 0.0 
1.362963137567e-04 -3.539730599381e-03 0.0 
0.0 0.0 0.0 
-1.701253539114e-03 3.527497437825e-03 0.0 
3.527497437825e-03 3.480783805868e-03 0.0 
0.0 0.0 0.0 
1.875455724107e-03 -3.604377249887e-03 0.0 
-3.604377249887e-03 -2.610237789651e-03 0.0 
0.0 0.0 0.0 
-1.690045875385e-03 3.461160701485e-03 0.0 
3.461160701485e-03 4.069041272189e-03 0.0 
0.0 0.0 0.0 
3.089980218411e-03 3.419866269652e-03 0.0 
3.419866269652e-03 1.194284161371e-03 0.0 
0.0 0.0 0.0 
2.307204792246e-03 -2.486047405988e-03 0.0 
-2.486047405988e-03 -9.870998423283e-04 0.0 
0.0 0.0 0.0 
3.584750038181e-03 -2.031613370888e-03 0.0 
-2.031613370888e-03 -2.624431000487e-03 0.0 
0.0 0.0 0.0 
9.753542447959e-04 -3.516315228999e-03 0.0 
-3.516315228999e-03 -3.266077575462e-03 0.0 
0.0 0.0 0.0 
-8.386793237249e-04 2.388160675987e-04 0.0 
2.388160675987e-04 1.512327947169e-02 0.0 
0.0 0.0 0.0 
2.401805812518e-03 -2.464407717550e-03 0.0 
-2.464407717550e-03 -1.525954276973e-03 0.0 
0.0 0.0 0.0 
-7.791294517536e-04 8.616850330710e-04 0.0 
8.616850330710e-04 1.518845984696e-02 0.0 
0.0 0.0 0.0 
-1.181198407836e-03 3.148629153078e-04 0.0 
3.148629153078e-04 1.492460825270e-02 0.0 
0.0 0.0 0.0 
-3.212267967617e-04 3.885918134867e-04 0.0 
3.885918134867e-04 1.556112477066e-02 0.0 
0.0 0.0 0.0 
-1.536957309217e-04 -2.245618967741e-04 0.0 
-2.245618967741e-04 5.985512643875e-03 0.0 
0.0 0.0 0.0 
-1.774361314161e-03 5.141579029375e-05 0.0 
5.141579029375e-05 1.360016193725e-02 0.0 
0.0 0.0 0.0 
1.961338092595e-03 -2.514932531868e-03 0.0 
-2.514932531868e-03 -8.768936439751e-04 0.0 
0.0 0.0 0.0 
-1.641523086173e-03 3.276266278404e-03 0.0 
3.276266278404e-03 6.032927027757e-03 0.0 
0.0 0.0 0.0 
1.990435131191e-03 -2.336036829019e-03 0.0 
-2.336036829019e-03 -4.074102858610e-04 0.0 
0.0 0.0 0.0 
0.0 -4.385136703062e-04 0.0 
-4.385136703062e-04 5.436310738706e-03 0.0 
0.0 0.0 0.0 
-1.818919089088e-03 3.554623999462e-03 0.0 
3.554623999462e-03 2.332735440453e-03 0.0 
0.0 0.0 0.0 
-1.716878654515e-03 3.528897753484e-03 0.0 
3.528897753484e-03 2.893688716213e-03 0.0 
0.0 0.0 0.0 
2.070733298303e-03 2.038529753293e-03 0.0 
2.038529753293e-03 2.519785239431e-03 0.0 
0.0 0.0 0.0 
-2.210018433059e-03 4.077976186828e-04 0.0 
4.077976186828e-04 1.328562538468e-02 0.0 
0.0 0.0 0.0 
-7.141112720087e-04 5.734004992320e-04 0.0 
5.734004992320e-04 1.525138957686e-02 0.0 
0.0 0.0 0.0 
-1.684138742707e-04 4.356117007706e-03 0.0 
4.356117007706e-03 8.395797845553e-03 0.0 
0.0 0.0 0.0 
1.611216592116e-03 3.436177939118e-03 0.0 
3.436177939118e-03 4.072291811509e-03 0.0 
0.0 0.0 0.0 
-9.535319621677e-04 4.154155833401e-03 0.0 
4.154155833401e-03 1.054590806296e-02 0.0 
0.0 0.0 0.0 
-1.802632648594e-03 1.992236304478e-04 0.0 
1.992236304478e-04 1.368730997797e-02 0.0 
0.0 0.0 0.0 
8.091355925928e-04 -2.713845095671e-03 0.0 
-2.713845095671e-03 7.300987324266e-05 0.0 
0.0 0.0 0.0 
1.108891709529e-03 -2.665557695771e-03 0.0 
-2.665557695771e-03 6.539272899952e-05 0.0 
0.0 0.0 0.0 
-1.485722354910e-03 1.612749525538e-04 0.0 
1.612749525538e-04 1.442241590152e-02 0.0 
0.0 0.0 0.0 
1.621797094292e-03 3.503105907308e-03 0.0 
3.503105907308e-03 4.242794256826e-03 0.0 
0.0 0.0 0.0 
-2.796761747503e-03 9.915574784121e-04 0.0 
9.915574784121e-04 1.288355797133e-02 0.0 
0.0 0.0 0.0 
-1.840990172545e-03 4.786291915717e-05 0.0 
4.786291915717e-05 1.326830358833e-02 0.0 
0.0 0.0 0.0 
-1.826643995391e-03 8.804370816030e-05 0.0 
8.804370816030e-05 1.358908877000e-02 0.0 
0.0 0.0 0.0 
-1.907084955493e-03 1.680917784439e-04 0.0 
1.680917784439e-04 1.370171246630e-02 0.0 
0.0 0.0 0.0 
2.661936974398e-03 -1.864939017370e-03 0.0 
-1.864939017370e-03 -4.048881823815e-03 0.0 
0.0 0.0 0.0 
5.876071293074e-04 -2.553227662194e-03 0.0 
-2.553227662194e-03 5.480091938901e-04 0.0 
0.0 0.0 0.0 
-6.599709508173e-04 1.257313636466e-03 0.0 
1.257313636466e-03 1.525887254457e-02 0.0 
0.0 0.0 0.0 
-1.828783715512e-03 2.633088966641e-04 0.0 
2.633088966641e-04 1.405582915534e-02 0.0 
0.0 0.0 0.0 
7.222831457079e-04 3.068333011948e-03 0.0 
3.068333011948e-03 4.871545464066e-03 0.0 
0.0 0.0 0.0 
-7.739114316833e-04 4.320721597763e-03 0.0 
4.320721597763e-03 1.131632643509e-02 0.0 
0.0 0.0 0.0 
-9.361662612928e-04 4.208022632737e-03 0.0 
4.208022632737e-03 9.636587918341e-03 0.0 
0.0 0.0 0.0 
-1.227147673727e-03 2.218142606261e-03 0.0 
2.218142606261e-03 1.462712790989e-02 0.0 
0.0 0.0 0.0 
-9.402049891671e-04 -1.068632616009e-03 0.0 
-1.068632616009e-03 2.991976024107e-03 0.0 
0.0 0.0 0.0 
-9.029614031473e-04 -1.136451534611e-03 0.0 
-1.136451534611e-03 2.739922534543e-03 0.0 
0.0 0.0 0.0 
6.565260029763e-04 -1.328050052655e-04 0.0 
-1.328050052655e-04 3.714894824202e-03 0.0 
0.0 0.0 0.0 
4.455766042379e-04 -2.031086586208e-03 0.0 
-2.031086586208e-03 -3.705390701086e-03 0.0 
0.0 0.0 0.0 
-5.263479224212e-04 -2.237718575451e-04 0.0 
-2.237718575451e-04 2.242945050069e-03 0.0 
0.0 0.0 0.0 
0.0 4.330431256182e-03 0.0 
4.330431256182e-03 7.160641774924e-03 0.0 
0.0 0.0 0.0 
7.172092114109e-04 3.911799725500e-05 0.0 
3.911799725500e-05 7.569492912944e-04 0.0 
0.0 0.0 0.0 
-1.820551040432e-03 6.257366590255e-05 0.0 
6.257366590255e-05 1.327871598756e-02 0.0 
0.0 0.0 0.0 
1.653179520239e-03 1.491760157526e-03 0.0 
1.491760157526e-03 3.108209518255e-03 0.0 
0.0 0.0 0.0 
-1.567834096459e-04 -8.839039250617e-04 0.0 
-8.839039250617e-04 5.873780042709e-04 0.0 
0.0 0.0 0.0 
1.366314948051e-03 -4.281005938392e-04 0.0 
-4.281005938392e-04 -2.043594101127e-04 0.0 
0.0 0.0 0.0 
-4.362564582416e-04 1.915768409324e-03 0.0 
1.915768409324e-03 1.510998848531e-02 0.0 
0.0 0.0 0.0 
-2.103587181567e-03 1.703580266490e-04 0.0 
1.703580266490e-04 1.297332249499e-02 0.0 
0.0 0.0 0.0 
-7.075631719347e-04 1.674671577021e-03 0.0 
1.674671577021e-03 1.507860234731e-02 0.0 
0.0 0.0 0.0 
1.255898770301e-03 1.921859685002e-03 0.0 
1.921859685002e-03 3.213537299884e-03 0.0 
0.0 0.0 0.0 
-2.080315152110e-03 1.225300405776e-04 0.0 
1.225300405776e-04 1.297079000105e-02 0.0 
0.0 0.0 0.0 
-1.833492183055e-03 6.893464224322e-04 0.0 
6.893464224322e-04 -3.481192331616e-03 0.0 
0.0 0.0 0.0 
-3.468154946757e-04 2.994838049473e-04 0.0 
2.994838049473e-04 1.543947193496e-02 0.0 
0.0 0.0 0.0 
2.990003372318e-04 -5.719874783734e-04 0.0 
-5.719874783734e-04 9.532770051970e-04 0.0 
0.0 0.0 0.0 
-7.419949665129e-04 1.396547817334e-03 0.0 
1.396547817334e-03 1.508024021766e-02 0.0 
0.0 0.0 0.0 
0.0 -4.311128976342e-04 0.0 
-4.311128976342e-04 5.640277267734e-03 0.0 
0.0 0.0 0.0 
-9.250338149903e-04 3.797670693721e-03 0.0 
3.797670693721e-03 1.245290517641e-02 0.0 
0.0 0.0 0.0 
3.497767531734e-03 -1.634170380284e-03 0.0 
-1.634170380284e-03 -4.108717587014e-03 0.0 
0.0 0.0 0.0 
-2.611049890963e-03 1.214941491437e-03 0.0 
1.214941491437e-03 1.334679793461e-02 0.0 
0.0 0.0 0.0 
-1.103459170318e-03 -6.562987655271e-04 0.0 
-6.562987655271e-04 3.112306770024e-03 0.0 
0.0 0.0 0.0 
1.991183697827e-03 3.469939172879e-03 0.0 
3.469939172879e-03 3.543870586070e-03 0.0 
0.0 0.0 0.0 
5.182967463417e-04 3.379887234090e-03 0.0 
3.379887234090e-03 5.639762982360e-03 0.0 
0.0 0.0 0.0 
-1.322433263511e-03 2.033804509382e-04 0.0 
2.033804509382e-04 1.472120381961e-02 0.0 
0.0 0.0 0.0 
5.944111324401e-04 2.963915499774e-03 0.0 
2.963915499774e-03 5.226952524199e-03 0.0 
0.0 0.0 0.0 
1.671473448466e-03 -1.683362013858e-03 0.0 
-1.683362013858e-03 -4.535058036607e-03 0.0 
0.0 0.0 0.0 
6.241789237738e-05 -4.969313063124e-04 0.0 
-4.969313063124e-04 5.066074465923e-03 0.0 
0.0 0.0 0.0 
3.274928545643e-03 -2.578736981735e-03 0.0 
-2.578736981735e-03 -2.882457900809e-03 0.0 
0.0 0.0 0.0 
5.170746668568e-04 -2.654782313150e-04 0.0 
-2.654782313150e-04 8.506050831831e-04 0.0 
0.0 0.0 0.0 
1.019316501713e-03 1.026593196977e-03 0.0 
1.026593196977e-03 3.785182092281e-03 0.0 
0.0 0.0 0.0 
-9.178952937510e-04 3.065697820897e-03 0.0 
3.065697820897e-03 1.412287624584e-02 0.0 
0.0 0.0 0.0 
-5.930737233842e-04 1.948212197930e-03 0.0 
1.948212197930e-03 1.497820744870e-02 0.0 
0.0 0.0 0.0 
-1.914029607191e-03 1.824426725200e-04 0.0 
1.824426725200e-04 1.327228530071e-02 0.0 
0.0 0.0 0.0 
-2.675016950611e-03 1.926311990047e-03 0.0 
1.926311990047e-03 1.295548417101e-02 0.0 
0.0 0.0 0.0 
7.648508111302e-06 3.927163778603e-03 0.0 
3.927163778603e-03 1.526620551488e-03 0.0 
0.0 0.0 0.0 
-4.831770657074e-04 4.592610032235e-03 0.0 
4.592610032235e-03 1.124231424914e-02 0.0 
0.0 0.0 0.0 
-1.053090121503e-03 -6.036104601636e-04 0.0 
-6.036104601636e-04 2.875521889637e-03 0.0 
0.0 0.0 0.0 
9.246471400657e-04 3.768322452400e-03 0.0 
3.768322452400e-03 -1.082470158390e-03 0.0 
0.0 0.0 0.0 
2.013314966192e-03 3.438729724900e-03 0.0 
3.438729724900e-03 3.362510450283e-03 0.0 
0.0 0.0 0.0 
-1.910201074751e-03 6.532518978467e-05 0.0 
6.532518978467e-05 1.291421557133e-02 0.0 
0.0 0.0 0.0 
-8.492653078824e-04 2.930972773803e-03 0.0 
2.930972773803e-03 1.394529144338e-02 0.0 
0.0 0.0 0.0 
-2.720959295214e-04 -4.890950167146e-06 0.0 
-4.890950167146e-06 1.559225022262e-02 0.0 
0.0 0.0 0.0 
0.0 1.360479647603e-04 0.0 
1.360479647603e-04 1.560203212296e-02 0.0 
0.0 0.0 0.0 
2.872422653105e-03 7.940074886729e-05 0.0 
7.940074886729e-05 -1.035115279422e-03 0.0 
0.0 0.0 0.0 
2.349869927054e-03 -1.373376669108e-04 0.0 
-1.373376669108e-04 -9.460393849274e-04 0.0 
0.0 0.0 0.0 
-1.823659877718e-03 -2.519718246603e-05 0.0 
-2.519718246603e-05 1.295523228141e-02 0.0 
0.0 0.0 0.0 
-1.841975901113e-03 8.715758744148e-06 0.0 
8.715758744148e-06 1.290572242238e-02 0.0 
0.0 0.0 0.0 
0.0 -8.151074946640e-05 0.0 
-8.151074946640e-05 6.043016629185e-03 0.0 
0.0 0.0 0.0 
-1.630214989324e-04 8.853248817090e-06 0.0 
8.853248817090e-06 6.025310131551e-03 0.0 
0.0 0.0 0.0 
2.229945554254e-03 -6.223507025729e-05 0.0 
-6.223507025729e-05 -6.336493219156e-04 0.0 
0.0 0.0 0.0 
-1.864247060710e-03 -3.504924864296e-04 0.0 
-3.504924864296e-04 -4.317277394890e-03 0.0 
0.0 0.0 0.0 
-1.602370839084e-04 -3.884820392921e-04 0.0 
-3.884820392921e-04 5.199124458262e-03 0.0 
0.0 0.0 0.0 
9.682852721324e-04 4.244532954693e-03 0.0 
4.244532954693e-03 6.035643157724e-03 0.0 
0.0 0.0 0.0 
3.257008664037e-04 -5.905289816466e-04 0.0 
-5.905289816466e-04 1.109156394009e-03 0.0 
0.0 0.0 0.0 
1.883002416743e-04 -4.621037385693e-04 0.0 
-4.621037385693e-04 4.508427752848e-03 0.0 
0.0 0.0 0.0 
-9.847384625483e-04 -1.185423316789e-04 0.0 
-1.185423316789e-04 4.181385871679e-03 0.0 
0.0 0.0 0.0 
-1.167360330600e-03 -1.450691253865e-04 0.0 
-1.450691253865e-04 3.729752413404e-03 0.0 
0.0 0.0 0.0 
-1.710227272257e-03 2.489804024751e-04 0.0 
2.489804024751e-04 1.421033228845e-02 0.0 
0.0 0.0 0.0 
8.017911759657e-04 -3.262469434881e-03 0.0 
-3.262469434881e-03 -7.147214340005e-04 0.0 
0.0 0.0 0.0 
2.338445871482e-03 3.535507805388e-03 0.0 
3.535507805388e-03 2.859626872311e-03 0.0 
0.0 0.0 0.0 
5.800359032100e-04 -6.362514937310e-04 0.0 
-6.362514937310e-04 7.607449355174e-04 0.0 
0.0 0.0 0.0 
-1.012005900365e-03 -8.180492146580e-04 0.0 
-8.180492146580e-04 3.206786063833e-03 0.0 
0.0 0.0 0.0 
-3.487674836086e-04 4.311988452481e-03 0.0 
4.311988452481e-03 1.087193897974e-02 0.0 
0.0 0.0 0.0 
-8.562560568055e-04 -1.003315757821e-05 0.0 
-1.003315757821e-05 1.519867108106e-02 0.0 
0.0 0.0 0.0 
-1.138187921504e-03 -2.520859670904e-04 0.0 
-2.520859670904e-04 3.785083838339e-03 0.0 
0.0 0.0 0.0 
-1.768294555851e-03 7.094883420923e-05 0.0 
7.094883420923e-05 1.385438372605e-02 0.0 
0.0 0.0 0.0 
4.488718103199e-04 4.611274317235e-03 0.0 
4.611274317235e-03 7.675483915255e-03 0.0 
0.0 0.0 0.0 
-6.518667585830e-04 4.288262287738e-03 0.0 
4.288262287738e-03 1.003701453055e-02 0.0 
0.0 0.0 0.0 
-7.860324221107e-04 4.228916620751e-03 0.0 
4.228916620751e-03 9.818827329683e-03 0.0 
0.0 0.0 0.0 
-1.995096205146e-03 1.012716505231e-04 0.0 
1.012716505231e-04 1.295934140494e-02 0.0 
0.0 0.0 0.0 
2.802750331786e-03 3.290332967593e-03 0.0 
3.290332967593e-03 1.897753719458e-03 0.0 
0.0 0.0 0.0 
-8.030292523659e-04 3.361888320050e-03 0.0 
3.361888320050e-03 1.328698287622e-02 0.0 
0.0 0.0 0.0 
-7.173221341019e-04 -5.369709364114e-04 0.0 
-5.369709364114e-04 2.297564286894e-03 0.0 
0.0 0.0 0.0 
-1.531914680910e-04 -6.468521331068e-04 0.0 
-6.468521331068e-04 4.404953653367e-04 0.0 
0.0 0.0 0.0 
3.088664522477e-04 4.372327905000e-03 0.0 
4.372327905000e-03 7.702537744968e-03 0.0 
0.0 0.0 0.0 
2.407887126256e-03 1.816590133144e-03 0.0 
1.816590133144e-03 1.835666662308e-03 0.0 
0.0 0.0 0.0 
7.661544342590e-04 -3.341467876852e-03 0.0 
-3.341467876852e-03 -8.684021762652e-04 0.0 
0.0 0.0 0.0 
-1.581296632337e-03 1.364816597969e-04 0.0 
1.364816597969e-04 1.443975074176e-02 0.0 
0.0 0.0 0.0 
-1.023791989372e-04 -3.780157514464e-04 0.0 
-3.780157514464e-04 5.480769821955e-03 0.0 
0.0 0.0 0.0 
7.991047230145e-04 4.181908986522e-03 0.0 
4.181908986522e-03 6.291210026330e-03 0.0 
0.0 0.0 0.0 
6.549476527331e-04 4.475600586444e-03 0.0 
4.475600586444e-03 7.028344799578e-03 0.0 
0.0 0.0 0.0 
-8.834035339765e-04 -1.346715028691e-04 0.0 
-1.346715028691e-04 4.396990259188e-03 0.0 
0.0 0.0 0.0 
-6.473031997023e-05 2.941210851410e-03 0.0 
2.941210851410e-03 -3.403580489142e-03 0.0 
0.0 0.0 0.0 
-1.630364215104e-03 3.416540028990e-03 0.0 
3.416540028990e-03 4.695845849469e-03 0.0 
0.0 0.0 0.0 
-3.063096892985e-04 3.902089975994e-03 0.0 
3.902089975994e-03 2.968838859136e-03 0.0 
0.0 0.0 0.0 
-2.632142312781e-03 1.281007936076e-03 0.0 
1.281007936076e-03 1.342384258618e-02 0.0 
0.0 0.0 0.0 
2.627049964415e-03 3.552148490797e-03 0.0 
3.552148490797e-03 1.866848631652e-03 0.0 
0.0 0.0 0.0 
-7.870567361467e-04 1.044313580577e-03 0.0 
1.044313580577e-03 1.520408964734e-02 0.0 
0.0 0.0 0.0 
7.362248475360e-04 2.292809574536e-03 0.0 
2.292809574536e-03 4.071130636743e-03 0.0 
0.0 0.0 0.0 
-9.054859159161e-04 -2.409841170709e-03 0.0 
-2.409841170709e-03 4.651793534196e-04 0.0 
0.0 0.0 0.0 
-4.870913244791e-04 -1.383803267669e-03 0.0 
-1.383803267669e-03 6.718621088995e-04 0.0 
0.0 0.0 0.0 
-1.561543418570e-03 3.535531841218e-03 0.0 
3.535531841218e-03 3.481218505509e-03 0.0 
0.0 0.0 0.0 
-1.459568883564e-03 3.454341129370e-04 0.0 
3.454341129370e-04 1.452533846434e-02 0.0 
0.0 0.0 0.0 
-8.058701582992e-04 -8.321662961837e-04 0.0 
-8.321662961837e-04 2.474024676139e-03 0.0 
0.0 0.0 0.0 
-1.025394430008e-03 2.504709349451e-03 0.0 
2.504709349451e-03 1.446216280893e-02 0.0 
0.0 0.0 0.0 
5.137842719394e-04 -2.791365793144e-04 0.0 
-2.791365793144e-04 1.044251461399e-03 0.0 
0.0 0.0 0.0 
1.435190547800e-03 2.236791191428e-03 0.0 
2.236791191428e-03 3.296335373170e-03 0.0 
0.0 0.0 0.0 
-2.148707221168e-03 5.306592596866e-04 0.0 
5.306592596866e-04 1.360818506020e-02 0.0 
0.0 0.0 0.0 
5.170093953764e-04 3.743543372354e-03 0.0 
3.743543372354e-03 5.781422899333e-03 0.0 
0.0 0.0 0.0 
1.598471651969e-03 3.734147822229e-03 0.0 
3.734147822229e-03 4.460697422884e-03 0.0 
0.0 0.0 0.0 
-2.791122330268e-03 1.577035587546e-03 0.0 
1.577035587546e-03 1.332500289797e-02 0.0 
0.0 0.0 0.0 
8.529834668451e-04 3.893282965718e-04 0.0 
3.893282965718e-04 3.906012832717e-03 0.0 
0.0 0.0 0.0 
-8.101614797719e-04 2.837790443939e-03 0.0 
2.837790443939e-03 1.434770752904e-02 0.0 
0.0 0.0 0.0 
-5.661834958435e-04 2.610490598877e-04 0.0 
2.610490598877e-04 1.545037824631e-02 0.0 
0.0 0.0 0.0 
-1.569834024405e-03 3.561267165103e-03 0.0 
3.561267165103e-03 2.332912419405e-03 0.0 
0.0 0.0 0.0 
-9.704646738552e-04 2.176076736316e-03 0.0 
2.176076736316e-03 1.462994586733e-02 0.0 
0.0 0.0 0.0 
8.496842605732e-05 4.573456071580e-03 0.0 
4.573456071580e-03 8.809014957567e-03 0.0 
0.0 0.0 0.0 
1.683914195243e-03 2.170562005149e-03 0.0 
2.170562005149e-03 3.313041800155e-03 0.0 
0.0 0.0 0.0 
1.654086997487e-03 3.669727037670e-03 0.0 
3.669727037670e-03 4.203890984422e-03 0.0 
0.0 0.0 0.0 
0.0 -3.255142605848e-04 0.0 
-3.255142605848e-04 5.126249407481e-03 0.0 
0.0 0.0 0.0 
-7.431277839995e-04 4.143302007143e-03 0.0 
4.143302007143e-03 9.830335306320e-03 0.0 
0.0 0.0 0.0 
-1.808246586128e-03 2.154131396319e-03 0.0 
2.154131396319e-03 -2.463860388658e-03 0.0 
0.0 0.0 0.0 
5.174101196137e-04 4.121350259281e-03 0.0 
4.121350259281e-03 5.941464668102e-05 0.0 
0.0 0.0 0.0 
-7.383396728065e-04 4.272954831638e-03 0.0 
4.272954831638e-03 1.071562315411e-02 0.0 
0.0 0.0 0.0 
-2.443940369236e-03 1.340045923105e-03 0.0 
1.340045923105e-03 1.360886116854e-02 0.0 
0.0 0.0 0.0 
-3.357481708836e-04 -2.856767251059e-04 0.0 
-2.856767251059e-04 5.429193777066e-03 0.0 
0.0 0.0 0.0 
1.234104908501e-03 3.770266711979e-03 0.0 
3.770266711979e-03 5.084523742368e-03 0.0 
0.0 0.0 0.0 
1.289743805271e-04 -3.859149989278e-04 0.0 
-3.859149989278e-04 4.833296798721e-03 0.0 
0.0 0.0 0.0 
-1.276559883467e-03 4.252662720843e-04 0.0 
4.252662720843e-04 1.481200744194e-02 0.0 
0.0 0.0 0.0 
5.121532467112e-04 3.476206148944e-03 0.0 
3.476206148944e-03 5.359002812827e-03 0.0 
0.0 0.0 0.0 
8.338357068278e-04 1.265231058597e-04 0.0 
1.265231058597e-04 3.461586958150e-03 0.0 
0.0 0.0 0.0 
9.351133191871e-04 2.623463019487e-04 0.0 
2.623463019487e-04 3.449045647099e-03 0.0 
0.0 0.0 0.0 
-9.285764562560e-04 -5.847820331326e-04 0.0 
-5.847820331326e-04 2.693189985070e-03 0.0 
0.0 0.0 0.0 
6.650914197026e-05 -4.879013594847e-04 0.0 
-4.879013594847e-04 5.380275872416e-03 0.0 
0.0 0.0 0.0 
-2.438859222230e-03 6.409302534526e-04 0.0 
6.409302534526e-04 1.320480109272e-02 0.0 
0.0 0.0 0.0 
-8.242348056431e-04 5.518806028994e-04 0.0 
5.518806028994e-04 1.525445510934e-02 0.0 
0.0 0.0 0.0 
-3.618439464654e-04 -1.570119496798e-03 0.0 
-1.570119496798e-03 8.523128434959e-04 0.0 
0.0 0.0 0.0 
-1.051156385513e-03 2.505530592497e-04 0.0 
2.505530592497e-04 1.512658727075e-02 0.0 
0.0 0.0 0.0 
-1.601217242331e-03 2.405445071566e-04 0.0 
2.405445071566e-04 1.445285314103e-02 0.0 
0.0 0.0 0.0 
1.484794519544e-03 8.835970237981e-05 0.0 
8.835970237981e-05 1.426565940188e-04 0.0 
0.0 0.0 0.0 
2.992684707193e-03 -2.077272255100e-03 0.0 
-2.077272255100e-03 -4.364226278351e-03 0.0 
0.0 0.0 0.0 
-4.156075338939e-04 4.283082758222e-03 0.0 
4.283082758222e-03 9.282003302227e-03 0.0 
0.0 0.0 0.0 
-4.438863363573e-04 1.494979674579e-03 0.0 
1.494979674579e-03 1.516447848332e-02 0.0 
0.0 0.0 0.0 
-7.541079325251e-04 2.653101835184e-04 0.0 
2.653101835184e-04 1.529676006971e-02 0.0 
0.0 0.0 0.0 
1.112026013699e-03 3.413847743002e-03 0.0 
3.413847743002e-03 4.834853257614e-03 0.0 
0.0 0.0 0.0 
-1.806316228679e-03 2.986593201661e-04 0.0 
2.986593201661e-04 1.387081789148e-02 0.0 
0.0 0.0 0.0 
6.585110326061e-04 -4.299983237575e-04 0.0 
-4.299983237575e-04 9.233432141142e-05 0.0 
0.0 0.0 0.0 
7.034653664848e-04 2.113796802942e-03 0.0 
2.113796802942e-03 -3.896993076733e-03 0.0 
0.0 0.0 0.0 
2.346141884937e-04 -5.766959588865e-04 0.0 
-5.766959588865e-04 2.529115083447e-04 0.0 
0.0 0.0 0.0 
-2.360944629660e-04 -1.721253796999e-03 0.0 
-1.721253796999e-03 8.164459772477e-04 0.0 
0.0 0.0 0.0 
-1.783685627253e-03 4.543985627115e-03 0.0 
4.543985627115e-03 -1.487640562692e-03 0.0 
0.0 0.0 0.0 
-1.087922528083e-03 -8.151631475882e-04 0.0 
-8.151631475882e-04 3.292961745584e-03 0.0 
0.0 0.0 0.0 
-3.003477836838e-04 -2.667440767569e-04 0.0 
-2.667440767569e-04 5.428787280577e-03 0.0 
0.0 0.0 0.0 
-7.921023808007e-04 3.831565913712e-03 0.0 
3.831565913712e-03 1.245704276609e-02 0.0 
0.0 0.0 0.0 
-2.832807260531e-03 2.069295223804e-03 0.0 
2.069295223804e-03 1.319888373978e-02 0.0 
0.0 0.0 0.0 
-8.506044928606e-04 -1.144946556714e-03 0.0 
-1.144946556714e-03 2.651504521923e-03 0.0 
0.0 0.0 0.0 
6.288936266001e-04 -2.524199190444e-04 0.0 
-2.524199190444e-04 3.756614771266e-03 0.0 
0.0 0.0 0.0 
1.640303564328e-03 1.114114965196e-03 0.0 
1.114114965196e-03 2.886183764008e-03 0.0 
0.0 0.0 0.0 
8.607888063619e-04 4.051657877224e-03 0.0 
4.051657877224e-03 5.983164748504e-03 0.0 
0.0 0.0 0.0 
2.033363046530e-04 4.390047254978e-03 0.0 
4.390047254978e-03 8.085878228522e-03 0.0 
0.0 0.0 0.0 
-2.679194781162e-04 4.367768091675e-03 0.0 
4.367768091675e-03 9.572679876567e-03 0.0 
0.0 0.0 0.0 
-4.157433307374e-04 -1.281539047179e-03 0.0 
-1.281539047179e-03 7.864919081715e-04 0.0 
0.0 0.0 0.0 
6.959893468712e-04 -1.824031420863e-03 0.0 
-1.824031420863e-03 -3.947801790872e-03 0.0 
0.0 0.0 0.0 
-2.253626103988e-04 -4.332524215851e-04 0.0 
-4.332524215851e-04 5.215281879865e-03 0.0 
0.0 0.0 0.0 
1.047904978888e-03 -9.903644169776e-05 0.0 
-9.903644169776e-05 2.871025896227e-04 0.0 
0.0 0.0 0.0 
1.085545899771e-03 -7.872444226287e-05 0.0 
-7.872444226287e-05 4.115737902726e-04 0.0 
0.0 0.0 0.0 
-9.431451798836e-04 4.026020915106e-03 0.0 
4.026020915106e-03 -5.439205826141e-04 0.0 
0.0 0.0 0.0 
2.837771580446e-04 -7.081792505785e-04 0.0 
-7.081792505785e-04 5.926865641932e-04 0.0 
0.0 0.0 0.0 
4.199023259568e-04 2.907873926503e-04 0.0 
2.907873926503e-04 3.966149606218e-03 0.0 
0.0 0.0 0.0 
-1.755730678169e-04 4.556891697477e-03 0.0 
4.556891697477e-03 1.027831905766e-02 0.0 
0.0 0.0 0.0 
-6.846224331796e-04 1.045661009326e-03 0.0 
1.045661009326e-03 1.520408225398e-02 0.0 
0.0 0.0 0.0 
4.011949154543e-04 4.000440077514e-03 0.0 
4.000440077514e-03 6.298788784333e-03 0.0 
0.0 0.0 0.0 
1.721797023227e-03 1.095600780851e-03 0.0 
1.095600780851e-03 2.437401868347e-03 0.0 
0.0 0.0 0.0 
-1.729994067780e-03 3.066519963756e-04 0.0 
3.066519963756e-04 1.405962452656e-02 0.0 
0.0 0.0 0.0 
0.0 2.029674202350e-03 0.0 
2.029674202350e-03 1.503533482699e-02 0.0 
0.0 0.0 0.0 
2.469383788924e-03 -3.264874903355e-03 0.0 
-3.264874903355e-03 -2.905682649358e-03 0.0 
0.0 0.0 0.0 
-2.042820742779e-03 1.506188060844e-04 0.0 
1.506188060844e-04 1.290943390606e-02 0.0 
0.0 0.0 0.0 
-3.411966411143e-04 -3.447811763468e-03 0.0 
-3.447811763468e-03 -5.515075081264e-05 0.0 
0.0 0.0 0.0 
9.473142440768e-04 -3.590318724664e-04 0.0 
-3.590318724664e-04 -3.904407268529e-05 0.0 
0.0 0.0 0.0 
-5.357545824647e-05 -4.682490052079e-04 0.0 
-4.682490052079e-04 5.680625302799e-03 0.0 
0.0 0.0 0.0 
-2.870751948643e-03 1.387079510005e-03 0.0 
1.387079510005e-03 1.295414866954e-02 0.0 
0.0 0.0 0.0 
9.413891457524e-04 -3.089586530096e-04 0.0 
-3.089586530096e-04 6.015035083280e-04 0.0 
0.0 0.0 0.0 
-1.140979241927e-03 -5.915383256781e-04 0.0 
-5.915383256781e-04 3.362292115924e-03 0.0 
0.0 0.0 0.0 
-2.557581258944e-04 4.748272131423e-03 0.0 
4.748272131423e-03 1.057034579090e-02 0.0 
0.0 0.0 0.0 
-9.587002942509e-04 1.416550733204e-03 0.0 
1.416550733204e-03 1.507926107846e-02 0.0 
0.0 0.0 0.0 
-4.853592859169e-04 3.104021903874e-03 0.0 
3.104021903874e-03 1.396871654190e-02 0.0 
0.0 0.0 0.0 
-8.441609224715e-04 -2.903288331310e-04 0.0 
-2.903288331310e-04 2.612510612888e-03 0.0 
0.0 0.0 0.0 
9.542299316154e-04 2.311300177104e-04 0.0 
2.311300177104e-04 -4.448620405321e-03 0.0 
0.0 0.0 0.0 
2.462805000165e-04 -4.219898613074e-04 0.0 
-4.219898613074e-04 4.682667528853e-03 0.0 
0.0 0.0 0.0 
-2.988225897786e-04 2.051930941529e-04 0.0 
2.051930941529e-04 1.559144901095e-02 0.0 
0.0 0.0 0.0 
-1.764718510278e-04 -1.340186059782e-04 0.0 
-1.340186059782e-04 6.028220955407e-03 0.0 
0.0 0.0 0.0 
-1.813824844743e-03 3.417062155080e-05 0.0 
3.417062155080e-05 1.320621430971e-02 0.0 
0.0 0.0 0.0 
1.179009858541e-03 1.277931355170e-03 0.0 
1.277931355170e-03 3.040133754030e-03 0.0 
0.0 0.0 0.0 
4.958445690180e-04 -2.704687190759e-04 0.0 
-2.704687190759e-04 8.509984490110e-04 0.0 
0.0 0.0 0.0 
-8.483929925232e-04 2.476335193656e-03 0.0 
2.476335193656e-03 1.445958308452e-02 0.0 
0.0 0.0 0.0 
7.803576236038e-04 -3.919020505020e-04 0.0 
-3.919020505020e-04 3.036156302816e-05 0.0 
0.0 0.0 0.0 
5.222272186967e-04 8.562528683659e-04 0.0 
8.562528683659e-04 3.815857454469e-03 0.0 
0.0 0.0 0.0 
-8.073087885344e-04 3.390995128977e-03 0.0 
3.390995128977e-03 1.371505869950e-02 0.0 
0.0 0.0 0.0 
3.435515750561e-04 1.288827879167e-03 0.0 
1.288827879167e-03 -4.590407635007e-03 0.0 
0.0 0.0 0.0 
8.463832767112e-04 4.191478245761e-03 0.0 
4.191478245761e-03 6.286179525610e-03 0.0 
0.0 0.0 0.0 
-1.420355022435e-03 2.659102343619e-04 0.0 
2.659102343619e-04 1.468164991129e-02 0.0 
0.0 0.0 0.0 
-3.566577320733e-04 1.109716106037e-03 0.0 
1.109716106037e-03 1.530927301960e-02 0.0 
0.0 0.0 0.0 
0.0 3.065761050560e-03 0.0 
3.065761050560e-03 5.466289436760e-03 0.0 
0.0 0.0 0.0 
-1.584224665384e-03 3.674411248134e-05 0.0 
3.674411248134e-05 1.426668859872e-02 0.0 
0.0 0.0 0.0 
-1.766302421115e-04 4.495344706202e-03 0.0 
4.495344706202e-03 1.088865803315e-02 0.0 
0.0 0.0 0.0 
-1.081868626891e-03 3.011418345548e-03 0.0 
3.011418345548e-03 1.392432614454e-02 0.0 
0.0 0.0 0.0 
-1.442542788475e-03 1.942771031461e-04 0.0 
1.942771031461e-04 1.445878307433e-02 0.0 
0.0 0.0 0.0 
-3.005465317046e-04 4.384474957634e-03 0.0 
4.384474957634e-03 1.042381264295e-02 0.0 
0.0 0.0 0.0 
-1.054421250145e-03 -6.151309690162e-04 0.0 
-6.151309690162e-04 2.931863736072e-03 0.0 
0.0 0.0 0.0 
-1.899183816702e-03 4.547969769104e-05 0.0 
4.547969769104e-05 1.292735148815e-02 0.0 
0.0 0.0 0.0 
9.029055382090e-04 4.015094879210e-03 0.0 
4.015094879210e-03 5.801468553368e-03 0.0 
0.0 0.0 0.0 
-3.745655937026e-04 1.582959418570e-04 0.0 
1.582959418570e-04 1.546542444826e-02 0.0 
0.0 0.0 0.0 
2.245200389272e-03 -2.386401442268e-05 0.0 
-2.386401442268e-05 -8.754883765282e-04 0.0 
0.0 0.0 0.0 
-1.828581008130e-03 1.955928609755e-05 0.0 
1.955928609755e-05 1.291186585996e-02 0.0 
0.0 0.0 0.0 
-2.191456448890e-04 -1.008750897900e-04 0.0 
-1.008750897900e-04 5.844659667824e-03 0.0 
0.0 0.0 0.0 
-4.419505113984e-06 -8.038602842367e-04 0.0 
-8.038602842367e-04 1.217506282983e-03 0.0 
0.0 0.0 0.0 
1.725892924005e-03 1.834678110850e-03 0.0 
1.834678110850e-03 3.190123752937e-03 0.0 
0.0 0.0 0.0 
-1.126893621234e-03 3.491052671110e-03 0.0 
3.491052671110e-03 1.324413630585e-02 0.0 
0.0 0.0 0.0 
-6.619796431251e-04 9.938987529523e-04 0.0 
9.938987529523e-04 1.531666003018e-02 0.0 
0.0 0.0 0.0 
2.891807990724e-04 -5.283117802976e-04 0.0 
-5.283117802976e-04 1.126186433241e-03 0.0 
0.0 0.0 0.0 
4.249471396880e-04 4.525157225129e-03 0.0 
4.525157225129e-03 -1.987605088863e-03 0.0 
0.0 0.0 0.0 
-1.119829588274e-03 -5.692729981677e-05 0.0 
-5.692729981677e-05 3.868101837625e-03 0.0 
0.0 0.0 0.0 
-1.120921425550e-03 2.322002676617e-04 0.0 
2.322002676617e-04 1.494717510205e-02 0.0 
0.0 0.0 0.0 
-5.973232010272e-03 -2.912031099228e-04 0.0 
-2.912031099228e-04 -1.957942376782e-03 0.0 
0.0 0.0 0.0 
-4.523251641144e-04 2.596203972270e-03 0.0 
2.596203972270e-03 1.450800062869e-02 0.0 
0.0 0.0 0.0 
-1.572181676562e-03 1.389861209696e-04 0.0 
1.389861209696e-04 1.417296723958e-02 0.0 
0.0 0.0 0.0 
4.318309798430e-04 -3.354600503440e-03 0.0 
-3.354600503440e-03 -7.242422442183e-04 0.0 
0.0 0.0 0.0 
-1.714840874402e-03 1.925181065243e-04 0.0 
1.925181065243e-04 1.394719949742e-02 0.0 
0.0 0.0 0.0 
6.454483460934e-04 4.306895959548e-03 0.0 
4.306895959548e-03 6.629439050937e-03 0.0 
0.0 0.0 0.0 
-1.092601098859e-03 -1.127196679438e-04 0.0 
-1.127196679438e-04 3.965452065818e-03 0.0 
0.0 0.0 0.0 
-2.496225533373e-03 4.535384026358e-03 0.0 
4.535384026358e-03 4.551074963712e-04 0.0 
0.0 0.0 0.0 
-9.906706748880e-04 -7.863055295727e-04 0.0 
-7.863055295727e-04 2.754531896868e-03 0.0 
0.0 0.0 0.0 
-1.027283857298e-03 -7.610919577220e-04 0.0 
-7.610919577220e-04 3.524971741333e-03 0.0 
0.0 0.0 0.0 
-1.059967724853e-03 -3.592515454145e-05 0.0 
-3.592515454145e-05 4.090823222549e-03 0.0 
0.0 0.0 0.0 
1.125701855936e-03 3.420766119585e-03 0.0 
3.420766119585e-03 4.808499936199e-03 0.0 
0.0 0.0 0.0 
-1.147404388717e-03 -3.823244195272e-04 0.0 
-3.823244195272e-04 3.522600657075e-03 0.0 
0.0 0.0 0.0 
-1.091694392681e-03 -4.881492720663e-04 0.0 
-4.881492720663e-04 3.722400166776e-03 0.0 
0.0 0.0 0.0 
3.529577417234e-04 -6.791652884976e-04 0.0 
-6.791652884976e-04 4.104777735217e-04 0.0 
0.0 0.0 0.0 
2.522394837805e-04 -4.132490093815e-04 0.0 
-4.132490093815e-04 4.518400557686e-03 0.0 
0.0 0.0 0.0 
3.445318113564e-04 4.447772308603e-03 0.0 
4.447772308603e-03 7.710409420586e-03 0.0 
0.0 0.0 0.0 
1.347140982407e-03 3.903996750596e-03 0.0 
3.903996750596e-03 -2.551031756229e-03 0.0 
0.0 0.0 0.0 
-3.094714315458e-04 1.536233986256e-04 0.0 
1.536233986256e-04 1.546015023883e-02 0.0 
0.0 0.0 0.0 
-1.899924455692e-04 -8.066083764296e-05 0.0 
-8.066083764296e-05 5.838009865269e-03 0.0 
0.0 0.0 0.0 
-1.829759370779e-03 -2.136494325097e-07 0.0 
-2.136494325097e-07 1.322519345309e-02 0.0 
0.0 0.0 0.0 
-1.648694426907e-03 1.168039436584e-04 0.0 
1.168039436584e-04 1.416741443856e-02 0.0 
0.0 0.0 0.0 
-1.140217300829e-03 -5.716380451378e-04 0.0 
-5.716380451378e-04 3.543695322909e-03 0.0 
0.0 0.0 0.0 
-1.108286580954e-03 -5.727559204217e-04 0.0 
-5.727559204217e-04 3.437972611000e-03 0.0 
0.0 0.0 0.0 
-1.148374072839e-03 -3.724572859558e-04 0.0 
-3.724572859558e-04 3.649765444633e-03 0.0 
0.0 0.0 0.0 
1.863646151125e-03 1.934342315708e-03 0.0 
1.934342315708e-03 2.674294616104e-03 0.0 
0.0 0.0 0.0 
1.213974968854e-04 -2.961413821315e-03 0.0 
-2.961413821315e-03 4.109745192880e-04 0.0 
0.0 0.0 0.0 
1.492848521873e-04 4.620439284875e-03 0.0 
4.620439284875e-03 8.511043665663e-03 0.0 
0.0 0.0 0.0 
-1.760425575722e-03 9.074524024031e-05 0.0 
9.074524024031e-05 1.357153740943e-02 0.0 
0.0 0.0 0.0 
-8.714050112220e-04 2.482378071537e-03 0.0 
2.482378071537e-03 1.461543470850e-02 0.0 
0.0 0.0 0.0 
1.715094278814e-03 1.749691193985e-03 0.0 
1.749691193985e-03 2.651887062926e-03 0.0 
0.0 0.0 0.0 
-1.820321453311e-03 2.049732861975e-04 0.0 
2.049732861975e-04 1.394725292531e-02 0.0 
0.0 0.0 0.0 
-3.896002628344e-04 4.328586503336e-03 0.0 
4.328586503336e-03 1.025104144703e-02 0.0 
0.0 0.0 0.0 
1.096649124494e-03 3.468360149908e-03 0.0 
3.468360149908e-03 4.792522722300e-03 0.0 
0.0 0.0 0.0 
9.428977856873e-04 3.790218735409e-03 0.0 
3.790218735409e-03 5.556543417136e-03 0.0 
0.0 0.0 0.0 
-1.120502428552e-03 4.387301144591e-03 0.0 
4.387301144591e-03 -1.973280392667e-03 0.0 
0.0 0.0 0.0 
-4.903910956267e-04 4.369936548159e-03 0.0 
4.369936548159e-03 1.024676453484e-02 0.0 
0.0 0.0 0.0 
-2.267876791154e-04 4.609920372584e-03 0.0 
4.609920372584e-03 9.934808874525e-03 0.0 
0.0 0.0 0.0 
8.156690999976e-04 -5.662984106684e-04 0.0 
-5.662984106684e-04 3.142695108558e-04 0.0 
0.0 0.0 0.0 
-1.126654038341e-03 -5.955820492652e-04 0.0 
-5.955820492652e-04 3.340175908800e-03 0.0 
0.0 0.0 0.0 
-1.610821630867e-03 3.695195651398e-03 0.0 
3.695195651398e-03 -1.474008981283e-03 0.0 
0.0 0.0 0.0 
-5.264599481036e-04 4.527462580409e-03 0.0 
4.527462580409e-03 1.074609824207e-02 0.0 
0.0 0.0 0.0 
-1.836513454682e-03 -4.198037202751e-06 0.0 
-4.198037202751e-06 1.215292057606e-02 0.0 
0.0 0.0 0.0 
-1.780305900488e-03 -1.804105187959e-06 0.0 
-1.804105187959e-06 1.209862496052e-02 0.0 
0.0 0.0 0.0 
-1.833955643954e-03 -7.721756579954e-06 0.0 
-7.721756579954e-06 1.209811440549e-02 0.0 
0.0 0.0 0.0 
-1.790558069120e-03 -2.474181638184e-05 0.0 
-2.474181638184e-05 1.209307393546e-02 0.0 
0.0 0.0 0.0 
-1.846508140971e-03 -1.547743331003e-05 0.0 
-1.547743331003e-05 1.209514442404e-02 0.0 
0.0 0.0 0.0 
-1.800510047652e-03 -3.490291007912e-05 0.0 
-3.490291007912e-05 1.209361301281e-02 0.0 
0.0 0.0 0.0 
-1.865229557572e-03 -2.075480178783e-05 0.0 
-2.075480178783e-05 1.209783775122e-02 0.0 
0.0 0.0 0.0 
-1.808317800719e-03 -4.058815290168e-05 0.0 
-4.058815290168e-05 1.209026731946e-02 0.0 
0.0 0.0 0.0 
-1.885299804345e-03 -1.884647245849e-05 0.0 
-1.884647245849e-05 1.209832676706e-02 0.0 
0.0 0.0 0.0 
-1.817065390171e-03 -4.200696364210e-05 0.0 
-4.200696364210e-05 1.209019683150e-02 0.0 
0.0 0.0 0.0 
-1.915435549759e-03 -1.782067885809e-05 0.0 
-1.782067885809e-05 1.210179659787e-02 0.0 
0.0 0.0 0.0 
-1.824124480849e-03 -4.242104478405e-05 0.0 
-4.242104478405e-05 1.208328492191e-02 0.0 
0.0 0.0 0.0 
-1.946928197383e-03 -6.894110958906e-06 0.0 
-6.894110958906e-06 1.210311900720e-02 0.0 
0.0 0.0 0.0 
-2.655350723425e-03 1.053808406951e-03 0.0 
1.053808406951e-03 1.189788203883e-02 0.0 
0.0 0.0 0.0 
-1.832772768706e-03 -3.491775803586e-05 0.0 
-3.491775803586e-05 1.207922345203e-02 0.0 
0.0 0.0 0.0 
-1.991506799591e-03 2.581466201878e-06 0.0 
2.581466201878e-06 1.210565818899e-02 0.0 
0.0 0.0 0.0 
-2.196806787518e-03 7.574124075772e-04 0.0 
7.574124075772e-04 1.164281564778e-02 0.0 
0.0 0.0 0.0 
-1.844461410969e-03 -2.415320985482e-05 0.0 
-2.415320985482e-05 1.206547270575e-02 0.0 
0.0 0.0 0.0 
-2.040084028814e-03 2.238872213448e-05 0.0 
2.238872213448e-05 1.210381967322e-02 0.0 
0.0 0.0 0.0 
-2.870807840891e-03 8.601550412311e-04 0.0 
8.601550412311e-04 1.214539968392e-02 0.0 
0.0 0.0 0.0 
-1.853975505876e-03 -5.704672810938e-06 0.0 
-5.704672810938e-06 1.205074866223e-02 0.0 
0.0 0.0 0.0 
-2.105359120146e-03 5.243659065555e-05 0.0 
5.243659065555e-05 1.210669539280e-02 0.0 
0.0 0.0 0.0 
-1.861830016890e-03 2.617370252023e-05 0.0 
2.617370252023e-05 1.203078558431e-02 0.0 
0.0 0.0 0.0 
-2.166635565302e-03 9.045385759015e-05 0.0 
9.045385759015e-05 1.210428301277e-02 0.0 
0.0 0.0 0.0 
-1.874987707453e-03 7.442361593268e-05 0.0 
7.442361593268e-05 1.200291941267e-02 0.0 
0.0 0.0 0.0 
-3.352501100540e-03 1.590405186265e-03 0.0 
1.590405186265e-03 1.231845838523e-02 0.0 
0.0 0.0 0.0 
-2.249535150370e-03 1.484010925521e-04 0.0 
1.484010925521e-04 1.210179523676e-02 0.0 
0.0 0.0 0.0 
-1.901522867782e-03 1.474336450634e-04 0.0 
1.474336450634e-04 1.197022784779e-02 0.0 
0.0 0.0 0.0 
-1.955957957245e-03 2.558655094822e-04 0.0 
2.558655094822e-04 1.193398431568e-02 0.0 
0.0 0.0 0.0 
-2.354375927872e-03 2.313930183579e-04 0.0 
2.313930183579e-04 1.210063637123e-02 0.0 
0.0 0.0 0.0 
-2.001439278171e-03 4.104923418524e-04 0.0 
4.104923418524e-04 1.186018773546e-02 0.0 
0.0 0.0 0.0 
-2.492335524201e-03 3.389994499744e-04 0.0 
3.389994499744e-04 1.209339047003e-02 0.0 
0.0 0.0 0.0 
-2.114347702976e-03 6.711431652504e-04 0.0 
6.711431652504e-04 1.179998556943e-02 0.0 
0.0 0.0 0.0 
-2.582126046751e-03 5.309685292033e-04 0.0 
5.309685292033e-04 1.207951319740e-02 0.0 
0.0 0.0 0.0 
-3.176666131394e-03 9.540596428021e-04 0.0 
9.540596428021e-04 1.247489934890e-02 0.0 
0.0 0.0 0.0 
-1.822333164141e-03 -5.518588064898e-05 0.0 
-5.518588064898e-05 1.208925862833e-02 0.0 
0.0 0.0 0.0 
-1.860153142425e-03 5.934100268200e-05 0.0 
5.934100268200e-05 1.215667861620e-02 0.0 
0.0 0.0 0.0 
-1.850768194776e-03 -3.910191725421e-06 0.0 
-3.910191725421e-06 1.201651044703e-02 0.0 
0.0 0.0 0.0 
-1.832002504143e-03 1.026640897068e-05 0.0 
1.026640897068e-05 1.222542199267e-02 0.0 
0.0 0.0 0.0 
-3.644379523793e-03 1.729003175958e-03 0.0 
1.729003175958e-03 1.181688416384e-02 0.0 
0.0 0.0 0.0 
-1.836513454682e-03 -1.843490598821e-05 0.0 
-1.843490598821e-05 1.250712260856e-02 0.0 
0.0 0.0 0.0 
-1.838364348563e-03 -3.076859633609e-06 0.0 
-3.076859633609e-06 1.253767141842e-02 0.0 
0.0 0.0 0.0 
-1.833955643954e-03 5.069245336585e-06 0.0 
5.069245336585e-06 1.253669779810e-02 0.0 
0.0 0.0 0.0 
-1.857476685078e-03 -2.770870657538e-06 0.0 
-2.770870657538e-06 1.254195450745e-02 0.0 
0.0 0.0 0.0 
-1.846508140971e-03 8.359408726498e-06 0.0 
8.359408726498e-06 1.253990494526e-02 0.0 
0.0 0.0 0.0 
-1.880545158817e-03 -2.990391142527e-06 0.0 
-2.990391142527e-06 1.254637529503e-02 0.0 
0.0 0.0 0.0 
-1.865229557572e-03 1.126509758357e-05 0.0 
1.126509758357e-05 1.254280908175e-02 0.0 
0.0 0.0 0.0 
-1.910201074751e-03 -5.216010325450e-06 0.0 
-5.216010325450e-06 1.254741141839e-02 0.0 
0.0 0.0 0.0 
-1.885299804345e-03 2.209505362595e-05 0.0 
2.209505362595e-05 1.253884023024e-02 0.0 
0.0 0.0 0.0 
-1.941844517109e-03 8.676889264168e-06 0.0 
8.676889264168e-06 1.255508838757e-02 0.0 
0.0 0.0 0.0 
-1.915435549759e-03 3.428377064782e-05 0.0 
3.428377064782e-05 1.254522824015e-02 0.0 
0.0 0.0 0.0 
-1.995251452177e-03 1.231273491866e-05 0.0 
1.231273491866e-05 1.256066679662e-02 0.0 
0.0 0.0 0.0 
-2.781853497934e-03 1.034818817779e-03 0.0 
1.034818817779e-03 1.236635774201e-02 0.0 
0.0 0.0 0.0 
-1.946928197383e-03 5.744170218167e-05 0.0 
5.744170218167e-05 1.254003597665e-02 0.0 
0.0 0.0 0.0 
-2.831797159444e-03 8.098005752183e-04 0.0 
8.098005752183e-04 1.257462411850e-02 0.0 
0.0 0.0 0.0 
-2.042820742779e-03 4.029220930091e-05 0.0 
4.029220930091e-05 1.256988291203e-02 0.0 
0.0 0.0 0.0 
-1.991506799591e-03 8.653780384848e-05 0.0 
8.653780384848e-05 1.254527936897e-02 0.0 
0.0 0.0 0.0 
-2.120791149116e-03 6.040137164108e-05 0.0 
6.040137164108e-05 1.257674198465e-02 0.0 
0.0 0.0 0.0 
-2.040084028814e-03 1.280842576447e-04 0.0 
1.280842576447e-04 1.253525478487e-02 0.0 
0.0 0.0 0.0 
-2.205405292363e-03 1.057012264285e-04 0.0 
1.057012264285e-04 1.258602982024e-02 0.0 
0.0 0.0 0.0 
-2.105359120146e-03 1.877243121248e-04 0.0 
1.877243121248e-04 1.252912643317e-02 0.0 
0.0 0.0 0.0 
-2.295333860400e-03 1.704873383842e-04 0.0 
1.704873383842e-04 1.259274062927e-02 0.0 
0.0 0.0 0.0 
-2.582126046751e-03 9.464218440925e-04 0.0 
9.464218440925e-04 1.216697868626e-02 0.0 
0.0 0.0 0.0 
-2.166635565302e-03 2.723434928093e-04 0.0 
2.723434928093e-04 1.251336269054e-02 0.0 
0.0 0.0 0.0 
-2.411123658446e-03 2.588498130354e-04 0.0 
2.588498130354e-04 1.259826380834e-02 0.0 
0.0 0.0 0.0 
-2.249535150370e-03 3.831292871976e-04 0.0 
3.831292871976e-04 1.249040844845e-02 0.0 
0.0 0.0 0.0 
-2.532063576181e-03 3.807102315542e-04 0.0 
3.807102315542e-04 1.259520137609e-02 0.0 
0.0 0.0 0.0 
-2.662737705977e-03 5.621675091298e-04 0.0 
5.621675091298e-04 1.258223327877e-02 0.0 
0.0 0.0 0.0 
-2.354375927872e-03 5.389493210162e-04 0.0 
5.389493210162e-04 1.244821818612e-02 0.0 
0.0 0.0 0.0 
-2.492335524201e-03 7.483907414914e-04 0.0 
7.483907414914e-04 1.239998125040e-02 0.0 
0.0 0.0 0.0 
-3.029611082470e-03 1.259272371841e-03 0.0 
1.259272371841e-03 1.254189276517e-02 0.0 
0.0 0.0 0.0 
-2.948549585052e-03 1.001725377209e-03 0.0 
1.001725377209e-03 1.249778240686e-02 0.0 
0.0 0.0 0.0 
-1.846577140162e-03 -5.066823358141e-05 0.0 
-5.066823358141e-05 1.253624997254e-02 0.0 
0.0 0.0 0.0 
-1.827829930859e-03 5.820659426308e-05 0.0 
5.820659426308e-05 1.250260677332e-02 0.0 
0.0 0.0 0.0 
-1.841975901113e-03 1.790701291147e-06 0.0 
1.790701291147e-06 1.263374746435e-02 0.0 
0.0 0.0 0.0 
-1.832002504143e-03 7.885897668514e-06 0.0 
7.885897668514e-06 1.240885615839e-02 0.0 
0.0 0.0 0.0 
-2.870807840891e-03 1.411663806308e-03 0.0 
1.411663806308e-03 1.212094063344e-02 0.0 
0.0 0.0 0.0 

TENSORS element_materi_strain_plasti float
-1.278716781713e-04 2.317088785895e-03 0.0 
2.317088785895e-03 1.725589617193e-03 0.0 
0.0 0.0 -6.847362595807e-04 
-1.156199042648e-04 2.024353748068e-03 0.0 
2.024353748068e-03 1.515455915080e-03 0.0 
0.0 0.0 -5.999297189210e-04 
-1.399419419615e-03 2.869344170324e-03 0.0 
2.869344170324e-03 7.127002349296e-03 0.0 
0.0 0.0 -1.278236581085e-03 
-1.499770292198e-03 1.938127459123e-04 0.0 
1.938127459123e-04 8.462485561252e-03 0.0 
0.0 0.0 -1.255598393855e-03 
-1.590286579790e-03 5.866412250785e-04 0.0 
5.866412250785e-04 5.570411940462e-03 0.0 
0.0 0.0 -7.961861350945e-04 
9.753052699299e-04 2.049730811989e-03 0.0 
2.049730811989e-03 -7.410546550660e-04 0.0 
0.0 0.0 -1.003931206560e-04 
-1.532722360608e-03 5.037005669365e-04 0.0 
5.037005669365e-04 5.548158926813e-03 0.0 
0.0 0.0 -8.011023898636e-04 
6.217083316276e-05 2.386622999709e-03 0.0 
2.386622999709e-03 1.415043626867e-03 0.0 
0.0 0.0 -6.330919114413e-04 
-1.605315258057e-03 4.380832637377e-06 0.0 
4.380832637377e-06 5.621376957900e-03 0.0 
0.0 0.0 -7.977904104816e-04 
-1.475813289088e-03 8.034655794974e-04 0.0 
8.034655794974e-04 8.366055234102e-03 0.0 
0.0 0.0 -1.253060141438e-03 
-1.723349006480e-03 -4.463465104632e-04 0.0 
-4.463465104632e-04 5.097851564140e-03 0.0 
0.0 0.0 -1.066978692879e-03 
5.108532101032e-06 1.964113970332e-03 0.0 
1.964113970332e-03 1.245831196254e-03 0.0 
0.0 0.0 -5.361170264378e-04 
-1.727294747470e-03 -3.711696677191e-04 0.0 
-3.711696677191e-04 6.945132129710e-03 0.0 
0.0 0.0 -1.259187713256e-03 
-1.707478703098e-03 1.059006860170e-03 0.0 
1.059006860170e-03 5.791719022601e-03 0.0 
0.0 0.0 -8.526168115438e-04 
-1.560262196776e-03 -9.393570101401e-04 0.0 
-9.393570101401e-04 6.928774089182e-03 0.0 
0.0 0.0 -1.289538875031e-03 
-1.440818830272e-03 6.754770737443e-04 0.0 
6.754770737443e-04 8.548838696717e-03 0.0 
0.0 0.0 -1.285984941237e-03 
-1.662616207287e-03 5.344607310422e-04 0.0 
5.344607310422e-04 5.529033418926e-03 0.0 
0.0 0.0 -7.740676797406e-04 
7.357046437425e-05 6.570695833459e-05 0.0 
6.570695833459e-05 -7.357046437425e-05 0.0 
0.0 0.0 0.0 
-6.149932217399e-04 -2.296531181353e-04 0.0 
-2.296531181353e-04 1.902161440616e-03 0.0 
0.0 0.0 -2.776016825098e-04 
-5.498585393581e-04 -2.166839192677e-04 0.0 
-2.166839192677e-04 1.738279106343e-03 0.0 
0.0 0.0 -4.484512109716e-04 
-1.512957112042e-03 4.043623184242e-04 0.0 
4.043623184242e-04 8.437324312554e-03 0.0 
0.0 0.0 -1.250388265701e-03 
-3.873012428043e-04 2.129273940428e-03 0.0 
2.129273940428e-03 2.185606563766e-03 0.0 
0.0 0.0 -7.707022804121e-04 
-4.415956435739e-04 2.226005795527e-03 0.0 
2.226005795527e-03 2.374460708771e-03 0.0 
0.0 0.0 -8.283707422273e-04 
-4.392711161920e-04 -9.745966439417e-04 0.0 
-9.745966439417e-04 3.836297522503e-03 0.0 
0.0 0.0 -1.210372970477e-03 
-1.729903628601e-03 1.506745383258e-03 0.0 
1.506745383258e-03 5.975665893657e-03 0.0 
0.0 0.0 -9.130988374533e-04 
-1.810671457854e-03 -7.476421640110e-04 0.0 
-7.476421640110e-04 5.330964071115e-03 0.0 
0.0 0.0 -1.080045423496e-03 
-1.736477005164e-03 1.109495533801e-03 0.0 
1.109495533801e-03 4.957414051106e-03 0.0 
0.0 0.0 -7.148082707961e-04 
-9.553018808659e-04 3.102749138761e-03 0.0 
3.102749138761e-03 5.566273317297e-03 0.0 
0.0 0.0 -1.266047838742e-03 
-1.821356794347e-03 1.188786638151e-03 0.0 
1.188786638151e-03 6.013421513739e-03 0.0 
0.0 0.0 -9.113908267906e-04 
-6.554257296263e-04 -8.444129216472e-04 0.0 
-8.444129216472e-04 4.294151155513e-03 0.0 
0.0 0.0 -1.237914324842e-03 
1.345111965206e-03 -2.563071370678e-03 0.0 
-2.563071370678e-03 -3.409519374557e-04 0.0 
0.0 0.0 -4.303542976074e-04 
3.575551772738e-04 -9.432915107626e-04 0.0 
-9.432915107626e-04 3.359353657627e-04 0.0 
0.0 0.0 -1.059755802940e-04 
-1.524187206040e-03 3.047553797097e-03 0.0 
3.047553797097e-03 7.492448074924e-03 0.0 
0.0 0.0 -1.261301343383e-03 
-2.126259398598e-03 -4.008249318176e-04 0.0 
-4.008249318176e-04 6.245433906960e-03 0.0 
0.0 0.0 -1.090200430068e-03 
-1.168924377092e-03 -2.135391167217e-03 0.0 
-2.135391167217e-03 5.528728836968e-03 0.0 
0.0 0.0 -1.254989870190e-03 
-1.506183274607e-03 -1.403999252581e-03 0.0 
-1.403999252581e-03 6.695784423920e-03 0.0 
0.0 0.0 -1.314886350686e-03 
-1.405965625827e-03 -2.094418066157e-03 0.0 
-2.094418066157e-03 6.677666447639e-03 0.0 
0.0 0.0 -1.314653105918e-03 
-6.328504155879e-04 1.260189016710e-03 0.0 
1.260189016710e-03 4.185986138576e-03 0.0 
0.0 0.0 -1.264739017786e-03 
-1.486815579568e-03 -1.990720886798e-04 0.0 
-1.990720886798e-04 5.107008468447e-03 0.0 
0.0 0.0 -7.380763454961e-04 
-1.448070308282e-03 4.493602178438e-04 0.0 
4.493602178438e-04 5.173305882684e-03 0.0 
0.0 0.0 -7.371174501546e-04 
-8.280494050984e-04 2.109474212237e-03 0.0 
2.109474212237e-03 3.158688487348e-03 0.0 
0.0 0.0 -8.774464902234e-04 
-1.113239206738e-03 -1.655283581889e-03 0.0 
-1.655283581889e-03 5.115282801902e-03 0.0 
0.0 0.0 -1.280756488215e-03 
3.008174076713e-04 2.119260517804e-03 0.0 
2.119260517804e-03 8.825314744810e-04 0.0 
0.0 0.0 -5.071495209224e-04 
-1.653413400617e-03 1.159238962241e-03 0.0 
1.159238962241e-03 4.683778627350e-03 0.0 
0.0 0.0 -7.557105610435e-04 
-1.547330050851e-03 3.671214089611e-05 0.0 
3.671214089611e-05 8.340609894927e-03 0.0 
0.0 0.0 -1.212858513926e-03 
3.049695683184e-04 2.191509382836e-03 0.0 
2.191509382836e-03 9.207765491606e-04 0.0 
0.0 0.0 -5.253197646338e-04 
1.207574275293e-03 -2.365696291912e-03 0.0 
-2.365696291912e-03 -7.132596237324e-04 0.0 
0.0 0.0 -2.118491363831e-04 
-1.445646034229e-03 2.633500934319e-04 0.0 
2.633500934319e-04 8.137788974429e-03 0.0 
0.0 0.0 -1.234743356787e-03 
1.908988241954e-04 -8.061125310431e-04 0.0 
-8.061125310431e-04 -1.579045808257e-05 0.0 
0.0 0.0 -7.504644261978e-05 
-1.740092141895e-03 6.147961927965e-04 0.0 
6.147961927965e-04 5.664008038323e-03 0.0 
0.0 0.0 -8.229436299569e-04 
-6.078592580179e-04 2.220023986171e-03 0.0 
2.220023986171e-03 2.788765867991e-03 0.0 
0.0 0.0 -9.296584868968e-04 
-8.623973456416e-04 -2.162048895284e-04 0.0 
-2.162048895284e-04 2.432076766193e-03 0.0 
0.0 0.0 -4.150917825895e-04 
2.292279279293e-03 -2.762669743217e-03 0.0 
-2.762669743217e-03 -9.405005062222e-04 0.0 
0.0 0.0 -5.793337598876e-04 
-6.898259874441e-04 2.091701766161e-03 0.0 
2.091701766161e-03 2.855891423984e-03 0.0 
0.0 0.0 -8.656335400463e-04 
-1.445100174427e-03 2.379194139466e-03 0.0 
2.379194139466e-03 7.706829156199e-03 0.0 
0.0 0.0 -1.282189168212e-03 
-9.586804568965e-04 -6.913799780171e-04 0.0 
-6.913799780171e-04 2.989840683449e-03 0.0 
0.0 0.0 -7.128710764410e-04 
-6.997308059935e-04 -2.320910788817e-04 0.0 
-2.320910788817e-04 2.233925226019e-03 0.0 
0.0 0.0 -5.951090654820e-04 
-2.130460140960e-03 -2.340494849444e-04 0.0 
-2.340494849444e-04 6.282260078053e-03 0.0 
0.0 0.0 -1.087734043503e-03 
1.076454852669e-04 -7.426368379909e-04 0.0 
-7.426368379909e-04 1.194913348537e-03 0.0 
0.0 0.0 -3.122055485762e-04 
-1.457512378927e-03 3.071898754378e-04 0.0 
3.071898754378e-04 8.560769857503e-03 0.0 
0.0 0.0 -1.285320035817e-03 
0.0 0.0 0.0 
0.0 0.0 0.0 
0.0 0.0 0.0 
-5.387044635243e-04 2.656482396914e-03 0.0 
2.656482396914e-03 4.203857407929e-03 0.0 
0.0 0.0 -1.210824713543e-03 
3.439414593790e-04 2.794168595655e-03 0.0 
2.794168595655e-03 1.235314347192e-03 0.0 
0.0 0.0 -6.768239171020e-04 
2.349935129578e-03 -2.770680198001e-03 0.0 
-2.770680198001e-03 -6.796113691984e-04 0.0 
0.0 0.0 -7.158530401625e-04 
-1.671429738175e-03 -1.210022446990e-03 0.0 
-1.210022446990e-03 6.777156017205e-03 0.0 
0.0 0.0 -1.257478522087e-03 
-5.278364963199e-04 2.118194625541e-03 0.0 
2.118194625541e-03 2.531471725177e-03 0.0 
0.0 0.0 -8.587008123673e-04 
0.0 0.0 0.0 
0.0 0.0 0.0 
0.0 0.0 0.0 
-1.493925828084e-03 3.040545355870e-03 0.0 
3.040545355870e-03 7.302395090943e-03 0.0 
0.0 0.0 -1.261660853087e-03 
4.867824217369e-04 -2.505859056628e-03 0.0 
-2.505859056628e-03 8.835287678333e-04 0.0 
0.0 0.0 -5.872762241015e-04 
-1.271990412820e-03 3.214687538356e-03 0.0 
3.214687538356e-03 6.250345422673e-03 0.0 
0.0 0.0 -1.282376455277e-03 
-1.831786578585e-03 -1.075910520083e-03 0.0 
-1.075910520083e-03 5.407233681497e-03 0.0 
0.0 0.0 -1.080053202689e-03 
-1.338499280800e-03 1.682976327997e-03 0.0 
1.682976327997e-03 8.399936015446e-03 0.0 
0.0 0.0 -1.338499280800e-03 
-9.312572041143e-04 2.894697176184e-03 0.0 
2.894697176184e-03 4.910832013066e-03 0.0 
0.0 0.0 -1.232909111256e-03 
1.433784453303e-03 -9.093882019497e-05 0.0 
-9.093882019497e-05 -5.456392549777e-05 0.0 
0.0 0.0 -2.878745769087e-04 
-9.147252279940e-04 -5.669281210358e-04 0.0 
-5.669281210358e-04 2.973437083954e-03 0.0 
0.0 0.0 -8.116687730804e-04 
-1.536993954654e-03 1.126957410002e-03 0.0 
1.126957410002e-03 8.303326713538e-03 0.0 
0.0 0.0 -1.262626981217e-03 
-1.574019976009e-03 2.576738749078e-03 0.0 
2.576738749078e-03 7.875617774672e-03 0.0 
0.0 0.0 -1.265352048664e-03 
4.720058723338e-04 2.134723574062e-03 0.0 
2.134723574062e-03 6.830651359346e-04 0.0 
0.0 0.0 -4.950304321150e-04 
-3.200456338227e-04 -3.352696368382e-04 0.0 
-3.352696368382e-04 1.110105412521e-03 0.0 
0.0 0.0 -3.374836250442e-04 
5.206675697946e-04 2.217090668705e-03 0.0 
2.217090668705e-03 6.763455683265e-04 0.0 
0.0 0.0 -5.130056306233e-04 
4.804782057485e-04 -2.508358039830e-03 0.0 
-2.508358039830e-03 8.916054330170e-04 0.0 
0.0 0.0 -5.880358451852e-04 
-1.625607394925e-03 4.831506481737e-04 0.0 
4.831506481737e-04 5.291976980867e-03 0.0 
0.0 0.0 -7.918363975426e-04 
-2.908848742719e-04 2.252062443166e-03 0.0 
2.252062443166e-03 2.033636756898e-03 0.0 
0.0 0.0 -7.468936639825e-04 
-2.599695243754e-04 1.891700121758e-03 0.0 
1.891700121758e-03 1.743771242898e-03 0.0 
0.0 0.0 -6.359150222241e-04 
-1.678000531135e-03 1.594922248822e-04 0.0 
1.594922248822e-04 5.821879659601e-03 0.0 
0.0 0.0 -8.336771054075e-04 
-1.596383286677e-03 5.670740920774e-04 0.0 
5.670740920774e-04 5.789976808295e-03 0.0 
0.0 0.0 -8.358076868167e-04 
-1.951624680642e-03 -7.308270384445e-04 0.0 
-7.308270384445e-04 5.657668243585e-03 0.0 
0.0 0.0 -1.080533843704e-03 
-2.196082702137e-03 8.354918695911e-05 0.0 
8.354918695911e-05 6.184278536814e-03 0.0 
0.0 0.0 -1.059807920279e-03 
-1.525646772161e-03 2.625569910847e-03 0.0 
2.625569910847e-03 6.112973773832e-03 0.0 
0.0 0.0 -1.085941371602e-03 
-1.648645582224e-03 1.246285648401e-04 0.0 
1.246285648401e-04 5.489793155500e-03 0.0 
0.0 0.0 -7.983229688164e-04 
-1.123057724715e-05 -5.872900984588e-04 0.0 
-5.872900984588e-04 3.960725969021e-04 0.0 
0.0 0.0 -1.649322941379e-04 
-1.757846623502e-03 1.222419041867e-03 0.0 
1.222419041867e-03 5.122536551657e-03 0.0 
0.0 0.0 -7.928983479555e-04 
-1.578530100158e-03 5.920453420347e-05 0.0 
5.920453420347e-05 7.247400490716e-03 0.0 
0.0 0.0 -1.069439317440e-03 
-1.600676841679e-03 3.339381263473e-04 0.0 
3.339381263473e-04 7.321452075562e-03 0.0 
0.0 0.0 -1.046447409317e-03 
-1.502072334268e-03 1.832498170444e-03 0.0 
1.832498170444e-03 8.633609047693e-03 0.0 
0.0 0.0 -1.319970921405e-03 
-9.007094055422e-04 1.223013959388e-03 0.0 
1.223013959388e-03 4.725884480151e-03 0.0 
0.0 0.0 -1.294194962782e-03 
-1.674253522828e-03 4.484898109266e-04 0.0 
4.484898109266e-04 5.280548957068e-03 0.0 
0.0 0.0 -7.889745663688e-04 
-1.078149223135e-03 -1.912876176720e-03 0.0 
-1.912876176720e-03 5.515902141362e-03 0.0 
0.0 0.0 -1.263183913703e-03 
-1.546584036688e-03 -9.624953365827e-05 0.0 
-9.624953365827e-05 6.233353762451e-03 0.0 
0.0 0.0 -9.040008563810e-04 
1.411194399049e-04 2.915371637598e-03 0.0 
2.915371637598e-03 1.618838156256e-03 0.0 
0.0 0.0 -7.542675412120e-04 
-1.587713497171e-03 1.272120189302e-04 0.0 
1.272120189302e-04 5.375209747655e-03 0.0 
0.0 0.0 -7.643292725052e-04 
-1.604005809179e-03 -6.682657737697e-04 0.0 
-6.682657737697e-04 6.948639054056e-03 0.0 
0.0 0.0 -1.287517816355e-03 
3.542986660605e-04 2.115271012738e-03 0.0 
2.115271012738e-03 2.453989176071e-03 0.0 
0.0 0.0 -1.043751955586e-03 
-5.121197440995e-04 2.106847301720e-03 0.0 
2.106847301720e-03 4.264562002622e-03 0.0 
0.0 0.0 -1.209599240962e-03 
8.414669120651e-04 2.750323762399e-03 0.0 
2.750323762399e-03 6.433152604662e-04 0.0 
0.0 0.0 -6.363352167991e-04 
5.516999887664e-04 -2.796976242529e-03 0.0 
-2.796976242529e-03 1.148224010342e-04 0.0 
0.0 0.0 -2.856524527717e-04 
-1.904299824368e-03 -6.917450604687e-04 0.0 
-6.917450604687e-04 6.641778035438e-03 0.0 
0.0 0.0 -1.189902873528e-03 
-1.601708388107e-03 3.286250233117e-04 0.0 
3.286250233117e-04 7.722816405099e-03 0.0 
0.0 0.0 -1.108790581071e-03 
3.810766207412e-05 -6.205157488134e-04 0.0 
-6.205157488134e-04 -3.810766207412e-05 0.0 
0.0 0.0 0.0 
-1.434793545909e-03 -1.524718547292e-03 0.0 
-1.524718547292e-03 6.503522325473e-03 0.0 
0.0 0.0 -1.285127980003e-03 
-1.436465131336e-03 2.957908754166e-03 0.0 
2.957908754166e-03 5.615958785865e-03 0.0 
0.0 0.0 -1.051491716222e-03 
2.107685358584e-03 1.966346604052e-04 0.0 
1.966346604052e-04 -5.019158565474e-04 0.0 
0.0 0.0 -2.190510374322e-04 
1.208695653732e-03 2.926354061763e-03 0.0 
2.926354061763e-03 1.261066979529e-04 0.0 
0.0 0.0 -5.720581507223e-04 
-1.531499204645e-03 1.574438431832e-03 0.0 
1.574438431832e-03 4.499656748010e-03 0.0 
0.0 0.0 -7.914135736088e-04 
-9.815222315618e-04 -1.138374471426e-03 0.0 
-1.138374471426e-03 3.347141370850e-03 0.0 
0.0 0.0 -9.587991763485e-04 
2.655737035557e-04 2.419593458192e-03 0.0 
2.419593458192e-03 1.115288623384e-03 0.0 
0.0 0.0 -5.917981401168e-04 
3.744529332960e-04 2.946102748991e-03 0.0 
2.946102748991e-03 1.286129190467e-03 0.0 
0.0 0.0 -7.116780530414e-04 
-1.321847859093e-03 -1.772500593240e-03 0.0 
-1.772500593240e-03 5.826707907603e-03 0.0 
0.0 0.0 -1.283833066805e-03 
-1.525040410968e-03 2.578190730368e-04 0.0 
2.578190730368e-04 6.156621214154e-03 0.0 
0.0 0.0 -8.766975940251e-04 
5.363756903500e-04 2.629255494055e-03 0.0 
2.629255494055e-03 8.922896369145e-04 0.0 
0.0 0.0 -6.122851402562e-04 
1.683483209039e-04 -2.096310185990e-03 0.0 
-2.096310185990e-03 1.080312045122e-03 0.0 
0.0 0.0 -5.351401568681e-04 
-1.746303579404e-03 1.473532537081e-03 0.0 
1.473532537081e-03 5.178940412439e-03 0.0 
0.0 0.0 -7.744920945421e-04 
-1.517476482960e-03 1.097936493812e-04 0.0 
1.097936493812e-04 7.545801257606e-03 0.0 
0.0 0.0 -1.129288753466e-03 
5.838877050126e-04 2.764835075281e-03 0.0 
2.764835075281e-03 9.155423273699e-04 0.0 
0.0 0.0 -6.426128710211e-04 
3.893622582553e-04 1.575203385168e-03 0.0 
1.575203385168e-03 3.980592224466e-04 0.0 
0.0 0.0 -3.374663488723e-04 
-1.195366450636e-03 1.829833708586e-03 0.0 
1.829833708586e-03 3.827762851113e-03 0.0 
0.0 0.0 -8.233021825037e-04 
-1.094193203907e-03 -1.066143348073e-03 0.0 
-1.066143348073e-03 3.532112380788e-03 0.0 
0.0 0.0 -8.981558865158e-04 
-1.046482062160e-03 1.913988030913e-03 0.0 
1.913988030913e-03 3.510208918747e-03 0.0 
0.0 0.0 -8.113141688877e-04 
-1.442225258082e-03 1.605824937381e-03 0.0 
1.605824937381e-03 8.359073722744e-03 0.0 
0.0 0.0 -1.290671971449e-03 
1.101065632512e-03 2.933128537393e-03 0.0 
2.933128537393e-03 9.745442457706e-05 0.0 
0.0 0.0 -5.136514530381e-04 
-1.801548102835e-03 -7.282038970032e-04 0.0 
-7.282038970032e-04 5.288878918754e-03 0.0 
0.0 0.0 -1.060402641786e-03 
-1.486141105577e-03 5.585996661944e-04 0.0 
5.585996661944e-04 8.452622925900e-03 0.0 
0.0 0.0 -1.256690274141e-03 
-3.198454740031e-04 3.015481670953e-03 0.0 
3.015481670953e-03 2.568097898378e-03 0.0 
0.0 0.0 -9.635367533037e-04 
-1.021958554670e-03 1.956756434106e-03 0.0 
1.956756434106e-03 3.500404682426e-03 0.0 
0.0 0.0 -8.457158960689e-04 
-1.158957625686e-03 -1.674495574427e-03 0.0 
-1.674495574427e-03 5.533719249484e-03 0.0 
0.0 0.0 -1.254964138299e-03 
-1.718729624033e-03 -7.379037217155e-04 0.0 
-7.379037217155e-04 6.953664324138e-03 0.0 
0.0 0.0 -1.261070974318e-03 
-1.967620110819e-03 -6.331696876036e-04 0.0 
-6.331696876036e-04 5.669647458342e-03 0.0 
0.0 0.0 -1.061066130071e-03 
-6.061740370739e-04 3.049979969874e-03 0.0 
3.049979969874e-03 3.089302566165e-03 0.0 
0.0 0.0 -9.441827087005e-04 
-7.851765230129e-04 -1.170373150230e-03 0.0 
-1.170373150230e-03 4.916146318737e-03 0.0 
0.0 0.0 -1.270330610962e-03 
-5.043578746139e-04 2.747041251980e-03 0.0 
2.747041251980e-03 2.809200300211e-03 0.0 
0.0 0.0 -9.719555150774e-04 
-1.411040385942e-03 9.892815171228e-04 0.0 
9.892815171228e-04 8.317615504874e-03 0.0 
0.0 0.0 -1.283174495648e-03 
-1.289076372121e-03 3.481935391156e-03 0.0 
3.481935391156e-03 6.606253020577e-03 0.0 
0.0 0.0 -1.267437373369e-03 
-1.784736589840e-03 7.085096522011e-04 0.0 
7.085096522011e-04 5.733057783552e-03 0.0 
0.0 0.0 -8.543707170918e-04 
-1.586571893561e-03 5.026260166066e-04 0.0 
5.026260166066e-04 6.801986481939e-03 0.0 
0.0 0.0 -9.817831382938e-04 
-5.156399995053e-04 2.841155344974e-03 0.0 
2.841155344974e-03 2.858892473080e-03 0.0 
0.0 0.0 -9.645491798066e-04 
-8.623176927628e-04 1.998107917208e-03 0.0 
1.998107917208e-03 3.164246376073e-03 0.0 
0.0 0.0 -8.398345356346e-04 
-3.881715109885e-04 3.210536691478e-03 0.0 
3.210536691478e-03 2.805390491743e-03 0.0 
0.0 0.0 -1.009766620266e-03 
9.302504035183e-04 2.952397877038e-03 0.0 
2.952397877038e-03 6.425944529841e-04 0.0 
0.0 0.0 -6.740763670724e-04 
-1.542505755946e-03 1.216931962656e-05 0.0 
1.216931962656e-05 5.518918282905e-03 0.0 
0.0 0.0 -7.693993191400e-04 
1.440386328935e-03 3.141679147944e-03 0.0 
3.141679147944e-03 1.287757348394e-04 0.0 
0.0 0.0 -6.724980273319e-04 
1.173568897977e-04 -7.192653952147e-04 0.0 
-7.192653952147e-04 2.932653952173e-04 0.0 
0.0 0.0 -1.759809792922e-04 
-1.513364044801e-03 4.633102658988e-05 0.0 
4.633102658988e-05 5.921965621168e-03 0.0 
0.0 0.0 -8.171079392438e-04 
-4.255541535768e-04 -1.657123349734e-04 0.0 
-1.657123349734e-04 1.278602330907e-03 0.0 
0.0 0.0 -2.802839825148e-04 
-1.368206188634e-03 1.704449020245e-03 0.0 
1.704449020245e-03 4.168743630605e-03 0.0 
0.0 0.0 -8.053258742841e-04 
-1.010207907769e-03 -1.246817911064e-03 0.0 
-1.246817911064e-03 4.735746548095e-03 0.0 
0.0 0.0 -1.284796145094e-03 
7.390568671829e-04 2.553228098249e-03 0.0 
2.553228098249e-03 5.918003010214e-04 0.0 
0.0 0.0 -5.703673578019e-04 
-2.093082199977e-03 -2.605836003403e-04 0.0 
-2.605836003403e-04 5.949086090445e-03 0.0 
0.0 0.0 -1.062413871926e-03 
1.655520854684e-04 2.161371362285e-03 0.0 
2.161371362285e-03 1.103022204114e-03 0.0 
0.0 0.0 -5.436746955351e-04 
2.242015872536e-04 2.776975076431e-03 0.0 
2.776975076431e-03 2.408189383906e-03 0.0 
0.0 0.0 -1.044905595188e-03 
-1.509926535812e-03 9.806530388370e-05 0.0 
9.806530388370e-05 5.368363465218e-03 0.0 
0.0 0.0 -7.899655494116e-04 
1.682599579449e-03 2.941445331381e-03 0.0 
2.941445331381e-03 -2.715371857708e-04 0.0 
0.0 0.0 -6.047410258623e-04 
-2.057240178145e-03 -7.296543458156e-04 0.0 
-7.296543458156e-04 6.353419805029e-03 0.0 
0.0 0.0 -1.120963572432e-03 
7.939550842651e-05 -1.701837783695e-03 0.0 
-1.701837783695e-03 9.541700722220e-04 0.0 
0.0 0.0 -4.429566774208e-04 
-1.888286542342e-03 -4.078361496187e-04 0.0 
-4.078361496187e-04 6.637817436663e-03 0.0 
0.0 0.0 -1.189111243166e-03 
-1.407485654430e-03 2.291313923690e-03 0.0 
2.291313923690e-03 4.423118315057e-03 0.0 
0.0 0.0 -8.496092609019e-04 
-1.655956820216e-03 -1.430755689950e-03 0.0 
-1.430755689950e-03 6.808595235967e-03 0.0 
0.0 0.0 -1.265987209193e-03 
-1.479137566383e-03 6.125436213776e-05 0.0 
6.125436213776e-05 5.372221524286e-03 0.0 
0.0 0.0 -7.842605076999e-04 
1.138347058752e-03 2.740886700746e-03 0.0 
2.740886700746e-03 1.338850972854e-04 0.0 
0.0 0.0 -5.452423525874e-04 
-1.371065394049e-03 1.713545049238e-03 0.0 
1.713545049238e-03 4.152463321133e-03 0.0 
0.0 0.0 -7.801847948469e-04 
-1.782923268792e-03 -4.744584193542e-04 0.0 
-4.744584193542e-04 5.239530130494e-03 0.0 
0.0 0.0 -1.068702715777e-03 
1.574789883305e-04 2.145072666255e-03 0.0 
2.145072666255e-03 1.105288466408e-03 0.0 
0.0 0.0 -5.411860520308e-04 
1.917158204157e-03 2.902714119045e-03 0.0 
2.902714119045e-03 -2.818191306246e-04 0.0 
0.0 0.0 -7.008596029424e-04 
-1.624113157274e-03 6.876053139899e-05 0.0 
6.876053139899e-05 7.048361475913e-03 0.0 
0.0 0.0 -1.016465148841e-03 
-1.496185645618e-03 2.597795714976e-04 0.0 
2.597795714976e-04 5.580042956141e-03 0.0 
0.0 0.0 -7.680022369673e-04 
1.209193990119e-03 2.857448575399e-03 0.0 
2.857448575399e-03 6.945453600021e-05 0.0 
0.0 0.0 -5.479922254795e-04 
-1.208481437465e-03 1.793019710120e-03 0.0 
1.793019710120e-03 3.824789842828e-03 0.0 
0.0 0.0 -7.984459790235e-04 
-1.152184433486e-03 3.335097296693e-03 0.0 
3.335097296693e-03 5.424015752646e-03 0.0 
0.0 0.0 -1.136725521675e-03 
-1.147448492341e-03 -1.324005404889e-03 0.0 
-1.324005404889e-03 3.757906895843e-03 0.0 
0.0 0.0 -9.635001610743e-04 
-1.057040178935e-03 2.860292126594e-03 0.0 
2.860292126594e-03 5.175691718835e-03 0.0 
0.0 0.0 -1.285202198870e-03 
-1.235950081423e-03 3.387647794385e-03 0.0 
3.387647794385e-03 6.387700415222e-03 0.0 
0.0 0.0 -1.265486236287e-03 
9.281696803103e-05 2.658900655702e-03 0.0 
2.658900655702e-03 1.536267417270e-03 0.0 
0.0 0.0 -6.981790222718e-04 
-1.143109251794e-03 -9.968271358534e-04 0.0 
-9.968271358534e-04 3.727905850470e-03 0.0 
0.0 0.0 -9.933498913217e-04 
8.375618411644e-06 -4.309904929494e-04 0.0 
-4.309904929494e-04 3.045007785971e-03 0.0 
0.0 0.0 -1.152822474774e-03 
-6.877546197814e-04 2.505636337626e-03 0.0 
2.505636337626e-03 3.038701524841e-03 0.0 
0.0 0.0 -9.245708556394e-04 
1.703115487888e-04 2.091650289530e-03 0.0 
2.091650289530e-03 1.051916456575e-03 0.0 
0.0 0.0 -5.238120022987e-04 
-1.475392442541e-03 1.965496358724e-03 0.0 
1.965496358724e-03 4.467421796523e-03 0.0 
0.0 0.0 -8.137754052845e-04 
9.749921592096e-04 3.123149167265e-03 0.0 
3.123149167265e-03 7.036965901566e-04 0.0 
0.0 0.0 -7.194380354427e-04 
-1.431612767918e-03 8.458326217491e-04 0.0 
8.458326217491e-04 8.384155646033e-03 0.0 
0.0 0.0 -1.279059907835e-03 
-1.564281029058e-03 2.665406032541e-03 0.0 
2.665406032541e-03 6.081997352065e-03 0.0 
0.0 0.0 -1.060691896764e-03 
-1.994493389840e-03 -1.486147162618e-04 0.0 
-1.486147162618e-04 6.559276794178e-03 0.0 
0.0 0.0 -1.155968210243e-03 
4.093528604226e-04 2.208508467563e-03 0.0 
2.208508467563e-03 7.981291822907e-04 0.0 
0.0 0.0 -5.174923040200e-04 
2.334418016396e-03 2.579116851284e-03 0.0 
2.579116851284e-03 -5.999483228990e-04 0.0 
0.0 0.0 -7.433441543560e-04 
-1.484568773685e-03 2.868377484862e-03 0.0 
2.868377484862e-03 6.031945958818e-03 0.0 
0.0 0.0 -1.089453766084e-03 
0.0 0.0 0.0 
0.0 0.0 0.0 
0.0 0.0 0.0 
-6.877179378264e-04 2.407578529618e-03 0.0 
2.407578529618e-03 2.994584755227e-03 0.0 
0.0 0.0 -9.117638418509e-04 
1.701472924961e-04 -1.416553182353e-03 0.0 
-1.416553182353e-03 2.527445138619e-03 0.0 
0.0 0.0 -1.080675545910e-03 
7.614101656211e-04 -9.306526935755e-04 0.0 
-9.306526935755e-04 6.714955075901e-04 0.0 
0.0 0.0 -3.004177607877e-04 
-1.466695883915e-03 2.895664536321e-03 0.0 
2.895664536321e-03 7.498365973997e-03 0.0 
0.0 0.0 -1.257517519450e-03 
-1.714163728762e-03 1.976135659385e-03 0.0 
1.976135659385e-03 6.108584287411e-03 0.0 
0.0 0.0 -9.749624431058e-04 
4.925108656531e-04 -3.055158529449e-03 0.0 
-3.055158529449e-03 1.195571453177e-03 0.0 
0.0 0.0 -7.234638509273e-04 
2.687278214663e-04 -6.810653139458e-04 0.0 
-6.810653139458e-04 2.481884598028e-03 0.0 
0.0 0.0 -1.082135573043e-03 
-1.799351909415e-03 1.409259675503e-03 0.0 
1.409259675503e-03 5.578155389814e-03 0.0 
0.0 0.0 -8.259898420369e-04 
-1.801064707900e-03 1.064269352962e-03 0.0 
1.064269352962e-03 5.991738140388e-03 0.0 
0.0 0.0 -8.838609275114e-04 
-6.913788155710e-04 -1.227574140941e-03 0.0 
-1.227574140941e-03 4.246435019945e-03 0.0 
0.0 0.0 -1.237791025003e-03 
1.617016974438e-05 -2.476429670131e-03 0.0 
-2.476429670131e-03 1.553276678470e-03 0.0 
0.0 0.0 -6.726200778060e-04 
-1.931314796257e-04 3.392233640780e-03 0.0 
3.392233640780e-03 2.538226820427e-03 0.0 
0.0 0.0 -1.005040860343e-03 
-1.319730188756e-03 2.601972306617e-03 0.0 
2.601972306617e-03 4.340655659079e-03 0.0 
0.0 0.0 -8.816854262052e-04 
-1.791217628275e-03 1.648610109221e-03 0.0 
1.648610109221e-03 6.470941124492e-03 0.0 
0.0 0.0 -1.008548823165e-03 
-1.624650418518e-03 2.058268446018e-03 0.0 
2.058268446018e-03 4.841940123608e-03 0.0 
0.0 0.0 -8.379792476443e-04 
-1.489577849007e-03 1.897054155513e-03 0.0 
1.897054155513e-03 4.494677002446e-03 0.0 
0.0 0.0 -8.233332215064e-04 
9.144592983676e-04 2.103723640953e-03 0.0 
2.103723640953e-03 1.164621970286e-03 0.0 
0.0 0.0 -8.910348294228e-04 
-1.234709836901e-03 2.936622841749e-03 0.0 
2.936622841749e-03 5.525011386670e-03 0.0 
0.0 0.0 -1.105110859848e-03 
0.0 0.0 0.0 
0.0 0.0 0.0 
0.0 0.0 0.0 
5.533753092925e-05 2.321065575708e-03 0.0 
2.321065575708e-03 1.385026181291e-03 0.0 
0.0 0.0 -6.172987338087e-04 
9.775337925356e-05 2.647350784272e-03 0.0 
2.647350784272e-03 1.520581698043e-03 0.0 
0.0 0.0 -6.935721759841e-04 
-4.200121646643e-04 3.335963278249e-03 0.0 
3.335963278249e-03 2.868206010904e-03 0.0 
0.0 0.0 -9.575728814879e-04 
-1.648855317221e-03 2.317084043405e-03 0.0 
2.317084043405e-03 6.523041636329e-03 0.0 
0.0 0.0 -1.095076276885e-03 
2.058287304795e-03 2.313329836799e-03 0.0 
2.313329836799e-03 -1.214980310369e-03 0.0 
0.0 0.0 -3.614172833254e-04 
1.621278099486e-04 -1.894393997341e-03 0.0 
-1.894393997341e-03 2.355296152545e-03 0.0 
0.0 0.0 -1.043355442177e-03 
-1.517251520276e-03 -1.088769506638e-04 0.0 
-1.088769506638e-04 5.367725382565e-03 0.0 
0.0 0.0 -7.763349569542e-04 
2.071225716726e-03 2.817742222964e-03 0.0 
2.817742222964e-03 -5.830940965428e-04 0.0 
0.0 0.0 -6.377706943641e-04 
8.701785889744e-05 -2.378886716450e-03 0.0 
-2.378886716450e-03 2.268431335651e-03 0.0 
0.0 0.0 -1.006238978475e-03 
6.688501451719e-04 -8.570105726374e-04 0.0 
-8.570105726374e-04 2.508766139633e-04 0.0 
0.0 0.0 -2.227849532966e-04 
-1.684683593515e-03 2.138149817611e-03 0.0 
2.138149817611e-03 6.451465524737e-03 0.0 
0.0 0.0 -1.040010908530e-03 
1.085799585697e-03 -9.338136306232e-04 0.0 
-9.338136306232e-04 4.841625588176e-05 0.0 
0.0 0.0 -1.827119720807e-04 
1.032861128012e-04 -6.271925775052e-04 0.0 
-6.271925775052e-04 6.433353347809e-04 0.0 
0.0 0.0 -2.890002659678e-04 
4.284292636794e-04 2.188011980544e-03 0.0 
2.188011980544e-03 7.634628543711e-04 0.0 
0.0 0.0 -5.108109077359e-04 
5.217682496464e-06 -2.221552624950e-03 0.0 
-2.221552624950e-03 1.410136832977e-03 0.0 
0.0 0.0 -6.065805066316e-04 
-1.756426844714e-03 1.797081824779e-03 0.0 
1.797081824779e-03 6.815040634103e-03 0.0 
0.0 0.0 -1.073797489760e-03 
1.622101319788e-04 -2.264597495009e-03 0.0 
-2.264597495009e-03 1.173181540105e-03 0.0 
0.0 0.0 -5.723107166073e-04 
1.082074594484e-03 2.640607073619e-03 0.0 
2.640607073619e-03 2.626720583109e-04 0.0 
0.0 0.0 -5.763199940550e-04 
1.605964786137e-03 -3.583242349909e-03 0.0 
-3.583242349909e-03 -7.906667844752e-05 0.0 
0.0 0.0 -6.543849032956e-04 
-3.494454807525e-05 -1.610984925714e-03 0.0 
-1.610984925714e-03 1.099950761190e-03 0.0 
0.0 0.0 -4.564312341920e-04 
1.739023189570e-04 -2.645147422265e-04 0.0 
-2.645147422265e-04 2.696870324371e-03 0.0 
0.0 0.0 -1.117524173959e-03 
-1.429083730494e-03 2.211537082543e-03 0.0 
2.211537082543e-03 4.453302943283e-03 0.0 
0.0 0.0 -8.507820156577e-04 
-1.682802659426e-03 -8.879633472863e-04 0.0 
-8.879633472863e-04 6.796328964063e-03 0.0 
0.0 0.0 -1.256743614961e-03 
0.0 0.0 0.0 
0.0 0.0 0.0 
0.0 0.0 0.0 
1.341168508293e-03 2.860330611598e-03 0.0 
2.860330611598e-03 7.949426344501e-05 0.0 
0.0 0.0 -6.088554736019e-04 
2.068683241690e-03 2.743594093827e-03 0.0 
2.743594093827e-03 -6.076247593681e-04 0.0 
0.0 0.0 -6.261679209952e-04 
-4.650783933680e-04 2.487333802040e-03 0.0 
2.487333802040e-03 2.583809885183e-03 0.0 
0.0 0.0 -9.080277822064e-04 
3.082871487027e-04 -1.189402361213e-03 0.0 
-1.189402361213e-03 2.304624928689e-03 0.0 
0.0 0.0 -1.045235091131e-03 
-1.579554839483e-03 -1.394031692893e-03 0.0 
-1.394031692893e-03 6.678028948098e-03 0.0 
0.0 0.0 -1.275930989368e-03 
-1.684299046229e-03 2.211375405385e-03 0.0 
2.211375405385e-03 6.180161065170e-03 0.0 
0.0 0.0 -1.029499106509e-03 
2.603806802799e-03 2.336705660835e-03 0.0 
2.336705660835e-03 -7.411156882784e-04 0.0 
0.0 0.0 -7.982961919374e-04 
1.043592575535e-04 -8.852470439530e-04 0.0 
-8.852470439530e-04 2.718008520162e-03 0.0 
0.0 0.0 -1.116166892424e-03 
-1.922924089839e-03 -2.680134474821e-04 0.0 
-2.680134474821e-04 5.558845052998e-03 0.0 
0.0 0.0 -1.068822925414e-03 
-7.222094777076e-04 3.206300168432e-03 0.0 
3.206300168432e-03 3.349356457826e-03 0.0 
0.0 0.0 -9.235973587808e-04 
-1.677093997722e-03 2.220083154297e-03 0.0 
2.220083154297e-03 6.117933896180e-03 0.0 
0.0 0.0 -1.003200534345e-03 
-7.865873312168e-04 2.395249233040e-03 0.0 
2.395249233040e-03 4.693437656803e-03 0.0 
0.0 0.0 -1.239730878702e-03 
2.351260119446e-03 2.575200545511e-03 0.0 
2.575200545511e-03 -6.504486438349e-04 0.0 
0.0 0.0 -7.289192038335e-04 
9.551102574568e-04 2.654829682591e-03 0.0 
2.654829682591e-03 4.928673923672e-04 0.0 
0.0 0.0 -6.205618499245e-04 
-1.702788092325e-03 2.198389791733e-03 0.0 
2.198389791733e-03 5.173682012494e-03 0.0 
0.0 0.0 -8.662621843288e-04 
-1.465090691244e-03 1.772844143032e-03 0.0 
1.772844143032e-03 8.679771669805e-03 0.0 
0.0 0.0 -1.323568725688e-03 
-2.196076664333e-04 3.542355712652e-03 0.0 
3.542355712652e-03 2.609169075547e-03 0.0 
0.0 0.0 -9.604425725470e-04 
2.156116458846e-03 1.930277635860e-03 0.0 
1.930277635860e-03 -8.514533959833e-04 0.0 
0.0 0.0 -5.591413126556e-04 
-1.551301896676e-03 9.806982104899e-05 0.0 
9.806982104899e-05 6.010438701821e-03 0.0 
0.0 0.0 -8.293613651800e-04 
5.856186318512e-04 -2.658816906517e-03 0.0 
-2.658816906517e-03 8.548743103245e-04 0.0 
0.0 0.0 -6.173541180753e-04 
-1.598852307231e-03 2.167741205054e-03 0.0 
2.167741205054e-03 4.803959338789e-03 0.0 
0.0 0.0 -8.353017157004e-04 
2.274495282906e-03 2.779935450298e-03 0.0 
2.779935450298e-03 -7.589577722122e-04 0.0 
0.0 0.0 -6.495160760114e-04 
2.298330951285e-03 2.091471460167e-03 0.0 
2.091471460167e-03 -1.204105301713e-03 0.0 
0.0 0.0 -4.689538498166e-04 
2.194832401766e-03 -2.977249775004e-03 0.0 
-2.977249775004e-03 -1.184035248941e-03 0.0 
0.0 0.0 -4.331987797821e-04 
-1.681597496447e-03 2.058302471615e-03 0.0 
2.058302471615e-03 6.767260745606e-03 0.0 
0.0 0.0 -1.075985979751e-03 
-1.563333733845e-03 2.379244648904e-03 0.0 
2.379244648904e-03 4.793451180047e-03 0.0 
0.0 0.0 -8.585603458244e-04 
7.771067329277e-04 2.601388271392e-03 0.0 
2.601388271392e-03 5.653213737160e-04 0.0 
0.0 0.0 -5.753263314187e-04 
-1.744996038836e-03 1.710273158382e-03 0.0 
1.710273158382e-03 7.117718959599e-03 0.0 
0.0 0.0 -1.109763131677e-03 
-1.606390224900e-03 2.419672085247e-03 0.0 
2.419672085247e-03 6.148327333334e-03 0.0 
0.0 0.0 -1.057773507355e-03 
-9.992751282894e-04 3.042009890222e-03 0.0 
3.042009890222e-03 3.819168416919e-03 0.0 
0.0 0.0 -9.009204134091e-04 
-1.375955048470e-03 -1.683400062222e-03 0.0 
-1.683400062222e-03 6.152421885777e-03 0.0 
0.0 0.0 -1.288412101370e-03 
1.944327134549e-03 1.768812360803e-03 0.0 
1.768812360803e-03 -8.136324325899e-04 0.0 
0.0 0.0 -4.845834436969e-04 
-1.254552424136e-03 2.860314366234e-03 0.0 
2.860314366234e-03 4.275922517579e-03 0.0 
0.0 0.0 -8.847105569873e-04 
9.718205800213e-04 3.231436175948e-03 0.0 
3.231436175948e-03 7.715228841926e-04 0.0 
0.0 0.0 -7.471471989488e-04 
1.727666947234e-03 1.978971680572e-03 0.0 
1.978971680572e-03 -4.287431573860e-04 0.0 
0.0 0.0 -5.566816242204e-04 
2.636933750934e-03 1.964049691199e-03 0.0 
1.964049691199e-03 -1.267164226969e-03 0.0 
0.0 0.0 -5.870440816995e-04 
-1.756261579278e-03 1.027223545009e-03 0.0 
1.027223545009e-03 5.150592098184e-03 0.0 
0.0 0.0 -7.898058234521e-04 
2.669142654027e-03 2.047008583083e-03 0.0 
2.047008583083e-03 -9.582484116816e-04 0.0 
0.0 0.0 -7.332403895767e-04 
2.689606729154e-03 -1.689602510838e-03 0.0 
-1.689602510838e-03 -1.205625742808e-03 0.0 
0.0 0.0 -6.359918512911e-04 
-1.629595190705e-03 2.449686769187e-03 0.0 
2.449686769187e-03 6.117601231972e-03 0.0 
0.0 0.0 -1.032318248600e-03 
0.0 0.0 0.0 
0.0 0.0 0.0 
0.0 0.0 0.0 
-1.769475386321e-03 1.897454184282e-03 0.0 
1.897454184282e-03 5.196794091963e-03 0.0 
0.0 0.0 -8.386390795737e-04 
2.679831450569e-03 2.298078295471e-03 0.0 
2.298078295471e-03 -1.117110075304e-03 0.0 
0.0 0.0 -6.697377322564e-04 
1.525405513799e-03 2.895304825734e-03 0.0 
2.895304825734e-03 1.054559655311e-04 0.0 
0.0 0.0 -6.989406339984e-04 
2.631491351563e-03 9.404993485972e-04 0.0 
9.404993485972e-04 -1.150887457296e-03 0.0 
0.0 0.0 -6.345445261146e-04 
-1.595995973144e-03 2.618038279511e-03 0.0 
2.618038279511e-03 5.071323653385e-03 0.0 
0.0 0.0 -8.965110541436e-04 
1.511841627677e-04 -1.773057166612e-03 0.0 
-1.773057166612e-03 8.535234281834e-04 0.0 
0.0 0.0 -3.901044503889e-04 
-9.397222903951e-05 2.775799572976e-03 0.0 
2.775799572976e-03 1.950195750929e-03 0.0 
0.0 0.0 -7.955243665241e-04 
1.510533742235e-03 1.893368219128e-03 0.0 
1.893368219128e-03 -3.333023352098e-04 0.0 
0.0 0.0 -5.045277458679e-04 
-1.529633938128e-03 2.472556152499e-03 0.0 
2.472556152499e-03 4.747231259560e-03 0.0 
0.0 0.0 -8.651285257930e-04 
-1.800570073848e-03 1.187623183650e-03 0.0 
1.187623183650e-03 5.684872286068e-03 0.0 
0.0 0.0 -8.301023967811e-04 
9.558821828944e-04 1.012922103067e-03 0.0 
1.012922103067e-03 -8.983468077863e-04 0.0 
0.0 0.0 -2.465801790349e-05 
2.929345942082e-03 -7.362875197769e-04 0.0 
-7.362875197769e-04 -1.325012703078e-03 0.0 
0.0 0.0 -6.875713881444e-04 
2.465820499106e-03 -2.486373233668e-03 0.0 
-2.486373233668e-03 -9.885187097241e-04 0.0 
0.0 0.0 -6.331293383067e-04 
-1.000270138248e-04 2.665501899130e-03 0.0 
2.665501899130e-03 1.891739969722e-03 0.0 
0.0 0.0 -7.678769810987e-04 
-1.745645462288e-03 1.969965136157e-03 0.0 
1.969965136157e-03 6.177510406470e-03 0.0 
0.0 0.0 -1.000663671924e-03 
-6.743676206496e-05 2.958894746749e-03 0.0 
2.958894746749e-03 2.016036742517e-03 0.0 
0.0 0.0 -8.351142773366e-04 
2.740866472437e-03 2.036102310260e-03 0.0 
2.036102310260e-03 -1.186449683482e-03 0.0 
0.0 0.0 -6.661786238380e-04 
2.465496107494e-03 2.525824601176e-03 0.0 
2.525824601176e-03 -9.322172367962e-04 0.0 
0.0 0.0 -6.571195160133e-04 
1.273787981714e-03 8.615297331710e-04 0.0 
8.615297331710e-04 -7.497623681705e-04 0.0 
0.0 0.0 -2.245824058045e-04 
1.142131131016e-03 2.936542087170e-03 0.0 
2.936542087170e-03 2.802751358821e-04 0.0 
0.0 0.0 -6.096026858133e-04 
8.727535464249e-04 2.453256376776e-03 0.0 
2.453256376776e-03 4.670237874706e-04 0.0 
0.0 0.0 -5.741902859552e-04 
-1.475760748405e-03 2.695142501196e-03 0.0 
2.695142501196e-03 8.197923622284e-03 0.0 
0.0 0.0 -1.321446319728e-03 
-1.492107186378e-03 3.030650340964e-03 0.0 
3.030650340964e-03 7.905007360297e-03 0.0 
0.0 0.0 -1.318029376683e-03 
-1.178085073701e-05 3.500120593452e-03 0.0 
3.500120593452e-03 2.258084084144e-03 0.0 
0.0 0.0 -9.627013857460e-04 
2.548877331085e-03 2.529452683065e-03 0.0 
2.529452683065e-03 -1.024625724028e-03 0.0 
0.0 0.0 -6.532506887387e-04 
1.850654072594e-03 2.843628912083e-03 0.0 
2.843628912083e-03 -1.310735320691e-04 0.0 
0.0 0.0 -7.369630887965e-04 
-1.088841516862e-03 3.167027765780e-03 0.0 
3.167027765780e-03 4.070335559596e-03 0.0 
0.0 0.0 -9.333628341409e-04 
2.340427504556e-03 2.434956062557e-03 0.0 
2.434956062557e-03 -5.727957500432e-04 0.0 
0.0 0.0 -7.575564662197e-04 
2.682095355776e-03 -1.550453496673e-03 0.0 
-1.550453496673e-03 -1.096738406614e-03 0.0 
0.0 0.0 -6.794386924979e-04 
-6.843102871119e-04 3.138323977980e-03 0.0 
3.138323977980e-03 3.288670793621e-03 0.0 
0.0 0.0 -9.652881140700e-04 
-1.560571318974e-03 1.068024078019e-03 0.0 
1.068024078019e-03 8.561491499252e-03 0.0 
0.0 0.0 -1.266640259566e-03 
2.402271625794e-03 2.610626999267e-03 0.0 
2.610626999267e-03 -8.722989033853e-04 0.0 
0.0 0.0 -6.557025953181e-04 
6.813860835502e-04 2.812347985425e-03 0.0 
2.812347985425e-03 1.059490988612e-03 0.0 
0.0 0.0 -7.460901737839e-04 
1.236363456041e-03 2.703241249809e-03 0.0 
2.703241249809e-03 7.838624202409e-05 0.0 
0.0 0.0 -5.634641563138e-04 
-9.652389989341e-04 -6.720183629338e-04 0.0 
-6.720183629338e-04 5.271242622276e-03 0.0 
0.0 0.0 -1.322863172658e-03 
2.098067576592e-03 2.923737740925e-03 0.0 
2.923737740925e-03 -6.205768400508e-04 0.0 
0.0 0.0 -6.332103156605e-04 
-5.055876985533e-04 3.367364034790e-03 0.0 
3.367364034790e-03 3.063510178626e-03 0.0 
0.0 0.0 -9.919420460789e-04 
1.879903345484e-03 1.255087970799e-03 0.0 
1.255087970799e-03 -1.207356077200e-03 0.0 
0.0 0.0 -2.882345435504e-04 
1.114970489587e-03 -6.571475029199e-04 0.0 
-6.571475029199e-04 3.550721468189e-04 0.0 
0.0 0.0 -6.300182727452e-04 
2.369471702773e-03 2.352310472614e-03 0.0 
2.352310472614e-03 -9.003050297678e-04 0.0 
0.0 0.0 -6.296428598595e-04 
2.511210871122e-03 -2.213592529972e-03 0.0 
-2.213592529972e-03 -7.926901794877e-04 0.0 
0.0 0.0 -7.365088678434e-04 
-1.351376459572e-03 2.550480813182e-03 0.0 
2.550480813182e-03 4.385207787700e-03 0.0 
0.0 0.0 -8.710486452961e-04 
-1.397658873592e-03 3.467085405935e-03 0.0 
3.467085405935e-03 7.331557043367e-03 0.0 
0.0 0.0 -1.324865334549e-03 
2.762976518654e-03 2.129275318385e-03 0.0 
2.129275318385e-03 -1.188719051590e-03 0.0 
0.0 0.0 -6.746817715991e-04 
1.650992187785e-03 1.271809720393e-03 0.0 
1.271809720393e-03 -3.513789338484e-04 0.0 
0.0 0.0 -5.569771088299e-04 
1.383242402169e-03 2.669272504238e-03 0.0 
2.669272504238e-03 1.108605796806e-04 0.0 
0.0 0.0 -6.403298493639e-04 
-1.712702943967e-03 1.199021659258e-03 0.0 
1.199021659258e-03 6.429834953111e-03 0.0 
0.0 0.0 -9.576894438039e-04 
2.851085176734e-04 -1.709536430844e-03 0.0 
-1.709536430844e-03 2.195876444368e-03 0.0 
0.0 0.0 -1.008345180213e-03 
7.579314461175e-04 2.705809604616e-03 0.0 
2.705809604616e-03 6.993839864940e-04 0.0 
0.0 0.0 -6.245637568335e-04 
-1.777734376668e-03 7.086825961679e-04 0.0 
7.086825961679e-04 6.354608604567e-03 0.0 
0.0 0.0 -9.257128893455e-04 
-1.277191206466e-03 3.589282529004e-03 0.0 
3.589282529004e-03 6.665823351058e-03 0.0 
0.0 0.0 -1.322580803729e-03 
1.403185707489e-06 -1.439264409054e-03 0.0 
-1.439264409054e-03 2.848558759865e-03 0.0 
0.0 0.0 -1.075861678316e-03 
-1.430658668499e-03 3.358596416292e-03 0.0 
3.358596416292e-03 7.549163922134e-03 0.0 
0.0 0.0 -1.322091174222e-03 
-1.793445118784e-03 9.356262614995e-04 0.0 
9.356262614995e-04 6.204769543778e-03 0.0 
0.0 0.0 -9.196498359204e-04 
-1.442068331431e-03 2.746821175537e-03 0.0 
2.746821175537e-03 5.682562585269e-03 0.0 
0.0 0.0 -1.048263655743e-03 
5.998084775859e-04 2.508005665207e-03 0.0 
2.508005665207e-03 7.531788584781e-04 0.0 
0.0 0.0 -5.798517154560e-04 
-1.223045542115e-03 2.387086346015e-03 0.0 
2.387086346015e-03 4.064515837256e-03 0.0 
0.0 0.0 -8.681697709544e-04 
-1.209389184573e-03 2.902758957536e-03 0.0 
2.902758957536e-03 4.217242041572e-03 0.0 
0.0 0.0 -9.102795160361e-04 
-1.488840206319e-03 2.679198250696e-03 0.0 
2.679198250696e-03 4.716368235080e-03 0.0 
0.0 0.0 -8.732807453983e-04 
1.119499660130e-04 3.567291341735e-03 0.0 
3.567291341735e-03 2.082472498151e-03 0.0 
0.0 0.0 -9.404667703562e-04 
-1.189299144518e-03 3.334584496646e-03 0.0 
3.334584496646e-03 6.217817091132e-03 0.0 
0.0 0.0 -1.322334986692e-03 
-1.743738005580e-03 1.571409251216e-03 0.0 
1.571409251216e-03 5.783273679231e-03 0.0 
0.0 0.0 -8.810748613436e-04 
-1.668503733379e-03 1.747174983457e-03 0.0 
1.747174983457e-03 4.858766838357e-03 0.0 
0.0 0.0 -8.123974380148e-04 
2.689502468919e-03 2.075432867186e-03 0.0 
2.075432867186e-03 -9.257907609435e-04 0.0 
0.0 0.0 -7.558764462751e-04 
-2.431074983303e-05 -1.913003925140e-03 0.0 
-1.913003925140e-03 1.267148434552e-03 0.0 
0.0 0.0 -5.326447220222e-04 
-1.300250353668e-03 2.028546891134e-03 0.0 
2.028546891134e-03 4.120204910714e-03 0.0 
0.0 0.0 -8.415228793236e-04 
1.029960534553e-03 2.697834854064e-03 0.0 
2.697834854064e-03 2.742713854926e-04 0.0 
0.0 0.0 -5.589565371624e-04 
-1.478386704748e-03 4.206789908739e-05 0.0 
4.206789908739e-05 5.616715806328e-03 0.0 
0.0 0.0 -7.696142143080e-04 
2.082223251132e-03 -2.739881630323e-03 0.0 
-2.739881630323e-03 -6.915223042800e-04 0.0 
0.0 0.0 -5.960146915079e-04 
2.687145576905e-03 2.150944824992e-03 0.0 
2.150944824992e-03 -8.619858571997e-04 0.0 
0.0 0.0 -7.822113084450e-04 
-1.642192723937e-03 2.370627921536e-03 0.0 
2.370627921536e-03 6.463774212935e-03 0.0 
0.0 0.0 -1.069052450572e-03 
1.210732016110e-03 2.901093481449e-03 0.0 
2.901093481449e-03 3.403089247521e-04 0.0 
0.0 0.0 -6.647318317980e-04 
-1.090838761359e-03 2.744646813510e-03 0.0 
2.744646813510e-03 3.916911857046e-03 0.0 
0.0 0.0 -9.030726692333e-04 
1.373131851669e-03 1.385595291722e-03 0.0 
1.385595291722e-03 -2.069114301952e-04 0.0 
0.0 0.0 -4.998087520603e-04 
5.484712090762e-04 -3.075676285272e-03 0.0 
-3.075676285272e-03 1.137788810983e-03 0.0 
0.0 0.0 -7.226828657397e-04 
-1.016387097360e-03 2.517297286892e-03 0.0 
2.517297286892e-03 5.594754578216e-03 0.0 
0.0 0.0 -1.324762665914e-03 
-9.072903591933e-04 2.355207703591e-03 0.0 
2.355207703591e-03 3.405907050817e-03 0.0 
0.0 0.0 -8.881387192877e-04 
2.946142820410e-03 1.617684650386e-04 0.0 
1.617684650386e-04 -1.452636572549e-03 0.0 
0.0 0.0 -6.400741062262e-04 
6.309307785542e-04 -2.673296576986e-03 0.0 
-2.673296576986e-03 8.118285156915e-04 0.0 
0.0 0.0 -6.183254118196e-04 
2.654857369397e-04 2.566176722282e-03 0.0 
2.566176722282e-03 1.206224560431e-03 0.0 
0.0 0.0 -6.307329845874e-04 
6.292944620548e-04 2.356029893105e-03 0.0 
2.356029893105e-03 6.393485700988e-04 0.0 
0.0 0.0 -5.437041566372e-04 
-1.573343830476e-03 2.521088319541e-03 0.0 
2.521088319541e-03 6.487888532466e-03 0.0 
0.0 0.0 -1.123886314723e-03 
-8.643744592464e-04 3.301393799564e-03 0.0 
3.301393799564e-03 3.642299074364e-03 0.0 
0.0 0.0 -9.055216267950e-04 
-4.630807398905e-04 2.550759047776e-03 0.0 
2.550759047776e-03 2.616100997212e-03 0.0 
0.0 0.0 -9.227229674235e-04 
-9.883417377340e-04 2.554278731018e-03 0.0 
2.554278731018e-03 3.636783780997e-03 0.0 
0.0 0.0 -8.916891917129e-04 
-9.188251607234e-04 7.915048635257e-04 0.0 
7.915048635257e-04 5.164894119245e-03 0.0 
0.0 0.0 -1.320675234999e-03 
-5.234519663279e-04 8.018217957374e-04 0.0 
8.018217957374e-04 4.358356351167e-03 0.0 
0.0 0.0 -1.258064670439e-03 
-1.519847497081e-03 2.784288839478e-03 0.0 
2.784288839478e-03 6.420730520918e-03 0.0 
0.0 0.0 -1.126590436115e-03 
-1.758421539440e-03 1.881967215149e-03 0.0 
1.881967215149e-03 6.509172932200e-03 0.0 
0.0 0.0 -1.037522200811e-03 
7.328240466091e-04 -2.682401726123e-03 0.0 
-2.682401726123e-03 7.115913620792e-04 0.0 
0.0 0.0 -6.190351751521e-04 
1.760096404852e-04 3.185483329578e-03 0.0 
3.185483329578e-03 1.733233248228e-03 0.0 
0.0 0.0 -8.182469523055e-04 
2.700024770010e-03 1.747528214601e-03 0.0 
1.747528214601e-03 -9.576266826323e-04 0.0 
0.0 0.0 -7.467420374474e-04 
2.935361494200e-03 1.596241168019e-03 0.0 
1.596241168019e-03 -1.073012164550e-03 0.0 
0.0 0.0 -7.981497127072e-04 
-5.548455542571e-04 3.454533405249e-03 0.0 
3.454533405249e-03 3.132006875912e-03 0.0 
0.0 0.0 -9.270064166112e-04 
1.279127165458e-03 -9.870557535994e-04 0.0 
-9.870557535994e-04 -3.854326390960e-05 0.0 
0.0 0.0 -5.316788149495e-04 
-4.227815079073e-04 -2.784371059583e-03 0.0 
-2.784371059583e-03 2.659310912429e-03 0.0 
0.0 0.0 -9.585126019377e-04 
-1.599277265462e-03 2.517332469059e-03 0.0 
2.517332469059e-03 6.812542085539e-03 0.0 
0.0 0.0 -1.134236807130e-03 
2.838543821024e-03 -9.388703813827e-04 0.0 
-9.388703813827e-04 -1.339013732820e-03 0.0 
0.0 0.0 -6.426557520871e-04 
4.165970448057e-04 3.486050932692e-03 0.0 
3.486050932692e-03 1.558675942698e-03 0.0 
0.0 0.0 -8.465455660731e-04 
-9.570428297717e-04 3.028568391790e-03 0.0 
3.028568391790e-03 3.758744006407e-03 0.0 
0.0 0.0 -9.331417602438e-04 
4.382192218767e-04 3.304842555304e-03 0.0 
3.304842555304e-03 1.417845423766e-03 0.0 
0.0 0.0 -7.954562767040e-04 
-1.443236035943e-03 3.221098478814e-03 0.0 
3.221098478814e-03 7.736365815094e-03 0.0 
0.0 0.0 -1.320088186226e-03 
-1.483693740833e-03 2.932428243371e-03 0.0 
2.932428243371e-03 8.049345893719e-03 0.0 
0.0 0.0 -1.318462653075e-03 
-1.548932721531e-03 2.525807133433e-03 0.0 
2.525807133433e-03 7.540510939249e-03 0.0 
0.0 0.0 -1.256494544188e-03 
5.199835747165e-04 -2.886590158864e-03 0.0 
-2.886590158864e-03 1.061442334883e-03 0.0 
0.0 0.0 -6.777539612569e-04 
-1.663138327388e-03 1.991577787862e-03 0.0 
1.991577787862e-03 7.067165816428e-03 0.0 
0.0 0.0 -1.112065035246e-03 
8.530770766536e-04 2.505748462956e-03 0.0 
2.505748462956e-03 4.288710739428e-04 0.0 
0.0 0.0 -5.494063502556e-04 
2.976026969438e-03 1.471613804293e-03 0.0 
1.471613804293e-03 -1.145802400427e-03 0.0 
0.0 0.0 -7.843819581477e-04 
2.176227096681e-03 9.823823306462e-04 0.0 
9.823823306462e-04 -1.042597419615e-03 0.0 
0.0 0.0 -4.858412901716e-04 
-2.813268701102e-04 2.910442502919e-03 0.0 
2.910442502919e-03 2.419195128745e-03 0.0 
0.0 0.0 -9.162292537005e-04 
-1.720195429854e-03 7.985877951349e-04 0.0 
7.985877951349e-04 5.205169340213e-03 0.0 
0.0 0.0 -7.914980036671e-04 
-1.719905413863e-03 1.237364143320e-03 0.0 
1.237364143320e-03 6.165155044144e-03 0.0 
0.0 0.0 -9.214502702889e-04 
-6.210179595173e-04 -4.728660276610e-04 0.0 
-4.728660276610e-04 4.588006840987e-03 0.0 
0.0 0.0 -1.265403586923e-03 
-1.395878555712e-03 3.050861695832e-03 0.0 
3.050861695832e-03 5.954496201824e-03 0.0 
0.0 0.0 -1.117224974728e-03 
-1.665465805844e-03 2.334336493253e-03 0.0 
2.334336493253e-03 5.128095132681e-03 0.0 
0.0 0.0 -8.687609488834e-04 
-1.346991783092e-03 3.039323733030e-03 0.0 
3.039323733030e-03 4.548648496957e-03 0.0 
0.0 0.0 -9.141259787764e-04 
2.498396854009e-03 1.198516088911e-03 0.0 
1.198516088911e-03 -1.399925765526e-03 0.0 
0.0 0.0 -4.707733236356e-04 
1.968831457284e-04 -1.841720632066e-03 0.0 
-1.841720632066e-03 8.576900148433e-04 0.0 
0.0 0.0 -4.519599259593e-04 
1.596184388708e-03 2.912527136814e-03 0.0 
2.912527136814e-03 -2.859190939001e-04 0.0 
0.0 0.0 -5.615422692032e-04 
3.342051080177e-04 3.634224831363e-03 0.0 
3.634224831363e-03 1.769838707620e-03 0.0 
0.0 0.0 -9.017330638447e-04 
1.350991084574e-03 3.130179827696e-03 0.0 
3.130179827696e-03 2.729672728852e-04 0.0 
0.0 0.0 -6.959821531966e-04 
5.181840272176e-04 1.740426048580e-03 0.0 
1.740426048580e-03 4.204450595975e-04 0.0 
0.0 0.0 -4.022696086350e-04 
-1.537623298193e-03 1.946789295788e-04 0.0 
1.946789295788e-04 5.729068901156e-03 0.0 
0.0 0.0 -8.462285223656e-04 
1.561759615532e-04 -2.189651726713e-03 0.0 
-2.189651726713e-03 1.146850025796e-03 0.0 
0.0 0.0 -5.584397088639e-04 
1.820241129970e-03 2.972056139581e-03 0.0 
2.972056139581e-03 -3.351854464419e-04 0.0 
0.0 0.0 -6.364524357979e-04 
-1.341153861134e-03 -4.057244270456e-04 0.0 
-4.057244270456e-04 4.982459086358e-03 0.0 
0.0 0.0 -1.341153861134e-03 
9.256271036625e-04 1.500053370618e-03 0.0 
1.500053370618e-03 1.273019829082e-03 0.0 
0.0 0.0 -9.422772568906e-04 
-1.647307264160e-03 1.862922357847e-03 0.0 
1.862922357847e-03 4.824359254377e-03 0.0 
0.0 0.0 -8.054468608743e-04 
2.951539872400e-04 -9.116816188897e-05 0.0 
-9.116816188897e-05 1.187821972232e-03 0.0 
0.0 0.0 -3.103042898065e-04 
7.971140923123e-05 3.343947047482e-03 0.0 
3.343947047482e-03 1.995422628245e-03 0.0 
0.0 0.0 -8.893431589182e-04 
1.873943254827e-03 2.954249127679e-03 0.0 
2.954249127679e-03 -3.006422023954e-04 0.0 
0.0 0.0 -6.742718796133e-04 
-1.609808059559e-03 2.466698786463e-03 0.0 
2.466698786463e-03 5.115271177997e-03 0.0 
0.0 0.0 -8.940630110298e-04 
-1.355176868643e-03 3.602829940139e-03 0.0 
3.602829940139e-03 7.115897601981e-03 0.0 
0.0 0.0 -1.323832587333e-03 
-1.204260933556e-03 2.429327504665e-03 0.0 
2.429327504665e-03 4.034179858945e-03 0.0 
0.0 0.0 -8.669777983973e-04 
-1.147063666963e-03 3.130382852526e-03 0.0 
3.130382852526e-03 4.139734973133e-03 0.0 
0.0 0.0 -8.917420716958e-04 
-4.014841504774e-04 -2.920877032072e-03 0.0 
-2.920877032072e-03 2.692647303736e-03 0.0 
0.0 0.0 -9.819270656821e-04 
-1.644216929044e-03 2.295172595936e-03 0.0 
2.295172595936e-03 6.800207970354e-03 0.0 
0.0 0.0 -1.105258581891e-03 
2.154052283226e-04 -3.118779152528e-03 0.0 
-3.118779152528e-03 1.628210503259e-03 0.0 
0.0 0.0 -7.901210278208e-04 
-1.316497550801e-03 3.592083674646e-03 0.0 
3.592083674646e-03 6.907418394644e-03 0.0 
0.0 0.0 -1.322174839672e-03 
-1.340103718614e-03 3.152086803121e-03 0.0 
3.152086803121e-03 7.377926064128e-03 0.0 
0.0 0.0 -1.340103718614e-03 
-1.341028575724e-03 2.465513317577e-03 0.0 
2.465513317577e-03 8.006817596930e-03 0.0 
0.0 0.0 -1.341028575724e-03 
-1.338044909071e-03 2.820900205836e-03 0.0 
2.820900205836e-03 7.687427743330e-03 0.0 
0.0 0.0 -1.338044909071e-03 
-1.502118998928e-03 2.871852761975e-03 0.0 
2.871852761975e-03 4.986656915824e-03 0.0 
0.0 0.0 -9.244680137507e-04 
-1.717961893973e-03 2.025609505479e-03 0.0 
2.025609505479e-03 6.849693926195e-03 0.0 
0.0 0.0 -1.103002250422e-03 
-1.441498127645e-03 2.997575274703e-03 0.0 
2.997575274703e-03 6.385826432379e-03 0.0 
0.0 0.0 -1.155914796392e-03 
3.567381933021e-04 2.998203481649e-03 0.0 
2.998203481649e-03 1.342739046541e-03 0.0 
0.0 0.0 -7.283473885043e-04 
1.335922643098e-04 2.946545576970e-03 0.0 
2.946545576970e-03 1.651048719616e-03 0.0 
0.0 0.0 -7.648461359682e-04 
-5.579616973433e-04 -2.537817501247e-03 0.0 
-2.537817501247e-03 2.842838828880e-03 0.0 
0.0 0.0 -9.792330563728e-04 
-1.668326353393e-03 2.237680070997e-03 0.0 
2.237680070997e-03 6.867008378533e-03 0.0 
0.0 0.0 -1.131852245309e-03 
-1.231232325275e-03 3.483829197783e-03 0.0 
3.483829197783e-03 6.428087696954e-03 0.0 
0.0 0.0 -1.322440284024e-03 
-1.629405615007e-03 2.216510426988e-03 0.0 
2.216510426988e-03 7.107180567101e-03 0.0 
0.0 0.0 -1.141180801552e-03 
1.287843860462e-03 1.762496620991e-03 0.0 
1.762496620991e-03 4.118181214961e-04 0.0 
0.0 0.0 -7.284265636965e-04 
-1.709232452093e-03 1.946096254963e-03 0.0 
1.946096254963e-03 7.158440520652e-03 0.0 
0.0 0.0 -1.138864741757e-03 
-2.474149681312e-04 3.241320627208e-03 0.0 
3.241320627208e-03 3.249866169459e-03 0.0 
0.0 0.0 -9.903545940741e-04 
5.390850837396e-04 3.135204886366e-03 0.0 
3.135204886366e-03 1.184502769340e-03 0.0 
0.0 0.0 -7.386805084625e-04 
-2.903565977667e-04 2.791530756056e-03 0.0 
2.791530756056e-03 2.364850385229e-03 0.0 
0.0 0.0 -8.890687660554e-04 
1.802555558832e-03 3.001147534895e-03 0.0 
3.001147534895e-03 -4.575658841899e-04 0.0 
0.0 0.0 -5.764241462752e-04 
-1.445725615323e-03 1.812858751269e-03 0.0 
1.812858751269e-03 8.104070872614e-03 0.0 
0.0 0.0 -1.282213402295e-03 
5.637528850199e-04 2.798374850836e-03 0.0 
2.798374850836e-03 9.579403324455e-04 0.0 
0.0 0.0 -6.521542360566e-04 
-9.878773185600e-04 3.005495027809e-03 0.0 
3.005495027809e-03 5.183572772416e-03 0.0 
0.0 0.0 -1.230767059693e-03 
-5.402829230253e-04 -2.645980312191e-03 0.0 
-2.645980312191e-03 2.860421160958e-03 0.0 
0.0 0.0 -9.943449591140e-04 
1.769669881029e-03 -3.137855469582e-03 0.0 
-3.137855469582e-03 -3.291852005029e-04 0.0 
0.0 0.0 -6.173505773685e-04 
-9.286667060019e-04 -5.578005299265e-04 0.0 
-5.578005299265e-04 4.405534968834e-03 0.0 
0.0 0.0 -1.284312900220e-03 
1.520178245233e-03 2.880262458528e-03 0.0 
2.880262458528e-03 -9.597643010145e-05 0.0 
0.0 0.0 -6.103722064851e-04 
-1.341987455608e-03 3.278682198062e-03 0.0 
3.278682198062e-03 7.180670491988e-03 0.0 
0.0 0.0 -1.341987455608e-03 
-1.479381738464e-03 2.518547494800e-03 0.0 
2.518547494800e-03 7.585721855360e-03 0.0 
0.0 0.0 -1.282654109251e-03 
-6.562251040144e-04 3.476488520305e-03 0.0 
3.476488520305e-03 3.368345711390e-03 0.0 
0.0 0.0 -9.747411499392e-04 
2.825665296399e-05 -9.471346053823e-04 0.0 
-9.471346053823e-04 5.562669983103e-04 0.0 
0.0 0.0 -2.505101362604e-04 
-1.340954708392e-03 3.409829937737e-03 0.0 
3.409829937737e-03 6.752010148723e-03 0.0 
0.0 0.0 -1.340954708391e-03 
-8.893530910468e-04 2.080039302171e-04 0.0 
2.080039302171e-04 4.249386795326e-03 0.0 
0.0 0.0 -1.284661450484e-03 
2.094151919582e-03 -2.710389235349e-03 0.0 
-2.710389235349e-03 -4.177516275291e-04 0.0 
0.0 0.0 -7.184572680229e-04 
1.187697048236e-03 1.044937454993e-03 0.0 
1.044937454993e-03 6.336881744863e-04 0.0 
0.0 0.0 -7.805936668811e-04 
-1.022563228378e-03 2.126685754851e-03 0.0 
2.126685754851e-03 5.450229037892e-03 0.0 
0.0 0.0 -1.323014926434e-03 
0.0 0.0 0.0 
0.0 0.0 0.0 
0.0 0.0 0.0 
5.629949439262e-04 2.943398902906e-03 0.0 
2.943398902906e-03 1.042834511407e-03 0.0 
0.0 0.0 -6.882126237144e-04 
-9.611236283513e-04 3.382262119005e-03 0.0 
3.382262119005e-03 3.900518768528e-03 0.0 
0.0 0.0 -9.507003520820e-04 
-3.264045535916e-04 3.528503760233e-03 0.0 
3.528503760233e-03 2.824189618732e-03 0.0 
0.0 0.0 -1.009382277479e-03 
-8.072349097140e-04 3.285348527428e-03 0.0 
3.285348527428e-03 3.572080463846e-03 0.0 
0.0 0.0 -9.583016177293e-04 
1.577973122007e-03 2.940745778594e-03 0.0 
2.940745778594e-03 -1.562631387263e-04 0.0 
0.0 0.0 -6.093042785491e-04 
-1.341360672448e-03 3.349227255108e-03 0.0 
3.349227255108e-03 6.276206882279e-03 0.0 
0.0 0.0 -1.341360672448e-03 
2.936452016240e-03 1.405586798284e-03 0.0 
1.405586798284e-03 -1.170886952934e-03 0.0 
0.0 0.0 -7.566707414170e-04 
6.010236317608e-04 7.677500863631e-05 0.0 
7.677500863631e-05 -6.010236317608e-04 0.0 
0.0 0.0 0.0 
-1.410674428243e-03 -1.887614969753e-03 0.0 
-1.887614969753e-03 6.271959657533e-03 0.0 
0.0 0.0 -1.272354826527e-03 
6.614899321087e-05 -1.031236819356e-03 0.0 
-1.031236819356e-03 5.476349804252e-04 0.0 
0.0 0.0 -2.630502744155e-04 
-7.579795143834e-04 2.669538043242e-03 0.0 
2.669538043242e-03 3.232540244350e-03 0.0 
0.0 0.0 -9.235262116470e-04 
1.408180871100e-03 -2.447837261249e-03 0.0 
-2.447837261249e-03 -4.054811993359e-04 0.0 
0.0 0.0 -4.297284307560e-04 
-1.289231145457e-03 2.085970842819e-03 0.0 
2.085970842819e-03 4.096251684655e-03 0.0 
0.0 0.0 -8.281323822960e-04 
-9.265632325981e-04 2.208084020548e-04 0.0 
2.208084020548e-04 5.136068338207e-03 0.0 
0.0 0.0 -1.321823097425e-03 
-1.341255375116e-03 3.077672806554e-03 0.0 
3.077672806554e-03 5.842647393183e-03 0.0 
0.0 0.0 -1.341255375116e-03 
-1.444220396543e-03 2.772557237900e-03 0.0 
2.772557237900e-03 4.661509496866e-03 0.0 
0.0 0.0 -8.916520742786e-04 
1.049542071535e-03 -2.597397009894e-03 0.0 
-2.597397009894e-03 2.940040078369e-04 0.0 
0.0 0.0 -5.758054625880e-04 
3.025347595527e-04 1.047283111649e-04 0.0 
1.047283111649e-04 -3.025347595527e-04 0.0 
0.0 0.0 0.0 
1.083086267670e-03 -3.284229385575e-03 0.0 
-3.284229385575e-03 2.814197768567e-04 0.0 
0.0 0.0 -5.847883047970e-04 
-1.038610003698e-03 -2.337728934242e-03 0.0 
-2.337728934242e-03 4.541183857773e-03 0.0 
0.0 0.0 -1.121833217354e-03 
-1.742165347554e-03 9.878882661806e-04 0.0 
9.878882661806e-04 5.401825771171e-03 0.0 
0.0 0.0 -7.704300227928e-04 
-1.803256776378e-03 1.584392787159e-03 0.0 
1.584392787159e-03 5.170803389825e-03 0.0 
0.0 0.0 -8.109332722942e-04 
-1.342502730507e-03 2.572106331239e-03 0.0 
2.572106331239e-03 5.434857979280e-03 0.0 
0.0 0.0 -1.342502730507e-03 
-1.732554351108e-03 7.529304742537e-04 0.0 
7.529304742537e-04 5.461566678014e-03 0.0 
0.0 0.0 -7.720444664677e-04 
-1.484252812585e-03 2.496905312066e-03 0.0 
2.496905312066e-03 8.327686936920e-03 0.0 
0.0 0.0 -1.322852565091e-03 
-2.616390310425e-04 3.420254192840e-03 0.0 
3.420254192840e-03 3.046539849901e-03 0.0 
0.0 0.0 -1.020998643257e-03 
-1.702171015059e-03 1.025221701453e-03 0.0 
1.025221701453e-03 6.037527275999e-03 0.0 
0.0 0.0 -8.907448815977e-04 
4.435059004645e-04 2.367634267758e-03 0.0 
2.367634267758e-03 8.500300084059e-04 0.0 
0.0 0.0 -5.543725323730e-04 
9.902971440261e-04 1.854120232773e-03 0.0 
1.854120232773e-03 5.282487487715e-04 0.0 
0.0 0.0 -6.508053826275e-04 
2.181030243503e-03 2.087940198003e-03 0.0 
2.087940198003e-03 -6.964523607222e-04 0.0 
0.0 0.0 -6.362476640488e-04 
-1.340754991027e-03 1.822804665951e-03 0.0 
1.822804665951e-03 5.126572871134e-03 0.0 
0.0 0.0 -1.340754991027e-03 
-1.339984467612e-03 3.017885242806e-03 0.0 
3.017885242806e-03 7.530573259310e-03 0.0 
0.0 0.0 -1.339984467612e-03 
-1.340417744004e-03 2.627800699396e-03 0.0 
2.627800699396e-03 7.874468285687e-03 0.0 
0.0 0.0 -1.340417744004e-03 
1.663950741528e-04 -3.102222571978e-03 0.0 
-3.102222571978e-03 1.696065106834e-03 0.0 
0.0 0.0 -7.981972204229e-04 
-6.783966376360e-04 -2.229795002151e-03 0.0 
-2.229795002151e-03 2.989937542639e-03 0.0 
0.0 0.0 -9.906603878584e-04 
6.633751209167e-04 3.479464549828e-03 0.0 
3.479464549828e-03 1.235326207863e-03 0.0 
0.0 0.0 -8.137291409057e-04 
-1.800452847873e-04 -3.089059520932e-03 0.0 
-3.089059520932e-03 2.334973482046e-03 0.0 
0.0 0.0 -8.981573260837e-04 
-1.339627896631e-03 1.005258068188e-03 0.0 
1.005258068188e-03 4.944567484942e-03 0.0 
0.0 0.0 -1.339627896631e-03 
2.106481318219e-03 2.804312139354e-03 0.0 
2.804312139354e-03 -3.247815718152e-04 0.0 
0.0 0.0 -7.635856056017e-04 
2.753925008266e-03 -1.471183718442e-03 0.0 
-1.471183718442e-03 -1.118113294929e-03 0.0 
0.0 0.0 -7.010621628588e-04 
2.411027346534e-03 -2.022185411865e-03 0.0 
-2.022185411865e-03 -8.248269265831e-04 0.0 
0.0 0.0 -6.798001799788e-04 
-1.695040583491e-03 9.943495357559e-04 0.0 
9.943495357559e-04 6.306677945551e-03 0.0 
0.0 0.0 -9.279583942086e-04 
-1.067283559268e-03 -1.131551148477e-03 0.0 
-1.131551148477e-03 5.382018527302e-03 0.0 
0.0 0.0 -1.323537156312e-03 
4.718253126561e-04 -2.654545060497e-03 0.0 
-2.654545060497e-03 7.297491663584e-04 0.0 
0.0 0.0 -5.149604910062e-04 
-1.340775759057e-03 3.168705887179e-05 0.0 
3.168705887179e-05 4.893000414627e-03 0.0 
0.0 0.0 -1.340775759057e-03 
2.068072739009e-03 -2.533209175997e-03 0.0 
-2.533209175997e-03 -4.905385770438e-04 0.0 
0.0 0.0 -6.760860694135e-04 
-1.342877878941e-03 3.371101462632e-03 0.0 
3.371101462632e-03 6.986301559429e-03 0.0 
0.0 0.0 -1.342877878941e-03 
-1.502505102679e-03 2.723409331035e-03 0.0 
2.723409331035e-03 6.453774250835e-03 0.0 
0.0 0.0 -1.152765850879e-03 
4.995410750134e-04 -2.508167894462e-04 0.0 
-2.508167894462e-04 1.439641133543e-04 0.0 
0.0 0.0 -1.045622396246e-04 
7.611624550475e-04 2.811491361200e-03 0.0 
2.811491361200e-03 7.486160262995e-04 0.0 
0.0 0.0 -6.470479205773e-04 
-1.718973478826e-03 1.632227495642e-03 0.0 
1.632227495642e-03 7.402026443868e-03 0.0 
0.0 0.0 -1.146019594970e-03 
-1.341220131281e-03 3.403196875767e-03 0.0 
3.403196875767e-03 6.531514611794e-03 0.0 
0.0 0.0 -1.341220131281e-03 
-1.493257815958e-03 2.709508550359e-03 0.0 
2.709508550359e-03 5.031766487179e-03 0.0 
0.0 0.0 -9.220067723808e-04 
-1.371432860580e-04 3.167005571068e-03 0.0 
3.167005571068e-03 2.958438968348e-03 0.0 
0.0 0.0 -1.049000704964e-03 
1.363417131051e-03 2.771598718083e-03 0.0 
2.771598718083e-03 -2.175926074803e-04 0.0 
0.0 0.0 -4.910676529589e-04 
-4.822149847462e-04 -8.933705669705e-06 0.0 
-8.933705669705e-06 3.680115228026e-03 0.0 
0.0 0.0 -1.228682347183e-03 
1.589016691459e-03 -2.728398742501e-03 0.0 
-2.728398742501e-03 -1.477483424757e-04 0.0 
0.0 0.0 -6.176864352786e-04 
2.014961445712e-03 -2.490489286961e-03 0.0 
-2.490489286961e-03 -7.248651286365e-04 0.0 
0.0 0.0 -5.528984216039e-04 
6.740675851827e-05 -1.946268609011e-03 0.0 
-1.946268609011e-03 5.144006658537e-04 0.0 
0.0 0.0 -2.493460390166e-04 
-1.341079611575e-03 3.240452696934e-03 0.0 
3.240452696934e-03 6.054614633037e-03 0.0 
0.0 0.0 -1.341079611575e-03 
2.419438568119e-03 1.848358171578e-03 0.0 
1.848358171578e-03 -8.324259170898e-04 0.0 
0.0 0.0 -6.801482790127e-04 
-1.052268534161e-04 -1.626163501332e-03 0.0 
-1.626163501332e-03 3.065488155398e-03 0.0 
0.0 0.0 -1.110501492391e-03 
-1.743720672030e-03 5.076947702062e-04 0.0 
5.076947702062e-04 5.915487175230e-03 0.0 
0.0 0.0 -8.555322119248e-04 
6.419311454372e-04 -2.457777299007e-03 0.0 
-2.457777299007e-03 6.816602911272e-04 0.0 
0.0 0.0 -5.672534728133e-04 
2.432948694747e-03 -2.224719869907e-03 0.0 
-2.224719869907e-03 -1.006521097821e-03 0.0 
0.0 0.0 -6.113261129685e-04 
-1.391571865871e-03 2.947954310513e-03 0.0 
2.947954310513e-03 4.611783904251e-03 0.0 
0.0 0.0 -8.867075537039e-04 
-1.342259935407e-03 2.196586378398e-03 0.0 
2.196586378398e-03 5.267748778168e-03 0.0 
0.0 0.0 -1.342259935407e-03 
-8.685003091139e-04 -2.019621362732e-03 0.0 
-2.019621362732e-03 3.358195832711e-03 0.0 
0.0 0.0 -1.026543027222e-03 
-6.279763244927e-05 -2.831980191268e-03 0.0 
-2.831980191268e-03 2.234263021353e-03 0.0 
0.0 0.0 -9.306280238158e-04 
1.626113199364e-04 3.532469173109e-03 0.0 
3.532469173109e-03 1.975304410449e-03 0.0 
0.0 0.0 -9.162495987365e-04 
9.545056478258e-04 -2.197984859117e-03 0.0 
-2.197984859117e-03 2.830222850846e-04 0.0 
0.0 0.0 -5.303691141045e-04 
2.741947853495e-03 -1.576053757195e-03 0.0 
-1.576053757195e-03 -1.238751484203e-03 0.0 
0.0 0.0 -6.442270154112e-04 
2.055993336022e-04 -3.019147266732e-03 0.0 
-3.019147266732e-03 1.580796400243e-03 0.0 
0.0 0.0 -7.655981716482e-04 
-1.735594457479e-05 3.684409886977e-03 0.0 
3.684409886977e-03 2.338058889169e-03 0.0 
0.0 0.0 -9.525257740877e-04 
-6.815819430518e-04 3.271309776104e-03 0.0 
3.271309776104e-03 3.991806398053e-03 0.0 
0.0 0.0 -9.982497011217e-04 
7.359468455794e-04 1.655488137203e-03 0.0 
1.655488137203e-03 1.311171725172e-03 0.0 
0.0 0.0 -8.773365303219e-04 
4.616179257589e-04 3.326983553877e-03 0.0 
3.326983553877e-03 1.399682897410e-03 0.0 
0.0 0.0 -7.977003527865e-04 
-1.068767707281e-04 -3.106568222755e-03 0.0 
-3.106568222755e-03 2.185893574205e-03 0.0 
0.0 0.0 -8.910072014901e-04 
1.770168940932e-03 2.939268167283e-03 0.0 
2.939268167283e-03 -7.940642901587e-05 0.0 
0.0 0.0 -7.246125051071e-04 
-6.590777518814e-04 -2.312052235482e-03 0.0 
-2.312052235482e-03 2.981136073476e-03 0.0 
0.0 0.0 -9.951678521122e-04 
-9.129757635955e-05 3.002240536259e-03 0.0 
3.002240536259e-03 3.121089298537e-03 0.0 
0.0 0.0 -1.018204129641e-03 
1.890566440799e-03 1.226789186906e-03 0.0 
1.226789186906e-03 -8.288946358717e-04 0.0 
0.0 0.0 -4.550022021117e-04 
-9.478871216341e-04 -2.661712448175e-04 0.0 
-2.661712448175e-04 5.203816778040e-03 0.0 
0.0 0.0 -1.321929620191e-03 
-1.684709762555e-03 1.865268109453e-03 0.0 
1.865268109453e-03 7.458111656375e-03 0.0 
0.0 0.0 -1.174325249119e-03 
4.942655387039e-04 -2.660349188538e-03 0.0 
-2.660349188538e-03 9.600175774831e-04 0.0 
0.0 0.0 -6.232641926516e-04 
-1.341047338368e-03 5.012584263436e-04 0.0 
5.012584263436e-04 4.843287135669e-03 0.0 
0.0 0.0 -1.341047338368e-03 
-5.199572059754e-04 -1.240456273397e-05 0.0 
-1.240456273397e-05 4.514719369705e-03 0.0 
0.0 0.0 -1.266414110344e-03 
1.456677627038e-03 2.847158529750e-03 0.0 
2.847158529750e-03 -1.224358696167e-04 0.0 
0.0 0.0 -5.718178960378e-04 
3.073160228107e-04 -2.142796274570e-03 0.0 
-2.142796274570e-03 8.896681783000e-04 0.0 
0.0 0.0 -5.129932290474e-04 
-1.050487114865e-03 -1.427509562772e-03 0.0 
-1.427509562772e-03 5.540080609798e-03 0.0 
0.0 0.0 -1.323469717371e-03 
-1.667087300368e-03 2.181750680949e-03 0.0 
2.181750680949e-03 7.186411773731e-03 0.0 
0.0 0.0 -1.167157861819e-03 
1.716323073858e-03 -2.955825605783e-03 0.0 
-2.955825605783e-03 -9.287262183540e-05 0.0 
0.0 0.0 -6.957644794382e-04 
-1.341709311524e-03 -8.333733019742e-04 0.0 
-8.333733019742e-04 5.041051645130e-03 0.0 
0.0 0.0 -1.341709311524e-03 
-1.554347035982e-04 -3.091276428888e-03 0.0 
-3.091276428888e-03 2.271745765848e-03 0.0 
0.0 0.0 -9.069904552498e-04 
-8.856300375339e-05 3.015707065978e-03 0.0 
3.015707065978e-03 2.092630915718e-03 0.0 
0.0 0.0 -8.588862479847e-04 
-1.708652242928e-03 2.038029542744e-03 0.0 
2.038029542744e-03 5.155213329433e-03 0.0 
0.0 0.0 -8.408860858065e-04 
2.150251675539e-03 1.246957804337e-03 0.0 
1.246957804337e-03 -9.518176328646e-04 0.0 
0.0 0.0 -5.136145897175e-04 
4.280369650893e-04 -2.993089053083e-03 0.0 
-2.993089053083e-03 1.242185283195e-03 0.0 
0.0 0.0 -7.158095349792e-04 
1.005063584136e-03 -1.534038141676e-03 0.0 
-1.534038141676e-03 4.706218155617e-04 0.0 
0.0 0.0 -6.324365998706e-04 
-1.787330646013e-03 1.744437882435e-03 0.0 
1.744437882435e-03 6.165539261386e-03 0.0 
0.0 0.0 -9.721028620036e-04 
-5.830614128886e-04 2.963568587990e-03 0.0 
2.963568587990e-03 3.036456168777e-03 0.0 
0.0 0.0 -9.703272795031e-04 
5.013338592635e-04 2.022867758426e-03 0.0 
2.022867758426e-03 1.903789761340e-03 0.0 
0.0 0.0 -1.030767265973e-03 
-1.583428582628e-03 1.234393199571e-04 0.0 
1.234393199571e-04 6.348909220080e-03 0.0 
0.0 0.0 -8.839498032872e-04 
-1.538973880155e-04 -2.905891545860e-03 0.0 
-2.905891545860e-03 2.151085361499e-03 0.0 
0.0 0.0 -8.559377029216e-04 
9.606550472545e-04 1.198365472328e-03 0.0 
1.198365472328e-03 7.584169667694e-04 0.0 
0.0 0.0 -7.367451488674e-04 
1.240241290569e-03 -2.615402293113e-03 0.0 
-2.615402293113e-03 9.801779930640e-06 0.0 
0.0 0.0 -5.357327444998e-04 
-1.264139912559e-03 -2.295922563033e-03 0.0 
-2.295922563033e-03 4.258611210865e-03 0.0 
0.0 0.0 -1.003470032316e-03 
4.779492527782e-04 -1.976862769587e-04 0.0 
-1.976862769587e-04 3.079286874380e-05 0.0 
0.0 0.0 -9.731995102935e-05 
1.375001823881e-03 3.007557583602e-03 0.0 
3.007557583602e-03 2.077996425490e-04 0.0 
0.0 0.0 -6.783434856127e-04 
1.686675147585e-03 -2.826451651131e-03 0.0 
-2.826451651131e-03 -3.979102607463e-04 0.0 
0.0 0.0 -5.523278086452e-04 
-6.775751599431e-04 -2.656016194715e-03 0.0 
-2.656016194715e-03 3.173617743200e-03 0.0 
0.0 0.0 -1.041231529553e-03 
9.547448531119e-04 2.912205143476e-03 0.0 
2.912205143476e-03 5.651456179382e-04 0.0 
0.0 0.0 -6.513816304500e-04 
3.545197186364e-05 -2.683422917804e-03 0.0 
-2.683422917804e-03 2.222563700784e-03 0.0 
0.0 0.0 -9.350600278798e-04 
-1.737561363205e-03 5.251994903431e-04 0.0 
5.251994903431e-04 6.205644374021e-03 0.0 
0.0 0.0 -8.962969588583e-04 
1.356254452431e-03 -2.984093401581e-03 0.0 
-2.984093401581e-03 -2.215529665071e-05 0.0 
0.0 0.0 -5.717567810488e-04 
-1.341827844788e-03 -1.146584425421e-03 0.0 
-1.146584425421e-03 5.213236186647e-03 0.0 
0.0 0.0 -1.341827844788e-03 
-1.032358392854e-03 3.358744228303e-03 0.0 
3.358744228303e-03 3.981695232776e-03 0.0 
0.0 0.0 -8.921909746423e-04 
-9.403772787457e-04 -2.333509821859e-03 0.0 
-2.333509821859e-03 3.602948163807e-03 0.0 
0.0 0.0 -1.032584340947e-03 
-7.230784000767e-04 3.517969959091e-03 0.0 
3.517969959091e-03 3.446928309249e-03 0.0 
0.0 0.0 -9.025917034692e-04 
-6.743760556383e-04 -2.567033021564e-03 0.0 
-2.567033021564e-03 3.158224002336e-03 0.0 
0.0 0.0 -1.064506262870e-03 
0.0 0.0 0.0 
0.0 0.0 0.0 
0.0 0.0 0.0 
-1.792312889487e-03 1.741412585942e-03 0.0 
1.741412585942e-03 5.511837739733e-03 0.0 
0.0 0.0 -8.733545218784e-04 
-1.159018419121e-03 -6.757248724201e-04 0.0 
-6.757248724201e-04 3.679422689167e-03 0.0 
0.0 0.0 -9.437415894182e-04 
1.526598219851e-03 -2.022984547481e-04 0.0 
-2.022984547481e-04 -5.806947110268e-04 0.0 
0.0 0.0 -1.518789559795e-04 
-1.008983259281e-03 -2.022851433489e-03 0.0 
-2.022851433489e-03 3.664714944016e-03 0.0 
0.0 0.0 -1.031099917346e-03 
-1.552203916554e-04 -2.266492036209e-03 0.0 
-2.266492036209e-03 2.794636645768e-03 0.0 
0.0 0.0 -1.001254648526e-03 
-1.559997350991e-03 7.763984245468e-04 0.0 
7.763984245468e-04 7.736769108545e-03 0.0 
0.0 0.0 -1.146946825052e-03 
1.304436411006e-03 -1.537118457164e-03 0.0 
-1.537118457164e-03 -1.929375046108e-04 0.0 
0.0 0.0 -4.763566741695e-04 
1.141009119650e-03 -1.409930863555e-03 0.0 
-1.409930863555e-03 1.287642799873e-04 0.0 
0.0 0.0 -5.441885998444e-04 
-1.689284059370e-03 1.450746420627e-03 0.0 
1.450746420627e-03 4.831311448006e-03 0.0 
0.0 0.0 -7.833574767318e-04 
-1.686952509024e-03 5.790488882109e-04 0.0 
5.790488882109e-04 4.855993105087e-03 0.0 
0.0 0.0 -7.312625299843e-04 
-1.435530838734e-03 2.039856500826e-03 0.0 
2.039856500826e-03 7.934174766789e-03 0.0 
0.0 0.0 -1.286111585339e-03 
-3.846383815358e-04 3.631348853507e-03 0.0 
3.631348853507e-03 2.894402056622e-03 0.0 
0.0 0.0 -9.211198782815e-04 
2.563042352686e-03 -3.462434059620e-04 0.0 
-3.462434059620e-04 -8.334153675030e-04 0.0 
0.0 0.0 -9.050770260813e-05 
-2.801224181594e-06 -1.851492159178e-03 0.0 
-1.851492159178e-03 1.218501688618e-03 0.0 
0.0 0.0 -5.210144847585e-04 
8.331805258011e-05 -1.317049816552e-03 0.0 
-1.317049816552e-03 7.003703442878e-04 0.0 
0.0 0.0 -3.358664558005e-04 
1.821034446314e-04 -2.408967732496e-03 0.0 
-2.408967732496e-03 1.233113086777e-03 0.0 
0.0 0.0 -6.065213706036e-04 
-1.138435434649e-03 2.989604430891e-03 0.0 
2.989604430891e-03 5.462421315605e-03 0.0 
0.0 0.0 -1.134523071099e-03 
-1.613429135808e-03 4.247551468927e-04 0.0 
4.247551468927e-04 7.790174225159e-03 0.0 
0.0 0.0 -1.144649651339e-03 
-1.027154245499e-03 -2.035960934847e-03 0.0 
-2.035960934847e-03 4.492443968240e-03 0.0 
0.0 0.0 -1.087427768671e-03 
-2.215897922679e-04 -2.343741531637e-03 0.0 
-2.343741531637e-03 1.937473062545e-03 0.0 
0.0 0.0 -7.353785444044e-04 
-1.224434476437e-03 -2.373415610936e-03 0.0 
-2.373415610936e-03 4.259607832395e-03 0.0 
0.0 0.0 -1.074887456883e-03 
-2.765309671832e-04 -1.235730925308e-03 0.0 
-1.235730925308e-03 3.492398506195e-03 0.0 
0.0 0.0 -1.142106164841e-03 
1.609002123108e-03 9.641353836346e-05 0.0 
9.641353836346e-05 -1.014383706755e-03 0.0 
0.0 0.0 -2.548364641514e-04 
-1.185520630974e-03 -6.216129085547e-04 0.0 
-6.216129085547e-04 3.715832065426e-03 0.0 
0.0 0.0 -9.234434510542e-04 
-9.870309350746e-04 -2.949408640791e-04 0.0 
-2.949408640791e-04 3.127712701104e-03 0.0 
0.0 0.0 -8.176025220169e-04 
-1.158159835053e-03 -1.705545964426e-03 0.0 
-1.705545964426e-03 5.701758529228e-03 0.0 
0.0 0.0 -1.322396863610e-03 
-1.341641872583e-03 -1.478861783549e-03 0.0 
-1.478861783549e-03 5.355371918508e-03 0.0 
0.0 0.0 -1.341641872583e-03 
-1.283076775259e-03 -6.373143896461e-04 0.0 
-6.373143896461e-04 4.006265140635e-03 0.0 
0.0 0.0 -9.869148323457e-04 
-9.252167440016e-04 -2.284187084932e-03 0.0 
-2.284187084932e-03 3.604049524323e-03 0.0 
0.0 0.0 -1.082955583678e-03 
1.424947381447e-04 -3.218131506232e-03 0.0 
-3.218131506232e-03 1.808876759913e-03 0.0 
0.0 0.0 -8.363020705961e-04 
-2.858765317583e-04 -8.912097981478e-04 0.0 
-8.912097981478e-04 3.661087959600e-03 0.0 
0.0 0.0 -1.177278300149e-03 
-1.642185562706e-04 -1.468912040377e-03 0.0 
-1.468912040377e-03 1.269461247680e-03 0.0 
0.0 0.0 -4.736754391754e-04 
-2.865195494759e-04 -1.594101584254e-03 0.0 
-1.594101584254e-03 3.398007437901e-03 0.0 
0.0 0.0 -1.104707344597e-03 
9.194713961983e-04 -6.793234433339e-04 0.0 
-6.793234433339e-04 6.261768049846e-04 0.0 
0.0 0.0 -3.206774383567e-04 
-7.790564292393e-04 -2.283470906283e-03 0.0 
-2.283470906283e-03 3.292851518803e-03 0.0 
0.0 0.0 -1.077340752670e-03 
-5.608514076299e-04 -2.798496030794e-03 0.0 
-2.798496030794e-03 2.999147072071e-03 0.0 
0.0 0.0 -1.044983856189e-03 
1.138912068891e-03 -3.473598627530e-04 0.0 
-3.473598627530e-04 -1.413469007123e-04 0.0 
0.0 0.0 -2.684313900889e-04 
-1.253955737825e-03 -3.715260469387e-04 0.0 
-3.715260469387e-04 3.888476539148e-03 0.0 
0.0 0.0 -9.536442305595e-04 
-1.602308644549e-03 2.138646014206e-03 0.0 
2.138646014206e-03 7.398169050205e-03 0.0 
0.0 0.0 -1.176862138969e-03 
2.761299412783e-03 -2.184006917307e-04 0.0 
-2.184006917307e-04 -8.957163604378e-04 0.0 
0.0 0.0 -9.160000506328e-05 
-1.698158774402e-03 7.543543168281e-04 0.0 
7.543543168281e-04 4.798515189366e-03 0.0 
0.0 0.0 -7.322753781719e-04 
-1.694678419912e-03 8.983255451051e-04 0.0 
8.983255451051e-04 4.996965617242e-03 0.0 
0.0 0.0 -7.130472889423e-04 
9.905782610910e-04 -8.253624912090e-04 0.0 
-8.253624912090e-04 7.976802919736e-04 0.0 
0.0 0.0 -7.663965227419e-04 
-1.039035016572e-03 -2.144348817903e-04 0.0 
-2.144348817903e-04 3.210973696896e-03 0.0 
0.0 0.0 -7.829545016062e-04 
1.212299874062e-03 -2.903037830351e-03 0.0 
-2.903037830351e-03 2.395213764874e-04 0.0 
0.0 0.0 -6.222091073784e-04 
1.174115903652e-03 2.662474741674e-03 0.0 
2.662474741674e-03 2.969730930284e-04 0.0 
0.0 0.0 -6.304667128631e-04 
-1.289472189001e-03 -1.746360051319e-03 0.0 
-1.746360051319e-03 5.399223758463e-03 0.0 
0.0 0.0 -1.180895453064e-03 
-1.199251439186e-03 3.128969763373e-03 0.0 
3.128969763373e-03 5.740281679720e-03 0.0 
0.0 0.0 -1.286194385238e-03 
-1.685234284086e-03 7.030718583631e-04 0.0 
7.030718583631e-04 7.477737434154e-03 0.0 
0.0 0.0 -1.101088927253e-03 
5.511702260285e-04 2.711119680311e-03 0.0 
2.711119680311e-03 9.222763951361e-04 0.0 
0.0 0.0 -6.314771233563e-04 
-3.649363196541e-05 -1.210836942261e-03 0.0 
-1.210836942261e-03 8.486569891216e-04 0.0 
0.0 0.0 -3.480700102098e-04 
-1.004741383637e-03 2.553626350246e-03 0.0 
2.553626350246e-03 3.669626505377e-03 0.0 
0.0 0.0 -8.905302458185e-04 
-1.568290103670e-03 2.798930321494e-04 0.0 
2.798930321494e-04 4.936656992355e-03 0.0 
0.0 0.0 -7.345111139194e-04 
-1.542599483069e-03 2.307996019665e-04 0.0 
2.307996019665e-04 5.186209951631e-03 0.0 
0.0 0.0 -7.144802219086e-04 
1.697260921232e-03 -1.822504204338e-04 0.0 
-1.822504204338e-04 -6.526688675189e-04 0.0 
0.0 0.0 -1.584708362264e-04 
9.885439547911e-04 -4.650217645265e-04 0.0 
-4.650217645265e-04 -7.811083121430e-05 0.0 
0.0 0.0 -2.719350994485e-04 
3.764836072069e-04 -3.171144431772e-04 0.0 
-3.171144431772e-04 5.254813268562e-04 0.0 
0.0 0.0 -2.992029258896e-04 
-3.222613347251e-04 -1.717475984859e-03 0.0 
-1.717475984859e-03 1.786840537745e-03 0.0 
0.0 0.0 -6.276768012942e-04 
1.995445303676e-03 -3.544912217161e-04 0.0 
-3.544912217161e-04 -1.783707534186e-04 0.0 
0.0 0.0 -2.505695937184e-04 
-1.385796394707e-03 -3.802460944882e-04 0.0 
-3.802460944882e-04 4.246303149623e-03 0.0 
0.0 0.0 -1.004230634435e-03 
0.0 0.0 0.0 
0.0 0.0 0.0 
0.0 0.0 0.0 
-3.537348662354e-04 -2.028219451660e-03 0.0 
-2.028219451660e-03 2.045322960423e-03 0.0 
0.0 0.0 -7.249663260806e-04 
-1.566153664312e-03 2.377992970035e-04 0.0 
2.377992970035e-04 6.488131571459e-03 0.0 
0.0 0.0 -9.582560723523e-04 
-1.634454558496e-03 5.707793053276e-04 0.0 
5.707793053276e-04 5.108535752511e-03 0.0 
0.0 0.0 -7.120344407548e-04 
-1.255391157734e-03 2.956292385131e-03 0.0 
2.956292385131e-03 5.913112370001e-03 0.0 
0.0 0.0 -1.169483110168e-03 
-3.211066572615e-04 -2.624140315591e-03 0.0 
-2.624140315591e-03 2.858415319154e-03 0.0 
0.0 0.0 -9.641449249716e-04 
-1.553469395463e-03 1.980732768992e-04 0.0 
1.980732768992e-04 6.108450087988e-03 0.0 
0.0 0.0 -8.988447104697e-04 
-1.086829048493e-03 -4.298554506639e-05 0.0 
-4.298554506639e-05 3.376551179836e-03 0.0 
0.0 0.0 -8.404787427002e-04 
1.157325761144e-03 -4.144839602351e-04 0.0 
-4.144839602351e-04 5.556060787113e-04 0.0 
0.0 0.0 -3.489577299251e-04 
-1.340974968048e-03 1.141125960794e-03 0.0 
1.141125960794e-03 8.560634098268e-03 0.0 
0.0 0.0 -1.340974968048e-03 
-1.479514720207e-03 1.290754629394e-03 0.0 
1.290754629394e-03 8.817356864728e-03 0.0 
0.0 0.0 -1.320295381545e-03 
-1.658748233041e-03 8.637494445187e-04 0.0 
8.637494445187e-04 5.855760830743e-03 0.0 
0.0 0.0 -8.588387843224e-04 
-1.626246500550e-03 3.507062076516e-04 0.0 
3.507062076516e-04 4.917310602464e-03 0.0 
0.0 0.0 -7.326073368542e-04 
-1.101733211462e-03 -4.903419461906e-04 0.0 
-4.903419461906e-04 3.425201513199e-03 0.0 
0.0 0.0 -8.368382630048e-04 
-1.457935752510e-03 9.072104527732e-04 0.0 
9.072104527732e-04 8.880607743519e-03 0.0 
0.0 0.0 -1.322576402756e-03 
-2.087604691238e-04 -2.081308369903e-03 0.0 
-2.081308369903e-03 1.746392936312e-03 0.0 
0.0 0.0 -6.589853430805e-04 
-1.662826015092e-03 7.083533780780e-04 0.0 
7.083533780780e-04 5.042251775661e-03 0.0 
0.0 0.0 -7.125614225629e-04 
-1.628165374516e-03 4.707510309731e-04 0.0 
4.707510309731e-04 4.889560536843e-03 0.0 
0.0 0.0 -7.312775522649e-04 
-1.109436790681e-03 2.207974280543e-03 0.0 
2.207974280543e-03 3.753226225228e-03 0.0 
0.0 0.0 -8.460010047089e-04 
-1.341823989366e-03 2.274932854254e-03 0.0 
2.274932854254e-03 8.137856468635e-03 0.0 
0.0 0.0 -1.341823989366e-03 
-1.447499776368e-03 1.123885033130e-03 0.0 
1.123885033130e-03 8.849685221172e-03 0.0 
0.0 0.0 -1.322582685247e-03 
1.858413942134e-03 -4.468674671497e-04 0.0 
-4.468674671497e-04 -1.442261551490e-04 0.0 
0.0 0.0 -2.523401230232e-04 
1.933225188622e-03 -1.733881547272e-04 0.0 
-1.733881547272e-04 -7.561870514403e-04 0.0 
0.0 0.0 -1.563839533901e-04 
-1.406822219416e-04 -1.124602410666e-03 0.0 
-1.124602410666e-03 1.005262349108e-03 0.0 
0.0 0.0 -3.705343402142e-04 
-5.636260726475e-04 -2.890778252910e-03 0.0 
-2.890778252910e-03 3.024028366260e-03 0.0 
0.0 0.0 -1.029090130247e-03 
-1.836231348186e-03 -1.061046282737e-04 0.0 
-1.061046282737e-04 6.851957631603e-03 0.0 
0.0 0.0 -1.224669017856e-03 
0.0 0.0 0.0 
0.0 0.0 0.0 
0.0 0.0 0.0 
-1.578428037932e-03 -1.076945805976e-04 0.0 
-1.076945805976e-04 7.488341038297e-03 0.0 
0.0 0.0 -1.092518628634e-03 
-1.550925910831e-05 -1.170234142814e-04 0.0 
-1.170234142814e-04 1.067621659097e-04 0.0 
0.0 0.0 -3.910838862915e-05 
8.665365973905e-04 -1.142786771002e-03 0.0 
-1.142786771002e-03 9.419164366956e-04 0.0 
0.0 0.0 -7.750513003226e-04 
2.093383490481e-04 -3.500473738276e-04 0.0 
-3.500473738276e-04 8.081195732962e-06 0.0 
0.0 0.0 -9.317980490616e-05 
0.0 0.0 0.0 
0.0 0.0 0.0 
0.0 0.0 0.0 
8.379829542950e-04 -1.828387007204e-03 0.0 
-1.828387007204e-03 8.061078686980e-04 0.0 
0.0 0.0 -7.046103527113e-04 
-1.789860880868e-03 -9.343042948716e-04 0.0 
-9.343042948716e-04 6.450275194502e-03 0.0 
0.0 0.0 -1.192963836147e-03 
-1.590104708056e-03 6.107842018535e-05 0.0 
6.107842018535e-05 6.703688956183e-03 0.0 
0.0 0.0 -9.361271490834e-04 
-8.759783829009e-04 2.898559650342e-03 0.0 
2.898559650342e-03 3.532916901786e-03 0.0 
0.0 0.0 -9.106555839008e-04 
1.248462822196e-03 -2.813829483536e-04 0.0 
-2.813829483536e-04 -1.929931588244e-04 0.0 
0.0 0.0 -2.625419092021e-04 
-1.459678414727e-03 -2.058426133646e-03 0.0 
-2.058426133646e-03 4.704925736718e-03 0.0 
0.0 0.0 -1.075952622059e-03 
-1.337797817327e-03 3.504757910850e-04 0.0 
3.504757910850e-04 8.685617780919e-03 0.0 
0.0 0.0 -1.337797817327e-03 
-1.451734133111e-03 3.024014936646e-04 0.0 
3.024014936646e-04 8.945645325804e-03 0.0 
0.0 0.0 -1.322354755130e-03 
-1.599337559302e-03 4.517969448523e-04 0.0 
4.517969448523e-04 5.137060814106e-03 0.0 
0.0 0.0 -7.125764448434e-04 
8.243811469618e-04 -5.070143029738e-04 0.0 
-5.070143029738e-04 1.170642242664e-03 0.0 
0.0 0.0 -8.550100241253e-04 
-1.341607717199e-03 9.922961128721e-04 0.0 
9.922961128721e-04 8.617013640237e-03 0.0 
0.0 0.0 -1.341607717199e-03 
1.651597580356e-05 2.683416658655e-03 0.0 
2.683416658655e-03 3.024822145470e-03 0.0 
0.0 0.0 -1.046710270629e-03 
1.210451057929e-03 -1.943692124057e-04 0.0 
-1.943692124057e-04 4.706046126820e-04 0.0 
0.0 0.0 -3.531810144492e-04 
2.099767295814e-03 -2.484083841165e-04 0.0 
-2.484083841165e-04 -2.289154150212e-04 0.0 
0.0 0.0 -2.475227046456e-04 
1.335233375907e-03 -9.196830328825e-05 0.0 
-9.196830328825e-05 -2.038367509550e-04 0.0 
0.0 0.0 -2.481890828467e-04 
-1.206645058523e-03 -4.413417753443e-05 0.0 
-4.413417753443e-05 3.734312456454e-03 0.0 
0.0 0.0 -9.186759157619e-04 
-1.554661254855e-03 -1.173104092863e-03 0.0 
-1.173104092863e-03 7.206653129246e-03 0.0 
0.0 0.0 -1.322828574513e-03 
-1.468378470940e-03 -2.055954314762e-04 0.0 
-2.055954314762e-04 8.477100898234e-03 0.0 
0.0 0.0 -1.258329778789e-03 
2.187416576026e-03 -1.653808446854e-04 0.0 
-1.653808446854e-04 -8.676741714944e-04 0.0 
0.0 0.0 -1.587067154099e-04 
-1.371588137901e-03 -3.169762198632e-04 0.0 
-3.169762198632e-04 4.214800910036e-03 0.0 
0.0 0.0 -1.008438243783e-03 
-1.344798314370e-03 -8.279531255943e-04 0.0 
-8.279531255943e-04 7.026886665436e-03 0.0 
0.0 0.0 -1.344798314369e-03 
-1.564884777426e-03 -1.287545985866e-03 0.0 
-1.287545985866e-03 7.147060172158e-03 0.0 
0.0 0.0 -1.318785251170e-03 
-1.158469832793e-03 -1.923166980148e-03 0.0 
-1.923166980148e-03 5.883371209853e-03 0.0 
0.0 0.0 -1.321151187552e-03 
-1.585912391543e-03 2.691560132111e-04 0.0 
2.691560132111e-04 7.090908885405e-03 0.0 
0.0 0.0 -1.027148381742e-03 
-1.555187588006e-03 -1.971572702211e-04 0.0 
-1.971572702211e-04 7.705246922455e-03 0.0 
0.0 0.0 -1.125709525796e-03 
-1.338030260144e-03 -1.094386398329e-03 0.0 
-1.094386398329e-03 6.909148412757e-03 0.0 
0.0 0.0 -1.338030260144e-03 
-1.340754991027e-03 -1.372687681983e-03 0.0 
-1.372687681983e-03 6.806607219922e-03 0.0 
0.0 0.0 -1.340754991027e-03 
-1.561602649575e-03 2.480043620058e-04 0.0 
2.480043620058e-04 7.494608831512e-03 0.0 
0.0 0.0 -1.092518628634e-03 
3.307271248664e-03 4.314548185695e-05 0.0 
4.314548185695e-05 -1.214475185733e-03 0.0 
0.0 0.0 -8.755379438333e-05 
-1.478032168390e-03 1.489804673206e-04 0.0 
1.489804673206e-04 5.167022187345e-03 0.0 
0.0 0.0 -7.139539158865e-04 
-1.574977551316e-03 3.717997235828e-04 0.0 
3.717997235828e-04 5.188881553203e-03 0.0 
0.0 0.0 -7.133642253441e-04 
2.078295521971e-03 -1.511499007421e-04 0.0 
-1.511499007421e-04 -8.199563945998e-04 0.0 
0.0 0.0 -1.576675707606e-04 
-1.342313591240e-03 -1.872687525586e-03 0.0 
-1.872687525586e-03 6.355359522584e-03 0.0 
0.0 0.0 -1.342313591240e-03 
-1.269922737054e-03 -2.029167704155e-03 0.0 
-2.029167704155e-03 6.094262192879e-03 0.0 
0.0 0.0 -1.318355947622e-03 
-1.337959751097e-03 -1.908784167046e-03 0.0 
-1.908784167046e-03 5.900685640896e-03 0.0 
0.0 0.0 -1.337959751097e-03 
3.106621107953e-03 -1.497773368645e-04 0.0 
-1.497773368645e-04 -1.029211139497e-03 0.0 
0.0 0.0 -9.540963664560e-05 
2.941822019467e-03 -1.767432348869e-04 0.0 
-1.767432348869e-04 -9.568393427299e-04 0.0 
0.0 0.0 -9.747405510327e-05 
-1.340754991027e-03 -1.672627381109e-03 0.0 
-1.672627381109e-03 5.518495974516e-03 0.0 
0.0 0.0 -1.340754991027e-03 
-1.340396196526e-03 -1.852966983193e-03 0.0 
-1.852966983193e-03 5.697134399037e-03 0.0 
0.0 0.0 -1.340396196526e-03 
-1.600296610560e-03 -2.152006829150e-04 0.0 
-2.152006829150e-04 6.887323541576e-03 0.0 
0.0 0.0 -9.936726122374e-04 
-1.422222177314e-03 8.859389962602e-05 0.0 
8.859389962602e-05 5.179295465595e-03 0.0 
0.0 0.0 -7.124851972278e-04 
-1.571159218797e-03 -2.082021183410e-04 0.0 
-2.082021183410e-04 7.291178693471e-03 0.0 
0.0 0.0 -1.060142436171e-03 
-1.552782223510e-03 -2.129194587244e-04 0.0 
-2.129194587244e-04 6.002253842572e-03 0.0 
0.0 0.0 -8.626607521900e-04 
-1.382122713210e-03 3.570213775188e-05 0.0 
3.570213775188e-05 5.182667103943e-03 0.0 
0.0 0.0 -7.121912678902e-04 
2.259827960221e-03 -3.791885520061e-04 0.0 
-3.791885520061e-04 -6.773411335669e-04 0.0 
0.0 0.0 -9.442328267794e-05 
1.489465085535e-03 -3.873061726619e-04 0.0 
-3.873061726619e-04 -3.302723319640e-04 0.0 
0.0 0.0 -4.591167563965e-05 
1.195706273835e-03 -4.439423179226e-04 0.0 
-4.439423179226e-04 -2.457069974477e-04 0.0 
0.0 0.0 -4.589015575604e-05 
7.928883186884e-04 -4.308369996379e-04 0.0 
-4.308369996379e-04 -1.962835067220e-05 0.0 
0.0 0.0 -4.556578909549e-05 
-1.455576565641e-03 5.369324781880e-06 0.0 
5.369324781880e-06 4.421569252006e-03 0.0 
0.0 0.0 -1.025222297049e-03 
-1.326853145310e-03 -3.193870868211e-05 0.0 
-3.193870868211e-05 4.074529080795e-03 0.0 
0.0 0.0 -9.784754570978e-04 
3.643447720584e-04 -2.807478551813e-04 0.0 
-2.807478551813e-04 -8.302826669459e-05 0.0 
0.0 0.0 -1.159392125903e-04 
-1.882114812679e-03 5.257899597366e-05 0.0 
5.257899597366e-05 5.463849854237e-03 0.0 
0.0 0.0 -1.072123180932e-03 
1.624781745822e-04 -2.648253394118e-04 0.0 
-2.648253394118e-04 3.767456551544e-06 0.0 
0.0 0.0 -7.124812762874e-05 
-1.341471640605e-03 1.902532918980e-03 0.0 
1.902532918980e-03 8.304452194875e-03 0.0 
0.0 0.0 -1.341471640605e-03 
-1.340968685557e-03 8.342263842268e-04 0.0 
8.342263842268e-04 8.620360450522e-03 0.0 
0.0 0.0 -1.340968685557e-03 
-1.339320413496e-03 1.336323062728e-03 0.0 
1.336323062728e-03 8.515855351859e-03 0.0 
0.0 0.0 -1.339320413496e-03 
-5.175251243654e-04 1.147272255642e-05 0.0 
1.147272255642e-05 1.550881351190e-03 0.0 
0.0 0.0 -2.599136149544e-04 
-9.633323041400e-04 -3.549644401783e-05 0.0 
-3.549644401783e-05 2.981977788141e-03 0.0 
0.0 0.0 -7.340959586659e-04 
-1.337132911908e-03 6.510662741128e-04 0.0 
6.510662741128e-04 8.656607653519e-03 0.0 
0.0 0.0 -1.337132911908e-03 
-2.083032595708e-03 9.922266011855e-05 0.0 
9.922266011855e-05 6.472696883650e-03 0.0 
0.0 0.0 -1.124956933753e-03 
-1.344556937803e-03 5.003882733929e-04 0.0 
5.003882733929e-04 8.710429521741e-03 0.0 
0.0 0.0 -1.344556937803e-03 
-1.932677962729e-03 1.288201926386e-04 0.0 
1.288201926386e-04 6.746175248938e-03 0.0 
0.0 0.0 -1.192538251246e-03 
-1.740079752366e-03 1.547682996820e-04 0.0 
1.547682996820e-04 7.002368902305e-03 0.0 
0.0 0.0 -1.259905836238e-03 
-1.256318881540e-03 -3.058147318078e-04 0.0 
-3.058147318078e-04 3.889569585195e-03 0.0 
0.0 0.0 -9.521061186879e-04 
-1.479483252636e-03 7.231400883548e-04 0.0 
7.231400883548e-04 8.931379513718e-03 0.0 
0.0 0.0 -1.318101597465e-03 
-1.454407492241e-03 7.329644933787e-04 0.0 
7.329644933787e-04 8.932547234701e-03 0.0 
0.0 0.0 -1.321689849711e-03 
-1.996720130669e-03 -4.240856891719e-04 0.0 
-4.240856891719e-04 6.546271744836e-03 0.0 
0.0 0.0 -1.157495185000e-03 
-1.833092771074e-03 -4.338479580684e-04 0.0 
-4.338479580684e-04 6.845712330688e-03 0.0 
0.0 0.0 -1.225777420818e-03 
-1.841879665554e-03 -1.392809369192e-03 0.0 
-1.392809369192e-03 5.462425115064e-03 0.0 
0.0 0.0 -1.076967794221e-03 
0.0 0.0 0.0 
0.0 0.0 0.0 
0.0 0.0 0.0 
-8.795889895974e-04 -1.952925740306e-03 0.0 
-1.952925740306e-03 3.376145193665e-03 0.0 
0.0 0.0 -1.039304039601e-03 
1.660434101197e-03 -6.141622579472e-04 0.0 
-6.141622579472e-04 -6.719522836332e-05 0.0 
0.0 0.0 -2.442944474907e-04 
-1.378694188408e-03 -2.097012646119e-03 0.0 
-2.097012646119e-03 5.460269496084e-03 0.0 
0.0 0.0 -1.177819030284e-03 
-7.813950936845e-04 -2.358745935075e-03 0.0 
-2.358745935075e-03 3.287112188259e-03 0.0 
0.0 0.0 -1.040987640873e-03 
-1.809630590335e-03 -1.291578548695e-03 0.0 
-1.291578548695e-03 5.821414157847e-03 0.0 
0.0 0.0 -1.099016898379e-03 
-2.060296257065e-04 -1.796631504213e-03 0.0 
-1.796631504213e-03 1.564117229874e-03 0.0 
0.0 0.0 -5.820375446434e-04 
4.475341314438e-05 -9.010547106959e-04 0.0 
-9.010547106959e-04 6.723802247933e-04 0.0 
0.0 0.0 -2.733874678612e-04 
-1.819661686397e-03 -1.463949205523e-03 0.0 
-1.463949205523e-03 6.215728401457e-03 0.0 
0.0 0.0 -1.161668299909e-03 
-1.009350816753e-03 -1.981157607315e-03 0.0 
-1.981157607315e-03 3.679610224835e-03 0.0 
0.0 0.0 -1.056886766371e-03 
-1.124597673924e-03 -3.416283390981e-04 0.0 
-3.416283390981e-04 3.530274889455e-03 0.0 
0.0 0.0 -8.978673291013e-04 
-1.908614693689e-03 -1.553426855284e-03 0.0 
-1.553426855284e-03 5.883638228136e-03 0.0 
0.0 0.0 -1.096102707776e-03 
-1.506564574904e-03 4.784902240182e-04 0.0 
4.784902240182e-04 7.990398295391e-03 0.0 
0.0 0.0 -1.188907866872e-03 
-1.145966443117e-03 -2.688887835076e-04 0.0 
-2.688887835076e-04 3.559257817850e-03 0.0 
0.0 0.0 -8.802182425544e-04 
-2.343808151550e-04 -2.448482601409e-03 0.0 
-2.448482601409e-03 2.867036480139e-03 0.0 
0.0 0.0 -1.035646790376e-03 
-9.500506080825e-04 -2.724089328098e-03 0.0 
-2.724089328098e-03 3.674446532369e-03 0.0 
0.0 0.0 -9.625389225288e-04 
-1.856114660532e-03 -1.247587492440e-03 0.0 
-1.247587492440e-03 5.444374226428e-03 0.0 
0.0 0.0 -1.042884296030e-03 
-2.003615679542e-03 -9.107189773551e-04 0.0 
-9.107189773551e-04 5.760788445208e-03 0.0 
0.0 0.0 -1.050199500156e-03 
3.015162384708e-03 1.478491521065e-03 0.0 
1.478491521065e-03 -1.420788746949e-03 0.0 
0.0 0.0 -6.833029876111e-04 
-7.703338813803e-04 2.711642704622e-03 0.0 
2.711642704622e-03 3.268676482316e-03 0.0 
0.0 0.0 -9.206815977879e-04 
8.952220710028e-04 3.337500451005e-03 0.0 
3.337500451005e-03 9.018971507738e-04 0.0 
0.0 0.0 -7.701939521900e-04 
-1.492273682533e-03 -1.948749897048e-03 0.0 
-1.948749897048e-03 4.700056634630e-03 0.0 
0.0 0.0 -1.018483763552e-03 
-1.953152701418e-03 -1.266064436280e-03 0.0 
-1.266064436280e-03 6.190905664489e-03 0.0 
0.0 0.0 -1.125100902632e-03 
-2.130434678919e-03 -5.674193057818e-04 0.0 
-5.674193057818e-04 6.039060582820e-03 0.0 
0.0 0.0 -1.053755873404e-03 
1.981272582958e-04 -2.339075750409e-03 0.0 
-2.339075750409e-03 1.164667172993e-03 0.0 
0.0 0.0 -5.840547562666e-04 
-1.516698384373e-03 7.243684231909e-04 0.0 
7.243684231909e-04 7.963201592157e-03 0.0 
0.0 0.0 -1.183514100502e-03 
-1.571889609711e-03 6.492262438020e-04 0.0 
6.492262438020e-04 7.577660240319e-03 0.0 
0.0 0.0 -1.117084069417e-03 
-1.526943038589e-03 4.067391407097e-04 0.0 
4.067391407097e-04 5.686565415721e-03 0.0 
0.0 0.0 -8.110481619253e-04 
-1.474195239190e-03 -2.107699134124e-03 0.0 
-2.107699134124e-03 4.674985602820e-03 0.0 
0.0 0.0 -1.001070066037e-03 
-1.687869148980e-03 -1.597447162641e-03 0.0 
-1.597447162641e-03 5.094192157887e-03 0.0 
0.0 0.0 -1.032102790996e-03 
-1.559878786953e-03 1.186239496982e-04 0.0 
1.186239496982e-04 8.091883647163e-03 0.0 
0.0 0.0 -1.185362187646e-03 
-1.553576411269e-03 5.639076835034e-04 0.0 
5.639076835034e-04 7.828849217298e-03 0.0 
0.0 0.0 -1.150972777267e-03 
-5.736846005059e-04 -3.010470759541e-03 0.0 
-3.010470759541e-03 3.112745496219e-03 0.0 
0.0 0.0 -1.058777908313e-03 
-1.827264969184e-03 -1.207689843267e-03 0.0 
-1.207689843267e-03 6.491929530035e-03 0.0 
0.0 0.0 -1.190872049285e-03 
-1.617401302618e-03 1.036699389917e-03 0.0 
1.036699389917e-03 7.425262889637e-03 0.0 
0.0 0.0 -1.103416240745e-03 
-2.113993614968e-03 -7.222808743220e-04 0.0 
-7.222808743220e-04 6.023476369147e-03 0.0 
0.0 0.0 -1.069496670503e-03 
-1.471914821471e-03 -1.998353424490e-03 0.0 
-1.998353424490e-03 5.883536090439e-03 0.0 
0.0 0.0 -1.210017230578e-03 
-1.575272729869e-03 3.494544289054e-04 0.0 
3.494544289054e-04 8.019533452472e-03 0.0 
0.0 0.0 -1.181737430652e-03 
-1.652502708926e-03 2.520535947120e-04 0.0 
2.520535947120e-04 7.001595806507e-03 0.0 
0.0 0.0 -1.011817915138e-03 
-3.838894113269e-04 -2.804191833148e-03 0.0 
-2.804191833148e-03 2.874279057775e-03 0.0 
0.0 0.0 -9.985655989919e-04 
-6.304965187655e-04 -7.604202958905e-04 0.0 
-7.604202958905e-04 2.203620271365e-03 0.0 
0.0 0.0 -6.656342390725e-04 
4.047615641515e-04 -2.474054827037e-03 0.0 
-2.474054827037e-03 9.613198754716e-04 0.0 
0.0 0.0 -5.854634741242e-04 
2.836227978939e-05 -1.580599960261e-03 0.0 
-1.580599960261e-03 9.832792497712e-04 0.0 
0.0 0.0 -4.149592254337e-04 
1.034548557929e-04 -1.227500156599e-03 0.0 
-1.227500156599e-03 6.126727267546e-04 0.0 
0.0 0.0 -3.069118210918e-04 
-1.577352812428e-03 2.114313367924e-04 0.0 
2.114313367924e-04 7.845695102100e-03 0.0 
0.0 0.0 -1.150998037120e-03 
-1.900941556448e-03 -7.041406832224e-04 0.0 
-7.041406832224e-04 6.386638876857e-03 0.0 
0.0 0.0 -1.156839719840e-03 
6.843292428348e-05 -1.144232504345e-03 0.0 
-1.144232504345e-03 6.143886100226e-04 0.0 
0.0 0.0 -2.926378004169e-04 
-1.601987702258e-03 2.442990824200e-03 0.0 
2.442990824200e-03 6.852419756780e-03 0.0 
0.0 0.0 -1.160298666437e-03 
-1.543111448516e-03 4.596328783708e-04 0.0 
4.596328783708e-04 5.853297686999e-03 0.0 
0.0 0.0 -8.436798659344e-04 
-1.824750470194e-03 -1.859013687658e-03 0.0 
-1.859013687658e-03 5.532595994557e-03 0.0 
0.0 0.0 -1.067477449466e-03 
-2.006499161308e-03 -7.976010001953e-04 0.0 
-7.976010001953e-04 6.083504909474e-03 0.0 
0.0 0.0 -1.090430023688e-03 
7.833829666557e-04 -2.711290744461e-03 0.0 
-2.711290744461e-03 6.776524641225e-04 0.0 
0.0 0.0 -6.261580417621e-04 
-2.076799610215e-03 -1.031710463461e-03 0.0 
-1.031710463461e-03 6.135351760274e-03 0.0 
0.0 0.0 -1.087955833448e-03 
-1.557514890525e-03 -6.173462151110e-05 0.0 
-6.173462151110e-05 5.695796094032e-03 0.0 
0.0 0.0 -8.100176300978e-04 
8.750615862245e-04 9.176848780839e-04 0.0 
9.176848780839e-04 1.438408062181e-03 0.0 
0.0 0.0 -9.914869921737e-04 
-1.497791782641e-03 -1.444847597853e-03 0.0 
-1.444847597853e-03 6.204442023908e-03 0.0 
0.0 0.0 -1.242964905849e-03 
-6.875629852487e-04 -4.240155203853e-04 0.0 
-4.240155203853e-04 2.190912803371e-03 0.0 
0.0 0.0 -5.658909553065e-04 
-1.268098618658e-03 -2.126035490962e-03 0.0 
-2.126035490962e-03 5.495926708526e-03 0.0 
0.0 0.0 -1.215045542354e-03 
-1.631557581403e-03 2.235766335083e-04 0.0 
2.235766335083e-04 7.237605270102e-03 0.0 
0.0 0.0 -1.048288725887e-03 
-7.383595785151e-04 -6.377031037024e-04 0.0 
-6.377031037024e-04 2.446869421887e-03 0.0 
0.0 0.0 -6.818911139857e-04 
3.993077738021e-04 -2.419206884214e-03 0.0 
-2.419206884214e-03 9.348823657586e-04 0.0 
0.0 0.0 -5.717957740974e-04 
-1.500476059484e-03 -8.906484908892e-04 0.0 
-8.906484908892e-04 4.589149281530e-03 0.0 
0.0 0.0 -1.044847128380e-03 
-1.630418366467e-03 6.661053165545e-04 0.0 
6.661053165545e-04 6.481746764143e-03 0.0 
0.0 0.0 -9.409807611877e-04 
-5.756498552716e-04 -2.159817615522e-03 0.0 
-2.159817615522e-03 2.678873720584e-03 0.0 
0.0 0.0 -9.013816565627e-04 
-1.610525300296e-03 1.600914995101e-04 0.0 
1.600914995101e-04 7.460282061065e-03 0.0 
0.0 0.0 -1.085119818393e-03 
-1.626505474320e-03 1.193898643633e-04 0.0 
1.193898643633e-04 6.796479922044e-03 0.0 
0.0 0.0 -9.816794289629e-04 
-1.168002604940e-03 -1.979309092588e-03 0.0 
-1.979309092588e-03 4.001814082530e-03 0.0 
0.0 0.0 -1.032510638845e-03 
-1.993224441762e-03 -1.056137829821e-03 0.0 
-1.056137829821e-03 5.774090597717e-03 0.0 
0.0 0.0 -1.075584385303e-03 
-2.021709392423e-03 -1.349459280440e-03 0.0 
-1.349459280440e-03 5.860171390496e-03 0.0 
0.0 0.0 -1.066391945090e-03 
-1.595291763312e-03 5.874023300959e-04 0.0 
5.874023300959e-04 7.178060268656e-03 0.0 
0.0 0.0 -1.050681058959e-03 
-5.082515002275e-04 -8.941420093747e-04 0.0 
-8.941420093747e-04 1.798316205834e-03 0.0 
0.0 0.0 -5.009000172756e-04 
-1.206852124203e-03 -1.671075112969e-03 0.0 
-1.671075112969e-03 4.019505130445e-03 0.0 
0.0 0.0 -1.029746919386e-03 
-5.152753143587e-05 2.170825683475e-03 0.0 
2.170825683475e-03 3.140726951459e-03 0.0 
0.0 0.0 -1.141128458404e-03 
-1.641668485544e-03 3.431501301840e-04 0.0 
3.431501301840e-04 7.404941610079e-03 0.0 
0.0 0.0 -1.078198857115e-03 
-1.057951637287e-03 -1.671343146736e-03 0.0 
-1.671343146736e-03 3.677031607098e-03 0.0 
0.0 0.0 -1.017599913258e-03 
-8.954401304147e-04 -2.800206404235e-03 0.0 
-2.800206404235e-03 3.674164100142e-03 0.0 
0.0 0.0 -1.058318663232e-03 
-1.115312546428e-03 -2.189534952593e-03 0.0 
-2.189534952593e-03 5.045014028914e-03 0.0 
0.0 0.0 -1.187586327529e-03 
-1.596801678993e-03 6.045917028781e-04 0.0 
6.045917028781e-04 6.950727632054e-03 0.0 
0.0 0.0 -1.013969106439e-03 
2.322873706387e-04 -1.368679716301e-04 0.0 
-1.368679716301e-04 -2.322873706387e-04 0.0 
0.0 0.0 0.0 
4.726741315202e-05 -1.330898926681e-03 0.0 
-1.330898926681e-03 8.674614564573e-04 0.0 
0.0 0.0 -2.916872467244e-04 
2.273358372470e-03 1.445761220817e-05 0.0 
1.445761220817e-05 -1.234043607805e-03 0.0 
0.0 0.0 -4.454206134279e-04 
-1.880676767284e-03 -9.969975945957e-04 0.0 
-9.969975945957e-04 6.131847364448e-03 0.0 
0.0 0.0 -1.127837695838e-03 
-1.619604464873e-03 6.374782176385e-04 0.0 
6.374782176385e-04 6.719807393941e-03 0.0 
0.0 0.0 -9.775003154318e-04 
-1.665473239862e-03 -8.814240019008e-04 0.0 
-8.814240019008e-04 4.990171794499e-03 0.0 
0.0 0.0 -1.065326950858e-03 
-1.596762474986e-03 5.442334346395e-04 0.0 
5.442334346395e-04 6.065464133813e-03 0.0 
0.0 0.0 -8.745614812816e-04 
-3.748877525410e-04 -1.800985621523e-03 0.0 
-1.800985621523e-03 3.574605346147e-03 0.0 
0.0 0.0 -1.139196670502e-03 
-1.359206623324e-03 -1.598338811102e-03 0.0 
-1.598338811102e-03 4.356288718259e-03 0.0 
0.0 0.0 -1.038619054332e-03 
-1.952425401121e-03 -1.122489104774e-03 0.0 
-1.122489104774e-03 5.808139918506e-03 0.0 
0.0 0.0 -1.061632825506e-03 
-7.352512267089e-04 -7.174892847169e-04 0.0 
-7.174892847169e-04 2.324934696345e-03 0.0 
0.0 0.0 -5.540246046759e-04 
-1.437645385880e-03 -1.599317358972e-03 0.0 
-1.599317358972e-03 5.870614125847e-03 0.0 
0.0 0.0 -1.211531131004e-03 
-1.154210490817e-03 -1.954082935906e-03 0.0 
-1.954082935906e-03 4.005717739264e-03 0.0 
0.0 0.0 -1.074148950826e-03 
-8.379192553434e-04 -5.906240485017e-04 0.0 
-5.906240485017e-04 2.576604047046e-03 0.0 
0.0 0.0 -5.876558844704e-04 
-1.197102623790e-03 -1.637680359765e-03 0.0 
-1.637680359765e-03 4.017415051808e-03 0.0 
0.0 0.0 -1.056762485630e-03 
-7.509293429896e-04 -1.933738058068e-03 0.0 
-1.933738058068e-03 3.044668356527e-03 0.0 
0.0 0.0 -9.830310058020e-04 
-3.848069222800e-04 -1.987035085230e-03 0.0 
-1.987035085230e-03 2.096507399408e-03 0.0 
0.0 0.0 -7.335859187690e-04 
-1.641529108376e-03 -8.260601691015e-04 0.0 
-8.260601691015e-04 4.922455749525e-03 0.0 
0.0 0.0 -1.057704792895e-03 
1.274028603033e-03 -1.869459937269e-04 0.0 
-1.869459937269e-04 -4.728594485301e-04 0.0 
0.0 0.0 -1.484808277242e-04 
8.391344234421e-04 -3.183235339587e-04 0.0 
-3.183235339587e-04 -2.967630892776e-04 0.0 
0.0 0.0 -1.070543391422e-04 
-1.665019363331e-03 -1.732448119605e-03 0.0 
-1.732448119605e-03 5.107282910853e-03 0.0 
0.0 0.0 -1.076850574752e-03 
-6.443609575616e-04 -8.027982188953e-04 0.0 
-8.027982188953e-04 2.093114862673e-03 0.0 
0.0 0.0 -5.127475950200e-04 
-1.433152566994e-03 -2.256582062865e-03 0.0 
-2.256582062865e-03 4.678524487026e-03 0.0 
0.0 0.0 -1.065643708224e-03 
-1.181624258185e-03 -2.541209283503e-03 0.0 
-2.541209283503e-03 4.198630913141e-03 0.0 
0.0 0.0 -1.061543848411e-03 
-2.864899867882e-04 -2.872572545388e-03 0.0 
-2.872572545388e-03 2.406784440249e-03 0.0 
0.0 0.0 -9.086976229117e-04 
1.281208818910e-03 -3.086935772070e-03 0.0 
-3.086935772070e-03 3.369465702636e-04 0.0 
0.0 0.0 -6.934951667886e-04 
-1.645375116221e-03 6.411920099951e-04 0.0 
6.411920099951e-04 7.711017833911e-03 0.0 
0.0 0.0 -1.137719822027e-03 
1.154207816654e-03 1.867319367673e-03 0.0 
1.867319367673e-03 -6.876363112737e-04 0.0 
0.0 0.0 -1.999592165914e-04 
-9.249733248304e-04 -1.654130041636e-03 0.0 
-1.654130041636e-03 3.362873241434e-03 0.0 
0.0 0.0 -9.992710862841e-04 
-3.877098979375e-04 -1.380494157509e-03 0.0 
-1.380494157509e-03 3.663297430763e-03 0.0 
0.0 0.0 -1.175533656463e-03 
-5.174404311479e-04 -5.539878075327e-04 0.0 
-5.539878075327e-04 1.742776399261e-03 0.0 
0.0 0.0 -4.908139796285e-04 
-1.654366313170e-03 2.025707585884e-04 0.0 
2.025707585884e-04 6.355277344232e-03 0.0 
0.0 0.0 -9.088859120638e-04 
-1.608026372927e-03 7.066471578212e-05 0.0 
7.066471578212e-05 5.908321987661e-03 0.0 
0.0 0.0 -8.416286270284e-04 
-1.832935889570e-04 -1.554120033244e-03 0.0 
-1.554120033244e-03 1.379295739965e-03 0.0 
0.0 0.0 -5.125723504322e-04 
-9.249495539582e-04 -2.182927448984e-03 0.0 
-2.182927448984e-03 4.540217093715e-03 0.0 
0.0 0.0 -1.158722036769e-03 
-1.708983070523e-03 5.831805314674e-04 0.0 
5.831805314674e-04 7.093076428562e-03 0.0 
0.0 0.0 -1.034898561726e-03 
-5.347835094169e-04 -8.712026877687e-04 0.0 
-8.712026877687e-04 1.955284966163e-03 0.0 
0.0 0.0 -6.087863386054e-04 
-1.641053002078e-03 8.278210871732e-04 0.0 
8.278210871732e-04 7.844844353227e-03 0.0 
0.0 0.0 -1.166520446339e-03 
-1.573669309360e-03 1.135775076811e-03 0.0 
1.135775076811e-03 7.785651679837e-03 0.0 
0.0 0.0 -1.169001632583e-03 
-5.801197933913e-04 -1.186925299187e-03 0.0 
-1.186925299187e-03 2.194197512368e-03 0.0 
0.0 0.0 -6.784273028471e-04 
3.325860372313e-04 2.756630050232e-03 0.0 
2.756630050232e-03 1.228114910237e-03 0.0 
0.0 0.0 -6.688718346292e-04 
-3.593200341485e-04 -1.692198470874e-03 0.0 
-1.692198470874e-03 1.863660251544e-03 0.0 
0.0 0.0 -6.447172360267e-04 
-1.851327153153e-03 -1.651837749691e-03 0.0 
-1.651837749691e-03 5.510234686298e-03 0.0 
0.0 0.0 -1.068438311093e-03 
-1.517049278155e-03 -1.208152311661e-03 0.0 
-1.208152311661e-03 4.665351215207e-03 0.0 
0.0 0.0 -1.047608655120e-03 
-1.588271255534e-03 2.440442444252e-03 0.0 
2.440442444252e-03 7.130284191767e-03 0.0 
0.0 0.0 -1.169529464977e-03 
-1.586290284398e-03 9.796528348583e-04 0.0 
9.796528348583e-04 7.658587432112e-03 0.0 
0.0 0.0 -1.140030709108e-03 
-1.655646109898e-03 -1.957177626158e-03 0.0 
-1.957177626158e-03 5.116194479746e-03 0.0 
0.0 0.0 -1.068248785331e-03 
-1.685997880852e-03 -1.784608356716e-03 0.0 
-1.784608356716e-03 5.105111501202e-03 0.0 
0.0 0.0 -1.017402529519e-03 
-2.876771207717e-04 -1.389411797297e-03 0.0 
-1.389411797297e-03 1.511875759344e-03 0.0 
0.0 0.0 -5.246565593881e-04 
-1.860731135260e-03 -1.457489852606e-03 0.0 
-1.457489852606e-03 5.487326218288e-03 0.0 
0.0 0.0 -1.032853941699e-03 
-1.642797758815e-03 9.181312676492e-04 0.0 
9.181312676492e-04 7.041840567815e-03 0.0 
0.0 0.0 -1.037144748481e-03 
-1.515109443870e-03 -1.227447560286e-03 0.0 
-1.227447560286e-03 4.684685552436e-03 0.0 
0.0 0.0 -1.069204617036e-03 
-1.671620005891e-03 2.929392441870e-04 0.0 
2.929392441870e-04 6.771202525829e-03 0.0 
0.0 0.0 -9.752741834902e-04 
-1.678948556331e-03 5.367956015661e-04 0.0 
5.367956015661e-04 7.330127940856e-03 0.0 
0.0 0.0 -1.071415751597e-03 
2.313268375330e-03 1.796314023182e-03 0.0 
1.796314023182e-03 -1.074261141593e-03 0.0 
0.0 0.0 -5.310031001729e-04 
-1.592584348350e-03 8.322792606474e-04 0.0 
8.322792606474e-04 7.512035850087e-03 0.0 
0.0 0.0 -1.110258267496e-03 
-1.248028584087e-03 -1.336863044777e-03 0.0 
-1.336863044777e-03 4.037984938667e-03 0.0 
0.0 0.0 -1.014964823884e-03 
-1.349668852610e-03 -1.596461481346e-03 0.0 
-1.596461481346e-03 4.366516516387e-03 0.0 
0.0 0.0 -1.071455489612e-03 
-8.215746796524e-04 -1.528227033612e-03 0.0 
-1.528227033612e-03 3.070718427055e-03 0.0 
0.0 0.0 -9.608678829247e-04 
1.835549677296e-04 -2.809528380429e-03 0.0 
-2.809528380429e-03 1.483313829287e-03 0.0 
0.0 0.0 -7.143723415785e-04 
-1.633555633710e-03 7.702002767988e-04 0.0 
7.702002767988e-04 6.885994191198e-03 0.0 
0.0 0.0 -1.007339817349e-03 
3.076530191659e-04 -3.054269635980e-03 0.0 
-3.054269635980e-03 1.447807107602e-03 0.0 
0.0 0.0 -7.523400543292e-04 
-5.051265774841e-04 -1.582649049219e-03 0.0 
-1.582649049219e-03 2.186388830496e-03 0.0 
0.0 0.0 -7.205409655765e-04 
-1.167533049478e-04 -1.421228658134e-03 0.0 
-1.421228658134e-03 1.178987498042e-03 0.0 
0.0 0.0 -4.201231086673e-04 
-1.691347074083e-03 4.318386709728e-04 0.0 
4.318386709728e-04 6.937090811669e-03 0.0 
0.0 0.0 -1.005115000480e-03 
-4.635122803593e-04 -1.604799167025e-03 0.0 
-1.604799167025e-03 2.085354868508e-03 0.0 
0.0 0.0 -6.950753949209e-04 
-1.191515342284e-03 -1.717007076640e-03 0.0 
-1.717007076640e-03 5.423834924642e-03 0.0 
0.0 0.0 -1.218716866995e-03 
-1.611990725284e-03 7.358230951730e-04 0.0 
7.358230951730e-04 7.120198208464e-03 0.0 
0.0 0.0 -1.043883448597e-03 
-1.702982719558e-03 -1.584997506959e-03 0.0 
-1.584997506959e-03 5.470541578607e-03 0.0 
0.0 0.0 -1.070373463590e-03 
-9.109045738307e-04 -2.286339166372e-04 0.0 
-2.286339166372e-04 4.268441463060e-03 0.0 
0.0 0.0 -1.284729618418e-03 
-1.071268175159e-03 -1.648454023553e-03 0.0 
-1.648454023553e-03 3.707169372543e-03 0.0 
0.0 0.0 -1.023311028316e-03 
-5.174967158518e-04 -1.184771327579e-03 0.0 
-1.184771327579e-03 2.030619627748e-03 0.0 
0.0 0.0 -6.484812479557e-04 
-2.326317737538e-04 -1.038651026586e-03 0.0 
-1.038651026586e-03 1.174275035768e-03 0.0 
0.0 0.0 -4.035613980062e-04 
-1.410090236189e-03 -2.406400776569e-03 0.0 
-2.406400776569e-03 4.648410275236e-03 0.0 
0.0 0.0 -1.051259780966e-03 
-1.600848466290e-03 5.345976904083e-04 0.0 
5.345976904083e-04 6.550294708413e-03 0.0 
0.0 0.0 -9.473489374553e-04 
-8.717253142324e-05 -9.933700925620e-04 0.0 
-9.933700925620e-04 8.344671106644e-04 0.0 
0.0 0.0 -3.202691053891e-04 
-6.027995719924e-04 -2.107392599842e-03 0.0 
-2.107392599842e-03 2.722751826872e-03 0.0 
0.0 0.0 -9.085509663768e-04 
-7.199860598078e-04 -4.341095348245e-04 0.0 
-4.341095348245e-04 2.121552428607e-03 0.0 
0.0 0.0 -4.196057652059e-04 
-1.682938822042e-03 3.318724932828e-04 0.0 
3.318724932828e-04 6.532037136807e-03 0.0 
0.0 0.0 -9.387834224271e-04 
-7.776326742692e-04 -1.884645157224e-03 0.0 
-1.884645157224e-03 3.094899202807e-03 0.0 
0.0 0.0 -9.909213861921e-04 
-1.231039957355e-03 -2.426325464904e-03 0.0 
-2.426325464904e-03 4.199347214172e-03 0.0 
0.0 0.0 -9.819879942351e-04 
-8.554599545912e-04 -1.459966539243e-03 0.0 
-1.459966539243e-03 3.093994812612e-03 0.0 
0.0 0.0 -9.237817853494e-04 
-1.614515104562e-03 2.789174945577e-04 0.0 
2.789174945577e-04 7.633843682432e-03 0.0 
0.0 0.0 -1.114809527198e-03 
-5.165996464755e-04 -1.902435422896e-03 0.0 
-1.902435422896e-03 2.384778332934e-03 0.0 
0.0 0.0 -8.006480084822e-04 
-1.128557246388e-03 -2.713813412197e-03 0.0 
-2.713813412197e-03 4.096504171839e-03 0.0 
0.0 0.0 -1.021386065992e-03 
3.769531236008e-04 -2.410295298791e-03 0.0 
-2.410295298791e-03 9.611755011410e-04 0.0 
0.0 0.0 -5.734836963179e-04 
-1.146759310470e-03 -2.656955500371e-03 0.0 
-2.656955500371e-03 4.139056916818e-03 0.0 
0.0 0.0 -1.043150860743e-03 
-1.375457983811e-03 -1.244246825682e-03 0.0 
-1.244246825682e-03 4.353109699875e-03 0.0 
0.0 0.0 -1.054662228279e-03 
-1.554003148348e-03 -1.878419659560e-03 0.0 
-1.878419659560e-03 5.069341272683e-03 0.0 
0.0 0.0 -1.041555045145e-03 
3.002499616426e-03 -7.287809856288e-04 0.0 
-7.287809856288e-04 -1.352929250409e-03 0.0 
0.0 0.0 -7.069587282928e-04 
-6.177242885591e-04 -4.890935474393e-04 0.0 
-4.890935474393e-04 2.000133674606e-03 0.0 
0.0 0.0 -5.285791946032e-04 
-1.609261505607e-03 9.637114852810e-05 0.0 
9.637114852810e-05 6.165456359686e-03 0.0 
0.0 0.0 -8.787268422831e-04 
6.987156508361e-04 -1.946712657170e-03 0.0 
-1.946712657170e-03 1.033985256572e-03 0.0 
0.0 0.0 -7.425861031749e-04 
3.405430775163e-04 3.191948666083e-03 0.0 
3.191948666083e-03 1.485409776068e-03 0.0 
0.0 0.0 -7.825512229649e-04 
-1.644262011324e-03 1.659911649759e-04 0.0 
1.659911649759e-04 6.584724351472e-03 0.0 
0.0 0.0 -9.453210152248e-04 
6.455202986104e-04 -2.635854245695e-03 0.0 
-2.635854245695e-03 6.894465372206e-04 0.0 
0.0 0.0 -5.721286439276e-04 
-1.681255032869e-03 9.721382689111e-04 0.0 
9.721382689111e-04 6.557103597372e-03 0.0 
0.0 0.0 -9.642804585795e-04 
-6.124308423891e-04 -5.450173225678e-04 0.0 
-5.450173225678e-04 1.850421424375e-03 0.0 
0.0 0.0 -3.816933993452e-04 
-1.231036729784e-03 -2.253664933021e-03 0.0 
-2.253664933021e-03 5.042416419642e-03 0.0 
0.0 0.0 -1.150402778756e-03 
7.350617248358e-04 -1.287476273638e-03 0.0 
-1.287476273638e-03 1.272883254993e-03 0.0 
0.0 0.0 -8.605478484982e-04 
6.223710608225e-04 1.356379083397e-03 0.0 
1.356379083397e-03 1.985099964088e-03 0.0 
0.0 0.0 -1.037051012011e-03 
-1.598102879927e-03 7.448720335872e-04 0.0 
7.448720335872e-04 8.095744984387e-03 0.0 
0.0 0.0 -1.204463612412e-03 
8.919152436734e-05 -3.143989424638e-03 0.0 
-3.143989424638e-03 1.851557330955e-03 0.0 
0.0 0.0 -8.317495094241e-04 
-4.309306607764e-04 -9.183848167176e-04 0.0 
-9.183848167176e-04 1.661245254261e-03 0.0 
0.0 0.0 -5.272776829218e-04 
-5.215676815475e-04 -3.050968300431e-03 0.0 
-3.050968300431e-03 3.002352665044e-03 0.0 
0.0 0.0 -1.027200950222e-03 
-1.049023862644e-03 -1.741518653201e-03 0.0 
-1.741518653201e-03 4.976635689622e-03 0.0 
0.0 0.0 -1.189963100592e-03 
9.320234363391e-04 -2.596047537173e-03 0.0 
-2.596047537173e-03 3.625727901238e-04 0.0 
0.0 0.0 -5.548269541984e-04 
-1.645253786717e-03 -2.142300707641e-03 0.0 
-2.142300707641e-03 5.116342603387e-03 0.0 
0.0 0.0 -1.056575865346e-03 
-1.668373394945e-03 3.866502142135e-04 0.0 
3.866502142135e-04 7.172333763355e-03 0.0 
0.0 0.0 -1.041631482750e-03 
1.707610751817e-03 -3.111302323774e-03 0.0 
-3.111302323774e-03 2.006678016111e-05 0.0 
0.0 0.0 -7.404332279907e-04 
-8.518987020310e-04 -2.879189791171e-03 0.0 
-2.879189791171e-03 3.589652711545e-03 0.0 
0.0 0.0 -1.034177093206e-03 
-1.689258382171e-03 3.631400807220e-04 0.0 
3.631400807220e-04 6.026727173804e-03 0.0 
0.0 0.0 -8.663127257150e-04 
-8.305596344540e-04 -9.136388392921e-04 0.0 
-9.136388392921e-04 2.720781083117e-03 0.0 
0.0 0.0 -7.057144296542e-04 
-4.174774710502e-04 -2.264727665933e-03 0.0 
-2.264727665933e-03 2.338052704739e-03 0.0 
0.0 0.0 -8.231036715810e-04 
1.803968687695e-04 3.742029911528e-03 0.0 
3.742029911528e-03 2.055326787370e-03 0.0 
0.0 0.0 -9.358934819731e-04 
-1.362318107691e-03 -2.168484734475e-03 0.0 
-2.168484734475e-03 4.618346883937e-03 0.0 
0.0 0.0 -1.012809740122e-03 
-6.445707195621e-05 3.204089462648e-03 0.0 
3.204089462648e-03 2.166873657449e-03 0.0 
0.0 0.0 -9.010356794969e-04 
5.513709198924e-04 3.609450072054e-03 0.0 
3.609450072054e-03 1.451733722049e-03 0.0 
0.0 0.0 -8.584734179747e-04 
-1.663785911262e-03 9.479908707512e-04 0.0 
9.479908707512e-04 6.801753296704e-03 0.0 
0.0 0.0 -1.000670320419e-03 
-1.603261119446e-03 5.580378966873e-04 0.0 
5.580378966873e-04 6.304876685805e-03 0.0 
0.0 0.0 -9.110000341593e-04 
-1.665053571431e-03 8.222814637678e-04 0.0 
8.222814637678e-04 6.156291516455e-03 0.0 
0.0 0.0 -8.984003255416e-04 
-1.378097458895e-03 -1.307048665384e-03 0.0 
-1.307048665384e-03 4.348190678149e-03 0.0 
0.0 0.0 -1.034446146726e-03 
-6.901682956972e-04 -2.185652284413e-03 0.0 
-2.185652284413e-03 4.019713840668e-03 0.0 
0.0 0.0 -1.130631056169e-03 
-1.834308716731e-04 -3.140526153133e-03 0.0 
-3.140526153133e-03 2.359250978041e-03 0.0 
0.0 0.0 -9.324943313007e-04 
-1.664409897791e-03 2.283299940873e-04 0.0 
2.283299940873e-04 6.118881933301e-03 0.0 
0.0 0.0 -8.720525204519e-04 
-1.540055594527e-03 2.603535571495e-03 0.0 
2.603535571495e-03 6.865325717395e-03 0.0 
0.0 0.0 -1.193584144721e-03 
3.472050528190e-04 1.692564590117e-03 0.0 
1.692564590117e-03 2.541247573186e-03 0.0 
0.0 0.0 -1.073433710836e-03 
-1.128039575521e-03 -2.445102979842e-03 0.0 
-2.445102979842e-03 4.119062361786e-03 0.0 
0.0 0.0 -9.841343610905e-04 
-1.618130106290e-03 8.767059940841e-04 0.0 
8.767059940841e-04 7.278368023729e-03 0.0 
0.0 0.0 -1.073677668998e-03 
-6.910390954278e-05 -2.799918663238e-03 0.0 
-2.799918663238e-03 1.917780934052e-03 0.0 
0.0 0.0 -7.922901533612e-04 
-2.515921695526e-04 -2.585539987467e-03 0.0 
-2.585539987467e-03 2.152735873912e-03 0.0 
0.0 0.0 -8.147758732969e-04 
-3.310614028043e-04 -1.379924337061e-03 0.0 
-1.379924337061e-03 1.616149347076e-03 0.0 
0.0 0.0 -5.507519761165e-04 
-5.011752582021e-04 -3.030712813107e-03 0.0 
-3.030712813107e-03 2.924383664169e-03 0.0 
0.0 0.0 -9.894786617912e-04 
-4.694395913292e-04 -2.445221033123e-03 0.0 
-2.445221033123e-03 2.569902493715e-03 0.0 
0.0 0.0 -9.001983867369e-04 
-1.710187933828e-03 4.633984892961e-04 0.0 
4.633984892961e-04 6.694041267773e-03 0.0 
0.0 0.0 -9.686535345556e-04 
-1.726289188827e-03 4.896054940225e-04 0.0 
4.896054940225e-04 6.449117765340e-03 0.0 
0.0 0.0 -9.322463471790e-04 
2.416944889244e-03 5.439879453653e-04 0.0 
5.439879453653e-04 -1.208818724836e-03 0.0 
0.0 0.0 -5.177683561747e-04 
-1.928901237433e-04 -2.408049599402e-03 0.0 
-2.408049599402e-03 1.916746904624e-03 0.0 
0.0 0.0 -7.387957632348e-04 
2.990366271950e-03 1.613745370932e-03 0.0 
1.613745370932e-03 -1.371577636674e-03 0.0 
0.0 0.0 -6.937665579755e-04 
-3.910486537431e-04 -2.315216698545e-03 0.0 
-2.315216698545e-03 2.304304739270e-03 0.0 
0.0 0.0 -8.199668937971e-04 
-2.230223782308e-04 -2.682222528879e-03 0.0 
-2.682222528879e-03 2.152181418268e-03 0.0 
0.0 0.0 -8.267824457303e-04 
-4.073029906979e-04 -1.294483440297e-03 0.0 
-1.294483440297e-03 1.772331589387e-03 0.0 
0.0 0.0 -5.850122565809e-04 
-4.258807302887e-04 -2.144389728424e-03 0.0 
-2.144389728424e-03 3.478718025925e-03 0.0 
0.0 0.0 -1.101849228970e-03 
4.193172772845e-04 -3.233569204744e-03 0.0 
-3.233569204744e-03 1.400177349689e-03 0.0 
0.0 0.0 -7.797834115600e-04 
-1.646879822787e-03 4.813878958504e-04 0.0 
4.813878958504e-04 7.564621706005e-03 0.0 
0.0 0.0 -1.107989045227e-03 
6.164328486864e-04 -3.141645067701e-03 0.0 
-3.141645067701e-03 1.094713369857e-03 0.0 
0.0 0.0 -7.333483793757e-04 
-5.352671715167e-04 -2.920481306985e-03 0.0 
-2.920481306985e-03 2.976534494236e-03 0.0 
0.0 0.0 -9.268471029392e-04 
3.090740504692e-05 -3.263078096127e-03 0.0 
-3.263078096127e-03 2.029516789361e-03 0.0 
0.0 0.0 -8.830389404605e-04 
1.224821345307e-03 3.216271527602e-03 0.0 
3.216271527602e-03 4.534564749945e-04 0.0 
0.0 0.0 -7.192619229864e-04 
-4.591680976874e-04 -1.267727629031e-03 0.0 
-1.267727629031e-03 1.902437159688e-03 0.0 
0.0 0.0 -6.185438837147e-04 
-8.295759423418e-04 -1.747729159177e-03 0.0 
-1.747729159177e-03 4.457598420487e-03 0.0 
0.0 0.0 -1.161691925552e-03 
-8.640451209017e-04 -2.074084677624e-03 0.0 
-2.074084677624e-03 4.658509439049e-03 0.0 
0.0 0.0 -1.198716319349e-03 
-6.013355258858e-04 3.714306523016e-03 0.0 
3.714306523016e-03 3.360817493125e-03 0.0 
0.0 0.0 -9.650368815299e-04 
-1.923559704036e-05 -2.994572033542e-03 0.0 
-2.994572033542e-03 1.948727475502e-03 0.0 
0.0 0.0 -8.269250907692e-04 
-2.503696762219e-04 -3.166835997765e-03 0.0 
-3.166835997765e-03 2.485701371906e-03 0.0 
0.0 0.0 -9.354962741733e-04 
-1.647815013080e-03 8.021683468908e-04 0.0 
8.021683468908e-04 6.643407279142e-03 0.0 
0.0 0.0 -9.708520278613e-04 
-3.181114656463e-04 -2.713015915343e-03 0.0 
-2.713015915343e-03 2.377429006136e-03 0.0 
0.0 0.0 -8.825646602100e-04 
7.116670481849e-04 3.351796189116e-03 0.0 
3.351796189116e-03 1.105566406541e-03 0.0 
0.0 0.0 -7.788143377395e-04 
-5.501781971430e-04 -1.884487968291e-03 0.0 
-1.884487968291e-03 2.464549120431e-03 0.0 
0.0 0.0 -8.204446814089e-04 
9.957483789486e-04 -2.931560812442e-03 0.0 
-2.931560812442e-03 3.486105119444e-04 0.0 
0.0 0.0 -5.761538103827e-04 
1.170702144068e-04 -2.917551374595e-03 0.0 
-2.917551374595e-03 1.660101911363e-03 0.0 
0.0 0.0 -7.616451967584e-04 
-5.960830469200e-04 -1.478493121431e-03 0.0 
-1.478493121431e-03 2.390521820873e-03 0.0 
0.0 0.0 -7.690451888369e-04 
-7.193147455851e-04 -1.069003876046e-03 0.0 
-1.069003876046e-03 2.479314286133e-03 0.0 
0.0 0.0 -6.849754419779e-04 
-1.850126680382e-05 -3.140240111362e-03 0.0 
-3.140240111362e-03 2.040450553655e-03 0.0 
0.0 0.0 -8.665496943648e-04 
-8.517286139436e-04 -2.699031265188e-03 0.0 
-2.699031265188e-03 3.572094775893e-03 0.0 
0.0 0.0 -9.554846610150e-04 
-9.258628841067e-04 3.334973100130e-03 0.0 
3.334973100130e-03 4.800766489173e-03 0.0 
0.0 0.0 -1.128610778606e-03 
1.795476015728e-03 -3.745896555992e-04 0.0 
-3.745896555992e-04 -4.681407310308e-04 0.0 
0.0 0.0 -1.007271482096e-04 
1.477477984761e-03 -2.160820890410e-03 0.0 
-2.160820890410e-03 -1.640262078733e-04 0.0 
0.0 0.0 -5.629079043802e-04 
9.457248714060e-04 -2.859194649623e-03 0.0 
-2.859194649623e-03 6.047505636496e-04 0.0 
0.0 0.0 -6.644894721667e-04 
2.064739481844e-04 -3.194226446081e-03 0.0 
-3.194226446081e-03 1.689929388459e-03 0.0 
0.0 0.0 -8.127442871328e-04 
-1.656928892650e-03 8.151295774597e-04 0.0 
8.151295774597e-04 6.399838907814e-03 0.0 
0.0 0.0 -9.344164207832e-04 
2.545948249673e-04 -3.270064507394e-03 0.0 
-3.270064507394e-03 1.662466157556e-03 0.0 
0.0 0.0 -8.215975639385e-04 
-6.717590179400e-04 -1.743398916895e-03 0.0 
-1.743398916895e-03 2.730040439290e-03 0.0 
0.0 0.0 -8.821206091502e-04 
2.940147133768e-04 -2.953116785718e-03 0.0 
-2.953116785718e-03 1.404914365559e-03 0.0 
0.0 0.0 -7.281124624012e-04 
-1.597640344519e-03 6.950049643667e-04 0.0 
6.950049643667e-04 7.352823299798e-03 0.0 
0.0 0.0 -1.080452943103e-03 
-7.063133806754e-04 -1.717335593378e-03 0.0 
-1.717335593378e-03 2.816704678048e-03 0.0 
0.0 0.0 -9.044534131596e-04 
-1.993759384210e-04 -8.715145545495e-04 0.0 
-8.715145545495e-04 1.025473523807e-03 0.0 
0.0 0.0 -3.540418223084e-04 
-3.396899465816e-04 -1.001666654583e-03 0.0 
-1.001666654583e-03 1.438762041900e-03 0.0 
0.0 0.0 -4.710308979937e-04 
8.199892085620e-04 -2.799788621547e-03 0.0 
-2.799788621547e-03 6.522727846800e-04 0.0 
0.0 0.0 -6.309694256751e-04 
9.078868863823e-06 -2.738074417405e-03 0.0 
-2.738074417405e-03 1.733216879781e-03 0.0 
0.0 0.0 -7.466981779905e-04 
1.103409613190e-03 -2.545332485906e-03 0.0 
-2.545332485906e-03 3.291592924430e-04 0.0 
0.0 0.0 -6.139581024141e-04 
4.609298661722e-04 -2.917080397583e-03 0.0 
-2.917080397583e-03 1.153463791195e-03 0.0 
0.0 0.0 -6.918829960147e-04 
6.174604848126e-04 -2.601794133831e-03 0.0 
-2.601794133831e-03 7.903429974379e-04 0.0 
0.0 0.0 -6.033443495359e-04 
-4.149645807323e-04 -9.518115957764e-04 0.0 
-9.518115957764e-04 1.570452979312e-03 0.0 
0.0 0.0 -4.579617190245e-04 
-1.800428115941e-03 6.964731656622e-04 0.0 
6.964731656622e-04 6.067707299324e-03 0.0 
0.0 0.0 -8.885078876198e-04 
-6.431842488821e-04 -1.481881899324e-03 0.0 
-1.481881899324e-03 2.527966751562e-03 0.0 
0.0 0.0 -8.077639297199e-04 
-3.542476587942e-04 -1.933324559496e-03 0.0 
-1.933324559496e-03 3.366073220136e-03 0.0 
0.0 0.0 -1.067401112627e-03 
-7.301428169590e-04 3.365159558875e-03 0.0 
3.365159558875e-03 4.241956460408e-03 0.0 
0.0 0.0 -1.093380752811e-03 
-1.742519381031e-03 2.013539484841e-03 0.0 
2.013539484841e-03 5.514346305573e-03 0.0 
0.0 0.0 -9.013836717722e-04 
-1.638703746775e-03 1.447396884762e-03 0.0 
1.447396884762e-03 7.437681461836e-03 0.0 
0.0 0.0 -1.126084317643e-03 
-1.069717058735e-03 3.316002143618e-03 0.0 
3.316002143618e-03 5.313047036020e-03 0.0 
0.0 0.0 -1.164310864388e-03 
2.494431731371e-03 1.270414999422e-03 0.0 
1.270414999422e-03 -1.135062232485e-03 0.0 
0.0 0.0 -5.825869280942e-04 
-6.518857880869e-04 3.512796865886e-03 0.0 
3.512796865886e-03 3.785510000148e-03 0.0 
0.0 0.0 -1.029042339204e-03 
9.845026743479e-04 -3.000223110364e-03 0.0 
-3.000223110364e-03 4.820355227438e-04 0.0 
0.0 0.0 -6.285163701822e-04 
9.169108146703e-06 -3.021931346183e-03 0.0 
-3.021931346183e-03 1.914436153364e-03 0.0 
0.0 0.0 -8.244022549332e-04 
1.935620549985e-03 2.666280335606e-03 0.0 
2.666280335606e-03 -6.114645168814e-04 0.0 
0.0 0.0 -5.674954427585e-04 
2.434658683002e-03 -2.349214516508e-03 0.0 
-2.349214516508e-03 -7.291186468832e-04 0.0 
0.0 0.0 -7.309457297651e-04 
8.115117363057e-04 -2.741951264447e-03 0.0 
-2.741951264447e-03 6.655581968644e-04 0.0 
0.0 0.0 -6.330299713586e-04 
-4.450599208505e-04 -2.552111804523e-03 0.0 
-2.552111804523e-03 2.573524769895e-03 0.0 
0.0 0.0 -9.121992210190e-04 
7.181167573208e-04 -2.648058741041e-03 0.0 
-2.648058741041e-03 7.077719066917e-04 0.0 
0.0 0.0 -6.110951417196e-04 
8.603807904587e-04 -2.481932762305e-03 0.0 
-2.481932762305e-03 4.907815371097e-04 0.0 
0.0 0.0 -5.790695689579e-04 
-7.220048660239e-04 -1.343093892557e-03 0.0 
-1.343093892557e-03 2.702939106315e-03 0.0 
0.0 0.0 -8.489718172674e-04 
4.166245934909e-04 -3.209488587121e-03 0.0 
-3.209488587121e-03 1.389160896237e-03 0.0 
0.0 0.0 -7.739080670262e-04 
1.094305293400e-03 -2.135240774913e-03 0.0 
-2.135240774913e-03 1.298780956037e-04 0.0 
0.0 0.0 -5.246500238586e-04 
1.735397459642e-03 -1.790668401916e-03 0.0 
-1.790668401916e-03 -5.241960348096e-04 0.0 
0.0 0.0 -5.190863249281e-04 
-2.953118235534e-05 -2.621242279383e-03 0.0 
-2.621242279383e-03 1.729246141722e-03 0.0 
0.0 0.0 -7.284492682998e-04 
9.068086297483e-04 -1.885631159827e-04 0.0 
-1.885631159827e-04 1.202081875786e-03 0.0 
0.0 0.0 -9.038102166577e-04 
-1.735518635242e-03 6.223275928078e-04 0.0 
6.223275928078e-04 6.851645939463e-03 0.0 
0.0 0.0 -9.984673180475e-04 
2.290762220203e-03 -1.318712250617e-03 0.0 
-1.318712250617e-03 -1.027744525883e-03 0.0 
0.0 0.0 -5.412932975660e-04 
-5.654229652914e-04 -1.684995955007e-03 0.0 
-1.684995955007e-03 3.940963543082e-03 0.0 
0.0 0.0 -1.133495712197e-03 
1.398246767020e-03 -3.216441844472e-03 0.0 
-3.216441844472e-03 9.154783719246e-05 0.0 
0.0 0.0 -6.384834018056e-04 
-5.648051924757e-04 -1.107091868774e-03 0.0 
-1.107091868774e-03 4.182104582450e-03 0.0 
0.0 0.0 -1.208505026952e-03 
7.869283801720e-04 -2.957311971993e-03 0.0 
-2.957311971993e-03 8.055017795032e-04 0.0 
0.0 0.0 -6.824700684322e-04 
-1.163518298392e-03 3.423968427013e-03 0.0 
3.423968427013e-03 5.864548636599e-03 0.0 
0.0 0.0 -1.203459118631e-03 
-1.226888468028e-03 3.131439724330e-03 0.0 
3.131439724330e-03 4.473148429932e-03 0.0 
0.0 0.0 -9.144069900286e-04 
8.146311757364e-04 -2.866044643526e-03 0.0 
-2.866044643526e-03 7.279520038073e-04 0.0 
0.0 0.0 -6.611070769473e-04 
-1.669436221743e-03 2.273068641771e-03 0.0 
2.273068641771e-03 5.485810747731e-03 0.0 
0.0 0.0 -9.292863832265e-04 
-1.634774651159e-03 1.926043724267e-03 0.0 
1.926043724267e-03 7.350223961808e-03 0.0 
0.0 0.0 -1.148369591821e-03 
9.266283371582e-04 -2.700818447501e-03 0.0 
-2.700818447501e-03 5.423083712425e-04 0.0 
0.0 0.0 -6.295443036003e-04 
1.446287545932e-03 3.073556646394e-03 0.0 
3.073556646394e-03 1.275065551695e-04 0.0 
0.0 0.0 -6.744831861864e-04 
-1.574055992192e-03 2.506613091125e-03 0.0 
2.506613091125e-03 5.429733742182e-03 0.0 
0.0 0.0 -9.572423940436e-04 
2.774777350088e-04 3.373231360524e-03 0.0 
3.373231360524e-03 1.692140773898e-03 0.0 
0.0 0.0 -8.441222181028e-04 
6.686313295052e-04 -2.714647588195e-03 0.0 
-2.714647588195e-03 7.978373867195e-04 0.0 
0.0 0.0 -6.284865926677e-04 
-1.493705396886e-03 1.751261100369e-03 0.0 
1.751261100369e-03 8.145178326217e-03 0.0 
0.0 0.0 -1.259077240559e-03 
2.909241618845e-04 -2.201062680806e-03 0.0 
-2.201062680806e-03 9.491865650592e-04 0.0 
0.0 0.0 -5.314760258330e-04 
-1.393014638960e-04 7.789838351986e-04 0.0 
7.789838351986e-04 3.592179503210e-03 0.0 
0.0 0.0 -1.194426649262e-03 
-1.554233915862e-03 9.163364700516e-04 0.0 
9.163364700516e-04 7.887220632938e-03 0.0 
0.0 0.0 -1.175981821618e-03 
7.026255322913e-04 -6.834983021250e-04 0.0 
-6.834983021250e-04 1.598542050998e-03 0.0 
0.0 0.0 -9.862146785524e-04 
-1.631602720906e-03 6.968439340323e-04 0.0 
6.968439340323e-04 6.226177705545e-03 0.0 
0.0 0.0 -9.041796124736e-04 
-1.724067531766e-03 9.331717393615e-04 0.0 
9.331717393615e-04 7.373782435820e-03 0.0 
0.0 0.0 -1.094228678348e-03 
1.385482593825e-03 -2.030831099799e-03 0.0 
-2.030831099799e-03 -2.112692183438e-04 0.0 
0.0 0.0 -5.032343037776e-04 
1.999660538583e-03 5.238969397191e-04 0.0 
5.238969397191e-04 -8.881969286874e-04 0.0 
0.0 0.0 -4.763415470983e-04 
-1.569811974871e-03 1.587727422304e-03 0.0 
1.587727422304e-03 7.784527269149e-03 0.0 
0.0 0.0 -1.191782302182e-03 
-9.330696091187e-04 -2.330125100931e-03 0.0 
-2.330125100931e-03 4.026828994110e-03 0.0 
0.0 0.0 -1.021464098896e-03 
-1.750430558126e-03 7.997395592587e-04 0.0 
7.997395592587e-04 6.994945578504e-03 0.0 
0.0 0.0 -1.028225029406e-03 
5.898974709842e-04 -1.490603234069e-03 0.0 
-1.490603234069e-03 1.573546015772e-03 0.0 
0.0 0.0 -9.271900657525e-04 
1.226199290364e-03 -3.133713578343e-03 0.0 
-3.133713578343e-03 4.720804484946e-04 0.0 
0.0 0.0 -7.278341737966e-04 
-1.755813224466e-03 9.900590192067e-04 0.0 
9.900590192067e-04 7.121505765451e-03 0.0 
0.0 0.0 -1.057861461704e-03 
-1.020230912339e-03 3.255501544884e-03 0.0 
3.255501544884e-03 5.845285965923e-03 0.0 
0.0 0.0 -1.268085107495e-03 
-8.098027228146e-04 -1.517662878241e-03 0.0 
-1.517662878241e-03 4.547334409745e-03 0.0 
0.0 0.0 -1.202195648613e-03 
7.610076650519e-05 -3.235453866840e-03 0.0 
-3.235453866840e-03 1.932455716982e-03 0.0 
0.0 0.0 -8.608099214947e-04 
-1.689275270792e-03 3.359122450795e-04 0.0 
3.359122450795e-04 6.273459191033e-03 0.0 
0.0 0.0 -9.020111041354e-04 
-1.632588233776e-03 6.974904632293e-04 0.0 
6.974904632293e-04 5.987209936235e-03 0.0 
0.0 0.0 -8.677534307045e-04 
6.088392128265e-04 -2.822537476632e-03 0.0 
-2.822537476632e-03 9.202084504231e-04 0.0 
0.0 0.0 -6.553061413927e-04 
-6.443122983676e-04 -2.499706879338e-03 0.0 
-2.499706879338e-03 3.462729029903e-03 0.0 
0.0 0.0 -9.927925938929e-04 
-4.755079025855e-04 -2.238751106190e-03 0.0 
-2.238751106190e-03 3.389731406328e-03 0.0 
0.0 0.0 -1.030113165296e-03 
-2.437047899643e-04 -1.231397142334e-03 0.0 
-1.231397142334e-03 1.345917923955e-03 0.0 
0.0 0.0 -4.426674065645e-04 
2.847402133071e-03 1.832321194303e-03 0.0 
1.832321194303e-03 -1.311219245011e-03 0.0 
0.0 0.0 -6.583640948828e-04 
2.391065633377e-03 -7.030644689003e-04 0.0 
-7.030644689003e-04 -1.190042454993e-03 0.0 
0.0 0.0 -5.147242193072e-04 
1.968235762107e-03 -1.858343853594e-03 0.0 
-1.858343853594e-03 -8.473461408074e-04 0.0 
0.0 0.0 -4.803812662710e-04 
7.235144373202e-04 3.006853977664e-03 0.0 
3.006853977664e-03 8.982936940798e-04 0.0 
0.0 0.0 -6.950606277428e-04 
-1.594047644543e-03 1.198778980109e-03 0.0 
1.198778980109e-03 8.076345274144e-03 0.0 
0.0 0.0 -1.225426844749e-03 
-1.544957883650e-03 2.714187828761e-03 0.0 
2.714187828761e-03 6.803087963728e-03 0.0 
0.0 0.0 -1.162686153705e-03 
-1.603786220280e-03 5.743670581703e-04 0.0 
5.743670581703e-04 7.933574954986e-03 0.0 
0.0 0.0 -1.173632101657e-03 
-3.176362262569e-04 3.157680560962e-03 0.0 
3.157680560962e-03 2.644961507973e-03 0.0 
0.0 0.0 -9.922833334649e-04 
-1.686655624371e-03 1.762581410411e-03 0.0 
1.762581410411e-03 7.001695775819e-03 0.0 
0.0 0.0 -1.082713561900e-03 
-8.312311815285e-04 -2.893135141048e-03 0.0 
-2.893135141048e-03 3.527094208899e-03 0.0 
0.0 0.0 -1.005652543148e-03 
-1.566323459329e-03 1.337573114455e-03 0.0 
1.337573114455e-03 7.933955714899e-03 0.0 
0.0 0.0 -1.198415070424e-03 
-1.781797660459e-03 1.042297273604e-03 0.0 
1.042297273604e-03 6.860193468522e-03 0.0 
0.0 0.0 -1.021631336281e-03 
1.651541321597e-04 -3.069309819670e-03 0.0 
-3.069309819670e-03 1.677218775847e-03 0.0 
0.0 0.0 -7.895883891459e-04 
2.729895556258e-03 -3.816222067231e-05 0.0 
-3.816222067231e-05 -1.329892949249e-03 0.0 
0.0 0.0 -6.000011172896e-04 
-1.678629276342e-03 1.301261135869e-03 0.0 
1.301261135869e-03 7.071604861536e-03 0.0 
0.0 0.0 -1.060111126929e-03 
-1.674561038714e-03 1.060445620383e-03 0.0 
1.060445620383e-03 7.740408073351e-03 0.0 
0.0 0.0 -1.160283895044e-03 
-1.648358362413e-03 1.080960708592e-03 0.0 
1.080960708592e-03 7.188263314287e-03 0.0 
0.0 0.0 -1.066842251349e-03 
-1.675485628863e-03 1.117801916471e-03 0.0 
1.117801916471e-03 6.945334177936e-03 0.0 
0.0 0.0 -1.030428295937e-03 
-9.047694827226e-04 -1.891564198184e-03 0.0 
-1.891564198184e-03 4.463027696646e-03 0.0 
0.0 0.0 -1.124756152480e-03 
-3.636288725450e-05 1.185092302766e-03 0.0 
1.185092302766e-03 3.361330425582e-03 0.0 
0.0 0.0 -1.167530213646e-03 
-6.417903686716e-04 -1.936633603608e-03 0.0 
-1.936633603608e-03 3.924941189051e-03 0.0 
0.0 0.0 -1.096139997395e-03 
-6.252750457425e-04 -2.981929184320e-03 0.0 
-2.981929184320e-03 3.101913023538e-03 0.0 
0.0 0.0 -9.455690924112e-04 
-9.133871784712e-04 2.307173197510e-03 0.0 
2.307173197510e-03 3.388339270904e-03 0.0 
0.0 0.0 -8.706649152390e-04 
5.857890875911e-04 -1.165024071922e-04 0.0 
-1.165024071922e-04 1.961403903997e-03 0.0 
0.0 0.0 -1.057160997780e-03 
-1.717096850446e-03 1.897490647652e-03 0.0 
1.897490647652e-03 6.421227655064e-03 0.0 
0.0 0.0 -1.010795753303e-03 
-6.313703935137e-04 -1.096821766549e-03 0.0 
-1.096821766549e-03 2.333660856895e-03 0.0 
0.0 0.0 -7.295530557346e-04 
2.168606455157e-03 -1.381490462849e-03 0.0 
-1.381490462849e-03 -1.049895932277e-03 0.0 
0.0 0.0 -4.794473669488e-04 
1.521212506514e-03 -1.320220071534e-03 0.0 
-1.320220071534e-03 -4.274634539344e-04 0.0 
0.0 0.0 -4.687495939627e-04 
1.466355838383e-03 4.602651966615e-04 0.0 
4.602651966615e-04 -3.624189179880e-05 0.0 
0.0 0.0 -6.129059771076e-04 
2.718390450017e-03 -6.950340879152e-04 0.0 
-6.950340879152e-04 -1.327258381844e-03 0.0 
0.0 0.0 -5.961994577885e-04 
2.586833026508e-03 -8.035069926998e-04 0.0 
-8.035069926998e-04 -1.237368745637e-03 0.0 
0.0 0.0 -5.783418346592e-04 
1.064335855090e-03 3.871345564871e-04 0.0 
3.871345564871e-04 8.878223967010e-04 0.0 
0.0 0.0 -8.366392507678e-04 
-8.479776809358e-04 2.867626528881e-03 0.0 
2.867626528881e-03 3.485177703647e-03 0.0 
0.0 0.0 -9.312627088267e-04 
-1.048673303190e-04 -3.229543423404e-03 0.0 
-3.229543423404e-03 2.260338218225e-03 0.0 
0.0 0.0 -9.237732376742e-04 
-1.787010102696e-03 8.860662194747e-04 0.0 
8.860662194747e-04 6.472161902549e-03 0.0 
0.0 0.0 -9.556638187253e-04 
-1.534511977861e-03 4.226734842399e-04 0.0 
4.226734842399e-04 5.386267654424e-03 0.0 
0.0 0.0 -7.638029664831e-04 
2.694004404959e-04 1.692225150283e-03 0.0 
1.692225150283e-03 6.665564429896e-04 0.0 
0.0 0.0 -4.011243786367e-04 
-2.485044760616e-04 -3.138222606519e-03 0.0 
-3.138222606519e-03 2.491915244985e-03 0.0 
0.0 0.0 -9.614617581102e-04 
5.241395104488e-04 -3.820643100564e-04 0.0 
-3.820643100564e-04 1.948070463321e-03 0.0 
0.0 0.0 -1.051835763028e-03 
-1.541512456067e-03 2.665389691955e-03 0.0 
2.665389691955e-03 7.146978989113e-03 0.0 
0.0 0.0 -1.196871286280e-03 
2.182111420875e-03 6.070828475979e-04 0.0 
6.070828475979e-04 -1.164368423359e-03 0.0 
0.0 0.0 -4.361755703639e-04 
-3.379696423289e-04 -3.147707957552e-03 0.0 
-3.147707957552e-03 2.662191701970e-03 0.0 
0.0 0.0 -9.747355338013e-04 
-1.758283285419e-03 6.606645787396e-04 0.0 
6.606645787396e-04 6.605527542412e-03 0.0 
0.0 0.0 -9.620958722923e-04 
2.572595780151e-04 1.907531255629e-03 0.0 
1.907531255629e-03 8.125007966372e-04 0.0 
0.0 0.0 -4.584687319938e-04 
7.215561543483e-04 7.088538436548e-05 0.0 
7.088538436548e-05 1.489224739350e-03 0.0 
0.0 0.0 -9.474775258707e-04 
1.699588376700e-03 -2.701395224992e-04 0.0 
-2.701395224992e-04 -6.431195081869e-04 0.0 
0.0 0.0 -4.527723722201e-04 
-1.123050040693e-03 2.722320328238e-03 0.0 
2.722320328238e-03 3.963607121214e-03 0.0 
0.0 0.0 -8.880452441695e-04 
-6.861996964777e-04 -2.718033399413e-03 0.0 
-2.718033399413e-03 3.467552900927e-03 0.0 
0.0 0.0 -1.027225276160e-03 
2.084513055480e-03 -2.969236307345e-03 0.0 
-2.969236307345e-03 -6.426223811324e-04 0.0 
0.0 0.0 -6.179531461491e-04 
-5.320903479306e-04 -2.451811030805e-03 0.0 
-2.451811030805e-03 3.446359028726e-03 0.0 
0.0 0.0 -1.064556537081e-03 
-5.475761825290e-04 -1.405154027486e-03 0.0 
-1.405154027486e-03 4.014926747039e-03 0.0 
0.0 0.0 -1.170878753521e-03 
8.694157167214e-04 5.959603823475e-04 0.0 
5.959603823475e-04 1.083517633446e-03 0.0 
0.0 0.0 -8.369714357860e-04 
-1.720938074938e-03 7.528205405102e-04 0.0 
7.528205405102e-04 7.239876321155e-03 0.0 
0.0 0.0 -1.064574987933e-03 
-2.581275539260e-04 2.774157829489e-03 0.0 
2.774157829489e-03 3.637568838645e-03 0.0 
0.0 0.0 -1.082686220397e-03 
-6.278749381159e-04 -1.931446236287e-03 0.0 
-1.931446236287e-03 4.088424354687e-03 0.0 
0.0 0.0 -1.168035910845e-03 
7.662032872175e-05 1.799978139758e-03 0.0 
1.799978139758e-03 1.016865245771e-03 0.0 
0.0 0.0 -4.686366747828e-04 
-1.772766923136e-03 8.481702159287e-04 0.0 
8.481702159287e-04 6.740907635403e-03 0.0 
0.0 0.0 -9.919185416031e-04 
-2.292199257427e-04 1.889849914101e-03 0.0 
1.889849914101e-03 3.718845686110e-03 0.0 
0.0 0.0 -1.173906618061e-03 
-1.648981142695e-03 1.259232254070e-03 0.0 
1.259232254070e-03 7.322595481216e-03 0.0 
0.0 0.0 -1.096489272820e-03 
1.160861635041e-03 6.400460397782e-04 0.0 
6.400460397782e-04 2.605650516831e-04 0.0 
0.0 0.0 -6.091828657389e-04 
2.574979574883e-03 -1.390903072999e-04 0.0 
-1.390903072999e-04 -1.282434716650e-03 0.0 
0.0 0.0 -5.539477963855e-04 
-1.116067155649e-03 -2.250326754200e-03 0.0 
-2.250326754200e-03 3.947993630682e-03 0.0 
0.0 0.0 -1.025516461270e-03 
1.249937303602e-03 3.552940721610e-04 0.0 
3.552940721610e-04 -1.039148958258e-03 0.0 
0.0 0.0 -9.033786229011e-05 
-1.613458135024e-03 1.210057674443e-03 0.0 
1.210057674443e-03 7.562124248112e-03 0.0 
0.0 0.0 -1.132911322290e-03 
-7.377235371559e-04 -9.591054036843e-04 0.0 
-9.591054036843e-04 2.612387194917e-03 0.0 
0.0 0.0 -8.013069569330e-04 
-1.500810255742e-04 1.675008285432e-03 0.0 
1.675008285432e-03 1.366929482546e-03 0.0 
0.0 0.0 -5.215064815592e-04 
-3.658200529699e-04 3.020199158602e-03 0.0 
3.020199158602e-03 3.713742958922e-03 0.0 
0.0 0.0 -1.054483161448e-03 
-1.538001914897e-03 1.084053552084e-03 0.0 
1.084053552084e-03 8.041309965801e-03 0.0 
0.0 0.0 -1.206783194404e-03 
1.727844094968e-03 -3.343181964838e-03 0.0 
-3.343181964838e-03 -2.401420928011e-04 0.0 
0.0 0.0 -6.375865723574e-04 
-2.167964077171e-04 3.747756050696e-03 0.0 
3.747756050696e-03 2.648111889763e-03 0.0 
0.0 0.0 -9.072936044704e-04 
-1.701887886532e-03 1.344630388867e-03 0.0 
1.344630388867e-03 6.812020791196e-03 0.0 
0.0 0.0 -1.023814440555e-03 
-4.458873681724e-04 -2.966430795108e-03 0.0 
-2.966430795108e-03 2.822625691825e-03 0.0 
0.0 0.0 -1.018602138708e-03 
2.635787731545e-03 -1.799593391660e-03 0.0 
-1.799593391660e-03 -1.225014149329e-03 0.0 
0.0 0.0 -6.046172495213e-04 
1.631098457746e-03 2.876803562451e-03 0.0 
2.876803562451e-03 -2.192512757881e-04 0.0 
0.0 0.0 -6.050773636963e-04 
9.159182720240e-04 -2.840057079041e-03 0.0 
-2.840057079041e-03 6.236111220924e-04 0.0 
0.0 0.0 -6.597983117642e-04 
1.988952410622e-03 -2.773207495313e-03 0.0 
-2.773207495313e-03 -3.142881963505e-04 0.0 
0.0 0.0 -7.177132346876e-04 
1.648220485470e-03 -3.321848158051e-03 0.0 
-3.321848158051e-03 2.024080431041e-04 0.0 
0.0 0.0 -7.931265122463e-04 
1.705098340266e-03 6.558868029328e-04 0.0 
6.558868029328e-04 -6.969008095806e-04 0.0 
0.0 0.0 -4.320846560080e-04 
-1.468520801646e-03 2.285525207987e-03 0.0 
2.285525207987e-03 8.442456052557e-03 0.0 
0.0 0.0 -1.324146187826e-03 
-3.956257745020e-04 1.730887625779e-03 0.0 
1.730887625779e-03 1.977050055323e-03 0.0 
0.0 0.0 -6.777532632091e-04 
-1.125863067977e-03 -1.827974217199e-03 0.0 
-1.827974217199e-03 4.964930907455e-03 0.0 
0.0 0.0 -1.153422328581e-03 
2.868285214674e-03 1.352379803766e-03 0.0 
1.352379803766e-03 -1.299848991907e-03 0.0 
0.0 0.0 -6.721869526143e-04 
-1.802402553613e-03 1.096854962503e-03 0.0 
1.096854962503e-03 6.595527473872e-03 0.0 
0.0 0.0 -9.856407671940e-04 
1.971085959338e-03 3.239399902758e-04 0.0 
3.239399902758e-04 -1.217941390756e-03 0.0 
0.0 0.0 -3.227762436777e-04 
-6.307118357170e-04 -1.642290149673e-03 0.0 
-1.642290149673e-03 4.191316448183e-03 0.0 
0.0 0.0 -1.206759618350e-03 
1.281188306004e-03 -3.309115169896e-03 0.0 
-3.309115169896e-03 2.482805933930e-04 0.0 
0.0 0.0 -6.554866711701e-04 
-8.580919722624e-04 -1.141606507875e-03 0.0 
-1.141606507875e-03 3.004910753851e-03 0.0 
0.0 0.0 -8.925927511852e-04 
6.775973206905e-04 1.090261256499e-03 0.0 
1.090261256499e-03 1.554850184539e-03 0.0 
0.0 0.0 -9.567632165269e-04 
9.810193940895e-04 -2.270636417532e-03 0.0 
-2.270636417532e-03 2.960510298287e-04 0.0 
0.0 0.0 -5.473158959649e-04 
3.899080625908e-05 1.591876067608e-03 0.0 
1.591876067608e-03 3.206945282166e-03 0.0 
0.0 0.0 -1.139062866688e-03 
6.623861865506e-04 3.094490503078e-03 0.0 
3.094490503078e-03 1.014638708619e-03 0.0 
0.0 0.0 -7.187249550728e-04 
-1.786253758345e-03 1.560633333520e-03 0.0 
1.560633333520e-03 6.766601134335e-03 0.0 
0.0 0.0 -1.044446328659e-03 
-2.152386475275e-04 1.351101504798e-03 0.0 
1.351101504798e-03 3.486323150058e-03 0.0 
0.0 0.0 -1.198892520503e-03 
-1.697142570711e-03 1.154161816812e-03 0.0 
1.154161816812e-03 6.693519511439e-03 0.0 
0.0 0.0 -9.940794652285e-04 
-1.618144651602e-03 2.389450829648e-03 0.0 
2.389450829648e-03 7.197343605865e-03 0.0 
0.0 0.0 -1.194784139986e-03 
-1.753520328123e-03 1.193661618907e-03 0.0 
1.193661618907e-03 7.230580119665e-03 0.0 
0.0 0.0 -1.087318097122e-03 
-1.742396685637e-03 1.406428765971e-03 0.0 
1.406428765971e-03 7.327343743658e-03 0.0 
0.0 0.0 -1.116677092124e-03 
2.275785242891e-03 2.632435729676e-03 0.0 
2.632435729676e-03 -9.199828087608e-04 0.0 
0.0 0.0 -5.810581860557e-04 
-1.241644556097e-03 -1.898381689041e-03 0.0 
-1.898381689041e-03 4.975895501890e-03 0.0 
0.0 0.0 -1.115908039155e-03 
-1.698919862003e-03 1.546534393052e-03 0.0 
1.546534393052e-03 6.917732160494e-03 0.0 
0.0 0.0 -1.053364550114e-03 
1.868987763194e-03 2.227953552638e-03 0.0 
2.227953552638e-03 -6.775743179747e-04 0.0 
0.0 0.0 -5.106057622367e-04 
-6.587012442941e-04 1.777273701504e-03 0.0 
1.777273701504e-03 2.655555522869e-03 0.0 
0.0 0.0 -8.209451439681e-04 
-3.975005523331e-04 1.166939029163e-03 0.0 
1.166939029163e-03 4.024011475053e-03 0.0 
0.0 0.0 -1.232292820449e-03 
2.869313435600e-03 1.110657499061e-03 0.0 
1.110657499061e-03 -1.453214644336e-03 0.0 
0.0 0.0 -6.068994819702e-04 
-7.856974671747e-04 -1.309919738143e-03 0.0 
-1.309919738143e-03 2.807619278170e-03 0.0 
0.0 0.0 -8.201145810434e-04 
1.968962910781e-04 1.862464300239e-03 0.0 
1.862464300239e-03 2.595514694035e-03 0.0 
0.0 0.0 -1.105063927110e-03 
-7.017846764740e-04 -1.435456886112e-05 0.0 
-1.435456886112e-05 1.960630528106e-03 0.0 
0.0 0.0 -3.231071520192e-04 
7.474966936510e-04 3.481240265895e-03 0.0 
3.481240265895e-03 1.138823329650e-03 0.0 
0.0 0.0 -8.084228671290e-04 
5.678040040528e-04 5.673257875062e-04 0.0 
5.673257875062e-04 1.874262662432e-03 0.0 
0.0 0.0 -1.046599999922e-03 
-1.677286885825e-03 1.562425953110e-03 0.0 
1.562425953110e-03 7.659770185164e-03 0.0 
0.0 0.0 -1.181155146799e-03 
-1.652320647354e-03 1.808826218554e-03 0.0 
1.808826218554e-03 7.744329424571e-03 0.0 
0.0 0.0 -1.210943746944e-03 
7.584470326040e-04 3.628423669224e-04 0.0 
3.628423669224e-04 1.668047544981e-03 0.0 
0.0 0.0 -1.028825005900e-03 
-1.718024774256e-03 1.129889074764e-03 0.0 
1.129889074764e-03 7.489751701523e-03 0.0 
0.0 0.0 -1.123737208958e-03 
2.593889195352e-03 1.856767809109e-03 0.0 
1.856767809109e-03 -1.126153271608e-03 0.0 
0.0 0.0 -6.290296816045e-04 
-7.519765885532e-04 3.109043581873e-03 0.0 
3.109043581873e-03 4.411738950076e-03 0.0 
0.0 0.0 -1.062452857821e-03 
-9.715076255527e-04 1.639125050494e-03 0.0 
1.639125050494e-03 3.248586274010e-03 0.0 
0.0 0.0 -7.769695025612e-04 
-1.390466882155e-03 3.112822277328e-03 0.0 
3.112822277328e-03 6.316045090648e-03 0.0 
0.0 0.0 -1.181751882508e-03 
-1.269001708520e-03 1.478688136927e-03 0.0 
1.478688136927e-03 3.854232216412e-03 0.0 
0.0 0.0 -7.538120163098e-04 
-1.420223830458e-03 1.391784125232e-03 0.0 
1.391784125232e-03 4.161040048690e-03 0.0 
0.0 0.0 -7.332406657775e-04 
2.298674918512e-03 1.220061250636e-03 0.0 
1.220061250636e-03 -1.173783310071e-03 0.0 
0.0 0.0 -4.820964036177e-04 
-1.557422700527e-03 1.363360327043e-03 0.0 
1.363360327043e-03 4.471575651466e-03 0.0 
0.0 0.0 -7.361032999402e-04 
6.913968744153e-04 3.249644441005e-03 0.0 
3.249644441005e-03 1.296623038176e-03 0.0 
0.0 0.0 -8.520085339679e-04 
1.718973007646e-03 2.924390266821e-03 0.0 
2.924390266821e-03 -1.924867080382e-04 0.0 
0.0 0.0 -6.542084141176e-04 
2.210348991445e-03 -8.088378780929e-04 0.0 
-8.088378780929e-04 -1.123482344713e-03 0.0 
0.0 0.0 -4.657999914567e-04 
2.497491272241e-03 -1.532773257142e-03 0.0 
-1.532773257142e-03 -1.081083643723e-03 0.0 
0.0 0.0 -6.070318407937e-04 
2.586887755130e-03 6.094796342036e-04 0.0 
6.094796342036e-04 -1.311719394663e-03 0.0 
0.0 0.0 -5.465007259145e-04 
-1.601167176657e-03 1.396089815657e-03 0.0 
1.396089815657e-03 7.688892179250e-03 0.0 
0.0 0.0 -1.162517914204e-03 
-1.471528092625e-03 3.001207936412e-03 0.0 
3.001207936412e-03 6.831752371077e-03 0.0 
0.0 0.0 -1.195263893373e-03 
-1.182311321110e-03 -2.133379308242e-03 0.0 
-2.133379308242e-03 4.544787139884e-03 0.0 
0.0 0.0 -1.050100468764e-03 
-1.223721568856e-04 1.745261046552e-03 0.0 
1.745261046552e-03 3.281782845900e-03 0.0 
0.0 0.0 -1.170266998156e-03 
1.214604030940e-03 -2.155562007462e-03 0.0 
-2.155562007462e-03 9.364629533619e-05 0.0 
0.0 0.0 -5.606787112612e-04 
-1.656719624483e-03 1.711448335042e-03 0.0 
1.711448335042e-03 7.275839845738e-03 0.0 
0.0 0.0 -1.119019617531e-03 
2.359890878457e-03 -4.267964440931e-05 0.0 
-4.267964440931e-05 -1.248439169515e-03 0.0 
0.0 0.0 -4.763364466896e-04 
-1.407406798469e-03 -1.723847992245e-03 0.0 
-1.723847992245e-03 5.419782439974e-03 0.0 
0.0 0.0 -1.144395376583e-03 
-1.671654625585e-03 1.497806515934e-03 0.0 
1.497806515934e-03 7.180003972529e-03 0.0 
0.0 0.0 -1.089631904438e-03 
-1.769810542863e-03 1.479525562214e-03 0.0 
1.479525562214e-03 7.051291447038e-03 0.0 
0.0 0.0 -1.080451501872e-03 
1.020279383885e-03 1.759819708792e-05 0.0 
1.759819708792e-05 6.806225927368e-04 0.0 
0.0 0.0 -7.289579899807e-04 
2.670406423032e-03 1.253518595181e-03 0.0 
1.253518595181e-03 -1.265788156022e-03 0.0 
0.0 0.0 -6.019792572900e-04 
-8.493845713370e-04 3.018177913519e-03 0.0 
3.018177913519e-03 4.847344094450e-03 0.0 
0.0 0.0 -1.126038590206e-03 
-1.241437732375e-03 3.272568664608e-03 0.0 
3.272568664608e-03 4.414773958175e-03 0.0 
0.0 0.0 -9.324202963083e-04 
2.392506853527e-03 -2.638222039722e-03 0.0 
-2.638222039722e-03 -9.888506330534e-04 0.0 
0.0 0.0 -6.015669516317e-04 
2.802892214258e-03 -1.137304662585e-05 0.0 
-1.137304662585e-05 -1.333498735436e-03 0.0 
0.0 0.0 -6.297400623524e-04 
7.949185057269e-04 2.716848624173e-03 0.0 
2.716848624173e-03 6.207904953631e-04 0.0 
0.0 0.0 -6.067324290386e-04 
-1.563287978713e-04 3.620132007229e-03 0.0 
3.620132007229e-03 2.581411168791e-03 0.0 
0.0 0.0 -1.015946800258e-03 
-1.534351365184e-03 -1.516799222336e-03 0.0 
-1.516799222336e-03 5.828494836448e-03 0.0 
0.0 0.0 -1.173545322487e-03 
-1.782237154873e-03 1.254534813549e-03 0.0 
1.254534813549e-03 6.967044995053e-03 0.0 
0.0 0.0 -1.051102540299e-03 
2.754613032243e-03 5.835371394657e-04 0.0 
5.835371394657e-04 -1.282545286099e-03 0.0 
0.0 0.0 -6.308861769187e-04 
-6.435068013720e-04 3.480233123954e-03 0.0 
3.480233123954e-03 3.600985193807e-03 0.0 
0.0 0.0 -9.344940742331e-04 
3.980809440766e-04 1.365381173478e-04 0.0 
1.365381173478e-04 2.266784517746e-03 0.0 
0.0 0.0 -1.088599101970e-03 
-1.685240832100e-03 8.774447861184e-04 0.0 
8.774447861184e-04 7.615424303421e-03 0.0 
0.0 0.0 -1.130578931274e-03 
-1.056611405718e-03 3.085021790290e-03 0.0 
3.085021790290e-03 5.374856941272e-03 0.0 
0.0 0.0 -1.160781586281e-03 
-1.731537587415e-03 1.425159992310e-03 0.0 
1.425159992310e-03 6.282505969900e-03 0.0 
0.0 0.0 -9.517943393003e-04 
-1.629224858151e-05 -1.008868814593e-03 0.0 
-1.008868814593e-03 2.976796140904e-03 0.0 
0.0 0.0 -1.113435711030e-03 
2.175710495241e-03 -1.797462906061e-04 0.0 
-1.797462906061e-04 -1.087187483949e-03 0.0 
0.0 0.0 -4.665098619825e-04 
3.691792219411e-04 -5.499254361333e-04 0.0 
-5.499254361333e-04 2.333255494325e-03 0.0 
0.0 0.0 -1.086118700983e-03 
6.267430188437e-04 3.216016004345e-03 0.0 
3.216016004345e-03 1.125673463038e-03 0.0 
0.0 0.0 -7.510356350921e-04 
-1.659468944553e-03 1.282087032836e-03 0.0 
1.282087032836e-03 7.843512833905e-03 0.0 
0.0 0.0 -1.188704642750e-03 
-1.184759635984e-03 3.039469531493e-03 0.0 
3.039469531493e-03 5.917915895918e-03 0.0 
0.0 0.0 -1.200489323427e-03 
1.397717749359e-03 -3.084135371350e-05 0.0 
-3.084135371350e-05 -2.483823730722e-04 0.0 
0.0 0.0 -4.925723041230e-04 
2.632145634489e-03 2.594608975648e-04 0.0 
2.594608975648e-04 -1.433557919304e-03 0.0 
0.0 0.0 -5.136804493649e-04 
-3.195071874589e-04 2.949770132737e-03 0.0 
2.949770132737e-03 3.519559910754e-03 0.0 
0.0 0.0 -1.113685640909e-03 
5.151939740245e-04 3.610223291188e-03 0.0 
3.610223291188e-03 1.499767463066e-03 0.0 
0.0 0.0 -8.635549016102e-04 
2.789061016644e-03 1.329285031073e-03 0.0 
1.329285031073e-03 -1.174648499198e-03 0.0 
0.0 0.0 -6.918910789057e-04 
1.203480951529e-03 -2.452700069764e-04 0.0 
-2.452700069764e-04 3.890277914199e-04 0.0 
0.0 0.0 -6.825037469782e-04 
-1.401752245562e-04 -2.049705526548e-03 0.0 
-2.049705526548e-03 2.929158581755e-03 0.0 
0.0 0.0 -1.072977024862e-03 
2.580288745065e-03 -9.059416529247e-04 0.0 
-9.059416529247e-04 -1.319309692526e-03 0.0 
0.0 0.0 -5.404195939453e-04 
1.923073746863e-03 -4.525221159698e-05 0.0 
-4.525221159698e-05 -9.232494801660e-04 0.0 
0.0 0.0 -4.284961142987e-04 
-1.564398244357e-03 2.691343570358e-03 0.0 
2.691343570358e-03 5.384100406286e-03 0.0 
0.0 0.0 -9.596127204057e-04 
-1.615413359891e-03 -1.869412921893e-03 0.0 
-1.869412921893e-03 5.891470981236e-03 0.0 
0.0 0.0 -1.170838755190e-03 
-1.469366754309e-03 2.906743993666e-03 0.0 
2.906743993666e-03 5.300260062947e-03 0.0 
0.0 0.0 -9.876491701490e-04 
-3.947067001148e-04 3.217756852044e-03 0.0 
3.217756852044e-03 3.568382132428e-03 0.0 
0.0 0.0 -1.085374163265e-03 
-1.640677092253e-03 2.445403796559e-03 0.0 
2.445403796559e-03 5.441088956569e-03 0.0 
0.0 0.0 -9.316602363005e-04 
-1.740388366318e-03 1.924888427331e-03 0.0 
1.924888427331e-03 5.465143202308e-03 0.0 
0.0 0.0 -8.756372412555e-04 
-1.133390563237e-03 3.456670762875e-03 0.0 
3.456670762875e-03 4.264491800942e-03 0.0 
0.0 0.0 -9.452931837154e-04 
1.258865816682e-04 1.427076262396e-03 0.0 
1.427076262396e-03 2.787339061218e-03 0.0 
0.0 0.0 -1.133505030480e-03 
-1.184151913809e-03 -2.442035502192e-03 0.0 
-2.442035502192e-03 4.566403913145e-03 0.0 
0.0 0.0 -1.084522140297e-03 
-1.719906891250e-03 1.595024504340e-03 0.0 
1.595024504340e-03 6.646342255881e-03 0.0 
0.0 0.0 -1.017300281410e-03 
-1.572744207127e-03 2.077724400643e-03 0.0 
2.077724400643e-03 7.699948884985e-03 0.0 
0.0 0.0 -1.212886757924e-03 
-1.697994519952e-03 2.183604815945e-03 0.0 
2.183604815945e-03 5.469670954577e-03 0.0 
0.0 0.0 -9.037302385344e-04 
3.109518991990e-03 7.142103845853e-04 0.0 
7.142103845853e-04 -1.355577660133e-03 0.0 
0.0 0.0 -7.516891422245e-04 
-4.615783183021e-04 2.634115171252e-03 0.0 
2.634115171252e-03 4.171995570701e-03 0.0 
0.0 0.0 -1.146733564437e-03 
-1.623397737588e-03 9.830618757014e-04 0.0 
9.830618757014e-04 7.977997106224e-03 0.0 
0.0 0.0 -1.196744929305e-03 
1.210285564886e-03 2.794819533997e-03 0.0 
2.794819533997e-03 2.142507881916e-04 0.0 
0.0 0.0 -6.105155798904e-04 
7.664634744893e-04 3.055447408668e-03 0.0 
3.055447408668e-03 8.799111198642e-04 0.0 
0.0 0.0 -7.055891118657e-04 
3.026285545234e-03 6.479754984524e-04 0.0 
6.479754984524e-04 -1.309294928286e-03 0.0 
0.0 0.0 -7.358531215491e-04 
-1.707025994169e-03 1.825045050910e-03 0.0 
1.825045050910e-03 6.718430060264e-03 0.0 
0.0 0.0 -1.046609947212e-03 
1.285120213061e-04 3.160317099540e-03 0.0 
3.160317099540e-03 1.795393702842e-03 0.0 
0.0 0.0 -8.245310246350e-04 
6.213466678406e-04 3.150191375349e-03 0.0 
3.150191375349e-03 1.093887972575e-03 0.0 
0.0 0.0 -7.351005601782e-04 
1.723951590445e-04 3.402388421843e-03 0.0 
3.402388421843e-03 1.876640106691e-03 0.0 
0.0 0.0 -8.781579710297e-04 
4.568820957443e-04 1.515113560259e-03 0.0 
1.515113560259e-03 2.072520192967e-03 0.0 
0.0 0.0 -1.068254633495e-03 
-7.126619732765e-04 2.634214240334e-03 0.0 
2.634214240334e-03 4.664743447894e-03 0.0 
0.0 0.0 -1.211228670573e-03 
2.874495408011e-03 -1.147543994212e-04 0.0 
-1.147543994212e-04 -1.321663854737e-03 0.0 
0.0 0.0 -6.654992371173e-04 
1.333222057608e-03 -6.083160362555e-04 0.0 
-6.083160362555e-04 -1.046303648964e-03 0.0 
0.0 0.0 -1.229650322759e-04 
-1.560287505520e-03 2.397443585750e-03 0.0 
2.397443585750e-03 7.445606798374e-03 0.0 
0.0 0.0 -1.207184308065e-03 
-1.227743039735e-04 3.216961996269e-03 0.0 
3.216961996269e-03 2.287126095753e-03 0.0 
0.0 0.0 -9.275793393341e-04 
1.407399929741e-03 -1.790726840241e-03 0.0 
-1.790726840241e-03 -2.123508212015e-04 0.0 
0.0 0.0 -5.121639036598e-04 
-5.005943122338e-04 2.854917982027e-03 0.0 
2.854917982027e-03 4.092431792890e-03 0.0 
0.0 0.0 -1.177925372349e-03 
-1.802105864534e-03 1.325377431051e-03 0.0 
1.325377431051e-03 6.693893706785e-03 0.0 
0.0 0.0 -1.015069748350e-03 
-9.552400268193e-04 -2.590206578427e-03 0.0 
-2.590206578427e-03 4.033946220946e-03 0.0 
0.0 0.0 -1.055879354346e-03 
2.213755167184e-03 2.540569608467e-03 0.0 
2.540569608467e-03 -6.561328527755e-04 0.0 
0.0 0.0 -6.675524204610e-04 
8.596589765025e-04 -2.241190996513e-04 0.0 
-2.241190996513e-04 -8.596589765025e-04 0.0 
0.0 0.0 0.0 
-1.695761363760e-03 -1.692827267884e-03 0.0 
-1.692827267884e-03 6.306533924159e-03 0.0 
0.0 0.0 -1.202131160132e-03 
-2.109701725841e-06 3.652134540712e-03 0.0 
3.652134540712e-03 2.337584034461e-03 0.0 
0.0 0.0 -1.000917571172e-03 
6.440987285096e-04 1.846403855810e-03 0.0 
1.846403855810e-03 1.851485320469e-03 0.0 
0.0 0.0 -1.007142642412e-03 
-8.363103258721e-04 3.298399834443e-03 0.0 
3.298399834443e-03 4.744308506763e-03 0.0 
0.0 0.0 -1.157822513452e-03 
0.0 0.0 0.0 
0.0 0.0 0.0 
0.0 0.0 0.0 
-7.671375815713e-04 -2.153381723597e-03 0.0 
-2.153381723597e-03 3.958636255064e-03 0.0 
0.0 0.0 -1.058763633038e-03 
2.277342632696e-03 2.678034488429e-03 0.0 
2.678034488429e-03 -4.950023667951e-04 0.0 
0.0 0.0 -7.638601139576e-04 
-1.817865112225e-03 1.160846124058e-03 0.0 
1.160846124058e-03 6.325027627169e-03 0.0 
0.0 0.0 -9.498437721210e-04 
-6.483445776371e-04 -2.910728448364e-03 0.0 
-2.910728448364e-03 3.240421631363e-03 0.0 
0.0 0.0 -1.081826897668e-03 
2.882336660409e-03 6.507094583248e-04 0.0 
6.507094583248e-04 -1.354897536976e-03 0.0 
0.0 0.0 -6.546167671857e-04 
-1.512905320875e-03 -2.064322058959e-03 0.0 
-2.064322058959e-03 5.485314435598e-03 0.0 
0.0 0.0 -1.141635569211e-03 
5.629634582603e-04 3.291314317230e-03 0.0 
3.291314317230e-03 1.247171813043e-03 0.0 
0.0 0.0 -7.757722591300e-04 
3.097498388755e-03 7.515594805802e-04 0.0 
7.515594805802e-04 -1.504351798864e-03 0.0 
0.0 0.0 -6.827771099535e-04 
-3.950988348044e-04 3.677355835862e-03 0.0 
3.677355835862e-03 3.018937195948e-03 0.0 
0.0 0.0 -8.989548790023e-04 
1.227636575782e-03 -1.512351808794e-03 0.0 
-1.512351808794e-03 -1.085715777594e-03 0.0 
0.0 0.0 -6.082319922330e-05 
-5.120566939223e-04 3.175912523353e-03 0.0 
3.175912523353e-03 3.844622698218e-03 0.0 
0.0 0.0 -1.026417656363e-03 
5.399418997976e-04 8.396772710701e-04 0.0 
8.396772710701e-04 2.161243029461e-03 0.0 
0.0 0.0 -1.065496432940e-03 
-1.316213487934e-03 3.030027547422e-03 0.0 
3.030027547422e-03 6.243260056489e-03 0.0 
0.0 0.0 -1.233600908384e-03 
-6.242951805065e-04 3.006743678072e-03 0.0 
3.006743678072e-03 4.303063931573e-03 0.0 
0.0 0.0 -1.090749533212e-03 
3.026627229701e-03 -6.016138979488e-05 0.0 
-6.016138979488e-05 -1.354975115356e-03 0.0 
0.0 0.0 -7.164223347191e-04 
-1.354858739815e-03 -2.484739121398e-03 0.0 
-2.484739121398e-03 4.613680447839e-03 0.0 
0.0 0.0 -1.047231727503e-03 
-1.514361396418e-03 1.521820591863e-03 0.0 
1.521820591863e-03 8.031763007479e-03 0.0 
0.0 0.0 -1.228155452712e-03 
-7.050516080877e-04 1.545847486976e-03 0.0 
1.545847486976e-03 4.498069063216e-03 0.0 
0.0 0.0 -1.267145247477e-03 
2.943450069451e-04 1.256402020470e-03 0.0 
1.256402020470e-03 2.679722888331e-03 0.0 
0.0 0.0 -1.102242875413e-03 
2.428652697383e-03 1.957638321578e-03 0.0 
1.957638321578e-03 -9.445444981417e-04 0.0 
0.0 0.0 -6.360463711034e-04 
-4.362885790870e-04 3.400866484877e-03 0.0 
3.400866484877e-03 3.416922100764e-03 0.0 
0.0 0.0 -9.624716764950e-04 
-1.751273191057e-03 -1.178364827428e-03 0.0 
-1.178364827428e-03 6.153449964232e-03 0.0 
0.0 0.0 -1.164316760544e-03 
-1.510592316959e-03 -9.050842607301e-04 0.0 
-9.050842607301e-04 4.622892738446e-03 0.0 
0.0 0.0 -1.053897668350e-03 
-5.098353463404e-04 3.384769362386e-03 0.0 
3.384769362386e-03 3.650364032255e-03 0.0 
0.0 0.0 -1.057196955382e-03 
-1.719373888211e-03 1.382981273232e-03 0.0 
1.382981273232e-03 6.550039956498e-03 0.0 
0.0 0.0 -9.877098122506e-04 
-1.368682583039e-03 -2.262414624365e-03 0.0 
-2.262414624365e-03 5.045630347078e-03 0.0 
0.0 0.0 -1.112977059762e-03 
-8.018931633473e-04 -2.405053121667e-03 0.0 
-2.405053121667e-03 4.002834443873e-03 0.0 
0.0 0.0 -1.093234982489e-03 
-1.439791436846e-03 3.326807682738e-05 0.0 
3.326807682738e-05 4.943594407769e-03 0.0 
0.0 0.0 -7.313513689239e-04 
-1.427152505588e-03 6.033982237060e-05 0.0 
6.033982237060e-05 4.941916582327e-03 0.0 
0.0 0.0 -7.310574395863e-04 
-1.640756721107e-03 2.340459270020e-03 0.0 
2.340459270020e-03 5.815255979654e-03 0.0 
0.0 0.0 -9.927888931628e-04 
-4.210846566685e-04 3.601854565047e-03 0.0 
3.601854565047e-03 3.185506434217e-03 0.0 
0.0 0.0 -9.930598132463e-04 
-9.560102716365e-04 -2.664544190492e-03 0.0 
-2.664544190492e-03 3.772312719303e-03 0.0 
0.0 0.0 -1.075560717398e-03 
-1.206510850392e-03 3.047967158976e-03 0.0 
3.047967158976e-03 4.800933324251e-03 0.0 
0.0 0.0 -9.775429604617e-04 
9.349897265997e-04 2.908831422528e-03 0.0 
2.908831422528e-03 6.057047016785e-04 0.0 
0.0 0.0 -6.602976121192e-04 
-2.228664070200e-04 -2.583623366081e-04 0.0 
-2.583623366081e-04 3.335250712245e-03 0.0 
0.0 0.0 -1.180288150054e-03 
2.187201504106e-03 2.288354873068e-03 0.0 
2.288354873068e-03 -8.791309691095e-04 0.0 
0.0 0.0 -5.606016578557e-04 
-1.487430872272e-03 2.032395386043e-03 0.0 
2.032395386043e-03 8.531052034659e-03 0.0 
0.0 0.0 -1.323793839065e-03 
-1.724651487443e-03 1.733577269253e-03 0.0 
1.733577269253e-03 5.152685708698e-03 0.0 
0.0 0.0 -8.119939454945e-04 
9.559001502051e-04 3.301449321883e-03 0.0 
3.301449321883e-03 8.023167039533e-04 0.0 
0.0 0.0 -7.535215089250e-04 
-6.923989162598e-04 -2.921867110632e-03 0.0 
-2.921867110632e-03 3.238107663680e-03 0.0 
0.0 0.0 -9.778014170609e-04 
2.952487269304e-03 8.767188776773e-04 0.0 
8.767188776773e-04 -1.231732878316e-03 0.0 
0.0 0.0 -7.374661675664e-04 
-1.449260709310e-04 -3.081657457247e-03 0.0 
-3.081657457247e-03 2.244720614764e-03 0.0 
0.0 0.0 -8.999119473571e-04 
-2.467797576170e-04 3.715212164584e-03 0.0 
3.715212164584e-03 2.738719973416e-03 0.0 
0.0 0.0 -9.758126512751e-04 
-5.058945486498e-04 3.618733188483e-03 0.0 
3.618733188483e-03 3.154888480052e-03 0.0 
0.0 0.0 -9.833357802921e-04 
-1.733759676165e-03 1.654794489536e-03 0.0 
1.654794489536e-03 6.367451579884e-03 0.0 
0.0 0.0 -9.814596669550e-04 
-1.124005872780e-03 3.379084100680e-03 0.0 
3.379084100680e-03 4.616783585522e-03 0.0 
0.0 0.0 -1.008022096355e-03 
-1.207720735867e-03 2.984451381318e-03 0.0 
2.984451381318e-03 5.147076662744e-03 0.0 
0.0 0.0 -1.040850218070e-03 
2.462504755941e-04 -3.466601191775e-04 0.0 
-3.466601191775e-04 1.225957598323e-03 0.0 
0.0 0.0 -3.048810613884e-04 
-2.528363505661e-04 -3.115888982409e-03 0.0 
-3.115888982409e-03 2.486992936593e-03 0.0 
0.0 0.0 -9.574956797260e-04 
-1.072167557266e-04 3.402438706717e-03 0.0 
3.402438706717e-03 2.375040834749e-03 0.0 
0.0 0.0 -9.719246052952e-04 
-1.390405142798e-03 3.085939311603e-03 0.0 
3.085939311603e-03 4.874750960273e-03 0.0 
0.0 0.0 -9.521954671713e-04 
-1.463685875107e-03 2.723658434378e-03 0.0 
2.723658434378e-03 5.354618705334e-03 0.0 
0.0 0.0 -9.850634846466e-04 
6.151608619478e-06 9.602693822456e-04 0.0 
9.602693822456e-04 3.003172333009e-03 0.0 
0.0 0.0 -1.160108757481e-03 
-7.116028528234e-04 -3.542186094007e-05 0.0 
-3.542186094007e-05 2.109496799795e-03 0.0 
0.0 0.0 -4.489418961951e-04 
2.420991236615e-03 -1.793290854156e-03 0.0 
-1.793290854156e-03 -1.206914640352e-03 0.0 
0.0 0.0 -5.203185412556e-04 
3.220195077698e-04 3.501557464345e-03 0.0 
3.501557464345e-03 1.705209014718e-03 0.0 
0.0 0.0 -8.688122239235e-04 
-2.823129498517e-04 -2.964277233818e-03 0.0 
-2.964277233818e-03 2.454860756862e-03 0.0 
0.0 0.0 -9.310919172903e-04 
-1.415275034250e-03 1.292164494452e-03 0.0 
1.292164494452e-03 4.167269738145e-03 0.0 
0.0 0.0 -7.665650418521e-04 
-1.567864091306e-03 1.226683465556e-03 0.0 
1.226683465556e-03 4.493286725470e-03 0.0 
0.0 0.0 -7.530137074853e-04 
-1.810136366687e-03 1.412997826384e-03 0.0 
1.412997826384e-03 6.411444835685e-03 0.0 
0.0 0.0 -9.793492904611e-04 
2.087664328359e-03 2.568536785539e-03 0.0 
2.568536785539e-03 -3.889452908062e-04 0.0 
0.0 0.0 -7.280224446656e-04 
-7.741376345699e-04 -2.792621548151e-03 0.0 
-2.792621548151e-03 3.378364177398e-03 0.0 
0.0 0.0 -1.004244986112e-03 
4.531124457367e-04 -1.076750210340e-03 0.0 
-1.076750210340e-03 2.037967656610e-03 0.0 
0.0 0.0 -1.049209916622e-03 
2.297209205504e-03 -5.483206442365e-04 0.0 
-5.483206442365e-04 -1.311033635610e-03 0.0 
0.0 0.0 -4.226466728115e-04 
-1.149618319309e-03 2.959992214286e-03 0.0 
2.959992214286e-03 5.456359281312e-03 0.0 
0.0 0.0 -1.285586381397e-03 
-1.702357103576e-03 1.352649744862e-03 0.0 
1.352649744862e-03 7.576949821791e-03 0.0 
0.0 0.0 -1.152455342817e-03 
-8.320143767109e-04 -2.543685297260e-03 0.0 
-2.543685297260e-03 3.497707295059e-03 0.0 
0.0 0.0 -1.095064427584e-03 
-1.386779618523e-03 -1.910481505052e-03 0.0 
-1.910481505052e-03 5.018049845752e-03 0.0 
0.0 0.0 -1.078722419643e-03 
2.229975894309e-04 -4.489617714331e-04 0.0 
-4.489617714331e-04 5.979694486616e-04 0.0 
0.0 0.0 -2.949115613585e-04 
4.540170595140e-04 -1.645489130381e-03 0.0 
-1.645489130381e-03 1.801582255490e-03 0.0 
0.0 0.0 -9.666854207159e-04 
-6.035540888641e-05 3.789347029411e-03 0.0 
3.789347029411e-03 2.399475313532e-03 0.0 
0.0 0.0 -8.867106850074e-04 
4.160484422948e-04 -3.622442174599e-04 0.0 
-3.622442174599e-04 5.441875866839e-04 0.0 
0.0 0.0 -3.067690066256e-04 
-1.619412582140e-03 1.641534764462e-03 0.0 
1.641534764462e-03 7.530266774085e-03 0.0 
0.0 0.0 -1.154859126927e-03 
1.948099663815e-03 -7.569421743857e-04 0.0 
-7.569421743857e-04 -1.147440738389e-03 0.0 
0.0 0.0 -3.431395394681e-04 
-1.356737557429e-03 2.911706860265e-03 0.0 
2.911706860265e-03 4.923580709307e-03 0.0 
0.0 0.0 -9.496453321265e-04 
-5.843331771905e-04 3.664260117298e-03 0.0 
3.664260117298e-03 3.237703376181e-03 0.0 
0.0 0.0 -8.924259012440e-04 
1.585702125321e-03 -1.745985882028e-03 0.0 
-1.745985882028e-03 -4.551642142342e-04 0.0 
0.0 0.0 -4.845162476087e-04 
3.886198775370e-04 -2.656776709997e-03 0.0 
-2.656776709997e-03 1.521016158266e-03 0.0 
0.0 0.0 -8.184154439158e-04 
-1.604458387616e-03 1.854152015569e-03 0.0 
1.854152015569e-03 7.626319442818e-03 0.0 
0.0 0.0 -1.182898372388e-03 
1.911502030331e-04 -2.214449408558e-03 0.0 
-2.214449408558e-03 2.167051973238e-03 0.0 
0.0 0.0 -9.716005391690e-04 
4.578213256305e-04 3.411459955915e-03 0.0 
3.411459955915e-03 1.456160682634e-03 0.0 
0.0 0.0 -8.202780035418e-04 
3.627077773465e-04 3.714478666179e-03 0.0 
3.714478666179e-03 1.773296424289e-03 0.0 
0.0 0.0 -9.111404029742e-04 
1.874131474266e-04 1.317598379107e-03 0.0 
1.317598379107e-03 5.481764939296e-04 0.0 
0.0 0.0 -3.152527034384e-04 
1.643748758810e-03 -4.204231761426e-04 0.0 
-4.204231761426e-04 -1.117599327178e-03 0.0 
0.0 0.0 -2.254926135565e-04 
-5.203694144565e-04 2.878386602619e-03 0.0 
2.878386602619e-03 4.197902991695e-03 0.0 
0.0 0.0 -1.118331045454e-03 
-1.809983628728e-03 1.593568509076e-03 0.0 
1.593568509076e-03 5.817131701425e-03 0.0 
0.0 0.0 -9.085367473448e-04 
-5.577334774044e-04 3.082426156906e-03 0.0 
3.082426156906e-03 4.104685153811e-03 0.0 
0.0 0.0 -1.148691026115e-03 
1.974680470733e-03 2.873021825660e-03 0.0 
2.873021825660e-03 -4.940617528099e-04 0.0 
0.0 0.0 -6.345508791099e-04 
-1.588961869452e-03 2.584393938582e-03 0.0 
2.584393938582e-03 6.455891274831e-03 0.0 
0.0 0.0 -1.097950598811e-03 
-7.723714131083e-04 2.927319470345e-03 0.0 
2.927319470345e-03 4.791549148204e-03 0.0 
0.0 0.0 -1.155407764312e-03 
-1.528620740983e-03 1.641090201076e-03 0.0 
1.641090201076e-03 4.483124494598e-03 0.0 
0.0 0.0 -7.696970057192e-04 
-6.364037100851e-04 3.205127351833e-03 0.0 
3.205127351833e-03 4.133031580390e-03 0.0 
0.0 0.0 -1.120992621467e-03 
-1.531289715330e-03 -2.235814658200e-03 0.0 
-2.235814658200e-03 5.083560864057e-03 0.0 
0.0 0.0 -1.075946734593e-03 
-1.542078502361e-04 3.681831680089e-03 0.0 
3.681831680089e-03 2.560354402538e-03 0.0 
0.0 0.0 -9.606735922745e-04 
-4.462082875552e-04 -3.056851139717e-03 0.0 
-3.056851139717e-03 2.847631123845e-03 0.0 
0.0 0.0 -1.006543408955e-03 
-3.390473984761e-04 -3.081268501996e-03 0.0 
-3.081268501996e-03 2.650937052075e-03 0.0 
0.0 0.0 -9.908098515424e-04 
-1.654766843293e-03 2.110154288789e-03 0.0 
2.110154288789e-03 7.526175185133e-03 0.0 
0.0 0.0 -1.204704583718e-03 
6.478121330843e-04 -2.891464683005e-03 0.0 
-2.891464683005e-03 9.158033438756e-04 0.0 
0.0 0.0 -6.701209186971e-04 
-3.674328541615e-04 3.694790859021e-03 0.0 
3.694790859021e-03 2.941360548218e-03 0.0 
0.0 0.0 -9.833476869619e-04 
1.512914527637e-03 2.270095044354e-03 0.0 
2.270095044354e-03 -2.495167818894e-04 0.0 
0.0 0.0 -5.414561767490e-04 
-4.689248235341e-05 -1.859495784931e-03 0.0 
-1.859495784931e-03 2.784842397476e-03 0.0 
0.0 0.0 -1.038364586984e-03 
1.508518420493e-03 2.943740230317e-03 0.0 
2.943740230317e-03 4.760392635737e-05 0.0 
0.0 0.0 -6.669095772216e-04 
3.102345530720e-03 7.378269526544e-05 0.0 
7.378269526544e-05 -1.464469892876e-03 0.0 
0.0 0.0 -7.019467019332e-04 
1.507578771505e-03 -7.604032194635e-04 0.0 
-7.604032194635e-04 -4.928220476776e-04 0.0 
0.0 0.0 -4.348957387830e-04 
3.148975456484e-03 8.306636056168e-04 0.0 
8.306636056168e-04 -1.496370463473e-03 0.0 
0.0 0.0 -7.082592827190e-04 
-1.261991141926e-03 3.267444165813e-03 0.0 
3.267444165813e-03 4.752384958846e-03 0.0 
0.0 0.0 -9.799122972177e-04 
3.123536661893e-03 -9.721135346994e-05 0.0 
-9.721135346994e-05 -1.405927083563e-03 0.0 
0.0 0.0 -7.361183907127e-04 
-1.047249439091e-03 3.250277679615e-03 0.0 
3.250277679615e-03 4.315763371752e-03 0.0 
0.0 0.0 -9.420580210740e-04 
1.883489007768e-04 8.010579783403e-04 0.0 
8.010579783403e-04 2.876523535355e-03 0.0 
0.0 0.0 -1.130549445556e-03 
3.588863471818e-04 1.014874640691e-03 0.0 
1.014874640691e-03 2.306525440664e-03 0.0 
0.0 0.0 -1.096529089934e-03 
1.700464822711e-03 2.598856322658e-03 0.0 
2.598856322658e-03 -4.407098144151e-04 0.0 
0.0 0.0 -5.398950035552e-04 
-1.732708782740e-03 1.731245879395e-03 0.0 
1.731245879395e-03 6.071080868846e-03 0.0 
0.0 0.0 -9.460253849645e-04 
-1.548270655095e-03 -1.671057713006e-03 0.0 
-1.671057713006e-03 5.446327602559e-03 0.0 
0.0 0.0 -1.107441567342e-03 
-1.667313564664e-03 -1.981097125204e-03 0.0 
-1.981097125204e-03 5.509726630970e-03 0.0 
0.0 0.0 -1.104747680386e-03 
1.318532451431e-03 2.199681040646e-03 0.0 
2.199681040646e-03 -1.454539841179e-04 0.0 
0.0 0.0 -5.027479145627e-04 
-9.715008187727e-04 3.547635970715e-03 0.0 
3.547635970715e-03 4.097719530490e-03 0.0 
0.0 0.0 -9.724793438395e-04 
-1.624312607657e-03 -1.275879739373e-03 0.0 
-1.275879739373e-03 6.206545711786e-03 0.0 
0.0 0.0 -1.205818386895e-03 
-2.985133365854e-04 2.525233875689e-03 0.0 
2.525233875689e-03 2.218258876373e-03 0.0 
0.0 0.0 -8.227480884806e-04 
-1.021411894397e-03 -2.472960565398e-03 0.0 
-2.472960565398e-03 3.861949643739e-03 0.0 
0.0 0.0 -1.085013296808e-03 
1.242793848756e-04 1.186515148645e-03 0.0 
1.186515148645e-03 5.554989300674e-04 0.0 
0.0 0.0 -2.913335635470e-04 
-1.667346094177e-03 -1.424810251550e-03 0.0 
-1.424810251550e-03 5.825346578498e-03 0.0 
0.0 0.0 -1.136235114959e-03 
3.019668846566e-03 9.582089678435e-04 0.0 
9.582089678435e-04 -1.448201355488e-03 0.0 
0.0 0.0 -6.734860676048e-04 
-1.578302787965e-03 -5.539699262797e-04 0.0 
-5.539699262797e-04 4.756261434844e-03 0.0 
0.0 0.0 -1.057437106069e-03 
4.911868189057e-04 2.542757255714e-03 0.0 
2.542757255714e-03 1.777357060087e-03 0.0 
0.0 0.0 -9.722330909969e-04 
-1.811529723315e-03 1.498050121893e-03 0.0 
1.498050121893e-03 6.116522056800e-03 0.0 
0.0 0.0 -9.438854677472e-04 
-1.729248363348e-03 1.804686593249e-03 0.0 
1.804686593249e-03 5.771244996451e-03 0.0 
0.0 0.0 -9.108073647307e-04 
1.218753398279e-04 3.628872757319e-03 0.0 
3.628872757319e-03 2.104833384723e-03 0.0 
0.0 0.0 -9.543037390934e-04 
-1.106695794268e-03 1.517581520969e-03 0.0 
1.517581520969e-03 3.539684992285e-03 0.0 
0.0 0.0 -7.963586959451e-04 
-1.268797780777e-03 1.437345509075e-03 0.0 
1.437345509075e-03 3.867869279896e-03 0.0 
0.0 0.0 -7.758011671882e-04 
-1.764900971931e-03 -1.718354051601e-03 0.0 
-1.718354051601e-03 5.889801463908e-03 0.0 
0.0 0.0 -1.133400347077e-03 
2.569249843707e-04 -2.786570784076e-03 0.0 
-2.786570784076e-03 1.556740733674e-03 0.0 
0.0 0.0 -7.772853077335e-04 
1.174175751744e-03 -1.803885435246e-03 0.0 
-1.803885435246e-03 -1.174563587325e-05 0.0 
0.0 0.0 -4.981843353734e-04 
5.912929398665e-04 -9.060768193030e-04 0.0 
-9.060768193030e-04 1.727113514221e-03 0.0 
0.0 0.0 -9.936027660373e-04 
2.016096735556e-03 -6.850330429382e-04 0.0 
-6.850330429382e-04 -9.758089702167e-04 0.0 
0.0 0.0 -4.458376137168e-04 
3.081197548797e-03 7.466969370712e-04 0.0 
7.466969370712e-04 -1.300129295292e-03 0.0 
0.0 0.0 -7.633149657881e-04 
-1.128831614242e-03 1.542551351037e-03 0.0 
1.542551351037e-03 3.551129300523e-03 0.0 
0.0 0.0 -7.520787537531e-04 
-1.821423928511e-03 1.474632635918e-03 0.0 
1.474632635918e-03 5.487726439764e-03 0.0 
0.0 0.0 -8.442294783838e-04 
-1.409406014707e-03 4.528826506854e-05 0.0 
4.528826506854e-05 5.214877225355e-03 0.0 
0.0 0.0 -7.121995050294e-04 
4.077287179479e-04 3.674953038794e-04 0.0 
3.674953038794e-04 2.393170375530e-03 0.0 
0.0 0.0 -1.093598669875e-03 
1.997342351340e-03 2.504018622736e-03 0.0 
2.504018622736e-03 -5.807467309884e-04 0.0 
0.0 0.0 -6.071124087219e-04 
-4.482284720357e-04 1.652414080391e-03 0.0 
1.652414080391e-03 3.958656300163e-03 0.0 
0.0 0.0 -1.233571955743e-03 
-2.022662331208e-03 -4.627058437959e-04 0.0 
-4.627058437959e-04 6.332672682848e-03 0.0 
0.0 0.0 -1.121177773779e-03 
1.798099945912e-03 -8.661440026173e-04 0.0 
-8.661440026173e-04 -7.288088564904e-04 0.0 
0.0 0.0 -4.582676097521e-04 
-1.524985310237e-03 -1.822620195545e-03 0.0 
-1.822620195545e-03 6.245562815238e-03 0.0 
0.0 0.0 -1.241472629463e-03 
3.003131752772e-03 -8.623198735716e-04 0.0 
-8.623198735716e-04 -1.396381984480e-03 0.0 
0.0 0.0 -6.886070435535e-04 
-3.779034990216e-04 2.052169755275e-03 0.0 
2.052169755275e-03 3.788846745744e-03 0.0 
0.0 0.0 -1.204482468497e-03 
1.415534273829e-04 3.636591431357e-03 0.0 
3.636591431357e-03 2.169944347150e-03 0.0 
0.0 0.0 -8.910665706739e-04 
8.940143763450e-06 3.422262264522e-03 0.0 
3.422262264522e-03 2.416052284656e-03 0.0 
0.0 0.0 -9.848034212814e-04 
-1.370477965762e-04 -1.170123439274e-03 0.0 
-1.170123439274e-03 3.214973093205e-03 0.0 
0.0 0.0 -1.146785027167e-03 
3.884013163081e-04 -2.855323367017e-03 0.0 
-2.855323367017e-03 1.211719834243e-03 0.0 
0.0 0.0 -6.857662073788e-04 
-7.129927410741e-04 3.670079492291e-03 0.0 
3.670079492291e-03 3.538541594785e-03 0.0 
0.0 0.0 -9.649174008510e-04 
1.717035050200e-03 -1.344860437860e-03 0.0 
-1.344860437860e-03 -6.217055712217e-04 0.0 
0.0 0.0 -4.694269195620e-04 
-8.587679122771e-04 3.481313587749e-03 0.0 
3.481313587749e-03 3.794469535060e-03 0.0 
0.0 0.0 -9.065670216064e-04 
1.889810402813e-03 2.899509189946e-03 0.0 
2.899509189946e-03 -2.152817456685e-04 0.0 
0.0 0.0 -7.176551387762e-04 
1.428912843794e-04 3.126816861625e-03 0.0 
3.126816861625e-03 2.356543378173e-03 0.0 
0.0 0.0 -1.013229387512e-03 
1.943775632291e-03 -1.286497408609e-03 0.0 
-1.286497408609e-03 -8.334086717492e-04 0.0 
0.0 0.0 -4.758715545177e-04 
-1.000337791729e-03 -2.628959420428e-03 0.0 
-2.628959420428e-03 3.773462867951e-03 0.0 
0.0 0.0 -9.886579807222e-04 
-8.325357311160e-04 3.547635505547e-03 0.0 
3.547635505547e-03 3.716995785029e-03 0.0 
0.0 0.0 -9.612835620876e-04 
2.687167972919e-04 1.795311194676e-03 0.0 
1.795311194676e-03 1.563575924244e-04 0.0 
0.0 0.0 -1.821747384498e-04 
1.057813883420e-03 2.534506278338e-03 0.0 
2.534506278338e-03 3.175156107454e-04 0.0 
0.0 0.0 -5.894269260710e-04 
4.651919044669e-04 1.924261843739e-03 0.0 
1.924261843739e-03 5.725607713308e-04 0.0 
0.0 0.0 -4.447511467704e-04 
-3.371303889653e-04 -7.500919376923e-04 0.0 
-7.500919376923e-04 1.299829984783e-03 0.0 
0.0 0.0 -4.040777003935e-04 
-1.056371726126e-03 -2.468497531733e-03 0.0 
-2.468497531733e-03 3.865104933196e-03 0.0 
0.0 0.0 -1.010653628765e-03 
-9.607789536056e-04 3.048565223821e-03 0.0 
3.048565223821e-03 4.940644900743e-03 0.0 
0.0 0.0 -1.098354823938e-03 
-1.707850550320e-03 2.055402839425e-03 0.0 
2.055402839425e-03 5.786469608898e-03 0.0 
0.0 0.0 -9.387552692591e-04 
-7.756723233026e-04 1.730094175383e-03 0.0 
1.730094175383e-03 2.916527936956e-03 0.0 
0.0 0.0 -8.497951325312e-04 
-1.342322198460e-03 2.098270725376e-03 0.0 
2.098270725376e-03 8.248661573518e-03 0.0 
0.0 0.0 -1.342322198460e-03 
-1.641643851325e-04 1.961194815363e-03 0.0 
1.961194815363e-03 2.443866404743e-04 0.0 
0.0 0.0 -3.438096657507e-05 
-9.510393810217e-04 1.672687846132e-03 0.0 
1.672687846132e-03 3.246503304730e-03 0.0 
0.0 0.0 -8.134098498104e-04 
1.098475143763e-03 -2.031876221816e-03 0.0 
-2.031876221816e-03 1.166483383452e-04 0.0 
0.0 0.0 -5.207672066180e-04 
-1.089976521784e-03 -2.234801732660e-03 0.0 
-2.234801732660e-03 3.943897982090e-03 0.0 
0.0 0.0 -1.084767721667e-03 
-1.111038172895e-03 2.200189741588e-03 0.0 
2.200189741588e-03 3.768833115442e-03 0.0 
0.0 0.0 -8.610308207870e-04 
2.262464148868e-03 -1.945012542063e-03 0.0 
-1.945012542063e-03 -8.191237484730e-04 0.0 
0.0 0.0 -6.185744573122e-04 
5.761048584873e-04 -2.775225325336e-03 0.0 
-2.775225325336e-03 9.303736926874e-04 0.0 
0.0 0.0 -6.456336647891e-04 
-1.625181255020e-04 3.528619970826e-03 0.0 
3.528619970826e-03 2.809301514261e-03 0.0 
0.0 0.0 -9.266779469803e-04 
7.488835648315e-04 2.251240740231e-03 0.0 
2.251240740231e-03 1.162555029076e-03 0.0 
0.0 0.0 -8.191879688175e-04 
-1.329752805185e-03 3.181517598016e-03 0.0 
3.181517598016e-03 5.907007101231e-03 0.0 
0.0 0.0 -1.144302277022e-03 
1.946489244002e-03 2.821542424935e-03 0.0 
2.821542424935e-03 -8.035545710095e-04 0.0 
0.0 0.0 -4.898291455683e-04 
-8.586335344055e-04 -2.592060326530e-03 0.0 
-2.592060326530e-03 3.501562453949e-03 0.0 
0.0 0.0 -1.023226067289e-03 
-1.335563518602e-03 -1.880041070522e-03 0.0 
-1.880041070522e-03 4.351195601973e-03 0.0 
0.0 0.0 -1.033071644556e-03 
-2.022124363339e-05 -2.395587679301e-03 0.0 
-2.395587679301e-03 1.567846091858e-03 0.0 
0.0 0.0 -6.632677920962e-04 
-1.674900766220e-03 1.599025443535e-03 0.0 
1.599025443535e-03 4.804084785627e-03 0.0 
0.0 0.0 -7.663799295492e-04 
-1.769874274313e-03 1.858383186956e-03 0.0 
1.858383186956e-03 5.835930784600e-03 0.0 
0.0 0.0 -9.362314798257e-04 
-2.069835677089e-03 -4.002455476683e-04 0.0 
-4.002455476683e-04 5.909495734486e-03 0.0 
0.0 0.0 -1.073191215027e-03 
1.059197299257e-03 -5.440939611188e-04 0.0 
-5.440939611188e-04 5.670737881280e-04 0.0 
0.0 0.0 -3.365581251930e-04 
0.0 0.0 0.0 
0.0 0.0 0.0 
0.0 0.0 0.0 
-4.602170046064e-05 -1.936536183988e-03 0.0 
-1.936536183988e-03 1.323038368316e-03 0.0 
0.0 0.0 -5.472928576524e-04 
-1.313750205869e-03 -1.893362186714e-03 0.0 
-1.893362186714e-03 4.351424993746e-03 0.0 
0.0 0.0 -1.080662880999e-03 
2.816321063082e-03 -8.334388727588e-04 0.0 
-8.334388727588e-04 -1.272649618703e-03 0.0 
0.0 0.0 -6.615734761625e-04 
2.373065583622e-03 -2.080956134851e-03 0.0 
-2.080956134851e-03 -1.010649277428e-03 0.0 
0.0 0.0 -5.838927026542e-04 
2.954183213689e-03 -8.930251278497e-04 0.0 
-8.930251278497e-04 -1.356411275311e-03 0.0 
0.0 0.0 -6.847594021618e-04 
-1.301232695251e-03 -2.116378151629e-03 0.0 
-2.116378151629e-03 4.314126103213e-03 0.0 
0.0 0.0 -1.020860678390e-03 
-1.603005468093e-03 2.550878726920e-03 0.0 
2.550878726920e-03 5.754736739264e-03 0.0 
0.0 0.0 -9.956198530692e-04 
-1.518941795168e-03 -1.499106977263e-03 0.0 
-1.499106977263e-03 4.706029179031e-03 0.0 
0.0 0.0 -1.043188517862e-03 
2.974270505683e-03 -1.234815007946e-05 0.0 
-1.234815007946e-05 -1.384428534307e-03 0.0 
0.0 0.0 -6.813608448753e-04 
-8.631645989931e-04 3.291242542591e-03 0.0 
3.291242542591e-03 4.149472146392e-03 0.0 
0.0 0.0 -9.699423737970e-04 
-1.666656418554e-03 8.515973861887e-04 0.0 
8.515973861887e-04 5.656067677278e-03 0.0 
0.0 0.0 -8.236220363599e-04 
2.293852952879e-04 2.317534078424e-03 0.0 
2.317534078424e-03 2.464619361077e-03 0.0 
0.0 0.0 -1.076197569190e-03 
-1.503911657480e-03 -1.536228813635e-03 0.0 
-1.536228813635e-03 4.713514709764e-03 0.0 
0.0 0.0 -1.079735805607e-03 
-1.269594224654e-03 -2.151916428327e-03 0.0 
-2.151916428327e-03 4.311241093571e-03 0.0 
0.0 0.0 -1.081849276551e-03 
-4.912617181252e-04 1.776659374520e-03 0.0 
1.776659374520e-03 2.250419150674e-03 0.0 
0.0 0.0 -7.539246139495e-04 
2.432965561316e-03 -1.404722775878e-03 0.0 
-1.404722775878e-03 -1.097996306609e-03 0.0 
0.0 0.0 -5.721296805886e-04 
-1.672927313923e-03 -1.115371020166e-03 0.0 
-1.115371020166e-03 5.017856732658e-03 0.0 
0.0 0.0 -1.052805964859e-03 
-1.580075754320e-03 2.157353104837e-04 0.0 
2.157353104837e-04 6.692661968395e-03 0.0 
0.0 0.0 -9.615701295830e-04 
-1.562907036777e-03 2.120583330649e-04 0.0 
2.120583330649e-04 6.337987109484e-03 0.0 
0.0 0.0 -8.972249362023e-04 
-6.223529423683e-04 1.809817658288e-03 0.0 
1.809817658288e-03 2.623397927817e-03 0.0 
0.0 0.0 -8.575907080495e-04 
-1.509705893005e-03 -1.747591078712e-03 0.0 
-1.747591078712e-03 4.715855182949e-03 0.0 
0.0 0.0 -1.032785096058e-03 
1.569414128809e-03 -2.550888608895e-03 0.0 
-2.550888608895e-03 -3.370499251341e-04 0.0 
0.0 0.0 -5.281560872893e-04 
8.209882341614e-04 2.381580320664e-03 0.0 
2.381580320664e-03 4.553315452112e-04 0.0 
0.0 0.0 -5.469941911596e-04 
-2.931643961127e-04 1.527189756473e-03 0.0 
1.527189756473e-03 3.869126548266e-03 0.0 
0.0 0.0 -1.202908440308e-03 
1.382596818972e-04 -2.070148021774e-03 0.0 
-2.070148021774e-03 1.091658495820e-03 0.0 
0.0 0.0 -5.271077904503e-04 
1.398235426833e-03 -2.548773596058e-03 0.0 
-2.548773596058e-03 -7.584749764512e-05 0.0 
0.0 0.0 -5.667376839375e-04 
1.254646909069e-03 2.484629242297e-03 0.0 
2.484629242297e-03 3.513264158718e-04 0.0 
0.0 0.0 -6.882742821176e-04 
-8.245697505670e-04 1.707333830662e-03 0.0 
1.707333830662e-03 2.953610139157e-03 0.0 
0.0 0.0 -7.843752346430e-04 
-1.666758732331e-03 -1.174236117568e-03 0.0 
-1.174236117568e-03 5.037001804565e-03 0.0 
0.0 0.0 -1.079856008588e-03 
-9.244628747481e-04 -1.936309255703e-04 0.0 
-1.936309255703e-04 2.822852214519e-03 0.0 
0.0 0.0 -6.624393034254e-04 
-1.781970376818e-03 1.286452196401e-03 0.0 
1.286452196401e-03 5.020731578576e-03 0.0 
0.0 0.0 -7.824198048058e-04 
-1.484587749919e-03 -1.812874826371e-03 0.0 
-1.812874826371e-03 4.718401123365e-03 0.0 
0.0 0.0 -1.081372135754e-03 
1.084769609676e-03 -2.051097269290e-03 0.0 
-2.051097269290e-03 1.328211131768e-04 0.0 
0.0 0.0 -5.218245955084e-04 
-7.383188819978e-04 -2.755351396555e-03 0.0 
-2.755351396555e-03 3.375108004806e-03 0.0 
0.0 0.0 -1.093992571453e-03 
0.0 0.0 0.0 
0.0 0.0 0.0 
0.0 0.0 0.0 
-1.585395185030e-03 -8.733622601649e-05 0.0 
-8.733622601649e-05 7.915806537563e-03 0.0 
0.0 0.0 -1.152567315725e-03 
1.675271907871e-03 -2.177617042757e-03 0.0 
-2.177617042757e-03 -5.173898653476e-04 0.0 
0.0 0.0 -4.962351610816e-04 
3.706447397785e-05 2.070351060898e-04 0.0 
2.070351060898e-04 3.044600736775e-03 0.0 
0.0 0.0 -1.154039482800e-03 
2.069033457779e-04 2.961881208612e-03 0.0 
2.961881208612e-03 2.494592241471e-03 0.0 
0.0 0.0 -9.821191134873e-04 
-1.685773855788e-03 -1.377399783606e-03 0.0 
-1.377399783606e-03 5.070521373149e-03 0.0 
0.0 0.0 -1.044398856648e-03 
-1.669266621470e-03 -1.454184032041e-03 0.0 
-1.454184032041e-03 5.079788696568e-03 0.0 
0.0 0.0 -1.081576243284e-03 
2.914990553637e-03 -7.685843879532e-04 0.0 
-7.685843879532e-04 -1.358389786941e-03 0.0 
0.0 0.0 -6.671146142983e-04 
1.578300081431e-04 -1.839580637340e-03 0.0 
-1.839580637340e-03 9.146826550122e-04 0.0 
0.0 0.0 -4.596482842094e-04 
5.655633450819e-04 1.634462446329e-03 0.0 
1.634462446329e-03 -4.353216112412e-04 0.0 
0.0 0.0 -5.581788593170e-05 
-1.838374468884e-03 -1.008357892208e-03 0.0 
-1.008357892208e-03 5.389548205880e-03 0.0 
0.0 0.0 -1.053342186814e-03 
-7.735429255110e-05 -5.938829985412e-04 0.0 
-5.938829985412e-04 3.207515001155e-03 0.0 
0.0 0.0 -1.148056181429e-03 
8.407270435530e-04 -2.401906140793e-03 0.0 
-2.401906140793e-03 4.680800088294e-04 0.0 
0.0 0.0 -5.609173081639e-04 
-8.059519139880e-04 3.569609752867e-03 0.0 
3.569609752867e-03 3.937575205409e-03 0.0 
0.0 0.0 -1.000702849114e-03 
-1.423128099077e-04 2.434671484328e-03 0.0 
2.434671484328e-03 1.829214520191e-03 0.0 
0.0 0.0 -7.229578758357e-04 
-1.050409536978e-03 3.126628093613e-03 0.0 
3.126628093613e-03 4.667808075339e-03 0.0 
0.0 0.0 -1.005614027492e-03 
-9.737300203529e-04 -1.654439195094e-03 0.0 
-1.654439195094e-03 5.294537233988e-03 0.0 
0.0 0.0 -1.266534580134e-03 
0.0 0.0 0.0 
0.0 0.0 0.0 
0.0 0.0 0.0 
-1.341620833825e-03 1.946460220436e-04 0.0 
1.946460220436e-04 8.726655578502e-03 0.0 
0.0 0.0 -1.341620833825e-03 
-1.340051318819e-03 -5.222823624513e-04 0.0 
-5.222823624513e-04 7.102242080382e-03 0.0 
0.0 0.0 -1.340051318819e-03 
-1.487218295656e-03 -1.877140319118e-04 0.0 
-1.877140319118e-04 5.546795712007e-03 0.0 
0.0 0.0 -7.955197795907e-04 
9.332368058577e-04 -2.323240235713e-03 0.0 
-2.323240235713e-03 3.557999178189e-04 0.0 
0.0 0.0 -5.524443101471e-04 
4.489255113100e-05 3.284657334475e-03 0.0 
3.284657334475e-03 2.631811467132e-03 0.0 
0.0 0.0 -9.543595451431e-04 
3.058132153657e-03 -1.043711929510e-04 0.0 
-1.043711929510e-04 -1.411540431284e-03 0.0 
0.0 0.0 -7.056821667315e-04 
-3.299569164523e-05 -1.162968038586e-03 0.0 
-1.162968038586e-03 1.091173189700e-03 0.0 
0.0 0.0 -3.090400745732e-04 
-4.758970593972e-05 1.583245017231e-03 0.0 
1.583245017231e-03 4.785006624114e-04 0.0 
0.0 0.0 -1.846761242021e-04 
-1.574977123889e-03 5.363765110094e-04 0.0 
5.363765110094e-04 8.165141429638e-03 0.0 
0.0 0.0 -1.209499414335e-03 
-1.716498366635e-03 2.104119454666e-03 0.0 
2.104119454666e-03 5.843034081691e-03 0.0 
0.0 0.0 -9.648175333861e-04 
-1.733356707705e-03 1.154742806149e-03 0.0 
1.154742806149e-03 4.860119042041e-03 0.0 
0.0 0.0 -7.487175554447e-04 
-1.114495707937e-03 3.137897512820e-03 0.0 
3.137897512820e-03 5.995042437661e-03 0.0 
0.0 0.0 -1.323661129950e-03 
-8.127251142362e-04 -1.412537566310e-04 0.0 
-1.412537566310e-04 2.411308652960e-03 0.0 
0.0 0.0 -5.128881373376e-04 
-1.119968701545e-03 2.850061398458e-03 0.0 
2.850061398458e-03 5.775097260118e-03 0.0 
0.0 0.0 -1.324908485340e-03 
-1.665581242751e-03 2.319761122546e-03 0.0 
2.319761122546e-03 5.793099015745e-03 0.0 
0.0 0.0 -9.670422101491e-04 
5.568715715285e-04 -2.770077582360e-03 0.0 
-2.770077582360e-03 9.496266440003e-04 0.0 
0.0 0.0 -6.456420923695e-04 
2.161043505783e-04 3.547732125549e-03 0.0 
3.547732125549e-03 1.898015910390e-03 0.0 
0.0 0.0 -9.060515404150e-04 
9.950905598312e-04 -2.671652170698e-03 0.0 
-2.671652170698e-03 4.709180402517e-04 0.0 
0.0 0.0 -6.282894000355e-04 
6.980021611784e-04 2.329704923171e-03 0.0 
2.329704923171e-03 5.591408928334e-04 0.0 
0.0 0.0 -5.387755945765e-04 
7.505691487916e-04 -2.806175756815e-03 0.0 
-2.806175756815e-03 7.604579484207e-04 0.0 
0.0 0.0 -6.475830416624e-04 
-1.523404584578e-03 2.773030803061e-03 0.0 
2.773030803061e-03 5.696563371559e-03 0.0 
0.0 0.0 -1.023749757194e-03 
-1.948666597127e-03 -9.778535476886e-04 0.0 
-9.778535476886e-04 6.429483775968e-03 0.0 
0.0 0.0 -1.155390781228e-03 
1.789573321784e-03 -2.334741346390e-03 0.0 
-2.334741346390e-03 -4.865776105569e-04 0.0 
0.0 0.0 -5.584267333832e-04 
-9.825735489597e-04 3.435129640079e-03 0.0 
3.435129640079e-03 4.478995622056e-03 0.0 
0.0 0.0 -1.036271578259e-03 
0.0 0.0 0.0 
0.0 0.0 0.0 
0.0 0.0 0.0 
2.596759179503e-03 -1.389222099922e-03 0.0 
-1.389222099922e-03 -1.085257982110e-03 0.0 
0.0 0.0 -6.477862274541e-04 
-1.710970656604e-03 2.103685284721e-03 0.0 
2.103685284721e-03 6.525687664567e-03 0.0 
0.0 0.0 -1.066385360782e-03 
2.404574348015e-04 -2.949261258943e-03 0.0 
-2.949261258943e-03 1.482737397066e-03 0.0 
0.0 0.0 -7.385120708005e-04 
6.388802882870e-04 -2.505035958296e-03 0.0 
-2.505035958296e-03 7.105369687538e-04 0.0 
0.0 0.0 -5.783216815889e-04 
3.613031293431e-04 3.302322730047e-03 0.0 
3.302322730047e-03 1.977511413847e-03 0.0 
0.0 0.0 -9.187611816440e-04 
1.834377336541e-03 -2.869898485884e-03 0.0 
-2.869898485884e-03 -1.676988345135e-04 0.0 
0.0 0.0 -7.142907865831e-04 
-2.603602936992e-04 1.802957872284e-03 0.0 
1.802957872284e-03 1.690888390106e-03 0.0 
0.0 0.0 -6.130834698885e-04 
-3.766094290651e-04 1.893748037744e-03 0.0 
1.893748037744e-03 2.022328291586e-03 0.0 
0.0 0.0 -7.053080839374e-04 
2.569187355972e-04 -2.744654995445e-03 0.0 
-2.744654995445e-03 1.329889881086e-03 0.0 
0.0 0.0 -6.800608357214e-04 
9.113223760588e-04 -2.364957113740e-03 0.0 
-2.364957113740e-03 3.924099138829e-04 0.0 
0.0 0.0 -5.587424099750e-04 
1.417197887517e-03 2.585133621544e-03 0.0 
2.585133621544e-03 -7.607709962933e-05 0.0 
0.0 0.0 -5.747660519518e-04 
-8.949493316928e-04 3.143090586373e-03 0.0 
3.143090586373e-03 4.528621917534e-03 0.0 
0.0 0.0 -1.033897369924e-03 
-1.400349245868e-03 3.030732209316e-03 0.0 
3.030732209316e-03 6.703483299750e-03 0.0 
0.0 0.0 -1.224260864640e-03 
-5.253406665386e-04 1.775908047208e-03 0.0 
1.775908047208e-03 2.340968666104e-03 0.0 
0.0 0.0 -7.781262855279e-04 
-1.583002963210e-03 -1.557788336479e-04 0.0 
-1.557788336479e-04 7.086569384723e-03 0.0 
0.0 0.0 -1.028620860735e-03 
-1.145284533028e-03 3.268026662313e-03 0.0 
3.268026662313e-03 5.700409497196e-03 0.0 
0.0 0.0 -1.228414553209e-03 
3.124385303303e-03 -1.108728093105e-05 0.0 
-1.108728093105e-05 -1.500119221682e-03 0.0 
0.0 0.0 -6.961140349804e-04 
5.697530012785e-04 2.144073309248e-03 0.0 
2.144073309248e-03 5.848519704173e-04 0.0 
0.0 0.0 -4.948307021553e-04 
-2.816210062748e-04 2.601627525948e-03 0.0 
2.601627525948e-03 2.228068929511e-03 0.0 
0.0 0.0 -8.341919671012e-04 
8.341721467740e-04 -2.510433576068e-03 0.0 
-2.510433576068e-03 5.276394565767e-04 0.0 
0.0 0.0 -5.836335442932e-04 
-1.247042165843e-03 3.250100918931e-03 0.0 
3.250100918931e-03 5.099970820779e-03 0.0 
0.0 0.0 -1.043024347135e-03 
1.027519968218e-03 -2.380813166548e-03 0.0 
-2.380813166548e-03 3.112209895361e-04 0.0 
0.0 0.0 -5.737461247516e-04 
1.268606586028e-03 2.037384257040e-03 0.0 
2.037384257040e-03 -4.121339973903e-04 0.0 
0.0 0.0 -3.670596808449e-04 
5.930292221715e-04 -2.622911752925e-03 0.0 
-2.622911752925e-03 8.838728538733e-04 0.0 
0.0 0.0 -6.329580325906e-04 
5.486710723125e-04 2.332384511628e-03 0.0 
2.332384511628e-03 7.102378801027e-04 0.0 
0.0 0.0 -5.395324081779e-04 
1.682768200706e-03 2.516609952748e-03 0.0 
2.516609952748e-03 -2.542264434373e-04 0.0 
0.0 0.0 -6.122321816866e-04 
7.358023053180e-04 -2.505051408807e-03 0.0 
-2.505051408807e-03 7.718123993888e-04 0.0 
0.0 0.0 -6.461205877315e-04 
2.812366509539e-04 3.418056531118e-03 0.0 
3.418056531118e-03 1.761992896829e-03 0.0 
0.0 0.0 -8.756698061928e-04 
-1.585509504414e-03 6.854986193214e-05 0.0 
6.854986193214e-05 6.515313053331e-03 0.0 
0.0 0.0 -9.494079867578e-04 
1.950119496099e-04 -2.582141659643e-03 0.0 
-2.582141659643e-03 1.322040652856e-03 0.0 
0.0 0.0 -6.501654010570e-04 
9.460441418101e-04 2.468386529063e-03 0.0 
2.468386529063e-03 3.152412733386e-04 0.0 
0.0 0.0 -5.405508922066e-04 
5.243693270813e-04 -2.069869324487e-03 0.0 
-2.069869324487e-03 1.498209352589e-03 0.0 
0.0 0.0 -8.668194341442e-04 
3.838921855015e-04 2.277447822888e-03 0.0 
2.277447822888e-03 8.700555358996e-04 0.0 
0.0 0.0 -5.374061663147e-04 
0.0 0.0 0.0 
0.0 0.0 0.0 
0.0 0.0 0.0 
-1.483198277618e-03 2.721071498371e-04 0.0 
2.721071498371e-04 8.165740664983e-03 0.0 
0.0 0.0 -1.223389224544e-03 
-1.535254932215e-03 2.717190120097e-04 0.0 
2.717190120097e-04 7.854733745092e-03 0.0 
0.0 0.0 -1.157435638217e-03 
1.714590457334e-06 -7.115369139069e-04 0.0 
-7.115369139069e-04 4.515715516867e-04 0.0 
0.0 0.0 -1.942654894903e-04 
3.878432463794e-04 -2.223127307783e-03 0.0 
-2.223127307783e-03 1.630928175518e-03 0.0 
0.0 0.0 -8.651877522419e-04 
-2.798740380973e-05 -2.159694096595e-03 0.0 
-2.159694096595e-03 1.431561792510e-03 0.0 
0.0 0.0 -6.015318808715e-04 
-1.829025907462e-04 -2.119639284792e-03 0.0 
-2.119639284792e-03 1.714857895665e-03 0.0 
0.0 0.0 -6.565522735366e-04 
-1.017733219917e-03 3.364025437069e-03 0.0 
3.364025437069e-03 4.897256146699e-03 0.0 
0.0 0.0 -1.100737838324e-03 
5.257552207879e-04 2.875144563505e-03 0.0 
2.875144563505e-03 1.853285664374e-03 0.0 
0.0 0.0 -9.467522836136e-04 
-8.497134643687e-04 3.433349612216e-03 0.0 
3.433349612216e-03 4.357788075562e-03 0.0 
0.0 0.0 -1.064854740548e-03 
2.203223739880e-03 -1.975974349915e-03 0.0 
-1.975974349915e-03 -9.232686555068e-04 0.0 
0.0 0.0 -5.485521790173e-04 
-1.446388010227e-03 1.342323327112e-04 0.0 
1.342323327112e-04 5.217166277606e-03 0.0 
0.0 0.0 -7.105917616147e-04 
-1.197543499266e-03 -1.810608894436e-03 0.0 
-1.810608894436e-03 5.325302062837e-03 0.0 
0.0 0.0 -1.281538364137e-03 
-1.726353625323e-04 -1.807145954026e-03 0.0 
-1.807145954026e-03 1.497715714659e-03 0.0 
0.0 0.0 -5.678915794828e-04 
2.222123337372e-04 -1.923483587620e-05 0.0 
-1.923483587620e-05 2.651456288210e-03 0.0 
0.0 0.0 -1.121221582973e-03 
1.156875498320e-03 3.056207622502e-03 0.0 
3.056207622502e-03 4.647886417546e-04 0.0 
0.0 0.0 -6.949989171747e-04 
-5.424671300971e-04 -2.887281693977e-04 0.0 
-2.887281693977e-04 1.675559050033e-03 0.0 
0.0 0.0 -3.973267919445e-04 
-1.360155763593e-03 3.097514486866e-03 0.0 
3.097514486866e-03 5.194571229381e-03 0.0 
0.0 0.0 -1.015166614560e-03 
2.718308302872e-03 -7.221702226311e-04 0.0 
-7.221702226311e-04 -1.243788694723e-03 0.0 
0.0 0.0 -6.319369749211e-04 
2.871950510200e-04 -2.057705951039e-03 0.0 
-2.057705951039e-03 8.654869691646e-04 0.0 
0.0 0.0 -4.940065800791e-04 
2.698077562336e-03 -1.426914000199e-03 0.0 
-1.426914000199e-03 -1.126048004927e-03 0.0 
0.0 0.0 -6.737269531753e-04 
-2.035172389928e-03 5.681521720379e-05 0.0 
5.681521720379e-05 5.818689376235e-03 0.0 
0.0 0.0 -1.069816800183e-03 
-1.547603731344e-03 2.557965682965e-03 0.0 
2.557965682965e-03 5.760856088478e-03 0.0 
0.0 0.0 -1.020980360542e-03 
3.535477644423e-04 -2.409077986448e-03 0.0 
-2.409077986448e-03 9.968391477695e-04 0.0 
0.0 0.0 -5.787372480908e-04 
-1.638049386592e-03 -5.261620418510e-04 0.0 
-5.261620418510e-04 4.881654597217e-03 0.0 
0.0 0.0 -1.045407985144e-03 
-1.131069213092e-03 3.339054972024e-03 0.0 
3.339054972024e-03 5.004170711216e-03 0.0 
0.0 0.0 -1.071782534217e-03 
7.849170986353e-05 2.002784816892e-03 0.0 
2.002784816892e-03 3.087471277383e-03 0.0 
0.0 0.0 -1.109893377180e-03 
5.081300325286e-04 -2.843687144981e-03 0.0 
-2.843687144981e-03 1.050709009186e-03 0.0 
0.0 0.0 -6.680738750205e-04 
-8.485846460072e-04 -2.429092323345e-04 0.0 
-2.429092323345e-04 2.701937249489e-03 0.0 
0.0 0.0 -7.163733244607e-04 
1.054276666128e-03 2.747625866901e-03 0.0 
2.747625866901e-03 4.044819373952e-04 0.0 
0.0 0.0 -6.251822586527e-04 
-1.556582639800e-03 -2.026954580916e-04 0.0 
-2.026954580916e-04 6.435079901625e-03 0.0 
0.0 0.0 -9.278975173457e-04 
6.306613738133e-04 -2.843431008643e-03 0.0 
-2.843431008643e-03 9.087558385051e-04 0.0 
0.0 0.0 -6.597502338507e-04 
-1.151665732863e-03 3.368799827368e-03 0.0 
3.368799827368e-03 6.118948746046e-03 0.0 
0.0 0.0 -1.269179263064e-03 
-1.428509069589e-03 2.793670889960e-03 0.0 
2.793670889960e-03 7.317810969107e-03 0.0 
0.0 0.0 -1.281197857596e-03 
-1.509195270466e-03 -1.457985023921e-04 0.0 
-1.457985023921e-04 5.771603983327e-03 0.0 
0.0 0.0 -8.387747867703e-04 
-1.581495188537e-03 1.397540288099e-03 0.0 
1.397540288099e-03 8.227342162666e-03 0.0 
0.0 0.0 -1.255037608383e-03 
-1.367281596907e-03 3.139996712098e-03 0.0 
3.139996712098e-03 6.951432883282e-03 0.0 
0.0 0.0 -1.285499913836e-03 
2.109542503114e-03 -1.930775448323e-03 0.0 
-1.930775448323e-03 -7.849211290522e-04 0.0 
0.0 0.0 -5.676948745980e-04 
1.380801218232e-03 -2.351235301793e-03 0.0 
-2.351235301793e-03 -1.698746639676e-04 0.0 
0.0 0.0 -5.189685232560e-04 
-5.757297583633e-04 4.366962327414e-04 0.0 
4.366962327414e-04 4.537400147680e-03 0.0 
0.0 0.0 -1.265535665854e-03 
0.0 0.0 0.0 
0.0 0.0 0.0 
0.0 0.0 0.0 
-8.394320087675e-04 -3.205840844428e-05 0.0 
-3.205840844428e-05 2.565992005118e-03 0.0 
0.0 0.0 -6.072167217314e-04 
-1.628413269992e-03 -1.673586948164e-04 0.0 
-1.673586948164e-04 4.868895534124e-03 0.0 
0.0 0.0 -1.067827858613e-03 
4.161330338528e-04 -2.673128765629e-03 0.0 
-2.673128765629e-03 1.065048131365e-03 0.0 
0.0 0.0 -6.347919279505e-04 
1.927385449734e-03 -2.370761864729e-03 0.0 
-2.370761864729e-03 -5.075034197406e-04 0.0 
0.0 0.0 -6.085208699972e-04 
-3.171269370445e-05 1.814506539183e-03 0.0 
1.814506539183e-03 1.218095740662e-03 0.0 
0.0 0.0 -5.084498772674e-04 
-1.067456340534e-04 1.927365287384e-03 0.0 
1.927365287384e-03 1.436121596143e-03 0.0 
0.0 0.0 -5.697325551813e-04 
-1.696184299969e-03 4.188758800933e-04 0.0 
4.188758800933e-04 5.835163577314e-03 0.0 
0.0 0.0 -8.290026594306e-04 
2.687649412673e-03 -1.534651648036e-03 0.0 
-1.534651648036e-03 -1.236375441606e-03 0.0 
0.0 0.0 -6.219745590288e-04 
-8.374689021838e-04 -7.956683833314e-04 0.0 
-7.956683833314e-04 2.821114433129e-03 0.0 
0.0 0.0 -8.100060677168e-04 
-5.763887782379e-05 2.884104717794e-03 0.0 
2.884104717794e-03 2.960925031656e-03 0.0 
0.0 0.0 -1.077832113627e-03 
-1.357626258592e-03 -2.064052997114e-03 0.0 
-2.064052997114e-03 6.484172296954e-03 0.0 
0.0 0.0 -1.324978758543e-03 
-1.316853930481e-03 -2.171233133158e-03 0.0 
-2.171233133158e-03 6.262828385778e-03 0.0 
0.0 0.0 -1.320624918399e-03 
1.210545566472e-03 -2.440771907645e-03 0.0 
-2.440771907645e-03 2.098806390541e-04 0.0 
0.0 0.0 -6.087540880828e-04 
-1.669792706879e-03 7.585625911679e-04 0.0 
7.585625911679e-04 5.225921064138e-03 0.0 
0.0 0.0 -7.877541558771e-04 
0.0 0.0 0.0 
0.0 0.0 0.0 
0.0 0.0 0.0 
1.526705898496e-04 1.832423170921e-03 0.0 
1.832423170921e-03 9.162592996274e-04 0.0 
0.0 0.0 -4.581128097759e-04 
1.694782762505e-03 -3.278967534484e-03 0.0 
-3.278967534484e-03 -3.718783773796e-04 0.0 
0.0 0.0 -5.669590221966e-04 
7.211551457005e-05 1.826082030850e-03 0.0 
1.826082030850e-03 1.040988995356e-03 0.0 
0.0 0.0 -4.770447899684e-04 
8.520859723696e-04 2.702963814911e-03 0.0 
2.702963814911e-03 1.160586394610e-03 0.0 
0.0 0.0 -8.625738715628e-04 
1.049602008115e-03 -2.610080274348e-03 0.0 
-2.610080274348e-03 3.535904184599e-04 0.0 
0.0 0.0 -6.013681828177e-04 
1.924226435236e-03 -2.386188926630e-03 0.0 
-2.386188926630e-03 -7.021276801158e-04 0.0 
0.0 0.0 -5.237566093371e-04 
8.906199206854e-04 -2.335912402002e-03 0.0 
-2.335912402002e-03 -6.441539282859e-04 0.0 
0.0 0.0 -1.056282824569e-04 
-1.518150307999e-03 2.180517986998e-04 0.0 
2.180517986998e-04 7.814279060755e-03 0.0 
0.0 0.0 -1.176327079312e-03 
1.081599261770e-03 -2.356565631716e-03 0.0 
-2.356565631716e-03 1.958644745057e-04 0.0 
0.0 0.0 -5.474844584040e-04 
-1.503838573524e-03 8.537407365335e-04 0.0 
8.537407365335e-04 8.091641180223e-03 0.0 
0.0 0.0 -1.212957849656e-03 
-1.563004608103e-03 1.345074243690e-04 0.0 
1.345074243690e-04 7.574721874408e-03 0.0 
0.0 0.0 -1.117460450001e-03 
-1.452677521913e-03 3.546154927313e-04 0.0 
3.546154927313e-04 8.989483437301e-03 0.0 
0.0 0.0 -1.319418651152e-03 
-1.573682658163e-03 -6.434523803718e-04 0.0 
-6.434523803718e-04 7.311749488072e-03 0.0 
0.0 0.0 -1.324849633189e-03 
-1.522640732825e-03 1.776300828802e-04 0.0 
1.776300828802e-04 5.910709247101e-03 0.0 
0.0 0.0 -8.315138651140e-04 
8.069897163257e-04 -2.530526196753e-03 0.0 
-2.530526196753e-03 5.619735093356e-04 0.0 
0.0 0.0 -5.866985252834e-04 
-2.779641202251e-04 1.703949019227e-03 0.0 
1.703949019227e-03 1.672572981451e-03 0.0 
0.0 0.0 -5.976895119538e-04 
7.490285409449e-04 -3.064892262470e-03 0.0 
-3.064892262470e-03 9.033898181147e-04 0.0 
0.0 0.0 -7.081792967398e-04 
-1.343328350294e-03 -1.797161006887e-03 0.0 
-1.797161006887e-03 6.496235434020e-03 0.0 
0.0 0.0 -1.343328350294e-03 
1.770851489837e-04 1.574613937019e-03 0.0 
1.574613937019e-03 7.197174740553e-04 0.0 
0.0 0.0 -3.843439813024e-04 
1.884365055557e-04 1.730723292298e-03 0.0 
1.730723292298e-03 7.999529513160e-04 0.0 
0.0 0.0 -4.235954815164e-04 
5.120454739847e-05 4.425631252095e-04 0.0 
4.425631252095e-04 3.081010907522e-03 0.0 
0.0 0.0 -1.156027955174e-03 
-1.600063486753e-03 4.454182285367e-04 0.0 
4.454182285367e-04 5.553533901810e-03 0.0 
0.0 0.0 -7.715229432315e-04 
-1.496300168116e-03 6.368230222668e-04 0.0 
6.368230222668e-04 8.172597464420e-03 0.0 
0.0 0.0 -1.219279742240e-03 
-1.079188820050e-03 3.032068943539e-03 0.0 
3.032068943539e-03 5.044159493797e-03 0.0 
0.0 0.0 -1.069611963270e-03 
-3.125996649260e-04 2.376006221788e-03 0.0 
2.376006221788e-03 3.643123644996e-03 0.0 
0.0 0.0 -1.175036385391e-03 
-1.440706362563e-03 2.765679407787e-03 0.0 
2.765679407787e-03 6.040073424197e-03 0.0 
0.0 0.0 -1.113576918908e-03 
-1.533426048517e-03 3.483355765343e-04 0.0 
3.483355765343e-04 5.830518730214e-03 0.0 
0.0 0.0 -8.542750875040e-04 
4.145616627609e-04 -2.510686493370e-03 0.0 
-2.510686493370e-03 9.700386978898e-04 0.0 
0.0 0.0 -5.934001545646e-04 
5.188237827814e-04 -2.738227656747e-03 0.0 
-2.738227656747e-03 9.760172721955e-04 0.0 
0.0 0.0 -6.406461664186e-04 
-1.559322814184e-03 2.985337068608e-04 0.0 
2.985337068608e-04 6.828450389527e-03 0.0 
0.0 0.0 -9.963059934037e-04 
-1.981024320875e-04 2.157190390334e-03 0.0 
2.157190390334e-03 3.614846179737e-03 0.0 
0.0 0.0 -1.142506377625e-03 
-1.686833987170e-03 9.535938984725e-04 0.0 
9.535938984725e-04 4.721621554871e-03 0.0 
0.0 0.0 -7.386355146563e-04 
-1.463703012742e-03 6.266658719779e-05 0.0 
6.266658719779e-05 5.604963867248e-03 0.0 
0.0 0.0 -7.676068998053e-04 
-1.515549186513e-03 3.697674288865e-05 0.0 
3.697674288865e-05 5.930448629907e-03 0.0 
0.0 0.0 -8.242303029217e-04 
-1.592254304502e-03 -3.437592554212e-05 0.0 
-3.437592554212e-05 6.006274404460e-03 0.0 
0.0 0.0 -8.467401457521e-04 
1.475757754276e-03 -1.289294546505e-03 0.0 
-1.289294546505e-03 -9.417009757612e-04 0.0 
0.0 0.0 -2.288814765064e-04 
2.490964718879e-04 -2.584180670905e-03 0.0 
-2.584180670905e-03 1.241456993708e-03 0.0 
0.0 0.0 -6.388086281126e-04 
-1.524289002589e-03 1.055576054381e-03 0.0 
1.055576054381e-03 8.572679794113e-03 0.0 
0.0 0.0 -1.269310366786e-03 
-1.609154575879e-03 5.927002029432e-05 0.0 
5.927002029432e-05 6.380922986421e-03 0.0 
0.0 0.0 -9.150577043801e-04 
-9.099437829954e-04 1.617518349232e-03 0.0 
1.617518349232e-03 4.661075676102e-03 0.0 
0.0 0.0 -1.295322057178e-03 
-1.481137119135e-03 2.911611220647e-03 0.0 
2.911611220647e-03 6.859531798370e-03 0.0 
0.0 0.0 -1.215577547940e-03 
-1.339321083005e-03 2.882096422563e-03 0.0 
2.882096422563e-03 5.250850385045e-03 0.0 
0.0 0.0 -1.012565562176e-03 
-1.640900346179e-03 1.517631824607e-03 0.0 
1.517631824607e-03 7.910833663920e-03 0.0 
0.0 0.0 -1.214907066889e-03 
-1.059540956040e-03 -1.334979029727e-03 0.0 
-1.334979029727e-03 3.594823103032e-03 0.0 
0.0 0.0 -9.974489174931e-04 
-1.013156646554e-03 -1.368118382081e-03 0.0 
-1.368118382081e-03 3.447232281497e-03 0.0 
0.0 0.0 -9.464646038184e-04 
-1.053605941392e-03 -1.657375267239e-03 0.0 
-1.657375267239e-03 4.938505543447e-03 0.0 
0.0 0.0 -1.226851238141e-03 
0.0 0.0 0.0 
0.0 0.0 0.0 
0.0 0.0 0.0 
-9.591830860426e-04 -2.723797524876e-04 0.0 
-2.723797524876e-04 2.822378765221e-03 0.0 
0.0 0.0 -5.777536677209e-04 
-1.342405754833e-03 2.832331701177e-03 0.0 
2.832331701177e-03 5.623065616304e-03 0.0 
0.0 0.0 -1.342405754833e-03 
-1.232108481340e-04 -4.438827698639e-05 0.0 
-4.438827698639e-05 1.111663342237e-03 0.0 
0.0 0.0 -2.724401835525e-04 
-1.475085458698e-03 8.547838585484e-05 0.0 
8.547838585484e-05 5.344445388578e-03 0.0 
0.0 0.0 -7.870118106326e-04 
-3.041907190684e-04 -2.929338759418e-04 0.0 
-2.929338759418e-04 3.995006628254e-03 0.0 
0.0 0.0 -1.213461936786e-03 
-7.635875139996e-06 -1.081722019394e-03 0.0 
-1.081722019394e-03 7.060070926500e-04 0.0 
0.0 0.0 -2.993019503614e-04 
1.505773719545e-03 -8.263394782763e-04 0.0 
-8.263394782763e-04 -6.336254798976e-05 0.0 
0.0 0.0 -2.382422751898e-04 
-1.473393185853e-03 1.353598964677e-03 0.0 
1.353598964677e-03 8.746165970417e-03 0.0 
0.0 0.0 -1.324389858384e-03 
-1.521392000938e-03 2.912474066464e-04 0.0 
2.912474066464e-04 4.940937614450e-03 0.0 
0.0 0.0 -7.294542769151e-04 
-1.503978704987e-03 1.473877310897e-03 0.0 
1.473877310897e-03 8.344062810088e-03 0.0 
0.0 0.0 -1.261418349269e-03 
-5.327298325037e-04 3.575837178235e-04 0.0 
3.575837178235e-04 3.642687559217e-03 0.0 
0.0 0.0 -1.231858344535e-03 
-1.518533849991e-03 1.071472041001e-04 0.0 
1.071472041001e-04 4.942575461076e-03 0.0 
0.0 0.0 -7.289279708929e-04 
0.0 0.0 0.0 
0.0 0.0 0.0 
0.0 0.0 0.0 
-1.422405127371e-03 1.531540875437e-04 0.0 
1.531540875437e-04 8.427070743481e-03 0.0 
0.0 0.0 -1.284140717545e-03 
-3.551011727049e-04 -7.009671051649e-04 0.0 
-7.009671051649e-04 1.319322733909e-03 0.0 
0.0 0.0 -3.479328688591e-04 
-1.509662464093e-03 1.187111297047e-03 0.0 
1.187111297047e-03 8.089981201651e-03 0.0 
0.0 0.0 -1.232184317627e-03 
-1.343095105526e-03 -1.540983607491e-03 0.0 
-1.540983607491e-03 6.702452530061e-03 0.0 
0.0 0.0 -1.343095105526e-03 
-1.554707611052e-03 2.562602135152e-03 0.0 
2.562602135152e-03 7.111310188225e-03 0.0 
0.0 0.0 -1.225700354592e-03 
2.173759747286e-03 -1.419935824116e-03 0.0 
-1.419935824116e-03 -1.114841162711e-03 0.0 
0.0 0.0 -4.538222505322e-04 
-1.741082427331e-03 1.054953553281e-03 0.0 
1.054953553281e-03 5.737463170789e-03 0.0 
0.0 0.0 -8.279144014868e-04 
-1.224194647146e-03 -9.467109309958e-04 0.0 
-9.467109309958e-04 3.877522353974e-03 0.0 
0.0 0.0 -9.630043323905e-04 
6.517046530341e-05 2.327281681424e-03 0.0 
2.327281681424e-03 2.984838930140e-03 0.0 
0.0 0.0 -1.077599360682e-03 
-1.012701747737e-03 1.623436123670e-03 0.0 
1.623436123670e-03 5.329514602195e-03 0.0 
0.0 0.0 -1.326997735404e-03 
-1.585109039191e-03 2.780588406276e-04 0.0 
2.780588406276e-04 7.347999637207e-03 0.0 
0.0 0.0 -1.061614915164e-03 
-1.008710860855e-03 1.312542642731e-03 0.0 
1.312542642731e-03 5.209194240256e-03 0.0 
0.0 0.0 -1.325870641008e-03 
3.673422327950e-04 -3.776124720398e-04 0.0 
-3.776124720398e-04 -3.673422327950e-04 0.0 
0.0 0.0 0.0 
-1.430003464036e-03 -1.969193470792e-03 0.0 
-1.969193470792e-03 6.388366935774e-03 0.0 
0.0 0.0 -1.277656510522e-03 
2.370305391374e-03 -2.562363361486e-03 0.0 
-2.562363361486e-03 -6.166549384612e-04 0.0 
0.0 0.0 -7.515644798196e-04 
-3.100324176095e-04 -2.408320728402e-04 0.0 
-2.408320728402e-04 1.151728361162e-03 0.0 
0.0 0.0 -2.782378078114e-04 
-7.322007537650e-04 -9.555468943118e-04 0.0 
-9.555468943118e-04 4.734669521016e-03 0.0 
0.0 0.0 -1.270335377537e-03 
-1.575122942683e-03 2.171152972729e-03 0.0 
2.171152972729e-03 8.127111917130e-03 0.0 
0.0 0.0 -1.270603359501e-03 
-1.496692965649e-03 1.319095711312e-03 0.0 
1.319095711312e-03 8.369617950368e-03 0.0 
0.0 0.0 -1.289850838753e-03 
-1.498527200318e-03 3.689228571039e-04 0.0 
3.689228571039e-04 5.398355138859e-03 0.0 
0.0 0.0 -7.762633204683e-04 
-1.744558354744e-03 1.631310676350e-03 0.0 
1.631310676350e-03 5.391746306119e-03 0.0 
0.0 0.0 -8.489529362435e-04 
7.301121496963e-04 2.437654514774e-03 0.0 
2.437654514774e-03 5.848010967936e-04 0.0 
0.0 0.0 -5.635342484957e-04 
-1.427601509624e-03 3.175353375607e-03 0.0 
3.175353375607e-03 7.125136039489e-03 0.0 
0.0 0.0 -1.273041473476e-03 
-1.038080719471e-03 -6.334570087308e-04 0.0 
-6.334570087308e-04 3.329140480764e-03 0.0 
0.0 0.0 -8.764843149172e-04 
1.193441318594e-03 2.328942464463e-03 0.0 
2.328942464463e-03 3.040131158427e-05 0.0 
0.0 0.0 -5.245039843621e-04 
-2.118585962265e-05 2.523859735457e-03 0.0 
2.523859735457e-03 3.050030047244e-03 0.0 
0.0 0.0 -1.110141529071e-03 
-1.425138137322e-03 6.470798395339e-05 0.0 
6.470798395339e-05 5.179988142805e-03 0.0 
0.0 0.0 -7.096328662732e-04 
-1.517585115342e-03 2.260614719474e-03 0.0 
2.260614719474e-03 7.684999531697e-03 0.0 
0.0 0.0 -1.237729719596e-03 
-1.422593477448e-03 -1.670334611249e-04 0.0 
-1.670334611249e-04 8.888807101193e-03 0.0 
0.0 0.0 -1.321509982054e-03 
-1.343732204276e-03 1.010834953933e-04 0.0 
1.010834953933e-04 8.744729451207e-03 0.0 
0.0 0.0 -1.343732204276e-03 
3.369232126492e-03 1.693280559230e-04 0.0 
1.693280559230e-04 -1.155841201236e-03 0.0 
0.0 0.0 -6.603666768414e-05 
2.499766675984e-03 -2.952033461878e-04 0.0 
-2.952033461878e-04 -9.796559826583e-04 0.0 
0.0 0.0 -1.532902690118e-04 
-1.416942128620e-03 -1.624029676109e-04 0.0 
-1.624029676109e-04 5.054688992973e-03 0.0 
0.0 0.0 -7.318233512793e-04 
-1.419792893404e-03 3.183177604522e-05 0.0 
3.183177604522e-05 5.196638347434e-03 0.0 
0.0 0.0 -7.096011290571e-04 
-1.343732204276e-03 -2.406936037715e-04 0.0 
-2.406936037715e-04 7.113693032304e-03 0.0 
0.0 0.0 -1.343732204276e-03 
-1.562203585825e-03 1.305016391806e-04 0.0 
1.305016391806e-04 7.294302504235e-03 0.0 
0.0 0.0 -1.321509982054e-03 
2.262811037578e-03 -4.868403071367e-05 0.0 
-4.868403071367e-05 -4.447467837794e-04 0.0 
0.0 0.0 -2.434615908245e-04 
0.0 0.0 0.0 
0.0 0.0 0.0 
0.0 0.0 0.0 
-1.642313907969e-03 -1.143113511814e-03 0.0 
-1.143113511814e-03 6.403076283141e-03 0.0 
0.0 0.0 -1.230181737024e-03 
-7.148794360532e-04 3.164508669310e-03 0.0 
3.164508669310e-03 4.742447412984e-03 0.0 
0.0 0.0 -1.209364118140e-03 
-5.258157990741e-04 -7.879783393280e-04 0.0 
-7.879783393280e-04 1.688623542397e-03 0.0 
0.0 0.0 -3.144533898553e-04 
-1.351136438279e-03 -1.975186179308e-03 0.0 
-1.975186179308e-03 5.772523348463e-03 0.0 
0.0 0.0 -1.240191881334e-03 
-1.731554632553e-03 -2.342398403810e-04 0.0 
-2.342398403810e-04 5.123990276158e-03 0.0 
0.0 0.0 -1.081029080859e-03 
-1.535845139517e-03 -3.312382585291e-04 0.0 
-3.312382585291e-04 4.629162629476e-03 0.0 
0.0 0.0 -1.039595904837e-03 
-1.612928706957e-03 3.113730006726e-04 0.0 
3.113730006726e-04 6.721792739589e-03 0.0 
0.0 0.0 -9.400782610458e-04 
1.101421061084e-03 -2.909512193680e-03 0.0 
-2.909512193680e-03 4.457906368086e-04 0.0 
0.0 0.0 -6.630907276683e-04 
3.131506035800e-04 2.556520147165e-03 0.0 
2.556520147165e-03 2.414585707981e-03 0.0 
0.0 0.0 -1.011657465016e-03 
-1.177300482134e-05 -1.092061392265e-03 0.0 
-1.092061392265e-03 1.284900459222e-03 0.0 
0.0 0.0 -3.097963217911e-04 
-1.220126007134e-03 -1.262020264430e-03 0.0 
-1.262020264430e-03 3.977099482089e-03 0.0 
0.0 0.0 -1.029451436826e-03 
-1.346849968967e-03 3.153673073291e-03 0.0 
3.153673073291e-03 6.593026306646e-03 0.0 
0.0 0.0 -1.240519096027e-03 
-1.527894889398e-03 -1.936018657920e-04 0.0 
-1.936018657920e-04 8.104261702945e-03 0.0 
0.0 0.0 -1.191726112421e-03 
-1.479396360357e-03 -2.989971596189e-04 0.0 
-2.989971596189e-04 4.503238817139e-03 0.0 
0.0 0.0 -1.046336039097e-03 
-1.560842421660e-03 -8.540456832086e-05 0.0 
-8.540456832086e-05 6.232717148515e-03 0.0 
0.0 0.0 -8.745659502648e-04 
-9.955423334814e-04 3.339003162247e-03 0.0 
3.339003162247e-03 5.559555520798e-03 0.0 
0.0 0.0 -1.217119345309e-03 
-1.351529115626e-03 2.876362203055e-03 0.0 
2.876362203055e-03 5.976398005188e-03 0.0 
0.0 0.0 -1.140944809983e-03 
-1.341013158963e-03 2.862888668155e-03 0.0 
2.862888668155e-03 5.603065071307e-03 0.0 
0.0 0.0 -1.076426999079e-03 
-1.492882998354e-03 1.325735461083e-04 0.0 
1.325735461083e-04 4.933841446090e-03 0.0 
0.0 0.0 -7.312123441678e-04 
6.172998628868e-04 2.362607397547e-03 0.0 
2.362607397547e-03 1.812787626421e-03 0.0 
0.0 0.0 -9.763781674015e-04 
-1.502422605285e-03 2.514513612527e-03 0.0 
2.514513612527e-03 7.380594194812e-03 0.0 
0.0 0.0 -1.231404929774e-03 
-8.003792871297e-04 -5.108965880218e-04 0.0 
-5.108965880218e-04 2.603757424793e-03 0.0 
0.0 0.0 -7.107894383394e-04 
1.779720377328e-04 -1.298870854502e-03 0.0 
-1.298870854502e-03 4.337348693579e-04 0.0 
0.0 0.0 -1.164291272224e-04 
-9.970216092610e-04 3.010797291644e-03 0.0 
3.010797291644e-03 5.249606407737e-03 0.0 
0.0 0.0 -1.185975225609e-03 
2.191734593223e-04 5.610847358595e-04 0.0 
5.610847358595e-04 2.599656196276e-03 0.0 
0.0 0.0 -1.123538223191e-03 
1.172927684885e-03 -2.889497196016e-03 0.0 
-2.889497196016e-03 3.300442381492e-04 0.0 
0.0 0.0 -6.441308241577e-04 
-1.607945126080e-03 -1.740082688204e-05 0.0 
-1.740082688204e-05 7.004832338719e-03 0.0 
0.0 0.0 -9.893338170986e-04 
-1.512467681835e-03 -1.269144618606e-03 0.0 
-1.269144618606e-03 6.614649124568e-03 0.0 
0.0 0.0 -1.282739585886e-03 
-7.843923001707e-04 3.075094105696e-03 0.0 
3.075094105696e-03 4.595487038338e-03 0.0 
0.0 0.0 -1.182073443778e-03 
-8.715817867822e-04 3.121670101447e-03 0.0 
3.121670101447e-03 5.293578095492e-03 0.0 
0.0 0.0 -1.215129606110e-03 
-1.899421587696e-03 -4.002758172017e-04 0.0 
-4.002758172017e-04 5.518204821451e-03 0.0 
0.0 0.0 -1.079026350805e-03 
0.0 0.0 0.0 
0.0 0.0 0.0 
0.0 0.0 0.0 
-4.777114925537e-05 1.704067356774e-03 0.0 
1.704067356774e-03 1.178107469511e-03 0.0 
0.0 0.0 -4.844298515380e-04 
4.263341666864e-04 2.474607686413e-03 0.0 
2.474607686413e-03 9.338852604604e-04 0.0 
0.0 0.0 -5.829511830629e-04 
-1.721178049984e-03 1.085378291777e-03 0.0 
1.085378291777e-03 5.473315709064e-03 0.0 
0.0 0.0 -8.471429939415e-04 
4.228609678747e-04 3.021260051708e-03 0.0 
3.021260051708e-03 1.732467119469e-03 0.0 
0.0 0.0 -9.237120374330e-04 
-1.533799557255e-03 6.728038073689e-04 0.0 
6.728038073689e-04 8.237501439824e-03 0.0 
0.0 0.0 -1.236541257690e-03 
-8.719226860915e-04 7.267313533335e-04 0.0 
7.267313533335e-04 4.230245890387e-03 0.0 
0.0 0.0 -1.282325209426e-03 
2.964520960670e-04 -1.978928276592e-03 0.0 
-1.978928276592e-03 8.042557840210e-04 0.0 
0.0 0.0 -4.717319486092e-04 
1.319048487483e-04 -1.576566321261e-03 0.0 
-1.576566321261e-03 7.886992305850e-04 0.0 
0.0 0.0 -3.945446054286e-04 
1.817673251283e-04 1.876543985894e-03 0.0 
1.876543985894e-03 9.002005847285e-04 0.0 
0.0 0.0 -4.637005327958e-04 
-1.570049742763e-03 5.369425789645e-04 0.0 
5.369425789645e-04 6.963270594615e-03 0.0 
0.0 0.0 -1.019242131223e-03 
-9.308723645065e-04 -1.101236884891e-03 0.0 
-1.101236884891e-03 3.096386949501e-03 0.0 
0.0 0.0 -8.257845680531e-04 
-1.587305306336e-03 1.706805244546e-03 0.0 
1.706805244546e-03 7.938189703079e-03 0.0 
0.0 0.0 -1.241298427557e-03 
-4.566804084497e-04 -4.114264182866e-04 0.0 
-4.114264182866e-04 1.625098335496e-03 0.0 
0.0 0.0 -2.728146851408e-04 
-4.193612778590e-04 8.066391699242e-04 0.0 
8.066391699242e-04 3.619638834416e-03 0.0 
0.0 0.0 -1.221152601860e-03 
-1.613149922033e-03 6.729604599103e-04 0.0 
6.729604599103e-04 5.730913827298e-03 0.0 
0.0 0.0 -8.343732341398e-04 
-9.805029045404e-04 2.320290812643e-03 0.0 
2.320290812643e-03 4.821535310315e-03 0.0 
0.0 0.0 -1.286815605725e-03 
-1.972178768770e-04 2.471490219589e-03 0.0 
2.471490219589e-03 3.599121568157e-03 0.0 
0.0 0.0 -1.111121968474e-03 
-1.760642934702e-03 1.153303269584e-03 0.0 
1.153303269584e-03 5.427908306702e-03 0.0 
0.0 0.0 -8.465141837044e-04 
-8.764965121591e-04 -1.556039561585e-03 0.0 
-1.556039561585e-03 5.086777567781e-03 0.0 
0.0 0.0 -1.269142588751e-03 
-1.551933899349e-03 2.142615053803e-03 0.0 
2.142615053803e-03 8.208999000424e-03 0.0 
0.0 0.0 -1.272727265576e-03 
-1.482418812719e-03 2.636741981307e-04 0.0 
2.636741981307e-04 8.672320582664e-03 0.0 
0.0 0.0 -1.271339345674e-03 
2.794840770511e-04 1.877110949586e-03 0.0 
1.877110949586e-03 7.644572491491e-04 0.0 
0.0 0.0 -4.474034255144e-04 
-1.548384254494e-03 1.778472603870e-03 0.0 
1.778472603870e-03 7.853183226647e-03 0.0 
0.0 0.0 -1.218309553141e-03 
-1.238984078820e-03 3.237221125149e-03 0.0 
3.237221125149e-03 5.979697278194e-03 0.0 
0.0 0.0 -1.286645293131e-03 
-2.338452424877e-04 4.838955254747e-04 0.0 
4.838955254747e-04 3.810277403162e-03 0.0 
0.0 0.0 -1.211735819529e-03 
-2.641749654371e-04 2.730651329854e-03 0.0 
2.730651329854e-03 3.539043083142e-03 0.0 
0.0 0.0 -1.143254064081e-03 
-1.342665167303e-03 -1.913201158816e-03 0.0 
-1.913201158816e-03 6.140194887135e-03 0.0 
0.0 0.0 -1.342665167303e-03 
-1.336562494305e-03 3.148621666370e-03 0.0 
3.148621666370e-03 5.546558025077e-03 0.0 
0.0 0.0 -1.079065255302e-03 
0.0 0.0 0.0 
0.0 0.0 0.0 
0.0 0.0 0.0 
1.128782554056e-03 2.722430850094e-03 0.0 
2.722430850094e-03 3.671628183846e-04 0.0 
0.0 0.0 -6.411194453319e-04 
-1.438782275937e-03 2.878593628370e-03 0.0 
2.878593628370e-03 6.406037302073e-03 0.0 
0.0 0.0 -1.176936364471e-03 
-1.717609899646e-03 1.241798828460e-03 0.0 
1.241798828460e-03 5.908300544731e-03 0.0 
0.0 0.0 -8.884613587993e-04 
-1.780913372705e-03 -9.535977727778e-04 0.0 
-9.535977727778e-04 6.697114639858e-03 0.0 
0.0 0.0 -1.221994126432e-03 
-4.533386727007e-04 2.366129578243e-03 0.0 
2.366129578243e-03 4.141621556580e-03 0.0 
0.0 0.0 -1.177009544428e-03 
-1.321487320261e-03 -1.869174225829e-03 0.0 
-1.869174225829e-03 5.949052928407e-03 0.0 
0.0 0.0 -1.292249833993e-03 
-1.557982079132e-03 5.560473992337e-04 0.0 
5.560473992337e-04 7.430714466144e-03 0.0 
0.0 0.0 -1.085521458831e-03 
-9.906508321286e-04 2.010874064209e-03 0.0 
2.010874064209e-03 4.656220140669e-03 0.0 
0.0 0.0 -1.288973456333e-03 
-8.669493969727e-04 -1.781456295850e-03 0.0 
-1.781456295850e-03 4.656567585957e-03 0.0 
0.0 0.0 -1.233322439334e-03 
-8.389834207114e-04 -1.353105162080e-03 0.0 
-1.353105162080e-03 4.612963758963e-03 0.0 
0.0 0.0 -1.235043566395e-03 
-1.060688043098e-03 -7.830630523890e-04 0.0 
-7.830630523890e-04 3.332470677800e-03 0.0 
0.0 0.0 -8.113697483009e-04 
-1.399514092732e-03 -1.981208132211e-03 0.0 
-1.981208132211e-03 6.677395424695e-03 0.0 
0.0 0.0 -1.325641941534e-03 
-1.659266455691e-03 6.538953700681e-04 0.0 
6.538953700681e-04 5.459969626810e-03 0.0 
0.0 0.0 -7.662153309038e-04 
-1.522339522893e-03 2.785636433653e-04 0.0 
2.785636433653e-04 8.220976080768e-03 0.0 
0.0 0.0 -1.217406395242e-03 
2.069000998586e-04 -1.834555044401e-03 0.0 
-1.834555044401e-03 8.418202147660e-04 0.0 
0.0 0.0 -4.494515634106e-04 
-1.554320641115e-03 9.540049576088e-05 0.0 
9.540049576088e-05 8.023345832809e-03 0.0 
0.0 0.0 -1.163202487293e-03 
-1.605625159736e-03 1.859754007895e-04 0.0 
1.859754007895e-04 7.063048343461e-03 0.0 
0.0 0.0 -9.926133712568e-04 
1.071864880333e-03 1.610051896133e-04 0.0 
1.610051896133e-04 5.200375252643e-04 0.0 
0.0 0.0 -3.474471837849e-04 
1.832184275694e-03 -1.682280732148e-03 0.0 
-1.682280732148e-03 -1.155510517394e-03 0.0 
0.0 0.0 -2.900030392716e-04 
-1.244256880666e-03 3.271621003319e-03 0.0 
3.271621003319e-03 5.486132487448e-03 0.0 
0.0 0.0 -1.107581195644e-03 
-1.451044372397e-03 1.126612148562e-03 0.0 
1.126612148562e-03 8.289352558878e-03 0.0 
0.0 0.0 -1.285368862661e-03 
-1.527299749628e-03 6.691441746447e-05 0.0 
6.691441746447e-05 8.328526928916e-03 0.0 
0.0 0.0 -1.223917301752e-03 
-6.542601835067e-04 2.123935983624e-03 0.0 
2.123935983624e-03 4.536265029875e-03 0.0 
0.0 0.0 -1.264779455601e-03 
-1.569067467187e-03 4.931081965661e-04 0.0 
4.931081965661e-04 6.107235089411e-03 0.0 
0.0 0.0 -8.807565902733e-04 
9.036251718301e-04 -7.928332989266e-04 0.0 
-7.928332989266e-04 8.196583140466e-05 0.0 
0.0 0.0 -1.521090440113e-04 
0.0 0.0 0.0 
0.0 0.0 0.0 
0.0 0.0 0.0 
1.535104090838e-04 -8.781412906566e-04 0.0 
-8.781412906566e-04 3.080308650687e-04 0.0 
0.0 0.0 -1.564070233212e-04 
2.353484151011e-04 -2.169776398881e-03 0.0 
-2.169776398881e-03 1.011611602068e-03 0.0 
0.0 0.0 -5.344114359296e-04 
2.683764683782e-05 1.596085032998e-03 0.0 
1.596085032998e-03 -2.683764683782e-05 0.0 
0.0 0.0 0.0 
-1.313634282752e-03 -1.068658817985e-03 0.0 
-1.068658817985e-03 4.125079470398e-03 0.0 
0.0 0.0 -9.906016899089e-04 
-1.765538454854e-03 -6.603659762189e-04 0.0 
-6.603659762189e-04 6.689629757519e-03 0.0 
0.0 0.0 -1.222305993939e-03 
-1.487013992754e-03 2.874720261213e-03 0.0 
2.874720261213e-03 7.173251573241e-03 0.0 
0.0 0.0 -1.222833113937e-03 
-1.810465878115e-03 1.368618358307e-03 0.0 
1.368618358307e-03 5.754603684206e-03 0.0 
0.0 0.0 -8.826313165011e-04 
-9.427899726930e-04 -1.641697169279e-03 0.0 
-1.641697169279e-03 3.388954329502e-03 0.0 
0.0 0.0 -9.886704355714e-04 
-1.052300381815e-03 -2.069501750766e-03 0.0 
-2.069501750766e-03 5.090082794775e-03 0.0 
0.0 0.0 -1.221067908166e-03 
-3.450149565899e-04 -4.408348736528e-04 0.0 
-4.408348736528e-04 3.924699322023e-03 0.0 
0.0 0.0 -1.208702654310e-03 
-8.170914780341e-04 2.664423274710e-03 0.0 
2.664423274710e-03 5.146096323449e-03 0.0 
0.0 0.0 -1.272252409145e-03 
-1.123992376730e-03 3.068252591852e-03 0.0 
3.068252591852e-03 5.507273388894e-03 0.0 
0.0 0.0 -1.237422270938e-03 
-1.253834785736e-03 3.291285599942e-03 0.0 
3.291285599942e-03 5.877546624236e-03 0.0 
0.0 0.0 -1.171232062679e-03 
5.704301253037e-05 -1.249012332624e-03 0.0 
-1.249012332624e-03 7.024151054082e-04 0.0 
0.0 0.0 -3.254820505451e-04 
0.0 0.0 0.0 
0.0 0.0 0.0 
0.0 0.0 0.0 
-1.712539485778e-03 -1.411450056388e-03 0.0 
-1.411450056388e-03 6.539673002672e-03 0.0 
0.0 0.0 -1.223662873675e-03 
4.574946163465e-04 -1.248756071680e-04 0.0 
-1.248756071680e-04 4.764925333501e-04 0.0 
0.0 0.0 -3.004112795925e-04 
4.253951230566e-04 3.287859358848e-05 0.0 
3.287859358848e-05 7.852927410903e-04 0.0 
0.0 0.0 -3.059539021820e-04 
3.569372191111e-04 1.397839525162e-03 0.0 
1.397839525162e-03 1.545362028711e-04 0.0 
0.0 0.0 -2.192028951352e-04 
1.631271963867e-04 -1.346040378322e-03 0.0 
-1.346040378322e-03 7.094587977712e-04 0.0 
0.0 0.0 -2.452105594499e-04 
-1.114394941751e-03 -1.506329218264e-03 0.0 
-1.506329218264e-03 4.944157592562e-03 0.0 
0.0 0.0 -1.288571152055e-03 
-1.352715823829e-03 3.152231925611e-03 0.0 
3.152231925611e-03 6.563761337094e-03 0.0 
0.0 0.0 -1.290113636706e-03 
-1.510579169811e-03 9.854603377599e-04 0.0 
9.854603377599e-04 8.241359475843e-03 0.0 
0.0 0.0 -1.236907757659e-03 
-1.086519748050e-03 2.592005204986e-03 0.0 
2.592005204986e-03 5.044458595201e-03 0.0 
0.0 0.0 -1.292605224168e-03 
-2.276922230483e-04 -7.087333384445e-04 0.0 
-7.087333384445e-04 3.411401019740e-03 0.0 
0.0 0.0 -1.176879138244e-03 
-1.566246162816e-03 5.074519573883e-04 0.0 
5.074519573883e-04 6.374166084480e-03 0.0 
0.0 0.0 -9.170130443517e-04 
-1.345069444888e-03 1.513726926191e-03 0.0 
1.513726926191e-03 8.492915807412e-03 0.0 
0.0 0.0 -1.345069444888e-03 
1.877003485193e-03 -3.080309129991e-03 0.0 
-3.080309129991e-03 -5.962554255729e-04 0.0 
0.0 0.0 -5.488920255517e-04 
-1.475350828104e-03 1.976985984706e-04 0.0 
1.976985984706e-04 5.152730599786e-03 0.0 
0.0 0.0 -7.083073883397e-04 
7.042658253586e-04 -2.920094682842e-03 0.0 
-2.920094682842e-03 7.774626018425e-04 0.0 
0.0 0.0 -6.350264688005e-04 
7.675081391674e-04 -5.290525383807e-04 0.0 
-5.290525383807e-04 -3.861513785839e-05 0.0 
0.0 0.0 -2.518608130650e-04 
-1.493015975364e-03 -1.542117778823e-03 0.0 
-1.542117778823e-03 7.001843856807e-03 0.0 
0.0 0.0 -1.323850096553e-03 
-1.762927026530e-03 1.105745086140e-03 0.0 
1.105745086140e-03 5.347670343178e-03 0.0 
0.0 0.0 -7.731261162940e-04 
3.059071642176e-04 -4.769524246547e-04 0.0 
-4.769524246547e-04 1.116375202047e-03 0.0 
0.0 0.0 -3.136165521777e-04 
-1.289952526759e-03 -6.554530809443e-04 0.0 
-6.554530809443e-04 4.022238421528e-03 0.0 
0.0 0.0 -9.854929843998e-04 
-1.353447502636e-03 3.372255620603e-03 0.0 
3.372255620603e-03 6.903608554072e-03 0.0 
0.0 0.0 -1.276804206569e-03 
-1.580153705301e-03 9.463034913401e-04 0.0 
9.463034913401e-04 8.179177676168e-03 0.0 
0.0 0.0 -1.228616961883e-03 
-1.459295938370e-03 2.235750315535e-03 0.0 
2.235750315535e-03 7.840317348904e-03 0.0 
0.0 0.0 -1.289666537713e-03 
-1.042366719392e-03 -4.130279661277e-04 0.0 
-4.130279661277e-04 3.166645294064e-03 0.0 
0.0 0.0 -7.209785830746e-04 
0.0 0.0 0.0 
0.0 0.0 0.0 
0.0 0.0 0.0 
-1.330660736049e-03 -2.112854558462e-03 0.0 
-2.112854558462e-03 6.026587435622e-03 0.0 
0.0 0.0 -1.273144391159e-03 
-1.420679226607e-03 1.845062484055e-04 0.0 
1.845062484055e-04 8.984274218415e-03 0.0 
0.0 0.0 -1.325353038101e-03 
-1.599270300318e-03 -4.031472723049e-04 0.0 
-4.031472723049e-04 7.370420628954e-03 0.0 
0.0 0.0 -1.323783523096e-03 
-1.454892267765e-03 1.410388417337e-04 0.0 
1.410388417337e-04 5.404570969644e-03 0.0 
0.0 0.0 -7.673431308700e-04 
-5.798667066363e-04 -4.017993081382e-04 0.0 
-4.017993081382e-04 3.786051546347e-03 0.0 
0.0 0.0 -1.231867668451e-03 
-2.703199839151e-04 -3.327091265360e-04 0.0 
-3.327091265360e-04 1.134795808800e-03 0.0 
0.0 0.0 -2.923189298614e-04 
-1.540435464510e-03 1.974801601423e-03 0.0 
1.974801601423e-03 7.945053936292e-03 0.0 
0.0 0.0 -1.241575510934e-03 
7.093719106213e-04 -6.473525039570e-04 0.0 
-6.473525039570e-04 -6.146240833119e-06 0.0 
0.0 0.0 -2.201278046225e-04 
-1.035309467580e-03 -9.652751717972e-04 0.0 
-9.652751717972e-04 4.607784315543e-03 0.0 
0.0 0.0 -1.290713494763e-03 
-1.546892534215e-03 2.536580836788e-03 0.0 
2.536580836788e-03 7.963102419275e-03 0.0 
0.0 0.0 -1.268585396830e-03 
0.0 0.0 0.0 
0.0 0.0 0.0 
0.0 0.0 0.0 
-7.125328406643e-04 2.854381537959e-03 0.0 
2.854381537959e-03 4.690081759982e-03 0.0 
0.0 0.0 -1.178018281593e-03 
-1.581615712652e-03 6.406846432010e-05 0.0 
6.406846432010e-05 7.204958832163e-03 0.0 
0.0 0.0 -1.053859681778e-03 
-1.422126824857e-03 8.354035890497e-04 0.0 
8.354035890497e-04 8.383690559568e-03 0.0 
0.0 0.0 -1.289687241943e-03 
-1.346242744377e-03 1.394088556631e-03 0.0 
1.394088556631e-03 5.074174046536e-03 0.0 
0.0 0.0 -1.346242744377e-03 
-1.579226085277e-03 -2.236352472968e-04 0.0 
-2.236352472968e-04 6.673772320033e-03 0.0 
0.0 0.0 -9.627310317561e-04 
-1.352695242601e-03 3.190608641684e-03 0.0 
3.190608641684e-03 6.804006829943e-03 0.0 
0.0 0.0 -1.292510612804e-03 
-1.606507542629e-03 2.038310361331e-03 0.0 
2.038310361331e-03 7.743565210436e-03 0.0 
0.0 0.0 -1.236507170568e-03 
-1.568883613753e-03 1.757297800362e-04 0.0 
1.757297800362e-04 6.816128580048e-03 0.0 
0.0 0.0 -1.009625451247e-03 
-1.338198193755e-03 3.094920805743e-03 0.0 
3.094920805743e-03 6.452958212167e-03 0.0 
0.0 0.0 -1.247605899893e-03 
-1.069270980668e-03 -8.397930297141e-04 0.0 
-8.397930297141e-04 3.454365731416e-03 0.0 
0.0 0.0 -9.078723690805e-04 
-1.462959848022e-03 3.355807606363e-05 0.0 
3.355807606363e-05 4.925884328863e-03 0.0 
0.0 0.0 -7.287847301676e-04 
-7.853622933110e-04 2.799478897718e-03 0.0 
2.799478897718e-03 4.730479437110e-03 0.0 
0.0 0.0 -1.239219007812e-03 
-1.427801408329e-03 2.279610176079e-04 0.0 
2.279610176079e-04 8.599854493521e-03 0.0 
0.0 0.0 -1.286506427510e-03 
2.364174244584e-03 -3.920966346370e-05 0.0 
-3.920966346370e-05 -9.416422440926e-04 0.0 
0.0 0.0 -1.658991634594e-04 
-1.429614866782e-03 7.018012440351e-05 0.0 
7.018012440351e-05 4.945453144079e-03 0.0 
0.0 0.0 -7.284590636140e-04 
-1.619941162379e-03 -3.710140945832e-04 0.0 
-3.710140945832e-04 7.072586371596e-03 0.0 
0.0 0.0 -1.288082484959e-03 
-4.257310582937e-04 -7.375837559217e-04 0.0 
-7.375837559217e-04 1.550072552707e-03 0.0 
0.0 0.0 -4.679105978332e-04 
-2.651775118790e-04 1.741696615315e-04 0.0 
1.741696615315e-04 3.934086569527e-03 0.0 
0.0 0.0 -1.213252366005e-03 
-1.592381110183e-03 2.367463417435e-03 0.0 
2.367463417435e-03 7.496929060090e-03 0.0 
0.0 0.0 -1.225943235494e-03 
-1.523630465134e-03 6.434168762766e-04 0.0 
6.434168762766e-04 8.597347826225e-03 0.0 
0.0 0.0 -1.269037835114e-03 
-5.242932188711e-04 -5.062352980044e-04 0.0 
-5.062352980044e-04 1.580681758625e-03 0.0 
0.0 0.0 -3.173190315717e-04 
9.435665947915e-04 2.759812172338e-03 0.0 
2.759812172338e-03 -2.448701844830e-04 0.0 
0.0 0.0 -2.994413187036e-04 
-1.588603004087e-03 1.309858719882e-04 0.0 
1.309858719882e-04 4.764403352260e-03 0.0 
0.0 0.0 -1.056762885644e-03 
-1.577119311605e-03 2.587547752196e-04 0.0 
2.587547752196e-04 7.701946830658e-03 0.0 
0.0 0.0 -1.120841203304e-03 
0.0 0.0 0.0 
0.0 0.0 0.0 
0.0 0.0 0.0 
-1.448426484907e-03 1.878765382125e-03 0.0 
1.878765382125e-03 8.065670326291e-03 0.0 
0.0 0.0 -1.292233508669e-03 
-1.560868544091e-03 1.573692905966e-04 0.0 
1.573692905966e-04 6.444251121821e-03 0.0 
0.0 0.0 -9.501928138396e-04 
9.548640501235e-04 -2.932790788742e-03 0.0 
-2.932790788742e-03 4.477362362625e-04 0.0 
0.0 0.0 -6.011144084512e-04 
-1.577095330701e-03 2.356135282763e-04 0.0 
2.356135282763e-04 6.152695530289e-03 0.0 
0.0 0.0 -9.030544305944e-04 
-9.123359041244e-04 2.767752077309e-03 0.0 
2.767752077309e-03 5.381455446983e-03 0.0 
0.0 0.0 -1.271643562581e-03 
-1.672772992247e-03 -3.658378199310e-04 0.0 
-3.658378199310e-04 4.968645958279e-03 0.0 
0.0 0.0 -1.058796759180e-03 
-3.307704509798e-04 2.869612304678e-03 0.0 
2.869612304678e-03 3.307704509798e-04 0.0 
0.0 0.0 0.0 
-9.352736057356e-04 -8.421943932676e-04 0.0 
-8.421943932676e-04 3.140704490616e-03 0.0 
0.0 0.0 -9.009998304000e-04 
-1.402484368002e-03 -1.042823096176e-03 0.0 
-1.042823096176e-03 4.352884265014e-03 0.0 
0.0 0.0 -1.017945853013e-03 
-1.735012846972e-03 1.716303062956e-04 0.0 
1.716303062956e-04 5.112807218002e-03 0.0 
0.0 0.0 -1.063010248388e-03 
-5.677318458841e-04 1.906245464939e-03 0.0 
1.906245464939e-03 4.337997414081e-03 0.0 
0.0 0.0 -1.232780192057e-03 
-1.357670205510e-03 -6.381368347671e-04 0.0 
-6.381368347671e-04 4.227863364473e-03 0.0 
0.0 0.0 -1.035743023508e-03 
-1.479273144233e-03 -6.656278634480e-04 0.0 
-6.656278634480e-04 4.508927527855e-03 0.0 
0.0 0.0 -1.032702936181e-03 
1.040523643933e-04 -1.090937755128e-03 0.0 
-1.090937755128e-03 5.650850241542e-04 0.0 
0.0 0.0 -2.287174616664e-04 
-1.350567245042e-03 -1.731169106789e-03 0.0 
-1.731169106789e-03 5.793216621325e-03 0.0 
0.0 0.0 -1.240629869904e-03 
-1.027503594671e-03 3.327843857872e-03 0.0 
3.327843857872e-03 5.261023074075e-03 0.0 
0.0 0.0 -1.186362110037e-03 
1.189612951575e-03 2.308398015229e-03 0.0 
2.308398015229e-03 -4.894900924091e-04 0.0 
0.0 0.0 -3.000526539282e-04 
-1.387676757457e-03 4.952672058335e-05 0.0 
4.952672058335e-05 8.504316401028e-03 0.0 
0.0 0.0 -1.290349483557e-03 
-1.582576424774e-03 -1.560547969950e-04 0.0 
-1.560547969950e-04 7.007946096611e-03 0.0 
0.0 0.0 -1.290356026000e-03 
-1.460183445125e-03 -1.247594329356e-04 0.0 
-1.247594329356e-04 5.521441348557e-03 0.0 
0.0 0.0 -7.639788432047e-04 
-1.578918019610e-03 1.294379469898e-04 0.0 
1.294379469898e-04 6.639288700401e-03 0.0 
0.0 0.0 -9.358343396975e-04 
-1.420511664925e-03 -7.103380260756e-04 0.0 
-7.103380260756e-04 4.349288440906e-03 0.0 
0.0 0.0 -1.005720210571e-03 
-1.359175063422e-03 -8.855188390870e-04 0.0 
-8.855188390870e-04 4.258136974865e-03 0.0 
0.0 0.0 -1.040482674164e-03 
-1.527056262754e-03 -5.709073839489e-04 0.0 
-5.709073839489e-04 4.609671028000e-03 0.0 
0.0 0.0 -1.028873814706e-03 
-1.501496450629e-04 5.539703397871e-04 0.0 
5.539703397871e-04 3.298271412421e-03 0.0 
0.0 0.0 -1.180929064624e-03 
7.927858436439e-04 -3.045537929079e-03 0.0 
-3.045537929079e-03 8.494276970912e-04 0.0 
0.0 0.0 -7.038058031722e-04 
-1.116381248406e-03 3.165697137737e-03 0.0 
3.165697137737e-03 5.872062490069e-03 0.0 
0.0 0.0 -1.217816617926e-03 
-1.516247589342e-03 1.508277039824e-04 0.0 
1.508277039824e-04 5.685216966324e-03 0.0 
0.0 0.0 -8.376728236383e-04 
-1.571303365585e-03 1.703335586913e-03 0.0 
1.703335586913e-03 8.300700874157e-03 0.0 
0.0 0.0 -1.272153791098e-03 
-1.928595014899e-04 9.704790717136e-05 0.0 
9.704790717136e-05 3.265405422004e-03 0.0 
0.0 0.0 -1.181257232468e-03 
-1.580055462922e-03 1.466056733213e-04 0.0 
1.466056733213e-04 6.354105997974e-03 0.0 
0.0 0.0 -8.902468719968e-04 
-1.338698042931e-03 3.178297097849e-03 0.0 
3.178297097849e-03 6.247787653213e-03 0.0 
0.0 0.0 -1.201032862555e-03 
-6.620052052400e-04 2.218466919512e-03 0.0 
2.218466919512e-03 4.229615591751e-03 0.0 
0.0 0.0 -1.236767197193e-03 
-7.541183664370e-04 2.280565164163e-03 0.0 
2.280565164163e-03 4.995952357256e-03 0.0 
0.0 0.0 -1.270271405117e-03 
1.293451072768e-04 1.010666469426e-03 0.0 
1.010666469426e-03 -1.293451072768e-04 0.0 
0.0 0.0 0.0 
-1.368734881355e-03 2.988428396573e-03 0.0 
2.988428396573e-03 6.291274088760e-03 0.0 
0.0 0.0 -1.198686027802e-03 
-1.300476394130e-03 3.433743793017e-03 0.0 
3.433743793017e-03 6.406654162985e-03 0.0 
0.0 0.0 -1.227078865044e-03 
7.248957313196e-04 -1.043101674158e-03 0.0 
-1.043101674158e-03 5.245352296454e-04 0.0 
0.0 0.0 -2.668574800815e-04 
-1.256459332456e-03 -8.842282026345e-04 0.0 
-8.842282026345e-04 4.000740750754e-03 0.0 
0.0 0.0 -1.019774149770e-03 
0.0 0.0 0.0 
0.0 0.0 0.0 
0.0 0.0 0.0 
-1.414281382184e-03 3.115423266543e-03 0.0 
3.115423266543e-03 6.751118296047e-03 0.0 
0.0 0.0 -1.230789928679e-03 
-1.281957485101e-03 -9.385206070326e-05 0.0 
-9.385206070326e-05 4.159171467776e-03 0.0 
0.0 0.0 -6.044444444444e-04 
-1.212906511887e-03 8.437755052735e-06 0.0 
8.437755052735e-06 4.332528287739e-03 0.0 
0.0 0.0 -5.822222222222e-04 
-1.270813931325e-03 -4.040562334661e-05 0.0 
-4.040562334661e-05 4.018667514915e-03 0.0 
0.0 0.0 -6.044444444444e-04 
-1.215139368930e-03 -5.723684032478e-05 0.0 
-5.723684032478e-05 4.317315307501e-03 0.0 
0.0 0.0 -5.822222222222e-04 
-1.281549970565e-03 -2.783058806924e-05 0.0 
-2.783058806924e-05 4.009142892880e-03 0.0 
0.0 0.0 -6.044444444444e-04 
-1.225715800121e-03 -5.846153113734e-05 0.0 
-5.846153113734e-05 4.321112834897e-03 0.0 
0.0 0.0 -5.822222222222e-04 
-1.299500121220e-03 -3.892246035712e-05 0.0 
-3.892246035712e-05 4.013014100261e-03 0.0 
0.0 0.0 -6.044444444444e-04 
-1.237102750459e-03 -6.373558927260e-05 0.0 
-6.373558927260e-05 4.316061582639e-03 0.0 
0.0 0.0 -5.822222222222e-04 
-1.310225087603e-03 -3.096991785550e-05 0.0 
-3.096991785550e-05 4.010869733645e-03 0.0 
0.0 0.0 -6.044444444444e-04 
-1.254618385227e-03 -5.449007521454e-05 0.0 
-5.449007521454e-05 4.318709008563e-03 0.0 
0.0 0.0 -5.822222222222e-04 
-1.336238080201e-03 -2.665442879324e-05 0.0 
-2.665442879324e-05 4.014359818630e-03 0.0 
0.0 0.0 -6.044444444444e-04 
-1.274728536484e-03 -4.422787035067e-05 0.0 
-4.422787035067e-05 4.314650827642e-03 0.0 
0.0 0.0 -5.822222222222e-04 
-1.357159993559e-03 -4.580559540248e-06 0.0 
-4.580559540248e-06 4.014254519705e-03 0.0 
0.0 0.0 -6.044444444444e-04 
-1.347537318405e-03 1.010824294751e-03 0.0 
1.010824294751e-03 3.920037731601e-03 0.0 
0.0 0.0 -7.117109445114e-04 
-1.301666809856e-03 -2.047408919469e-05 0.0 
-2.047408919469e-05 4.318063477050e-03 0.0 
0.0 0.0 -5.822222222222e-04 
-1.391706891411e-03 2.751450344882e-06 0.0 
2.751450344882e-06 4.016171820733e-03 0.0 
0.0 0.0 -6.044444444444e-04 
-1.286495538148e-03 1.141604132091e-03 0.0 
1.141604132091e-03 3.755942445139e-03 0.0 
0.0 0.0 -6.690433100420e-04 
-1.326407011280e-03 6.045508856538e-06 0.0 
6.045508856538e-06 4.301570573764e-03 0.0 
0.0 0.0 -5.822222222222e-04 
-1.418163902024e-03 5.346625199558e-05 0.0 
5.346625199558e-05 4.007884251177e-03 0.0 
0.0 0.0 -6.044444444444e-04 
-1.269919325548e-03 9.693842664938e-04 0.0 
9.693842664938e-04 3.741904716454e-03 0.0 
0.0 0.0 -7.168342214570e-04 
-1.359108424707e-03 6.264265058965e-05 0.0 
6.264265058965e-05 4.294165002256e-03 0.0 
0.0 0.0 -5.822222222222e-04 
-1.457002779349e-03 1.155195072583e-04 0.0 
1.155195072583e-04 4.005151940014e-03 0.0 
0.0 0.0 -6.044444444444e-04 
-1.397754652771e-03 1.342537055091e-04 0.0 
1.342537055091e-04 4.286646401950e-03 0.0 
0.0 0.0 -5.822222222222e-04 
-1.439433466702e-03 1.791245333921e-04 0.0 
1.791245333921e-04 3.981926727275e-03 0.0 
0.0 0.0 -6.212763874705e-04 
-1.437165891528e-03 2.256325768342e-04 0.0 
2.256325768342e-04 4.266187057435e-03 0.0 
0.0 0.0 -5.822222222222e-04 
-1.294521127295e-03 1.255121558487e-03 0.0 
1.255121558487e-03 3.846810996671e-03 0.0 
0.0 0.0 -7.256046805931e-04 
-1.416692839753e-03 2.731618170809e-04 0.0 
2.731618170809e-04 3.949147984694e-03 0.0 
0.0 0.0 -6.388990248527e-04 
-1.480404564063e-03 3.507234002411e-04 0.0 
3.507234002411e-04 4.240406141116e-03 0.0 
0.0 0.0 -5.822222222222e-04 
-1.527971474499e-03 5.064010242542e-04 0.0 
5.064010242542e-04 4.210902708310e-03 0.0 
0.0 0.0 -5.822222222222e-04 
-1.387518079071e-03 3.943188623073e-04 0.0 
3.943188623073e-04 3.907645916582e-03 0.0 
0.0 0.0 -6.603292536270e-04 
-1.489199031895e-03 7.040012771420e-04 0.0 
7.040012771420e-04 4.109006438777e-03 0.0 
0.0 0.0 -6.048139398938e-04 
-1.345551405801e-03 5.089205632429e-04 0.0 
5.089205632429e-04 3.844893580165e-03 0.0 
0.0 0.0 -6.886802823100e-04 
-1.449968692027e-03 9.453817318756e-04 0.0 
9.453817318756e-04 4.074908376766e-03 0.0 
0.0 0.0 -6.381145674715e-04 
-1.311416027678e-03 7.842300283395e-04 0.0 
7.842300283395e-04 3.792994805538e-03 0.0 
0.0 0.0 -6.930958846255e-04 
-1.227963281453e-03 1.148780262665e-03 0.0 
1.148780262665e-03 3.709793228598e-03 0.0 
0.0 0.0 -7.566166491071e-04 
-1.177806506474e-03 -3.598193330075e-04 0.0 
-3.598193330075e-04 4.111442480075e-03 0.0 
0.0 0.0 -5.933333333333e-04 
-1.298614317116e-03 3.518912234694e-04 0.0 
3.518912234694e-04 4.327861140627e-03 0.0 
0.0 0.0 -5.933333333333e-04 
-1.201365310379e-03 -4.039072614176e-05 0.0 
-4.039072614176e-05 4.155647570895e-03 0.0 
0.0 0.0 -5.711111111111e-04 
-1.277329052135e-03 4.889702624734e-05 0.0 
4.889702624734e-05 4.269846773222e-03 0.0 
0.0 0.0 -6.155555555555e-04 
-1.165172176686e-03 1.355369621706e-03 0.0 
1.355369621706e-03 3.569481016305e-03 0.0 
0.0 0.0 -7.239602392282e-04 
-1.326401929546e-03 -1.098251756258e-04 0.0 
-1.098251756258e-04 4.716210200324e-03 0.0 
0.0 0.0 -6.488888888889e-04 
-1.341042556431e-03 -1.497445551792e-05 0.0 
-1.497445551792e-05 4.487654478362e-03 0.0 
0.0 0.0 -6.711111111111e-04 
-1.315258375770e-03 -3.279398266088e-06 0.0 
-3.279398266088e-06 4.798065319814e-03 0.0 
0.0 0.0 -6.488888888889e-04 
-1.368317620788e-03 -1.903812859008e-05 0.0 
-1.903812859008e-05 4.498221230458e-03 0.0 
0.0 0.0 -6.711111111111e-04 
-1.325994415009e-03 1.380554954630e-05 0.0 
1.380554954630e-05 4.806277874424e-03 0.0 
0.0 0.0 -6.488888888889e-04 
-1.380848091197e-03 -1.506252807686e-07 0.0 
-1.506252807686e-07 4.508257602630e-03 0.0 
0.0 0.0 -6.711111111111e-04 
-1.343944565664e-03 7.917736370567e-06 0.0 
7.917736370567e-06 4.818216293294e-03 0.0 
0.0 0.0 -6.488888888889e-04 
-1.386616382160e-03 -2.067760603014e-05 0.0 
-2.067760603014e-05 4.497592293928e-03 0.0 
0.0 0.0 -6.711111111111e-04 
-1.354669532048e-03 3.875023501283e-05 0.0 
3.875023501283e-05 4.799753708961e-03 0.0 
0.0 0.0 -6.488888888889e-04 
-1.406907359723e-03 3.160898061574e-05 0.0 
3.160898061574e-05 4.503118169212e-03 0.0 
0.0 0.0 -6.711111111111e-04 
-1.380682524645e-03 5.561565498039e-05 0.0 
5.561565498039e-05 4.809868159536e-03 0.0 
0.0 0.0 -6.488888888889e-04 
-1.435189363615e-03 3.130270196416e-05 0.0 
3.130270196416e-05 4.499809120004e-03 0.0 
0.0 0.0 -6.711111111111e-04 
-1.611535782568e-03 8.671279044143e-04 0.0 
8.671279044143e-04 4.506015908724e-03 0.0 
0.0 0.0 -7.049993574243e-04 
-1.401604438003e-03 9.330713447470e-05 0.0 
9.330713447470e-05 4.797672975585e-03 0.0 
0.0 0.0 -6.488888888889e-04 
-1.512351284449e-03 8.656230693377e-04 0.0 
8.656230693377e-04 4.297202840087e-03 0.0 
0.0 0.0 -7.256265952625e-04 
-1.438154550875e-03 9.647646109404e-05 0.0 
9.647646109404e-05 4.497364060681e-03 0.0 
0.0 0.0 -6.711111111111e-04 
-1.436151335856e-03 1.358395788754e-04 0.0 
1.358395788754e-04 4.800332653133e-03 0.0 
0.0 0.0 -6.488888888889e-04 
-1.499230372271e-03 1.062721523167e-04 0.0 
1.062721523167e-04 4.489570327750e-03 0.0 
0.0 0.0 -6.711111111111e-04 
-1.462608346469e-03 2.027818769099e-04 0.0 
2.027818769099e-04 4.774125764298e-03 0.0 
0.0 0.0 -6.488888888889e-04 
-1.532724437083e-03 1.968943510655e-04 0.0 
1.968943510655e-04 4.482722825432e-03 0.0 
0.0 0.0 -6.711111111111e-04 
-1.501447223794e-03 2.766209172912e-04 0.0 
2.766209172912e-04 4.769601642763e-03 0.0 
0.0 0.0 -6.488888888889e-04 
-1.557872225570e-03 2.720774980370e-04 0.0 
2.720774980370e-04 4.471068660141e-03 0.0 
0.0 0.0 -6.711111111111e-04 
-1.549932705829e-03 1.034482702559e-03 0.0 
1.034482702559e-03 4.338594692453e-03 0.0 
0.0 0.0 -6.619668726724e-04 
-1.539964497909e-03 3.703806189017e-04 0.0 
3.703806189017e-04 4.750827424066e-03 0.0 
0.0 0.0 -6.488888888889e-04 
-1.593531228853e-03 3.628458802930e-04 0.0 
3.628458802930e-04 4.447964373288e-03 0.0 
0.0 0.0 -6.711111111111e-04 
-1.575889340432e-03 4.997462669703e-04 0.0 
4.997462669703e-04 4.711328261492e-03 0.0 
0.0 0.0 -6.488888888889e-04 
-1.590906187641e-03 5.071802277050e-04 0.0 
5.071802277050e-04 4.406658573059e-03 0.0 
0.0 0.0 -6.802731460288e-04 
-1.553155722451e-03 6.861757538348e-04 0.0 
6.861757538348e-04 4.351637703117e-03 0.0 
0.0 0.0 -7.011174395038e-04 
-1.617910879156e-03 6.689844391721e-04 0.0 
6.689844391721e-04 4.669016158580e-03 0.0 
0.0 0.0 -6.488888888889e-04 
-1.669910948397e-03 8.547088690357e-04 0.0 
8.547088690357e-04 4.635783510319e-03 0.0 
0.0 0.0 -6.488888888889e-04 
-1.565389776433e-03 1.113185015486e-03 0.0 
1.113185015486e-03 4.431052665958e-03 0.0 
0.0 0.0 -7.101757656324e-04 
-1.445746577220e-03 9.960480725557e-04 0.0 
9.960480725557e-04 4.140494100543e-03 0.0 
0.0 0.0 -7.083488828164e-04 
-1.382040473179e-03 -3.190058038896e-04 0.0 
-3.190058038896e-04 4.672355147485e-03 0.0 
0.0 0.0 -6.600000000000e-04 
-1.311697345882e-03 3.879464369525e-04 0.0 
3.879464369525e-04 4.545991971317e-03 0.0 
0.0 0.0 -6.600000000000e-04 
-1.392413986569e-03 1.825900643476e-05 0.0 
1.825900643476e-05 4.677427317752e-03 0.0 
0.0 0.0 -6.822222222222e-04 
-1.299551274357e-03 6.542939229750e-05 0.0 
6.542939229750e-05 4.553563985542e-03 0.0 
0.0 0.0 -6.377777777778e-04 
-1.453247710607e-03 1.192137069286e-03 0.0 
1.192137069286e-03 4.178885573169e-03 0.0 
0.0 0.0 -7.047837856643e-04 

SCALARS element_materi_plasti_kappa_shear float
LOOKUP_TABLE default
2.638449368411e-03
2.307880314974e-03
5.668059790692e-03
5.685840565928e-03
3.968724762264e-03
2.227775623384e-03
3.926609063437e-03
2.603981897009e-03
3.959861142706e-03
5.676159459017e-03
3.789460879762e-03
2.166184027025e-03
4.891618303360e-03
4.239593676266e-03
4.915486508882e-03
5.763080812267e-03
3.957109970888e-03
9.864085158714e-05
1.385502992053e-03
1.310811347843e-03
5.684919687706e-03
2.668003560693e-03
2.830444855211e-03
2.887992383095e-03
4.492952651090e-03
3.999825579596e-03
3.772973464484e-03
4.950933107395e-03
4.446798420902e-03
3.154878546999e-03
2.756846244610e-03
9.905717093618e-04
5.968283596401e-03
4.581378283716e-03
4.439297578914e-03
4.887177070447e-03
5.091662130986e-03
3.236750732307e-03
3.615750744496e-03
3.662711387174e-03
3.132788783305e-03
4.003574433579e-03
2.231218125306e-03
3.619781891395e-03
5.614862315127e-03
2.308537538977e-03
2.567928975722e-03
5.479464518158e-03
8.195853011298e-04
4.082692105509e-03
3.028705324844e-03
1.800022130003e-03
3.293726347817e-03
2.963783223813e-03
5.752538416863e-03
2.317662380795e-03
1.680471960424e-03
4.591779384906e-03
1.282089538117e-03
5.743217870912e-03
0.0
3.970806248155e-03
2.953445704213e-03
3.287038662097e-03
4.914099357777e-03
2.824966036789e-03
0.0
5.862902570517e-03
2.620748184046e-03
5.405750626231e-03
4.123083578977e-03
5.868967824668e-03
4.513723255217e-03
9.779064778028e-04
2.287061364591e-03
5.715984257660e-03
5.955190373470e-03
2.225229681789e-03
8.958780141002e-04
2.309523210765e-03
2.623606725785e-03
3.807044789785e-03
2.701030844542e-03
2.283651859930e-03
4.111166650998e-03
4.102179279090e-03
4.228241446566e-03
4.546798255786e-03
5.028716670229e-03
3.901152697752e-03
6.549433232101e-04
3.920650833441e-03
4.955587413478e-03
5.010029682247e-03
6.082587846612e-03
3.583046306489e-03
3.812238424463e-03
4.309414704673e-03
4.319293153851e-03
3.152072117772e-03
3.806820599516e-03
4.894923453038e-03
2.752080048091e-03
3.649256563451e-03
2.864912835823e-03
2.832888651383e-03
4.791522079347e-03
5.257296183678e-03
6.216847982976e-04
4.789762209254e-03
4.946970942302e-03
1.455853485302e-03
3.116660414769e-03
3.646713869330e-03
2.740266031467e-03
2.565730635348e-03
3.111248311779e-03
4.481696809263e-03
4.267994674223e-03
2.744319843462e-03
2.256121814009e-03
4.028535080126e-03
5.125478964429e-03
2.884095006377e-03
1.634010763882e-03
3.343960081378e-03
2.825136596843e-03
3.200895695618e-03
5.840634446844e-03
3.049581698772e-03
3.964814282569e-03
5.700506446746e-03
3.554006587530e-03
3.223480759992e-03
4.236959910874e-03
4.935732901856e-03
4.220142662913e-03
3.782725374417e-03
3.633905000164e-03
3.434454553281e-03
5.667308756995e-03
5.731127569311e-03
4.159105326719e-03
4.705255006089e-03
3.527054415500e-03
3.060528253236e-03
3.807578355912e-03
3.078773552032e-03
3.873095872756e-03
3.370616847934e-03
7.627933793163e-04
4.106841682748e-03
9.591787070335e-04
3.491582586837e-03
3.620903548599e-03
2.658320563693e-03
4.383820681644e-03
2.313821533157e-03
3.280595579104e-03
3.781797064791e-03
3.239934934191e-03
4.666843953081e-03
1.844128017672e-03
4.751176865938e-03
3.949884846235e-03
4.988018486650e-03
3.771577015596e-03
2.896598297230e-03
3.483459645253e-03
3.893786270809e-03
2.298745108616e-03
3.272701774280e-03
4.841674106423e-03
3.900979634001e-03
3.037833255544e-03
3.320787467051e-03
5.050201609921e-03
3.079663805871e-03
4.649906474497e-03
5.561012058297e-03
2.890227526471e-03
2.943961554453e-03
2.210045688094e-03
3.349611072643e-03
2.235768342795e-03
3.804052174663e-03
3.255583921612e-03
5.686869579948e-03
5.039238049397e-03
4.717478710770e-03
2.309621426061e-03
3.143595662693e-03
5.111000880600e-03
0.0
3.256985193650e-03
2.315875762829e-03
1.186781807755e-03
5.879212306885e-03
4.749545806609e-03
3.205712272384e-03
1.923895110586e-03
4.248611553850e-03
4.390119912627e-03
3.260852054243e-03
2.726046229142e-03
3.866905638561e-03
4.085059299403e-03
4.849847065370e-03
4.084848891733e-03
3.788784052669e-03
2.384045379571e-03
4.854751456170e-03
0.0
2.534886222220e-03
2.875294506275e-03
3.926615174907e-03
5.120800106263e-03
2.883704576323e-03
2.560806566150e-03
3.780927287153e-03
3.250336732161e-03
2.904934106925e-03
9.744138873205e-04
5.002746784696e-03
1.187677453753e-03
9.712234474307e-04
2.285555067131e-03
2.450408811608e-03
5.091607850684e-03
2.428262004319e-03
2.774880105580e-03
3.779138720656e-03
1.803156298713e-03
1.957999132830e-03
3.924614645831e-03
4.859013116494e-03
0.0
3.040676180201e-03
3.206874618957e-03
3.130650380996e-03
2.062644621155e-03
4.885442700903e-03
4.892149880117e-03
3.059373875750e-03
2.149562808967e-03
4.104130610049e-03
4.011618650566e-03
4.856263363195e-03
4.079661242982e-03
3.170623979729e-03
2.775910294641e-03
4.348640566437e-03
6.080884502444e-03
4.012120085899e-03
2.651654117440e-03
4.174160396721e-03
2.772644652466e-03
4.114504492513e-03
3.290795862291e-03
2.811701725688e-03
3.471873507376e-03
5.142731837040e-03
4.219310466071e-03
2.711805464269e-03
5.231202940207e-03
4.958047196859e-03
4.103438709337e-03
4.637764333400e-03
2.438306330947e-03
4.211956383520e-03
3.365372856234e-03
2.450675261700e-03
2.887962119562e-03
3.878533253387e-03
2.940597055344e-03
2.728683675051e-03
4.958207544711e-03
0.0
4.231308200600e-03
3.120397780434e-03
3.113605546756e-03
2.278736831083e-03
4.503373325418e-03
1.884659263120e-03
3.120901491325e-03
2.297614029118e-03
4.243041167150e-03
4.240307436026e-03
1.373936041198e-03
2.435310679187e-03
3.155120820171e-03
3.003223930663e-03
4.798301013803e-03
3.306297059749e-03
2.985321424422e-03
3.188763902837e-03
1.370686704752e-03
3.117506418936e-03
2.564683140303e-03
6.161779301333e-03
6.171298087031e-03
3.871585823704e-03
3.224089549692e-03
3.155590452933e-03
4.317766949050e-03
3.003359536048e-03
2.608662778043e-03
3.938150114373e-03
5.859163444552e-03
3.214653691530e-03
2.969191311487e-03
2.861811173678e-03
3.768586856653e-03
3.337633072254e-03
4.030230270756e-03
2.035757012657e-03
1.094219009940e-03
3.031075150381e-03
2.930652641428e-03
4.078338297131e-03
6.100030670434e-03
3.051206385844e-03
1.821620188347e-03
2.861790791984e-03
4.656042724998e-03
2.349687270255e-03
2.816498775574e-03
4.525435709533e-03
5.833892866330e-03
2.486522419678e-03
6.151276113808e-03
4.485990906698e-03
4.856089461195e-03
2.611916462935e-03
3.799226166888e-03
4.210806094155e-03
4.343507042611e-03
3.883342781648e-03
5.453648402860e-03
4.408884898377e-03
3.954238356753e-03
2.946932738359e-03
2.126147916000e-03
3.626304909236e-03
2.828752624356e-03
3.908082809323e-03
3.189022324685e-03
2.979438473071e-03
5.107150669262e-03
3.057133034874e-03
3.948493172096e-03
1.767047002602e-03
3.219295742043e-03
4.649421512783e-03
3.423567528206e-03
2.373751734207e-03
2.784414744251e-03
2.725624955031e-03
2.452240531365e-03
5.184269692729e-03
4.210892199139e-03
3.195156139090e-03
3.675464466287e-03
3.719198240263e-03
3.156300643646e-03
5.270722120897e-03
4.951030620452e-03
2.791959147438e-03
3.435291521076e-03
2.714045320190e-03
2.771808396209e-03
4.119259232477e-03
1.360400106286e-03
3.400766620885e-03
5.356429761657e-03
2.456112603846e-03
3.687823897699e-03
4.067889866897e-03
3.485977458347e-03
6.171877983723e-03
6.194847258957e-03
5.749913356992e-03
3.020677987419e-03
5.279204517925e-03
2.613300540084e-03
2.741755212613e-03
2.004260055720e-03
3.406978849626e-03
3.842950909138e-03
4.513278632072e-03
3.244307823644e-03
5.163355495152e-03
4.386423237293e-03
4.476099206042e-03
2.391474383936e-03
1.955161698588e-03
3.217570021580e-03
3.872368428504e-03
3.338770506916e-03
1.812371568338e-03
4.015486225802e-03
2.355558185555e-03
3.278219706871e-03
3.673414290175e-03
1.915648292058e-03
3.981389866812e-03
1.053059668761e-03
3.652003582868e-03
3.330842304649e-03
4.441446771420e-03
6.067281547840e-03
3.807583682193e-03
4.322942112553e-03
3.526145110671e-03
5.255189385440e-03
3.347041718801e-03
5.955073764805e-03
5.938883086238e-03
5.933478345374e-03
5.925413924026e-03
4.598269985990e-03
5.190485547386e-03
5.356291838170e-03
3.172127365247e-03
3.189545386338e-03
3.291257441844e-03
5.278332870253e-03
5.650465782490e-03
5.386391458906e-03
2.086314033400e-03
5.331196890249e-03
3.953887606243e-03
3.284431480345e-03
3.285128967487e-03
3.301125392640e-03
5.759722545496e-03
2.921518703947e-03
4.716770599090e-03
3.382244159206e-03
3.419989620685e-03
3.235774226863e-03
3.108654577361e-03
5.912838273886e-03
5.757913193712e-03
4.236288878953e-03
1.032336198831e-03
5.784372647958e-03
3.094301216638e-03
3.133163714027e-03
1.473651489525e-03
4.377992282328e-03
0.0
3.076087156915e-03
4.393331777553e-03
4.078214650418e-03
4.173061940919e-03
3.172673925433e-03
5.528089032988e-03
2.695300704482e-03
6.061028079687e-04
4.784301089445e-03
1.109397696731e-03
3.558631343330e-03
2.671343080510e-03
3.641731318210e-03
3.626491229388e-03
5.164773912347e-03
4.369311817321e-03
2.723039152115e-03
3.202065681838e-04
3.393270163090e-03
4.000013488580e-03
3.998607249003e-03
4.091967694103e-03
4.682585152391e-03
3.977798602140e-03
6.148717226547e-03
4.046693637694e-03
4.375476627736e-03
2.475463655856e-03
2.038113747758e-03
2.665603733635e-03
4.155084444683e-03
5.944456476497e-03
5.933805245862e-03
3.347496143322e-03
3.141954240646e-03
3.636565096111e-03
3.524861024850e-03
3.764870203374e-03
3.214228737877e-03
2.609429685079e-03
2.752166065871e-03
4.525635562498e-03
3.964553113648e-03
2.737089484301e-03
3.599211839311e-03
2.982464518279e-03
5.872767812275e-03
5.256518196814e-03
6.948896764315e-04
2.926992632798e-03
5.363068251323e-03
5.678180438031e-03
4.516604651069e-03
3.800290162266e-03
2.959233318371e-03
2.645089123398e-03
2.991327947613e-03
2.961565605678e-03
1.984606166548e-03
5.360282778703e-03
2.617597906633e-03
2.719354908298e-03
4.219904639673e-03
2.558238552366e-03
2.945805251787e-03
4.447306010212e-03
4.403301426083e-03
3.203880338452e-03
3.270240138625e-03
3.822758874253e-03
2.320351021533e-03
2.695647363228e-03
3.241179321446e-03
4.055854335950e-03
4.302137120783e-03
2.006945487216e-03
3.504931263533e-03
3.493889225164e-03
3.226663955409e-03
3.195012242961e-03
3.705694372684e-03
2.015330950654e-03
3.674094389629e-03
5.465741692552e-03
2.782005441388e-03
3.605540778520e-03
3.144508273297e-03
3.122849437202e-03
2.256333325417e-03
4.140151503650e-03
5.431033007288e-03
3.225301536712e-03
3.778146397866e-03
3.509424093333e-03
3.382045560242e-03
4.257156002915e-03
2.174643724136e-03
3.150567633663e-03
1.746587665764e-03
4.710220312248e-03
3.696882214136e-03
2.499260062841e-03
4.393497597306e-03
3.304371545067e-03
1.515148851359e-03
2.794723090240e-03
3.870525163770e-03
5.202539231559e-04
3.198860063348e-03
3.122843769625e-03
3.536839909767e-03
3.054969112373e-03
3.133169061378e-03
4.394974799046e-03
3.171453652514e-03
3.954441890249e-03
4.408365611267e-03
3.531054572272e-03
4.293331672903e-03
3.469160005882e-03
0.0
4.342827187450e-03
2.815733446127e-03
1.169868182888e-03
3.377528405656e-03
3.017950135559e-03
5.309388747160e-03
1.836141118027e-03
1.645439494872e-03
3.818624685672e-03
3.581263554169e-03
5.741565943865e-03
4.177684629919e-03
1.850928756814e-03
2.067405024286e-03
1.416744999512e-03
2.579714406710e-03
4.842819569639e-03
5.316030625827e-03
3.796388360631e-03
2.739477237490e-03
3.923275296672e-03
2.756654641123e-03
1.368956117904e-03
2.826459377296e-03
2.346887089609e-03
4.356557030682e-03
4.139689611657e-03
3.039564492647e-03
3.507425817395e-03
3.484969287982e-03
2.724837710706e-03
1.738579034053e-03
2.880004918018e-03
1.059860394561e-03
3.342988300000e-03
3.564932177344e-03
9.012381607526e-04
2.910014888118e-03
5.510045432400e-03
1.959702749170e-03
3.585704259986e-03
3.723526099815e-03
1.268716263999e-03
2.392889037010e-03
3.063515298584e-03
2.813209111348e-03
4.210048530920e-03
5.103573185464e-03
5.177892081959e-03
2.829945348819e-03
1.363451425510e-03
3.691969532227e-03
3.550626997966e-03
3.676511325993e-03
1.285478420515e-03
8.537344141222e-04
7.845181071081e-04
2.162938812804e-03
1.377340432524e-03
3.170219899797e-03
0.0
2.524870915773e-03
4.491269867148e-03
3.700282617022e-03
5.066161758073e-03
3.327949804502e-03
4.251884330892e-03
2.509212341416e-03
1.018037242248e-03
5.829475890603e-03
6.039028528119e-03
4.216434674855e-03
3.565489033799e-03
2.587498848121e-03
5.999263223227e-03
2.442752516004e-03
3.696609549568e-03
3.563907472710e-03
3.514699694935e-03
5.927065042664e-03
6.015277257663e-03
1.330400211541e-03
1.449907591737e-03
1.344592241943e-03
3.643608196866e-03
4.850396606121e-03
0.0
5.101358492196e-03
1.409139728971e-04
1.499124232117e-03
3.824208957472e-04
0.0
2.029814193675e-03
4.688865864911e-03
4.611649624508e-03
3.864254668426e-03
9.306078872588e-04
4.020589784949e-03
5.797624803762e-03
5.973591106953e-03
3.688007304244e-03
1.196237126604e-03
5.834612071299e-03
3.414725027011e-03
9.671159728271e-04
1.409744689688e-03
9.368666534769e-04
2.773625038877e-03
5.128733981852e-03
5.686078140094e-03
1.614169892137e-03
3.141780048589e-03
4.903795419049e-03
5.124707089311e-03
4.540751789241e-03
4.863760003676e-03
5.230664655895e-03
4.885659315087e-03
4.900079095049e-03
5.104618843216e-03
2.371313285604e-03
3.639130252576e-03
3.700407251155e-03
1.543007074285e-03
4.822691056273e-03
4.723797952646e-03
4.594502443142e-03
2.187658065542e-03
2.078158679153e-03
4.298928970353e-03
4.465695048772e-03
4.739825188448e-03
3.625004239622e-03
4.980074041723e-03
4.182381661481e-03
3.612530889479e-03
1.648586597975e-03
1.078919747717e-03
9.715320649564e-04
8.189522588763e-04
3.276017880373e-03
3.023112973762e-03
3.897742298982e-04
4.028126407989e-03
2.904706458492e-04
5.885086834910e-03
5.811364703112e-03
5.844706076157e-03
1.127270833140e-03
2.214903500655e-03
5.806505327904e-03
4.688671280238e-03
5.826774921975e-03
4.813055851057e-03
4.917144813202e-03
2.903322035183e-03
6.008349193016e-03
6.003877113261e-03
4.727827648335e-03
4.864305038441e-03
4.249335747199e-03
0.0
3.175859147544e-03
1.259325279811e-03
4.420798695160e-03
3.384638883793e-03
4.409067033902e-03
2.131043982543e-03
1.108023222196e-03
4.695482135487e-03
3.365831542969e-03
2.646631452456e-03
4.556588175849e-03
5.414895944389e-03
2.656831201839e-03
3.200576911771e-03
3.816886599349e-03
4.190899904542e-03
4.331300515814e-03
2.822232598008e-03
3.605666078604e-03
3.473782743791e-03
3.959311659394e-03
4.657481856823e-03
4.474738788930e-03
2.497721918515e-03
5.428170056435e-03
5.196932708230e-03
3.994972095663e-03
4.018877418988e-03
4.067532001752e-03
5.468828346424e-03
5.334434594670e-03
3.777218885507e-03
4.785229386991e-03
5.183640898652e-03
4.486085823949e-03
4.626918442455e-03
5.440760853048e-03
4.828731435924e-03
3.492214324912e-03
1.813629337524e-03
2.595415623829e-03
1.751915947168e-03
1.311389193297e-03
5.325791288567e-03
4.638904880307e-03
1.232072997821e-03
5.349220756651e-03
4.109200150890e-03
4.453473742339e-03
4.501290464753e-03
2.822661026846e-03
4.600361826760e-03
3.989940508894e-03
1.568365711787e-03
4.607579259789e-03
1.682217231393e-03
4.433060704539e-03
4.965853579252e-03
1.931234771425e-03
2.536905363929e-03
3.506959235330e-03
4.546823231474e-03
2.929878446617e-03
5.094658413771e-03
4.689487714454e-03
3.549548679273e-03
4.373859018118e-03
4.508144441649e-03
4.950601638813e-03
1.602271484754e-03
3.405781233643e-03
3.108775469077e-03
5.079843116042e-03
3.194307102305e-03
3.880531337843e-03
4.194530845224e-03
4.813687637528e-03
2.696113206384e-04
1.541456333067e-03
1.874707634932e-03
4.535680067079e-03
4.684102630711e-03
3.785681380179e-03
4.265606377495e-03
3.105476038775e-03
3.587079011170e-03
4.392674845493e-03
1.860767443432e-03
4.452816754116e-03
3.543702289538e-03
1.992785431315e-03
3.392397121739e-03
2.975423009005e-03
2.515877789845e-03
3.725661475432e-03
9.890849693237e-04
7.121019429699e-04
4.132428392348e-03
1.740140079302e-03
4.103577769620e-03
3.987009557526e-03
3.370047699069e-03
3.248806400505e-03
5.300420175180e-03
2.104285098992e-03
2.995450123017e-03
2.940527097191e-03
1.410651741479e-03
4.429529881649e-03
4.136718757980e-03
1.859816294009e-03
3.894261520894e-03
4.933477745413e-03
1.699722713993e-03
5.408694418047e-03
5.411197824938e-03
2.017061567542e-03
2.915404601559e-03
2.179306637539e-03
4.367605250964e-03
3.647788208579e-03
5.489535749250e-03
5.304729192866e-03
4.231498250215e-03
4.146491013705e-03
1.780674243216e-03
4.280532226645e-03
4.934868325194e-03
3.669316609231e-03
4.695546322833e-03
5.063717161736e-03
2.645489529404e-03
5.190164349716e-03
3.272404207533e-03
3.596661715041e-03
2.751844944681e-03
3.019000093276e-03
4.810385432176e-03
3.246422704326e-03
2.264566458407e-03
1.689403800147e-03
4.815225778648e-03
2.226110953632e-03
4.194754128453e-03
4.940895878954e-03
4.276223362945e-03
3.112253213804e-03
3.202020562987e-03
1.919623832173e-03
1.352217145348e-03
4.164633130640e-03
4.560658305418e-03
1.177128837243e-03
2.915068821861e-03
1.620327168500e-03
4.555465457417e-03
2.973416926450e-03
3.909810264466e-03
2.724408296497e-03
5.208767427969e-03
2.593619795372e-03
4.035142549939e-03
2.532928249258e-03
4.024142569854e-03
3.450900747862e-03
4.136123601672e-03
2.485244761370e-03
1.564757219021e-03
4.294495704809e-03
2.163488820880e-03
3.387401299419e-03
4.565662359774e-03
2.738581822716e-03
4.665942928302e-03
1.465348703278e-03
4.246327033609e-03
1.699623542301e-03
2.032350589391e-03
5.536974569683e-03
3.426908671018e-03
1.540384123315e-03
3.758577465195e-03
3.927524684089e-03
2.715033437353e-03
4.314845763778e-03
4.948351979472e-03
3.360890771607e-03
3.891846381777e-03
4.252820554628e-03
2.212724349773e-03
2.843833598180e-03
4.035789724437e-03
3.996131275531e-03
3.575096828484e-03
3.792627721388e-03
4.802343365754e-03
4.415034608388e-03
4.389129640424e-03
3.467263775261e-03
3.595494986516e-03
3.583279255749e-03
4.289394557029e-03
5.421975200704e-03
2.486182053314e-03
3.861488826342e-03
5.063142224082e-03
3.131891392016e-03
3.028041098227e-03
1.823938140991e-03
3.705908196928e-03
3.091369410019e-03
4.675935954995e-03
4.534875968551e-03
2.056161555857e-03
2.786655864969e-03
2.873165513745e-03
2.868546210609e-03
3.110365765296e-03
1.843618803568e-03
3.272992134604e-03
3.412916071715e-03
5.192089283469e-03
3.281566540745e-03
3.626240938450e-03
3.586985508785e-03
3.409305181201e-03
1.897398460282e-03
3.604818096321e-03
3.888630237913e-03
4.421922450971e-03
3.317485446496e-03
3.647674555787e-03
4.673336337087e-03
3.224252799485e-03
3.496064654626e-03
2.622358304585e-03
3.055333394029e-03
3.164663825952e-03
2.311141121049e-03
2.125313783725e-03
3.477924834306e-03
3.736945563828e-03
4.738585916755e-03
1.315321289851e-03
2.446620192041e-03
2.982448329977e-03
3.433203482514e-03
4.531582693643e-03
3.499304588405e-03
2.673974497719e-03
3.139905464341e-03
5.072747806473e-03
2.707809154280e-03
1.166214898562e-03
1.463299212712e-03
2.914504388254e-03
3.018723201689e-03
2.686713935682e-03
3.062407380188e-03
2.712109552951e-03
1.499659389839e-03
4.359635542217e-03
2.393958649680e-03
3.066798902882e-03
4.495652146628e-03
4.450791082476e-03
5.300178894970e-03
4.977951589195e-03
2.397146190700e-03
4.416844529747e-03
3.119400395624e-03
3.332129797491e-03
3.122426360325e-03
2.988793531740e-03
2.855846187293e-03
3.177000482072e-03
2.756193394155e-03
2.592075865469e-03
2.421633066575e-03
3.387402253471e-03
2.293172573691e-03
2.277057048855e-03
2.911114260278e-03
1.155684839829e-03
4.799837983891e-03
2.295247612437e-03
3.251041652365e-03
3.393599796704e-03
3.145369302234e-03
3.078086569887e-03
5.318104494318e-03
4.480500477960e-03
2.985180505105e-03
4.544225245269e-03
5.407567982517e-03
2.819844426375e-03
3.291868619470e-03
4.617460502529e-03
3.604719748764e-03
2.828319211559e-03
5.770682299556e-03
2.324148480044e-03
2.632797394299e-03
5.423157329672e-03
1.479799231386e-03
4.397525855562e-03
5.165585481733e-03
2.315901153844e-03
1.693562376470e-03
5.527898528543e-03
3.711930513200e-03
4.919552001560e-03
1.951673982838e-03
3.287761322064e-03
5.034502267977e-03
5.186304779390e-03
3.552693579741e-03
3.534005249318e-03
4.400555289825e-03
4.253543167516e-03
2.943285220908e-03
3.519756308427e-03
3.287722794547e-03
1.604761110599e-03
2.916005013921e-03
2.089170602373e-03
2.495795305072e-03
3.131259226377e-03
5.609482615871e-03
5.438909998859e-03
5.417054799902e-03
3.703317504642e-03
5.161557093516e-03
3.868518273720e-03
5.545650970965e-03
4.897334775276e-03
3.311771604763e-03
2.197730088428e-03
5.053606803532e-03
5.398699092692e-03
5.059342313408e-03
4.930251969398e-03
3.686756924755e-03
2.638215958256e-03
3.385656639266e-03
3.735595459470e-03
3.380928897864e-03
1.515738106098e-03
4.891642251277e-03
2.057605305164e-03
2.303129579541e-03
1.798145096306e-03
1.202338881616e-03
2.291547627481e-03
2.255519192117e-03
1.119365171026e-03
3.821601090175e-03
3.628201443266e-03
4.633003595104e-03
3.816334825167e-03
1.776186669795e-03
3.629386261877e-03
1.548469868944e-03
5.595449219484e-03
1.931840670526e-03
3.698695061029e-03
4.663243438870e-03
2.011134684472e-03
1.247841792706e-03
1.362382450494e-03
3.956724378172e-03
3.694573121702e-03
3.378959753737e-03
3.476784983087e-03
3.160808567775e-03
1.209468731441e-03
5.051259765074e-03
3.748618971867e-03
3.477272273897e-03
1.950538792296e-03
4.782003339930e-03
3.210604208948e-03
5.183136400848e-03
1.092245890419e-03
2.105066893939e-03
3.669072015162e-03
1.206486766565e-03
5.304264296023e-03
2.175618363556e-03
1.951041802013e-03
3.970362899570e-03
5.544534571255e-03
3.589900622387e-03
4.195224401096e-03
4.919263556773e-03
3.618574329088e-03
2.771490720799e-03
3.147261186437e-03
2.962169357454e-03
3.142630492045e-03
3.544072557654e-03
1.522290315328e-03
6.123405621243e-03
2.263220382989e-03
3.970342460406e-03
2.658927723359e-03
4.758938700212e-03
1.696532885482e-03
3.388847263524e-03
3.457624531915e-03
2.514428578240e-03
1.677345446119e-03
2.396212171814e-03
2.754267880200e-03
3.227262210638e-03
4.988779509347e-03
2.815825285194e-03
4.795644255112e-03
5.516289922385e-03
5.146103467286e-03
5.257081820144e-03
3.182071023712e-03
4.029201795451e-03
5.042361025696e-03
2.756595180965e-03
2.647290714061e-03
3.056301189697e-03
2.572569436643e-03
2.462008023465e-03
2.644345930535e-03
1.440401882729e-03
3.630426804566e-03
1.569273956402e-03
5.480811851792e-03
5.602378623592e-03
1.419199509514e-03
5.275547562051e-03
2.804242796237e-03
4.372719245337e-03
2.891727352859e-03
5.381895938702e-03
3.185020396507e-03
3.346610583280e-03
2.289654001474e-03
3.542499471540e-03
3.433320806316e-03
3.266208049097e-03
2.035076047681e-03
2.493404353718e-03
2.201070291381e-03
5.424319885087e-03
5.590129291020e-03
3.903582702292e-03
2.909258766393e-03
2.335058945798e-03
5.293513921390e-03
1.953817967391e-03
4.234737884749e-03
5.172652995614e-03
5.124227989435e-03
9.277188622567e-04
2.506898590902e-03
4.525242961084e-03
4.563239763712e-03
3.241690536946e-03
2.241320889606e-03
2.833288907621e-03
4.078547169666e-03
4.419169055791e-03
5.013620306272e-03
2.282293485652e-03
4.307804809555e-03
1.686847443505e-03
5.290274890223e-03
4.851002717086e-03
4.643175649224e-03
2.345179317856e-03
1.807172178817e-03
1.801948734361e-03
3.359707236442e-03
5.507142592636e-03
5.108003363980e-03
1.046447068849e-03
2.179901417413e-03
3.852336584430e-03
3.800392508022e-03
2.586138136504e-03
9.771895354138e-04
2.930181311238e-03
2.283701537404e-03
1.568412579387e-03
4.696631355627e-03
4.607881037575e-03
4.766072203044e-03
4.081754060291e-03
4.603369163212e-03
4.379957173959e-03
4.618906992019e-03
2.458376662123e-03
4.098638148539e-03
4.907202475208e-03
5.648784616652e-03
4.495095601971e-03
2.548434779706e-03
3.912793135380e-03
5.512760513766e-03
3.001262042829e-03
3.180884923332e-03
2.468543689254e-03
5.028337068141e-03
3.427253910037e-03
3.290153938343e-03
3.675470650321e-03
2.182285102727e-03
4.189801390205e-03
2.291578316535e-03
1.349449754861e-03
5.636015473331e-03
3.625895958899e-03
2.103450277769e-03
4.046287823861e-03
4.878000002137e-03
3.895798009600e-03
3.114017949884e-03
8.889497729122e-04
4.793301523209e-03
4.034143798685e-03
2.338495865229e-03
4.679004096829e-03
0.0
3.545292720195e-03
3.183419108901e-03
4.620052298240e-03
3.760015126243e-03
2.393922234819e-03
4.445933361572e-03
3.448409215898e-03
2.584776922099e-03
4.250432662385e-03
1.906468634271e-03
4.153126910283e-03
1.818802017300e-03
5.293743423829e-03
4.239353654533e-03
2.394815569185e-03
4.179465517636e-03
5.639919064863e-03
3.534684727708e-03
2.288195308190e-03
2.779857412875e-03
4.157293753941e-03
4.559059439739e-03
3.534808419225e-03
4.252606570727e-03
4.782120039691e-03
4.278791894662e-03
3.738223600894e-03
3.499074933205e-03
3.494139593801e-03
4.747419654542e-03
4.255099070675e-03
3.839964885528e-03
4.569340265878e-03
3.056246348132e-03
2.393304954355e-03
2.930480403413e-03
6.086851266750e-03
4.117844399000e-03
3.455995573439e-03
3.753400023371e-03
2.472071372363e-03
3.491628202087e-03
4.204348122107e-03
4.268597776756e-03
4.772004198945e-03
4.710233733702e-03
4.692963440339e-03
1.106720622824e-03
3.608330547153e-03
3.820362875112e-03
4.664326353529e-03
4.680096484355e-03
2.352584026883e-03
1.558884795758e-03
2.654480659437e-03
3.731003145245e-03
3.466490700851e-03
3.315280051285e-03
3.510786059953e-03
4.741445271794e-03
3.000739119005e-03
3.725942709322e-03
1.882186228005e-03
1.989209782105e-03
4.859365221654e-03
5.378791863780e-03
3.622412790060e-03
4.086298431898e-03
8.788451117360e-04
2.150327118180e-03
4.157073371539e-03
8.318441689136e-04
5.408814910997e-03
1.796994317519e-03
4.563827465076e-03
4.326693611244e-03
2.179157756358e-03
2.902957421488e-03
5.531946144864e-03
2.724274636976e-03
3.597238446451e-03
3.949741788311e-03
1.387126890400e-03
1.483538630366e-03
4.094562523506e-03
4.462003929120e-03
4.216899447097e-03
3.250175486718e-03
5.197689124532e-03
4.432557972304e-03
3.662154238880e-03
4.324815174578e-03
4.318493610634e-03
4.118093824424e-03
3.698739609380e-03
3.642170033284e-03
5.589231027012e-03
3.013506558343e-03
4.255186571382e-03
2.631728022376e-03
2.719221655027e-03
3.230635052549e-03
2.472264286779e-03
1.402294089302e-03
2.643957478187e-03
4.711133417206e-03
2.471516709082e-03
4.468472658716e-03
2.193648896864e-03
1.986292001410e-03
2.990854761195e-03
4.632153164590e-03
4.258818863725e-03
4.455822626565e-03
2.409857783535e-03
4.599243387348e-03
4.586353591898e-03
3.003262797050e-03
3.764237663719e-03
1.259809435264e-03
4.417137978971e-03
2.598861938414e-03
3.559924899756e-03
2.891071441809e-03
4.599295072823e-03
4.492928374407e-03
3.946747793921e-03
3.008453656814e-03
3.177730900320e-03
4.583213391973e-03
3.022048143241e-03
1.998492614778e-03
1.639620437187e-03
1.813972294795e-03
2.527763030566e-03
3.023198208948e-03
4.233192300425e-03
3.640278608643e-03
1.787168974819e-03
3.020737013717e-03
3.250114505745e-03
4.609207531696e-03
1.720484110792e-03
4.768807741004e-03
2.542365269620e-03
3.372604860332e-03
3.955992186008e-03
3.843149938690e-03
2.565660421796e-03
3.009689123218e-03
4.457896627465e-03
1.960918397589e-03
4.405903501378e-03
3.240600366134e-03
3.564971743917e-03
2.068612722327e-03
3.806478467456e-03
4.436879848710e-03
1.816133218611e-03
2.713220334332e-03
2.003794310319e-03
1.222241799405e-03
3.754040591865e-03
4.602132618812e-03
4.606753680845e-03
2.762317310720e-03
5.921576080326e-03
1.978082143590e-03
2.912859680010e-03
2.189495913324e-03
3.665001844436e-03
3.520328983887e-03
2.638881836419e-03
2.895778659108e-03
4.043104173156e-03
2.482129023893e-03
5.209900433282e-03
3.214049017557e-03
3.647482495706e-03
3.710983494359e-03
2.656638786889e-03
3.855170451250e-03
4.566671673770e-03
4.366198307929e-03
1.028648459849e-03
0.0
2.165054714133e-03
3.723014921691e-03
2.395137752120e-03
2.817631679997e-03
2.513976997857e-03
3.806732758052e-03
4.815158278389e-03
3.775227130307e-03
2.362468453277e-03
4.403407743042e-03
4.096150277746e-03
2.928708125507e-03
3.798202669823e-03
3.830814983830e-03
2.434166470534e-03
2.429201062824e-03
3.861528244714e-03
4.613156150105e-03
4.387204249011e-03
2.657070979426e-03
3.880643775732e-03
2.837716406776e-03
2.485420115051e-03
3.105685387870e-03
2.225639351650e-03
2.780093807569e-03
2.725707991279e-03
2.761000011738e-03
3.893879650775e-03
2.100922071665e-03
3.891918480221e-03
3.915697350990e-03
2.204461836540e-03
3.709703770702e-03
0.0
5.365652246451e-03
2.578069340872e-03
2.173697461019e-03
3.448943280229e-03
3.975644968851e-03
4.011347503912e-03
2.443864926480e-03
1.964861984032e-03
1.711666579155e-03
4.092079591951e-03
2.346058795579e-03
2.509223878502e-03
4.534649018568e-03
2.777991002642e-03
4.537667482143e-03
4.058891197805e-03
0.0
5.816180050420e-03
4.902062641942e-03
3.881412651745e-03
2.440978645024e-03
3.770170632493e-03
2.426839343308e-03
1.518214254580e-03
1.641300652265e-03
5.546974744787e-03
4.665874526858e-03
3.739497969649e-03
5.215858982210e-03
1.786753972791e-03
4.945218504881e-03
4.727704294311e-03
2.892091425302e-03
3.818142524302e-03
2.797163094051e-03
2.426438530921e-03
2.920765910813e-03
4.893505897122e-03
4.727405870860e-03
2.743689612102e-03
4.673515583297e-03
0.0
2.485522009972e-03
5.040677103797e-03
3.152365298128e-03
2.607652291814e-03
3.607194230213e-03
3.172614263735e-03
2.188759691854e-03
2.409032827129e-03
2.923122928886e-03
2.479690312005e-03
2.876821812237e-03
4.465612370866e-03
5.532694685970e-03
2.480976938953e-03
4.855765288150e-03
5.147151796070e-03
2.491148219769e-03
2.231684133508e-03
3.071159247528e-03
2.618928641937e-03
4.855263855775e-03
2.512300808846e-03
2.262013899534e-03
2.743671721340e-03
2.429414246353e-03
2.905151765398e-03
2.632275217683e-03
3.664855587076e-03
4.505149016415e-03
2.765225984554e-03
2.582205512883e-03
2.386883807025e-03
2.387003191431e-03
0.0
5.504082384171e-03
5.322543550804e-03
7.848135277644e-04
2.549500333694e-03
2.400638059406e-03
2.463285382783e-03
4.810923744731e-03
3.198165242386e-03
4.606096513073e-03
2.664651155853e-03
3.655834997024e-03
4.200689173686e-03
2.113752298900e-03
1.912300493824e-03
3.255578082472e-03
1.273953511854e-03
4.816843425833e-03
2.290848895151e-03
2.168710725122e-03
2.559244781557e-03
4.283416494899e-03
4.812195502839e-03
2.539570789041e-03
3.643462494389e-03
4.855540140174e-03
2.948190669232e-03
2.976334480875e-03
2.027418807040e-03
2.926129920543e-03
4.448255544290e-03
2.964508539853e-03
5.409142776678e-03
5.734258886474e-03
4.026664295728e-03
5.743896818908e-03
5.718569705541e-03
2.582070465025e-03
2.595631204153e-03
3.199953522585e-03
0.0
1.902903777885e-03
3.604210869196e-03
2.807391870645e-03
2.804874001204e-03
2.021751019950e-03
2.194943763957e-03
4.142001498770e-03
2.644769460266e-03
2.249798190126e-03
3.567736017229e-03
4.967219196927e-03
4.886134841971e-03
2.605300666506e-03
3.828525680063e-03
0.0
1.957535475967e-03
3.521502279004e-03
1.981252673420e-03
2.924275991023e-03
2.745952613108e-03
2.849229022871e-03
2.462891224688e-03
5.296655538006e-03
2.503533226713e-03
5.524289484905e-03
5.153625615526e-03
6.001172921191e-03
5.100455085510e-03
4.110540018138e-03
2.637651237191e-03
2.100855566225e-03
3.191285649529e-03
4.869911819269e-03
1.668585154639e-03
1.835666317314e-03
2.227285640186e-03
3.938213713365e-03
5.540832376998e-03
4.655361428653e-03
3.499491474384e-03
5.052024159388e-03
4.084593475503e-03
2.632811007746e-03
2.862235179152e-03
4.698107313135e-03
3.316215251475e-03
3.587892556505e-03
3.896233695222e-03
4.114095616366e-03
4.188562373750e-03
1.799506149793e-03
2.750045215379e-03
5.853261315327e-03
4.426727944562e-03
3.704988570506e-03
5.563415471233e-03
4.701176930839e-03
5.605287308872e-03
2.984653430048e-03
2.899269361477e-03
3.882189993689e-03
0.0
2.099672330588e-03
4.918810832529e-03
9.297763855901e-04
3.755397294441e-03
2.797405890751e-03
1.199320246670e-03
1.287155906031e-03
6.012085979982e-03
3.536739645719e-03
5.807206894269e-03
2.659927490576e-03
3.526193540084e-03
0.0
5.649183673557e-03
1.226889212049e-03
5.591486415216e-03
4.894034742833e-03
5.539486036354e-03
2.262943268428e-03
4.213950339262e-03
3.025007021002e-03
3.131326445098e-03
4.091554630855e-03
5.020955983920e-03
3.911662398283e-03
5.268125805587e-04
4.885085777727e-03
3.118765135349e-03
9.712620635747e-04
3.457233058136e-03
5.927711436663e-03
5.789822867449e-03
3.808569037443e-03
4.215889140078e-03
2.538577934307e-03
5.833806765854e-03
2.555830622428e-03
2.490656388983e-03
3.320251670345e-03
3.625198829927e-03
5.701509361268e-03
5.926679449314e-03
5.825453120953e-03
2.375146025770e-03
1.855020722498e-03
3.558870854792e-03
3.632521599668e-03
4.888825416704e-03
5.046946971521e-03
1.549964253441e-03
0.0
4.672705056340e-03
4.574124372469e-03
1.492817307624e-03
4.534041151919e-03
3.791507055834e-03
3.441092852532e-03
4.640515334488e-03
3.044493888229e-03
3.085586377938e-03
1.541679909506e-03
3.205964040354e-03
5.539122948349e-03
5.470096428524e-03
3.349468659420e-03
4.316012489498e-03
5.096328403816e-03
5.066889044332e-03
4.866255092984e-03
3.513811278074e-03
2.745903881909e-03
5.643353601341e-03
2.006177374357e-03
1.336548591570e-03
4.740994586223e-03
1.967258917603e-03
3.030928276529e-03
4.804010908766e-03
4.798192704978e-03
4.457553134226e-03
4.812474116929e-03
4.086135366692e-03
0.0
1.909648872290e-03
2.592269180864e-03
4.073105943506e-03
3.300295154598e-03
5.598216389854e-03
3.155889343856e-03
2.080876808324e-03
1.684831239890e-03
1.996726710914e-03
4.805748266782e-03
2.545899529970e-03
5.665640345273e-03
1.260613380941e-03
2.717034335033e-03
4.089865816188e-03
4.150741350700e-03
3.513862819322e-03
4.079622705219e-03
3.886731369533e-03
5.955413447924e-03
5.808855366257e-03
1.973720843828e-03
5.623880488313e-03
5.288178170346e-03
2.706065533823e-03
3.694588255657e-03
4.724906017287e-03
5.013738577708e-03
0.0
2.864341795004e-03
5.304542939534e-03
4.364446428508e-03
4.836626331640e-03
3.730875922937e-03
4.587318565965e-03
5.089225402943e-03
3.906899070662e-03
3.750017617316e-03
3.537069004234e-03
2.588839608145e-03
5.047138554197e-03
3.933020823055e-03
5.546377694027e-03
1.946527573604e-03
5.421130664064e-03
4.841192871563e-03
9.322091538505e-04
2.293274876912e-03
5.049998438284e-03
5.689077263393e-03
5.605137768792e-03
3.830427027326e-03
4.275713481985e-03
1.034452648196e-03
0.0
9.165803274728e-04
2.306330849804e-03
1.596341157609e-03
3.232809435929e-03
4.778427176324e-03
5.703044928894e-03
4.347082166528e-03
3.002796748421e-03
4.148995897399e-03
2.783709893463e-03
4.463871432644e-03
4.932249577077e-03
5.252682971647e-03
1.354054557860e-03
0.0
4.840119537013e-03
7.233031137748e-04
8.681517225348e-04
1.435436843906e-03
1.472272678795e-03
3.855676984439e-03
5.537407312308e-03
5.639733232520e-03
4.436603250530e-03
2.523558595448e-03
4.438054910322e-03
5.878210086007e-03
3.406643456978e-03
3.631025882734e-03
3.027978513677e-03
7.658097359086e-04
5.095377053932e-03
4.007087122991e-03
1.117452099742e-03
3.054154399225e-03
5.821463871987e-03
5.616162225123e-03
5.771476761292e-03
2.378943900085e-03
0.0
4.729401298327e-03
5.982820025955e-03
5.116893597155e-03
3.780141864939e-03
2.757852932878e-03
1.016540728646e-03
5.742488357776e-03
8.130160899770e-04
3.471132188594e-03
5.976997195660e-03
0.0
4.334445045259e-03
4.928068088589e-03
5.685262055675e-03
3.960311455775e-03
4.602685966077e-03
5.674047741207e-03
5.673486810091e-03
4.691284669015e-03
5.438753250395e-03
2.700307817537e-03
3.496149835990e-03
4.345309502369e-03
5.753633298066e-03
1.736380299792e-03
3.496568385412e-03
4.939582600280e-03
1.368820282863e-03
2.744988563961e-03
5.663738979536e-03
5.807014388648e-03
1.265820552801e-03
2.857699370651e-03
3.526860356291e-03
5.236929301907e-03
0.0
5.763265201970e-03
4.458722862593e-03
3.044071100787e-03
4.287981028573e-03
4.654162068594e-03
3.688235848984e-03
2.888712993061e-03
2.490177180056e-03
3.382376733098e-03
3.778484931935e-03
3.590372836895e-03
3.200278276933e-03
3.401617339723e-03
1.200485253478e-03
4.444142389629e-03
4.959617724818e-03
2.494216693804e-03
5.683473093287e-03
4.880068419398e-03
3.847676400356e-03
4.572298701193e-03
3.295609289569e-03
3.277091984412e-03
3.455826167072e-03
2.410347476307e-03
3.171270214627e-03
5.151777217512e-03
3.979240728433e-03
5.867901631608e-03
2.336872728529e-03
4.397657744471e-03
5.380026001316e-03
3.734283041451e-03
4.159349955921e-03
1.018917914231e-03
5.297615537063e-03
5.603907969465e-03
1.200386500765e-03
3.098141903975e-03
0.0
5.607338238193e-03
2.966754512287e-03
3.036028368872e-03
2.881134676313e-03
3.028579513069e-03
2.879228433618e-03
3.034375088800e-03
2.887788164751e-03
3.035458784700e-03
2.890186158662e-03
3.042779342889e-03
2.901207661542e-03
3.047179815419e-03
2.908355221936e-03
3.047821965848e-03
3.058166228224e-03
2.921616972915e-03
2.977904379741e-03
3.057220798405e-03
2.926740671622e-03
2.913842577925e-03
3.065010864165e-03
2.940817269049e-03
3.076565577618e-03
2.928097216781e-03
3.084144842026e-03
3.085339738652e-03
2.912475768239e-03
3.096508582135e-03
3.118274552756e-03
2.897323094266e-03
3.090734832649e-03
2.871686253460e-03
3.129388617912e-03
2.894029482055e-03
2.957719357000e-03
2.922028373713e-03
3.085335394846e-03
2.928220263468e-03
3.030143154684e-03
2.945827770339e-03
3.312321515307e-03
3.189480759148e-03
3.353757832105e-03
3.204854301679e-03
3.362122923095e-03
3.214839365167e-03
3.375029482880e-03
3.210761067781e-03
3.368277685235e-03
3.220984354806e-03
3.383169786334e-03
3.228836678226e-03
3.413512167486e-03
3.384151656869e-03
3.268396400584e-03
3.229750214111e-03
3.398976425987e-03
3.246842334506e-03
3.396439375541e-03
3.258900424221e-03
3.412527509879e-03
3.266513004898e-03
3.338906532064e-03
3.424132635284e-03
3.274787641877e-03
3.430715204795e-03
3.271602579017e-03
3.264657004864e-03
3.450357719823e-03
3.490825941533e-03
3.429189117639e-03
3.194103659451e-03
3.322189248393e-03
3.233743975656e-03
3.318513455877e-03
3.206052030725e-03
3.282745160465e-03

SCALARS element_materi_plasti_phimob float
LOOKUP_TABLE default
2.287128693317e+01
1.920875359113e+01
2.001686223286e+01
1.744039963702e+01
2.246440810387e+00
2.369810239956e+01
2.460265582446e+00
2.143199485388e+01
2.746485276516e+00
1.739440125921e+01
1.958799754948e+01
2.121527824057e+01
2.087106308098e+01
6.495716606813e+00
2.074672541036e+01
1.787198202098e+01
1.148017668905e+00
2.601763809174e+01
1.701228855046e+01
1.083425709131e+01
1.734942875936e+01
1.851712137585e+01
2.075535693782e+01
2.234362700029e+01
1.010326928673e+01
1.978798914017e+01
-1.000411375666e-01
2.245618220336e+01
1.066454363865e+01
2.219030631561e+01
1.910089278593e+01
-2.294622832936e+01
1.957216784197e+01
2.106958609202e+01
2.134377365195e+01
2.092868225820e+01
2.085127997421e+01
2.228622066232e+01
-4.174837626285e+00
-3.991165240346e+00
1.852979994042e+01
2.117331800752e+01
2.254095697787e+01
5.409765711119e-01
1.689314427982e+01
2.042220369211e+01
2.161249077540e+01
1.710660394033e+01
1.836778755784e+01
4.820186848526e+00
2.014689495871e+01
1.531615301420e+01
2.157374905075e+01
1.546046824269e+01
1.874610721424e+01
1.574412802229e+01
1.317736160480e+01
2.116130057916e+01
9.538670862832e+00
1.784225148678e+01
1.121081794820e+01
2.289042921341e+01
2.176619568135e+01
2.105881031404e+01
2.090266506900e+01
1.684496452947e+01
1.560443754986e+01
1.986499244064e+01
1.003301034729e+01
2.141590272642e+01
1.993484718852e+01
1.932671257881e+01
2.206156019850e+01
-1.236149195148e+01
1.601772127514e+01
1.759509263395e+01
1.864860061811e+01
2.200432715565e+01
8.662536300929e+00
2.292082019616e+01
1.090410108486e+01
7.544671658467e-01
2.157082519912e+01
2.035801355226e+01
5.195374427586e+00
5.088912506056e+00
2.017143196011e+01
2.109808189520e+01
1.784547636788e+01
2.250830282235e+00
-1.864628359796e+01
4.278035260640e+00
1.421889412102e+01
1.382723498496e+01
1.861573035656e+01
2.175241461138e+01
7.964434909536e-01
2.169118871137e+01
9.057179082288e+00
1.963827916745e+01
-5.160112883966e-01
2.080829826647e+01
2.426936353799e+01
2.265221435386e+01
2.250670726759e+01
1.662742460757e+01
2.097076303435e+01
1.517593188783e+01
2.276778578404e+01
2.074931337707e+01
1.765932718291e+01
-2.598307909279e+01
2.455115027844e+01
8.077565074720e+00
1.760002549494e+01
2.162900025695e+01
2.064379290524e+01
2.112408201113e+01
7.947880407744e+00
2.312058737603e+01
7.228382656684e+00
5.200899129249e+00
1.537266399133e+01
2.140341517905e+01
2.608416128946e+01
1.152607592937e+01
1.752173320255e+01
9.908898648446e+00
1.812248348796e+01
2.354632183486e+01
1.978874030247e+01
1.747906147581e+01
1.726262741202e+01
1.423480343762e+01
2.154152849334e+01
2.084848738846e+01
2.047216173814e+01
1.745039836138e+01
2.197190008157e+01
1.600552535690e+01
1.781678882599e+01
2.152190492298e+01
6.837155877145e+00
1.193897962667e+01
1.751789841495e+01
1.284800843418e+01
1.777409495547e+01
2.358457534552e+01
5.767739672455e-01
2.455816380513e+01
-2.043483290288e+01
4.943596946152e+00
1.220398949081e+01
9.533513731109e+00
2.129837505164e+01
2.356017930941e+01
2.075164314741e+01
2.011551430145e+01
2.442643041505e+01
1.214532798507e+00
2.507912595640e+01
2.108996730450e+01
6.833949982307e+00
2.100398104753e+01
1.181959805344e+01
2.107392380564e+01
9.444512911791e-01
2.369527337312e+01
5.705455181657e+00
1.963413426617e+01
2.341813482795e+01
2.482859533105e+01
1.297519061528e+01
7.612712199316e-01
2.413753001683e+01
7.608188928441e+00
2.070468281513e+01
1.818696867063e+01
2.191796609250e+01
2.174032636875e+01
1.923330002807e+01
1.806943277968e+01
2.309082965586e+01
1.724502020263e+01
2.121954012156e+01
8.898719301273e+00
2.406284050933e+01
1.778727654288e+01
1.681010693175e+01
2.104216342879e+01
2.139740468651e+01
2.497944762962e+01
1.765623860130e+01
1.162745247223e+01
1.419657549019e+01
2.349301245832e+01
-2.550336165163e+00
1.875217486235e+01
1.340210772891e+01
1.972690226765e+01
2.396404649681e+01
7.943155818102e+00
9.074750010675e+00
2.187794225573e+01
1.639608638822e+01
1.949108279811e+01
1.393726939531e+01
1.410960795955e+01
1.233896918275e+01
1.084652989268e+01
2.593078928078e+01
2.009473470140e+01
1.178430774096e+01
2.120224212525e+01
2.040027948211e+01
1.893711828218e+01
1.709144606177e+01
2.419899464001e+01
2.361032290260e+01
3.092095102860e-01
2.541248103448e+01
2.361245213095e+01
-1.655998474971e+01
1.499635577991e+01
-2.277438518488e+01
1.021005426094e+00
2.248104992899e+01
1.487517954456e+01
1.550020214219e+01
1.418591983630e+01
2.163741532109e+01
1.708619225902e+01
8.602579313404e+00
2.367522003924e+01
1.301809701041e+01
2.097163359237e+01
1.016031878223e+01
2.269115029850e+01
2.582710210384e+01
1.591824463156e+01
2.415077936749e+01
2.106693429620e+01
1.610446203285e+01
2.408394448595e+01
2.330014891488e+01
1.989404208547e+01
1.806457391666e+01
1.466868910781e+01
2.220456460387e+01
2.535817288884e+01
2.096367222633e+01
1.375085743531e+01
1.858885585041e+01
2.029803607653e+01
2.616960904460e+01
5.723207639966e+00
1.110383785309e+01
1.106813561700e+01
2.491425516778e+01
2.454317777960e+01
2.220541686006e+01
1.538034791497e+01
1.413403253770e+01
2.416548637882e+01
1.585762308534e+01
1.702679420548e+01
1.715603884185e+01
2.085327190223e+01
2.695655890755e+01
1.620302363905e+01
2.411024139012e+01
2.613372142156e+01
2.507635351046e+01
2.477015837527e+00
2.577624336143e+01
2.389618678440e+01
1.583433497578e+01
8.589588382608e+00
1.191769493529e+01
2.566814524496e+01
2.198782856954e+01
2.422999766187e+01
1.465057210352e+01
-3.069450443922e+00
1.889815547628e+01
2.674737857414e+01
1.332255782615e+01
7.031786115220e+00
2.527282305872e+01
2.520104569976e+01
2.258785105940e+01
1.934595790518e+01
1.501324403244e+01
1.921521852394e+01
2.642067600504e+01
2.597855126659e+01
2.343415298049e+01
2.472165675411e+01
2.079936722357e+01
1.947919971799e+01
2.030507127326e+01
2.100044731577e+01
2.491137962099e+01
2.205591642386e+01
1.678574985757e+01
2.323704675158e+01
2.417632437742e+01
1.685658776810e+01
1.769257190961e+01
2.561005390024e+01
2.574027522865e+01
2.180074038809e+01
2.158241724011e+01
2.395377821564e+01
1.852959945024e+01
2.488898916034e+01
2.597121342340e+01
2.636168780509e+01
2.327332734596e+01
1.469730564109e+01
2.141989825862e+01
2.610807688971e+01
2.639968343204e+01
2.108165569864e+01
1.103417521797e+01
2.421186763931e+01
2.032701551898e+01
9.950748559295e+00
2.207027469174e+01
2.359983817079e+01
2.103900518341e+01
1.007936703484e+01
1.792618281360e+01
1.933392499839e+01
1.383903324419e+01
1.554599044464e+01
1.553173406471e+01
2.098492521053e+01
2.220417962690e+01
9.681966413106e+00
1.006128204074e+01
2.554523278841e+01
1.250722586764e+01
1.198912650898e+01
2.288202326949e+01
1.101433145468e+00
2.195556646097e+01
2.495006715975e+01
1.602115566724e+01
2.210449698317e+01
1.467919412600e+01
2.652557127779e+01
2.293974500396e+01
2.210800920343e+01
1.494337836446e+01
2.556188815785e+01
1.941813255527e+01
1.878449352172e+01
2.262276116630e+01
1.785213471697e+01
1.892507221143e+01
1.825376416956e+01
1.370306973659e+01
2.186559342729e+01
2.237566326620e+01
1.771359532431e+01
1.521581318053e+01
2.250481247638e+01
1.986754627972e+01
2.425865747242e+01
2.484869307279e+01
1.965112665998e+01
2.594569374375e+01
1.880722182819e+01
1.712077000856e+01
2.428377734806e+01
2.162619397138e+01
1.614849615449e+01
2.100954490275e+01
2.058104496804e+01
1.998250561550e+01
1.877167449289e+01
2.275674598124e+01
1.580553960709e+01
2.208819169742e+01
2.544784373174e+01
2.357896759744e+01
1.848771324845e+01
1.656919071997e+00
9.789042564666e+00
2.220733758504e+01
1.848581130362e+01
1.294730718108e+01
1.632601662940e+01
2.505719833551e+01
2.417623144551e+00
2.530004705825e+01
2.215834434798e+01
2.498573215920e+01
2.511181656428e+01
5.587895666231e+00
1.171645740839e+01
2.381902982777e+01
2.085512691260e+01
2.553509192448e+01
8.126921522729e+00
1.082193630779e+01
2.062997423518e+01
2.524286759214e+01
1.522523607778e+01
2.173694496565e+01
1.273935571203e+01
1.818742645173e+01
1.923546822116e+01
1.629184782466e+01
2.371479246470e+01
2.186562290484e+01
2.140862961269e+01
2.039302845036e+01
2.092289087951e+01
1.598532215005e+01
1.639528758701e+01
1.843101311135e+01
2.193175247919e+01
2.039577144643e+01
1.859324349823e+01
1.721960820683e+01
2.217163068444e+01
1.660186553074e+01
2.627196848066e+01
1.665741023353e+01
2.354977952017e+01
2.325967417204e+01
1.735416141302e+01
2.317734414605e+01
1.817142850611e+01
2.332016104117e+01
2.187430330615e+01
1.893932060224e+01
2.014911631565e+01
2.146431990564e+01
2.387321410727e+01
2.158415847572e+01
1.908851832224e+01
1.939057767558e+01
-1.348683324300e+01
2.175252340594e+01
2.157781463207e+01
2.161807355913e+01
2.617490158425e+01
2.205277357245e+01
-4.686390213550e+01
2.335359615203e+01
1.869729869521e+01
2.014972768649e+01
1.764838472523e+01
2.280066542399e+01
2.175907530766e+01
2.582460707682e+01
2.489007122021e+01
2.127079321631e+01
-1.812880548709e+01
1.475623760736e+01
1.953236638759e+01
9.939887598423e+00
2.174695734620e+01
2.163234149910e+01
1.503000590520e+01
1.469891713741e+01
2.625356989655e+01
1.554201541925e+01
2.208901605940e+01
2.509518399022e+00
9.605152018214e+00
2.145542147592e+01
1.880931560828e+00
1.930446332592e+01
2.359504310377e+01
8.260819136502e+00
2.265883065090e+01
2.630324701924e+01
2.268153547579e+01
2.125474696290e+01
2.117401290067e+01
2.067161494452e+01
2.225936320308e+01
1.835534297176e+01
2.266721294746e+01
2.348980057020e+01
2.107722257114e+01
2.309575946412e+01
2.462277194462e+01
2.402841794349e+01
9.823647685068e+00
2.146331987343e+01
1.316520566518e+01
2.091509171892e+01
2.267893397168e+01
2.170501479368e+01
1.851897165030e+01
-4.409998303186e+01
2.460244322153e+01
1.627271974030e+01
2.178265896496e+01
1.642211396857e+01
2.382511898196e+01
2.243178880824e+01
2.217251534797e+01
2.209832932807e+01
2.282356923045e+01
1.520059826851e+01
2.170559522161e+01
2.344898788825e+01
2.310589782496e+01
6.659754869924e+00
1.756435062672e+01
2.335360550830e+01
1.739116779107e+01
2.135799492028e+01
1.871737583210e+01
2.349553441080e+01
2.231272158929e+01
2.503184038804e+01
2.434523727035e+01
2.326229339536e+01
2.160090720778e+01
2.222609913688e+01
2.522821787514e+01
2.327592601987e+01
1.891959390640e+01
2.312627060775e+01
1.858129548840e+01
2.382646858678e+01
2.701639828210e+01
2.165910052243e+01
1.695811933980e+01
1.590142470775e+01
2.098768340558e+01
2.231087573192e+01
2.541669242108e+01
4.287861442103e+00
2.141645996993e+01
1.738256894379e+01
2.086536098340e+01
2.079931750438e+01
2.292211513997e+01
1.886494089339e+01
1.080306070827e+01
2.637882960227e+01
2.174171517000e+01
2.514138457617e+01
1.377121499970e+01
1.639589863065e+01
2.469567879261e+01
8.618375212343e+00
1.841690187044e+01
2.584854177111e+01
2.088325113104e+01
2.103771314555e+01
-3.652457392522e+01
2.333965182302e+01
2.141215054035e+01
1.942815501913e+01
2.514218295208e+01
2.391720281569e+01
8.609177987856e+00
1.954037072276e+01
2.075350918853e+01
1.993805234747e+01
1.935685906632e+01
2.053211556122e+01
1.923443459891e+01
-3.426263380932e+01
1.180519364464e+01
1.766160444745e+01
-5.775774197841e+01
1.904265038431e+01
2.361649405279e+01
1.573875809439e+01
2.584623497653e+01
2.582384499699e+01
7.079516757119e+00
-5.334582825216e+00
1.840172887572e+01
2.106598191943e+01
-5.033239792128e+01
9.147259466643e+00
-6.142676092456e+00
1.569683397134e+01
2.088416933387e+01
1.568772236164e+01
2.234382125608e+01
1.661968861915e+01
2.000992334246e+01
2.298588261982e+01
2.414404114681e+01
1.758556425996e+01
1.619089540043e+01
2.133008982197e+01
2.071256721931e+01
1.820552095794e+01
1.930964197197e+01
2.261999270394e+01
2.282917823992e+01
1.023159591441e+01
2.313101555289e+01
-1.508515296575e+00
1.903889273152e+01
1.942153501709e+01
-1.847660136241e+01
1.786724857507e+01
1.697564702589e+01
-5.221366317600e+01
-3.868147473076e+00
-2.542361418436e+00
2.512355193121e+01
1.614365200651e+01
2.035418404951e+01
2.089400693637e+01
2.168363628512e+01
2.175873772668e+01
1.480601360146e+01
1.983835254370e+01
9.951861875296e-01
1.466892066652e+01
-6.170798823906e+00
-5.941473708152e+00
-5.671479436884e+01
-1.871796277534e+01
1.923958362094e+00
1.442337059451e+01
-1.865244034278e+01
1.849998163874e+01
3.583177122404e+00
1.610911803364e+01
1.097135636719e+01
-5.408302949614e+00
2.041980763673e+01
2.344764523522e+01
8.600766041588e+00
1.663354700864e+01
-9.234479900021e-01
1.884488407929e+01
1.840928761586e+01
6.333198822060e+00
-6.334686482078e+00
1.680694876065e+01
1.833023811051e+01
1.542535795567e+01
-4.288886831616e+00
-6.105767979130e+00
1.136495878776e+01
2.013643091066e+01
1.832072748801e+01
-1.907092493507e+01
-5.638279387218e+01
4.632863007591e+00
1.968701343418e+01
2.092635450917e+01
1.155857627077e+01
1.477806273675e+01
4.931787084659e+00
2.531925704948e+01
-1.587057263953e+01
1.916344290981e+01
2.525712522744e+01
2.110479979692e+01
1.077199009791e+01
1.628308678220e+01
-1.861916910090e+01
2.011827015522e+01
1.846938686177e+01
1.827930051940e+01
-5.930213828083e+00
2.515564254201e+01
1.872448318169e+01
2.388781559925e+01
-1.464367089687e+00
-1.894388004509e+01
-1.975947118967e+01
1.747797993334e+01
2.082784421024e+01
1.747375488977e+01
-5.654449663693e+01
1.845565024486e+01
2.057832835799e+01
2.088934547265e+01
2.128417701375e+01
1.330659978049e+01
1.542692994567e+01
2.056687862441e+01
2.057734885137e+01
1.478198185089e+01
-5.311549747046e+01
-6.385947518587e+00
-6.022847232834e+00
-5.654470597596e+01
2.060438526033e+01
2.123048856167e+01
2.062277857807e+01
-5.343173311373e+01
-5.319766297557e+01
2.067705631075e+01
2.065010782266e+01
1.243087843910e+01
-6.428206597017e+00
1.408040420093e+01
7.149378547298e+00
-6.337457484837e+00
-4.816895975447e+01
-4.524881861789e+01
-4.497245833780e+01
-4.542255146862e+01
1.872098299042e+01
1.815913812302e+01
-5.631130870174e+01
1.978010685091e+01
-5.400422353137e+01
1.957523184958e+01
1.862629226615e+01
1.898300700071e+01
1.544634540437e+01
1.551276437752e+01
1.854844289751e+01
2.107581099609e+01
1.855311819192e+01
2.098124414888e+01
2.084671411617e+01
1.784184002332e+01
1.827524623563e+01
1.830738322146e+01
2.101041867337e+01
2.090728127346e+01
2.043730220870e+01
-1.788734427721e+01
1.862142946462e+01
-2.003868147422e+01
2.152607176508e+01
1.910642387672e+01
2.143007736209e+01
1.368793631326e+01
-1.571600285888e+00
2.118672847330e+01
1.896698223514e+01
1.716662198295e+01
2.131778268074e+01
1.645715931052e+01
1.709657270132e+01
2.318214135104e+01
2.209141608597e+01
2.096551945564e+01
2.105141333803e+01
2.636105823858e+01
1.597573582072e+01
2.413292664176e+01
2.097376518758e+01
2.119198172519e+01
2.121223392827e+01
1.436861890892e+01
1.635223341748e+01
1.520000476501e+01
3.687434283869e+00
2.175212150102e+01
2.094665019318e+01
1.645501225686e+01
1.585579187211e+01
2.083772983618e+01
2.104811065318e+01
1.486603504466e+01
2.099371782329e+01
2.129668055435e+01
1.634265781243e+01
1.276487312538e+01
2.307974582881e+01
1.399083173814e+01
1.401928162628e+01
1.209079947745e+00
2.259061940316e+00
1.582815016675e+01
2.111249469069e+01
-9.981733522470e+00
1.789795624616e+01
5.674237674966e+00
2.144038817478e+01
2.125950837698e+01
1.992373199080e+01
2.116207065979e+01
3.732705614086e+00
2.506184380444e+01
2.114067691225e+01
1.295824705014e+01
2.151844582174e+01
1.373207992656e+01
1.444741118709e+01
1.545273872581e+01
1.920307372914e+01
1.038476348295e+01
1.771925449585e+01
1.457348150957e+01
1.189902601000e+01
1.935186800488e+01
2.069350903735e+01
2.120796060256e+01
1.377175508997e+01
1.232143803539e+01
1.905493989690e+01
2.356919597747e+01
1.437706416183e+01
1.866358661734e+01
2.077656381091e+01
2.175053216577e+01
1.278507374148e+01
2.557046364592e+01
-3.321729312112e-01
2.411504472315e+01
2.126905997493e+01
1.168662071399e+01
1.949856664140e+01
7.452915006339e+00
2.269788843477e+01
1.938984255033e+01
2.141065214719e+01
1.372032509224e+01
2.144090817762e+01
1.930317292480e+01
1.430233046716e+01
1.900019879417e+01
1.814771801945e+01
1.611617696009e+01
1.953035630662e+01
-5.579854909929e+01
-5.444542696179e+01
2.026795810782e+01
1.341838696071e+01
2.080019310672e+01
2.076555180745e+01
1.860637681958e+01
1.858747184376e+01
1.553692883043e+01
2.383673986629e+01
1.824753733479e+01
2.252943302222e+01
1.101846362976e+01
9.258560675747e+00
5.801559987741e+00
1.083906123879e+01
2.206697985691e+01
1.328665532783e+01
1.302042739429e+01
1.605008614542e+01
1.613357028763e+01
1.482126718977e+01
1.999543062969e+01
1.468558178837e+01
2.103551288968e+01
1.945595932798e+01
1.736042504910e+01
1.559801135048e+01
2.089073620119e+01
2.162959655026e+01
1.186328400596e+01
2.153950473399e+01
1.332459451885e+01
1.941505096949e+01
1.166807577328e+01
1.417621114271e+01
2.685790314928e+01
1.503052705536e+01
1.874731295817e+01
1.934680076125e+01
1.768465400691e+01
1.754027919557e+01
1.254286954819e+01
2.069571903017e+01
1.556808701136e+01
5.510121371408e+00
1.251069913149e+01
1.521552539058e+01
2.158952333015e+01
1.354146904882e+01
2.166039043642e+01
2.152599494848e+01
1.858836405125e+01
1.409115976117e+01
7.237144689751e+00
2.150518069333e+01
1.072425151381e+01
4.987497683562e-02
1.764251020151e+01
1.415651688025e+01
1.038537041006e+01
1.810293427164e+01
2.190993731115e+01
1.745261377018e+01
1.516132734337e+01
1.664627239671e+01
2.221470378068e+01
1.378737415229e+01
2.154066847488e+01
1.907910693377e+01
2.192388057523e+01
2.548357120476e+01
1.220124217607e+01
7.906796283049e+00
2.459494972720e+01
2.193753888015e+01
1.069619232317e+01
1.536359919980e+01
1.115436630521e+01
1.398346071915e+01
2.179977053441e+01
2.459604956355e+01
2.455821135513e+01
1.670018610193e+01
2.124723414901e+01
1.146673085687e+01
2.175151336206e+01
2.192487639212e+01
1.937917389070e+01
2.149691121830e+01
1.350108046168e+01
1.924227023711e+01
2.161872924707e+01
7.115887825665e+00
1.546800426218e+01
1.715280088956e+01
2.276946756980e+01
2.219314482198e+01
1.932008396954e+01
2.316714779820e+01
1.230700449445e+01
9.233749999740e+00
8.488808877460e+00
1.912437740921e+01
2.240577964623e+01
2.195065589642e+01
7.521426661070e+00
1.857357329473e+01
2.405571186058e+01
2.247560895481e+01
1.422832861671e+01
1.780114685844e+01
1.749908734722e+01
1.252324535935e+01
2.265574100113e+01
1.790760012709e+01
1.137718457534e+01
1.008668175312e+01
2.648355680816e+01
1.683419515104e+01
2.607736533806e+01
1.729055107560e+01
1.782176136443e+01
1.313109628130e+01
2.278390161061e+01
2.032639464854e+01
1.497351053705e+01
2.144811442325e+01
2.315681925233e+01
2.159185935356e+01
2.487905036354e+01
1.385745286840e+01
2.229760026903e+01
2.200205552091e+01
2.256525253171e+01
1.829180745613e+01
2.243803330921e+01
1.138039066056e+01
1.817196305055e+01
2.225526428701e+01
1.676847702938e+01
1.724241695225e+01
1.810343249775e+01
1.588453301041e+01
1.517398457641e+01
2.024839106984e+01
2.281137319123e+01
2.181276838555e+01
-4.792132988550e+01
2.432953859409e+01
2.208769329824e+01
1.912502120565e+01
1.003797209577e+01
2.092113458206e+01
1.717918462626e+01
1.910258006626e+01
1.443120892238e+01
1.734456435577e+01
3.989909442991e+00
9.838769754326e+00
1.836539144532e+01
1.748407665515e+01
2.321128484618e+01
2.028765928359e+01
1.363732041719e+01
1.160570761759e+01
8.478191803071e+00
1.636668086880e+01
2.318683381581e+01
2.234320099124e+01
1.355802220148e+01
1.544791605132e+01
2.134707127576e+01
2.642586829440e+01
2.244495606190e+01
1.582095650723e+01
1.865512598056e+01
2.594258891963e+01
2.255925811818e+01
1.417968672271e+01
1.820776108081e+01
2.121828664673e+01
2.239915619213e+01
1.652667054766e+01
2.195103947797e+01
2.352457311289e+01
2.515473490093e+01
1.709611869467e+01
2.493087522283e+01
1.230090859572e+01
2.566111526280e+01
2.269659633515e+01
1.776914930328e+01
2.241165647821e+01
2.251245801999e+01
2.113526710271e+01
1.907232473320e+01
1.620684667232e+01
1.500630669852e+01
1.626801603662e+01
2.353083921126e+01
2.417935769927e+01
1.619477623269e+01
2.202957847294e+01
1.410828268235e+01
1.769443696097e+01
1.101916734426e+01
2.286665183443e+01
1.624702910705e+01
2.444600356764e+01
8.799511205569e+00
1.472964914579e+01
2.408727946943e+01
2.646690713096e+01
1.663793472116e+01
2.263072359398e+01
1.315847600006e+01
2.474554856850e+01
1.686582232061e+01
1.397149003448e+01
2.223656975868e+01
2.214860834038e+01
1.985215852254e+01
8.853757398928e+00
6.970860800256e+00
2.143130454477e+01
2.302212505911e+01
2.314077999802e+01
8.305821163721e+00
2.566853568087e+01
2.630353573331e+01
2.459467457657e+01
2.443530532145e+01
1.707481111211e+01
1.785797349586e+01
1.617858456350e+01
1.852733438045e+01
1.495213397947e+01
2.241732013550e+01
1.666117862750e+01
1.316833165931e+01
1.963559504599e+01
2.655114547937e+01
1.398440792623e+01
1.602343724663e+01
1.406270904714e+01
1.317029779334e+01
2.235518847330e+01
2.309524566689e+01
2.274758889316e+01
2.227169537413e+01
1.258345352725e+01
2.418817653565e+01
1.387268005036e+01
1.503777928370e+01
2.532422751038e+01
2.569859252050e+01
2.636946034402e+01
2.488916853811e+01
2.569659755975e+01
2.549299518487e+01
1.548139054320e+01
2.056383929337e+01
1.115866154084e+01
-7.182593932141e-01
2.903740791095e+01
2.097360513365e+01
2.438624067113e+01
1.799844273689e+01
2.696961425699e+01
2.138282652348e+01
1.119504417071e+01
2.946482465775e+01
2.485728469863e+01
2.634258698506e+01
1.531934705738e+01
2.270363221166e+01
2.090050912192e+01
2.278044001599e+01
2.258085435531e+01
2.534518600906e+01
1.402534360440e+01
2.332336061878e+01
2.230977730540e+01
2.968341064014e+01
1.220324375075e+01
2.299536373542e+01
1.477036381602e+01
2.637807907489e+01
2.620047180935e+01
1.960887261946e+01
2.562272397546e+01
1.548193179451e+01
1.576082699450e+01
2.882597652719e+01
2.316050022442e+01
1.674445570206e+01
1.877370747631e+01
2.236297038439e+01
1.312416800248e+01
1.958931223725e+01
2.328129041970e+01
2.469150125162e+01
1.461565851638e+01
2.034636391683e+01
1.780044659526e+01
2.678229616119e+01
1.888660036159e+01
2.520760227453e+01
2.199207171349e+01
2.670832700412e+01
1.235030593665e+01
2.522621192508e+01
2.216901410750e+01
1.647060963615e+01
1.689414100871e+01
2.487077292435e+01
2.347713059462e+01
2.337508690474e+01
2.206084044318e+01
1.452653689066e+01
2.297396116051e+01
1.216766866023e+01
1.806508997547e+01
1.475501324475e+01
1.552505453078e+01
2.416238916470e+01
2.200453247472e+01
1.405695157418e+01
2.667678807409e+01
2.112705754260e+01
2.244843312939e+01
2.550200290659e+01
1.652997224940e+01
2.395382530188e+01
1.516507871627e+01
2.418976275713e+01
2.448595797779e+01
1.668595635401e+01
1.734742396357e+01
2.461193213005e+01
1.541078894304e+01
2.667011481044e+01
2.208458380045e+01
1.928569891278e+01
1.948727283875e+01
2.086246498697e+00
-7.906184425037e-01
2.707491017446e+01
-1.091052481181e+00
2.537190823161e+01
2.552842672540e+01
2.607939576564e+01
2.377416459379e+01
2.690124040040e+01
1.608261898407e+01
1.854082922817e+01
2.227271032984e+01
2.326979496274e+01
2.447977704689e+01
1.552364380567e+01
2.674635156160e+01
2.170084600879e+01
1.476590161797e+01
1.500829314165e+01
2.574170485083e+01
2.683870442008e+01
2.197547987660e+01
1.797238996059e+01
2.202778086270e+01
2.443061718432e+01
2.442243044195e+01
2.155036281969e+01
2.144926072610e+01
1.411170036464e+01
2.624255866872e+01
2.231341186510e+01
2.408637014242e+01
1.542890841061e+01
2.153701790088e+01
1.126730010780e+01
2.343391372987e+01
2.645319703971e+01
2.377517169655e+01
2.433771114970e+01
1.659430256100e+01
2.112506790388e+01
2.642493852803e+01
2.518410551117e+01
2.337837169884e+01
2.460586448474e+01
2.609416292541e+01
2.583280674216e+01
2.318662649112e+01
2.382531813456e+01
2.664479363867e+01
1.580482345443e+01
2.132613546315e+01
1.687288411729e+01
2.325758164609e+01
1.450108442809e+01
1.093939837323e+01
1.957097538316e+01
2.366407089761e+01
2.205717060542e+01
1.334334666968e+01
1.735671129012e+01
1.290188301040e+01
2.562353653865e+01
2.289893102039e+01
1.660227455160e+01
2.569647902616e+01
2.524638323393e+01
2.587272878616e+01
1.439071777622e+01
2.048497022763e+01
2.559958506065e+01
2.045150841070e+01
2.439835391250e+01
2.244261488139e+01
2.587398834140e+01
2.416418934775e+01
1.765413190474e+01
1.900850958143e+01
2.513680507411e+01
2.296524109672e+01
1.347816697809e+01
2.236243734896e+01
2.581258421979e+01
2.598950296155e+01
2.121176266892e+01
2.278682553202e+01
2.485251921234e+01
2.228403459673e+01
2.034835635541e+01
2.272128261492e+01
2.415996322077e+01
1.151495276384e+01
2.004291255183e+01
2.671044192606e+01
2.153560758498e+01
2.514061716127e+01
2.640449385991e+01
2.305794591081e+01
2.345109828796e+01
2.279101649149e+01
2.421539479880e+01
2.075289309071e+01
2.254017199816e+01
2.491733597418e+01
2.197618830659e+01
1.715879913465e+01
2.212253841922e+01
2.379548084961e+01
2.619468225753e+01
2.308128243196e+01
2.127653128950e+01
1.918027951344e+01
2.294212458606e+01
1.221131452696e+01
2.178103741766e+01
2.241809076363e+01
-6.245737962498e+00
-6.254385005239e+00
1.609528383478e+01
2.317777203474e+01
2.000139620587e+01
1.943208938308e+01
2.579882095588e+01
2.290155741592e+01
2.645954656301e+01
1.878557208598e+01
8.182505296118e+00
2.500741969150e+01
2.124970845197e+01
2.475919547839e+01
1.925510337080e+01
2.318807600267e+01
2.092424515498e+01
1.262730845215e+01
1.995800415374e+01
1.977914615840e+01
1.041695493655e+01
1.951985596910e+01
1.972163734476e+01
1.707372844900e+01
1.719479223015e+01
2.333346930748e+01
1.272607536142e+01
2.288453780912e+01
2.346797713658e+01
1.900581254193e+01
6.317741554524e+00
4.347907561448e+00
1.287909605091e+01
2.215071024206e+01
2.025108435902e+01
2.397872466404e+01
2.476503790257e+01
2.185403077765e+01
1.604344063658e+01
1.959958968223e+01
2.195894713706e+01
1.613872034042e+00
2.409214139744e+01
2.351466525106e+01
1.123043223351e+00
1.608987490485e+01
2.384995157134e+01
1.805879952255e+01
2.194657067843e+01
2.499621599647e+01
2.436522918687e+01
1.672698493533e+01
2.414576975064e+01
2.443887259799e+01
2.376491423075e+01
3.256562346284e+01
2.501008240752e+01
2.282142587555e+01
1.201800527292e+01
2.297675630219e+01
2.483725619169e+01
1.693670577045e+01
2.234501020592e+01
4.446169427930e+00
2.270614557065e+01
2.173805033514e+01
2.394727041590e+01
2.035893486362e+01
2.002429095686e+01
1.768469926134e+01
2.390779389813e+01
2.217805625591e+01
2.666311677554e+01
2.366402571706e+01
2.540666046059e+01
2.585366214531e+01
2.619711814065e+01
2.616976364944e+01
1.867391446746e+01
2.525550623222e+01
2.043361638177e+01
2.350130162932e+01
2.407603143870e+01
2.615289313694e+01
1.195961375963e+01
2.168430119446e+01
2.151820205378e+01
2.149985854453e+01
2.079693172307e+01
2.122188226280e+01
1.792140407942e+01
1.980224927548e+01
3.363813606648e+01
2.145030158062e+01
2.599176763906e+01
1.927244066826e+01
2.494634166705e+01
1.235801936942e+01
1.135363924151e+01
2.378037476686e+01
1.908863391596e+01
9.806789275726e+00
2.134259689717e+01
2.395668419230e+01
2.541704092605e+01
2.463109797028e+01
2.624896548443e+01
2.526347361008e+01
8.061780190077e+00
9.703000146630e+00
-6.130486055790e+00
2.387134622858e+01
2.590521393943e+01
2.267132252664e+01
2.112988091484e+01
2.622479527365e+01
2.107470531965e+01
2.499710099092e+01
2.295998178686e+01
2.436119007129e+01
2.427873677650e+01
2.292911327312e+01
1.852531829956e+01
2.156569247394e+01
2.579858271214e+01
2.131569201193e+01
2.420141080175e+01
2.445545021397e+01
2.574462400408e+01
2.114002361770e+01
2.027229649260e+01
2.760510594407e+01
2.627853172125e+01
2.294057362722e+01
8.373678317576e+00
2.018116643074e+01
2.144519563057e+01
1.302954615777e+01
2.742250483515e+01
1.983015169453e+01
3.499586537224e+01
2.786101882870e+01
2.510895176741e+01
1.957113903978e+01
1.305416389707e+01
2.456469522490e+01
2.375612842668e+01
2.378963954531e+01
2.557734085184e+01
1.962689937722e+01
2.346833513309e+01
1.961960014314e+01
1.963447876785e+01
1.612055648693e+01
4.042557059295e+00
1.355944378827e+01
2.059516812247e+01
-1.290169611311e+00
1.348807621498e+01
1.262998410802e+01
1.959098088953e+01
2.542092594871e+01
2.390337869627e+01
2.475785692561e+01
2.015881849152e+01
1.573825218113e+01
1.968144969972e+01
2.631153973543e+01
2.146798834532e+01
4.383782204245e+00
2.418890042122e+01
1.964012832418e+01
1.980651834631e+01
2.660808011385e+01
2.516646446799e+01
1.973692536867e+01
1.142149847177e+01
9.079399028398e+00
2.688568118678e+01
2.017204278352e+01
2.232534395401e+01
2.207964009688e+01
2.274948005225e+01
1.166322511924e+01
2.284507493141e+01
2.599751970304e+01
2.026491260487e+01
1.970775781872e+01
1.490029444831e+01
6.184569363053e+00
1.983882205009e+01
2.448466904026e+01
1.984233796902e+01
2.473133070085e+01
1.596308480333e+01
2.381850781685e+01
2.340548898313e+01
2.449447028435e+01
2.021981197074e+01
1.988435783978e+01
2.577768331484e+01
6.086526457251e+00
2.724677211669e+01
2.030940736940e+01
2.327227631349e+01
2.053993411955e+01
2.173696396788e+01
1.919575460055e+01
2.057001392945e+01
2.178161457817e+01
9.395506387642e+00
1.848092830971e+01
2.057112756547e+01
2.467735673923e+00
2.233088931305e+01
2.430410803819e+01
2.557056963475e+01
5.408087369069e+00
3.499586537224e+01
1.677985512905e+01
1.494730523683e+01
3.907008566638e+00
2.217958690387e+01
1.320814871323e+01
2.216797393814e+01
1.450937890716e+01
1.990846620265e+01
2.451966960309e+01
2.186322006252e+01
2.194952503514e+01
2.050283660215e+01
1.677904871276e+01
2.106708384987e+01
2.382263232482e+01
2.098843796452e+01
7.960942427863e+00
2.529775555222e+01
1.621934283972e+01
1.844826964687e+01
1.878985389776e+01
2.487797066570e+01
1.877766686594e+01
2.563091827125e+01
2.788191748966e+01
1.750951072097e+01
2.443094337069e+01
2.627005148814e+01
2.142218982478e+01
1.962879512745e+01
2.185566647942e+01
1.331651273377e+01
2.159607370054e+01
2.604460741751e+01
2.338474584037e+01
1.911639567374e+01
2.352375071030e+01
1.928847074636e+01
2.442958671081e+01
2.242370803436e+01
2.444782584514e+01
2.161356363934e+01
2.583225946616e+01
2.469803618125e+01
2.498627311838e+01
1.072213250684e+01
1.673843108628e+01
2.238070422720e+01
2.469635416640e+01
2.169600557795e+01
1.569495563558e+01
1.695583701638e+01
1.597183359117e+01
-1.750714442061e+01
2.407594641888e+01
1.473586513174e+01
1.548196668614e+01
2.119112798507e+01
2.516284585197e+01
2.177691388253e+01
2.432775520430e+01
-6.357070991969e+00
2.111021861541e+01
1.346389092966e+01
2.346737498256e+01
2.551650455483e+01
1.187398935079e+01
1.790835176141e+01
2.601365293574e+01
3.789245175342e+00
2.505942139826e+01
2.031229386511e+01
1.707347909213e+01
1.095547636439e+01
1.923788965169e+01
2.035272409415e+01
2.359927716351e+01
1.913200611666e+01
1.494637780405e+01
2.617557877514e+01
1.014356796707e+01
9.231155508527e+00
2.203967342283e+01
1.990528597445e+01
5.466989537023e+00
1.763050248415e+01
2.066839475684e+01
2.476709163638e+01
2.287403041853e+01
2.235112812996e+01
8.197903419537e+00
1.404058768619e+01
1.936679519834e+01
1.793409106059e+01
2.348671601449e+01
2.678678657212e+01
2.841580461464e+01
5.151940193460e+00
2.465849082664e+01
1.592592635606e+01
2.391497897576e+01
2.100240304937e+01
2.112205427518e+01
2.333054587923e+01
6.638152211197e-01
7.232384524372e+00
2.884817867532e+01
1.842114060444e+01
2.768140735516e+01
2.578060124260e+01
2.168523849941e+01
2.334030301365e+01
2.072027190581e+01
1.623066538649e+01
2.197581968012e+01
1.682588767570e+01
1.517522537101e+01
1.826635998191e+01
2.080411343003e+01
5.582275198706e+00
2.089759248900e+01
2.759016932155e+01
2.091652736982e+01
2.059873589173e+01
3.152753116917e+01
2.995292510292e+01
2.323201363246e+01
9.714262237174e-01
1.693113412885e+01
2.071900651747e+01
2.321128777184e+01
1.873297042656e+01
6.169127729090e+00
1.694328133107e+01
1.780442016839e+01
1.233708288820e+01
2.316828652204e+01
-2.034209362897e+00
9.361960555589e-01
5.240295344307e+00
6.414089867366e+00
2.348458508519e+01
1.610455824879e+01
1.770649744885e+01
9.539438745419e+00
2.197605254073e+01
1.954509769116e+01
1.859799362944e+01
1.711796214268e+01
1.820487213997e+01
1.783608685805e+01
2.169411629948e+01
2.144460114543e+01
1.464649007652e+01
2.155531665780e+01
1.167989911326e+01
9.436587495310e-01
2.275943845045e+01
-4.920656305216e+00
-2.231013915201e+01
1.847573471458e+01
-6.730822225489e+00
1.761224006500e+01
2.225700180935e+01
-6.725889178685e+00
7.989280196179e+00
1.777362099079e+01
1.043434746133e+01
1.718533984344e+01
2.058589155057e+01
1.861535700780e+01
2.370930454892e+01
6.239465728114e+00
1.810016229425e+01
2.372493478476e+01
2.185763607118e+01
1.417016201777e+01
2.187834615147e+01
2.592939910632e+01
2.104071259859e+01
2.137007069559e+01
1.148251088812e+01
2.198829154379e+01
1.829718020383e+01
1.807182471705e+01
3.280663272748e-01
8.319720735906e+00
2.003227946138e+01
2.048359167996e+01
1.689279135524e+01
2.219136229860e+01
2.380863202902e+01
-6.672086759230e+00
1.793220477360e+01
1.823054611204e+01
1.847947455536e+01
-5.197032853915e+01
-5.176092335532e+01
-5.158912528144e+00
-6.502713536591e+00
2.057365364521e+01
2.074535304720e+01
-2.270806324958e+01
8.556981501163e+00
2.099687210318e+01
2.272235280828e+01
1.457859094156e+01
2.118861386454e+01
1.959012189791e+01
1.899355661813e+01
1.088035806129e+01
1.544936253243e+01
2.443835580313e+01
8.753556493848e+00
1.865334096784e+01
2.030754104914e+01
1.654034192456e+01
1.892155015127e+01
8.073679726990e+00
2.226083422866e+01
1.968243983964e+01
1.915557514301e+01
-6.489177169877e+00
2.512795255086e+01
1.825070255982e+01
1.475266764263e+01
-2.441722411464e+01
2.180754669118e+01
2.373073636931e+01
1.517611133811e+01
1.240737932902e+01
2.077602837855e+01
2.247819061329e+01
2.249419802382e+01
1.987076556241e+01
2.446149235538e+01
3.106705888495e+01
1.903148875747e+01
6.124212045178e+00
2.505021097168e+01
1.718562178056e+01
2.173776105989e+01
7.511624193870e+00
-1.908857491607e+00
2.971327494283e+01
1.294081102941e+01
1.672261293772e+01
1.764297765956e+01
1.571412001654e+01
2.252872121301e+01
4.811842427599e+00
2.183695160317e+01
2.332017774127e+01
7.036219794016e+00
2.181680047370e+01
1.822718976637e+01
1.764459542460e+01
2.890990702673e+01
1.719153517727e+01
2.165399607234e+01
2.281120820434e+01
2.338866919349e+01
2.061490323263e+01
1.879397351744e+01
9.818368450382e+00
2.198255807947e+01
1.955300519443e+01
8.562518343734e+00
2.091281224633e+01
2.276505274808e+01
2.090499516527e+01
1.456394148176e+01
2.176160034452e+01
2.174173752461e+01
2.191608966996e+01
1.674155094393e+01
2.094443341949e+01
7.781034880545e-01
1.687484071766e+01
4.442625481316e-01
1.607015782262e+01
1.253089921384e+01
-4.754250883756e-01
2.292988450475e+01
1.988099947367e+01
1.790663252925e+01
1.703193925359e+01
2.250485527435e+01
7.845319594192e+00
-2.500583064914e+01
2.354333492636e+01
-1.633225740881e+01
5.471572182591e+00
3.499586537224e+01
1.850353387395e+01
2.096021586684e+01
1.861430374722e+01
1.018297935366e+01
1.812095255836e+01
2.165291040943e+01
2.271133629939e+01
2.253952752440e+01
2.169218748383e+01
2.045555652718e+01
-1.858075277481e+00
2.198000406596e+01
2.103854066837e+01
1.638688270041e+00
6.730765023523e+00
2.817805634715e+01
-6.379825663204e+00
2.121738043324e+01
2.118597917147e+01
1.724087201832e+01
2.189658312134e+01
2.273551765864e+01
9.590606575114e+00
1.918650449284e+01
1.993259002585e+01
-6.979823863872e+00
1.395348994720e+01
-2.045205557080e+01
2.086223643618e+01
4.190697512101e+00
8.820437615499e+00
1.825596952111e+01
2.108328609797e+01
1.710345663066e+01
1.870465463834e+01
1.588721029724e+01
1.973028290155e+01
2.128833377043e+01
1.826862556468e+01
2.081308503929e+01
-3.297769450452e-02
2.205073194924e+01
1.061318227967e+01
1.770167149410e+01
-2.274181156355e+01
2.135628254475e+01
1.853179204058e+01
1.704373831373e+01
2.255470892305e+01
1.380526401919e+01
1.791042199243e+01
2.117962993225e+01
1.141709272599e+01
2.104714758256e+01
1.792541816845e+01
1.262600487658e+01
2.060968688513e+01
1.730686325479e+01
-6.712231619296e+00
2.257863876496e+01
1.783786630091e+01
-5.810984798533e+01
-6.431049927363e+00
2.075635292043e+01
1.002481339302e+01
2.291975040672e+01
1.818473375423e+01
1.767189405275e+01
1.368347195018e+01
2.421909096363e+01
1.919001480088e+01
1.539452555630e+01
1.085194206008e+01
1.839524172121e+01
1.074748627634e+01
1.478033260011e+01
8.797820496316e+00
2.238934010554e+01
1.936211840211e+01
3.499586537224e+01
1.684893267409e+01
1.886445379561e+01
1.948356883985e+01
2.247305299514e+01
1.866915263800e+01
1.894061390568e+01
-6.391011747929e+00
2.134867420984e+01
2.191969073241e+01
2.349528940662e+01
1.784275949078e+01
2.072490933247e+01
3.369197672306e-01
1.069409593575e+01
1.866690511711e+01
1.881102851472e+01
1.897943243075e+01
2.303067927585e+01
1.232826881078e+01
2.180260626060e+01
5.096413629602e+00
1.804572399900e+01
2.272438155416e+01
8.779139261945e+00
2.025499345379e+01
2.256599472271e+01
2.253629605486e+01
3.160951108038e+01
2.024187395547e+01
2.089667468022e+01
-6.607540189879e+00
1.843405139254e+01
2.965627749995e+01
2.034968910656e+01
-2.448385685237e+01
-2.565233871093e+01
-2.508464918276e+01
-2.548757294807e+01
-2.509441984522e+01
-2.547444136746e+01
-2.505759137708e+01
-2.560900423294e+01
-2.478170297420e+01
-2.586870425464e+01
-2.464901669464e+01
-2.627174993156e+01
-2.432614598082e+01
-4.823298180946e+00
-2.680822131478e+01
-2.401620614653e+01
-1.544500090061e+01
-2.728568197369e+01
-2.338929684557e+01
5.021315691392e-02
-2.800218425639e+01
-2.263719052455e+01
-2.895440760373e+01
-2.049998605329e+01
-2.983593084049e+01
1.134070540122e+01
-1.779519645864e+01
-3.039483284745e+01
-3.007204058893e+01
-1.444761353911e+01
-2.733928498333e+01
-1.025252532706e+01
-2.151006074837e+01
-7.456371951684e+00
1.955614757292e+01
-2.282872774894e+01
-2.427703967825e+01
-2.377322388747e+01
-2.245921492591e+01
1.761671167258e+01
-1.830196420021e+01
-1.790602576949e+01
-1.791991103546e+01
-1.804011340771e+01
-1.785856872101e+01
-1.779278177364e+01
-1.778852543354e+01
-1.736120613677e+01
-1.767715498829e+01
-1.713964804466e+01
-1.756906428830e+01
-1.668329588693e+01
-3.772571258883e+00
-1.738343679917e+01
-4.260045981152e+00
-1.586533694099e+01
-1.717643248869e+01
-1.561094001930e+01
-1.679486167933e+01
-1.472806718529e+01
-1.617822813545e+01
-1.361290445551e+01
-7.918030878083e+00
-1.553804092176e+01
-1.226179183288e+01
-1.445133259982e+01
-1.025511071433e+01
-7.544326001368e+00
-1.282429778542e+01
-1.044057896768e+01
-8.933358397616e-01
-2.556216334534e+00
-1.755790716502e+01
-1.713394435675e+01
-1.567169036715e+01
-1.945014292257e+01
-9.824399506193e-01


