# vtk DataFile Version 2.0
Calculation C:\Users\NickSteudtner\Documents\GitHub\TOCHNOG\standsicherheit_phiC at time 1.000000000000e+01 
ASCII
DATASET UNSTRUCTURED_GRID
Field FieldData 1
Time 1 1 double
1.000000000000e+01

POINTS 1047 float
0.0 0.0 0.0 
5.000000000000e+01 -1.000000000000e+01 0.0 
0.0 -2.000000000000e+01 0.0 
5.000000000000e+01 -2.000000000000e+01 0.0 
0.0 -9.999999999991e-01 0.0 
0.0 -1.999999999998e+00 0.0 
0.0 -2.999999999997e+00 0.0 
0.0 -3.999999999994e+00 0.0 
0.0 -4.999999999991e+00 0.0 
0.0 -5.999999999988e+00 0.0 
0.0 -6.999999999985e+00 0.0 
0.0 -7.999999999982e+00 0.0 
0.0 -8.999999999983e+00 0.0 
0.0 -9.999999999985e+00 0.0 
0.0 -1.099999999999e+01 0.0 
0.0 -1.199999999999e+01 0.0 
0.0 -1.299999999999e+01 0.0 
0.0 -1.399999999999e+01 0.0 
0.0 -1.499999999999e+01 0.0 
0.0 -1.599999999999e+01 0.0 
0.0 -1.700000000000e+01 0.0 
0.0 -1.800000000000e+01 0.0 
0.0 -1.900000000000e+01 0.0 
4.900000000001e+01 -2.000000000000e+01 0.0 
4.800000000001e+01 -2.000000000000e+01 0.0 
4.700000000002e+01 -2.000000000000e+01 0.0 
4.600000000003e+01 -2.000000000000e+01 0.0 
4.500000000004e+01 -2.000000000000e+01 0.0 
4.400000000004e+01 -2.000000000000e+01 0.0 
4.300000000005e+01 -2.000000000000e+01 0.0 
4.200000000006e+01 -2.000000000000e+01 0.0 
4.100000000006e+01 -2.000000000000e+01 0.0 
4.000000000007e+01 -2.000000000000e+01 0.0 
3.900000000008e+01 -2.000000000000e+01 0.0 
3.800000000009e+01 -2.000000000000e+01 0.0 
3.700000000009e+01 -2.000000000000e+01 0.0 
3.600000000010e+01 -2.000000000000e+01 0.0 
3.500000000011e+01 -2.000000000000e+01 0.0 
3.400000000011e+01 -2.000000000000e+01 0.0 
3.300000000012e+01 -2.000000000000e+01 0.0 
3.200000000013e+01 -2.000000000000e+01 0.0 
3.100000000013e+01 -2.000000000000e+01 0.0 
3.000000000013e+01 -2.000000000000e+01 0.0 
2.900000000013e+01 -2.000000000000e+01 0.0 
2.800000000013e+01 -2.000000000000e+01 0.0 
2.700000000013e+01 -2.000000000000e+01 0.0 
2.600000000013e+01 -2.000000000000e+01 0.0 
2.500000000013e+01 -2.000000000000e+01 0.0 
2.400000000013e+01 -2.000000000000e+01 0.0 
2.300000000013e+01 -2.000000000000e+01 0.0 
2.200000000013e+01 -2.000000000000e+01 0.0 
2.100000000013e+01 -2.000000000000e+01 0.0 
2.000000000013e+01 -2.000000000000e+01 0.0 
1.900000000013e+01 -2.000000000000e+01 0.0 
1.800000000013e+01 -2.000000000000e+01 0.0 
1.700000000012e+01 -2.000000000000e+01 0.0 
1.600000000011e+01 -2.000000000000e+01 0.0 
1.500000000011e+01 -2.000000000000e+01 0.0 
1.400000000010e+01 -2.000000000000e+01 0.0 
1.300000000009e+01 -2.000000000000e+01 0.0 
1.200000000009e+01 -2.000000000000e+01 0.0 
1.100000000008e+01 -2.000000000000e+01 0.0 
1.000000000007e+01 -2.000000000000e+01 0.0 
9.000000000064e+00 -2.000000000000e+01 0.0 
8.000000000057e+00 -2.000000000000e+01 0.0 
7.000000000050e+00 -2.000000000000e+01 0.0 
6.000000000043e+00 -2.000000000000e+01 0.0 
5.000000000036e+00 -2.000000000000e+01 0.0 
4.000000000028e+00 -2.000000000000e+01 0.0 
3.000000000021e+00 -2.000000000000e+01 0.0 
2.000000000014e+00 -2.000000000000e+01 0.0 
1.000000000007e+00 -2.000000000000e+01 0.0 
5.000000000000e+01 -1.100000000000e+01 0.0 
5.000000000000e+01 -1.200000000000e+01 0.0 
5.000000000000e+01 -1.300000000000e+01 0.0 
5.000000000000e+01 -1.400000000000e+01 0.0 
5.000000000000e+01 -1.500000000000e+01 0.0 
5.000000000000e+01 -1.600000000000e+01 0.0 
5.000000000000e+01 -1.700000000000e+01 0.0 
5.000000000000e+01 -1.800000000000e+01 0.0 
5.000000000000e+01 -1.900000000000e+01 0.0 
2.000000000000e+01 0.0 0.0 
3.500000000000e+01 -1.000000000000e+01 0.0 
2.150000000000e+01 -1.000000000000e+00 0.0 
2.300000000000e+01 -2.000000000000e+00 0.0 
2.450000000000e+01 -3.000000000000e+00 0.0 
2.600000000000e+01 -4.000000000000e+00 0.0 
2.750000000000e+01 -5.000000000000e+00 0.0 
2.900000000000e+01 -6.000000000000e+00 0.0 
3.050000000000e+01 -7.000000000000e+00 0.0 
3.200000000000e+01 -8.000000000000e+00 0.0 
3.350000000000e+01 -9.000000000000e+00 0.0 
5.000000000000e+01 -9.000000000000e+00 0.0 
4.900000000000e+01 -1.000000000000e+01 0.0 
4.800000000000e+01 -1.000000000000e+01 0.0 
4.700000000000e+01 -1.000000000000e+01 0.0 
4.600000000000e+01 -1.000000000000e+01 0.0 
4.500000000000e+01 -1.000000000000e+01 0.0 
4.400000000000e+01 -1.000000000000e+01 0.0 
4.300000000000e+01 -1.000000000000e+01 0.0 
4.200000000000e+01 -1.000000000000e+01 0.0 
4.100000000000e+01 -1.000000000000e+01 0.0 
4.000000000000e+01 -1.000000000000e+01 0.0 
3.900000000000e+01 -1.000000000000e+01 0.0 
3.800000000000e+01 -1.000000000000e+01 0.0 
3.700000000000e+01 -1.000000000000e+01 0.0 
3.600000000000e+01 -1.000000000000e+01 0.0 
1.900000000000e+01 0.0 0.0 
1.800000000000e+01 0.0 0.0 
1.700000000000e+01 0.0 0.0 
1.600000000000e+01 0.0 0.0 
1.500000000000e+01 0.0 0.0 
1.400000000000e+01 0.0 0.0 
1.300000000000e+01 0.0 0.0 
1.200000000000e+01 0.0 0.0 
1.100000000000e+01 0.0 0.0 
1.000000000000e+01 0.0 0.0 
9.000000000000e+00 0.0 0.0 
8.000000000000e+00 0.0 0.0 
7.000000000000e+00 0.0 0.0 
6.000000000000e+00 0.0 0.0 
5.000000000000e+00 0.0 0.0 
4.000000000000e+00 0.0 0.0 
3.000000000000e+00 0.0 0.0 
2.000000000000e+00 0.0 0.0 
1.000000000000e+00 0.0 0.0 
3.447058823527e+01 -9.000000000000e+00 0.0 
3.544117647055e+01 -9.000000000000e+00 0.0 
3.641176470582e+01 -9.000000000000e+00 0.0 
3.738235294109e+01 -9.000000000000e+00 0.0 
3.835294117637e+01 -9.000000000000e+00 0.0 
3.932352941164e+01 -9.000000000000e+00 0.0 
4.029411764691e+01 -9.000000000000e+00 0.0 
4.126470588219e+01 -9.000000000000e+00 0.0 
4.223529411748e+01 -9.000000000000e+00 0.0 
4.320588235279e+01 -9.000000000000e+00 0.0 
4.417647058811e+01 -9.000000000000e+00 0.0 
4.514705882342e+01 -9.000000000000e+00 0.0 
4.611764705874e+01 -9.000000000000e+00 0.0 
4.708823529405e+01 -9.000000000000e+00 0.0 
4.805882352937e+01 -9.000000000000e+00 0.0 
4.902941176468e+01 -9.000000000000e+00 0.0 
2.075000000000e+01 -5.000000000006e-01 0.0 
2.225000000000e+01 -1.500000000000e+00 0.0 
2.375000000000e+01 -2.500000000000e+00 0.0 
2.525000000000e+01 -3.500000000000e+00 0.0 
2.675000000000e+01 -4.500000000000e+00 0.0 
2.825000000000e+01 -5.500000000000e+00 0.0 
2.975000000000e+01 -6.500000000000e+00 0.0 
3.125000000000e+01 -7.500000000000e+00 0.0 
3.275000000000e+01 -8.500000000000e+00 0.0 
3.425000000000e+01 -9.500000000000e+00 0.0 
2.226951693683e+01 -2.403913980114e+00 0.0 
1.650149491944e+01 -1.913490915758e+01 0.0 
1.050042386896e+01 -8.504605092970e-01 0.0 
1.553146524712e+01 -8.281255032105e-01 0.0 
1.150000000008e+01 -1.913397459621e+01 0.0 
2.530060260647e+01 -4.428336431260e+00 0.0 
8.651114563942e-01 -1.052096295641e+01 0.0 
2.050000000013e+01 -1.913397459622e+01 0.0 
2.819198729811e+01 -6.399519052838e+00 0.0 
2.445670302931e+01 -1.915649188023e+01 0.0 
3.117591465718e+01 -8.394293040695e+00 0.0 
7.465053044742e+00 -1.920411160581e+01 0.0 
6.398295709691e+00 -8.230098819370e-01 0.0 
2.849659607461e+01 -1.914296187762e+01 0.0 
3.418732642882e+01 -1.040265792588e+01 0.0 
8.386450935063e-01 -6.533605142809e+00 0.0 
9.178661865596e-01 -1.329769195597e+01 0.0 
3.149448624493e+01 -1.910466733764e+01 0.0 
3.552916747426e+01 -1.914628590759e+01 0.0 
4.449210346537e+01 -1.914359085008e+01 0.0 
4.140975975145e+01 -1.906941860733e+01 0.0 
3.847475958753e+01 -1.916622382724e+01 0.0 
3.653774794640e+01 -1.088712800241e+01 0.0 
4.047886341787e+01 -1.090139014048e+01 0.0 
4.348006339825e+01 -1.092792621489e+01 0.0 
4.919519968029e+01 -1.451526755068e+01 0.0 
4.500000000032e+00 -1.913397459621e+01 0.0 
1.856136921614e+01 -8.212235170404e-01 0.0 
3.499895312306e+00 -8.661165539723e-01 0.0 
9.076088696565e-01 -1.642306201891e+01 0.0 
4.655174095477e+01 -1.086183387525e+01 0.0 
9.430688970604e-01 -3.496112672958e+00 0.0 
3.353992337063e+01 -1.901202090820e+01 0.0 
2.249746016977e+01 -1.921262287282e+01 0.0 
2.650122741777e+01 -1.916123026018e+01 0.0 
1.863571384842e+01 -1.908325534840e+01 0.0 
1.450089971693e+01 -1.917691901860e+01 0.0 
1.350044695317e+01 -8.659695299584e-01 0.0 
3.849987469880e+01 -1.084154983397e+01 0.0 
9.454419857884e+00 -1.900818879936e+01 0.0 
4.917398660523e+01 -1.645692866081e+01 0.0 
8.500000000000e+00 -8.660254037844e-01 0.0 
8.660319230785e-01 -8.500111697188e+00 0.0 
4.649022621545e+01 -1.930506220113e+01 0.0 
2.667688107845e+01 -5.420288124331e+00 0.0 
2.379251615665e+01 -3.412225477429e+00 0.0 
2.966631491830e+01 -7.389030232731e+00 0.0 
3.267915035995e+01 -9.396934932445e+00 0.0 
2.074836922338e+01 -1.320054020319e+00 0.0 
4.915985743621e+01 -1.261973384855e+01 0.0 
2.527129768623e+00 -1.931592414663e+01 0.0 
1.538676247410e+00 -8.436956619311e-01 0.0 
4.908096641539e+01 -1.842484004551e+01 0.0 
3.478612492673e+01 -1.090889364140e+01 0.0 
3.409757055860e+01 -1.131991530427e+01 0.0 
3.501895309466e+01 -1.177687842717e+01 0.0 
3.407758073088e+01 -1.224293381580e+01 0.0 
3.484541875390e+01 -1.277051428430e+01 0.0 
3.400322025842e+01 -1.319022775640e+01 0.0 
3.321672625034e+01 -1.266779191233e+01 0.0 
3.315244139236e+01 -1.360984106532e+01 0.0 
3.236335186892e+01 -1.308463225210e+01 0.0 
3.478337442841e+01 -1.372341158982e+01 0.0 
3.230105923633e+01 -1.403023731610e+01 0.0 
3.150954055289e+01 -1.350301767700e+01 0.0 
3.144604792090e+01 -1.444931742516e+01 0.0 
3.065653897123e+01 -1.392357262981e+01 0.0 
3.071897610812e+01 -1.297447031198e+01 0.0 
2.986790411740e+01 -1.339226181535e+01 0.0 
2.993181466745e+01 -1.244703272398e+01 0.0 
2.908023061869e+01 -1.286254537734e+01 0.0 
2.901619051372e+01 -1.380881655279e+01 0.0 
2.822986160390e+01 -1.327695262116e+01 0.0 
2.829453476870e+01 -1.233265343811e+01 0.0 
2.744542905518e+01 -1.274510491105e+01 0.0 
2.751120089246e+01 -1.180368086886e+01 0.0 
2.666218649885e+01 -1.221619339205e+01 0.0 
2.672371209234e+01 -1.127125228527e+01 0.0 
2.587763216302e+01 -1.168539979114e+01 0.0 
2.581165585299e+01 -1.262994410089e+01 0.0 
2.502890882577e+01 -1.209827323619e+01 0.0 
2.509631327757e+01 -1.115492410304e+01 0.0 
2.424662989877e+01 -1.156630981079e+01 0.0 
2.431704046904e+01 -1.062389179334e+01 0.0 
2.346445438728e+01 -1.103427680694e+01 0.0 
2.339382552877e+01 -1.197964871788e+01 0.0 
2.260936050780e+01 -1.144513277642e+01 0.0 
2.268075012022e+01 -1.049911928216e+01 0.0 
2.182525737661e+01 -1.090920811464e+01 0.0 
2.189682319817e+01 -9.961716944568e+00 0.0 
2.104174127792e+01 -1.037266986667e+01 0.0 
2.111304367575e+01 -9.424179358711e+00 0.0 
2.025306185381e+01 -9.832727364719e+00 0.0 
2.018141124247e+01 -1.079140628871e+01 0.0 
1.938594498257e+01 -1.025147354112e+01 0.0 
1.946106490453e+01 -9.288010758448e+00 0.0 
1.858929958352e+01 -9.706319802516e+00 0.0 
1.851540991219e+01 -1.067205988724e+01 0.0 
1.771485303178e+01 -1.012504443115e+01 0.0 
1.764134552256e+01 -1.109360378538e+01 0.0 
1.683745148095e+01 -1.054496365337e+01 0.0 
1.691852964353e+01 -9.582555261178e+00 0.0 
1.603603813062e+01 -1.000160132379e+01 0.0 
1.595824239350e+01 -1.096750698862e+01 0.0 
1.515080624291e+01 -1.041639501931e+01 0.0 
1.523171602559e+01 -9.451711491453e+00 0.0 
1.434621060709e+01 -9.871956467464e+00 0.0 
1.426777178765e+01 -1.083749501371e+01 0.0 
1.345775282374e+01 -1.028803175500e+01 0.0 
1.354103873368e+01 -9.324918457162e+00 0.0 
1.265072018622e+01 -9.742612837270e+00 0.0 
1.257285762070e+01 -1.071557782384e+01 0.0 
1.175874815690e+01 -1.015972324288e+01 0.0 
1.184203019714e+01 -9.193604071377e+00 0.0 
1.094927709905e+01 -9.612103238656e+00 0.0 
1.086938022910e+01 -1.058685085646e+01 0.0 
1.005424098961e+01 -1.002939116380e+01 0.0 
9.977974613295e+00 -1.101324897989e+01 0.0 
1.012915646404e+01 -9.051815821181e+00 0.0 
9.237127782494e+00 -9.471239055559e+00 0.0 
9.308426593771e+00 -8.483376461131e+00 0.0 
8.418806073345e+00 -8.910712374517e+00 0.0 
2.253688464062e+01 -1.239459402279e+01 0.0 
8.495126726666e+00 -7.921646665254e+00 0.0 
9.389727383206e+00 -7.512103628377e+00 0.0 
7.601560812974e+00 -8.349460349344e+00 0.0 
7.525680547759e+00 -9.339736686940e+00 0.0 
7.677888324502e+00 -7.359727833346e+00 0.0 
6.782001206724e+00 -7.788454494773e+00 0.0 
6.858778622885e+00 -6.797338062822e+00 0.0 
2.196596590865e+01 -8.979025665442e+00 0.0 
2.816540108272e+01 -1.422634142353e+01 0.0 
5.961601194403e+00 -7.226824010712e+00 0.0 
6.038171749656e+00 -6.234825887079e+00 0.0 
6.936257279557e+00 -5.805287640737e+00 0.0 
6.115068918323e+00 -5.242109758768e+00 0.0 
3.564391741903e+01 -1.329240553876e+01 0.0 
3.558115605778e+01 -1.425902892003e+01 0.0 
3.645445282201e+01 -1.381970786460e+01 0.0 
3.639744204358e+01 -1.479198128612e+01 0.0 
3.727266909778e+01 -1.435399586226e+01 0.0 
5.216667013081e+00 -5.671788584287e+00 0.0 
3.220697293295e+01 -1.499594545107e+01 0.0 
3.551112158269e+01 -1.523479869250e+01 0.0 
2.836056961467e+01 -1.139032434851e+01 0.0 
2.516730388602e+01 -1.021382726837e+01 0.0 
1.844436907403e+01 -1.164097215196e+01 0.0 
5.885434318740e+00 -8.218694781467e+00 0.0 
5.064071066867e+00 -7.656614643901e+00 0.0 
4.988089103470e+00 -8.649722082718e+00 0.0 
1.079421050408e+01 -1.157014985435e+01 0.0 
9.902420005256e+00 -1.199903342656e+01 0.0 
1.071994252214e+01 -1.255727909771e+01 0.0 
9.826974788171e+00 -1.298659581767e+01 0.0 
1.064607883789e+01 -1.354595476388e+01 0.0 
9.751541265343e+00 -1.397556905071e+01 0.0 
8.932296185869e+00 -1.341553353988e+01 0.0 
8.856399248106e+00 -1.440570715508e+01 0.0 
8.036186803543e+00 -1.384470558472e+01 0.0 
1.057112875118e+01 -1.453516759081e+01 0.0 
1.146582585687e+01 -1.410539926903e+01 0.0 
7.959894480382e+00 -1.483563350928e+01 0.0 
7.138792279156e+00 -1.427465094140e+01 0.0 
7.062506792418e+00 -1.526615385482e+01 0.0 
6.240693558277e+00 -1.470508863040e+01 0.0 
6.316957575451e+00 -1.371212581281e+01 0.0 
5.418183007107e+00 -1.414253605022e+01 0.0 
5.494748364428e+00 -1.314886770603e+01 0.0 
1.756825565873e+01 -1.206433872514e+01 0.0 
1.837565773345e+01 -1.261356468266e+01 0.0 
1.749574831391e+01 -1.303769280014e+01 0.0 
1.830539187332e+01 -1.358828364284e+01 0.0 
1.742278925170e+01 -1.401367746928e+01 0.0 
1.823303007798e+01 -1.456432294258e+01 0.0 
1.734941694138e+01 -1.499213734361e+01 0.0 
1.653760041637e+01 -1.443920312098e+01 0.0 
3.056237977307e+01 -1.487132260174e+01 0.0 
1.866469084762e+01 -8.742953000418e+00 0.0 
1.953669694916e+01 -8.326038909849e+00 0.0 
1.874194303780e+01 -7.780688158966e+00 0.0 
1.961032016741e+01 -7.366854697285e+00 0.0 
1.881715755159e+01 -6.821102209649e+00 0.0 
1.968369797150e+01 -6.407747217358e+00 0.0 
1.889237123259e+01 -5.858375520026e+00 0.0 
1.802038875366e+01 -6.276202618170e+00 0.0 
1.809793837984e+01 -5.307629520489e+00 0.0 
1.721985207997e+01 -5.728242054488e+00 0.0 
1.729850893523e+01 -4.756990819347e+00 0.0 
1.641745664240e+01 -5.174636548624e+00 0.0 
2.495978509456e+01 -1.304406404294e+01 0.0 
1.911567814831e+01 -1.413854250293e+01 0.0 
1.904387332608e+01 -1.511463127723e+01 0.0 
1.992115934240e+01 -1.468788025898e+01 0.0 
7.013706899628e+00 -4.812582868662e+00 0.0 
5.342091874585e+00 -1.513658157269e+01 0.0 
1.139098043784e+01 -1.509488509480e+01 0.0 
1.228151810610e+01 -1.465617481983e+01 0.0 
1.646373110164e+01 -1.541993323337e+01 0.0 
5.293328636712e+00 -4.678385108584e+00 0.0 
1.975965862987e+01 -5.448124345648e+00 0.0 
2.054318374236e+01 -5.992561293251e+00 0.0 
3.721453439063e+01 -1.533216152738e+01 0.0 
3.809302733893e+01 -1.489235527381e+01 0.0 
1.220852788900e+01 -1.565304565230e+01 0.0 
4.394120899730e+00 -5.108397613210e+00 0.0 
8.779354620288e+00 -1.539524721159e+01 0.0 
1.817791047702e+01 -4.338570146253e+00 0.0 
4.518860013839e+00 -1.457343189307e+01 0.0 
4.442712140414e+00 -1.556841391069e+01 0.0 
8.115343466391e+00 -1.285760324283e+01 0.0 
1.985334703171e+01 -1.566478400426e+01 0.0 
2.071953850276e+01 -1.522074243119e+01 0.0 
1.634012953883e+01 -6.154777738301e+00 0.0 
1.553479994708e+01 -5.593730508879e+00 0.0 
1.561265946942e+01 -4.617761762647e+00 0.0 
1.470674212978e+01 -5.064576488228e+00 0.0 
1.464498299883e+01 -6.026514471420e+00 0.0 
1.383271561817e+01 -5.467796261169e+00 0.0 
1.389241253067e+01 -4.504338666645e+00 0.0 
1.301868735463e+01 -4.907185188626e+00 0.0 
1.294514184846e+01 -5.888160903592e+00 0.0 
1.212955968622e+01 -5.328262335277e+00 0.0 
1.220721122383e+01 -4.341264976687e+00 0.0 
1.131324345897e+01 -4.766773516508e+00 0.0 
5.266597955397e+00 -1.613148974258e+01 0.0 
1.737805990867e+01 -3.786677807525e+00 0.0 
3.078438094513e+01 -1.203225297748e+01 0.0 
1.131569882285e+01 -1.608511932110e+01 0.0 
1.728478341782e+01 -1.596017432313e+01 0.0 
3.803465906019e+01 -1.587509751228e+01 0.0 
3.891681276677e+01 -1.543395196905e+01 0.0 
3.897340985302e+01 -1.444710288980e+01 0.0 
3.980095968193e+01 -1.499059496613e+01 0.0 
3.974334598189e+01 -1.597921884150e+01 0.0 
4.062964983717e+01 -1.553518690417e+01 0.0 
4.068729602479e+01 -1.454434445295e+01 0.0 
4.151772679790e+01 -1.508974196007e+01 0.0 
4.157505195739e+01 -1.409694289912e+01 0.0 
4.240699932656e+01 -1.464347955968e+01 0.0 
4.234898051011e+01 -1.563721375790e+01 0.0 
4.323934606035e+01 -1.519082036405e+01 0.0 
4.329740528208e+01 -1.419587509788e+01 0.0 
4.413056841369e+01 -1.474359631875e+01 0.0 
4.418850110108e+01 -1.374786684042e+01 0.0 
4.502219770667e+01 -1.429605103525e+01 0.0 
4.496411937907e+01 -1.529215882720e+01 0.0 
4.490027319897e+00 -4.154167794594e+00 0.0 
1.565080385988e+01 -1.486411982419e+01 0.0 
1.557610691279e+01 -1.584855627870e+01 0.0 
4.195350646612e+00 -8.089117689096e+00 0.0 
4.124027797830e+00 -9.082831955007e+00 0.0 
4.917944318925e+00 -9.643530901533e+00 0.0 
4.020105689502e+00 -1.007439673661e+01 0.0 
4.587185899277e+01 -1.484039992728e+01 0.0 
4.580078661551e+01 -1.584043391042e+01 0.0 
2.061956522375e+01 -5.046701343981e+00 0.0 
2.139572955529e+01 -5.579553449826e+00 0.0 
3.715344357292e+01 -1.631485124583e+01 0.0 
3.618886196443e+00 -1.500471207167e+01 0.0 
3.695606940204e+00 -1.400939692294e+01 0.0 
2.438890661143e+01 -9.686110599723e+00 0.0 
2.523267572778e+01 -9.276766000622e+00 0.0 
2.446094171539e+01 -8.751904591412e+00 0.0 
2.529089822738e+01 -8.321495612547e+00 0.0 
2.606882688827e+01 -8.864724051119e+00 0.0 
2.452116646430e+01 -7.792756462004e+00 0.0 
1.235543269617e+01 -1.365845617339e+01 0.0 
4.318116874181e+01 -1.618567469992e+01 0.0 
7.835066111909e+00 -5.376366223896e+00 0.0 
7.905687335704e+00 -4.382539065697e+00 0.0 
3.542640009567e+00 -1.600035116542e+01 0.0 
1.572431503071e+01 -1.388358386695e+01 0.0 
2.574684696680e+01 -1.357896141127e+01 0.0 
2.488842657651e+01 -1.399674354505e+01 0.0 
2.568301775611e+01 -1.453552048595e+01 0.0 
2.481535572009e+01 -1.495542756508e+01 0.0 
2.561729699688e+01 -1.549784648532e+01 0.0 
2.474623061296e+01 -1.592058894178e+01 0.0 
2.394234041695e+01 -1.537572575827e+01 0.0 
2.065825452567e+01 -1.621899055217e+01 0.0 
2.387180528935e+01 -1.634552264687e+01 0.0 
4.585364400844e+01 -1.383912334080e+01 0.0 
1.998744432052e+01 -1.370317155541e+01 0.0 
1.205356951443e+01 -6.313580285498e+00 0.0 
5.396543905849e+00 -3.731818611283e+00 0.0 
1.139652573295e+01 -3.745819399350e+00 0.0 
3.574124306703e+00 -4.551456826011e+00 0.0 
3.494140761930e+00 -5.539787055649e+00 0.0 
1.213651452413e+01 -1.664505033022e+01 0.0 
2.555045568519e+01 -1.646529356744e+01 0.0 
2.641671114986e+01 -1.603899382371e+01 0.0 
2.612920721894e+01 -7.906435260873e+00 0.0 
2.690339829698e+01 -8.456969591431e+00 0.0 
1.978024383368e+01 -1.664410216353e+01 0.0 
3.732829979082e+01 -1.336926601859e+01 0.0 
4.074336584605e+01 -1.355133328401e+01 0.0 
4.163204691081e+01 -1.310280943992e+01 0.0 
3.773826114429e+00 -3.493444309145e+00 0.0 
1.228783001032e+01 -3.374822835872e+00 0.0 
4.057110462520e+01 -1.652588478000e+01 0.0 
2.132535497898e+01 -6.523623360525e+00 0.0 
2.216932532211e+01 -6.110044769206e+00 0.0 
1.825781152128e+01 -3.370146817147e+00 0.0 
1.745679445888e+01 -2.812942552063e+00 0.0 
4.666517057280e+01 -1.539981381543e+01 0.0 
4.660575894464e+01 -1.639014410186e+01 0.0 
4.838230979954e+00 -1.063643436446e+01 0.0 
3.938942630206e+00 -1.106778981745e+01 0.0 
1.302967218620e+01 -1.621373452436e+01 0.0 
1.049548003190e+01 -4.204825123240e+00 0.0 
4.573571907195e+01 -1.683820511148e+01 0.0 
1.483686335807e+01 -1.430849689310e+01 0.0 
1.490982658890e+01 -1.332679386284e+01 0.0 
3.190805600162e+00 -9.510968358545e+00 0.0 
2.146625721848e+01 -4.642437303115e+00 0.0 
2.069866208266e+01 -4.111852942193e+00 0.0 
1.286859345584e+01 -6.873252723348e+00 0.0 
1.041794493184e+01 -5.194814260291e+00 0.0 
2.671081808965e+00 -4.976806516331e+00 0.0 
1.295786792925e+01 -1.720506531799e+01 0.0 
3.968438206511e+01 -1.696869067241e+01 0.0 
2.308550456051e+01 -1.579963151273e+01 0.0 
2.315593682844e+01 -1.482967445235e+01 0.0 
2.299471449450e+01 -1.677069968132e+01 0.0 
1.057344714696e+01 -3.214252277840e+00 0.0 
1.124057603753e+01 -1.707713739755e+01 0.0 
2.718402535754e+00 -1.543629882103e+01 0.0 
2.638549692805e+01 -1.696744916809e+01 0.0 
2.723416349007e+01 -1.658104204545e+01 0.0 
2.210193351704e+01 -7.046769643417e+00 0.0 
2.295180925161e+01 -6.657397605239e+00 0.0 
2.301355235833e+01 -5.709111896800e+00 0.0 
2.379052718281e+01 -6.254965406962e+00 0.0 
3.243528601237e+01 -1.214181853533e+01 0.0 
2.287977995457e+01 -7.583722368300e+00 0.0 
2.999876029544e+01 -1.150837653096e+01 0.0 
3.084435366963e+01 -1.109693775882e+01 0.0 
3.006650579669e+01 -1.057778994262e+01 0.0 
2.683802665066e+01 -9.386863216633e+00 0.0 
2.768641973621e+01 -8.988883915666e+00 0.0 
2.040296980397e+01 -7.903629133404e+00 0.0 
1.925235024054e+01 -1.218872783130e+01 0.0 
5.735667000424e+00 -1.020577277283e+01 0.0 
6.396559909872e+00 -1.272326295703e+01 0.0 
1.161199420714e+01 -1.212812778229e+01 0.0 
4.229046132615e+01 -1.663084237572e+01 0.0 
4.312275399692e+01 -1.718087491556e+01 0.0 
4.335502068163e+01 -1.320039231514e+01 0.0 
4.424630298089e+01 -1.275160688731e+01 0.0 
7.090116643816e+00 -3.818998061530e+00 0.0 
7.989472176569e+00 -3.389238711200e+00 0.0 
9.085824861778e+00 -1.144036167408e+01 0.0 
1.041972423731e+01 -1.651614080893e+01 0.0 
3.797525112640e+01 -1.686052038746e+01 0.0 
3.709114253394e+01 -1.730125999865e+01 0.0 
3.626966748340e+01 -1.675477052919e+01 0.0 
1.385164591440e+01 -1.677597757552e+01 0.0 
1.787152588784e+01 -8.198993896093e+00 0.0 
1.668849729812e+01 -1.248560611628e+01 0.0 
1.659546177905e+01 -3.232482605530e+00 0.0 
2.332214717345e+01 -1.292598167641e+01 0.0 
7.168238450786e+00 -2.824711686516e+00 0.0 
2.894878403906e+01 -1.475427524446e+01 0.0 
2.646763248247e+00 -1.643270107952e+01 0.0 
3.467431944285e+00 -1.699648837348e+01 0.0 
2.059475877282e+01 -1.719473628526e+01 0.0 
3.333868355437e+01 -1.080596971682e+01 0.0 
2.246451062637e+01 -1.334557761546e+01 0.0 
2.167821896388e+01 -1.280847834858e+01 0.0 
3.089653185767e+01 -1.017198487212e+01 0.0 
3.012604365669e+01 -9.657298805968e+00 0.0 
2.929627299435e+01 -1.006100135274e+01 0.0 
2.936201435219e+01 -9.136748899251e+00 0.0 
1.198219052702e+01 -7.291887238230e+00 0.0 
1.116702076035e+01 -6.731976101053e+00 0.0 
2.551388807505e+01 -1.746927036981e+01 0.0 
2.378639090370e+01 -1.728678807149e+01 0.0 
2.718543627188e+01 -1.748668016909e+01 0.0 
2.804681050301e+01 -1.712626668293e+01 0.0 
1.970737034667e+01 -1.762317646822e+01 0.0 
1.889535776135e+01 -1.707158098231e+01 0.0 
2.593777711283e+00 -5.971157087874e+00 0.0 
2.773468281110e+01 -8.067164273938e+00 0.0 
4.051205884347e+01 -1.751819982458e+01 0.0 
3.166903145421e+01 -1.068032992414e+01 0.0 
1.033042452886e+01 -1.748285844336e+01 0.0 
9.519274604626e+00 -1.694349240233e+01 0.0 
1.668308673328e+01 -2.255861778986e+00 0.0 
1.570531902832e+01 -2.676795860126e+00 0.0 
4.655826903379e+01 -1.736656245706e+01 0.0 
2.384148070773e+01 -5.328744256413e+00 0.0 
2.460255123641e+01 -5.852182672816e+00 0.0 
2.306638135119e+01 -4.798935440613e+00 0.0 
8.467720450578e-01 -1.849576263072e+01 0.0 
4.849657322345e+01 -1.084860705506e+01 0.0 
2.565860899507e+00 -1.742859793981e+01 0.0 
2.764418872564e+01 -9.927142821799e+00 0.0 
4.565165880064e+01 -1.785336695404e+01 0.0 
2.162231831329e+01 -1.376528337468e+01 0.0 
2.360646352969e+01 -9.136041963102e+00 0.0 
1.392738739903e+01 -1.578285505772e+01 0.0 
4.756405947478e+01 -1.683706841809e+01 0.0 
4.740895034054e+01 -1.793766756892e+01 0.0 
4.080779328826e+01 -1.257387192544e+01 0.0 
4.168907939671e+01 -1.210739129181e+01 0.0 
3.991197722154e+01 -1.300815793917e+01 0.0 
1.905536506762e+01 -3.940076697685e+00 0.0 
1.923879596617e+01 -2.875000734166e+00 0.0 
4.401386745746e+01 -1.673483229438e+01 0.0 
4.247233362525e+00 -7.094581653070e+00 0.0 
3.286051630211e+00 -7.635300020553e+00 0.0 
9.609533347623e+00 -4.594311677967e+00 0.0 
9.523554636369e+00 -5.595597029530e+00 0.0 
5.660336628893e+00 -1.119290329628e+01 0.0 
6.558070063295e+00 -1.076385809362e+01 0.0 
2.809866407414e+01 -1.518037766799e+01 0.0 
2.888868674504e+01 -1.570360690070e+01 0.0 
2.654431550819e+01 -1.411217777162e+01 0.0 
1.402158265969e+01 -1.375404617952e+01 0.0 
1.409592494026e+01 -1.277071998942e+01 0.0 
1.499355196178e+01 -1.235270737023e+01 0.0 
4.221535326155e+01 -1.759335617494e+01 0.0 
4.305583287033e+01 -1.822663146802e+01 0.0 
1.280748808359e+01 -7.834332838285e+00 0.0 
1.368988389326e+01 -7.420529606172e+00 0.0 
1.110091796060e+01 -7.683966794328e+00 0.0 
3.963446145980e+01 -1.794331310122e+01 0.0 
3.423932362213e+00 -1.796415590455e+01 0.0 
4.280814572302e+00 -1.752272834860e+01 0.0 
8.050136380041e+00 -2.421582378631e+00 0.0 
8.888674091650e+00 -2.984264211327e+00 0.0 
2.152839430898e+01 -3.732609965436e+00 0.0 
2.077799585292e+01 -3.183896021866e+00 0.0 
3.618719395821e+01 -1.770276572576e+01 0.0 
3.538165138340e+01 -1.718709995539e+01 0.0 
3.702925326420e+01 -1.828844288807e+01 0.0 
1.756739438711e+00 -5.353284859169e+00 0.0 
2.233710191104e+01 -1.527265621324e+01 0.0 
1.389483555057e+01 -1.771797164730e+01 0.0 
1.475634224300e+01 -1.728357428390e+01 0.0 
1.298797563052e+01 -1.825968924755e+01 0.0 
2.145331271866e+01 -1.673705379077e+01 0.0 
2.133282821169e+01 -1.769400773673e+01 0.0 
2.292139194136e+01 -1.774915400288e+01 0.0 
1.750750053243e+01 -1.861475593469e+00 0.0 
4.830478841772e+01 -1.752611802221e+01 0.0 
4.341203507805e+01 -1.220326745522e+01 0.0 
1.685254151866e+01 -1.443085301632e+00 0.0 
4.431538535165e+01 -1.171841387375e+01 0.0 
4.511308610496e+01 -1.229557320599e+01 0.0 
4.510133242889e+01 -1.123680627466e+01 0.0 
1.846818030617e+00 -4.410877617069e+00 0.0 
3.995468694584e+01 -1.186571542989e+01 0.0 
3.901387459804e+01 -1.242507616755e+01 0.0 
8.966735877533e+00 -1.837818700423e+00 0.0 
4.049310011091e+01 -1.848269508791e+01 0.0 
7.278862053803e+00 -1.918523922691e+00 0.0 
6.429715522129e+00 -2.316676521184e+00 0.0 
9.443505505022e+00 -1.792198868094e+01 0.0 
8.620386951051e+00 -1.737590365556e+01 0.0 
8.571868171503e+00 -1.834436667826e+01 0.0 
7.758629848526e+00 -1.775677907213e+01 0.0 
7.806648388584e+00 -1.680761266021e+01 0.0 
6.908555145436e+00 -1.723746463044e+01 0.0 
4.251709122090e+01 -1.156937480156e+01 0.0 
6.931136405615e+00 -1.832465719263e+01 0.0 
6.015545461353e+00 -1.768865355295e+01 0.0 
5.960535926343e+00 -1.872011001764e+01 0.0 
3.023253444786e+01 -8.761960642196e+00 0.0 
2.454622702599e+01 -6.749421992767e+00 0.0 
2.537499741604e+01 -6.347634963783e+00 0.0 
2.544077378460e+01 -5.431358513649e+00 0.0 
2.801367161747e+01 -1.820907270221e+01 0.0 
2.884507806914e+01 -1.762032095326e+01 0.0 
1.821474531936e+00 -1.588901260460e+01 0.0 
1.821006262604e+00 -1.489370287756e+01 0.0 
4.599962488908e+01 -1.176478780598e+01 0.0 
4.705457470007e+01 -1.172182804229e+01 0.0 
4.667668314802e+01 -1.263464558483e+01 0.0 
4.759648056504e+01 -1.252380987933e+01 0.0 
4.728041618103e+01 -1.341928568376e+01 0.0 
4.825209352360e+01 -1.330491640804e+01 0.0 
4.778118233428e+01 -1.420151961695e+01 0.0 
2.388192727579e+01 -1.826934810142e+01 0.0 
2.381714684947e+01 -4.385917965223e+00 0.0 
3.172733219247e+01 -9.758744265248e+00 0.0 
1.882012070658e+01 -1.805540597212e+01 0.0 
1.805667505243e+01 -1.742221226236e+01 0.0 
2.852599958080e+01 -8.597196079481e+00 0.0 
2.856486123437e+01 -7.661382718527e+00 0.0 
1.111792842875e+01 -1.818223852980e+01 0.0 
2.203322722466e+01 -7.986646678802e+00 0.0 
3.955703676900e+01 -1.903246763601e+01 0.0 
1.944842206513e+01 -8.038750575182e-01 0.0 
1.909882767783e+01 -1.746322740933e+00 0.0 
2.281147422941e+01 -8.525912918334e+00 0.0 
2.850633001468e+01 -9.533271335986e+00 0.0 
2.532883344309e+01 -7.308951659710e+00 0.0 
2.620475466461e+01 -6.979208585400e+00 0.0 
1.396278270396e+01 -1.475095389807e+01 0.0 
9.791001166724e+00 -2.554159793552e+00 0.0 
2.229293380421e+01 -4.269762271052e+00 0.0 
4.677238984118e+01 -1.430071795514e+01 0.0 
2.228658385918e+01 -3.344747535984e+00 0.0 
8.940223674553e-01 -1.543595733415e+01 0.0 
2.118566862474e+01 -8.435876987696e+00 0.0 
2.678325936437e+01 -1.032621195706e+01 0.0 
2.223400220487e+01 -5.179046761770e+00 0.0 
2.375370625384e+01 -7.251580562134e+00 0.0 
3.156971327386e+01 -1.255534750737e+01 0.0 
3.328226391312e+01 -1.172914813316e+01 0.0 
3.250948774219e+01 -1.120157009348e+01 0.0 
2.032993445717e+01 -8.867880112202e+00 0.0 
2.697226974856e+01 -7.536633082045e+00 0.0 
2.707377810386e+01 -6.590835263295e+00 0.0 
2.914099246827e+01 -1.191678458549e+01 0.0 
3.544824072239e+01 -1.621126558525e+01 0.0 
3.456511855436e+01 -1.665054783843e+01 0.0 
3.448395810225e+01 -1.759117813016e+01 0.0 
3.368378673938e+01 -1.708037781328e+01 0.0 
3.375560452567e+01 -1.610973066913e+01 0.0 
3.288001547988e+01 -1.654324255651e+01 0.0 
3.282475929147e+01 -1.749725654692e+01 0.0 
3.199880906313e+01 -1.697294088625e+01 0.0 
3.197001272932e+01 -1.811667776864e+01 0.0 
3.111884713021e+01 -1.742166785755e+01 0.0 
3.120418962865e+01 -1.642155709385e+01 0.0 
3.034666704371e+01 -1.683123833816e+01 0.0 
3.026224379976e+01 -1.772592851714e+01 0.0 
3.046632362943e+01 -1.582232843075e+01 0.0 
1.961344017324e+01 -1.857459447985e+01 0.0 
2.274975894774e+01 -9.532738811922e+00 0.0 
1.833923246887e+01 -2.396746883672e+00 0.0 
1.988859500848e+01 -2.249244376594e+00 0.0 
2.758045562861e+01 -1.086434261689e+01 0.0 
3.247300178163e+01 -1.909930104252e+01 0.0 
3.461947482503e+01 -1.911879848019e+01 0.0 
2.047161538662e+01 -6.941478180358e+00 0.0 
2.750230940214e+01 -1.915490590764e+01 0.0 
3.165081350803e+01 -1.161860780120e+01 0.0 
1.897456727641e+01 -4.889634688522e+00 0.0 
2.549338539756e+01 -1.914858252089e+01 0.0 
3.462873135081e+01 -1.567482276144e+01 0.0 
3.384432415243e+01 -1.512280684518e+01 0.0 
3.471433767690e+01 -1.469086942990e+01 0.0 
3.651470373046e+01 -1.918207952149e+01 0.0 
3.901742690249e+01 -1.345028556517e+01 0.0 
2.153224102692e+01 -1.920169709333e+01 0.0 
1.918382939341e+01 -1.316226275662e+01 0.0 
2.005389162382e+01 -1.271962165174e+01 0.0 
2.011472087878e+01 -1.175029352900e+01 0.0 
3.210679478412e+01 -1.598038618242e+01 0.0 
1.752175226543e+01 -1.914713022656e+01 0.0 
1.696897240059e+01 -1.832772588765e+01 0.0 
1.599682523337e+01 -1.832599992024e+01 0.0 
1.644507199462e+01 -1.743697981535e+01 0.0 
1.549987712903e+01 -1.915192375101e+01 0.0 
3.050250861901e+01 -1.918943550234e+01 0.0 
2.949944061527e+01 -1.922950455235e+01 0.0 
1.375892575273e+01 -6.447160534926e+00 0.0 
1.457223670180e+01 -7.006709243857e+00 0.0 
1.450818793236e+01 -7.965943451779e+00 0.0 
1.538804712402e+01 -7.553409623699e+00 0.0 
1.545817644768e+01 -6.580929593419e+00 0.0 
1.626506893751e+01 -7.129032608911e+00 0.0 
1.619833811522e+01 -8.086588580887e+00 0.0 
1.714448609609e+01 -6.697429609777e+00 0.0 
2.887616543568e+01 -1.668015232137e+01 0.0 
1.349814589130e+01 -1.918225301544e+01 0.0 
1.153887772210e+01 -1.311384581217e+01 0.0 
1.242708159886e+01 -1.267046795531e+01 0.0 
1.249799674267e+01 -1.169005616014e+01 0.0 
6.631723893693e+00 -9.774184881867e+00 0.0 
7.451471631867e+00 -1.033148796006e+01 0.0 
7.377795355458e+00 -1.132196345268e+01 0.0 
5.810931797536e+00 -9.211654212252e+00 0.0 
2.402683899133e+01 -1.441378562320e+01 0.0 
1.249768692036e+01 -1.917388426624e+01 0.0 
1.580373499437e+01 -1.290751860664e+01 0.0 
8.344650507834e+00 -9.898403995170e+00 0.0 
3.750622115305e+01 -1.086526401533e+01 0.0 
3.699391251667e+01 -1.171695900794e+01 0.0 
3.606517829518e+01 -1.173717504500e+01 0.0 
3.650257641795e+01 -1.270047380221e+01 0.0 
3.808951488918e+01 -1.183518714175e+01 0.0 
4.760380962420e+00 -1.162484888315e+01 0.0 
3.861210370848e+00 -1.205657631736e+01 0.0 
3.038284309476e+00 -1.149851280664e+01 0.0 
2.961598794889e+00 -1.248856794980e+01 0.0 
2.138953225512e+00 -1.193212674534e+01 0.0 
2.227383593457e+00 -1.096258903918e+01 0.0 
2.043265419276e+00 -1.292158472959e+01 0.0 
1.252449446028e+00 -1.225502002753e+01 0.0 
3.949985210740e+01 -1.086594001795e+01 0.0 
1.453499444792e+01 -8.768805922472e-01 0.0 
1.403518950933e+01 -1.749965556633e+00 0.0 
1.300715031023e+01 -1.714737233040e+00 0.0 
1.350929389899e+01 -2.527443911291e+00 0.0 
1.449600910711e+01 -2.595486162864e+00 0.0 
1.395693872901e+01 -3.484211041558e+00 0.0 
1.495105865208e+01 -3.364609636216e+00 0.0 
1.508822528740e+01 -1.766586020494e+00 0.0 
1.250223858430e+01 -8.634590186802e-01 0.0 
1.200279523409e+01 -1.709044504992e+00 0.0 
1.150086239419e+01 -8.592789190668e-01 0.0 
1.101482754194e+01 -1.677730591922e+00 0.0 
1.148018564526e+01 -2.659323866909e+00 0.0 
8.800552119754e+00 -3.989875954728e+00 0.0 
3.452790439430e+00 -1.901136170646e+01 0.0 
8.658451825200e-01 -9.503462241795e+00 0.0 
1.694787786797e+00 -9.000589234502e+00 0.0 
1.703436717094e+00 -8.038819004041e+00 0.0 
2.594197971110e+00 -8.563955242845e+00 0.0 
1.630513735412e+00 -9.907244747511e+00 0.0 
8.566859292791e-01 -7.512203837972e+00 0.0 
1.685461277022e+00 -7.164280248030e+00 0.0 
2.506394468801e+00 -8.623386730818e-01 0.0 
2.007475081581e+00 -1.727729545205e+00 0.0 
9.211534699767e-01 -1.628791366312e+00 0.0 
1.500000000020e+00 -2.598063549486e+00 0.0 
2.482078929963e+00 -2.553580088725e+00 0.0 
2.999795253092e+00 -1.732169015019e+00 0.0 
3.999712607169e+00 -1.728832897453e+00 0.0 
4.499752199340e+00 -8.656478679175e-01 0.0 
4.964377774841e+00 -1.730129617941e+00 0.0 
4.425017908337e+00 -2.597541756243e+00 0.0 
5.446573195014e+00 -8.410144840023e-01 0.0 
4.915722346614e+01 -1.550640962770e+01 0.0 
4.826794919243e+01 -1.600000000000e+01 0.0 
1.053139533193e+01 -1.911782884365e+01 0.0 
4.156049861949e+01 -1.095160998589e+01 0.0 
9.494526624416e+00 -8.650570090219e-01 0.0 
4.555762166964e+01 -1.897098103585e+01 0.0 
4.250656411371e+01 -1.914387356218e+01 0.0 
4.350906466345e+01 -1.917234727395e+01 0.0 
8.759665722424e-01 -1.746422130609e+01 0.0 
1.698936011838e+00 -1.795012186674e+01 0.0 
4.742476811029e+01 -1.900090177972e+01 0.0 
7.749196752349e+00 -6.368049313489e+00 0.0 
3.361572113416e+01 -1.798765193915e+01 0.0 
4.484660149212e+01 -1.728661231383e+01 0.0 
1.984038172228e+01 -4.502575320116e+00 0.0 
1.035080352627e+01 -6.166639575753e+00 0.0 
2.753558010652e+00 -1.444909521181e+01 0.0 
7.217069543032e+00 -1.328635391078e+01 0.0 
4.364336727739e+00 -1.655585677381e+01 0.0 
4.595208426108e+00 -1.357919665443e+01 0.0 
6.164967006980e+00 -1.569873454630e+01 0.0 
1.487855768353e+01 -1.826523774028e+01 0.0 
2.791876456372e+00 -4.019632415181e+00 0.0 
4.246464893515e+01 -1.364898659620e+01 0.0 
4.503855590351e+01 -1.329552780944e+01 0.0 
4.407239109604e+01 -1.573900004093e+01 0.0 
5.141054449252e+00 -6.664290382472e+00 0.0 
3.141083947149e+00 -1.055790764912e+01 0.0 
6.196463198741e+00 -4.256497932609e+00 0.0 
2.599618716181e+01 -1.836893455464e+01 0.0 
2.923057372337e+01 -1.098461757645e+01 0.0 
1.168343877486e+01 -1.114079645041e+01 0.0 
6.706222096238e+00 -8.780364234441e+00 0.0 
8.567858614669e+00 -6.943121440850e+00 0.0 
1.123755132901e+01 -5.753525820030e+00 0.0 
2.353456234423e+01 -1.008536320953e+01 0.0 
9.162073319168e+00 -1.045593739109e+01 0.0 
9.676343469685e+00 -1.496493008366e+01 0.0 
4.490637882905e+01 -1.628778970202e+01 0.0 
7.398129387772e+00 -9.639977982323e-01 0.0 
1.049641705805e+01 -1.552503975272e+01 0.0 
9.010356286268e+00 -1.242805042052e+01 0.0 
3.985573925497e+01 -1.399863651620e+01 0.0 
1.816196318262e+01 -1.554066497931e+01 0.0 
1.306332244168e+01 -3.963646550326e+00 0.0 
4.145850903932e+01 -1.608094559275e+01 0.0 
3.794664933633e+01 -1.779020121986e+01 0.0 
3.819614412903e+01 -1.290749321016e+01 0.0 
6.270014188119e+00 -3.255093186826e+00 0.0 
4.251165370388e+01 -1.263870364997e+01 0.0 
1.207347709171e+01 -1.763942826023e+01 0.0 
3.633240829927e+01 -1.577330481104e+01 0.0 
4.319052668832e+00 -6.101812561904e+00 0.0 
1.676492415806e+01 -1.151547901392e+01 0.0 
2.594059220037e+01 -1.074225223009e+01 0.0 
3.340750911501e+01 -9.898764354137e+00 0.0 
4.397619591281e+01 -1.769773736461e+01 0.0 
2.175611595028e+01 -1.185718747128e+01 0.0 
1.641818733106e+01 -1.640685203215e+01 0.0 
1.661211421753e+01 -1.346121366338e+01 0.0 
3.428853504935e+00 -6.551993389271e+00 0.0 
8.700728832502e+00 -1.638460872825e+01 0.0 
1.931369795309e+01 -1.121629383702e+01 0.0 
4.139798872363e+01 -1.706922153459e+01 0.0 
2.647837478700e+01 -1.507353829290e+01 0.0 
1.779469616424e+01 -9.161615782908e+00 0.0 
3.885879219319e+01 -1.642026488918e+01 0.0 
1.338194936770e+01 -1.125916521471e+01 0.0 
1.897071181111e+01 -1.609204322578e+01 0.0 
2.844308548793e+01 -1.046221003096e+01 0.0 
2.659854702194e+01 -1.316109415760e+01 0.0 
2.979604503271e+01 -1.433296157755e+01 0.0 
2.417694041347e+01 -1.251231397779e+01 0.0 
1.807401327411e+00 -1.388891148480e+01 0.0 
9.599810618782e+00 -1.595439365034e+01 0.0 
1.652144692160e+01 -4.205392788472e+00 0.0 
2.367839450246e+01 -8.188385218643e+00 0.0 
3.814894930468e+01 -1.390748338767e+01 0.0 
2.466448215774e+01 -1.685878545680e+01 0.0 
4.134044524611e+01 -1.806610045954e+01 0.0 
2.600511411958e+01 -9.801774120648e+00 0.0 
7.882158050716e+00 -1.582364037353e+01 0.0 
3.881607873422e+01 -1.737970515013e+01 0.0 
8.270182347708e+00 -1.088622154920e+01 0.0 
8.672520392520e-01 -4.532984309881e+00 0.0 
1.993447205337e+01 -3.579061902667e+00 0.0 
1.794616079549e+01 -7.238038888498e+00 0.0 
2.097277068165e+01 -1.132450168636e+01 0.0 
8.194803300681e+00 -1.187214224265e+01 0.0 
3.522279404911e+01 -1.823342818178e+01 0.0 
6.984481050295e+00 -1.625271465557e+01 0.0 
1.309433007797e+01 -1.521718594215e+01 0.0 
2.150246167611e+01 -1.885399038185e+00 0.0 
3.250689370209e+01 -1.028789870535e+01 0.0 
6.085886272238e+00 -1.668342132851e+01 0.0 
1.588455661727e+01 -1.193498985921e+01 0.0 
1.809323400821e+01 -1.651110084195e+01 0.0 
1.348885082381e+00 -1.136065576512e+01 0.0 
2.497670221995e+01 -1.834631276173e+01 0.0 
2.937062818424e+01 -8.233711194470e+00 0.0 
5.185823744469e+00 -1.711566910207e+01 0.0 
1.477497877209e+01 -1.530177014512e+01 0.0 
2.125346158933e+01 -7.473003997367e+00 0.0 
4.751561118290e+01 -1.084897772632e+01 0.0 
5.056026576843e+00 -1.825750475525e+01 0.0 
1.473948554523e+01 -1.634577436309e+01 0.0 
2.410566630936e+01 -1.345970002612e+01 0.0 
1.507337507513e+01 -1.138527895328e+01 0.0 
3.189857338687e+01 -8.887781229006e+00 0.0 
7.298712468334e+00 -1.230231046246e+01 0.0 
2.738235495295e+01 -1.368931690364e+01 0.0 
3.750141041969e+01 -1.920449893070e+01 0.0 
1.557271965640e+01 -1.683317951731e+01 0.0 
3.393731848929e+01 -1.413034777044e+01 0.0 
6.482156824153e+00 -1.174575135362e+01 0.0 
2.077971718439e+01 -1.421279621836e+01 0.0 
3.455084320178e+00 -2.562590040585e+00 0.0 
3.099056096250e+01 -9.270280416035e+00 0.0 
5.580176125418e+00 -1.217387969259e+01 0.0 
1.707247630389e+01 -7.660651981710e+00 0.0 
1.418658814174e+01 -1.180390575393e+01 0.0 
2.049103025389e+01 -1.811296706038e+01 0.0 
4.680386172316e+00 -1.260396879301e+01 0.0 
1.699679896554e+01 -8.624561788199e+00 0.0 
3.779470168555e+00 -1.303424899720e+01 0.0 
3.036589870126e+01 -7.879832518349e+00 0.0 
3.306993001774e+01 -1.457671062095e+01 0.0 
2.840150110165e+00 -1.346530088269e+01 0.0 
2.732011135052e+01 -1.464591214560e+01 0.0 
5.423639259568e+00 -2.659711955016e+00 0.0 
2.324455961696e+01 -1.387269388211e+01 0.0 
1.752768355571e+00 -1.693128613594e+01 0.0 
1.020244783051e+01 -8.076834012808e+00 0.0 
1.330873875224e+01 -1.222417528206e+01 0.0 
3.297727364880e+01 -1.555480372087e+01 0.0 
2.890929955439e+01 -6.868664170731e+00 0.0 
1.323294664622e+01 -1.320754260334e+01 0.0 
2.726532861246e+01 -1.560593120806e+01 0.0 
2.240020643398e+01 -1.429299177247e+01 0.0 
2.090445823633e+01 -1.228128621332e+01 0.0 
1.315809881502e+01 -1.420739326938e+01 0.0 
2.781328038068e+01 -7.181956082300e+00 0.0 
8.614200829057e+00 -5.936933226306e+00 0.0 
8.714765730069e+00 -4.979270529687e+00 0.0 
1.611881701099e+01 -9.041973294003e+00 0.0 
2.806830314340e+01 -1.614622947108e+01 0.0 
2.084435391396e+00 -3.385085422913e+00 0.0 
3.133211811152e+01 -1.542347619750e+01 0.0 
9.693114650768e+00 -3.590281506442e+00 0.0 
1.531883592202e+01 -8.504584946143e+00 0.0 
2.151589117094e+01 -1.578915763018e+01 0.0 
4.918943882696e+01 -1.355538828056e+01 0.0 
1.443236615188e+01 -8.918701794549e+00 0.0 
8.276250966452e-01 -5.537685192197e+00 0.0 
1.362790867918e+01 -8.374718262212e+00 0.0 
2.083767477370e+01 -1.324843956035e+01 0.0 
1.273834678703e+01 -8.790890389337e+00 0.0 
1.192275845670e+01 -8.242261327467e+00 0.0 
4.477236023583e+01 -1.824312396664e+01 0.0 
1.102989384254e+01 -8.649855800911e+00 0.0 
4.849096516045e+01 -1.917293752213e+01 0.0 
1.588996752238e+00 -1.910230934687e+01 0.0 
4.904245197583e+01 -1.159839008158e+01 0.0 
2.753852929608e+01 -5.782128488093e+00 0.0 
1.756133602833e+01 -8.306130313187e-01 0.0 
2.615423700951e+01 -6.153865090092e+00 0.0 
1.028818761294e+01 -7.122020845892e+00 0.0 
2.970818901196e+01 -1.527821347593e+01 0.0 
4.801461623449e+01 -1.164472570985e+01 0.0 
9.455722100419e+00 -6.546069291118e+00 0.0 
3.089099236677e+01 -1.835339328261e+01 0.0 
2.350000000013e+01 -1.920825896750e+01 0.0 
4.830620531887e+01 -1.506626155470e+01 0.0 
1.725381944701e+01 -1.688794487850e+01 0.0 
2.156246225273e+01 -1.475893794002e+01 0.0 
4.919319648787e+01 -1.742767505896e+01 0.0 
4.437935623576e+01 -1.077662927266e+01 0.0 
1.001520521978e+01 -1.652692675208e+00 0.0 
9.067160240050e-01 -1.441937727541e+01 0.0 
2.603365149390e+01 -4.755996613848e+00 0.0 
2.458344439002e+01 -4.873645517696e+00 0.0 
2.304312390142e+01 -3.836552768096e+00 0.0 
2.546923202198e+00 -6.902480355749e+00 0.0 
1.251534969393e+01 -2.490989965776e+00 0.0 
2.454061833377e+01 -3.933354231935e+00 0.0 
1.788186558740e+01 -1.827424884923e+01 0.0 
4.090785243552e+01 -1.166553231904e+01 0.0 
2.230128851568e+01 -1.623015738726e+01 0.0 
2.302362347568e+01 -2.916239960270e+00 0.0 
3.878119254461e+01 -1.830091164002e+01 0.0 
2.210081359958e+01 -1.829238229150e+01 0.0 
8.443704882233e+00 -1.921993252862e+01 0.0 
2.218405824691e+01 -1.724557581508e+01 0.0 
2.151157503963e+01 -2.790636689331e+00 0.0 
3.741658958955e+01 -1.250400191722e+01 0.0 
2.697247663737e+01 -1.838290202309e+01 0.0 
4.743362342862e+01 -1.585850773010e+01 0.0 
6.671345075358e+00 -1.924977576322e+01 0.0 
3.900825404537e+01 -1.157220003875e+01 0.0 
4.649692961375e+01 -1.836335837481e+01 0.0 
1.578831424832e+01 -3.678284023361e+00 0.0 
4.814208768888e+01 -1.841249298770e+01 0.0 
2.964123298315e+01 -1.625739458193e+01 0.0 
4.580760351902e+01 -1.284294554687e+01 0.0 
3.561520879615e+01 -1.245548941949e+01 0.0 
2.555418095658e+00 -1.841101588290e+01 0.0 
3.288468366144e+01 -1.834258164109e+01 0.0 
2.065894391445e+01 -2.240688571739e+00 0.0 
4.739171429915e+01 -1.496536413446e+01 0.0 
3.478086729185e+00 -8.576434653209e+00 0.0 
1.606010630246e+01 -1.588421807951e+00 0.0 
1.018329200594e+01 -1.834320874317e+01 0.0 
2.957213339430e+01 -1.720496954591e+01 0.0 
4.142712790164e+00 -1.837794506222e+01 0.0 
6.698721532573e-01 -2.499999999997e+00 0.0 
8.037039123140e+00 -1.571229354954e+00 0.0 
1.203541361428e+01 -1.847784298001e+01 0.0 
2.899968332038e+01 -1.848264722179e+01 0.0 
1.469229460948e+01 -4.219485753730e+00 0.0 
4.049590781957e+01 -1.932812501995e+01 0.0 
1.996211678340e+01 -1.506329754720e+00 0.0 
4.250588298353e+01 -1.067383247529e+01 0.0 
5.831497011152e+00 -1.635396227234e+00 0.0 
5.317606125670e+00 -1.923927974868e+01 0.0 
4.208546426993e+01 -1.842830665025e+01 0.0 
2.327553405011e+00 -9.459409929662e+00 0.0 
3.568351902251e+01 -1.096637218582e+01 0.0 
1.682104374890e+00 -6.231413350963e+00 0.0 
2.451812238018e+01 -1.766524914339e+01 0.0 
1.058003429638e+01 -2.391839617098e+00 0.0 
4.399988753123e+01 -1.851998776342e+01 0.0 
1.400000000010e+01 -1.852293523028e+01 0.0 
3.604719565984e+01 -1.850662876800e+01 0.0 
1.951297136734e+01 -1.938092349694e+01 0.0 
1.821365318472e+01 -1.531276353287e+00 0.0 
2.298031859732e+01 -1.854635324722e+01 0.0 
1.552168066204e+01 -1.764280741977e+01 0.0 
4.572957713638e+01 -1.073347898229e+01 0.0 
3.429637429624e+01 -1.838861552790e+01 0.0 
2.427434426052e+00 -7.705577451869e+00 0.0 
4.662792031485e+00 -3.359424455416e+00 0.0 
4.926794919243e+01 -1.926794919243e+01 0.0 
7.320508075690e-01 -7.320508075688e-01 0.0 
4.926794919243e+01 -1.073205080757e+01 0.0 
7.320508075705e-01 -1.926794919243e+01 0.0 
2.917460242467e+00 -3.202866455310e+00 0.0 
4.838200575963e+01 -1.232674147454e+01 0.0 
2.998445708009e+01 -1.854403752148e+01 0.0 
5.949940090766e-01 -1.152762038165e+01 0.0 
4.844763495759e+01 -1.678092548787e+01 0.0 
1.301685480160e+01 -3.170056592566e+00 0.0 
1.650046335855e+01 -6.731535384067e-01 0.0 
4.854881540991e+01 -1.405224059779e+01 0.0 
2.119545114693e+01 -1.846813384545e+01 0.0 
3.797852849897e+01 -1.857978513215e+01 0.0 
4.649823708745e+01 -1.338351810816e+01 0.0 
2.012685900976e+01 -2.889659035009e+00 0.0 
2.953271913273e+01 -1.791558075192e+01 0.0 
2.408509097292e+00 -1.021949208421e+01 0.0 
2.642589566221e+01 -1.773216561448e+01 0.0 
1.730010270775e+01 -1.763165076721e+01 0.0 
2.017406551304e+01 -8.513536440582e-01 0.0 
5.254761581934e-01 -1.249999999999e+01 0.0 
6.640448215642e+00 -1.545337834885e+00 0.0 
7.843361506349e+00 -1.852719839527e+01 0.0 
1.588442191088e+00 -1.066158564320e+01 0.0 
3.480610198624e+01 -9.413633635267e+00 0.0 
4.951470588234e+01 -9.500000000000e+00 0.0 

CELLS 1956 7824 
3 196 666 942 
3 666 196 944 
3 676 169 687 
3 789 554 978 
3 556 616 782 
3 646 559 685 
3 176 598 600 
3 196 623 944 
3 598 176 616 
3 549 784 978 
3 168 743 744 
3 623 196 958 
3 788 940 984 
3 605 736 826 
3 940 202 984 
3 195 789 978 
3 604 175 745 
3 559 646 684 
3 183 603 925 
3 603 183 863 
3 784 549 937 
3 914 160 920 
3 641 914 920 
3 591 590 800 
3 290 446 735 
3 743 168 852 
3 106 82 1005 
3 635 161 877 
3 288 290 735 
3 800 590 1010 
3 540 750 752 
3 193 606 783 
3 676 687 985 
3 19 181 656 
3 191 610 612 
3 619 66 976 
3 66 619 1002 
3 638 187 682 
3 602 97 955 
3 97 602 1016 
3 878 620 904 
3 156 642 781 
3 959 157 963 
3 82 205 1005 
3 597 204 954 
3 636 959 963 
3 750 540 753 
3 204 597 980 
3 746 747 753 
3 736 605 977 
3 198 641 878 
3 588 603 863 
3 366 979 997 
3 198 878 904 
3 688 170 868 
3 961 533 1006 
3 588 863 932 
3 181 626 656 
3 449 777 895 
3 784 195 978 
3 155 989 1030 
3 969 595 971 
3 415 443 649 
3 979 752 997 
3 760 579 984 
3 641 198 914 
3 989 599 1030 
3 169 676 949 
3 476 437 758 
3 165 624 690 
3 852 795 906 
3 33 32 644 
3 635 877 1007 
3 4 5 770 
3 767 961 1006 
3 607 172 858 
3 688 868 1017 
3 655 960 967 
3 777 449 1019 
3 960 197 967 
3 437 450 758 
3 175 604 965 
3 160 666 920 
3 666 160 942 
3 616 556 828 
3 598 616 828 
3 627 852 957 
3 18 19 656 
3 681 678 926 
3 556 782 965 
3 783 606 956 
3 207 734 1005 
3 780 951 975 
3 975 951 987 
3 173 33 644 
3 682 187 1012 
3 604 745 977 
3 781 642 990 
3 201 633 930 
3 649 443 650 
3 782 616 1000 
3 202 760 984 
3 363 929 953 
3 594 969 971 
3 484 482 660 
3 747 750 753 
3 787 788 910 
3 553 780 975 
3 155 746 753 
3 883 178 1002 
3 328 681 926 
3 4 770 1021 
3 551 647 683 
3 518 834 872 
3 562 764 988 
3 622 649 650 
3 417 415 649 
3 191 612 970 
3 633 201 1025 
3 621 417 649 
3 652 582 927 
3 205 207 1005 
3 780 553 1028 
3 417 621 660 
3 972 871 986 
3 637 887 896 
3 764 562 1018 
3 887 162 896 
3 172 607 998 
3 584 972 986 
3 743 852 906 
3 554 789 980 
3 491 548 648 
3 162 620 896 
3 610 191 990 
3 788 545 940 
3 627 795 852 
3 648 548 848 
3 592 720 1010 
3 524 640 648 
3 574 785 786 
3 624 165 996 
3 826 736 973 
3 433 405 654 
3 640 491 648 
3 620 162 904 
3 548 686 848 
3 660 486 855 
3 176 600 955 
3 647 282 683 
3 606 193 994 
3 941 947 1025 
3 771 183 925 
3 199 637 872 
3 720 592 729 
3 621 484 660 
3 656 627 957 
3 623 157 959 
3 929 589 953 
3 182 628 629 
3 643 282 647 
3 626 181 910 
3 476 652 927 
3 788 547 910 
3 663 536 691 
3 178 883 992 
3 941 546 947 
3 482 486 660 
3 834 199 872 
3 168 744 1041 
3 157 623 958 
3 282 643 657 
3 405 456 654 
3 628 182 1016 
3 486 647 855 
3 637 199 887 
3 530 719 924 
3 764 465 988 
3 161 635 950 
3 690 624 974 
3 622 650 944 
3 465 764 1004 
3 707 837 891 
3 640 524 878 
3 623 622 944 
3 663 518 872 
3 647 551 855 
3 171 784 937 
3 294 703 913 
3 181 787 910 
3 636 197 960 
3 492 657 881 
3 678 703 926 
3 81 107 645 
3 524 620 878 
3 880 552 884 
3 776 908 1001 
3 791 184 1017 
3 289 214 696 
3 911 270 938 
3 400 880 884 
3 734 207 983 
3 735 446 973 
3 590 592 1010 
3 921 812 948 
3 658 229 686 
3 488 378 691 
3 295 289 696 
3 485 663 691 
3 536 663 872 
3 434 894 934 
3 719 568 924 
3 645 179 646 
3 650 666 944 
3 650 443 665 
3 548 658 686 
3 703 673 913 
3 559 558 864 
3 552 651 870 
3 602 628 1016 
3 657 643 881 
3 348 870 919 
3 608 818 1042 
3 694 295 696 
3 818 164 1042 
3 776 777 908 
3 197 636 963 
3 921 564 922 
3 668 295 694 
3 564 563 922 
3 544 653 659 
3 370 751 823 
3 582 759 927 
3 837 400 891 
3 536 488 691 
3 579 760 992 
3 107 179 645 
3 453 483 659 
3 243 282 657 
3 641 640 878 
3 651 552 880 
3 619 883 1002 
3 905 294 913 
3 352 334 689 
3 400 884 891 
3 852 168 957 
3 686 296 848 
3 695 696 892 
3 595 969 1014 
3 243 657 664 
3 483 544 659 
3 213 485 661 
3 644 32 998 
3 229 658 833 
3 702 245 841 
3 629 628 630 
3 758 450 962 
3 485 662 663 
3 452 352 689 
3 558 692 793 
3 540 752 979 
3 295 668 830 
3 378 661 691 
3 417 660 855 
3 668 507 830 
3 703 294 926 
3 296 667 809 
3 163 617 976 
3 493 702 841 
3 221 487 667 
3 551 683 814 
3 493 701 702 
3 335 351 692 
3 733 174 734 
3 247 244 664 
3 364 715 716 
3 695 905 913 
3 107 108 179 
3 485 211 662 
3 334 332 689 
3 408 453 659 
3 337 335 692 
3 216 213 661 
3 606 652 956 
3 444 534 665 
3 493 700 701 
3 661 485 691 
3 733 734 735 
3 454 559 684 
3 364 716 718 
3 365 368 715 
3 650 665 666 
3 695 892 905 
3 443 444 665 
3 330 247 664 
3 657 492 664 
3 454 558 559 
3 683 239 814 
3 583 653 655 
3 37 170 688 
3 39 184 687 
3 230 229 833 
3 351 334 352 
3 407 408 466 
3 222 221 667 
3 351 352 407 
3 364 365 715 
3 296 809 848 
3 785 574 1003 
3 689 492 881 
3 894 550 934 
3 583 466 653 
3 188 57 708 
3 407 352 408 
3 227 296 686 
3 454 358 558 
3 730 423 838 
3 244 243 664 
3 368 712 715 
3 487 378 488 
3 42 709 710 
3 332 330 492 
3 493 321 700 
3 467 466 583 
3 698 383 821 
3 870 651 919 
3 483 484 542 
3 557 698 821 
3 186 45 690 
3 460 552 870 
3 41 169 709 
3 826 446 856 
3 681 328 946 
3 544 542 636 
3 489 488 521 
3 221 378 487 
3 221 219 378 
3 297 833 859 
3 161 47 693 
3 288 735 983 
3 662 518 663 
3 492 330 664 
3 563 759 922 
3 521 536 637 
3 483 482 484 
3 182 629 882 
3 368 711 712 
3 332 492 689 
3 672 694 695 
3 453 482 483 
3 487 488 489 
3 321 323 700 
3 496 723 810 
3 50 185 699 
3 524 522 620 
3 336 338 718 
3 577 911 938 
3 543 622 623 
3 542 484 543 
3 678 675 703 
3 227 225 296 
3 534 640 641 
3 489 521 522 
3 54 187 704 
3 187 638 964 
3 675 673 703 
3 695 694 696 
3 723 263 810 
3 415 416 443 
3 335 334 351 
3 333 332 334 
3 229 227 686 
3 510 730 838 
3 278 724 725 
3 671 669 672 
3 338 364 718 
3 412 297 413 
3 667 487 809 
3 414 413 415 
3 169 40 687 
3 184 38 688 
3 184 791 985 
3 496 722 723 
3 507 409 830 
3 483 542 544 
3 331 330 332 
3 558 358 692 
3 444 491 534 
3 732 733 736 
3 698 826 856 
3 708 706 800 
3 679 678 681 
3 213 211 485 
3 220 219 221 
3 358 337 692 
3 755 757 758 
3 282 241 683 
3 235 233 297 
3 241 239 683 
3 152 871 972 
3 629 630 631 
3 759 563 927 
3 408 452 453 
3 57 56 708 
3 342 344 434 
3 206 518 662 
3 183 771 993 
3 833 658 859 
3 243 241 282 
3 219 216 661 
3 165 43 710 
3 521 488 536 
3 225 222 667 
3 278 725 731 
3 669 668 694 
3 496 721 722 
3 44 165 690 
3 41 40 169 
3 37 36 170 
3 39 38 184 
3 218 216 219 
3 672 669 694 
3 677 675 678 
3 415 413 416 
3 443 416 444 
3 727 724 811 
3 671 672 673 
3 46 186 693 
3 586 507 668 
3 700 434 701 
3 586 668 669 
3 427 425 728 
3 235 297 412 
3 534 491 640 
3 407 466 467 
3 173 644 968 
3 414 415 417 
3 808 527 877 
3 724 278 811 
3 369 372 711 
3 188 708 800 
3 453 481 482 
3 42 41 709 
3 184 688 1017 
3 226 225 227 
3 755 756 757 
3 44 43 165 
3 153 704 705 
3 368 369 711 
3 323 342 700 
3 159 51 699 
3 115 154 756 
3 412 413 414 
3 224 222 225 
3 228 227 229 
3 296 225 667 
3 466 408 659 
3 46 45 186 
3 329 247 330 
3 455 454 684 
3 617 163 1043 
3 756 154 757 
3 523 522 524 
3 750 751 752 
3 637 536 872 
3 153 55 704 
3 48 47 161 
3 378 219 661 
3 747 749 750 
3 596 455 684 
3 750 749 751 
3 840 538 853 
3 732 174 733 
3 208 206 662 
3 50 49 185 
3 190 732 736 
3 170 36 697 
3 430 427 728 
3 557 605 698 
3 543 621 622 
3 342 434 700 
3 558 793 864 
3 52 51 159 
3 40 39 687 
3 38 37 688 
3 496 304 721 
3 299 301 727 
3 235 412 814 
3 304 306 721 
3 54 53 187 
3 408 352 452 
3 715 714 716 
3 712 713 714 
3 447 557 821 
3 58 188 720 
3 747 748 749 
3 56 55 153 
3 711 576 712 
3 43 42 710 
3 677 678 679 
3 114 115 756 
3 412 551 814 
3 506 409 507 
3 45 44 690 
3 218 219 220 
3 473 430 474 
3 467 583 584 
3 706 705 707 
3 468 575 576 
3 712 576 713 
3 746 189 747 
3 47 46 693 
3 692 351 793 
3 460 508 552 
3 557 604 605 
3 794 526 813 
3 712 714 715 
3 220 221 222 
3 51 50 699 
3 301 403 727 
3 312 348 418 
3 232 230 233 
3 571 464 572 
3 716 714 717 
3 721 418 722 
3 233 230 833 
3 569 426 843 
3 342 343 344 
3 234 233 235 
3 271 273 731 
3 453 452 481 
3 299 727 811 
3 474 430 728 
3 298 321 493 
3 56 153 708 
3 585 507 586 
3 469 794 813 
3 55 54 704 
3 153 705 706 
3 240 239 241 
3 747 189 748 
3 59 720 729 
3 670 669 671 
3 372 468 711 
3 58 57 188 
3 306 312 721 
3 444 490 491 
3 211 208 662 
3 298 493 841 
3 302 496 810 
3 464 423 730 
3 696 214 892 
3 523 648 848 
3 344 362 363 
3 631 630 632 
3 273 278 731 
3 323 325 342 
3 468 525 575 
3 495 317 796 
3 113 114 754 
3 482 481 486 
3 468 576 711 
3 724 566 725 
3 238 236 239 
3 312 418 721 
3 447 555 557 
3 372 435 468 
3 59 58 720 
3 224 225 226 
3 494 565 566 
3 226 227 228 
3 494 566 724 
3 754 114 756 
3 210 208 211 
3 763 762 764 
3 164 120 778 
3 403 458 494 
3 312 347 348 
3 792 462 817 
3 572 730 874 
3 572 464 730 
3 206 166 518 
3 190 104 732 
3 587 697 890 
3 228 229 230 
3 120 121 778 
3 582 502 759 
3 748 754 755 
3 564 921 948 
3 480 530 924 
3 560 792 817 
3 357 840 853 
3 281 279 790 
3 319 317 495 
3 460 471 508 
3 377 358 454 
3 194 762 763 
3 167 766 767 
3 156 60 729 
3 60 59 729 
3 762 761 765 
3 494 458 565 
3 302 304 496 
3 508 590 591 
3 502 421 759 
3 355 440 460 
3 776 774 777 
3 403 494 727 
3 725 566 726 
3 180 773 774 
3 194 761 762 
3 506 507 585 
3 121 122 775 
3 105 174 732 
3 105 106 174 
3 423 327 838 
3 167 10 766 
3 468 435 525 
3 653 466 659 
3 613 611 614 
3 693 186 808 
3 497 391 824 
3 543 484 621 
3 606 582 652 
3 489 522 523 
3 101 175 782 
3 100 101 782 
3 121 775 778 
3 775 774 776 
3 769 771 772 
3 345 286 420 
3 180 768 773 
3 761 158 765 
3 155 111 746 
3 286 281 790 
3 634 632 654 
3 103 104 190 
3 530 625 719 
3 306 311 312 
3 631 632 633 
3 10 11 766 
3 769 772 773 
3 30 29 785 
3 172 30 785 
3 557 555 604 
3 175 102 745 
3 766 763 767 
3 28 171 786 
3 420 286 790 
3 104 105 732 
3 103 190 745 
3 521 637 896 
3 36 35 697 
3 785 29 786 
3 180 774 775 
3 122 180 775 
3 581 502 582 
3 725 726 862 
3 787 545 788 
3 110 111 155 
3 192 779 780 
3 112 189 746 
3 463 423 464 
3 112 113 189 
3 111 112 746 
3 570 464 571 
3 516 579 580 
3 633 632 634 
3 809 523 848 
3 768 769 773 
3 318 319 798 
3 25 24 789 
3 195 25 789 
3 102 103 745 
3 399 327 423 
3 29 28 786 
3 473 474 589 
3 769 770 771 
3 768 203 769 
3 769 203 770 
3 11 12 194 
3 202 69 760 
3 80 79 204 
3 124 203 768 
3 13 158 761 
3 70 69 202 
3 68 178 760 
3 61 156 781 
3 76 177 779 
3 78 77 192 
3 69 68 760 
3 68 67 178 
3 192 77 779 
3 124 125 203 
3 98 99 176 
3 101 102 175 
3 180 123 768 
3 65 64 163 
3 191 62 781 
3 63 62 191 
3 123 124 768 
3 122 123 180 
3 61 60 156 
3 62 61 781 
3 76 75 177 
3 95 96 182 
3 77 76 779 
3 74 73 201 
3 93 94 546 
3 119 120 164 
3 117 118 193 
3 116 117 783 
3 115 116 154 
3 13 14 158 
3 12 13 761 
3 117 193 783 
3 16 17 168 
3 154 116 783 
3 34 33 173 
3 28 27 171 
3 31 30 172 
3 6 7 183 
3 9 10 167 
3 27 26 784 
3 19 20 181 
3 26 25 195 
3 20 21 787 
3 21 22 545 
3 194 12 761 
3 171 27 784 
3 26 195 784 
3 181 20 787 
3 21 545 787 
3 410 411 795 
3 189 113 754 
3 301 402 403 
3 775 776 778 
3 613 614 615 
3 494 724 727 
3 376 360 797 
3 345 420 421 
3 908 609 1001 
3 516 580 797 
3 403 404 458 
3 194 763 766 
3 360 422 797 
3 553 554 597 
3 11 194 766 
3 348 347 355 
3 310 308 361 
3 410 359 411 
3 478 410 795 
3 329 330 331 
3 523 524 648 
3 239 236 814 
3 318 317 319 
3 422 515 516 
3 626 478 627 
3 469 563 564 
3 541 462 549 
3 457 406 462 
3 602 601 628 
3 316 314 317 
3 359 318 798 
3 553 541 554 
3 457 541 553 
3 361 308 820 
3 516 547 579 
3 419 391 497 
3 626 627 656 
3 617 615 618 
3 549 462 792 
3 396 394 397 
3 312 311 347 
3 356 438 439 
3 375 461 469 
3 581 582 606 
3 748 189 754 
3 457 462 541 
3 516 515 547 
3 755 754 756 
3 674 673 675 
3 600 500 601 
3 346 360 376 
3 422 478 515 
3 525 526 577 
3 515 478 626 
3 600 601 602 
3 342 325 343 
3 617 618 619 
3 588 470 603 
3 612 611 613 
3 405 397 406 
3 439 470 533 
3 469 564 794 
3 741 739 742 
3 393 395 499 
3 280 284 299 
3 456 406 457 
3 396 405 433 
3 565 458 737 
3 627 478 795 
3 422 410 478 
3 405 406 456 
3 398 350 436 
3 458 404 459 
3 431 517 593 
3 397 804 817 
3 403 402 404 
3 310 361 796 
3 610 538 611 
3 396 397 405 
3 539 455 596 
3 513 608 609 
3 339 337 358 
3 422 516 797 
3 395 394 396 
3 743 741 744 
3 499 500 598 
3 460 440 471 
3 737 459 738 
3 360 410 422 
3 439 438 470 
3 613 615 617 
3 458 459 737 
3 533 470 588 
3 459 404 806 
3 299 300 301 
3 285 281 286 
3 740 741 743 
3 119 164 818 
3 193 118 818 
3 411 359 798 
3 356 398 438 
3 316 317 318 
3 317 314 796 
3 273 277 278 
3 372 373 435 
3 419 497 498 
3 685 559 1035 
3 301 401 402 
3 508 471 590 
3 438 398 449 
3 499 395 500 
3 598 500 600 
3 501 421 502 
3 537 504 538 
3 390 388 391 
3 356 350 398 
3 573 497 842 
3 498 497 573 
3 293 350 356 
3 622 621 649 
3 287 286 345 
3 360 359 410 
3 738 739 740 
3 586 669 670 
3 419 498 560 
3 346 318 359 
3 316 318 346 
3 345 421 501 
3 346 359 360 
3 390 391 392 
3 740 739 741 
3 393 394 395 
3 392 391 419 
3 245 246 841 
3 804 560 817 
3 404 465 806 
3 738 459 739 
3 401 300 561 
3 275 272 276 
3 393 392 394 
3 267 269 302 
3 285 287 293 
3 513 502 581 
3 390 392 393 
3 285 286 287 
3 610 611 612 
3 397 394 804 
3 346 376 799 
3 153 706 708 
3 404 402 465 
3 293 287 350 
3 501 502 513 
3 315 314 316 
3 396 433 803 
3 513 581 608 
3 299 284 300 
3 603 470 801 
3 393 499 802 
3 301 300 401 
3 314 310 796 
3 401 561 562 
3 462 406 817 
3 284 281 285 
3 309 313 357 
3 469 461 563 
3 313 310 314 
3 742 739 806 
3 315 316 799 
3 716 717 898 
3 470 438 801 
3 601 500 803 
3 463 464 570 
3 413 297 859 
3 395 396 803 
3 375 469 813 
3 387 389 447 
3 438 449 801 
3 614 611 840 
3 399 423 463 
3 344 343 362 
3 498 573 574 
3 302 303 304 
3 436 350 807 
3 307 305 308 
3 537 538 610 
3 525 435 526 
3 316 346 799 
3 394 392 804 
3 369 371 372 
3 309 308 310 
3 555 448 556 
3 439 533 839 
3 280 281 284 
3 232 233 234 
3 313 314 315 
3 444 416 490 
3 234 235 236 
3 389 388 390 
3 500 395 803 
3 447 448 555 
3 739 459 806 
3 477 379 504 
3 304 305 306 
3 499 598 828 
3 676 675 677 
3 363 362 431 
3 309 310 313 
3 392 419 804 
3 273 275 277 
3 277 279 280 
3 345 501 807 
3 306 307 311 
3 280 299 811 
3 389 390 802 
3 447 389 448 
3 249 251 298 
3 790 279 812 
3 331 332 333 
3 280 279 281 
3 277 275 279 
3 287 345 807 
3 355 379 440 
3 268 266 270 
3 419 560 804 
3 264 266 267 
3 306 305 307 
3 302 269 303 
3 238 239 240 
3 350 287 807 
3 477 504 537 
3 477 537 642 
3 424 426 569 
3 273 272 275 
3 304 303 305 
3 390 393 802 
3 278 277 811 
3 412 414 551 
3 284 285 805 
3 435 373 813 
3 271 272 273 
3 285 293 805 
3 356 439 831 
3 303 269 503 
3 307 308 309 
3 442 479 480 
3 118 119 818 
3 260 258 261 
3 264 262 265 
3 271 270 272 
3 448 389 802 
3 267 268 269 
3 300 284 805 
3 268 270 271 
3 406 397 817 
3 561 300 805 
3 513 609 827 
3 807 501 827 
3 526 435 813 
3 275 276 812 
3 260 262 263 
3 267 266 268 
3 375 437 461 
3 436 807 827 
3 698 605 826 
3 805 293 831 
3 355 347 379 
3 428 441 442 
3 212 211 213 
3 451 385 472 
3 480 529 530 
3 246 249 841 
3 426 428 843 
3 373 374 375 
3 271 731 815 
3 242 241 243 
3 365 367 368 
3 437 374 450 
3 277 280 811 
3 264 265 266 
3 263 262 264 
3 561 805 831 
3 267 302 810 
3 260 261 262 
3 256 258 259 
3 279 275 812 
3 326 324 327 
3 387 388 389 
3 256 254 257 
3 440 379 477 
3 372 371 373 
3 590 471 592 
3 263 264 810 
3 530 624 625 
3 223 222 224 
3 373 375 813 
3 215 213 216 
3 505 409 506 
3 263 723 846 
3 486 643 647 
3 217 216 218 
3 297 233 833 
3 375 374 437 
3 607 578 644 
3 461 437 476 
3 638 532 639 
3 792 560 835 
3 349 327 399 
3 802 499 828 
3 386 385 451 
3 259 258 260 
3 298 320 321 
3 535 472 578 
3 309 357 816 
3 384 386 387 
3 463 570 651 
3 373 371 374 
3 384 382 385 
3 693 808 877 
3 477 642 829 
3 268 271 815 
3 448 802 828 
3 556 448 828 
3 264 267 810 
3 311 307 816 
3 347 311 819 
3 501 513 827 
3 333 334 335 
3 252 254 255 
3 256 257 258 
3 236 235 814 
3 535 578 607 
3 671 673 674 
3 560 498 835 
3 491 490 548 
3 381 353 409 
3 307 309 816 
3 573 842 858 
3 354 382 383 
3 269 268 815 
3 252 250 253 
3 384 385 386 
3 451 472 535 
3 391 388 824 
3 387 386 388 
3 538 504 853 
3 531 445 532 
3 504 379 819 
3 308 305 820 
3 620 522 896 
3 326 349 380 
3 291 289 295 
3 293 356 831 
3 255 254 256 
3 572 874 886 
3 321 322 323 
3 338 340 364 
3 252 253 254 
3 323 324 325 
3 489 523 809 
3 503 269 815 
3 383 698 856 
3 616 176 1000 
3 84 143 152 
3 305 303 820 
3 349 399 400 
3 670 671 791 
3 298 251 320 
3 303 503 820 
3 387 447 821 
3 85 144 197 
3 326 327 349 
3 322 320 510 
3 487 489 809 
3 311 816 819 
3 368 367 369 
3 379 347 819 
3 471 440 829 
3 325 324 326 
3 388 386 824 
3 432 430 473 
3 440 477 829 
3 86 145 157 
3 383 384 821 
3 593 517 594 
3 386 451 824 
3 323 322 324 
3 251 250 252 
3 893 565 897 
3 377 454 455 
3 497 824 842 
3 831 439 839 
3 87 146 196 
3 429 427 430 
3 498 574 835 
3 369 370 371 
3 231 230 232 
3 383 382 384 
3 862 726 867 
3 364 340 365 
3 486 481 643 
3 450 374 823 
3 369 367 370 
3 371 370 823 
3 321 320 322 
3 697 35 890 
3 88 147 160 
3 611 538 840 
3 248 247 329 
3 292 354 856 
3 339 358 377 
3 592 471 829 
3 374 371 823 
3 562 561 839 
3 343 325 822 
3 260 263 846 
3 431 445 517 
3 414 417 855 
3 291 295 830 
3 531 532 638 
3 384 387 821 
3 671 674 791 
3 382 381 845 
3 381 409 505 
3 351 407 793 
3 614 840 860 
3 354 381 382 
3 245 702 866 
3 89 148 198 
3 531 638 682 
3 336 335 337 
3 561 831 839 
3 431 362 445 
3 183 7 863 
3 237 236 238 
3 326 380 822 
3 505 506 825 
3 506 585 587 
3 325 326 822 
3 472 385 845 
3 246 244 247 
3 428 442 843 
3 90 149 162 
3 677 679 680 
3 91 150 199 
3 151 91 834 
3 249 298 841 
3 82 151 166 
3 519 274 520 
3 240 241 242 
3 252 255 832 
3 365 340 366 
3 249 250 251 
3 451 535 842 
3 674 675 676 
3 357 313 860 
3 517 445 531 
3 259 260 846 
3 381 505 845 
3 251 252 832 
3 615 614 869 
3 385 382 845 
3 409 353 830 
3 327 324 838 
3 246 248 249 
3 442 441 479 
3 220 222 223 
3 365 366 367 
3 336 337 338 
3 551 414 855 
3 228 230 231 
3 618 615 873 
3 354 353 381 
3 249 248 250 
3 424 569 849 
3 380 349 837 
3 824 451 842 
3 480 479 529 
3 446 292 856 
3 552 508 884 
3 320 251 832 
3 349 400 837 
3 234 236 237 
3 578 472 861 
3 530 529 624 
3 322 510 838 
3 338 337 339 
3 432 473 475 
3 237 274 512 
3 246 247 248 
3 324 322 838 
3 355 460 870 
3 338 339 340 
3 510 320 832 
3 215 216 217 
3 618 873 879 
3 217 218 328 
3 429 430 432 
3 212 213 215 
3 209 208 210 
3 223 224 283 
3 532 445 847 
3 840 357 860 
3 292 353 354 
3 506 587 825 
3 210 211 212 
3 329 331 509 
3 432 475 528 
3 842 535 858 
3 238 240 836 
3 237 238 274 
3 248 329 844 
3 353 291 830 
3 490 416 859 
3 519 520 550 
3 416 413 859 
3 362 343 847 
3 528 595 635 
3 253 250 844 
3 377 455 511 
3 585 586 868 
3 548 490 658 
3 886 259 899 
3 528 475 595 
3 292 291 353 
3 816 357 853 
3 242 243 244 
3 511 455 539 
3 879 580 883 
3 231 232 341 
3 344 363 894 
3 479 441 527 
3 539 596 599 
3 819 816 853 
3 452 689 881 
3 290 292 446 
3 361 867 888 
3 250 248 844 
3 615 869 873 
3 512 274 519 
3 329 509 844 
3 231 341 424 
3 511 539 540 
3 426 427 428 
3 343 822 847 
3 625 624 996 
3 428 429 441 
3 336 718 865 
3 313 315 860 
3 535 607 858 
3 682 159 900 
3 445 362 847 
3 245 244 246 
3 424 425 426 
3 797 580 879 
3 741 742 876 
3 428 427 429 
3 354 383 856 
3 614 860 869 
3 504 819 853 
3 95 182 882 
3 546 94 882 
3 215 217 294 
3 426 425 427 
3 495 796 888 
3 223 283 514 
3 520 274 836 
3 707 891 1015 
3 242 244 245 
3 34 173 890 
3 207 206 208 
3 274 238 836 
3 361 820 867 
3 333 335 336 
3 503 815 862 
3 424 341 425 
3 226 228 849 
3 290 291 292 
3 514 283 567 
3 514 567 568 
3 772 771 925 
3 815 731 862 
3 658 490 859 
3 218 220 850 
3 328 218 850 
3 639 532 875 
3 7 8 863 
3 366 340 854 
3 232 234 851 
3 731 725 862 
3 91 199 834 
3 166 151 834 
3 290 289 291 
3 407 467 793 
3 867 726 888 
3 400 399 880 
3 340 339 854 
3 161 693 877 
3 845 505 861 
3 566 565 893 
3 860 315 869 
3 777 774 895 
3 463 651 880 
3 341 232 851 
3 773 772 895 
3 472 845 861 
3 339 377 854 
3 220 223 850 
3 228 231 849 
3 256 259 886 
3 722 418 915 
3 505 825 861 
3 418 348 919 
3 237 512 851 
3 234 237 851 
3 143 83 871 
3 377 511 854 
3 429 432 857 
3 209 210 214 
3 432 528 857 
3 481 452 881 
3 673 672 913 
3 527 441 857 
3 518 166 834 
3 441 429 857 
3 315 799 869 
3 728 425 885 
3 503 862 867 
3 820 503 867 
3 586 670 868 
3 723 722 912 
3 231 424 849 
3 702 701 918 
3 348 355 870 
3 836 240 866 
3 865 718 898 
3 730 510 874 
3 509 331 865 
3 223 514 850 
3 509 865 898 
3 283 224 889 
3 532 847 875 
3 847 822 875 
3 240 242 866 
3 288 289 290 
3 869 799 873 
3 799 376 873 
3 467 584 864 
3 283 889 907 
3 618 879 883 
3 534 641 920 
3 495 893 897 
3 152 143 871 
3 873 376 879 
3 333 336 865 
3 744 741 876 
3 894 363 953 
3 288 214 289 
3 209 214 288 
3 341 851 885 
3 90 162 887 
3 199 150 887 
3 376 797 879 
3 915 418 919 
3 572 886 899 
3 399 463 880 
3 832 255 874 
3 331 333 865 
3 150 90 887 
3 207 208 209 
3 94 95 882 
3 822 380 875 
3 242 245 866 
3 531 682 900 
3 515 626 910 
3 510 832 874 
3 619 618 883 
3 898 717 902 
3 594 517 900 
3 851 512 885 
3 474 728 909 
3 508 591 884 
3 272 270 911 
3 849 569 889 
3 874 255 886 
3 226 849 889 
3 643 481 881 
3 589 474 917 
3 255 256 886 
3 796 361 888 
3 224 226 889 
3 986 200 999 
3 701 434 934 
3 655 152 972 
3 436 827 908 
3 495 888 893 
3 442 480 916 
3 214 210 892 
3 89 198 904 
3 35 34 890 
3 83 142 200 
3 162 149 904 
3 571 572 899 
3 565 737 897 
3 522 521 896 
3 928 713 931 
3 912 722 915 
3 425 341 885 
3 434 344 894 
3 679 981 991 
3 793 467 864 
3 726 566 893 
3 897 737 901 
3 790 812 921 
3 205 166 206 
3 210 212 892 
3 18 656 957 
3 774 773 895 
3 599 596 943 
3 759 421 922 
3 737 738 901 
3 253 902 923 
3 714 713 928 
3 718 716 898 
3 319 495 897 
3 215 294 905 
3 901 738 903 
3 253 844 902 
3 889 569 907 
3 605 604 977 
3 363 431 929 
3 738 740 903 
3 319 897 901 
3 88 160 914 
3 257 254 923 
3 903 740 906 
3 177 75 930 
3 74 201 930 
3 198 148 914 
3 798 319 901 
3 576 575 933 
3 655 653 960 
3 517 531 900 
3 563 461 927 
3 933 575 935 
3 918 701 934 
3 149 89 904 
3 740 743 906 
3 9 167 932 
3 205 206 207 
3 798 901 903 
3 259 846 899 
3 888 726 893 
3 646 685 999 
3 954 192 1028 
3 261 258 931 
3 837 707 952 
3 474 909 917 
3 411 798 903 
3 411 903 906 
3 902 717 923 
3 476 758 1008 
3 685 986 999 
3 795 411 906 
3 884 591 891 
3 525 577 936 
3 569 843 907 
3 666 665 920 
3 567 283 907 
3 642 156 995 
3 108 109 943 
3 24 23 939 
3 71 70 940 
3 73 72 941 
3 265 262 935 
3 728 885 909 
3 844 509 902 
3 827 609 908 
3 83 200 871 
3 792 835 937 
3 212 215 905 
3 82 166 205 
3 48 161 950 
3 863 8 932 
3 185 49 950 
3 892 212 905 
3 270 266 938 
3 885 512 909 
3 265 935 936 
3 544 636 960 
3 936 577 938 
3 294 217 926 
3 547 515 910 
3 261 931 933 
3 567 907 916 
3 943 109 1030 
3 257 923 928 
3 672 695 913 
3 276 272 911 
3 577 526 945 
3 512 519 909 
3 751 370 997 
3 87 196 942 
3 160 147 942 
3 276 945 948 
3 571 899 912 
3 836 866 918 
3 907 843 916 
3 676 677 949 
3 148 88 914 
3 779 177 951 
3 624 529 974 
3 509 898 902 
3 152 655 967 
3 665 534 920 
3 846 723 912 
3 514 568 946 
3 899 846 912 
3 559 864 1035 
3 570 571 915 
3 636 542 959 
3 866 702 918 
3 571 912 915 
3 909 519 917 
3 433 654 1034 
3 812 276 948 
3 583 655 972 
3 570 915 919 
3 543 623 959 
3 943 596 1013 
3 204 79 954 
3 78 192 954 
3 757 154 956 
3 651 570 919 
3 420 921 922 
3 420 790 921 
3 916 480 924 
3 519 550 917 
3 843 442 916 
3 257 928 931 
3 97 98 955 
3 191 781 990 
3 421 420 922 
3 380 837 952 
3 520 836 918 
3 603 801 925 
3 328 850 946 
3 254 253 923 
3 755 758 962 
3 717 714 928 
3 17 18 957 
3 217 328 926 
3 461 476 927 
3 744 876 1027 
3 568 567 924 
3 431 593 929 
3 911 577 945 
3 932 167 1006 
3 520 918 934 
3 75 74 930 
3 749 748 962 
3 808 186 974 
3 687 184 985 
3 201 941 1025 
3 644 578 968 
3 709 169 949 
3 258 257 931 
3 261 933 935 
3 705 704 964 
3 179 108 943 
3 8 9 932 
3 744 1027 1041 
3 276 911 945 
3 713 576 933 
3 86 157 958 
3 196 146 958 
3 604 555 965 
3 923 717 928 
3 839 533 961 
3 473 589 966 
3 163 64 970 
3 63 191 970 
3 262 261 935 
3 190 736 977 
3 599 943 1030 
3 85 197 963 
3 752 751 997 
3 157 145 963 
3 550 520 934 
3 575 525 936 
3 931 713 933 
3 753 540 989 
3 597 954 1028 
3 935 575 936 
3 549 792 937 
3 457 553 975 
3 789 24 939 
3 70 202 940 
3 201 73 941 
3 265 936 938 
3 147 87 942 
3 266 265 938 
3 66 65 976 
3 84 152 967 
3 197 144 967 
3 639 875 952 
3 782 175 965 
3 554 541 978 
3 567 916 924 
3 593 594 971 
3 679 681 981 
3 630 628 982 
3 945 794 948 
3 526 794 945 
3 951 177 1031 
3 966 593 971 
3 174 106 1005 
3 546 882 947 
3 629 631 947 
3 628 601 982 
3 511 540 979 
3 794 564 948 
3 574 786 1009 
3 803 433 982 
3 159 682 1012 
3 677 680 949 
3 850 514 946 
3 861 825 968 
3 465 402 988 
3 401 562 988 
3 642 537 990 
3 155 753 989 
3 588 932 1006 
3 49 48 950 
3 6 183 993 
3 882 629 947 
3 706 707 1015 
3 581 606 994 
3 164 778 1001 
3 31 172 998 
3 100 782 1000 
3 858 172 1003 
3 705 964 1039 
3 176 99 1000 
3 179 943 1013 
3 789 939 980 
3 436 908 1019 
3 574 573 1003 
3 67 66 1002 
3 674 676 985 
3 366 854 979 
3 736 733 973 
3 764 762 1004 
3 589 929 966 
3 52 159 1012 
3 780 779 951 
3 187 53 1012 
3 540 539 989 
3 617 619 976 
3 367 366 997 
3 772 925 1024 
3 188 800 1010 
3 697 587 1011 
3 607 644 998 
3 600 602 955 
3 207 209 983 
3 653 544 960 
3 709 949 1026 
3 767 763 1018 
3 584 986 1035 
3 929 593 966 
3 96 97 1016 
3 587 585 1011 
3 3 80 1020 
3 23 3 1020 
3 125 0 1021 
3 0 4 1021 
3 72 1 1022 
3 1 93 1022 
3 2 71 1023 
3 22 2 1023 
3 770 203 1021 
3 110 155 1030 
3 883 580 992 
3 528 635 1007 
3 449 398 1019 
3 613 617 1043 
3 16 168 1041 
3 158 14 1027 
3 654 632 1034 
3 823 751 1029 
3 589 917 953 
3 908 777 1019 
3 806 465 1037 
3 949 680 1026 
3 79 78 954 
3 876 158 1027 
3 631 633 1025 
3 527 808 1038 
3 981 719 991 
3 946 568 981 
3 98 176 955 
3 550 894 953 
3 868 670 1017 
3 533 588 1006 
3 154 783 956 
3 479 527 1038 
3 875 380 952 
3 751 749 1029 
3 634 951 1031 
3 760 178 992 
3 527 857 1007 
3 877 527 1007 
3 168 17 957 
3 645 646 999 
3 146 86 958 
3 542 543 959 
3 733 735 973 
3 917 550 953 
3 835 574 1009 
3 704 187 964 
3 748 755 962 
3 757 956 1008 
3 145 85 963 
3 654 456 987 
3 562 839 961 
3 825 587 1033 
3 925 801 1024 
3 638 639 964 
3 555 556 965 
3 699 185 969 
3 475 473 966 
3 735 734 983 
3 729 592 995 
3 587 890 1033 
3 939 204 980 
3 144 84 967 
3 578 861 968 
3 186 690 974 
3 964 639 1039 
3 475 966 971 
3 64 63 970 
3 681 946 981 
3 81 645 1040 
3 584 583 972 
3 680 679 991 
3 446 826 973 
3 547 788 984 
3 595 475 971 
3 163 970 1043 
3 456 457 975 
3 159 699 1032 
3 829 642 995 
3 592 829 995 
3 961 767 1018 
3 65 163 976 
3 745 190 977 
3 541 549 978 
3 758 757 1008 
3 553 597 1028 
3 634 654 987 
3 770 5 993 
3 854 511 979 
3 568 719 981 
3 172 785 1003 
3 597 554 980 
3 900 159 1032 
3 601 803 982 
3 193 818 994 
3 684 646 1013 
3 818 608 994 
3 652 476 1008 
3 142 81 1040 
3 465 1004 1037 
3 579 547 984 
3 791 674 985 
3 209 288 983 
3 402 401 988 
3 537 610 990 
3 591 800 1015 
3 969 185 1014 
3 808 974 1038 
3 719 625 991 
3 956 652 1008 
3 539 599 989 
3 580 579 992 
3 771 770 993 
3 5 6 993 
3 871 200 986 
3 608 581 994 
3 156 729 995 
3 165 710 996 
3 937 835 1009 
3 185 950 1014 
3 891 591 1015 
3 982 433 1034 
3 32 31 998 
3 370 367 997 
3 99 100 1000 
3 749 962 1029 
3 778 776 1001 
3 178 67 1002 
3 734 174 1005 
3 895 772 1024 
3 762 765 1004 
3 996 710 1026 
3 573 858 1003 
3 170 697 1011 
3 167 767 1006 
3 596 684 1013 
3 970 612 1043 
3 939 23 1020 
3 71 940 1023 
3 941 72 1022 
3 800 706 1015 
3 449 895 1024 
3 968 825 1033 
3 164 1001 1042 
3 720 188 1010 
3 868 170 1011 
3 646 179 1013 
3 857 528 1007 
3 456 975 987 
3 786 171 1009 
3 53 52 1012 
3 177 930 1031 
3 710 709 1026 
3 585 868 1011 
3 951 634 987 
3 996 1026 1036 
3 763 764 1018 
3 182 96 1016 
3 635 595 1014 
3 80 204 1020 
3 203 125 1021 
3 93 546 1022 
3 545 22 1023 
3 398 436 1019 
3 707 705 1039 
3 670 791 1017 
3 171 937 1009 
3 801 449 1024 
3 986 685 1035 
3 14 15 1027 
3 192 780 1028 
3 109 110 1030 
3 890 173 1033 
3 633 634 1031 
3 450 823 1029 
3 632 630 1034 
3 950 635 1014 
3 1027 15 1041 
3 200 142 1040 
3 562 961 1018 
3 742 806 1037 
3 15 16 1041 
3 594 900 1032 
3 765 158 1044 
3 876 742 1044 
3 609 608 1042 
3 612 613 1043 
3 529 479 1038 
3 864 584 1035 
3 204 939 1020 
3 940 545 1023 
3 546 941 1022 
3 930 633 1031 
3 1037 765 1044 
3 742 1037 1044 
3 158 876 1044 
3 639 952 1039 
3 962 450 1029 
3 974 529 1038 
3 947 631 1025 
3 173 968 1033 
3 952 707 1039 
3 630 982 1034 
3 680 991 1036 
3 969 594 1032 
3 699 969 1032 
3 999 200 1040 
3 991 625 1036 
3 625 996 1036 
3 1001 609 1042 
3 1004 765 1037 
3 645 999 1040 
3 1026 680 1036 
3 140 141 93 
3 140 93 94 
3 139 140 94 
3 139 94 95 
3 138 139 95 
3 138 95 96 
3 137 138 96 
3 137 96 97 
3 136 137 97 
3 136 97 98 
3 135 136 98 
3 135 98 99 
3 127 82 1045 
3 134 135 99 
3 106 82 127 
3 134 99 100 
3 133 134 100 
3 101 133 100 
3 132 133 101 
3 102 132 101 
3 131 132 102 
3 131 102 103 
3 126 127 1045 
3 131 103 130 
3 103 104 130 
3 104 129 130 
3 104 105 129 
3 105 106 128 
3 129 105 128 
3 128 106 127 
3 82 151 1045 
3 151 126 1045 
3 92 1 1046 
3 93 141 1046 
3 1 93 1046 
3 141 92 1046 
3 151 91 126 

CELL_TYPES 1956
5
5
5
5
5
5
5
5
5
5
5
5
5
5
5
5
5
5
5
5
5
5
5
5
5
5
5
5
5
5
5
5
5
5
5
5
5
5
5
5
5
5
5
5
5
5
5
5
5
5
5
5
5
5
5
5
5
5
5
5
5
5
5
5
5
5
5
5
5
5
5
5
5
5
5
5
5
5
5
5
5
5
5
5
5
5
5
5
5
5
5
5
5
5
5
5
5
5
5
5
5
5
5
5
5
5
5
5
5
5
5
5
5
5
5
5
5
5
5
5
5
5
5
5
5
5
5
5
5
5
5
5
5
5
5
5
5
5
5
5
5
5
5
5
5
5
5
5
5
5
5
5
5
5
5
5
5
5
5
5
5
5
5
5
5
5
5
5
5
5
5
5
5
5
5
5
5
5
5
5
5
5
5
5
5
5
5
5
5
5
5
5
5
5
5
5
5
5
5
5
5
5
5
5
5
5
5
5
5
5
5
5
5
5
5
5
5
5
5
5
5
5
5
5
5
5
5
5
5
5
5
5
5
5
5
5
5
5
5
5
5
5
5
5
5
5
5
5
5
5
5
5
5
5
5
5
5
5
5
5
5
5
5
5
5
5
5
5
5
5
5
5
5
5
5
5
5
5
5
5
5
5
5
5
5
5
5
5
5
5
5
5
5
5
5
5
5
5
5
5
5
5
5
5
5
5
5
5
5
5
5
5
5
5
5
5
5
5
5
5
5
5
5
5
5
5
5
5
5
5
5
5
5
5
5
5
5
5
5
5
5
5
5
5
5
5
5
5
5
5
5
5
5
5
5
5
5
5
5
5
5
5
5
5
5
5
5
5
5
5
5
5
5
5
5
5
5
5
5
5
5
5
5
5
5
5
5
5
5
5
5
5
5
5
5
5
5
5
5
5
5
5
5
5
5
5
5
5
5
5
5
5
5
5
5
5
5
5
5
5
5
5
5
5
5
5
5
5
5
5
5
5
5
5
5
5
5
5
5
5
5
5
5
5
5
5
5
5
5
5
5
5
5
5
5
5
5
5
5
5
5
5
5
5
5
5
5
5
5
5
5
5
5
5
5
5
5
5
5
5
5
5
5
5
5
5
5
5
5
5
5
5
5
5
5
5
5
5
5
5
5
5
5
5
5
5
5
5
5
5
5
5
5
5
5
5
5
5
5
5
5
5
5
5
5
5
5
5
5
5
5
5
5
5
5
5
5
5
5
5
5
5
5
5
5
5
5
5
5
5
5
5
5
5
5
5
5
5
5
5
5
5
5
5
5
5
5
5
5
5
5
5
5
5
5
5
5
5
5
5
5
5
5
5
5
5
5
5
5
5
5
5
5
5
5
5
5
5
5
5
5
5
5
5
5
5
5
5
5
5
5
5
5
5
5
5
5
5
5
5
5
5
5
5
5
5
5
5
5
5
5
5
5
5
5
5
5
5
5
5
5
5
5
5
5
5
5
5
5
5
5
5
5
5
5
5
5
5
5
5
5
5
5
5
5
5
5
5
5
5
5
5
5
5
5
5
5
5
5
5
5
5
5
5
5
5
5
5
5
5
5
5
5
5
5
5
5
5
5
5
5
5
5
5
5
5
5
5
5
5
5
5
5
5
5
5
5
5
5
5
5
5
5
5
5
5
5
5
5
5
5
5
5
5
5
5
5
5
5
5
5
5
5
5
5
5
5
5
5
5
5
5
5
5
5
5
5
5
5
5
5
5
5
5
5
5
5
5
5
5
5
5
5
5
5
5
5
5
5
5
5
5
5
5
5
5
5
5
5
5
5
5
5
5
5
5
5
5
5
5
5
5
5
5
5
5
5
5
5
5
5
5
5
5
5
5
5
5
5
5
5
5
5
5
5
5
5
5
5
5
5
5
5
5
5
5
5
5
5
5
5
5
5
5
5
5
5
5
5
5
5
5
5
5
5
5
5
5
5
5
5
5
5
5
5
5
5
5
5
5
5
5
5
5
5
5
5
5
5
5
5
5
5
5
5
5
5
5
5
5
5
5
5
5
5
5
5
5
5
5
5
5
5
5
5
5
5
5
5
5
5
5
5
5
5
5
5
5
5
5
5
5
5
5
5
5
5
5
5
5
5
5
5
5
5
5
5
5
5
5
5
5
5
5
5
5
5
5
5
5
5
5
5
5
5
5
5
5
5
5
5
5
5
5
5
5
5
5
5
5
5
5
5
5
5
5
5
5
5
5
5
5
5
5
5
5
5
5
5
5
5
5
5
5
5
5
5
5
5
5
5
5
5
5
5
5
5
5
5
5
5
5
5
5
5
5
5
5
5
5
5
5
5
5
5
5
5
5
5
5
5
5
5
5
5
5
5
5
5
5
5
5
5
5
5
5
5
5
5
5
5
5
5
5
5
5
5
5
5
5
5
5
5
5
5
5
5
5
5
5
5
5
5
5
5
5
5
5
5
5
5
5
5
5
5
5
5
5
5
5
5
5
5
5
5
5
5
5
5
5
5
5
5
5
5
5
5
5
5
5
5
5
5
5
5
5
5
5
5
5
5
5
5
5
5
5
5
5
5
5
5
5
5
5
5
5
5
5
5
5
5
5
5
5
5
5
5
5
5
5
5
5
5
5
5
5
5
5
5
5
5
5
5
5
5
5
5
5
5
5
5
5
5
5
5
5
5
5
5
5
5
5
5
5
5
5
5
5
5
5
5
5
5
5
5
5
5
5
5
5
5
5
5
5
5
5
5
5
5
5
5
5
5
5
5
5
5
5
5
5
5
5
5
5
5
5
5
5
5
5
5
5
5
5
5
5
5
5
5
5
5
5
5
5
5
5
5
5
5
5
5
5
5
5
5
5
5
5
5
5
5
5
5
5
5
5
5
5
5
5
5
5
5
5
5
5
5
5
5
5
5
5
5
5
5
5
5
5
5
5
5
5
5
5
5
5
5
5
5
5
5
5
5
5
5
5
5
5
5
5
5
5
5
5
5
5
5
5
5
5
5
5
5
5
5
5
5
5
5
5
5
5
5
5
5
5
5
5
5
5
5
5
5
5
5
5
5
5
5
5
5
5
5
5
5
5
5
5
5
5
5
5
5
5
5
5
5
5
5
5
5
5
5
5
5
5
5
5
5
5
5
5
5
5
5
5
5
5
5
5
5
5
5
5
5
5
5
5
5
5
5
5
5
5
5
5
5
5
5
5
5
5
5
5
5
5
5
5
5
5
5
5
5
5
5
5
5
5
5
5
5
5
5
5
5
5
5
5
5
5
5
5
5
5
5
5
5
5
5
5
5
5
5
5
5
5
5
5
5
5
5
5
5
5
5
5
5
5
5
5
5
5
5
5
5
5
5
5
5
5
5
5
5
5
5
5
5
5
5
5
5
5
5
5
5
5
5
5
5
5
5
5
5
5
5
5
5
5
5
5
5
5
5
5
5
5
5
5
5
5
5
5
5
5
5
5
5
5
5
5
5
5
5
5
5
5
5
5
5
5
5
5
5
5
5
5
5
5
5
5
5
5
5
5
5
5
5
5
5
5
5
5
5
5
5
5
5
5
5
5
5
5
5
5
5
5
5
5
5
5
5
5
5
5
5
5
5
5
5
5
5
5
5
5
5
5
5
5
5
5
5
5
5
5
5
5
5
5
5
5
5
5
5
5
5
5
5
5
5
5
5
5
5
5
5
5
5
5
5
5
5
5
5
5
5
5
5
5
5
5
5
5
5
5
5
5
5
5
5
5
5
5
5
5
5
5
5
5
5
5
5
5
5
5
5
5
5
5
5
5
5
5
5
5
5
5
5
5
5
5
5
5
5
5
5
5
5
5
5
5
5
5
5
5
5
5
5
5
5
5
5
5
5
5
5
5
5
5
5
5
5
5
5
5
5
5
5
5
5
5
5
5
5
5
5
5
5
5
5
5
5
5
5
5
5
5
5
5
5
5
5
5
5
5
5
5
5
5
5
5
5
5
5
5
5
5
5
5
5
5
5
5
5
5
5
5
5
5
5
5
5
5
5
5
5
5
5
5
5
5
5
5
5
5
5
5
5
5
5
5
5
5
5
5
5
5
5
5
5
5
5
5
5
5
5
5
5
5
5
5
5
5
5
5
5
5
5
5
5
5
5
5
5
5
5
5
5
5
5
5
5
5
5
5
5
5
5
5
5
5
5
5
5
5
5
5
5
5
5
5
5
5
5
5
5
5
5
5
5
5
5
5
5
5
5
5
5
5
5
5
5
5
5
5
5
5
5
5
5
5
5
5
5
5
5
5
5
5
5
5
5
5
5
5
5
5
5
5
5
5
5
5
5
5
5
5
5
5
5
5
5
5
5
5
5
5
5
5
5
5
5
5
5
5
5
5
5
5
5
5
5
5
5
5
5
5
5
5
5
5
5
5
5
5
5
5
5
5
5
5
5
5
5
5
5
5

POINT_DATA 1047

VECTORS coord float
0.0 0.0 0.0 
5.000000000000e+01 -1.000000000000e+01 0.0 
0.0 -2.000000000000e+01 0.0 
5.000000000000e+01 -2.000000000000e+01 0.0 
0.0 -9.999999999991e-01 0.0 
0.0 -1.999999999998e+00 0.0 
0.0 -2.999999999997e+00 0.0 
0.0 -3.999999999994e+00 0.0 
0.0 -4.999999999991e+00 0.0 
0.0 -5.999999999988e+00 0.0 
0.0 -6.999999999985e+00 0.0 
0.0 -7.999999999982e+00 0.0 
0.0 -8.999999999983e+00 0.0 
0.0 -9.999999999985e+00 0.0 
0.0 -1.099999999999e+01 0.0 
0.0 -1.199999999999e+01 0.0 
0.0 -1.299999999999e+01 0.0 
0.0 -1.399999999999e+01 0.0 
0.0 -1.499999999999e+01 0.0 
0.0 -1.599999999999e+01 0.0 
0.0 -1.700000000000e+01 0.0 
0.0 -1.800000000000e+01 0.0 
0.0 -1.900000000000e+01 0.0 
4.900000000001e+01 -2.000000000000e+01 0.0 
4.800000000001e+01 -2.000000000000e+01 0.0 
4.700000000002e+01 -2.000000000000e+01 0.0 
4.600000000003e+01 -2.000000000000e+01 0.0 
4.500000000004e+01 -2.000000000000e+01 0.0 
4.400000000004e+01 -2.000000000000e+01 0.0 
4.300000000005e+01 -2.000000000000e+01 0.0 
4.200000000006e+01 -2.000000000000e+01 0.0 
4.100000000006e+01 -2.000000000000e+01 0.0 
4.000000000007e+01 -2.000000000000e+01 0.0 
3.900000000008e+01 -2.000000000000e+01 0.0 
3.800000000009e+01 -2.000000000000e+01 0.0 
3.700000000009e+01 -2.000000000000e+01 0.0 
3.600000000010e+01 -2.000000000000e+01 0.0 
3.500000000011e+01 -2.000000000000e+01 0.0 
3.400000000011e+01 -2.000000000000e+01 0.0 
3.300000000012e+01 -2.000000000000e+01 0.0 
3.200000000013e+01 -2.000000000000e+01 0.0 
3.100000000013e+01 -2.000000000000e+01 0.0 
3.000000000013e+01 -2.000000000000e+01 0.0 
2.900000000013e+01 -2.000000000000e+01 0.0 
2.800000000013e+01 -2.000000000000e+01 0.0 
2.700000000013e+01 -2.000000000000e+01 0.0 
2.600000000013e+01 -2.000000000000e+01 0.0 
2.500000000013e+01 -2.000000000000e+01 0.0 
2.400000000013e+01 -2.000000000000e+01 0.0 
2.300000000013e+01 -2.000000000000e+01 0.0 
2.200000000013e+01 -2.000000000000e+01 0.0 
2.100000000013e+01 -2.000000000000e+01 0.0 
2.000000000013e+01 -2.000000000000e+01 0.0 
1.900000000013e+01 -2.000000000000e+01 0.0 
1.800000000013e+01 -2.000000000000e+01 0.0 
1.700000000012e+01 -2.000000000000e+01 0.0 
1.600000000011e+01 -2.000000000000e+01 0.0 
1.500000000011e+01 -2.000000000000e+01 0.0 
1.400000000010e+01 -2.000000000000e+01 0.0 
1.300000000009e+01 -2.000000000000e+01 0.0 
1.200000000009e+01 -2.000000000000e+01 0.0 
1.100000000008e+01 -2.000000000000e+01 0.0 
1.000000000007e+01 -2.000000000000e+01 0.0 
9.000000000064e+00 -2.000000000000e+01 0.0 
8.000000000057e+00 -2.000000000000e+01 0.0 
7.000000000050e+00 -2.000000000000e+01 0.0 
6.000000000043e+00 -2.000000000000e+01 0.0 
5.000000000036e+00 -2.000000000000e+01 0.0 
4.000000000028e+00 -2.000000000000e+01 0.0 
3.000000000021e+00 -2.000000000000e+01 0.0 
2.000000000014e+00 -2.000000000000e+01 0.0 
1.000000000007e+00 -2.000000000000e+01 0.0 
5.000000000000e+01 -1.100000000000e+01 0.0 
5.000000000000e+01 -1.200000000000e+01 0.0 
5.000000000000e+01 -1.300000000000e+01 0.0 
5.000000000000e+01 -1.400000000000e+01 0.0 
5.000000000000e+01 -1.500000000000e+01 0.0 
5.000000000000e+01 -1.600000000000e+01 0.0 
5.000000000000e+01 -1.700000000000e+01 0.0 
5.000000000000e+01 -1.800000000000e+01 0.0 
5.000000000000e+01 -1.900000000000e+01 0.0 
2.000000000000e+01 0.0 0.0 
3.500000000000e+01 -1.000000000000e+01 0.0 
2.150000000000e+01 -1.000000000000e+00 0.0 
2.300000000000e+01 -2.000000000000e+00 0.0 
2.450000000000e+01 -3.000000000000e+00 0.0 
2.600000000000e+01 -4.000000000000e+00 0.0 
2.750000000000e+01 -5.000000000000e+00 0.0 
2.900000000000e+01 -6.000000000000e+00 0.0 
3.050000000000e+01 -7.000000000000e+00 0.0 
3.200000000000e+01 -8.000000000000e+00 0.0 
3.350000000000e+01 -9.000000000000e+00 0.0 
5.000000000000e+01 -9.000000000000e+00 0.0 
4.900000000000e+01 -1.000000000000e+01 0.0 
4.800000000000e+01 -1.000000000000e+01 0.0 
4.700000000000e+01 -1.000000000000e+01 0.0 
4.600000000000e+01 -1.000000000000e+01 0.0 
4.500000000000e+01 -1.000000000000e+01 0.0 
4.400000000000e+01 -1.000000000000e+01 0.0 
4.300000000000e+01 -1.000000000000e+01 0.0 
4.200000000000e+01 -1.000000000000e+01 0.0 
4.100000000000e+01 -1.000000000000e+01 0.0 
4.000000000000e+01 -1.000000000000e+01 0.0 
3.900000000000e+01 -1.000000000000e+01 0.0 
3.800000000000e+01 -1.000000000000e+01 0.0 
3.700000000000e+01 -1.000000000000e+01 0.0 
3.600000000000e+01 -1.000000000000e+01 0.0 
1.900000000000e+01 0.0 0.0 
1.800000000000e+01 0.0 0.0 
1.700000000000e+01 0.0 0.0 
1.600000000000e+01 0.0 0.0 
1.500000000000e+01 0.0 0.0 
1.400000000000e+01 0.0 0.0 
1.300000000000e+01 0.0 0.0 
1.200000000000e+01 0.0 0.0 
1.100000000000e+01 0.0 0.0 
1.000000000000e+01 0.0 0.0 
9.000000000000e+00 0.0 0.0 
8.000000000000e+00 0.0 0.0 
7.000000000000e+00 0.0 0.0 
6.000000000000e+00 0.0 0.0 
5.000000000000e+00 0.0 0.0 
4.000000000000e+00 0.0 0.0 
3.000000000000e+00 0.0 0.0 
2.000000000000e+00 0.0 0.0 
1.000000000000e+00 0.0 0.0 
3.447058823527e+01 -9.000000000000e+00 0.0 
3.544117647055e+01 -9.000000000000e+00 0.0 
3.641176470582e+01 -9.000000000000e+00 0.0 
3.738235294109e+01 -9.000000000000e+00 0.0 
3.835294117637e+01 -9.000000000000e+00 0.0 
3.932352941164e+01 -9.000000000000e+00 0.0 
4.029411764691e+01 -9.000000000000e+00 0.0 
4.126470588219e+01 -9.000000000000e+00 0.0 
4.223529411748e+01 -9.000000000000e+00 0.0 
4.320588235279e+01 -9.000000000000e+00 0.0 
4.417647058811e+01 -9.000000000000e+00 0.0 
4.514705882342e+01 -9.000000000000e+00 0.0 
4.611764705874e+01 -9.000000000000e+00 0.0 
4.708823529405e+01 -9.000000000000e+00 0.0 
4.805882352937e+01 -9.000000000000e+00 0.0 
4.902941176468e+01 -9.000000000000e+00 0.0 
2.075000000000e+01 -5.000000000006e-01 0.0 
2.225000000000e+01 -1.500000000000e+00 0.0 
2.375000000000e+01 -2.500000000000e+00 0.0 
2.525000000000e+01 -3.500000000000e+00 0.0 
2.675000000000e+01 -4.500000000000e+00 0.0 
2.825000000000e+01 -5.500000000000e+00 0.0 
2.975000000000e+01 -6.500000000000e+00 0.0 
3.125000000000e+01 -7.500000000000e+00 0.0 
3.275000000000e+01 -8.500000000000e+00 0.0 
3.425000000000e+01 -9.500000000000e+00 0.0 
2.226951693683e+01 -2.403913980114e+00 0.0 
1.650149491944e+01 -1.913490915758e+01 0.0 
1.050042386896e+01 -8.504605092970e-01 0.0 
1.553146524712e+01 -8.281255032105e-01 0.0 
1.150000000008e+01 -1.913397459621e+01 0.0 
2.530060260647e+01 -4.428336431260e+00 0.0 
8.651114563942e-01 -1.052096295641e+01 0.0 
2.050000000013e+01 -1.913397459622e+01 0.0 
2.819198729811e+01 -6.399519052838e+00 0.0 
2.445670302931e+01 -1.915649188023e+01 0.0 
3.117591465718e+01 -8.394293040695e+00 0.0 
7.465053044742e+00 -1.920411160581e+01 0.0 
6.398295709691e+00 -8.230098819370e-01 0.0 
2.849659607461e+01 -1.914296187762e+01 0.0 
3.418732642882e+01 -1.040265792588e+01 0.0 
8.386450935063e-01 -6.533605142809e+00 0.0 
9.178661865596e-01 -1.329769195597e+01 0.0 
3.149448624493e+01 -1.910466733764e+01 0.0 
3.552916747426e+01 -1.914628590759e+01 0.0 
4.449210346537e+01 -1.914359085008e+01 0.0 
4.140975975145e+01 -1.906941860733e+01 0.0 
3.847475958753e+01 -1.916622382724e+01 0.0 
3.653774794640e+01 -1.088712800241e+01 0.0 
4.047886341787e+01 -1.090139014048e+01 0.0 
4.348006339825e+01 -1.092792621489e+01 0.0 
4.919519968029e+01 -1.451526755068e+01 0.0 
4.500000000032e+00 -1.913397459621e+01 0.0 
1.856136921614e+01 -8.212235170404e-01 0.0 
3.499895312306e+00 -8.661165539723e-01 0.0 
9.076088696565e-01 -1.642306201891e+01 0.0 
4.655174095477e+01 -1.086183387525e+01 0.0 
9.430688970604e-01 -3.496112672958e+00 0.0 
3.353992337063e+01 -1.901202090820e+01 0.0 
2.249746016977e+01 -1.921262287282e+01 0.0 
2.650122741777e+01 -1.916123026018e+01 0.0 
1.863571384842e+01 -1.908325534840e+01 0.0 
1.450089971693e+01 -1.917691901860e+01 0.0 
1.350044695317e+01 -8.659695299584e-01 0.0 
3.849987469880e+01 -1.084154983397e+01 0.0 
9.454419857884e+00 -1.900818879936e+01 0.0 
4.917398660523e+01 -1.645692866081e+01 0.0 
8.500000000000e+00 -8.660254037844e-01 0.0 
8.660319230785e-01 -8.500111697188e+00 0.0 
4.649022621545e+01 -1.930506220113e+01 0.0 
2.667688107845e+01 -5.420288124331e+00 0.0 
2.379251615665e+01 -3.412225477429e+00 0.0 
2.966631491830e+01 -7.389030232731e+00 0.0 
3.267915035995e+01 -9.396934932445e+00 0.0 
2.074836922338e+01 -1.320054020319e+00 0.0 
4.915985743621e+01 -1.261973384855e+01 0.0 
2.527129768623e+00 -1.931592414663e+01 0.0 
1.538676247410e+00 -8.436956619311e-01 0.0 
4.908096641539e+01 -1.842484004551e+01 0.0 
3.478612492673e+01 -1.090889364140e+01 0.0 
3.409757055860e+01 -1.131991530427e+01 0.0 
3.501895309466e+01 -1.177687842717e+01 0.0 
3.407758073088e+01 -1.224293381580e+01 0.0 
3.484541875390e+01 -1.277051428430e+01 0.0 
3.400322025842e+01 -1.319022775640e+01 0.0 
3.321672625034e+01 -1.266779191233e+01 0.0 
3.315244139236e+01 -1.360984106532e+01 0.0 
3.236335186892e+01 -1.308463225210e+01 0.0 
3.478337442841e+01 -1.372341158982e+01 0.0 
3.230105923633e+01 -1.403023731610e+01 0.0 
3.150954055289e+01 -1.350301767700e+01 0.0 
3.144604792090e+01 -1.444931742516e+01 0.0 
3.065653897123e+01 -1.392357262981e+01 0.0 
3.071897610812e+01 -1.297447031198e+01 0.0 
2.986790411740e+01 -1.339226181535e+01 0.0 
2.993181466745e+01 -1.244703272398e+01 0.0 
2.908023061869e+01 -1.286254537734e+01 0.0 
2.901619051372e+01 -1.380881655279e+01 0.0 
2.822986160390e+01 -1.327695262116e+01 0.0 
2.829453476870e+01 -1.233265343811e+01 0.0 
2.744542905518e+01 -1.274510491105e+01 0.0 
2.751120089246e+01 -1.180368086886e+01 0.0 
2.666218649885e+01 -1.221619339205e+01 0.0 
2.672371209234e+01 -1.127125228527e+01 0.0 
2.587763216302e+01 -1.168539979114e+01 0.0 
2.581165585299e+01 -1.262994410089e+01 0.0 
2.502890882577e+01 -1.209827323619e+01 0.0 
2.509631327757e+01 -1.115492410304e+01 0.0 
2.424662989877e+01 -1.156630981079e+01 0.0 
2.431704046904e+01 -1.062389179334e+01 0.0 
2.346445438728e+01 -1.103427680694e+01 0.0 
2.339382552877e+01 -1.197964871788e+01 0.0 
2.260936050780e+01 -1.144513277642e+01 0.0 
2.268075012022e+01 -1.049911928216e+01 0.0 
2.182525737661e+01 -1.090920811464e+01 0.0 
2.189682319817e+01 -9.961716944568e+00 0.0 
2.104174127792e+01 -1.037266986667e+01 0.0 
2.111304367575e+01 -9.424179358711e+00 0.0 
2.025306185381e+01 -9.832727364719e+00 0.0 
2.018141124247e+01 -1.079140628871e+01 0.0 
1.938594498257e+01 -1.025147354112e+01 0.0 
1.946106490453e+01 -9.288010758448e+00 0.0 
1.858929958352e+01 -9.706319802516e+00 0.0 
1.851540991219e+01 -1.067205988724e+01 0.0 
1.771485303178e+01 -1.012504443115e+01 0.0 
1.764134552256e+01 -1.109360378538e+01 0.0 
1.683745148095e+01 -1.054496365337e+01 0.0 
1.691852964353e+01 -9.582555261178e+00 0.0 
1.603603813062e+01 -1.000160132379e+01 0.0 
1.595824239350e+01 -1.096750698862e+01 0.0 
1.515080624291e+01 -1.041639501931e+01 0.0 
1.523171602559e+01 -9.451711491453e+00 0.0 
1.434621060709e+01 -9.871956467464e+00 0.0 
1.426777178765e+01 -1.083749501371e+01 0.0 
1.345775282374e+01 -1.028803175500e+01 0.0 
1.354103873368e+01 -9.324918457162e+00 0.0 
1.265072018622e+01 -9.742612837270e+00 0.0 
1.257285762070e+01 -1.071557782384e+01 0.0 
1.175874815690e+01 -1.015972324288e+01 0.0 
1.184203019714e+01 -9.193604071377e+00 0.0 
1.094927709905e+01 -9.612103238656e+00 0.0 
1.086938022910e+01 -1.058685085646e+01 0.0 
1.005424098961e+01 -1.002939116380e+01 0.0 
9.977974613295e+00 -1.101324897989e+01 0.0 
1.012915646404e+01 -9.051815821181e+00 0.0 
9.237127782494e+00 -9.471239055559e+00 0.0 
9.308426593771e+00 -8.483376461131e+00 0.0 
8.418806073345e+00 -8.910712374517e+00 0.0 
2.253688464062e+01 -1.239459402279e+01 0.0 
8.495126726666e+00 -7.921646665254e+00 0.0 
9.389727383206e+00 -7.512103628377e+00 0.0 
7.601560812974e+00 -8.349460349344e+00 0.0 
7.525680547759e+00 -9.339736686940e+00 0.0 
7.677888324502e+00 -7.359727833346e+00 0.0 
6.782001206724e+00 -7.788454494773e+00 0.0 
6.858778622885e+00 -6.797338062822e+00 0.0 
2.196596590865e+01 -8.979025665442e+00 0.0 
2.816540108272e+01 -1.422634142353e+01 0.0 
5.961601194403e+00 -7.226824010712e+00 0.0 
6.038171749656e+00 -6.234825887079e+00 0.0 
6.936257279557e+00 -5.805287640737e+00 0.0 
6.115068918323e+00 -5.242109758768e+00 0.0 
3.564391741903e+01 -1.329240553876e+01 0.0 
3.558115605778e+01 -1.425902892003e+01 0.0 
3.645445282201e+01 -1.381970786460e+01 0.0 
3.639744204358e+01 -1.479198128612e+01 0.0 
3.727266909778e+01 -1.435399586226e+01 0.0 
5.216667013081e+00 -5.671788584287e+00 0.0 
3.220697293295e+01 -1.499594545107e+01 0.0 
3.551112158269e+01 -1.523479869250e+01 0.0 
2.836056961467e+01 -1.139032434851e+01 0.0 
2.516730388602e+01 -1.021382726837e+01 0.0 
1.844436907403e+01 -1.164097215196e+01 0.0 
5.885434318740e+00 -8.218694781467e+00 0.0 
5.064071066867e+00 -7.656614643901e+00 0.0 
4.988089103470e+00 -8.649722082718e+00 0.0 
1.079421050408e+01 -1.157014985435e+01 0.0 
9.902420005256e+00 -1.199903342656e+01 0.0 
1.071994252214e+01 -1.255727909771e+01 0.0 
9.826974788171e+00 -1.298659581767e+01 0.0 
1.064607883789e+01 -1.354595476388e+01 0.0 
9.751541265343e+00 -1.397556905071e+01 0.0 
8.932296185869e+00 -1.341553353988e+01 0.0 
8.856399248106e+00 -1.440570715508e+01 0.0 
8.036186803543e+00 -1.384470558472e+01 0.0 
1.057112875118e+01 -1.453516759081e+01 0.0 
1.146582585687e+01 -1.410539926903e+01 0.0 
7.959894480382e+00 -1.483563350928e+01 0.0 
7.138792279156e+00 -1.427465094140e+01 0.0 
7.062506792418e+00 -1.526615385482e+01 0.0 
6.240693558277e+00 -1.470508863040e+01 0.0 
6.316957575451e+00 -1.371212581281e+01 0.0 
5.418183007107e+00 -1.414253605022e+01 0.0 
5.494748364428e+00 -1.314886770603e+01 0.0 
1.756825565873e+01 -1.206433872514e+01 0.0 
1.837565773345e+01 -1.261356468266e+01 0.0 
1.749574831391e+01 -1.303769280014e+01 0.0 
1.830539187332e+01 -1.358828364284e+01 0.0 
1.742278925170e+01 -1.401367746928e+01 0.0 
1.823303007798e+01 -1.456432294258e+01 0.0 
1.734941694138e+01 -1.499213734361e+01 0.0 
1.653760041637e+01 -1.443920312098e+01 0.0 
3.056237977307e+01 -1.487132260174e+01 0.0 
1.866469084762e+01 -8.742953000418e+00 0.0 
1.953669694916e+01 -8.326038909849e+00 0.0 
1.874194303780e+01 -7.780688158966e+00 0.0 
1.961032016741e+01 -7.366854697285e+00 0.0 
1.881715755159e+01 -6.821102209649e+00 0.0 
1.968369797150e+01 -6.407747217358e+00 0.0 
1.889237123259e+01 -5.858375520026e+00 0.0 
1.802038875366e+01 -6.276202618170e+00 0.0 
1.809793837984e+01 -5.307629520489e+00 0.0 
1.721985207997e+01 -5.728242054488e+00 0.0 
1.729850893523e+01 -4.756990819347e+00 0.0 
1.641745664240e+01 -5.174636548624e+00 0.0 
2.495978509456e+01 -1.304406404294e+01 0.0 
1.911567814831e+01 -1.413854250293e+01 0.0 
1.904387332608e+01 -1.511463127723e+01 0.0 
1.992115934240e+01 -1.468788025898e+01 0.0 
7.013706899628e+00 -4.812582868662e+00 0.0 
5.342091874585e+00 -1.513658157269e+01 0.0 
1.139098043784e+01 -1.509488509480e+01 0.0 
1.228151810610e+01 -1.465617481983e+01 0.0 
1.646373110164e+01 -1.541993323337e+01 0.0 
5.293328636712e+00 -4.678385108584e+00 0.0 
1.975965862987e+01 -5.448124345648e+00 0.0 
2.054318374236e+01 -5.992561293251e+00 0.0 
3.721453439063e+01 -1.533216152738e+01 0.0 
3.809302733893e+01 -1.489235527381e+01 0.0 
1.220852788900e+01 -1.565304565230e+01 0.0 
4.394120899730e+00 -5.108397613210e+00 0.0 
8.779354620288e+00 -1.539524721159e+01 0.0 
1.817791047702e+01 -4.338570146253e+00 0.0 
4.518860013839e+00 -1.457343189307e+01 0.0 
4.442712140414e+00 -1.556841391069e+01 0.0 
8.115343466391e+00 -1.285760324283e+01 0.0 
1.985334703171e+01 -1.566478400426e+01 0.0 
2.071953850276e+01 -1.522074243119e+01 0.0 
1.634012953883e+01 -6.154777738301e+00 0.0 
1.553479994708e+01 -5.593730508879e+00 0.0 
1.561265946942e+01 -4.617761762647e+00 0.0 
1.470674212978e+01 -5.064576488228e+00 0.0 
1.464498299883e+01 -6.026514471420e+00 0.0 
1.383271561817e+01 -5.467796261169e+00 0.0 
1.389241253067e+01 -4.504338666645e+00 0.0 
1.301868735463e+01 -4.907185188626e+00 0.0 
1.294514184846e+01 -5.888160903592e+00 0.0 
1.212955968622e+01 -5.328262335277e+00 0.0 
1.220721122383e+01 -4.341264976687e+00 0.0 
1.131324345897e+01 -4.766773516508e+00 0.0 
5.266597955397e+00 -1.613148974258e+01 0.0 
1.737805990867e+01 -3.786677807525e+00 0.0 
3.078438094513e+01 -1.203225297748e+01 0.0 
1.131569882285e+01 -1.608511932110e+01 0.0 
1.728478341782e+01 -1.596017432313e+01 0.0 
3.803465906019e+01 -1.587509751228e+01 0.0 
3.891681276677e+01 -1.543395196905e+01 0.0 
3.897340985302e+01 -1.444710288980e+01 0.0 
3.980095968193e+01 -1.499059496613e+01 0.0 
3.974334598189e+01 -1.597921884150e+01 0.0 
4.062964983717e+01 -1.553518690417e+01 0.0 
4.068729602479e+01 -1.454434445295e+01 0.0 
4.151772679790e+01 -1.508974196007e+01 0.0 
4.157505195739e+01 -1.409694289912e+01 0.0 
4.240699932656e+01 -1.464347955968e+01 0.0 
4.234898051011e+01 -1.563721375790e+01 0.0 
4.323934606035e+01 -1.519082036405e+01 0.0 
4.329740528208e+01 -1.419587509788e+01 0.0 
4.413056841369e+01 -1.474359631875e+01 0.0 
4.418850110108e+01 -1.374786684042e+01 0.0 
4.502219770667e+01 -1.429605103525e+01 0.0 
4.496411937907e+01 -1.529215882720e+01 0.0 
4.490027319897e+00 -4.154167794594e+00 0.0 
1.565080385988e+01 -1.486411982419e+01 0.0 
1.557610691279e+01 -1.584855627870e+01 0.0 
4.195350646612e+00 -8.089117689096e+00 0.0 
4.124027797830e+00 -9.082831955007e+00 0.0 
4.917944318925e+00 -9.643530901533e+00 0.0 
4.020105689502e+00 -1.007439673661e+01 0.0 
4.587185899277e+01 -1.484039992728e+01 0.0 
4.580078661551e+01 -1.584043391042e+01 0.0 
2.061956522375e+01 -5.046701343981e+00 0.0 
2.139572955529e+01 -5.579553449826e+00 0.0 
3.715344357292e+01 -1.631485124583e+01 0.0 
3.618886196443e+00 -1.500471207167e+01 0.0 
3.695606940204e+00 -1.400939692294e+01 0.0 
2.438890661143e+01 -9.686110599723e+00 0.0 
2.523267572778e+01 -9.276766000622e+00 0.0 
2.446094171539e+01 -8.751904591412e+00 0.0 
2.529089822738e+01 -8.321495612547e+00 0.0 
2.606882688827e+01 -8.864724051119e+00 0.0 
2.452116646430e+01 -7.792756462004e+00 0.0 
1.235543269617e+01 -1.365845617339e+01 0.0 
4.318116874181e+01 -1.618567469992e+01 0.0 
7.835066111909e+00 -5.376366223896e+00 0.0 
7.905687335704e+00 -4.382539065697e+00 0.0 
3.542640009567e+00 -1.600035116542e+01 0.0 
1.572431503071e+01 -1.388358386695e+01 0.0 
2.574684696680e+01 -1.357896141127e+01 0.0 
2.488842657651e+01 -1.399674354505e+01 0.0 
2.568301775611e+01 -1.453552048595e+01 0.0 
2.481535572009e+01 -1.495542756508e+01 0.0 
2.561729699688e+01 -1.549784648532e+01 0.0 
2.474623061296e+01 -1.592058894178e+01 0.0 
2.394234041695e+01 -1.537572575827e+01 0.0 
2.065825452567e+01 -1.621899055217e+01 0.0 
2.387180528935e+01 -1.634552264687e+01 0.0 
4.585364400844e+01 -1.383912334080e+01 0.0 
1.998744432052e+01 -1.370317155541e+01 0.0 
1.205356951443e+01 -6.313580285498e+00 0.0 
5.396543905849e+00 -3.731818611283e+00 0.0 
1.139652573295e+01 -3.745819399350e+00 0.0 
3.574124306703e+00 -4.551456826011e+00 0.0 
3.494140761930e+00 -5.539787055649e+00 0.0 
1.213651452413e+01 -1.664505033022e+01 0.0 
2.555045568519e+01 -1.646529356744e+01 0.0 
2.641671114986e+01 -1.603899382371e+01 0.0 
2.612920721894e+01 -7.906435260873e+00 0.0 
2.690339829698e+01 -8.456969591431e+00 0.0 
1.978024383368e+01 -1.664410216353e+01 0.0 
3.732829979082e+01 -1.336926601859e+01 0.0 
4.074336584605e+01 -1.355133328401e+01 0.0 
4.163204691081e+01 -1.310280943992e+01 0.0 
3.773826114429e+00 -3.493444309145e+00 0.0 
1.228783001032e+01 -3.374822835872e+00 0.0 
4.057110462520e+01 -1.652588478000e+01 0.0 
2.132535497898e+01 -6.523623360525e+00 0.0 
2.216932532211e+01 -6.110044769206e+00 0.0 
1.825781152128e+01 -3.370146817147e+00 0.0 
1.745679445888e+01 -2.812942552063e+00 0.0 
4.666517057280e+01 -1.539981381543e+01 0.0 
4.660575894464e+01 -1.639014410186e+01 0.0 
4.838230979954e+00 -1.063643436446e+01 0.0 
3.938942630206e+00 -1.106778981745e+01 0.0 
1.302967218620e+01 -1.621373452436e+01 0.0 
1.049548003190e+01 -4.204825123240e+00 0.0 
4.573571907195e+01 -1.683820511148e+01 0.0 
1.483686335807e+01 -1.430849689310e+01 0.0 
1.490982658890e+01 -1.332679386284e+01 0.0 
3.190805600162e+00 -9.510968358545e+00 0.0 
2.146625721848e+01 -4.642437303115e+00 0.0 
2.069866208266e+01 -4.111852942193e+00 0.0 
1.286859345584e+01 -6.873252723348e+00 0.0 
1.041794493184e+01 -5.194814260291e+00 0.0 
2.671081808965e+00 -4.976806516331e+00 0.0 
1.295786792925e+01 -1.720506531799e+01 0.0 
3.968438206511e+01 -1.696869067241e+01 0.0 
2.308550456051e+01 -1.579963151273e+01 0.0 
2.315593682844e+01 -1.482967445235e+01 0.0 
2.299471449450e+01 -1.677069968132e+01 0.0 
1.057344714696e+01 -3.214252277840e+00 0.0 
1.124057603753e+01 -1.707713739755e+01 0.0 
2.718402535754e+00 -1.543629882103e+01 0.0 
2.638549692805e+01 -1.696744916809e+01 0.0 
2.723416349007e+01 -1.658104204545e+01 0.0 
2.210193351704e+01 -7.046769643417e+00 0.0 
2.295180925161e+01 -6.657397605239e+00 0.0 
2.301355235833e+01 -5.709111896800e+00 0.0 
2.379052718281e+01 -6.254965406962e+00 0.0 
3.243528601237e+01 -1.214181853533e+01 0.0 
2.287977995457e+01 -7.583722368300e+00 0.0 
2.999876029544e+01 -1.150837653096e+01 0.0 
3.084435366963e+01 -1.109693775882e+01 0.0 
3.006650579669e+01 -1.057778994262e+01 0.0 
2.683802665066e+01 -9.386863216633e+00 0.0 
2.768641973621e+01 -8.988883915666e+00 0.0 
2.040296980397e+01 -7.903629133404e+00 0.0 
1.925235024054e+01 -1.218872783130e+01 0.0 
5.735667000424e+00 -1.020577277283e+01 0.0 
6.396559909872e+00 -1.272326295703e+01 0.0 
1.161199420714e+01 -1.212812778229e+01 0.0 
4.229046132615e+01 -1.663084237572e+01 0.0 
4.312275399692e+01 -1.718087491556e+01 0.0 
4.335502068163e+01 -1.320039231514e+01 0.0 
4.424630298089e+01 -1.275160688731e+01 0.0 
7.090116643816e+00 -3.818998061530e+00 0.0 
7.989472176569e+00 -3.389238711200e+00 0.0 
9.085824861778e+00 -1.144036167408e+01 0.0 
1.041972423731e+01 -1.651614080893e+01 0.0 
3.797525112640e+01 -1.686052038746e+01 0.0 
3.709114253394e+01 -1.730125999865e+01 0.0 
3.626966748340e+01 -1.675477052919e+01 0.0 
1.385164591440e+01 -1.677597757552e+01 0.0 
1.787152588784e+01 -8.198993896093e+00 0.0 
1.668849729812e+01 -1.248560611628e+01 0.0 
1.659546177905e+01 -3.232482605530e+00 0.0 
2.332214717345e+01 -1.292598167641e+01 0.0 
7.168238450786e+00 -2.824711686516e+00 0.0 
2.894878403906e+01 -1.475427524446e+01 0.0 
2.646763248247e+00 -1.643270107952e+01 0.0 
3.467431944285e+00 -1.699648837348e+01 0.0 
2.059475877282e+01 -1.719473628526e+01 0.0 
3.333868355437e+01 -1.080596971682e+01 0.0 
2.246451062637e+01 -1.334557761546e+01 0.0 
2.167821896388e+01 -1.280847834858e+01 0.0 
3.089653185767e+01 -1.017198487212e+01 0.0 
3.012604365669e+01 -9.657298805968e+00 0.0 
2.929627299435e+01 -1.006100135274e+01 0.0 
2.936201435219e+01 -9.136748899251e+00 0.0 
1.198219052702e+01 -7.291887238230e+00 0.0 
1.116702076035e+01 -6.731976101053e+00 0.0 
2.551388807505e+01 -1.746927036981e+01 0.0 
2.378639090370e+01 -1.728678807149e+01 0.0 
2.718543627188e+01 -1.748668016909e+01 0.0 
2.804681050301e+01 -1.712626668293e+01 0.0 
1.970737034667e+01 -1.762317646822e+01 0.0 
1.889535776135e+01 -1.707158098231e+01 0.0 
2.593777711283e+00 -5.971157087874e+00 0.0 
2.773468281110e+01 -8.067164273938e+00 0.0 
4.051205884347e+01 -1.751819982458e+01 0.0 
3.166903145421e+01 -1.068032992414e+01 0.0 
1.033042452886e+01 -1.748285844336e+01 0.0 
9.519274604626e+00 -1.694349240233e+01 0.0 
1.668308673328e+01 -2.255861778986e+00 0.0 
1.570531902832e+01 -2.676795860126e+00 0.0 
4.655826903379e+01 -1.736656245706e+01 0.0 
2.384148070773e+01 -5.328744256413e+00 0.0 
2.460255123641e+01 -5.852182672816e+00 0.0 
2.306638135119e+01 -4.798935440613e+00 0.0 
8.467720450578e-01 -1.849576263072e+01 0.0 
4.849657322345e+01 -1.084860705506e+01 0.0 
2.565860899507e+00 -1.742859793981e+01 0.0 
2.764418872564e+01 -9.927142821799e+00 0.0 
4.565165880064e+01 -1.785336695404e+01 0.0 
2.162231831329e+01 -1.376528337468e+01 0.0 
2.360646352969e+01 -9.136041963102e+00 0.0 
1.392738739903e+01 -1.578285505772e+01 0.0 
4.756405947478e+01 -1.683706841809e+01 0.0 
4.740895034054e+01 -1.793766756892e+01 0.0 
4.080779328826e+01 -1.257387192544e+01 0.0 
4.168907939671e+01 -1.210739129181e+01 0.0 
3.991197722154e+01 -1.300815793917e+01 0.0 
1.905536506762e+01 -3.940076697685e+00 0.0 
1.923879596617e+01 -2.875000734166e+00 0.0 
4.401386745746e+01 -1.673483229438e+01 0.0 
4.247233362525e+00 -7.094581653070e+00 0.0 
3.286051630211e+00 -7.635300020553e+00 0.0 
9.609533347623e+00 -4.594311677967e+00 0.0 
9.523554636369e+00 -5.595597029530e+00 0.0 
5.660336628893e+00 -1.119290329628e+01 0.0 
6.558070063295e+00 -1.076385809362e+01 0.0 
2.809866407414e+01 -1.518037766799e+01 0.0 
2.888868674504e+01 -1.570360690070e+01 0.0 
2.654431550819e+01 -1.411217777162e+01 0.0 
1.402158265969e+01 -1.375404617952e+01 0.0 
1.409592494026e+01 -1.277071998942e+01 0.0 
1.499355196178e+01 -1.235270737023e+01 0.0 
4.221535326155e+01 -1.759335617494e+01 0.0 
4.305583287033e+01 -1.822663146802e+01 0.0 
1.280748808359e+01 -7.834332838285e+00 0.0 
1.368988389326e+01 -7.420529606172e+00 0.0 
1.110091796060e+01 -7.683966794328e+00 0.0 
3.963446145980e+01 -1.794331310122e+01 0.0 
3.423932362213e+00 -1.796415590455e+01 0.0 
4.280814572302e+00 -1.752272834860e+01 0.0 
8.050136380041e+00 -2.421582378631e+00 0.0 
8.888674091650e+00 -2.984264211327e+00 0.0 
2.152839430898e+01 -3.732609965436e+00 0.0 
2.077799585292e+01 -3.183896021866e+00 0.0 
3.618719395821e+01 -1.770276572576e+01 0.0 
3.538165138340e+01 -1.718709995539e+01 0.0 
3.702925326420e+01 -1.828844288807e+01 0.0 
1.756739438711e+00 -5.353284859169e+00 0.0 
2.233710191104e+01 -1.527265621324e+01 0.0 
1.389483555057e+01 -1.771797164730e+01 0.0 
1.475634224300e+01 -1.728357428390e+01 0.0 
1.298797563052e+01 -1.825968924755e+01 0.0 
2.145331271866e+01 -1.673705379077e+01 0.0 
2.133282821169e+01 -1.769400773673e+01 0.0 
2.292139194136e+01 -1.774915400288e+01 0.0 
1.750750053243e+01 -1.861475593469e+00 0.0 
4.830478841772e+01 -1.752611802221e+01 0.0 
4.341203507805e+01 -1.220326745522e+01 0.0 
1.685254151866e+01 -1.443085301632e+00 0.0 
4.431538535165e+01 -1.171841387375e+01 0.0 
4.511308610496e+01 -1.229557320599e+01 0.0 
4.510133242889e+01 -1.123680627466e+01 0.0 
1.846818030617e+00 -4.410877617069e+00 0.0 
3.995468694584e+01 -1.186571542989e+01 0.0 
3.901387459804e+01 -1.242507616755e+01 0.0 
8.966735877533e+00 -1.837818700423e+00 0.0 
4.049310011091e+01 -1.848269508791e+01 0.0 
7.278862053803e+00 -1.918523922691e+00 0.0 
6.429715522129e+00 -2.316676521184e+00 0.0 
9.443505505022e+00 -1.792198868094e+01 0.0 
8.620386951051e+00 -1.737590365556e+01 0.0 
8.571868171503e+00 -1.834436667826e+01 0.0 
7.758629848526e+00 -1.775677907213e+01 0.0 
7.806648388584e+00 -1.680761266021e+01 0.0 
6.908555145436e+00 -1.723746463044e+01 0.0 
4.251709122090e+01 -1.156937480156e+01 0.0 
6.931136405615e+00 -1.832465719263e+01 0.0 
6.015545461353e+00 -1.768865355295e+01 0.0 
5.960535926343e+00 -1.872011001764e+01 0.0 
3.023253444786e+01 -8.761960642196e+00 0.0 
2.454622702599e+01 -6.749421992767e+00 0.0 
2.537499741604e+01 -6.347634963783e+00 0.0 
2.544077378460e+01 -5.431358513649e+00 0.0 
2.801367161747e+01 -1.820907270221e+01 0.0 
2.884507806914e+01 -1.762032095326e+01 0.0 
1.821474531936e+00 -1.588901260460e+01 0.0 
1.821006262604e+00 -1.489370287756e+01 0.0 
4.599962488908e+01 -1.176478780598e+01 0.0 
4.705457470007e+01 -1.172182804229e+01 0.0 
4.667668314802e+01 -1.263464558483e+01 0.0 
4.759648056504e+01 -1.252380987933e+01 0.0 
4.728041618103e+01 -1.341928568376e+01 0.0 
4.825209352360e+01 -1.330491640804e+01 0.0 
4.778118233428e+01 -1.420151961695e+01 0.0 
2.388192727579e+01 -1.826934810142e+01 0.0 
2.381714684947e+01 -4.385917965223e+00 0.0 
3.172733219247e+01 -9.758744265248e+00 0.0 
1.882012070658e+01 -1.805540597212e+01 0.0 
1.805667505243e+01 -1.742221226236e+01 0.0 
2.852599958080e+01 -8.597196079481e+00 0.0 
2.856486123437e+01 -7.661382718527e+00 0.0 
1.111792842875e+01 -1.818223852980e+01 0.0 
2.203322722466e+01 -7.986646678802e+00 0.0 
3.955703676900e+01 -1.903246763601e+01 0.0 
1.944842206513e+01 -8.038750575182e-01 0.0 
1.909882767783e+01 -1.746322740933e+00 0.0 
2.281147422941e+01 -8.525912918334e+00 0.0 
2.850633001468e+01 -9.533271335986e+00 0.0 
2.532883344309e+01 -7.308951659710e+00 0.0 
2.620475466461e+01 -6.979208585400e+00 0.0 
1.396278270396e+01 -1.475095389807e+01 0.0 
9.791001166724e+00 -2.554159793552e+00 0.0 
2.229293380421e+01 -4.269762271052e+00 0.0 
4.677238984118e+01 -1.430071795514e+01 0.0 
2.228658385918e+01 -3.344747535984e+00 0.0 
8.940223674553e-01 -1.543595733415e+01 0.0 
2.118566862474e+01 -8.435876987696e+00 0.0 
2.678325936437e+01 -1.032621195706e+01 0.0 
2.223400220487e+01 -5.179046761770e+00 0.0 
2.375370625384e+01 -7.251580562134e+00 0.0 
3.156971327386e+01 -1.255534750737e+01 0.0 
3.328226391312e+01 -1.172914813316e+01 0.0 
3.250948774219e+01 -1.120157009348e+01 0.0 
2.032993445717e+01 -8.867880112202e+00 0.0 
2.697226974856e+01 -7.536633082045e+00 0.0 
2.707377810386e+01 -6.590835263295e+00 0.0 
2.914099246827e+01 -1.191678458549e+01 0.0 
3.544824072239e+01 -1.621126558525e+01 0.0 
3.456511855436e+01 -1.665054783843e+01 0.0 
3.448395810225e+01 -1.759117813016e+01 0.0 
3.368378673938e+01 -1.708037781328e+01 0.0 
3.375560452567e+01 -1.610973066913e+01 0.0 
3.288001547988e+01 -1.654324255651e+01 0.0 
3.282475929147e+01 -1.749725654692e+01 0.0 
3.199880906313e+01 -1.697294088625e+01 0.0 
3.197001272932e+01 -1.811667776864e+01 0.0 
3.111884713021e+01 -1.742166785755e+01 0.0 
3.120418962865e+01 -1.642155709385e+01 0.0 
3.034666704371e+01 -1.683123833816e+01 0.0 
3.026224379976e+01 -1.772592851714e+01 0.0 
3.046632362943e+01 -1.582232843075e+01 0.0 
1.961344017324e+01 -1.857459447985e+01 0.0 
2.274975894774e+01 -9.532738811922e+00 0.0 
1.833923246887e+01 -2.396746883672e+00 0.0 
1.988859500848e+01 -2.249244376594e+00 0.0 
2.758045562861e+01 -1.086434261689e+01 0.0 
3.247300178163e+01 -1.909930104252e+01 0.0 
3.461947482503e+01 -1.911879848019e+01 0.0 
2.047161538662e+01 -6.941478180358e+00 0.0 
2.750230940214e+01 -1.915490590764e+01 0.0 
3.165081350803e+01 -1.161860780120e+01 0.0 
1.897456727641e+01 -4.889634688522e+00 0.0 
2.549338539756e+01 -1.914858252089e+01 0.0 
3.462873135081e+01 -1.567482276144e+01 0.0 
3.384432415243e+01 -1.512280684518e+01 0.0 
3.471433767690e+01 -1.469086942990e+01 0.0 
3.651470373046e+01 -1.918207952149e+01 0.0 
3.901742690249e+01 -1.345028556517e+01 0.0 
2.153224102692e+01 -1.920169709333e+01 0.0 
1.918382939341e+01 -1.316226275662e+01 0.0 
2.005389162382e+01 -1.271962165174e+01 0.0 
2.011472087878e+01 -1.175029352900e+01 0.0 
3.210679478412e+01 -1.598038618242e+01 0.0 
1.752175226543e+01 -1.914713022656e+01 0.0 
1.696897240059e+01 -1.832772588765e+01 0.0 
1.599682523337e+01 -1.832599992024e+01 0.0 
1.644507199462e+01 -1.743697981535e+01 0.0 
1.549987712903e+01 -1.915192375101e+01 0.0 
3.050250861901e+01 -1.918943550234e+01 0.0 
2.949944061527e+01 -1.922950455235e+01 0.0 
1.375892575273e+01 -6.447160534926e+00 0.0 
1.457223670180e+01 -7.006709243857e+00 0.0 
1.450818793236e+01 -7.965943451779e+00 0.0 
1.538804712402e+01 -7.553409623699e+00 0.0 
1.545817644768e+01 -6.580929593419e+00 0.0 
1.626506893751e+01 -7.129032608911e+00 0.0 
1.619833811522e+01 -8.086588580887e+00 0.0 
1.714448609609e+01 -6.697429609777e+00 0.0 
2.887616543568e+01 -1.668015232137e+01 0.0 
1.349814589130e+01 -1.918225301544e+01 0.0 
1.153887772210e+01 -1.311384581217e+01 0.0 
1.242708159886e+01 -1.267046795531e+01 0.0 
1.249799674267e+01 -1.169005616014e+01 0.0 
6.631723893693e+00 -9.774184881867e+00 0.0 
7.451471631867e+00 -1.033148796006e+01 0.0 
7.377795355458e+00 -1.132196345268e+01 0.0 
5.810931797536e+00 -9.211654212252e+00 0.0 
2.402683899133e+01 -1.441378562320e+01 0.0 
1.249768692036e+01 -1.917388426624e+01 0.0 
1.580373499437e+01 -1.290751860664e+01 0.0 
8.344650507834e+00 -9.898403995170e+00 0.0 
3.750622115305e+01 -1.086526401533e+01 0.0 
3.699391251667e+01 -1.171695900794e+01 0.0 
3.606517829518e+01 -1.173717504500e+01 0.0 
3.650257641795e+01 -1.270047380221e+01 0.0 
3.808951488918e+01 -1.183518714175e+01 0.0 
4.760380962420e+00 -1.162484888315e+01 0.0 
3.861210370848e+00 -1.205657631736e+01 0.0 
3.038284309476e+00 -1.149851280664e+01 0.0 
2.961598794889e+00 -1.248856794980e+01 0.0 
2.138953225512e+00 -1.193212674534e+01 0.0 
2.227383593457e+00 -1.096258903918e+01 0.0 
2.043265419276e+00 -1.292158472959e+01 0.0 
1.252449446028e+00 -1.225502002753e+01 0.0 
3.949985210740e+01 -1.086594001795e+01 0.0 
1.453499444792e+01 -8.768805922472e-01 0.0 
1.403518950933e+01 -1.749965556633e+00 0.0 
1.300715031023e+01 -1.714737233040e+00 0.0 
1.350929389899e+01 -2.527443911291e+00 0.0 
1.449600910711e+01 -2.595486162864e+00 0.0 
1.395693872901e+01 -3.484211041558e+00 0.0 
1.495105865208e+01 -3.364609636216e+00 0.0 
1.508822528740e+01 -1.766586020494e+00 0.0 
1.250223858430e+01 -8.634590186802e-01 0.0 
1.200279523409e+01 -1.709044504992e+00 0.0 
1.150086239419e+01 -8.592789190668e-01 0.0 
1.101482754194e+01 -1.677730591922e+00 0.0 
1.148018564526e+01 -2.659323866909e+00 0.0 
8.800552119754e+00 -3.989875954728e+00 0.0 
3.452790439430e+00 -1.901136170646e+01 0.0 
8.658451825200e-01 -9.503462241795e+00 0.0 
1.694787786797e+00 -9.000589234502e+00 0.0 
1.703436717094e+00 -8.038819004041e+00 0.0 
2.594197971110e+00 -8.563955242845e+00 0.0 
1.630513735412e+00 -9.907244747511e+00 0.0 
8.566859292791e-01 -7.512203837972e+00 0.0 
1.685461277022e+00 -7.164280248030e+00 0.0 
2.506394468801e+00 -8.623386730818e-01 0.0 
2.007475081581e+00 -1.727729545205e+00 0.0 
9.211534699767e-01 -1.628791366312e+00 0.0 
1.500000000020e+00 -2.598063549486e+00 0.0 
2.482078929963e+00 -2.553580088725e+00 0.0 
2.999795253092e+00 -1.732169015019e+00 0.0 
3.999712607169e+00 -1.728832897453e+00 0.0 
4.499752199340e+00 -8.656478679175e-01 0.0 
4.964377774841e+00 -1.730129617941e+00 0.0 
4.425017908337e+00 -2.597541756243e+00 0.0 
5.446573195014e+00 -8.410144840023e-01 0.0 
4.915722346614e+01 -1.550640962770e+01 0.0 
4.826794919243e+01 -1.600000000000e+01 0.0 
1.053139533193e+01 -1.911782884365e+01 0.0 
4.156049861949e+01 -1.095160998589e+01 0.0 
9.494526624416e+00 -8.650570090219e-01 0.0 
4.555762166964e+01 -1.897098103585e+01 0.0 
4.250656411371e+01 -1.914387356218e+01 0.0 
4.350906466345e+01 -1.917234727395e+01 0.0 
8.759665722424e-01 -1.746422130609e+01 0.0 
1.698936011838e+00 -1.795012186674e+01 0.0 
4.742476811029e+01 -1.900090177972e+01 0.0 
7.749196752349e+00 -6.368049313489e+00 0.0 
3.361572113416e+01 -1.798765193915e+01 0.0 
4.484660149212e+01 -1.728661231383e+01 0.0 
1.984038172228e+01 -4.502575320116e+00 0.0 
1.035080352627e+01 -6.166639575753e+00 0.0 
2.753558010652e+00 -1.444909521181e+01 0.0 
7.217069543032e+00 -1.328635391078e+01 0.0 
4.364336727739e+00 -1.655585677381e+01 0.0 
4.595208426108e+00 -1.357919665443e+01 0.0 
6.164967006980e+00 -1.569873454630e+01 0.0 
1.487855768353e+01 -1.826523774028e+01 0.0 
2.791876456372e+00 -4.019632415181e+00 0.0 
4.246464893515e+01 -1.364898659620e+01 0.0 
4.503855590351e+01 -1.329552780944e+01 0.0 
4.407239109604e+01 -1.573900004093e+01 0.0 
5.141054449252e+00 -6.664290382472e+00 0.0 
3.141083947149e+00 -1.055790764912e+01 0.0 
6.196463198741e+00 -4.256497932609e+00 0.0 
2.599618716181e+01 -1.836893455464e+01 0.0 
2.923057372337e+01 -1.098461757645e+01 0.0 
1.168343877486e+01 -1.114079645041e+01 0.0 
6.706222096238e+00 -8.780364234441e+00 0.0 
8.567858614669e+00 -6.943121440850e+00 0.0 
1.123755132901e+01 -5.753525820030e+00 0.0 
2.353456234423e+01 -1.008536320953e+01 0.0 
9.162073319168e+00 -1.045593739109e+01 0.0 
9.676343469685e+00 -1.496493008366e+01 0.0 
4.490637882905e+01 -1.628778970202e+01 0.0 
7.398129387772e+00 -9.639977982323e-01 0.0 
1.049641705805e+01 -1.552503975272e+01 0.0 
9.010356286268e+00 -1.242805042052e+01 0.0 
3.985573925497e+01 -1.399863651620e+01 0.0 
1.816196318262e+01 -1.554066497931e+01 0.0 
1.306332244168e+01 -3.963646550326e+00 0.0 
4.145850903932e+01 -1.608094559275e+01 0.0 
3.794664933633e+01 -1.779020121986e+01 0.0 
3.819614412903e+01 -1.290749321016e+01 0.0 
6.270014188119e+00 -3.255093186826e+00 0.0 
4.251165370388e+01 -1.263870364997e+01 0.0 
1.207347709171e+01 -1.763942826023e+01 0.0 
3.633240829927e+01 -1.577330481104e+01 0.0 
4.319052668832e+00 -6.101812561904e+00 0.0 
1.676492415806e+01 -1.151547901392e+01 0.0 
2.594059220037e+01 -1.074225223009e+01 0.0 
3.340750911501e+01 -9.898764354137e+00 0.0 
4.397619591281e+01 -1.769773736461e+01 0.0 
2.175611595028e+01 -1.185718747128e+01 0.0 
1.641818733106e+01 -1.640685203215e+01 0.0 
1.661211421753e+01 -1.346121366338e+01 0.0 
3.428853504935e+00 -6.551993389271e+00 0.0 
8.700728832502e+00 -1.638460872825e+01 0.0 
1.931369795309e+01 -1.121629383702e+01 0.0 
4.139798872363e+01 -1.706922153459e+01 0.0 
2.647837478700e+01 -1.507353829290e+01 0.0 
1.779469616424e+01 -9.161615782908e+00 0.0 
3.885879219319e+01 -1.642026488918e+01 0.0 
1.338194936770e+01 -1.125916521471e+01 0.0 
1.897071181111e+01 -1.609204322578e+01 0.0 
2.844308548793e+01 -1.046221003096e+01 0.0 
2.659854702194e+01 -1.316109415760e+01 0.0 
2.979604503271e+01 -1.433296157755e+01 0.0 
2.417694041347e+01 -1.251231397779e+01 0.0 
1.807401327411e+00 -1.388891148480e+01 0.0 
9.599810618782e+00 -1.595439365034e+01 0.0 
1.652144692160e+01 -4.205392788472e+00 0.0 
2.367839450246e+01 -8.188385218643e+00 0.0 
3.814894930468e+01 -1.390748338767e+01 0.0 
2.466448215774e+01 -1.685878545680e+01 0.0 
4.134044524611e+01 -1.806610045954e+01 0.0 
2.600511411958e+01 -9.801774120648e+00 0.0 
7.882158050716e+00 -1.582364037353e+01 0.0 
3.881607873422e+01 -1.737970515013e+01 0.0 
8.270182347708e+00 -1.088622154920e+01 0.0 
8.672520392520e-01 -4.532984309881e+00 0.0 
1.993447205337e+01 -3.579061902667e+00 0.0 
1.794616079549e+01 -7.238038888498e+00 0.0 
2.097277068165e+01 -1.132450168636e+01 0.0 
8.194803300681e+00 -1.187214224265e+01 0.0 
3.522279404911e+01 -1.823342818178e+01 0.0 
6.984481050295e+00 -1.625271465557e+01 0.0 
1.309433007797e+01 -1.521718594215e+01 0.0 
2.150246167611e+01 -1.885399038185e+00 0.0 
3.250689370209e+01 -1.028789870535e+01 0.0 
6.085886272238e+00 -1.668342132851e+01 0.0 
1.588455661727e+01 -1.193498985921e+01 0.0 
1.809323400821e+01 -1.651110084195e+01 0.0 
1.348885082381e+00 -1.136065576512e+01 0.0 
2.497670221995e+01 -1.834631276173e+01 0.0 
2.937062818424e+01 -8.233711194470e+00 0.0 
5.185823744469e+00 -1.711566910207e+01 0.0 
1.477497877209e+01 -1.530177014512e+01 0.0 
2.125346158933e+01 -7.473003997367e+00 0.0 
4.751561118290e+01 -1.084897772632e+01 0.0 
5.056026576843e+00 -1.825750475525e+01 0.0 
1.473948554523e+01 -1.634577436309e+01 0.0 
2.410566630936e+01 -1.345970002612e+01 0.0 
1.507337507513e+01 -1.138527895328e+01 0.0 
3.189857338687e+01 -8.887781229006e+00 0.0 
7.298712468334e+00 -1.230231046246e+01 0.0 
2.738235495295e+01 -1.368931690364e+01 0.0 
3.750141041969e+01 -1.920449893070e+01 0.0 
1.557271965640e+01 -1.683317951731e+01 0.0 
3.393731848929e+01 -1.413034777044e+01 0.0 
6.482156824153e+00 -1.174575135362e+01 0.0 
2.077971718439e+01 -1.421279621836e+01 0.0 
3.455084320178e+00 -2.562590040585e+00 0.0 
3.099056096250e+01 -9.270280416035e+00 0.0 
5.580176125418e+00 -1.217387969259e+01 0.0 
1.707247630389e+01 -7.660651981710e+00 0.0 
1.418658814174e+01 -1.180390575393e+01 0.0 
2.049103025389e+01 -1.811296706038e+01 0.0 
4.680386172316e+00 -1.260396879301e+01 0.0 
1.699679896554e+01 -8.624561788199e+00 0.0 
3.779470168555e+00 -1.303424899720e+01 0.0 
3.036589870126e+01 -7.879832518349e+00 0.0 
3.306993001774e+01 -1.457671062095e+01 0.0 
2.840150110165e+00 -1.346530088269e+01 0.0 
2.732011135052e+01 -1.464591214560e+01 0.0 
5.423639259568e+00 -2.659711955016e+00 0.0 
2.324455961696e+01 -1.387269388211e+01 0.0 
1.752768355571e+00 -1.693128613594e+01 0.0 
1.020244783051e+01 -8.076834012808e+00 0.0 
1.330873875224e+01 -1.222417528206e+01 0.0 
3.297727364880e+01 -1.555480372087e+01 0.0 
2.890929955439e+01 -6.868664170731e+00 0.0 
1.323294664622e+01 -1.320754260334e+01 0.0 
2.726532861246e+01 -1.560593120806e+01 0.0 
2.240020643398e+01 -1.429299177247e+01 0.0 
2.090445823633e+01 -1.228128621332e+01 0.0 
1.315809881502e+01 -1.420739326938e+01 0.0 
2.781328038068e+01 -7.181956082300e+00 0.0 
8.614200829057e+00 -5.936933226306e+00 0.0 
8.714765730069e+00 -4.979270529687e+00 0.0 
1.611881701099e+01 -9.041973294003e+00 0.0 
2.806830314340e+01 -1.614622947108e+01 0.0 
2.084435391396e+00 -3.385085422913e+00 0.0 
3.133211811152e+01 -1.542347619750e+01 0.0 
9.693114650768e+00 -3.590281506442e+00 0.0 
1.531883592202e+01 -8.504584946143e+00 0.0 
2.151589117094e+01 -1.578915763018e+01 0.0 
4.918943882696e+01 -1.355538828056e+01 0.0 
1.443236615188e+01 -8.918701794549e+00 0.0 
8.276250966452e-01 -5.537685192197e+00 0.0 
1.362790867918e+01 -8.374718262212e+00 0.0 
2.083767477370e+01 -1.324843956035e+01 0.0 
1.273834678703e+01 -8.790890389337e+00 0.0 
1.192275845670e+01 -8.242261327467e+00 0.0 
4.477236023583e+01 -1.824312396664e+01 0.0 
1.102989384254e+01 -8.649855800911e+00 0.0 
4.849096516045e+01 -1.917293752213e+01 0.0 
1.588996752238e+00 -1.910230934687e+01 0.0 
4.904245197583e+01 -1.159839008158e+01 0.0 
2.753852929608e+01 -5.782128488093e+00 0.0 
1.756133602833e+01 -8.306130313187e-01 0.0 
2.615423700951e+01 -6.153865090092e+00 0.0 
1.028818761294e+01 -7.122020845892e+00 0.0 
2.970818901196e+01 -1.527821347593e+01 0.0 
4.801461623449e+01 -1.164472570985e+01 0.0 
9.455722100419e+00 -6.546069291118e+00 0.0 
3.089099236677e+01 -1.835339328261e+01 0.0 
2.350000000013e+01 -1.920825896750e+01 0.0 
4.830620531887e+01 -1.506626155470e+01 0.0 
1.725381944701e+01 -1.688794487850e+01 0.0 
2.156246225273e+01 -1.475893794002e+01 0.0 
4.919319648787e+01 -1.742767505896e+01 0.0 
4.437935623576e+01 -1.077662927266e+01 0.0 
1.001520521978e+01 -1.652692675208e+00 0.0 
9.067160240050e-01 -1.441937727541e+01 0.0 
2.603365149390e+01 -4.755996613848e+00 0.0 
2.458344439002e+01 -4.873645517696e+00 0.0 
2.304312390142e+01 -3.836552768096e+00 0.0 
2.546923202198e+00 -6.902480355749e+00 0.0 
1.251534969393e+01 -2.490989965776e+00 0.0 
2.454061833377e+01 -3.933354231935e+00 0.0 
1.788186558740e+01 -1.827424884923e+01 0.0 
4.090785243552e+01 -1.166553231904e+01 0.0 
2.230128851568e+01 -1.623015738726e+01 0.0 
2.302362347568e+01 -2.916239960270e+00 0.0 
3.878119254461e+01 -1.830091164002e+01 0.0 
2.210081359958e+01 -1.829238229150e+01 0.0 
8.443704882233e+00 -1.921993252862e+01 0.0 
2.218405824691e+01 -1.724557581508e+01 0.0 
2.151157503963e+01 -2.790636689331e+00 0.0 
3.741658958955e+01 -1.250400191722e+01 0.0 
2.697247663737e+01 -1.838290202309e+01 0.0 
4.743362342862e+01 -1.585850773010e+01 0.0 
6.671345075358e+00 -1.924977576322e+01 0.0 
3.900825404537e+01 -1.157220003875e+01 0.0 
4.649692961375e+01 -1.836335837481e+01 0.0 
1.578831424832e+01 -3.678284023361e+00 0.0 
4.814208768888e+01 -1.841249298770e+01 0.0 
2.964123298315e+01 -1.625739458193e+01 0.0 
4.580760351902e+01 -1.284294554687e+01 0.0 
3.561520879615e+01 -1.245548941949e+01 0.0 
2.555418095658e+00 -1.841101588290e+01 0.0 
3.288468366144e+01 -1.834258164109e+01 0.0 
2.065894391445e+01 -2.240688571739e+00 0.0 
4.739171429915e+01 -1.496536413446e+01 0.0 
3.478086729185e+00 -8.576434653209e+00 0.0 
1.606010630246e+01 -1.588421807951e+00 0.0 
1.018329200594e+01 -1.834320874317e+01 0.0 
2.957213339430e+01 -1.720496954591e+01 0.0 
4.142712790164e+00 -1.837794506222e+01 0.0 
6.698721532573e-01 -2.499999999997e+00 0.0 
8.037039123140e+00 -1.571229354954e+00 0.0 
1.203541361428e+01 -1.847784298001e+01 0.0 
2.899968332038e+01 -1.848264722179e+01 0.0 
1.469229460948e+01 -4.219485753730e+00 0.0 
4.049590781957e+01 -1.932812501995e+01 0.0 
1.996211678340e+01 -1.506329754720e+00 0.0 
4.250588298353e+01 -1.067383247529e+01 0.0 
5.831497011152e+00 -1.635396227234e+00 0.0 
5.317606125670e+00 -1.923927974868e+01 0.0 
4.208546426993e+01 -1.842830665025e+01 0.0 
2.327553405011e+00 -9.459409929662e+00 0.0 
3.568351902251e+01 -1.096637218582e+01 0.0 
1.682104374890e+00 -6.231413350963e+00 0.0 
2.451812238018e+01 -1.766524914339e+01 0.0 
1.058003429638e+01 -2.391839617098e+00 0.0 
4.399988753123e+01 -1.851998776342e+01 0.0 
1.400000000010e+01 -1.852293523028e+01 0.0 
3.604719565984e+01 -1.850662876800e+01 0.0 
1.951297136734e+01 -1.938092349694e+01 0.0 
1.821365318472e+01 -1.531276353287e+00 0.0 
2.298031859732e+01 -1.854635324722e+01 0.0 
1.552168066204e+01 -1.764280741977e+01 0.0 
4.572957713638e+01 -1.073347898229e+01 0.0 
3.429637429624e+01 -1.838861552790e+01 0.0 
2.427434426052e+00 -7.705577451869e+00 0.0 
4.662792031485e+00 -3.359424455416e+00 0.0 
4.926794919243e+01 -1.926794919243e+01 0.0 
7.320508075690e-01 -7.320508075688e-01 0.0 
4.926794919243e+01 -1.073205080757e+01 0.0 
7.320508075705e-01 -1.926794919243e+01 0.0 
2.917460242467e+00 -3.202866455310e+00 0.0 
4.838200575963e+01 -1.232674147454e+01 0.0 
2.998445708009e+01 -1.854403752148e+01 0.0 
5.949940090766e-01 -1.152762038165e+01 0.0 
4.844763495759e+01 -1.678092548787e+01 0.0 
1.301685480160e+01 -3.170056592566e+00 0.0 
1.650046335855e+01 -6.731535384067e-01 0.0 
4.854881540991e+01 -1.405224059779e+01 0.0 
2.119545114693e+01 -1.846813384545e+01 0.0 
3.797852849897e+01 -1.857978513215e+01 0.0 
4.649823708745e+01 -1.338351810816e+01 0.0 
2.012685900976e+01 -2.889659035009e+00 0.0 
2.953271913273e+01 -1.791558075192e+01 0.0 
2.408509097292e+00 -1.021949208421e+01 0.0 
2.642589566221e+01 -1.773216561448e+01 0.0 
1.730010270775e+01 -1.763165076721e+01 0.0 
2.017406551304e+01 -8.513536440582e-01 0.0 
5.254761581934e-01 -1.249999999999e+01 0.0 
6.640448215642e+00 -1.545337834885e+00 0.0 
7.843361506349e+00 -1.852719839527e+01 0.0 
1.588442191088e+00 -1.066158564320e+01 0.0 
3.480610198624e+01 -9.413633635267e+00 0.0 
4.951470588234e+01 -9.500000000000e+00 0.0 

SCALARS node_number int
LOOKUP_TABLE default
1
2
3
4
5
6
7
8
9
10
11
12
13
14
15
16
17
18
19
20
21
22
23
24
25
26
27
28
29
30
31
32
33
34
35
36
37
38
39
40
41
42
43
44
45
46
47
48
49
50
51
52
53
54
55
56
57
58
59
60
61
62
63
64
65
66
67
68
69
70
71
72
73
74
75
76
77
78
79
80
81
82
84
85
86
87
88
89
90
91
92
93
102
104
105
106
107
108
109
110
111
112
113
114
115
116
117
118
119
120
121
122
123
124
125
126
127
128
129
130
131
132
133
134
135
136
346
347
348
349
350
351
352
353
354
355
356
357
358
359
360
361
362
363
364
365
366
367
368
369
370
371
372
373
374
375
376
377
378
379
380
381
382
383
384
385
386
387
388
389
390
391
392
393
394
395
396
397
398
399
400
401
402
403
404
405
406
407
408
409
410
411
412
413
414
415
416
417
418
419
420
421
422
423
424
425
426
427
428
429
430
431
432
433
434
435
436
437
438
439
440
441
442
443
444
445
446
447
448
449
450
451
452
453
454
455
456
457
458
459
460
461
462
463
464
465
466
467
468
469
470
471
472
473
474
475
476
477
478
479
480
481
482
483
484
485
486
487
488
489
490
491
492
493
494
495
496
497
498
499
500
501
502
503
504
505
506
507
508
509
510
511
512
513
514
515
516
517
518
519
520
521
522
523
524
525
526
527
528
529
530
531
532
533
534
535
536
537
538
539
540
541
542
543
544
545
546
547
548
549
550
551
552
553
554
555
556
557
558
559
560
561
562
563
564
565
566
567
568
569
570
571
572
573
574
575
576
577
578
579
580
581
582
583
584
585
586
587
588
589
590
591
592
593
594
595
596
597
598
599
600
601
602
603
604
605
606
607
608
609
610
611
612
613
614
615
616
617
618
619
620
621
622
623
624
625
626
627
628
629
630
631
632
633
634
635
636
637
638
639
640
641
642
643
644
645
646
647
648
649
650
651
652
653
654
655
656
657
658
659
660
661
662
663
664
665
666
667
668
669
670
671
672
673
674
675
676
677
678
679
680
681
682
683
684
685
686
687
688
689
690
691
692
693
694
695
696
697
698
699
700
701
702
703
704
705
706
707
708
709
710
711
712
713
714
715
716
717
718
719
720
721
722
723
724
725
726
727
728
729
730
731
732
733
734
735
736
737
738
739
740
741
742
743
744
745
746
747
748
749
750
751
752
753
754
755
756
757
758
759
760
761
762
763
764
765
766
767
768
769
770
771
772
773
774
775
776
777
778
779
780
781
782
783
784
785
786
787
788
789
790
791
792
793
794
795
796
797
798
799
800
801
802
803
804
805
806
807
808
809
810
811
812
813
814
815
816
817
818
819
820
821
822
823
824
825
826
827
828
829
830
831
832
833
834
835
836
837
838
839
840
841
842
843
844
845
846
847
848
849
850
851
852
853
854
855
856
857
858
859
860
861
862
863
864
865
866
867
868
869
870
871
872
873
874
875
876
877
878
879
880
881
882
883
884
885
886
887
888
889
890
891
892
893
894
895
896
897
898
899
900
901
902
903
904
905
906
907
908
909
910
911
912
913
914
915
916
917
918
919
920
921
922
923
924
925
926
927
928
929
930
931
932
933
934
935
936
937
938
939
940
941
942
943
944
945
946
947
948
949
950
951
952
953
954
955
956
957
958
959
960
961
962
963
964
965
966
967
968
969
970
971
972
973
974
975
976
977
978
979
980
981
982
983
984
985
986
987
988
989
990
991
992
993
994
995
996
997
998
999
1000
1001
1002
1003
1004
1005
1006
1007
1008
1009
1010
1011
1012
1013
1014
1015
1016
1017
1018
1019
1020
1021
1022
1023
1024
1025
1026
1027
1028
1029
1030
1031
1032
1033
1034
1035
1036
1037
1038
1039
1040
1041
1042
1043
1044
1045
1046
1047
1048
1049
1050
1051
1052
1053
1054
1055
1056
1057
1058
1059
1060
1061
1062
1063
1064
1065
1066
1067
1068
1069
1070
1071
1072
1073
1074
1075
1076
1077
1078
1079
1080
1081
1082
1083
1084
1085
1086
1087
1088
1089
1090
1091
1092
1093
1094
1095
1096
1097
1098
1099
1100
1101
1102
1103
1104
1105
1106
1107
1108
1109
1110
1111
1112
1113
1114
1115
1116
1117
1118
1119
1120
1121
1122
1123
1124
1125
1126
1127
1128
1129
1130
1131
1132
1133
1134
1135
1136
1137
1138
1139
1140
1141
1142
1143
1144
1145
1146
1147
1148
1149
1150
1151
1152
1153
1154
1155
1156
1157
1158
1159
1160
1161
1162
1163
1164
1165
1166
1167
1168
1169
1170
1171
1172
1173
1174
1175
1176
1177
1178
1179
1180
1181
1182
1183
1184
1185
1186
1187
1188
1189
1190
1191
1192
1193
1194
1195
1196
1197
1198
1199
1200
1201
1202
1203
1204
1205
1206
1207
1208
1209
1210
1211
1212
1213
1214
1215
1216
1217
1218
1219
1220
1221
1222
1223
1224
1225
1226
1227
1228
1229
1230
1231
1232
1233
1234
1235
1236
1237
1238
1239
1240
1241
1242
1243
1244
1245
1246
1247
1248
1249
1250
1251
1252
1253
1254
1255
1256
1257
1258
1259
1260
1261
1262
1263
1264
1283
1284

VECTORS node_mesh_deformation float
0.0 6.379593660965e-02 0.0 
0.000000000000e+00 1.544528341182e-01 0.0 
0.0 0.000000000000e+00 0.0 
0.000000000000e+00 0.000000000000e+00 0.0 
0.0 6.475713637838e-02 0.0 
0.0 6.501790353113e-02 0.0 
0.0 6.462160108423e-02 0.0 
0.0 6.356737853133e-02 0.0 
0.0 6.188124262852e-02 0.0 
0.0 5.970983040459e-02 0.0 
0.0 5.713911254985e-02 0.0 
0.0 5.423400441583e-02 0.0 
0.0 5.105629292122e-02 0.0 
0.0 4.764431724065e-02 0.0 
0.0 4.400740903324e-02 0.0 
0.0 4.015699432503e-02 0.0 
0.0 3.608281081210e-02 0.0 
0.0 3.177687657572e-02 0.0 
0.0 2.720677893977e-02 0.0 
0.0 2.235502610299e-02 0.0 
0.0 1.721292798840e-02 0.0 
0.0 1.176814079180e-02 0.0 
0.0 6.027415272193e-03 0.0 
0.000000000000e+00 0.000000000000e+00 0.0 
0.000000000000e+00 0.000000000000e+00 0.0 
0.000000000000e+00 0.000000000000e+00 0.0 
0.000000000000e+00 0.000000000000e+00 0.0 
0.000000000000e+00 0.000000000000e+00 0.0 
0.000000000000e+00 0.000000000000e+00 0.0 
0.000000000000e+00 0.000000000000e+00 0.0 
0.000000000000e+00 0.000000000000e+00 0.0 
0.000000000000e+00 0.000000000000e+00 0.0 
0.000000000000e+00 0.000000000000e+00 0.0 
0.000000000000e+00 0.000000000000e+00 0.0 
0.000000000000e+00 0.000000000000e+00 0.0 
0.000000000000e+00 0.000000000000e+00 0.0 
0.000000000000e+00 0.000000000000e+00 0.0 
0.000000000000e+00 0.000000000000e+00 0.0 
0.000000000000e+00 0.000000000000e+00 0.0 
0.000000000000e+00 0.000000000000e+00 0.0 
0.000000000000e+00 0.000000000000e+00 0.0 
0.000000000000e+00 0.000000000000e+00 0.0 
0.000000000000e+00 0.000000000000e+00 0.0 
0.000000000000e+00 0.000000000000e+00 0.0 
0.000000000000e+00 0.000000000000e+00 0.0 
0.000000000000e+00 0.000000000000e+00 0.0 
0.000000000000e+00 0.000000000000e+00 0.0 
0.000000000000e+00 0.000000000000e+00 0.0 
0.000000000000e+00 0.000000000000e+00 0.0 
0.000000000000e+00 0.000000000000e+00 0.0 
0.000000000000e+00 0.000000000000e+00 0.0 
0.000000000000e+00 0.000000000000e+00 0.0 
0.000000000000e+00 0.000000000000e+00 0.0 
0.000000000000e+00 0.000000000000e+00 0.0 
0.000000000000e+00 0.000000000000e+00 0.0 
0.000000000000e+00 0.000000000000e+00 0.0 
0.000000000000e+00 0.000000000000e+00 0.0 
0.000000000000e+00 0.000000000000e+00 0.0 
0.000000000000e+00 0.000000000000e+00 0.0 
0.000000000000e+00 0.000000000000e+00 0.0 
0.000000000000e+00 0.000000000000e+00 0.0 
0.000000000000e+00 0.000000000000e+00 0.0 
0.000000000000e+00 0.000000000000e+00 0.0 
0.000000000000e+00 0.000000000000e+00 0.0 
0.000000000000e+00 0.000000000000e+00 0.0 
0.000000000000e+00 0.000000000000e+00 0.0 
0.000000000000e+00 0.000000000000e+00 0.0 
0.000000000000e+00 0.000000000000e+00 0.0 
0.000000000000e+00 0.000000000000e+00 0.0 
0.000000000000e+00 0.000000000000e+00 0.0 
0.000000000000e+00 0.000000000000e+00 0.0 
0.000000000000e+00 0.000000000000e+00 0.0 
0.000000000000e+00 1.404826738019e-01 0.0 
0.000000000000e+00 1.261063190679e-01 0.0 
0.000000000000e+00 1.113459276088e-01 0.0 
0.000000000000e+00 9.623501710655e-02 0.0 
0.000000000000e+00 8.080245762556e-02 0.0 
0.000000000000e+00 6.508312821663e-02 0.0 
0.000000000000e+00 4.911113975164e-02 0.0 
0.000000000000e+00 3.291997993971e-02 0.0 
0.000000000000e+00 1.654737693551e-02 0.0 
-8.065441213311e-03 -7.750384887278e-03 0.0 
3.404400469650e-02 1.393507712385e-01 0.0 
-2.496633543245e-04 2.186677516418e-02 0.0 
7.417789119504e-03 4.646422769584e-02 0.0 
1.468174189964e-02 6.902378718730e-02 0.0 
2.140313889130e-02 8.956081010709e-02 0.0 
2.761261287270e-02 1.078695175890e-01 0.0 
3.296884586644e-02 1.231411014021e-01 0.0 
3.681920628701e-02 1.344266631349e-01 0.0 
3.846960314209e-02 1.412025494522e-01 0.0 
3.664975707267e-02 1.431857984539e-01 0.0 
0.000000000000e+00 1.680196883502e-01 0.0 
1.962517874119e-03 1.544662594537e-01 0.0 
3.914333486094e-03 1.544691909152e-01 0.0 
5.875922761419e-03 1.544478050239e-01 0.0 
7.856863159788e-03 1.543973082156e-01 0.0 
9.861849818812e-03 1.543043617511e-01 0.0 
1.189291165283e-02 1.541279855429e-01 0.0 
1.397130150431e-02 1.538633005126e-01 0.0 
1.608717753653e-02 1.534372920842e-01 0.0 
1.827453182613e-02 1.528310647378e-01 0.0 
2.054109063942e-02 1.519566466662e-01 0.0 
2.289929260002e-02 1.507217195379e-01 0.0 
2.538892492679e-02 1.490111410660e-01 0.0 
2.803878783245e-02 1.466883709605e-01 0.0 
3.089549258397e-02 1.435478783502e-01 0.0 
-4.717682288877e-03 -2.309656118551e-02 0.0 
2.823124688902e-04 -3.139407836096e-02 0.0 
5.770892081948e-03 -3.447328939585e-02 0.0 
1.174805730371e-02 -3.195092467467e-02 0.0 
1.622464139150e-02 -2.139624992376e-02 0.0 
1.887779621746e-02 -7.874895080043e-03 0.0 
1.988734739997e-02 2.619328135167e-03 0.0 
2.016069212710e-02 1.144747731036e-02 0.0 
2.023977744724e-02 1.929728780765e-02 0.0 
2.002163263502e-02 2.657800333790e-02 0.0 
1.942133768341e-02 3.327493643623e-02 0.0 
1.850411811728e-02 3.932074541008e-02 0.0 
1.720349387412e-02 4.485960157835e-02 0.0 
1.545667987144e-02 4.981060955936e-02 0.0 
1.336925957875e-02 5.406641406445e-02 0.0 
1.103568340576e-02 5.752988737364e-02 0.0 
8.494176394565e-03 6.028040601259e-02 0.0 
5.785156484237e-03 6.228772884844e-02 0.0 
2.908644812278e-03 6.343122620681e-02 0.0 
3.256092918676e-02 1.502294162910e-01 0.0 
2.998848189889e-02 1.549205175367e-01 0.0 
2.752016498829e-02 1.584920633726e-01 0.0 
2.528487464878e-02 1.611910205113e-01 0.0 
2.316978815143e-02 1.632105374498e-01 0.0 
2.112955398395e-02 1.647033122148e-01 0.0 
1.913224875167e-02 1.657848618934e-01 0.0 
1.715791670301e-02 1.665567696706e-01 0.0 
1.520563655737e-02 1.671053590211e-01 0.0 
1.327471067441e-02 1.674792027062e-01 0.0 
1.135623927119e-02 1.677184615844e-01 0.0 
9.450675004885e-03 1.678735280214e-01 0.0 
7.559441702384e-03 1.679611606904e-01 0.0 
5.681742344272e-03 1.680012448887e-01 0.0 
3.818157699200e-03 1.680197965708e-01 0.0 
1.936172868540e-03 1.679980323094e-01 0.0 
-3.688668735375e-03 8.401279735392e-03 0.0 
3.559234697846e-03 3.436301020600e-02 0.0 
1.110337252867e-02 5.797811431879e-02 0.0 
1.810742205213e-02 7.954719753848e-02 0.0 
2.462244164606e-02 9.909618152319e-02 0.0 
3.046130494443e-02 1.160089137877e-01 0.0 
3.513306460868e-02 1.293196002772e-01 0.0 
3.794877454830e-02 1.383787438874e-01 0.0 
3.816605225547e-02 1.428047505582e-01 0.0 
3.541220305716e-02 1.418509004990e-01 0.0 
1.269635411622e-02 3.318624580499e-02 0.0 
3.349954535974e-03 4.035278922586e-03 0.0 
1.417095745452e-02 2.282705388235e-02 0.0 
8.483431230506e-03 -2.570408281587e-02 0.0 
4.007259869248e-04 4.027907394356e-03 0.0 
2.641728844941e-02 7.657638111818e-02 0.0 
-1.006723587171e-03 4.558028982547e-02 0.0 
6.151546559959e-03 5.033321928718e-03 0.0 
3.738749379691e-02 1.090580013914e-01 0.0 
8.009242284121e-03 6.592277093734e-03 0.0 
4.207920607409e-02 1.286246511641e-01 0.0 
-6.069251960330e-04 4.225789324991e-03 0.0 
1.240576023338e-02 4.833717235050e-02 0.0 
8.785486597340e-03 8.917661752822e-03 0.0 
3.749139548740e-02 1.294616368019e-01 0.0 
-7.098801540018e-04 5.811583338610e-02 0.0 
-8.542394395921e-04 3.469775042987e-02 0.0 
8.596005875187e-03 1.103286696354e-02 0.0 
6.453293167745e-03 1.232790216171e-02 0.0 
1.981563807171e-03 1.402868854280e-02 0.0 
3.629325310570e-03 1.493269740579e-02 0.0 
4.746060751565e-03 1.288962151554e-02 0.0 
3.040361068103e-02 1.329925871371e-01 0.0 
1.980007125908e-02 1.397924663260e-01 0.0 
1.303963516850e-02 1.410432650071e-01 0.0 
1.297403914968e-03 8.831606391109e-02 0.0 
-6.789376674350e-04 4.970483272331e-03 0.0 
3.472763390036e-03 -2.461730034396e-02 0.0 
7.540209695808e-03 5.971025841085e-02 0.0 
-5.311748902292e-04 2.015536756277e-02 0.0 
6.730705085786e-03 1.424080466088e-01 0.0 
4.636117984719e-04 6.386138921891e-02 0.0 
8.542932743666e-03 1.332614221096e-02 0.0 
6.685351711674e-03 5.291083864090e-03 0.0 
8.478784504266e-03 7.607186776671e-03 0.0 
5.145989305884e-03 4.713849753660e-03 0.0 
1.886476840308e-03 3.689935807845e-03 0.0 
1.158057666158e-02 -2.722016134603e-03 0.0 
2.478242042194e-02 1.381629298379e-01 0.0 
-3.445510442504e-04 4.875907205463e-03 0.0 
9.913335522356e-04 5.780308878241e-02 0.0 
1.402704070546e-02 3.647068156960e-02 0.0 
-1.000913019637e-03 5.242804261528e-02 0.0 
9.980152805298e-04 1.146016423642e-02 0.0 
3.255887635574e-02 9.306430445039e-02 0.0 
1.970490755580e-02 5.604116425177e-02 0.0 
4.080618267349e-02 1.208137909275e-01 0.0 
4.061293582190e-02 1.314794159016e-01 0.0 
4.734581962730e-03 7.991708864627e-03 0.0 
1.553745535041e-03 1.170060791691e-01 0.0 
-3.544748428608e-04 4.077835872476e-03 0.0 
3.501242231240e-03 6.375080754094e-02 0.0 
5.490750107384e-04 2.596440461236e-02 0.0 
3.598021349810e-02 1.258208957052e-01 0.0 
3.838856097914e-02 1.168643681557e-01 0.0 
3.542172336709e-02 1.150367336691e-01 0.0 
3.790713953333e-02 1.045938153524e-01 0.0 
3.505201452302e-02 1.007380856210e-01 0.0 
3.663113209918e-02 9.180546614156e-02 0.0 
3.966629989957e-02 9.502300548228e-02 0.0 
3.772834619152e-02 8.289276310379e-02 0.0 
4.084608487852e-02 8.571454040254e-02 0.0 
3.340379338135e-02 8.748303058487e-02 0.0 
3.826375521226e-02 7.415702004368e-02 0.0 
4.142140764876e-02 7.664684421123e-02 0.0 
3.822502587722e-02 6.572545983608e-02 0.0 
4.137264244800e-02 6.793577115947e-02 0.0 
4.427976195786e-02 7.813964961678e-02 0.0 
4.419607073381e-02 6.919715344990e-02 0.0 
4.673273240943e-02 7.856949681490e-02 0.0 
4.661184737321e-02 6.940004391891e-02 0.0 
4.348401385429e-02 6.078090842060e-02 0.0 
4.582102959802e-02 6.084498141239e-02 0.0 
4.848957612389e-02 6.854620119269e-02 0.0 
4.761954994278e-02 5.988063735225e-02 0.0 
4.978603103115e-02 6.662946776084e-02 0.0 
4.881241834227e-02 5.788172367209e-02 0.0 
5.046948668488e-02 6.365090226363e-02 0.0 
4.938135620178e-02 5.490602871198e-02 0.0 
4.715682926950e-02 4.993978120958e-02 0.0 
4.760050745607e-02 4.704932137822e-02 0.0 
4.929032024387e-02 5.103032847463e-02 0.0 
4.737133344708e-02 4.331655513150e-02 0.0 
4.853199390909e-02 4.635260973046e-02 0.0 
4.646462700583e-02 3.887589111377e-02 0.0 
4.479343766237e-02 3.662047252818e-02 0.0 
4.372712709656e-02 3.250180603307e-02 0.0 
4.486228716374e-02 3.381384493120e-02 0.0 
4.187470363332e-02 2.771858562292e-02 0.0 
4.251042591964e-02 2.804860131132e-02 0.0 
3.924888541532e-02 2.235316738620e-02 0.0 
3.944889212444e-02 2.180412851203e-02 0.0 
3.590687023311e-02 1.671703227412e-02 0.0 
3.539118164532e-02 1.795055751266e-02 0.0 
3.182583492454e-02 1.305170023546e-02 0.0 
3.197413498904e-02 1.115001901901e-02 0.0 
2.775596873644e-02 8.445995005012e-03 0.0 
2.741906471665e-02 1.077792103593e-02 0.0 
2.332705597350e-02 7.178377497354e-03 0.0 
2.289537162126e-02 9.752587231370e-03 0.0 
1.889213001460e-02 7.163965131602e-03 0.0 
1.905176707275e-02 4.326919265576e-03 0.0 
1.482311230236e-02 5.408684740981e-03 0.0 
1.468815224403e-02 8.160057490887e-03 0.0 
1.091866336544e-02 7.360346913133e-03 0.0 
1.086144071152e-02 4.608788867385e-03 0.0 
7.387161860501e-03 7.500210571640e-03 0.0 
7.592025713100e-03 9.674830993058e-03 0.0 
4.514905084143e-03 1.047432983330e-02 0.0 
4.206681490887e-03 8.564695039077e-03 0.0 
1.806272791626e-03 1.210067675711e-02 0.0 
2.130670730738e-03 1.350852392661e-02 0.0 
-2.292886794439e-04 1.569512607165e-02 0.0 
-5.128462304640e-04 1.456451245816e-02 0.0 
-2.171263791521e-03 1.858353991616e-02 0.0 
-1.872218004426e-03 1.918529656009e-02 0.0 
-3.460895959341e-03 2.236867679996e-02 0.0 
-3.084031476885e-03 2.236116201087e-02 0.0 
-3.682740411417e-03 2.215354582839e-02 0.0 
-4.617831442365e-03 2.607260367680e-02 0.0 
-4.698432928697e-03 2.627230542874e-02 0.0 
-5.322963245241e-03 3.018757014049e-02 0.0 
4.162439787573e-02 3.094277978066e-02 0.0 
-5.176659200595e-03 3.076126624006e-02 0.0 
-4.465235349265e-03 2.630393319186e-02 0.0 
-5.565146019315e-03 3.458046048820e-02 0.0 
-5.612691123027e-03 3.350104852886e-02 0.0 
-5.151343944803e-03 3.550630947206e-02 0.0 
-5.377180506723e-03 3.912285305062e-02 0.0 
-4.677052690598e-03 4.034281538756e-02 0.0 
4.225056926201e-02 2.826174420189e-02 0.0 
4.216293365504e-02 5.295848179688e-02 0.0 
-4.812227465351e-03 4.366053473589e-02 0.0 
-3.838338853277e-03 4.510514542080e-02 0.0 
-3.426177493087e-03 4.139983199008e-02 0.0 
-2.280311239332e-03 4.633508698071e-02 0.0 
3.194004855612e-02 9.616959145390e-02 0.0 
3.002497676368e-02 8.236220973214e-02 0.0 
2.875476377751e-02 9.082381922248e-02 0.0 
2.654768260594e-02 7.660677546393e-02 0.0 
2.548724491011e-02 8.471234228065e-02 0.0 
-2.749207704976e-03 4.963478104677e-02 0.0 
3.474556526334e-02 6.221767617399e-02 0.0 
2.719699529870e-02 6.837804899012e-02 0.0 
5.005498878643e-02 7.613554018701e-02 0.0 
4.988163128435e-02 5.492129064390e-02 0.0 
2.660539218946e-02 1.292368954289e-02 0.0 
-5.300847526232e-03 4.201585060259e-02 0.0 
-4.652818389872e-03 4.622434102160e-02 0.0 
-4.945401582116e-03 4.416761486423e-02 0.0 
-1.445940512859e-03 1.949605537850e-02 0.0 
-2.558691538290e-03 2.202177175863e-02 0.0 
-9.067677883738e-04 1.941438445543e-02 0.0 
-1.953295299156e-03 2.126894567148e-02 0.0 
-3.570413146967e-04 1.884992441210e-02 0.0 
-1.396058021969e-03 2.003759758697e-02 0.0 
-2.653949312011e-03 2.267756057299e-02 0.0 
-2.106494117646e-03 2.080635045795e-02 0.0 
-3.057385893067e-03 2.360828944474e-02 0.0 
2.741113027227e-05 1.772642932233e-02 0.0 
1.420087618065e-03 1.683430171969e-02 0.0 
-2.520467304290e-03 2.113895846910e-02 0.0 
-3.204243821490e-03 2.404898726384e-02 0.0 
-2.682648794949e-03 2.102544345744e-02 0.0 
-3.133356729046e-03 2.401057246847e-02 0.0 
-3.668311941303e-03 2.714291260243e-02 0.0 
-3.373199432498e-03 2.712423941343e-02 0.0 
-3.899353315987e-03 3.036696170766e-02 0.0 
2.210034309485e-02 1.202538988710e-02 0.0 
2.531960713054e-02 1.466313195012e-02 0.0 
2.096193078905e-02 1.375138926879e-02 0.0 
2.348271020844e-02 1.561236550707e-02 0.0 
1.941509243147e-02 1.445873963521e-02 0.0 
2.123372096789e-02 1.557288906704e-02 0.0 
1.736289372382e-02 1.428463300829e-02 0.0 
1.563622800327e-02 1.373573252321e-02 0.0 
3.761319994592e-02 5.754482693004e-02 0.0 
2.763711699495e-02 5.966706927047e-03 0.0 
3.157837182962e-02 9.145036267993e-03 0.0 
2.698914165691e-02 3.295446203429e-03 0.0 
3.048897587840e-02 7.059537393616e-03 0.0 
2.575927384090e-02 5.350554877923e-04 0.0 
2.875935404785e-02 4.958942927853e-03 0.0 
2.404775635149e-02 -2.311454590952e-03 0.0 
2.096067113151e-02 -5.077404212697e-03 0.0 
1.927474109750e-02 -8.615189023883e-03 0.0 
1.626715912782e-02 -9.362554619120e-03 0.0 
1.478414029997e-02 -1.336816867812e-02 0.0 
1.193993655300e-02 -1.190101688054e-02 0.0 
4.485592617140e-02 4.285535071947e-02 0.0 
2.533168160077e-02 1.732193828687e-02 0.0 
2.239014709992e-02 1.646880023268e-02 0.0 
2.644548663905e-02 1.871420063215e-02 0.0 
-1.532964379140e-03 4.230357304358e-02 0.0 
-2.877117344251e-03 2.351385605032e-02 0.0 
1.515061856772e-03 1.573191885791e-02 0.0 
3.232017356412e-03 1.521002231284e-02 0.0 
1.378149321557e-02 1.332471756695e-02 0.0 
-9.515359060659e-04 5.093180128834e-02 0.0 
2.642420266187e-02 2.921973236139e-03 0.0 
3.091496713028e-02 1.152526853139e-02 0.0 
2.304775326946e-02 7.011739639874e-02 0.0 
2.222054240337e-02 7.798657517967e-02 0.0 
2.964330335104e-03 1.402562904537e-02 0.0 
-1.547281140654e-03 5.379329851010e-02 0.0 
-1.699656855552e-03 1.842528359915e-02 0.0 
1.705272884129e-02 -1.229474753869e-02 0.0 
-2.934578428888e-03 2.662703712066e-02 0.0 
-2.472353092988e-03 2.259182369931e-02 0.0 
-3.662361902553e-03 2.562076498864e-02 0.0 
2.284685930507e-02 1.701976189550e-02 0.0 
2.689035846264e-02 1.969557592975e-02 0.0 
1.298770178637e-02 -7.928837601739e-03 0.0 
8.931419599769e-03 -8.550228461529e-03 0.0 
8.157323011236e-03 -1.237390794388e-02 0.0 
5.474031018878e-03 -7.004243346143e-03 0.0 
6.026617875218e-03 -3.909546659525e-03 0.0 
3.151161074427e-03 -1.378960379300e-03 0.0 
3.045582015226e-03 -3.866073294553e-03 0.0 
1.219995924572e-03 2.740801065563e-03 0.0 
1.043989037370e-03 4.689008104828e-03 0.0 
-3.872727001255e-04 9.259181928982e-03 0.0 
4.480316240176e-04 8.062542894796e-03 0.0 
-7.497088637809e-04 1.468797534353e-02 0.0 
-2.395693769621e-03 1.950707045865e-02 0.0 
1.296551365158e-02 -1.748754558957e-02 0.0 
4.617683138470e-02 8.824341582871e-02 0.0 
1.367826274215e-03 1.395926083552e-02 0.0 
1.488165834796e-02 1.328618015738e-02 0.0 
1.958190908076e-02 6.306303524783e-02 0.0 
1.899516419493e-02 7.074609766079e-02 0.0 
2.107712414571e-02 8.583820355170e-02 0.0 
1.809411771059e-02 7.838524756023e-02 0.0 
1.585977957046e-02 6.307334154268e-02 0.0 
1.520384902759e-02 7.058739956332e-02 0.0 
1.694922235742e-02 8.594194623586e-02 0.0 
1.429067238822e-02 7.802529286093e-02 0.0 
1.561990988290e-02 9.336333168935e-02 0.0 
1.317535798649e-02 8.535279961548e-02 0.0 
1.175179439268e-02 6.984252575225e-02 0.0 
1.083846477400e-02 7.713206151614e-02 0.0 
1.190628133497e-02 9.256851045043e-02 0.0 
9.748008263813e-03 8.432537219684e-02 0.0 
1.052047408767e-02 9.965304437849e-02 0.0 
8.514821026438e-03 9.141229413144e-02 0.0 
7.719601031027e-03 7.592444374845e-02 0.0 
3.098438630031e-04 5.493101677903e-02 0.0 
1.219318072678e-02 1.332085397480e-02 0.0 
1.054244069461e-02 1.259132526643e-02 0.0 
-4.240889763304e-03 4.793826523729e-02 0.0 
-4.383918022382e-03 4.550113847457e-02 0.0 
-4.950033243235e-03 4.186789757788e-02 0.0 
-4.261085984731e-03 4.289077440392e-02 0.0 
6.602434740614e-03 8.310243297716e-02 0.0 
5.853163919667e-03 6.740658049560e-02 0.0 
2.782783140520e-02 1.055515432477e-02 0.0 
3.197033144762e-02 2.013518287719e-02 0.0 
1.978454891549e-02 5.538502147992e-02 0.0 
-2.389798220513e-03 2.568807713779e-02 0.0 
-2.796011360556e-03 2.975578863029e-02 0.0 
4.862623000854e-02 4.932588700612e-02 0.0 
4.933235693867e-02 5.872164269455e-02 0.0 
4.764187968638e-02 5.231800818435e-02 0.0 
4.756316719676e-02 6.256243566437e-02 0.0 
4.921459164614e-02 6.911520329363e-02 0.0 
4.542239688889e-02 5.533765658247e-02 0.0 
3.185231980007e-03 1.566963340593e-02 0.0 
9.373681968690e-03 6.145987029491e-02 0.0 
-2.753550418700e-03 3.698965169781e-02 0.0 
-5.402918056507e-04 3.764993001328e-02 0.0 
-1.986886149177e-03 2.128795461047e-02 0.0 
1.338699712822e-02 1.320210561759e-02 0.0 
4.389994364546e-02 4.475226422202e-02 0.0 
4.117338498390e-02 3.834318758829e-02 0.0 
3.977713596175e-02 3.923749494080e-02 0.0 
3.675112080679e-02 3.342873195290e-02 0.0 
3.488147516569e-02 3.333345183916e-02 0.0 
3.158190082058e-02 2.808813019543e-02 0.0 
3.334689128539e-02 2.832816143210e-02 0.0 
2.255731601470e-02 1.709685353984e-02 0.0 
2.797610144223e-02 2.344461945321e-02 0.0 
7.282935570224e-03 9.852331495387e-02 0.0 
2.958374995901e-02 1.962724612672e-02 0.0 
-7.639954783851e-04 1.065839475805e-02 0.0 
1.380929755538e-03 5.172935190864e-02 0.0 
1.166793940561e-03 1.420786945003e-02 0.0 
-4.126933036757e-04 5.740708955179e-02 0.0 
-1.810479902306e-03 5.585747632821e-02 0.0 
2.446876065335e-03 1.211914707100e-02 0.0 
2.915249824733e-02 2.700179344221e-02 0.0 
3.239540416916e-02 3.236316942389e-02 0.0 
4.662481124626e-02 7.394703606266e-02 0.0 
4.826745546758e-02 8.042675480083e-02 0.0 
1.869087543356e-02 1.454295556274e-02 0.0 
2.710536999380e-02 9.931453717471e-02 0.0 
1.813145885386e-02 1.011146870783e-01 0.0 
1.645911646002e-02 1.084638714981e-01 0.0 
1.640445196948e-03 5.822624667630e-02 0.0 
2.192737771923e-03 7.235686914403e-03 0.0 
1.287306887968e-02 5.506946080171e-02 0.0 
3.506455974482e-02 2.028237576626e-02 0.0 
3.578679350404e-02 2.950817089701e-02 0.0 
1.450314720265e-02 -1.607159300639e-02 0.0 
1.086559518886e-02 -2.191534001795e-02 0.0 
4.920171877529e-03 7.443515027636e-02 0.0 
4.221509926793e-03 5.875199682719e-02 0.0 
-4.714153627861e-03 3.935234914112e-02 0.0 
-3.982749029642e-03 3.997272569669e-02 0.0 
4.269304693317e-03 1.252633696345e-02 0.0 
-3.266848777095e-05 2.062544828023e-02 0.0 
4.846213424372e-03 5.150797527581e-02 0.0 
1.015559394136e-02 1.338065641767e-02 0.0 
1.072422298287e-02 1.285139889630e-02 0.0 
-3.577985261151e-03 4.630931282796e-02 0.0 
2.797126775616e-02 2.030040092896e-02 0.0 
2.398608506167e-02 9.882059167323e-03 0.0 
1.074084985143e-03 6.777018494806e-03 0.0 
-1.838040447884e-03 2.077046570613e-02 0.0 
-8.082381322070e-04 5.901493304794e-02 0.0 
3.302310029653e-03 1.038933457752e-02 0.0 
1.297251548352e-02 4.762775630644e-02 0.0 
2.969133165445e-02 2.395497006204e-02 0.0 
3.447929622925e-02 2.786319472329e-02 0.0 
2.418527666033e-02 1.941940685998e-02 0.0 
2.702620604627e-03 2.065856281234e-02 0.0 
1.045516959289e-03 1.149255259008e-02 0.0 
-1.781652640807e-03 2.436809962423e-02 0.0 
2.638450753922e-02 2.546259097599e-02 0.0 
2.932131789312e-02 3.054950482681e-02 0.0 
3.884462098045e-02 2.890379500366e-02 0.0 
3.938392262235e-02 3.869988895660e-02 0.0 
3.534595522492e-02 4.029610192721e-02 0.0 
3.870567040695e-02 4.966501647582e-02 0.0 
4.248177979787e-02 9.729353268437e-02 0.0 
4.225649406812e-02 3.728233502788e-02 0.0 
4.815710825075e-02 8.783869723764e-02 0.0 
4.696008483029e-02 9.822099516228e-02 0.0 
4.842583605022e-02 9.701825125503e-02 0.0 
5.025203595521e-02 7.482671667256e-02 0.0 
4.927023749471e-02 8.614584844541e-02 0.0 
3.489908398318e-02 1.407836314328e-02 0.0 
2.983648966879e-02 1.636574328302e-02 0.0 
-5.264900542518e-03 3.808075103782e-02 0.0 
-4.242765224960e-03 2.987930845189e-02 0.0 
5.468253572989e-04 1.717365476999e-02 0.0 
9.863766082660e-03 5.413017736981e-02 0.0 
7.500057538962e-03 4.559214092309e-02 0.0 
1.260576048100e-02 1.077287119731e-01 0.0 
1.099174416453e-02 1.146764042110e-01 0.0 
1.124330212888e-03 4.302956962786e-02 0.0 
2.464658400731e-03 3.813992335612e-02 0.0 
-3.870794078454e-03 2.507104334815e-02 0.0 
1.674726508973e-04 1.363281851839e-02 0.0 
1.616413630276e-02 4.801940190288e-02 0.0 
1.567725177994e-02 4.055309208934e-02 0.0 
1.953487088805e-02 4.774958041187e-02 0.0 
5.302676337553e-03 1.115201674586e-02 0.0 
2.303118437694e-02 1.429478648516e-03 0.0 
1.784641982284e-02 1.190516581404e-02 0.0 
9.447350134316e-03 -2.055632236905e-02 0.0 
4.213528034864e-02 3.413342635297e-02 0.0 
4.582023447134e-03 4.355386324805e-02 0.0 
3.949834137122e-02 5.202485070850e-02 0.0 
-1.452405829724e-03 1.964621786552e-02 0.0 
-1.589291302426e-03 1.652672899160e-02 0.0 
1.771459628157e-02 1.381261786426e-02 0.0 
4.058867415081e-02 1.190792256445e-01 0.0 
3.859966207363e-02 2.906778148895e-02 0.0 
3.794117983357e-02 2.626728695704e-02 0.0 
4.659462876291e-02 1.080109903209e-01 0.0 
4.752580476615e-02 1.060248843760e-01 0.0 
4.932490897631e-02 9.468875094282e-02 0.0 
4.781983113081e-02 1.029402129435e-01 0.0 
-8.602086041538e-04 1.209094402886e-02 0.0 
-2.251310692628e-03 1.619508567851e-02 0.0 
2.231856444485e-02 2.004741698661e-02 0.0 
2.200556887426e-02 1.816090001820e-02 0.0 
2.289199615508e-02 2.292690815481e-02 0.0 
2.566371772325e-02 2.776959017354e-02 0.0 
1.398231835318e-02 1.129858437089e-02 0.0 
1.497395896632e-02 1.233483472361e-02 0.0 
-1.738064403705e-03 5.713493852832e-02 0.0 
4.655274381991e-02 9.241135776345e-02 0.0 
9.942295564315e-03 3.940318521598e-02 0.0 
4.513213200021e-02 1.088729692871e-01 0.0 
4.951728205782e-05 1.070998496549e-02 0.0 
-6.579573097056e-04 1.299889331650e-02 0.0 
7.918455502242e-03 -2.534721048996e-02 0.0 
6.428333732982e-03 -2.048484636953e-02 0.0 
3.327591022781e-03 4.307373167324e-02 0.0 
3.374989051108e-02 5.215591095456e-02 0.0 
3.690774982625e-02 6.144313401329e-02 0.0 
3.033054287746e-02 4.211062670763e-02 0.0 
-2.561276282452e-04 8.933738378179e-03 0.0 
2.914596752774e-03 1.426386689452e-01 0.0 
-1.110596604440e-03 1.459101396300e-02 0.0 
5.067615724698e-02 7.983414390955e-02 0.0 
3.583989655198e-03 3.512854336661e-02 0.0 
3.477321077759e-02 2.494328378977e-02 0.0 
4.675684085056e-02 4.311132582570e-02 0.0 
6.529595054616e-03 1.279913729642e-02 0.0 
2.708319101274e-03 5.166544976997e-02 0.0 
2.009598924339e-03 3.387226665090e-02 0.0 
1.873642671229e-02 1.157993763162e-01 0.0 
1.685901101494e-02 1.232661899143e-01 0.0 
2.067143373272e-02 1.085385714702e-01 0.0 
1.875153968402e-02 -8.103427132602e-03 0.0 
1.491183355337e-02 -1.049211963118e-02 0.0 
7.196078081925e-03 5.290831787279e-02 0.0 
-3.776249612089e-03 5.021847981849e-02 0.0 
-3.325939954507e-03 5.149850058233e-02 0.0 
-1.019243576666e-03 2.652128873298e-02 0.0 
-2.800923724312e-03 2.644473688407e-02 0.0 
-4.905457788827e-03 3.576528258175e-02 0.0 
-5.273840538226e-03 3.430510485183e-02 0.0 
3.764594383597e-02 4.484155465171e-02 0.0 
3.461827113908e-02 4.311011051217e-02 0.0 
4.235538844778e-02 4.579833452060e-02 0.0 
7.787749391989e-03 1.367210338152e-02 0.0 
7.813005650062e-03 1.286101372424e-02 0.0 
1.087167572805e-02 1.150464083931e-02 0.0 
7.596483634167e-03 3.875417920766e-02 0.0 
5.100938297893e-03 2.875995903174e-02 0.0 
1.216119186111e-03 8.720399531758e-03 0.0 
3.663416384930e-03 3.864218283894e-03 0.0 
-2.425645885047e-03 1.700748523773e-02 0.0 
9.484510607031e-03 3.233940020854e-02 0.0 
-1.167637847371e-03 1.154470326927e-02 0.0 
-1.582622154642e-03 1.357120668512e-02 0.0 
6.239323343941e-03 3.860961912942e-02 0.0 
3.820437166354e-03 3.274670052367e-02 0.0 
2.293898553253e-02 2.082344152622e-02 0.0 
1.887873991756e-02 9.662242021377e-03 0.0 
1.490325661867e-02 3.375049863312e-02 0.0 
1.882080197558e-02 4.035802044744e-02 0.0 
1.072831581009e-02 2.568943622685e-02 0.0 
-7.982475498716e-04 5.994546495503e-02 0.0 
3.071087937216e-02 2.378151297256e-02 0.0 
4.044678322552e-03 8.828801615717e-03 0.0 
6.194282507105e-03 9.915261569834e-03 0.0 
2.198985457509e-03 7.246849833962e-03 0.0 
2.170397929187e-02 1.677246514273e-02 0.0 
1.615674959686e-02 1.268844299783e-02 0.0 
1.787589393876e-02 1.431756233309e-02 0.0 
8.225407467574e-03 -2.615862254083e-02 0.0 
1.510738731817e-03 4.057390195151e-02 0.0 
1.296977349875e-02 1.225852951471e-01 0.0 
6.996809240807e-03 -2.896087297562e-02 0.0 
1.116827529155e-02 1.298846504467e-01 0.0 
9.386653984087e-03 1.215817225227e-01 0.0 
9.628939593838e-03 1.369413531974e-01 0.0 
-6.446692078521e-05 6.153038733582e-02 0.0 
2.113898763427e-02 1.254393654369e-01 0.0 
2.337380000166e-02 1.161013150713e-01 0.0 
8.774271142590e-03 3.314734337391e-02 0.0 
6.477013516587e-03 2.410334938380e-02 0.0 
8.288012053340e-03 4.351380646298e-02 0.0 
6.357000461512e-03 4.794174611881e-02 0.0 
-5.406193086284e-04 9.487076823387e-03 0.0 
-1.137664562831e-03 1.202283006503e-02 0.0 
-8.422255685829e-04 8.060202067725e-03 0.0 
-1.351867918247e-03 1.094257132969e-02 0.0 
-1.723768603754e-03 1.475763986679e-02 0.0 
-1.797623987367e-03 1.362695058285e-02 0.0 
1.507741211336e-02 1.315121323041e-01 0.0 
-1.229930327843e-03 8.693893935540e-03 0.0 
-1.663557794656e-03 1.205112185025e-02 0.0 
-1.034171274910e-03 6.965792348460e-03 0.0 
4.534179615872e-02 1.152768846038e-01 0.0 
4.150569830698e-02 5.827397554189e-02 0.0 
3.965868122804e-02 7.044896685517e-02 0.0 
3.394260554920e-02 7.476960690679e-02 0.0 
1.725367162493e-02 1.769552741927e-02 0.0 
2.190383097252e-02 2.462387996386e-02 0.0 
-1.147920873275e-03 2.261049500824e-02 0.0 
-1.353834366887e-03 2.730738429864e-02 0.0 
7.732094349663e-03 1.294400014488e-01 0.0 
5.655888274546e-03 1.301175063074e-01 0.0 
6.204723255337e-03 1.167236564192e-01 0.0 
4.480193384445e-03 1.184024988573e-01 0.0 
4.847065631090e-03 1.050094314285e-01 0.0 
3.121284452632e-03 1.067651421309e-01 0.0 
3.710083228682e-03 9.311619083200e-02 0.0 
1.504724218635e-02 1.234443772491e-02 0.0 
2.747981627167e-02 5.392247860382e-02 0.0 
4.407568396739e-02 1.194256198330e-01 0.0 
1.045657044041e-02 9.050119008208e-03 0.0 
1.189580371506e-02 1.069248012120e-02 0.0 
4.753280908313e-02 9.805363261485e-02 0.0 
4.397192975042e-02 1.051922454786e-01 0.0 
5.591602067163e-04 7.932167114486e-03 0.0 
4.098661736086e-02 2.851040987817e-02 0.0 
4.843919957672e-03 1.518731700244e-02 0.0 
2.132493893441e-03 -1.446105753228e-02 0.0 
9.035571134920e-03 -1.586461533077e-02 0.0 
4.413532022390e-02 3.608648418242e-02 0.0 
4.962119640160e-02 9.109203380731e-02 0.0 
4.423953801839e-02 6.646269820533e-02 0.0 
4.274577184955e-02 7.895223298873e-02 0.0 
7.356662151954e-03 1.366730757047e-02 0.0 
5.388914372134e-03 2.688827557039e-02 0.0 
2.672983148097e-02 3.160888461158e-02 0.0 
5.402093322303e-03 9.154039541524e-02 0.0 
2.045290277845e-02 3.227582709392e-02 0.0 
-6.298808918686e-04 2.504413557473e-02 0.0 
3.883731470233e-02 2.121636234331e-02 0.0 
5.096919239357e-02 6.929958806228e-02 0.0 
3.177918484777e-02 3.040081905722e-02 0.0 
4.275407817848e-02 4.753419340905e-02 0.0 
4.372220630593e-02 8.753336443868e-02 0.0 
4.067195951719e-02 1.071589425497e-01 0.0 
4.302554894726e-02 1.088746833773e-01 0.0 
3.576881518213e-02 1.542913224764e-02 0.0 
4.498029338298e-02 8.611255555463e-02 0.0 
4.010239855202e-02 9.252790921325e-02 0.0 
4.868360047782e-02 7.789277051412e-02 0.0 
2.345682002528e-02 5.437680973093e-02 0.0 
2.289854118249e-02 4.668455139986e-02 0.0 
1.771180690842e-02 3.353884660141e-02 0.0 
2.181994932799e-02 3.937758179672e-02 0.0 
2.697054971991e-02 5.244299150486e-02 0.0 
2.602667828620e-02 4.488375254574e-02 0.0 
2.022359765672e-02 3.255408197929e-02 0.0 
2.453651350831e-02 3.772175507650e-02 0.0 
1.658927016971e-02 2.361252277478e-02 0.0 
2.230712324887e-02 3.074368729555e-02 0.0 
2.875894897349e-02 4.248086047368e-02 0.0 
2.690331595186e-02 3.584656212814e-02 0.0 
2.058421843770e-02 2.585376674913e-02 0.0 
3.292386729115e-02 4.707332423726e-02 0.0 
8.811229463987e-03 7.398269028592e-03 0.0 
4.503547325242e-02 3.498950125774e-02 0.0 
1.132466972047e-02 -1.982977818217e-02 0.0 
1.251465612861e-02 -4.519207431726e-03 0.0 
5.082916029046e-02 7.328864807070e-02 0.0 
8.257614869528e-03 1.163631580148e-02 0.0 
7.151230517984e-03 1.234519337710e-02 0.0 
3.323794887163e-02 1.272465251122e-02 0.0 
8.660743313470e-03 8.228930111880e-03 0.0 
4.491982134891e-02 9.841063786411e-02 0.0 
2.170619055477e-02 -5.211421696671e-03 0.0 
8.389855794078e-03 7.178247064093e-03 0.0 
2.735350504749e-02 6.027466562606e-02 0.0 
3.118249833037e-02 6.575490683346e-02 0.0 
3.085224403507e-02 7.401538686812e-02 0.0 
5.709370016525e-03 1.211571687208e-02 0.0 
2.250569317500e-02 1.009021715942e-01 0.0 
6.237870584922e-03 4.985966458996e-03 0.0 
2.782701148658e-02 1.730959730379e-02 0.0 
3.230412319597e-02 1.967246520208e-02 0.0 
3.422407415081e-02 1.901514739083e-02 0.0 
3.017370592876e-02 5.003311052838e-02 0.0 
4.016255265498e-03 4.107888682622e-03 0.0 
6.807081893335e-03 7.256920889947e-03 0.0 
5.520643583484e-03 7.024963805176e-03 0.0 
8.889767295685e-03 9.867618863666e-03 0.0 
2.612354428404e-03 3.876237038416e-03 0.0 
8.062680894298e-03 9.493940214156e-03 0.0 
7.845143173633e-03 8.531208167998e-03 0.0 
3.404821285553e-03 1.267328302819e-03 0.0 
6.505673458035e-03 -7.853547543171e-04 0.0 
6.876193373571e-03 2.139800858874e-03 0.0 
1.022437946444e-02 -1.495672168489e-03 0.0 
9.685394957618e-03 -4.903116874719e-03 0.0 
1.381758489023e-02 -4.236328782953e-03 0.0 
1.440452551060e-02 -7.940001217239e-04 0.0 
1.746986631005e-02 -5.602507208651e-03 0.0 
2.862857729360e-02 3.385591293657e-02 0.0 
1.341074560150e-03 3.703200005241e-03 0.0 
1.039524806119e-03 1.728998863944e-02 0.0 
2.827570478845e-03 1.543828495997e-02 0.0 
2.446186821432e-03 1.466850809022e-02 0.0 
-5.579706317579e-03 3.613207474970e-02 0.0 
-5.383158388216e-03 3.220812915318e-02 0.0 
-4.946345039699e-03 3.065204535942e-02 0.0 
-5.421075196728e-03 4.015932635418e-02 0.0 
3.800365466773e-02 3.272619196734e-02 0.0 
7.986653789978e-04 3.768541876180e-03 0.0 
1.408382781623e-02 1.222747840292e-02 0.0 
-5.180035068767e-03 2.945435533726e-02 0.0 
2.753673602778e-02 1.358695210898e-01 0.0 
2.930467161624e-02 1.224865989890e-01 0.0 
3.211836207147e-02 1.195121012860e-01 0.0 
3.029338671143e-02 1.070799341999e-01 0.0 
2.613613933350e-02 1.232244270010e-01 0.0 
-4.333026959255e-03 3.658658522563e-02 0.0 
-3.615071219883e-03 3.680583922759e-02 0.0 
-3.129094590843e-03 3.998295979105e-02 0.0 
-2.802819277800e-03 3.647030041079e-02 0.0 
-2.207771828825e-03 3.942809132165e-02 0.0 
-2.454587129284e-03 4.289369460833e-02 0.0 
-1.924250557696e-03 3.564766696279e-02 0.0 
-1.284040043818e-03 3.880135750053e-02 0.0 
2.220427224662e-02 1.392830614957e-01 0.0 
9.664679788175e-03 -1.487818064595e-02 0.0 
6.188535744039e-03 -8.976859950918e-03 0.0 
7.252433166354e-03 1.622768569988e-03 0.0 
4.143709859909e-03 -3.503080438134e-03 0.0 
4.558934408983e-03 -1.225496769237e-02 0.0 
3.129853787254e-03 -6.305761755864e-03 0.0 
4.964825215257e-03 -1.338690692780e-02 0.0 
5.693085154316e-03 -1.919437598568e-02 0.0 
1.282305302825e-02 6.885326678713e-03 0.0 
8.166229830834e-03 1.055140296165e-02 0.0 
1.364238843160e-02 1.522067534155e-02 0.0 
8.957426712172e-03 1.851542408500e-02 0.0 
4.319658695870e-03 1.409549093818e-02 0.0 
4.925019108022e-04 3.240385875888e-02 0.0 
-6.517950260534e-04 5.773631914185e-03 0.0 
-1.024322039458e-03 4.913951478181e-02 0.0 
-1.972864377356e-03 5.014749145090e-02 0.0 
-1.878059799865e-03 5.311927917163e-02 0.0 
-2.913952242204e-03 5.027422036740e-02 0.0 
-1.896615239454e-03 4.719184200168e-02 0.0 
-9.004165007569e-04 5.542455268176e-02 0.0 
-1.649822886838e-03 5.564408433106e-02 0.0 
5.543548508503e-03 6.213053458918e-02 0.0 
3.242282282793e-03 6.339976837447e-02 0.0 
1.598048255333e-03 6.473468300724e-02 0.0 
1.583352471515e-03 6.397248761169e-02 0.0 
2.620809227226e-03 6.231372993777e-02 0.0 
4.748000746193e-03 6.131260647280e-02 0.0 
6.150256888751e-03 5.845066082581e-02 0.0 
9.395265545766e-03 5.652460065588e-02 0.0 
7.321078000283e-03 5.493279819485e-02 0.0 
4.244661123744e-03 5.671021613433e-02 0.0 
1.100708797128e-02 5.279424346781e-02 0.0 
1.201021955936e-03 7.286723696578e-02 0.0 
2.289407968341e-03 6.504509127114e-02 0.0 
-3.963796961770e-06 4.205223407226e-03 0.0 
1.728878918979e-02 1.398939401318e-01 0.0 
1.421651822606e-02 3.002143157378e-02 0.0 
1.877951019686e-03 1.689777580773e-02 0.0 
2.850771336703e-03 1.386199464655e-02 0.0 
2.302223033169e-03 1.349447634999e-02 0.0 
-3.987949485063e-04 1.468389846363e-02 0.0 
-6.435284112478e-04 1.193773601452e-02 0.0 
1.024791087502e-03 1.648394859170e-02 0.0 
-4.244221500056e-03 3.633041942561e-02 0.0 
1.609838447392e-02 2.715290319789e-02 0.0 
5.251274307945e-03 4.418958612650e-02 0.0 
2.339474753290e-02 1.055647243379e-03 0.0 
-2.893169930966e-03 2.101764917133e-02 0.0 
-2.085088022224e-03 2.875035646590e-02 0.0 
-3.777853850275e-03 2.663944128725e-02 0.0 
-2.036640612015e-03 1.821920718609e-02 0.0 
-3.402670120884e-03 3.030624850459e-02 0.0 
-2.628459046417e-03 2.047035872297e-02 0.0 
4.328942507195e-03 7.116927679977e-03 0.0 
4.679945509833e-04 6.028205531417e-02 0.0 
1.415697753257e-02 1.006249469544e-01 0.0 
9.129130512626e-03 1.066651143217e-01 0.0 
8.646856247971e-03 6.873307222017e-02 0.0 
-3.952348765832e-03 4.805029636951e-02 0.0 
-3.418209256538e-03 4.304840724998e-02 0.0 
-7.703006165460e-05 4.730021828498e-02 0.0 
1.544604909456e-02 1.388793376566e-02 0.0 
4.957818917428e-02 8.642847252468e-02 0.0 
1.138456937984e-04 1.660409860651e-02 0.0 
-5.640410114678e-03 3.772923661441e-02 0.0 
-4.627529551367e-03 3.122896880711e-02 0.0 
-1.740448604311e-03 1.538929584634e-02 0.0 
4.713105299962e-02 4.100610297893e-02 0.0 
-4.335329820384e-03 2.570727436943e-02 0.0 
-1.002442472020e-03 1.826838067978e-02 0.0 
6.636158552730e-03 6.018938157584e-02 0.0 
1.277027691618e-02 4.304845039888e-02 0.0 
1.847687003327e-04 1.599400091369e-02 0.0 
-3.274740994911e-03 2.407687140133e-02 0.0 
1.969523527522e-02 9.357957375771e-02 0.0 
1.849791507759e-02 1.468893120022e-02 0.0 
1.655481280757e-03 1.269583251667e-03 0.0 
1.245151132218e-02 6.250364645016e-02 0.0 
1.218675313357e-02 3.380350586755e-02 0.0 
2.525799266797e-02 1.077406083187e-01 0.0 
2.960057360674e-03 4.804564258622e-02 0.0 
1.476539987151e-02 1.158266977970e-01 0.0 
1.752888437903e-03 9.461161337978e-03 0.0 
2.347976448578e-02 6.219616352179e-02 0.0 
-2.908197875734e-03 5.216198902150e-02 0.0 
1.848186435398e-02 9.774340090821e-03 0.0 
5.050069989007e-02 5.969787139193e-02 0.0 
3.929400312408e-02 1.309613069480e-01 0.0 
5.435185042245e-03 3.743654202778e-02 0.0 
4.039516353763e-02 2.718399174070e-02 0.0 
1.153950254925e-02 1.206791351472e-02 0.0 
1.699518272639e-02 1.328283286450e-02 0.0 
-2.779711184347e-03 5.383363231955e-02 0.0 
-1.400580296700e-03 1.550821511329e-02 0.0 
3.109772420586e-02 1.482930601498e-02 0.0 
1.009130914156e-02 4.686878624951e-02 0.0 
3.779547115467e-02 3.924765073718e-02 0.0 
2.338291757694e-02 4.439155946525e-03 0.0 
1.620111064341e-02 5.554210129876e-02 0.0 
4.815616798659e-03 1.208945682675e-02 0.0 
1.894865532059e-02 1.480544355825e-02 0.0 
5.044225751189e-02 8.370829333521e-02 0.0 
4.607296042285e-02 5.194083481668e-02 0.0 
4.076230563622e-02 5.974940250376e-02 0.0 
4.516389308251e-02 4.011055561750e-02 0.0 
-1.535978916535e-03 3.176688511263e-02 0.0 
-7.783558990280e-04 1.592923762372e-02 0.0 
1.092693448111e-02 -1.612362831472e-02 0.0 
4.531827863098e-02 4.525666076239e-02 0.0 
2.409809027987e-02 9.283442215042e-02 0.0 
2.579578056905e-02 2.242757045122e-02 0.0 
7.163480486177e-03 3.098137901636e-02 0.0 
5.046165600469e-02 6.441853733424e-02 0.0 
-2.098088394317e-03 1.819249278708e-02 0.0 
1.278127628294e-02 4.068355477212e-02 0.0 
-4.814421983644e-03 2.848814291138e-02 0.0 
-9.933316582333e-05 6.242598626707e-02 0.0 
1.988028244932e-02 -4.660019762817e-04 0.0 
2.221340186210e-02 -1.750152237886e-03 0.0 
3.829421026773e-02 2.279074073540e-02 0.0 
-4.280084396177e-03 2.722624169739e-02 0.0 
1.290371552111e-02 2.523524567064e-02 0.0 
-2.238690728396e-03 1.755809798220e-02 0.0 
4.961203946991e-03 1.389757825033e-02 0.0 
8.907196840280e-03 2.090403378050e-02 0.0 
4.263648256707e-02 1.196198039489e-01 0.0 
-2.164184627314e-03 1.653142095982e-02 0.0 
1.441181161920e-02 1.046431084396e-02 0.0 
1.529907233426e-02 1.299868621354e-02 0.0 
-1.490988441816e-03 4.220250192083e-02 0.0 
1.513290050401e-02 1.295938936771e-02 0.0 
4.514162745901e-02 1.104006911932e-01 0.0 
-1.924476691983e-03 1.514429466978e-02 0.0 
9.147587698651e-03 1.306667057212e-02 0.0 
3.734809851608e-02 2.065800131525e-02 0.0 
4.831287909511e-03 1.426162313799e-01 0.0 
-1.305064422922e-03 9.583909380869e-03 0.0 
7.720054341711e-03 1.182899648828e-02 0.0 
4.197954047057e-02 3.663214579552e-02 0.0 
1.092567574822e-02 9.690625413949e-03 0.0 
4.178084184381e-02 1.305310778256e-01 0.0 
-4.384036233657e-03 2.882239136767e-02 0.0 
4.439918853796e-02 5.298131681349e-02 0.0 
5.018876917291e-03 1.206792931134e-02 0.0 
8.659960891972e-03 1.102603626446e-02 0.0 
3.441714675866e-02 7.916329406790e-02 0.0 
-4.800905056557e-03 3.222827386674e-02 0.0 
3.068956689394e-02 2.153578060367e-02 0.0 
3.552568966335e-03 5.989122195511e-02 0.0 
4.501538159208e-02 1.179551014388e-01 0.0 
-4.425482073700e-03 3.320244000516e-02 0.0 
1.834153595249e-02 -2.072140441472e-03 0.0 
7.750535372550e-03 1.144041949254e-02 0.0 
1.253187650457e-02 9.986105849769e-03 0.0 
-3.877576704515e-03 3.358196417520e-02 0.0 
1.887181021038e-02 1.284577987029e-03 0.0 
-3.207817875793e-03 3.341964048467e-02 0.0 
4.180586619186e-02 1.247730893999e-01 0.0 
3.482632482606e-02 7.038114474815e-02 0.0 
-2.431796997527e-03 3.279130077244e-02 0.0 
4.025759550065e-02 4.578788639359e-02 0.0 
4.684132897063e-03 5.262080222763e-02 0.0 
3.863403304145e-02 3.127059311522e-02 0.0 
-8.976864502337e-04 1.738495444537e-02 0.0 
-3.727271687717e-03 2.181922778449e-02 0.0 
5.054288472909e-03 1.341302215429e-02 0.0 
3.094872960010e-02 5.770505113372e-02 0.0 
3.921395984309e-02 1.153505879246e-01 0.0 
5.318533134330e-03 1.430570750354e-02 0.0 
3.527443398634e-02 3.834756379871e-02 0.0 
3.498472516765e-02 2.675473964575e-02 0.0 
3.653320817668e-02 2.291557319162e-02 0.0 
5.327918922747e-03 1.449660972652e-02 0.0 
4.257808284902e-02 9.890146780028e-02 0.0 
-3.560827187549e-03 3.182414892650e-02 0.0 
-1.933178948541e-03 3.205013969531e-02 0.0 
1.476647079687e-02 2.447388321142e-03 0.0 
3.218163157890e-02 3.652205629047e-02 0.0 
1.090558778718e-03 6.245883738047e-02 0.0 
3.406042246450e-02 5.426735899585e-02 0.0 
1.608823665835e-03 2.671977451253e-02 0.0 
1.062815794111e-02 1.664996200274e-03 0.0 
2.648668409088e-02 2.008714608902e-02 0.0 
1.418049648713e-03 1.029921371186e-01 0.0 
7.193406879589e-03 4.927935356729e-03 0.0 
-4.480769271199e-04 6.049221181865e-02 0.0 
3.931164645186e-03 6.276370466427e-03 0.0 
3.387778090248e-02 2.256483425134e-02 0.0 
1.480261000633e-03 1.051516919652e-02 0.0 
-7.648700188874e-04 1.333357847340e-02 0.0 
3.661205237904e-03 2.870683874173e-02 0.0 
-2.379608932435e-03 1.782036602802e-02 0.0 
5.097031441679e-04 1.366574178721e-02 0.0 
-3.005737461823e-04 5.390310391697e-03 0.0 
1.829747961970e-03 1.319347970871e-01 0.0 
3.398222284686e-02 1.037228156860e-01 0.0 
5.353622430807e-03 -3.070343890562e-02 0.0 
3.814080216026e-02 8.196760433489e-02 0.0 
-3.464898660557e-03 2.134272315722e-02 0.0 
3.644893534585e-02 5.010251747394e-02 0.0 
3.803050190406e-03 1.312530978848e-01 0.0 
-3.857521425720e-03 2.636224279163e-02 0.0 
1.529412952516e-02 1.954103323796e-02 0.0 
7.151632089872e-03 5.735276184211e-03 0.0 
2.574029918371e-03 7.974285569045e-02 0.0 
1.213769661029e-02 1.157258219661e-02 0.0 
3.097462892739e-02 2.290204400357e-02 0.0 
7.489289624445e-04 4.220016809291e-02 0.0 
1.114183490284e-02 1.433604009721e-01 0.0 
9.537321514335e-03 2.595529480529e-02 0.0 
-7.365606056622e-04 2.978406297462e-02 0.0 
2.810668266903e-02 8.654177178376e-02 0.0 
3.058058061929e-02 6.408228081033e-02 0.0 
2.379168625967e-02 4.324671275486e-02 0.0 
-2.312242621765e-03 5.497995207189e-02 0.0 
4.545641133028e-03 5.639159345397e-03 0.0 
2.323738115651e-02 6.643497041737e-02 0.0 
8.179026562541e-03 7.782969072213e-03 0.0 
1.879736973072e-02 1.291816474575e-01 0.0 
2.598794507571e-02 2.031520705892e-02 0.0 
1.631777627044e-02 4.472335389785e-02 0.0 
8.858835732127e-03 2.637804911037e-02 0.0 
1.327933669245e-02 1.049945937820e-02 0.0 
-4.653028321808e-04 4.002008860596e-03 0.0 
2.010574491128e-02 1.581026853402e-02 0.0 
1.662442835810e-02 2.063475540793e-02 0.0 
2.774516524137e-02 1.121281532671e-01 0.0 
1.559678275432e-02 1.483968957901e-02 0.0 
3.496095616136e-03 6.725521913323e-02 0.0 
-6.280703806381e-04 4.081171040298e-03 0.0 
2.360480278153e-02 1.285058034169e-01 0.0 
2.230527869983e-03 2.688127958405e-02 0.0 
7.795815260096e-03 -1.664003308359e-02 0.0 
1.134214442878e-03 2.614267356197e-02 0.0 
3.100003052694e-02 4.007703674294e-02 0.0 
7.824385653556e-03 1.135500057342e-01 0.0 
3.312199415715e-02 1.078345072733e-01 0.0 
-7.577272078358e-04 9.263138394338e-03 0.0 
1.412954396889e-02 2.170538691319e-02 0.0 
1.278724768273e-02 6.994430645475e-03 0.0 
4.033337895137e-03 8.127851760692e-02 0.0 
-3.755056230776e-03 4.844679526983e-02 0.0 
6.626302315777e-03 -2.649628164004e-02 0.0 
-7.692198832920e-05 7.553051550211e-03 0.0 
2.475821964739e-02 3.019732285090e-02 0.0 
-1.103867129056e-03 9.158283685931e-03 0.0 
7.500250787714e-04 6.471382807606e-02 0.0 
1.010673899460e-02 3.918124532696e-02 0.0 
1.135828889691e-03 6.576389188861e-03 0.0 
1.476505338754e-02 1.611719545193e-02 0.0 
4.843199260071e-03 -9.385937940023e-03 0.0 
3.010192650947e-03 1.068446617969e-02 0.0 
7.223243230072e-03 -5.301033704879e-03 0.0 
1.513455584457e-02 1.442748526100e-01 0.0 
8.512384445326e-03 5.116633151765e-02 0.0 
-6.326114553765e-04 4.293239285278e-03 0.0 
5.322755850571e-03 2.533422246946e-02 0.0 
-2.670238851950e-03 4.786719746530e-02 0.0 
3.313147870936e-02 1.289393634472e-01 0.0 
-1.270810716701e-03 5.806791046062e-02 0.0 
2.006231446066e-02 1.706093494009e-02 0.0 
5.843870597893e-03 2.127226339112e-02 0.0 
3.646927478265e-03 2.413741704231e-02 0.0 
2.834128032278e-03 6.204270651317e-03 0.0 
1.034860114621e-02 2.187393803223e-02 0.0 
3.942303596375e-03 3.407119342292e-03 0.0 
7.481806207206e-03 -2.427496437170e-02 0.0 
1.216629127943e-02 9.725716275383e-03 0.0 
6.721959530864e-03 9.060198345335e-03 0.0 
8.383815639263e-03 1.441554829196e-01 0.0 
1.265484105708e-02 2.231523572812e-02 0.0 
-2.535126771293e-03 5.302111456117e-02 0.0 
2.281609892416e-03 5.517943065820e-02 0.0 
2.169198491018e-04 1.211766945114e-02 0.0 
1.746004869686e-03 6.429804299017e-02 0.0 
1.418291016975e-03 1.442672144292e-01 0.0 
-1.163629709318e-04 4.425835855969e-03 0.0 
1.836689315995e-03 6.085157123458e-02 0.0 
3.029572159981e-03 1.213165195965e-01 0.0 
1.400708618353e-02 1.643337807893e-02 0.0 
-6.472679653673e-04 4.190807438794e-02 0.0 
1.729396889438e-03 5.259514833542e-02 0.0 
2.836319393060e-03 1.069170600078e-03 0.0 
7.453318921861e-03 -3.189668397775e-02 0.0 
2.449159712036e-03 9.542205334991e-02 0.0 
1.112817549600e-02 8.838725363933e-03 0.0 
8.208387555307e-03 2.174950835663e-02 0.0 
6.295871100015e-03 1.054973900201e-01 0.0 
1.641098428727e-02 3.170298502408e-04 0.0 
1.936850042054e-02 2.268900535943e-02 0.0 
-2.738054171536e-03 4.524852873795e-02 0.0 
2.072998220954e-02 1.957366306351e-02 0.0 
9.746943628087e-03 9.621149560573e-03 0.0 
1.359726085635e-03 -2.910285417693e-03 0.0 
-5.410458290396e-04 3.808228393825e-02 0.0 
9.549042868811e-03 4.710989205678e-02 0.0 
-9.445868895872e-04 7.440272717837e-03 0.0 
-1.803938921983e-03 4.457828012182e-02 0.0 
3.306112817427e-02 1.463639943333e-01 0.0 
9.654317307337e-04 1.612844907343e-01 0.0 

VECTORS node_bounda_dof_materi_velocity_x float
1.000000000000e+00 0.0 0.0 
1.000000000000e+00 0.0 0.0 
1.000000000000e+00 0.0 0.0 
1.000000000000e+00 0.0 0.0 
1.000000000000e+00 0.0 0.0 
1.000000000000e+00 0.0 0.0 
1.000000000000e+00 0.0 0.0 
1.000000000000e+00 0.0 0.0 
1.000000000000e+00 0.0 0.0 
1.000000000000e+00 0.0 0.0 
1.000000000000e+00 0.0 0.0 
1.000000000000e+00 0.0 0.0 
1.000000000000e+00 0.0 0.0 
1.000000000000e+00 0.0 0.0 
1.000000000000e+00 0.0 0.0 
1.000000000000e+00 0.0 0.0 
1.000000000000e+00 0.0 0.0 
1.000000000000e+00 0.0 0.0 
1.000000000000e+00 0.0 0.0 
1.000000000000e+00 0.0 0.0 
1.000000000000e+00 0.0 0.0 
1.000000000000e+00 0.0 0.0 
1.000000000000e+00 0.0 0.0 
1.000000000000e+00 0.0 0.0 
1.000000000000e+00 0.0 0.0 
1.000000000000e+00 0.0 0.0 
1.000000000000e+00 0.0 0.0 
1.000000000000e+00 0.0 0.0 
1.000000000000e+00 0.0 0.0 
1.000000000000e+00 0.0 0.0 
1.000000000000e+00 0.0 0.0 
1.000000000000e+00 0.0 0.0 
1.000000000000e+00 0.0 0.0 
1.000000000000e+00 0.0 0.0 
1.000000000000e+00 0.0 0.0 
1.000000000000e+00 0.0 0.0 
1.000000000000e+00 0.0 0.0 
1.000000000000e+00 0.0 0.0 
1.000000000000e+00 0.0 0.0 
1.000000000000e+00 0.0 0.0 
1.000000000000e+00 0.0 0.0 
1.000000000000e+00 0.0 0.0 
1.000000000000e+00 0.0 0.0 
1.000000000000e+00 0.0 0.0 
1.000000000000e+00 0.0 0.0 
1.000000000000e+00 0.0 0.0 
1.000000000000e+00 0.0 0.0 
1.000000000000e+00 0.0 0.0 
1.000000000000e+00 0.0 0.0 
1.000000000000e+00 0.0 0.0 
1.000000000000e+00 0.0 0.0 
1.000000000000e+00 0.0 0.0 
1.000000000000e+00 0.0 0.0 
1.000000000000e+00 0.0 0.0 
1.000000000000e+00 0.0 0.0 
1.000000000000e+00 0.0 0.0 
1.000000000000e+00 0.0 0.0 
1.000000000000e+00 0.0 0.0 
1.000000000000e+00 0.0 0.0 
1.000000000000e+00 0.0 0.0 
1.000000000000e+00 0.0 0.0 
1.000000000000e+00 0.0 0.0 
1.000000000000e+00 0.0 0.0 
1.000000000000e+00 0.0 0.0 
1.000000000000e+00 0.0 0.0 
1.000000000000e+00 0.0 0.0 
1.000000000000e+00 0.0 0.0 
1.000000000000e+00 0.0 0.0 
1.000000000000e+00 0.0 0.0 
1.000000000000e+00 0.0 0.0 
1.000000000000e+00 0.0 0.0 
1.000000000000e+00 0.0 0.0 
1.000000000000e+00 0.0 0.0 
1.000000000000e+00 0.0 0.0 
1.000000000000e+00 0.0 0.0 
1.000000000000e+00 0.0 0.0 
1.000000000000e+00 0.0 0.0 
1.000000000000e+00 0.0 0.0 
1.000000000000e+00 0.0 0.0 
1.000000000000e+00 0.0 0.0 
1.000000000000e+00 0.0 0.0 
0.0 0.0 0.0 
0.0 0.0 0.0 
0.0 0.0 0.0 
0.0 0.0 0.0 
0.0 0.0 0.0 
0.0 0.0 0.0 
0.0 0.0 0.0 
0.0 0.0 0.0 
0.0 0.0 0.0 
0.0 0.0 0.0 
0.0 0.0 0.0 
1.000000000000e+00 0.0 0.0 
0.0 0.0 0.0 
0.0 0.0 0.0 
0.0 0.0 0.0 
0.0 0.0 0.0 
0.0 0.0 0.0 
0.0 0.0 0.0 
0.0 0.0 0.0 
0.0 0.0 0.0 
0.0 0.0 0.0 
0.0 0.0 0.0 
0.0 0.0 0.0 
0.0 0.0 0.0 
0.0 0.0 0.0 
0.0 0.0 0.0 
0.0 0.0 0.0 
0.0 0.0 0.0 
0.0 0.0 0.0 
0.0 0.0 0.0 
0.0 0.0 0.0 
0.0 0.0 0.0 
0.0 0.0 0.0 
0.0 0.0 0.0 
0.0 0.0 0.0 
0.0 0.0 0.0 
0.0 0.0 0.0 
0.0 0.0 0.0 
0.0 0.0 0.0 
0.0 0.0 0.0 
0.0 0.0 0.0 
0.0 0.0 0.0 
0.0 0.0 0.0 
0.0 0.0 0.0 
0.0 0.0 0.0 
0.0 0.0 0.0 
0.0 0.0 0.0 
0.0 0.0 0.0 
0.0 0.0 0.0 
0.0 0.0 0.0 
0.0 0.0 0.0 
0.0 0.0 0.0 
0.0 0.0 0.0 
0.0 0.0 0.0 
0.0 0.0 0.0 
0.0 0.0 0.0 
0.0 0.0 0.0 
0.0 0.0 0.0 
0.0 0.0 0.0 
0.0 0.0 0.0 
0.0 0.0 0.0 
0.0 0.0 0.0 
0.0 0.0 0.0 
0.0 0.0 0.0 
0.0 0.0 0.0 
0.0 0.0 0.0 
0.0 0.0 0.0 
0.0 0.0 0.0 
0.0 0.0 0.0 
0.0 0.0 0.0 
0.0 0.0 0.0 
0.0 0.0 0.0 
0.0 0.0 0.0 
0.0 0.0 0.0 
0.0 0.0 0.0 
0.0 0.0 0.0 
0.0 0.0 0.0 
0.0 0.0 0.0 
0.0 0.0 0.0 
0.0 0.0 0.0 
0.0 0.0 0.0 
0.0 0.0 0.0 
0.0 0.0 0.0 
0.0 0.0 0.0 
0.0 0.0 0.0 
0.0 0.0 0.0 
0.0 0.0 0.0 
0.0 0.0 0.0 
0.0 0.0 0.0 
0.0 0.0 0.0 
0.0 0.0 0.0 
0.0 0.0 0.0 
0.0 0.0 0.0 
0.0 0.0 0.0 
0.0 0.0 0.0 
0.0 0.0 0.0 
0.0 0.0 0.0 
0.0 0.0 0.0 
0.0 0.0 0.0 
0.0 0.0 0.0 
0.0 0.0 0.0 
0.0 0.0 0.0 
0.0 0.0 0.0 
0.0 0.0 0.0 
0.0 0.0 0.0 
0.0 0.0 0.0 
0.0 0.0 0.0 
0.0 0.0 0.0 
0.0 0.0 0.0 
0.0 0.0 0.0 
0.0 0.0 0.0 
0.0 0.0 0.0 
0.0 0.0 0.0 
0.0 0.0 0.0 
0.0 0.0 0.0 
0.0 0.0 0.0 
0.0 0.0 0.0 
0.0 0.0 0.0 
0.0 0.0 0.0 
0.0 0.0 0.0 
0.0 0.0 0.0 
0.0 0.0 0.0 
0.0 0.0 0.0 
0.0 0.0 0.0 
0.0 0.0 0.0 
0.0 0.0 0.0 
0.0 0.0 0.0 
0.0 0.0 0.0 
0.0 0.0 0.0 
0.0 0.0 0.0 
0.0 0.0 0.0 
0.0 0.0 0.0 
0.0 0.0 0.0 
0.0 0.0 0.0 
0.0 0.0 0.0 
0.0 0.0 0.0 
0.0 0.0 0.0 
0.0 0.0 0.0 
0.0 0.0 0.0 
0.0 0.0 0.0 
0.0 0.0 0.0 
0.0 0.0 0.0 
0.0 0.0 0.0 
0.0 0.0 0.0 
0.0 0.0 0.0 
0.0 0.0 0.0 
0.0 0.0 0.0 
0.0 0.0 0.0 
0.0 0.0 0.0 
0.0 0.0 0.0 
0.0 0.0 0.0 
0.0 0.0 0.0 
0.0 0.0 0.0 
0.0 0.0 0.0 
0.0 0.0 0.0 
0.0 0.0 0.0 
0.0 0.0 0.0 
0.0 0.0 0.0 
0.0 0.0 0.0 
0.0 0.0 0.0 
0.0 0.0 0.0 
0.0 0.0 0.0 
0.0 0.0 0.0 
0.0 0.0 0.0 
0.0 0.0 0.0 
0.0 0.0 0.0 
0.0 0.0 0.0 
0.0 0.0 0.0 
0.0 0.0 0.0 
0.0 0.0 0.0 
0.0 0.0 0.0 
0.0 0.0 0.0 
0.0 0.0 0.0 
0.0 0.0 0.0 
0.0 0.0 0.0 
0.0 0.0 0.0 
0.0 0.0 0.0 
0.0 0.0 0.0 
0.0 0.0 0.0 
0.0 0.0 0.0 
0.0 0.0 0.0 
0.0 0.0 0.0 
0.0 0.0 0.0 
0.0 0.0 0.0 
0.0 0.0 0.0 
0.0 0.0 0.0 
0.0 0.0 0.0 
0.0 0.0 0.0 
0.0 0.0 0.0 
0.0 0.0 0.0 
0.0 0.0 0.0 
0.0 0.0 0.0 
0.0 0.0 0.0 
0.0 0.0 0.0 
0.0 0.0 0.0 
0.0 0.0 0.0 
0.0 0.0 0.0 
0.0 0.0 0.0 
0.0 0.0 0.0 
0.0 0.0 0.0 
0.0 0.0 0.0 
0.0 0.0 0.0 
0.0 0.0 0.0 
0.0 0.0 0.0 
0.0 0.0 0.0 
0.0 0.0 0.0 
0.0 0.0 0.0 
0.0 0.0 0.0 
0.0 0.0 0.0 
0.0 0.0 0.0 
0.0 0.0 0.0 
0.0 0.0 0.0 
0.0 0.0 0.0 
0.0 0.0 0.0 
0.0 0.0 0.0 
0.0 0.0 0.0 
0.0 0.0 0.0 
0.0 0.0 0.0 
0.0 0.0 0.0 
0.0 0.0 0.0 
0.0 0.0 0.0 
0.0 0.0 0.0 
0.0 0.0 0.0 
0.0 0.0 0.0 
0.0 0.0 0.0 
0.0 0.0 0.0 
0.0 0.0 0.0 
0.0 0.0 0.0 
0.0 0.0 0.0 
0.0 0.0 0.0 
0.0 0.0 0.0 
0.0 0.0 0.0 
0.0 0.0 0.0 
0.0 0.0 0.0 
0.0 0.0 0.0 
0.0 0.0 0.0 
0.0 0.0 0.0 
0.0 0.0 0.0 
0.0 0.0 0.0 
0.0 0.0 0.0 
0.0 0.0 0.0 
0.0 0.0 0.0 
0.0 0.0 0.0 
0.0 0.0 0.0 
0.0 0.0 0.0 
0.0 0.0 0.0 
0.0 0.0 0.0 
0.0 0.0 0.0 
0.0 0.0 0.0 
0.0 0.0 0.0 
0.0 0.0 0.0 
0.0 0.0 0.0 
0.0 0.0 0.0 
0.0 0.0 0.0 
0.0 0.0 0.0 
0.0 0.0 0.0 
0.0 0.0 0.0 
0.0 0.0 0.0 
0.0 0.0 0.0 
0.0 0.0 0.0 
0.0 0.0 0.0 
0.0 0.0 0.0 
0.0 0.0 0.0 
0.0 0.0 0.0 
0.0 0.0 0.0 
0.0 0.0 0.0 
0.0 0.0 0.0 
0.0 0.0 0.0 
0.0 0.0 0.0 
0.0 0.0 0.0 
0.0 0.0 0.0 
0.0 0.0 0.0 
0.0 0.0 0.0 
0.0 0.0 0.0 
0.0 0.0 0.0 
0.0 0.0 0.0 
0.0 0.0 0.0 
0.0 0.0 0.0 
0.0 0.0 0.0 
0.0 0.0 0.0 
0.0 0.0 0.0 
0.0 0.0 0.0 
0.0 0.0 0.0 
0.0 0.0 0.0 
0.0 0.0 0.0 
0.0 0.0 0.0 
0.0 0.0 0.0 
0.0 0.0 0.0 
0.0 0.0 0.0 
0.0 0.0 0.0 
0.0 0.0 0.0 
0.0 0.0 0.0 
0.0 0.0 0.0 
0.0 0.0 0.0 
0.0 0.0 0.0 
0.0 0.0 0.0 
0.0 0.0 0.0 
0.0 0.0 0.0 
0.0 0.0 0.0 
0.0 0.0 0.0 
0.0 0.0 0.0 
0.0 0.0 0.0 
0.0 0.0 0.0 
0.0 0.0 0.0 
0.0 0.0 0.0 
0.0 0.0 0.0 
0.0 0.0 0.0 
0.0 0.0 0.0 
0.0 0.0 0.0 
0.0 0.0 0.0 
0.0 0.0 0.0 
0.0 0.0 0.0 
0.0 0.0 0.0 
0.0 0.0 0.0 
0.0 0.0 0.0 
0.0 0.0 0.0 
0.0 0.0 0.0 
0.0 0.0 0.0 
0.0 0.0 0.0 
0.0 0.0 0.0 
0.0 0.0 0.0 
0.0 0.0 0.0 
0.0 0.0 0.0 
0.0 0.0 0.0 
0.0 0.0 0.0 
0.0 0.0 0.0 
0.0 0.0 0.0 
0.0 0.0 0.0 
0.0 0.0 0.0 
0.0 0.0 0.0 
0.0 0.0 0.0 
0.0 0.0 0.0 
0.0 0.0 0.0 
0.0 0.0 0.0 
0.0 0.0 0.0 
0.0 0.0 0.0 
0.0 0.0 0.0 
0.0 0.0 0.0 
0.0 0.0 0.0 
0.0 0.0 0.0 
0.0 0.0 0.0 
0.0 0.0 0.0 
0.0 0.0 0.0 
0.0 0.0 0.0 
0.0 0.0 0.0 
0.0 0.0 0.0 
0.0 0.0 0.0 
0.0 0.0 0.0 
0.0 0.0 0.0 
0.0 0.0 0.0 
0.0 0.0 0.0 
0.0 0.0 0.0 
0.0 0.0 0.0 
0.0 0.0 0.0 
0.0 0.0 0.0 
0.0 0.0 0.0 
0.0 0.0 0.0 
0.0 0.0 0.0 
0.0 0.0 0.0 
0.0 0.0 0.0 
0.0 0.0 0.0 
0.0 0.0 0.0 
0.0 0.0 0.0 
0.0 0.0 0.0 
0.0 0.0 0.0 
0.0 0.0 0.0 
0.0 0.0 0.0 
0.0 0.0 0.0 
0.0 0.0 0.0 
0.0 0.0 0.0 
0.0 0.0 0.0 
0.0 0.0 0.0 
0.0 0.0 0.0 
0.0 0.0 0.0 
0.0 0.0 0.0 
0.0 0.0 0.0 
0.0 0.0 0.0 
0.0 0.0 0.0 
0.0 0.0 0.0 
0.0 0.0 0.0 
0.0 0.0 0.0 
0.0 0.0 0.0 
0.0 0.0 0.0 
0.0 0.0 0.0 
0.0 0.0 0.0 
0.0 0.0 0.0 
0.0 0.0 0.0 
0.0 0.0 0.0 
0.0 0.0 0.0 
0.0 0.0 0.0 
0.0 0.0 0.0 
0.0 0.0 0.0 
0.0 0.0 0.0 
0.0 0.0 0.0 
0.0 0.0 0.0 
0.0 0.0 0.0 
0.0 0.0 0.0 
0.0 0.0 0.0 
0.0 0.0 0.0 
0.0 0.0 0.0 
0.0 0.0 0.0 
0.0 0.0 0.0 
0.0 0.0 0.0 
0.0 0.0 0.0 
0.0 0.0 0.0 
0.0 0.0 0.0 
0.0 0.0 0.0 
0.0 0.0 0.0 
0.0 0.0 0.0 
0.0 0.0 0.0 
0.0 0.0 0.0 
0.0 0.0 0.0 
0.0 0.0 0.0 
0.0 0.0 0.0 
0.0 0.0 0.0 
0.0 0.0 0.0 
0.0 0.0 0.0 
0.0 0.0 0.0 
0.0 0.0 0.0 
0.0 0.0 0.0 
0.0 0.0 0.0 
0.0 0.0 0.0 
0.0 0.0 0.0 
0.0 0.0 0.0 
0.0 0.0 0.0 
0.0 0.0 0.0 
0.0 0.0 0.0 
0.0 0.0 0.0 
0.0 0.0 0.0 
0.0 0.0 0.0 
0.0 0.0 0.0 
0.0 0.0 0.0 
0.0 0.0 0.0 
0.0 0.0 0.0 
0.0 0.0 0.0 
0.0 0.0 0.0 
0.0 0.0 0.0 
0.0 0.0 0.0 
0.0 0.0 0.0 
0.0 0.0 0.0 
0.0 0.0 0.0 
0.0 0.0 0.0 
0.0 0.0 0.0 
0.0 0.0 0.0 
0.0 0.0 0.0 
0.0 0.0 0.0 
0.0 0.0 0.0 
0.0 0.0 0.0 
0.0 0.0 0.0 
0.0 0.0 0.0 
0.0 0.0 0.0 
0.0 0.0 0.0 
0.0 0.0 0.0 
0.0 0.0 0.0 
0.0 0.0 0.0 
0.0 0.0 0.0 
0.0 0.0 0.0 
0.0 0.0 0.0 
0.0 0.0 0.0 
0.0 0.0 0.0 
0.0 0.0 0.0 
0.0 0.0 0.0 
0.0 0.0 0.0 
0.0 0.0 0.0 
0.0 0.0 0.0 
0.0 0.0 0.0 
0.0 0.0 0.0 
0.0 0.0 0.0 
0.0 0.0 0.0 
0.0 0.0 0.0 
0.0 0.0 0.0 
0.0 0.0 0.0 
0.0 0.0 0.0 
0.0 0.0 0.0 
0.0 0.0 0.0 
0.0 0.0 0.0 
0.0 0.0 0.0 
0.0 0.0 0.0 
0.0 0.0 0.0 
0.0 0.0 0.0 
0.0 0.0 0.0 
0.0 0.0 0.0 
0.0 0.0 0.0 
0.0 0.0 0.0 
0.0 0.0 0.0 
0.0 0.0 0.0 
0.0 0.0 0.0 
0.0 0.0 0.0 
0.0 0.0 0.0 
0.0 0.0 0.0 
0.0 0.0 0.0 
0.0 0.0 0.0 
0.0 0.0 0.0 
0.0 0.0 0.0 
0.0 0.0 0.0 
0.0 0.0 0.0 
0.0 0.0 0.0 
0.0 0.0 0.0 
0.0 0.0 0.0 
0.0 0.0 0.0 
0.0 0.0 0.0 
0.0 0.0 0.0 
0.0 0.0 0.0 
0.0 0.0 0.0 
0.0 0.0 0.0 
0.0 0.0 0.0 
0.0 0.0 0.0 
0.0 0.0 0.0 
0.0 0.0 0.0 
0.0 0.0 0.0 
0.0 0.0 0.0 
0.0 0.0 0.0 
0.0 0.0 0.0 
0.0 0.0 0.0 
0.0 0.0 0.0 
0.0 0.0 0.0 
0.0 0.0 0.0 
0.0 0.0 0.0 
0.0 0.0 0.0 
0.0 0.0 0.0 
0.0 0.0 0.0 
0.0 0.0 0.0 
0.0 0.0 0.0 
0.0 0.0 0.0 
0.0 0.0 0.0 
0.0 0.0 0.0 
0.0 0.0 0.0 
0.0 0.0 0.0 
0.0 0.0 0.0 
0.0 0.0 0.0 
0.0 0.0 0.0 
0.0 0.0 0.0 
0.0 0.0 0.0 
0.0 0.0 0.0 
0.0 0.0 0.0 
0.0 0.0 0.0 
0.0 0.0 0.0 
0.0 0.0 0.0 
0.0 0.0 0.0 
0.0 0.0 0.0 
0.0 0.0 0.0 
0.0 0.0 0.0 
0.0 0.0 0.0 
0.0 0.0 0.0 
0.0 0.0 0.0 
0.0 0.0 0.0 
0.0 0.0 0.0 
0.0 0.0 0.0 
0.0 0.0 0.0 
0.0 0.0 0.0 
0.0 0.0 0.0 
0.0 0.0 0.0 
0.0 0.0 0.0 
0.0 0.0 0.0 
0.0 0.0 0.0 
0.0 0.0 0.0 
0.0 0.0 0.0 
0.0 0.0 0.0 
0.0 0.0 0.0 
0.0 0.0 0.0 
0.0 0.0 0.0 
0.0 0.0 0.0 
0.0 0.0 0.0 
0.0 0.0 0.0 
0.0 0.0 0.0 
0.0 0.0 0.0 
0.0 0.0 0.0 
0.0 0.0 0.0 
0.0 0.0 0.0 
0.0 0.0 0.0 
0.0 0.0 0.0 
0.0 0.0 0.0 
0.0 0.0 0.0 
0.0 0.0 0.0 
0.0 0.0 0.0 
0.0 0.0 0.0 
0.0 0.0 0.0 
0.0 0.0 0.0 
0.0 0.0 0.0 
0.0 0.0 0.0 
0.0 0.0 0.0 
0.0 0.0 0.0 
0.0 0.0 0.0 
0.0 0.0 0.0 
0.0 0.0 0.0 
0.0 0.0 0.0 
0.0 0.0 0.0 
0.0 0.0 0.0 
0.0 0.0 0.0 
0.0 0.0 0.0 
0.0 0.0 0.0 
0.0 0.0 0.0 
0.0 0.0 0.0 
0.0 0.0 0.0 
0.0 0.0 0.0 
0.0 0.0 0.0 
0.0 0.0 0.0 
0.0 0.0 0.0 
0.0 0.0 0.0 
0.0 0.0 0.0 
0.0 0.0 0.0 
0.0 0.0 0.0 
0.0 0.0 0.0 
0.0 0.0 0.0 
0.0 0.0 0.0 
0.0 0.0 0.0 
0.0 0.0 0.0 
0.0 0.0 0.0 
0.0 0.0 0.0 
0.0 0.0 0.0 
0.0 0.0 0.0 
0.0 0.0 0.0 
0.0 0.0 0.0 
0.0 0.0 0.0 
0.0 0.0 0.0 
0.0 0.0 0.0 
0.0 0.0 0.0 
0.0 0.0 0.0 
0.0 0.0 0.0 
0.0 0.0 0.0 
0.0 0.0 0.0 
0.0 0.0 0.0 
0.0 0.0 0.0 
0.0 0.0 0.0 
0.0 0.0 0.0 
0.0 0.0 0.0 
0.0 0.0 0.0 
0.0 0.0 0.0 
0.0 0.0 0.0 
0.0 0.0 0.0 
0.0 0.0 0.0 
0.0 0.0 0.0 
0.0 0.0 0.0 
0.0 0.0 0.0 
0.0 0.0 0.0 
0.0 0.0 0.0 
0.0 0.0 0.0 
0.0 0.0 0.0 
0.0 0.0 0.0 
0.0 0.0 0.0 
0.0 0.0 0.0 
0.0 0.0 0.0 
0.0 0.0 0.0 
0.0 0.0 0.0 
0.0 0.0 0.0 
0.0 0.0 0.0 
0.0 0.0 0.0 
0.0 0.0 0.0 
0.0 0.0 0.0 
0.0 0.0 0.0 
0.0 0.0 0.0 
0.0 0.0 0.0 
0.0 0.0 0.0 
0.0 0.0 0.0 
0.0 0.0 0.0 
0.0 0.0 0.0 
0.0 0.0 0.0 
0.0 0.0 0.0 
0.0 0.0 0.0 
0.0 0.0 0.0 
0.0 0.0 0.0 
0.0 0.0 0.0 
0.0 0.0 0.0 
0.0 0.0 0.0 
0.0 0.0 0.0 
0.0 0.0 0.0 
0.0 0.0 0.0 
0.0 0.0 0.0 
0.0 0.0 0.0 
0.0 0.0 0.0 
0.0 0.0 0.0 
0.0 0.0 0.0 
0.0 0.0 0.0 
0.0 0.0 0.0 
0.0 0.0 0.0 
0.0 0.0 0.0 
0.0 0.0 0.0 
0.0 0.0 0.0 
0.0 0.0 0.0 
0.0 0.0 0.0 
0.0 0.0 0.0 
0.0 0.0 0.0 
0.0 0.0 0.0 
0.0 0.0 0.0 
0.0 0.0 0.0 
0.0 0.0 0.0 
0.0 0.0 0.0 
0.0 0.0 0.0 
0.0 0.0 0.0 
0.0 0.0 0.0 
0.0 0.0 0.0 
0.0 0.0 0.0 
0.0 0.0 0.0 
0.0 0.0 0.0 
0.0 0.0 0.0 
0.0 0.0 0.0 
0.0 0.0 0.0 
0.0 0.0 0.0 
0.0 0.0 0.0 
0.0 0.0 0.0 
0.0 0.0 0.0 
0.0 0.0 0.0 
0.0 0.0 0.0 
0.0 0.0 0.0 
0.0 0.0 0.0 
0.0 0.0 0.0 
0.0 0.0 0.0 
0.0 0.0 0.0 
0.0 0.0 0.0 
0.0 0.0 0.0 
0.0 0.0 0.0 
0.0 0.0 0.0 
0.0 0.0 0.0 
0.0 0.0 0.0 
0.0 0.0 0.0 
0.0 0.0 0.0 
0.0 0.0 0.0 
0.0 0.0 0.0 
0.0 0.0 0.0 
0.0 0.0 0.0 
0.0 0.0 0.0 
0.0 0.0 0.0 
0.0 0.0 0.0 
0.0 0.0 0.0 
0.0 0.0 0.0 
0.0 0.0 0.0 
0.0 0.0 0.0 
0.0 0.0 0.0 
0.0 0.0 0.0 
0.0 0.0 0.0 
0.0 0.0 0.0 
0.0 0.0 0.0 
0.0 0.0 0.0 
0.0 0.0 0.0 
0.0 0.0 0.0 
0.0 0.0 0.0 
0.0 0.0 0.0 
0.0 0.0 0.0 
0.0 0.0 0.0 
0.0 0.0 0.0 
0.0 0.0 0.0 
0.0 0.0 0.0 
0.0 0.0 0.0 
0.0 0.0 0.0 
0.0 0.0 0.0 
0.0 0.0 0.0 
0.0 0.0 0.0 
0.0 0.0 0.0 
0.0 0.0 0.0 
0.0 0.0 0.0 
0.0 0.0 0.0 
0.0 0.0 0.0 
0.0 0.0 0.0 
0.0 0.0 0.0 
0.0 0.0 0.0 
0.0 0.0 0.0 
0.0 0.0 0.0 
0.0 0.0 0.0 
0.0 0.0 0.0 
0.0 0.0 0.0 
0.0 0.0 0.0 
0.0 0.0 0.0 
0.0 0.0 0.0 
0.0 0.0 0.0 
0.0 0.0 0.0 
0.0 0.0 0.0 
0.0 0.0 0.0 
0.0 0.0 0.0 
0.0 0.0 0.0 
0.0 0.0 0.0 
0.0 0.0 0.0 
0.0 0.0 0.0 
0.0 0.0 0.0 
0.0 0.0 0.0 
0.0 0.0 0.0 
0.0 0.0 0.0 
0.0 0.0 0.0 
0.0 0.0 0.0 
0.0 0.0 0.0 
0.0 0.0 0.0 
0.0 0.0 0.0 
0.0 0.0 0.0 
0.0 0.0 0.0 
0.0 0.0 0.0 
0.0 0.0 0.0 
0.0 0.0 0.0 
0.0 0.0 0.0 
0.0 0.0 0.0 
0.0 0.0 0.0 
0.0 0.0 0.0 
0.0 0.0 0.0 
0.0 0.0 0.0 
0.0 0.0 0.0 
0.0 0.0 0.0 
0.0 0.0 0.0 
0.0 0.0 0.0 
0.0 0.0 0.0 
0.0 0.0 0.0 
0.0 0.0 0.0 
0.0 0.0 0.0 
0.0 0.0 0.0 
0.0 0.0 0.0 
0.0 0.0 0.0 
0.0 0.0 0.0 
0.0 0.0 0.0 
0.0 0.0 0.0 
0.0 0.0 0.0 
0.0 0.0 0.0 
0.0 0.0 0.0 
0.0 0.0 0.0 
0.0 0.0 0.0 
0.0 0.0 0.0 
0.0 0.0 0.0 
0.0 0.0 0.0 
0.0 0.0 0.0 
0.0 0.0 0.0 
0.0 0.0 0.0 
0.0 0.0 0.0 
0.0 0.0 0.0 
0.0 0.0 0.0 
0.0 0.0 0.0 
0.0 0.0 0.0 
0.0 0.0 0.0 
0.0 0.0 0.0 
0.0 0.0 0.0 
0.0 0.0 0.0 
0.0 0.0 0.0 
0.0 0.0 0.0 
0.0 0.0 0.0 
0.0 0.0 0.0 
0.0 0.0 0.0 
0.0 0.0 0.0 
0.0 0.0 0.0 
0.0 0.0 0.0 
0.0 0.0 0.0 
0.0 0.0 0.0 
0.0 0.0 0.0 
0.0 0.0 0.0 
0.0 0.0 0.0 
0.0 0.0 0.0 
0.0 0.0 0.0 
0.0 0.0 0.0 
0.0 0.0 0.0 
0.0 0.0 0.0 
0.0 0.0 0.0 
0.0 0.0 0.0 
0.0 0.0 0.0 
0.0 0.0 0.0 
0.0 0.0 0.0 
0.0 0.0 0.0 
0.0 0.0 0.0 
0.0 0.0 0.0 
0.0 0.0 0.0 
0.0 0.0 0.0 
0.0 0.0 0.0 
0.0 0.0 0.0 
0.0 0.0 0.0 
0.0 0.0 0.0 
0.0 0.0 0.0 
0.0 0.0 0.0 
0.0 0.0 0.0 
0.0 0.0 0.0 
0.0 0.0 0.0 
0.0 0.0 0.0 
0.0 0.0 0.0 
0.0 0.0 0.0 
0.0 0.0 0.0 
0.0 0.0 0.0 
0.0 0.0 0.0 
0.0 0.0 0.0 
0.0 0.0 0.0 
0.0 0.0 0.0 
0.0 0.0 0.0 
0.0 0.0 0.0 
0.0 0.0 0.0 
0.0 0.0 0.0 
0.0 0.0 0.0 
0.0 0.0 0.0 
0.0 0.0 0.0 
0.0 0.0 0.0 
0.0 0.0 0.0 
0.0 0.0 0.0 
0.0 0.0 0.0 
0.0 0.0 0.0 
0.0 0.0 0.0 
0.0 0.0 0.0 
0.0 0.0 0.0 
0.0 0.0 0.0 
0.0 0.0 0.0 
0.0 0.0 0.0 
0.0 0.0 0.0 
0.0 0.0 0.0 
0.0 0.0 0.0 
0.0 0.0 0.0 
0.0 0.0 0.0 
0.0 0.0 0.0 
0.0 0.0 0.0 
0.0 0.0 0.0 
0.0 0.0 0.0 
0.0 0.0 0.0 
0.0 0.0 0.0 
0.0 0.0 0.0 
0.0 0.0 0.0 
0.0 0.0 0.0 
0.0 0.0 0.0 
0.0 0.0 0.0 
0.0 0.0 0.0 
0.0 0.0 0.0 
0.0 0.0 0.0 
0.0 0.0 0.0 
0.0 0.0 0.0 
0.0 0.0 0.0 
0.0 0.0 0.0 
0.0 0.0 0.0 
0.0 0.0 0.0 
0.0 0.0 0.0 
0.0 0.0 0.0 
0.0 0.0 0.0 
0.0 0.0 0.0 
0.0 0.0 0.0 
0.0 0.0 0.0 
0.0 0.0 0.0 
0.0 0.0 0.0 
0.0 0.0 0.0 
0.0 0.0 0.0 
0.0 0.0 0.0 
0.0 0.0 0.0 
0.0 0.0 0.0 
0.0 0.0 0.0 
0.0 0.0 0.0 
0.0 0.0 0.0 
0.0 0.0 0.0 
0.0 0.0 0.0 
0.0 0.0 0.0 
0.0 0.0 0.0 
0.0 0.0 0.0 
0.0 0.0 0.0 
0.0 0.0 0.0 
0.0 0.0 0.0 
0.0 0.0 0.0 
0.0 0.0 0.0 
0.0 0.0 0.0 
0.0 0.0 0.0 
0.0 0.0 0.0 
0.0 0.0 0.0 
0.0 0.0 0.0 
0.0 0.0 0.0 
0.0 0.0 0.0 
0.0 0.0 0.0 
0.0 0.0 0.0 
0.0 0.0 0.0 
0.0 0.0 0.0 
0.0 0.0 0.0 
0.0 0.0 0.0 
0.0 0.0 0.0 
0.0 0.0 0.0 
0.0 0.0 0.0 
0.0 0.0 0.0 
0.0 0.0 0.0 
0.0 0.0 0.0 
0.0 0.0 0.0 
0.0 0.0 0.0 
0.0 0.0 0.0 
0.0 0.0 0.0 
0.0 0.0 0.0 
0.0 0.0 0.0 

VECTORS node_bounda_dof_materi_velocity_y float
0.0 0.0 0.0 
0.0 0.0 0.0 
0.0 1.000000000000e+00 0.0 
0.0 1.000000000000e+00 0.0 
0.0 0.0 0.0 
0.0 0.0 0.0 
0.0 0.0 0.0 
0.0 0.0 0.0 
0.0 0.0 0.0 
0.0 0.0 0.0 
0.0 0.0 0.0 
0.0 0.0 0.0 
0.0 0.0 0.0 
0.0 0.0 0.0 
0.0 0.0 0.0 
0.0 0.0 0.0 
0.0 0.0 0.0 
0.0 0.0 0.0 
0.0 0.0 0.0 
0.0 0.0 0.0 
0.0 0.0 0.0 
0.0 0.0 0.0 
0.0 0.0 0.0 
0.0 1.000000000000e+00 0.0 
0.0 1.000000000000e+00 0.0 
0.0 1.000000000000e+00 0.0 
0.0 1.000000000000e+00 0.0 
0.0 1.000000000000e+00 0.0 
0.0 1.000000000000e+00 0.0 
0.0 1.000000000000e+00 0.0 
0.0 1.000000000000e+00 0.0 
0.0 1.000000000000e+00 0.0 
0.0 1.000000000000e+00 0.0 
0.0 1.000000000000e+00 0.0 
0.0 1.000000000000e+00 0.0 
0.0 1.000000000000e+00 0.0 
0.0 1.000000000000e+00 0.0 
0.0 1.000000000000e+00 0.0 
0.0 1.000000000000e+00 0.0 
0.0 1.000000000000e+00 0.0 
0.0 1.000000000000e+00 0.0 
0.0 1.000000000000e+00 0.0 
0.0 1.000000000000e+00 0.0 
0.0 1.000000000000e+00 0.0 
0.0 1.000000000000e+00 0.0 
0.0 1.000000000000e+00 0.0 
0.0 1.000000000000e+00 0.0 
0.0 1.000000000000e+00 0.0 
0.0 1.000000000000e+00 0.0 
0.0 1.000000000000e+00 0.0 
0.0 1.000000000000e+00 0.0 
0.0 1.000000000000e+00 0.0 
0.0 1.000000000000e+00 0.0 
0.0 1.000000000000e+00 0.0 
0.0 1.000000000000e+00 0.0 
0.0 1.000000000000e+00 0.0 
0.0 1.000000000000e+00 0.0 
0.0 1.000000000000e+00 0.0 
0.0 1.000000000000e+00 0.0 
0.0 1.000000000000e+00 0.0 
0.0 1.000000000000e+00 0.0 
0.0 1.000000000000e+00 0.0 
0.0 1.000000000000e+00 0.0 
0.0 1.000000000000e+00 0.0 
0.0 1.000000000000e+00 0.0 
0.0 1.000000000000e+00 0.0 
0.0 1.000000000000e+00 0.0 
0.0 1.000000000000e+00 0.0 
0.0 1.000000000000e+00 0.0 
0.0 1.000000000000e+00 0.0 
0.0 1.000000000000e+00 0.0 
0.0 1.000000000000e+00 0.0 
0.0 0.0 0.0 
0.0 0.0 0.0 
0.0 0.0 0.0 
0.0 0.0 0.0 
0.0 0.0 0.0 
0.0 0.0 0.0 
0.0 0.0 0.0 
0.0 0.0 0.0 
0.0 0.0 0.0 
0.0 0.0 0.0 
0.0 0.0 0.0 
0.0 0.0 0.0 
0.0 0.0 0.0 
0.0 0.0 0.0 
0.0 0.0 0.0 
0.0 0.0 0.0 
0.0 0.0 0.0 
0.0 0.0 0.0 
0.0 0.0 0.0 
0.0 0.0 0.0 
0.0 0.0 0.0 
0.0 0.0 0.0 
0.0 0.0 0.0 
0.0 0.0 0.0 
0.0 0.0 0.0 
0.0 0.0 0.0 
0.0 0.0 0.0 
0.0 0.0 0.0 
0.0 0.0 0.0 
0.0 0.0 0.0 
0.0 0.0 0.0 
0.0 0.0 0.0 
0.0 0.0 0.0 
0.0 0.0 0.0 
0.0 0.0 0.0 
0.0 0.0 0.0 
0.0 0.0 0.0 
0.0 0.0 0.0 
0.0 0.0 0.0 
0.0 0.0 0.0 
0.0 0.0 0.0 
0.0 0.0 0.0 
0.0 0.0 0.0 
0.0 0.0 0.0 
0.0 0.0 0.0 
0.0 0.0 0.0 
0.0 0.0 0.0 
0.0 0.0 0.0 
0.0 0.0 0.0 
0.0 0.0 0.0 
0.0 0.0 0.0 
0.0 0.0 0.0 
0.0 0.0 0.0 
0.0 0.0 0.0 
0.0 0.0 0.0 
0.0 0.0 0.0 
0.0 0.0 0.0 
0.0 0.0 0.0 
0.0 0.0 0.0 
0.0 0.0 0.0 
0.0 0.0 0.0 
0.0 0.0 0.0 
0.0 0.0 0.0 
0.0 0.0 0.0 
0.0 0.0 0.0 
0.0 0.0 0.0 
0.0 0.0 0.0 
0.0 0.0 0.0 
0.0 0.0 0.0 
0.0 0.0 0.0 
0.0 0.0 0.0 
0.0 0.0 0.0 
0.0 0.0 0.0 
0.0 0.0 0.0 
0.0 0.0 0.0 
0.0 0.0 0.0 
0.0 0.0 0.0 
0.0 0.0 0.0 
0.0 0.0 0.0 
0.0 0.0 0.0 
0.0 0.0 0.0 
0.0 0.0 0.0 
0.0 0.0 0.0 
0.0 0.0 0.0 
0.0 0.0 0.0 
0.0 0.0 0.0 
0.0 0.0 0.0 
0.0 0.0 0.0 
0.0 0.0 0.0 
0.0 0.0 0.0 
0.0 0.0 0.0 
0.0 0.0 0.0 
0.0 0.0 0.0 
0.0 0.0 0.0 
0.0 0.0 0.0 
0.0 0.0 0.0 
0.0 0.0 0.0 
0.0 0.0 0.0 
0.0 0.0 0.0 
0.0 0.0 0.0 
0.0 0.0 0.0 
0.0 0.0 0.0 
0.0 0.0 0.0 
0.0 0.0 0.0 
0.0 0.0 0.0 
0.0 0.0 0.0 
0.0 0.0 0.0 
0.0 0.0 0.0 
0.0 0.0 0.0 
0.0 0.0 0.0 
0.0 0.0 0.0 
0.0 0.0 0.0 
0.0 0.0 0.0 
0.0 0.0 0.0 
0.0 0.0 0.0 
0.0 0.0 0.0 
0.0 0.0 0.0 
0.0 0.0 0.0 
0.0 0.0 0.0 
0.0 0.0 0.0 
0.0 0.0 0.0 
0.0 0.0 0.0 
0.0 0.0 0.0 
0.0 0.0 0.0 
0.0 0.0 0.0 
0.0 0.0 0.0 
0.0 0.0 0.0 
0.0 0.0 0.0 
0.0 0.0 0.0 
0.0 0.0 0.0 
0.0 0.0 0.0 
0.0 0.0 0.0 
0.0 0.0 0.0 
0.0 0.0 0.0 
0.0 0.0 0.0 
0.0 0.0 0.0 
0.0 0.0 0.0 
0.0 0.0 0.0 
0.0 0.0 0.0 
0.0 0.0 0.0 
0.0 0.0 0.0 
0.0 0.0 0.0 
0.0 0.0 0.0 
0.0 0.0 0.0 
0.0 0.0 0.0 
0.0 0.0 0.0 
0.0 0.0 0.0 
0.0 0.0 0.0 
0.0 0.0 0.0 
0.0 0.0 0.0 
0.0 0.0 0.0 
0.0 0.0 0.0 
0.0 0.0 0.0 
0.0 0.0 0.0 
0.0 0.0 0.0 
0.0 0.0 0.0 
0.0 0.0 0.0 
0.0 0.0 0.0 
0.0 0.0 0.0 
0.0 0.0 0.0 
0.0 0.0 0.0 
0.0 0.0 0.0 
0.0 0.0 0.0 
0.0 0.0 0.0 
0.0 0.0 0.0 
0.0 0.0 0.0 
0.0 0.0 0.0 
0.0 0.0 0.0 
0.0 0.0 0.0 
0.0 0.0 0.0 
0.0 0.0 0.0 
0.0 0.0 0.0 
0.0 0.0 0.0 
0.0 0.0 0.0 
0.0 0.0 0.0 
0.0 0.0 0.0 
0.0 0.0 0.0 
0.0 0.0 0.0 
0.0 0.0 0.0 
0.0 0.0 0.0 
0.0 0.0 0.0 
0.0 0.0 0.0 
0.0 0.0 0.0 
0.0 0.0 0.0 
0.0 0.0 0.0 
0.0 0.0 0.0 
0.0 0.0 0.0 
0.0 0.0 0.0 
0.0 0.0 0.0 
0.0 0.0 0.0 
0.0 0.0 0.0 
0.0 0.0 0.0 
0.0 0.0 0.0 
0.0 0.0 0.0 
0.0 0.0 0.0 
0.0 0.0 0.0 
0.0 0.0 0.0 
0.0 0.0 0.0 
0.0 0.0 0.0 
0.0 0.0 0.0 
0.0 0.0 0.0 
0.0 0.0 0.0 
0.0 0.0 0.0 
0.0 0.0 0.0 
0.0 0.0 0.0 
0.0 0.0 0.0 
0.0 0.0 0.0 
0.0 0.0 0.0 
0.0 0.0 0.0 
0.0 0.0 0.0 
0.0 0.0 0.0 
0.0 0.0 0.0 
0.0 0.0 0.0 
0.0 0.0 0.0 
0.0 0.0 0.0 
0.0 0.0 0.0 
0.0 0.0 0.0 
0.0 0.0 0.0 
0.0 0.0 0.0 
0.0 0.0 0.0 
0.0 0.0 0.0 
0.0 0.0 0.0 
0.0 0.0 0.0 
0.0 0.0 0.0 
0.0 0.0 0.0 
0.0 0.0 0.0 
0.0 0.0 0.0 
0.0 0.0 0.0 
0.0 0.0 0.0 
0.0 0.0 0.0 
0.0 0.0 0.0 
0.0 0.0 0.0 
0.0 0.0 0.0 
0.0 0.0 0.0 
0.0 0.0 0.0 
0.0 0.0 0.0 
0.0 0.0 0.0 
0.0 0.0 0.0 
0.0 0.0 0.0 
0.0 0.0 0.0 
0.0 0.0 0.0 
0.0 0.0 0.0 
0.0 0.0 0.0 
0.0 0.0 0.0 
0.0 0.0 0.0 
0.0 0.0 0.0 
0.0 0.0 0.0 
0.0 0.0 0.0 
0.0 0.0 0.0 
0.0 0.0 0.0 
0.0 0.0 0.0 
0.0 0.0 0.0 
0.0 0.0 0.0 
0.0 0.0 0.0 
0.0 0.0 0.0 
0.0 0.0 0.0 
0.0 0.0 0.0 
0.0 0.0 0.0 
0.0 0.0 0.0 
0.0 0.0 0.0 
0.0 0.0 0.0 
0.0 0.0 0.0 
0.0 0.0 0.0 
0.0 0.0 0.0 
0.0 0.0 0.0 
0.0 0.0 0.0 
0.0 0.0 0.0 
0.0 0.0 0.0 
0.0 0.0 0.0 
0.0 0.0 0.0 
0.0 0.0 0.0 
0.0 0.0 0.0 
0.0 0.0 0.0 
0.0 0.0 0.0 
0.0 0.0 0.0 
0.0 0.0 0.0 
0.0 0.0 0.0 
0.0 0.0 0.0 
0.0 0.0 0.0 
0.0 0.0 0.0 
0.0 0.0 0.0 
0.0 0.0 0.0 
0.0 0.0 0.0 
0.0 0.0 0.0 
0.0 0.0 0.0 
0.0 0.0 0.0 
0.0 0.0 0.0 
0.0 0.0 0.0 
0.0 0.0 0.0 
0.0 0.0 0.0 
0.0 0.0 0.0 
0.0 0.0 0.0 
0.0 0.0 0.0 
0.0 0.0 0.0 
0.0 0.0 0.0 
0.0 0.0 0.0 
0.0 0.0 0.0 
0.0 0.0 0.0 
0.0 0.0 0.0 
0.0 0.0 0.0 
0.0 0.0 0.0 
0.0 0.0 0.0 
0.0 0.0 0.0 
0.0 0.0 0.0 
0.0 0.0 0.0 
0.0 0.0 0.0 
0.0 0.0 0.0 
0.0 0.0 0.0 
0.0 0.0 0.0 
0.0 0.0 0.0 
0.0 0.0 0.0 
0.0 0.0 0.0 
0.0 0.0 0.0 
0.0 0.0 0.0 
0.0 0.0 0.0 
0.0 0.0 0.0 
0.0 0.0 0.0 
0.0 0.0 0.0 
0.0 0.0 0.0 
0.0 0.0 0.0 
0.0 0.0 0.0 
0.0 0.0 0.0 
0.0 0.0 0.0 
0.0 0.0 0.0 
0.0 0.0 0.0 
0.0 0.0 0.0 
0.0 0.0 0.0 
0.0 0.0 0.0 
0.0 0.0 0.0 
0.0 0.0 0.0 
0.0 0.0 0.0 
0.0 0.0 0.0 
0.0 0.0 0.0 
0.0 0.0 0.0 
0.0 0.0 0.0 
0.0 0.0 0.0 
0.0 0.0 0.0 
0.0 0.0 0.0 
0.0 0.0 0.0 
0.0 0.0 0.0 
0.0 0.0 0.0 
0.0 0.0 0.0 
0.0 0.0 0.0 
0.0 0.0 0.0 
0.0 0.0 0.0 
0.0 0.0 0.0 
0.0 0.0 0.0 
0.0 0.0 0.0 
0.0 0.0 0.0 
0.0 0.0 0.0 
0.0 0.0 0.0 
0.0 0.0 0.0 
0.0 0.0 0.0 
0.0 0.0 0.0 
0.0 0.0 0.0 
0.0 0.0 0.0 
0.0 0.0 0.0 
0.0 0.0 0.0 
0.0 0.0 0.0 
0.0 0.0 0.0 
0.0 0.0 0.0 
0.0 0.0 0.0 
0.0 0.0 0.0 
0.0 0.0 0.0 
0.0 0.0 0.0 
0.0 0.0 0.0 
0.0 0.0 0.0 
0.0 0.0 0.0 
0.0 0.0 0.0 
0.0 0.0 0.0 
0.0 0.0 0.0 
0.0 0.0 0.0 
0.0 0.0 0.0 
0.0 0.0 0.0 
0.0 0.0 0.0 
0.0 0.0 0.0 
0.0 0.0 0.0 
0.0 0.0 0.0 
0.0 0.0 0.0 
0.0 0.0 0.0 
0.0 0.0 0.0 
0.0 0.0 0.0 
0.0 0.0 0.0 
0.0 0.0 0.0 
0.0 0.0 0.0 
0.0 0.0 0.0 
0.0 0.0 0.0 
0.0 0.0 0.0 
0.0 0.0 0.0 
0.0 0.0 0.0 
0.0 0.0 0.0 
0.0 0.0 0.0 
0.0 0.0 0.0 
0.0 0.0 0.0 
0.0 0.0 0.0 
0.0 0.0 0.0 
0.0 0.0 0.0 
0.0 0.0 0.0 
0.0 0.0 0.0 
0.0 0.0 0.0 
0.0 0.0 0.0 
0.0 0.0 0.0 
0.0 0.0 0.0 
0.0 0.0 0.0 
0.0 0.0 0.0 
0.0 0.0 0.0 
0.0 0.0 0.0 
0.0 0.0 0.0 
0.0 0.0 0.0 
0.0 0.0 0.0 
0.0 0.0 0.0 
0.0 0.0 0.0 
0.0 0.0 0.0 
0.0 0.0 0.0 
0.0 0.0 0.0 
0.0 0.0 0.0 
0.0 0.0 0.0 
0.0 0.0 0.0 
0.0 0.0 0.0 
0.0 0.0 0.0 
0.0 0.0 0.0 
0.0 0.0 0.0 
0.0 0.0 0.0 
0.0 0.0 0.0 
0.0 0.0 0.0 
0.0 0.0 0.0 
0.0 0.0 0.0 
0.0 0.0 0.0 
0.0 0.0 0.0 
0.0 0.0 0.0 
0.0 0.0 0.0 
0.0 0.0 0.0 
0.0 0.0 0.0 
0.0 0.0 0.0 
0.0 0.0 0.0 
0.0 0.0 0.0 
0.0 0.0 0.0 
0.0 0.0 0.0 
0.0 0.0 0.0 
0.0 0.0 0.0 
0.0 0.0 0.0 
0.0 0.0 0.0 
0.0 0.0 0.0 
0.0 0.0 0.0 
0.0 0.0 0.0 
0.0 0.0 0.0 
0.0 0.0 0.0 
0.0 0.0 0.0 
0.0 0.0 0.0 
0.0 0.0 0.0 
0.0 0.0 0.0 
0.0 0.0 0.0 
0.0 0.0 0.0 
0.0 0.0 0.0 
0.0 0.0 0.0 
0.0 0.0 0.0 
0.0 0.0 0.0 
0.0 0.0 0.0 
0.0 0.0 0.0 
0.0 0.0 0.0 
0.0 0.0 0.0 
0.0 0.0 0.0 
0.0 0.0 0.0 
0.0 0.0 0.0 
0.0 0.0 0.0 
0.0 0.0 0.0 
0.0 0.0 0.0 
0.0 0.0 0.0 
0.0 0.0 0.0 
0.0 0.0 0.0 
0.0 0.0 0.0 
0.0 0.0 0.0 
0.0 0.0 0.0 
0.0 0.0 0.0 
0.0 0.0 0.0 
0.0 0.0 0.0 
0.0 0.0 0.0 
0.0 0.0 0.0 
0.0 0.0 0.0 
0.0 0.0 0.0 
0.0 0.0 0.0 
0.0 0.0 0.0 
0.0 0.0 0.0 
0.0 0.0 0.0 
0.0 0.0 0.0 
0.0 0.0 0.0 
0.0 0.0 0.0 
0.0 0.0 0.0 
0.0 0.0 0.0 
0.0 0.0 0.0 
0.0 0.0 0.0 
0.0 0.0 0.0 
0.0 0.0 0.0 
0.0 0.0 0.0 
0.0 0.0 0.0 
0.0 0.0 0.0 
0.0 0.0 0.0 
0.0 0.0 0.0 
0.0 0.0 0.0 
0.0 0.0 0.0 
0.0 0.0 0.0 
0.0 0.0 0.0 
0.0 0.0 0.0 
0.0 0.0 0.0 
0.0 0.0 0.0 
0.0 0.0 0.0 
0.0 0.0 0.0 
0.0 0.0 0.0 
0.0 0.0 0.0 
0.0 0.0 0.0 
0.0 0.0 0.0 
0.0 0.0 0.0 
0.0 0.0 0.0 
0.0 0.0 0.0 
0.0 0.0 0.0 
0.0 0.0 0.0 
0.0 0.0 0.0 
0.0 0.0 0.0 
0.0 0.0 0.0 
0.0 0.0 0.0 
0.0 0.0 0.0 
0.0 0.0 0.0 
0.0 0.0 0.0 
0.0 0.0 0.0 
0.0 0.0 0.0 
0.0 0.0 0.0 
0.0 0.0 0.0 
0.0 0.0 0.0 
0.0 0.0 0.0 
0.0 0.0 0.0 
0.0 0.0 0.0 
0.0 0.0 0.0 
0.0 0.0 0.0 
0.0 0.0 0.0 
0.0 0.0 0.0 
0.0 0.0 0.0 
0.0 0.0 0.0 
0.0 0.0 0.0 
0.0 0.0 0.0 
0.0 0.0 0.0 
0.0 0.0 0.0 
0.0 0.0 0.0 
0.0 0.0 0.0 
0.0 0.0 0.0 
0.0 0.0 0.0 
0.0 0.0 0.0 
0.0 0.0 0.0 
0.0 0.0 0.0 
0.0 0.0 0.0 
0.0 0.0 0.0 
0.0 0.0 0.0 
0.0 0.0 0.0 
0.0 0.0 0.0 
0.0 0.0 0.0 
0.0 0.0 0.0 
0.0 0.0 0.0 
0.0 0.0 0.0 
0.0 0.0 0.0 
0.0 0.0 0.0 
0.0 0.0 0.0 
0.0 0.0 0.0 
0.0 0.0 0.0 
0.0 0.0 0.0 
0.0 0.0 0.0 
0.0 0.0 0.0 
0.0 0.0 0.0 
0.0 0.0 0.0 
0.0 0.0 0.0 
0.0 0.0 0.0 
0.0 0.0 0.0 
0.0 0.0 0.0 
0.0 0.0 0.0 
0.0 0.0 0.0 
0.0 0.0 0.0 
0.0 0.0 0.0 
0.0 0.0 0.0 
0.0 0.0 0.0 
0.0 0.0 0.0 
0.0 0.0 0.0 
0.0 0.0 0.0 
0.0 0.0 0.0 
0.0 0.0 0.0 
0.0 0.0 0.0 
0.0 0.0 0.0 
0.0 0.0 0.0 
0.0 0.0 0.0 
0.0 0.0 0.0 
0.0 0.0 0.0 
0.0 0.0 0.0 
0.0 0.0 0.0 
0.0 0.0 0.0 
0.0 0.0 0.0 
0.0 0.0 0.0 
0.0 0.0 0.0 
0.0 0.0 0.0 
0.0 0.0 0.0 
0.0 0.0 0.0 
0.0 0.0 0.0 
0.0 0.0 0.0 
0.0 0.0 0.0 
0.0 0.0 0.0 
0.0 0.0 0.0 
0.0 0.0 0.0 
0.0 0.0 0.0 
0.0 0.0 0.0 
0.0 0.0 0.0 
0.0 0.0 0.0 
0.0 0.0 0.0 
0.0 0.0 0.0 
0.0 0.0 0.0 
0.0 0.0 0.0 
0.0 0.0 0.0 
0.0 0.0 0.0 
0.0 0.0 0.0 
0.0 0.0 0.0 
0.0 0.0 0.0 
0.0 0.0 0.0 
0.0 0.0 0.0 
0.0 0.0 0.0 
0.0 0.0 0.0 
0.0 0.0 0.0 
0.0 0.0 0.0 
0.0 0.0 0.0 
0.0 0.0 0.0 
0.0 0.0 0.0 
0.0 0.0 0.0 
0.0 0.0 0.0 
0.0 0.0 0.0 
0.0 0.0 0.0 
0.0 0.0 0.0 
0.0 0.0 0.0 
0.0 0.0 0.0 
0.0 0.0 0.0 
0.0 0.0 0.0 
0.0 0.0 0.0 
0.0 0.0 0.0 
0.0 0.0 0.0 
0.0 0.0 0.0 
0.0 0.0 0.0 
0.0 0.0 0.0 
0.0 0.0 0.0 
0.0 0.0 0.0 
0.0 0.0 0.0 
0.0 0.0 0.0 
0.0 0.0 0.0 
0.0 0.0 0.0 
0.0 0.0 0.0 
0.0 0.0 0.0 
0.0 0.0 0.0 
0.0 0.0 0.0 
0.0 0.0 0.0 
0.0 0.0 0.0 
0.0 0.0 0.0 
0.0 0.0 0.0 
0.0 0.0 0.0 
0.0 0.0 0.0 
0.0 0.0 0.0 
0.0 0.0 0.0 
0.0 0.0 0.0 
0.0 0.0 0.0 
0.0 0.0 0.0 
0.0 0.0 0.0 
0.0 0.0 0.0 
0.0 0.0 0.0 
0.0 0.0 0.0 
0.0 0.0 0.0 
0.0 0.0 0.0 
0.0 0.0 0.0 
0.0 0.0 0.0 
0.0 0.0 0.0 
0.0 0.0 0.0 
0.0 0.0 0.0 
0.0 0.0 0.0 
0.0 0.0 0.0 
0.0 0.0 0.0 
0.0 0.0 0.0 
0.0 0.0 0.0 
0.0 0.0 0.0 
0.0 0.0 0.0 
0.0 0.0 0.0 
0.0 0.0 0.0 
0.0 0.0 0.0 
0.0 0.0 0.0 
0.0 0.0 0.0 
0.0 0.0 0.0 
0.0 0.0 0.0 
0.0 0.0 0.0 
0.0 0.0 0.0 
0.0 0.0 0.0 
0.0 0.0 0.0 
0.0 0.0 0.0 
0.0 0.0 0.0 
0.0 0.0 0.0 
0.0 0.0 0.0 
0.0 0.0 0.0 
0.0 0.0 0.0 
0.0 0.0 0.0 
0.0 0.0 0.0 
0.0 0.0 0.0 
0.0 0.0 0.0 
0.0 0.0 0.0 
0.0 0.0 0.0 
0.0 0.0 0.0 
0.0 0.0 0.0 
0.0 0.0 0.0 
0.0 0.0 0.0 
0.0 0.0 0.0 
0.0 0.0 0.0 
0.0 0.0 0.0 
0.0 0.0 0.0 
0.0 0.0 0.0 
0.0 0.0 0.0 
0.0 0.0 0.0 
0.0 0.0 0.0 
0.0 0.0 0.0 
0.0 0.0 0.0 
0.0 0.0 0.0 
0.0 0.0 0.0 
0.0 0.0 0.0 
0.0 0.0 0.0 
0.0 0.0 0.0 
0.0 0.0 0.0 
0.0 0.0 0.0 
0.0 0.0 0.0 
0.0 0.0 0.0 
0.0 0.0 0.0 
0.0 0.0 0.0 
0.0 0.0 0.0 
0.0 0.0 0.0 
0.0 0.0 0.0 
0.0 0.0 0.0 
0.0 0.0 0.0 
0.0 0.0 0.0 
0.0 0.0 0.0 
0.0 0.0 0.0 
0.0 0.0 0.0 
0.0 0.0 0.0 
0.0 0.0 0.0 
0.0 0.0 0.0 
0.0 0.0 0.0 
0.0 0.0 0.0 
0.0 0.0 0.0 
0.0 0.0 0.0 
0.0 0.0 0.0 
0.0 0.0 0.0 
0.0 0.0 0.0 
0.0 0.0 0.0 
0.0 0.0 0.0 
0.0 0.0 0.0 
0.0 0.0 0.0 
0.0 0.0 0.0 
0.0 0.0 0.0 
0.0 0.0 0.0 
0.0 0.0 0.0 
0.0 0.0 0.0 
0.0 0.0 0.0 
0.0 0.0 0.0 
0.0 0.0 0.0 
0.0 0.0 0.0 
0.0 0.0 0.0 
0.0 0.0 0.0 
0.0 0.0 0.0 
0.0 0.0 0.0 
0.0 0.0 0.0 
0.0 0.0 0.0 
0.0 0.0 0.0 
0.0 0.0 0.0 
0.0 0.0 0.0 
0.0 0.0 0.0 
0.0 0.0 0.0 
0.0 0.0 0.0 
0.0 0.0 0.0 
0.0 0.0 0.0 
0.0 0.0 0.0 
0.0 0.0 0.0 
0.0 0.0 0.0 
0.0 0.0 0.0 
0.0 0.0 0.0 
0.0 0.0 0.0 
0.0 0.0 0.0 
0.0 0.0 0.0 
0.0 0.0 0.0 
0.0 0.0 0.0 
0.0 0.0 0.0 
0.0 0.0 0.0 
0.0 0.0 0.0 
0.0 0.0 0.0 
0.0 0.0 0.0 
0.0 0.0 0.0 
0.0 0.0 0.0 
0.0 0.0 0.0 
0.0 0.0 0.0 
0.0 0.0 0.0 
0.0 0.0 0.0 
0.0 0.0 0.0 
0.0 0.0 0.0 
0.0 0.0 0.0 
0.0 0.0 0.0 
0.0 0.0 0.0 
0.0 0.0 0.0 
0.0 0.0 0.0 
0.0 0.0 0.0 
0.0 0.0 0.0 
0.0 0.0 0.0 
0.0 0.0 0.0 
0.0 0.0 0.0 
0.0 0.0 0.0 
0.0 0.0 0.0 
0.0 0.0 0.0 
0.0 0.0 0.0 
0.0 0.0 0.0 
0.0 0.0 0.0 
0.0 0.0 0.0 
0.0 0.0 0.0 
0.0 0.0 0.0 
0.0 0.0 0.0 
0.0 0.0 0.0 
0.0 0.0 0.0 
0.0 0.0 0.0 
0.0 0.0 0.0 
0.0 0.0 0.0 
0.0 0.0 0.0 
0.0 0.0 0.0 
0.0 0.0 0.0 
0.0 0.0 0.0 
0.0 0.0 0.0 
0.0 0.0 0.0 
0.0 0.0 0.0 
0.0 0.0 0.0 
0.0 0.0 0.0 
0.0 0.0 0.0 
0.0 0.0 0.0 
0.0 0.0 0.0 
0.0 0.0 0.0 
0.0 0.0 0.0 
0.0 0.0 0.0 
0.0 0.0 0.0 
0.0 0.0 0.0 
0.0 0.0 0.0 
0.0 0.0 0.0 
0.0 0.0 0.0 
0.0 0.0 0.0 
0.0 0.0 0.0 
0.0 0.0 0.0 
0.0 0.0 0.0 
0.0 0.0 0.0 
0.0 0.0 0.0 
0.0 0.0 0.0 
0.0 0.0 0.0 
0.0 0.0 0.0 
0.0 0.0 0.0 
0.0 0.0 0.0 
0.0 0.0 0.0 
0.0 0.0 0.0 
0.0 0.0 0.0 
0.0 0.0 0.0 
0.0 0.0 0.0 
0.0 0.0 0.0 
0.0 0.0 0.0 
0.0 0.0 0.0 
0.0 0.0 0.0 
0.0 0.0 0.0 
0.0 0.0 0.0 
0.0 0.0 0.0 
0.0 0.0 0.0 
0.0 0.0 0.0 
0.0 0.0 0.0 
0.0 0.0 0.0 
0.0 0.0 0.0 
0.0 0.0 0.0 
0.0 0.0 0.0 
0.0 0.0 0.0 
0.0 0.0 0.0 
0.0 0.0 0.0 
0.0 0.0 0.0 
0.0 0.0 0.0 
0.0 0.0 0.0 
0.0 0.0 0.0 
0.0 0.0 0.0 
0.0 0.0 0.0 
0.0 0.0 0.0 
0.0 0.0 0.0 
0.0 0.0 0.0 
0.0 0.0 0.0 
0.0 0.0 0.0 
0.0 0.0 0.0 
0.0 0.0 0.0 
0.0 0.0 0.0 
0.0 0.0 0.0 
0.0 0.0 0.0 
0.0 0.0 0.0 
0.0 0.0 0.0 
0.0 0.0 0.0 
0.0 0.0 0.0 
0.0 0.0 0.0 
0.0 0.0 0.0 
0.0 0.0 0.0 
0.0 0.0 0.0 
0.0 0.0 0.0 
0.0 0.0 0.0 
0.0 0.0 0.0 
0.0 0.0 0.0 
0.0 0.0 0.0 
0.0 0.0 0.0 
0.0 0.0 0.0 
0.0 0.0 0.0 
0.0 0.0 0.0 
0.0 0.0 0.0 
0.0 0.0 0.0 
0.0 0.0 0.0 
0.0 0.0 0.0 
0.0 0.0 0.0 
0.0 0.0 0.0 
0.0 0.0 0.0 
0.0 0.0 0.0 
0.0 0.0 0.0 
0.0 0.0 0.0 
0.0 0.0 0.0 
0.0 0.0 0.0 
0.0 0.0 0.0 
0.0 0.0 0.0 
0.0 0.0 0.0 
0.0 0.0 0.0 
0.0 0.0 0.0 
0.0 0.0 0.0 
0.0 0.0 0.0 
0.0 0.0 0.0 
0.0 0.0 0.0 
0.0 0.0 0.0 
0.0 0.0 0.0 
0.0 0.0 0.0 
0.0 0.0 0.0 
0.0 0.0 0.0 
0.0 0.0 0.0 
0.0 0.0 0.0 
0.0 0.0 0.0 
0.0 0.0 0.0 
0.0 0.0 0.0 
0.0 0.0 0.0 
0.0 0.0 0.0 
0.0 0.0 0.0 
0.0 0.0 0.0 
0.0 0.0 0.0 
0.0 0.0 0.0 
0.0 0.0 0.0 
0.0 0.0 0.0 
0.0 0.0 0.0 
0.0 0.0 0.0 
0.0 0.0 0.0 
0.0 0.0 0.0 
0.0 0.0 0.0 
0.0 0.0 0.0 
0.0 0.0 0.0 
0.0 0.0 0.0 
0.0 0.0 0.0 
0.0 0.0 0.0 
0.0 0.0 0.0 
0.0 0.0 0.0 
0.0 0.0 0.0 
0.0 0.0 0.0 
0.0 0.0 0.0 
0.0 0.0 0.0 
0.0 0.0 0.0 
0.0 0.0 0.0 
0.0 0.0 0.0 
0.0 0.0 0.0 
0.0 0.0 0.0 
0.0 0.0 0.0 
0.0 0.0 0.0 
0.0 0.0 0.0 
0.0 0.0 0.0 
0.0 0.0 0.0 
0.0 0.0 0.0 
0.0 0.0 0.0 
0.0 0.0 0.0 

SCALARS node_boundary float
LOOKUP_TABLE default
1.000000000000e+00 
1.000000000000e+00 
1.000000000000e+00 
1.000000000000e+00 
1.000000000000e+00 
1.000000000000e+00 
1.000000000000e+00 
1.000000000000e+00 
1.000000000000e+00 
1.000000000000e+00 
1.000000000000e+00 
1.000000000000e+00 
1.000000000000e+00 
1.000000000000e+00 
1.000000000000e+00 
1.000000000000e+00 
1.000000000000e+00 
1.000000000000e+00 
1.000000000000e+00 
1.000000000000e+00 
1.000000000000e+00 
1.000000000000e+00 
1.000000000000e+00 
1.000000000000e+00 
1.000000000000e+00 
1.000000000000e+00 
1.000000000000e+00 
1.000000000000e+00 
1.000000000000e+00 
1.000000000000e+00 
1.000000000000e+00 
1.000000000000e+00 
1.000000000000e+00 
1.000000000000e+00 
1.000000000000e+00 
1.000000000000e+00 
1.000000000000e+00 
1.000000000000e+00 
1.000000000000e+00 
1.000000000000e+00 
1.000000000000e+00 
1.000000000000e+00 
1.000000000000e+00 
1.000000000000e+00 
1.000000000000e+00 
1.000000000000e+00 
1.000000000000e+00 
1.000000000000e+00 
1.000000000000e+00 
1.000000000000e+00 
1.000000000000e+00 
1.000000000000e+00 
1.000000000000e+00 
1.000000000000e+00 
1.000000000000e+00 
1.000000000000e+00 
1.000000000000e+00 
1.000000000000e+00 
1.000000000000e+00 
1.000000000000e+00 
1.000000000000e+00 
1.000000000000e+00 
1.000000000000e+00 
1.000000000000e+00 
1.000000000000e+00 
1.000000000000e+00 
1.000000000000e+00 
1.000000000000e+00 
1.000000000000e+00 
1.000000000000e+00 
1.000000000000e+00 
1.000000000000e+00 
1.000000000000e+00 
1.000000000000e+00 
1.000000000000e+00 
1.000000000000e+00 
1.000000000000e+00 
1.000000000000e+00 
1.000000000000e+00 
1.000000000000e+00 
1.000000000000e+00 
1.000000000000e+00 
0.0
1.000000000000e+00 
1.000000000000e+00 
1.000000000000e+00 
1.000000000000e+00 
1.000000000000e+00 
1.000000000000e+00 
1.000000000000e+00 
1.000000000000e+00 
1.000000000000e+00 
1.000000000000e+00 
0.0
0.0
0.0
0.0
0.0
0.0
0.0
0.0
0.0
0.0
0.0
0.0
0.0
0.0
1.000000000000e+00 
1.000000000000e+00 
1.000000000000e+00 
1.000000000000e+00 
1.000000000000e+00 
1.000000000000e+00 
1.000000000000e+00 
1.000000000000e+00 
1.000000000000e+00 
1.000000000000e+00 
1.000000000000e+00 
1.000000000000e+00 
1.000000000000e+00 
1.000000000000e+00 
1.000000000000e+00 
1.000000000000e+00 
1.000000000000e+00 
1.000000000000e+00 
1.000000000000e+00 
1.000000000000e+00 
1.000000000000e+00 
1.000000000000e+00 
1.000000000000e+00 
1.000000000000e+00 
1.000000000000e+00 
1.000000000000e+00 
1.000000000000e+00 
1.000000000000e+00 
1.000000000000e+00 
1.000000000000e+00 
1.000000000000e+00 
1.000000000000e+00 
1.000000000000e+00 
1.000000000000e+00 
1.000000000000e+00 
1.000000000000e+00 
1.000000000000e+00 
1.000000000000e+00 
1.000000000000e+00 
1.000000000000e+00 
1.000000000000e+00 
1.000000000000e+00 
1.000000000000e+00 
1.000000000000e+00 
0.0
0.0
0.0
0.0
0.0
0.0
0.0
0.0
0.0
0.0
0.0
0.0
0.0
0.0
0.0
0.0
0.0
0.0
0.0
0.0
0.0
0.0
0.0
0.0
0.0
0.0
0.0
0.0
0.0
0.0
0.0
0.0
0.0
0.0
0.0
0.0
0.0
0.0
0.0
0.0
0.0
0.0
0.0
0.0
0.0
0.0
0.0
0.0
0.0
0.0
0.0
0.0
0.0
0.0
0.0
0.0
0.0
0.0
0.0
0.0
0.0
0.0
0.0
0.0
0.0
0.0
0.0
0.0
0.0
0.0
0.0
0.0
0.0
0.0
0.0
0.0
0.0
0.0
0.0
0.0
0.0
0.0
0.0
0.0
0.0
0.0
0.0
0.0
0.0
0.0
0.0
0.0
0.0
0.0
0.0
0.0
0.0
0.0
0.0
0.0
0.0
0.0
0.0
0.0
0.0
0.0
0.0
0.0
0.0
0.0
0.0
0.0
0.0
0.0
0.0
0.0
0.0
0.0
0.0
0.0
0.0
0.0
0.0
0.0
0.0
0.0
0.0
0.0
0.0
0.0
0.0
0.0
0.0
0.0
0.0
0.0
0.0
0.0
0.0
0.0
0.0
0.0
0.0
0.0
0.0
0.0
0.0
0.0
0.0
0.0
0.0
0.0
0.0
0.0
0.0
0.0
0.0
0.0
0.0
0.0
0.0
0.0
0.0
0.0
0.0
0.0
0.0
0.0
0.0
0.0
0.0
0.0
0.0
0.0
0.0
0.0
0.0
0.0
0.0
0.0
0.0
0.0
0.0
0.0
0.0
0.0
0.0
0.0
0.0
0.0
0.0
0.0
0.0
0.0
0.0
0.0
0.0
0.0
0.0
0.0
0.0
0.0
0.0
0.0
0.0
0.0
0.0
0.0
0.0
0.0
0.0
0.0
0.0
0.0
0.0
0.0
0.0
0.0
0.0
0.0
0.0
0.0
0.0
0.0
0.0
0.0
0.0
0.0
0.0
0.0
0.0
0.0
0.0
0.0
0.0
0.0
0.0
0.0
0.0
0.0
0.0
0.0
0.0
0.0
0.0
0.0
0.0
0.0
0.0
0.0
0.0
0.0
0.0
0.0
0.0
0.0
0.0
0.0
0.0
0.0
0.0
0.0
0.0
0.0
0.0
0.0
0.0
0.0
0.0
0.0
0.0
0.0
0.0
0.0
0.0
0.0
0.0
0.0
0.0
0.0
0.0
0.0
0.0
0.0
0.0
0.0
0.0
0.0
0.0
0.0
0.0
0.0
0.0
0.0
0.0
0.0
0.0
0.0
0.0
0.0
0.0
0.0
0.0
0.0
0.0
0.0
0.0
0.0
0.0
0.0
0.0
0.0
0.0
0.0
0.0
0.0
0.0
0.0
0.0
0.0
0.0
0.0
0.0
0.0
0.0
0.0
0.0
0.0
0.0
0.0
0.0
0.0
0.0
0.0
0.0
0.0
0.0
0.0
0.0
0.0
0.0
0.0
0.0
0.0
0.0
0.0
0.0
0.0
0.0
0.0
0.0
0.0
0.0
0.0
0.0
0.0
0.0
0.0
0.0
0.0
0.0
0.0
0.0
0.0
0.0
0.0
0.0
0.0
0.0
0.0
0.0
0.0
0.0
0.0
0.0
0.0
0.0
0.0
0.0
0.0
0.0
0.0
0.0
0.0
0.0
0.0
0.0
0.0
0.0
0.0
0.0
0.0
0.0
0.0
0.0
0.0
0.0
0.0
0.0
0.0
0.0
0.0
0.0
0.0
0.0
0.0
0.0
0.0
0.0
0.0
0.0
0.0
0.0
0.0
0.0
0.0
0.0
0.0
0.0
0.0
0.0
0.0
0.0
0.0
0.0
0.0
0.0
0.0
0.0
0.0
0.0
0.0
0.0
0.0
0.0
0.0
0.0
0.0
0.0
0.0
0.0
0.0
0.0
0.0
0.0
0.0
0.0
0.0
0.0
0.0
0.0
0.0
0.0
0.0
0.0
0.0
0.0
0.0
0.0
0.0
0.0
0.0
0.0
0.0
0.0
0.0
0.0
0.0
0.0
0.0
0.0
0.0
0.0
0.0
0.0
0.0
0.0
0.0
0.0
0.0
0.0
0.0
0.0
0.0
0.0
0.0
0.0
0.0
0.0
0.0
0.0
0.0
0.0
0.0
0.0
0.0
0.0
0.0
0.0
0.0
0.0
0.0
0.0
0.0
0.0
0.0
0.0
0.0
0.0
0.0
0.0
0.0
0.0
0.0
0.0
0.0
0.0
0.0
0.0
0.0
0.0
0.0
0.0
0.0
0.0
0.0
0.0
0.0
0.0
0.0
0.0
0.0
0.0
0.0
0.0
0.0
0.0
0.0
0.0
0.0
0.0
0.0
0.0
0.0
0.0
0.0
0.0
0.0
0.0
0.0
0.0
0.0
0.0
0.0
0.0
0.0
0.0
0.0
0.0
0.0
0.0
0.0
0.0
0.0
0.0
0.0
0.0
0.0
0.0
0.0
0.0
0.0
0.0
0.0
0.0
0.0
0.0
0.0
0.0
0.0
0.0
0.0
0.0
0.0
0.0
0.0
0.0
0.0
0.0
0.0
0.0
0.0
0.0
0.0
0.0
0.0
0.0
0.0
0.0
0.0
0.0
0.0
0.0
0.0
0.0
0.0
0.0
0.0
0.0
0.0
0.0
0.0
0.0
0.0
0.0
0.0
0.0
0.0
0.0
0.0
0.0
0.0
0.0
0.0
0.0
0.0
0.0
0.0
0.0
0.0
0.0
0.0
0.0
0.0
0.0
0.0
0.0
0.0
0.0
0.0
0.0
0.0
0.0
0.0
0.0
0.0
0.0
0.0
0.0
0.0
0.0
0.0
0.0
0.0
0.0
0.0
0.0
0.0
0.0
0.0
0.0
0.0
0.0
0.0
0.0
0.0
0.0
0.0
0.0
0.0
0.0
0.0
0.0
0.0
0.0
0.0
0.0
0.0
0.0
0.0
0.0
0.0
0.0
0.0
0.0
0.0
0.0
0.0
0.0
0.0
0.0
0.0
0.0
0.0
0.0
0.0
0.0
0.0
0.0
0.0
0.0
0.0
0.0
0.0
0.0
0.0
0.0
0.0
0.0
0.0
0.0
0.0
0.0
0.0
0.0
0.0
0.0
0.0
0.0
0.0
0.0
0.0
0.0
0.0
0.0
0.0
0.0
0.0
0.0
0.0
0.0
0.0
0.0
0.0
0.0
0.0
0.0
0.0
0.0
0.0
0.0
0.0
0.0
0.0
0.0
0.0
0.0
0.0
0.0
0.0
0.0
0.0
0.0
0.0
0.0
0.0
0.0
0.0
0.0
0.0
0.0
0.0
0.0
0.0
0.0
0.0
0.0
0.0
0.0
0.0
0.0
0.0
0.0
0.0
0.0
0.0
0.0
0.0
0.0
0.0
0.0
0.0
0.0
0.0
0.0
0.0
0.0
0.0
0.0
0.0
0.0
0.0
0.0
0.0
0.0
0.0
0.0
0.0
0.0
0.0
0.0
0.0
0.0
0.0
0.0
0.0
0.0
0.0
0.0
0.0
0.0
0.0
0.0
0.0
0.0
0.0
0.0
0.0
0.0
0.0
0.0
0.0
0.0
0.0
0.0
0.0
0.0
0.0
0.0
0.0
0.0
0.0
0.0
0.0
0.0
0.0
0.0
0.0
0.0
0.0
0.0
0.0
0.0
0.0
0.0
0.0
0.0
0.0
0.0
0.0
0.0
0.0
0.0
0.0
0.0
0.0
0.0
0.0
0.0
0.0
0.0
0.0
0.0
0.0
0.0
0.0
0.0
0.0
0.0
0.0
0.0
0.0
0.0
0.0
0.0
0.0
0.0
0.0
0.0
0.0
0.0
0.0
0.0
0.0
0.0
0.0
0.0
0.0
0.0
0.0
0.0
0.0
0.0
0.0
0.0
0.0

VECTORS node_force_edge float
0.0 0.0 0.0 
0.0 0.0 0.0 
0.0 0.0 0.0 
0.0 0.0 0.0 
0.0 0.0 0.0 
0.0 0.0 0.0 
0.0 0.0 0.0 
0.0 0.0 0.0 
0.0 0.0 0.0 
0.0 0.0 0.0 
0.0 0.0 0.0 
0.0 0.0 0.0 
0.0 0.0 0.0 
0.0 0.0 0.0 
0.0 0.0 0.0 
0.0 0.0 0.0 
0.0 0.0 0.0 
0.0 0.0 0.0 
0.0 0.0 0.0 
0.0 0.0 0.0 
0.0 0.0 0.0 
0.0 0.0 0.0 
0.0 0.0 0.0 
0.0 0.0 0.0 
0.0 0.0 0.0 
0.0 0.0 0.0 
0.0 0.0 0.0 
0.0 0.0 0.0 
0.0 0.0 0.0 
0.0 0.0 0.0 
0.0 0.0 0.0 
0.0 0.0 0.0 
0.0 0.0 0.0 
0.0 0.0 0.0 
0.0 0.0 0.0 
0.0 0.0 0.0 
0.0 0.0 0.0 
0.0 0.0 0.0 
0.0 0.0 0.0 
0.0 0.0 0.0 
0.0 0.0 0.0 
0.0 0.0 0.0 
0.0 0.0 0.0 
0.0 0.0 0.0 
0.0 0.0 0.0 
0.0 0.0 0.0 
0.0 0.0 0.0 
0.0 0.0 0.0 
0.0 0.0 0.0 
0.0 0.0 0.0 
0.0 0.0 0.0 
0.0 0.0 0.0 
0.0 0.0 0.0 
0.0 0.0 0.0 
0.0 0.0 0.0 
0.0 0.0 0.0 
0.0 0.0 0.0 
0.0 0.0 0.0 
0.0 0.0 0.0 
0.0 0.0 0.0 
0.0 0.0 0.0 
0.0 0.0 0.0 
0.0 0.0 0.0 
0.0 0.0 0.0 
0.0 0.0 0.0 
0.0 0.0 0.0 
0.0 0.0 0.0 
0.0 0.0 0.0 
0.0 0.0 0.0 
0.0 0.0 0.0 
0.0 0.0 0.0 
0.0 0.0 0.0 
0.0 0.0 0.0 
0.0 0.0 0.0 
0.0 0.0 0.0 
0.0 0.0 0.0 
0.0 0.0 0.0 
0.0 0.0 0.0 
0.0 0.0 0.0 
0.0 0.0 0.0 
0.0 0.0 0.0 
0.0 -1.000000000000e+02 0.0 
0.0 0.0 0.0 
0.0 0.0 0.0 
0.0 0.0 0.0 
0.0 0.0 0.0 
0.0 0.0 0.0 
0.0 0.0 0.0 
0.0 0.0 0.0 
0.0 0.0 0.0 
0.0 0.0 0.0 
0.0 0.0 0.0 
0.0 0.0 0.0 
0.0 0.0 0.0 
0.0 0.0 0.0 
0.0 0.0 0.0 
0.0 0.0 0.0 
0.0 0.0 0.0 
0.0 0.0 0.0 
0.0 0.0 0.0 
0.0 0.0 0.0 
0.0 0.0 0.0 
0.0 0.0 0.0 
0.0 0.0 0.0 
0.0 0.0 0.0 
0.0 0.0 0.0 
0.0 0.0 0.0 
0.0 -1.000000000000e+02 0.0 
0.0 -1.000000000000e+02 0.0 
0.0 -1.000000000000e+02 0.0 
0.0 -1.000000000000e+02 0.0 
0.0 -1.000000000000e+02 0.0 
0.0 0.0 0.0 
0.0 0.0 0.0 
0.0 0.0 0.0 
0.0 0.0 0.0 
0.0 0.0 0.0 
0.0 0.0 0.0 
0.0 0.0 0.0 
0.0 0.0 0.0 
0.0 0.0 0.0 
0.0 0.0 0.0 
0.0 0.0 0.0 
0.0 0.0 0.0 
0.0 0.0 0.0 
0.0 0.0 0.0 
0.0 0.0 0.0 
0.0 0.0 0.0 
0.0 0.0 0.0 
0.0 0.0 0.0 
0.0 0.0 0.0 
0.0 0.0 0.0 
0.0 0.0 0.0 
0.0 0.0 0.0 
0.0 0.0 0.0 
0.0 0.0 0.0 
0.0 0.0 0.0 
0.0 0.0 0.0 
0.0 0.0 0.0 
0.0 0.0 0.0 
0.0 0.0 0.0 
0.0 0.0 0.0 
0.0 0.0 0.0 
0.0 0.0 0.0 
0.0 0.0 0.0 
0.0 0.0 0.0 
0.0 0.0 0.0 
0.0 0.0 0.0 
0.0 0.0 0.0 
0.0 0.0 0.0 
0.0 0.0 0.0 
0.0 0.0 0.0 
0.0 0.0 0.0 
0.0 0.0 0.0 
0.0 0.0 0.0 
0.0 0.0 0.0 
0.0 0.0 0.0 
0.0 0.0 0.0 
0.0 0.0 0.0 
0.0 0.0 0.0 
0.0 0.0 0.0 
0.0 0.0 0.0 
0.0 0.0 0.0 
0.0 0.0 0.0 
0.0 0.0 0.0 
0.0 0.0 0.0 
0.0 0.0 0.0 
0.0 0.0 0.0 
0.0 0.0 0.0 
0.0 0.0 0.0 
0.0 0.0 0.0 
0.0 0.0 0.0 
0.0 0.0 0.0 
0.0 0.0 0.0 
0.0 0.0 0.0 
0.0 0.0 0.0 
0.0 0.0 0.0 
0.0 0.0 0.0 
0.0 0.0 0.0 
0.0 0.0 0.0 
0.0 0.0 0.0 
0.0 0.0 0.0 
0.0 0.0 0.0 
0.0 0.0 0.0 
0.0 0.0 0.0 
0.0 0.0 0.0 
0.0 0.0 0.0 
0.0 0.0 0.0 
0.0 0.0 0.0 
0.0 0.0 0.0 
0.0 0.0 0.0 
0.0 0.0 0.0 
0.0 0.0 0.0 
0.0 0.0 0.0 
0.0 0.0 0.0 
0.0 0.0 0.0 
0.0 0.0 0.0 
0.0 0.0 0.0 
0.0 0.0 0.0 
0.0 0.0 0.0 
0.0 0.0 0.0 
0.0 0.0 0.0 
0.0 0.0 0.0 
0.0 0.0 0.0 
0.0 0.0 0.0 
0.0 0.0 0.0 
0.0 0.0 0.0 
0.0 0.0 0.0 
0.0 0.0 0.0 
0.0 0.0 0.0 
0.0 0.0 0.0 
0.0 0.0 0.0 
0.0 0.0 0.0 
0.0 0.0 0.0 
0.0 0.0 0.0 
0.0 0.0 0.0 
0.0 0.0 0.0 
0.0 0.0 0.0 
0.0 0.0 0.0 
0.0 0.0 0.0 
0.0 0.0 0.0 
0.0 0.0 0.0 
0.0 0.0 0.0 
0.0 0.0 0.0 
0.0 0.0 0.0 
0.0 0.0 0.0 
0.0 0.0 0.0 
0.0 0.0 0.0 
0.0 0.0 0.0 
0.0 0.0 0.0 
0.0 0.0 0.0 
0.0 0.0 0.0 
0.0 0.0 0.0 
0.0 0.0 0.0 
0.0 0.0 0.0 
0.0 0.0 0.0 
0.0 0.0 0.0 
0.0 0.0 0.0 
0.0 0.0 0.0 
0.0 0.0 0.0 
0.0 0.0 0.0 
0.0 0.0 0.0 
0.0 0.0 0.0 
0.0 0.0 0.0 
0.0 0.0 0.0 
0.0 0.0 0.0 
0.0 0.0 0.0 
0.0 0.0 0.0 
0.0 0.0 0.0 
0.0 0.0 0.0 
0.0 0.0 0.0 
0.0 0.0 0.0 
0.0 0.0 0.0 
0.0 0.0 0.0 
0.0 0.0 0.0 
0.0 0.0 0.0 
0.0 0.0 0.0 
0.0 0.0 0.0 
0.0 0.0 0.0 
0.0 0.0 0.0 
0.0 0.0 0.0 
0.0 0.0 0.0 
0.0 0.0 0.0 
0.0 0.0 0.0 
0.0 0.0 0.0 
0.0 0.0 0.0 
0.0 0.0 0.0 
0.0 0.0 0.0 
0.0 0.0 0.0 
0.0 0.0 0.0 
0.0 0.0 0.0 
0.0 0.0 0.0 
0.0 0.0 0.0 
0.0 0.0 0.0 
0.0 0.0 0.0 
0.0 0.0 0.0 
0.0 0.0 0.0 
0.0 0.0 0.0 
0.0 0.0 0.0 
0.0 0.0 0.0 
0.0 0.0 0.0 
0.0 0.0 0.0 
0.0 0.0 0.0 
0.0 0.0 0.0 
0.0 0.0 0.0 
0.0 0.0 0.0 
0.0 0.0 0.0 
0.0 0.0 0.0 
0.0 0.0 0.0 
0.0 0.0 0.0 
0.0 0.0 0.0 
0.0 0.0 0.0 
0.0 0.0 0.0 
0.0 0.0 0.0 
0.0 0.0 0.0 
0.0 0.0 0.0 
0.0 0.0 0.0 
0.0 0.0 0.0 
0.0 0.0 0.0 
0.0 0.0 0.0 
0.0 0.0 0.0 
0.0 0.0 0.0 
0.0 0.0 0.0 
0.0 0.0 0.0 
0.0 0.0 0.0 
0.0 0.0 0.0 
0.0 0.0 0.0 
0.0 0.0 0.0 
0.0 0.0 0.0 
0.0 0.0 0.0 
0.0 0.0 0.0 
0.0 0.0 0.0 
0.0 0.0 0.0 
0.0 0.0 0.0 
0.0 0.0 0.0 
0.0 0.0 0.0 
0.0 0.0 0.0 
0.0 0.0 0.0 
0.0 0.0 0.0 
0.0 0.0 0.0 
0.0 0.0 0.0 
0.0 0.0 0.0 
0.0 0.0 0.0 
0.0 0.0 0.0 
0.0 0.0 0.0 
0.0 0.0 0.0 
0.0 0.0 0.0 
0.0 0.0 0.0 
0.0 0.0 0.0 
0.0 0.0 0.0 
0.0 0.0 0.0 
0.0 0.0 0.0 
0.0 0.0 0.0 
0.0 0.0 0.0 
0.0 0.0 0.0 
0.0 0.0 0.0 
0.0 0.0 0.0 
0.0 0.0 0.0 
0.0 0.0 0.0 
0.0 0.0 0.0 
0.0 0.0 0.0 
0.0 0.0 0.0 
0.0 0.0 0.0 
0.0 0.0 0.0 
0.0 0.0 0.0 
0.0 0.0 0.0 
0.0 0.0 0.0 
0.0 0.0 0.0 
0.0 0.0 0.0 
0.0 0.0 0.0 
0.0 0.0 0.0 
0.0 0.0 0.0 
0.0 0.0 0.0 
0.0 0.0 0.0 
0.0 0.0 0.0 
0.0 0.0 0.0 
0.0 0.0 0.0 
0.0 0.0 0.0 
0.0 0.0 0.0 
0.0 0.0 0.0 
0.0 0.0 0.0 
0.0 0.0 0.0 
0.0 0.0 0.0 
0.0 0.0 0.0 
0.0 0.0 0.0 
0.0 0.0 0.0 
0.0 0.0 0.0 
0.0 0.0 0.0 
0.0 0.0 0.0 
0.0 0.0 0.0 
0.0 0.0 0.0 
0.0 0.0 0.0 
0.0 0.0 0.0 
0.0 0.0 0.0 
0.0 0.0 0.0 
0.0 0.0 0.0 
0.0 0.0 0.0 
0.0 0.0 0.0 
0.0 0.0 0.0 
0.0 0.0 0.0 
0.0 0.0 0.0 
0.0 0.0 0.0 
0.0 0.0 0.0 
0.0 0.0 0.0 
0.0 0.0 0.0 
0.0 0.0 0.0 
0.0 0.0 0.0 
0.0 0.0 0.0 
0.0 0.0 0.0 
0.0 0.0 0.0 
0.0 0.0 0.0 
0.0 0.0 0.0 
0.0 0.0 0.0 
0.0 0.0 0.0 
0.0 0.0 0.0 
0.0 0.0 0.0 
0.0 0.0 0.0 
0.0 0.0 0.0 
0.0 0.0 0.0 
0.0 0.0 0.0 
0.0 0.0 0.0 
0.0 0.0 0.0 
0.0 0.0 0.0 
0.0 0.0 0.0 
0.0 0.0 0.0 
0.0 0.0 0.0 
0.0 0.0 0.0 
0.0 0.0 0.0 
0.0 0.0 0.0 
0.0 0.0 0.0 
0.0 0.0 0.0 
0.0 0.0 0.0 
0.0 0.0 0.0 
0.0 0.0 0.0 
0.0 0.0 0.0 
0.0 0.0 0.0 
0.0 0.0 0.0 
0.0 0.0 0.0 
0.0 0.0 0.0 
0.0 0.0 0.0 
0.0 0.0 0.0 
0.0 0.0 0.0 
0.0 0.0 0.0 
0.0 0.0 0.0 
0.0 0.0 0.0 
0.0 0.0 0.0 
0.0 0.0 0.0 
0.0 0.0 0.0 
0.0 0.0 0.0 
0.0 0.0 0.0 
0.0 0.0 0.0 
0.0 0.0 0.0 
0.0 0.0 0.0 
0.0 0.0 0.0 
0.0 0.0 0.0 
0.0 0.0 0.0 
0.0 0.0 0.0 
0.0 0.0 0.0 
0.0 0.0 0.0 
0.0 0.0 0.0 
0.0 0.0 0.0 
0.0 0.0 0.0 
0.0 0.0 0.0 
0.0 0.0 0.0 
0.0 0.0 0.0 
0.0 0.0 0.0 
0.0 0.0 0.0 
0.0 0.0 0.0 
0.0 0.0 0.0 
0.0 0.0 0.0 
0.0 0.0 0.0 
0.0 0.0 0.0 
0.0 0.0 0.0 
0.0 0.0 0.0 
0.0 0.0 0.0 
0.0 0.0 0.0 
0.0 0.0 0.0 
0.0 0.0 0.0 
0.0 0.0 0.0 
0.0 0.0 0.0 
0.0 0.0 0.0 
0.0 0.0 0.0 
0.0 0.0 0.0 
0.0 0.0 0.0 
0.0 0.0 0.0 
0.0 0.0 0.0 
0.0 0.0 0.0 
0.0 0.0 0.0 
0.0 0.0 0.0 
0.0 0.0 0.0 
0.0 0.0 0.0 
0.0 0.0 0.0 
0.0 0.0 0.0 
0.0 0.0 0.0 
0.0 0.0 0.0 
0.0 0.0 0.0 
0.0 0.0 0.0 
0.0 0.0 0.0 
0.0 0.0 0.0 
0.0 0.0 0.0 
0.0 0.0 0.0 
0.0 0.0 0.0 
0.0 0.0 0.0 
0.0 0.0 0.0 
0.0 0.0 0.0 
0.0 0.0 0.0 
0.0 0.0 0.0 
0.0 0.0 0.0 
0.0 0.0 0.0 
0.0 0.0 0.0 
0.0 0.0 0.0 
0.0 0.0 0.0 
0.0 0.0 0.0 
0.0 0.0 0.0 
0.0 0.0 0.0 
0.0 0.0 0.0 
0.0 0.0 0.0 
0.0 0.0 0.0 
0.0 0.0 0.0 
0.0 0.0 0.0 
0.0 0.0 0.0 
0.0 0.0 0.0 
0.0 0.0 0.0 
0.0 0.0 0.0 
0.0 0.0 0.0 
0.0 0.0 0.0 
0.0 0.0 0.0 
0.0 0.0 0.0 
0.0 0.0 0.0 
0.0 0.0 0.0 
0.0 0.0 0.0 
0.0 0.0 0.0 
0.0 0.0 0.0 
0.0 0.0 0.0 
0.0 0.0 0.0 
0.0 0.0 0.0 
0.0 0.0 0.0 
0.0 0.0 0.0 
0.0 0.0 0.0 
0.0 0.0 0.0 
0.0 0.0 0.0 
0.0 0.0 0.0 
0.0 0.0 0.0 
0.0 0.0 0.0 
0.0 0.0 0.0 
0.0 0.0 0.0 
0.0 0.0 0.0 
0.0 0.0 0.0 
0.0 0.0 0.0 
0.0 0.0 0.0 
0.0 0.0 0.0 
0.0 0.0 0.0 
0.0 0.0 0.0 
0.0 0.0 0.0 
0.0 0.0 0.0 
0.0 0.0 0.0 
0.0 0.0 0.0 
0.0 0.0 0.0 
0.0 0.0 0.0 
0.0 0.0 0.0 
0.0 0.0 0.0 
0.0 0.0 0.0 
0.0 0.0 0.0 
0.0 0.0 0.0 
0.0 0.0 0.0 
0.0 0.0 0.0 
0.0 0.0 0.0 
0.0 0.0 0.0 
0.0 0.0 0.0 
0.0 0.0 0.0 
0.0 0.0 0.0 
0.0 0.0 0.0 
0.0 0.0 0.0 
0.0 0.0 0.0 
0.0 0.0 0.0 
0.0 0.0 0.0 
0.0 0.0 0.0 
0.0 0.0 0.0 
0.0 0.0 0.0 
0.0 0.0 0.0 
0.0 0.0 0.0 
0.0 0.0 0.0 
0.0 0.0 0.0 
0.0 0.0 0.0 
0.0 0.0 0.0 
0.0 0.0 0.0 
0.0 0.0 0.0 
0.0 0.0 0.0 
0.0 0.0 0.0 
0.0 0.0 0.0 
0.0 0.0 0.0 
0.0 0.0 0.0 
0.0 0.0 0.0 
0.0 0.0 0.0 
0.0 0.0 0.0 
0.0 0.0 0.0 
0.0 0.0 0.0 
0.0 0.0 0.0 
0.0 0.0 0.0 
0.0 0.0 0.0 
0.0 0.0 0.0 
0.0 0.0 0.0 
0.0 0.0 0.0 
0.0 0.0 0.0 
0.0 0.0 0.0 
0.0 0.0 0.0 
0.0 0.0 0.0 
0.0 0.0 0.0 
0.0 0.0 0.0 
0.0 0.0 0.0 
0.0 0.0 0.0 
0.0 0.0 0.0 
0.0 0.0 0.0 
0.0 0.0 0.0 
0.0 0.0 0.0 
0.0 0.0 0.0 
0.0 0.0 0.0 
0.0 0.0 0.0 
0.0 0.0 0.0 
0.0 0.0 0.0 
0.0 0.0 0.0 
0.0 0.0 0.0 
0.0 0.0 0.0 
0.0 0.0 0.0 
0.0 0.0 0.0 
0.0 0.0 0.0 
0.0 0.0 0.0 
0.0 0.0 0.0 
0.0 0.0 0.0 
0.0 0.0 0.0 
0.0 0.0 0.0 
0.0 0.0 0.0 
0.0 0.0 0.0 
0.0 0.0 0.0 
0.0 0.0 0.0 
0.0 0.0 0.0 
0.0 0.0 0.0 
0.0 0.0 0.0 
0.0 0.0 0.0 
0.0 0.0 0.0 
0.0 0.0 0.0 
0.0 0.0 0.0 
0.0 0.0 0.0 
0.0 0.0 0.0 
0.0 0.0 0.0 
0.0 0.0 0.0 
0.0 0.0 0.0 
0.0 0.0 0.0 
0.0 0.0 0.0 
0.0 0.0 0.0 
0.0 0.0 0.0 
0.0 0.0 0.0 
0.0 0.0 0.0 
0.0 0.0 0.0 
0.0 0.0 0.0 
0.0 0.0 0.0 
0.0 0.0 0.0 
0.0 0.0 0.0 
0.0 0.0 0.0 
0.0 0.0 0.0 
0.0 0.0 0.0 
0.0 0.0 0.0 
0.0 0.0 0.0 
0.0 0.0 0.0 
0.0 0.0 0.0 
0.0 0.0 0.0 
0.0 0.0 0.0 
0.0 0.0 0.0 
0.0 0.0 0.0 
0.0 0.0 0.0 
0.0 0.0 0.0 
0.0 0.0 0.0 
0.0 0.0 0.0 
0.0 0.0 0.0 
0.0 0.0 0.0 
0.0 0.0 0.0 
0.0 0.0 0.0 
0.0 0.0 0.0 
0.0 0.0 0.0 
0.0 0.0 0.0 
0.0 0.0 0.0 
0.0 0.0 0.0 
0.0 0.0 0.0 
0.0 0.0 0.0 
0.0 0.0 0.0 
0.0 0.0 0.0 
0.0 0.0 0.0 
0.0 0.0 0.0 
0.0 0.0 0.0 
0.0 0.0 0.0 
0.0 0.0 0.0 
0.0 0.0 0.0 
0.0 0.0 0.0 
0.0 0.0 0.0 
0.0 0.0 0.0 
0.0 0.0 0.0 
0.0 0.0 0.0 
0.0 0.0 0.0 
0.0 0.0 0.0 
0.0 0.0 0.0 
0.0 0.0 0.0 
0.0 0.0 0.0 
0.0 0.0 0.0 
0.0 0.0 0.0 
0.0 0.0 0.0 
0.0 0.0 0.0 
0.0 0.0 0.0 
0.0 0.0 0.0 
0.0 0.0 0.0 
0.0 0.0 0.0 
0.0 0.0 0.0 
0.0 0.0 0.0 
0.0 0.0 0.0 
0.0 0.0 0.0 
0.0 0.0 0.0 
0.0 0.0 0.0 
0.0 0.0 0.0 
0.0 0.0 0.0 
0.0 0.0 0.0 
0.0 0.0 0.0 
0.0 0.0 0.0 
0.0 0.0 0.0 
0.0 0.0 0.0 
0.0 0.0 0.0 
0.0 0.0 0.0 
0.0 0.0 0.0 
0.0 0.0 0.0 
0.0 0.0 0.0 
0.0 0.0 0.0 
0.0 0.0 0.0 
0.0 0.0 0.0 
0.0 0.0 0.0 
0.0 0.0 0.0 
0.0 0.0 0.0 
0.0 0.0 0.0 
0.0 0.0 0.0 
0.0 0.0 0.0 
0.0 0.0 0.0 
0.0 0.0 0.0 
0.0 0.0 0.0 
0.0 0.0 0.0 
0.0 0.0 0.0 
0.0 0.0 0.0 
0.0 0.0 0.0 
0.0 0.0 0.0 
0.0 0.0 0.0 
0.0 0.0 0.0 
0.0 0.0 0.0 
0.0 0.0 0.0 
0.0 0.0 0.0 
0.0 0.0 0.0 
0.0 0.0 0.0 
0.0 0.0 0.0 
0.0 0.0 0.0 
0.0 0.0 0.0 
0.0 0.0 0.0 
0.0 0.0 0.0 
0.0 0.0 0.0 
0.0 0.0 0.0 
0.0 0.0 0.0 
0.0 0.0 0.0 
0.0 0.0 0.0 
0.0 0.0 0.0 
0.0 0.0 0.0 
0.0 0.0 0.0 
0.0 0.0 0.0 
0.0 0.0 0.0 
0.0 0.0 0.0 
0.0 0.0 0.0 
0.0 0.0 0.0 
0.0 0.0 0.0 
0.0 0.0 0.0 
0.0 0.0 0.0 
0.0 0.0 0.0 
0.0 0.0 0.0 
0.0 0.0 0.0 
0.0 0.0 0.0 
0.0 0.0 0.0 
0.0 0.0 0.0 
0.0 0.0 0.0 
0.0 0.0 0.0 
0.0 0.0 0.0 
0.0 0.0 0.0 
0.0 0.0 0.0 
0.0 0.0 0.0 
0.0 0.0 0.0 
0.0 0.0 0.0 
0.0 0.0 0.0 
0.0 0.0 0.0 
0.0 0.0 0.0 
0.0 0.0 0.0 
0.0 0.0 0.0 
0.0 0.0 0.0 
0.0 0.0 0.0 
0.0 0.0 0.0 
0.0 0.0 0.0 
0.0 0.0 0.0 
0.0 0.0 0.0 
0.0 0.0 0.0 
0.0 0.0 0.0 
0.0 0.0 0.0 
0.0 0.0 0.0 
0.0 0.0 0.0 
0.0 0.0 0.0 
0.0 0.0 0.0 
0.0 0.0 0.0 
0.0 0.0 0.0 
0.0 0.0 0.0 
0.0 0.0 0.0 
0.0 0.0 0.0 
0.0 0.0 0.0 
0.0 0.0 0.0 
0.0 0.0 0.0 
0.0 0.0 0.0 
0.0 0.0 0.0 
0.0 0.0 0.0 
0.0 0.0 0.0 
0.0 0.0 0.0 
0.0 0.0 0.0 
0.0 0.0 0.0 
0.0 0.0 0.0 
0.0 0.0 0.0 
0.0 0.0 0.0 
0.0 0.0 0.0 
0.0 0.0 0.0 
0.0 0.0 0.0 
0.0 0.0 0.0 
0.0 0.0 0.0 
0.0 0.0 0.0 
0.0 0.0 0.0 
0.0 0.0 0.0 
0.0 0.0 0.0 
0.0 0.0 0.0 
0.0 0.0 0.0 
0.0 0.0 0.0 
0.0 0.0 0.0 
0.0 0.0 0.0 
0.0 0.0 0.0 
0.0 0.0 0.0 
0.0 0.0 0.0 
0.0 0.0 0.0 
0.0 0.0 0.0 
0.0 0.0 0.0 
0.0 0.0 0.0 
0.0 0.0 0.0 
0.0 0.0 0.0 
0.0 0.0 0.0 
0.0 0.0 0.0 
0.0 0.0 0.0 
0.0 0.0 0.0 
0.0 0.0 0.0 
0.0 0.0 0.0 
0.0 0.0 0.0 
0.0 0.0 0.0 
0.0 0.0 0.0 
0.0 0.0 0.0 
0.0 0.0 0.0 
0.0 0.0 0.0 
0.0 0.0 0.0 
0.0 0.0 0.0 
0.0 0.0 0.0 
0.0 0.0 0.0 
0.0 0.0 0.0 
0.0 0.0 0.0 
0.0 0.0 0.0 
0.0 0.0 0.0 
0.0 0.0 0.0 
0.0 0.0 0.0 
0.0 0.0 0.0 
0.0 0.0 0.0 
0.0 0.0 0.0 
0.0 0.0 0.0 
0.0 0.0 0.0 
0.0 0.0 0.0 
0.0 0.0 0.0 
0.0 0.0 0.0 
0.0 0.0 0.0 
0.0 0.0 0.0 
0.0 0.0 0.0 
0.0 0.0 0.0 
0.0 0.0 0.0 
0.0 0.0 0.0 
0.0 0.0 0.0 
0.0 0.0 0.0 
0.0 0.0 0.0 
0.0 0.0 0.0 
0.0 0.0 0.0 
0.0 0.0 0.0 
0.0 0.0 0.0 
0.0 0.0 0.0 
0.0 0.0 0.0 
0.0 0.0 0.0 
0.0 0.0 0.0 
0.0 0.0 0.0 
0.0 0.0 0.0 
0.0 0.0 0.0 
0.0 0.0 0.0 
0.0 0.0 0.0 
0.0 0.0 0.0 
0.0 0.0 0.0 
0.0 0.0 0.0 
0.0 0.0 0.0 
0.0 0.0 0.0 
0.0 0.0 0.0 
0.0 0.0 0.0 
0.0 0.0 0.0 
0.0 0.0 0.0 
0.0 0.0 0.0 
0.0 0.0 0.0 
0.0 0.0 0.0 
0.0 0.0 0.0 
0.0 0.0 0.0 
0.0 0.0 0.0 
0.0 0.0 0.0 
0.0 0.0 0.0 
0.0 0.0 0.0 
0.0 0.0 0.0 
0.0 0.0 0.0 
0.0 0.0 0.0 
0.0 0.0 0.0 
0.0 0.0 0.0 
0.0 0.0 0.0 
0.0 0.0 0.0 
0.0 0.0 0.0 
0.0 0.0 0.0 
0.0 0.0 0.0 
0.0 0.0 0.0 
0.0 0.0 0.0 
0.0 0.0 0.0 
0.0 0.0 0.0 
0.0 0.0 0.0 
0.0 0.0 0.0 
0.0 0.0 0.0 
0.0 0.0 0.0 
0.0 0.0 0.0 
0.0 0.0 0.0 
0.0 0.0 0.0 
0.0 0.0 0.0 
0.0 0.0 0.0 
0.0 0.0 0.0 
0.0 0.0 0.0 
0.0 0.0 0.0 
0.0 0.0 0.0 
0.0 0.0 0.0 
0.0 0.0 0.0 
0.0 0.0 0.0 
0.0 0.0 0.0 
0.0 0.0 0.0 
0.0 0.0 0.0 
0.0 0.0 0.0 
0.0 0.0 0.0 
0.0 0.0 0.0 
0.0 0.0 0.0 
0.0 0.0 0.0 
0.0 0.0 0.0 
0.0 0.0 0.0 
0.0 0.0 0.0 
0.0 0.0 0.0 
0.0 0.0 0.0 
0.0 0.0 0.0 
0.0 0.0 0.0 
0.0 0.0 0.0 
0.0 0.0 0.0 
0.0 0.0 0.0 
0.0 0.0 0.0 
0.0 0.0 0.0 
0.0 0.0 0.0 
0.0 0.0 0.0 
0.0 0.0 0.0 
0.0 0.0 0.0 
0.0 0.0 0.0 
0.0 0.0 0.0 
0.0 0.0 0.0 
0.0 0.0 0.0 
0.0 0.0 0.0 
0.0 0.0 0.0 
0.0 0.0 0.0 
0.0 0.0 0.0 
0.0 0.0 0.0 
0.0 0.0 0.0 
0.0 0.0 0.0 
0.0 0.0 0.0 
0.0 0.0 0.0 
0.0 0.0 0.0 
0.0 0.0 0.0 
0.0 0.0 0.0 
0.0 0.0 0.0 
0.0 0.0 0.0 
0.0 0.0 0.0 
0.0 0.0 0.0 
0.0 0.0 0.0 
0.0 0.0 0.0 
0.0 0.0 0.0 
0.0 0.0 0.0 
0.0 0.0 0.0 
0.0 0.0 0.0 
0.0 0.0 0.0 
0.0 0.0 0.0 
0.0 0.0 0.0 
0.0 0.0 0.0 
0.0 0.0 0.0 
0.0 0.0 0.0 
0.0 0.0 0.0 
0.0 0.0 0.0 
0.0 0.0 0.0 
0.0 0.0 0.0 
0.0 0.0 0.0 
0.0 0.0 0.0 
0.0 0.0 0.0 
0.0 0.0 0.0 
0.0 0.0 0.0 
0.0 0.0 0.0 
0.0 0.0 0.0 
0.0 0.0 0.0 
0.0 0.0 0.0 
0.0 0.0 0.0 
0.0 0.0 0.0 
0.0 0.0 0.0 
0.0 0.0 0.0 
0.0 0.0 0.0 
0.0 0.0 0.0 
0.0 0.0 0.0 
0.0 0.0 0.0 
0.0 0.0 0.0 
0.0 0.0 0.0 
0.0 0.0 0.0 
0.0 0.0 0.0 
0.0 0.0 0.0 
0.0 0.0 0.0 
0.0 0.0 0.0 
0.0 0.0 0.0 
0.0 0.0 0.0 
0.0 0.0 0.0 
0.0 0.0 0.0 
0.0 0.0 0.0 
0.0 0.0 0.0 
0.0 0.0 0.0 
0.0 0.0 0.0 
0.0 0.0 0.0 
0.0 0.0 0.0 
0.0 0.0 0.0 
0.0 0.0 0.0 
0.0 0.0 0.0 
0.0 0.0 0.0 
0.0 0.0 0.0 
0.0 0.0 0.0 
0.0 0.0 0.0 
0.0 0.0 0.0 
0.0 0.0 0.0 
0.0 0.0 0.0 
0.0 0.0 0.0 
0.0 0.0 0.0 
0.0 0.0 0.0 
0.0 0.0 0.0 
0.0 0.0 0.0 
0.0 0.0 0.0 
0.0 0.0 0.0 
0.0 0.0 0.0 
0.0 0.0 0.0 
0.0 0.0 0.0 
0.0 0.0 0.0 
0.0 0.0 0.0 
0.0 0.0 0.0 
0.0 0.0 0.0 
0.0 0.0 0.0 
0.0 0.0 0.0 
0.0 0.0 0.0 

VECTORS node_force_gravity float
0.0 -1.962000000000e+01 0.0 
0.0 -1.962000000000e+01 0.0 
0.0 -1.962000000000e+01 0.0 
0.0 -1.962000000000e+01 0.0 
0.0 -1.962000000000e+01 0.0 
0.0 -1.962000000000e+01 0.0 
0.0 -1.962000000000e+01 0.0 
0.0 -1.962000000000e+01 0.0 
0.0 -1.962000000000e+01 0.0 
0.0 -1.962000000000e+01 0.0 
0.0 -1.962000000000e+01 0.0 
0.0 -1.962000000000e+01 0.0 
0.0 -1.962000000000e+01 0.0 
0.0 -1.962000000000e+01 0.0 
0.0 -1.962000000000e+01 0.0 
0.0 -1.962000000000e+01 0.0 
0.0 -1.962000000000e+01 0.0 
0.0 -1.962000000000e+01 0.0 
0.0 -1.962000000000e+01 0.0 
0.0 -1.962000000000e+01 0.0 
0.0 -1.962000000000e+01 0.0 
0.0 -1.962000000000e+01 0.0 
0.0 -1.962000000000e+01 0.0 
0.0 -1.962000000000e+01 0.0 
0.0 -1.962000000000e+01 0.0 
0.0 -1.962000000000e+01 0.0 
0.0 -1.962000000000e+01 0.0 
0.0 -1.962000000000e+01 0.0 
0.0 -1.962000000000e+01 0.0 
0.0 -1.962000000000e+01 0.0 
0.0 -1.962000000000e+01 0.0 
0.0 -1.962000000000e+01 0.0 
0.0 -1.962000000000e+01 0.0 
0.0 -1.962000000000e+01 0.0 
0.0 -1.962000000000e+01 0.0 
0.0 -1.962000000000e+01 0.0 
0.0 -1.962000000000e+01 0.0 
0.0 -1.962000000000e+01 0.0 
0.0 -1.962000000000e+01 0.0 
0.0 -1.962000000000e+01 0.0 
0.0 -1.962000000000e+01 0.0 
0.0 -1.962000000000e+01 0.0 
0.0 -1.962000000000e+01 0.0 
0.0 -1.962000000000e+01 0.0 
0.0 -1.962000000000e+01 0.0 
0.0 -1.962000000000e+01 0.0 
0.0 -1.962000000000e+01 0.0 
0.0 -1.962000000000e+01 0.0 
0.0 -1.962000000000e+01 0.0 
0.0 -1.962000000000e+01 0.0 
0.0 -1.962000000000e+01 0.0 
0.0 -1.962000000000e+01 0.0 
0.0 -1.962000000000e+01 0.0 
0.0 -1.962000000000e+01 0.0 
0.0 -1.962000000000e+01 0.0 
0.0 -1.962000000000e+01 0.0 
0.0 -1.962000000000e+01 0.0 
0.0 -1.962000000000e+01 0.0 
0.0 -1.962000000000e+01 0.0 
0.0 -1.962000000000e+01 0.0 
0.0 -1.962000000000e+01 0.0 
0.0 -1.962000000000e+01 0.0 
0.0 -1.962000000000e+01 0.0 
0.0 -1.962000000000e+01 0.0 
0.0 -1.962000000000e+01 0.0 
0.0 -1.962000000000e+01 0.0 
0.0 -1.962000000000e+01 0.0 
0.0 -1.962000000000e+01 0.0 
0.0 -1.962000000000e+01 0.0 
0.0 -1.962000000000e+01 0.0 
0.0 -1.962000000000e+01 0.0 
0.0 -1.962000000000e+01 0.0 
0.0 -1.962000000000e+01 0.0 
0.0 -1.962000000000e+01 0.0 
0.0 -1.962000000000e+01 0.0 
0.0 -1.962000000000e+01 0.0 
0.0 -1.962000000000e+01 0.0 
0.0 -1.962000000000e+01 0.0 
0.0 -1.962000000000e+01 0.0 
0.0 -1.962000000000e+01 0.0 
0.0 -1.962000000000e+01 0.0 
0.0 -1.962000000000e+01 0.0 
0.0 -1.962000000000e+01 0.0 
0.0 -1.962000000000e+01 0.0 
0.0 -1.962000000000e+01 0.0 
0.0 -1.962000000000e+01 0.0 
0.0 -1.962000000000e+01 0.0 
0.0 -1.962000000000e+01 0.0 
0.0 -1.962000000000e+01 0.0 
0.0 -1.962000000000e+01 0.0 
0.0 -1.962000000000e+01 0.0 
0.0 -1.962000000000e+01 0.0 
0.0 -1.962000000000e+01 0.0 
0.0 -1.962000000000e+01 0.0 
0.0 -1.962000000000e+01 0.0 
0.0 -1.962000000000e+01 0.0 
0.0 -1.962000000000e+01 0.0 
0.0 -1.962000000000e+01 0.0 
0.0 -1.962000000000e+01 0.0 
0.0 -1.962000000000e+01 0.0 
0.0 -1.962000000000e+01 0.0 
0.0 -1.962000000000e+01 0.0 
0.0 -1.962000000000e+01 0.0 
0.0 -1.962000000000e+01 0.0 
0.0 -1.962000000000e+01 0.0 
0.0 -1.962000000000e+01 0.0 
0.0 -1.962000000000e+01 0.0 
0.0 -1.962000000000e+01 0.0 
0.0 -1.962000000000e+01 0.0 
0.0 -1.962000000000e+01 0.0 
0.0 -1.962000000000e+01 0.0 
0.0 -1.962000000000e+01 0.0 
0.0 -1.962000000000e+01 0.0 
0.0 -1.962000000000e+01 0.0 
0.0 -1.962000000000e+01 0.0 
0.0 -1.962000000000e+01 0.0 
0.0 -1.962000000000e+01 0.0 
0.0 -1.962000000000e+01 0.0 
0.0 -1.962000000000e+01 0.0 
0.0 -1.962000000000e+01 0.0 
0.0 -1.962000000000e+01 0.0 
0.0 -1.962000000000e+01 0.0 
0.0 -1.962000000000e+01 0.0 
0.0 -1.962000000000e+01 0.0 
0.0 -1.962000000000e+01 0.0 
0.0 -1.962000000000e+01 0.0 
0.0 -1.962000000000e+01 0.0 
0.0 -1.962000000000e+01 0.0 
0.0 -1.962000000000e+01 0.0 
0.0 -1.962000000000e+01 0.0 
0.0 -1.962000000000e+01 0.0 
0.0 -1.962000000000e+01 0.0 
0.0 -1.962000000000e+01 0.0 
0.0 -1.962000000000e+01 0.0 
0.0 -1.962000000000e+01 0.0 
0.0 -1.962000000000e+01 0.0 
0.0 -1.962000000000e+01 0.0 
0.0 -1.962000000000e+01 0.0 
0.0 -1.962000000000e+01 0.0 
0.0 -1.962000000000e+01 0.0 
0.0 -1.962000000000e+01 0.0 
0.0 -1.962000000000e+01 0.0 
0.0 -1.962000000000e+01 0.0 
0.0 -1.962000000000e+01 0.0 
0.0 -1.962000000000e+01 0.0 
0.0 -1.962000000000e+01 0.0 
0.0 -1.962000000000e+01 0.0 
0.0 -1.962000000000e+01 0.0 
0.0 -1.962000000000e+01 0.0 
0.0 -1.962000000000e+01 0.0 
0.0 -1.962000000000e+01 0.0 
0.0 -1.962000000000e+01 0.0 
0.0 -1.962000000000e+01 0.0 
0.0 -1.962000000000e+01 0.0 
0.0 -1.962000000000e+01 0.0 
0.0 -1.962000000000e+01 0.0 
0.0 -1.962000000000e+01 0.0 
0.0 -1.962000000000e+01 0.0 
0.0 -1.962000000000e+01 0.0 
0.0 -1.962000000000e+01 0.0 
0.0 -1.962000000000e+01 0.0 
0.0 -1.962000000000e+01 0.0 
0.0 -1.962000000000e+01 0.0 
0.0 -1.962000000000e+01 0.0 
0.0 -1.962000000000e+01 0.0 
0.0 -1.962000000000e+01 0.0 
0.0 -1.962000000000e+01 0.0 
0.0 -1.962000000000e+01 0.0 
0.0 -1.962000000000e+01 0.0 
0.0 -1.962000000000e+01 0.0 
0.0 -1.962000000000e+01 0.0 
0.0 -1.962000000000e+01 0.0 
0.0 -1.962000000000e+01 0.0 
0.0 -1.962000000000e+01 0.0 
0.0 -1.962000000000e+01 0.0 
0.0 -1.962000000000e+01 0.0 
0.0 -1.962000000000e+01 0.0 
0.0 -1.962000000000e+01 0.0 
0.0 -1.962000000000e+01 0.0 
0.0 -1.962000000000e+01 0.0 
0.0 -1.962000000000e+01 0.0 
0.0 -1.962000000000e+01 0.0 
0.0 -1.962000000000e+01 0.0 
0.0 -1.962000000000e+01 0.0 
0.0 -1.962000000000e+01 0.0 
0.0 -1.962000000000e+01 0.0 
0.0 -1.962000000000e+01 0.0 
0.0 -1.962000000000e+01 0.0 
0.0 -1.962000000000e+01 0.0 
0.0 -1.962000000000e+01 0.0 
0.0 -1.962000000000e+01 0.0 
0.0 -1.962000000000e+01 0.0 
0.0 -1.962000000000e+01 0.0 
0.0 -1.962000000000e+01 0.0 
0.0 -1.962000000000e+01 0.0 
0.0 -1.962000000000e+01 0.0 
0.0 -1.962000000000e+01 0.0 
0.0 -1.962000000000e+01 0.0 
0.0 -1.962000000000e+01 0.0 
0.0 -1.962000000000e+01 0.0 
0.0 -1.962000000000e+01 0.0 
0.0 -1.962000000000e+01 0.0 
0.0 -1.962000000000e+01 0.0 
0.0 -1.962000000000e+01 0.0 
0.0 -1.962000000000e+01 0.0 
0.0 -1.962000000000e+01 0.0 
0.0 -1.962000000000e+01 0.0 
0.0 -1.962000000000e+01 0.0 
0.0 -1.962000000000e+01 0.0 
0.0 -1.962000000000e+01 0.0 
0.0 -1.962000000000e+01 0.0 
0.0 -1.962000000000e+01 0.0 
0.0 -1.962000000000e+01 0.0 
0.0 -1.962000000000e+01 0.0 
0.0 -1.962000000000e+01 0.0 
0.0 -1.962000000000e+01 0.0 
0.0 -1.962000000000e+01 0.0 
0.0 -1.962000000000e+01 0.0 
0.0 -1.962000000000e+01 0.0 
0.0 -1.962000000000e+01 0.0 
0.0 -1.962000000000e+01 0.0 
0.0 -1.962000000000e+01 0.0 
0.0 -1.962000000000e+01 0.0 
0.0 -1.962000000000e+01 0.0 
0.0 -1.962000000000e+01 0.0 
0.0 -1.962000000000e+01 0.0 
0.0 -1.962000000000e+01 0.0 
0.0 -1.962000000000e+01 0.0 
0.0 -1.962000000000e+01 0.0 
0.0 -1.962000000000e+01 0.0 
0.0 -1.962000000000e+01 0.0 
0.0 -1.962000000000e+01 0.0 
0.0 -1.962000000000e+01 0.0 
0.0 -1.962000000000e+01 0.0 
0.0 -1.962000000000e+01 0.0 
0.0 -1.962000000000e+01 0.0 
0.0 -1.962000000000e+01 0.0 
0.0 -1.962000000000e+01 0.0 
0.0 -1.962000000000e+01 0.0 
0.0 -1.962000000000e+01 0.0 
0.0 -1.962000000000e+01 0.0 
0.0 -1.962000000000e+01 0.0 
0.0 -1.962000000000e+01 0.0 
0.0 -1.962000000000e+01 0.0 
0.0 -1.962000000000e+01 0.0 
0.0 -1.962000000000e+01 0.0 
0.0 -1.962000000000e+01 0.0 
0.0 -1.962000000000e+01 0.0 
0.0 -1.962000000000e+01 0.0 
0.0 -1.962000000000e+01 0.0 
0.0 -1.962000000000e+01 0.0 
0.0 -1.962000000000e+01 0.0 
0.0 -1.962000000000e+01 0.0 
0.0 -1.962000000000e+01 0.0 
0.0 -1.962000000000e+01 0.0 
0.0 -1.962000000000e+01 0.0 
0.0 -1.962000000000e+01 0.0 
0.0 -1.962000000000e+01 0.0 
0.0 -1.962000000000e+01 0.0 
0.0 -1.962000000000e+01 0.0 
0.0 -1.962000000000e+01 0.0 
0.0 -1.962000000000e+01 0.0 
0.0 -1.962000000000e+01 0.0 
0.0 -1.962000000000e+01 0.0 
0.0 -1.962000000000e+01 0.0 
0.0 -1.962000000000e+01 0.0 
0.0 -1.962000000000e+01 0.0 
0.0 -1.962000000000e+01 0.0 
0.0 -1.962000000000e+01 0.0 
0.0 -1.962000000000e+01 0.0 
0.0 -1.962000000000e+01 0.0 
0.0 -1.962000000000e+01 0.0 
0.0 -1.962000000000e+01 0.0 
0.0 -1.962000000000e+01 0.0 
0.0 -1.962000000000e+01 0.0 
0.0 -1.962000000000e+01 0.0 
0.0 -1.962000000000e+01 0.0 
0.0 -1.962000000000e+01 0.0 
0.0 -1.962000000000e+01 0.0 
0.0 -1.962000000000e+01 0.0 
0.0 -1.962000000000e+01 0.0 
0.0 -1.962000000000e+01 0.0 
0.0 -1.962000000000e+01 0.0 
0.0 -1.962000000000e+01 0.0 
0.0 -1.962000000000e+01 0.0 
0.0 -1.962000000000e+01 0.0 
0.0 -1.962000000000e+01 0.0 
0.0 -1.962000000000e+01 0.0 
0.0 -1.962000000000e+01 0.0 
0.0 -1.962000000000e+01 0.0 
0.0 -1.962000000000e+01 0.0 
0.0 -1.962000000000e+01 0.0 
0.0 -1.962000000000e+01 0.0 
0.0 -1.962000000000e+01 0.0 
0.0 -1.962000000000e+01 0.0 
0.0 -1.962000000000e+01 0.0 
0.0 -1.962000000000e+01 0.0 
0.0 -1.962000000000e+01 0.0 
0.0 -1.962000000000e+01 0.0 
0.0 -1.962000000000e+01 0.0 
0.0 -1.962000000000e+01 0.0 
0.0 -1.962000000000e+01 0.0 
0.0 -1.962000000000e+01 0.0 
0.0 -1.962000000000e+01 0.0 
0.0 -1.962000000000e+01 0.0 
0.0 -1.962000000000e+01 0.0 
0.0 -1.962000000000e+01 0.0 
0.0 -1.962000000000e+01 0.0 
0.0 -1.962000000000e+01 0.0 
0.0 -1.962000000000e+01 0.0 
0.0 -1.962000000000e+01 0.0 
0.0 -1.962000000000e+01 0.0 
0.0 -1.962000000000e+01 0.0 
0.0 -1.962000000000e+01 0.0 
0.0 -1.962000000000e+01 0.0 
0.0 -1.962000000000e+01 0.0 
0.0 -1.962000000000e+01 0.0 
0.0 -1.962000000000e+01 0.0 
0.0 -1.962000000000e+01 0.0 
0.0 -1.962000000000e+01 0.0 
0.0 -1.962000000000e+01 0.0 
0.0 -1.962000000000e+01 0.0 
0.0 -1.962000000000e+01 0.0 
0.0 -1.962000000000e+01 0.0 
0.0 -1.962000000000e+01 0.0 
0.0 -1.962000000000e+01 0.0 
0.0 -1.962000000000e+01 0.0 
0.0 -1.962000000000e+01 0.0 
0.0 -1.962000000000e+01 0.0 
0.0 -1.962000000000e+01 0.0 
0.0 -1.962000000000e+01 0.0 
0.0 -1.962000000000e+01 0.0 
0.0 -1.962000000000e+01 0.0 
0.0 -1.962000000000e+01 0.0 
0.0 -1.962000000000e+01 0.0 
0.0 -1.962000000000e+01 0.0 
0.0 -1.962000000000e+01 0.0 
0.0 -1.962000000000e+01 0.0 
0.0 -1.962000000000e+01 0.0 
0.0 -1.962000000000e+01 0.0 
0.0 -1.962000000000e+01 0.0 
0.0 -1.962000000000e+01 0.0 
0.0 -1.962000000000e+01 0.0 
0.0 -1.962000000000e+01 0.0 
0.0 -1.962000000000e+01 0.0 
0.0 -1.962000000000e+01 0.0 
0.0 -1.962000000000e+01 0.0 
0.0 -1.962000000000e+01 0.0 
0.0 -1.962000000000e+01 0.0 
0.0 -1.962000000000e+01 0.0 
0.0 -1.962000000000e+01 0.0 
0.0 -1.962000000000e+01 0.0 
0.0 -1.962000000000e+01 0.0 
0.0 -1.962000000000e+01 0.0 
0.0 -1.962000000000e+01 0.0 
0.0 -1.962000000000e+01 0.0 
0.0 -1.962000000000e+01 0.0 
0.0 -1.962000000000e+01 0.0 
0.0 -1.962000000000e+01 0.0 
0.0 -1.962000000000e+01 0.0 
0.0 -1.962000000000e+01 0.0 
0.0 -1.962000000000e+01 0.0 
0.0 -1.962000000000e+01 0.0 
0.0 -1.962000000000e+01 0.0 
0.0 -1.962000000000e+01 0.0 
0.0 -1.962000000000e+01 0.0 
0.0 -1.962000000000e+01 0.0 
0.0 -1.962000000000e+01 0.0 
0.0 -1.962000000000e+01 0.0 
0.0 -1.962000000000e+01 0.0 
0.0 -1.962000000000e+01 0.0 
0.0 -1.962000000000e+01 0.0 
0.0 -1.962000000000e+01 0.0 
0.0 -1.962000000000e+01 0.0 
0.0 -1.962000000000e+01 0.0 
0.0 -1.962000000000e+01 0.0 
0.0 -1.962000000000e+01 0.0 
0.0 -1.962000000000e+01 0.0 
0.0 -1.962000000000e+01 0.0 
0.0 -1.962000000000e+01 0.0 
0.0 -1.962000000000e+01 0.0 
0.0 -1.962000000000e+01 0.0 
0.0 -1.962000000000e+01 0.0 
0.0 -1.962000000000e+01 0.0 
0.0 -1.962000000000e+01 0.0 
0.0 -1.962000000000e+01 0.0 
0.0 -1.962000000000e+01 0.0 
0.0 -1.962000000000e+01 0.0 
0.0 -1.962000000000e+01 0.0 
0.0 -1.962000000000e+01 0.0 
0.0 -1.962000000000e+01 0.0 
0.0 -1.962000000000e+01 0.0 
0.0 -1.962000000000e+01 0.0 
0.0 -1.962000000000e+01 0.0 
0.0 -1.962000000000e+01 0.0 
0.0 -1.962000000000e+01 0.0 
0.0 -1.962000000000e+01 0.0 
0.0 -1.962000000000e+01 0.0 
0.0 -1.962000000000e+01 0.0 
0.0 -1.962000000000e+01 0.0 
0.0 -1.962000000000e+01 0.0 
0.0 -1.962000000000e+01 0.0 
0.0 -1.962000000000e+01 0.0 
0.0 -1.962000000000e+01 0.0 
0.0 -1.962000000000e+01 0.0 
0.0 -1.962000000000e+01 0.0 
0.0 -1.962000000000e+01 0.0 
0.0 -1.962000000000e+01 0.0 
0.0 -1.962000000000e+01 0.0 
0.0 -1.962000000000e+01 0.0 
0.0 -1.962000000000e+01 0.0 
0.0 -1.962000000000e+01 0.0 
0.0 -1.962000000000e+01 0.0 
0.0 -1.962000000000e+01 0.0 
0.0 -1.962000000000e+01 0.0 
0.0 -1.962000000000e+01 0.0 
0.0 -1.962000000000e+01 0.0 
0.0 -1.962000000000e+01 0.0 
0.0 -1.962000000000e+01 0.0 
0.0 -1.962000000000e+01 0.0 
0.0 -1.962000000000e+01 0.0 
0.0 -1.962000000000e+01 0.0 
0.0 -1.962000000000e+01 0.0 
0.0 -1.962000000000e+01 0.0 
0.0 -1.962000000000e+01 0.0 
0.0 -1.962000000000e+01 0.0 
0.0 -1.962000000000e+01 0.0 
0.0 -1.962000000000e+01 0.0 
0.0 -1.962000000000e+01 0.0 
0.0 -1.962000000000e+01 0.0 
0.0 -1.962000000000e+01 0.0 
0.0 -1.962000000000e+01 0.0 
0.0 -1.962000000000e+01 0.0 
0.0 -1.962000000000e+01 0.0 
0.0 -1.962000000000e+01 0.0 
0.0 -1.962000000000e+01 0.0 
0.0 -1.962000000000e+01 0.0 
0.0 -1.962000000000e+01 0.0 
0.0 -1.962000000000e+01 0.0 
0.0 -1.962000000000e+01 0.0 
0.0 -1.962000000000e+01 0.0 
0.0 -1.962000000000e+01 0.0 
0.0 -1.962000000000e+01 0.0 
0.0 -1.962000000000e+01 0.0 
0.0 -1.962000000000e+01 0.0 
0.0 -1.962000000000e+01 0.0 
0.0 -1.962000000000e+01 0.0 
0.0 -1.962000000000e+01 0.0 
0.0 -1.962000000000e+01 0.0 
0.0 -1.962000000000e+01 0.0 
0.0 -1.962000000000e+01 0.0 
0.0 -1.962000000000e+01 0.0 
0.0 -1.962000000000e+01 0.0 
0.0 -1.962000000000e+01 0.0 
0.0 -1.962000000000e+01 0.0 
0.0 -1.962000000000e+01 0.0 
0.0 -1.962000000000e+01 0.0 
0.0 -1.962000000000e+01 0.0 
0.0 -1.962000000000e+01 0.0 
0.0 -1.962000000000e+01 0.0 
0.0 -1.962000000000e+01 0.0 
0.0 -1.962000000000e+01 0.0 
0.0 -1.962000000000e+01 0.0 
0.0 -1.962000000000e+01 0.0 
0.0 -1.962000000000e+01 0.0 
0.0 -1.962000000000e+01 0.0 
0.0 -1.962000000000e+01 0.0 
0.0 -1.962000000000e+01 0.0 
0.0 -1.962000000000e+01 0.0 
0.0 -1.962000000000e+01 0.0 
0.0 -1.962000000000e+01 0.0 
0.0 -1.962000000000e+01 0.0 
0.0 -1.962000000000e+01 0.0 
0.0 -1.962000000000e+01 0.0 
0.0 -1.962000000000e+01 0.0 
0.0 -1.962000000000e+01 0.0 
0.0 -1.962000000000e+01 0.0 
0.0 -1.962000000000e+01 0.0 
0.0 -1.962000000000e+01 0.0 
0.0 -1.962000000000e+01 0.0 
0.0 -1.962000000000e+01 0.0 
0.0 -1.962000000000e+01 0.0 
0.0 -1.962000000000e+01 0.0 
0.0 -1.962000000000e+01 0.0 
0.0 -1.962000000000e+01 0.0 
0.0 -1.962000000000e+01 0.0 
0.0 -1.962000000000e+01 0.0 
0.0 -1.962000000000e+01 0.0 
0.0 -1.962000000000e+01 0.0 
0.0 -1.962000000000e+01 0.0 
0.0 -1.962000000000e+01 0.0 
0.0 -1.962000000000e+01 0.0 
0.0 -1.962000000000e+01 0.0 
0.0 -1.962000000000e+01 0.0 
0.0 -1.962000000000e+01 0.0 
0.0 -1.962000000000e+01 0.0 
0.0 -1.962000000000e+01 0.0 
0.0 -1.962000000000e+01 0.0 
0.0 -1.962000000000e+01 0.0 
0.0 -1.962000000000e+01 0.0 
0.0 -1.962000000000e+01 0.0 
0.0 -1.962000000000e+01 0.0 
0.0 -1.962000000000e+01 0.0 
0.0 -1.962000000000e+01 0.0 
0.0 -1.962000000000e+01 0.0 
0.0 -1.962000000000e+01 0.0 
0.0 -1.962000000000e+01 0.0 
0.0 -1.962000000000e+01 0.0 
0.0 -1.962000000000e+01 0.0 
0.0 -1.962000000000e+01 0.0 
0.0 -1.962000000000e+01 0.0 
0.0 -1.962000000000e+01 0.0 
0.0 -1.962000000000e+01 0.0 
0.0 -1.962000000000e+01 0.0 
0.0 -1.962000000000e+01 0.0 
0.0 -1.962000000000e+01 0.0 
0.0 -1.962000000000e+01 0.0 
0.0 -1.962000000000e+01 0.0 
0.0 -1.962000000000e+01 0.0 
0.0 -1.962000000000e+01 0.0 
0.0 -1.962000000000e+01 0.0 
0.0 -1.962000000000e+01 0.0 
0.0 -1.962000000000e+01 0.0 
0.0 -1.962000000000e+01 0.0 
0.0 -1.962000000000e+01 0.0 
0.0 -1.962000000000e+01 0.0 
0.0 -1.962000000000e+01 0.0 
0.0 -1.962000000000e+01 0.0 
0.0 -1.962000000000e+01 0.0 
0.0 -1.962000000000e+01 0.0 
0.0 -1.962000000000e+01 0.0 
0.0 -1.962000000000e+01 0.0 
0.0 -1.962000000000e+01 0.0 
0.0 -1.962000000000e+01 0.0 
0.0 -1.962000000000e+01 0.0 
0.0 -1.962000000000e+01 0.0 
0.0 -1.962000000000e+01 0.0 
0.0 -1.962000000000e+01 0.0 
0.0 -1.962000000000e+01 0.0 
0.0 -1.962000000000e+01 0.0 
0.0 -1.962000000000e+01 0.0 
0.0 -1.962000000000e+01 0.0 
0.0 -1.962000000000e+01 0.0 
0.0 -1.962000000000e+01 0.0 
0.0 -1.962000000000e+01 0.0 
0.0 -1.962000000000e+01 0.0 
0.0 -1.962000000000e+01 0.0 
0.0 -1.962000000000e+01 0.0 
0.0 -1.962000000000e+01 0.0 
0.0 -1.962000000000e+01 0.0 
0.0 -1.962000000000e+01 0.0 
0.0 -1.962000000000e+01 0.0 
0.0 -1.962000000000e+01 0.0 
0.0 -1.962000000000e+01 0.0 
0.0 -1.962000000000e+01 0.0 
0.0 -1.962000000000e+01 0.0 
0.0 -1.962000000000e+01 0.0 
0.0 -1.962000000000e+01 0.0 
0.0 -1.962000000000e+01 0.0 
0.0 -1.962000000000e+01 0.0 
0.0 -1.962000000000e+01 0.0 
0.0 -1.962000000000e+01 0.0 
0.0 -1.962000000000e+01 0.0 
0.0 -1.962000000000e+01 0.0 
0.0 -1.962000000000e+01 0.0 
0.0 -1.962000000000e+01 0.0 
0.0 -1.962000000000e+01 0.0 
0.0 -1.962000000000e+01 0.0 
0.0 -1.962000000000e+01 0.0 
0.0 -1.962000000000e+01 0.0 
0.0 -1.962000000000e+01 0.0 
0.0 -1.962000000000e+01 0.0 
0.0 -1.962000000000e+01 0.0 
0.0 -1.962000000000e+01 0.0 
0.0 -1.962000000000e+01 0.0 
0.0 -1.962000000000e+01 0.0 
0.0 -1.962000000000e+01 0.0 
0.0 -1.962000000000e+01 0.0 
0.0 -1.962000000000e+01 0.0 
0.0 -1.962000000000e+01 0.0 
0.0 -1.962000000000e+01 0.0 
0.0 -1.962000000000e+01 0.0 
0.0 -1.962000000000e+01 0.0 
0.0 -1.962000000000e+01 0.0 
0.0 -1.962000000000e+01 0.0 
0.0 -1.962000000000e+01 0.0 
0.0 -1.962000000000e+01 0.0 
0.0 -1.962000000000e+01 0.0 
0.0 -1.962000000000e+01 0.0 
0.0 -1.962000000000e+01 0.0 
0.0 -1.962000000000e+01 0.0 
0.0 -1.962000000000e+01 0.0 
0.0 -1.962000000000e+01 0.0 
0.0 -1.962000000000e+01 0.0 
0.0 -1.962000000000e+01 0.0 
0.0 -1.962000000000e+01 0.0 
0.0 -1.962000000000e+01 0.0 
0.0 -1.962000000000e+01 0.0 
0.0 -1.962000000000e+01 0.0 
0.0 -1.962000000000e+01 0.0 
0.0 -1.962000000000e+01 0.0 
0.0 -1.962000000000e+01 0.0 
0.0 -1.962000000000e+01 0.0 
0.0 -1.962000000000e+01 0.0 
0.0 -1.962000000000e+01 0.0 
0.0 -1.962000000000e+01 0.0 
0.0 -1.962000000000e+01 0.0 
0.0 -1.962000000000e+01 0.0 
0.0 -1.962000000000e+01 0.0 
0.0 -1.962000000000e+01 0.0 
0.0 -1.962000000000e+01 0.0 
0.0 -1.962000000000e+01 0.0 
0.0 -1.962000000000e+01 0.0 
0.0 -1.962000000000e+01 0.0 
0.0 -1.962000000000e+01 0.0 
0.0 -1.962000000000e+01 0.0 
0.0 -1.962000000000e+01 0.0 
0.0 -1.962000000000e+01 0.0 
0.0 -1.962000000000e+01 0.0 
0.0 -1.962000000000e+01 0.0 
0.0 -1.962000000000e+01 0.0 
0.0 -1.962000000000e+01 0.0 
0.0 -1.962000000000e+01 0.0 
0.0 -1.962000000000e+01 0.0 
0.0 -1.962000000000e+01 0.0 
0.0 -1.962000000000e+01 0.0 
0.0 -1.962000000000e+01 0.0 
0.0 -1.962000000000e+01 0.0 
0.0 -1.962000000000e+01 0.0 
0.0 -1.962000000000e+01 0.0 
0.0 -1.962000000000e+01 0.0 
0.0 -1.962000000000e+01 0.0 
0.0 -1.962000000000e+01 0.0 
0.0 -1.962000000000e+01 0.0 
0.0 -1.962000000000e+01 0.0 
0.0 -1.962000000000e+01 0.0 
0.0 -1.962000000000e+01 0.0 
0.0 -1.962000000000e+01 0.0 
0.0 -1.962000000000e+01 0.0 
0.0 -1.962000000000e+01 0.0 
0.0 -1.962000000000e+01 0.0 
0.0 -1.962000000000e+01 0.0 
0.0 -1.962000000000e+01 0.0 
0.0 -1.962000000000e+01 0.0 
0.0 -1.962000000000e+01 0.0 
0.0 -1.962000000000e+01 0.0 
0.0 -1.962000000000e+01 0.0 
0.0 -1.962000000000e+01 0.0 
0.0 -1.962000000000e+01 0.0 
0.0 -1.962000000000e+01 0.0 
0.0 -1.962000000000e+01 0.0 
0.0 -1.962000000000e+01 0.0 
0.0 -1.962000000000e+01 0.0 
0.0 -1.962000000000e+01 0.0 
0.0 -1.962000000000e+01 0.0 
0.0 -1.962000000000e+01 0.0 
0.0 -1.962000000000e+01 0.0 
0.0 -1.962000000000e+01 0.0 
0.0 -1.962000000000e+01 0.0 
0.0 -1.962000000000e+01 0.0 
0.0 -1.962000000000e+01 0.0 
0.0 -1.962000000000e+01 0.0 
0.0 -1.962000000000e+01 0.0 
0.0 -1.962000000000e+01 0.0 
0.0 -1.962000000000e+01 0.0 
0.0 -1.962000000000e+01 0.0 
0.0 -1.962000000000e+01 0.0 
0.0 -1.962000000000e+01 0.0 
0.0 -1.962000000000e+01 0.0 
0.0 -1.962000000000e+01 0.0 
0.0 -1.962000000000e+01 0.0 
0.0 -1.962000000000e+01 0.0 
0.0 -1.962000000000e+01 0.0 
0.0 -1.962000000000e+01 0.0 
0.0 -1.962000000000e+01 0.0 
0.0 -1.962000000000e+01 0.0 
0.0 -1.962000000000e+01 0.0 
0.0 -1.962000000000e+01 0.0 
0.0 -1.962000000000e+01 0.0 
0.0 -1.962000000000e+01 0.0 
0.0 -1.962000000000e+01 0.0 
0.0 -1.962000000000e+01 0.0 
0.0 -1.962000000000e+01 0.0 
0.0 -1.962000000000e+01 0.0 
0.0 -1.962000000000e+01 0.0 
0.0 -1.962000000000e+01 0.0 
0.0 -1.962000000000e+01 0.0 
0.0 -1.962000000000e+01 0.0 
0.0 -1.962000000000e+01 0.0 
0.0 -1.962000000000e+01 0.0 
0.0 -1.962000000000e+01 0.0 
0.0 -1.962000000000e+01 0.0 
0.0 -1.962000000000e+01 0.0 
0.0 -1.962000000000e+01 0.0 
0.0 -1.962000000000e+01 0.0 
0.0 -1.962000000000e+01 0.0 
0.0 -1.962000000000e+01 0.0 
0.0 -1.962000000000e+01 0.0 
0.0 -1.962000000000e+01 0.0 
0.0 -1.962000000000e+01 0.0 
0.0 -1.962000000000e+01 0.0 
0.0 -1.962000000000e+01 0.0 
0.0 -1.962000000000e+01 0.0 
0.0 -1.962000000000e+01 0.0 
0.0 -1.962000000000e+01 0.0 
0.0 -1.962000000000e+01 0.0 
0.0 -1.962000000000e+01 0.0 
0.0 -1.962000000000e+01 0.0 
0.0 -1.962000000000e+01 0.0 
0.0 -1.962000000000e+01 0.0 
0.0 -1.962000000000e+01 0.0 
0.0 -1.962000000000e+01 0.0 
0.0 -1.962000000000e+01 0.0 
0.0 -1.962000000000e+01 0.0 
0.0 -1.962000000000e+01 0.0 
0.0 -1.962000000000e+01 0.0 
0.0 -1.962000000000e+01 0.0 
0.0 -1.962000000000e+01 0.0 
0.0 -1.962000000000e+01 0.0 
0.0 -1.962000000000e+01 0.0 
0.0 -1.962000000000e+01 0.0 
0.0 -1.962000000000e+01 0.0 
0.0 -1.962000000000e+01 0.0 
0.0 -1.962000000000e+01 0.0 
0.0 -1.962000000000e+01 0.0 
0.0 -1.962000000000e+01 0.0 
0.0 -1.962000000000e+01 0.0 
0.0 -1.962000000000e+01 0.0 
0.0 -1.962000000000e+01 0.0 
0.0 -1.962000000000e+01 0.0 
0.0 -1.962000000000e+01 0.0 
0.0 -1.962000000000e+01 0.0 
0.0 -1.962000000000e+01 0.0 
0.0 -1.962000000000e+01 0.0 
0.0 -1.962000000000e+01 0.0 
0.0 -1.962000000000e+01 0.0 
0.0 -1.962000000000e+01 0.0 
0.0 -1.962000000000e+01 0.0 
0.0 -1.962000000000e+01 0.0 
0.0 -1.962000000000e+01 0.0 
0.0 -1.962000000000e+01 0.0 
0.0 -1.962000000000e+01 0.0 
0.0 -1.962000000000e+01 0.0 
0.0 -1.962000000000e+01 0.0 
0.0 -1.962000000000e+01 0.0 
0.0 -1.962000000000e+01 0.0 
0.0 -1.962000000000e+01 0.0 
0.0 -1.962000000000e+01 0.0 
0.0 -1.962000000000e+01 0.0 
0.0 -1.962000000000e+01 0.0 
0.0 -1.962000000000e+01 0.0 
0.0 -1.962000000000e+01 0.0 
0.0 -1.962000000000e+01 0.0 
0.0 -1.962000000000e+01 0.0 
0.0 -1.962000000000e+01 0.0 
0.0 -1.962000000000e+01 0.0 
0.0 -1.962000000000e+01 0.0 
0.0 -1.962000000000e+01 0.0 
0.0 -1.962000000000e+01 0.0 
0.0 -1.962000000000e+01 0.0 
0.0 -1.962000000000e+01 0.0 
0.0 -1.962000000000e+01 0.0 
0.0 -1.962000000000e+01 0.0 
0.0 -1.962000000000e+01 0.0 
0.0 -1.962000000000e+01 0.0 
0.0 -1.962000000000e+01 0.0 
0.0 -1.962000000000e+01 0.0 
0.0 -1.962000000000e+01 0.0 
0.0 -1.962000000000e+01 0.0 
0.0 -1.962000000000e+01 0.0 
0.0 -1.962000000000e+01 0.0 
0.0 -1.962000000000e+01 0.0 
0.0 -1.962000000000e+01 0.0 
0.0 -1.962000000000e+01 0.0 
0.0 -1.962000000000e+01 0.0 
0.0 -1.962000000000e+01 0.0 
0.0 -1.962000000000e+01 0.0 
0.0 -1.962000000000e+01 0.0 
0.0 -1.962000000000e+01 0.0 
0.0 -1.962000000000e+01 0.0 
0.0 -1.962000000000e+01 0.0 
0.0 -1.962000000000e+01 0.0 
0.0 -1.962000000000e+01 0.0 
0.0 -1.962000000000e+01 0.0 
0.0 -1.962000000000e+01 0.0 
0.0 -1.962000000000e+01 0.0 
0.0 -1.962000000000e+01 0.0 
0.0 -1.962000000000e+01 0.0 
0.0 -1.962000000000e+01 0.0 
0.0 -1.962000000000e+01 0.0 
0.0 -1.962000000000e+01 0.0 
0.0 -1.962000000000e+01 0.0 
0.0 -1.962000000000e+01 0.0 
0.0 -1.962000000000e+01 0.0 
0.0 -1.962000000000e+01 0.0 
0.0 -1.962000000000e+01 0.0 
0.0 -1.962000000000e+01 0.0 
0.0 -1.962000000000e+01 0.0 
0.0 -1.962000000000e+01 0.0 
0.0 -1.962000000000e+01 0.0 
0.0 -1.962000000000e+01 0.0 
0.0 -1.962000000000e+01 0.0 
0.0 -1.962000000000e+01 0.0 
0.0 -1.962000000000e+01 0.0 
0.0 -1.962000000000e+01 0.0 
0.0 -1.962000000000e+01 0.0 
0.0 -1.962000000000e+01 0.0 
0.0 -1.962000000000e+01 0.0 
0.0 -1.962000000000e+01 0.0 
0.0 -1.962000000000e+01 0.0 
0.0 -1.962000000000e+01 0.0 
0.0 -1.962000000000e+01 0.0 
0.0 -1.962000000000e+01 0.0 
0.0 -1.962000000000e+01 0.0 
0.0 -1.962000000000e+01 0.0 
0.0 -1.962000000000e+01 0.0 
0.0 -1.962000000000e+01 0.0 
0.0 -1.962000000000e+01 0.0 
0.0 -1.962000000000e+01 0.0 
0.0 -1.962000000000e+01 0.0 
0.0 -1.962000000000e+01 0.0 
0.0 -1.962000000000e+01 0.0 
0.0 -1.962000000000e+01 0.0 
0.0 -1.962000000000e+01 0.0 
0.0 -1.962000000000e+01 0.0 
0.0 -1.962000000000e+01 0.0 
0.0 -1.962000000000e+01 0.0 
0.0 -1.962000000000e+01 0.0 
0.0 -1.962000000000e+01 0.0 
0.0 -1.962000000000e+01 0.0 
0.0 -1.962000000000e+01 0.0 
0.0 -1.962000000000e+01 0.0 
0.0 -1.962000000000e+01 0.0 
0.0 -1.962000000000e+01 0.0 
0.0 -1.962000000000e+01 0.0 
0.0 -1.962000000000e+01 0.0 
0.0 -1.962000000000e+01 0.0 
0.0 -1.962000000000e+01 0.0 
0.0 -1.962000000000e+01 0.0 
0.0 -1.962000000000e+01 0.0 
0.0 -1.962000000000e+01 0.0 
0.0 -1.962000000000e+01 0.0 
0.0 -1.962000000000e+01 0.0 
0.0 -1.962000000000e+01 0.0 
0.0 -1.962000000000e+01 0.0 
0.0 -1.962000000000e+01 0.0 
0.0 -1.962000000000e+01 0.0 
0.0 -1.962000000000e+01 0.0 
0.0 -1.962000000000e+01 0.0 
0.0 -1.962000000000e+01 0.0 
0.0 -1.962000000000e+01 0.0 
0.0 -1.962000000000e+01 0.0 
0.0 -1.962000000000e+01 0.0 
0.0 -1.962000000000e+01 0.0 
0.0 -1.962000000000e+01 0.0 
0.0 -1.962000000000e+01 0.0 
0.0 -1.962000000000e+01 0.0 
0.0 -1.962000000000e+01 0.0 
0.0 -1.962000000000e+01 0.0 
0.0 -1.962000000000e+01 0.0 
0.0 -1.962000000000e+01 0.0 
0.0 -1.962000000000e+01 0.0 
0.0 -1.962000000000e+01 0.0 
0.0 -1.962000000000e+01 0.0 
0.0 -1.962000000000e+01 0.0 
0.0 -1.962000000000e+01 0.0 
0.0 -1.962000000000e+01 0.0 
0.0 -1.962000000000e+01 0.0 
0.0 -1.962000000000e+01 0.0 
0.0 -1.962000000000e+01 0.0 
0.0 -1.962000000000e+01 0.0 
0.0 -1.962000000000e+01 0.0 
0.0 -1.962000000000e+01 0.0 
0.0 -1.962000000000e+01 0.0 
0.0 -1.962000000000e+01 0.0 
0.0 -1.962000000000e+01 0.0 
0.0 -1.962000000000e+01 0.0 
0.0 -1.962000000000e+01 0.0 
0.0 -1.962000000000e+01 0.0 
0.0 -1.962000000000e+01 0.0 
0.0 -1.962000000000e+01 0.0 
0.0 -1.962000000000e+01 0.0 
0.0 -1.962000000000e+01 0.0 
0.0 -1.962000000000e+01 0.0 
0.0 -1.962000000000e+01 0.0 
0.0 -1.962000000000e+01 0.0 
0.0 -1.962000000000e+01 0.0 
0.0 -1.962000000000e+01 0.0 
0.0 -1.962000000000e+01 0.0 
0.0 -1.962000000000e+01 0.0 
0.0 -1.962000000000e+01 0.0 
0.0 -1.962000000000e+01 0.0 
0.0 -1.962000000000e+01 0.0 
0.0 -1.962000000000e+01 0.0 
0.0 -1.962000000000e+01 0.0 
0.0 -1.962000000000e+01 0.0 
0.0 -1.962000000000e+01 0.0 
0.0 -1.962000000000e+01 0.0 
0.0 -1.962000000000e+01 0.0 
0.0 -1.962000000000e+01 0.0 
0.0 -1.962000000000e+01 0.0 
0.0 -1.962000000000e+01 0.0 
0.0 -1.962000000000e+01 0.0 
0.0 -1.962000000000e+01 0.0 
0.0 -1.962000000000e+01 0.0 
0.0 -1.962000000000e+01 0.0 
0.0 -1.962000000000e+01 0.0 
0.0 -1.962000000000e+01 0.0 
0.0 -1.962000000000e+01 0.0 
0.0 -1.962000000000e+01 0.0 
0.0 -1.962000000000e+01 0.0 
0.0 -1.962000000000e+01 0.0 
0.0 -1.962000000000e+01 0.0 
0.0 -1.962000000000e+01 0.0 
0.0 -1.962000000000e+01 0.0 
0.0 -1.962000000000e+01 0.0 
0.0 -1.962000000000e+01 0.0 
0.0 -1.962000000000e+01 0.0 
0.0 -1.962000000000e+01 0.0 
0.0 -1.962000000000e+01 0.0 
0.0 -1.962000000000e+01 0.0 
0.0 -1.962000000000e+01 0.0 
0.0 -1.962000000000e+01 0.0 
0.0 -1.962000000000e+01 0.0 
0.0 -1.962000000000e+01 0.0 
0.0 -1.962000000000e+01 0.0 
0.0 -1.962000000000e+01 0.0 
0.0 -1.962000000000e+01 0.0 
0.0 -1.962000000000e+01 0.0 
0.0 -1.962000000000e+01 0.0 
0.0 -1.962000000000e+01 0.0 
0.0 -1.962000000000e+01 0.0 
0.0 -1.962000000000e+01 0.0 
0.0 -1.962000000000e+01 0.0 
0.0 -1.962000000000e+01 0.0 
0.0 -1.962000000000e+01 0.0 
0.0 -1.962000000000e+01 0.0 
0.0 -1.962000000000e+01 0.0 
0.0 -1.962000000000e+01 0.0 
0.0 -1.962000000000e+01 0.0 
0.0 -1.962000000000e+01 0.0 
0.0 -1.962000000000e+01 0.0 
0.0 -1.962000000000e+01 0.0 
0.0 -1.962000000000e+01 0.0 
0.0 -1.962000000000e+01 0.0 
0.0 -1.962000000000e+01 0.0 
0.0 -1.962000000000e+01 0.0 
0.0 -1.962000000000e+01 0.0 
0.0 -1.962000000000e+01 0.0 
0.0 -1.962000000000e+01 0.0 
0.0 -1.962000000000e+01 0.0 
0.0 -1.962000000000e+01 0.0 
0.0 -1.962000000000e+01 0.0 
0.0 -1.962000000000e+01 0.0 
0.0 -1.962000000000e+01 0.0 
0.0 -1.962000000000e+01 0.0 
0.0 -1.962000000000e+01 0.0 
0.0 -1.962000000000e+01 0.0 
0.0 -1.962000000000e+01 0.0 
0.0 -1.962000000000e+01 0.0 
0.0 -1.962000000000e+01 0.0 
0.0 -1.962000000000e+01 0.0 
0.0 -1.962000000000e+01 0.0 
0.0 -1.962000000000e+01 0.0 
0.0 -1.962000000000e+01 0.0 
0.0 -1.962000000000e+01 0.0 
0.0 -1.962000000000e+01 0.0 
0.0 -1.962000000000e+01 0.0 
0.0 -1.962000000000e+01 0.0 
0.0 -1.962000000000e+01 0.0 
0.0 -1.962000000000e+01 0.0 
0.0 -1.962000000000e+01 0.0 
0.0 -1.962000000000e+01 0.0 
0.0 -1.962000000000e+01 0.0 
0.0 -1.962000000000e+01 0.0 
0.0 -1.962000000000e+01 0.0 
0.0 -1.962000000000e+01 0.0 
0.0 -1.962000000000e+01 0.0 
0.0 -1.962000000000e+01 0.0 
0.0 -1.962000000000e+01 0.0 
0.0 -1.962000000000e+01 0.0 
0.0 -1.962000000000e+01 0.0 
0.0 -1.962000000000e+01 0.0 
0.0 -1.962000000000e+01 0.0 
0.0 -1.962000000000e+01 0.0 
0.0 -1.962000000000e+01 0.0 
0.0 -1.962000000000e+01 0.0 
0.0 -1.962000000000e+01 0.0 
0.0 -1.962000000000e+01 0.0 
0.0 -1.962000000000e+01 0.0 
0.0 -1.962000000000e+01 0.0 
0.0 -1.962000000000e+01 0.0 
0.0 -1.962000000000e+01 0.0 
0.0 -1.962000000000e+01 0.0 
0.0 -1.962000000000e+01 0.0 
0.0 -1.962000000000e+01 0.0 
0.0 -1.962000000000e+01 0.0 
0.0 -1.962000000000e+01 0.0 
0.0 -1.962000000000e+01 0.0 
0.0 -1.962000000000e+01 0.0 
0.0 -1.962000000000e+01 0.0 
0.0 -1.962000000000e+01 0.0 
0.0 -1.962000000000e+01 0.0 
0.0 -1.962000000000e+01 0.0 
0.0 -1.962000000000e+01 0.0 
0.0 -1.962000000000e+01 0.0 
0.0 -1.962000000000e+01 0.0 
0.0 -1.962000000000e+01 0.0 
0.0 -1.962000000000e+01 0.0 
0.0 -1.962000000000e+01 0.0 
0.0 -1.962000000000e+01 0.0 
0.0 -1.962000000000e+01 0.0 
0.0 -1.962000000000e+01 0.0 
0.0 -1.962000000000e+01 0.0 
0.0 -1.962000000000e+01 0.0 
0.0 -1.962000000000e+01 0.0 
0.0 -1.962000000000e+01 0.0 
0.0 -1.962000000000e+01 0.0 
0.0 -1.962000000000e+01 0.0 
0.0 -1.962000000000e+01 0.0 
0.0 -1.962000000000e+01 0.0 
0.0 -1.962000000000e+01 0.0 
0.0 -1.962000000000e+01 0.0 
0.0 -1.962000000000e+01 0.0 
0.0 -1.962000000000e+01 0.0 
0.0 -1.962000000000e+01 0.0 
0.0 -1.962000000000e+01 0.0 
0.0 -1.962000000000e+01 0.0 
0.0 -1.962000000000e+01 0.0 
0.0 -1.962000000000e+01 0.0 
0.0 -1.962000000000e+01 0.0 
0.0 -1.962000000000e+01 0.0 
0.0 -1.962000000000e+01 0.0 
0.0 -1.962000000000e+01 0.0 
0.0 -1.962000000000e+01 0.0 
0.0 -1.962000000000e+01 0.0 
0.0 -1.962000000000e+01 0.0 
0.0 -1.962000000000e+01 0.0 
0.0 -1.962000000000e+01 0.0 
0.0 -1.962000000000e+01 0.0 
0.0 -1.962000000000e+01 0.0 
0.0 -1.962000000000e+01 0.0 
0.0 -1.962000000000e+01 0.0 
0.0 -1.962000000000e+01 0.0 
0.0 -1.962000000000e+01 0.0 
0.0 -1.962000000000e+01 0.0 
0.0 -1.962000000000e+01 0.0 

VECTORS node_rhside_materi_fixed float
-4.673318557559e+00 0.0 0.0 
2.880746684967e+01 0.0 0.0 
-8.384229599355e+01 -2.003270861531e+02 0.0 
4.644591400251e+01 -1.118478121847e+02 0.0 
-7.678604080838e+00 0.0 0.0 
-1.071577705149e+01 0.0 0.0 
-1.324090292090e+01 0.0 0.0 
-2.415974328103e+01 0.0 0.0 
-3.966469651869e+01 0.0 0.0 
-5.331880711803e+01 0.0 0.0 
-6.541187162605e+01 0.0 0.0 
-7.606012030363e+01 0.0 0.0 
-8.522274196493e+01 0.0 0.0 
-9.334399947810e+01 0.0 0.0 
-1.007465164251e+02 0.0 0.0 
-1.073094709338e+02 0.0 0.0 
-1.131651865937e+02 0.0 0.0 
-1.190744524399e+02 0.0 0.0 
-1.245620958590e+02 0.0 0.0 
-1.317739315674e+02 0.0 0.0 
-1.412648713861e+02 0.0 0.0 
-1.510139861262e+02 0.0 0.0 
-1.612626153048e+02 0.0 0.0 
1.313244138759e+00 -2.223933921081e+02 0.0 
2.301205462725e+00 -2.239793897009e+02 0.0 
5.952710572672e+00 -2.232713587905e+02 0.0 
4.950296997784e+00 -2.237565500018e+02 0.0 
8.516258173646e+00 -2.253267435133e+02 0.0 
9.997356209153e+00 -2.253006483191e+02 0.0 
1.169630417034e+01 -2.272142388145e+02 0.0 
1.390969809085e+01 -2.291700368268e+02 0.0 
1.776002063916e+01 -2.302804603705e+02 0.0 
1.751029584370e+01 -2.327697788349e+02 0.0 
2.221925556826e+01 -2.370269369281e+02 0.0 
2.461066234230e+01 -2.395545255635e+02 0.0 
2.705454181140e+01 -2.449195241755e+02 0.0 
2.959481525228e+01 -2.494707769533e+02 0.0 
3.240375498420e+01 -2.552697258787e+02 0.0 
3.451255858350e+01 -2.622736940191e+02 0.0 
3.777537815180e+01 -2.692768150219e+02 0.0 
3.921400230347e+01 -2.770274529062e+02 0.0 
4.067479222237e+01 -2.850856020030e+02 0.0 
4.153539926681e+01 -2.930521738165e+02 0.0 
4.173735535336e+01 -3.013911204811e+02 0.0 
4.224851763750e+01 -3.102152576395e+02 0.0 
4.175520556337e+01 -3.183606294737e+02 0.0 
4.110889304747e+01 -3.263635944699e+02 0.0 
4.008766996462e+01 -3.342407985958e+02 0.0 
3.850207246004e+01 -3.415071029181e+02 0.0 
3.687175228696e+01 -3.483006741844e+02 0.0 
3.501098312836e+01 -3.546930848332e+02 0.0 
3.319365837514e+01 -3.607821352513e+02 0.0 
3.081787900922e+01 -3.661314586616e+02 0.0 
2.901535247591e+01 -3.709431206535e+02 0.0 
2.662860529476e+01 -3.759850419792e+02 0.0 
2.445216432519e+01 -3.798994290201e+02 0.0 
2.225198081127e+01 -3.837627971600e+02 0.0 
1.992944455457e+01 -3.870237068932e+02 0.0 
1.780067948119e+01 -3.899033281359e+02 0.0 
1.574823672310e+01 -3.922631039004e+02 0.0 
1.368656826867e+01 -3.943180164730e+02 0.0 
1.186812579721e+01 -3.958171257413e+02 0.0 
1.023351486106e+01 -3.973954129671e+02 0.0 
8.536830741310e+00 -3.981657306539e+02 0.0 
7.255128876638e+00 -3.987354977865e+02 0.0 
5.987744339632e+00 -3.990744732117e+02 0.0 
4.938695501782e+00 -4.001719064533e+02 0.0 
3.783632773918e+00 -3.996097490963e+02 0.0 
2.885505880347e+00 -4.004257656019e+02 0.0 
2.381766322545e+00 -4.000197254760e+02 0.0 
1.395566065212e+00 -4.002559332133e+02 0.0 
6.494492046095e-01 -4.001645561907e+02 0.0 
3.628656562936e+01 0.0 0.0 
4.455571977021e+01 0.0 0.0 
5.218649191612e+01 0.0 0.0 
5.933896636973e+01 0.0 0.0 
6.625851762192e+01 0.0 0.0 
7.318658887320e+01 0.0 0.0 
7.921112166155e+01 0.0 0.0 
8.440779125553e+01 0.0 0.0 
9.086239156704e+01 0.0 0.0 
0.0 0.0 0.0 
0.0 0.0 0.0 
0.0 0.0 0.0 
0.0 0.0 0.0 
0.0 0.0 0.0 
0.0 0.0 0.0 
0.0 0.0 0.0 
0.0 0.0 0.0 
0.0 0.0 0.0 
0.0 0.0 0.0 
0.0 0.0 0.0 
1.169294010381e+01 0.0 0.0 
0.0 0.0 0.0 
0.0 0.0 0.0 
0.0 0.0 0.0 
0.0 0.0 0.0 
0.0 0.0 0.0 
0.0 0.0 0.0 
0.0 0.0 0.0 
0.0 0.0 0.0 
0.0 0.0 0.0 
0.0 0.0 0.0 
0.0 0.0 0.0 
0.0 0.0 0.0 
0.0 0.0 0.0 
0.0 0.0 0.0 
0.0 0.0 0.0 
0.0 0.0 0.0 
0.0 0.0 0.0 
0.0 0.0 0.0 
0.0 0.0 0.0 
0.0 0.0 0.0 
0.0 0.0 0.0 
0.0 0.0 0.0 
0.0 0.0 0.0 
0.0 0.0 0.0 
0.0 0.0 0.0 
0.0 0.0 0.0 
0.0 0.0 0.0 
0.0 0.0 0.0 
0.0 0.0 0.0 
0.0 0.0 0.0 
0.0 0.0 0.0 
0.0 0.0 0.0 
0.0 0.0 0.0 
0.0 0.0 0.0 
0.0 0.0 0.0 
0.0 0.0 0.0 
0.0 0.0 0.0 
0.0 0.0 0.0 
0.0 0.0 0.0 
0.0 0.0 0.0 
0.0 0.0 0.0 
0.0 0.0 0.0 
0.0 0.0 0.0 
0.0 0.0 0.0 
0.0 0.0 0.0 
0.0 0.0 0.0 
0.0 0.0 0.0 
0.0 0.0 0.0 
0.0 0.0 0.0 
0.0 0.0 0.0 
0.0 0.0 0.0 
0.0 0.0 0.0 
0.0 0.0 0.0 
0.0 0.0 0.0 
0.0 0.0 0.0 
0.0 0.0 0.0 
0.0 0.0 0.0 
0.0 0.0 0.0 
0.0 0.0 0.0 
0.0 0.0 0.0 
0.0 0.0 0.0 
0.0 0.0 0.0 
0.0 0.0 0.0 
0.0 0.0 0.0 
0.0 0.0 0.0 
0.0 0.0 0.0 
0.0 0.0 0.0 
0.0 0.0 0.0 
0.0 0.0 0.0 
0.0 0.0 0.0 
0.0 0.0 0.0 
0.0 0.0 0.0 
0.0 0.0 0.0 
0.0 0.0 0.0 
0.0 0.0 0.0 
0.0 0.0 0.0 
0.0 0.0 0.0 
0.0 0.0 0.0 
0.0 0.0 0.0 
0.0 0.0 0.0 
0.0 0.0 0.0 
0.0 0.0 0.0 
0.0 0.0 0.0 
0.0 0.0 0.0 
0.0 0.0 0.0 
0.0 0.0 0.0 
0.0 0.0 0.0 
0.0 0.0 0.0 
0.0 0.0 0.0 
0.0 0.0 0.0 
0.0 0.0 0.0 
0.0 0.0 0.0 
0.0 0.0 0.0 
0.0 0.0 0.0 
0.0 0.0 0.0 
0.0 0.0 0.0 
0.0 0.0 0.0 
0.0 0.0 0.0 
0.0 0.0 0.0 
0.0 0.0 0.0 
0.0 0.0 0.0 
0.0 0.0 0.0 
0.0 0.0 0.0 
0.0 0.0 0.0 
0.0 0.0 0.0 
0.0 0.0 0.0 
0.0 0.0 0.0 
0.0 0.0 0.0 
0.0 0.0 0.0 
0.0 0.0 0.0 
0.0 0.0 0.0 
0.0 0.0 0.0 
0.0 0.0 0.0 
0.0 0.0 0.0 
0.0 0.0 0.0 
0.0 0.0 0.0 
0.0 0.0 0.0 
0.0 0.0 0.0 
0.0 0.0 0.0 
0.0 0.0 0.0 
0.0 0.0 0.0 
0.0 0.0 0.0 
0.0 0.0 0.0 
0.0 0.0 0.0 
0.0 0.0 0.0 
0.0 0.0 0.0 
0.0 0.0 0.0 
0.0 0.0 0.0 
0.0 0.0 0.0 
0.0 0.0 0.0 
0.0 0.0 0.0 
0.0 0.0 0.0 
0.0 0.0 0.0 
0.0 0.0 0.0 
0.0 0.0 0.0 
0.0 0.0 0.0 
0.0 0.0 0.0 
0.0 0.0 0.0 
0.0 0.0 0.0 
0.0 0.0 0.0 
0.0 0.0 0.0 
0.0 0.0 0.0 
0.0 0.0 0.0 
0.0 0.0 0.0 
0.0 0.0 0.0 
0.0 0.0 0.0 
0.0 0.0 0.0 
0.0 0.0 0.0 
0.0 0.0 0.0 
0.0 0.0 0.0 
0.0 0.0 0.0 
0.0 0.0 0.0 
0.0 0.0 0.0 
0.0 0.0 0.0 
0.0 0.0 0.0 
0.0 0.0 0.0 
0.0 0.0 0.0 
0.0 0.0 0.0 
0.0 0.0 0.0 
0.0 0.0 0.0 
0.0 0.0 0.0 
0.0 0.0 0.0 
0.0 0.0 0.0 
0.0 0.0 0.0 
0.0 0.0 0.0 
0.0 0.0 0.0 
0.0 0.0 0.0 
0.0 0.0 0.0 
0.0 0.0 0.0 
0.0 0.0 0.0 
0.0 0.0 0.0 
0.0 0.0 0.0 
0.0 0.0 0.0 
0.0 0.0 0.0 
0.0 0.0 0.0 
0.0 0.0 0.0 
0.0 0.0 0.0 
0.0 0.0 0.0 
0.0 0.0 0.0 
0.0 0.0 0.0 
0.0 0.0 0.0 
0.0 0.0 0.0 
0.0 0.0 0.0 
0.0 0.0 0.0 
0.0 0.0 0.0 
0.0 0.0 0.0 
0.0 0.0 0.0 
0.0 0.0 0.0 
0.0 0.0 0.0 
0.0 0.0 0.0 
0.0 0.0 0.0 
0.0 0.0 0.0 
0.0 0.0 0.0 
0.0 0.0 0.0 
0.0 0.0 0.0 
0.0 0.0 0.0 
0.0 0.0 0.0 
0.0 0.0 0.0 
0.0 0.0 0.0 
0.0 0.0 0.0 
0.0 0.0 0.0 
0.0 0.0 0.0 
0.0 0.0 0.0 
0.0 0.0 0.0 
0.0 0.0 0.0 
0.0 0.0 0.0 
0.0 0.0 0.0 
0.0 0.0 0.0 
0.0 0.0 0.0 
0.0 0.0 0.0 
0.0 0.0 0.0 
0.0 0.0 0.0 
0.0 0.0 0.0 
0.0 0.0 0.0 
0.0 0.0 0.0 
0.0 0.0 0.0 
0.0 0.0 0.0 
0.0 0.0 0.0 
0.0 0.0 0.0 
0.0 0.0 0.0 
0.0 0.0 0.0 
0.0 0.0 0.0 
0.0 0.0 0.0 
0.0 0.0 0.0 
0.0 0.0 0.0 
0.0 0.0 0.0 
0.0 0.0 0.0 
0.0 0.0 0.0 
0.0 0.0 0.0 
0.0 0.0 0.0 
0.0 0.0 0.0 
0.0 0.0 0.0 
0.0 0.0 0.0 
0.0 0.0 0.0 
0.0 0.0 0.0 
0.0 0.0 0.0 
0.0 0.0 0.0 
0.0 0.0 0.0 
0.0 0.0 0.0 
0.0 0.0 0.0 
0.0 0.0 0.0 
0.0 0.0 0.0 
0.0 0.0 0.0 
0.0 0.0 0.0 
0.0 0.0 0.0 
0.0 0.0 0.0 
0.0 0.0 0.0 
0.0 0.0 0.0 
0.0 0.0 0.0 
0.0 0.0 0.0 
0.0 0.0 0.0 
0.0 0.0 0.0 
0.0 0.0 0.0 
0.0 0.0 0.0 
0.0 0.0 0.0 
0.0 0.0 0.0 
0.0 0.0 0.0 
0.0 0.0 0.0 
0.0 0.0 0.0 
0.0 0.0 0.0 
0.0 0.0 0.0 
0.0 0.0 0.0 
0.0 0.0 0.0 
0.0 0.0 0.0 
0.0 0.0 0.0 
0.0 0.0 0.0 
0.0 0.0 0.0 
0.0 0.0 0.0 
0.0 0.0 0.0 
0.0 0.0 0.0 
0.0 0.0 0.0 
0.0 0.0 0.0 
0.0 0.0 0.0 
0.0 0.0 0.0 
0.0 0.0 0.0 
0.0 0.0 0.0 
0.0 0.0 0.0 
0.0 0.0 0.0 
0.0 0.0 0.0 
0.0 0.0 0.0 
0.0 0.0 0.0 
0.0 0.0 0.0 
0.0 0.0 0.0 
0.0 0.0 0.0 
0.0 0.0 0.0 
0.0 0.0 0.0 
0.0 0.0 0.0 
0.0 0.0 0.0 
0.0 0.0 0.0 
0.0 0.0 0.0 
0.0 0.0 0.0 
0.0 0.0 0.0 
0.0 0.0 0.0 
0.0 0.0 0.0 
0.0 0.0 0.0 
0.0 0.0 0.0 
0.0 0.0 0.0 
0.0 0.0 0.0 
0.0 0.0 0.0 
0.0 0.0 0.0 
0.0 0.0 0.0 
0.0 0.0 0.0 
0.0 0.0 0.0 
0.0 0.0 0.0 
0.0 0.0 0.0 
0.0 0.0 0.0 
0.0 0.0 0.0 
0.0 0.0 0.0 
0.0 0.0 0.0 
0.0 0.0 0.0 
0.0 0.0 0.0 
0.0 0.0 0.0 
0.0 0.0 0.0 
0.0 0.0 0.0 
0.0 0.0 0.0 
0.0 0.0 0.0 
0.0 0.0 0.0 
0.0 0.0 0.0 
0.0 0.0 0.0 
0.0 0.0 0.0 
0.0 0.0 0.0 
0.0 0.0 0.0 
0.0 0.0 0.0 
0.0 0.0 0.0 
0.0 0.0 0.0 
0.0 0.0 0.0 
0.0 0.0 0.0 
0.0 0.0 0.0 
0.0 0.0 0.0 
0.0 0.0 0.0 
0.0 0.0 0.0 
0.0 0.0 0.0 
0.0 0.0 0.0 
0.0 0.0 0.0 
0.0 0.0 0.0 
0.0 0.0 0.0 
0.0 0.0 0.0 
0.0 0.0 0.0 
0.0 0.0 0.0 
0.0 0.0 0.0 
0.0 0.0 0.0 
0.0 0.0 0.0 
0.0 0.0 0.0 
0.0 0.0 0.0 
0.0 0.0 0.0 
0.0 0.0 0.0 
0.0 0.0 0.0 
0.0 0.0 0.0 
0.0 0.0 0.0 
0.0 0.0 0.0 
0.0 0.0 0.0 
0.0 0.0 0.0 
0.0 0.0 0.0 
0.0 0.0 0.0 
0.0 0.0 0.0 
0.0 0.0 0.0 
0.0 0.0 0.0 
0.0 0.0 0.0 
0.0 0.0 0.0 
0.0 0.0 0.0 
0.0 0.0 0.0 
0.0 0.0 0.0 
0.0 0.0 0.0 
0.0 0.0 0.0 
0.0 0.0 0.0 
0.0 0.0 0.0 
0.0 0.0 0.0 
0.0 0.0 0.0 
0.0 0.0 0.0 
0.0 0.0 0.0 
0.0 0.0 0.0 
0.0 0.0 0.0 
0.0 0.0 0.0 
0.0 0.0 0.0 
0.0 0.0 0.0 
0.0 0.0 0.0 
0.0 0.0 0.0 
0.0 0.0 0.0 
0.0 0.0 0.0 
0.0 0.0 0.0 
0.0 0.0 0.0 
0.0 0.0 0.0 
0.0 0.0 0.0 
0.0 0.0 0.0 
0.0 0.0 0.0 
0.0 0.0 0.0 
0.0 0.0 0.0 
0.0 0.0 0.0 
0.0 0.0 0.0 
0.0 0.0 0.0 
0.0 0.0 0.0 
0.0 0.0 0.0 
0.0 0.0 0.0 
0.0 0.0 0.0 
0.0 0.0 0.0 
0.0 0.0 0.0 
0.0 0.0 0.0 
0.0 0.0 0.0 
0.0 0.0 0.0 
0.0 0.0 0.0 
0.0 0.0 0.0 
0.0 0.0 0.0 
0.0 0.0 0.0 
0.0 0.0 0.0 
0.0 0.0 0.0 
0.0 0.0 0.0 
0.0 0.0 0.0 
0.0 0.0 0.0 
0.0 0.0 0.0 
0.0 0.0 0.0 
0.0 0.0 0.0 
0.0 0.0 0.0 
0.0 0.0 0.0 
0.0 0.0 0.0 
0.0 0.0 0.0 
0.0 0.0 0.0 
0.0 0.0 0.0 
0.0 0.0 0.0 
0.0 0.0 0.0 
0.0 0.0 0.0 
0.0 0.0 0.0 
0.0 0.0 0.0 
0.0 0.0 0.0 
0.0 0.0 0.0 
0.0 0.0 0.0 
0.0 0.0 0.0 
0.0 0.0 0.0 
0.0 0.0 0.0 
0.0 0.0 0.0 
0.0 0.0 0.0 
0.0 0.0 0.0 
0.0 0.0 0.0 
0.0 0.0 0.0 
0.0 0.0 0.0 
0.0 0.0 0.0 
0.0 0.0 0.0 
0.0 0.0 0.0 
0.0 0.0 0.0 
0.0 0.0 0.0 
0.0 0.0 0.0 
0.0 0.0 0.0 
0.0 0.0 0.0 
0.0 0.0 0.0 
0.0 0.0 0.0 
0.0 0.0 0.0 
0.0 0.0 0.0 
0.0 0.0 0.0 
0.0 0.0 0.0 
0.0 0.0 0.0 
0.0 0.0 0.0 
0.0 0.0 0.0 
0.0 0.0 0.0 
0.0 0.0 0.0 
0.0 0.0 0.0 
0.0 0.0 0.0 
0.0 0.0 0.0 
0.0 0.0 0.0 
0.0 0.0 0.0 
0.0 0.0 0.0 
0.0 0.0 0.0 
0.0 0.0 0.0 
0.0 0.0 0.0 
0.0 0.0 0.0 
0.0 0.0 0.0 
0.0 0.0 0.0 
0.0 0.0 0.0 
0.0 0.0 0.0 
0.0 0.0 0.0 
0.0 0.0 0.0 
0.0 0.0 0.0 
0.0 0.0 0.0 
0.0 0.0 0.0 
0.0 0.0 0.0 
0.0 0.0 0.0 
0.0 0.0 0.0 
0.0 0.0 0.0 
0.0 0.0 0.0 
0.0 0.0 0.0 
0.0 0.0 0.0 
0.0 0.0 0.0 
0.0 0.0 0.0 
0.0 0.0 0.0 
0.0 0.0 0.0 
0.0 0.0 0.0 
0.0 0.0 0.0 
0.0 0.0 0.0 
0.0 0.0 0.0 
0.0 0.0 0.0 
0.0 0.0 0.0 
0.0 0.0 0.0 
0.0 0.0 0.0 
0.0 0.0 0.0 
0.0 0.0 0.0 
0.0 0.0 0.0 
0.0 0.0 0.0 
0.0 0.0 0.0 
0.0 0.0 0.0 
0.0 0.0 0.0 
0.0 0.0 0.0 
0.0 0.0 0.0 
0.0 0.0 0.0 
0.0 0.0 0.0 
0.0 0.0 0.0 
0.0 0.0 0.0 
0.0 0.0 0.0 
0.0 0.0 0.0 
0.0 0.0 0.0 
0.0 0.0 0.0 
0.0 0.0 0.0 
0.0 0.0 0.0 
0.0 0.0 0.0 
0.0 0.0 0.0 
0.0 0.0 0.0 
0.0 0.0 0.0 
0.0 0.0 0.0 
0.0 0.0 0.0 
0.0 0.0 0.0 
0.0 0.0 0.0 
0.0 0.0 0.0 
0.0 0.0 0.0 
0.0 0.0 0.0 
0.0 0.0 0.0 
0.0 0.0 0.0 
0.0 0.0 0.0 
0.0 0.0 0.0 
0.0 0.0 0.0 
0.0 0.0 0.0 
0.0 0.0 0.0 
0.0 0.0 0.0 
0.0 0.0 0.0 
0.0 0.0 0.0 
0.0 0.0 0.0 
0.0 0.0 0.0 
0.0 0.0 0.0 
0.0 0.0 0.0 
0.0 0.0 0.0 
0.0 0.0 0.0 
0.0 0.0 0.0 
0.0 0.0 0.0 
0.0 0.0 0.0 
0.0 0.0 0.0 
0.0 0.0 0.0 
0.0 0.0 0.0 
0.0 0.0 0.0 
0.0 0.0 0.0 
0.0 0.0 0.0 
0.0 0.0 0.0 
0.0 0.0 0.0 
0.0 0.0 0.0 
0.0 0.0 0.0 
0.0 0.0 0.0 
0.0 0.0 0.0 
0.0 0.0 0.0 
0.0 0.0 0.0 
0.0 0.0 0.0 
0.0 0.0 0.0 
0.0 0.0 0.0 
0.0 0.0 0.0 
0.0 0.0 0.0 
0.0 0.0 0.0 
0.0 0.0 0.0 
0.0 0.0 0.0 
0.0 0.0 0.0 
0.0 0.0 0.0 
0.0 0.0 0.0 
0.0 0.0 0.0 
0.0 0.0 0.0 
0.0 0.0 0.0 
0.0 0.0 0.0 
0.0 0.0 0.0 
0.0 0.0 0.0 
0.0 0.0 0.0 
0.0 0.0 0.0 
0.0 0.0 0.0 
0.0 0.0 0.0 
0.0 0.0 0.0 
0.0 0.0 0.0 
0.0 0.0 0.0 
0.0 0.0 0.0 
0.0 0.0 0.0 
0.0 0.0 0.0 
0.0 0.0 0.0 
0.0 0.0 0.0 
0.0 0.0 0.0 
0.0 0.0 0.0 
0.0 0.0 0.0 
0.0 0.0 0.0 
0.0 0.0 0.0 
0.0 0.0 0.0 
0.0 0.0 0.0 
0.0 0.0 0.0 
0.0 0.0 0.0 
0.0 0.0 0.0 
0.0 0.0 0.0 
0.0 0.0 0.0 
0.0 0.0 0.0 
0.0 0.0 0.0 
0.0 0.0 0.0 
0.0 0.0 0.0 
0.0 0.0 0.0 
0.0 0.0 0.0 
0.0 0.0 0.0 
0.0 0.0 0.0 
0.0 0.0 0.0 
0.0 0.0 0.0 
0.0 0.0 0.0 
0.0 0.0 0.0 
0.0 0.0 0.0 
0.0 0.0 0.0 
0.0 0.0 0.0 
0.0 0.0 0.0 
0.0 0.0 0.0 
0.0 0.0 0.0 
0.0 0.0 0.0 
0.0 0.0 0.0 
0.0 0.0 0.0 
0.0 0.0 0.0 
0.0 0.0 0.0 
0.0 0.0 0.0 
0.0 0.0 0.0 
0.0 0.0 0.0 
0.0 0.0 0.0 
0.0 0.0 0.0 
0.0 0.0 0.0 
0.0 0.0 0.0 
0.0 0.0 0.0 
0.0 0.0 0.0 
0.0 0.0 0.0 
0.0 0.0 0.0 
0.0 0.0 0.0 
0.0 0.0 0.0 
0.0 0.0 0.0 
0.0 0.0 0.0 
0.0 0.0 0.0 
0.0 0.0 0.0 
0.0 0.0 0.0 
0.0 0.0 0.0 
0.0 0.0 0.0 
0.0 0.0 0.0 
0.0 0.0 0.0 
0.0 0.0 0.0 
0.0 0.0 0.0 
0.0 0.0 0.0 
0.0 0.0 0.0 
0.0 0.0 0.0 
0.0 0.0 0.0 
0.0 0.0 0.0 
0.0 0.0 0.0 
0.0 0.0 0.0 
0.0 0.0 0.0 
0.0 0.0 0.0 
0.0 0.0 0.0 
0.0 0.0 0.0 
0.0 0.0 0.0 
0.0 0.0 0.0 
0.0 0.0 0.0 
0.0 0.0 0.0 
0.0 0.0 0.0 
0.0 0.0 0.0 
0.0 0.0 0.0 
0.0 0.0 0.0 
0.0 0.0 0.0 
0.0 0.0 0.0 
0.0 0.0 0.0 
0.0 0.0 0.0 
0.0 0.0 0.0 
0.0 0.0 0.0 
0.0 0.0 0.0 
0.0 0.0 0.0 
0.0 0.0 0.0 
0.0 0.0 0.0 
0.0 0.0 0.0 
0.0 0.0 0.0 
0.0 0.0 0.0 
0.0 0.0 0.0 
0.0 0.0 0.0 
0.0 0.0 0.0 
0.0 0.0 0.0 
0.0 0.0 0.0 
0.0 0.0 0.0 
0.0 0.0 0.0 
0.0 0.0 0.0 
0.0 0.0 0.0 
0.0 0.0 0.0 
0.0 0.0 0.0 
0.0 0.0 0.0 
0.0 0.0 0.0 
0.0 0.0 0.0 
0.0 0.0 0.0 
0.0 0.0 0.0 
0.0 0.0 0.0 
0.0 0.0 0.0 
0.0 0.0 0.0 
0.0 0.0 0.0 
0.0 0.0 0.0 
0.0 0.0 0.0 
0.0 0.0 0.0 
0.0 0.0 0.0 
0.0 0.0 0.0 
0.0 0.0 0.0 
0.0 0.0 0.0 
0.0 0.0 0.0 
0.0 0.0 0.0 
0.0 0.0 0.0 
0.0 0.0 0.0 
0.0 0.0 0.0 
0.0 0.0 0.0 
0.0 0.0 0.0 
0.0 0.0 0.0 
0.0 0.0 0.0 
0.0 0.0 0.0 
0.0 0.0 0.0 
0.0 0.0 0.0 
0.0 0.0 0.0 
0.0 0.0 0.0 
0.0 0.0 0.0 
0.0 0.0 0.0 
0.0 0.0 0.0 
0.0 0.0 0.0 
0.0 0.0 0.0 
0.0 0.0 0.0 
0.0 0.0 0.0 
0.0 0.0 0.0 
0.0 0.0 0.0 
0.0 0.0 0.0 
0.0 0.0 0.0 
0.0 0.0 0.0 
0.0 0.0 0.0 
0.0 0.0 0.0 
0.0 0.0 0.0 
0.0 0.0 0.0 
0.0 0.0 0.0 
0.0 0.0 0.0 
0.0 0.0 0.0 
0.0 0.0 0.0 
0.0 0.0 0.0 
0.0 0.0 0.0 
0.0 0.0 0.0 
0.0 0.0 0.0 
0.0 0.0 0.0 
0.0 0.0 0.0 
0.0 0.0 0.0 
0.0 0.0 0.0 
0.0 0.0 0.0 
0.0 0.0 0.0 
0.0 0.0 0.0 
0.0 0.0 0.0 
0.0 0.0 0.0 
0.0 0.0 0.0 
0.0 0.0 0.0 
0.0 0.0 0.0 
0.0 0.0 0.0 
0.0 0.0 0.0 
0.0 0.0 0.0 
0.0 0.0 0.0 
0.0 0.0 0.0 
0.0 0.0 0.0 
0.0 0.0 0.0 
0.0 0.0 0.0 
0.0 0.0 0.0 
0.0 0.0 0.0 
0.0 0.0 0.0 
0.0 0.0 0.0 
0.0 0.0 0.0 
0.0 0.0 0.0 
0.0 0.0 0.0 
0.0 0.0 0.0 
0.0 0.0 0.0 
0.0 0.0 0.0 
0.0 0.0 0.0 
0.0 0.0 0.0 
0.0 0.0 0.0 
0.0 0.0 0.0 
0.0 0.0 0.0 
0.0 0.0 0.0 
0.0 0.0 0.0 
0.0 0.0 0.0 
0.0 0.0 0.0 
0.0 0.0 0.0 
0.0 0.0 0.0 
0.0 0.0 0.0 
0.0 0.0 0.0 
0.0 0.0 0.0 
0.0 0.0 0.0 
0.0 0.0 0.0 
0.0 0.0 0.0 
0.0 0.0 0.0 
0.0 0.0 0.0 
0.0 0.0 0.0 
0.0 0.0 0.0 
0.0 0.0 0.0 
0.0 0.0 0.0 
0.0 0.0 0.0 
0.0 0.0 0.0 
0.0 0.0 0.0 
0.0 0.0 0.0 
0.0 0.0 0.0 
0.0 0.0 0.0 
0.0 0.0 0.0 
0.0 0.0 0.0 
0.0 0.0 0.0 
0.0 0.0 0.0 
0.0 0.0 0.0 
0.0 0.0 0.0 
0.0 0.0 0.0 
0.0 0.0 0.0 
0.0 0.0 0.0 
0.0 0.0 0.0 
0.0 0.0 0.0 
0.0 0.0 0.0 
0.0 0.0 0.0 
0.0 0.0 0.0 
0.0 0.0 0.0 
0.0 0.0 0.0 
0.0 0.0 0.0 
0.0 0.0 0.0 
0.0 0.0 0.0 
0.0 0.0 0.0 
0.0 0.0 0.0 
0.0 0.0 0.0 
0.0 0.0 0.0 
0.0 0.0 0.0 
0.0 0.0 0.0 
0.0 0.0 0.0 
0.0 0.0 0.0 
0.0 0.0 0.0 
0.0 0.0 0.0 
0.0 0.0 0.0 
0.0 0.0 0.0 
0.0 0.0 0.0 
0.0 0.0 0.0 
0.0 0.0 0.0 
0.0 0.0 0.0 
0.0 0.0 0.0 
0.0 0.0 0.0 
0.0 0.0 0.0 
0.0 0.0 0.0 
0.0 0.0 0.0 
0.0 0.0 0.0 
0.0 0.0 0.0 
0.0 0.0 0.0 
0.0 0.0 0.0 
0.0 0.0 0.0 
0.0 0.0 0.0 
0.0 0.0 0.0 
0.0 0.0 0.0 
0.0 0.0 0.0 
0.0 0.0 0.0 
0.0 0.0 0.0 
0.0 0.0 0.0 
0.0 0.0 0.0 
0.0 0.0 0.0 
0.0 0.0 0.0 
0.0 0.0 0.0 
0.0 0.0 0.0 
0.0 0.0 0.0 
0.0 0.0 0.0 
0.0 0.0 0.0 
0.0 0.0 0.0 
0.0 0.0 0.0 
0.0 0.0 0.0 
0.0 0.0 0.0 
0.0 0.0 0.0 
0.0 0.0 0.0 
0.0 0.0 0.0 
0.0 0.0 0.0 
0.0 0.0 0.0 
0.0 0.0 0.0 
0.0 0.0 0.0 
0.0 0.0 0.0 
0.0 0.0 0.0 
0.0 0.0 0.0 
0.0 0.0 0.0 
0.0 0.0 0.0 
0.0 0.0 0.0 
0.0 0.0 0.0 
0.0 0.0 0.0 
0.0 0.0 0.0 
0.0 0.0 0.0 
0.0 0.0 0.0 
0.0 0.0 0.0 
0.0 0.0 0.0 
0.0 0.0 0.0 
0.0 0.0 0.0 
0.0 0.0 0.0 
0.0 0.0 0.0 
0.0 0.0 0.0 
0.0 0.0 0.0 
0.0 0.0 0.0 
0.0 0.0 0.0 
0.0 0.0 0.0 
0.0 0.0 0.0 
0.0 0.0 0.0 
0.0 0.0 0.0 
0.0 0.0 0.0 
0.0 0.0 0.0 
0.0 0.0 0.0 
0.0 0.0 0.0 
0.0 0.0 0.0 
0.0 0.0 0.0 
0.0 0.0 0.0 
0.0 0.0 0.0 
0.0 0.0 0.0 
0.0 0.0 0.0 
0.0 0.0 0.0 
0.0 0.0 0.0 
0.0 0.0 0.0 
0.0 0.0 0.0 
0.0 0.0 0.0 
0.0 0.0 0.0 
0.0 0.0 0.0 
0.0 0.0 0.0 
0.0 0.0 0.0 
0.0 0.0 0.0 
0.0 0.0 0.0 
0.0 0.0 0.0 
0.0 0.0 0.0 
0.0 0.0 0.0 
0.0 0.0 0.0 
0.0 0.0 0.0 
0.0 0.0 0.0 
0.0 0.0 0.0 
0.0 0.0 0.0 
0.0 0.0 0.0 
0.0 0.0 0.0 
0.0 0.0 0.0 
0.0 0.0 0.0 
0.0 0.0 0.0 
0.0 0.0 0.0 
0.0 0.0 0.0 
0.0 0.0 0.0 
0.0 0.0 0.0 
0.0 0.0 0.0 
0.0 0.0 0.0 
0.0 0.0 0.0 
0.0 0.0 0.0 
0.0 0.0 0.0 
0.0 0.0 0.0 
0.0 0.0 0.0 
0.0 0.0 0.0 
0.0 0.0 0.0 
0.0 0.0 0.0 
0.0 0.0 0.0 
0.0 0.0 0.0 
0.0 0.0 0.0 
0.0 0.0 0.0 
0.0 0.0 0.0 
0.0 0.0 0.0 
0.0 0.0 0.0 
0.0 0.0 0.0 
0.0 0.0 0.0 
0.0 0.0 0.0 
0.0 0.0 0.0 
0.0 0.0 0.0 

VECTORS node_materi_velocity float
0.0 -2.725530828604e-04 0.0 
0.0 1.004258568151e-02 0.0 
0.0 0.0 0.0 
0.0 0.0 0.0 
0.0 -2.573023046525e-04 0.0 
0.0 -2.421487055607e-04 0.0 
0.0 -2.267911463209e-04 0.0 
0.0 -2.110650869620e-04 0.0 
0.0 -1.947481831844e-04 0.0 
0.0 -1.777797946660e-04 0.0 
0.0 -1.601647063427e-04 0.0 
0.0 -1.419725563628e-04 0.0 
0.0 -1.233967933790e-04 0.0 
0.0 -1.047026623479e-04 0.0 
0.0 -8.627214956719e-05 0.0 
0.0 -6.855092876558e-05 0.0 
0.0 -5.188605743140e-05 0.0 
0.0 -3.637427078194e-05 0.0 
0.0 -2.295623510330e-05 0.0 
0.0 -1.197557030057e-05 0.0 
0.0 -3.776028153991e-06 0.0 
0.0 1.077055873104e-06 0.0 
0.0 2.154272220002e-06 0.0 
0.0 0.0 0.0 
0.0 0.0 0.0 
0.0 0.0 0.0 
0.0 0.0 0.0 
0.0 0.0 0.0 
0.0 0.0 0.0 
0.0 0.0 0.0 
0.0 0.0 0.0 
0.0 0.0 0.0 
0.0 0.0 0.0 
0.0 0.0 0.0 
0.0 0.0 0.0 
0.0 0.0 0.0 
0.0 0.0 0.0 
0.0 0.0 0.0 
0.0 0.0 0.0 
0.0 0.0 0.0 
0.0 0.0 0.0 
0.0 0.0 0.0 
0.0 0.0 0.0 
0.0 0.0 0.0 
0.0 0.0 0.0 
0.0 0.0 0.0 
0.0 0.0 0.0 
0.0 0.0 0.0 
0.0 0.0 0.0 
0.0 0.0 0.0 
0.0 0.0 0.0 
0.0 0.0 0.0 
0.0 0.0 0.0 
0.0 0.0 0.0 
0.0 0.0 0.0 
0.0 0.0 0.0 
0.0 0.0 0.0 
0.0 0.0 0.0 
0.0 0.0 0.0 
0.0 0.0 0.0 
0.0 0.0 0.0 
0.0 0.0 0.0 
0.0 0.0 0.0 
0.0 0.0 0.0 
0.0 0.0 0.0 
0.0 0.0 0.0 
0.0 0.0 0.0 
0.0 0.0 0.0 
0.0 0.0 0.0 
0.0 0.0 0.0 
0.0 0.0 0.0 
0.0 0.0 0.0 
0.0 9.027876566491e-03 0.0 
0.0 8.009137895836e-03 0.0 
0.0 6.987718098878e-03 0.0 
0.0 5.965089770172e-03 0.0 
0.0 4.944511224059e-03 0.0 
0.0 3.929086534867e-03 0.0 
0.0 2.922782476251e-03 0.0 
0.0 1.930121227429e-03 0.0 
0.0 9.553783542300e-04 0.0 
3.603723878475e-04 -2.195653208338e-04 0.0 
1.651774809679e-03 7.399677072731e-03 0.0 
3.807333846386e-04 -1.353870358267e-04 0.0 
4.090501331799e-04 -3.108035242357e-05 0.0 
4.487097857559e-04 1.258256203441e-04 0.0 
5.082828930321e-04 3.581103171980e-04 0.0 
6.060187687224e-04 7.019670163586e-04 0.0 
7.942704320637e-04 1.220954950387e-03 0.0 
1.238687514590e-03 2.012652626676e-03 0.0 
2.737786532070e-03 3.249453891046e-03 0.0 
1.930586756585e-03 5.915258866545e-03 0.0 
0.0 1.107296742901e-02 0.0 
1.199947742968e-04 1.005515784535e-02 0.0 
2.328887823184e-04 1.006361100918e-02 0.0 
3.364124156495e-04 1.007011754064e-02 0.0 
4.361668729839e-04 1.007812267732e-02 0.0 
5.302339229215e-04 1.007944896532e-02 0.0 
6.186492461969e-04 1.007542578491e-02 0.0 
7.008632718570e-04 1.005844992275e-02 0.0 
7.728032952621e-04 1.001944730646e-02 0.0 
8.380828717058e-04 9.947612515966e-03 0.0 
8.977068993486e-04 9.836229865014e-03 0.0 
9.587728566890e-04 9.651693259963e-03 0.0 
1.035297864357e-03 9.367629412995e-03 0.0 
1.151277322830e-03 8.945180870109e-03 0.0 
1.344031258788e-03 8.312463950320e-03 0.0 
3.656089783799e-04 -2.570976482715e-04 0.0 
3.729317276147e-04 -2.899557792486e-04 0.0 
3.790049253681e-04 -3.147885010753e-04 0.0 
3.827577889936e-04 -3.317912356795e-04 0.0 
3.821142058872e-04 -3.425970909343e-04 0.0 
3.772727853057e-04 -3.476103882088e-04 0.0 
3.682378906979e-04 -3.479141476622e-04 0.0 
3.551228295640e-04 -3.448952453548e-04 0.0 
3.382629758326e-04 -3.393504799675e-04 0.0 
3.179208973351e-04 -3.320184215986e-04 0.0 
2.944065779091e-04 -3.238508156746e-04 0.0 
2.682538944069e-04 -3.150806057151e-04 0.0 
2.396248320897e-04 -3.064729703959e-04 0.0 
2.089988552121e-04 -2.982836173420e-04 0.0 
1.766821640578e-04 -2.910021657265e-04 0.0 
1.429885359979e-04 -2.846906978977e-04 0.0 
1.081750514158e-04 -2.795486228103e-04 0.0 
7.256073668535e-05 -2.757917131940e-04 0.0 
3.643537181088e-05 -2.735138438090e-04 0.0 
5.948114248490e-04 8.250092255656e-03 0.0 
4.755898532077e-04 8.912112206099e-03 0.0 
4.404395656400e-04 9.639836871315e-03 0.0 
4.992681793284e-04 1.012464076680e-02 0.0 
5.732438410314e-04 1.046411608720e-02 0.0 
6.396587744520e-04 1.069976190986e-02 0.0 
6.883843804483e-04 1.085322918983e-02 0.0 
6.960215181760e-04 1.095450059491e-02 0.0 
6.781148215923e-04 1.102605259746e-02 0.0 
6.379933169883e-04 1.106226062859e-02 0.0 
5.795536302097e-04 1.108003380077e-02 0.0 
5.046223707003e-04 1.108702123500e-02 0.0 
4.244365660159e-04 1.108843563502e-02 0.0 
3.395405758844e-04 1.107888541783e-02 0.0 
2.565242421804e-04 1.107598227304e-02 0.0 
1.575573153192e-04 1.108037736023e-02 0.0 
3.737146939244e-04 -1.799668448913e-04 0.0 
3.930834957779e-04 -8.983705265369e-05 0.0 
4.274287782435e-04 3.998780944990e-05 0.0 
4.749605831310e-04 2.299010382929e-04 0.0 
5.485352629194e-04 5.127217517430e-04 0.0 
6.833369491032e-04 9.378901698230e-04 0.0 
9.645568275864e-04 1.576429137532e-03 0.0 
1.729071002315e-03 2.553601891647e-03 0.0 
2.793803931340e-03 4.588154144711e-03 0.0 
1.667736029662e-03 6.819245048626e-03 0.0 
4.424680405283e-04 -9.068982889007e-05 0.0 
1.404519373155e-04 1.598844085944e-05 0.0 
3.252470731896e-04 -3.281254554518e-04 0.0 
3.950132230833e-04 -3.367762021402e-04 0.0 
7.347388913931e-05 5.678978140126e-06 0.0 
5.791885307052e-04 2.343098340002e-04 0.0 
2.896877828856e-05 -9.546836630149e-05 0.0 
2.294222208088e-04 3.895940175732e-05 0.0 
9.372658304886e-04 9.152303454994e-04 0.0 
3.482384899186e-04 8.675692060735e-05 0.0 
2.253453711146e-03 2.734596183402e-03 0.0 
3.707312501895e-05 3.219503495359e-06 0.0 
2.163883799051e-04 -2.905672222972e-04 0.0 
5.107472128791e-04 1.940749452638e-04 0.0 
2.225741070193e-03 5.903600317873e-03 0.0 
2.912921215039e-05 -1.690557270474e-04 0.0 
2.617693812253e-05 -4.713084734089e-05 0.0 
6.258511881321e-04 3.409904372066e-04 0.0 
5.815685646897e-04 5.486877689366e-04 0.0 
1.715128143531e-04 8.022737225137e-04 0.0 
3.351617747827e-04 8.310930353730e-04 0.0 
4.489886752102e-04 6.680686615065e-04 0.0 
1.715191290420e-03 7.732419723130e-03 0.0 
1.037637521140e-03 8.979086026354e-03 0.0 
7.149541096069e-04 9.129054457621e-03 0.0 
8.855765929753e-05 5.439473317164e-03 0.0 
2.167711498569e-05 2.642529256105e-06 0.0 
3.956411408889e-04 -2.748450702126e-04 0.0 
1.221228906112e-04 -2.691402921705e-04 0.0 
1.622815559934e-05 -8.192696239126e-06 0.0 
3.863457335747e-04 9.197978050553e-03 0.0 
3.224113539649e-05 -2.198289015464e-04 0.0 
7.054049412218e-04 5.060692309498e-04 0.0 
2.636758504470e-04 5.408557166950e-05 0.0 
4.223517755895e-04 1.287152134229e-04 0.0 
1.932482734360e-04 2.736342845829e-05 0.0 
1.034187955332e-04 9.617375630446e-06 0.0 
3.773642547732e-04 -3.442203404062e-04 0.0 
1.292476748680e-03 8.652238014997e-03 0.0 
6.275506382388e-05 4.438957802211e-06 0.0 
7.439968499551e-05 3.467406440462e-03 0.0 
2.764321021768e-04 -3.096985792207e-04 0.0 
3.012111643770e-05 -1.332824063914e-04 0.0 
8.380080558289e-05 6.570494833585e-04 0.0 
7.105932082388e-04 4.897728351912e-04 0.0 
4.971290630197e-04 4.163220581923e-05 0.0 
1.376305312139e-03 1.560078286405e-03 0.0 
2.318335415406e-03 4.251355713085e-03 0.0 
4.002963478296e-04 -1.846985336815e-04 0.0 
9.614212949333e-05 7.378465258904e-03 0.0 
9.622787188895e-06 1.961875298452e-06 0.0 
5.427797267932e-05 -2.616377001832e-04 0.0 
4.374492816045e-05 1.511122976898e-03 0.0 
2.251996443933e-03 6.209071799018e-03 0.0 
2.529575454090e-03 5.140148749764e-03 0.0 
2.429570194938e-03 5.673702520145e-03 0.0 
2.642085397147e-03 4.503139095244e-03 0.0 
2.556945181597e-03 4.748459064614e-03 0.0 
2.650775865871e-03 3.862937972074e-03 0.0 
2.706625898659e-03 3.569279916496e-03 0.0 
2.652732674876e-03 3.082468043776e-03 0.0 
2.678286805493e-03 2.804595965509e-03 0.0 
2.528927215629e-03 4.012551346399e-03 0.0 
2.583347028029e-03 2.427205406387e-03 0.0 
2.589406581500e-03 2.187472957346e-03 0.0 
2.461601834679e-03 1.891519181141e-03 0.0 
2.458907789089e-03 1.694980819150e-03 0.0 
2.537394013598e-03 1.913097728938e-03 0.0 
2.406531989868e-03 1.473212729897e-03 0.0 
2.439126617166e-03 1.626162121187e-03 0.0 
2.313480357952e-03 1.241191115495e-03 0.0 
2.252602881218e-03 1.125511402335e-03 0.0 
2.169076595989e-03 9.401863170274e-04 0.0 
2.189844938478e-03 1.011943174440e-03 0.0 
2.057816003516e-03 7.566926872667e-04 0.0 
2.044161084938e-03 7.941588029663e-04 0.0 
1.926820430303e-03 5.823017374873e-04 0.0 
1.882595186650e-03 5.931052910121e-04 0.0 
1.782914257447e-03 4.223135675440e-04 0.0 
1.799951825773e-03 4.209475907592e-04 0.0 
1.674209486655e-03 2.930713302800e-04 0.0 
1.634058706165e-03 2.812827619756e-04 0.0 
1.543599275328e-03 1.795835350551e-04 0.0 
1.487007023126e-03 1.606734217182e-04 0.0 
1.413771801734e-03 8.189045730095e-05 0.0 
1.445235995422e-03 1.052125019174e-04 0.0 
1.331718638968e-03 2.555780598096e-05 0.0 
1.288673191131e-03 -3.350466799548e-07 0.0 
1.221386862972e-03 -4.201457558882e-05 0.0 
1.171173134543e-03 -6.841379228261e-05 0.0 
1.116648753664e-03 -9.833630735005e-05 0.0 
1.062795422710e-03 -1.239830070773e-04 0.0 
1.018289354819e-03 -1.448512472268e-04 0.0 
1.054231179979e-03 -1.157963657431e-04 0.0 
9.656598124271e-04 -1.550955344835e-04 0.0 
9.271645637447e-04 -1.828032729362e-04 0.0 
8.827624763292e-04 -1.873168329096e-04 0.0 
9.064793918926e-04 -1.570308606148e-04 0.0 
8.317919191981e-04 -1.847277015454e-04 0.0 
8.424513357455e-04 -1.526781662742e-04 0.0 
7.759126233326e-04 -1.767857166977e-04 0.0 
7.622617676394e-04 -2.070727724520e-04 0.0 
7.130247355181e-04 -1.963442391766e-04 0.0 
7.167752191826e-04 -1.649725123472e-04 0.0 
6.603298652319e-04 -1.825347786721e-04 0.0 
6.535263042773e-04 -2.123003518055e-04 0.0 
6.066774819604e-04 -1.966207084413e-04 0.0 
6.058930637792e-04 -1.665067837530e-04 0.0 
5.575721866992e-04 -1.793635117412e-04 0.0 
5.557947859874e-04 -2.078879029275e-04 0.0 
5.113421688262e-04 -1.896489950884e-04 0.0 
5.076505423796e-04 -1.610193674291e-04 0.0 
4.656672515344e-04 -1.708657851288e-04 0.0 
4.670756215408e-04 -1.978709361446e-04 0.0 
4.252422169445e-04 -1.786584469671e-04 0.0 
4.197584881501e-04 -1.519181966746e-04 0.0 
3.828159344863e-04 -1.596810633857e-04 0.0 
3.740669664462e-04 -1.335401601947e-04 0.0 
3.857895416235e-04 -1.850815751577e-04 0.0 
3.466391471405e-04 -1.661161063088e-04 0.0 
3.478444379906e-04 -1.903742931022e-04 0.0 
3.113937008357e-04 -1.715270024279e-04 0.0 
1.340715732713e-03 5.241626875132e-05 0.0 
3.118411584732e-04 -1.945330795112e-04 0.0 
3.457710500816e-04 -2.131711524904e-04 0.0 
2.772716329517e-04 -1.761555120760e-04 0.0 
2.745481022639e-04 -1.534772003191e-04 0.0 
2.772097257910e-04 -1.979405227507e-04 0.0 
2.441347983833e-04 -1.802266712162e-04 0.0 
2.439535734391e-04 -2.008975997511e-04 0.0 
1.093551973329e-03 -9.122145804637e-05 0.0 
2.081844668683e-03 8.542412951895e-04 0.0 
2.120058498657e-04 -1.840404792704e-04 0.0 
2.119906702421e-04 -2.036748881157e-04 0.0 
2.424313311098e-04 -2.204147113011e-04 0.0 
2.112169816342e-04 -2.222038701629e-04 0.0 
2.412116811266e-03 4.844599326375e-03 0.0 
2.358642158392e-03 4.034735414087e-03 0.0 
2.235402942817e-03 4.812600834137e-03 0.0 
2.150882006042e-03 3.949361823897e-03 0.0 
2.031887595529e-03 4.653751073647e-03 0.0 
1.811904123054e-04 -2.065587499481e-04 0.0 
2.400703010472e-03 2.024035523792e-03 0.0 
2.203140902070e-03 3.262467998588e-03 0.0 
2.149964553863e-03 1.069660967924e-03 0.0 
1.549734812648e-03 2.673132139914e-04 0.0 
9.117011995085e-04 -1.237157049669e-04 0.0 
2.106379516850e-04 -1.634822505958e-04 0.0 
1.796121595125e-04 -1.682476970245e-04 0.0 
1.770610869187e-04 -1.479183723629e-04 0.0 
4.075534493297e-04 -1.246088126446e-04 0.0 
3.589337738452e-04 -1.074480394378e-04 0.0 
3.876867623600e-04 -9.760358520788e-05 0.0 
3.369032380620e-04 -8.217061695221e-05 0.0 
3.596916803715e-04 -7.184349729550e-05 0.0 
3.077453130087e-04 -5.856603027747e-05 0.0 
2.888422747779e-04 -6.807697119595e-05 0.0 
2.594664913154e-04 -4.668494358532e-05 0.0 
2.438426340117e-04 -5.540852215772e-05 0.0 
3.234544167232e-04 -4.830312924233e-05 0.0 
3.797143819531e-04 -6.045837298659e-05 0.0 
2.150807525089e-04 -3.624583650450e-05 0.0 
2.021504995221e-04 -4.421677433233e-05 0.0 
1.747274207537e-04 -2.728432407929e-05 0.0 
1.639728477056e-04 -3.449534355438e-05 0.0 
1.860362702591e-04 -5.200129570088e-05 0.0 
1.497748636892e-04 -4.174345595513e-05 0.0 
1.672556593112e-04 -5.963208731642e-05 0.0 
8.351137826456e-04 -1.185997918026e-04 0.0 
8.956020960337e-04 -8.897713067434e-05 0.0 
8.076101292396e-04 -8.407405696596e-05 0.0 
8.556483332094e-04 -5.483388764450e-05 0.0 
7.583374302821e-04 -5.095399582591e-05 0.0 
7.905773146012e-04 -2.344202793662e-05 0.0 
6.864329024601e-04 -2.117790887467e-05 0.0 
6.645285101799e-04 -4.473617222017e-05 0.0 
2.298635340544e-03 1.450650669092e-03 0.0 
8.437473314048e-04 -2.133321320702e-04 0.0 
8.735708672479e-04 -2.053603421231e-04 0.0 
7.930215964086e-04 -2.342130267739e-04 0.0 
8.091226910605e-04 -2.220844523162e-04 0.0 
7.342901401006e-04 -2.495440795900e-04 0.0 
7.381823786041e-04 -2.327150304261e-04 0.0 
6.711286249160e-04 -2.593610922267e-04 0.0 
6.681514604466e-04 -2.713761517653e-04 0.0 
6.124636772461e-04 -2.807948530556e-04 0.0 
6.094437202581e-04 -2.886141857604e-04 0.0 
5.610852140388e-04 -2.978636496611e-04 0.0 
5.572474764495e-04 -3.020008462404e-04 0.0 
1.665914819755e-03 2.997440543487e-04 0.0 
8.994008514137e-04 -2.222748945763e-05 0.0 
8.150608497305e-04 5.895618169341e-06 0.0 
9.358130397372e-04 1.313612247488e-05 0.0 
2.403101979360e-04 -2.386181099898e-04 0.0 
1.293989698206e-04 -2.615490955649e-05 0.0 
3.350612180657e-04 -3.738298091727e-05 0.0 
3.962379364271e-04 -4.824793526668e-05 0.0 
5.881745339697e-04 -1.732937189800e-05 0.0 
1.812692727712e-04 -2.242331614165e-04 0.0 
6.651553958675e-04 -2.374934197328e-04 0.0 
7.312860544066e-04 -2.049665347687e-04 0.0 
1.916736648912e-03 3.751532938746e-03 0.0 
1.810535297681e-03 4.393413214001e-03 0.0 
3.414816474245e-04 -2.598143981013e-05 0.0 
1.513604489947e-04 -2.097942818827e-04 0.0 
2.241434264739e-04 -2.814420248155e-05 0.0 
5.573097585146e-04 -2.856327673261e-04 0.0 
1.166517267744e-04 -3.285830345799e-05 0.0 
9.848180495692e-05 -1.908175000857e-05 0.0 
2.674691270405e-04 -7.681340388493e-05 0.0 
8.287133589966e-04 3.638454362493e-05 0.0 
9.635639406586e-04 4.990827241574e-05 0.0 
5.990048406933e-04 -2.887849824139e-04 0.0 
5.467361406125e-04 -2.995080842428e-04 0.0 
5.109326181039e-04 -3.121192917458e-04 0.0 
5.005157469212e-04 -3.071058280443e-04 0.0 
5.302324335836e-04 -2.914387792968e-04 0.0 
4.839223290469e-04 -2.972783541304e-04 0.0 
4.587266907034e-04 -3.120287637848e-04 0.0 
4.421964121266e-04 -3.010199902414e-04 0.0 
4.628014906040e-04 -2.837288421680e-04 0.0 
4.215282780484e-04 -2.864503788390e-04 0.0 
4.046884278065e-04 -3.028745713653e-04 0.0 
3.840033013693e-04 -2.876531565434e-04 0.0 
1.063843682008e-04 -1.342907658603e-05 0.0 
5.141827999276e-04 -3.030820099566e-04 0.0 
2.539019542285e-03 2.113783246825e-03 0.0 
2.813938691694e-04 -1.822932838108e-05 0.0 
5.936903298027e-04 3.006206001519e-06 0.0 
1.664847940039e-03 3.464231992091e-03 0.0 
1.577052551922e-03 4.052425229181e-03 0.0 
1.659673524212e-03 5.035078106472e-03 0.0 
1.451613887969e-03 4.637642369155e-03 0.0 
1.337830552171e-03 3.649576160333e-03 0.0 
1.239119192148e-03 4.192627885408e-03 0.0 
1.302956112235e-03 5.208467178714e-03 0.0 
1.118360485538e-03 4.725219980743e-03 0.0 
1.144650466919e-03 5.756413269140e-03 0.0 
9.864377010405e-04 5.242011090851e-03 0.0 
9.331458430373e-04 4.215622842754e-03 0.0 
8.257867793962e-04 4.710722760419e-03 0.0 
8.519000945622e-04 5.742669216692e-03 0.0 
7.123363785435e-04 5.194886231527e-03 0.0 
7.205046209807e-04 6.227488301228e-03 0.0 
5.976165702956e-04 5.668595416416e-03 0.0 
5.739379352531e-04 4.641056295333e-03 0.0 
1.530217877947e-04 -2.262652340000e-04 0.0 
5.755127440885e-04 -3.735380677449e-05 0.0 
4.966140490597e-04 -1.265434882048e-05 0.0 
1.481470889641e-04 -1.538307694518e-04 0.0 
1.448809541517e-04 -1.337710810459e-04 0.0 
1.728969997118e-04 -1.271818425361e-04 0.0 
1.389292613892e-04 -1.134864659689e-04 0.0 
4.726313812793e-04 5.111635014649e-03 0.0 
4.415955043736e-04 4.086444465917e-03 0.0 
6.499031320746e-04 -2.043448276375e-04 0.0 
7.131947649245e-04 -1.645348418997e-04 0.0 
1.702843508214e-03 2.888189356210e-03 0.0 
8.674210880815e-05 -2.529935902913e-05 0.0 
1.007363785207e-04 -3.988779488696e-05 0.0 
1.393684946325e-03 1.430458659795e-04 0.0 
1.426026429783e-03 2.529436321697e-04 0.0 
1.270368661883e-03 1.294191335568e-04 0.0 
1.267481831067e-03 2.410441008258e-04 0.0 
1.441283050582e-03 3.939052304263e-04 0.0 
1.120601613036e-03 1.205826528010e-04 0.0 
4.404067527337e-04 -7.426598618519e-05 0.0 
7.527081874855e-04 3.690241598456e-03 0.0 
2.718261402443e-04 -2.377987593934e-04 0.0 
2.679414448655e-04 -2.554426262738e-04 0.0 
7.124137751961e-05 -1.330256952900e-05 0.0 
6.364614729868e-04 -6.664725651513e-05 0.0 
1.763376994958e-03 4.118309858054e-04 0.0 
1.605958032452e-03 2.994633401959e-04 0.0 
1.669790925792e-03 3.933189527993e-04 0.0 
1.491699404767e-03 2.903767293131e-04 0.0 
1.515924667024e-03 3.631899143334e-04 0.0 
1.321805173561e-03 2.707689291213e-04 0.0 
1.314337120279e-03 2.139282803513e-04 0.0 
8.272745129991e-04 6.644252390001e-05 0.0 
1.132145030092e-03 2.011264189433e-04 0.0 
4.924264090456e-04 6.143166034227e-03 0.0 
1.011478312736e-03 -1.652753941317e-05 0.0 
4.377128813765e-04 -2.674187511013e-04 0.0 
1.826207622041e-04 -2.403345798791e-04 0.0 
3.706201757473e-04 -3.037512751019e-04 0.0 
1.224327702312e-04 -2.134864353374e-04 0.0 
1.208662279928e-04 -1.963784435519e-04 0.0 
2.769661462551e-04 -8.589422797170e-06 0.0 
1.300693538040e-03 3.191624569764e-04 0.0 
1.510563801137e-03 4.288043609362e-04 0.0 
1.247937766113e-03 3.851303969581e-04 0.0 
1.439317037345e-03 5.733738717087e-04 0.0 
6.893132541936e-04 5.092393414665e-05 0.0 
2.037973890322e-03 5.609716215050e-03 0.0 
1.294702159587e-03 6.245109956557e-03 0.0 
1.112064956909e-03 6.798783804461e-03 0.0 
1.283051068997e-04 -2.316384902470e-04 0.0 
3.891696604763e-04 -3.164618745115e-04 0.0 
1.099945082055e-03 3.202258908636e-03 0.0 
8.067924443270e-04 -1.647552225346e-04 0.0 
7.874748363681e-04 -1.158864247560e-04 0.0 
5.054697924628e-04 -2.868111076010e-04 0.0 
4.709187733790e-04 -3.050830690670e-04 0.0 
3.592314745265e-04 4.539398653507e-03 0.0 
3.225781094176e-04 3.531163505226e-03 0.0 
1.663286546180e-04 -1.063915807533e-04 0.0 
1.321120549919e-04 -9.349842048916e-05 0.0 
3.414110908191e-04 -1.437778527009e-05 0.0 
3.498272278653e-04 -2.877473965327e-04 0.0 
3.819018799064e-04 3.074405312660e-03 0.0 
5.558845861950e-04 -5.634000088773e-05 0.0 
6.040109069889e-04 -8.652278331863e-05 0.0 
1.106772992067e-04 -1.207583097536e-04 0.0 
6.242794453465e-04 -1.589778857157e-04 0.0 
5.740189061663e-04 -1.991819649793e-04 0.0 
4.816964183114e-04 -2.634624882030e-04 0.0 
3.601231411397e-04 -2.707150327007e-04 0.0 
9.188137480593e-05 -2.015176497242e-04 0.0 
2.642912055813e-04 2.232440245857e-07 0.0 
1.140365528889e-03 2.693098824087e-03 0.0 
1.143056121152e-03 1.591684534902e-04 0.0 
1.286578999501e-03 1.555830099542e-04 0.0 
9.506938669797e-04 1.498935152423e-04 0.0 
3.406389041086e-04 -3.026675150067e-04 0.0 
2.193507434333e-04 -4.027056751612e-06 0.0 
6.012274120021e-05 -1.890844078841e-05 0.0 
1.258865216792e-03 3.613945479783e-04 0.0 
1.471043301530e-03 4.821777419499e-04 0.0 
8.935277930319e-04 -1.151852178904e-04 0.0 
8.778233157112e-04 -5.472157058599e-05 0.0 
7.563977219391e-04 -5.006215840438e-05 0.0 
8.453079774841e-04 2.470792104455e-05 0.0 
2.690467922799e-03 3.179002715892e-03 0.0 
9.964291489593e-04 -5.282392068968e-05 0.0 
2.404266252321e-03 1.762883585571e-03 0.0 
2.470877348160e-03 2.293309628551e-03 0.0 
2.316284045138e-03 1.882425782683e-03 0.0 
1.632787646262e-03 5.834184919017e-04 0.0 
1.658730766400e-03 8.156343179243e-04 0.0 
8.931477346706e-04 -1.876504801683e-04 0.0 
9.832336396376e-04 -8.922643679976e-05 0.0 
2.016552346901e-04 -1.207039492115e-04 0.0 
2.045033720055e-04 -7.155082199444e-05 0.0 
4.407331045470e-04 -1.141481778697e-04 0.0 
8.221218336058e-04 3.206384051559e-03 0.0 
6.291467133855e-04 2.687439491279e-03 0.0 
8.380904871539e-04 6.779521918972e-03 0.0 
6.999942471209e-04 7.261247144252e-03 0.0 
2.384469594161e-04 -2.554649047271e-04 0.0 
2.652040213222e-04 -2.716840206619e-04 0.0 
3.292593854562e-04 -1.160989615255e-04 0.0 
2.273296420453e-04 -1.161097779206e-05 0.0 
1.423807952693e-03 2.572282278621e-03 0.0 
1.390716036517e-03 2.061994590858e-03 0.0 
1.682433059053e-03 2.338938247415e-03 0.0 
3.331244388533e-04 -2.935540643910e-06 0.0 
7.682644226078e-04 -2.375890659299e-04 0.0 
7.574415795545e-04 -1.098412889350e-04 0.0 
4.771401136265e-04 -3.167615977630e-04 0.0 
1.436831400742e-03 1.270471276103e-04 0.0 
2.378529643401e-04 -2.709927783574e-04 0.0 
2.119746642841e-03 9.941081743200e-04 0.0 
4.780180640014e-05 -8.578163158800e-06 0.0 
5.450718438031e-05 -4.383688500095e-06 0.0 
6.580927616743e-04 7.155398965798e-05 0.0 
2.514415316669e-03 4.572862164167e-03 0.0 
1.312176623382e-03 7.780194403600e-05 0.0 
1.232273037444e-03 1.647535892902e-05 0.0 
2.362668015533e-03 2.447550969580e-03 0.0 
2.201222455336e-03 1.970041532426e-03 0.0 
2.133314030765e-03 1.496617180452e-03 0.0 
1.966039429800e-03 1.522012881375e-03 0.0 
4.517504103384e-04 -2.459914125360e-04 0.0 
4.095013994245e-04 -2.496403851490e-04 0.0 
1.017032284898e-03 2.590966467360e-04 0.0 
9.055832505659e-04 1.739847450280e-04 0.0 
1.169685261117e-03 3.813525845894e-04 0.0 
1.386656496484e-03 5.120360466344e-04 0.0 
5.203015289745e-04 5.405210753953e-05 0.0 
5.614856685931e-04 3.959508311948e-05 0.0 
8.997963995888e-05 -1.841613835086e-04 0.0 
1.422126907858e-03 7.986025043531e-04 0.0 
8.836390686213e-04 2.240392749969e-03 0.0 
2.494757462496e-03 2.943741418104e-03 0.0 
1.700262268585e-04 -5.061253691112e-07 0.0 
1.795027412809e-04 -6.653211222045e-06 0.0 
4.416568047394e-04 -3.197642430951e-04 0.0 
4.436495196036e-04 -3.283699906620e-04 0.0 
2.635766712033e-04 2.549606831950e-03 0.0 
7.146670536565e-04 3.315831092617e-05 0.0 
7.963372247658e-04 1.224425520481e-04 0.0 
6.471336110458e-04 -4.103426294417e-05 0.0 
6.776651822946e-06 2.401173473784e-06 0.0 
1.709511716353e-04 9.192900867637e-03 0.0 
3.467746219384e-05 -1.417909751519e-06 0.0 
1.848785500660e-03 8.292649265092e-04 0.0 
2.934885976795e-04 2.061175186647e-03 0.0 
1.188574359397e-03 4.501444403049e-05 0.0 
1.247848795818e-03 4.101846720318e-05 0.0 
4.128854252670e-04 -2.083773356699e-05 0.0 
2.080648323739e-04 3.082644881160e-03 0.0 
1.602566221053e-04 1.986753404893e-03 0.0 
1.219274308715e-03 7.276846531951e-03 0.0 
1.033195485110e-03 7.841914115517e-03 0.0 
1.430916142685e-03 6.695499166636e-03 0.0 
5.468639704485e-04 -2.639018824575e-04 0.0 
4.853019474994e-04 -2.573776119070e-04 0.0 
5.825770616993e-04 3.155598481230e-03 0.0 
1.493702231339e-04 -1.731807157193e-04 0.0 
1.153676490977e-04 -1.573169696713e-04 0.0 
3.258396089718e-04 -2.714991586538e-04 0.0 
3.333808095573e-04 -2.532152516403e-04 0.0 
1.932523651216e-04 -9.944308593674e-05 0.0 
2.303362522367e-04 -1.141498763113e-04 0.0 
1.923831034536e-03 7.533296977907e-04 0.0 
1.913067619783e-03 8.500127674605e-04 0.0 
1.845432404091e-03 5.306828819379e-04 0.0 
5.310512069513e-04 -7.370343341918e-05 0.0 
5.687243823482e-04 -1.041043728494e-04 0.0 
6.372534218918e-04 -1.184961898746e-04 0.0 
6.581136064978e-04 2.250359398491e-03 0.0 
4.447179695544e-04 1.659414604518e-03 0.0 
4.974632396097e-04 -2.411012907949e-04 0.0 
5.296307666333e-04 -2.577813793281e-04 0.0 
4.190449323105e-04 -2.279818187770e-04 0.0 
8.638054850498e-04 1.786059479163e-03 0.0 
3.778423509370e-05 8.959715856238e-07 0.0 
5.743103776724e-05 -9.794026420239e-07 0.0 
2.636213142573e-04 -2.858538406718e-04 0.0 
2.903598778791e-04 -2.873119564957e-04 0.0 
5.456324808472e-04 -1.505355868358e-04 0.0 
5.059674573638e-04 -1.911925129238e-04 0.0 
1.316447589832e-03 1.612629904054e-03 0.0 
1.603294705653e-03 1.838067038669e-03 0.0 
9.793096787510e-04 1.273027603041e-03 0.0 
6.058929926066e-05 -1.916053069248e-04 0.0 
1.133064498884e-03 1.152790374875e-04 0.0 
2.494286672705e-04 8.199135743046e-06 0.0 
3.235168872707e-04 7.036434020135e-06 0.0 
1.740643900620e-04 8.529025125870e-06 0.0 
8.121616245799e-04 9.375298932248e-05 0.0 
6.098729773880e-04 8.608319046202e-05 0.0 
7.110806479657e-04 1.277008490174e-04 0.0 
4.326821100256e-04 -3.048801393047e-04 0.0 
1.174859505166e-04 2.395538034876e-03 0.0 
7.938643101375e-04 7.815754004403e-03 0.0 
4.162466630008e-04 -3.181048392471e-04 0.0 
6.578775501148e-04 8.328396563224e-03 0.0 
5.762866980393e-04 7.736312559585e-03 0.0 
5.518435877333e-04 8.822356187389e-03 0.0 
6.330299731484e-05 -2.075286986635e-04 0.0 
1.284184178114e-03 7.903610357941e-03 0.0 
1.551185107849e-03 7.124326135264e-03 0.0 
2.881159979224e-04 -3.029352925739e-04 0.0 
5.945175827602e-04 1.339280494896e-03 0.0 
2.402051629585e-04 -2.844811412094e-04 0.0 
2.143521611827e-04 -2.708497352709e-04 0.0 
1.262066239819e-04 1.389105459050e-06 0.0 
1.376080591041e-04 -2.683665833061e-06 0.0 
8.926659216998e-05 3.051473010864e-06 0.0 
1.040866892896e-04 2.365995653424e-07 0.0 
1.437551432628e-04 -7.751369391169e-06 0.0 
1.089811338103e-04 -3.691257710121e-06 0.0 
8.708683551156e-04 8.445101967300e-03 0.0 
6.918192437218e-05 2.456387201623e-06 0.0 
7.870162838434e-05 -5.569278460812e-07 0.0 
4.454338691556e-05 2.559602766266e-06 0.0 
2.053452466423e-03 2.026565944555e-03 0.0 
9.445179739561e-04 1.149801624575e-04 0.0 
8.942273833348e-04 2.360523823152e-04 0.0 
7.284880768086e-04 2.477910008795e-04 0.0 
9.513548786495e-04 3.450602828492e-04 0.0 
1.270958905456e-03 5.230389413975e-04 0.0 
3.676106048123e-05 -1.344422900230e-05 0.0 
4.353902849715e-05 -2.485887775351e-05 0.0 
4.597622545132e-04 8.279088448363e-03 0.0 
3.371475687626e-04 8.314440576468e-03 0.0 
3.879623933865e-04 7.381491169015e-03 0.0 
2.776883350261e-04 7.487358186553e-03 0.0 
3.157720395494e-04 6.570447748328e-03 0.0 
2.010763838774e-04 6.681600662590e-03 0.0 
2.516543019064e-04 5.764976018211e-03 0.0 
6.307330333349e-04 1.356448487533e-04 0.0 
5.964778051819e-04 3.730026909896e-05 0.0 
2.377929731619e-03 3.143422366570e-03 0.0 
3.940353095234e-04 4.082655531856e-05 0.0 
4.585087258111e-04 3.248694255460e-05 0.0 
1.672840851725e-03 1.105601015529e-03 0.0 
1.376428296404e-03 1.077733387450e-03 0.0 
1.411685926124e-04 4.862861587651e-06 0.0 
9.963105775657e-04 -1.073945686867e-04 0.0 
4.571023387925e-04 8.132847064374e-04 0.0 
3.907266755941e-04 -2.423913305122e-04 0.0 
4.293606106233e-04 -2.591582409926e-04 0.0 
1.109437962631e-03 -4.287388102415e-05 0.0 
1.907807196093e-03 1.134648281537e-03 0.0 
1.077493501818e-03 2.327130988341e-04 0.0 
1.046234822945e-03 3.888912567054e-04 0.0 
4.797681030549e-04 -4.561030625644e-05 0.0 
3.135347966545e-04 -3.027081690640e-04 0.0 
5.920607840341e-04 -1.014209084395e-04 0.0 
3.714535047686e-04 5.666963803649e-03 0.0 
5.102227491750e-04 -9.532138545543e-05 0.0 
1.952997862093e-05 -1.795597718681e-05 0.0 
9.870681913832e-04 -1.448982269063e-04 0.0 
1.784198893346e-03 5.933312583131e-04 0.0 
6.846119771413e-04 -1.105246033847e-04 0.0 
9.935535514798e-04 2.470313348493e-05 0.0 
2.636250643749e-03 2.467225785443e-03 0.0 
2.669882008821e-03 4.070973284309e-03 0.0 
2.609809351643e-03 3.542922695653e-03 0.0 
9.630677271172e-04 -1.692062360055e-04 0.0 
1.217957621326e-03 5.692499303307e-04 0.0 
9.777433656158e-04 5.823226464196e-04 0.0 
2.306205534797e-03 1.339997226752e-03 0.0 
1.950676145730e-03 2.533556535712e-03 0.0 
1.869520664672e-03 1.998030365637e-03 0.0 
1.475705342372e-03 1.406649539768e-03 0.0 
1.730799760829e-03 1.536174390192e-03 0.0 
2.096656130118e-03 2.078373177772e-03 0.0 
1.951568412070e-03 1.603083771421e-03 0.0 
1.546229934576e-03 1.154586597056e-03 0.0 
1.760503127929e-03 1.209430797579e-03 0.0 
1.221645111888e-03 7.608141841572e-04 0.0 
1.524378070055e-03 8.861526948530e-04 0.0 
1.928853028817e-03 1.218087683021e-03 0.0 
1.713969614092e-03 9.184354828359e-04 0.0 
1.331257352719e-03 6.686440265870e-04 0.0 
2.058612848630e-03 1.197416877342e-03 0.0 
3.277489830151e-04 4.480413636760e-05 0.0 
1.213925998207e-03 -2.366243421168e-05 0.0 
4.585072515369e-04 -2.845000035978e-04 0.0 
4.521261767175e-04 -2.296726876262e-04 0.0 
1.974837783052e-03 8.198439370342e-04 0.0 
6.435319031352e-04 3.986166656713e-04 0.0 
6.218512952716e-04 5.132048441109e-04 0.0 
8.136519401597e-04 -1.996590115047e-04 0.0 
4.647297287653e-04 1.581389163073e-04 0.0 
2.603450637216e-03 2.738917890999e-03 0.0 
6.071422825595e-04 -2.638584235058e-04 0.0 
3.895922444037e-04 1.075577633971e-04 0.0 
2.183382451931e-03 2.632307709770e-03 0.0 
2.374060245150e-03 2.656306105706e-03 0.0 
2.404201801848e-03 3.311571277839e-03 0.0 
5.286277293728e-04 5.725700900947e-04 0.0 
1.650746520821e-03 6.058031120490e-03 0.0 
2.375138684307e-04 4.417023706225e-05 0.0 
9.550764407327e-04 -5.482688244059e-05 0.0 
1.054856615373e-03 -4.965286656672e-05 0.0 
1.067495655502e-03 -8.355193874191e-05 0.0 
2.127237448740e-03 1.616097190381e-03 0.0 
1.571741010941e-04 1.905505112881e-05 0.0 
2.766530800596e-04 2.448620136203e-05 0.0 
2.448270080798e-04 1.852729627989e-05 0.0 
3.779663357420e-04 1.871474793682e-05 0.0 
1.215562842203e-04 1.285626163185e-05 0.0 
5.465588234689e-04 2.618279859653e-04 0.0 
4.931441386514e-04 2.095926255631e-04 0.0 
5.081538781317e-04 -2.790390928471e-04 0.0 
5.580892590541e-04 -2.720122158451e-04 0.0 
5.816104439968e-04 -2.497123744357e-04 0.0 
6.126803034002e-04 -2.624555027409e-04 0.0 
5.815944408599e-04 -2.828096085328e-04 0.0 
6.380332435809e-04 -2.713667149918e-04 0.0 
6.718170417139e-04 -2.500602576074e-04 0.0 
6.567048776783e-04 -2.749253730098e-04 0.0 
1.627029047025e-03 6.942675995951e-04 0.0 
9.099060633667e-05 8.338283734782e-06 0.0 
4.150101486284e-04 -8.648311166613e-05 0.0 
4.732102211946e-04 -1.024546973491e-04 0.0 
4.952742109334e-04 -1.316998816249e-04 0.0 
2.378526639178e-04 -1.364220716774e-04 0.0 
2.684598021954e-04 -1.303006064796e-04 0.0 
2.584685651891e-04 -1.071795643518e-04 0.0 
2.073699372297e-04 -1.422640411160e-04 0.0 
1.446326238742e-03 2.163772864907e-04 0.0 
7.977512106749e-05 6.538247515145e-06 0.0 
6.800376402812e-04 -9.874240347661e-05 0.0 
3.073764262180e-04 -1.477391675529e-04 0.0 
1.481229653796e-03 8.268717985182e-03 0.0 
1.883930538802e-03 7.121825579847e-03 0.0 
2.134225785490e-03 6.542928083399e-03 0.0 
2.197141096596e-03 5.868385577226e-03 0.0 
1.651375475086e-03 7.474228085703e-03 0.0 
1.575396262240e-04 -8.611630204751e-05 0.0 
1.235311192970e-04 -7.423409186021e-05 0.0 
9.917660517069e-05 -8.200681612961e-05 0.0 
9.136250264249e-05 -6.373584292976e-05 0.0 
6.780122165310e-05 -7.182391909620e-05 0.0 
7.389929032686e-05 -8.982087864893e-05 0.0 
6.058888001857e-05 -5.444511884725e-05 0.0 
3.873306133909e-05 -6.469039063000e-05 0.0 
1.155420109294e-03 8.867921350267e-03 0.0 
3.886493320988e-04 -3.430796755291e-04 0.0 
3.961413941557e-04 -3.393702916627e-04 0.0 
3.790263854241e-04 -3.372890177504e-04 0.0 
4.013151219042e-04 -3.324789121628e-04 0.0 
4.216344473882e-04 -3.331502868906e-04 0.0 
4.329394352700e-04 -3.247712698059e-04 0.0 
4.516856917707e-04 -3.260328722040e-04 0.0 
4.105802518065e-04 -3.368545887032e-04 0.0 
3.631763803385e-04 -3.413536327497e-04 0.0 
3.600431494757e-04 -3.318086959307e-04 0.0 
3.456768499698e-04 -3.357571658892e-04 0.0 
3.385338346219e-04 -3.244755203380e-04 0.0 
3.580898662928e-04 -3.182645504324e-04 0.0 
2.943315497599e-04 -2.717614200558e-04 0.0 
1.895624104932e-05 2.741837455803e-06 0.0 
2.975539115529e-05 -1.145031630941e-04 0.0 
5.877317329971e-05 -1.254788500481e-04 0.0 
5.948351003937e-05 -1.435302215583e-04 0.0 
9.059520890102e-05 -1.365644438590e-04 0.0 
5.565983506476e-05 -1.082567168879e-04 0.0 
2.987546831038e-05 -1.515055907615e-04 0.0 
5.877625002462e-05 -1.595535884279e-04 0.0 
8.801623500741e-05 -2.644847618809e-04 0.0 
6.932345690093e-05 -2.496703272760e-04 0.0 
3.195952839347e-05 -2.484268180357e-04 0.0 
5.139510271568e-05 -2.350438536964e-04 0.0 
8.484964671288e-05 -2.390090717157e-04 0.0 
1.031572633663e-04 -2.537374959637e-04 0.0 
1.366994606866e-04 -2.595254511753e-04 0.0 
1.556587396634e-04 -2.753005593261e-04 0.0 
1.683710067498e-04 -2.663710704483e-04 0.0 
1.498554123173e-04 -2.496597501498e-04 0.0 
1.865443506221e-04 -2.825341467639e-04 0.0 
8.626987009569e-05 4.429380245352e-03 0.0 
1.688971655857e-04 3.928178378875e-03 0.0 
6.475464897696e-05 4.671942772404e-06 0.0 
9.255212891939e-04 9.029471504753e-03 0.0 
3.019625044552e-04 -3.189991839534e-04 0.0 
1.590053891837e-04 9.702916166464e-04 0.0 
2.586530406158e-04 7.811592969125e-04 0.0 
2.037058313054e-04 7.668340530563e-04 0.0 
1.151335794903e-05 -1.098377514762e-06 0.0 
1.842062458520e-05 9.240328352630e-07 0.0 
8.449744118133e-05 9.492652855847e-04 0.0 
2.748656772623e-04 -2.185118110238e-04 0.0 
1.298772812884e-03 1.045033462244e-03 0.0 
4.275714016245e-04 2.615032198239e-03 0.0 
5.949992604746e-04 -2.370562252685e-04 0.0 
3.702367910457e-04 -2.519944768888e-04 0.0 
7.046188242622e-05 -3.177132410926e-05 0.0 
2.253147341717e-04 -6.363430499479e-05 0.0 
7.850467902235e-05 -8.310005343362e-06 0.0 
1.326299128598e-04 -4.907120459565e-05 0.0 
1.384763822595e-04 -1.970650155999e-05 0.0 
2.210683979987e-04 1.405486001378e-05 0.0 
9.536769564221e-05 -2.177214669427e-04 0.0 
9.872192902725e-04 6.279385408663e-03 0.0 
6.005660140883e-04 6.703467357666e-03 0.0 
6.680928580018e-04 4.169064911309e-03 0.0 
1.808468441718e-04 -1.878693873556e-04 0.0 
1.063809980076e-04 -1.002529704970e-04 0.0 
2.105366132938e-04 -2.394495327743e-04 0.0 
7.379533811099e-04 2.076706017820e-04 0.0 
2.244951098959e-03 1.433829780753e-03 0.0 
4.573289509418e-04 -1.426412254133e-04 0.0 
2.422954399319e-04 -1.586314038173e-04 0.0 
3.093192615164e-04 -2.160698962122e-04 0.0 
3.973212801929e-04 -2.697258118337e-04 0.0 
1.346016895798e-03 5.951754552379e-05 0.0 
3.406106941091e-04 -1.411807951335e-04 0.0 
2.715536055721e-04 -3.752367381259e-05 0.0 
5.184333427719e-04 3.622571531292e-03 0.0 
2.453755572198e-04 -2.978568604867e-04 0.0 
2.792099889813e-04 -2.792592620456e-05 0.0 
3.121331895241e-04 -9.146239290014e-05 0.0 
1.481937586910e-03 5.656767011942e-03 0.0 
7.002621506886e-04 3.030454992222e-06 0.0 
4.216678388080e-04 -3.148224009250e-04 0.0 
1.027862851127e-03 3.713128841652e-03 0.0 
1.106022908057e-03 1.770119113444e-03 0.0 
1.797523888920e-03 6.390731849975e-03 0.0 
2.103365409727e-04 -2.557211643102e-04 0.0 
9.455092628042e-04 7.334888003753e-03 0.0 
2.031561040283e-04 3.016631714987e-06 0.0 
1.965712198373e-03 3.123210744580e-03 0.0 
1.505317445097e-04 -1.919096864914e-04 0.0 
7.753555016604e-04 -1.438162392274e-04 0.0 
1.714572923371e-03 4.163022338637e-04 0.0 
2.262446144915e-03 5.130310416408e-03 0.0 
4.564142138925e-04 2.194016769978e-03 0.0 
1.243429983441e-03 -1.281027316973e-05 0.0 
4.934154626468e-04 4.288261134510e-06 0.0 
7.207956240482e-04 -7.620085897841e-05 0.0 
1.197503270575e-04 -1.781141064184e-04 0.0 
1.833172820567e-04 -1.323927509722e-05 0.0 
9.852270774240e-04 -1.234882566705e-04 0.0 
8.702823094768e-04 2.727977919943e-03 0.0 
1.710567280845e-03 4.861990777881e-04 0.0 
8.063050292955e-04 -2.132816412559e-04 0.0 
1.402953802804e-03 3.105914679796e-03 0.0 
5.504932544675e-04 -1.493573831501e-04 0.0 
7.021409705258e-04 2.732411440580e-05 0.0 
2.058658913456e-03 1.117183951425e-03 0.0 
1.914998856524e-03 5.609965692634e-04 0.0 
2.299779119612e-03 1.301968099230e-03 0.0 
1.558172465436e-03 1.969331248820e-04 0.0 
4.894554886424e-05 -3.876919432584e-05 0.0 
2.285977897713e-04 -1.992119984384e-05 0.0 
5.166435354305e-04 -3.110209141608e-04 0.0 
1.126997884692e-03 2.875437113923e-05 0.0 
1.857381527627e-03 5.365609274874e-03 0.0 
1.101757435984e-03 2.379594995509e-04 0.0 
6.405500581053e-04 1.763948415423e-03 0.0 
1.598601210717e-03 4.056053808847e-04 0.0 
1.814911948677e-04 -2.014913169543e-05 0.0 
1.146230232914e-03 2.222476089221e-03 0.0 
2.990309173103e-04 -1.236161262753e-04 0.0 
2.976341049798e-05 -2.031218149227e-04 0.0 
5.314507215971e-04 -2.324754271884e-04 0.0 
7.211054059032e-04 -2.570162679143e-04 0.0 
1.147387249371e-03 -6.862592514355e-05 0.0 
2.858767242512e-04 -9.977539889904e-05 0.0 
1.124320824037e-03 1.113724209607e-03 0.0 
1.434855533625e-04 -1.360168983396e-05 0.0 
4.073479774404e-04 -3.492343434129e-05 0.0 
4.202704594607e-04 -1.400058501614e-04 0.0 
2.460660966145e-03 3.808423628335e-03 0.0 
1.101062037185e-04 -8.324343572434e-06 0.0 
7.066330966192e-04 -1.320287729282e-04 0.0 
5.858278486625e-04 2.232305017322e-05 0.0 
4.380259762109e-05 -8.072804360636e-05 0.0 
6.748673058368e-04 1.674880021397e-04 0.0 
1.684655565575e-03 1.468035827118e-03 0.0 
8.125922913941e-05 -4.179817783085e-06 0.0 
4.920205594170e-04 -2.945170217776e-05 0.0 
8.997145413084e-04 -1.585414404965e-04 0.0 
2.811781503291e-04 9.202324588511e-03 0.0 
4.952583146958e-05 2.010840864780e-06 0.0 
4.095036795440e-04 -6.803654742632e-06 0.0 
1.526976290507e-03 2.100635058766e-04 0.0 
6.555478730284e-04 -1.508480886345e-04 0.0 
2.449921368221e-03 3.400276548829e-03 0.0 
2.441421796543e-04 -8.484518109390e-05 0.0 
2.011608887769e-03 7.076824558795e-04 0.0 
4.725179803622e-04 5.997719965009e-04 0.0 
4.045918661148e-04 5.925357825910e-06 0.0 
2.560084275734e-03 3.267061209035e-03 0.0 
2.193669381651e-04 -9.238176542522e-05 0.0 
1.063286792175e-03 2.463019065498e-05 0.0 
1.176018818380e-04 -2.438293251209e-04 0.0 
2.289635875418e-03 2.601945546780e-03 0.0 
1.818011163630e-04 -7.891510345476e-05 0.0 
6.999061854515e-04 -2.566509449259e-04 0.0 
5.937765972496e-04 -1.353091844372e-04 0.0 
4.682094867479e-04 6.261671406693e-05 0.0 
1.463359781760e-04 -6.688207021589e-05 0.0 
7.361311759143e-04 -2.338407064126e-04 0.0 
1.130453151384e-04 -5.625684713907e-05 0.0 
1.728965097902e-03 2.010473070386e-03 0.0 
2.509319734739e-03 2.583397015933e-03 0.0 
8.096493830595e-05 -4.688955489619e-05 0.0 
1.900157710343e-03 6.455280441686e-04 0.0 
1.823920356658e-04 -2.567120639787e-04 0.0 
1.385116770922e-03 1.446292786550e-04 0.0 
2.754132054905e-05 -4.449963340618e-06 0.0 
3.838696709915e-04 -2.092959952081e-04 0.0 
5.331769045445e-04 -1.191793506336e-04 0.0 
2.276887371318e-03 2.089144184019e-03 0.0 
1.108691986876e-03 1.189736879983e-03 0.0 
5.039417842776e-04 -8.913971422686e-05 0.0 
1.721194729680e-03 5.708039047205e-04 0.0 
1.245057620583e-03 9.952900782648e-05 0.0 
1.150788728175e-03 -3.680679684653e-05 0.0 
4.619680487899e-04 -6.053521932029e-05 0.0 
1.168131443628e-03 7.998487428483e-04 0.0 
3.036667916926e-04 -2.363670799816e-04 0.0 
2.993767445585e-04 -2.547376212623e-04 0.0 
6.974561910597e-04 -2.249357463378e-04 0.0 
1.695016393736e-03 6.426474911883e-04 0.0 
7.120168309484e-05 -2.246642918460e-04 0.0 
2.242487053472e-03 1.560658612775e-03 0.0 
3.186626879452e-04 -2.877744281686e-04 0.0 
6.374947420916e-04 -2.389496601300e-04 0.0 
9.733014976954e-04 8.766210024930e-05 0.0 
9.251766443250e-05 6.420996741171e-03 0.0 
5.983905631302e-04 -2.244758028057e-04 0.0 
2.857238304393e-05 -1.863117817624e-04 0.0 
5.464567231205e-04 -2.341204221926e-04 0.0 
1.123246106775e-03 -4.880211834697e-06 0.0 
5.080145969280e-04 -2.163637800272e-04 0.0 
4.622812372966e-04 -2.230116352935e-04 0.0 
3.086094111503e-04 1.669236472764e-03 0.0 
4.248237026354e-04 -2.040815894904e-04 0.0 
4.202689698951e-05 7.855753983750e-04 0.0 
7.718907042311e-06 2.687992732194e-06 0.0 
1.085077517380e-04 8.422319635822e-03 0.0 
7.770477746699e-04 7.128857458392e-04 0.0 
3.985396792630e-04 -3.034378211389e-04 0.0 
8.677607128503e-04 3.786797201619e-04 0.0 
3.788479352428e-04 -2.316620834385e-04 0.0 
2.115001925268e-03 1.112210973224e-03 0.0 
2.263559616273e-04 8.383856463598e-03 0.0 
3.403122148986e-04 -2.342028639203e-04 0.0 
1.049900249151e-03 5.546474424898e-04 0.0 
2.945481993540e-04 6.594283897867e-05 0.0 
1.816318301800e-04 4.877914691059e-03 0.0 
4.862908330355e-04 1.941689391745e-05 0.0 
1.103253650113e-03 6.970449784624e-05 0.0 
5.798992432625e-05 2.495651991888e-03 0.0 
6.140749099843e-04 9.290421443476e-03 0.0 
3.148913691215e-04 -3.155080107400e-04 0.0 
2.302835007938e-05 -3.066513692101e-05 0.0 
6.106291084113e-04 3.629083384075e-04 0.0 
6.506287472234e-04 1.261562566271e-04 0.0 
5.465299860389e-04 -3.605165297739e-05 0.0 
8.888892723193e-05 -1.673331894296e-04 0.0 
3.800579412107e-04 -3.278095909720e-04 0.0 
5.353928844727e-04 1.277034458777e-04 0.0 
3.169052042605e-04 3.144823059817e-05 0.0 
1.100590346088e-03 8.235539244408e-03 0.0 
9.847723519200e-04 1.222056752695e-04 0.0 
4.682424635975e-04 -3.158324236601e-05 0.0 
8.188916082906e-04 1.408403153296e-03 0.0 
5.146825236177e-04 8.951505487761e-05 0.0 
4.265640253222e-05 3.231509605202e-06 0.0 
7.735989925790e-04 1.138812024238e-04 0.0 
4.757333087335e-04 -1.453454473106e-04 0.0 
1.930920562201e-03 6.510086007632e-03 0.0 
7.981062980392e-04 2.522699688099e-04 0.0 
2.580396948799e-04 4.072290581525e-03 0.0 
2.998122963626e-05 2.759685855566e-06 0.0 
1.397407686428e-03 8.019497354276e-03 0.0 
1.823783349343e-04 1.564583871363e-03 0.0 
4.795782865209e-04 -3.208191620818e-04 0.0 
9.110036512031e-05 1.522342864489e-03 0.0 
1.844875001197e-03 9.099318549740e-04 0.0 
4.968055753991e-04 7.171077772551e-03 0.0 
2.380575884534e-03 5.543359935441e-03 0.0 
2.193361150060e-05 2.295364733443e-06 0.0 
1.103688973014e-03 7.748003749799e-04 0.0 
4.477649600175e-04 -1.932004579595e-04 0.0 
2.854987477709e-04 4.984020752331e-03 0.0 
1.220530309701e-04 -1.403106983081e-04 0.0 
4.157488541816e-04 -3.292921302501e-04 0.0 
1.137208747706e-04 4.057453005770e-06 0.0 
1.502804978157e-03 7.004414075459e-04 0.0 
3.719360850867e-05 2.141652727902e-06 0.0 
2.298425763152e-05 -2.349236887139e-04 0.0 
2.624441367585e-04 -2.964919765883e-04 0.0 
1.352666490751e-04 6.585082496080e-06 0.0 
8.815566145612e-04 3.619168624239e-04 0.0 
4.724870827842e-04 -3.179866076110e-04 0.0 
2.829161914143e-04 5.827401768875e-04 0.0 
4.153460297357e-04 -2.242073719065e-04 0.0 
7.970272620373e-04 9.360258660976e-03 0.0 
1.962855649236e-04 -2.747878585514e-04 0.0 
2.336931882334e-05 2.606556097162e-06 0.0 
4.748071364811e-04 1.443991717330e-03 0.0 
8.042104854283e-05 -1.186384184276e-04 0.0 
1.995117035339e-03 7.018881710601e-03 0.0 
5.837495210003e-05 -1.762207704567e-04 0.0 
8.636704928916e-04 1.928677081540e-04 0.0 
3.331803769307e-04 -3.125936175913e-04 0.0 
3.143191613172e-04 1.393599781930e-03 0.0 
1.700919249580e-04 1.105014762070e-05 0.0 
9.288394363598e-04 1.020601496673e-03 0.0 
1.465736055101e-04 2.311763618543e-05 0.0 
4.218848053419e-04 -2.866736674589e-04 0.0 
4.892970920807e-04 9.709414514523e-05 0.0 
3.143058994175e-04 1.431677095650e-05 0.0 
4.733111491517e-04 9.334287019377e-03 0.0 
1.064832008934e-03 9.119348372126e-04 0.0 
8.494884509776e-05 -1.520640764025e-04 0.0 
1.579155412205e-04 -2.400230108272e-04 0.0 
1.770456170825e-05 6.963790265332e-04 0.0 
2.593507132772e-05 -2.618538203330e-04 0.0 
8.288087494857e-05 9.304142242541e-03 0.0 
2.986244449631e-06 2.078157445768e-06 0.0 
9.945064792025e-05 -2.311698459375e-04 0.0 
1.855320823419e-04 7.682802283882e-03 0.0 
9.018178128041e-04 4.184027208314e-04 0.0 
1.909858451124e-05 -7.695502368728e-05 0.0 
1.313108349648e-04 3.141139789257e-03 0.0 
4.035732592872e-04 -3.237071350224e-04 0.0 
3.948521584862e-04 -3.246304488981e-04 0.0 
1.641779242826e-04 5.914749135576e-03 0.0 
4.210046239701e-04 6.708889823553e-05 0.0 
7.613927381671e-04 1.120899113419e-03 0.0 
4.115637574928e-04 6.611893505971e-03 0.0 
4.878841250043e-04 -2.213345860883e-04 0.0 
1.190515899488e-03 5.355995306758e-04 0.0 
8.182867081441e-05 -1.043706607385e-04 0.0 
1.008911612634e-03 2.955869239749e-04 0.0 
3.900980574129e-04 2.594812939729e-05 0.0 
3.885586943808e-04 -2.127124056503e-04 0.0 
1.600205466304e-05 -6.007981565102e-05 0.0 
2.214870885728e-04 -2.833245097931e-04 0.0 
7.127300861458e-05 2.961547201269e-06 0.0 
5.304137840088e-05 -9.409175252056e-05 0.0 
1.082129131422e-03 7.921668226947e-03 0.0 
6.904226381474e-05 1.055683763878e-02 0.0 

VECTORS node_materi_displacement float
0.0 6.379593660965e-02 0.0 
0.0 1.544528341182e-01 0.0 
0.0 0.0 0.0 
0.0 0.0 0.0 
0.0 6.475713637838e-02 0.0 
0.0 6.501790353113e-02 0.0 
0.0 6.462160108423e-02 0.0 
0.0 6.356737853133e-02 0.0 
0.0 6.188124262852e-02 0.0 
0.0 5.970983040459e-02 0.0 
0.0 5.713911254985e-02 0.0 
0.0 5.423400441583e-02 0.0 
0.0 5.105629292121e-02 0.0 
0.0 4.764431724065e-02 0.0 
0.0 4.400740903324e-02 0.0 
0.0 4.015699432503e-02 0.0 
0.0 3.608281081210e-02 0.0 
0.0 3.177687657573e-02 0.0 
0.0 2.720677893977e-02 0.0 
0.0 2.235502610299e-02 0.0 
0.0 1.721292798840e-02 0.0 
0.0 1.176814079180e-02 0.0 
0.0 6.027415272192e-03 0.0 
0.0 0.0 0.0 
0.0 0.0 0.0 
0.0 0.0 0.0 
0.0 0.0 0.0 
0.0 0.0 0.0 
0.0 0.0 0.0 
0.0 0.0 0.0 
0.0 0.0 0.0 
0.0 0.0 0.0 
0.0 0.0 0.0 
0.0 0.0 0.0 
0.0 0.0 0.0 
0.0 0.0 0.0 
0.0 0.0 0.0 
0.0 0.0 0.0 
0.0 0.0 0.0 
0.0 0.0 0.0 
0.0 0.0 0.0 
0.0 0.0 0.0 
0.0 0.0 0.0 
0.0 0.0 0.0 
0.0 0.0 0.0 
0.0 0.0 0.0 
0.0 0.0 0.0 
0.0 0.0 0.0 
0.0 0.0 0.0 
0.0 0.0 0.0 
0.0 0.0 0.0 
0.0 0.0 0.0 
0.0 0.0 0.0 
0.0 0.0 0.0 
0.0 0.0 0.0 
0.0 0.0 0.0 
0.0 0.0 0.0 
0.0 0.0 0.0 
0.0 0.0 0.0 
0.0 0.0 0.0 
0.0 0.0 0.0 
0.0 0.0 0.0 
0.0 0.0 0.0 
0.0 0.0 0.0 
0.0 0.0 0.0 
0.0 0.0 0.0 
0.0 0.0 0.0 
0.0 0.0 0.0 
0.0 0.0 0.0 
0.0 0.0 0.0 
0.0 0.0 0.0 
0.0 0.0 0.0 
0.0 1.404826738019e-01 0.0 
0.0 1.261063190679e-01 0.0 
0.0 1.113459276088e-01 0.0 
0.0 9.623501710655e-02 0.0 
0.0 8.080245762556e-02 0.0 
0.0 6.508312821663e-02 0.0 
0.0 4.911113975164e-02 0.0 
0.0 3.291997993970e-02 0.0 
0.0 1.654737693551e-02 0.0 
-8.065441213313e-03 -7.750384887278e-03 0.0 
3.404400469650e-02 1.393507712385e-01 0.0 
-2.496633543259e-04 2.186677516418e-02 0.0 
7.417789119504e-03 4.646422769584e-02 0.0 
1.468174189964e-02 6.902378718730e-02 0.0 
2.140313889130e-02 8.956081010709e-02 0.0 
2.761261287270e-02 1.078695175890e-01 0.0 
3.296884586644e-02 1.231411014021e-01 0.0 
3.681920628701e-02 1.344266631349e-01 0.0 
3.846960314209e-02 1.412025494522e-01 0.0 
3.664975707267e-02 1.431857984539e-01 0.0 
0.0 1.680196883502e-01 0.0 
1.962517874117e-03 1.544662594537e-01 0.0 
3.914333486092e-03 1.544691909152e-01 0.0 
5.875922761418e-03 1.544478050239e-01 0.0 
7.856863159788e-03 1.543973082156e-01 0.0 
9.861849818813e-03 1.543043617511e-01 0.0 
1.189291165283e-02 1.541279855429e-01 0.0 
1.397130150431e-02 1.538633005126e-01 0.0 
1.608717753653e-02 1.534372920842e-01 0.0 
1.827453182613e-02 1.528310647378e-01 0.0 
2.054109063942e-02 1.519566466662e-01 0.0 
2.289929260002e-02 1.507217195379e-01 0.0 
2.538892492679e-02 1.490111410660e-01 0.0 
2.803878783245e-02 1.466883709605e-01 0.0 
3.089549258397e-02 1.435478783502e-01 0.0 
-4.717682288878e-03 -2.309656118551e-02 0.0 
2.823124688914e-04 -3.139407836096e-02 0.0 
5.770892081948e-03 -3.447328939585e-02 0.0 
1.174805730371e-02 -3.195092467467e-02 0.0 
1.622464139150e-02 -2.139624992376e-02 0.0 
1.887779621746e-02 -7.874895080043e-03 0.0 
1.988734739997e-02 2.619328135167e-03 0.0 
2.016069212710e-02 1.144747731036e-02 0.0 
2.023977744724e-02 1.929728780765e-02 0.0 
2.002163263502e-02 2.657800333790e-02 0.0 
1.942133768341e-02 3.327493643623e-02 0.0 
1.850411811728e-02 3.932074541008e-02 0.0 
1.720349387412e-02 4.485960157835e-02 0.0 
1.545667987144e-02 4.981060955936e-02 0.0 
1.336925957875e-02 5.406641406445e-02 0.0 
1.103568340576e-02 5.752988737364e-02 0.0 
8.494176394565e-03 6.028040601259e-02 0.0 
5.785156484237e-03 6.228772884844e-02 0.0 
2.908644812278e-03 6.343122620681e-02 0.0 
3.256092918676e-02 1.502294162910e-01 0.0 
2.998848189889e-02 1.549205175367e-01 0.0 
2.752016498829e-02 1.584920633726e-01 0.0 
2.528487464878e-02 1.611910205113e-01 0.0 
2.316978815143e-02 1.632105374498e-01 0.0 
2.112955398395e-02 1.647033122148e-01 0.0 
1.913224875167e-02 1.657848618934e-01 0.0 
1.715791670301e-02 1.665567696706e-01 0.0 
1.520563655737e-02 1.671053590211e-01 0.0 
1.327471067441e-02 1.674792027062e-01 0.0 
1.135623927119e-02 1.677184615844e-01 0.0 
9.450675004884e-03 1.678735280214e-01 0.0 
7.559441702383e-03 1.679611606904e-01 0.0 
5.681742344275e-03 1.680012448887e-01 0.0 
3.818157699202e-03 1.680197965708e-01 0.0 
1.936172868541e-03 1.679980323094e-01 0.0 
-3.688668735376e-03 8.401279735392e-03 0.0 
3.559234697844e-03 3.436301020600e-02 0.0 
1.110337252867e-02 5.797811431879e-02 0.0 
1.810742205213e-02 7.954719753848e-02 0.0 
2.462244164606e-02 9.909618152319e-02 0.0 
3.046130494443e-02 1.160089137877e-01 0.0 
3.513306460868e-02 1.293196002772e-01 0.0 
3.794877454830e-02 1.383787438874e-01 0.0 
3.816605225547e-02 1.428047505582e-01 0.0 
3.541220305715e-02 1.418509004990e-01 0.0 
1.269635411622e-02 3.318624580499e-02 0.0 
3.349954535974e-03 4.035278922588e-03 0.0 
1.417095745452e-02 2.282705388235e-02 0.0 
8.483431230506e-03 -2.570408281587e-02 0.0 
4.007259869242e-04 4.027907394355e-03 0.0 
2.641728844941e-02 7.657638111818e-02 0.0 
-1.006723587171e-03 4.558028982547e-02 0.0 
6.151546559961e-03 5.033321928718e-03 0.0 
3.738749379691e-02 1.090580013914e-01 0.0 
8.009242284123e-03 6.592277093735e-03 0.0 
4.207920607409e-02 1.286246511641e-01 0.0 
-6.069251960331e-04 4.225789324992e-03 0.0 
1.240576023338e-02 4.833717235050e-02 0.0 
8.785486597339e-03 8.917661752822e-03 0.0 
3.749139548740e-02 1.294616368019e-01 0.0 
-7.098801540018e-04 5.811583338610e-02 0.0 
-8.542394395920e-04 3.469775042987e-02 0.0 
8.596005875187e-03 1.103286696354e-02 0.0 
6.453293167742e-03 1.232790216171e-02 0.0 
1.981563807172e-03 1.402868854280e-02 0.0 
3.629325310571e-03 1.493269740579e-02 0.0 
4.746060751567e-03 1.288962151554e-02 0.0 
3.040361068103e-02 1.329925871371e-01 0.0 
1.980007125908e-02 1.397924663260e-01 0.0 
1.303963516849e-02 1.410432650071e-01 0.0 
1.297403914965e-03 8.831606391109e-02 0.0 
-6.789376674346e-04 4.970483272332e-03 0.0 
3.472763390034e-03 -2.461730034396e-02 0.0 
7.540209695808e-03 5.971025841085e-02 0.0 
-5.311748902293e-04 2.015536756277e-02 0.0 
6.730705085788e-03 1.424080466088e-01 0.0 
4.636117984719e-04 6.386138921891e-02 0.0 
8.542932743663e-03 1.332614221096e-02 0.0 
6.685351711675e-03 5.291083864089e-03 0.0 
8.478784504265e-03 7.607186776670e-03 0.0 
5.145989305884e-03 4.713849753659e-03 0.0 
1.886476840308e-03 3.689935807847e-03 0.0 
1.158057666158e-02 -2.722016134603e-03 0.0 
2.478242042194e-02 1.381629298379e-01 0.0 
-3.445510442510e-04 4.875907205464e-03 0.0 
9.913335522328e-04 5.780308878241e-02 0.0 
1.402704070546e-02 3.647068156960e-02 0.0 
-1.000913019637e-03 5.242804261528e-02 0.0 
9.980152805272e-04 1.146016423642e-02 0.0 
3.255887635574e-02 9.306430445039e-02 0.0 
1.970490755580e-02 5.604116425177e-02 0.0 
4.080618267349e-02 1.208137909275e-01 0.0 
4.061293582190e-02 1.314794159016e-01 0.0 
4.734581962730e-03 7.991708864627e-03 0.0 
1.553745535044e-03 1.170060791691e-01 0.0 
-3.544748428610e-04 4.077835872477e-03 0.0 
3.501242231240e-03 6.375080754094e-02 0.0 
5.490750107416e-04 2.596440461236e-02 0.0 
3.598021349810e-02 1.258208957052e-01 0.0 
3.838856097914e-02 1.168643681557e-01 0.0 
3.542172336709e-02 1.150367336691e-01 0.0 
3.790713953333e-02 1.045938153524e-01 0.0 
3.505201452301e-02 1.007380856210e-01 0.0 
3.663113209918e-02 9.180546614156e-02 0.0 
3.966629989957e-02 9.502300548228e-02 0.0 
3.772834619152e-02 8.289276310379e-02 0.0 
4.084608487852e-02 8.571454040254e-02 0.0 
3.340379338135e-02 8.748303058487e-02 0.0 
3.826375521225e-02 7.415702004368e-02 0.0 
4.142140764876e-02 7.664684421124e-02 0.0 
3.822502587722e-02 6.572545983608e-02 0.0 
4.137264244799e-02 6.793577115947e-02 0.0 
4.427976195785e-02 7.813964961678e-02 0.0 
4.419607073381e-02 6.919715344990e-02 0.0 
4.673273240943e-02 7.856949681490e-02 0.0 
4.661184737321e-02 6.940004391891e-02 0.0 
4.348401385429e-02 6.078090842060e-02 0.0 
4.582102959802e-02 6.084498141239e-02 0.0 
4.848957612389e-02 6.854620119269e-02 0.0 
4.761954994278e-02 5.988063735225e-02 0.0 
4.978603103115e-02 6.662946776084e-02 0.0 
4.881241834227e-02 5.788172367209e-02 0.0 
5.046948668488e-02 6.365090226363e-02 0.0 
4.938135620178e-02 5.490602871198e-02 0.0 
4.715682926950e-02 4.993978120958e-02 0.0 
4.760050745607e-02 4.704932137822e-02 0.0 
4.929032024386e-02 5.103032847463e-02 0.0 
4.737133344708e-02 4.331655513150e-02 0.0 
4.853199390910e-02 4.635260973046e-02 0.0 
4.646462700583e-02 3.887589111377e-02 0.0 
4.479343766237e-02 3.662047252818e-02 0.0 
4.372712709656e-02 3.250180603307e-02 0.0 
4.486228716374e-02 3.381384493120e-02 0.0 
4.187470363331e-02 2.771858562292e-02 0.0 
4.251042591964e-02 2.804860131132e-02 0.0 
3.924888541532e-02 2.235316738620e-02 0.0 
3.944889212444e-02 2.180412851203e-02 0.0 
3.590687023311e-02 1.671703227412e-02 0.0 
3.539118164532e-02 1.795055751266e-02 0.0 
3.182583492454e-02 1.305170023546e-02 0.0 
3.197413498904e-02 1.115001901901e-02 0.0 
2.775596873644e-02 8.445995005012e-03 0.0 
2.741906471665e-02 1.077792103593e-02 0.0 
2.332705597350e-02 7.178377497354e-03 0.0 
2.289537162126e-02 9.752587231370e-03 0.0 
1.889213001460e-02 7.163965131601e-03 0.0 
1.905176707275e-02 4.326919265577e-03 0.0 
1.482311230236e-02 5.408684740982e-03 0.0 
1.468815224403e-02 8.160057490887e-03 0.0 
1.091866336544e-02 7.360346913133e-03 0.0 
1.086144071152e-02 4.608788867385e-03 0.0 
7.387161860501e-03 7.500210571640e-03 0.0 
7.592025713100e-03 9.674830993058e-03 0.0 
4.514905084144e-03 1.047432983330e-02 0.0 
4.206681490887e-03 8.564695039076e-03 0.0 
1.806272791625e-03 1.210067675711e-02 0.0 
2.130670730738e-03 1.350852392661e-02 0.0 
-2.292886794443e-04 1.569512607165e-02 0.0 
-5.128462304640e-04 1.456451245816e-02 0.0 
-2.171263791521e-03 1.858353991616e-02 0.0 
-1.872218004426e-03 1.918529656009e-02 0.0 
-3.460895959340e-03 2.236867679996e-02 0.0 
-3.084031476884e-03 2.236116201087e-02 0.0 
-3.682740411417e-03 2.215354582839e-02 0.0 
-4.617831442365e-03 2.607260367680e-02 0.0 
-4.698432928697e-03 2.627230542874e-02 0.0 
-5.322963245242e-03 3.018757014049e-02 0.0 
4.162439787573e-02 3.094277978066e-02 0.0 
-5.176659200596e-03 3.076126624006e-02 0.0 
-4.465235349264e-03 2.630393319186e-02 0.0 
-5.565146019314e-03 3.458046048820e-02 0.0 
-5.612691123027e-03 3.350104852886e-02 0.0 
-5.151343944803e-03 3.550630947206e-02 0.0 
-5.377180506723e-03 3.912285305062e-02 0.0 
-4.677052690597e-03 4.034281538756e-02 0.0 
4.225056926201e-02 2.826174420189e-02 0.0 
4.216293365503e-02 5.295848179688e-02 0.0 
-4.812227465351e-03 4.366053473589e-02 0.0 
-3.838338853277e-03 4.510514542080e-02 0.0 
-3.426177493087e-03 4.139983199008e-02 0.0 
-2.280311239332e-03 4.633508698071e-02 0.0 
3.194004855613e-02 9.616959145389e-02 0.0 
3.002497676368e-02 8.236220973214e-02 0.0 
2.875476377750e-02 9.082381922248e-02 0.0 
2.654768260593e-02 7.660677546393e-02 0.0 
2.548724491011e-02 8.471234228065e-02 0.0 
-2.749207704976e-03 4.963478104677e-02 0.0 
3.474556526333e-02 6.221767617399e-02 0.0 
2.719699529871e-02 6.837804899013e-02 0.0 
5.005498878643e-02 7.613554018701e-02 0.0 
4.988163128435e-02 5.492129064390e-02 0.0 
2.660539218946e-02 1.292368954289e-02 0.0 
-5.300847526231e-03 4.201585060259e-02 0.0 
-4.652818389871e-03 4.622434102160e-02 0.0 
-4.945401582116e-03 4.416761486423e-02 0.0 
-1.445940512859e-03 1.949605537850e-02 0.0 
-2.558691538291e-03 2.202177175862e-02 0.0 
-9.067677883743e-04 1.941438445543e-02 0.0 
-1.953295299156e-03 2.126894567148e-02 0.0 
-3.570413146970e-04 1.884992441210e-02 0.0 
-1.396058021969e-03 2.003759758696e-02 0.0 
-2.653949312010e-03 2.267756057299e-02 0.0 
-2.106494117645e-03 2.080635045795e-02 0.0 
-3.057385893067e-03 2.360828944474e-02 0.0 
2.741113027238e-05 1.772642932233e-02 0.0 
1.420087618065e-03 1.683430171969e-02 0.0 
-2.520467304290e-03 2.113895846910e-02 0.0 
-3.204243821491e-03 2.404898726384e-02 0.0 
-2.682648794949e-03 2.102544345744e-02 0.0 
-3.133356729046e-03 2.401057246847e-02 0.0 
-3.668311941303e-03 2.714291260243e-02 0.0 
-3.373199432498e-03 2.712423941343e-02 0.0 
-3.899353315987e-03 3.036696170766e-02 0.0 
2.210034309485e-02 1.202538988710e-02 0.0 
2.531960713054e-02 1.466313195012e-02 0.0 
2.096193078905e-02 1.375138926879e-02 0.0 
2.348271020844e-02 1.561236550707e-02 0.0 
1.941509243147e-02 1.445873963521e-02 0.0 
2.123372096789e-02 1.557288906704e-02 0.0 
1.736289372383e-02 1.428463300829e-02 0.0 
1.563622800327e-02 1.373573252321e-02 0.0 
3.761319994592e-02 5.754482693004e-02 0.0 
2.763711699495e-02 5.966706927047e-03 0.0 
3.157837182962e-02 9.145036267994e-03 0.0 
2.698914165690e-02 3.295446203429e-03 0.0 
3.048897587840e-02 7.059537393616e-03 0.0 
2.575927384090e-02 5.350554877926e-04 0.0 
2.875935404785e-02 4.958942927853e-03 0.0 
2.404775635149e-02 -2.311454590952e-03 0.0 
2.096067113151e-02 -5.077404212697e-03 0.0 
1.927474109750e-02 -8.615189023883e-03 0.0 
1.626715912782e-02 -9.362554619120e-03 0.0 
1.478414029997e-02 -1.336816867812e-02 0.0 
1.193993655300e-02 -1.190101688054e-02 0.0 
4.485592617140e-02 4.285535071947e-02 0.0 
2.533168160077e-02 1.732193828687e-02 0.0 
2.239014709992e-02 1.646880023268e-02 0.0 
2.644548663905e-02 1.871420063215e-02 0.0 
-1.532964379140e-03 4.230357304358e-02 0.0 
-2.877117344251e-03 2.351385605032e-02 0.0 
1.515061856772e-03 1.573191885791e-02 0.0 
3.232017356412e-03 1.521002231284e-02 0.0 
1.378149321557e-02 1.332471756695e-02 0.0 
-9.515359060659e-04 5.093180128834e-02 0.0 
2.642420266187e-02 2.921973236140e-03 0.0 
3.091496713028e-02 1.152526853139e-02 0.0 
2.304775326946e-02 7.011739639874e-02 0.0 
2.222054240337e-02 7.798657517967e-02 0.0 
2.964330335103e-03 1.402562904537e-02 0.0 
-1.547281140655e-03 5.379329851010e-02 0.0 
-1.699656855552e-03 1.842528359915e-02 0.0 
1.705272884129e-02 -1.229474753869e-02 0.0 
-2.934578428888e-03 2.662703712066e-02 0.0 
-2.472353092988e-03 2.259182369931e-02 0.0 
-3.662361902554e-03 2.562076498864e-02 0.0 
2.284685930507e-02 1.701976189550e-02 0.0 
2.689035846264e-02 1.969557592975e-02 0.0 
1.298770178637e-02 -7.928837601739e-03 0.0 
8.931419599768e-03 -8.550228461530e-03 0.0 
8.157323011235e-03 -1.237390794388e-02 0.0 
5.474031018878e-03 -7.004243346142e-03 0.0 
6.026617875218e-03 -3.909546659525e-03 0.0 
3.151161074427e-03 -1.378960379300e-03 0.0 
3.045582015225e-03 -3.866073294553e-03 0.0 
1.219995924572e-03 2.740801065563e-03 0.0 
1.043989037370e-03 4.689008104828e-03 0.0 
-3.872727001255e-04 9.259181928982e-03 0.0 
4.480316240179e-04 8.062542894797e-03 0.0 
-7.497088637811e-04 1.468797534353e-02 0.0 
-2.395693769621e-03 1.950707045865e-02 0.0 
1.296551365158e-02 -1.748754558957e-02 0.0 
4.617683138470e-02 8.824341582871e-02 0.0 
1.367826274216e-03 1.395926083552e-02 0.0 
1.488165834796e-02 1.328618015738e-02 0.0 
1.958190908077e-02 6.306303524783e-02 0.0 
1.899516419493e-02 7.074609766079e-02 0.0 
2.107712414570e-02 8.583820355170e-02 0.0 
1.809411771059e-02 7.838524756023e-02 0.0 
1.585977957046e-02 6.307334154268e-02 0.0 
1.520384902758e-02 7.058739956332e-02 0.0 
1.694922235742e-02 8.594194623586e-02 0.0 
1.429067238822e-02 7.802529286093e-02 0.0 
1.561990988290e-02 9.336333168935e-02 0.0 
1.317535798649e-02 8.535279961548e-02 0.0 
1.175179439268e-02 6.984252575225e-02 0.0 
1.083846477400e-02 7.713206151614e-02 0.0 
1.190628133497e-02 9.256851045043e-02 0.0 
9.748008263815e-03 8.432537219684e-02 0.0 
1.052047408767e-02 9.965304437849e-02 0.0 
8.514821026439e-03 9.141229413144e-02 0.0 
7.719601031025e-03 7.592444374845e-02 0.0 
3.098438630032e-04 5.493101677903e-02 0.0 
1.219318072678e-02 1.332085397480e-02 0.0 
1.054244069461e-02 1.259132526643e-02 0.0 
-4.240889763305e-03 4.793826523729e-02 0.0 
-4.383918022382e-03 4.550113847457e-02 0.0 
-4.950033243234e-03 4.186789757788e-02 0.0 
-4.261085984731e-03 4.289077440392e-02 0.0 
6.602434740616e-03 8.310243297716e-02 0.0 
5.853163919670e-03 6.740658049560e-02 0.0 
2.782783140520e-02 1.055515432477e-02 0.0 
3.197033144762e-02 2.013518287719e-02 0.0 
1.978454891549e-02 5.538502147992e-02 0.0 
-2.389798220513e-03 2.568807713779e-02 0.0 
-2.796011360556e-03 2.975578863029e-02 0.0 
4.862623000854e-02 4.932588700612e-02 0.0 
4.933235693867e-02 5.872164269455e-02 0.0 
4.764187968638e-02 5.231800818435e-02 0.0 
4.756316719677e-02 6.256243566437e-02 0.0 
4.921459164615e-02 6.911520329363e-02 0.0 
4.542239688889e-02 5.533765658247e-02 0.0 
3.185231980007e-03 1.566963340593e-02 0.0 
9.373681968689e-03 6.145987029491e-02 0.0 
-2.753550418700e-03 3.698965169781e-02 0.0 
-5.402918056509e-04 3.764993001328e-02 0.0 
-1.986886149177e-03 2.128795461047e-02 0.0 
1.338699712822e-02 1.320210561759e-02 0.0 
4.389994364546e-02 4.475226422202e-02 0.0 
4.117338498390e-02 3.834318758829e-02 0.0 
3.977713596175e-02 3.923749494080e-02 0.0 
3.675112080679e-02 3.342873195290e-02 0.0 
3.488147516569e-02 3.333345183916e-02 0.0 
3.158190082058e-02 2.808813019543e-02 0.0 
3.334689128539e-02 2.832816143210e-02 0.0 
2.255731601470e-02 1.709685353984e-02 0.0 
2.797610144223e-02 2.344461945321e-02 0.0 
7.282935570224e-03 9.852331495388e-02 0.0 
2.958374995900e-02 1.962724612672e-02 0.0 
-7.639954783856e-04 1.065839475805e-02 0.0 
1.380929755538e-03 5.172935190864e-02 0.0 
1.166793940562e-03 1.420786945004e-02 0.0 
-4.126933036757e-04 5.740708955179e-02 0.0 
-1.810479902306e-03 5.585747632821e-02 0.0 
2.446876065336e-03 1.211914707100e-02 0.0 
2.915249824733e-02 2.700179344221e-02 0.0 
3.239540416916e-02 3.236316942389e-02 0.0 
4.662481124626e-02 7.394703606266e-02 0.0 
4.826745546759e-02 8.042675480083e-02 0.0 
1.869087543356e-02 1.454295556274e-02 0.0 
2.710536999380e-02 9.931453717471e-02 0.0 
1.813145885386e-02 1.011146870783e-01 0.0 
1.645911646002e-02 1.084638714981e-01 0.0 
1.640445196948e-03 5.822624667630e-02 0.0 
2.192737771922e-03 7.235686914403e-03 0.0 
1.287306887968e-02 5.506946080172e-02 0.0 
3.506455974482e-02 2.028237576626e-02 0.0 
3.578679350404e-02 2.950817089701e-02 0.0 
1.450314720265e-02 -1.607159300639e-02 0.0 
1.086559518886e-02 -2.191534001795e-02 0.0 
4.920171877531e-03 7.443515027636e-02 0.0 
4.221509926793e-03 5.875199682719e-02 0.0 
-4.714153627862e-03 3.935234914112e-02 0.0 
-3.982749029642e-03 3.997272569669e-02 0.0 
4.269304693316e-03 1.252633696345e-02 0.0 
-3.266848777034e-05 2.062544828023e-02 0.0 
4.846213424374e-03 5.150797527582e-02 0.0 
1.015559394136e-02 1.338065641767e-02 0.0 
1.072422298287e-02 1.285139889630e-02 0.0 
-3.577985261151e-03 4.630931282796e-02 0.0 
2.797126775616e-02 2.030040092896e-02 0.0 
2.398608506166e-02 9.882059167323e-03 0.0 
1.074084985144e-03 6.777018494806e-03 0.0 
-1.838040447884e-03 2.077046570613e-02 0.0 
-8.082381322071e-04 5.901493304794e-02 0.0 
3.302310029653e-03 1.038933457752e-02 0.0 
1.297251548352e-02 4.762775630644e-02 0.0 
2.969133165445e-02 2.395497006204e-02 0.0 
3.447929622925e-02 2.786319472329e-02 0.0 
2.418527666033e-02 1.941940685998e-02 0.0 
2.702620604626e-03 2.065856281234e-02 0.0 
1.045516959289e-03 1.149255259008e-02 0.0 
-1.781652640807e-03 2.436809962423e-02 0.0 
2.638450753922e-02 2.546259097599e-02 0.0 
2.932131789312e-02 3.054950482681e-02 0.0 
3.884462098045e-02 2.890379500366e-02 0.0 
3.938392262235e-02 3.869988895660e-02 0.0 
3.534595522492e-02 4.029610192721e-02 0.0 
3.870567040695e-02 4.966501647582e-02 0.0 
4.248177979787e-02 9.729353268437e-02 0.0 
4.225649406812e-02 3.728233502788e-02 0.0 
4.815710825074e-02 8.783869723764e-02 0.0 
4.696008483029e-02 9.822099516228e-02 0.0 
4.842583605022e-02 9.701825125504e-02 0.0 
5.025203595521e-02 7.482671667256e-02 0.0 
4.927023749471e-02 8.614584844541e-02 0.0 
3.489908398318e-02 1.407836314328e-02 0.0 
2.983648966878e-02 1.636574328302e-02 0.0 
-5.264900542518e-03 3.808075103782e-02 0.0 
-4.242765224960e-03 2.987930845190e-02 0.0 
5.468253572987e-04 1.717365476999e-02 0.0 
9.863766082657e-03 5.413017736981e-02 0.0 
7.500057538965e-03 4.559214092309e-02 0.0 
1.260576048100e-02 1.077287119731e-01 0.0 
1.099174416453e-02 1.146764042110e-01 0.0 
1.124330212888e-03 4.302956962786e-02 0.0 
2.464658400731e-03 3.813992335612e-02 0.0 
-3.870794078454e-03 2.507104334815e-02 0.0 
1.674726508981e-04 1.363281851839e-02 0.0 
1.616413630275e-02 4.801940190289e-02 0.0 
1.567725177994e-02 4.055309208934e-02 0.0 
1.953487088805e-02 4.774958041187e-02 0.0 
5.302676337553e-03 1.115201674586e-02 0.0 
2.303118437695e-02 1.429478648516e-03 0.0 
1.784641982284e-02 1.190516581404e-02 0.0 
9.447350134317e-03 -2.055632236905e-02 0.0 
4.213528034864e-02 3.413342635297e-02 0.0 
4.582023447134e-03 4.355386324805e-02 0.0 
3.949834137122e-02 5.202485070850e-02 0.0 
-1.452405829723e-03 1.964621786552e-02 0.0 
-1.589291302426e-03 1.652672899160e-02 0.0 
1.771459628157e-02 1.381261786426e-02 0.0 
4.058867415081e-02 1.190792256445e-01 0.0 
3.859966207363e-02 2.906778148895e-02 0.0 
3.794117983357e-02 2.626728695704e-02 0.0 
4.659462876291e-02 1.080109903209e-01 0.0 
4.752580476615e-02 1.060248843760e-01 0.0 
4.932490897631e-02 9.468875094282e-02 0.0 
4.781983113081e-02 1.029402129435e-01 0.0 
-8.602086041537e-04 1.209094402886e-02 0.0 
-2.251310692628e-03 1.619508567851e-02 0.0 
2.231856444485e-02 2.004741698661e-02 0.0 
2.200556887426e-02 1.816090001820e-02 0.0 
2.289199615508e-02 2.292690815481e-02 0.0 
2.566371772325e-02 2.776959017354e-02 0.0 
1.398231835318e-02 1.129858437089e-02 0.0 
1.497395896631e-02 1.233483472361e-02 0.0 
-1.738064403705e-03 5.713493852832e-02 0.0 
4.655274381991e-02 9.241135776345e-02 0.0 
9.942295564312e-03 3.940318521598e-02 0.0 
4.513213200020e-02 1.088729692871e-01 0.0 
4.951728205796e-05 1.070998496549e-02 0.0 
-6.579573097054e-04 1.299889331650e-02 0.0 
7.918455502241e-03 -2.534721048996e-02 0.0 
6.428333732982e-03 -2.048484636953e-02 0.0 
3.327591022783e-03 4.307373167324e-02 0.0 
3.374989051108e-02 5.215591095456e-02 0.0 
3.690774982625e-02 6.144313401329e-02 0.0 
3.033054287746e-02 4.211062670763e-02 0.0 
-2.561276282452e-04 8.933738378181e-03 0.0 
2.914596752777e-03 1.426386689452e-01 0.0 
-1.110596604440e-03 1.459101396300e-02 0.0 
5.067615724698e-02 7.983414390955e-02 0.0 
3.583989655196e-03 3.512854336661e-02 0.0 
3.477321077759e-02 2.494328378976e-02 0.0 
4.675684085056e-02 4.311132582570e-02 0.0 
6.529595054616e-03 1.279913729642e-02 0.0 
2.708319101274e-03 5.166544976998e-02 0.0 
2.009598924338e-03 3.387226665090e-02 0.0 
1.873642671229e-02 1.157993763162e-01 0.0 
1.685901101494e-02 1.232661899143e-01 0.0 
2.067143373272e-02 1.085385714702e-01 0.0 
1.875153968402e-02 -8.103427132602e-03 0.0 
1.491183355337e-02 -1.049211963118e-02 0.0 
7.196078081925e-03 5.290831787279e-02 0.0 
-3.776249612089e-03 5.021847981849e-02 0.0 
-3.325939954507e-03 5.149850058233e-02 0.0 
-1.019243576665e-03 2.652128873298e-02 0.0 
-2.800923724313e-03 2.644473688407e-02 0.0 
-4.905457788828e-03 3.576528258175e-02 0.0 
-5.273840538226e-03 3.430510485183e-02 0.0 
3.764594383597e-02 4.484155465171e-02 0.0 
3.461827113908e-02 4.311011051217e-02 0.0 
4.235538844778e-02 4.579833452060e-02 0.0 
7.787749391990e-03 1.367210338152e-02 0.0 
7.813005650063e-03 1.286101372424e-02 0.0 
1.087167572805e-02 1.150464083931e-02 0.0 
7.596483634165e-03 3.875417920766e-02 0.0 
5.100938297896e-03 2.875995903174e-02 0.0 
1.216119186112e-03 8.720399531758e-03 0.0 
3.663416384929e-03 3.864218283895e-03 0.0 
-2.425645885047e-03 1.700748523773e-02 0.0 
9.484510607031e-03 3.233940020854e-02 0.0 
-1.167637847371e-03 1.154470326927e-02 0.0 
-1.582622154641e-03 1.357120668512e-02 0.0 
6.239323343941e-03 3.860961912942e-02 0.0 
3.820437166354e-03 3.274670052367e-02 0.0 
2.293898553253e-02 2.082344152622e-02 0.0 
1.887873991757e-02 9.662242021377e-03 0.0 
1.490325661867e-02 3.375049863312e-02 0.0 
1.882080197558e-02 4.035802044744e-02 0.0 
1.072831581009e-02 2.568943622685e-02 0.0 
-7.982475498717e-04 5.994546495503e-02 0.0 
3.071087937216e-02 2.378151297256e-02 0.0 
4.044678322553e-03 8.828801615716e-03 0.0 
6.194282507105e-03 9.915261569833e-03 0.0 
2.198985457509e-03 7.246849833961e-03 0.0 
2.170397929187e-02 1.677246514273e-02 0.0 
1.615674959686e-02 1.268844299784e-02 0.0 
1.787589393876e-02 1.431756233310e-02 0.0 
8.225407467574e-03 -2.615862254083e-02 0.0 
1.510738731816e-03 4.057390195151e-02 0.0 
1.296977349876e-02 1.225852951471e-01 0.0 
6.996809240807e-03 -2.896087297562e-02 0.0 
1.116827529155e-02 1.298846504467e-01 0.0 
9.386653984084e-03 1.215817225227e-01 0.0 
9.628939593837e-03 1.369413531974e-01 0.0 
-6.446692078529e-05 6.153038733582e-02 0.0 
2.113898763427e-02 1.254393654369e-01 0.0 
2.337380000165e-02 1.161013150713e-01 0.0 
8.774271142589e-03 3.314734337391e-02 0.0 
6.477013516586e-03 2.410334938380e-02 0.0 
8.288012053340e-03 4.351380646298e-02 0.0 
6.357000461513e-03 4.794174611881e-02 0.0 
-5.406193086288e-04 9.487076823388e-03 0.0 
-1.137664562831e-03 1.202283006503e-02 0.0 
-8.422255685837e-04 8.060202067723e-03 0.0 
-1.351867918247e-03 1.094257132969e-02 0.0 
-1.723768603754e-03 1.475763986679e-02 0.0 
-1.797623987367e-03 1.362695058285e-02 0.0 
1.507741211337e-02 1.315121323041e-01 0.0 
-1.229930327843e-03 8.693893935541e-03 0.0 
-1.663557794657e-03 1.205112185025e-02 0.0 
-1.034171274910e-03 6.965792348461e-03 0.0 
4.534179615872e-02 1.152768846038e-01 0.0 
4.150569830698e-02 5.827397554189e-02 0.0 
3.965868122804e-02 7.044896685517e-02 0.0 
3.394260554920e-02 7.476960690679e-02 0.0 
1.725367162493e-02 1.769552741928e-02 0.0 
2.190383097252e-02 2.462387996386e-02 0.0 
-1.147920873275e-03 2.261049500823e-02 0.0 
-1.353834366887e-03 2.730738429864e-02 0.0 
7.732094349664e-03 1.294400014488e-01 0.0 
5.655888274549e-03 1.301175063074e-01 0.0 
6.204723255339e-03 1.167236564192e-01 0.0 
4.480193384444e-03 1.184024988573e-01 0.0 
4.847065631088e-03 1.050094314285e-01 0.0 
3.121284452635e-03 1.067651421309e-01 0.0 
3.710083228680e-03 9.311619083200e-02 0.0 
1.504724218635e-02 1.234443772491e-02 0.0 
2.747981627167e-02 5.392247860382e-02 0.0 
4.407568396739e-02 1.194256198330e-01 0.0 
1.045657044041e-02 9.050119008209e-03 0.0 
1.189580371506e-02 1.069248012121e-02 0.0 
4.753280908313e-02 9.805363261485e-02 0.0 
4.397192975042e-02 1.051922454786e-01 0.0 
5.591602067164e-04 7.932167114486e-03 0.0 
4.098661736086e-02 2.851040987817e-02 0.0 
4.843919957672e-03 1.518731700244e-02 0.0 
2.132493893441e-03 -1.446105753228e-02 0.0 
9.035571134919e-03 -1.586461533077e-02 0.0 
4.413532022391e-02 3.608648418242e-02 0.0 
4.962119640160e-02 9.109203380731e-02 0.0 
4.423953801839e-02 6.646269820533e-02 0.0 
4.274577184955e-02 7.895223298873e-02 0.0 
7.356662151955e-03 1.366730757047e-02 0.0 
5.388914372134e-03 2.688827557039e-02 0.0 
2.672983148097e-02 3.160888461158e-02 0.0 
5.402093322306e-03 9.154039541524e-02 0.0 
2.045290277845e-02 3.227582709392e-02 0.0 
-6.298808918685e-04 2.504413557473e-02 0.0 
3.883731470233e-02 2.121636234331e-02 0.0 
5.096919239357e-02 6.929958806228e-02 0.0 
3.177918484777e-02 3.040081905722e-02 0.0 
4.275407817848e-02 4.753419340905e-02 0.0 
4.372220630593e-02 8.753336443868e-02 0.0 
4.067195951719e-02 1.071589425497e-01 0.0 
4.302554894726e-02 1.088746833773e-01 0.0 
3.576881518213e-02 1.542913224764e-02 0.0 
4.498029338298e-02 8.611255555463e-02 0.0 
4.010239855202e-02 9.252790921325e-02 0.0 
4.868360047782e-02 7.789277051412e-02 0.0 
2.345682002528e-02 5.437680973093e-02 0.0 
2.289854118249e-02 4.668455139986e-02 0.0 
1.771180690841e-02 3.353884660141e-02 0.0 
2.181994932799e-02 3.937758179672e-02 0.0 
2.697054971991e-02 5.244299150486e-02 0.0 
2.602667828620e-02 4.488375254574e-02 0.0 
2.022359765671e-02 3.255408197929e-02 0.0 
2.453651350831e-02 3.772175507650e-02 0.0 
1.658927016971e-02 2.361252277478e-02 0.0 
2.230712324887e-02 3.074368729555e-02 0.0 
2.875894897349e-02 4.248086047369e-02 0.0 
2.690331595186e-02 3.584656212814e-02 0.0 
2.058421843770e-02 2.585376674913e-02 0.0 
3.292386729115e-02 4.707332423726e-02 0.0 
8.811229463986e-03 7.398269028593e-03 0.0 
4.503547325242e-02 3.498950125774e-02 0.0 
1.132466972047e-02 -1.982977818217e-02 0.0 
1.251465612861e-02 -4.519207431726e-03 0.0 
5.082916029046e-02 7.328864807070e-02 0.0 
8.257614869529e-03 1.163631580148e-02 0.0 
7.151230517982e-03 1.234519337710e-02 0.0 
3.323794887163e-02 1.272465251122e-02 0.0 
8.660743313469e-03 8.228930111879e-03 0.0 
4.491982134890e-02 9.841063786411e-02 0.0 
2.170619055478e-02 -5.211421696672e-03 0.0 
8.389855794080e-03 7.178247064094e-03 0.0 
2.735350504749e-02 6.027466562606e-02 0.0 
3.118249833036e-02 6.575490683346e-02 0.0 
3.085224403507e-02 7.401538686812e-02 0.0 
5.709370016524e-03 1.211571687209e-02 0.0 
2.250569317500e-02 1.009021715942e-01 0.0 
6.237870584923e-03 4.985966458997e-03 0.0 
2.782701148658e-02 1.730959730379e-02 0.0 
3.230412319597e-02 1.967246520208e-02 0.0 
3.422407415081e-02 1.901514739083e-02 0.0 
3.017370592876e-02 5.003311052838e-02 0.0 
4.016255265496e-03 4.107888682622e-03 0.0 
6.807081893336e-03 7.256920889946e-03 0.0 
5.520643583484e-03 7.024963805175e-03 0.0 
8.889767295685e-03 9.867618863667e-03 0.0 
2.612354428405e-03 3.876237038415e-03 0.0 
8.062680894298e-03 9.493940214155e-03 0.0 
7.845143173633e-03 8.531208167999e-03 0.0 
3.404821285554e-03 1.267328302819e-03 0.0 
6.505673458036e-03 -7.853547543167e-04 0.0 
6.876193373572e-03 2.139800858874e-03 0.0 
1.022437946444e-02 -1.495672168489e-03 0.0 
9.685394957618e-03 -4.903116874719e-03 0.0 
1.381758489023e-02 -4.236328782952e-03 0.0 
1.440452551060e-02 -7.940001217235e-04 0.0 
1.746986631005e-02 -5.602507208651e-03 0.0 
2.862857729359e-02 3.385591293657e-02 0.0 
1.341074560150e-03 3.703200005242e-03 0.0 
1.039524806118e-03 1.728998863944e-02 0.0 
2.827570478844e-03 1.543828495997e-02 0.0 
2.446186821433e-03 1.466850809023e-02 0.0 
-5.579706317578e-03 3.613207474970e-02 0.0 
-5.383158388216e-03 3.220812915318e-02 0.0 
-4.946345039700e-03 3.065204535942e-02 0.0 
-5.421075196728e-03 4.015932635418e-02 0.0 
3.800365466773e-02 3.272619196734e-02 0.0 
7.986653789979e-04 3.768541876180e-03 0.0 
1.408382781623e-02 1.222747840292e-02 0.0 
-5.180035068767e-03 2.945435533726e-02 0.0 
2.753673602778e-02 1.358695210898e-01 0.0 
2.930467161624e-02 1.224865989890e-01 0.0 
3.211836207147e-02 1.195121012860e-01 0.0 
3.029338671143e-02 1.070799341999e-01 0.0 
2.613613933349e-02 1.232244270010e-01 0.0 
-4.333026959255e-03 3.658658522563e-02 0.0 
-3.615071219883e-03 3.680583922759e-02 0.0 
-3.129094590843e-03 3.998295979105e-02 0.0 
-2.802819277800e-03 3.647030041079e-02 0.0 
-2.207771828825e-03 3.942809132165e-02 0.0 
-2.454587129285e-03 4.289369460833e-02 0.0 
-1.924250557696e-03 3.564766696279e-02 0.0 
-1.284040043818e-03 3.880135750053e-02 0.0 
2.220427224662e-02 1.392830614957e-01 0.0 
9.664679788174e-03 -1.487818064595e-02 0.0 
6.188535744039e-03 -8.976859950918e-03 0.0 
7.252433166354e-03 1.622768569988e-03 0.0 
4.143709859909e-03 -3.503080438134e-03 0.0 
4.558934408983e-03 -1.225496769237e-02 0.0 
3.129853787254e-03 -6.305761755864e-03 0.0 
4.964825215258e-03 -1.338690692780e-02 0.0 
5.693085154317e-03 -1.919437598568e-02 0.0 
1.282305302825e-02 6.885326678713e-03 0.0 
8.166229830835e-03 1.055140296165e-02 0.0 
1.364238843160e-02 1.522067534155e-02 0.0 
8.957426712172e-03 1.851542408500e-02 0.0 
4.319658695870e-03 1.409549093818e-02 0.0 
4.925019108025e-04 3.240385875888e-02 0.0 
-6.517950260532e-04 5.773631914185e-03 0.0 
-1.024322039458e-03 4.913951478181e-02 0.0 
-1.972864377356e-03 5.014749145090e-02 0.0 
-1.878059799865e-03 5.311927917163e-02 0.0 
-2.913952242204e-03 5.027422036740e-02 0.0 
-1.896615239454e-03 4.719184200168e-02 0.0 
-9.004165007569e-04 5.542455268176e-02 0.0 
-1.649822886838e-03 5.564408433106e-02 0.0 
5.543548508503e-03 6.213053458918e-02 0.0 
3.242282282793e-03 6.339976837447e-02 0.0 
1.598048255333e-03 6.473468300724e-02 0.0 
1.583352471515e-03 6.397248761169e-02 0.0 
2.620809227226e-03 6.231372993777e-02 0.0 
4.748000746193e-03 6.131260647280e-02 0.0 
6.150256888750e-03 5.845066082581e-02 0.0 
9.395265545766e-03 5.652460065588e-02 0.0 
7.321078000282e-03 5.493279819485e-02 0.0 
4.244661123744e-03 5.671021613433e-02 0.0 
1.100708797128e-02 5.279424346781e-02 0.0 
1.201021955936e-03 7.286723696578e-02 0.0 
2.289407968338e-03 6.504509127114e-02 0.0 
-3.963796962202e-06 4.205223407226e-03 0.0 
1.728878918979e-02 1.398939401318e-01 0.0 
1.421651822606e-02 3.002143157378e-02 0.0 
1.877951019687e-03 1.689777580773e-02 0.0 
2.850771336700e-03 1.386199464655e-02 0.0 
2.302223033168e-03 1.349447634999e-02 0.0 
-3.987949485063e-04 1.468389846363e-02 0.0 
-6.435284112477e-04 1.193773601452e-02 0.0 
1.024791087501e-03 1.648394859170e-02 0.0 
-4.244221500056e-03 3.633041942561e-02 0.0 
1.609838447392e-02 2.715290319789e-02 0.0 
5.251274307947e-03 4.418958612650e-02 0.0 
2.339474753290e-02 1.055647243379e-03 0.0 
-2.893169930965e-03 2.101764917133e-02 0.0 
-2.085088022224e-03 2.875035646590e-02 0.0 
-3.777853850276e-03 2.663944128725e-02 0.0 
-2.036640612015e-03 1.821920718609e-02 0.0 
-3.402670120884e-03 3.030624850459e-02 0.0 
-2.628459046418e-03 2.047035872297e-02 0.0 
4.328942507194e-03 7.116927679977e-03 0.0 
4.679945509833e-04 6.028205531417e-02 0.0 
1.415697753257e-02 1.006249469544e-01 0.0 
9.129130512627e-03 1.066651143217e-01 0.0 
8.646856247972e-03 6.873307222017e-02 0.0 
-3.952348765832e-03 4.805029636951e-02 0.0 
-3.418209256538e-03 4.304840724998e-02 0.0 
-7.703006165502e-05 4.730021828498e-02 0.0 
1.544604909456e-02 1.388793376565e-02 0.0 
4.957818917428e-02 8.642847252468e-02 0.0 
1.138456937990e-04 1.660409860650e-02 0.0 
-5.640410114678e-03 3.772923661441e-02 0.0 
-4.627529551368e-03 3.122896880711e-02 0.0 
-1.740448604311e-03 1.538929584634e-02 0.0 
4.713105299962e-02 4.100610297893e-02 0.0 
-4.335329820384e-03 2.570727436943e-02 0.0 
-1.002442472019e-03 1.826838067978e-02 0.0 
6.636158552732e-03 6.018938157583e-02 0.0 
1.277027691618e-02 4.304845039888e-02 0.0 
1.847687003330e-04 1.599400091369e-02 0.0 
-3.274740994912e-03 2.407687140133e-02 0.0 
1.969523527522e-02 9.357957375771e-02 0.0 
1.849791507759e-02 1.468893120022e-02 0.0 
1.655481280757e-03 1.269583251667e-03 0.0 
1.245151132218e-02 6.250364645016e-02 0.0 
1.218675313357e-02 3.380350586755e-02 0.0 
2.525799266798e-02 1.077406083187e-01 0.0 
2.960057360675e-03 4.804564258622e-02 0.0 
1.476539987150e-02 1.158266977970e-01 0.0 
1.752888437902e-03 9.461161337976e-03 0.0 
2.347976448578e-02 6.219616352179e-02 0.0 
-2.908197875734e-03 5.216198902150e-02 0.0 
1.848186435398e-02 9.774340090821e-03 0.0 
5.050069989006e-02 5.969787139193e-02 0.0 
3.929400312408e-02 1.309613069480e-01 0.0 
5.435185042248e-03 3.743654202778e-02 0.0 
4.039516353763e-02 2.718399174071e-02 0.0 
1.153950254925e-02 1.206791351472e-02 0.0 
1.699518272640e-02 1.328283286450e-02 0.0 
-2.779711184347e-03 5.383363231956e-02 0.0 
-1.400580296700e-03 1.550821511329e-02 0.0 
3.109772420586e-02 1.482930601498e-02 0.0 
1.009130914156e-02 4.686878624951e-02 0.0 
3.779547115467e-02 3.924765073719e-02 0.0 
2.338291757694e-02 4.439155946524e-03 0.0 
1.620111064340e-02 5.554210129876e-02 0.0 
4.815616798658e-03 1.208945682675e-02 0.0 
1.894865532059e-02 1.480544355825e-02 0.0 
5.044225751189e-02 8.370829333521e-02 0.0 
4.607296042285e-02 5.194083481668e-02 0.0 
4.076230563622e-02 5.974940250376e-02 0.0 
4.516389308251e-02 4.011055561750e-02 0.0 
-1.535978916535e-03 3.176688511263e-02 0.0 
-7.783558990280e-04 1.592923762372e-02 0.0 
1.092693448111e-02 -1.612362831472e-02 0.0 
4.531827863098e-02 4.525666076239e-02 0.0 
2.409809027987e-02 9.283442215042e-02 0.0 
2.579578056905e-02 2.242757045122e-02 0.0 
7.163480486175e-03 3.098137901636e-02 0.0 
5.046165600469e-02 6.441853733424e-02 0.0 
-2.098088394317e-03 1.819249278708e-02 0.0 
1.278127628294e-02 4.068355477212e-02 0.0 
-4.814421983644e-03 2.848814291138e-02 0.0 
-9.933316582337e-05 6.242598626707e-02 0.0 
1.988028244932e-02 -4.660019762815e-04 0.0 
2.221340186210e-02 -1.750152237886e-03 0.0 
3.829421026773e-02 2.279074073540e-02 0.0 
-4.280084396177e-03 2.722624169739e-02 0.0 
1.290371552110e-02 2.523524567064e-02 0.0 
-2.238690728396e-03 1.755809798220e-02 0.0 
4.961203946990e-03 1.389757825033e-02 0.0 
8.907196840279e-03 2.090403378050e-02 0.0 
4.263648256707e-02 1.196198039489e-01 0.0 
-2.164184627314e-03 1.653142095982e-02 0.0 
1.441181161920e-02 1.046431084396e-02 0.0 
1.529907233426e-02 1.299868621354e-02 0.0 
-1.490988441816e-03 4.220250192083e-02 0.0 
1.513290050401e-02 1.295938936771e-02 0.0 
4.514162745902e-02 1.104006911932e-01 0.0 
-1.924476691982e-03 1.514429466978e-02 0.0 
9.147587698650e-03 1.306667057212e-02 0.0 
3.734809851608e-02 2.065800131525e-02 0.0 
4.831287909507e-03 1.426162313799e-01 0.0 
-1.305064422922e-03 9.583909380869e-03 0.0 
7.720054341710e-03 1.182899648828e-02 0.0 
4.197954047057e-02 3.663214579552e-02 0.0 
1.092567574822e-02 9.690625413949e-03 0.0 
4.178084184381e-02 1.305310778256e-01 0.0 
-4.384036233657e-03 2.882239136767e-02 0.0 
4.439918853796e-02 5.298131681349e-02 0.0 
5.018876917293e-03 1.206792931134e-02 0.0 
8.659960891972e-03 1.102603626446e-02 0.0 
3.441714675866e-02 7.916329406790e-02 0.0 
-4.800905056557e-03 3.222827386674e-02 0.0 
3.068956689394e-02 2.153578060367e-02 0.0 
3.552568966335e-03 5.989122195511e-02 0.0 
4.501538159208e-02 1.179551014388e-01 0.0 
-4.425482073699e-03 3.320244000516e-02 0.0 
1.834153595249e-02 -2.072140441472e-03 0.0 
7.750535372550e-03 1.144041949254e-02 0.0 
1.253187650457e-02 9.986105849768e-03 0.0 
-3.877576704515e-03 3.358196417520e-02 0.0 
1.887181021038e-02 1.284577987029e-03 0.0 
-3.207817875793e-03 3.341964048467e-02 0.0 
4.180586619186e-02 1.247730893999e-01 0.0 
3.482632482606e-02 7.038114474814e-02 0.0 
-2.431796997527e-03 3.279130077244e-02 0.0 
4.025759550065e-02 4.578788639359e-02 0.0 
4.684132897063e-03 5.262080222763e-02 0.0 
3.863403304145e-02 3.127059311522e-02 0.0 
-8.976864502336e-04 1.738495444536e-02 0.0 
-3.727271687717e-03 2.181922778449e-02 0.0 
5.054288472909e-03 1.341302215429e-02 0.0 
3.094872960010e-02 5.770505113372e-02 0.0 
3.921395984309e-02 1.153505879246e-01 0.0 
5.318533134330e-03 1.430570750354e-02 0.0 
3.527443398634e-02 3.834756379871e-02 0.0 
3.498472516765e-02 2.675473964575e-02 0.0 
3.653320817668e-02 2.291557319162e-02 0.0 
5.327918922748e-03 1.449660972652e-02 0.0 
4.257808284902e-02 9.890146780028e-02 0.0 
-3.560827187548e-03 3.182414892650e-02 0.0 
-1.933178948541e-03 3.205013969531e-02 0.0 
1.476647079687e-02 2.447388321143e-03 0.0 
3.218163157890e-02 3.652205629047e-02 0.0 
1.090558778718e-03 6.245883738047e-02 0.0 
3.406042246450e-02 5.426735899585e-02 0.0 
1.608823665835e-03 2.671977451253e-02 0.0 
1.062815794111e-02 1.664996200274e-03 0.0 
2.648668409088e-02 2.008714608902e-02 0.0 
1.418049648714e-03 1.029921371186e-01 0.0 
7.193406879588e-03 4.927935356730e-03 0.0 
-4.480769271199e-04 6.049221181865e-02 0.0 
3.931164645187e-03 6.276370466426e-03 0.0 
3.387778090247e-02 2.256483425134e-02 0.0 
1.480261000634e-03 1.051516919652e-02 0.0 
-7.648700188869e-04 1.333357847340e-02 0.0 
3.661205237902e-03 2.870683874173e-02 0.0 
-2.379608932434e-03 1.782036602802e-02 0.0 
5.097031441645e-04 1.366574178721e-02 0.0 
-3.005737461823e-04 5.390310391697e-03 0.0 
1.829747961973e-03 1.319347970871e-01 0.0 
3.398222284686e-02 1.037228156860e-01 0.0 
5.353622430806e-03 -3.070343890562e-02 0.0 
3.814080216026e-02 8.196760433489e-02 0.0 
-3.464898660558e-03 2.134272315722e-02 0.0 
3.644893534584e-02 5.010251747394e-02 0.0 
3.803050190408e-03 1.312530978848e-01 0.0 
-3.857521425720e-03 2.636224279163e-02 0.0 
1.529412952516e-02 1.954103323796e-02 0.0 
7.151632089871e-03 5.735276184211e-03 0.0 
2.574029918374e-03 7.974285569045e-02 0.0 
1.213769661029e-02 1.157258219661e-02 0.0 
3.097462892739e-02 2.290204400357e-02 0.0 
7.489289624450e-04 4.220016809292e-02 0.0 
1.114183490283e-02 1.433604009721e-01 0.0 
9.537321514335e-03 2.595529480529e-02 0.0 
-7.365606056622e-04 2.978406297462e-02 0.0 
2.810668266903e-02 8.654177178376e-02 0.0 
3.058058061929e-02 6.408228081033e-02 0.0 
2.379168625967e-02 4.324671275486e-02 0.0 
-2.312242621765e-03 5.497995207189e-02 0.0 
4.545641133027e-03 5.639159345397e-03 0.0 
2.323738115651e-02 6.643497041737e-02 0.0 
8.179026562542e-03 7.782969072212e-03 0.0 
1.879736973072e-02 1.291816474575e-01 0.0 
2.598794507571e-02 2.031520705892e-02 0.0 
1.631777627045e-02 4.472335389785e-02 0.0 
8.858835732126e-03 2.637804911037e-02 0.0 
1.327933669245e-02 1.049945937820e-02 0.0 
-4.653028321813e-04 4.002008860596e-03 0.0 
2.010574491128e-02 1.581026853402e-02 0.0 
1.662442835810e-02 2.063475540793e-02 0.0 
2.774516524137e-02 1.121281532671e-01 0.0 
1.559678275432e-02 1.483968957901e-02 0.0 
3.496095616134e-03 6.725521913323e-02 0.0 
-6.280703806377e-04 4.081171040298e-03 0.0 
2.360480278153e-02 1.285058034169e-01 0.0 
2.230527869982e-03 2.688127958405e-02 0.0 
7.795815260095e-03 -1.664003308359e-02 0.0 
1.134214442880e-03 2.614267356197e-02 0.0 
3.100003052694e-02 4.007703674294e-02 0.0 
7.824385653558e-03 1.135500057342e-01 0.0 
3.312199415715e-02 1.078345072733e-01 0.0 
-7.577272078358e-04 9.263138394340e-03 0.0 
1.412954396889e-02 2.170538691319e-02 0.0 
1.278724768274e-02 6.994430645475e-03 0.0 
4.033337895140e-03 8.127851760692e-02 0.0 
-3.755056230776e-03 4.844679526983e-02 0.0 
6.626302315777e-03 -2.649628164004e-02 0.0 
-7.692198832947e-05 7.553051550211e-03 0.0 
2.475821964739e-02 3.019732285090e-02 0.0 
-1.103867129057e-03 9.158283685930e-03 0.0 
7.500250787714e-04 6.471382807606e-02 0.0 
1.010673899460e-02 3.918124532696e-02 0.0 
1.135828889691e-03 6.576389188860e-03 0.0 
1.476505338754e-02 1.611719545193e-02 0.0 
4.843199260071e-03 -9.385937940022e-03 0.0 
3.010192650945e-03 1.068446617969e-02 0.0 
7.223243230071e-03 -5.301033704879e-03 0.0 
1.513455584457e-02 1.442748526100e-01 0.0 
8.512384445326e-03 5.116633151765e-02 0.0 
-6.326114553768e-04 4.293239285278e-03 0.0 
5.322755850568e-03 2.533422246946e-02 0.0 
-2.670238851949e-03 4.786719746530e-02 0.0 
3.313147870937e-02 1.289393634472e-01 0.0 
-1.270810716702e-03 5.806791046062e-02 0.0 
2.006231446066e-02 1.706093494009e-02 0.0 
5.843870597892e-03 2.127226339112e-02 0.0 
3.646927478261e-03 2.413741704231e-02 0.0 
2.834128032279e-03 6.204270651318e-03 0.0 
1.034860114621e-02 2.187393803223e-02 0.0 
3.942303596376e-03 3.407119342291e-03 0.0 
7.481806207205e-03 -2.427496437170e-02 0.0 
1.216629127943e-02 9.725716275385e-03 0.0 
6.721959530864e-03 9.060198345336e-03 0.0 
8.383815639264e-03 1.441554829196e-01 0.0 
1.265484105708e-02 2.231523572811e-02 0.0 
-2.535126771292e-03 5.302111456117e-02 0.0 
2.281609892415e-03 5.517943065820e-02 0.0 
2.169198491033e-04 1.211766945114e-02 0.0 
1.746004869686e-03 6.429804299017e-02 0.0 
1.418291016974e-03 1.442672144292e-01 0.0 
-1.163629709318e-04 4.425835855970e-03 0.0 
1.836689315996e-03 6.085157123458e-02 0.0 
3.029572159981e-03 1.213165195965e-01 0.0 
1.400708618353e-02 1.643337807893e-02 0.0 
-6.472679653673e-04 4.190807438794e-02 0.0 
1.729396889435e-03 5.259514833542e-02 0.0 
2.836319393061e-03 1.069170600078e-03 0.0 
7.453318921862e-03 -3.189668397775e-02 0.0 
2.449159712034e-03 9.542205334991e-02 0.0 
1.112817549600e-02 8.838725363932e-03 0.0 
8.208387555310e-03 2.174950835663e-02 0.0 
6.295871100013e-03 1.054973900201e-01 0.0 
1.641098428726e-02 3.170298502408e-04 0.0 
1.936850042055e-02 2.268900535943e-02 0.0 
-2.738054171536e-03 4.524852873795e-02 0.0 
2.072998220954e-02 1.957366306351e-02 0.0 
9.746943628088e-03 9.621149560574e-03 0.0 
1.359726085636e-03 -2.910285417693e-03 0.0 
-5.410458290395e-04 3.808228393825e-02 0.0 
9.549042868811e-03 4.710989205678e-02 0.0 
-9.445868895869e-04 7.440272717836e-03 0.0 
-1.803938921983e-03 4.457828012182e-02 0.0 
3.306112817427e-02 1.463639943333e-01 0.0 
9.654317307357e-04 1.612844907343e-01 0.0 

TENSORS node_materi_stress float
-8.430582056003e+00 2.715287029394e-02 0.0 
2.715287029394e-02 -8.504933903017e+00 0.0 
0.0 0.0 -3.846386365010e+00 
-2.884343769745e+01 4.325527877776e-01 0.0 
4.325527877776e-01 -2.032421677248e+01 0.0 
0.0 0.0 -1.435029634098e+01 
-1.667293194851e+02 -8.761693185919e-02 0.0 
-8.761693185919e-02 -3.919403126975e+02 0.0 
0.0 0.0 -1.672008896548e+02 
-9.249926845956e+01 1.028655636939e+00 0.0 
1.028655636939e+00 -2.134104495646e+02 0.0 
0.0 0.0 -9.137291540725e+01 
-8.055367206330e+00 -1.631334201102e-01 0.0 
-1.631334201102e-01 -2.077044414419e+01 0.0 
0.0 0.0 -6.426851138145e+00 
-1.071065158079e+01 -5.520061503037e-01 0.0 
-5.520061503037e-01 -4.034452108802e+01 0.0 
0.0 0.0 -1.263879378989e+01 
-1.384429159667e+01 -6.383943287400e-01 0.0 
-6.383943287400e-01 -5.857973900832e+01 0.0 
0.0 0.0 -2.053480682760e+01 
-2.436423798181e+01 -7.899810439370e-01 0.0 
-7.899810439370e-01 -7.974199994492e+01 0.0 
0.0 0.0 -3.007852405836e+01 
-3.992464966466e+01 -7.628710517756e-01 0.0 
-7.628710517756e-01 -1.004197295682e+02 0.0 
0.0 0.0 -3.927378432733e+01 
-5.356401919011e+01 -7.717738799042e-01 0.0 
-7.717738799042e-01 -1.210385547634e+02 0.0 
0.0 0.0 -4.837785456361e+01 
-6.553596858382e+01 -8.083676581376e-01 0.0 
-8.083676581376e-01 -1.417794350174e+02 0.0 
0.0 0.0 -5.741715483902e+01 
-7.603352398606e+01 -7.750106753486e-01 0.0 
-7.750106753486e-01 -1.625490048482e+02 0.0 
0.0 0.0 -6.638063093078e+01 
-8.517494434544e+01 -7.357532829673e-01 0.0 
-7.357532829673e-01 -1.833091220556e+02 0.0 
0.0 0.0 -7.529972667124e+01 
-9.334191278118e+01 -7.263564314644e-01 0.0 
-7.263564314644e-01 -2.041558165876e+02 0.0 
0.0 0.0 -8.419406664279e+01 
-1.006142371638e+02 -7.778316183478e-01 0.0 
-7.778316183478e-01 -2.253768423883e+02 0.0 
0.0 0.0 -9.320021472532e+01 
-1.072353074108e+02 -6.675952670012e-01 0.0 
-6.675952670012e-01 -2.457222105300e+02 0.0 
0.0 0.0 -1.020005437788e+02 
-1.130022989242e+02 -7.878713114574e-01 0.0 
-7.878713114574e-01 -2.640448135605e+02 0.0 
0.0 0.0 -1.099883638514e+02 
-1.186471158358e+02 -3.325674024091e-01 0.0 
-3.325674024091e-01 -2.840151153018e+02 0.0 
0.0 0.0 -1.186309641775e+02 
-1.243311220222e+02 -2.256106410150e-01 0.0 
-2.256106410150e-01 -3.042375180828e+02 0.0 
0.0 0.0 -1.275243644895e+02 
-1.315041621219e+02 -1.658954474123e-01 0.0 
-1.658954474123e-01 -3.236414938705e+02 0.0 
0.0 0.0 -1.361375413445e+02 
-1.410304812790e+02 -8.526000025139e-02 0.0 
-8.526000025139e-02 -3.430015186155e+02 0.0 
0.0 0.0 -1.448095999684e+02 
-1.509352773537e+02 -9.151734782986e-02 0.0 
-9.151734782986e-02 -3.623963124847e+02 0.0 
0.0 0.0 -1.535994769515e+02 
-1.605608219384e+02 -1.533896802749e-01 0.0 
-1.533896802749e-01 -3.808176374702e+02 0.0 
0.0 0.0 -1.620135378226e+02 
-9.270838498133e+01 1.689196875039e+00 0.0 
1.689196875039e+00 -2.146956107356e+02 0.0 
0.0 0.0 -9.182119871509e+01 
-9.222678275611e+01 3.052412579331e+00 0.0 
3.052412579331e+00 -2.137487495179e+02 0.0 
0.0 0.0 -9.139265968220e+01 
-9.248034145986e+01 4.791725748687e+00 0.0 
4.791725748687e+00 -2.142385639737e+02 0.0 
0.0 0.0 -9.161567163008e+01 
-9.256721472315e+01 5.991931655417e+00 0.0 
5.991931655417e+00 -2.146337553462e+02 0.0 
0.0 0.0 -9.176029102079e+01 
-9.286411850676e+01 7.739158438068e+00 0.0 
7.739158438068e+00 -2.145635854300e+02 0.0 
0.0 0.0 -9.182831118102e+01 
-9.344353004857e+01 9.559708717526e+00 0.0 
9.559708717526e+00 -2.159675819709e+02 0.0 
0.0 0.0 -9.242333360585e+01 
-9.447960748506e+01 1.156471080856e+01 0.0 
1.156471080856e+01 -2.174880739311e+02 0.0 
0.0 0.0 -9.319030442483e+01 
-9.481572320364e+01 1.381721053424e+01 0.0 
1.381721053424e+01 -2.186482850235e+02 0.0 
0.0 0.0 -9.363920246815e+01 
-9.616795362053e+01 1.617776904098e+01 0.0 
1.617776904098e+01 -2.213876182440e+02 0.0 
0.0 0.0 -9.486667155937e+01 
-9.694392753564e+01 1.825783875673e+01 0.0 
1.825783875673e+01 -2.237094567458e+02 0.0 
0.0 0.0 -9.579601528443e+01 
-9.840290992278e+01 2.079180174392e+01 0.0 
2.079180174392e+01 -2.259825837381e+02 0.0 
0.0 0.0 -9.691564809828e+01 
-1.000207853879e+02 2.345325658123e+01 0.0 
2.345325658123e+01 -2.302019336680e+02 0.0 
0.0 0.0 -9.866681571678e+01 
-1.024972622656e+02 2.611082023472e+01 0.0 
2.611082023472e+01 -2.353113926205e+02 0.0 
0.0 0.0 -1.009425964658e+02 
-1.040340221395e+02 2.866601321003e+01 0.0 
2.866601321003e+01 -2.398650215758e+02 0.0 
0.0 0.0 -1.027697131146e+02 
-1.066467736726e+02 3.112021779216e+01 0.0 
3.112021779216e+01 -2.453732888114e+02 0.0 
0.0 0.0 -1.052060187452e+02 
-1.086448097068e+02 3.319639713402e+01 0.0 
3.319639713402e+01 -2.511249185728e+02 0.0 
0.0 0.0 -1.075309184839e+02 
-1.117171412243e+02 3.528249920299e+01 0.0 
3.528249920299e+01 -2.583342042943e+02 0.0 
0.0 0.0 -1.106154036556e+02 
-1.154614760182e+02 3.711901630971e+01 0.0 
3.711901630971e+01 -2.672294001529e+02 0.0 
0.0 0.0 -1.144072628513e+02 
-1.187010370653e+02 3.855078485765e+01 0.0 
3.855078485765e+01 -2.758891472663e+02 0.0 
0.0 0.0 -1.179770552995e+02 
-1.220909796313e+02 3.957343990229e+01 0.0 
3.957343990229e+01 -2.847729960394e+02 0.0 
0.0 0.0 -1.216591927012e+02 
-1.252850647677e+02 4.001402026684e+01 0.0 
4.001402026684e+01 -2.933506283717e+02 0.0 
0.0 0.0 -1.251907079418e+02 
-1.288168365824e+02 4.022200746625e+01 0.0 
4.022200746625e+01 -3.018630981271e+02 0.0 
0.0 0.0 -1.288039804129e+02 
-1.320599256216e+02 3.991395523251e+01 0.0 
3.991395523251e+01 -3.103971349026e+02 0.0 
0.0 0.0 -1.323371181573e+02 
-1.353038419809e+02 3.924133508915e+01 0.0 
3.924133508915e+01 -3.186100398516e+02 0.0 
0.0 0.0 -1.357741645498e+02 
-1.385605098563e+02 3.823771983275e+01 0.0 
3.823771983275e+01 -3.266953634593e+02 0.0 
0.0 0.0 -1.391767619947e+02 
-1.417331292148e+02 3.701721246379e+01 0.0 
3.701721246379e+01 -3.344160685699e+02 0.0 
0.0 0.0 -1.424447593354e+02 
-1.445732418555e+02 3.547073988721e+01 0.0 
3.547073988721e+01 -3.415172386059e+02 0.0 
0.0 0.0 -1.454271441384e+02 
-1.471944265589e+02 3.374523834463e+01 0.0 
3.374523834463e+01 -3.479583491625e+02 0.0 
0.0 0.0 -1.481458327164e+02 
-1.495367232356e+02 3.183210915805e+01 0.0 
3.183210915805e+01 -3.537246182444e+02 0.0 
0.0 0.0 -1.505784024440e+02 
-1.523607000999e+02 3.009432242042e+01 0.0 
3.009432242042e+01 -3.597218017358e+02 0.0 
0.0 0.0 -1.532247505507e+02 
-1.540518534738e+02 2.773535163657e+01 0.0 
2.773535163657e+01 -3.646138069945e+02 0.0 
0.0 0.0 -1.551996981405e+02 
-1.555381237047e+02 2.576393107488e+01 0.0 
2.576393107488e+01 -3.683467231379e+02 0.0 
0.0 0.0 -1.567654540528e+02 
-1.574890126875e+02 2.352670225064e+01 0.0 
2.352670225064e+01 -3.727699762975e+02 0.0 
0.0 0.0 -1.586776966955e+02 
-1.591899434124e+02 2.144806162887e+01 0.0 
2.144806162887e+01 -3.766644254685e+02 0.0 
0.0 0.0 -1.603563106643e+02 
-1.606824262629e+02 1.932377966125e+01 0.0 
1.932377966125e+01 -3.801262617926e+02 0.0 
0.0 0.0 -1.618426064166e+02 
-1.620709099199e+02 1.725688965206e+01 0.0 
1.725688965206e+01 -3.830524554260e+02 0.0 
0.0 0.0 -1.631370096038e+02 
-1.630678664916e+02 1.526048835220e+01 0.0 
1.526048835220e+01 -3.854157613802e+02 0.0 
0.0 0.0 -1.641450883615e+02 
-1.639103970011e+02 1.330816818686e+01 0.0 
1.330816818686e+01 -3.871627458747e+02 0.0 
0.0 0.0 -1.649219428627e+02 
-1.644560672821e+02 1.158046886286e+01 0.0 
1.158046886286e+01 -3.883818824347e+02 0.0 
0.0 0.0 -1.654513849150e+02 
-1.648561896685e+02 9.857287503933e+00 0.0 
9.857287503933e+00 -3.891914589936e+02 0.0 
0.0 0.0 -1.658142945986e+02 
-1.655788897961e+02 8.503175794841e+00 0.0 
8.503175794841e+00 -3.903621857879e+02 0.0 
0.0 0.0 -1.663823226752e+02 
-1.664182694490e+02 7.065116141339e+00 0.0 
7.065116141339e+00 -3.917770597871e+02 0.0 
0.0 0.0 -1.670585987708e+02 
-1.668004514189e+02 5.997190085353e+00 0.0 
5.997190085353e+00 -3.924169400869e+02 0.0 
0.0 0.0 -1.673652174518e+02 
-1.655826266294e+02 4.783606068107e+00 0.0 
4.783606068107e+00 -3.903690393813e+02 0.0 
0.0 0.0 -1.663854998032e+02 
-1.669676206293e+02 3.716060128480e+00 0.0 
3.716060128480e+00 -3.924794993017e+02 0.0 
0.0 0.0 -1.674341359793e+02 
-1.666009736162e+02 2.888699511804e+00 0.0 
2.888699511804e+00 -3.918105082722e+02 0.0 
0.0 0.0 -1.671234445665e+02 
-1.669945644103e+02 2.326054545952e+00 0.0 
2.326054545952e+00 -3.923854244336e+02 0.0 
0.0 0.0 -1.674139966532e+02 
-1.673178514633e+02 1.350105794132e+00 0.0 
1.350105794132e+00 -3.930182611505e+02 0.0 
0.0 0.0 -1.677008337841e+02 
-1.672580722578e+02 7.887173229802e-01 0.0 
7.887173229802e-01 -3.929281013575e+02 0.0 
0.0 0.0 -1.676558520846e+02 
-3.701913105492e+01 3.065398909806e-01 0.0 
3.065398909806e-01 -4.012750176584e+01 0.0 
0.0 0.0 -2.274398984623e+01 
-4.475132483225e+01 4.008884967642e-01 0.0 
4.008884967642e-01 -5.990840640838e+01 0.0 
0.0 0.0 -3.099791937219e+01 
-5.237482063669e+01 4.425702807250e-01 0.0 
4.425702807250e-01 -7.964384566960e+01 0.0 
0.0 0.0 -3.920559989188e+01 
-5.945569713302e+01 5.376923311225e-01 0.0 
5.376923311225e-01 -9.911704115089e+01 0.0 
0.0 0.0 -4.717182148517e+01 
-6.633919229591e+01 5.570870516470e-01 0.0 
5.570870516470e-01 -1.192116543125e+02 0.0 
0.0 0.0 -5.526525398253e+01 
-7.313321725563e+01 6.717022526058e-01 0.0 
6.717022526058e-01 -1.396051804602e+02 0.0 
0.0 0.0 -6.342151931476e+01 
-7.914212100452e+01 6.819013721885e-01 0.0 
6.819013721885e-01 -1.599140904820e+02 0.0 
0.0 0.0 -7.131686344596e+01 
-8.459369082675e+01 8.393565084938e-01 0.0 
8.393565084938e-01 -1.801588620448e+02 0.0 
0.0 0.0 -7.902576586146e+01 
-9.039488441379e+01 9.214420836942e-01 0.0 
9.214420836942e-01 -2.013728920141e+02 0.0 
0.0 0.0 -8.713033292836e+01 
-6.879808561720e+01 3.224393562212e+01 0.0 
3.224393562212e+01 -6.967090461532e+01 0.0 
0.0 0.0 -4.196408122566e+01 
-4.960450161083e+01 1.025610284522e+01 0.0 
1.025610284522e+01 -2.556656365665e+01 0.0 
0.0 0.0 -2.164926012916e+01 
-4.915498708109e+01 3.421027984522e+01 0.0 
3.421027984522e+01 -3.208962573970e+01 0.0 
0.0 0.0 -2.296971333260e+01 
-4.605496202757e+01 3.123735256628e+01 0.0 
3.123735256628e+01 -3.069494296739e+01 0.0 
0.0 0.0 -1.915398011353e+01 
-4.487567696065e+01 3.027036213633e+01 0.0 
3.027036213633e+01 -2.901763790480e+01 0.0 
0.0 0.0 -1.856560180000e+01 
-4.300687783675e+01 2.954624873668e+01 0.0 
2.954624873668e+01 -2.777504998269e+01 0.0 
0.0 0.0 -1.819018144903e+01 
-4.122623964273e+01 2.866671706055e+01 0.0 
2.866671706055e+01 -2.790063604939e+01 0.0 
0.0 0.0 -1.734386908228e+01 
-3.973515817806e+01 2.730072809091e+01 0.0 
2.730072809091e+01 -2.764735264489e+01 0.0 
0.0 0.0 -1.544755092758e+01 
-4.000264093828e+01 2.655893726180e+01 0.0 
2.655893726180e+01 -2.732165494196e+01 0.0 
0.0 0.0 -1.520368070860e+01 
-4.426706964449e+01 2.688889648976e+01 0.0 
2.688889648976e+01 -2.711588556025e+01 0.0 
0.0 0.0 -1.807275719339e+01 
-5.762348966764e+01 1.995660921604e+01 0.0 
1.995660921604e+01 -2.302722833229e+01 0.0 
0.0 0.0 -2.235882628673e+01 
-2.389492416094e+01 5.244695276404e-01 0.0 
5.244695276404e-01 -7.080362543617e+00 0.0 
0.0 0.0 -8.892586011367e+00 
-2.790264610101e+01 -1.353233246758e-01 0.0 
-1.353233246758e-01 -1.759627252609e+01 0.0 
0.0 0.0 -1.324967558813e+01 
-2.834534700186e+01 9.011650217275e-02 0.0 
9.011650217275e-02 -1.872870347563e+01 0.0 
0.0 0.0 -1.372221514325e+01 
-2.833223519222e+01 5.310223923696e-02 0.0 
5.310223923696e-02 -1.877979037772e+01 0.0 
0.0 0.0 -1.373360767098e+01 
-2.839278853642e+01 8.349636720220e-02 0.0 
8.349636720220e-02 -1.855761359478e+01 0.0 
0.0 0.0 -1.368512063936e+01 
-2.983978563983e+01 8.372067180866e-02 0.0 
8.372067180866e-02 -2.121748708818e+01 0.0 
0.0 0.0 -1.491718181840e+01 
-2.895317553266e+01 2.877996833924e-02 0.0 
2.877996833924e-02 -1.887333490339e+01 0.0 
0.0 0.0 -1.394795313081e+01 
-2.930545190929e+01 1.075204884362e-01 0.0 
1.075204884362e-01 -1.870909692289e+01 0.0 
0.0 0.0 -1.400436464965e+01 
-2.966709994599e+01 9.086797044336e-02 0.0 
9.086797044336e-02 -1.891832188745e+01 0.0 
0.0 0.0 -1.417562655003e+01 
-3.042180187000e+01 2.693339314338e-01 0.0 
2.693339314338e-01 -1.941625809586e+01 0.0 
0.0 0.0 -1.455141798976e+01 
-3.120234991128e+01 4.390901377067e-01 0.0 
4.390901377067e-01 -1.940827955344e+01 0.0 
0.0 0.0 -1.478318883942e+01 
-3.247129555778e+01 9.079700446777e-01 0.0 
9.079700446777e-01 -1.949347165047e+01 0.0 
0.0 0.0 -1.518943016247e+01 
-3.427774502411e+01 1.653531689341e+00 0.0 
1.653531689341e+00 -1.972529543561e+01 0.0 
0.0 0.0 -1.577800705062e+01 
-3.721838700612e+01 2.923258833647e+00 0.0 
2.923258833647e+00 -2.041783431103e+01 0.0 
0.0 0.0 -1.679294548687e+01 
-4.145743848400e+01 5.262586359028e+00 0.0 
5.262586359028e+00 -2.179110432735e+01 0.0 
0.0 0.0 -1.835297509142e+01 
-9.491327765593e+01 1.581226236227e+01 0.0 
1.581226236227e+01 -9.618985618763e+01 0.0 
0.0 0.0 -5.769207316964e+01 
-1.128615125146e+02 3.564234180336e+00 0.0 
3.564234180336e+00 -1.041567135920e+02 0.0 
0.0 0.0 -6.547254262049e+01 
-1.196100994423e+02 -2.193619904097e+00 0.0 
-2.193619904097e+00 -1.038385415203e+02 0.0 
0.0 0.0 -6.736876263759e+01 
-1.088634776338e+02 -1.032744019523e+01 0.0 
-1.032744019523e+01 -9.500812418196e+01 0.0 
0.0 0.0 -6.149509810953e+01 
-7.274212078593e+01 -2.147635753120e+01 0.0 
-2.147635753120e+01 -5.664137268246e+01 0.0 
0.0 0.0 -3.919393828395e+01 
-3.966132975067e+01 -1.529904095055e+01 0.0 
-1.529904095055e+01 -1.985169982726e+01 0.0 
0.0 0.0 -1.757976793286e+01 
-2.241658695928e+01 -4.160882729460e+00 0.0 
-4.160882729460e+00 -1.082698515798e+01 0.0 
0.0 0.0 -9.404890310752e+00 
-1.578962225717e+01 -1.037015016534e+00 0.0 
-1.037015016534e+00 -9.233057937670e+00 0.0 
0.0 0.0 -6.880223758014e+00 
-1.284737542889e+01 -3.317751663925e-03 0.0 
-3.317751663925e-03 -8.564948702384e+00 0.0 
0.0 0.0 -6.052999190972e+00 
-1.177849307351e+01 3.255533877912e-01 0.0 
3.255533877912e-01 -7.908376475608e+00 0.0 
0.0 0.0 -5.473766617516e+00 
-1.103068376282e+01 1.266299213029e-01 0.0 
1.266299213029e-01 -7.980076702566e+00 0.0 
0.0 0.0 -5.049207900311e+00 
-1.082859219386e+01 -1.579454235704e-01 0.0 
-1.579454235704e-01 -8.751411217160e+00 0.0 
0.0 0.0 -5.012207031019e+00 
-1.029325113721e+01 -2.945126342421e-01 0.0 
-2.945126342421e-01 -8.551560777275e+00 0.0 
0.0 0.0 -4.332400099101e+00 
-9.551972503588e+00 -2.031370851657e-01 0.0 
-2.031370851657e-01 -7.883592960596e+00 0.0 
0.0 0.0 -3.916403125358e+00 
-8.848442917376e+00 -1.461067483378e-01 0.0 
-1.461067483378e-01 -7.954524405968e+00 0.0 
0.0 0.0 -3.717255777941e+00 
-8.487535238820e+00 -1.065354731251e-01 0.0 
-1.065354731251e-01 -8.217682662908e+00 0.0 
0.0 0.0 -3.669111840933e+00 
-8.226385911170e+00 -2.588989998781e-02 0.0 
-2.588989998781e-02 -8.264490967294e+00 0.0 
0.0 0.0 -3.578607912560e+00 
-8.134852485704e+00 -5.126556523362e-02 0.0 
-5.126556523362e-02 -7.804343188750e+00 0.0 
0.0 0.0 -3.452526711256e+00 
-8.388616391373e+00 -1.382399302578e-01 0.0 
-1.382399302578e-01 -7.132479126378e+00 0.0 
0.0 0.0 -3.409046409802e+00 
-4.479317872452e+01 6.564761597084e+00 0.0 
6.564761597084e+00 -5.834098927552e+00 0.0 
0.0 0.0 -1.371738841734e+01 
-3.554914560775e+01 3.915841798233e+00 0.0 
3.915841798233e+00 -1.066056424756e+01 0.0 
0.0 0.0 -1.298462880071e+01 
-3.045151768148e+01 1.904994716430e+00 0.0 
1.904994716430e+00 -1.056950285770e+01 0.0 
0.0 0.0 -1.175627451979e+01 
-2.742660815227e+01 8.542852471269e-01 0.0 
8.542852471269e-01 -1.002742908699e+01 0.0 
0.0 0.0 -1.079040099719e+01 
-2.580985712693e+01 4.157932781503e-01 0.0 
4.157932781503e-01 -9.884850970348e+00 0.0 
0.0 0.0 -1.030841242918e+01 
-2.502125396478e+01 1.310250142425e-01 0.0 
1.310250142425e-01 -9.874003086434e+00 0.0 
0.0 0.0 -1.006857711536e+01 
-2.468001390331e+01 -3.119613442300e-02 0.0 
-3.119613442300e-02 -9.809037303415e+00 0.0 
0.0 0.0 -9.946715362018e+00 
-2.452491821285e+01 -4.202919877633e-03 0.0 
-4.202919877633e-03 -9.790789079398e+00 0.0 
0.0 0.0 -9.894712187675e+00 
-2.458563016751e+01 -5.418927934298e-02 0.0 
-5.418927934298e-02 -9.857066097438e+00 0.0 
0.0 0.0 -9.932808879484e+00 
-2.451092964584e+01 -5.270377014326e-02 0.0 
-5.270377014326e-02 -9.860783240175e+00 0.0 
0.0 0.0 -9.911513865805e+00 
-2.451808800534e+01 -6.131952999741e-02 0.0 
-6.131952999741e-02 -9.854938106000e+00 0.0 
0.0 0.0 -9.911907833403e+00 
-2.453875182476e+01 1.933053017892e-02 0.0 
1.933053017892e-02 -9.866099020008e+00 0.0 
0.0 0.0 -9.921455253431e+00 
-2.444622094116e+01 8.615469654892e-03 0.0 
8.615469654892e-03 -9.884964804536e+00 0.0 
0.0 0.0 -9.899355723710e+00 
-2.434373509475e+01 1.201920088174e-01 0.0 
1.201920088174e-01 -9.730715243307e+00 0.0 
0.0 0.0 -9.822335101416e+00 
-2.425053895783e+01 3.614002086757e-01 0.0 
3.614002086757e-01 -9.237498336289e+00 0.0 
0.0 0.0 -9.646411188237e+00 
-2.393521388646e+01 -3.297037228625e-01 0.0 
-3.297037228625e-01 -7.044949765251e+00 0.0 
0.0 0.0 -8.894049095513e+00 
-5.161796075690e+01 3.789271524732e+01 0.0 
3.789271524732e+01 -4.013660726734e+01 0.0 
0.0 0.0 -2.811477838870e+01 
-4.711213075651e+01 3.264565599429e+01 0.0 
3.264565599429e+01 -3.170325071226e+01 0.0 
0.0 0.0 -2.039257521659e+01 
-4.525365438516e+01 3.053120745278e+01 0.0 
3.053120745278e+01 -2.950495920499e+01 0.0 
0.0 0.0 -1.857546042363e+01 
-4.433319614304e+01 2.999430956025e+01 0.0 
2.999430956025e+01 -2.876431570968e+01 0.0 
0.0 0.0 -1.868494149323e+01 
-4.305457950996e+01 2.983762484453e+01 0.0 
2.983762484453e+01 -2.819112506551e+01 0.0 
0.0 0.0 -1.825676353973e+01 
-4.053760814124e+01 2.844291946373e+01 0.0 
2.844291946373e+01 -2.790110230297e+01 0.0 
0.0 0.0 -1.639044718019e+01 
-3.949313071711e+01 2.674379444767e+01 0.0 
2.674379444767e+01 -2.760821596073e+01 0.0 
0.0 0.0 -1.462658096084e+01 
-4.103957738969e+01 2.646586320192e+01 0.0 
2.646586320192e+01 -2.713161972445e+01 0.0 
0.0 0.0 -1.636072521229e+01 
-5.228693758999e+01 2.710676971173e+01 0.0 
2.710676971173e+01 -2.734667625967e+01 0.0 
0.0 0.0 -2.126711694896e+01 
-5.288498292979e+01 1.270039798446e+01 0.0 
1.270039798446e+01 -1.830486816813e+01 0.0 
0.0 0.0 -1.992307728372e+01 
-4.712784372880e+01 3.298811114408e+01 0.0 
3.298811114408e+01 -4.187987491091e+01 0.0 
0.0 0.0 -2.306110049086e+01 
-1.517408775999e+02 2.196600950063e+01 0.0 
2.196600950063e+01 -3.669938227986e+02 0.0 
0.0 0.0 -1.552204101195e+02 
-1.522913548698e+01 -1.323838310006e+00 0.0 
-1.323838310006e+00 -1.722134951298e+01 0.0 
0.0 0.0 -8.853875227369e+00 
-6.583567722413e+01 -2.136340317052e+01 0.0 
-2.136340317052e+01 -8.558717383276e+01 0.0 
0.0 0.0 -4.624790181359e+01 
-1.580598823965e+02 1.203843345860e+01 0.0 
1.203843345860e+01 -3.799080744951e+02 0.0 
0.0 0.0 -1.609903870675e+02 
-4.440285895978e+01 3.028323762540e+01 0.0 
3.028323762540e+01 -3.783321547034e+01 0.0 
0.0 0.0 -2.147539765509e+01 
-9.732905455966e+01 -8.076946273447e-01 0.0 
-8.076946273447e-01 -2.156324440838e+02 0.0 
0.0 0.0 -8.903550102967e+01 
-1.437202274253e+02 2.996105997725e+01 0.0 
2.996105997725e+01 -3.478816439865e+02 0.0 
0.0 0.0 -1.470805614235e+02 
-4.237145420250e+01 2.915675288883e+01 0.0 
2.915675288883e+01 -3.784963553971e+01 0.0 
0.0 0.0 -1.968698917704e+01 
-1.347642559347e+02 3.679647366181e+01 0.0 
3.679647366181e+01 -3.227676248688e+02 0.0 
0.0 0.0 -1.368595642411e+02 
-4.680857958693e+01 2.850260350162e+01 0.0 
2.850260350162e+01 -3.788060177217e+01 0.0 
0.0 0.0 -2.158471822187e+01 
-1.616596463274e+02 6.213122521512e+00 0.0 
6.213122521512e+00 -3.846206694684e+02 0.0 
0.0 0.0 -1.634840947387e+02 
-9.970011815261e+00 -4.648126162807e-01 0.0 
-4.648126162807e-01 -1.623970360449e+01 0.0 
0.0 0.0 -6.101560273589e+00 
-1.237572197964e+02 3.938115770418e+01 0.0 
3.938115770418e+01 -2.895004803821e+02 0.0 
0.0 0.0 -1.235773100535e+02 
-5.791638942765e+01 1.787724347488e+01 0.0 
1.787724347488e+01 -4.370061138516e+01 0.0 
0.0 0.0 -2.949654078381e+01 
-6.033554510871e+01 -1.083697826000e+00 0.0 
-1.083697826000e+00 -1.324744327118e+02 0.0 
0.0 0.0 -5.331759375832e+01 
-1.147906467075e+02 -3.462397653606e-01 0.0 
-3.462397653606e-01 -2.710446695934e+02 0.0 
0.0 0.0 -1.129315879412e+02 
-1.155540548342e+02 3.716041756257e+01 0.0 
3.716041756257e+01 -2.628147255952e+02 0.0 
0.0 0.0 -1.131106341288e+02 
-1.052813345074e+02 2.907043141112e+01 0.0 
2.907043141112e+01 -2.340233416181e+02 0.0 
0.0 0.0 -1.013914028376e+02 
-9.251985617728e+01 8.538848593241e+00 0.0 
8.538848593241e+00 -2.073253871264e+02 0.0 
0.0 0.0 -8.955357299111e+01 
-9.507950794388e+01 1.438741504576e+01 0.0 
1.438741504576e+01 -2.096468518515e+02 0.0 
0.0 0.0 -9.101790793862e+01 
-9.960629622433e+01 2.177863232939e+01 0.0 
2.177863232939e+01 -2.203216994677e+02 0.0 
0.0 0.0 -9.557839870762e+01 
-5.061477174381e+01 7.689581369153e+00 0.0 
7.689581369153e+00 -4.135973717746e+01 0.0 
0.0 0.0 -2.718206945575e+01 
-4.068913625958e+01 1.504989406705e+00 0.0 
1.504989406705e+00 -3.755113462416e+01 0.0 
0.0 0.0 -2.307208126512e+01 
-3.840965566955e+01 7.317087283590e-01 0.0 
7.317087283590e-01 -3.848555516436e+01 0.0 
0.0 0.0 -2.266856325017e+01 
-6.307788293901e+01 6.585705184338e-01 0.0 
6.585705184338e-01 -1.092387755391e+02 0.0 
0.0 0.0 -5.129499754344e+01 
-1.619880054632e+02 3.349954150389e+00 0.0 
3.349954150389e+00 -3.841715125150e+02 0.0 
0.0 0.0 -1.634478553935e+02 
-7.676878798734e+01 1.239023174530e+01 0.0 
1.239023174530e+01 -1.056687642282e+02 0.0 
0.0 0.0 -5.555079430178e+01 
-8.399337516886e+00 -2.377730175583e-01 0.0 
-2.377730175583e-01 -1.728118815407e+01 0.0 
0.0 0.0 -5.612250776673e+00 
-1.358302793177e+02 3.616449340284e-01 0.0 
3.616449340284e-01 -3.326736525402e+02 0.0 
0.0 0.0 -1.401511795574e+02 
-3.573530571481e+01 1.579030784940e-01 0.0 
1.579030784940e-01 -3.607811295647e+01 0.0 
0.0 0.0 -2.114402560138e+01 
-1.885309277188e+01 -6.684416843988e-01 0.0 
-6.684416843988e-01 -6.909604189251e+01 0.0 
0.0 0.0 -2.522198874572e+01 
-1.091313635549e+02 3.317934425267e+01 0.0 
3.317934425267e+01 -2.433978732118e+02 0.0 
0.0 0.0 -1.053587710300e+02 
-1.402043547079e+02 3.386090686811e+01 0.0 
3.386090686811e+01 -3.374365305876e+02 0.0 
0.0 0.0 -1.428922655886e+02 
-1.293543821228e+02 3.881271756144e+01 0.0 
3.881271756144e+01 -3.066837910894e+02 0.0 
0.0 0.0 -1.304114519637e+02 
-1.468425308792e+02 2.621558488140e+01 0.0 
2.621558488140e+01 -3.566079861711e+02 0.0 
0.0 0.0 -1.506351551151e+02 
-1.551788940747e+02 1.788296494967e+01 0.0 
1.788296494967e+01 -3.741380719465e+02 0.0 
0.0 0.0 -1.583950898064e+02 
-3.463047497244e+01 -1.344486836683e+01 0.0 
-1.344486836683e+01 -2.555338270257e+01 0.0 
0.0 0.0 -1.591830365027e+01 
-4.407791901966e+01 3.277647603979e+00 0.0 
3.277647603979e+00 -3.779681807916e+01 0.0 
0.0 0.0 -2.416242112965e+01 
-1.580054923071e+02 8.680950624660e+00 0.0 
8.680950624660e+00 -3.794964754048e+02 0.0 
0.0 0.0 -1.608505903135e+02 
-7.595536167202e+01 9.864043128823e-01 0.0 
9.864043128823e-01 -1.492653676618e+02 0.0 
0.0 0.0 -6.716621880014e+01 
-1.148238297082e+01 -4.409744406794e-01 0.0 
-4.409744406794e-01 -1.681129105118e+01 0.0 
0.0 0.0 -7.601361692954e+00 
-8.075765990487e+01 -1.054224729306e+00 0.0 
-1.054224729306e+00 -1.731518149245e+02 0.0 
0.0 0.0 -7.086411083059e+01 
-9.229401779705e+01 5.244617003963e+00 0.0 
5.244617003963e+00 -2.091529516015e+02 0.0 
0.0 0.0 -9.003409081958e+01 
-4.333691661268e+01 2.996081605898e+01 0.0 
2.996081605898e+01 -4.001039335692e+01 0.0 
0.0 0.0 -2.153997874197e+01 
-4.560046616558e+01 3.110977752232e+01 0.0 
3.110977752232e+01 -3.909257815831e+01 0.0 
0.0 0.0 -2.162739211720e+01 
-4.340394955672e+01 2.849535866798e+01 0.0 
2.849535866798e+01 -3.854753819784e+01 0.0 
0.0 0.0 -1.899749024453e+01 
-5.688601327109e+01 2.624860429888e+01 0.0 
2.624860429888e+01 -3.818881122457e+01 0.0 
0.0 0.0 -2.621366498172e+01 
-5.062905258706e+01 3.777516867996e+01 0.0 
3.777516867996e+01 -4.826889359385e+01 0.0 
0.0 0.0 -2.944540071777e+01 
-4.935964539413e+01 2.620321863118e-01 0.0 
2.620321863118e-01 -7.131261947397e+01 0.0 
0.0 0.0 -3.580167946043e+01 
-1.639127374449e+02 1.798359464670e+00 0.0 
1.798359464670e+00 -3.873475061328e+02 0.0 
0.0 0.0 -1.649780730733e+02 
-7.917743500023e+00 -1.393000351937e-01 0.0 
-1.393000351937e-01 -1.638899284461e+01 0.0 
0.0 0.0 -5.245021316461e+00 
-8.707196510787e+01 1.276033720624e+00 0.0 
1.276033720624e+00 -1.895074987436e+02 0.0 
0.0 0.0 -8.257383915544e+01 
-5.907031811814e+01 1.569568967509e+01 0.0 
1.569568967509e+01 -4.950907162801e+01 0.0 
0.0 0.0 -3.198906481391e+01 
-6.328192675855e+01 2.068895519654e+01 0.0 
2.068895519654e+01 -6.571506739873e+01 0.0 
0.0 0.0 -3.811179530870e+01 
-6.485806289870e+01 1.744936821328e+01 0.0 
1.744936821328e+01 -6.996186149428e+01 0.0 
0.0 0.0 -4.004582475392e+01 
-6.979750141605e+01 2.282739963400e+01 0.0 
2.282739963400e+01 -8.909480338286e+01 0.0 
0.0 0.0 -4.726769143967e+01 
-7.227946571271e+01 2.031638085523e+01 0.0 
2.031638085523e+01 -9.469289777390e+01 0.0 
0.0 0.0 -4.969170904598e+01 
-7.629292011604e+01 2.419067734959e+01 0.0 
2.419067734959e+01 -1.117266798957e+02 0.0 
0.0 0.0 -5.600588000353e+01 
-7.357451709724e+01 2.640427099219e+01 0.0 
2.640427099219e+01 -1.072716929251e+02 0.0 
0.0 0.0 -5.385386300669e+01 
-7.991854723798e+01 2.726086936251e+01 0.0 
2.726086936251e+01 -1.293395051299e+02 0.0 
0.0 0.0 -6.237741571035e+01 
-7.676344138047e+01 2.908251912827e+01 0.0 
2.908251912827e+01 -1.255974225078e+02 0.0 
0.0 0.0 -6.030825916649e+01 
-7.921059591418e+01 2.216322616241e+01 0.0 
2.216322616241e+01 -1.177419996842e+02 0.0 
0.0 0.0 -5.868577867952e+01 
-8.315569143318e+01 2.961734858274e+01 0.0 
2.961734858274e+01 -1.471708605122e+02 0.0 
0.0 0.0 -6.869796558363e+01 
-7.976080607308e+01 3.103241402350e+01 0.0 
3.103241402350e+01 -1.439221233522e+02 0.0 
0.0 0.0 -6.670487882757e+01 
-8.626104986554e+01 3.137657003077e+01 0.0 
3.137657003077e+01 -1.650808290674e+02 0.0 
0.0 0.0 -7.500256367989e+01 
-8.270733733025e+01 3.242553238127e+01 0.0 
3.242553238127e+01 -1.621562129615e+02 0.0 
0.0 0.0 -7.305906508754e+01 
-7.647526355958e+01 3.224875879715e+01 0.0 
3.224875879715e+01 -1.415428983673e+02 0.0 
0.0 0.0 -6.483166778535e+01 
-7.914487563317e+01 3.327051177976e+01 0.0 
3.327051177976e+01 -1.599529061929e+02 0.0 
0.0 0.0 -7.122837933770e+01 
-7.368535350994e+01 3.305003274817e+01 0.0 
3.305003274817e+01 -1.398232896155e+02 0.0 
0.0 0.0 -6.299395717176e+01 
-7.607605415472e+01 3.374615421172e+01 0.0 
3.374615421172e+01 -1.583339959992e+02 0.0 
0.0 0.0 -6.941212456449e+01 
-8.192846859436e+01 3.376899157505e+01 0.0 
3.376899157505e+01 -1.780121493288e+02 0.0 
0.0 0.0 -7.754210914037e+01 
-7.848603920662e+01 3.392421037561e+01 0.0 
3.392421037561e+01 -1.764004925253e+02 0.0 
0.0 0.0 -7.572841975161e+01 
-7.333289441042e+01 3.380468585017e+01 0.0 
3.380468585017e+01 -1.571137933214e+02 0.0 
0.0 0.0 -6.753360661808e+01 
-7.549016236768e+01 3.366942946546e+01 0.0 
3.366942946546e+01 -1.750598205568e+02 0.0 
0.0 0.0 -7.385935340999e+01 
-7.079894385113e+01 3.361694266242e+01 0.0 
3.361694266242e+01 -1.561642112955e+02 0.0 
0.0 0.0 -6.561441833733e+01 
-7.281351437538e+01 3.312044903731e+01 0.0 
3.312044903731e+01 -1.738774427127e+02 0.0 
0.0 0.0 -7.191139863954e+01 
-6.818614408695e+01 3.319830478726e+01 0.0 
3.319830478726e+01 -1.552951855338e+02 0.0 
0.0 0.0 -6.385259182114e+01 
-7.019534887157e+01 3.242695270212e+01 0.0 
3.242695270212e+01 -1.726983583004e+02 0.0 
0.0 0.0 -7.036396829441e+01 
-7.485174971937e+01 3.227559230453e+01 0.0 
3.227559230453e+01 -1.909174226689e+02 0.0 
0.0 0.0 -7.811395986802e+01 
-7.204937924505e+01 3.127842872136e+01 0.0 
3.127842872136e+01 -1.893132306033e+02 0.0 
0.0 0.0 -7.671773176743e+01 
-6.732493018770e+01 3.167395042810e+01 0.0 
3.167395042810e+01 -1.713628256444e+02 0.0 
0.0 0.0 -6.939073513014e+01 
-6.913910436010e+01 3.025150467298e+01 0.0 
3.025150467298e+01 -1.874953565487e+02 0.0 
0.0 0.0 -7.574961704890e+01 
-6.418088966678e+01 3.086886884548e+01 0.0 
3.086886884548e+01 -1.698187547894e+02 0.0 
0.0 0.0 -6.881006024407e+01 
-6.568770901988e+01 2.920687592871e+01 0.0 
2.920687592871e+01 -1.853318018724e+02 0.0 
0.0 0.0 -7.500302138689e+01 
-7.083572609939e+01 2.849285296590e+01 0.0 
2.849285296590e+01 -2.025999343303e+02 0.0 
0.0 0.0 -8.186037418168e+01 
-6.740407418269e+01 2.718955228992e+01 0.0 
2.718955228992e+01 -1.995191311413e+02 0.0 
0.0 0.0 -8.090072257129e+01 
-6.219198705898e+01 2.786865350929e+01 0.0 
2.786865350929e+01 -1.823283722165e+02 0.0 
0.0 0.0 -7.380670657102e+01 
-6.408346785022e+01 2.556117266748e+01 0.0 
2.556117266748e+01 -1.960387573131e+02 0.0 
0.0 0.0 -7.953991905019e+01 
-5.900869546585e+01 2.624617004940e+01 0.0 
2.624617004940e+01 -1.794230155692e+02 0.0 
0.0 0.0 -7.217200616579e+01 
-6.087160724530e+01 2.346987188224e+01 0.0 
2.346987188224e+01 -1.929634775806e+02 0.0 
0.0 0.0 -7.753188978551e+01 
-5.611163123280e+01 2.391419941954e+01 0.0 
2.391419941954e+01 -1.769825456075e+02 0.0 
0.0 0.0 -6.960673262410e+01 
-5.806428496535e+01 2.060597032677e+01 0.0 
2.060597032677e+01 -1.901173828215e+02 0.0 
0.0 0.0 -7.464686155378e+01 
-6.301816570571e+01 2.041874682772e+01 0.0 
2.041874682772e+01 -2.056357593362e+02 0.0 
0.0 0.0 -8.287625416859e+01 
-6.039484963403e+01 1.718370842795e+01 0.0 
1.718370842795e+01 -2.022414975889e+02 0.0 
0.0 0.0 -7.986081185307e+01 
-5.563920745561e+01 1.710021314877e+01 0.0 
1.710021314877e+01 -1.870771797810e+02 0.0 
0.0 0.0 -7.172985861290e+01 
-5.820499760476e+01 1.329395812730e+01 0.0 
1.329395812730e+01 -1.983137304461e+02 0.0 
0.0 0.0 -7.669376467451e+01 
-6.312263097146e+01 1.381517021195e+01 0.0 
1.381517021195e+01 -2.133422171200e+02 0.0 
0.0 0.0 -8.520711949751e+01 
-6.119969000844e+01 9.686727318164e+00 0.0 
9.686727318164e+00 -2.083896228358e+02 0.0 
0.0 0.0 -8.187441446414e+01 
-6.633658548444e+01 1.063231635108e+01 0.0 
1.063231635108e+01 -2.234157008204e+02 0.0 
0.0 0.0 -9.052633002199e+01 
-6.467322261037e+01 6.418986895797e+00 0.0 
6.418986895797e+00 -2.175877660380e+02 0.0 
0.0 0.0 -8.725216049827e+01 
-5.972403595388e+01 5.121792477843e+00 0.0 
5.121792477843e+00 -2.028030670885e+02 0.0 
0.0 0.0 -7.879439453981e+01 
-6.345749693331e+01 1.948054582445e+00 0.0 
1.948054582445e+00 -2.108502428050e+02 0.0 
0.0 0.0 -8.399873956199e+01 
-6.875591764338e+01 3.803175705179e+00 0.0 
3.803175705179e+00 -2.259655604977e+02 0.0 
0.0 0.0 -9.225547747731e+01 
-6.781734450075e+01 -4.537515908924e-01 0.0 
-4.537515908924e-01 -2.185100359268e+02 0.0 
0.0 0.0 -8.886502790548e+01 
-6.255887084287e+01 -2.614195591738e+00 0.0 
-2.614195591738e+00 -2.031631456792e+02 0.0 
0.0 0.0 -8.077871640061e+01 
-6.708638015071e+01 -4.591249467060e+00 0.0 
-4.591249467060e+00 -2.102183170985e+02 0.0 
0.0 0.0 -8.524012880200e+01 
-7.296407728659e+01 -1.843634097034e+00 0.0 
-1.843634097034e+00 -2.270031737468e+02 0.0 
0.0 0.0 -9.307388378258e+01 
-7.231491654425e+01 -5.514235945411e+00 0.0 
-5.514235945411e+00 -2.179436970058e+02 0.0 
0.0 0.0 -8.908636849744e+01 
-6.630260710516e+01 -8.505519631217e+00 0.0 
-8.505519631217e+00 -2.010247409746e+02 0.0 
0.0 0.0 -8.135242243629e+01 
-7.168452044069e+01 -8.639447134721e+00 0.0 
-8.639447134721e+00 -2.076800042843e+02 0.0 
0.0 0.0 -8.469545286470e+01 
-7.856293350408e+01 -5.072407948866e+00 0.0 
-5.072407948866e+00 -2.255471136700e+02 0.0 
0.0 0.0 -9.276865571392e+01 
-7.783132342052e+01 -7.610000351732e+00 0.0 
-7.610000351732e+00 -2.148479099510e+02 0.0 
0.0 0.0 -8.815273585985e+01 
-7.103192569493e+01 -1.099620211569e+01 0.0 
-1.099620211569e+01 -1.962332711914e+02 0.0 
0.0 0.0 -7.999915303964e+01 
-7.680397838146e+01 -9.525334846123e+00 0.0 
-9.525334846123e+00 -2.034468145885e+02 0.0 
0.0 0.0 -8.326235967128e+01 
-8.374468604482e+01 -6.364025441472e+00 0.0 
-6.364025441472e+00 -2.225880596012e+02 0.0 
0.0 0.0 -9.141619518855e+01 
-8.239701591595e+01 -7.961391687645e+00 0.0 
-7.961391687645e+00 -2.110667232776e+02 0.0 
0.0 0.0 -8.639072587826e+01 
-8.918203755122e+01 -5.191864510876e+00 0.0 
-5.191864510876e+00 -2.303854995183e+02 0.0 
0.0 0.0 -9.429153823286e+01 
-7.530603865408e+01 -1.080112818430e+01 0.0 
-1.080112818430e+01 -1.913676686572e+02 0.0 
0.0 0.0 -7.811646999135e+01 
-8.058585371462e+01 -8.991832105619e+00 0.0 
-8.991832105619e+00 -1.990233132785e+02 0.0 
0.0 0.0 -8.115743060669e+01 
-7.318736817691e+01 -1.137472581397e+01 0.0 
-1.137472581397e+01 -1.788083362044e+02 0.0 
0.0 0.0 -7.273707398848e+01 
-7.822677888269e+01 -9.455131175065e+00 0.0 
-9.455131175065e+00 -1.866553151740e+02 0.0 
0.0 0.0 -7.578403750057e+01 
-7.277474254869e+01 2.664235658470e+01 0.0 
2.664235658470e+01 -2.166486663387e+02 0.0 
0.0 0.0 -8.769413936655e+01 
-7.034719531050e+01 -1.133098132415e+01 0.0 
-1.133098132415e+01 -1.660812816279e+02 0.0 
0.0 0.0 -6.726457628533e+01 
-6.562561530938e+01 -1.346434704975e+01 0.0 
-1.346434704975e+01 -1.584547376792e+02 0.0 
0.0 0.0 -6.432697952017e+01 
-7.520341657348e+01 -9.381723561092e+00 0.0 
-9.381723561092e+00 -1.741856817386e+02 0.0 
0.0 0.0 -7.032334603423e+01 
-8.305581102546e+01 -7.753009402549e+00 0.0 
-7.753009402549e+00 -1.947506073357e+02 0.0 
0.0 0.0 -7.872738884931e+01 
-6.670225630728e+01 -1.077009059490e+01 0.0 
-1.077009059490e+01 -1.533302308465e+02 0.0 
0.0 0.0 -6.171018015496e+01 
-7.143502880885e+01 -8.894976532358e+00 0.0 
-8.894976532358e+00 -1.616940955976e+02 0.0 
0.0 0.0 -6.479831448182e+01 
-6.221787444288e+01 -9.804159312090e+00 0.0 
-9.804159312090e+00 -1.406676667400e+02 0.0 
0.0 0.0 -5.606878154359e+01 
-5.434769076102e+01 2.686577984619e+01 0.0 
2.686577984619e+01 -1.625069137934e+02 0.0 
0.0 0.0 -6.443441829549e+01 
-8.492585610861e+01 3.383582507923e+01 0.0 
3.383582507923e+01 -1.956625190377e+02 0.0 
0.0 0.0 -8.377506350668e+01 
-6.687671272550e+01 -8.082009620753e+00 0.0 
-8.082009620753e+00 -1.492280952293e+02 0.0 
0.0 0.0 -5.921756176750e+01 
-5.686696748789e+01 -8.541896932578e+00 0.0 
-8.541896932578e+00 -1.281250281301e+02 0.0 
0.0 0.0 -5.038392785720e+01 
-5.256666220465e+01 -1.005645599508e+01 0.0 
-1.005645599508e+01 -1.194586891949e+02 0.0 
0.0 0.0 -4.720032509577e+01 
-4.625329596650e+01 -8.330373832946e+00 0.0 
-8.330373832946e+00 -1.069858889091e+02 0.0 
0.0 0.0 -4.143368325611e+01 
-7.514552620651e+01 1.855787538195e+01 0.0 
1.855787538195e+01 -1.021976000005e+02 0.0 
0.0 0.0 -5.280293786210e+01 
-8.136417831779e+01 2.030939517039e+01 0.0 
2.030939517039e+01 -1.246412009044e+02 0.0 
0.0 0.0 -6.140161376665e+01 
-7.666819352898e+01 1.664191572861e+01 0.0 
1.664191572861e+01 -1.091504127704e+02 0.0 
0.0 0.0 -5.534558188983e+01 
-8.324909159597e+01 1.883001929430e+01 0.0 
1.883001929430e+01 -1.320640709702e+02 0.0 
0.0 0.0 -6.419394876985e+01 
-7.870197252973e+01 1.537174711592e+01 0.0 
1.537174711592e+01 -1.179949127335e+02 0.0 
0.0 0.0 -5.860906557896e+01 
-5.059404935165e+01 -7.053438960651e+00 0.0 
-7.053438960651e+00 -1.157381581080e+02 0.0 
0.0 0.0 -4.468682046288e+01 
-8.953720272904e+01 3.022530480460e+01 0.0 
3.022530480460e+01 -1.689214710217e+02 0.0 
0.0 0.0 -7.713760212523e+01 
-8.742166656487e+01 2.211162377734e+01 0.0 
2.211162377734e+01 -1.470673442222e+02 0.0 
0.0 0.0 -6.994670323611e+01 
-6.861526090910e+01 3.368192869272e+01 0.0 
3.368192869272e+01 -1.377650997932e+02 0.0 
0.0 0.0 -5.919298717546e+01 
-6.236423690298e+01 3.212224095280e+01 0.0 
3.212224095280e+01 -1.532019706931e+02 0.0 
0.0 0.0 -6.224874731017e+01 
-6.867893487029e+01 1.432773904646e+01 0.0 
1.432773904646e+01 -2.287740140381e+02 0.0 
0.0 0.0 -9.367466635587e+01 
-7.607539806931e+01 -7.264489640182e+00 0.0 
-7.264489640182e+00 -1.700631299684e+02 0.0 
0.0 0.0 -6.786294033081e+01 
-7.150863411652e+01 -6.568347913067e+00 0.0 
-6.568347913067e+00 -1.577936714559e+02 0.0 
0.0 0.0 -6.237283679396e+01 
-8.050150855893e+01 -5.842720966111e+00 0.0 
-5.842720966111e+00 -1.784943693030e+02 0.0 
0.0 0.0 -7.127461496301e+01 
-9.030570799474e+01 -3.309944469439e+00 0.0 
-3.309944469439e+00 -2.414848070163e+02 0.0 
0.0 0.0 -9.912492696752e+01 
-9.523149243213e+01 -2.576051752244e+00 0.0 
-2.576051752244e+00 -2.493687707501e+02 0.0 
0.0 0.0 -1.017466981370e+02 
-9.595768160150e+01 -4.655475807064e-01 0.0 
-4.655475807064e-01 -2.600744027931e+02 0.0 
0.0 0.0 -1.062859162384e+02 
-1.006280400192e+02 -7.922148948001e-02 0.0 
-7.922148948001e-02 -2.680806373251e+02 0.0 
0.0 0.0 -1.092767302918e+02 
-1.016924492946e+02 2.106876330575e+00 0.0 
2.106876330575e+00 -2.784532482017e+02 0.0 
0.0 0.0 -1.135441740130e+02 
-1.066712063954e+02 2.235541968642e+00 0.0 
2.235541968642e+00 -2.865981198208e+02 0.0 
0.0 0.0 -1.172127783716e+02 
-1.051434054689e+02 3.135229741597e-01 0.0 
3.135229741597e-01 -2.760576175957e+02 0.0 
0.0 0.0 -1.128170277825e+02 
-1.116048877517e+02 2.362984510605e+00 0.0 
2.362984510605e+00 -2.947110576684e+02 0.0 
0.0 0.0 -1.212444521727e+02 
-1.095793454987e+02 6.841658306824e-01 0.0 
6.841658306824e-01 -2.840458770314e+02 0.0 
0.0 0.0 -1.167723080274e+02 
-1.095720013796e+02 4.134878935494e+00 0.0 
4.134878935494e+00 -2.967874372139e+02 0.0 
0.0 0.0 -1.214372844461e+02 
-1.040419862990e+02 4.251710920451e+00 0.0 
4.251710920451e+00 -2.883771228446e+02 0.0 
0.0 0.0 -1.174864215514e+02 
-1.164910243681e+02 2.451860474915e+00 0.0 
2.451860474915e+00 -3.027967135385e+02 0.0 
0.0 0.0 -1.252245111613e+02 
-1.138897060392e+02 1.007192184493e+00 0.0 
1.007192184493e+00 -2.920355345390e+02 0.0 
0.0 0.0 -1.206729069057e+02 
-1.213432240618e+02 2.473356992775e+00 0.0 
2.473356992775e+00 -3.108563821440e+02 0.0 
0.0 0.0 -1.291565042664e+02 
-1.180997404257e+02 1.252310413869e+00 0.0 
1.252310413869e+00 -3.000570166861e+02 0.0 
0.0 0.0 -1.245683761643e+02 
-1.120390963525e+02 -2.395192811064e-01 0.0 
-2.395192811064e-01 -2.809702377939e+02 0.0 
0.0 0.0 -1.160530683481e+02 
-1.158719919074e+02 1.743285112678e-01 0.0 
1.743285112678e-01 -2.889923238846e+02 0.0 
0.0 0.0 -1.199072537295e+02 
-1.101745925958e+02 -1.214522213892e+00 0.0 
-1.214522213892e+00 -2.697583769601e+02 0.0 
0.0 0.0 -1.113713517528e+02 
-7.240867519045e+01 1.165073296386e+01 0.0 
1.165073296386e+01 -2.390659985787e+02 0.0 
0.0 0.0 -9.877588901756e+01 
-7.531371010599e+01 1.499296587070e+01 0.0 
1.499296587070e+01 -2.450703477754e+02 0.0 
0.0 0.0 -1.011460803071e+02 
-7.983178213745e+01 1.306947968045e+01 0.0 
1.306947968045e+01 -2.557181121017e+02 0.0 
0.0 0.0 -1.054976648774e+02 
-8.349356363996e+01 1.619069140341e+01 0.0 
1.619069140341e+01 -2.616466989764e+02 0.0 
0.0 0.0 -1.069407134183e+02 
-8.955476624989e+01 1.482656095388e+01 0.0 
1.482656095388e+01 -2.728326893790e+02 0.0 
0.0 0.0 -1.112348380263e+02 
-9.414307076427e+01 1.766637206784e+01 0.0 
1.766637206784e+01 -2.788420132946e+02 0.0 
0.0 0.0 -1.129914927085e+02 
-1.005049377978e+02 1.657862057225e+01 0.0 
1.657862057225e+01 -2.902186245773e+02 0.0 
0.0 0.0 -1.176554433243e+02 
-9.608501047328e+01 1.379672089857e+01 0.0 
1.379672089857e+01 -2.837612687022e+02 0.0 
0.0 0.0 -1.154233579982e+02 
-8.936076035961e+01 3.269133762396e+01 0.0 
3.269133762396e+01 -1.828801964010e+02 0.0 
0.0 0.0 -8.127228702820e+01 
-5.349805994745e+01 1.296211781020e+01 0.0 
1.296211781020e+01 -1.837191217347e+02 0.0 
0.0 0.0 -6.920234617844e+01 
-5.110714229743e+01 1.720801459487e+01 0.0 
1.720801459487e+01 -1.722529427347e+02 0.0 
0.0 0.0 -6.453064225299e+01 
-4.901124767414e+01 1.272906672774e+01 0.0 
1.272906672774e+01 -1.696849112751e+02 0.0 
0.0 0.0 -6.242884334623e+01 
-4.704030680906e+01 1.749513956039e+01 0.0 
1.749513956039e+01 -1.578660688045e+02 0.0 
0.0 0.0 -5.782917318141e+01 
-4.489401608147e+01 1.289581992562e+01 0.0 
1.289581992562e+01 -1.561174283376e+02 0.0 
0.0 0.0 -5.631331037931e+01 
-4.359181788882e+01 1.829380722791e+01 0.0 
1.829380722791e+01 -1.437617912523e+02 0.0 
0.0 0.0 -5.180048025278e+01 
-4.134037421476e+01 1.360112489608e+01 0.0 
1.360112489608e+01 -1.431035239907e+02 0.0 
0.0 0.0 -5.126391483855e+01 
-4.308059042049e+01 7.320609227794e+00 0.0 
7.320609227794e+00 -1.536350675422e+02 0.0 
0.0 0.0 -5.527996857743e+01 
-3.945217198137e+01 7.488703566297e+00 0.0 
7.488703566297e+00 -1.418140313172e+02 0.0 
0.0 0.0 -5.143509311498e+01 
-4.183848336128e+01 7.652601837257e-01 0.0 
7.652601837257e-01 -1.496041752169e+02 0.0 
0.0 0.0 -5.425391768773e+01 
-3.791944374168e+01 1.592592496469e-01 0.0 
1.592592496469e-01 -1.386359989807e+02 0.0 
0.0 0.0 -5.125332740428e+01 
-4.113223691406e+01 -6.300559873348e+00 0.0 
-6.300559873348e+00 -1.427599487914e+02 0.0 
0.0 0.0 -5.211521735669e+01 
-7.713757547035e+01 3.114374239812e+01 0.0 
3.114374239812e+01 -2.072196181534e+02 0.0 
0.0 0.0 -8.424406200872e+01 
-8.792584954611e+01 1.906014922798e+01 0.0 
1.906014922798e+01 -2.671901004753e+02 0.0 
0.0 0.0 -1.082240258890e+02 
-9.905019914916e+01 2.026461179272e+01 0.0 
2.026461179272e+01 -2.845844245382e+02 0.0 
0.0 0.0 -1.152140963676e+02 
-9.299231037498e+01 2.152126998871e+01 0.0 
2.152126998871e+01 -2.724065256879e+02 0.0 
0.0 0.0 -1.100150562129e+02 
-4.250504764187e+01 -9.354734640927e+00 0.0 
-9.354734640927e+00 -9.828905030259e+01 0.0 
0.0 0.0 -3.826438148035e+01 
-1.222709058787e+02 1.383470886834e+00 0.0 
1.383470886834e+00 -3.081293435937e+02 0.0 
0.0 0.0 -1.284743491423e+02 
-1.132717012748e+02 6.144143896518e+00 0.0 
6.144143896518e+00 -3.065892055864e+02 0.0 
0.0 0.0 -1.255582720584e+02 
-1.073227092156e+02 6.515839928554e+00 0.0 
6.515839928554e+00 -2.977628191582e+02 0.0 
0.0 0.0 -1.212224234672e+02 
-1.068843379260e+02 1.559162222753e+01 0.0 
1.559162222753e+01 -3.012567614149e+02 0.0 
0.0 0.0 -1.223177953955e+02 
-3.904888855546e+01 -6.396671230635e+00 0.0 
-6.396671230635e+00 -9.484400590795e+01 0.0 
0.0 0.0 -3.590070889134e+01 
-4.079940243678e+01 1.974184171449e+01 0.0 
1.974184171449e+01 -1.299368963938e+02 0.0 
0.0 0.0 -4.665549790348e+01 
-4.322354206686e+01 2.326333744477e+01 0.0 
2.326333744477e+01 -1.294411127228e+02 0.0 
0.0 0.0 -4.715251494062e+01 
-8.495458486791e+01 1.759164935789e+01 0.0 
1.759164935789e+01 -1.401747605733e+02 0.0 
0.0 0.0 -6.713880363235e+01 
-8.042375928308e+01 1.437656095615e+01 0.0 
1.437656095615e+01 -1.268493774967e+02 0.0 
0.0 0.0 -6.178194103394e+01 
-1.174270592035e+02 8.291047378997e+00 0.0 
8.291047378997e+00 -3.159335571107e+02 0.0 
0.0 0.0 -1.296081848943e+02 
-4.327608338305e+01 -5.357132445389e+00 0.0 
-5.357132445389e+00 -1.036642075782e+02 0.0 
0.0 0.0 -3.949539855198e+01 
-1.203272969764e+02 3.925810767256e+00 0.0 
3.925810767256e+00 -3.132839724432e+02 0.0 
0.0 0.0 -1.296763927651e+02 
-3.612958821538e+01 8.444887474349e+00 0.0 
8.444887474349e+00 -1.312711111152e+02 0.0 
0.0 0.0 -4.889126657924e+01 
-1.195151006767e+02 4.621071851461e-01 0.0 
4.621071851461e-01 -2.970733650176e+02 0.0 
0.0 0.0 -1.237465521654e+02 
-1.264966260314e+02 1.399043194074e+00 0.0 
1.399043194074e+00 -3.162129097292e+02 0.0 
0.0 0.0 -1.323165737213e+02 
-1.039483520004e+02 -1.310058883176e+00 0.0 
-1.310058883176e+00 -2.651408545890e+02 0.0 
0.0 0.0 -1.082649470463e+02 
-1.040052946347e+02 2.266716187501e+01 0.0 
2.266716187501e+01 -2.900961266333e+02 0.0 
0.0 0.0 -1.178520308096e+02 
-9.797837578428e+01 2.376465497889e+01 0.0 
2.376465497889e+01 -2.774378263269e+02 0.0 
0.0 0.0 -1.123376865900e+02 
-4.510161108908e+01 -4.685952567511e+00 0.0 
-4.685952567511e+00 -1.551390256769e+02 0.0 
0.0 0.0 -5.660804217802e+01 
-4.495765035972e+01 -1.088466065042e+01 0.0 
-1.088466065042e+01 -1.455424904745e+02 0.0 
0.0 0.0 -5.310826086945e+01 
-4.118625279518e+01 -1.310733812307e+01 0.0 
-1.310733812307e+01 -1.321230908642e+02 0.0 
0.0 0.0 -4.785197424903e+01 
-4.576933023566e+01 -1.609860636347e+01 0.0 
-1.609860636347e+01 -1.334317970007e+02 0.0 
0.0 0.0 -4.890801112847e+01 
-4.906074340618e+01 -1.351373092915e+01 0.0 
-1.351373092915e+01 -1.485853722122e+02 0.0 
0.0 0.0 -5.523802830871e+01 
-4.938428497801e+01 -1.718210083888e+01 0.0 
-1.718210083888e+01 -1.354767374283e+02 0.0 
0.0 0.0 -5.080582999289e+01 
-4.662059572314e+01 -1.963824005478e+01 0.0 
-1.963824005478e+01 -1.185812006140e+02 0.0 
0.0 0.0 -4.390887795695e+01 
-4.950030595515e+01 -1.920312275518e+01 0.0 
-1.920312275518e+01 -1.199152586256e+02 0.0 
0.0 0.0 -4.525507356022e+01 
-5.257622138422e+01 -1.744636225467e+01 0.0 
-1.744636225467e+01 -1.381608635073e+02 0.0 
0.0 0.0 -5.321699638576e+01 
-5.177929450590e+01 -1.826196702071e+01 0.0 
-1.826196702071e+01 -1.227839980057e+02 0.0 
0.0 0.0 -4.788337694224e+01 
-4.893017489656e+01 -1.881965724385e+01 0.0 
-1.881965724385e+01 -1.027312372257e+02 0.0 
0.0 0.0 -4.001113282666e+01 
-4.966203024033e+01 -1.713091830001e+01 0.0 
-1.713091830001e+01 -1.063827238809e+02 0.0 
0.0 0.0 -4.237901357507e+01 
-1.309954574904e+02 2.276885522918e+00 0.0 
2.276885522918e+00 -3.270157719645e+02 0.0 
0.0 0.0 -1.370033688365e+02 
-3.403566826439e+01 -3.843548582150e-02 0.0 
-3.843548582150e-02 -1.292647762220e+02 0.0 
0.0 0.0 -4.937754830753e+01 
-7.123534398494e+01 3.181611409439e+01 0.0 
3.181611409439e+01 -1.208974690348e+02 0.0 
0.0 0.0 -5.645663608631e+01 
-1.234244020619e+02 7.739466396481e+00 0.0 
7.739466396481e+00 -3.247718657645e+02 0.0 
0.0 0.0 -1.340588803479e+02 
-1.115276013861e+02 1.817011979771e+01 0.0 
1.817011979771e+01 -3.075757738301e+02 0.0 
0.0 0.0 -1.253641223787e+02 
-8.646906210985e+01 1.657123668384e+01 0.0 
1.657123668384e+01 -1.488160733561e+02 0.0 
0.0 0.0 -7.018554063980e+01 
-8.205171863841e+01 1.357481903958e+01 0.0 
1.357481903958e+01 -1.361910094139e+02 0.0 
0.0 0.0 -6.507281841569e+01 
-7.544429953680e+01 1.125543853095e+01 0.0 
1.125543853095e+01 -1.144208471126e+02 0.0 
0.0 0.0 -5.655954399483e+01 
-7.733957550868e+01 1.074125318664e+01 0.0 
1.074125318664e+01 -1.244324461062e+02 0.0 
0.0 0.0 -6.013160648446e+01 
-8.357319738278e+01 1.291413630404e+01 0.0 
1.291413630404e+01 -1.459834168254e+02 0.0 
0.0 0.0 -6.846698426245e+01 
-7.915608283140e+01 1.029653753238e+01 0.0 
1.029653753238e+01 -1.346224879919e+02 0.0 
0.0 0.0 -6.373357124698e+01 
-7.242797567758e+01 8.238751974805e+00 0.0 
8.238751974805e+00 -1.133795688893e+02 0.0 
0.0 0.0 -5.534226337005e+01 
-7.460785005659e+01 7.982642090744e+00 0.0 
7.982642090744e+00 -1.238296179891e+02 0.0 
0.0 0.0 -5.913124041371e+01 
-6.747611589819e+01 6.105524717834e+00 0.0 
6.105524717834e+00 -1.028928043584e+02 0.0 
0.0 0.0 -5.071067607697e+01 
-7.000376272859e+01 6.009203159580e+00 0.0 
6.009203159580e+00 -1.135573475670e+02 0.0 
0.0 0.0 -5.466833308867e+01 
-7.673697197071e+01 7.707673199430e+00 0.0 
7.707673199430e+00 -1.344065076135e+02 0.0 
0.0 0.0 -6.294304387528e+01 
-7.247688947298e+01 5.879792698382e+00 0.0 
5.879792698382e+00 -1.243610740336e+02 0.0 
0.0 0.0 -5.865138905197e+01 
-6.540718247952e+01 4.377209156676e+00 0.0 
4.377209156676e+00 -1.037713811960e+02 0.0 
0.0 0.0 -5.035356910265e+01 
-6.822158356491e+01 4.352716035230e+00 0.0 
4.352716035230e+00 -1.146393395805e+02 0.0 
0.0 0.0 -5.445827694362e+01 
-6.089326469352e+01 3.098060922345e+00 0.0 
3.098060922345e+00 -9.424591939472e+01 0.0 
0.0 0.0 -4.614175522647e+01 
-6.405114974452e+01 3.133940963698e+00 0.0 
3.133940963698e+00 -1.050799937928e+02 0.0 
0.0 0.0 -5.033934306119e+01 
-7.100291497080e+01 4.169450262799e+00 0.0 
4.169450262799e+00 -1.256090712329e+02 0.0 
0.0 0.0 -5.858359586110e+01 
-3.057877035956e+01 -4.398441997906e+00 0.0 
-4.398441997906e+00 -8.347003166489e+01 0.0 
0.0 0.0 -3.112954751262e+01 
-1.024884610424e+02 1.288581102015e+01 0.0 
1.288581102015e+01 -2.943751070428e+02 0.0 
0.0 0.0 -1.194340071568e+02 
-1.133626777115e+02 1.464090733276e+01 0.0 
1.464090733276e+01 -3.120413043003e+02 0.0 
0.0 0.0 -1.272211946036e+02 
-7.618504383675e+01 -5.173397473730e+00 0.0 
-5.173397473730e+00 -1.669172836865e+02 0.0 
0.0 0.0 -6.651273731505e+01 
-8.469250436978e+01 -4.567305405972e+00 0.0 
-4.567305405972e+00 -1.866738406014e+02 0.0 
0.0 0.0 -7.533396397191e+01 
-8.845013382270e+01 -5.013774302864e+00 0.0 
-5.013774302864e+00 -1.988556453742e+02 0.0 
0.0 0.0 -8.021328714327e+01 
-9.244558523604e+01 -3.871320349117e+00 0.0 
-3.871320349117e+00 -2.072994418451e+02 0.0 
0.0 0.0 -8.450562308843e+01 
-6.710126248084e+01 2.975798103575e+00 0.0 
2.975798103575e+00 -1.159778916624e+02 0.0 
0.0 0.0 -5.452374624298e+01 
-7.367399374567e+01 3.832043257731e+00 0.0 
3.832043257731e+00 -1.366518103675e+02 0.0 
0.0 0.0 -6.269774123394e+01 
-4.156226419712e+01 2.519925718886e+01 0.0 
2.519925718886e+01 -1.147264852040e+02 0.0 
0.0 0.0 -4.189989472184e+01 
-4.360433186843e+01 2.744131261936e+01 0.0 
2.744131261936e+01 -1.134223939265e+02 0.0 
0.0 0.0 -4.249332964040e+01 
-9.056357036839e+01 1.964128428014e+01 0.0 
1.964128428014e+01 -1.622855483199e+02 0.0 
0.0 0.0 -7.545473560648e+01 
-1.230505622805e+02 6.404116199756e-01 0.0 
6.404116199756e-01 -3.052643158250e+02 0.0 
0.0 0.0 -1.275838572114e+02 
-1.172260587343e+02 -2.391859372103e-01 0.0 
-2.391859372103e-01 -2.859504572645e+02 0.0 
0.0 0.0 -1.190278134180e+02 
-5.920260080419e+01 3.150072158449e+01 0.0 
3.150072158449e+01 -1.519734255355e+02 0.0 
0.0 0.0 -6.175313561663e+01 
-5.748240883952e+01 3.250055147854e+01 0.0 
3.250055147854e+01 -1.347946755915e+02 0.0 
0.0 0.0 -5.515940706746e+01 
-5.453747621194e+01 3.202766473232e+01 0.0 
3.202766473232e+01 -1.337879029840e+02 0.0 
0.0 0.0 -5.463707323863e+01 
-5.286818603705e+01 3.265536287468e+01 0.0 
3.265536287468e+01 -1.158107057177e+02 0.0 
0.0 0.0 -4.796534767420e+01 
-5.548554079003e+01 3.290096204551e+01 0.0 
3.290096204551e+01 -1.169038466706e+02 0.0 
0.0 0.0 -4.828940068680e+01 
-5.035296578754e+01 3.244957579967e+01 0.0 
3.244957579967e+01 -1.150010395744e+02 0.0 
0.0 0.0 -4.759647086621e+01 
-9.834661300738e+01 4.409798386641e+00 0.0 
4.409798386641e+00 -2.796412173732e+02 0.0 
0.0 0.0 -1.140594572454e+02 
-7.884468982934e+01 7.385312582962e+00 0.0 
7.385312582962e+00 -1.452055701210e+02 0.0 
0.0 0.0 -6.681507798511e+01 
-4.894889115639e+01 -1.144117244863e+01 0.0 
-1.144117244863e+01 -1.108670607048e+02 0.0 
0.0 0.0 -4.408740381400e+01 
-3.990954356669e+01 -1.010135059874e+01 0.0 
-1.010135059874e+01 -8.972151347333e+01 0.0 
0.0 0.0 -3.525944012360e+01 
-1.308149751945e+02 1.314837709005e+00 0.0 
1.314837709005e+00 -3.243919202969e+02 0.0 
0.0 0.0 -1.361428311213e+02 
-9.214993661182e+01 1.085276736668e+01 0.0 
1.085276736668e+01 -2.768541011934e+02 0.0 
0.0 0.0 -1.132867929844e+02 
-8.046163361370e+01 3.223267709553e+01 0.0 
3.223267709553e+01 -2.090659368340e+02 0.0 
0.0 0.0 -8.613757965923e+01 
-8.359152380160e+01 3.101369792637e+01 0.0 
3.101369792637e+01 -2.249814820641e+02 0.0 
0.0 0.0 -9.204679716160e+01 
-8.771956750532e+01 3.215883861903e+01 0.0 
3.215883861903e+01 -2.272062850371e+02 0.0 
0.0 0.0 -9.407775576272e+01 
-9.178364667006e+01 3.113133040452e+01 0.0 
3.113133040452e+01 -2.429204943740e+02 0.0 
0.0 0.0 -1.000112423132e+02 
-9.622639392439e+01 3.249341775277e+01 0.0 
3.249341775277e+01 -2.455641117936e+02 0.0 
0.0 0.0 -1.021371517154e+02 
-1.007930232136e+02 3.169558070355e+01 0.0 
3.169558070355e+01 -2.610222516168e+02 0.0 
0.0 0.0 -1.081445824491e+02 
-9.629414206452e+01 3.003395901393e+01 0.0 
3.003395901393e+01 -2.579146251255e+02 0.0 
0.0 0.0 -1.058626301570e+02 
-1.089084356459e+02 2.499715571805e+01 0.0 
2.499715571805e+01 -2.953200527104e+02 0.0 
0.0 0.0 -1.208685465069e+02 
-1.058298033488e+02 3.088574464014e+01 0.0 
3.088574464014e+01 -2.758029910123e+02 0.0 
0.0 0.0 -1.140898383083e+02 
-5.998378290642e+01 2.082019303206e+00 0.0 
2.082019303206e+00 -9.538549959403e+01 0.0 
0.0 0.0 -4.621078475013e+01 
-8.255550854406e+01 2.071727201043e+01 0.0 
2.071727201043e+01 -2.550698512398e+02 0.0 
0.0 0.0 -1.034323836847e+02 
-5.513973403330e+01 -1.725615416599e+01 0.0 
-1.725615416599e+01 -1.416129913096e+02 0.0 
0.0 0.0 -5.621426793118e+01 
-2.682820032940e+01 -4.915433375924e+00 0.0 
-4.915433375924e+00 -7.436303112218e+01 0.0 
0.0 0.0 -2.732096644380e+01 
-4.465185592240e+01 -1.547499776161e+01 0.0 
-1.547499776161e+01 -8.433428923505e+01 0.0 
0.0 0.0 -3.352213444721e+01 
-3.491253380125e+01 -3.742044707679e+00 0.0 
-3.742044707679e+00 -9.138416761628e+01 0.0 
0.0 0.0 -3.460490080352e+01 
-4.820769177711e+01 -4.355876329299e+00 0.0 
-4.355876329299e+00 -1.122705821614e+02 0.0 
0.0 0.0 -4.345194690043e+01 
-1.281138750253e+02 9.873143915926e+00 0.0 
9.873143915926e+00 -3.340022792767e+02 0.0 
0.0 0.0 -1.382348462906e+02 
-1.051008343781e+02 3.322150812749e+01 0.0 
3.322150812749e+01 -2.639257878924e+02 0.0 
0.0 0.0 -1.103079866811e+02 
-1.004212324802e+02 3.363430823622e+01 0.0 
3.363430823622e+01 -2.480016624865e+02 0.0 
0.0 0.0 -1.041268684900e+02 
-5.087421672332e+01 3.264342188784e+01 0.0 
3.264342188784e+01 -9.759068745018e+01 0.0 
0.0 0.0 -4.109199245949e+01 
-5.315311914410e+01 3.279238220554e+01 0.0 
3.279238220554e+01 -9.853519650412e+01 0.0 
0.0 0.0 -4.128536174467e+01 
-1.152497562027e+02 2.406135174861e+01 0.0 
2.406135174861e+01 -3.078555218341e+02 0.0 
0.0 0.0 -1.265315834110e+02 
-7.167802450204e+01 1.290497919331e+01 0.0 
1.290497919331e+01 -9.564786591646e+01 0.0 
0.0 0.0 -4.979776712555e+01 
-6.490532917417e+01 6.159349867702e+00 0.0 
6.159349867702e+00 -9.239392680178e+01 0.0 
0.0 0.0 -4.678977679278e+01 
-5.947559572808e+01 4.263721173572e+00 0.0 
4.263721173572e+00 -8.216544413179e+01 0.0 
0.0 0.0 -4.209231195796e+01 
-2.088177692916e+01 -2.514573474774e+00 0.0 
-2.514573474774e+00 -6.915103118486e+01 0.0 
0.0 0.0 -2.526062881402e+01 
-4.520185952254e+01 -1.792705279350e+01 0.0 
-1.792705279350e+01 -8.117364446461e+01 0.0 
0.0 0.0 -3.179320170215e+01 
-8.506803767195e+01 1.227961134621e+01 0.0 
1.227961134621e+01 -1.560538949557e+02 0.0 
0.0 0.0 -7.193657978829e+01 
-4.529575044494e+01 2.600859330846e+01 0.0 
2.600859330846e+01 -1.292005244003e+02 0.0 
0.0 0.0 -4.844124746073e+01 
-4.534799561558e+01 2.917694997539e+01 0.0 
2.917694997539e+01 -1.130722118197e+02 0.0 
0.0 0.0 -4.378010918308e+01 
-3.325233631912e+01 1.091724130676e+01 0.0 
1.091724130676e+01 -1.221110543433e+02 0.0 
0.0 0.0 -4.776466677256e+01 
-3.059241206553e+01 2.136935252211e-01 0.0 
2.136935252211e-01 -1.226146791304e+02 0.0 
0.0 0.0 -4.824467224931e+01 
-7.011552759070e+01 2.585518422705e+00 0.0 
2.585518422705e+00 -1.267239849422e+02 0.0 
0.0 0.0 -5.865185375988e+01 
-7.643906976564e+01 3.324445339591e+00 0.0 
3.324445339591e+00 -1.473163853274e+02 0.0 
0.0 0.0 -6.672663652790e+01 
-9.567931692675e+01 -4.027143671787e+00 0.0 
-4.027143671787e+00 -2.190927720098e+02 0.0 
0.0 0.0 -8.929864868442e+01 
-9.941878521275e+01 -3.015023273758e+00 0.0 
-3.015023273758e+00 -2.274096050400e+02 0.0 
0.0 0.0 -9.335801903839e+01 
-1.219210981711e+02 1.059527616096e+01 0.0 
1.059527616096e+01 -3.247805089923e+02 0.0 
0.0 0.0 -1.336104821490e+02 
-4.503454615827e+01 -1.424695705413e+01 0.0 
-1.424695705413e+01 -9.019501031907e+01 0.0 
0.0 0.0 -3.626102748322e+01 
-7.988003514418e+01 4.755607038196e+00 0.0 
4.755607038196e+00 -1.574496797312e+02 0.0 
0.0 0.0 -7.079891446260e+01 
-9.849047734212e+01 1.009114863607e+01 0.0 
1.009114863607e+01 -2.869809231695e+02 0.0 
0.0 0.0 -1.167891234429e+02 
-8.891178313098e+01 7.903843243794e+00 0.0 
7.903843243794e+00 -2.694301803157e+02 0.0 
0.0 0.0 -1.110080899139e+02 
-8.861586659978e+01 -3.465144965594e+00 0.0 
-3.465144965594e+00 -1.950098481463e+02 0.0 
0.0 0.0 -7.956758953403e+01 
-4.331797564949e+01 2.949340871375e+01 0.0 
2.949340871375e+01 -9.745449075604e+01 0.0 
0.0 0.0 -3.748900807943e+01 
-4.156446915372e+01 2.804590439711e+01 0.0 
2.804590439711e+01 -1.000024001848e+02 0.0 
0.0 0.0 -3.801265688292e+01 
-5.614027743026e+01 -1.570133534664e+01 0.0 
-1.570133534664e+01 -1.557805479022e+02 0.0 
0.0 0.0 -6.145593305087e+01 
-5.046545279959e+01 -1.606161938584e+01 0.0 
-1.606161938584e+01 -1.113513276975e+02 0.0 
0.0 0.0 -4.495468175277e+01 
-4.005529626649e+01 -2.907407438510e+00 0.0 
-2.907407438510e+00 -1.000060308737e+02 0.0 
0.0 0.0 -3.864945883644e+01 
-1.330299365117e+02 1.213335137866e+01 0.0 
1.213335137866e+01 -3.426583570988e+02 0.0 
0.0 0.0 -1.423064880831e+02 
-8.900448858042e+01 1.490303632087e+01 0.0 
1.490303632087e+01 -1.675519582046e+02 0.0 
0.0 0.0 -7.656693403551e+01 
-1.013604522515e+02 2.899594631120e+01 0.0 
2.899594631120e+01 -2.721994591967e+02 0.0 
0.0 0.0 -1.116679734344e+02 
-9.164215424045e+01 2.824360683454e+01 0.0 
2.824360683454e+01 -2.544356855550e+02 0.0 
0.0 0.0 -1.034233519386e+02 
-1.116201942727e+02 3.008023936440e+01 0.0 
3.008023936440e+01 -2.901732466899e+02 0.0 
0.0 0.0 -1.201380322888e+02 
-3.881984250517e+01 -1.133917276756e+01 0.0 
-1.133917276756e+01 -6.860446845447e+01 0.0 
0.0 0.0 -2.758980700894e+01 
-1.342793585923e+02 9.166323992978e+00 0.0 
9.166323992978e+00 -3.431344552483e+02 0.0 
0.0 0.0 -1.428241441522e+02 
-1.266287995019e+02 6.808640797180e-01 0.0 
6.808640797180e-01 -3.136031702309e+02 0.0 
0.0 0.0 -1.314508494031e+02 
-1.087653675807e+02 3.448916438687e+01 0.0 
3.448916438687e+01 -2.658573617874e+02 0.0 
0.0 0.0 -1.119868188104e+02 
-1.043626871122e+02 3.456401970028e+01 0.0 
3.456401970028e+01 -2.505120629800e+02 0.0 
0.0 0.0 -1.060624250276e+02 
-4.715807564450e+01 2.819603504316e+01 0.0 
2.819603504316e+01 -1.294528153344e+02 0.0 
0.0 0.0 -5.010948809221e+01 
-4.679442251975e+01 3.067499671174e+01 0.0 
3.067499671174e+01 -1.133431596102e+02 0.0 
0.0 0.0 -4.546503028093e+01 
-4.568431064837e+01 3.131117459418e+01 0.0 
3.131117459418e+01 -9.585937153566e+01 0.0 
0.0 0.0 -3.911280070411e+01 
-4.643846729856e+01 3.204317292417e+01 0.0 
3.204317292417e+01 -9.591802831715e+01 0.0 
0.0 0.0 -4.005047555846e+01 
-7.071228799369e+01 2.839502680654e+01 0.0 
2.839502680654e+01 -1.038466511855e+02 0.0 
0.0 0.0 -5.173000842181e+01 
-4.915893382983e+01 2.998066626762e+01 0.0 
2.998066626762e+01 -1.303803931178e+02 0.0 
0.0 0.0 -5.214963393621e+01 
-6.880235584332e+01 3.267651708031e+01 0.0 
3.267651708031e+01 -1.195336471884e+02 0.0 
0.0 0.0 -5.453400439159e+01 
-6.620606609412e+01 3.123118620135e+01 0.0 
3.123118620135e+01 -1.000944668137e+02 0.0 
0.0 0.0 -4.788361409409e+01 
-6.368956021923e+01 3.225051911462e+01 0.0 
3.225051911462e+01 -9.930491889739e+01 0.0 
0.0 0.0 -4.604570657208e+01 
-5.814864206093e+01 3.313835024871e+01 0.0 
3.313835024871e+01 -1.176184399413e+02 0.0 
0.0 0.0 -4.843133470377e+01 
-5.558929709894e+01 3.293928329448e+01 0.0 
3.293928329448e+01 -9.886926277266e+01 0.0 
0.0 0.0 -4.136899068861e+01 
-4.927398025493e+01 2.132526951005e+01 0.0 
2.132526951005e+01 -1.592715586598e+02 0.0 
0.0 0.0 -5.979376889273e+01 
-7.162501908736e+01 1.748422008523e+01 0.0 
1.748422008523e+01 -2.337726711993e+02 0.0 
0.0 0.0 -9.612630608909e+01 
-9.173162856825e+01 -5.111484025369e+00 0.0 
-5.111484025369e+00 -2.109415837243e+02 0.0 
0.0 0.0 -8.518270900498e+01 
-1.064201455704e+02 -1.854579323325e+00 0.0 
-1.854579323325e+00 -2.617930023979e+02 0.0 
0.0 0.0 -1.075143940651e+02 
-9.095451463558e+01 -8.922796949760e-01 0.0 
-8.922796949760e-01 -2.519473535652e+02 0.0 
0.0 0.0 -1.036436136112e+02 
-8.266301776858e+01 9.377191496662e+00 0.0 
9.377191496662e+00 -1.553544135387e+02 0.0 
0.0 0.0 -7.100522939219e+01 
-8.448425474486e+01 8.846106142904e+00 0.0 
8.846106142904e+00 -1.662703858948e+02 0.0 
0.0 0.0 -7.482639219191e+01 
-5.769197852882e+01 2.969125643538e+00 0.0 
2.969125643538e+00 -8.341156118209e+01 0.0 
0.0 0.0 -4.193106191327e+01 
-5.312346340474e+01 1.968036342085e+00 0.0 
1.968036342085e+00 -7.399724212517e+01 0.0 
0.0 0.0 -3.773621165897e+01 
-3.249218797685e+01 -7.460668226877e+00 0.0 
-7.460668226877e+00 -7.725196245747e+01 0.0 
0.0 0.0 -2.947988339639e+01 
-3.104035768273e+01 -7.503626935883e+00 0.0 
-7.503626935883e+00 -6.879015603985e+01 0.0 
0.0 0.0 -2.659430547942e+01 
-9.402801470601e+01 -4.196677571001e+00 0.0 
-4.196677571001e+00 -2.381862013626e+02 0.0 
0.0 0.0 -9.695020219549e+01 
-1.292746153241e+02 7.203572442483e+00 0.0 
7.203572442483e+00 -3.333724964126e+02 0.0 
0.0 0.0 -1.383941335210e+02 
-9.159852869502e+01 1.856069124408e+01 0.0 
1.856069124408e+01 -1.704896486497e+02 0.0 
0.0 0.0 -7.822645320341e+01 
-9.535223719928e+01 2.161912053843e+01 0.0 
2.161912053843e+01 -1.840999125210e+02 0.0 
0.0 0.0 -8.343564491607e+01 
-9.435751673126e+01 2.270715436554e+01 0.0 
2.270715436554e+01 -1.763705817200e+02 0.0 
0.0 0.0 -8.081842953538e+01 
-1.265960037315e+02 1.299868834188e+01 0.0 
1.299868834188e+01 -3.328853354169e+02 0.0 
0.0 0.0 -1.374444017445e+02 
-5.172342466008e+01 8.118977524254e+00 0.0 
8.118977524254e+00 -1.798364619877e+02 0.0 
0.0 0.0 -6.696697581924e+01 
-7.702771475969e+01 9.709292488120e+00 0.0 
9.709292488120e+00 -2.491461304865e+02 0.0 
0.0 0.0 -1.033418963016e+02 
-3.385385040477e+01 -1.031236583860e+01 0.0 
-1.031236583860e+01 -1.223985464761e+02 0.0 
0.0 0.0 -4.779012817629e+01 
-7.630426807075e+01 2.816852225346e+01 0.0 
2.816852225346e+01 -2.199123214178e+02 0.0 
0.0 0.0 -8.885320717864e+01 
-2.279724402352e+01 -4.523395638820e+00 0.0 
-4.523395638820e+00 -5.675249114798e+01 0.0 
0.0 0.0 -2.112785064803e+01 
-8.884525711077e+01 3.379321942682e+01 0.0 
3.379321942682e+01 -1.976596528355e+02 0.0 
0.0 0.0 -8.555147298388e+01 
-1.354306123904e+02 1.112702065084e+00 0.0 
1.112702065084e+00 -3.327465041751e+02 0.0 
0.0 0.0 -1.400531349696e+02 
-1.404310317214e+02 1.771238522994e+00 0.0 
1.771238522994e+00 -3.432764802043e+02 0.0 
0.0 0.0 -1.447122535777e+02 
-1.200601858274e+02 2.644613081193e+01 0.0 
2.644613081193e+01 -3.129929876342e+02 0.0 
0.0 0.0 -1.295159520385e+02 
-6.212032107490e+01 2.353122658661e+01 0.0 
2.353122658661e+01 -6.273188030337e+01 0.0 
0.0 0.0 -3.632187030920e+01 
-7.894640648246e+01 2.634508906002e+01 0.0 
2.634508906002e+01 -2.336125875445e+02 0.0 
0.0 0.0 -9.435162063778e+01 
-7.516758883634e+01 2.462709322801e+01 0.0 
2.462709322801e+01 -2.297485504145e+02 0.0 
0.0 0.0 -9.321252664708e+01 
-6.092507122749e+01 3.066209444305e+01 0.0 
3.066209444305e+01 -7.949058338503e+01 0.0 
0.0 0.0 -3.935925502229e+01 
-5.788718659685e+01 3.170556824929e+01 0.0 
3.170556824929e+01 -7.909932764618e+01 0.0 
0.0 0.0 -3.744329984977e+01 
-6.089280972369e+01 3.280678803652e+01 0.0 
3.280678803652e+01 -9.893676515956e+01 0.0 
0.0 0.0 -4.414085124620e+01 
-5.517120740133e+01 3.214681464690e+01 0.0 
3.214681464690e+01 -7.931419599596e+01 0.0 
0.0 0.0 -3.563343873358e+01 
-5.922480118296e+01 -1.600296915340e+01 0.0 
-1.600296915340e+01 -1.600033049376e+02 0.0 
0.0 0.0 -6.429929340964e+01 
-5.779673749887e+01 -1.688863078519e+01 0.0 
-1.688863078519e+01 -1.460790710631e+02 0.0 
0.0 0.0 -5.889258641944e+01 
-1.150262109784e+02 3.459619512861e+01 0.0 
3.459619512861e+01 -2.834902797235e+02 0.0 
0.0 0.0 -1.191549472106e+02 
-1.156332748785e+02 3.211456271658e+01 0.0 
3.211456271658e+01 -2.935211066083e+02 0.0 
0.0 0.0 -1.223463144460e+02 
-1.124410741094e+02 3.581090917261e+01 0.0 
3.581090917261e+01 -2.689590254403e+02 0.0 
0.0 0.0 -1.140200298649e+02 
-1.082568119781e+02 3.547864944186e+01 0.0 
3.547864944186e+01 -2.536281803971e+02 0.0 
0.0 0.0 -1.081654977126e+02 
-1.267666776290e+02 2.560421222299e+01 0.0 
2.560421222299e+01 -3.255100364747e+02 0.0 
0.0 0.0 -1.352830142311e+02 
-1.215821460182e+02 2.313122464765e+01 0.0 
2.313122464765e+01 -3.197847892393e+02 0.0 
0.0 0.0 -1.320100805772e+02 
-5.291728404957e+01 -3.257705874629e+00 0.0 
-3.257705874629e+00 -1.202059803328e+02 0.0 
0.0 0.0 -4.735568559829e+01 
-5.058148108407e+01 3.221337869818e+01 0.0 
3.221337869818e+01 -7.972758524003e+01 0.0 
0.0 0.0 -3.421089685082e+01 
-9.029875995050e+01 1.413458774124e+01 0.0 
1.413458774124e+01 -1.774663398916e+02 0.0 
0.0 0.0 -7.992952995264e+01 
-6.336958967896e+01 2.904128566238e+01 0.0 
2.904128566238e+01 -8.042393869079e+01 0.0 
0.0 0.0 -4.117346831224e+01 
-1.400536238878e+02 8.416671625548e+00 0.0 
8.416671625548e+00 -3.513324195124e+02 0.0 
0.0 0.0 -1.470158130201e+02 
-1.350183884597e+02 6.694153743317e+00 0.0 
6.694153743317e+00 -3.418295572956e+02 0.0 
0.0 0.0 -1.426543837266e+02 
-3.388116337216e+01 -1.178356085216e+01 0.0 
-1.178356085216e+01 -1.181815069782e+02 0.0 
0.0 0.0 -4.773149744681e+01 
-3.684155352918e+01 -2.101152544929e+01 0.0 
-2.101152544929e+01 -1.071287172518e+02 0.0 
0.0 0.0 -4.269193610827e+01 
-8.242919171269e+01 4.074891294695e+00 0.0 
4.074891294695e+00 -1.684719574491e+02 0.0 
0.0 0.0 -7.487034474855e+01 
-4.564253018543e+01 3.193936953595e+01 0.0 
3.193936953595e+01 -7.723203970068e+01 0.0 
0.0 0.0 -3.363023500303e+01 
-4.559547638837e+01 3.193322806056e+01 0.0 
3.193322806056e+01 -7.659521760141e+01 0.0 
0.0 0.0 -3.379363323885e+01 
-4.528939274176e+01 3.186865029399e+01 0.0 
3.186865029399e+01 -7.791113863123e+01 0.0 
0.0 0.0 -3.317858416790e+01 
-1.556865427774e+02 5.149297104866e-01 0.0 
5.149297104866e-01 -3.713212928208e+02 0.0 
0.0 0.0 -1.577023506795e+02 
-3.534770554657e+01 9.441805920711e-02 0.0 
9.441805920711e-02 -3.562957113438e+01 0.0 
0.0 0.0 -2.089318300429e+01 
-1.452397653243e+02 1.406034423364e+00 0.0 
1.406034423364e+00 -3.517657723961e+02 0.0 
0.0 0.0 -1.487016613161e+02 
-6.089695863339e+01 3.336186037727e+01 0.0 
3.336186037727e+01 -1.180307672633e+02 0.0 
0.0 0.0 -4.911803718190e+01 
-8.572112687848e+01 5.617545604118e+00 0.0 
5.617545604118e+00 -1.788125656564e+02 0.0 
0.0 0.0 -7.896010776045e+01 
-8.250885207514e+01 2.456148178841e+01 0.0 
2.456148178841e+01 -2.466377768454e+02 0.0 
0.0 0.0 -9.954114556115e+01 
-5.566720817681e+01 3.073521709136e+01 0.0 
3.073521709136e+01 -1.502654405694e+02 0.0 
0.0 0.0 -6.073264846922e+01 
-1.155816762075e+02 1.135416802746e+01 0.0 
1.135416802746e+01 -3.151578392890e+02 0.0 
0.0 0.0 -1.288218546490e+02 
-7.892820383074e+01 2.679713618278e+00 0.0 
2.679713618278e+00 -1.572133362251e+02 0.0 
0.0 0.0 -7.044246201676e+01 
-8.498530809960e+01 3.178741068305e+00 0.0 
3.178741068305e+00 -1.800393723974e+02 0.0 
0.0 0.0 -7.910740414910e+01 
-5.643794858281e+01 4.127957296341e+00 0.0 
4.127957296341e+00 -7.160065905387e+01 0.0 
0.0 0.0 -3.801158229100e+01 
-5.058164124358e+01 2.685166169990e+00 0.0 
2.685166169990e+00 -6.122070717223e+01 0.0 
0.0 0.0 -3.314070452474e+01 
-6.195459620450e+01 6.182124811910e+00 0.0 
6.182124811910e+00 -8.139253360294e+01 0.0 
0.0 0.0 -4.260413894223e+01 
-3.606221378088e+01 1.747273792494e+01 0.0 
1.747273792494e+01 -1.189786446933e+02 0.0 
0.0 0.0 -4.427964491733e+01 
-3.550130268082e+01 2.297616885467e+01 0.0 
2.297616885467e+01 -1.055891118431e+02 0.0 
0.0 0.0 -4.246780932936e+01 
-8.087447876702e+01 6.908082488992e+00 0.0 
6.908082488992e+00 -1.560143296533e+02 0.0 
0.0 0.0 -7.066664252608e+01 
-6.636998916721e+01 -5.616903215474e+00 0.0 
-5.616903215474e+00 -1.456290088843e+02 0.0 
0.0 0.0 -5.733195202105e+01 
-7.189635795549e+01 -4.326437930064e+00 0.0 
-4.326437930064e+00 -1.561609317908e+02 0.0 
0.0 0.0 -6.245620330193e+01 
-4.536423891148e+01 -1.347132398963e+01 0.0 
-1.347132398963e+01 -9.621104071230e+01 0.0 
0.0 0.0 -3.869554701502e+01 
-5.188539381453e+01 -1.485865407445e+01 0.0 
-1.485865407445e+01 -1.172388967475e+02 0.0 
0.0 0.0 -4.736542219334e+01 
-9.841829473529e+01 -3.880641960958e+00 0.0 
-3.880641960958e+00 -2.308738862676e+02 0.0 
0.0 0.0 -9.409629581578e+01 
-9.445332026192e+01 -4.884613084917e+00 0.0 
-4.884613084917e+00 -2.228662008652e+02 0.0 
0.0 0.0 -9.020449157130e+01 
-9.236452128337e+01 3.395761745137e+01 0.0 
3.395761745137e+01 -2.149584580143e+02 0.0 
0.0 0.0 -9.179689378931e+01 
-9.612793518735e+01 3.415043679636e+01 0.0 
3.415043679636e+01 -2.173337110695e+02 0.0 
0.0 0.0 -9.363849387705e+01 
-8.421198334197e+01 3.305755303611e+01 0.0 
3.305755303611e+01 -2.108432213001e+02 0.0 
0.0 0.0 -8.804663393678e+01 
-9.503726388606e+01 7.332070586683e+00 0.0 
7.332070586683e+00 -2.790325849843e+02 0.0 
0.0 0.0 -1.141319129823e+02 
-8.676849083385e+01 4.987003714381e+00 0.0 
4.987003714381e+00 -2.613177029445e+02 0.0 
0.0 0.0 -1.082176423209e+02 
-8.055545347888e+01 5.255621869599e+00 0.0 
5.255621869599e+00 -2.519394581136e+02 0.0 
0.0 0.0 -1.045060823493e+02 
-8.759178467094e+01 1.092275288204e+01 0.0 
1.092275288204e+01 -1.761187365055e+02 0.0 
0.0 0.0 -7.871315635292e+01 
-8.991486538935e+01 1.020010840676e+01 0.0 
1.020010840676e+01 -1.895180777908e+02 0.0 
0.0 0.0 -8.342988295403e+01 
-6.028226823925e+01 -1.394455168135e+01 0.0 
-1.394455168135e+01 -1.730469397409e+02 0.0 
0.0 0.0 -6.933879708698e+01 
-5.660821210824e+01 -1.289357581348e+01 0.0 
-1.289357581348e+01 -1.684505607505e+02 0.0 
0.0 0.0 -6.609663216848e+01 
-6.329208580886e+01 -1.517360593498e+01 0.0 
-1.517360593498e+01 -1.651102261074e+02 0.0 
0.0 0.0 -6.695743803142e+01 
-9.375615459384e+01 1.679039311602e+01 0.0 
1.679039311602e+01 -1.892080841117e+02 0.0 
0.0 0.0 -8.448927161165e+01 
-1.501360426830e+02 2.045978789660e+00 0.0 
2.045978789660e+00 -3.618708441640e+02 0.0 
0.0 0.0 -1.532020660541e+02 
-1.454701544065e+02 2.563863632222e+00 0.0 
2.563863632222e+00 -3.536675165886e+02 0.0 
0.0 0.0 -1.493413012985e+02 
-2.202336659432e+01 -4.052638213625e+00 0.0 
-4.052638213625e+00 -4.865568690393e+01 0.0 
0.0 0.0 -1.844889073935e+01 
-3.008621915582e+01 -7.183409912253e+00 0.0 
-7.183409912253e+00 -6.039343283783e+01 0.0 
0.0 0.0 -2.349916082212e+01 
-4.380529301527e+01 3.162914857732e+01 0.0 
3.162914857732e+01 -8.078782012179e+01 0.0 
0.0 0.0 -3.247792408688e+01 
-4.233428207464e+01 3.126250791342e+01 0.0 
3.126250791342e+01 -8.488155639419e+01 0.0 
0.0 0.0 -3.394258235486e+01 
-9.860892884752e+01 2.457043048219e+01 0.0 
2.457043048219e+01 -1.978590107511e+02 0.0 
0.0 0.0 -8.854038187957e+01 
-9.810345390163e+01 2.574005383203e+01 0.0 
2.574005383203e+01 -1.915104650614e+02 0.0 
0.0 0.0 -8.648417568891e+01 
-9.987535072976e+01 2.373069583803e+01 0.0 
2.373069583803e+01 -2.075347790897e+02 0.0 
0.0 0.0 -9.182303894583e+01 
-4.385671446190e+01 -2.024706928063e+00 0.0 
-2.024706928063e+00 -1.067252793536e+02 0.0 
0.0 0.0 -4.184617989896e+01 
-9.672150483584e+01 2.697689157229e+01 0.0 
2.697689157229e+01 -2.682173382436e+02 0.0 
0.0 0.0 -1.090816529238e+02 
-1.377249878826e+02 1.452250766330e+01 0.0 
1.452250766330e+01 -3.497533176809e+02 0.0 
0.0 0.0 -1.458434916690e+02 
-1.309302356631e+02 1.549096650800e+01 0.0 
1.549096650800e+01 -3.397284066397e+02 0.0 
0.0 0.0 -1.407975926908e+02 
-1.456207182165e+02 1.369597721439e+01 0.0 
1.369597721439e+01 -3.616959277839e+02 0.0 
0.0 0.0 -1.517949938001e+02 
-1.135114289057e+02 2.728779903204e+01 0.0 
2.728779903204e+01 -2.999777934155e+02 0.0 
0.0 0.0 -1.236467666964e+02 
-1.245450069953e+02 2.866287892087e+01 0.0 
2.866287892087e+01 -3.173872317113e+02 0.0 
0.0 0.0 -1.321796716120e+02 
-1.222647383520e+02 3.145261257362e+01 0.0 
3.145261257362e+01 -3.078068776545e+02 0.0 
0.0 0.0 -1.286214848020e+02 
-3.945867799574e+01 1.050695807986e+00 0.0 
1.050695807986e+00 -1.205002185918e+02 0.0 
0.0 0.0 -4.986044149642e+01 
-8.266793181588e+01 2.095106536561e+00 0.0 
2.095106536561e+00 -1.725205483020e+02 0.0 
0.0 0.0 -7.615654403536e+01 
-4.900027110238e+01 1.743947348340e+00 0.0 
1.743947348340e+00 -6.230049902363e+01 0.0 
0.0 0.0 -3.299023103780e+01 
-5.119420199813e+01 -7.308294395196e+00 0.0 
-7.308294395196e+00 -1.155208236664e+02 0.0 
0.0 0.0 -5.145680623325e+01 
-4.439064588593e+01 1.041484224316e+00 0.0 
1.041484224316e+00 -5.324949474064e+01 0.0 
0.0 0.0 -2.889204218797e+01 
-4.854112219055e+01 1.243556501469e+00 0.0 
1.243556501469e+00 -6.464080910172e+01 0.0 
0.0 0.0 -3.355457938768e+01 
-3.949096573750e+01 5.876486495187e-01 0.0 
5.876486495187e-01 -4.311625018280e+01 0.0 
0.0 0.0 -2.438216477609e+01 
-2.994036487781e+01 -1.734352538268e+00 0.0 
-1.734352538268e+00 -8.659918286996e+01 0.0 
0.0 0.0 -3.298489263608e+01 
-5.151714419107e+01 3.831861825323e+00 0.0 
3.831861825323e+00 -5.736133451435e+01 0.0 
0.0 0.0 -3.226354361163e+01 
-5.925939806264e+01 6.536392170932e+00 0.0 
6.536392170932e+00 -7.100742090679e+01 0.0 
0.0 0.0 -3.868004569083e+01 
-1.964647799131e+01 -3.331398378764e+00 0.0 
-3.331398378764e+00 -3.677303851490e+01 0.0 
0.0 0.0 -1.469848116618e+01 
-9.413225713662e+01 1.563483477202e+01 0.0 
1.563483477202e+01 -1.985299435491e+02 0.0 
0.0 0.0 -8.739866020572e+01 
-1.497152875033e+01 -1.598012313534e+00 0.0 
-1.598012313534e+00 -3.781364983139e+01 0.0 
0.0 0.0 -1.410609684906e+01 
-1.622279645276e+01 -1.895123734957e+00 0.0 
-1.895123734957e+00 -4.565291814931e+01 0.0 
0.0 0.0 -1.656325265055e+01 
-1.457598398969e+02 7.699522086205e+00 0.0 
7.699522086205e+00 -3.599564480388e+02 0.0 
0.0 0.0 -1.513148863807e+02 
-1.405131789746e+02 6.142407119935e+00 0.0 
6.142407119935e+00 -3.500532906573e+02 0.0 
0.0 0.0 -1.467699408896e+02 
-1.509280558145e+02 6.997988997905e+00 0.0 
6.997988997905e+00 -3.676976570141e+02 0.0 
0.0 0.0 -1.551877138486e+02 
-1.455953923031e+02 5.554264453049e+00 0.0 
5.554264453049e+00 -3.576174972575e+02 0.0 
0.0 0.0 -1.505638668682e+02 
-1.355395390784e+02 4.771745861977e+00 0.0 
4.771745861977e+00 -3.398355068827e+02 0.0 
0.0 0.0 -1.422125137883e+02 
-1.409051659330e+02 4.369152008388e+00 0.0 
4.369152008388e+00 -3.482594022703e+02 0.0 
0.0 0.0 -1.463493704610e+02 
-4.492170028680e+01 1.570426053710e+00 0.0 
1.570426053710e+00 -5.113312842582e+01 0.0 
0.0 0.0 -2.841644861379e+01 
-1.524054406827e+02 5.165103150424e+00 0.0 
5.165103150424e+00 -3.685791759263e+02 0.0 
0.0 0.0 -1.558953849827e+02 
-1.463561525497e+02 3.909288603650e+00 0.0 
3.909288603650e+00 -3.568930781831e+02 0.0 
0.0 0.0 -1.505747692198e+02 
-1.574970785869e+02 4.465605980644e+00 0.0 
4.465605980644e+00 -3.772950135294e+02 0.0 
0.0 0.0 -1.600376276349e+02 
-5.153288624745e+01 3.063877718990e+01 0.0 
3.063877718990e+01 -5.905750525146e+01 0.0 
0.0 0.0 -2.885521165406e+01 
-4.730900491688e+01 3.245078130061e+01 0.0 
3.245078130061e+01 -9.570410094054e+01 0.0 
0.0 0.0 -4.048800213149e+01 
-4.590342411512e+01 3.200689714182e+01 0.0 
3.200689714182e+01 -7.677227010596e+01 0.0 
0.0 0.0 -3.402416902072e+01 
-4.440048670859e+01 3.116317956179e+01 0.0 
3.116317956179e+01 -5.576888195252e+01 0.0 
0.0 0.0 -2.700854729758e+01 
-1.170900355953e+02 3.719731574202e+01 0.0 
3.719731574202e+01 -2.749846490029e+02 0.0 
0.0 0.0 -1.172224053794e+02 
-1.108393575712e+02 3.600883044153e+01 0.0 
3.600883044153e+01 -2.555120269140e+02 0.0 
0.0 0.0 -1.095054153456e+02 
-1.307457737896e+02 5.759139443236e-01 0.0 
5.759139443236e-01 -3.225377468888e+02 0.0 
0.0 0.0 -1.355456852393e+02 
-1.235445031498e+02 2.031342834063e-01 0.0 
2.031342834063e-01 -3.031034353459e+02 0.0 
0.0 0.0 -1.268983392075e+02 
-4.366140223419e+01 6.509409306598e-01 0.0 
6.509409306598e-01 -5.433786914922e+01 0.0 
0.0 0.0 -2.899978141502e+01 
-4.279026631799e+01 4.847841142271e-01 0.0 
4.847841142271e-01 -5.326095823028e+01 0.0 
0.0 0.0 -2.841536736448e+01 
-5.011289296812e+01 7.795388045014e-01 0.0 
7.795388045014e-01 -7.125360902861e+01 0.0 
0.0 0.0 -3.600995059902e+01 
-4.872040381392e+01 6.299368641083e-01 0.0 
6.299368641083e-01 -6.879261825112e+01 0.0 
0.0 0.0 -3.485390661951e+01 
-5.576993623758e+01 9.639799431874e-01 0.0 
9.639799431874e-01 -8.697472052320e+01 0.0 
0.0 0.0 -4.242339702823e+01 
-5.446353440805e+01 7.277287400490e-01 0.0 
7.277287400490e-01 -8.421107886531e+01 0.0 
0.0 0.0 -4.120238398201e+01 
-6.142832486608e+01 1.328349372515e+00 0.0 
1.328349372515e+00 -1.028613536576e+02 0.0 
0.0 0.0 -4.888690355711e+01 
-1.262778739301e+02 3.393771222707e+01 0.0 
3.393771222707e+01 -3.111431135269e+02 0.0 
0.0 0.0 -1.308262962371e+02 
-4.536108853848e+01 3.167402939902e+01 0.0 
3.167402939902e+01 -5.834591396115e+01 0.0 
0.0 0.0 -2.745388974537e+01 
-5.830509991895e+01 2.845183710634e+01 0.0 
2.845183710634e+01 -5.922500027387e+01 0.0 
0.0 0.0 -3.267680906637e+01 
-1.333124317444e+02 2.466538308714e+01 0.0 
2.466538308714e+01 -3.373329395954e+02 0.0 
0.0 0.0 -1.407936114020e+02 
-1.272167164833e+02 2.207108019680e+01 0.0 
2.207108019680e+01 -3.300352548580e+02 0.0 
0.0 0.0 -1.367755914024e+02 
-5.262807938139e+01 3.217171932360e+01 0.0 
3.217171932360e+01 -7.949602636309e+01 0.0 
0.0 0.0 -3.428641078852e+01 
-4.740234926727e+01 3.083463208644e+01 0.0 
3.083463208644e+01 -5.979852567082e+01 0.0 
0.0 0.0 -2.668712030345e+01 
-1.468662085295e+02 1.038039442531e+01 0.0 
1.038039442531e+01 -3.631492382398e+02 0.0 
0.0 0.0 -1.526046340308e+02 
-5.022949918673e+01 2.748432203855e+01 0.0 
2.748432203855e+01 -1.457643650229e+02 0.0 
0.0 0.0 -5.694716413522e+01 
-9.759989344417e+01 1.873336645990e+01 0.0 
1.873336645990e+01 -2.136191019211e+02 0.0 
0.0 0.0 -9.296569860959e+01 
-6.425559223872e+01 2.837396174268e+01 0.0 
2.837396174268e+01 -8.595879718970e+01 0.0 
0.0 0.0 -4.587952292067e+01 
-4.325544689943e+01 2.606537082848e+01 0.0 
2.606537082848e+01 -1.003070967076e+02 0.0 
0.0 0.0 -4.459609461119e+01 
-5.276142138881e+01 2.931197846110e+01 0.0 
2.931197846110e+01 -1.474557440093e+02 0.0 
0.0 0.0 -5.914093404312e+01 
-5.826064004976e+01 3.300368601815e+01 0.0 
3.300368601815e+01 -9.893418061687e+01 0.0 
0.0 0.0 -4.235069662653e+01 
-4.870729984551e+01 3.256483773036e+01 0.0 
3.256483773036e+01 -9.608126494088e+01 0.0 
0.0 0.0 -4.073323652075e+01 
-4.717369778627e+01 3.222864426683e+01 0.0 
3.222864426683e+01 -7.823101830782e+01 0.0 
0.0 0.0 -3.428970901711e+01 
-1.048494448226e+02 9.434210461767e+00 0.0 
9.434210461767e+00 -2.969746017822e+02 0.0 
0.0 0.0 -1.206655065099e+02 
-2.995592354841e+01 -7.246973068119e+00 0.0 
-7.246973068119e+00 -5.335557290766e+01 0.0 
0.0 0.0 -2.114566235775e+01 
-4.494771737683e+01 3.179919320654e+01 0.0 
3.179919320654e+01 -7.910968905697e+01 0.0 
0.0 0.0 -3.284019980116e+01 
-6.288176335004e+01 1.756119742444e+00 0.0 
1.756119742444e+00 -1.052125053569e+02 0.0 
0.0 0.0 -5.002828061209e+01 
-4.612332849305e+01 3.287454714037e+01 0.0 
3.287454714037e+01 -6.107257668342e+01 0.0 
0.0 0.0 -2.774945334284e+01 
-1.272324995160e+02 1.849172640830e-01 0.0 
1.849172640830e-01 -3.132060388777e+02 0.0 
0.0 0.0 -1.314614541153e+02 
-5.172856075345e+01 2.441527574912e+01 0.0 
2.441527574912e+01 -1.607542390584e+02 0.0 
0.0 0.0 -6.194738675773e+01 
-6.325571409930e+01 3.323080412356e+01 0.0 
3.323080412356e+01 -1.365253057689e+02 0.0 
0.0 0.0 -5.598479887815e+01 
-4.468329573887e+01 3.049768966564e+01 0.0 
3.049768966564e+01 -9.634370456153e+01 0.0 
0.0 0.0 -3.812997611219e+01 
-4.834540341816e+01 3.199712461341e+01 0.0 
3.199712461341e+01 -1.144297357835e+02 0.0 
0.0 0.0 -4.694279504544e+01 
-7.371509173477e+01 3.065587076955e+01 0.0 
3.065587076955e+01 -1.228191629828e+02 0.0 
0.0 0.0 -5.833770476867e+01 
-6.730930757037e+01 2.528206253662e+01 0.0 
2.528206253662e+01 -8.478843524659e+01 0.0 
0.0 0.0 -4.500002768971e+01 
-6.549526260081e+01 2.732088653201e+01 0.0 
2.732088653201e+01 -8.230113952395e+01 0.0 
0.0 0.0 -4.311553914774e+01 
-5.350586380217e+01 2.088573028657e+01 0.0 
2.088573028657e+01 -1.745508841079e+02 0.0 
0.0 0.0 -6.685781542446e+01 
-4.858007677198e+01 3.212561200511e+01 0.0 
3.212561200511e+01 -7.911520871514e+01 0.0 
0.0 0.0 -3.421798801459e+01 
-4.462372544400e+01 3.105648979059e+01 0.0 
3.105648979059e+01 -5.703581350858e+01 0.0 
0.0 0.0 -2.679027465520e+01 
-7.114445341975e+01 3.350249818138e+01 0.0 
3.350249818138e+01 -1.385645847447e+02 0.0 
0.0 0.0 -6.107680817514e+01 
-9.299751780509e+01 2.384188496253e+01 0.0 
2.384188496253e+01 -1.693256553381e+02 0.0 
0.0 0.0 -7.829695194297e+01 
-9.654745425620e+01 2.669784883411e+01 0.0 
2.669784883411e+01 -1.848351136780e+02 0.0 
0.0 0.0 -8.401477038025e+01 
-1.013445215565e+02 2.843990940695e+01 0.0 
2.843990940695e+01 -2.062104673192e+02 0.0 
0.0 0.0 -9.186649666271e+01 
-1.001792374814e+02 2.933324209241e+01 0.0 
2.933324209241e+01 -2.009062853725e+02 0.0 
0.0 0.0 -8.992565685616e+01 
-9.479417873660e+01 2.786385134318e+01 0.0 
2.786385134318e+01 -1.791609474960e+02 0.0 
0.0 0.0 -8.178653786978e+01 
-9.832891117702e+01 3.026525336722e+01 0.0 
3.026525336722e+01 -1.957248014705e+02 0.0 
0.0 0.0 -8.781611379425e+01 
-1.035956275649e+02 3.161237609374e+01 0.0 
3.161237609374e+01 -2.169593589294e+02 0.0 
0.0 0.0 -9.576649594831e+01 
-1.021877809695e+02 3.234944089943e+01 0.0 
3.234944089943e+01 -2.131928456698e+02 0.0 
0.0 0.0 -9.421418799181e+01 
-1.087558695830e+02 3.428583315764e+01 0.0 
3.428583315764e+01 -2.375525980607e+02 0.0 
0.0 0.0 -1.034925402931e+02 
-1.059160651465e+02 3.422701976037e+01 0.0 
3.422701976037e+01 -2.301711044243e+02 0.0 
0.0 0.0 -1.004261508712e+02 
-9.932073677156e+01 3.281401928847e+01 0.0 
3.281401928847e+01 -2.083570339080e+02 0.0 
0.0 0.0 -9.190333120387e+01 
-1.027861380885e+02 3.414815806030e+01 0.0 
3.414815806030e+01 -2.248186017518e+02 0.0 
0.0 0.0 -9.788142195210e+01 
-1.093606714711e+02 3.564769808091e+01 0.0 
3.564769808091e+01 -2.448978013734e+02 0.0 
0.0 0.0 -1.058775418533e+02 
-9.613183803169e+01 3.327377135142e+01 0.0 
3.327377135142e+01 -2.039257988219e+02 0.0 
0.0 0.0 -8.961729105609e+01 
-1.387192206097e+02 2.716054569725e+01 0.0 
2.716054569725e+01 -3.427981004602e+02 0.0 
0.0 0.0 -1.440551963210e+02 
-5.721839985861e+01 2.857313892219e+01 0.0 
2.857313892219e+01 -1.649414524119e+02 0.0 
0.0 0.0 -6.653259018132e+01 
-3.356484711350e+01 1.337275140623e+01 0.0 
1.337275140623e+01 -1.166568803606e+02 0.0 
0.0 0.0 -4.738125157993e+01 
-4.094646353135e+01 3.252560504154e+01 0.0 
3.252560504154e+01 -8.857198462555e+01 0.0 
0.0 0.0 -3.913951472516e+01 
-6.597248593146e+01 3.355519092952e+01 0.0 
3.355519092952e+01 -1.371459592260e+02 0.0 
0.0 0.0 -5.726197921755e+01 
-1.124995993724e+02 3.559320021595e+01 0.0 
3.559320021595e+01 -2.543064315291e+02 0.0 
0.0 0.0 -1.096418092705e+02 
-1.076055054166e+02 3.128329518616e+01 0.0 
3.128329518616e+01 -2.392771362278e+02 0.0 
0.0 0.0 -1.036647924933e+02 
-4.582383030690e+01 2.204738229046e+01 0.0 
2.204738229046e+01 -1.442911094427e+02 0.0 
0.0 0.0 -5.317971124009e+01 
-1.265274502493e+02 3.931851216501e+01 0.0 
3.931851216501e+01 -2.978717974878e+02 0.0 
0.0 0.0 -1.269197743211e+02 
-6.854133286601e+01 2.992872291267e+01 0.0 
2.992872291267e+01 -1.016378779401e+02 0.0 
0.0 0.0 -4.981263232011e+01 
-3.837059330399e+01 1.492141152701e+01 0.0 
1.492141152701e+01 -1.307387682802e+02 0.0 
0.0 0.0 -4.731057350089e+01 
-1.321242252166e+02 3.800538116220e+01 0.0 
3.800538116220e+01 -3.148430554139e+02 0.0 
0.0 0.0 -1.336901841892e+02 
-9.123379422789e+01 2.512842164556e+01 0.0 
2.512842164556e+01 -1.628041943913e+02 0.0 
0.0 0.0 -7.581139658575e+01 
-8.897816709952e+01 2.656283409618e+01 0.0 
2.656283409618e+01 -1.567683474797e+02 0.0 
0.0 0.0 -7.332395437377e+01 
-8.536639481264e+01 2.363181060819e+01 0.0 
2.363181060819e+01 -1.403139379143e+02 0.0 
0.0 0.0 -6.730409981807e+01 
-1.036487072360e+02 2.678753941106e+01 0.0 
2.678753941106e+01 -2.292056973524e+02 0.0 
0.0 0.0 -9.945632137653e+01 
-6.773796779154e+01 8.816548869886e+00 0.0 
8.816548869886e+00 -9.261435404081e+01 0.0 
0.0 0.0 -4.770569654970e+01 
-1.423984645305e+02 3.225720106036e+01 0.0 
3.225720106036e+01 -3.430537669293e+02 0.0 
0.0 0.0 -1.452356694379e+02 
-7.859624046390e+01 1.811854517078e+01 0.0 
1.811854517078e+01 -2.502833339622e+02 0.0 
0.0 0.0 -1.025208798487e+02 
-7.481831649114e+01 2.024877680474e+01 0.0 
2.024877680474e+01 -2.382144543616e+02 0.0 
0.0 0.0 -9.760929755916e+01 
-6.859072632228e+01 2.020657504958e+01 0.0 
2.020657504958e+01 -2.216662752951e+02 0.0 
0.0 0.0 -9.066787346493e+01 
-9.583768548479e+01 3.108880004359e+01 0.0 
3.108880004359e+01 -1.909296285597e+02 0.0 
0.0 0.0 -8.563019421334e+01 
-1.498785373383e+02 2.399469217280e+01 0.0 
2.399469217280e+01 -3.628743164292e+02 0.0 
0.0 0.0 -1.534258561303e+02 
-1.403123016927e+02 2.150755771175e+01 0.0 
2.150755771175e+01 -3.508442551677e+02 0.0 
0.0 0.0 -1.469469670581e+02 
-1.420150731426e+02 1.966643078843e+01 0.0 
1.966643078843e+01 -3.544119447453e+02 0.0 
0.0 0.0 -1.485281053664e+02 
-1.302339902951e+02 1.905760399863e+01 0.0 
1.905760399863e+01 -3.370986076706e+02 0.0 
0.0 0.0 -1.397997793897e+02 
-1.533236413008e+02 1.982668667132e+01 0.0 
1.982668667132e+01 -3.706162186196e+02 0.0 
0.0 0.0 -1.567819579761e+02 
-1.185189101439e+02 3.840795448354e+01 0.0 
3.840795448354e+01 -2.727320226848e+02 0.0 
0.0 0.0 -1.169752798486e+02 
-1.213874361256e+02 3.920429380850e+01 0.0 
3.920429380850e+01 -2.818095251312e+02 0.0 
0.0 0.0 -1.205590883770e+02 
-5.280709108490e+01 -1.499940211566e+01 0.0 
-1.499940211566e+01 -1.521687651638e+02 0.0 
0.0 0.0 -5.829991517354e+01 
-5.286258786138e+01 -1.117988832074e+01 0.0 
-1.117988832074e+01 -1.640507661500e+02 0.0 
0.0 0.0 -6.244404423546e+01 
-5.706423432703e+01 -9.075082500495e+00 0.0 
-9.075082500495e+00 -1.792623789247e+02 0.0 
0.0 0.0 -6.994342963241e+01 
-5.314693814252e+01 -6.443081979849e+00 0.0 
-6.443081979849e+00 -1.740977583333e+02 0.0 
0.0 0.0 -6.598654526915e+01 
-4.895008238459e+01 -8.570233773451e+00 0.0 
-8.570233773451e+00 -1.596910878791e+02 0.0 
0.0 0.0 -5.917725995638e+01 
-4.930654639572e+01 -2.924863163809e+00 0.0 
-2.924863163809e+00 -1.684010157914e+02 0.0 
0.0 0.0 -6.228538505847e+01 
-5.389013239454e+01 -1.291555109969e+00 0.0 
-1.291555109969e+00 -1.821445807322e+02 0.0 
0.0 0.0 -6.888988942976e+01 
-4.580530793745e+01 1.657816089253e+00 0.0 
1.657816089253e+00 -1.617891692130e+02 0.0 
0.0 0.0 -5.879246167856e+01 
-1.036272839038e+02 3.488906432432e+01 0.0 
3.488906432432e+01 -2.368571376086e+02 0.0 
0.0 0.0 -1.017453264537e+02 
-1.563874065276e+02 1.578447823201e+01 0.0 
1.578447823201e+01 -3.767770304027e+02 0.0 
0.0 0.0 -1.595493310791e+02 
-9.665784780236e+01 1.981016589155e+00 0.0 
1.981016589155e+00 -2.701837920485e+02 0.0 
0.0 0.0 -1.104290949912e+02 
-9.145605140262e+01 1.825918662119e+00 0.0 
1.825918662119e+00 -2.616716998765e+02 0.0 
0.0 0.0 -1.076896182667e+02 
-8.532587281554e+01 -1.428354462564e+00 0.0 
-1.428354462564e+00 -2.436526716063e+02 0.0 
0.0 0.0 -1.006264674035e+02 
-8.755644348288e+01 -6.316982816693e+00 0.0 
-6.316982816693e+00 -2.028599070950e+02 0.0 
0.0 0.0 -8.170069044719e+01 
-9.021235107047e+01 -6.026088872921e+00 0.0 
-6.026088872921e+00 -2.148884714234e+02 0.0 
0.0 0.0 -8.689413538922e+01 
-9.667372773659e+01 -4.302379972562e+00 0.0 
-4.302379972562e+00 -2.345994153564e+02 0.0 
0.0 0.0 -9.516522266618e+01 
-8.432419142711e+01 -6.232572744413e+00 0.0 
-6.232572744413e+00 -1.906946766351e+02 0.0 
0.0 0.0 -7.644274332495e+01 
-8.724608228911e+01 2.959362397071e+01 0.0 
2.959362397071e+01 -2.400793484189e+02 0.0 
0.0 0.0 -9.778873574253e+01 
-1.574547458976e+02 1.398155309945e+01 0.0 
1.398155309945e+01 -3.787038972575e+02 0.0 
0.0 0.0 -1.604475929465e+02 
-8.263834746856e+01 8.548760888130e+00 0.0 
8.548760888130e+00 -2.595066974770e+02 0.0 
0.0 0.0 -1.074270712393e+02 
-8.559087069596e+01 -7.384634550783e+00 0.0 
-7.384634550783e+00 -2.068981500167e+02 0.0 
0.0 0.0 -8.404100132566e+01 
-4.713927009931e+01 5.152189933164e+00 0.0 
5.152189933164e+00 -3.922264150686e+01 0.0 
0.0 0.0 -2.550857348185e+01 
-5.797894823935e+01 9.239415486491e+00 0.0 
9.239415486491e+00 -5.942342852554e+01 0.0 
0.0 0.0 -3.482071302947e+01 
-6.169260576399e+01 1.299007322505e+01 0.0 
1.299007322505e+01 -6.305066744758e+01 0.0 
0.0 0.0 -3.702298196347e+01 
-6.834431849543e+01 1.396079509090e+01 0.0 
1.396079509090e+01 -8.306361407290e+01 0.0 
0.0 0.0 -4.502237977050e+01 
-5.592176161436e+01 6.963593406485e+00 0.0 
6.963593406485e+00 -5.924415575801e+01 0.0 
0.0 0.0 -3.414977521171e+01 
-1.021600911129e+02 -2.964488423127e+00 0.0 
-2.964488423127e+00 -2.389853787315e+02 0.0 
0.0 0.0 -9.810708860643e+01 
-1.056964431097e+02 -2.127596105526e+00 0.0 
-2.127596105526e+00 -2.471829697328e+02 0.0 
0.0 0.0 -1.020148329772e+02 
-1.029282746070e+02 -2.138741974170e+00 0.0 
-2.138741974170e+00 -2.358261995416e+02 0.0 
0.0 0.0 -9.732757001927e+01 
-1.090502771451e+02 -1.386511371726e+00 0.0 
-1.386511371726e+00 -2.554615046591e+02 0.0 
0.0 0.0 -1.058722509674e+02 
-1.060737552746e+02 -1.299593814878e+00 0.0 
-1.299593814878e+00 -2.437983239045e+02 0.0 
0.0 0.0 -1.010109459341e+02 
-1.001462018821e+02 -1.834350713030e+00 0.0 
-1.834350713030e+00 -2.254430094180e+02 0.0 
0.0 0.0 -9.307853359258e+01 
-1.121232419325e+02 -7.435652090152e-01 0.0 
-7.435652090152e-01 -2.634510394473e+02 0.0 
0.0 0.0 -1.095456507193e+02 
-1.085503719520e+02 -7.315390119550e-01 0.0 
-7.315390119550e-01 -2.506025126580e+02 0.0 
0.0 0.0 -1.040727442941e+02 
-4.231778747702e+01 2.333637201638e+00 0.0 
2.333637201638e+00 -3.743538974837e+01 0.0 
0.0 0.0 -2.352595316762e+01 
-4.823983160971e+01 -2.433397930012e+01 0.0 
-2.433397930012e+01 -4.724744914494e+01 0.0 
0.0 0.0 -2.860868631596e+01 
-4.369338448532e+01 -2.479937298042e+01 0.0 
-2.479937298042e+01 -5.891260493926e+01 0.0 
0.0 0.0 -2.698028654806e+01 
-3.829177793411e+01 -1.597096123293e+01 0.0 
-1.597096123293e+01 -4.467518738886e+01 0.0 
0.0 0.0 -1.959023016909e+01 
-4.467273011068e+01 -2.247137581657e+01 0.0 
-2.247137581657e+01 -7.229177929454e+01 0.0 
0.0 0.0 -2.858517372371e+01 
-4.252823131910e+01 -2.498928218271e+01 0.0 
-2.498928218271e+01 -8.846800416495e+01 0.0 
0.0 0.0 -3.559854437906e+01 
-4.484296835966e+01 -2.217255496111e+01 0.0 
-2.217255496111e+01 -9.915236653534e+01 0.0 
0.0 0.0 -3.755563984292e+01 
-4.093508965678e+01 -2.139485151675e+01 0.0 
-2.139485151675e+01 -1.080640715855e+02 0.0 
0.0 0.0 -4.031357258545e+01 
-4.285896124329e+01 -2.854565098906e+01 0.0 
-2.854565098906e+01 -8.215219604570e+01 0.0 
0.0 0.0 -3.754295457273e+01 
-2.526828782596e+01 -6.380178224490e+00 0.0 
-6.380178224490e+00 -2.017806195674e+01 0.0 
0.0 0.0 -1.191199900209e+01 
-3.177066381831e+01 -9.932071197165e+00 0.0 
-9.932071197165e+00 -3.907493969704e+01 0.0 
0.0 0.0 -1.722219372683e+01 
-1.896254781813e+01 -3.084229424987e+00 0.0 
-3.084229424987e+00 -1.837297149064e+01 0.0 
0.0 0.0 -9.776924819403e+00 
-2.611618680061e+01 -6.310735558045e+00 0.0 
-6.310735558045e+00 -3.606448141480e+01 0.0 
0.0 0.0 -1.532872679592e+01 
-3.768676731904e+01 -1.211363826839e+01 0.0 
-1.211363826839e+01 -5.918392741782e+01 0.0 
0.0 0.0 -2.390293704525e+01 
-3.865904521578e+01 -1.046823738917e+01 0.0 
-1.046823738917e+01 -8.184393007300e+01 0.0 
0.0 0.0 -3.241487242181e+01 
-1.608575097953e+02 2.335820184370e+00 0.0 
2.335820184370e+00 -3.818552418137e+02 0.0 
0.0 0.0 -1.624138254827e+02 
-8.923964890965e+01 -9.904885592372e-01 0.0 
-9.904885592372e-01 -1.936737566392e+02 0.0 
0.0 0.0 -7.965775291248e+01 
-8.497805721161e+01 -2.084917288771e+00 0.0 
-2.084917288771e+00 -1.839355601074e+02 0.0 
0.0 0.0 -7.528067837490e+01 
-7.645894320427e+01 -2.229641800136e+00 0.0 
-2.229641800136e+00 -1.640122806072e+02 0.0 
0.0 0.0 -6.673832382140e+01 
-8.090792881577e+01 -3.153359423947e+00 0.0 
-3.153359423947e+00 -1.752491725950e+02 0.0 
0.0 0.0 -7.120536045790e+01 
-9.222524046162e+01 -1.822535513444e+00 0.0 
-1.822535513444e+00 -2.020321362805e+02 0.0 
0.0 0.0 -8.308110524977e+01 
-7.120400230634e+01 -1.147896669901e+00 0.0 
-1.147896669901e+00 -1.527180712505e+02 0.0 
0.0 0.0 -6.206710390969e+01 
-6.707335445112e+01 -2.255594958432e+00 0.0 
-2.255594958432e+00 -1.455363755293e+02 0.0 
0.0 0.0 -5.875300124843e+01 
-8.113359953180e+00 -6.920603313891e-02 0.0 
-6.920603313891e-02 -1.723732534146e+01 0.0 
0.0 0.0 -5.536018795256e+00 
-1.000565140663e+01 -2.319372477022e-01 0.0 
-2.319372477022e-01 -3.369955277020e+01 0.0 
0.0 0.0 -1.042388694567e+01 
-9.684611323416e+00 -2.542513018292e-01 0.0 
-2.542513018292e-01 -3.200400267514e+01 0.0 
0.0 0.0 -9.850484639082e+00 
-1.266822640268e+01 -5.165179663794e-01 0.0 
-5.165179663794e-01 -5.047868768914e+01 0.0 
0.0 0.0 -1.688846725951e+01 
-1.312597488405e+01 -6.910138662971e-01 0.0 
-6.910138662971e-01 -5.023790857431e+01 0.0 
0.0 0.0 -1.692102947182e+01 
-1.063745702701e+01 -4.674975001724e-01 0.0 
-4.674975001724e-01 -3.414183991122e+01 0.0 
0.0 0.0 -1.072118578837e+01 
-1.100447463726e+01 -7.654657166059e-01 0.0 
-7.654657166059e-01 -3.416102300195e+01 0.0 
0.0 0.0 -1.091425867521e+01 
-8.718762975964e+00 -3.484868307435e-01 0.0 
-3.484868307435e-01 -1.706538662480e+01 0.0 
0.0 0.0 -5.660243402748e+00 
-1.155533149198e+01 -9.129872681483e-01 0.0 
-9.129872681483e-01 -3.390747373615e+01 0.0 
0.0 0.0 -1.116765856584e+01 
-1.484026359443e+01 -1.555680618156e+00 0.0 
-1.555680618156e+00 -5.115322351280e+01 0.0 
0.0 0.0 -1.772972128991e+01 
-9.095314688677e+00 -4.289835261005e-01 0.0 
-4.289835261005e-01 -1.646034729066e+01 0.0 
0.0 0.0 -5.670475133741e+00 
-6.991170064002e+01 8.225770686677e-01 0.0 
8.225770686677e-01 -1.295772422822e+02 0.0 
0.0 0.0 -5.944668287667e+01 
-7.337936831525e+01 1.674653613523e+00 0.0 
1.674653613523e+00 -1.406513246500e+02 0.0 
0.0 0.0 -6.380920788957e+01 
-1.585448284830e+02 1.052206502601e+01 0.0 
1.052206502601e+01 -3.806485018649e+02 0.0 
0.0 0.0 -1.613579991043e+02 
-4.030566563534e+01 1.317066174336e+00 0.0 
1.317066174336e+00 -3.907463150345e+01 0.0 
0.0 0.0 -2.341408914164e+01 
-1.303337998375e+01 -7.151224963219e-01 0.0 
-7.151224963219e-01 -1.692902493101e+01 0.0 
0.0 0.0 -8.304592820996e+00 
-9.123122926788e+01 6.527015927264e+00 0.0 
6.527015927264e+00 -2.031922254855e+02 0.0 
0.0 0.0 -8.792703642601e+01 
-9.439924618905e+01 1.222625366826e+01 0.0 
1.222625366826e+01 -2.096643889205e+02 0.0 
0.0 0.0 -9.081909053287e+01 
-9.348750092337e+01 1.024115802768e+01 0.0 
1.024115802768e+01 -2.087076159211e+02 0.0 
0.0 0.0 -9.025853505335e+01 
-1.457190235410e+02 4.328885443304e-01 0.0 
4.328885443304e-01 -3.522377211252e+02 0.0 
0.0 0.0 -1.489870233999e+02 
-1.505644879530e+02 9.825360924756e-01 0.0 
9.825360924756e-01 -3.617479421201e+02 0.0 
0.0 0.0 -1.532937290219e+02 
-9.044648268292e+01 3.617856460666e+00 0.0 
3.617856460666e+00 -2.029154291604e+02 0.0 
0.0 0.0 -8.760857355298e+01 
-5.785852724904e+01 -1.157678786260e+01 0.0 
-1.157678786260e+01 -1.321217218504e+02 0.0 
0.0 0.0 -5.291842322024e+01 
-1.054407183212e+02 3.112394260384e+01 0.0 
3.112394260384e+01 -2.220236853412e+02 0.0 
0.0 0.0 -9.783932109872e+01 
-8.297191371895e+01 6.312222271670e+00 0.0 
6.312222271670e+00 -1.670044136537e+02 0.0 
0.0 0.0 -7.459289821179e+01 
-3.908214395033e+01 2.213219492187e+01 0.0 
2.213219492187e+01 -1.164848019758e+02 0.0 
0.0 0.0 -4.221201017504e+01 
-5.560516698096e+01 -1.642537036553e+01 0.0 
-1.642537036553e+01 -1.317521686021e+02 0.0 
0.0 0.0 -5.327971548940e+01 
-1.204954951409e+02 6.965048342385e-02 0.0 
6.965048342385e-02 -2.943116458077e+02 0.0 
0.0 0.0 -1.228986213638e+02 
-1.080601667495e+02 -7.415447881298e-01 0.0 
-7.415447881298e-01 -2.730495951725e+02 0.0 
0.0 0.0 -1.121950494562e+02 
-1.357012603966e+02 2.057331164521e+00 0.0 
2.057331164521e+00 -3.350643914241e+02 0.0 
0.0 0.0 -1.408296955462e+02 
-1.137820636609e+02 -6.637270457827e-01 0.0 
-6.637270457827e-01 -2.778292338877e+02 0.0 
0.0 0.0 -1.152080718879e+02 
-1.261776023399e+02 2.416202962528e+00 0.0 
2.416202962528e+00 -3.189262507077e+02 0.0 
0.0 0.0 -1.330864054037e+02 
-1.427980260466e+02 1.723294662136e+01 0.0 
1.723294662136e+01 -3.568634171890e+02 0.0 
0.0 0.0 -1.494984329707e+02 
-2.594494122483e+01 -2.351085321422e+00 0.0 
-2.351085321422e+00 -8.004753620776e+01 0.0 
0.0 0.0 -3.001322210384e+01 
-6.250092357980e+01 4.332641248555e+00 0.0 
4.332641248555e+00 -9.287418309103e+01 0.0 
0.0 0.0 -4.621253200125e+01 
-5.658424702341e+01 2.076271159274e+00 0.0 
2.076271159274e+00 -8.482734249212e+01 0.0 
0.0 0.0 -4.202347685466e+01 
-7.491086138946e+01 5.641007232309e+00 0.0 
5.641007232309e+00 -1.352632907612e+02 0.0 
0.0 0.0 -6.265224564518e+01 
-6.151669702125e+01 -7.012716478843e+00 0.0 
-7.012716478843e+00 -1.368409575444e+02 0.0 
0.0 0.0 -5.358966599178e+01 
-9.644196937036e+01 -2.774916143447e+00 0.0 
-2.774916143447e+00 -2.165238224670e+02 0.0 
0.0 0.0 -8.892554086977e+01 
-3.504898779454e+01 -7.138293064200e+00 0.0 
-7.138293064200e+00 -8.604011080552e+01 0.0 
0.0 0.0 -3.255678147175e+01 
-1.228915319099e+02 3.654038900761e+01 0.0 
3.654038900761e+01 -2.960979645739e+02 0.0 
0.0 0.0 -1.252968489451e+02 
-6.624123405984e+01 3.322614010153e+01 0.0 
3.322614010153e+01 -1.187214029291e+02 0.0 
0.0 0.0 -5.265109981521e+01 
-8.471220878420e+01 -4.178876423762e+00 0.0 
-4.178876423762e+00 -2.335208204851e+02 0.0 
0.0 0.0 -9.618830971246e+01 
-7.990211667385e+01 -7.685687096895e+00 0.0 
-7.685687096895e+00 -1.824308011390e+02 0.0 
0.0 0.0 -7.332096923938e+01 
-6.220468195608e+01 -1.278542679101e+01 0.0 
-1.278542679101e+01 -1.451911936737e+02 0.0 
0.0 0.0 -5.866031529667e+01 
-5.341433502008e+01 -1.750090891034e+01 0.0 
-1.750090891034e+01 -1.266145194205e+02 0.0 
0.0 0.0 -5.068286739111e+01 
-6.052605272273e+01 2.994860469154e+01 0.0 
2.994860469154e+01 -1.678653248738e+02 0.0 
0.0 0.0 -6.789582267305e+01 
-8.761048696644e+01 -6.543155743103e+00 0.0 
-6.543155743103e+00 -2.188045439477e+02 0.0 
0.0 0.0 -8.924085331963e+01 
-1.149933449493e+02 4.034898354330e+00 0.0 
4.034898354330e+00 -3.050672822231e+02 0.0 
0.0 0.0 -1.255788460322e+02 
-7.730198575118e+01 5.283188763789e+00 0.0 
5.283188763789e+00 -1.462648498380e+02 0.0 
0.0 0.0 -6.667005067674e+01 
-1.122008664627e+01 -5.985743053900e-01 0.0 
-5.985743053900e-01 -1.890408914652e+01 0.0 
0.0 0.0 -7.705531239444e+00 
-1.190529075422e+02 5.795340514781e+00 0.0 
5.795340514781e+00 -3.151332934888e+02 0.0 
0.0 0.0 -1.298558603093e+02 
-9.970563371287e+01 -1.925206977836e+00 0.0 
-1.925206977836e+00 -2.572366801647e+02 0.0 
0.0 0.0 -1.047381853941e+02 
-7.017658445493e+01 8.485995713946e+00 0.0 
8.485995713946e+00 -1.030284691997e+02 0.0 
0.0 0.0 -5.156151609640e+01 
-1.052390801375e+02 1.916804664269e+01 0.0 
1.916804664269e+01 -2.963175603885e+02 0.0 
0.0 0.0 -1.202870616636e+02 
-4.784142706920e+01 -2.074789767875e+01 0.0 
-2.074789767875e+01 -1.012001337186e+02 0.0 
0.0 0.0 -3.860861095018e+01 
-8.095687555706e+01 9.828259466594e+00 0.0 
9.828259466594e+00 -1.449725162043e+02 0.0 
0.0 0.0 -6.737881752841e+01 
-9.566541100578e+01 2.034956520078e+01 0.0 
2.034956520078e+01 -1.913028218228e+02 0.0 
0.0 0.0 -8.569046984857e+01 
-6.534701166731e+01 9.515269477017e+00 0.0 
9.515269477017e+00 -8.240560892040e+01 0.0 
0.0 0.0 -4.392578617631e+01 
-2.411804542114e+01 -4.715507744188e+00 0.0 
-4.715507744188e+00 -6.538584379276e+01 0.0 
0.0 0.0 -2.401786152632e+01 
-5.411848008008e+01 2.781471447779e+00 0.0 
2.781471447779e+00 -7.219885640242e+01 0.0 
0.0 0.0 -3.749520094475e+01 
-1.394529104576e+02 1.121562802125e+01 0.0 
1.121562802125e+01 -3.518810718377e+02 0.0 
0.0 0.0 -1.470001946886e+02 
-8.911699497789e+01 2.078327825015e+01 0.0 
2.078327825015e+01 -1.543402301763e+02 0.0 
0.0 0.0 -7.263716754626e+01 
-5.536680966809e+01 -5.725158021495e+00 0.0 
-5.725158021495e+00 -1.245752972482e+02 0.0 
0.0 0.0 -4.835494832526e+01 
-7.021580093130e+01 7.901134468231e+00 0.0 
7.901134468231e+00 -2.328308400237e+02 0.0 
0.0 0.0 -9.557614498838e+01 
-6.538206589371e+01 3.266364741429e+01 0.0 
3.266364741429e+01 -1.543408522618e+02 0.0 
0.0 0.0 -6.278510921568e+01 
-5.732513226418e+01 2.143422072650e+01 0.0 
2.143422072650e+01 -3.891332513079e+01 0.0 
0.0 0.0 -2.728511183892e+01 
-8.591362956126e+01 7.958491187219e+00 0.0 
7.958491187219e+00 -1.764630668291e+02 0.0 
0.0 0.0 -7.831300891711e+01 
-6.942127442798e+01 2.492856569489e+01 0.0 
2.492856569489e+01 -2.127872491937e+02 0.0 
0.0 0.0 -8.661945214340e+01 
-1.180114292056e+02 1.724308698937e+01 0.0 
1.724308698937e+01 -3.187642331771e+02 0.0 
0.0 0.0 -1.306326987148e+02 
-8.568216749360e+01 1.175547374482e+01 0.0 
1.175547374482e+01 -2.664015935338e+02 0.0 
0.0 0.0 -1.095060228428e+02 
-6.030703930879e+01 -4.517441985214e+00 0.0 
-4.517441985214e+00 -1.333117654404e+02 0.0 
0.0 0.0 -5.249140958302e+01 
-1.302219822957e+02 5.140827198715e+00 0.0 
5.140827198715e+00 -3.318090540780e+02 0.0 
0.0 0.0 -1.382093109121e+02 
-6.560038061337e+01 1.730388873590e+01 0.0 
1.730388873590e+01 -2.176573210692e+02 0.0 
0.0 0.0 -8.831072547549e+01 
-8.657485385819e+01 1.161656824286e+01 0.0 
1.161656824286e+01 -1.662885421037e+02 0.0 
0.0 0.0 -7.545901878858e+01 
-9.205379643153e+01 3.314502006923e+01 0.0 
3.314502006923e+01 -2.294285222130e+02 0.0 
0.0 0.0 -9.604469559336e+01 
-5.638432599030e+01 8.843544492727e+00 0.0 
8.843544492727e+00 -1.937869830568e+02 0.0 
0.0 0.0 -7.389972798763e+01 
-8.771092118297e+01 1.569439014755e+01 0.0 
1.569439014755e+01 -1.578459432577e+02 0.0 
0.0 0.0 -7.326705933220e+01 
-7.894122686227e+01 -2.012675582152e+00 0.0 
-2.012675582152e+00 -2.353412437714e+02 0.0 
0.0 0.0 -9.700252074418e+01 
-1.101906107434e+02 2.163330845744e+01 0.0 
2.163330845744e+01 -3.022040291666e+02 0.0 
0.0 0.0 -1.233183919730e+02 
-6.357817811046e+01 3.343274100278e+01 0.0 
3.343274100278e+01 -1.183234496756e+02 0.0 
0.0 0.0 -5.072175863336e+01 
-7.782795631390e+01 3.314884290952e+01 0.0 
3.314884290952e+01 -1.923968432286e+02 0.0 
0.0 0.0 -8.006638475127e+01 
-8.567222506153e+01 3.331928935382e+01 0.0 
3.331928935382e+01 -1.800775561078e+02 0.0 
0.0 0.0 -7.932493435079e+01 
-7.400353036951e+01 2.982898861904e+01 0.0 
2.982898861904e+01 -2.050872658795e+02 0.0 
0.0 0.0 -8.290878419431e+01 
-1.179664705205e+02 -3.059404355509e-01 0.0 
-3.059404355509e-01 -2.833850542714e+02 0.0 
0.0 0.0 -1.182296456183e+02 
-1.247003471338e+02 5.478720418322e+00 0.0 
5.478720418322e+00 -3.235322442211e+02 0.0 
0.0 0.0 -1.340697774065e+02 
-3.732397824726e+01 -8.052023632120e+00 0.0 
-8.052023632120e+00 -1.320197119215e+02 0.0 
0.0 0.0 -4.937155173423e+01 
-5.151393825290e+01 3.146444102916e+01 0.0 
3.146444102916e+01 -1.324992929763e+02 0.0 
0.0 0.0 -5.377680734563e+01 
-7.342962683337e+01 1.195558367795e+01 0.0 
1.195558367795e+01 -1.047333323824e+02 0.0 
0.0 0.0 -5.304888776472e+01 
-1.100063965393e+02 3.263340392364e+01 0.0 
3.263340392364e+01 -2.787874119325e+02 0.0 
0.0 0.0 -1.162381425416e+02 
-9.145989270654e+01 1.316088911155e+01 0.0 
1.316088911155e+01 -1.875238781124e+02 0.0 
0.0 0.0 -8.329513124567e+01 
-6.037674765291e+01 3.287248085762e+01 0.0 
3.287248085762e+01 -1.357766444547e+02 0.0 
0.0 0.0 -5.543035486992e+01 
-1.255996759998e+02 3.767282862942e+00 0.0 
3.767282862942e+00 -3.214159307116e+02 0.0 
0.0 0.0 -1.337046820134e+02 
-9.236713823029e+01 1.759281599061e+01 0.0 
1.759281599061e+01 -1.790719924637e+02 0.0 
0.0 0.0 -8.103173920820e+01 
-9.235866016892e+01 -5.332278352232e+00 0.0 
-5.332278352232e+00 -2.266718982617e+02 0.0 
0.0 0.0 -9.198888073608e+01 
-3.377006062602e+01 -8.819665903611e-01 0.0 
-8.819665903611e-01 -9.169834821781e+01 0.0 
0.0 0.0 -3.538120657178e+01 
-3.926373930714e+01 2.602938539847e+01 0.0 
2.602938539847e+01 -1.034736456928e+02 0.0 
0.0 0.0 -3.976007925085e+01 
-4.715837943923e+01 7.553753954625e+00 0.0 
7.553753954625e+00 -1.663655783038e+02 0.0 
0.0 0.0 -6.054711631310e+01 
-6.612920243221e+01 2.297153137085e+01 0.0 
2.297153137085e+01 -2.091343493731e+02 0.0 
0.0 0.0 -8.512643602734e+01 
-9.841999239831e+01 -3.332455571752e+00 0.0 
-3.332455571752e+00 -2.460535390711e+02 0.0 
0.0 0.0 -1.000150363051e+02 
-1.029439866899e+02 2.799088529051e+01 0.0 
2.799088529051e+01 -2.159113586895e+02 0.0 
0.0 0.0 -9.525660361383e+01 
-1.307893866794e+02 3.550639333081e+00 0.0 
3.550639333081e+00 -3.295099450814e+02 0.0 
0.0 0.0 -1.376897995282e+02 
-1.112563046390e+02 8.870474191842e+00 0.0 
8.870474191842e+00 -3.067137936116e+02 0.0 
0.0 0.0 -1.249910294752e+02 
-4.830873956812e+01 3.508360755916e+01 0.0 
3.508360755916e+01 -4.392637084138e+01 0.0 
0.0 0.0 -2.517408449951e+01 
-6.049408898804e+01 2.611629446509e+01 0.0 
2.611629446509e+01 -6.057687847303e+01 0.0 
0.0 0.0 -3.450543370901e+01 
-1.358986266891e+02 3.276191146625e+00 0.0 
3.276191146625e+00 -3.376786169247e+02 0.0 
0.0 0.0 -1.416731730841e+02 
-7.494916330652e+01 6.071980869235e+00 0.0 
6.071980869235e+00 -2.421720780845e+02 0.0 
0.0 0.0 -1.001879888898e+02 
-1.163227663727e+02 2.062032662317e+01 0.0 
2.062032662317e+01 -3.136038199048e+02 0.0 
0.0 0.0 -1.285779758833e+02 
-1.025276400552e+02 -1.096886102331e+00 0.0 
-1.096886102331e+00 -2.315921518413e+02 0.0 
0.0 0.0 -9.590117337158e+01 
-1.248685274869e+02 3.558776160170e+01 0.0 
3.558776160170e+01 -3.037674545292e+02 0.0 
0.0 0.0 -1.281907946048e+02 
-4.907830995710e+01 3.075294971909e+01 0.0 
3.075294971909e+01 -5.951156648564e+01 0.0 
0.0 0.0 -2.727057540444e+01 
-1.409377115575e+02 2.917860178654e+00 0.0 
2.917860178654e+00 -3.461534921676e+02 0.0 
0.0 0.0 -1.457273611175e+02 
-1.089489861355e+02 1.207278615625e+01 0.0 
1.207278615625e+01 -3.048601536109e+02 0.0 
0.0 0.0 -1.239106663347e+02 
-4.796961717916e+01 2.504954183945e+01 0.0 
2.504954183945e+01 -1.448899851632e+02 0.0 
0.0 0.0 -5.494867576037e+01 
-3.569633352136e+01 1.592571871710e-01 0.0 
1.592571871710e-01 -3.620229033477e+01 0.0 
0.0 0.0 -2.116958715684e+01 
-1.525118380194e+02 3.386953279020e+00 0.0 
3.386953279020e+00 -3.674321411002e+02 0.0 
0.0 0.0 -1.555831937359e+02 
-1.200589563006e+02 1.384360532497e+01 0.0 
1.384360532497e+01 -3.227473932384e+02 0.0 
0.0 0.0 -1.324419048617e+02 
-7.976378409506e+01 2.966757660741e+01 0.0 
2.966757660741e+01 -2.226125311432e+02 0.0 
0.0 0.0 -9.019058254903e+01 
-7.368682660146e+01 2.104252616956e+00 0.0 
2.104252616956e+00 -2.349433055678e+02 0.0 
0.0 0.0 -9.670218458237e+01 
-5.074804221518e+01 2.822594181360e+01 0.0 
2.822594181360e+01 -3.718953471181e+01 0.0 
0.0 0.0 -2.337508697000e+01 
-1.025179505599e+02 -2.557490518465e+00 0.0 
-2.557490518465e+00 -2.539393331350e+02 0.0 
0.0 0.0 -1.036013996584e+02 
-8.116572099636e+01 3.368842441268e+01 0.0 
3.368842441268e+01 -1.938981393836e+02 0.0 
0.0 0.0 -8.191887588823e+01 
-1.015862044595e+02 2.426562755639e+01 0.0 
2.426562755639e+01 -2.248211875494e+02 0.0 
0.0 0.0 -9.752221760266e+01 
-1.245361527277e+02 1.629256616740e+01 0.0 
1.629256616740e+01 -3.292353074823e+02 0.0 
0.0 0.0 -1.357314380630e+02 
-8.283968384897e+01 2.539542374413e+01 0.0 
2.539542374413e+01 -1.341696838835e+02 0.0 
0.0 0.0 -6.470281031974e+01 
-1.006771578540e+02 -3.403268012384e+00 0.0 
-3.403268012384e+00 -2.424822166333e+02 0.0 
0.0 0.0 -9.886030532610e+01 
-8.720467162606e+01 2.293833221830e+01 0.0 
2.293833221830e+01 -2.595972870795e+02 0.0 
0.0 0.0 -1.047351808491e+02 
-1.375170506863e+01 -9.967215264681e-01 0.0 
-9.967215264681e-01 -5.045983023157e+01 0.0 
0.0 0.0 -1.717764512988e+01 
-5.448522219060e+01 3.007494611837e+01 0.0 
3.007494611837e+01 -5.852753080101e+01 0.0 
0.0 0.0 -3.053018721626e+01 
-1.044701797632e+02 -2.582529629546e+00 0.0 
-2.582529629546e+00 -2.504448928525e+02 0.0 
0.0 0.0 -1.028202954274e+02 
-5.028116204271e+01 2.762489016162e+00 0.0 
2.762489016162e+00 -1.749004936667e+02 0.0 
0.0 0.0 -6.468008054957e+01 
-7.953559086039e+01 1.559821602229e+00 0.0 
1.559821602229e+00 -2.440428033438e+02 0.0 
0.0 0.0 -1.009145311643e+02 
-1.312216597947e+02 2.802876666308e+01 0.0 
2.802876666308e+01 -3.301955232015e+02 0.0 
0.0 0.0 -1.380251548988e+02 
-1.080948994666e+02 -1.836794200007e+00 0.0 
-1.836794200007e+00 -2.585277077909e+02 0.0 
0.0 0.0 -1.067077388122e+02 
-5.496334412477e+01 3.900284649001e+00 0.0 
3.900284649001e+00 -1.886583437457e+02 0.0 
0.0 0.0 -7.145827192756e+01 
-1.115465857758e+02 -1.185330868981e+00 0.0 
-1.185330868981e+00 -2.666722389636e+02 0.0 
0.0 0.0 -1.105419263353e+02 
-4.464745356620e+01 2.841099358584e+01 0.0 
2.841099358584e+01 -3.827007836113e+01 0.0 
0.0 0.0 -2.017885513932e+01 
-8.629003824704e+01 2.811421391196e+01 0.0 
2.811421391196e+01 -1.514822522389e+02 0.0 
0.0 0.0 -7.093168714579e+01 
-1.148293007640e+02 -6.393588435302e-01 0.0 
-6.393588435302e-01 -2.748531853775e+02 0.0 
0.0 0.0 -1.143499561051e+02 
-8.827684154711e+01 3.360071696106e+01 0.0 
3.360071696106e+01 -2.127813975677e+02 0.0 
0.0 0.0 -8.991747173445e+01 
-1.676255972367e+01 -2.062990863384e+00 0.0 
-2.062990863384e+00 -5.288251568620e+01 0.0 
0.0 0.0 -1.876760756234e+01 
-8.300636386502e+01 2.800590517777e+01 0.0 
2.800590517777e+01 -2.370213421874e+02 0.0 
0.0 0.0 -9.583009949669e+01 
-1.404023340080e+02 8.052194199783e-01 0.0 
8.052194199783e-01 -3.420086411420e+02 0.0 
0.0 0.0 -1.443232925450e+02 
-6.810786422676e+01 -1.340668645744e+01 0.0 
-1.340668645744e+01 -1.714659353254e+02 0.0 
0.0 0.0 -6.978132221593e+01 
-8.580232259377e+01 1.687781715955e+00 0.0 
1.687781715955e+00 -2.529154842140e+02 0.0 
0.0 0.0 -1.046508359749e+02 
-9.242302253856e+01 2.907780659932e+01 0.0 
2.907780659932e+01 -1.737632772693e+02 0.0 
0.0 0.0 -7.945588994236e+01 
-4.266417437278e+01 2.858341903515e+01 0.0 
2.858341903515e+01 -3.847775137480e+01 0.0 
0.0 0.0 -1.908380362890e+01 
-9.259579638087e+01 4.669382614429e+00 0.0 
4.669382614429e+00 -2.705721085545e+02 0.0 
0.0 0.0 -1.111942777099e+02 
-9.621633064553e+01 3.388792422787e+01 0.0 
3.388792422787e+01 -2.317597821074e+02 0.0 
0.0 0.0 -9.799283382588e+01 
-8.701556936588e+01 2.636227775140e+01 0.0 
2.636227775140e+01 -2.506443382859e+02 0.0 
0.0 0.0 -1.012177663730e+02 
-7.184519775911e+01 2.263575700535e+01 0.0 
2.263575700535e+01 -2.257268934965e+02 0.0 
0.0 0.0 -9.221295058221e+01 
-1.011754806209e+02 6.888842669951e+00 0.0 
6.888842669951e+00 -2.885111341724e+02 0.0 
0.0 0.0 -1.173746847274e+02 
-4.608005443262e+01 3.107025849616e+01 0.0 
3.107025849616e+01 -5.968246982030e+01 0.0 
0.0 0.0 -2.709965870947e+01 
-5.428189213227e+01 -1.331616086459e+01 0.0 
-1.331616086459e+01 -1.240487043409e+02 0.0 
0.0 0.0 -4.993919124448e+01 
-4.644363586106e+01 -1.259956806406e+01 0.0 
-1.259956806406e+01 -1.029807188297e+02 0.0 
0.0 0.0 -4.123594627875e+01 
-5.856017189920e+01 2.659056698201e-01 0.0 
2.659056698201e-01 -1.962473000466e+02 0.0 
0.0 0.0 -7.597789978301e+01 
-1.001444230920e+02 3.445153506642e+01 0.0 
3.445153506642e+01 -2.342072569940e+02 0.0 
0.0 0.0 -9.990550402579e+01 
-1.778288176555e+01 -1.177641184243e+00 0.0 
-1.177641184243e+00 -6.709660613266e+01 0.0 
0.0 0.0 -2.431780234868e+01 
-9.283960092192e+01 3.196079204639e+01 0.0 
3.196079204639e+01 -1.865981031304e+02 0.0 
0.0 0.0 -8.343131121571e+01 
-3.825327823957e+01 -1.060994041609e+01 0.0 
-1.060994041609e+01 -7.477166931162e+01 0.0 
0.0 0.0 -2.975073373209e+01 
-5.773694616524e+01 -4.628636320159e+00 0.0 
-4.628636320159e+00 -1.885431920297e+02 0.0 
0.0 0.0 -7.315133854797e+01 
-1.027122096310e+02 2.595886130805e+01 0.0 
2.595886130805e+01 -2.821393229325e+02 0.0 
0.0 0.0 -1.150554597690e+02 
-5.661453898443e+01 5.643968285279e-01 0.0 
5.643968285279e-01 -9.057085430182e+01 0.0 
0.0 0.0 -4.375561798588e+01 
-6.187618973795e+01 -6.980566313523e+00 0.0 
-6.980566313523e+00 -1.944298276811e+02 0.0 
0.0 0.0 -7.752536501777e+01 
-4.792088003733e+01 -1.017523108792e+00 0.0 
-1.017523108792e+00 -1.121395401362e+02 0.0 
0.0 0.0 -4.442360252827e+01 
-6.118174109446e+01 -1.080938271030e+01 0.0 
-1.080938271030e+01 -1.844305819330e+02 0.0 
0.0 0.0 -7.379777745400e+01 
-7.832709982410e+01 2.261927141127e+01 0.0 
2.261927141127e+01 -2.424916148015e+02 0.0 
0.0 0.0 -9.848759809402e+01 
-6.557682915644e+01 -1.169273096224e+01 0.0 
-1.169273096224e+01 -1.902739711946e+02 0.0 
0.0 0.0 -7.698577938585e+01 
-6.460859716100e+01 -1.397133723781e+01 0.0 
-1.397133723781e+01 -1.781411597044e+02 0.0 
0.0 0.0 -7.213533267036e+01 
-8.816894477514e+01 7.324493339749e+00 0.0 
7.324493339749e+00 -1.879049871909e+02 0.0 
0.0 0.0 -8.242217958982e+01 
-6.992907627338e+01 -1.259229499519e+01 0.0 
-1.259229499519e+01 -1.841699343891e+02 0.0 
0.0 0.0 -7.505054517046e+01 
-9.153084036670e+01 2.172329863406e+00 0.0 
2.172329863406e+00 -2.063575417352e+02 0.0 
0.0 0.0 -8.896651463056e+01 
-1.617165925156e+02 1.090088491237e+00 0.0 
1.090088491237e+00 -3.830029927840e+02 0.0 
0.0 0.0 -1.630158755899e+02 
-4.158354382923e+01 2.596035947003e-01 0.0 
2.596035947003e-01 -5.129302984301e+01 0.0 
0.0 0.0 -2.746297210167e+01 
-4.198888164014e+01 2.933390868145e+01 0.0 
2.933390868145e+01 -3.524354973814e+01 0.0 
0.0 0.0 -1.924166085882e+01 
-7.940265134504e+01 2.258853622958e+00 0.0 
2.258853622958e+00 -1.111630520195e+02 0.0 
0.0 0.0 -5.804945957254e+01 
-4.506411252781e+01 3.144759446886e+01 0.0 
3.144759446886e+01 -6.157046622180e+01 0.0 
0.0 0.0 -2.892730454875e+01 
-6.142413557539e+01 -1.541819543649e+01 0.0 
-1.541819543649e+01 -1.516735117995e+02 0.0 
0.0 0.0 -6.156146338053e+01 
-9.257812338680e+01 3.359722693113e+01 0.0 
3.359722693113e+01 -2.002950228254e+02 0.0 
0.0 0.0 -8.746194386365e+01 
-4.206466704693e+01 2.472124118854e-01 0.0 
2.472124118854e-01 -5.197798605669e+01 0.0 
0.0 0.0 -2.781279593109e+01 
-5.854087493915e+01 -1.477851194374e+01 0.0 
-1.477851194374e+01 -1.379328384645e+02 0.0 
0.0 0.0 -5.588424214254e+01 
-1.123061626558e+02 3.609125571532e+01 0.0 
3.609125571532e+01 -2.520241514931e+02 0.0 
0.0 0.0 -1.088990942447e+02 
-1.378086013601e+02 3.556899652968e+01 0.0 
3.556899652968e+01 -3.305440466242e+02 0.0 
0.0 0.0 -1.401057943953e+02 
-6.682448489412e+01 1.287928515848e+00 0.0 
1.287928515848e+00 -1.196332745071e+02 0.0 
0.0 0.0 -5.553732782037e+01 
-1.224524185148e+02 1.962038854369e+01 0.0 
1.962038854369e+01 -3.241028313465e+02 0.0 
0.0 0.0 -1.335665749584e+02 
-9.215167242672e+01 2.499040803686e+01 0.0 
2.499040803686e+01 -2.642129872115e+02 0.0 
0.0 0.0 -1.067367400524e+02 
-8.115371161213e+01 1.089583068961e+00 0.0 
1.089583068961e+00 -1.679949818639e+02 0.0 
0.0 0.0 -7.434460804282e+01 
-3.622783409804e+01 6.508224914296e-01 0.0 
6.508224914296e-01 -3.486618177310e+01 0.0 
0.0 0.0 -2.092820476134e+01 
-2.212259040344e+01 -4.259073567012e+00 0.0 
-4.259073567012e+00 -3.433298500967e+01 0.0 
0.0 0.0 -1.465396027500e+01 
-1.211570024358e+02 -4.866665443690e-02 0.0 
-4.866665443690e-02 -2.932994530046e+02 0.0 
0.0 0.0 -1.226718013899e+02 
-4.331460861403e+01 2.998714782199e+01 0.0 
2.998714782199e+01 -3.483946598878e+01 0.0 
0.0 0.0 -2.028247290732e+01 
-4.499996681149e+01 3.130947443365e+01 0.0 
3.130947443365e+01 -5.745653107550e+01 0.0 
0.0 0.0 -2.753362397775e+01 
-4.574215210565e+01 3.224052557001e+01 0.0 
3.224052557001e+01 -5.934981527174e+01 0.0 
0.0 0.0 -2.743911887239e+01 
-6.410458961679e+01 -3.328000621727e+00 0.0 
-3.328000621727e+00 -1.400800955296e+02 0.0 
0.0 0.0 -5.595889567459e+01 
-4.151619888813e+01 -1.654609547596e+01 0.0 
-1.654609547596e+01 -6.117064015685e+01 0.0 
0.0 0.0 -2.436613037003e+01 
-4.496732851231e+01 3.059305980200e+01 0.0 
3.059305980200e+01 -3.856465093578e+01 0.0 
0.0 0.0 -2.163760225178e+01 
-1.381395124071e+02 2.327510256033e+01 0.0 
2.327510256033e+01 -3.459521939206e+02 0.0 
0.0 0.0 -1.448275118983e+02 
-4.816494242968e+01 2.774840369444e+00 0.0 
2.774840369444e+00 -5.326146784154e+01 0.0 
0.0 0.0 -3.002792308137e+01 
-1.070638819138e+02 2.806973790720e+01 0.0 
2.806973790720e+01 -2.860151332271e+02 0.0 
0.0 0.0 -1.175237045423e+02 
-4.622274412621e+01 3.176139413153e+01 0.0 
3.176139413153e+01 -4.006207850837e+01 0.0 
0.0 0.0 -2.190616261758e+01 
-9.641720773536e+01 1.954732646006e+01 0.0 
1.954732646006e+01 -2.002466014757e+02 0.0 
0.0 0.0 -8.859914276330e+01 
-1.302809218116e+02 3.122649615554e+01 0.0 
3.122649615554e+01 -3.238428705768e+02 0.0 
0.0 0.0 -1.358371377165e+02 
-1.608784744166e+02 7.473518827940e+00 0.0 
7.473518827940e+00 -3.838311148086e+02 0.0 
0.0 0.0 -1.630128767675e+02 
-1.179874880384e+02 2.939709176496e+01 0.0 
2.939709176496e+01 -3.042568133008e+02 0.0 
0.0 0.0 -1.262732904018e+02 
-4.613795048392e+01 3.409472586781e+01 0.0 
3.409472586781e+01 -6.336076730010e+01 0.0 
0.0 0.0 -2.844600034044e+01 
-6.427083649332e+01 1.065181039037e+01 0.0 
1.065181039037e+01 -7.547563702621e+01 0.0 
0.0 0.0 -4.152394205586e+01 
-1.206233450644e+02 3.722589793032e+01 0.0 
3.722589793032e+01 -2.875475311641e+02 0.0 
0.0 0.0 -1.220512628685e+02 
-7.264540132384e+01 2.204703543423e+00 0.0 
2.204703543423e+00 -1.358167437775e+02 0.0 
0.0 0.0 -6.213864353039e+01 
-1.624427889265e+02 5.219863617441e+00 0.0 
5.219863617441e+00 -3.856219760713e+02 0.0 
0.0 0.0 -1.640194294993e+02 
-5.082155319501e+01 4.371725786384e+00 0.0 
4.371725786384e+00 -5.186227483886e+01 0.0 
0.0 0.0 -3.040514841016e+01 
-8.757842013531e+01 4.666139604113e+00 0.0 
4.666139604113e+00 -1.896893830395e+02 0.0 
0.0 0.0 -8.278034095244e+01 
-3.797674148636e+01 -1.597338659204e+01 0.0 
-1.597338659204e+01 -1.206613970620e+02 0.0 
0.0 0.0 -4.454441964103e+01 
-8.702625971573e+01 2.326802316440e+00 0.0 
2.326802316440e+00 -1.894789333369e+02 0.0 
0.0 0.0 -8.255155791580e+01 
-9.968276456807e+01 3.424498110281e+01 0.0 
3.424498110281e+01 -2.206591262061e+02 0.0 
0.0 0.0 -9.570256723225e+01 
-5.271540914111e+01 1.256445296532e+00 0.0 
1.256445296532e+00 -7.621192026395e+01 0.0 
0.0 0.0 -3.827819882152e+01 
-6.881804537630e+01 1.661232341764e+01 0.0 
1.661232341764e+01 -8.203183166197e+01 0.0 
0.0 0.0 -4.485496311148e+01 
-1.551949187181e+02 1.594612195562e+00 0.0 
1.594612195562e+00 -3.706924810193e+02 0.0 
0.0 0.0 -1.573662199212e+02 
-1.079428150652e+02 3.326468613909e+01 0.0 
3.326468613909e+01 -2.347715104480e+02 0.0 
0.0 0.0 -1.024142976540e+02 
-4.551098072932e+01 3.559830092638e+01 0.0 
3.559830092638e+01 -7.057244448202e+01 0.0 
0.0 0.0 -3.250996183826e+01 
-6.714509870332e+01 1.673704776733e+00 0.0 
1.673704776733e+00 -1.186121927003e+02 0.0 
0.0 0.0 -5.532718742108e+01 
-8.070359770407e+01 -4.149180759889e+00 0.0 
-4.149180759889e+00 -1.760040232025e+02 0.0 
0.0 0.0 -7.102407104225e+01 
-4.273982258281e+01 -2.049399716648e+01 0.0 
-2.049399716648e+01 -1.047800038523e+02 0.0 
0.0 0.0 -4.559286316069e+01 
-1.497356325905e+02 9.055626856838e+00 0.0 
9.055626856838e+00 -3.669522652539e+02 0.0 
0.0 0.0 -1.546063693533e+02 
-1.063226423371e+02 3.514331960454e+01 0.0 
3.514331960454e+01 -2.397985580239e+02 0.0 
0.0 0.0 -1.034363601083e+02 
-1.540059507078e+02 2.636888602805e+00 0.0 
2.636888602805e+00 -3.695323023723e+02 0.0 
0.0 0.0 -1.566614759240e+02 
-1.214465001776e+01 -3.160046187531e-01 0.0 
-3.160046187531e-01 -4.974252154014e+01 0.0 
0.0 0.0 -1.648620996245e+01 
-1.485474657390e+01 -1.543543733965e+00 0.0 
-1.543543733965e+00 -3.125586065005e+01 0.0 
0.0 0.0 -1.233762304336e+01 
-1.493096248046e+02 1.227168045329e+01 0.0 
1.227168045329e+01 -3.672166611361e+02 0.0 
0.0 0.0 -1.545578857822e+02 
-1.170207636739e+02 3.754988283543e+01 0.0 
3.754988283543e+01 -2.706622930965e+02 0.0 
0.0 0.0 -1.159049170311e+02 
-4.308135765752e+01 -1.882271501092e+01 0.0 
-1.882271501092e+01 -1.185634095755e+02 0.0 
0.0 0.0 -4.295366837104e+01 
-9.739252601452e+01 1.694193545255e+01 0.0 
1.694193545255e+01 -2.176302395785e+02 0.0 
0.0 0.0 -9.410682967789e+01 
-4.747447221670e+01 3.808499146078e+01 0.0 
3.808499146078e+01 -7.672720815084e+01 0.0 
0.0 0.0 -3.819113673545e+01 
-3.656052567594e+01 5.874604630990e-01 0.0 
5.874604630990e-01 -3.284621054032e+01 0.0 
0.0 0.0 -2.042202086488e+01 
-1.222019148904e+01 -9.076233578666e-01 0.0 
-9.076233578666e-01 -3.228252051851e+01 0.0 
0.0 0.0 -1.112047615121e+01 
-1.626663413254e+02 4.181392936236e+00 0.0 
4.181392936236e+00 -3.855158896521e+02 0.0 
0.0 0.0 -1.640546692932e+02 
-9.158408618531e+01 1.204472933057e+01 0.0 
1.204472933057e+01 -1.944208448674e+02 0.0 
0.0 0.0 -8.540147931580e+01 
-8.858051460909e+01 -2.708102014212e+00 0.0 
-2.708102014212e+00 -1.932263542760e+02 0.0 
0.0 0.0 -7.913216145440e+01 
-5.493284073013e+01 1.140298287277e+01 0.0 
1.140298287277e+01 -4.513968394791e+01 0.0 
0.0 0.0 -2.955971254836e+01 
-5.627156692885e+01 -2.192412460797e+00 0.0 
-2.192412460797e+00 -1.263257037115e+02 0.0 
0.0 0.0 -5.039273102751e+01 
-1.182982856169e+02 3.363766933104e+01 0.0 
3.363766933104e+01 -2.946643172115e+02 0.0 
0.0 0.0 -1.234887808485e+02 
-3.163467655273e+01 -8.331420014076e+00 0.0 
-8.331420014076e+00 -4.979958143485e+01 0.0 
0.0 0.0 -2.030469801079e+01 
-9.022942744728e+01 8.895716757410e+00 0.0 
8.895716757410e+00 -1.944186370209e+02 0.0 
0.0 0.0 -8.499441934047e+01 
-1.473380948086e+02 1.593772177569e+01 0.0 
1.593772177569e+01 -3.639890369966e+02 0.0 
0.0 0.0 -1.529981395416e+02 
-1.023600096958e+02 2.643666637970e+01 0.0 
2.643666637970e+01 -2.169551499533e+02 0.0 
0.0 0.0 -9.539454789471e+01 
-1.488299428963e+02 2.870237286487e+01 0.0 
2.870237286487e+01 -3.574071618296e+02 0.0 
0.0 0.0 -1.514711314178e+02 
-5.007833504278e+01 1.229424254453e+01 0.0 
1.229424254453e+01 -1.149915734482e+02 0.0 
0.0 0.0 -5.105224890057e+01 
-1.313582729170e+02 3.331544455483e+01 0.0 
3.331544455483e+01 -3.225511957421e+02 0.0 
0.0 0.0 -1.357728405977e+02 
-1.340687468901e+02 1.749821313111e+01 0.0 
1.749821313111e+01 -3.437669078283e+02 0.0 
0.0 0.0 -1.429506964155e+02 
-3.548173410318e+01 9.961607952637e-02 0.0 
9.961607952637e-02 -3.463010724595e+01 0.0 
0.0 0.0 -2.063355240474e+01 
-1.051566913920e+02 3.006945375403e+01 0.0 
3.006945375403e+01 -2.250461582394e+02 0.0 
0.0 0.0 -9.866085488940e+01 
-7.250291747709e+01 -3.202227946677e+00 0.0 
-3.202227946677e+00 -1.565654381266e+02 0.0 
0.0 0.0 -6.321169736691e+01 
-2.061810065988e+01 -2.853920801742e+00 0.0 
-2.853920801742e+00 -6.637752796118e+01 0.0 
0.0 0.0 -2.410399091814e+01 
-9.178293751729e+01 1.172686209718e+00 0.0 
1.172686209718e+00 -2.083202030038e+02 0.0 
0.0 0.0 -8.963094215634e+01 
-8.229532946564e+00 -8.048656286902e-02 0.0 
-8.048656286902e-02 -1.413625588987e+01 0.0 
0.0 0.0 -4.873535671981e+00 
-3.440290131739e+01 1.044948954937e-01 0.0 
1.044948954937e-01 -3.363441370777e+01 0.0 
0.0 0.0 -2.001119450755e+01 
-1.639856202480e+02 3.271411922095e-01 0.0 
3.271411922095e-01 -3.871230085285e+02 0.0 
0.0 0.0 -1.649325886329e+02 
-1.642205720968e+01 -1.571633317990e+00 0.0 
-1.571633317990e+00 -6.320197003404e+01 0.0 
0.0 0.0 -2.266715360874e+01 
-4.744974503425e+01 4.743527303790e-01 0.0 
4.743527303790e-01 -6.570160005804e+01 0.0 
0.0 0.0 -3.354540352769e+01 
-1.153402953159e+02 3.722827760269e+01 0.0 
3.722827760269e+01 -2.632627736133e+02 0.0 
0.0 0.0 -1.131809206788e+02 
-1.043990769027e+02 -5.117641754671e-01 0.0 
-5.117641754671e-01 -2.366926610480e+02 0.0 
0.0 0.0 -9.812064723657e+01 
-7.794007498565e+01 1.927217208992e+00 0.0 
1.927217208992e+00 -1.562267417556e+02 0.0 
0.0 0.0 -6.985004502238e+01 
-4.589527557259e+01 -2.096152901538e+01 0.0 
-2.096152901538e+01 -8.226128957547e+01 0.0 
0.0 0.0 -3.187429895250e+01 
-8.267113148088e+01 -7.020095190992e+00 0.0 
-7.020095190992e+00 -1.073224728897e+02 0.0 
0.0 0.0 -5.774360422888e+01 
-6.050107576321e+01 9.813374426620e-01 0.0 
9.813374426620e-01 -1.010220038290e+02 0.0 
0.0 0.0 -4.805692387768e+01 
-1.342312432190e+02 2.990274148956e+01 0.0 
2.990274148956e+01 -3.327003584744e+02 0.0 
0.0 0.0 -1.396794805080e+02 
-9.897660371672e+01 2.200830689354e+01 0.0 
2.200830689354e+01 -2.091564229706e+02 0.0 
0.0 0.0 -9.203990800619e+01 
-5.650359204287e+01 1.270568832070e+00 0.0 
1.270568832070e+00 -8.716083552163e+01 0.0 
0.0 0.0 -4.269932826935e+01 
-4.074073950980e+01 3.039479335094e+01 0.0 
3.039479335094e+01 -9.051930642280e+01 0.0 
0.0 0.0 -3.715190177576e+01 
-1.120135902451e+02 3.634579916054e+01 0.0 
3.634579916054e+01 -2.555304454773e+02 0.0 
0.0 0.0 -1.098632107167e+02 
-9.443217724129e+01 -2.327087535761e+00 0.0 
-2.327087535761e+00 -2.088536936329e+02 0.0 
0.0 0.0 -8.591673029550e+01 
-1.159370835538e+02 3.589324645205e+01 0.0 
3.589324645205e+01 -2.803814715083e+02 0.0 
0.0 0.0 -1.184955665187e+02 
-1.314593436692e+02 2.112058525998e+01 0.0 
2.112058525998e+01 -3.375101350508e+02 0.0 
0.0 0.0 -1.402908436160e+02 
-5.567611280693e+01 3.828337209880e+01 0.0 
3.828337209880e+01 -6.040130646402e+01 0.0 
0.0 0.0 -3.565771150698e+01 
-1.098928731910e+02 -3.651314437431e-01 0.0 
-3.651314437431e-01 -2.542127075848e+02 0.0 
0.0 0.0 -1.056576185596e+02 
-1.261569840225e+01 -7.561356660805e-01 0.0 
-7.561356660805e-01 -3.023043611499e+01 0.0 
0.0 0.0 -1.102636786506e+01 
-1.541314195922e+02 6.360534089458e+00 0.0 
6.360534089458e+00 -3.723987528611e+02 0.0 
0.0 0.0 -1.575590517360e+02 
-9.771512895543e+01 -1.506189472336e+00 0.0 
-1.506189472336e+00 -2.173731260779e+02 0.0 
0.0 0.0 -8.971256302601e+01 
-4.182234285341e+01 6.088342127476e+00 0.0 
6.088342127476e+00 -8.492346682908e+00 0.0 
0.0 0.0 -1.381294879284e+01 
-2.472091448235e+01 -1.089317333811e-01 0.0 
-1.089317333811e-01 -9.314877468430e+00 0.0 
0.0 0.0 -9.810737585233e+00 

TENSORS node_materi_strain_total float
2.646865909700e-03 -2.911557380738e-05 0.0 
-2.911557380738e-05 -1.005900121374e-03 0.0 
0.0 0.0 0.0 
-1.962957945698e-03 -1.642684035351e-05 0.0 
-1.642684035351e-05 1.377863447297e-02 0.0 
0.0 0.0 0.0 
-7.947738717612e-05 -3.514145857550e-05 0.0 
-3.514145857550e-05 6.036609742208e-03 0.0 
0.0 0.0 0.0 
-1.481590122303e-04 7.266266376850e-05 0.0 
7.266266376850e-05 1.655021062021e-02 0.0 
0.0 0.0 0.0 
2.092679397832e-03 -4.572281407246e-05 0.0 
-4.572281407246e-05 -5.989224911905e-04 0.0 
0.0 0.0 0.0 
1.457879031311e-03 -3.068303919185e-05 0.0 
-3.068303919185e-05 8.765523187970e-05 0.0 
0.0 0.0 0.0 
7.875002704287e-04 -5.533366863105e-05 0.0 
-5.533366863105e-05 7.307389190108e-04 0.0 
0.0 0.0 0.0 
1.955881298027e-04 -7.484897501533e-05 0.0 
-7.484897501533e-05 1.385759733944e-03 0.0 
0.0 0.0 0.0 
-3.213127360891e-04 -1.009044954898e-04 0.0 
-1.009044954898e-04 1.932909906120e-03 0.0 
0.0 0.0 0.0 
-6.906260022412e-04 -1.104180325971e-04 0.0 
-1.104180325971e-04 2.374660636990e-03 0.0 
0.0 0.0 0.0 
-9.475195799607e-04 -1.188780088510e-04 0.0 
-1.188780088510e-04 2.739768810850e-03 0.0 
0.0 0.0 0.0 
-1.103273281164e-03 -1.265023428816e-04 0.0 
-1.265023428816e-04 3.037610926380e-03 0.0 
0.0 0.0 0.0 
-1.169372063040e-03 -1.274132208612e-04 0.0 
-1.274132208612e-04 3.289096918849e-03 0.0 
0.0 0.0 0.0 
-1.173440615635e-03 -1.202084913542e-04 0.0 
-1.202084913542e-04 3.515697530613e-03 0.0 
0.0 0.0 0.0 
-1.128696485240e-03 -9.989258388332e-05 0.0 
-9.989258388332e-05 3.732954500657e-03 0.0 
0.0 0.0 0.0 
-1.059619164810e-03 -6.839519674798e-05 0.0 
-6.839519674798e-05 3.957583836378e-03 0.0 
0.0 0.0 0.0 
-9.720476336491e-04 -6.995393667826e-05 0.0 
-6.995393667826e-05 4.181747947356e-03 0.0 
0.0 0.0 0.0 
-8.666472965123e-04 -7.730277554616e-05 0.0 
-7.730277554616e-05 4.419453326923e-03 0.0 
0.0 0.0 0.0 
-7.560105973882e-04 -6.286644613887e-05 0.0 
-6.286644613887e-05 4.695425066982e-03 0.0 
0.0 0.0 0.0 
-6.419102714815e-04 -5.071978623240e-05 0.0 
-5.071978623240e-05 4.981630489955e-03 0.0 
0.0 0.0 0.0 
-5.182898199595e-04 -4.006300609091e-05 0.0 
-4.006300609091e-05 5.281703403052e-03 0.0 
0.0 0.0 0.0 
-3.783123608147e-04 -3.297474776991e-05 0.0 
-3.297474776991e-05 5.587393453180e-03 0.0 
0.0 0.0 0.0 
-2.250066891429e-04 -2.758446491059e-05 0.0 
-2.758446491059e-05 5.871056038422e-03 0.0 
0.0 0.0 0.0 
-1.086648725765e-04 2.264363568104e-04 0.0 
2.264363568104e-04 1.653939906321e-02 0.0 
0.0 0.0 0.0 
-1.167102899920e-04 4.144986411853e-04 0.0 
4.144986411853e-04 1.651096522390e-02 0.0 
0.0 0.0 0.0 
-1.180645112417e-04 6.074938245767e-04 0.0 
6.074938245767e-04 1.649522458759e-02 0.0 
0.0 0.0 0.0 
-1.141726017148e-04 8.333705836169e-04 0.0 
8.333705836169e-04 1.645326649242e-02 0.0 
0.0 0.0 0.0 
-1.435638532883e-04 1.038799189082e-03 0.0 
1.038799189082e-03 1.640134034735e-02 0.0 
0.0 0.0 0.0 
-1.335368082874e-04 1.284130247164e-03 0.0 
1.284130247164e-03 1.634287217885e-02 0.0 
0.0 0.0 0.0 
-1.533786289262e-04 1.545159454541e-03 0.0 
1.545159454541e-03 1.624740935833e-02 0.0 
0.0 0.0 0.0 
-1.550382432967e-04 1.825525521787e-03 0.0 
1.825525521787e-03 1.611991851124e-02 0.0 
0.0 0.0 0.0 
-1.624455544573e-04 2.102681475817e-03 0.0 
2.102681475817e-03 1.598080234214e-02 0.0 
0.0 0.0 0.0 
-1.466597169568e-04 2.410603925120e-03 0.0 
2.410603925120e-03 1.579168434399e-02 0.0 
0.0 0.0 0.0 
-1.895964957443e-04 2.704957387376e-03 0.0 
2.704957387376e-03 1.557992659700e-02 0.0 
0.0 0.0 0.0 
-1.718897159002e-04 3.038148742106e-03 0.0 
3.038148742106e-03 1.531708754319e-02 0.0 
0.0 0.0 0.0 
-1.828625739206e-04 3.372725884945e-03 0.0 
3.372725884945e-03 1.498972678455e-02 0.0 
0.0 0.0 0.0 
-1.633735313263e-04 3.690613058852e-03 0.0 
3.690613058852e-03 1.462248420837e-02 0.0 
0.0 0.0 0.0 
-1.763035699350e-04 3.995161628348e-03 0.0 
3.995161628348e-03 1.421207208003e-02 0.0 
0.0 0.0 0.0 
-1.516142685733e-04 4.273875943049e-03 0.0 
4.273875943049e-03 1.373125206191e-02 0.0 
0.0 0.0 0.0 
-1.535098591859e-04 4.536055895860e-03 0.0 
4.536055895860e-03 1.320698091466e-02 0.0 
0.0 0.0 0.0 
-1.324144243643e-04 4.782159834298e-03 0.0 
4.782159834298e-03 1.262452621815e-02 0.0 
0.0 0.0 0.0 
-9.893425112854e-05 4.972628923909e-03 0.0 
4.972628923909e-03 1.202305648169e-02 0.0 
0.0 0.0 0.0 
-6.168604695485e-05 5.115842969304e-03 0.0 
5.115842969304e-03 1.139505653141e-02 0.0 
0.0 0.0 0.0 
-1.862568534431e-05 5.198508646544e-03 0.0 
5.198508646544e-03 1.073331414789e-02 0.0 
0.0 0.0 0.0 
7.782282639794e-07 5.220092395101e-03 0.0 
5.220092395101e-03 1.007215602009e-02 0.0 
0.0 0.0 0.0 
3.915321884751e-05 5.182827230131e-03 0.0 
5.182827230131e-03 9.403400998584e-03 0.0 
0.0 0.0 0.0 
7.116394221307e-05 5.079833899364e-03 0.0 
5.079833899364e-03 8.749969862153e-03 0.0 
0.0 0.0 0.0 
9.775379938396e-05 4.922720718860e-03 0.0 
4.922720718860e-03 8.128540787973e-03 0.0 
0.0 0.0 0.0 
1.313964177929e-04 4.716142083620e-03 0.0 
4.716142083620e-03 7.536908894922e-03 0.0 
0.0 0.0 0.0 
1.423181257886e-04 4.449880695371e-03 0.0 
4.449880695371e-03 6.982344627894e-03 0.0 
0.0 0.0 0.0 
1.852470565011e-04 4.138918989289e-03 0.0 
4.138918989289e-03 6.479820568431e-03 0.0 
0.0 0.0 0.0 
1.904294307441e-04 3.783128926898e-03 0.0 
3.783128926898e-03 6.023650839753e-03 0.0 
0.0 0.0 0.0 
1.796497016269e-04 3.414896167479e-03 0.0 
3.414896167479e-03 5.665654934348e-03 0.0 
0.0 0.0 0.0 
2.051997978306e-04 3.022378686428e-03 0.0 
3.022378686428e-03 5.301548472634e-03 0.0 
0.0 0.0 0.0 
2.403186549235e-04 2.615877586166e-03 0.0 
2.615877586166e-03 4.973508452566e-03 0.0 
0.0 0.0 0.0 
2.347725689676e-04 2.164606509600e-03 0.0 
2.164606509600e-03 4.739803306632e-03 0.0 
0.0 0.0 0.0 
2.257659946814e-04 1.752130572336e-03 0.0 
1.752130572336e-03 4.617731931755e-03 0.0 
0.0 0.0 0.0 
2.197570045654e-04 1.356208221983e-03 0.0 
1.356208221983e-03 4.527057263483e-03 0.0 
0.0 0.0 0.0 
1.778131716168e-04 9.770122905329e-04 0.0 
9.770122905329e-04 4.505776940679e-03 0.0 
0.0 0.0 0.0 
1.843534295654e-04 6.470830285671e-04 0.0 
6.470830285671e-04 4.545155272158e-03 0.0 
0.0 0.0 0.0 
1.424129841958e-04 3.438687213473e-04 0.0 
3.438687213473e-04 4.606709940076e-03 0.0 
0.0 0.0 0.0 
1.404879797761e-04 9.551374403980e-05 0.0 
9.551374403980e-05 4.709768493256e-03 0.0 
0.0 0.0 0.0 
9.918016413391e-05 -1.108548920581e-04 0.0 
-1.108548920581e-04 4.842662007850e-03 0.0 
0.0 0.0 0.0 
7.088784549536e-05 -2.619278409504e-04 0.0 
-2.619278409504e-04 5.015480739897e-03 0.0 
0.0 0.0 0.0 
4.461270787437e-05 -3.626802146699e-04 0.0 
-3.626802146699e-04 5.217444027213e-03 0.0 
0.0 0.0 0.0 
2.432233911350e-05 -4.220863033835e-04 0.0 
-4.220863033835e-04 5.377838953033e-03 0.0 
0.0 0.0 0.0 
-1.070019226224e-06 -4.399910490701e-04 0.0 
-4.399910490701e-04 5.490331472289e-03 0.0 
0.0 0.0 0.0 
-1.595729593599e-05 -4.205729669146e-04 0.0 
-4.205729669146e-04 5.688970615483e-03 0.0 
0.0 0.0 0.0 
-3.675235972533e-05 -3.754160533400e-04 0.0 
-3.754160533400e-04 5.790055424713e-03 0.0 
0.0 0.0 0.0 
-4.092676573531e-05 -3.143158754819e-04 0.0 
-3.143158754819e-04 5.896439023632e-03 0.0 
0.0 0.0 0.0 
-4.975254051883e-05 -2.152721425781e-04 0.0 
-2.152721425781e-04 5.984712282640e-03 0.0 
0.0 0.0 0.0 
-5.735467408556e-05 -1.259983717630e-04 0.0 
-1.259983717630e-04 6.027169859122e-03 0.0 
0.0 0.0 0.0 
-1.925301048187e-03 -8.279569079845e-06 0.0 
-8.279569079845e-06 1.419065007996e-02 0.0 
0.0 0.0 0.0 
-1.882944091571e-03 -2.423564906426e-06 0.0 
-2.423564906426e-06 1.458625124293e-02 0.0 
0.0 0.0 0.0 
-1.802828695999e-03 4.429993704325e-06 0.0 
4.429993704325e-06 1.495011394394e-02 0.0 
0.0 0.0 0.0 
-1.682540804651e-03 1.290653027680e-05 0.0 
1.290653027680e-05 1.527775730894e-02 0.0 
0.0 0.0 0.0 
-1.518542917410e-03 2.257307980192e-05 0.0 
2.257307980192e-05 1.557894501892e-02 0.0 
0.0 0.0 0.0 
-1.311540110135e-03 3.198835746646e-05 0.0 
3.198835746646e-05 1.584682360601e-02 0.0 
0.0 0.0 0.0 
-1.059344366136e-03 3.925809825577e-05 0.0 
3.925809825577e-05 1.607905373707e-02 0.0 
0.0 0.0 0.0 
-7.512290043924e-04 5.156253949761e-05 0.0 
5.156253949761e-05 1.628024329302e-02 0.0 
0.0 0.0 0.0 
-4.337368515253e-04 5.574700142129e-05 0.0 
5.574700142129e-05 1.645051458920e-02 0.0 
0.0 0.0 0.0 
-2.316652616537e-03 3.063648842210e-03 0.0 
3.063648842210e-03 -2.043286189381e-03 0.0 
0.0 0.0 0.0 
-3.319045488210e-03 1.434060362191e-03 0.0 
1.434060362191e-03 1.367202099825e-02 0.0 
0.0 0.0 0.0 
-2.101253870146e-03 3.782460758295e-03 0.0 
3.782460758295e-03 9.120798803151e-04 0.0 
0.0 0.0 0.0 
-1.678471281889e-03 3.564562228559e-03 0.0 
3.564562228559e-03 2.115236073214e-03 0.0 
0.0 0.0 0.0 
-1.622879991404e-03 3.559514453889e-03 0.0 
3.559514453889e-03 3.289719807537e-03 0.0 
0.0 0.0 0.0 
-1.664562723820e-03 3.447100229798e-03 0.0 
3.447100229798e-03 4.488933451910e-03 0.0 
0.0 0.0 0.0 
-1.721847440605e-03 3.348101341405e-03 0.0 
3.348101341405e-03 5.804213501448e-03 0.0 
0.0 0.0 0.0 
-1.839067293868e-03 3.246638942463e-03 0.0 
3.246638942463e-03 7.313007224338e-03 0.0 
0.0 0.0 0.0 
-2.083852488913e-03 3.170891513947e-03 0.0 
3.170891513947e-03 8.921085503358e-03 0.0 
0.0 0.0 0.0 
-2.564049773030e-03 3.113580682863e-03 0.0 
3.113580682863e-03 1.061811605540e-02 0.0 
0.0 0.0 0.0 
-3.706107519904e-03 2.398919526961e-03 0.0 
2.398919526961e-03 1.279529676895e-02 0.0 
0.0 0.0 0.0 
-1.992109624509e-03 -1.794007716919e-05 0.0 
-1.794007716919e-05 1.350779671150e-02 0.0 
0.0 0.0 0.0 
-1.954297340979e-03 1.820911070267e-05 0.0 
1.820911070267e-05 1.372329599712e-02 0.0 
0.0 0.0 0.0 
-1.950128171559e-03 1.647995042305e-05 0.0 
1.647995042305e-05 1.374864308968e-02 0.0 
0.0 0.0 0.0 
-1.965119814102e-03 1.808278050032e-05 0.0 
1.808278050032e-05 1.375109489180e-02 0.0 
0.0 0.0 0.0 
-1.987950433895e-03 2.173214054942e-05 0.0 
2.173214054942e-05 1.374728874287e-02 0.0 
0.0 0.0 0.0 
-2.017303156145e-03 4.289222408725e-05 0.0 
4.289222408725e-05 1.380578493787e-02 0.0 
0.0 0.0 0.0 
-2.049321490189e-03 4.702040423109e-05 0.0 
4.702040423109e-05 1.375763244950e-02 0.0 
0.0 0.0 0.0 
-2.093521697960e-03 6.556115628316e-05 0.0 
6.556115628316e-05 1.375381983827e-02 0.0 
0.0 0.0 0.0 
-2.137515289789e-03 9.606970738589e-05 0.0 
9.606970738589e-05 1.375464760130e-02 0.0 
0.0 0.0 0.0 
-2.213260539887e-03 1.390456688902e-04 0.0 
1.390456688902e-04 1.376616399524e-02 0.0 
0.0 0.0 0.0 
-2.296818356139e-03 1.980457821413e-04 0.0 
1.980457821413e-04 1.376280443016e-02 0.0 
0.0 0.0 0.0 
-2.398815983539e-03 2.869100104041e-04 0.0 
2.869100104041e-04 1.375748494547e-02 0.0 
0.0 0.0 0.0 
-2.534715341070e-03 4.123022419583e-04 0.0 
4.123022419583e-04 1.375114616293e-02 0.0 
0.0 0.0 0.0 
-2.708450337428e-03 6.052969039764e-04 0.0 
6.052969039764e-04 1.373753400047e-02 0.0 
0.0 0.0 0.0 
-2.937600722272e-03 9.034177069147e-04 0.0 
9.034177069147e-04 1.372171295607e-02 0.0 
0.0 0.0 0.0 
-3.225837722146e-03 1.370396071397e-03 0.0 
1.370396071397e-03 -3.023492580533e-03 0.0 
0.0 0.0 0.0 
-4.107044057487e-03 3.089002956291e-04 0.0 
3.089002956291e-04 -3.034496667474e-03 0.0 
0.0 0.0 0.0 
-4.527582523071e-03 -1.901137250217e-04 0.0 
-1.901137250217e-04 -2.871099867517e-03 0.0 
0.0 0.0 0.0 
-4.105259558770e-03 -8.950448169203e-04 0.0 
-8.950448169203e-04 -2.615327036780e-03 0.0 
0.0 0.0 0.0 
-2.907509150171e-03 -1.861284319371e-03 0.0 
-1.861284319371e-03 -1.183739436894e-03 0.0 
0.0 0.0 0.0 
-1.805029596385e-03 -1.403762013733e-03 0.0 
-1.403762013733e-03 2.211364444140e-04 0.0 
0.0 0.0 0.0 
-8.350845902849e-04 -4.518987783509e-04 0.0 
-4.518987783509e-04 2.862848479304e-04 0.0 
0.0 0.0 0.0 
-3.790236971114e-04 -1.646251458337e-04 0.0 
-1.646251458337e-04 2.534206611355e-04 0.0 
0.0 0.0 0.0 
-1.079934664785e-04 -1.138965033249e-04 0.0 
-1.138965033249e-04 2.030687886447e-04 0.0 
0.0 0.0 0.0 
2.248493203423e-04 -1.617194825535e-04 0.0 
-1.617194825535e-04 8.644183909375e-05 0.0 
0.0 0.0 0.0 
5.673578170534e-04 -1.743581311147e-04 0.0 
-1.743581311147e-04 -7.103716369509e-05 0.0 
0.0 0.0 0.0 
9.551695151192e-04 -1.937251637461e-04 0.0 
-1.937251637461e-04 -2.521097795782e-04 0.0 
0.0 0.0 0.0 
1.374380855896e-03 -1.823117951897e-04 0.0 
-1.823117951897e-04 -4.463995015071e-04 0.0 
0.0 0.0 0.0 
1.740343478561e-03 -1.722269495004e-04 0.0 
-1.722269495004e-04 -6.082247758908e-04 0.0 
0.0 0.0 0.0 
2.009357524782e-03 -1.371450045437e-04 0.0 
-1.371450045437e-04 -7.189467712465e-04 0.0 
0.0 0.0 0.0 
2.243004850326e-03 -1.039884212283e-04 0.0 
-1.039884212283e-04 -8.151127184836e-04 0.0 
0.0 0.0 0.0 
2.422955877421e-03 -8.185553674787e-05 0.0 
-8.185553674787e-05 -8.917073961575e-04 0.0 
0.0 0.0 0.0 
2.575191459241e-03 -4.977846560241e-05 0.0 
-4.977846560241e-05 -9.718179691793e-04 0.0 
0.0 0.0 0.0 
2.688493016686e-03 1.689651843037e-05 0.0 
1.689651843037e-05 -1.016710072785e-03 0.0 
0.0 0.0 0.0 
-3.483701343472e-03 1.114371242708e-03 0.0 
1.114371242708e-03 1.365557581251e-02 0.0 
0.0 0.0 0.0 
-2.856153708359e-03 7.921157740152e-04 0.0 
7.921157740152e-04 1.347982456394e-02 0.0 
0.0 0.0 0.0 
-2.567615184921e-03 5.334110524310e-04 0.0 
5.334110524310e-04 1.350648292567e-02 0.0 
0.0 0.0 0.0 
-2.377356447915e-03 3.533565437256e-04 0.0 
3.533565437256e-04 1.350632738972e-02 0.0 
0.0 0.0 0.0 
-2.256957266573e-03 2.415308784672e-04 0.0 
2.415308784672e-04 1.351489682753e-02 0.0 
0.0 0.0 0.0 
-2.172697013077e-03 1.645353402727e-04 0.0 
1.645353402727e-04 1.352217713965e-02 0.0 
0.0 0.0 0.0 
-2.119516246398e-03 1.100125258944e-04 0.0 
1.100125258944e-04 1.352889699072e-02 0.0 
0.0 0.0 0.0 
-2.077651577417e-03 7.378468162761e-05 0.0 
7.378468162761e-05 1.353849773259e-02 0.0 
0.0 0.0 0.0 
-2.038918323577e-03 4.957412486430e-05 0.0 
4.957412486430e-05 1.354650241906e-02 0.0 
0.0 0.0 0.0 
-2.014811846728e-03 2.546992182413e-05 0.0 
2.546992182413e-05 1.354832822074e-02 0.0 
0.0 0.0 0.0 
-1.990325790744e-03 1.568145250172e-05 0.0 
1.568145250172e-05 1.355066553709e-02 0.0 
0.0 0.0 0.0 
-1.972279566510e-03 6.007040174382e-06 0.0 
6.007040174382e-06 1.355146645377e-02 0.0 
0.0 0.0 0.0 
-1.954694379840e-03 4.342117476106e-06 0.0 
4.342117476106e-06 1.355364595126e-02 0.0 
0.0 0.0 0.0 
-1.938748506982e-03 8.997977879193e-06 0.0 
8.997977879193e-06 1.355027667742e-02 0.0 
0.0 0.0 0.0 
-1.936962397651e-03 9.974846516926e-06 0.0 
9.974846516926e-06 1.354423059482e-02 0.0 
0.0 0.0 0.0 
-1.967228909588e-03 2.868411962261e-05 0.0 
2.868411962261e-05 1.350328843879e-02 0.0 
0.0 0.0 0.0 
-2.183455317576e-03 4.366276814549e-03 0.0 
4.366276814549e-03 -1.867798219205e-04 0.0 
0.0 0.0 0.0 
-1.786093607320e-03 3.528679965844e-03 0.0 
3.528679965844e-03 1.494034431435e-03 0.0 
0.0 0.0 0.0 
-1.627227543450e-03 3.565265562159e-03 0.0 
3.565265562159e-03 2.710755587141e-03 0.0 
0.0 0.0 0.0 
-1.642887014327e-03 3.516607521305e-03 0.0 
3.516607521305e-03 3.877851377510e-03 0.0 
0.0 0.0 0.0 
-1.725453690954e-03 3.470334308124e-03 0.0 
3.470334308124e-03 5.117841540611e-03 0.0 
0.0 0.0 0.0 
-1.782570104855e-03 3.353150467315e-03 0.0 
3.353150467315e-03 6.547553848618e-03 0.0 
0.0 0.0 0.0 
-1.938345217428e-03 3.211628753298e-03 0.0 
3.211628753298e-03 8.109342343973e-03 0.0 
0.0 0.0 0.0 
-2.262954578750e-03 3.130232598715e-03 0.0 
3.130232598715e-03 9.753061055288e-03 0.0 
0.0 0.0 0.0 
-3.150030844318e-03 3.092350874523e-03 0.0 
3.092350874523e-03 1.160550592071e-02 0.0 
0.0 0.0 0.0 
-3.633665102206e-03 1.711791296697e-03 0.0 
1.711791296697e-03 1.352212234697e-02 0.0 
0.0 0.0 0.0 
-1.328693199227e-03 3.714145918947e-03 0.0 
3.714145918947e-03 1.443449459872e-03 0.0 
0.0 0.0 0.0 
6.823749303352e-04 1.899828295634e-03 0.0 
1.899828295634e-03 4.257988291453e-03 0.0 
0.0 0.0 0.0 
-2.372290687455e-04 -4.261748974351e-04 0.0 
-4.261748974351e-04 3.585352951912e-04 0.0 
0.0 0.0 0.0 
-1.691255925234e-03 -1.903204587179e-03 0.0 
-1.903204587179e-03 -2.704181221685e-03 0.0 
0.0 0.0 0.0 
4.142131439638e-04 2.002148730014e-04 0.0 
2.002148730014e-04 4.337119925999e-03 0.0 
0.0 0.0 0.0 
-1.355877772812e-03 3.613403198879e-03 0.0 
3.613403198879e-03 3.981750184242e-03 0.0 
0.0 0.0 0.0 
-1.136558797690e-03 -2.507953886389e-04 0.0 
-2.507953886389e-04 3.606771688204e-03 0.0 
0.0 0.0 0.0 
6.442377316013e-04 3.515989657208e-03 0.0 
3.515989657208e-03 5.358540929316e-03 0.0 
0.0 0.0 0.0 
-1.617846241445e-03 3.499779545648e-03 0.0 
3.499779545648e-03 6.677106110550e-03 0.0 
0.0 0.0 0.0 
3.511062705657e-04 4.728460075328e-03 0.0 
4.728460075328e-03 7.506478410617e-03 0.0 
0.0 0.0 0.0 
-2.365467728560e-03 3.361746203458e-03 0.0 
3.361746203458e-03 1.003860400339e-02 0.0 
0.0 0.0 0.0 
9.784891459756e-05 -4.080408741952e-04 0.0 
-4.080408741952e-04 5.110442933567e-03 0.0 
0.0 0.0 0.0 
1.230945052596e-03 -3.049453111891e-04 0.0 
-3.049453111891e-04 -2.801255557383e-04 0.0 
0.0 0.0 0.0 
-3.217920035535e-05 5.117500201666e-03 0.0 
5.117500201666e-03 1.023534862755e-02 0.0 
0.0 0.0 0.0 
-3.328750231007e-03 2.252331823155e-03 0.0 
2.252331823155e-03 1.320310698175e-02 0.0 
0.0 0.0 0.0 
-8.366171674808e-04 -2.101238377467e-04 0.0 
-2.101238377467e-04 2.566780589520e-03 0.0 
0.0 0.0 0.0 
-9.091513529469e-04 -2.098929608255e-04 0.0 
-2.098929608255e-04 4.220503037052e-03 0.0 
0.0 0.0 0.0 
-3.229206012301e-04 4.785708516800e-03 0.0 
4.785708516800e-03 1.223761409022e-02 0.0 
0.0 0.0 0.0 
-4.915544481188e-04 3.753527924183e-03 0.0 
3.753527924183e-03 1.442580480015e-02 0.0 
0.0 0.0 0.0 
-3.964655557916e-04 1.139136045783e-03 0.0 
1.139136045783e-03 1.632470696310e-02 0.0 
0.0 0.0 0.0 
-5.152023040254e-04 1.912191337083e-03 0.0 
1.912191337083e-03 1.602251240058e-02 0.0 
0.0 0.0 0.0 
-5.098499864183e-04 2.817680318195e-03 0.0 
2.817680318195e-03 1.543979306649e-02 0.0 
0.0 0.0 0.0 
-3.001451696721e-03 1.143691273471e-03 0.0 
1.143691273471e-03 1.402563543863e-02 0.0 
0.0 0.0 0.0 
-2.383460024164e-03 3.358847961758e-04 0.0 
3.358847961758e-04 1.417650357596e-02 0.0 
0.0 0.0 0.0 
-2.135415874293e-03 1.585308579556e-04 0.0 
1.585308579556e-04 1.419750041792e-02 0.0 
0.0 0.0 0.0 
-1.607481335889e-03 7.281030048891e-05 0.0 
7.281030048891e-05 1.543826801072e-02 0.0 
0.0 0.0 0.0 
-7.091778570006e-05 -4.119181655096e-04 0.0 
-4.119181655096e-04 5.577901304223e-03 0.0 
0.0 0.0 0.0 
-1.838892786082e-03 1.073820084593e-03 0.0 
1.073820084593e-03 -3.633299241440e-03 0.0 
0.0 0.0 0.0 
1.946615937656e-03 -1.581069816863e-04 0.0 
-1.581069816863e-04 -5.637594061828e-04 0.0 
0.0 0.0 0.0 
-5.673365557150e-04 -1.218246480419e-04 0.0 
-1.218246480419e-04 5.098355085269e-03 0.0 
0.0 0.0 0.0 
-1.982789118389e-03 5.996266905162e-05 0.0 
5.996266905162e-05 1.412850286056e-02 0.0 
0.0 0.0 0.0 
4.854466329599e-04 -1.115378739019e-04 0.0 
-1.115378739019e-04 1.066931060867e-03 0.0 
0.0 0.0 0.0 
-4.962386303187e-04 4.269662371757e-03 0.0 
4.269662371757e-03 1.344963080693e-02 0.0 
0.0 0.0 0.0 
4.797646864565e-04 4.227627287647e-03 0.0 
4.227627287647e-03 6.397940323058e-03 0.0 
0.0 0.0 0.0 
1.563985939729e-04 5.043546330140e-03 0.0 
5.043546330140e-03 8.844173185291e-03 0.0 
0.0 0.0 0.0 
7.414654206308e-04 2.780664620646e-03 0.0 
2.780664620646e-03 4.661796865770e-03 0.0 
0.0 0.0 0.0 
5.725807327326e-04 1.123559844853e-03 0.0 
1.123559844853e-03 4.140758444907e-03 0.0 
0.0 0.0 0.0 
-1.309463846296e-03 -1.647191577482e-03 0.0 
-1.647191577482e-03 4.718757985722e-04 0.0 
0.0 0.0 0.0 
-2.644442730378e-03 5.995600973450e-04 0.0 
5.995600973450e-04 1.413998316953e-02 0.0 
0.0 0.0 0.0 
2.866117715317e-04 -2.120924625540e-04 0.0 
-2.120924625540e-04 4.590303158973e-03 0.0 
0.0 0.0 0.0 
-1.203625176239e-03 1.176792131498e-04 0.0 
1.176792131498e-04 1.596189994364e-02 0.0 
0.0 0.0 0.0 
4.593868810691e-04 -3.250317654177e-04 0.0 
-3.250317654177e-04 7.374676679565e-05 0.0 
0.0 0.0 0.0 
-1.131949109468e-03 -2.541665588266e-04 0.0 
-2.541665588266e-04 3.147681139687e-03 0.0 
0.0 0.0 0.0 
-3.136849885789e-04 7.063755946386e-04 0.0 
7.063755946386e-04 1.643708311468e-02 0.0 
0.0 0.0 0.0 
-1.394096769865e-03 3.603569126238e-03 0.0 
3.603569126238e-03 5.198429395693e-03 0.0 
0.0 0.0 0.0 
-1.271282712029e-03 3.703204788240e-03 0.0 
3.703204788240e-03 2.727807649118e-03 0.0 
0.0 0.0 0.0 
-1.898547211705e-03 3.448523243979e-03 0.0 
3.448523243979e-03 8.283457896255e-03 0.0 
0.0 0.0 0.0 
-3.195052296777e-03 3.059813365908e-03 0.0 
3.059813365908e-03 1.188741865059e-02 0.0 
0.0 0.0 0.0 
-1.698493757324e-03 4.164196407807e-03 0.0 
4.164196407807e-03 -1.705438574155e-04 0.0 
0.0 0.0 0.0 
-1.843069867679e-03 3.875445566428e-05 0.0 
3.875445566428e-05 1.480317657027e-02 0.0 
0.0 0.0 0.0 
-1.212463161787e-04 -2.693554180025e-04 0.0 
-2.693554180025e-04 5.860549284387e-03 0.0 
0.0 0.0 0.0 
2.219698549115e-03 -5.794814841767e-05 0.0 
-5.794814841767e-05 -7.036484792942e-04 0.0 
0.0 0.0 0.0 
-5.991138227380e-04 1.754278669072e-04 0.0 
1.754278669072e-04 1.635474346533e-02 0.0 
0.0 0.0 0.0 
-3.299486930109e-03 2.027592299715e-03 0.0 
2.027592299715e-03 1.360196098378e-02 0.0 
0.0 0.0 0.0 
-3.108217965760e-03 2.586135823268e-03 0.0 
2.586135823268e-03 1.317395624245e-02 0.0 
0.0 0.0 0.0 
-3.106841088315e-03 2.243077437940e-03 0.0 
2.243077437940e-03 1.369850545271e-02 0.0 
0.0 0.0 0.0 
-2.874858722278e-03 2.853119072309e-03 0.0 
2.853119072309e-03 1.315196587181e-02 0.0 
0.0 0.0 0.0 
-2.855151150334e-03 2.577228440806e-03 0.0 
2.577228440806e-03 1.366635156237e-02 0.0 
0.0 0.0 0.0 
-2.605236598254e-03 3.042963734021e-03 0.0 
3.042963734021e-03 1.315646750349e-02 0.0 
0.0 0.0 0.0 
-2.567400967700e-03 3.305734911573e-03 0.0 
3.305734911573e-03 1.254887494111e-02 0.0 
0.0 0.0 0.0 
-2.291611316889e-03 3.439676333211e-03 0.0 
3.439676333211e-03 1.257749979669e-02 0.0 
0.0 0.0 0.0 
-2.196618806493e-03 3.677383031756e-03 0.0 
3.677383031756e-03 1.188301409535e-02 0.0 
0.0 0.0 0.0 
-2.597326908053e-03 2.810169734531e-03 0.0 
2.810169734531e-03 1.367715985810e-02 0.0 
0.0 0.0 0.0 
-1.929833989401e-03 3.767276332196e-03 0.0 
3.767276332196e-03 1.194518670367e-02 0.0 
0.0 0.0 0.0 
-1.790618680165e-03 3.975110476303e-03 0.0 
3.975110476303e-03 1.118274992717e-02 0.0 
0.0 0.0 0.0 
-1.538662591488e-03 4.033982436933e-03 0.0 
4.033982436933e-03 1.127573296443e-02 0.0 
0.0 0.0 0.0 
-1.363561140560e-03 4.210572484969e-03 0.0 
4.210572484969e-03 1.046133736821e-02 0.0 
0.0 0.0 0.0 
-1.586718411231e-03 4.173154039122e-03 0.0 
4.173154039122e-03 1.034351218730e-02 0.0 
0.0 0.0 0.0 
-1.129979761783e-03 4.380694473444e-03 0.0 
4.380694473444e-03 9.577167177569e-03 0.0 
0.0 0.0 0.0 
-1.322874315277e-03 4.330717620157e-03 0.0 
4.330717620157e-03 9.436447082051e-03 0.0 
0.0 0.0 0.0 
-8.354716945682e-04 4.510636318079e-03 0.0 
4.510636318079e-03 8.627508885703e-03 0.0 
0.0 0.0 0.0 
-6.681070282672e-04 4.517295714576e-03 0.0 
4.517295714576e-03 8.814265115232e-03 0.0 
0.0 0.0 0.0 
-3.435958759421e-04 4.617350734192e-03 0.0 
4.617350734192e-03 7.825165320667e-03 0.0 
0.0 0.0 0.0 
-4.851353367122e-04 4.590957777609e-03 0.0 
4.590957777609e-03 7.620944631850e-03 0.0 
0.0 0.0 0.0 
2.730490750848e-05 4.668090969463e-03 0.0 
4.668090969463e-03 6.789947865906e-03 0.0 
0.0 0.0 0.0 
-1.025473027568e-04 4.633989487346e-03 0.0 
4.633989487346e-03 6.580072306772e-03 0.0 
0.0 0.0 0.0 
4.291707165782e-04 4.668851240387e-03 0.0 
4.668851240387e-03 5.727632122340e-03 0.0 
0.0 0.0 0.0 
3.069729544342e-04 4.631277745385e-03 0.0 
4.631277745385e-03 5.518040089411e-03 0.0 
0.0 0.0 0.0 
8.565383464929e-04 4.620022281265e-03 0.0 
4.620022281265e-03 4.653610036771e-03 0.0 
0.0 0.0 0.0 
9.455226578230e-04 4.635253783961e-03 0.0 
4.635253783961e-03 4.914066691412e-03 0.0 
0.0 0.0 0.0 
1.388197775844e-03 4.541238336668e-03 0.0 
4.541238336668e-03 3.833361032799e-03 0.0 
0.0 0.0 0.0 
1.303566012086e-03 4.519521430217e-03 0.0 
4.519521430217e-03 3.593155305095e-03 0.0 
0.0 0.0 0.0 
1.844229688547e-03 4.381006711019e-03 0.0 
4.381006711019e-03 2.779027435266e-03 0.0 
0.0 0.0 0.0 
1.747619067925e-03 4.357983789204e-03 0.0 
4.357983789204e-03 2.577167386038e-03 0.0 
0.0 0.0 0.0 
2.312937092541e-03 4.161534740025e-03 0.0 
4.161534740025e-03 1.769971528847e-03 0.0 
0.0 0.0 0.0 
2.344877364831e-03 4.176786056394e-03 0.0 
4.176786056394e-03 2.040611598448e-03 0.0 
0.0 0.0 0.0 
2.854443644161e-03 3.919880631920e-03 0.0 
3.919880631920e-03 1.022930890162e-03 0.0 
0.0 0.0 0.0 
2.847080416497e-03 3.946938101363e-03 0.0 
3.946938101363e-03 7.530861193604e-04 0.0 
0.0 0.0 0.0 
3.436617300978e-03 3.659071332111e-03 0.0 
3.659071332111e-03 -2.104862996033e-05 0.0 
0.0 0.0 0.0 
3.417104921946e-03 3.727566839645e-03 0.0 
3.727566839645e-03 -2.525150652308e-04 0.0 
0.0 0.0 0.0 
4.002261611891e-03 3.327594732241e-03 0.0 
3.327594732241e-03 -9.743146374741e-04 0.0 
0.0 0.0 0.0 
3.954039414484e-03 3.391914298336e-03 0.0 
3.391914298336e-03 -1.119541799427e-03 0.0 
0.0 0.0 0.0 
4.490194354545e-03 2.872738233980e-03 0.0 
2.872738233980e-03 -1.753886738930e-03 0.0 
0.0 0.0 0.0 
4.447047627274e-03 2.828337810824e-03 0.0 
2.828337810824e-03 -1.553851091859e-03 0.0 
0.0 0.0 0.0 
4.847424368364e-03 2.277916295384e-03 0.0 
2.277916295384e-03 -2.229897428855e-03 0.0 
0.0 0.0 0.0 
4.852338773187e-03 2.317612667525e-03 0.0 
2.317612667525e-03 -2.408396261491e-03 0.0 
0.0 0.0 0.0 
5.098760020495e-03 1.636926831555e-03 0.0 
1.636926831555e-03 -2.744543014836e-03 0.0 
0.0 0.0 0.0 
5.011285105181e-03 1.654064715392e-03 0.0 
1.654064715392e-03 -2.525109938561e-03 0.0 
0.0 0.0 0.0 
5.134252754119e-03 9.688263096242e-04 0.0 
9.688263096242e-04 -2.893851570632e-03 0.0 
0.0 0.0 0.0 
4.978738488478e-03 1.038053599164e-03 0.0 
1.038053599164e-03 -2.620124774022e-03 0.0 
0.0 0.0 0.0 
4.963868794738e-03 3.450337382962e-04 0.0 
3.450337382962e-04 -2.858993880129e-03 0.0 
0.0 0.0 0.0 
5.072570635353e-03 2.335236098912e-04 0.0 
2.335236098912e-04 -3.103957078566e-03 0.0 
0.0 0.0 0.0 
4.764643456723e-03 -3.589742006526e-04 0.0 
-3.589742006526e-04 -2.914336563335e-03 0.0 
0.0 0.0 0.0 
4.586301212862e-03 -1.878734138220e-04 0.0 
-1.878734138220e-04 -2.574183802798e-03 0.0 
0.0 0.0 0.0 
4.269645180503e-03 -8.211333261784e-04 0.0 
-8.211333261784e-04 -2.499563873274e-03 0.0 
0.0 0.0 0.0 
4.405607696941e-03 -1.049709516138e-03 0.0 
-1.049709516138e-03 -2.812288849852e-03 0.0 
0.0 0.0 0.0 
3.820149557505e-03 -1.393663015212e-03 0.0 
-1.393663015212e-03 -2.261817793029e-03 0.0 
0.0 0.0 0.0 
3.661993202301e-03 -1.123520913471e-03 0.0 
-1.123520913471e-03 -1.893900398285e-03 0.0 
0.0 0.0 0.0 
3.215033144586e-03 -1.586102421604e-03 0.0 
-1.586102421604e-03 -1.618043884251e-03 0.0 
0.0 0.0 0.0 
3.287303616458e-03 -1.870513973364e-03 0.0 
-1.870513973364e-03 -1.907764585342e-03 0.0 
0.0 0.0 0.0 
2.742775561149e-03 -1.980894819685e-03 0.0 
-1.980894819685e-03 -1.269483741384e-03 0.0 
0.0 0.0 0.0 
2.741593204219e-03 -1.742811506515e-03 0.0 
-1.742811506515e-03 -1.080760840149e-03 0.0 
0.0 0.0 0.0 
2.304889350228e-03 -2.068756752925e-03 0.0 
-2.068756752925e-03 -7.470396166341e-04 0.0 
0.0 0.0 0.0 
2.260390269504e-03 -2.294467871385e-03 0.0 
-2.294467871385e-03 -8.764171623964e-04 0.0 
0.0 0.0 0.0 
1.841497741737e-03 -2.306805957989e-03 0.0 
-2.306805957989e-03 -3.557836618394e-04 0.0 
0.0 0.0 0.0 
1.847107053688e-03 -2.086139344295e-03 0.0 
-2.086139344295e-03 -1.765088533352e-04 0.0 
0.0 0.0 0.0 
1.403102584237e-03 -2.246536828092e-03 0.0 
-2.246536828092e-03 2.053942263254e-04 0.0 
0.0 0.0 0.0 
1.388128169764e-03 -2.035503723771e-03 0.0 
-2.035503723771e-03 4.426681724953e-04 0.0 
0.0 0.0 0.0 
1.365754383247e-03 -2.441220435587e-03 0.0 
-2.441220435587e-03 6.885810716824e-05 0.0 
0.0 0.0 0.0 
9.619822146628e-04 -2.315029452668e-03 0.0 
-2.315029452668e-03 6.046515508490e-04 0.0 
0.0 0.0 0.0 
9.037557501374e-04 -2.462514808928e-03 0.0 
-2.462514808928e-03 4.997453517779e-04 0.0 
0.0 0.0 0.0 
5.412906686333e-04 -2.285867567287e-03 0.0 
-2.285867567287e-03 9.982131893782e-04 0.0 
0.0 0.0 0.0 
2.799289655149e-03 3.927080087549e-03 0.0 
3.927080087549e-03 1.389093773778e-03 0.0 
0.0 0.0 0.0 
4.807160590109e-04 -2.369148239999e-03 0.0 
-2.369148239999e-03 9.040662080988e-04 0.0 
0.0 0.0 0.0 
7.984108558604e-04 -2.541642534103e-03 0.0 
-2.541642534103e-03 4.515276571510e-04 0.0 
0.0 0.0 0.0 
1.677155775844e-04 -2.163531162364e-03 0.0 
-2.163531162364e-03 1.354794593127e-03 0.0 
0.0 0.0 0.0 
2.013596098860e-04 -2.075486515757e-03 0.0 
-2.075486515757e-03 1.494633087338e-03 0.0 
0.0 0.0 0.0 
1.264324816107e-04 -2.179742237001e-03 0.0 
-2.179742237001e-03 1.248433611548e-03 0.0 
0.0 0.0 0.0 
-1.382889014760e-04 -1.964450866564e-03 0.0 
-1.964450866564e-03 1.650691532553e-03 0.0 
0.0 0.0 0.0 
-1.408560494280e-04 -1.919808461706e-03 0.0 
-1.919808461706e-03 1.516388293693e-03 0.0 
0.0 0.0 0.0 
3.277355673607e-03 3.794718333061e-03 0.0 
3.794718333061e-03 -3.482570168623e-04 0.0 
0.0 0.0 0.0 
-2.134116002190e-04 4.583126820740e-03 0.0 
4.583126820740e-03 8.068103779971e-03 0.0 
0.0 0.0 0.0 
-3.634954440785e-04 -1.705629182914e-03 0.0 
-1.705629182914e-03 1.871480639345e-03 0.0 
0.0 0.0 0.0 
-3.080245201040e-04 -1.610289385331e-03 0.0 
-1.610289385331e-03 1.690400355998e-03 0.0 
0.0 0.0 0.0 
-1.329806972198e-04 -1.797479230369e-03 0.0 
-1.797479230369e-03 1.386995036573e-03 0.0 
0.0 0.0 0.0 
-2.176257201432e-04 -1.440851489191e-03 0.0 
-1.440851489191e-03 1.488143950079e-03 0.0 
0.0 0.0 0.0 
-2.798563044077e-03 2.371915603287e-03 0.0 
2.371915603287e-03 1.406772259940e-02 0.0 
0.0 0.0 0.0 
-2.515636580679e-03 2.607191768428e-03 0.0 
2.607191768428e-03 1.412085929919e-02 0.0 
0.0 0.0 0.0 
-2.675386772396e-03 2.163584058211e-03 0.0 
2.163584058211e-03 1.444032152725e-02 0.0 
0.0 0.0 0.0 
-2.397887007498e-03 2.438296570427e-03 0.0 
2.438296570427e-03 1.451580261950e-02 0.0 
0.0 0.0 0.0 
-2.525796787379e-03 2.020389542030e-03 0.0 
2.020389542030e-03 1.476093802463e-02 0.0 
0.0 0.0 0.0 
-3.652213512552e-04 -1.278926581864e-03 0.0 
-1.278926581864e-03 1.760541043954e-03 0.0 
0.0 0.0 0.0 
-1.651634395650e-03 3.866261609996e-03 0.0 
3.866261609996e-03 1.201852536860e-02 0.0 
0.0 0.0 0.0 
-2.208445303255e-03 2.841363077736e-03 0.0 
2.841363077736e-03 1.417666624499e-02 0.0 
0.0 0.0 0.0 
-6.395005208756e-04 4.530828853237e-03 0.0 
4.530828853237e-03 7.460958986138e-03 0.0 
0.0 0.0 0.0 
1.168983796107e-03 4.482923550806e-03 0.0 
4.482923550806e-03 3.440826228132e-03 0.0 
0.0 0.0 0.0 
4.802831487523e-03 1.689135381907e-03 0.0 
1.689135381907e-03 -2.175315721632e-03 0.0 
0.0 0.0 0.0 
-3.879634199445e-04 -1.728590480831e-03 0.0 
-1.728590480831e-03 2.043370160004e-03 0.0 
0.0 0.0 0.0 
-5.752796686080e-04 -1.478818265717e-03 0.0 
-1.478818265717e-03 2.217889538750e-03 0.0 
0.0 0.0 0.0 
-6.080458358926e-04 -1.479273763906e-03 0.0 
-1.479273763906e-03 2.413851419569e-03 0.0 
0.0 0.0 0.0 
1.799008381328e-03 -1.860365712617e-03 0.0 
-1.860365712617e-03 1.170763052179e-04 0.0 
0.0 0.0 0.0 
1.350948757481e-03 -1.806597334691e-03 0.0 
-1.806597334691e-03 7.744531545140e-04 0.0 
0.0 0.0 0.0 
1.731219041194e-03 -1.612077888218e-03 0.0 
-1.612077888218e-03 5.161131755445e-04 0.0 
0.0 0.0 0.0 
1.310328921358e-03 -1.540112824851e-03 0.0 
-1.540112824851e-03 1.183345018107e-03 0.0 
0.0 0.0 0.0 
1.650758284813e-03 -1.308753762903e-03 0.0 
-1.308753762903e-03 1.004763521928e-03 0.0 
0.0 0.0 0.0 
1.248965289251e-03 -1.230756004892e-03 0.0 
-1.230756004892e-03 1.659250183595e-03 0.0 
0.0 0.0 0.0 
9.333044964836e-04 -1.418301227969e-03 0.0 
-1.418301227969e-03 1.819254629614e-03 0.0 
0.0 0.0 0.0 
8.850578989548e-04 -1.125241149946e-03 0.0 
-1.125241149946e-03 2.276510389279e-03 0.0 
0.0 0.0 0.0 
6.002366876762e-04 -1.268361417059e-03 0.0 
-1.268361417059e-03 2.412406513438e-03 0.0 
0.0 0.0 0.0 
1.526679365244e-03 -9.679385211561e-04 0.0 
-9.679385211561e-04 1.563441658047e-03 0.0 
0.0 0.0 0.0 
1.947458864374e-03 -9.899770304699e-04 0.0 
-9.899770304699e-04 9.102220255724e-04 0.0 
0.0 0.0 0.0 
5.662303426202e-04 -1.004378346885e-03 0.0 
-1.004378346885e-03 2.849310788262e-03 0.0 
0.0 0.0 0.0 
3.121766053406e-04 -1.104966251839e-03 0.0 
-1.104966251839e-03 2.958577351972e-03 0.0 
0.0 0.0 0.0 
2.951819314068e-04 -8.760040985640e-04 0.0 
-8.760040985640e-04 3.375874311460e-03 0.0 
0.0 0.0 0.0 
6.575078683807e-05 -9.394673222543e-04 0.0 
-9.394673222543e-04 3.456455927354e-03 0.0 
0.0 0.0 0.0 
4.042402953869e-05 -1.147723216988e-03 0.0 
-1.147723216988e-03 3.091044494414e-03 0.0 
0.0 0.0 0.0 
-1.730745761346e-04 -9.518074656130e-04 0.0 
-9.518074656130e-04 3.548972345013e-03 0.0 
0.0 0.0 0.0 
-2.216309552452e-04 -1.138298366896e-03 0.0 
-1.138298366896e-03 3.224603432026e-03 0.0 
0.0 0.0 0.0 
4.681429038433e-03 1.117374237330e-03 0.0 
1.117374237330e-03 -2.154404347773e-03 0.0 
0.0 0.0 0.0 
4.425292990875e-03 1.759743970322e-03 0.0 
1.759743970322e-03 -1.537495501145e-03 0.0 
0.0 0.0 0.0 
4.210230639705e-03 1.233517168654e-03 0.0 
1.233517168654e-03 -1.335225839367e-03 0.0 
0.0 0.0 0.0 
3.913571803640e-03 1.829555255960e-03 0.0 
1.829555255960e-03 -5.691023114816e-04 0.0 
0.0 0.0 0.0 
3.682814166941e-03 1.385544120398e-03 0.0 
1.385544120398e-03 -3.429335538994e-04 0.0 
0.0 0.0 0.0 
3.399020503266e-03 1.910439655268e-03 0.0 
1.910439655268e-03 3.786429560758e-04 0.0 
0.0 0.0 0.0 
3.191488113464e-03 1.544476149425e-03 0.0 
1.544476149425e-03 5.528441061251e-04 0.0 
0.0 0.0 0.0 
3.401672796539e-03 1.019386258640e-03 0.0 
1.019386258640e-03 -5.425271407890e-05 0.0 
0.0 0.0 0.0 
-1.136122786266e-03 4.249133638041e-03 0.0 
4.249133638041e-03 1.058555410158e-02 0.0 
0.0 0.0 0.0 
5.083651906181e-03 1.652567167445e-03 0.0 
1.652567167445e-03 -2.976892481562e-03 0.0 
0.0 0.0 0.0 
4.737049889363e-03 2.374403149845e-03 0.0 
2.374403149845e-03 -2.573521896143e-03 0.0 
0.0 0.0 0.0 
4.947185377887e-03 1.674470918368e-03 0.0 
1.674470918368e-03 -3.168902593965e-03 0.0 
0.0 0.0 0.0 
4.507474639412e-03 2.454570327075e-03 0.0 
2.454570327075e-03 -2.679771957968e-03 0.0 
0.0 0.0 0.0 
4.681510694216e-03 1.752965436541e-03 0.0 
1.752965436541e-03 -3.306497883921e-03 0.0 
0.0 0.0 0.0 
4.151391478160e-03 2.613823894443e-03 0.0 
2.613823894443e-03 -2.735026305615e-03 0.0 
0.0 0.0 0.0 
4.294825704089e-03 1.884745393114e-03 0.0 
1.884745393114e-03 -3.448953413048e-03 0.0 
0.0 0.0 0.0 
4.660816112981e-03 8.874377475088e-04 0.0 
8.874377475088e-04 -3.797044249368e-03 0.0 
0.0 0.0 0.0 
4.206629218122e-03 9.417058423887e-04 0.0 
9.417058423887e-04 -4.016691757754e-03 0.0 
0.0 0.0 0.0 
4.422866492796e-03 -1.111766012642e-04 0.0 
-1.111766012642e-04 -4.073135408452e-03 0.0 
0.0 0.0 0.0 
3.870648366322e-03 -1.206430293221e-04 0.0 
-1.206430293221e-04 -4.296390128491e-03 0.0 
0.0 0.0 0.0 
4.025423637878e-03 -1.152294679693e-03 0.0 
-1.152294679693e-03 -4.066881158266e-03 0.0 
0.0 0.0 0.0 
1.432293997295e-03 4.531752866063e-03 0.0 
4.531752866063e-03 4.156791204787e-03 0.0 
0.0 0.0 0.0 
3.534930241838e-03 2.332767061925e-03 0.0 
2.332767061925e-03 2.956794998963e-04 0.0 
0.0 0.0 0.0 
3.051569363317e-03 2.370816704245e-03 0.0 
2.370816704245e-03 1.173909018914e-03 0.0 
0.0 0.0 0.0 
3.123975279138e-03 2.751212811162e-03 0.0 
2.751212811162e-03 1.182057170243e-03 0.0 
0.0 0.0 0.0 
-1.006577564658e-04 -1.583254130097e-03 0.0 
-1.583254130097e-03 1.241011844760e-03 0.0 
0.0 0.0 0.0 
-1.394399284128e-04 -7.788981679526e-04 0.0 
-7.788981679526e-04 3.905131685537e-03 0.0 
0.0 0.0 0.0 
1.741869688815e-03 -6.460952929065e-04 0.0 
-6.460952929065e-04 1.547926724145e-03 0.0 
0.0 0.0 0.0 
2.165076953077e-03 -6.019427677607e-04 0.0 
-6.019427677607e-04 9.184506338825e-04 0.0 
0.0 0.0 0.0 
2.924029183835e-03 1.224226680236e-03 0.0 
1.224226680236e-03 8.241891131330e-04 0.0 
0.0 0.0 0.0 
-1.808978715629e-04 -1.081307654126e-03 0.0 
-1.081307654126e-03 1.476031295986e-03 0.0 
0.0 0.0 0.0 
3.662076091575e-03 2.807357994645e-03 0.0 
2.807357994645e-03 -2.756631508939e-03 0.0 
0.0 0.0 0.0 
3.378439509114e-03 3.333580889967e-03 0.0 
3.333580889967e-03 -1.903482192556e-03 0.0 
0.0 0.0 0.0 
-2.239783455585e-03 2.294783675390e-03 0.0 
2.294783675390e-03 1.485424446103e-02 0.0 
0.0 0.0 0.0 
-2.346939035402e-03 1.905820884556e-03 0.0 
1.905820884556e-03 1.504271722923e-02 0.0 
0.0 0.0 0.0 
1.877839164497e-03 -2.839008759088e-04 0.0 
-2.839008759088e-04 1.624647971438e-03 0.0 
0.0 0.0 0.0 
-3.043796761893e-04 -9.465491572950e-04 0.0 
-9.465491572950e-04 1.727061043043e-03 0.0 
0.0 0.0 0.0 
7.953042240603e-04 -8.468898032408e-04 0.0 
-8.468898032408e-04 2.776592269523e-03 0.0 
0.0 0.0 0.0 
3.551988163152e-03 1.054456708711e-03 0.0 
1.054456708711e-03 -4.185652861562e-03 0.0 
0.0 0.0 0.0 
-3.424956828546e-04 -7.636163775490e-04 0.0 
-7.636163775490e-04 3.955504762001e-03 0.0 
0.0 0.0 0.0 
-2.925974185125e-04 -6.234025730725e-04 0.0 
-6.234025730725e-04 4.298978653107e-03 0.0 
0.0 0.0 0.0 
6.020490981238e-04 -1.529898559150e-03 0.0 
-1.529898559150e-03 2.021223964016e-03 0.0 
0.0 0.0 0.0 
2.672691600408e-03 2.773303305244e-03 0.0 
2.773303305244e-03 2.013116037534e-03 0.0 
0.0 0.0 0.0 
2.706312712472e-03 3.104386644106e-03 0.0 
3.104386644106e-03 2.082746308959e-03 0.0 
0.0 0.0 0.0 
4.387264764529e-03 -1.023602671538e-03 0.0 
-1.023602671538e-03 -3.819617847747e-03 0.0 
0.0 0.0 0.0 
3.867234610462e-03 -1.973056417651e-03 0.0 
-1.973056417651e-03 -3.533028254828e-03 0.0 
0.0 0.0 0.0 
3.521191126710e-03 -2.195073893986e-03 0.0 
-2.195073893986e-03 -3.685201107190e-03 0.0 
0.0 0.0 0.0 
3.124781585177e-03 -2.759591955698e-03 0.0 
-2.759591955698e-03 -2.918560258202e-03 0.0 
0.0 0.0 0.0 
3.486295911722e-03 -2.460247301623e-03 0.0 
-2.460247301623e-03 -2.905151542639e-03 0.0 
0.0 0.0 0.0 
2.693573257969e-03 -2.992879805720e-03 0.0 
-2.992879805720e-03 -2.242126200553e-03 0.0 
0.0 0.0 0.0 
2.223043899206e-03 -3.282954770080e-03 0.0 
-3.282954770080e-03 -2.081561898315e-03 0.0 
0.0 0.0 0.0 
1.829123234941e-03 -3.283904225397e-03 0.0 
-3.283904225397e-03 -1.381607504374e-03 0.0 
0.0 0.0 0.0 
2.253300063385e-03 -3.053055930177e-03 0.0 
-3.053055930177e-03 -1.597660529542e-03 0.0 
0.0 0.0 0.0 
1.433374995355e-03 -3.102280455230e-03 0.0 
-3.102280455230e-03 -8.093443797126e-04 0.0 
0.0 0.0 0.0 
8.638669705230e-04 -3.109345943657e-03 0.0 
-3.109345943657e-03 -4.658056593489e-04 0.0 
0.0 0.0 0.0 
6.712308947695e-04 -2.842397798388e-03 0.0 
-2.842397798388e-03 -6.421496184269e-05 0.0 
0.0 0.0 0.0 
-1.169265928434e-04 -6.243241856527e-04 0.0 
-6.243241856527e-04 4.286748355306e-03 0.0 
0.0 0.0 0.0 
3.182070207355e-03 -8.750055760317e-05 0.0 
-8.750055760317e-05 -4.512658318270e-03 0.0 
0.0 0.0 0.0 
-1.795885253977e-03 4.081247572750e-03 0.0 
4.081247572750e-03 1.024393585794e-02 0.0 
0.0 0.0 0.0 
1.485733664415e-03 -3.573135091177e-04 0.0 
-3.573135091177e-04 2.207174575514e-03 0.0 
0.0 0.0 0.0 
2.687749673098e-03 1.699469274262e-03 0.0 
1.699469274262e-03 1.419817713587e-03 0.0 
0.0 0.0 0.0 
-2.046280830805e-03 2.175772957343e-03 0.0 
2.175772957343e-03 1.514918267587e-02 0.0 
0.0 0.0 0.0 
-2.143166652128e-03 1.811066750895e-03 0.0 
1.811066750895e-03 1.528854700364e-02 0.0 
0.0 0.0 0.0 
-2.392864148934e-03 1.534068591880e-03 0.0 
1.534068591880e-03 1.513921076518e-02 0.0 
0.0 0.0 0.0 
-2.191467377747e-03 1.467410454171e-03 0.0 
1.467410454171e-03 1.535036807603e-02 0.0 
0.0 0.0 0.0 
-1.915078217291e-03 1.727523843842e-03 0.0 
1.727523843842e-03 1.550149183971e-02 0.0 
0.0 0.0 0.0 
-1.974030140876e-03 1.406035514935e-03 0.0 
1.406035514935e-03 1.554045093801e-02 0.0 
0.0 0.0 0.0 
-2.200851611942e-03 1.157927982233e-03 0.0 
1.157927982233e-03 1.534579127167e-02 0.0 
0.0 0.0 0.0 
-2.000837493688e-03 1.117252494581e-03 0.0 
1.117252494581e-03 1.552318957244e-02 0.0 
0.0 0.0 0.0 
-2.182209983692e-03 8.883613333163e-04 0.0 
8.883613333163e-04 1.528684594367e-02 0.0 
0.0 0.0 0.0 
-2.003667663471e-03 8.663566219159e-04 0.0 
8.663566219159e-04 1.545860013871e-02 0.0 
0.0 0.0 0.0 
-1.789959910544e-03 1.072901623747e-03 0.0 
1.072901623747e-03 1.568709969459e-02 0.0 
0.0 0.0 0.0 
-1.814348045574e-03 8.362755359668e-04 0.0 
8.362755359668e-04 1.561754361389e-02 0.0 
0.0 0.0 0.0 
-1.991204776408e-03 6.539518226358e-04 0.0 
6.539518226358e-04 1.535517489990e-02 0.0 
0.0 0.0 0.0 
-1.826186535657e-03 6.334974432801e-04 0.0 
6.334974432801e-04 1.551687326612e-02 0.0 
0.0 0.0 0.0 
-1.972559163747e-03 4.787588298225e-04 0.0 
4.787588298225e-04 1.522482346662e-02 0.0 
0.0 0.0 0.0 
-1.832171260234e-03 4.644500697685e-04 0.0 
4.644500697685e-04 1.539090091585e-02 0.0 
0.0 0.0 0.0 
-1.652266077572e-03 5.992023661777e-04 0.0 
5.992023661777e-04 1.566786643026e-02 0.0 
0.0 0.0 0.0 
4.272130347482e-06 -7.685060413869e-04 0.0 
-7.685060413869e-04 1.351203255393e-03 0.0 
0.0 0.0 0.0 
3.073119712749e-03 7.131969368766e-04 0.0 
7.131969368766e-04 3.142353667909e-04 0.0 
0.0 0.0 0.0 
2.600473396672e-03 9.489147141183e-04 0.0 
9.489147141183e-04 1.178579049219e-03 0.0 
0.0 0.0 0.0 
-7.592015772885e-04 -1.243093141313e-03 0.0 
-1.243093141313e-03 2.535765300940e-03 0.0 
0.0 0.0 0.0 
-7.894914403286e-04 -1.221127231121e-03 0.0 
-1.221127231121e-03 2.755641897686e-03 0.0 
0.0 0.0 0.0 
-6.063028830176e-04 -1.428807955987e-03 0.0 
-1.428807955987e-03 2.624907078258e-03 0.0 
0.0 0.0 0.0 
-7.866770568648e-04 -1.164395538183e-03 0.0 
-1.164395538183e-03 2.983789250187e-03 0.0 
0.0 0.0 0.0 
-1.684713897528e-03 4.334314255474e-04 0.0 
4.334314255474e-04 1.554619965599e-02 0.0 
0.0 0.0 0.0 
-1.472105811158e-03 5.482953461568e-04 0.0 
5.482953461568e-04 1.580904414572e-02 0.0 
0.0 0.0 0.0 
2.773992800726e-03 3.550972520174e-03 0.0 
3.550972520174e-03 -1.784413100245e-03 0.0 
0.0 0.0 0.0 
2.413259655502e-03 3.826562555034e-03 0.0 
3.826562555034e-03 -8.739211807897e-04 0.0 
0.0 0.0 0.0 
-1.897674501417e-03 2.552110033143e-03 0.0 
2.552110033143e-03 1.492931231145e-02 0.0 
0.0 0.0 0.0 
-4.672073193627e-04 -5.840728240931e-04 0.0 
-5.840728240931e-04 4.308058061169e-03 0.0 
0.0 0.0 0.0 
-5.405827080444e-04 -7.051283386492e-04 0.0 
-7.051283386492e-04 4.001284977963e-03 0.0 
0.0 0.0 0.0 
1.582364982760e-03 4.330679772498e-03 0.0 
4.330679772498e-03 2.470849431239e-03 0.0 
0.0 0.0 0.0 
9.664662946649e-04 4.427283874847e-03 0.0 
4.427283874847e-03 3.376710816491e-03 0.0 
0.0 0.0 0.0 
1.337637350582e-03 4.293210245586e-03 0.0 
4.293210245586e-03 2.447950287042e-03 0.0 
0.0 0.0 0.0 
6.810575347314e-04 4.332396079307e-03 0.0 
4.332396079307e-03 3.388707951055e-03 0.0 
0.0 0.0 0.0 
3.459937507927e-04 4.426168991630e-03 0.0 
4.426168991630e-03 4.312694638282e-03 0.0 
0.0 0.0 0.0 
9.962277268217e-04 4.215167147941e-03 0.0 
4.215167147941e-03 2.484971366189e-03 0.0 
0.0 0.0 0.0 
2.397369209311e-03 -9.671797463608e-04 0.0 
-9.671797463608e-04 2.347173669087e-04 0.0 
0.0 0.0 0.0 
-1.569029018323e-03 1.019429901046e-03 0.0 
1.019429901046e-03 1.583406987390e-02 0.0 
0.0 0.0 0.0 
7.687536370630e-06 -1.965059545080e-03 0.0 
-1.965059545080e-03 1.113855895606e-03 0.0 
0.0 0.0 0.0 
-4.496723572160e-05 -1.704846844653e-03 0.0 
-1.704846844653e-03 1.043939034854e-03 0.0 
0.0 0.0 0.0 
-3.975161558020e-04 -4.765505878503e-04 0.0 
-4.765505878503e-04 4.638931895933e-03 0.0 
0.0 0.0 0.0 
3.507869614338e-03 4.444210481605e-04 0.0 
4.444210481605e-04 -5.547852635362e-04 0.0 
0.0 0.0 0.0 
9.968612400405e-04 4.600395764222e-03 0.0 
4.600395764222e-03 5.248175166145e-03 0.0 
0.0 0.0 0.0 
1.422916414051e-03 4.451995944672e-03 0.0 
4.451995944672e-03 4.571799062661e-03 0.0 
0.0 0.0 0.0 
9.960504625171e-04 4.510186575173e-03 0.0 
4.510186575173e-03 5.653040475552e-03 0.0 
0.0 0.0 0.0 
1.350501634856e-03 4.351741170844e-03 0.0 
4.351741170844e-03 5.048830434027e-03 0.0 
0.0 0.0 0.0 
9.421069552903e-04 4.445631669444e-03 0.0 
4.445631669444e-03 6.100766359854e-03 0.0 
0.0 0.0 0.0 
1.216417979702e-03 4.306365578104e-03 0.0 
4.306365578104e-03 5.561647397211e-03 0.0 
0.0 0.0 0.0 
1.629604438431e-03 4.153077626232e-03 0.0 
4.153077626232e-03 4.541530497462e-03 0.0 
0.0 0.0 0.0 
2.283913196829e-03 3.136257623627e-03 0.0 
3.136257623627e-03 2.878110107538e-03 0.0 
0.0 0.0 0.0 
1.413116197979e-03 4.138148930899e-03 0.0 
4.138148930899e-03 5.127713073342e-03 0.0 
0.0 0.0 0.0 
-1.840750813058e-03 3.297654571939e-04 0.0 
3.297654571939e-04 1.524339581344e-02 0.0 
0.0 0.0 0.0 
3.567009809238e-03 2.796008647896e-03 0.0 
2.796008647896e-03 3.092258439638e-04 0.0 
0.0 0.0 0.0 
1.800948840271e-03 -2.937322025649e-03 0.0 
-2.937322025649e-03 -1.002978046003e-03 0.0 
0.0 0.0 0.0 
8.169826734988e-05 -8.387526609674e-04 0.0 
-8.387526609674e-04 1.138819788279e-03 0.0 
0.0 0.0 0.0 
1.899970302624e-04 -2.613972536318e-03 0.0 
-2.613972536318e-03 2.759229431109e-04 0.0 
0.0 0.0 0.0 
-1.306967352672e-04 -6.467110810857e-04 0.0 
-6.467110810857e-04 1.580219120966e-03 0.0 
0.0 0.0 0.0 
-4.618576317932e-04 -7.989560154836e-04 0.0 
-7.989560154836e-04 1.985981360724e-03 0.0 
0.0 0.0 0.0 
1.542151093395e-03 -2.441695670153e-05 0.0 
-2.441695670153e-05 2.345145165137e-03 0.0 
0.0 0.0 0.0 
8.338671591962e-04 4.447608021640e-03 0.0 
4.447608021640e-03 6.586913658065e-03 0.0 
0.0 0.0 0.0 
5.721273316871e-04 4.524079129676e-03 0.0 
4.524079129676e-03 7.122840284539e-03 0.0 
0.0 0.0 0.0 
4.684896733057e-05 4.283081119514e-03 0.0 
4.283081119514e-03 4.344839299014e-03 0.0 
0.0 0.0 0.0 
-2.602935932178e-04 4.326296368500e-03 0.0 
4.326296368500e-03 5.263179825877e-03 0.0 
0.0 0.0 0.0 
2.196934283608e-03 2.840998151548e-03 0.0 
2.840998151548e-03 2.831932329690e-03 0.0 
0.0 0.0 0.0 
-2.743741803207e-03 1.729635358632e-03 0.0 
1.729635358632e-03 1.464331389064e-02 0.0 
0.0 0.0 0.0 
-2.350381984484e-03 9.058302244959e-04 0.0 
9.058302244959e-04 1.510401695495e-02 0.0 
0.0 0.0 0.0 
-2.282926791008e-03 6.631524453997e-04 0.0 
6.631524453997e-04 1.499843011952e-02 0.0 
0.0 0.0 0.0 
3.485844223913e-04 -4.896321560612e-04 0.0 
-4.896321560612e-04 1.044515468771e-03 0.0 
0.0 0.0 0.0 
2.286355218506e-04 -2.947637242741e-03 0.0 
-2.947637242741e-03 1.296396708556e-05 0.0 
0.0 0.0 0.0 
-1.671816093146e-03 1.645381408367e-03 0.0 
1.645381408367e-03 1.569005702975e-02 0.0 
0.0 0.0 0.0 
3.005274306542e-03 3.674630437616e-03 0.0 
3.674630437616e-03 -1.064305782054e-03 0.0 
0.0 0.0 0.0 
2.052759749371e-03 3.982695304881e-03 0.0 
3.982695304881e-03 -4.677452581024e-05 0.0 
0.0 0.0 0.0 
2.666432949675e-03 1.250996115436e-03 0.0 
1.250996115436e-03 -4.300612531823e-03 0.0 
0.0 0.0 0.0 
2.328523714966e-03 -1.752203744541e-05 0.0 
-1.752203744541e-05 -4.649647828193e-03 0.0 
0.0 0.0 0.0 
-1.531633141572e-03 3.885209969281e-04 0.0 
3.885209969281e-04 1.569343160934e-02 0.0 
0.0 0.0 0.0 
-1.296273248922e-03 4.777195616988e-04 0.0 
4.777195616988e-04 1.593857435667e-02 0.0 
0.0 0.0 0.0 
-5.805357915934e-04 -1.340074390488e-03 0.0 
-1.340074390488e-03 2.848977467415e-03 0.0 
0.0 0.0 0.0 
-7.485929229657e-04 -1.075025964265e-03 0.0 
-1.075025964265e-03 3.214787661673e-03 0.0 
0.0 0.0 0.0 
1.923648813762e-03 1.060946366148e-04 0.0 
1.060946366148e-04 1.809118014317e-03 0.0 
0.0 0.0 0.0 
1.698816090196e-04 -2.415272357082e-03 0.0 
-2.415272357082e-03 4.831104161836e-04 0.0 
0.0 0.0 0.0 
-1.207136459402e-03 6.613023059599e-04 0.0 
6.613023059599e-04 1.602826084959e-02 0.0 
0.0 0.0 0.0 
3.119413486722e-03 1.729708079958e-04 0.0 
1.729708079958e-04 -7.689382602338e-05 0.0 
0.0 0.0 0.0 
3.487189191878e-03 -1.533202771815e-04 0.0 
-1.533202771815e-04 -9.128459184510e-04 0.0 
0.0 0.0 0.0 
-9.542594124340e-04 -9.411559723431e-04 0.0 
-9.411559723431e-04 3.083004643849e-03 0.0 
0.0 0.0 0.0 
1.625132268504e-03 3.957804648633e-03 0.0 
3.957804648633e-03 -5.842679935663e-04 0.0 
0.0 0.0 0.0 
1.913896648071e-03 3.766626631777e-03 0.0 
3.766626631777e-03 -1.552920417368e-03 0.0 
0.0 0.0 0.0 
2.526738134829e-03 -2.778549857081e-03 0.0 
-2.778549857081e-03 -1.691519292334e-03 0.0 
0.0 0.0 0.0 
5.272541917009e-04 -2.636910029663e-03 0.0 
-2.636910029663e-03 2.696813668498e-04 0.0 
0.0 0.0 0.0 
-2.883652232609e-04 -5.263948979684e-04 0.0 
-5.263948979684e-04 1.827361746449e-03 0.0 
0.0 0.0 0.0 
1.514094146566e-03 3.372448902941e-04 0.0 
3.372448902941e-04 2.576232606908e-03 0.0 
0.0 0.0 0.0 
-1.567009988526e-03 1.970686547768e-03 0.0 
1.970686547768e-03 1.561170940916e-02 0.0 
0.0 0.0 0.0 
1.814638187967e-03 3.923810774415e-03 0.0 
3.923810774415e-03 4.146430122113e-03 0.0 
0.0 0.0 0.0 
2.061183286314e-03 3.978081184055e-03 0.0 
3.978081184055e-03 3.513677203556e-03 0.0 
0.0 0.0 0.0 
1.517099098336e-03 3.940876946057e-03 0.0 
3.940876946057e-03 4.790280693190e-03 0.0 
0.0 0.0 0.0 
-1.835473804532e-04 -2.051661185172e-03 0.0 
-2.051661185172e-03 6.917581243231e-04 0.0 
0.0 0.0 0.0 
1.175194179784e-03 -1.340495198376e-04 0.0 
-1.340495198376e-04 2.899652375983e-03 0.0 
0.0 0.0 0.0 
-5.500832424102e-04 -4.170790178456e-04 0.0 
-4.170790178456e-04 4.609458470605e-03 0.0 
0.0 0.0 0.0 
4.880085087797e-04 4.578662062520e-03 0.0 
4.578662062520e-03 7.570582404017e-03 0.0 
0.0 0.0 0.0 
2.503406203266e-04 4.590397717842e-03 0.0 
4.590397717842e-03 8.102941095201e-03 0.0 
0.0 0.0 0.0 
2.611047398822e-03 3.900024936029e-03 0.0 
3.900024936029e-03 -2.516329835420e-04 0.0 
0.0 0.0 0.0 
1.686397376142e-03 4.073329618417e-03 0.0 
4.073329618417e-03 7.543747989298e-04 0.0 
0.0 0.0 0.0 
1.059645077957e-03 4.074105689602e-03 0.0 
4.074105689602e-03 1.027410140410e-03 0.0 
0.0 0.0 0.0 
7.987548152907e-04 4.091603811157e-03 0.0 
4.091603811157e-03 1.803544381328e-03 0.0 
0.0 0.0 0.0 
-2.441596603970e-03 3.554964512637e-03 0.0 
3.554964512637e-03 1.184069170378e-02 0.0 
0.0 0.0 0.0 
2.168426385983e-03 4.057378655329e-03 0.0 
4.057378655329e-03 5.886250654284e-04 0.0 
0.0 0.0 0.0 
-1.502582343840e-03 4.232722286168e-03 0.0 
4.232722286168e-03 9.325776111893e-03 0.0 
0.0 0.0 0.0 
-1.984045721687e-03 3.950457042995e-03 0.0 
3.950457042995e-03 1.016590017377e-02 0.0 
0.0 0.0 0.0 
-1.680004868713e-03 4.114177081426e-03 0.0 
4.114177081426e-03 9.237816129877e-03 0.0 
0.0 0.0 0.0 
-2.481582264476e-05 4.468423262564e-03 0.0 
4.468423262564e-03 5.283064625002e-03 0.0 
0.0 0.0 0.0 
-6.038956617417e-04 4.332404377342e-03 0.0 
4.332404377342e-03 6.232605747818e-03 0.0 
0.0 0.0 0.0 
4.180172699638e-03 3.020791812728e-03 0.0 
3.020791812728e-03 -1.957958698061e-03 0.0 
0.0 0.0 0.0 
4.447732347247e-03 2.297524821731e-03 0.0 
2.297524821731e-03 -1.474678361121e-03 0.0 
0.0 0.0 0.0 
-3.642280891842e-04 -1.597145132465e-03 0.0 
-1.597145132465e-03 2.434634019054e-03 0.0 
0.0 0.0 0.0 
2.642341900727e-06 -1.360040092457e-03 0.0 
-1.360040092457e-03 2.759235960945e-03 0.0 
0.0 0.0 0.0 
2.193330822940e-03 -1.610204967561e-03 0.0 
-1.610204967561e-03 -1.585610101053e-04 0.0 
0.0 0.0 0.0 
-1.504597118979e-03 1.275574687769e-03 0.0 
1.275574687769e-03 1.586904669333e-02 0.0 
0.0 0.0 0.0 
-1.255947196738e-03 1.196655246177e-03 0.0 
1.196655246177e-03 1.600630752270e-02 0.0 
0.0 0.0 0.0 
-2.102788587593e-03 4.798205500387e-04 0.0 
4.798205500387e-04 1.504698955608e-02 0.0 
0.0 0.0 0.0 
-2.059612896617e-03 3.315223856971e-04 0.0 
3.315223856971e-04 1.488928617238e-02 0.0 
0.0 0.0 0.0 
-4.653606936211e-05 -1.279522162255e-03 0.0 
-1.279522162255e-03 1.065446993156e-03 0.0 
0.0 0.0 0.0 
-7.514111575296e-05 -1.355231528459e-03 0.0 
-1.355231528459e-03 9.432440085121e-04 0.0 
0.0 0.0 0.0 
9.650568619678e-04 -1.925151105427e-03 0.0 
-1.925151105427e-03 1.070492579798e-03 0.0 
0.0 0.0 0.0 
1.119029801083e-03 -4.048203729876e-04 0.0 
-4.048203729876e-04 2.775341682129e-03 0.0 
0.0 0.0 0.0 
-1.678482905075e-03 2.426355619388e-03 0.0 
2.426355619388e-03 1.522793960960e-02 0.0 
0.0 0.0 0.0 
-1.496466587447e-03 2.802481597199e-03 0.0 
2.802481597199e-03 1.498272774667e-02 0.0 
0.0 0.0 0.0 
-1.703940209581e-03 2.930828627725e-03 0.0 
2.930828627725e-03 1.463771277984e-02 0.0 
0.0 0.0 0.0 
1.883020503894e-03 5.171704366160e-04 0.0 
5.171704366160e-04 2.080620117501e-03 0.0 
0.0 0.0 0.0 
5.144888947695e-03 8.772916890545e-04 0.0 
8.772916890545e-04 -3.407034432420e-03 0.0 
0.0 0.0 0.0 
4.347873851951e-03 5.948190103463e-04 0.0 
5.948190103463e-04 -1.860817293968e-03 0.0 
0.0 0.0 0.0 
2.757873033450e-03 -1.371803822637e-03 0.0 
-1.371803822637e-03 -4.542270717499e-03 0.0 
0.0 0.0 0.0 
2.325978743056e-03 4.174575582907e-03 0.0 
4.174575582907e-03 2.415568725113e-03 0.0 
0.0 0.0 0.0 
8.864910117488e-05 -9.659493221015e-04 0.0 
-9.659493221015e-04 8.203178697004e-04 0.0 
0.0 0.0 0.0 
-5.062403523970e-04 4.496341029348e-03 0.0 
4.496341029348e-03 9.026431825696e-03 0.0 
0.0 0.0 0.0 
-4.613525303179e-04 -3.402388189131e-04 0.0 
-3.402388189131e-04 4.932422694617e-03 0.0 
0.0 0.0 0.0 
-3.316734487792e-04 -3.942548328205e-04 0.0 
-3.942548328205e-04 4.984647039514e-03 0.0 
0.0 0.0 0.0 
1.818926262827e-03 3.206762355657e-03 0.0 
3.206762355657e-03 3.660466241910e-03 0.0 
0.0 0.0 0.0 
-3.029952347168e-03 2.892862033637e-03 0.0 
2.892862033637e-03 1.253349258065e-02 0.0 
0.0 0.0 0.0 
2.693129664516e-03 3.890463881723e-03 0.0 
3.890463881723e-03 1.884678564636e-03 0.0 
0.0 0.0 0.0 
3.187416803485e-03 3.618970125027e-03 0.0 
3.618970125027e-03 8.475943686282e-04 0.0 
0.0 0.0 0.0 
-2.162534415245e-03 3.807998476311e-03 0.0 
3.807998476311e-03 1.009743973712e-02 0.0 
0.0 0.0 0.0 
-1.831336558383e-03 3.967817062205e-03 0.0 
3.967817062205e-03 9.167535662725e-03 0.0 
0.0 0.0 0.0 
-1.334017839489e-03 4.231968451942e-03 0.0 
4.231968451942e-03 8.264596536413e-03 0.0 
0.0 0.0 0.0 
-1.489072858853e-03 4.069110983621e-03 0.0 
4.069110983621e-03 8.183530512375e-03 0.0 
0.0 0.0 0.0 
2.033037485998e-03 -2.706737728315e-03 0.0 
-2.706737728315e-03 -1.046235705179e-03 0.0 
0.0 0.0 0.0 
1.417174668202e-03 -2.781028652819e-03 0.0 
-2.781028652819e-03 -4.511018374855e-04 0.0 
0.0 0.0 0.0 
6.577092169352e-04 4.553892553548e-03 0.0 
4.553892553548e-03 7.159193121083e-03 0.0 
0.0 0.0 0.0 
1.150460208399e-03 4.218642415253e-03 0.0 
4.218642415253e-03 5.730491279797e-03 0.0 
0.0 0.0 0.0 
2.298290952677e-04 4.703783888569e-03 0.0 
4.703783888569e-03 8.500914668179e-03 0.0 
0.0 0.0 0.0 
-4.164046089420e-07 4.663185802865e-03 0.0 
4.663185802865e-03 9.050056690377e-03 0.0 
0.0 0.0 0.0 
1.686848478291e-03 2.938031536005e-03 0.0 
2.938031536005e-03 3.643276743608e-03 0.0 
0.0 0.0 0.0 
2.056170446669e-03 2.546671241608e-03 0.0 
2.546671241608e-03 2.862366023531e-03 0.0 
0.0 0.0 0.0 
-6.144117164305e-04 -6.273270875401e-04 0.0 
-6.273270875401e-04 2.229846442416e-03 0.0 
0.0 0.0 0.0 
-8.401815286115e-04 4.138108927289e-03 0.0 
4.138108927289e-03 6.211551332383e-03 0.0 
0.0 0.0 0.0 
-1.300739204914e-03 1.870657963075e-03 0.0 
1.870657963075e-03 1.580159174601e-02 0.0 
0.0 0.0 0.0 
-2.433585869871e-03 3.595557290770e-03 0.0 
3.595557290770e-03 1.097343781637e-02 0.0 
0.0 0.0 0.0 
8.339750123807e-04 -2.266498722017e-04 0.0 
-2.266498722017e-04 3.422514834174e-03 0.0 
0.0 0.0 0.0 
7.914120307785e-04 -4.341107092794e-04 0.0 
-4.341107092794e-04 3.331313884086e-03 0.0 
0.0 0.0 0.0 
1.658320345627e-03 -1.208821219864e-03 0.0 
-1.208821219864e-03 -4.556910591328e-03 0.0 
0.0 0.0 0.0 
1.961263199392e-03 -2.779655205625e-03 0.0 
-2.779655205625e-03 -3.829523091726e-03 0.0 
0.0 0.0 0.0 
-1.008202211227e-03 5.643004171083e-04 0.0 
5.643004171083e-04 1.614597164331e-02 0.0 
0.0 0.0 0.0 
1.647887961649e-04 4.008294178443e-03 0.0 
4.008294178443e-03 2.094165694364e-03 0.0 
0.0 0.0 0.0 
7.228064376012e-06 3.996964437978e-03 0.0 
3.996964437978e-03 2.833904121419e-03 0.0 
0.0 0.0 0.0 
3.415023352351e-04 4.018328885672e-03 0.0 
4.018328885672e-03 1.359118053615e-03 0.0 
0.0 0.0 0.0 
-2.887615355943e-04 -9.288583342066e-05 0.0 
-9.288583342066e-05 5.711741731020e-03 0.0 
0.0 0.0 0.0 
-1.945118635003e-03 2.196486520845e-05 0.0 
2.196486520845e-05 1.410858300800e-02 0.0 
0.0 0.0 0.0 
-3.624852771740e-04 -2.874340143746e-04 0.0 
-2.874340143746e-04 5.261745174969e-03 0.0 
0.0 0.0 0.0 
-4.174552058634e-04 4.473578246679e-03 0.0 
4.473578246679e-03 6.307318131242e-03 0.0 
0.0 0.0 0.0 
-8.872642283287e-04 7.713502131833e-04 0.0 
7.713502131833e-04 1.621372538518e-02 0.0 
0.0 0.0 0.0 
2.961355747001e-03 3.539038020699e-03 0.0 
3.539038020699e-03 1.505995435970e-03 0.0 
0.0 0.0 0.0 
2.021420571074e-03 4.177141779540e-03 0.0 
4.177141779540e-03 1.511903369819e-03 0.0 
0.0 0.0 0.0 
2.312400680894e-03 2.694740402225e-04 0.0 
2.694740402225e-04 1.278401119426e-03 0.0 
0.0 0.0 0.0 
-1.137223070040e-03 3.629095933490e-04 0.0 
3.629095933490e-04 1.604656347057e-02 0.0 
0.0 0.0 0.0 
-8.004514941884e-04 4.465962280493e-04 0.0 
4.465962280493e-04 1.625841201083e-02 0.0 
0.0 0.0 0.0 
-2.409740259264e-03 6.632735339625e-04 0.0 
6.632735339625e-04 1.480488783584e-02 0.0 
0.0 0.0 0.0 
-2.320765120841e-03 4.497438196210e-04 0.0 
4.497438196210e-04 1.464968211908e-02 0.0 
0.0 0.0 0.0 
-2.503688316603e-03 9.211922785693e-04 0.0 
9.211922785693e-04 1.489948644436e-02 0.0 
0.0 0.0 0.0 
3.100984691856e-03 2.313615747627e-03 0.0 
2.313615747627e-03 -3.675740142797e-03 0.0 
0.0 0.0 0.0 
1.894866385470e-03 2.720405329410e-03 0.0 
2.720405329410e-03 -3.474944303295e-03 0.0 
0.0 0.0 0.0 
-1.342122829388e-03 9.494320379185e-04 0.0 
9.494320379185e-04 1.597016664090e-02 0.0 
0.0 0.0 0.0 
-6.830232342415e-04 -1.195144054075e-03 0.0 
-1.195144054075e-03 2.316847044894e-03 0.0 
0.0 0.0 0.0 
-8.641455048491e-04 -9.547894201429e-04 0.0 
-9.547894201429e-04 2.643392505713e-03 0.0 
0.0 0.0 0.0 
1.479561686431e-04 -2.266412430587e-03 0.0 
-2.266412430587e-03 6.881020300330e-04 0.0 
0.0 0.0 0.0 
4.042915453990e-04 -2.474215116284e-03 0.0 
-2.474215116284e-03 5.684229808644e-04 0.0 
0.0 0.0 0.0 
-3.276158243305e-04 -1.471807285241e-03 0.0 
-1.471807285241e-03 2.671097992838e-03 0.0 
0.0 0.0 0.0 
-7.527037462709e-05 -1.714233191753e-03 0.0 
-1.714233191753e-03 2.202728648682e-03 0.0 
0.0 0.0 0.0 
-1.063302678287e-04 4.551028273390e-03 0.0 
4.551028273390e-03 8.347519100156e-03 0.0 
0.0 0.0 0.0 
-3.759242197826e-04 4.513432837809e-03 0.0 
4.513432837809e-03 9.281796726003e-03 0.0 
0.0 0.0 0.0 
5.864713442634e-04 4.614719697365e-03 0.0 
4.614719697365e-03 6.324692626869e-03 0.0 
0.0 0.0 0.0 
3.050067857070e-03 -3.796881561239e-04 0.0 
-3.796881561239e-04 -3.389653798560e-04 0.0 
0.0 0.0 0.0 
3.313040687735e-03 -6.970570417212e-04 0.0 
-6.970570417212e-04 -1.055155373085e-03 0.0 
0.0 0.0 0.0 
3.781126186202e-03 -4.029307636709e-04 0.0 
-4.029307636709e-04 -1.581480603181e-03 0.0 
0.0 0.0 0.0 
-1.147774917365e-03 1.461593258145e-03 0.0 
1.461593258145e-03 1.599788041810e-02 0.0 
0.0 0.0 0.0 
-8.443703852811e-04 1.369846705225e-03 0.0 
1.369846705225e-03 1.613097874954e-02 0.0 
0.0 0.0 0.0 
2.672444900100e-03 -2.492703574603e-03 0.0 
-2.492703574603e-03 -1.633520762980e-03 0.0 
0.0 0.0 0.0 
3.220863287644e-03 -2.409126514686e-03 0.0 
-2.409126514686e-03 -2.286566201454e-03 0.0 
0.0 0.0 0.0 
1.626330462353e-03 -2.643495207893e-03 0.0 
-2.643495207893e-03 -4.829671116978e-04 0.0 
0.0 0.0 0.0 
-1.154559060476e-03 2.204823022354e-03 0.0 
2.204823022354e-03 1.568884021290e-02 0.0 
0.0 0.0 0.0 
-2.518461908699e-04 -3.486648353146e-04 0.0 
-3.486648353146e-04 5.328934051692e-03 0.0 
0.0 0.0 0.0 
-2.039149107541e-04 -4.297992488664e-04 0.0 
-4.297992488664e-04 5.031341693890e-03 0.0 
0.0 0.0 0.0 
8.486064609459e-06 -9.801922717924e-04 0.0 
-9.801922717924e-04 7.284020888353e-04 0.0 
0.0 0.0 0.0 
-1.328886512195e-04 -1.412131074401e-03 0.0 
-1.412131074401e-03 8.574021871948e-04 0.0 
0.0 0.0 0.0 
7.485156118208e-04 4.056875062373e-03 0.0 
4.056875062373e-03 -1.950005228182e-04 0.0 
0.0 0.0 0.0 
9.840518815191e-04 3.981432321322e-03 0.0 
3.981432321322e-03 -1.196176822913e-03 0.0 
0.0 0.0 0.0 
-1.269301884670e-03 3.171863059188e-03 0.0 
3.171863059188e-03 1.465980455402e-02 0.0 
0.0 0.0 0.0 
-1.472151492571e-03 3.312130924625e-03 0.0 
3.312130924625e-03 1.427219608906e-02 0.0 
0.0 0.0 0.0 
-1.006473034772e-03 3.071488528147e-03 0.0 
3.071488528147e-03 1.499497756412e-02 0.0 
0.0 0.0 0.0 
-4.067266573702e-04 -3.626589235827e-04 0.0 
-3.626589235827e-04 2.024469925573e-03 0.0 
0.0 0.0 0.0 
2.233917039484e-03 3.700923531523e-03 0.0 
3.700923531523e-03 3.187737818035e-03 0.0 
0.0 0.0 0.0 
1.407424998215e-03 7.231690365727e-04 0.0 
7.231690365727e-04 2.872299733170e-03 0.0 
0.0 0.0 0.0 
1.781140501577e-03 9.442686730266e-04 0.0 
9.442686730266e-04 2.447498411620e-03 0.0 
0.0 0.0 0.0 
1.008619365927e-03 5.224638387465e-04 0.0 
5.224638387465e-04 3.454011966916e-03 0.0 
0.0 0.0 0.0 
1.898140782157e-03 3.458318979614e-03 0.0 
3.458318979614e-03 3.736581388870e-03 0.0 
0.0 0.0 0.0 
1.423502969654e-03 3.529914971253e-03 0.0 
3.529914971253e-03 4.475178210651e-03 0.0 
0.0 0.0 0.0 
1.130699549183e-03 4.034765783736e-03 0.0 
4.034765783736e-03 5.475550273264e-03 0.0 
0.0 0.0 0.0 
9.906231917575e-04 8.838199832001e-05 0.0 
8.838199832001e-05 -4.588181519168e-03 0.0 
0.0 0.0 0.0 
-8.808793997756e-04 2.781524973579e-04 0.0 
2.781524973579e-04 1.620750987529e-02 0.0 
0.0 0.0 0.0 
-2.150982894784e-03 3.110074065361e-04 0.0 
3.110074065361e-04 1.467534083635e-02 0.0 
0.0 0.0 0.0 
2.275903371056e-05 -6.333855142503e-04 0.0 
-6.333855142503e-04 -4.302222781497e-03 0.0 
0.0 0.0 0.0 
-2.083265133208e-03 2.030416091331e-04 0.0 
2.030416091331e-04 1.449437482089e-02 0.0 
0.0 0.0 0.0 
-2.020030946026e-03 2.210866315541e-04 0.0 
2.210866315541e-04 1.471055915112e-02 0.0 
0.0 0.0 0.0 
-2.040473528733e-03 1.222077625252e-04 0.0 
1.222077625252e-04 1.428184034703e-02 0.0 
0.0 0.0 0.0 
2.164289015607e-05 -3.010934826115e-04 0.0 
-3.010934826115e-04 1.539402089008e-03 0.0 
0.0 0.0 0.0 
-2.526632871116e-03 6.255245966101e-04 0.0 
6.255245966101e-04 1.454537421468e-02 0.0 
0.0 0.0 0.0 
-2.654640473486e-03 9.627198278539e-04 0.0 
9.627198278539e-04 1.468630430042e-02 0.0 
0.0 0.0 0.0 
-7.190883216956e-05 -8.527256994665e-04 0.0 
-8.527256994665e-04 5.860929363632e-04 0.0 
0.0 0.0 0.0 
-8.372812818100e-04 2.065330574495e-03 0.0 
2.065330574495e-03 1.586639471134e-02 0.0 
0.0 0.0 0.0 
3.441144596586e-04 -6.798609851718e-04 0.0 
-6.798609851718e-04 4.542243737948e-04 0.0 
0.0 0.0 0.0 
4.315610113351e-04 -6.976170286795e-04 0.0 
-6.976170286795e-04 5.590872229762e-04 0.0 
0.0 0.0 0.0 
5.799797078997e-04 -2.933288504325e-04 0.0 
-2.933288504325e-04 3.934406404497e-03 0.0 
0.0 0.0 0.0 
5.230478331550e-04 -4.560394430835e-04 0.0 
-4.560394430835e-04 3.844829171726e-03 0.0 
0.0 0.0 0.0 
3.449612678214e-04 -3.597541196240e-04 0.0 
-3.597541196240e-04 4.386477748715e-03 0.0 
0.0 0.0 0.0 
2.956842694218e-04 -4.582204835247e-04 0.0 
-4.582204835247e-04 4.294911161247e-03 0.0 
0.0 0.0 0.0 
4.059012569957e-04 -5.849221866378e-04 0.0 
-5.849221866378e-04 3.808804980088e-03 0.0 
0.0 0.0 0.0 
1.911686890700e-04 -5.379778845331e-04 0.0 
-5.379778845331e-04 4.283334354269e-03 0.0 
0.0 0.0 0.0 
-2.230558070645e-03 2.917264144753e-04 0.0 
2.917264144753e-04 1.445912655685e-02 0.0 
0.0 0.0 0.0 
1.264628705033e-04 -4.493515172054e-04 0.0 
-4.493515172054e-04 4.784690159408e-03 0.0 
0.0 0.0 0.0 
2.826144197208e-05 -4.885210794745e-04 0.0 
-4.885210794745e-04 4.719955504108e-03 0.0 
0.0 0.0 0.0 
7.360949990135e-06 -4.570733379960e-04 0.0 
-4.570733379960e-04 5.196985635788e-03 0.0 
0.0 0.0 0.0 
-1.963257919713e-03 3.749885522647e-03 0.0 
3.749885522647e-03 9.117161565206e-03 0.0 
0.0 0.0 0.0 
5.532746395509e-04 4.127626268210e-03 0.0 
4.127626268210e-03 2.607444029445e-03 0.0 
0.0 0.0 0.0 
-1.565277063003e-04 4.012313205933e-03 0.0 
4.012313205933e-03 3.609859427118e-03 0.0 
0.0 0.0 0.0 
-7.707270229155e-04 3.814555740589e-03 0.0 
3.814555740589e-03 3.905334296049e-03 0.0 
0.0 0.0 0.0 
2.211078323100e-05 4.855607570890e-03 0.0 
4.855607570890e-03 9.481766767614e-03 0.0 
0.0 0.0 0.0 
-1.913798116498e-04 4.714410817357e-03 0.0 
4.714410817357e-03 9.907086536896e-03 0.0 
0.0 0.0 0.0 
-5.824254722529e-04 -2.624058180020e-04 0.0 
-2.624058180020e-04 4.870135490891e-03 0.0 
0.0 0.0 0.0 
-6.838557003664e-04 -3.132632234642e-04 0.0 
-3.132632234642e-04 4.571145004082e-03 0.0 
0.0 0.0 0.0 
-1.992325445227e-03 1.326817761906e-04 0.0 
1.326817761906e-04 1.450166774511e-02 0.0 
0.0 0.0 0.0 
-1.949401461941e-03 8.829271342821e-05 0.0 
8.829271342821e-05 1.447492305838e-02 0.0 
0.0 0.0 0.0 
-1.914890761773e-03 1.631219337832e-04 0.0 
1.631219337832e-04 1.481977663852e-02 0.0 
0.0 0.0 0.0 
-1.885374483657e-03 1.061438119715e-04 0.0 
1.061438119715e-04 1.477059508113e-02 0.0 
0.0 0.0 0.0 
-1.817178391690e-03 1.808263319924e-04 0.0 
1.808263319924e-04 1.509355431064e-02 0.0 
0.0 0.0 0.0 
-1.797808863986e-03 1.075072459753e-04 0.0 
1.075072459753e-04 1.503820722214e-02 0.0 
0.0 0.0 0.0 
-1.697495203635e-03 1.818362257621e-04 0.0 
1.818362257621e-04 1.534657471795e-02 0.0 
0.0 0.0 0.0 
7.723074052683e-04 4.385817844885e-03 0.0 
4.385817844885e-03 6.481665249999e-03 0.0 
0.0 0.0 0.0 
-5.184545457195e-04 3.891592958827e-03 0.0 
3.891592958827e-03 2.397222354324e-03 0.0 
0.0 0.0 0.0 
-2.642492217957e-03 3.436642087003e-03 0.0 
3.436642087003e-03 1.095943246525e-02 0.0 
0.0 0.0 0.0 
1.488679563115e-03 2.651472730180e-03 0.0 
2.651472730180e-03 3.693333452678e-03 0.0 
0.0 0.0 0.0 
1.868282388760e-03 2.248353731876e-03 0.0 
2.248353731876e-03 2.928476211306e-03 0.0 
0.0 0.0 0.0 
-1.147173471168e-03 4.115170386416e-03 0.0 
4.115170386416e-03 7.178469588803e-03 0.0 
0.0 0.0 0.0 
-1.384275674890e-03 3.849630708553e-03 0.0 
3.849630708553e-03 7.202967043102e-03 0.0 
0.0 0.0 0.0 
7.704786379921e-04 2.440717833736e-05 0.0 
2.440717833736e-05 3.710204007642e-03 0.0 
0.0 0.0 0.0 
3.011992115311e-03 3.841288832689e-03 0.0 
3.841288832689e-03 -3.475629732025e-04 0.0 
0.0 0.0 0.0 
-5.809249982580e-04 2.449920890276e-03 0.0 
2.449920890276e-03 1.569878765993e-02 0.0 
0.0 0.0 0.0 
-1.592592674231e-03 2.459076684365e-03 0.0 
2.459076684365e-03 -2.767025156790e-03 0.0 
0.0 0.0 0.0 
2.803707333472e-04 2.410101503015e-03 0.0 
2.410101503015e-03 -3.420188298887e-03 0.0 
0.0 0.0 0.0 
2.511785414774e-03 4.045674210807e-03 0.0 
4.045674210807e-03 5.385549772392e-04 0.0 
0.0 0.0 0.0 
-9.728917042282e-04 4.304391915773e-03 0.0 
4.304391915773e-03 7.250029818407e-03 0.0 
0.0 0.0 0.0 
3.105434935332e-04 4.194046102024e-03 0.0 
4.194046102024e-03 3.459635616016e-03 0.0 
0.0 0.0 0.0 
-3.373512596035e-04 4.095464504009e-03 0.0 
4.095464504009e-03 4.435881219977e-03 0.0 
0.0 0.0 0.0 
2.711272047136e-03 -2.841446511614e-05 0.0 
-2.841446511614e-05 4.633718183191e-04 0.0 
0.0 0.0 0.0 
-2.250575416694e-04 -1.478140233409e-03 0.0 
-1.478140233409e-03 7.932254140103e-04 0.0 
0.0 0.0 0.0 
5.125780556590e-04 4.029164601010e-03 0.0 
4.029164601010e-03 6.156854304901e-04 0.0 
0.0 0.0 0.0 
-1.727269320990e-03 2.887703791571e-04 0.0 
2.887703791571e-04 1.538666477884e-02 0.0 
0.0 0.0 0.0 
-3.852217878781e-04 3.974650914961e-03 0.0 
3.974650914961e-03 1.028410459859e-03 0.0 
0.0 0.0 0.0 
-6.813021984664e-04 -1.451767747906e-04 0.0 
-1.451767747906e-04 4.800351043835e-03 0.0 
0.0 0.0 0.0 
3.769368670107e-03 3.461339934407e-03 0.0 
3.461339934407e-03 -1.177156109596e-03 0.0 
0.0 0.0 0.0 
1.579994236229e-04 4.566161389221e-03 0.0 
4.566161389221e-03 5.370223150893e-03 0.0 
0.0 0.0 0.0 
1.332095106135e-03 4.030990830506e-03 0.0 
4.030990830506e-03 2.510168928223e-04 0.0 
0.0 0.0 0.0 
1.320786637058e-03 4.136672448588e-03 0.0 
4.136672448588e-03 1.598002277435e-03 0.0 
0.0 0.0 0.0 
-2.028307370086e-03 3.899132541445e-03 0.0 
3.899132541445e-03 1.110086978039e-02 0.0 
0.0 0.0 0.0 
-2.808878132680e-03 3.132588341552e-03 0.0 
3.132588341552e-03 1.254300863948e-02 0.0 
0.0 0.0 0.0 
-2.654920385275e-03 3.378397588812e-03 0.0 
3.378397588812e-03 1.179422258658e-02 0.0 
0.0 0.0 0.0 
4.399955234681e-03 2.944419906489e-03 0.0 
2.944419906489e-03 -1.878010577135e-03 0.0 
0.0 0.0 0.0 
-5.677774919705e-04 4.124540208226e-03 0.0 
4.124540208226e-03 5.317917029483e-03 0.0 
0.0 0.0 0.0 
-1.003528594806e-03 3.827737024093e-03 0.0 
3.827737024093e-03 5.448756412819e-03 0.0 
0.0 0.0 0.0 
-9.978344581211e-04 4.446354158551e-03 0.0 
4.446354158551e-03 8.471025775722e-03 0.0 
0.0 0.0 0.0 
-1.860886483009e-03 3.068249757808e-03 0.0 
3.068249757808e-03 1.422980563356e-02 0.0 
0.0 0.0 0.0 
-1.604165500662e-03 3.431013894843e-03 0.0 
3.431013894843e-03 1.381394964423e-02 0.0 
0.0 0.0 0.0 
-1.213233858903e-03 3.654768326595e-03 0.0 
3.654768326595e-03 1.384451128702e-02 0.0 
0.0 0.0 0.0 
-1.330596556905e-03 3.767696945623e-03 0.0 
3.767696945623e-03 1.334161414787e-02 0.0 
0.0 0.0 0.0 
-1.681530716757e-03 3.568144548940e-03 0.0 
3.568144548940e-03 1.328243675322e-02 0.0 
0.0 0.0 0.0 
-1.377522814139e-03 3.879707420611e-03 0.0 
3.879707420611e-03 1.276200387019e-02 0.0 
0.0 0.0 0.0 
-1.031320342092e-03 4.071835912740e-03 0.0 
4.071835912740e-03 1.285513420286e-02 0.0 
0.0 0.0 0.0 
-1.056498490211e-03 4.166175441769e-03 0.0 
4.166175441769e-03 1.221209614385e-02 0.0 
0.0 0.0 0.0 
-7.053216283998e-04 4.411118957638e-03 0.0 
4.411118957638e-03 1.237677064776e-02 0.0 
0.0 0.0 0.0 
-7.478187346779e-04 4.414648869609e-03 0.0 
4.414648869609e-03 1.162843032682e-02 0.0 
0.0 0.0 0.0 
-1.009217497191e-03 4.242788506402e-03 0.0 
4.242788506402e-03 1.149059979762e-02 0.0 
0.0 0.0 0.0 
-6.936643511086e-04 4.435580693423e-03 0.0 
4.435580693423e-03 1.090031927237e-02 0.0 
0.0 0.0 0.0 
-4.958058983918e-04 4.618668880681e-03 0.0 
4.618668880681e-03 1.104258650785e-02 0.0 
0.0 0.0 0.0 
-9.115546970524e-04 4.325015401334e-03 0.0 
4.325015401334e-03 1.072834887548e-02 0.0 
0.0 0.0 0.0 
1.061281532450e-03 3.059407453917e-03 0.0 
3.059407453917e-03 4.474849640109e-03 0.0 
0.0 0.0 0.0 
2.735403103336e-03 3.999565243034e-03 0.0 
3.999565243034e-03 5.908077443114e-04 0.0 
0.0 0.0 0.0 
1.523699896505e-03 1.263982820307e-03 0.0 
1.263982820307e-03 -4.252829503796e-03 0.0 
0.0 0.0 0.0 
7.022486837983e-04 3.650018250100e-03 0.0 
3.650018250100e-03 -2.624095385495e-03 0.0 
0.0 0.0 0.0 
-2.497491989101e-04 4.572027482140e-03 0.0 
4.572027482140e-03 6.420585214443e-03 0.0 
0.0 0.0 0.0 
-3.857760709357e-04 4.583094262046e-03 0.0 
4.583094262046e-03 1.283122227162e-02 0.0 
0.0 0.0 0.0 
-5.061704665542e-04 4.022039901743e-03 0.0 
4.022039901743e-03 1.400646607452e-02 0.0 
0.0 0.0 0.0 
3.844879245809e-03 3.148633608447e-03 0.0 
3.148633608447e-03 -1.966444839742e-03 0.0 
0.0 0.0 0.0 
5.710980251838e-05 5.109614349077e-03 0.0 
5.109614349077e-03 9.539036676368e-03 0.0 
0.0 0.0 0.0 
-2.244849521002e-03 3.761730365788e-03 0.0 
3.761730365788e-03 1.103485307896e-02 0.0 
0.0 0.0 0.0 
3.772818937572e-03 2.045295423266e-03 0.0 
2.045295423266e-03 -3.582185722314e-03 0.0 
0.0 0.0 0.0 
2.515512783248e-04 4.910743860216e-03 0.0 
4.910743860216e-03 8.170507316846e-03 0.0 
0.0 0.0 0.0 
-1.965817736092e-03 3.220180615990e-03 0.0 
3.220180615990e-03 1.376235244824e-02 0.0 
0.0 0.0 0.0 
-2.015827953509e-03 3.385113578423e-03 0.0 
3.385113578423e-03 1.322809841129e-02 0.0 
0.0 0.0 0.0 
-2.294826126490e-03 3.015538905885e-03 0.0 
3.015538905885e-03 1.371456500397e-02 0.0 
0.0 0.0 0.0 
-5.182306242446e-04 3.446930345908e-03 0.0 
3.446930345908e-03 1.482546452186e-02 0.0 
0.0 0.0 0.0 
-2.562827303761e-03 1.243503359168e-03 0.0 
1.243503359168e-03 1.494187697728e-02 0.0 
0.0 0.0 0.0 
5.341603637609e-04 3.916649046994e-03 0.0 
3.916649046994e-03 5.924400239339e-03 0.0 
0.0 0.0 0.0 
4.027074589076e-03 2.337967876468e-03 0.0 
2.337967876468e-03 -6.669876009476e-04 0.0 
0.0 0.0 0.0 
3.968587224025e-03 2.831899580218e-03 0.0 
2.831899580218e-03 -5.475420707036e-04 0.0 
0.0 0.0 0.0 
4.272933007931e-03 2.808963189878e-03 0.0 
2.808963189878e-03 -1.169414828166e-03 0.0 
0.0 0.0 0.0 
-1.358618322608e-03 3.992355737534e-03 0.0 
3.992355737534e-03 1.210113937413e-02 0.0 
0.0 0.0 0.0 
6.895387501972e-04 2.319956922327e-03 0.0 
2.319956922327e-03 4.432172503808e-03 0.0 
0.0 0.0 0.0 
1.279211314985e-03 1.960247941178e-03 0.0 
1.960247941178e-03 3.552910972359e-03 0.0 
0.0 0.0 0.0 
1.243197312447e-03 1.586293051932e-03 0.0 
1.586293051932e-03 3.426762392136e-03 0.0 
0.0 0.0 0.0 
1.815025763190e-03 1.615018460616e-03 0.0 
1.615018460616e-03 2.673062826667e-03 0.0 
0.0 0.0 0.0 
6.506413682738e-04 1.501378302429e-03 0.0 
1.501378302429e-03 4.155197476428e-03 0.0 
0.0 0.0 0.0 
-2.134291893153e-04 4.962882951047e-03 0.0 
4.962882951047e-03 1.160473407305e-02 0.0 
0.0 0.0 0.0 
-1.223847937666e-04 5.077381546454e-03 0.0 
5.077381546454e-03 1.094816090173e-02 0.0 
0.0 0.0 0.0 
3.021564238781e-03 -2.708582580704e-03 0.0 
-2.708582580704e-03 -2.308391151808e-03 0.0 
0.0 0.0 0.0 
3.725906001015e-03 -2.154263479883e-03 0.0 
-2.154263479883e-03 -2.850896839396e-03 0.0 
0.0 0.0 0.0 
3.862959201565e-03 -1.894473330635e-03 0.0 
-1.894473330635e-03 -2.742404504119e-03 0.0 
0.0 0.0 0.0 
4.330270480316e-03 -1.458568179292e-03 0.0 
-1.458568179292e-03 -3.232990033895e-03 0.0 
0.0 0.0 0.0 
4.141866086879e-03 -1.712414040324e-03 0.0 
-1.712414040324e-03 -3.378245571427e-03 0.0 
0.0 0.0 0.0 
4.646845835984e-03 -8.447326091743e-04 0.0 
-8.447326091743e-04 -3.611463127592e-03 0.0 
0.0 0.0 0.0 
4.808463220569e-03 -6.867101639126e-04 0.0 
-6.867101639126e-04 -3.425253013350e-03 0.0 
0.0 0.0 0.0 
4.770656364712e-03 -5.572204380640e-05 0.0 
-5.572204380640e-05 -3.824895873718e-03 0.0 
0.0 0.0 0.0 
-2.732410873664e-04 4.579325685598e-03 0.0 
4.579325685598e-03 9.583193444266e-03 0.0 
0.0 0.0 0.0 
5.314305531270e-04 7.773121659610e-04 0.0 
7.773121659610e-04 4.173676404651e-03 0.0 
0.0 0.0 0.0 
2.090424064473e-03 -1.336970883845e-03 0.0 
-1.336970883845e-03 3.229979139109e-04 0.0 
0.0 0.0 0.0 
2.560437160532e-03 -1.287418990655e-03 0.0 
-1.287418990655e-03 -3.632187298063e-04 0.0 
0.0 0.0 0.0 
2.678161900315e-03 -1.519406126492e-03 0.0 
-1.519406126492e-03 -7.978600905683e-04 0.0 
0.0 0.0 0.0 
-1.034246608965e-04 -1.843302179478e-03 0.0 
-1.843302179478e-03 1.979373385543e-03 0.0 
0.0 0.0 0.0 
2.254556163654e-04 -1.940162352644e-03 0.0 
-1.940162352644e-03 1.692416293799e-03 0.0 
0.0 0.0 0.0 
2.480437023276e-04 -1.772517793459e-03 0.0 
-1.772517793459e-03 1.944344451092e-03 0.0 
0.0 0.0 0.0 
-3.854680358186e-04 -1.685281549763e-03 0.0 
-1.685281549763e-03 2.225492635961e-03 0.0 
0.0 0.0 0.0 
1.785141165096e-03 4.235827963744e-03 0.0 
4.235827963744e-03 3.986643966077e-03 0.0 
0.0 0.0 0.0 
4.724851034549e-04 4.683092684809e-04 0.0 
4.683092684809e-04 4.235145212795e-03 0.0 
0.0 0.0 0.0 
3.915316100415e-03 1.670847821065e-04 0.0 
1.670847821065e-04 -1.413784013852e-03 0.0 
0.0 0.0 0.0 
5.746152079995e-04 -2.142954524659e-03 0.0 
-2.142954524659e-03 1.152766476219e-03 0.0 
0.0 0.0 0.0 
-2.830123807411e-03 8.282867207648e-04 0.0 
8.282867207648e-04 1.411583533626e-02 0.0 
0.0 0.0 0.0 
-2.944473595811e-03 1.312553895082e-03 0.0 
1.312553895082e-03 1.429605621787e-02 0.0 
0.0 0.0 0.0 
-3.101227968887e-03 1.717937496317e-03 0.0 
1.717937496317e-03 1.411924207783e-02 0.0 
0.0 0.0 0.0 
-2.916273141985e-03 1.835472386730e-03 0.0 
1.835472386730e-03 1.434711006249e-02 0.0 
0.0 0.0 0.0 
-2.799304083074e-03 1.014036222777e-03 0.0 
1.014036222777e-03 1.444232926259e-02 0.0 
0.0 0.0 0.0 
-5.307483962427e-04 -1.218583649129e-03 0.0 
-1.218583649129e-03 3.089414754360e-03 0.0 
0.0 0.0 0.0 
-6.859492129996e-04 -9.620292109556e-04 0.0 
-9.620292109556e-04 3.452454552657e-03 0.0 
0.0 0.0 0.0 
-8.710001995477e-04 -8.081914156987e-04 0.0 
-8.081914156987e-04 3.524206622085e-03 0.0 
0.0 0.0 0.0 
-7.971572170645e-04 -7.107889849176e-04 0.0 
-7.107889849176e-04 3.761433513042e-03 0.0 
0.0 0.0 0.0 
-9.492875916675e-04 -5.530176647217e-04 0.0 
-5.530176647217e-04 3.775085172451e-03 0.0 
0.0 0.0 0.0 
-1.009684659683e-03 -6.284728431302e-04 0.0 
-6.284728431302e-04 3.561386158123e-03 0.0 
0.0 0.0 0.0 
-8.732270946828e-04 -4.647683897853e-04 0.0 
-4.647683897853e-04 4.020404949864e-03 0.0 
0.0 0.0 0.0 
-9.955326720719e-04 -3.175433472582e-04 0.0 
-3.175433472582e-04 3.957032362449e-03 0.0 
0.0 0.0 0.0 
-2.519320091681e-03 4.447568987681e-04 0.0 
4.447568987681e-04 1.416344028131e-02 0.0 
0.0 0.0 0.0 
-1.593965116134e-03 -2.399771564606e-03 0.0 
-2.399771564606e-03 -7.051448183369e-04 0.0 
0.0 0.0 0.0 
-6.397196386403e-04 -3.227953635598e-03 0.0 
-3.227953635598e-03 -4.754245693097e-04 0.0 
0.0 0.0 0.0 
-8.382604907802e-04 -2.397837522975e-03 0.0 
-2.397837522975e-03 5.455039618466e-04 0.0 
0.0 0.0 0.0 
6.020683331592e-05 -3.379952099391e-03 0.0 
-3.379952099391e-03 -4.375442638874e-04 0.0 
0.0 0.0 0.0 
9.266560526085e-04 -3.503671752654e-03 0.0 
-3.503671752654e-03 -2.041461509805e-03 0.0 
0.0 0.0 0.0 
1.391019209889e-03 -3.440420316163e-03 0.0 
-3.440420316163e-03 -1.709470062017e-03 0.0 
0.0 0.0 0.0 
2.259922527283e-03 -3.258001078726e-03 0.0 
-3.258001078726e-03 -3.056391891310e-03 0.0 
0.0 0.0 0.0 
1.321255860927e-04 -3.217724187076e-03 0.0 
-3.217724187076e-03 -2.465478005078e-03 0.0 
0.0 0.0 0.0 
-8.632298457738e-04 -8.768211756602e-04 0.0 
-8.768211756602e-04 5.273775599938e-04 0.0 
0.0 0.0 0.0 
-7.179922796333e-04 -1.634677152585e-03 0.0 
-1.634677152585e-03 7.042127619132e-04 0.0 
0.0 0.0 0.0 
-5.338973105247e-04 -5.484182767097e-04 0.0 
-5.484182767097e-04 4.565926137213e-04 0.0 
0.0 0.0 0.0 
-4.956481460849e-04 -1.208826276395e-03 0.0 
-1.208826276395e-03 6.702625735035e-04 0.0 
0.0 0.0 0.0 
-3.303957515697e-04 -2.138891240486e-03 0.0 
-2.138891240486e-03 6.400900142886e-04 0.0 
0.0 0.0 0.0 
-4.559870391171e-05 -1.821462320487e-03 0.0 
-1.821462320487e-03 9.079189906220e-04 0.0 
0.0 0.0 0.0 
-1.314276722254e-04 -3.397360123815e-04 0.0 
-3.397360123815e-04 5.677558054980e-03 0.0 
0.0 0.0 0.0 
-1.162727579027e-03 -2.561603577527e-04 0.0 
-2.561603577527e-04 3.380059698837e-03 0.0 
0.0 0.0 0.0 
-1.113685718667e-03 -5.063880174851e-04 0.0 
-5.063880174851e-04 3.205147187192e-03 0.0 
0.0 0.0 0.0 
-1.057782733023e-03 -4.934487980708e-04 0.0 
-4.934487980708e-04 2.977236166369e-03 0.0 
0.0 0.0 0.0 
-1.010936946310e-03 -7.724039496019e-04 0.0 
-7.724039496019e-04 2.975379210341e-03 0.0 
0.0 0.0 0.0 
-1.118423562458e-03 -4.834294635448e-04 0.0 
-4.834294635448e-04 3.418110733900e-03 0.0 
0.0 0.0 0.0 
-1.030069982320e-03 -2.372527413691e-04 0.0 
-2.372527413691e-04 2.884234796112e-03 0.0 
0.0 0.0 0.0 
-9.327110529159e-04 -4.606314762769e-04 0.0 
-4.606314762769e-04 2.720145284774e-03 0.0 
0.0 0.0 0.0 
2.091368225983e-03 -1.185470759119e-04 0.0 
-1.185470759119e-04 -6.246196559732e-04 0.0 
0.0 0.0 0.0 
1.567466961243e-03 -1.490784990989e-04 0.0 
-1.490784990989e-04 -8.649513270814e-05 0.0 
0.0 0.0 0.0 
1.711367193903e-03 -3.583483595034e-05 0.0 
-3.583483595034e-05 -1.852542189371e-04 0.0 
0.0 0.0 0.0 
1.033844898322e-03 -1.480898803188e-04 0.0 
-1.480898803188e-04 4.807655446848e-04 0.0 
0.0 0.0 0.0 
1.002846083717e-03 -2.397451382078e-04 0.0 
-2.397451382078e-04 4.765942087253e-04 0.0 
0.0 0.0 0.0 
1.472126401354e-03 -2.325211309846e-04 0.0 
-2.325211309846e-04 -4.942201014529e-05 0.0 
0.0 0.0 0.0 
1.314246281317e-03 -3.106427179654e-04 0.0 
-3.106427179654e-04 1.052330387670e-05 0.0 
0.0 0.0 0.0 
1.747295301221e-03 -2.052097550407e-04 0.0 
-2.052097550407e-04 -4.774073579166e-04 0.0 
0.0 0.0 0.0 
1.112874962216e-03 -3.995760028453e-04 0.0 
-3.995760028453e-04 9.613874990821e-05 0.0 
0.0 0.0 0.0 
7.313624512994e-04 -4.619461251874e-04 0.0 
-4.619461251874e-04 5.698228547290e-04 0.0 
0.0 0.0 0.0 
1.512492652612e-03 -2.622074519077e-04 0.0 
-2.622074519077e-04 -3.889128243910e-04 0.0 
0.0 0.0 0.0 
-1.424076614352e-03 9.825198622270e-05 0.0 
9.825198622270e-05 1.572126824914e-02 0.0 
0.0 0.0 0.0 
-1.305393563704e-03 2.223651666842e-04 0.0 
2.223651666842e-04 1.586188542188e-02 0.0 
0.0 0.0 0.0 
3.517516875613e-04 -2.009355779041e-05 0.0 
-2.009355779041e-05 4.465923790162e-03 0.0 
0.0 0.0 0.0 
-2.285391458201e-03 2.631343121197e-04 0.0 
2.631343121197e-04 1.420695066540e-02 0.0 
0.0 0.0 0.0 
6.804517187218e-05 -3.802246143678e-04 0.0 
-3.802246143678e-04 2.474007160320e-04 0.0 
0.0 0.0 0.0 
-4.441014503260e-04 8.848190887644e-04 0.0 
8.848190887644e-04 1.636302324204e-02 0.0 
0.0 0.0 0.0 
-4.555483050721e-04 1.621248931834e-03 0.0 
1.621248931834e-03 1.616384895393e-02 0.0 
0.0 0.0 0.0 
-4.091038003823e-04 1.379538092343e-03 0.0 
1.379538092343e-03 1.625881919106e-02 0.0 
0.0 0.0 0.0 
-4.419674235912e-04 -1.021144811252e-04 0.0 
-1.021144811252e-04 5.411620398361e-03 0.0 
0.0 0.0 0.0 
-3.484356924527e-04 -1.872099553666e-04 0.0 
-1.872099553666e-04 5.515729444361e-03 0.0 
0.0 0.0 0.0 
-3.930034499346e-04 4.984430135584e-04 0.0 
4.984430135584e-04 1.642858139643e-02 0.0 
0.0 0.0 0.0 
7.149881028416e-05 -2.118033774483e-03 0.0 
-2.118033774483e-03 1.173463551323e-03 0.0 
0.0 0.0 0.0 
-9.754939220686e-04 4.007283014833e-03 0.0 
4.007283014833e-03 1.339328741436e-02 0.0 
0.0 0.0 0.0 
-1.111177316836e-03 8.684810733730e-04 0.0 
8.684810733730e-04 1.609355231605e-02 0.0 
0.0 0.0 0.0 
3.070088097362e-03 3.088980624054e-03 0.0 
3.088980624054e-03 -2.744944458788e-03 0.0 
0.0 0.0 0.0 
8.573199980698e-04 -2.704401114411e-03 0.0 
-2.704401114411e-03 1.046386760169e-04 0.0 
0.0 0.0 0.0 
-6.382770183326e-04 -5.003889811251e-04 0.0 
-5.003889811251e-04 4.310606132387e-03 0.0 
0.0 0.0 0.0 
2.985143203225e-04 -1.344031158854e-03 0.0 
-1.344031158854e-03 2.581457189249e-03 0.0 
0.0 0.0 0.0 
-2.476048188949e-04 -5.052538893353e-04 0.0 
-5.052538893353e-04 4.661105942805e-03 0.0 
0.0 0.0 0.0 
-4.012746785772e-04 -9.180386026829e-04 0.0 
-9.180386026829e-04 3.637498825661e-03 0.0 
0.0 0.0 0.0 
6.668405997245e-05 -7.484030241285e-04 0.0 
-7.484030241285e-04 3.856563888097e-03 0.0 
0.0 0.0 0.0 
1.210337012627e-03 1.161532240569e-03 0.0 
1.161532240569e-03 3.323721887154e-03 0.0 
0.0 0.0 0.0 
1.598771627874e-04 -4.266449187333e-04 0.0 
-4.266449187333e-04 1.333139605365e-03 0.0 
0.0 0.0 0.0 
-2.144969358652e-03 6.626059987115e-04 0.0 
6.626059987115e-04 1.518157477212e-02 0.0 
0.0 0.0 0.0 
-1.954874084951e-03 3.388915102587e-04 0.0 
3.388915102587e-04 1.507507596377e-02 0.0 
0.0 0.0 0.0 
-1.616411383340e-03 7.935536759794e-04 0.0 
7.935536759794e-04 1.576561641400e-02 0.0 
0.0 0.0 0.0 
-4.964632088948e-04 -1.411826377489e-03 0.0 
-1.411826377489e-03 2.004927882920e-03 0.0 
0.0 0.0 0.0 
-9.202678119453e-04 -8.930495871165e-04 0.0 
-8.930495871165e-04 3.306169430414e-03 0.0 
0.0 0.0 0.0 
-7.808109179663e-05 -1.186485271686e-03 0.0 
-1.186485271686e-03 1.249069130663e-03 0.0 
0.0 0.0 0.0 
3.801620294801e-04 4.764002207121e-03 0.0 
4.764002207121e-03 8.030180331864e-03 0.0 
0.0 0.0 0.0 
-1.170865055381e-03 4.354382872753e-03 0.0 
4.354382872753e-03 8.357687700890e-03 0.0 
0.0 0.0 0.0 
2.276418123780e-03 -1.840544715078e-03 0.0 
-1.840544715078e-03 -5.169697061040e-04 0.0 
0.0 0.0 0.0 
-1.247369800721e-04 -1.933276115223e-03 0.0 
-1.933276115223e-03 1.798290316653e-03 0.0 
0.0 0.0 0.0 
3.890907093462e-04 -2.376530763993e-03 0.0 
-2.376530763993e-03 8.537234800337e-04 0.0 
0.0 0.0 0.0 
1.103766533556e-03 -2.879360006459e-03 0.0 
-2.879360006459e-03 -3.143881881521e-04 0.0 
0.0 0.0 0.0 
2.212047949278e-03 4.162486456835e-03 0.0 
4.162486456835e-03 1.596410028406e-03 0.0 
0.0 0.0 0.0 
9.752610314977e-04 -2.129888905715e-03 0.0 
-2.129888905715e-03 7.952953916424e-04 0.0 
0.0 0.0 0.0 
1.141507944782e-03 -9.156912111876e-04 0.0 
-9.156912111876e-04 2.187184460257e-03 0.0 
0.0 0.0 0.0 
-1.412187489530e-03 7.370851446280e-04 0.0 
7.370851446280e-04 1.590261953508e-02 0.0 
0.0 0.0 0.0 
8.083622926143e-04 -3.619948666668e-04 0.0 
-3.619948666668e-04 -6.250308772250e-05 0.0 
0.0 0.0 0.0 
1.347158328290e-03 -6.563758208257e-04 0.0 
-6.563758208257e-04 2.157710041845e-03 0.0 
0.0 0.0 0.0 
9.515337260165e-04 -1.690306781459e-03 0.0 
-1.690306781459e-03 1.415887526558e-03 0.0 
0.0 0.0 0.0 
-2.389008603892e-03 1.199207162097e-03 0.0 
1.199207162097e-03 1.515343751158e-02 0.0 
0.0 0.0 0.0 
2.903861355157e-03 2.014770427914e-03 0.0 
2.014770427914e-03 1.252662523732e-03 0.0 
0.0 0.0 0.0 
1.122252352258e-03 -3.372864943768e-03 0.0 
-3.372864943768e-03 -1.003478048347e-03 0.0 
0.0 0.0 0.0 
-1.745052552206e-03 1.342081472280e-03 0.0 
1.342081472280e-03 1.571201624862e-02 0.0 
0.0 0.0 0.0 
-1.255896452808e-03 2.654757404059e-03 0.0 
2.654757404059e-03 1.527129845742e-02 0.0 
0.0 0.0 0.0 
-2.722930702538e-03 1.314554930618e-03 0.0 
1.314554930618e-03 1.472199962482e-02 0.0 
0.0 0.0 0.0 
1.364771098731e-04 -9.061314981230e-04 0.0 
-9.061314981230e-04 9.450910533461e-04 0.0 
0.0 0.0 0.0 
-2.220147271910e-03 4.648227715898e-04 0.0 
4.648227715898e-04 1.485140413931e-02 0.0 
0.0 0.0 0.0 
1.136487540052e-03 1.694281993734e-04 0.0 
1.694281993734e-04 3.086796717639e-03 0.0 
0.0 0.0 0.0 
-2.075501749679e-03 2.686663895388e-03 0.0 
2.686663895388e-03 1.458223042291e-02 0.0 
0.0 0.0 0.0 
-5.321295623213e-04 -1.101165909888e-03 0.0 
-1.101165909888e-03 2.043825248923e-03 0.0 
0.0 0.0 0.0 
4.735307890176e-03 4.657905647249e-04 0.0 
4.657905647249e-04 -2.473126123828e-03 0.0 
0.0 0.0 0.0 
7.365965092819e-04 4.581795771140e-03 0.0 
4.581795771140e-03 4.462600580119e-03 0.0 
0.0 0.0 0.0 
-3.310207354589e-03 2.594274610246e-03 0.0 
2.594274610246e-03 1.266306087343e-02 0.0 
0.0 0.0 0.0 
-1.004725848264e-03 1.087185714263e-03 0.0 
1.087185714263e-03 1.612315257465e-02 0.0 
0.0 0.0 0.0 
3.347971484553e-03 3.626324172955e-03 0.0 
3.626324172955e-03 3.468861589979e-04 0.0 
0.0 0.0 0.0 
2.415366762225e-03 1.417643182100e-03 0.0 
1.417643182100e-03 1.702355745237e-03 0.0 
0.0 0.0 0.0 
3.871114405670e-03 7.914678152732e-04 0.0 
7.914678152732e-04 -9.699634787135e-04 0.0 
0.0 0.0 0.0 
-6.981703300916e-04 -9.099429518200e-04 0.0 
-9.099429518200e-04 2.320646672343e-03 0.0 
0.0 0.0 0.0 
6.697444394121e-04 -6.207738269899e-04 0.0 
-6.207738269899e-04 3.303439323545e-03 0.0 
0.0 0.0 0.0 
4.719912566734e-03 2.269073529965e-03 0.0 
2.269073529965e-03 -1.964020185877e-03 0.0 
0.0 0.0 0.0 
-1.420530994190e-03 1.559439943844e-03 0.0 
1.559439943844e-03 1.585658772916e-02 0.0 
0.0 0.0 0.0 
6.047347320238e-04 4.542501753944e-03 0.0 
4.542501753944e-03 6.703708118804e-03 0.0 
0.0 0.0 0.0 
5.191136157962e-03 9.180047472785e-04 0.0 
9.180047472785e-04 -3.142526139075e-03 0.0 
0.0 0.0 0.0 
-1.817579317129e-03 2.070762983952e-03 0.0 
2.070762983952e-03 1.540011179387e-02 0.0 
0.0 0.0 0.0 
3.146221580138e-03 -1.346878624153e-03 0.0 
-1.346878624153e-03 -1.344265096982e-03 0.0 
0.0 0.0 0.0 
2.564552429887e-03 2.446070210748e-03 0.0 
2.446070210748e-03 2.022571319467e-03 0.0 
0.0 0.0 0.0 
-8.035709285908e-04 4.436443307415e-03 0.0 
4.436443307415e-03 7.344877816367e-03 0.0 
0.0 0.0 0.0 
5.260237696497e-04 4.673683916224e-03 0.0 
4.673683916224e-03 5.993642308792e-03 0.0 
0.0 0.0 0.0 
-9.297231625917e-04 4.385035050788e-03 0.0 
4.385035050788e-03 9.733846040858e-03 0.0 
0.0 0.0 0.0 
1.884777597197e-03 4.392037955694e-03 0.0 
4.392037955694e-03 3.078751184275e-03 0.0 
0.0 0.0 0.0 
-7.863999670947e-04 -3.751620673000e-04 0.0 
-3.751620673000e-04 4.291856967761e-03 0.0 
0.0 0.0 0.0 
9.865323910826e-04 -6.430021879925e-04 0.0 
-6.430021879925e-04 2.746353536037e-03 0.0 
0.0 0.0 0.0 
3.472692292973e-03 -1.249608165216e-03 0.0 
-1.249608165216e-03 -4.316425627972e-03 0.0 
0.0 0.0 0.0 
1.727971708299e-03 4.172395140723e-03 0.0 
4.172395140723e-03 1.508604319670e-03 0.0 
0.0 0.0 0.0 
-2.571625022767e-03 1.616488323118e-03 0.0 
1.616488323118e-03 1.490349541685e-02 0.0 
0.0 0.0 0.0 
1.026703157998e-03 4.330122942162e-03 0.0 
4.330122942162e-03 6.092719357863e-03 0.0 
0.0 0.0 0.0 
-1.032484528854e-03 1.756409872522e-03 0.0 
1.756409872522e-03 1.595917051418e-02 0.0 
0.0 0.0 0.0 
5.734575639048e-04 4.521309281277e-03 0.0 
4.521309281277e-03 4.347751523875e-03 0.0 
0.0 0.0 0.0 
4.976060416393e-04 -7.677881310692e-04 0.0 
-7.677881310692e-04 3.321177307377e-03 0.0 
0.0 0.0 0.0 
-1.426209167522e-03 2.310254718037e-03 0.0 
2.310254718037e-03 1.547500192318e-02 0.0 
0.0 0.0 0.0 
5.857754695803e-04 -1.968454445627e-03 0.0 
-1.968454445627e-03 1.383082027429e-03 0.0 
0.0 0.0 0.0 
-1.261190330234e-04 -1.477712773404e-04 0.0 
-1.477712773404e-04 1.710434870778e-03 0.0 
0.0 0.0 0.0 
2.146334982391e-03 3.403236382255e-03 0.0 
3.403236382255e-03 -2.601344594909e-03 0.0 
0.0 0.0 0.0 
4.960673698675e-03 8.589902979452e-04 0.0 
8.589902979452e-04 -3.592395713935e-03 0.0 
0.0 0.0 0.0 
3.927560316800e-03 3.272225410694e-03 0.0 
3.272225410694e-03 -6.763708497870e-04 0.0 
0.0 0.0 0.0 
5.938712248200e-04 -1.766293444883e-03 0.0 
-1.766293444883e-03 1.675857899479e-03 0.0 
0.0 0.0 0.0 
-9.796783773881e-04 3.608229266158e-03 0.0 
3.608229266158e-03 1.425151321066e-02 0.0 
0.0 0.0 0.0 
2.489997861993e-04 -6.812728037852e-04 0.0 
-6.812728037852e-04 3.821308671211e-03 0.0 
0.0 0.0 0.0 
2.289298245195e-03 -1.754991421378e-04 0.0 
-1.754991421378e-04 1.039721132517e-03 0.0 
0.0 0.0 0.0 
-1.458956329860e-03 3.775541349711e-03 0.0 
3.775541349711e-03 7.213028606703e-04 0.0 
0.0 0.0 0.0 
-2.866151286266e-03 3.175158341839e-03 0.0 
3.175158341839e-03 1.177832041321e-02 0.0 
0.0 0.0 0.0 
4.860129585225e-05 -5.933550417049e-04 0.0 
-5.933550417049e-04 4.277677733710e-03 0.0 
0.0 0.0 0.0 
4.290363812327e-03 -1.657659396439e-05 0.0 
-1.657659396439e-05 -2.075564838158e-03 0.0 
0.0 0.0 0.0 
2.394092444653e-03 2.132707071194e-03 0.0 
2.132707071194e-03 2.101924979021e-03 0.0 
0.0 0.0 0.0 
-1.065629564131e-03 -3.884591818584e-04 0.0 
-3.884591818584e-04 3.747956867785e-03 0.0 
0.0 0.0 0.0 
5.517060973420e-04 4.612614772428e-03 0.0 
4.612614772428e-03 7.309231625086e-03 0.0 
0.0 0.0 0.0 
-1.648201095343e-03 3.817068028476e-03 0.0 
3.817068028476e-03 8.150220898470e-03 0.0 
0.0 0.0 0.0 
-1.026082154079e-04 -5.104228728274e-04 0.0 
-5.104228728274e-04 4.691654637486e-03 0.0 
0.0 0.0 0.0 
2.707200454140e-03 4.700300487474e-04 0.0 
4.700300487474e-04 7.709520054604e-04 0.0 
0.0 0.0 0.0 
3.455290483878e-03 3.542464590881e-03 0.0 
3.542464590881e-03 -1.169443952564e-03 0.0 
0.0 0.0 0.0 
-1.958098667432e-03 4.122804258869e-05 0.0 
4.122804258869e-05 1.412554749351e-02 0.0 
0.0 0.0 0.0 
-8.396273835666e-05 -4.410316666338e-04 0.0 
-4.410316666338e-04 5.156657875989e-03 0.0 
0.0 0.0 0.0 
2.239821369433e-03 7.201340621094e-04 0.0 
7.201340621094e-04 1.618222928368e-03 0.0 
0.0 0.0 0.0 
1.870461303971e-03 4.346882080943e-03 0.0 
4.346882080943e-03 3.483781054085e-03 0.0 
0.0 0.0 0.0 
4.037699950095e-03 -5.919794461571e-04 0.0 
-5.919794461571e-04 -2.055681978448e-03 0.0 
0.0 0.0 0.0 
-2.738548486623e-03 3.282441609737e-03 0.0 
3.282441609737e-03 1.098466297663e-02 0.0 
0.0 0.0 0.0 
2.741349049397e-04 -1.573374389577e-03 0.0 
-1.573374389577e-03 2.242013255906e-03 0.0 
0.0 0.0 0.0 
1.371128376173e-04 4.652012180642e-03 0.0 
4.652012180642e-03 7.050624249599e-03 0.0 
0.0 0.0 0.0 
-5.010172793293e-04 3.142806742900e-03 0.0 
3.142806742900e-03 1.515570559517e-02 0.0 
0.0 0.0 0.0 
2.078668276259e-03 1.150211488448e-03 0.0 
1.150211488448e-03 2.032726569665e-03 0.0 
0.0 0.0 0.0 
-2.327759063517e-03 3.214939501309e-03 0.0 
3.214939501309e-03 1.318760885087e-02 0.0 
0.0 0.0 0.0 
-3.901907176884e-05 -1.551856717046e-03 0.0 
-1.551856717046e-03 2.463254320269e-03 0.0 
0.0 0.0 0.0 
3.104207670979e-03 3.147912198559e-03 0.0 
3.147912198559e-03 1.280137301582e-03 0.0 
0.0 0.0 0.0 
9.132240920318e-04 -3.286823938933e-04 0.0 
-3.286823938933e-04 4.986091116830e-04 0.0 
0.0 0.0 0.0 
-2.299376401330e-03 3.641154946362e-03 0.0 
3.641154946362e-03 1.007660684869e-02 0.0 
0.0 0.0 0.0 
-2.767844642906e-04 -1.316021293122e-03 0.0 
-1.316021293122e-03 2.933123907574e-03 0.0 
0.0 0.0 0.0 
5.002004000668e-03 2.952888755186e-05 0.0 
2.952888755186e-05 -3.622459559212e-03 0.0 
0.0 0.0 0.0 
3.501023385523e-03 -9.000951317137e-04 0.0 
-9.000951317137e-04 -1.521405079500e-03 0.0 
0.0 0.0 0.0 
1.316190868202e-03 3.329809988107e-03 0.0 
3.329809988107e-03 4.443286369923e-03 0.0 
0.0 0.0 0.0 
-4.667562292862e-04 -1.074596544660e-03 0.0 
-1.074596544660e-03 3.349625255418e-03 0.0 
0.0 0.0 0.0 
5.094840995031e-03 1.220121897264e-04 0.0 
1.220121897264e-04 -3.388005908162e-03 0.0 
0.0 0.0 0.0 
-6.124590631310e-04 -8.356591297352e-04 0.0 
-8.356591297352e-04 3.713014155707e-03 0.0 
0.0 0.0 0.0 
-2.104108489881e-03 3.404736089754e-03 0.0 
3.404736089754e-03 9.148942578535e-03 0.0 
0.0 0.0 0.0 
-2.006834454286e-03 3.570380756942e-03 0.0 
3.570380756942e-03 1.262654957047e-02 0.0 
0.0 0.0 0.0 
-7.203141321086e-04 -6.017663896950e-04 0.0 
-6.017663896950e-04 4.031038276048e-03 0.0 
0.0 0.0 0.0 
2.172475817424e-04 4.588173518812e-03 0.0 
4.588173518812e-03 7.359276109645e-03 0.0 
0.0 0.0 0.0 
5.174996546363e-04 -6.191488597422e-04 0.0 
-6.191488597422e-04 6.657108926339e-04 0.0 
0.0 0.0 0.0 
2.234914551363e-03 4.088587798267e-03 0.0 
4.088587798267e-03 2.923088411743e-03 0.0 
0.0 0.0 0.0 
-4.740393282390e-04 -2.150817889060e-04 0.0 
-2.150817889060e-04 5.188878270166e-03 0.0 
0.0 0.0 0.0 
1.269282493327e-03 -2.582734129896e-03 0.0 
-2.582734129896e-03 5.738426641126e-06 0.0 
0.0 0.0 0.0 
3.035326332724e-03 -1.139387690743e-03 0.0 
-1.139387690743e-03 -9.953045559978e-04 0.0 
0.0 0.0 0.0 
-1.697991761824e-03 3.714379194759e-03 0.0 
3.714379194759e-03 1.268523994197e-02 0.0 
0.0 0.0 0.0 
-1.735011009003e-03 3.463551269839e-03 0.0 
3.463551269839e-03 7.456610468989e-03 0.0 
0.0 0.0 0.0 
2.855548889497e-03 -8.800206155518e-04 0.0 
-8.800206155518e-04 -4.374799772776e-04 0.0 
0.0 0.0 0.0 
2.570954382416e-04 4.558305886673e-03 0.0 
4.558305886673e-03 7.710141574949e-03 0.0 
0.0 0.0 0.0 
2.505180101718e-03 3.781370685432e-03 0.0 
3.781370685432e-03 2.506423353644e-03 0.0 
0.0 0.0 0.0 
3.734470170953e-03 3.266790719659e-03 0.0 
3.266790719659e-03 -1.958091366541e-04 0.0 
0.0 0.0 0.0 
2.608579577468e-03 -5.181702996208e-04 0.0 
-5.181702996208e-04 2.833677494056e-04 0.0 
0.0 0.0 0.0 
-1.164361678569e-03 3.873495325091e-03 0.0 
3.873495325091e-03 6.336162780858e-03 0.0 
0.0 0.0 0.0 
2.535415830965e-04 -2.302556532286e-03 0.0 
-2.302556532286e-03 8.601573604781e-04 0.0 
0.0 0.0 0.0 
1.027877130511e-04 -2.117173422195e-03 0.0 
-2.117173422195e-03 8.859933290434e-04 0.0 
0.0 0.0 0.0 
4.837788017519e-03 -5.313540092138e-04 0.0 
-5.313540092138e-04 -3.168984312864e-03 0.0 
0.0 0.0 0.0 
-4.317784734670e-05 4.568839199253e-03 0.0 
4.568839199253e-03 8.683168050208e-03 0.0 
0.0 0.0 0.0 
5.176379764437e-04 -2.423132553686e-04 0.0 
-2.423132553686e-04 1.001790733194e-03 0.0 
0.0 0.0 0.0 
-1.281166564373e-03 4.120145704117e-03 0.0 
4.120145704117e-03 1.137522670370e-02 0.0 
0.0 0.0 0.0 
-7.695460647654e-05 -1.926029055256e-03 0.0 
-1.926029055256e-03 7.878617826578e-04 0.0 
0.0 0.0 0.0 
4.421871790757e-03 -1.263876045663e-03 0.0 
-1.263876045663e-03 -3.048573825709e-03 0.0 
0.0 0.0 0.0 
2.301890220468e-03 3.421743513478e-03 0.0 
3.421743513478e-03 2.993396791235e-03 0.0 
0.0 0.0 0.0 
-1.750278946792e-03 5.180200443005e-05 0.0 
5.180200443005e-05 1.513964070527e-02 0.0 
0.0 0.0 0.0 
3.902518869498e-03 -1.667508218512e-03 0.0 
-1.667508218512e-03 -2.557309691520e-03 0.0 
0.0 0.0 0.0 
-5.384871033912e-04 -1.810455989577e-04 0.0 
-1.810455989577e-04 2.176584552610e-03 0.0 
0.0 0.0 0.0 
3.309090232465e-03 -2.148695638601e-03 0.0 
-2.148695638601e-03 -2.158481531239e-03 0.0 
0.0 0.0 0.0 
3.450118375812e-03 3.242486591378e-03 0.0 
3.242486591378e-03 4.784004475066e-04 0.0 
0.0 0.0 0.0 
2.725806903692e-03 -2.237723253696e-03 0.0 
-2.237723253696e-03 -1.467802679606e-03 0.0 
0.0 0.0 0.0 
2.168470186604e-03 -2.492258074870e-03 0.0 
-2.492258074870e-03 -9.808772754919e-04 0.0 
0.0 0.0 0.0 
-7.646770130642e-04 9.905552062576e-04 0.0 
9.905552062576e-04 1.623263739036e-02 0.0 
0.0 0.0 0.0 
1.763326111180e-03 -2.499676141652e-03 0.0 
-2.499676141652e-03 -4.453941981249e-04 0.0 
0.0 0.0 0.0 
-3.347842654720e-04 2.882788189484e-04 0.0 
2.882788189484e-04 1.647198264083e-02 0.0 
0.0 0.0 0.0 
-1.749710678432e-04 -1.750518934998e-04 0.0 
-1.750518934998e-04 5.854020566363e-03 0.0 
0.0 0.0 0.0 
-1.913516135987e-03 2.021200292893e-05 0.0 
2.021200292893e-05 1.442067485399e-02 0.0 
0.0 0.0 0.0 
-1.584634340638e-03 3.503216469417e-03 0.0 
3.503216469417e-03 6.042724227636e-03 0.0 
0.0 0.0 0.0 
-1.850609953617e-03 1.957673139897e-04 0.0 
1.957673139897e-04 -3.840729257307e-03 0.0 
0.0 0.0 0.0 
-7.310576851079e-04 3.873717514173e-03 0.0 
3.873717514173e-03 4.499479930247e-03 0.0 
0.0 0.0 0.0 
1.103358772624e-03 -2.670862022368e-03 0.0 
-2.670862022368e-03 1.089657238588e-05 0.0 
0.0 0.0 0.0 
-7.420106525300e-04 4.410763278900e-03 0.0 
4.410763278900e-03 9.911258522118e-03 0.0 
0.0 0.0 0.0 
-1.926028259129e-03 5.838630975101e-05 0.0 
5.838630975101e-05 1.444397118456e-02 0.0 
0.0 0.0 0.0 
6.289983079772e-04 -2.556392803623e-03 0.0 
-2.556392803623e-03 4.776137808430e-04 0.0 
0.0 0.0 0.0 
-4.647101822258e-04 4.665568157563e-03 0.0 
4.665568157563e-03 1.167296868923e-02 0.0 
0.0 0.0 0.0 
4.003667897677e-04 4.502674701018e-03 0.0 
4.502674701018e-03 6.942148149410e-03 0.0 
0.0 0.0 0.0 
-1.532803527418e-03 1.810694233411e-04 0.0 
1.810694233411e-04 1.559438865832e-02 0.0 
0.0 0.0 0.0 
2.147170093299e-03 1.853972538640e-03 0.0 
1.853972538640e-03 2.269956203095e-03 0.0 
0.0 0.0 0.0 
2.663311997259e-03 3.447117941637e-03 0.0 
3.447117941637e-03 2.238473858491e-03 0.0 
0.0 0.0 0.0 
-9.372756025008e-04 1.375682001128e-04 0.0 
1.375682001128e-04 1.616958193289e-02 0.0 
0.0 0.0 0.0 
-2.074283166552e-03 1.012872126109e-04 0.0 
1.012872126109e-04 1.411195390291e-02 0.0 
0.0 0.0 0.0 
-2.982235957643e-04 -9.688141830881e-04 0.0 
-9.688141830881e-04 6.205719911088e-04 0.0 
0.0 0.0 0.0 
-7.917600269960e-04 -1.711452962123e-04 0.0 
-1.711452962123e-04 4.516696219787e-03 0.0 
0.0 0.0 0.0 
-1.472863746740e-03 3.554398726565e-03 0.0 
3.554398726565e-03 4.624929631229e-03 0.0 
0.0 0.0 0.0 
-6.193713414904e-04 3.843202891237e-03 0.0 
3.843202891237e-03 3.084629589168e-03 0.0 
0.0 0.0 0.0 
-4.486026721192e-04 3.936617421813e-03 0.0 
3.936617421813e-03 1.725142322551e-03 0.0 
0.0 0.0 0.0 
-8.334615643941e-04 -6.867992882940e-04 0.0 
-6.867992882940e-04 2.547813328195e-03 0.0 
0.0 0.0 0.0 
-3.398969425121e-04 -2.726037837476e-03 0.0 
-2.726037837476e-03 4.296298769976e-04 0.0 
0.0 0.0 0.0 
-1.291424943404e-03 3.654217771911e-03 0.0 
3.654217771911e-03 3.336289128990e-03 0.0 
0.0 0.0 0.0 
1.298565213905e-03 2.318289538149e-03 0.0 
2.318289538149e-03 3.687197316244e-03 0.0 
0.0 0.0 0.0 
-2.403593506736e-03 4.549895435072e-04 0.0 
4.549895435072e-04 1.449019871153e-02 0.0 
0.0 0.0 0.0 
1.904735605637e-03 3.690592124828e-03 0.0 
3.690592124828e-03 3.887939618969e-03 0.0 
0.0 0.0 0.0 
-1.279830092711e-03 3.725848802309e-03 0.0 
3.725848802309e-03 2.118328588770e-03 0.0 
0.0 0.0 0.0 
-9.849068478932e-04 2.542821681221e-03 0.0 
2.542821681221e-03 1.549721054404e-02 0.0 
0.0 0.0 0.0 
1.006557562801e-03 3.895033840816e-03 0.0 
3.895033840816e-03 5.434177002906e-03 0.0 
0.0 0.0 0.0 
1.593740144882e-04 -3.442130904634e-04 0.0 
-3.442130904634e-04 4.918167661165e-03 0.0 
0.0 0.0 0.0 
1.514634602036e-03 3.747190221201e-03 0.0 
3.747190221201e-03 4.598474421986e-03 0.0 
0.0 0.0 0.0 
-2.952291102395e-04 4.068529341380e-03 0.0 
4.068529341380e-03 2.389618843038e-04 0.0 
0.0 0.0 0.0 
-2.864181773088e-03 1.438647868367e-03 0.0 
1.438647868367e-03 1.452452928900e-02 0.0 
0.0 0.0 0.0 
2.058705735721e-04 4.850881582195e-03 0.0 
4.850881582195e-03 8.749588597621e-03 0.0 
0.0 0.0 0.0 
-1.410918813998e-03 3.141068880788e-04 0.0 
3.141068880788e-04 1.580845276562e-02 0.0 
0.0 0.0 0.0 
3.563038783425e-05 -4.311080122911e-04 0.0 
-4.311080122911e-04 5.269610830266e-03 0.0 
0.0 0.0 0.0 
-2.653532053296e-03 7.116170366014e-04 0.0 
7.116170366014e-04 1.442164599674e-02 0.0 
0.0 0.0 0.0 
-6.451510011262e-04 6.456764273752e-04 0.0 
6.456764273752e-04 1.631535268452e-02 0.0 
0.0 0.0 0.0 
3.072505595744e-03 -2.459536072893e-03 0.0 
-2.459536072893e-03 -3.937708199216e-03 0.0 
0.0 0.0 0.0 
-6.064234560524e-04 3.322254470346e-04 0.0 
3.322254470346e-04 1.634828694976e-02 0.0 
0.0 0.0 0.0 
-5.752709959990e-04 4.476789241136e-03 0.0 
4.476789241136e-03 1.012806463853e-02 0.0 
0.0 0.0 0.0 
-1.942243990626e-03 2.355915505797e-04 0.0 
2.355915505797e-04 1.491749006042e-02 0.0 
0.0 0.0 0.0 
-2.991519251497e-03 2.153124819292e-03 0.0 
2.153124819292e-03 1.401693232369e-02 0.0 
0.0 0.0 0.0 
-2.403907744095e-04 -2.620318303526e-04 0.0 
-2.620318303526e-04 5.584852095990e-03 0.0 
0.0 0.0 0.0 
-7.383028530965e-04 4.263374887073e-03 0.0 
4.263374887073e-03 1.300251743848e-02 0.0 
0.0 0.0 0.0 
-1.337675719682e-04 4.115521774967e-03 0.0 
4.115521774967e-03 -1.018247690760e-03 0.0 
0.0 0.0 0.0 
-1.585231582947e-03 2.747198490293e-04 0.0 
2.747198490293e-04 1.558341108647e-02 0.0 
0.0 0.0 0.0 
-8.968073116678e-04 -1.040313111597e-03 0.0 
-1.040313111597e-03 2.812835767236e-03 0.0 
0.0 0.0 0.0 
4.745285894061e-04 -2.002273493932e-03 0.0 
-2.002273493932e-03 -3.893009028250e-03 0.0 
0.0 0.0 0.0 
5.635402976750e-04 -1.276647720994e-04 0.0 
-1.276647720994e-04 4.024020288513e-03 0.0 
0.0 0.0 0.0 
-4.248440435377e-04 4.578628076044e-03 0.0 
4.578628076044e-03 1.036359825363e-02 0.0 
0.0 0.0 0.0 
-1.592075881604e-04 -3.857123768280e-04 0.0 
-3.857123768280e-04 5.363074954635e-03 0.0 
0.0 0.0 0.0 
1.108919448092e-03 -3.404189324276e-05 0.0 
-3.404189324276e-05 4.337911308065e-04 0.0 
0.0 0.0 0.0 
2.536479636988e-04 -6.155740285284e-04 0.0 
-6.155740285284e-04 3.652405212184e-04 0.0 
0.0 0.0 0.0 
7.792612916671e-04 2.784086959979e-04 0.0 
2.784086959979e-04 3.761226998521e-03 0.0 
0.0 0.0 0.0 
-1.646211897777e-04 4.884749436033e-03 0.0 
4.884749436033e-03 1.036993870815e-02 0.0 
0.0 0.0 0.0 
2.704863011620e-03 -3.075042672035e-03 0.0 
-3.075042672035e-03 -2.869987105479e-03 0.0 
0.0 0.0 0.0 
-4.145444904857e-04 2.224810140814e-03 0.0 
2.224810140814e-03 1.588342251575e-02 0.0 
0.0 0.0 0.0 
-6.042860960362e-04 3.670735935803e-03 0.0 
3.670735935803e-03 -2.045979978291e-03 0.0 
0.0 0.0 0.0 
-2.187206472745e-03 1.655111113740e-04 0.0 
1.655111113740e-04 1.408161569399e-02 0.0 
0.0 0.0 0.0 
9.154591175592e-04 -4.851234909354e-04 0.0 
-4.851234909354e-04 1.451299402276e-04 0.0 
0.0 0.0 0.0 
-2.243180573500e-05 -4.472395814584e-04 0.0 
-4.472395814584e-04 5.492170767149e-03 0.0 
0.0 0.0 0.0 
-8.020622916393e-04 1.624069374569e-03 0.0 
1.624069374569e-03 1.606564197089e-02 0.0 
0.0 0.0 0.0 
-1.073882672029e-03 -6.898899914063e-04 0.0 
-6.898899914063e-04 3.240179209045e-03 0.0 
0.0 0.0 0.0 
-3.164692895271e-03 1.573593937274e-03 0.0 
1.573593937274e-03 1.386718930676e-02 0.0 
0.0 0.0 0.0 
-7.217465381729e-04 -4.148025497711e-04 0.0 
-4.148025497711e-04 2.411566322164e-03 0.0 
0.0 0.0 0.0 
8.504131186921e-04 4.426299834417e-03 0.0 
4.426299834417e-03 6.513590216300e-03 0.0 
0.0 0.0 0.0 
-3.914186088534e-04 -1.589005474671e-03 0.0 
-1.589005474671e-03 7.780266280658e-04 0.0 
0.0 0.0 0.0 
-6.962888146810e-04 1.190228185459e-03 0.0 
1.190228185459e-03 1.622057343921e-02 0.0 
0.0 0.0 0.0 
9.720559189000e-04 8.649509926672e-04 0.0 
8.649509926672e-04 3.587130352744e-03 0.0 
0.0 0.0 0.0 
-8.841357338986e-04 3.415418673493e-03 0.0 
3.415418673493e-03 1.463855855620e-02 0.0 
0.0 0.0 0.0 
5.109669250442e-04 3.204598944787e-03 0.0 
3.204598944787e-03 5.253671434116e-03 0.0 
0.0 0.0 0.0 
8.440586767482e-05 1.065501020526e-03 0.0 
1.065501020526e-03 -4.214301954609e-03 0.0 
0.0 0.0 0.0 
7.681067311973e-04 4.209229396862e-03 0.0 
4.209229396862e-03 6.148324410137e-03 0.0 
0.0 0.0 0.0 
1.636082665966e-03 1.306245431418e-03 0.0 
1.306245431418e-03 2.771102257246e-03 0.0 
0.0 0.0 0.0 
-2.012789057665e-03 7.848628342842e-05 0.0 
7.848628342842e-05 1.410133019249e-02 0.0 
0.0 0.0 0.0 
-8.333783911345e-04 3.893312106366e-03 0.0 
3.893312106366e-03 1.380342730749e-02 0.0 
0.0 0.0 0.0 
-9.657639569487e-04 -6.939915052628e-04 0.0 
-6.939915052628e-04 2.798469831940e-03 0.0 
0.0 0.0 0.0 
3.299325159830e-04 -6.127258257694e-04 0.0 
-6.127258257694e-04 9.753754668104e-04 0.0 
0.0 0.0 0.0 
-2.735126523395e-04 1.412372069287e-04 0.0 
1.412372069287e-04 1.650019023902e-02 0.0 
0.0 0.0 0.0 
2.399428537197e-03 -8.688934519004e-06 0.0 
-8.688934519004e-06 -8.252352414136e-04 0.0 
0.0 0.0 0.0 
-1.943325273587e-03 4.645058439713e-06 0.0 
4.645058439713e-06 1.406058834699e-02 0.0 
0.0 0.0 0.0 
-1.459812980783e-04 -7.568857618924e-05 0.0 
-7.568857618924e-05 5.957519819541e-03 0.0 
0.0 0.0 0.0 
5.850193163055e-04 -3.330237549247e-04 0.0 
-3.330237549247e-04 8.793974656143e-04 0.0 
0.0 0.0 0.0 
-1.881017059228e-03 6.348804325579e-05 0.0 
6.348804325579e-05 1.470558141711e-02 0.0 
0.0 0.0 0.0 
-2.991128989374e-04 4.818303624189e-03 0.0 
4.818303624189e-03 1.106084795945e-02 0.0 
0.0 0.0 0.0 
-1.082189357777e-03 -1.742369037703e-04 0.0 
-1.742369037703e-04 3.848165364821e-03 0.0 
0.0 0.0 0.0 
-1.103182948071e-03 2.264919407505e-04 0.0 
2.264919407505e-04 1.604582400314e-02 0.0 
0.0 0.0 0.0 
3.795352323951e-04 -3.286409127035e-03 0.0 
-3.286409127035e-03 -4.010237013229e-04 0.0 
0.0 0.0 0.0 
-2.160385695173e-03 -6.084082498860e-04 0.0 
-6.084082498860e-04 -3.650715421929e-03 0.0 
0.0 0.0 0.0 
-1.688869682103e-03 1.194797320575e-04 0.0 
1.194797320575e-04 1.531745976654e-02 0.0 
0.0 0.0 0.0 
1.005141619672e-03 3.645579688740e-03 0.0 
3.645579688740e-03 5.098068127282e-03 0.0 
0.0 0.0 0.0 
-8.770634982830e-04 2.848018884321e-03 0.0 
2.848018884321e-03 1.529092594854e-02 0.0 
0.0 0.0 0.0 
-1.860776441651e-03 2.370753676051e-04 0.0 
2.370753676051e-04 1.510305905123e-02 0.0 
0.0 0.0 0.0 
1.177057820798e-03 3.764401051423e-03 0.0 
3.764401051423e-03 -2.180370801948e-03 0.0 
0.0 0.0 0.0 
-3.174052878710e-04 4.731050596553e-03 0.0 
4.731050596553e-03 1.055334017184e-02 0.0 
0.0 0.0 0.0 
-1.049407852709e-03 -6.894798569650e-04 0.0 
-6.894798569650e-04 3.372118603492e-03 0.0 
0.0 0.0 0.0 
3.785860717374e-04 4.701907429979e-03 0.0 
4.701907429979e-03 8.038273339367e-03 0.0 
0.0 0.0 0.0 
1.694250880802e-03 1.997117437710e-03 0.0 
1.997117437710e-03 3.004432331633e-03 0.0 
0.0 0.0 0.0 
-1.770399241266e-03 3.869717911093e-03 0.0 
3.869717911093e-03 -1.385752805406e-03 0.0 
0.0 0.0 0.0 
-1.009317470934e-03 -1.386711719431e-04 0.0 
-1.386711719431e-04 4.040711180427e-03 0.0 
0.0 0.0 0.0 
7.450919019000e-04 -5.227533713773e-04 0.0 
-5.227533713773e-04 1.677503843661e-04 0.0 
0.0 0.0 0.0 
2.078703794709e-04 -4.063536162610e-04 0.0 
-4.063536162610e-04 4.688558815592e-03 0.0 
0.0 0.0 0.0 
-1.093588450225e-03 -4.775893156684e-04 0.0 
-4.775893156684e-04 3.556667095482e-03 0.0 
0.0 0.0 0.0 
-3.273652083970e-03 1.035247227262e-03 0.0 
1.035247227262e-03 1.371172200190e-02 0.0 
0.0 0.0 0.0 
-1.978641101080e-03 9.637878748033e-06 0.0 
9.637878748033e-06 1.354864248231e-02 0.0 
0.0 0.0 0.0 

TENSORS node_materi_strain_plasti float
2.934499401238e-03 -6.293764513238e-05 0.0 
-6.293764513238e-05 -1.067748591947e-03 0.0 
0.0 0.0 -1.096634683480e-04 
-1.402797370443e-03 -1.078294972551e-04 0.0 
-1.078294972551e-04 4.900277451411e-03 0.0 
0.0 0.0 -6.959116756397e-04 
-1.452967895051e-03 -5.509598229541e-05 0.0 
-5.509598229541e-05 7.203997768270e-03 0.0 
0.0 0.0 -1.332621093165e-03 
-1.383162840862e-03 -3.297498286580e-05 0.0 
-3.297498286580e-05 8.816768276200e-03 0.0 
0.0 0.0 -1.332621093165e-03 
2.013745495957e-03 -6.316916865917e-05 0.0 
-6.316916865917e-05 -5.120452549012e-04 0.0 
0.0 0.0 -2.200719611176e-04 
9.770148188976e-04 3.431498766894e-05 0.0 
3.431498766894e-05 4.169221136190e-04 0.0 
0.0 0.0 -3.137585542919e-04 
-7.178028314759e-05 -1.232028049958e-08 0.0 
-1.232028049958e-08 1.149279144839e-03 0.0 
0.0 0.0 -2.794359002296e-04 
-6.436375512209e-04 -1.276790241492e-05 0.0 
-1.276790241492e-05 1.873669559697e-03 0.0 
0.0 0.0 -3.439875543896e-04 
-7.879199919424e-04 -6.957800867177e-05 0.0 
-6.957800867177e-05 2.362265819291e-03 0.0 
0.0 0.0 -5.230155850880e-04 
-9.090757292185e-04 -8.706192601079e-05 0.0 
-8.706192601079e-05 2.790274002592e-03 0.0 
0.0 0.0 -6.679173279409e-04 
-1.029732123068e-03 -9.763895695819e-05 0.0 
-9.763895695819e-05 3.189834221624e-03 0.0 
0.0 0.0 -7.858430676574e-04 
-1.146480183378e-03 -1.186695020361e-04 0.0 
-1.186695020361e-04 3.556707151380e-03 0.0 
0.0 0.0 -8.797909670055e-04 
-1.263272361791e-03 -1.272958726748e-04 0.0 
-1.272958726748e-04 3.899470374148e-03 0.0 
0.0 0.0 -9.497524971825e-04 
-1.384672616284e-03 -1.145152012545e-04 0.0 
-1.145152012545e-04 4.236966414279e-03 0.0 
0.0 0.0 -1.004045332643e-03 
-1.526674903082e-03 -6.496102058636e-05 0.0 
-6.496102058636e-05 4.605045077914e-03 0.0 
0.0 0.0 -1.040527029177e-03 
-1.665462947768e-03 -2.107388054909e-05 0.0 
-2.107388054909e-05 4.948618842847e-03 0.0 
0.0 0.0 -1.059523297737e-03 
-1.782894097401e-03 -3.343512703910e-06 0.0 
-3.343512703910e-06 5.233549116132e-03 0.0 
0.0 0.0 -1.072054170059e-03 
-1.938902930101e-03 -9.696053467476e-05 0.0 
-9.696053467476e-05 5.600248017308e-03 0.0 
0.0 0.0 -1.073655443973e-03 
-2.100363589718e-03 -8.662704783515e-05 0.0 
-8.662704783515e-05 5.970821215845e-03 0.0 
0.0 0.0 -1.067605311830e-03 
-2.135124898814e-03 -7.268436157999e-05 0.0 
-7.268436157999e-05 6.300803109141e-03 0.0 
0.0 0.0 -1.091655094700e-03 
-2.004143563035e-03 -6.534761213825e-05 0.0 
-6.534761213825e-05 6.588381292475e-03 0.0 
0.0 0.0 -1.158330123333e-03 
-1.835283495390e-03 -5.008648858264e-05 0.0 
-5.008648858264e-05 6.864752160643e-03 0.0 
0.0 0.0 -1.226073836101e-03 
-1.640741500190e-03 -2.858138524020e-05 0.0 
-2.858138524020e-05 7.123085926045e-03 0.0 
0.0 0.0 -1.289832767750e-03 
-1.368677421570e-03 1.600785886141e-04 0.0 
1.600785886141e-04 8.818553082708e-03 0.0 
0.0 0.0 -1.336902025401e-03 
-1.377365391022e-03 2.999124352866e-04 0.0 
2.999124352866e-04 8.800585598907e-03 0.0 
0.0 0.0 -1.332945767435e-03 
-1.378029629414e-03 3.844218527142e-04 0.0 
3.844218527142e-04 8.780564209488e-03 0.0 
0.0 0.0 -1.334903170087e-03 
-1.378699113984e-03 6.281396802948e-04 0.0 
6.281396802948e-04 8.766528136653e-03 0.0 
0.0 0.0 -1.334459899807e-03 
-1.385861616700e-03 7.361442488981e-04 0.0 
7.361442488981e-04 8.736115872586e-03 0.0 
0.0 0.0 -1.332067731643e-03 
-1.380170718422e-03 9.112443166240e-04 0.0 
9.112443166240e-04 8.705993944759e-03 0.0 
0.0 0.0 -1.335050935171e-03 
-1.376694153872e-03 1.085769035599e-03 0.0 
1.085769035599e-03 8.675777653225e-03 0.0 
0.0 0.0 -1.335055123498e-03 
-1.386603367251e-03 1.256067884305e-03 0.0 
1.256067884305e-03 8.631282104952e-03 0.0 
0.0 0.0 -1.333530254363e-03 
-1.385927681412e-03 1.401216317866e-03 0.0 
1.401216317866e-03 8.584979043230e-03 0.0 
0.0 0.0 -1.336259905589e-03 
-1.382886472311e-03 1.656515799073e-03 0.0 
1.656515799073e-03 8.524207830888e-03 0.0 
0.0 0.0 -1.335712483792e-03 
-1.394014418558e-03 1.806002472474e-03 0.0 
1.806002472474e-03 8.445999086005e-03 0.0 
0.0 0.0 -1.333313947604e-03 
-1.390408237112e-03 2.011066343467e-03 0.0 
2.011066343467e-03 8.361388601017e-03 0.0 
0.0 0.0 -1.335862559377e-03 
-1.384222329824e-03 2.219576262539e-03 0.0 
2.219576262539e-03 8.276324698237e-03 0.0 
0.0 0.0 -1.336097458551e-03 
-1.389035125892e-03 2.412450494632e-03 0.0 
2.412450494632e-03 8.157453667495e-03 0.0 
0.0 0.0 -1.335235043394e-03 
-1.385735689378e-03 2.596152172723e-03 0.0 
2.596152172723e-03 8.026403168300e-03 0.0 
0.0 0.0 -1.334297546486e-03 
-1.387385464636e-03 2.793709716201e-03 0.0 
2.793709716201e-03 7.870413974245e-03 0.0 
0.0 0.0 -1.332308435384e-03 
-1.390045521020e-03 2.956478596536e-03 0.0 
2.956478596536e-03 7.707669454312e-03 0.0 
0.0 0.0 -1.332019584455e-03 
-1.374441407390e-03 3.130356841580e-03 0.0 
3.130356841580e-03 7.548288379511e-03 0.0 
0.0 0.0 -1.333392124151e-03 
-1.370916614240e-03 3.263121805825e-03 0.0 
3.263121805825e-03 7.369253492750e-03 0.0 
0.0 0.0 -1.334727449481e-03 
-1.360841402714e-03 3.372289688876e-03 0.0 
3.372289688876e-03 7.166176364928e-03 0.0 
0.0 0.0 -1.336576889699e-03 
-1.346336485325e-03 3.461253780169e-03 0.0 
3.461253780169e-03 6.951403103378e-03 0.0 
0.0 0.0 -1.335888391555e-03 
-1.332890796825e-03 3.468370162717e-03 0.0 
3.468370162717e-03 6.730314385053e-03 0.0 
0.0 0.0 -1.334783226448e-03 
-1.319924003398e-03 3.447235553293e-03 0.0 
3.447235553293e-03 6.491181615044e-03 0.0 
0.0 0.0 -1.335053869153e-03 
-1.304557536433e-03 3.357836383275e-03 0.0 
3.357836383275e-03 6.252969737423e-03 0.0 
0.0 0.0 -1.334960189349e-03 
-1.290544710403e-03 3.217570000044e-03 0.0 
3.217570000044e-03 6.038359705784e-03 0.0 
0.0 0.0 -1.334889991128e-03 
-1.266052279295e-03 3.015967340183e-03 0.0 
3.015967340183e-03 5.820251815716e-03 0.0 
0.0 0.0 -1.335774086633e-03 
-1.268292395628e-03 2.751499810292e-03 0.0 
2.751499810292e-03 5.611006951901e-03 0.0 
0.0 0.0 -1.336605656894e-03 
-1.233716587758e-03 2.428663332176e-03 0.0 
2.428663332176e-03 5.432453778555e-03 0.0 
0.0 0.0 -1.336508443943e-03 
-1.235192718271e-03 2.048692266400e-03 0.0 
2.048692266400e-03 5.281516895731e-03 0.0 
0.0 0.0 -1.335343284290e-03 
-1.233233161047e-03 1.613443115418e-03 0.0 
1.613443115418e-03 5.176753839955e-03 0.0 
0.0 0.0 -1.337998490269e-03 
-1.231527167288e-03 1.237296422517e-03 0.0 
1.237296422517e-03 5.075978590578e-03 0.0 
0.0 0.0 -1.337247094005e-03 
-1.199833465241e-03 7.660071193524e-04 0.0 
7.660071193524e-04 4.984249579952e-03 0.0 
0.0 0.0 -1.333783489999e-03 
-1.202795443341e-03 2.512512957567e-04 0.0 
2.512512957567e-04 4.957451962835e-03 0.0 
0.0 0.0 -1.334548731617e-03 
-1.209938913942e-03 -2.134028709971e-04 0.0 
-2.134028709971e-04 5.026425426342e-03 0.0 
0.0 0.0 -1.334619746794e-03 
-1.216034057197e-03 -6.370386973179e-04 0.0 
-6.370386973179e-04 5.098251117921e-03 0.0 
0.0 0.0 -1.335242115105e-03 
-1.250273571860e-03 -1.037169625291e-03 0.0 
-1.037169625291e-03 5.212102119693e-03 0.0 
0.0 0.0 -1.335691437541e-03 
-1.244652277412e-03 -1.350985257247e-03 0.0 
-1.350985257247e-03 5.369562904984e-03 0.0 
0.0 0.0 -1.335646478247e-03 
-1.280185566221e-03 -1.619011709695e-03 0.0 
-1.619011709695e-03 5.525208807417e-03 0.0 
0.0 0.0 -1.334931242407e-03 
-1.279873673449e-03 -1.816253781483e-03 0.0 
-1.816253781483e-03 5.699667194469e-03 0.0 
0.0 0.0 -1.334100791702e-03 
-1.316092894892e-03 -1.930306284798e-03 0.0 
-1.930306284798e-03 5.897360744271e-03 0.0 
0.0 0.0 -1.332237298415e-03 
-1.332492949627e-03 -1.997739486340e-03 0.0 
-1.997739486340e-03 6.101236304603e-03 0.0 
0.0 0.0 -1.333749945600e-03 
-1.347535005711e-03 -1.949980560505e-03 0.0 
-1.949980560505e-03 6.326575568891e-03 0.0 
0.0 0.0 -1.336652505695e-03 
-1.361718678089e-03 -1.883685554895e-03 0.0 
-1.883685554895e-03 6.509663460433e-03 0.0 
0.0 0.0 -1.337094627689e-03 
-1.399643089063e-03 -1.709140483279e-03 0.0 
-1.709140483279e-03 6.643034708910e-03 0.0 
0.0 0.0 -1.328990728106e-03 
-1.392288690639e-03 -1.485263022766e-03 0.0 
-1.485263022766e-03 6.836967868930e-03 0.0 
0.0 0.0 -1.335900064369e-03 
-1.414556676199e-03 -1.251540022059e-03 0.0 
-1.251540022059e-03 6.954271934946e-03 0.0 
0.0 0.0 -1.332523500780e-03 
-1.412496609790e-03 -1.031814538929e-03 0.0 
-1.031814538929e-03 7.047562735813e-03 0.0 
0.0 0.0 -1.335219049675e-03 
-1.419510763784e-03 -6.645626228058e-04 0.0 
-6.645626228058e-04 7.146959411296e-03 0.0 
0.0 0.0 -1.336566422126e-03 
-1.427684607805e-03 -3.887077461759e-04 0.0 
-3.887077461759e-04 7.195451913880e-03 0.0 
0.0 0.0 -1.335855682064e-03 
-1.453017564014e-03 -6.969271926299e-05 0.0 
-6.969271926299e-05 5.335351891541e-03 0.0 
0.0 0.0 -7.648954205800e-04 
-1.520880417330e-03 -7.433446925198e-05 0.0 
-7.433446925198e-05 5.819919600560e-03 0.0 
0.0 0.0 -8.298981322982e-04 
-1.557423966696e-03 -6.785219458369e-05 0.0 
-6.785219458369e-05 6.258440284560e-03 0.0 
0.0 0.0 -8.959277352460e-04 
-1.578985001560e-03 -6.738694350763e-05 0.0 
-6.738694350763e-05 6.671688470532e-03 0.0 
0.0 0.0 -9.610467530554e-04 
-1.585789406967e-03 -5.141559601497e-05 0.0 
-5.141559601497e-05 7.089803706817e-03 0.0 
0.0 0.0 -1.026987810050e-03 
-1.562649818793e-03 -5.245167551875e-05 0.0 
-5.245167551875e-05 7.497011482479e-03 0.0 
0.0 0.0 -1.092790196867e-03 
-1.539445803207e-03 -3.968004133447e-05 0.0 
-3.968004133447e-05 7.888080790164e-03 0.0 
0.0 0.0 -1.158290425478e-03 
-1.493157212652e-03 -4.236338247705e-05 0.0 
-4.236338247705e-05 8.249034422054e-03 0.0 
0.0 0.0 -1.224481705251e-03 
-1.439591118906e-03 -4.822262499776e-05 0.0 
-4.822262499776e-05 8.655254164316e-03 0.0 
0.0 0.0 -1.288782062784e-03 
8.961097396202e-06 5.383488432526e-04 0.0 
5.383488432526e-04 -8.961097396198e-06 0.0 
0.0 0.0 0.0 
-1.624278093923e-03 1.090396231210e-03 0.0 
1.090396231210e-03 4.601022683819e-03 0.0 
0.0 0.0 -7.280202007920e-04 
-9.966743349091e-06 1.635139676752e-03 0.0 
1.635139676752e-03 4.255410277390e-04 0.0 
0.0 0.0 -1.781032647385e-04 
2.419898888436e-04 1.714650012296e-03 0.0 
1.714650012296e-03 7.169103887313e-04 0.0 
0.0 0.0 -4.109572618178e-04 
1.972324976643e-04 1.872166137481e-03 0.0 
1.872166137481e-03 8.763202269977e-04 0.0 
0.0 0.0 -4.600940248552e-04 
-9.545047460227e-07 1.772850678572e-03 0.0 
1.772850678572e-03 1.137689485315e-03 0.0 
0.0 0.0 -4.871721345294e-04 
-2.294684798328e-04 1.727305058981e-03 0.0 
1.727305058981e-03 1.576796951367e-03 0.0 
0.0 0.0 -5.774264878005e-04 
-4.707427197219e-04 1.761151682502e-03 0.0 
1.761151682502e-03 2.189479290700e-03 0.0 
0.0 0.0 -7.366013875622e-04 
-7.529811060546e-04 1.738233902516e-03 0.0 
1.738233902516e-03 2.841897866327e-03 0.0 
0.0 0.0 -8.183718370474e-04 
-1.069011678021e-03 1.566419307500e-03 0.0 
1.566419307500e-03 3.446466855606e-03 0.0 
0.0 0.0 -7.751356507531e-04 
-1.389437070959e-03 1.338693456474e-03 0.0 
1.338693456474e-03 4.090356894104e-03 0.0 
0.0 0.0 -7.396003774010e-04 
-1.340795873768e-03 -1.267882057961e-04 0.0 
-1.267882057961e-04 4.612959566513e-03 0.0 
0.0 0.0 -6.488888888889e-04 
-1.371869470260e-03 5.987426434916e-05 0.0 
5.987426434916e-05 4.821720366173e-03 0.0 
0.0 0.0 -6.874962403976e-04 
-1.373883297749e-03 1.733970713616e-05 0.0 
1.733970713616e-05 4.853900323376e-03 0.0 
0.0 0.0 -6.910932206029e-04 
-1.391096625977e-03 2.696117286623e-05 0.0 
2.696117286623e-05 4.858420634372e-03 0.0 
0.0 0.0 -6.911911970487e-04 
-1.403621533613e-03 2.899157745045e-05 0.0 
2.899157745045e-05 4.851539021186e-03 0.0 
0.0 0.0 -6.903356507966e-04 
-1.422086472761e-03 7.127286506100e-05 0.0 
7.127286506100e-05 4.925418991949e-03 0.0 
0.0 0.0 -6.980756478071e-04 
-1.440013737492e-03 8.905228061672e-05 0.0 
8.905228061672e-05 4.855137559965e-03 0.0 
0.0 0.0 -6.911448554634e-04 
-1.457810866496e-03 1.124854279040e-04 0.0 
1.124854279040e-04 4.842862400746e-03 0.0 
0.0 0.0 -6.903833977050e-04 
-1.485479761852e-03 1.763889665616e-04 0.0 
1.763889665616e-04 4.844524201239e-03 0.0 
0.0 0.0 -6.905588330458e-04 
-1.530071715646e-03 2.314067896651e-04 0.0 
2.314067896651e-04 4.843027902445e-03 0.0 
0.0 0.0 -6.922444453805e-04 
-1.565434249602e-03 3.199826070801e-04 0.0 
3.199826070801e-04 4.827774349685e-03 0.0 
0.0 0.0 -6.916098530255e-04 
-1.592220907441e-03 4.164385463974e-04 0.0 
4.164385463974e-04 4.800836260159e-03 0.0 
0.0 0.0 -6.911665914957e-04 
-1.624093306590e-03 5.379923244308e-04 0.0 
5.379923244308e-04 4.762121973516e-03 0.0 
0.0 0.0 -6.926885898885e-04 
-1.636272666442e-03 7.038956101205e-04 0.0 
7.038956101205e-04 4.710840836171e-03 0.0 
0.0 0.0 -6.980272606831e-04 
-1.642234561257e-03 8.946537782645e-04 0.0 
8.946537782645e-04 4.660104212790e-03 0.0 
0.0 0.0 -7.070206663417e-04 
0.0 0.0 0.0 
0.0 0.0 0.0 
0.0 0.0 0.0 
0.0 0.0 0.0 
0.0 0.0 0.0 
0.0 0.0 0.0 
0.0 0.0 0.0 
0.0 0.0 0.0 
0.0 0.0 0.0 
0.0 0.0 0.0 
0.0 0.0 0.0 
0.0 0.0 0.0 
0.0 0.0 0.0 
0.0 0.0 0.0 
0.0 0.0 0.0 
6.460969664659e-05 -1.556902627030e-04 0.0 
-1.556902627030e-04 3.828112054754e-05 0.0 
0.0 0.0 -4.409606451177e-05 
2.290958672754e-04 -1.825778835954e-04 0.0 
-1.825778835954e-04 1.295802149226e-05 0.0 
0.0 0.0 -6.349991864517e-05 
3.258301092639e-04 -1.495010221350e-04 0.0 
-1.495010221350e-04 5.825232736603e-05 0.0 
0.0 0.0 -6.729406355132e-05 
4.308097979006e-04 -2.272179296947e-04 0.0 
-2.272179296947e-04 4.144525422736e-05 0.0 
0.0 0.0 -5.004267624003e-05 
7.170242557017e-04 -3.798682189908e-04 0.0 
-3.798682189908e-04 -8.718929718944e-05 0.0 
0.0 0.0 -5.423469082675e-05 
1.016505377143e-03 -3.706654485886e-04 0.0 
-3.706654485886e-04 -2.196691987021e-04 0.0 
0.0 0.0 -6.924701466199e-05 
1.374691841568e-03 -3.600731207399e-04 0.0 
-3.600731207399e-04 -3.650587174241e-04 0.0 
0.0 0.0 -8.456438766380e-05 
1.776444192994e-03 -3.135747337774e-04 0.0 
-3.135747337774e-04 -5.394471043759e-04 0.0 
0.0 0.0 -1.145437528706e-04 
2.116489510919e-03 -3.092434709054e-04 0.0 
-3.092434709054e-04 -6.971504040322e-04 0.0 
0.0 0.0 -1.122699804219e-04 
2.340534228900e-03 -2.489648393755e-04 0.0 
-2.489648393755e-04 -7.939335318199e-04 0.0 
0.0 0.0 -1.135261812993e-04 
2.545448873624e-03 -1.895106937816e-04 0.0 
-1.895106937816e-04 -8.695809182027e-04 0.0 
0.0 0.0 -1.151526711856e-04 
2.708912883130e-03 -1.592234908312e-04 0.0 
-1.592234908312e-04 -9.353356256089e-04 0.0 
0.0 0.0 -1.168504208365e-04 
2.867102977547e-03 -9.067089989766e-05 0.0 
-9.067089989766e-05 -1.037120165575e-03 0.0 
0.0 0.0 -1.138900488129e-04 
3.013559206580e-03 5.775462477208e-05 0.0 
5.775462477208e-05 -1.103986210354e-03 0.0 
0.0 0.0 -1.064965418423e-04 
-1.502054488517e-03 1.090850475255e-03 0.0 
1.090850475255e-03 4.284810014568e-03 0.0 
0.0 0.0 -7.115883050004e-04 
-1.585932680311e-03 9.054856363367e-04 0.0 
9.054856363367e-04 4.444399237896e-03 0.0 
0.0 0.0 -6.853704285620e-04 
-1.613659183335e-03 7.366230206809e-04 0.0 
7.366230206809e-04 4.552145790672e-03 0.0 
0.0 0.0 -6.662984057605e-04 
-1.594902135743e-03 5.586369779491e-04 0.0 
5.586369779491e-04 4.595667664377e-03 0.0 
0.0 0.0 -6.593503079355e-04 
-1.569795022398e-03 4.109909220550e-04 0.0 
4.109909220550e-04 4.636706686282e-03 0.0 
0.0 0.0 -6.562962962963e-04 
-1.533094649091e-03 3.063596780766e-04 0.0 
3.063596780766e-04 4.663832575657e-03 0.0 
0.0 0.0 -6.562962962963e-04 
-1.498926669115e-03 2.254323817555e-04 0.0 
2.254323817555e-04 4.675483410831e-03 0.0 
0.0 0.0 -6.562962962963e-04 
-1.465996684865e-03 1.482978693673e-04 0.0 
1.482978693673e-04 4.688009581727e-03 0.0 
0.0 0.0 -6.562962962963e-04 
-1.425303441578e-03 1.085410581480e-04 0.0 
1.085410581480e-04 4.698456563133e-03 0.0 
0.0 0.0 -6.562962962963e-04 
-1.405825442088e-03 6.007516380642e-05 0.0 
6.007516380642e-05 4.702450085042e-03 0.0 
0.0 0.0 -6.562962962963e-04 
-1.380753138805e-03 4.199162353632e-05 0.0 
4.199162353632e-05 4.704246679236e-03 0.0 
0.0 0.0 -6.562962962963e-04 
-1.361743493291e-03 8.663455117752e-06 0.0 
8.663455117752e-06 4.705187432061e-03 0.0 
0.0 0.0 -6.562962962963e-04 
-1.350262357290e-03 7.190886878698e-06 0.0 
7.190886878698e-06 4.710917256783e-03 0.0 
0.0 0.0 -6.562962962963e-04 
-1.336523470522e-03 -2.837325769958e-06 0.0 
-2.837325769958e-06 4.700854808232e-03 0.0 
0.0 0.0 -6.562962962963e-04 
-1.327567620582e-03 -4.269300980327e-05 0.0 
-4.269300980327e-05 4.667309999500e-03 0.0 
0.0 0.0 -6.562962962963e-04 
-1.312550183261e-03 1.145168845414e-04 0.0 
1.145168845414e-04 4.605255385728e-03 0.0 
0.0 0.0 -6.488888888889e-04 
-1.579731678568e-04 2.164482986228e-03 0.0 
2.164482986228e-03 1.847139196374e-04 0.0 
0.0 0.0 -1.146032219169e-05 
1.936976575994e-04 1.398779559345e-03 0.0 
1.398779559345e-03 5.900772889955e-04 0.0 
0.0 0.0 -3.359035485407e-04 
2.417267202073e-04 1.838455165837e-03 0.0 
1.838455165837e-03 7.923036657008e-04 0.0 
0.0 0.0 -4.431558796749e-04 
1.101677228067e-04 1.834201385501e-03 0.0 
1.834201385501e-03 9.860182752854e-04 0.0 
0.0 0.0 -4.697939991823e-04 
-1.015326029610e-04 1.768813643197e-03 0.0 
1.768813643197e-03 1.327052849400e-03 0.0 
0.0 0.0 -5.252229627595e-04 
-3.500664412641e-04 1.776194894250e-03 0.0 
1.776194894250e-03 1.890650442787e-03 0.0 
0.0 0.0 -6.602502863668e-04 
-6.021316177337e-04 1.787666469000e-03 0.0 
1.787666469000e-03 2.539974038930e-03 0.0 
0.0 0.0 -8.188873791818e-04 
-9.157055857138e-04 1.673048909096e-03 0.0 
1.673048909096e-03 3.149566572632e-03 0.0 
0.0 0.0 -7.915848623382e-04 
-1.222210367846e-03 1.486194999013e-03 0.0 
1.486194999013e-03 3.757743598944e-03 0.0 
0.0 0.0 -7.605639790837e-04 
-1.511188526407e-03 1.222180276087e-03 0.0 
1.222180276087e-03 4.345465073806e-03 0.0 
0.0 0.0 -7.342219135274e-04 
3.539823178863e-04 1.710352572919e-03 0.0 
1.710352572919e-03 5.866051080763e-04 0.0 
0.0 0.0 -4.031088968411e-04 
-9.225734973571e-04 -7.785055507500e-06 0.0 
-7.785055507500e-06 4.710905526494e-03 0.0 
0.0 0.0 -1.303388942653e-03 
2.002003524453e-04 -6.228844878024e-04 0.0 
-6.228844878024e-04 2.361800845582e-04 0.0 
0.0 0.0 -1.150931346421e-04 
6.351277012352e-06 -1.034192914689e-04 0.0 
-1.034192914689e-04 -6.351277012354e-06 0.0 
0.0 0.0 0.0 
-1.143124804619e-03 -1.686232053488e-03 0.0 
-1.686232053488e-03 5.409600557008e-03 0.0 
0.0 0.0 -1.303360877099e-03 
1.234786051762e-04 1.977711876023e-03 0.0 
1.977711876023e-03 1.061132021132e-03 0.0 
0.0 0.0 -5.076902684178e-04 
-1.444704152341e-03 -3.615903752048e-04 0.0 
-3.615903752048e-04 4.407515592965e-03 0.0 
0.0 0.0 -1.026919993916e-03 
-9.479894819801e-04 1.838728918359e-03 0.0 
1.838728918359e-03 4.893992345869e-03 0.0 
0.0 0.0 -1.300998267065e-03 
-3.669420938573e-04 1.945721923899e-03 0.0 
1.945721923899e-03 2.035468676857e-03 0.0 
0.0 0.0 -7.150828212858e-04 
-1.134501767780e-03 3.078864715943e-03 0.0 
3.078864715943e-03 5.708971873236e-03 0.0 
0.0 0.0 -1.304014651794e-03 
-9.933335184060e-04 1.783041133304e-03 0.0 
1.783041133304e-03 3.368272424712e-03 0.0 
0.0 0.0 -8.139337748180e-04 
-1.367928456590e-03 -1.893022985453e-03 0.0 
-1.893022985453e-03 6.315060285992e-03 0.0 
0.0 0.0 -1.307658508868e-03 
1.393566666495e-03 -5.293231022229e-04 0.0 
-5.293231022229e-04 -2.919979710108e-04 0.0 
0.0 0.0 -1.726441863791e-04 
-1.321068622768e-03 3.408933067941e-03 0.0 
3.408933067941e-03 6.699280987615e-03 0.0 
0.0 0.0 -1.304481600125e-03 
-1.625241511018e-03 1.405941443998e-03 0.0 
1.405941443998e-03 4.657250357868e-03 0.0 
0.0 0.0 -7.595448291451e-04 
-9.674687493222e-04 -2.324067189866e-04 0.0 
-2.324067189866e-04 3.002016490702e-03 0.0 
0.0 0.0 -7.390740322083e-04 
-1.821851265128e-03 -3.597710289885e-04 0.0 
-3.597710289885e-04 5.333319395799e-03 0.0 
0.0 0.0 -1.073818338595e-03 
-1.412437544610e-03 3.130277989420e-03 0.0 
3.130277989420e-03 7.340714354146e-03 0.0 
0.0 0.0 -1.301280071178e-03 
-1.458721797288e-03 2.468181070438e-03 0.0 
2.468181070438e-03 8.007112846752e-03 0.0 
0.0 0.0 -1.304294760550e-03 
-1.442626291436e-03 7.982050020717e-04 0.0 
7.982050020717e-04 8.632923623264e-03 0.0 
0.0 0.0 -1.303238611779e-03 
-1.460924372811e-03 1.330564066234e-03 0.0 
1.330564066234e-03 8.482170570322e-03 0.0 
0.0 0.0 -1.297727402575e-03 
-1.466071718827e-03 1.860397699296e-03 0.0 
1.860397699296e-03 8.323259225048e-03 0.0 
0.0 0.0 -1.305306183856e-03 
-1.723504189141e-03 9.545217762893e-04 0.0 
9.545217762893e-04 5.069531762335e-03 0.0 
0.0 0.0 -7.528866907182e-04 
-1.609633540750e-03 4.109047618561e-04 0.0 
4.109047618561e-04 5.236232241604e-03 0.0 
0.0 0.0 -7.529849494387e-04 
-1.529214909887e-03 1.902322029956e-04 0.0 
1.902322029956e-04 5.302594416650e-03 0.0 
0.0 0.0 -7.580270452736e-04 
-1.581306103182e-03 3.146837778263e-05 0.0 
3.146837778263e-05 6.876614414943e-03 0.0 
0.0 0.0 -9.950081682429e-04 
-1.500312298629e-03 -1.404495050420e-03 0.0 
-1.404495050420e-03 6.813712989149e-03 0.0 
0.0 0.0 -1.302874185639e-03 
0.0 0.0 0.0 
0.0 0.0 0.0 
0.0 0.0 0.0 
1.991019007460e-03 -2.749999736625e-04 0.0 
-2.749999736625e-04 -4.994877663417e-04 0.0 
0.0 0.0 -1.971444476807e-04 
-2.064700972320e-03 -3.063344179821e-04 0.0 
-3.063344179821e-04 6.409893202118e-03 0.0 
0.0 0.0 -1.122886395833e-03 
-1.468245391393e-03 9.255547116428e-05 0.0 
9.255547116428e-05 5.268982738319e-03 0.0 
0.0 0.0 -7.500338828344e-04 
-3.768246537726e-04 -1.072125225081e-04 0.0 
-1.072125225081e-04 1.532862867376e-03 0.0 
0.0 0.0 -3.103003023327e-04 
-1.462480749969e-03 2.788238406384e-03 0.0 
2.788238406384e-03 7.654884390723e-03 0.0 
0.0 0.0 -1.293200138473e-03 
-1.060495443339e-03 2.586030718155e-03 0.0 
2.586030718155e-03 5.302800007763e-03 0.0 
0.0 0.0 -1.307307853467e-03 
-1.239947575843e-03 3.359554949631e-03 0.0 
3.359554949631e-03 6.201507605709e-03 0.0 
0.0 0.0 -1.304733450272e-03 
-8.851569131084e-04 1.017294528516e-03 0.0 
1.017294528516e-03 4.688446957818e-03 0.0 
0.0 0.0 -1.297928233296e-03 
-1.011734799512e-03 -8.525942349034e-04 0.0 
-8.525942349034e-04 4.907050266684e-03 0.0 
0.0 0.0 -1.305578568836e-03 
1.120011211769e-04 -9.639393047147e-04 0.0 
-9.639393047147e-04 3.552641554252e-04 0.0 
0.0 0.0 -2.002565471152e-04 
-1.668530992619e-03 6.309946100002e-04 0.0 
6.309946100002e-04 5.166924460567e-03 0.0 
0.0 0.0 -7.500980793755e-04 
-1.253144254253e-03 -1.928883033382e-03 0.0 
-1.928883033382e-03 5.781747753778e-03 0.0 
0.0 0.0 -1.293180865221e-03 
-1.565497950727e-03 6.438167873332e-05 0.0 
6.438167873332e-05 7.693447317596e-03 0.0 
0.0 0.0 -1.123598490052e-03 
6.785802533228e-04 -5.736279611176e-04 0.0 
-5.736279611176e-04 1.838174080765e-07 0.0 
0.0 0.0 -1.171618051616e-04 
-1.195500737651e-03 -3.256008312402e-04 0.0 
-3.256008312402e-04 3.719620558921e-03 0.0 
0.0 0.0 -9.209925479532e-04 
-1.429805954471e-03 5.036842419237e-04 0.0 
5.036842419237e-04 8.739646127293e-03 0.0 
0.0 0.0 -1.311981303940e-03 
-9.905702435700e-05 2.013930135586e-03 0.0 
2.013930135586e-03 1.485122832027e-03 0.0 
0.0 0.0 -5.940282032871e-04 
3.261360612195e-04 2.014048139277e-03 0.0 
2.014048139277e-03 7.944417754282e-04 0.0 
0.0 0.0 -4.802476442776e-04 
-6.470413752911e-04 1.957850985508e-03 0.0 
1.957850985508e-03 2.728601734132e-03 0.0 
0.0 0.0 -8.637206373099e-04 
-1.316804590616e-03 1.569868653343e-03 0.0 
1.569868653343e-03 4.005894671503e-03 0.0 
0.0 0.0 -7.800224789174e-04 
3.401695062071e-05 1.780696911088e-03 0.0 
1.780696911088e-03 2.072632199646e-04 0.0 
0.0 0.0 -1.034057873937e-04 
-1.536524951872e-03 3.208999903453e-05 0.0 
3.208999903453e-05 6.068754859848e-03 0.0 
0.0 0.0 -8.684787984471e-04 
-1.527482046669e-03 -8.504264765478e-04 0.0 
-8.504264765478e-04 7.084540485198e-03 0.0 
0.0 0.0 -1.313906642692e-03 
2.259445629762e-03 -9.175095740177e-05 0.0 
-9.175095740177e-05 -6.502150918460e-04 0.0 
0.0 0.0 -1.918888419282e-04 
-1.463207116020e-03 1.296765555730e-04 0.0 
1.296765555730e-04 8.413961701398e-03 0.0 
0.0 0.0 -1.253930875827e-03 
-1.717988966153e-03 1.334598389081e-03 0.0 
1.334598389081e-03 4.909530889206e-03 0.0 
0.0 0.0 -7.655439890770e-04 
-1.720228455065e-03 1.586186079137e-03 0.0 
1.586186079137e-03 4.967329360851e-03 0.0 
0.0 0.0 -7.934218816250e-04 
-1.768015179977e-03 1.461597718910e-03 0.0 
1.461597718910e-03 5.276074626724e-03 0.0 
0.0 0.0 -8.115680642089e-04 
-1.765114281844e-03 1.749488874724e-03 0.0 
1.749488874724e-03 5.323901634960e-03 0.0 
0.0 0.0 -8.428390908522e-04 
-1.776011419960e-03 1.632950866705e-03 0.0 
1.632950866705e-03 5.614599388379e-03 0.0 
0.0 0.0 -8.784658474099e-04 
-1.753067371520e-03 1.892876727445e-03 0.0 
1.892876727445e-03 5.647697331923e-03 0.0 
0.0 0.0 -9.060409163497e-04 
-1.729403370927e-03 2.034729517834e-03 0.0 
2.034729517834e-03 5.329326258993e-03 0.0 
0.0 0.0 -8.711257577414e-04 
-1.705524146156e-03 2.154135310252e-03 0.0 
2.154135310252e-03 5.649528349792e-03 0.0 
0.0 0.0 -9.341442283280e-04 
-1.669480427723e-03 2.313796081278e-03 0.0 
2.313796081278e-03 5.302391134739e-03 0.0 
0.0 0.0 -8.989774131092e-04 
-1.760017773414e-03 1.778713600910e-03 0.0 
1.778713600910e-03 5.960915318729e-03 0.0 
0.0 0.0 -9.415083590319e-04 
-1.639128685698e-03 2.400878910049e-03 0.0 
2.400878910049e-03 5.620671151866e-03 0.0 
0.0 0.0 -9.622976032585e-04 
-1.585968914987e-03 2.571269188534e-03 0.0 
2.571269188534e-03 5.245482773901e-03 0.0 
0.0 0.0 -9.268639294333e-04 
-1.553264337981e-03 2.629359401866e-03 0.0 
2.629359401866e-03 5.564461608518e-03 0.0 
0.0 0.0 -9.903372159162e-04 
-1.482148429882e-03 2.800719357184e-03 0.0 
2.800719357184e-03 5.162964478957e-03 0.0 
0.0 0.0 -9.547708836903e-04 
-1.480872876733e-03 2.756523220070e-03 0.0 
2.756523220070e-03 4.843370134984e-03 0.0 
0.0 0.0 -9.032660992691e-04 
-1.370066982921e-03 2.994500238396e-03 0.0 
2.994500238396e-03 4.734217419357e-03 0.0 
0.0 0.0 -9.261835667446e-04 
-1.296697830142e-03 2.932762897298e-03 0.0 
2.932762897298e-03 4.406716792506e-03 0.0 
0.0 0.0 -9.004111975071e-04 
-1.176154479742e-03 3.171939239460e-03 0.0 
3.171939239460e-03 4.268382598936e-03 0.0 
0.0 0.0 -9.182233496599e-04 
-1.237826052231e-03 3.181299556145e-03 0.0 
3.181299556145e-03 4.604885530242e-03 0.0 
0.0 0.0 -9.498701766430e-04 
-1.038924370446e-03 3.354505003279e-03 0.0 
3.354505003279e-03 4.108768898160e-03 0.0 
0.0 0.0 -9.343221806050e-04 
-9.113966935237e-04 3.322436674522e-03 0.0 
3.322436674522e-03 3.767445704006e-03 0.0 
0.0 0.0 -9.288662988139e-04 
-7.681433481646e-04 3.500147498246e-03 0.0 
3.500147498246e-03 3.577220508926e-03 0.0 
0.0 0.0 -9.367850320061e-04 
-6.050859616232e-04 3.441042246538e-03 0.0 
3.441042246538e-03 3.246213294712e-03 0.0 
0.0 0.0 -9.518642033955e-04 
-4.467796431526e-04 3.596824647640e-03 0.0 
3.596824647640e-03 3.023253834938e-03 0.0 
0.0 0.0 -9.541337235040e-04 
-2.817347476968e-04 3.508182660979e-03 0.0 
3.508182660979e-03 2.709346421897e-03 0.0 
0.0 0.0 -9.642822318347e-04 
-1.040481770833e-04 3.619372760828e-03 0.0 
3.619372760828e-03 2.449228749823e-03 0.0 
0.0 0.0 -9.459728402633e-04 
-2.870166289118e-04 3.676071568470e-03 0.0 
3.676071568470e-03 2.794184702227e-03 0.0 
0.0 0.0 -9.498144071847e-04 
6.429436302438e-05 3.660882361634e-03 0.0 
3.660882361634e-03 2.186835241716e-03 0.0 
0.0 0.0 -9.193128608805e-04 
2.331588354861e-04 3.548891452897e-03 0.0 
3.548891452897e-03 1.871725410986e-03 0.0 
0.0 0.0 -8.913707482552e-04 
4.174760030635e-04 3.518419278721e-03 0.0 
3.518419278721e-03 1.585153718146e-03 0.0 
0.0 0.0 -8.538425857873e-04 
5.455280992742e-04 3.365363645192e-03 0.0 
3.365363645192e-03 1.323229666394e-03 0.0 
0.0 0.0 -8.008961852862e-04 
7.498486656370e-04 3.260544319073e-03 0.0 
3.260544319073e-03 1.013594496255e-03 0.0 
0.0 0.0 -7.557613550964e-04 
5.794043773309e-04 3.414810932032e-03 0.0 
3.414810932032e-03 1.312272080423e-03 0.0 
0.0 0.0 -8.100034870355e-04 
9.766186802750e-04 3.126905533587e-03 0.0 
3.126905533587e-03 6.756506724320e-04 0.0 
0.0 0.0 -7.081154368744e-04 
1.170764685342e-03 3.063309594450e-03 0.0 
3.063309594450e-03 3.918842971428e-04 0.0 
0.0 0.0 -6.697067067790e-04 
1.469956798013e-03 2.887539401857e-03 0.0 
2.887539401857e-03 -6.720200421086e-06 0.0 
0.0 0.0 -6.271013989681e-04 
1.655398318796e-03 2.905797537394e-03 0.0 
2.905797537394e-03 -2.066635196578e-04 0.0 
0.0 0.0 -6.208863424878e-04 
1.958892900495e-03 2.587078338226e-03 0.0 
2.587078338226e-03 -5.601119320347e-04 0.0 
0.0 0.0 -5.994775579116e-04 
2.135455672651e-03 2.638700697284e-03 0.0 
2.638700697284e-03 -6.211030008372e-04 0.0 
0.0 0.0 -6.490082879202e-04 
2.410352153471e-03 2.173774944653e-03 0.0 
2.173774944653e-03 -9.107525055140e-04 0.0 
0.0 0.0 -6.426855634101e-04 
2.158594858366e-03 2.117426171510e-03 0.0 
2.117426171510e-03 -8.346185089651e-04 0.0 
0.0 0.0 -5.674184354577e-04 
2.548284906519e-03 1.577323129924e-03 0.0 
1.577323129924e-03 -1.120076299841e-03 0.0 
0.0 0.0 -6.120894028618e-04 
2.766282761562e-03 1.671188389262e-03 0.0 
1.671188389262e-03 -1.152705968468e-03 0.0 
0.0 0.0 -6.915329113260e-04 
2.831831315373e-03 9.695675877105e-04 0.0 
9.695675877105e-04 -1.281170566415e-03 0.0 
0.0 0.0 -6.645688924106e-04 
2.536993124922e-03 9.134999273791e-04 0.0 
9.134999273791e-04 -1.229619517363e-03 0.0 
0.0 0.0 -5.603029746683e-04 
2.733867997822e-03 2.586198841001e-04 0.0 
2.586198841001e-04 -1.313858956396e-03 0.0 
0.0 0.0 -6.085753034686e-04 
2.382754168972e-03 2.331723641419e-04 0.0 
2.331723641419e-04 -1.217161318829e-03 0.0 
0.0 0.0 -4.995397929185e-04 
2.475502276821e-03 -4.225569186791e-04 0.0 
-4.225569186791e-04 -1.235276730126e-03 0.0 
0.0 0.0 -5.315252342980e-04 
2.783353977069e-03 -4.207301430438e-04 0.0 
-4.207301430438e-04 -1.298298732893e-03 0.0 
0.0 0.0 -6.364522475042e-04 
2.431423533239e-03 -1.055611195596e-03 0.0 
-1.055611195596e-03 -1.141139443354e-03 0.0 
0.0 0.0 -5.529788956651e-04 
2.074488083004e-03 -1.034963949875e-03 0.0 
-1.034963949875e-03 -9.657239908617e-04 0.0 
0.0 0.0 -4.751846109182e-04 
1.948746609120e-03 -1.563616376602e-03 0.0 
-1.563616376602e-03 -7.896259199600e-04 0.0 
0.0 0.0 -4.967660096401e-04 
2.266914827687e-03 -1.646291796375e-03 0.0 
-1.646291796375e-03 -9.610891233280e-04 0.0 
0.0 0.0 -5.596395875825e-04 
1.725234701887e-03 -1.991509456133e-03 0.0 
-1.991509456133e-03 -5.081914327056e-04 0.0 
0.0 0.0 -5.215899725061e-04 
1.402225958191e-03 -1.927478583456e-03 0.0 
-1.927478583456e-03 -1.960854800127e-04 0.0 
0.0 0.0 -5.169173477906e-04 
1.209383151701e-03 -2.216403946003e-03 0.0 
-2.216403946003e-03 7.890654783242e-05 0.0 
0.0 0.0 -5.521241569428e-04 
1.437995882087e-03 -2.266737877318e-03 0.0 
-2.266737877318e-03 -1.663516021812e-04 0.0 
0.0 0.0 -5.449904056737e-04 
1.024600490131e-03 -2.464285469351e-03 0.0 
-2.464285469351e-03 3.533750076132e-04 0.0 
0.0 0.0 -5.905609276045e-04 
8.985317602796e-04 -2.606405635227e-03 0.0 
-2.606405635227e-03 5.292322287010e-04 0.0 
0.0 0.0 -6.118988524203e-04 
7.560704768117e-04 -2.818446778216e-03 0.0 
-2.818446778216e-03 7.706212678724e-04 0.0 
0.0 0.0 -6.542964620075e-04 
8.580312086144e-04 -2.682927376050e-03 0.0 
-2.682927376050e-03 6.007672926437e-04 0.0 
0.0 0.0 -6.251993576820e-04 
5.867828103229e-04 -2.962553875983e-03 0.0 
-2.962553875983e-03 1.034857146591e-03 0.0 
0.0 0.0 -6.949885529632e-04 
4.441790608849e-04 -3.069180945402e-03 0.0 
-3.069180945402e-03 1.277969962145e-03 0.0 
0.0 0.0 -7.380638670128e-04 
2.783519300776e-04 -3.113099096991e-03 0.0 
-3.113099096991e-03 1.538449359472e-03 0.0 
0.0 0.0 -7.786291240925e-04 
1.058234640362e-04 -3.171084265656e-03 0.0 
-3.171084265656e-03 1.852966267041e-03 0.0 
0.0 0.0 -8.394813133188e-04 
3.929316153892e-04 -3.010245319228e-03 0.0 
-3.010245319228e-03 1.308656505855e-03 0.0 
0.0 0.0 -7.292520519616e-04 
9.932532998196e-05 -3.071474673695e-03 0.0 
-3.071474673695e-03 1.797955184989e-03 0.0 
0.0 0.0 -8.131202207017e-04 
1.861203807317e-04 -2.953410476768e-03 0.0 
-2.953410476768e-03 1.579421639320e-03 0.0 
0.0 0.0 -7.566608657364e-04 
-8.642223961803e-05 -2.932845730897e-03 0.0 
-2.932845730897e-03 2.045062282812e-03 0.0 
0.0 0.0 -8.394171613687e-04 
7.378179429990e-04 3.236151700417e-03 0.0 
3.236151700417e-03 1.055249139964e-03 0.0 
0.0 0.0 -7.684573212697e-04 
-2.470987176264e-05 -2.774259717146e-03 0.0 
-2.774259717146e-03 1.827411113102e-03 0.0 
0.0 0.0 -7.725862462883e-04 
2.168591650758e-04 -2.749464912916e-03 0.0 
-2.749464912916e-03 1.402707795240e-03 0.0 
0.0 0.0 -6.941001258497e-04 
-2.655633051019e-04 -2.700896907473e-03 0.0 
-2.700896907473e-03 2.263406073752e-03 0.0 
0.0 0.0 -8.562183294215e-04 
-3.538412369767e-04 -2.807118068406e-03 0.0 
-2.807118068406e-03 2.524613030834e-03 0.0 
0.0 0.0 -9.303307687962e-04 
-2.182790499822e-04 -2.492668770886e-03 0.0 
-2.492668770886e-03 2.032114690057e-03 0.0 
0.0 0.0 -7.773581314605e-04 
-4.250446102995e-04 -2.387105800852e-03 0.0 
-2.387105800852e-03 2.436232383686e-03 0.0 
0.0 0.0 -8.619376171656e-04 
-3.808762253420e-04 -2.140229309317e-03 0.0 
-2.140229309317e-03 2.184406533220e-03 0.0 
0.0 0.0 -7.729415605190e-04 
1.763159166294e-03 2.932701492782e-03 0.0 
2.932701492782e-03 -2.697944395366e-04 0.0 
0.0 0.0 -6.400134543247e-04 
-1.088844513542e-03 3.301377294412e-03 0.0 
3.301377294412e-03 4.460583281383e-03 0.0 
0.0 0.0 -9.751682721562e-04 
-5.557439599788e-04 -2.010376698230e-03 0.0 
-2.010376698230e-03 2.553174357475e-03 0.0 
0.0 0.0 -8.560415989269e-04 
-5.027177784437e-04 -1.739983302349e-03 0.0 
-1.739983302349e-03 2.268016728775e-03 0.0 
0.0 0.0 -7.565566929991e-04 
-3.487326511453e-04 -1.851839421592e-03 0.0 
-1.851839421592e-03 1.937346492323e-03 0.0 
0.0 0.0 -6.808345033620e-04 
-4.519877827048e-04 -1.437771514004e-03 0.0 
-1.437771514004e-03 1.973465387895e-03 0.0 
0.0 0.0 -6.520618307959e-04 
-1.774841257907e-03 1.527132807035e-03 0.0 
1.527132807035e-03 5.918357799879e-03 0.0 
0.0 0.0 -9.126358703463e-04 
-1.762808846704e-03 1.694088373988e-03 0.0 
1.694088373988e-03 6.266633471383e-03 0.0 
0.0 0.0 -9.772611937912e-04 
-1.774288393461e-03 1.442569390130e-03 0.0 
1.442569390130e-03 6.194015386497e-03 0.0 
0.0 0.0 -9.468612964576e-04 
-1.759396418391e-03 1.612723129842e-03 0.0 
1.612723129842e-03 6.563174828670e-03 0.0 
0.0 0.0 -1.012955122490e-03 
-1.767929614200e-03 1.376342917300e-03 0.0 
1.376342917300e-03 6.485124768915e-03 0.0 
0.0 0.0 -9.835180958883e-04 
-5.788967960072e-04 -1.335257077215e-03 0.0 
-1.335257077215e-03 2.277225899990e-03 0.0 
0.0 0.0 -7.256352817785e-04 
-1.603689512328e-03 2.493470387195e-03 0.0 
2.493470387195e-03 5.946173640174e-03 0.0 
0.0 0.0 -1.026687169009e-03 
-1.736212695290e-03 1.850044700733e-03 0.0 
1.850044700733e-03 6.615422803056e-03 0.0 
0.0 0.0 -1.042264213861e-03 
-7.638319934371e-04 3.223456733069e-03 0.0 
3.223456733069e-03 3.455847564200e-03 0.0 
0.0 0.0 -9.409285294772e-04 
3.366430025168e-04 3.397992003127e-03 0.0 
3.397992003127e-03 1.628840077963e-03 0.0 
0.0 0.0 -8.423498916340e-04 
2.156368313925e-03 8.947959957603e-04 0.0 
8.947959957603e-04 -1.035979942615e-03 0.0 
0.0 0.0 -4.801664448473e-04 
-6.227154585167e-04 -2.198002757365e-03 0.0 
-2.198002757365e-03 2.831211668969e-03 0.0 
0.0 0.0 -9.464983759082e-04 
-7.218347779198e-04 -1.819122893170e-03 0.0 
-1.819122893170e-03 2.913297155100e-03 0.0 
0.0 0.0 -9.383242106009e-04 
-8.133368797394e-04 -1.945809227020e-03 0.0 
-1.945809227020e-03 3.204453228297e-03 0.0 
0.0 0.0 -1.004955155493e-03 
2.358180408842e-04 -3.147007717197e-03 0.0 
-3.147007717197e-03 1.628184027877e-03 0.0 
0.0 0.0 -7.988580294692e-04 
-1.225410220003e-04 -3.166679032327e-03 0.0 
-3.166679032327e-03 2.260222165472e-03 0.0 
0.0 0.0 -9.088386183890e-04 
-3.596074933626e-05 -3.143460862446e-03 0.0 
-3.143460862446e-03 2.089404171616e-03 0.0 
0.0 0.0 -8.720661220001e-04 
-3.940691537939e-04 -3.066493924859e-03 0.0 
-3.066493924859e-03 2.736277962959e-03 0.0 
0.0 0.0 -9.548449181928e-04 
-3.127433245065e-04 -2.982699423106e-03 0.0 
-2.982699423106e-03 2.620883950583e-03 0.0 
0.0 0.0 -9.363521337227e-04 
-6.475470341843e-04 -2.849005951016e-03 0.0 
-2.849005951016e-03 3.244198139691e-03 0.0 
0.0 0.0 -9.829094188347e-04 
-7.290342086422e-04 -2.890946438125e-03 0.0 
-2.890946438125e-03 3.342200867435e-03 0.0 
0.0 0.0 -9.972914379494e-04 
-9.540874880885e-04 -2.660066281729e-03 0.0 
-2.660066281729e-03 3.821872870679e-03 0.0 
0.0 0.0 -1.003716470558e-03 
-1.033871380646e-03 -2.655311578103e-03 0.0 
-2.655311578103e-03 3.899288306138e-03 0.0 
0.0 0.0 -1.010717982506e-03 
-5.020318707035e-04 -2.652589391131e-03 0.0 
-2.652589391131e-03 3.162848563043e-03 0.0 
0.0 0.0 -1.000386703517e-03 
-1.738328040713e-04 -2.716917287151e-03 0.0 
-2.716917287151e-03 2.542650585114e-03 0.0 
0.0 0.0 -9.561072799058e-04 
-1.217140716833e-03 -2.433745842754e-03 0.0 
-2.433745842754e-03 4.355239653684e-03 0.0 
0.0 0.0 -1.026468870702e-03 
-1.301004518180e-03 -2.384512482324e-03 0.0 
-2.384512482324e-03 4.413129634354e-03 0.0 
0.0 0.0 -1.025303715086e-03 
-1.433223260983e-03 -2.180723409209e-03 0.0 
-2.180723409209e-03 4.841898264917e-03 0.0 
0.0 0.0 -1.051254241329e-03 
-1.533782143048e-03 -2.096001782913e-03 0.0 
-2.096001782913e-03 4.882119290392e-03 0.0 
0.0 0.0 -1.038917832539e-03 
-1.344970022650e-03 -2.253929758585e-03 0.0 
-2.253929758585e-03 4.461736113479e-03 0.0 
0.0 0.0 -1.037516479237e-03 
-1.569102967331e-03 -1.933831873179e-03 0.0 
-1.933831873179e-03 4.899834166201e-03 0.0 
0.0 0.0 -1.046305699947e-03 
-1.376153231101e-03 -2.066079550050e-03 0.0 
-2.066079550050e-03 4.500968763913e-03 0.0 
0.0 0.0 -1.050803148915e-03 
1.947540486422e-03 2.152880942579e-04 0.0 
2.152880942579e-04 -9.005037723215e-04 0.0 
0.0 0.0 -4.487300203286e-04 
1.680967532914e-03 9.207071897223e-04 0.0 
9.207071897223e-04 -5.014207716637e-04 0.0 
0.0 0.0 -5.055200405360e-04 
1.438850481880e-03 2.016578593639e-04 0.0 
2.016578593639e-04 -1.625086232559e-04 0.0 
0.0 0.0 -5.470036536960e-04 
1.202172879279e-03 8.527240019949e-04 0.0 
8.527240019949e-04 3.828898779410e-04 0.0 
0.0 0.0 -6.793126102372e-04 
1.037530362003e-03 2.011510087903e-04 0.0 
2.011510087903e-04 7.506062236289e-04 0.0 
0.0 0.0 -7.663442509849e-04 
8.675854264309e-04 7.587081521114e-04 0.0 
7.587081521114e-04 1.231843798103e-03 0.0 
0.0 0.0 -8.979051750036e-04 
7.349701041777e-04 2.153247329944e-04 0.0 
2.153247329944e-04 1.546423059999e-03 0.0 
0.0 0.0 -9.701408636527e-04 
8.610381847209e-04 -3.526591051395e-04 0.0 
-3.526591051395e-04 1.156465632251e-03 0.0 
0.0 0.0 -8.646444929881e-04 
-1.453224264520e-03 2.831768754596e-03 0.0 
2.831768754596e-03 5.484804576212e-03 0.0 
0.0 0.0 -1.018102500310e-03 
3.008867090267e-03 1.058367247789e-03 0.0 
1.058367247789e-03 -1.343458179845e-03 0.0 
0.0 0.0 -7.137466758949e-04 
2.853497805066e-03 1.766083769912e-03 0.0 
1.766083769912e-03 -1.173072932721e-03 0.0 
0.0 0.0 -7.201820881480e-04 
3.053541270561e-03 1.142570270594e-03 0.0 
1.142570270594e-03 -1.348374367158e-03 0.0 
0.0 0.0 -7.307858157443e-04 
2.838618046953e-03 1.876649797015e-03 0.0 
1.876649797015e-03 -1.126367864291e-03 0.0 
0.0 0.0 -7.338215068551e-04 
2.971080593981e-03 1.270655419308e-03 0.0 
1.270655419308e-03 -1.289312095888e-03 0.0 
0.0 0.0 -7.207579277541e-04 
2.719217330289e-03 2.056721202716e-03 0.0 
2.056721202716e-03 -1.037451596634e-03 0.0 
0.0 0.0 -7.207567429950e-04 
2.772942118414e-03 1.411962470906e-03 0.0 
1.411962470906e-03 -1.228640855760e-03 0.0 
0.0 0.0 -6.618433982802e-04 
2.936188635973e-03 5.059698955333e-04 0.0 
5.059698955333e-04 -1.379043216914e-03 0.0 
0.0 0.0 -6.673480367399e-04 
2.617932977065e-03 5.853697332861e-04 0.0 
5.853697332861e-04 -1.334188021617e-03 0.0 
0.0 0.0 -5.501764094776e-04 
2.753067280877e-03 -3.549983010408e-04 0.0 
-3.549983010408e-04 -1.367545839080e-03 0.0 
0.0 0.0 -5.937949036274e-04 
2.283697930113e-03 -2.688909952497e-04 0.0 
-2.688909952497e-04 -1.277221164065e-03 0.0 
0.0 0.0 -4.313471854492e-04 
2.525026440165e-03 -1.212492314672e-03 0.0 
-1.212492314672e-03 -1.245102357231e-03 0.0 
0.0 0.0 -5.485388926860e-04 
-1.241644147846e-04 3.665257049786e-03 0.0 
3.665257049786e-03 2.568141902724e-03 0.0 
0.0 0.0 -9.405629120884e-04 
9.458807958305e-04 1.361774924333e-03 0.0 
1.361774924333e-03 9.904922510770e-04 0.0 
0.0 0.0 -8.298741629604e-04 
6.513001348098e-04 1.229100697752e-03 0.0 
1.229100697752e-03 1.753882193068e-03 0.0 
0.0 0.0 -9.993981362447e-04 
6.963768604448e-04 1.772072157614e-03 0.0 
1.772072157614e-03 1.581186938205e-03 0.0 
0.0 0.0 -9.522937794042e-04 
-3.189420848090e-04 -1.545020922433e-03 0.0 
-1.545020922433e-03 1.685829119162e-03 0.0 
0.0 0.0 -5.858087290083e-04 
-1.729227017080e-03 -1.797597956290e-03 0.0 
-1.797597956290e-03 5.304685395965e-03 0.0 
0.0 0.0 -1.052155339158e-03 
-3.558894212413e-04 -2.357175527876e-03 0.0 
-2.357175527876e-03 3.123019306479e-03 0.0 
0.0 0.0 -1.032922975483e-03 
-3.685387661375e-05 -2.333297789804e-03 0.0 
-2.333297789804e-03 2.519376975604e-03 0.0 
0.0 0.0 -9.972889278909e-04 
5.502284084495e-04 -2.540944922989e-04 0.0 
-2.540944922989e-04 1.932880194956e-03 0.0 
0.0 0.0 -1.036234461364e-03 
-5.051250462252e-04 -1.053858961610e-03 0.0 
-1.053858961610e-03 1.923683454344e-03 0.0 
0.0 0.0 -5.970694122200e-04 
2.486914527932e-03 2.192796758779e-03 0.0 
2.192796758779e-03 -9.291035182538e-04 0.0 
0.0 0.0 -6.676332898623e-04 
2.328692636026e-03 2.634849956172e-03 0.0 
2.634849956172e-03 -6.738088910714e-04 0.0 
0.0 0.0 -7.092358906949e-04 
-1.744623678677e-03 1.540348128746e-03 0.0 
1.540348128746e-03 6.846449706807e-03 0.0 
0.0 0.0 -1.048874596840e-03 
-1.750773001735e-03 1.319704536713e-03 0.0 
1.319704536713e-03 6.756146718387e-03 0.0 
0.0 0.0 -1.019458214591e-03 
-2.480160767706e-04 -2.004916630844e-03 0.0 
-2.004916630844e-03 3.137306023889e-03 0.0 
0.0 0.0 -1.070157681403e-03 
-6.234076530390e-04 -9.645286907226e-04 0.0 
-9.645286907226e-04 2.209865459266e-03 0.0 
0.0 0.0 -6.466873288763e-04 
-1.068414060457e-03 -2.374253472806e-03 0.0 
-2.374253472806e-03 4.293485734694e-03 0.0 
0.0 0.0 -1.053463316161e-03 
2.067995625182e-03 6.451329218673e-04 0.0 
6.451329218673e-04 -1.186041327943e-03 0.0 
0.0 0.0 -3.779804131024e-04 
-1.762784595192e-03 -1.607331333857e-03 0.0 
-1.607331333857e-03 5.293267446583e-03 0.0 
0.0 0.0 -1.053563116650e-03 
-1.867913240625e-03 -1.489305966451e-03 0.0 
-1.489305966451e-03 5.673891533939e-03 0.0 
0.0 0.0 -1.070920355653e-03 
-7.933761041048e-04 -2.832720245216e-03 0.0 
-2.832720245216e-03 3.452224715287e-03 0.0 
0.0 0.0 -1.021320298254e-03 
4.031722277788e-04 1.617631885485e-03 0.0 
1.617631885485e-03 2.296315845658e-03 0.0 
0.0 0.0 -1.069468904140e-03 
4.279180701410e-04 2.089566425205e-03 0.0 
2.089566425205e-03 2.165414708705e-03 0.0 
0.0 0.0 -1.033921039166e-03 
2.748961671600e-03 -1.234973564708e-03 0.0 
-1.234973564708e-03 -1.253110519415e-03 0.0 
0.0 0.0 -6.410790652217e-04 
2.518060065866e-03 -2.059438322562e-03 0.0 
-2.059438322562e-03 -1.018220698221e-03 0.0 
0.0 0.0 -6.427883004194e-04 
2.357888963389e-03 -2.118209179973e-03 0.0 
-2.118209179973e-03 -9.914742540871e-04 0.0 
0.0 0.0 -5.856063039867e-04 
2.191323313200e-03 -2.728758808394e-03 0.0 
-2.728758808394e-03 -6.479650369089e-04 0.0 
0.0 0.0 -6.614392612675e-04 
2.278763046571e-03 -2.578114575528e-03 0.0 
-2.578114575528e-03 -7.103706415061e-04 0.0 
0.0 0.0 -6.721681735992e-04 
1.895457018917e-03 -3.007528799367e-03 0.0 
-3.007528799367e-03 -3.206537863592e-04 0.0 
0.0 0.0 -6.749156710960e-04 
1.780393766489e-03 -3.161947930664e-03 0.0 
-3.161947930664e-03 -1.991738640969e-04 0.0 
0.0 0.0 -6.776656724536e-04 
1.498218282607e-03 -3.239267173229e-03 0.0 
-3.239267173229e-03 1.323736015907e-04 0.0 
0.0 0.0 -6.988250932278e-04 
1.538218957511e-03 -3.082075736210e-03 0.0 
-3.082075736210e-03 7.246781046862e-07 0.0 
0.0 0.0 -6.595472724067e-04 
1.116756184221e-03 -3.039153293536e-03 0.0 
-3.039153293536e-03 4.098621490744e-04 0.0 
0.0 0.0 -6.542649999838e-04 
9.813252680918e-04 -2.956617965048e-03 0.0 
-2.956617965048e-03 5.482338783846e-04 0.0 
0.0 0.0 -6.555253484899e-04 
6.892512545273e-04 -2.715436424775e-03 0.0 
-2.715436424775e-03 7.414890539001e-04 0.0 
0.0 0.0 -6.131744178975e-04 
-1.739487401810e-03 -1.643308528611e-03 0.0 
-1.643308528611e-03 5.674904400731e-03 0.0 
0.0 0.0 -1.101875158976e-03 
1.625849311047e-03 -1.683389643306e-04 0.0 
-1.683389643306e-04 -1.097136295050e-03 0.0 
0.0 0.0 -2.265912925699e-04 
-1.396148361601e-03 2.647702035806e-03 0.0 
2.647702035806e-03 4.519072400057e-03 0.0 
0.0 0.0 -8.810844588398e-04 
-5.349333944456e-04 -2.056134526959e-03 0.0 
-2.056134526959e-03 3.696128141265e-03 0.0 
0.0 0.0 -1.099012274073e-03 
4.001314244547e-04 2.494511169208e-04 0.0 
2.494511169208e-04 2.291122324032e-03 0.0 
0.0 0.0 -1.088453095952e-03 
-1.720074879915e-03 1.479198222822e-03 0.0 
1.479198222822e-03 7.120039440071e-03 0.0 
0.0 0.0 -1.085032576515e-03 
-1.727265597861e-03 1.269164868262e-03 0.0 
1.269164868262e-03 7.020339379643e-03 0.0 
0.0 0.0 -1.055603631703e-03 
-1.745923234167e-03 1.117194505061e-03 0.0 
1.117194505061e-03 6.644193117880e-03 0.0 
0.0 0.0 -9.897378988699e-04 
-1.726111739886e-03 1.073003689324e-03 0.0 
1.073003689324e-03 6.905750690588e-03 0.0 
0.0 0.0 -1.026001677571e-03 
-1.697815529865e-03 1.216597394983e-03 0.0 
1.216597394983e-03 7.279055033116e-03 0.0 
0.0 0.0 -1.091942449670e-03 
-1.699755368788e-03 1.027337857590e-03 0.0 
1.027337857590e-03 7.158023142695e-03 0.0 
0.0 0.0 -1.062342898562e-03 
-1.716352618538e-03 8.878056221667e-04 0.0 
8.878056221667e-04 6.774679391188e-03 0.0 
0.0 0.0 -9.962627399151e-04 
-1.692178280540e-03 8.508470267666e-04 0.0 
8.508470267666e-04 7.019991579685e-03 0.0 
0.0 0.0 -1.032646955902e-03 
-1.695660932446e-03 7.184317155414e-04 0.0 
7.184317155414e-04 6.625583462411e-03 0.0 
0.0 0.0 -9.664557332607e-04 
-1.677486126932e-03 6.911180295046e-04 0.0 
6.911180295046e-04 6.868534941944e-03 0.0 
0.0 0.0 -1.002889032254e-03 
-1.663620555798e-03 8.098065595925e-04 0.0 
8.098065595925e-04 7.259384762552e-03 0.0 
0.0 0.0 -1.069134413525e-03 
-1.655525420696e-03 6.533870042141e-04 0.0 
6.533870042141e-04 7.107625883104e-03 0.0 
0.0 0.0 -1.039387411609e-03 
-1.659615819212e-03 5.491873914478e-04 0.0 
5.491873914478e-04 6.708579784798e-03 0.0 
0.0 0.0 -9.730575354659e-04 
-1.642941155605e-03 5.125241071205e-04 0.0 
5.125241071205e-04 6.945188648216e-03 0.0 
0.0 0.0 -1.009574527126e-03 
-1.637255380195e-03 4.205204331053e-04 0.0 
4.205204331053e-04 6.536272510904e-03 0.0 
0.0 0.0 -9.431603702596e-04 
-1.623420800787e-03 3.856837058294e-04 0.0 
3.856837058294e-04 6.767271635738e-03 0.0 
0.0 0.0 -9.796061197752e-04 
-1.622026920778e-03 4.757000201370e-04 0.0 
4.757000201370e-04 7.177981971167e-03 0.0 
0.0 0.0 -1.046101832713e-03 
-5.260638759536e-04 -7.746154698035e-04 0.0 
-7.746154698035e-04 1.804698088172e-03 0.0 
0.0 0.0 -4.826019863697e-04 
6.384355500235e-04 -8.071467030727e-04 0.0 
-8.071467030727e-04 1.625869863801e-03 0.0 
0.0 0.0 -9.660701661439e-04 
3.155700960172e-04 -6.399278427758e-04 0.0 
-6.399278427758e-04 2.369342842803e-03 0.0 
0.0 0.0 -1.083831836676e-03 
-8.892645420983e-04 -1.589464053846e-03 0.0 
-1.589464053846e-03 3.243112049151e-03 0.0 
0.0 0.0 -9.683295300233e-04 
-9.893521759344e-04 -1.650588191873e-03 0.0 
-1.650588191873e-03 3.517832807879e-03 0.0 
0.0 0.0 -1.010934236754e-03 
-9.339052402119e-04 -1.988561699477e-03 0.0 
-1.988561699477e-03 3.508091553521e-03 0.0 
0.0 0.0 -1.041462402745e-03 
-1.131758993546e-03 -1.657762215853e-03 0.0 
-1.657762215853e-03 3.856452720899e-03 0.0 
0.0 0.0 -1.033211989474e-03 
-1.610140258144e-03 3.510578464752e-04 0.0 
3.510578464752e-04 7.002203508451e-03 0.0 
0.0 0.0 -1.015477767897e-03 
-1.603569950634e-03 4.323698609735e-04 0.0 
4.323698609735e-04 7.406712470395e-03 0.0 
0.0 0.0 -1.082739357160e-03 
2.075859047304e-03 2.734073794279e-03 0.0 
2.734073794279e-03 -5.151566843200e-04 0.0 
0.0 0.0 -6.688724412789e-04 
1.829803788864e-03 2.896630922712e-03 0.0 
2.896630922712e-03 -2.437374272620e-04 0.0 
0.0 0.0 -6.797427264007e-04 
-1.702624885041e-03 1.699730791061e-03 0.0 
1.699730791061e-03 7.199957864770e-03 0.0 
0.0 0.0 -1.114382729655e-03 
-1.921178658721e-03 -1.279150328982e-03 0.0 
-1.279150328982e-03 5.641022297000e-03 0.0 
0.0 0.0 -1.061085778683e-03 
-1.759404772593e-03 -1.368797781515e-03 0.0 
-1.368797781515e-03 5.258990087990e-03 0.0 
0.0 0.0 -1.062669991958e-03 
6.091469494368e-04 3.201234470351e-03 0.0 
3.201234470351e-03 1.145920310691e-03 0.0 
0.0 0.0 -7.521716829121e-04 
3.812479400786e-04 3.221138826746e-03 0.0 
3.221138826746e-03 1.454024134529e-03 0.0 
0.0 0.0 -7.865451748317e-04 
6.223231318809e-04 3.034958604236e-03 0.0 
3.034958604236e-03 1.026602646357e-03 0.0 
0.0 0.0 -7.066824763876e-04 
3.755190555598e-04 3.004529260336e-03 0.0 
3.004529260336e-03 1.328866931440e-03 0.0 
0.0 0.0 -7.304511372856e-04 
1.504650344153e-04 3.149504562038e-03 0.0 
3.149504562038e-03 1.760988080228e-03 0.0 
0.0 0.0 -8.191941919899e-04 
5.829936888595e-04 2.805741157272e-03 0.0 
2.805741157272e-03 9.386435949221e-04 0.0 
0.0 0.0 -6.521302644778e-04 
1.691581229929e-04 -2.698724546406e-03 0.0 
-2.698724546406e-03 1.880405331260e-03 0.0 
0.0 0.0 -8.664312523603e-04 
-1.632170864774e-03 7.587389543785e-04 0.0 
7.587389543785e-04 7.494664304375e-03 0.0 
0.0 0.0 -1.105708206284e-03 
-1.867627977739e-04 -1.946982532398e-03 0.0 
-1.946982532398e-03 1.623581017794e-03 0.0 
0.0 0.0 -6.157792371515e-04 
-1.766459924498e-04 -1.658792918857e-03 0.0 
-1.658792918857e-03 1.424250676640e-03 0.0 
0.0 0.0 -5.346877217957e-04 
-1.953846352874e-03 -1.181006378595e-03 0.0 
-1.181006378595e-03 5.993034579258e-03 0.0 
0.0 0.0 -1.094582683422e-03 
9.227653006670e-04 -9.923042472365e-04 0.0 
-9.923042472365e-04 8.348026981178e-04 0.0 
0.0 0.0 -7.532434280506e-04 
-4.484070588213e-04 3.613794165219e-03 0.0 
3.613794165219e-03 3.179623750880e-03 0.0 
0.0 0.0 -9.533529749162e-04 
-2.780489895403e-04 3.528284248772e-03 0.0 
3.528284248772e-03 2.993445099109e-03 0.0 
0.0 0.0 -9.681750457242e-04 
-5.507055311170e-04 3.446174456380e-03 0.0 
3.446174456380e-03 3.597530854088e-03 0.0 
0.0 0.0 -9.957130113267e-04 
-3.863084581791e-04 3.307385071573e-03 0.0 
3.307385071573e-03 3.448440357162e-03 0.0 
0.0 0.0 -1.023751803962e-03 
-6.300320690614e-04 3.259070928407e-03 0.0 
3.259070928407e-03 4.039542678780e-03 0.0 
0.0 0.0 -1.059873349132e-03 
-5.085717340789e-04 3.118830500926e-03 0.0 
3.118830500926e-03 3.927747937877e-03 0.0 
0.0 0.0 -1.087854580038e-03 
-2.514557000785e-04 3.100269023384e-03 0.0 
3.100269023384e-03 3.340960341130e-03 0.0 
0.0 0.0 -1.051791170495e-03 
1.399069373120e-04 1.939674922792e-03 0.0 
1.939674922792e-03 2.839420856551e-03 0.0 
0.0 0.0 -1.107463318235e-03 
-4.186704419438e-04 2.922768790841e-03 0.0 
2.922768790841e-03 3.866682433006e-03 0.0 
0.0 0.0 -1.115916943430e-03 
-1.595806012880e-03 2.986475684988e-04 0.0 
2.986475684988e-04 6.569860539438e-03 0.0 
0.0 0.0 -9.487150400336e-04 
9.874874757951e-04 2.001023480651e-03 0.0 
2.001023480651e-03 8.096298849095e-04 0.0 
0.0 0.0 -7.701931545877e-04 
1.099587361542e-03 -2.883577329194e-03 0.0 
-2.883577329194e-03 3.196281228081e-04 0.0 
0.0 0.0 -6.082352075787e-04 
-4.120182269500e-04 -8.254968701079e-04 0.0 
-8.254968701079e-04 1.533206618467e-03 0.0 
0.0 0.0 -4.510100977180e-04 
5.592980566656e-04 -2.545612127290e-03 0.0 
-2.545612127290e-03 8.296765578219e-04 0.0 
0.0 0.0 -5.952748347803e-04 
-6.262840441887e-04 -6.448010795071e-04 0.0 
-6.448010795071e-04 2.035833554771e-03 0.0 
0.0 0.0 -5.222488353909e-04 
-7.319508735308e-04 -8.428934672220e-04 0.0 
-8.428934672220e-04 2.464651158961e-03 0.0 
0.0 0.0 -6.822577977165e-04 
-4.713603530403e-04 -1.760178858830e-03 0.0 
-1.760178858830e-03 3.749274242464e-03 0.0 
0.0 0.0 -1.136360603439e-03 
-7.414846696447e-04 3.136821301181e-03 0.0 
3.136821301181e-03 4.510208953631e-03 0.0 
0.0 0.0 -1.124065295910e-03 
-8.446432131550e-04 3.218211498406e-03 0.0 
3.218211498406e-03 4.600039828402e-03 0.0 
0.0 0.0 -1.095615423988e-03 
1.374965702112e-04 2.907969111804e-03 0.0 
2.907969111804e-03 1.629175485309e-03 0.0 
0.0 0.0 -7.571451666514e-04 
-7.702727876907e-05 2.968579821374e-03 0.0 
2.968579821374e-03 2.049330152496e-03 0.0 
0.0 0.0 -8.452726601685e-04 
8.289727363508e-05 1.511362000005e-03 0.0 
1.511362000005e-03 2.985439199539e-03 0.0 
0.0 0.0 -1.136278651916e-03 
-1.765237675762e-03 1.222407657091e-03 0.0 
1.222407657091e-03 6.114667953270e-03 0.0 
0.0 0.0 -9.177848451843e-04 
-1.710580504207e-03 7.440398052567e-04 0.0 
7.440398052567e-04 6.380060456859e-03 0.0 
0.0 0.0 -9.302130594432e-04 
-1.676565589941e-03 5.872598873801e-04 0.0 
5.872598873801e-04 6.215440748447e-03 0.0 
0.0 0.0 -9.001900590098e-04 
-3.803857748505e-04 -5.434049098283e-04 0.0 
-5.434049098283e-04 1.471759670645e-03 0.0 
0.0 0.0 -3.494697005546e-04 
7.568627899495e-04 -2.787918667943e-03 0.0 
-2.787918667943e-03 7.221354992753e-04 0.0 
0.0 0.0 -6.338564096678e-04 
-1.662120244785e-03 1.162296850059e-03 0.0 
1.162296850059e-03 7.529797322482e-03 0.0 
0.0 0.0 -1.128363834889e-03 
2.037234962576e-03 2.841104701767e-03 0.0 
2.841104701767e-03 -4.145658898484e-04 0.0 
0.0 0.0 -6.954296025976e-04 
1.531315725723e-03 2.908052614029e-03 0.0 
2.908052614029e-03 2.448474694819e-06 0.0 
0.0 0.0 -6.573275144647e-04 
1.261589428094e-03 6.096704043663e-04 0.0 
6.096704043663e-04 -9.183369249884e-04 0.0 
0.0 0.0 -1.471082156167e-04 
7.631106832774e-04 -7.208428592914e-05 0.0 
-7.208428592914e-05 -6.801595576129e-04 0.0 
0.0 0.0 -3.555048242768e-05 
-1.589929625905e-03 3.288854672539e-04 0.0 
3.288854672539e-04 7.214274616426e-03 0.0 
0.0 0.0 -1.051814883004e-03 
-1.572388470156e-03 3.792019312018e-04 0.0 
3.792019312018e-04 7.619653826889e-03 0.0 
0.0 0.0 -1.117859435171e-03 
-1.078769339999e-03 -1.982110544533e-03 0.0 
-1.982110544533e-03 3.829235274235e-03 0.0 
0.0 0.0 -1.051224796075e-03 
-1.274189695606e-03 -1.627447894412e-03 0.0 
-1.627447894412e-03 4.185605639052e-03 0.0 
0.0 0.0 -1.050863174419e-03 
-1.969895269108e-04 -1.624325261337e-03 0.0 
-1.624325261337e-03 3.218036131210e-03 0.0 
0.0 0.0 -1.107558395918e-03 
3.636511301315e-04 -2.361072158115e-03 0.0 
-2.361072158115e-03 9.584204304499e-04 0.0 
0.0 0.0 -5.666020973920e-04 
-1.569287665322e-03 4.982993919659e-04 0.0 
4.982993919659e-04 7.796117196338e-03 0.0 
0.0 0.0 -1.149181664990e-03 
6.559202405712e-04 -1.403190814261e-03 0.0 
-1.403190814261e-03 1.391837788957e-03 0.0 
0.0 0.0 -8.776105840836e-04 
9.173022590222e-04 -1.676640049954e-03 0.0 
-1.676640049954e-03 6.107363237665e-04 0.0 
0.0 0.0 -6.548736783380e-04 
-1.171879392758e-03 -1.281686817317e-03 0.0 
-1.281686817317e-03 3.846852730435e-03 0.0 
0.0 0.0 -1.001803992689e-03 
1.504150752549e-03 2.803418453549e-03 0.0 
2.803418453549e-03 -4.311377337536e-05 0.0 
0.0 0.0 -6.261587053603e-04 
1.650316852641e-03 2.671963168056e-03 0.0 
2.671963168056e-03 -3.170419596538e-04 0.0 
0.0 0.0 -5.714035255658e-04 
1.466801754994e-03 -2.835534920743e-03 0.0 
-2.835534920743e-03 -6.856056088169e-05 0.0 
0.0 0.0 -5.992462260482e-04 
4.198225928608e-04 -2.489806032447e-03 0.0 
-2.489806032447e-03 9.452515050113e-04 0.0 
0.0 0.0 -5.850317562309e-04 
-7.228005656972e-04 -5.488391732617e-04 0.0 
-5.488391732617e-04 2.276834511977e-03 0.0 
0.0 0.0 -5.562745863746e-04 
-4.637036380639e-04 -1.428624458379e-03 0.0 
-1.428624458379e-03 3.853108176796e-03 0.0 
0.0 0.0 -1.173829981771e-03 
-1.646663843551e-03 1.358180133252e-03 0.0 
1.358180133252e-03 7.637691352308e-03 0.0 
0.0 0.0 -1.157575248917e-03 
-1.588531343900e-04 2.821657521555e-03 0.0 
2.821657521555e-03 3.283406077172e-03 0.0 
0.0 0.0 -1.080172819833e-03 
2.446831455112e-05 3.060603850123e-03 0.0 
3.060603850123e-03 2.728589719442e-03 0.0 
0.0 0.0 -1.015677837919e-03 
-3.660685555016e-04 2.667845735617e-03 0.0 
2.667845735617e-03 3.843962247037e-03 0.0 
0.0 0.0 -1.144955025780e-03 
2.673047132891e-04 -2.137865757300e-03 0.0 
-2.137865757300e-03 9.516698016607e-04 0.0 
0.0 0.0 -5.224176492642e-04 
-7.311483308604e-04 -1.856928531792e-03 0.0 
-1.856928531792e-03 4.285424001286e-03 0.0 
0.0 0.0 -1.165794428787e-03 
-2.038713827362e-03 -9.521744761757e-04 0.0 
-9.521744761757e-04 5.942161280998e-03 0.0 
0.0 0.0 -1.070719593515e-03 
-9.487823984943e-04 3.179202297983e-03 0.0 
3.179202297983e-03 5.046317585578e-03 0.0 
0.0 0.0 -1.157598467365e-03 
-1.028189826122e-03 3.189698687636e-03 0.0 
3.189698687636e-03 5.131498804919e-03 0.0 
0.0 0.0 -1.131219827106e-03 
1.693489723556e-03 2.912737131245e-03 0.0 
2.912737131245e-03 -1.493629984725e-04 0.0 
0.0 0.0 -6.617685964645e-04 
1.185947765099e-03 2.829659806798e-03 0.0 
2.829659806798e-03 2.506006467406e-04 0.0 
0.0 0.0 -6.156636050741e-04 
1.024663306531e-03 2.720941116212e-03 0.0 
2.720941116212e-03 3.858661710823e-04 0.0 
0.0 0.0 -6.045126332627e-04 
7.581467413336e-04 2.629057648791e-03 0.0 
2.629057648791e-03 6.283993164515e-04 0.0 
0.0 0.0 -5.942340247651e-04 
-1.648477658061e-03 2.188124378807e-03 0.0 
2.188124378807e-03 4.981950326516e-03 0.0 
0.0 0.0 -8.520119503206e-04 
1.288363213325e-03 2.918108490938e-03 0.0 
2.918108490938e-03 1.603315013667e-04 0.0 
0.0 0.0 -6.208691634391e-04 
-1.164374950017e-03 2.801514945082e-03 0.0 
2.801514945082e-03 4.086272555253e-03 0.0 
0.0 0.0 -8.983830653277e-04 
-1.269722602642e-03 2.487508477755e-03 0.0 
2.487508477755e-03 4.199128990551e-03 0.0 
0.0 0.0 -8.736227209573e-04 
-1.046332524412e-03 2.638264182984e-03 0.0 
2.638264182984e-03 3.789437134256e-03 0.0 
0.0 0.0 -8.954616384525e-04 
-9.535589006008e-05 3.192865815352e-03 0.0 
3.192865815352e-03 2.227004452414e-03 0.0 
0.0 0.0 -9.127067050351e-04 
-3.022280285659e-04 2.955332983640e-03 0.0 
2.955332983640e-03 2.491438051520e-03 0.0 
0.0 0.0 -9.307589223859e-04 
2.556968385694e-03 2.345203577048e-03 0.0 
2.345203577048e-03 -8.968266888023e-04 0.0 
0.0 0.0 -7.114892986678e-04 
1.812389688023e-03 1.564451495357e-03 0.0 
1.564451495357e-03 -6.179615212951e-04 0.0 
0.0 0.0 -5.118977857407e-04 
-8.515674767651e-04 -2.308299700533e-03 0.0 
-2.308299700533e-03 3.434983390257e-03 0.0 
0.0 0.0 -1.054912416397e-03 
-1.137266829401e-03 -2.398619768870e-03 0.0 
-2.398619768870e-03 4.055285407119e-03 0.0 
0.0 0.0 -1.045074301760e-03 
3.367977982503e-04 -3.065748121326e-03 0.0 
-3.065748121326e-03 1.429094799845e-03 0.0 
0.0 0.0 -7.568111134693e-04 
-1.629365191565e-03 9.257695161170e-04 0.0 
9.257695161170e-04 7.634439739813e-03 0.0 
0.0 0.0 -1.135109731873e-03 
-1.590870954180e-03 8.599854275843e-04 0.0 
8.599854275843e-04 7.870981141839e-03 0.0 
0.0 0.0 -1.171938512032e-03 
-1.643416432560e-03 4.449926551975e-04 0.0 
4.449926551975e-04 6.296597502974e-03 0.0 
0.0 0.0 -9.065739516476e-04 
-1.602464872442e-03 3.219184720994e-04 0.0 
3.219184720994e-04 6.108782366366e-03 0.0 
0.0 0.0 -8.764137937918e-04 
-2.696764371388e-04 -1.265861831851e-03 0.0 
-1.265861831851e-03 1.411045974668e-03 0.0 
0.0 0.0 -4.842067647502e-04 
-1.400634450087e-04 -1.409834388031e-03 0.0 
-1.409834388031e-03 1.204297259864e-03 0.0 
0.0 0.0 -4.502468535423e-04 
-2.319199994023e-04 -3.122878098546e-03 0.0 
-3.122878098546e-03 2.451044877422e-03 0.0 
0.0 0.0 -9.437206122825e-04 
-7.988578011231e-04 -2.058259969339e-03 0.0 
-2.058259969339e-03 4.234722114073e-03 0.0 
0.0 0.0 -1.127529358476e-03 
-1.669665556383e-03 1.635524756470e-03 0.0 
1.635524756470e-03 7.469407833496e-03 0.0 
0.0 0.0 -1.150095860580e-03 
-1.643068085807e-03 1.857648967737e-03 0.0 
1.857648967737e-03 7.542411325100e-03 0.0 
0.0 0.0 -1.179372829571e-03 
-1.673921977860e-03 1.925750498755e-03 0.0 
1.925750498755e-03 7.258395415596e-03 0.0 
0.0 0.0 -1.143369325255e-03 
-2.014473825755e-04 -1.218765106027e-03 0.0 
-1.218765106027e-03 3.345673547677e-03 0.0 
0.0 0.0 -1.144273392007e-03 
3.110341159347e-03 3.472939405717e-04 0.0 
3.472939405717e-04 -1.445647776500e-03 0.0 
0.0 0.0 -7.134400212203e-04 
1.600864292633e-03 -4.933060105816e-04 0.0 
-4.933060105816e-04 -5.124875882505e-04 0.0 
0.0 0.0 -4.664471590211e-04 
1.395368066446e-03 -9.561308999161e-04 0.0 
-9.561308999161e-04 -1.034414870566e-03 0.0 
0.0 0.0 -1.546942268056e-04 
3.758232775366e-04 3.466607308548e-03 0.0 
3.466607308548e-03 1.708095271688e-03 0.0 
0.0 0.0 -8.625807428358e-04 
-1.387284875597e-04 -1.147843400141e-03 0.0 
-1.147843400141e-03 1.071097091449e-03 0.0 
0.0 0.0 -3.720583479433e-04 
-1.231098641636e-03 3.135190691380e-03 0.0 
3.135190691380e-03 4.944666622865e-03 0.0 
0.0 0.0 -1.010319580236e-03 
-1.984786992954e-03 -8.733459957740e-04 0.0 
-8.733459957740e-04 6.259759611652e-03 0.0 
0.0 0.0 -1.122815839103e-03 
-1.861926426933e-03 -1.095524342960e-03 0.0 
-1.095524342960e-03 6.311220838631e-03 0.0 
0.0 0.0 -1.159213750608e-03 
-1.725327838232e-04 1.829528703914e-03 0.0 
1.829528703914e-03 3.501045676607e-03 0.0 
0.0 0.0 -1.171959308352e-03 
-1.590101240846e-03 1.706978125594e-03 0.0 
1.706978125594e-03 4.660773429978e-03 0.0 
0.0 0.0 -7.960146267056e-04 
5.073336669335e-04 3.214445659709e-03 0.0 
3.214445659709e-03 1.538412133141e-03 0.0 
0.0 0.0 -8.506774374544e-04 
8.851619009454e-04 2.969244090533e-03 0.0 
2.969244090533e-03 8.376787810317e-04 0.0 
0.0 0.0 -7.383602922759e-04 
-1.156062255108e-03 2.301233915827e-03 0.0 
2.301233915827e-03 3.896290621430e-03 0.0 
0.0 0.0 -8.625652443140e-04 
-9.471297243856e-04 2.440002294532e-03 0.0 
2.440002294532e-03 3.517004994648e-03 0.0 
0.0 0.0 -8.875966840820e-04 
-8.066787093543e-04 2.777426977554e-03 0.0 
2.777426977554e-03 3.370899001042e-03 0.0 
0.0 0.0 -9.244972712473e-04 
-7.192390311965e-04 2.566107428446e-03 0.0 
2.566107428446e-03 3.124935059627e-03 0.0 
0.0 0.0 -9.234394568817e-04 
1.009712769882e-03 -2.639627470040e-03 0.0 
-2.639627470040e-03 3.518698063256e-04 0.0 
0.0 0.0 -5.835353898034e-04 
7.225051380104e-04 -2.634694636205e-03 0.0 
-2.634694636205e-03 6.767854285005e-04 0.0 
0.0 0.0 -5.996959570761e-04 
-8.921567267479e-04 3.111111284804e-03 0.0 
3.111111284804e-03 5.059665355678e-03 0.0 
0.0 0.0 -1.192042136895e-03 
-6.099967263224e-04 2.870760626298e-03 0.0 
2.870760626298e-03 4.411064189710e-03 0.0 
0.0 0.0 -1.178660172201e-03 
-1.100042912757e-03 3.200343520554e-03 0.0 
3.200343520554e-03 5.573219155758e-03 0.0 
0.0 0.0 -1.193029175878e-03 
-1.160667669830e-03 3.176739035806e-03 0.0 
3.176739035806e-03 5.649176834465e-03 0.0 
0.0 0.0 -1.168165168231e-03 
-2.521445186915e-04 1.437999620024e-03 0.0 
1.437999620024e-03 3.663538457504e-03 0.0 
0.0 0.0 -1.200910491468e-03 
-1.175265126893e-05 1.083930210957e-03 0.0 
1.083930210957e-03 3.184478001405e-03 0.0 
0.0 0.0 -1.164168769488e-03 
-8.338945190871e-04 -6.899851568111e-04 0.0 
-6.899851568111e-04 2.693161182237e-03 0.0 
0.0 0.0 -7.014880017679e-04 
-2.848117966112e-04 2.692565546894e-03 0.0 
2.692565546894e-03 2.299445011333e-03 0.0 
0.0 0.0 -8.634142348809e-04 
-1.596224494799e-03 1.291320717670e-03 0.0 
1.291320717670e-03 7.883322151599e-03 0.0 
0.0 0.0 -1.194151889699e-03 
-1.353314944435e-03 2.157291733394e-03 0.0 
2.157291733394e-03 4.270289119183e-03 0.0 
0.0 0.0 -8.433929263471e-04 
-9.622501338421e-04 -1.912189492832e-03 0.0 
-1.912189492832e-03 4.776924830183e-03 0.0 
0.0 0.0 -1.192835421428e-03 
-1.026421419571e-03 -2.028541400734e-03 0.0 
-2.028541400734e-03 4.755168212354e-03 0.0 
0.0 0.0 -1.156047193884e-03 
4.478208592864e-04 -3.751585586859e-04 0.0 
-3.751585586859e-04 -4.241673929217e-04 0.0 
0.0 0.0 -1.013719987055e-05 
1.244125017972e-03 -1.917312666705e-03 0.0 
-1.917312666705e-03 -7.538799606522e-04 0.0 
0.0 0.0 -2.101050245656e-04 
-1.537691014338e-03 4.222863431362e-04 0.0 
4.222863431362e-04 8.020533850651e-03 0.0 
0.0 0.0 -1.184588873336e-03 
6.358527835684e-04 2.480430970654e-03 0.0 
2.480430970654e-03 6.941509382628e-04 0.0 
0.0 0.0 -5.700015950705e-04 
4.499471129459e-04 2.458836012126e-03 0.0 
2.458836012126e-03 9.036367217386e-04 0.0 
0.0 0.0 -5.801073577219e-04 
8.196974528425e-04 2.512758387053e-03 0.0 
2.512758387053e-03 5.135885621210e-04 0.0 
0.0 0.0 -5.714082921272e-04 
-1.721775180469e-03 -2.750261499923e-04 0.0 
-2.750261499923e-04 6.955705942823e-03 0.0 
0.0 0.0 -1.258310293365e-03 
-1.440319018305e-03 2.756393348766e-05 0.0 
2.756393348766e-05 5.261443928406e-03 0.0 
0.0 0.0 -7.479256703001e-04 
-1.851935248777e-03 -8.185806621322e-04 0.0 
-8.185806621322e-04 6.555435669483e-03 0.0 
0.0 0.0 -1.189418985649e-03 
-3.624356194934e-04 3.164434027964e-03 0.0 
3.164434027964e-03 2.710514095153e-03 0.0 
0.0 0.0 -9.658202727595e-04 
-1.517819935298e-03 5.689925216528e-04 0.0 
5.689925216528e-04 8.183121975380e-03 0.0 
0.0 0.0 -1.216510697198e-03 
6.201224625516e-04 2.820752531408e-03 0.0 
2.820752531408e-03 1.452084294343e-03 0.0 
0.0 0.0 -8.651011823288e-04 
9.038760669871e-04 3.026845929911e-03 0.0 
3.026845929911e-03 6.793831834175e-04 0.0 
0.0 0.0 -6.785396787449e-04 
8.674105580954e-05 -1.429107710981e-03 0.0 
-1.429107710981e-03 2.679701546003e-03 0.0 
0.0 0.0 -1.078177493492e-03 
-1.550932841916e-03 2.613354928632e-04 0.0 
2.613354928632e-04 7.825402361396e-03 0.0 
0.0 0.0 -1.149140729088e-03 
-1.512659112896e-03 3.422106709257e-04 0.0 
3.422106709257e-04 8.249752470507e-03 0.0 
0.0 0.0 -1.221625961084e-03 
-1.676659295308e-03 6.110344698925e-04 0.0 
6.110344698925e-04 5.968416883272e-03 0.0 
0.0 0.0 -8.638707813346e-04 
-1.641988205188e-03 4.340588364437e-04 0.0 
4.340588364437e-04 5.771155948817e-03 0.0 
0.0 0.0 -8.327709333130e-04 
-1.719162707249e-03 7.708162564075e-04 0.0 
7.708162564075e-04 6.112617701018e-03 0.0 
0.0 0.0 -8.925140200429e-04 
1.977927820577e-03 1.598623588264e-03 0.0 
1.598623588264e-03 -1.019208972965e-03 0.0 
0.0 0.0 -4.108795061196e-04 
1.108521086627e-03 1.458274724011e-03 0.0 
1.458274724011e-03 -6.824978449185e-04 0.0 
0.0 0.0 -1.825813893037e-04 
-1.599533954581e-03 7.014631110784e-04 0.0 
7.014631110784e-04 7.724369133548e-03 0.0 
0.0 0.0 -1.142090266074e-03 
-7.915237200633e-04 -1.416691550801e-03 0.0 
-1.416691550801e-03 2.916147842675e-03 0.0 
0.0 0.0 -8.917970384883e-04 
-9.526528541598e-04 -1.159662932408e-03 0.0 
-1.159662932408e-03 3.237497577102e-03 0.0 
0.0 0.0 -9.066540859529e-04 
1.679025679155e-04 -2.197795369639e-03 0.0 
-2.197795369639e-03 1.134113528401e-03 0.0 
0.0 0.0 -5.580068984213e-04 
1.993437938488e-04 -2.372930192997e-03 0.0 
-2.372930192997e-03 1.192906332053e-03 0.0 
0.0 0.0 -5.966786253865e-04 
-1.011942446972e-03 -2.270969963916e-03 0.0 
-2.270969963916e-03 3.766401779748e-03 0.0 
0.0 0.0 -1.058899862332e-03 
-7.573046355122e-04 -2.581800115454e-03 0.0 
-2.581800115454e-03 3.322201121737e-03 0.0 
0.0 0.0 -1.050266080739e-03 
-1.095827954621e-03 3.216069521876e-03 0.0 
3.216069521876e-03 4.826499025112e-03 0.0 
0.0 0.0 -1.038692069610e-03 
-1.234301998555e-03 3.107456630916e-03 0.0 
3.107456630916e-03 5.310904523361e-03 0.0 
0.0 0.0 -1.074129358999e-03 
-7.180889207275e-04 3.499463535137e-03 0.0 
3.499463535137e-03 3.763199671929e-03 0.0 
0.0 0.0 -9.722238801078e-04 
6.053063119579e-04 -2.030268547273e-03 0.0 
-2.030268547273e-03 1.237774920504e-03 0.0 
0.0 0.0 -7.898919567692e-04 
8.551862749054e-04 -2.258528060602e-03 0.0 
-2.258528060602e-03 5.423122765455e-04 0.0 
0.0 0.0 -5.989279506218e-04 
1.198969096751e-03 -1.716835984739e-03 0.0 
-1.716835984739e-03 -1.728528183354e-05 0.0 
0.0 0.0 -5.064359206787e-04 
-1.578160803348e-03 1.029909350069e-03 0.0 
1.029909350069e-03 7.988225935028e-03 0.0 
0.0 0.0 -1.199867006878e-03 
-1.525066789097e-03 9.716746199443e-04 0.0 
9.716746199443e-04 8.273760627129e-03 0.0 
0.0 0.0 -1.242728214876e-03 
1.321351467926e-03 -2.568351524438e-03 0.0 
-2.568351524438e-03 -2.315153931395e-07 0.0 
0.0 0.0 -5.661942653711e-04 
1.809254267051e-03 -2.583366555036e-03 0.0 
-2.583366555036e-03 -4.342692756295e-04 0.0 
0.0 0.0 -5.892792820380e-04 
6.921033763950e-04 -2.656898720389e-03 0.0 
-2.656898720389e-03 7.465441525006e-04 0.0 
0.0 0.0 -6.165632266696e-04 
-1.574485567314e-03 1.499311237931e-03 0.0 
1.499311237931e-03 7.988348182121e-03 0.0 
0.0 0.0 -1.223056365294e-03 
-1.741572698048e-03 -1.051965994170e-03 0.0 
-1.051965994170e-03 6.624165410999e-03 0.0 
0.0 0.0 -1.224004481682e-03 
-1.735235085971e-03 -1.304001527318e-03 0.0 
-1.304001527318e-03 6.344789461694e-03 0.0 
0.0 0.0 -1.195820777905e-03 
-2.679240954609e-05 -1.257927253223e-03 0.0 
-1.257927253223e-03 9.029103496679e-04 0.0 
0.0 0.0 -3.450663815859e-04 
-3.035170911774e-06 -1.579137764012e-03 0.0 
-1.579137764012e-03 1.039327180488e-03 0.0 
0.0 0.0 -4.410249086127e-04 
1.155100538592e-03 2.631364371344e-03 0.0 
2.631364371344e-03 1.868470155697e-04 0.0 
0.0 0.0 -5.751203803551e-04 
1.215808673203e-03 2.544029937651e-03 0.0 
2.544029937651e-03 -5.958635491021e-05 0.0 
0.0 0.0 -4.955238506970e-04 
-1.603953202991e-03 2.084851501461e-03 0.0 
2.084851501461e-03 7.579130278610e-03 0.0 
0.0 0.0 -1.207258722210e-03 
-1.637778905667e-03 2.162652518366e-03 0.0 
2.162652518366e-03 7.304299819900e-03 0.0 
0.0 0.0 -1.172631524865e-03 
-1.556077565275e-03 2.029656444368e-03 0.0 
2.029656444368e-03 7.905393318382e-03 0.0 
0.0 0.0 -1.247471551777e-03 
-8.078621275666e-04 -3.743686463011e-04 0.0 
-3.743686463011e-04 2.476609172107e-03 0.0 
0.0 0.0 -5.753817989848e-04 
1.173818397494e-04 2.725852523849e-03 0.0 
2.725852523849e-03 2.691650762888e-03 0.0 
0.0 0.0 -1.045322365442e-03 
-5.040778805934e-04 -1.070896588493e-03 0.0 
-1.070896588493e-03 3.980562278462e-03 0.0 
0.0 0.0 -1.207899217314e-03 
-2.520428194526e-04 -7.965635153337e-04 0.0 
-7.965635153337e-04 3.542662319704e-03 0.0 
0.0 0.0 -1.178012378629e-03 
-7.711086010594e-04 -1.329041706335e-03 0.0 
-1.329041706335e-03 4.567355749165e-03 0.0 
0.0 0.0 -1.244624083072e-03 
-1.223572839919e-04 2.186752793674e-03 0.0 
2.186752793674e-03 3.375840631155e-03 0.0 
0.0 0.0 -1.142102124289e-03 
-4.435966474857e-04 2.091597596222e-03 0.0 
2.091597596222e-03 3.997165180884e-03 0.0 
0.0 0.0 -1.205428683694e-03 
-6.295415077105e-04 2.617745388046e-03 0.0 
2.617745388046e-03 4.421095216534e-03 0.0 
0.0 0.0 -1.209323031234e-03 
8.913702169857e-05 -5.356610077544e-06 0.0 
-5.356610077544e-06 -8.913702169857e-05 0.0 
0.0 0.0 0.0 
-1.516551893121e-03 1.931531950452e-04 0.0 
1.931531950452e-04 8.105824831205e-03 0.0 
0.0 0.0 -1.199992767657e-03 
-1.600603275175e-03 3.197306060267e-04 0.0 
3.197306060267e-04 5.842030124630e-03 0.0 
0.0 0.0 -8.371571859873e-04 
0.0 0.0 0.0 
0.0 0.0 0.0 
0.0 0.0 0.0 
-1.547068004807e-03 2.255592860515e-04 0.0 
2.255592860515e-04 5.653808019545e-03 0.0 
0.0 0.0 -8.070151920887e-04 
-1.566358775821e-03 2.266234695203e-04 0.0 
2.266234695203e-04 5.919104175052e-03 0.0 
0.0 0.0 -8.451615393777e-04 
-1.505853756260e-03 1.425564258005e-04 0.0 
1.425564258005e-04 5.404792730384e-03 0.0 
0.0 0.0 -7.748096441827e-04 
-6.628775469822e-04 -3.015658585898e-04 0.0 
-3.015658585898e-04 2.010090265861e-03 0.0 
0.0 0.0 -4.206613647546e-04 
-1.675398106948e-03 5.868598101642e-04 0.0 
5.868598101642e-04 5.623434088204e-03 0.0 
0.0 0.0 -8.174106193842e-04 
-1.726757844430e-03 7.924650127462e-04 0.0 
7.924650127462e-04 5.855419414792e-03 0.0 
0.0 0.0 -8.556612431672e-04 
8.558548932515e-05 -1.128009013281e-03 0.0 
-1.128009013281e-03 6.309628739441e-04 0.0 
0.0 0.0 -2.713320700168e-04 
-1.513004436039e-03 1.420623121839e-03 0.0 
1.420623121839e-03 8.214217499082e-03 0.0 
0.0 0.0 -1.259301554906e-03 
1.749391661274e-04 -1.082733169331e-03 0.0 
-1.082733169331e-03 5.892299780132e-04 0.0 
0.0 0.0 -2.441793916413e-04 
1.147662153238e-04 -1.066745943300e-03 0.0 
-1.066745943300e-03 7.910181080930e-04 0.0 
0.0 0.0 -2.872885922025e-04 
-1.122672355991e-03 -1.921241529141e-03 0.0 
-1.921241529141e-03 5.266335920734e-03 0.0 
0.0 0.0 -1.221214701962e-03 
-1.203549749022e-03 -1.976762786956e-03 0.0 
-1.976762786956e-03 5.228557791274e-03 0.0 
0.0 0.0 -1.184344882880e-03 
-1.271935696370e-03 -1.932492998885e-03 0.0 
-1.932492998885e-03 5.682500405781e-03 0.0 
0.0 0.0 -1.247726601234e-03 
-1.345935677545e-03 -1.879180138911e-03 0.0 
-1.879180138911e-03 5.631962343118e-03 0.0 
0.0 0.0 -1.211018817991e-03 
-1.319489507466e-03 -1.996946989352e-03 0.0 
-1.996946989352e-03 5.223869660522e-03 0.0 
0.0 0.0 -1.147066289601e-03 
-1.457152980048e-03 -1.833275450520e-03 0.0 
-1.833275450520e-03 5.658001904065e-03 0.0 
0.0 0.0 -1.176490610025e-03 
-1.598701855115e-03 3.112456463076e-04 0.0 
3.112456463076e-04 5.594187128056e-03 0.0 
0.0 0.0 -7.985989294648e-04 
-1.425017338431e-03 -1.793987580484e-03 0.0 
-1.793987580484e-03 6.077694866820e-03 0.0 
0.0 0.0 -1.249018369598e-03 
-1.544794874514e-03 -1.654652183582e-03 0.0 
-1.654652183582e-03 6.043342076509e-03 0.0 
0.0 0.0 -1.207442871744e-03 
-1.490747382805e-03 -1.688185045970e-03 0.0 
-1.688185045970e-03 6.481641932430e-03 0.0 
0.0 0.0 -1.277927415301e-03 
-8.701201880038e-04 2.189049665711e-03 0.0 
2.189049665711e-03 3.268695103799e-03 0.0 
0.0 0.0 -8.722607330507e-04 
5.310970710450e-04 2.630450444314e-03 0.0 
2.630450444314e-03 9.000089298474e-04 0.0 
0.0 0.0 -6.133311432396e-04 
2.617133158352e-04 2.476764240616e-03 0.0 
2.476764240616e-03 1.164640329384e-03 0.0 
0.0 0.0 -6.112944193795e-04 
1.728571300418e-04 2.227493690469e-03 0.0 
2.227493690469e-03 1.142483149507e-03 0.0 
0.0 0.0 -5.637172626637e-04 
-1.229541831672e-03 3.263680413163e-03 0.0 
3.263680413163e-03 6.138633277811e-03 0.0 
0.0 0.0 -1.240180566941e-03 
-1.276361500880e-03 3.187291024850e-03 0.0 
3.187291024850e-03 6.099399323178e-03 0.0 
0.0 0.0 -1.200590015451e-03 
-2.088598425736e-03 -6.246367196868e-04 0.0 
-6.246367196868e-04 6.194373546362e-03 0.0 
0.0 0.0 -1.090180627845e-03 
-2.041663287848e-03 -6.617363893855e-04 0.0 
-6.617363893855e-04 5.852171557009e-03 0.0 
0.0 0.0 -1.067141795818e-03 
-1.532469855713e-03 1.525337910669e-04 0.0 
1.525337910669e-04 5.692847008020e-03 0.0 
0.0 0.0 -8.108182148135e-04 
-1.511312180107e-03 9.255618039040e-05 0.0 
9.255618039040e-05 5.666580148835e-03 0.0 
0.0 0.0 -8.077352941366e-04 
-1.560488436606e-03 1.911238081195e-04 0.0 
1.911238081195e-04 6.070956180256e-03 0.0 
0.0 0.0 -8.678526801547e-04 
-1.544526745633e-03 1.030985674976e-04 0.0 
1.030985674976e-04 6.005801825662e-03 0.0 
0.0 0.0 -8.609153521579e-04 
-1.580530064686e-03 1.945628071657e-04 0.0 
1.945628071657e-04 6.420611350931e-03 0.0 
0.0 0.0 -9.200517378055e-04 
-1.559403933791e-03 8.887484367551e-05 0.0 
8.887484367551e-05 6.359767284502e-03 0.0 
0.0 0.0 -9.108947733944e-04 
-1.583263469338e-03 1.334252269549e-04 0.0 
1.334252269549e-04 6.753346818615e-03 0.0 
0.0 0.0 -9.726914458129e-04 
-8.669769815257e-04 2.889098903744e-03 0.0 
2.889098903744e-03 5.024560399167e-03 0.0 
0.0 0.0 -1.245087786853e-03 
4.982055672495e-04 2.293020821825e-03 0.0 
2.293020821825e-03 7.508210362061e-04 0.0 
0.0 0.0 -5.352971157667e-04 
-1.245162061090e-03 1.941632408908e-03 0.0 
1.941632408908e-03 3.965163190857e-03 0.0 
0.0 0.0 -8.237883836899e-04 
-3.879507205886e-04 1.027612391922e-03 0.0 
1.027612391922e-03 3.877749242080e-03 0.0 
0.0 0.0 -1.228261380050e-03 
-1.475502455479e-04 6.710535629733e-04 0.0 
6.710535629733e-04 3.400758398957e-03 0.0 
0.0 0.0 -1.187396807988e-03 
-4.877113708210e-04 2.653909423409e-03 0.0 
2.653909423409e-03 2.711925927626e-03 0.0 
0.0 0.0 -9.301491777014e-04 
-4.673273112926e-04 2.354591855457e-03 0.0 
2.354591855457e-03 2.518811343451e-03 0.0 
0.0 0.0 -8.783714799336e-04 
-9.656459474725e-04 -1.750454010380e-03 0.0 
-1.750454010380e-03 4.960948450779e-03 0.0 
0.0 0.0 -1.238794375355e-03 
1.773029984471e-03 2.918628512030e-03 0.0 
2.918628512030e-03 -2.405794798709e-04 0.0 
0.0 0.0 -6.567645019713e-04 
-1.474754496101e-03 1.652724927503e-03 0.0 
1.652724927503e-03 8.365646577830e-03 0.0 
0.0 0.0 -1.295459716840e-03 
0.0 0.0 0.0 
0.0 0.0 0.0 
0.0 0.0 0.0 
1.498393906149e-04 3.022053957605e-04 0.0 
3.022053957605e-04 -1.163750170629e-04 0.0 
0.0 0.0 -1.434187437943e-05 
1.327025876230e-03 3.010605488358e-03 0.0 
3.010605488358e-03 1.473338213913e-04 0.0 
0.0 0.0 -6.318684418375e-04 
-5.499021132442e-04 2.888144921732e-03 0.0 
2.888144921732e-03 2.938437648155e-03 0.0 
0.0 0.0 -9.558721723632e-04 
3.323415439528e-04 2.743520330787e-03 0.0 
2.743520330787e-03 1.229329144075e-03 0.0 
0.0 0.0 -6.692874377263e-04 
9.209566797494e-05 2.604630668434e-03 0.0 
2.604630668434e-03 1.511290340994e-03 0.0 
0.0 0.0 -6.871654324154e-04 
3.645468755337e-04 -1.692092076938e-03 0.0 
-1.692092076938e-03 1.976975662064e-03 0.0 
0.0 0.0 -9.759998253719e-04 
1.091376312940e-04 -1.700138468344e-03 0.0 
-1.700138468344e-03 9.084482070208e-04 0.0 
0.0 0.0 -4.293607968937e-04 
9.860679807434e-04 2.546469046220e-03 0.0 
2.546469046220e-03 3.575313038065e-04 0.0 
0.0 0.0 -5.758282648071e-04 
-1.592993118431e-03 2.731466696240e-04 0.0 
2.731466696240e-04 6.800272037187e-03 0.0 
0.0 0.0 -9.796923013958e-04 
6.911227834126e-04 2.251046992259e-03 0.0 
2.251046992259e-03 5.130124139505e-04 0.0 
0.0 0.0 -5.160579417270e-04 
-2.121618955622e-03 -3.224058753556e-04 0.0 
-3.224058753556e-04 6.099005119318e-03 0.0 
0.0 0.0 -1.073807358551e-03 
2.201373567652e-03 2.690698738968e-03 0.0 
2.690698738968e-03 -6.091920316776e-04 0.0 
0.0 0.0 -6.823635154174e-04 
-1.638384935320e-04 3.372316730358e-03 0.0 
3.372316730358e-03 2.445531910937e-03 0.0 
0.0 0.0 -9.519839029876e-04 
1.275974649949e-03 2.775715452302e-03 0.0 
2.775715452302e-03 1.801999389927e-04 0.0 
0.0 0.0 -6.240748238320e-04 
8.350192799097e-04 2.727176630851e-03 0.0 
2.727176630851e-03 5.820764688072e-04 0.0 
0.0 0.0 -6.073267494501e-04 
-1.574296698924e-03 2.484580816168e-03 0.0 
2.484580816168e-03 4.927078130058e-03 0.0 
0.0 0.0 -8.786961992330e-04 
-1.699341285066e-03 1.882952510091e-03 0.0 
1.882952510091e-03 5.001649373791e-03 0.0 
0.0 0.0 -8.239340753773e-04 
-1.544077067517e-03 2.021174845409e-03 0.0 
2.021174845409e-03 4.648313902463e-03 0.0 
0.0 0.0 -8.287327148421e-04 
2.547623254183e-03 2.268646563305e-03 0.0 
2.268646563305e-03 -9.255766277510e-04 0.0 
0.0 0.0 -6.951628398994e-04 
-9.793607364304e-05 2.680641002234e-03 0.0 
2.680641002234e-03 1.905972935152e-03 0.0 
0.0 0.0 -7.748729406467e-04 
-1.401926105552e-04 2.272349151151e-03 0.0 
2.272349151151e-03 1.732062029039e-03 0.0 
0.0 0.0 -6.822297507788e-04 
-1.042335079289e-03 3.085608632330e-03 0.0 
3.085608632330e-03 3.939330989580e-03 0.0 
0.0 0.0 -9.170298757010e-04 
-1.694312562690e-03 2.003906122110e-03 0.0 
2.003906122110e-03 6.960974899569e-03 0.0 
0.0 0.0 -1.107475121065e-03 
-1.654341182746e-03 2.234400658440e-03 0.0 
2.234400658440e-03 6.989596744706e-03 0.0 
0.0 0.0 -1.136341617999e-03 
-1.591073595122e-03 2.379952355984e-03 0.0 
2.379952355984e-03 7.311228899108e-03 0.0 
0.0 0.0 -1.199268560344e-03 
-1.606550985090e-03 2.450965261895e-03 0.0 
2.450965261895e-03 7.002228799418e-03 0.0 
0.0 0.0 -1.164598082371e-03 
-1.654615127137e-03 2.306554865062e-03 0.0 
2.306554865062e-03 6.662432923767e-03 0.0 
0.0 0.0 -1.100413285504e-03 
-1.595489437176e-03 2.513437590904e-03 0.0 
2.513437590904e-03 6.653696588520e-03 0.0 
0.0 0.0 -1.129075729544e-03 
-1.546389988990e-03 2.664193302564e-03 0.0 
2.664193302564e-03 6.994860909819e-03 0.0 
0.0 0.0 -1.193594387005e-03 
-1.524710140769e-03 2.725114460972e-03 0.0 
2.725114460972e-03 6.640657221836e-03 0.0 
0.0 0.0 -1.159256375294e-03 
-1.483453285402e-03 2.879360167952e-03 0.0 
2.879360167952e-03 7.061959584516e-03 0.0 
0.0 0.0 -1.234286862126e-03 
-1.459335345335e-03 2.896614314087e-03 0.0 
2.896614314087e-03 6.597331098230e-03 0.0 
0.0 0.0 -1.187309181180e-03 
-1.487240193726e-03 2.797813669470e-03 0.0 
2.797813669470e-03 6.237817525026e-03 0.0 
0.0 0.0 -1.120864512401e-03 
-1.416348664038e-03 2.952147323061e-03 0.0 
2.952147323061e-03 6.179572228468e-03 0.0 
0.0 0.0 -1.147759711419e-03 
-1.401702611885e-03 3.058403427338e-03 0.0 
3.058403427338e-03 6.528924407833e-03 0.0 
0.0 0.0 -1.207767947030e-03 
-1.429554607918e-03 2.882577101757e-03 0.0 
2.882577101757e-03 5.825437132677e-03 0.0 
0.0 0.0 -1.082593982084e-03 
-6.657140394303e-04 1.410986986977e-03 0.0 
1.410986986977e-03 4.342280522210e-03 0.0 
0.0 0.0 -1.264544343569e-03 
1.285034861164e-03 3.046453072889e-03 0.0 
3.046453072889e-03 2.156214386420e-04 0.0 
0.0 0.0 -6.431384142027e-04 
3.221685064304e-04 2.100220635338e-04 0.0 
2.100220635338e-04 -3.125792772457e-04 0.0 
0.0 0.0 -4.109669650583e-06 
7.277286052914e-04 1.662264959666e-03 0.0 
1.662264959666e-03 -4.217765524128e-04 0.0 
0.0 0.0 -1.311223083766e-04 
-4.639929809661e-04 3.327821869830e-03 0.0 
3.327821869830e-03 2.959449472573e-03 0.0 
0.0 0.0 -9.691543639280e-04 
-1.437907230863e-03 2.996700486661e-03 0.0 
2.996700486661e-03 7.518201304671e-03 0.0 
0.0 0.0 -1.299806302097e-03 
-1.466395687024e-03 2.621641971218e-03 0.0 
2.621641971218e-03 7.881651097987e-03 0.0 
0.0 0.0 -1.301753673823e-03 
2.487482228611e-03 2.475720953215e-03 0.0 
2.475720953215e-03 -8.077451105291e-04 0.0 
0.0 0.0 -7.198873363210e-04 
-1.280305576935e-03 3.404019922885e-03 0.0 
3.404019922885e-03 6.453749912264e-03 0.0 
0.0 0.0 -1.303413959896e-03 
-1.478986277362e-03 2.335815426712e-03 0.0 
2.335815426712e-03 4.599949913439e-03 0.0 
0.0 0.0 -8.572908036711e-04 
2.443469762099e-03 1.504212848516e-03 0.0 
1.504212848516e-03 -1.149517681368e-03 0.0 
0.0 0.0 -5.545508917418e-04 
-1.188451958700e-03 3.233888318984e-03 0.0 
3.233888318984e-03 5.957074391346e-03 0.0 
0.0 0.0 -1.304286792737e-03 
-1.700650587437e-03 2.084768146748e-03 0.0 
2.084768146748e-03 6.648225866754e-03 0.0 
0.0 0.0 -1.071440646998e-03 
-1.693986595116e-03 2.166002580174e-03 0.0 
2.166002580174e-03 6.318613390721e-03 0.0 
0.0 0.0 -1.034857077839e-03 
-1.735485188954e-03 1.934897306350e-03 0.0 
1.934897306350e-03 6.303939504401e-03 0.0 
0.0 0.0 -1.006057961993e-03 
-1.460757887231e-03 2.250687193900e-03 0.0 
2.250687193900e-03 8.134933915156e-03 0.0 
0.0 0.0 -1.305867370806e-03 
-1.749991994699e-03 9.588049142227e-04 0.0 
9.588049142227e-04 6.254499179949e-03 0.0 
0.0 0.0 -9.232948652302e-04 
-1.017747060708e-03 2.242049910193e-03 0.0 
2.242049910193e-03 5.131073367086e-03 0.0 
0.0 0.0 -1.306016332489e-03 
1.333415972402e-03 1.535387923333e-03 0.0 
1.535387923333e-03 1.136937242501e-04 0.0 
0.0 0.0 -6.201898699939e-04 
1.391903311676e-03 2.154011180947e-03 0.0 
2.154011180947e-03 1.151631227135e-05 0.0 
0.0 0.0 -6.014655531204e-04 
1.815463505361e-03 2.115453371163e-03 0.0 
2.115453371163e-03 -5.458577548768e-04 0.0 
0.0 0.0 -5.441167502075e-04 
-1.566214445404e-03 2.595986134179e-03 0.0 
2.595986134179e-03 6.282321888988e-03 0.0 
0.0 0.0 -1.092245366321e-03 
-9.205735445318e-04 4.808338680360e-04 0.0 
4.808338680360e-04 4.693547071086e-03 0.0 
0.0 0.0 -1.302677999426e-03 
-5.441937307524e-04 1.925192123183e-04 0.0 
1.925192123183e-04 4.093065944914e-03 0.0 
0.0 0.0 -1.248400714067e-03 
-5.696920249624e-04 -2.362618994637e-04 0.0 
-2.362618994637e-04 4.138723512730e-03 0.0 
0.0 0.0 -1.248426544684e-03 
-2.031241474020e-04 -7.328110519664e-05 0.0 
-7.328110519664e-05 3.471353297543e-03 0.0 
0.0 0.0 -1.189114855724e-03 
-9.524782035086e-04 -4.338690848369e-04 0.0 
-4.338690848369e-04 4.786583626593e-03 0.0 
0.0 0.0 -1.303398793257e-03 
-1.386313891139e-03 3.268387124946e-03 0.0 
3.268387124946e-03 7.156994535034e-03 0.0 
0.0 0.0 -1.306665994082e-03 
-1.359095365040e-03 3.359352166101e-03 0.0 
3.359352166101e-03 6.950855487648e-03 0.0 
0.0 0.0 -1.308500709484e-03 
1.902852668699e-03 -2.817268794694e-03 0.0 
-2.817268794694e-03 -4.032967653229e-04 0.0 
0.0 0.0 -6.426668157327e-04 
2.253407391376e-03 -2.370679650838e-03 0.0 
-2.370679650838e-03 -7.551607023087e-04 0.0 
0.0 0.0 -6.421057238860e-04 
2.152188401618e-03 -2.215932361183e-03 0.0 
-2.215932361183e-03 -7.648493634962e-04 0.0 
0.0 0.0 -5.945738734806e-04 
2.568498674833e-03 -1.800335482077e-03 0.0 
-1.800335482077e-03 -1.054151680982e-03 0.0 
0.0 0.0 -6.490058545078e-04 
2.589267859695e-03 -1.939320893250e-03 0.0 
-1.939320893250e-03 -1.034701238564e-03 0.0 
0.0 0.0 -6.662428376277e-04 
2.845251393852e-03 -1.182488936622e-03 0.0 
-1.182488936622e-03 -1.266140625123e-03 0.0 
0.0 0.0 -6.767617580267e-04 
2.841382791890e-03 -1.149550775431e-03 0.0 
-1.149550775431e-03 -1.284812658761e-03 0.0 
0.0 0.0 -6.671014856266e-04 
2.966198092938e-03 -3.987988764167e-04 0.0 
-3.987988764167e-04 -1.382086548665e-03 0.0 
0.0 0.0 -6.789049475453e-04 
-1.248651035025e-03 3.111213554981e-03 0.0 
3.111213554981e-03 5.700369437698e-03 0.0 
0.0 0.0 -1.138512926666e-03 
-1.048382069547e-03 -1.181351894960e-03 0.0 
-1.181351894960e-03 5.065835417687e-03 0.0 
0.0 0.0 -1.305779161548e-03 
4.789526992595e-05 -3.017317976477e-03 0.0 
-3.017317976477e-03 1.955725826502e-03 0.0 
0.0 0.0 -8.490207048509e-04 
4.255875009583e-04 -2.891330549410e-03 0.0 
-2.891330549410e-03 1.272940405536e-03 0.0 
0.0 0.0 -7.279405313547e-04 
7.016485745697e-04 -2.791230812805e-03 0.0 
-2.791230812805e-03 8.160956132733e-04 0.0 
0.0 0.0 -6.504617947899e-04 
-6.090620729236e-04 -2.591660670729e-03 0.0 
-2.591660670729e-03 2.996920806010e-03 0.0 
0.0 0.0 -1.013136008453e-03 
-4.847718747428e-04 -2.835802633982e-03 0.0 
-2.835802633982e-03 2.833935359093e-03 0.0 
0.0 0.0 -9.978061834832e-04 
-6.569091499038e-04 -2.799289725008e-03 0.0 
-2.799289725008e-03 3.183472627718e-03 0.0 
0.0 0.0 -1.035689958333e-03 
-7.207313198164e-04 -2.290250490495e-03 0.0 
-2.290250490495e-03 3.125345330795e-03 0.0 
0.0 0.0 -1.018322119518e-03 
-1.167877884792e-04 3.342094439232e-03 0.0 
3.342094439232e-03 2.837618912037e-03 0.0 
0.0 0.0 -9.882323209451e-04 
-1.091898030697e-03 -1.486850666943e-03 0.0 
-1.486850666943e-03 5.227315460995e-03 0.0 
0.0 0.0 -1.305003056577e-03 
1.225364256890e-03 -1.147615656396e-03 0.0 
-1.147615656396e-03 3.835923769498e-05 0.0 
0.0 0.0 -5.415957833937e-04 
-1.980397502487e-04 -3.005905727183e-03 0.0 
-3.005905727183e-03 2.314319347710e-03 0.0 
0.0 0.0 -9.069769703405e-04 
-1.707142071172e-03 7.635271864477e-04 0.0 
7.635271864477e-04 5.127553643252e-03 0.0 
0.0 0.0 -7.516786372745e-04 
-1.746908817975e-03 1.023609105839e-03 0.0 
1.023609105839e-03 5.442206395915e-03 0.0 
0.0 0.0 -8.094822736869e-04 
-1.772933357879e-03 1.184262300292e-03 0.0 
1.184262300292e-03 5.385289162601e-03 0.0 
0.0 0.0 -8.097394517040e-04 
-1.768350599280e-03 1.251073624371e-03 0.0 
1.251073624371e-03 5.764313646979e-03 0.0 
0.0 0.0 -8.733121467894e-04 
-1.727990335715e-03 8.210495884293e-04 0.0 
8.210495884293e-04 5.545557871090e-03 0.0 
0.0 0.0 -8.155917408702e-04 
-1.236784994223e-03 -1.923322638249e-03 0.0 
-1.923322638249e-03 4.168389852977e-03 0.0 
0.0 0.0 -1.057296815204e-03 
-1.427088068768e-03 -1.555275096953e-03 0.0 
-1.555275096953e-03 4.526520888732e-03 0.0 
0.0 0.0 -1.060211733922e-03 
-1.439309846138e-03 -1.245667555875e-03 0.0 
-1.245667555875e-03 4.501167157264e-03 0.0 
0.0 0.0 -1.053704044192e-03 
-1.586214255689e-03 -1.181249332069e-03 0.0 
-1.181249332069e-03 4.840144294026e-03 0.0 
0.0 0.0 -1.064485974018e-03 
-1.568580492753e-03 -8.807724015312e-04 0.0 
-8.807724015312e-04 4.760936091880e-03 0.0 
0.0 0.0 -1.058069710598e-03 
-1.437909822652e-03 -9.389915626686e-04 0.0 
-9.389915626686e-04 4.447516747931e-03 0.0 
0.0 0.0 -1.040756414728e-03 
-1.718221607956e-03 -8.006521433412e-04 0.0 
-8.006521433412e-04 5.111220650433e-03 0.0 
0.0 0.0 -1.068385751750e-03 
-1.669418493281e-03 -5.082865991109e-04 0.0 
-5.082865991109e-04 4.972394175886e-03 0.0 
0.0 0.0 -1.061946884890e-03 
-1.641647603362e-03 4.850166825857e-04 0.0 
4.850166825857e-04 5.202247326036e-03 0.0 
0.0 0.0 -7.509531518293e-04 
4.681733094658e-05 -5.816533838581e-04 0.0 
-5.816533838581e-04 9.454411860111e-05 0.0 
0.0 0.0 -6.058347837758e-05 
4.397814964137e-04 -2.157349287924e-03 0.0 
-2.157349287924e-03 4.211423268834e-04 0.0 
0.0 0.0 -3.689673528416e-04 
3.155046189534e-04 -2.027375098909e-03 0.0 
-2.027375098909e-03 7.742453397045e-04 0.0 
0.0 0.0 -4.670356965677e-04 
8.520514226530e-04 -2.864865723911e-03 0.0 
-2.864865723911e-03 5.535726049248e-04 0.0 
0.0 0.0 -6.024102975334e-04 
1.107532573262e-03 -2.675867926973e-03 0.0 
-2.675867926973e-03 -1.282410957994e-04 0.0 
0.0 0.0 -4.196963474839e-04 
1.414391538560e-03 -3.037597772400e-03 0.0 
-3.037597772400e-03 4.732794591137e-06 0.0 
0.0 0.0 -6.081961427792e-04 
1.798568626031e-03 -2.807561227883e-03 0.0 
-2.807561227883e-03 -5.963916264621e-04 0.0 
0.0 0.0 -5.152187141009e-04 
4.798167785024e-04 -1.487535536050e-03 0.0 
-1.487535536050e-03 -2.160815451901e-04 0.0 
0.0 0.0 -1.130293857052e-04 
1.221925142391e-04 -6.477447924089e-04 0.0 
-6.477447924089e-04 3.263707583015e-04 0.0 
0.0 0.0 -1.721226713898e-04 
1.600896537738e-04 -1.547795297662e-03 0.0 
-1.547795297662e-03 7.330764534416e-04 0.0 
0.0 0.0 -3.827854745209e-04 
1.103966075786e-04 -5.622367864216e-04 0.0 
-5.622367864216e-04 3.103757836854e-04 0.0 
0.0 0.0 -1.517934084529e-04 
1.053013884946e-04 -1.323791722729e-03 0.0 
-1.323791722729e-03 6.739471651028e-04 0.0 
0.0 0.0 -3.339636658274e-04 
3.430982234410e-04 -2.178085181117e-03 0.0 
-2.178085181117e-03 8.728126235658e-04 0.0 
0.0 0.0 -5.211046487172e-04 
-1.935346954464e-05 -1.828430160185e-03 0.0 
-1.828430160185e-03 1.220825087692e-03 0.0 
0.0 0.0 -5.149164077774e-04 
-1.561183168720e-03 -1.084347523387e-03 0.0 
-1.084347523387e-03 6.914233553436e-03 0.0 
0.0 0.0 -1.294874803588e-03 
-1.312931512090e-03 -3.406360319044e-04 0.0 
-3.406360319044e-04 4.053324067572e-03 0.0 
0.0 0.0 -9.806349194848e-04 
-1.232619789514e-03 -6.513903715833e-04 0.0 
-6.513903715833e-04 3.864959534980e-03 0.0 
0.0 0.0 -9.593735700280e-04 
-1.113036939270e-03 -6.004263507847e-04 0.0 
-6.004263507847e-04 3.522372894904e-03 0.0 
0.0 0.0 -8.977078860960e-04 
-1.116965318077e-03 -9.982255990531e-04 0.0 
-9.982255990531e-04 3.625196753216e-03 0.0 
0.0 0.0 -9.469176294500e-04 
-1.332244483269e-03 -6.509527714259e-04 0.0 
-6.509527714259e-04 4.142116544653e-03 0.0 
0.0 0.0 -1.006312639172e-03 
-1.080865388107e-03 -2.755367266220e-04 0.0 
-2.755367266220e-04 3.371661966390e-03 0.0 
0.0 0.0 -8.426599334973e-04 
-1.024104142748e-03 -5.302931597588e-04 0.0 
-5.302931597588e-04 3.225767958481e-03 0.0 
0.0 0.0 -8.124903673991e-04 
2.119334771273e-03 -2.250984394130e-04 0.0 
-2.250984394130e-04 -5.528535054759e-04 0.0 
0.0 0.0 -1.954030217304e-04 
1.237953986699e-03 -2.579545419294e-04 0.0 
-2.579545419294e-04 1.543244489082e-04 0.0 
0.0 0.0 -2.932658944931e-04 
1.411332111426e-03 -2.759944625030e-05 0.0 
-2.759944625030e-05 3.743876493098e-05 0.0 
0.0 0.0 -2.856593951198e-04 
3.600465984566e-04 -2.066499797985e-04 0.0 
-2.066499797985e-04 8.608267290585e-04 0.0 
0.0 0.0 -3.080440922735e-04 
3.653305054747e-04 -3.597145395908e-04 0.0 
-3.597145395908e-04 8.532226922973e-04 0.0 
0.0 0.0 -3.086108473030e-04 
1.169231949576e-03 -3.840093619394e-04 0.0 
-3.840093619394e-04 1.923594400946e-04 0.0 
0.0 0.0 -2.956379591255e-04 
1.031256041784e-03 -4.886047117192e-04 0.0 
-4.886047117192e-04 2.379226924498e-04 0.0 
0.0 0.0 -2.908089562448e-04 
1.816529586793e-03 -3.500151260859e-04 0.0 
-3.500151260859e-04 -4.323507490206e-04 0.0 
0.0 0.0 -1.958374107737e-04 
8.667756449627e-04 -6.409008792115e-04 0.0 
-6.409008792115e-04 2.928477416533e-04 0.0 
0.0 0.0 -2.796976375194e-04 
1.702636575089e-04 -6.542409432277e-04 0.0 
-6.542409432277e-04 9.095668014512e-04 0.0 
0.0 0.0 -3.106791268491e-04 
1.620102908946e-03 -4.500577592913e-04 0.0 
-4.500577592913e-04 -3.726586433767e-04 0.0 
0.0 0.0 -1.892091717599e-04 
-1.577535716708e-03 5.392394720966e-05 0.0 
5.392394720966e-05 7.299934411769e-03 0.0 
0.0 0.0 -1.060427308513e-03 
-1.573061893325e-03 1.544570403577e-04 0.0 
1.544570403577e-04 7.509050943264e-03 0.0 
0.0 0.0 -1.097082233180e-03 
-1.192953449252e-03 -1.864011720090e-03 0.0 
-1.864011720090e-03 5.605209134645e-03 0.0 
0.0 0.0 -1.300897016293e-03 
-1.579855819088e-03 2.979771540211e-04 0.0 
2.979771540211e-04 5.293250471981e-03 0.0 
0.0 0.0 -7.584009903415e-04 
3.744709763724e-04 -6.364946627065e-04 0.0 
-6.364946627065e-04 1.401291707387e-04 0.0 
0.0 0.0 -1.034024162715e-04 
-1.449845600680e-03 6.382887501364e-04 0.0 
6.382887501364e-04 8.609834207447e-03 0.0 
0.0 0.0 -1.292107529982e-03 
-1.448440923656e-03 1.123280561170e-03 0.0 
1.123280561170e-03 8.566022624529e-03 0.0 
0.0 0.0 -1.303172775453e-03 
-1.434083243244e-03 9.839421265548e-04 0.0 
9.839421265548e-04 8.603548743914e-03 0.0 
0.0 0.0 -1.304823151597e-03 
-1.916252571144e-03 -2.792629766010e-04 0.0 
-2.792629766010e-04 6.698528630947e-03 0.0 
0.0 0.0 -1.191058493115e-03 
-1.809292576517e-03 -5.447261667623e-04 0.0 
-5.447261667623e-04 6.787910699568e-03 0.0 
0.0 0.0 -1.224322658093e-03 
-1.441620689681e-03 3.697909072679e-04 0.0 
3.697909072679e-04 8.644537781625e-03 0.0 
0.0 0.0 -1.294569364341e-03 
-1.966831809583e-04 -2.229424319449e-03 0.0 
-2.229424319449e-03 1.821439975238e-03 0.0 
0.0 0.0 -6.963243404055e-04 
-1.542446802675e-03 2.619749311667e-03 0.0 
2.619749311667e-03 7.342230023592e-03 0.0 
0.0 0.0 -1.225740639889e-03 
-1.563624804990e-03 6.428436196565e-04 0.0 
6.428436196565e-04 7.948413338163e-03 0.0 
0.0 0.0 -1.178628832109e-03 
2.201456429693e-03 2.341714128316e-03 0.0 
2.341714128316e-03 -8.075777083502e-04 0.0 
0.0 0.0 -5.973765948613e-04 
4.529977292289e-04 -2.561738032130e-03 0.0 
-2.561738032130e-03 9.606788663604e-04 0.0 
0.0 0.0 -6.058613981097e-04 
-1.912750157524e-03 -1.012850712710e-03 0.0 
-1.012850712710e-03 5.577288917285e-03 0.0 
0.0 0.0 -1.066202199875e-03 
-1.088098720313e-03 -2.559527887766e-03 0.0 
-2.559527887766e-03 3.979421504262e-03 0.0 
0.0 0.0 -1.028256539386e-03 
-1.822459650115e-03 -1.367111847188e-03 0.0 
-1.367111847188e-03 6.015979930005e-03 0.0 
0.0 0.0 -1.130390451587e-03 
-1.582105737625e-03 -1.721031184097e-03 0.0 
-1.721031184097e-03 4.901863080820e-03 0.0 
0.0 0.0 -1.057243679378e-03 
-1.608185598285e-03 -1.915614561762e-03 0.0 
-1.915614561762e-03 5.282640092044e-03 0.0 
0.0 0.0 -1.076106726067e-03 
-6.144948469041e-04 -6.639795998970e-04 0.0 
-6.639795998970e-04 4.224201553889e-03 0.0 
0.0 0.0 -1.244129926109e-03 
-5.789303246957e-04 -4.457683817534e-04 0.0 
-4.457683817534e-04 1.808907778624e-03 0.0 
0.0 0.0 -3.862231446352e-04 
-1.669791442216e-03 5.742208476735e-04 0.0 
5.742208476735e-04 6.461493581352e-03 0.0 
0.0 0.0 -9.364826870394e-04 
-1.605975857622e-03 3.178960195767e-04 0.0 
3.178960195767e-04 6.348918363535e-03 0.0 
0.0 0.0 -9.130351872960e-04 
-1.629937813867e-03 6.093327650254e-04 0.0 
6.093327650254e-04 7.342083193620e-03 0.0 
0.0 0.0 -1.075939795031e-03 
-6.482537929307e-04 -1.608115231979e-03 0.0 
-1.608115231979e-03 2.605453652753e-03 0.0 
0.0 0.0 -8.387999399238e-04 
-1.303549504287e-03 -1.305113709369e-03 0.0 
-1.305113709369e-03 4.181114019267e-03 0.0 
0.0 0.0 -1.034705495726e-03 
-3.971862798800e-04 -1.135666412244e-03 0.0 
-1.135666412244e-03 1.660229728604e-03 0.0 
0.0 0.0 -5.350964027253e-04 
-1.079760018860e-03 3.194336986256e-03 0.0 
3.194336986256e-03 5.659153012299e-03 0.0 
0.0 0.0 -1.251461238623e-03 
-9.146057249504e-04 2.949568127909e-03 0.0 
2.949568127909e-03 3.641380823932e-03 0.0 
0.0 0.0 -9.215523041033e-04 
5.869540678773e-04 -2.956750850037e-03 0.0 
-2.956750850037e-03 1.034406097070e-03 0.0 
0.0 0.0 -6.948686421203e-04 
-4.983222250127e-04 -2.534366466985e-03 0.0 
-2.534366466985e-03 2.700875388843e-03 0.0 
0.0 0.0 -9.439513559275e-04 
-3.730260252317e-06 -2.536920884211e-03 0.0 
-2.536920884211e-03 1.637062224885e-03 0.0 
0.0 0.0 -6.999994134141e-04 
7.353476243331e-04 -2.725229135126e-03 0.0 
-2.725229135126e-03 6.766599510438e-04 0.0 
0.0 0.0 -6.051461037329e-04 
8.595376325540e-04 3.133881433802e-03 0.0 
3.133881433802e-03 8.059885165152e-04 0.0 
0.0 0.0 -7.137969210297e-04 
-4.203429083409e-05 -3.125630815959e-03 0.0 
-3.125630815959e-03 2.086027069296e-03 0.0 
0.0 0.0 -8.759969050552e-04 
-8.028650656472e-04 -2.530764803792e-03 0.0 
-2.530764803792e-03 3.746131268308e-03 0.0 
0.0 0.0 -1.026962916580e-03 
-1.603305794962e-03 5.584175701992e-04 0.0 
5.584175701992e-04 7.571764629350e-03 0.0 
0.0 0.0 -1.112552678551e-03 
9.600606219979e-04 -6.202368537327e-04 0.0 
-6.202368537327e-04 -7.835338607429e-05 0.0 
0.0 0.0 -1.528964725408e-04 
-6.507698434307e-04 -2.317277330880e-03 0.0 
-2.317277330880e-03 3.698342537328e-03 0.0 
0.0 0.0 -1.061672265243e-03 
-4.694800132291e-04 -3.046911020093e-03 0.0 
-3.046911020093e-03 2.876301697078e-03 0.0 
0.0 0.0 -9.848592602066e-04 
-1.735611780566e-03 9.275084004437e-04 0.0 
9.275084004437e-04 6.521846032081e-03 0.0 
0.0 0.0 -9.599091010803e-04 
5.517342203791e-04 7.070794377615e-04 0.0 
7.070794377615e-04 1.993016539601e-03 0.0 
0.0 0.0 -1.047968735850e-03 
1.251262826807e-03 -3.149427623220e-03 0.0 
-3.149427623220e-03 3.147933255355e-04 0.0 
0.0 0.0 -6.711669224326e-04 
-1.667035138543e-03 9.805979703494e-04 0.0 
9.805979703494e-04 7.401003517057e-03 0.0 
0.0 0.0 -1.098747615487e-03 
-1.603855099599e-03 1.782256839983e-03 0.0 
1.782256839983e-03 7.796685969376e-03 0.0 
0.0 0.0 -1.212453547082e-03 
-1.753933973529e-03 9.797964852189e-04 0.0 
9.797964852189e-04 5.978451539688e-03 0.0 
0.0 0.0 -8.875094802107e-04 
-2.613102227183e-04 -9.949083205869e-04 0.0 
-9.949083205869e-04 1.295268273910e-03 0.0 
0.0 0.0 -4.064699368096e-04 
-1.648709990180e-03 4.475238255647e-04 0.0 
4.475238255647e-04 6.036264205668e-03 0.0 
0.0 0.0 -8.692469099983e-04 
-7.203164161434e-04 -1.605185791603e-03 0.0 
-1.605185791603e-03 4.351922217429e-03 0.0 
0.0 0.0 -1.202705989510e-03 
-1.725470359675e-03 1.770892894084e-03 0.0 
1.770892894084e-03 6.914744693878e-03 0.0 
0.0 0.0 -1.078220320736e-03 
-7.065492097226e-04 -1.209971096051e-03 0.0 
-1.209971096051e-03 2.577314578998e-03 0.0 
0.0 0.0 -7.821142971127e-04 
2.080536798912e-03 -4.379488450435e-04 0.0 
-4.379488450435e-04 -1.014496050842e-03 0.0 
0.0 0.0 -4.568746063161e-04 
3.673244141799e-05 3.501892657137e-03 0.0 
3.501892657137e-03 2.162557991526e-03 0.0 
0.0 0.0 -9.249336466263e-04 
-1.472424715948e-03 1.473284294565e-03 0.0 
1.473284294565e-03 4.326140179341e-03 0.0 
0.0 0.0 -7.656857982150e-04 
-1.552562983666e-03 7.948996227407e-04 0.0 
7.948996227407e-04 8.084351316505e-03 0.0 
0.0 0.0 -1.206557591227e-03 
1.197294541337e-03 2.931696958795e-03 0.0 
2.931696958795e-03 3.430979437177e-04 0.0 
0.0 0.0 -6.601682078804e-04 
2.014691518502e-04 -1.535153806246e-04 0.0 
-1.535153806246e-04 2.672995857900e-03 0.0 
0.0 0.0 -1.120054252910e-03 
1.167692333485e-03 -4.546798185550e-04 0.0 
-4.546798185550e-04 3.225795309945e-04 0.0 
0.0 0.0 -6.386879419198e-04 
-8.300689796229e-04 -1.036862626203e-03 0.0 
-1.036862626203e-03 2.843866615447e-03 0.0 
0.0 0.0 -8.092532257643e-04 
-1.141410086144e-03 -2.132624368424e-03 0.0 
-2.132624368424e-03 4.763879094691e-03 0.0 
0.0 0.0 -1.118919378802e-03 
2.226178382358e-03 1.538806345707e-03 0.0 
1.538806345707e-03 -1.000001690931e-03 0.0 
0.0 0.0 -5.255042963258e-04 
-1.621773390463e-03 1.105341392258e-03 0.0 
1.105341392258e-03 7.770539650855e-03 0.0 
0.0 0.0 -1.164614768973e-03 
-7.726765049569e-04 3.339866695887e-03 0.0 
3.339866695887e-03 4.168840091130e-03 0.0 
0.0 0.0 -1.031533309622e-03 
2.985503110291e-03 3.031284491510e-04 0.0 
3.031284491510e-04 -1.381029514076e-03 0.0 
0.0 0.0 -6.876315412354e-04 
-1.686948173027e-03 1.421165008995e-03 0.0 
1.421165008995e-03 7.380565372555e-03 0.0 
0.0 0.0 -1.121170216299e-03 
1.011452247809e-03 -2.344893480733e-03 0.0 
-2.344893480733e-03 3.172812092828e-04 0.0 
0.0 0.0 -5.694571958966e-04 
3.273818053523e-04 1.142366955538e-03 0.0 
1.142366955538e-03 2.480645691333e-03 0.0 
0.0 0.0 -1.099429584637e-03 
-6.433175181119e-04 3.077878174349e-03 0.0 
3.077878174349e-03 3.183682229986e-03 0.0 
0.0 0.0 -9.539696108702e-04 
-6.121546724542e-04 3.601568394799e-03 0.0 
3.601568394799e-03 3.377991454684e-03 0.0 
0.0 0.0 -9.441813108648e-04 
-1.362049427310e-03 2.994726613582e-03 0.0 
2.994726613582e-03 5.058459491364e-03 0.0 
0.0 0.0 -9.824247929831e-04 
2.242703281786e-04 3.613717884088e-03 0.0 
3.613717884088e-03 1.934819861174e-03 0.0 
0.0 0.0 -8.887186042024e-04 
-1.881029170096e-03 -6.972944591045e-04 0.0 
-6.972944591045e-04 5.485539571048e-03 0.0 
0.0 0.0 -1.071820694527e-03 
-9.158007506096e-04 -2.235649248494e-03 0.0 
-2.235649248494e-03 4.248678740424e-03 0.0 
0.0 0.0 -1.090315851396e-03 
2.052665481287e-03 -1.103532234197e-03 0.0 
-1.103532234197e-03 -1.175556670273e-03 0.0 
0.0 0.0 -3.759037761492e-04 
8.914746630086e-04 2.890953836391e-03 0.0 
2.890953836391e-03 6.027493594732e-04 0.0 
0.0 0.0 -6.403817239208e-04 
-1.758945777430e-03 1.160675475390e-03 0.0 
1.160675475390e-03 6.378359981790e-03 0.0 
0.0 0.0 -9.536514739466e-04 
-6.639671926482e-04 3.003789204226e-03 0.0 
3.003789204226e-03 4.418789612070e-03 0.0 
0.0 0.0 -1.150585697120e-03 
-1.554201493046e-03 1.231598965710e-03 0.0 
1.231598965710e-03 8.128380504732e-03 0.0 
0.0 0.0 -1.229329624135e-03 
1.209824795641e-04 3.344721880567e-03 0.0 
3.344721880567e-03 1.935063257791e-03 0.0 
0.0 0.0 -8.811624588665e-04 
-1.286404788732e-03 -2.188571958382e-03 0.0 
-2.188571958382e-03 4.794074532598e-03 0.0 
0.0 0.0 -1.081576975854e-03 
-1.629163603093e-03 1.571087997701e-03 0.0 
1.571087997701e-03 7.723510960528e-03 0.0 
0.0 0.0 -1.185355684152e-03 
-3.559661832873e-04 -3.012647310201e-03 0.0 
-3.012647310201e-03 2.646809915025e-03 0.0 
0.0 0.0 -9.737892037141e-04 
-7.230165557545e-04 -1.426683456850e-04 0.0 
-1.426683456850e-04 2.147619513236e-03 0.0 
0.0 0.0 -4.572648740992e-04 
1.660426463556e-03 2.294712628775e-03 0.0 
2.294712628775e-03 -6.270108860030e-04 0.0 
0.0 0.0 -4.428923903797e-04 
3.083725212360e-03 4.086632437554e-04 0.0 
4.086632437554e-04 -1.411678867675e-03 0.0 
0.0 0.0 -7.165912905795e-04 
1.695879907660e-03 2.562718717107e-03 0.0 
2.562718717107e-03 -3.302884133479e-04 0.0 
0.0 0.0 -5.852534975623e-04 
-5.576706971117e-04 -2.954961257328e-03 0.0 
-2.954961257328e-03 3.029681223364e-03 0.0 
0.0 0.0 -1.013304783341e-03 
-1.555713883054e-03 2.364705081961e-03 0.0 
2.364705081961e-03 7.663070105557e-03 0.0 
0.0 0.0 -1.242275372262e-03 
-1.459222448555e-03 -1.977989758638e-03 0.0 
-1.977989758638e-03 5.249777589170e-03 0.0 
0.0 0.0 -1.110186454522e-03 
5.809827755289e-05 -1.888547144195e-03 0.0 
-1.888547144195e-03 2.563693945277e-03 0.0 
0.0 0.0 -1.040857148505e-03 
2.543469021149e-04 1.469924055833e-03 0.0 
1.469924055833e-03 4.262869149301e-04 0.0 
0.0 0.0 -2.917002073050e-04 
-1.420828704055e-03 1.823492309729e-03 0.0 
1.823492309729e-03 4.313202363895e-03 0.0 
0.0 0.0 -8.070275419711e-04 
-1.590933393314e-03 -1.754583215491e-03 0.0 
-1.754583215491e-03 5.664446844218e-03 0.0 
0.0 0.0 -1.139074001596e-03 
1.644076570115e-03 -1.085629871930e-03 0.0 
-1.085629871930e-03 -5.732577340253e-04 0.0 
0.0 0.0 -4.589223583244e-04 
2.052489302078e-04 6.912241943710e-04 0.0 
6.912241943710e-04 2.710009798059e-03 0.0 
0.0 0.0 -1.126725356868e-03 
-1.535445043143e-03 -5.867914393128e-04 0.0 
-5.867914393128e-04 4.647107690583e-03 0.0 
0.0 0.0 -1.044109258258e-03 
-9.859779036616e-04 3.056684200562e-03 0.0 
3.056684200562e-03 5.375983574251e-03 0.0 
0.0 0.0 -1.249754184115e-03 
-6.610476002560e-04 2.303624772309e-03 0.0 
2.303624772309e-03 2.903406990762e-03 0.0 
0.0 0.0 -9.028501661438e-04 
-1.686501264746e-03 -1.526608176621e-03 0.0 
-1.526608176621e-03 6.045524770636e-03 0.0 
0.0 0.0 -1.168790087466e-03 
3.742641179637e-04 -1.152556169589e-03 0.0 
-1.152556169589e-03 2.146769681943e-03 0.0 
0.0 0.0 -1.036257385577e-03 
2.158291477526e-03 2.743008596258e-03 0.0 
2.743008596258e-03 -5.432811980168e-04 0.0 
0.0 0.0 -6.921472626470e-04 
-1.448920855555e-03 5.485150606776e-05 0.0 
5.485150606776e-05 5.277752212934e-03 0.0 
0.0 0.0 -7.498068730476e-04 
-1.593954056461e-03 -1.469135234964e-03 0.0 
-1.469135234964e-03 6.450266463409e-03 0.0 
0.0 0.0 -1.243807156011e-03 
5.209000563453e-05 -9.592901321100e-04 0.0 
-9.592901321100e-04 2.854437082012e-03 0.0 
0.0 0.0 -1.114542488500e-03 
3.461661553033e-05 3.551384216602e-03 0.0 
3.551384216602e-03 2.362376837699e-03 0.0 
0.0 0.0 -9.321888224300e-04 
1.558216832635e-03 -1.548696012587e-03 0.0 
-1.548696012587e-03 -4.269730613691e-04 0.0 
0.0 0.0 -4.848187591141e-04 
-1.159109189925e-03 1.672386638450e-03 0.0 
1.672386638450e-03 3.686907530899e-03 0.0 
0.0 0.0 -7.928834912169e-04 
-8.622534806161e-04 -2.703450422620e-03 0.0 
-2.703450422620e-03 3.567462389003e-03 0.0 
0.0 0.0 -1.042489463686e-03 
-8.810352068874e-04 3.464697463085e-03 0.0 
3.464697463085e-03 3.935493660585e-03 0.0 
0.0 0.0 -9.528746205426e-04 
-1.455694182561e-03 2.079571376027e-03 0.0 
2.079571376027e-03 8.238502292373e-03 0.0 
0.0 0.0 -1.306889097489e-03 
-4.021262128288e-05 -5.236218254538e-04 0.0 
-5.236218254538e-04 3.069008893941e-03 0.0 
0.0 0.0 -1.148622835147e-03 
-1.725562695568e-03 2.028005553636e-03 0.0 
2.028005553636e-03 5.979413828880e-03 0.0 
0.0 0.0 -9.696660045843e-04 
-9.371362615476e-04 -2.513813645279e-03 0.0 
-2.513813645279e-03 3.674904326905e-03 0.0 
0.0 0.0 -1.055577742195e-03 
6.828857261752e-04 2.319846812613e-03 0.0 
2.319846812613e-03 1.471382999158e-03 0.0 
0.0 0.0 -9.020111454724e-04 
3.069126660921e-04 -4.845997231989e-04 0.0 
-4.845997231989e-04 8.592191971431e-04 0.0 
0.0 0.0 -3.093966206321e-04 
-1.066278201586e-03 2.069319232208e-03 0.0 
2.069319232208e-03 3.624795843977e-03 0.0 
0.0 0.0 -8.430048313659e-04 
-1.188974335056e-03 -2.184404117123e-03 0.0 
-2.184404117123e-03 4.121734009211e-03 0.0 
0.0 0.0 -1.055179846540e-03 
3.051680346467e-03 -4.197736543643e-04 0.0 
-4.197736543643e-04 -1.412706451387e-03 0.0 
0.0 0.0 -7.024173836058e-04 
1.117277129867e-03 -2.070559341147e-03 0.0 
-2.070559341147e-03 1.215006496444e-04 0.0 
0.0 0.0 -5.309047626477e-04 
-5.077233341081e-04 1.801300421280e-03 0.0 
1.801300421280e-03 4.164826850224e-03 0.0 
0.0 0.0 -1.234277959947e-03 
-1.405357231203e-03 -1.830815427985e-03 0.0 
-1.830815427985e-03 4.525691195773e-03 0.0 
0.0 0.0 -1.058821591963e-03 
2.981871888689e-03 -4.320249597075e-04 0.0 
-4.320249597075e-04 -1.387251596233e-03 0.0 
0.0 0.0 -6.834086967669e-04 
-1.589234832291e-03 -1.465860908847e-03 0.0 
-1.465860908847e-03 4.884351969089e-03 0.0 
0.0 0.0 -1.063846254002e-03 
-8.219124233661e-04 1.884899957964e-03 0.0 
1.884899957964e-03 3.049244611375e-03 0.0 
0.0 0.0 -8.384157971481e-04 
-1.674104129450e-03 2.267631102477e-03 0.0 
2.267631102477e-03 5.977690423385e-03 0.0 
0.0 0.0 -9.983267706061e-04 
-1.746776969671e-03 -1.092710579845e-03 0.0 
-1.092710579845e-03 5.203384673320e-03 0.0 
0.0 0.0 -1.068006041337e-03 
-9.280916248974e-04 3.352222764373e-03 0.0 
3.352222764373e-03 4.310032082870e-03 0.0 
0.0 0.0 -1.003151257071e-03 
2.463563334715e-05 -8.807126364979e-04 0.0 
-8.807126364979e-04 9.974910621111e-04 0.0 
0.0 0.0 -3.190932086048e-04 
1.865633619246e-04 3.322818699054e-03 0.0 
3.322818699054e-03 2.196662702388e-03 0.0 
0.0 0.0 -9.369607680273e-04 
-1.969274810505e-03 -5.697349439415e-04 0.0 
-5.697349439415e-04 6.492408088354e-03 0.0 
0.0 0.0 -1.155419075730e-03 
4.460939102830e-04 -2.841642607168e-03 0.0 
-2.841642607168e-03 1.136269056788e-03 0.0 
0.0 0.0 -6.781555573162e-04 
7.887889646566e-04 -2.571324212251e-03 0.0 
-2.571324212251e-03 6.415432993246e-04 0.0 
0.0 0.0 -6.129995417062e-04 
-1.637827184878e-03 2.388605245637e-03 0.0 
2.388605245637e-03 6.314063370822e-03 0.0 
0.0 0.0 -1.063653581392e-03 
-4.992814516217e-04 1.972643240252e-03 0.0 
1.972643240252e-03 2.384387457051e-03 0.0 
0.0 0.0 -8.079025737556e-04 
5.124750958276e-04 -2.569400884271e-03 0.0 
-2.569400884271e-03 1.193670865080e-03 0.0 
0.0 0.0 -7.312054118175e-04 
-9.641562230990e-04 3.242704907183e-03 0.0 
3.242704907183e-03 4.707911026065e-03 0.0 
0.0 0.0 -1.067288052377e-03 
3.154663455590e-04 2.993279893955e-03 0.0 
2.993279893955e-03 2.102244501383e-03 0.0 
0.0 0.0 -9.588566822092e-04 
1.346446614896e-03 2.610050225058e-03 0.0 
2.610050225058e-03 1.067961116776e-04 0.0 
0.0 0.0 -6.228183113887e-04 
2.887356895726e-04 -2.230406662033e-03 0.0 
-2.230406662033e-03 1.886206335840e-03 0.0 
0.0 0.0 -9.159128653295e-04 
-3.070381522363e-04 2.361479177514e-03 0.0 
2.361479177514e-03 2.144874392585e-03 0.0 
0.0 0.0 -7.876441030066e-04 
-4.603323552836e-06 -2.296978514711e-03 0.0 
-2.296978514711e-03 1.485132063043e-03 0.0 
0.0 0.0 -6.345123169243e-04 
-1.725456702673e-05 -2.050421713285e-03 0.0 
-2.050421713285e-03 1.350463780520e-03 0.0 
0.0 0.0 -5.713753772113e-04 
2.694499012180e-03 -1.108798334530e-03 0.0 
-1.108798334530e-03 -1.215742971782e-03 0.0 
0.0 0.0 -6.337525887422e-04 
-1.125553493016e-03 3.166078986994e-03 0.0 
3.166078986994e-03 5.226172467772e-03 0.0 
0.0 0.0 -1.103081964739e-03 
-3.505794759798e-04 -2.805020388018e-04 0.0 
-2.805020388018e-04 1.476517852756e-03 0.0 
0.0 0.0 -3.018576685516e-04 
-1.520679869667e-03 2.700420786858e-03 0.0 
2.700420786858e-03 5.894437551981e-03 0.0 
0.0 0.0 -1.054898413167e-03 
1.434637815246e-04 -2.013001771722e-03 0.0 
-2.013001771722e-03 1.061630091320e-03 0.0 
0.0 0.0 -5.164688026476e-04 
2.470206604480e-03 -1.725455129164e-03 0.0 
-1.725455129164e-03 -1.033453851675e-03 0.0 
0.0 0.0 -6.157511797736e-04 
1.550603106910e-04 2.343951066894e-03 0.0 
2.343951066894e-03 2.741523029304e-03 0.0 
0.0 0.0 -1.077081564483e-03 
-1.567382262079e-03 5.775225248615e-06 0.0 
5.775225248615e-06 6.502023960398e-03 0.0 
0.0 0.0 -9.315431351609e-04 
1.994050342792e-03 -2.125051609346e-03 0.0 
-2.125051609346e-03 -7.055681148420e-04 0.0 
0.0 0.0 -5.522066691216e-04 
-8.473530892992e-04 -1.857205257249e-04 0.0 
-1.857205257249e-04 2.593065685554e-03 0.0 
0.0 0.0 -6.119633700263e-04 
1.664939330105e-03 -2.423764940749e-03 0.0 
-2.423764940749e-03 -3.798301328600e-04 0.0 
0.0 0.0 -5.507610845334e-04 
9.691114688175e-04 2.564299471471e-03 0.0 
2.564299471471e-03 7.430038862534e-04 0.0 
0.0 0.0 -7.337637236018e-04 
1.166584806499e-03 -2.448706473937e-03 0.0 
-2.448706473937e-03 1.644568183363e-04 0.0 
0.0 0.0 -5.704464106438e-04 
9.207629563978e-04 -2.562817695187e-03 0.0 
-2.562817695187e-03 4.684807333005e-04 0.0 
0.0 0.0 -5.953901527278e-04 
-1.509599202053e-03 7.115315669588e-04 0.0 
7.115315669588e-04 8.319494978419e-03 0.0 
0.0 0.0 -1.242975171717e-03 
6.644834369663e-04 -2.816687817472e-03 0.0 
-2.816687817472e-03 8.638079814567e-04 0.0 
0.0 0.0 -6.549820364670e-04 
-1.417913046649e-03 2.000204615730e-04 0.0 
2.000204615730e-04 8.717353493565e-03 0.0 
0.0 0.0 -1.305370344976e-03 
-1.585981038622e-03 -5.390524588140e-04 0.0 
-5.390524588140e-04 7.088561262435e-03 0.0 
0.0 0.0 -1.298405437673e-03 
-1.489518803289e-03 -4.573950556845e-06 0.0 
-4.573950556845e-06 5.635615486584e-03 0.0 
0.0 0.0 -7.997855503562e-04 
-2.605550091072e-04 1.921888767382e-03 0.0 
1.921888767382e-03 1.771030104647e-03 0.0 
0.0 0.0 -6.473464695169e-04 
0.0 0.0 0.0 
0.0 0.0 0.0 
0.0 0.0 0.0 
5.300339532942e-05 2.296518653744e-03 0.0 
2.296518653744e-03 1.380741919417e-03 0.0 
0.0 0.0 -6.144622777483e-04 
4.589079226346e-04 -2.669236835745e-03 0.0 
-2.669236835745e-03 1.017039993413e-03 0.0 
0.0 0.0 -6.325491068774e-04 
-1.344360499523e-03 2.998007223071e-03 0.0 
2.998007223071e-03 5.396263019476e-03 0.0 
0.0 0.0 -1.045752072333e-03 
-1.493847809746e-03 7.392246810856e-05 0.0 
7.392246810856e-05 5.643210332918e-03 0.0 
0.0 0.0 -8.029817139903e-04 
2.189770723719e-04 -2.551176870332e-03 0.0 
-2.551176870332e-03 1.274969331798e-03 0.0 
0.0 0.0 -6.402627446442e-04 
-1.419524211431e-03 3.075318657805e-03 0.0 
3.075318657805e-03 6.922500903080e-03 0.0 
0.0 0.0 -1.250093291501e-03 
-1.105460999237e-03 2.840056670224e-03 0.0 
2.840056670224e-03 5.499135179184e-03 0.0 
0.0 0.0 -1.306737725957e-03 
-1.583352928322e-03 1.388979039351e-04 0.0 
1.388979039351e-04 7.093261842357e-03 0.0 
0.0 0.0 -1.028769680629e-03 
3.110761131384e-05 3.070777297068e-04 0.0 
3.070777297068e-04 2.990066827201e-03 0.0 
0.0 0.0 -1.152835590205e-03 
4.038330844269e-04 2.562565156884e-03 0.0 
2.562565156884e-03 2.099896012322e-03 0.0 
0.0 0.0 -9.954397186036e-04 
-1.532870607185e-03 8.627533493903e-05 0.0 
8.627533493903e-05 8.032571934377e-03 0.0 
0.0 0.0 -1.185717314024e-03 
-1.493423908883e-03 8.976519337403e-05 0.0 
8.976519337403e-05 5.235057922781e-03 0.0 
0.0 0.0 -7.451086181774e-04 
8.476467916489e-05 -1.199388947894e-03 0.0 
-1.199388947894e-03 6.043361303539e-04 0.0 
0.0 0.0 -2.642930028689e-04 
-1.995343437528e-03 -3.338550389889e-04 0.0 
-3.338550389889e-04 5.735331553200e-03 0.0 
0.0 0.0 -1.072300834510e-03 
-4.728391316330e-06 1.911025163986e-03 0.0 
1.911025163986e-03 1.236688893795e-03 0.0 
0.0 0.0 -5.279830724910e-04 
3.550394143264e-04 2.259430213976e-03 0.0 
2.259430213976e-03 9.034181507030e-04 0.0 
0.0 0.0 -5.393389564412e-04 
6.085214745978e-04 2.284877078157e-03 0.0 
2.284877078157e-03 6.261355702317e-04 0.0 
0.0 0.0 -5.291387334984e-04 
-9.396181000691e-04 -7.967451354887e-04 0.0 
-7.967451354887e-04 3.058992386408e-03 0.0 
0.0 0.0 -8.121166773320e-04 
5.494964702923e-04 -2.584085792452e-03 0.0 
-2.584085792452e-03 8.433772001581e-04 0.0 
0.0 0.0 -5.969458587645e-04 
2.401282782028e-04 2.005638511475e-03 0.0 
2.005638511475e-03 9.040366262875e-04 0.0 
0.0 0.0 -4.903563876387e-04 
-5.261734606055e-04 6.022279658391e-04 0.0 
6.022279658391e-04 4.033101031005e-03 0.0 
0.0 0.0 -1.245112051941e-03 
-1.636730137181e-03 4.290067563108e-04 0.0 
4.290067563108e-04 5.580276288558e-03 0.0 
0.0 0.0 -8.050116406322e-04 
-1.121915910908e-04 2.515763012409e-03 0.0 
2.515763012409e-03 3.291467473346e-03 0.0 
0.0 0.0 -1.110409235593e-03 
3.679053624996e-04 1.946389288486e-03 0.0 
1.946389288486e-03 7.047317248665e-04 0.0 
0.0 0.0 -4.597016088712e-04 
-1.554707372438e-03 1.697440109364e-03 0.0 
1.697440109364e-03 8.056864122716e-03 0.0 
0.0 0.0 -1.247366155457e-03 
-7.215899275846e-04 2.377475014672e-03 0.0 
2.377475014672e-03 4.622150950018e-03 0.0 
0.0 0.0 -1.246608778627e-03 
-1.331856878630e-03 -1.983836111103e-03 0.0 
-1.983836111103e-03 6.114923973583e-03 0.0 
0.0 0.0 -1.306249356034e-03 
-3.798399904625e-04 2.398884536475e-03 0.0 
2.398884536475e-03 3.901175645834e-03 0.0 
0.0 0.0 -1.176371721005e-03 
7.581050863864e-04 2.227306199006e-03 0.0 
2.227306199006e-03 3.618205949459e-04 0.0 
0.0 0.0 -4.799681491424e-04 
-1.753134334940e-03 1.030981935736e-03 0.0 
1.030981935736e-03 5.768775069705e-03 0.0 
0.0 0.0 -8.603500797662e-04 
-1.168709675212e-03 3.249274189801e-03 0.0 
3.249274189801e-03 5.927681969270e-03 0.0 
0.0 0.0 -1.250827372426e-03 
-1.580586288305e-03 2.460651619642e-04 0.0 
2.460651619642e-04 7.417010690682e-03 0.0 
0.0 0.0 -1.080253149739e-03 
-1.410996846028e-03 -1.766992384939e-03 0.0 
-1.766992384939e-03 6.482040820837e-03 0.0 
0.0 0.0 -1.309985050881e-03 
-1.682012249170e-03 6.654682702296e-04 0.0 
6.654682702296e-04 5.457303072723e-03 0.0 
0.0 0.0 -7.979019438933e-04 
-1.482092413582e-03 4.825553233706e-04 0.0 
4.825553233706e-04 8.388620482460e-03 0.0 
0.0 0.0 -1.252774941638e-03 
2.053124764649e-03 -2.150351803165e-03 0.0 
-2.150351803165e-03 -1.002699963371e-03 0.0 
0.0 0.0 -4.501820576904e-04 
-1.472782165905e-03 2.611384925530e-04 0.0 
2.611384925530e-04 8.403666031078e-03 0.0 
0.0 0.0 -1.254166199180e-03 
-1.340636802885e-03 3.017781757784e-03 0.0 
3.017781757784e-03 5.759872352408e-03 0.0 
0.0 0.0 -1.110316242656e-03 
-1.575034003637e-03 2.533992497604e-04 0.0 
2.533992497604e-04 6.175537215493e-03 0.0 
0.0 0.0 -8.840149073763e-04 
-1.771751416511e-03 1.426780246192e-03 0.0 
1.426780246192e-03 5.587137473215e-03 0.0 
0.0 0.0 -8.570326279659e-04 
-1.684907386527e-03 -8.004631079360e-04 0.0 
-8.004631079360e-04 6.831074281255e-03 0.0 
0.0 0.0 -1.256337174517e-03 
-1.508670120193e-03 2.760870843371e-03 0.0 
2.760870843371e-03 7.327066348949e-03 0.0 
0.0 0.0 -1.249505442739e-03 
6.883790236625e-04 2.060671389361e-03 0.0 
2.060671389361e-03 2.237385116846e-05 0.0 
0.0 0.0 -3.046083749275e-04 
-1.585370214117e-03 2.593308700915e-04 0.0 
2.593308700915e-04 7.073771685170e-03 0.0 
0.0 0.0 -1.024357608964e-03 
-1.028891659838e-03 -1.361434891480e-03 0.0 
-1.361434891480e-03 3.507211596145e-03 0.0 
0.0 0.0 -9.709766588611e-04 
2.096603589134e-04 -4.522541456736e-04 0.0 
-4.522541456736e-04 -1.685826935135e-04 0.0 
0.0 0.0 -1.760471374282e-05 
-1.108111334259e-03 -1.824971532717e-03 0.0 
-1.824971532717e-03 5.280702358381e-03 0.0 
0.0 0.0 -1.249521112489e-03 
-1.346888651128e-03 3.065747420634e-03 0.0 
3.065747420634e-03 6.117675129117e-03 0.0 
0.0 0.0 -1.172189067419e-03 
-1.641216111045e-03 -1.228485444809e-03 0.0 
-1.228485444809e-03 6.632464522082e-03 0.0 
0.0 0.0 -1.251863004148e-03 
4.253395517685e-04 -1.330965256832e-05 0.0 
-1.330965256832e-05 8.162616228349e-04 0.0 
0.0 0.0 -3.073113677837e-04 
2.659967583917e-04 -9.636004765028e-04 0.0 
-9.636004765028e-04 4.197455964224e-04 0.0 
0.0 0.0 -2.058019112872e-04 
-9.341108583894e-04 -1.570273886574e-03 0.0 
-1.570273886574e-03 4.919000747850e-03 0.0 
0.0 0.0 -1.258522865334e-03 
-1.325021295734e-03 3.260852513925e-03 0.0 
3.260852513925e-03 6.529415890564e-03 0.0 
0.0 0.0 -1.257106814994e-03 
2.069780564081e-03 -2.887481408844e-03 0.0 
-2.887481408844e-03 -5.620999085580e-04 0.0 
0.0 0.0 -6.461488523668e-04 
-1.444494309143e-03 1.513018136519e-03 0.0 
1.513018136519e-03 8.529509024149e-03 0.0 
0.0 0.0 -1.314710167832e-03 
1.606042082751e-04 7.400733517384e-04 0.0 
7.400733517384e-04 -6.805152101560e-05 0.0 
0.0 0.0 -3.966543739693e-05 
-1.527500430813e-03 2.291957424775e-04 0.0 
2.291957424775e-04 5.159544215479e-03 0.0 
0.0 0.0 -7.389643750272e-04 
7.522855132365e-04 -8.129255998406e-04 0.0 
-8.129255998406e-04 2.933811725579e-04 0.0 
0.0 0.0 -2.584822669346e-04 
-1.451285018422e-03 -1.619253938531e-03 0.0 
-1.619253938531e-03 6.712702821616e-03 0.0 
0.0 0.0 -1.308531455474e-03 
-1.521082113150e-03 1.160385665173e-03 0.0 
1.160385665173e-03 8.292813149207e-03 0.0 
0.0 0.0 -1.254845750201e-03 
-1.245470008181e-03 -9.103756336826e-04 0.0 
-9.103756336826e-04 3.950697369425e-03 0.0 
0.0 0.0 -9.904446095582e-04 
-1.723966937065e-03 1.170670843267e-03 0.0 
1.170670843267e-03 5.001993590100e-03 0.0 
0.0 0.0 -7.582784842146e-04 
-9.206532372436e-04 -4.495869396707e-04 0.0 
-4.495869396707e-04 2.876332750162e-03 0.0 
0.0 0.0 -7.084058105195e-04 
-8.029287135569e-04 3.022070318119e-03 0.0 
3.022070318119e-03 4.846485263972e-03 0.0 
0.0 0.0 -1.203498912175e-03 
1.578052768763e-04 -1.733898146901e-03 0.0 
-1.733898146901e-03 8.518457615679e-04 0.0 
0.0 0.0 -4.327075879046e-04 
-1.502885003929e-03 8.385321329672e-04 0.0 
8.385321329672e-04 8.406515819115e-03 0.0 
0.0 0.0 -1.260296891839e-03 
-7.798982579111e-04 -1.032636455785e-03 0.0 
-1.032636455785e-03 4.559837266151e-03 0.0 
0.0 0.0 -1.261416966621e-03 
-1.541080814648e-03 2.248481841172e-03 0.0 
2.248481841172e-03 7.871819285488e-03 0.0 
0.0 0.0 -1.260618436842e-03 
-1.035661708301e-03 1.434119926330e-03 0.0 
1.434119926330e-03 4.999968609048e-03 0.0 
0.0 0.0 -1.317725628150e-03 
0.0 0.0 0.0 
0.0 0.0 0.0 
0.0 0.0 0.0 
-8.775793509473e-04 2.643781737553e-03 0.0 
2.643781737553e-03 4.999185491909e-03 0.0 
0.0 0.0 -1.263090216482e-03 
-3.359262024726e-04 -4.205327465571e-04 0.0 
-4.205327465571e-04 3.690481845722e-03 0.0 
0.0 0.0 -1.202239909569e-03 
-1.469921091904e-03 1.397057797389e-04 0.0 
1.397057797389e-04 5.245389338611e-03 0.0 
0.0 0.0 -7.439744481034e-04 
-1.522980262771e-03 2.574585562032e-03 0.0 
2.574585562032e-03 7.567445771786e-03 0.0 
0.0 0.0 -1.252574368527e-03 
-1.039501310576e-03 -8.329301664350e-04 0.0 
-8.329301664350e-04 3.357758752277e-03 0.0 
0.0 0.0 -8.789764298429e-04 
-3.276933337434e-04 -7.307720459036e-04 0.0 
-7.307720459036e-04 1.390604940151e-03 0.0 
0.0 0.0 -3.555153606766e-04 
-1.400496614823e-03 7.920880417302e-05 0.0 
7.920880417302e-05 8.744396333073e-03 0.0 
0.0 0.0 -1.313490227100e-03 
2.520733888645e-03 -3.426864807379e-06 0.0 
-3.426864807379e-06 -8.047604136628e-04 0.0 
0.0 0.0 -1.695477456824e-04 
-1.436285120339e-03 -8.822331672806e-06 0.0 
-8.822331672806e-06 5.224558560537e-03 0.0 
0.0 0.0 -7.402411036050e-04 
-1.541544735514e-03 -2.080816256948e-04 0.0 
-2.080816256948e-04 7.171789726740e-03 0.0 
0.0 0.0 -1.313492844077e-03 
-2.510837729256e-04 -3.936310680644e-04 0.0 
-3.936310680644e-04 1.321735893226e-03 0.0 
0.0 0.0 -2.948614013126e-04 
-1.524937947447e-03 4.475494657923e-05 0.0 
4.475494657923e-05 5.953624986698e-03 0.0 
0.0 0.0 -8.489638187885e-04 
-1.372178966628e-03 3.183705797245e-03 0.0 
3.183705797245e-03 6.771642373061e-03 0.0 
0.0 0.0 -1.260211869575e-03 
-1.590513358799e-03 -2.597680171264e-04 0.0 
-2.597680171264e-04 4.769333481416e-03 0.0 
0.0 0.0 -1.052454572086e-03 
-1.550492385742e-03 1.189328986090e-04 0.0 
1.189328986090e-04 7.800235903878e-03 0.0 
0.0 0.0 -1.148445367820e-03 
9.452528930191e-04 -2.939486558072e-03 0.0 
-2.939486558072e-03 5.700922820308e-04 0.0 
0.0 0.0 -6.494336464500e-04 
0.0 0.0 0.0 
0.0 0.0 0.0 
0.0 0.0 0.0 
-1.577256117848e-03 6.886097405366e-05 0.0 
6.886097405366e-05 6.718118974100e-03 0.0 
0.0 0.0 -9.668795991591e-04 
-7.257532866393e-04 2.108017519290e-03 0.0 
2.108017519290e-03 4.551210106726e-03 0.0 
0.0 0.0 -1.258714341260e-03 
-1.539880904137e-03 1.881264573762e-03 0.0 
1.881264573762e-03 8.091722768049e-03 0.0 
0.0 0.0 -1.263997700767e-03 
-1.584367033562e-03 2.539188043181e-04 0.0 
2.539188043181e-04 6.423614681133e-03 0.0 
0.0 0.0 -9.199601189493e-04 
1.149887053528e-03 2.260371255349e-03 0.0 
2.260371255349e-03 -3.607458547944e-04 0.0 
0.0 0.0 -3.382033708860e-04 
-1.352077778871e-03 3.162162671945e-03 0.0 
3.162162671945e-03 6.429958482634e-03 0.0 
0.0 0.0 -1.221038716794e-03 
-1.328731786449e-03 -9.755978743980e-04 0.0 
-9.755978743980e-04 4.177204897338e-03 0.0 
0.0 0.0 -1.017329335709e-03 
-1.052088232510e-03 3.182318808270e-03 0.0 
3.182318808270e-03 5.489904176315e-03 0.0 
0.0 0.0 -1.208939113964e-03 
-2.749523466846e-04 3.333334303576e-04 0.0 
3.333334303576e-04 3.590145673266e-03 0.0 
0.0 0.0 -1.203806565432e-03 
-3.547112860327e-05 1.103651325060e-03 0.0 
1.103651325060e-03 3.547112860327e-05 0.0 
0.0 0.0 0.0 
-1.710135402111e-03 -2.140528936374e-04 0.0 
-2.140528936374e-04 5.062773823412e-03 0.0 
0.0 0.0 -1.067873332563e-03 
6.585939474405e-04 -9.144432273007e-04 0.0 
-9.144432273007e-04 2.765533765623e-04 0.0 
0.0 0.0 -2.242399343496e-04 
-1.352905233575e-03 -1.915199808028e-03 0.0 
-1.915199808028e-03 5.962667998270e-03 0.0 
0.0 0.0 -1.263714160583e-03 
-1.428737268169e-03 -6.941057894653e-04 0.0 
-6.941057894653e-04 4.390777467220e-03 0.0 
0.0 0.0 -1.028704531826e-03 
-1.557460328486e-03 1.015181819095e-03 0.0 
1.015181819095e-03 4.403153261304e-03 0.0 
0.0 0.0 -7.112890630984e-04 
-1.346425769997e-03 3.815725794878e-05 0.0 
3.815725794878e-05 4.612334605524e-03 0.0 
0.0 0.0 -6.600000000000e-04 

SCALARS node_materi_plasti_kappa_shear float
LOOKUP_TABLE default
2.115083374134e-03
3.458023789683e-03
4.967886194113e-03
5.876066285134e-03
1.429593561868e-03
9.260891180627e-04
9.750663137551e-04
1.375519170543e-03
1.749514182145e-03
2.072909783402e-03
2.372334959694e-03
2.646556194044e-03
2.900020015941e-03
3.146970300908e-03
3.414657029732e-03
3.664527045737e-03
3.866039465253e-03
4.132559423194e-03
4.398804352871e-03
4.605615939913e-03
4.743184926544e-03
4.864835234233e-03
4.967891461667e-03
5.874817732443e-03
5.871659258458e-03
5.865996944230e-03
5.879052454380e-03
5.875406408010e-03
5.881746665879e-03
5.893121739855e-03
5.904403498293e-03
5.911667380715e-03
5.942687471040e-03
5.945547502064e-03
5.964504727329e-03
5.990682248078e-03
6.003086871528e-03
6.009687630856e-03
6.018022142948e-03
6.013722829185e-03
6.018405848819e-03
6.000999157977e-03
5.961878918865e-03
5.908140669358e-03
5.805875616932e-03
5.680054112450e-03
5.512945864727e-03
5.326235031303e-03
5.099814575695e-03
4.848871496600e-03
4.578436030419e-03
4.312126051031e-03
4.068983510438e-03
3.878948019144e-03
3.696536407386e-03
3.610414615740e-03
3.648906839705e-03
3.740049181565e-03
3.899047133921e-03
4.078094335185e-03
4.265058537564e-03
4.435125269456e-03
4.594665148187e-03
4.735181100800e-03
4.838272090162e-03
4.913247143246e-03
4.935696440884e-03
4.963163630605e-03
4.970148499816e-03
4.972729571996e-03
4.968771048834e-03
4.969260551934e-03
3.740141790492e-03
4.058111443788e-03
4.339280484927e-03
4.600412294281e-03
4.861219744616e-03
5.105119180278e-03
5.341101545075e-03
5.553418984263e-03
5.788796962491e-03
5.384342365027e-04
3.540835783254e-03
1.683415262368e-03
1.806164222754e-03
1.988465623784e-03
1.960646228179e-03
2.080219020031e-03
2.392787930825e-03
2.723536012173e-03
2.974459739541e-03
3.282414047884e-03
3.264120639559e-03
3.399382940078e-03
3.415840330809e-03
3.424362395235e-03
3.424497136894e-03
3.479931295206e-03
3.440294557840e-03
3.439848037433e-03
3.453307638175e-03
3.471621284897e-03
3.481974088033e-03
3.486271779339e-03
3.492543524408e-03
3.498742868845e-03
3.518045244631e-03
0.0
0.0
0.0
0.0
0.0
1.744449562148e-04
3.008916063011e-04
4.050478665291e-04
5.046139784359e-04
6.936516565607e-04
8.134086808571e-04
1.035447660179e-03
1.317664285716e-03
1.556461179225e-03
1.698703308833e-03
1.829256340020e-03
1.936274606327e-03
2.057713747761e-03
2.160946537055e-03
3.323718248556e-03
3.377910260417e-03
3.401946888740e-03
3.384225167878e-03
3.376545160652e-03
3.367724383354e-03
3.355955769880e-03
3.347419378678e-03
3.337626098989e-03
3.332052707143e-03
3.324143942125e-03
3.318022745298e-03
3.317330590381e-03
3.306911685626e-03
3.285186702187e-03
3.250705840562e-03
2.176684508552e-03
1.474374331820e-03
1.940173948538e-03
1.976172725544e-03
2.018544812754e-03
2.257702925448e-03
2.595112877480e-03
2.855195681536e-03
3.128649835258e-03
3.410222241003e-03
1.792071878644e-03
3.375143360345e-03
7.233637867985e-04
1.036141330497e-04
4.185730067683e-03
2.132887875458e-03
3.290669112102e-03
3.943090107724e-03
2.459850990970e-03
5.049081016827e-03
3.049657566422e-03
4.807738799368e-03
1.182564866658e-03
5.746835578076e-03
3.688122146157e-03
2.243660734344e-03
3.956138881533e-03
5.918594875086e-03
5.957497874511e-03
5.833020523938e-03
5.849817635203e-03
5.907569221224e-03
3.796891756948e-03
3.753148626160e-03
3.750719424971e-03
4.728883318265e-03
4.949356106529e-03
0.0
1.446675358332e-03
4.662329876841e-03
3.701848086155e-03
1.172285973879e-03
5.916122430582e-03
4.554740200655e-03
5.468890302383e-03
3.503959695460e-03
3.612570973627e-03
1.012610592318e-03
3.764133124860e-03
4.509011244357e-03
5.226961181745e-03
8.281022762432e-04
2.786147332295e-03
5.862108365073e-03
2.293034409321e-03
2.118172696952e-03
2.814022264942e-03
3.328976841209e-03
1.807570525370e-03
4.215679675405e-03
4.988678889666e-03
1.603073179023e-03
5.647207016452e-03
3.826980774528e-03
3.959485929510e-03
4.093805969592e-03
4.237157459642e-03
4.355175514086e-03
4.475551541186e-03
4.360600218784e-03
4.584917723766e-03
4.472803770017e-03
4.603457862675e-03
4.678779703983e-03
4.566901197709e-03
4.755547519284e-03
4.640471696753e-03
4.457539912409e-03
4.538567241607e-03
4.334573614265e-03
4.420847848507e-03
4.584491396975e-03
4.467742894371e-03
4.290813753397e-03
4.341561214995e-03
4.161369484108e-03
4.203844918485e-03
4.020961676830e-03
4.033609205765e-03
4.190038035743e-03
3.995998885876e-03
3.816070395907e-03
3.728966813226e-03
3.537030536043e-03
3.407128807490e-03
3.586398617854e-03
3.288807272957e-03
3.252863900070e-03
3.170185754012e-03
3.233111113295e-03
3.074120756272e-03
3.162643393988e-03
2.933378461356e-03
2.797468942969e-03
2.619962109437e-03
2.778421306725e-03
2.482787310082e-03
2.288870685995e-03
2.245276885126e-03
2.009188259652e-03
2.106063465321e-03
2.298880449605e-03
2.277186157407e-03
2.045146607384e-03
2.269833337432e-03
2.492081268530e-03
2.449252250951e-03
2.235847836527e-03
2.412279828812e-03
2.543747264894e-03
2.600115002725e-03
2.727482019444e-03
2.938942653524e-03
2.800953391655e-03
3.099410076939e-03
3.236731448007e-03
3.326718393122e-03
3.458435113975e-03
3.182252973246e-03
3.349632840797e-03
3.182734544931e-03
3.297058188961e-03
3.395874895856e-03
3.084763359842e-03
2.947638229530e-03
3.173599872694e-03
3.367971322397e-03
2.907366739478e-03
2.989778207621e-03
2.681037591212e-03
3.273090083598e-03
4.583977419968e-03
2.763122244056e-03
2.422279070482e-03
2.341976270933e-03
2.055104190934e-03
4.487857016271e-03
4.743988105410e-03
4.617567667593e-03
4.883368050274e-03
4.763228887328e-03
2.160659489003e-03
4.890919826071e-03
4.994559216403e-03
4.077898647515e-03
3.620014606063e-03
2.026865546520e-03
3.041451028518e-03
2.832922892333e-03
3.077663964186e-03
3.380542676541e-03
3.577929148800e-03
3.502531489785e-03
3.663458989421e-03
3.546277218969e-03
3.702657791091e-03
3.786178392521e-03
3.850978684801e-03
3.897450996605e-03
3.504687425170e-03
3.291824593051e-03
3.999992240266e-03
4.016767369501e-03
4.146857594668e-03
4.147424783067e-03
3.977096144328e-03
4.088166746606e-03
3.903561376438e-03
1.647610095171e-03
1.670364952503e-03
1.200482357020e-03
1.361632881091e-03
1.080278838397e-03
1.418148903541e-03
1.352867822665e-03
1.212666352797e-03
4.813044669928e-03
2.629702736151e-03
2.873791510621e-03
2.692884768804e-03
2.922961960319e-03
2.693279210870e-03
2.967619989366e-03
2.640231682294e-03
2.442231823403e-03
2.256451765602e-03
2.304389301660e-03
1.970174595809e-03
2.413972446824e-03
4.105974986965e-03
1.752978929951e-03
1.881015725757e-03
2.212471553438e-03
1.986920103444e-03
4.283844059938e-03
3.257008008793e-03
2.972866264147e-03
1.546774196166e-03
1.779410363677e-03
2.938187575973e-03
3.188246772319e-03
5.018824155785e-03
4.900262887059e-03
3.011629305590e-03
1.908912131209e-03
3.906913380700e-03
1.895281348439e-03
4.211749337744e-03
4.409990212532e-03
3.799088406628e-03
2.355436507833e-03
2.649299599465e-03
2.548634680734e-03
2.876527123569e-03
2.844168383616e-03
3.212913817799e-03
3.129285464298e-03
3.337589162415e-03
3.439166685576e-03
3.438974933722e-03
3.303340296455e-03
3.181680302338e-03
3.085186834318e-03
2.829834518630e-03
4.432489689449e-03
1.483659745450e-03
4.217722169449e-03
3.341461549787e-03
1.739764648709e-03
5.152372939051e-03
5.035369681437e-03
4.778294671962e-03
4.917428704147e-03
5.167012334313e-03
5.050565403691e-03
4.795745429522e-03
4.929418857156e-03
4.668419815856e-03
4.805864584515e-03
5.058823087727e-03
4.939281816885e-03
4.682797093272e-03
4.818002280012e-03
4.556116505805e-03
4.690388347301e-03
4.950293242362e-03
1.552403935002e-03
1.574322739071e-03
1.877343647282e-03
2.891197733424e-03
3.092514519054e-03
3.276732472821e-03
3.305456961863e-03
4.827759947093e-03
5.081593595751e-03
3.163419766099e-03
3.211991907021e-03
5.265451275810e-03
4.339993450944e-03
4.108622684801e-03
3.351327486416e-03
3.414147971325e-03
3.173366515349e-03
3.179934844101e-03
3.412464276917e-03
2.933374923412e-03
3.048978120526e-03
5.184623155998e-03
2.285735175407e-03
1.964820094476e-03
4.525309975274e-03
1.417417973454e-03
4.266164728390e-03
4.121971091758e-03
4.284403972733e-03
4.105296115865e-03
4.321717176209e-03
4.160575813868e-03
3.892235684062e-03
2.811745021311e-03
3.984494120429e-03
4.554222149543e-03
2.269911801835e-03
3.028107761873e-03
1.410044382037e-03
2.660796390280e-03
1.642549087339e-03
2.019881341573e-03
3.191265930906e-03
4.449437667659e-03
4.556738233615e-03
3.151991049237e-03
3.330144195961e-03
2.615443417616e-03
4.499456307731e-03
4.528967056282e-03
4.393751219098e-03
1.261306655149e-03
2.904934706402e-03
5.293699107592e-03
3.240583809678e-03
3.137492166912e-03
1.326987575174e-03
7.734678318549e-04
4.951662652887e-03
5.199111337285e-03
3.458302994746e-03
3.498814191065e-03
2.813032372855e-03
2.488302007795e-03
5.318301846901e-03
1.850643022250e-03
1.900800904807e-03
3.131639576739e-03
3.027700141336e-03
2.957799237182e-03
3.061527549215e-03
2.613926403272e-03
1.775348210848e-03
3.082947151770e-03
5.403046930315e-03
3.649594930354e-03
3.629629087466e-03
3.791790756931e-03
2.266631384107e-03
3.561658471125e-03
4.464949176004e-03
4.749074667133e-03
4.803902692703e-03
3.195369272568e-03
2.992485238832e-03
2.855378574955e-03
2.741778446605e-03
4.234794425954e-03
3.108532495677e-03
4.079034698662e-03
3.940552543924e-03
3.815579800974e-03
3.588995439569e-03
3.476421980838e-03
3.087431809056e-03
2.199698414150e-03
3.435465997500e-03
3.826462726601e-03
3.261674752205e-03
5.297684949133e-03
5.419151855637e-03
4.414057560104e-03
4.275097580202e-03
1.647451024479e-03
1.675335589964e-03
3.606226530559e-03
3.650868628108e-03
5.391618930748e-03
5.502109459713e-03
5.372609048885e-03
2.675369016162e-03
2.527778908692e-03
1.410070067518e-03
1.620197969852e-03
3.704561518482e-03
1.421863687494e-03
4.706685273956e-03
4.622442071867e-03
4.666940698600e-03
3.076866095470e-03
3.811195532018e-03
3.440349836705e-03
3.147617514472e-03
3.657267983904e-03
3.541815125300e-03
3.706500821150e-03
3.438152628286e-03
2.775184890772e-03
2.746720812631e-03
4.705097558488e-03
4.212391869045e-03
5.032584068110e-03
5.060540397521e-03
2.962566848859e-03
2.515241370603e-03
2.118397082965e-03
3.180431248684e-03
5.518846616804e-03
3.789817242396e-03
3.891070071717e-03
3.945571653991e-03
5.986403847301e-04
2.213189616717e-03
5.440739059520e-03
2.585939956196e-03
2.577091143894e-03
2.623503978078e-03
4.897871729883e-03
3.686454329978e-03
4.752961752010e-03
3.733356492718e-03
5.550112872523e-03
3.071330919958e-03
3.165660564610e-03
2.415063932661e-03
5.310812901883e-03
5.569340241546e-03
4.247537830652e-03
4.096212274891e-03
4.376310335557e-03
2.295285634796e-03
1.760148970824e-03
5.307204263575e-03
2.597022010623e-03
2.677083653507e-03
2.361042937549e-03
2.540509620076e-03
3.590752619766e-03
3.561980325172e-03
4.687546968051e-03
4.862462070621e-03
4.404636295064e-03
2.304172143242e-03
2.399216396593e-03
1.964677543140e-03
5.518361070662e-03
5.664420780412e-03
2.775557848670e-03
2.950132041529e-03
2.770175388850e-03
5.630497223971e-03
4.810959073252e-03
4.708255592783e-03
1.439105625328e-03
1.764440458605e-03
2.782344288704e-03
2.711314613078e-03
5.598196232206e-03
5.483018715217e-03
5.749000539319e-03
1.876891076347e-03
3.340823531716e-03
3.019076182411e-03
2.638636300015e-03
3.496239648933e-03
3.233921457243e-03
3.509435497577e-03
4.060457021751e-03
9.830298147041e-05
5.472024458089e-03
4.113394862956e-03
0.0
3.974022231900e-03
4.142147385999e-03
3.808811843470e-03
1.512139063608e-03
4.035840610883e-03
4.228908811524e-03
1.229665042051e-03
5.727754258707e-03
1.213722886229e-03
1.289130077108e-03
4.190343840825e-03
4.208177283858e-03
4.453725484854e-03
4.415818037714e-03
4.236650972425e-03
4.433395698974e-03
3.960847876624e-03
4.646929544122e-03
4.602784854752e-03
4.854292446809e-03
3.246379902709e-03
2.751258169961e-03
2.634703286177e-03
2.390161293581e-03
5.366413333148e-03
5.305369359066e-03
4.571502884887e-03
4.361148070354e-03
3.986570332512e-03
3.958169901241e-03
4.225562744729e-03
4.178369498049e-03
4.446132963819e-03
4.399693690965e-03
4.649688467265e-03
4.553994310107e-03
2.395247212063e-03
3.489844342941e-03
2.935834930029e-03
2.507685734422e-03
3.320342588166e-03
3.002197588997e-03
3.920773109245e-03
3.240450602112e-03
5.870937815019e-03
0.0
3.323452107102e-04
3.218749665587e-03
3.600131537244e-03
2.907036869022e-03
2.836905823125e-03
2.270773315379e-03
1.834790987996e-03
2.673096930044e-03
4.690114924130e-03
2.348836148975e-03
4.492676789655e-03
3.205482778443e-03
3.817317219374e-03
2.948492527326e-03
2.849084286571e-03
4.354187352303e-03
4.105094102283e-03
3.949385469094e-03
3.043885708512e-03
3.025811206364e-03
2.606730506197e-03
4.199509327046e-03
5.239720060421e-03
5.342311723545e-03
5.568723597318e-03
5.436074129988e-03
5.195127512815e-03
5.275945829576e-03
5.522846822361e-03
5.362101483362e-03
5.654790167380e-03
5.418798555265e-03
5.183358795615e-03
5.228039527145e-03
5.462723589554e-03
5.010149217662e-03
3.394314338742e-03
3.254416177728e-03
3.998143781564e-04
1.780285334436e-03
3.960367887196e-03
5.943039136803e-03
5.959345631699e-03
3.141346465330e-03
5.620347987340e-03
4.084459886071e-03
2.498622170437e-03
5.268940025094e-03
5.099701809653e-03
4.951938385870e-03
4.853275658762e-03
5.939990338712e-03
4.510478805277e-03
4.274617599746e-03
1.914060081792e-03
2.484209945367e-03
2.639018446471e-03
5.114013007791e-03
3.400229055209e-03
2.914794698409e-03
2.950236209629e-03
2.471629201444e-03
3.451405133461e-03
5.898428211788e-03
5.845499826008e-03
3.178797580669e-03
2.960279401288e-03
2.804058035340e-03
2.729987471253e-03
2.829725808593e-03
2.578048860295e-03
2.561856093753e-03
2.441038645177e-03
5.056780879738e-03
3.797514540817e-03
3.350528560522e-03
3.070190277767e-03
2.914035417259e-03
3.410817836896e-03
3.523130452731e-03
3.651707279838e-03
3.259955241283e-03
3.906281668705e-03
3.999951674760e-03
1.514180247365e-03
3.455226154399e-03
3.780489020667e-03
4.041242521720e-03
4.062468817485e-03
4.304541709678e-03
4.049230948442e-03
3.629888373411e-03
3.687995609435e-03
3.556481715217e-03
3.766062809759e-03
3.630392003192e-03
3.425625743275e-03
3.859887208052e-03
3.712754465682e-03
3.753295504860e-03
5.944650398121e-04
2.225590346816e-03
2.127823725117e-03
2.979469021594e-03
2.824219377905e-03
3.230470095965e-03
3.141720754719e-03
1.550829825203e-03
7.467435189644e-04
1.647650571366e-03
6.781160949691e-04
1.418844655901e-03
2.293180220520e-03
2.042650195457e-03
4.943618431220e-03
3.031335723016e-03
2.945155604069e-03
2.688743593994e-03
2.875725181900e-03
3.142994710358e-03
2.523324995075e-03
2.457510238830e-03
1.510421340239e-03
1.007815092101e-03
1.077602730068e-03
9.323160320548e-04
9.716390507349e-04
1.014619391924e-03
1.008787792094e-03
1.356424777816e-03
1.016122513265e-03
1.104929402575e-03
1.269761046994e-03
4.987755442147e-03
5.116267723268e-03
4.373987183766e-03
3.768398534654e-03
7.723067608076e-04
5.801414033109e-03
5.849888523554e-03
5.842497446698e-03
4.794097655679e-03
4.842845514710e-03
5.795857190058e-03
2.602280117318e-03
5.684608119029e-03
5.426766964233e-03
2.915293754372e-03
2.687040126660e-03
4.231633519162e-03
3.882386612765e-03
4.556515040672e-03
3.998756045770e-03
4.293387971553e-03
3.074535552154e-03
1.408470089399e-03
4.539066931421e-03
4.423048734156e-03
5.069081138623e-03
2.521812465648e-03
3.361884437641e-03
1.678049688451e-03
5.074061553586e-03
3.958676471230e-03
3.095099427902e-03
3.226856089265e-03
2.810734054587e-03
2.838974017310e-03
3.275246495708e-03
3.484344474013e-03
3.705978157807e-03
5.196157012198e-03
1.018518931270e-03
3.521375643282e-03
3.706077620756e-03
4.658000838490e-03
1.709680317594e-03
3.305261692782e-03
5.177694957922e-03
5.612493104205e-03
4.353675085413e-03
1.412398444283e-03
4.259060800004e-03
3.477784717748e-03
5.132413977016e-03
2.272689532028e-03
1.816489196477e-03
3.846604393139e-03
3.494167407997e-03
5.528278511332e-03
3.146089818610e-03
1.957139825605e-03
1.112448474458e-03
2.360079505855e-03
4.023485214536e-03
2.432815649017e-03
5.414327495685e-03
4.449676466395e-03
2.421354826549e-03
5.279237453520e-03
2.481134471885e-03
2.154599998102e-03
3.850201562972e-03
4.337013816297e-03
4.689567346140e-03
3.889632788579e-03
4.106706360112e-03
3.777078850776e-03
2.080073589128e-03
3.024091218619e-03
4.636084587167e-03
4.310138882828e-03
5.639613987774e-03
3.640972516568e-03
4.095996415080e-03
5.509310551577e-03
3.587895264237e-03
1.596224348258e-03
2.654907617398e-03
2.518196502036e-03
2.963465931010e-03
3.699806971781e-03
5.746687556824e-03
4.270512341207e-03
2.658558888212e-03
1.531489976852e-03
3.642720607827e-03
4.434127154033e-03
1.755325851135e-03
2.085706409627e-03
3.490851329931e-03
4.839928513279e-03
3.143753996542e-03
4.591157827228e-03
1.995758212990e-03
3.213796841356e-03
3.698867822439e-03
4.783484472751e-03
2.274372036269e-03
3.942041855717e-03
2.018129477521e-03
3.179171001688e-03
3.766024258519e-03
4.461967294443e-03
5.932012927013e-03
2.263421662546e-03
4.710985723029e-03
3.694491554536e-03
2.635139483983e-03
1.025903351167e-03
3.364049018946e-03
3.741140459926e-03
2.496086040746e-03
2.247981960543e-03
3.447314890980e-03
3.806063609485e-03
2.443637327429e-03
3.889607978100e-03
2.932212877137e-03
4.809565923031e-03
3.991122142150e-03
4.535682597544e-03
1.253579093275e-03
3.692076032167e-03
4.710605835282e-03
2.989317964917e-03
2.692080032987e-03
5.041460301469e-03
2.649271473601e-03
2.763935828314e-03
4.635607043239e-03
3.377136231024e-03
2.886852932384e-03
2.656221383019e-03
2.841982051278e-03
2.546121946090e-03
2.280710634061e-03
2.448224017802e-03
4.844932991548e-03
1.159538546380e-03
4.958406181658e-03
2.170695742773e-03
2.635116820678e-03
3.060192089563e-03
4.490482294088e-03
2.676098572190e-03
1.933023820066e-03
2.768539009112e-03
2.773761821372e-03
2.620450107336e-03
2.685714993396e-03
5.648300186419e-03
2.938653539912e-03
5.823614188445e-03
4.963188208300e-03
3.932121989893e-03
2.324149862710e-03
0.0
2.514548860694e-03
2.801591293186e-03
4.851561224056e-03
3.937231005468e-03
2.729494295403e-03
5.675085357911e-03
4.803426685540e-03
4.862248751244e-03
2.171293786245e-03
3.009255413908e-03
5.428982077181e-03
3.693412385959e-03
1.283308417236e-03
4.241990484630e-03
2.118254558368e-03
2.377043969348e-03
2.382468483149e-03
2.413239708947e-03
2.697664909012e-03
2.126804265286e-03
2.932528478253e-03
3.975655703172e-03
3.423996743188e-03
2.040734890307e-03
5.723862858496e-03
4.029709976472e-03
4.729446121623e-03
3.643538952677e-03
2.324384274866e-03
4.240145590125e-03
5.248251932663e-03
5.065638731077e-03
4.865415511008e-03
3.950525462167e-03
5.659251463191e-03
2.734727135404e-03
5.648629554702e-03
5.043134290996e-03
4.301884988432e-03
4.260018092810e-03
4.871863521837e-03
5.738997361023e-03
2.142169266280e-03
4.855264715639e-03
2.941329875457e-03
4.982839675412e-04
4.155649936064e-03
5.251942821196e-03
4.831609780295e-03
9.013000089023e-04
1.077083856090e-03
3.817677234665e-03
5.571067232883e-03
3.300048357497e-03
5.920327576545e-03
7.577862853330e-04
3.663422898644e-03
1.060195543772e-03
4.951255767582e-03
5.712619248511e-03
3.070814862917e-03
3.822820158157e-03
2.186156026243e-03
4.538463984820e-03
1.851321241038e-03
5.716697476405e-03
3.395600169627e-03
5.810236312995e-03
3.850312672382e-03
0.0
4.395921499424e-03
2.651166453379e-03
3.693193394849e-03
5.779881690989e-03
2.632058365002e-03
1.305216945228e-03
5.834411797515e-03
1.794472957361e-03
3.663155821034e-03
4.974463401011e-03
1.126337765141e-03
4.139350774126e-03
5.652422135997e-03
3.542221846802e-03
5.289169342971e-03
3.063748398770e-03
0.0
4.627165150353e-03
3.844266386451e-03
5.798941796910e-03
4.453871606854e-03
2.441774290393e-03
5.465528199286e-03
3.248665564557e-03
4.976193501889e-03
2.571640358639e-03
1.109207380501e-03
3.751244995352e-03
1.075195837059e-03
4.615840899057e-03
3.326084611542e-03
3.382777717582e-03
3.270124677663e-03

SCALARS node_materi_plasti_phimob float
LOOKUP_TABLE default
-5.273564686384e+01
-1.899097005330e+01
2.066411557831e+01
1.786413329564e+01
-2.984558116433e+01
-1.502298060109e+00
1.188766644730e+01
1.489417023235e+01
1.350418231578e+01
1.490051330358e+01
1.616868168411e+01
1.713295028284e+01
1.788272412679e+01
1.849523302733e+01
1.901213807281e+01
1.938365011504e+01
1.965141864678e+01
2.003601588869e+01
2.074591773567e+01
2.114268271554e+01
2.106747612413e+01
2.094047781443e+01
2.079762083014e+01
1.793329337184e+01
1.793165698109e+01
1.797350427009e+01
1.802761475587e+01
1.805950851135e+01
1.817519359937e+01
1.829089886644e+01
1.846878966004e+01
1.867675436741e+01
1.890966621478e+01
1.913078546115e+01
1.948604226654e+01
1.982604324528e+01
2.030737625953e+01
2.063225435740e+01
2.105138536132e+01
2.136471997876e+01
2.163543876187e+01
2.191349484003e+01
2.210868718234e+01
2.223061422979e+01
2.225009293424e+01
2.226489729760e+01
2.221974495907e+01
2.213788582484e+01
2.203517938314e+01
2.192940189794e+01
2.181316708796e+01
2.169612217929e+01
2.154472684790e+01
2.147315844611e+01
2.139040869376e+01
2.128074601068e+01
2.119496507101e+01
2.112105912057e+01
2.103797978718e+01
2.098834575934e+01
2.092785903262e+01
2.088877909724e+01
2.084880009730e+01
2.079776062719e+01
2.074936633395e+01
2.072348573195e+01
2.074900457182e+01
2.068050903990e+01
2.068238320414e+01
2.066132276498e+01
2.065453573514e+01
2.065583476694e+01
-1.053585532046e+01
-1.045660211215e+00
4.929453987981e+00
8.669718406859e+00
1.136120179074e+01
1.334624356713e+01
1.491206319766e+01
1.618309548234e+01
1.724401477513e+01
1.882203518694e+01
3.487031444900e+00
3.424173833906e+01
2.999142479953e+01
2.961233590022e+01
2.962458324016e+01
2.795337033651e+01
2.529344760015e+01
2.369399862730e+01
2.400267787281e+01
1.859740754985e+01
-2.086966843029e+01
-1.939552228973e+01
-1.941426273937e+01
-1.947147862159e+01
-1.931966160097e+01
-1.802783419199e+01
-1.871782911957e+01
-1.822073310152e+01
-1.783022642661e+01
-1.707853898432e+01
-1.612550644522e+01
-1.458624540651e+01
-1.231565061668e+01
-8.878543018867e+00
-4.054023860190e+00
1.013294280838e+01
8.736793627394e+00
9.411302141108e+00
1.032936267990e+01
1.145150187705e+01
2.688641297155e+00
-2.372197715319e+01
-3.887017894679e+01
-4.626235528843e+01
-4.898137338780e+01
-4.957354924657e+01
-5.003406798066e+01
-5.157147268394e+01
-5.309064682556e+01
-5.415639453715e+01
-5.505489398084e+01
-5.555367840844e+01
-5.554691373095e+01
-5.558606371672e+01
1.287627941496e+01
-5.213858278973e+00
-1.309709305122e+01
-1.766267081843e+01
-2.026649816405e+01
-2.158276002205e+01
-2.209755785926e+01
-2.233865590449e+01
-2.226734651561e+01
-2.239521430526e+01
-2.236838353563e+01
-2.233189591181e+01
-2.251424417688e+01
-2.258153627321e+01
-2.231936490705e+01
-2.082382721807e+01
3.499586537224e+01
3.188221511235e+01
2.966116148674e+01
2.937666689453e+01
2.993575061175e+01
2.755629156916e+01
2.404622016571e+01
2.345155295000e+01
2.437277290769e+01
1.389203007889e+01
2.765768274472e+01
2.171177542626e+01
-3.473188210651e+01
1.323588072814e+01
2.128108037493e+01
2.524005245710e+01
1.879543598828e+01
2.211459442306e+01
2.377329049954e+01
2.237964104853e+01
2.169497300235e+01
2.094914328011e+01
-3.844412300354e+01
2.213176347432e+01
6.711173043969e+00
1.567348416884e+01
1.977531398851e+01
2.121479715026e+01
1.944413224387e+01
1.758197689739e+01
1.772051245295e+01
1.840192552328e+01
-1.541436643440e+00
-9.580150093124e+00
-1.061434871575e+01
1.012991316369e+01
2.083565191069e+01
1.061841198532e+01
-3.724730890517e+01
2.112870981283e+01
-1.230107302205e+01
1.383113347714e+01
2.015997876128e+01
2.224588009686e+01
2.235380389449e+01
2.198925819584e+01
2.150216791128e+01
-1.235831791825e+00
-6.801687288667e+00
2.118653847496e+01
1.415103394193e+01
-3.753435795923e+01
1.756593117616e+01
1.764870207703e+01
2.416531388591e+01
2.595198288894e+01
2.205936975836e+01
1.819483323703e+01
3.205221505209e+01
2.745134986068e+00
2.076283724243e+01
-3.833526602231e+01
1.668468366374e+01
5.007985047572e+00
8.123320418345e+00
6.958349170970e+00
1.043108818217e+01
1.005794569115e+01
1.238449897036e+01
1.269251771950e+01
1.417065284859e+01
1.444338011490e+01
1.230450165504e+01
1.558798411929e+01
1.596361652550e+01
1.686155509357e+01
1.758897170005e+01
1.678568277621e+01
1.860824530538e+01
1.772360008797e+01
1.947590571281e+01
2.009682496029e+01
2.095084693789e+01
2.019093007344e+01
2.162347152701e+01
2.081655579373e+01
2.216457117766e+01
2.142414186404e+01
2.267250751912e+01
2.333349845597e+01
2.379780927220e+01
2.325908423663e+01
2.429549039165e+01
2.394010855593e+01
2.497291651377e+01
2.520108671926e+01
2.572358735686e+01
2.552997232359e+01
2.613839930432e+01
2.597136292508e+01
2.652591989233e+01
2.625344628089e+01
2.671122149352e+01
2.691577746411e+01
2.700135465946e+01
2.669566929584e+01
2.685430654333e+01
2.712755196516e+01
2.684135489939e+01
2.706251975070e+01
2.666688353492e+01
2.637327369513e+01
2.606965718428e+01
2.628995299689e+01
2.559453865085e+01
2.532068119671e+01
2.478626619421e+01
2.504017479182e+01
2.415077193424e+01
2.392758740494e+01
2.309856574778e+01
2.320764347490e+01
2.210595800138e+01
2.182488725505e+01
2.093139695755e+01
2.135336863308e+01
2.024486360337e+01
2.081738865812e+01
1.969291732066e+01
1.911232496846e+01
1.849706336027e+01
1.842484566810e+01
2.590570024526e+01
1.774714611399e+01
1.777935953086e+01
1.808802949267e+01
1.875994092557e+01
1.727063273115e+01
1.770192724384e+01
1.673620478283e+01
2.561515576128e+01
2.128730820178e+01
1.726038826076e+01
1.611812350184e+01
1.541934124468e+01
1.452153539852e+01
1.023776920349e+01
1.245629793465e+01
1.046100769092e+01
1.280135385234e+01
1.112056611096e+01
1.538582456033e+01
1.659232344193e+01
1.425747832116e+01
1.932867613140e+01
2.282731705780e+01
2.720384161069e+01
1.812686783265e+01
1.775462334905e+01
1.842886544480e+01
2.185598106432e+01
2.150588713753e+01
2.253271027383e+01
2.226610428143e+01
2.311707886965e+01
2.279228304782e+01
2.205199343401e+01
2.249668022980e+01
2.187147724095e+01
2.316488235608e+01
2.359595840687e+01
2.222844337429e+01
2.172999654468e+01
2.198187543745e+01
2.162148702961e+01
2.101089044549e+01
2.100034199659e+01
2.031548879056e+01
2.703975738278e+01
2.705263476232e+01
2.676259821460e+01
2.656107449150e+01
2.599069202550e+01
2.558886258972e+01
2.506166368596e+01
2.535841630671e+01
1.833508080460e+01
2.653746535397e+01
2.633938551156e+01
2.617695911661e+01
2.582973372101e+01
2.572308936877e+01
2.513086456623e+01
2.512823366496e+01
2.546816296714e+01
2.496418254475e+01
2.496456315771e+01
2.471233885985e+01
2.417282738120e+01
2.427157754309e+01
2.614121803147e+01
2.511716693999e+01
2.554000952122e+01
1.348829554791e+01
2.153264447243e+01
2.332024425749e+01
2.380404580841e+01
2.456266851334e+01
1.341106434584e+01
2.431184425283e+01
2.417198756696e+01
1.329120336560e+01
1.187096132890e+01
2.334328543915e+01
1.438149642793e+01
2.242615884973e+01
2.464553390832e+01
2.103569245676e+01
2.143973285716e+01
2.116053801178e+01
2.464781380879e+01
2.498101714973e+01
2.459235519000e+01
2.336767234849e+01
2.283154128486e+01
2.148525517655e+01
2.246140188863e+01
2.047697882878e+01
1.904591437180e+01
1.801746236540e+01
1.966443200177e+01
1.727899605628e+01
1.544027682853e+01
1.495702088640e+01
2.154450752888e+01
2.483303622076e+01
1.577232951966e+01
2.289393130067e+01
2.424805954962e+01
1.387671251213e+01
1.269027409160e+01
1.032112630427e+01
1.143751521753e+01
1.353340690777e+01
1.249022392521e+01
1.011174027841e+01
1.138998712313e+01
8.673633505786e+00
1.021720247945e+01
1.253241082388e+01
1.156125363454e+01
8.949817365216e+00
1.050423943911e+01
7.510970188812e+00
9.301958533119e+00
1.182731992492e+01
1.270556884573e+01
2.479958161129e+01
2.407247452733e+01
1.797359941091e+01
1.846689675727e+01
1.889858377280e+01
1.888938322160e+01
1.079965863679e+01
1.297557499288e+01
2.315761893161e+01
2.299380255061e+01
1.498522885594e+01
2.110159023318e+01
2.043484611448e+01
2.364223174711e+01
2.241052601711e+01
2.326596173890e+01
2.191043532447e+01
2.111282460730e+01
2.277908380585e+01
2.406941183371e+01
1.356206775962e+01
1.463169362663e+01
1.222715068681e+01
2.134253207249e+01
2.552300961334e+01
2.370963544733e+01
2.432601210120e+01
2.361736624407e+01
2.399478870415e+01
2.333127074864e+01
2.360396151657e+01
2.418579132764e+01
2.420246933677e+01
2.370683524920e+01
7.841805374529e+00
2.650101602541e+01
1.921270318272e+01
1.107758566056e+01
1.241798480264e+01
1.325989821143e+01
1.485119310230e+01
2.282266608882e+01
2.306923309338e+01
2.271632153176e+01
2.065537130647e+01
1.993599277337e+01
2.386467682680e+01
8.221457145840e+00
6.895348872931e+00
4.878372489271e+00
1.217645848692e+01
1.308504532932e+01
1.434501719991e+01
2.415648998322e+01
2.300025936932e+01
2.478187952667e+01
2.552003428099e+01
1.203791077053e+01
1.391375927477e+01
1.922205445275e+01
1.924974971273e+01
2.326950377148e+01
1.261829928891e+01
1.465133597994e+01
2.492383024582e+01
2.548793124164e+01
1.847688983714e+01
2.191576326858e+01
2.225610819753e+01
2.116699783618e+01
1.491229974586e+01
1.377304397838e+01
2.267985951153e+01
1.518566953803e+01
2.419789519297e+01
2.479772669916e+01
2.362231687585e+01
8.512303225268e+00
2.240716989273e+01
2.117112694266e+01
2.258856289036e+01
2.216965255746e+01
2.422197448551e+01
2.318557325384e+01
2.181651730246e+01
2.197454185779e+01
1.318278148380e+01
2.422308507302e+01
1.671022679044e+01
1.490234939681e+01
1.607899325785e+01
2.030902612319e+01
1.915820126778e+01
2.587997987755e+01
2.711439521491e+01
1.923634781850e+01
2.031195106573e+01
2.289564441063e+01
1.433998327671e+01
1.516704873145e+01
5.309150208069e+00
3.120284708667e+00
1.021954573062e+01
8.056081938974e+00
2.049314819459e+01
2.248512748182e+01
1.545900967186e+01
1.636328249392e+01
1.599636511780e+01
2.311755142620e+01
2.621758524839e+01
2.668096888325e+01
2.435727407710e+01
2.542609422416e+01
4.317078439198e+00
2.042977915150e+01
2.121002247587e+01
2.120103747426e+01
2.349119447480e+01
9.698870451822e+00
2.588315846716e+01
2.635605352793e+01
1.475890713755e+01
1.636016369258e+01
1.728027005464e+01
1.753745172616e+01
2.075865147142e+01
1.892948491484e+01
2.281046760789e+01
2.326720019768e+01
2.224284631402e+01
2.171551331177e+01
2.313924025941e+01
2.351571159212e+01
1.519158629347e+01
1.913750376381e+01
1.582852503183e+01
1.314470926384e+01
2.201459690748e+01
2.211239511753e+01
2.400028086539e+01
2.256445363490e+01
1.542552970063e+01
2.075417215842e+01
2.072224931135e+01
2.090649898881e+01
2.085608126731e+01
-1.264173634455e+01
2.105677731788e+01
1.948547980565e+01
1.602582108655e+01
2.602811836819e+01
2.455442483630e+01
2.375066933338e+01
1.467683812880e+01
1.615294093746e+01
2.218679654186e+00
-1.046999901174e+00
4.710137270422e+00
2.394111342402e+01
2.410522256471e+01
1.447493839533e+01
1.714672212108e+01
1.733672206555e+01
1.314117321103e+01
1.520762162839e+01
1.951520129606e+01
1.949671051507e+01
2.142238325663e+01
2.075558458588e+01
2.299915400415e+01
2.488943272142e+01
2.510891628832e+01
2.580737661294e+01
1.580721847415e+01
1.659795463841e+01
2.227497760976e+01
2.278908727920e+01
1.999740890065e+01
1.654006620745e+01
2.103683222365e+01
2.117674859296e+01
1.536331121941e-01
5.429023096489e+00
2.165837033193e+01
2.245120621233e+01
1.718882581026e+01
1.692607738746e+01
1.759897333663e+01
1.432628990731e+01
2.471933381788e+01
2.247584398370e+01
2.295047169486e+01
2.200297550751e+01
2.380886413043e+01
2.314036486575e+01
2.304836869171e+01
2.022167957060e+01
1.573451724735e+01
-6.385515512175e-01
1.577652166275e+01
-4.207572596965e+00
4.113844930850e-01
-8.770159565191e+00
1.404331503102e+01
-2.114510221431e+00
2.549597501654e+00
-9.562539883602e+00
1.708322096476e+01
-7.406391047162e+00
-5.410333685672e-01
2.169207862900e+01
2.178775680218e+01
2.141144107131e+01
2.150108795083e+01
2.182140625669e+01
2.154897285334e+01
-5.200529292282e+00
2.121088805312e+01
2.129528239442e+01
2.104153056994e+01
1.787651210535e+01
2.186614207730e+01
2.062854578564e+01
2.114342349768e+01
2.197307559021e+01
2.139818029818e+01
2.118846673381e+01
2.079539987781e+01
-3.726574194921e+00
-4.073303708355e+00
2.598131825141e+00
1.927188795709e+00
6.408764755264e+00
5.875616345814e+00
9.162017452978e+00
2.277346191800e+01
2.114602507106e+01
1.432268147903e+01
2.279201122881e+01
2.319076034441e+01
1.836680817472e+01
1.918057050507e+01
2.181089194105e+01
2.508420611021e+01
1.796711088931e+01
1.624169446226e+01
2.157110270811e+01
2.486733793918e+01
1.827587967881e+01
2.137120498485e+01
2.041298102968e+01
2.436893276812e+01
2.724340749679e+00
2.111062339649e+01
9.412972900033e+00
2.220582162188e+01
2.101514006086e+01
2.580185143488e+01
2.079648255249e+01
2.178055569983e+01
2.335694564889e+01
1.495238132911e+01
1.106249440677e+01
1.197021748019e+01
2.634196767942e+01
1.977823719338e+01
2.074128523165e+01
1.854221322346e+01
1.570904077076e+01
1.671336986034e+01
1.772597935888e+01
1.758104668783e+01
1.659603599134e+01
1.750379914217e+01
1.853347282587e+01
1.853974461181e+01
1.984969554345e+01
1.975393878915e+01
1.873476198775e+01
1.992069244578e+01
2.067133389347e+01
1.912940242635e+01
2.240613680021e+01
2.526995729694e+01
2.429982940173e+01
2.468185568577e+01
2.007398532343e+01
2.085406279845e+01
1.979106404797e+01
2.514735645823e+01
2.225799633699e+01
1.390784541906e+01
2.445411448639e+01
2.238005946214e+01
1.551241142870e+01
1.541848048231e+01
1.406344155806e+01
1.903079420660e+01
7.100684160133e+00
2.215219044812e+01
2.689366688632e+01
2.689610159411e+01
2.695938108521e+01
1.752268663104e+01
2.181758046941e+01
2.240718300473e+01
2.229303716776e+01
2.302933979759e+01
2.162322797455e+01
2.165228529880e+01
2.194727689473e+01
2.176007587572e+01
2.334309525564e+01
2.402243451264e+01
2.455624922888e+01
2.397288475505e+01
2.505089538665e+01
2.540785567645e+01
2.540971771601e+01
2.107000406166e+01
2.142747712974e+01
2.346675040506e+01
2.386119775748e+01
2.344554278881e+01
1.907741868551e+01
1.932211430652e+01
1.980706842731e+01
1.879323187356e+01
2.468456977003e+01
2.134154510305e+01
2.615869255322e+01
1.905099513419e+01
-4.309787923350e+00
1.695818053809e+00
4.189213204570e+00
6.895319175736e+00
2.194849106988e-01
1.951828998186e+01
1.955846806631e+01
1.931369477987e+01
1.961854897892e+01
1.938984922489e+01
1.905810799328e+01
1.968474672620e+01
1.947045837313e+01
-8.272310071183e+00
1.407435812788e+01
1.387181822759e+01
5.099555546573e+00
1.373932552574e+01
1.806319667523e+01
1.733671585860e+01
2.031788376853e+01
2.043436397911e+01
-1.730409295303e+01
-2.599527988695e+00
-2.812916566185e+01
-7.944912712172e+00
6.501241944565e+00
1.091792805083e+01
2.083503291669e+01
1.822485740921e+01
1.800280730604e+01
1.730037066459e+01
1.783863786375e+01
1.850634197242e+01
1.674058787758e+01
1.649390893686e+01
-3.729374320786e+01
-9.184937129558e+00
-1.114846425774e+01
6.532523198755e+00
6.038725356875e+00
-9.164961422113e+00
-9.332482204520e+00
-3.737710708694e+01
-1.014498104765e+01
5.168069163785e+00
-3.811923051751e+01
1.243506710812e+01
1.345726884358e+01
2.122249908736e+01
-9.576142496590e+00
-3.710956566765e+01
1.735834324419e+01
1.769995403132e+01
1.764177601542e+01
2.101021444909e+01
2.095235069584e+01
1.735940597157e+01
1.618379069750e+01
1.860006312781e+01
1.529267091514e+01
2.344834007375e+01
1.681685417868e+01
2.056209787834e+01
2.106693041304e+01
2.136295800728e+01
2.035823795467e+01
2.175446902576e+01
2.224269851176e+01
1.398907493594e+01
7.082831065742e+00
5.784980845227e+00
1.272998464350e+01
1.675822313345e+01
1.895994108077e+01
1.223122962168e+01
2.249250239573e+01
1.770619814468e+01
2.242018155881e+01
1.846571371627e+01
1.685992540698e+01
1.696916433296e+01
2.478037405564e+01
1.976678893992e+01
2.277621455312e+01
1.375696876944e+01
-3.424474570225e+01
2.288250673823e+01
2.129520664301e+01
8.682076133598e+00
2.468756149225e+01
1.615814572677e+01
1.345686162674e+01
1.673645918113e+01
5.549291807231e+00
8.208971206142e+00
2.462702629851e+00
2.223336209909e+01
1.456918396671e+01
1.598422220249e+01
2.680050371769e+01
2.207954120395e+01
1.167673815407e+01
1.588074165538e+01
2.626656786229e+01
2.381021725030e+01
2.619485165761e+01
1.629593614772e+01
2.213645294974e+01
2.715289011563e+01
1.510226425668e+01
2.286815359823e+01
2.653024941364e+01
1.451817571483e+01
2.427118355690e+01
2.427898555650e+01
1.863859515450e+01
2.280289247700e+01
1.916635173878e+01
2.473463999943e+01
2.006814876713e+01
2.248984839076e+01
2.408832745353e+01
2.413297141258e+01
9.212680314692e+00
2.324490494536e+01
1.643900438301e+01
2.159186165279e+01
2.210278400448e+01
1.597842991375e+01
1.969284515425e+01
1.369029688562e+01
2.292651292223e+01
2.590437907761e+01
2.663354910496e+01
2.038698717276e+01
1.815022849944e+01
2.181145194555e+01
2.383286578591e+01
3.013031238269e+01
1.165965103495e+01
2.155814019503e+01
2.636333523674e+01
2.390267698426e+01
1.913138894055e+01
2.262121489810e+01
1.859690746447e+01
2.135665232635e+01
2.427579910388e+01
2.515788312887e+01
-1.235899651619e+01
2.108711132106e+01
2.358265894542e+01
2.494158653825e+01
2.580325171720e+01
2.141886092204e+01
2.035443595903e+01
2.212056040654e+01
1.866427975074e+01
2.334414101560e+01
1.402383719067e+01
1.984090574158e+01
2.590429236122e+01
5.582747510039e+00
1.669415414216e+01
1.982276195016e+01
2.574825015853e+01
2.513541167123e+01
2.284596503908e+01
1.984082731289e+01
2.606387016788e+01
1.988190980212e+01
2.172982843621e+01
1.544606998932e+01
1.993811384777e+01
2.219947929258e+01
4.723969796260e+00
2.531024659892e+01
2.109722853215e+01
1.912200468075e+01
2.438969498254e+01
1.655592045677e+01
2.241634188042e+01
2.456453152208e+01
2.217520700185e+01
2.541054841819e+01
2.667676413412e+01
2.433387942038e+01
1.995123261682e+01
1.564099455203e+01
1.383278212631e+01
2.575793299649e+01
2.155658302571e+01
1.365003309660e+01
1.777331870781e+01
9.614728958283e+00
2.498279641724e+01
2.449508075627e+01
7.193293616333e+00
2.443903160658e+01
1.424157937048e+01
2.343294676199e+01
2.656890571432e+01
2.283415505715e+01
2.153145368884e+01
1.655463778580e+01
2.049193551525e+01
1.748915932140e+01
2.078132219367e+01
-4.942439751308e+00
2.525597848781e+01
9.996530666790e+00
2.049615953803e+01
1.829348088640e+01
1.969811072703e+01
-4.580566995347e+00
1.671378257696e+01
2.076746237767e+01
2.230260114642e+01
1.135940323827e+01
2.349063404773e+01
2.527079182538e+01
1.547370882875e+01
-1.249362046996e+01
-1.113019606299e+01
2.033977657504e+01
2.647058713222e+01
2.086240366160e+01
2.167413318300e+01
1.640795730343e+01
9.744353942312e+00
2.541940955334e+01
2.250913326931e+01
-3.886129243932e+00
2.405562568696e+01
2.653014041422e+01
1.720072601445e+01
2.277575927658e+01
2.103123447690e+01
2.342734444420e+01
2.362334957179e+01
4.799316901945e+00
2.232335925517e+01
1.295099910311e+01
2.088933845331e+01
-3.070613029651e+00
1.668697500530e+01
2.273986444179e+01
1.670119444334e+01
2.024984872284e+01
3.843005033766e+00
7.744888690520e+00
2.088968296922e+01
1.958894750599e+01
2.553064643543e+01
1.119851855560e+01
1.805143406827e+01
1.958786848535e+01
2.158887073263e+01
2.078002358420e+01
2.099735458078e+01
6.702531497789e+00
-1.448150825696e+01
2.175695156632e+01
2.166014129557e+01
2.046513929980e+01
1.816319526102e+01
2.751246429762e+01
-1.273269264047e+01
-1.249470793978e+01
2.083720627142e+01
1.687893259971e+01
1.832693287284e+01
1.836163482333e+00
1.541285437666e+01
2.297334274844e+01
1.762160485057e+00
1.689576892900e+01
2.195887810247e+01
1.816864193453e+01
2.186612865668e+01
1.678785709324e+01
2.265350645175e+01
2.277715097861e+01
-1.296071264150e+01
1.873292556178e+01
1.712952143327e+01
1.096571420306e+01
1.759306959261e+01
-4.238235053424e+01
-1.389201764324e+01
2.073175615266e+01
1.261025207250e+01
1.039378946989e+00
2.131689361956e+01
1.921949345331e+01
1.468944839604e+01
1.442967515146e+01
1.024999464749e+01
8.945609446324e+00
2.262826153814e+01
1.768039896251e+01
6.405270049086e+00
2.316666740117e+01
2.119709062837e+01
1.870529863379e+01
2.251006357667e+01
2.293449102365e+01
2.821458836797e+01
1.952348651627e+01
-1.480718296408e+01
2.123350729589e+01
1.886020069318e+01
7.267093906820e+00
-2.075314998579e+01

SCALARS node_materi_stress_average_a_sig float
LOOKUP_TABLE default
-6.927300774677e+00
-2.117265027031e+01
-2.419568406125e+02
-1.324275444771e+02
-1.175088749622e+01
-2.123132215290e+01
-3.098627914420e+01
-4.472825399503e+01
-5.987272118674e+01
-7.432680950571e+01
-8.824418614676e+01
-1.016543865883e+02
-1.145945976908e+02
-1.272305986705e+02
-1.397304314258e+02
-1.516526872399e+02
-1.623451587787e+02
-1.737643984384e+02
-1.853643348648e+02
-1.970943991123e+02
-2.096138666210e+02
-2.223103555966e+02
-2.344639990770e+02
-1.330750648107e+02
-1.324560639854e+02
-1.327781923546e+02
-1.329870870300e+02
-1.330853383726e+02
-1.339448152084e+02
-1.350526619470e+02
-1.357010702318e+02
-1.374740811413e+02
-1.388164665220e+02
-1.404337139197e+02
-1.429631782576e+02
-1.462504171173e+02
-1.488895856100e+02
-1.524086937431e+02
-1.557668822545e+02
-1.602222497247e+02
-1.656993796741e+02
-1.708557465437e+02
-1.761743894573e+02
-1.812754670271e+02
-1.864946383741e+02
-1.915980595605e+02
-1.965626821274e+02
-2.014775451034e+02
-2.061979857067e+02
-2.105058748666e+02
-2.144328694793e+02
-2.179465813080e+02
-2.217690841288e+02
-2.246217862030e+02
-2.268834336318e+02
-2.296455618935e+02
-2.320702265151e+02
-2.342170981574e+02
-2.360867916499e+02
-2.375429054111e+02
-2.386650285795e+02
-2.394297782106e+02
-2.399539810869e+02
-2.407744660864e+02
-2.417513093357e+02
-2.421942029859e+02
-2.407790552713e+02
-2.422937519701e+02
-2.418449754850e+02
-2.422646618324e+02
-2.426789821327e+02
-2.426140085666e+02
-3.329687422233e+01
-4.521921687094e+01
-5.707475539939e+01
-6.858151992303e+01
-8.027203353032e+01
-9.205330567688e+01
-1.034576916442e+02
-1.145927729110e+02
-1.262993697854e+02
-6.014435715273e+01
-3.227344179888e+01
-3.473810871780e+01
-3.196796170283e+01
-3.081963888849e+01
-2.965736975616e+01
-2.882358159147e+01
-2.761002058351e+01
-2.750932552961e+01
-2.981857079938e+01
-3.433651476222e+01
-1.328929090531e+01
-1.958286473841e+01
-2.026542187358e+01
-2.028187774697e+01
-2.021184092352e+01
-2.199148484881e+01
-2.059148785562e+01
-2.067297116061e+01
-2.092034946115e+01
-2.146315931854e+01
-2.179793943471e+01
-2.238473245691e+01
-2.326034917012e+01
-2.480972226801e+01
-2.720050596759e+01
-8.293173567107e+01
-9.416358957568e+01
-9.693913453338e+01
-8.845556664177e+01
-5.619247725078e+01
-2.569759917026e+01
-1.421615414267e+01
-1.063430131762e+01
-9.155107774080e+00
-8.386878722212e+00
-8.019989455234e+00
-8.197403480680e+00
-7.725737337861e+00
-7.117322863181e+00
-6.840074367095e+00
-6.791443247554e+00
-6.689828263675e+00
-6.463907461903e+00
-6.310047309185e+00
-2.144822202314e+01
-1.973144621867e+01
-1.759243168633e+01
-1.608147941215e+01
-1.533437350882e+01
-1.498794472219e+01
-1.481192218958e+01
-1.473680649331e+01
-1.479183504814e+01
-1.476107558394e+01
-1.476164464825e+01
-1.477543536607e+01
-1.474351382314e+01
-1.463226181316e+01
-1.437814949412e+01
-1.329140424907e+01
-3.995644880431e+01
-3.306931889512e+01
-3.111135800459e+01
-3.059415111532e+01
-2.983415603840e+01
-2.827638587480e+01
-2.724264254623e+01
-2.817730744214e+01
-3.363357693287e+01
-3.037097612721e+01
-3.735627304353e+01
-2.246517035060e+02
-1.376812007578e+01
-6.589025095683e+01
-2.329861146530e+02
-3.457049069507e+01
-1.339989998910e+02
-2.128941442785e+02
-3.330269297308e+01
-1.981304816815e+02
-3.542463319365e+01
-2.365881368449e+02
-1.077042523111e+01
-1.789450034107e+02
-4.370451386554e+01
-8.204252385962e+01
-1.662556347473e+02
-1.638264715194e+02
-1.468986929877e+02
-1.297996054316e+02
-1.319147559113e+02
-1.385021314666e+02
-3.971885945901e+01
-3.377078404962e+01
-3.318792469470e+01
-7.453721867385e+01
-2.365357911239e+02
-7.932944883909e+01
-1.043092548254e+01
-2.028850371384e+02
-3.098581475755e+01
-3.772370780337e+01
-1.526293359323e+02
-2.068443836280e+02
-1.888165417253e+02
-2.180285573885e+02
-2.292373519425e+02
-2.536738710843e+01
-3.534571940949e+01
-2.327841860085e+02
-9.746231604465e+01
-1.196501190499e+01
-1.082578618866e+02
-1.304936867394e+02
-3.496242957052e+01
-3.544014548036e+01
-3.364965933303e+01
-4.042949649246e+01
-4.278111563290e+01
-5.215798144284e+01
-2.387461055503e+02
-9.850585887030e+00
-1.197177676690e+02
-4.685615152002e+01
-5.570292982199e+01
-5.828858304896e+01
-6.871999874619e+01
-7.222135751086e+01
-8.134182667176e+01
-7.823335767634e+01
-9.054515602606e+01
-8.755637435160e+01
-8.521279142597e+01
-9.967483917635e+01
-9.679593608427e+01
-1.087814808710e+02
-1.059742051264e+02
-9.428327657074e+01
-1.034420537212e+02
-9.216753343241e+01
-1.012740582395e+02
-1.124942423545e+02
-1.102049838279e+02
-9.932676478329e+01
-1.081364454448e+02
-9.752585782799e+01
-1.062007852425e+02
-9.577797381396e+01
-1.044192251555e+02
-1.146277107521e+02
-1.126934472053e+02
-1.026928303208e+02
-1.107946926526e+02
-1.009365682334e+02
-1.086741774264e+02
-1.184320115371e+02
-1.159413092984e+02
-1.061090219488e+02
-1.132207147378e+02
-1.035345724003e+02
-1.104556582038e+02
-1.009003031548e+02
-1.076095097802e+02
-1.171767264035e+02
-1.141657196920e+02
-1.048154152832e+02
-1.110708309084e+02
-1.205573225297e+02
-1.171545757695e+02
-1.267595387756e+02
-1.231710497155e+02
-1.137738325274e+02
-1.194354931001e+02
-1.289923185395e+02
-1.250641361110e+02
-1.155002443076e+02
-1.208482753504e+02
-1.310137116053e+02
-1.264483273492e+02
-1.162265901720e+02
-1.213533258632e+02
-1.322929009627e+02
-1.269439897438e+02
-1.157547833087e+02
-1.211710508804e+02
-1.325829802782e+02
-1.266181550239e+02
-1.379530251008e+02
-1.149300591009e+02
-1.202555325333e+02
-1.082442594566e+02
-1.135553771857e+02
-1.257058494180e+02
-1.012310177412e+02
-9.613577750290e+01
-1.065708147821e+02
-1.188446024035e+02
-9.391422243626e+01
-9.930914629608e+01
-8.631810757549e+01
-9.376300761664e+01
-1.214544795510e+02
-9.177412324077e+01
-7.845864115840e+01
-7.307522549845e+01
-6.489095604390e+01
-7.671535468970e+01
-8.913566432960e+01
-8.038806272975e+01
-9.316903711201e+01
-8.510198361405e+01
-7.033967597419e+01
-1.118654252920e+02
-1.014785713410e+02
-8.852444929260e+01
-9.260498496876e+01
-1.303758717547e+02
-1.046671561228e+02
-9.722504745545e+01
-1.100901642750e+02
-1.436384806595e+02
-1.487823204398e+02
-1.541060002110e+02
-1.593284692120e+02
-1.645632905031e+02
-1.701607015293e+02
-1.646726836157e+02
-1.758534658643e+02
-1.701325101859e+02
-1.759322410132e+02
-1.699685102317e+02
-1.815040830226e+02
-1.755327158280e+02
-1.871187034907e+02
-1.809083777587e+02
-1.696874674982e+02
-1.749238565072e+02
-1.637681071029e+02
-1.367501875956e+02
-1.405100460628e+02
-1.470158530388e+02
-1.506936586782e+02
-1.578740978851e+02
-1.619921922558e+02
-1.694596685665e+02
-1.650898790579e+02
-1.178377479296e+02
-1.021398426202e+02
-9.596357576169e+01
-9.370833409848e+01
-8.757851626500e+01
-8.577491826611e+01
-7.971802979797e+01
-7.856927101468e+01
-8.399854218004e+01
-7.756709880451e+01
-8.189885875530e+01
-7.593625670888e+01
-7.866913435406e+01
-1.228670852108e+02
-1.544466586368e+02
-1.662829066850e+02
-1.584712974253e+02
-5.968615980827e+01
-1.862915328715e+02
-1.818063929732e+02
-1.754359839470e+02
-1.768196315788e+02
-5.659786778492e+01
-7.246393224468e+01
-7.327238991008e+01
-9.742271635784e+01
-8.968502593791e+01
-1.876562670695e+02
-6.214522983775e+01
-1.877625540616e+02
-7.209732196994e+01
-1.801116726199e+02
-1.916753698273e+02
-1.591180512119e+02
-1.706511506926e+02
-1.625846295671e+02
-8.561622631466e+01
-8.120280056789e+01
-7.372043930279e+01
-7.603637945494e+01
-8.429471464235e+01
-7.855561746640e+01
-6.970355809802e+01
-7.155687938033e+01
-8.131802709244e+01
-7.414888981794e+01
-6.389084831630e+01
-6.614125589878e+01
-1.983381994305e+02
-7.089266426465e+01
-8.286314970202e+01
-1.940850493915e+02
-1.814891658650e+02
-1.018235587019e+02
-9.443851548933e+01
-8.214156354808e+01
-8.730120936644e+01
-9.934119949020e+01
-9.250404735674e+01
-8.038326931229e+01
-8.585623615314e+01
-7.369319877784e+01
-7.940981446142e+01
-9.136217448651e+01
-8.516311751951e+01
-7.317737759271e+01
-7.910640002967e+01
-6.709364643824e+01
-7.315682886617e+01
-8.506519402159e+01
-4.839278317902e+01
-1.720991917474e+02
-1.842083922051e+02
-1.032050216128e+02
-1.155667696477e+02
-1.225063554467e+02
-1.280835500565e+02
-7.920096679542e+01
-9.100784844903e+01
-6.606288137434e+01
-6.650668514511e+01
-1.094346180983e+02
-1.852995784390e+02
-1.740681098056e+02
-9.097638731879e+01
-8.247883049949e+01
-8.098748414487e+01
-7.221474647633e+01
-7.355959604915e+01
-7.098349207603e+01
-1.640157625420e+02
-9.695511264516e+01
-6.796778522507e+01
-5.496349905454e+01
-1.971165755375e+02
-1.607636102632e+02
-1.252217167023e+02
-1.335399343424e+02
-1.363345361017e+02
-1.449051277857e+02
-1.479758858111e+02
-1.566532857599e+02
-1.533571324490e+02
-1.750323449544e+02
-1.652408775565e+02
-6.719335575019e+01
-1.470192478228e+02
-8.432233109134e+01
-4.283739929846e+01
-5.416942653489e+01
-5.363386740702e+01
-6.797674027966e+01
-2.001170001975e+02
-1.597782029839e+02
-1.508499211522e+02
-6.318563221099e+01
-6.432455913096e+01
-1.832122871493e+02
-7.237455251468e+01
-6.802967758958e+01
-6.124445060594e+01
-3.843114564268e+01
-5.272290189643e+01
-1.043528374720e+02
-7.431250743534e+01
-6.740010553945e+01
-6.770935247832e+01
-6.715058781508e+01
-8.516378876428e+01
-9.682736387363e+01
-1.346902458737e+02
-1.400621364304e+02
-1.934373631041e+02
-5.716352798686e+01
-1.027095431126e+02
-1.674201746515e+02
-1.564500177869e+02
-1.210644347601e+02
-5.942049149499e+01
-5.985984207381e+01
-9.112558612777e+01
-6.892382074997e+01
-5.957026199221e+01
-2.059982605645e+02
-1.110411269402e+02
-1.617426282942e+02
-1.498337305780e+02
-1.739771577505e+02
-4.500470598953e+01
-2.067459859976e+02
-1.905609397119e+02
-1.622031827262e+02
-1.536457250399e+02
-7.557345969036e+01
-6.853420413696e+01
-6.021882762938e+01
-6.080232372472e+01
-7.542964920035e+01
-7.722965362796e+01
-8.095666914112e+01
-7.139471566730e+01
-6.968006189623e+01
-7.473280556868e+01
-6.527585018673e+01
-8.944643593582e+01
-1.338413321252e+02
-1.292853070992e+02
-1.585758473445e+02
-1.488484939373e+02
-1.030075535665e+02
-1.085270109439e+02
-6.101153387473e+01
-5.495230572963e+01
-4.640801127690e+01
-4.214160640067e+01
-1.430548060880e+02
-2.003470817526e+02
-1.134382101827e+02
-1.209625982121e+02
-1.171821759956e+02
-1.989752469643e+02
-9.950895415566e+01
-1.431719138493e+02
-6.801417501904e+01
-1.283565988891e+02
-3.355919527318e+01
-1.240187943100e+02
-2.027434171784e+02
-2.094732551678e+02
-1.875230418334e+02
-5.372469056249e+01
-1.356368715549e+02
-1.327095552993e+02
-5.992496987827e+01
-5.814327136427e+01
-6.799014204315e+01
-5.670628071029e+01
-9.450913317674e+01
-8.758946499381e+01
-1.725571459708e+02
-1.771668986443e+02
-1.651400431382e+02
-1.566834966959e+02
-1.958532427783e+02
-1.911256719449e+02
-7.349298332690e+01
-5.483998772497e+01
-1.158982099316e+02
-6.165566556066e+01
-2.128006188068e+02
-2.065007764939e+02
-6.659805593240e+01
-6.222073562975e+01
-1.085904979701e+02
-5.216826829638e+01
-5.199477574288e+01
-5.212637184697e+01
-2.282367287592e+02
-3.062348656175e+01
-2.152357330122e+02
-7.601525435952e+01
-1.144979334318e+02
-1.428959248272e+02
-8.888843240513e+01
-1.865204567152e+02
-1.021946673575e+02
-1.147106948820e+02
-5.535006330923e+01
-4.831435098018e+01
-6.198375624989e+01
-6.644016779716e+01
-6.118607461775e+01
-1.025184836488e+02
-8.977698335751e+01
-9.683783101607e+01
-6.009027554627e+01
-7.216323758513e+01
-1.411294922729e+02
-1.358413375661e+02
-1.330399576957e+02
-1.357000467113e+02
-1.277006128596e+02
-1.627339206176e+02
-1.521012786997e+02
-1.456669979806e+02
-1.141412258431e+02
-1.209542753781e+02
-1.008893350224e+02
-9.705180167573e+01
-9.845324998255e+01
-1.224845034390e+02
-2.217363176337e+02
-2.161596574312e+02
-2.970931474587e+01
-3.799293760526e+01
-5.235701240798e+01
-5.371947360790e+01
-1.283361071594e+02
-1.253660315506e+02
-1.330777229218e+02
-6.414272457147e+01
-1.580068320011e+02
-2.111072657442e+02
-2.038187449979e+02
-2.197038799335e+02
-1.790453296725e+02
-1.913706367729e+02
-1.862310336028e+02
-6.993977936132e+01
-1.104483413844e+02
-4.809700038794e+01
-7.272394396592e+01
-4.217739427151e+01
-4.891217022665e+01
-3.566312689879e+01
-4.984148012795e+01
-4.704734077235e+01
-5.631562155342e+01
-2.370599922413e+01
-1.266869536305e+02
-2.229709181026e+01
-2.614632241754e+01
-2.190103914388e+02
-2.124454701738e+02
-2.246044755591e+02
-2.179255854763e+02
-2.058625199165e+02
-2.118379795547e+02
-4.149042577547e+01
-2.256266671972e+02
-2.179413333175e+02
-2.316099065837e+02
-4.648186771766e+01
-6.116703599630e+01
-5.223328774726e+01
-4.239263865289e+01
-1.697656966592e+02
-1.586189332769e+02
-1.962764019726e+02
-1.845154259011e+02
-4.233301759948e+01
-4.148886397091e+01
-5.245881753191e+01
-5.078897622818e+01
-6.172268459634e+01
-5.995899908512e+01
-7.105886069360e+01
-1.894157612313e+02
-4.372029741500e+01
-5.006896975306e+01
-2.038129942473e+02
-1.980091875812e+02
-5.547017217766e+01
-4.462933174718e+01
-2.208733602667e+02
-8.431367611496e+01
-1.347282313250e+02
-6.536463744970e+01
-6.271954607273e+01
-8.645269981374e+01
-6.651517243105e+01
-6.184060043571e+01
-5.323147503707e+01
-1.741631843716e+02
-3.481905293794e+01
-5.229920207832e+01
-7.270751643969e+01
-4.498178617310e+01
-1.906333308363e+02
-9.147672885652e+01
-8.525527291546e+01
-5.971899213753e+01
-6.990597808236e+01
-8.495731982874e+01
-6.569925683556e+01
-6.363731375750e+01
-9.830485444483e+01
-5.397109116724e+01
-4.281660453592e+01
-9.026194877987e+01
-1.135400416954e+02
-1.217991127715e+02
-1.331404951795e+02
-1.303370599033e+02
-1.185805547008e+02
-1.272899421472e+02
-1.387738274809e+02
-1.365316048771e+02
-1.499336693122e+02
-1.455044401473e+02
-1.331937006278e+02
-1.418287205975e+02
-1.533786715659e+02
-1.298916426366e+02
-2.085241724636e+02
-9.623081415061e+01
-6.586765968469e+01
-5.621932096069e+01
-8.679347479167e+01
-1.588159467240e+02
-1.501824780459e+02
-8.109821699656e+01
-1.837730073528e+02
-7.333061437539e+01
-7.213997836170e+01
-1.935524882732e+02
-1.099497950683e+02
-1.063568229843e+02
-9.766147751499e+01
-1.441035753216e+02
-6.935267279402e+01
-2.102293002992e+02
-1.438001514249e+02
-1.368806894706e+02
-1.269749583608e+02
-1.241325027526e+02
-2.220595699659e+02
-2.127011746395e+02
-2.149850410847e+02
-2.023774591185e+02
-2.269072726322e+02
-1.694087375591e+02
-1.745853498779e+02
-8.775859047407e+01
-9.311913274895e+01
-1.020900142947e+02
-9.774374724834e+01
-8.927281007335e+01
-9.333098241521e+01
-1.016415341855e+02
-8.879564627634e+01
-1.474099159887e+02
-2.309045893365e+02
-1.590902449473e+02
-1.536057898486e+02
-1.432016706084e+02
-1.240390136750e+02
-1.306649859610e+02
-1.421461219197e+02
-1.171538704624e+02
-1.417047221502e+02
-2.322020787005e+02
-1.498573720616e+02
-1.255100073461e+02
-3.729016169601e+01
-5.074102993146e+01
-5.392208505834e+01
-6.547677077961e+01
-4.977189752803e+01
-1.464175194836e+02
-1.516314152733e+02
-1.453606813893e+02
-1.567946775905e+02
-1.502943417044e+02
-1.395559149642e+02
-1.617066440330e+02
-1.544085429680e+02
-3.442637679767e+01
-4.136532235687e+01
-4.319542532421e+01
-3.418573183069e+01
-4.851656104298e+01
-5.553159328770e+01
-6.051699157930e+01
-6.310424460923e+01
-5.418470395390e+01
-1.911944959493e+01
-2.935593241406e+01
-1.570414804272e+01
-2.583646500378e+01
-4.025787726070e+01
-5.097261590353e+01
-2.350421923639e+02
-1.208570528204e+02
-1.147314318980e+02
-1.024031825443e+02
-1.091208206229e+02
-1.257794939973e+02
-9.532972582217e+01
-9.045424374297e+01
-1.029556802996e+01
-1.804303037417e+01
-1.717969954588e+01
-2.667846045044e+01
-2.676163764339e+01
-1.850016090887e+01
-1.869325210481e+01
-1.048146433450e+01
-1.887682126466e+01
-2.790773613238e+01
-1.040871237103e+01
-8.631187526630e+01
-9.261330028494e+01
-2.335171098174e+02
-3.426479542681e+01
-1.275566591192e+01
-1.274501637265e+02
-1.316275752141e+02
-1.308178839660e+02
-2.156479226887e+02
-2.218687196984e+02
-1.269901617988e+02
-8.096622410656e+01
-1.417679082537e+02
-1.081897418615e+02
-6.592631870040e+01
-8.021235035748e+01
-1.792352541041e+02
-1.644349371261e+02
-2.038651157890e+02
-1.689397898122e+02
-1.927300861504e+02
-2.163866254021e+02
-4.533523317881e+01
-6.719587955736e+01
-6.114502212339e+01
-9.094213259860e+01
-8.398244018582e+01
-1.339637775691e+02
-5.121529335727e+01
-1.814287818096e+02
-7.920457893473e+01
-1.381404463273e+02
-1.118846290174e+02
-8.868539697549e+01
-7.690390727722e+01
-9.876240008987e+01
-1.318852947446e+02
-1.818798244015e+02
-9.674562875530e+01
-1.260990234408e+01
-1.880140204468e+02
-1.538934997572e+02
-7.492218991702e+01
-1.739479007299e+02
-6.255005724600e+01
-9.776940309659e+01
-1.242195675590e+02
-6.389280225467e+01
-3.784058358007e+01
-5.460417914242e+01
-2.127780589947e+02
-1.053647975668e+02
-7.609901841384e+01
-1.328742619811e+02
-9.416934245707e+01
-4.117452307797e+01
-1.135632351025e+02
-1.229426585884e+02
-1.891361203658e+02
-1.538632612901e+02
-8.203673811073e+01
-2.000801157620e+02
-1.238561423860e+02
-1.094408049168e+02
-1.391756714126e+02
-1.080236790116e+02
-1.062746412576e+02
-1.370949971259e+02
-1.785710106277e+02
-7.754112880648e+01
-1.167637280979e+02
-1.150249051734e+02
-1.206665268144e+02
-1.731937234701e+02
-1.941007895872e+02
-7.290508063434e+01
-7.926334619160e+01
-7.707061566015e+01
-1.683439836711e+02
-1.207596340215e+02
-8.386124899250e+01
-1.935734295749e+02
-1.174902899674e+02
-1.370064797222e+02
-5.361653847187e+01
-6.083248808361e+01
-9.135702468538e+01
-1.201299959442e+02
-1.481628559248e+02
-1.380373163311e+02
-1.993297104297e+02
-1.809870425753e+02
-3.913639830300e+01
-5.185880039003e+01
-2.050834722327e+02
-1.391030767603e+02
-1.861681873869e+02
-1.433403217560e+02
-1.856089255403e+02
-4.528681728239e+01
-2.109395216142e+02
-1.792399353604e+02
-8.260275936758e+01
-3.102273700432e+01
-2.251757242852e+02
-1.917494181336e+02
-1.308556325958e+02
-1.351107722505e+02
-3.710422129900e+01
-1.533528944511e+02
-1.189942454227e+02
-1.413098698705e+02
-1.965009660910e+02
-9.390405935073e+01
-1.473398932711e+02
-1.505123798516e+02
-2.712972681003e+01
-4.784764673596e+01
-1.525784560144e+02
-9.662057875300e+01
-1.414976417895e+02
-1.998141126317e+02
-1.577767820232e+02
-1.050266532660e+02
-1.629202503582e+02
-3.436546235555e+01
-1.029013258773e+02
-1.680108140822e+02
-1.303252369498e+02
-2.947089432407e+01
-1.386192685164e+02
-2.089114225650e+02
-1.031183739227e+02
-1.477895475942e+02
-1.152140632501e+02
-3.340857645883e+01
-1.581207275484e+02
-1.419896488596e+02
-1.462925580083e+02
-1.299283472793e+02
-1.690204331736e+02
-4.428739432080e+01
-7.608992923922e+01
-6.355343365650e+01
-1.102617905763e+02
-1.447523947039e+02
-3.639909674896e+01
-1.209563384227e+02
-4.759189376109e+01
-1.064771589143e+02
-1.666356641108e+02
-6.364700375738e+01
-1.112771274789e+02
-6.816134090061e+01
-1.064700334938e+02
-1.397687709066e+02
-1.109455265790e+02
-1.049616965119e+02
-1.194987038520e+02
-1.097165186110e+02
-1.289516322441e+02
-2.359118202965e+02
-4.011318192464e+01
-3.215803074570e+01
-8.287172097902e+01
-4.518729443279e+01
-9.155303691846e+01
-1.267783633586e+02
-4.061848301157e+01
-8.411931851539e+01
-1.577431361312e+02
-2.028194807932e+02
-8.066502907387e+01
-1.933739416066e+02
-1.543671332302e+02
-1.078311005063e+02
-3.067407354416e+01
-2.370317856270e+01
-1.790427522768e+02
-3.281218250338e+01
-4.333004062158e+01
-4.417702874993e+01
-8.671452694034e+01
-4.235098980500e+01
-3.505652723329e+01
-2.096397394087e+02
-4.381811111753e+01
-1.702009065610e+02
-3.606366175072e+01
-1.284209839914e+02
-1.966536433683e+02
-2.359074886642e+02
-1.828391972470e+02
-4.598157270815e+01
-6.042347185846e+01
-1.767407130323e+02
-9.020026287723e+01
-2.373613981657e+02
-4.436299214801e+01
-1.200160480424e+02
-6.772751939648e+01
-1.196855836562e+02
-1.386814860021e+02
-5.573517607552e+01
-6.523494671658e+01
-2.277512065529e+02
-1.483762077224e+02
-4.953112901653e+01
-8.036149294156e+01
-1.092438973163e+02
-6.437089653194e+01
-2.237647557326e+02
-1.498525201564e+02
-2.267332430014e+02
-2.612446050678e+01
-1.948274342244e+01
-2.236947239076e+02
-1.678626579338e+02
-6.819947853468e+01
-1.363765317570e+02
-5.413093903433e+01
-2.994291902705e+01
-1.854106271959e+01
-2.374123000902e+02
-1.238021367895e+02
-1.203130101132e+02
-4.321074574213e+01
-7.766333388930e+01
-1.788171278923e+02
-3.391298533279e+01
-1.232141612696e+02
-2.214417571156e+02
-1.382365691812e+02
-2.192360787145e+02
-7.204071913050e+01
-1.965607697523e+02
-2.069287837113e+02
-3.024846458462e+01
-1.429545681736e+02
-9.742668432353e+01
-3.703320651307e+01
-1.299113608925e+02
-9.079774836137e+00
-2.934950317757e+01
-2.386804058031e+02
-3.409706028415e+01
-4.889891620666e+01
-1.639279965360e+02
-1.464041283957e+02
-1.013389539212e+02
-5.334362136685e+01
-8.257906953316e+01
-6.986000115664e+01
-2.022036940671e+02
-1.333909782312e+02
-6.212125194461e+01
-5.613731590279e+01
-1.591357488131e+02
-1.297342003899e+02
-1.716047071936e+02
-2.030867741120e+02
-5.057837692597e+01
-1.565877331118e+02
-1.795750079410e+01
-2.280297413964e+02
-1.349336060198e+02
-2.137587944305e+01
-1.461550984534e+01

SCALARS node_materi_stress_size_dev_sd_sig float
LOOKUP_TABLE default
3.773895739796e+00
1.031889219433e+01
1.836918326729e+02
9.919726294131e+01
1.110890906015e+01
2.346145451734e+01
3.413641944573e+01
4.308733318444e+01
4.967359047179e+01
5.733777235943e+01
6.582779650210e+01
7.490008180757e+01
8.445336829207e+01
9.444114812515e+01
1.050316879544e+02
1.152744792227e+02
1.245793444309e+02
1.350298196175e+02
1.456071795332e+02
1.550227077938e+02
1.633877411696e+02
1.715799484393e+02
1.792489426883e+02
9.999485285519e+01
9.965808249905e+01
9.999991657376e+01
1.003563636425e+02
1.003911485659e+02
1.013651708575e+02
1.022825104641e+02
1.034547407178e+02
1.052924957128e+02
1.071334956357e+02
1.088283864816e+02
1.118790765685e+02
1.151631208152e+02
1.185709694197e+02
1.220721004266e+02
1.258743602880e+02
1.301124508149e+02
1.349767239710e+02
1.397161801730e+02
1.443007052607e+02
1.484705720777e+02
1.523169134093e+02
1.560644626931e+02
1.594465793048e+02
1.626151572581e+02
1.655313154831e+02
1.681150721801e+02
1.703570233235e+02
1.722806485538e+02
1.742358694937e+02
1.758857784543e+02
1.770483179123e+02
1.784225740206e+02
1.796717631072e+02
1.807808506974e+02
1.816439601499e+02
1.823894665590e+02
1.828444266482e+02
1.831633256849e+02
1.833099245385e+02
1.836019051580e+02
1.840152858889e+02
1.841803414357e+02
1.833353023718e+02
1.840145784344e+02
1.837153156215e+02
1.838892984030e+02
1.841373594153e+02
1.841000081525e+02
1.311731567931e+01
2.045868856864e+01
2.917450390078e+01
3.840119935025e+01
4.833609258973e+01
5.865008183625e+01
6.937243517061e+01
8.040695243171e+01
9.198411476421e+01
5.074945639595e+01
2.585723063120e+01
5.190416619064e+01
4.812282898709e+01
4.672869018629e+01
4.537852498941e+01
4.393202577349e+01
4.225642592658e+01
4.145239850193e+01
4.242703468921e+01
4.012705675501e+01
1.307330863434e+01
1.064477431217e+01
1.051077969501e+01
1.048570465657e+01
1.059605553282e+01
1.059503088753e+01
1.081702734528e+01
1.108467230038e+01
1.122593245899e+01
1.150496982653e+01
1.198940102642e+01
1.278746802737e+01
1.397617236578e+01
1.595691808543e+01
1.913609635898e+01
3.816321465992e+01
3.602857970838e+01
3.802111646563e+01
3.741119814743e+01
3.854231960938e+01
2.762572719157e+01
1.168365159629e+01
6.692138343770e+00
4.858418244755e+00
4.519978369315e+00
4.233613889172e+00
4.174380020198e+00
4.354575118462e+00
4.104035240157e+00
3.882039853928e+00
3.831780257216e+00
3.810722330646e+00
3.696281313983e+00
3.667542814776e+00
3.057361315460e+01
2.021553098353e+01
1.599988631755e+01
1.395774297047e+01
1.284675467988e+01
1.229041114736e+01
1.208636732552e+01
1.198816632712e+01
1.199526471991e+01
1.194137025285e+01
1.194953653556e+01
1.195766707615e+01
1.188335138457e+01
1.189546801457e+01
1.210540935560e+01
1.310965364347e+01
5.610672164681e+01
4.991236568367e+01
4.715976091149e+01
4.618718590367e+01
4.573929248839e+01
4.370072405715e+01
4.171131977282e+01
4.131642405445e+01
4.483253556093e+01
3.292765208389e+01
4.996728409200e+01
1.770959714593e+02
6.458657581101e+00
4.106803646377e+01
1.807573929742e+02
4.596684960415e+01
1.001584997514e+02
1.706851304841e+02
4.459301497816e+01
1.612816861865e+02
4.418106015376e+01
1.815194649655e+02
7.265264557458e+00
1.464088029477e+02
3.229606152202e+01
6.198419773015e+01
1.283474991951e+02
1.321468504607e+02
1.143844497626e+02
9.573710633634e+01
9.739436241169e+01
1.048732196194e+02
1.992093901041e+01
1.345908151647e+01
1.292513533754e+01
4.331954175298e+01
1.808810916391e+02
3.965824776981e+01
8.624740359444e+00
1.589881243849e+02
1.205818584442e+01
3.869767519935e+01
1.206948426283e+02
1.669676547465e+02
1.544423694986e+02
1.737472097711e+02
1.792738151956e+02
2.316578382311e+01
1.512650993349e+01
1.801152655626e+02
6.376444729172e+01
6.568844064110e+00
7.979975969584e+01
9.663584000250e+01
4.550908871526e+01
4.736033204425e+01
4.424694775206e+01
4.308022673775e+01
5.588804748138e+01
2.534554751861e+01
1.820181310918e+02
8.230229598814e+00
8.555280788996e+01
2.949514310300e+01
3.637578646755e+01
3.348406527671e+01
4.380268842047e+01
4.287270950636e+01
5.254539654137e+01
5.341966419928e+01
6.243122558476e+01
6.322700661725e+01
5.272831624443e+01
7.240646142869e+01
7.309286112873e+01
8.238191525092e+01
8.296988541409e+01
7.414822538484e+01
8.387731538132e+01
7.515563154692e+01
8.475591172698e+01
9.343020849839e+01
9.422459545852e+01
8.550637661133e+01
9.479819584021e+01
8.620511624266e+01
9.520782606892e+01
8.675881773901e+01
9.537341754326e+01
1.040140804952e+02
1.037952974664e+02
9.529934119973e+01
1.033278484830e+02
9.504536903407e+01
1.027816024580e+02
1.109541149030e+02
1.097611120676e+02
1.016605065124e+02
1.082332680007e+02
1.005133969614e+02
1.070129088800e+02
9.958713859469e+01
1.058207286880e+02
1.129978895547e+02
1.114272654760e+02
1.042342839677e+02
1.092765353535e+02
1.163577894638e+02
1.135215319124e+02
1.205499260233e+02
1.170858039443e+02
1.101072736674e+02
1.129315981163e+02
1.200448142609e+02
1.154128179967e+02
1.081980861134e+02
1.103967616439e+02
1.184481548836e+02
1.129537887781e+02
1.050905598446e+02
1.068286730503e+02
1.148776836381e+02
1.084423292343e+02
9.998609414768e+01
1.017657668026e+02
1.107330082759e+02
1.040772952905e+02
1.135015766552e+02
9.487539319702e+01
9.730577765268e+01
8.790792653694e+01
9.053830076066e+01
1.180543029867e+02
8.105472617196e+01
7.866956022874e+01
8.393805077857e+01
9.365985429204e+01
7.443012292153e+01
7.757633049181e+01
6.813193541535e+01
9.264447228154e+01
1.027162984442e+02
7.149410746074e+01
6.218575319217e+01
5.868391566749e+01
5.299414731007e+01
4.373102266660e+01
5.399221932182e+01
4.496824181118e+01
5.621320107906e+01
4.793079232331e+01
5.664347225410e+01
8.238386783889e+01
6.517698445787e+01
7.713816665351e+01
8.701537458923e+01
1.234757187298e+02
8.095812462828e+01
7.503902388045e+01
8.443663575467e+01
1.200902000527e+02
1.233326680851e+02
1.299912427941e+02
1.333340300815e+02
1.397694288535e+02
1.428358016509e+02
1.365267157358e+02
1.457680304008e+02
1.396108457100e+02
1.483696552258e+02
1.454559377355e+02
1.487212609601e+02
1.427739294501e+02
1.516880955816e+02
1.460090936356e+02
1.363229737484e+02
1.397341236942e+02
1.298251601241e+02
1.277571207620e+02
1.310821069698e+02
1.356291379265e+02
1.387985126711e+02
1.431708183010e+02
1.458857564129e+02
1.502360124114e+02
1.472821541728e+02
9.228184527002e+01
1.021866599441e+02
9.701766837966e+01
9.525090359432e+01
8.989365771995e+01
8.843024125810e+01
8.279748128124e+01
8.164694872988e+01
8.634502619962e+01
7.984647185432e+01
8.339219128192e+01
7.736816835886e+01
7.937981974031e+01
1.124194875337e+02
1.414185704743e+02
1.481378360123e+02
1.433285436355e+02
4.918626309170e+01
1.492975134418e+02
1.533202739521e+02
1.504237191644e+02
1.543767861269e+02
4.775919749382e+01
7.583758941146e+01
7.630512620835e+01
5.932317600798e+01
5.156465110760e+01
1.577791733889e+02
5.148089736874e+01
1.539739149505e+02
7.400248947806e+01
1.432809684143e+02
1.525950484338e+02
1.298999663543e+02
1.500803782062e+02
1.449810255339e+02
8.579186865823e+01
8.049572315787e+01
7.404137431662e+01
7.392297914344e+01
8.114341777232e+01
7.383414129091e+01
6.601919083415e+01
6.522522603252e+01
7.386215868547e+01
6.498190970117e+01
5.487255570156e+01
5.515905644149e+01
1.576873248699e+02
7.230936853375e+01
6.560220656635e+01
1.606079409774e+02
1.568527341991e+02
6.319994427597e+01
5.592494142761e+01
4.466111295242e+01
4.946614247890e+01
6.091710209202e+01
5.469834425645e+01
4.375898227097e+01
4.909352772625e+01
3.865255876972e+01
4.403282607488e+01
5.470991317829e+01
4.969341855433e+01
3.944128728334e+01
4.501656659526e+01
3.512646251461e+01
4.052508706452e+01
5.077004376153e+01
4.341041699596e+01
1.513365891312e+02
1.582296486199e+02
7.867136294358e+01
8.757759420057e+01
9.395754251665e+01
9.733566668866e+01
4.610445759441e+01
5.669801636809e+01
6.944264993121e+01
6.934186351126e+01
7.124275246097e+01
1.469639512251e+02
1.370336713701e+02
8.699885942601e+01
7.887135939599e+01
7.895171892102e+01
7.068009517699e+01
7.077375866900e+01
7.082418939129e+01
1.421837124570e+02
6.061024199263e+01
5.508302495886e+01
4.502294579832e+01
1.559364315873e+02
1.437861314394e+02
1.124223243021e+02
1.204233354319e+02
1.203125397183e+02
1.279948602940e+02
1.281183269441e+02
1.355564972067e+02
1.350861180228e+02
1.517397003742e+02
1.424006458217e+02
3.599601102388e+01
1.363405003111e+02
7.429304575199e+01
3.923318203505e+01
4.365506699206e+01
4.653687639984e+01
5.470075424370e+01
1.647242450352e+02
1.359815192792e+02
1.281682118023e+02
6.288556018583e+01
6.306071723736e+01
1.566060057519e+02
3.721451977973e+01
3.362122484589e+01
2.905133162130e+01
3.791833834732e+01
4.412280164512e+01
6.631209784123e+01
7.666082791774e+01
6.951783865870e+01
6.915919267748e+01
6.906729046948e+01
5.167158386778e+01
6.239376158210e+01
1.036265982418e+02
1.071490437790e+02
1.617695075113e+02
4.561860501123e+01
6.768447982027e+01
1.476930657324e+02
1.396991071924e+02
9.092214449461e+01
6.266249593069e+01
6.321859417644e+01
8.232610815379e+01
5.684430975951e+01
4.970383620027e+01
1.683788484727e+02
7.288181144832e+01
1.415475875491e+02
1.344513088116e+02
1.486546837806e+02
3.399461294575e+01
1.676522337699e+02
1.507369860752e+02
1.360164587449e+02
1.283176473017e+02
7.712888984646e+01
6.996111937567e+01
6.235177812469e+01
6.263866333876e+01
5.480882744869e+01
7.771521412018e+01
6.685489747559e+01
5.791496939937e+01
5.960111559857e+01
7.072679830775e+01
6.295933115006e+01
9.098455287010e+01
1.260593559798e+02
1.003758934208e+02
1.264442535855e+02
1.265944755010e+02
6.598565055429e+01
7.214284696643e+01
2.990779991092e+01
2.588811495063e+01
3.927956360335e+01
3.446317340715e+01
1.166810496416e+02
1.633677053035e+02
7.523765458280e+01
8.357784406609e+01
7.986103066024e+01
1.652109056661e+02
9.963323386200e+01
1.318353544546e+02
6.889331960069e+01
1.193287254600e+02
2.914119272843e+01
1.020972670150e+02
1.592619352271e+02
1.639219129566e+02
1.582958065650e+02
3.952102580701e+01
1.261176004064e+02
1.245015951363e+02
5.183715012818e+01
5.364882860810e+01
6.106901802408e+01
5.499431185575e+01
8.342238956715e+01
7.551558229424e+01
1.444353035531e+02
1.496418233432e+02
1.368709633617e+02
1.288987232228e+02
1.629838691071e+02
1.611031679125e+02
5.753127078132e+01
5.602223052932e+01
7.835359306865e+01
4.961349173503e+01
1.701543607181e+02
1.661011618575e+02
6.606738319625e+01
6.265119401594e+01
7.375948309097e+01
5.526918875823e+01
5.492610007137e+01
5.569415483205e+01
1.752493958762e+02
1.191955387693e+01
1.672442038122e+02
7.030898902554e+01
7.931284387956e+01
1.322691954925e+02
8.690708934703e+01
1.586406307317e+02
6.775652384206e+01
8.024486167877e+01
2.449425123012e+01
2.040525463625e+01
2.878729563575e+01
6.917220222223e+01
6.354147739995e+01
6.663521199269e+01
6.916007080935e+01
7.321775616992e+01
4.839683233582e+01
5.915654525851e+01
1.100933375895e+02
1.068491245211e+02
1.112311184342e+02
1.110481249756e+02
1.120803100705e+02
1.434499575827e+02
1.348039852863e+02
1.314641133853e+02
7.771644499912e+01
8.532645793391e+01
9.077439770463e+01
8.957777541476e+01
8.445071187832e+01
8.535119500479e+01
1.716671214790e+02
1.684733114700e+02
2.403505187695e+01
2.962381988666e+01
5.724881626516e+01
5.870700315581e+01
9.224018166130e+01
8.919211670508e+01
9.733699981116e+01
5.225065510170e+01
1.405397648978e+02
1.711398641053e+02
1.680350458846e+02
1.750338050273e+02
1.532240244496e+02
1.596638299923e+02
1.554662875785e+02
6.237662453270e+01
7.621952725937e+01
2.090101567827e+01
5.342486483437e+01
1.749742410385e+01
2.205620591646e+01
1.407665319407e+01
4.513694272316e+01
1.934643631520e+01
2.491941350846e+01
1.704579245288e+01
9.084981882858e+01
1.914750981540e+01
2.404166921653e+01
1.730106379910e+02
1.688161729592e+02
1.755576939690e+02
1.713032045895e+02
1.642892122687e+02
1.672399638950e+02
1.675161824958e+01
1.752500387008e+02
1.702963432955e+02
1.785478536610e+02
4.870141462975e+01
6.259858413721e+01
5.497893926672e+01
4.859951775743e+01
1.391899107556e+02
1.291377901016e+02
1.546773214107e+02
1.452597005757e+02
1.801398628316e+01
1.765395695343e+01
2.511031927983e+01
2.414808899813e+01
3.236389263937e+01
3.116461605806e+01
3.999088004065e+01
1.566531300054e+02
4.987669947060e+01
4.553205527768e+01
1.672904957816e+02
1.648219489868e+02
5.571453989639e+01
4.961114888574e+01
1.749160030414e+02
8.483878934730e+01
1.002410600196e+02
4.914450625284e+01
5.898255441302e+01
8.556161730092e+01
6.230198928656e+01
6.254090512933e+01
5.565820111608e+01
1.514168053003e+02
2.567589233709e+01
5.633716966750e+01
4.091008896486e+01
5.214059505085e+01
1.501503032038e+02
9.188843078384e+01
7.859981038569e+01
6.239988372713e+01
7.086722177367e+01
6.440555558926e+01
4.553913103277e+01
4.760037059802e+01
9.839588570837e+01
5.581742255817e+01
4.890098112979e+01
7.612641112585e+01
7.689587966668e+01
8.639670400387e+01
9.834329979645e+01
9.614296394481e+01
8.451250659306e+01
9.440458427987e+01
1.058243747317e+02
1.045953177983e+02
1.178155466853e+02
1.145020235734e+02
1.032246030803e+02
1.125841999529e+02
1.229276597596e+02
1.022599227663e+02
1.689196803602e+02
9.358393730672e+01
6.574515101389e+01
6.072482826611e+01
7.805701232626e+01
1.273400342305e+02
1.177787794953e+02
8.360168124768e+01
1.503986988715e+02
5.629201344965e+01
7.507320385296e+01
1.579783106135e+02
7.464704692751e+01
7.311414501582e+01
6.331584922154e+01
1.109391245062e+02
3.417261674418e+01
1.689632720732e+02
1.339804455432e+02
1.283843378052e+02
1.204573775971e+02
9.315528669624e+01
1.757867215478e+02
1.719663499538e+02
1.730737963726e+02
1.673224984922e+02
1.782429990801e+02
1.377137800157e+02
1.425476482589e+02
8.178053308230e+01
8.855973624773e+01
9.581759689384e+01
9.439468671241e+01
8.739162527435e+01
9.249107871700e+01
9.918136588951e+01
8.989945147541e+01
1.201560347384e+02
1.800595789828e+02
1.364380327815e+02
1.328751055305e+02
1.235181763649e+02
9.703635053370e+01
1.035303145316e+02
1.134000702890e+02
9.067041301834e+01
1.277634124882e+02
1.805259551467e+02
1.359700881982e+02
1.002312892937e+02
1.710658813505e+01
2.349386290294e+01
2.769071502632e+01
3.355159605174e+01
2.164667355931e+01
1.134856935763e+02
1.170938930791e+02
1.109091851122e+02
1.208784881541e+02
1.145892051560e+02
1.053403775538e+02
1.246286915761e+02
1.178601483982e+02
1.417883923105e+01
3.780046498730e+01
4.171601879796e+01
2.915579130587e+01
4.457826490337e+01
5.385303585472e+01
5.699855491548e+01
6.283113517342e+01
5.307644736694e+01
1.312591193498e+01
2.109051259174e+01
8.479192480625e+00
1.716839808485e+01
3.042647719549e+01
4.084384767425e+01
1.798422375424e+02
8.944985764751e+01
8.508542989370e+01
7.583343109670e+01
8.140267605862e+01
9.364907398656e+01
7.060106285448e+01
6.779270918867e+01
8.695568672015e+00
1.918033082517e+01
1.815992812017e+01
2.931066398062e+01
2.889392955659e+01
1.916856270296e+01
1.897508497415e+01
8.363145713142e+00
1.845597483826e+01
2.862767529137e+01
7.820885149438e+00
5.351588118488e+01
5.926955873029e+01
1.808227155477e+02
1.344744546234e+01
6.191034052414e+00
9.325209165623e+01
9.715959939681e+01
9.651523849562e+01
1.673047346967e+02
1.713328644210e+02
9.315134980639e+01
6.485039531466e+01
1.078321606023e+02
7.282541230564e+01
6.941762371385e+01
6.728163748483e+01
1.409494984080e+02
1.330615057733e+02
1.607528865600e+02
1.333689032853e+02
1.546730415323e+02
1.738303488206e+02
4.274045661189e+01
3.404794148016e+01
3.091776616894e+01
5.554571402438e+01
6.573286530589e+01
1.013305984796e+02
4.386533788055e+01
1.496556883195e+02
6.813712434785e+01
1.172471753363e+02
8.720630094548e+01
7.157215334694e+01
6.574961233776e+01
9.478299383879e+01
1.068615395941e+02
1.511665038058e+02
6.156763008020e+01
8.143574983265e+00
1.560912816454e+02
1.266483143872e+02
3.875859948691e+01
1.526746518111e+02
5.607419709570e+01
6.022932864302e+01
8.733958917459e+01
3.040725527193e+01
3.438879301828e+01
2.485958312725e+01
1.711856700968e+02
6.780539185540e+01
6.012538883803e+01
1.242312586191e+02
8.699491769682e+01
3.711768546278e+01
7.803936908956e+01
1.161844702408e+02
1.608709662008e+02
1.398480772270e+02
6.336441619450e+01
1.615967966966e+02
1.185526072939e+02
7.196643693442e+01
1.200979348916e+02
1.065027121396e+02
6.772251561897e+01
1.210359217927e+02
1.547574046668e+02
6.937533168219e+01
1.038303857740e+02
9.267289369691e+01
1.118457896988e+02
1.349570891259e+02
1.588479714685e+02
7.378381686343e+01
7.895366636142e+01
4.051417121617e+01
1.429892363138e+02
8.405918214448e+01
7.884317234384e+01
1.567698569461e+02
7.982304872635e+01
1.100761812385e+02
4.667108286778e+01
6.389509737450e+01
9.296866251081e+01
1.145359871094e+02
1.199890052174e+02
1.034073351259e+02
1.595912346247e+02
1.547983069907e+02
5.257129375125e+01
4.261260497755e+01
1.625126091839e+02
1.277774065033e+02
1.590133688499e+02
1.081986119074e+02
1.532339820023e+02
4.932333839931e+01
1.656886385264e+02
1.551582711888e+02
8.425473558231e+01
1.207499750424e+01
1.743071762882e+02
1.618661908697e+02
1.201818701514e+02
1.233835936113e+02
4.436279792263e+01
1.232481882915e+02
1.033730791634e+02
1.079217754982e+02
1.643811750426e+02
6.234026759258e+01
1.166315029699e+02
1.380408237592e+02
2.871055605077e+01
4.761319674020e+01
1.199227216453e+02
9.649116403361e+01
1.265174330613e+02
1.646005334967e+02
1.234254159311e+02
1.032368889546e+02
1.270827580681e+02
4.400675296796e+01
7.238036426606e+01
1.308582091468e+02
1.116149175965e+02
2.885616040343e+01
1.271823010547e+02
1.630376892131e+02
8.583683614219e+01
1.294624434648e+02
8.316926493929e+01
4.416543253701e+01
1.385082223449e+02
1.199432200406e+02
1.335092942348e+02
1.224672195077e+02
1.471161474866e+02
4.966248243285e+01
6.175869145089e+01
5.160256263393e+01
1.060287309755e+02
1.199045606265e+02
3.791611655450e+01
9.246893708151e+01
3.700538611179e+01
1.013109124506e+02
1.464088305895e+02
3.421481556860e+01
1.029148302333e+02
5.393801251023e+01
9.710838462909e+01
1.305927245692e+02
9.888389745091e+01
9.193243797404e+01
8.451590655487e+01
9.297963857675e+01
9.486958497595e+01
1.801580977634e+02
1.695032625722e+01
4.465372397549e+01
3.793129785385e+01
5.010701705784e+01
7.679295658050e+01
1.018709172930e+02
1.718247965960e+01
6.916776759024e+01
1.262708451002e+02
1.643267861648e+02
4.842317322673e+01
1.626860333554e+02
1.394796420337e+02
7.385861668257e+01
1.201029249667e+01
1.528590235956e+01
1.399394245259e+02
4.549574182379e+01
4.911659132546e+01
5.090897432757e+01
6.578110068603e+01
3.501253825611e+01
4.650235561411e+01
1.702276515422e+02
1.770990380826e+01
1.474785644236e+02
4.834461073730e+01
9.237497498732e+01
1.619607148932e+02
1.814830117713e+02
1.545188063026e+02
5.417063615040e+01
2.873124165112e+01
1.455671008325e+02
5.644654470980e+01
1.817347938384e+02
1.819334016029e+01
8.565405369248e+01
6.881030783014e+01
8.560085855664e+01
1.115072136097e+02
2.713520608563e+01
3.552824580926e+01
1.750878487208e+02
1.158645046588e+02
5.729831357528e+01
4.764565181571e+01
8.225964765708e+01
5.738834107755e+01
1.758688861573e+02
1.208706156611e+02
1.749422456296e+02
2.909198342633e+01
1.469157730926e+01
1.766713901645e+02
1.366464688280e+02
6.718173619269e+01
1.023850760906e+02
6.090903360702e+01
1.198163347696e+01
1.689656003129e+01
1.814881309692e+02
8.825965227116e+01
8.963167385040e+01
2.423912245854e+01
5.982418453810e+01
1.496907249170e+02
2.411607823314e+01
8.818778973724e+01
1.760784782596e+02
1.035228280416e+02
1.740345157385e+02
5.540699309215e+01
1.613690275652e+02
1.695253012297e+02
1.179204330126e+01
1.092610899788e+02
7.286810149359e+01
3.624912750959e+01
9.605720019745e+01
6.632971882737e+00
1.145090119573e+01
1.818061381612e+02
3.598728017526e+01
2.281689405474e+01
1.325719339130e+02
1.106718656092e+02
6.752152623258e+01
4.723783009360e+01
3.643635951805e+01
3.919132710511e+01
1.653700658345e+02
9.799690782455e+01
3.223319186869e+01
6.022714265189e+01
1.287720956449e+02
9.714385419411e+01
1.425780483856e+02
1.674383943073e+02
5.723928957349e+01
1.196043009014e+02
1.511105158999e+01
1.770604538732e+02
1.011482547813e+02
2.674653289896e+01
1.238246644209e+01

SCALARS node_materi_strain_total_average_a_ept float
LOOKUP_TABLE default
5.469885961089e-04
3.938558842424e-03
1.985710785011e-03
5.467350535992e-03
4.979189688805e-04
5.151780877302e-04
5.060797298132e-04
5.271159545821e-04
5.371990566770e-04
5.613448782494e-04
5.974164102965e-04
6.447792150720e-04
7.065749519365e-04
7.807523049928e-04
8.680860051391e-04
9.659882238560e-04
1.069900104569e-03
1.184268676804e-03
1.313138156531e-03
1.446573406158e-03
1.587804527697e-03
1.736360364122e-03
1.882016449760e-03
5.476911396876e-03
5.464751644636e-03
5.459053358781e-03
5.446364630235e-03
5.419258831354e-03
5.403111790186e-03
5.364676909801e-03
5.321626755980e-03
5.272785595896e-03
5.215008209011e-03
5.130110033752e-03
5.048399275762e-03
4.935621403542e-03
4.819703559015e-03
4.678589503365e-03
4.526545931113e-03
4.351157018492e-03
4.164037264594e-03
3.974707410189e-03
3.777790161484e-03
3.571562820849e-03
3.357644749452e-03
3.147518072477e-03
2.940377934789e-03
2.742098195786e-03
2.556101770905e-03
2.374887584561e-03
2.221689208311e-03
2.071360090166e-03
1.948434878658e-03
1.835582756822e-03
1.737942369163e-03
1.658191958533e-03
1.614499308812e-03
1.582271422683e-03
1.561196704099e-03
1.576502900575e-03
1.583040974757e-03
1.616752157677e-03
1.647280723994e-03
1.695456195131e-03
1.754018911696e-03
1.800720430715e-03
1.829753817688e-03
1.891004439849e-03
1.917767688329e-03
1.951837419299e-03
1.978319914040e-03
1.989938395012e-03
4.088449677258e-03
4.234435717120e-03
4.382428415979e-03
4.531738834765e-03
4.686800700503e-03
4.845094498624e-03
5.006569790310e-03
5.176338096209e-03
5.338925912558e-03
-1.453312935306e-03
3.450991836681e-03
-3.963913299436e-04
1.455882637752e-04
5.556132720443e-04
9.414569093636e-04
1.360788686948e-03
1.824646643490e-03
2.279077671482e-03
2.684688760789e-03
3.029729749683e-03
3.838562362329e-03
3.922999552046e-03
3.932838306039e-03
3.928658359234e-03
3.919779436324e-03
3.929493927241e-03
3.902770319769e-03
3.886766046770e-03
3.872377437171e-03
3.850967818452e-03
3.821995358007e-03
3.786222987311e-03
3.738810273955e-03
3.676361221013e-03
3.594704077932e-03
-2.083110100893e-03
-2.380513574987e-03
-2.466227463529e-03
-2.240195531850e-03
-1.363749529022e-03
-5.279643839904e-04
-1.829332474515e-04
-4.186767865866e-05
3.169177405543e-05
1.037637198120e-04
1.654402177861e-04
2.343532451803e-04
3.093271181295e-04
3.773729008901e-04
4.301369178450e-04
4.759640439475e-04
5.104161604210e-04
5.344578300207e-04
5.572609813003e-04
3.390624823014e-03
3.541223618525e-03
3.646289246915e-03
3.709656980600e-03
3.752646520319e-03
3.783160042189e-03
3.803126914776e-03
3.820282051725e-03
3.835861365160e-03
3.844505458005e-03
3.853446582116e-03
3.859728962421e-03
3.866317190473e-03
3.870509390145e-03
3.869089399055e-03
3.845353176402e-03
-7.900783798321e-04
-9.735305862822e-05
3.611760145636e-04
7.449881210608e-04
1.130795949886e-03
1.588327914588e-03
2.056999042181e-03
2.496702158846e-03
2.818491692131e-03
3.296152414922e-03
3.825208688175e-05
1.646787740596e-03
4.043540881522e-05
-1.465145715640e-03
1.583777689987e-03
8.752908038098e-04
8.234042968380e-04
2.000926220306e-03
1.686419956368e-03
2.619194893728e-03
2.557712091610e-03
1.736097282722e-03
3.169398322858e-04
3.401056475733e-03
3.291452250248e-03
5.767211406797e-04
1.103783894702e-03
3.971564496329e-03
4.644750117343e-03
5.309413802437e-03
5.169103365519e-03
4.976647693357e-03
3.674727913970e-03
3.931014517266e-03
4.020694847875e-03
4.610262224943e-03
1.835661172841e-03
-1.824064009174e-03
4.609521771577e-04
1.510339509851e-03
4.048571247390e-03
5.174592312757e-04
4.317797392203e-03
2.292568336505e-03
3.000190593088e-03
1.801087428800e-03
1.571113059213e-03
-2.791960159078e-04
3.831846813051e-03
1.625638310168e-03
4.919424922468e-03
1.777112159549e-04
6.719106767397e-04
5.374466042033e-03
1.268110875276e-03
4.855083123630e-04
2.128303561517e-03
2.897455451271e-03
-6.230125382465e-04
4.320035567529e-03
1.913100989403e-03
5.053500232737e-04
5.251876547531e-03
3.434158017892e-03
3.355246092230e-03
3.530554788131e-03
3.425702383179e-03
3.603733470677e-03
3.517076968414e-03
3.327157991138e-03
3.428629493268e-03
3.228798429620e-03
3.693277650016e-03
3.338450904757e-03
3.130710415669e-03
3.245690124312e-03
3.032592075882e-03
2.918931258690e-03
2.815729138595e-03
2.704524255591e-03
2.597345730378e-03
2.715386028988e-03
2.493856481575e-03
2.378603098379e-03
2.272417591138e-03
2.159175001338e-03
2.052267612973e-03
1.941671014615e-03
1.836716127755e-03
1.953196449745e-03
1.740519602881e-03
1.632240439060e-03
1.541085707938e-03
1.441595484654e-03
1.360969540463e-03
1.461829654426e-03
1.292458178108e-03
1.200055511953e-03
1.138522890339e-03
1.054863285572e-03
1.009315658139e-03
9.448325383524e-04
9.121025385384e-04
9.643988451383e-04
8.725089798364e-04
8.146475038988e-04
7.847390018864e-04
8.287250555402e-04
7.468003944956e-04
7.862045714851e-04
7.016249715363e-04
6.562045189290e-04
6.167689644626e-04
6.707058033548e-04
5.900271024098e-04
5.311062823630e-04
5.194439214917e-04
5.893642680051e-04
5.323297534450e-04
4.598463437054e-04
4.910972732551e-04
5.536107880236e-04
5.192832445311e-04
4.613243690360e-04
4.952380266324e-04
5.568660667841e-04
5.361656035207e-04
6.102654474197e-04
4.782041634719e-04
5.222112551706e-04
4.678337006384e-04
5.131679526705e-04
1.396127809642e-03
4.615940890366e-04
4.166461710038e-04
5.075033902370e-04
5.653308990748e-04
4.582886977195e-04
5.041342103590e-04
4.585107480883e-04
9.763662189149e-04
2.618230726584e-03
5.026617317554e-04
4.607919452978e-04
4.180047797845e-04
4.235060766452e-04
3.756386518441e-03
3.868407572837e-03
3.921644918284e-03
4.039305204001e-03
4.078380412416e-03
4.651065642331e-04
3.455630324318e-03
3.989406980579e-03
2.273819488421e-03
1.536603341413e-03
8.758385886302e-04
5.518022466866e-04
5.475366233805e-04
6.019351945590e-04
6.386948955153e-04
7.084673039985e-04
7.491107389130e-04
8.312246464882e-04
8.851739355803e-04
9.694051576152e-04
9.175197086993e-04
1.053856096078e-03
1.004214400372e-03
1.030040341097e-03
9.525602966489e-04
1.138513710294e-03
1.090251319104e-03
1.223685414289e-03
1.174068904731e-03
1.043822841318e-03
1.125299256293e-03
1.000990825594e-03
8.423415635533e-04
9.625991632435e-04
9.583349334461e-04
1.114823164053e-03
1.113293537681e-03
1.259221153114e-03
1.248110739863e-03
1.115806694153e-03
3.149810438438e-03
7.022531415396e-04
7.211759977400e-04
5.927609279740e-04
6.092342271478e-04
4.583376034314e-04
4.721217241819e-04
2.819574303469e-04
2.879239545376e-04
6.331248678925e-05
1.165770281147e-04
-1.419139207229e-04
-1.381917346241e-05
1.863028400694e-03
1.276869913912e-03
1.408492794077e-03
1.435344149794e-03
3.801180294314e-04
1.255230585708e-03
1.096598804320e-03
1.027842528987e-03
1.249406098989e-03
4.317111414745e-04
3.018148608786e-04
4.916524388527e-04
4.204820335148e-03
4.231926064608e-03
1.167495711978e-03
4.742271222844e-04
1.190632164528e-03
-2.112215661366e-04
1.204336359715e-03
1.335460411532e-03
8.744243540466e-04
1.561935879314e-03
1.596353007144e-03
1.892156389274e-04
1.114021185448e-04
-5.466999349324e-05
6.874044232484e-05
1.937147896945e-04
1.504823524722e-04
4.716066696344e-05
1.491719101890e-04
2.185465112811e-04
2.080102052142e-04
1.326871037247e-04
2.023386443090e-04
1.389940587487e-03
-4.435293703049e-04
2.816016867987e-03
1.230969413310e-03
1.369189128895e-03
4.367633948354e-03
4.381793450503e-03
4.248782205416e-03
4.386300232762e-03
4.528804540806e-03
4.522140265711e-03
4.381646553242e-03
4.507450692919e-03
4.368211986660e-03
4.484977491746e-03
4.632379928014e-03
4.601065189439e-03
4.454656707830e-03
4.563562243487e-03
4.417421434292e-03
4.519576551873e-03
4.671866784230e-03
4.518251285803e-04
1.129118359846e-03
1.259684148630e-03
5.921879078837e-04
6.553834857858e-04
6.728680650800e-04
7.323707311075e-04
4.620495252821e-03
4.778979444855e-03
3.298599001601e-04
5.131128249040e-04
4.343879270011e-03
1.280283580602e-03
1.153567423306e-03
1.351071471333e-03
1.447725703719e-03
1.261862545875e-03
1.356588495262e-03
1.552896129692e-03
1.160399697670e-03
8.773621920734e-04
4.755013618526e-03
3.738478106588e-04
3.329905997108e-04
1.413805246710e-03
9.843614502672e-04
2.081678802062e-03
1.998238492237e-03
2.216363646023e-03
2.133110689628e-03
2.347624438382e-03
2.259355125638e-03
2.057044978631e-03
1.720674434789e-03
2.180276423774e-03
4.467548333460e-03
1.292078551067e-03
2.659902647558e-04
4.068393518762e-04
1.553066577911e-04
4.831741285662e-04
5.080412429771e-04
1.295765419511e-03
2.473593605754e-03
2.564989205409e-03
1.463896088781e-03
1.667628744220e-03
1.676288871099e-03
3.966524029144e-03
4.251211656822e-03
4.238501109504e-03
4.643666303875e-04
8.053316297873e-05
4.672746978868e-03
6.469895081628e-04
6.686617411869e-04
-5.447265273826e-04
-7.737080377422e-04
4.720599489258e-03
4.880767035916e-03
7.561472252739e-04
8.220649129026e-04
1.244255609360e-03
2.176640084011e-04
4.940374796730e-03
1.014173220233e-03
8.581144244758e-04
7.095817438051e-04
3.469547583127e-04
1.203254102343e-04
2.784062808315e-04
2.656451861836e-04
5.129988410629e-04
1.363442251158e-03
4.681566473545e-03
1.987022770027e-03
1.858286829957e-03
2.102459930509e-03
1.694035812900e-04
1.358282185256e-03
1.353125076065e-03
2.686196970932e-03
2.784427238509e-03
7.864714717601e-04
8.135907250240e-04
6.956850727891e-04
8.674330655396e-04
3.133031699937e-03
9.190171504706e-04
2.607731256018e-03
2.727284817361e-03
2.519270420388e-03
1.752749600786e-03
1.876236695359e-03
7.407380005255e-04
9.910179953754e-04
6.901353099565e-04
9.206261009487e-04
6.782566042782e-04
4.788149858117e-03
4.916786775319e-03
4.314733656161e-03
4.276557758588e-03
3.396369745980e-04
2.893676309197e-04
6.785164805885e-04
1.298123827737e-03
4.516485568176e-03
4.495420386409e-03
4.311257523419e-03
1.321213540465e-03
5.792848384250e-04
8.290188526610e-04
-5.947992280164e-04
1.580515822723e-03
3.029889902918e-04
2.840063824433e-03
1.490356721433e-03
1.550991196912e-03
1.826464168245e-03
3.167846744495e-03
1.525936076384e-03
1.345003724038e-03
2.644968440624e-03
2.445399701447e-03
2.310192898975e-03
2.231485884507e-03
3.289339269396e-04
3.220242769056e-04
2.605634112673e-03
2.293650496065e-03
2.910247921149e-03
3.016546761923e-03
1.776708407300e-03
1.639512156733e-03
5.384782419953e-04
1.790456601257e-03
4.833617513699e-03
2.846617315499e-03
1.418829948852e-03
1.374241971621e-03
-9.661967485670e-04
-6.227532974445e-04
5.045923144026e-03
7.529848301762e-04
9.470440619318e-04
5.668734629500e-04
1.807660065142e-03
4.054488124332e-03
1.633086632598e-03
1.963287641793e-03
5.108820385617e-03
1.489117060990e-03
1.177774646964e-03
1.196933933440e-03
4.969780133510e-03
5.152653505548e-03
4.131715858859e-03
4.109638999414e-03
4.131932709251e-03
-1.915851503136e-04
-5.266926392748e-04
4.876014603837e-03
5.446079368841e-04
5.930823336214e-04
2.786860662254e-04
3.242381754212e-04
7.811607228359e-04
7.091527580184e-04
2.747062944109e-03
2.968624168740e-03
2.303721323711e-03
9.037008257379e-04
7.526284382166e-04
7.332151943404e-04
4.950035166911e-03
5.095536121421e-03
3.463080457068e-04
3.114323620635e-04
3.811211168851e-04
4.844760384143e-03
1.692362620274e-03
1.609142261045e-03
2.456293844816e-04
2.415045119918e-04
1.845050296675e-04
-7.070831379810e-05
4.463500889784e-03
4.266681532162e-03
4.662834843117e-03
5.392477560676e-04
1.807218285840e-03
1.426574910461e-03
1.409546304399e-03
1.487543777614e-03
1.878240723676e-03
1.966227060102e-03
2.202083274149e-03
-1.199186109137e-03
5.108876825172e-03
4.174785980521e-03
-1.426487915929e-03
4.137036562560e-03
4.230176068366e-03
4.080455606098e-03
5.203483263880e-04
4.006247114522e-03
4.010554608977e-03
1.713947013979e-04
5.009704476511e-03
2.661129444845e-04
3.302160781038e-04
1.504795370799e-03
1.455959001627e-03
1.577146338845e-03
1.530198476890e-03
1.404902079028e-03
1.491501014446e-03
4.076189495403e-03
1.637051009970e-03
1.582738982027e-03
1.734782195259e-03
2.384634548497e-03
1.053572889665e-03
1.151110573606e-03
1.044869091044e-03
3.167959183615e-03
3.238568908415e-03
1.429236672879e-03
1.295763101238e-03
4.169780766628e-03
4.175173865479e-03
4.301628625583e-03
4.295073532492e-03
4.425458639651e-03
4.413466119384e-03
4.549693171439e-03
2.417990885089e-03
6.262559362015e-04
2.772313415765e-03
1.727337671931e-03
1.598919533355e-03
2.010432039212e-03
1.939563789404e-03
1.493560881878e-03
8.881430473695e-04
5.039287553890e-03
-1.453205943674e-03
-1.046605855180e-03
1.016780130671e-03
2.092379371393e-03
1.256726369850e-03
1.366176653458e-03
1.058214621818e-03
1.893892907803e-04
3.760878287164e-04
4.553131819284e-03
2.143962239935e-04
1.373016281790e-03
8.640708535037e-04
1.842740858172e-03
5.277039996523e-04
9.729296381643e-04
3.024187470102e-03
3.244710168934e-03
3.046434067102e-03
8.406482191818e-04
1.583379845838e-03
1.481742606004e-03
2.491063772534e-03
4.122973050184e-03
4.069928047856e-03
4.210425809373e-03
4.003672530322e-03
3.866968678822e-03
3.794827018684e-03
3.941271286922e-03
3.718532551213e-03
3.890483006452e-03
3.626870530714e-03
3.493794100143e-03
3.402218307085e-03
3.515593536485e-03
3.272264726143e-03
1.845377057519e-03
1.108736949216e-03
-9.097098690969e-04
-6.406155672322e-04
2.056945338511e-03
4.148482066893e-03
4.500098535987e-03
6.261448020225e-04
3.198715492962e-03
2.930001185985e-03
6.354440508572e-05
2.807352865057e-03
3.932178237384e-03
3.737423485925e-03
3.806579625828e-03
4.769077965873e-03
4.126349891172e-03
2.152853534367e-03
1.120028996043e-03
1.140348384440e-03
1.034506059922e-03
3.580840350507e-03
1.707237084668e-03
1.610707429115e-03
1.556653234861e-03
1.496029529952e-03
1.601946281567e-03
3.797101627912e-03
3.608592035987e-03
2.377243623243e-04
2.916697205397e-04
3.735182324818e-04
3.657601488070e-04
2.545401718174e-04
3.451275694641e-04
4.610700690733e-04
3.152534969980e-04
3.103317452300e-03
1.568368985926e-03
8.044739927948e-04
7.324061435753e-04
6.267672699154e-04
6.253162415487e-04
6.392906367216e-04
7.307960511398e-04
6.133415333808e-04
1.923928377058e-03
1.569210105416e-03
8.338440288543e-04
5.757938947394e-04
3.761903842950e-03
3.783860874020e-03
3.672671369649e-03
3.810278973501e-03
3.881008393173e-03
8.528887860391e-04
9.221684465524e-04
8.844021408457e-04
9.880920986591e-04
9.419325269280e-04
8.505671661468e-04
1.049059285061e-03
9.871665634592e-04
3.881373396544e-03
-7.663699781571e-04
-3.717147359834e-04
-9.758550964450e-05
-1.257791435238e-04
-3.716018190654e-04
-1.061502840427e-04
-2.654897880089e-04
-7.777841396618e-04
-1.119507619267e-04
-4.593172573354e-06
-2.576823226778e-05
5.820480913954e-05
1.032314209063e-04
2.874400955701e-04
1.848710127585e-03
7.391107066032e-04
6.971538228414e-04
6.398178111153e-04
6.548140880105e-04
7.665623904806e-04
6.180549379306e-04
5.958114106194e-04
4.889161900032e-04
4.936572761782e-04
5.087043249888e-04
5.048701476690e-04
4.931467641475e-04
4.742347970694e-04
4.415898617312e-04
4.232959811016e-04
4.030045707081e-04
4.337284353428e-04
3.745266094069e-04
4.765730544929e-03
4.852163952725e-03
1.605891825908e-03
3.973853069068e-03
1.051486293014e-04
5.306307263904e-03
5.236100216287e-03
5.283238463559e-03
1.656550991590e-03
1.722431250636e-03
5.345192648831e-03
4.149874538690e-04
4.139264497429e-03
4.994124999739e-03
1.083812128580e-04
3.206528913623e-04
1.224109704685e-03
9.599905031906e-04
1.471167041304e-03
1.078741382361e-03
1.307749316023e-03
1.511352966593e-03
4.976722560508e-04
4.345535137824e-03
4.373400626271e-03
4.716401676886e-03
5.028215580082e-04
7.953005394897e-04
3.903293462888e-04
2.803447453781e-03
2.395607548503e-03
5.864828058921e-04
5.578511121936e-04
4.142713964600e-04
2.631261151346e-04
1.269485992561e-03
5.901854743801e-04
1.109564135013e-03
4.830144015185e-03
2.486197349639e-04
1.168289456712e-03
7.891404175248e-04
4.254809635897e-03
1.385507959630e-03
3.959143463694e-05
4.655654565473e-03
4.671800668205e-03
3.999689640760e-03
3.605227210731e-04
4.210418955801e-03
1.407761419230e-03
4.168909557745e-03
5.038985622006e-04
7.540605887824e-04
1.733065696467e-03
3.117617839613e-03
5.039475575461e-03
1.231619214517e-03
1.372574169154e-03
9.670503089855e-04
5.408254474173e-04
1.324394587652e-03
9.186307936191e-04
4.812018911655e-03
2.436147616943e-03
6.828700062959e-04
4.527510825579e-03
6.006521610519e-04
1.529041249785e-03
2.180435629259e-03
2.173222026147e-03
2.934707626089e-03
1.654509593824e-03
1.168485666889e-03
1.244295309040e-03
-2.812444449996e-04
1.078858675990e-03
4.110623464693e-03
2.373140838620e-03
4.975561995108e-03
1.640403029260e-03
1.272927783005e-03
4.682930918552e-03
6.562858323363e-04
5.281052792514e-04
-1.516698708396e-04
4.560926615800e-04
1.083729822338e-03
7.565763747664e-04
4.423944944425e-03
1.356769485803e-03
1.109673125904e-03
-2.458844897300e-04
2.970723042314e-03
1.442093009854e-03
7.382663247227e-04
1.498672474558e-03
8.941091012179e-04
2.620312574143e-03
2.167339934376e-03
1.529682140693e-03
1.159384153200e-03
7.619488437715e-04
4.055816275360e-03
1.690898379211e-03
1.286014765934e-03
1.784747452685e-03
6.606726572156e-04
2.748704830003e-03
8.387160536152e-04
2.395912362406e-03
4.884896105281e-03
1.370464948641e-03
3.619949929117e-03
8.080784161667e-04
1.461448324187e-03
4.706110679049e-04
2.592410149120e-03
8.854464810945e-04
4.598481471520e-04
6.598727686743e-04
1.919825746042e-03
9.609563420438e-04
5.689450289563e-04
1.033518364192e-03
2.348278029552e-03
3.539905038727e-03
1.103574714646e-03
2.525507897129e-03
3.944035157567e-04
1.719334321035e-03
1.571612980642e-03
4.250069733228e-04
6.800072589088e-04
3.662416060049e-03
1.907199819995e-03
8.060229707398e-04
2.655745671064e-03
1.670534485121e-03
1.179553678100e-03
9.639824422911e-04
1.723933700763e-03
3.712329811915e-04
3.295936806982e-04
5.562679015517e-04
2.879996734287e-03
5.064762365459e-04
3.364686713110e-03
2.369690587271e-04
4.577659883493e-04
1.765095670568e-03
4.463120586159e-03
4.484030593261e-04
5.460324830730e-04
3.835362337420e-04
1.309506274440e-03
4.193347413621e-04
3.958643037040e-04
5.155986792431e-03
4.393106376850e-04
5.379066125119e-03
1.893016499506e-03
4.169052906000e-03
1.486029962333e-03
-1.897113070308e-03
1.256140748380e-03
3.714184483366e-04
3.056415956529e-03
4.172647641811e-03
3.688706962734e-04
3.736086169001e-03
2.447504979726e-03
4.687195043633e-03
1.472375432131e-03
1.633928618583e-03
5.077435443462e-03
4.012556912120e-03
1.074494651148e-04
1.241645397597e-03
1.050688628163e-03
8.217527492259e-04
4.255132168104e-04
5.714505879337e-04
2.991097816181e-05
6.816213951951e-04
1.661920843383e-03
4.028868401597e-03
1.930891741535e-03
2.794994986864e-04
4.837434565383e-03
2.146911521902e-03
1.692513891884e-03
2.037703008007e-03
-1.875574197858e-05
3.886782505305e-03
2.985153057064e-03
4.799177983875e-03
1.768413739367e-03
3.922704647815e-03
5.223400561130e-03
-2.884008678242e-04
5.247287831237e-03
3.184264547511e-03
4.325082023264e-03
3.675137690733e-03
1.781487107193e-03
4.088071528461e-03
-3.840050875762e-04
4.666059834508e-03
6.386761518560e-04
-1.139493479615e-03
1.529186862063e-03
3.312918070030e-03
1.734622455491e-03
5.142368596328e-04
2.062961616391e-04
1.513496096729e-03
3.401772506123e-03
-5.504136461970e-05
5.156292675089e-03
-8.834220247757e-04
3.964803073748e-03
3.535296859289e-04
1.823246320471e-03
5.087859893083e-03
7.220988456718e-04
3.567498803829e-03
5.632732613305e-04
2.454667778331e-03
1.288693397375e-04
5.174761541511e-03
1.519728757215e-03
4.584807607433e-03
1.921546119720e-03
-1.376632028978e-03
2.305477047111e-03
1.469061641071e-03
4.029513711607e-03
4.323349638787e-03
6.109019583305e-04
4.351026609312e-04
5.408892528893e-03
5.247310985943e-04
4.039087691134e-03
1.937179507154e-03
4.881389273066e-04
4.274854785959e-03
3.587245020170e-03
9.219920023480e-04
4.980880351691e-03
-7.162822975933e-06
-1.937033705701e-03
4.542863361480e-03
2.034403248985e-03
4.804620816751e-03
4.414094203192e-03
-3.344376603831e-04
3.411978294656e-03
7.742369169278e-04
2.805619803701e-03
1.566227737478e-03
-1.052050682224e-03
1.010464569831e-03
3.042807620887e-04
1.632143065021e-03
8.210262150854e-04
3.479356639309e-03
3.856667127078e-03

SCALARS node_materi_strain_total_size_dev_sd_ept float
LOOKUP_TABLE default
2.668677586103e-03
1.213127257351e-02
4.961884895269e-03
1.357446929870e-02
1.999606577631e-03
1.157044606387e-03
6.260268322264e-04
1.065943622400e-03
1.730317177423e-03
2.279262486568e-03
2.713240009918e-03
3.037939606039e-03
3.274188958046e-03
3.455035409762e-03
3.601130680695e-03
3.741018398296e-03
3.873967075563e-03
4.010875189662e-03
4.177735930943e-03
4.353861765181e-03
4.539257164963e-03
4.724343189131e-03
4.888301450439e-03
1.355272669710e-02
1.354173846118e-02
1.354402747322e-02
1.353230814224e-02
1.353062025321e-02
1.352125856068e-02
1.350694622412e-02
1.347522773601e-02
1.344798003469e-02
1.339521907996e-02
1.335850147505e-02
1.329076396208e-02
1.320586353363e-02
1.309184317217e-02
1.297185836367e-02
1.279192897994e-02
1.260165918199e-02
1.237403257436e-02
1.210879246614e-02
1.180591892158e-02
1.144487574682e-02
1.105105071633e-02
1.060321976853e-02
1.011133001080e-02
9.591234652162e-03
9.039097533774e-03
8.453164746991e-03
7.840662156721e-03
7.216173770983e-03
6.638204282078e-03
6.025776036466e-03
5.423821479332e-03
4.862416530232e-03
4.437850550488e-03
4.087834821215e-03
3.864032084260e-03
3.751502544339e-03
3.736374331062e-03
3.791864879590e-03
3.917293490470e-03
4.083328225581e-03
4.272825683230e-03
4.421569276530e-03
4.526248774321e-03
4.689425462201e-03
4.772260288815e-03
4.851623353538e-03
4.916369754722e-03
4.947954405700e-03
1.244729724198e-02
1.274805389046e-02
1.300534893918e-02
1.321480890924e-02
1.338328125549e-02
1.350626448240e-02
1.358175389139e-02
1.361001674610e-02
1.361254508396e-02
4.688009256645e-03
1.289671451974e-02
5.778390610854e-03
5.713152319380e-03
6.153873889614e-03
6.635304759330e-03
7.315598445251e-03
8.243516597863e-03
9.405037407808e-03
1.082057521183e-02
1.270538055628e-02
1.192585566823e-02
1.208217769315e-02
1.210070570033e-02
1.210999137367e-02
1.211803724994e-02
1.217990647286e-02
1.215655142365e-02
1.217530857378e-02
1.219802606899e-02
1.224559518117e-02
1.228599442689e-02
1.233616193664e-02
1.240655802945e-02
1.249965666913e-02
1.264047227499e-02
3.207095898446e-03
3.044057334913e-03
3.250795395554e-03
3.199980303067e-03
3.347262883930e-03
2.532170922546e-03
1.042763913725e-03
5.067792065536e-04
2.753747320191e-04
2.793475645703e-04
5.528392985179e-04
9.413833922103e-04
1.366609174306e-03
1.740926801065e-03
2.009220327029e-03
2.244433419045e-03
2.428514762489e-03
2.593079538316e-03
2.707516510329e-03
1.290757770783e-02
1.238940615728e-02
1.223521588058e-02
1.212591275704e-02
1.206714129249e-02
1.202859638314e-02
1.200651012686e-02
1.199311387534e-02
1.198033111685e-02
1.196984942005e-02
1.195973550643e-02
1.195155550191e-02
1.194474614827e-02
1.193425225632e-02
1.192848047309e-02
1.191008860788e-02
6.407685910640e-03
5.504271160203e-03
5.918357715476e-03
6.387866941643e-03
7.029924213950e-03
7.808130185865e-03
8.800795347756e-03
1.005680419456e-02
1.182810397326e-02
1.301222162051e-02
5.606633759118e-03
4.204648065386e-03
7.370008198809e-04
3.313210253138e-03
3.396659897305e-03
6.442647161389e-03
3.520281332111e-03
6.468558762804e-03
7.947707178870e-03
8.978118813886e-03
1.045686423140e-02
4.173379298859e-03
1.215864615511e-03
1.106523647299e-02
1.276901075292e-02
2.525623311525e-03
3.882305438748e-03
1.217988155549e-02
1.310733774284e-02
1.358966075563e-02
1.356983417916e-02
1.342478062779e-02
1.295501236889e-02
1.266969404184e-02
1.255712235983e-02
1.331056590636e-02
4.620433920933e-03
2.984449811273e-03
1.876087200327e-03
4.416039122067e-03
1.242499293266e-02
7.717444840276e-04
1.271490197359e-02
7.819326746317e-03
1.010520401751e-02
5.292878675558e-03
3.548705948653e-03
2.670204350606e-03
1.279069959046e-02
3.648958218141e-03
1.355199009248e-02
5.770808958403e-04
3.156582764679e-03
1.358747131888e-02
7.079143966959e-03
5.981420462369e-03
9.078312244725e-03
1.204401314951e-02
6.035776323566e-03
1.290526346144e-02
4.850358448545e-03
2.159343156865e-03
1.360703859224e-02
1.299006904518e-02
1.275998863539e-02
1.303724873718e-02
1.274022312966e-02
1.300940356844e-02
1.269998662485e-02
1.235765494477e-02
1.232238733005e-02
1.190806584624e-02
1.298784113411e-02
1.188952157187e-02
1.142187264282e-02
1.142156521276e-02
1.091635817119e-02
1.089843428548e-02
1.037279913055e-02
1.031326358871e-02
9.776757539385e-03
9.840202935377e-03
9.237595226830e-03
9.137542443642e-03
8.613631002807e-03
8.501145486939e-03
7.996930284602e-03
7.882271686888e-03
7.413391779089e-03
7.521189448064e-03
6.984211886065e-03
6.889816453148e-03
6.510436295398e-03
6.437811501748e-03
6.128825802847e-03
6.175985043530e-03
5.908791757565e-03
5.958963555674e-03
5.890643804346e-03
6.015951241496e-03
6.004748632007e-03
6.100806599940e-03
6.103066510706e-03
5.949746209855e-03
6.046813631004e-03
6.172298551484e-03
6.086171465492e-03
5.907678318900e-03
5.910925866969e-03
5.652755826400e-03
5.619172819648e-03
5.846603786558e-03
5.505606048473e-03
5.136305586798e-03
4.978133531551e-03
5.354988911416e-03
4.773310131112e-03
4.298790608663e-03
4.139543575876e-03
4.561710189119e-03
4.032215982111e-03
3.720175596884e-03
3.690681081725e-03
3.970916307132e-03
3.663962512555e-03
3.349121544781e-03
3.352956669396e-03
3.048300181520e-03
3.619820884885e-03
3.345388202829e-03
3.540885923968e-03
3.309045509933e-03
5.895930929994e-03
3.411003238799e-03
3.638742717864e-03
3.233056141218e-03
3.151343401804e-03
3.232187881762e-03
3.114415974792e-03
3.009967877710e-03
6.066485361009e-03
9.305081924012e-03
2.948712276708e-03
2.738869954380e-03
2.806976714681e-03
2.424039440101e-03
1.321565066411e-02
1.320712917858e-02
1.337553272026e-02
1.339406616851e-02
1.351034152847e-02
2.419757313901e-03
1.188463979561e-02
1.320059394832e-02
9.034429971277e-03
6.805554046952e-03
5.586077851511e-03
3.064061058221e-03
2.953709289591e-03
3.079922436705e-03
2.991365186335e-03
2.728855131882e-03
2.603378903744e-03
2.405900891928e-03
2.193086132602e-03
2.126806778680e-03
2.382933945683e-03
2.272954974111e-03
2.524308014118e-03
1.861708986655e-03
1.964458156777e-03
2.562830484212e-03
2.779674657133e-03
2.919967143886e-03
3.095366709085e-03
2.986976558675e-03
3.261616036434e-03
3.167441557400e-03
5.188994929562e-03
5.035942484388e-03
4.449357454551e-03
4.313464328249e-03
3.715093690155e-03
3.773507186332e-03
3.254029022529e-03
3.149213254791e-03
1.094034215994e-02
6.219958489526e-03
6.227194615642e-03
6.250615647514e-03
6.199583641034e-03
6.193950775046e-03
6.140836590591e-03
6.099740805151e-03
6.121040987553e-03
5.965830740961e-03
6.011333457027e-03
5.780101877153e-03
5.949668139390e-03
7.070454216502e-03
4.309938767612e-03
3.997514953215e-03
4.484884176649e-03
2.475916096077e-03
3.428709701507e-03
1.630177474467e-03
1.756815066466e-03
2.746570496229e-03
1.997678999087e-03
6.041445171978e-03
6.044621966023e-03
1.353350399996e-02
1.361352916453e-02
1.495935045728e-03
2.047589645777e-03
2.350234725304e-03
5.676814603258e-03
3.546584689121e-03
3.740819256943e-03
2.614409068794e-03
4.388554197450e-03
4.826112802985e-03
5.985456524043e-03
5.931817945638e-03
5.967179109664e-03
5.787812515493e-03
5.708521873554e-03
5.489006380303e-03
5.551912803131e-03
5.172603624050e-03
5.111642948808e-03
4.672053671745e-03
4.499609743882e-03
4.060825308116e-03
3.656998790973e-03
5.469443636256e-03
1.084835177365e-02
1.669884105696e-03
3.064675457748e-03
1.363540604414e-02
1.368548197196e-02
1.361880257695e-02
1.367567281795e-02
1.372596952461e-02
1.371156534988e-02
1.361698103263e-02
1.365715695905e-02
1.351977230409e-02
1.356978557835e-02
1.368263343459e-02
1.360473587667e-02
1.345621415878e-02
1.350676312780e-02
1.332680842866e-02
1.339359524692e-02
1.354441179491e-02
1.547428098275e-03
2.595261752606e-03
2.278590851484e-03
3.007489693687e-03
3.148107350692e-03
3.159504772367e-03
3.259507993036e-03
1.344809953554e-02
1.357123038972e-02
5.980932635273e-03
5.923079271548e-03
1.352420809184e-02
3.813469670140e-03
3.647570381323e-03
6.375136710097e-03
6.726826065409e-03
6.314123174366e-03
6.630648194762e-03
7.118042668793e-03
6.217977015844e-03
2.316042193783e-03
1.369042117472e-02
2.923074670481e-03
2.563627911718e-03
4.016886023764e-03
3.178215483823e-03
7.606852001750e-03
7.112503241327e-03
7.674356363475e-03
7.179092018545e-03
7.816660160350e-03
7.361189218161e-03
6.714381229259e-03
4.928472330618e-03
6.948242658970e-03
1.326989094375e-02
4.842118066881e-03
4.614417686765e-03
1.487965858116e-03
3.702104362309e-03
1.627965858403e-03
2.158651929526e-03
1.685854130337e-03
8.080173527037e-03
8.500544598686e-03
7.010022527526e-03
7.540526393080e-03
4.534210937145e-03
1.344388705356e-02
1.345653294078e-02
1.330975312127e-02
1.022298321569e-03
4.172543124387e-03
1.374349757589e-02
5.992866750594e-03
5.882041198051e-03
5.276829959053e-03
5.024538712954e-03
1.349368053104e-02
1.359077805873e-02
3.214034424267e-03
3.343537132824e-03
1.533404326322e-03
3.433249727506e-03
1.363873367939e-02
2.590530640728e-03
3.291156217668e-03
3.267500426220e-03
5.826639377804e-03
5.865669608455e-03
4.945077508319e-03
3.747747581754e-03
1.785240935782e-03
1.892088646151e-03
1.371849146155e-02
6.279617666054e-03
6.155077092715e-03
6.561127016257e-03
2.974013022980e-03
2.071282772808e-03
4.050279788562e-03
8.822312639339e-03
9.198082522720e-03
5.953626168389e-03
5.883133196225e-03
5.824359232263e-03
5.925867423065e-03
1.191600841198e-02
5.953101544233e-03
1.023029534187e-02
1.077867979118e-02
1.014753166883e-02
7.656931962260e-03
8.135645478055e-03
6.157250527430e-03
5.437636427068e-03
3.119774001086e-03
2.961444060434e-03
2.939602984105e-03
1.373191537340e-02
1.371564343539e-02
1.324550076420e-02
1.308762099863e-02
2.016342482029e-03
2.077849744533e-03
2.847551373442e-03
2.055998978752e-03
1.361197734120e-02
1.348343190111e-02
1.336356001421e-02
1.781252692329e-03
6.213721473568e-03
4.583933962215e-03
5.562411350334e-03
6.213310001607e-03
1.507146068406e-03
9.897930517142e-03
4.255546408164e-03
4.248631079874e-03
5.221708666273e-03
1.236529781270e-02
5.838744418473e-03
5.625373460627e-03
1.070742616025e-02
1.004712441926e-02
9.481102244508e-03
9.346884521685e-03
4.422229782039e-03
4.167615473965e-03
8.531970168148e-03
7.346664471730e-03
9.547822184235e-03
9.904315566253e-03
4.890082160725e-03
4.162696799895e-03
2.294976908873e-03
7.994996023833e-03
1.372185744753e-02
1.130862731438e-02
2.544135839392e-03
2.536782691302e-03
4.861825739209e-03
5.727242055582e-03
1.363677824123e-02
5.902929042538e-03
6.106704257250e-03
5.770071336344e-03
4.787664111974e-03
1.239031654387e-02
4.470087095236e-03
8.271568196096e-03
1.365876838453e-02
5.425386757953e-03
6.091597529425e-03
1.681899617931e-03
1.359973303215e-02
1.362813507585e-02
1.321583094987e-02
1.302828760146e-02
1.336943297897e-02
5.807124305744e-03
5.443780986920e-03
1.368662863404e-02
2.793071100631e-03
2.915866441229e-03
3.245863255298e-03
3.523442356411e-03
3.121521065245e-03
3.037462279243e-03
9.406223125518e-03
1.002980723040e-02
8.186303526046e-03
2.693717154037e-03
3.370759528760e-03
3.938259637354e-03
1.371180259398e-02
1.366678205224e-02
4.677361036019e-03
5.188367381983e-03
4.051984935171e-03
1.366675138541e-02
4.484620970651e-03
4.237619481656e-03
1.507048112076e-03
2.136832459242e-03
5.780367207240e-03
5.838476236041e-03
1.329939497833e-02
1.316014892980e-02
1.339792287457e-02
1.911696528166e-03
5.722553093695e-03
2.274104190271e-03
2.232830997237e-03
2.618222516815e-03
5.558916673762e-03
5.947775514815e-03
7.019351101485e-03
4.211202291875e-03
1.361294219682e-02
1.295759597074e-02
3.634197288494e-03
1.277357163419e-02
1.291881052771e-02
1.257831513097e-02
1.318808035521e-03
1.306079243096e-02
1.327910630152e-02
1.309515030940e-03
1.362656541535e-02
1.018188668050e-03
1.070062844927e-03
3.032290639497e-03
3.018738892247e-03
3.486668846771e-03
3.453853059585e-03
3.071607002962e-03
3.505511836858e-03
1.282052948548e-02
3.908104185336e-03
3.903959055159e-03
4.289305090550e-03
9.901558147162e-03
6.152188790340e-03
6.424775005663e-03
6.455390991382e-03
1.034167991769e-02
1.054387703209e-02
4.250529420637e-03
4.064761606543e-03
1.273348821225e-02
1.269026888570e-02
1.295506762925e-02
1.289979376050e-02
1.313121711215e-02
1.307542959992e-02
1.328028051298e-02
7.971147954792e-03
5.926877099583e-03
1.129848563857e-02
4.578909020003e-03
3.808806898385e-03
8.636560442441e-03
8.494265328625e-03
2.769164171191e-03
6.028059563205e-03
1.351334064656e-02
3.993929566143e-03
4.484118955752e-03
6.019347271173e-03
8.799481567888e-03
6.519775898201e-03
6.909210601215e-03
2.051309279889e-03
2.223072118342e-03
5.717150812407e-03
1.333066618351e-02
5.715227595540e-03
4.230150622777e-03
6.108660216526e-03
7.770253442582e-03
5.787905188389e-03
5.973477234465e-03
1.141545795215e-02
1.237976773968e-02
1.188011564062e-02
6.172979724675e-03
7.423274308740e-03
7.308383821797e-03
9.678733685189e-03
1.318263477862e-02
1.293249092309e-02
1.291022988666e-02
1.265195852925e-02
1.264332402535e-02
1.231537392531e-02
1.236434124208e-02
1.197844163096e-02
1.213220083551e-02
1.163165097782e-02
1.150804590898e-02
1.113200855282e-02
1.130356364115e-02
1.100984871329e-02
5.445575844446e-03
6.011375493794e-03
4.595738152379e-03
5.726528734169e-03
8.390475992236e-03
1.245668028859e-02
1.296295683397e-02
6.107504972064e-03
1.060742463657e-02
1.137338303612e-02
5.951518322870e-03
9.560731564830e-03
1.294680785401e-02
1.265144793512e-02
1.296427108022e-02
1.325116240012e-02
1.348480931746e-02
7.222173494415e-03
4.881700004369e-03
5.309200883850e-03
5.674101476951e-03
1.190352778470e-02
4.705320567681e-03
3.763185709085e-03
3.324362113585e-03
2.990290887046e-03
3.807699857545e-03
1.186262521445e-02
1.150525977359e-02
5.381618783831e-03
5.571039124002e-03
5.403956610498e-03
5.749518918995e-03
5.851320313937e-03
5.975420436233e-03
5.929507704834e-03
6.090734453675e-03
1.024504597951e-02
3.395744063117e-03
2.471365512216e-03
2.897137438278e-03
3.353775515885e-03
3.090482212176e-03
3.036031208849e-03
2.919495003238e-03
3.106957896977e-03
6.622690915958e-03
3.348292583319e-03
3.911321063202e-03
3.138302972598e-03
1.289118940279e-02
1.317345566866e-02
1.320635018776e-02
1.332394297425e-02
1.316384588018e-02
3.257884552952e-03
3.419032792324e-03
3.484037736790e-03
3.586823898328e-03
3.619718415856e-03
3.510341464301e-03
3.749216542340e-03
3.731938437511e-03
1.273383105725e-02
3.576841106424e-03
4.589131023350e-03
3.531421243762e-03
4.795389562399e-03
5.400317055576e-03
5.338202187116e-03
5.955373103168e-03
4.998869106957e-03
1.588497619232e-03
2.521052165728e-03
1.045493357304e-03
1.899283426912e-03
3.104290237319e-03
2.685885455416e-03
4.714826869505e-03
3.356951196942e-03
3.250853989635e-03
3.040020137925e-03
3.127578329618e-03
3.411584184981e-03
2.889023457027e-03
2.761979232600e-03
2.018653131955e-03
1.333338052178e-03
1.479636711545e-03
7.610193230310e-04
7.862674971272e-04
1.266110145723e-03
1.155572155418e-03
1.681559478383e-03
1.039142556547e-03
8.497155401773e-04
1.468190097157e-03
1.345618867250e-02
1.351931466293e-02
3.511744065534e-03
1.264216816908e-02
5.672830613712e-04
1.360297302138e-02
1.358249597963e-02
1.358620594997e-02
4.611869654573e-03
4.659878284938e-03
1.359545423761e-02
3.136497914116e-03
1.269046251082e-02
1.367193499069e-02
6.000710302711e-03
3.881373825934e-03
3.872230279601e-03
2.757014006613e-03
3.975522902905e-03
3.403962384682e-03
3.296531683331e-03
2.890984916970e-03
1.193247947665e-03
1.339060015936e-02
1.318822367869e-02
1.362694269503e-02
2.737559207807e-03
3.387508735645e-03
1.981084035119e-03
9.297408268516e-03
9.587823658643e-03
3.345543394262e-03
3.129045679185e-03
3.414845521411e-03
4.206050704597e-03
6.104054722841e-03
3.100246064169e-03
2.017523068161e-03
1.363756932088e-02
8.567388640893e-04
1.799307049533e-03
2.599269157819e-03
1.356097382377e-02
3.515860777127e-03
5.001414994616e-03
1.372915401853e-02
1.354282621074e-02
1.340205888019e-02
1.471068246950e-03
1.314315395505e-02
2.220800102167e-03
1.338828057263e-02
2.474626226012e-03
5.221838107872e-03
7.309756029255e-03
1.247447321291e-02
1.367993151676e-02
5.751438030154e-03
2.664499298822e-03
3.791258313110e-03
2.579022808176e-03
2.621054405313e-03
5.822430050414e-03
1.374213995622e-02
8.292744140078e-03
6.091789247900e-03
1.369481995799e-02
3.775125677771e-03
3.952257763501e-03
8.927156110119e-03
8.106689207360e-03
1.040344568629e-02
6.587782955283e-03
3.901778829236e-03
2.167439752978e-03
5.794555011656e-03
6.048779009882e-03
1.353742309636e-02
7.666804133210e-03
1.369899440039e-02
7.214118506766e-03
2.756046495597e-03
1.365264754077e-02
2.951870817499e-03
1.465769627382e-03
5.871011161287e-03
6.193969456359e-03
5.811601746666e-03
2.771920699663e-03
1.309160680655e-02
3.173357182501e-03
1.639933854635e-03
5.565687631294e-03
1.185880810879e-02
3.572972508047e-03
4.591364623704e-03
3.536748308266e-03
3.617492898131e-03
8.699630031560e-03
9.175543419284e-03
3.939978724163e-03
2.081500166465e-03
6.055001578851e-03
1.241046755394e-02
4.290661495262e-03
1.926429187146e-03
6.623454775576e-03
4.463212243764e-03
1.127143201368e-02
2.818235878975e-03
8.705822692427e-03
1.334594578777e-02
2.337581981386e-03
1.267639731893e-02
2.987756799799e-03
4.968507379720e-03
7.963850757816e-04
1.063858002560e-02
3.129153746959e-03
6.124509795560e-03
3.858222964223e-03
5.709047958721e-03
3.313163884108e-03
6.041081642334e-03
3.514790457388e-03
9.735073159050e-03
1.230282865978e-02
3.720045181848e-03
8.784887217935e-03
1.005487496907e-03
6.172848431686e-03
4.453289711706e-03
3.796083424629e-03
3.378315572655e-03
1.229438244983e-02
8.467080029446e-03
2.818758888294e-03
8.939224299399e-03
5.725692752244e-03
5.581613677897e-03
2.152719016748e-03
7.911686720111e-03
3.315757139617e-03
3.071563137767e-03
5.751784654257e-03
9.605452170690e-03
7.870264548715e-04
1.144661616114e-02
2.806663684702e-03
5.604718433787e-03
5.322508065015e-03
1.313465750873e-02
5.169860519579e-03
2.049045942694e-03
4.939798219988e-03
5.292938913065e-03
4.367121915724e-03
4.197256027744e-03
1.364892110766e-02
3.901983480646e-03
1.359416951652e-02
4.859107283710e-03
1.262834976939e-02
7.546242654535e-03
2.730475069693e-03
6.786565479066e-03
3.882096367967e-03
1.047226122706e-02
1.265352683364e-02
3.644975357423e-03
1.175305009146e-02
8.422056253892e-03
1.340487315946e-02
3.183363108751e-03
5.278264110967e-03
1.360259767144e-02
1.245666780856e-02
1.522042242930e-03
4.057210892583e-03
6.746477788079e-03
6.116628543968e-03
5.798973128829e-03
2.673897929261e-03
3.893583483835e-03
6.173442751544e-03
4.212444155125e-03
1.294070359843e-02
5.899152813687e-03
5.801277425037e-03
1.355961433180e-02
6.859907274862e-03
3.982075928514e-03
6.250300268671e-03
5.766200627749e-03
1.334105201789e-02
9.845119158615e-03
1.352770745744e-02
4.331271707336e-03
1.303361300503e-02
1.362310569827e-02
6.065883835361e-03
1.361076391477e-02
1.061005616077e-02
1.304974423716e-02
1.319755890445e-02
4.675959054509e-03
1.248304030398e-02
5.872595794166e-03
1.342349653089e-02
3.107585794017e-03
4.416283368960e-03
3.086693402368e-03
1.079750216139e-02
4.478696563862e-03
7.917551042456e-04
9.099045983534e-04
2.834975871972e-03
1.098035129230e-02
5.869905971262e-03
1.351267759625e-02
5.399860827526e-03
1.248885784701e-02
9.771734656080e-04
4.537819737775e-03
1.365153484588e-02
3.322589573169e-03
1.300328700767e-02
2.393504167819e-03
8.016117434314e-03
2.399705989956e-03
1.364150417083e-02
2.894814472459e-03
1.324152104700e-02
6.109340476628e-03
3.788496131050e-03
7.607984752176e-03
2.700722523398e-03
1.241773775393e-02
1.286354643921e-02
2.933901537458e-03
1.114959938670e-03
1.358685496444e-02
2.369049034202e-03
1.235046609669e-02
4.926136126004e-03
7.890236426189e-04
1.284434743895e-02
1.141310410160e-02
3.672876219147e-03
1.357794426714e-02
4.680350733020e-03
2.734778219493e-03
1.325113514957e-02
6.415973901246e-03
1.347408387595e-02
1.316148199203e-02
5.843403704464e-03
1.101429193112e-02
3.409527423715e-03
9.238967756384e-03
3.537633082377e-03
5.628820997343e-03
3.784364153721e-03
9.230839408054e-04
3.790035280935e-03
3.504247065756e-03
1.282785344462e-02
1.195237530831e-02


CELL_DATA 1956

SCALARS element_number int
LOOKUP_TABLE default
407
408
409
410
411
412
413
414
415
416
417
418
419
420
421
422
423
424
425
426
427
428
429
430
431
432
433
434
435
436
437
438
439
440
441
442
443
444
445
446
447
448
449
450
451
452
453
454
455
456
457
458
459
460
461
462
463
464
465
466
467
468
469
470
471
472
473
474
475
476
477
478
479
480
481
482
483
484
485
486
487
488
489
490
491
492
493
494
495
496
497
498
499
500
501
502
503
504
505
506
507
508
509
510
511
512
513
514
515
516
517
518
519
520
521
522
523
524
525
526
527
528
529
530
531
532
533
534
535
536
537
538
539
540
541
542
543
544
545
546
547
548
549
550
551
552
553
554
555
556
557
558
559
560
561
562
563
564
565
566
567
568
569
570
571
572
573
574
575
576
577
578
579
580
581
582
583
584
585
586
587
588
589
590
591
592
593
594
595
596
597
598
599
600
601
602
603
604
605
606
607
608
609
610
611
612
613
614
615
616
617
618
619
620
621
622
623
624
625
626
627
628
629
630
631
632
633
634
635
636
637
638
639
640
641
642
643
644
645
646
647
648
649
650
651
652
653
654
655
656
657
658
659
660
661
662
663
664
665
666
667
668
669
670
671
672
673
674
675
676
677
678
679
680
681
682
683
684
685
686
687
688
689
690
691
692
693
694
695
696
697
698
699
700
701
702
703
704
705
706
707
708
709
710
711
712
713
714
715
716
717
718
719
720
721
722
723
724
725
726
727
728
729
730
731
732
733
734
735
736
737
738
739
740
741
742
743
744
745
746
747
748
749
750
751
752
753
754
755
756
757
758
759
760
761
762
763
764
765
766
767
768
769
770
771
772
773
774
775
776
777
778
779
780
781
782
783
784
785
786
787
788
789
790
791
792
793
794
795
796
797
798
799
800
801
802
803
804
805
806
807
808
809
810
811
812
813
814
815
816
817
818
819
820
821
822
823
824
825
826
827
828
829
830
831
832
833
834
835
836
837
838
839
840
841
842
843
844
845
846
847
848
849
850
851
852
853
854
855
856
857
858
859
860
861
862
863
864
865
866
867
868
869
870
871
872
873
874
875
876
877
878
879
880
881
882
883
884
885
886
887
888
889
890
891
892
893
894
895
896
897
898
899
900
901
902
903
904
905
906
907
908
909
910
911
912
913
914
915
916
917
918
919
920
921
922
923
924
925
926
927
928
929
930
931
932
933
934
935
936
937
938
939
940
941
942
943
944
945
946
947
948
949
950
951
952
953
954
955
956
957
958
959
960
961
962
963
964
965
966
967
968
969
970
971
972
973
974
975
976
977
978
979
980
981
982
983
984
985
986
987
988
989
990
991
992
993
994
995
996
997
998
999
1000
1001
1002
1003
1004
1005
1006
1007
1008
1009
1010
1011
1012
1013
1014
1015
1016
1017
1018
1019
1020
1021
1022
1023
1024
1025
1026
1027
1028
1029
1030
1031
1032
1033
1034
1035
1036
1037
1038
1039
1040
1041
1042
1043
1044
1045
1046
1047
1048
1049
1050
1051
1052
1053
1054
1055
1056
1057
1058
1059
1060
1061
1062
1063
1064
1065
1066
1067
1068
1069
1070
1071
1072
1073
1074
1075
1076
1077
1078
1079
1080
1081
1082
1083
1084
1085
1086
1087
1088
1089
1090
1091
1092
1093
1094
1095
1096
1097
1098
1099
1100
1101
1102
1103
1104
1105
1106
1107
1108
1109
1110
1111
1112
1113
1114
1115
1116
1117
1118
1119
1120
1121
1122
1123
1124
1125
1126
1127
1128
1129
1130
1131
1132
1133
1134
1135
1136
1137
1138
1139
1140
1141
1142
1143
1144
1145
1146
1147
1148
1149
1150
1151
1152
1153
1154
1155
1156
1157
1158
1159
1160
1161
1162
1163
1164
1165
1166
1167
1168
1169
1170
1171
1172
1173
1174
1175
1176
1177
1178
1179
1180
1181
1182
1183
1184
1185
1186
1187
1188
1189
1190
1191
1192
1193
1194
1195
1196
1197
1198
1199
1200
1201
1202
1203
1204
1205
1206
1207
1208
1209
1210
1211
1212
1213
1214
1215
1216
1217
1218
1219
1220
1221
1222
1223
1224
1225
1226
1227
1228
1229
1230
1231
1232
1233
1234
1235
1236
1237
1238
1239
1240
1241
1242
1243
1244
1245
1246
1247
1248
1249
1250
1251
1252
1253
1254
1255
1256
1257
1258
1259
1260
1261
1262
1263
1264
1265
1266
1267
1268
1269
1270
1271
1272
1273
1274
1275
1276
1277
1278
1279
1280
1281
1282
1283
1284
1285
1286
1287
1288
1289
1290
1291
1292
1293
1294
1295
1296
1297
1298
1299
1300
1301
1302
1303
1304
1305
1306
1307
1308
1309
1310
1311
1312
1313
1314
1315
1316
1317
1318
1319
1320
1321
1322
1323
1324
1325
1326
1327
1328
1329
1330
1331
1332
1333
1334
1335
1336
1337
1338
1339
1340
1341
1342
1343
1344
1345
1346
1347
1348
1349
1350
1351
1352
1353
1354
1355
1356
1357
1358
1359
1360
1361
1362
1363
1364
1365
1366
1367
1368
1369
1370
1371
1372
1373
1374
1375
1376
1377
1378
1379
1380
1381
1382
1383
1384
1385
1386
1387
1388
1389
1390
1391
1392
1393
1394
1395
1396
1397
1398
1399
1400
1401
1402
1403
1404
1405
1406
1407
1408
1409
1410
1411
1412
1413
1414
1415
1416
1417
1418
1419
1420
1421
1422
1423
1424
1425
1426
1427
1428
1429
1430
1431
1432
1433
1434
1435
1436
1437
1438
1439
1440
1441
1442
1443
1444
1445
1446
1447
1448
1449
1450
1451
1452
1453
1454
1455
1456
1457
1458
1459
1460
1461
1462
1463
1464
1465
1466
1467
1468
1469
1470
1471
1472
1473
1474
1475
1476
1477
1478
1479
1480
1481
1482
1483
1484
1485
1486
1487
1488
1489
1490
1491
1492
1493
1494
1495
1496
1497
1498
1499
1500
1501
1502
1503
1504
1505
1506
1507
1508
1509
1510
1511
1512
1513
1514
1515
1516
1517
1518
1519
1520
1521
1522
1523
1524
1525
1526
1527
1528
1529
1530
1531
1532
1533
1534
1535
1536
1537
1538
1539
1540
1541
1542
1543
1544
1545
1546
1547
1548
1549
1550
1551
1552
1553
1554
1555
1556
1557
1558
1559
1560
1561
1562
1563
1564
1565
1566
1567
1568
1569
1570
1571
1572
1573
1574
1575
1576
1577
1578
1579
1580
1581
1582
1583
1584
1585
1586
1587
1588
1589
1590
1591
1592
1593
1594
1595
1596
1597
1598
1599
1600
1601
1602
1603
1604
1605
1606
1607
1608
1609
1610
1611
1612
1613
1614
1615
1616
1617
1618
1619
1620
1621
1622
1623
1624
1625
1626
1627
1628
1629
1630
1631
1632
1633
1634
1635
1636
1637
1638
1639
1640
1641
1642
1643
1644
1645
1646
1647
1648
1649
1650
1651
1652
1653
1654
1655
1656
1657
1658
1659
1660
1661
1662
1663
1664
1665
1666
1667
1668
1669
1670
1671
1672
1673
1674
1675
1676
1677
1678
1679
1680
1681
1682
1683
1684
1685
1686
1687
1688
1689
1690
1691
1692
1693
1694
1695
1696
1697
1698
1699
1700
1701
1702
1703
1704
1705
1706
1707
1708
1709
1710
1711
1712
1713
1714
1715
1716
1717
1718
1719
1720
1721
1722
1723
1724
1725
1726
1727
1728
1729
1730
1731
1732
1733
1734
1735
1736
1737
1738
1739
1740
1741
1742
1743
1744
1745
1746
1747
1748
1749
1750
1751
1752
1753
1754
1755
1756
1757
1758
1759
1760
1761
1762
1763
1764
1765
1766
1767
1768
1769
1770
1771
1772
1773
1774
1775
1776
1777
1778
1779
1780
1781
1782
1783
1784
1785
1786
1787
1788
1789
1790
1791
1792
1793
1794
1795
1796
1797
1798
1799
1800
1801
1802
1803
1804
1805
1806
1807
1808
1809
1810
1811
1812
1813
1814
1815
1816
1817
1818
1819
1820
1821
1822
1823
1824
1825
1826
1827
1828
1829
1830
1831
1832
1833
1834
1835
1836
1837
1838
1839
1840
1841
1842
1843
1844
1845
1846
1847
1848
1849
1850
1851
1852
1853
1854
1855
1856
1857
1858
1859
1860
1861
1862
1863
1864
1865
1866
1867
1868
1869
1870
1871
1872
1873
1874
1875
1876
1877
1878
1879
1880
1881
1882
1883
1884
1885
1886
1887
1888
1889
1890
1891
1892
1893
1894
1895
1896
1897
1898
1899
1900
1901
1902
1903
1904
1905
1906
1907
1908
1909
1910
1911
1912
1913
1914
1915
1916
1917
1918
1919
1920
1921
1922
1923
1924
1925
1926
1927
1928
1929
1930
1931
1932
1933
1934
1935
1936
1937
1938
1939
1940
1941
1942
1943
1944
1945
1946
1947
1948
1949
1950
1951
1952
1953
1954
1955
1956
1957
1958
1959
1960
1961
1962
1963
1964
1965
1966
1967
1968
1969
1970
1971
1972
1973
1974
1975
1976
1977
1978
1979
1980
1981
1982
1983
1984
1985
1986
1987
1988
1989
1990
1991
1992
1993
1994
1995
1996
1997
1998
1999
2000
2001
2002
2003
2004
2005
2006
2007
2008
2009
2010
2011
2012
2013
2014
2015
2016
2017
2018
2019
2020
2021
2022
2023
2024
2025
2026
2027
2028
2029
2030
2031
2032
2033
2034
2035
2036
2037
2038
2039
2040
2041
2042
2043
2044
2045
2046
2047
2048
2049
2050
2051
2052
2053
2054
2055
2056
2057
2058
2059
2060
2061
2062
2063
2064
2065
2066
2067
2068
2069
2070
2071
2072
2073
2074
2075
2076
2077
2078
2079
2080
2081
2082
2083
2084
2085
2086
2087
2088
2089
2090
2091
2092
2093
2094
2095
2096
2097
2098
2099
2100
2101
2102
2103
2104
2105
2106
2107
2108
2109
2110
2111
2112
2113
2114
2115
2116
2117
2118
2119
2120
2121
2122
2123
2124
2125
2126
2127
2128
2129
2130
2131
2132
2133
2134
2135
2136
2137
2138
2139
2140
2141
2142
2143
2144
2145
2146
2147
2148
2149
2150
2151
2152
2153
2154
2155
2156
2157
2158
2159
2160
2161
2162
2163
2164
2165
2166
2167
2168
2169
2170
2171
2172
2173
2174
2175
2176
2177
2178
2179
2180
2181
2182
2183
2184
2185
2186
2187
2188
2189
2190
2191
2192
2193
2194
2195
2196
2197
2198
2199
2200
2201
2202
2203
2204
2205
2206
2207
2208
2209
2210
2211
2212
2213
2214
2215
2216
2217
2218
2219
2220
2221
2222
2223
2224
2225
2226
2227
2228
2229
2230
2231
2232
2233
2234
2235
2236
2237
2238
2239
2240
2241
2242
2243
2244
2245
2246
2247
2248
2249
2250
2251
2252
2253
2254
2255
2256
2257
2258
2259
2260
2261
2262
2263
2264
2265
2266
2267
2268
2269
2270
2271
2272
2273
2274
2275
2276
2277
2278
2279
2280
2281
2282
2283
2284
2285
2286
2287
2288
2289
2290
2291
2292
2293
2294
2295
2296
2297
2298
2299
2300
2301
2302
2303
2304
2305
2306
2307
2308
2309
2310
2311
2312
2313
2314
2315
2316
2317
2318
2319
2320
2321
2322
2323
2324
2325
2794
2795
2796
2797
2798
2799
2800
2801
2802
2803
2804
2805
2806
2807
2808
2809
2810
2811
2812
2813
2814
2815
2816
2817
2818
2819
2820
2821
2822
2823
2824
2825
2826
2827
2828
2829
2830

SCALARS element_group int
LOOKUP_TABLE default
0
0
0
0
0
0
0
0
0
0
0
0
0
0
0
0
0
0
0
0
0
0
0
0
0
0
0
0
0
0
0
0
0
0
0
0
0
0
0
0
0
0
0
0
0
0
0
0
0
0
0
0
0
0
0
0
0
0
0
0
0
0
0
0
0
0
0
0
0
0
0
0
0
0
0
0
0
0
0
0
0
0
0
0
0
0
0
0
0
0
0
0
0
0
0
0
0
0
0
0
0
0
0
0
0
0
0
0
0
0
0
0
0
0
0
0
0
0
0
0
0
0
0
0
0
0
0
0
0
0
0
0
0
0
0
0
0
0
0
0
0
0
0
0
0
0
0
0
0
0
0
0
0
0
0
0
0
0
0
0
0
0
0
0
0
0
0
0
0
0
0
0
0
0
0
0
0
0
0
0
0
0
0
0
0
0
0
0
0
0
0
0
0
0
0
0
0
0
0
0
0
0
0
0
0
0
0
0
0
0
0
0
0
0
0
0
0
0
0
0
0
0
0
0
0
0
0
0
0
0
0
0
0
0
0
0
0
0
0
0
0
0
0
0
0
0
0
0
0
0
0
0
0
0
0
0
0
0
0
0
0
0
0
0
0
0
0
0
0
0
0
0
0
0
0
0
0
0
0
0
0
0
0
0
0
0
0
0
0
0
0
0
0
0
0
0
0
0
0
0
0
0
0
0
0
0
0
0
0
0
0
0
0
0
0
0
0
0
0
0
0
0
0
0
0
0
0
0
0
0
0
0
0
0
0
0
0
0
0
0
0
0
0
0
0
0
0
0
0
0
0
0
0
0
0
0
0
0
0
0
0
0
0
0
0
0
0
0
0
0
0
0
0
0
0
0
0
0
0
0
0
0
0
0
0
0
0
0
0
0
0
0
0
0
0
0
0
0
0
0
0
0
0
0
0
0
0
0
0
0
0
0
0
0
0
0
0
0
0
0
0
0
0
0
0
0
0
0
0
0
0
0
0
0
0
0
0
0
0
0
0
0
0
0
0
0
0
0
0
0
0
0
0
0
0
0
0
0
0
0
0
0
0
0
0
0
0
0
0
0
0
0
0
0
0
0
0
0
0
0
0
0
0
0
0
0
0
0
0
0
0
0
0
0
0
0
0
0
0
0
0
0
0
0
0
0
0
0
0
0
0
0
0
0
0
0
0
0
0
0
0
0
0
0
0
0
0
0
0
0
0
0
0
0
0
0
0
0
0
0
0
0
0
0
0
0
0
0
0
0
0
0
0
0
0
0
0
0
0
0
0
0
0
0
0
0
0
0
0
0
0
0
0
0
0
0
0
0
0
0
0
0
0
0
0
0
0
0
0
0
0
0
0
0
0
0
0
0
0
0
0
0
0
0
0
0
0
0
0
0
0
0
0
0
0
0
0
0
0
0
0
0
0
0
0
0
0
0
0
0
0
0
0
0
0
0
0
0
0
0
0
0
0
0
0
0
0
0
0
0
0
0
0
0
0
0
0
0
0
0
0
0
0
0
0
0
0
0
0
0
0
0
0
0
0
0
0
0
0
0
0
0
0
0
0
0
0
0
0
0
0
0
0
0
0
0
0
0
0
0
0
0
0
0
0
0
0
0
0
0
0
0
0
0
0
0
0
0
0
0
0
0
0
0
0
0
0
0
0
0
0
0
0
0
0
0
0
0
0
0
0
0
0
0
0
0
0
0
0
0
0
0
0
0
0
0
0
0
0
0
0
0
0
0
0
0
0
0
0
0
0
0
0
0
0
0
0
0
0
0
0
0
0
0
0
0
0
0
0
0
0
0
0
0
0
0
0
0
0
0
0
0
0
0
0
0
0
0
0
0
0
0
0
0
0
0
0
0
0
0
0
0
0
0
0
0
0
0
0
0
0
0
0
0
0
0
0
0
0
0
0
0
0
0
0
0
0
0
0
0
0
0
0
0
0
0
0
0
0
0
0
0
0
0
0
0
0
0
0
0
0
0
0
0
0
0
0
0
0
0
0
0
0
0
0
0
0
0
0
0
0
0
0
0
0
0
0
0
0
0
0
0
0
0
0
0
0
0
0
0
0
0
0
0
0
0
0
0
0
0
0
0
0
0
0
0
0
0
0
0
0
0
0
0
0
0
0
0
0
0
0
0
0
0
0
0
0
0
0
0
0
0
0
0
0
0
0
0
0
0
0
0
0
0
0
0
0
0
0
0
0
0
0
0
0
0
0
0
0
0
0
0
0
0
0
0
0
0
0
0
0
0
0
0
0
0
0
0
0
0
0
0
0
0
0
0
0
0
0
0
0
0
0
0
0
0
0
0
0
0
0
0
0
0
0
0
0
0
0
0
0
0
0
0
0
0
0
0
0
0
0
0
0
0
0
0
0
0
0
0
0
0
0
0
0
0
0
0
0
0
0
0
0
0
0
0
0
0
0
0
0
0
0
0
0
0
0
0
0
0
0
0
0
0
0
0
0
0
0
0
0
0
0
0
0
0
0
0
0
0
0
0
0
0
0
0
0
0
0
0
0
0
0
0
0
0
0
0
0
0
0
0
0
0
0
0
0
0
0
0
0
0
0
0
0
0
0
0
0
0
0
0
0
0
0
0
0
0
0
0
0
0
0
0
0
0
0
0
0
0
0
0
0
0
0
0
0
0
0
0
0
0
0
0
0
0
0
0
0
0
0
0
0
0
0
0
0
0
0
0
0
0
0
0
0
0
0
0
0
0
0
0
0
0
0
0
0
0
0
0
0
0
0
0
0
0
0
0
0
0
0
0
0
0
0
0
0
0
0
0
0
0
0
0
0
0
0
0
0
0
0
0
0
0
0
0
0
0
0
0
0
0
0
0
0
0
0
0
0
0
0
0
0
0
0
0
0
0
0
0
0
0
0
0
0
0
0
0
0
0
0
0
0
0
0
0
0
0
0
0
0
0
0
0
0
0
0
0
0
0
0
0
0
0
0
0
0
0
0
0
0
0
0
0
0
0
0
0
0
0
0
0
0
0
0
0
0
0
0
0
0
0
0
0
0
0
0
0
0
0
0
0
0
0
0
0
0
0
0
0
0
0
0
0
0
0
0
0
0
0
0
0
0
0
0
0
0
0
0
0
0
0
0
0
0
0
0
0
0
0
0
0
0
0
0
0
0
0
0
0
0
0
0
0
0
0
0
0
0
0
0
0
0
0
0
0
0
0
0
0
0
0
0
0
0
0
0
0
0
0
0
0
0
0
0
0
0
0
0
0
0
0
0
0
0
0
0
0
0
0
0
0
0
0
0
0
0
0
0
0
0
0
0
0
0
0
0
0
0
0
0
0
0
0
0
0
0
0
0
0
0
0
0
0
0
0
0
0
0
0
0
0
0
0
0
0
0
0
0
0
0
0
0
0
0
0
0
0
0
0
0
0
0
0
0
0
0
0
0
0
0
0
0
0
0
0
0
0
0
0
0
0
0
0
0
0
0
0
0
0
0
0
0
0
0
0
0
0
0
0
0
0
0
0
0
0
0
0
0
0
0
0
0
0
0
0
0
0
0
0
0
0
0
0
0
0
0
0
0
0
0
0
0
0
0
0
0
0
0
0
0
0
0
0
0
0
0
0
0
0
0
0
0
0
0
0
0
0
0
0
0
0
0
0
0
0
0
0
0
0
0
0
0
0
0
0
0
0
0
0
0
0
0
0
0
0
0
0
0
0
0
0
0
0
0
0
0
0
0
0
0
0
0
0
0
0
0
0
0
0
0
0
0
0
0
0
0
0
0
0
0
0
0
0
0
0
0
0
0
0
0
0
0
0
0
0
0
0
0
0
0
0
0
0
0
0
0
0
0
0
0
0
0
0
0
0
0
0
0
0
0
0
0
0
0
0
0
0
0
0
0
0
0
0
0
0
0
0
0
0
0
0
0
0
0
0
0
0
0
0
0
0
0
0
0
0
0
0
0
0
0
0
0
0
0
0
0
0
0
0
0
0
0
0
0
0
0
0
0
0
0
0
0
0
0
0
0
0
0
0
0
0
0
0
0
0
0
0
0
0
0
0
0
0
0
0
0
0
0
0
0
0
0
0
0
0
0
0
0
0
0
0
0
0
0
0
0
0
0
0
0
0
0
0
0
0
0
0
0
0
0
0
0
0
0
0
0
0
0
0
0
0
0
0
0
0
0
0
0
0
0
0
0
0
0
0
0
0
0
0
0
0
0
0
0
0
0
0
0
0
0
0
0
0
0
0
0
0
0
0
0
0
0
0
0
0
0
0
0
0
0
0
0
0
0
0
0
0
0
0
0
0
0
0
0
0
0
0
0
0
0
0
0
0
0
0
0
0
0
0
0
0
0
0
0
0
0
0
0
0
0
0
0
0
0
0
0
0
0
0
0
0
0
0
0
0
0
0
0
0
0
0
0
0
0
0
0
0
0
0
0
0
0
0
0
0


VECTORS element_materi_velocity float
8.217947828415e-04 5.949937424833e-04 0.0 
8.520324289016e-04 4.835917339242e-04 0.0 
8.303427343850e-04 5.001404290117e-04 0.0 
1.423774660736e-04 1.500200853947e-03 0.0 
9.431950431399e-04 8.438829195857e-03 0.0 
4.555962449468e-04 -2.487361801753e-04 0.0 
7.222319899531e-04 8.424401675083e-03 0.0 
7.689473326326e-04 3.720811854109e-04 0.0 
7.932289249533e-04 8.463303476441e-03 0.0 
2.116241072658e-04 1.532016891552e-03 0.0 
4.183295982673e-05 -5.542211893938e-05 0.0 
6.832367978196e-04 3.668240581594e-04 0.0 
1.602438104271e-05 1.969130100300e-06 0.0 
1.666694823952e-03 6.996428690314e-03 0.0 
1.309176857727e-05 2.315077588029e-06 0.0 
1.168921938995e-04 1.056966213435e-03 0.0 
1.159080602849e-03 8.583539244854e-03 0.0 
4.577232698866e-04 -2.670119521658e-04 0.0 
5.558193860206e-05 -2.173406306853e-04 0.0 
4.176918106977e-05 -2.101598050442e-04 0.0 
2.537011326712e-04 1.566901092019e-03 0.0 
1.071363086998e-03 9.682719894436e-04 0.0 
1.217750575636e-03 1.022439670094e-03 0.0 
2.646713175133e-04 9.763476592319e-06 0.0 
2.156839309912e-03 5.430234208804e-03 0.0 
4.523712233512e-05 -4.678172017133e-05 0.0 
1.663641034602e-03 7.577007577884e-03 0.0 
5.512796096968e-04 1.299632571668e-04 0.0 
2.281553616893e-03 5.175195245913e-03 0.0 
2.135296634090e-04 1.110138112584e-05 0.0 
4.389898862542e-04 -3.291843832522e-04 0.0 
2.888368681848e-04 -3.105443519160e-04 0.0 
9.896219960124e-04 6.447437416028e-04 0.0 
1.191937807342e-05 -1.270808124217e-05 0.0 
9.274275999191e-05 2.959845424042e-06 0.0 
2.484153885061e-05 1.773096207278e-06 0.0 
2.263756857963e-05 1.722052954476e-06 0.0 
3.050108553248e-04 3.766470671482e-05 0.0 
5.653841402130e-04 9.397408865394e-03 0.0 
5.184628866022e-04 9.412030724027e-03 0.0 
1.822357709967e-03 1.835024947353e-03 0.0 
9.313237690956e-05 5.071260833394e-06 0.0 
5.884033874671e-04 1.627231788350e-04 0.0 
1.966296096317e-03 6.875876860783e-03 0.0 
7.307360100111e-05 2.134104334554e-03 0.0 
5.941664789593e-04 9.705332386791e-05 0.0 
4.252880729327e-04 -3.327916220853e-04 0.0 
8.411041459914e-05 1.809667958754e-03 0.0 
3.984569926870e-04 -3.397681852984e-04 0.0 
1.533322756454e-03 7.539350525081e-03 0.0 
1.479129724706e-03 1.368615833657e-03 0.0 
5.121856902450e-05 -2.007519401703e-04 0.0 
4.876659958030e-04 -3.169750204796e-04 0.0 
1.596641991872e-03 1.679529061303e-03 0.0 
7.759135613328e-04 7.252056075516e-04 0.0 
7.908117309695e-05 -1.759051144650e-04 0.0 
3.964169760086e-05 -1.936796345366e-04 0.0 
2.417306490050e-05 -1.319763414275e-05 0.0 
1.319208003517e-04 -2.417091885059e-04 0.0 
1.417281765670e-04 1.063974990456e-03 0.0 
4.018714119170e-04 -3.302329270961e-04 0.0 
6.664540547208e-04 1.103657021063e-04 0.0 
1.197637699666e-03 2.862958655393e-04 0.0 
4.679170203586e-04 -3.216128806323e-04 0.0 
2.622469588121e-05 1.977724591623e-06 0.0 
1.287141865140e-03 1.275849517946e-03 0.0 
4.089492252229e-04 -3.240091394651e-04 0.0 
9.657988497236e-04 5.521506879512e-04 0.0 
3.564496487162e-04 -3.082277801803e-04 0.0 
6.422772734313e-04 2.324247148068e-04 0.0 
6.679078986547e-05 -3.914335777710e-05 0.0 
1.523674462642e-04 2.710949021458e-04 0.0 
7.230902773544e-04 1.653335196823e-04 0.0 
1.065317613116e-05 -2.492926094163e-04 0.0 
6.868004311886e-05 -1.677025161047e-04 0.0 
5.234098052161e-04 1.311440648564e-03 0.0 
9.370013760810e-04 8.462879636436e-04 0.0 
5.083317329371e-04 -5.431876026628e-05 0.0 
1.453586868125e-04 -2.404404170747e-04 0.0 
5.039671708854e-04 -8.667563174726e-06 0.0 
3.726265675054e-04 -3.128259000153e-04 0.0 
1.140804015114e-03 8.372745209567e-03 0.0 
1.027713546577e-03 7.658005782557e-04 0.0 
8.973523235915e-04 7.368129125860e-04 0.0 
9.498577010100e-04 7.873968028857e-03 0.0 
8.700806426858e-04 7.865247991819e-03 0.0 
3.850430914692e-05 -3.143106966678e-05 0.0 
6.509992873644e-06 -1.762926086356e-05 0.0 
2.076650976973e-03 1.325387724379e-03 0.0 
1.019769040131e-03 8.368974954893e-03 0.0 
3.016566238330e-04 -3.124808290891e-04 0.0 
2.186304338589e-03 6.411837438049e-03 0.0 
2.028562302152e-04 4.292794550486e-03 0.0 
2.417234242769e-04 4.644742008305e-03 0.0 
3.020303380009e-04 4.937844559813e-04 0.0 
2.225236206537e-04 3.176173367044e-05 0.0 
1.279003991279e-03 8.263676354161e-03 0.0 
1.065480387867e-04 4.530752455275e-06 0.0 
1.299120592678e-04 6.827020887555e-03 0.0 
1.123888696959e-03 3.355782508325e-04 0.0 
8.644723021156e-04 8.944944044343e-03 0.0 
1.683754657961e-05 2.333025829233e-06 0.0 
1.013373029489e-03 6.909162350376e-05 0.0 
6.327181645282e-04 9.649314925449e-05 0.0 
9.055616148917e-04 -1.770172018840e-06 0.0 
4.094520311168e-04 -3.364583890855e-04 0.0 
1.915843436109e-05 -1.541436006706e-06 0.0 
2.116672309465e-04 3.694371280520e-03 0.0 
3.980809356629e-04 -3.389034887909e-04 0.0 
3.152408842620e-05 2.419975406016e-06 0.0 
2.199911747549e-03 1.402908719736e-03 0.0 
1.929819990706e-05 -2.558609810071e-04 0.0 
1.190404252219e-03 -8.505949344217e-06 0.0 
2.412507475910e-03 4.503865402970e-03 0.0 
1.093386296563e-04 -1.447307039461e-04 0.0 
1.005985236033e-03 2.858855792849e-04 0.0 
1.155192315307e-03 1.981132841536e-04 0.0 
6.489268617536e-05 3.573980139426e-06 0.0 
1.609168652376e-04 7.247622735125e-03 0.0 
1.047537696270e-03 1.560919713642e-04 0.0 
3.075191208263e-04 -2.925981845761e-04 0.0 
2.225561224737e-03 6.300552009921e-03 0.0 
1.694242776415e-04 3.383987683097e-03 0.0 
1.019557712824e-03 8.675531624780e-05 0.0 
4.479229094039e-04 -1.595172518105e-04 0.0 
2.372495658420e-03 3.048548154060e-03 0.0 
9.697056769882e-05 -1.486484966443e-04 0.0 
2.331003651595e-03 2.912272759670e-03 0.0 
4.041985163190e-04 9.177045690520e-04 0.0 
4.764885753716e-04 -1.765794727313e-04 0.0 
6.349978906292e-05 -4.670128935643e-05 0.0 
1.119514761356e-04 1.486120518322e-03 0.0 
1.805107821051e-03 9.265158419903e-04 0.0 
2.198847350996e-03 2.454369224912e-03 0.0 
1.008941875255e-04 3.295172089011e-06 0.0 
1.097206115015e-05 2.004399680413e-06 0.0 
5.431548659587e-05 -3.179979872953e-05 0.0 
1.938417203403e-03 1.027032386490e-03 0.0 
1.450489737856e-04 9.305818827117e-06 0.0 
1.848895825873e-03 1.254087392814e-03 0.0 
3.023589471585e-04 1.069135984829e-03 0.0 
7.812195686966e-04 3.003506968456e-04 0.0 
1.793273308736e-03 6.791681981103e-03 0.0 
4.455037650312e-04 5.640588284175e-03 0.0 
1.746459604740e-03 1.018627871663e-03 0.0 
2.011957091824e-03 2.257211732781e-03 0.0 
1.960760732389e-03 9.220976049894e-04 0.0 
1.038993528377e-03 2.111946448253e-07 0.0 
6.623021899020e-04 8.915957488107e-03 0.0 
1.138971978056e-03 -5.258592442740e-05 0.0 
2.756640789526e-04 -3.030419494609e-04 0.0 
1.734652652358e-04 8.162992794434e-03 0.0 
5.161264040234e-05 -2.265123490296e-04 0.0 
2.385642037723e-03 3.734400569330e-03 0.0 
1.149433724887e-04 7.801852125266e-06 0.0 
9.277931676400e-04 5.479707232899e-05 0.0 
2.869911906582e-05 -2.449333062044e-05 0.0 
6.527684515791e-04 2.027523638356e-04 0.0 
1.069873215564e-03 9.088187852768e-05 0.0 
3.944185189502e-04 8.597169025128e-03 0.0 
1.066433504509e-03 -8.049663591909e-05 0.0 
2.684351220987e-05 -8.695629527347e-06 0.0 
3.242787962361e-04 -2.977167040798e-04 0.0 
2.687980244270e-05 -1.647946752291e-06 0.0 
2.569339150452e-03 3.075194001585e-03 0.0 
3.613218498798e-05 2.265007616262e-06 0.0 
1.686049616669e-04 8.666358989019e-03 0.0 
9.559353387168e-04 -2.761411926358e-05 0.0 
2.347147508822e-03 4.396696585943e-03 0.0 
2.697068470822e-05 -5.730035120731e-05 0.0 
6.394352386417e-04 2.816697244291e-04 0.0 
1.025643580759e-03 -1.145047512131e-04 0.0 
4.011054535248e-04 5.105999157268e-03 0.0 
4.398063790799e-04 8.937117839431e-03 0.0 
1.077621665428e-03 -2.231447685820e-05 0.0 
2.382062171749e-03 3.598351542828e-03 0.0 
1.569567312415e-03 6.163170458059e-04 0.0 
1.077751796926e-04 -1.325444839736e-04 0.0 
4.245065742025e-04 9.611486944646e-05 0.0 
7.380636351513e-04 2.518230559888e-04 0.0 
9.360743063767e-04 3.345411197275e-04 0.0 
9.389785221683e-05 -1.253203906801e-04 0.0 
4.253245548345e-04 9.642788965748e-06 0.0 
1.774511949033e-03 1.365216574674e-03 0.0 
8.301587243312e-04 2.875077011188e-04 0.0 
2.528295211485e-03 3.974736162718e-03 0.0 
1.161428214380e-03 8.966319106086e-06 0.0 
2.130425382290e-04 1.147267270641e-03 0.0 
2.268275943510e-03 1.909758966064e-03 0.0 
1.842761136580e-05 -4.580345698169e-06 0.0 
5.467122847468e-04 1.429360731360e-05 0.0 
9.266434891207e-04 -1.636967158570e-04 0.0 
2.099525843677e-03 1.464947828726e-03 0.0 
3.722360139405e-04 -2.396847665392e-04 0.0 
1.901382487266e-03 1.672204884349e-03 0.0 
4.381365547427e-04 -1.903103016246e-05 0.0 
1.823495357798e-04 -2.659569976595e-04 0.0 
1.023003254347e-03 8.210125101356e-04 0.0 
2.430590391956e-03 3.786286012775e-03 0.0 
3.981609717501e-04 -1.994863866187e-04 0.0 
4.660460960069e-04 -1.630323524696e-05 0.0 
2.314790621654e-03 5.919996846329e-03 0.0 
2.055345183039e-03 5.996062599969e-03 0.0 
1.978616607635e-04 9.259436163205e-06 0.0 
3.177660893692e-04 -2.288799467047e-04 0.0 
1.880543954350e-03 6.687601621198e-04 0.0 
2.537782509221e-03 2.382003588792e-03 0.0 
2.321994954103e-03 3.536258230172e-03 0.0 
2.634575970553e-03 3.153614434181e-03 0.0 
2.521742593428e-03 3.431695914031e-03 0.0 
1.066003737228e-03 1.074146469038e-06 0.0 
1.745037686848e-03 7.289759527479e-04 0.0 
4.052428090354e-04 -2.587982139058e-04 0.0 
9.639129671371e-04 4.499645410956e-04 0.0 
1.170710070128e-03 4.477571946647e-04 0.0 
1.869274059019e-03 7.474800406188e-04 0.0 
2.118564410710e-03 1.769441715274e-03 0.0 
5.212055465150e-04 -2.512516405177e-04 0.0 
4.333338352541e-04 -3.379049138824e-05 0.0 
4.949723304661e-04 8.811910551710e-03 0.0 
9.610311034191e-04 -1.369447453632e-04 0.0 
4.218513208858e-04 -4.790219630942e-05 0.0 
2.356892695837e-04 -2.885541704964e-04 0.0 
2.263575051950e-03 3.068782328732e-03 0.0 
2.277503418992e-04 -2.905828641923e-04 0.0 
1.668728182443e-04 -2.575809615256e-04 0.0 
5.429999175581e-04 6.887864026528e-05 0.0 
3.121414486028e-04 -2.481066509614e-04 0.0 
2.112399833244e-03 2.809444081357e-03 0.0 
3.195323876959e-04 -2.598173438521e-04 0.0 
6.412687907404e-04 -8.432659158946e-05 0.0 
4.377779882604e-04 -3.172074781719e-04 0.0 
3.011180385280e-04 -2.822826015734e-04 0.0 
4.648737926071e-04 -8.135766200190e-07 0.0 
2.523028482624e-03 2.658656312551e-03 0.0 
3.131136155056e-05 1.926487256443e-06 0.0 
3.839922649543e-04 -2.581113496654e-04 0.0 
7.428281784828e-04 -9.215772884838e-05 0.0 
1.047805195808e-03 -1.200342306767e-04 0.0 
1.577974904568e-03 1.217123410032e-03 0.0 
4.615580292463e-04 -3.196658066707e-05 0.0 
3.914617906949e-05 2.392333242736e-06 0.0 
2.395636705510e-03 2.232192241248e-03 0.0 
7.610401243901e-04 -2.124468588999e-04 0.0 
4.369031982395e-04 -4.510881912400e-06 0.0 
3.271694568872e-05 -3.885505952925e-05 0.0 
2.061153750124e-03 1.002229618795e-03 0.0 
2.446115440911e-03 3.078312864194e-03 0.0 
5.716867545547e-04 1.047700163467e-04 0.0 
1.004310447070e-03 -1.460291566630e-04 0.0 
6.960477700421e-04 -6.720700824442e-05 0.0 
2.668335124014e-03 2.816941488948e-03 0.0 
2.466728434023e-04 4.653416277750e-04 0.0 
1.793789001123e-03 5.342462610630e-04 0.0 
1.035651304302e-03 -1.076121870518e-04 0.0 
3.949574055541e-04 7.991673397948e-03 0.0 
3.757724893266e-04 -3.208453386386e-04 0.0 
2.656719761088e-03 3.597632898618e-03 0.0 
7.839101462978e-04 -1.897935896027e-04 0.0 
5.830018378275e-04 -2.549388437439e-04 0.0 
4.583044992984e-04 -3.250740083160e-04 0.0 
2.039843082058e-03 2.973078426293e-03 0.0 
2.592906941084e-03 2.439975641089e-03 0.0 
1.080384349736e-03 5.801338580838e-05 0.0 
1.866273801052e-03 2.665235175902e-03 0.0 
2.256809170895e-03 1.733597108983e-03 0.0 
2.233707062540e-03 1.281162658477e-03 0.0 
4.541209300913e-05 2.811858850849e-06 0.0 
1.011985457521e-03 -9.875554407073e-05 0.0 
2.383199468095e-03 1.576347644503e-03 0.0 
1.269263896607e-03 2.562452617177e-05 0.0 
1.035195303504e-03 -7.414374736946e-05 0.0 
6.478087677810e-04 -2.535709784884e-04 0.0 
1.911115871571e-03 7.132391128792e-03 0.0 
9.695072152269e-04 -1.656202520562e-04 0.0 
6.062108417114e-04 -2.809871019795e-04 0.0 
2.386755783736e-03 2.442949101886e-03 0.0 
3.780606156279e-04 -2.739661659109e-04 0.0 
2.688991943426e-03 3.606418638899e-03 0.0 
7.869856699414e-04 -2.181528314157e-04 0.0 
7.284271928113e-04 -1.303152900135e-04 0.0 
6.302448615739e-04 -2.680047895960e-04 0.0 
2.634648010247e-03 2.486431569433e-03 0.0 
3.055140545661e-04 -3.070504907926e-04 0.0 
1.359800522176e-03 6.470754354642e-04 0.0 
9.977222319145e-04 -6.456872860235e-05 0.0 
2.643389734588e-03 2.795048797445e-03 0.0 
2.071765806963e-03 6.511046413491e-03 0.0 
4.830929971664e-04 -2.762295743686e-04 0.0 
6.312476539842e-04 -2.783590234718e-04 0.0 
5.528543383520e-04 -2.912521573575e-04 0.0 
1.080645269962e-03 5.134879444852e-04 0.0 
2.481154751874e-03 2.835588110225e-03 0.0 
1.301737474928e-03 5.092513996658e-04 0.0 
9.212677193699e-04 -1.857899503550e-04 0.0 
9.477612177237e-04 -1.672516476934e-04 0.0 
5.125452368036e-04 -2.693635339885e-04 0.0 
1.282872028379e-03 1.184002154405e-05 0.0 
5.493053380187e-04 -1.157592935769e-04 0.0 
4.011399533204e-04 3.539642043492e-04 0.0 
4.496456147857e-04 3.015619655404e-04 0.0 
1.793360789156e-03 4.772403641400e-04 0.0 
7.115412762927e-04 -2.250583283092e-04 0.0 
6.624591141152e-04 -1.759525184176e-04 0.0 
2.352937503305e-03 1.402450154478e-03 0.0 
6.821148607829e-04 -2.156015940463e-04 0.0 
5.757784740553e-04 -2.903675583965e-04 0.0 
2.151191522093e-03 1.206891566701e-03 0.0 
3.927260488838e-04 1.294855206254e-03 0.0 
8.688380720462e-04 -1.819503107232e-04 0.0 
1.125035752782e-03 2.158814095026e-05 0.0 
5.873242367426e-04 -1.369781269970e-04 0.0 
7.499169325113e-05 7.491212420765e-06 0.0 
6.981279838019e-04 -1.912820681020e-04 0.0 
2.056321140618e-03 8.945545693083e-04 0.0 
5.365478404753e-04 -2.787819191282e-04 0.0 
6.790982457721e-04 -8.053017299005e-05 0.0 
1.014717501549e-03 -1.460134967699e-04 0.0 
5.566387111659e-04 -2.820868678915e-04 0.0 
2.471387714255e-03 2.056658820316e-03 0.0 
3.465676540401e-04 1.571402038428e-04 0.0 
8.586137643263e-04 -2.050317582025e-04 0.0 
9.446373921347e-04 -7.767681663823e-05 0.0 
5.813102774533e-04 -1.695651458436e-04 0.0 
1.597452543981e-03 5.583292079635e-03 0.0 
4.496947097617e-04 -4.702298663934e-05 0.0 
7.721242510266e-04 2.601357855446e-06 0.0 
1.521200083472e-03 6.136765766356e-03 0.0 
2.956938347849e-04 9.561804324340e-05 0.0 
3.872148311755e-04 -2.337965105946e-05 0.0 
3.908033372003e-04 2.009394743906e-04 0.0 
1.897626435623e-03 5.788685779966e-03 0.0 
2.157416704814e-03 1.253426173219e-03 0.0 
6.527594899614e-04 9.808105693654e-06 0.0 
2.383276469611e-03 2.207762126938e-03 0.0 
2.460804137257e-03 1.834276317861e-03 0.0 
2.505180057683e-03 1.884347698983e-03 0.0 
1.620969648912e-03 3.630736095800e-04 0.0 
2.459435781074e-04 6.477156133481e-05 0.0 
2.329944597466e-03 5.418781613014e-03 0.0 
2.598035559044e-03 4.062252714710e-03 0.0 
9.099287763452e-04 -1.874056860990e-04 0.0 
3.065159677634e-04 -2.659993999907e-04 0.0 
2.411785069883e-03 2.844904918085e-03 0.0 
8.265096717115e-04 -2.669193598194e-05 0.0 
3.348904842221e-04 8.904914405177e-03 0.0 
5.321585235898e-04 -2.808300293296e-04 0.0 
8.386407886302e-04 -2.031313146631e-04 0.0 
2.218032942400e-03 2.455662331083e-03 0.0 
8.072319580061e-04 -7.355671791547e-05 0.0 
2.397142548540e-03 1.979539665602e-03 0.0 
9.021089566586e-04 -6.621263358648e-05 0.0 
4.644454221408e-04 -1.294964283026e-04 0.0 
1.670632396259e-04 3.275193624391e-05 0.0 
2.073571450519e-03 1.839540119452e-03 0.0 
6.447666861277e-04 -2.783052368452e-04 0.0 
4.092461019791e-04 -2.137864678252e-04 0.0 
8.063508949697e-04 2.020953117476e-04 0.0 
7.854374186355e-04 6.010292800626e-05 0.0 
1.938864535162e-03 1.347871890327e-03 0.0 
2.127990192426e-03 9.585876484434e-04 0.0 
1.490465351996e-03 9.939789691106e-04 0.0 
2.293391505336e-03 2.100006094896e-03 0.0 
1.168074581767e-04 1.547282652903e-05 0.0 
3.013962624067e-04 3.321273812501e-05 0.0 
1.946436329580e-03 1.476203919794e-03 0.0 
2.320548166310e-03 2.866728364438e-03 0.0 
4.867512347516e-04 -1.451201581557e-04 0.0 
1.318900882587e-03 3.400265760700e-04 0.0 
6.914887997959e-04 -2.431898474619e-04 0.0 
7.605317365884e-04 -2.347811874441e-04 0.0 
1.967198018214e-03 7.357026770042e-04 0.0 
7.194249479613e-04 -9.492818379667e-05 0.0 
2.602868561257e-04 -1.400666261587e-04 0.0 
1.898992185206e-03 1.870859311200e-03 0.0 
6.217178128766e-04 -2.841081803947e-04 0.0 
1.456482062919e-03 2.211009040469e-04 0.0 
2.318474295359e-03 1.512236864359e-03 0.0 
1.321292307578e-03 2.078022888508e-04 0.0 
4.231276970891e-04 2.465357009593e-04 0.0 
4.424187454978e-04 3.397580250202e-04 0.0 
1.035955575707e-03 7.753010227247e-04 0.0 
4.697391788917e-04 -1.161009189479e-04 0.0 
1.783662921880e-03 2.783446116068e-03 0.0 
7.060661288805e-04 -1.931270347412e-05 0.0 
8.252383849057e-04 -2.205526070711e-04 0.0 
5.704386705075e-04 -2.711310244298e-04 0.0 
1.506724903868e-03 7.292035646620e-04 0.0 
1.672178555895e-03 7.621590550244e-03 0.0 
1.768550645789e-03 5.938124081780e-03 0.0 
1.958172300996e-04 1.514613930850e-05 0.0 
1.900478497180e-03 1.111313347733e-03 0.0 
2.691793542317e-03 3.184292865966e-03 0.0 
2.461017540211e-03 1.670824193341e-03 0.0 
5.923052394401e-04 -2.767620146292e-04 0.0 
3.522222834635e-04 -3.248495889004e-04 0.0 
1.159550368693e-03 -6.109922818022e-05 0.0 
1.556933513980e-03 2.364231325618e-04 0.0 
1.224590774627e-03 -3.080375772475e-05 0.0 
4.461572695742e-04 -1.253470421207e-04 0.0 
3.342660990584e-04 7.727763310678e-03 0.0 
3.129446155590e-04 -2.770116689594e-04 0.0 
7.691540152065e-04 -1.483921630634e-04 0.0 
4.051876140675e-05 4.285420543950e-06 0.0 
9.488974012955e-04 -8.539635465304e-06 0.0 
2.571290926527e-03 4.594661399413e-03 0.0 
3.554016524790e-05 -2.299321479856e-04 0.0 
1.699124342478e-03 4.717462910205e-04 0.0 
1.109173510194e-03 -9.453941913543e-05 0.0 
2.587683746282e-03 2.189265490576e-03 0.0 
3.346304505102e-04 1.345558569423e-04 0.0 
2.442767608730e-03 2.561534005412e-03 0.0 
2.269843610409e-03 1.197710505562e-03 0.0 
2.834614435591e-04 -1.438389914505e-04 0.0 
2.001193087445e-03 2.387964870373e-03 0.0 
4.429844914567e-04 -1.010286622950e-04 0.0 
3.251589805481e-04 1.174046205237e-04 0.0 
2.086170627107e-04 1.136634790689e-04 0.0 
1.938561882299e-04 1.828959229789e-04 0.0 
2.351349804073e-04 1.686897436499e-04 0.0 
2.528569461396e-03 1.931850501812e-03 0.0 
2.049853082240e-03 2.236237084393e-03 0.0 
1.737911408934e-03 1.104557058484e-03 0.0 
1.378263770477e-03 2.959643211406e-04 0.0 
1.376179284680e-03 4.508031663644e-04 0.0 
2.291726803598e-04 -1.457725055369e-04 0.0 
1.926341434339e-03 1.739210446462e-03 0.0 
2.706480066644e-04 7.875765893998e-05 0.0 
1.745467970146e-03 2.236853940599e-03 0.0 
1.007137122947e-03 -4.033576280683e-05 0.0 
1.807830505352e-03 2.123217980006e-03 0.0 
1.514661225320e-03 2.687391186666e-04 0.0 
1.476808927366e-03 1.903441672297e-04 0.0 
1.584566175328e-03 9.066126126021e-04 0.0 
6.160671611958e-04 -1.875015594442e-04 0.0 
5.749942074311e-04 9.632521737465e-04 0.0 
1.219484035329e-03 1.636819623945e-04 0.0 
8.099509906147e-04 2.114184168859e-04 0.0 
2.515654020379e-04 -1.495102252713e-04 0.0 
4.849592325942e-04 -2.866820963818e-04 0.0 
1.486811592507e-04 1.217616575869e-05 0.0 
8.529419817037e-04 -9.526440441079e-05 0.0 
1.821862744896e-04 8.727599532176e-05 0.0 
7.973627484759e-04 6.437363040911e-04 0.0 
2.097274008977e-03 8.542648882242e-04 0.0 
3.480846113558e-04 -3.306804607193e-04 0.0 
1.702490709597e-04 6.469164842126e-05 0.0 
1.914263728231e-04 1.984323111676e-05 0.0 
5.074362135874e-04 -2.892520754248e-04 0.0 
9.033752084519e-04 -4.396275318091e-05 0.0 
1.556453630798e-04 2.770987960652e-05 0.0 
3.363956329973e-04 -3.344110337695e-04 0.0 
1.363360012663e-03 1.751362105687e-04 0.0 
2.224133964139e-03 1.064440202321e-03 0.0 
1.951192233964e-03 6.565219438219e-04 0.0 
2.215338342379e-03 1.140533789705e-03 0.0 
6.740287291374e-04 -1.446791103334e-04 0.0 
1.407839251965e-04 4.290507114096e-05 0.0 
8.814942541325e-04 -2.004985823765e-04 0.0 
4.782986057929e-04 -2.921313934219e-04 0.0 
5.917601933523e-05 2.879145966084e-06 0.0 
3.364859192604e-04 -3.294527138930e-04 0.0 
2.100191971967e-03 1.662890531418e-03 0.0 
4.354198581430e-04 -3.279848096335e-04 0.0 
2.444449386753e-03 3.298529137670e-03 0.0 
9.920867946987e-05 1.168116399608e-05 0.0 
1.160794966395e-04 2.891897353578e-05 0.0 
2.570888066544e-03 2.164702253736e-03 0.0 
4.063636544827e-04 -3.349998302387e-04 0.0 
4.540360449805e-04 -2.981544039898e-04 0.0 
4.186296681875e-04 -3.301334896198e-04 0.0 
1.971392710363e-04 -1.327122872104e-05 0.0 
1.693450494339e-03 7.707654429386e-03 0.0 
2.613847620019e-03 4.571420376439e-03 0.0 
8.789195014899e-05 1.802852388983e-05 0.0 
1.475027292521e-03 8.131728028628e-03 0.0 
3.700654313542e-04 3.737526196771e-04 0.0 
1.417454254596e-03 2.402274320517e-04 0.0 
1.544282590452e-03 6.625952140797e-03 0.0 
8.783608606856e-04 1.578250322736e-04 0.0 
9.553185349606e-04 -3.119397043713e-05 0.0 
5.577713175067e-04 -2.444778449715e-04 0.0 
7.647407360293e-05 1.298646725244e-05 0.0 
2.145106343784e-04 1.328722218904e-04 0.0 
2.072837650905e-04 1.710682813703e-04 0.0 
4.144766718451e-04 -9.941162491457e-05 0.0 
1.983563252778e-04 -1.512215546915e-04 0.0 
1.408902955083e-03 1.210789444072e-04 0.0 
3.874628637866e-04 -8.531006472317e-05 0.0 
6.441609114533e-05 9.121142819430e-06 0.0 
7.504244212194e-04 -1.780855330677e-04 0.0 
6.107693292803e-04 -2.722106087552e-04 0.0 
5.841266688170e-04 -2.613933643406e-04 0.0 
1.402518629728e-03 6.199125378378e-03 0.0 
6.480313395661e-05 5.985219788409e-06 0.0 
3.921609671613e-04 -3.363794071920e-04 0.0 
4.681731243851e-05 5.329480286480e-06 0.0 
5.319579679397e-04 -2.696108960067e-04 0.0 
1.643813795505e-04 6.986420852103e-05 0.0 
1.722400237655e-03 1.007558620237e-03 0.0 
3.463542184554e-04 -3.400009637371e-04 0.0 
1.329183545980e-03 8.119395956882e-05 0.0 
1.591997534595e-03 2.429707398161e-03 0.0 
1.549099095884e-04 5.271297210244e-05 0.0 
2.467611264185e-03 1.693763759328e-03 0.0 
1.247990746977e-03 1.762265812652e-04 0.0 
5.418729481258e-04 -1.803033549130e-04 0.0 
2.998154746272e-04 2.057608185958e-05 0.0 
5.029301415181e-04 -2.541150527753e-04 0.0 
5.564434898947e-04 -2.598353232030e-04 0.0 
3.873849936759e-04 -3.422234358660e-04 0.0 
1.298640814679e-04 3.585258779903e-05 0.0 
6.224323129672e-04 -2.461360228357e-04 0.0 
3.624736516465e-04 -1.271701982700e-05 0.0 
1.422095142883e-03 7.241145219947e-03 0.0 
3.923531568877e-04 -2.571202246238e-04 0.0 
5.841213344381e-04 -2.724257757063e-04 0.0 
2.386379654995e-03 1.446855322193e-03 0.0 
7.917128947691e-05 1.472341235408e-05 0.0 
1.857760079534e-04 -1.391214186717e-04 0.0 
4.054530237047e-04 -6.099076481282e-05 0.0 
1.697060816756e-03 3.322225532666e-04 0.0 
6.033295704097e-04 -1.030411153475e-04 0.0 
6.408435295650e-04 -2.612941584467e-04 0.0 
4.428757075189e-04 -8.773459840015e-05 0.0 
1.710515295661e-03 3.732995211278e-04 0.0 
1.741930203576e-03 4.700669708418e-04 0.0 
8.834249136271e-04 -1.065249604468e-06 0.0 
1.554888334873e-03 2.071799062497e-04 0.0 
3.218030913981e-04 -1.617940920965e-04 0.0 
8.292650245756e-04 -1.319422883937e-04 0.0 
2.201011096156e-04 -1.547925651764e-04 0.0 
1.349080786174e-03 1.952961922654e-04 0.0 
9.301789783933e-04 -1.006397574803e-04 0.0 
8.733607384526e-05 9.614900830430e-06 0.0 
1.534058451513e-03 1.929878396713e-03 0.0 
3.758937374594e-04 -2.641451071411e-04 0.0 
5.239136703136e-05 6.351683709604e-06 0.0 
2.206440084850e-04 1.966731283379e-05 0.0 
1.227077729549e-03 -3.692113818379e-05 0.0 
3.841773447843e-04 -3.402932166064e-04 0.0 
5.692190913472e-05 4.958843749976e-06 0.0 
1.692008589291e-03 1.646951431866e-03 0.0 
4.842172623490e-04 -2.754101410727e-04 0.0 
3.447293184438e-05 3.205791876815e-06 0.0 
3.848054036510e-04 -7.292832731607e-05 0.0 
1.576945150002e-03 6.574755605116e-04 0.0 
2.672864434876e-03 4.047797432017e-03 0.0 
9.600539721901e-04 -1.121434661457e-04 0.0 
4.352051682728e-04 -1.271327386425e-04 0.0 
6.401700067523e-04 -8.397081443679e-05 0.0 
2.497737764403e-03 3.530394611091e-03 0.0 
2.033260046771e-03 1.249483137805e-03 0.0 
9.093634464641e-04 3.314297950518e-05 0.0 
3.271409226540e-04 7.146432367965e-03 0.0 
2.977727431059e-04 -1.575811234333e-04 0.0 
8.485421664081e-04 -3.350113501292e-05 0.0 
4.769700227532e-04 -2.501850638446e-04 0.0 
2.052847921454e-04 -6.239547423003e-05 0.0 
3.621790335335e-04 -3.447210085889e-04 0.0 
9.225934192341e-04 -7.424356972201e-05 0.0 
5.064936876921e-04 -2.667609867927e-04 0.0 
2.455495727833e-04 -1.269575181561e-04 0.0 
1.344721210611e-03 3.570440553398e-05 0.0 
4.117104277717e-04 -7.373582361264e-05 0.0 
1.314964203663e-03 6.739151885048e-03 0.0 
4.607369300973e-04 -2.715366938241e-04 0.0 
3.033020211222e-05 2.779427911594e-06 0.0 
2.138912512661e-03 9.029407262446e-04 0.0 
2.084146173495e-04 -1.114323038199e-04 0.0 
2.009599172919e-03 7.110510759068e-04 0.0 
2.232813836149e-04 -1.237586324001e-04 0.0 
3.546586866241e-04 -3.406686813312e-04 0.0 
2.666495720559e-03 3.978452327938e-03 0.0 
6.961729741337e-05 -1.351911718218e-04 0.0 
2.039771952464e-04 -2.904616621344e-04 0.0 
1.802936296733e-04 -1.180924575003e-04 0.0 
3.703378454820e-04 -4.869642972351e-05 0.0 
4.426355414343e-04 3.104003014064e-03 0.0 
6.746413862641e-04 -1.164224554265e-04 0.0 
6.404339897207e-04 -1.012537922233e-04 0.0 
2.423243946984e-03 5.205537077268e-03 0.0 
1.269668088944e-03 8.762861804391e-03 0.0 
6.601517961620e-04 8.151232298790e-04 0.0 
1.864109958134e-03 5.325735320145e-04 0.0 
1.907417899640e-04 -2.906066432775e-04 0.0 
2.832984829870e-04 -2.769191324045e-04 0.0 
3.674153050794e-04 -3.368171154769e-04 0.0 
3.257866053828e-04 -2.412617318474e-04 0.0 
1.517572063917e-03 5.456204265909e-04 0.0 
5.095272686986e-04 3.131067403587e-03 0.0 
2.120194994340e-04 -2.043489247420e-05 0.0 
2.653429921641e-04 -2.057833111752e-04 0.0 
1.859317671919e-04 -6.106140167058e-05 0.0 
3.129422450846e-04 -5.696693963139e-06 0.0 
5.256541169683e-04 -2.918419616279e-04 0.0 
4.945926659226e-05 -1.340971593326e-04 0.0 
3.926031016179e-05 -1.600383020789e-04 0.0 
5.108300340227e-05 4.072408551757e-06 0.0 
2.659170702250e-05 2.179415838382e-06 0.0 
4.806279983992e-05 -1.160795766767e-04 0.0 
1.870787514766e-04 -1.088462053005e-04 0.0 
4.119911054122e-04 -1.121201919074e-04 0.0 
3.020233311315e-04 4.100009706424e-06 0.0 
2.758256719825e-04 -2.662960223305e-04 0.0 
3.199529614996e-04 -1.631621595913e-05 0.0 
1.516419599179e-04 -2.585187572578e-04 0.0 
1.939740572105e-04 -1.300499442879e-04 0.0 
2.524215398737e-04 -1.172100157143e-04 0.0 
1.206598715547e-04 -2.608010797698e-04 0.0 
3.954989363090e-05 -1.244214731779e-04 0.0 
1.463198895134e-03 2.004520914109e-03 0.0 
1.584431465730e-04 -2.836644743167e-04 0.0 
1.449232755682e-03 8.315439526140e-03 0.0 
1.403499957346e-03 8.330021514520e-03 0.0 
6.739285357383e-04 -6.252809590457e-05 0.0 
1.966822682025e-05 -1.602420080505e-04 0.0 
4.570532366754e-04 -2.589575506134e-04 0.0 
6.336507355073e-04 -1.236411325133e-04 0.0 
1.284832972188e-04 -3.399478552962e-06 0.0 
5.166324670344e-04 1.479811928673e-04 0.0 
9.277101759233e-04 3.711711911989e-03 0.0 
8.620543920687e-04 8.737687851670e-05 0.0 
2.973368908187e-04 -2.976518060445e-04 0.0 
2.216940177080e-03 1.783028165187e-03 0.0 
9.337472273464e-04 9.318723349024e-03 0.0 
8.454691520539e-04 9.665510442394e-03 0.0 
1.729617514478e-04 -2.829456239388e-04 0.0 
1.535764023666e-04 -2.670656936499e-04 0.0 
6.852273544316e-05 -2.412410842294e-04 0.0 
2.515225564300e-04 -2.322771935614e-04 0.0 
1.044321296616e-04 -2.624541833384e-04 0.0 
3.812800150287e-05 -1.060760820945e-04 0.0 
3.885922536898e-04 -3.408176562012e-04 0.0 
2.537501939371e-04 -2.132747073586e-04 0.0 
3.129599487415e-04 6.000795856729e-03 0.0 
1.095515823242e-03 9.223853562652e-03 0.0 
1.428214816322e-03 5.764475292090e-04 0.0 
3.542868263493e-04 -6.020166650814e-05 0.0 
2.648455861510e-04 6.913135532490e-03 0.0 
9.958489436792e-06 -1.512142844890e-04 0.0 
8.577678899337e-05 -2.474722983185e-04 0.0 
8.621768020526e-05 2.603864323042e-04 0.0 
1.979382717995e-04 5.374174440951e-04 0.0 
1.311458209838e-03 7.291985352176e-03 0.0 
1.030254843261e-03 9.227745747211e-03 0.0 
4.937840945812e-05 -1.515298002492e-04 0.0 
1.250728818862e-04 5.230359251900e-04 0.0 
2.630410495388e-04 -2.255750939061e-04 0.0 
1.222601613661e-03 8.860509422762e-03 0.0 
1.135556571554e-03 9.057284208409e-03 0.0 
2.343411207524e-03 2.730972960977e-03 0.0 
1.762092431243e-04 1.908566966982e-04 0.0 
1.541196239737e-04 5.159977833229e-04 0.0 
1.381603636537e-04 -2.679887675573e-04 0.0 
1.402567220909e-04 -2.763771831314e-04 0.0 
2.730617378195e-04 -2.816166059431e-04 0.0 
2.753197615649e-04 -1.203654323689e-04 0.0 
1.223687811906e-05 7.422762647615e-07 0.0 
3.866284059881e-04 -3.370548429180e-04 0.0 
1.098555735590e-04 3.941655021563e-03 0.0 
3.810954573926e-04 -3.449701347147e-04 0.0 
5.987856553903e-04 -6.983668024050e-05 0.0 
3.742916435923e-04 -3.465816254257e-04 0.0 
3.826787744306e-04 -3.444290515574e-04 0.0 
5.679288320961e-04 -8.811019652908e-05 0.0 
4.990748574708e-05 -1.489039852165e-06 0.0 
2.561675751111e-04 6.339008143043e-03 0.0 
2.145641347727e-03 1.349210304210e-03 0.0 
8.683231842488e-05 -2.559641950402e-04 0.0 
1.498868119534e-04 -5.014891595573e-05 0.0 
2.816581372711e-05 3.164217618616e-04 0.0 
5.609941558807e-05 5.354382563144e-04 0.0 
1.003966621777e-03 9.451948158414e-03 0.0 
6.255009090851e-04 -4.957907850327e-05 0.0 
6.790194376846e-05 2.556113510188e-04 0.0 
1.187566539846e-03 1.433435003106e-04 0.0 
5.089269600336e-05 -2.443803330027e-04 0.0 
7.053922152922e-05 -2.585975964467e-04 0.0 
5.185365265791e-05 -2.532449484983e-04 0.0 
1.004037214590e-05 -1.328839187111e-04 0.0 
9.526342746070e-06 1.567904251418e-06 0.0 
1.458164272015e-05 1.465540852852e-03 0.0 
7.161831479069e-05 -2.673047250861e-04 0.0 
1.957472314795e-05 -1.048913972478e-04 0.0 
3.207595729632e-06 6.539584328173e-07 0.0 
1.354445201167e-05 1.794788903970e-06 0.0 
4.607617937209e-05 3.450306970843e-06 0.0 
5.827584313108e-05 4.937788262192e-03 0.0 
2.479989499850e-05 3.439758483860e-03 0.0 
6.318747016439e-06 9.139458186010e-07 0.0 
7.225704995231e-06 8.808430853685e-07 0.0 
5.355651836373e-05 3.941957740227e-03 0.0 
5.442469372518e-05 -2.703144190621e-04 0.0 
6.781555425536e-04 9.754310055093e-03 0.0 
9.244757640647e-04 9.587642802445e-03 0.0 
1.061047256781e-04 -2.710578922872e-04 0.0 
1.235770833965e-05 1.073167831786e-06 0.0 
4.250323760028e-05 3.036966858205e-06 0.0 
2.091835460796e-05 1.479652600737e-06 0.0 
8.958400770284e-05 -2.732750326284e-04 0.0 
1.244288260083e-04 -2.777932042928e-04 0.0 
2.449129637977e-05 1.892992713375e-06 0.0 
2.158488299232e-05 1.557314257468e-06 0.0 
2.951921976584e-05 5.449691437132e-03 0.0 
3.863083407360e-04 9.782072756172e-03 0.0 
2.875662336523e-05 4.434326001426e-03 0.0 
3.204737649778e-05 7.458440417873e-03 0.0 
1.746115760835e-04 9.770556574057e-03 0.0 
2.216706890690e-04 -2.984412700117e-04 0.0 
2.796975248309e-04 -3.162100002034e-04 0.0 
3.047633265665e-04 -3.249561404089e-04 0.0 
3.271436487858e-04 -3.331647856726e-04 0.0 
9.656259429521e-06 -9.548105940554e-05 0.0 
9.918463718430e-06 -1.142008729403e-04 0.0 
2.909337281804e-04 -3.175161929496e-04 0.0 
8.725646040844e-06 -4.513039185141e-05 0.0 
3.150434916600e-04 -3.263810203346e-04 0.0 
1.496628917367e-04 2.226895538355e-04 0.0 
5.717093811770e-05 2.674245741712e-04 0.0 
1.117205915942e-04 2.770310117910e-04 0.0 
1.074704513216e-05 -2.192283782764e-04 0.0 
9.709737383462e-06 -1.690000760187e-04 0.0 
5.300179639456e-05 3.234305388821e-04 0.0 
5.409385199779e-06 -7.981431564563e-06 0.0 
2.793360186096e-05 2.190164944528e-04 0.0 
3.837785983009e-06 -1.265783265216e-06 0.0 
2.258883940982e-06 1.877500522297e-06 0.0 
1.995883586433e-05 -1.237274542882e-04 0.0 
1.101727345123e-04 5.908551130534e-04 0.0 
8.093539825553e-05 5.424470333350e-04 0.0 
9.247171182788e-06 -4.355700635960e-06 0.0 
6.096669923991e-06 7.932839440419e-07 0.0 
8.598012325168e-05 -3.231949267512e-05 0.0 
3.695928419365e-04 -3.444960402727e-04 0.0 
1.649463469274e-04 -1.362904319817e-04 0.0 
1.701913656784e-04 -2.747352588461e-04 0.0 
1.189409887875e-04 -3.735342511983e-06 0.0 
2.156259452792e-04 -1.331300206683e-04 0.0 
9.445695072670e-05 -1.360694397932e-05 0.0 
2.600259276819e-04 -2.439531652190e-04 0.0 
1.976765872574e-04 -2.674498859336e-04 0.0 
6.348096705663e-05 -4.557698828494e-06 0.0 
1.593849719063e-04 -1.156866297528e-04 0.0 
3.982669826248e-05 -1.427727395704e-04 0.0 
8.274262049963e-05 -1.356477496031e-05 0.0 
1.619358016653e-04 2.488312106976e-03 0.0 
1.999886158269e-05 -1.422535178386e-04 0.0 
3.575936006391e-04 -3.720411866469e-05 0.0 
2.667180119434e-04 -6.676629907953e-05 0.0 
1.013767380344e-04 -3.268181912469e-05 0.0 
7.244224414486e-05 -2.532637464227e-05 0.0 
8.367799316871e-04 -2.176351669891e-04 0.0 
2.002386885553e-03 1.384426114455e-03 0.0 
1.349487296221e-03 4.702431871493e-05 0.0 
1.676889310865e-04 -5.112561299081e-05 0.0 
5.785012276669e-05 -8.754807062633e-06 0.0 
4.680761005953e-05 -1.907051584807e-05 0.0 
3.397811865563e-04 -2.651431476649e-04 0.0 
3.129890495964e-04 2.561729110419e-03 0.0 
3.820251645659e-04 3.564004427934e-03 0.0 
5.292975134286e-04 8.279252398446e-03 0.0 
1.840532058289e-04 -4.357113786253e-05 0.0 
1.330188344412e-04 -4.122432133626e-05 0.0 
2.106327085608e-04 2.539668372668e-03 0.0 
2.647398709983e-04 3.054471739445e-03 0.0 
2.894815304475e-04 -7.878425599367e-05 0.0 
4.232296055595e-05 -1.635208888664e-06 0.0 
8.359919547096e-04 3.704082830923e-03 0.0 
3.327668919977e-05 -1.875302798087e-05 0.0 
8.562156218892e-05 -5.972661181929e-07 0.0 
3.676539597368e-04 2.583537565849e-03 0.0 
6.279636280308e-04 5.168179314425e-03 0.0 
3.460766722473e-04 -4.871482771540e-05 0.0 
1.315531490729e-04 -2.065530535907e-04 0.0 
3.646512234581e-04 -2.820385285923e-04 0.0 
2.806990633529e-04 -2.920336965805e-04 0.0 
3.731890068453e-04 -3.409543303021e-04 0.0 
3.226855535091e-04 3.051725216612e-03 0.0 
4.566215099143e-05 -4.793253803472e-06 0.0 
3.562987932613e-04 -3.363064981899e-04 0.0 
1.752767158192e-03 1.322367055352e-03 0.0 
6.447194984250e-04 7.775318755687e-03 0.0 
1.114217143261e-04 -1.955524538369e-05 0.0 
5.972197503999e-05 -1.359639115874e-05 0.0 
4.267655806912e-04 -2.412045388207e-04 0.0 
4.822853602719e-05 -1.364361098317e-05 0.0 
5.953359452958e-04 8.295688436733e-03 0.0 
8.350130052484e-04 -1.325796640830e-05 0.0 
6.414231322402e-05 1.486354040603e-06 0.0 
7.192455712715e-05 -2.002172184375e-04 0.0 
1.103204468545e-04 2.014689143821e-07 0.0 
4.960549403020e-04 4.613045258633e-03 0.0 
1.009090809192e-04 -1.940191589282e-04 0.0 
3.545802472476e-04 -2.586415870766e-04 0.0 
8.029237238355e-05 -8.121720462491e-05 0.0 
8.034984008990e-04 6.249893145631e-03 0.0 
2.222595333113e-04 -1.759164670275e-04 0.0 
3.744683627725e-04 4.052335541550e-03 0.0 
5.208914535402e-04 5.641132155097e-03 0.0 
1.723735486546e-04 -9.731698957920e-05 0.0 
5.804121737453e-05 -2.517954755039e-05 0.0 
7.270207584266e-05 -1.917012311551e-05 0.0 
4.244861200598e-04 4.579159378024e-03 0.0 
1.723039409233e-04 -2.302776584319e-04 0.0 
1.457899903331e-04 -1.044588224038e-04 0.0 
7.658429664178e-04 7.724983429349e-05 0.0 
5.868213786756e-04 4.144230912645e-03 0.0 
1.522357384176e-04 -1.248131298503e-04 0.0 
2.455421650746e-04 -6.528541034581e-05 0.0 
1.477724747890e-04 -2.649257198685e-06 0.0 
5.480619622760e-04 5.140428908799e-03 0.0 
4.484192293813e-04 -3.099091504889e-04 0.0 
2.308034294938e-04 -2.754412182792e-04 0.0 
5.769528832665e-04 -2.880970900143e-04 0.0 
6.808441364076e-05 -8.665421124153e-06 0.0 
6.768191899400e-04 5.696989983057e-03 0.0 
5.570772100359e-05 -6.365314285782e-05 0.0 
7.773163481374e-04 7.285507689209e-03 0.0 
2.942228142185e-04 -7.581321347559e-06 0.0 
1.377276001710e-04 -8.461627146563e-05 0.0 
8.548843042823e-05 -1.922789285557e-05 0.0 
1.117267910100e-04 -2.037941762045e-04 0.0 
9.408324915733e-05 -3.327569810517e-07 0.0 
1.519934452780e-04 -9.533543443000e-05 0.0 
8.081677134182e-05 -1.924281133859e-04 0.0 
1.258074381296e-04 -1.024126189850e-04 0.0 
1.891037327054e-04 -1.598827733277e-04 0.0 
2.327918582637e-04 -2.083290663893e-04 0.0 
7.325086810472e-05 -6.333496029107e-05 0.0 
2.337962564049e-04 -2.982990177266e-04 0.0 
2.633538512678e-04 -3.075453484742e-04 0.0 
1.166726727183e-04 -4.060576764687e-05 0.0 
1.422716690069e-04 -2.165153170734e-04 0.0 
1.665946605513e-04 -4.274669840346e-05 0.0 
2.045005013176e-04 -5.328412500933e-05 0.0 
2.877378120171e-04 -1.670532382743e-04 0.0 
4.406808833430e-04 -2.791993240361e-04 0.0 
7.346589114923e-04 3.194688380431e-03 0.0 
4.751040830738e-04 -2.361282952072e-04 0.0 
1.566963766782e-04 -1.451734076202e-04 0.0 
2.822814372350e-04 1.828946374574e-06 0.0 
1.345865549752e-04 -2.237967198615e-04 0.0 
7.528631184185e-04 6.756085788151e-03 0.0 
7.172453691244e-04 7.801799237293e-03 0.0 
2.571974752012e-04 -2.608638505543e-04 0.0 
1.922862033949e-04 -6.256771461073e-06 0.0 
1.012648009872e-03 4.727617971450e-03 0.0 
1.618838365202e-04 -2.200975590998e-04 0.0 
7.835059165268e-04 2.728240456664e-03 0.0 
7.031273844964e-04 2.714727647109e-03 0.0 
1.712733780238e-04 -2.135287310824e-04 0.0 
9.720796197030e-04 1.945818812022e-04 0.0 
2.313195035600e-04 -2.270788971512e-04 0.0 
1.006252135132e-04 -2.574647083190e-05 0.0 
1.046900757034e-04 -7.332558363986e-05 0.0 
1.649506904233e-03 1.747582314691e-03 0.0 
6.548106541901e-04 3.177759856988e-03 0.0 
1.319418534281e-04 -3.358555632320e-05 0.0 
1.477155604051e-04 -3.413123635533e-05 0.0 
2.488995340725e-04 -2.498418803302e-04 0.0 
1.148441671840e-04 -2.603165434102e-05 0.0 
9.151234411580e-04 4.722785564675e-03 0.0 
8.611344315542e-05 -7.252219271852e-05 0.0 
7.615803646955e-04 5.721681249816e-03 0.0 
8.372136033063e-04 4.205529067210e-03 0.0 
1.001706023277e-03 -1.314600522990e-04 0.0 
5.897010874910e-04 3.649078307943e-03 0.0 
1.186625195345e-04 -1.114992487398e-04 0.0 
1.182732598199e-04 -8.324644282633e-05 0.0 
1.590431572035e-04 -1.650863940652e-04 0.0 
3.351522155151e-04 -1.993595083680e-04 0.0 
7.966744175006e-04 5.216092736213e-03 0.0 
4.004596346420e-04 -1.366890565047e-04 0.0 
2.014660213939e-04 -2.108125027422e-04 0.0 
2.555594333065e-04 -2.761768798970e-04 0.0 
8.880415249996e-04 5.231801022654e-03 0.0 
2.218796609954e-04 -2.154311565265e-04 0.0 
1.176937584187e-04 5.856375456181e-07 0.0 
6.514557239328e-04 4.668335812723e-03 0.0 
1.247532400936e-04 -1.976349590084e-05 0.0 
1.689450765385e-04 1.579066625706e-05 0.0 
1.314958382492e-04 -1.226719522561e-04 0.0 
1.912255555703e-04 -2.176652605092e-04 0.0 
2.471679816928e-04 -2.660472345821e-04 0.0 
1.802835893271e-04 -3.533214732200e-05 0.0 
5.635363311432e-04 6.171742936103e-03 0.0 
2.472264805186e-04 -2.804425867462e-04 0.0 
2.007519870211e-04 -1.719234756302e-04 0.0 
8.351735592100e-05 -2.089226051101e-04 0.0 
8.924032906629e-04 6.267192181443e-03 0.0 
1.682734451318e-04 -1.566656129464e-04 0.0 
2.237692892352e-04 -5.441986716161e-05 0.0 
1.376283203986e-04 -1.614428182808e-04 0.0 
4.473102423506e-04 3.594473769956e-03 0.0 
2.226500311823e-04 -1.962043223790e-04 0.0 
2.328968900994e-04 -3.702499419045e-05 0.0 
3.452633259923e-04 -2.766538626291e-04 0.0 
2.203579620142e-04 -4.529037766485e-05 0.0 
9.315229783505e-05 -9.069355509184e-05 0.0 
1.590588835729e-04 -2.716205639789e-05 0.0 
6.699188235821e-04 -2.593593058417e-04 0.0 
1.032272802265e-04 -2.109085173348e-04 0.0 
6.256156530828e-04 7.233675687168e-03 0.0 
5.636489000451e-04 -7.218873920851e-05 0.0 
1.524787484383e-03 3.086207423486e-04 0.0 
6.395624017882e-04 6.199850358437e-03 0.0 
3.804825742340e-04 -2.760313336926e-04 0.0 
1.247436246247e-03 5.736663468137e-03 0.0 
1.153685242577e-04 -2.209487975090e-04 0.0 
1.548934948079e-04 -7.891436773816e-06 0.0 
5.892862677568e-04 -5.344702139245e-05 0.0 
8.598624161547e-04 1.847209475638e-05 0.0 
5.773260964792e-04 2.199071164763e-03 0.0 
3.847246618450e-04 -1.098868124301e-04 0.0 
1.914755494231e-04 -2.346724246899e-04 0.0 
3.111636086162e-04 -6.960453947521e-05 0.0 
1.585785307071e-04 -1.923410377369e-06 0.0 
4.329882303798e-04 -2.543501829288e-04 0.0 
1.439493999286e-04 -2.678558489029e-05 0.0 
7.354053386472e-04 4.691557967752e-03 0.0 
4.629734105925e-04 -2.940090621799e-04 0.0 
2.640504667017e-04 -5.672347897966e-05 0.0 
1.121511583578e-03 7.305848150643e-03 0.0 
1.101987316697e-04 -1.862179778263e-04 0.0 
2.333647405627e-04 -1.883882500792e-04 0.0 
1.617289156049e-03 2.513125424369e-04 0.0 
1.973195575949e-04 -3.591564497204e-05 0.0 
1.504462578063e-03 5.168991980122e-04 0.0 
1.481459366729e-03 1.407158046914e-04 0.0 
1.083149551166e-03 5.241214780245e-03 0.0 
6.736882940633e-04 6.730734267715e-03 0.0 
1.208680475071e-03 6.773580097656e-03 0.0 
1.125565527234e-04 -9.191940237192e-05 0.0 
2.426914182160e-04 -1.128912097492e-05 0.0 
3.614272269312e-04 -8.387256648519e-05 0.0 
8.591546866986e-04 7.310054642376e-03 0.0 
1.502175436624e-03 9.521325588630e-04 0.0 
8.731839375514e-04 5.091177998022e-05 0.0 
2.394632926120e-04 -4.611310074918e-05 0.0 
7.488626082945e-04 4.190009756728e-03 0.0 
3.001688307535e-04 -1.807385313384e-04 0.0 
2.662053857086e-04 -1.847742353477e-04 0.0 
2.297645902153e-04 -2.445108491637e-04 0.0 
3.302971367011e-04 -5.957088560510e-05 0.0 
2.323560633334e-04 -1.674467752098e-04 0.0 
1.039435819411e-03 5.759269922885e-03 0.0 
1.183805861138e-03 6.266769010052e-03 0.0 
8.868773090489e-04 -1.444749106186e-04 0.0 
2.871315548566e-04 -2.108407433289e-04 0.0 
7.788114758566e-04 -2.352805195600e-04 0.0 
2.550993658711e-04 -1.930215979060e-04 0.0 
2.887741724053e-04 -1.895430381127e-04 0.0 
2.206879309547e-04 -2.334238376423e-04 0.0 
2.999472209497e-04 -1.760006366279e-05 0.0 
3.979492310181e-04 -1.744736951702e-04 0.0 
6.677927023955e-04 3.671634996998e-03 0.0 
4.368893188763e-04 -1.671474762568e-04 0.0 
3.347800771474e-04 -7.086004817506e-05 0.0 
3.801847298737e-04 -1.218656707590e-04 0.0 
1.280592897690e-03 -5.597272095939e-06 0.0 
2.010076225664e-04 -2.286288547846e-04 0.0 
2.055688707790e-04 -5.381386637596e-06 0.0 
1.768485209681e-04 1.098931556426e-07 0.0 
1.759533441614e-03 4.452776068475e-04 0.0 
3.236930990998e-04 -1.854781250138e-04 0.0 
3.611745914224e-04 -9.574074719928e-05 0.0 
9.418523619584e-04 5.754688572069e-03 0.0 
2.647050583825e-04 -1.627547054041e-04 0.0 
1.303967468008e-03 1.044944889131e-04 0.0 
2.016144547599e-04 -1.918615849139e-04 0.0 
4.188541465393e-04 -2.745316472580e-04 0.0 
3.352924286556e-04 -1.760058006130e-04 0.0 
1.913426422398e-04 -1.993676751398e-04 0.0 
1.409194738324e-04 -1.993608039754e-04 0.0 
3.540867085825e-04 -1.190290537193e-04 0.0 
2.853513597007e-04 -5.777598168625e-05 0.0 
1.413490773153e-03 4.241255502881e-04 0.0 
2.510847612388e-04 -3.064701455326e-04 0.0 
5.733481515490e-04 -1.946240410367e-04 0.0 
4.813616806338e-04 -1.861285721206e-04 0.0 
3.600910422515e-04 -1.805239915229e-04 0.0 
1.081311571367e-03 6.278194160755e-03 0.0 
3.922137963609e-04 -1.483798067517e-04 0.0 
1.908216178500e-04 -1.800525212168e-04 0.0 
3.717482077501e-04 -1.702929149507e-04 0.0 
5.113222607995e-04 4.116690764181e-03 0.0 
1.699430756061e-04 -1.764326000332e-04 0.0 
2.208472221652e-04 -2.658545593128e-04 0.0 
2.197733712275e-04 -2.502118672705e-04 0.0 
4.148451869980e-04 -2.622616493613e-04 0.0 
3.223104900237e-04 -2.079247094046e-04 0.0 
5.255216326350e-04 -1.766772914196e-04 0.0 
4.092722131936e-04 -1.634192356758e-04 0.0 
3.681502349940e-04 -2.930506093927e-04 0.0 
2.011646388235e-04 -2.451684256545e-04 0.0 
1.666485172530e-03 6.524363035243e-03 0.0 
1.708563336623e-04 -1.954459412651e-04 0.0 
3.193122448865e-04 -2.719791636949e-05 0.0 
1.442394002067e-03 3.703855774153e-04 0.0 
2.679215126343e-03 3.152114641927e-03 0.0 
1.192713721039e-03 3.181644631019e-03 0.0 
1.342461686377e-03 4.585221243912e-04 0.0 
9.524554272479e-04 -1.452048839230e-04 0.0 
1.632094291220e-03 4.142359816403e-04 0.0 
4.034066690748e-04 -2.923260355826e-04 0.0 
3.315420891559e-04 -1.516786896650e-04 0.0 
1.116872436973e-03 -9.691103556999e-05 0.0 
5.258281070391e-04 -2.993508971946e-04 0.0 
3.881594213434e-04 -3.076959069929e-04 0.0 
2.545672904223e-04 -1.716711957032e-04 0.0 
4.526616966732e-04 -1.824650560801e-04 0.0 
4.948866542467e-04 -1.738447158821e-04 0.0 
1.602496039385e-04 -1.843199298555e-04 0.0 
4.282136294739e-04 -1.397227449108e-04 0.0 
5.415697138376e-04 -1.923001365857e-04 0.0 
6.243001369905e-04 -1.818874236221e-04 0.0 
2.994567152602e-04 -2.028478328247e-04 0.0 
7.030996143073e-04 -3.895602564025e-05 0.0 
1.188655688230e-03 5.230033476199e-03 0.0 
6.756269683424e-04 -1.970597898847e-04 0.0 
2.592369196193e-04 -1.028193597662e-05 0.0 
4.421753935930e-04 -2.903997370828e-04 0.0 
2.292614209713e-04 5.650468297834e-06 0.0 
4.768822482853e-04 -1.581754593237e-04 0.0 
1.202990093530e-03 4.600450902937e-04 0.0 
2.245053278386e-03 1.102296278286e-03 0.0 
4.009509532035e-04 -2.812764490720e-04 0.0 
2.617013471674e-03 2.473091443081e-03 0.0 
1.505789165808e-03 2.507488741897e-03 0.0 
5.178060025935e-04 -1.473588774013e-04 0.0 
1.034059229719e-03 -6.769745680019e-05 0.0 
2.503305401756e-03 1.924657652546e-03 0.0 
1.632788814062e-03 3.216327366103e-04 0.0 
3.864373016411e-04 -2.980930010036e-04 0.0 
6.384751355342e-04 1.312874893499e-03 0.0 
3.536954359071e-04 -2.980553955471e-04 0.0 
4.713432346426e-04 3.763619366421e-05 0.0 
4.888542257387e-04 2.654882483149e-03 0.0 
6.094052627460e-04 -3.313978363089e-05 0.0 
9.236063467435e-04 6.797931777130e-03 0.0 
1.225631608792e-03 3.681487651459e-03 0.0 
5.900475774796e-04 -1.808303346452e-04 0.0 
8.808056927293e-04 -1.104308758146e-04 0.0 
9.626033608535e-04 2.239850351073e-03 0.0 
2.517211744538e-04 -3.745093995982e-05 0.0 
1.331229730784e-03 4.679579144426e-03 0.0 
5.222346320671e-04 -5.855124685445e-05 0.0 
4.228043726605e-04 -2.967816468152e-04 0.0 
1.455498997354e-03 4.113214586223e-03 0.0 
6.008043104501e-04 1.609054557729e-04 0.0 
1.878918133580e-04 1.284145517009e-06 0.0 
3.566885919120e-04 -1.556593216093e-04 0.0 
1.014931169995e-03 6.804352405626e-03 0.0 
1.030256568275e-03 7.325195307910e-03 0.0 
4.475848968755e-04 -1.551417357389e-04 0.0 
3.009177784347e-04 -4.813094444413e-05 0.0 
3.125752079234e-04 -3.787067878805e-05 0.0 
2.288788215763e-04 -2.607262824649e-04 0.0 
7.145337145402e-04 -2.472067340809e-04 0.0 
7.352375260111e-04 -1.793674894072e-04 0.0 
6.401778838232e-04 -1.971519463063e-04 0.0 
1.415598573553e-03 1.006938081810e-04 0.0 
7.806540454771e-04 1.788577574676e-03 0.0 
1.742866035825e-03 1.431281586223e-03 0.0 
5.560459963257e-04 2.679018247495e-03 0.0 
1.713434637774e-03 7.427725787784e-04 0.0 
1.761476032388e-03 3.367984762349e-03 0.0 
2.795884699654e-04 -4.759154922513e-05 0.0 
7.229819913600e-04 2.247428577952e-03 0.0 
1.682420457938e-03 4.493638849885e-03 0.0 
3.658311983472e-04 -1.448006729046e-04 0.0 
7.899887700567e-04 -1.895287302317e-04 0.0 
1.342854544096e-03 4.159948804966e-03 0.0 
1.041316559855e-03 2.711916827564e-03 0.0 
1.026456393234e-03 4.217990555050e-03 0.0 
1.220145263307e-03 4.708771681622e-03 0.0 
2.118100576992e-04 -1.272846295265e-05 0.0 
5.903668172537e-04 4.819037493522e-05 0.0 
2.626445000654e-04 -1.925541079257e-05 0.0 
3.126262341213e-04 -8.056999368277e-05 0.0 
2.181436932392e-03 2.199517674587e-03 0.0 
6.227659220775e-04 -1.183369159038e-05 0.0 
2.237555022168e-03 3.748855078857e-03 0.0 
1.610275352699e-04 -2.027542394408e-04 0.0 
6.967099399775e-04 -1.812838433986e-04 0.0 
6.664781305131e-04 -1.337910171458e-04 0.0 
8.529535194942e-04 -7.596169176160e-05 0.0 
5.885653458003e-04 -2.931333381382e-04 0.0 
7.503997088300e-04 -1.934009094421e-04 0.0 
8.015210260309e-04 -4.307663713568e-05 0.0 
2.231516391621e-03 1.604290914629e-03 0.0 
3.479790153372e-04 -1.302733056179e-04 0.0 
1.722600524220e-03 5.486239500612e-03 0.0 
7.942832422533e-04 8.978138361966e-03 0.0 
4.148672231620e-04 -7.053574465578e-05 0.0 
3.359900671438e-04 -9.369368309671e-05 0.0 
5.534337757059e-04 -2.244584249766e-05 0.0 
1.501759305362e-03 1.329285797401e-03 0.0 
8.630887726332e-04 -1.316645543479e-04 0.0 
3.334421162752e-04 -1.050031312878e-04 0.0 
1.359865286244e-03 5.703448049071e-03 0.0 
4.577558756730e-04 6.914854520440e-05 0.0 
6.463786488699e-04 -2.774781766428e-05 0.0 
8.000551638132e-04 -1.041717125679e-04 0.0 
2.321833798806e-03 1.693046383002e-03 0.0 
2.914060037589e-04 -3.791757641983e-05 0.0 
5.048901698506e-04 -2.986076538238e-04 0.0 
2.985550254055e-04 -2.784607850097e-05 0.0 
2.481378186216e-04 -1.783182352533e-06 0.0 
7.451158824478e-04 -3.185797754573e-05 0.0 
1.128447509604e-03 4.210325569268e-03 0.0 
1.196512757174e-03 1.914077175949e-04 0.0 
2.331576645722e-04 -3.199949277932e-06 0.0 
5.208106689561e-04 2.741070631637e-04 0.0 
1.531074999697e-03 5.109829162523e-03 0.0 
6.933757878807e-04 8.379672314749e-05 0.0 
1.122309041777e-03 3.702671878565e-03 0.0 
8.071986309104e-04 -6.328731347879e-05 0.0 
8.167186260921e-04 -1.713971948391e-04 0.0 
1.981401398832e-04 -9.024665160558e-05 0.0 
4.968571219231e-04 -2.983253955415e-04 0.0 
9.067556647364e-04 3.215830271051e-03 0.0 
1.303827665200e-04 -1.888007454872e-04 0.0 
6.217157466268e-04 5.681538677643e-04 0.0 
1.375947232869e-03 2.583579795952e-04 0.0 
5.100929656108e-04 2.180290288592e-03 0.0 
4.616151439590e-04 -3.034423693855e-04 0.0 
1.752358523292e-03 3.787774961944e-04 0.0 
1.562779988034e-03 4.575048568270e-03 0.0 
2.811254022502e-04 -1.101903631754e-04 0.0 
5.676628192518e-04 -2.967646376324e-04 0.0 
9.620891731856e-04 -9.180123575559e-05 0.0 
4.051753090303e-04 -3.113862822673e-04 0.0 
4.810549222238e-04 -3.054709819865e-04 0.0 
4.408636472126e-04 -3.092903849837e-04 0.0 
8.461086693063e-04 -9.721699314765e-05 0.0 
3.337152365783e-04 3.907806955319e-04 0.0 
8.049577372185e-04 1.024691821903e-03 0.0 
1.668093608139e-04 -7.525384050775e-06 0.0 
8.845581238262e-04 -1.944840793054e-04 0.0 
1.899934806946e-03 4.804257854174e-03 0.0 
5.441925908270e-04 -2.955261423146e-04 0.0 
2.138372332239e-04 3.922966955147e-06 0.0 
4.228508929137e-04 -3.062389875106e-04 0.0 
1.281627330964e-04 -1.695372639363e-04 0.0 
7.686334383401e-04 -4.838651591686e-06 0.0 
5.385719945154e-04 -1.632467541068e-04 0.0 
7.248935096223e-04 6.297348256821e-05 0.0 
1.172656053203e-03 9.291871916566e-05 0.0 
2.106578368828e-03 3.445013522355e-03 0.0 
4.919408356970e-04 4.482458199252e-05 0.0 
1.412169195705e-03 5.167625519937e-03 0.0 
1.525267502763e-03 1.245264816497e-03 0.0 
1.548284764921e-03 3.540857300356e-03 0.0 
1.597166466982e-03 2.974901208974e-03 0.0 
6.366859294722e-04 -2.262981575462e-04 0.0 
1.695212067291e-04 -1.371325872794e-05 0.0 
1.684145263214e-03 3.970023478424e-03 0.0 
1.089704694951e-03 -8.932474320951e-05 0.0 
1.193183218105e-03 1.716386683538e-03 0.0 
4.140286071710e-04 4.656093307523e-05 0.0 
6.505812542029e-04 -2.705106990159e-04 0.0 
1.398840982337e-04 -1.810681695430e-04 0.0 
7.817670420631e-04 5.125033389053e-05 0.0 
2.066818196483e-05 -2.113386011437e-04 0.0 
1.396908812041e-03 7.088692173309e-05 0.0 
6.601284609838e-04 -5.047082626977e-06 0.0 
1.306848965756e-03 2.134798660974e-03 0.0 
1.228824435033e-03 1.649217365984e-03 0.0 
7.257574559166e-04 -1.386316060636e-05 0.0 
1.293716627955e-03 3.149529888072e-03 0.0 
9.703712436635e-04 -1.609166848822e-04 0.0 
1.579018583002e-03 4.260644510192e-04 0.0 
2.240103748510e-03 2.845883988698e-03 0.0 
1.523201678956e-03 8.244107347587e-04 0.0 
2.347575367777e-03 4.918256241447e-03 0.0 
1.953589643721e-03 5.954938110527e-03 0.0 
9.344692229417e-04 -1.347449407507e-04 0.0 
1.848417303178e-03 6.707507479743e-03 0.0 
1.295055131180e-03 4.889785723878e-05 0.0 
1.169736250393e-03 -6.958822507383e-05 0.0 
7.560144480585e-04 -1.618581560907e-04 0.0 
5.383054117220e-04 -3.045427407430e-04 0.0 
8.602408822788e-04 -1.648122428115e-04 0.0 
9.512888200511e-04 2.723543192849e-03 0.0 
1.509459391464e-03 1.041610526264e-03 0.0 
2.069051246169e-04 -2.817972356049e-05 0.0 
6.225691816141e-04 5.884334378139e-05 0.0 
5.713195016486e-04 -1.650758928814e-04 0.0 
1.497203231845e-03 3.047476316836e-03 0.0 
7.979064869128e-04 -1.577600407331e-04 0.0 
1.320739434785e-04 -8.348105645083e-06 0.0 
1.439278968966e-03 3.602638689770e-03 0.0 
1.861764118500e-03 3.254311013179e-03 0.0 
7.145538548367e-04 -5.729700900816e-05 0.0 
9.183005602163e-04 -1.664810760027e-04 0.0 
1.356707518656e-03 3.697871219636e-04 0.0 
2.324205076346e-03 1.279971749242e-03 0.0 
5.193948352125e-04 -3.062444013443e-04 0.0 
6.300196193170e-04 -2.802617301938e-04 0.0 
1.215071780798e-03 6.639732396640e-05 0.0 
1.836562171174e-03 4.751876319302e-04 0.0 
9.926298863769e-05 -4.190843042879e-06 0.0 
1.797373295544e-03 3.869726048279e-03 0.0 
8.736779291400e-04 -1.763584650233e-04 0.0 
1.841269418524e-03 5.011701456689e-04 0.0 
5.584267754731e-04 -3.344968253990e-06 0.0 
9.993634142195e-04 3.214455223410e-03 0.0 
1.299864593146e-03 4.083082915058e-04 0.0 
1.975747671159e-03 5.209692187857e-03 0.0 
3.851711812214e-04 -1.019230965118e-05 0.0 
8.176402066838e-04 -1.383647324348e-04 0.0 
5.260680152254e-04 -8.565153194655e-06 0.0 
1.467535690828e-03 1.222288314245e-04 0.0 
1.050133748951e-03 2.233878130824e-03 0.0 
1.169232212084e-03 4.128163046910e-04 0.0 
7.619491109474e-04 -9.003873495979e-05 0.0 
5.943308705144e-04 -2.890908961590e-04 0.0 
1.075298339408e-03 1.700627958919e-04 0.0 
1.407594376292e-03 9.489196609300e-05 0.0 
9.251956175003e-04 -1.750718801098e-04 0.0 
7.622477278566e-04 -7.040963725676e-05 0.0 
3.634135718947e-04 -2.509421980717e-05 0.0 
5.759254702488e-04 -2.961595605539e-04 0.0 
7.893036212868e-04 -1.240857733217e-04 0.0 
2.544785148069e-03 2.168732514958e-03 0.0 
9.002235374741e-05 -4.353696400533e-06 0.0 
2.406381654771e-03 1.679050223128e-03 0.0 
1.256095774644e-03 2.286078761386e-04 0.0 
2.638122169466e-03 2.771423138558e-03 0.0 
2.616602148205e-03 4.371512043977e-03 0.0 
2.167841381963e-03 9.733130048505e-04 0.0 
6.509799644375e-04 3.928104389064e-05 0.0 
1.963173011328e-04 -2.051086975807e-05 0.0 
1.919719847374e-03 4.266232408798e-03 0.0 
1.158682874442e-03 1.701713769114e-03 0.0 
2.670044813135e-03 3.504895310782e-03 0.0 
8.016777834737e-04 -2.283780749247e-04 0.0 
9.961407158793e-04 1.750015597379e-04 0.0 
7.981571454011e-04 2.244106361778e-03 0.0 
1.265511828460e-03 -9.755680925863e-06 0.0 
1.372556789034e-03 6.106219221655e-05 0.0 
8.442716123431e-04 -2.046435354119e-04 0.0 
2.011110284442e-03 3.608035169074e-03 0.0 
1.557557302520e-03 4.609763677376e-04 0.0 
1.244341340074e-03 4.643058233183e-05 0.0 
1.488636897027e-03 3.508180811602e-04 0.0 
7.819717264176e-04 2.320142540002e-05 0.0 
7.491323106222e-04 1.457768142662e-04 0.0 
8.001195720443e-04 -2.016940384177e-04 0.0 
4.874138956444e-04 -3.083088922622e-04 0.0 
1.348021039841e-03 1.521473717443e-03 0.0 
1.755257346756e-03 6.686715589080e-04 0.0 
6.184058446857e-04 -1.508880189416e-04 0.0 
8.557859218371e-04 1.505263697626e-04 0.0 
2.033168750161e-03 4.118215278763e-03 0.0 
2.414316072724e-04 -2.852969204600e-05 0.0 
1.065911177064e-03 -1.223901872180e-04 0.0 
4.632385639149e-04 -3.138696366417e-04 0.0 
6.273869945875e-05 -1.049459853443e-06 0.0 
1.713358710727e-03 3.379209917960e-04 0.0 
9.875545908568e-04 2.922486184853e-05 0.0 
1.192197013243e-03 3.132178838969e-04 0.0 
4.301951925886e-04 -3.142497405490e-04 0.0 
2.597871281082e-04 -2.845693328700e-05 0.0 
8.400529752650e-04 -1.743185581786e-04 0.0 
2.101754809556e-03 5.025356040945e-03 0.0 
2.658293436487e-04 -8.714466129262e-05 0.0 
8.402864749409e-04 -1.951087252370e-04 0.0 
1.208576302971e-04 -8.539097038837e-06 0.0 
1.363241252279e-03 8.575511346588e-05 0.0 
8.061055944360e-04 -2.214009464187e-04 0.0 
1.743081213495e-03 3.775075436378e-04 0.0 
4.541488126565e-04 -3.216319438400e-04 0.0 
1.559138332528e-03 3.489618654819e-04 0.0 
7.391546569816e-04 1.208339585579e-05 0.0 
1.034623466222e-03 4.100053622235e-04 0.0 
1.379474459542e-03 3.177071001437e-04 0.0 
6.819872480094e-04 -2.677725975631e-04 0.0 
1.904331227101e-04 -2.789309742641e-05 0.0 
7.062355698289e-04 1.781207220096e-03 0.0 
3.417935635239e-04 4.879341739728e-05 0.0 
7.400558612387e-04 3.821086405913e-05 0.0 
1.012726782408e-03 -1.385810491511e-04 0.0 
1.679708651067e-03 3.682044262668e-04 0.0 
7.239831530967e-05 -4.489741922824e-06 0.0 
6.183436986702e-05 -8.079094711716e-05 0.0 
1.443143081784e-03 3.081118575893e-04 0.0 
1.775863449840e-03 4.931366865116e-03 0.0 
1.562439638310e-04 -1.383406364019e-05 0.0 
2.450458069327e-04 -1.981936794682e-05 0.0 
3.346454331844e-04 9.490140059901e-03 0.0 
2.283393680942e-04 9.486278821777e-03 0.0 
2.481883957727e-03 2.114253370440e-03 0.0 
1.589149454337e-03 3.277196741027e-04 0.0 
2.246534286105e-04 -7.334343602771e-05 0.0 
2.151398064247e-03 9.912869572814e-04 0.0 
1.272139584533e-03 1.869378483687e-05 0.0 
3.656213670914e-04 1.298562557308e-05 0.0 
1.063056429487e-03 -1.196613067733e-04 0.0 
3.071688851908e-04 4.226135526691e-04 0.0 
2.533743682058e-03 5.105663455051e-03 0.0 
1.305288118374e-03 2.172126718752e-05 0.0 
2.884930136052e-04 -8.935039856137e-05 0.0 
6.911900751544e-04 -2.600937745273e-04 0.0 
3.229669989585e-04 -1.269652943114e-04 0.0 
1.678416615722e-03 3.370127934500e-04 0.0 
1.966545096781e-03 6.333303313392e-04 0.0 
2.139390848130e-03 4.471904577227e-03 0.0 
2.041807448687e-03 8.672263891001e-04 0.0 
1.985548432387e-03 8.658168798571e-04 0.0 
6.914881084113e-05 -2.329057390861e-04 0.0 
3.156726792125e-04 -1.375120296539e-04 0.0 
1.671862583441e-03 5.274517103665e-04 0.0 
2.388406299523e-03 1.490053882759e-03 0.0 
2.352440749749e-03 1.482533195824e-03 0.0 
5.352740810223e-04 3.146835861577e-05 0.0 
9.921136832661e-06 -2.029783616897e-04 0.0 
5.282745433280e-04 -3.083803507156e-04 0.0 
1.591993742473e-03 2.231959967390e-04 0.0 
2.916223819079e-04 -1.338853001026e-04 0.0 
2.170456105635e-03 5.098974998679e-03 0.0 
2.051974414923e-03 5.951051927636e-03 0.0 
2.248309035751e-03 4.265566024040e-03 0.0 
6.063070995718e-04 -2.135276726284e-04 0.0 
2.628291563649e-04 -9.726671478159e-05 0.0 
5.213824508551e-04 -2.648661925758e-05 0.0 
5.449920753063e-04 -3.036284700207e-04 0.0 
4.708993467197e-04 1.206008953814e-04 0.0 
1.324330662804e-03 2.633557682546e-03 0.0 
2.143185185078e-04 -1.019915758911e-04 0.0 
1.665680563280e-04 -2.034504853623e-05 0.0 
1.347189182806e-04 -2.510048421487e-04 0.0 
5.092244162223e-04 -4.380066977398e-05 0.0 
1.632765590615e-03 2.632495031703e-04 0.0 
1.018695973057e-04 -2.455252976001e-04 0.0 
1.229849854869e-03 2.673829864368e-03 0.0 
5.306371831323e-04 -3.039888579261e-04 0.0 
2.319637996899e-03 1.300230743821e-03 0.0 
1.880590370867e-03 5.214152991700e-04 0.0 
6.405902673465e-04 -1.666298836865e-04 0.0 
4.725195860686e-04 -8.862013258705e-05 0.0 
1.225353697888e-03 2.188292493762e-03 0.0 
4.328709126502e-04 -6.101638025739e-05 0.0 
1.480079953867e-03 1.430642514699e-04 0.0 
1.515669245396e-03 1.605763872848e-04 0.0 
3.980291132924e-04 -1.217433128806e-04 0.0 
5.026554829949e-04 -3.102881739601e-04 0.0 
1.185235879879e-03 2.366182825385e-04 0.0 
2.578882754366e-03 4.207982794362e-03 0.0 
1.046495238881e-03 2.043568878407e-04 0.0 
8.666782595558e-04 -1.461606269738e-04 0.0 
2.108370637835e-03 1.923533711071e-03 0.0 
1.139827752974e-03 2.720728677544e-04 0.0 
2.334200843925e-03 5.202257632816e-03 0.0 
1.241418715862e-03 2.759636285495e-04 0.0 
1.522297854585e-04 -2.019750515775e-05 0.0 
1.526420187234e-03 2.419680441877e-04 0.0 
3.047223423392e-04 -1.131634955666e-04 0.0 
3.090897664105e-04 -1.024455844416e-04 0.0 
1.401106957354e-03 1.452813596015e-03 0.0 
5.005537788908e-04 -1.177779765359e-04 0.0 
1.826109225752e-03 4.645917152760e-04 0.0 
1.091046999684e-03 -5.667053405172e-05 0.0 
3.816891870973e-04 -3.638426980603e-05 0.0 
1.204068031928e-03 -4.115025796737e-05 0.0 
6.925721563443e-04 -2.628641952833e-04 0.0 
7.147041054850e-04 -1.135374884466e-04 0.0 
7.607971416399e-04 -2.429394535394e-04 0.0 
2.224042881224e-03 1.140529225295e-03 0.0 
7.297586713208e-04 -2.504187595901e-04 0.0 
2.087510050814e-03 8.340366893655e-04 0.0 
6.164848292605e-04 2.974741589950e-05 0.0 
6.627436566256e-04 1.755920652375e-05 0.0 
1.161807622003e-03 -6.965893602747e-05 0.0 
2.335387304159e-03 4.563978524866e-03 0.0 
1.306893797801e-04 -1.387751165546e-05 0.0 
1.183223180596e-04 -1.381997390615e-05 0.0 
5.371456950424e-04 -2.076166350305e-04 0.0 
1.997870422265e-03 7.358172650792e-04 0.0 
6.982889633111e-05 -9.086349214621e-07 0.0 
1.322228882630e-03 8.920615448838e-04 0.0 
2.018904755112e-04 -8.094923029147e-05 0.0 
4.186073319223e-04 -1.068442439017e-04 0.0 
9.924993368624e-05 -8.644412647181e-06 0.0 
7.078490021501e-04 -2.593121664232e-04 0.0 
5.011229353776e-05 -7.241411777752e-05 0.0 
1.043368127649e-03 4.808098697232e-05 0.0 
2.433228728429e-03 4.297295362287e-03 0.0 
2.499329736164e-03 4.535203245796e-03 0.0 
1.583687858566e-03 2.355802283691e-04 0.0 
2.480387203812e-03 3.128108874426e-03 0.0 
2.520686904989e-03 4.079928802208e-03 0.0 
8.871609212086e-05 -8.639633237491e-06 0.0 
4.687721952671e-04 -7.464697324412e-05 0.0 
6.288592973899e-04 -1.348844876488e-04 0.0 
5.411392965668e-04 -4.104850328000e-05 0.0 
7.329212724874e-04 -1.469391748343e-04 0.0 
7.494723808041e-04 -2.469244580927e-04 0.0 
2.660503943877e-03 3.745961528195e-03 0.0 
2.542866924561e-03 4.975100226668e-03 0.0 
2.834931160990e-04 9.778684379444e-03 0.0 
6.265934430513e-04 9.453237055653e-06 0.0 
1.106089061005e-03 -9.425286607889e-05 0.0 
4.387533329125e-04 5.382431932469e-05 0.0 
3.736806247681e-05 -8.824118500572e-06 0.0 
7.464767259447e-04 -1.285621003635e-04 0.0 
5.759028225649e-05 1.337838594988e-06 0.0 
7.026181343599e-04 -2.468506363153e-04 0.0 
5.787250752701e-04 7.341796472898e-05 0.0 
1.507326718895e-03 1.780145861230e-04 0.0 
1.372674003055e-03 1.721965250333e-04 0.0 
3.553816685560e-04 -9.009204554691e-07 0.0 
3.725012168685e-04 -1.949172878227e-04 0.0 
1.924013382795e-03 5.997873023603e-04 0.0 
6.929853962767e-04 -1.492831246366e-04 0.0 
1.994807915936e-03 6.751239041366e-04 0.0 
9.298509706353e-04 -1.270404090245e-04 0.0 
1.221567039656e-03 1.234636850894e-04 0.0 
6.775509858143e-04 -1.661184598846e-04 0.0 
2.456420136222e-04 -7.509762999121e-05 0.0 
2.079500495758e-03 8.015204867245e-04 0.0 
4.211357791942e-04 -2.007021211825e-04 0.0 
1.063193678295e-03 -2.368687260486e-05 0.0 
4.761413661456e-04 -1.104522205520e-04 0.0 
1.917831129475e-04 -2.509226027227e-04 0.0 
2.226708299416e-04 -8.292592283785e-05 0.0 
1.567600610782e-03 4.939286692022e-04 0.0 
2.579929119078e-03 3.714183509169e-03 0.0 
1.447985974877e-03 1.861067994489e-03 0.0 
1.575059934541e-04 1.999239988336e-04 0.0 
3.849148087975e-04 -1.666841381332e-04 0.0 
1.903829937121e-03 2.432890381812e-03 0.0 
5.999181338299e-04 -1.193032490537e-04 0.0 
1.775310359029e-04 -8.815816381301e-05 0.0 
2.284508782096e-03 2.339846016262e-03 0.0 
6.058319164062e-04 -2.377126124571e-04 0.0 
5.034429700056e-04 -1.035912540699e-04 0.0 
1.599616380905e-03 2.697569668071e-04 0.0 
1.003526048216e-03 7.079591238898e-06 0.0 
1.687216531149e-03 8.429362484519e-04 0.0 
5.668229627460e-04 -2.229045391454e-04 0.0 
2.360572518636e-04 -1.045704020295e-04 0.0 
1.618922402543e-04 -7.730449190605e-05 0.0 
2.959505768238e-04 -2.236495957392e-04 0.0 
2.335770989405e-03 5.750940288885e-03 0.0 
2.621197605494e-03 3.404155741628e-03 0.0 
1.418610956677e-05 -2.385911640371e-05 0.0 
1.191528686303e-04 -2.523640907533e-04 0.0 
4.158228174298e-04 -3.088075998969e-04 0.0 
2.872165797280e-04 -2.606472225306e-04 0.0 
1.424689078990e-04 -7.574415470787e-05 0.0 
7.319497115378e-04 -2.219497417341e-04 0.0 
6.105951631629e-04 -2.503725124355e-04 0.0 
6.648814355703e-04 -2.676476776425e-04 0.0 
1.845200492266e-04 -7.003267092187e-05 0.0 
2.497789924413e-03 2.344879315371e-03 0.0 
1.276374708705e-04 -6.579100307172e-05 0.0 
7.682326576164e-04 -2.180650400401e-04 0.0 
1.919066334068e-03 6.279644606620e-04 0.0 
1.410925657463e-03 7.682477949160e-03 0.0 
9.213799837844e-04 6.800429885502e-05 0.0 
1.093129790260e-04 -6.474226064301e-05 0.0 
1.651309179501e-04 -6.847642032902e-05 0.0 
9.467427498095e-04 1.108640725290e-03 0.0 
6.880024102851e-04 -2.111934457733e-04 0.0 
9.512425202895e-05 -5.562741498834e-05 0.0 
6.035844124334e-05 5.941853276169e-03 0.0 
6.288659797528e-05 6.929060032984e-03 0.0 
1.149851375534e-03 1.442081434640e-03 0.0 
1.487405167823e-04 -5.852845404265e-05 0.0 
5.245169097878e-04 -2.443343641052e-04 0.0 
5.496045064160e-04 -7.759798229077e-05 0.0 
5.488679257989e-04 6.274093708815e-05 0.0 
3.314431749274e-04 -2.823403277850e-04 0.0 
5.173115198861e-04 -2.305284976716e-04 0.0 
1.109630483441e-03 -3.044662508265e-05 0.0 
1.565574538269e-03 2.192242529570e-03 0.0 
7.763877365567e-05 -5.502350555773e-05 0.0 
1.923386506477e-05 -1.777157678252e-04 0.0 
2.403714030987e-03 5.674307689642e-03 0.0 
1.306704020581e-04 -5.740337398353e-05 0.0 
5.833876384987e-04 -1.503911171134e-04 0.0 
2.406592276695e-04 -9.480217029032e-05 0.0 
4.322776056922e-04 -2.376794335085e-04 0.0 
8.790014809550e-05 3.034732740536e-03 0.0 
5.869542770260e-04 -2.096614713915e-04 0.0 
4.525575438081e-04 1.413996766293e-05 0.0 
1.305584463668e-03 1.332470988119e-04 0.0 
1.154705355063e-04 -4.840528220723e-05 0.0 
9.824887732168e-05 -4.767806564074e-05 0.0 
7.018014695626e-04 -2.362789034526e-04 0.0 
3.439697157774e-04 -3.111752276768e-04 0.0 
4.384123888235e-04 -2.156935058307e-04 0.0 
8.405439975095e-05 -3.951622463080e-05 0.0 
3.792041443098e-04 2.052712367804e-06 0.0 
4.443588599818e-04 -2.323282888688e-04 0.0 
1.818719131760e-03 5.541366679649e-04 0.0 
1.121277476856e-03 6.504737731995e-04 0.0 
1.968611137854e-03 7.510330123829e-04 0.0 
1.166363769423e-04 5.708974074619e-06 0.0 
3.834921107486e-04 -3.027273671543e-04 0.0 
1.400896566317e-05 2.618584661250e-04 0.0 
2.572969014104e-06 8.959975773979e-07 0.0 
3.616925057935e-05 8.486444699383e-03 0.0 
4.954774624317e-04 -2.012945704201e-04 0.0 
1.452806433390e-03 1.903566903408e-04 0.0 
7.702335426058e-04 -2.282371378661e-04 0.0 
2.023602459404e-04 -2.610943211866e-04 0.0 
4.004333973096e-04 -1.533638065565e-04 0.0 
3.975316755558e-04 2.159428480327e-03 0.0 
2.581799812548e-03 2.697690155366e-03 0.0 
2.043170774601e-03 6.504116396541e-03 0.0 
2.142622297575e-04 5.089991986201e-05 0.0 
1.944526451397e-05 -1.947272599565e-04 0.0 
1.860746832670e-04 4.000947021606e-05 0.0 
2.574045561783e-03 2.977642089582e-03 0.0 
4.119518204011e-04 -1.892738705384e-04 0.0 
1.449641487390e-03 1.605799707140e-04 0.0 
4.791238185885e-04 -2.124154504884e-04 0.0 
5.967138007555e-04 -1.326188227420e-05 0.0 
4.353832907475e-04 -2.183583478536e-04 0.0 
2.368263966208e-03 1.825404439236e-03 0.0 
3.667352971434e-05 -4.815345416979e-06 0.0 
5.668806907461e-04 -2.221613759753e-04 0.0 
1.848394491519e-03 6.565538822266e-04 0.0 
3.907989210391e-04 -3.142855903708e-04 0.0 
6.628257458096e-04 -2.253952527578e-04 0.0 
2.249201248862e-03 2.274607822499e-03 0.0 
3.591617196879e-04 -2.042804802669e-04 0.0 
4.024647556593e-04 -2.364280957882e-04 0.0 
1.378041598349e-03 1.164927834338e-04 0.0 
4.547177362525e-04 -3.182622137339e-04 0.0 
6.978865838770e-04 6.348751991297e-04 0.0 
7.992168514206e-04 8.553354203872e-04 0.0 
3.549770667410e-04 -2.263453666164e-04 0.0 
5.652259613807e-04 -1.195309693068e-04 0.0 
1.180535320329e-03 -3.941433171994e-05 0.0 
1.777306573623e-03 5.675103422257e-04 0.0 
1.265307810365e-03 7.338714405000e-04 0.0 
9.558397488421e-04 1.329040322634e-03 0.0 
1.188197865244e-04 4.915589417858e-03 0.0 
9.730488126020e-04 3.262276120828e-04 0.0 
7.347672613245e-04 -2.426935724228e-04 0.0 
4.736444177669e-04 -7.253148557051e-05 0.0 
1.269405324270e-03 7.225670591774e-04 0.0 
5.263147899818e-04 -1.334122051362e-04 0.0 
2.049272062631e-03 9.854439716680e-04 0.0 
5.591489187538e-04 -1.346153060736e-04 0.0 
5.015455980336e-04 -2.370625417279e-04 0.0 
5.345724578590e-04 -8.898250683182e-05 0.0 
6.539245353539e-04 6.553827888408e-05 0.0 
1.121890544350e-03 -6.299488691066e-05 0.0 
5.352810237234e-04 -1.041411459033e-04 0.0 
1.314117004962e-03 1.073200768392e-04 0.0 
4.251478904357e-04 6.140674447949e-03 0.0 
3.318008421655e-04 -2.211479708743e-04 0.0 
5.105295129185e-04 -1.304008065340e-04 0.0 
4.989870133396e-04 -7.445945565544e-05 0.0 
7.251513495993e-04 1.654632698516e-04 0.0 
4.177021982102e-04 -2.983305426342e-04 0.0 
3.391161749557e-05 1.978965398738e-03 0.0 
4.412986977392e-05 2.961946969534e-03 0.0 
3.262240923110e-04 -3.227029955099e-04 0.0 
4.909291195987e-04 -5.994965299864e-05 0.0 
2.916232254985e-04 -2.429678202125e-04 0.0 
2.834528697330e-04 -2.308925501329e-04 0.0 
1.629084808315e-03 5.652097126195e-04 0.0 
1.248602867787e-03 7.411513196432e-05 0.0 
1.647441937221e-03 4.952691144816e-04 0.0 
6.298038698331e-04 -2.252419382471e-04 0.0 
5.876526930342e-04 9.815098731233e-03 0.0 
8.041019585715e-05 4.389451193462e-06 0.0 
2.797147765561e-04 -2.493263356432e-04 0.0 
5.244655418284e-04 8.903787017827e-06 0.0 
1.208830583020e-03 -1.104723702908e-05 0.0 
7.662412535063e-05 -2.166381524841e-04 0.0 
2.237805461808e-03 1.288276580516e-03 0.0 
7.242475647391e-04 -2.094509193221e-04 0.0 
3.660636523264e-04 -3.259609457783e-04 0.0 
6.406640290685e-04 -2.504884734927e-04 0.0 
7.676116693125e-06 -2.999854760208e-05 0.0 
2.334241409565e-03 1.634276154336e-03 0.0 
3.363762733063e-04 -2.927297799027e-04 0.0 
3.387808115714e-05 -7.412448597455e-05 0.0 
1.843971682685e-03 7.486633188132e-04 0.0 
8.709125450915e-04 8.261920449060e-05 0.0 
3.939208461816e-04 -2.229799658079e-04 0.0 
3.869218243145e-05 -1.771960930888e-04 0.0 
1.168769290798e-03 -8.403883250738e-06 0.0 
3.083922147750e-05 6.457934870074e-03 0.0 
3.867998161797e-04 -3.325258402951e-04 0.0 
6.528038182462e-04 1.962185946716e-04 0.0 
8.175419391237e-04 5.598287572004e-04 0.0 
1.300606545244e-04 7.827862392869e-03 0.0 
7.132664773777e-04 1.335915779632e-03 0.0 
7.407700869173e-04 3.858219552205e-04 0.0 
6.195314497893e-04 -2.111322876842e-04 0.0 
5.367553686786e-04 -2.194573683824e-04 0.0 
2.502441284714e-04 2.499649436300e-05 0.0 
3.890375159222e-04 -2.894128902000e-04 0.0 
9.524127681311e-06 -1.862799198709e-04 0.0 
2.461123350446e-05 -6.724174332277e-05 0.0 
3.694962187720e-04 -2.180430770457e-04 0.0 
5.525659779169e-04 -2.472047253188e-04 0.0 
5.660335107162e-04 3.184428298686e-04 0.0 
6.232525265232e-04 4.551343084472e-04 0.0 
1.201349610972e-03 7.805332044767e-03 0.0 
6.689226582884e-04 -2.379818880251e-04 0.0 
9.953963141610e-05 -1.765362264522e-04 0.0 
1.086964323986e-03 1.322177220824e-04 0.0 
2.657650918372e-05 2.150337700187e-06 0.0 
3.513715545203e-05 2.556822469138e-06 0.0 
5.250505172472e-04 -2.046335593477e-04 0.0 
1.447086636732e-03 8.048654484992e-03 0.0 
4.032128335834e-04 -3.153910364280e-04 0.0 
4.937439110827e-04 9.838709068032e-05 0.0 
4.523707366083e-04 -3.229302498737e-04 0.0 
5.298473327696e-04 1.973047727236e-04 0.0 
1.181364501205e-03 1.886986370827e-05 0.0 
4.704982957482e-04 -2.367014462081e-04 0.0 
5.754859100825e-04 -2.361028664780e-04 0.0 
4.233262085305e-04 -3.315055698718e-04 0.0 
1.022622366026e-04 2.677443272007e-03 0.0 
4.892530246114e-04 -2.268255687052e-04 0.0 
3.432231368181e-04 2.115147952550e-03 0.0 
2.628942122238e-04 3.562032989304e-03 0.0 
4.217477939028e-05 5.782802279866e-04 0.0 
5.780564743735e-06 1.549956010215e-06 0.0 
6.821662707712e-05 7.936640930187e-03 0.0 
4.513935204909e-04 -2.083213869762e-04 0.0 
6.888011641652e-04 7.842476440069e-04 0.0 
4.390471803736e-04 -1.935369908673e-04 0.0 
9.993743212087e-06 9.198952851888e-07 0.0 
4.399202124353e-04 -5.111780789322e-05 0.0 
4.642667682869e-04 1.667892430104e-05 0.0 
5.102091358364e-04 2.474229554842e-05 0.0 
1.021249718807e-03 8.748032258505e-03 0.0 
2.020705427476e-04 2.033648036068e-03 0.0 
1.780014052650e-03 6.555936978998e-04 0.0 
7.318778648490e-04 9.790579406944e-05 0.0 
1.872485821306e-03 1.008594738384e-03 0.0 
4.481767410996e-04 7.610552463309e-03 0.0 
3.631323137290e-04 -2.392864747492e-04 0.0 
3.861953752377e-04 -2.444323151587e-04 0.0 
1.447891379200e-04 5.410712381266e-03 0.0 
8.568443230263e-04 1.099466223386e-04 0.0 
1.684779861516e-03 7.687921794684e-03 0.0 
2.261617611972e-04 8.926360639915e-03 0.0 
2.803972884720e-04 8.061885075539e-03 0.0 
5.109515093172e-04 7.728826260166e-03 0.0 
4.667893065837e-04 -3.219835835023e-04 0.0 
3.479766051672e-04 -2.464708641498e-04 0.0 
3.209143207257e-04 1.273282813168e-03 0.0 
5.299326661777e-04 6.672570388148e-03 0.0 
2.345816031113e-04 3.562705810345e-05 0.0 
1.301845223975e-03 7.031480546433e-04 0.0 
2.178175895907e-03 1.136095748925e-03 0.0 
1.023714916421e-03 1.800332785320e-03 0.0 
1.258704281095e-04 -1.316133630359e-04 0.0 
1.285225896773e-04 -1.504861458104e-04 0.0 
1.416385647472e-04 2.804729741437e-06 0.0 
4.071141096905e-04 -3.343076403645e-04 0.0 
4.917887813487e-05 -1.847126197146e-04 0.0 
9.818273311800e-05 2.198094632622e-05 0.0 
1.840846434267e-05 -2.271812455271e-04 0.0 
2.815605602397e-04 8.633540542859e-03 0.0 
3.123664144131e-04 1.718627172441e-05 0.0 
2.713938163127e-04 -2.950937032780e-04 0.0 
1.997394318169e-04 -2.826297425375e-04 0.0 
2.060259887323e-04 4.712777374202e-04 0.0 
8.317839488311e-04 9.469725824064e-03 0.0 
4.835063231230e-04 1.346344389376e-03 0.0 
3.278854472444e-04 2.729418711916e-05 0.0 
7.376148811671e-04 9.515921013783e-03 0.0 
4.053552084980e-04 -2.883188529368e-04 0.0 
7.254156776372e-05 1.085727849483e-03 0.0 
1.743094463635e-04 -2.456898848950e-04 0.0 
5.258795708444e-04 1.784588573446e-03 0.0 
7.789772941112e-06 8.688520323874e-07 0.0 
1.290521339826e-03 8.967337187311e-04 0.0 
5.023848133518e-04 -3.146531226628e-04 0.0 
1.822075525363e-03 7.035379891061e-03 0.0 
7.659647691452e-05 -1.268939041116e-04 0.0 
1.030379449500e-03 1.083822710021e-04 0.0 
1.253319421063e-04 2.069234598092e-05 0.0 
1.455996219538e-04 4.411824438429e-03 0.0 
1.132739596487e-04 1.682702154791e-05 0.0 
4.336850595082e-04 -3.258087880024e-04 0.0 
4.790218030800e-05 2.591891941152e-06 0.0 
4.946451492698e-04 -3.124039091337e-04 0.0 
8.516732590932e-05 -2.316144031664e-04 0.0 
1.648597061633e-04 1.157412775497e-05 0.0 
8.122589481612e-04 9.553997299363e-04 0.0 
4.448453709890e-04 9.117684594068e-04 0.0 
6.079320159441e-04 8.813724731363e-03 0.0 
2.455697087023e-03 5.321840506733e-03 0.0 
5.952414603729e-04 -5.950227478701e-05 0.0 
8.327589618080e-04 4.116260497622e-04 0.0 
6.773620172058e-05 -1.517159621296e-04 0.0 
4.805388474618e-04 -2.019091856572e-04 0.0 
9.234118247317e-04 1.012069216137e-04 0.0 
4.799039816857e-04 9.830619554005e-03 0.0 
1.074865568314e-03 1.302086334589e-03 0.0 
5.901520569418e-06 5.505857935877e-04 0.0 
5.901520569418e-06 2.321263421777e-04 0.0 
2.079014771287e-05 -2.693069156675e-04 0.0 
8.645023775908e-06 -2.639030692820e-04 0.0 
2.762695831619e-05 9.458201496849e-03 0.0 
6.762521641511e-05 9.800628589802e-03 0.0 
9.954148165438e-07 6.927191485893e-07 0.0 
9.954148165438e-07 1.410809888590e-06 0.0 
3.739085746684e-05 -2.573061128506e-04 0.0 
3.908743901877e-04 -3.310659622393e-04 0.0 
4.805015924850e-05 1.057696983553e-06 0.0 
7.999955922641e-04 1.674991006451e-04 0.0 
1.464141453050e-04 -2.326422450248e-04 0.0 
8.151387409210e-05 1.884844656078e-06 0.0 
1.405966426186e-05 -5.303224014111e-05 0.0 
1.602245426660e-05 -8.623184651865e-05 0.0 
3.662631006036e-04 6.283101685983e-03 0.0 
4.193935111217e-04 -3.211002685844e-04 0.0 
1.160458589860e-03 9.483751438674e-05 0.0 
1.633876630679e-04 -2.487982749853e-04 0.0 
9.962898934289e-05 -1.084606469964e-04 0.0 
1.094325138225e-03 5.472313966361e-04 0.0 
1.932997477542e-05 2.449518565189e-03 0.0 
3.062332014030e-05 -8.438381119838e-05 0.0 
2.214322670818e-04 7.283920377675e-03 0.0 
9.212990928805e-04 2.541180574976e-04 0.0 
1.658236342126e-03 7.682136207050e-04 0.0 
1.957648182083e-03 9.573851985527e-04 0.0 
6.492260885960e-04 9.498300562001e-03 0.0 
1.118371600562e-03 4.644971084390e-05 0.0 
1.221619391781e-03 1.144102862196e-03 0.0 
6.964796377319e-05 -1.839958202967e-04 0.0 
3.140336489221e-04 -3.208775500484e-04 0.0 
1.094936371441e-03 3.053593728964e-04 0.0 
5.552696705003e-04 1.491538336406e-05 0.0 
4.126092721538e-04 -3.269857723304e-04 0.0 
1.991546854563e-04 5.519213281615e-03 0.0 
2.594232151456e-05 2.508673146603e-06 0.0 
9.941534045912e-04 2.299746181470e-04 0.0 
8.518566945420e-04 2.064841190099e-04 0.0 
1.640176273397e-05 -3.805675168128e-05 0.0 
4.118111053177e-04 -2.419189811371e-04 0.0 
5.558157547876e-04 4.112468024495e-04 0.0 
7.205443418819e-04 9.391903986712e-05 0.0 
2.003997399200e-03 6.500099054901e-03 0.0 
1.178961876698e-03 7.141598323440e-05 0.0 
4.051504482547e-04 1.749010385475e-03 0.0 
2.224425262635e-04 2.595557006176e-05 0.0 
3.730424920368e-04 -3.323024348844e-04 0.0 
3.288685268914e-04 -3.175257162231e-04 0.0 
4.863544177865e-04 1.611433681716e-04 0.0 
3.387279090220e-04 5.063461069829e-03 0.0 
1.080023011290e-04 -1.675880885064e-04 0.0 
9.489084416583e-04 1.388015276635e-03 0.0 
8.867334221910e-05 -2.245185349087e-04 0.0 
3.898164131984e-04 3.492057615711e-05 0.0 
1.117686713304e-03 7.784766630626e-03 0.0 
3.386240808318e-04 6.259028786978e-05 0.0 
1.026174113351e-03 1.437558813340e-04 0.0 
2.237314255540e-03 5.984891198689e-03 0.0 
1.297020534015e-04 7.217451712365e-06 0.0 
7.377401324268e-04 9.978995709870e-04 0.0 
5.895739675676e-05 1.273013746587e-03 0.0 
4.349071250070e-04 -7.558595113227e-06 0.0 
9.429757754182e-04 1.805646240560e-03 0.0 
5.617292674647e-04 1.797080328467e-04 0.0 
3.885039958282e-04 2.996110085002e-05 0.0 
9.030217371595e-04 1.286601309785e-04 0.0 
1.421880084407e-05 1.077169868401e-06 0.0 
2.006163258365e-03 1.073186568513e-03 0.0 
3.798859192741e-04 -2.248896856655e-04 0.0 
5.091110823148e-04 -1.623578490234e-04 0.0 
1.516010648323e-03 7.625069723229e-04 0.0 
1.922139447148e-03 6.170178024219e-03 0.0 
2.501056609322e-05 6.004959390621e-07 0.0 
8.117911691748e-04 1.304918555612e-04 0.0 
5.033417872192e-05 3.137520100610e-06 0.0 
3.132830929413e-04 4.047617580086e-03 0.0 
2.959802377365e-04 5.007284568503e-05 0.0 
1.598637819053e-04 4.821525266240e-06 0.0 
1.708290477218e-04 6.043579778979e-06 0.0 
7.753800745144e-05 -1.596502847533e-04 0.0 
2.235145155174e-05 1.993063116975e-06 0.0 
1.281768181467e-03 8.513218906513e-03 0.0 
2.464812012724e-04 2.058455296653e-03 0.0 
3.432680259485e-04 -3.184445627872e-04 0.0 
1.522872059518e-04 2.873107568431e-03 0.0 
3.028688514820e-04 5.471986858064e-03 0.0 
1.831459534166e-05 -2.418330707701e-04 0.0 
4.911206451927e-04 -3.162005580019e-04 0.0 
1.794990556002e-03 8.180707406765e-04 0.0 
3.562073172932e-04 1.018748016539e-03 0.0 
1.229476459141e-04 1.968211434753e-03 0.0 
3.728787771756e-04 5.622167135326e-05 0.0 
5.578860958422e-04 7.203619229934e-03 0.0 
2.614172653850e-04 -3.013491387652e-04 0.0 
4.365842225007e-04 -2.767773040165e-04 0.0 
2.493416189789e-04 -2.929433260948e-04 0.0 
3.291180258979e-04 -3.059897672207e-04 0.0 
3.742152587176e-04 -2.040815237918e-04 0.0 
9.097567285463e-05 -1.145891296399e-04 0.0 
3.146510292938e-05 5.911421891824e-07 0.0 
1.316230573491e-03 9.914734780935e-04 0.0 
2.449879292466e-03 5.045472775477e-03 0.0 
1.383603580286e-04 -1.426375162686e-04 0.0 
1.366512418703e-04 1.646811031903e-06 0.0 
2.862970615623e-04 1.180268833014e-05 0.0 
4.225518220484e-04 8.023159056411e-05 0.0 
8.483237639277e-04 2.518424981889e-04 0.0 
1.466930976879e-03 6.392493161795e-04 0.0 
3.205355142356e-04 -3.102699324651e-04 0.0 
4.245507739739e-04 -3.223870708641e-04 0.0 
4.413629378987e-05 6.860738905005e-07 0.0 
3.544629624689e-05 -2.394647868154e-04 0.0 
7.661419210508e-06 -2.346211801985e-04 0.0 
4.227772557693e-04 -1.726349472675e-04 0.0 
2.554235379914e-04 -2.889423194898e-04 0.0 
9.617188642730e-05 6.267436050450e-06 0.0 
6.284826553639e-04 2.551948110836e-04 0.0 
3.597809287867e-04 1.752284341557e-03 0.0 
3.491737139606e-04 7.237418526447e-05 0.0 
3.474715509343e-04 9.092854267516e-06 0.0 
4.669319139792e-04 6.642045770916e-03 0.0 
9.430539713810e-05 1.942467256292e-04 0.0 
4.772431734696e-04 -3.123737331467e-04 0.0 
7.568979430521e-04 9.812718630063e-03 0.0 
3.949821074674e-04 -3.279985460524e-04 0.0 
1.837336407652e-04 -2.745643585879e-04 0.0 
1.501547793634e-05 1.749695117756e-06 0.0 
1.948178037083e-03 7.098076505710e-03 0.0 
1.006340588237e-04 -2.380027475914e-04 0.0 
6.495135230243e-05 -1.174579951212e-04 0.0 
7.588395220056e-04 3.299707362728e-04 0.0 
5.911569336948e-04 1.819433177081e-03 0.0 
6.796785768074e-04 7.139531185681e-04 0.0 
4.876013809168e-05 -1.682766953106e-04 0.0 
4.376913889682e-04 -2.920179367871e-04 0.0 
6.773200110559e-05 3.081509939112e-06 0.0 
1.991048623259e-05 4.939848083027e-04 0.0 
3.568383830647e-06 1.588716725987e-06 0.0 
6.379620889554e-05 8.918112814952e-03 0.0 
2.600671018320e-04 1.563297575006e-05 0.0 
1.151192122193e-04 -2.355458871018e-04 0.0 
8.954357515049e-04 1.433140460053e-03 0.0 
2.113870111338e-04 -2.828931968806e-04 0.0 
1.215004422760e-04 9.668602328642e-06 0.0 
8.782429416955e-04 8.943378250723e-04 0.0 
4.156288522847e-04 -2.735589928880e-04 0.0 
9.570037264806e-04 2.016039842443e-04 0.0 
3.009233057258e-04 4.531903329121e-03 0.0 
2.298459356586e-04 9.875691858334e-04 0.0 
4.885786850337e-05 7.705878728477e-06 0.0 
1.150844160042e-04 5.925073064637e-03 0.0 
6.471735916415e-04 2.966077774533e-04 0.0 
1.123202616743e-03 1.248985203445e-03 0.0 
2.395949599524e-04 5.208970487200e-03 0.0 
9.912967756179e-04 4.386397046437e-04 0.0 
7.834252134605e-05 -1.440529139399e-04 0.0 
4.319412519034e-04 9.536795915751e-03 0.0 
6.103702577938e-04 1.201466143053e-04 0.0 
2.048316328957e-05 1.054293452554e-03 0.0 
3.888280527264e-05 -2.656684547751e-04 0.0 
1.246089402936e-04 9.517400318510e-03 0.0 
3.254298757526e-06 2.211201046518e-06 0.0 
1.645193637398e-04 -2.355409415688e-04 0.0 
3.482391577382e-04 2.304969289871e-05 0.0 
1.279770054730e-03 1.121205946408e-03 0.0 
2.648137956069e-04 1.288369992403e-03 0.0 
1.077078168207e-04 -2.268432677091e-04 0.0 
4.625917539131e-04 -2.147359105580e-04 0.0 
6.366194837081e-06 -7.725936734002e-05 0.0 
1.248692285153e-04 3.512241536198e-03 0.0 
3.855382909493e-04 -3.237367285509e-04 0.0 
5.609664645799e-04 7.962465904754e-04 0.0 
2.056362033555e-04 6.120441938793e-03 0.0 
4.048035861905e-04 -3.183304701530e-04 0.0 
3.717660634762e-04 6.854610807771e-03 0.0 
4.715261082565e-04 9.956061095908e-05 0.0 
1.170021305809e-05 -6.852858936796e-05 0.0 
3.875232453782e-04 -1.924592614077e-04 0.0 
9.640180714246e-05 -1.589047451678e-04 0.0 
8.736965304963e-05 -9.814816996147e-05 0.0 
5.334018221014e-06 -6.017226728267e-05 0.0 
4.996956960353e-04 7.192960092149e-05 0.0 
4.588999725140e-05 -9.927227856999e-05 0.0 
5.691442211628e-05 -8.821355825862e-05 0.0 
2.253481375713e-04 -2.795517954245e-04 0.0 
8.820876335804e-05 2.083206592492e-06 0.0 
1.145820696848e-03 3.461113521809e-04 0.0 
5.084341013217e-04 -2.150008420669e-04 0.0 
3.449212895274e-05 9.976924672686e-04 0.0 
5.827267771629e-06 2.389107883915e-06 0.0 
1.207799327740e-04 8.973120915334e-03 0.0 
1.525906575309e-04 6.339115513112e-03 0.0 
6.350996142668e-05 -1.022397100490e-04 0.0 
6.958977984739e-05 -9.609443063600e-05 0.0 
4.193758477018e-05 -9.009605414280e-05 0.0 
4.449658720865e-04 2.595065528978e-05 0.0 
3.909336203247e-04 -3.226595335020e-04 0.0 
9.922343905968e-04 3.097364924581e-04 0.0 
2.298587929985e-04 7.851338978011e-03 0.0 
6.764243405560e-04 1.065790309407e-03 0.0 
4.181184087301e-04 2.135992375052e-05 0.0 
4.321105754261e-04 7.054820815846e-03 0.0 
1.341526076788e-03 6.348949882696e-04 0.0 
5.151867083252e-04 8.089571452505e-05 0.0 
3.910670053395e-04 6.692473005846e-05 0.0 
4.014003573153e-04 -2.072061037461e-04 0.0 
1.321426594367e-03 5.863599598731e-04 0.0 
1.114343806502e-03 4.735184448324e-04 0.0 
2.107082715597e-04 -2.763207012051e-04 0.0 
7.263651814066e-05 -1.104219320180e-04 0.0 
3.982104665702e-04 -2.264370360230e-04 0.0 
1.141197021671e-03 5.408820926981e-04 0.0 
1.780254439321e-04 1.073717249287e-02 0.0 
2.031359329319e-04 1.039825037586e-02 0.0 
2.763178667944e-04 1.073949290002e-02 0.0 
3.029472579508e-04 1.040420465588e-02 0.0 
3.667965191833e-04 1.074581286450e-02 0.0 
3.990052848831e-04 1.041222528433e-02 0.0 
4.550752699000e-04 1.075119318245e-02 0.0 
4.903410555352e-04 1.041486429255e-02 0.0 
5.381366412772e-04 1.074883466703e-02 0.0 
5.761455997761e-04 1.041163618367e-02 0.0 
6.120653977983e-04 1.073924007142e-02 0.0 
6.525019450141e-04 1.039871211208e-02 0.0 
1.069831264770e-03 8.077819168592e-03 0.0 
6.723238034792e-04 1.071558771627e-02 0.0 
1.157131973891e-03 8.208084409716e-03 0.0 
7.172604629038e-04 1.036798327556e-02 0.0 
7.156465450101e-04 1.066666683294e-02 0.0 
7.689692283813e-04 1.030718680578e-02 0.0 
7.408295901100e-04 1.058511410024e-02 0.0 
8.080580505009e-04 1.021235719027e-02 0.0 
7.419166847496e-04 1.046307365490e-02 0.0 
8.320461768298e-04 1.006256167828e-02 0.0 
7.175101364929e-04 8.361290896234e-03 0.0 
7.238918240574e-04 1.027185708568e-02 0.0 
8.557715206923e-04 9.827812920054e-03 0.0 
7.026032949055e-04 9.985462089000e-03 0.0 
8.952811221716e-04 9.479150349968e-03 0.0 
9.785827157525e-04 8.965827230581e-03 0.0 
6.969950225994e-04 9.569886169408e-03 0.0 
7.533535592118e-04 8.954804342578e-03 0.0 
1.467213323588e-03 7.380196782768e-03 0.0 
1.114892195311e-03 7.663668510410e-03 0.0 
2.301408793825e-05 1.055746358310e-02 0.0 
1.155314511436e-04 1.056412428145e-02 0.0 
6.301234603717e-05 1.021819372188e-02 0.0 
7.553319304463e-05 1.090339414267e-02 0.0 
1.397711403699e-03 6.994865390276e-03 0.0 

VECTORS element_materi_displacement float
0.0 0.0 0.0 
0.0 0.0 0.0 
0.0 0.0 0.0 
0.0 0.0 0.0 
0.0 0.0 0.0 
0.0 0.0 0.0 
0.0 0.0 0.0 
0.0 0.0 0.0 
0.0 0.0 0.0 
0.0 0.0 0.0 
0.0 0.0 0.0 
0.0 0.0 0.0 
0.0 0.0 0.0 
0.0 0.0 0.0 
0.0 0.0 0.0 
0.0 0.0 0.0 
0.0 0.0 0.0 
0.0 0.0 0.0 
0.0 0.0 0.0 
0.0 0.0 0.0 
0.0 0.0 0.0 
0.0 0.0 0.0 
0.0 0.0 0.0 
0.0 0.0 0.0 
0.0 0.0 0.0 
0.0 0.0 0.0 
0.0 0.0 0.0 
0.0 0.0 0.0 
0.0 0.0 0.0 
0.0 0.0 0.0 
0.0 0.0 0.0 
0.0 0.0 0.0 
0.0 0.0 0.0 
0.0 0.0 0.0 
0.0 0.0 0.0 
0.0 0.0 0.0 
0.0 0.0 0.0 
0.0 0.0 0.0 
0.0 0.0 0.0 
0.0 0.0 0.0 
0.0 0.0 0.0 
0.0 0.0 0.0 
0.0 0.0 0.0 
0.0 0.0 0.0 
0.0 0.0 0.0 
0.0 0.0 0.0 
0.0 0.0 0.0 
0.0 0.0 0.0 
0.0 0.0 0.0 
0.0 0.0 0.0 
0.0 0.0 0.0 
0.0 0.0 0.0 
0.0 0.0 0.0 
0.0 0.0 0.0 
0.0 0.0 0.0 
0.0 0.0 0.0 
0.0 0.0 0.0 
0.0 0.0 0.0 
0.0 0.0 0.0 
0.0 0.0 0.0 
0.0 0.0 0.0 
0.0 0.0 0.0 
0.0 0.0 0.0 
0.0 0.0 0.0 
0.0 0.0 0.0 
0.0 0.0 0.0 
0.0 0.0 0.0 
0.0 0.0 0.0 
0.0 0.0 0.0 
0.0 0.0 0.0 
0.0 0.0 0.0 
0.0 0.0 0.0 
0.0 0.0 0.0 
0.0 0.0 0.0 
0.0 0.0 0.0 
0.0 0.0 0.0 
0.0 0.0 0.0 
0.0 0.0 0.0 
0.0 0.0 0.0 
0.0 0.0 0.0 
0.0 0.0 0.0 
0.0 0.0 0.0 
0.0 0.0 0.0 
0.0 0.0 0.0 
0.0 0.0 0.0 
0.0 0.0 0.0 
0.0 0.0 0.0 
0.0 0.0 0.0 
0.0 0.0 0.0 
0.0 0.0 0.0 
0.0 0.0 0.0 
0.0 0.0 0.0 
0.0 0.0 0.0 
0.0 0.0 0.0 
0.0 0.0 0.0 
0.0 0.0 0.0 
0.0 0.0 0.0 
0.0 0.0 0.0 
0.0 0.0 0.0 
0.0 0.0 0.0 
0.0 0.0 0.0 
0.0 0.0 0.0 
0.0 0.0 0.0 
0.0 0.0 0.0 
0.0 0.0 0.0 
0.0 0.0 0.0 
0.0 0.0 0.0 
0.0 0.0 0.0 
0.0 0.0 0.0 
0.0 0.0 0.0 
0.0 0.0 0.0 
0.0 0.0 0.0 
0.0 0.0 0.0 
0.0 0.0 0.0 
0.0 0.0 0.0 
0.0 0.0 0.0 
0.0 0.0 0.0 
0.0 0.0 0.0 
0.0 0.0 0.0 
0.0 0.0 0.0 
0.0 0.0 0.0 
0.0 0.0 0.0 
0.0 0.0 0.0 
0.0 0.0 0.0 
0.0 0.0 0.0 
0.0 0.0 0.0 
0.0 0.0 0.0 
0.0 0.0 0.0 
0.0 0.0 0.0 
0.0 0.0 0.0 
0.0 0.0 0.0 
0.0 0.0 0.0 
0.0 0.0 0.0 
0.0 0.0 0.0 
0.0 0.0 0.0 
0.0 0.0 0.0 
0.0 0.0 0.0 
0.0 0.0 0.0 
0.0 0.0 0.0 
0.0 0.0 0.0 
0.0 0.0 0.0 
0.0 0.0 0.0 
0.0 0.0 0.0 
0.0 0.0 0.0 
0.0 0.0 0.0 
0.0 0.0 0.0 
0.0 0.0 0.0 
0.0 0.0 0.0 
0.0 0.0 0.0 
0.0 0.0 0.0 
0.0 0.0 0.0 
0.0 0.0 0.0 
0.0 0.0 0.0 
0.0 0.0 0.0 
0.0 0.0 0.0 
0.0 0.0 0.0 
0.0 0.0 0.0 
0.0 0.0 0.0 
0.0 0.0 0.0 
0.0 0.0 0.0 
0.0 0.0 0.0 
0.0 0.0 0.0 
0.0 0.0 0.0 
0.0 0.0 0.0 
0.0 0.0 0.0 
0.0 0.0 0.0 
0.0 0.0 0.0 
0.0 0.0 0.0 
0.0 0.0 0.0 
0.0 0.0 0.0 
0.0 0.0 0.0 
0.0 0.0 0.0 
0.0 0.0 0.0 
0.0 0.0 0.0 
0.0 0.0 0.0 
0.0 0.0 0.0 
0.0 0.0 0.0 
0.0 0.0 0.0 
0.0 0.0 0.0 
0.0 0.0 0.0 
0.0 0.0 0.0 
0.0 0.0 0.0 
0.0 0.0 0.0 
0.0 0.0 0.0 
0.0 0.0 0.0 
0.0 0.0 0.0 
0.0 0.0 0.0 
0.0 0.0 0.0 
0.0 0.0 0.0 
0.0 0.0 0.0 
0.0 0.0 0.0 
0.0 0.0 0.0 
0.0 0.0 0.0 
0.0 0.0 0.0 
0.0 0.0 0.0 
0.0 0.0 0.0 
0.0 0.0 0.0 
0.0 0.0 0.0 
0.0 0.0 0.0 
0.0 0.0 0.0 
0.0 0.0 0.0 
0.0 0.0 0.0 
0.0 0.0 0.0 
0.0 0.0 0.0 
0.0 0.0 0.0 
0.0 0.0 0.0 
0.0 0.0 0.0 
0.0 0.0 0.0 
0.0 0.0 0.0 
0.0 0.0 0.0 
0.0 0.0 0.0 
0.0 0.0 0.0 
0.0 0.0 0.0 
0.0 0.0 0.0 
0.0 0.0 0.0 
0.0 0.0 0.0 
0.0 0.0 0.0 
0.0 0.0 0.0 
0.0 0.0 0.0 
0.0 0.0 0.0 
0.0 0.0 0.0 
0.0 0.0 0.0 
0.0 0.0 0.0 
0.0 0.0 0.0 
0.0 0.0 0.0 
0.0 0.0 0.0 
0.0 0.0 0.0 
0.0 0.0 0.0 
0.0 0.0 0.0 
0.0 0.0 0.0 
0.0 0.0 0.0 
0.0 0.0 0.0 
0.0 0.0 0.0 
0.0 0.0 0.0 
0.0 0.0 0.0 
0.0 0.0 0.0 
0.0 0.0 0.0 
0.0 0.0 0.0 
0.0 0.0 0.0 
0.0 0.0 0.0 
0.0 0.0 0.0 
0.0 0.0 0.0 
0.0 0.0 0.0 
0.0 0.0 0.0 
0.0 0.0 0.0 
0.0 0.0 0.0 
0.0 0.0 0.0 
0.0 0.0 0.0 
0.0 0.0 0.0 
0.0 0.0 0.0 
0.0 0.0 0.0 
0.0 0.0 0.0 
0.0 0.0 0.0 
0.0 0.0 0.0 
0.0 0.0 0.0 
0.0 0.0 0.0 
0.0 0.0 0.0 
0.0 0.0 0.0 
0.0 0.0 0.0 
0.0 0.0 0.0 
0.0 0.0 0.0 
0.0 0.0 0.0 
0.0 0.0 0.0 
0.0 0.0 0.0 
0.0 0.0 0.0 
0.0 0.0 0.0 
0.0 0.0 0.0 
0.0 0.0 0.0 
0.0 0.0 0.0 
0.0 0.0 0.0 
0.0 0.0 0.0 
0.0 0.0 0.0 
0.0 0.0 0.0 
0.0 0.0 0.0 
0.0 0.0 0.0 
0.0 0.0 0.0 
0.0 0.0 0.0 
0.0 0.0 0.0 
0.0 0.0 0.0 
0.0 0.0 0.0 
0.0 0.0 0.0 
0.0 0.0 0.0 
0.0 0.0 0.0 
0.0 0.0 0.0 
0.0 0.0 0.0 
0.0 0.0 0.0 
0.0 0.0 0.0 
0.0 0.0 0.0 
0.0 0.0 0.0 
0.0 0.0 0.0 
0.0 0.0 0.0 
0.0 0.0 0.0 
0.0 0.0 0.0 
0.0 0.0 0.0 
0.0 0.0 0.0 
0.0 0.0 0.0 
0.0 0.0 0.0 
0.0 0.0 0.0 
0.0 0.0 0.0 
0.0 0.0 0.0 
0.0 0.0 0.0 
0.0 0.0 0.0 
0.0 0.0 0.0 
0.0 0.0 0.0 
0.0 0.0 0.0 
0.0 0.0 0.0 
0.0 0.0 0.0 
0.0 0.0 0.0 
0.0 0.0 0.0 
0.0 0.0 0.0 
0.0 0.0 0.0 
0.0 0.0 0.0 
0.0 0.0 0.0 
0.0 0.0 0.0 
0.0 0.0 0.0 
0.0 0.0 0.0 
0.0 0.0 0.0 
0.0 0.0 0.0 
0.0 0.0 0.0 
0.0 0.0 0.0 
0.0 0.0 0.0 
0.0 0.0 0.0 
0.0 0.0 0.0 
0.0 0.0 0.0 
0.0 0.0 0.0 
0.0 0.0 0.0 
0.0 0.0 0.0 
0.0 0.0 0.0 
0.0 0.0 0.0 
0.0 0.0 0.0 
0.0 0.0 0.0 
0.0 0.0 0.0 
0.0 0.0 0.0 
0.0 0.0 0.0 
0.0 0.0 0.0 
0.0 0.0 0.0 
0.0 0.0 0.0 
0.0 0.0 0.0 
0.0 0.0 0.0 
0.0 0.0 0.0 
0.0 0.0 0.0 
0.0 0.0 0.0 
0.0 0.0 0.0 
0.0 0.0 0.0 
0.0 0.0 0.0 
0.0 0.0 0.0 
0.0 0.0 0.0 
0.0 0.0 0.0 
0.0 0.0 0.0 
0.0 0.0 0.0 
0.0 0.0 0.0 
0.0 0.0 0.0 
0.0 0.0 0.0 
0.0 0.0 0.0 
0.0 0.0 0.0 
0.0 0.0 0.0 
0.0 0.0 0.0 
0.0 0.0 0.0 
0.0 0.0 0.0 
0.0 0.0 0.0 
0.0 0.0 0.0 
0.0 0.0 0.0 
0.0 0.0 0.0 
0.0 0.0 0.0 
0.0 0.0 0.0 
0.0 0.0 0.0 
0.0 0.0 0.0 
0.0 0.0 0.0 
0.0 0.0 0.0 
0.0 0.0 0.0 
0.0 0.0 0.0 
0.0 0.0 0.0 
0.0 0.0 0.0 
0.0 0.0 0.0 
0.0 0.0 0.0 
0.0 0.0 0.0 
0.0 0.0 0.0 
0.0 0.0 0.0 
0.0 0.0 0.0 
0.0 0.0 0.0 
0.0 0.0 0.0 
0.0 0.0 0.0 
0.0 0.0 0.0 
0.0 0.0 0.0 
0.0 0.0 0.0 
0.0 0.0 0.0 
0.0 0.0 0.0 
0.0 0.0 0.0 
0.0 0.0 0.0 
0.0 0.0 0.0 
0.0 0.0 0.0 
0.0 0.0 0.0 
0.0 0.0 0.0 
0.0 0.0 0.0 
0.0 0.0 0.0 
0.0 0.0 0.0 
0.0 0.0 0.0 
0.0 0.0 0.0 
0.0 0.0 0.0 
0.0 0.0 0.0 
0.0 0.0 0.0 
0.0 0.0 0.0 
0.0 0.0 0.0 
0.0 0.0 0.0 
0.0 0.0 0.0 
0.0 0.0 0.0 
0.0 0.0 0.0 
0.0 0.0 0.0 
0.0 0.0 0.0 
0.0 0.0 0.0 
0.0 0.0 0.0 
0.0 0.0 0.0 
0.0 0.0 0.0 
0.0 0.0 0.0 
0.0 0.0 0.0 
0.0 0.0 0.0 
0.0 0.0 0.0 
0.0 0.0 0.0 
0.0 0.0 0.0 
0.0 0.0 0.0 
0.0 0.0 0.0 
0.0 0.0 0.0 
0.0 0.0 0.0 
0.0 0.0 0.0 
0.0 0.0 0.0 
0.0 0.0 0.0 
0.0 0.0 0.0 
0.0 0.0 0.0 
0.0 0.0 0.0 
0.0 0.0 0.0 
0.0 0.0 0.0 
0.0 0.0 0.0 
0.0 0.0 0.0 
0.0 0.0 0.0 
0.0 0.0 0.0 
0.0 0.0 0.0 
0.0 0.0 0.0 
0.0 0.0 0.0 
0.0 0.0 0.0 
0.0 0.0 0.0 
0.0 0.0 0.0 
0.0 0.0 0.0 
0.0 0.0 0.0 
0.0 0.0 0.0 
0.0 0.0 0.0 
0.0 0.0 0.0 
0.0 0.0 0.0 
0.0 0.0 0.0 
0.0 0.0 0.0 
0.0 0.0 0.0 
0.0 0.0 0.0 
0.0 0.0 0.0 
0.0 0.0 0.0 
0.0 0.0 0.0 
0.0 0.0 0.0 
0.0 0.0 0.0 
0.0 0.0 0.0 
0.0 0.0 0.0 
0.0 0.0 0.0 
0.0 0.0 0.0 
0.0 0.0 0.0 
0.0 0.0 0.0 
0.0 0.0 0.0 
0.0 0.0 0.0 
0.0 0.0 0.0 
0.0 0.0 0.0 
0.0 0.0 0.0 
0.0 0.0 0.0 
0.0 0.0 0.0 
0.0 0.0 0.0 
0.0 0.0 0.0 
0.0 0.0 0.0 
0.0 0.0 0.0 
0.0 0.0 0.0 
0.0 0.0 0.0 
0.0 0.0 0.0 
0.0 0.0 0.0 
0.0 0.0 0.0 
0.0 0.0 0.0 
0.0 0.0 0.0 
0.0 0.0 0.0 
0.0 0.0 0.0 
0.0 0.0 0.0 
0.0 0.0 0.0 
0.0 0.0 0.0 
0.0 0.0 0.0 
0.0 0.0 0.0 
0.0 0.0 0.0 
0.0 0.0 0.0 
0.0 0.0 0.0 
0.0 0.0 0.0 
0.0 0.0 0.0 
0.0 0.0 0.0 
0.0 0.0 0.0 
0.0 0.0 0.0 
0.0 0.0 0.0 
0.0 0.0 0.0 
0.0 0.0 0.0 
0.0 0.0 0.0 
0.0 0.0 0.0 
0.0 0.0 0.0 
0.0 0.0 0.0 
0.0 0.0 0.0 
0.0 0.0 0.0 
0.0 0.0 0.0 
0.0 0.0 0.0 
0.0 0.0 0.0 
0.0 0.0 0.0 
0.0 0.0 0.0 
0.0 0.0 0.0 
0.0 0.0 0.0 
0.0 0.0 0.0 
0.0 0.0 0.0 
0.0 0.0 0.0 
0.0 0.0 0.0 
0.0 0.0 0.0 
0.0 0.0 0.0 
0.0 0.0 0.0 
0.0 0.0 0.0 
0.0 0.0 0.0 
0.0 0.0 0.0 
0.0 0.0 0.0 
0.0 0.0 0.0 
0.0 0.0 0.0 
0.0 0.0 0.0 
0.0 0.0 0.0 
0.0 0.0 0.0 
0.0 0.0 0.0 
0.0 0.0 0.0 
0.0 0.0 0.0 
0.0 0.0 0.0 
0.0 0.0 0.0 
0.0 0.0 0.0 
0.0 0.0 0.0 
0.0 0.0 0.0 
0.0 0.0 0.0 
0.0 0.0 0.0 
0.0 0.0 0.0 
0.0 0.0 0.0 
0.0 0.0 0.0 
0.0 0.0 0.0 
0.0 0.0 0.0 
0.0 0.0 0.0 
0.0 0.0 0.0 
0.0 0.0 0.0 
0.0 0.0 0.0 
0.0 0.0 0.0 
0.0 0.0 0.0 
0.0 0.0 0.0 
0.0 0.0 0.0 
0.0 0.0 0.0 
0.0 0.0 0.0 
0.0 0.0 0.0 
0.0 0.0 0.0 
0.0 0.0 0.0 
0.0 0.0 0.0 
0.0 0.0 0.0 
0.0 0.0 0.0 
0.0 0.0 0.0 
0.0 0.0 0.0 
0.0 0.0 0.0 
0.0 0.0 0.0 
0.0 0.0 0.0 
0.0 0.0 0.0 
0.0 0.0 0.0 
0.0 0.0 0.0 
0.0 0.0 0.0 
0.0 0.0 0.0 
0.0 0.0 0.0 
0.0 0.0 0.0 
0.0 0.0 0.0 
0.0 0.0 0.0 
0.0 0.0 0.0 
0.0 0.0 0.0 
0.0 0.0 0.0 
0.0 0.0 0.0 
0.0 0.0 0.0 
0.0 0.0 0.0 
0.0 0.0 0.0 
0.0 0.0 0.0 
0.0 0.0 0.0 
0.0 0.0 0.0 
0.0 0.0 0.0 
0.0 0.0 0.0 
0.0 0.0 0.0 
0.0 0.0 0.0 
0.0 0.0 0.0 
0.0 0.0 0.0 
0.0 0.0 0.0 
0.0 0.0 0.0 
0.0 0.0 0.0 
0.0 0.0 0.0 
0.0 0.0 0.0 
0.0 0.0 0.0 
0.0 0.0 0.0 
0.0 0.0 0.0 
0.0 0.0 0.0 
0.0 0.0 0.0 
0.0 0.0 0.0 
0.0 0.0 0.0 
0.0 0.0 0.0 
0.0 0.0 0.0 
0.0 0.0 0.0 
0.0 0.0 0.0 
0.0 0.0 0.0 
0.0 0.0 0.0 
0.0 0.0 0.0 
0.0 0.0 0.0 
0.0 0.0 0.0 
0.0 0.0 0.0 
0.0 0.0 0.0 
0.0 0.0 0.0 
0.0 0.0 0.0 
0.0 0.0 0.0 
0.0 0.0 0.0 
0.0 0.0 0.0 
0.0 0.0 0.0 
0.0 0.0 0.0 
0.0 0.0 0.0 
0.0 0.0 0.0 
0.0 0.0 0.0 
0.0 0.0 0.0 
0.0 0.0 0.0 
0.0 0.0 0.0 
0.0 0.0 0.0 
0.0 0.0 0.0 
0.0 0.0 0.0 
0.0 0.0 0.0 
0.0 0.0 0.0 
0.0 0.0 0.0 
0.0 0.0 0.0 
0.0 0.0 0.0 
0.0 0.0 0.0 
0.0 0.0 0.0 
0.0 0.0 0.0 
0.0 0.0 0.0 
0.0 0.0 0.0 
0.0 0.0 0.0 
0.0 0.0 0.0 
0.0 0.0 0.0 
0.0 0.0 0.0 
0.0 0.0 0.0 
0.0 0.0 0.0 
0.0 0.0 0.0 
0.0 0.0 0.0 
0.0 0.0 0.0 
0.0 0.0 0.0 
0.0 0.0 0.0 
0.0 0.0 0.0 
0.0 0.0 0.0 
0.0 0.0 0.0 
0.0 0.0 0.0 
0.0 0.0 0.0 
0.0 0.0 0.0 
0.0 0.0 0.0 
0.0 0.0 0.0 
0.0 0.0 0.0 
0.0 0.0 0.0 
0.0 0.0 0.0 
0.0 0.0 0.0 
0.0 0.0 0.0 
0.0 0.0 0.0 
0.0 0.0 0.0 
0.0 0.0 0.0 
0.0 0.0 0.0 
0.0 0.0 0.0 
0.0 0.0 0.0 
0.0 0.0 0.0 
0.0 0.0 0.0 
0.0 0.0 0.0 
0.0 0.0 0.0 
0.0 0.0 0.0 
0.0 0.0 0.0 
0.0 0.0 0.0 
0.0 0.0 0.0 
0.0 0.0 0.0 
0.0 0.0 0.0 
0.0 0.0 0.0 
0.0 0.0 0.0 
0.0 0.0 0.0 
0.0 0.0 0.0 
0.0 0.0 0.0 
0.0 0.0 0.0 
0.0 0.0 0.0 
0.0 0.0 0.0 
0.0 0.0 0.0 
0.0 0.0 0.0 
0.0 0.0 0.0 
0.0 0.0 0.0 
0.0 0.0 0.0 
0.0 0.0 0.0 
0.0 0.0 0.0 
0.0 0.0 0.0 
0.0 0.0 0.0 
0.0 0.0 0.0 
0.0 0.0 0.0 
0.0 0.0 0.0 
0.0 0.0 0.0 
0.0 0.0 0.0 
0.0 0.0 0.0 
0.0 0.0 0.0 
0.0 0.0 0.0 
0.0 0.0 0.0 
0.0 0.0 0.0 
0.0 0.0 0.0 
0.0 0.0 0.0 
0.0 0.0 0.0 
0.0 0.0 0.0 
0.0 0.0 0.0 
0.0 0.0 0.0 
0.0 0.0 0.0 
0.0 0.0 0.0 
0.0 0.0 0.0 
0.0 0.0 0.0 
0.0 0.0 0.0 
0.0 0.0 0.0 
0.0 0.0 0.0 
0.0 0.0 0.0 
0.0 0.0 0.0 
0.0 0.0 0.0 
0.0 0.0 0.0 
0.0 0.0 0.0 
0.0 0.0 0.0 
0.0 0.0 0.0 
0.0 0.0 0.0 
0.0 0.0 0.0 
0.0 0.0 0.0 
0.0 0.0 0.0 
0.0 0.0 0.0 
0.0 0.0 0.0 
0.0 0.0 0.0 
0.0 0.0 0.0 
0.0 0.0 0.0 
0.0 0.0 0.0 
0.0 0.0 0.0 
0.0 0.0 0.0 
0.0 0.0 0.0 
0.0 0.0 0.0 
0.0 0.0 0.0 
0.0 0.0 0.0 
0.0 0.0 0.0 
0.0 0.0 0.0 
0.0 0.0 0.0 
0.0 0.0 0.0 
0.0 0.0 0.0 
0.0 0.0 0.0 
0.0 0.0 0.0 
0.0 0.0 0.0 
0.0 0.0 0.0 
0.0 0.0 0.0 
0.0 0.0 0.0 
0.0 0.0 0.0 
0.0 0.0 0.0 
0.0 0.0 0.0 
0.0 0.0 0.0 
0.0 0.0 0.0 
0.0 0.0 0.0 
0.0 0.0 0.0 
0.0 0.0 0.0 
0.0 0.0 0.0 
0.0 0.0 0.0 
0.0 0.0 0.0 
0.0 0.0 0.0 
0.0 0.0 0.0 
0.0 0.0 0.0 
0.0 0.0 0.0 
0.0 0.0 0.0 
0.0 0.0 0.0 
0.0 0.0 0.0 
0.0 0.0 0.0 
0.0 0.0 0.0 
0.0 0.0 0.0 
0.0 0.0 0.0 
0.0 0.0 0.0 
0.0 0.0 0.0 
0.0 0.0 0.0 
0.0 0.0 0.0 
0.0 0.0 0.0 
0.0 0.0 0.0 
0.0 0.0 0.0 
0.0 0.0 0.0 
0.0 0.0 0.0 
0.0 0.0 0.0 
0.0 0.0 0.0 
0.0 0.0 0.0 
0.0 0.0 0.0 
0.0 0.0 0.0 
0.0 0.0 0.0 
0.0 0.0 0.0 
0.0 0.0 0.0 
0.0 0.0 0.0 
0.0 0.0 0.0 
0.0 0.0 0.0 
0.0 0.0 0.0 
0.0 0.0 0.0 
0.0 0.0 0.0 
0.0 0.0 0.0 
0.0 0.0 0.0 
0.0 0.0 0.0 
0.0 0.0 0.0 
0.0 0.0 0.0 
0.0 0.0 0.0 
0.0 0.0 0.0 
0.0 0.0 0.0 
0.0 0.0 0.0 
0.0 0.0 0.0 
0.0 0.0 0.0 
0.0 0.0 0.0 
0.0 0.0 0.0 
0.0 0.0 0.0 
0.0 0.0 0.0 
0.0 0.0 0.0 
0.0 0.0 0.0 
0.0 0.0 0.0 
0.0 0.0 0.0 
0.0 0.0 0.0 
0.0 0.0 0.0 
0.0 0.0 0.0 
0.0 0.0 0.0 
0.0 0.0 0.0 
0.0 0.0 0.0 
0.0 0.0 0.0 
0.0 0.0 0.0 
0.0 0.0 0.0 
0.0 0.0 0.0 
0.0 0.0 0.0 
0.0 0.0 0.0 
0.0 0.0 0.0 
0.0 0.0 0.0 
0.0 0.0 0.0 
0.0 0.0 0.0 
0.0 0.0 0.0 
0.0 0.0 0.0 
0.0 0.0 0.0 
0.0 0.0 0.0 
0.0 0.0 0.0 
0.0 0.0 0.0 
0.0 0.0 0.0 
0.0 0.0 0.0 
0.0 0.0 0.0 
0.0 0.0 0.0 
0.0 0.0 0.0 
0.0 0.0 0.0 
0.0 0.0 0.0 
0.0 0.0 0.0 
0.0 0.0 0.0 
0.0 0.0 0.0 
0.0 0.0 0.0 
0.0 0.0 0.0 
0.0 0.0 0.0 
0.0 0.0 0.0 
0.0 0.0 0.0 
0.0 0.0 0.0 
0.0 0.0 0.0 
0.0 0.0 0.0 
0.0 0.0 0.0 
0.0 0.0 0.0 
0.0 0.0 0.0 
0.0 0.0 0.0 
0.0 0.0 0.0 
0.0 0.0 0.0 
0.0 0.0 0.0 
0.0 0.0 0.0 
0.0 0.0 0.0 
0.0 0.0 0.0 
0.0 0.0 0.0 
0.0 0.0 0.0 
0.0 0.0 0.0 
0.0 0.0 0.0 
0.0 0.0 0.0 
0.0 0.0 0.0 
0.0 0.0 0.0 
0.0 0.0 0.0 
0.0 0.0 0.0 
0.0 0.0 0.0 
0.0 0.0 0.0 
0.0 0.0 0.0 
0.0 0.0 0.0 
0.0 0.0 0.0 
0.0 0.0 0.0 
0.0 0.0 0.0 
0.0 0.0 0.0 
0.0 0.0 0.0 
0.0 0.0 0.0 
0.0 0.0 0.0 
0.0 0.0 0.0 
0.0 0.0 0.0 
0.0 0.0 0.0 
0.0 0.0 0.0 
0.0 0.0 0.0 
0.0 0.0 0.0 
0.0 0.0 0.0 
0.0 0.0 0.0 
0.0 0.0 0.0 
0.0 0.0 0.0 
0.0 0.0 0.0 
0.0 0.0 0.0 
0.0 0.0 0.0 
0.0 0.0 0.0 
0.0 0.0 0.0 
0.0 0.0 0.0 
0.0 0.0 0.0 
0.0 0.0 0.0 
0.0 0.0 0.0 
0.0 0.0 0.0 
0.0 0.0 0.0 
0.0 0.0 0.0 
0.0 0.0 0.0 
0.0 0.0 0.0 
0.0 0.0 0.0 
0.0 0.0 0.0 
0.0 0.0 0.0 
0.0 0.0 0.0 
0.0 0.0 0.0 
0.0 0.0 0.0 
0.0 0.0 0.0 
0.0 0.0 0.0 
0.0 0.0 0.0 
0.0 0.0 0.0 
0.0 0.0 0.0 
0.0 0.0 0.0 
0.0 0.0 0.0 
0.0 0.0 0.0 
0.0 0.0 0.0 
0.0 0.0 0.0 
0.0 0.0 0.0 
0.0 0.0 0.0 
0.0 0.0 0.0 
0.0 0.0 0.0 
0.0 0.0 0.0 
0.0 0.0 0.0 
0.0 0.0 0.0 
0.0 0.0 0.0 
0.0 0.0 0.0 
0.0 0.0 0.0 
0.0 0.0 0.0 
0.0 0.0 0.0 
0.0 0.0 0.0 
0.0 0.0 0.0 
0.0 0.0 0.0 
0.0 0.0 0.0 
0.0 0.0 0.0 
0.0 0.0 0.0 
0.0 0.0 0.0 
0.0 0.0 0.0 
0.0 0.0 0.0 
0.0 0.0 0.0 
0.0 0.0 0.0 
0.0 0.0 0.0 
0.0 0.0 0.0 
0.0 0.0 0.0 
0.0 0.0 0.0 
0.0 0.0 0.0 
0.0 0.0 0.0 
0.0 0.0 0.0 
0.0 0.0 0.0 
0.0 0.0 0.0 
0.0 0.0 0.0 
0.0 0.0 0.0 
0.0 0.0 0.0 
0.0 0.0 0.0 
0.0 0.0 0.0 
0.0 0.0 0.0 
0.0 0.0 0.0 
0.0 0.0 0.0 
0.0 0.0 0.0 
0.0 0.0 0.0 
0.0 0.0 0.0 
0.0 0.0 0.0 
0.0 0.0 0.0 
0.0 0.0 0.0 
0.0 0.0 0.0 
0.0 0.0 0.0 
0.0 0.0 0.0 
0.0 0.0 0.0 
0.0 0.0 0.0 
0.0 0.0 0.0 
0.0 0.0 0.0 
0.0 0.0 0.0 
0.0 0.0 0.0 
0.0 0.0 0.0 
0.0 0.0 0.0 
0.0 0.0 0.0 
0.0 0.0 0.0 
0.0 0.0 0.0 
0.0 0.0 0.0 
0.0 0.0 0.0 
0.0 0.0 0.0 
0.0 0.0 0.0 
0.0 0.0 0.0 
0.0 0.0 0.0 
0.0 0.0 0.0 
0.0 0.0 0.0 
0.0 0.0 0.0 
0.0 0.0 0.0 
0.0 0.0 0.0 
0.0 0.0 0.0 
0.0 0.0 0.0 
0.0 0.0 0.0 
0.0 0.0 0.0 
0.0 0.0 0.0 
0.0 0.0 0.0 
0.0 0.0 0.0 
0.0 0.0 0.0 
0.0 0.0 0.0 
0.0 0.0 0.0 
0.0 0.0 0.0 
0.0 0.0 0.0 
0.0 0.0 0.0 
0.0 0.0 0.0 
0.0 0.0 0.0 
0.0 0.0 0.0 
0.0 0.0 0.0 
0.0 0.0 0.0 
0.0 0.0 0.0 
0.0 0.0 0.0 
0.0 0.0 0.0 
0.0 0.0 0.0 
0.0 0.0 0.0 
0.0 0.0 0.0 
0.0 0.0 0.0 
0.0 0.0 0.0 
0.0 0.0 0.0 
0.0 0.0 0.0 
0.0 0.0 0.0 
0.0 0.0 0.0 
0.0 0.0 0.0 
0.0 0.0 0.0 
0.0 0.0 0.0 
0.0 0.0 0.0 
0.0 0.0 0.0 
0.0 0.0 0.0 
0.0 0.0 0.0 
0.0 0.0 0.0 
0.0 0.0 0.0 
0.0 0.0 0.0 
0.0 0.0 0.0 
0.0 0.0 0.0 
0.0 0.0 0.0 
0.0 0.0 0.0 
0.0 0.0 0.0 
0.0 0.0 0.0 
0.0 0.0 0.0 
0.0 0.0 0.0 
0.0 0.0 0.0 
0.0 0.0 0.0 
0.0 0.0 0.0 
0.0 0.0 0.0 
0.0 0.0 0.0 
0.0 0.0 0.0 
0.0 0.0 0.0 
0.0 0.0 0.0 
0.0 0.0 0.0 
0.0 0.0 0.0 
0.0 0.0 0.0 
0.0 0.0 0.0 
0.0 0.0 0.0 
0.0 0.0 0.0 
0.0 0.0 0.0 
0.0 0.0 0.0 
0.0 0.0 0.0 
0.0 0.0 0.0 
0.0 0.0 0.0 
0.0 0.0 0.0 
0.0 0.0 0.0 
0.0 0.0 0.0 
0.0 0.0 0.0 
0.0 0.0 0.0 
0.0 0.0 0.0 
0.0 0.0 0.0 
0.0 0.0 0.0 
0.0 0.0 0.0 
0.0 0.0 0.0 
0.0 0.0 0.0 
0.0 0.0 0.0 
0.0 0.0 0.0 
0.0 0.0 0.0 
0.0 0.0 0.0 
0.0 0.0 0.0 
0.0 0.0 0.0 
0.0 0.0 0.0 
0.0 0.0 0.0 
0.0 0.0 0.0 
0.0 0.0 0.0 
0.0 0.0 0.0 
0.0 0.0 0.0 
0.0 0.0 0.0 
0.0 0.0 0.0 
0.0 0.0 0.0 
0.0 0.0 0.0 
0.0 0.0 0.0 
0.0 0.0 0.0 
0.0 0.0 0.0 
0.0 0.0 0.0 
0.0 0.0 0.0 
0.0 0.0 0.0 
0.0 0.0 0.0 
0.0 0.0 0.0 
0.0 0.0 0.0 
0.0 0.0 0.0 
0.0 0.0 0.0 
0.0 0.0 0.0 
0.0 0.0 0.0 
0.0 0.0 0.0 
0.0 0.0 0.0 
0.0 0.0 0.0 
0.0 0.0 0.0 
0.0 0.0 0.0 
0.0 0.0 0.0 
0.0 0.0 0.0 
0.0 0.0 0.0 
0.0 0.0 0.0 
0.0 0.0 0.0 
0.0 0.0 0.0 
0.0 0.0 0.0 
0.0 0.0 0.0 
0.0 0.0 0.0 
0.0 0.0 0.0 
0.0 0.0 0.0 
0.0 0.0 0.0 
0.0 0.0 0.0 
0.0 0.0 0.0 
0.0 0.0 0.0 
0.0 0.0 0.0 
0.0 0.0 0.0 
0.0 0.0 0.0 
0.0 0.0 0.0 
0.0 0.0 0.0 
0.0 0.0 0.0 
0.0 0.0 0.0 
0.0 0.0 0.0 
0.0 0.0 0.0 
0.0 0.0 0.0 
0.0 0.0 0.0 
0.0 0.0 0.0 
0.0 0.0 0.0 
0.0 0.0 0.0 
0.0 0.0 0.0 
0.0 0.0 0.0 
0.0 0.0 0.0 
0.0 0.0 0.0 
0.0 0.0 0.0 
0.0 0.0 0.0 
0.0 0.0 0.0 
0.0 0.0 0.0 
0.0 0.0 0.0 
0.0 0.0 0.0 
0.0 0.0 0.0 
0.0 0.0 0.0 
0.0 0.0 0.0 
0.0 0.0 0.0 
0.0 0.0 0.0 
0.0 0.0 0.0 
0.0 0.0 0.0 
0.0 0.0 0.0 
0.0 0.0 0.0 
0.0 0.0 0.0 
0.0 0.0 0.0 
0.0 0.0 0.0 
0.0 0.0 0.0 
0.0 0.0 0.0 
0.0 0.0 0.0 
0.0 0.0 0.0 
0.0 0.0 0.0 
0.0 0.0 0.0 
0.0 0.0 0.0 
0.0 0.0 0.0 
0.0 0.0 0.0 
0.0 0.0 0.0 
0.0 0.0 0.0 
0.0 0.0 0.0 
0.0 0.0 0.0 
0.0 0.0 0.0 
0.0 0.0 0.0 
0.0 0.0 0.0 
0.0 0.0 0.0 
0.0 0.0 0.0 
0.0 0.0 0.0 
0.0 0.0 0.0 
0.0 0.0 0.0 
0.0 0.0 0.0 
0.0 0.0 0.0 
0.0 0.0 0.0 
0.0 0.0 0.0 
0.0 0.0 0.0 
0.0 0.0 0.0 
0.0 0.0 0.0 
0.0 0.0 0.0 
0.0 0.0 0.0 
0.0 0.0 0.0 
0.0 0.0 0.0 
0.0 0.0 0.0 
0.0 0.0 0.0 
0.0 0.0 0.0 
0.0 0.0 0.0 
0.0 0.0 0.0 
0.0 0.0 0.0 
0.0 0.0 0.0 
0.0 0.0 0.0 
0.0 0.0 0.0 
0.0 0.0 0.0 
0.0 0.0 0.0 
0.0 0.0 0.0 
0.0 0.0 0.0 
0.0 0.0 0.0 
0.0 0.0 0.0 
0.0 0.0 0.0 
0.0 0.0 0.0 
0.0 0.0 0.0 
0.0 0.0 0.0 
0.0 0.0 0.0 
0.0 0.0 0.0 
0.0 0.0 0.0 
0.0 0.0 0.0 
0.0 0.0 0.0 
0.0 0.0 0.0 
0.0 0.0 0.0 
0.0 0.0 0.0 
0.0 0.0 0.0 
0.0 0.0 0.0 
0.0 0.0 0.0 
0.0 0.0 0.0 
0.0 0.0 0.0 
0.0 0.0 0.0 
0.0 0.0 0.0 
0.0 0.0 0.0 
0.0 0.0 0.0 
0.0 0.0 0.0 
0.0 0.0 0.0 
0.0 0.0 0.0 
0.0 0.0 0.0 
0.0 0.0 0.0 
0.0 0.0 0.0 
0.0 0.0 0.0 
0.0 0.0 0.0 
0.0 0.0 0.0 
0.0 0.0 0.0 
0.0 0.0 0.0 
0.0 0.0 0.0 
0.0 0.0 0.0 
0.0 0.0 0.0 
0.0 0.0 0.0 
0.0 0.0 0.0 
0.0 0.0 0.0 
0.0 0.0 0.0 
0.0 0.0 0.0 
0.0 0.0 0.0 
0.0 0.0 0.0 
0.0 0.0 0.0 
0.0 0.0 0.0 
0.0 0.0 0.0 
0.0 0.0 0.0 
0.0 0.0 0.0 
0.0 0.0 0.0 
0.0 0.0 0.0 
0.0 0.0 0.0 
0.0 0.0 0.0 
0.0 0.0 0.0 
0.0 0.0 0.0 
0.0 0.0 0.0 
0.0 0.0 0.0 
0.0 0.0 0.0 
0.0 0.0 0.0 
0.0 0.0 0.0 
0.0 0.0 0.0 
0.0 0.0 0.0 
0.0 0.0 0.0 
0.0 0.0 0.0 
0.0 0.0 0.0 
0.0 0.0 0.0 
0.0 0.0 0.0 
0.0 0.0 0.0 
0.0 0.0 0.0 
0.0 0.0 0.0 
0.0 0.0 0.0 
0.0 0.0 0.0 
0.0 0.0 0.0 
0.0 0.0 0.0 
0.0 0.0 0.0 
0.0 0.0 0.0 
0.0 0.0 0.0 
0.0 0.0 0.0 
0.0 0.0 0.0 
0.0 0.0 0.0 
0.0 0.0 0.0 
0.0 0.0 0.0 
0.0 0.0 0.0 
0.0 0.0 0.0 
0.0 0.0 0.0 
0.0 0.0 0.0 
0.0 0.0 0.0 
0.0 0.0 0.0 
0.0 0.0 0.0 
0.0 0.0 0.0 
0.0 0.0 0.0 
0.0 0.0 0.0 
0.0 0.0 0.0 
0.0 0.0 0.0 
0.0 0.0 0.0 
0.0 0.0 0.0 
0.0 0.0 0.0 
0.0 0.0 0.0 
0.0 0.0 0.0 
0.0 0.0 0.0 
0.0 0.0 0.0 
0.0 0.0 0.0 
0.0 0.0 0.0 
0.0 0.0 0.0 
0.0 0.0 0.0 
0.0 0.0 0.0 
0.0 0.0 0.0 
0.0 0.0 0.0 
0.0 0.0 0.0 
0.0 0.0 0.0 
0.0 0.0 0.0 
0.0 0.0 0.0 
0.0 0.0 0.0 
0.0 0.0 0.0 
0.0 0.0 0.0 
0.0 0.0 0.0 
0.0 0.0 0.0 
0.0 0.0 0.0 
0.0 0.0 0.0 
0.0 0.0 0.0 
0.0 0.0 0.0 
0.0 0.0 0.0 
0.0 0.0 0.0 
0.0 0.0 0.0 
0.0 0.0 0.0 
0.0 0.0 0.0 
0.0 0.0 0.0 
0.0 0.0 0.0 
0.0 0.0 0.0 
0.0 0.0 0.0 
0.0 0.0 0.0 
0.0 0.0 0.0 
0.0 0.0 0.0 
0.0 0.0 0.0 
0.0 0.0 0.0 
0.0 0.0 0.0 
0.0 0.0 0.0 
0.0 0.0 0.0 
0.0 0.0 0.0 
0.0 0.0 0.0 
0.0 0.0 0.0 
0.0 0.0 0.0 
0.0 0.0 0.0 
0.0 0.0 0.0 
0.0 0.0 0.0 
0.0 0.0 0.0 
0.0 0.0 0.0 
0.0 0.0 0.0 
0.0 0.0 0.0 
0.0 0.0 0.0 
0.0 0.0 0.0 
0.0 0.0 0.0 
0.0 0.0 0.0 
0.0 0.0 0.0 
0.0 0.0 0.0 
0.0 0.0 0.0 
0.0 0.0 0.0 
0.0 0.0 0.0 
0.0 0.0 0.0 
0.0 0.0 0.0 
0.0 0.0 0.0 
0.0 0.0 0.0 
0.0 0.0 0.0 
0.0 0.0 0.0 
0.0 0.0 0.0 
0.0 0.0 0.0 
0.0 0.0 0.0 
0.0 0.0 0.0 
0.0 0.0 0.0 
0.0 0.0 0.0 
0.0 0.0 0.0 
0.0 0.0 0.0 
0.0 0.0 0.0 
0.0 0.0 0.0 
0.0 0.0 0.0 
0.0 0.0 0.0 
0.0 0.0 0.0 
0.0 0.0 0.0 
0.0 0.0 0.0 
0.0 0.0 0.0 
0.0 0.0 0.0 
0.0 0.0 0.0 
0.0 0.0 0.0 
0.0 0.0 0.0 
0.0 0.0 0.0 
0.0 0.0 0.0 
0.0 0.0 0.0 
0.0 0.0 0.0 
0.0 0.0 0.0 
0.0 0.0 0.0 
0.0 0.0 0.0 
0.0 0.0 0.0 
0.0 0.0 0.0 
0.0 0.0 0.0 
0.0 0.0 0.0 
0.0 0.0 0.0 
0.0 0.0 0.0 
0.0 0.0 0.0 
0.0 0.0 0.0 
0.0 0.0 0.0 
0.0 0.0 0.0 
0.0 0.0 0.0 
0.0 0.0 0.0 
0.0 0.0 0.0 
0.0 0.0 0.0 
0.0 0.0 0.0 
0.0 0.0 0.0 
0.0 0.0 0.0 
0.0 0.0 0.0 
0.0 0.0 0.0 
0.0 0.0 0.0 
0.0 0.0 0.0 
0.0 0.0 0.0 
0.0 0.0 0.0 
0.0 0.0 0.0 
0.0 0.0 0.0 
0.0 0.0 0.0 
0.0 0.0 0.0 
0.0 0.0 0.0 
0.0 0.0 0.0 
0.0 0.0 0.0 
0.0 0.0 0.0 
0.0 0.0 0.0 
0.0 0.0 0.0 
0.0 0.0 0.0 
0.0 0.0 0.0 
0.0 0.0 0.0 
0.0 0.0 0.0 
0.0 0.0 0.0 
0.0 0.0 0.0 
0.0 0.0 0.0 
0.0 0.0 0.0 
0.0 0.0 0.0 
0.0 0.0 0.0 
0.0 0.0 0.0 
0.0 0.0 0.0 
0.0 0.0 0.0 
0.0 0.0 0.0 
0.0 0.0 0.0 
0.0 0.0 0.0 
0.0 0.0 0.0 
0.0 0.0 0.0 
0.0 0.0 0.0 
0.0 0.0 0.0 
0.0 0.0 0.0 
0.0 0.0 0.0 
0.0 0.0 0.0 
0.0 0.0 0.0 
0.0 0.0 0.0 
0.0 0.0 0.0 
0.0 0.0 0.0 
0.0 0.0 0.0 
0.0 0.0 0.0 
0.0 0.0 0.0 
0.0 0.0 0.0 
0.0 0.0 0.0 
0.0 0.0 0.0 
0.0 0.0 0.0 
0.0 0.0 0.0 
0.0 0.0 0.0 
0.0 0.0 0.0 
0.0 0.0 0.0 
0.0 0.0 0.0 
0.0 0.0 0.0 
0.0 0.0 0.0 
0.0 0.0 0.0 
0.0 0.0 0.0 
0.0 0.0 0.0 
0.0 0.0 0.0 
0.0 0.0 0.0 
0.0 0.0 0.0 
0.0 0.0 0.0 
0.0 0.0 0.0 
0.0 0.0 0.0 
0.0 0.0 0.0 
0.0 0.0 0.0 
0.0 0.0 0.0 
0.0 0.0 0.0 
0.0 0.0 0.0 
0.0 0.0 0.0 
0.0 0.0 0.0 
0.0 0.0 0.0 
0.0 0.0 0.0 
0.0 0.0 0.0 
0.0 0.0 0.0 
0.0 0.0 0.0 
0.0 0.0 0.0 
0.0 0.0 0.0 
0.0 0.0 0.0 
0.0 0.0 0.0 
0.0 0.0 0.0 
0.0 0.0 0.0 
0.0 0.0 0.0 
0.0 0.0 0.0 
0.0 0.0 0.0 
0.0 0.0 0.0 
0.0 0.0 0.0 
0.0 0.0 0.0 
0.0 0.0 0.0 
0.0 0.0 0.0 
0.0 0.0 0.0 
0.0 0.0 0.0 
0.0 0.0 0.0 
0.0 0.0 0.0 
0.0 0.0 0.0 
0.0 0.0 0.0 
0.0 0.0 0.0 
0.0 0.0 0.0 
0.0 0.0 0.0 
0.0 0.0 0.0 
0.0 0.0 0.0 
0.0 0.0 0.0 
0.0 0.0 0.0 
0.0 0.0 0.0 
0.0 0.0 0.0 
0.0 0.0 0.0 
0.0 0.0 0.0 
0.0 0.0 0.0 
0.0 0.0 0.0 
0.0 0.0 0.0 
0.0 0.0 0.0 
0.0 0.0 0.0 
0.0 0.0 0.0 
0.0 0.0 0.0 
0.0 0.0 0.0 
0.0 0.0 0.0 
0.0 0.0 0.0 
0.0 0.0 0.0 
0.0 0.0 0.0 
0.0 0.0 0.0 
0.0 0.0 0.0 
0.0 0.0 0.0 
0.0 0.0 0.0 
0.0 0.0 0.0 
0.0 0.0 0.0 
0.0 0.0 0.0 
0.0 0.0 0.0 
0.0 0.0 0.0 
0.0 0.0 0.0 
0.0 0.0 0.0 
0.0 0.0 0.0 
0.0 0.0 0.0 
0.0 0.0 0.0 
0.0 0.0 0.0 
0.0 0.0 0.0 
0.0 0.0 0.0 
0.0 0.0 0.0 
0.0 0.0 0.0 
0.0 0.0 0.0 
0.0 0.0 0.0 
0.0 0.0 0.0 
0.0 0.0 0.0 
0.0 0.0 0.0 
0.0 0.0 0.0 
0.0 0.0 0.0 
0.0 0.0 0.0 
0.0 0.0 0.0 
0.0 0.0 0.0 
0.0 0.0 0.0 
0.0 0.0 0.0 
0.0 0.0 0.0 
0.0 0.0 0.0 
0.0 0.0 0.0 
0.0 0.0 0.0 
0.0 0.0 0.0 
0.0 0.0 0.0 
0.0 0.0 0.0 
0.0 0.0 0.0 
0.0 0.0 0.0 
0.0 0.0 0.0 
0.0 0.0 0.0 
0.0 0.0 0.0 
0.0 0.0 0.0 
0.0 0.0 0.0 
0.0 0.0 0.0 
0.0 0.0 0.0 
0.0 0.0 0.0 
0.0 0.0 0.0 
0.0 0.0 0.0 
0.0 0.0 0.0 
0.0 0.0 0.0 
0.0 0.0 0.0 
0.0 0.0 0.0 
0.0 0.0 0.0 
0.0 0.0 0.0 
0.0 0.0 0.0 
0.0 0.0 0.0 
0.0 0.0 0.0 
0.0 0.0 0.0 
0.0 0.0 0.0 
0.0 0.0 0.0 
0.0 0.0 0.0 
0.0 0.0 0.0 
0.0 0.0 0.0 
0.0 0.0 0.0 
0.0 0.0 0.0 
0.0 0.0 0.0 
0.0 0.0 0.0 
0.0 0.0 0.0 
0.0 0.0 0.0 
0.0 0.0 0.0 
0.0 0.0 0.0 
0.0 0.0 0.0 
0.0 0.0 0.0 
0.0 0.0 0.0 
0.0 0.0 0.0 
0.0 0.0 0.0 
0.0 0.0 0.0 
0.0 0.0 0.0 
0.0 0.0 0.0 
0.0 0.0 0.0 
0.0 0.0 0.0 
0.0 0.0 0.0 
0.0 0.0 0.0 
0.0 0.0 0.0 
0.0 0.0 0.0 
0.0 0.0 0.0 
0.0 0.0 0.0 
0.0 0.0 0.0 
0.0 0.0 0.0 
0.0 0.0 0.0 
0.0 0.0 0.0 
0.0 0.0 0.0 
0.0 0.0 0.0 
0.0 0.0 0.0 
0.0 0.0 0.0 
0.0 0.0 0.0 
0.0 0.0 0.0 
0.0 0.0 0.0 
0.0 0.0 0.0 
0.0 0.0 0.0 
0.0 0.0 0.0 
0.0 0.0 0.0 
0.0 0.0 0.0 
0.0 0.0 0.0 
0.0 0.0 0.0 
0.0 0.0 0.0 
0.0 0.0 0.0 
0.0 0.0 0.0 
0.0 0.0 0.0 
0.0 0.0 0.0 
0.0 0.0 0.0 
0.0 0.0 0.0 
0.0 0.0 0.0 
0.0 0.0 0.0 
0.0 0.0 0.0 
0.0 0.0 0.0 
0.0 0.0 0.0 
0.0 0.0 0.0 
0.0 0.0 0.0 
0.0 0.0 0.0 
0.0 0.0 0.0 
0.0 0.0 0.0 
0.0 0.0 0.0 
0.0 0.0 0.0 
0.0 0.0 0.0 
0.0 0.0 0.0 
0.0 0.0 0.0 
0.0 0.0 0.0 
0.0 0.0 0.0 
0.0 0.0 0.0 
0.0 0.0 0.0 
0.0 0.0 0.0 
0.0 0.0 0.0 
0.0 0.0 0.0 
0.0 0.0 0.0 
0.0 0.0 0.0 
0.0 0.0 0.0 
0.0 0.0 0.0 
0.0 0.0 0.0 
0.0 0.0 0.0 
0.0 0.0 0.0 
0.0 0.0 0.0 
0.0 0.0 0.0 
0.0 0.0 0.0 
0.0 0.0 0.0 
0.0 0.0 0.0 
0.0 0.0 0.0 
0.0 0.0 0.0 
0.0 0.0 0.0 
0.0 0.0 0.0 
0.0 0.0 0.0 
0.0 0.0 0.0 
0.0 0.0 0.0 
0.0 0.0 0.0 
0.0 0.0 0.0 
0.0 0.0 0.0 
0.0 0.0 0.0 
0.0 0.0 0.0 
0.0 0.0 0.0 
0.0 0.0 0.0 
0.0 0.0 0.0 
0.0 0.0 0.0 
0.0 0.0 0.0 
0.0 0.0 0.0 
0.0 0.0 0.0 
0.0 0.0 0.0 
0.0 0.0 0.0 
0.0 0.0 0.0 
0.0 0.0 0.0 
0.0 0.0 0.0 
0.0 0.0 0.0 
0.0 0.0 0.0 
0.0 0.0 0.0 
0.0 0.0 0.0 
0.0 0.0 0.0 
0.0 0.0 0.0 
0.0 0.0 0.0 
0.0 0.0 0.0 
0.0 0.0 0.0 
0.0 0.0 0.0 
0.0 0.0 0.0 
0.0 0.0 0.0 
0.0 0.0 0.0 
0.0 0.0 0.0 
0.0 0.0 0.0 
0.0 0.0 0.0 
0.0 0.0 0.0 
0.0 0.0 0.0 
0.0 0.0 0.0 
0.0 0.0 0.0 
0.0 0.0 0.0 
0.0 0.0 0.0 
0.0 0.0 0.0 
0.0 0.0 0.0 
0.0 0.0 0.0 
0.0 0.0 0.0 
0.0 0.0 0.0 
0.0 0.0 0.0 
0.0 0.0 0.0 
0.0 0.0 0.0 
0.0 0.0 0.0 
0.0 0.0 0.0 
0.0 0.0 0.0 
0.0 0.0 0.0 
0.0 0.0 0.0 
0.0 0.0 0.0 
0.0 0.0 0.0 
0.0 0.0 0.0 
0.0 0.0 0.0 
0.0 0.0 0.0 
0.0 0.0 0.0 
0.0 0.0 0.0 
0.0 0.0 0.0 
0.0 0.0 0.0 
0.0 0.0 0.0 
0.0 0.0 0.0 
0.0 0.0 0.0 
0.0 0.0 0.0 
0.0 0.0 0.0 
0.0 0.0 0.0 
0.0 0.0 0.0 
0.0 0.0 0.0 
0.0 0.0 0.0 
0.0 0.0 0.0 
0.0 0.0 0.0 
0.0 0.0 0.0 
0.0 0.0 0.0 
0.0 0.0 0.0 
0.0 0.0 0.0 
0.0 0.0 0.0 
0.0 0.0 0.0 
0.0 0.0 0.0 
0.0 0.0 0.0 
0.0 0.0 0.0 
0.0 0.0 0.0 
0.0 0.0 0.0 
0.0 0.0 0.0 
0.0 0.0 0.0 
0.0 0.0 0.0 
0.0 0.0 0.0 
0.0 0.0 0.0 
0.0 0.0 0.0 
0.0 0.0 0.0 
0.0 0.0 0.0 
0.0 0.0 0.0 
0.0 0.0 0.0 
0.0 0.0 0.0 
0.0 0.0 0.0 
0.0 0.0 0.0 
0.0 0.0 0.0 
0.0 0.0 0.0 
0.0 0.0 0.0 
0.0 0.0 0.0 
0.0 0.0 0.0 
0.0 0.0 0.0 
0.0 0.0 0.0 
0.0 0.0 0.0 
0.0 0.0 0.0 
0.0 0.0 0.0 
0.0 0.0 0.0 
0.0 0.0 0.0 
0.0 0.0 0.0 
0.0 0.0 0.0 
0.0 0.0 0.0 
0.0 0.0 0.0 
0.0 0.0 0.0 
0.0 0.0 0.0 
0.0 0.0 0.0 
0.0 0.0 0.0 
0.0 0.0 0.0 
0.0 0.0 0.0 
0.0 0.0 0.0 
0.0 0.0 0.0 
0.0 0.0 0.0 
0.0 0.0 0.0 
0.0 0.0 0.0 
0.0 0.0 0.0 
0.0 0.0 0.0 
0.0 0.0 0.0 
0.0 0.0 0.0 
0.0 0.0 0.0 
0.0 0.0 0.0 
0.0 0.0 0.0 
0.0 0.0 0.0 
0.0 0.0 0.0 
0.0 0.0 0.0 
0.0 0.0 0.0 
0.0 0.0 0.0 
0.0 0.0 0.0 
0.0 0.0 0.0 
0.0 0.0 0.0 
0.0 0.0 0.0 
0.0 0.0 0.0 
0.0 0.0 0.0 
0.0 0.0 0.0 
0.0 0.0 0.0 
0.0 0.0 0.0 
0.0 0.0 0.0 
0.0 0.0 0.0 
0.0 0.0 0.0 
0.0 0.0 0.0 
0.0 0.0 0.0 
0.0 0.0 0.0 
0.0 0.0 0.0 
0.0 0.0 0.0 
0.0 0.0 0.0 
0.0 0.0 0.0 
0.0 0.0 0.0 
0.0 0.0 0.0 
0.0 0.0 0.0 
0.0 0.0 0.0 
0.0 0.0 0.0 
0.0 0.0 0.0 
0.0 0.0 0.0 
0.0 0.0 0.0 
0.0 0.0 0.0 
0.0 0.0 0.0 
0.0 0.0 0.0 
0.0 0.0 0.0 
0.0 0.0 0.0 
0.0 0.0 0.0 
0.0 0.0 0.0 
0.0 0.0 0.0 
0.0 0.0 0.0 
0.0 0.0 0.0 
0.0 0.0 0.0 
0.0 0.0 0.0 
0.0 0.0 0.0 
0.0 0.0 0.0 
0.0 0.0 0.0 
0.0 0.0 0.0 
0.0 0.0 0.0 
0.0 0.0 0.0 
0.0 0.0 0.0 
0.0 0.0 0.0 
0.0 0.0 0.0 
0.0 0.0 0.0 
0.0 0.0 0.0 
0.0 0.0 0.0 
0.0 0.0 0.0 
0.0 0.0 0.0 
0.0 0.0 0.0 
0.0 0.0 0.0 
0.0 0.0 0.0 
0.0 0.0 0.0 
0.0 0.0 0.0 
0.0 0.0 0.0 
0.0 0.0 0.0 
0.0 0.0 0.0 
0.0 0.0 0.0 
0.0 0.0 0.0 
0.0 0.0 0.0 
0.0 0.0 0.0 
0.0 0.0 0.0 
0.0 0.0 0.0 
0.0 0.0 0.0 
0.0 0.0 0.0 
0.0 0.0 0.0 
0.0 0.0 0.0 
0.0 0.0 0.0 
0.0 0.0 0.0 
0.0 0.0 0.0 
0.0 0.0 0.0 
0.0 0.0 0.0 
0.0 0.0 0.0 
0.0 0.0 0.0 
0.0 0.0 0.0 
0.0 0.0 0.0 
0.0 0.0 0.0 
0.0 0.0 0.0 
0.0 0.0 0.0 
0.0 0.0 0.0 
0.0 0.0 0.0 
0.0 0.0 0.0 
0.0 0.0 0.0 
0.0 0.0 0.0 
0.0 0.0 0.0 
0.0 0.0 0.0 
0.0 0.0 0.0 
0.0 0.0 0.0 
0.0 0.0 0.0 
0.0 0.0 0.0 
0.0 0.0 0.0 
0.0 0.0 0.0 
0.0 0.0 0.0 
0.0 0.0 0.0 
0.0 0.0 0.0 
0.0 0.0 0.0 
0.0 0.0 0.0 
0.0 0.0 0.0 
0.0 0.0 0.0 
0.0 0.0 0.0 
0.0 0.0 0.0 
0.0 0.0 0.0 
0.0 0.0 0.0 
0.0 0.0 0.0 
0.0 0.0 0.0 
0.0 0.0 0.0 
0.0 0.0 0.0 
0.0 0.0 0.0 
0.0 0.0 0.0 
0.0 0.0 0.0 
0.0 0.0 0.0 
0.0 0.0 0.0 
0.0 0.0 0.0 
0.0 0.0 0.0 
0.0 0.0 0.0 
0.0 0.0 0.0 
0.0 0.0 0.0 
0.0 0.0 0.0 
0.0 0.0 0.0 
0.0 0.0 0.0 
0.0 0.0 0.0 
0.0 0.0 0.0 
0.0 0.0 0.0 
0.0 0.0 0.0 
0.0 0.0 0.0 
0.0 0.0 0.0 
0.0 0.0 0.0 
0.0 0.0 0.0 
0.0 0.0 0.0 

TENSORS element_materi_stress float
-4.361485764613e+01 3.155577277486e+01 0.0 
3.155577277486e+01 -4.753017132768e+01 0.0 
0.0 0.0 -2.300354875701e+01 
-4.360679373063e+01 2.945422551205e+01 0.0 
2.945422551205e+01 -5.033234881175e+01 0.0 
0.0 0.0 -2.523779313814e+01 
-1.100900294111e+02 3.437138335302e+01 0.0 
3.437138335302e+01 -2.478239344692e+02 0.0 
0.0 0.0 -1.069741891641e+02 
-8.841977890041e+01 4.351251861640e+00 0.0 
4.351251861640e+00 -1.912713758034e+02 0.0 
0.0 0.0 -8.350734641114e+01 
-4.465202947135e+01 6.144073682658e-01 0.0 
6.144073682658e-01 -5.022002606640e+01 0.0 
0.0 0.0 -2.806161666132e+01 
-3.940637708999e+01 2.998187664915e+01 0.0 
2.998187664915e+01 -9.347139543190e+01 0.0 
0.0 0.0 -4.064762423062e+01 
-4.326438921053e+01 -9.419086229444e-02 0.0 
-9.419086229444e-02 -5.029640490317e+01 0.0 
0.0 0.0 -2.766823823411e+01 
-4.616257101996e+01 3.182850010500e+01 0.0 
3.182850010500e+01 -5.303794919208e+01 0.0 
0.0 0.0 -2.593228130135e+01 
-4.494001069906e+01 2.514831200695e+00 0.0 
2.514831200695e+00 -5.140874158465e+01 0.0 
0.0 0.0 -2.850462568511e+01 
-8.768052350235e+01 4.952163485232e+00 0.0 
4.952163485232e+00 -1.895907926335e+02 0.0 
0.0 0.0 -8.278139484075e+01 
-1.111962889652e+02 -1.162287630447e+00 0.0 
-1.162287630447e+00 -2.602763413787e+02 0.0 
0.0 0.0 -1.082618742810e+02 
-4.076592350100e+01 2.928987617323e+01 0.0 
2.928987617323e+01 -4.337225411181e+01 0.0 
0.0 0.0 -2.240224563788e+01 
-1.556152814016e+02 2.220932070225e-01 0.0 
2.220932070225e-01 -3.717022512813e+02 0.0 
0.0 0.0 -1.577952598048e+02 
-5.897439905560e+01 6.399328141671e+00 0.0 
6.399328141671e+00 -7.055622618953e+01 0.0 
0.0 0.0 -3.845918757354e+01 
-1.602994543500e+02 2.336986604025e+00 0.0 
2.336986604025e+00 -3.797084898041e+02 0.0 
0.0 0.0 -1.616023832462e+02 
-8.898688698666e+01 3.935820380021e+00 0.0 
3.935820380021e+00 -1.996075032743e+02 0.0 
0.0 0.0 -8.617831707828e+01 
-4.539442598703e+01 2.606666257335e+00 0.0 
2.606666257335e+00 -4.690373117405e+01 0.0 
0.0 0.0 -2.728944714832e+01 
-3.004869393963e+01 1.900105794387e+01 0.0 
1.900105794387e+01 -1.097098909035e+02 0.0 
0.0 0.0 -4.426693223918e+01 
-1.966293538970e+01 -5.527924005603e-01 0.0 
-5.527924005603e-01 -7.749403219534e+01 0.0 
0.0 0.0 -2.874709027551e+01 
-2.950536724580e+01 -1.931923350023e+00 0.0 
-1.931923350023e+00 -8.010114214417e+01 0.0 
0.0 0.0 -3.030184285239e+01 
-9.012832343355e+01 7.294854056998e+00 0.0 
7.294854056998e+00 -1.911905633033e+02 0.0 
0.0 0.0 -8.399566602106e+01 
-4.266908039911e+01 2.888915888495e+01 0.0 
2.888915888495e+01 -4.826208440291e+01 0.0 
0.0 0.0 -2.253552833638e+01 
-4.586077140820e+01 3.113932199529e+01 0.0 
3.113932199529e+01 -4.997621345906e+01 0.0 
0.0 0.0 -2.356286865062e+01 
-1.377172469618e+02 1.666731872705e+01 0.0 
1.666731872705e+01 -3.486408137336e+02 0.0 
0.0 0.0 -1.455074182086e+02 
-7.061200203898e+01 1.305166273705e+01 0.0 
1.305166273705e+01 -9.539583467337e+01 0.0 
0.0 0.0 -4.940235101370e+01 
-1.160128478193e+02 1.285920728880e-01 0.0 
1.285920728880e-01 -2.740394567303e+02 0.0 
0.0 0.0 -1.141844060692e+02 
-4.952429254676e+01 1.041309271059e+01 0.0 
1.041309271059e+01 -3.508834755137e+01 0.0 
0.0 0.0 -2.498379202944e+01 
-1.282882072825e+02 3.650991725620e+01 0.0 
3.650991725620e+01 -3.143483930083e+02 0.0 
0.0 0.0 -1.323909800872e+02 
-7.505135964739e+01 1.782018464475e+01 0.0 
1.782018464475e+01 -9.787798070892e+01 0.0 
0.0 0.0 -5.147880210689e+01 
-1.420859238136e+02 1.492079959400e+01 0.0 
1.492079959400e+01 -3.571490408755e+02 0.0 
0.0 0.0 -1.493704894067e+02 
-4.053849983868e+01 -2.318284646100e+01 0.0 
-2.318284646100e+01 -9.872108350232e+01 0.0 
0.0 0.0 -3.820152442459e+01 
-1.472654692413e+01 -2.745081340209e-01 0.0 
-2.745081340209e-01 -2.498911260221e+01 0.0 
0.0 0.0 -1.151469785790e+01 
-1.119322353327e+02 3.543319691467e+01 0.0 
3.543319691467e+01 -2.464201810395e+02 0.0 
0.0 0.0 -1.071057249116e+02 
-1.312040748140e+02 1.017232117792e+00 0.0 
1.017232117792e+00 -3.228654728773e+02 0.0 
0.0 0.0 -1.358208643074e+02 
-1.522174488784e+02 8.890989484886e+00 0.0 
8.890989484886e+00 -3.697892038840e+02 0.0 
0.0 0.0 -1.562019958287e+02 
-1.629234368177e+02 3.416819433675e+00 0.0 
3.416819433675e+00 -3.876339808430e+02 0.0 
0.0 0.0 -1.647672252982e+02 
-1.636327644727e+02 6.086610513994e+00 0.0 
6.086610513994e+00 -3.877021311523e+02 0.0 
0.0 0.0 -1.650004686875e+02 
-1.390221040500e+02 2.483108575275e+01 0.0 
2.483108575275e+01 -3.464139415760e+02 0.0 
0.0 0.0 -1.452308136878e+02 
-3.505384464068e+01 1.596968965795e+00 0.0 
1.596968965795e+00 -3.175761755973e+01 0.0 
0.0 0.0 -1.964343866012e+01 
-3.448627023668e+01 -1.175566182190e+00 0.0 
-1.175566182190e+00 -3.216837958634e+01 0.0 
0.0 0.0 -1.959639494691e+01 
-4.856207652044e+01 3.118770637509e+01 0.0 
3.118770637509e+01 -4.934382053459e+01 0.0 
0.0 0.0 -2.450190654816e+01 
-1.551691284586e+02 1.082466817691e+01 0.0 
1.082466817691e+01 -3.732368623513e+02 0.0 
0.0 0.0 -1.581217972430e+02 
-4.447983886271e+01 3.150302065681e+01 0.0 
3.150302065681e+01 -4.760160637691e+01 0.0 
0.0 0.0 -2.442896948501e+01 
-5.278173333341e+01 1.061961510381e+01 0.0 
1.061961510381e+01 -3.460152066801e+01 0.0 
0.0 0.0 -2.550440639385e+01 
-8.547949726609e+01 1.676951833896e+00 0.0 
1.676951833896e+00 -1.793875531375e+02 0.0 
0.0 0.0 -7.906011512108e+01 
-4.509281545200e+01 3.028739149936e+01 0.0 
3.028739149936e+01 -4.828587862939e+01 0.0 
0.0 0.0 -2.453145099319e+01 
-3.726457980589e+01 -2.546059076987e+01 0.0 
-2.546059076987e+01 -9.523531352258e+01 0.0 
0.0 0.0 -3.891852030063e+01 
-8.334372927863e+01 1.723386421757e+00 0.0 
1.723386421757e+00 -1.802152748426e+02 0.0 
0.0 0.0 -7.866770123638e+01 
-3.620264485087e+01 -2.713222045104e+01 0.0 
-2.713222045104e+01 -5.757619983142e+01 0.0 
0.0 0.0 -2.847243415518e+01 
-5.733675513522e+01 7.036540588343e+00 0.0 
7.036540588343e+00 -6.164689383417e+01 0.0 
0.0 0.0 -3.529509469082e+01 
-4.715112445876e+01 3.145335590659e+01 0.0 
3.145335590659e+01 -5.067272285330e+01 0.0 
0.0 0.0 -2.316365160541e+01 
-3.345937397191e+01 -7.886550765581e-01 0.0 
-7.886550765581e-01 -9.775226194975e+01 0.0 
0.0 0.0 -3.790282963303e+01 
-4.219110760680e+01 -1.752480784822e+01 0.0 
-1.752480784822e+01 -1.252633667449e+02 0.0 
0.0 0.0 -4.571817975377e+01 
-4.496026496466e+01 2.811468901722e+01 0.0 
2.811468901722e+01 -4.824860116406e+01 0.0 
0.0 0.0 -2.281234805310e+01 
-1.024827452626e+02 2.833654275238e+01 0.0 
2.833654275238e+01 -2.252108173386e+02 0.0 
0.0 0.0 -9.790806878035e+01 
-5.736757010577e+01 -2.108114809354e+00 0.0 
-2.108114809354e+00 -1.308601317225e+02 0.0 
0.0 0.0 -5.214359466672e+01 
-4.354821786458e+01 -2.199180676959e+00 0.0 
-2.199180676959e+00 -1.009735913877e+02 0.0 
0.0 0.0 -3.957122491386e+01 
-1.306070695404e+02 -4.639654555143e-01 0.0 
-4.639654555143e-01 -3.226679596630e+02 0.0 
0.0 0.0 -1.355825087610e+02 
-1.672376511153e+01 -1.070084645062e+00 0.0 
-1.070084645062e+00 -5.953870309216e+01 0.0 
0.0 0.0 -2.108018260112e+01 
-9.017743456470e+01 6.003018065863e+00 0.0 
6.003018065863e+00 -2.001597327091e+02 0.0 
0.0 0.0 -8.670115018215e+01 
-6.320630736576e+01 -2.520085586154e+01 0.0 
-2.520085586154e+01 -9.373134114286e+01 0.0 
0.0 0.0 -4.811119483578e+01 
-1.223042564782e+02 2.955661841374e+01 0.0 
2.955661841374e+01 -3.130102253596e+02 0.0 
0.0 0.0 -1.301943445514e+02 
-5.034904901460e+01 3.344982473963e+01 0.0 
3.344982473963e+01 -1.057335957233e+02 0.0 
0.0 0.0 -4.451806217589e+01 
-3.786258073491e+01 -1.779991534203e+01 0.0 
-1.779991534203e+01 -1.123544889080e+02 0.0 
0.0 0.0 -3.808145176155e+01 
-1.553473586922e+02 2.918964954245e+00 0.0 
2.918964954245e+00 -3.714444013075e+02 0.0 
0.0 0.0 -1.576375279999e+02 
-4.383179921364e+01 2.824732975458e+01 0.0 
2.824732975458e+01 -4.823081050005e+01 0.0 
0.0 0.0 -2.204462976926e+01 
-4.746412147931e+01 -8.538238475381e+00 0.0 
-8.538238475381e+00 -1.193658561116e+02 0.0 
0.0 0.0 -5.128388015992e+01 
-1.147089949860e+02 3.723943324150e+01 0.0 
3.723943324150e+01 -2.532124987019e+02 0.0 
0.0 0.0 -1.099764481064e+02 
-4.017857518146e+01 -1.224524339645e+01 0.0 
-1.224524339645e+01 -7.141435373924e+01 0.0 
0.0 0.0 -2.787520049606e+01 
-1.214140690775e+02 3.714037080855e+01 0.0 
3.714037080855e+01 -2.848653388819e+02 0.0 
0.0 0.0 -1.214838223878e+02 
-1.188526759237e+02 4.077011158486e-01 0.0 
4.077011158486e-01 -2.849467565213e+02 0.0 
0.0 0.0 -1.188734675530e+02 
-9.501701133500e+01 1.917399124052e+01 0.0 
1.917399124052e+01 -2.230396931150e+02 0.0 
0.0 0.0 -9.501701133500e+01 
-1.233759206394e+02 3.341592989076e+01 0.0 
3.341592989076e+01 -3.013102250288e+02 0.0 
0.0 0.0 -1.270058437005e+02 
-8.643650452745e+00 -6.429202769175e-01 0.0 
-6.429202769175e-01 -2.992587033194e+01 0.0 
0.0 0.0 -8.795668037211e+00 
-6.346175325456e+01 -3.397144318694e+00 0.0 
-3.397144318694e+00 -1.357846989695e+02 0.0 
0.0 0.0 -5.436496205591e+01 
-9.471726512380e+01 1.487642163629e+01 0.0 
1.487642163629e+01 -1.986084447279e+02 0.0 
0.0 0.0 -8.759771295551e+01 
-1.086654922632e+02 3.090061684930e+01 0.0 
3.090061684930e+01 -2.311670638995e+02 0.0 
0.0 0.0 -1.015497668488e+02 
-4.577293698918e+01 3.165665789321e+01 0.0 
3.165665789321e+01 -4.936742756080e+01 0.0 
0.0 0.0 -2.448249963805e+01 
-1.754137933162e+01 -3.182362307125e+00 0.0 
-3.182362307125e+00 -5.885790663087e+01 0.0 
0.0 0.0 -2.100766825335e+01 
-4.605784905757e+01 3.240520570382e+01 0.0 
3.240520570382e+01 -4.956949871452e+01 0.0 
0.0 0.0 -2.438145927421e+01 
-4.165377438664e+01 -1.512831589189e+01 0.0 
-1.512831589189e+01 -7.237310015580e+01 0.0 
0.0 0.0 -2.864751338566e+01 
-4.569074386695e+01 2.078496922036e+00 0.0 
2.078496922036e+00 -4.600968690190e+01 0.0 
0.0 0.0 -2.711012923066e+01 
-4.599999768641e+01 3.168616157961e+01 0.0 
3.168616157961e+01 -5.050877274180e+01 0.0 
0.0 0.0 -2.447332963487e+01 
-4.096400683324e+01 2.902256602154e+01 0.0 
2.902256602154e+01 -4.372729785599e+01 0.0 
0.0 0.0 -2.212616034148e+01 
-5.084803246074e+01 3.307212877283e+00 0.0 
3.307212877283e+00 -6.210611314908e+01 0.0 
0.0 0.0 -3.348624368294e+01 
-4.831355223973e+01 8.602615338734e-01 0.0 
8.602615338734e-01 -6.098440986845e+01 0.0 
0.0 0.0 -3.238938863245e+01 
-1.214902682795e+02 7.491408582169e-01 0.0 
7.491408582169e-01 -2.932119762745e+02 0.0 
0.0 0.0 -1.226033295899e+02 
-1.270290369211e+02 -7.884480990813e-01 0.0 
-7.884480990813e-01 -3.144008837560e+02 0.0 
0.0 0.0 -1.320105098436e+02 
-9.711536680228e+01 3.397839185093e+01 0.0 
3.397839185093e+01 -1.984856045653e+02 0.0 
0.0 0.0 -8.828029141027e+01 
-4.691073997380e+01 3.349349421451e+00 0.0 
3.349349421451e+00 -5.029114537970e+01 0.0 
0.0 0.0 -2.876056560605e+01 
-1.723426534116e+01 -3.581908104456e+00 0.0 
-3.581908104456e+00 -2.664682774889e+01 0.0 
0.0 0.0 -1.214219964317e+01 
-5.859637990920e+01 1.313264872060e+01 0.0 
1.313264872060e+01 -5.408953955244e+01 0.0 
0.0 0.0 -3.340577583849e+01 
-6.975989314038e+01 1.861601336254e+00 0.0 
1.861601336254e+00 -1.304181560769e+02 0.0 
0.0 0.0 -5.965341476520e+01 
-7.009517183772e+01 1.435334919032e+00 0.0 
1.435334919032e+00 -1.270763190644e+02 0.0 
0.0 0.0 -5.875144727065e+01 
-1.035844867844e+02 2.133767314123e+01 0.0 
2.133767314123e+01 -2.281578509186e+02 0.0 
0.0 0.0 -9.912270131092e+01 
-1.458888006192e+02 2.836577015067e+01 0.0 
2.836577015067e+01 -3.515822414211e+02 0.0 
0.0 0.0 -1.488413126121e+02 
-4.822964685602e+01 3.689707049799e+00 0.0 
3.689707049799e+00 -4.604840040079e+01 0.0 
0.0 0.0 -2.788341417704e+01 
-1.512722065753e+02 1.035539152038e+01 0.0 
1.035539152038e+01 -3.720594379720e+02 0.0 
0.0 0.0 -1.565994933642e+02 
-5.309667229637e+01 9.313065302190e-01 0.0 
9.313065302190e-01 -8.096023741420e+01 0.0 
0.0 0.0 -3.981707291317e+01 
-4.921136904386e+01 3.187865049524e+01 0.0 
3.187865049524e+01 -8.826399666969e+01 0.0 
0.0 0.0 -3.732679509788e+01 
-4.133465982626e+01 2.035966076113e+00 0.0 
2.035966076113e+00 -4.141040941255e+01 0.0 
0.0 0.0 -2.442352077164e+01 
-1.596884723714e+02 1.005131569702e+00 0.0 
1.005131569702e+00 -3.793281207164e+02 0.0 
0.0 0.0 -1.613049779263e+02 
-9.829317661920e+01 2.591939902197e+01 0.0 
2.591939902197e+01 -2.738804936951e+02 0.0 
0.0 0.0 -1.112521010943e+02 
-1.249768768309e+02 3.088083568789e+01 0.0 
3.088083568789e+01 -3.144434888939e+02 0.0 
0.0 0.0 -1.314261097174e+02 
-4.624046243729e+01 3.121068085900e+01 0.0 
3.121068085900e+01 -1.051221548656e+02 0.0 
0.0 0.0 -4.258507146367e+01 
-5.131663648987e+01 -3.024807035280e+01 0.0 
-3.024807035280e+01 -7.795150210437e+01 0.0 
0.0 0.0 -3.653300070003e+01 
-1.455722989806e+02 1.675000626858e+00 0.0 
1.675000626858e+00 -3.518937228495e+02 0.0 
0.0 0.0 -1.488398065490e+02 
-7.634274080296e+01 2.029520615757e+00 0.0 
2.029520615757e+00 -1.468836123288e+02 0.0 
0.0 0.0 -6.656790593954e+01 
-5.551424899511e+01 -3.771068731932e+01 0.0 
-3.771068731932e+01 -7.181049104764e+01 0.0 
0.0 0.0 -3.935461938481e+01 
-1.593024229091e+02 3.992603082942e+00 0.0 
3.992603082942e+00 -3.775384995645e+02 0.0 
0.0 0.0 -1.606522767421e+02 
-9.220418625220e+01 3.155305784348e+01 0.0 
3.155305784348e+01 -1.926051789452e+02 0.0 
0.0 0.0 -8.504280955921e+01 
-8.919568955505e+00 3.874896672432e-02 0.0 
3.874896672432e-02 -2.154526046102e+01 0.0 
0.0 0.0 -6.973963988102e+00 
-5.630668416923e+01 3.037338084876e+01 0.0 
3.037338084876e+01 -1.572040756545e+02 0.0 
0.0 0.0 -6.453725358407e+01 
-6.044530810672e+01 2.544323429437e+01 0.0 
2.544323429437e+01 -5.157695882217e+01 0.0 
0.0 0.0 -3.206635406664e+01 
-7.809423685091e+01 -3.615146293835e+00 0.0 
-3.615146293835e+00 -1.670480308580e+02 0.0 
0.0 0.0 -6.741925597300e+01 
-4.634800563473e+01 3.312909185050e+01 0.0 
3.312909185050e+01 -8.529740988060e+01 0.0 
0.0 0.0 -3.749525095581e+01 
-5.071554010482e+01 3.162915372176e+01 0.0 
3.162915372176e+01 -1.058593410796e+02 0.0 
0.0 0.0 -4.410502813780e+01 
-1.565806547618e+02 6.926559207798e+00 0.0 
6.926559207798e+00 -3.764692151655e+02 0.0 
0.0 0.0 -1.595149609782e+02 
-5.089988779789e+01 -2.781164992686e-01 0.0 
-2.781164992686e-01 -7.424553329985e+01 0.0 
0.0 0.0 -3.714362632932e+01 
-4.821975580691e+01 3.382229858995e+01 0.0 
3.382229858995e+01 -1.052696799647e+02 0.0 
0.0 0.0 -4.414626366579e+01 
-3.152992891726e+01 -6.549323944245e+00 0.0 
-6.549323944245e+00 -6.309641335440e+01 0.0 
0.0 0.0 -2.340370216558e+01 
-6.179493364357e+01 1.534742448815e+01 0.0 
1.534742448815e+01 -6.028298940249e+01 0.0 
0.0 0.0 -3.622337691382e+01 
-7.519389401808e+01 2.217530347409e+00 0.0 
2.217530347409e+00 -1.479908682255e+02 0.0 
0.0 0.0 -6.655542867308e+01 
-4.845293307137e+01 3.122077520997e+01 0.0 
3.122077520997e+01 -1.051777473072e+02 0.0 
0.0 0.0 -4.371459738723e+01 
-4.773789625730e+01 3.568380921042e+01 0.0 
3.568380921042e+01 -5.397469739667e+01 0.0 
0.0 0.0 -2.775735762953e+01 
-5.429357024802e+01 3.060817673874e+01 0.0 
3.060817673874e+01 -4.830524933910e+01 0.0 
0.0 0.0 -2.773571510868e+01 
-7.508201206226e+01 -3.917160529673e+00 0.0 
-3.917160529673e+00 -1.648407580452e+02 0.0 
0.0 0.0 -6.647277030624e+01 
-5.052420863788e+01 2.772736442176e+01 0.0 
2.772736442176e+01 -4.720268649879e+01 0.0 
0.0 0.0 -2.599914090293e+01 
-9.403856535486e+01 1.527949271869e+01 0.0 
1.527949271869e+01 -2.080116889323e+02 0.0 
0.0 0.0 -9.021507628615e+01 
-4.627894420993e+01 3.510196639596e+01 0.0 
3.510196639596e+01 -7.645262432297e+01 0.0 
0.0 0.0 -3.185310585861e+01 
-1.139848313512e+02 -1.206153071224e+00 0.0 
-1.206153071224e+00 -2.727060020514e+02 0.0 
0.0 0.0 -1.135264760930e+02 
-8.734825224146e+01 2.353838178229e+00 0.0 
2.353838178229e+00 -1.908972534422e+02 0.0 
0.0 0.0 -8.307365170509e+01 
-5.912822813765e+01 3.291505269253e+01 0.0 
3.291505269253e+01 -1.086055508497e+02 0.0 
0.0 0.0 -4.535018175445e+01 
-5.114608244866e+01 3.135349132967e+01 0.0 
3.135349132967e+01 -4.883097635914e+01 0.0 
0.0 0.0 -2.611622390095e+01 
-1.505078763049e+02 7.505758866421e+00 0.0 
7.505758866421e+00 -3.690964413286e+02 0.0 
0.0 0.0 -1.554812952900e+02 
-1.561202838430e+02 1.997690501422e+00 0.0 
1.997690501422e+00 -3.724008767565e+02 0.0 
0.0 0.0 -1.581563481798e+02 
-1.199134058221e+02 -7.067404571865e-01 0.0 
-7.067404571865e-01 -2.930203440247e+02 0.0 
0.0 0.0 -1.223747028610e+02 
-6.009828268134e+01 3.376792555969e+01 0.0 
3.376792555969e+01 -1.086456647599e+02 0.0 
0.0 0.0 -4.643465166478e+01 
-1.486721160410e+02 1.514782217868e+01 0.0 
1.514782217868e+01 -3.686354722419e+02 0.0 
0.0 0.0 -1.547922764849e+02 
-5.600224617421e+01 3.200247297690e+01 0.0 
3.200247297690e+01 -8.937799231836e+01 0.0 
0.0 0.0 -3.812381092651e+01 
-9.026537144921e+01 1.060499954214e+01 0.0 
1.060499954214e+01 -1.988120966386e+02 0.0 
0.0 0.0 -8.632324042635e+01 
-1.198755644877e+02 3.898107707192e+01 0.0 
3.898107707192e+01 -2.815137091346e+02 0.0 
0.0 0.0 -1.200167820867e+02 
-6.259939038322e+01 1.018934438048e+01 0.0 
1.018934438048e+01 -7.099903705932e+01 0.0 
0.0 0.0 -3.967952823276e+01 
-6.305666245980e+01 1.640309357238e+00 0.0 
1.640309357238e+00 -1.055167155296e+02 0.0 
0.0 0.0 -5.017201339683e+01 
-5.496288551608e+01 3.328376060940e+01 0.0 
3.328376060940e+01 -8.912358335071e+01 0.0 
0.0 0.0 -3.779748673998e+01 
-4.752025765611e+01 2.812290654771e+01 0.0 
2.812290654771e+01 -4.842256249480e+01 0.0 
0.0 0.0 -2.453069007784e+01 
-6.456902809333e+01 3.325600387830e+01 0.0 
3.325600387830e+01 -1.277231439618e+02 0.0 
0.0 0.0 -5.295905080244e+01 
-4.844647066030e+01 3.071744732319e+01 0.0 
3.071744732319e+01 -1.233196089811e+02 0.0 
0.0 0.0 -4.909324110268e+01 
-4.064825040361e+01 1.590628729757e+00 0.0 
1.590628729757e+00 -4.399325937802e+01 0.0 
0.0 0.0 -2.499245293449e+01 
-5.328838739508e+01 2.744831318385e+01 0.0 
2.744831318385e+01 -1.543596139109e+02 0.0 
0.0 0.0 -6.121948911371e+01 
-1.186410584202e+01 -1.153967489513e+00 0.0 
-1.153967489513e+00 -2.565567929779e+01 0.0 
0.0 0.0 -1.004124533895e+01 
-4.492889059429e+01 3.317042048403e-01 0.0 
3.317042048403e-01 -5.893654035293e+01 0.0 
0.0 0.0 -3.075962928417e+01 
-1.428911991603e+01 -1.098646909474e+00 0.0 
-1.098646909474e+00 -5.992887761983e+01 0.0 
0.0 0.0 -2.122089340482e+01 
-5.863682364369e+01 2.775391429619e+01 0.0 
2.775391429619e+01 -5.083526423370e+01 0.0 
0.0 0.0 -3.057626421664e+01 
-1.539481754087e+02 1.412842908507e+01 0.0 
1.412842908507e+01 -3.712344541036e+02 0.0 
0.0 0.0 -1.571547888537e+02 
-4.747040281211e+01 3.366864191576e+01 0.0 
3.366864191576e+01 -1.057446889074e+02 0.0 
0.0 0.0 -4.416100646943e+01 
-1.234441961690e+02 -7.117306550945e-01 0.0 
-7.117306550945e-01 -3.031968614336e+02 0.0 
0.0 0.0 -1.269724550309e+02 
-4.486783269752e+01 2.994209347756e+01 0.0 
2.994209347756e+01 -4.764807787541e+01 0.0 
0.0 0.0 -2.451076622639e+01 
-9.657283471978e+01 2.497507784808e+01 0.0 
2.497507784808e+01 -2.730240038895e+02 0.0 
0.0 0.0 -1.104790515828e+02 
-3.947247712222e+01 3.320142695078e-01 0.0 
3.320142695078e-01 -4.528034014220e+01 0.0 
0.0 0.0 -2.502584517932e+01 
-5.373701657720e+01 2.910034351088e+01 0.0 
2.910034351088e+01 -1.555340629023e+02 0.0 
0.0 0.0 -6.220740354343e+01 
-1.355804563250e+02 1.575741134882e+00 0.0 
1.575741134882e+00 -3.323140650883e+02 0.0 
0.0 0.0 -1.399683564240e+02 
-3.653693371672e+01 -1.076428837391e+01 0.0 
-1.076428837391e+01 -6.425182131007e+01 0.0 
0.0 0.0 -2.671184087267e+01 
-1.451549264900e+02 1.078051212062e-01 0.0 
1.078051212062e-01 -3.514789290016e+02 0.0 
0.0 0.0 -1.485901566475e+02 
-6.603513059322e+01 2.778189760866e+01 0.0 
2.778189760866e+01 -9.087382205399e+01 0.0 
0.0 0.0 -4.549538282024e+01 
-1.562864461108e+02 3.200462296536e+00 0.0 
3.200462296536e+00 -3.757082540490e+02 0.0 
0.0 0.0 -1.591984100479e+02 
-3.862319662899e+01 3.090086779926e-02 0.0 
3.090086779926e-02 -4.425686161838e+01 0.0 
0.0 0.0 -2.446401747421e+01 
-4.918650372865e+01 3.176965781029e+01 0.0 
3.176965781029e+01 -1.226720923627e+02 0.0 
0.0 0.0 -5.054317705049e+01 
-5.755898649103e+01 2.340296202562e+01 0.0 
2.340296202562e+01 -4.859812181066e+01 0.0 
0.0 0.0 -3.000555989845e+01 
-1.118209202800e+02 1.146564735298e-02 0.0 
1.146564735298e-02 -2.614550430865e+02 0.0 
0.0 0.0 -1.086364856011e+02 
-4.520909351102e+01 3.204773273418e+01 0.0 
3.204773273418e+01 -4.640400885477e+01 0.0 
0.0 0.0 -2.423803711552e+01 
-5.061381471225e+01 2.530822124280e+01 0.0 
2.530822124280e+01 -1.523249276143e+02 0.0 
0.0 0.0 -5.883591176447e+01 
-6.745457958698e+01 3.351345159853e+00 0.0 
3.351345159853e+00 -1.169145863711e+02 0.0 
0.0 0.0 -5.491074978743e+01 
-3.916434835521e+01 -2.497369412773e-01 0.0 
-2.497369412773e-01 -4.405002096886e+01 0.0 
0.0 0.0 -2.456431079722e+01 
-5.230881337425e+01 3.095385035101e+01 0.0 
3.095385035101e+01 -1.396071908390e+02 0.0 
0.0 0.0 -5.745425805022e+01 
-5.683357707841e+01 2.642813735452e+01 0.0 
2.642813735452e+01 -4.755178730320e+01 0.0 
0.0 0.0 -2.868673977136e+01 
-1.035984236401e+02 3.392666978295e+01 0.0 
3.392666978295e+01 -2.435588106557e+02 0.0 
0.0 0.0 -1.037471702887e+02 
-8.385229974580e+01 -3.460297058641e+00 0.0 
-3.460297058641e+00 -1.847486054662e+02 0.0 
0.0 0.0 -7.501155523235e+01 
-1.329279292133e+02 3.399191121866e+01 0.0 
3.399191121866e+01 -3.200818407611e+02 0.0 
0.0 0.0 -1.355029309923e+02 
-1.224363596932e+02 3.941128354500e+01 0.0 
3.941128354500e+01 -2.890348640683e+02 0.0 
0.0 0.0 -1.230413671285e+02 
-4.635531549176e+01 3.111495930488e+01 0.0 
3.111495930488e+01 -6.976946479040e+01 0.0 
0.0 0.0 -3.085831829700e+01 
-8.612341725347e+01 -3.336495783450e+00 0.0 
-3.336495783450e+00 -1.854369014261e+02 0.0 
0.0 0.0 -7.574595841106e+01 
-1.249199276321e+02 1.852380557527e+01 0.0 
1.852380557527e+01 -3.282060074076e+02 0.0 
0.0 0.0 -1.355377805119e+02 
-5.191274467353e+01 3.260810025282e+01 0.0 
3.260810025282e+01 -6.935327134261e+01 0.0 
0.0 0.0 -3.116712736132e+01 
-4.374131696527e+01 3.205181921915e+01 0.0 
3.205181921915e+01 -6.609893993131e+01 0.0 
0.0 0.0 -3.107251655700e+01 
-6.270622893246e+01 2.473653519645e+01 0.0 
2.473653519645e+01 -7.149002569960e+01 0.0 
0.0 0.0 -3.881739148223e+01 
-5.200109400800e+01 2.998633201642e+01 0.0 
2.998633201642e+01 -1.409199020654e+02 0.0 
0.0 0.0 -5.570150832374e+01 
-8.801582975646e+01 6.952945024358e+00 0.0 
6.952945024358e+00 -1.963933149249e+02 0.0 
0.0 0.0 -8.492274340440e+01 
-9.174936647967e+01 2.903853480985e+01 0.0 
2.903853480985e+01 -1.789202042710e+02 0.0 
0.0 0.0 -8.080087122520e+01 
-1.404889158967e+02 -4.560573809410e-01 0.0 
-4.560573809410e-01 -3.421239985844e+02 0.0 
0.0 0.0 -1.443838743443e+02 
-4.578397174273e+01 3.115735536347e+01 0.0 
3.115735536347e+01 -4.878337745061e+01 0.0 
0.0 0.0 -2.448605226795e+01 
-4.828848990602e+01 2.269363368307e+01 0.0 
2.269363368307e+01 -1.510843817338e+02 0.0 
0.0 0.0 -5.659920254944e+01 
-9.525120633065e+01 3.088016367959e+01 0.0 
3.088016367959e+01 -1.965692005577e+02 0.0 
0.0 0.0 -8.714612206650e+01 
-8.916000761888e+01 2.859961663951e+01 0.0 
2.859961663951e+01 -7.838686463693e+01 0.0 
0.0 0.0 -5.053202002925e+01 
-5.245920903727e+01 3.057806201710e+01 0.0 
3.057806201710e+01 -6.971588861318e+01 0.0 
0.0 0.0 -3.168687857934e+01 
-1.160743649698e+02 1.349696638078e+01 0.0 
1.349696638078e+01 -3.147628337350e+02 0.0 
0.0 0.0 -1.288511596114e+02 
-1.548546365819e+01 -6.515505963406e-01 0.0 
-6.515505963406e-01 -4.244512363992e+01 0.0 
0.0 0.0 -1.488132237768e+01 
-1.065484974214e+02 3.080445904939e+01 0.0 
3.080445904939e+01 -2.316683922467e+02 0.0 
0.0 0.0 -1.010650669005e+02 
-8.080510840887e+01 2.089907410725e+01 0.0 
2.089907410725e+01 -1.278518059722e+02 0.0 
0.0 0.0 -6.219707431431e+01 
-6.913824848434e+01 -1.109990147736e+01 0.0 
-1.109990147736e+01 -1.804710844792e+02 0.0 
0.0 0.0 -7.262367733678e+01 
-1.128856760227e+02 1.252190614611e+01 0.0 
1.252190614611e+01 -3.133045035422e+02 0.0 
0.0 0.0 -1.274570538695e+02 
-6.854382432916e+01 1.693495043407e+01 0.0 
1.693495043407e+01 -7.639892289865e+01 0.0 
0.0 0.0 -4.308282416834e+01 
-7.121170815473e+01 1.370162242714e+01 0.0 
1.370162242714e+01 -8.688735073831e+01 0.0 
0.0 0.0 -4.702971766791e+01 
-1.444471482222e+02 1.546564889141e+01 0.0 
1.546564889141e+01 -3.579229771838e+02 0.0 
0.0 0.0 -1.503110376218e+02 
-5.713822826236e+01 -1.355002296166e+01 0.0 
-1.355002296166e+01 -1.343167446072e+02 0.0 
0.0 0.0 -5.382256534653e+01 
-6.706498288784e+01 3.343530604774e+01 0.0 
3.343530604774e+01 -1.461287842698e+02 0.0 
0.0 0.0 -5.970311952854e+01 
-6.914447723062e+01 3.005381689389e+01 0.0 
3.005381689389e+01 -1.102366786833e+02 0.0 
0.0 0.0 -5.217166489359e+01 
-8.618752814008e+01 2.313414164254e+01 0.0 
2.313414164254e+01 -1.368800863219e+02 0.0 
0.0 0.0 -6.652028433859e+01 
-6.841779727147e+01 2.985899898922e+01 0.0 
2.985899898922e+01 -9.348732976472e+01 0.0 
0.0 0.0 -4.765584820619e+01 
-6.301667150523e+01 2.871797085769e+01 0.0 
2.871797085769e+01 -7.133785756409e+01 0.0 
0.0 0.0 -3.867962663919e+01 
-8.188569595548e+01 2.295370179766e+01 0.0 
2.295370179766e+01 -2.508707152736e+02 0.0 
0.0 0.0 -1.001828700387e+02 
-1.002976065032e+02 3.541869948054e+01 0.0 
3.541869948054e+01 -2.272116609974e+02 0.0 
0.0 0.0 -9.785278025019e+01 
-6.309647160154e+01 2.705862772376e+01 0.0 
2.705862772376e+01 -9.049185121215e+01 0.0 
0.0 0.0 -4.720030394927e+01 
-4.545456543145e+01 3.278846820322e+01 0.0 
3.278846820322e+01 -6.861362838343e+01 0.0 
0.0 0.0 -3.153561345026e+01 
-4.839881746502e+01 3.281745103759e+01 0.0 
3.281745103759e+01 -8.764910452173e+01 0.0 
0.0 0.0 -3.788488626570e+01 
-6.232661340778e+01 3.352594432426e+01 0.0 
3.352594432426e+01 -1.275447875589e+02 0.0 
0.0 0.0 -5.297039286628e+01 
-9.665709666419e+01 3.126241874745e+01 0.0 
3.126241874745e+01 -1.857708669168e+02 0.0 
0.0 0.0 -8.432838907429e+01 
-3.731707215758e+01 2.255336748422e+01 0.0 
2.255336748422e+01 -1.149461621391e+02 0.0 
0.0 0.0 -4.372242415062e+01 
-1.117429185460e+02 1.087079409663e+01 0.0 
1.087079409663e+01 -3.069210167753e+02 0.0 
0.0 0.0 -1.251991805964e+02 
-3.950088167236e+01 1.411926740163e+00 0.0 
1.411926740163e+00 -4.289404699135e+01 0.0 
0.0 0.0 -2.431847859911e+01 
-5.118435559367e+01 2.682131747841e+01 0.0 
2.682131747841e+01 -1.546419592902e+02 0.0 
0.0 0.0 -6.014650993765e+01 
-1.078378332273e+02 8.326345295219e+00 0.0 
8.326345295219e+00 -2.985506415973e+02 0.0 
0.0 0.0 -1.215165424474e+02 
-1.228008741740e+01 -2.990116686898e-01 0.0 
-2.990116686898e-01 -2.816748549636e+01 0.0 
0.0 0.0 -1.026845075995e+01 
-8.688388999579e+01 2.258819383481e+01 0.0 
2.258819383481e+01 -1.504338894998e+02 0.0 
0.0 0.0 -7.079533384868e+01 
-1.299801764127e+01 -5.041092809612e-01 0.0 
-5.041092809612e-01 -2.420435346324e+01 0.0 
0.0 0.0 -9.530813588493e+00 
-1.145338793424e+01 -1.655924692548e+00 0.0 
-1.655924692548e+00 -4.279402863042e+01 0.0 
0.0 0.0 -1.426834875628e+01 
-4.495304919609e+01 3.167940171064e+01 0.0 
3.167940171064e+01 -4.836742507713e+01 0.0 
0.0 0.0 -2.424447789079e+01 
-5.022064104183e+01 -1.356377379460e+01 0.0 
-1.356377379460e+01 -1.135486929204e+02 0.0 
0.0 0.0 -4.553602618439e+01 
-9.192187208833e+01 2.465025740399e+01 0.0 
2.465025740399e+01 -1.591226143917e+02 0.0 
0.0 0.0 -7.491334594400e+01 
-4.821965119156e+01 -1.401405597840e+01 0.0 
-1.401405597840e+01 -1.062411911215e+02 0.0 
0.0 0.0 -4.280998502388e+01 
-4.635768706063e+01 3.245121820911e+01 0.0 
3.245121820911e+01 -8.889795836757e+01 0.0 
0.0 0.0 -3.668114187545e+01 
-4.898239212025e+01 -2.241964258757e+01 0.0 
-2.241964258757e+01 -1.107168433003e+02 0.0 
0.0 0.0 -4.207806249625e+01 
-3.683325300177e+01 -1.064867542328e+01 0.0 
-1.064867542328e+01 -7.157363695167e+01 0.0 
0.0 0.0 -2.919707236398e+01 
-1.176719900891e+02 1.499660413845e+01 0.0 
1.499660413845e+01 -3.203092978615e+02 0.0 
0.0 0.0 -1.309943863852e+02 
-6.591138321229e+01 3.124683687738e+01 0.0 
3.124683687738e+01 -9.093104959454e+01 0.0 
0.0 0.0 -4.542295810190e+01 
-1.548136473508e+02 1.384526799012e+00 0.0 
1.384526799012e+00 -3.713368520154e+02 0.0 
0.0 0.0 -1.574451498098e+02 
-6.955352441006e+01 1.309885980781e+01 0.0 
1.309885980781e+01 -1.093412963265e+02 0.0 
0.0 0.0 -5.421014574584e+01 
-4.674067698456e+01 3.155332487854e+01 0.0 
3.155332487854e+01 -1.061578051765e+02 0.0 
0.0 0.0 -4.240278035355e+01 
-5.516209717739e+01 2.629498660726e+01 0.0 
2.629498660726e+01 -1.708450213544e+02 0.0 
0.0 0.0 -6.735597741522e+01 
-4.942444008795e+01 3.057578474573e+01 0.0 
3.057578474573e+01 -6.973509440611e+01 0.0 
0.0 0.0 -3.029154027928e+01 
-1.083402043588e+02 1.000187064217e+01 0.0 
1.000187064217e+01 -3.053807804180e+02 0.0 
0.0 0.0 -1.237162954331e+02 
-1.571665577938e+02 3.076020651938e+00 0.0 
3.076020651938e+00 -3.774704206569e+02 0.0 
0.0 0.0 -1.599910935352e+02 
-9.033798280195e+01 3.029656922320e+01 0.0 
3.029656922320e+01 -1.634301342082e+02 0.0 
0.0 0.0 -7.573043510305e+01 
-4.291511345996e+01 2.012734042252e+01 0.0 
2.012734042252e+01 -1.350216083759e+02 0.0 
0.0 0.0 -4.785383590202e+01 
-1.203674311708e+02 1.589848763702e+01 0.0 
1.589848763702e+01 -3.214733255262e+02 0.0 
0.0 0.0 -1.321522270091e+02 
-1.175447939272e+02 -1.208183131849e+00 0.0 
-1.208183131849e+00 -2.823857900262e+02 0.0 
0.0 0.0 -1.178154915435e+02 
-6.504401041426e+01 3.405993505322e+01 0.0 
3.405993505322e+01 -1.280501103705e+02 0.0 
0.0 0.0 -5.497990151918e+01 
-8.463884459691e+01 2.399212776272e+01 0.0 
2.399212776272e+01 -1.441591454430e+02 0.0 
0.0 0.0 -6.823939701197e+01 
-1.290460508799e+02 3.246965634921e+01 0.0 
3.246965634921e+01 -3.165557346867e+02 0.0 
0.0 0.0 -1.332805356700e+02 
-5.269854316923e+01 2.217534603813e+01 0.0 
2.217534603813e+01 -1.669505205456e+02 0.0 
0.0 0.0 -6.387024320982e+01 
-4.391216261286e+01 3.060150052560e+01 0.0 
3.060150052560e+01 -8.611510129869e+01 0.0 
0.0 0.0 -3.492878279099e+01 
-7.365874437819e+01 3.074293839217e+01 0.0 
3.074293839217e+01 -1.150895572720e+02 0.0 
0.0 0.0 -5.622449049506e+01 
-1.009755054485e+02 1.848475612693e+01 0.0 
1.848475612693e+01 -2.254637235343e+02 0.0 
0.0 0.0 -9.753176869484e+01 
-6.451270850277e+01 3.277916056317e+01 0.0 
3.277916056317e+01 -1.458316859456e+02 0.0 
0.0 0.0 -5.947658523712e+01 
-6.506879840452e+01 1.880911661727e+01 0.0 
1.880911661727e+01 -2.111292669594e+02 0.0 
0.0 0.0 -8.572496447092e+01 
-4.701859537837e+01 9.493007717818e-01 0.0 
9.493007717818e-01 -6.277554936576e+01 0.0 
0.0 0.0 -3.253824342324e+01 
-4.414183836987e+01 -1.638906206956e+01 0.0 
-1.638906206956e+01 -6.951020158511e+01 0.0 
0.0 0.0 -2.767701243822e+01 
-6.717754063676e+01 2.585437038209e+01 0.0 
2.585437038209e+01 -9.216871071789e+01 0.0 
0.0 0.0 -4.696519525821e+01 
-4.597480722964e+01 2.506607996176e+01 0.0 
2.506607996176e+01 -1.389625947567e+02 0.0 
0.0 0.0 -5.222436706711e+01 
-3.917439946495e+01 1.985382210739e+01 0.0 
1.985382210739e+01 -1.271996850042e+02 0.0 
0.0 0.0 -4.732201316227e+01 
-4.008284690754e+01 -2.098335125705e+01 0.0 
-2.098335125705e+01 -1.172190331996e+02 0.0 
0.0 0.0 -4.393247884199e+01 
-8.864346882758e+01 2.131809689667e+01 0.0 
2.131809689667e+01 -1.571145283788e+02 0.0 
0.0 0.0 -7.332739916191e+01 
-7.093720703525e+01 3.198036148879e+01 0.0 
3.198036148879e+01 -1.126325422445e+02 0.0 
0.0 0.0 -5.426125569191e+01 
-5.027564779925e+01 3.339554456225e+01 0.0 
3.339554456225e+01 -1.245421222769e+02 0.0 
0.0 0.0 -5.155967679917e+01 
-9.370393540343e+01 2.332095350074e+01 0.0 
2.332095350074e+01 -1.663595181555e+02 0.0 
0.0 0.0 -7.761903606767e+01 
-9.357252672916e+01 3.220201437836e+01 0.0 
3.220201437836e+01 -1.806099507469e+02 0.0 
0.0 0.0 -8.185474324281e+01 
-6.776917186667e+01 3.423106411840e+01 0.0 
3.423106411840e+01 -1.287673440597e+02 0.0 
0.0 0.0 -5.687772408026e+01 
-1.588481730572e+02 5.239387817707e+00 0.0 
5.239387817707e+00 -3.778508200855e+02 0.0 
0.0 0.0 -1.606096979428e+02 
-6.868607771410e+01 1.871235006771e+01 0.0 
1.871235006771e+01 -2.279834320911e+02 0.0 
0.0 0.0 -9.345053968521e+01 
-7.046787060122e+01 3.398934103969e+01 0.0 
3.398934103969e+01 -1.298243951590e+02 0.0 
0.0 0.0 -5.877441932006e+01 
-5.636617383846e+01 2.863285354474e+01 0.0 
2.863285354474e+01 -1.581799448908e+02 0.0 
0.0 0.0 -6.274134229607e+01 
-7.122175125841e+01 1.884695994374e+01 0.0 
1.884695994374e+01 -2.275538530240e+02 0.0 
0.0 0.0 -9.350200459209e+01 
-4.109688743251e+01 1.752315806673e+01 0.0 
1.752315806673e+01 -1.388593197422e+02 0.0 
0.0 0.0 -5.057991244499e+01 
-5.445065755490e+01 8.816879081075e+00 0.0 
8.816879081075e+00 -4.931547351383e+01 0.0 
0.0 0.0 -3.072983932062e+01 
-5.492557977740e+01 1.866819611191e+01 0.0 
1.866819611191e+01 -1.803365917579e+02 0.0 
0.0 0.0 -6.890958502872e+01 
-4.911734102398e+01 -6.669174873978e+00 0.0 
-6.669174873978e+00 -1.624499829002e+02 0.0 
0.0 0.0 -6.055189938810e+01 
-8.837465336425e+01 2.683502293730e+01 0.0 
2.683502293730e+01 -1.616626199638e+02 0.0 
0.0 0.0 -7.461118199843e+01 
-1.260263009389e+02 5.738310639492e+00 0.0 
5.738310639492e+00 -1.008414075994e+02 0.0 
0.0 0.0 -6.833405373383e+01 
-7.081697876247e+01 2.828529939599e+01 0.0 
2.828529939599e+01 -9.651103499997e+01 0.0 
0.0 0.0 -4.979840412873e+01 
-4.625733471485e+01 2.038755258341e+01 0.0 
2.038755258341e+01 -1.527511900718e+02 0.0 
0.0 0.0 -5.656185148382e+01 
-4.273523964643e+01 2.804675914562e+01 0.0 
2.804675914562e+01 -1.031142998298e+02 0.0 
0.0 0.0 -3.889363399316e+01 
-3.855187918220e+01 1.055349196415e+01 0.0 
1.055349196415e+01 -1.355987284391e+02 0.0 
0.0 0.0 -4.807889430434e+01 
-7.663330439943e+01 2.932657729985e+01 0.0 
2.932657729985e+01 -1.330719151059e+02 0.0 
0.0 0.0 -6.251156585159e+01 
-2.292793640807e+01 -3.383990900496e+00 0.0 
-3.383990900496e+00 -4.205884733828e+01 0.0 
0.0 0.0 -1.565935875780e+01 
-5.068305909330e+01 3.243194394076e+01 0.0 
3.243194394076e+01 -8.885839788901e+01 0.0 
0.0 0.0 -3.794982724597e+01 
-7.479840105621e+01 1.846107999288e+01 0.0 
1.846107999288e+01 -2.433272288667e+02 0.0 
0.0 0.0 -1.005599768687e+02 
-7.080200185321e+01 2.865042561811e+01 0.0 
2.865042561811e+01 -1.116658452993e+02 0.0 
0.0 0.0 -5.386868420683e+01 
-6.451687290682e+01 1.280423223075e+01 0.0 
1.280423223075e+01 -7.224526417831e+01 0.0 
0.0 0.0 -4.062864112554e+01 
-3.577282342523e+01 2.027552204821e+01 0.0 
2.027552204821e+01 -1.203023993793e+02 0.0 
0.0 0.0 -4.933332805113e+01 
-4.542022741432e+01 -9.397497159669e-01 0.0 
-9.397497159669e-01 -1.617671089587e+02 0.0 
0.0 0.0 -5.850304340874e+01 
-4.971344639275e+01 -1.224943808505e+01 0.0 
-1.224943808505e+01 -1.535717137565e+02 0.0 
0.0 0.0 -5.755566616142e+01 
-4.727411365077e+01 3.164324470956e+01 0.0 
3.164324470956e+01 -6.979250560109e+01 0.0 
0.0 0.0 -3.063739003599e+01 
-8.702812378827e+01 2.788787233884e+01 0.0 
2.788787233884e+01 -1.462128291035e+02 0.0 
0.0 0.0 -6.957228586752e+01 
-5.092507771357e+01 3.240652264170e+01 0.0 
3.240652264170e+01 -8.923059984902e+01 0.0 
0.0 0.0 -3.748666842018e+01 
-5.396981126614e+01 1.930658157297e+01 0.0 
1.930658157297e+01 -1.813417407808e+02 0.0 
0.0 0.0 -6.942809618333e+01 
-5.242406396215e+01 2.319814944503e+01 0.0 
2.319814944503e+01 -1.686786238119e+02 0.0 
0.0 0.0 -6.487647566980e+01 
-3.232532164853e+01 1.488730658749e+01 0.0 
1.488730658749e+01 -1.119069497288e+02 0.0 
0.0 0.0 -4.329602007579e+01 
-6.132774306047e+01 2.981260136528e+01 0.0 
2.981260136528e+01 -1.751444518734e+02 0.0 
0.0 0.0 -7.183669196084e+01 
-4.353644350911e+01 3.142384784958e+01 0.0 
3.142384784958e+01 -6.940820908640e+01 0.0 
0.0 0.0 -2.905291474681e+01 
-1.118389279325e+02 3.231593802286e+01 0.0 
3.231593802286e+01 -2.478832825684e+02 0.0 
0.0 0.0 -1.075166631503e+02 
-1.155299817898e+02 3.675462350346e+01 0.0 
3.675462350346e+01 -2.598859151560e+02 0.0 
0.0 0.0 -1.122247690837e+02 
-6.930206743041e+01 3.318445008022e+01 0.0 
3.318445008022e+01 -1.638600940505e+02 0.0 
0.0 0.0 -6.674109576025e+01 
-4.364767666416e+01 2.159829043130e+01 0.0 
2.159829043130e+01 -1.388230627730e+02 0.0 
0.0 0.0 -5.089193911881e+01 
-4.072156886144e+01 2.635472129049e+01 0.0 
2.635472129049e+01 -1.034223781132e+02 0.0 
0.0 0.0 -3.727830179274e+01 
-7.452598865496e+01 3.275602239456e+01 0.0 
3.275602239456e+01 -1.483761763458e+02 0.0 
0.0 0.0 -6.527899455040e+01 
-4.015170520796e+01 2.168314651167e+01 0.0 
2.168314651167e+01 -1.202297525312e+02 0.0 
0.0 0.0 -4.224688598942e+01 
-4.441306777215e+01 -7.238817546708e+00 0.0 
-7.238817546708e+00 -1.523168799869e+02 0.0 
0.0 0.0 -5.493721655377e+01 
-6.722242654322e+01 3.300559511277e+01 0.0 
3.300559511277e+01 -1.280262713194e+02 0.0 
0.0 0.0 -5.504100496639e+01 
-9.500216231070e+01 1.192440015752e+01 0.0 
1.192440015752e+01 -2.018710894357e+02 0.0 
0.0 0.0 -8.866197552393e+01 
-4.862921112961e+01 2.394426563042e+01 0.0 
2.394426563042e+01 -1.536244089650e+02 0.0 
0.0 0.0 -5.827991753566e+01 
-8.206234118756e+01 2.246410390399e+01 0.0 
2.246410390399e+01 -2.508616977791e+02 0.0 
0.0 0.0 -1.024280321344e+02 
-4.546383107138e+01 3.197568601153e+01 0.0 
3.197568601153e+01 -9.033671920583e+01 0.0 
0.0 0.0 -3.650313925166e+01 
-1.566155002960e+02 1.982866224454e+01 0.0 
1.982866224454e+01 -3.783713022281e+02 0.0 
0.0 0.0 -1.600960407572e+02 
-4.425244673591e+01 2.655476061806e+01 0.0 
2.655476061806e+01 -1.242404006449e+02 0.0 
0.0 0.0 -4.658930484168e+01 
-6.970693439021e+01 3.340512661611e+01 0.0 
3.340512661611e+01 -1.467708196334e+02 0.0 
0.0 0.0 -6.141697812732e+01 
-3.675529633665e+01 1.526829661783e+01 0.0 
1.526829661783e+01 -1.289802736214e+02 0.0 
0.0 0.0 -4.928008405451e+01 
-8.512884473867e+01 9.487932339440e+00 0.0 
9.487932339440e+00 -2.673155212127e+02 0.0 
0.0 0.0 -1.097004744066e+02 
-5.673453942647e+01 2.287527192594e+01 0.0 
2.287527192594e+01 -1.846236608316e+02 0.0 
0.0 0.0 -7.233774612474e+01 
-4.829047385317e+01 -1.038914718560e+01 0.0 
-1.038914718560e+01 -1.553134773780e+02 0.0 
0.0 0.0 -5.657160345461e+01 
-6.832310059066e+01 3.301989897884e+01 0.0 
3.301989897884e+01 -1.105850463005e+02 0.0 
0.0 0.0 -5.215257014365e+01 
-1.235712850233e+02 4.095595024059e+01 0.0 
4.095595024059e+01 -2.853484624202e+02 0.0 
0.0 0.0 -1.222759242330e+02 
-4.976625761063e+01 1.963201396700e+01 0.0 
1.963201396700e+01 -1.667166997950e+02 0.0 
0.0 0.0 -6.269016822789e+01 
-7.513835563391e+01 1.723163787959e+01 0.0 
1.723163787959e+01 -2.413958578108e+02 0.0 
0.0 0.0 -9.926045915782e+01 
-4.149261510229e+01 2.913896770603e+01 0.0 
2.913896770603e+01 -8.739284971449e+01 0.0 
0.0 0.0 -3.322299177482e+01 
-6.947196693563e+01 8.397360171563e+00 0.0 
8.397360171563e+00 -1.021931661166e+02 0.0 
0.0 0.0 -5.109953991567e+01 
-1.042455185464e+02 7.505964249966e+00 0.0 
7.505964249966e+00 -2.968745185302e+02 0.0 
0.0 0.0 -1.199360111230e+02 
-4.572761624168e+01 3.082076988178e+01 0.0 
3.082076988178e+01 -8.646648572082e+01 0.0 
0.0 0.0 -3.605404808964e+01 
-6.850538174470e+01 8.816438083093e+00 0.0 
8.816438083093e+00 -9.353121290489e+01 0.0 
0.0 0.0 -4.821097839488e+01 
-1.310894852771e+02 4.125476286774e+01 0.0 
4.125476286774e+01 -3.099807243367e+02 0.0 
0.0 0.0 -1.319210628841e+02 
-1.151043721679e+02 9.341814705554e+00 0.0 
9.341814705554e+00 -3.152000210445e+02 0.0 
0.0 0.0 -1.286913179637e+02 
-1.211682189623e+02 3.997658645287e+01 0.0 
3.997658645287e+01 -2.768193599208e+02 0.0 
0.0 0.0 -1.189962736649e+02 
-7.209174406223e+01 1.258078255116e+01 0.0 
1.258078255116e+01 -9.482381800684e+01 0.0 
0.0 0.0 -4.967466862072e+01 
-9.303449737908e+01 3.422098703635e+01 0.0 
3.422098703635e+01 -1.937273870102e+02 0.0 
0.0 0.0 -8.562856531680e+01 
-4.529665256598e+01 3.077681684726e+01 0.0 
3.077681684726e+01 -6.793178408046e+01 0.0 
0.0 0.0 -3.010862114951e+01 
-6.337677810910e+01 3.249548636877e+01 0.0 
3.249548636877e+01 -8.993115820804e+01 0.0 
0.0 0.0 -4.358540518868e+01 
-7.196546925216e+01 3.170295048014e+01 0.0 
3.170295048014e+01 -1.295565715874e+02 0.0 
0.0 0.0 -5.879830692212e+01 
-7.314927897729e+01 3.343551110210e+01 0.0 
3.343551110210e+01 -1.314597162645e+02 0.0 
0.0 0.0 -6.076807272939e+01 
-6.178613055091e+01 3.183092589057e+01 0.0 
3.183092589057e+01 -1.449078904170e+02 0.0 
0.0 0.0 -5.815382260807e+01 
-1.363417719181e+02 3.953421149954e+01 0.0 
3.953421149954e+01 -3.256266558593e+02 0.0 
0.0 0.0 -1.381905283332e+02 
-7.089153070372e+01 1.598233063394e+01 0.0 
1.598233063394e+01 -9.129201779831e+01 0.0 
0.0 0.0 -4.825506455061e+01 
-6.561820666572e+01 2.697554615795e+01 0.0 
2.697554615795e+01 -7.444909134342e+01 0.0 
0.0 0.0 -4.107979048034e+01 
-5.028264521162e+01 1.909083662546e+01 0.0 
1.909083662546e+01 -1.653741669194e+02 0.0 
0.0 0.0 -6.172474633033e+01 
-4.374711204619e+01 -1.275350919063e+01 0.0 
-1.275350919063e+01 -9.275369023348e+01 0.0 
0.0 0.0 -3.748172257436e+01 
-6.093410801748e+01 3.052531401325e+01 0.0 
3.052531401325e+01 -7.012758577745e+01 0.0 
0.0 0.0 -3.689935130246e+01 
-4.724205080237e+01 3.243807257179e+01 0.0 
3.243807257179e+01 -1.053874517280e+02 0.0 
0.0 0.0 -4.361166100467e+01 
-3.955036607774e+01 4.611764084772e-01 0.0 
4.611764084772e-01 -4.503543937068e+01 0.0 
0.0 0.0 -2.497574163453e+01 
-5.375163111547e+01 -1.431858204598e+01 0.0 
-1.431858204598e+01 -1.577788448034e+02 0.0 
0.0 0.0 -6.101238381979e+01 
-4.625321370954e+01 1.939271770932e+01 0.0 
1.939271770932e+01 -1.501510707335e+02 0.0 
0.0 0.0 -5.459210304327e+01 
-9.065612922412e+01 2.545699286079e+01 0.0 
2.545699286079e+01 -1.669746319589e+02 0.0 
0.0 0.0 -7.688922835490e+01 
-4.437032982124e+01 2.943026767059e+01 0.0 
2.943026767059e+01 -1.036408020068e+02 0.0 
0.0 0.0 -4.059121349518e+01 
-6.676092792558e+01 3.123853359218e+01 0.0 
3.123853359218e+01 -1.092325936491e+02 0.0 
0.0 0.0 -5.031300117803e+01 
-7.845138546137e+01 1.551515678160e+01 0.0 
1.551515678160e+01 -2.529458845541e+02 0.0 
0.0 0.0 -1.050434200845e+02 
-8.510414061183e+01 -1.018797033906e+00 0.0 
-1.018797033906e+00 -2.411366475919e+02 0.0 
0.0 0.0 -9.868498693930e+01 
-1.438974885318e+02 3.468254967828e+01 0.0 
3.468254967828e+01 -3.466082014825e+02 0.0 
0.0 0.0 -1.467517070043e+02 
-5.467555025515e+01 3.275825764052e+01 0.0 
3.275825764052e+01 -6.928039833734e+01 0.0 
0.0 0.0 -3.305003990424e+01 
-4.289693554592e+01 4.546818996164e+00 0.0 
4.546818996164e+00 -1.564687274872e+02 0.0 
0.0 0.0 -5.644254541070e+01 
-6.912766901472e+01 -1.522612545908e+01 0.0 
-1.522612545908e+01 -1.754419313069e+02 0.0 
0.0 0.0 -7.223288445520e+01 
-4.551893651712e+01 3.036160209501e+01 0.0 
3.036160209501e+01 -6.750875200963e+01 0.0 
0.0 0.0 -3.032437050596e+01 
-4.569630376886e+01 3.351181061009e+01 0.0 
3.351181061009e+01 -8.671395324092e+01 0.0 
0.0 0.0 -3.737947886544e+01 
-9.995905639466e+01 3.306484573105e+01 0.0 
3.306484573105e+01 -2.027637496935e+02 0.0 
0.0 0.0 -9.041684182646e+01 
-6.980276736049e+01 3.418101294682e+01 0.0 
3.418101294682e+01 -1.475094369513e+02 0.0 
0.0 0.0 -6.345305644345e+01 
-5.039487604232e+01 3.233960130036e+01 0.0 
3.233960130036e+01 -6.998920891838e+01 0.0 
0.0 0.0 -3.038296200084e+01 
-6.140648149986e+01 3.069081678851e+01 0.0 
3.069081678851e+01 -8.915959443864e+01 0.0 
0.0 0.0 -4.193017611276e+01 
-1.513169314919e+02 2.643071770010e+01 0.0 
2.643071770010e+01 -3.666794769616e+02 0.0 
0.0 0.0 -1.549989225361e+02 
-1.392952580194e+02 2.606847045931e+01 0.0 
2.606847045931e+01 -3.471668868415e+02 0.0 
0.0 0.0 -1.455386434583e+02 
-9.783686031041e+01 3.008482291524e+01 0.0 
3.008482291524e+01 -2.009437991722e+02 0.0 
0.0 0.0 -8.923419784479e+01 
-8.990567040347e+01 2.622708376190e+01 0.0 
2.622708376190e+01 -1.526176987567e+02 0.0 
0.0 0.0 -7.235701074804e+01 
-8.493357697417e+01 -4.943745641084e+00 0.0 
-4.943745641084e+00 -2.365820854118e+02 0.0 
0.0 0.0 -9.835131456664e+01 
-5.316027068669e+01 3.195397842277e+01 0.0 
3.195397842277e+01 -1.075144204523e+02 0.0 
0.0 0.0 -4.429292136528e+01 
-4.056816607777e+01 1.621845078018e+01 0.0 
1.621845078018e+01 -1.352274508198e+02 0.0 
0.0 0.0 -4.744230353524e+01 
-4.432600560340e+01 1.523131023163e+01 0.0 
1.523131023163e+01 -1.493961280635e+02 0.0 
0.0 0.0 -5.300962911755e+01 
-6.712334639536e+01 3.364882965746e+01 0.0 
3.364882965746e+01 -1.466581095615e+02 0.0 
0.0 0.0 -6.154243246156e+01 
-8.237212687260e+01 1.078056458900e+01 0.0 
1.078056458900e+01 -2.592514952771e+02 0.0 
0.0 0.0 -1.074633505494e+02 
-8.906395364585e+01 -6.718845916778e+00 0.0 
-6.718845916778e+00 -2.054359533444e+02 0.0 
0.0 0.0 -8.378741957762e+01 
-9.621877479833e+01 2.702548133420e+01 0.0 
2.702548133420e+01 -1.892998331293e+02 0.0 
0.0 0.0 -8.525558237830e+01 
-4.500362560585e+01 -2.254615223349e+00 0.0 
-2.254615223349e+00 -1.556477655928e+02 0.0 
0.0 0.0 -5.674906421247e+01 
-5.902889870726e+01 3.078405526805e+01 0.0 
3.078405526805e+01 -1.436958476300e+02 0.0 
0.0 0.0 -5.784480836631e+01 
-6.954763605315e+01 3.242984726515e+01 0.0 
3.242984726515e+01 -1.284645672973e+02 0.0 
0.0 0.0 -5.687646083243e+01 
-5.481274056559e+01 3.104843812429e+01 0.0 
3.104843812429e+01 -1.253214950606e+02 0.0 
0.0 0.0 -5.089181527217e+01 
-1.191046799630e+02 3.867084039154e+01 0.0 
3.867084039154e+01 -2.687021215786e+02 0.0 
0.0 0.0 -1.159420404625e+02 
-1.127197186625e+02 3.431903890631e+01 0.0 
3.431903890631e+01 -2.532070979833e+02 0.0 
0.0 0.0 -1.093780449937e+02 
-1.099619632721e+02 3.374932594301e+01 0.0 
3.374932594301e+01 -2.337400614717e+02 0.0 
0.0 0.0 -1.027106074232e+02 
-9.173961100408e+01 -1.196467145525e+00 0.0 
-1.196467145525e+00 -2.545187593570e+02 0.0 
0.0 0.0 -1.058740856554e+02 
-8.996760906920e+01 2.017534620995e+01 0.0 
2.017534620995e+01 -1.641951850008e+02 0.0 
0.0 0.0 -7.584883822100e+01 
-4.611302742755e+01 3.302311203678e+01 0.0 
3.302311203678e+01 -8.738858328317e+01 0.0 
0.0 0.0 -3.708831849066e+01 
-4.833771765647e+01 1.501796850133e+01 0.0 
1.501796850133e+01 -1.637996813399e+02 0.0 
0.0 0.0 -5.970001758206e+01 
-3.533867127042e+01 1.163668062158e+01 0.0 
1.163668062158e+01 -1.237233884939e+02 0.0 
0.0 0.0 -4.482042575422e+01 
-5.284093360193e+01 3.282621210774e+01 0.0 
3.282621210774e+01 -8.951911831069e+01 0.0 
0.0 0.0 -3.746891602862e+01 
-5.287028915668e+01 6.406243410546e+00 0.0 
6.406243410546e+00 -4.787372700171e+01 0.0 
0.0 0.0 -2.982320484752e+01 
-6.708474231224e+01 8.768601898963e+00 0.0 
8.768601898963e+00 -9.217253330759e+01 0.0 
0.0 0.0 -4.737718268595e+01 
-1.450840485115e+02 1.951558930246e+01 0.0 
1.951558930246e+01 -3.618942467984e+02 0.0 
0.0 0.0 -1.516934885930e+02 
-9.830008184059e+01 3.212675774843e+01 0.0 
3.212675774843e+01 -2.134087263655e+02 0.0 
0.0 0.0 -9.311264246182e+01 
-7.340066506004e+01 2.697812806166e+01 0.0 
2.697812806166e+01 -1.141574290594e+02 0.0 
0.0 0.0 -5.586742823582e+01 
-7.670056937902e+01 3.209452720860e+01 0.0 
3.209452720860e+01 -1.496996844756e+02 0.0 
0.0 0.0 -6.714610809186e+01 
-3.852256552478e+01 1.213175723454e+01 0.0 
1.213175723454e+01 -1.378965379126e+02 0.0 
0.0 0.0 -5.070940929511e+01 
-3.500264786009e+01 -1.030392542363e+01 0.0 
-1.030392542363e+01 -4.717385479104e+01 0.0 
0.0 0.0 -1.988891822722e+01 
-5.824463855184e+01 2.838752564868e+01 0.0 
2.838752564868e+01 -1.726968078799e+02 0.0 
0.0 0.0 -7.035046036546e+01 
-6.368802913067e+01 3.047564068727e+01 0.0 
3.047564068727e+01 -1.618692491140e+02 0.0 
0.0 0.0 -6.480540190397e+01 
-5.777677213657e+01 2.678415894183e+01 0.0 
2.678415894183e+01 -1.720638202618e+02 0.0 
0.0 0.0 -6.851030376779e+01 
-4.695462375659e+01 3.490661041361e+01 0.0 
3.490661041361e+01 -5.453777280463e+01 0.0 
0.0 0.0 -2.677365807472e+01 
-4.568479223004e+01 2.858739262245e-01 0.0 
2.858739262245e-01 -6.155840273716e+01 0.0 
0.0 0.0 -3.177295849016e+01 
-4.063111552094e+01 -1.099833539672e+01 0.0 
-1.099833539672e+01 -8.486549380647e+01 0.0 
0.0 0.0 -3.333054354498e+01 
-4.618090062880e+01 2.876022597368e+01 0.0 
2.876022597368e+01 -1.231306969764e+02 0.0 
0.0 0.0 -4.731776660445e+01 
-1.620499123554e+02 2.011185053415e+01 0.0 
2.011185053415e+01 -3.794497954958e+02 0.0 
0.0 0.0 -1.620499123554e+02 
-8.795073052181e+01 2.143434376644e+01 0.0 
2.143434376644e+01 -2.640121196565e+02 0.0 
0.0 0.0 -1.056312276392e+02 
-6.298285801641e+01 2.201015500550e+01 0.0 
2.201015500550e+01 -7.266498365151e+01 0.0 
0.0 0.0 -3.989766063868e+01 
-1.508023740163e+01 -8.400205796753e-01 0.0 
-8.400205796753e-01 -5.911920774853e+01 0.0 
0.0 0.0 -2.046999460543e+01 
-6.407581447880e+01 3.347567407435e+01 0.0 
3.347567407435e+01 -1.453546766497e+02 0.0 
0.0 0.0 -5.977907939072e+01 
-5.504019015234e+01 2.465528888368e+01 0.0 
2.465528888368e+01 -1.692810490986e+02 0.0 
0.0 0.0 -6.663726757067e+01 
-7.636676191886e+01 3.253077619581e+01 0.0 
3.253077619581e+01 -1.335408588461e+02 0.0 
0.0 0.0 -6.257228622948e+01 
-1.256729639709e+02 4.128051248014e+01 0.0 
4.128051248014e+01 -2.936266810069e+02 0.0 
0.0 0.0 -1.253898934934e+02 
-6.371972949647e+01 2.933254449704e+01 0.0 
2.933254449704e+01 -8.965027444675e+01 0.0 
0.0 0.0 -4.365608505870e+01 
-7.240979846271e+01 3.439987596151e+01 0.0 
3.439987596151e+01 -1.484884091817e+02 0.0 
0.0 0.0 -6.526399235152e+01 
-8.436849239340e+01 -6.877181753731e+00 0.0 
-6.877181753731e+00 -2.043310697559e+02 0.0 
0.0 0.0 -8.173750554028e+01 
-9.258138376489e+01 2.436299598486e+01 0.0 
2.436299598486e+01 -1.729363331457e+02 0.0 
0.0 0.0 -7.925531507317e+01 
-9.020379706709e+01 1.966729782394e+00 0.0 
1.966729782394e+00 -2.595523485164e+02 0.0 
0.0 0.0 -1.057125087743e+02 
-1.288512689830e+02 4.170706471670e+01 0.0 
4.170706471670e+01 -3.018577325983e+02 0.0 
0.0 0.0 -1.288127004744e+02 
-1.155678788626e+02 3.720473351497e+01 0.0 
3.720473351497e+01 -2.709917173461e+02 0.0 
0.0 0.0 -1.155678788626e+02 
-1.027962552815e+02 2.938596194075e+01 0.0 
2.938596194075e+01 -2.411912623235e+02 0.0 
0.0 0.0 -1.027962552815e+02 
-1.079095726541e+02 3.361139908289e+01 0.0 
3.361139908289e+01 -2.531223361928e+02 0.0 
0.0 0.0 -1.079095726541e+02 
-7.966693332944e+01 3.095919415466e+01 0.0 
3.095919415466e+01 -1.516826258751e+02 0.0 
0.0 0.0 -6.900486776137e+01 
-9.545381989075e+01 2.748500602704e+01 0.0 
2.748500602704e+01 -1.747399985949e+02 0.0 
0.0 0.0 -8.065814554570e+01 
-1.014437765448e+02 3.204742265029e+01 0.0 
3.204742265029e+01 -2.186130186133e+02 0.0 
0.0 0.0 -9.561703854744e+01 
-5.555089312782e+01 3.388703232844e+01 0.0 
3.388703232844e+01 -1.255028807608e+02 0.0 
0.0 0.0 -5.221191656043e+01 
-5.320071641616e+01 3.335410399008e+01 0.0 
3.335410399008e+01 -1.071524074850e+02 0.0 
0.0 0.0 -4.504262143198e+01 
-8.567529898078e+01 -6.494334275930e+00 0.0 
-6.494334275930e+00 -1.932151183330e+02 0.0 
0.0 0.0 -7.823403045806e+01 
-9.901731258510e+01 3.018133395895e+01 0.0 
3.018133395895e+01 -1.911553830369e+02 0.0 
0.0 0.0 -8.665180868661e+01 
-1.336602598816e+02 4.057264768372e+01 0.0 
4.057264768372e+01 -3.179104987451e+02 0.0 
0.0 0.0 -1.350712275880e+02 
-9.390932899669e+01 2.317001583723e+01 0.0 
2.317001583723e+01 -1.792074619889e+02 0.0 
0.0 0.0 -8.153503729567e+01 
-7.826891618244e+01 2.036536527938e+01 0.0 
2.036536527938e+01 -2.464273160577e+02 0.0 
0.0 0.0 -9.967748987119e+01 
-9.722511774963e+01 2.622899015171e+01 0.0 
2.622899015171e+01 -1.812134759684e+02 0.0 
0.0 0.0 -8.313157811540e+01 
-8.719494529738e+01 3.144123493429e+01 0.0 
3.144123493429e+01 -2.339651200380e+02 0.0 
0.0 0.0 -9.594801960061e+01 
-6.267347072724e+01 3.299706903048e+01 0.0 
3.299706903048e+01 -1.615700290795e+02 0.0 
0.0 0.0 -6.636745220221e+01 
-5.307128379423e+01 3.222059605638e+01 0.0 
3.222059605638e+01 -8.939700784235e+01 0.0 
0.0 0.0 -3.795553742317e+01 
-4.387583073308e+01 2.915774203950e+01 0.0 
2.915774203950e+01 -1.097979348061e+02 0.0 
0.0 0.0 -4.205609799739e+01 
-9.440368446500e+01 1.920963069185e+01 0.0 
1.920963069185e+01 -2.079078454522e+02 0.0 
0.0 0.0 -9.029345897515e+01 
-5.262062272279e+01 3.396374991118e+01 0.0 
3.396374991118e+01 -1.249325012299e+02 0.0 
0.0 0.0 -5.177234253361e+01 
-1.208961712802e+02 3.442849239950e+01 0.0 
3.442849239950e+01 -2.926365861567e+02 0.0 
0.0 0.0 -1.236598272311e+02 
-8.195654467824e+01 -7.381646427763e+00 0.0 
-7.381646427763e+00 -1.922036957173e+02 0.0 
0.0 0.0 -7.663099299970e+01 
-5.423140414432e+01 -1.776182559942e+01 0.0 
-1.776182559942e+01 -1.454000429762e+02 0.0 
0.0 0.0 -5.656354804220e+01 
-1.512527073580e+02 1.762035375128e+01 0.0 
1.762035375128e+01 -3.662120726648e+02 0.0 
0.0 0.0 -1.548394340069e+02 
-4.779912142597e+01 3.063799179053e+01 0.0 
3.063799179053e+01 -1.228111232926e+02 0.0 
0.0 0.0 -4.863222765759e+01 
-1.193670133709e+02 3.847103460512e+01 0.0 
3.847103460512e+01 -2.798563645321e+02 0.0 
0.0 0.0 -1.193670133709e+02 
-1.046210105752e+02 3.016888117327e+01 0.0 
3.016888117327e+01 -2.311492340348e+02 0.0 
0.0 0.0 -1.003310733830e+02 
-7.451988165625e+01 3.340976635828e+01 0.0 
3.340976635828e+01 -1.656760701008e+02 0.0 
0.0 0.0 -6.973148135070e+01 
-2.317870041540e+01 -5.797961498916e+00 0.0 
-5.797961498916e+00 -2.778641681084e+01 0.0 
0.0 0.0 -1.294723446262e+01 
-1.268475898324e+02 3.946821345920e+01 0.0 
3.946821345920e+01 -2.973110429423e+02 0.0 
0.0 0.0 -1.268475898324e+02 
-1.483252739878e+02 2.185372842922e+01 0.0 
2.185372842922e+01 -3.591261434996e+02 0.0 
0.0 0.0 -1.518354252462e+02 
-4.801847014590e+01 -1.452931618573e+01 0.0 
-1.452931618573e+01 -1.427857632298e+02 0.0 
0.0 0.0 -5.244490141488e+01 
-8.287630256593e+01 1.874658374844e+01 0.0 
1.874658374844e+01 -2.588014640147e+02 0.0 
0.0 0.0 -1.044241212718e+02 
-1.459471003594e+02 3.262488042250e+01 0.0 
3.262488042250e+01 -3.522933595890e+02 0.0 
0.0 0.0 -1.490721379845e+02 
-1.233059336259e+01 -1.109741849161e+00 0.0 
-1.109741849161e+00 -9.062447440276e+00 0.0 
0.0 0.0 -6.987825383648e+00 
-5.746670459440e+01 3.374385310011e+01 0.0 
3.374385310011e+01 -1.434450581441e+02 0.0 
0.0 0.0 -5.918859986308e+01 
-7.685741277843e+01 3.329738146315e+01 0.0 
3.329738146315e+01 -1.667294694393e+02 0.0 
0.0 0.0 -7.163960986296e+01 
-7.204031913867e+01 3.335764645019e+01 0.0 
3.335764645019e+01 -1.647881840078e+02 0.0 
0.0 0.0 -6.767152563047e+01 
-7.214625487979e+01 3.320883830898e+01 0.0 
3.320883830898e+01 -1.474666164249e+02 0.0 
0.0 0.0 -6.338925791617e+01 
-4.533633223447e+01 3.038100196498e+01 0.0 
3.038100196498e+01 -1.072573307399e+02 0.0 
0.0 0.0 -4.177221388563e+01 
-1.343386406559e+02 3.899635860691e+01 0.0 
3.899635860691e+01 -3.147901615304e+02 0.0 
0.0 0.0 -1.343386406559e+02 
-5.283174544117e+01 1.511728746223e+01 0.0 
1.511728746223e+01 -1.782661559736e+02 0.0 
0.0 0.0 -6.676497685943e+01 
-2.878812685151e+01 4.815580341832e+00 0.0 
4.815580341832e+00 -1.170200192468e+02 0.0 
0.0 0.0 -4.660238924713e+01 
-1.555337111535e+02 5.790947278800e+00 0.0 
5.790947278800e+00 -3.764784518848e+02 0.0 
0.0 0.0 -1.592036489115e+02 
-2.047568123234e+01 -3.236704934261e+00 0.0 
-3.236704934261e+00 -2.621939552249e+01 0.0 
0.0 0.0 -1.119192558365e+01 
-5.832136096955e+01 3.147499475796e+01 0.0 
3.147499475796e+01 -8.901385700747e+01 0.0 
0.0 0.0 -3.996602190439e+01 
-3.885290923651e+01 -2.215566668863e+01 0.0 
-2.215566668863e+01 -9.951614013493e+01 0.0 
0.0 0.0 -3.821289063030e+01 
-6.060051524910e+01 2.664315012025e+01 0.0 
2.664315012025e+01 -6.962304270795e+01 0.0 
0.0 0.0 -3.688740595092e+01 
-1.533456832800e+02 2.414625135429e+01 0.0 
2.414625135429e+01 -3.710267677332e+02 0.0 
0.0 0.0 -1.569117353040e+02 
-1.414271322454e+02 3.702394902187e+01 0.0 
3.702394902187e+01 -3.313299752392e+02 0.0 
0.0 0.0 -1.414271322454e+02 
-7.389253082366e+01 3.070414562257e+01 0.0 
3.070414562257e+01 -1.309142591288e+02 0.0 
0.0 0.0 -6.058794613718e+01 
-3.865201764467e+01 -2.365381142827e+01 0.0 
-2.365381142827e+01 -7.095701543618e+01 0.0 
0.0 0.0 -2.653659319570e+01 
-2.988478359934e+01 9.244634487936e+00 0.0 
9.244634487936e+00 -1.223973689139e+02 0.0 
0.0 0.0 -4.804170076372e+01 
-4.854474489897e+01 -2.523470739567e+01 0.0 
-2.523470739567e+01 -8.842697028929e+01 0.0 
0.0 0.0 -3.518873702310e+01 
-1.307945157495e+02 6.718774772206e+00 0.0 
6.718774772206e+00 -3.333477724526e+02 0.0 
0.0 0.0 -1.388426864606e+02 
-5.392618060442e+01 7.873456426612e+00 0.0 
7.873456426612e+00 -5.094149526178e+01 0.0 
0.0 0.0 -3.106030275986e+01 
-6.742292768539e+01 2.476741418894e+01 0.0 
2.476741418894e+01 -7.773842656291e+01 0.0 
0.0 0.0 -4.314840627449e+01 
-1.475289418372e+02 3.414550364259e+01 0.0 
3.414550364259e+01 -3.455675309535e+02 0.0 
0.0 0.0 -1.475289418372e+02 
-5.020263504553e+01 5.745804042151e+00 0.0 
5.745804042151e+00 -4.900542807256e+01 0.0 
0.0 0.0 -2.936241893543e+01 
-1.085028666135e+02 2.946544874371e+01 0.0 
2.946544874371e+01 -2.418635985155e+02 0.0 
0.0 0.0 -1.047099395387e+02 
-9.164406148454e+01 2.930195450801e+01 0.0 
2.930195450801e+01 -2.489650205328e+02 0.0 
0.0 0.0 -1.017827246052e+02 
-6.121684415576e+01 5.885301434658e+00 0.0 
5.885301434658e+00 -8.058253255388e+01 0.0 
0.0 0.0 -4.213981301289e+01 
-4.605689061373e+01 3.390390339632e+01 0.0 
3.390390339632e+01 -8.589548769641e+01 0.0 
0.0 0.0 -3.758653871724e+01 
-8.204408188358e+01 1.839144734278e+01 0.0 
1.839144734278e+01 -2.588022524692e+02 0.0 
0.0 0.0 -1.061598118381e+02 
-3.546252180714e+01 2.063695413114e+01 0.0 
2.063695413114e+01 -1.071154091723e+02 0.0 
0.0 0.0 -3.723690230659e+01 
-1.525062200397e+02 3.046378533866e+01 0.0 
3.046378533866e+01 -3.571811800926e+02 0.0 
0.0 0.0 -1.525062200397e+02 
-1.117118692289e+02 3.548147502262e+01 0.0 
3.548147502262e+01 -2.619943615341e+02 0.0 
0.0 0.0 -1.117118692289e+02 
-1.053051378038e+02 3.165875341286e+01 0.0 
3.165875341286e+01 -2.470453215422e+02 0.0 
0.0 0.0 -1.053051378038e+02 
-9.735842938366e+01 -5.043009898079e-01 0.0 
-5.043009898079e-01 -2.625636002419e+02 0.0 
0.0 0.0 -1.086034014787e+02 
-8.165215308596e+01 -5.959595762868e+00 0.0 
-5.959595762868e+00 -1.809416541409e+02 0.0 
0.0 0.0 -7.261159337565e+01 
-6.093554220661e+01 2.912815508919e+01 0.0 
2.912815508919e+01 -1.602229856616e+02 0.0 
0.0 0.0 -6.427340978108e+01 
-9.481523592302e+01 1.681419343349e+00 0.0 
1.681419343349e+00 -2.681087105554e+02 0.0 
0.0 0.0 -1.084771839435e+02 
-1.565930052198e+02 2.658502440190e+01 0.0 
2.658502440190e+01 -3.667170121795e+02 0.0 
0.0 0.0 -1.565930052198e+02 
-4.239950310351e+01 2.455040672334e+01 0.0 
2.455040672334e+01 -1.193692572549e+02 0.0 
0.0 0.0 -4.310875672470e+01 
-4.880950030076e+01 -5.136954096287e+00 0.0 
-5.136954096287e+00 -1.663961521421e+02 0.0 
0.0 0.0 -6.113355389866e+01 
-5.243056527504e+01 -8.240107287805e+00 0.0 
-8.240107287805e+00 -1.707021039555e+02 0.0 
0.0 0.0 -6.425148550925e+01 
-6.420644180707e+01 5.927237964629e+00 0.0 
5.927237964629e+00 -9.123079161146e+01 0.0 
0.0 0.0 -4.623117002556e+01 
-1.583380046907e+02 1.766360928277e+01 0.0 
1.766360928277e+01 -3.814496744503e+02 0.0 
0.0 0.0 -1.615363037423e+02 
-5.056484815890e+01 -2.540517191301e+01 0.0 
-2.540517191301e+01 -6.360789678963e+01 0.0 
0.0 0.0 -2.852479835312e+01 
-1.604169203799e+02 2.215780427498e+01 0.0 
2.215780427498e+01 -3.756394808865e+02 0.0 
0.0 0.0 -1.604169203799e+02 
-5.189655554471e+01 -1.231433404584e+01 0.0 
-1.231433404584e+01 -1.592716413129e+02 0.0 
0.0 0.0 -6.016730114440e+01 
-1.233346404996e+02 3.929333486117e+01 0.0 
3.929333486117e+01 -2.891141611658e+02 0.0 
0.0 0.0 -1.233346404996e+02 
-1.038549327164e+02 3.478653407051e+01 0.0 
3.478653407051e+01 -2.203019036528e+02 0.0 
0.0 0.0 -9.684705091076e+01 
-1.342936847041e+01 1.888192325359e-01 0.0 
1.888192325359e-01 -9.332064771245e+00 0.0 
0.0 0.0 -5.546422684482e+00 
-5.883780287642e+01 3.267472168285e+01 0.0 
3.267472168285e+01 -1.604852029237e+02 0.0 
0.0 0.0 -6.572702152216e+01 
-9.518211409483e+01 2.215846596084e+01 0.0 
2.215846596084e+01 -1.743745484860e+02 0.0 
0.0 0.0 -8.046699877424e+01 
-1.307516509318e+02 3.949074422287e+01 0.0 
3.949074422287e+01 -3.064205188408e+02 0.0 
0.0 0.0 -1.307516509318e+02 
-7.907550692922e+01 3.376839849919e+01 0.0 
3.376839849919e+01 -1.519602456136e+02 0.0 
0.0 0.0 -6.891072576284e+01 
-9.605592875058e+01 2.802825614157e+01 0.0 
2.802825614157e+01 -2.631687816566e+02 0.0 
0.0 0.0 -1.073674131222e+02 
-4.410151852764e+01 3.143397337649e+01 0.0 
3.143397337649e+01 -9.405525750171e+01 0.0 
0.0 0.0 -3.775713765758e+01 
-1.383415137528e+02 1.945786796143e+01 0.0 
1.945786796143e+01 -3.465289395296e+02 0.0 
0.0 0.0 -1.450611359847e+02 
-5.497153769767e+01 -1.327394547196e+01 0.0 
-1.327394547196e+01 -1.623888978716e+02 0.0 
0.0 0.0 -6.331887253086e+01 
-5.744963641521e+01 -1.207928850611e+01 0.0 
-1.207928850611e+01 -1.731402083396e+02 0.0 
0.0 0.0 -6.834787120298e+01 
-5.190562546540e+01 -2.765167796363e+01 0.0 
-2.765167796363e+01 -4.832192736895e+01 0.0 
0.0 0.0 -2.749234715800e+01 
-1.379126254054e+02 3.815499897683e+01 0.0 
3.815499897683e+01 -3.231294592792e+02 0.0 
0.0 0.0 -1.379126254054e+02 
-3.753915694907e+01 1.782955916767e+01 0.0 
1.782955916767e+01 -1.211549500892e+02 0.0 
0.0 0.0 -4.235278604439e+01 
-1.223346257960e+02 1.268268978694e+01 0.0 
1.268268978694e+01 -3.249624262199e+02 0.0 
0.0 0.0 -1.337891156048e+02 
-5.934112133530e+01 6.677139234820e+00 0.0 
6.677139234820e+00 -7.094697925907e+01 0.0 
0.0 0.0 -3.868643017831e+01 
-5.732463982389e+01 -1.886350965647e+01 0.0 
-1.886350965647e+01 -1.369431737202e+02 0.0 
0.0 0.0 -5.598892246996e+01 
-5.335666496469e+01 -9.737870853085e+00 0.0 
-9.737870853085e+00 -1.680983211107e+02 0.0 
0.0 0.0 -6.431362028175e+01 
-7.530294419498e+01 3.432184426393e+01 0.0 
3.432184426393e+01 -1.500231938608e+02 0.0 
0.0 0.0 -6.719784141674e+01 
-1.501568493078e+02 3.240766171301e+01 0.0 
3.240766171301e+01 -3.516993150515e+02 0.0 
0.0 0.0 -1.501568493078e+02 
-8.345547753425e+01 -6.211408974697e+00 0.0 
-6.211408974697e+00 -1.883221728237e+02 0.0 
0.0 0.0 -7.530345209788e+01 
-1.042928857108e+02 5.944639803210e+00 0.0 
5.944639803210e+00 -2.895761957041e+02 0.0 
0.0 0.0 -1.183413141547e+02 
-7.134008058663e+01 3.249000993469e+01 0.0 
3.249000993469e+01 -1.808438641759e+02 0.0 
0.0 0.0 -7.355763849117e+01 
-8.640175464807e+01 6.618474717501e+00 0.0 
6.618474717501e+00 -2.619877146373e+02 0.0 
0.0 0.0 -1.093780444815e+02 
-5.339904731455e+01 -4.543633897933e+00 0.0 
-4.543633897933e+00 -1.761567051734e+02 0.0 
0.0 0.0 -6.679299745305e+01 
-9.746503019862e+01 2.597699514931e+00 0.0 
2.597699514931e+00 -2.720659357356e+02 0.0 
0.0 0.0 -1.125229071858e+02 
-6.644586913339e+01 3.166647501514e+01 0.0 
3.166647501514e+01 -1.633197823932e+02 0.0 
0.0 0.0 -6.583600088810e+01 
-8.769977641988e+01 3.370387506188e+01 0.0 
3.370387506188e+01 -2.201400970769e+02 0.0 
0.0 0.0 -9.195196204903e+01 
-9.282472022287e+01 1.921613222222e+01 0.0 
1.921613222222e+01 -2.755005819974e+02 0.0 
0.0 0.0 -1.119845607243e+02 
-6.802271253021e+01 3.217254728901e+01 0.0 
3.217254728901e+01 -1.794488854715e+02 0.0 
0.0 0.0 -7.339101601109e+01 
-7.945346743598e+01 -8.028246190449e+00 0.0 
-8.028246190449e+00 -1.962549379587e+02 0.0 
0.0 0.0 -7.877419873782e+01 
-4.426170518648e+01 2.663313039338e+01 0.0 
2.663313039338e+01 -1.195785436360e+02 0.0 
0.0 0.0 -4.484303299453e+01 
-7.898608006492e+01 -7.464294885539e+00 0.0 
-7.464294885539e+00 -1.799062256579e+02 0.0 
0.0 0.0 -7.147707834455e+01 
-9.164949649013e+01 3.016799642397e+01 0.0 
3.016799642397e+01 -2.491853929268e+02 0.0 
0.0 0.0 -1.018504668251e+02 
-7.146902809398e+01 1.542416936480e+01 0.0 
1.542416936480e+01 -2.384766705936e+02 0.0 
0.0 0.0 -9.830643146323e+01 
-1.551029975019e+02 2.207453007747e+01 0.0 
2.207453007747e+01 -3.749040000233e+02 0.0 
0.0 0.0 -1.586020992576e+02 
-9.880806699910e+01 2.508459168254e+01 0.0 
2.508459168254e+01 -1.882805750794e+02 0.0 
0.0 0.0 -8.572659262355e+01 
-5.172910998942e+01 -1.584495112213e+01 0.0 
-1.584495112213e+01 -1.214252698406e+02 0.0 
0.0 0.0 -4.830234427792e+01 
-1.587044344026e+02 2.427605112265e+01 0.0 
2.427605112265e+01 -3.716436802727e+02 0.0 
0.0 0.0 -1.587044344026e+02 
-1.434177086674e+02 2.175460874980e+01 0.0 
2.175460874980e+01 -3.584006501420e+02 0.0 
0.0 0.0 -1.501455076428e+02 
-6.325013953372e+01 2.766111244643e+01 0.0 
2.766111244643e+01 -1.898275781810e+02 0.0 
0.0 0.0 -7.780272832098e+01 
-3.351853430218e+01 -1.470528577376e+01 0.0 
-1.470528577376e+01 -3.506108810499e+01 0.0 
0.0 0.0 -1.432254572632e+01 
-1.592978738145e+02 1.559580717908e+01 0.0 
1.559580717908e+01 -3.838005909335e+02 0.0 
0.0 0.0 -1.625295394244e+02 
-1.006000150568e+02 2.886973731383e+01 0.0 
2.886973731383e+01 -1.964558335731e+02 0.0 
0.0 0.0 -8.871675458896e+01 
-5.138111648520e+01 -1.535185265082e+01 0.0 
-1.535185265082e+01 -1.457207760022e+02 0.0 
0.0 0.0 -5.509695860861e+01 
-1.633818661373e+02 1.803082620505e+01 0.0 
1.803082620505e+01 -3.825576876538e+02 0.0 
0.0 0.0 -1.633818661373e+02 
-1.026330628910e+02 3.065030679668e+00 0.0 
3.065030679668e+00 -2.804230980734e+02 0.0 
0.0 0.0 -1.149003914089e+02 
-5.609093194769e+01 3.309760255388e+01 0.0 
3.309760255388e+01 -1.081727928515e+02 0.0 
0.0 0.0 -4.534006262788e+01 
-6.983733365548e+01 2.379959008923e+01 0.0 
2.379959008923e+01 -9.519836420385e+01 0.0 
0.0 0.0 -4.911070935780e+01 
-6.843650076756e+01 1.622912326264e+01 0.0 
1.622912326264e+01 -2.238989848096e+02 0.0 
0.0 0.0 -9.167842476747e+01 
-9.125926077810e+01 -3.889511786665e+00 0.0 
-3.889511786665e+00 -2.443707954202e+02 0.0 
0.0 0.0 -1.015648985305e+02 
-8.922270759206e+01 9.920816947744e+00 0.0 
9.920816947744e+00 -2.691487678344e+02 0.0 
0.0 0.0 -1.113975257420e+02 
-8.377732733071e+01 2.495024253994e+01 0.0 
2.495024253994e+01 -1.299410014920e+02 0.0 
0.0 0.0 -6.371549864681e+01 
-6.171606449102e+01 3.259390403432e+01 0.0 
3.259390403432e+01 -1.087085240658e+02 0.0 
0.0 0.0 -4.659129494772e+01 
-9.774943227619e+01 2.158812862017e+01 0.0 
2.158812862017e+01 -2.809139153305e+02 0.0 
0.0 0.0 -1.133286308572e+02 
-5.305467057819e+01 9.451674594972e-01 0.0 
9.451674594972e-01 -7.869887007375e+01 0.0 
0.0 0.0 -3.912606219558e+01 
-8.451318687750e+01 -8.585933196592e+00 0.0 
-8.585933196592e+00 -1.974335290365e+02 0.0 
0.0 0.0 -8.112790024926e+01 
-8.756201437967e+01 1.655294456488e+01 0.0 
1.655294456488e+01 -2.697298053605e+02 0.0 
0.0 0.0 -1.102334183852e+02 
-6.158308913211e+01 -1.659204778617e+01 0.0 
-1.659204778617e+01 -1.670259486654e+02 0.0 
0.0 0.0 -6.787987777172e+01 
-1.065357048256e+02 -1.384973754367e+00 0.0 
-1.384973754367e+00 -2.707684945546e+02 0.0 
0.0 0.0 -1.113797902229e+02 
-1.618684440987e+01 -1.681716676859e+00 0.0 
-1.681716676859e+00 -9.036904921311e+00 0.0 
0.0 0.0 -6.395145206806e+00 
-4.592806690300e+01 2.856330956824e+01 0.0 
2.856330956824e+01 -1.204253334055e+02 0.0 
0.0 0.0 -4.682683101401e+01 
-5.756336907379e+01 -1.572050216617e+01 0.0 
-1.572050216617e+01 -1.620555226580e+02 0.0 
0.0 0.0 -6.451439801134e+01 
-8.895967850441e+01 -5.866195701348e+00 0.0 
-5.866195701348e+00 -2.124335315873e+02 0.0 
0.0 0.0 -8.508933372942e+01 
-6.606215874122e+01 2.956989585472e+01 0.0 
2.956989585472e+01 -1.930514227403e+02 0.0 
0.0 0.0 -7.895619294287e+01 
-9.747153135078e+01 3.079521204395e+00 0.0 
3.079521204395e+00 -2.783890591681e+02 0.0 
0.0 0.0 -1.123581771557e+02 
-6.309529726031e+01 6.406151805356e+00 0.0 
6.406151805356e+00 -8.316962867061e+01 0.0 
0.0 0.0 -4.347947777928e+01 
-5.737334251729e+01 -1.796601993093e+01 0.0 
-1.796601993093e+01 -1.486904396229e+02 0.0 
0.0 0.0 -5.960111423046e+01 
-1.644928589317e+02 1.607623346835e+01 0.0 
1.607623346835e+01 -3.851500041740e+02 0.0 
0.0 0.0 -1.644928589317e+02 
-7.426125132483e+01 3.433124006225e+01 0.0 
3.433124006225e+01 -1.668127578304e+02 0.0 
0.0 0.0 -7.172424178370e+01 
-9.323402359412e+01 -4.981469908142e+00 0.0 
-4.981469908142e+00 -2.204593063129e+02 0.0 
0.0 0.0 -8.934007857880e+01 
-7.160041416581e+01 3.369927394566e+01 0.0 
3.369927394566e+01 -1.655826475183e+02 0.0 
0.0 0.0 -6.987103601050e+01 
-9.319921610754e+01 -5.216400790185e+00 0.0 
-5.216400790185e+00 -2.134487104361e+02 0.0 
0.0 0.0 -8.627472260280e+01 
-1.775265389123e+01 -1.618147605278e+00 0.0 
-1.618147605278e+00 -9.330204120455e+00 0.0 
0.0 0.0 -8.699103382755e+00 
-7.416622553955e+01 2.573947192486e+01 0.0 
2.573947192486e+01 -1.013692285760e+02 0.0 
0.0 0.0 -5.226063623467e+01 
-8.096073043994e+01 -3.351508646632e+00 0.0 
-3.351508646632e+00 -1.736582748544e+02 0.0 
0.0 0.0 -7.076403224084e+01 
-6.112929834520e+00 -5.409908352356e-01 0.0 
-5.409908352356e-01 -8.790033418155e+00 0.0 
0.0 0.0 -2.747379424756e+00 
-9.070329883636e+01 -5.256898149280e+00 0.0 
-5.256898149280e+00 -2.084835424690e+02 0.0 
0.0 0.0 -8.445146631103e+01 
-1.067314104506e+02 4.825945374567e+00 0.0 
4.825945374567e+00 -2.967465143428e+02 0.0 
0.0 0.0 -1.206433774380e+02 
-7.907233306152e+01 4.837701499593e+00 0.0 
4.837701499593e+00 -1.559228821428e+02 0.0 
0.0 0.0 -7.009856456130e+01 
-7.982467522652e+01 7.003521265938e+00 0.0 
7.003521265938e+00 -2.529381535781e+02 0.0 
0.0 0.0 -1.050819038075e+02 
-8.241080631346e+01 6.804753573152e+00 0.0 
6.804753573152e+00 -2.595896635357e+02 0.0 
0.0 0.0 -1.072996519037e+02 
-6.301428059333e+01 2.240585381296e+01 0.0 
2.240585381296e+01 -5.643316583038e+01 0.0 
0.0 0.0 -3.492671942513e+01 
-4.115837730898e+01 2.772385187055e+00 0.0 
2.772385187055e+00 -2.835294802008e+01 0.0 
0.0 0.0 -2.045339759872e+01 
-9.887926426377e+01 2.419918342645e+01 0.0 
2.419918342645e+01 -2.160755992484e+02 0.0 
0.0 0.0 -9.408645905365e+01 
-6.907344016666e+01 3.278443592475e+01 0.0 
3.278443592475e+01 -1.645042553676e+02 0.0 
0.0 0.0 -6.798079230888e+01 
-1.087745626854e+01 4.362894621103e-02 0.0 
4.362894621103e-02 -7.197434247150e+00 0.0 
0.0 0.0 -4.345189776920e+00 
-3.235315911535e+01 -7.181540909482e+00 0.0 
-7.181540909482e+00 -7.078865626779e+01 0.0 
0.0 0.0 -2.658178696932e+01 
-2.891556951248e+01 -8.903407590685e+00 0.0 
-8.903407590685e+00 -2.969661546871e+01 0.0 
0.0 0.0 -1.397473890959e+01 
-5.615508707338e+01 -1.512697081642e+01 0.0 
-1.512697081642e+01 -1.274700100397e+02 0.0 
0.0 0.0 -5.201590842386e+01 
-1.046103220549e+02 3.574427310001e+01 0.0 
3.574427310001e+01 -2.441059956029e+02 0.0 
0.0 0.0 -1.042148952973e+02 
-8.159246844530e+01 6.819063966068e+00 0.0 
6.819063966068e+00 -1.573348816547e+02 0.0 
0.0 0.0 -7.127820502999e+01 
-1.240877931687e+02 3.950335014097e+00 0.0 
3.950335014097e+00 -3.220067985647e+02 0.0 
0.0 0.0 -1.334283775200e+02 
-6.304767656440e+01 -1.054585503766e+01 0.0 
-1.054585503766e+01 -1.431097631203e+02 0.0 
0.0 0.0 -5.765825880924e+01 
-1.117374421332e+02 -6.821135643753e-01 0.0 
-6.821135643753e-01 -2.719708991651e+02 0.0 
0.0 0.0 -1.121839426949e+02 
-1.262743742712e+02 1.090525582671e+01 0.0 
1.090525582671e+01 -3.332038703434e+02 0.0 
0.0 0.0 -1.374434733844e+02 
-3.322193173363e+01 3.520805058658e+00 0.0 
3.520805058658e+00 -1.256479814981e+02 0.0 
0.0 0.0 -4.767022526421e+01 
-8.090782995281e+01 -8.704629675254e-01 0.0 
-8.704629675254e-01 -1.740734714234e+02 0.0 
0.0 0.0 -7.115591195897e+01 
-6.685890482663e+01 -2.372272487287e+00 0.0 
-2.372272487287e+00 -1.422032312425e+02 0.0 
0.0 0.0 -5.752463273341e+01 
-1.603737559005e+02 1.349577691709e+01 0.0 
1.349577691709e+01 -3.856542223845e+02 0.0 
0.0 0.0 -1.634083934855e+02 
-1.654128667285e+02 1.410942440917e+01 0.0 
1.410942440917e+01 -3.872966890332e+02 0.0 
0.0 0.0 -1.654128667285e+02 
-8.929320159628e+01 -9.327415142248e-01 0.0 
-9.327415142248e-01 -1.935811680233e+02 0.0 
0.0 0.0 -7.952902047530e+01 
-9.707709397475e+01 -3.948332737163e+00 0.0 
-3.948332737163e+00 -2.214750542731e+02 0.0 
0.0 0.0 -8.999968086371e+01 
-9.006184896871e+01 -7.113309963474e-01 0.0 
-7.113309963474e-01 -2.495419702640e+02 0.0 
0.0 0.0 -1.014218002890e+02 
-1.310093040441e+02 1.341613568007e+01 0.0 
1.341613568007e+01 -3.412225180038e+02 0.0 
0.0 0.0 -1.412695466144e+02 
-3.753365001610e+01 -1.040310652166e+01 0.0 
-1.040310652166e+01 -7.936923515869e+01 0.0 
0.0 0.0 -3.188628520868e+01 
-1.214010044671e+02 8.606746691728e+00 0.0 
8.606746691728e+00 -3.244225132073e+02 0.0 
0.0 0.0 -1.333470553023e+02 
-1.492632139452e+01 -1.023807555906e+00 0.0 
-1.023807555906e+00 -4.325974855436e+01 0.0 
0.0 0.0 -1.466449416652e+01 
-8.969216991628e+01 -5.041328779289e+00 0.0 
-5.041328779289e+00 -2.013604557033e+02 0.0 
0.0 0.0 -8.084266235801e+01 
-9.606558133873e+01 -5.037086718842e+00 0.0 
-5.037086718842e+00 -2.253960558486e+02 0.0 
0.0 0.0 -9.156950314881e+01 
-7.432352078008e+00 -5.494285227163e-01 0.0 
-5.494285227163e-01 -2.545420295670e+01 0.0 
0.0 0.0 -7.281868481226e+00 
-8.512066402335e+01 -2.176958216118e+00 0.0 
-2.176958216118e+00 -1.832827495244e+02 0.0 
0.0 0.0 -7.521774833042e+01 
-9.457404582430e+01 2.233355300195e+01 0.0 
2.233355300195e+01 -1.858062016096e+02 0.0 
0.0 0.0 -8.371407423016e+01 
-1.023183848473e+01 -1.641172593088e-02 0.0 
-1.641172593088e-02 -7.518488130372e+00 0.0 
0.0 0.0 -4.239647197888e+00 
-4.435846873605e+01 4.397853481858e+00 0.0 
4.397853481858e+00 -2.911885383842e+01 0.0 
0.0 0.0 -2.164319677234e+01 
-4.405361861960e+01 6.144183011908e+00 0.0 
6.144183011908e+00 -3.200689393759e+01 0.0 
0.0 0.0 -2.241815376716e+01 
-9.247193258898e+01 1.308931990937e+01 0.0 
1.308931990937e+01 -2.758970935851e+02 0.0 
0.0 0.0 -1.129427602282e+02 
-6.552500503921e+01 1.767009175715e-01 0.0 
1.767009175715e-01 -1.421562765347e+02 0.0 
0.0 0.0 -5.757533660834e+01 
-5.396920967548e+01 -1.530364407380e+01 0.0 
-1.530364407380e+01 -1.488017025930e+02 0.0 
0.0 0.0 -5.832437715222e+01 
-4.301767589430e+01 2.995233327000e+01 0.0 
2.995233327000e+01 -8.651973195675e+01 0.0 
0.0 0.0 -3.410130377435e+01 
-1.398736569981e+02 4.602930047381e+00 0.0 
4.602930047381e+00 -3.484729754032e+02 0.0 
0.0 0.0 -1.461039897204e+02 
-1.276948012100e+02 3.647150817279e+01 0.0 
3.647150817279e+01 -3.036436817980e+02 0.0 
0.0 0.0 -1.290015449024e+02 
-8.170672555635e+01 9.662597873933e+00 0.0 
9.662597873933e+00 -1.457945903010e+02 0.0 
0.0 0.0 -6.785039475721e+01 
-4.625396772904e+01 3.060906170661e+01 0.0 
3.060906170661e+01 -8.607343544021e+01 0.0 
0.0 0.0 -3.651158745795e+01 
-2.781067671921e+01 -7.661745550317e+00 0.0 
-7.661745550317e+00 -4.933880863154e+01 0.0 
0.0 0.0 -2.038254302051e+01 
-6.050426032446e+01 3.330102620379e+01 0.0 
3.330102620379e+01 -8.922291576640e+01 0.0 
0.0 0.0 -4.165889584042e+01 
-3.662670607767e+01 7.185627509833e-01 0.0 
7.185627509833e-01 -2.895727246860e+01 0.0 
0.0 0.0 -1.927519356388e+01 
-3.414985039549e+01 7.092900591322e-01 0.0 
7.092900591322e-01 -2.873804726497e+01 0.0 
0.0 0.0 -1.846636929814e+01 
-5.436033998852e+00 -4.655374652935e-01 0.0 
-4.655374652935e-01 -9.147650840382e+00 0.0 
0.0 0.0 -2.566930359015e+00 
-7.784044008301e+00 -7.383884265580e-01 0.0 
-7.383884265580e-01 -2.531337346030e+01 0.0 
0.0 0.0 -7.291735543290e+00 
-9.467811968766e+00 -3.576598107495e-01 0.0 
-3.576598107495e-01 -4.174181257887e+01 0.0 
0.0 0.0 -1.316796787042e+01 
-4.860660485893e+01 -1.101910282125e+01 0.0 
-1.101910282125e+01 -1.088194931039e+02 0.0 
0.0 0.0 -4.314408961385e+01 
-1.120616727218e+01 -1.400009170906e-01 0.0 
-1.400009170906e-01 -2.604404454933e+01 0.0 
0.0 0.0 -8.570061054702e+00 
-9.278050810976e+01 -1.937976692704e+00 0.0 
-1.937976692704e+00 -2.039082667210e+02 0.0 
0.0 0.0 -8.392039624793e+01 
-5.269999083707e+01 -1.416109585337e+01 0.0 
-1.416109585337e+01 -5.981109650179e+01 0.0 
0.0 0.0 -3.432166156681e+01 
-5.732875484006e+01 -1.106130933322e+01 0.0 
-1.106130933322e+01 -1.297905921895e+02 0.0 
0.0 0.0 -5.158486755668e+01 
-5.862218447364e+01 1.052797471719e+00 0.0 
1.052797471719e+00 -9.563776093873e+01 0.0 
0.0 0.0 -4.587798362371e+01 
-3.777230214365e+01 2.201968150507e+00 0.0 
2.201968150507e+00 -2.919131234699e+01 0.0 
0.0 0.0 -1.968908434719e+01 
-1.083497782032e+02 3.634305780041e+01 0.0 
3.634305780041e+01 -2.467800381355e+02 0.0 
0.0 0.0 -1.061389449016e+02 
-1.031220161506e+02 2.870031529723e+00 0.0 
2.870031529723e+00 -2.868006075743e+02 0.0 
0.0 0.0 -1.165767871175e+02 
-5.166149599135e+01 4.443409421264e-01 0.0 
4.443409421264e-01 -7.771792376883e+01 0.0 
0.0 0.0 -3.841382592805e+01 
-7.112456326703e+01 -1.277691252526e+00 0.0 
-1.277691252526e+00 -1.520178490622e+02 0.0 
0.0 0.0 -6.183961050425e+01 
-1.349357036209e+01 -3.440264786980e-01 0.0 
-3.440264786980e-01 -4.295796231353e+01 0.0 
0.0 0.0 -1.370558673679e+01 
-9.242769862139e+01 1.262724543141e+01 0.0 
1.262724543141e+01 -2.169979634499e+02 0.0 
0.0 0.0 -9.242769862139e+01 
-9.892583653394e+01 1.403358347486e+01 0.0 
1.403358347486e+01 -2.203950778909e+02 0.0 
0.0 0.0 -9.539627432747e+01 
-5.536249092383e+01 3.380480348902e+00 0.0 
3.380480348902e+00 -6.889405661776e+01 0.0 
0.0 0.0 -3.687696426248e+01 
-3.770157022598e+01 1.073476116613e+00 0.0 
1.073476116613e+00 -2.853751801231e+01 0.0 
0.0 0.0 -1.947172647149e+01 
-7.134940127020e+01 -1.201902483095e+00 0.0 
-1.201902483095e+00 -1.546143918180e+02 0.0 
0.0 0.0 -6.280833167807e+01 
-9.701046369054e+01 9.820019645692e+00 0.0 
9.820019645692e+00 -2.174891175173e+02 0.0 
0.0 0.0 -9.394987436236e+01 
-5.320456013470e+01 -1.077352464448e+01 0.0 
-1.077352464448e+01 -1.215218648552e+02 0.0 
0.0 0.0 -4.838304841015e+01 
-4.031966974422e+01 3.717397050762e+00 0.0 
3.717397050762e+00 -3.004339684662e+01 0.0 
0.0 0.0 -2.070891997725e+01 
-3.958170485478e+01 1.712234060941e+00 0.0 
1.712234060941e+00 -2.837218085678e+01 0.0 
0.0 0.0 -1.998616571347e+01 
-5.853200527701e+01 2.875233011506e+01 0.0 
2.875233011506e+01 -6.890707228182e+01 0.0 
0.0 0.0 -3.527537804815e+01 
-1.008029445236e+02 2.714662894563e+01 0.0 
2.714662894563e+01 -2.365402038883e+02 0.0 
0.0 0.0 -1.008029445235e+02 
-9.899664360246e+01 1.174381119237e+01 0.0 
1.174381119237e+01 -2.194324711368e+02 0.0 
0.0 0.0 -9.512873442179e+01 
-1.152952435482e+01 -3.102308674947e-01 0.0 
-3.102308674947e-01 -2.580137406110e+01 0.0 
0.0 0.0 -8.567700119209e+00 
-5.342857863269e+00 -2.716524130117e-01 0.0 
-2.716524130117e-01 -9.297153509990e+00 0.0 
0.0 0.0 -2.623498918422e+00 
-2.947330781215e+01 -7.820255946357e+00 0.0 
-7.820255946357e+00 -5.882727382835e+01 0.0 
0.0 0.0 -2.386385448932e+01 
-9.101109000344e+01 -5.137761348429e+00 0.0 
-5.137761348429e+00 -2.242507330716e+02 0.0 
0.0 0.0 -8.998875262278e+01 
-1.505976700583e+02 -3.840734442073e-01 0.0 
-3.840734442073e-01 -3.619107770290e+02 0.0 
0.0 0.0 -1.533525341262e+02 
-1.067547027303e+02 -2.353694277287e+01 0.0 
-2.353694277287e+01 -7.599785585388e+01 0.0 
0.0 0.0 -5.510180940967e+01 
-7.312750795372e+01 1.755534822006e+00 0.0 
1.755534822006e+00 -1.393723031251e+02 0.0 
0.0 0.0 -6.334994332366e+01 
-3.434481071944e+01 -1.261716024601e+01 0.0 
-1.261716024601e+01 -1.184981442813e+01 0.0 
0.0 0.0 -1.385271175557e+01 
-9.161021840246e+01 8.779688570114e+00 0.0 
8.779688570114e+00 -2.773937169158e+02 0.0 
0.0 0.0 -1.129150359649e+02 
-2.586750974220e+01 -6.548928638293e+00 0.0 
-6.548928638293e+00 -1.359011936193e+01 0.0 
0.0 0.0 -1.072824816763e+01 
-5.877166879037e+01 -2.673103396736e+01 0.0 
-2.673103396736e+01 -3.411516569171e+01 0.0 
0.0 0.0 -2.815834387537e+01 
-8.840312609230e+01 6.049430989031e+00 0.0 
6.049430989031e+00 -2.693509883346e+02 0.0 
0.0 0.0 -1.100409323813e+02 
-1.450012259818e+02 1.248511950799e+00 0.0 
1.248511950799e+00 -3.523970970087e+02 0.0 
0.0 0.0 -1.488194968972e+02 
-5.912158322822e+01 1.438510787346e+00 0.0 
1.438510787346e+00 -9.479330882826e+01 0.0 
0.0 0.0 -4.577446761694e+01 
-6.281925643962e+01 3.391308237837e+01 0.0 
3.391308237837e+01 -1.087869835763e+02 0.0 
0.0 0.0 -4.832464789964e+01 
-7.067473468308e+00 -2.494449619948e-01 0.0 
-2.494449619948e-01 -2.536651694458e+01 0.0 
0.0 0.0 -7.232814230271e+00 
-1.151559710436e+02 1.149146447270e-02 0.0 
1.149146447270e-02 -2.799079439648e+02 0.0 
0.0 0.0 -1.160034186418e+02 
-9.046504126732e+01 3.895616921305e+00 0.0 
3.895616921305e+00 -2.124184296237e+02 0.0 
0.0 0.0 -9.046504126732e+01 
-9.540891367511e+01 5.081098020564e+00 0.0 
5.081098020564e+00 -2.153074336107e+02 0.0 
0.0 0.0 -9.281490418575e+01 
-3.601643276959e+01 1.295248037303e+00 0.0 
1.295248037303e+00 -2.877779776457e+01 0.0 
0.0 0.0 -1.903826916025e+01 
-9.563544244823e+01 1.161596554102e+01 0.0 
1.161596554102e+01 -2.849422937176e+02 0.0 
0.0 0.0 -1.157438060919e+02 
-9.201448023133e+01 1.032307580190e+01 0.0 
1.032307580190e+01 -2.160337872064e+02 0.0 
0.0 0.0 -9.201448023133e+01 
-9.682388673931e+01 2.899893127569e+01 0.0 
2.899893127569e+01 -2.636964336410e+02 0.0 
0.0 0.0 -1.077560961141e+02 
-1.247604656242e+01 -3.316319260399e-01 0.0 
-3.316319260399e-01 -4.163312941048e+01 0.0 
0.0 0.0 -1.291989906213e+01 
-1.084360386129e+01 -5.082366565476e-02 0.0 
-5.082366565476e-02 -2.580986577080e+01 0.0 
0.0 0.0 -8.427788280014e+00 
-6.685402216904e+00 -5.803664307645e-02 0.0 
-5.803664307645e-02 -2.468802960292e+01 0.0 
0.0 0.0 -7.089265494397e+00 
-8.083926399286e+01 -1.189307098986e+00 0.0 
-1.189307098986e+00 -1.728492507550e+02 0.0 
0.0 0.0 -7.082645292031e+01 
-1.654730455181e+02 2.680817802167e+00 0.0 
2.680817802167e+00 -3.916314286372e+02 0.0 
0.0 0.0 -1.667313422466e+02 
-8.794752305603e+01 1.185110044913e+00 0.0 
1.185110044913e+00 -1.916442373057e+02 0.0 
0.0 0.0 -8.347752810852e+01 
-4.771666752259e+00 7.116076543748e-02 0.0 
7.116076543748e-02 -9.247458230515e+00 0.0 
0.0 0.0 -2.393814875355e+00 
-9.355795068502e+01 1.226978175397e-01 0.0 
1.226978175397e-01 -2.041922401544e+02 0.0 
0.0 0.0 -8.420662532781e+01 
-1.681507519441e+02 1.787149129492e+00 0.0 
1.787149129492e+00 -3.936850878695e+02 0.0 
0.0 0.0 -1.681507519441e+02 
-1.647701246432e+02 2.759451876084e+00 0.0 
2.759451876084e+00 -3.910216670039e+02 0.0 
0.0 0.0 -1.663375374942e+02 
-1.609793904093e+02 1.175783169506e+01 0.0 
1.175783169506e+01 -3.869050872847e+02 0.0 
0.0 0.0 -1.639653433082e+02 
-6.631555166087e+01 -3.627874360578e-01 0.0 
-3.627874360578e-01 -1.191578748264e+02 0.0 
0.0 0.0 -5.524202794618e+01 
-7.640641707161e+01 1.011587343072e+00 0.0 
1.011587343072e+00 -1.499740438869e+02 0.0 
0.0 0.0 -6.751413828754e+01 
-1.673598957689e+02 2.510196706197e+00 0.0 
2.510196706197e+00 -3.918397567941e+02 0.0 
0.0 0.0 -1.673598957689e+02 
-1.676729004365e+02 3.396449953131e+00 0.0 
3.396449953131e+00 -3.925701010185e+02 0.0 
0.0 0.0 -1.676729004365e+02 
-7.303182356387e+01 -2.514613578359e-02 0.0 
-2.514613578359e-02 -1.394210566090e+02 0.0 
0.0 0.0 -6.333586405187e+01 
-9.838856504379e+00 -3.026131462111e-01 0.0 
-3.026131462111e-01 -6.462452281133e+00 0.0 
0.0 0.0 -3.858317607214e+00 
-3.300710977870e+01 2.566065554823e-01 0.0 
2.566065554823e-01 -2.779947670249e+01 0.0 
0.0 0.0 -1.784197594436e+01 
-3.489679408929e+01 6.957362855436e-01 0.0 
6.957362855436e-01 -2.872282131158e+01 0.0 
0.0 0.0 -1.868588462026e+01 
-4.997214164577e+00 -1.237831046035e-01 0.0 
-1.237831046035e-01 -9.252947498920e+00 0.0 
0.0 0.0 -2.486186679992e+00 
-1.676769453970e+02 6.404490962869e+00 0.0 
6.404490962869e+00 -3.925795392597e+02 0.0 
0.0 0.0 -1.676769453970e+02 
-1.615054632691e+02 9.899581035477e+00 0.0 
9.899581035477e+00 -3.877604635958e+02 0.0 
0.0 0.0 -1.643797780595e+02 
-1.666188626737e+02 9.008009817122e+00 0.0 
9.008009817122e+00 -3.901106795720e+02 0.0 
0.0 0.0 -1.666188626737e+02 
-9.794034200474e+00 7.765568507276e-02 0.0 
7.765568507276e-02 -7.703119054602e+00 0.0 
0.0 0.0 -4.105447651199e+00 
-9.887909368460e+00 -3.154228043268e-02 0.0 
-3.154228043268e-02 -7.837406348361e+00 0.0 
0.0 0.0 -4.144189406488e+00 
-1.659445683741e+02 1.231930323433e+01 0.0 
1.231930323433e+01 -3.885373262063e+02 0.0 
0.0 0.0 -1.659445683741e+02 
-1.664442430627e+02 1.066427165920e+01 0.0 
1.066427165920e+01 -3.897032338130e+02 0.0 
0.0 0.0 -1.664442430627e+02 
-6.274061409545e+01 1.005383040470e+00 0.0 
1.005383040470e+00 -1.090566472263e+02 0.0 
0.0 0.0 -5.113917839653e+01 
-3.214334773183e+01 2.401610438498e-03 0.0 
2.401610438498e-03 -2.744203887618e+01 0.0 
0.0 0.0 -1.747561598240e+01 
-6.996141113140e+01 1.028665550529e+00 0.0 
1.028665550529e+00 -1.294204408849e+02 0.0 
0.0 0.0 -5.941455560488e+01 
-4.813126185464e+01 9.037504192411e-01 0.0 
9.037504192411e-01 -6.905262179719e+01 0.0 
0.0 0.0 -3.475516509555e+01 
-3.238956187847e+01 -1.541472897288e-02 0.0 
-1.541472897288e-02 -2.760574053736e+01 0.0 
0.0 0.0 -1.759859072475e+01 
-1.166553140770e+01 -1.120493664726e-01 0.0 
-1.120493664726e-01 -7.663311216484e+00 0.0 
0.0 0.0 -4.656640174398e+00 
-1.291339800619e+01 2.350261154812e-01 0.0 
2.350261154812e-01 -7.689318615262e+00 0.0 
0.0 0.0 -5.780814986435e+00 
-1.296610446284e+01 6.168187840196e-01 0.0 
6.168187840196e-01 -6.922135619302e+00 0.0 
0.0 0.0 -5.566472024642e+00 
-1.278216445366e+01 9.109693616329e-01 0.0 
9.109693616329e-01 -7.300333895631e+00 0.0 
0.0 0.0 -5.624749504786e+00 
-9.709428064021e+01 -1.160219741151e+00 0.0 
-1.160219741151e+00 -2.145858331950e+02 0.0 
0.0 0.0 -8.863268734695e+01 
-8.937350701830e+01 -1.141547370782e+00 0.0 
-1.141547370782e+00 -1.936893764133e+02 0.0 
0.0 0.0 -7.974288725361e+01 
-7.212548819450e+00 -4.719551355921e-01 0.0 
-4.719551355921e-01 -9.328775873136e+00 0.0 
0.0 0.0 -3.800336689857e+00 
-1.158564041328e+02 -9.521176681732e-01 0.0 
-9.521176681732e-01 -2.745207061050e+02 0.0 
0.0 0.0 -1.144638493427e+02 
-9.587210304040e+00 -5.511279822791e-01 0.0 
-5.511279822791e-01 -9.502659911892e+00 0.0 
0.0 0.0 -5.230078323122e+00 
-9.660723164890e+01 2.186374085000e+01 0.0 
2.186374085000e+01 -2.267502071808e+02 0.0 
0.0 0.0 -9.660723164890e+01 
-9.130564622385e+01 8.536030704983e+00 0.0 
8.536030704983e+00 -2.143798411890e+02 0.0 
0.0 0.0 -9.130564622385e+01 
-9.309363445560e+01 1.479080269647e+01 0.0 
1.479080269647e+01 -2.185518137297e+02 0.0 
0.0 0.0 -9.309363445560e+01 
-1.665925228236e+01 -1.517253519255e+00 0.0 
-1.517253519255e+00 -6.902071374171e+01 0.0 
0.0 0.0 -2.530398980722e+01 
-5.995833744523e+01 -1.324112639459e+00 0.0 
-1.324112639459e+00 -1.311641794554e+02 0.0 
0.0 0.0 -5.283651740445e+01 
-9.080479041066e+01 6.772646412883e+00 0.0 
6.772646412883e+00 -2.132111776249e+02 0.0 
0.0 0.0 -9.080479041066e+01 
-1.362793746305e+02 -7.264703609475e-01 0.0 
-7.264703609475e-01 -3.336581249782e+02 0.0 
0.0 0.0 -1.405812498826e+02 
-9.156706943717e+01 5.398462304192e+00 0.0 
5.398462304192e+00 -2.149898286867e+02 0.0 
0.0 0.0 -9.156706943717e+01 
-1.459902845068e+02 -7.526991887061e-01 0.0 
-7.526991887061e-01 -3.529341368182e+02 0.0 
0.0 0.0 -1.492773263975e+02 
-1.559723604507e+02 -8.136239588624e-01 0.0 
-8.136239588624e-01 -3.721034032158e+02 0.0 
0.0 0.0 -1.580227290999e+02 
-8.531206202517e+01 1.235946208655e-01 0.0 
1.235946208655e-01 -1.833887389986e+02 0.0 
0.0 0.0 -7.532983983979e+01 
-9.648191888578e+01 7.908798196337e+00 0.0 
7.908798196337e+00 -2.160997374760e+02 0.0 
0.0 0.0 -9.337449690854e+01 
-9.532978432163e+01 5.804686249175e+00 0.0 
5.804686249175e+00 -2.157002597269e+02 0.0 
0.0 0.0 -9.290901321454e+01 
-1.408217846997e+02 1.223389548899e+00 0.0 
1.223389548899e+00 -3.424122940501e+02 0.0 
0.0 0.0 -1.445702236249e+02 
-1.508431871037e+02 1.291771104079e+00 0.0 
1.291771104079e+00 -3.621513974201e+02 0.0 
0.0 0.0 -1.534983753571e+02 
-1.215051214684e+02 9.126372104953e-01 0.0 
9.126372104953e-01 -2.959791055818e+02 0.0 
0.0 0.0 -1.235784859372e+02 
-2.519540672577e+01 -4.252002873228e+00 0.0 
-4.252002873228e+00 -9.853931190696e+00 0.0 
0.0 0.0 -1.109127755782e+01 
-8.562976051206e+01 -4.598501150755e+00 0.0 
-4.598501150755e+00 -1.892043695977e+02 0.0 
0.0 0.0 -7.598604008532e+01 
-1.198827914580e+01 -2.887000861724e-01 0.0 
-2.887000861724e-01 -2.531427974665e+01 0.0 
0.0 0.0 -8.671948278661e+00 
-1.412295979523e+02 5.826408151317e+00 0.0 
5.826408151317e+00 -3.492282968903e+02 0.0 
0.0 0.0 -1.467373684528e+02 
-8.648396898043e+01 -6.224473788156e+00 0.0 
-6.224473788156e+00 -2.004224331517e+02 0.0 
0.0 0.0 -8.018764331552e+01 
-1.303839598605e+02 1.068602023825e+00 0.0 
1.068602023825e+00 -3.252863985487e+02 0.0 
0.0 0.0 -1.363011075228e+02 
-4.281514818453e+01 -9.883876042898e+00 0.0 
-9.883876042898e+00 -9.991254773076e+01 0.0 
0.0 0.0 -3.894490832436e+01 
-1.299513334734e+01 -2.086908512385e+00 0.0 
-2.086908512385e+00 -4.169635139753e+01 0.0 
0.0 0.0 -1.451056164002e+01 
-1.409252928947e+02 3.016331611929e+00 0.0 
3.016331611929e+00 -3.446988234899e+02 0.0 
0.0 0.0 -1.452872349154e+02 
-9.359114136538e+01 -3.757565959433e+00 0.0 
-3.757565959433e+00 -2.095331527863e+02 0.0 
0.0 0.0 -8.520210741749e+01 
-7.622939473669e+01 -2.354181039536e+00 0.0 
-2.354181039536e+00 -1.625367641180e+02 0.0 
0.0 0.0 -6.617888256629e+01 
-1.313796501048e+02 2.515269669354e+00 0.0 
2.515269669354e+00 -3.260369481862e+02 0.0 
0.0 0.0 -1.368249794873e+02 
-8.125884561633e+01 1.971589398183e+00 0.0 
1.971589398183e+00 -1.682603702099e+02 0.0 
0.0 0.0 -7.445576474787e+01 
-7.613674469831e+01 1.419663254654e-01 0.0 
1.419663254654e-01 -1.627799147274e+02 0.0 
0.0 0.0 -6.647582936776e+01 
-1.137947632478e+02 7.877450489231e+00 0.0 
7.877450489231e+00 -3.076868573646e+02 0.0 
0.0 0.0 -1.260444861837e+02 
-1.032959015156e+02 -2.674202339815e-01 0.0 
-2.674202339815e-01 -2.738426863420e+02 0.0 
0.0 0.0 -1.120761066418e+02 
-1.184926015361e+02 -4.500245743432e-01 0.0 
-4.500245743432e-01 -2.951103735129e+02 0.0 
0.0 0.0 -1.229668083701e+02 
-1.221658050984e+02 -2.926315962735e-01 0.0 
-2.926315962735e-01 -3.036936810743e+02 0.0 
0.0 0.0 -1.269682220510e+02 
-5.145467659853e+01 1.508339944025e+01 0.0 
1.508339944025e+01 -1.780192115992e+02 0.0 
0.0 0.0 -6.687584833489e+01 
-5.765613329828e+01 3.345900023608e+01 0.0 
3.345900023608e+01 -8.914376835681e+01 0.0 
0.0 0.0 -3.980675372570e+01 
-6.152925925877e+01 2.766633025968e+01 0.0 
2.766633025968e+01 -1.753113766399e+02 0.0 
0.0 0.0 -7.003886791963e+01 
-1.106650638096e+02 -1.014610306413e+00 0.0 
-1.014610306413e+00 -2.788196613998e+02 0.0 
0.0 0.0 -1.152360042993e+02 
-1.359466737939e+02 2.345328200531e+00 0.0 
2.345328200531e+00 -3.342652699761e+02 0.0 
0.0 0.0 -1.406635831310e+02 
-1.255066980733e+02 -3.573209186225e-01 0.0 
-3.573209186225e-01 -3.124394416631e+02 0.0 
0.0 0.0 -1.309838419209e+02 
-4.885268660449e+01 -1.465542274942e+01 0.0 
-1.465542274942e+01 -1.071833433637e+02 0.0 
0.0 0.0 -4.317822863573e+01 
-8.210335970571e+01 4.073421187623e+00 0.0 
4.073421187623e+00 -1.674663211867e+02 0.0 
0.0 0.0 -7.447090426773e+01 
-7.577156438156e+01 3.276086064425e+00 0.0 
3.276086064425e+00 -1.463662949701e+02 0.0 
0.0 0.0 -6.624135780549e+01 
-4.364214112805e+01 -1.315905815852e-01 0.0 
-1.315905815852e-01 -5.415728104914e+01 0.0 
0.0 0.0 -2.893982665315e+01 
-1.122612468932e+02 1.695441373316e-01 0.0 
1.695441373316e-01 -2.899169728261e+02 0.0 
0.0 0.0 -1.198680367201e+02 
-1.146843307403e+02 -6.880444604302e-01 0.0 
-6.880444604302e-01 -2.869614412908e+02 0.0 
0.0 0.0 -1.191105779436e+02 
-8.292914289231e+01 4.007574460926e+00 0.0 
4.007574460926e+00 -1.697757489911e+02 0.0 
0.0 0.0 -7.541146756504e+01 
-7.889635183492e+01 2.872473037791e+00 0.0 
2.872473037791e+00 -1.575820356324e+02 0.0 
0.0 0.0 -7.054351624018e+01 
-1.057989640781e+02 -1.029846898206e+00 0.0 
-1.029846898206e+00 -2.675208043974e+02 0.0 
0.0 0.0 -1.090146576524e+02 
-1.455743644449e+02 2.648888152841e+00 0.0 
2.648888152841e+00 -3.528217978213e+02 0.0 
0.0 0.0 -1.491188486799e+02 
-7.809336257156e+01 7.443190079189e+00 0.0 
7.443190079189e+00 -1.438822372893e+02 0.0 
0.0 0.0 -6.619267995825e+01 
-1.267328067871e+02 1.132058135238e+00 0.0 
1.132058135238e+00 -3.126276050430e+02 0.0 
0.0 0.0 -1.311718977636e+02 
-1.467809671570e+02 5.516082506790e+00 0.0 
5.516082506790e+00 -3.582226289675e+02 0.0 
0.0 0.0 -1.511010788373e+02 
-8.388136629407e+01 6.261898143559e+00 0.0 
6.261898143559e+00 -1.687376298033e+02 0.0 
0.0 0.0 -7.538569882921e+01 
-6.886571268117e+01 4.625031219916e+00 0.0 
4.625031219916e+00 -1.159862344037e+02 0.0 
0.0 0.0 -5.505558412545e+01 
-1.100010112403e+02 5.725096931143e+00 0.0 
5.725096931143e+00 -2.983272622051e+02 0.0 
0.0 0.0 -1.220984820336e+02 
-4.355420105649e+01 -5.543412571927e+00 0.0 
-5.543412571927e+00 -1.012443212589e+02 0.0 
0.0 0.0 -3.852159027349e+01 
-4.796951857498e+01 -1.566706725477e+01 0.0 
-1.566706725477e+01 -1.011108390767e+02 0.0 
0.0 0.0 -4.066429281700e+01 
-2.251698936918e+01 -3.238917699838e+00 0.0 
-3.238917699838e+00 -4.873580799323e+01 0.0 
0.0 0.0 -1.756600592401e+01 
-3.695096287964e+01 -1.489415470604e+01 0.0 
-1.489415470604e+01 -3.464341576072e+01 0.0 
0.0 0.0 -1.802269153629e+01 
-8.044039898543e+01 4.741295249905e+00 0.0 
4.741295249905e+00 -1.585007450680e+02 0.0 
0.0 0.0 -7.128234321602e+01 
-1.399625616807e+02 5.451903460376e-01 0.0 
5.451903460376e-01 -3.418664382348e+02 0.0 
0.0 0.0 -1.441486999746e+02 
-2.660828953680e+01 -6.931639894844e+00 0.0 
-6.931639894844e+00 -2.850730027853e+01 0.0 
0.0 0.0 -1.328903741926e+01 
-1.025500609417e+02 3.227477645105e+01 0.0 
3.227477645105e+01 -2.071380822409e+02 0.0 
0.0 0.0 -9.250644295477e+01 
-4.813345181965e+01 4.393827145597e-01 0.0 
4.393827145597e-01 -6.314339325579e+01 0.0 
0.0 0.0 -3.298305352263e+01 
-1.270077877839e+02 2.592831625177e+00 0.0 
2.592831625177e+00 -3.181205616051e+02 0.0 
0.0 0.0 -1.331385048167e+02 
-1.300990330193e+02 1.668969922536e-01 0.0 
1.668969922536e-01 -3.227140606518e+02 0.0 
0.0 0.0 -1.354439281013e+02 
-5.747037222295e+01 -1.495385545906e+01 0.0 
-1.495385545906e+01 -1.543375537953e+02 0.0 
0.0 0.0 -6.138595055691e+01 
-1.309579994927e+02 1.689969833815e+00 0.0 
1.689969833815e+00 -3.233921248599e+02 0.0 
0.0 0.0 -1.359050373058e+02 
-4.487621970680e+01 2.053056220147e+00 0.0 
2.053056220147e+00 -5.461675150109e+01 0.0 
0.0 0.0 -2.944789136237e+01 
-9.429724770281e+01 2.001944372312e+01 0.0 
2.001944372312e+01 -2.762943793538e+02 0.0 
0.0 0.0 -1.109110154753e+02 
-1.513949493051e+02 3.454263054265e+00 0.0 
3.454263054265e+00 -3.662340505152e+02 0.0 
0.0 0.0 -1.548886999461e+02 
-4.025781342407e+01 -3.142001192034e+00 0.0 
-3.142001192034e+00 -9.725701246611e+01 0.0 
0.0 0.0 -3.767973976831e+01 
-1.461254970563e+02 7.118692982010e+00 0.0 
7.118692982010e+00 -3.594131824567e+02 0.0 
0.0 0.0 -1.512616038539e+02 
-7.166387201012e+01 4.290750418979e+00 0.0 
4.290750418979e+00 -1.270443402509e+02 0.0 
0.0 0.0 -5.921246367829e+01 
-4.842110243629e+01 -4.610298456172e+00 0.0 
-4.610298456172e+00 -1.098180746783e+02 0.0 
0.0 0.0 -4.273930331122e+01 
-5.379032249963e+01 -1.711443154722e+01 0.0 
-1.711443154722e+01 -1.213289752209e+02 0.0 
0.0 0.0 -4.961120299321e+01 
-1.022164465960e+02 -2.511106300976e+00 0.0 
-2.511106300976e+00 -2.337803448924e+02 0.0 
0.0 0.0 -9.659074005123e+01 
-6.022704804053e+01 2.613086692570e+00 0.0 
2.613086692570e+00 -9.277859287219e+01 0.0 
0.0 0.0 -4.550169227381e+01 
-7.082116725860e+01 -8.643943423234e+00 0.0 
-8.643943423234e+00 -1.591348139349e+02 0.0 
0.0 0.0 -6.321072727194e+01 
-7.437729809656e+01 4.009893777650e+00 0.0 
4.009893777650e+00 -1.379964715539e+02 0.0 
0.0 0.0 -6.331213089515e+01 
-6.452404685230e+01 3.546253365181e+00 0.0 
3.546253365181e+00 -1.060461198025e+02 0.0 
0.0 0.0 -5.077104999643e+01 
-9.727671521094e+01 -4.117012794701e+00 0.0 
-4.117012794701e+00 -2.286170024637e+02 0.0 
0.0 0.0 -9.343185123434e+01 
-1.241796437681e+02 1.113398737887e+00 0.0 
1.113398737887e+00 -3.041243836364e+02 0.0 
0.0 0.0 -1.272838080786e+02 
-1.268636175594e+02 1.764871429249e+00 0.0 
1.764871429249e+00 -3.152553294997e+02 0.0 
0.0 0.0 -1.321202589607e+02 
-6.928959336998e+01 2.337234059750e+00 0.0 
2.337234059750e+00 -1.256390673834e+02 0.0 
0.0 0.0 -5.807859822603e+01 
-3.094075801371e+01 -4.500021486460e+00 0.0 
-4.500021486460e+00 -8.491955194706e+01 0.0 
0.0 0.0 -3.143271656725e+01 
-9.473582314140e+01 -4.245180897199e+00 0.0 
-4.245180897199e+00 -2.168624157825e+02 0.0 
0.0 0.0 -8.862614152588e+01 
-1.134154657630e+02 2.521141357689e+01 0.0 
2.521141357689e+01 -3.037840726153e+02 0.0 
0.0 0.0 -1.247598615135e+02 
-7.560553989520e+01 5.707098343790e+00 0.0 
5.707098343790e+00 -1.366268295895e+02 0.0 
0.0 0.0 -6.326971084542e+01 
-8.762895477186e+01 -5.216942803732e+00 0.0 
-5.216942803732e+00 -1.962301788650e+02 0.0 
0.0 0.0 -7.949399458989e+01 
-1.098465444839e+02 -2.238591463480e-01 0.0 
-2.238591463480e-01 -2.753689540260e+02 0.0 
0.0 0.0 -1.130194238506e+02 
-1.410915061556e+02 7.826740251802e+00 0.0 
7.826740251802e+00 -3.513914655585e+02 0.0 
0.0 0.0 -1.473448915142e+02 
-6.661882060587e+01 2.688896260450e+00 0.0 
2.688896260450e+00 -1.147065206371e+02 0.0 
0.0 0.0 -5.399760237289e+01 
-2.969852613771e+01 -8.951828187149e+00 0.0 
-8.951828187149e+00 -1.197484219416e+02 0.0 
0.0 0.0 -4.714417773196e+01 
-1.639732914437e+01 -7.777387271131e-01 0.0 
-7.777387271131e-01 -4.650714269360e+01 0.0 
0.0 0.0 -1.684933689399e+01 
-3.734150055152e+01 3.047710300291e+00 0.0 
3.047710300291e+00 -1.357796956089e+02 0.0 
0.0 0.0 -5.005611314207e+01 
-1.351760715324e+02 8.231808758233e-01 0.0 
8.231808758233e-01 -3.336094546948e+02 0.0 
0.0 0.0 -1.402356578682e+02 
-6.338415390370e+01 2.728244431421e+00 0.0 
2.728244431421e+00 -1.037034587347e+02 0.0 
0.0 0.0 -4.972628379153e+01 
-1.099974373548e+02 -1.198800565495e-01 0.0 
-1.198800565495e-01 -2.543984670655e+02 0.0 
0.0 0.0 -1.057084442307e+02 
-5.254695216583e+01 1.383691434425e+00 0.0 
1.383691434425e+00 -7.272584925388e+01 0.0 
0.0 0.0 -3.718184042591e+01 
-1.285122791829e+02 1.184035012612e+01 0.0 
1.184035012612e+01 -3.343473193902e+02 0.0 
0.0 0.0 -1.384578795719e+02 
-1.011283974094e+02 -3.313736508351e+00 0.0 
-3.313736508351e+00 -2.368386869246e+02 0.0 
0.0 0.0 -9.739391115788e+01 
-1.254248051573e+02 2.734790868216e-01 0.0 
2.734790868216e-01 -3.144704587725e+02 0.0 
0.0 0.0 -1.315685791789e+02 
-4.009239762647e+01 -2.699069583551e+00 0.0 
-2.699069583551e+00 -1.023556415650e+02 0.0 
0.0 0.0 -3.944672615330e+01 
-1.456229426530e+02 3.984418775930e+00 0.0 
3.984418775930e+00 -3.578176518434e+02 0.0 
0.0 0.0 -1.506321783489e+02 
-1.006918290317e+02 -2.837871492946e+00 0.0 
-2.837871492946e+00 -2.295854642841e+02 0.0 
0.0 0.0 -9.408064475403e+01 
-4.527965950166e+01 -1.719530829540e+00 0.0 
-1.719530829540e+00 -1.108156779818e+02 0.0 
0.0 0.0 -4.344751246578e+01 
-9.738116643673e+01 -2.614755086760e+00 0.0 
-2.614755086760e+00 -2.178273676828e+02 0.0 
0.0 0.0 -8.927782101915e+01 
-7.544407725128e+01 -7.217790977774e+00 0.0 
-7.217790977774e+00 -1.675440341426e+02 0.0 
0.0 0.0 -6.632597883383e+01 
-5.736416045099e+01 -8.974814821284e+00 0.0 
-8.974814821284e+00 -1.304252787378e+02 0.0 
0.0 0.0 -5.161219350532e+01 
-1.082973329464e+02 -1.882349358089e+00 0.0 
-1.882349358089e+00 -2.534330772277e+02 0.0 
0.0 0.0 -1.051009776337e+02 
-7.394366939163e+00 -6.080594039427e-01 0.0 
-6.080594039427e-01 -9.353342120027e+00 0.0 
0.0 0.0 -3.392769528617e+00 
-7.752523510631e+00 -5.454332538813e-01 0.0 
-5.454332538813e-01 -9.926886040904e+00 0.0 
0.0 0.0 -4.308015512333e+00 
-1.183921680549e+02 5.513389448414e-01 0.0 
5.513389448414e-01 -2.879297873890e+02 0.0 
0.0 0.0 -1.197978365020e+02 
-3.463306775145e+01 -3.534181199350e+00 0.0 
-3.534181199350e+00 -9.393632005372e+01 0.0 
0.0 0.0 -3.548427649419e+01 
-1.173403336430e+02 1.019230371508e+00 0.0 
1.019230371508e+00 -2.911134760399e+02 0.0 
0.0 0.0 -1.207380707793e+02 
-1.136947868101e+02 4.558074296771e-01 0.0 
4.558074296771e-01 -2.832319227780e+02 0.0 
0.0 0.0 -1.169125653719e+02 
-7.718115101759e+01 -8.646655044625e+00 0.0 
-8.646655044625e+00 -1.840704050535e+02 0.0 
0.0 0.0 -7.361163894792e+01 
-5.065057455135e+01 -1.688167027367e+01 0.0 
-1.688167027367e+01 -1.311211841299e+02 0.0 
0.0 0.0 -4.997243461066e+01 
-8.349528569844e+01 9.229475496196e+00 0.0 
9.229475496196e+00 -1.565953797968e+02 0.0 
0.0 0.0 -7.162719964857e+01 
-3.640587400957e+01 2.748660188960e+01 0.0 
2.748660188960e+01 -9.539962063114e+01 0.0 
0.0 0.0 -3.921356152526e+01 
-7.996098314761e+01 -5.909501044772e+00 0.0 
-5.909501044772e+00 -1.761866518317e+02 0.0 
0.0 0.0 -7.046244810848e+01 
-1.332636640239e+02 1.421555457617e+01 0.0 
1.421555457617e+01 -3.420799838411e+02 0.0 
0.0 0.0 -1.422030943595e+02 
-3.010508105040e+01 -4.643493427626e+00 0.0 
-4.643493427626e+00 -8.004053224465e+01 0.0 
0.0 0.0 -2.974783060401e+01 
-5.828705101466e+01 3.467882123437e+00 0.0 
3.467882123437e+00 -8.482630128237e+01 0.0 
0.0 0.0 -4.253400568911e+01 
-5.003512713456e+01 2.488931808942e+00 0.0 
2.488931808942e+00 -6.434373499664e+01 0.0 
0.0 0.0 -3.391365863936e+01 
-3.291099491337e+01 -7.704201387606e+00 0.0 
-7.704201387606e+00 -7.866966992820e+01 0.0 
0.0 0.0 -2.964920614213e+01 
-1.354829388298e+02 8.408915533443e+00 0.0 
8.408915533443e+00 -3.430132978709e+02 0.0 
0.0 0.0 -1.431488710102e+02 
-7.533868400388e+01 8.005614155011e+00 0.0 
8.005614155011e+00 -1.248718082057e+02 0.0 
0.0 0.0 -5.966314766288e+01 
-3.926581999302e+01 -6.323946359415e+00 0.0 
-6.323946359415e+00 -9.288809235406e+01 0.0 
0.0 0.0 -3.516136213051e+01 
-8.724231598965e+01 1.121169913151e+01 0.0 
1.121169913151e+01 -1.666772511978e+02 0.0 
0.0 0.0 -7.577587015624e+01 
-8.342332804263e+01 9.225747851039e+00 0.0 
9.225747851039e+00 -1.646156445270e+02 0.0 
0.0 0.0 -7.401169177090e+01 
-4.324663141222e+01 -5.421267390350e+00 0.0 
-5.421267390350e+00 -1.057718259875e+02 0.0 
0.0 0.0 -3.968198477923e+01 
-4.740007946811e+01 3.148000698506e+01 0.0 
3.148000698506e+01 -8.606356632738e+01 0.0 
0.0 0.0 -3.680801909130e+01 
-4.650607317938e+01 -8.689739582967e+00 0.0 
-8.689739582967e+00 -1.089582855064e+02 0.0 
0.0 0.0 -4.225520915473e+01 
-1.238514228637e+02 1.634138163904e+00 0.0 
1.634138163904e+00 -3.070769465087e+02 0.0 
0.0 0.0 -1.283007887705e+02 
-1.048072778351e+02 -2.559439060575e+00 0.0 
-2.559439060575e+00 -2.451912051354e+02 0.0 
0.0 0.0 -1.012999674223e+02 
-9.720561427687e+01 2.621488219305e+01 0.0 
2.621488219305e+01 -1.943652076565e+02 0.0 
0.0 0.0 -8.707124658000e+01 
-8.022609122999e+01 7.020546826339e+00 0.0 
7.020546826339e+00 -1.548325101223e+02 0.0 
0.0 0.0 -7.011758040569e+01 
-1.207379504473e+02 1.415296441542e+00 0.0 
1.415296441542e+00 -2.990754966502e+02 0.0 
0.0 0.0 -1.245378188546e+02 
-1.166483017608e+02 3.026075569279e-01 0.0 
3.026075569279e-01 -2.980759239623e+02 0.0 
0.0 0.0 -1.238176318586e+02 
-3.964404074682e+01 -9.842132562101e+00 0.0 
-9.842132562101e+00 -8.810992931761e+01 0.0 
0.0 0.0 -3.479438262714e+01 
-1.209321304181e+02 3.099385953627e-01 0.0 
3.099385953627e-01 -3.062861447539e+02 0.0 
0.0 0.0 -1.277654825516e+02 
-7.175952879389e+01 5.723558162099e+00 0.0 
5.723558162099e+00 -1.229666245531e+02 0.0 
0.0 0.0 -5.801784600409e+01 
-1.071157483452e+02 -9.724449124426e-01 0.0 
-9.724449124426e-01 -2.460547123110e+02 0.0 
0.0 0.0 -1.018861381086e+02 
-6.605334774640e+01 4.713123182835e+00 0.0 
4.713123182835e+00 -1.051704418989e+02 0.0 
0.0 0.0 -5.096713689358e+01 
-7.749146313885e+01 7.728726805143e+00 0.0 
7.728726805143e+00 -1.356190643476e+02 0.0 
0.0 0.0 -6.353315824593e+01 
-6.335064307194e+01 1.888253067742e+01 0.0 
1.888253067742e+01 -2.119279035859e+02 0.0 
0.0 0.0 -8.537157538370e+01 
-7.659993848924e+01 5.256973547704e+00 0.0 
5.256973547704e+00 -1.448398175943e+02 0.0 
0.0 0.0 -6.603192682506e+01 
-9.182574035133e+01 -4.133291836775e+00 0.0 
-4.133291836775e+00 -2.059257490821e+02 0.0 
0.0 0.0 -8.414873205317e+01 
-1.040193971632e+02 -1.821983830747e+00 0.0 
-1.821983830747e+00 -2.377437618074e+02 0.0 
0.0 0.0 -9.799807499416e+01 
-7.117067486789e+01 -6.716367077914e+00 0.0 
-6.716367077914e+00 -1.554641915515e+02 0.0 
0.0 0.0 -6.119087967730e+01 
-7.164867227762e+01 -1.273009031183e+01 0.0 
-1.273009031183e+01 -1.691976740916e+02 0.0 
0.0 0.0 -6.951069437200e+01 
-6.752853344302e+01 4.057862165751e+00 0.0 
4.057862165751e+00 -1.131670342328e+02 0.0 
0.0 0.0 -5.380867030275e+01 
-9.035214095066e+01 -6.026812071802e+00 0.0 
-6.026812071802e+00 -2.333631301447e+02 0.0 
0.0 0.0 -9.688623041057e+01 
-5.075257460664e+01 -7.263493470946e+00 0.0 
-7.263493470946e+00 -1.179757392835e+02 0.0 
0.0 0.0 -4.552662109345e+01 
-2.354092624532e+01 -3.948128087232e+00 0.0 
-3.948128087232e+00 -5.847751587663e+01 0.0 
0.0 0.0 -2.118219693203e+01 
-7.071729062279e+01 6.192051505666e+00 0.0 
6.192051505666e+00 -1.148811129270e+02 0.0 
0.0 0.0 -5.527952106494e+01 
-5.238981976385e+01 -9.820244767271e+00 0.0 
-9.820244767271e+00 -1.172366207767e+02 0.0 
0.0 0.0 -4.622254233389e+01 
-1.453562032926e+02 5.955310214897e+00 0.0 
5.955310214897e+00 -3.589183579491e+02 0.0 
0.0 0.0 -1.508823683725e+02 
-7.033309845340e+01 3.969870192147e+00 0.0 
3.969870192147e+00 -1.241300196857e+02 0.0 
0.0 0.0 -5.793893544172e+01 
-1.253492479171e+02 1.168300262207e+00 0.0 
1.168300262207e+00 -3.171079700938e+02 0.0 
0.0 0.0 -1.323371654033e+02 
-1.498366817822e+02 1.980913411801e+01 0.0 
1.980913411801e+01 -3.628658945071e+02 0.0 
0.0 0.0 -1.534107728868e+02 
-8.951068534953e+01 -3.260185510803e+00 0.0 
-3.260185510803e+00 -1.974177868717e+02 0.0 
0.0 0.0 -8.028494192502e+01 
-4.641018635311e+01 -8.308092518783e+00 0.0 
-8.308092518783e+00 -1.046316674336e+02 0.0 
0.0 0.0 -4.078276523389e+01 
-3.043010799407e+01 -7.964528762966e+00 0.0 
-7.964528762966e+00 -6.660858517945e+01 0.0 
0.0 0.0 -2.640250313504e+01 
-1.191409801265e+02 2.269733617331e+00 0.0 
2.269733617331e+00 -3.021142850220e+02 0.0 
0.0 0.0 -1.253563139723e+02 
-5.942657739695e+01 1.648012340745e+00 0.0 
1.648012340745e+00 -9.453256347764e+01 0.0 
0.0 0.0 -4.578774226238e+01 
-2.049510506241e+01 -4.814753765956e+00 0.0 
-4.814753765956e+00 -4.730842768274e+01 0.0 
0.0 0.0 -1.792529590532e+01 
-7.233538861582e+01 -6.674535881533e+00 0.0 
-6.674535881533e+00 -1.602701642773e+02 0.0 
0.0 0.0 -6.385411251763e+01 
-3.102804835720e+01 -1.188788902081e+00 0.0 
-1.188788902081e+00 -9.049894232200e+01 0.0 
0.0 0.0 -3.463311624187e+01 
-6.320560683126e+01 4.676301105774e+00 0.0 
4.676301105774e+00 -9.438863016823e+01 0.0 
0.0 0.0 -4.687827109985e+01 
-7.686659982243e+01 -5.159527885799e+00 0.0 
-5.159527885799e+00 -1.687673332816e+02 0.0 
0.0 0.0 -6.695817727691e+01 
-1.078053962036e+02 -3.592111989063e-02 0.0 
-3.592111989063e-02 -2.818773482475e+02 0.0 
0.0 0.0 -1.159769069008e+02 
-7.172347581282e+01 -4.236387548643e+00 0.0 
-4.236387548643e+00 -1.565836208337e+02 0.0 
0.0 0.0 -6.224173533463e+01 
-7.801118843679e+01 5.343240084072e+00 0.0 
5.343240084072e+00 -1.477042052161e+02 0.0 
0.0 0.0 -6.731461809585e+01 
-6.185154201758e+01 -9.541945350861e+00 0.0 
-9.541945350861e+00 -1.381656949509e+02 0.0 
0.0 0.0 -5.474844695018e+01 
-1.169001930419e+02 3.838269686331e+00 0.0 
3.838269686331e+00 -3.046885387737e+02 0.0 
0.0 0.0 -1.260346911801e+02 
-4.773285002097e+01 -1.509710399011e+01 0.0 
-1.509710399011e+01 -1.003693013823e+02 0.0 
0.0 0.0 -4.049304033005e+01 
-1.152149917400e+02 1.914058539114e+00 0.0 
1.914058539114e+00 -2.941517798840e+02 0.0 
0.0 0.0 -1.214810985879e+02 
-1.008546796083e+02 -1.710865913735e+00 0.0 
-1.710865913735e+00 -2.265872393450e+02 0.0 
0.0 0.0 -9.341897876013e+01 
-1.202575631855e+02 1.240895960326e+00 0.0 
1.240895960326e+00 -3.090114777699e+02 0.0 
0.0 0.0 -1.283807122866e+02 
-4.996298375940e+01 3.983857770707e-01 0.0 
3.983857770707e-01 -1.750448446133e+02 0.0 
0.0 0.0 -6.452339197793e+01 
-3.525275625326e+01 -4.084755667681e+00 0.0 
-4.084755667681e+00 -8.929083622900e+01 0.0 
0.0 0.0 -3.395035507814e+01 
-5.381779786499e+01 2.529509031818e+00 0.0 
2.529509031818e+00 -7.545251808332e+01 0.0 
0.0 0.0 -3.838109478449e+01 
-9.542208573751e+01 9.249894665226e+00 0.0 
9.249894665226e+00 -2.791102306367e+02 0.0 
0.0 0.0 -1.150173490098e+02 
-6.083908703581e+01 3.360055597812e+01 0.0 
3.360055597812e+01 -1.443978238038e+02 0.0 
0.0 0.0 -5.959692737063e+01 
-6.148758702712e+01 3.567208164477e+00 0.0 
3.567208164477e+00 -9.550506570115e+01 0.0 
0.0 0.0 -4.669779581848e+01 
-5.271822910806e+01 -1.799073965140e+01 0.0 
-1.799073965140e+01 -1.166902373010e+02 0.0 
0.0 0.0 -4.747898146275e+01 
-6.678958249476e+01 5.878446699894e+00 0.0 
5.878446699894e+00 -1.017200536566e+02 0.0 
0.0 0.0 -5.015289084541e+01 
-2.583769906941e+01 -1.947355795939e+00 0.0 
-1.947355795939e+00 -8.143735434643e+01 0.0 
0.0 0.0 -3.047862621802e+01 
-1.361311485954e+02 6.291728374396e+00 0.0 
6.291728374396e+00 -3.415499288138e+02 0.0 
0.0 0.0 -1.429043232228e+02 
-9.883047390055e+01 1.222288089238e+01 0.0 
1.222288089238e+01 -2.864272138949e+02 0.0 
0.0 0.0 -1.170211554726e+02 
-9.923022850294e+01 2.249812802091e+01 0.0 
2.249812802091e+01 -2.817235593308e+02 0.0 
0.0 0.0 -1.138861363501e+02 
-8.877023582476e+01 1.067683803813e+01 0.0 
1.067683803813e+01 -1.780824619830e+02 0.0 
0.0 0.0 -7.965580934232e+01 
-9.674716359061e+01 -2.884117932269e+00 0.0 
-2.884117932269e+00 -2.520448543618e+02 0.0 
0.0 0.0 -1.042035168706e+02 
-3.554209127170e+01 -7.200614827194e+00 0.0 
-7.200614827194e+00 -8.410811614052e+01 0.0 
0.0 0.0 -3.220813086400e+01 
-1.068157409282e+02 8.673832609440e-01 0.0 
8.673832609440e-01 -2.783332942635e+02 0.0 
0.0 0.0 -1.135959291069e+02 
-1.395276626525e+02 6.630116499365e+00 0.0 
6.630116499365e+00 -3.504634973722e+02 0.0 
0.0 0.0 -1.465973480074e+02 
-5.987446646325e+01 -1.835244116009e+01 0.0 
-1.835244116009e+01 -1.526418298332e+02 0.0 
0.0 0.0 -6.221163245090e+01 
-1.229500169450e+02 2.511850839790e+00 0.0 
2.511850839790e+00 -3.101099644967e+02 0.0 
0.0 0.0 -1.292494913688e+02 
-7.316465516173e+01 6.022165019307e+00 0.0 
6.022165019307e+00 -1.256788485272e+02 0.0 
0.0 0.0 -5.925305110667e+01 
-4.775348170733e+01 -1.730922698987e+01 0.0 
-1.730922698987e+01 -1.275045357197e+02 0.0 
0.0 0.0 -4.689195425938e+01 
-1.111193339769e+02 1.451733727212e+00 0.0 
1.451733727212e+00 -2.862292022797e+02 0.0 
0.0 0.0 -1.175805532388e+02 
-5.690464137327e+01 4.599679651284e+00 0.0 
4.599679651284e+00 -7.283038927380e+01 0.0 
0.0 0.0 -3.852050919412e+01 
-5.343993287434e+01 -3.147089222602e+00 0.0 
-3.147089222602e+00 -1.233111539488e+02 0.0 
0.0 0.0 -4.846058877973e+01 
-6.768405984271e+01 -8.458178610136e+00 0.0 
-8.458178610136e+00 -1.517583781469e+02 0.0 
0.0 0.0 -6.075704851260e+01 
-6.828308447933e+01 3.019383078019e+01 0.0 
3.019383078019e+01 -1.799241885973e+02 0.0 
0.0 0.0 -7.203028207673e+01 
-1.152208344615e+02 1.269930503395e+00 0.0 
1.269930503395e+00 -3.009208984765e+02 0.0 
0.0 0.0 -1.244425198814e+02 
-5.517799609193e+01 3.263790799908e+01 0.0 
3.263790799908e+01 -1.082778626395e+02 0.0 
0.0 0.0 -4.442407471337e+01 
-6.560578831031e+01 2.866283476939e+01 0.0 
2.866283476939e+01 -1.779533921568e+02 0.0 
0.0 0.0 -7.126547900753e+01 
-6.931385273833e+01 5.809304229198e+00 0.0 
5.809304229198e+00 -1.122796979010e+02 0.0 
0.0 0.0 -5.407806519179e+01 
-5.592040042874e+01 1.498820939330e+00 0.0 
1.498820939330e+00 -8.349165587902e+01 0.0 
0.0 0.0 -4.142361689233e+01 
-5.886661094233e+01 3.792074576493e+00 0.0 
3.792074576493e+00 -8.087915071146e+01 0.0 
0.0 0.0 -4.152372849614e+01 
-9.855609809406e+01 -3.256611826547e+00 0.0 
-3.256611826547e+00 -2.255999337584e+02 0.0 
0.0 0.0 -9.277152077926e+01 
-1.297768267175e+02 8.966825708898e+00 0.0 
8.966825708898e+00 -3.344420065102e+02 0.0 
0.0 0.0 -1.388656499683e+02 
-1.022796137225e+02 1.963081029738e-01 0.0 
1.963081029738e-01 -2.704535244789e+02 0.0 
0.0 0.0 -1.108624697173e+02 
-5.490159516455e+01 3.310158974398e+00 0.0 
3.310158974398e+00 -7.404385353500e+01 0.0 
0.0 0.0 -3.828363460986e+01 
-1.072853427466e+02 3.479621738891e+01 0.0 
3.479621738891e+01 -2.256480913900e+02 0.0 
0.0 0.0 -9.948003024097e+01 
-1.042303153222e+02 2.483584659796e+01 0.0 
2.483584659796e+01 -2.869106245955e+02 0.0 
0.0 0.0 -1.169422819753e+02 
-1.101939050725e+02 1.266403217988e+00 0.0 
1.266403217988e+00 -2.928052914094e+02 0.0 
0.0 0.0 -1.204997589446e+02 
-7.419986567758e+01 5.554392532324e+00 0.0 
5.554392532324e+00 -1.338537596138e+02 0.0 
0.0 0.0 -6.201608758742e+01 
-7.647744460780e+01 -1.042929345680e+01 0.0 
-1.042929345680e+01 -1.768018685822e+02 0.0 
0.0 0.0 -7.249338145295e+01 
-7.253065403127e+01 -9.558831525075e+00 0.0 
-9.558831525075e+00 -1.642843121896e+02 0.0 
0.0 0.0 -6.665539932596e+01 
-3.488514127457e+01 -7.418968980237e+00 0.0 
-7.418968980237e+00 -8.756580728758e+01 0.0 
0.0 0.0 -3.277003121450e+01 
-1.074597627366e+02 3.416396314059e+00 0.0 
3.416396314059e+00 -2.885133935468e+02 0.0 
0.0 0.0 -1.179686640933e+02 
-7.721352213925e+01 -7.626776910142e+00 0.0 
-7.626776910142e+00 -1.725818876567e+02 0.0 
0.0 0.0 -6.969815164128e+01 
-6.818195201956e+01 6.313860618046e+00 0.0 
6.313860618046e+00 -1.041023667384e+02 0.0 
0.0 0.0 -5.128529562740e+01 
-6.557076123923e+01 6.416704704771e+00 0.0 
6.416704704771e+00 -9.346235164264e+01 0.0 
0.0 0.0 -4.730993386456e+01 
-6.599895043816e+01 1.301816383588e+01 0.0 
1.301816383588e+01 -2.200989468175e+02 0.0 
0.0 0.0 -8.919838910894e+01 
-6.131375888650e+01 -1.191512288801e+01 0.0 
-1.191512288801e+01 -1.424243724571e+02 0.0 
0.0 0.0 -5.692980248380e+01 
-4.730131155947e+01 1.530927436965e+01 0.0 
1.530927436965e+01 -1.643816428235e+02 0.0 
0.0 0.0 -6.042126963389e+01 
-6.603105294154e+01 -1.024285271937e+01 0.0 
-1.024285271937e+01 -1.507562932946e+02 0.0 
0.0 0.0 -6.005187392753e+01 
-6.944999560435e+01 -1.050849125806e+01 0.0 
-1.050849125806e+01 -1.632796251373e+02 0.0 
0.0 0.0 -6.529409448585e+01 
-4.257327760699e+01 -9.274587856103e+00 0.0 
-9.274587856103e+00 -9.636823886935e+01 0.0 
0.0 0.0 -3.767766794753e+01 
-1.239198829004e+02 9.597669584884e+00 0.0 
9.597669584884e+00 -3.256971653201e+02 0.0 
0.0 0.0 -1.344851144662e+02 
-7.615851117142e+01 -8.051599861865e+00 0.0 
-8.051599861865e+00 -2.003832536358e+02 0.0 
0.0 0.0 -8.083021500998e+01 
-7.956207065960e+01 7.335543758581e+00 0.0 
7.335543758581e+00 -1.464504695565e+02 0.0 
0.0 0.0 -6.740376206482e+01 
-7.750677593423e+01 -6.414493485041e+00 0.0 
-6.414493485041e+00 -2.117307117840e+02 0.0 
0.0 0.0 -8.589057973751e+01 
-9.984500434392e+01 1.412072013675e+00 0.0 
1.412072013675e+00 -2.764201549815e+02 0.0 
0.0 0.0 -1.124795477976e+02 
-8.924369673872e+01 -2.896233403140e+00 0.0 
-2.896233403140e+00 -2.388730442829e+02 0.0 
0.0 0.0 -9.671691561985e+01 
-6.320584962313e+01 2.571782218779e+01 0.0 
2.571782218779e+01 -1.885715836026e+02 0.0 
0.0 0.0 -7.569545451399e+01 
-3.888784428903e+01 -6.626084801605e+00 0.0 
-6.626084801605e+00 -9.674478158498e+01 0.0 
0.0 0.0 -3.613729377314e+01 
-1.335531857215e+02 7.272950622023e+00 0.0 
7.272950622023e+00 -3.418988410126e+02 0.0 
0.0 0.0 -1.422356080202e+02 
-1.407584151736e+02 1.040170927012e+01 0.0 
1.040170927012e+01 -3.532393600224e+02 0.0 
0.0 0.0 -1.477993325588e+02 
-8.404340235434e+01 3.162269886592e+01 0.0 
3.162269886592e+01 -2.182408207301e+02 0.0 
0.0 0.0 -9.028526692535e+01 
-7.220944569697e+01 -1.019931334334e+01 0.0 
-1.019931334334e+01 -1.758433653928e+02 0.0 
0.0 0.0 -7.045054546570e+01 
-9.448379802049e+01 -5.712630121370e-01 0.0 
-5.712630121370e-01 -2.577337568568e+02 0.0 
0.0 0.0 -1.041471251312e+02 
-6.471126819311e+01 4.010830287459e+00 0.0 
4.010830287459e+00 -1.022424750767e+02 0.0 
0.0 0.0 -4.968612298094e+01 
-8.125153754018e+01 -8.307794075806e+00 0.0 
-8.307794075806e+00 -1.850289911064e+02 0.0 
0.0 0.0 -7.546887578105e+01 
-5.627318571323e+01 2.967647533627e+01 0.0 
2.967647533627e+01 -1.424214297745e+02 0.0 
0.0 0.0 -5.711752196496e+01 
-6.203151398020e+01 -7.148290730997e+00 0.0 
-7.148290730997e+00 -1.393112374581e+02 0.0 
0.0 0.0 -5.480480197043e+01 
-5.613845799797e+01 -1.860403556537e+01 0.0 
-1.860403556537e+01 -1.333064342955e+02 0.0 
0.0 0.0 -5.398961667922e+01 
-7.952597766032e+01 -1.084134581859e+01 0.0 
-1.084134581859e+01 -1.895277850200e+02 0.0 
0.0 0.0 -7.824656014979e+01 
-5.681219410806e+01 -8.502592454107e+00 0.0 
-8.502592454107e+00 -1.256355975737e+02 0.0 
0.0 0.0 -4.938896128992e+01 
-4.816620101321e+01 -4.205692117581e+00 0.0 
-4.205692117581e+00 -1.148118432756e+02 0.0 
0.0 0.0 -4.420211406724e+01 
-9.560981078636e+01 -4.658167281866e+00 0.0 
-4.658167281866e+00 -2.409157360103e+02 0.0 
0.0 0.0 -9.944363331704e+01 
-1.049889968499e+02 1.311812038621e+00 0.0 
1.311812038621e+00 -2.846187239455e+02 0.0 
0.0 0.0 -1.164823162386e+02 
-1.043124061120e+02 3.330095805752e+01 0.0 
3.330095805752e+01 -2.569598238642e+02 0.0 
0.0 0.0 -1.079816689929e+02 
-1.181985506476e+01 -1.634291323109e-01 0.0 
-1.634291323109e-01 -8.638028995316e+00 0.0 
0.0 0.0 -4.947790594290e+00 
-6.590985831107e+01 -5.683420164091e+00 0.0 
-5.683420164091e+00 -2.062939971717e+02 0.0 
0.0 0.0 -8.304584030567e+01 
-7.208205725804e+01 -7.387106279742e+00 0.0 
-7.387106279742e+00 -2.041158848527e+02 0.0 
0.0 0.0 -8.259068726789e+01 
-7.441778801635e+01 -9.315532158533e+00 0.0 
-9.315532158533e+00 -1.883327851752e+02 0.0 
0.0 0.0 -7.563615142976e+01 
-6.184747815423e+01 3.926306338390e+00 0.0 
3.926306338390e+00 -9.146815128175e+01 0.0 
0.0 0.0 -4.559468883080e+01 
-8.294898665907e+01 -5.428399775839e+00 0.0 
-5.428399775839e+00 -2.197098739080e+02 0.0 
0.0 0.0 -8.901685837775e+01 
-6.653660463809e+01 -8.025163727756e+00 0.0 
-8.025163727756e+00 -1.467282826078e+02 0.0 
0.0 0.0 -5.793023338221e+01 
-8.172827507318e+01 -1.047657558648e+01 0.0 
-1.047657558648e+01 -2.021500556294e+02 0.0 
0.0 0.0 -8.375929428828e+01 
-7.293044617904e+01 3.735055141509e+00 0.0 
3.735055141509e+00 -1.351604828304e+02 0.0 
0.0 0.0 -6.202727870284e+01 
-6.669845950363e+01 -5.616701927623e+00 0.0 
-5.616701927623e+00 -1.479880228745e+02 0.0 
0.0 0.0 -5.797763907586e+01 
-2.122997865548e+01 -5.242942018496e+00 0.0 
-5.242942018496e+00 -5.494632815633e+01 0.0 
0.0 0.0 -2.034109184043e+01 
-3.239282589281e+01 -7.441895197194e+00 0.0 
-7.441895197194e+00 -7.589083573287e+01 0.0 
0.0 0.0 -2.919649807812e+01 
-5.283235299444e+01 -1.642911399207e+01 0.0 
-1.642911399207e+01 -1.351163573829e+02 0.0 
0.0 0.0 -5.318643246361e+01 
-6.445721386062e+01 -1.226930943364e+01 0.0 
-1.226930943364e+01 -1.552381376831e+02 0.0 
0.0 0.0 -6.216709003809e+01 
-7.288114142600e+01 -4.992296779684e+00 0.0 
-4.992296779684e+00 -2.147814667407e+02 0.0 
0.0 0.0 -8.733815171917e+01 
-8.324506846176e+01 -9.360615563250e+00 0.0 
-9.360615563250e+00 -2.142466361397e+02 0.0 
0.0 0.0 -8.894538152651e+01 
-4.757872892535e+01 -1.577408254575e+01 0.0 
-1.577408254575e+01 -9.514545480126e+01 0.0 
0.0 0.0 -3.800622922131e+01 
-2.601274643214e+01 -4.867606722866e+00 0.0 
-4.867606722866e+00 -7.556288521784e+01 0.0 
0.0 0.0 -2.735106695320e+01 
-6.589839947520e+01 9.321156515546e+00 0.0 
9.321156515546e+00 -8.255485282333e+01 0.0 
0.0 0.0 -4.413597568956e+01 
-5.555213055793e+01 -5.710892896009e+00 0.0 
-5.710892896009e+00 -1.270812758304e+02 0.0 
0.0 0.0 -4.881952681359e+01 
-1.168395192596e+02 6.486490704454e+00 0.0 
6.486490704454e+00 -3.150582430497e+02 0.0 
0.0 0.0 -1.291693286928e+02 
-1.003746591352e+02 3.213529977111e+01 0.0 
3.213529977111e+01 -2.545927188294e+02 0.0 
0.0 0.0 -1.060902133894e+02 
-7.720055196395e+01 2.878608880425e+01 0.0 
2.878608880425e+01 -1.188323831980e+02 0.0 
0.0 0.0 -5.840988054859e+01 
-8.433452388021e+01 1.259119372020e+01 0.0 
1.259119372020e+01 -1.556204736749e+02 0.0 
0.0 0.0 -7.158649926653e+01 
-1.080018844799e+02 3.414388185225e+01 0.0 
3.414388185225e+01 -2.594323956396e+02 0.0 
0.0 0.0 -1.098302840359e+02 
-6.252088062374e+01 1.588158581027e+01 0.0 
1.588158581027e+01 -2.084098731316e+02 0.0 
0.0 0.0 -8.325369796033e+01 
-9.197491274674e+01 3.168232402013e+01 0.0 
3.168232402013e+01 -2.363519185691e+02 0.0 
0.0 0.0 -9.809804939476e+01 
-5.273490036116e+01 -1.921222847053e+01 0.0 
-1.921222847053e+01 -1.138340567223e+02 0.0 
0.0 0.0 -4.535504184847e+01 
-8.703140751312e+01 -8.322662234408e+00 0.0 
-8.322662234408e+00 -2.097203752783e+02 0.0 
0.0 0.0 -8.660136116070e+01 
-5.998651417666e+01 2.569605900359e+01 0.0 
2.569605900359e+01 -1.871634557378e+02 0.0 
0.0 0.0 -7.555208138960e+01 
-4.402339198134e+01 -1.285588268070e+01 0.0 
-1.285588268070e+01 -1.396728560180e+02 0.0 
0.0 0.0 -4.970629560951e+01 
-4.833473162766e+01 -1.858958715679e+01 0.0 
-1.858958715679e+01 -9.206089910538e+01 0.0 
0.0 0.0 -3.644387538683e+01 
-7.432971663970e+01 -8.839276006188e+00 0.0 
-8.839276006188e+00 -1.716488883627e+02 0.0 
0.0 0.0 -6.841668621163e+01 
-7.695763511318e+01 -1.121770845369e+01 0.0 
-1.121770845369e+01 -2.067864406245e+02 0.0 
0.0 0.0 -8.561193911313e+01 
-7.763533481825e+01 -8.871150437404e+00 0.0 
-8.871150437404e+00 -2.181340755815e+02 0.0 
0.0 0.0 -9.025075088690e+01 
-6.146927933960e+01 -7.072657136564e+00 0.0 
-7.072657136564e+00 -1.343013289220e+02 0.0 
0.0 0.0 -5.261683341863e+01 
-8.417013694164e+01 -3.451660626411e+00 0.0 
-3.451660626411e+00 -2.307150476239e+02 0.0 
0.0 0.0 -9.395620008468e+01 
-7.141555660697e+01 -9.295994186121e+00 0.0 
-9.295994186121e+00 -2.120848325636e+02 0.0 
0.0 0.0 -8.696555407644e+01 
-6.686387850012e+01 -2.064252983148e+00 0.0 
-2.064252983148e+00 -2.154582670963e+02 0.0 
0.0 0.0 -8.728563097182e+01 
-6.784039981565e+01 -1.184939014122e+01 0.0 
-1.184939014122e+01 -1.561270188802e+02 0.0 
0.0 0.0 -6.367165189741e+01 
-9.635666634135e+01 1.610117361909e+01 0.0 
1.610117361909e+01 -2.822145942612e+02 0.0 
0.0 0.0 -1.144958975755e+02 
-7.315306874304e+01 8.288525716706e+00 0.0 
8.288525716706e+00 -1.143242049298e+02 0.0 
0.0 0.0 -5.584318210184e+01 
-6.298192882965e+01 -1.834624642722e-01 0.0 
-1.834624642722e-01 -2.096014685348e+02 0.0 
0.0 0.0 -8.361218902403e+01 
-1.275477592758e+02 7.964449539568e+00 0.0 
7.964449539568e+00 -3.332797405995e+02 0.0 
0.0 0.0 -1.378482499626e+02 
-5.406740889983e+01 -1.940757808332e+01 0.0 
-1.940757808332e+01 -1.305282025930e+02 0.0 
0.0 0.0 -5.117596856327e+01 
-1.378266402299e+02 1.244958851110e+01 0.0 
1.244958851110e+01 -3.515045724475e+02 0.0 
0.0 0.0 -1.463993638032e+02 
-7.856113007788e+01 -4.267372328022e+00 0.0 
-4.267372328022e+00 -2.225573888560e+02 0.0 
0.0 0.0 -9.077053715938e+01 
-1.113999877095e+02 3.532890114900e+01 0.0 
3.532890114900e+01 -2.633895721192e+02 0.0 
0.0 0.0 -1.120368679486e+02 
-7.798186075421e+01 3.481703273513e+01 0.0 
3.481703273513e+01 -1.682297599084e+02 0.0 
0.0 0.0 -7.346348619879e+01 
-4.974322020668e+01 -1.727310347459e+01 0.0 
-1.727310347459e+01 -1.162056439827e+02 0.0 
0.0 0.0 -4.515090699322e+01 
-8.005485415138e+01 3.104018777670e+01 0.0 
3.104018777670e+01 -1.366287300149e+02 0.0 
0.0 0.0 -6.460507524988e+01 
-9.112470121855e+01 1.913876021111e+01 0.0 
1.913876021111e+01 -1.721030365538e+02 0.0 
0.0 0.0 -7.856832133172e+01 
-7.931672332421e+01 -1.602710265150e+00 0.0 
-1.602710265150e+00 -2.327047653049e+02 0.0 
0.0 0.0 -9.538488176763e+01 
-4.892653280909e+01 2.800965085565e+01 0.0 
2.800965085565e+01 -1.371096186837e+02 0.0 
0.0 0.0 -5.372569164352e+01 
-8.293065190112e+01 3.265149360033e+01 0.0 
3.265149360033e+01 -1.545929678130e+02 0.0 
0.0 0.0 -7.085708591424e+01 
-6.616980526598e+01 3.304519886229e+01 0.0 
3.304519886229e+01 -1.627709841147e+02 0.0 
0.0 0.0 -6.672407140981e+01 
-4.722758426574e+01 -1.686828840301e+01 0.0 
-1.686828840301e+01 -9.531011140160e+01 0.0 
0.0 0.0 -3.761862910770e+01 
-9.415533901069e+01 1.646255089766e+01 0.0 
1.646255089766e+01 -1.996377139955e+02 0.0 
0.0 0.0 -8.773791590186e+01 
-4.293774114758e+01 -1.424446917579e+01 0.0 
-1.424446917579e+01 -7.970181620700e+01 0.0 
0.0 0.0 -3.254135908569e+01 
-1.280771039375e+02 2.455026468322e+01 0.0 
2.455026468322e+01 -3.291516887258e+02 0.0 
0.0 0.0 -1.367686377990e+02 
-8.221854940911e+01 6.504831782370e+00 0.0 
6.504831782370e+00 -1.655974322488e+02 0.0 
0.0 0.0 -7.394479449738e+01 
-1.027674660209e+02 1.511033307080e+01 0.0 
1.511033307080e+01 -2.932164358711e+02 0.0 
0.0 0.0 -1.189097024488e+02 
-5.698361795611e+01 2.363633530623e+00 0.0 
2.363633530623e+00 -8.170613998090e+01 0.0 
0.0 0.0 -4.120692738110e+01 
-8.437114286379e+01 1.261255304828e+01 0.0 
1.261255304828e+01 -1.463745883323e+02 0.0 
0.0 0.0 -6.882371935884e+01 
-7.298638026674e+01 -4.881876523046e+00 0.0 
-4.881876523046e+00 -2.216097830990e+02 0.0 
0.0 0.0 -9.116282886511e+01 
-7.216040751431e+01 1.399088541346e+01 0.0 
1.399088541346e+01 -2.359297921701e+02 0.0 
0.0 0.0 -9.738822855212e+01 
-8.967362566603e+01 1.451894666580e+01 0.0 
1.451894666580e+01 -1.773111646174e+02 0.0 
0.0 0.0 -7.969543708502e+01 
-1.141918270064e+02 2.649882035498e+00 0.0 
2.649882035498e+00 -3.033170200540e+02 0.0 
0.0 0.0 -1.248526541181e+02 
-7.811329507724e+01 1.060283305301e+01 0.0 
1.060283305301e+01 -1.250542373546e+02 0.0 
0.0 0.0 -6.055025972955e+01 
-9.790844201607e+01 8.083295400633e+00 0.0 
8.083295400633e+00 -2.871641104415e+02 0.0 
0.0 0.0 -1.158850804079e+02 
-4.734120501839e+01 -1.819318625679e+01 0.0 
-1.819318625679e+01 -1.117084663107e+02 0.0 
0.0 0.0 -4.165629295863e+01 
-8.289198146586e+01 1.326404217418e+01 0.0 
1.326404217418e+01 -1.363148399020e+02 0.0 
0.0 0.0 -6.536204641036e+01 
-1.266963021077e+02 3.783586951062e+01 0.0 
3.783586951062e+01 -3.066875633978e+02 0.0 
0.0 0.0 -1.296151596517e+02 
-1.392744035881e+02 9.195459148854e+00 0.0 
9.195459148854e+00 -3.522338304486e+02 0.0 
0.0 0.0 -1.470524702110e+02 
-8.135820658879e+01 -6.966630645255e+00 0.0 
-6.966630645255e+00 -2.081539406092e+02 0.0 
0.0 0.0 -8.392701787380e+01 
-6.007561832455e+01 4.704915611037e+00 0.0 
4.704915611037e+00 -8.333733530014e+01 0.0 
0.0 0.0 -4.262388608741e+01 
-5.358846433483e+01 2.142646159459e+00 0.0 
2.142646159459e+00 -7.101528658094e+01 0.0 
0.0 0.0 -3.698112527473e+01 
-8.424500732156e+01 -7.502171126486e+00 0.0 
-7.502171126486e+00 -2.257629580071e+02 0.0 
0.0 0.0 -9.380192099428e+01 
-1.086826629515e+02 2.745781826575e+00 0.0 
2.745781826575e+00 -2.950955826397e+02 0.0 
0.0 0.0 -1.207334736774e+02 
-1.126604638142e+02 4.500362744622e+00 0.0 
4.500362744622e+00 -3.052771186289e+02 0.0 
0.0 0.0 -1.249812747329e+02 
-2.469001703946e+01 -4.392282471156e+00 0.0 
-4.392282471156e+00 -6.666694729912e+01 0.0 
0.0 0.0 -2.406667918140e+01 
-4.383661081278e+01 1.619989891841e+01 0.0 
1.619989891841e+01 -1.513513074099e+02 0.0 
0.0 0.0 -5.504332235924e+01 
-6.436912151200e+01 3.999955090658e+00 0.0 
3.999955090658e+00 -2.177781580850e+02 0.0 
0.0 0.0 -8.742801124476e+01 
-6.752443627299e+01 -3.098205839255e+00 0.0 
-3.098205839255e+00 -2.126409609491e+02 0.0 
0.0 0.0 -8.675725449864e+01 
-6.415979509567e+01 3.177696620752e+01 0.0 
3.177696620752e+01 -1.778479872534e+02 0.0 
0.0 0.0 -7.275760255852e+01 
-9.454576319176e+01 1.607660442783e+01 0.0 
1.607660442783e+01 -1.887917979921e+02 0.0 
0.0 0.0 -8.460126835514e+01 
-9.975868185954e+01 2.973177916806e+01 0.0 
2.973177916806e+01 -2.055279988524e+02 0.0 
0.0 0.0 -9.118600421358e+01 
-8.504775436891e+01 8.511535052892e+00 0.0 
8.511535052892e+00 -1.670308667430e+02 0.0 
0.0 0.0 -7.522358633356e+01 
-5.744151959603e+01 3.329247574698e+01 0.0 
3.329247574698e+01 -1.083975234311e+02 0.0 
0.0 0.0 -4.430175955753e+01 
-8.584227281409e+01 1.702021719909e+01 0.0 
1.702021719909e+01 -1.499567573055e+02 0.0 
0.0 0.0 -7.033970903587e+01 
-1.122350705625e+02 3.659806357979e+00 0.0 
3.659806357979e+00 -2.966075695481e+02 0.0 
0.0 0.0 -1.220167393158e+02 
-8.740685310918e+01 1.122685504652e+01 0.0 
1.122685504652e+01 -1.760787766892e+02 0.0 
0.0 0.0 -7.864568893952e+01 
-8.124904744165e+01 1.399847593854e+01 0.0 
1.399847593854e+01 -1.264429866095e+02 0.0 
0.0 0.0 -6.190761021533e+01 
-8.894304754150e+01 -7.484528693182e+00 0.0 
-7.484528693182e+00 -2.217565797435e+02 0.0 
0.0 0.0 -9.186558819325e+01 
-6.117630932004e+01 7.237530904840e+00 0.0 
7.237530904840e+00 -2.104522190111e+02 0.0 
0.0 0.0 -8.257272952189e+01 
-7.842937390811e+01 1.045000844105e+01 0.0 
1.045000844105e+01 -1.339454509445e+02 0.0 
0.0 0.0 -6.331244745579e+01 
-8.984637410142e+01 1.450603510134e+01 0.0 
1.450603510134e+01 -1.678456107123e+02 0.0 
0.0 0.0 -7.690759544411e+01 
-7.603206775973e+01 7.682352121208e+00 0.0 
7.682352121208e+00 -1.333047209846e+02 0.0 
0.0 0.0 -6.240103662329e+01 
-7.389165969475e+01 7.955153835181e+00 0.0 
7.955153835181e+00 -1.228158953106e+02 0.0 
0.0 0.0 -5.861226650160e+01 
-1.287126456212e+02 5.521334553959e+00 0.0 
5.521334553959e+00 -3.321874767570e+02 0.0 
0.0 0.0 -1.378700367135e+02 
-1.219831043070e+02 2.542551010291e+01 0.0 
2.542551010291e+01 -3.173461621162e+02 0.0 
0.0 0.0 -1.313987799270e+02 
-1.228593845819e+02 5.971845705993e+00 0.0 
5.971845705993e+00 -3.237148011806e+02 0.0 
0.0 0.0 -1.335722557288e+02 
-9.884149546470e+01 -4.525240496306e-01 0.0 
-4.525240496306e-01 -2.658009943460e+02 0.0 
0.0 0.0 -1.081526038164e+02 
-5.483414156706e+01 2.983223922931e+01 0.0 
2.983223922931e+01 -6.875138516972e+01 0.0 
0.0 0.0 -3.324553091385e+01 
-1.071120123571e+02 1.783405569754e+01 0.0 
1.783405569754e+01 -2.995750609979e+02 0.0 
0.0 0.0 -1.216061220065e+02 
-8.278319039332e+01 1.941934655299e+01 0.0 
1.941934655299e+01 -1.346719635742e+02 0.0 
0.0 0.0 -6.483654619027e+01 
-5.079057907193e+01 -7.114295033712e+00 0.0 
-7.114295033712e+00 -1.133328425395e+02 0.0 
0.0 0.0 -4.392106356720e+01 
-6.801273653375e+01 1.462089537941e+00 0.0 
1.462089537941e+00 -2.196245527442e+02 0.0 
0.0 0.0 -8.956131072306e+01 
-7.497685081359e+01 4.252689767207e+00 0.0 
4.252689767207e+00 -2.401271726033e+02 0.0 
0.0 0.0 -9.939095517654e+01 
-7.959249233434e+01 1.547330341246e+01 0.0 
1.547330341246e+01 -2.539292526760e+02 0.0 
0.0 0.0 -1.039427808884e+02 
-4.126376365230e+01 -2.156197488590e+00 0.0 
-2.156197488590e+00 -1.494633210086e+02 0.0 
0.0 0.0 -5.396101897858e+01 
-6.346300235304e+01 4.251961609932e+00 0.0 
4.251961609932e+00 -2.106042669111e+02 0.0 
0.0 0.0 -8.358809333881e+01 
-8.974323100259e+01 1.721195210965e+01 0.0 
1.721195210965e+01 -2.707947252807e+02 0.0 
0.0 0.0 -1.096672261417e+02 
-6.433978281922e+01 3.209872060861e+01 0.0 
3.209872060861e+01 -1.087445421846e+02 0.0 
0.0 0.0 -4.849749315935e+01 
-8.799454263101e+01 -4.657045839426e+00 0.0 
-4.657045839426e+00 -2.276946330206e+02 0.0 
0.0 0.0 -9.182000347871e+01 
-7.425047212568e+01 1.171043511549e+01 0.0 
1.171043511549e+01 -1.046518265386e+02 0.0 
0.0 0.0 -5.327068959927e+01 
-3.944191702364e+01 8.987726602970e-02 0.0 
8.987726602970e-02 -4.066907047382e+01 0.0 
0.0 0.0 -2.363329624924e+01 
-4.558761952046e+01 3.124405390493e+01 0.0 
3.124405390493e+01 -3.186750250224e+01 0.0 
0.0 0.0 -1.918764225397e+01 
-1.015025876351e+02 -1.927305252706e+00 0.0 
-1.927305252706e+00 -2.597420990242e+02 0.0 
0.0 0.0 -1.064227061811e+02 
-1.065063348009e+02 1.339307591050e+01 0.0 
1.339307591050e+01 -3.025950426136e+02 0.0 
0.0 0.0 -1.223304132244e+02 
-1.014582830915e+02 2.864520582349e+01 0.0 
2.864520582349e+01 -2.106441584003e+02 0.0 
0.0 0.0 -9.323073244753e+01 
-6.846933930933e+01 1.199546642189e+01 0.0 
1.199546642189e+01 -2.316452239999e+02 0.0 
0.0 0.0 -9.509137365813e+01 
-9.380189782147e+01 -2.519223631348e+00 0.0 
-2.519223631348e+00 -2.469031339646e+02 0.0 
0.0 0.0 -9.954629170251e+01 
-7.090328130132e+01 8.535483455069e+00 0.0 
8.535483455069e+00 -1.039015845179e+02 0.0 
0.0 0.0 -5.204145974576e+01 
-4.444257991906e+01 3.029542441838e+01 0.0 
3.029542441838e+01 -2.905615735643e+01 0.0 
0.0 0.0 -1.814333202855e+01 
-1.001397795175e+02 1.436702227727e+01 0.0 
1.436702227727e+01 -2.919421315767e+02 0.0 
0.0 0.0 -1.183628350062e+02 
-7.661032795776e+01 1.229820983730e+01 0.0 
1.229820983730e+01 -2.473653411872e+02 0.0 
0.0 0.0 -1.029303277074e+02 
-6.574913063716e+01 3.367853112586e+01 0.0 
3.367853112586e+01 -1.095387091376e+02 0.0 
0.0 0.0 -5.028926795322e+01 
-1.155060913843e+02 5.551604266840e+00 0.0 
5.551604266840e+00 -3.067106586885e+02 0.0 
0.0 0.0 -1.262650250219e+02 
-5.056704694844e+01 -1.674001939183e+01 0.0 
-1.674001939183e+01 -1.423895780871e+02 0.0 
0.0 0.0 -5.413731939204e+01 
-1.196030396363e+02 7.449517135091e+00 0.0 
7.449517135091e+00 -3.164392379270e+02 0.0 
0.0 0.0 -1.304126832690e+02 
-1.325367632481e+02 1.003309788485e+01 0.0 
1.003309788485e+01 -3.425539842472e+02 0.0 
0.0 0.0 -1.421272242486e+02 
-9.379548657350e+01 1.536363925136e+01 0.0 
1.536363925136e+01 -2.809703322318e+02 0.0 
0.0 0.0 -1.143985533566e+02 
-7.991776739983e+01 1.015490248716e+01 0.0 
1.015490248716e+01 -1.353813806031e+02 0.0 
0.0 0.0 -6.418974440088e+01 
-1.014547405961e+02 3.091634861908e+01 0.0 
3.091634861908e+01 -2.672496082298e+02 0.0 
0.0 0.0 -1.102113046478e+02 
-1.347655610773e+02 1.119654966841e+01 0.0 
1.119654966841e+01 -3.437129528962e+02 0.0 
0.0 0.0 -1.431435541920e+02 
-4.374517213448e+01 3.016456970018e+01 0.0 
3.016456970018e+01 -2.848620294271e+01 0.0 
0.0 0.0 -1.861597454517e+01 
-7.625546818654e+01 1.106738552035e+01 0.0 
1.106738552035e+01 -1.148526224814e+02 0.0 
0.0 0.0 -5.693242720037e+01 
-1.202282627959e+02 2.857851351113e+01 0.0 
2.857851351113e+01 -3.097028707281e+02 0.0 
0.0 0.0 -1.285793400572e+02 
-8.021325804465e+01 1.000377432960e+01 0.0 
1.000377432960e+01 -1.441633754060e+02 0.0 
0.0 0.0 -6.691299003519e+01 
-8.273595609589e+01 1.364420780344e+01 0.0 
1.364420780344e+01 -2.636790619723e+02 0.0 
0.0 0.0 -1.083333137385e+02 
-6.441802987113e+01 8.887482432151e+00 0.0 
8.887482432151e+00 -2.155921976113e+02 0.0 
0.0 0.0 -8.628172192225e+01 
-9.934598368404e+01 -3.675100341639e+00 0.0 
-3.675100341639e+00 -2.401902070096e+02 0.0 
0.0 0.0 -9.818228840322e+01 
-3.265051791917e+01 6.735937186560e+00 0.0 
6.735937186560e+00 -1.288087025854e+02 0.0 
0.0 0.0 -5.040595394258e+01 
-8.201708875283e+01 9.490438548105e+00 0.0 
9.490438548105e+00 -1.545613781204e+02 0.0 
0.0 0.0 -7.057354006197e+01 
-5.557231565589e+01 -5.929696023962e+00 0.0 
-5.929696023962e+00 -1.220824582419e+02 0.0 
0.0 0.0 -4.734135881763e+01 
-4.158711242454e+01 2.938387056011e+01 0.0 
2.938387056011e+01 -2.787546581821e+01 0.0 
0.0 0.0 -1.798960562421e+01 
-9.632876569132e+01 3.190190110314e+01 0.0 
3.190190110314e+01 -2.522327692607e+02 0.0 
0.0 0.0 -1.041684604856e+02 
-8.594283330442e+01 8.412493592823e+00 0.0 
8.412493592823e+00 -1.764654521969e+02 0.0 
0.0 0.0 -7.832248565041e+01 
-5.123234662993e+01 -1.997180938291e+01 0.0 
-1.997180938291e+01 -1.286371889854e+02 0.0 
0.0 0.0 -4.935683547139e+01 
-7.084610477114e+01 3.157783812813e+01 0.0 
3.157783812813e+01 -1.815815211079e+02 0.0 
0.0 0.0 -7.425675607273e+01 
-7.663036766000e+01 1.089118084230e+01 0.0 
1.089118084230e+01 -1.239660883885e+02 0.0 
0.0 0.0 -5.977893681455e+01 
-9.838530503058e+01 -4.479149129493e+00 0.0 
-4.479149129493e+00 -2.370806726758e+02 0.0 
0.0 0.0 -9.672087031280e+01 
-4.539164106590e+01 -8.857160556473e+00 0.0 
-8.857160556473e+00 -1.491890956141e+02 0.0 
0.0 0.0 -5.494601052644e+01 
-5.015721550368e+01 2.987008169731e+01 0.0 
2.987008169731e+01 -1.391485144350e+02 0.0 
0.0 0.0 -5.525460475633e+01 
-4.597999610122e+01 -1.877203719596e+01 0.0 
-1.877203719596e+01 -9.121618012661e+01 0.0 
0.0 0.0 -3.515512297951e+01 
-4.450296029215e+01 -1.678040748353e+01 0.0 
-1.678040748353e+01 -1.261433155715e+02 0.0 
0.0 0.0 -4.544042137747e+01 
-4.464476147018e+01 -1.905431983818e+01 0.0 
-1.905431983818e+01 -1.088554484576e+02 0.0 
0.0 0.0 -3.861155542984e+01 
-7.507059159805e+01 1.232264237228e+01 0.0 
1.232264237228e+01 -2.477446288480e+02 0.0 
0.0 0.0 -1.029351616963e+02 
-1.079594804244e+02 2.689272285999e+01 0.0 
2.689272285999e+01 -2.376921296591e+02 0.0 
0.0 0.0 -1.032954830250e+02 
-3.854587398659e+01 2.732706737526e+01 0.0 
2.732706737526e+01 -2.708547166684e+01 0.0 
0.0 0.0 -1.548961109884e+01 
-1.345010617494e+02 5.059040849126e+00 0.0 
5.059040849126e+00 -3.405738337623e+02 0.0 
0.0 0.0 -1.421224686535e+02 
-5.587445573285e+01 1.518394364896e+01 0.0 
1.518394364896e+01 -1.927205148765e+02 0.0 
0.0 0.0 -7.374144808071e+01 
-7.950057206732e+01 1.496033298789e+01 0.0 
1.496033298789e+01 -1.169843083054e+02 0.0 
0.0 0.0 -5.854546411182e+01 
-3.559756387528e+01 5.064075013197e+00 0.0 
5.064075013197e+00 -1.355987895563e+02 0.0 
0.0 0.0 -5.081134196534e+01 
-1.397658981143e+02 1.335626134698e+01 0.0 
1.335626134698e+01 -3.522604123234e+02 0.0 
0.0 0.0 -1.472078931313e+02 
-5.196263200523e+01 -2.128261598001e+01 0.0 
-2.128261598001e+01 -1.122577096874e+02 0.0 
0.0 0.0 -4.383783467879e+01 
-6.650769310932e+01 -5.741590680956e+00 0.0 
-5.741590680956e+00 -1.435948544443e+02 0.0 
0.0 0.0 -5.673583135262e+01 
-9.875160182850e+01 1.799678107924e+01 0.0 
1.799678107924e+01 -2.871269671614e+02 0.0 
0.0 0.0 -1.164853288488e+02 
-7.804969440397e+01 -5.757172241852e+00 0.0 
-5.757172241852e+00 -2.285229001252e+02 0.0 
0.0 0.0 -9.451629818379e+01 
-1.154463935037e+02 2.629306331284e+01 0.0 
2.629306331284e+01 -3.048489092292e+02 0.0 
0.0 0.0 -1.256885908199e+02 
-5.183329522010e+01 3.066593280293e+01 0.0 
3.066593280293e+01 -1.242248455878e+02 0.0 
0.0 0.0 -5.028091667364e+01 
-8.811004994411e+01 2.155970633305e+01 0.0 
2.155970633305e+01 -1.441809831665e+02 0.0 
0.0 0.0 -6.928730993320e+01 
-1.265840110476e+02 2.333901737170e+01 0.0 
2.333901737170e+01 -3.282536187102e+02 0.0 
0.0 0.0 -1.360512889273e+02 
-7.171696675434e+01 8.172069088969e+00 0.0 
8.172069088969e+00 -1.124614375661e+02 0.0 
0.0 0.0 -5.485352129613e+01 
-1.040223574971e+02 3.154591495594e+01 0.0 
3.154591495594e+01 -2.123545052428e+02 0.0 
0.0 0.0 -9.451305882197e+01 
-8.728856989154e+01 1.613316534122e+01 0.0 
1.613316534122e+01 -1.481352920516e+02 0.0 
0.0 0.0 -7.022715858295e+01 
-9.136277796452e+01 1.911013066532e+01 0.0 
1.911013066532e+01 -1.608262763928e+02 0.0 
0.0 0.0 -7.525671630720e+01 
-4.179282228923e+01 2.359844532938e+01 0.0 
2.359844532938e+01 -1.253268424072e+02 0.0 
0.0 0.0 -4.641916028801e+01 
-1.296046308120e+02 3.647266621484e+00 0.0 
3.647266621484e+00 -3.301900149941e+02 0.0 
0.0 0.0 -1.375383937418e+02 
-8.140942432431e+01 1.390921980793e+01 0.0 
1.390921980793e+01 -1.365299370613e+02 0.0 
0.0 0.0 -6.498180841568e+01 
-6.646480385388e+01 2.203341773555e+01 0.0 
2.203341773555e+01 -2.163651009052e+02 0.0 
0.0 0.0 -8.847861882887e+01 
-3.763182602759e+01 2.554731924916e+01 0.0 
2.554731924916e+01 -2.680759738904e+01 0.0 
0.0 0.0 -1.398065994304e+01 
-1.338539375665e+02 2.708606942358e+01 0.0 
2.708606942358e+01 -3.351298382408e+02 0.0 
0.0 0.0 -1.402951327422e+02 
-4.155378761946e+01 1.097942433128e+01 0.0 
1.097942433128e+01 -1.491800928385e+02 0.0 
0.0 0.0 -5.393074112739e+01 
-6.065035236997e+01 -4.317714921142e+00 0.0 
-4.317714921142e+00 -1.358420346796e+02 0.0 
0.0 0.0 -5.322879326729e+01 
-1.086672011765e+02 2.276956005898e+01 0.0 
2.276956005898e+01 -2.985452474828e+02 0.0 
0.0 0.0 -1.217637345978e+02 
-2.360100866735e+01 5.575246198300e-01 0.0 
5.575246198300e-01 -8.048874015842e+01 0.0 
0.0 0.0 -3.039001636172e+01 
-6.713946454151e+01 2.681000578733e+01 0.0 
2.681000578733e+01 -1.927798759706e+02 0.0 
0.0 0.0 -7.733581191378e+01 
-1.049168388988e+02 1.695236090945e+01 0.0 
1.695236090945e+01 -2.984737580169e+02 0.0 
0.0 0.0 -1.208158379579e+02 
-9.570757588855e+01 2.077043177987e+01 0.0 
2.077043177987e+01 -1.819374177283e+02 0.0 
0.0 0.0 -8.289349808507e+01 
-9.945149314872e+01 2.396810641846e+01 0.0 
2.396810641846e+01 -1.961428527078e+02 0.0 
0.0 0.0 -8.827830375695e+01 
-1.007088430985e+02 1.885347167876e+01 0.0 
1.885347167876e+01 -2.881358703791e+02 0.0 
0.0 0.0 -1.162534140433e+02 
-8.857124113163e+01 1.531419030719e+01 0.0 
1.531419030719e+01 -1.578882356281e+02 0.0 
0.0 0.0 -7.353784302791e+01 
-5.861532383163e+01 1.906593024673e+01 0.0 
1.906593024673e+01 -1.967549659887e+02 0.0 
0.0 0.0 -7.696637894347e+01 
-9.628149510373e+01 3.407537269412e+01 0.0 
3.407537269412e+01 -2.389857886593e+02 0.0 
0.0 0.0 -1.001801851289e+02 
-4.016149792062e+01 2.531680143243e+01 0.0 
2.531680143243e+01 -2.657405686167e+01 0.0 
0.0 0.0 -1.633088824317e+01 
-1.048253297657e+02 3.346354899821e+01 0.0 
3.346354899821e+01 -2.341600026519e+02 0.0 
0.0 0.0 -1.012955997253e+02 
-6.105732083279e+01 2.631222700800e+01 0.0 
2.631222700800e+01 -2.976775353133e+01 0.0 
0.0 0.0 -2.490598704207e+01 
-5.225932711816e+01 1.634882760574e+01 0.0 
1.634882760574e+01 -2.348391548571e+01 0.0 
0.0 0.0 -2.119061757921e+01 
-6.553938309838e+01 1.530862598012e+01 0.0 
1.530862598012e+01 -2.225944658378e+02 0.0 
0.0 0.0 -9.038515058532e+01 
-4.995953940003e+01 1.220516586054e+01 0.0 
1.220516586054e+01 -2.823260832392e+01 0.0 
0.0 0.0 -2.238364746004e+01 
-7.453774882738e+01 2.526411234502e+01 0.0 
2.526411234502e+01 -2.243795432738e+02 0.0 
0.0 0.0 -8.974460961645e+01 
-5.975391824397e+01 2.429287537219e+01 0.0 
2.429287537219e+01 -1.855053822562e+02 0.0 
0.0 0.0 -7.417919558025e+01 
-6.846289953984e+01 6.013440161178e+00 0.0 
6.013440161178e+00 -2.260618700597e+02 0.0 
0.0 0.0 -9.237974755999e+01 
-4.018511966267e+01 -9.152793392594e+00 0.0 
-9.152793392594e+00 -1.389278392128e+02 0.0 
0.0 0.0 -4.975711965744e+01 
-6.316051793965e+01 1.150133095942e+01 0.0 
1.150133095942e+01 -2.167882457076e+02 0.0 
0.0 0.0 -8.641735424003e+01 
-8.578858131265e+01 1.198862043825e+01 0.0 
1.198862043825e+01 -1.656896697980e+02 0.0 
0.0 0.0 -7.504347533319e+01 
-1.040515888790e+02 3.182856026002e+01 0.0 
3.182856026002e+01 -2.240503329091e+02 0.0 
0.0 0.0 -9.803057653644e+01 
-1.196525625148e+02 2.555395373103e+00 0.0 
2.555395373103e+00 -3.115120283411e+02 0.0 
0.0 0.0 -1.289493772568e+02 
-1.200293162129e+02 2.421704245547e+01 0.0 
2.421704245547e+01 -3.162600768775e+02 0.0 
0.0 0.0 -1.304868179271e+02 
-7.264686825078e+01 -2.474655777670e+00 0.0 
-2.474655777670e+00 -2.243692023344e+02 0.0 
0.0 0.0 -9.148953783444e+01 
-8.716337762184e+01 1.613741318789e+01 0.0 
1.613741318789e+01 -1.585261691953e+02 0.0 
0.0 0.0 -7.330686404513e+01 
-6.614997306615e+01 8.123551176026e+00 0.0 
8.123551176026e+00 -2.250378845496e+02 0.0 
0.0 0.0 -9.126265940195e+01 
-1.350224202071e+02 3.320365272187e+00 0.0 
3.320365272187e+00 -3.383467349910e+02 0.0 
0.0 0.0 -1.416107465594e+02 
-8.284092104709e+01 1.325283013334e+01 0.0 
1.325283013334e+01 -1.457569124704e+02 0.0 
0.0 0.0 -6.817935005525e+01 
-8.990194704918e+01 2.024478543453e+01 0.0 
2.024478543453e+01 -1.522574861804e+02 0.0 
0.0 0.0 -7.224782996888e+01 
-8.913877592273e+01 1.249651097388e+01 0.0 
1.249651097388e+01 -2.743550632016e+02 0.0 
0.0 0.0 -1.120851466388e+02 
-6.074586533369e+01 1.517379439145e+01 0.0 
1.517379439145e+01 -2.073848111363e+02 0.0 
0.0 0.0 -8.161946515862e+01 
-1.049408908699e+02 3.467881391479e+01 0.0 
3.467881391479e+01 -2.573610094534e+02 0.0 
0.0 0.0 -1.082905700970e+02 
-7.937832008301e+01 3.288476845201e+01 0.0 
3.288476845201e+01 -1.681569672592e+02 0.0 
0.0 0.0 -7.362882300653e+01 
-4.601923528351e+01 -1.495387164099e+01 0.0 
-1.495387164099e+01 -1.395765582588e+02 0.0 
0.0 0.0 -5.174725670814e+01 
-4.136937431349e+01 3.580497455179e+00 0.0 
3.580497455179e+00 -1.470937146489e+02 0.0 
0.0 0.0 -5.286351715116e+01 
-5.421830845552e+01 3.306753911915e+01 0.0 
3.306753911915e+01 -1.423820881073e+02 0.0 
0.0 0.0 -5.857124312433e+01 
-7.416453114118e+01 3.285850712981e+01 0.0 
3.285850712981e+01 -1.820806327071e+02 0.0 
0.0 0.0 -7.381152624533e+01 
-1.403325305526e+02 2.921061981934e+00 0.0 
2.921061981934e+00 -3.466997557321e+02 0.0 
0.0 0.0 -1.457096858854e+02 
-8.574795004282e+01 1.711727390158e+01 0.0 
1.711727390158e+01 -1.389220081304e+02 0.0 
0.0 0.0 -6.700098745196e+01 
-6.077018839514e+01 1.200752029458e+01 0.0 
1.200752029458e+01 -2.047769600891e+02 0.0 
0.0 0.0 -8.036865993180e+01 
-7.987874120283e+01 3.354620931117e+01 0.0 
3.354620931117e+01 -2.015972658430e+02 0.0 
0.0 0.0 -8.404280211375e+01 
-1.112578281396e+02 1.601471772495e+01 0.0 
1.601471772495e+01 -3.095687780135e+02 0.0 
0.0 0.0 -1.258479818459e+02 
-8.585434582895e+01 1.197549143956e+01 0.0 
1.197549143956e+01 -1.566296518107e+02 0.0 
0.0 0.0 -7.234519929190e+01 
-1.087211447786e+02 3.587097259303e+01 0.0 
3.587097259303e+01 -2.600047777032e+02 0.0 
0.0 0.0 -1.102177767445e+02 
-7.284175556148e+01 1.224555591675e+01 0.0 
1.224555591675e+01 -1.053491155944e+02 0.0 
0.0 0.0 -5.305726134676e+01 
-1.198935714064e+02 1.173087255268e+01 0.0 
1.173087255268e+01 -3.237199575414e+02 0.0 
0.0 0.0 -1.326840586844e+02 
-6.982270228221e+01 1.026790328109e+01 0.0 
1.026790328109e+01 -2.313317062363e+02 0.0 
0.0 0.0 -9.490648180063e+01 
-1.135226067198e+02 1.683052868409e+01 0.0 
1.683052868409e+01 -3.106431194165e+02 0.0 
0.0 0.0 -1.268497178409e+02 
-6.962978817179e+01 3.075522269361e+01 0.0 
3.075522269361e+01 -1.950467564733e+02 0.0 
0.0 0.0 -7.966417397902e+01 
-9.339777138350e+01 1.707996775161e+01 0.0 
1.707996775161e+01 -1.792744545895e+02 0.0 
0.0 0.0 -8.140166779190e+01 
-1.135804757807e+02 3.738511296657e+01 0.0 
3.738511296657e+01 -2.645022702297e+02 0.0 
0.0 0.0 -1.130248238031e+02 
-7.942284327538e+01 1.053663269136e+01 0.0 
1.053663269136e+01 -2.566080286000e+02 0.0 
0.0 0.0 -1.064155145274e+02 
-3.937392469680e+01 4.639340112344e+00 0.0 
4.639340112344e+00 -1.453354184549e+02 0.0 
0.0 0.0 -5.297188366982e+01 
-1.056932166098e+02 2.885620911030e+01 0.0 
2.885620911030e+01 -2.807944218309e+02 0.0 
0.0 0.0 -1.155462915322e+02 
-7.213566080317e+01 2.637475823163e+01 0.0 
2.637475823163e+01 -2.103661130646e+02 0.0 
0.0 0.0 -8.423061677519e+01 
-5.761832868448e+01 1.525933984981e+01 0.0 
1.525933984981e+01 -1.930431093088e+02 0.0 
0.0 0.0 -7.456866658176e+01 
-8.555848156327e+01 1.414188196585e+01 0.0 
1.414188196585e+01 -2.649823593266e+02 0.0 
0.0 0.0 -1.084288907065e+02 
-1.178999331413e+02 1.019479982871e+01 0.0 
1.019479982871e+01 -3.165469037486e+02 0.0 
0.0 0.0 -1.299340510670e+02 
-4.112327635333e+01 -3.764282749394e+00 0.0 
-3.764282749394e+00 -1.436161041088e+02 0.0 
0.0 0.0 -5.253547670362e+01 
-7.231868248106e+01 9.029290457141e+00 0.0 
9.029290457141e+00 -2.403792990306e+02 0.0 
0.0 0.0 -9.940376069080e+01 
-8.291233073825e+01 2.968625511365e+01 0.0 
2.968625511365e+01 -1.540156424579e+02 0.0 
0.0 0.0 -7.067839195885e+01 
-1.414803349729e+02 4.345585820968e+00 0.0 
4.345585820968e+00 -3.474724750191e+02 0.0 
0.0 0.0 -1.462858429976e+02 
-8.602846043767e+01 3.119621157529e+01 0.0 
3.119621157529e+01 -1.720617134478e+02 0.0 
0.0 0.0 -7.702705216565e+01 
-1.006318593744e+02 2.988729728780e+01 0.0 
2.988729728780e+01 -2.666861781460e+02 0.0 
0.0 0.0 -1.097954112561e+02 
-7.963252832983e+01 2.762119443502e+01 0.0 
2.762119443502e+01 -1.358045203969e+02 0.0 
0.0 0.0 -6.423111461801e+01 
-7.134468871974e+01 2.115359273413e+01 0.0 
2.115359273413e+01 -9.914298733372e+01 0.0 
0.0 0.0 -5.074630281604e+01 
-8.183212439525e+01 3.296700339429e+01 0.0 
3.296700339429e+01 -1.860847134977e+02 0.0 
0.0 0.0 -7.996635714464e+01 
-1.149548883943e+02 2.179538196782e+01 0.0 
2.179538196782e+01 -3.106105463717e+02 0.0 
0.0 0.0 -1.272696304298e+02 
-1.262127436994e+02 5.177817560980e+00 0.0 
5.177817560980e+00 -3.231859758807e+02 0.0 
0.0 0.0 -1.344196158740e+02 
-7.982708695110e+01 1.480626950350e+01 0.0 
1.480626950350e+01 -1.277986323325e+02 0.0 
0.0 0.0 -6.188771578507e+01 
-9.607349302070e+01 2.134540585834e+01 0.0 
2.134540585834e+01 -1.942354180402e+02 0.0 
0.0 0.0 -8.669267331828e+01 
-7.602534760196e+01 2.483704767713e+01 0.0 
2.483704767713e+01 -1.175617175132e+02 0.0 
0.0 0.0 -5.767611953455e+01 
-5.119772426167e+01 1.051790279462e+01 0.0 
1.051790279462e+01 -1.759250694909e+02 0.0 
0.0 0.0 -6.510237934424e+01 
-1.114845251161e+02 3.198852189411e+01 0.0 
3.198852189411e+01 -2.852873095930e+02 0.0 
0.0 0.0 -1.186315504127e+02 
-9.113993815586e+01 1.380630485321e+01 0.0 
1.380630485321e+01 -1.780945250063e+02 0.0 
0.0 0.0 -8.037033894865e+01 
-6.811091407505e+01 2.714651204166e+01 0.0 
2.714651204166e+01 -2.070377320874e+02 0.0 
0.0 0.0 -8.479070293781e+01 
-7.111864918321e+01 2.887677529830e+01 0.0 
2.887677529830e+01 -2.096711610254e+02 0.0 
0.0 0.0 -8.559289822362e+01 
-5.597565875879e+01 1.117863806733e+01 0.0 
1.117863806733e+01 -1.898325129333e+02 0.0 
0.0 0.0 -7.190828421302e+01 
-8.437495957384e+01 1.808078112595e+01 0.0 
1.808078112595e+01 -1.419336801758e+02 0.0 
0.0 0.0 -6.749259192491e+01 
-5.862723941129e+01 3.363337546042e+01 0.0 
3.363337546042e+01 -1.265705605365e+02 0.0 
0.0 0.0 -5.254249507762e+01 
-7.875521276135e+01 2.492652203432e+01 0.0 
2.492652203432e+01 -2.386137850458e+02 0.0 
0.0 0.0 -9.749063738572e+01 
-5.719612900627e+01 3.193937407225e+01 0.0 
3.193937407225e+01 -1.264049481497e+02 0.0 
0.0 0.0 -5.122237497215e+01 
-1.037369569089e+02 2.044375535846e+01 0.0 
2.044375535846e+01 -2.929612241330e+02 0.0 
0.0 0.0 -1.186094543126e+02 
-1.219500993350e+02 3.320047175725e+01 0.0 
3.320047175725e+01 -3.028582987613e+02 0.0 
0.0 0.0 -1.270425194289e+02 
-5.942760580106e+01 7.525986806322e+00 0.0 
7.525986806322e+00 -2.006036402636e+02 0.0 
0.0 0.0 -7.764995708771e+01 
-3.269960339556e+01 -6.415809266998e+00 0.0 
-6.415809266998e+00 -1.234989651228e+02 0.0 
0.0 0.0 -4.829246272641e+01 
-9.861783517390e+01 2.530552371449e+01 0.0 
2.530552371449e+01 -2.014445664055e+02 0.0 
0.0 0.0 -8.961872047381e+01 
-6.181807988421e+01 3.341376006186e+01 0.0 
3.341376006186e+01 -1.272679330183e+02 0.0 
0.0 0.0 -5.269218644590e+01 
-7.362837125261e+01 8.661663918295e-01 0.0 
8.661663918295e-01 -2.322701291305e+02 0.0 
0.0 0.0 -9.542931813367e+01 
-1.158767641194e+02 3.008608341618e+01 0.0 
3.008608341618e+01 -2.988451513657e+02 0.0 
0.0 0.0 -1.240165746455e+02 
-8.403329277646e+01 1.828056898272e+01 0.0 
1.828056898272e+01 -1.301799993149e+02 0.0 
0.0 0.0 -6.386398762741e+01 
-1.209186624271e+02 5.383164933529e+00 0.0 
5.383164933529e+00 -3.149934730450e+02 0.0 
0.0 0.0 -1.303736406416e+02 
-5.704790329473e+01 2.178824405863e+01 0.0 
2.178824405863e+01 -1.830315660768e+02 0.0 
0.0 0.0 -7.188708003457e+01 
-2.983291448985e+01 -4.146353410855e+00 0.0 
-4.146353410855e+00 -1.242145969719e+02 0.0 
0.0 0.0 -4.898134908405e+01 
-1.464868512361e+02 3.980230913729e+00 0.0 
3.980230913729e+00 -3.567007046192e+02 0.0 
0.0 0.0 -1.505562667566e+02 
-7.608406984339e+01 3.195907733147e+01 0.0 
3.195907733147e+01 -1.986457298689e+02 0.0 
0.0 0.0 -7.999593680610e+01 
-9.312915515791e+01 2.365587020228e+01 0.0 
2.365587020228e+01 -2.687859826052e+02 0.0 
0.0 0.0 -1.081745413289e+02 
-1.092121827444e+02 3.319128285234e+01 0.0 
3.319128285234e+01 -2.730980083753e+02 0.0 
0.0 0.0 -1.142930573359e+02 
-3.878231382982e+01 -4.413755734749e-01 0.0 
-4.413755734749e-01 -1.233960101217e+02 0.0 
0.0 0.0 -5.050697141016e+01 
-1.184257553638e+02 4.219150705559e+00 0.0 
4.219150705559e+00 -3.136793893634e+02 0.0 
0.0 0.0 -1.292315434182e+02 
-4.491330159778e+01 2.336633743532e+01 0.0 
2.336633743532e+01 -1.352357837532e+02 0.0 
0.0 0.0 -4.956619240869e+01 
-7.787754247944e+01 1.601784815347e+01 0.0 
1.601784815347e+01 -1.081038903500e+02 0.0 
0.0 0.0 -5.539442984885e+01 
-1.043120594470e+02 -2.409281153593e+00 0.0 
-2.409281153593e+00 -2.563480280961e+02 0.0 
0.0 0.0 -1.043146414472e+02 
-5.824548872362e+01 1.096051251167e+01 0.0 
1.096051251167e+01 -2.021244743323e+02 0.0 
0.0 0.0 -7.795606408118e+01 
-1.364425370759e+02 4.646575362169e+00 0.0 
4.646575362169e+00 -3.392413451974e+02 0.0 
0.0 0.0 -1.423051646820e+02 
-7.682684561402e+01 2.780467728910e+01 0.0 
2.780467728910e+01 -2.261239553996e+02 0.0 
0.0 0.0 -9.213737418868e+01 
-5.365409889168e+01 1.069153544782e+01 0.0 
1.069153544782e+01 -1.875512655345e+02 0.0 
0.0 0.0 -7.082114023836e+01 
-7.579872318079e+01 3.193216803558e+01 0.0 
3.193216803558e+01 -1.999000440128e+02 0.0 
0.0 0.0 -8.230963015808e+01 
-3.606037644173e+01 -1.865925632083e+01 0.0 
-1.865925632083e+01 -1.164868567430e+02 0.0 
0.0 0.0 -4.757353538195e+01 
-9.177993164910e+01 3.283797167727e+01 0.0 
3.283797167727e+01 -2.364950461645e+02 0.0 
0.0 0.0 -9.808249334406e+01 
-1.054604397290e+02 2.141343035236e+01 0.0 
2.141343035236e+01 -2.938998352525e+02 0.0 
0.0 0.0 -1.194080824944e+02 
-1.154153684076e+02 3.693151553166e+01 0.0 
3.693151553166e+01 -2.646252934712e+02 0.0 
0.0 0.0 -1.136121985636e+02 
-1.008316058306e+02 3.342608004604e+01 0.0 
3.342608004604e+01 -2.550420927429e+02 0.0 
0.0 0.0 -1.063621095721e+02 
-4.535621595049e+01 4.260094478666e+00 0.0 
4.260094478666e+00 -1.594422748814e+02 0.0 
0.0 0.0 -5.743043593427e+01 
-1.217636593776e+02 3.867105529557e+00 0.0 
3.867105529557e+00 -3.127017443466e+02 0.0 
0.0 0.0 -1.299396211173e+02 
-9.079827727528e+01 1.391101496100e+01 0.0 
1.391101496100e+01 -1.870652712237e+02 0.0 
0.0 0.0 -8.295906454970e+01 
-1.386413763529e+02 2.946266268165e+01 0.0 
2.946266268165e+01 -3.396773579642e+02 0.0 
0.0 0.0 -1.430956202951e+02 
-1.104176336217e+02 2.386755259362e+01 0.0 
2.386755259362e+01 -2.995221889273e+02 0.0 
0.0 0.0 -1.225819467647e+02 
-5.951805625867e+01 1.883906959201e+01 0.0 
1.883906959201e+01 -1.959283223822e+02 0.0 
0.0 0.0 -7.738508709056e+01 
-8.318096504482e+01 3.260470019254e+01 0.0 
3.260470019254e+01 -2.180619232300e+02 0.0 
0.0 0.0 -8.997286648246e+01 
-1.400279204712e+02 1.630304981585e+00 0.0 
1.630304981585e+00 -3.439765348386e+02 0.0 
0.0 0.0 -1.448013365929e+02 
-1.036224632809e+02 -7.205768422714e-01 0.0 
-7.205768422714e-01 -2.346061148112e+02 0.0 
0.0 0.0 -9.707856558560e+01 
-9.611575908094e+01 3.080345830793e+01 0.0 
3.080345830793e+01 -2.519171057961e+02 0.0 
0.0 0.0 -1.040098594631e+02 
-7.480847487127e+01 1.146779359748e+01 0.0 
1.146779359748e+01 -1.144183925413e+02 0.0 
0.0 0.0 -5.636806022378e+01 
-1.313757799054e+02 4.941776705097e+00 0.0 
4.941776705097e+00 -3.312250902037e+02 0.0 
0.0 0.0 -1.383802610327e+02 
-1.252627104728e+02 7.079562530580e+00 0.0 
7.079562530580e+00 -3.249785551441e+02 0.0 
0.0 0.0 -1.346723796851e+02 
-3.212315020743e+01 1.729057493796e-01 0.0 
1.729057493796e-01 -2.772503776539e+01 0.0 
0.0 0.0 -1.755445639185e+01 
-3.200170941849e+01 -4.614183115607e-02 0.0 
-4.614183115607e-02 -2.762678549903e+01 0.0 
0.0 0.0 -1.748854847526e+01 
-8.680053669893e+01 3.157433536934e+01 0.0 
3.157433536934e+01 -1.584959667181e+02 0.0 
0.0 0.0 -7.318895102512e+01 
-8.763841681706e+01 3.050146189645e+01 0.0 
3.050146189645e+01 -2.339479044518e+02 0.0 
0.0 0.0 -9.607589638064e+01 
-1.081458420000e+02 -1.490065338631e+00 0.0 
-1.490065338631e+00 -2.641865365846e+02 0.0 
0.0 0.0 -1.083369452578e+02 
-8.498173635574e+01 3.475223066936e+01 0.0 
3.475223066936e+01 -1.878634479895e+02 0.0 
0.0 0.0 -8.145355530357e+01 
-7.324214193233e+01 2.651751377441e+01 0.0 
2.651751377441e+01 -2.233482138473e+02 0.0 
0.0 0.0 -9.142606249966e+01 
-1.292110795694e+02 1.658073564905e+01 0.0 
1.658073564905e+01 -3.367692326323e+02 0.0 
0.0 0.0 -1.393940936605e+02 
-6.154430720319e+01 2.239911002539e+01 0.0 
2.239911002539e+01 -2.000291898915e+02 0.0 
0.0 0.0 -8.039529210062e+01 
-1.047257626659e+02 2.420291999515e+01 0.0 
2.420291999515e+01 -2.321537495091e+02 0.0 
0.0 0.0 -1.006638536525e+02 
-6.550932098191e+01 1.968498021335e+01 0.0 
1.968498021335e+01 -7.660449226075e+01 0.0 
0.0 0.0 -4.223414397280e+01 
-6.878740893202e+01 2.501630256974e+01 0.0 
2.501630256974e+01 -2.060030114214e+02 0.0 
0.0 0.0 -8.303327489566e+01 
-9.810391630433e+01 -2.159689067709e+00 0.0 
-2.159689067709e+00 -2.549003398282e+02 0.0 
0.0 0.0 -1.036201875525e+02 
-4.243491416380e+01 1.013232531575e+01 0.0 
1.013232531575e+01 -1.484042446950e+02 0.0 
0.0 0.0 -5.250831526008e+01 
-9.396235810544e+01 -5.853744915225e+00 0.0 
-5.853744915225e+00 -2.293362318969e+02 0.0 
0.0 0.0 -9.441840466181e+01 
-8.101896038649e+01 3.118774150790e+01 0.0 
3.118774150790e+01 -2.163534915044e+02 0.0 
0.0 0.0 -8.811446879790e+01 
-7.663432177318e+01 3.319941223132e+01 0.0 
3.319941223132e+01 -1.832544040427e+02 0.0 
0.0 0.0 -7.592404519395e+01 
-7.813158534260e+01 1.591990715122e+01 0.0 
1.591990715122e+01 -1.195535305035e+02 0.0 
0.0 0.0 -5.890553475384e+01 
-8.879788300591e+01 3.292497019987e+01 0.0 
3.292497019987e+01 -2.052515789073e+02 0.0 
0.0 0.0 -8.781483857397e+01 
-9.242015942772e+01 3.489051013016e+01 0.0 
3.489051013016e+01 -2.076055896504e+02 0.0 
0.0 0.0 -8.960772472343e+01 
-1.571516266997e+01 -4.022388387625e-02 0.0 
-4.022388387625e-02 -5.948297139662e+01 0.0 
0.0 0.0 -2.083180065286e+01 
-8.637335941876e+01 -5.974322131122e+00 0.0 
-5.974322131122e+00 -2.161655031376e+02 0.0 
0.0 0.0 -8.681274454950e+01 
-5.973608543440e+01 3.275497967002e+01 0.0 
3.275497967002e+01 -1.270239671712e+02 0.0 
0.0 0.0 -5.128742980035e+01 
-8.256088306011e+01 3.207497985569e+01 0.0 
3.207497985569e+01 -1.698261368873e+02 0.0 
0.0 0.0 -7.531610598423e+01 
-8.598158832397e+01 3.390291660249e+01 0.0 
3.390291660249e+01 -1.728135881324e+02 0.0 
0.0 0.0 -7.723855293690e+01 
-1.211994532067e+02 2.079434911163e+01 0.0 
2.079434911163e+01 -3.217595070274e+02 0.0 
0.0 0.0 -1.324876880702e+02 
-3.283245299572e+01 -1.410214232386e+00 0.0 
-1.410214232386e+00 -8.971654593462e+01 0.0 
0.0 0.0 -3.454156600613e+01 
-4.144806165471e+01 -1.100922861883e+01 0.0 
-1.100922861883e+01 -1.364347095384e+02 0.0 
0.0 0.0 -5.022598360567e+01 
-7.315267125853e+01 3.137692336122e+01 0.0 
3.137692336122e+01 -1.969809209802e+02 0.0 
0.0 0.0 -8.006685998770e+01 
-9.180531053699e+01 -6.519461798396e+00 0.0 
-6.519461798396e+00 -2.174834849329e+02 0.0 
0.0 0.0 -8.919229771642e+01 
-5.703218526670e+01 2.435230077928e+01 0.0 
2.435230077928e+01 -2.707605515780e+01 0.0 
0.0 0.0 -2.316589626176e+01 
-5.869994246767e+01 1.944196460155e+01 0.0 
1.944196460155e+01 -3.296784303526e+01 0.0 
0.0 0.0 -2.613893746527e+01 
-8.206147154550e+01 1.971980561988e+01 0.0 
1.971980561988e+01 -1.218642690862e+02 0.0 
0.0 0.0 -6.077772218950e+01 
-3.857921135509e+01 2.384672734408e+01 0.0 
2.384672734408e+01 -1.053416027217e+02 0.0 
0.0 0.0 -3.680961742181e+01 
-9.691919471614e+01 -3.454730321579e+00 0.0 
-3.454730321579e+00 -2.437247205431e+02 0.0 
0.0 0.0 -9.896163850536e+01 
-1.092220274657e+02 1.420484148041e+01 0.0 
1.420484148041e+01 -3.039225368419e+02 0.0 
0.0 0.0 -1.235433692923e+02 
-3.738155909546e+01 -2.863696434205e+00 0.0 
-2.863696434205e+00 -1.389286232659e+02 0.0 
0.0 0.0 -5.126569466838e+01 
-1.304395907768e+02 3.546305112968e+01 0.0 
3.546305112968e+01 -3.120604734040e+02 0.0 
0.0 0.0 -1.323500192543e+02 
-9.219802208601e+01 1.792085753656e+01 0.0 
1.792085753656e+01 -1.693972401951e+02 0.0 
0.0 0.0 -7.807857868433e+01 
-9.997455737933e+01 -3.819675105638e+00 0.0 
-3.819675105638e+00 -2.332677973965e+02 0.0 
0.0 0.0 -9.478091093349e+01 
-1.249886796893e+02 2.414335387429e+00 0.0 
2.414335387429e+00 -3.196807305036e+02 0.0 
0.0 0.0 -1.330008230579e+02 
-1.029228639815e+01 -1.312224379060e+00 0.0 
-1.312224379060e+00 -4.221872124065e+01 0.0 
0.0 0.0 -1.362595043602e+01 
-1.052026223777e+02 1.144336306227e+01 0.0 
1.144336306227e+01 -2.966431478103e+02 0.0 
0.0 0.0 -1.208405233911e+02 
-7.259026453131e+01 3.007289279246e+01 0.0 
3.007289279246e+01 -1.979031588896e+02 0.0 
0.0 0.0 -8.039891717014e+01 
-1.056285939169e+01 -8.633695726349e-01 0.0 
-8.633695726349e-01 -4.210959496460e+01 0.0 
0.0 0.0 -1.348298092228e+01 
-8.820339531974e+01 1.540788437909e+01 0.0 
1.540788437909e+01 -1.673718100056e+02 0.0 
0.0 0.0 -7.627256159761e+01 
-3.669883787767e+01 -5.167590744353e+00 0.0 
-5.167590744353e+00 -1.325573628892e+02 0.0 
0.0 0.0 -4.987945427647e+01 
-8.185103015267e+01 3.447855239915e+01 0.0 
3.447855239915e+01 -1.700512090607e+02 0.0 
0.0 0.0 -7.517067176400e+01 
-7.336805986678e+01 3.282341854211e+01 0.0 
3.282341854211e+01 -1.830545326329e+02 0.0 
0.0 0.0 -7.620946644808e+01 
-7.328148442097e+01 -6.176304095707e-01 0.0 
-6.176304095707e-01 -2.301007076403e+02 0.0 
0.0 0.0 -9.462663689969e+01 
-9.191653549956e+01 3.508508006118e+00 0.0 
3.508508006118e+00 -2.695924532106e+02 0.0 
0.0 0.0 -1.093552871983e+02 
-9.203471739066e+01 1.828655408372e+01 0.0 
1.828655408372e+01 -1.801477518328e+02 0.0 
0.0 0.0 -8.125474076703e+01 
-1.005721104525e+02 5.137531634119e+00 0.0 
5.137531634119e+00 -2.878270459666e+02 0.0 
0.0 0.0 -1.161197469257e+02 
-7.485021248628e+01 2.979268664005e+01 0.0 
2.979268664005e+01 -2.121177038345e+02 0.0 
0.0 0.0 -8.625885296714e+01 
-7.014058141041e+01 2.834766914448e+01 0.0 
2.834766914448e+01 -1.956179956133e+02 0.0 
0.0 0.0 -7.807989123131e+01 
-4.733013792588e+01 3.319676745072e+01 0.0 
3.319676745072e+01 -3.201072404631e+01 0.0 
0.0 0.0 -2.053526771948e+01 
-3.334555478504e+01 -3.968030161994e+00 0.0 
-3.968030161994e+00 -1.294768556805e+02 0.0 
0.0 0.0 -4.920585167017e+01 
-1.057983044649e+02 3.271099740800e+01 0.0 
3.271099740800e+01 -2.704435743447e+02 0.0 
0.0 0.0 -1.124725636429e+02 
-7.709302230416e+01 2.375535210882e+01 0.0 
2.375535210882e+01 -1.070886453613e+02 0.0 
0.0 0.0 -5.485450029965e+01 
-1.099161739314e+02 3.095509352154e+01 0.0 
3.095509352154e+01 -2.843568539294e+02 0.0 
0.0 0.0 -1.178819083582e+02 
-4.804428492343e+01 2.767537936325e+01 0.0 
2.767537936325e+01 -1.389262700247e+02 0.0 
0.0 0.0 -5.358736896491e+01 
-9.415345470116e+01 2.805638896257e+01 0.0 
2.805638896257e+01 -1.838126786036e+02 0.0 
0.0 0.0 -8.298983999144e+01 
-1.101938228487e+02 3.445382211231e+01 0.0 
3.445382211231e+01 -2.736491085428e+02 0.0 
0.0 0.0 -1.147528794174e+02 
-5.795504413479e+01 1.961603505246e+01 0.0 
1.961603505246e+01 -4.977705647316e+01 0.0 
0.0 0.0 -3.114330576221e+01 
-1.050518448396e+02 3.144375006837e+01 0.0 
3.144375006837e+01 -2.698117894103e+02 0.0 
0.0 0.0 -1.120590902750e+02 
-1.266876275305e+02 3.778140958614e+00 0.0 
3.778140958614e+00 -3.207091567456e+02 0.0 
0.0 0.0 -1.338190352828e+02 
-8.329406524043e+01 2.924500737089e+01 0.0 
2.924500737089e+01 -2.314257995814e+02 0.0 
0.0 0.0 -9.396259862721e+01 
-9.261453791833e+01 -4.029230790725e+00 0.0 
-4.029230790725e+00 -2.357147638556e+02 0.0 
0.0 0.0 -9.480021455317e+01 
-1.001849409735e+02 -3.462652967414e+00 0.0 
-3.462652967414e+00 -2.485527094279e+02 0.0 
0.0 0.0 -1.016726654597e+02 
-1.028547602136e+02 2.843631941314e+01 0.0 
2.843631941314e+01 -2.045515032698e+02 0.0 
0.0 0.0 -9.182187904504e+01 
-8.565300536991e+01 1.881856416553e+00 0.0 
1.881856416553e+00 -2.507155641060e+02 0.0 
0.0 0.0 -1.030536568615e+02 
-7.884900951294e+01 3.250254466010e+01 0.0 
3.250254466010e+01 -2.002420756838e+02 0.0 
0.0 0.0 -8.210044347783e+01 
-7.195948161774e+01 2.166814201532e+01 0.0 
2.166814201532e+01 -2.321828317988e+02 0.0 
0.0 0.0 -9.537125183841e+01 
-1.107072522048e+02 6.983126974977e+00 0.0 
6.983126974977e+00 -3.061896599737e+02 0.0 
0.0 0.0 -1.246690736536e+02 
-6.544537051425e+01 2.345500744188e+01 0.0 
2.345500744188e+01 -2.016737685231e+02 0.0 
0.0 0.0 -8.149573047697e+01 
-4.702466454685e+01 4.992400175762e+00 0.0 
4.992400175762e+00 -1.688178373970e+02 0.0 
0.0 0.0 -6.142225688083e+01 
-7.687092406807e+01 7.294976613511e+00 0.0 
7.294976613511e+00 -2.487965834241e+02 0.0 
0.0 0.0 -1.036195210266e+02 
-4.918311654910e+01 1.036823933203e+01 0.0 
1.036823933203e+01 -1.740339660655e+02 0.0 
0.0 0.0 -6.408047585812e+01 
-8.554573982529e+01 3.271436180033e+01 0.0 
3.271436180033e+01 -1.876867982570e+02 0.0 
0.0 0.0 -8.156976142469e+01 
-4.992102523958e+01 5.199679022986e+00 0.0 
5.199679022986e+00 -1.727281444454e+02 0.0 
0.0 0.0 -6.345220330025e+01 
-8.076893939624e+01 3.480194513070e+01 0.0 
3.480194513070e+01 -1.860003091985e+02 0.0 
0.0 0.0 -7.963077457841e+01 
-1.166943152161e+02 2.288282464861e+01 0.0 
2.288282464861e+01 -3.115872124843e+02 0.0 
0.0 0.0 -1.280844583101e+02 
-1.098794305905e+02 1.939690582381e+01 0.0 
1.939690582381e+01 -3.046431678306e+02 0.0 
0.0 0.0 -1.239567795263e+02 
-6.473461511123e+01 2.509370651496e+01 0.0 
2.509370651496e+01 -2.036164992284e+02 0.0 
0.0 0.0 -8.327570247110e+01 
-7.627520012000e+01 1.732208606527e+01 0.0 
1.732208606527e+01 -1.121069713006e+02 0.0 
0.0 0.0 -5.611465142619e+01 
-1.302192756681e+02 2.202642312989e+00 0.0 
2.202642312989e+00 -3.278566128469e+02 0.0 
0.0 0.0 -1.370227665545e+02 
-1.316018827934e+02 3.595387441240e+00 0.0 
3.595387441240e+00 -3.287623222933e+02 0.0 
0.0 0.0 -1.377092615260e+02 
-3.939288736769e+01 2.767035446496e+01 0.0 
2.767035446496e+01 -9.065643390442e+01 0.0 
0.0 0.0 -3.509851461877e+01 
-8.479709985858e+01 3.279115129734e+01 0.0 
3.279115129734e+01 -2.033309677686e+02 0.0 
0.0 0.0 -8.603842028815e+01 
-1.460012960769e+02 2.314847570584e+00 0.0 
2.314847570584e+00 -3.559538592828e+02 0.0 
0.0 0.0 -1.501865466079e+02 
-4.775108439273e+01 3.125239881608e+01 0.0 
3.125239881608e+01 -7.018710388801e+01 0.0 
0.0 0.0 -3.067706951527e+01 
-1.060576603904e+02 -2.317372843915e+00 0.0 
-2.317372843915e+00 -2.527310930416e+02 0.0 
0.0 0.0 -1.035757245786e+02 
-4.841863482319e+01 3.349614662720e+01 0.0 
3.349614662720e+01 -3.123152558824e+01 0.0 
0.0 0.0 -2.145481567632e+01 
-1.353151990718e+02 1.945893960447e+00 0.0 
1.945893960447e+00 -3.360391904596e+02 0.0 
0.0 0.0 -1.410063168594e+02 
-4.487231492977e+01 1.042449478972e+01 0.0 
1.042449478972e+01 -1.612213507022e+02 0.0 
0.0 0.0 -5.850425658095e+01 
-1.051931031246e+02 -1.591205418940e+00 0.0 
-1.591205418940e+00 -2.405172271193e+02 0.0 
0.0 0.0 -9.970080999479e+01 
-9.185232882655e+01 2.280840023855e+01 0.0 
2.280840023855e+01 -2.680977067502e+02 0.0 
0.0 0.0 -1.081323398379e+02 
-8.007257129900e+01 2.136191703443e+01 0.0 
2.136191703443e+01 -1.144721091710e+02 0.0 
0.0 0.0 -5.796340414100e+01 
-7.479607822052e+01 1.921439759421e+01 0.0 
1.921439759421e+01 -1.052659034429e+02 0.0 
0.0 0.0 -5.361859449904e+01 
-7.811164485673e+01 3.060853306515e+01 0.0 
3.060853306515e+01 -2.143806310657e+02 0.0 
0.0 0.0 -8.643848603928e+01 
-4.703340538957e+01 2.958389023937e+01 0.0 
2.958389023937e+01 -2.780520988213e+01 0.0 
0.0 0.0 -1.893356223223e+01 
-5.019718631389e+01 2.924208432971e+01 0.0 
2.924208432971e+01 -2.530388531073e+01 0.0 
0.0 0.0 -1.994154270005e+01 
-1.363146675160e+02 3.290297824610e+00 0.0 
3.290297824610e+00 -3.367781887865e+02 0.0 
0.0 0.0 -1.415278568908e+02 
-9.836158483199e+01 6.190890157074e+00 0.0 
6.190890157074e+00 -2.803966144543e+02 0.0 
0.0 0.0 -1.156593108519e+02 
-7.851266916214e+01 2.437261504510e+00 0.0 
2.437261504510e+00 -2.465312868005e+02 0.0 
0.0 0.0 -1.018877191173e+02 
-1.019690216184e+02 1.076776922579e+01 0.0 
1.076776922579e+01 -2.951471193179e+02 0.0 
0.0 0.0 -1.190555964111e+02 
-6.996916431529e+01 5.656540993538e+00 0.0 
5.656540993538e+00 -2.316982448654e+02 0.0 
0.0 0.0 -9.528531716903e+01 
-4.659293941958e+01 1.007761592858e+01 0.0 
1.007761592858e+01 -1.619498963314e+02 0.0 
0.0 0.0 -5.839306932416e+01 
-4.560630562329e+01 2.576599779748e+01 0.0 
2.576599779748e+01 -2.696838993694e+01 0.0 
0.0 0.0 -1.895382110477e+01 
-7.050451191421e+01 2.181934865352e+01 0.0 
2.181934865352e+01 -8.451532135989e+01 0.0 
0.0 0.0 -4.610594998223e+01 
-3.223061827343e+01 8.783121400672e-02 0.0 
8.783121400672e-02 -2.790800293357e+01 0.0 
0.0 0.0 -1.764158636210e+01 
-1.117173266801e+02 2.039533001254e+01 0.0 
2.039533001254e+01 -3.056257636905e+02 0.0 
0.0 0.0 -1.248029271112e+02 
-6.216238544204e+01 2.154923631869e+01 0.0 
2.154923631869e+01 -1.984347722928e+02 0.0 
0.0 0.0 -7.990198713688e+01 
-1.313999057108e+02 2.581593387113e+01 0.0 
2.581593387113e+01 -3.337379408489e+02 0.0 
0.0 0.0 -1.391413539679e+02 
-1.350896125193e+02 -1.209990638563e-01 0.0 
-1.209990638563e-01 -3.317852850157e+02 0.0 
0.0 0.0 -1.396624692605e+02 
-7.457138390328e+01 8.316080740413e+00 0.0 
8.316080740413e+00 -2.424760354002e+02 0.0 
0.0 0.0 -1.002189033079e+02 
-1.521468372339e+02 4.903890687359e+00 0.0 
4.903890687359e+00 -3.667756995817e+02 0.0 
0.0 0.0 -1.552767610447e+02 
-5.394909564217e+01 9.614599867482e-01 0.0 
9.614599867482e-01 -1.820783420881e+02 0.0 
0.0 0.0 -6.860305978271e+01 
-1.244918857595e+02 2.663505190206e+01 0.0 
2.663505190206e+01 -3.210294143010e+02 0.0 
0.0 0.0 -1.332563900181e+02 
-7.517580767380e+01 2.877522671091e+01 0.0 
2.877522671091e+01 -2.135231848938e+02 0.0 
0.0 0.0 -8.620969777028e+01 
-8.703597234392e+01 2.764191783457e+01 0.0 
2.764191783457e+01 -2.456145062252e+02 0.0 
0.0 0.0 -9.939514357075e+01 
-1.268004828473e+02 1.504162162871e+01 0.0 
1.504162162871e+01 -3.321232565519e+02 0.0 
0.0 0.0 -1.372771218197e+02 
-7.433998366356e+01 -1.310950602741e+01 0.0 
-1.310950602741e+01 -1.820623298615e+02 0.0 
0.0 0.0 -7.517154304520e+01 
-8.152714683241e+01 3.277524798528e+01 0.0 
3.277524798528e+01 -2.017456825984e+02 0.0 
0.0 0.0 -8.416228409410e+01 
-7.348198151239e+01 3.908075834806e+00 0.0 
3.908075834806e+00 -2.369962786357e+02 0.0 
0.0 0.0 -9.753133285136e+01 
-7.671045869524e+01 3.404622472712e+01 0.0 
3.404622472712e+01 -1.844870985711e+02 0.0 
0.0 0.0 -7.795926717991e+01 
-4.675805992447e+01 2.579631744624e+01 0.0 
2.579631744624e+01 -1.358271072122e+02 0.0 
0.0 0.0 -5.151286316590e+01 
-9.125422575179e+01 2.624811302219e+01 0.0 
2.624811302219e+01 -2.591405096393e+02 0.0 
0.0 0.0 -1.047184206173e+02 
-6.823960244703e+01 1.778952612951e+00 0.0 
1.778952612951e+00 -2.236342585963e+02 0.0 
0.0 0.0 -9.134714531563e+01 
-1.023327261736e+02 -1.770256799220e+00 0.0 
-1.770256799220e+00 -2.628643148443e+02 0.0 
0.0 0.0 -1.075446651332e+02 
-7.921464659078e+01 3.333065946814e+01 0.0 
3.333065946814e+01 -1.845459452777e+02 0.0 
0.0 0.0 -7.794604894119e+01 
-4.963278697779e+01 3.812588650897e+01 0.0 
3.812588650897e+01 -5.891990983281e+01 0.0 
0.0 0.0 -3.152221208203e+01 
-7.811403115287e+01 2.042375677609e+01 0.0 
2.042375677609e+01 -2.468037087751e+02 0.0 
0.0 0.0 -1.018576623432e+02 
-4.761888879849e+01 3.307355266655e+01 0.0 
3.307355266655e+01 -5.166562405402e+01 0.0 
0.0 0.0 -2.596051938934e+01 
-2.228222489479e+01 -5.241806938091e+00 0.0 
-5.241806938091e+00 -6.382793701469e+01 0.0 
0.0 0.0 -2.298742431798e+01 
-1.010235503395e+02 -2.901907466085e+00 0.0 
-2.901907466085e+00 -2.515598923529e+02 0.0 
0.0 0.0 -1.028723366340e+02 
-1.005450017526e+02 3.500565242034e+01 0.0 
3.500565242034e+01 -2.414814527900e+02 0.0 
0.0 0.0 -1.022079363628e+02 
-7.871946792181e+01 2.279837358980e+01 0.0 
2.279837358980e+01 -1.218325326658e+02 0.0 
0.0 0.0 -5.976560017628e+01 
-4.388488800755e+01 2.895987140166e+01 0.0 
2.895987140166e+01 -2.878468366164e+01 0.0 
0.0 0.0 -1.647689876315e+01 
-9.872936184893e+01 2.429310889854e+01 0.0 
2.429310889854e+01 -2.317018443142e+02 0.0 
0.0 0.0 -9.872936184894e+01 
-4.948179743267e+01 3.467191509323e+01 0.0 
3.467191509323e+01 -3.225293174884e+01 0.0 
0.0 0.0 -2.494472226260e+01 
-4.446602546874e+01 2.891116703876e+01 0.0 
2.891116703876e+01 -2.844811853646e+01 0.0 
0.0 0.0 -1.759780397409e+01 
-8.120596470948e+01 4.417030389285e+00 0.0 
4.417030389285e+00 -2.504627575265e+02 0.0 
0.0 0.0 -1.039982196094e+02 
-1.036013945686e+02 -2.742260878467e+00 0.0 
-2.742260878467e+00 -2.412339501496e+02 0.0 
0.0 0.0 -9.884296488113e+01 
-5.758132496499e+01 3.217607487567e+01 0.0 
3.217607487567e+01 -6.916781515749e+01 0.0 
0.0 0.0 -3.480913442298e+01 
-5.702227685056e+01 -6.485399371971e+00 0.0 
-6.485399371971e+00 -1.859531262397e+02 0.0 
0.0 0.0 -7.207708079822e+01 
-9.175832927645e+01 2.197185398241e+00 0.0 
2.197185398241e+00 -2.635851383336e+02 0.0 
0.0 0.0 -1.096192639247e+02 
-7.922179002341e+01 3.110204165616e+01 0.0 
3.110204165616e+01 -2.161346535792e+02 0.0 
0.0 0.0 -8.820693308080e+01 
-8.706959556818e+01 2.073501710026e+01 0.0 
2.073501710026e+01 -2.635029952067e+02 0.0 
0.0 0.0 -1.070852403778e+02 
-1.018208197938e+02 3.335675309245e+01 0.0 
3.335675309245e+01 -2.297465748002e+02 0.0 
0.0 0.0 -9.907021837822e+01 
-4.194475183652e+01 2.702766145158e+01 0.0 
2.702766145158e+01 -1.127703224602e+02 0.0 
0.0 0.0 -4.313158182716e+01 
-9.528686464738e+01 -4.386850285348e+00 0.0 
-4.386850285348e+00 -2.321918036099e+02 0.0 
0.0 0.0 -9.417240043448e+01 
-1.032664213565e+02 -2.986138844282e+00 0.0 
-2.986138844282e+00 -2.483225886171e+02 0.0 
0.0 0.0 -1.021148607800e+02 
-5.880780860084e+01 -1.263619661661e+01 0.0 
-1.263619661661e+01 -1.345631506241e+02 0.0 
0.0 0.0 -5.447830554624e+01 
-5.785677963065e+01 1.634836069676e+01 0.0 
1.634836069676e+01 -5.298148266548e+01 0.0 
0.0 0.0 -3.263293536945e+01 
-8.040876860900e+01 2.686022606281e+01 0.0 
2.686022606281e+01 -1.233649679243e+02 0.0 
0.0 0.0 -6.073212095999e+01 
-1.243778128644e+02 9.243575411589e-01 0.0 
9.243575411589e-01 -3.034774504933e+02 0.0 
0.0 0.0 -1.272104889851e+02 
-1.406231958978e+01 -6.587145478999e-01 0.0 
-6.587145478999e-01 -4.291871773861e+01 0.0 
0.0 0.0 -1.405380330497e+01 
-5.069517826141e+01 -7.936680681863e+00 0.0 
-7.936680681863e+00 -1.172767191573e+02 0.0 
0.0 0.0 -5.176996053443e+01 
-4.085598159433e+01 -1.082425689325e+01 0.0 
-1.082425689325e+01 -9.171286801988e+01 0.0 
0.0 0.0 -3.601182386952e+01 
-1.069957891001e+02 -1.789910020017e+00 0.0 
-1.789910020017e+00 -2.493145799500e+02 0.0 
0.0 0.0 -1.027782988312e+02 
-5.847001027851e+01 2.500571202210e+00 0.0 
2.500571202210e+00 -1.961498425398e+02 0.0 
0.0 0.0 -7.554538381750e+01 
-5.756238042213e+01 -7.557805568522e+00 0.0 
-7.557805568522e+00 -1.825398677159e+02 0.0 
0.0 0.0 -7.128026324214e+01 
-4.913017856128e+01 -6.580521757566e-01 0.0 
-6.580521757566e-01 -1.685913009609e+02 0.0 
0.0 0.0 -6.220742422436e+01 
-1.050206737338e+02 -2.351042972579e+00 0.0 
-2.351042972579e+00 -2.595410986884e+02 0.0 
0.0 0.0 -1.067376250027e+02 
-8.575538260461e+01 2.820515977655e+01 0.0 
2.820515977655e+01 -1.571144884113e+02 0.0 
0.0 0.0 -7.246096130478e+01 
-1.070437584818e+02 -2.338586081601e+00 0.0 
-2.338586081601e+00 -2.565310637155e+02 0.0 
0.0 0.0 -1.059895502605e+02 
-5.631754525514e+01 6.449146885308e+00 0.0 
6.449146885308e+00 -1.959721713830e+02 0.0 
0.0 0.0 -7.458941326240e+01 
-8.397603460491e+01 3.438531786753e+01 0.0 
3.438531786753e+01 -2.032788328872e+02 0.0 
0.0 0.0 -8.577646024763e+01 
-5.278886921877e+01 3.898887110556e+00 0.0 
3.898887110556e+00 -5.975704078077e+01 0.0 
0.0 0.0 -3.336377299986e+01 
-1.026158465036e+02 2.378028519243e+01 0.0 
2.378028519243e+01 -2.860382349847e+02 0.0 
0.0 0.0 -1.161962244465e+02 
-1.101840386688e+02 -9.419211318659e-01 0.0 
-9.419211318659e-01 -2.574785208641e+02 0.0 
0.0 0.0 -1.066291951972e+02 
-1.095289448462e+02 -1.423261896392e+00 0.0 
-1.423261896392e+00 -2.606504196085e+02 0.0 
0.0 0.0 -1.074683089187e+02 
-4.277582909199e+01 2.854063948226e+01 0.0 
2.854063948226e+01 -2.838034939364e+01 0.0 
0.0 0.0 -1.646071207764e+01 
-6.242844965591e+01 -6.077737380345e-01 0.0 
-6.077737380345e-01 -2.044567481324e+02 0.0 
0.0 0.0 -8.098204283076e+01 
-1.106465519165e+02 -1.743600556713e+00 0.0 
-1.743600556713e+00 -2.647586201864e+02 0.0 
0.0 0.0 -1.098255014346e+02 
-5.965626432982e+01 -2.867359321107e-01 0.0 
-2.867359321107e-01 -9.947095678347e+01 0.0 
0.0 0.0 -4.733816633399e+01 
-5.302298708163e+01 -4.704694620748e-01 0.0 
-4.704694620748e-01 -8.105539576870e+01 0.0 
0.0 0.0 -3.982351485510e+01 
-4.296379466813e+01 2.864958667865e+01 0.0 
2.864958667865e+01 -2.854081361897e+01 0.0 
0.0 0.0 -1.550675333321e+01 
-1.089394600086e+02 -1.827596008068e+00 0.0 
-1.827596008068e+00 -2.676602389338e+02 0.0 
0.0 0.0 -1.105988109597e+02 
-6.183868158595e+01 -1.371856556225e+01 0.0 
-1.371856556225e+01 -1.790104039094e+02 0.0 
0.0 0.0 -7.220891124148e+01 
-4.678132806086e+01 3.386468031440e+01 0.0 
3.386468031440e+01 -7.124518314703e+01 0.0 
0.0 0.0 -3.102006135335e+01 
-1.267497909292e+02 2.774170011317e+01 0.0 
2.774170011317e+01 -3.223325820543e+02 0.0 
0.0 0.0 -1.343247118951e+02 
-4.300201808474e+01 -1.330951663250e+01 0.0 
-1.330951663250e+01 -8.585322436631e+01 0.0 
0.0 0.0 -3.487976198111e+01 
-5.944581067396e+01 -1.134486115376e+01 0.0 
-1.134486115376e+01 -1.785101978217e+02 0.0 
0.0 0.0 -7.121905111958e+01 
-7.454731767917e+01 2.172735682105e+01 0.0 
2.172735682105e+01 -2.329917876474e+02 0.0 
0.0 0.0 -9.468739984136e+01 
-3.849120877969e+01 2.516962113458e+01 0.0 
2.516962113458e+01 -2.637268377521e+01 0.0 
0.0 0.0 -1.515348341961e+01 
-1.132507131583e+02 -2.193132106701e-01 0.0 
-2.193132106701e-01 -2.658528922299e+02 0.0 
0.0 0.0 -1.104917260083e+02 
-5.346616713761e+01 3.678390966174e-01 0.0 
3.678390966174e-01 -1.215666497971e+02 0.0 
0.0 0.0 -4.859701897402e+01 
-6.290539364362e+01 1.891696726170e+01 0.0 
1.891696726170e+01 -5.786785342133e+01 0.0 
0.0 0.0 -3.583090617168e+01 
-1.127950230064e+02 -6.552723496805e-01 0.0 
-6.552723496805e-01 -2.686873559204e+02 0.0 
0.0 0.0 -1.112966031233e+02 
-7.837748102829e+01 -1.889555280597e+00 0.0 
-1.889555280597e+00 -2.382109531803e+02 0.0 
0.0 0.0 -9.844934999074e+01 
-1.023743306833e+02 -3.318702031681e+00 0.0 
-3.318702031681e+00 -2.449525063892e+02 0.0 
0.0 0.0 -9.957817097288e+01 
-4.095715120276e+01 3.330620689818e+01 0.0 
3.330620689818e+01 -8.473582353588e+01 0.0 
0.0 0.0 -3.954185804567e+01 
-7.887380110612e+01 1.819270969397e+00 0.0 
1.819270969397e+00 -1.590331162064e+02 0.0 
0.0 0.0 -7.097207519374e+01 
-6.728149987670e+01 -7.633058967045e+00 0.0 
-7.633058967045e+00 -2.051751435938e+02 0.0 
0.0 0.0 -8.366532453132e+01 
-1.225505534311e+02 1.771198243025e+01 0.0 
1.771198243025e+01 -3.272524318510e+02 0.0 
0.0 0.0 -1.345408955846e+02 
-8.703341536696e+01 2.837642630925e+01 0.0 
2.837642630925e+01 -2.458084892413e+02 0.0 
0.0 0.0 -9.945257138247e+01 
-1.127254291118e+02 -1.374279865832e+00 0.0 
-1.374279865832e+00 -2.758286358272e+02 0.0 
0.0 0.0 -1.144411841568e+02 
-1.158847134695e+02 -5.832522819578e-02 0.0 
-5.832522819578e-02 -2.767492372681e+02 0.0 
0.0 0.0 -1.150695238396e+02 
-5.465883055435e+01 1.554021271673e+00 0.0 
1.554021271673e+00 -1.889693800735e+02 0.0 
0.0 0.0 -7.166611852825e+01 
-3.892878545700e+01 -1.193715898953e+01 0.0 
-1.193715898953e+01 -5.946176147508e+01 0.0 
0.0 0.0 -2.537757840377e+01 
-4.033649803363e+01 3.562089970185e+01 0.0 
3.562089970185e+01 -8.301823103121e+01 0.0 
0.0 0.0 -3.816790466483e+01 
-1.163563187649e+02 -1.016462110227e+00 0.0 
-1.016462110227e+00 -2.841056040078e+02 0.0 
0.0 0.0 -1.183130417021e+02 
-1.243322113864e+02 1.437177760454e+01 0.0 
1.437177760454e+01 -3.311004825338e+02 0.0 
0.0 0.0 -1.362298081761e+02 
-6.427805315328e+01 -1.705239688012e+01 0.0 
-1.705239688012e+01 -1.703622810754e+02 0.0 
0.0 0.0 -6.971771243283e+01 
-8.814679863745e+01 3.231196912487e+01 0.0 
3.231196912487e+01 -2.200566286652e+02 0.0 
0.0 0.0 -9.206102819080e+01 
-4.545174312934e+01 3.124498973328e+01 0.0 
3.124498973328e+01 -6.874596983830e+01 0.0 
0.0 0.0 -3.051808722864e+01 
-8.837735363993e+01 3.477764978384e+01 0.0 
3.477764978384e+01 -2.054440968646e+02 0.0 
0.0 0.0 -8.774643515136e+01 
-1.504774837719e+02 1.128612118174e+01 0.0 
1.128612118174e+01 -3.713206274792e+02 0.0 
0.0 0.0 -1.561394333754e+02 
-1.348641555835e+02 -7.364927672305e-01 0.0 
-7.364927672305e-01 -1.026609104399e+02 0.0 
0.0 0.0 -7.153439081745e+01 
-9.107218693331e+01 2.432511254686e+00 0.0 
2.432511254686e+00 -2.138351028444e+02 0.0 
0.0 0.0 -9.107218693331e+01 
-1.678508394050e+02 1.081456034939e+00 0.0 
1.081456034939e+00 -3.929852919451e+02 0.0 
0.0 0.0 -1.678508394050e+02 
-4.058848272847e+01 7.528473564266e-01 0.0 
7.528473564266e-01 -4.914865565654e+01 0.0 
0.0 0.0 -2.652114151550e+01 
-7.076971200624e+01 -1.257446593258e+01 0.0 
-1.257446593258e+01 -2.001932160185e+02 0.0 
0.0 0.0 -8.224458285455e+01 
-8.265795287824e+01 2.976363275253e+01 0.0 
2.976363275253e+01 -2.313202512094e+02 0.0 
0.0 0.0 -9.379346122630e+01 
-5.468555851149e+01 6.255447237911e+00 0.0 
6.255447237911e+00 -1.866378338941e+02 0.0 
0.0 0.0 -7.047350904310e+01 
-1.810047961217e+01 -1.106513117322e+00 0.0 
-1.106513117322e+00 -5.542012933570e+01 0.0 
0.0 0.0 -2.016440878677e+01 
-5.065302588471e+01 3.476215699171e+01 0.0 
3.476215699171e+01 -3.200522142394e+01 0.0 
0.0 0.0 -2.342915001573e+01 
-8.670441465539e+01 7.635583216787e+00 0.0 
7.635583216787e+00 -1.779153984783e+02 0.0 
0.0 0.0 -7.898594394012e+01 
-8.377851607608e+01 2.957695902521e+01 0.0 
2.957695902521e+01 -1.409658150744e+02 0.0 
0.0 0.0 -6.702329934514e+01 
-6.001275033946e+01 1.724608082503e+01 0.0 
1.724608082503e+01 -4.181151198274e+01 0.0 
0.0 0.0 -2.975369922075e+01 
-1.391609041720e+02 3.825580184489e+01 0.0 
3.825580184489e+01 -3.331584109410e+02 0.0 
0.0 0.0 -1.412957945339e+02 
-3.967394301077e+01 4.806491739306e-01 0.0 
4.806491739306e-01 -1.011578077322e+02 0.0 
0.0 0.0 -3.957975966352e+01 
-1.415794325023e+02 3.649482949442e+01 0.0 
3.649482949442e+01 -3.402243653349e+02 0.0 
0.0 0.0 -1.441411393512e+02 
-8.246557084709e+01 2.588370017067e+01 0.0 
2.588370017067e+01 -1.395076266724e+02 0.0 
0.0 0.0 -6.619195925585e+01 
-7.605342551562e+01 -1.275365399415e+01 0.0 
-1.275365399415e+01 -1.948065031623e+02 0.0 
0.0 0.0 -8.067793883808e+01 
-8.012144389774e+01 2.851101808879e+01 0.0 
2.851101808879e+01 -2.288906665299e+02 0.0 
0.0 0.0 -9.253231855029e+01 
-6.516637893389e+01 -1.091758511098e+01 0.0 
-1.091758511098e+01 -1.855657417729e+02 0.0 
0.0 0.0 -7.453754714089e+01 
-4.552748811881e+01 3.323186056053e+01 0.0 
3.323186056053e+01 -6.888307217929e+01 0.0 
0.0 0.0 -3.058200289543e+01 
-6.403934376734e+01 -1.259374212336e+01 0.0 
-1.259374212336e+01 -1.735617435059e+02 0.0 
0.0 0.0 -6.975860853128e+01 
-8.900742105996e+01 3.003521527028e+01 0.0 
3.003521527028e+01 -1.749580817747e+02 0.0 
0.0 0.0 -7.878965085041e+01 
-1.405277938366e+02 2.049826081720e+00 0.0 
2.049826081720e+00 -3.424558463121e+02 0.0 
0.0 0.0 -1.444950920446e+02 
-6.081052840680e+01 -8.075631446710e+00 0.0 
-8.075631446710e+00 -1.897154774775e+02 0.0 
0.0 0.0 -7.565418026918e+01 
-9.221690876781e+01 3.285138673785e+01 0.0 
3.285138673785e+01 -2.221703402360e+02 0.0 
0.0 0.0 -9.391617470116e+01 
-8.410385588183e+01 -2.462872967925e+00 0.0 
-2.462872967925e+00 -1.131482965546e+02 0.0 
0.0 0.0 -5.967690125416e+01 
-5.826663167216e+01 -1.939498553463e+00 0.0 
-1.939498553463e+00 -1.949467545691e+02 0.0 
0.0 0.0 -7.524664570443e+01 
-9.326558122013e+01 2.897790491553e+01 0.0 
2.897790491553e+01 -1.689831596523e+02 0.0 
0.0 0.0 -7.827462226174e+01 
-6.698234174665e+01 -1.205256722413e+01 0.0 
-1.205256722413e+01 -1.678860776856e+02 0.0 
0.0 0.0 -6.740694946845e+01 
-6.274902124459e+01 -1.764094874347e+01 0.0 
-1.764094874347e+01 -1.561592197747e+02 0.0 
0.0 0.0 -6.417696832905e+01 
-7.871563794952e+01 2.775276656026e+01 0.0 
2.775276656026e+01 -2.284523047846e+02 0.0 
0.0 0.0 -9.175038282025e+01 
-4.159249912865e+01 -1.949763205648e+01 0.0 
-1.949763205648e+01 -1.084445155489e+02 0.0 
0.0 0.0 -3.836608775851e+01 
-4.229859328418e+01 2.808951359492e+01 0.0 
2.808951359492e+01 -2.834244426497e+01 0.0 
0.0 0.0 -1.739686475389e+01 
-4.327393721768e+01 2.947492398933e+01 0.0 
2.947492398933e+01 -2.913383717707e+01 0.0 
0.0 0.0 -1.703659357301e+01 
-6.002389465995e+01 -1.386414501208e+01 0.0 
-1.386414501208e+01 -1.477932373908e+02 0.0 
0.0 0.0 -5.920429166787e+01 
-8.544064445247e+01 2.189723429721e+00 0.0 
2.189723429721e+00 -2.548002596074e+02 0.0 
0.0 0.0 -1.059574020768e+02 
-6.982459458679e+01 2.452835629615e+01 0.0 
2.452835629615e+01 -2.199327882968e+02 0.0 
0.0 0.0 -9.012671587612e+01 
-9.214685377400e+01 3.448682695495e+01 0.0 
3.448682695495e+01 -2.224075189846e+02 0.0 
0.0 0.0 -9.396631182759e+01 
-1.068907519295e+02 3.353458099374e+01 0.0 
3.353458099374e+01 -2.391899782172e+02 0.0 
0.0 0.0 -1.034242190440e+02 
-3.788377145560e+01 2.603447741520e+01 0.0 
2.603447741520e+01 -2.747623687419e+01 0.0 
0.0 0.0 -1.439232960626e+01 
-6.680966659995e+01 1.698324622794e+00 0.0 
1.698324622794e+00 -1.195948243672e+02 0.0 
0.0 0.0 -5.552134729014e+01 
-1.155084240106e+02 3.520294912143e+01 0.0 
3.520294912143e+01 -2.769614951152e+02 0.0 
0.0 0.0 -1.173409757378e+02 
-5.169902450696e+01 5.681061310159e+00 0.0 
5.681061310159e+00 -1.821424924955e+02 0.0 
0.0 0.0 -6.787214713137e+01 
-4.658691633867e+01 3.318740542523e+01 0.0 
3.318740542523e+01 -5.176545936872e+01 0.0 
0.0 0.0 -2.497155267201e+01 
-4.874764957990e+01 3.220951996775e+01 0.0 
3.220951996775e+01 -7.041467459173e+01 0.0 
0.0 0.0 -3.083106889107e+01 
-8.520817960904e+01 -1.690263106272e+00 0.0 
-1.690263106272e+00 -2.462582078661e+02 0.0 
0.0 0.0 -1.024098786304e+02 
-9.226084645026e+01 3.289126172638e+01 0.0 
3.289126172638e+01 -2.071756065773e+02 0.0 
0.0 0.0 -8.943093590828e+01 
-8.004841455735e+01 1.338303178626e+00 0.0 
1.338303178626e+00 -2.419814338174e+02 0.0 
0.0 0.0 -9.976517805805e+01 
-3.723295649524e+01 2.664744938012e+01 0.0 
2.664744938012e+01 -9.338736468793e+01 0.0 
0.0 0.0 -3.679477503289e+01 
-9.245409280341e+01 6.437477781885e+00 0.0 
6.437477781885e+00 -2.711521960074e+02 0.0 
0.0 0.0 -1.128316190785e+02 
-4.551255415524e+01 3.291135041284e+01 0.0 
3.291135041284e+01 -6.782394635003e+01 0.0 
0.0 0.0 -3.077073327536e+01 
-6.814344508505e+01 2.116946391788e+01 0.0 
2.116946391788e+01 -2.147831669921e+02 0.0 
0.0 0.0 -8.747986137407e+01 
-8.670536229738e+01 4.209884978864e+00 0.0 
4.209884978864e+00 -2.601523015537e+02 0.0 
0.0 0.0 -1.070996362976e+02 
-8.247376075372e+01 2.598966952124e+01 0.0 
2.598966952124e+01 -2.420418351338e+02 0.0 
0.0 0.0 -9.805671943005e+01 
-5.975031361935e+01 2.369858118019e+00 0.0 
2.369858118019e+00 -9.472229383362e+01 0.0 
0.0 0.0 -4.594178223589e+01 
-6.367068231050e+01 -1.449251870493e+01 0.0 
-1.449251870493e+01 -1.484777377907e+02 0.0 
0.0 0.0 -6.089247646794e+01 
-4.644345726197e+01 3.404113869324e+01 0.0 
3.404113869324e+01 -7.298355688358e+01 0.0 
0.0 0.0 -3.100917225748e+01 
-9.437887357641e+01 5.472349364395e+00 0.0 
5.472349364395e+00 -2.785539477677e+02 0.0 
0.0 0.0 -1.126005489085e+02 
-4.453773274822e+01 3.262063312838e+01 0.0 
3.262063312838e+01 -6.631219169260e+01 0.0 
0.0 0.0 -3.057961373891e+01 
-4.925467039642e+01 1.181679147512e+01 0.0 
1.181679147512e+01 -1.200760560263e+02 0.0 
0.0 0.0 -5.220700625285e+01 
-8.347829277301e+01 3.131580144824e-01 0.0 
3.131580144824e-01 -1.781097531499e+02 0.0 
0.0 0.0 -7.807641377688e+01 
-7.866468929075e+01 1.431530740721e-02 0.0 
1.431530740721e-02 -1.590456318805e+02 0.0 
0.0 0.0 -7.091309635138e+01 
-1.972555951837e+01 -3.928370050365e+00 0.0 
-3.928370050365e+00 -2.705862247696e+01 0.0 
0.0 0.0 -1.251490018172e+01 
-1.016569630907e+02 8.699975318931e+00 0.0 
8.699975318931e+00 -2.888640367180e+02 0.0 
0.0 0.0 -1.184159481080e+02 
-4.992098334744e+01 -1.249128234259e+01 0.0 
-1.249128234259e+01 -1.130730399981e+02 0.0 
0.0 0.0 -4.530608545054e+01 
-5.344860446777e+01 -1.252871865563e+01 0.0 
-1.252871865563e+01 -1.213205878560e+02 0.0 
0.0 0.0 -4.847625651532e+01 
-9.998536349491e+01 3.331838017850e+01 0.0 
3.331838017850e+01 -2.410879322801e+02 0.0 
0.0 0.0 -1.019219887325e+02 
-8.236923298876e+01 2.633278661020e+01 0.0 
2.633278661020e+01 -2.420641016296e+02 0.0 
0.0 0.0 -9.693000038550e+01 
-9.607294190737e+01 3.260975255946e+01 0.0 
3.260975255946e+01 -2.386291813228e+02 0.0 
0.0 0.0 -1.000106369691e+02 
-6.219955094984e+01 -5.669550629629e+00 0.0 
-5.669550629629e+00 -1.972011912089e+02 0.0 
0.0 0.0 -7.855027270640e+01 
-3.266698109370e+01 9.888104775299e-02 0.0 
9.888104775299e-02 -2.773838208767e+01 0.0 
0.0 0.0 -1.772160895441e+01 
-1.558985391227e+02 9.630646069056e+00 0.0 
9.630646069056e+00 -3.742259261724e+02 0.0 
0.0 0.0 -1.586373395885e+02 
-4.569744594499e+01 -1.195053018492e+01 0.0 
-1.195053018492e+01 -1.005548306849e+02 0.0 
0.0 0.0 -4.027003456980e+01 
-1.181456692219e+02 1.938088338322e+01 0.0 
1.938088338322e+01 -3.166057645123e+02 0.0 
0.0 0.0 -1.300254301203e+02 
-7.111721652746e+01 2.290770204551e+01 0.0 
2.290770204551e+01 -2.187279809861e+02 0.0 
0.0 0.0 -8.884422617418e+01 
-2.572865087817e+01 -2.801954308352e+00 0.0 
-2.801954308352e+00 -7.649170614239e+01 0.0 
0.0 0.0 -2.864473704539e+01 
-8.902893140747e+01 3.215894343043e+01 0.0 
3.215894343043e+01 -1.897127086778e+02 0.0 
0.0 0.0 -8.322249202557e+01 
-5.948974271550e+01 2.765557458445e+00 0.0 
2.765557458445e+00 -2.030362624223e+02 0.0 
0.0 0.0 -7.882079021052e+01 
-3.438192910600e+01 -1.115831291176e+01 0.0 
-1.115831291176e+01 -4.867468105717e+01 0.0 
0.0 0.0 -1.979333712699e+01 
-5.332347057797e+01 -3.442120175461e+00 0.0 
-3.442120175461e+00 -1.806933999024e+02 0.0 
0.0 0.0 -6.814735123007e+01 
-1.215865162810e+02 -8.127413651225e-01 0.0 
-8.127413651225e-01 -2.948342199991e+02 0.0 
0.0 0.0 -1.233520946397e+02 
-8.988689835731e+01 3.311590925572e+01 0.0 
3.311590925572e+01 -1.763606021929e+02 0.0 
0.0 0.0 -7.947425016505e+01 
-4.098642019600e+01 -1.138950272588e+01 0.0 
-1.138950272588e+01 -7.898942608081e+01 0.0 
0.0 0.0 -3.098148146419e+01 
-1.060165137250e+02 -2.884177090623e-01 0.0 
-2.884177090623e-01 -2.413098368737e+02 0.0 
0.0 0.0 -1.002312174605e+02 
-9.604390868237e+01 3.324564134040e+01 0.0 
3.324564134040e+01 -2.244968753969e+02 0.0 
0.0 0.0 -9.576223522377e+01 
-1.090753916067e+02 2.709276556917e+01 0.0 
2.709276556917e+01 -2.917932273547e+02 0.0 
0.0 0.0 -1.198605856884e+02 
-6.208805545031e+01 -1.357456694480e+01 0.0 
-1.357456694480e+01 -1.607986271860e+02 0.0 
0.0 0.0 -6.447250388326e+01 
-5.576461673118e+01 -2.369357784199e+00 0.0 
-2.369357784199e+00 -1.215994321929e+02 0.0 
0.0 0.0 -4.856451603898e+01 
-7.547913105847e+01 2.381352093620e+01 0.0 
2.381352093620e+01 -2.357428052576e+02 0.0 
0.0 0.0 -9.676824838911e+01 
-5.597021297378e+01 8.944298850087e-01 0.0 
8.944298850087e-01 -8.882351944291e+01 0.0 
0.0 0.0 -4.303811972501e+01 
-3.726390627233e+01 -1.542056755094e+01 0.0 
-1.542056755094e+01 -5.243133843315e+01 0.0 
0.0 0.0 -1.925671027392e+01 
-1.247212381787e+02 3.867418120825e+01 0.0 
3.867418120825e+01 -2.987060739254e+02 0.0 
0.0 0.0 -1.266281936312e+02 
-1.066288005092e+02 3.284768211039e+01 0.0 
3.284768211039e+01 -2.410120753975e+02 0.0 
0.0 0.0 -1.038922627720e+02 
-4.547283342062e+01 9.396544151288e-01 0.0 
9.396544151288e-01 -6.103798679245e+01 0.0 
0.0 0.0 -3.155324606392e+01 
-9.852489420232e+01 1.926203913046e+01 0.0 
1.926203913046e+01 -2.020621420089e+02 0.0 
0.0 0.0 -8.977611086337e+01 
-1.126845268202e+02 3.549952842154e+01 0.0 
3.549952842154e+01 -2.593387215548e+02 0.0 
0.0 0.0 -1.112069745125e+02 
-6.195222767663e+01 -4.186682325774e+00 0.0 
-4.186682325774e+00 -2.001317506808e+02 0.0 
0.0 0.0 -7.952389363942e+01 
-6.707487890078e+01 -1.162934383054e+01 0.0 
-1.162934383054e+01 -1.961084450919e+02 0.0 
0.0 0.0 -8.000064505187e+01 
-1.419731183567e+02 2.395853867275e+01 0.0 
2.395853867275e+01 -3.542955457914e+02 0.0 
0.0 0.0 -1.484805992444e+02 
-7.769408102137e+01 5.690884668745e+00 0.0 
5.690884668745e+00 -1.089678227366e+02 0.0 
0.0 0.0 -5.654918331019e+01 
-4.726755298748e+01 -1.359048096871e+00 0.0 
-1.359048096871e+00 -1.103848350378e+02 0.0 
0.0 0.0 -4.370002731235e+01 
-1.070779682623e+02 -1.238908904084e+00 0.0 
-1.238908904084e+00 -2.456581604239e+02 0.0 
0.0 0.0 -1.018976341964e+02 
-6.697088700096e+01 -1.537745161187e+01 0.0 
-1.537745161187e+01 -1.621355614332e+02 0.0 
0.0 0.0 -6.678037510669e+01 
-5.592949233208e+01 -1.025481912855e+01 0.0 
-1.025481912855e+01 -1.748366904115e+02 0.0 
0.0 0.0 -6.802243887982e+01 
-4.302139995280e+01 2.846912622908e+01 0.0 
2.846912622908e+01 -2.772315759898e+01 0.0 
0.0 0.0 -1.799139678823e+01 
-4.532256468235e+01 3.012395369269e+01 0.0 
3.012395369269e+01 -2.958211997196e+01 0.0 
0.0 0.0 -1.881751198130e+01 
-5.381271114964e+01 4.491655853816e+00 0.0 
4.491655853816e+00 -6.296944646611e+01 0.0 
0.0 0.0 -3.463464728472e+01 
-5.804736651878e+01 -2.677443621910e+00 0.0 
-2.677443621910e+00 -1.899248125423e+02 0.0 
0.0 0.0 -7.360641760657e+01 
-6.020499986258e+01 -4.688368502093e+00 0.0 
-4.688368502093e+00 -1.300326359994e+02 0.0 
0.0 0.0 -5.139641002047e+01 
-1.008258115540e+02 2.700585966810e+01 0.0 
2.700585966810e+01 -2.764598375855e+02 0.0 
0.0 0.0 -1.127856947419e+02 
-1.641696573743e+02 7.194449785609e+00 0.0 
7.194449785609e+00 -3.907991604249e+02 0.0 
0.0 0.0 -1.660906453398e+02 
-1.627096011388e+02 8.905109891861e+00 0.0 
8.905109891861e+00 -3.890233981150e+02 0.0 
0.0 0.0 -1.651198997762e+02 
-6.532332052864e+01 -8.715669192793e+00 0.0 
-8.715669192793e+00 -1.967705499488e+02 0.0 
0.0 0.0 -7.878299038325e+01 
-4.876955059631e+01 3.609002495385e+00 0.0 
3.609002495385e+00 -4.588632889687e+01 0.0 
0.0 0.0 -2.799676384795e+01 
-8.141677398729e+01 1.526773971732e+00 0.0 
1.526773971732e+00 -1.086628268373e+02 0.0 
0.0 0.0 -5.800616420449e+01 
-4.602385126842e+01 3.027018596463e+01 0.0 
3.027018596463e+01 -2.932625134493e+01 0.0 
0.0 0.0 -1.918186520716e+01 
-4.733861156623e+01 -2.285247783502e+01 0.0 
-2.285247783502e+01 -1.125096121823e+02 0.0 
0.0 0.0 -4.313951726879e+01 
-4.509381660016e+01 2.957288295458e+01 0.0 
2.957288295458e+01 -2.913623917328e+01 0.0 
0.0 0.0 -1.906724177024e+01 
-7.787408191106e+01 2.433318823262e+01 0.0 
2.433318823262e+01 -2.376789740765e+02 0.0 
0.0 0.0 -9.500137581735e+01 
-5.817361645068e+01 -1.376342956119e+01 0.0 
-1.376342956119e+01 -1.668505136633e+02 0.0 
0.0 0.0 -6.627621009325e+01 
-6.199105466717e+01 -9.833075140012e+00 0.0 
-9.833075140012e+00 -1.884022768860e+02 0.0 
0.0 0.0 -7.568143816207e+01 
-3.999028721112e+01 -2.721538366100e+01 0.0 
-2.721538366100e+01 -9.148751044334e+01 0.0 
0.0 0.0 -3.986951628901e+01 
-7.807073258562e+01 1.694000822498e+00 0.0 
1.694000822498e+00 -1.616712411306e+02 0.0 
0.0 0.0 -7.152259211488e+01 
-6.568087389511e+01 -1.497446055277e+01 0.0 
-1.497446055277e+01 -1.844956765137e+02 0.0 
0.0 0.0 -7.512985976496e+01 
-8.436235044835e+01 5.814255021646e+00 0.0 
5.814255021646e+00 -1.765182575941e+02 0.0 
0.0 0.0 -7.786418241275e+01 
-7.594243547824e+01 3.096887133419e+00 0.0 
3.096887133419e+00 -1.463082892352e+02 0.0 
0.0 0.0 -6.627521741404e+01 
-9.514312006768e+01 2.829109562001e+00 0.0 
2.829109562001e+00 -2.149927160856e+02 0.0 
0.0 0.0 -9.264075084597e+01 
-1.659519630408e+02 1.181712217965e+00 0.0 
1.181712217965e+00 -3.923844036370e+02 0.0 
0.0 0.0 -1.671009100033e+02 
-4.553422991363e+01 -4.539322853750e-01 0.0 
-4.539322853750e-01 -6.152394177143e+01 0.0 
0.0 0.0 -3.171745150552e+01 
-7.031331676568e+01 -1.452640919843e+01 0.0 
-1.452640919843e+01 -1.880110016952e+02 0.0 
0.0 0.0 -7.739205805895e+01 
-3.979301321946e+01 2.852676702660e+01 0.0 
2.852676702660e+01 -2.748399806500e+01 0.0 
0.0 0.0 -1.664513686873e+01 
-7.090245409257e+01 -9.353937718739e+00 0.0 
-9.353937718739e+00 -1.927273421849e+02 0.0 
0.0 0.0 -7.761810380245e+01 
-1.678904582326e+02 5.538370002909e+00 0.0 
5.538370002909e+00 -3.930777358760e+02 0.0 
0.0 0.0 -1.678904582326e+02 
-4.760037913543e+01 3.202089782696e+01 0.0 
3.202089782696e+01 -3.021136514761e+01 0.0 
0.0 0.0 -2.001841487884e+01 
-4.634149580959e+01 3.085109197301e+01 0.0 
3.085109197301e+01 -2.945275900621e+01 0.0 
0.0 0.0 -1.932716603456e+01 
-1.224301395239e+02 2.180917908388e+01 0.0 
2.180917908388e+01 -3.224017506463e+02 0.0 
0.0 0.0 -1.330495670510e+02 
-4.382457731056e+01 1.856998107721e+00 0.0 
1.856998107721e+00 -4.617577787652e+01 0.0 
0.0 0.0 -2.660010655613e+01 
-8.403505897086e+01 3.445902102277e+00 0.0 
3.445902102277e+00 -1.781350643994e+02 0.0 
0.0 0.0 -7.825103701108e+01 
-9.633091417647e+01 3.505554651610e+01 0.0 
3.505554651610e+01 -2.247822670308e+02 0.0 
0.0 0.0 -9.593395436219e+01 
-1.177384695424e+02 2.727084249394e+01 0.0 
2.727084249394e+01 -3.081946343180e+02 0.0 
0.0 0.0 -1.273799311581e+02 
-1.006937995338e+02 3.513989008982e+01 0.0 
3.513989008982e+01 -2.154341656911e+02 0.0 
0.0 0.0 -9.443838956746e+01 
-4.776907093834e+01 1.939298136607e-01 0.0 
1.939298136607e-01 -6.486483550801e+01 0.0 
0.0 0.0 -3.339017193391e+01 
-6.018338285242e+01 -1.696014460675e+01 0.0 
-1.696014460675e+01 -1.418781331397e+02 0.0 
0.0 0.0 -5.832902905008e+01 
-5.652957224414e+01 -1.509191569998e+01 0.0 
-1.509191569998e+01 -1.412762918724e+02 0.0 
0.0 0.0 -5.640561224624e+01 
-6.300309710182e+01 1.786374871742e-01 0.0 
1.786374871742e-01 -1.085932861613e+02 0.0 
0.0 0.0 -5.107891497895e+01 
-1.135477948466e+02 2.929370528086e+01 0.0 
2.929370528086e+01 -2.956076061198e+02 0.0 
0.0 0.0 -1.223466202899e+02 
-4.756818379500e+01 6.842129309183e+00 0.0 
6.842129309183e+00 -3.084459043833e+01 0.0 
0.0 0.0 -2.306213294623e+01 
-3.923114077697e+01 1.251495985543e-01 0.0 
1.251495985543e-01 -4.449503175608e+01 0.0 
0.0 0.0 -2.471785175992e+01 
-4.597435072548e+01 7.257173256073e-01 0.0 
7.257173256073e-01 -6.049257308199e+01 0.0 
0.0 0.0 -3.154007714224e+01 
-4.906230104475e+01 2.050742442367e+00 0.0 
2.050742442367e+00 -6.634301001923e+01 0.0 
0.0 0.0 -3.422159331919e+01 
-3.265405759823e+01 -1.422864927162e+01 0.0 
-1.422864927162e+01 -1.144107733644e+02 0.0 
0.0 0.0 -4.388208130421e+01 
-5.407397447628e+01 -1.467726956061e+01 0.0 
-1.467726956061e+01 -1.276611678188e+02 0.0 
0.0 0.0 -5.104118189898e+01 
-9.327363309966e+01 9.776782320533e+00 0.0 
9.776782320533e+00 -2.007336221459e+02 0.0 
0.0 0.0 -8.780217657366e+01 
-5.713829784356e+01 2.693837297765e+00 0.0 
2.693837297765e+00 -8.585035110982e+01 0.0 
0.0 0.0 -4.249659468601e+01 
-1.435091993587e+02 2.740175230376e+01 0.0 
2.740175230376e+01 -3.502472827105e+02 0.0 
0.0 0.0 -1.477269446208e+02 
-1.111962571760e+02 3.673381446057e+01 0.0 
3.673381446057e+01 -2.431136320205e+02 0.0 
0.0 0.0 -1.058929667590e+02 
-8.906517759971e+01 3.458598203482e+01 0.0 
3.458598203482e+01 -1.903748956314e+02 0.0 
0.0 0.0 -8.343202196932e+01 
-9.612938909313e+01 1.951938236990e+01 0.0 
1.951938236990e+01 -1.900694666926e+02 0.0 
0.0 0.0 -8.545965673573e+01 
-8.418292255390e+01 -4.651859161721e+00 0.0 
-4.651859161721e+00 -1.837215750673e+02 0.0 
0.0 0.0 -7.446636051289e+01 
-7.614680948604e+01 -5.251758521198e+00 0.0 
-5.251758521198e+00 -1.672194232455e+02 0.0 
0.0 0.0 -6.691318488315e+01 
-1.451411988520e+02 8.398120628474e+00 0.0 
8.398120628474e+00 -3.592997986558e+02 0.0 
0.0 0.0 -1.509322992523e+02 
-3.686537010684e+01 -2.350695338030e+01 0.0 
-2.350695338030e+01 -9.885215932482e+01 0.0 
0.0 0.0 -4.210963660672e+01 
-4.780478249237e+01 -1.026040365271e+00 0.0 
-1.026040365271e+00 -1.171549246697e+02 0.0 
0.0 0.0 -4.652906826692e+01 
-1.446113512269e+02 3.577188652462e+01 0.0 
3.577188652462e+01 -3.387598195294e+02 0.0 
0.0 0.0 -1.446113512269e+02 
-1.317372850029e+01 7.040203483651e-01 0.0 
7.040203483651e-01 -5.751957963953e+01 0.0 
0.0 0.0 -2.012009391298e+01 
-3.904101637407e+01 1.546219837640e-01 0.0 
1.546219837640e-01 -4.442344468387e+01 0.0 
0.0 0.0 -2.463933831738e+01 
-1.348819983689e+02 1.967914864793e+01 0.0 
1.967914864793e+01 -3.462097694955e+02 0.0 
0.0 0.0 -1.439275303593e+02 
-2.044482533541e+01 -4.024750772706e+00 0.0 
-4.024750772706e+00 -3.998618599237e+01 0.0 
0.0 0.0 -1.558331762092e+01 
-1.246269607350e+01 -2.027494647476e-01 0.0 
-2.027494647476e-01 -2.399439710640e+01 0.0 
0.0 0.0 -8.463300690511e+00 
-1.005709605825e+02 1.662773552375e+01 0.0 
1.662773552375e+01 -2.229860874143e+02 0.0 
0.0 0.0 -9.666711439904e+01 
-3.464109639223e+01 -6.511056331516e-02 0.0 
-6.511056331516e-02 -2.772974205541e+01 0.0 
0.0 0.0 -1.831125153429e+01 
-9.343252893980e+01 1.268038705903e+01 0.0 
1.268038705903e+01 -1.984972152943e+02 0.0 
0.0 0.0 -8.717892327025e+01 
-1.370124326483e+02 2.099794110357e+01 0.0 
2.099794110357e+01 -3.438098832053e+02 0.0 
0.0 0.0 -1.438466947561e+02 
-3.418225525955e+01 5.676712297819e-01 0.0 
5.676712297819e-01 -2.749370767746e+01 0.0 
0.0 0.0 -1.810278888110e+01 
-7.778984428349e+01 7.913571662134e+00 0.0 
7.913571662134e+00 -1.073487323843e+02 0.0 
0.0 0.0 -5.660261063423e+01 
-8.735338564179e+01 2.878260300904e+00 0.0 
2.878260300904e+00 -1.959132922827e+02 0.0 
0.0 0.0 -8.458000337734e+01 
-1.891678722245e+01 -2.608552057765e+00 0.0 
-2.608552057765e+00 -6.374380685680e+01 0.0 
0.0 0.0 -2.282950353146e+01 
-8.744348142410e+01 1.073102611180e+01 0.0 
1.073102611180e+01 -1.844592489030e+02 0.0 
0.0 0.0 -8.117081909814e+01 
-1.678838469946e+02 4.092624321852e+00 0.0 
4.092624321852e+00 -3.930623096541e+02 0.0 
0.0 0.0 -1.678838469946e+02 
-1.063321437960e+02 3.279745995159e+01 0.0 
3.279745995159e+01 -2.265231696977e+02 0.0 
0.0 0.0 -9.945659404813e+01 
-3.653926035252e+01 -1.084749923403e+01 0.0 
-1.084749923403e+01 -1.284174891816e+02 0.0 
0.0 0.0 -4.684683729373e+01 
-6.069931192793e+01 9.358890786820e+00 0.0 
9.358890786820e+00 -6.874144925193e+01 0.0 
0.0 0.0 -3.843222835396e+01 
-8.539339430425e+01 -2.123024229563e+00 0.0 
-2.123024229563e+00 -1.863166888054e+02 0.0 
0.0 0.0 -7.607594474938e+01 
-1.026528194576e+02 2.770608645640e+01 0.0 
2.770608645640e+01 -2.773156283135e+02 0.0 
0.0 0.0 -1.135905343313e+02 
-1.491891593017e+02 3.112331136208e+01 0.0 
3.112331136208e+01 -3.580818762122e+02 0.0 
0.0 0.0 -1.517813106542e+02 
-7.022424293030e+01 8.408709885178e-01 0.0 
8.408709885178e-01 -1.304969538807e+02 0.0 
0.0 0.0 -5.981635904330e+01 
-1.501758342435e+02 2.792515994729e+01 0.0 
2.792515994729e+01 -3.632220599017e+02 0.0 
0.0 0.0 -1.536193682435e+02 
-3.130022690102e+01 -1.735060040368e+01 0.0 
-1.735060040368e+01 -1.163404499872e+02 0.0 
0.0 0.0 -4.646589621549e+01 
-1.577179258978e+02 5.856031542632e+00 0.0 
5.856031542632e+00 -3.779537984271e+02 0.0 
0.0 0.0 -1.603015172975e+02 
-4.073473221086e+01 -1.515582800375e+01 0.0 
-1.515582800375e+01 -1.241185822486e+02 0.0 
0.0 0.0 -4.281646847542e+01 
-1.341879333681e+01 -1.698573321319e+00 0.0 
-1.698573321319e+00 -5.747022760999e+01 0.0 
0.0 0.0 -2.014031648919e+01 
-1.479098756870e+02 1.805937001624e+01 0.0 
1.805937001624e+01 -3.658457081691e+02 0.0 
0.0 0.0 -1.537266751568e+02 
-1.055307045853e+02 2.653382681572e+01 0.0 
2.653382681572e+01 -2.213047920997e+02 0.0 
0.0 0.0 -9.765064900548e+01 
-9.653833286331e+01 1.720292399066e+01 0.0 
1.720292399066e+01 -2.090647444233e+02 0.0 
0.0 0.0 -9.128092318598e+01 
-3.938643704043e+01 -2.289032652179e-01 0.0 
-2.289032652179e-01 -4.310342440914e+01 0.0 
0.0 0.0 -2.434695843487e+01 
-6.615207586921e+01 1.630925772160e+01 0.0 
1.630925772160e+01 -7.997391156439e+01 0.0 
0.0 0.0 -4.343779623008e+01 
-4.452933866474e+01 3.112739358464e+01 0.0 
3.112739358464e+01 -6.825033257821e+01 0.0 
0.0 0.0 -2.968263780537e+01 
-1.177256478095e+02 3.852831821859e+01 0.0 
3.852831821859e+01 -2.649511983663e+02 0.0 
0.0 0.0 -1.144030538527e+02 
-7.245689177221e+01 -3.329912238193e+00 0.0 
-3.329912238193e+00 -1.544958327199e+02 0.0 
0.0 0.0 -6.257477819184e+01 
-3.820620354471e+01 2.996694993721e+01 0.0 
2.996694993721e+01 -7.560851250435e+01 0.0 
0.0 0.0 -2.904826959216e+01 
-1.070631888794e+02 2.627955376023e+01 0.0 
2.627955376023e+01 -2.907843493572e+02 0.0 
0.0 0.0 -1.189542614710e+02 
-3.229902545721e+01 2.827994064975e-01 0.0 
2.827994064975e-01 -2.710228806773e+01 0.0 
0.0 0.0 -1.742039405748e+01 
-9.821946744295e+01 2.417521272645e+01 0.0 
2.417521272645e+01 -2.063807080136e+02 0.0 
0.0 0.0 -9.098005263697e+01 
-9.377216763492e+01 9.309582215726e-01 0.0 
9.309582215726e-01 -2.126260374661e+02 0.0 
0.0 0.0 -9.151946153030e+01 
-9.122636928420e+01 1.126353052306e+00 0.0 
1.126353052306e+00 -2.141948616631e+02 0.0 
0.0 0.0 -9.122636928420e+01 
-1.025828190127e+01 -6.046530927479e-02 0.0 
-6.046530927479e-02 -6.169666166413e+00 0.0 
0.0 0.0 -4.181851340898e+00 
-6.602882210739e+00 1.147710498627e-01 0.0 
1.147710498627e-01 -1.084020163962e+01 0.0 
0.0 0.0 -3.510921389121e+00 
-3.279697958617e+01 6.118724991572e-01 0.0 
6.118724991572e-01 -2.969412742653e+01 0.0 
0.0 0.0 -1.834733210381e+01 
-3.170497157417e+01 -1.163122880649e-01 0.0 
-1.163122880649e-01 -2.714521150243e+01 0.0 
0.0 0.0 -1.725505492298e+01 
-1.680396703072e+02 4.715701697242e-01 0.0 
4.715701697242e-01 -3.934258973834e+02 0.0 
0.0 0.0 -1.680396703072e+02 
-1.654189686630e+02 -6.468040334425e-01 0.0 
-6.468040334425e-01 -3.904547280117e+02 0.0 
0.0 0.0 -1.663621090024e+02 
-1.029822089684e+01 -4.438461863699e-01 0.0 
-4.438461863699e-01 -2.336083225068e+01 0.0 
0.0 0.0 -7.513971360492e+00 
-7.997344330962e+01 -4.063883835697e+00 0.0 
-4.063883835697e+00 -1.133200991256e+02 0.0 
0.0 0.0 -5.848848907776e+01 
-1.501924547755e+02 2.240617750052e+00 0.0 
2.240617750052e+00 -3.618775499477e+02 0.0 
0.0 0.0 -1.532210014169e+02 
-1.195223014592e+02 3.266234690945e+01 0.0 
3.266234690945e+01 -3.019867294813e+02 0.0 
0.0 0.0 -1.260527092821e+02 
-2.125330120720e+01 -2.315011291416e+00 0.0 
-2.315011291416e+00 -7.501980383370e+01 0.0 
0.0 0.0 -2.783414285082e+01 
-1.509394155549e+02 6.314591076842e+00 0.0 
6.314591076842e+00 -3.654968297609e+02 0.0 
0.0 0.0 -1.545308735947e+02 
-1.126048447342e+02 -8.304473364719e-03 0.0 
-8.304473364719e-03 -2.619449300256e+02 0.0 
0.0 0.0 -1.090820602004e+02 
-1.010031412973e+02 2.396011984911e-01 0.0 
2.396011984911e-01 -2.263834667679e+02 0.0 
0.0 0.0 -9.363823829300e+01 
-5.961061864466e+01 1.086179846199e+00 0.0 
1.086179846199e+00 -9.581293347653e+01 0.0 
0.0 0.0 -4.622706563636e+01 
-4.536469752389e+01 -2.101033401861e+01 0.0 
-2.101033401861e+01 -9.109750724362e+01 0.0 
0.0 0.0 -3.453160524338e+01 
-9.219945079265e+01 2.692728116326e+01 0.0 
2.692728116326e+01 -2.596676163927e+02 0.0 
0.0 0.0 -1.051601201556e+02 
-1.810444139653e+01 -1.089680129235e+00 0.0 
-1.089680129235e+00 -6.025023292836e+01 0.0 
0.0 0.0 -2.173168352616e+01 
-9.398718777616e+01 -2.163498901558e+00 0.0 
-2.163498901558e+00 -2.068597990493e+02 0.0 
0.0 0.0 -8.490844719255e+01 
-1.106307972134e+02 3.501185895596e+01 0.0 
3.501185895596e+01 -2.523388800980e+02 0.0 
0.0 0.0 -1.084909031934e+02 
-8.235525665120e+01 1.019801466086e+00 0.0 
1.019801466086e+00 -1.707225956787e+02 0.0 
0.0 0.0 -7.552335569897e+01 
-1.011365638046e+02 -1.183265629979e+00 0.0 
-1.183265629979e+00 -2.253066751833e+02 0.0 
0.0 0.0 -9.337434414430e+01 
-5.135770617666e+01 1.263341040448e+00 0.0 
1.263341040448e+00 -7.502447499809e+01 0.0 
0.0 0.0 -3.751465435242e+01 
-1.178276558194e+02 3.641314647868e+01 0.0 
3.641314647868e+01 -2.886756585389e+02 0.0 
0.0 0.0 -1.215509943075e+02 
-1.043937816380e+02 3.589319179446e+01 0.0 
3.589319179446e+01 -2.313677525960e+02 0.0 
0.0 0.0 -1.003284602702e+02 
-9.663619110211e+01 3.510264381934e+01 0.0 
3.510264381934e+01 -2.108858087012e+02 0.0 
0.0 0.0 -9.185659994098e+01 
-3.338365731176e+01 1.965369790609e-01 0.0 
1.965369790609e-01 -2.773822543094e+01 0.0 
0.0 0.0 -1.793656482281e+01 
-8.722891306069e+01 2.501290006705e+01 0.0 
2.501290006705e+01 -2.554646248625e+02 0.0 
0.0 0.0 -1.024080613770e+02 
-1.001541804711e+02 2.797032762280e+01 0.0 
2.797032762280e+01 -2.136731709638e+02 0.0 
0.0 0.0 -9.374820543049e+01 
-5.279043951680e+01 -3.272833428015e+00 0.0 
-3.272833428015e+00 -1.163982076662e+02 0.0 
0.0 0.0 -4.594670434582e+01 
-1.647360405087e+01 -2.805440560259e-02 0.0 
-2.805440560259e-02 -2.418463783063e+01 0.0 
0.0 0.0 -1.157377238729e+01 
-1.135102234798e+02 3.537141100338e+01 0.0 
3.537141100338e+01 -2.741402614223e+02 0.0 
0.0 0.0 -1.158951454706e+02 
-1.160159330192e+02 1.844337105857e+01 0.0 
1.844337105857e+01 -3.156055177495e+02 0.0 
0.0 0.0 -1.290864352306e+02 
-4.322492404309e+01 -2.203742414579e+01 0.0 
-2.203742414579e+01 -8.335497704795e+01 0.0 
0.0 0.0 -3.137257848009e+01 
-6.445278250230e+01 1.714730018330e+00 0.0 
1.714730018330e+00 -1.102215953659e+02 0.0 
0.0 0.0 -5.200231336046e+01 
-1.585500242228e+02 3.091651583185e+00 0.0 
3.091651583185e+00 -3.763844662218e+02 0.0 
0.0 0.0 -1.600803471334e+02 
-1.140284478415e+02 3.244190163063e+01 0.0 
3.244190163063e+01 -2.866708488490e+02 0.0 
0.0 0.0 -1.198097890072e+02 
-1.195149728346e+02 3.587330942342e+01 0.0 
3.587330942342e+01 -2.955614861796e+02 0.0 
0.0 0.0 -1.241229377043e+02 
-1.184984270936e+02 7.671568260684e-01 0.0 
7.671568260684e-01 -2.826904198012e+02 0.0 
0.0 0.0 -1.180769485501e+02 
-4.436886967777e+01 3.394161032634e+01 0.0 
3.394161032634e+01 -9.631437242933e+01 0.0 
0.0 0.0 -4.355714848319e+01 
-4.225406142298e+01 3.000505028078e+01 0.0 
3.000505028078e+01 -2.711578940638e+01 0.0 
0.0 0.0 -1.796317301369e+01 
-4.550902695326e+01 3.059235742694e+01 0.0 
3.059235742694e+01 -6.706748552866e+01 0.0 
0.0 0.0 -3.038021014761e+01 
-6.141037728536e+01 1.017679098315e+01 0.0 
1.017679098315e+01 -6.742316194571e+01 0.0 
0.0 0.0 -3.825006176932e+01 
-8.676333054142e+01 2.429938988227e+01 0.0 
2.429938988227e+01 -2.551434776789e+02 0.0 
0.0 0.0 -1.029887662670e+02 
-8.870634031259e+01 9.274219084370e+00 0.0 
9.274219084370e+00 -1.862025732322e+02 0.0 
0.0 0.0 -8.207267406343e+01 
-1.456057825108e+02 2.330286575778e+01 0.0 
2.330286575778e+01 -3.544742843167e+02 0.0 
0.0 0.0 -1.496240200483e+02 
-4.253684647910e+01 -1.649717986315e+01 0.0 
-1.649717986315e+01 -5.261076977597e+01 0.0 
0.0 0.0 -2.343989621532e+01 
-2.879471090527e+01 -6.964002245184e+00 0.0 
-6.964002245184e+00 -4.246905976620e+01 0.0 
0.0 0.0 -1.736838308142e+01 
-4.416059969448e+01 3.024547602597e+01 0.0 
3.024547602597e+01 -2.867050501305e+01 0.0 
0.0 0.0 -1.837160816430e+01 
-6.583952780692e+01 1.009760282902e+00 0.0 
1.009760282902e+00 -1.155796983856e+02 0.0 
0.0 0.0 -5.402576785776e+01 
-6.546694198063e+01 -3.280192560531e+00 0.0 
-3.280192560531e+00 -1.450074553283e+02 0.0 
0.0 0.0 -5.778547526041e+01 
-9.845391648666e+01 2.208504756408e+01 0.0 
2.208504756408e+01 -2.012093890537e+02 0.0 
0.0 0.0 -8.949899166210e+01 
-1.788262840259e+01 -8.736562818765e-01 0.0 
-8.736562818765e-01 -7.171182183177e+01 0.0 
0.0 0.0 -2.632197622433e+01 
-1.330421758454e+02 2.211739083227e+01 0.0 
2.211739083227e+01 -3.378816634783e+02 0.0 
0.0 0.0 -1.408771517971e+02 
-5.058593984747e+01 2.097701542196e+00 0.0 
2.097701542196e+00 -6.086128258347e+01 0.0 
0.0 0.0 -3.303416672928e+01 
-1.383556112522e+02 3.151840052561e+01 0.0 
3.151840052561e+01 -3.334351493781e+02 0.0 
0.0 0.0 -1.411372281891e+02 
-1.073091292590e+02 3.017007305248e+01 0.0 
3.017007305248e+01 -2.818276722362e+02 0.0 
0.0 0.0 -1.163410404486e+02 
-6.471637873099e+01 1.418874197949e+01 0.0 
1.418874197949e+01 -7.032368846740e+01 0.0 
0.0 0.0 -4.011202015952e+01 
-1.502808360688e+02 1.401298145982e+01 0.0 
1.401298145982e+01 -3.704431058256e+02 0.0 
0.0 0.0 -1.558171825683e+02 
-1.025191161602e+02 2.380808805672e+01 0.0 
2.380808805672e+01 -2.173946944645e+02 0.0 
0.0 0.0 -9.557414318741e+01 
-9.116516144051e+01 1.736236272732e+00 0.0 
1.736236272732e+00 -1.984724245787e+02 0.0 
0.0 0.0 -8.649127580578e+01 
-4.497688742682e+01 3.044710596695e+01 0.0 
3.044710596695e+01 -3.000596125233e+01 0.0 
0.0 0.0 -1.825588320779e+01 
-9.223953410870e+01 1.734224982278e+01 0.0 
1.734224982278e+01 -1.881712314666e+02 0.0 
0.0 0.0 -8.372322967258e+01 
-1.246218675334e+02 3.690684682922e+01 0.0 
3.690684682922e+01 -2.950716062008e+02 0.0 
0.0 0.0 -1.255080421203e+02 
-1.319083070620e+02 2.320540853632e+01 0.0 
2.320540853632e+01 -3.380848998901e+02 0.0 
0.0 0.0 -1.405979620856e+02 
-1.109845474861e+02 2.796314922513e+01 0.0 
2.796314922513e+01 -2.940957057502e+02 0.0 
0.0 0.0 -1.211240759709e+02 
-1.674082055757e+02 7.596407675540e+00 0.0 
7.596407675540e+00 -3.919524796767e+02 0.0 
0.0 0.0 -1.674082055757e+02 
-9.544309638218e+01 3.262354353947e+01 0.0 
3.262354353947e+01 -2.098937303544e+02 0.0 
0.0 0.0 -9.120104802099e+01 
-6.345695178833e+01 2.489528451598e+01 0.0 
2.489528451598e+01 -7.647473019113e+01 0.0 
0.0 0.0 -4.253124749436e+01 
-4.179389261922e+01 3.176127782707e+01 0.0 
3.176127782707e+01 -7.055032833871e+01 0.0 
0.0 0.0 -2.732218883295e+01 
-1.072218648808e+02 3.601546436235e+01 0.0 
3.601546436235e+01 -2.358602373494e+02 0.0 
0.0 0.0 -1.025246306691e+02 
-6.543339471535e+01 9.832403374283e+00 0.0 
9.832403374283e+00 -8.332718613578e+01 0.0 
0.0 0.0 -4.422817425534e+01 
-1.503264669448e+02 2.276700542552e+00 0.0 
2.276700542552e+00 -3.611010958028e+02 0.0 
0.0 0.0 -1.530282688243e+02 
-1.183729830460e+02 3.141739948820e+01 0.0 
3.141739948820e+01 -3.001892193634e+02 0.0 
0.0 0.0 -1.251686607228e+02 
-1.588954403549e+02 6.600749993807e+00 0.0 
6.600749993807e+00 -3.784225000305e+02 0.0 
0.0 0.0 -1.607953821156e+02 
-7.320636981710e+01 1.950036774358e+00 0.0 
1.950036774358e+00 -1.371444755046e+02 0.0 
0.0 0.0 -6.270525359651e+01 
-1.409606052444e+02 3.005906423732e+01 0.0 
3.005906423732e+01 -3.394282170673e+02 0.0 
0.0 0.0 -1.437166466935e+02 
-1.459706232873e+02 1.220129105071e+01 0.0 
1.220129105071e+01 -3.606547507491e+02 0.0 
0.0 0.0 -1.515876122109e+02 
-1.444042134307e+02 1.131110902770e+01 0.0 
1.131110902770e+01 -3.598705003620e+02 0.0 
0.0 0.0 -1.508824141378e+02 
-6.787293611075e+01 -2.251354164078e+00 0.0 
-2.251354164078e+00 -1.499632713778e+02 0.0 
0.0 0.0 -6.043776204061e+01 
-1.648339506272e+02 6.048709290283e+00 0.0 
6.048709290283e+00 -3.915935451252e+02 0.0 
0.0 0.0 -1.665282487257e+02 
-4.698294416872e+01 3.624491687837e+00 0.0 
3.624491687837e+00 -4.597271028169e+01 0.0 
0.0 0.0 -2.748669633512e+01 
-8.617083788689e+01 5.308681729649e+00 0.0 
5.308681729649e+00 -1.793718294172e+02 0.0 
0.0 0.0 -7.926280019124e+01 
-2.951982087219e+01 -7.633449195912e+00 0.0 
-7.633449195912e+00 -4.567953912129e+01 0.0 
0.0 0.0 -1.806099923886e+01 
-8.193401617237e+01 2.562420334460e+00 0.0 
2.562420334460e+00 -1.636924289528e+02 0.0 
0.0 0.0 -7.328793353756e+01 
-6.583845685891e+01 1.782587961178e+00 0.0 
1.782587961178e+00 -1.123035489633e+02 0.0 
0.0 0.0 -5.304260174668e+01 
-1.178841028227e+01 8.885164133703e-02 0.0 
8.885164133703e-02 -4.190876928841e+01 0.0 
0.0 0.0 -1.294037656986e+01 
-3.853059571819e+01 -1.445609659930e+01 0.0 
-1.445609659930e+01 -1.263032309736e+02 0.0 
0.0 0.0 -4.880548889093e+01 
-9.910889895845e+01 3.335386428133e+01 0.0 
3.335386428133e+01 -2.266267250936e+02 0.0 
0.0 0.0 -9.732068721563e+01 
-9.077776461659e+01 1.242348221126e+01 0.0 
1.242348221126e+01 -2.004776349711e+02 0.0 
0.0 0.0 -8.697661987630e+01 
-8.592076997625e+01 2.942290408575e+00 0.0 
2.942290408575e+00 -1.818964215384e+02 0.0 
0.0 0.0 -7.994515745440e+01 
-1.352879313201e+02 2.859196349481e+01 0.0 
2.859196349481e+01 -3.382622342701e+02 0.0 
0.0 0.0 -1.416650496770e+02 
-5.171482157909e+01 5.202391815071e-01 0.0 
5.202391815071e-01 -7.413190070175e+01 0.0 
0.0 0.0 -3.735401668425e+01 
-1.442517472252e+01 -4.350087465501e-01 0.0 
-4.350087465501e-01 -2.327797387780e+01 0.0 
0.0 0.0 -1.016305977225e+01 
-3.845805911560e+01 2.432708028819e+01 0.0 
2.432708028819e+01 -1.104048683303e+02 0.0 
0.0 0.0 -4.655032689307e+01 
-1.187058122812e+01 -1.634968651394e+00 0.0 
-1.634968651394e+00 -2.876055403201e+01 0.0 
0.0 0.0 -1.132781892018e+01 
-3.335059933226e+01 -7.454373943783e+00 0.0 
-7.454373943783e+00 -5.780763191462e+01 0.0 
0.0 0.0 -2.205138173129e+01 
-5.377729744439e+01 4.323690571086e+01 0.0 
4.323690571086e+01 -5.415111901791e+01 0.0 
0.0 0.0 -3.282897615338e+01 
-9.082881316826e+01 -3.250386506212e+00 0.0 
-3.250386506212e+00 -2.009585200617e+02 0.0 
0.0 0.0 -8.240713141115e+01 
-1.498924785489e+02 8.077962958246e-01 0.0 
8.077962958246e-01 -3.608705272038e+02 0.0 
0.0 0.0 -1.528289017258e+02 
-1.048589324162e+02 3.149576577579e+01 0.0 
3.149576577579e+01 -2.261620646337e+02 0.0 
0.0 0.0 -9.890629911497e+01 
-7.378641724843e+01 1.964633631911e+01 0.0 
1.964633631911e+01 -9.217061758110e+01 0.0 
0.0 0.0 -4.938711044886e+01 
-8.124171988370e+01 -3.766842764051e+00 0.0 
-3.766842764051e+00 -1.772824813752e+02 0.0 
0.0 0.0 -7.130999860987e+01 
-1.458583420976e+02 9.388217199858e+00 0.0 
9.388217199858e+00 -3.600797221405e+02 0.0 
0.0 0.0 -1.513814192714e+02 
-1.350078922212e+02 1.606495900755e+01 0.0 
1.606495900755e+01 -3.477298700828e+02 0.0 
0.0 0.0 -1.444213286912e+02 
-1.331350464051e+02 3.322257031232e+01 0.0 
3.322257031232e+01 -3.297777644549e+02 0.0 
0.0 0.0 -1.384738432580e+02 
-1.195130228637e+02 3.541913627581e+01 0.0 
3.541913627581e+01 -2.862382236263e+02 0.0 
0.0 0.0 -1.213253739470e+02 
-1.060152144800e+02 3.439890280621e+01 0.0 
3.439890280621e+01 -2.455978381735e+02 0.0 
0.0 0.0 -1.050839157961e+02 
-2.757946619691e+01 -7.668115695967e+00 0.0 
-7.668115695967e+00 -4.357991489704e+01 0.0 
0.0 0.0 -1.866514759863e+01 
-3.761262243281e+01 -2.115195121699e+01 0.0 
-2.115195121699e+01 -1.089027061040e+02 0.0 
0.0 0.0 -4.571705485724e+01 
-1.501871810794e+02 3.267184585240e+00 0.0 
3.267184585240e+00 -3.623543896277e+02 0.0 
0.0 0.0 -1.533624712121e+02 
-8.980979897234e+00 -4.309246884618e-01 0.0 
-4.309246884618e-01 -4.096612738054e+01 0.0 
0.0 0.0 -1.272024796138e+01 
-1.169989400737e+01 -1.101949815331e+00 0.0 
-1.101949815331e+00 -4.919892364372e+01 0.0 
0.0 0.0 -1.618033676259e+01 
-4.875811876106e+01 3.845615466132e+01 0.0 
3.845615466132e+01 -5.979828378851e+01 0.0 
0.0 0.0 -3.109425788126e+01 
-1.566904574144e+01 -4.690230096610e-01 0.0 
-4.690230096610e-01 -3.859891005027e+01 0.0 
0.0 0.0 -1.457267356452e+01 
-1.554149674644e+02 1.254689954649e+01 0.0 
1.254689954649e+01 -3.737943212644e+02 0.0 
0.0 0.0 -1.583627866187e+02 
-1.198818624267e+02 3.770970768855e+01 0.0 
3.770970768855e+01 -2.778283777284e+02 0.0 
0.0 0.0 -1.189130720465e+02 
-8.686188531712e+01 7.412284394074e+00 0.0 
7.412284394074e+00 -1.855666780754e+02 0.0 
0.0 0.0 -8.132856901774e+01 
-1.367296077190e+02 3.310158755545e+01 0.0 
3.310158755545e+01 -3.290061719216e+02 0.0 
0.0 0.0 -1.393207338922e+02 
-1.307142765182e+02 1.738398640009e+01 0.0 
1.738398640009e+01 -3.375534989320e+02 0.0 
0.0 0.0 -1.400803326351e+02 
-5.600679926657e+01 5.938453402870e-01 0.0 
5.938453402870e-01 -8.564495381099e+01 0.0 
0.0 0.0 -4.209552592327e+01 
-9.483926582345e+01 1.711476890272e+01 0.0 
1.711476890272e+01 -2.226249535881e+02 0.0 
0.0 0.0 -9.483926582346e+01 
-4.876861469768e+01 -2.010562898003e+01 0.0 
-2.010562898003e+01 -1.286898918200e+02 0.0 
0.0 0.0 -4.960030520823e+01 
-3.320269987801e+01 3.088983068853e-01 0.0 
3.088983068853e-01 -2.692812308236e+01 0.0 
0.0 0.0 -1.763924688811e+01 
-4.978593964610e+01 -2.307657246572e+01 0.0 
-2.307657246572e+01 -7.497247777104e+01 0.0 
0.0 0.0 -3.063162501635e+01 
-7.694492810849e+00 -1.119552251365e+00 0.0 
-1.119552251365e+00 -2.431828838525e+01 0.0 
0.0 0.0 -7.228102272580e+00 
-1.653461144567e+02 3.659106110456e+00 0.0 
3.659106110456e+00 -3.918060872325e+02 0.0 
0.0 0.0 -1.667456605068e+02 
-5.933152115286e+01 1.206298690428e+01 0.0 
1.206298690428e+01 -5.593111607482e+01 0.0 
0.0 0.0 -3.417879116831e+01 
-1.609765157499e+01 -8.422301305048e-01 0.0 
-8.422301305048e-01 -5.766488258222e+01 0.0 
0.0 0.0 -2.019752415937e+01 
-8.819252295302e+01 -3.054808158562e+00 0.0 
-3.054808158562e+00 -1.927010080134e+02 0.0 
0.0 0.0 -7.894141249449e+01 
-1.192670959560e+02 3.896994861804e+01 0.0 
3.896994861804e+01 -2.748614391512e+02 0.0 
0.0 0.0 -1.178385605322e+02 
-9.126449363533e+01 1.246435111322e+01 0.0 
1.246435111322e+01 -1.867990357326e+02 0.0 
0.0 0.0 -8.301905881039e+01 
-1.002169830054e+02 2.648742567486e+01 0.0 
2.648742567486e+01 -2.217578607037e+02 0.0 
0.0 0.0 -9.619245311274e+01 
-6.044023947240e+01 -9.809840592470e-01 0.0 
-9.809840592470e-01 -1.361568270484e+02 0.0 
0.0 0.0 -5.480754079073e+01 
-3.843659574971e+01 2.572633327350e+00 0.0 
2.572633327350e+00 -1.201067353900e+02 0.0 
0.0 0.0 -4.949283228537e+01 
-1.555072872938e+02 7.617836413026e+00 0.0 
7.617836413026e+00 -3.763199354387e+02 0.0 
0.0 0.0 -1.591481668198e+02 
-9.582659872649e+01 1.508726318124e+00 0.0 
1.508726318124e+00 -2.160568676994e+02 0.0 
0.0 0.0 -9.316503992776e+01 
-1.658837070612e+02 8.131257642771e-01 0.0 
8.131257642771e-01 -3.923731147439e+02 0.0 
0.0 0.0 -1.670770465415e+02 
-3.767193085011e+01 -4.451001826420e-01 0.0 
-4.451001826420e-01 -4.153972221444e+01 0.0 
0.0 0.0 -2.336349591936e+01 
-1.405284877729e+02 1.778223595093e+01 0.0 
1.778223595093e+01 -3.505721679989e+02 0.0 
0.0 0.0 -1.469301967315e+02 
-1.477134834567e+01 -1.233705883647e+00 0.0 
-1.233705883647e+00 -5.830836177122e+01 0.0 
0.0 0.0 -2.062542935549e+01 
-9.559337415497e+01 2.009056954873e+01 0.0 
2.009056954873e+01 -2.002174875890e+02 0.0 
0.0 0.0 -8.834325852319e+01 
-9.186528995421e+00 -8.209173463244e-01 0.0 
-8.209173463244e-01 -2.343278430263e+01 0.0 
0.0 0.0 -7.818458234761e+00 
-1.535754102792e+02 1.609496819813e+01 0.0 
1.609496819813e+01 -3.703919865128e+02 0.0 
0.0 0.0 -1.567902190376e+02 
-1.058502289490e+02 2.843127133217e+01 0.0 
2.843127133217e+01 -2.262332282587e+02 0.0 
0.0 0.0 -9.922503716233e+01 
-4.645250566870e+01 1.484113596985e+01 0.0 
1.484113596985e+01 -1.170214751099e+02 0.0 
0.0 0.0 -5.040846843733e+01 
-1.150497853098e+02 3.379485880097e+01 0.0 
3.379485880097e+01 -2.877922965190e+02 0.0 
0.0 0.0 -1.204526245486e+02 
-7.052579686665e+01 2.854840481718e+00 0.0 
2.854840481718e+00 -1.270696104548e+02 0.0 
0.0 0.0 -5.887862219642e+01 
-8.936441346704e+01 9.178259663445e+00 0.0 
9.178259663445e+00 -1.997446008818e+02 0.0 
0.0 0.0 -8.633270430464e+01 
-1.553867209582e+02 2.869587056053e+01 0.0 
2.869587056053e+01 -3.639023489025e+02 0.0 
0.0 0.0 -1.553867209582e+02 
-5.994210384612e+01 1.718601328333e+00 0.0 
1.718601328333e+00 -9.955906387001e+01 0.0 
0.0 0.0 -4.745035031484e+01 
-1.165967688770e+02 3.701630896254e+01 0.0 
3.701630896254e+01 -2.700780293143e+02 0.0 
0.0 0.0 -1.156024394574e+02 
-1.019826644962e+02 2.655559534928e+01 0.0 
2.655559534928e+01 -2.090991606905e+02 0.0 
0.0 0.0 -9.292454755601e+01 
-6.342654014640e+01 1.286000238836e+00 0.0 
1.286000238836e+00 -1.110317866332e+02 0.0 
0.0 0.0 -5.193749803389e+01 
-1.139223748085e+02 3.601688873244e+01 0.0 
3.601688873244e+01 -2.610587516813e+02 0.0 
0.0 0.0 -1.120943379469e+02 
-7.684941105378e+01 -2.269883425831e+00 0.0 
-2.269883425831e+00 -1.646949487096e+02 0.0 
0.0 0.0 -6.694800629240e+01 
-3.195814479443e+01 2.286573744381e-01 0.0 
2.286573744381e-01 -2.693580061549e+01 0.0 
0.0 0.0 -1.726818362297e+01 
-1.260382762538e+02 3.198544601713e+01 0.0 
3.198544601713e+01 -3.153826363902e+02 0.0 
0.0 0.0 -1.320262737932e+02 
-8.946496255042e+01 6.482579845975e-01 0.0 
6.482579845975e-01 -1.998484012704e+02 0.0 
0.0 0.0 -8.639400914626e+01 
-5.068710768473e+00 -5.164133528736e-02 0.0 
-5.164133528736e-02 -8.765318931589e+00 0.0 
0.0 0.0 -2.186970281294e+00 
-3.157538190807e+01 -1.891363377059e-01 0.0 
-1.891363377059e-01 -2.718550690051e+01 0.0 
0.0 0.0 -1.722826664257e+01 
-1.602911367014e+02 1.000258951480e+00 0.0 
1.000258951480e+00 -3.798947811831e+02 0.0 
0.0 0.0 -1.616557753654e+02 
-2.727459414160e+01 -5.073998223167e+00 0.0 
-5.073998223167e+00 -7.401588955617e+01 0.0 
0.0 0.0 -2.711695642893e+01 
-1.328037627433e+02 2.102266135376e+01 0.0 
2.102266135376e+01 -3.429043688383e+02 0.0 
0.0 0.0 -1.423124394745e+02 
-1.057942762289e+02 3.050298407542e+01 0.0 
3.050298407542e+01 -2.175729300519e+02 0.0 
0.0 0.0 -9.661016188424e+01 
-9.294086503999e+01 8.837038324631e+00 0.0 
8.837038324631e+00 -1.998457107696e+02 0.0 
0.0 0.0 -8.743597274286e+01 
-1.993986438832e+01 -3.210000972603e+00 0.0 
-3.210000972603e+00 -7.085455637500e+01 0.0 
0.0 0.0 -2.605052181530e+01 
-4.762641732080e+01 3.623244006894e+01 0.0 
3.623244006894e+01 -8.623485249762e+01 0.0 
0.0 0.0 -3.812662515942e+01 
-1.037452895539e+02 -1.412876312383e+00 0.0 
-1.412876312383e+00 -2.351612272020e+02 0.0 
0.0 0.0 -9.732971853599e+01 
-7.562793104607e+01 1.342863571195e+00 0.0 
1.342863571195e+00 -1.487460542628e+02 0.0 
0.0 0.0 -6.691219559265e+01 
-1.398622868614e+02 -3.381493977135e+00 0.0 
-3.381493977135e+00 -9.570641756644e+01 0.0 
0.0 0.0 -7.089499584117e+01 
-9.670424139368e+01 2.219774210149e+01 0.0 
2.219774210149e+01 -2.139091081012e+02 0.0 
0.0 0.0 -9.278400484846e+01 
-5.710840198700e+01 6.954697576808e-01 0.0 
6.954697576808e-01 -9.318012121629e+01 0.0 
0.0 0.0 -4.468655696099e+01 
-5.011408319445e+01 -2.194843645216e+01 0.0 
-2.194843645216e+01 -9.305711349609e+01 0.0 
0.0 0.0 -3.743748487332e+01 
-5.254906450941e+01 8.168831522369e-01 0.0 
8.168831522369e-01 -7.918752605311e+01 0.0 
0.0 0.0 -3.912097716875e+01 
-1.318423833274e+02 3.579796254006e+01 0.0 
3.579796254006e+01 -3.220336712572e+02 0.0 
0.0 0.0 -1.357628163754e+02 
-1.074149847732e+02 8.132823042139e-01 0.0 
8.132823042139e-01 -2.463365998370e+02 0.0 
0.0 0.0 -1.022527307892e+02 
-5.159478739364e+01 3.576932493786e+01 0.0 
3.576932493786e+01 -3.400577103526e+01 0.0 
0.0 0.0 -2.657063675013e+01 
-7.025333638646e+01 -4.242829375610e+00 0.0 
-4.242829375610e+00 -1.488323797804e+02 0.0 
0.0 0.0 -5.962517000344e+01 
-9.604694395555e+01 -2.770473295304e+00 0.0 
-2.770473295304e+00 -2.163428458846e+02 0.0 
0.0 0.0 -8.902774541434e+01 
-1.105456479054e+02 -1.403191792834e+00 0.0 
-1.403191792834e+00 -2.556688045510e+02 0.0 
0.0 0.0 -1.064191820111e+02 
-1.307590686955e+02 2.992528791567e+01 0.0 
2.992528791567e+01 -3.261336097705e+02 0.0 
0.0 0.0 -1.366678035398e+02 
-9.601275519965e+01 -7.307252297265e-01 0.0 
-7.307252297265e-01 -2.108102296016e+02 0.0 
0.0 0.0 -8.687401453678e+01 
-9.947901421502e+01 -1.793876899850e+00 0.0 
-1.793876899850e+00 -2.235726600968e+02 0.0 
0.0 0.0 -9.241990173332e+01 
-1.311702390825e+01 -1.592578058390e+00 0.0 
-1.592578058390e+00 -3.753937903335e+01 0.0 
0.0 0.0 -1.369300505040e+01 
-1.497812436038e+02 5.478545684814e+00 0.0 
5.478545684814e+00 -3.652760471907e+02 0.0 
0.0 0.0 -1.541171872384e+02 
-1.118953574995e+02 3.452154790013e+01 0.0 
3.452154790013e+01 -2.735802899060e+02 0.0 
0.0 0.0 -1.152426942217e+02 
-4.423224617865e+01 3.164052547883e+01 0.0 
3.164052547883e+01 -1.019661817930e+02 0.0 
0.0 0.0 -4.257627756908e+01 
-8.862458939042e+01 1.649135471990e+00 0.0 
1.649135471990e+00 -1.988748469202e+02 0.0 
0.0 0.0 -8.584983089318e+01 
-1.602946185075e+02 -2.444890991631e-03 0.0 
-2.444890991631e-03 -3.794665213202e+02 0.0 
0.0 0.0 -1.615283419483e+02 
-3.826524266846e+01 6.611507867239e-01 0.0 
6.611507867239e-01 -4.260750049493e+01 0.0 
0.0 0.0 -2.386182294902e+01 
-5.799899337884e+01 5.992486217916e-01 0.0 
5.992486217916e-01 -9.355595253165e+01 0.0 
0.0 0.0 -4.506648377315e+01 
-9.470802954457e+01 -2.503166092178e+00 0.0 
-2.503166092178e+00 -2.104734922502e+02 0.0 
0.0 0.0 -8.673142753817e+01 
-9.865766363677e+01 -1.499205026042e+00 0.0 
-1.499205026042e+00 -2.177688514780e+02 0.0 
0.0 0.0 -8.993527001084e+01 
-9.971818218113e+01 -1.003974113884e+00 0.0 
-1.003974113884e+00 -2.242403969632e+02 0.0 
0.0 0.0 -9.260220131094e+01 
-1.266431193244e+02 1.994988893348e+01 0.0 
1.994988893348e+01 -3.309320193800e+02 0.0 
0.0 0.0 -1.368725416113e+02 
-4.098673345539e+01 -1.673487799462e+01 0.0 
-1.673487799462e+01 -6.882437231867e+01 0.0 
0.0 0.0 -2.539820114937e+01 
-1.169391581068e+02 3.774099060223e+01 0.0 
3.774099060223e+01 -2.792729240482e+02 0.0 
0.0 0.0 -1.184636246465e+02 
-4.458940718179e+01 1.151804907471e-01 0.0 
1.151804907471e-01 -5.926346484689e+01 0.0 
0.0 0.0 -3.075586160861e+01 
-1.016123703881e+02 2.186008719666e+01 0.0 
2.186008719666e+01 -2.130514356446e+02 0.0 
0.0 0.0 -9.399914180980e+01 
-1.289290965681e+02 2.042702637274e+01 0.0 
2.042702637274e+01 -3.318195039401e+02 0.0 
0.0 0.0 -1.378245801524e+02 
-5.460116417434e+01 1.486077703607e+00 0.0 
1.486077703607e+00 -8.043647043388e+01 0.0 
0.0 0.0 -4.011129038247e+01 
-1.083906925597e+02 3.483515957984e+01 0.0 
3.483515957984e+01 -2.476257130520e+02 0.0 
0.0 0.0 -1.064049216835e+02 
-1.290754783477e+02 2.868674201454e+01 0.0 
2.868674201454e+01 -3.248193722565e+02 0.0 
0.0 0.0 -1.357684551813e+02 
-1.350731324872e+02 3.225064978545e+01 0.0 
3.225064978545e+01 -3.348583590077e+02 0.0 
0.0 0.0 -1.405794474485e+02 
-5.365379907252e+01 4.486557388666e+01 0.0 
4.486557388666e+01 -7.263124373370e+01 0.0 
0.0 0.0 -3.911142531490e+01 
-1.100934806699e+02 3.636044599192e+01 0.0 
3.636044599192e+01 -2.485932321721e+02 0.0 
0.0 0.0 -1.072060138526e+02 
-1.137623159567e+02 3.669015936996e+01 0.0 
3.669015936996e+01 -2.640861874126e+02 0.0 
0.0 0.0 -1.129545510108e+02 
-1.549683404894e+01 -5.640619760368e-01 0.0 
-5.640619760368e-01 -3.780817827934e+01 0.0 
0.0 0.0 -1.382111169170e+01 
-9.236442536644e+01 -1.775795393271e+00 0.0 
-1.775795393271e+00 -2.007186530736e+02 0.0 
0.0 0.0 -8.249036020592e+01 
-5.589772833576e+01 4.264977144265e+01 0.0 
4.264977144265e+01 -6.474366834209e+01 0.0 
0.0 0.0 -3.724627182212e+01 
-1.138990872308e+02 3.782634212855e+01 0.0 
3.782634212855e+01 -2.562883430686e+02 0.0 
0.0 0.0 -1.106562290898e+02 
-2.379378335946e+01 6.812667049547e-01 0.0 
6.812667049547e-01 -8.332867582996e+00 0.0 
0.0 0.0 -9.237995282738e+00 
-2.476101437940e+01 1.769993658632e-01 0.0 
1.769993658632e-01 -9.805796372869e+00 0.0 
0.0 0.0 -9.970043225680e+00 
-2.419681913464e+01 2.259345552092e-01 0.0 
2.259345552092e-01 -9.573831053002e+00 0.0 
0.0 0.0 -9.731195056291e+00 
-2.449235892674e+01 1.114904380863e-01 0.0 
1.114904380863e-01 -9.852064457964e+00 0.0 
0.0 0.0 -9.903327015412e+00 
-2.434202722286e+01 2.315103315662e-02 0.0 
2.315103315662e-02 -9.766250218954e+00 0.0 
0.0 0.0 -9.832483232545e+00 
-2.466190879100e+01 -7.916660964595e-02 0.0 
-7.916660964595e-02 -9.985348014235e+00 0.0 
0.0 0.0 -9.994177041570e+00 
-2.433472680963e+01 8.186198545401e-02 0.0 
8.186198545401e-02 -9.903296180420e+00 0.0 
0.0 0.0 -9.871406897014e+00 
-2.495957763444e+01 -1.557556396890e-02 0.0 
-1.557556396890e-02 -9.976909814605e+00 0.0 
0.0 0.0 -1.008094623471e+01 
-2.432195103021e+01 -8.294830948352e-03 0.0 
-8.294830948352e-03 -9.718091064999e+00 0.0 
0.0 0.0 -9.812012628564e+00 
-2.509084938591e+01 -1.931681402777e-01 0.0 
-1.931681402777e-01 -1.006074143618e+01 0.0 
0.0 0.0 -1.014547724663e+01 
-2.414146359990e+01 1.750438123377e-02 0.0 
1.750438123377e-02 -9.785981816822e+00 0.0 
0.0 0.0 -9.778233625016e+00 
-2.542899202601e+01 -2.036810132169e-01 0.0 
-2.036810132169e-01 -1.011720194621e+01 0.0 
0.0 0.0 -1.026385819167e+01 
-4.042404002568e+01 6.423555548532e+00 0.0 
6.423555548532e+00 -1.430772901045e+01 0.0 
0.0 0.0 -1.531575156123e+01 
-2.396233331162e+01 2.806532155337e-02 0.0 
2.806532155337e-02 -9.679165957493e+00 0.0 
0.0 0.0 -9.692449780734e+00 
-4.189823496318e+01 3.836600226773e+00 0.0 
3.836600226773e+00 -1.098367796721e+01 0.0 
0.0 0.0 -1.464684161684e+01 
-2.604932120185e+01 -3.124374698686e-01 0.0 
-3.124374698686e-01 -1.023690617131e+01 0.0 
0.0 0.0 -1.048586821195e+01 
-2.374523598906e+01 1.218043102863e-01 0.0 
1.218043102863e-01 -9.655126163515e+00 0.0 
0.0 0.0 -9.620108645773e+00 
-2.621439581927e+01 -2.172368204599e-01 0.0 
-2.172368204599e-01 -1.022198658712e+01 0.0 
0.0 0.0 -1.053091472192e+01 
-2.361512283022e+01 8.282375054074e-02 0.0 
8.282375054074e-02 -9.495254487556e+00 0.0 
0.0 0.0 -9.533113195332e+00 
-2.702794200805e+01 -3.731724371371e-01 0.0 
-3.731724371371e-01 -1.036216645535e+01 0.0 
0.0 0.0 -1.081703253902e+01 
-2.339697687166e+01 1.967602833274e-01 0.0 
1.967602833274e-01 -9.569690967337e+00 0.0 
0.0 0.0 -9.490000351700e+00 
-2.817438350313e+01 -2.535074594100e-01 0.0 
-2.535074594100e-01 -1.047968280951e+01 0.0 
0.0 0.0 -1.119621989379e+01 
-3.061936824800e+01 2.536464593615e+00 0.0 
2.536464593615e+00 -6.298004711602e+00 0.0 
0.0 0.0 -1.028358667622e+01 
-2.349240151954e+01 4.498222188102e-01 0.0 
4.498222188102e-01 -9.572635482460e+00 0.0 
0.0 0.0 -9.519511100600e+00 
-2.979054855600e+01 4.205525991567e-02 0.0 
4.205525991567e-02 -1.056722064248e+01 0.0 
0.0 0.0 -1.170733075954e+01 
-2.414662130526e+01 7.555023557250e-01 0.0 
7.555023557250e-01 -9.514696786102e+00 0.0 
0.0 0.0 -9.698395427408e+00 
-3.247895108657e+01 4.318821320807e-01 0.0 
4.318821320807e-01 -1.068219797139e+01 0.0 
0.0 0.0 -1.241091419362e+01 
-3.644536178530e+01 1.472766071701e+00 0.0 
1.472766071701e+00 -1.077027076865e+01 0.0 
0.0 0.0 -1.331459484030e+01 
-2.565425206500e+01 1.375471253575e+00 0.0 
1.375471253575e+00 -9.885392503482e+00 0.0 
0.0 0.0 -1.026189337054e+01 
-2.925493919414e+01 2.866746824013e+00 0.0 
2.866746824013e+00 -1.105284530097e+01 0.0 
0.0 0.0 -1.169233534853e+01 
-5.263092066731e+01 1.104860964128e+01 0.0 
1.104860964128e+01 -1.394055009282e+01 0.0 
0.0 0.0 -1.895668262198e+01 
-4.361504247263e+01 4.344738726476e+00 0.0 
4.344738726476e+00 5.768970832445e-01 0.0 
0.0 0.0 -1.069577431194e+01 
-2.458030989028e+01 1.267060405599e+00 0.0 
1.267060405599e+00 -9.943774273461e+00 0.0 
0.0 0.0 -9.957225249122e+00 
-2.480231986831e+01 -1.452256523224e+00 0.0 
-1.452256523224e+00 -8.585030898985e+00 0.0 
0.0 0.0 -9.616205230190e+00 
-2.629148973920e+01 -3.240946558064e-02 0.0 
-3.240946558064e-02 -1.451375388750e+01 0.0 
0.0 0.0 -1.184157308801e+01 
-2.320953843160e+01 -2.181213503179e-01 0.0 
-2.181213503179e-01 -4.216950813773e+00 0.0 
0.0 0.0 -7.827946773611e+00 
-6.014512545293e+01 1.281308147116e+01 0.0 
1.281308147116e+01 -1.178118915430e+01 0.0 
0.0 0.0 -2.017280426387e+01 

TENSORS element_materi_strain_total float
-1.229448855648e-03 3.893378033435e-03 0.0 
3.893378033435e-03 5.424958018078e-03 0.0 
0.0 0.0 0.0 
-1.107670236693e-03 3.564876418412e-03 0.0 
3.564876418412e-03 5.188187480296e-03 0.0 
0.0 0.0 0.0 
-3.912223266018e-04 4.413525309091e-03 0.0 
4.413525309091e-03 1.246866989137e-02 0.0 
0.0 0.0 0.0 
-6.699160474133e-04 4.740148676316e-04 0.0 
4.740148676316e-04 1.635464719455e-02 0.0 
0.0 0.0 0.0 
-2.231936221564e-03 3.465692511223e-04 0.0 
3.465692511223e-04 1.444995568335e-02 0.0 
0.0 0.0 0.0 
1.183273142774e-03 3.623294715588e-03 0.0 
3.623294715588e-03 -3.233890992476e-03 0.0 
0.0 0.0 0.0 
-2.083286388701e-03 2.436870754028e-04 0.0 
2.436870754028e-04 1.445581794025e-02 0.0 
0.0 0.0 0.0 
-1.058029031009e-03 3.951781508954e-03 0.0 
3.951781508954e-03 4.611681042554e-03 0.0 
0.0 0.0 0.0 
-2.231924882117e-03 2.201424537123e-04 0.0 
2.201424537123e-04 1.445875266002e-02 0.0 
0.0 0.0 0.0 
-6.473442983226e-04 8.309202918021e-04 0.0 
8.309202918021e-04 1.630541607219e-02 0.0 
0.0 0.0 0.0 
-9.106862528953e-04 -3.239048498704e-04 0.0 
-3.239048498704e-04 4.105039936774e-03 0.0 
0.0 0.0 0.0 
-1.050293189598e-03 3.520512920179e-03 0.0 
3.520512920179e-03 4.473422205480e-03 0.0 
0.0 0.0 0.0 
-2.791755725966e-04 -1.663367559176e-04 0.0 
-1.663367559176e-04 5.688487520668e-03 0.0 
0.0 0.0 0.0 
-2.632846886666e-03 1.084111869030e-03 0.0 
1.084111869030e-03 1.459994437083e-02 0.0 
0.0 0.0 0.0 
-1.578028174027e-04 -2.671396660546e-04 0.0 
-2.671396660546e-04 5.733122437932e-03 0.0 
0.0 0.0 0.0 
-3.982432810947e-04 6.788429698072e-04 0.0 
6.788429698072e-04 1.637543173705e-02 0.0 
0.0 0.0 0.0 
-2.457646693568e-03 4.931414411568e-04 0.0 
4.931414411568e-04 1.431940965306e-02 0.0 
0.0 0.0 0.0 
1.305817783669e-03 1.679611834303e-03 0.0 
1.679611834303e-03 -3.717851000522e-03 0.0 
0.0 0.0 0.0 
4.499018842070e-04 -1.627352337829e-04 0.0 
-1.627352337829e-04 1.217183362702e-03 0.0 
0.0 0.0 0.0 
-3.237944248247e-05 -2.757753166358e-04 0.0 
-2.757753166358e-04 1.464561485333e-03 0.0 
0.0 0.0 0.0 
-7.940658220906e-04 8.344018441519e-04 0.0 
8.344018441519e-04 1.630586893457e-02 0.0 
0.0 0.0 0.0 
-1.361506807829e-03 3.568364073577e-03 0.0 
3.568364073577e-03 6.634492006774e-03 0.0 
0.0 0.0 0.0 
-1.545709807004e-03 3.811744137356e-03 0.0 
3.811744137356e-03 7.186031314940e-03 0.0 
0.0 0.0 0.0 
1.446250029012e-03 9.572026343735e-04 0.0 
9.572026343735e-04 2.829958163689e-03 0.0 
0.0 0.0 0.0 
-2.654974546672e-03 1.884516795507e-03 0.0 
1.884516795507e-03 1.442628103417e-02 0.0 
0.0 0.0 0.0 
-8.890909860326e-04 -3.626764356885e-04 0.0 
-3.626764356885e-04 4.143715019867e-03 0.0 
0.0 0.0 0.0 
-3.148512112536e-03 1.457215801818e-03 0.0 
1.457215801818e-03 1.374233503035e-02 0.0 
0.0 0.0 0.0 
6.663196009504e-04 4.715567398251e-03 0.0 
4.715567398251e-03 7.174633939860e-03 0.0 
0.0 0.0 0.0 
-2.952920954399e-03 2.138809321621e-03 0.0 
2.138809321621e-03 1.440496427663e-02 0.0 
0.0 0.0 0.0 
1.213817613286e-03 8.709295039898e-04 0.0 
8.709295039898e-04 3.270810576001e-03 0.0 
0.0 0.0 0.0 
1.572928393592e-03 -3.290715711959e-03 0.0 
-3.290715711959e-03 -2.660524058369e-03 0.0 
0.0 0.0 0.0 
1.851705051616e-04 -4.954364603298e-04 0.0 
-4.954364603298e-04 3.051442120381e-04 0.0 
0.0 0.0 0.0 
-6.811834324820e-04 4.594653964487e-03 0.0 
4.594653964487e-03 1.273008068455e-02 0.0 
0.0 0.0 0.0 
-6.359372124339e-04 -1.122523490335e-04 0.0 
-1.122523490335e-04 4.951040518513e-03 0.0 
0.0 0.0 0.0 
4.313928954620e-04 -2.971431615848e-04 0.0 
-2.971431615848e-04 4.241028988168e-03 0.0 
0.0 0.0 0.0 
-3.150192227630e-05 -4.058752753721e-04 0.0 
-4.058752753721e-04 5.442407852972e-03 0.0 
0.0 0.0 0.0 
2.722184537141e-05 -5.197027885323e-04 0.0 
-5.197027885323e-04 5.435332516877e-03 0.0 
0.0 0.0 0.0 
1.169976770806e-03 2.782121940260e-03 0.0 
2.782121940260e-03 4.109794637269e-03 0.0 
0.0 0.0 0.0 
-2.084307752387e-03 3.886793269566e-05 0.0 
3.886793269566e-05 1.404351513409e-02 0.0 
0.0 0.0 0.0 
-2.001408716574e-03 1.227977064655e-04 0.0 
1.227977064655e-04 1.405671151610e-02 0.0 
0.0 0.0 0.0 
-2.035817645806e-03 3.757671658626e-03 0.0 
3.757671658626e-03 9.069425912419e-03 0.0 
0.0 0.0 0.0 
4.234152427853e-04 1.104961177214e-04 0.0 
1.104961177214e-04 4.055901327522e-03 0.0 
0.0 0.0 0.0 
-9.297750841403e-04 3.789892049159e-03 0.0 
3.789892049159e-03 3.204927361474e-03 0.0 
0.0 0.0 0.0 
-3.261737841002e-03 1.499986123450e-03 0.0 
1.499986123450e-03 1.385948274583e-02 0.0 
0.0 0.0 0.0 
-8.908179894921e-04 1.636918960523e-04 0.0 
1.636918960523e-04 1.627891779514e-02 0.0 
0.0 0.0 0.0 
-9.516955868112e-04 3.720661954696e-03 0.0 
3.720661954696e-03 3.198666591838e-03 0.0 
0.0 0.0 0.0 
1.562764921219e-03 -3.389432679345e-03 0.0 
-3.389432679345e-03 -3.348748465135e-03 0.0 
0.0 0.0 0.0 
-6.161584411040e-04 2.810352032682e-04 0.0 
2.810352032682e-04 1.627673959024e-02 0.0 
0.0 0.0 0.0 
-4.040063268111e-04 -2.754515371279e-03 0.0 
-2.754515371279e-03 -1.193856636251e-03 0.0 
0.0 0.0 0.0 
-2.827425750453e-03 9.172316140547e-04 0.0 
9.172316140547e-04 1.455472959863e-02 0.0 
0.0 0.0 0.0 
-1.757115085078e-03 3.835969504991e-03 0.0 
3.835969504991e-03 8.060829599948e-03 0.0 
0.0 0.0 0.0 
-6.220607242169e-05 -1.764525513992e-04 0.0 
-1.764525513992e-04 1.790504597324e-03 0.0 
0.0 0.0 0.0 
3.177292625252e-03 -2.900151551788e-03 0.0 
-2.900151551788e-03 -3.639484951862e-03 0.0 
0.0 0.0 0.0 
-1.743678579732e-03 3.482457264573e-03 0.0 
3.482457264573e-03 8.306682167573e-03 0.0 
0.0 0.0 0.0 
-5.593829680062e-04 3.645430774940e-03 0.0 
3.645430774940e-03 1.427790596946e-02 0.0 
0.0 0.0 0.0 
-6.985539185069e-04 -5.283932724859e-04 0.0 
-5.283932724859e-04 2.399848777939e-03 0.0 
0.0 0.0 0.0 
-4.492944629070e-04 -3.066411981106e-04 0.0 
-3.066411981106e-04 1.963304901464e-03 0.0 
0.0 0.0 0.0 
-6.115213650012e-04 -1.572350819501e-04 0.0 
-1.572350819501e-04 4.949797608929e-03 0.0 
0.0 0.0 0.0 
7.974072162742e-04 -4.640590882341e-04 0.0 
-4.640590882341e-04 6.739691073938e-04 0.0 
0.0 0.0 0.0 
-4.734703229303e-04 6.738565034270e-04 0.0 
6.738565034270e-04 1.637550653994e-02 0.0 
0.0 0.0 0.0 
-1.308243085932e-03 -2.184074174667e-03 0.0 
-2.184074174667e-03 -3.061165767850e-03 0.0 
0.0 0.0 0.0 
1.355927883024e-03 3.889814794314e-03 0.0 
3.889814794314e-03 4.964693727485e-03 0.0 
0.0 0.0 0.0 
5.154131837928e-04 4.296069108596e-03 0.0 
4.296069108596e-03 3.406335866421e-03 0.0 
0.0 0.0 0.0 
3.084756992049e-03 -2.927999428643e-03 0.0 
-2.927999428643e-03 -3.147178606776e-03 0.0 
0.0 0.0 0.0 
-2.154698760893e-04 -3.520342607938e-04 0.0 
-3.520342607938e-04 5.505259639767e-03 0.0 
0.0 0.0 0.0 
-1.557357035798e-03 3.507199224834e-03 0.0 
3.507199224834e-03 7.452881376117e-03 0.0 
0.0 0.0 0.0 
3.310457523202e-04 -7.399806678663e-04 0.0 
-7.399806678663e-04 -4.830202617501e-03 0.0 
0.0 0.0 0.0 
-6.424190378944e-04 4.747690225532e-03 0.0 
4.747690225532e-03 1.220518931587e-02 0.0 
0.0 0.0 0.0 
7.766173103274e-06 -2.314183956006e-03 0.0 
-2.314183956006e-03 4.763482013759e-04 0.0 
0.0 0.0 0.0 
1.643132935203e-05 4.826175905919e-03 0.0 
4.826175905919e-03 9.697217700396e-03 0.0 
0.0 0.0 0.0 
-7.499314346954e-04 -5.026211633344e-04 0.0 
-5.026211633344e-04 4.170779585390e-03 0.0 
0.0 0.0 0.0 
0.0 2.503234071510e-03 0.0 
2.503234071510e-03 1.569696019238e-02 0.0 
0.0 0.0 0.0 
6.162452391034e-04 4.343395845291e-03 0.0 
4.343395845291e-03 6.718513188863e-03 0.0 
0.0 0.0 0.0 
1.734833887532e-03 -1.011891674303e-04 0.0 
-1.011891674303e-04 -2.607671527538e-04 0.0 
0.0 0.0 0.0 
-8.914450254630e-04 -5.778832348048e-04 0.0 
-5.778832348048e-04 2.592645578120e-03 0.0 
0.0 0.0 0.0 
-8.913948280217e-04 1.852768580146e-03 0.0 
1.852768580146e-03 1.601250769698e-02 0.0 
0.0 0.0 0.0 
-9.253641299253e-04 3.966422834811e-03 0.0 
3.966422834811e-03 1.401038071157e-02 0.0 
0.0 0.0 0.0 
-8.781349326490e-04 3.810938804442e-03 0.0 
3.810938804442e-03 1.938469002224e-03 0.0 
0.0 0.0 0.0 
3.178496977714e-04 -4.434395517033e-04 0.0 
-4.434395517033e-04 8.973536397463e-04 0.0 
0.0 0.0 0.0 
-8.449472474733e-04 3.916996495351e-03 0.0 
3.916996495351e-03 1.942948595797e-03 0.0 
0.0 0.0 0.0 
-5.869523581759e-05 -2.565299730545e-03 0.0 
-2.565299730545e-03 5.154139654060e-04 0.0 
0.0 0.0 0.0 
-2.444090932527e-03 4.217117239966e-04 0.0 
4.217117239966e-04 1.439305821496e-02 0.0 
0.0 0.0 0.0 
-1.409635774757e-03 3.872165225149e-03 0.0 
3.872165225149e-03 6.351681688939e-03 0.0 
0.0 0.0 0.0 
-1.256667864770e-03 3.461139116080e-03 0.0 
3.461139116080e-03 5.930749379530e-03 0.0 
0.0 0.0 0.0 
-2.349011786470e-03 3.663712284723e-04 0.0 
3.663712284723e-04 1.466630378157e-02 0.0 
0.0 0.0 0.0 
-2.140669779158e-03 3.580930456411e-04 0.0 
3.580930456411e-04 1.466638258328e-02 0.0 
0.0 0.0 0.0 
-7.746255233683e-04 -3.004879781768e-04 0.0 
-3.004879781768e-04 4.432694736647e-03 0.0 
0.0 0.0 0.0 
-7.045471285706e-04 -2.655757510749e-05 0.0 
-2.655757510749e-05 4.851752836774e-03 0.0 
0.0 0.0 0.0 
-1.205411934533e-03 4.257578915838e-03 0.0 
4.257578915838e-03 1.141835916950e-02 0.0 
0.0 0.0 0.0 
-2.423337725279e-03 3.525912322791e-04 0.0 
3.525912322791e-04 1.445366447188e-02 0.0 
0.0 0.0 0.0 
-2.876106436025e-04 -6.040770849489e-04 0.0 
-6.040770849489e-04 5.622124329989e-04 0.0 
0.0 0.0 0.0 
-3.148133961675e-03 1.749372410052e-03 0.0 
1.749372410052e-03 1.408385390116e-02 0.0 
0.0 0.0 0.0 
-1.384985575233e-03 1.909410495771e-04 0.0 
1.909410495771e-04 1.573994002119e-02 0.0 
0.0 0.0 0.0 
-1.537352228176e-03 2.913647561565e-04 0.0 
2.913647561565e-04 1.570356025054e-02 0.0 
0.0 0.0 0.0 
-5.687894872330e-04 2.765514090795e-03 0.0 
2.765514090795e-03 1.558348898137e-02 0.0 
0.0 0.0 0.0 
6.493699299552e-04 3.069873726085e-03 0.0 
3.069873726085e-03 4.927066795653e-03 0.0 
0.0 0.0 0.0 
-2.648619121971e-03 5.440195164459e-04 0.0 
5.440195164459e-04 1.440522741351e-02 0.0 
0.0 0.0 0.0 
6.467328789406e-04 -5.897082326044e-05 0.0 
-5.897082326044e-05 4.180615067188e-03 0.0 
0.0 0.0 0.0 
-1.793481793518e-03 3.258846578984e-05 0.0 
3.258846578984e-05 1.497695816170e-02 0.0 
0.0 0.0 0.0 
-1.346094275348e-04 4.220502195053e-03 0.0 
4.220502195053e-03 4.370320262973e-03 0.0 
0.0 0.0 0.0 
-2.289016276066e-03 2.400564027283e-04 0.0 
2.400564027283e-04 1.425695588052e-02 0.0 
0.0 0.0 0.0 
-1.763908447284e-04 -2.470214841774e-04 0.0 
-2.470214841774e-04 5.731882774557e-03 0.0 
0.0 0.0 0.0 
2.521157409489e-03 3.303983421606e-03 0.0 
3.303983421606e-03 2.625389195542e-03 0.0 
0.0 0.0 0.0 
1.256413013694e-03 3.729762743811e-03 0.0 
3.729762743811e-03 4.990778514136e-03 0.0 
0.0 0.0 0.0 
1.161001577817e-03 4.080087555647e-03 0.0 
4.080087555647e-03 1.684909170570e-03 0.0 
0.0 0.0 0.0 
-4.438959935816e-04 -4.019987551840e-03 0.0 
-4.019987551840e-03 -1.423428809684e-03 0.0 
0.0 0.0 0.0 
-4.312129615750e-04 -2.007058092400e-04 0.0 
-2.007058092400e-04 5.355745518791e-03 0.0 
0.0 0.0 0.0 
-1.340070161866e-03 3.402042983548e-04 0.0 
3.402042983548e-04 1.593852331969e-02 0.0 
0.0 0.0 0.0 
-1.362393570819e-03 -3.578517442081e-03 0.0 
-3.578517442081e-03 -1.848045483800e-03 0.0 
0.0 0.0 0.0 
-3.267823371256e-05 -4.163336731242e-04 0.0 
-4.163336731242e-04 5.351841400904e-03 0.0 
0.0 0.0 0.0 
-1.005626061840e-03 4.213552723518e-03 0.0 
4.213552723518e-03 1.066810413286e-02 0.0 
0.0 0.0 0.0 
2.158117298841e-03 1.016755739854e-04 0.0 
1.016755739854e-04 -5.748005520918e-04 0.0 
0.0 0.0 0.0 
2.494069820407e-03 4.095536704441e-03 0.0 
4.095536704441e-03 5.232851139871e-04 0.0 
0.0 0.0 0.0 
-3.199594981176e-03 2.992299521428e-03 0.0 
2.992299521428e-03 1.255357848929e-02 0.0 
0.0 0.0 0.0 
-9.478880646324e-04 -8.824999145118e-04 0.0 
-8.824999145118e-04 2.828868255291e-03 0.0 
0.0 0.0 0.0 
9.013310483263e-05 4.080984689472e-03 0.0 
4.080984689472e-03 3.525684939255e-03 0.0 
0.0 0.0 0.0 
5.132199491953e-04 4.214244697048e-03 0.0 
4.214244697048e-03 3.412470089559e-03 0.0 
0.0 0.0 0.0 
2.162917464654e-04 -2.859484986107e-04 0.0 
-2.859484986107e-04 4.651002146641e-03 0.0 
0.0 0.0 0.0 
-1.840552144219e-03 1.048061065818e-04 0.0 
1.048061065818e-04 1.486822225973e-02 0.0 
0.0 0.0 0.0 
7.956248450429e-04 4.245893624823e-03 0.0 
4.245893624823e-03 2.519760731006e-03 0.0 
0.0 0.0 0.0 
-7.845073732859e-07 -1.615763168163e-03 0.0 
-1.615763168163e-03 8.125988244518e-04 0.0 
0.0 0.0 0.0 
-3.188013068107e-03 2.066876390847e-03 0.0 
2.066876390847e-03 1.358999665368e-02 0.0 
0.0 0.0 0.0 
-1.136854726061e-03 2.470827881328e-04 0.0 
2.470827881328e-04 1.595143904492e-02 0.0 
0.0 0.0 0.0 
8.158448167417e-04 4.088218055838e-03 0.0 
4.088218055838e-03 2.527323699098e-03 0.0 
0.0 0.0 0.0 
-1.004818073946e-03 3.880198490821e-03 0.0 
3.880198490821e-03 4.615209223955e-04 0.0 
0.0 0.0 0.0 
-2.673745046876e-03 3.567625504984e-03 0.0 
3.567625504984e-03 1.093322710773e-02 0.0 
0.0 0.0 0.0 
-9.421716029125e-04 -8.725589199417e-04 0.0 
-8.725589199417e-04 2.810883225453e-03 0.0 
0.0 0.0 0.0 
-2.360673763635e-03 3.360032265342e-03 0.0 
3.360032265342e-03 1.015456271187e-02 0.0 
0.0 0.0 0.0 
-4.829223392547e-04 2.127135170977e-03 0.0 
2.127135170977e-03 1.587277489369e-02 0.0 
0.0 0.0 0.0 
3.644777617693e-04 4.508734689680e-03 0.0 
4.508734689680e-03 -8.808995742258e-04 0.0 
0.0 0.0 0.0 
-7.808695834272e-04 -4.686352146743e-04 0.0 
-4.686352146743e-04 4.188952916639e-03 0.0 
0.0 0.0 0.0 
-5.999162112558e-04 4.832991418771e-04 0.0 
4.832991418771e-04 1.635490794666e-02 0.0 
0.0 0.0 0.0 
-5.504060739095e-04 4.360378735496e-03 0.0 
4.360378735496e-03 6.268188773539e-03 0.0 
0.0 0.0 0.0 
-2.345497066070e-03 3.695680798957e-03 0.0 
3.695680798957e-03 1.001184077181e-02 0.0 
0.0 0.0 0.0 
5.270361579943e-04 -1.867486854568e-04 0.0 
-1.867486854568e-04 4.243237862331e-03 0.0 
0.0 0.0 0.0 
-2.811997405195e-04 -1.958186840679e-04 0.0 
-1.958186840679e-04 5.694132154618e-03 0.0 
0.0 0.0 0.0 
-6.932415707047e-04 -3.778356834246e-04 0.0 
-3.778356834246e-04 4.430585231211e-03 0.0 
0.0 0.0 0.0 
-8.461726831419e-04 4.451543533443e-03 0.0 
4.451543533443e-03 7.286177794481e-03 0.0 
0.0 0.0 0.0 
1.015567993082e-03 7.276246803704e-04 0.0 
7.276246803704e-04 3.821031239926e-03 0.0 
0.0 0.0 0.0 
-1.081866747670e-03 4.147068283988e-03 0.0 
4.147068283988e-03 7.216322585581e-03 0.0 
0.0 0.0 0.0 
-4.695172456081e-04 1.413740718880e-03 0.0 
1.413740718880e-03 1.618635757221e-02 0.0 
0.0 0.0 0.0 
-9.400140169813e-06 5.119327708478e-03 0.0 
5.119327708478e-03 1.000730923693e-02 0.0 
0.0 0.0 0.0 
-2.916753925788e-03 1.237331339075e-03 0.0 
1.237331339075e-03 1.463322372454e-02 0.0 
0.0 0.0 0.0 
-1.721458340724e-03 3.934731525973e-04 0.0 
3.934731525973e-04 1.540374289988e-02 0.0 
0.0 0.0 0.0 
-1.038758713627e-03 4.305170258635e-03 0.0 
4.305170258635e-03 7.209659220061e-03 0.0 
0.0 0.0 0.0 
-2.014912347245e-03 3.436372526072e-03 0.0 
3.436372526072e-03 9.166099093706e-03 0.0 
0.0 0.0 0.0 
-3.846029225999e-04 4.487455348525e-03 0.0 
4.487455348525e-03 6.364447729429e-03 0.0 
0.0 0.0 0.0 
1.660380208931e-03 4.138377706529e-03 0.0 
4.138377706529e-03 1.535006624774e-03 0.0 
0.0 0.0 0.0 
-2.129942217463e-03 1.439391497256e-04 0.0 
1.439391497256e-04 1.429710552576e-02 0.0 
0.0 0.0 0.0 
2.800246505215e-03 3.949693383239e-03 0.0 
3.949693383239e-03 5.400141940624e-04 0.0 
0.0 0.0 0.0 
1.353566254902e-04 -4.596432133652e-04 0.0 
-4.596432133652e-04 3.510166529452e-04 0.0 
0.0 0.0 0.0 
-1.924258752435e-03 5.191321104776e-05 0.0 
5.191321104776e-05 1.457281114462e-02 0.0 
0.0 0.0 0.0 
4.554835313000e-04 -1.780722329744e-04 0.0 
-1.780722329744e-04 9.426477123358e-04 0.0 
0.0 0.0 0.0 
-2.994795464695e-03 3.257563749125e-03 0.0 
3.257563749125e-03 1.172421200873e-02 0.0 
0.0 0.0 0.0 
5.524947358924e-04 6.010548985073e-04 0.0 
6.010548985073e-04 3.822654924419e-03 0.0 
0.0 0.0 0.0 
1.022609875287e-03 4.194563015157e-03 0.0 
4.194563015157e-03 1.676639258741e-03 0.0 
0.0 0.0 0.0 
-7.248858933505e-04 -1.919751236117e-04 0.0 
-1.919751236117e-04 4.666217792643e-03 0.0 
0.0 0.0 0.0 
-1.055052313161e-03 3.675667115864e-03 0.0 
3.675667115864e-03 3.897761579264e-03 0.0 
0.0 0.0 0.0 
2.474312643901e-03 3.552994285049e-03 0.0 
3.552994285049e-03 2.602971849949e-03 0.0 
0.0 0.0 0.0 
-1.972002421451e-03 7.780722196586e-05 0.0 
7.780722196586e-05 1.432582492686e-02 0.0 
0.0 0.0 0.0 
3.021440809052e-03 3.992752436633e-03 0.0 
3.992752436633e-03 -3.908708951521e-04 0.0 
0.0 0.0 0.0 
-5.559919304668e-04 -2.282629412180e-04 0.0 
-2.282629412180e-04 5.030281734840e-03 0.0 
0.0 0.0 0.0 
-3.291558606371e-04 -1.783823884253e-03 0.0 
-1.783823884253e-03 8.472843675538e-04 0.0 
0.0 0.0 0.0 
-4.014553521947e-04 -1.945749643048e-04 0.0 
-1.945749643048e-04 5.355014570302e-03 0.0 
0.0 0.0 0.0 
-2.337987867186e-03 3.553421421262e-03 0.0 
3.553421421262e-03 1.101785399003e-02 0.0 
0.0 0.0 0.0 
-1.375994031375e-04 -4.380044459417e-04 0.0 
-4.380044459417e-04 5.421563017910e-03 0.0 
0.0 0.0 0.0 
-1.922005918764e-03 3.330525627815e-05 0.0 
3.330525627815e-05 1.428982213959e-02 0.0 
0.0 0.0 0.0 
1.801167765899e-03 4.123813693932e-03 0.0 
4.123813693932e-03 6.369571664522e-04 0.0 
0.0 0.0 0.0 
-2.978844237226e-03 2.885029233506e-03 0.0 
2.885029233506e-03 1.186766550348e-02 0.0 
0.0 0.0 0.0 
-9.902048918499e-04 -2.362355202399e-04 0.0 
-2.362355202399e-04 4.056963548321e-03 0.0 
0.0 0.0 0.0 
-1.118826513915e-03 3.850006503423e-03 0.0 
3.850006503423e-03 3.947734529123e-03 0.0 
0.0 0.0 0.0 
3.330599551625e-03 3.644736233899e-03 0.0 
3.644736233899e-03 -3.451155387720e-04 0.0 
0.0 0.0 0.0 
-1.694779924393e-03 3.248301795534e-04 0.0 
3.248301795534e-04 1.555854105577e-02 0.0 
0.0 0.0 0.0 
-1.993519997010e-03 1.082459175048e-04 0.0 
1.082459175048e-04 1.429664605881e-02 0.0 
0.0 0.0 0.0 
2.203124754182e-03 4.111391318121e-03 0.0 
4.111391318121e-03 5.169540657504e-04 0.0 
0.0 0.0 0.0 
-2.849428025053e-03 3.186948425785e-03 0.0 
3.186948425785e-03 1.108970915903e-02 0.0 
0.0 0.0 0.0 
-2.567535591913e-06 4.607860029535e-03 0.0 
4.607860029535e-03 8.874497557626e-03 0.0 
0.0 0.0 0.0 
-9.501461890992e-04 -9.618951141936e-04 0.0 
-9.618951141936e-04 2.910143976868e-03 0.0 
0.0 0.0 0.0 
4.513288407828e-04 4.376111702248e-03 0.0 
4.376111702248e-03 6.825016989723e-03 0.0 
0.0 0.0 0.0 
8.197013258493e-05 5.109468471093e-03 0.0 
5.109468471093e-03 9.371737988458e-03 0.0 
0.0 0.0 0.0 
-5.520770999098e-04 4.026080134275e-03 0.0 
4.026080134275e-03 4.489907350348e-03 0.0 
0.0 0.0 0.0 
-1.049139126814e-03 -7.875765358257e-04 0.0 
-7.875765358257e-04 3.169070367237e-03 0.0 
0.0 0.0 0.0 
2.081412009437e-03 1.389901236715e-03 0.0 
1.389901236715e-03 2.139942768504e-03 0.0 
0.0 0.0 0.0 
-1.561137264534e-03 4.078853524057e-03 0.0 
4.078853524057e-03 8.155573907694e-03 0.0 
0.0 0.0 0.0 
-4.038391509624e-04 3.823649477092e-03 0.0 
3.823649477092e-03 3.720708685940e-03 0.0 
0.0 0.0 0.0 
-2.731982949609e-03 3.126581229721e-03 0.0 
3.126581229721e-03 1.177936225194e-02 0.0 
0.0 0.0 0.0 
2.015132768683e-03 4.160390025056e-03 0.0 
4.160390025056e-03 1.505416530234e-03 0.0 
0.0 0.0 0.0 
-4.206203439291e-04 1.025504879652e-03 0.0 
1.025504879652e-03 1.628354482395e-02 0.0 
0.0 0.0 0.0 
-1.452458721016e-03 3.849376033124e-03 0.0 
3.849376033124e-03 1.208134170945e-02 0.0 
0.0 0.0 0.0 
-5.009621141340e-04 -1.138323311458e-04 0.0 
-1.138323311458e-04 5.258687636773e-03 0.0 
0.0 0.0 0.0 
-9.189745233715e-04 3.804558365282e-03 0.0 
3.804558365282e-03 2.570987764696e-03 0.0 
0.0 0.0 0.0 
3.798023933182e-03 3.256340011508e-03 0.0 
3.256340011508e-03 -1.166150108079e-03 0.0 
0.0 0.0 0.0 
-1.097555643827e-03 4.110469594662e-03 0.0 
4.110469594662e-03 1.145429854809e-02 0.0 
0.0 0.0 0.0 
-3.347758924435e-03 2.478633442091e-03 0.0 
2.478633442091e-03 -2.181855960494e-03 0.0 
0.0 0.0 0.0 
-1.576222735662e-03 3.853887972958e-03 0.0 
3.853887972958e-03 8.159867051188e-03 0.0 
0.0 0.0 0.0 
2.358145040680e-03 4.614604951577e-04 0.0 
4.614604951577e-04 1.197891023981e-03 0.0 
0.0 0.0 0.0 
1.009469015432e-03 -5.217940651373e-04 0.0 
-5.217940651373e-04 3.236747457054e-04 0.0 
0.0 0.0 0.0 
-6.844090096176e-04 4.117552052441e-03 0.0 
4.117552052441e-03 1.343798971629e-02 0.0 
0.0 0.0 0.0 
-2.351897573851e-03 2.799320918987e-03 0.0 
2.799320918987e-03 1.372131508054e-02 0.0 
0.0 0.0 0.0 
1.518045217125e-03 -2.489570726096e-03 0.0 
-2.489570726096e-03 1.938386851208e-05 0.0 
0.0 0.0 0.0 
2.613716141232e-03 7.446992090229e-04 0.0 
7.446992090229e-04 1.178336982317e-03 0.0 
0.0 0.0 0.0 
-3.179982081316e-03 2.172325542038e-03 0.0 
2.172325542038e-03 1.390795128837e-02 0.0 
0.0 0.0 0.0 
-3.012976289247e-03 1.719608620166e-03 0.0 
1.719608620166e-03 1.456479625945e-02 0.0 
0.0 0.0 0.0 
1.054615957399e-03 7.265691667849e-04 0.0 
7.265691667849e-04 3.235807941281e-03 0.0 
0.0 0.0 0.0 
4.014327948452e-04 -2.412550158409e-03 0.0 
-2.412550158409e-03 8.617259194099e-04 0.0 
0.0 0.0 0.0 
1.738812229120e-04 4.593843344528e-03 0.0 
4.593843344528e-03 5.430898718084e-03 0.0 
0.0 0.0 0.0 
-1.909021831761e-03 3.905650284112e-03 0.0 
3.905650284112e-03 1.022829280101e-02 0.0 
0.0 0.0 0.0 
-2.487163267905e-03 2.829263996964e-03 0.0 
2.829263996964e-03 1.414610847692e-02 0.0 
0.0 0.0 0.0 
-2.586040089864e-03 3.616914135408e-03 0.0 
3.616914135408e-03 1.180798993818e-02 0.0 
0.0 0.0 0.0 
-2.775455182557e-03 3.437417885423e-03 0.0 
3.437417885423e-03 1.178112761932e-02 0.0 
0.0 0.0 0.0 
3.391249215007e-03 3.041182642940e-03 0.0 
3.041182642940e-03 8.879834425479e-04 0.0 
0.0 0.0 0.0 
-3.414839189797e-04 4.537932042522e-03 0.0 
4.537932042522e-03 9.438793759778e-03 0.0 
0.0 0.0 0.0 
-1.377667863196e-03 2.345081069393e-03 0.0 
2.345081069393e-03 -2.777967938308e-03 0.0 
0.0 0.0 0.0 
-5.336729069652e-04 4.002200032133e-03 0.0 
4.002200032133e-03 4.486915092097e-03 0.0 
0.0 0.0 0.0 
-1.198818153699e-04 4.167854482061e-03 0.0 
4.167854482061e-03 4.378801626686e-03 0.0 
0.0 0.0 0.0 
-2.733117301064e-04 4.573563480560e-03 0.0 
4.573563480560e-03 6.352221711136e-03 0.0 
0.0 0.0 0.0 
-1.622267031462e-03 3.867951646482e-03 0.0 
3.867951646482e-03 1.271576143303e-02 0.0 
0.0 0.0 0.0 
2.974835094184e-03 3.111290100365e-03 0.0 
3.111290100365e-03 -4.023535622738e-03 0.0 
0.0 0.0 0.0 
2.371692629824e-03 -5.061510296294e-06 0.0 
-5.061510296294e-06 8.663798741788e-04 0.0 
0.0 0.0 0.0 
-2.056724829670e-03 6.792850881561e-05 0.0 
6.792850881561e-05 1.427986551926e-02 0.0 
0.0 0.0 0.0 
3.485716454235e-03 3.733385292944e-03 0.0 
3.733385292944e-03 -1.231776576503e-03 0.0 
0.0 0.0 0.0 
2.278744969781e-03 -4.678267659725e-04 0.0 
-4.678267659725e-04 6.661551079703e-04 0.0 
0.0 0.0 0.0 
7.172932548227e-04 -4.544196309385e-04 0.0 
-4.544196309385e-04 2.015713173376e-04 0.0 
0.0 0.0 0.0 
-2.039014217735e-03 3.026718374489e-03 0.0 
3.026718374489e-03 1.376294342106e-02 0.0 
0.0 0.0 0.0 
9.680205398703e-04 -5.105962863282e-04 0.0 
-5.105962863282e-04 -7.790096794469e-05 0.0 
0.0 0.0 0.0 
6.362496500125e-04 -4.571097621068e-04 0.0 
-4.571097621068e-04 4.786874178699e-04 0.0 
0.0 0.0 0.0 
-8.555026750442e-04 3.839554138527e-03 0.0 
3.839554138527e-03 2.572717667505e-03 0.0 
0.0 0.0 0.0 
2.057982348158e-04 -2.286303374674e-03 0.0 
-2.286303374674e-03 8.923620049679e-04 0.0 
0.0 0.0 0.0 
-2.156701620797e-03 3.034896554069e-03 0.0 
3.034896554069e-03 1.420340222528e-02 0.0 
0.0 0.0 0.0 
2.656831140537e-04 -2.346850265633e-03 0.0 
-2.346850265633e-03 6.303283967692e-04 0.0 
0.0 0.0 0.0 
8.197606724902e-04 4.132742448266e-03 0.0 
4.132742448266e-03 4.295496931517e-04 0.0 
0.0 0.0 0.0 
1.661974455353e-03 -3.734656865878e-03 0.0 
-3.734656865878e-03 -1.920519414597e-03 0.0 
0.0 0.0 0.0 
-2.403156358247e-04 -1.728377666208e-03 0.0 
-1.728377666208e-03 9.356904365039e-04 0.0 
0.0 0.0 0.0 
2.446034171911e-03 1.167448320886e-03 0.0 
1.167448320886e-03 1.588249765183e-03 0.0 
0.0 0.0 0.0 
-2.353965224403e-03 3.813827737311e-03 0.0 
3.813827737311e-03 1.100774772500e-02 0.0 
0.0 0.0 0.0 
-1.979954980117e-04 -3.239893510621e-04 0.0 
-3.239893510621e-04 5.506792049031e-03 0.0 
0.0 0.0 0.0 
-1.329759484233e-03 1.135234516677e-03 0.0 
1.135234516677e-03 -4.308560128789e-03 0.0 
0.0 0.0 0.0 
1.574072940541e-03 4.164786795272e-03 0.0 
4.164786795272e-03 7.350635374825e-05 0.0 
0.0 0.0 0.0 
3.751654116630e-03 3.650695886209e-03 0.0 
3.650695886209e-03 -1.196994731898e-03 0.0 
0.0 0.0 0.0 
-1.215235261246e-03 3.893568245650e-03 0.0 
3.893568245650e-03 7.148946752002e-03 0.0 
0.0 0.0 0.0 
2.686116799601e-03 2.721276083813e-04 0.0 
2.721276083813e-04 8.469941724960e-04 0.0 
0.0 0.0 0.0 
-5.883075252588e-05 -4.304273899454e-04 0.0 
-4.304273899454e-04 5.346187782040e-03 0.0 
0.0 0.0 0.0 
-1.920787406959e-03 3.731390368703e-03 0.0 
3.731390368703e-03 1.264584130051e-02 0.0 
0.0 0.0 0.0 
3.830125606382e-03 2.912722333702e-03 0.0 
2.912722333702e-03 -1.909732511132e-03 0.0 
0.0 0.0 0.0 
2.241875122628e-03 9.352454065657e-04 0.0 
9.352454065657e-04 1.589849809291e-03 0.0 
0.0 0.0 0.0 
-8.306407043404e-04 -2.387159285012e-04 0.0 
-2.387159285012e-04 4.384414316810e-03 0.0 
0.0 0.0 0.0 
-6.708348898330e-04 4.555011122162e-03 0.0 
4.555011122162e-03 7.391744626216e-03 0.0 
0.0 0.0 0.0 
-2.095178920739e-03 3.189359316584e-03 0.0 
3.189359316584e-03 1.323636317965e-02 0.0 
0.0 0.0 0.0 
8.201322292947e-04 4.011661500118e-03 0.0 
4.011661500118e-03 5.819152710514e-03 0.0 
0.0 0.0 0.0 
4.048393326798e-03 3.209463596060e-03 0.0 
3.209463596060e-03 -1.133749609950e-03 0.0 
0.0 0.0 0.0 
7.971125228192e-04 3.979544886848e-03 0.0 
3.979544886848e-03 1.209108822499e-03 0.0 
0.0 0.0 0.0 
-2.347494577868e-03 3.763582889855e-03 0.0 
3.763582889855e-03 1.185304680576e-02 0.0 
0.0 0.0 0.0 
-4.399791508705e-04 2.488434269184e-03 0.0 
2.488434269184e-03 1.577563107668e-02 0.0 
0.0 0.0 0.0 
3.043708897579e-04 4.612038438467e-03 0.0 
4.612038438467e-03 5.428087678720e-03 0.0 
0.0 0.0 0.0 
4.505458830591e-03 2.595262258093e-03 0.0 
2.595262258093e-03 -1.408375687629e-03 0.0 
0.0 0.0 0.0 
-1.976904367607e-03 1.313076440789e-04 0.0 
1.313076440789e-04 1.465426463266e-02 0.0 
0.0 0.0 0.0 
-2.239788308168e-04 -2.749793832620e-03 0.0 
-2.749793832620e-03 3.095026288074e-04 0.0 
0.0 0.0 0.0 
-2.515287191004e-03 3.324582702308e-03 0.0 
3.324582702308e-03 1.185368922367e-02 0.0 
0.0 0.0 0.0 
3.465639878165e-03 3.562361321835e-03 0.0 
3.562361321835e-03 -2.005652166105e-03 0.0 
0.0 0.0 0.0 
3.473411321536e-03 2.766400312723e-03 0.0 
2.766400312723e-03 -3.806333518592e-03 0.0 
0.0 0.0 0.0 
2.961665949200e-03 -3.307181996447e-03 0.0 
-3.307181996447e-03 -4.294427541130e-03 0.0 
0.0 0.0 0.0 
-1.933004221053e-03 2.876719633519e-03 0.0 
2.876719633519e-03 1.422284659666e-02 0.0 
0.0 0.0 0.0 
-2.150022504444e-03 3.961253653481e-03 0.0 
3.961253653481e-03 1.105273797395e-02 0.0 
0.0 0.0 0.0 
1.463715577673e-03 4.194974664424e-03 0.0 
4.194974664424e-03 1.527177744976e-03 0.0 
0.0 0.0 0.0 
-2.029257516258e-03 2.876285882588e-03 0.0 
2.876285882588e-03 1.461689435547e-02 0.0 
0.0 0.0 0.0 
-1.564157953028e-03 4.000677288748e-03 0.0 
4.000677288748e-03 1.205170511929e-02 0.0 
0.0 0.0 0.0 
-1.042280189702e-03 4.487697168705e-03 0.0 
4.487697168705e-03 8.396153868461e-03 0.0 
0.0 0.0 0.0 
6.512254298419e-05 -3.876197535764e-04 0.0 
-3.876197535764e-04 5.015960719259e-03 0.0 
0.0 0.0 0.0 
4.575163949075e-03 2.506143186270e-03 0.0 
2.506143186270e-03 -1.832586384844e-03 0.0 
0.0 0.0 0.0 
-1.383274311516e-03 4.375900073223e-03 0.0 
4.375900073223e-03 9.366046722430e-03 0.0 
0.0 0.0 0.0 
2.271482378630e-03 4.097232061851e-03 0.0 
4.097232061851e-03 1.554077231578e-03 0.0 
0.0 0.0 0.0 
4.215303860373e-03 2.622889035411e-03 0.0 
2.622889035411e-03 -8.996137493384e-04 0.0 
0.0 0.0 0.0 
4.045840000382e-03 2.500698544716e-03 0.0 
2.500698544716e-03 -3.652118795372e-03 0.0 
0.0 0.0 0.0 
-3.022260002797e-03 1.277741292864e-03 0.0 
1.277741292864e-03 1.425045199644e-02 0.0 
0.0 0.0 0.0 
4.614330165385e-03 2.641414621241e-03 0.0 
2.641414621241e-03 -1.796414448414e-03 0.0 
0.0 0.0 0.0 
4.316593638669e-03 -1.422796411164e-03 0.0 
-1.422796411164e-03 -3.662098479718e-03 0.0 
0.0 0.0 0.0 
-1.790111127142e-03 3.550545372493e-03 0.0 
3.550545372493e-03 1.267893208870e-02 0.0 
0.0 0.0 0.0 
-4.999994757769e-03 4.973202554226e-04 0.0 
4.973202554226e-04 -2.580061652317e-03 0.0 
0.0 0.0 0.0 
-2.752446108338e-03 3.400119706461e-03 0.0 
3.400119706461e-03 1.254264653049e-02 0.0 
0.0 0.0 0.0 
4.242627302802e-03 2.915960371631e-03 0.0 
2.915960371631e-03 -2.799136326561e-03 0.0 
0.0 0.0 0.0 
1.891406991181e-03 3.878371538820e-03 0.0 
3.878371538820e-03 1.117696659181e-04 0.0 
0.0 0.0 0.0 
4.091710521596e-03 1.384885644525e-03 0.0 
1.384885644525e-03 -3.463099301135e-03 0.0 
0.0 0.0 0.0 
-1.923368926480e-03 3.850655839075e-03 0.0 
3.850655839075e-03 1.116058147602e-02 0.0 
0.0 0.0 0.0 
-8.865478320030e-05 -1.179807794682e-03 0.0 
-1.179807794682e-03 7.019105393609e-04 0.0 
0.0 0.0 0.0 
-4.019946226176e-04 4.198668261354e-03 0.0 
4.198668261354e-03 5.284532224310e-03 0.0 
0.0 0.0 0.0 
4.247731391855e-03 2.546644375614e-03 0.0 
2.546644375614e-03 -1.203759559930e-03 0.0 
0.0 0.0 0.0 
-2.132059608354e-03 3.719314963152e-03 0.0 
3.719314963152e-03 1.109449604557e-02 0.0 
0.0 0.0 0.0 
-3.040781098111e-03 1.703511718489e-03 0.0 
1.703511718489e-03 1.421953184310e-02 0.0 
0.0 0.0 0.0 
2.155783935043e-03 2.263672962379e-03 0.0 
2.263672962379e-03 -4.527794357105e-03 0.0 
0.0 0.0 0.0 
4.750761383075e-03 -4.495887352722e-04 0.0 
-4.495887352722e-04 -3.814635452800e-03 0.0 
0.0 0.0 0.0 
3.778608884031e-03 -2.304804584205e-03 0.0 
-2.304804584205e-03 -3.418663063918e-03 0.0 
0.0 0.0 0.0 
-7.739994126741e-04 4.075165491061e-03 0.0 
4.075165491061e-03 5.363658048504e-03 0.0 
0.0 0.0 0.0 
-2.257821076829e-03 3.401931504112e-03 0.0 
3.401931504112e-03 1.319795473295e-02 0.0 
0.0 0.0 0.0 
-3.969846234890e-04 4.288012668988e-03 0.0 
4.288012668988e-03 5.271132365944e-03 0.0 
0.0 0.0 0.0 
4.746763122432e-03 2.691288224788e-03 0.0 
2.691288224788e-03 -2.569118321499e-03 0.0 
0.0 0.0 0.0 
4.201824638170e-03 3.273418585824e-03 0.0 
3.273418585824e-03 -1.989150092371e-03 0.0 
0.0 0.0 0.0 
2.449164251214e-03 1.720998104168e-03 0.0 
1.720998104168e-03 -3.529062415913e-03 0.0 
0.0 0.0 0.0 
2.662509388194e-03 4.052029828576e-03 0.0 
4.052029828576e-03 6.370692280935e-04 0.0 
0.0 0.0 0.0 
1.917046729816e-04 3.950028335352e-03 0.0 
3.950028335352e-03 8.218120538204e-04 0.0 
0.0 0.0 0.0 
-5.289107098050e-04 4.148285879246e-03 0.0 
4.148285879246e-03 1.418639841558e-02 0.0 
0.0 0.0 0.0 
-4.605295775578e-04 4.700725874115e-03 0.0 
4.700725874115e-03 1.321345264093e-02 0.0 
0.0 0.0 0.0 
7.289696569290e-04 4.626045970345e-03 0.0 
4.626045970345e-03 4.539044639945e-03 0.0 
0.0 0.0 0.0 
3.829964099227e-03 3.136578178911e-03 0.0 
3.136578178911e-03 -2.835858482398e-03 0.0 
0.0 0.0 0.0 
2.289200682104e-03 3.705890301217e-03 0.0 
3.705890301217e-03 -7.156415630434e-04 0.0 
0.0 0.0 0.0 
-9.568848384495e-04 4.422369157085e-03 0.0 
4.422369157085e-03 8.556225192098e-03 0.0 
0.0 0.0 0.0 
3.279566305168e-03 3.096684062290e-03 0.0 
3.096684062290e-03 -1.810731477948e-03 0.0 
0.0 0.0 0.0 
4.273626942680e-03 -1.402590935718e-03 0.0 
-1.402590935718e-03 -3.561699613255e-03 0.0 
0.0 0.0 0.0 
-7.747453763672e-04 4.429646898764e-03 0.0 
4.429646898764e-03 7.414857499916e-03 0.0 
0.0 0.0 0.0 
-8.434139142619e-04 1.567460052661e-03 0.0 
1.567460052661e-03 1.613633192748e-02 0.0 
0.0 0.0 0.0 
3.894368776303e-03 3.380483187603e-03 0.0 
3.380483187603e-03 -2.032331186508e-03 0.0 
0.0 0.0 0.0 
3.192502806058e-03 3.353062997725e-03 0.0 
3.353062997725e-03 8.512134508352e-04 0.0 
0.0 0.0 0.0 
1.023234321313e-03 4.122846745904e-03 0.0 
4.122846745904e-03 -3.707815529164e-04 0.0 
0.0 0.0 0.0 
6.592710136963e-04 1.382474879727e-03 0.0 
1.382474879727e-03 4.527471045347e-03 0.0 
0.0 0.0 0.0 
2.933805594753e-03 3.763281457361e-03 0.0 
3.763281457361e-03 -1.916136846629e-03 0.0 
0.0 0.0 0.0 
-2.321085285909e-04 4.578792990792e-03 0.0 
4.578792990792e-03 6.497197557412e-03 0.0 
0.0 0.0 0.0 
3.253619491249e-03 1.950796358945e-03 0.0 
1.950796358945e-03 -4.461264238463e-03 0.0 
0.0 0.0 0.0 
3.874530000216e-03 4.937137179582e-04 0.0 
4.937137179582e-04 -1.046433419623e-03 0.0 
0.0 0.0 0.0 
4.351392476483e-03 3.158678803222e-03 0.0 
3.158678803222e-03 -1.877169691986e-03 0.0 
0.0 0.0 0.0 
3.965417637757e-03 -2.007189021071e-03 0.0 
-2.007189021071e-03 -2.947499429162e-03 0.0 
0.0 0.0 0.0 
-1.881773786350e-03 4.136964984758e-03 0.0 
4.136964984758e-03 1.019851682106e-02 0.0 
0.0 0.0 0.0 
-1.850581408646e-04 5.283058390485e-03 0.0 
5.283058390485e-03 1.140005175083e-02 0.0 
0.0 0.0 0.0 
4.557730543749e-03 2.766078869666e-03 0.0 
2.766078869666e-03 -2.712896779653e-03 0.0 
0.0 0.0 0.0 
4.298551602021e-03 2.129313476428e-03 0.0 
2.129313476428e-03 -1.145264852333e-03 0.0 
0.0 0.0 0.0 
1.306871563152e-03 3.860013453308e-03 0.0 
3.860013453308e-03 -3.362038648447e-04 0.0 
0.0 0.0 0.0 
-2.347290508559e-03 1.327282044498e-03 0.0 
1.327282044498e-03 1.506270622895e-02 0.0 
0.0 0.0 0.0 
2.653296387854e-03 -2.042513137584e-04 0.0 
-2.042513137584e-04 6.313716587307e-04 0.0 
0.0 0.0 0.0 
5.441192964410e-04 4.024038192063e-03 0.0 
4.024038192063e-03 1.950573821564e-03 0.0 
0.0 0.0 0.0 
-2.610869777641e-03 1.118432598619e-03 0.0 
1.118432598619e-03 1.504016873120e-02 0.0 
0.0 0.0 0.0 
1.174596565425e-04 5.370054046373e-03 0.0 
5.370054046373e-03 9.403450610709e-03 0.0 
0.0 0.0 0.0 
2.254800166326e-03 8.999173662096e-05 0.0 
8.999173662096e-05 1.399867989293e-03 0.0 
0.0 0.0 0.0 
-2.968027533856e-04 5.143935700728e-03 0.0 
5.143935700728e-03 1.203377288573e-02 0.0 
0.0 0.0 0.0 
-2.816608487794e-03 1.558147618517e-03 0.0 
1.558147618517e-03 1.482027429987e-02 0.0 
0.0 0.0 0.0 
-1.035652121085e-03 4.339229464252e-03 0.0 
4.339229464252e-03 1.064302255223e-02 0.0 
0.0 0.0 0.0 
-1.366358630526e-04 3.921326959366e-03 0.0 
3.921326959366e-03 2.247840222346e-03 0.0 
0.0 0.0 0.0 
-2.070128090931e-03 4.009818658301e-03 0.0 
4.009818658301e-03 1.011621509000e-02 0.0 
0.0 0.0 0.0 
-1.440263737140e-03 4.198968520380e-03 0.0 
4.198968520380e-03 9.391574375990e-03 0.0 
0.0 0.0 0.0 
-1.688597335739e-03 4.237343420863e-03 0.0 
4.237343420863e-03 1.028301383354e-02 0.0 
0.0 0.0 0.0 
7.376167146571e-04 4.542325914717e-03 0.0 
4.542325914717e-03 4.389855548360e-03 0.0 
0.0 0.0 0.0 
2.932613981519e-04 5.093590578283e-03 0.0 
5.093590578283e-03 8.139375852551e-03 0.0 
0.0 0.0 0.0 
-2.824490210840e-03 2.170839947216e-03 0.0 
2.170839947216e-03 1.404178578991e-02 0.0 
0.0 0.0 0.0 
-2.982769031430e-03 3.211468158751e-03 0.0 
3.211468158751e-03 1.252531249635e-02 0.0 
0.0 0.0 0.0 
4.437027678816e-03 2.692255607799e-03 0.0 
2.692255607799e-03 -1.902461298590e-03 0.0 
0.0 0.0 0.0 
-3.466644870254e-05 -2.061806092424e-03 0.0 
-2.061806092424e-03 9.278883174717e-04 0.0 
0.0 0.0 0.0 
-2.541739722979e-03 3.659800660049e-03 0.0 
3.659800660049e-03 1.092514230886e-02 0.0 
0.0 0.0 0.0 
1.274283289248e-03 4.160217049921e-03 0.0 
4.160217049921e-03 8.588632559021e-04 0.0 
0.0 0.0 0.0 
-1.971906608852e-03 6.100257161172e-05 0.0 
6.100257161172e-05 1.430614100284e-02 0.0 
0.0 0.0 0.0 
3.307503177014e-03 -2.610884592480e-03 0.0 
-2.610884592480e-03 -2.854267670185e-03 0.0 
0.0 0.0 0.0 
4.192060627606e-03 2.756174613970e-03 0.0 
2.756174613970e-03 -1.944762723166e-03 0.0 
0.0 0.0 0.0 
-1.766271682031e-03 3.391586675370e-03 0.0 
3.391586675370e-03 1.327644020860e-02 0.0 
0.0 0.0 0.0 
1.547940432983e-03 4.001169938842e-03 0.0 
4.001169938842e-03 8.784143194605e-04 0.0 
0.0 0.0 0.0 
-1.613253076914e-03 4.079662984744e-03 0.0 
4.079662984744e-03 9.299849957037e-03 0.0 
0.0 0.0 0.0 
4.177583604396e-03 2.037444566933e-03 0.0 
2.037444566933e-03 -1.153461952896e-03 0.0 
0.0 0.0 0.0 
2.448160756529e-03 -1.626133885574e-03 0.0 
-1.626133885574e-03 -3.860779107903e-04 0.0 
0.0 0.0 0.0 
5.557411695034e-04 4.264469615564e-03 0.0 
4.264469615564e-03 6.473869046242e-03 0.0 
0.0 0.0 0.0 
-1.893362536985e-03 4.016652847307e-03 0.0 
4.016652847307e-03 9.114706006267e-03 0.0 
0.0 0.0 0.0 
4.760169781584e-03 4.749418788535e-04 0.0 
4.749418788535e-04 -4.078734564697e-03 0.0 
0.0 0.0 0.0 
1.518374861882e-03 -2.656245828280e-03 0.0 
-2.656245828280e-03 -4.626626684201e-04 0.0 
0.0 0.0 0.0 
-4.206436661066e-04 3.914427209375e-03 0.0 
3.914427209375e-03 3.707762035884e-03 0.0 
0.0 0.0 0.0 
4.522071270623e-04 4.082371866094e-03 0.0 
4.082371866094e-03 1.944433844649e-03 0.0 
0.0 0.0 0.0 
-1.276449444997e-03 4.126164123128e-03 0.0 
4.126164123128e-03 1.213889825677e-02 0.0 
0.0 0.0 0.0 
-5.091611119282e-04 4.613051355173e-03 0.0 
4.613051355173e-03 7.526191335395e-03 0.0 
0.0 0.0 0.0 
-1.274723656062e-03 4.078144969919e-03 0.0 
4.078144969919e-03 7.133719452567e-03 0.0 
0.0 0.0 0.0 
-1.784599012903e-03 3.937010153846e-03 0.0 
3.937010153846e-03 9.219522430449e-03 0.0 
0.0 0.0 0.0 
7.209559647705e-04 2.686414632439e-03 0.0 
2.686414632439e-03 4.962032692349e-03 0.0 
0.0 0.0 0.0 
1.275706108813e-03 2.660178337676e-03 0.0 
2.660178337676e-03 4.150147310767e-03 0.0 
0.0 0.0 0.0 
-1.138821141320e-03 3.999495739060e-03 0.0 
3.999495739060e-03 1.216483117815e-02 0.0 
0.0 0.0 0.0 
-2.241783175431e-03 3.213997533606e-03 0.0 
3.213997533606e-03 1.373189078281e-02 0.0 
0.0 0.0 0.0 
2.514729813108e-03 -1.769658818622e-03 0.0 
-1.769658818622e-03 -9.581825883029e-04 0.0 
0.0 0.0 0.0 
2.257529849354e-04 4.362086461429e-03 0.0 
4.362086461429e-03 4.321272813418e-03 0.0 
0.0 0.0 0.0 
4.042525387105e-03 2.279363174916e-03 0.0 
2.279363174916e-03 -2.701481585861e-03 0.0 
0.0 0.0 0.0 
4.486091911467e-03 2.118167470751e-03 0.0 
2.118167470751e-03 -2.678488946805e-03 0.0 
0.0 0.0 0.0 
-1.115183452423e-04 4.643498606271e-03 0.0 
4.643498606271e-03 6.487000944383e-03 0.0 
0.0 0.0 0.0 
3.985378699066e-03 4.407877209134e-04 0.0 
4.407877209134e-04 -1.437250347095e-03 0.0 
0.0 0.0 0.0 
7.843147478370e-05 -1.974485509246e-03 0.0 
-1.974485509246e-03 1.581402229588e-03 0.0 
0.0 0.0 0.0 
-1.415183801401e-03 3.600874616826e-03 0.0 
3.600874616826e-03 1.332802232027e-02 0.0 
0.0 0.0 0.0 
4.499137585685e-03 -6.648351767150e-04 0.0 
-6.648351767150e-04 -3.899893384064e-03 0.0 
0.0 0.0 0.0 
1.160521447997e-03 4.410976922911e-03 0.0 
4.410976922911e-03 3.393623667993e-03 0.0 
0.0 0.0 0.0 
-1.122069588657e-03 4.324870958875e-03 0.0 
4.324870958875e-03 8.428185939870e-03 0.0 
0.0 0.0 0.0 
8.938619731509e-04 4.343285915090e-03 0.0 
4.343285915090e-03 3.374999689015e-03 0.0 
0.0 0.0 0.0 
-3.972432730928e-04 4.962022073340e-03 0.0 
4.962022073340e-03 1.263172672552e-02 0.0 
0.0 0.0 0.0 
-4.548428057198e-04 4.440530826899e-03 0.0 
4.440530826899e-03 1.369597177768e-02 0.0 
0.0 0.0 0.0 
-9.208890175867e-04 4.187845148444e-03 0.0 
4.187845148444e-03 1.342888187366e-02 0.0 
0.0 0.0 0.0 
2.422725339086e-03 -1.546988898711e-03 0.0 
-1.546988898711e-03 -6.021759875420e-04 0.0 
0.0 0.0 0.0 
-1.774700098986e-03 2.744318898794e-03 0.0 
2.744318898794e-03 1.463272625562e-02 0.0 
0.0 0.0 0.0 
6.203419857120e-04 4.114877274665e-03 0.0 
4.114877274665e-03 1.193994269285e-03 0.0 
0.0 0.0 0.0 
4.745141587804e-03 2.037364172262e-03 0.0 
2.037364172262e-03 -2.602134346641e-03 0.0 
0.0 0.0 0.0 
3.483820442115e-03 1.499703485860e-03 0.0 
1.499703485860e-03 -3.590842679729e-03 0.0 
0.0 0.0 0.0 
-6.973391394293e-04 4.300159634130e-03 0.0 
4.300159634130e-03 6.194834210298e-03 0.0 
0.0 0.0 0.0 
-2.926111399648e-03 9.545016598147e-04 0.0 
9.545016598147e-04 1.437509613819e-02 0.0 
0.0 0.0 0.0 
-2.506443644519e-03 1.378627569570e-03 0.0 
1.378627569570e-03 1.483652844098e-02 0.0 
0.0 0.0 0.0 
1.217203767798e-03 1.454918059049e-03 0.0 
1.454918059049e-03 3.739591346772e-03 0.0 
0.0 0.0 0.0 
-7.282316604774e-04 4.309749852780e-03 0.0 
4.309749852780e-03 1.082331857637e-02 0.0 
0.0 0.0 0.0 
-2.316252048393e-03 3.505272678637e-03 0.0 
3.505272678637e-03 1.189228167901e-02 0.0 
0.0 0.0 0.0 
-1.260919115870e-03 4.301187557927e-03 0.0 
4.301187557927e-03 9.520996590630e-03 0.0 
0.0 0.0 0.0 
4.025363304407e-03 1.650677004782e-03 0.0 
1.650677004782e-03 -4.286129219445e-03 0.0 
0.0 0.0 0.0 
-6.610134964942e-04 -1.813867186081e-03 0.0 
-1.813867186081e-03 6.916062503763e-04 0.0 
0.0 0.0 0.0 
3.206897881759e-03 3.916515791293e-03 0.0 
3.916515791293e-03 -3.687211985048e-04 0.0 
0.0 0.0 0.0 
1.332777145548e-03 4.458334608578e-03 0.0 
4.458334608578e-03 3.501690816414e-03 0.0 
0.0 0.0 0.0 
2.977212645809e-03 3.886383688807e-03 0.0 
3.886383688807e-03 6.591218966521e-04 0.0 
0.0 0.0 0.0 
-8.285633899098e-04 3.895452593469e-03 0.0 
3.895452593469e-03 4.618101960665e-04 0.0 
0.0 0.0 0.0 
-1.897087033283e-03 1.221152050622e-04 0.0 
1.221152050622e-04 1.464819637953e-02 0.0 
0.0 0.0 0.0 
8.189943250003e-05 -2.048014931072e-03 0.0 
-2.048014931072e-03 7.559962410812e-04 0.0 
0.0 0.0 0.0 
2.555221950325e-03 3.978580987510e-03 0.0 
3.978580987510e-03 -1.007589631010e-03 0.0 
0.0 0.0 0.0 
0.0 1.540164832770e-03 0.0 
1.540164832770e-03 4.570623270053e-03 0.0 
0.0 0.0 0.0 
3.400214110731e-03 2.607669811734e-03 0.0 
2.607669811734e-03 7.752803583672e-04 0.0 
0.0 0.0 0.0 
-2.842577509356e-03 2.839007946067e-03 0.0 
2.839007946067e-03 1.257031436537e-02 0.0 
0.0 0.0 0.0 
1.072570568042e-03 -1.183858645163e-04 0.0 
-1.183858645163e-04 6.312898094536e-04 0.0 
0.0 0.0 0.0 
5.966708605158e-04 4.573198610185e-03 0.0 
4.573198610185e-03 4.386282869188e-03 0.0 
0.0 0.0 0.0 
3.553295177362e-03 3.613916267092e-03 0.0 
3.613916267092e-03 -3.278539309093e-04 0.0 
0.0 0.0 0.0 
-1.911266274942e-03 4.052683330202e-03 0.0 
4.052683330202e-03 1.113487703898e-02 0.0 
0.0 0.0 0.0 
-5.587705603294e-05 5.379059385015e-03 0.0 
5.379059385015e-03 1.072236557346e-02 0.0 
0.0 0.0 0.0 
-2.076132319765e-03 3.756817608742e-03 0.0 
3.756817608742e-03 1.014477864851e-02 0.0 
0.0 0.0 0.0 
-8.746247915699e-04 4.546514009594e-03 0.0 
4.546514009594e-03 8.539933902043e-03 0.0 
0.0 0.0 0.0 
3.524240546007e-04 -2.056460934693e-03 0.0 
-2.056460934693e-03 1.592135967358e-03 0.0 
0.0 0.0 0.0 
-1.693884300434e-03 3.259045949989e-03 0.0 
3.259045949989e-03 1.380813988388e-02 0.0 
0.0 0.0 0.0 
2.349614604104e-03 -1.388939661790e-03 0.0 
-1.388939661790e-03 3.802853447854e-05 0.0 
0.0 0.0 0.0 
2.334684791938e-06 5.410654112770e-03 0.0 
5.410654112770e-03 1.007396336598e-02 0.0 
0.0 0.0 0.0 
0.0 4.800453639524e-03 0.0 
4.800453639524e-03 1.232264545616e-02 0.0 
0.0 0.0 0.0 
0.0 3.779540026987e-03 0.0 
3.779540026987e-03 1.444031704676e-02 0.0 
0.0 0.0 0.0 
0.0 4.323438023436e-03 0.0 
4.323438023436e-03 1.348828363030e-02 0.0 
0.0 0.0 0.0 
-1.501696667743e-03 4.119056541058e-03 0.0 
4.119056541058e-03 1.041713673847e-02 0.0 
0.0 0.0 0.0 
-1.897251420122e-03 3.394838608416e-03 0.0 
3.394838608416e-03 1.379129816784e-02 0.0 
0.0 0.0 0.0 
-7.905672910241e-04 4.276230933710e-03 0.0 
4.276230933710e-03 1.156231530949e-02 0.0 
0.0 0.0 0.0 
7.957076126335e-04 4.435977875956e-03 0.0 
4.435977875956e-03 3.364065396257e-03 0.0 
0.0 0.0 0.0 
1.914035016490e-04 4.363961800959e-03 0.0 
4.363961800959e-03 4.321172858641e-03 0.0 
0.0 0.0 0.0 
-2.236385796057e-04 -1.831751054537e-03 0.0 
-1.831751054537e-03 1.878391897675e-03 0.0 
0.0 0.0 0.0 
-1.608151112620e-03 3.734555645274e-03 0.0 
3.734555645274e-03 1.330929670250e-02 0.0 
0.0 0.0 0.0 
2.134918266392e-04 5.258210731481e-03 0.0 
5.258210731481e-03 8.749514839669e-03 0.0 
0.0 0.0 0.0 
-1.560663427544e-03 3.116323252721e-03 0.0 
3.116323252721e-03 1.427210164875e-02 0.0 
0.0 0.0 0.0 
3.871680143851e-03 2.646246634708e-03 0.0 
2.646246634708e-03 -1.423907503305e-04 0.0 
0.0 0.0 0.0 
-1.791807811969e-03 3.246227273963e-03 0.0 
3.246227273963e-03 1.425544909133e-02 0.0 
0.0 0.0 0.0 
1.501539398890e-03 4.345567341243e-03 0.0 
4.345567341243e-03 4.806681781923e-03 0.0 
0.0 0.0 0.0 
1.597910653367e-03 4.427348425824e-03 0.0 
4.427348425824e-03 2.490288517299e-03 0.0 
0.0 0.0 0.0 
-7.113191838696e-04 4.188217036247e-03 0.0 
4.188217036247e-03 6.206595614914e-03 0.0 
0.0 0.0 0.0 
2.221269534681e-03 4.027578077537e-03 0.0 
4.027578077537e-03 -1.765147802210e-03 0.0 
0.0 0.0 0.0 
-5.197317554819e-04 2.571264035595e-03 0.0 
2.571264035595e-03 1.551514501007e-02 0.0 
0.0 0.0 0.0 
1.142389504680e-03 4.342712417720e-03 0.0 
4.342712417720e-03 2.453103851659e-03 0.0 
0.0 0.0 0.0 
4.824065902063e-04 4.486550188528e-03 0.0 
4.486550188528e-03 7.422992501230e-03 0.0 
0.0 0.0 0.0 
-7.485776051586e-06 -1.962732846502e-03 0.0 
-1.962732846502e-03 1.896814449930e-03 0.0 
0.0 0.0 0.0 
2.589139596214e-03 -3.108285953407e-03 0.0 
-3.108285953407e-03 -2.267874626396e-03 0.0 
0.0 0.0 0.0 
6.664958371154e-04 1.248197060148e-03 0.0 
1.248197060148e-03 3.720286888223e-03 0.0 
0.0 0.0 0.0 
2.202752991793e-03 4.095423851110e-03 0.0 
4.095423851110e-03 -1.903361512705e-04 0.0 
0.0 0.0 0.0 
0.0 4.973497431475e-03 0.0 
4.973497431475e-03 1.171275110319e-02 0.0 
0.0 0.0 0.0 
-5.685221858688e-04 3.873910115750e-03 0.0 
3.873910115750e-03 1.385863879505e-02 0.0 
0.0 0.0 0.0 
-9.647864722295e-05 4.633757344537e-03 0.0 
4.633757344537e-03 6.682527165974e-03 0.0 
0.0 0.0 0.0 
-6.079602600160e-04 -9.760572992639e-04 0.0 
-9.760572992639e-04 7.473524912311e-04 0.0 
0.0 0.0 0.0 
0.0 5.125493468666e-03 0.0 
5.125493468666e-03 1.040521013001e-02 0.0 
0.0 0.0 0.0 
6.995214685042e-04 1.997991762307e-03 0.0 
1.997991762307e-03 3.922784853473e-03 0.0 
0.0 0.0 0.0 
3.196233230917e-03 -2.614402020438e-03 0.0 
-2.614402020438e-03 -2.345744017298e-03 0.0 
0.0 0.0 0.0 
3.835768336290e-03 2.147172652362e-03 0.0 
2.147172652362e-03 -1.526844023311e-04 0.0 
0.0 0.0 0.0 
5.712882922322e-04 3.890832514042e-03 0.0 
3.890832514042e-03 6.013265468917e-03 0.0 
0.0 0.0 0.0 
-4.630398915084e-04 -9.617762692725e-05 0.0 
-9.617762692725e-05 3.141241455085e-04 0.0 
0.0 0.0 0.0 
1.400438490926e-03 4.396166720129e-03 0.0 
4.396166720129e-03 2.435313095053e-03 0.0 
0.0 0.0 0.0 
-4.626328622774e-04 4.576904119642e-03 0.0 
4.576904119642e-03 7.724275039015e-03 0.0 
0.0 0.0 0.0 
3.043489531773e-04 4.655247905800e-03 0.0 
4.655247905800e-03 5.612009172410e-03 0.0 
0.0 0.0 0.0 
-6.078730288318e-04 4.520773583826e-03 0.0 
4.520773583826e-03 7.539609029429e-03 0.0 
0.0 0.0 0.0 
1.878387143657e-03 4.103393059595e-03 0.0 
4.103393059595e-03 -7.731470388489e-04 0.0 
0.0 0.0 0.0 
0.0 5.054298040153e-03 0.0 
5.054298040153e-03 9.069457820766e-03 0.0 
0.0 0.0 0.0 
4.900669480573e-03 2.012958312535e-03 0.0 
2.012958312535e-03 -2.463406519342e-03 0.0 
0.0 0.0 0.0 
2.144926372714e-03 4.557378006103e-04 0.0 
4.557378006103e-04 -4.225265536458e-03 0.0 
0.0 0.0 0.0 
1.797416706413e-04 -4.419253873806e-04 0.0 
-4.419253873806e-04 4.907777637887e-03 0.0 
0.0 0.0 0.0 
-4.753928885940e-04 -7.961328373140e-04 0.0 
-7.961328373140e-04 4.869069771121e-04 0.0 
0.0 0.0 0.0 
-1.425249355051e-03 4.062601900644e-03 0.0 
4.062601900644e-03 8.241157141585e-03 0.0 
0.0 0.0 0.0 
1.782441022651e-03 -3.144076410306e-03 0.0 
-3.144076410306e-03 -2.560345749463e-03 0.0 
0.0 0.0 0.0 
-2.516234902336e-03 3.352058431831e-03 0.0 
3.352058431831e-03 1.096397660649e-02 0.0 
0.0 0.0 0.0 
7.043177069028e-04 2.203079318399e-03 0.0 
2.203079318399e-03 4.738288891627e-03 0.0 
0.0 0.0 0.0 
0.0 4.747578651839e-03 0.0 
4.747578651839e-03 7.815309585343e-03 0.0 
0.0 0.0 0.0 
-1.705632328426e-03 4.047304572906e-03 0.0 
4.047304572906e-03 1.030947934206e-02 0.0 
0.0 0.0 0.0 
5.753440818790e-04 -3.348695495397e-03 0.0 
-3.348695495397e-03 -9.944572748555e-04 0.0 
0.0 0.0 0.0 
1.876134247132e-03 8.535658112035e-04 0.0 
8.535658112035e-04 -4.703911657469e-03 0.0 
0.0 0.0 0.0 
5.103538898907e-04 -3.829122667078e-03 0.0 
-3.829122667078e-03 -1.261264701322e-03 0.0 
0.0 0.0 0.0 
7.807313419548e-04 -5.865706535296e-04 0.0 
-5.865706535296e-04 3.043074781422e-03 0.0 
0.0 0.0 0.0 
-2.953444737957e-03 1.176310356730e-03 0.0 
1.176310356730e-03 1.411814274010e-02 0.0 
0.0 0.0 0.0 
-3.096115359695e-03 2.938705623288e-03 0.0 
2.938705623288e-03 1.317940077695e-02 0.0 
0.0 0.0 0.0 
0.0 4.245330147977e-03 0.0 
4.245330147977e-03 6.719885149637e-03 0.0 
0.0 0.0 0.0 
-2.766661947516e-03 8.744349207800e-04 0.0 
8.744349207800e-04 1.422112841668e-02 0.0 
0.0 0.0 0.0 
-4.901205939789e-04 3.802124880488e-03 0.0 
3.802124880488e-03 1.461430573687e-02 0.0 
0.0 0.0 0.0 
1.638043749338e-03 4.249629820448e-03 0.0 
4.249629820448e-03 4.238055208441e-03 0.0 
0.0 0.0 0.0 
-2.464768832510e-03 1.022670308397e-03 0.0 
1.022670308397e-03 1.482958659148e-02 0.0 
0.0 0.0 0.0 
2.637812684745e-04 4.122155428227e-03 0.0 
4.122155428227e-03 2.691851744401e-03 0.0 
0.0 0.0 0.0 
3.731132456042e-03 2.520985552761e-03 0.0 
2.520985552761e-03 -2.043640878657e-04 0.0 
0.0 0.0 0.0 
2.971057550837e-03 2.832506123700e-03 0.0 
2.832506123700e-03 -2.643402381344e-03 0.0 
0.0 0.0 0.0 
0.0 3.551597062326e-03 0.0 
3.551597062326e-03 5.811979540927e-03 0.0 
0.0 0.0 0.0 
0.0 4.584003790030e-03 0.0 
4.584003790030e-03 1.291920647275e-02 0.0 
0.0 0.0 0.0 
0.0 4.057658978813e-03 0.0 
4.057658978813e-03 1.400950077775e-02 0.0 
0.0 0.0 0.0 
1.939156542813e-03 -1.594817371772e-03 0.0 
-1.594817371772e-03 7.082921218737e-05 0.0 
0.0 0.0 0.0 
-4.712514246712e-04 -1.631395800524e-03 0.0 
-1.631395800524e-03 2.126235419594e-03 0.0 
0.0 0.0 0.0 
1.766386118276e-03 4.264172382644e-03 0.0 
4.264172382644e-03 2.514308835429e-03 0.0 
0.0 0.0 0.0 
1.902147536407e-03 -1.398806750709e-03 0.0 
-1.398806750709e-03 7.277770741896e-04 0.0 
0.0 0.0 0.0 
0.0 2.806664482259e-03 0.0 
2.806664482259e-03 5.141944101271e-03 0.0 
0.0 0.0 0.0 
2.931535570990e-03 3.529857985700e-03 0.0 
3.529857985700e-03 -9.427816711246e-04 0.0 
0.0 0.0 0.0 
4.523071816276e-03 -1.180794547566e-03 0.0 
-1.180794547566e-03 -3.397057785651e-03 0.0 
0.0 0.0 0.0 
4.115307280144e-03 -1.725235337542e-03 0.0 
-1.725235337542e-03 -2.863217897469e-03 0.0 
0.0 0.0 0.0 
-2.324939077014e-03 1.010868724812e-03 0.0 
1.010868724812e-03 1.505146159369e-02 0.0 
0.0 0.0 0.0 
5.334395148504e-04 9.650705636015e-04 0.0 
9.650705636015e-04 4.505713254312e-03 0.0 
0.0 0.0 0.0 
-9.233518461722e-04 -3.529054096043e-03 0.0 
-3.529054096043e-03 -6.476093796492e-05 0.0 
0.0 0.0 0.0 
0.0 1.936186566601e-03 0.0 
1.936186566601e-03 4.664572464192e-03 0.0 
0.0 0.0 0.0 
3.460956760396e-03 -2.333846871971e-03 0.0 
-2.333846871971e-03 -2.373113277692e-03 0.0 
0.0 0.0 0.0 
0.0 5.090973085951e-03 0.0 
5.090973085951e-03 1.107236674020e-02 0.0 
0.0 0.0 0.0 
-9.570890082863e-04 4.376537618295e-03 0.0 
4.376537618295e-03 1.154640892550e-02 0.0 
0.0 0.0 0.0 
-7.908532014211e-05 -1.090440612367e-04 0.0 
-1.090440612367e-04 1.686735043009e-04 0.0 
0.0 0.0 0.0 
2.005275991589e-03 4.237554893113e-03 0.0 
4.237554893113e-03 1.534348337425e-03 0.0 
0.0 0.0 0.0 
-1.848263878307e-03 2.736514131094e-03 0.0 
2.736514131094e-03 1.496097979844e-02 0.0 
0.0 0.0 0.0 
0.0 5.124129603865e-03 0.0 
5.124129603865e-03 9.737294564276e-03 0.0 
0.0 0.0 0.0 
-1.452198744663e-03 4.281348811776e-03 0.0 
4.281348811776e-03 1.039556958011e-02 0.0 
0.0 0.0 0.0 
1.892186064442e-03 4.012618317804e-03 0.0 
4.012618317804e-03 3.794996898185e-03 0.0 
0.0 0.0 0.0 
1.304638441939e-03 4.110077051671e-03 0.0 
4.110077051671e-03 -1.419724983602e-03 0.0 
0.0 0.0 0.0 
1.328834622538e-03 1.681881703822e-03 0.0 
1.681881703822e-03 3.074458448031e-03 0.0 
0.0 0.0 0.0 
2.930138812281e-03 -2.514607978821e-03 0.0 
-2.514607978821e-03 -1.723564166026e-03 0.0 
0.0 0.0 0.0 
3.512373548922e-03 -2.292116314010e-03 0.0 
-2.292116314010e-03 -2.784827705014e-03 0.0 
0.0 0.0 0.0 
-1.799064655773e-03 -3.369613061354e-03 0.0 
-3.369613061354e-03 -3.244793952495e-05 0.0 
0.0 0.0 0.0 
0.0 4.926992926459e-03 0.0 
4.926992926459e-03 8.430936926025e-03 0.0 
0.0 0.0 0.0 
3.516768035394e-03 2.469407546987e-03 0.0 
2.469407546987e-03 -2.694590819614e-03 0.0 
0.0 0.0 0.0 
1.997997089065e-03 2.860846975353e-04 0.0 
2.860846975353e-04 1.697488795567e-03 0.0 
0.0 0.0 0.0 
-2.678261693711e-03 8.325327854542e-04 0.0 
8.325327854542e-04 1.475035722184e-02 0.0 
0.0 0.0 0.0 
1.093422447577e-03 -2.863726153064e-03 0.0 
-2.863726153064e-03 -3.787249119914e-04 0.0 
0.0 0.0 0.0 
3.993877601861e-03 -1.956308742221e-03 0.0 
-1.956308742221e-03 -3.282455056858e-03 0.0 
0.0 0.0 0.0 
-1.207306552949e-03 4.448536991464e-03 0.0 
4.448536991464e-03 9.500825777619e-03 0.0 
0.0 0.0 0.0 
0.0 3.906957204326e-03 0.0 
3.906957204326e-03 6.245707509415e-03 0.0 
0.0 0.0 0.0 
-5.484661530438e-04 -1.548132792506e-03 0.0 
-1.548132792506e-03 2.535645142687e-03 0.0 
0.0 0.0 0.0 
2.085360856499e-03 -9.007879793559e-04 0.0 
-9.007879793559e-04 5.792100533097e-04 0.0 
0.0 0.0 0.0 
1.271049270399e-03 4.582035447561e-03 0.0 
4.582035447561e-03 3.686786954171e-03 0.0 
0.0 0.0 0.0 
3.476153214164e-03 -5.253912873752e-04 0.0 
-5.253912873752e-04 -1.304938327811e-03 0.0 
0.0 0.0 0.0 
4.546983880910e-03 -1.181808483085e-03 0.0 
-1.181808483085e-03 -3.494992458434e-03 0.0 
0.0 0.0 0.0 
2.276213510810e-03 -1.284439675405e-03 0.0 
-1.284439675405e-03 -8.608991950498e-05 0.0 
0.0 0.0 0.0 
8.823145815877e-04 4.586632778134e-03 0.0 
4.586632778134e-03 4.543623368710e-03 0.0 
0.0 0.0 0.0 
6.851905125962e-04 4.556657393415e-03 0.0 
4.556657393415e-03 6.510997178010e-03 0.0 
0.0 0.0 0.0 
3.273802886025e-03 2.493142194527e-03 0.0 
2.493142194527e-03 7.112020231310e-04 0.0 
0.0 0.0 0.0 
1.724571246889e-03 4.451779208653e-03 0.0 
4.451779208653e-03 2.638737545701e-03 0.0 
0.0 0.0 0.0 
7.252604769208e-04 -2.249065447883e-03 0.0 
-2.249065447883e-03 1.065117166063e-03 0.0 
0.0 0.0 0.0 
2.545163189404e-03 3.777838717734e-03 0.0 
3.777838717734e-03 -1.464117117073e-04 0.0 
0.0 0.0 0.0 
-3.146900488681e-04 -1.802931674488e-03 0.0 
-1.802931674488e-03 2.151094979900e-03 0.0 
0.0 0.0 0.0 
1.810990648977e-03 4.115679958207e-03 0.0 
4.115679958207e-03 4.260253518023e-03 0.0 
0.0 0.0 0.0 
4.671476934913e-03 1.950155938403e-03 0.0 
1.950155938403e-03 -1.993925588234e-03 0.0 
0.0 0.0 0.0 
6.772979840441e-04 1.780040317639e-03 0.0 
1.780040317639e-03 4.618000061018e-03 0.0 
0.0 0.0 0.0 
-1.644112292652e-03 3.106632000546e-03 0.0 
3.106632000546e-03 1.466398666453e-02 0.0 
0.0 0.0 0.0 
8.205433696922e-04 -2.703403691520e-03 0.0 
-2.703403691520e-03 1.902890109031e-04 0.0 
0.0 0.0 0.0 
0.0 2.354553643801e-03 0.0 
2.354553643801e-03 4.816548564077e-03 0.0 
0.0 0.0 0.0 
1.329532815571e-03 1.879197143616e-03 0.0 
1.879197143616e-03 3.849071231252e-03 0.0 
0.0 0.0 0.0 
3.289719884639e-03 3.820875676898e-03 0.0 
3.820875676898e-03 -1.969810406112e-04 0.0 
0.0 0.0 0.0 
-8.433430913833e-04 -2.345856237677e-03 0.0 
-2.345856237677e-03 8.564041824224e-04 0.0 
0.0 0.0 0.0 
5.530602886963e-04 6.378818408011e-04 0.0 
6.378818408011e-04 4.545165522201e-03 0.0 
0.0 0.0 0.0 
-1.529812012426e-03 3.592919241006e-03 0.0 
3.592919241006e-03 1.384256832724e-02 0.0 
0.0 0.0 0.0 
2.734127203991e-03 -2.808406699296e-03 0.0 
-2.808406699296e-03 -1.702028669748e-03 0.0 
0.0 0.0 0.0 
0.0 1.145984953451e-03 0.0 
1.145984953451e-03 4.483077475048e-03 0.0 
0.0 0.0 0.0 
1.814724223206e-03 -1.280002222206e-03 0.0 
-1.280002222206e-03 6.100482654254e-04 0.0 
0.0 0.0 0.0 
-1.614187634854e-04 4.376312420992e-03 0.0 
4.376312420992e-03 5.257687597848e-03 0.0 
0.0 0.0 0.0 
-2.664073596254e-03 3.081645912439e-03 0.0 
3.081645912439e-03 1.258668844407e-02 0.0 
0.0 0.0 0.0 
4.678166345249e-03 2.030002918264e-03 0.0 
2.030002918264e-03 -1.772920032049e-03 0.0 
0.0 0.0 0.0 
2.037001771941e-03 -1.833635548052e-03 0.0 
-1.833635548052e-03 -3.538948426727e-04 0.0 
0.0 0.0 0.0 
3.559317757003e-03 9.278506463301e-05 0.0 
9.278506463301e-05 -9.791014020498e-04 0.0 
0.0 0.0 0.0 
-2.553919603281e-03 3.034573294679e-03 0.0 
3.034573294679e-03 1.368876908285e-02 0.0 
0.0 0.0 0.0 
-9.235474938047e-04 4.306589310303e-03 0.0 
4.306589310303e-03 7.306274154846e-03 0.0 
0.0 0.0 0.0 
2.882298335593e-03 2.882405026294e-03 0.0 
2.882405026294e-03 1.576149862462e-03 0.0 
0.0 0.0 0.0 
-1.906624839167e-03 1.436341731350e-04 0.0 
1.436341731350e-04 1.494789644999e-02 0.0 
0.0 0.0 0.0 
4.086488071249e-04 -2.197059983302e-03 0.0 
-2.197059983302e-03 1.059092785884e-03 0.0 
0.0 0.0 0.0 
3.662255209931e-03 2.033771265120e-03 0.0 
2.033771265120e-03 -1.104150189298e-04 0.0 
0.0 0.0 0.0 
2.321695717169e-03 -2.745678621357e-03 0.0 
-2.745678621357e-03 -1.691721699732e-03 0.0 
0.0 0.0 0.0 
1.591508541861e-04 -1.267992340228e-03 0.0 
-1.267992340228e-03 2.923563642166e-03 0.0 
0.0 0.0 0.0 
-2.733447271243e-04 -2.445919171405e-04 0.0 
-2.445919171405e-04 1.486040276903e-04 0.0 
0.0 0.0 0.0 
2.131238199115e-03 3.979265621048e-03 0.0 
3.979265621048e-03 6.574410324642e-04 0.0 
0.0 0.0 0.0 
2.841425464152e-03 -2.775669346633e-03 0.0 
-2.775669346633e-03 -2.307318649527e-03 0.0 
0.0 0.0 0.0 
2.822648911005e-05 -1.836411724808e-03 0.0 
-1.836411724808e-03 2.096216617558e-03 0.0 
0.0 0.0 0.0 
2.723609447705e-03 4.018826879147e-03 0.0 
4.018826879147e-03 8.554045604301e-04 0.0 
0.0 0.0 0.0 
2.260687969500e-03 -1.074819621188e-03 0.0 
-1.074819621188e-03 5.773943166896e-04 0.0 
0.0 0.0 0.0 
-2.541302092704e-03 8.177995683024e-04 0.0 
8.177995683024e-04 1.496732205412e-02 0.0 
0.0 0.0 0.0 
2.121084781955e-03 -3.049101761471e-03 0.0 
-3.049101761471e-03 -1.660919586017e-03 0.0 
0.0 0.0 0.0 
0.0 8.199813545462e-04 0.0 
8.199813545462e-04 4.528540092676e-03 0.0 
0.0 0.0 0.0 
-3.600415784430e-04 4.654746252880e-03 0.0 
4.654746252880e-03 7.713131319244e-03 0.0 
0.0 0.0 0.0 
-2.452681724594e-04 -1.598482302969e-03 0.0 
-1.598482302969e-03 2.563264859254e-03 0.0 
0.0 0.0 0.0 
2.963386326615e-05 4.679588721502e-03 0.0 
4.679588721502e-03 6.675507665058e-03 0.0 
0.0 0.0 0.0 
-2.099925631784e-04 -1.735604579264e-03 0.0 
-1.735604579264e-03 2.082531424724e-03 0.0 
0.0 0.0 0.0 
-7.846410440679e-04 -1.402394591241e-04 0.0 
-1.402394591241e-04 4.429844514151e-04 0.0 
0.0 0.0 0.0 
-2.817442774032e-03 3.101460526459e-03 0.0 
3.101460526459e-03 1.313605637645e-02 0.0 
0.0 0.0 0.0 
-1.098990673625e-03 -6.283265189182e-04 0.0 
-6.283265189182e-04 3.102190480030e-03 0.0 
0.0 0.0 0.0 
1.386796140317e-03 -1.480350997611e-04 0.0 
-1.480350997611e-04 -4.717942843150e-04 0.0 
0.0 0.0 0.0 
-5.197088274641e-04 -1.467023556349e-03 0.0 
-1.467023556349e-03 2.753359249996e-03 0.0 
0.0 0.0 0.0 
2.051738062447e-03 -7.149974189752e-04 0.0 
-7.149974189752e-04 1.203263193381e-03 0.0 
0.0 0.0 0.0 
-1.190777129291e-03 8.074666755714e-04 0.0 
8.074666755714e-04 1.600925046887e-02 0.0 
0.0 0.0 0.0 
3.969752895532e-03 -1.615873855341e-04 0.0 
-1.615873855341e-04 -1.785504569027e-03 0.0 
0.0 0.0 0.0 
3.842231003978e-03 -1.152201221042e-04 0.0 
-1.152201221042e-04 -1.378153507919e-03 0.0 
0.0 0.0 0.0 
-3.340181883882e-03 2.667213874103e-03 0.0 
2.667213874103e-03 1.314791153207e-02 0.0 
0.0 0.0 0.0 
-2.750121553929e-03 5.297978269836e-04 0.0 
5.297978269836e-04 1.406237415502e-02 0.0 
0.0 0.0 0.0 
-5.647957049394e-04 3.117190814038e-03 0.0 
3.117190814038e-03 1.502067814466e-02 0.0 
0.0 0.0 0.0 
4.417853490715e-04 4.656992206898e-03 0.0 
4.656992206898e-03 5.611199382927e-03 0.0 
0.0 0.0 0.0 
2.087420292686e-03 -1.693405276427e-04 0.0 
-1.693405276427e-04 -7.471424458252e-04 0.0 
0.0 0.0 0.0 
1.802767458758e-05 -1.548146291744e-03 0.0 
-1.548146291744e-03 9.021191764933e-04 0.0 
0.0 0.0 0.0 
-8.756874772035e-04 -1.430153566135e-03 0.0 
-1.430153566135e-03 9.122103835699e-04 0.0 
0.0 0.0 0.0 
4.298959989439e-04 -2.515488003671e-03 0.0 
-2.515488003671e-03 5.229855197919e-04 0.0 
0.0 0.0 0.0 
-3.818268253619e-05 4.592639217446e-03 0.0 
4.592639217446e-03 8.875182284512e-03 0.0 
0.0 0.0 0.0 
-1.362682313796e-03 8.033631171722e-04 0.0 
8.033631171722e-04 1.601035736976e-02 0.0 
0.0 0.0 0.0 
8.697908336202e-04 -6.756180995350e-04 0.0 
-6.756180995350e-04 3.026302905758e-03 0.0 
0.0 0.0 0.0 
4.670588002287e-05 -2.085844869082e-03 0.0 
-2.085844869082e-03 1.196532293888e-03 0.0 
0.0 0.0 0.0 
-1.108503042105e-04 -1.245824314381e-03 0.0 
-1.245824314381e-03 2.921744265997e-03 0.0 
0.0 0.0 0.0 
1.833563787468e-03 3.272567089944e-04 0.0 
3.272567089944e-04 2.169317077529e-03 0.0 
0.0 0.0 0.0 
3.116024026576e-03 3.533432075988e-04 0.0 
3.533432075988e-04 -4.196727626825e-03 0.0 
0.0 0.0 0.0 
-1.107243406053e-03 -3.862465781296e-04 0.0 
-3.862465781296e-04 3.097837233215e-03 0.0 
0.0 0.0 0.0 
-9.783986611364e-04 -3.530673809377e-04 0.0 
-3.530673809377e-04 2.733862462882e-03 0.0 
0.0 0.0 0.0 
4.272389525874e-04 3.168610172676e-04 0.0 
3.168610172676e-04 4.607342781858e-03 0.0 
0.0 0.0 0.0 
0.0 4.833858903540e-04 0.0 
4.833858903540e-04 4.561760201598e-03 0.0 
0.0 0.0 0.0 
-1.142390973398e-03 -3.994947927225e-04 0.0 
-3.994947927225e-04 3.316368316807e-03 0.0 
0.0 0.0 0.0 
-4.556369632801e-04 -1.484282379687e-03 0.0 
-1.484282379687e-03 2.547060204437e-03 0.0 
0.0 0.0 0.0 
1.963325923166e-03 -1.670714439466e-03 0.0 
-1.670714439466e-03 2.819249337074e-04 0.0 
0.0 0.0 0.0 
1.780622791149e-03 7.171268598656e-04 0.0 
7.171268598656e-04 2.467059974607e-03 0.0 
0.0 0.0 0.0 
-1.799814004050e-04 -1.636058585399e-03 0.0 
-1.636058585399e-03 1.025758769213e-03 0.0 
0.0 0.0 0.0 
1.853512200840e-03 -5.113274551078e-05 0.0 
-5.113274551078e-05 1.957370577167e-03 0.0 
0.0 0.0 0.0 
1.217457141462e-03 -4.283917098455e-04 0.0 
-4.283917098455e-04 2.182556526467e-04 0.0 
0.0 0.0 0.0 
-4.686729982858e-04 -1.578650614013e-03 0.0 
-1.578650614013e-03 2.320704682129e-03 0.0 
0.0 0.0 0.0 
9.447233876614e-05 -1.835795531030e-03 0.0 
-1.835795531030e-03 1.810830218340e-03 0.0 
0.0 0.0 0.0 
1.394301547258e-03 -2.212970700119e-04 0.0 
-2.212970700119e-04 -1.977947193025e-04 0.0 
0.0 0.0 0.0 
-1.158564200653e-03 -3.744327355329e-04 0.0 
-3.744327355329e-04 3.277690027461e-03 0.0 
0.0 0.0 0.0 
-1.366644043739e-03 3.004897600605e-03 0.0 
3.004897600605e-03 1.467958795622e-02 0.0 
0.0 0.0 0.0 
2.333576172986e-03 -1.106226954461e-04 0.0 
-1.106226954461e-04 -8.382065187914e-04 0.0 
0.0 0.0 0.0 
-2.934540299751e-03 7.583244601751e-04 0.0 
7.583244601751e-04 1.405581353805e-02 0.0 
0.0 0.0 0.0 
-2.856704751515e-03 9.816586335846e-04 0.0 
9.816586335846e-04 1.380193684766e-02 0.0 
0.0 0.0 0.0 
3.531113179233e-03 7.217264798741e-04 0.0 
7.217264798741e-04 -4.876985547277e-04 0.0 
0.0 0.0 0.0 
-9.450517789734e-04 -9.190336137231e-05 0.0 
-9.190336137231e-05 2.743480443770e-03 0.0 
0.0 0.0 0.0 
2.211956829425e-03 -2.777834734905e-03 0.0 
-2.777834734905e-03 -1.063562982956e-03 0.0 
0.0 0.0 0.0 
1.031830366119e-03 3.927106254237e-03 0.0 
3.927106254237e-03 4.553138604653e-04 0.0 
0.0 0.0 0.0 
4.313854333291e-04 -4.742594215533e-04 0.0 
-4.742594215533e-04 4.046448008857e-03 0.0 
0.0 0.0 0.0 
2.001940660610e-04 4.725348923328e-03 0.0 
4.725348923328e-03 8.264684542099e-03 0.0 
0.0 0.0 0.0 
-1.785027359425e-03 1.188961078256e-03 0.0 
1.188961078256e-03 1.579115213523e-02 0.0 
0.0 0.0 0.0 
3.383077258898e-04 4.008345188062e-03 0.0 
4.008345188062e-03 2.705846936542e-03 0.0 
0.0 0.0 0.0 
-3.321952089760e-04 -1.269436418825e-03 0.0 
-1.269436418825e-03 8.180985390183e-04 0.0 
0.0 0.0 0.0 
-1.747476059768e-03 4.162902112785e-03 0.0 
4.162902112785e-03 9.190145497994e-03 0.0 
0.0 0.0 0.0 
-2.337576740946e-03 2.022219544933e-04 0.0 
2.022219544933e-04 1.403403241548e-02 0.0 
0.0 0.0 0.0 
-2.187354289597e-03 1.768716061080e-04 0.0 
1.768716061080e-04 1.395205430123e-02 0.0 
0.0 0.0 0.0 
1.607076108672e-03 -1.314717905423e-04 0.0 
-1.314717905423e-04 -5.714913491230e-04 0.0 
0.0 0.0 0.0 
1.217812320605e-03 -2.965045458983e-04 0.0 
-2.965045458983e-04 -1.187191293942e-04 0.0 
0.0 0.0 0.0 
9.963667112398e-04 -1.895544051869e-04 0.0 
-1.895544051869e-04 3.356588532220e-04 0.0 
0.0 0.0 0.0 
-1.680025213374e-04 -1.813726903605e-03 0.0 
-1.813726903605e-03 1.343206315080e-03 0.0 
0.0 0.0 0.0 
2.017552358547e-03 -1.893790236726e-04 0.0 
-1.893790236726e-04 -4.424771704138e-04 0.0 
0.0 0.0 0.0 
-1.149442121630e-03 -3.580810272784e-04 0.0 
-3.580810272784e-04 3.498511882934e-03 0.0 
0.0 0.0 0.0 
-1.592788536756e-03 -1.227294973958e-03 0.0 
-1.227294973958e-03 -1.716527044566e-03 0.0 
0.0 0.0 0.0 
-1.265721047143e-04 -1.972756534709e-03 0.0 
-1.972756534709e-03 1.472877045472e-03 0.0 
0.0 0.0 0.0 
-1.712394998953e-03 2.101420960507e-04 0.0 
2.101420960507e-04 1.524453588376e-02 0.0 
0.0 0.0 0.0 
-2.489632326768e-03 4.762268923744e-04 0.0 
4.762268923744e-04 1.390682482976e-02 0.0 
0.0 0.0 0.0 
-2.775136003712e-04 4.627877868601e-03 0.0 
4.627877868601e-03 9.750314498748e-03 0.0 
0.0 0.0 0.0 
1.809118418172e-03 -1.063334091886e-03 0.0 
-1.063334091886e-03 1.257046495831e-03 0.0 
0.0 0.0 0.0 
-1.802756090479e-03 1.375461867672e-04 0.0 
1.375461867672e-04 1.493925422170e-02 0.0 
0.0 0.0 0.0 
-1.051046211900e-03 -1.322260144187e-04 0.0 
-1.322260144187e-04 2.905108134028e-03 0.0 
0.0 0.0 0.0 
1.524658243543e-03 -2.370576082714e-04 0.0 
-2.370576082714e-04 1.065850905710e-04 0.0 
0.0 0.0 0.0 
0.0 1.664924251119e-03 0.0 
1.664924251119e-03 1.619152736581e-02 0.0 
0.0 0.0 0.0 
-4.651147298902e-04 1.861621215851e-03 0.0 
1.861621215851e-03 1.612159589752e-02 0.0 
0.0 0.0 0.0 
-2.401988426036e-03 7.248496858308e-04 0.0 
7.248496858308e-04 1.475802247380e-02 0.0 
0.0 0.0 0.0 
-2.473558955752e-03 2.683877005990e-04 0.0 
2.683877005990e-04 1.404144471822e-02 0.0 
0.0 0.0 0.0 
-1.005120979775e-03 -3.493358549636e-04 0.0 
-3.493358549636e-04 2.867713234533e-03 0.0 
0.0 0.0 0.0 
-4.006104248623e-04 1.304673595680e-03 0.0 
1.304673595680e-03 1.634327630868e-02 0.0 
0.0 0.0 0.0 
3.236052449540e-05 -1.974359654140e-03 0.0 
-1.974359654140e-03 1.136595105609e-03 0.0 
0.0 0.0 0.0 
-2.649862905667e-03 6.763511001050e-04 0.0 
6.763511001050e-04 1.386245702953e-02 0.0 
0.0 0.0 0.0 
-2.595167881165e-03 3.837691341014e-04 0.0 
3.837691341014e-04 1.405399162280e-02 0.0 
0.0 0.0 0.0 
-2.279010145807e-03 3.595855750244e-03 0.0 
3.595855750244e-03 1.012032760067e-02 0.0 
0.0 0.0 0.0 
0.0 3.490174269082e-03 0.0 
3.490174269082e-03 1.481282984149e-02 0.0 
0.0 0.0 0.0 
-4.601358867786e-04 1.579739486570e-03 0.0 
1.579739486570e-03 1.624618563266e-02 0.0 
0.0 0.0 0.0 
1.854062631403e-03 -2.503204087577e-04 0.0 
-2.503204087577e-04 -3.857429926126e-04 0.0 
0.0 0.0 0.0 
1.853931366792e-03 -1.102372864913e-04 0.0 
-1.102372864913e-04 -6.778989963290e-04 0.0 
0.0 0.0 0.0 
-2.563005030390e-04 -1.240056720684e-03 0.0 
-1.240056720684e-03 8.864361002747e-04 0.0 
0.0 0.0 0.0 
3.768614846091e-04 -1.890661776652e-03 0.0 
-1.890661776652e-03 1.817430157726e-03 0.0 
0.0 0.0 0.0 
-3.728074444437e-04 -8.633867930149e-05 0.0 
-8.633867930149e-05 5.575609496682e-03 0.0 
0.0 0.0 0.0 
-4.476584087792e-03 -2.039868373649e-03 0.0 
-2.039868373649e-03 -1.571754435348e-03 0.0 
0.0 0.0 0.0 
-1.333298343904e-03 9.829906094176e-05 0.0 
9.829906094176e-05 1.584833065637e-02 0.0 
0.0 0.0 0.0 
-1.752382780681e-03 -1.151998928462e-03 0.0 
-1.151998928462e-03 8.229450248873e-04 0.0 
0.0 0.0 0.0 
3.488005419793e-03 1.895129572423e-04 0.0 
1.895129572423e-04 -5.435097209976e-04 0.0 
0.0 0.0 0.0 
-1.009551182508e-03 -7.425975022325e-04 0.0 
-7.425975022325e-04 1.034011391214e-04 0.0 
0.0 0.0 0.0 
-2.653154825966e-03 -2.316689610505e-03 0.0 
-2.316689610505e-03 -2.629368307667e-04 0.0 
0.0 0.0 0.0 
3.417869852055e-03 -3.899094845525e-04 0.0 
-3.899094845525e-04 -7.834803964722e-04 0.0 
0.0 0.0 0.0 
-2.659802320589e-04 -3.589477783665e-04 0.0 
-3.589477783665e-04 5.161710224232e-03 0.0 
0.0 0.0 0.0 
-1.810727578616e-03 1.552101449960e-04 0.0 
1.552101449960e-04 1.521450280504e-02 0.0 
0.0 0.0 0.0 
-1.221522205798e-03 4.388413631297e-03 0.0 
4.388413631297e-03 8.305765093311e-03 0.0 
0.0 0.0 0.0 
1.525334264101e-03 -1.623100375497e-04 0.0 
-1.623100375497e-04 -2.533925063520e-04 0.0 
0.0 0.0 0.0 
-3.102803341513e-04 -1.028217139902e-03 0.0 
-1.028217139902e-03 3.382881838319e-03 0.0 
0.0 0.0 0.0 
0.0 5.128580287223e-04 0.0 
5.128580287223e-04 1.649882689928e-02 0.0 
0.0 0.0 0.0 
-3.541935337251e-04 5.915625752812e-04 0.0 
5.915625752812e-04 1.649592601413e-02 0.0 
0.0 0.0 0.0 
-2.358201960601e-03 3.381533023258e-04 0.0 
3.381533023258e-04 1.392237189621e-02 0.0 
0.0 0.0 0.0 
3.422116020205e-03 7.532098620680e-04 0.0 
7.532098620680e-04 -1.619991372669e-04 0.0 
0.0 0.0 0.0 
0.0 1.390814625934e-03 0.0 
1.390814625934e-03 1.630451507651e-02 0.0 
0.0 0.0 0.0 
2.010684392248e-03 3.854949039887e-03 0.0 
3.854949039887e-03 3.817270015282e-03 0.0 
0.0 0.0 0.0 
1.602099289020e-03 -1.259260397930e-04 0.0 
-1.259260397930e-04 5.551895234213e-05 0.0 
0.0 0.0 0.0 
2.137919316750e-03 -1.286089097483e-04 0.0 
-1.286089097483e-04 -4.958631941809e-04 0.0 
0.0 0.0 0.0 
1.618423942803e-03 -5.101399404408e-05 0.0 
-5.101399404408e-05 -2.674779918510e-04 0.0 
0.0 0.0 0.0 
-1.155746102382e-03 -1.251403706793e-04 0.0 
-1.251403706793e-04 3.177711494609e-03 0.0 
0.0 0.0 0.0 
-1.227802972059e-04 -3.542145035771e-04 0.0 
-3.542145035771e-04 5.888245685242e-03 0.0 
0.0 0.0 0.0 
-5.974482542683e-04 -8.817851233738e-08 0.0 
-8.817851233738e-08 1.637260300419e-02 0.0 
0.0 0.0 0.0 
2.140042795437e-03 -7.652315600478e-05 0.0 
-7.652315600478e-05 -8.100955167503e-04 0.0 
0.0 0.0 0.0 
-1.173598091743e-03 -1.478542990782e-04 0.0 
-1.478542990782e-04 3.498208703879e-03 0.0 
0.0 0.0 0.0 
0.0 -2.590903049079e-04 0.0 
-2.590903049079e-04 5.961087286404e-03 0.0 
0.0 0.0 0.0 
-1.102570791760e-04 -4.046204970057e-04 0.0 
-4.046204970057e-04 5.790762464363e-03 0.0 
0.0 0.0 0.0 
4.214639393283e-04 5.742859016481e-05 0.0 
5.742859016481e-05 4.711376690961e-03 0.0 
0.0 0.0 0.0 
-1.518469398408e-03 1.031364288139e-04 0.0 
1.031364288139e-04 1.558494616684e-02 0.0 
0.0 0.0 0.0 
-1.200142223496e-03 -1.090773204431e-05 0.0 
-1.090773204431e-05 1.597198846499e-02 0.0 
0.0 0.0 0.0 
0.0 -3.296428179608e-04 0.0 
-3.296428179608e-04 5.839984099250e-03 0.0 
0.0 0.0 0.0 
0.0 -3.919848450536e-04 0.0 
-3.919848450536e-04 5.739419710526e-03 0.0 
0.0 0.0 0.0 
-1.309400511983e-03 1.218228492350e-04 0.0 
1.218228492350e-04 1.584915294409e-02 0.0 
0.0 0.0 0.0 
2.876511671959e-03 -4.653731743152e-06 0.0 
-4.653731743152e-06 -1.108878760754e-03 0.0 
0.0 0.0 0.0 
-2.078389851480e-03 9.672946846876e-05 0.0 
9.672946846876e-05 1.395272694405e-02 0.0 
0.0 0.0 0.0 
-2.266558813288e-03 2.461970065385e-04 0.0 
2.461970065385e-04 1.395944619477e-02 0.0 
0.0 0.0 0.0 
2.018340710735e-03 -8.630281943669e-05 0.0 
-8.630281943669e-05 -7.494099181085e-04 0.0 
0.0 0.0 0.0 
0.0 -3.812878793446e-04 0.0 
-3.812878793446e-04 5.309524998515e-03 0.0 
0.0 0.0 0.0 
2.975404924017e-04 -1.566201623362e-04 0.0 
-1.566201623362e-04 4.844919379776e-03 0.0 
0.0 0.0 0.0 
0.0 -1.736978993724e-04 0.0 
-1.736978993724e-04 4.916164691736e-03 0.0 
0.0 0.0 0.0 
2.709019910328e-03 -6.815850905930e-05 0.0 
-6.815850905930e-05 -9.964796300337e-04 0.0 
0.0 0.0 0.0 
2.541507011200e-03 -9.110528174763e-05 0.0 
-9.110528174763e-05 -9.292326403303e-04 0.0 
0.0 0.0 0.0 
0.0 2.313592564203e-04 0.0 
2.313592564203e-04 4.651026836771e-03 0.0 
0.0 0.0 0.0 
0.0 -2.246614465729e-06 0.0 
-2.246614465729e-06 4.766901952036e-03 0.0 
0.0 0.0 0.0 
-1.612081758896e-03 -2.046714461681e-05 0.0 
-2.046714461681e-05 1.543255948099e-02 0.0 
0.0 0.0 0.0 
-1.980940398370e-03 4.450508938435e-05 0.0 
4.450508938435e-05 1.394366490932e-02 0.0 
0.0 0.0 0.0 
-1.425077594925e-03 -1.495004479127e-05 0.0 
-1.495004479127e-05 1.571932940893e-02 0.0 
0.0 0.0 0.0 
-1.849383190441e-03 -2.813469302795e-05 0.0 
-2.813469302795e-05 1.476039145909e-02 0.0 
0.0 0.0 0.0 
-1.951815611975e-03 1.651512569829e-05 0.0 
1.651512569829e-05 1.393939187065e-02 0.0 
0.0 0.0 0.0 
1.746814002680e-03 -1.993052210973e-04 0.0 
-1.993052210973e-04 -6.057375975324e-04 0.0 
0.0 0.0 0.0 
9.172195661291e-04 -1.732841563226e-04 0.0 
-1.732841563226e-04 -1.995791875072e-04 0.0 
0.0 0.0 0.0 
6.002949516137e-04 -1.685135310129e-04 0.0 
-1.685135310129e-04 -6.740232840030e-05 0.0 
0.0 0.0 0.0 
2.181448122152e-04 -1.364678218108e-04 0.0 
-1.364678218108e-04 1.264087161248e-04 0.0 
0.0 0.0 0.0 
-1.163692354008e-03 -9.786771517550e-05 0.0 
-9.786771517550e-05 3.636908207400e-03 0.0 
0.0 0.0 0.0 
-1.183031401153e-03 -1.149034598088e-04 0.0 
-1.149034598088e-04 3.411975680560e-03 0.0 
0.0 0.0 0.0 
1.845589334173e-04 -1.812767060086e-04 0.0 
-1.812767060086e-04 5.387002482227e-05 0.0 
0.0 0.0 0.0 
-9.306797135581e-04 -5.622736658818e-05 0.0 
-5.622736658818e-05 4.305934236373e-03 0.0 
0.0 0.0 0.0 
-1.438918028021e-04 -1.801770948368e-04 0.0 
-1.801770948368e-04 2.003191295568e-04 0.0 
0.0 0.0 0.0 
0.0 2.846123999823e-03 0.0 
2.846123999823e-03 1.545933061725e-02 0.0 
0.0 0.0 0.0 
0.0 1.156902519879e-03 0.0 
1.156902519879e-03 1.638082515135e-02 0.0 
0.0 0.0 0.0 
0.0 1.950031098391e-03 0.0 
1.950031098391e-03 1.604663227038e-02 0.0 
0.0 0.0 0.0 
4.915990760770e-04 -1.257589437239e-04 0.0 
-1.257589437239e-04 1.054222552896e-03 0.0 
0.0 0.0 0.0 
-8.464607490086e-04 -1.325046507620e-04 0.0 
-1.325046507620e-04 2.570717854754e-03 0.0 
0.0 0.0 0.0 
0.0 9.124958261729e-04 0.0 
9.124958261729e-04 1.642124819499e-02 0.0 
0.0 0.0 0.0 
-5.852464734399e-04 -1.334943455617e-05 0.0 
-1.334943455617e-05 5.142098114580e-03 0.0 
0.0 0.0 0.0 
0.0 7.180608697264e-04 0.0 
7.180608697264e-04 1.649092084935e-02 0.0 
0.0 0.0 0.0 
-4.552627476245e-04 -8.238333685830e-07 0.0 
-8.238333685830e-07 5.444787196593e-03 0.0 
0.0 0.0 0.0 
-3.024752998638e-04 6.870073406236e-06 0.0 
6.870073406236e-06 5.740725519601e-03 0.0 
0.0 0.0 0.0 
-1.169338685584e-03 -1.421958320956e-04 0.0 
-1.421958320956e-04 3.277603581379e-03 0.0 
0.0 0.0 0.0 
-4.306915598650e-04 1.046999221193e-03 0.0 
1.046999221193e-03 1.640194769571e-02 0.0 
0.0 0.0 0.0 
-3.425178051443e-04 8.695550549512e-04 0.0 
8.695550549512e-04 1.644763043291e-02 0.0 
0.0 0.0 0.0 
-5.143602388141e-04 -1.060157503480e-04 0.0 
-1.060157503480e-04 5.258224897983e-03 0.0 
0.0 0.0 0.0 
-3.771990349557e-04 -1.049704833474e-04 0.0 
-1.049704833474e-04 5.576667643346e-03 0.0 
0.0 0.0 0.0 
-5.852202840348e-04 -6.173094596863e-04 0.0 
-6.173094596863e-04 4.154042644162e-03 0.0 
0.0 0.0 0.0 
-1.222357861222e-03 -3.685069156798e-04 0.0 
-3.685069156798e-04 6.068493769795e-04 0.0 
0.0 0.0 0.0 
-6.760740536470e-04 -1.374999636552e-03 0.0 
-1.374999636552e-03 2.511840769093e-03 0.0 
0.0 0.0 0.0 
1.617313206869e-03 -3.321018031085e-04 0.0 
-3.321018031085e-04 -2.723851612495e-04 0.0 
0.0 0.0 0.0 
2.764649519162e-04 -5.435509499451e-04 0.0 
-5.435509499451e-04 4.053855455476e-03 0.0 
0.0 0.0 0.0 
-2.860890104371e-04 -1.718827362511e-03 0.0 
-1.718827362511e-03 2.340883693782e-03 0.0 
0.0 0.0 0.0 
-1.977942278898e-04 -5.531770989491e-04 0.0 
-5.531770989491e-04 4.482258846243e-03 0.0 
0.0 0.0 0.0 
4.058713105493e-05 -1.754918342491e-03 0.0 
-1.754918342491e-03 1.071833716125e-03 0.0 
0.0 0.0 0.0 
4.494779997044e-04 -6.313927597547e-04 0.0 
-6.313927597547e-04 4.997370502182e-04 0.0 
0.0 0.0 0.0 
-2.799584113637e-04 -4.705591963941e-04 0.0 
-4.705591963941e-04 4.850080257051e-03 0.0 
0.0 0.0 0.0 
-6.795136591996e-04 -1.316234520142e-03 0.0 
-1.316234520142e-03 2.730177637769e-03 0.0 
0.0 0.0 0.0 
-1.097774732924e-03 -3.748431929755e-04 0.0 
-3.748431929755e-04 3.025231350955e-03 0.0 
0.0 0.0 0.0 
-3.405834394282e-04 -5.587233896312e-04 0.0 
-5.587233896312e-04 4.484038849760e-03 0.0 
0.0 0.0 0.0 
-9.072570499647e-04 4.101161931849e-04 0.0 
4.101161931849e-04 1.615870929155e-02 0.0 
0.0 0.0 0.0 
-1.103027529210e-03 -1.221406435468e-04 0.0 
-1.221406435468e-04 3.030013150503e-03 0.0 
0.0 0.0 0.0 
1.862908629664e-03 -5.415289249711e-04 0.0 
-5.415289249711e-04 1.277086043067e-03 0.0 
0.0 0.0 0.0 
7.734394253827e-04 -1.385221084327e-03 0.0 
-1.385221084327e-03 2.206814120366e-03 0.0 
0.0 0.0 0.0 
-4.254657722149e-04 -6.627958759964e-04 0.0 
-6.627958759964e-04 4.160105799857e-03 0.0 
0.0 0.0 0.0 
-5.372067101639e-04 -4.807208936879e-04 0.0 
-4.807208936879e-04 4.463034371312e-03 0.0 
0.0 0.0 0.0 
5.034966922804e-03 2.046473712021e-03 0.0 
2.046473712021e-03 -3.191114111131e-03 0.0 
0.0 0.0 0.0 
-1.396598513216e-03 4.255601372771e-03 0.0 
4.255601372771e-03 8.213556381935e-03 0.0 
0.0 0.0 0.0 
2.402915440467e-03 4.066498848008e-03 0.0 
4.066498848008e-03 1.682781922366e-03 0.0 
0.0 0.0 0.0 
-7.764174321512e-05 -1.062307841747e-03 0.0 
-1.062307841747e-03 3.386754213859e-03 0.0 
0.0 0.0 0.0 
-4.192529895696e-04 -4.297704407609e-04 0.0 
-4.297704407609e-04 4.816838774754e-03 0.0 
0.0 0.0 0.0 
-6.019930053874e-04 -3.146774658382e-04 0.0 
-3.146774658382e-04 4.718824166158e-03 0.0 
0.0 0.0 0.0 
2.903956572695e-04 -2.439674513488e-03 0.0 
-2.439674513488e-03 6.460875101946e-04 0.0 
0.0 0.0 0.0 
-9.946637551620e-04 7.152140478561e-04 0.0 
7.152140478561e-04 1.612612953287e-02 0.0 
0.0 0.0 0.0 
-1.280756776887e-03 6.085405808178e-04 0.0 
6.085405808178e-04 1.592600932456e-02 0.0 
0.0 0.0 0.0 
-1.990095464488e-03 1.919650532842e-04 0.0 
1.919650532842e-04 1.450906030169e-02 0.0 
0.0 0.0 0.0 
1.861299451766e-04 -1.039155741826e-03 0.0 
-1.039155741826e-03 3.271686761893e-03 0.0 
0.0 0.0 0.0 
-2.721582670279e-04 -8.583541012243e-04 0.0 
-8.583541012243e-04 3.797823231473e-03 0.0 
0.0 0.0 0.0 
-1.026048461004e-03 4.066350947960e-04 0.0 
4.066350947960e-04 1.616204988395e-02 0.0 
0.0 0.0 0.0 
-1.126516052213e-03 5.309015050269e-04 0.0 
5.309015050269e-04 1.605246308505e-02 0.0 
0.0 0.0 0.0 
7.637867509074e-04 -1.594488777615e-03 0.0 
-1.594488777615e-03 1.614666989788e-03 0.0 
0.0 0.0 0.0 
-3.292042862051e-04 -3.742746150538e-04 0.0 
-3.742746150538e-04 5.163215961107e-03 0.0 
0.0 0.0 0.0 
-1.545377555026e-03 1.163426168488e-03 0.0 
1.163426168488e-03 1.579332862471e-02 0.0 
0.0 0.0 0.0 
-6.597757265039e-04 -2.630287321071e-04 0.0 
-2.630287321071e-04 4.718872777926e-03 0.0 
0.0 0.0 0.0 
1.125120880703e-04 -5.211162283230e-04 0.0 
-5.211162283230e-04 4.526576307255e-03 0.0 
0.0 0.0 0.0 
-1.129826479504e-03 7.174250535611e-04 0.0 
7.174250535611e-04 1.612669013052e-02 0.0 
0.0 0.0 0.0 
-1.837562601950e-03 5.268628364154e-04 0.0 
5.268628364154e-04 1.553972359433e-02 0.0 
0.0 0.0 0.0 
1.663123656422e-03 -9.059208492082e-04 0.0 
-9.059208492082e-04 1.234369828798e-03 0.0 
0.0 0.0 0.0 
-4.010218808864e-04 -8.606392375123e-04 0.0 
-8.606392375123e-04 1.824292034664e-03 0.0 
0.0 0.0 0.0 
3.571054725842e-04 -2.594839908932e-03 0.0 
-2.594839908932e-03 4.006019559850e-04 0.0 
0.0 0.0 0.0 
1.423627330821e-05 -1.071006180783e-03 0.0 
-1.071006180783e-03 7.894700464270e-04 0.0 
0.0 0.0 0.0 
-1.230083506206e-03 -1.904576819490e-03 0.0 
-1.904576819490e-03 4.741030075475e-04 0.0 
0.0 0.0 0.0 
-1.220052941990e-03 5.166279233880e-04 0.0 
5.166279233880e-04 1.605407279461e-02 0.0 
0.0 0.0 0.0 
-3.813031844649e-04 -3.048205116213e-04 0.0 
-3.048205116213e-04 5.100190972074e-03 0.0 
0.0 0.0 0.0 
-7.932644588196e-04 -1.172858376392e-03 0.0 
-1.172858376392e-03 5.795141127602e-04 0.0 
0.0 0.0 0.0 
-1.312135928021e-03 4.018642704525e-03 0.0 
4.018642704525e-03 1.281519234877e-02 0.0 
0.0 0.0 0.0 
-2.012466101657e-03 2.678962744472e-04 0.0 
2.678962744472e-04 1.470425303321e-02 0.0 
0.0 0.0 0.0 
-2.259442112211e-04 -7.047947696470e-04 0.0 
-7.047947696470e-04 4.098835365418e-03 0.0 
0.0 0.0 0.0 
-4.528448971753e-04 -3.843360941023e-04 0.0 
-3.843360941023e-04 4.772780420066e-03 0.0 
0.0 0.0 0.0 
1.748891130695e-03 -2.651646178682e-03 0.0 
-2.651646178682e-03 -4.808441806211e-04 0.0 
0.0 0.0 0.0 
-5.601004996340e-04 -3.693911794667e-04 0.0 
-3.693911794667e-04 4.771185840520e-03 0.0 
0.0 0.0 0.0 
-2.084619050278e-03 1.470642283239e-04 0.0 
1.470642283239e-04 1.450807503671e-02 0.0 
0.0 0.0 0.0 
3.306408452013e-03 2.193860895046e-03 0.0 
2.193860895046e-03 7.550581270064e-04 0.0 
0.0 0.0 0.0 
4.796484542569e-05 -4.230543342237e-04 0.0 
-4.230543342237e-04 4.942686989807e-03 0.0 
0.0 0.0 0.0 
-3.451050801079e-04 -4.843145301689e-04 0.0 
-4.843145301689e-04 1.851942278278e-03 0.0 
0.0 0.0 0.0 
3.920761794862e-04 -4.460643537067e-04 0.0 
-4.460643537067e-04 4.120094155912e-03 0.0 
0.0 0.0 0.0 
-1.662390910941e-03 4.836533530657e-04 0.0 
4.836533530657e-04 1.568821812956e-02 0.0 
0.0 0.0 0.0 
-5.488910553690e-04 -7.184107513862e-04 0.0 
-7.184107513862e-04 2.078394985792e-03 0.0 
0.0 0.0 0.0 
6.089131906766e-04 -2.692854176200e-03 0.0 
-2.692854176200e-03 1.898414635142e-04 0.0 
0.0 0.0 0.0 
-9.431901649847e-04 -6.629534581958e-04 0.0 
-6.629534581958e-04 3.680052250007e-03 0.0 
0.0 0.0 0.0 
-1.965635105061e-03 5.595201716333e-04 0.0 
5.595201716333e-04 1.521147936891e-02 0.0 
0.0 0.0 0.0 
-3.338396642198e-04 -1.829050571108e-03 0.0 
-1.829050571108e-03 1.978871260363e-03 0.0 
0.0 0.0 0.0 
-1.484386639358e-03 4.275698771514e-04 0.0 
4.275698771514e-04 1.583264999481e-02 0.0 
0.0 0.0 0.0 
-1.836752439533e-03 3.670368904973e-04 0.0 
3.670368904973e-04 1.540281921100e-02 0.0 
0.0 0.0 0.0 
-4.687135107334e-04 -1.346462321835e-03 0.0 
-1.346462321835e-03 2.982821060843e-03 0.0 
0.0 0.0 0.0 
-6.486124828833e-04 -4.315743576270e-04 0.0 
-4.315743576270e-04 4.459675319906e-03 0.0 
0.0 0.0 0.0 
-4.997418592171e-04 -5.217741163517e-04 0.0 
-5.217741163517e-04 4.471250705667e-03 0.0 
0.0 0.0 0.0 
-1.516230283496e-03 4.962614502263e-04 0.0 
4.962614502263e-04 1.568568776710e-02 0.0 
0.0 0.0 0.0 
3.528492502158e-05 -8.370728668472e-04 0.0 
-8.370728668472e-04 1.293397816592e-03 0.0 
0.0 0.0 0.0 
-7.066109448289e-04 -1.203453234242e-03 0.0 
-1.203453234242e-03 3.115932101833e-03 0.0 
0.0 0.0 0.0 
2.072781892013e-03 3.270402018401e-03 0.0 
3.270402018401e-03 3.254427073630e-03 0.0 
0.0 0.0 0.0 
-1.632574812743e-03 6.661902548871e-04 0.0 
6.661902548871e-04 1.579544198519e-02 0.0 
0.0 0.0 0.0 
-7.453816064654e-04 -1.287806616358e-03 0.0 
-1.287806616358e-03 2.897714987872e-03 0.0 
0.0 0.0 0.0 
4.378614112666e-04 -1.419504328134e-03 0.0 
-1.419504328134e-03 2.214470494802e-03 0.0 
0.0 0.0 0.0 
6.142338455148e-04 -4.164499878070e-04 0.0 
-4.164499878070e-04 3.640519530492e-03 0.0 
0.0 0.0 0.0 
-1.676671486079e-03 5.353335273447e-04 0.0 
5.353335273447e-04 1.553818887263e-02 0.0 
0.0 0.0 0.0 
1.744243842140e-03 -8.442590953679e-04 0.0 
-8.442590953679e-04 -4.522574335056e-03 0.0 
0.0 0.0 0.0 
3.781286648434e-04 -7.328534863568e-04 0.0 
-7.328534863568e-04 6.283357048837e-04 0.0 
0.0 0.0 0.0 
3.820712077079e-03 2.713636987960e-04 0.0 
2.713636987960e-04 -4.057078445522e-03 0.0 
0.0 0.0 0.0 
-3.143415890132e-04 -4.271564547265e-04 0.0 
-4.271564547265e-04 4.815846047868e-03 0.0 
0.0 0.0 0.0 
-1.825786225829e-03 5.551869595424e-04 0.0 
5.551869595424e-04 1.538012331491e-02 0.0 
0.0 0.0 0.0 
-9.718590264223e-04 -4.511016058513e-04 0.0 
-4.511016058513e-04 3.889330311492e-03 0.0 
0.0 0.0 0.0 
-2.053844011164e-03 3.920366416366e-04 0.0 
3.920366416366e-04 1.488217744000e-02 0.0 
0.0 0.0 0.0 
1.626260951677e-03 1.256708668353e-04 0.0 
1.256708668353e-04 2.199607282254e-03 0.0 
0.0 0.0 0.0 
-6.442430441231e-04 -1.086359902942e-03 0.0 
-1.086359902942e-03 3.348355989105e-03 0.0 
0.0 0.0 0.0 
-3.583321604087e-04 -5.375430315291e-04 0.0 
-5.375430315291e-04 4.472836577485e-03 0.0 
0.0 0.0 0.0 
-2.371848163746e-04 -5.926640062662e-04 0.0 
-5.926640062662e-04 1.779845635871e-03 0.0 
0.0 0.0 0.0 
2.080195054401e-04 -4.543423855720e-04 0.0 
-4.543423855720e-04 4.529308923721e-03 0.0 
0.0 0.0 0.0 
-6.530308440542e-04 -1.222990330675e-03 0.0 
-1.222990330675e-03 2.964514549612e-03 0.0 
0.0 0.0 0.0 
-4.090494473160e-04 -4.443380294776e-04 0.0 
-4.443380294776e-04 2.034935142878e-03 0.0 
0.0 0.0 0.0 
-8.426300743518e-04 -1.045452287402e-03 0.0 
-1.045452287402e-03 3.091021818616e-03 0.0 
0.0 0.0 0.0 
-5.581335333666e-04 -1.592410913774e-03 0.0 
-1.592410913774e-03 2.340477004573e-03 0.0 
0.0 0.0 0.0 
-1.497248054689e-04 -1.771334827126e-03 0.0 
-1.771334827126e-03 1.441556390878e-03 0.0 
0.0 0.0 0.0 
-8.608417759119e-04 -5.761670289185e-04 0.0 
-5.761670289185e-04 3.912481522531e-03 0.0 
0.0 0.0 0.0 
1.075704321843e-03 -1.461714785385e-04 0.0 
-1.461714785385e-04 -3.247149155681e-04 0.0 
0.0 0.0 0.0 
6.476647360651e-04 -2.064326489824e-04 0.0 
-2.064326489824e-04 -1.480041598066e-04 0.0 
0.0 0.0 0.0 
-4.663441898268e-04 -8.184413512495e-04 0.0 
-8.184413512495e-04 3.792838433527e-03 0.0 
0.0 0.0 0.0 
-5.784193817082e-05 -7.076948133913e-04 0.0 
-7.076948133913e-04 1.530736216747e-03 0.0 
0.0 0.0 0.0 
-7.303830695538e-05 -1.039957732569e-03 0.0 
-1.039957732569e-03 3.273338770768e-03 0.0 
0.0 0.0 0.0 
1.587937322505e-04 -1.231101331179e-03 0.0 
-1.231101331179e-03 2.769179311802e-03 0.0 
0.0 0.0 0.0 
3.128499234188e-04 -2.185663043228e-03 0.0 
-2.185663043228e-03 1.426807274908e-03 0.0 
0.0 0.0 0.0 
1.915931857505e-03 -3.006545976420e-03 0.0 
-3.006545976420e-03 -9.382266475730e-04 0.0 
0.0 0.0 0.0 
-1.536222751851e-03 1.120483881335e-03 0.0 
1.120483881335e-03 1.592851972944e-02 0.0 
0.0 0.0 0.0 
1.597499951272e-03 3.315831847602e-03 0.0 
3.315831847602e-03 -3.042007686192e-03 0.0 
0.0 0.0 0.0 
-7.489086086043e-04 -1.339221778032e-03 0.0 
-1.339221778032e-03 2.658974059452e-03 0.0 
0.0 0.0 0.0 
1.562574387611e-03 5.417676511805e-04 0.0 
5.417676511805e-04 2.451438199500e-03 0.0 
0.0 0.0 0.0 
-5.758815687373e-05 -6.794300008273e-04 0.0 
-6.794300008273e-04 1.399065038628e-03 0.0 
0.0 0.0 0.0 
-2.110744329320e-03 4.018351633254e-04 0.0 
4.018351633254e-04 1.506768116171e-02 0.0 
0.0 0.0 0.0 
-2.163591682150e-03 2.510397813327e-04 0.0 
2.510397813327e-04 1.470718281509e-02 0.0 
0.0 0.0 0.0 
4.659040130117e-05 -1.444757470214e-03 0.0 
-1.444757470214e-03 9.918742489283e-04 0.0 
0.0 0.0 0.0 
8.981532717807e-04 -3.626910449269e-04 0.0 
-3.626910449269e-04 3.094075280557e-03 0.0 
0.0 0.0 0.0 
-2.032630991684e-03 9.854101591680e-04 0.0 
9.854101591680e-04 1.558357237901e-02 0.0 
0.0 0.0 0.0 
-2.817168522293e-04 -9.836766950337e-04 0.0 
-9.836766950337e-04 1.588473723461e-03 0.0 
0.0 0.0 0.0 
-1.468291194635e-03 1.385591134984e-03 0.0 
1.385591134984e-03 1.595134424503e-02 0.0 
0.0 0.0 0.0 
-1.220342820327e-03 1.367452352162e-03 0.0 
1.367452352162e-03 1.595266529713e-02 0.0 
0.0 0.0 0.0 
-2.106285320695e-04 -1.063305823424e-03 0.0 
-1.063305823424e-03 1.610648065589e-03 0.0 
0.0 0.0 0.0 
8.347930587016e-05 4.106582297155e-03 0.0 
4.106582297155e-03 3.523241806880e-03 0.0 
0.0 0.0 0.0 
-8.301101359209e-05 -1.599209999294e-03 0.0 
-1.599209999294e-03 1.309216281229e-03 0.0 
0.0 0.0 0.0 
-3.972771301366e-04 -6.842935673070e-04 0.0 
-6.842935673070e-04 4.127078268532e-03 0.0 
0.0 0.0 0.0 
-7.734075254796e-04 -8.258942077468e-04 0.0 
-8.258942077468e-04 3.654997978732e-03 0.0 
0.0 0.0 0.0 
-1.297053657619e-03 3.492177678857e-03 0.0 
3.492177678857e-03 1.385822007482e-02 0.0 
0.0 0.0 0.0 
-1.322330513396e-03 1.098273809045e-03 0.0 
1.098273809045e-03 1.593039011752e-02 0.0 
0.0 0.0 0.0 
-2.580753959313e-04 -8.559297881452e-04 0.0 
-8.559297881452e-04 3.726358827410e-03 0.0 
0.0 0.0 0.0 
-4.725340952649e-05 -8.660781900910e-04 0.0 
-8.660781900910e-04 3.726677188245e-03 0.0 
0.0 0.0 0.0 
-1.833242650897e-04 -1.547690720697e-03 0.0 
-1.547690720697e-03 1.175486271037e-03 0.0 
0.0 0.0 0.0 
-2.356533419903e-04 -7.018835813717e-04 0.0 
-7.018835813717e-04 4.128824011207e-03 0.0 
0.0 0.0 0.0 
-1.796598852117e-03 9.551073412065e-04 0.0 
9.551073412065e-04 1.558630623897e-02 0.0 
0.0 0.0 0.0 
-8.991377140087e-04 -6.980023392213e-04 0.0 
-6.980023392213e-04 3.635940350224e-03 0.0 
0.0 0.0 0.0 
-2.003817429645e-03 5.549402979392e-04 0.0 
5.549402979392e-04 1.538075466090e-02 0.0 
0.0 0.0 0.0 
-1.817252562121e-03 9.382207905621e-04 0.0 
9.382207905621e-04 1.573583660107e-02 0.0 
0.0 0.0 0.0 
4.752752275855e-03 2.534643003634e-03 0.0 
2.534643003634e-03 -2.192156315184e-03 0.0 
0.0 0.0 0.0 
-1.398220425083e-03 8.717440044580e-04 0.0 
8.717440044580e-04 1.587896772837e-02 0.0 
0.0 0.0 0.0 
-8.984044793758e-04 -1.026650148243e-03 0.0 
-1.026650148243e-03 3.206998190618e-03 0.0 
0.0 0.0 0.0 
-8.000612843176e-04 -9.561360060042e-04 0.0 
-9.561360060042e-04 3.328844176380e-03 0.0 
0.0 0.0 0.0 
-7.256223799126e-04 -1.346198663559e-03 0.0 
-1.346198663559e-03 2.459545543525e-03 0.0 
0.0 0.0 0.0 
7.126358908207e-04 -2.508038683907e-03 0.0 
-2.508038683907e-03 4.675401021013e-04 0.0 
0.0 0.0 0.0 
-1.815270621852e-03 7.367815260979e-04 0.0 
7.367815260979e-04 1.549769342681e-02 0.0 
0.0 0.0 0.0 
1.626280826687e-03 -2.049458530879e-03 0.0 
-2.049458530879e-03 -4.533423771380e-05 0.0 
0.0 0.0 0.0 
-2.375015830509e-04 -1.420827292092e-03 0.0 
-1.420827292092e-03 1.582082108304e-03 0.0 
0.0 0.0 0.0 
9.894659656728e-05 -1.052785429960e-03 0.0 
-1.052785429960e-03 8.615591002332e-04 0.0 
0.0 0.0 0.0 
-2.024172101949e-03 7.525637993108e-04 0.0 
7.525637993108e-04 1.549656285701e-02 0.0 
0.0 0.0 0.0 
-3.029342627014e-04 -1.653487463342e-03 0.0 
-1.653487463342e-03 1.618519081173e-03 0.0 
0.0 0.0 0.0 
5.061358316361e-04 -3.423766530290e-04 0.0 
-3.423766530290e-04 4.109418632594e-03 0.0 
0.0 0.0 0.0 
-1.642268071032e-03 7.119669642392e-04 0.0 
7.119669642392e-04 1.565133918769e-02 0.0 
0.0 0.0 0.0 
-2.698974050008e-05 -6.912460640882e-04 0.0 
-6.912460640882e-04 4.095633662363e-03 0.0 
0.0 0.0 0.0 
6.835796069888e-04 1.602474665242e-03 0.0 
1.602474665242e-03 3.755212247154e-03 0.0 
0.0 0.0 0.0 
-8.475215769670e-04 -1.106776422713e-03 0.0 
-1.106776422713e-03 2.860890764415e-03 0.0 
0.0 0.0 0.0 
-3.567252982283e-04 -1.312420348750e-03 0.0 
-1.312420348750e-03 1.649966793313e-03 0.0 
0.0 0.0 0.0 
-1.781294635298e-04 -1.209584672750e-03 0.0 
-1.209584672750e-03 9.917166559303e-04 0.0 
0.0 0.0 0.0 
1.798318114117e-04 -1.006490141449e-03 0.0 
-1.006490141449e-03 3.162792888472e-03 0.0 
0.0 0.0 0.0 
-1.835531907164e-03 4.101265814020e-04 0.0 
4.101265814020e-04 1.524196199413e-02 0.0 
0.0 0.0 0.0 
1.037978035145e-05 -9.139637059971e-04 0.0 
-9.139637059971e-04 6.780344362749e-04 0.0 
0.0 0.0 0.0 
-4.292925341250e-04 -1.632156076321e-03 0.0 
-1.632156076321e-03 1.949194633392e-03 0.0 
0.0 0.0 0.0 
1.205892206868e-05 -3.200831389259e-04 0.0 
-3.200831389259e-04 1.572678047570e-03 0.0 
0.0 0.0 0.0 
-2.159191163004e-03 5.712156758085e-04 0.0 
5.712156758085e-04 1.521077393153e-02 0.0 
0.0 0.0 0.0 
-6.454412420224e-04 -1.389481662048e-03 0.0 
-1.389481662048e-03 2.309936122019e-03 0.0 
0.0 0.0 0.0 
4.591456306331e-04 -1.216275896176e-03 0.0 
-1.216275896176e-03 2.764946640131e-03 0.0 
0.0 0.0 0.0 
-7.534290106854e-04 -1.097136857171e-03 0.0 
-1.097136857171e-03 2.433635226160e-03 0.0 
0.0 0.0 0.0 
-1.426741673578e-03 6.025395545651e-04 0.0 
6.025395545651e-04 1.592741284613e-02 0.0 
0.0 0.0 0.0 
-3.315532105010e-04 -1.778186308523e-03 0.0 
-1.778186308523e-03 1.808528036642e-03 0.0 
0.0 0.0 0.0 
6.844853249175e-04 -1.024256666616e-03 0.0 
-1.024256666616e-03 2.529571054993e-03 0.0 
0.0 0.0 0.0 
3.229866467052e-04 -2.513563328538e-03 0.0 
-2.513563328538e-03 3.880802129181e-04 0.0 
0.0 0.0 0.0 
4.394541437502e-04 -1.162592676796e-03 0.0 
-1.162592676796e-03 2.626634742124e-03 0.0 
0.0 0.0 0.0 
-9.652231623771e-04 -7.703984586979e-04 0.0 
-7.703984586979e-04 3.405347642671e-03 0.0 
0.0 0.0 0.0 
1.915581522296e-04 -8.316655132185e-04 0.0 
-8.316655132185e-04 3.649778896162e-03 0.0 
0.0 0.0 0.0 
4.971360390325e-03 -3.298637254683e-04 0.0 
-3.298637254683e-04 -3.615795278749e-03 0.0 
0.0 0.0 0.0 
-2.020198624665e-04 -5.985589315853e-04 0.0 
-5.985589315853e-04 1.646374388308e-03 0.0 
0.0 0.0 0.0 
-2.068382263634e-03 2.674096903549e-04 0.0 
2.674096903549e-04 1.490810879908e-02 0.0 
0.0 0.0 0.0 
3.139557904276e-03 -1.716987909323e-04 0.0 
-1.716987909323e-04 -4.878921554564e-04 0.0 
0.0 0.0 0.0 
1.015440462832e-03 4.508022517812e-03 0.0 
4.508022517812e-03 3.380789442940e-03 0.0 
0.0 0.0 0.0 
-1.980722900848e-03 3.921536234093e-04 0.0 
3.921536234093e-04 1.524258850812e-02 0.0 
0.0 0.0 0.0 
7.635808132778e-04 -2.877124559302e-03 0.0 
-2.877124559302e-03 -1.968119524164e-04 0.0 
0.0 0.0 0.0 
-2.158821183900e-03 9.955345151131e-04 0.0 
9.955345151131e-04 1.524120924051e-02 0.0 
0.0 0.0 0.0 
1.714762431688e-04 -4.412794969319e-04 0.0 
-4.412794969319e-04 1.301001411578e-03 0.0 
0.0 0.0 0.0 
5.063745166729e-04 -5.815493407295e-04 0.0 
-5.815493407295e-04 3.585436171005e-03 0.0 
0.0 0.0 0.0 
3.172135309576e-03 4.155782071874e-04 0.0 
4.155782071874e-04 -1.099693465519e-04 0.0 
0.0 0.0 0.0 
2.929600752922e-03 2.628027303510e-03 0.0 
2.628027303510e-03 1.611237473910e-03 0.0 
0.0 0.0 0.0 
-1.183556229326e-03 1.297761980099e-03 0.0 
1.297761980099e-03 1.608125899596e-02 0.0 
0.0 0.0 0.0 
1.567158318056e-03 -1.821951599782e-03 0.0 
-1.821951599782e-03 3.069245005172e-04 0.0 
0.0 0.0 0.0 
-1.925962131887e-04 -1.083245693382e-03 0.0 
-1.083245693382e-03 1.349793579488e-03 0.0 
0.0 0.0 0.0 
1.093249577496e-03 -1.450310934267e-03 0.0 
-1.450310934267e-03 1.416983730753e-03 0.0 
0.0 0.0 0.0 
7.536453020427e-04 -2.961492299889e-04 0.0 
-2.961492299889e-04 3.621052819623e-03 0.0 
0.0 0.0 0.0 
1.689404776134e-03 -2.888568669127e-03 0.0 
-2.888568669127e-03 -1.044622537210e-03 0.0 
0.0 0.0 0.0 
-4.272347130763e-05 -8.534566143722e-04 0.0 
-8.534566143722e-04 3.654461058582e-03 0.0 
0.0 0.0 0.0 
-1.832414263634e-03 7.152460754467e-04 0.0 
7.152460754467e-04 1.565160541208e-02 0.0 
0.0 0.0 0.0 
2.373378267653e-03 -3.055784167676e-03 0.0 
-3.055784167676e-03 -1.527682594100e-03 0.0 
0.0 0.0 0.0 
7.422507272079e-04 -1.313777972560e-03 0.0 
-1.313777972560e-03 2.044442479777e-03 0.0 
0.0 0.0 0.0 
-2.416237111982e-03 5.802089434722e-04 0.0 
5.802089434722e-04 1.483491572691e-02 0.0 
0.0 0.0 0.0 
-5.563883596662e-04 -7.295671522716e-04 0.0 
-7.295671522716e-04 2.157628485370e-03 0.0 
0.0 0.0 0.0 
-1.947147814123e-04 -1.865405979178e-03 0.0 
-1.865405979178e-03 1.575797038860e-03 0.0 
0.0 0.0 0.0 
1.441047475851e-03 4.487813623381e-03 0.0 
4.487813623381e-03 3.699383769787e-03 0.0 
0.0 0.0 0.0 
4.497043688214e-04 -9.741817236100e-04 0.0 
-9.741817236100e-04 3.156223767408e-03 0.0 
0.0 0.0 0.0 
-9.542791193451e-05 4.430663424577e-03 0.0 
4.430663424577e-03 5.249719698223e-03 0.0 
0.0 0.0 0.0 
1.900350864959e-03 4.288837382708e-03 0.0 
4.288837382708e-03 2.662103985841e-03 0.0 
0.0 0.0 0.0 
-1.983550511543e-03 9.774684685728e-04 0.0 
9.774684685728e-04 1.542032961445e-02 0.0 
0.0 0.0 0.0 
-1.948648991775e-03 4.089167630856e-04 0.0 
4.089167630856e-04 1.506631378519e-02 0.0 
0.0 0.0 0.0 
-2.269703057893e-03 7.397871951800e-04 0.0 
7.397871951800e-04 1.497642614871e-02 0.0 
0.0 0.0 0.0 
-8.449813461182e-04 -9.357640243261e-04 0.0 
-9.357640243261e-04 3.440057334495e-03 0.0 
0.0 0.0 0.0 
1.228160775545e-03 -3.157012474355e-04 0.0 
-3.157012474355e-04 2.551931060062e-03 0.0 
0.0 0.0 0.0 
1.492910979177e-03 -1.553249707642e-03 0.0 
-1.553249707642e-03 7.531380262384e-04 0.0 
0.0 0.0 0.0 
-2.232580625412e-03 4.010454414914e-04 0.0 
4.010454414914e-04 1.488173157945e-02 0.0 
0.0 0.0 0.0 
-1.022931866962e-03 4.317439959453e-03 0.0 
4.317439959453e-03 1.229427177724e-02 0.0 
0.0 0.0 0.0 
2.522342540257e-03 2.998722333548e-03 0.0 
2.998722333548e-03 2.492063164475e-03 0.0 
0.0 0.0 0.0 
7.492687878168e-04 -1.112796544362e-03 0.0 
-1.112796544362e-03 2.617130603432e-03 0.0 
0.0 0.0 0.0 
-1.600379871772e-03 9.197336831768e-04 0.0 
9.197336831768e-04 1.573725714741e-02 0.0 
0.0 0.0 0.0 
3.779007703977e-04 -2.303831431208e-03 0.0 
-2.303831431208e-03 9.447500264024e-04 0.0 
0.0 0.0 0.0 
5.399496261771e-05 -2.121202059240e-03 0.0 
-2.121202059240e-03 1.294547183627e-03 0.0 
0.0 0.0 0.0 
3.638103477233e-05 -1.332939480151e-03 0.0 
-1.332939480151e-03 1.141156846113e-03 0.0 
0.0 0.0 0.0 
1.399074854503e-03 -1.219268726002e-03 0.0 
-1.219268726002e-03 1.283029957105e-03 0.0 
0.0 0.0 0.0 
-2.205733144161e-04 -1.883597848774e-03 0.0 
-1.883597848774e-03 1.714347662204e-03 0.0 
0.0 0.0 0.0 
-2.205911286593e-03 7.789004982121e-04 0.0 
7.789004982121e-04 1.533104458859e-02 0.0 
0.0 0.0 0.0 
-2.376647880786e-03 8.009171547580e-04 0.0 
8.009171547580e-04 1.515402375175e-02 0.0 
0.0 0.0 0.0 
4.945331263553e-03 1.400234838459e-03 0.0 
1.400234838459e-03 -2.384959465193e-03 0.0 
0.0 0.0 0.0 
1.659627512576e-04 -2.236668783329e-03 0.0 
-2.236668783329e-03 1.217606195500e-03 0.0 
0.0 0.0 0.0 
4.821195863042e-03 2.133676464169e-03 0.0 
2.133676464169e-03 -3.341212624983e-03 0.0 
0.0 0.0 0.0 
-8.927727449426e-05 -2.045322251618e-03 0.0 
-2.045322251618e-03 1.603038956417e-03 0.0 
0.0 0.0 0.0 
2.435819705633e-04 -2.251847173471e-03 0.0 
-2.251847173471e-03 1.313570163613e-03 0.0 
0.0 0.0 0.0 
-2.465769046029e-04 -1.451039334344e-03 0.0 
-1.451039334344e-03 1.405171638977e-03 0.0 
0.0 0.0 0.0 
1.591621901045e-03 -2.403968335219e-04 0.0 
-2.403968335219e-04 1.986229490821e-03 0.0 
0.0 0.0 0.0 
1.603981688186e-03 -2.314589923734e-03 0.0 
-2.314589923734e-03 1.078759227284e-04 0.0 
0.0 0.0 0.0 
-1.592610855774e-03 8.764410736689e-04 0.0 
8.764410736689e-04 1.587908702325e-02 0.0 
0.0 0.0 0.0 
2.076377557680e-03 -2.126745302554e-03 0.0 
-2.126745302554e-03 -3.077984638227e-04 0.0 
0.0 0.0 0.0 
1.486573697411e-03 -1.337861078974e-03 0.0 
-1.337861078974e-03 1.397541312781e-03 0.0 
0.0 0.0 0.0 
1.561625315205e-03 -1.882545943003e-03 0.0 
-1.882545943003e-03 5.828383432551e-04 0.0 
0.0 0.0 0.0 
3.026515692168e-03 3.837013686742e-03 0.0 
3.837013686742e-03 8.811201492320e-04 0.0 
0.0 0.0 0.0 
-7.900525868343e-05 -1.208124497321e-03 0.0 
-1.208124497321e-03 1.363907797476e-03 0.0 
0.0 0.0 0.0 
1.084592582433e-03 -2.435421923466e-04 0.0 
-2.435421923466e-04 3.070471852212e-03 0.0 
0.0 0.0 0.0 
9.448840385005e-04 -1.355608687345e-04 0.0 
-1.355608687345e-04 3.289068863092e-03 0.0 
0.0 0.0 0.0 
9.046629517977e-04 4.597787163221e-03 0.0 
4.597787163221e-03 5.435185838129e-03 0.0 
0.0 0.0 0.0 
6.552514736855e-04 -2.381226506527e-03 0.0 
-2.381226506527e-03 9.550428728478e-04 0.0 
0.0 0.0 0.0 
1.522614947548e-03 -1.632927459934e-03 0.0 
-1.632927459934e-03 9.560853064270e-04 0.0 
0.0 0.0 0.0 
-1.979142236939e-03 7.486894650252e-04 0.0 
7.486894650252e-04 1.533378515423e-02 0.0 
0.0 0.0 0.0 
6.328917543974e-05 -2.076516777575e-03 0.0 
-2.076516777575e-03 1.411545816362e-03 0.0 
0.0 0.0 0.0 
1.563657194408e-03 4.247859290368e-03 0.0 
4.247859290368e-03 2.457214134236e-03 0.0 
0.0 0.0 0.0 
-3.560485565803e-04 -1.561762514165e-03 0.0 
-1.561762514165e-03 1.775263251654e-03 0.0 
0.0 0.0 0.0 
1.385669275040e-03 -3.078130155219e-03 0.0 
-3.078130155219e-03 -9.240312104022e-04 0.0 
0.0 0.0 0.0 
7.678325602523e-04 -2.398358991575e-03 0.0 
-2.398358991575e-03 5.384690101631e-04 0.0 
0.0 0.0 0.0 
-4.703847023215e-04 -1.476137906738e-03 0.0 
-1.476137906738e-03 1.916453267334e-03 0.0 
0.0 0.0 0.0 
-3.778935055907e-04 -8.989952548798e-04 0.0 
-8.989952548798e-04 1.883667952269e-03 0.0 
0.0 0.0 0.0 
1.180313046886e-03 -1.973827886776e-03 0.0 
-1.973827886776e-03 5.990707489820e-04 0.0 
0.0 0.0 0.0 
1.099843727424e-03 -1.235825255914e-03 0.0 
-1.235825255914e-03 2.030391362175e-03 0.0 
0.0 0.0 0.0 
5.207506775069e-04 4.553569581717e-03 0.0 
4.553569581717e-03 7.343210634137e-03 0.0 
0.0 0.0 0.0 
1.300624243163e-03 -2.014586859332e-04 0.0 
-2.014586859332e-04 -4.087459914208e-04 0.0 
0.0 0.0 0.0 
3.525504328673e-03 -1.572973526093e-03 0.0 
-1.572973526093e-03 -1.764763302214e-03 0.0 
0.0 0.0 0.0 
2.520962277760e-03 -2.069813202389e-03 0.0 
-2.069813202389e-03 -8.574499333115e-04 0.0 
0.0 0.0 0.0 
1.124809731147e-03 -2.404459343447e-03 0.0 
-2.404459343447e-03 5.374900263715e-04 0.0 
0.0 0.0 0.0 
-2.131087546565e-03 7.478446713903e-04 0.0 
7.478446713903e-04 1.515930205303e-02 0.0 
0.0 0.0 0.0 
1.602074604525e-03 -2.105493567603e-03 0.0 
-2.105493567603e-03 2.947442200294e-04 0.0 
0.0 0.0 0.0 
-5.355239176325e-04 -1.567213648186e-03 0.0 
-1.567213648186e-03 2.141229615158e-03 0.0 
0.0 0.0 0.0 
1.198148841086e-03 -2.384528277021e-03 0.0 
-2.384528277021e-03 1.209785901066e-04 0.0 
0.0 0.0 0.0 
-1.462128582686e-03 6.712072611141e-04 0.0 
6.712072611141e-04 1.579428681218e-02 0.0 
0.0 0.0 0.0 
-5.576644045890e-04 -1.345448630416e-03 0.0 
-1.345448630416e-03 2.106954313831e-03 0.0 
0.0 0.0 0.0 
7.762902658248e-05 -8.901455855444e-04 0.0 
-8.901455855444e-04 8.060450460450e-04 0.0 
0.0 0.0 0.0 
-1.456741258611e-04 -1.145797577715e-03 0.0 
-1.145797577715e-03 1.136231662094e-03 0.0 
0.0 0.0 0.0 
1.481645521565e-03 -2.823750856753e-03 0.0 
-2.823750856753e-03 -3.865053118609e-04 0.0 
0.0 0.0 0.0 
5.572996489014e-04 -2.432377359618e-03 0.0 
-2.432377359618e-03 8.781872073864e-04 0.0 
0.0 0.0 0.0 
2.970308607679e-03 -1.705331963859e-03 0.0 
-1.705331963859e-03 -1.219727875691e-03 0.0 
0.0 0.0 0.0 
1.646839994466e-03 -2.269793547607e-03 0.0 
-2.269793547607e-03 -2.814622044660e-04 0.0 
0.0 0.0 0.0 
3.911881933316e-04 -2.667984220881e-03 0.0 
-2.667984220881e-03 1.155418968954e-04 0.0 
0.0 0.0 0.0 
1.589849167840e-04 -8.977650472033e-04 0.0 
-8.977650472033e-04 1.098153259831e-03 0.0 
0.0 0.0 0.0 
-2.797996956410e-03 1.156070147512e-03 0.0 
1.156070147512e-03 1.483051504107e-02 0.0 
0.0 0.0 0.0 
-4.189126436714e-04 -1.235885000649e-03 0.0 
-1.235885000649e-03 1.879547763660e-03 0.0 
0.0 0.0 0.0 
1.781736938044e-03 -4.044997520287e-04 0.0 
-4.044997520287e-04 1.852649552642e-03 0.0 
0.0 0.0 0.0 
8.585859712145e-04 4.467639092934e-03 0.0 
4.467639092934e-03 6.332403194952e-03 0.0 
0.0 0.0 0.0 
-2.469660565257e-03 3.501564105455e-03 0.0 
3.501564105455e-03 1.255043414743e-02 0.0 
0.0 0.0 0.0 
-1.617448228984e-03 1.814935231465e-03 0.0 
1.814935231465e-03 1.557325079344e-02 0.0 
0.0 0.0 0.0 
2.530551004982e-04 4.617137499004e-03 0.0 
4.617137499004e-03 8.301216131800e-03 0.0 
0.0 0.0 0.0 
4.873862828636e-03 2.011611603268e-03 0.0 
2.011611603268e-03 -2.114504831462e-03 0.0 
0.0 0.0 0.0 
9.078283939450e-04 4.502199848021e-03 0.0 
4.502199848021e-03 5.863434087225e-03 0.0 
0.0 0.0 0.0 
9.734313067638e-04 -3.165171355961e-03 0.0 
-3.165171355961e-03 -6.538091568046e-04 0.0 
0.0 0.0 0.0 
7.963006792038e-04 -2.232263066740e-03 0.0 
-2.232263066740e-03 6.848026457409e-04 0.0 
0.0 0.0 0.0 
3.852131817865e-03 3.560131948114e-03 0.0 
3.560131948114e-03 -1.120035735203e-03 0.0 
0.0 0.0 0.0 
3.658122727208e-03 -2.288783757248e-03 0.0 
-2.288783757248e-03 -2.975215283838e-03 0.0 
0.0 0.0 0.0 
4.140008334599e-04 -2.982073185812e-03 0.0 
-2.982073185812e-03 -2.103362483884e-04 0.0 
0.0 0.0 0.0 
-4.532333693108e-05 -2.042126489464e-03 0.0 
-2.042126489464e-03 1.737547093847e-03 0.0 
0.0 0.0 0.0 
2.079251579037e-03 -2.296230769840e-03 0.0 
-2.296230769840e-03 -8.151320339491e-04 0.0 
0.0 0.0 0.0 
2.532786418699e-03 -2.009799419061e-03 0.0 
-2.009799419061e-03 -1.168195239649e-03 0.0 
0.0 0.0 0.0 
-6.402450285741e-04 -1.284510564781e-03 0.0 
-1.284510564781e-03 2.210119085882e-03 0.0 
0.0 0.0 0.0 
2.038658132914e-03 -1.903888214516e-03 0.0 
-1.903888214516e-03 -7.000086578590e-05 0.0 
0.0 0.0 0.0 
2.966621764612e-03 -1.873273216920e-03 0.0 
-1.873273216920e-03 -1.708646690703e-03 0.0 
0.0 0.0 0.0 
4.024368998784e-03 -1.074236126164e-03 0.0 
-1.074236126164e-03 -2.121493629415e-03 0.0 
0.0 0.0 0.0 
3.376265996970e-04 -2.337568285264e-03 0.0 
-2.337568285264e-03 8.653068762423e-04 0.0 
0.0 0.0 0.0 
3.382685553367e-03 1.301153488997e-03 0.0 
1.301153488997e-03 1.210546716959e-04 0.0 
0.0 0.0 0.0 
-2.237241492765e-03 1.029502691852e-03 0.0 
1.029502691852e-03 1.541516641371e-02 0.0 
0.0 0.0 0.0 
4.620011401282e-03 -6.752562055453e-04 0.0 
-6.752562055453e-04 -2.776495411493e-03 0.0 
0.0 0.0 0.0 
1.460781939762e-03 -1.522456840740e-04 0.0 
-1.522456840740e-04 2.525840991981e-03 0.0 
0.0 0.0 0.0 
1.786138672990e-03 -3.290211022791e-03 0.0 
-3.290211022791e-03 -1.489231053414e-03 0.0 
0.0 0.0 0.0 
1.386669210832e-03 5.254184032417e-04 0.0 
5.254184032417e-04 2.978723543940e-03 0.0 
0.0 0.0 0.0 
2.527547062335e-03 -1.848494921092e-03 0.0 
-1.848494921092e-03 -6.844604608198e-04 0.0 
0.0 0.0 0.0 
9.513710762632e-05 4.773822313087e-03 0.0 
4.773822313087e-03 9.249075269317e-03 0.0 
0.0 0.0 0.0 
-7.040739394687e-04 4.583196032543e-03 0.0 
4.583196032543e-03 8.715102568831e-03 0.0 
0.0 0.0 0.0 
1.077737774184e-03 -2.930024622894e-03 0.0 
-2.930024622894e-03 -1.905447531447e-04 0.0 
0.0 0.0 0.0 
-2.079130676647e-03 3.826683928200e-03 0.0 
3.826683928200e-03 1.190710336660e-02 0.0 
0.0 0.0 0.0 
-1.574624649530e-03 2.621714413763e-03 0.0 
2.621714413763e-03 1.497438959471e-02 0.0 
0.0 0.0 0.0 
2.948746372522e-03 -1.489310780063e-03 0.0 
-1.489310780063e-03 -1.003817463213e-03 0.0 
0.0 0.0 0.0 
2.536697831103e-03 3.964281397354e-03 0.0 
3.964281397354e-03 5.365308545542e-04 0.0 
0.0 0.0 0.0 
-1.663189317011e-03 4.083102657591e-03 0.0 
4.083102657591e-03 1.122735082757e-02 0.0 
0.0 0.0 0.0 
1.169636352244e-03 4.550532914994e-03 0.0 
4.550532914994e-03 3.488709375788e-03 0.0 
0.0 0.0 0.0 
4.643418084764e-04 -2.819242122358e-03 0.0 
-2.819242122358e-03 1.397322384291e-04 0.0 
0.0 0.0 0.0 
-7.908048257602e-04 2.302384961315e-03 0.0 
2.302384961315e-03 1.572761052592e-02 0.0 
0.0 0.0 0.0 
-7.861959097943e-05 -2.335052002305e-03 0.0 
-2.335052002305e-03 6.188376049472e-04 0.0 
0.0 0.0 0.0 
1.808391453362e-03 2.517181523478e-03 0.0 
2.517181523478e-03 3.294288179224e-03 0.0 
0.0 0.0 0.0 
-1.095310853260e-03 1.021920322831e-03 0.0 
1.021920322831e-03 1.606107086380e-02 0.0 
0.0 0.0 0.0 
3.087834034598e-03 9.678130484069e-04 0.0 
9.678130484069e-04 3.982249511980e-04 0.0 
0.0 0.0 0.0 
-2.094736291600e-03 5.532702063368e-04 0.0 
5.532702063368e-04 1.502809385486e-02 0.0 
0.0 0.0 0.0 
-1.977282223847e-03 1.559673800532e-03 0.0 
1.559673800532e-03 1.562524195499e-02 0.0 
0.0 0.0 0.0 
3.464009109462e-03 -1.438511515230e-03 0.0 
-1.438511515230e-03 -2.058609124385e-03 0.0 
0.0 0.0 0.0 
4.662413242292e-03 1.474491872359e-03 0.0 
1.474491872359e-03 -1.926671288997e-03 0.0 
0.0 0.0 0.0 
-1.242806016376e-03 2.052172422188e-03 0.0 
2.052172422188e-03 1.566278311356e-02 0.0 
0.0 0.0 0.0 
1.012332839458e-03 -9.354061073888e-04 0.0 
-9.354061073888e-04 2.513747997547e-03 0.0 
0.0 0.0 0.0 
-2.244335258853e-03 1.318781977557e-03 0.0 
1.318781977557e-03 1.545308459601e-02 0.0 
0.0 0.0 0.0 
3.075062864026e-03 -4.474934897947e-05 0.0 
-4.474934897947e-05 2.489704791908e-05 0.0 
0.0 0.0 0.0 
1.461341085648e-03 -3.143599598094e-03 0.0 
-3.143599598094e-03 -6.602234569367e-04 0.0 
0.0 0.0 0.0 
-2.217212800904e-03 1.644579831366e-03 0.0 
1.644579831366e-03 1.543565746003e-02 0.0 
0.0 0.0 0.0 
5.008218489664e-04 4.906859463363e-03 0.0 
4.906859463363e-03 7.905535812845e-03 0.0 
0.0 0.0 0.0 
1.066492033119e-03 3.810835377993e-05 0.0 
3.810835377993e-05 3.249022269735e-03 0.0 
0.0 0.0 0.0 
1.159540999367e-03 -2.221501589342e-03 0.0 
-2.221501589342e-03 6.810518666485e-04 0.0 
0.0 0.0 0.0 
-2.299747627209e-03 5.757154754963e-04 0.0 
5.757154754963e-04 1.502644905049e-02 0.0 
0.0 0.0 0.0 
-2.204137521613e-03 5.344412321011e-04 0.0 
5.344412321011e-04 1.483946398623e-02 0.0 
0.0 0.0 0.0 
2.092411205855e-03 -2.061456902612e-03 0.0 
-2.061456902612e-03 -6.492015682524e-04 0.0 
0.0 0.0 0.0 
1.392883891765e-03 -1.011885681366e-03 0.0 
-1.011885681366e-03 1.903775901004e-03 0.0 
0.0 0.0 0.0 
1.622408875667e-03 -7.293441152276e-04 0.0 
-7.293441152276e-04 1.839009249491e-03 0.0 
0.0 0.0 0.0 
1.449400022344e-04 -9.963630520002e-04 0.0 
-9.963630520002e-04 9.562162748351e-04 0.0 
0.0 0.0 0.0 
4.477014561980e-03 2.320151836747e-03 0.0 
2.320151836747e-03 -3.485459980931e-03 0.0 
0.0 0.0 0.0 
4.904226962856e-03 -4.869459926427e-06 0.0 
-4.869459926427e-06 -2.868265727284e-03 0.0 
0.0 0.0 0.0 
4.115461274601e-03 -1.197683099532e-03 0.0 
-1.197683099532e-03 -2.685312350980e-03 0.0 
0.0 0.0 0.0 
2.163718378510e-03 4.257430726817e-03 0.0 
4.257430726817e-03 1.655874615544e-03 0.0 
0.0 0.0 0.0 
-1.230477018968e-03 1.992695207132e-03 0.0 
1.992695207132e-03 1.585580853210e-02 0.0 
0.0 0.0 0.0 
-1.125237125928e-03 3.933848108945e-03 0.0 
3.933848108945e-03 1.282438791356e-02 0.0 
0.0 0.0 0.0 
-1.281582015020e-03 1.024849900336e-03 0.0 
1.024849900336e-03 1.606112674270e-02 0.0 
0.0 0.0 0.0 
-4.641320961295e-04 4.464188178553e-03 0.0 
4.464188178553e-03 6.258669070247e-03 0.0 
0.0 0.0 0.0 
-1.947497589917e-03 2.356376195793e-03 0.0 
2.356376195793e-03 1.491287479238e-02 0.0 
0.0 0.0 0.0 
1.022165986904e-03 -1.129384352832e-03 0.0 
-1.129384352832e-03 1.923778837752e-03 0.0 
0.0 0.0 0.0 
-1.127209283610e-03 1.641780661260e-03 0.0 
1.641780661260e-03 1.592089909586e-02 0.0 
0.0 0.0 0.0 
-2.436424217126e-03 1.734349884808e-03 0.0 
1.734349884808e-03 1.522329955564e-02 0.0 
0.0 0.0 0.0 
1.208029377791e-03 -2.183314063244e-03 0.0 
-2.183314063244e-03 3.091769629058e-04 0.0 
0.0 0.0 0.0 
5.184253091042e-03 6.081715680833e-04 0.0 
6.081715680833e-04 -3.073151510041e-03 0.0 
0.0 0.0 0.0 
-1.928651775281e-03 1.556297966159e-03 0.0 
1.556297966159e-03 1.544496700285e-02 0.0 
0.0 0.0 0.0 
-1.635637960636e-03 1.787412518975e-03 0.0 
1.787412518975e-03 1.575642128073e-02 0.0 
0.0 0.0 0.0 
-1.762872142889e-03 1.206284204801e-03 0.0 
1.206284204801e-03 1.563240218853e-02 0.0 
0.0 0.0 0.0 
-1.969271409666e-03 1.248347623951e-03 0.0 
1.248347623951e-03 1.546034915762e-02 0.0 
0.0 0.0 0.0 
1.013627231087e-03 -4.672664377488e-04 0.0 
-4.672664377488e-04 3.022102360924e-03 0.0 
0.0 0.0 0.0 
1.947192546787e-03 2.796090360302e-03 0.0 
2.796090360302e-03 3.244646960225e-03 0.0 
0.0 0.0 0.0 
1.382798461447e-03 -4.507568406179e-04 0.0 
-4.507568406179e-04 2.445213880084e-03 0.0 
0.0 0.0 0.0 
1.127256770483e-03 -1.530183343128e-03 0.0 
-1.530183343128e-03 1.602229094827e-03 0.0 
0.0 0.0 0.0 
-1.913735186511e-03 3.739047331961e-03 0.0 
3.739047331961e-03 9.181030555847e-03 0.0 
0.0 0.0 0.0 
2.899106254983e-03 1.487366956857e-03 0.0 
1.487366956857e-03 9.910164936651e-04 0.0 
0.0 0.0 0.0 
-2.261676928074e-03 2.631755358418e-03 0.0 
2.631755358418e-03 1.417329869470e-02 0.0 
0.0 0.0 0.0 
-4.971753481893e-04 -1.164983119530e-03 0.0 
-1.164983119530e-03 1.924548265527e-03 0.0 
0.0 0.0 0.0 
4.515596918513e-03 -5.640308048029e-04 0.0 
-5.640308048029e-04 -2.775673022444e-03 0.0 
0.0 0.0 0.0 
4.105851145265e-03 -2.915435892758e-04 0.0 
-2.915435892758e-04 -1.850326250841e-03 0.0 
0.0 0.0 0.0 
4.189620156839e-03 1.571152227411e-03 0.0 
1.571152227411e-03 -1.086296033321e-03 0.0 
0.0 0.0 0.0 
4.415018702749e-03 -5.343874929687e-04 0.0 
-5.343874929687e-04 -4.080157712471e-03 0.0 
0.0 0.0 0.0 
4.909349413268e-03 -3.325015682243e-05 0.0 
-3.325015682243e-05 -2.963127218393e-03 0.0 
0.0 0.0 0.0 
3.627721351248e-03 1.685269794413e-03 0.0 
1.685269794413e-03 -5.855066210914e-05 0.0 
0.0 0.0 0.0 
-1.289713409298e-03 4.215702383853e-03 0.0 
4.215702383853e-03 8.330680948808e-03 0.0 
0.0 0.0 0.0 
1.150445847490e-03 -2.018382351119e-03 0.0 
-2.018382351119e-03 9.155129975134e-04 0.0 
0.0 0.0 0.0 
-2.649594102926e-03 1.457937486413e-03 0.0 
1.457937486413e-03 1.505175682996e-02 0.0 
0.0 0.0 0.0 
-2.140789478493e-03 2.191261051759e-04 0.0 
2.191261051759e-04 1.425640875239e-02 0.0 
0.0 0.0 0.0 
-1.617473210630e-03 3.553930580236e-03 0.0 
3.553930580236e-03 1.674334749920e-03 0.0 
0.0 0.0 0.0 
1.139367556030e-03 -1.736144425160e-03 0.0 
-1.736144425160e-03 9.740926376161e-04 0.0 
0.0 0.0 0.0 
2.947395403508e-03 9.697010905484e-04 0.0 
9.697010905484e-04 7.041699319774e-04 0.0 
0.0 0.0 0.0 
-1.057695558930e-03 3.815279350680e-03 0.0 
3.815279350680e-03 1.338068008113e-02 0.0 
0.0 0.0 0.0 
4.925529968135e-03 1.343148513696e-03 0.0 
1.343148513696e-03 -2.509840091231e-03 0.0 
0.0 0.0 0.0 
1.134613361163e-03 -1.792186693493e-03 0.0 
-1.792186693493e-03 1.227707390287e-03 0.0 
0.0 0.0 0.0 
-2.430878614608e-03 1.070074188809e-03 0.0 
1.070074188809e-03 1.523365894092e-02 0.0 
0.0 0.0 0.0 
-1.563539840502e-03 3.579369077407e-03 0.0 
3.579369077407e-03 2.899834249250e-03 0.0 
0.0 0.0 0.0 
3.248365155905e-03 1.280584622880e-03 0.0 
1.280584622880e-03 3.501978529641e-04 0.0 
0.0 0.0 0.0 
4.433427393887e-03 9.307750913163e-04 0.0 
9.307750913163e-04 -1.849397429992e-03 0.0 
0.0 0.0 0.0 
-1.574859562465e-03 4.279966195027e-03 0.0 
4.279966195027e-03 9.270482854972e-03 0.0 
0.0 0.0 0.0 
1.273466494934e-03 -8.778776632472e-04 0.0 
-8.778776632472e-04 1.863418516054e-03 0.0 
0.0 0.0 0.0 
3.011889813408e-03 -2.935419834297e-03 0.0 
-2.935419834297e-03 -2.889519791433e-03 0.0 
0.0 0.0 0.0 
1.469301970648e-03 -5.802806970282e-04 0.0 
-5.802806970282e-04 1.881182477493e-03 0.0 
0.0 0.0 0.0 
1.454475857702e-03 1.669581362775e-04 0.0 
1.669581362775e-04 2.690243429783e-03 0.0 
0.0 0.0 0.0 
3.491986273712e-03 1.629495592958e-03 0.0 
1.629495592958e-03 7.119691829560e-05 0.0 
0.0 0.0 0.0 
-2.019458413580e-03 1.256501819142e-03 0.0 
1.256501819142e-03 1.562731768136e-02 0.0 
0.0 0.0 0.0 
1.583460884282e-03 4.066495795064e-03 0.0 
4.066495795064e-03 4.838522947097e-03 0.0 
0.0 0.0 0.0 
1.266253709343e-03 4.644519784793e-06 0.0 
4.644519784793e-06 2.711579218817e-03 0.0 
0.0 0.0 0.0 
-1.632606787569e-03 3.514251777228e-03 0.0 
3.514251777228e-03 4.076045984020e-03 0.0 
0.0 0.0 0.0 
-2.455511933668e-03 1.383258519728e-03 0.0 
1.383258519728e-03 1.526135029349e-02 0.0 
0.0 0.0 0.0 
1.668446721632e-03 3.421729461348e-03 0.0 
3.421729461348e-03 4.109499014156e-03 0.0 
0.0 0.0 0.0 
-1.705181764028e-03 1.496609902267e-03 0.0 
1.496609902267e-03 1.563174523523e-02 0.0 
0.0 0.0 0.0 
3.988482163136e-03 1.502521029521e-03 0.0 
1.502521029521e-03 -8.532057993021e-04 0.0 
0.0 0.0 0.0 
5.023780682365e-03 7.007033238031e-04 0.0 
7.007033238031e-04 -2.759240273123e-03 0.0 
0.0 0.0 0.0 
-1.914042853827e-04 -1.443672073375e-03 0.0 
-1.443672073375e-03 2.809778178338e-03 0.0 
0.0 0.0 0.0 
2.879079621255e-03 7.614282589157e-04 0.0 
7.614282589157e-04 -4.863561016174e-03 0.0 
0.0 0.0 0.0 
-1.472321032609e-03 1.427533511390e-03 0.0 
1.427533511390e-03 1.579727012844e-02 0.0 
0.0 0.0 0.0 
-6.497661728722e-04 -9.934596905855e-04 0.0 
-9.934596905855e-04 2.192059070381e-03 0.0 
0.0 0.0 0.0 
-1.673691800043e-03 3.384106257926e-03 0.0 
3.384106257926e-03 5.341966872099e-03 0.0 
0.0 0.0 0.0 
1.368103323983e-03 4.274931008240e-03 0.0 
4.274931008240e-03 5.297600458679e-03 0.0 
0.0 0.0 0.0 
-9.916488505074e-04 1.271109554087e-03 0.0 
1.271109554087e-03 1.608388425343e-02 0.0 
0.0 0.0 0.0 
2.202886366919e-03 -3.402481128938e-03 0.0 
-3.402481128938e-03 -2.175049235798e-03 0.0 
0.0 0.0 0.0 
9.860869762246e-04 4.610623996453e-03 0.0 
4.610623996453e-03 4.773415250448e-03 0.0 
0.0 0.0 0.0 
-2.138530785916e-03 1.616217534099e-03 0.0 
1.616217534099e-03 1.523586982256e-02 0.0 
0.0 0.0 0.0 
4.284637616616e-04 -1.871408322110e-03 0.0 
-1.871408322110e-03 1.522139496383e-03 0.0 
0.0 0.0 0.0 
4.068450334314e-03 -1.667417277391e-03 0.0 
-1.667417277391e-03 -3.899222444171e-03 0.0 
0.0 0.0 0.0 
2.677949556672e-03 4.027142194992e-03 0.0 
4.027142194992e-03 -3.511393514248e-04 0.0 
0.0 0.0 0.0 
6.375609132403e-04 -3.046938429837e-03 0.0 
-3.046938429837e-03 -2.010700362802e-04 0.0 
0.0 0.0 0.0 
2.787912272703e-03 -2.840905729562e-03 0.0 
-2.840905729562e-03 -2.246886938291e-03 0.0 
0.0 0.0 0.0 
1.918469140887e-03 -3.312298465002e-03 0.0 
-3.312298465002e-03 -1.228331389884e-03 0.0 
0.0 0.0 0.0 
4.552112404792e-03 1.395905740398e-03 0.0 
1.395905740398e-03 -1.919353291088e-03 0.0 
0.0 0.0 0.0 
-5.485877217619e-04 3.473465251859e-03 0.0 
3.473465251859e-03 1.498612664051e-02 0.0 
0.0 0.0 0.0 
-1.716081961564e-03 3.233789652079e-03 0.0 
3.233789652079e-03 6.820800906792e-03 0.0 
0.0 0.0 0.0 
6.880811922907e-04 -4.755369016752e-04 0.0 
-4.755369016752e-04 3.567058531495e-03 0.0 
0.0 0.0 0.0 
5.088944837436e-03 1.992131684793e-03 0.0 
1.992131684793e-03 -2.926188132749e-03 0.0 
0.0 0.0 0.0 
-2.632871142563e-03 1.844989673535e-03 0.0 
1.844989673535e-03 1.498313171781e-02 0.0 
0.0 0.0 0.0 
3.612389637487e-03 6.008564962817e-04 0.0 
6.008564962817e-04 -4.521874959390e-03 0.0 
0.0 0.0 0.0 
1.221020684107e-03 3.363975752350e-04 0.0 
3.363975752350e-04 2.968066108442e-03 0.0 
0.0 0.0 0.0 
1.232525875549e-03 -3.499050969882e-03 0.0 
-3.499050969882e-03 -1.209127296112e-03 0.0 
0.0 0.0 0.0 
-8.123939066578e-04 -1.068407779620e-03 0.0 
-1.068407779620e-03 2.517818744145e-03 0.0 
0.0 0.0 0.0 
3.171283545642e-03 2.104851655117e-03 0.0 
2.104851655117e-03 7.861169603809e-04 0.0 
0.0 0.0 0.0 
2.955440950973e-03 -1.634273136393e-03 0.0 
-1.634273136393e-03 -1.450181413217e-03 0.0 
0.0 0.0 0.0 
2.065710773683e-03 3.074670187583e-03 0.0 
3.074670187583e-03 3.279931153653e-03 0.0 
0.0 0.0 0.0 
1.246571667597e-03 4.204959427793e-03 0.0 
4.204959427793e-03 2.469992080835e-03 0.0 
0.0 0.0 0.0 
-2.373111563965e-03 2.648824548957e-03 0.0 
2.648824548957e-03 1.455139805534e-02 0.0 
0.0 0.0 0.0 
1.804151289220e-03 2.698265591280e-03 0.0 
2.698265591280e-03 3.266616522591e-03 0.0 
0.0 0.0 0.0 
-2.164561711861e-03 1.285326896117e-03 0.0 
1.285326896117e-03 1.527127928124e-02 0.0 
0.0 0.0 0.0 
-1.247499730127e-03 3.928704711005e-03 0.0 
3.928704711005e-03 1.336472954252e-02 0.0 
0.0 0.0 0.0 
-2.144857877745e-03 1.995038472359e-03 0.0 
1.995038472359e-03 1.535432857876e-02 0.0 
0.0 0.0 0.0 
-2.021578270481e-03 2.359425707313e-03 0.0 
2.359425707313e-03 1.519812782597e-02 0.0 
0.0 0.0 0.0 
3.257792722174e-03 3.361416460051e-03 0.0 
3.361416460051e-03 -2.845007892441e-03 0.0 
0.0 0.0 0.0 
5.618562703134e-04 -6.330944039920e-04 0.0 
-6.330944039920e-04 3.555467541532e-03 0.0 
0.0 0.0 0.0 
-2.069282023970e-03 1.978732913213e-03 0.0 
1.978732913213e-03 1.511733137947e-02 0.0 
0.0 0.0 0.0 
4.287457489929e-03 3.023539646734e-03 0.0 
3.023539646734e-03 -1.466894345623e-03 0.0 
0.0 0.0 0.0 
-1.887523827653e-03 3.102737852346e-03 0.0 
3.102737852346e-03 8.399441488751e-03 0.0 
0.0 0.0 0.0 
1.393029183341e-03 2.930928864625e-03 0.0 
2.930928864625e-03 4.043769818124e-03 0.0 
0.0 0.0 0.0 
4.548882221592e-03 1.506878858241e-03 0.0 
1.506878858241e-03 -4.062398987042e-03 0.0 
0.0 0.0 0.0 
-6.087846750303e-04 -1.029161828904e-03 0.0 
-1.029161828904e-03 2.173009355821e-03 0.0 
0.0 0.0 0.0 
2.436993114698e-03 2.904594021898e-03 0.0 
2.904594021898e-03 2.398678556882e-03 0.0 
0.0 0.0 0.0 
2.097031423907e-04 4.114151595471e-05 0.0 
4.114151595471e-05 1.416920746119e-03 0.0 
0.0 0.0 0.0 
2.439602999710e-03 4.064153967850e-03 0.0 
4.064153967850e-03 1.896933043322e-03 0.0 
0.0 0.0 0.0 
2.992317255765e-03 1.752867505905e-03 0.0 
1.752867505905e-03 9.551472883189e-04 0.0 
0.0 0.0 0.0 
-1.606685148661e-03 2.581317064143e-03 0.0 
2.581317064143e-03 1.526546920460e-02 0.0 
0.0 0.0 0.0 
-1.409719981030e-03 2.981648998877e-03 0.0 
2.981648998877e-03 1.500261430605e-02 0.0 
0.0 0.0 0.0 
3.134468187050e-03 1.815388728954e-03 0.0 
1.815388728954e-03 8.284514118111e-04 0.0 
0.0 0.0 0.0 
-1.897182067621e-03 1.892174364005e-03 0.0 
1.892174364005e-03 1.556503860158e-02 0.0 
0.0 0.0 0.0 
4.813343653316e-03 2.580764525937e-03 0.0 
2.580764525937e-03 -2.393495542020e-03 0.0 
0.0 0.0 0.0 
6.483627381175e-04 4.507720757761e-03 0.0 
4.507720757761e-03 6.909593320264e-03 0.0 
0.0 0.0 0.0 
-2.259857628371e-03 3.013685316057e-03 0.0 
3.013685316057e-03 1.004061026361e-02 0.0 
0.0 0.0 0.0 
-5.146249364831e-04 4.456585385175e-03 0.0 
4.456585385175e-03 1.099898985878e-02 0.0 
0.0 0.0 0.0 
-3.648305287405e-03 3.019737075823e-03 0.0 
3.019737075823e-03 1.195691678414e-02 0.0 
0.0 0.0 0.0 
-3.379604658056e-03 2.112790455113e-03 0.0 
2.112790455113e-03 1.289961570932e-02 0.0 
0.0 0.0 0.0 
4.934071170998e-03 1.936778210262e-03 0.0 
1.936778210262e-03 -2.463577864091e-03 0.0 
0.0 0.0 0.0 
-3.211230035386e-03 1.739461204768e-03 0.0 
1.739461204768e-03 1.333931463290e-02 0.0 
0.0 0.0 0.0 
2.861333343436e-03 3.814378623737e-03 0.0 
3.814378623737e-03 1.616547318038e-03 0.0 
0.0 0.0 0.0 
3.623372124241e-03 3.567577665667e-03 0.0 
3.567577665667e-03 -1.606203828078e-04 0.0 
0.0 0.0 0.0 
4.748942477981e-03 1.167458749223e-04 0.0 
1.167458749223e-04 -2.702058624858e-03 0.0 
0.0 0.0 0.0 
3.934096445915e-03 -1.559628722596e-03 0.0 
-1.559628722596e-03 -3.757299171902e-03 0.0 
0.0 0.0 0.0 
5.148980960411e-03 1.301521833585e-03 0.0 
1.301521833585e-03 -2.851158032625e-03 0.0 
0.0 0.0 0.0 
-1.369891780674e-03 1.737058679143e-03 0.0 
1.737058679143e-03 1.576147279115e-02 0.0 
0.0 0.0 0.0 
-7.980852689407e-04 4.259079190741e-03 0.0 
4.259079190741e-03 1.229706799267e-02 0.0 
0.0 0.0 0.0 
6.735130919593e-04 -8.452220551189e-04 0.0 
-8.452220551189e-04 3.077430608609e-03 0.0 
0.0 0.0 0.0 
1.954211656501e-03 2.971440869417e-03 0.0 
2.971440869417e-03 3.218505044384e-03 0.0 
0.0 0.0 0.0 
3.408314106118e-03 -1.292251171129e-03 0.0 
-1.292251171129e-03 -1.506334899298e-03 0.0 
0.0 0.0 0.0 
-1.738597850266e-03 2.254299977138e-03 0.0 
2.254299977138e-03 1.520977471150e-02 0.0 
0.0 0.0 0.0 
5.012660140916e-03 6.827012797176e-04 0.0 
6.827012797176e-04 -2.788119927076e-03 0.0 
0.0 0.0 0.0 
3.079768619825e-04 -5.741590058665e-04 0.0 
-5.741590058665e-04 4.044198714725e-03 0.0 
0.0 0.0 0.0 
-1.852692207106e-03 1.897481869523e-03 0.0 
1.897481869523e-03 1.536479522535e-02 0.0 
0.0 0.0 0.0 
-2.219382521283e-03 2.494310852100e-03 0.0 
2.494310852100e-03 1.489677560158e-02 0.0 
0.0 0.0 0.0 
3.737922835924e-03 1.091830049614e-03 0.0 
1.091830049614e-03 -5.452960683368e-04 0.0 
0.0 0.0 0.0 
5.081430998482e-03 1.941821478183e-03 0.0 
1.941821478183e-03 -2.714847950104e-03 0.0 
0.0 0.0 0.0 
5.669595518800e-04 4.514586162708e-03 0.0 
4.514586162708e-03 7.345779613107e-03 0.0 
0.0 0.0 0.0 
-8.073071826952e-04 4.486297598145e-03 0.0 
4.486297598145e-03 8.728690834613e-03 0.0 
0.0 0.0 0.0 
3.490502328627e-03 -2.615113228747e-03 0.0 
-2.615113228747e-03 -3.586069951884e-03 0.0 
0.0 0.0 0.0 
4.428791322542e-03 3.046232561359e-04 0.0 
3.046232561359e-04 -3.869109911538e-03 0.0 
0.0 0.0 0.0 
1.778905272729e-03 4.224277702413e-03 0.0 
4.224277702413e-03 1.497078871453e-03 0.0 
0.0 0.0 0.0 
8.290242447455e-04 4.657803288198e-03 0.0 
4.657803288198e-03 4.767590624426e-03 0.0 
0.0 0.0 0.0 
1.052140861466e-04 -5.052409060670e-04 0.0 
-5.052409060670e-04 4.492323297882e-03 0.0 
0.0 0.0 0.0 
-2.355871372449e-03 2.110764478245e-03 0.0 
2.110764478245e-03 1.510265876711e-02 0.0 
0.0 0.0 0.0 
5.084033409006e-03 1.332420328596e-03 0.0 
1.332420328596e-03 -2.621611487889e-03 0.0 
0.0 0.0 0.0 
6.518725518074e-04 4.647454702278e-03 0.0 
4.647454702278e-03 6.149182043203e-03 0.0 
0.0 0.0 0.0 
2.751160033927e-03 1.456211261503e-03 0.0 
1.456211261503e-03 1.238036277468e-03 0.0 
0.0 0.0 0.0 
-1.725454600704e-03 1.476598317821e-03 0.0 
1.476598317821e-03 1.579221012296e-02 0.0 
0.0 0.0 0.0 
2.338782842801e-04 4.651328519874e-03 0.0 
4.651328519874e-03 8.297592399449e-03 0.0 
0.0 0.0 0.0 
-2.494399413390e-03 1.773861508940e-03 0.0 
1.773861508940e-03 1.472899935198e-02 0.0 
0.0 0.0 0.0 
2.205652359868e-03 5.122412139359e-04 0.0 
5.122412139359e-04 1.661784861041e-03 0.0 
0.0 0.0 0.0 
4.816147915487e-03 8.000118057246e-04 0.0 
8.000118057246e-04 -2.427430854888e-03 0.0 
0.0 0.0 0.0 
2.610314220088e-03 1.183683101222e-03 0.0 
1.183683101222e-03 1.263489171525e-03 0.0 
0.0 0.0 0.0 
2.247425423896e-03 4.273460635619e-03 0.0 
4.273460635619e-03 1.866731045577e-03 0.0 
0.0 0.0 0.0 
-1.510426613075e-03 2.121307388224e-03 0.0 
2.121307388224e-03 1.565640297661e-02 0.0 
0.0 0.0 0.0 
-3.242681727889e-05 4.759777889516e-03 0.0 
4.759777889516e-03 9.250054400260e-03 0.0 
0.0 0.0 0.0 
4.229654895321e-03 8.977541563944e-04 0.0 
8.977541563944e-04 -1.510302098859e-03 0.0 
0.0 0.0 0.0 
4.324315861515e-03 5.318065918523e-04 0.0 
5.318065918523e-04 -4.362334681844e-03 0.0 
0.0 0.0 0.0 
1.648111613390e-03 3.975756522595e-03 0.0 
3.975756522595e-03 4.442987590933e-03 0.0 
0.0 0.0 0.0 
2.426978393210e-03 4.090924025669e-03 0.0 
4.090924025669e-03 2.207199740089e-03 0.0 
0.0 0.0 0.0 
4.949981379980e-03 1.987118635853e-03 0.0 
1.987118635853e-03 -2.301754604920e-03 0.0 
0.0 0.0 0.0 
3.868086824258e-03 1.102994766885e-03 0.0 
1.102994766885e-03 -7.928003836399e-04 0.0 
0.0 0.0 0.0 
1.975758687196e-03 -1.413034447862e-04 0.0 
-1.413034447862e-04 1.431056364090e-03 0.0 
0.0 0.0 0.0 
4.109765702702e-03 -7.792086647431e-04 0.0 
-7.792086647431e-04 -4.148582196100e-03 0.0 
0.0 0.0 0.0 
4.698943306006e-03 7.599124004871e-04 0.0 
7.599124004871e-04 -2.293733130444e-03 0.0 
0.0 0.0 0.0 
-1.665060218166e-03 3.918480561695e-03 0.0 
3.918480561695e-03 1.124945011538e-02 0.0 
0.0 0.0 0.0 
-2.809724255837e-05 -5.580890231293e-04 0.0 
-5.580890231293e-04 4.500372112023e-03 0.0 
0.0 0.0 0.0 
-1.261839634402e-03 4.157043666691e-03 0.0 
4.157043666691e-03 1.054434446724e-02 0.0 
0.0 0.0 0.0 
1.484841959565e-03 4.199110857631e-03 0.0 
4.199110857631e-03 4.819753954348e-03 0.0 
0.0 0.0 0.0 
-2.043806044310e-03 3.616538749315e-03 0.0 
3.616538749315e-03 1.193463709728e-02 0.0 
0.0 0.0 0.0 
-2.649944570050e-03 2.795755583956e-03 0.0 
2.795755583956e-03 1.318301858835e-02 0.0 
0.0 0.0 0.0 
-3.497972079080e-04 4.585475675609e-03 0.0 
4.585475675609e-03 7.947470495555e-03 0.0 
0.0 0.0 0.0 
2.326669255224e-03 2.602471235076e-03 0.0 
2.602471235076e-03 2.420196772980e-03 0.0 
0.0 0.0 0.0 
6.116324816208e-04 -7.722735624778e-04 0.0 
-7.722735624778e-04 3.043296010060e-03 0.0 
0.0 0.0 0.0 
-2.257352110896e-03 2.080722275806e-03 0.0 
2.080722275806e-03 1.482960009484e-02 0.0 
0.0 0.0 0.0 
-1.172861823412e-03 2.888797374711e-03 0.0 
2.888797374711e-03 1.501332562002e-02 0.0 
0.0 0.0 0.0 
-2.384530713926e-03 3.244346539990e-03 0.0 
3.244346539990e-03 1.258514246924e-02 0.0 
0.0 0.0 0.0 
5.066278241371e-03 1.268656767827e-03 0.0 
1.268656767827e-03 -3.066427092374e-03 0.0 
0.0 0.0 0.0 
1.304564105179e-03 4.089396149783e-03 0.0 
4.089396149783e-03 5.436099677196e-03 0.0 
0.0 0.0 0.0 
-1.360018072908e-03 1.688077358462e-03 0.0 
1.688077358462e-03 1.591632999149e-02 0.0 
0.0 0.0 0.0 
3.266382846216e-03 3.750107477276e-03 0.0 
3.750107477276e-03 1.133542575744e-04 0.0 
0.0 0.0 0.0 
2.726487503190e-03 4.030377563520e-03 0.0 
4.030377563520e-03 1.179870382739e-03 0.0 
0.0 0.0 0.0 
5.142966206150e-03 1.292803048395e-03 0.0 
1.292803048395e-03 -2.817062704367e-03 0.0 
0.0 0.0 0.0 
-2.123554576531e-03 2.479523556371e-03 0.0 
2.479523556371e-03 1.457274167282e-02 0.0 
0.0 0.0 0.0 
4.256985370226e-04 4.495051089673e-03 0.0 
4.495051089673e-03 4.308463455466e-03 0.0 
0.0 0.0 0.0 
2.980184028798e-03 3.735394263983e-03 0.0 
3.735394263983e-03 1.130569322288e-03 0.0 
0.0 0.0 0.0 
5.328277804499e-04 4.469273297183e-03 0.0 
4.469273297183e-03 4.311473607689e-03 0.0 
0.0 0.0 0.0 
2.814086504224e-03 2.529348911196e-03 0.0 
2.529348911196e-03 1.570931677460e-03 0.0 
0.0 0.0 0.0 
9.399097720975e-04 4.194481339128e-03 0.0 
4.194481339128e-03 6.037910627108e-03 0.0 
0.0 0.0 0.0 
5.119265089971e-03 5.948749901707e-04 0.0 
5.948749901707e-04 -2.972154911126e-03 0.0 
0.0 0.0 0.0 
2.807568231891e-03 -8.601948212676e-04 0.0 
-8.601948212676e-04 -4.600850190008e-03 0.0 
0.0 0.0 0.0 
-1.133026471462e-03 3.391867181464e-03 0.0 
3.391867181464e-03 1.430794713054e-02 0.0 
0.0 0.0 0.0 
1.389427070708e-05 4.504340203495e-03 0.0 
4.504340203495e-03 5.314203708623e-03 0.0 
0.0 0.0 0.0 
3.808979229759e-03 -8.202956661622e-04 0.0 
-8.202956661622e-04 -1.729794173444e-03 0.0 
0.0 0.0 0.0 
1.382781305713e-03 4.034919553749e-03 0.0 
4.034919553749e-03 5.084910356687e-03 0.0 
0.0 0.0 0.0 
-2.535042562434e-03 2.247004694028e-03 0.0 
2.247004694028e-03 1.481081583743e-02 0.0 
0.0 0.0 0.0 
9.200707727857e-04 -8.285623283078e-04 0.0 
-8.285623283078e-04 2.469205040172e-03 0.0 
0.0 0.0 0.0 
4.167369571765e-03 3.158599289315e-03 0.0 
3.158599289315e-03 -1.061447096612e-03 0.0 
0.0 0.0 0.0 
2.519189974666e-03 -4.714101787665e-04 0.0 
-4.714101787665e-04 -4.981724233993e-03 0.0 
0.0 0.0 0.0 
-1.409475251842e-04 -5.014602880855e-04 0.0 
-5.014602880855e-04 4.923852217910e-03 0.0 
0.0 0.0 0.0 
1.337836339548e-03 4.595853972417e-03 0.0 
4.595853972417e-03 3.967511938866e-03 0.0 
0.0 0.0 0.0 
2.955174839076e-03 2.973377345436e-03 0.0 
2.973377345436e-03 1.685157403625e-03 0.0 
0.0 0.0 0.0 
7.618546521737e-04 4.525777764424e-03 0.0 
4.525777764424e-03 6.844061271684e-03 0.0 
0.0 0.0 0.0 
1.016136990296e-03 -3.825254970116e-05 0.0 
-3.825254970116e-05 -4.710705693600e-03 0.0 
0.0 0.0 0.0 
1.228127682844e-03 -7.110311339836e-04 0.0 
-7.110311339836e-04 2.449180469011e-03 0.0 
0.0 0.0 0.0 
3.444453283599e-03 3.364099821942e-03 0.0 
3.364099821942e-03 -1.107054124980e-03 0.0 
0.0 0.0 0.0 
-2.816557768089e-03 1.968636568664e-03 0.0 
1.968636568664e-03 1.470802052676e-02 0.0 
0.0 0.0 0.0 
4.337060933826e-04 -1.664168590827e-03 0.0 
-1.664168590827e-03 1.844171182203e-03 0.0 
0.0 0.0 0.0 
5.245203291917e-03 1.275265813507e-03 0.0 
1.275265813507e-03 -3.085793208987e-03 0.0 
0.0 0.0 0.0 
1.368246408642e-04 -6.294578314249e-04 0.0 
-6.294578314249e-04 4.053743426557e-03 0.0 
0.0 0.0 0.0 
2.665648193861e-03 4.055395857003e-03 0.0 
4.055395857003e-03 1.580995769244e-03 0.0 
0.0 0.0 0.0 
5.268085748754e-03 1.302379479101e-03 0.0 
1.302379479101e-03 -3.397156329411e-03 0.0 
0.0 0.0 0.0 
1.068134648896e-03 4.606132481014e-03 0.0 
4.606132481014e-03 5.066469634570e-03 0.0 
0.0 0.0 0.0 
2.286266883158e-03 -2.373311452202e-03 0.0 
-2.373311452202e-03 -4.638562136766e-03 0.0 
0.0 0.0 0.0 
1.060582976005e-03 4.433913807040e-03 0.0 
4.433913807040e-03 5.872048642873e-03 0.0 
0.0 0.0 0.0 
2.814234039079e-03 2.275669266073e-03 0.0 
2.275669266073e-03 1.608907851597e-03 0.0 
0.0 0.0 0.0 
-2.388872993628e-04 4.715745119789e-03 0.0 
4.715745119789e-03 1.007920454854e-02 0.0 
0.0 0.0 0.0 
9.457646769642e-04 4.400298776360e-03 0.0 
4.400298776360e-03 6.341292188402e-03 0.0 
0.0 0.0 0.0 
4.789481963015e-03 3.391274932536e-04 0.0 
3.391274932536e-04 -3.640651611307e-03 0.0 
0.0 0.0 0.0 
4.009563384562e-04 -9.072204148042e-04 0.0 
-9.072204148042e-04 3.088873953004e-03 0.0 
0.0 0.0 0.0 
-9.656043799239e-04 1.966531592552e-03 0.0 
1.966531592552e-03 1.585673476703e-02 0.0 
0.0 0.0 0.0 
9.481281143786e-04 3.326354509230e-03 0.0 
3.326354509230e-03 4.854351929906e-03 0.0 
0.0 0.0 0.0 
2.450828354754e-03 2.696722235015e-03 0.0 
2.696722235015e-03 2.429635490014e-03 0.0 
0.0 0.0 0.0 
4.613175073917e-03 2.611538525430e-03 0.0 
2.611538525430e-03 -1.662625329442e-03 0.0 
0.0 0.0 0.0 
1.114814555337e-03 4.526173925792e-03 0.0 
4.526173925792e-03 5.443807320237e-03 0.0 
0.0 0.0 0.0 
-1.732603666315e-04 -4.478893153098e-04 0.0 
-4.478893153098e-04 4.845367430561e-03 0.0 
0.0 0.0 0.0 
-1.023832448869e-03 -5.149921233619e-04 0.0 
-5.149921233619e-04 3.653732366028e-03 0.0 
0.0 0.0 0.0 
1.231516975496e-03 4.362017734547e-03 0.0 
4.362017734547e-03 5.285826725411e-03 0.0 
0.0 0.0 0.0 
-2.329833345410e-03 1.685366081731e-03 0.0 
1.685366081731e-03 1.500028186049e-02 0.0 
0.0 0.0 0.0 
3.513495077598e-04 -7.029199977405e-04 0.0 
-7.029199977405e-04 3.567423988933e-03 0.0 
0.0 0.0 0.0 
1.106846484204e-03 -5.889644748498e-04 0.0 
-5.889644748498e-04 2.468255658935e-03 0.0 
0.0 0.0 0.0 
-1.971060198606e-03 3.161920335992e-05 0.0 
3.161920335992e-05 1.395439652033e-02 0.0 
0.0 0.0 0.0 
-1.953902347749e-03 2.617095248511e-05 0.0 
2.617095248511e-05 1.395140686114e-02 0.0 
0.0 0.0 0.0 
-1.827638586341e-03 3.906672033686e-03 0.0 
3.906672033686e-03 1.197435912387e-02 0.0 
0.0 0.0 0.0 
1.303223385422e-03 4.444387313549e-03 0.0 
4.444387313549e-03 4.792769786836e-03 0.0 
0.0 0.0 0.0 
1.361127281063e-04 -1.461411091261e-03 0.0 
-1.461411091261e-03 2.408798972683e-03 0.0 
0.0 0.0 0.0 
-5.347435811177e-04 4.535843570833e-03 0.0 
4.535843570833e-03 8.917677404602e-03 0.0 
0.0 0.0 0.0 
3.171227121221e-03 3.752600238379e-03 0.0 
3.752600238379e-03 5.390464848789e-04 0.0 
0.0 0.0 0.0 
1.839949630933e-03 1.307815921280e-03 0.0 
1.307815921280e-03 2.406772768775e-03 0.0 
0.0 0.0 0.0 
4.381555186406e-03 3.085433638735e-03 0.0 
3.085433638735e-03 -1.732168325106e-03 0.0 
0.0 0.0 0.0 
-5.156691477006e-04 3.113784092601e-03 0.0 
3.113784092601e-03 1.532170814067e-02 0.0 
0.0 0.0 0.0 
-2.929839549405e-03 2.572820253117e-03 0.0 
2.572820253117e-03 1.319517076066e-02 0.0 
0.0 0.0 0.0 
2.944063375979e-03 3.818804216986e-03 0.0 
3.818804216986e-03 1.210902947675e-03 0.0 
0.0 0.0 0.0 
7.634793423110e-04 -1.648106607851e-03 0.0 
-1.648106607851e-03 1.839436923025e-03 0.0 
0.0 0.0 0.0 
4.562981531881e-03 1.316494299537e-03 0.0 
1.316494299537e-03 -3.329161827950e-03 0.0 
0.0 0.0 0.0 
7.945099113114e-04 -2.048153287943e-03 0.0 
-2.048153287943e-03 9.222601570069e-04 0.0 
0.0 0.0 0.0 
1.343976955980e-03 4.560543679643e-03 0.0 
4.560543679643e-03 4.335083923247e-03 0.0 
0.0 0.0 0.0 
4.158839281097e-04 4.686648987622e-03 0.0 
4.686648987622e-03 5.849395426542e-03 0.0 
0.0 0.0 0.0 
-2.418557726902e-03 2.207122531208e-03 0.0 
2.207122531208e-03 1.450506061895e-02 0.0 
0.0 0.0 0.0 
-2.011809605261e-04 4.543039467662e-03 0.0 
4.543039467662e-03 8.204575438935e-03 0.0 
0.0 0.0 0.0 
-4.106148588356e-04 4.516069901940e-03 0.0 
4.516069901940e-03 9.145831422054e-03 0.0 
0.0 0.0 0.0 
9.945734954997e-04 -1.768161295247e-04 0.0 
-1.768161295247e-04 6.472367017989e-04 0.0 
0.0 0.0 0.0 
7.427393738242e-04 -2.075719075902e-03 0.0 
-2.075719075902e-03 1.258967720039e-03 0.0 
0.0 0.0 0.0 
1.324910279512e-04 4.539984258093e-03 0.0 
4.539984258093e-03 5.309644219606e-03 0.0 
0.0 0.0 0.0 
-1.066090355537e-03 4.322801243295e-03 0.0 
4.322801243295e-03 9.667951489071e-03 0.0 
0.0 0.0 0.0 
-1.236352124007e-03 4.300081989405e-03 0.0 
4.300081989405e-03 1.051567110678e-02 0.0 
0.0 0.0 0.0 
2.144574054274e-03 2.282311614131e-03 0.0 
2.282311614131e-03 2.494470628115e-03 0.0 
0.0 0.0 0.0 
-1.145378290596e-04 -1.399294972768e-04 0.0 
-1.399294972768e-04 1.686135902816e-03 0.0 
0.0 0.0 0.0 
3.702063013621e-03 -1.850778574044e-03 0.0 
-1.850778574044e-03 -4.114212695560e-03 0.0 
0.0 0.0 0.0 
1.790061421555e-03 4.470112090145e-03 0.0 
4.470112090145e-03 2.892572870889e-03 0.0 
0.0 0.0 0.0 
4.223178563227e-04 -2.047158639437e-03 0.0 
-2.047158639437e-03 1.256482572226e-03 0.0 
0.0 0.0 0.0 
-3.583788372826e-03 2.756614981430e-03 0.0 
2.756614981430e-03 1.276926746958e-02 0.0 
0.0 0.0 0.0 
-3.636804150695e-03 2.298311998246e-03 0.0 
2.298311998246e-03 1.326376172001e-02 0.0 
0.0 0.0 0.0 
-2.675378687079e-03 2.415548733581e-03 0.0 
2.415548733581e-03 1.448150083776e-02 0.0 
0.0 0.0 0.0 
2.662321965474e-03 3.350984762590e-03 0.0 
3.350984762590e-03 -1.653813019202e-03 0.0 
0.0 0.0 0.0 
4.071191466077e-04 -1.695720735279e-03 0.0 
-1.695720735279e-03 2.090995610269e-03 0.0 
0.0 0.0 0.0 
2.743505320663e-03 6.927111564656e-04 0.0 
6.927111564656e-04 7.473786350216e-04 0.0 
0.0 0.0 0.0 
3.923147627968e-03 -5.223473464160e-04 0.0 
-5.223473464160e-04 -4.401812729389e-03 0.0 
0.0 0.0 0.0 
3.015385301302e-04 4.553460538382e-03 0.0 
4.553460538382e-03 7.532995927887e-03 0.0 
0.0 0.0 0.0 
-1.773586855571e-03 2.229465858933e-03 0.0 
2.229465858933e-03 1.545037395696e-02 0.0 
0.0 0.0 0.0 
-1.870659744326e-04 -1.602881157785e-03 0.0 
-1.602881157785e-03 2.326856355090e-03 0.0 
0.0 0.0 0.0 
3.863285597263e-04 -7.459983522820e-04 0.0 
-7.459983522820e-04 3.594571742122e-03 0.0 
0.0 0.0 0.0 
8.068267007384e-04 -3.382069985685e-04 0.0 
-3.382069985685e-04 4.049862297448e-04 0.0 
0.0 0.0 0.0 
2.775987234721e-03 1.690135668733e-04 0.0 
1.690135668733e-04 3.475040525796e-04 0.0 
0.0 0.0 0.0 
1.503105171486e-03 4.500990890052e-03 0.0 
4.500990890052e-03 3.980495412631e-03 0.0 
0.0 0.0 0.0 
9.758946482383e-04 -2.559474716916e-04 0.0 
-2.559474716916e-04 3.483924624474e-04 0.0 
0.0 0.0 0.0 
-1.498559044465e-03 2.156117361752e-03 0.0 
2.156117361752e-03 1.545635968904e-02 0.0 
0.0 0.0 0.0 
3.433559291179e-03 -8.263289517034e-04 0.0 
-8.263289517034e-04 -4.286657758699e-03 0.0 
0.0 0.0 0.0 
-9.860566189865e-04 4.443994638059e-03 0.0 
4.443994638059e-03 9.648968793366e-03 0.0 
0.0 0.0 0.0 
5.543479610990e-04 4.676826332299e-03 0.0 
4.676826332299e-03 5.850090462677e-03 0.0 
0.0 0.0 0.0 
3.920131587752e-03 -9.265209098436e-04 0.0 
-9.265209098436e-04 -2.282640834770e-03 0.0 
0.0 0.0 0.0 
2.718393802013e-03 -1.024317661135e-03 0.0 
-1.024317661135e-03 -1.261435074034e-04 0.0 
0.0 0.0 0.0 
-1.355824655943e-03 2.511910695041e-03 0.0 
2.511910695041e-03 1.526950236388e-02 0.0 
0.0 0.0 0.0 
2.510212569881e-03 -6.619719626556e-04 0.0 
-6.619719626556e-04 5.414936047281e-04 0.0 
0.0 0.0 0.0 
2.266848170847e-03 4.287762820095e-03 0.0 
4.287762820095e-03 2.178299985159e-03 0.0 
0.0 0.0 0.0 
1.961921698132e-03 4.314037325611e-03 0.0 
4.314037325611e-03 2.914635393804e-03 0.0 
0.0 0.0 0.0 
-1.819556233690e-03 3.535852368616e-03 0.0 
3.535852368616e-03 1.135782704518e-03 0.0 
0.0 0.0 0.0 
3.243800435744e-03 -5.541075354442e-04 0.0 
-5.541075354442e-04 -4.606278358524e-03 0.0 
0.0 0.0 0.0 
1.176397426422e-03 4.274146410003e-03 0.0 
4.274146410003e-03 5.817050033896e-03 0.0 
0.0 0.0 0.0 
-2.828785455107e-03 2.855581437302e-03 0.0 
2.855581437302e-03 1.366302025891e-02 0.0 
0.0 0.0 0.0 
1.281321199035e-03 4.223987850320e-03 0.0 
4.223987850320e-03 5.411864236583e-03 0.0 
0.0 0.0 0.0 
3.089631966771e-03 3.835043790978e-03 0.0 
3.835043790978e-03 -1.176345387397e-03 0.0 
0.0 0.0 0.0 
-1.458524545484e-03 3.723750679381e-03 0.0 
3.723750679381e-03 1.274255364514e-02 0.0 
0.0 0.0 0.0 
7.781545871612e-04 4.449657651572e-03 0.0 
4.449657651572e-03 6.849584657714e-03 0.0 
0.0 0.0 0.0 
-3.082607727554e-03 2.520601471751e-03 0.0 
2.520601471751e-03 1.262447634890e-02 0.0 
0.0 0.0 0.0 
1.091883515784e-03 4.327688681842e-03 0.0 
4.327688681842e-03 5.808361022531e-03 0.0 
0.0 0.0 0.0 
1.627123577959e-04 -7.904684460203e-04 0.0 
-7.904684460203e-04 3.603004621590e-03 0.0 
0.0 0.0 0.0 
1.731071968893e-03 4.375483145522e-03 0.0 
4.375483145522e-03 3.703394568273e-03 0.0 
0.0 0.0 0.0 
7.497604297526e-04 -1.877625571721e-03 0.0 
-1.877625571721e-03 1.521212061192e-03 0.0 
0.0 0.0 0.0 
7.806985752046e-04 -1.840730841507e-03 0.0 
-1.840730841507e-03 1.237192123805e-03 0.0 
0.0 0.0 0.0 
-1.406245294184e-03 3.519558160200e-03 0.0 
3.519558160200e-03 1.427547192437e-02 0.0 
0.0 0.0 0.0 
2.825989514386e-03 -1.282638118735e-03 0.0 
-1.282638118735e-03 -6.425278726729e-04 0.0 
0.0 0.0 0.0 
8.977057764243e-04 4.664282633386e-03 0.0 
4.664282633386e-03 5.059322237485e-03 0.0 
0.0 0.0 0.0 
4.083390790177e-03 3.012953163505e-03 0.0 
3.012953163505e-03 -9.480504656418e-04 0.0 
0.0 0.0 0.0 
2.201496630190e-03 -3.245435546342e-04 0.0 
-3.245435546342e-04 1.243495800839e-03 0.0 
0.0 0.0 0.0 
3.566459194484e-03 3.504637426788e-03 0.0 
3.504637426788e-03 1.475649737934e-04 0.0 
0.0 0.0 0.0 
5.052083568265e-03 4.695660295321e-04 0.0 
4.695660295321e-04 -3.831260919241e-03 0.0 
0.0 0.0 0.0 
4.260686246695e-03 2.520296967726e-04 0.0 
2.520296967726e-04 -1.856260837399e-03 0.0 
0.0 0.0 0.0 
5.148339212651e-03 1.313912544918e-03 0.0 
1.313912544918e-03 -3.610072059478e-03 0.0 
0.0 0.0 0.0 
-6.266636394273e-04 4.468966772268e-03 0.0 
4.468966772268e-03 8.927680594426e-03 0.0 
0.0 0.0 0.0 
5.032357151197e-03 4.020331719238e-04 0.0 
4.020331719238e-04 -3.467725770724e-03 0.0 
0.0 0.0 0.0 
-2.038323688961e-04 4.641307417802e-03 0.0 
4.641307417802e-03 7.939215999717e-03 0.0 
0.0 0.0 0.0 
2.306044081147e-03 2.383707125383e-03 0.0 
2.383707125383e-03 2.453977078049e-03 0.0 
0.0 0.0 0.0 
2.675452344891e-03 2.188502491742e-03 0.0 
2.188502491742e-03 1.651779046704e-03 0.0 
0.0 0.0 0.0 
3.847254064121e-03 3.474216059292e-03 0.0 
3.474216059292e-03 -9.107297369428e-04 0.0 
0.0 0.0 0.0 
-2.533930951239e-03 2.366870398688e-03 0.0 
2.366870398688e-03 1.411610186923e-02 0.0 
0.0 0.0 0.0 
1.488067890674e-04 -6.446331893772e-04 0.0 
-6.446331893772e-04 4.064909533338e-03 0.0 
0.0 0.0 0.0 
-3.325972745039e-05 -6.789483176946e-04 0.0 
-6.789483176946e-04 4.071595556551e-03 0.0 
0.0 0.0 0.0 
1.449101394420e-03 3.497937907286e-03 0.0 
3.497937907286e-03 -1.316113712813e-03 0.0 
0.0 0.0 0.0 
1.085596289625e-04 4.615717764460e-03 0.0 
4.615717764460e-03 7.200409562606e-03 0.0 
0.0 0.0 0.0 
-5.577250807476e-05 -4.373197469025e-04 0.0 
-4.373197469025e-04 4.908169363160e-03 0.0 
0.0 0.0 0.0 
-9.555132041515e-04 3.971158168571e-03 0.0 
3.971158168571e-03 6.235393763038e-03 0.0 
0.0 0.0 0.0 
-1.514997012781e-04 -1.437319262505e-03 0.0 
-1.437319262505e-03 2.605889274688e-03 0.0 
0.0 0.0 0.0 
-1.921251377639e-03 3.496256948680e-03 0.0 
3.496256948680e-03 1.671985839868e-03 0.0 
0.0 0.0 0.0 
-3.788077095590e-05 -5.437609825361e-04 0.0 
-5.437609825361e-04 4.483122475909e-03 0.0 
0.0 0.0 0.0 
4.874589857273e-03 1.382560699031e-03 0.0 
1.382560699031e-03 -3.802208593676e-03 0.0 
0.0 0.0 0.0 
-9.968644198090e-04 -4.148894327814e-04 0.0 
-4.148894327814e-04 3.878974234427e-03 0.0 
0.0 0.0 0.0 
2.874354197556e-03 3.248106648531e-03 0.0 
3.248106648531e-03 1.652640477895e-03 0.0 
0.0 0.0 0.0 
-2.783772075928e-03 2.600391203931e-03 0.0 
2.600391203931e-03 1.408683083599e-02 0.0 
0.0 0.0 0.0 
-2.653822921146e-03 2.567591088123e-03 0.0 
2.567591088123e-03 1.369978132754e-02 0.0 
0.0 0.0 0.0 
1.797838648075e-03 4.467175910973e-03 0.0 
4.467175910973e-03 3.242129323954e-03 0.0 
0.0 0.0 0.0 
-2.745656838625e-03 3.322727914563e-03 0.0 
3.322727914563e-03 1.087087790315e-02 0.0 
0.0 0.0 0.0 
-3.115152393456e-03 3.252986729779e-03 0.0 
3.252986729779e-03 1.191674097858e-02 0.0 
0.0 0.0 0.0 
-1.796908790429e-04 -5.740178810010e-04 0.0 
-5.740178810010e-04 4.489044225351e-03 0.0 
0.0 0.0 0.0 
2.533346547165e-03 -8.567415784248e-04 0.0 
-8.567415784248e-04 -7.756034636686e-05 0.0 
0.0 0.0 0.0 
3.698197749900e-03 -6.907133872323e-04 0.0 
-6.907133872323e-04 -1.781679455112e-03 0.0 
0.0 0.0 0.0 
3.065732187941e-03 4.801682565833e-04 0.0 
4.801682565833e-04 3.076071663670e-04 0.0 
0.0 0.0 0.0 
4.656000929931e-03 1.477170313042e-04 0.0 
1.477170313042e-04 -2.409454285680e-03 0.0 
0.0 0.0 0.0 
4.867190439650e-03 1.246741849013e-03 0.0 
1.246741849013e-03 -3.202455329183e-03 0.0 
0.0 0.0 0.0 
-2.686634852093e-03 3.004328817967e-03 0.0 
3.004328817967e-03 1.094285999942e-02 0.0 
0.0 0.0 0.0 
-3.091736484232e-03 2.628326534597e-03 0.0 
2.628326534597e-03 1.363146028441e-02 0.0 
0.0 0.0 0.0 
-1.961589275326e-03 3.025617108152e-05 0.0 
3.025617108152e-05 1.394924752624e-02 0.0 
0.0 0.0 0.0 
2.635412758516e-03 1.951342919693e-03 0.0 
1.951342919693e-03 1.685572583580e-03 0.0 
0.0 0.0 0.0 
4.141886906948e-03 3.119609792321e-03 0.0 
3.119609792321e-03 -8.608865481714e-04 0.0 
0.0 0.0 0.0 
1.456268999323e-03 3.063587975693e-03 0.0 
3.063587975693e-03 4.016959484217e-03 0.0 
0.0 0.0 0.0 
-5.051703065243e-04 -2.418395074322e-04 0.0 
-2.418395074322e-04 5.031850816976e-03 0.0 
0.0 0.0 0.0 
4.479152570732e-03 2.876549961938e-04 0.0 
2.876549961938e-04 -2.217959920023e-03 0.0 
0.0 0.0 0.0 
-1.225261717697e-05 -4.863062382013e-04 0.0 
-4.863062382013e-04 4.949604954519e-03 0.0 
0.0 0.0 0.0 
4.961749021839e-03 -3.478334046010e-04 0.0 
-3.478334046010e-04 -3.501556506052e-03 0.0 
0.0 0.0 0.0 
1.586169338559e-03 3.334456042483e-03 0.0 
3.334456042483e-03 4.031272533526e-03 0.0 
0.0 0.0 0.0 
1.988890473085e-03 4.312148697291e-03 0.0 
4.312148697291e-03 3.264374119213e-03 0.0 
0.0 0.0 0.0 
2.064871738036e-03 4.106764011257e-03 0.0 
4.106764011257e-03 3.184288752540e-03 0.0 
0.0 0.0 0.0 
1.917712608204e-03 7.185454881845e-04 0.0 
7.185454881845e-04 2.036631796759e-03 0.0 
0.0 0.0 0.0 
1.146236003429e-03 -2.563818872551e-03 0.0 
-2.563818872551e-03 3.264766946898e-05 0.0 
0.0 0.0 0.0 
4.803032224570e-04 4.675561238203e-03 0.0 
4.675561238203e-03 6.146534565866e-03 0.0 
0.0 0.0 0.0 
4.270739085805e-03 -3.337303132470e-04 0.0 
-3.337303132470e-04 -2.333883165981e-03 0.0 
0.0 0.0 0.0 
1.560291780007e-04 4.691329603558e-03 0.0 
4.691329603558e-03 6.907329116977e-03 0.0 
0.0 0.0 0.0 
3.019548489180e-03 3.685435440314e-03 0.0 
3.685435440314e-03 -3.030063319167e-04 0.0 
0.0 0.0 0.0 
2.323017560239e-03 3.838244892736e-03 0.0 
3.838244892736e-03 2.811840421440e-03 0.0 
0.0 0.0 0.0 
4.422300902087e-03 -4.890728111820e-04 0.0 
-4.890728111820e-04 -2.355767990540e-03 0.0 
0.0 0.0 0.0 
4.400215654927e-04 -1.467901966146e-03 0.0 
-1.467901966146e-03 2.407784073913e-03 0.0 
0.0 0.0 0.0 
1.880270134036e-05 4.662474906679e-03 0.0 
4.662474906679e-03 6.911796501640e-03 0.0 
0.0 0.0 0.0 
-1.118691621891e-03 4.201899094782e-03 0.0 
4.201899094782e-03 -5.721139073470e-04 0.0 
0.0 0.0 0.0 
3.705022179317e-03 3.037312059763e-03 0.0 
3.037312059763e-03 -1.944697988966e-04 0.0 
0.0 0.0 0.0 
-9.671156308892e-04 3.828505486304e-03 0.0 
3.828505486304e-03 1.256444550953e-03 0.0 
0.0 0.0 0.0 
1.280645947719e-04 -8.293359034808e-04 0.0 
-8.293359034808e-04 9.511990023643e-04 0.0 
0.0 0.0 0.0 
1.145100481594e-04 -1.485747412927e-03 0.0 
-1.485747412927e-03 2.612330889663e-03 0.0 
0.0 0.0 0.0 
2.816968698780e-04 4.558105821673e-03 0.0 
4.558105821673e-03 7.900574345525e-03 0.0 
0.0 0.0 0.0 
-2.411763819007e-03 3.003560464161e-03 0.0 
3.003560464161e-03 1.320324256277e-02 0.0 
0.0 0.0 0.0 
-2.301236258620e-03 3.374902609169e-03 0.0 
3.374902609169e-03 9.132875395263e-03 0.0 
0.0 0.0 0.0 
0.0 3.154538133895e-03 0.0 
3.154538133895e-03 1.517022387164e-02 0.0 
0.0 0.0 0.0 
-2.259384301441e-03 3.997828709486e-03 0.0 
3.997828709486e-03 4.631260922565e-04 0.0 
0.0 0.0 0.0 
-2.466208727415e-03 3.341978399759e-03 0.0 
3.341978399759e-03 9.987633276192e-03 0.0 
0.0 0.0 0.0 
3.594571108373e-03 -6.331288105035e-04 0.0 
-6.331288105035e-04 -1.388281508375e-03 0.0 
0.0 0.0 0.0 
-4.176060396945e-04 -1.355063475797e-03 0.0 
-1.355063475797e-03 2.796807299069e-03 0.0 
0.0 0.0 0.0 
-2.223597199082e-03 3.888688026685e-03 0.0 
3.888688026685e-03 1.005865234421e-02 0.0 
0.0 0.0 0.0 
4.185788281644e-03 -1.534574216602e-03 0.0 
-1.534574216602e-03 -2.735140062709e-03 0.0 
0.0 0.0 0.0 
2.769686192794e-03 -1.197189928154e-03 0.0 
-1.197189928154e-03 -7.604036261931e-04 0.0 
0.0 0.0 0.0 
1.542872219785e-03 4.459820262281e-03 0.0 
4.459820262281e-03 4.349056995453e-03 0.0 
0.0 0.0 0.0 
3.302760750481e-03 2.922655185471e-03 0.0 
2.922655185471e-03 7.333158999603e-04 0.0 
0.0 0.0 0.0 
-4.238359841811e-04 4.481677400354e-03 0.0 
4.481677400354e-03 1.025528808964e-02 0.0 
0.0 0.0 0.0 
2.539176988760e-03 3.753168538271e-03 0.0 
3.753168538271e-03 -2.826519121538e-03 0.0 
0.0 0.0 0.0 
6.800563443177e-05 -1.676223854662e-03 0.0 
-1.676223854662e-03 2.336672417128e-03 0.0 
0.0 0.0 0.0 
-4.022937906781e-04 -1.198819235099e-03 0.0 
-1.198819235099e-03 3.229265629398e-03 0.0 
0.0 0.0 0.0 
2.678229503981e-04 -2.292930879757e-03 0.0 
-2.292930879757e-03 8.509906827292e-04 0.0 
0.0 0.0 0.0 
-3.094587339307e-03 2.216370648820e-03 0.0 
2.216370648820e-03 1.323379215686e-02 0.0 
0.0 0.0 0.0 
-2.538952257402e-03 3.257077852255e-03 0.0 
3.257077852255e-03 1.316832476525e-02 0.0 
0.0 0.0 0.0 
-7.511458649381e-04 -1.200117869337e-04 0.0 
-1.200117869337e-04 4.664424728227e-03 0.0 
0.0 0.0 0.0 
1.395017346434e-03 -3.291355747107e-04 0.0 
-3.291355747107e-04 1.421547821780e-04 0.0 
0.0 0.0 0.0 
9.314779699476e-05 -6.878456590948e-04 0.0 
-6.878456590948e-04 -4.482646613019e-03 0.0 
0.0 0.0 0.0 
8.144415437439e-05 -1.906370356075e-03 0.0 
-1.906370356075e-03 9.000610029692e-04 0.0 
0.0 0.0 0.0 
-5.986031481731e-04 -1.101806628425e-03 0.0 
-1.101806628425e-03 3.214723998133e-03 0.0 
0.0 0.0 0.0 
4.957760245958e-03 -2.000032655212e-04 0.0 
-2.000032655212e-04 -3.191503132604e-03 0.0 
0.0 0.0 0.0 
4.145841464011e-03 -1.695487883364e-03 0.0 
-1.695487883364e-03 -3.129006867367e-03 0.0 
0.0 0.0 0.0 
4.772303906651e-03 -5.035437524904e-04 0.0 
-5.035437524904e-04 -3.684199310202e-03 0.0 
0.0 0.0 0.0 
-1.315695735588e-04 -1.261946133438e-03 0.0 
-1.261946133438e-03 3.083088720475e-03 0.0 
0.0 0.0 0.0 
-1.759568794342e-03 3.719886544094e-03 0.0 
3.719886544094e-03 1.201010899967e-02 0.0 
0.0 0.0 0.0 
-5.671179898256e-04 -9.522309490369e-04 0.0 
-9.522309490369e-04 3.591893717423e-03 0.0 
0.0 0.0 0.0 
5.239193244520e-03 5.527519883536e-04 0.0 
5.527519883536e-04 -3.316383908332e-03 0.0 
0.0 0.0 0.0 
2.628146638393e-04 4.625682153148e-03 0.0 
4.625682153148e-03 7.198459750789e-03 0.0 
0.0 0.0 0.0 
-2.526542721166e-03 7.637022426759e-04 0.0 
7.637022426759e-04 1.455269297864e-02 0.0 
0.0 0.0 0.0 
2.482548952862e-03 3.219725089223e-03 0.0 
3.219725089223e-03 2.465077749755e-03 0.0 
0.0 0.0 0.0 
-7.322622860787e-04 -8.497475715790e-04 0.0 
-8.497475715790e-04 3.575911456168e-03 0.0 
0.0 0.0 0.0 
-3.663333951512e-04 -1.199307578518e-03 0.0 
-1.199307578518e-03 3.073914343477e-03 0.0 
0.0 0.0 0.0 
-2.017980578753e-03 3.361851775722e-03 0.0 
3.361851775722e-03 7.537672572934e-03 0.0 
0.0 0.0 0.0 
4.613073317057e-03 -7.550351119018e-04 0.0 
-7.550351119018e-04 -2.995036209496e-03 0.0 
0.0 0.0 0.0 
-6.912790575003e-04 -7.087975583316e-04 0.0 
-7.087975583316e-04 3.906359778713e-03 0.0 
0.0 0.0 0.0 
-1.686074117709e-03 8.301720779227e-05 0.0 
8.301720779227e-05 1.528980194360e-02 0.0 
0.0 0.0 0.0 
-1.809636360207e-03 6.525514648598e-05 0.0 
6.525514648598e-05 1.497903987047e-02 0.0 
0.0 0.0 0.0 
-2.144372483345e-03 3.387873007960e-03 0.0 
3.387873007960e-03 8.348037349879e-03 0.0 
0.0 0.0 0.0 
-3.331103811841e-04 -1.032187193389e-03 0.0 
-1.032187193389e-03 3.499237210028e-03 0.0 
0.0 0.0 0.0 
2.996323452911e-03 -2.464386653175e-03 0.0 
-2.464386653175e-03 -2.238699887135e-03 0.0 
0.0 0.0 0.0 
2.005977336905e-06 4.125729120913e-03 0.0 
4.125729120913e-03 8.242332581789e-04 0.0 
0.0 0.0 0.0 
1.566237194572e-03 3.167875554711e-03 0.0 
3.167875554711e-03 4.069162632108e-03 0.0 
0.0 0.0 0.0 
-3.856138996705e-05 -2.188565452370e-03 0.0 
-2.188565452370e-03 7.802315017631e-04 0.0 
0.0 0.0 0.0 
2.985320616057e-03 -2.257608098021e-03 0.0 
-2.257608098021e-03 -1.585470541939e-03 0.0 
0.0 0.0 0.0 
3.688394978576e-03 3.125352212306e-03 0.0 
3.125352212306e-03 1.030318999156e-04 0.0 
0.0 0.0 0.0 
-2.062797380465e-03 3.035034080328e-03 0.0 
3.035034080328e-03 9.230939626060e-03 0.0 
0.0 0.0 0.0 
-8.260149434074e-04 -6.061252037085e-04 0.0 
-6.061252037085e-04 3.882909991883e-03 0.0 
0.0 0.0 0.0 
-6.840164121679e-04 -6.493607441162e-05 0.0 
-6.493607441162e-05 2.381851832280e-03 0.0 
0.0 0.0 0.0 
-3.346006152913e-03 2.282696594214e-03 0.0 
2.282696594214e-03 1.371714786279e-02 0.0 
0.0 0.0 0.0 
-5.330786707052e-04 -9.632276834909e-04 0.0 
-9.632276834909e-04 3.488716634047e-03 0.0 
0.0 0.0 0.0 
3.346156181930e-03 -1.189310092297e-03 0.0 
-1.189310092297e-03 -1.664529728400e-03 0.0 
0.0 0.0 0.0 
1.133398478892e-04 -1.665296541023e-03 0.0 
-1.665296541023e-03 2.087998806706e-03 0.0 
0.0 0.0 0.0 
-1.226587402805e-04 2.886537931176e-03 0.0 
2.886537931176e-03 -2.327373468280e-03 0.0 
0.0 0.0 0.0 
-1.117644115043e-03 1.140020376728e-04 0.0 
1.140020376728e-04 1.607312540329e-02 0.0 
0.0 0.0 0.0 
3.591438539020e-03 -1.750340298522e-03 0.0 
-1.750340298522e-03 -2.429727970809e-03 0.0 
0.0 0.0 0.0 
2.230266943419e-03 1.638556030333e-03 0.0 
1.638556030333e-03 2.152820352888e-03 0.0 
0.0 0.0 0.0 
2.265349313943e-03 3.940230884441e-03 0.0 
3.940230884441e-03 3.213413615863e-03 0.0 
0.0 0.0 0.0 
-4.926762285682e-04 -8.078041468417e-04 0.0 
-8.078041468417e-04 3.863495606572e-03 0.0 
0.0 0.0 0.0 
-6.583401461079e-04 -7.321468691309e-04 0.0 
-7.321468691309e-04 3.851707741316e-03 0.0 
0.0 0.0 0.0 
5.056070125673e-03 -2.496103504316e-04 0.0 
-2.496103504316e-04 -3.417766559452e-03 0.0 
0.0 0.0 0.0 
-5.569596522613e-04 -1.954344097763e-03 0.0 
-1.954344097763e-03 8.081551820189e-04 0.0 
0.0 0.0 0.0 
4.334364723837e-04 3.904375863991e-03 0.0 
3.904375863991e-03 -2.534278340625e-03 0.0 
0.0 0.0 0.0 
-6.154496275137e-04 -5.922723289905e-04 0.0 
-5.922723289905e-04 4.185519642345e-03 0.0 
0.0 0.0 0.0 
2.101826943985e-03 9.486125597896e-04 0.0 
9.486125597896e-04 2.044843096819e-03 0.0 
0.0 0.0 0.0 
1.873081489278e-03 -2.678827466674e-03 0.0 
-2.678827466674e-03 -9.860764169143e-04 0.0 
0.0 0.0 0.0 
5.339841630829e-04 4.585175533922e-03 0.0 
4.585175533922e-03 6.507796385220e-03 0.0 
0.0 0.0 0.0 
-7.136051121330e-04 3.925234852382e-03 0.0 
3.925234852382e-03 5.395145182285e-03 0.0 
0.0 0.0 0.0 
-9.947511182873e-05 4.577377028073e-03 0.0 
4.577377028073e-03 8.199273778407e-03 0.0 
0.0 0.0 0.0 
7.835068587436e-04 1.509109048708e-04 0.0 
1.509109048708e-04 4.030317866855e-03 0.0 
0.0 0.0 0.0 
-5.488579613057e-03 -6.382937315997e-05 0.0 
-6.382937315997e-05 -2.457676824896e-03 0.0 
0.0 0.0 0.0 
0.0 3.081406530945e-04 0.0 
3.081406530945e-04 1.652322787309e-02 0.0 
0.0 0.0 0.0 
0.0 -1.674149915309e-04 0.0 
-1.674149915309e-04 6.004641323715e-03 0.0 
0.0 0.0 0.0 
-1.910868087856e-03 -2.861024506559e-05 0.0 
-2.861024506559e-05 1.437635473405e-02 0.0 
0.0 0.0 0.0 
2.480169922858e-03 -2.251407165347e-03 0.0 
-2.251407165347e-03 -1.303917426828e-03 0.0 
0.0 0.0 0.0 
1.964329486440e-03 4.221843505790e-03 0.0 
4.221843505790e-03 3.727189967264e-03 0.0 
0.0 0.0 0.0 
5.132103366462e-03 4.899531641434e-04 0.0 
4.899531641434e-04 -3.266605772225e-03 0.0 
0.0 0.0 0.0 
4.549182447269e-04 -6.773818227943e-04 0.0 
-6.773818227943e-04 7.227010749074e-04 0.0 
0.0 0.0 0.0 
-2.224821075306e-03 3.813701196783e-03 0.0 
3.813701196783e-03 1.137330844171e-03 0.0 
0.0 0.0 0.0 
-1.034411838211e-03 9.299388009596e-04 0.0 
9.299388009596e-04 1.617758050368e-02 0.0 
0.0 0.0 0.0 
-2.203799616598e-03 3.615396176184e-03 0.0 
3.615396176184e-03 1.259546151923e-02 0.0 
0.0 0.0 0.0 
-3.607090249215e-03 2.072031741244e-03 0.0 
2.072031741244e-03 1.360938549977e-02 0.0 
0.0 0.0 0.0 
3.941892533788e-04 4.884451582967e-03 0.0 
4.884451582967e-03 7.551538168338e-03 0.0 
0.0 0.0 0.0 
-3.079995336605e-04 -2.897061657483e-05 0.0 
-2.897061657483e-05 1.941181591609e-03 0.0 
0.0 0.0 0.0 
4.269543773658e-04 4.587915922079e-03 0.0 
4.587915922079e-03 6.983269802958e-03 0.0 
0.0 0.0 0.0 
-2.108918703843e-03 3.403134576064e-03 0.0 
3.403134576064e-03 1.263099878173e-02 0.0 
0.0 0.0 0.0 
1.603304818511e-03 -2.490355470673e-03 0.0 
-2.490355470673e-03 -4.052274341781e-04 0.0 
0.0 0.0 0.0 
2.197765027548e-03 4.244820963803e-03 0.0 
4.244820963803e-03 2.616541350355e-03 0.0 
0.0 0.0 0.0 
2.435547871140e-03 -2.282016794967e-03 0.0 
-2.282016794967e-03 -9.466177556766e-04 0.0 
0.0 0.0 0.0 
-5.849763027177e-05 4.044947043499e-03 0.0 
4.044947043499e-03 1.540230044166e-03 0.0 
0.0 0.0 0.0 
1.893821803329e-03 -2.494545529098e-03 0.0 
-2.494545529098e-03 -4.884731300500e-04 0.0 
0.0 0.0 0.0 
-1.385194912211e-03 3.989567391622e-03 0.0 
3.989567391622e-03 1.134779595883e-02 0.0 
0.0 0.0 0.0 
-4.494433045392e-04 -3.112751800952e-04 0.0 
-3.112751800952e-04 5.101689343314e-03 0.0 
0.0 0.0 0.0 
3.634449883241e-03 -1.867258731910e-03 0.0 
-1.867258731910e-03 -2.123721064539e-03 0.0 
0.0 0.0 0.0 
2.009677435229e-04 4.564685003987e-03 0.0 
4.564685003987e-03 7.524770037991e-03 0.0 
0.0 0.0 0.0 
-2.117002734398e-03 -2.134489905535e-04 0.0 
-2.134489905535e-04 -4.199766139225e-03 0.0 
0.0 0.0 0.0 
4.716146623086e-03 -8.627009245944e-04 0.0 
-8.627009245944e-04 -3.011981044908e-03 0.0 
0.0 0.0 0.0 
-1.943801738883e-03 3.563261068373e-03 0.0 
3.563261068373e-03 1.324700947499e-02 0.0 
0.0 0.0 0.0 
1.015768841490e-03 -2.519186455563e-03 0.0 
-2.519186455563e-03 4.672824297147e-04 0.0 
0.0 0.0 0.0 
1.340957383863e-03 -2.781400203582e-03 0.0 
-2.781400203582e-03 -4.608580608030e-04 0.0 
0.0 0.0 0.0 
2.409742199784e-03 4.056401133580e-03 0.0 
4.056401133580e-03 2.646001386617e-03 0.0 
0.0 0.0 0.0 
2.269045804378e-03 -3.124744021170e-03 0.0 
-3.124744021170e-03 -2.000105989654e-03 0.0 
0.0 0.0 0.0 
-1.805426629769e-03 3.335903447702e-03 0.0 
3.335903447702e-03 6.036053101512e-03 0.0 
0.0 0.0 0.0 
-1.945204460999e-03 3.501367431281e-03 0.0 
3.501367431281e-03 6.787240108329e-03 0.0 
0.0 0.0 0.0 
8.659473120050e-04 -2.573886732103e-03 0.0 
-2.573886732103e-03 4.509647308202e-04 0.0 
0.0 0.0 0.0 
3.248183780144e-03 -9.927025262944e-04 0.0 
-9.927025262944e-04 -1.317797254789e-03 0.0 
0.0 0.0 0.0 
3.751481117877e-03 3.418357689771e-03 0.0 
3.418357689771e-03 -5.063111058609e-04 0.0 
0.0 0.0 0.0 
2.966344028756e-04 4.560403629282e-03 0.0 
4.560403629282e-03 7.524947142856e-03 0.0 
0.0 0.0 0.0 
-4.765212313056e-04 4.421696457449e-03 0.0 
4.421696457449e-03 1.173010294304e-02 0.0 
0.0 0.0 0.0 
-1.783139341287e-03 3.144275399588e-03 0.0 
3.144275399588e-03 7.580548193289e-03 0.0 
0.0 0.0 0.0 
-1.532703109325e-03 6.929871715152e-05 0.0 
6.929871715152e-05 1.558756008834e-02 0.0 
0.0 0.0 0.0 
2.419511698653e-04 4.684935588347e-03 0.0 
4.684935588347e-03 8.717768229401e-03 0.0 
0.0 0.0 0.0 
5.222169965733e-03 4.868150064149e-04 0.0 
4.868150064149e-04 -3.634219570305e-03 0.0 
0.0 0.0 0.0 
-8.087478143431e-04 3.948278458144e-03 0.0 
3.948278458144e-03 1.260737852030e-03 0.0 
0.0 0.0 0.0 
-1.000199365539e-03 4.092305493513e-03 0.0 
4.092305493513e-03 6.214232729170e-03 0.0 
0.0 0.0 0.0 
2.908619606255e-03 -1.401706257244e-03 0.0 
-1.401706257244e-03 -1.194378720888e-03 0.0 
0.0 0.0 0.0 
-4.492767323462e-04 4.475626475752e-03 0.0 
4.475626475752e-03 9.151106889355e-03 0.0 
0.0 0.0 0.0 
3.310052263030e-03 -1.074420307793e-03 0.0 
-1.074420307793e-03 -1.246348356878e-03 0.0 
0.0 0.0 0.0 
1.597690540136e-03 3.328137741464e-03 0.0 
3.328137741464e-03 -2.250468048117e-03 0.0 
0.0 0.0 0.0 
2.992039531936e-03 -7.535411353658e-04 0.0 
-7.535411353658e-04 -7.260632464979e-04 0.0 
0.0 0.0 0.0 
-1.894209957660e-04 4.018509291594e-03 0.0 
4.018509291594e-03 2.252891835394e-03 0.0 
0.0 0.0 0.0 
3.970823127442e-03 3.092991849256e-03 0.0 
3.092991849256e-03 -4.609683359175e-04 0.0 
0.0 0.0 0.0 
3.149426639737e-03 -8.876690062355e-04 0.0 
-8.876690062355e-04 -8.103715045654e-04 0.0 
0.0 0.0 0.0 
2.507429542429e-03 3.961466290733e-03 0.0 
3.961466290733e-03 2.151095397818e-03 0.0 
0.0 0.0 0.0 
-1.832840904223e-03 2.396626345277e-04 0.0 
2.396626345277e-04 1.523271386280e-02 0.0 
0.0 0.0 0.0 
6.043995109781e-04 -2.547089117582e-03 0.0 
-2.547089117582e-03 4.485239989338e-04 0.0 
0.0 0.0 0.0 
1.489570002944e-04 4.184425284612e-03 0.0 
4.184425284612e-03 6.876604194495e-05 0.0 
0.0 0.0 0.0 
2.970400623338e-03 -5.606643839960e-04 0.0 
-5.606643839960e-04 -1.243376326391e-04 0.0 
0.0 0.0 0.0 
-2.884052956568e-04 3.965845449237e-03 0.0 
3.965845449237e-03 2.978269994097e-03 0.0 
0.0 0.0 0.0 
2.558691075571e-04 1.024121927843e-03 0.0 
1.024121927843e-03 -4.661901097813e-03 0.0 
0.0 0.0 0.0 
-7.279718994057e-04 1.631939361737e-04 0.0 
1.631939361737e-04 1.627696706293e-02 0.0 
0.0 0.0 0.0 
-1.049624015410e-03 1.371001659801e-04 0.0 
1.371001659801e-04 1.607401293427e-02 0.0 
0.0 0.0 0.0 
-4.289437292289e-04 -6.962271946518e-04 0.0 
-6.962271946518e-04 5.931919776685e-04 0.0 
0.0 0.0 0.0 
2.705476366787e-03 -3.575657929173e-04 0.0 
-3.575657929173e-04 6.308410401035e-05 0.0 
0.0 0.0 0.0 
1.735866593309e-04 -2.162424851322e-03 0.0 
-2.162424851322e-03 8.667000512306e-04 0.0 
0.0 0.0 0.0 
4.271286024538e-05 -2.145641925884e-03 0.0 
-2.145641925884e-03 1.166179984739e-03 0.0 
0.0 0.0 0.0 
2.508454723325e-04 4.569605667338e-03 0.0 
4.569605667338e-03 7.899870775783e-03 0.0 
0.0 0.0 0.0 
2.734440678786e-03 3.719747121303e-03 0.0 
3.719747121303e-03 2.182862193810e-03 0.0 
0.0 0.0 0.0 
5.564081815255e-04 4.542853361261e-03 0.0 
4.542853361261e-03 6.905480599248e-03 0.0 
0.0 0.0 0.0 
4.168838471132e-03 -1.479348229525e-03 0.0 
-1.479348229525e-03 -2.893907701861e-03 0.0 
0.0 0.0 0.0 
-2.031061834017e-03 7.568585716085e-05 0.0 
7.568585716085e-05 1.395066393533e-02 0.0 
0.0 0.0 0.0 
3.213575719121e-04 -7.064845456629e-05 0.0 
-7.064845456629e-05 4.235828323489e-03 0.0 
0.0 0.0 0.0 
-7.511943556537e-05 -1.939285593039e-03 0.0 
-1.939285593039e-03 1.098620200852e-03 0.0 
0.0 0.0 0.0 
2.373013194566e-03 1.670059141941e-03 0.0 
1.670059141941e-03 1.831596135850e-03 0.0 
0.0 0.0 0.0 
3.388215251543e-03 3.513437988528e-03 0.0 
3.513437988528e-03 5.767593959261e-04 0.0 
0.0 0.0 0.0 
1.075871296727e-04 -3.872001247560e-04 0.0 
-3.872001247560e-04 1.339542762841e-03 0.0 
0.0 0.0 0.0 
-8.482138954641e-04 4.335865674071e-03 0.0 
4.335865674071e-03 9.831085056703e-03 0.0 
0.0 0.0 0.0 
5.025602727362e-03 -1.214034649170e-04 0.0 
-1.214034649170e-04 -3.107421790902e-03 0.0 
0.0 0.0 0.0 
-4.831430070815e-04 -1.995906761205e-03 0.0 
-1.995906761205e-03 8.380361506233e-04 0.0 
0.0 0.0 0.0 
4.656540838693e-03 -1.011774081973e-03 0.0 
-1.011774081973e-03 -3.231210137591e-03 0.0 
0.0 0.0 0.0 
-8.123387986558e-04 -4.202997637538e-05 0.0 
-4.202997637538e-05 4.570097635946e-03 0.0 
0.0 0.0 0.0 
-1.429052880798e-03 4.149028310312e-03 0.0 
4.149028310312e-03 1.131109729366e-02 0.0 
0.0 0.0 0.0 
6.519032244290e-05 -2.191629229467e-03 0.0 
-2.191629229467e-03 5.953693245928e-04 0.0 
0.0 0.0 0.0 
-1.094033744364e-03 -2.880772223776e-04 0.0 
-2.880772223776e-04 3.852756683570e-03 0.0 
0.0 0.0 0.0 
-8.369837862021e-05 4.550816402180e-03 0.0 
4.550816402180e-03 8.505457375257e-03 0.0 
0.0 0.0 0.0 
2.123101907462e-03 3.349432091107e-03 0.0 
3.349432091107e-03 3.378482946831e-03 0.0 
0.0 0.0 0.0 
1.382856105072e-03 -2.598306041040e-03 0.0 
-2.598306041040e-03 -1.888821337859e-05 0.0 
0.0 0.0 0.0 
-7.562200482039e-04 -3.267989574644e-04 0.0 
-3.267989574644e-04 2.376065572109e-03 0.0 
0.0 0.0 0.0 
3.524515760102e-03 3.437651414588e-03 0.0 
3.437651414588e-03 6.068379165391e-05 0.0 
0.0 0.0 0.0 
-1.749466537348e-03 -2.383047234505e-05 0.0 
-2.383047234505e-05 1.511091050225e-02 0.0 
0.0 0.0 0.0 
-2.702120455315e-04 -2.758164692070e-03 0.0 
-2.758164692070e-03 6.385099525867e-04 0.0 
0.0 0.0 0.0 
2.827830027561e-04 5.036162285066e-03 0.0 
5.036162285066e-03 8.627375470119e-03 0.0 
0.0 0.0 0.0 
-3.844778158799e-04 4.243634561213e-03 0.0 
4.243634561213e-03 1.302419721457e-02 0.0 
0.0 0.0 0.0 
-1.876784721277e-03 8.537464781778e-06 0.0 
8.537464781778e-06 1.461244013497e-02 0.0 
0.0 0.0 0.0 
-1.084685469529e-03 2.368146868689e-03 0.0 
2.368146868689e-03 1.571974598075e-02 0.0 
0.0 0.0 0.0 
-2.098362164057e-04 4.646624152582e-03 0.0 
4.646624152582e-03 1.176368026665e-02 0.0 
0.0 0.0 0.0 
4.200115094487e-03 -1.328233525729e-03 0.0 
-1.328233525729e-03 -2.511000380374e-03 0.0 
0.0 0.0 0.0 
3.020002807915e-03 -2.183494116210e-03 0.0 
-2.183494116210e-03 -2.060763201665e-03 0.0 
0.0 0.0 0.0 
1.253787584426e-03 2.294754801342e-03 0.0 
2.294754801342e-03 4.070937435565e-03 0.0 
0.0 0.0 0.0 
-1.832557801636e-03 4.932100046246e-04 0.0 
4.932100046246e-04 -4.065751525210e-03 0.0 
0.0 0.0 0.0 
-5.414008455472e-04 -1.338133726176e-04 0.0 
-1.338133726176e-04 2.171412223936e-03 0.0 
0.0 0.0 0.0 
-1.009547697091e-03 -1.910514524288e-04 0.0 
-1.910514524288e-04 3.959129460113e-03 0.0 
0.0 0.0 0.0 
1.034413930967e-03 -2.669276855843e-03 0.0 
-2.669276855843e-03 -3.332526050337e-06 0.0 
0.0 0.0 0.0 
3.583961687203e-03 -2.074131923506e-03 0.0 
-2.074131923506e-03 -2.291873523327e-03 0.0 
0.0 0.0 0.0 
-1.692529757367e-03 3.374577542779e-03 0.0 
3.374577542779e-03 4.691933671806e-03 0.0 
0.0 0.0 0.0 
-1.834117646296e-03 3.574425297058e-03 0.0 
3.574425297058e-03 5.312737049830e-03 0.0 
0.0 0.0 0.0 
-2.529280508831e-03 5.987147807107e-04 0.0 
5.987147807107e-04 1.463885154696e-02 0.0 
0.0 0.0 0.0 
4.658075065977e-03 -9.993709379168e-04 0.0 
-9.993709379168e-04 -3.290197139820e-03 0.0 
0.0 0.0 0.0 
-7.908739541170e-04 -8.041594618470e-04 0.0 
-8.041594618470e-04 2.427829823287e-03 0.0 
0.0 0.0 0.0 
2.056716445421e-03 3.782560196799e-03 0.0 
3.782560196799e-03 3.518815575986e-03 0.0 
0.0 0.0 0.0 
1.338381236231e-04 -4.085075171373e-04 0.0 
-4.085075171373e-04 5.212470275839e-03 0.0 
0.0 0.0 0.0 
2.126635364861e-04 -3.138403759510e-04 0.0 
-3.138403759510e-04 4.999940720670e-03 0.0 
0.0 0.0 0.0 
2.985804375288e-03 -1.975743950531e-03 0.0 
-1.975743950531e-03 -1.358965282123e-03 0.0 
0.0 0.0 0.0 
-2.682346735860e-03 6.920615118507e-04 0.0 
6.920615118507e-04 1.435738360885e-02 0.0 
0.0 0.0 0.0 
-2.028919514509e-03 1.323204108834e-04 0.0 
1.323204108834e-04 -3.538931332006e-03 0.0 
0.0 0.0 0.0 
-1.715522059018e-03 3.539627702395e-03 0.0 
3.539627702395e-03 3.483915004612e-03 0.0 
0.0 0.0 0.0 
1.897820278923e-03 -3.620031846277e-03 0.0 
-3.620031846277e-03 -2.619483500812e-03 0.0 
0.0 0.0 0.0 
-1.706476180722e-03 3.476024204823e-03 0.0 
3.476024204823e-03 4.072097979762e-03 0.0 
0.0 0.0 0.0 
3.199025315811e-03 3.460358220949e-03 0.0 
3.460358220949e-03 1.161959898984e-03 0.0 
0.0 0.0 0.0 
2.353194973288e-03 -2.497870699144e-03 0.0 
-2.497870699144e-03 -1.010586413642e-03 0.0 
0.0 0.0 0.0 
3.634482947464e-03 -2.045294308783e-03 0.0 
-2.045294308783e-03 -2.650360968828e-03 0.0 
0.0 0.0 0.0 
9.857813898928e-04 -3.526622784954e-03 0.0 
-3.526622784954e-03 -3.269564073618e-03 0.0 
0.0 0.0 0.0 
-9.093287361509e-04 2.558393039664e-04 0.0 
2.558393039664e-04 1.612330858976e-02 0.0 
0.0 0.0 0.0 
2.447995828895e-03 -2.476069397098e-03 0.0 
-2.476069397098e-03 -1.551081869404e-03 0.0 
0.0 0.0 0.0 
-8.540552869533e-04 9.307724701428e-04 0.0 
9.307724701428e-04 1.617636455968e-02 0.0 
0.0 0.0 0.0 
-1.283369723665e-03 3.356505970808e-04 0.0 
3.356505970808e-04 1.593630194992e-02 0.0 
0.0 0.0 0.0 
-3.501308699760e-04 4.224972417390e-04 0.0 
4.224972417390e-04 1.651084089934e-02 0.0 
0.0 0.0 0.0 
-1.492576215565e-04 -2.193111312956e-04 0.0 
-2.193111312956e-04 5.988408237801e-03 0.0 
0.0 0.0 0.0 
-1.888580996414e-03 4.947424337427e-05 0.0 
4.947424337427e-05 1.462200753565e-02 0.0 
0.0 0.0 0.0 
2.007179153692e-03 -2.524218562240e-03 0.0 
-2.524218562240e-03 -9.024280672645e-04 0.0 
0.0 0.0 0.0 
-1.686423892002e-03 3.324294318586e-03 0.0 
3.324294318586e-03 6.034620530732e-03 0.0 
0.0 0.0 0.0 
2.039230812541e-03 -2.343120733526e-03 0.0 
-2.343120733526e-03 -4.329577573486e-04 0.0 
0.0 0.0 0.0 
0.0 -4.185884365248e-04 0.0 
-4.185884365248e-04 5.439934942368e-03 0.0 
0.0 0.0 0.0 
-1.829007771952e-03 3.562451446846e-03 0.0 
3.562451446846e-03 2.335383570397e-03 0.0 
0.0 0.0 0.0 
-1.729209926764e-03 3.539122950476e-03 0.0 
3.539122950476e-03 2.896442612847e-03 0.0 
0.0 0.0 0.0 
2.127582888258e-03 2.111410416541e-03 0.0 
2.111410416541e-03 2.508213035033e-03 0.0 
0.0 0.0 0.0 
-2.321328008906e-03 3.836489502709e-04 0.0 
3.836489502709e-04 1.431163025928e-02 0.0 
0.0 0.0 0.0 
-7.783023290564e-04 6.170563599974e-04 0.0 
6.170563599974e-04 1.623923148212e-02 0.0 
0.0 0.0 0.0 
-4.398004068462e-05 4.554181836498e-03 0.0 
4.554181836498e-03 8.505206548290e-03 0.0 
0.0 0.0 0.0 
1.698030060492e-03 3.551476127035e-03 0.0 
3.551476127035e-03 4.076358766610e-03 0.0 
0.0 0.0 0.0 
-8.692649740716e-04 4.428296845012e-03 0.0 
4.428296845012e-03 1.079718302486e-02 0.0 
0.0 0.0 0.0 
-1.925322208064e-03 1.909750387844e-04 0.0 
1.909750387844e-04 1.471589911218e-02 0.0 
0.0 0.0 0.0 
8.472511544566e-04 -2.725222445937e-03 0.0 
-2.725222445937e-03 5.254952615341e-05 0.0 
0.0 0.0 0.0 
1.148726749382e-03 -2.677079855705e-03 0.0 
-2.677079855705e-03 4.494397757360e-05 0.0 
0.0 0.0 0.0 
-1.596445938096e-03 1.647487689855e-04 0.0 
1.647487689855e-04 1.544548879471e-02 0.0 
0.0 0.0 0.0 
1.706968817292e-03 3.617382986175e-03 0.0 
3.617382986175e-03 4.247316694556e-03 0.0 
0.0 0.0 0.0 
-3.072056212741e-03 1.069781489365e-03 0.0 
1.069781489365e-03 1.398789969681e-02 0.0 
0.0 0.0 0.0 
-1.953914494414e-03 4.217959214027e-05 0.0 
4.217959214027e-05 1.429077153152e-02 0.0 
0.0 0.0 0.0 
-1.942289260805e-03 8.138387299696e-05 0.0 
8.138387299696e-05 1.461378988937e-02 0.0 
0.0 0.0 0.0 
-2.031708828298e-03 1.605430489008e-04 0.0 
1.605430489008e-04 1.473011366432e-02 0.0 
0.0 0.0 0.0 
2.677734618634e-03 -1.877796876793e-03 0.0 
-1.877796876793e-03 -4.055565869870e-03 0.0 
0.0 0.0 0.0 
6.250630766347e-04 -2.564120364039e-03 0.0 
-2.564120364039e-03 5.289329899487e-04 0.0 
0.0 0.0 0.0 
-7.291715347227e-04 1.375109161637e-03 0.0 
1.375109161637e-03 1.620896631287e-02 0.0 
0.0 0.0 0.0 
-1.963044478487e-03 2.631009092868e-04 0.0 
2.631009092868e-04 1.508773862435e-02 0.0 
0.0 0.0 0.0 
7.509161968935e-04 3.183577707608e-03 0.0 
3.183577707608e-03 4.897155175483e-03 0.0 
0.0 0.0 0.0 
-7.251780740063e-04 4.639402863574e-03 0.0 
4.639402863574e-03 1.163849314686e-02 0.0 
0.0 0.0 0.0 
-8.149623421292e-04 4.438499987632e-03 0.0 
4.438499987632e-03 9.811719204803e-03 0.0 
0.0 0.0 0.0 
-1.350703416931e-03 2.450495717695e-03 0.0 
2.450495717695e-03 1.550668240410e-02 0.0 
0.0 0.0 0.0 
-9.041940821011e-04 -1.070650642213e-03 0.0 
-1.070650642213e-03 2.972665749538e-03 0.0 
0.0 0.0 0.0 
-8.669395083194e-04 -1.139211596211e-03 0.0 
-1.139211596211e-03 2.720735798735e-03 0.0 
0.0 0.0 0.0 
6.751406647796e-04 -1.008505124851e-04 0.0 
-1.008505124851e-04 3.709239595782e-03 0.0 
0.0 0.0 0.0 
4.545030966558e-04 -2.037269292959e-03 0.0 
-2.037269292959e-03 -3.709224561980e-03 0.0 
0.0 0.0 0.0 
-4.919913178607e-04 -2.251133745672e-04 0.0 
-2.251133745672e-04 2.225691194262e-03 0.0 
0.0 0.0 0.0 
0.0 4.516396016055e-03 0.0 
4.516396016055e-03 7.243878931085e-03 0.0 
0.0 0.0 0.0 
7.512476711848e-04 3.882095836511e-05 0.0 
3.882095836511e-05 7.416917572300e-04 0.0 
0.0 0.0 0.0 
-1.936219079646e-03 5.613976485363e-05 0.0 
5.613976485363e-05 1.430132151901e-02 0.0 
0.0 0.0 0.0 
1.693217323554e-03 1.559059278183e-03 0.0 
1.559059278183e-03 3.105679684786e-03 0.0 
0.0 0.0 0.0 
-1.296645933683e-04 -8.896727433315e-04 0.0 
-8.896727433315e-04 5.747981317543e-04 0.0 
0.0 0.0 0.0 
1.397401728209e-03 -4.307413594163e-04 0.0 
-4.307413594163e-04 -2.179826797044e-04 0.0 
0.0 0.0 0.0 
-4.873366633719e-04 2.117869894396e-03 0.0 
2.117869894396e-03 1.599331299314e-02 0.0 
0.0 0.0 0.0 
-2.207190945045e-03 1.399807878359e-04 0.0 
1.399807878359e-04 1.399036164610e-02 0.0 
0.0 0.0 0.0 
-7.845395137454e-04 1.835905533898e-03 0.0 
1.835905533898e-03 1.600966772444e-02 0.0 
0.0 0.0 0.0 
1.291431228042e-03 1.998613421221e-03 0.0 
1.998613421221e-03 3.211894717107e-03 0.0 
0.0 0.0 0.0 
-2.183159631897e-03 1.027717752978e-04 0.0 
1.027717752978e-04 1.398702075789e-02 0.0 
0.0 0.0 0.0 
-1.836226916269e-03 6.858428773849e-04 0.0 
6.858428773849e-04 -3.478431268978e-03 0.0 
0.0 0.0 0.0 
-3.786242060776e-04 3.260262698502e-04 0.0 
3.260262698502e-04 1.640948908399e-02 0.0 
0.0 0.0 0.0 
3.319337762688e-04 -5.765580642554e-04 0.0 
-5.765580642554e-04 9.382918763998e-04 0.0 
0.0 0.0 0.0 
-8.211088813822e-04 1.523577911546e-03 0.0 
1.523577911546e-03 1.604223106534e-02 0.0 
0.0 0.0 0.0 
0.0 -4.157976958514e-04 0.0 
-4.157976958514e-04 5.643650576938e-03 0.0 
0.0 0.0 0.0 
-9.248882346120e-04 4.123747596714e-03 0.0 
4.123747596714e-03 1.291201192955e-02 0.0 
0.0 0.0 0.0 
3.520905332724e-03 -1.650084512341e-03 0.0 
-1.650084512341e-03 -4.118948709830e-03 0.0 
0.0 0.0 0.0 
-2.842981935589e-03 1.338580644831e-03 0.0 
1.338580644831e-03 1.435479898045e-02 0.0 
0.0 0.0 0.0 
-1.068702609511e-03 -6.573508987267e-04 0.0 
-6.573508987267e-04 3.093249030199e-03 0.0 
0.0 0.0 0.0 
2.090705115043e-03 3.564835000267e-03 0.0 
3.564835000267e-03 3.535055167897e-03 0.0 
0.0 0.0 0.0 
5.389491048806e-04 3.509071713215e-03 0.0 
3.509071713215e-03 5.681433882813e-03 0.0 
0.0 0.0 0.0 
-1.425510727566e-03 2.119049059853e-04 0.0 
2.119049059853e-04 1.573829023027e-02 0.0 
0.0 0.0 0.0 
6.155993934918e-04 3.076451850131e-03 0.0 
3.076451850131e-03 5.259149937326e-03 0.0 
0.0 0.0 0.0 
1.681700240049e-03 -1.692524937672e-03 0.0 
-1.692524937672e-03 -4.539269497193e-03 0.0 
0.0 0.0 0.0 
7.156430112287e-05 -4.770740017011e-04 0.0 
-4.770740017011e-04 5.065693718514e-03 0.0 
0.0 0.0 0.0 
3.302287014122e-03 -2.594686774401e-03 0.0 
-2.594686774401e-03 -2.895191162100e-03 0.0 
0.0 0.0 0.0 
5.507373967411e-04 -2.676257242677e-04 0.0 
-2.676257242677e-04 8.355942178444e-04 0.0 
0.0 0.0 0.0 
1.042257244492e-03 1.087371954251e-03 0.0 
1.087371954251e-03 3.789048612137e-03 0.0 
0.0 0.0 0.0 
-9.874577334315e-04 3.385174810394e-03 0.0 
3.385174810394e-03 1.485219988199e-02 0.0 
0.0 0.0 0.0 
-6.624842989313e-04 2.150467934847e-03 0.0 
2.150467934847e-03 1.587293185234e-02 0.0 
0.0 0.0 0.0 
-2.025685358998e-03 1.646231455664e-04 0.0 
1.646231455664e-04 1.429381457431e-02 0.0 
0.0 0.0 0.0 
-2.864176320558e-03 2.229124340714e-03 0.0 
2.229124340714e-03 1.376395741789e-02 0.0 
0.0 0.0 0.0 
6.932323713293e-06 3.916534701390e-03 0.0 
3.916534701390e-03 1.533985270241e-03 0.0 
0.0 0.0 0.0 
-4.425181790707e-04 4.926797600081e-03 0.0 
4.926797600081e-03 1.155354414365e-02 0.0 
0.0 0.0 0.0 
-1.018046248185e-03 -6.053208983421e-04 0.0 
-6.053208983421e-04 2.857195562169e-03 0.0 
0.0 0.0 0.0 
9.242576937345e-04 3.761606893457e-03 0.0 
3.761606893457e-03 -1.078423152621e-03 0.0 
0.0 0.0 0.0 
2.119515294051e-03 3.539491193615e-03 0.0 
3.539491193615e-03 3.353403837437e-03 0.0 
0.0 0.0 0.0 
-2.004986659025e-03 5.686327387314e-05 0.0 
5.686327387314e-05 1.392908412307e-02 0.0 
0.0 0.0 0.0 
-9.072713455976e-04 3.225492462696e-03 0.0 
3.225492462696e-03 1.466515880673e-02 0.0 
0.0 0.0 0.0 
-2.963180244605e-04 -2.833684692848e-06 0.0 
-2.833684692848e-06 1.654737693551e-02 0.0 
0.0 0.0 0.0 
0.0 1.481590122298e-04 0.0 
1.481590122298e-04 1.655304430490e-02 0.0 
0.0 0.0 0.0 
2.908644812278e-03 7.942370115768e-05 0.0 
7.942370115768e-05 -1.050600474021e-03 0.0 
0.0 0.0 0.0 
2.385087007122e-03 -1.376548487724e-04 0.0 
-1.376548487724e-04 -9.611997687259e-04 0.0 
0.0 0.0 0.0 
-1.937421559145e-03 -2.817253387849e-05 0.0 
-2.817253387849e-05 1.397016031625e-02 0.0 
0.0 0.0 0.0 
-1.962517874116e-03 5.835489723647e-06 0.0 
5.835489723647e-06 1.392724058401e-02 0.0 
0.0 0.0 0.0 
0.0 -7.947738717630e-05 0.0 
-7.947738717630e-05 6.045804212234e-03 0.0 
0.0 0.0 0.0 
-1.589547743522e-04 9.194470025302e-06 0.0 
9.194470025302e-06 6.027415272183e-03 0.0 
0.0 0.0 0.0 
2.264971001920e-03 -6.280868484223e-05 0.0 
-6.280868484223e-05 -6.489244286478e-04 0.0 
0.0 0.0 0.0 
-1.862029366761e-03 -3.522032657604e-04 0.0 
-3.522032657604e-04 -4.318370036564e-03 0.0 
0.0 0.0 0.0 
-1.496581286847e-04 -3.773698842357e-04 0.0 
-3.773698842357e-04 5.195386395479e-03 0.0 
0.0 0.0 0.0 
1.060453360077e-03 4.412991066807e-03 0.0 
4.412991066807e-03 6.079263316352e-03 0.0 
0.0 0.0 0.0 
3.589771998955e-04 -5.946234815867e-04 0.0 
-5.946234815867e-04 1.093463541937e-03 0.0 
0.0 0.0 0.0 
2.003151398384e-04 -4.403285296608e-04 0.0 
-4.403285296608e-04 4.504826819410e-03 0.0 
0.0 0.0 0.0 
-9.558335446294e-04 -1.178396412154e-04 0.0 
-1.178396412154e-04 4.165126092773e-03 0.0 
0.0 0.0 0.0 
-1.134540828382e-03 -1.448536920620e-04 0.0 
-1.448536920620e-04 3.711540586366e-03 0.0 
0.0 0.0 0.0 
-1.832758373297e-03 2.498220870069e-04 0.0 
2.498220870069e-04 1.523877984808e-02 0.0 
0.0 0.0 0.0 
8.256437911078e-04 -3.275651711786e-03 0.0 
-3.275651711786e-03 -7.260993778141e-04 0.0 
0.0 0.0 0.0 
2.448066080053e-03 3.611957774398e-03 0.0 
3.611957774398e-03 2.840473877656e-03 0.0 
0.0 0.0 0.0 
6.123843015378e-04 -6.404696406662e-04 0.0 
-6.404696406662e-04 7.456850809726e-04 0.0 
0.0 0.0 0.0 
-9.774987542210e-04 -8.185133703503e-04 0.0 
-8.185133703503e-04 3.187406762311e-03 0.0 
0.0 0.0 0.0 
-2.917883546721e-04 4.611197646162e-03 0.0 
4.611197646162e-03 1.114680231930e-02 0.0 
0.0 0.0 0.0 
-9.282668595032e-04 -8.418139168524e-06 0.0 
-8.418139168524e-06 1.619115981193e-02 0.0 
0.0 0.0 0.0 
-1.105786025151e-03 -2.520482677409e-04 0.0 
-2.520482677409e-04 3.766997462662e-03 0.0 
0.0 0.0 0.0 
-1.886007629495e-03 6.678727267835e-05 0.0 
6.678727267835e-05 1.487912266293e-02 0.0 
0.0 0.0 0.0 
5.442663474624e-04 4.825307609276e-03 0.0 
4.825307609276e-03 7.768422121742e-03 0.0 
0.0 0.0 0.0 
-5.629121575207e-04 4.548924390381e-03 0.0 
4.548924390381e-03 1.024622001004e-02 0.0 
0.0 0.0 0.0 
-6.788173938485e-04 4.473673465087e-03 0.0 
4.473673465087e-03 1.001051163253e-02 0.0 
0.0 0.0 0.0 
-2.100418669895e-03 8.331997790608e-05 0.0 
8.331997790608e-05 1.397467034507e-02 0.0 
0.0 0.0 0.0 
2.909204217698e-03 3.349088371252e-03 0.0 
3.349088371252e-03 1.870513134627e-03 0.0 
0.0 0.0 0.0 
-8.262021790316e-04 3.681351866906e-03 0.0 
3.681351866906e-03 1.388009953209e-02 0.0 
0.0 0.0 0.0 
-6.827135636079e-04 -5.390938577723e-04 0.0 
-5.390938577723e-04 2.280441439231e-03 0.0 
0.0 0.0 0.0 
-1.302509125550e-04 -6.518668090698e-04 0.0 
-6.518668090698e-04 4.302608251765e-04 0.0 
0.0 0.0 0.0 
3.956468555546e-04 4.570920932782e-03 0.0 
4.570920932782e-03 7.792016183778e-03 0.0 
0.0 0.0 0.0 
2.475488540833e-03 1.878967859673e-03 0.0 
1.878967859673e-03 1.817537502641e-03 0.0 
0.0 0.0 0.0 
7.898552269159e-04 -3.354658690643e-03 0.0 
-3.354658690643e-03 -8.784717004549e-04 0.0 
0.0 0.0 0.0 
-1.697651967940e-03 1.399095214809e-04 0.0 
1.399095214809e-04 1.546316800430e-02 0.0 
0.0 0.0 0.0 
-9.710011036634e-05 -3.666291720938e-04 0.0 
-3.666291720938e-04 5.479979672648e-03 0.0 
0.0 0.0 0.0 
8.987307112931e-04 4.349178527502e-03 0.0 
4.349178527502e-03 6.336556731602e-03 0.0 
0.0 0.0 0.0 
7.429047746952e-04 4.669855200753e-03 0.0 
4.669855200753e-03 7.100718379832e-03 0.0 
0.0 0.0 0.0 
-8.569233773230e-04 -1.336509836749e-04 0.0 
-1.336509836749e-04 4.382328108450e-03 0.0 
0.0 0.0 0.0 
-7.034917019721e-05 2.941606228283e-03 0.0 
2.941606228283e-03 -3.400407004416e-03 0.0 
0.0 0.0 0.0 
-1.668551626523e-03 3.452471369387e-03 0.0 
3.452471369387e-03 4.698820699905e-03 0.0 
0.0 0.0 0.0 
-3.018787734071e-04 3.888641486875e-03 0.0 
3.888641486875e-03 2.975260172944e-03 0.0 
0.0 0.0 0.0 
-2.881262400767e-03 1.424677697761e-03 0.0 
1.424677697761e-03 1.445831560896e-02 0.0 
0.0 0.0 0.0 
2.752777434857e-03 3.616577148984e-03 0.0 
3.616577148984e-03 1.838854615275e-03 0.0 
0.0 0.0 0.0 
-8.721760411592e-04 1.140167557663e-03 0.0 
1.140167557663e-03 1.617782111953e-02 0.0 
0.0 0.0 0.0 
7.586497765795e-04 2.382947375675e-03 0.0 
2.382947375675e-03 4.082442585758e-03 0.0 
0.0 0.0 0.0 
-8.868849781849e-04 -2.419219726436e-03 0.0 
-2.419219726436e-03 4.565571829183e-04 0.0 
0.0 0.0 0.0 
-4.638322905567e-04 -1.391830021880e-03 0.0 
-1.391830021880e-03 6.609500232206e-04 0.0 
0.0 0.0 0.0 
-1.589578074691e-03 3.559546581865e-03 0.0 
3.559546581865e-03 3.485410168747e-03 0.0 
0.0 0.0 0.0 
-1.574666807135e-03 3.559838473338e-04 0.0 
3.559838473338e-04 1.555131978599e-02 0.0 
0.0 0.0 0.0 
-7.708149122060e-04 -8.349017976918e-04 0.0 
-8.349017976918e-04 2.455534555057e-03 0.0 
0.0 0.0 0.0 
-1.122100363574e-03 2.767440077827e-03 0.0 
2.767440077827e-03 1.528813324828e-02 0.0 
0.0 0.0 0.0 
5.475444212417e-04 -2.814300869059e-04 0.0 
-2.814300869059e-04 1.028539641642e-03 0.0 
0.0 0.0 0.0 
1.480822573147e-03 2.320160123759e-03 0.0 
2.320160123759e-03 3.295384248091e-03 0.0 
0.0 0.0 0.0 
-2.299930358136e-03 5.182810302788e-04 0.0 
5.182810302788e-04 1.465378906456e-02 0.0 
0.0 0.0 0.0 
5.473861690453e-04 3.891740118541e-03 0.0 
3.891740118541e-03 5.824467287426e-03 0.0 
0.0 0.0 0.0 
1.696669728023e-03 3.850484774343e-03 0.0 
3.850484774343e-03 4.465987705195e-03 0.0 
0.0 0.0 0.0 
-3.046506493859e-03 1.806342606348e-03 0.0 
1.806342606348e-03 1.431409562521e-02 0.0 
0.0 0.0 0.0 
8.724627732155e-04 4.364386123919e-04 0.0 
4.364386123919e-04 3.907193794666e-03 0.0 
0.0 0.0 0.0 
-8.811042914166e-04 3.134675158484e-03 0.0 
3.134675158484e-03 1.512273294114e-02 0.0 
0.0 0.0 0.0 
-6.161495553882e-04 2.823109093688e-04 0.0 
2.823109093688e-04 1.641937186178e-02 0.0 
0.0 0.0 0.0 
-1.588932863084e-03 3.577304658595e-03 0.0 
3.577304658595e-03 2.335989899326e-03 0.0 
0.0 0.0 0.0 
-1.068154419149e-03 2.392231286576e-03 0.0 
2.392231286576e-03 1.551069014848e-02 0.0 
0.0 0.0 0.0 
1.244630118389e-04 4.817203954440e-03 0.0 
4.817203954440e-03 8.950555828382e-03 0.0 
0.0 0.0 0.0 
1.730994012426e-03 2.253083169219e-03 0.0 
2.253083169219e-03 3.312377600174e-03 0.0 
0.0 0.0 0.0 
1.757838233994e-03 3.788798597772e-03 0.0 
3.788798597772e-03 4.207058732739e-03 0.0 
0.0 0.0 0.0 
0.0 -2.982452475278e-04 0.0 
-2.982452475278e-04 5.130336807286e-03 0.0 
0.0 0.0 0.0 
-6.251414303067e-04 4.401684606606e-03 0.0 
4.401684606606e-03 1.002010579708e-02 0.0 
0.0 0.0 0.0 
-1.813561038811e-03 2.157591324718e-03 0.0 
2.157591324718e-03 -2.463591319931e-03 0.0 
0.0 0.0 0.0 
5.156876712447e-04 4.113859503393e-03 0.0 
4.113859503393e-03 6.612916868853e-05 0.0 
0.0 0.0 0.0 
-6.689395431524e-04 4.560637058922e-03 0.0 
4.560637058922e-03 1.098072715904e-02 0.0 
0.0 0.0 0.0 
-2.666934314048e-03 1.473041040001e-03 0.0 
1.473041040001e-03 1.461151187162e-02 0.0 
0.0 0.0 0.0 
-3.247630833869e-04 -2.794848393677e-04 0.0 
-2.794848393677e-04 5.425387405105e-03 0.0 
0.0 0.0 0.0 
1.312629603719e-03 3.905906078099e-03 0.0 
3.905906078099e-03 5.104640096392e-03 0.0 
0.0 0.0 0.0 
1.354241329963e-04 -3.625221134513e-04 0.0 
-3.625221134513e-04 4.832867051687e-03 0.0 
0.0 0.0 0.0 
-1.382557359419e-03 4.470268867278e-04 0.0 
4.470268867278e-04 1.582994899107e-02 0.0 
0.0 0.0 0.0 
5.371795497926e-04 3.610555932672e-03 0.0 
3.610555932672e-03 5.393512430274e-03 0.0 
0.0 0.0 0.0 
8.531787490755e-04 1.667170764694e-04 0.0 
1.667170764694e-04 3.457263063322e-03 0.0 
0.0 0.0 0.0 
9.575042069632e-04 3.037435346940e-04 0.0 
3.037435346940e-04 3.444606215735e-03 0.0 
0.0 0.0 0.0 
-8.937000475419e-04 -5.866488870813e-04 0.0 
-5.866488870813e-04 2.674749499617e-03 0.0 
0.0 0.0 0.0 
7.296701734050e-05 -4.663825942812e-04 0.0 
-4.663825942812e-04 5.384056918216e-03 0.0 
0.0 0.0 0.0 
-2.582725937032e-03 6.410702979800e-04 0.0 
6.410702979800e-04 1.423819638409e-02 0.0 
0.0 0.0 0.0 
-9.036297279397e-04 5.993675715855e-04 0.0 
5.993675715855e-04 1.624188308124e-02 0.0 
0.0 0.0 0.0 
-3.367462116195e-04 -1.578843119180e-03 0.0 
-1.578843119180e-03 8.415677214122e-04 0.0 
0.0 0.0 0.0 
-1.140445315506e-03 2.697766768670e-04 0.0 
2.697766768670e-04 1.612645771892e-02 0.0 
0.0 0.0 0.0 
-1.721985898206e-03 2.474786570302e-04 0.0 
2.474786570302e-04 1.547702011561e-02 0.0 
0.0 0.0 0.0 
1.519149142377e-03 8.820307038920e-05 0.0 
8.820307038920e-05 1.274304014867e-04 0.0 
0.0 0.0 0.0 
3.012678056603e-03 -2.094002071346e-03 0.0 
-2.094002071346e-03 -4.370643515830e-03 0.0 
0.0 0.0 0.0 
-2.916540360656e-04 4.526478739375e-03 0.0 
4.526478739375e-03 9.439079277042e-03 0.0 
0.0 0.0 0.0 
-4.951080538940e-04 1.640007865924e-03 0.0 
1.640007865924e-03 1.610109532792e-02 0.0 
0.0 0.0 0.0 
-8.212688664365e-04 2.884557108088e-04 0.0 
2.884557108088e-04 1.628092626616e-02 0.0 
0.0 0.0 0.0 
1.163202863032e-03 3.539938161362e-03 0.0 
3.539938161362e-03 4.858088076894e-03 0.0 
0.0 0.0 0.0 
-1.932913967800e-03 2.916414940137e-04 0.0 
2.916414940137e-04 1.490374407172e-02 0.0 
0.0 0.0 0.0 
6.863509201513e-04 -4.341174074977e-04 0.0 
-4.341174074977e-04 8.003305828219e-05 0.0 
0.0 0.0 0.0 
7.013298740470e-04 2.108346958310e-03 0.0 
2.108346958310e-03 -3.894804753169e-03 0.0 
0.0 0.0 0.0 
2.628780323835e-04 -5.807679284491e-04 0.0 
-5.807679284491e-04 2.402400450630e-04 0.0 
0.0 0.0 0.0 
-2.095056743874e-04 -1.730933941235e-03 0.0 
-1.730933941235e-03 8.045540654498e-04 0.0 
0.0 0.0 0.0 
-1.788637886366e-03 4.554721759820e-03 0.0 
4.554721759820e-03 -1.484411287720e-03 0.0 
0.0 0.0 0.0 
-1.052911678460e-03 -8.160295728641e-04 0.0 
-8.160295728641e-04 3.273856695959e-03 0.0 
0.0 0.0 0.0 
-2.887424522529e-04 -2.601739758046e-04 0.0 
-2.601739758046e-04 5.424972797909e-03 0.0 
0.0 0.0 0.0 
-7.800757649219e-04 4.166993164508e-03 0.0 
4.166993164508e-03 1.291741549006e-02 0.0 
0.0 0.0 0.0 
-3.042441150910e-03 2.386991660143e-03 0.0 
2.386991660143e-03 1.405687149709e-02 0.0 
0.0 0.0 0.0 
-8.148687141868e-04 -1.147308290857e-03 0.0 
-1.147308290857e-03 2.631765055746e-03 0.0 
0.0 0.0 0.0 
6.474342147482e-04 -2.211053847284e-04 0.0 
-2.211053847284e-04 3.751180593778e-03 0.0 
0.0 0.0 0.0 
1.679518858454e-03 1.171879010494e-03 0.0 
1.171879010494e-03 2.879796228428e-03 0.0 
0.0 0.0 0.0 
9.178566583616e-04 4.211501064423e-03 0.0 
4.211501064423e-03 6.031290214421e-03 0.0 
0.0 0.0 0.0 
2.705003214283e-04 4.603784773163e-03 0.0 
4.603784773163e-03 8.192071543151e-03 0.0 
0.0 0.0 0.0 
-1.633152756695e-04 4.626881043176e-03 0.0 
4.626881043176e-03 9.750255562361e-03 0.0 
0.0 0.0 0.0 
-3.900492154423e-04 -1.289076193296e-03 0.0 
-1.289076193296e-03 7.749061482274e-04 0.0 
0.0 0.0 0.0 
7.023841434508e-04 -1.833169105473e-03 0.0 
-1.833169105473e-03 -3.948627651358e-03 0.0 
0.0 0.0 0.0 
-2.136848006017e-04 -4.225690308067e-04 0.0 
-4.225690308067e-04 5.211653638107e-03 0.0 
0.0 0.0 0.0 
1.081975794831e-03 -9.978460991737e-05 0.0 
-9.978460991737e-05 2.722412389562e-04 0.0 
0.0 0.0 0.0 
1.119654064024e-03 -7.906302053440e-05 0.0 
-7.906302053440e-05 3.963024469062e-04 0.0 
0.0 0.0 0.0 
-9.547278286698e-04 4.031786499896e-03 0.0 
4.031786499896e-03 -5.406133429969e-04 0.0 
0.0 0.0 0.0 
3.133188338371e-04 -7.136688499984e-04 0.0 
-7.136688499984e-04 5.801147180475e-04 0.0 
0.0 0.0 0.0 
4.296538703379e-04 3.342333515636e-04 0.0 
3.342333515636e-04 3.966754052025e-03 0.0 
0.0 0.0 0.0 
-1.465640200733e-04 4.844290629147e-03 0.0 
4.844290629147e-03 1.050602575855e-02 0.0 
0.0 0.0 0.0 
-7.532254914303e-04 1.135128149700e-03 0.0 
1.135128149700e-03 1.617743196475e-02 0.0 
0.0 0.0 0.0 
4.306497444631e-04 4.164806857299e-03 0.0 
4.164806857299e-03 6.354860437662e-03 0.0 
0.0 0.0 0.0 
1.760911778660e-03 1.152245485452e-03 0.0 
1.152245485452e-03 2.426701209417e-03 0.0 
0.0 0.0 0.0 
-1.854876808217e-03 3.051925748524e-04 0.0 
3.051925748524e-04 1.509139828847e-02 0.0 
0.0 0.0 0.0 
0.0 2.240143434665e-03 0.0 
2.240143434665e-03 1.590246176291e-02 0.0 
0.0 0.0 0.0 
2.497975354993e-03 -3.282642409932e-03 0.0 
-3.282642409932e-03 -2.918478421668e-03 0.0 
0.0 0.0 0.0 
-2.115876032222e-03 1.256204858320e-04 0.0 
1.256204858320e-04 1.391733143304e-02 0.0 
0.0 0.0 0.0 
-3.207483070864e-04 -3.460016955117e-03 0.0 
-3.460016955117e-03 -6.482092131399e-05 0.0 
0.0 0.0 0.0 
9.789484389158e-04 -3.615541309753e-04 0.0 
-3.615541309753e-04 -5.268102612899e-05 0.0 
0.0 0.0 0.0 
-4.787188780797e-05 -4.539363598387e-04 0.0 
-4.539363598387e-04 5.683841558986e-03 0.0 
0.0 0.0 0.0 
-3.169704175564e-03 1.598331408108e-03 0.0 
1.598331408108e-03 1.393956781273e-02 0.0 
0.0 0.0 0.0 
9.748460070416e-04 -3.114694903044e-04 0.0 
-3.114694903044e-04 5.860979264682e-04 0.0 
0.0 0.0 0.0 
-1.106222448764e-03 -5.924765808808e-04 0.0 
-5.924765808808e-04 3.343548035438e-03 0.0 
0.0 0.0 0.0 
-2.004496994636e-04 5.063523357199e-03 0.0 
5.063523357199e-03 1.082355129906e-02 0.0 
0.0 0.0 0.0 
-1.066141094913e-03 1.553395508816e-03 0.0 
1.553395508816e-03 1.603888380927e-02 0.0 
0.0 0.0 0.0 
-5.184219913557e-04 3.413452049589e-03 0.0 
3.413452049589e-03 1.466664688567e-02 0.0 
0.0 0.0 0.0 
-8.095553553947e-04 -2.915326015319e-04 0.0 
-2.915326015319e-04 2.594705371325e-03 0.0 
0.0 0.0 0.0 
9.582071664247e-04 2.229615550370e-04 0.0 
2.229615550370e-04 -4.447349718051e-03 0.0 
0.0 0.0 0.0 
2.580265473582e-04 -3.962147901020e-04 0.0 
-3.962147901020e-04 4.682388964869e-03 0.0 
0.0 0.0 0.0 
-3.259946177295e-04 2.230094051069e-04 0.0 
2.230094051069e-04 1.654192501163e-02 0.0 
0.0 0.0 0.0 
-1.720640222567e-04 -1.311027365818e-04 0.0 
-1.311027365818e-04 6.031064041416e-03 0.0 
0.0 0.0 0.0 
-1.927613497559e-03 3.194407170455e-05 0.0 
3.194407170455e-05 1.422543518958e-02 0.0 
0.0 0.0 0.0 
1.206815738231e-03 1.340227461678e-03 0.0 
1.340227461678e-03 3.036561394824e-03 0.0 
0.0 0.0 0.0 
5.293526334642e-04 -2.732757398507e-04 0.0 
-2.732757398507e-04 8.360541618657e-04 0.0 
0.0 0.0 0.0 
-9.272033083302e-04 2.728583494935e-03 0.0 
2.728583494935e-03 1.528467790367e-02 0.0 
0.0 0.0 0.0 
8.109335826534e-04 -3.948224219933e-04 0.0 
-3.948224219933e-04 1.737711063488e-05 0.0 
0.0 0.0 0.0 
5.340207862412e-04 9.122596579396e-04 0.0 
9.122596579396e-04 3.818953394372e-03 0.0 
0.0 0.0 0.0 
-8.524904255669e-04 3.732333933849e-03 0.0 
3.732333933849e-03 1.436925474655e-02 0.0 
0.0 0.0 0.0 
3.428501066145e-04 1.286231784054e-03 0.0 
1.286231784054e-03 -4.589022935036e-03 0.0 
0.0 0.0 0.0 
9.337315082918e-04 4.356078531731e-03 0.0 
4.356078531731e-03 6.332899464852e-03 0.0 
0.0 0.0 0.0 
-1.537177835628e-03 2.794537405756e-04 0.0 
2.794537405756e-04 1.570244206133e-02 0.0 
0.0 0.0 0.0 
-3.951877103220e-04 1.213150965357e-03 0.0 
1.213150965357e-03 1.626361424342e-02 0.0 
0.0 0.0 0.0 
0.0 3.184019726895e-03 0.0 
3.184019726895e-03 5.503551379305e-03 0.0 
0.0 0.0 0.0 
-1.699113692898e-03 3.712782480713e-05 0.0 
3.712782480713e-05 1.528925158984e-02 0.0 
0.0 0.0 0.0 
-1.463598461652e-04 4.803384430928e-03 0.0 
4.803384430928e-03 1.116460428826e-02 0.0 
0.0 0.0 0.0 
-1.155037173541e-03 3.320640110937e-03 0.0 
3.320640110937e-03 1.463953246005e-02 0.0 
0.0 0.0 0.0 
-1.554975145590e-03 1.993182440506e-04 0.0 
1.993182440506e-04 1.548271321890e-02 0.0 
0.0 0.0 0.0 
-2.490221551966e-04 4.668924093017e-03 0.0 
4.668924093017e-03 1.066252495369e-02 0.0 
0.0 0.0 0.0 
-1.019520357574e-03 -6.166197450958e-04 0.0 
-6.166197450958e-04 2.913249137310e-03 0.0 
0.0 0.0 0.0 
-2.007305086047e-03 3.659601048311e-05 0.0 
3.659601048311e-05 1.394434374519e-02 0.0 
0.0 0.0 0.0 
9.728165012510e-04 4.171811437011e-03 0.0 
4.171811437011e-03 5.841994121395e-03 0.0 
0.0 0.0 0.0 
-4.074442758470e-04 1.701628674690e-04 0.0 
1.701628674690e-04 1.643156382789e-02 0.0 
0.0 0.0 0.0 
2.280322565822e-03 -2.408041412342e-05 0.0 
-2.408041412342e-05 -8.906509835810e-04 0.0 
0.0 0.0 0.0 
-1.944572459510e-03 1.869824626724e-05 0.0 
1.869824626724e-05 1.393425254565e-02 0.0 
0.0 0.0 0.0 
-2.135899932125e-04 -9.881793816332e-05 0.0 
-9.881793816332e-05 5.845027323482e-03 0.0 
0.0 0.0 0.0 
2.851760444167e-05 -8.085383906353e-04 0.0 
-8.085383906353e-04 1.202083194997e-03 0.0 
0.0 0.0 0.0 
1.772160170828e-03 1.909048814758e-03 0.0 
1.909048814758e-03 3.188319148726e-03 0.0 
0.0 0.0 0.0 
-1.162394451229e-03 3.827323661920e-03 0.0 
3.827323661920e-03 1.383002778247e-02 0.0 
0.0 0.0 0.0 
-7.316832957710e-04 1.087585092940e-03 0.0 
1.087585092940e-03 1.627503355551e-02 0.0 
0.0 0.0 0.0 
3.226161230390e-04 -5.313177332945e-04 0.0 
-5.313177332945e-04 1.110701380251e-03 0.0 
0.0 0.0 0.0 
4.196925928419e-04 4.520050892144e-03 0.0 
4.520050892144e-03 -1.982926439902e-03 0.0 
0.0 0.0 0.0 
-1.087856273329e-03 -5.695634441245e-05 0.0 
-5.695634441245e-05 3.850414708205e-03 0.0 
0.0 0.0 0.0 
-1.211641847597e-03 2.457588971134e-04 0.0 
2.457588971134e-04 1.595478925884e-02 0.0 
0.0 0.0 0.0 
-5.977165221757e-03 -2.930628113517e-04 0.0 
-2.930628113517e-04 -1.955856638429e-03 0.0 
0.0 0.0 0.0 
-4.959468101570e-04 2.863187006525e-03 0.0 
2.863187006525e-03 1.531276383241e-02 0.0 
0.0 0.0 0.0 
-1.687235632505e-03 1.389586909640e-04 0.0 
1.389586909640e-04 1.519750828012e-02 0.0 
0.0 0.0 0.0 
4.573399374097e-04 -3.368593220225e-03 0.0 
-3.368593220225e-03 -7.357207753951e-04 0.0 
0.0 0.0 0.0 
-1.837808469630e-03 1.886033039987e-04 0.0 
1.886033039987e-04 1.497635665530e-02 0.0 
0.0 0.0 0.0 
6.990785226160e-04 4.486366125460e-03 0.0 
4.486366125460e-03 6.694324566691e-03 0.0 
0.0 0.0 0.0 
-1.061371578342e-03 -1.124344436003e-04 0.0 
-1.124344436003e-04 3.948153288007e-03 0.0 
0.0 0.0 0.0 
-2.502343764919e-03 4.546279974339e-03 0.0 
4.546279974339e-03 4.609457297016e-04 0.0 
0.0 0.0 0.0 
-9.553815285298e-04 -7.888090758533e-04 0.0 
-7.888090758533e-04 2.736271735152e-03 0.0 
0.0 0.0 0.0 
-9.928690552276e-04 -7.615192336809e-04 0.0 
-7.615192336809e-04 3.506184833776e-03 0.0 
0.0 0.0 0.0 
-1.029629642760e-03 -3.579480223117e-05 0.0 
-3.579480223117e-05 4.074183512922e-03 0.0 
0.0 0.0 0.0 
1.177138699348e-03 3.546647685160e-03 0.0 
3.546647685160e-03 4.829883562884e-03 0.0 
0.0 0.0 0.0 
-1.113951372783e-03 -3.823979372932e-04 0.0 
-3.823979372932e-04 3.503963604864e-03 0.0 
0.0 0.0 0.0 
-1.058359956466e-03 -4.882832630443e-04 0.0 
-4.882832630443e-04 3.704009090704e-03 0.0 
0.0 0.0 0.0 
3.826881917133e-04 -6.834923092909e-04 0.0 
-6.834923092909e-04 3.970500211623e-04 0.0 
0.0 0.0 0.0 
2.658444065204e-04 -3.907772607104e-04 0.0 
-3.907772607104e-04 4.514933604107e-03 0.0 
0.0 0.0 0.0 
4.489610312828e-04 4.655789413614e-03 0.0 
4.655789413614e-03 7.800834321948e-03 0.0 
0.0 0.0 0.0 
1.346148326007e-03 3.896377882446e-03 0.0 
3.896377882446e-03 -2.548028682907e-03 0.0 
0.0 0.0 0.0 
-3.378063436604e-04 1.676884345308e-04 0.0 
1.676884345308e-04 1.642704111515e-02 0.0 
0.0 0.0 0.0 
-1.852977005703e-04 -7.823928905010e-05 0.0 
-7.823928905010e-05 5.838288248388e-03 0.0 
0.0 0.0 0.0 
-1.944500977605e-03 -5.079981618383e-06 0.0 
-5.079981618383e-06 1.424585309944e-02 0.0 
0.0 0.0 0.0 
-1.763901179073e-03 1.166538540502e-04 0.0 
1.166538540502e-04 1.519188216376e-02 0.0 
0.0 0.0 0.0 
-1.106096961575e-03 -5.721100743599e-04 0.0 
-5.721100743599e-04 3.525100646965e-03 0.0 
0.0 0.0 0.0 
-1.074633170173e-03 -5.726905218005e-04 0.0 
-5.726905218005e-04 3.418990765553e-03 0.0 
0.0 0.0 0.0 
-1.114900790131e-03 -3.724647818444e-04 0.0 
-3.724647818444e-04 3.631271369321e-03 0.0 
0.0 0.0 0.0 
1.917329351094e-03 2.005975544129e-03 0.0 
2.005975544129e-03 2.666123577197e-03 0.0 
0.0 0.0 0.0 
1.455855136283e-04 -2.973125057407e-03 0.0 
-2.973125057407e-03 3.999942683637e-04 0.0 
0.0 0.0 0.0 
2.335558029589e-04 4.853734421061e-03 0.0 
4.853734421061e-03 8.638022526213e-03 0.0 
0.0 0.0 0.0 
-1.877482048713e-03 8.539616118930e-05 0.0 
8.539616118930e-05 1.459531088328e-02 0.0 
0.0 0.0 0.0 
-9.589627179375e-04 2.746208683834e-03 0.0 
2.746208683834e-03 1.544632181718e-02 0.0 
0.0 0.0 0.0 
1.759339641623e-03 1.818866239223e-03 0.0 
1.818866239223e-03 2.643446614959e-03 0.0 
0.0 0.0 0.0 
-1.945597652887e-03 2.020962376399e-04 0.0 
2.020962376399e-04 1.497604660147e-02 0.0 
0.0 0.0 0.0 
-3.097653229807e-04 4.608195712511e-03 0.0 
4.608195712511e-03 1.047644581038e-02 0.0 
0.0 0.0 0.0 
1.154819984196e-03 3.595417767683e-03 0.0 
3.595417767683e-03 4.813276872595e-03 0.0 
0.0 0.0 0.0 
9.933670019917e-04 3.935338896820e-03 0.0 
3.935338896820e-03 5.595579693762e-03 0.0 
0.0 0.0 0.0 
-1.130993951717e-03 4.393682971557e-03 0.0 
4.393682971557e-03 -1.971938560278e-03 0.0 
0.0 0.0 0.0 
-4.202959777216e-04 4.645452850919e-03 0.0 
4.645452850919e-03 1.047265289030e-02 0.0 
0.0 0.0 0.0 
-1.434038243999e-04 4.896685708572e-03 0.0 
4.896685708572e-03 1.014101645211e-02 0.0 
0.0 0.0 0.0 
8.465239404403e-04 -5.704362083356e-04 0.0 
-5.704362083356e-04 3.006544406403e-04 0.0 
0.0 0.0 0.0 
-1.092437496598e-03 -5.960163687341e-04 0.0 
-5.960163687341e-04 3.321171916391e-03 0.0 
0.0 0.0 0.0 
-1.616459564516e-03 3.696313525030e-03 0.0 
3.696313525030e-03 -1.469768588800e-03 0.0 
0.0 0.0 0.0 
-4.645391590560e-04 4.835994617746e-03 0.0 
4.835994617746e-03 1.101406075272e-02 0.0 
0.0 0.0 0.0 
-1.939014673973e-03 4.130526616509e-06 0.0 
4.130526616509e-06 1.353243237875e-02 0.0 
0.0 0.0 0.0 
-1.951815611975e-03 7.852717282518e-06 0.0 
7.852717282518e-06 1.355077809449e-02 0.0 
0.0 0.0 0.0 
-1.920056907004e-03 1.794129565175e-05 0.0 
1.794129565175e-05 1.354948131121e-02 0.0 
0.0 0.0 0.0 
-1.961589275326e-03 1.434403391083e-07 0.0 
1.434403391083e-07 1.355155287433e-02 0.0 
0.0 0.0 0.0 
-1.934599338615e-03 8.909197646722e-06 0.0 
8.909197646722e-06 1.354979584671e-02 0.0 
0.0 0.0 0.0 
-1.980940398370e-03 -6.936418809700e-06 0.0 
-6.936418809700e-06 1.355791167389e-02 0.0 
0.0 0.0 0.0 
-1.948543402535e-03 1.105357359130e-05 0.0 
1.105357359130e-05 1.355323033318e-02 0.0 
0.0 0.0 0.0 
-2.004986659025e-03 -1.168868522571e-05 0.0 
-1.168868522571e-05 1.355549767256e-02 0.0 
0.0 0.0 0.0 
-1.963308637969e-03 1.865623215756e-05 0.0 
1.865623215756e-05 1.354567135558e-02 0.0 
0.0 0.0 0.0 
-2.031061834017e-03 -9.367485161926e-07 0.0 
-9.367485161926e-07 1.355935082834e-02 0.0 
0.0 0.0 0.0 
-1.976606900246e-03 2.932487386379e-05 0.0 
2.932487386379e-05 1.354697442736e-02 0.0 
0.0 0.0 0.0 
-2.078389851480e-03 -2.001003496722e-06 0.0 
-2.001003496722e-06 1.356140821683e-02 0.0 
0.0 0.0 0.0 
-3.082588092063e-03 9.902720997466e-04 0.0 
9.902720997466e-04 1.350676027074e-02 0.0 
0.0 0.0 0.0 
-1.989438788458e-03 4.908589510531e-05 0.0 
4.908589510531e-05 1.353660201804e-02 0.0 
0.0 0.0 0.0 
-3.148512112536e-03 7.653168876558e-04 0.0 
7.653168876558e-04 1.371808139610e-02 0.0 
0.0 0.0 0.0 
-2.115876032222e-03 2.116031649174e-05 0.0 
2.116031649174e-05 1.356782965976e-02 0.0 
0.0 0.0 0.0 
-2.011440150052e-03 7.847616299584e-05 0.0 
7.847616299584e-05 1.353507557937e-02 0.0 
0.0 0.0 0.0 
-2.187354289597e-03 3.430888505183e-05 0.0 
3.430888505183e-05 1.356523298832e-02 0.0 
0.0 0.0 0.0 
-2.034160292603e-03 1.085689968352e-04 0.0 
1.085689968352e-04 1.351518463008e-02 0.0 
0.0 0.0 0.0 
-2.266558813288e-03 6.610556431420e-05 0.0 
6.610556431420e-05 1.357103344157e-02 0.0 
0.0 0.0 0.0 
-2.057829633302e-03 1.553630165339e-04 0.0 
1.553630165339e-04 1.350047290052e-02 0.0 
0.0 0.0 0.0 
-2.358201960601e-03 1.140681025363e-04 0.0 
1.140681025363e-04 1.358205742967e-02 0.0 
0.0 0.0 0.0 
-2.650400236045e-03 7.370682827262e-04 0.0 
7.370682827262e-04 1.326547283002e-02 0.0 
0.0 0.0 0.0 
-2.102059445329e-03 2.241749017477e-04 0.0 
2.241749017477e-04 1.348400108875e-02 0.0 
0.0 0.0 0.0 
-2.489632326768e-03 1.850677293392e-04 0.0 
1.850677293392e-04 1.359566280566e-02 0.0 
0.0 0.0 0.0 
-2.179180027623e-03 3.153500043146e-04 0.0 
3.153500043146e-04 1.346502658818e-02 0.0 
0.0 0.0 0.0 
-2.649862905667e-03 2.910198986328e-04 0.0 
2.910198986328e-04 1.361453156946e-02 0.0 
0.0 0.0 0.0 
-2.856704751515e-03 4.707276031315e-04 0.0 
4.707276031315e-04 1.365104100661e-02 0.0 
0.0 0.0 0.0 
-2.303026410454e-03 4.536997282292e-04 0.0 
4.536997282292e-04 1.343942401150e-02 0.0 
0.0 0.0 0.0 
-2.543114392794e-03 6.758058259324e-04 0.0 
6.758058259324e-04 1.342898375889e-02 0.0 
0.0 0.0 0.0 
-3.773647974730e-03 1.514138676654e-03 0.0 
1.514138676654e-03 1.392878741208e-02 0.0 
0.0 0.0 0.0 
-3.587972033042e-03 8.995098499212e-04 0.0 
8.995098499212e-04 1.414586749474e-02 0.0 
0.0 0.0 0.0 
-1.989374475412e-03 -4.969100012625e-05 0.0 
-4.969100012625e-05 1.356685423204e-02 0.0 
0.0 0.0 0.0 
-1.967827281186e-03 6.811098646345e-05 0.0 
6.811098646345e-05 1.352869374669e-02 0.0 
0.0 0.0 0.0 
-1.962517874116e-03 6.320682867060e-06 0.0 
6.320682867060e-06 1.365028275957e-02 0.0 
0.0 0.0 0.0 
-1.994844773605e-03 1.381084578787e-05 0.0 
1.381084578787e-05 1.344873919095e-02 0.0 
0.0 0.0 0.0 
-4.212731761328e-03 1.706535595477e-03 0.0 
1.706535595477e-03 1.355538711277e-02 0.0 
0.0 0.0 0.0 

TENSORS element_materi_strain_plasti float
-1.278716781713e-04 2.317088785895e-03 0.0 
2.317088785895e-03 1.725589617193e-03 0.0 
0.0 0.0 -6.847362595807e-04 
-1.156199042648e-04 2.024353748068e-03 0.0 
2.024353748068e-03 1.515455915080e-03 0.0 
0.0 0.0 -5.999297189210e-04 
-1.399419419615e-03 2.869344170324e-03 0.0 
2.869344170324e-03 7.127002349296e-03 0.0 
0.0 0.0 -1.278236581085e-03 
-1.499770292198e-03 1.938127459123e-04 0.0 
1.938127459123e-04 8.462485561252e-03 0.0 
0.0 0.0 -1.255598393855e-03 
-1.590286579790e-03 5.866412250785e-04 0.0 
5.866412250785e-04 5.570411940462e-03 0.0 
0.0 0.0 -7.961861350945e-04 
9.753052699299e-04 2.049730811989e-03 0.0 
2.049730811989e-03 -7.410546550660e-04 0.0 
0.0 0.0 -1.003931206560e-04 
-1.532722360608e-03 5.037005669365e-04 0.0 
5.037005669365e-04 5.548158926813e-03 0.0 
0.0 0.0 -8.011023898636e-04 
6.217083316276e-05 2.386622999709e-03 0.0 
2.386622999709e-03 1.415043626867e-03 0.0 
0.0 0.0 -6.330919114413e-04 
-1.605315258057e-03 4.380832637376e-06 0.0 
4.380832637376e-06 5.621376957900e-03 0.0 
0.0 0.0 -7.977904104816e-04 
-1.475813289088e-03 8.034655794974e-04 0.0 
8.034655794974e-04 8.366055234102e-03 0.0 
0.0 0.0 -1.253060141438e-03 
-1.723349006480e-03 -4.463465104632e-04 0.0 
-4.463465104632e-04 5.097851564140e-03 0.0 
0.0 0.0 -1.066978692879e-03 
5.108532101033e-06 1.964113970332e-03 0.0 
1.964113970332e-03 1.245831196254e-03 0.0 
0.0 0.0 -5.361170264378e-04 
-1.727294747470e-03 -3.711696677191e-04 0.0 
-3.711696677191e-04 6.945132129710e-03 0.0 
0.0 0.0 -1.259187713256e-03 
-1.707478703098e-03 1.059006860170e-03 0.0 
1.059006860170e-03 5.791719022601e-03 0.0 
0.0 0.0 -8.526168115438e-04 
-1.560262196776e-03 -9.393570101401e-04 0.0 
-9.393570101401e-04 6.928774089182e-03 0.0 
0.0 0.0 -1.289538875031e-03 
-1.440818830272e-03 6.754770737443e-04 0.0 
6.754770737443e-04 8.548838696717e-03 0.0 
0.0 0.0 -1.285984941237e-03 
-1.662616207287e-03 5.344607310422e-04 0.0 
5.344607310422e-04 5.529033418926e-03 0.0 
0.0 0.0 -7.740676797406e-04 
7.357046437425e-05 6.570695833459e-05 0.0 
6.570695833459e-05 -7.357046437425e-05 0.0 
0.0 0.0 0.0 
-6.149932217399e-04 -2.296531181353e-04 0.0 
-2.296531181353e-04 1.902161440616e-03 0.0 
0.0 0.0 -2.776016825098e-04 
-5.498585393581e-04 -2.166839192677e-04 0.0 
-2.166839192677e-04 1.738279106343e-03 0.0 
0.0 0.0 -4.484512109716e-04 
-1.512957112042e-03 4.043623184242e-04 0.0 
4.043623184242e-04 8.437324312554e-03 0.0 
0.0 0.0 -1.250388265701e-03 
-3.873012428043e-04 2.129273940428e-03 0.0 
2.129273940428e-03 2.185606563766e-03 0.0 
0.0 0.0 -7.707022804121e-04 
-4.415956435739e-04 2.226005795527e-03 0.0 
2.226005795527e-03 2.374460708771e-03 0.0 
0.0 0.0 -8.283707422273e-04 
-4.392711161920e-04 -9.745966439417e-04 0.0 
-9.745966439417e-04 3.836297522503e-03 0.0 
0.0 0.0 -1.210372970477e-03 
-1.729903628601e-03 1.506745383258e-03 0.0 
1.506745383258e-03 5.975665893657e-03 0.0 
0.0 0.0 -9.130988374533e-04 
-1.810671457854e-03 -7.476421640110e-04 0.0 
-7.476421640110e-04 5.330964071115e-03 0.0 
0.0 0.0 -1.080045423496e-03 
-1.736477005164e-03 1.109495533801e-03 0.0 
1.109495533801e-03 4.957414051106e-03 0.0 
0.0 0.0 -7.148082707961e-04 
-9.553018808659e-04 3.102749138761e-03 0.0 
3.102749138761e-03 5.566273317297e-03 0.0 
0.0 0.0 -1.266047838742e-03 
-1.821356794347e-03 1.188786638151e-03 0.0 
1.188786638151e-03 6.013421513739e-03 0.0 
0.0 0.0 -9.113908267906e-04 
-6.554257296263e-04 -8.444129216472e-04 0.0 
-8.444129216472e-04 4.294151155513e-03 0.0 
0.0 0.0 -1.237914324842e-03 
1.345111965206e-03 -2.563071370678e-03 0.0 
-2.563071370678e-03 -3.409519374557e-04 0.0 
0.0 0.0 -4.303542976074e-04 
3.575551772738e-04 -9.432915107626e-04 0.0 
-9.432915107626e-04 3.359353657627e-04 0.0 
0.0 0.0 -1.059755802940e-04 
-1.524187206040e-03 3.047553797097e-03 0.0 
3.047553797097e-03 7.492448074924e-03 0.0 
0.0 0.0 -1.261301343383e-03 
-2.126259398598e-03 -4.008249318176e-04 0.0 
-4.008249318176e-04 6.245433906960e-03 0.0 
0.0 0.0 -1.090200430068e-03 
-1.168924377092e-03 -2.135391167217e-03 0.0 
-2.135391167217e-03 5.528728836968e-03 0.0 
0.0 0.0 -1.254989870190e-03 
-1.506183274607e-03 -1.403999252581e-03 0.0 
-1.403999252581e-03 6.695784423920e-03 0.0 
0.0 0.0 -1.314886350686e-03 
-1.405965625827e-03 -2.094418066157e-03 0.0 
-2.094418066157e-03 6.677666447639e-03 0.0 
0.0 0.0 -1.314653105918e-03 
-6.328504155879e-04 1.260189016710e-03 0.0 
1.260189016710e-03 4.185986138576e-03 0.0 
0.0 0.0 -1.264739017786e-03 
-1.486815579568e-03 -1.990720886798e-04 0.0 
-1.990720886798e-04 5.107008468447e-03 0.0 
0.0 0.0 -7.380763454961e-04 
-1.448070308282e-03 4.493602178438e-04 0.0 
4.493602178438e-04 5.173305882684e-03 0.0 
0.0 0.0 -7.371174501546e-04 
-8.280494050984e-04 2.109474212237e-03 0.0 
2.109474212237e-03 3.158688487348e-03 0.0 
0.0 0.0 -8.774464902234e-04 
-1.113239206738e-03 -1.655283581889e-03 0.0 
-1.655283581889e-03 5.115282801902e-03 0.0 
0.0 0.0 -1.280756488215e-03 
3.008174076713e-04 2.119260517804e-03 0.0 
2.119260517804e-03 8.825314744810e-04 0.0 
0.0 0.0 -5.071495209224e-04 
-1.653413400617e-03 1.159238962241e-03 0.0 
1.159238962241e-03 4.683778627350e-03 0.0 
0.0 0.0 -7.557105610435e-04 
-1.547330050851e-03 3.671214089611e-05 0.0 
3.671214089611e-05 8.340609894927e-03 0.0 
0.0 0.0 -1.212858513926e-03 
3.049695683184e-04 2.191509382836e-03 0.0 
2.191509382836e-03 9.207765491606e-04 0.0 
0.0 0.0 -5.253197646338e-04 
1.207574275293e-03 -2.365696291912e-03 0.0 
-2.365696291912e-03 -7.132596237324e-04 0.0 
0.0 0.0 -2.118491363831e-04 
-1.445646034229e-03 2.633500934319e-04 0.0 
2.633500934319e-04 8.137788974429e-03 0.0 
0.0 0.0 -1.234743356787e-03 
1.908988241954e-04 -8.061125310431e-04 0.0 
-8.061125310431e-04 -1.579045808257e-05 0.0 
0.0 0.0 -7.504644261978e-05 
-1.740092141895e-03 6.147961927965e-04 0.0 
6.147961927965e-04 5.664008038323e-03 0.0 
0.0 0.0 -8.229436299569e-04 
-6.078592580179e-04 2.220023986171e-03 0.0 
2.220023986171e-03 2.788765867991e-03 0.0 
0.0 0.0 -9.296584868968e-04 
-8.623973456416e-04 -2.162048895284e-04 0.0 
-2.162048895284e-04 2.432076766193e-03 0.0 
0.0 0.0 -4.150917825895e-04 
2.292279279293e-03 -2.762669743217e-03 0.0 
-2.762669743217e-03 -9.405005062222e-04 0.0 
0.0 0.0 -5.793337598876e-04 
-6.898259874441e-04 2.091701766161e-03 0.0 
2.091701766161e-03 2.855891423984e-03 0.0 
0.0 0.0 -8.656335400463e-04 
-1.445100174427e-03 2.379194139466e-03 0.0 
2.379194139466e-03 7.706829156199e-03 0.0 
0.0 0.0 -1.282189168212e-03 
-9.586804568965e-04 -6.913799780171e-04 0.0 
-6.913799780171e-04 2.989840683449e-03 0.0 
0.0 0.0 -7.128710764410e-04 
-6.997308059935e-04 -2.320910788817e-04 0.0 
-2.320910788817e-04 2.233925226019e-03 0.0 
0.0 0.0 -5.951090654820e-04 
-2.130460140960e-03 -2.340494849444e-04 0.0 
-2.340494849444e-04 6.282260078053e-03 0.0 
0.0 0.0 -1.087734043503e-03 
1.076454852669e-04 -7.426368379909e-04 0.0 
-7.426368379909e-04 1.194913348537e-03 0.0 
0.0 0.0 -3.122055485762e-04 
-1.457512378927e-03 3.071898754378e-04 0.0 
3.071898754378e-04 8.560769857503e-03 0.0 
0.0 0.0 -1.285320035817e-03 
0.0 0.0 0.0 
0.0 0.0 0.0 
0.0 0.0 0.0 
-5.387044635243e-04 2.656482396914e-03 0.0 
2.656482396914e-03 4.203857407929e-03 0.0 
0.0 0.0 -1.210824713543e-03 
3.439414593790e-04 2.794168595655e-03 0.0 
2.794168595655e-03 1.235314347192e-03 0.0 
0.0 0.0 -6.768239171020e-04 
2.349935129578e-03 -2.770680198001e-03 0.0 
-2.770680198001e-03 -6.796113691984e-04 0.0 
0.0 0.0 -7.158530401625e-04 
-1.671429738175e-03 -1.210022446990e-03 0.0 
-1.210022446990e-03 6.777156017205e-03 0.0 
0.0 0.0 -1.257478522087e-03 
-5.278364963199e-04 2.118194625541e-03 0.0 
2.118194625541e-03 2.531471725177e-03 0.0 
0.0 0.0 -8.587008123673e-04 
0.0 0.0 0.0 
0.0 0.0 0.0 
0.0 0.0 0.0 
-1.493925828084e-03 3.040545355870e-03 0.0 
3.040545355870e-03 7.302395090943e-03 0.0 
0.0 0.0 -1.261660853087e-03 
4.867824217369e-04 -2.505859056628e-03 0.0 
-2.505859056628e-03 8.835287678333e-04 0.0 
0.0 0.0 -5.872762241015e-04 
-1.271990412820e-03 3.214687538356e-03 0.0 
3.214687538356e-03 6.250345422673e-03 0.0 
0.0 0.0 -1.282376455277e-03 
-1.831786578585e-03 -1.075910520083e-03 0.0 
-1.075910520083e-03 5.407233681497e-03 0.0 
0.0 0.0 -1.080053202689e-03 
-1.338499280800e-03 1.682976327997e-03 0.0 
1.682976327997e-03 8.399936015446e-03 0.0 
0.0 0.0 -1.338499280800e-03 
-9.312572041143e-04 2.894697176184e-03 0.0 
2.894697176184e-03 4.910832013066e-03 0.0 
0.0 0.0 -1.232909111256e-03 
1.433784453303e-03 -9.093882019497e-05 0.0 
-9.093882019497e-05 -5.456392549777e-05 0.0 
0.0 0.0 -2.878745769087e-04 
-9.147252279940e-04 -5.669281210358e-04 0.0 
-5.669281210358e-04 2.973437083954e-03 0.0 
0.0 0.0 -8.116687730804e-04 
-1.536993954654e-03 1.126957410002e-03 0.0 
1.126957410002e-03 8.303326713538e-03 0.0 
0.0 0.0 -1.262626981217e-03 
-1.574019976009e-03 2.576738749078e-03 0.0 
2.576738749078e-03 7.875617774672e-03 0.0 
0.0 0.0 -1.265352048664e-03 
4.720058723338e-04 2.134723574062e-03 0.0 
2.134723574062e-03 6.830651359346e-04 0.0 
0.0 0.0 -4.950304321150e-04 
-3.200456338227e-04 -3.352696368382e-04 0.0 
-3.352696368382e-04 1.110105412521e-03 0.0 
0.0 0.0 -3.374836250442e-04 
5.206675697946e-04 2.217090668705e-03 0.0 
2.217090668705e-03 6.763455683265e-04 0.0 
0.0 0.0 -5.130056306233e-04 
4.804782057485e-04 -2.508358039830e-03 0.0 
-2.508358039830e-03 8.916054330170e-04 0.0 
0.0 0.0 -5.880358451852e-04 
-1.625607394925e-03 4.831506481737e-04 0.0 
4.831506481737e-04 5.291976980867e-03 0.0 
0.0 0.0 -7.918363975426e-04 
-2.908848742719e-04 2.252062443166e-03 0.0 
2.252062443166e-03 2.033636756898e-03 0.0 
0.0 0.0 -7.468936639825e-04 
-2.599695243754e-04 1.891700121758e-03 0.0 
1.891700121758e-03 1.743771242898e-03 0.0 
0.0 0.0 -6.359150222241e-04 
-1.678000531135e-03 1.594922248822e-04 0.0 
1.594922248822e-04 5.821879659601e-03 0.0 
0.0 0.0 -8.336771054075e-04 
-1.596383286677e-03 5.670740920774e-04 0.0 
5.670740920774e-04 5.789976808295e-03 0.0 
0.0 0.0 -8.358076868167e-04 
-1.951624680642e-03 -7.308270384445e-04 0.0 
-7.308270384445e-04 5.657668243585e-03 0.0 
0.0 0.0 -1.080533843704e-03 
-2.196082702137e-03 8.354918695911e-05 0.0 
8.354918695911e-05 6.184278536814e-03 0.0 
0.0 0.0 -1.059807920279e-03 
-1.525646772161e-03 2.625569910847e-03 0.0 
2.625569910847e-03 6.112973773832e-03 0.0 
0.0 0.0 -1.085941371602e-03 
-1.648645582224e-03 1.246285648401e-04 0.0 
1.246285648401e-04 5.489793155500e-03 0.0 
0.0 0.0 -7.983229688164e-04 
-1.123057724715e-05 -5.872900984588e-04 0.0 
-5.872900984588e-04 3.960725969021e-04 0.0 
0.0 0.0 -1.649322941379e-04 
-1.757846623502e-03 1.222419041867e-03 0.0 
1.222419041867e-03 5.122536551657e-03 0.0 
0.0 0.0 -7.928983479555e-04 
-1.578530100158e-03 5.920453420347e-05 0.0 
5.920453420347e-05 7.247400490716e-03 0.0 
0.0 0.0 -1.069439317440e-03 
-1.600676841679e-03 3.339381263473e-04 0.0 
3.339381263473e-04 7.321452075562e-03 0.0 
0.0 0.0 -1.046447409317e-03 
-1.502072334268e-03 1.832498170444e-03 0.0 
1.832498170444e-03 8.633609047693e-03 0.0 
0.0 0.0 -1.319970921405e-03 
-9.007094055422e-04 1.223013959388e-03 0.0 
1.223013959388e-03 4.725884480151e-03 0.0 
0.0 0.0 -1.294194962782e-03 
-1.674253522828e-03 4.484898109266e-04 0.0 
4.484898109266e-04 5.280548957068e-03 0.0 
0.0 0.0 -7.889745663688e-04 
-1.078149223135e-03 -1.912876176720e-03 0.0 
-1.912876176720e-03 5.515902141362e-03 0.0 
0.0 0.0 -1.263183913703e-03 
-1.546584036688e-03 -9.624953365827e-05 0.0 
-9.624953365827e-05 6.233353762451e-03 0.0 
0.0 0.0 -9.040008563810e-04 
1.411194399049e-04 2.915371637598e-03 0.0 
2.915371637598e-03 1.618838156256e-03 0.0 
0.0 0.0 -7.542675412120e-04 
-1.587713497171e-03 1.272120189302e-04 0.0 
1.272120189302e-04 5.375209747655e-03 0.0 
0.0 0.0 -7.643292725052e-04 
-1.604005809179e-03 -6.682657737697e-04 0.0 
-6.682657737697e-04 6.948639054056e-03 0.0 
0.0 0.0 -1.287517816355e-03 
3.542986660605e-04 2.115271012738e-03 0.0 
2.115271012738e-03 2.453989176071e-03 0.0 
0.0 0.0 -1.043751955586e-03 
-5.121197440995e-04 2.106847301720e-03 0.0 
2.106847301720e-03 4.264562002622e-03 0.0 
0.0 0.0 -1.209599240962e-03 
8.414669120651e-04 2.750323762399e-03 0.0 
2.750323762399e-03 6.433152604662e-04 0.0 
0.0 0.0 -6.363352167991e-04 
5.516999887664e-04 -2.796976242529e-03 0.0 
-2.796976242529e-03 1.148224010342e-04 0.0 
0.0 0.0 -2.856524527717e-04 
-1.904299824368e-03 -6.917450604687e-04 0.0 
-6.917450604687e-04 6.641778035438e-03 0.0 
0.0 0.0 -1.189902873528e-03 
-1.601708388107e-03 3.286250233117e-04 0.0 
3.286250233117e-04 7.722816405099e-03 0.0 
0.0 0.0 -1.108790581071e-03 
3.810766207411e-05 -6.205157488134e-04 0.0 
-6.205157488134e-04 -3.810766207412e-05 0.0 
0.0 0.0 0.0 
-1.434793545909e-03 -1.524718547292e-03 0.0 
-1.524718547292e-03 6.503522325473e-03 0.0 
0.0 0.0 -1.285127980003e-03 
-1.436465131336e-03 2.957908754166e-03 0.0 
2.957908754166e-03 5.615958785865e-03 0.0 
0.0 0.0 -1.051491716222e-03 
2.107685358584e-03 1.966346604052e-04 0.0 
1.966346604052e-04 -5.019158565474e-04 0.0 
0.0 0.0 -2.190510374322e-04 
1.208695653732e-03 2.926354061763e-03 0.0 
2.926354061763e-03 1.261066979529e-04 0.0 
0.0 0.0 -5.720581507223e-04 
-1.531499204645e-03 1.574438431832e-03 0.0 
1.574438431832e-03 4.499656748010e-03 0.0 
0.0 0.0 -7.914135736088e-04 
-9.815222315618e-04 -1.138374471426e-03 0.0 
-1.138374471426e-03 3.347141370850e-03 0.0 
0.0 0.0 -9.587991763485e-04 
2.655737035557e-04 2.419593458192e-03 0.0 
2.419593458192e-03 1.115288623384e-03 0.0 
0.0 0.0 -5.917981401168e-04 
3.744529332960e-04 2.946102748991e-03 0.0 
2.946102748991e-03 1.286129190467e-03 0.0 
0.0 0.0 -7.116780530414e-04 
-1.321847859093e-03 -1.772500593240e-03 0.0 
-1.772500593240e-03 5.826707907603e-03 0.0 
0.0 0.0 -1.283833066805e-03 
-1.525040410968e-03 2.578190730368e-04 0.0 
2.578190730368e-04 6.156621214154e-03 0.0 
0.0 0.0 -8.766975940251e-04 
5.363756903500e-04 2.629255494055e-03 0.0 
2.629255494055e-03 8.922896369145e-04 0.0 
0.0 0.0 -6.122851402562e-04 
1.683483209039e-04 -2.096310185990e-03 0.0 
-2.096310185990e-03 1.080312045122e-03 0.0 
0.0 0.0 -5.351401568681e-04 
-1.746303579404e-03 1.473532537081e-03 0.0 
1.473532537081e-03 5.178940412439e-03 0.0 
0.0 0.0 -7.744920945421e-04 
-1.517476482960e-03 1.097936493812e-04 0.0 
1.097936493812e-04 7.545801257606e-03 0.0 
0.0 0.0 -1.129288753466e-03 
5.838877050126e-04 2.764835075281e-03 0.0 
2.764835075281e-03 9.155423273699e-04 0.0 
0.0 0.0 -6.426128710211e-04 
3.893622582553e-04 1.575203385168e-03 0.0 
1.575203385168e-03 3.980592224466e-04 0.0 
0.0 0.0 -3.374663488723e-04 
-1.195366450636e-03 1.829833708586e-03 0.0 
1.829833708586e-03 3.827762851113e-03 0.0 
0.0 0.0 -8.233021825037e-04 
-1.094193203907e-03 -1.066143348073e-03 0.0 
-1.066143348073e-03 3.532112380788e-03 0.0 
0.0 0.0 -8.981558865158e-04 
-1.046482062160e-03 1.913988030913e-03 0.0 
1.913988030913e-03 3.510208918747e-03 0.0 
0.0 0.0 -8.113141688877e-04 
-1.442225258082e-03 1.605824937381e-03 0.0 
1.605824937381e-03 8.359073722744e-03 0.0 
0.0 0.0 -1.290671971449e-03 
1.101065632512e-03 2.933128537393e-03 0.0 
2.933128537393e-03 9.745442457705e-05 0.0 
0.0 0.0 -5.136514530381e-04 
-1.801548102835e-03 -7.282038970032e-04 0.0 
-7.282038970032e-04 5.288878918754e-03 0.0 
0.0 0.0 -1.060402641786e-03 
-1.486141105577e-03 5.585996661944e-04 0.0 
5.585996661944e-04 8.452622925900e-03 0.0 
0.0 0.0 -1.256690274141e-03 
-3.198454740031e-04 3.015481670953e-03 0.0 
3.015481670953e-03 2.568097898378e-03 0.0 
0.0 0.0 -9.635367533037e-04 
-1.021958554670e-03 1.956756434106e-03 0.0 
1.956756434106e-03 3.500404682426e-03 0.0 
0.0 0.0 -8.457158960689e-04 
-1.158957625686e-03 -1.674495574427e-03 0.0 
-1.674495574427e-03 5.533719249484e-03 0.0 
0.0 0.0 -1.254964138299e-03 
-1.718729624033e-03 -7.379037217155e-04 0.0 
-7.379037217155e-04 6.953664324138e-03 0.0 
0.0 0.0 -1.261070974318e-03 
-1.967620110819e-03 -6.331696876036e-04 0.0 
-6.331696876036e-04 5.669647458342e-03 0.0 
0.0 0.0 -1.061066130071e-03 
-6.061740370739e-04 3.049979969874e-03 0.0 
3.049979969874e-03 3.089302566165e-03 0.0 
0.0 0.0 -9.441827087005e-04 
-7.851765230129e-04 -1.170373150230e-03 0.0 
-1.170373150230e-03 4.916146318737e-03 0.0 
0.0 0.0 -1.270330610962e-03 
-5.043578746139e-04 2.747041251980e-03 0.0 
2.747041251980e-03 2.809200300211e-03 0.0 
0.0 0.0 -9.719555150774e-04 
-1.411040385942e-03 9.892815171228e-04 0.0 
9.892815171228e-04 8.317615504874e-03 0.0 
0.0 0.0 -1.283174495648e-03 
-1.289076372121e-03 3.481935391156e-03 0.0 
3.481935391156e-03 6.606253020577e-03 0.0 
0.0 0.0 -1.267437373369e-03 
-1.784736589840e-03 7.085096522011e-04 0.0 
7.085096522011e-04 5.733057783552e-03 0.0 
0.0 0.0 -8.543707170918e-04 
-1.586571893561e-03 5.026260166066e-04 0.0 
5.026260166066e-04 6.801986481939e-03 0.0 
0.0 0.0 -9.817831382938e-04 
-5.156399995053e-04 2.841155344974e-03 0.0 
2.841155344974e-03 2.858892473080e-03 0.0 
0.0 0.0 -9.645491798066e-04 
-8.623176927628e-04 1.998107917208e-03 0.0 
1.998107917208e-03 3.164246376073e-03 0.0 
0.0 0.0 -8.398345356346e-04 
-3.881715109885e-04 3.210536691478e-03 0.0 
3.210536691478e-03 2.805390491743e-03 0.0 
0.0 0.0 -1.009766620266e-03 
9.302504035183e-04 2.952397877038e-03 0.0 
2.952397877038e-03 6.425944529841e-04 0.0 
0.0 0.0 -6.740763670724e-04 
-1.542505755946e-03 1.216931962656e-05 0.0 
1.216931962656e-05 5.518918282905e-03 0.0 
0.0 0.0 -7.693993191400e-04 
1.440386328935e-03 3.141679147944e-03 0.0 
3.141679147944e-03 1.287757348394e-04 0.0 
0.0 0.0 -6.724980273319e-04 
1.173568897977e-04 -7.192653952147e-04 0.0 
-7.192653952147e-04 2.932653952173e-04 0.0 
0.0 0.0 -1.759809792922e-04 
-1.513364044801e-03 4.633102658988e-05 0.0 
4.633102658988e-05 5.921965621168e-03 0.0 
0.0 0.0 -8.171079392438e-04 
-4.255541535768e-04 -1.657123349734e-04 0.0 
-1.657123349734e-04 1.278602330907e-03 0.0 
0.0 0.0 -2.802839825148e-04 
-1.368206188634e-03 1.704449020245e-03 0.0 
1.704449020245e-03 4.168743630605e-03 0.0 
0.0 0.0 -8.053258742841e-04 
-1.010207907769e-03 -1.246817911064e-03 0.0 
-1.246817911064e-03 4.735746548095e-03 0.0 
0.0 0.0 -1.284796145094e-03 
7.390568671829e-04 2.553228098249e-03 0.0 
2.553228098249e-03 5.918003010214e-04 0.0 
0.0 0.0 -5.703673578019e-04 
-2.093082199977e-03 -2.605836003403e-04 0.0 
-2.605836003403e-04 5.949086090445e-03 0.0 
0.0 0.0 -1.062413871926e-03 
1.655520854684e-04 2.161371362285e-03 0.0 
2.161371362285e-03 1.103022204114e-03 0.0 
0.0 0.0 -5.436746955351e-04 
2.242015872536e-04 2.776975076431e-03 0.0 
2.776975076431e-03 2.408189383906e-03 0.0 
0.0 0.0 -1.044905595188e-03 
-1.509926535812e-03 9.806530388370e-05 0.0 
9.806530388370e-05 5.368363465218e-03 0.0 
0.0 0.0 -7.899655494116e-04 
1.682599579449e-03 2.941445331381e-03 0.0 
2.941445331381e-03 -2.715371857708e-04 0.0 
0.0 0.0 -6.047410258623e-04 
-2.057240178145e-03 -7.296543458156e-04 0.0 
-7.296543458156e-04 6.353419805029e-03 0.0 
0.0 0.0 -1.120963572432e-03 
7.939550842651e-05 -1.701837783695e-03 0.0 
-1.701837783695e-03 9.541700722220e-04 0.0 
0.0 0.0 -4.429566774208e-04 
-1.888286542342e-03 -4.078361496187e-04 0.0 
-4.078361496187e-04 6.637817436663e-03 0.0 
0.0 0.0 -1.189111243166e-03 
-1.407485654430e-03 2.291313923690e-03 0.0 
2.291313923690e-03 4.423118315057e-03 0.0 
0.0 0.0 -8.496092609019e-04 
-1.655956820216e-03 -1.430755689950e-03 0.0 
-1.430755689950e-03 6.808595235967e-03 0.0 
0.0 0.0 -1.265987209193e-03 
-1.479137566383e-03 6.125436213776e-05 0.0 
6.125436213776e-05 5.372221524286e-03 0.0 
0.0 0.0 -7.842605076999e-04 
1.138347058752e-03 2.740886700746e-03 0.0 
2.740886700746e-03 1.338850972854e-04 0.0 
0.0 0.0 -5.452423525874e-04 
-1.371065394049e-03 1.713545049238e-03 0.0 
1.713545049238e-03 4.152463321133e-03 0.0 
0.0 0.0 -7.801847948469e-04 
-1.782923268792e-03 -4.744584193542e-04 0.0 
-4.744584193542e-04 5.239530130494e-03 0.0 
0.0 0.0 -1.068702715777e-03 
1.574789883305e-04 2.145072666255e-03 0.0 
2.145072666255e-03 1.105288466408e-03 0.0 
0.0 0.0 -5.411860520308e-04 
1.917158204157e-03 2.902714119045e-03 0.0 
2.902714119045e-03 -2.818191306246e-04 0.0 
0.0 0.0 -7.008596029424e-04 
-1.624113157274e-03 6.876053139899e-05 0.0 
6.876053139899e-05 7.048361475913e-03 0.0 
0.0 0.0 -1.016465148841e-03 
-1.496185645618e-03 2.597795714976e-04 0.0 
2.597795714976e-04 5.580042956141e-03 0.0 
0.0 0.0 -7.680022369673e-04 
1.209193990119e-03 2.857448575399e-03 0.0 
2.857448575399e-03 6.945453600022e-05 0.0 
0.0 0.0 -5.479922254795e-04 
-1.208481437465e-03 1.793019710120e-03 0.0 
1.793019710120e-03 3.824789842828e-03 0.0 
0.0 0.0 -7.984459790235e-04 
-1.152184433486e-03 3.335097296693e-03 0.0 
3.335097296693e-03 5.424015752646e-03 0.0 
0.0 0.0 -1.136725521675e-03 
-1.147448492341e-03 -1.324005404889e-03 0.0 
-1.324005404889e-03 3.757906895843e-03 0.0 
0.0 0.0 -9.635001610744e-04 
-1.057040178935e-03 2.860292126594e-03 0.0 
2.860292126594e-03 5.175691718835e-03 0.0 
0.0 0.0 -1.285202198870e-03 
-1.235950081423e-03 3.387647794385e-03 0.0 
3.387647794385e-03 6.387700415222e-03 0.0 
0.0 0.0 -1.265486236287e-03 
9.281696803103e-05 2.658900655702e-03 0.0 
2.658900655702e-03 1.536267417270e-03 0.0 
0.0 0.0 -6.981790222718e-04 
-1.143109251794e-03 -9.968271358534e-04 0.0 
-9.968271358534e-04 3.727905850470e-03 0.0 
0.0 0.0 -9.933498913217e-04 
8.375618411647e-06 -4.309904929494e-04 0.0 
-4.309904929494e-04 3.045007785971e-03 0.0 
0.0 0.0 -1.152822474774e-03 
-6.877546197814e-04 2.505636337626e-03 0.0 
2.505636337626e-03 3.038701524841e-03 0.0 
0.0 0.0 -9.245708556394e-04 
1.703115487888e-04 2.091650289530e-03 0.0 
2.091650289530e-03 1.051916456575e-03 0.0 
0.0 0.0 -5.238120022987e-04 
-1.475392442541e-03 1.965496358724e-03 0.0 
1.965496358724e-03 4.467421796523e-03 0.0 
0.0 0.0 -8.137754052845e-04 
9.749921592096e-04 3.123149167265e-03 0.0 
3.123149167265e-03 7.036965901566e-04 0.0 
0.0 0.0 -7.194380354427e-04 
-1.431612767918e-03 8.458326217491e-04 0.0 
8.458326217491e-04 8.384155646033e-03 0.0 
0.0 0.0 -1.279059907835e-03 
-1.564281029058e-03 2.665406032541e-03 0.0 
2.665406032541e-03 6.081997352065e-03 0.0 
0.0 0.0 -1.060691896764e-03 
-1.994493389840e-03 -1.486147162618e-04 0.0 
-1.486147162618e-04 6.559276794178e-03 0.0 
0.0 0.0 -1.155968210243e-03 
4.093528604226e-04 2.208508467563e-03 0.0 
2.208508467563e-03 7.981291822907e-04 0.0 
0.0 0.0 -5.174923040200e-04 
2.334418016396e-03 2.579116851284e-03 0.0 
2.579116851284e-03 -5.999483228990e-04 0.0 
0.0 0.0 -7.433441543560e-04 
-1.484568773685e-03 2.868377484862e-03 0.0 
2.868377484862e-03 6.031945958818e-03 0.0 
0.0 0.0 -1.089453766084e-03 
0.0 0.0 0.0 
0.0 0.0 0.0 
0.0 0.0 0.0 
-6.877179378264e-04 2.407578529618e-03 0.0 
2.407578529618e-03 2.994584755227e-03 0.0 
0.0 0.0 -9.117638418509e-04 
1.701472924961e-04 -1.416553182353e-03 0.0 
-1.416553182353e-03 2.527445138619e-03 0.0 
0.0 0.0 -1.080675545910e-03 
7.614101656211e-04 -9.306526935755e-04 0.0 
-9.306526935755e-04 6.714955075901e-04 0.0 
0.0 0.0 -3.004177607877e-04 
-1.466695883915e-03 2.895664536321e-03 0.0 
2.895664536321e-03 7.498365973997e-03 0.0 
0.0 0.0 -1.257517519450e-03 
-1.714163728762e-03 1.976135659385e-03 0.0 
1.976135659385e-03 6.108584287411e-03 0.0 
0.0 0.0 -9.749624431058e-04 
4.925108656531e-04 -3.055158529449e-03 0.0 
-3.055158529449e-03 1.195571453177e-03 0.0 
0.0 0.0 -7.234638509273e-04 
2.687278214663e-04 -6.810653139458e-04 0.0 
-6.810653139458e-04 2.481884598028e-03 0.0 
0.0 0.0 -1.082135573043e-03 
-1.799351909415e-03 1.409259675503e-03 0.0 
1.409259675503e-03 5.578155389814e-03 0.0 
0.0 0.0 -8.259898420369e-04 
-1.801064707900e-03 1.064269352962e-03 0.0 
1.064269352962e-03 5.991738140388e-03 0.0 
0.0 0.0 -8.838609275114e-04 
-6.913788155710e-04 -1.227574140941e-03 0.0 
-1.227574140941e-03 4.246435019945e-03 0.0 
0.0 0.0 -1.237791025003e-03 
1.617016974438e-05 -2.476429670131e-03 0.0 
-2.476429670131e-03 1.553276678470e-03 0.0 
0.0 0.0 -6.726200778060e-04 
-1.931314796257e-04 3.392233640780e-03 0.0 
3.392233640780e-03 2.538226820427e-03 0.0 
0.0 0.0 -1.005040860343e-03 
-1.319730188756e-03 2.601972306617e-03 0.0 
2.601972306617e-03 4.340655659079e-03 0.0 
0.0 0.0 -8.816854262052e-04 
-1.791217628275e-03 1.648610109221e-03 0.0 
1.648610109221e-03 6.470941124492e-03 0.0 
0.0 0.0 -1.008548823165e-03 
-1.624650418518e-03 2.058268446018e-03 0.0 
2.058268446018e-03 4.841940123608e-03 0.0 
0.0 0.0 -8.379792476443e-04 
-1.489577849007e-03 1.897054155513e-03 0.0 
1.897054155513e-03 4.494677002446e-03 0.0 
0.0 0.0 -8.233332215064e-04 
9.144592983676e-04 2.103723640953e-03 0.0 
2.103723640953e-03 1.164621970286e-03 0.0 
0.0 0.0 -8.910348294228e-04 
-1.234709836901e-03 2.936622841749e-03 0.0 
2.936622841749e-03 5.525011386670e-03 0.0 
0.0 0.0 -1.105110859848e-03 
0.0 0.0 0.0 
0.0 0.0 0.0 
0.0 0.0 0.0 
5.533753092925e-05 2.321065575708e-03 0.0 
2.321065575708e-03 1.385026181291e-03 0.0 
0.0 0.0 -6.172987338087e-04 
9.775337925356e-05 2.647350784272e-03 0.0 
2.647350784272e-03 1.520581698043e-03 0.0 
0.0 0.0 -6.935721759841e-04 
-4.200121646643e-04 3.335963278249e-03 0.0 
3.335963278249e-03 2.868206010904e-03 0.0 
0.0 0.0 -9.575728814879e-04 
-1.648855317221e-03 2.317084043405e-03 0.0 
2.317084043405e-03 6.523041636329e-03 0.0 
0.0 0.0 -1.095076276885e-03 
2.058287304795e-03 2.313329836799e-03 0.0 
2.313329836799e-03 -1.214980310369e-03 0.0 
0.0 0.0 -3.614172833254e-04 
1.621278099486e-04 -1.894393997341e-03 0.0 
-1.894393997341e-03 2.355296152545e-03 0.0 
0.0 0.0 -1.043355442177e-03 
-1.517251520276e-03 -1.088769506638e-04 0.0 
-1.088769506638e-04 5.367725382565e-03 0.0 
0.0 0.0 -7.763349569542e-04 
2.071225716726e-03 2.817742222964e-03 0.0 
2.817742222964e-03 -5.830940965428e-04 0.0 
0.0 0.0 -6.377706943641e-04 
8.701785889744e-05 -2.378886716450e-03 0.0 
-2.378886716450e-03 2.268431335651e-03 0.0 
0.0 0.0 -1.006238978475e-03 
6.688501451719e-04 -8.570105726374e-04 0.0 
-8.570105726374e-04 2.508766139633e-04 0.0 
0.0 0.0 -2.227849532966e-04 
-1.684683593515e-03 2.138149817611e-03 0.0 
2.138149817611e-03 6.451465524737e-03 0.0 
0.0 0.0 -1.040010908530e-03 
1.085799585697e-03 -9.338136306232e-04 0.0 
-9.338136306232e-04 4.841625588176e-05 0.0 
0.0 0.0 -1.827119720807e-04 
1.032861128012e-04 -6.271925775052e-04 0.0 
-6.271925775052e-04 6.433353347809e-04 0.0 
0.0 0.0 -2.890002659678e-04 
4.284292636794e-04 2.188011980544e-03 0.0 
2.188011980544e-03 7.634628543711e-04 0.0 
0.0 0.0 -5.108109077359e-04 
5.217682496464e-06 -2.221552624950e-03 0.0 
-2.221552624950e-03 1.410136832977e-03 0.0 
0.0 0.0 -6.065805066316e-04 
-1.756426844714e-03 1.797081824779e-03 0.0 
1.797081824779e-03 6.815040634103e-03 0.0 
0.0 0.0 -1.073797489760e-03 
1.622101319788e-04 -2.264597495009e-03 0.0 
-2.264597495009e-03 1.173181540105e-03 0.0 
0.0 0.0 -5.723107166073e-04 
1.082074594484e-03 2.640607073619e-03 0.0 
2.640607073619e-03 2.626720583109e-04 0.0 
0.0 0.0 -5.763199940550e-04 
1.605964786137e-03 -3.583242349909e-03 0.0 
-3.583242349909e-03 -7.906667844752e-05 0.0 
0.0 0.0 -6.543849032956e-04 
-3.494454807525e-05 -1.610984925714e-03 0.0 
-1.610984925714e-03 1.099950761190e-03 0.0 
0.0 0.0 -4.564312341920e-04 
1.739023189570e-04 -2.645147422265e-04 0.0 
-2.645147422265e-04 2.696870324371e-03 0.0 
0.0 0.0 -1.117524173959e-03 
-1.429083730494e-03 2.211537082543e-03 0.0 
2.211537082543e-03 4.453302943283e-03 0.0 
0.0 0.0 -8.507820156577e-04 
-1.682802659426e-03 -8.879633472863e-04 0.0 
-8.879633472863e-04 6.796328964063e-03 0.0 
0.0 0.0 -1.256743614961e-03 
0.0 0.0 0.0 
0.0 0.0 0.0 
0.0 0.0 0.0 
1.341168508293e-03 2.860330611598e-03 0.0 
2.860330611598e-03 7.949426344501e-05 0.0 
0.0 0.0 -6.088554736019e-04 
2.068683241690e-03 2.743594093827e-03 0.0 
2.743594093827e-03 -6.076247593681e-04 0.0 
0.0 0.0 -6.261679209952e-04 
-4.650783933680e-04 2.487333802040e-03 0.0 
2.487333802040e-03 2.583809885183e-03 0.0 
0.0 0.0 -9.080277822064e-04 
3.082871487027e-04 -1.189402361213e-03 0.0 
-1.189402361213e-03 2.304624928689e-03 0.0 
0.0 0.0 -1.045235091131e-03 
-1.579554839483e-03 -1.394031692893e-03 0.0 
-1.394031692893e-03 6.678028948098e-03 0.0 
0.0 0.0 -1.275930989368e-03 
-1.684299046229e-03 2.211375405385e-03 0.0 
2.211375405385e-03 6.180161065170e-03 0.0 
0.0 0.0 -1.029499106509e-03 
2.603806802799e-03 2.336705660835e-03 0.0 
2.336705660835e-03 -7.411156882784e-04 0.0 
0.0 0.0 -7.982961919374e-04 
1.043592575535e-04 -8.852470439530e-04 0.0 
-8.852470439530e-04 2.718008520162e-03 0.0 
0.0 0.0 -1.116166892424e-03 
-1.922924089839e-03 -2.680134474821e-04 0.0 
-2.680134474821e-04 5.558845052998e-03 0.0 
0.0 0.0 -1.068822925414e-03 
-7.222094777076e-04 3.206300168432e-03 0.0 
3.206300168432e-03 3.349356457826e-03 0.0 
0.0 0.0 -9.235973587808e-04 
-1.677093997722e-03 2.220083154297e-03 0.0 
2.220083154297e-03 6.117933896180e-03 0.0 
0.0 0.0 -1.003200534345e-03 
-7.865873312168e-04 2.395249233040e-03 0.0 
2.395249233040e-03 4.693437656803e-03 0.0 
0.0 0.0 -1.239730878702e-03 
2.351260119446e-03 2.575200545511e-03 0.0 
2.575200545511e-03 -6.504486438349e-04 0.0 
0.0 0.0 -7.289192038335e-04 
9.551102574568e-04 2.654829682591e-03 0.0 
2.654829682591e-03 4.928673923672e-04 0.0 
0.0 0.0 -6.205618499245e-04 
-1.702788092325e-03 2.198389791733e-03 0.0 
2.198389791733e-03 5.173682012494e-03 0.0 
0.0 0.0 -8.662621843288e-04 
-1.465090691244e-03 1.772844143032e-03 0.0 
1.772844143032e-03 8.679771669805e-03 0.0 
0.0 0.0 -1.323568725688e-03 
-2.196076664333e-04 3.542355712652e-03 0.0 
3.542355712652e-03 2.609169075547e-03 0.0 
0.0 0.0 -9.604425725470e-04 
2.156116458846e-03 1.930277635860e-03 0.0 
1.930277635860e-03 -8.514533959833e-04 0.0 
0.0 0.0 -5.591413126556e-04 
-1.551301896676e-03 9.806982104899e-05 0.0 
9.806982104899e-05 6.010438701821e-03 0.0 
0.0 0.0 -8.293613651800e-04 
5.856186318512e-04 -2.658816906517e-03 0.0 
-2.658816906517e-03 8.548743103245e-04 0.0 
0.0 0.0 -6.173541180753e-04 
-1.598852307231e-03 2.167741205054e-03 0.0 
2.167741205054e-03 4.803959338789e-03 0.0 
0.0 0.0 -8.353017157004e-04 
2.274495282906e-03 2.779935450298e-03 0.0 
2.779935450298e-03 -7.589577722122e-04 0.0 
0.0 0.0 -6.495160760114e-04 
2.298330951285e-03 2.091471460167e-03 0.0 
2.091471460167e-03 -1.204105301713e-03 0.0 
0.0 0.0 -4.689538498166e-04 
2.194832401766e-03 -2.977249775004e-03 0.0 
-2.977249775004e-03 -1.184035248941e-03 0.0 
0.0 0.0 -4.331987797821e-04 
-1.681597496447e-03 2.058302471615e-03 0.0 
2.058302471615e-03 6.767260745606e-03 0.0 
0.0 0.0 -1.075985979751e-03 
-1.563333733845e-03 2.379244648904e-03 0.0 
2.379244648904e-03 4.793451180047e-03 0.0 
0.0 0.0 -8.585603458244e-04 
7.771067329277e-04 2.601388271392e-03 0.0 
2.601388271392e-03 5.653213737160e-04 0.0 
0.0 0.0 -5.753263314187e-04 
-1.744996038836e-03 1.710273158382e-03 0.0 
1.710273158382e-03 7.117718959599e-03 0.0 
0.0 0.0 -1.109763131677e-03 
-1.606390224900e-03 2.419672085247e-03 0.0 
2.419672085247e-03 6.148327333334e-03 0.0 
0.0 0.0 -1.057773507355e-03 
-9.992751282894e-04 3.042009890222e-03 0.0 
3.042009890222e-03 3.819168416919e-03 0.0 
0.0 0.0 -9.009204134091e-04 
-1.375955048470e-03 -1.683400062222e-03 0.0 
-1.683400062222e-03 6.152421885777e-03 0.0 
0.0 0.0 -1.288412101370e-03 
1.944327134549e-03 1.768812360803e-03 0.0 
1.768812360803e-03 -8.136324325899e-04 0.0 
0.0 0.0 -4.845834436969e-04 
-1.254552424136e-03 2.860314366234e-03 0.0 
2.860314366234e-03 4.275922517579e-03 0.0 
0.0 0.0 -8.847105569873e-04 
9.718205800213e-04 3.231436175948e-03 0.0 
3.231436175948e-03 7.715228841926e-04 0.0 
0.0 0.0 -7.471471989488e-04 
1.727666947234e-03 1.978971680572e-03 0.0 
1.978971680572e-03 -4.287431573860e-04 0.0 
0.0 0.0 -5.566816242204e-04 
2.636933750934e-03 1.964049691199e-03 0.0 
1.964049691199e-03 -1.267164226969e-03 0.0 
0.0 0.0 -5.870440816995e-04 
-1.756261579278e-03 1.027223545009e-03 0.0 
1.027223545009e-03 5.150592098184e-03 0.0 
0.0 0.0 -7.898058234521e-04 
2.669142654027e-03 2.047008583083e-03 0.0 
2.047008583083e-03 -9.582484116816e-04 0.0 
0.0 0.0 -7.332403895767e-04 
2.689606729154e-03 -1.689602510838e-03 0.0 
-1.689602510838e-03 -1.205625742808e-03 0.0 
0.0 0.0 -6.359918512911e-04 
-1.629595190705e-03 2.449686769187e-03 0.0 
2.449686769187e-03 6.117601231972e-03 0.0 
0.0 0.0 -1.032318248600e-03 
0.0 0.0 0.0 
0.0 0.0 0.0 
0.0 0.0 0.0 
-1.769475386321e-03 1.897454184282e-03 0.0 
1.897454184282e-03 5.196794091963e-03 0.0 
0.0 0.0 -8.386390795737e-04 
2.679831450569e-03 2.298078295471e-03 0.0 
2.298078295471e-03 -1.117110075304e-03 0.0 
0.0 0.0 -6.697377322564e-04 
1.525405513799e-03 2.895304825734e-03 0.0 
2.895304825734e-03 1.054559655311e-04 0.0 
0.0 0.0 -6.989406339984e-04 
2.631491351563e-03 9.404993485972e-04 0.0 
9.404993485972e-04 -1.150887457296e-03 0.0 
0.0 0.0 -6.345445261146e-04 
-1.595995973144e-03 2.618038279511e-03 0.0 
2.618038279511e-03 5.071323653385e-03 0.0 
0.0 0.0 -8.965110541436e-04 
1.511841627677e-04 -1.773057166612e-03 0.0 
-1.773057166612e-03 8.535234281834e-04 0.0 
0.0 0.0 -3.901044503889e-04 
-9.397222903951e-05 2.775799572976e-03 0.0 
2.775799572976e-03 1.950195750929e-03 0.0 
0.0 0.0 -7.955243665241e-04 
1.510533742235e-03 1.893368219128e-03 0.0 
1.893368219128e-03 -3.333023352098e-04 0.0 
0.0 0.0 -5.045277458680e-04 
-1.529633938128e-03 2.472556152499e-03 0.0 
2.472556152499e-03 4.747231259560e-03 0.0 
0.0 0.0 -8.651285257930e-04 
-1.800570073848e-03 1.187623183650e-03 0.0 
1.187623183650e-03 5.684872286068e-03 0.0 
0.0 0.0 -8.301023967811e-04 
9.558821828944e-04 1.012922103067e-03 0.0 
1.012922103067e-03 -8.983468077863e-04 0.0 
0.0 0.0 -2.465801790349e-05 
2.929345942082e-03 -7.362875197769e-04 0.0 
-7.362875197769e-04 -1.325012703078e-03 0.0 
0.0 0.0 -6.875713881444e-04 
2.465820499106e-03 -2.486373233668e-03 0.0 
-2.486373233668e-03 -9.885187097241e-04 0.0 
0.0 0.0 -6.331293383067e-04 
-1.000270138248e-04 2.665501899130e-03 0.0 
2.665501899130e-03 1.891739969722e-03 0.0 
0.0 0.0 -7.678769810987e-04 
-1.745645462288e-03 1.969965136157e-03 0.0 
1.969965136157e-03 6.177510406470e-03 0.0 
0.0 0.0 -1.000663671924e-03 
-6.743676206496e-05 2.958894746749e-03 0.0 
2.958894746749e-03 2.016036742517e-03 0.0 
0.0 0.0 -8.351142773366e-04 
2.740866472437e-03 2.036102310260e-03 0.0 
2.036102310260e-03 -1.186449683482e-03 0.0 
0.0 0.0 -6.661786238380e-04 
2.465496107494e-03 2.525824601176e-03 0.0 
2.525824601176e-03 -9.322172367962e-04 0.0 
0.0 0.0 -6.571195160133e-04 
1.273787981714e-03 8.615297331710e-04 0.0 
8.615297331710e-04 -7.497623681705e-04 0.0 
0.0 0.0 -2.245824058045e-04 
1.142131131016e-03 2.936542087170e-03 0.0 
2.936542087170e-03 2.802751358821e-04 0.0 
0.0 0.0 -6.096026858133e-04 
8.727535464249e-04 2.453256376776e-03 0.0 
2.453256376776e-03 4.670237874706e-04 0.0 
0.0 0.0 -5.741902859552e-04 
-1.475760748405e-03 2.695142501196e-03 0.0 
2.695142501196e-03 8.197923622284e-03 0.0 
0.0 0.0 -1.321446319728e-03 
-1.492107186378e-03 3.030650340964e-03 0.0 
3.030650340964e-03 7.905007360297e-03 0.0 
0.0 0.0 -1.318029376683e-03 
-1.178085073701e-05 3.500120593452e-03 0.0 
3.500120593452e-03 2.258084084144e-03 0.0 
0.0 0.0 -9.627013857460e-04 
2.548877331085e-03 2.529452683065e-03 0.0 
2.529452683065e-03 -1.024625724028e-03 0.0 
0.0 0.0 -6.532506887387e-04 
1.850654072594e-03 2.843628912083e-03 0.0 
2.843628912083e-03 -1.310735320691e-04 0.0 
0.0 0.0 -7.369630887965e-04 
-1.088841516862e-03 3.167027765780e-03 0.0 
3.167027765780e-03 4.070335559596e-03 0.0 
0.0 0.0 -9.333628341409e-04 
2.340427504556e-03 2.434956062557e-03 0.0 
2.434956062557e-03 -5.727957500432e-04 0.0 
0.0 0.0 -7.575564662197e-04 
2.682095355776e-03 -1.550453496673e-03 0.0 
-1.550453496673e-03 -1.096738406614e-03 0.0 
0.0 0.0 -6.794386924979e-04 
-6.843102871119e-04 3.138323977980e-03 0.0 
3.138323977980e-03 3.288670793621e-03 0.0 
0.0 0.0 -9.652881140700e-04 
-1.560571318974e-03 1.068024078019e-03 0.0 
1.068024078019e-03 8.561491499252e-03 0.0 
0.0 0.0 -1.266640259566e-03 
2.402271625794e-03 2.610626999267e-03 0.0 
2.610626999267e-03 -8.722989033853e-04 0.0 
0.0 0.0 -6.557025953181e-04 
6.813860835502e-04 2.812347985425e-03 0.0 
2.812347985425e-03 1.059490988612e-03 0.0 
0.0 0.0 -7.460901737839e-04 
1.236363456041e-03 2.703241249809e-03 0.0 
2.703241249809e-03 7.838624202409e-05 0.0 
0.0 0.0 -5.634641563138e-04 
-9.652389989341e-04 -6.720183629338e-04 0.0 
-6.720183629338e-04 5.271242622276e-03 0.0 
0.0 0.0 -1.322863172658e-03 
2.098067576592e-03 2.923737740925e-03 0.0 
2.923737740925e-03 -6.205768400508e-04 0.0 
0.0 0.0 -6.332103156605e-04 
-5.055876985533e-04 3.367364034790e-03 0.0 
3.367364034790e-03 3.063510178626e-03 0.0 
0.0 0.0 -9.919420460789e-04 
1.879903345484e-03 1.255087970799e-03 0.0 
1.255087970799e-03 -1.207356077200e-03 0.0 
0.0 0.0 -2.882345435504e-04 
1.114970489587e-03 -6.571475029199e-04 0.0 
-6.571475029199e-04 3.550721468189e-04 0.0 
0.0 0.0 -6.300182727452e-04 
2.369471702773e-03 2.352310472614e-03 0.0 
2.352310472614e-03 -9.003050297678e-04 0.0 
0.0 0.0 -6.296428598595e-04 
2.511210871122e-03 -2.213592529972e-03 0.0 
-2.213592529972e-03 -7.926901794877e-04 0.0 
0.0 0.0 -7.365088678433e-04 
-1.351376459572e-03 2.550480813182e-03 0.0 
2.550480813182e-03 4.385207787700e-03 0.0 
0.0 0.0 -8.710486452961e-04 
-1.397658873592e-03 3.467085405935e-03 0.0 
3.467085405935e-03 7.331557043367e-03 0.0 
0.0 0.0 -1.324865334549e-03 
2.762976518654e-03 2.129275318385e-03 0.0 
2.129275318385e-03 -1.188719051590e-03 0.0 
0.0 0.0 -6.746817715991e-04 
1.650992187785e-03 1.271809720393e-03 0.0 
1.271809720393e-03 -3.513789338484e-04 0.0 
0.0 0.0 -5.569771088299e-04 
1.383242402169e-03 2.669272504238e-03 0.0 
2.669272504238e-03 1.108605796806e-04 0.0 
0.0 0.0 -6.403298493639e-04 
-1.712702943967e-03 1.199021659258e-03 0.0 
1.199021659258e-03 6.429834953111e-03 0.0 
0.0 0.0 -9.576894438039e-04 
2.851085176734e-04 -1.709536430844e-03 0.0 
-1.709536430844e-03 2.195876444368e-03 0.0 
0.0 0.0 -1.008345180213e-03 
7.579314461175e-04 2.705809604616e-03 0.0 
2.705809604616e-03 6.993839864940e-04 0.0 
0.0 0.0 -6.245637568335e-04 
-1.777734376668e-03 7.086825961679e-04 0.0 
7.086825961679e-04 6.354608604567e-03 0.0 
0.0 0.0 -9.257128893455e-04 
-1.277191206466e-03 3.589282529004e-03 0.0 
3.589282529004e-03 6.665823351058e-03 0.0 
0.0 0.0 -1.322580803729e-03 
1.403185707490e-06 -1.439264409054e-03 0.0 
-1.439264409054e-03 2.848558759865e-03 0.0 
0.0 0.0 -1.075861678316e-03 
-1.430658668499e-03 3.358596416292e-03 0.0 
3.358596416292e-03 7.549163922134e-03 0.0 
0.0 0.0 -1.322091174222e-03 
-1.793445118784e-03 9.356262614995e-04 0.0 
9.356262614995e-04 6.204769543778e-03 0.0 
0.0 0.0 -9.196498359204e-04 
-1.442068331431e-03 2.746821175537e-03 0.0 
2.746821175537e-03 5.682562585269e-03 0.0 
0.0 0.0 -1.048263655743e-03 
5.998084775859e-04 2.508005665207e-03 0.0 
2.508005665207e-03 7.531788584781e-04 0.0 
0.0 0.0 -5.798517154560e-04 
-1.223045542115e-03 2.387086346015e-03 0.0 
2.387086346015e-03 4.064515837256e-03 0.0 
0.0 0.0 -8.681697709544e-04 
-1.209389184573e-03 2.902758957536e-03 0.0 
2.902758957536e-03 4.217242041572e-03 0.0 
0.0 0.0 -9.102795160361e-04 
-1.488840206319e-03 2.679198250696e-03 0.0 
2.679198250696e-03 4.716368235080e-03 0.0 
0.0 0.0 -8.732807453983e-04 
1.119499660130e-04 3.567291341735e-03 0.0 
3.567291341735e-03 2.082472498151e-03 0.0 
0.0 0.0 -9.404667703562e-04 
-1.189299144518e-03 3.334584496646e-03 0.0 
3.334584496646e-03 6.217817091132e-03 0.0 
0.0 0.0 -1.322334986692e-03 
-1.743738005580e-03 1.571409251216e-03 0.0 
1.571409251216e-03 5.783273679231e-03 0.0 
0.0 0.0 -8.810748613436e-04 
-1.668503733379e-03 1.747174983457e-03 0.0 
1.747174983457e-03 4.858766838357e-03 0.0 
0.0 0.0 -8.123974380148e-04 
2.689502468919e-03 2.075432867186e-03 0.0 
2.075432867186e-03 -9.257907609435e-04 0.0 
0.0 0.0 -7.558764462751e-04 
-2.431074983303e-05 -1.913003925140e-03 0.0 
-1.913003925140e-03 1.267148434552e-03 0.0 
0.0 0.0 -5.326447220222e-04 
-1.300250353668e-03 2.028546891134e-03 0.0 
2.028546891134e-03 4.120204910714e-03 0.0 
0.0 0.0 -8.415228793236e-04 
1.029960534553e-03 2.697834854064e-03 0.0 
2.697834854064e-03 2.742713854926e-04 0.0 
0.0 0.0 -5.589565371624e-04 
-1.478386704748e-03 4.206789908739e-05 0.0 
4.206789908739e-05 5.616715806328e-03 0.0 
0.0 0.0 -7.696142143080e-04 
2.082223251132e-03 -2.739881630323e-03 0.0 
-2.739881630323e-03 -6.915223042800e-04 0.0 
0.0 0.0 -5.960146915079e-04 
2.687145576905e-03 2.150944824992e-03 0.0 
2.150944824992e-03 -8.619858571998e-04 0.0 
0.0 0.0 -7.822113084450e-04 
-1.642192723937e-03 2.370627921536e-03 0.0 
2.370627921536e-03 6.463774212935e-03 0.0 
0.0 0.0 -1.069052450572e-03 
1.210732016110e-03 2.901093481449e-03 0.0 
2.901093481449e-03 3.403089247521e-04 0.0 
0.0 0.0 -6.647318317980e-04 
-1.090838761359e-03 2.744646813510e-03 0.0 
2.744646813510e-03 3.916911857046e-03 0.0 
0.0 0.0 -9.030726692333e-04 
1.373131851669e-03 1.385595291722e-03 0.0 
1.385595291722e-03 -2.069114301952e-04 0.0 
0.0 0.0 -4.998087520603e-04 
5.484712090762e-04 -3.075676285272e-03 0.0 
-3.075676285272e-03 1.137788810983e-03 0.0 
0.0 0.0 -7.226828657397e-04 
-1.016387097360e-03 2.517297286892e-03 0.0 
2.517297286892e-03 5.594754578216e-03 0.0 
0.0 0.0 -1.324762665914e-03 
-9.072903591933e-04 2.355207703591e-03 0.0 
2.355207703591e-03 3.405907050817e-03 0.0 
0.0 0.0 -8.881387192877e-04 
2.946142820410e-03 1.617684650386e-04 0.0 
1.617684650386e-04 -1.452636572549e-03 0.0 
0.0 0.0 -6.400741062262e-04 
6.309307785542e-04 -2.673296576986e-03 0.0 
-2.673296576986e-03 8.118285156915e-04 0.0 
0.0 0.0 -6.183254118196e-04 
2.654857369397e-04 2.566176722282e-03 0.0 
2.566176722282e-03 1.206224560431e-03 0.0 
0.0 0.0 -6.307329845874e-04 
6.292944620548e-04 2.356029893105e-03 0.0 
2.356029893105e-03 6.393485700988e-04 0.0 
0.0 0.0 -5.437041566372e-04 
-1.573343830476e-03 2.521088319541e-03 0.0 
2.521088319541e-03 6.487888532466e-03 0.0 
0.0 0.0 -1.123886314723e-03 
-8.643744592464e-04 3.301393799564e-03 0.0 
3.301393799564e-03 3.642299074364e-03 0.0 
0.0 0.0 -9.055216267950e-04 
-4.630807398905e-04 2.550759047776e-03 0.0 
2.550759047776e-03 2.616100997212e-03 0.0 
0.0 0.0 -9.227229674235e-04 
-9.883417377340e-04 2.554278731018e-03 0.0 
2.554278731018e-03 3.636783780997e-03 0.0 
0.0 0.0 -8.916891917129e-04 
-9.188251607234e-04 7.915048635257e-04 0.0 
7.915048635257e-04 5.164894119245e-03 0.0 
0.0 0.0 -1.320675234999e-03 
-5.234519663279e-04 8.018217957374e-04 0.0 
8.018217957374e-04 4.358356351167e-03 0.0 
0.0 0.0 -1.258064670439e-03 
-1.519847497081e-03 2.784288839478e-03 0.0 
2.784288839478e-03 6.420730520918e-03 0.0 
0.0 0.0 -1.126590436115e-03 
-1.758421539440e-03 1.881967215149e-03 0.0 
1.881967215149e-03 6.509172932200e-03 0.0 
0.0 0.0 -1.037522200811e-03 
7.328240466091e-04 -2.682401726123e-03 0.0 
-2.682401726123e-03 7.115913620792e-04 0.0 
0.0 0.0 -6.190351751521e-04 
1.760096404852e-04 3.185483329578e-03 0.0 
3.185483329578e-03 1.733233248228e-03 0.0 
0.0 0.0 -8.182469523055e-04 
2.700024770010e-03 1.747528214601e-03 0.0 
1.747528214601e-03 -9.576266826323e-04 0.0 
0.0 0.0 -7.467420374474e-04 
2.935361494200e-03 1.596241168019e-03 0.0 
1.596241168019e-03 -1.073012164550e-03 0.0 
0.0 0.0 -7.981497127072e-04 
-5.548455542571e-04 3.454533405249e-03 0.0 
3.454533405249e-03 3.132006875912e-03 0.0 
0.0 0.0 -9.270064166112e-04 
1.279127165458e-03 -9.870557535994e-04 0.0 
-9.870557535994e-04 -3.854326390960e-05 0.0 
0.0 0.0 -5.316788149495e-04 
-4.227815079073e-04 -2.784371059583e-03 0.0 
-2.784371059583e-03 2.659310912429e-03 0.0 
0.0 0.0 -9.585126019377e-04 
-1.599277265462e-03 2.517332469059e-03 0.0 
2.517332469059e-03 6.812542085539e-03 0.0 
0.0 0.0 -1.134236807130e-03 
2.838543821024e-03 -9.388703813827e-04 0.0 
-9.388703813827e-04 -1.339013732820e-03 0.0 
0.0 0.0 -6.426557520871e-04 
4.165970448057e-04 3.486050932692e-03 0.0 
3.486050932692e-03 1.558675942698e-03 0.0 
0.0 0.0 -8.465455660731e-04 
-9.570428297717e-04 3.028568391790e-03 0.0 
3.028568391790e-03 3.758744006407e-03 0.0 
0.0 0.0 -9.331417602438e-04 
4.382192218767e-04 3.304842555304e-03 0.0 
3.304842555304e-03 1.417845423766e-03 0.0 
0.0 0.0 -7.954562767040e-04 
-1.443236035943e-03 3.221098478814e-03 0.0 
3.221098478814e-03 7.736365815094e-03 0.0 
0.0 0.0 -1.320088186226e-03 
-1.483693740833e-03 2.932428243371e-03 0.0 
2.932428243371e-03 8.049345893719e-03 0.0 
0.0 0.0 -1.318462653075e-03 
-1.548932721531e-03 2.525807133433e-03 0.0 
2.525807133433e-03 7.540510939249e-03 0.0 
0.0 0.0 -1.256494544188e-03 
5.199835747165e-04 -2.886590158864e-03 0.0 
-2.886590158864e-03 1.061442334883e-03 0.0 
0.0 0.0 -6.777539612569e-04 
-1.663138327388e-03 1.991577787862e-03 0.0 
1.991577787862e-03 7.067165816428e-03 0.0 
0.0 0.0 -1.112065035246e-03 
8.530770766536e-04 2.505748462956e-03 0.0 
2.505748462956e-03 4.288710739428e-04 0.0 
0.0 0.0 -5.494063502556e-04 
2.976026969438e-03 1.471613804293e-03 0.0 
1.471613804293e-03 -1.145802400427e-03 0.0 
0.0 0.0 -7.843819581477e-04 
2.176227096681e-03 9.823823306462e-04 0.0 
9.823823306462e-04 -1.042597419615e-03 0.0 
0.0 0.0 -4.858412901716e-04 
-2.813268701102e-04 2.910442502919e-03 0.0 
2.910442502919e-03 2.419195128745e-03 0.0 
0.0 0.0 -9.162292537005e-04 
-1.720195429854e-03 7.985877951349e-04 0.0 
7.985877951349e-04 5.205169340213e-03 0.0 
0.0 0.0 -7.914980036671e-04 
-1.719905413863e-03 1.237364143320e-03 0.0 
1.237364143320e-03 6.165155044144e-03 0.0 
0.0 0.0 -9.214502702889e-04 
-6.210179595173e-04 -4.728660276610e-04 0.0 
-4.728660276610e-04 4.588006840987e-03 0.0 
0.0 0.0 -1.265403586923e-03 
-1.395878555712e-03 3.050861695832e-03 0.0 
3.050861695832e-03 5.954496201824e-03 0.0 
0.0 0.0 -1.117224974728e-03 
-1.665465805844e-03 2.334336493253e-03 0.0 
2.334336493253e-03 5.128095132681e-03 0.0 
0.0 0.0 -8.687609488834e-04 
-1.346991783092e-03 3.039323733030e-03 0.0 
3.039323733030e-03 4.548648496957e-03 0.0 
0.0 0.0 -9.141259787764e-04 
2.498396854009e-03 1.198516088911e-03 0.0 
1.198516088911e-03 -1.399925765526e-03 0.0 
0.0 0.0 -4.707733236356e-04 
1.968831457284e-04 -1.841720632066e-03 0.0 
-1.841720632066e-03 8.576900148433e-04 0.0 
0.0 0.0 -4.519599259593e-04 
1.596184388708e-03 2.912527136814e-03 0.0 
2.912527136814e-03 -2.859190939001e-04 0.0 
0.0 0.0 -5.615422692032e-04 
3.342051080177e-04 3.634224831363e-03 0.0 
3.634224831363e-03 1.769838707620e-03 0.0 
0.0 0.0 -9.017330638447e-04 
1.350991084574e-03 3.130179827696e-03 0.0 
3.130179827696e-03 2.729672728852e-04 0.0 
0.0 0.0 -6.959821531966e-04 
5.181840272176e-04 1.740426048580e-03 0.0 
1.740426048580e-03 4.204450595975e-04 0.0 
0.0 0.0 -4.022696086350e-04 
-1.537623298193e-03 1.946789295788e-04 0.0 
1.946789295788e-04 5.729068901156e-03 0.0 
0.0 0.0 -8.462285223656e-04 
1.561759615532e-04 -2.189651726713e-03 0.0 
-2.189651726713e-03 1.146850025796e-03 0.0 
0.0 0.0 -5.584397088639e-04 
1.820241129970e-03 2.972056139581e-03 0.0 
2.972056139581e-03 -3.351854464419e-04 0.0 
0.0 0.0 -6.364524357979e-04 
-1.341153861134e-03 -4.057244270456e-04 0.0 
-4.057244270456e-04 4.982459086358e-03 0.0 
0.0 0.0 -1.341153861134e-03 
9.256271036625e-04 1.500053370618e-03 0.0 
1.500053370618e-03 1.273019829082e-03 0.0 
0.0 0.0 -9.422772568906e-04 
-1.647307264160e-03 1.862922357847e-03 0.0 
1.862922357847e-03 4.824359254377e-03 0.0 
0.0 0.0 -8.054468608743e-04 
2.951539872400e-04 -9.116816188897e-05 0.0 
-9.116816188897e-05 1.187821972232e-03 0.0 
0.0 0.0 -3.103042898065e-04 
7.971140923123e-05 3.343947047482e-03 0.0 
3.343947047482e-03 1.995422628245e-03 0.0 
0.0 0.0 -8.893431589182e-04 
1.873943254827e-03 2.954249127679e-03 0.0 
2.954249127679e-03 -3.006422023954e-04 0.0 
0.0 0.0 -6.742718796133e-04 
-1.609808059559e-03 2.466698786463e-03 0.0 
2.466698786463e-03 5.115271177997e-03 0.0 
0.0 0.0 -8.940630110298e-04 
-1.355176868643e-03 3.602829940139e-03 0.0 
3.602829940139e-03 7.115897601981e-03 0.0 
0.0 0.0 -1.323832587333e-03 
-1.204260933556e-03 2.429327504665e-03 0.0 
2.429327504665e-03 4.034179858945e-03 0.0 
0.0 0.0 -8.669777983973e-04 
-1.147063666963e-03 3.130382852526e-03 0.0 
3.130382852526e-03 4.139734973133e-03 0.0 
0.0 0.0 -8.917420716958e-04 
-4.014841504774e-04 -2.920877032072e-03 0.0 
-2.920877032072e-03 2.692647303736e-03 0.0 
0.0 0.0 -9.819270656821e-04 
-1.644216929044e-03 2.295172595936e-03 0.0 
2.295172595936e-03 6.800207970354e-03 0.0 
0.0 0.0 -1.105258581891e-03 
2.154052283225e-04 -3.118779152528e-03 0.0 
-3.118779152528e-03 1.628210503259e-03 0.0 
0.0 0.0 -7.901210278208e-04 
-1.316497550801e-03 3.592083674646e-03 0.0 
3.592083674646e-03 6.907418394644e-03 0.0 
0.0 0.0 -1.322174839672e-03 
-1.340103718614e-03 3.152086803121e-03 0.0 
3.152086803121e-03 7.377926064128e-03 0.0 
0.0 0.0 -1.340103718614e-03 
-1.341028575724e-03 2.465513317577e-03 0.0 
2.465513317577e-03 8.006817596930e-03 0.0 
0.0 0.0 -1.341028575724e-03 
-1.338044909071e-03 2.820900205836e-03 0.0 
2.820900205836e-03 7.687427743330e-03 0.0 
0.0 0.0 -1.338044909071e-03 
-1.502118998928e-03 2.871852761975e-03 0.0 
2.871852761975e-03 4.986656915824e-03 0.0 
0.0 0.0 -9.244680137507e-04 
-1.717961893973e-03 2.025609505479e-03 0.0 
2.025609505479e-03 6.849693926195e-03 0.0 
0.0 0.0 -1.103002250422e-03 
-1.441498127645e-03 2.997575274703e-03 0.0 
2.997575274703e-03 6.385826432379e-03 0.0 
0.0 0.0 -1.155914796392e-03 
3.567381933021e-04 2.998203481649e-03 0.0 
2.998203481649e-03 1.342739046541e-03 0.0 
0.0 0.0 -7.283473885043e-04 
1.335922643098e-04 2.946545576970e-03 0.0 
2.946545576970e-03 1.651048719616e-03 0.0 
0.0 0.0 -7.648461359682e-04 
-5.579616973433e-04 -2.537817501247e-03 0.0 
-2.537817501247e-03 2.842838828880e-03 0.0 
0.0 0.0 -9.792330563728e-04 
-1.668326353393e-03 2.237680070997e-03 0.0 
2.237680070997e-03 6.867008378533e-03 0.0 
0.0 0.0 -1.131852245309e-03 
-1.231232325275e-03 3.483829197783e-03 0.0 
3.483829197783e-03 6.428087696954e-03 0.0 
0.0 0.0 -1.322440284024e-03 
-1.629405615007e-03 2.216510426988e-03 0.0 
2.216510426988e-03 7.107180567101e-03 0.0 
0.0 0.0 -1.141180801552e-03 
1.287843860462e-03 1.762496620991e-03 0.0 
1.762496620991e-03 4.118181214961e-04 0.0 
0.0 0.0 -7.284265636965e-04 
-1.709232452093e-03 1.946096254963e-03 0.0 
1.946096254963e-03 7.158440520652e-03 0.0 
0.0 0.0 -1.138864741757e-03 
-2.474149681312e-04 3.241320627208e-03 0.0 
3.241320627208e-03 3.249866169459e-03 0.0 
0.0 0.0 -9.903545940741e-04 
5.390850837396e-04 3.135204886366e-03 0.0 
3.135204886366e-03 1.184502769340e-03 0.0 
0.0 0.0 -7.386805084625e-04 
-2.903565977667e-04 2.791530756056e-03 0.0 
2.791530756056e-03 2.364850385229e-03 0.0 
0.0 0.0 -8.890687660554e-04 
1.802555558832e-03 3.001147534895e-03 0.0 
3.001147534895e-03 -4.575658841899e-04 0.0 
0.0 0.0 -5.764241462752e-04 
-1.445725615323e-03 1.812858751269e-03 0.0 
1.812858751269e-03 8.104070872614e-03 0.0 
0.0 0.0 -1.282213402295e-03 
5.637528850199e-04 2.798374850836e-03 0.0 
2.798374850836e-03 9.579403324455e-04 0.0 
0.0 0.0 -6.521542360566e-04 
-9.878773185600e-04 3.005495027809e-03 0.0 
3.005495027809e-03 5.183572772416e-03 0.0 
0.0 0.0 -1.230767059693e-03 
-5.402829230253e-04 -2.645980312191e-03 0.0 
-2.645980312191e-03 2.860421160958e-03 0.0 
0.0 0.0 -9.943449591140e-04 
1.769669881029e-03 -3.137855469582e-03 0.0 
-3.137855469582e-03 -3.291852005029e-04 0.0 
0.0 0.0 -6.173505773685e-04 
-9.286667060019e-04 -5.578005299265e-04 0.0 
-5.578005299265e-04 4.405534968834e-03 0.0 
0.0 0.0 -1.284312900220e-03 
1.520178245233e-03 2.880262458528e-03 0.0 
2.880262458528e-03 -9.597643010145e-05 0.0 
0.0 0.0 -6.103722064851e-04 
-1.341987455608e-03 3.278682198062e-03 0.0 
3.278682198062e-03 7.180670491988e-03 0.0 
0.0 0.0 -1.341987455608e-03 
-1.479381738464e-03 2.518547494800e-03 0.0 
2.518547494800e-03 7.585721855360e-03 0.0 
0.0 0.0 -1.282654109251e-03 
-6.562251040144e-04 3.476488520305e-03 0.0 
3.476488520305e-03 3.368345711390e-03 0.0 
0.0 0.0 -9.747411499392e-04 
2.825665296399e-05 -9.471346053823e-04 0.0 
-9.471346053823e-04 5.562669983103e-04 0.0 
0.0 0.0 -2.505101362604e-04 
-1.340954708392e-03 3.409829937737e-03 0.0 
3.409829937737e-03 6.752010148723e-03 0.0 
0.0 0.0 -1.340954708392e-03 
-8.893530910468e-04 2.080039302171e-04 0.0 
2.080039302171e-04 4.249386795326e-03 0.0 
0.0 0.0 -1.284661450484e-03 
2.094151919582e-03 -2.710389235349e-03 0.0 
-2.710389235349e-03 -4.177516275291e-04 0.0 
0.0 0.0 -7.184572680229e-04 
1.187697048236e-03 1.044937454993e-03 0.0 
1.044937454993e-03 6.336881744863e-04 0.0 
0.0 0.0 -7.805936668811e-04 
-1.022563228378e-03 2.126685754851e-03 0.0 
2.126685754851e-03 5.450229037892e-03 0.0 
0.0 0.0 -1.323014926434e-03 
0.0 0.0 0.0 
0.0 0.0 0.0 
0.0 0.0 0.0 
5.629949439262e-04 2.943398902906e-03 0.0 
2.943398902906e-03 1.042834511407e-03 0.0 
0.0 0.0 -6.882126237144e-04 
-9.611236283513e-04 3.382262119005e-03 0.0 
3.382262119005e-03 3.900518768528e-03 0.0 
0.0 0.0 -9.507003520820e-04 
-3.264045535916e-04 3.528503760233e-03 0.0 
3.528503760233e-03 2.824189618732e-03 0.0 
0.0 0.0 -1.009382277479e-03 
-8.072349097140e-04 3.285348527428e-03 0.0 
3.285348527428e-03 3.572080463846e-03 0.0 
0.0 0.0 -9.583016177293e-04 
1.577973122007e-03 2.940745778594e-03 0.0 
2.940745778594e-03 -1.562631387263e-04 0.0 
0.0 0.0 -6.093042785491e-04 
-1.341360672448e-03 3.349227255108e-03 0.0 
3.349227255108e-03 6.276206882279e-03 0.0 
0.0 0.0 -1.341360672448e-03 
2.936452016240e-03 1.405586798284e-03 0.0 
1.405586798284e-03 -1.170886952934e-03 0.0 
0.0 0.0 -7.566707414170e-04 
6.010236317608e-04 7.677500863631e-05 0.0 
7.677500863631e-05 -6.010236317608e-04 0.0 
0.0 0.0 0.0 
-1.410674428243e-03 -1.887614969753e-03 0.0 
-1.887614969753e-03 6.271959657533e-03 0.0 
0.0 0.0 -1.272354826527e-03 
6.614899321087e-05 -1.031236819356e-03 0.0 
-1.031236819356e-03 5.476349804252e-04 0.0 
0.0 0.0 -2.630502744155e-04 
-7.579795143834e-04 2.669538043242e-03 0.0 
2.669538043242e-03 3.232540244350e-03 0.0 
0.0 0.0 -9.235262116470e-04 
1.408180871100e-03 -2.447837261249e-03 0.0 
-2.447837261249e-03 -4.054811993359e-04 0.0 
0.0 0.0 -4.297284307560e-04 
-1.289231145457e-03 2.085970842819e-03 0.0 
2.085970842819e-03 4.096251684655e-03 0.0 
0.0 0.0 -8.281323822960e-04 
-9.265632325981e-04 2.208084020548e-04 0.0 
2.208084020548e-04 5.136068338207e-03 0.0 
0.0 0.0 -1.321823097425e-03 
-1.341255375116e-03 3.077672806554e-03 0.0 
3.077672806554e-03 5.842647393183e-03 0.0 
0.0 0.0 -1.341255375116e-03 
-1.444220396543e-03 2.772557237900e-03 0.0 
2.772557237900e-03 4.661509496866e-03 0.0 
0.0 0.0 -8.916520742786e-04 
1.049542071535e-03 -2.597397009894e-03 0.0 
-2.597397009894e-03 2.940040078369e-04 0.0 
0.0 0.0 -5.758054625880e-04 
3.025347595527e-04 1.047283111649e-04 0.0 
1.047283111649e-04 -3.025347595527e-04 0.0 
0.0 0.0 0.0 
1.083086267670e-03 -3.284229385575e-03 0.0 
-3.284229385575e-03 2.814197768567e-04 0.0 
0.0 0.0 -5.847883047970e-04 
-1.038610003698e-03 -2.337728934242e-03 0.0 
-2.337728934242e-03 4.541183857773e-03 0.0 
0.0 0.0 -1.121833217354e-03 
-1.742165347554e-03 9.878882661806e-04 0.0 
9.878882661806e-04 5.401825771171e-03 0.0 
0.0 0.0 -7.704300227928e-04 
-1.803256776378e-03 1.584392787159e-03 0.0 
1.584392787159e-03 5.170803389825e-03 0.0 
0.0 0.0 -8.109332722942e-04 
-1.342502730507e-03 2.572106331239e-03 0.0 
2.572106331239e-03 5.434857979280e-03 0.0 
0.0 0.0 -1.342502730507e-03 
-1.732554351108e-03 7.529304742537e-04 0.0 
7.529304742537e-04 5.461566678014e-03 0.0 
0.0 0.0 -7.720444664677e-04 
-1.484252812585e-03 2.496905312066e-03 0.0 
2.496905312066e-03 8.327686936920e-03 0.0 
0.0 0.0 -1.322852565091e-03 
-2.616390310425e-04 3.420254192840e-03 0.0 
3.420254192840e-03 3.046539849901e-03 0.0 
0.0 0.0 -1.020998643257e-03 
-1.702171015059e-03 1.025221701453e-03 0.0 
1.025221701453e-03 6.037527275999e-03 0.0 
0.0 0.0 -8.907448815977e-04 
4.435059004645e-04 2.367634267758e-03 0.0 
2.367634267758e-03 8.500300084059e-04 0.0 
0.0 0.0 -5.543725323730e-04 
9.902971440261e-04 1.854120232773e-03 0.0 
1.854120232773e-03 5.282487487715e-04 0.0 
0.0 0.0 -6.508053826275e-04 
2.181030243503e-03 2.087940198003e-03 0.0 
2.087940198003e-03 -6.964523607222e-04 0.0 
0.0 0.0 -6.362476640488e-04 
-1.340754991027e-03 1.822804665951e-03 0.0 
1.822804665951e-03 5.126572871134e-03 0.0 
0.0 0.0 -1.340754991027e-03 
-1.339984467612e-03 3.017885242806e-03 0.0 
3.017885242806e-03 7.530573259310e-03 0.0 
0.0 0.0 -1.339984467612e-03 
-1.340417744004e-03 2.627800699396e-03 0.0 
2.627800699396e-03 7.874468285687e-03 0.0 
0.0 0.0 -1.340417744004e-03 
1.663950741528e-04 -3.102222571978e-03 0.0 
-3.102222571978e-03 1.696065106834e-03 0.0 
0.0 0.0 -7.981972204229e-04 
-6.783966376360e-04 -2.229795002151e-03 0.0 
-2.229795002151e-03 2.989937542639e-03 0.0 
0.0 0.0 -9.906603878584e-04 
6.633751209167e-04 3.479464549828e-03 0.0 
3.479464549828e-03 1.235326207863e-03 0.0 
0.0 0.0 -8.137291409057e-04 
-1.800452847873e-04 -3.089059520932e-03 0.0 
-3.089059520932e-03 2.334973482046e-03 0.0 
0.0 0.0 -8.981573260837e-04 
-1.339627896631e-03 1.005258068188e-03 0.0 
1.005258068188e-03 4.944567484942e-03 0.0 
0.0 0.0 -1.339627896631e-03 
2.106481318219e-03 2.804312139354e-03 0.0 
2.804312139354e-03 -3.247815718152e-04 0.0 
0.0 0.0 -7.635856056017e-04 
2.753925008266e-03 -1.471183718442e-03 0.0 
-1.471183718442e-03 -1.118113294929e-03 0.0 
0.0 0.0 -7.010621628588e-04 
2.411027346534e-03 -2.022185411865e-03 0.0 
-2.022185411865e-03 -8.248269265831e-04 0.0 
0.0 0.0 -6.798001799788e-04 
-1.695040583491e-03 9.943495357559e-04 0.0 
9.943495357559e-04 6.306677945551e-03 0.0 
0.0 0.0 -9.279583942086e-04 
-1.067283559268e-03 -1.131551148477e-03 0.0 
-1.131551148477e-03 5.382018527302e-03 0.0 
0.0 0.0 -1.323537156312e-03 
4.718253126561e-04 -2.654545060497e-03 0.0 
-2.654545060497e-03 7.297491663584e-04 0.0 
0.0 0.0 -5.149604910062e-04 
-1.340775759057e-03 3.168705887179e-05 0.0 
3.168705887179e-05 4.893000414627e-03 0.0 
0.0 0.0 -1.340775759057e-03 
2.068072739009e-03 -2.533209175997e-03 0.0 
-2.533209175997e-03 -4.905385770438e-04 0.0 
0.0 0.0 -6.760860694135e-04 
-1.342877878941e-03 3.371101462632e-03 0.0 
3.371101462632e-03 6.986301559429e-03 0.0 
0.0 0.0 -1.342877878941e-03 
-1.502505102679e-03 2.723409331035e-03 0.0 
2.723409331035e-03 6.453774250835e-03 0.0 
0.0 0.0 -1.152765850879e-03 
4.995410750134e-04 -2.508167894462e-04 0.0 
-2.508167894462e-04 1.439641133543e-04 0.0 
0.0 0.0 -1.045622396246e-04 
7.611624550475e-04 2.811491361200e-03 0.0 
2.811491361200e-03 7.486160262995e-04 0.0 
0.0 0.0 -6.470479205773e-04 
-1.718973478826e-03 1.632227495642e-03 0.0 
1.632227495642e-03 7.402026443868e-03 0.0 
0.0 0.0 -1.146019594970e-03 
-1.341220131281e-03 3.403196875768e-03 0.0 
3.403196875768e-03 6.531514611794e-03 0.0 
0.0 0.0 -1.341220131281e-03 
-1.493257815958e-03 2.709508550359e-03 0.0 
2.709508550359e-03 5.031766487179e-03 0.0 
0.0 0.0 -9.220067723808e-04 
-1.371432860580e-04 3.167005571068e-03 0.0 
3.167005571068e-03 2.958438968348e-03 0.0 
0.0 0.0 -1.049000704964e-03 
1.363417131051e-03 2.771598718083e-03 0.0 
2.771598718083e-03 -2.175926074803e-04 0.0 
0.0 0.0 -4.910676529589e-04 
-4.822149847462e-04 -8.933705669704e-06 0.0 
-8.933705669704e-06 3.680115228026e-03 0.0 
0.0 0.0 -1.228682347183e-03 
1.589016691459e-03 -2.728398742501e-03 0.0 
-2.728398742501e-03 -1.477483424757e-04 0.0 
0.0 0.0 -6.176864352786e-04 
2.014961445712e-03 -2.490489286961e-03 0.0 
-2.490489286961e-03 -7.248651286365e-04 0.0 
0.0 0.0 -5.528984216039e-04 
6.740675851827e-05 -1.946268609011e-03 0.0 
-1.946268609011e-03 5.144006658537e-04 0.0 
0.0 0.0 -2.493460390166e-04 
-1.341079611575e-03 3.240452696934e-03 0.0 
3.240452696934e-03 6.054614633037e-03 0.0 
0.0 0.0 -1.341079611575e-03 
2.419438568119e-03 1.848358171578e-03 0.0 
1.848358171578e-03 -8.324259170898e-04 0.0 
0.0 0.0 -6.801482790127e-04 
-1.052268534161e-04 -1.626163501332e-03 0.0 
-1.626163501332e-03 3.065488155398e-03 0.0 
0.0 0.0 -1.110501492391e-03 
-1.743720672030e-03 5.076947702062e-04 0.0 
5.076947702062e-04 5.915487175230e-03 0.0 
0.0 0.0 -8.555322119248e-04 
6.419311454372e-04 -2.457777299007e-03 0.0 
-2.457777299007e-03 6.816602911272e-04 0.0 
0.0 0.0 -5.672534728133e-04 
2.432948694747e-03 -2.224719869907e-03 0.0 
-2.224719869907e-03 -1.006521097821e-03 0.0 
0.0 0.0 -6.113261129685e-04 
-1.391571865871e-03 2.947954310513e-03 0.0 
2.947954310513e-03 4.611783904251e-03 0.0 
0.0 0.0 -8.867075537039e-04 
-1.342259935407e-03 2.196586378398e-03 0.0 
2.196586378398e-03 5.267748778168e-03 0.0 
0.0 0.0 -1.342259935407e-03 
-8.685003091139e-04 -2.019621362732e-03 0.0 
-2.019621362732e-03 3.358195832711e-03 0.0 
0.0 0.0 -1.026543027222e-03 
-6.279763244927e-05 -2.831980191268e-03 0.0 
-2.831980191268e-03 2.234263021353e-03 0.0 
0.0 0.0 -9.306280238158e-04 
1.626113199364e-04 3.532469173109e-03 0.0 
3.532469173109e-03 1.975304410449e-03 0.0 
0.0 0.0 -9.162495987365e-04 
9.545056478258e-04 -2.197984859117e-03 0.0 
-2.197984859117e-03 2.830222850846e-04 0.0 
0.0 0.0 -5.303691141045e-04 
2.741947853495e-03 -1.576053757195e-03 0.0 
-1.576053757195e-03 -1.238751484203e-03 0.0 
0.0 0.0 -6.442270154112e-04 
2.055993336022e-04 -3.019147266732e-03 0.0 
-3.019147266732e-03 1.580796400243e-03 0.0 
0.0 0.0 -7.655981716482e-04 
-1.735594457479e-05 3.684409886977e-03 0.0 
3.684409886977e-03 2.338058889169e-03 0.0 
0.0 0.0 -9.525257740877e-04 
-6.815819430518e-04 3.271309776104e-03 0.0 
3.271309776104e-03 3.991806398053e-03 0.0 
0.0 0.0 -9.982497011217e-04 
7.359468455794e-04 1.655488137203e-03 0.0 
1.655488137203e-03 1.311171725172e-03 0.0 
0.0 0.0 -8.773365303219e-04 
4.616179257589e-04 3.326983553877e-03 0.0 
3.326983553877e-03 1.399682897410e-03 0.0 
0.0 0.0 -7.977003527865e-04 
-1.068767707281e-04 -3.106568222755e-03 0.0 
-3.106568222755e-03 2.185893574205e-03 0.0 
0.0 0.0 -8.910072014901e-04 
1.770168940932e-03 2.939268167283e-03 0.0 
2.939268167283e-03 -7.940642901587e-05 0.0 
0.0 0.0 -7.246125051071e-04 
-6.590777518814e-04 -2.312052235482e-03 0.0 
-2.312052235482e-03 2.981136073476e-03 0.0 
0.0 0.0 -9.951678521122e-04 
-9.129757635954e-05 3.002240536259e-03 0.0 
3.002240536259e-03 3.121089298537e-03 0.0 
0.0 0.0 -1.018204129641e-03 
1.890566440799e-03 1.226789186906e-03 0.0 
1.226789186906e-03 -8.288946358717e-04 0.0 
0.0 0.0 -4.550022021117e-04 
-9.478871216341e-04 -2.661712448175e-04 0.0 
-2.661712448175e-04 5.203816778040e-03 0.0 
0.0 0.0 -1.321929620191e-03 
-1.684709762555e-03 1.865268109453e-03 0.0 
1.865268109453e-03 7.458111656375e-03 0.0 
0.0 0.0 -1.174325249119e-03 
4.942655387039e-04 -2.660349188538e-03 0.0 
-2.660349188538e-03 9.600175774831e-04 0.0 
0.0 0.0 -6.232641926516e-04 
-1.341047338368e-03 5.012584263436e-04 0.0 
5.012584263436e-04 4.843287135669e-03 0.0 
0.0 0.0 -1.341047338368e-03 
-5.199572059754e-04 -1.240456273397e-05 0.0 
-1.240456273397e-05 4.514719369705e-03 0.0 
0.0 0.0 -1.266414110344e-03 
1.456677627038e-03 2.847158529750e-03 0.0 
2.847158529750e-03 -1.224358696167e-04 0.0 
0.0 0.0 -5.718178960378e-04 
3.073160228107e-04 -2.142796274570e-03 0.0 
-2.142796274570e-03 8.896681783000e-04 0.0 
0.0 0.0 -5.129932290474e-04 
-1.050487114865e-03 -1.427509562772e-03 0.0 
-1.427509562772e-03 5.540080609798e-03 0.0 
0.0 0.0 -1.323469717371e-03 
-1.667087300368e-03 2.181750680949e-03 0.0 
2.181750680949e-03 7.186411773731e-03 0.0 
0.0 0.0 -1.167157861819e-03 
1.716323073858e-03 -2.955825605783e-03 0.0 
-2.955825605783e-03 -9.287262183540e-05 0.0 
0.0 0.0 -6.957644794382e-04 
-1.341709311524e-03 -8.333733019742e-04 0.0 
-8.333733019742e-04 5.041051645130e-03 0.0 
0.0 0.0 -1.341709311524e-03 
-1.554347035982e-04 -3.091276428888e-03 0.0 
-3.091276428888e-03 2.271745765848e-03 0.0 
0.0 0.0 -9.069904552498e-04 
-8.856300375339e-05 3.015707065978e-03 0.0 
3.015707065978e-03 2.092630915718e-03 0.0 
0.0 0.0 -8.588862479847e-04 
-1.708652242928e-03 2.038029542744e-03 0.0 
2.038029542744e-03 5.155213329433e-03 0.0 
0.0 0.0 -8.408860858065e-04 
2.150251675539e-03 1.246957804337e-03 0.0 
1.246957804337e-03 -9.518176328646e-04 0.0 
0.0 0.0 -5.136145897175e-04 
4.280369650893e-04 -2.993089053083e-03 0.0 
-2.993089053083e-03 1.242185283195e-03 0.0 
0.0 0.0 -7.158095349792e-04 
1.005063584136e-03 -1.534038141676e-03 0.0 
-1.534038141676e-03 4.706218155617e-04 0.0 
0.0 0.0 -6.324365998706e-04 
-1.787330646013e-03 1.744437882435e-03 0.0 
1.744437882435e-03 6.165539261386e-03 0.0 
0.0 0.0 -9.721028620036e-04 
-5.830614128886e-04 2.963568587990e-03 0.0 
2.963568587990e-03 3.036456168777e-03 0.0 
0.0 0.0 -9.703272795031e-04 
5.013338592635e-04 2.022867758426e-03 0.0 
2.022867758426e-03 1.903789761340e-03 0.0 
0.0 0.0 -1.030767265973e-03 
-1.583428582628e-03 1.234393199571e-04 0.0 
1.234393199571e-04 6.348909220080e-03 0.0 
0.0 0.0 -8.839498032872e-04 
-1.538973880155e-04 -2.905891545860e-03 0.0 
-2.905891545860e-03 2.151085361499e-03 0.0 
0.0 0.0 -8.559377029216e-04 
9.606550472545e-04 1.198365472328e-03 0.0 
1.198365472328e-03 7.584169667694e-04 0.0 
0.0 0.0 -7.367451488674e-04 
1.240241290569e-03 -2.615402293113e-03 0.0 
-2.615402293113e-03 9.801779930640e-06 0.0 
0.0 0.0 -5.357327444998e-04 
-1.264139912559e-03 -2.295922563033e-03 0.0 
-2.295922563033e-03 4.258611210865e-03 0.0 
0.0 0.0 -1.003470032316e-03 
4.779492527782e-04 -1.976862769587e-04 0.0 
-1.976862769587e-04 3.079286874380e-05 0.0 
0.0 0.0 -9.731995102935e-05 
1.375001823881e-03 3.007557583602e-03 0.0 
3.007557583602e-03 2.077996425490e-04 0.0 
0.0 0.0 -6.783434856127e-04 
1.686675147585e-03 -2.826451651131e-03 0.0 
-2.826451651131e-03 -3.979102607463e-04 0.0 
0.0 0.0 -5.523278086452e-04 
-6.775751599431e-04 -2.656016194715e-03 0.0 
-2.656016194715e-03 3.173617743200e-03 0.0 
0.0 0.0 -1.041231529553e-03 
9.547448531119e-04 2.912205143476e-03 0.0 
2.912205143476e-03 5.651456179382e-04 0.0 
0.0 0.0 -6.513816304500e-04 
3.545197186364e-05 -2.683422917804e-03 0.0 
-2.683422917804e-03 2.222563700784e-03 0.0 
0.0 0.0 -9.350600278798e-04 
-1.737561363205e-03 5.251994903431e-04 0.0 
5.251994903431e-04 6.205644374021e-03 0.0 
0.0 0.0 -8.962969588583e-04 
1.356254452431e-03 -2.984093401581e-03 0.0 
-2.984093401581e-03 -2.215529665071e-05 0.0 
0.0 0.0 -5.717567810488e-04 
-1.341827844788e-03 -1.146584425421e-03 0.0 
-1.146584425421e-03 5.213236186647e-03 0.0 
0.0 0.0 -1.341827844788e-03 
-1.032358392854e-03 3.358744228303e-03 0.0 
3.358744228303e-03 3.981695232776e-03 0.0 
0.0 0.0 -8.921909746423e-04 
-9.403772787457e-04 -2.333509821859e-03 0.0 
-2.333509821859e-03 3.602948163807e-03 0.0 
0.0 0.0 -1.032584340947e-03 
-7.230784000767e-04 3.517969959091e-03 0.0 
3.517969959091e-03 3.446928309249e-03 0.0 
0.0 0.0 -9.025917034692e-04 
-6.743760556383e-04 -2.567033021564e-03 0.0 
-2.567033021564e-03 3.158224002336e-03 0.0 
0.0 0.0 -1.064506262870e-03 
0.0 0.0 0.0 
0.0 0.0 0.0 
0.0 0.0 0.0 
-1.792312889487e-03 1.741412585942e-03 0.0 
1.741412585942e-03 5.511837739733e-03 0.0 
0.0 0.0 -8.733545218784e-04 
-1.159018419121e-03 -6.757248724201e-04 0.0 
-6.757248724201e-04 3.679422689167e-03 0.0 
0.0 0.0 -9.437415894182e-04 
1.526598219851e-03 -2.022984547481e-04 0.0 
-2.022984547481e-04 -5.806947110268e-04 0.0 
0.0 0.0 -1.518789559795e-04 
-1.008983259281e-03 -2.022851433489e-03 0.0 
-2.022851433489e-03 3.664714944016e-03 0.0 
0.0 0.0 -1.031099917346e-03 
-1.552203916554e-04 -2.266492036209e-03 0.0 
-2.266492036209e-03 2.794636645768e-03 0.0 
0.0 0.0 -1.001254648526e-03 
-1.559997350991e-03 7.763984245468e-04 0.0 
7.763984245468e-04 7.736769108545e-03 0.0 
0.0 0.0 -1.146946825052e-03 
1.304436411006e-03 -1.537118457164e-03 0.0 
-1.537118457164e-03 -1.929375046108e-04 0.0 
0.0 0.0 -4.763566741695e-04 
1.141009119650e-03 -1.409930863555e-03 0.0 
-1.409930863555e-03 1.287642799873e-04 0.0 
0.0 0.0 -5.441885998444e-04 
-1.689284059370e-03 1.450746420627e-03 0.0 
1.450746420627e-03 4.831311448006e-03 0.0 
0.0 0.0 -7.833574767318e-04 
-1.686952509024e-03 5.790488882109e-04 0.0 
5.790488882109e-04 4.855993105087e-03 0.0 
0.0 0.0 -7.312625299844e-04 
-1.435530838734e-03 2.039856500826e-03 0.0 
2.039856500826e-03 7.934174766789e-03 0.0 
0.0 0.0 -1.286111585339e-03 
-3.846383815358e-04 3.631348853507e-03 0.0 
3.631348853507e-03 2.894402056622e-03 0.0 
0.0 0.0 -9.211198782815e-04 
2.563042352686e-03 -3.462434059620e-04 0.0 
-3.462434059620e-04 -8.334153675030e-04 0.0 
0.0 0.0 -9.050770260813e-05 
-2.801224181593e-06 -1.851492159178e-03 0.0 
-1.851492159178e-03 1.218501688618e-03 0.0 
0.0 0.0 -5.210144847585e-04 
8.331805258011e-05 -1.317049816552e-03 0.0 
-1.317049816552e-03 7.003703442878e-04 0.0 
0.0 0.0 -3.358664558005e-04 
1.821034446314e-04 -2.408967732496e-03 0.0 
-2.408967732496e-03 1.233113086777e-03 0.0 
0.0 0.0 -6.065213706036e-04 
-1.138435434649e-03 2.989604430891e-03 0.0 
2.989604430891e-03 5.462421315605e-03 0.0 
0.0 0.0 -1.134523071099e-03 
-1.613429135808e-03 4.247551468927e-04 0.0 
4.247551468927e-04 7.790174225159e-03 0.0 
0.0 0.0 -1.144649651339e-03 
-1.027154245499e-03 -2.035960934847e-03 0.0 
-2.035960934847e-03 4.492443968240e-03 0.0 
0.0 0.0 -1.087427768671e-03 
-2.215897922679e-04 -2.343741531637e-03 0.0 
-2.343741531637e-03 1.937473062545e-03 0.0 
0.0 0.0 -7.353785444044e-04 
-1.224434476437e-03 -2.373415610936e-03 0.0 
-2.373415610936e-03 4.259607832395e-03 0.0 
0.0 0.0 -1.074887456883e-03 
-2.765309671832e-04 -1.235730925308e-03 0.0 
-1.235730925308e-03 3.492398506195e-03 0.0 
0.0 0.0 -1.142106164841e-03 
1.609002123108e-03 9.641353836346e-05 0.0 
9.641353836346e-05 -1.014383706755e-03 0.0 
0.0 0.0 -2.548364641514e-04 
-1.185520630974e-03 -6.216129085547e-04 0.0 
-6.216129085547e-04 3.715832065426e-03 0.0 
0.0 0.0 -9.234434510542e-04 
-9.870309350746e-04 -2.949408640791e-04 0.0 
-2.949408640791e-04 3.127712701104e-03 0.0 
0.0 0.0 -8.176025220169e-04 
-1.158159835053e-03 -1.705545964426e-03 0.0 
-1.705545964426e-03 5.701758529228e-03 0.0 
0.0 0.0 -1.322396863610e-03 
-1.341641872583e-03 -1.478861783549e-03 0.0 
-1.478861783549e-03 5.355371918508e-03 0.0 
0.0 0.0 -1.341641872583e-03 
-1.283076775259e-03 -6.373143896461e-04 0.0 
-6.373143896461e-04 4.006265140635e-03 0.0 
0.0 0.0 -9.869148323457e-04 
-9.252167440016e-04 -2.284187084932e-03 0.0 
-2.284187084932e-03 3.604049524323e-03 0.0 
0.0 0.0 -1.082955583678e-03 
1.424947381447e-04 -3.218131506232e-03 0.0 
-3.218131506232e-03 1.808876759913e-03 0.0 
0.0 0.0 -8.363020705961e-04 
-2.858765317583e-04 -8.912097981478e-04 0.0 
-8.912097981478e-04 3.661087959600e-03 0.0 
0.0 0.0 -1.177278300149e-03 
-1.642185562706e-04 -1.468912040377e-03 0.0 
-1.468912040377e-03 1.269461247680e-03 0.0 
0.0 0.0 -4.736754391754e-04 
-2.865195494759e-04 -1.594101584254e-03 0.0 
-1.594101584254e-03 3.398007437901e-03 0.0 
0.0 0.0 -1.104707344597e-03 
9.194713961983e-04 -6.793234433339e-04 0.0 
-6.793234433339e-04 6.261768049846e-04 0.0 
0.0 0.0 -3.206774383567e-04 
-7.790564292393e-04 -2.283470906283e-03 0.0 
-2.283470906283e-03 3.292851518803e-03 0.0 
0.0 0.0 -1.077340752670e-03 
-5.608514076299e-04 -2.798496030794e-03 0.0 
-2.798496030794e-03 2.999147072071e-03 0.0 
0.0 0.0 -1.044983856189e-03 
1.138912068891e-03 -3.473598627530e-04 0.0 
-3.473598627530e-04 -1.413469007123e-04 0.0 
0.0 0.0 -2.684313900889e-04 
-1.253955737825e-03 -3.715260469387e-04 0.0 
-3.715260469387e-04 3.888476539148e-03 0.0 
0.0 0.0 -9.536442305595e-04 
-1.602308644549e-03 2.138646014206e-03 0.0 
2.138646014206e-03 7.398169050205e-03 0.0 
0.0 0.0 -1.176862138969e-03 
2.761299412783e-03 -2.184006917307e-04 0.0 
-2.184006917307e-04 -8.957163604378e-04 0.0 
0.0 0.0 -9.160000506328e-05 
-1.698158774402e-03 7.543543168281e-04 0.0 
7.543543168281e-04 4.798515189366e-03 0.0 
0.0 0.0 -7.322753781719e-04 
-1.694678419912e-03 8.983255451051e-04 0.0 
8.983255451051e-04 4.996965617242e-03 0.0 
0.0 0.0 -7.130472889423e-04 
9.905782610910e-04 -8.253624912090e-04 0.0 
-8.253624912090e-04 7.976802919735e-04 0.0 
0.0 0.0 -7.663965227419e-04 
-1.039035016572e-03 -2.144348817903e-04 0.0 
-2.144348817903e-04 3.210973696896e-03 0.0 
0.0 0.0 -7.829545016062e-04 
1.212299874062e-03 -2.903037830351e-03 0.0 
-2.903037830351e-03 2.395213764874e-04 0.0 
0.0 0.0 -6.222091073784e-04 
1.174115903652e-03 2.662474741674e-03 0.0 
2.662474741674e-03 2.969730930284e-04 0.0 
0.0 0.0 -6.304667128631e-04 
-1.289472189001e-03 -1.746360051319e-03 0.0 
-1.746360051319e-03 5.399223758463e-03 0.0 
0.0 0.0 -1.180895453064e-03 
-1.199251439186e-03 3.128969763373e-03 0.0 
3.128969763373e-03 5.740281679720e-03 0.0 
0.0 0.0 -1.286194385238e-03 
-1.685234284086e-03 7.030718583631e-04 0.0 
7.030718583631e-04 7.477737434154e-03 0.0 
0.0 0.0 -1.101088927253e-03 
5.511702260285e-04 2.711119680311e-03 0.0 
2.711119680311e-03 9.222763951361e-04 0.0 
0.0 0.0 -6.314771233563e-04 
-3.649363196541e-05 -1.210836942261e-03 0.0 
-1.210836942261e-03 8.486569891216e-04 0.0 
0.0 0.0 -3.480700102098e-04 
-1.004741383637e-03 2.553626350246e-03 0.0 
2.553626350246e-03 3.669626505377e-03 0.0 
0.0 0.0 -8.905302458185e-04 
-1.568290103670e-03 2.798930321494e-04 0.0 
2.798930321494e-04 4.936656992355e-03 0.0 
0.0 0.0 -7.345111139194e-04 
-1.542599483069e-03 2.307996019665e-04 0.0 
2.307996019665e-04 5.186209951631e-03 0.0 
0.0 0.0 -7.144802219086e-04 
1.697260921232e-03 -1.822504204338e-04 0.0 
-1.822504204338e-04 -6.526688675189e-04 0.0 
0.0 0.0 -1.584708362264e-04 
9.885439547911e-04 -4.650217645265e-04 0.0 
-4.650217645265e-04 -7.811083121430e-05 0.0 
0.0 0.0 -2.719350994485e-04 
3.764836072069e-04 -3.171144431772e-04 0.0 
-3.171144431772e-04 5.254813268562e-04 0.0 
0.0 0.0 -2.992029258896e-04 
-3.222613347251e-04 -1.717475984859e-03 0.0 
-1.717475984859e-03 1.786840537745e-03 0.0 
0.0 0.0 -6.276768012942e-04 
1.995445303676e-03 -3.544912217161e-04 0.0 
-3.544912217161e-04 -1.783707534186e-04 0.0 
0.0 0.0 -2.505695937184e-04 
-1.385796394707e-03 -3.802460944882e-04 0.0 
-3.802460944882e-04 4.246303149623e-03 0.0 
0.0 0.0 -1.004230634435e-03 
0.0 0.0 0.0 
0.0 0.0 0.0 
0.0 0.0 0.0 
-3.537348662354e-04 -2.028219451660e-03 0.0 
-2.028219451660e-03 2.045322960423e-03 0.0 
0.0 0.0 -7.249663260806e-04 
-1.566153664312e-03 2.377992970035e-04 0.0 
2.377992970035e-04 6.488131571459e-03 0.0 
0.0 0.0 -9.582560723523e-04 
-1.634454558496e-03 5.707793053276e-04 0.0 
5.707793053276e-04 5.108535752511e-03 0.0 
0.0 0.0 -7.120344407548e-04 
-1.255391157734e-03 2.956292385131e-03 0.0 
2.956292385131e-03 5.913112370001e-03 0.0 
0.0 0.0 -1.169483110168e-03 
-3.211066572615e-04 -2.624140315591e-03 0.0 
-2.624140315591e-03 2.858415319154e-03 0.0 
0.0 0.0 -9.641449249716e-04 
-1.553469395463e-03 1.980732768992e-04 0.0 
1.980732768992e-04 6.108450087988e-03 0.0 
0.0 0.0 -8.988447104697e-04 
-1.086829048493e-03 -4.298554506639e-05 0.0 
-4.298554506639e-05 3.376551179836e-03 0.0 
0.0 0.0 -8.404787427002e-04 
1.157325761144e-03 -4.144839602351e-04 0.0 
-4.144839602351e-04 5.556060787113e-04 0.0 
0.0 0.0 -3.489577299251e-04 
-1.340974968048e-03 1.141125960794e-03 0.0 
1.141125960794e-03 8.560634098268e-03 0.0 
0.0 0.0 -1.340974968048e-03 
-1.479514720207e-03 1.290754629394e-03 0.0 
1.290754629394e-03 8.817356864728e-03 0.0 
0.0 0.0 -1.320295381545e-03 
-1.658748233041e-03 8.637494445187e-04 0.0 
8.637494445187e-04 5.855760830743e-03 0.0 
0.0 0.0 -8.588387843224e-04 
-1.626246500550e-03 3.507062076516e-04 0.0 
3.507062076516e-04 4.917310602464e-03 0.0 
0.0 0.0 -7.326073368542e-04 
-1.101733211462e-03 -4.903419461906e-04 0.0 
-4.903419461906e-04 3.425201513199e-03 0.0 
0.0 0.0 -8.368382630048e-04 
-1.457935752510e-03 9.072104527732e-04 0.0 
9.072104527732e-04 8.880607743519e-03 0.0 
0.0 0.0 -1.322576402756e-03 
-2.087604691238e-04 -2.081308369903e-03 0.0 
-2.081308369903e-03 1.746392936312e-03 0.0 
0.0 0.0 -6.589853430805e-04 
-1.662826015092e-03 7.083533780780e-04 0.0 
7.083533780780e-04 5.042251775661e-03 0.0 
0.0 0.0 -7.125614225629e-04 
-1.628165374516e-03 4.707510309731e-04 0.0 
4.707510309731e-04 4.889560536843e-03 0.0 
0.0 0.0 -7.312775522649e-04 
-1.109436790681e-03 2.207974280543e-03 0.0 
2.207974280543e-03 3.753226225228e-03 0.0 
0.0 0.0 -8.460010047089e-04 
-1.341823989366e-03 2.274932854254e-03 0.0 
2.274932854254e-03 8.137856468635e-03 0.0 
0.0 0.0 -1.341823989366e-03 
-1.447499776368e-03 1.123885033130e-03 0.0 
1.123885033130e-03 8.849685221172e-03 0.0 
0.0 0.0 -1.322582685247e-03 
1.858413942134e-03 -4.468674671497e-04 0.0 
-4.468674671497e-04 -1.442261551490e-04 0.0 
0.0 0.0 -2.523401230232e-04 
1.933225188622e-03 -1.733881547272e-04 0.0 
-1.733881547272e-04 -7.561870514403e-04 0.0 
0.0 0.0 -1.563839533901e-04 
-1.406822219416e-04 -1.124602410666e-03 0.0 
-1.124602410666e-03 1.005262349108e-03 0.0 
0.0 0.0 -3.705343402142e-04 
-5.636260726475e-04 -2.890778252910e-03 0.0 
-2.890778252910e-03 3.024028366260e-03 0.0 
0.0 0.0 -1.029090130247e-03 
-1.836231348186e-03 -1.061046282737e-04 0.0 
-1.061046282737e-04 6.851957631603e-03 0.0 
0.0 0.0 -1.224669017856e-03 
0.0 0.0 0.0 
0.0 0.0 0.0 
0.0 0.0 0.0 
-1.578428037932e-03 -1.076945805976e-04 0.0 
-1.076945805976e-04 7.488341038297e-03 0.0 
0.0 0.0 -1.092518628634e-03 
-1.550925910831e-05 -1.170234142814e-04 0.0 
-1.170234142814e-04 1.067621659097e-04 0.0 
0.0 0.0 -3.910838862915e-05 
8.665365973905e-04 -1.142786771002e-03 0.0 
-1.142786771002e-03 9.419164366956e-04 0.0 
0.0 0.0 -7.750513003226e-04 
2.093383490481e-04 -3.500473738276e-04 0.0 
-3.500473738276e-04 8.081195732961e-06 0.0 
0.0 0.0 -9.317980490616e-05 
0.0 0.0 0.0 
0.0 0.0 0.0 
0.0 0.0 0.0 
8.379829542950e-04 -1.828387007204e-03 0.0 
-1.828387007204e-03 8.061078686980e-04 0.0 
0.0 0.0 -7.046103527113e-04 
-1.789860880868e-03 -9.343042948716e-04 0.0 
-9.343042948716e-04 6.450275194502e-03 0.0 
0.0 0.0 -1.192963836147e-03 
-1.590104708056e-03 6.107842018535e-05 0.0 
6.107842018535e-05 6.703688956183e-03 0.0 
0.0 0.0 -9.361271490834e-04 
-8.759783829009e-04 2.898559650342e-03 0.0 
2.898559650342e-03 3.532916901786e-03 0.0 
0.0 0.0 -9.106555839008e-04 
1.248462822196e-03 -2.813829483536e-04 0.0 
-2.813829483536e-04 -1.929931588244e-04 0.0 
0.0 0.0 -2.625419092021e-04 
-1.459678414727e-03 -2.058426133646e-03 0.0 
-2.058426133646e-03 4.704925736718e-03 0.0 
0.0 0.0 -1.075952622059e-03 
-1.337797817327e-03 3.504757910850e-04 0.0 
3.504757910850e-04 8.685617780919e-03 0.0 
0.0 0.0 -1.337797817327e-03 
-1.451734133111e-03 3.024014936646e-04 0.0 
3.024014936646e-04 8.945645325804e-03 0.0 
0.0 0.0 -1.322354755130e-03 
-1.599337559302e-03 4.517969448523e-04 0.0 
4.517969448523e-04 5.137060814106e-03 0.0 
0.0 0.0 -7.125764448434e-04 
8.243811469618e-04 -5.070143029738e-04 0.0 
-5.070143029738e-04 1.170642242664e-03 0.0 
0.0 0.0 -8.550100241253e-04 
-1.341607717199e-03 9.922961128721e-04 0.0 
9.922961128721e-04 8.617013640237e-03 0.0 
0.0 0.0 -1.341607717199e-03 
1.651597580356e-05 2.683416658655e-03 0.0 
2.683416658655e-03 3.024822145470e-03 0.0 
0.0 0.0 -1.046710270629e-03 
1.210451057929e-03 -1.943692124057e-04 0.0 
-1.943692124057e-04 4.706046126820e-04 0.0 
0.0 0.0 -3.531810144492e-04 
2.099767295814e-03 -2.484083841165e-04 0.0 
-2.484083841165e-04 -2.289154150212e-04 0.0 
0.0 0.0 -2.475227046456e-04 
1.335233375907e-03 -9.196830328825e-05 0.0 
-9.196830328825e-05 -2.038367509550e-04 0.0 
0.0 0.0 -2.481890828467e-04 
-1.206645058523e-03 -4.413417753443e-05 0.0 
-4.413417753443e-05 3.734312456454e-03 0.0 
0.0 0.0 -9.186759157619e-04 
-1.554661254855e-03 -1.173104092863e-03 0.0 
-1.173104092863e-03 7.206653129246e-03 0.0 
0.0 0.0 -1.322828574513e-03 
-1.468378470940e-03 -2.055954314762e-04 0.0 
-2.055954314762e-04 8.477100898234e-03 0.0 
0.0 0.0 -1.258329778789e-03 
2.187416576026e-03 -1.653808446854e-04 0.0 
-1.653808446854e-04 -8.676741714944e-04 0.0 
0.0 0.0 -1.587067154099e-04 
-1.371588137901e-03 -3.169762198632e-04 0.0 
-3.169762198632e-04 4.214800910036e-03 0.0 
0.0 0.0 -1.008438243783e-03 
-1.344798314370e-03 -8.279531255943e-04 0.0 
-8.279531255943e-04 7.026886665436e-03 0.0 
0.0 0.0 -1.344798314369e-03 
-1.564884777426e-03 -1.287545985866e-03 0.0 
-1.287545985866e-03 7.147060172158e-03 0.0 
0.0 0.0 -1.318785251170e-03 
-1.158469832793e-03 -1.923166980148e-03 0.0 
-1.923166980148e-03 5.883371209853e-03 0.0 
0.0 0.0 -1.321151187552e-03 
-1.585912391543e-03 2.691560132111e-04 0.0 
2.691560132111e-04 7.090908885405e-03 0.0 
0.0 0.0 -1.027148381742e-03 
-1.555187588006e-03 -1.971572702211e-04 0.0 
-1.971572702211e-04 7.705246922455e-03 0.0 
0.0 0.0 -1.125709525796e-03 
-1.338030260144e-03 -1.094386398329e-03 0.0 
-1.094386398329e-03 6.909148412757e-03 0.0 
0.0 0.0 -1.338030260144e-03 
-1.340754991027e-03 -1.372687681983e-03 0.0 
-1.372687681983e-03 6.806607219922e-03 0.0 
0.0 0.0 -1.340754991027e-03 
-1.561602649575e-03 2.480043620058e-04 0.0 
2.480043620058e-04 7.494608831512e-03 0.0 
0.0 0.0 -1.092518628634e-03 
3.307271248664e-03 4.314548185695e-05 0.0 
4.314548185695e-05 -1.214475185733e-03 0.0 
0.0 0.0 -8.755379438333e-05 
-1.478032168390e-03 1.489804673206e-04 0.0 
1.489804673206e-04 5.167022187345e-03 0.0 
0.0 0.0 -7.139539158865e-04 
-1.574977551316e-03 3.717997235828e-04 0.0 
3.717997235828e-04 5.188881553203e-03 0.0 
0.0 0.0 -7.133642253441e-04 
2.078295521971e-03 -1.511499007421e-04 0.0 
-1.511499007421e-04 -8.199563945998e-04 0.0 
0.0 0.0 -1.576675707606e-04 
-1.342313591240e-03 -1.872687525586e-03 0.0 
-1.872687525586e-03 6.355359522584e-03 0.0 
0.0 0.0 -1.342313591240e-03 
-1.269922737054e-03 -2.029167704155e-03 0.0 
-2.029167704155e-03 6.094262192879e-03 0.0 
0.0 0.0 -1.318355947622e-03 
-1.337959751097e-03 -1.908784167046e-03 0.0 
-1.908784167046e-03 5.900685640896e-03 0.0 
0.0 0.0 -1.337959751097e-03 
3.106621107953e-03 -1.497773368645e-04 0.0 
-1.497773368645e-04 -1.029211139497e-03 0.0 
0.0 0.0 -9.540963664560e-05 
2.941822019467e-03 -1.767432348869e-04 0.0 
-1.767432348869e-04 -9.568393427299e-04 0.0 
0.0 0.0 -9.747405510327e-05 
-1.340754991027e-03 -1.672627381109e-03 0.0 
-1.672627381109e-03 5.518495974516e-03 0.0 
0.0 0.0 -1.340754991027e-03 
-1.340396196526e-03 -1.852966983193e-03 0.0 
-1.852966983193e-03 5.697134399037e-03 0.0 
0.0 0.0 -1.340396196526e-03 
-1.600296610560e-03 -2.152006829150e-04 0.0 
-2.152006829150e-04 6.887323541576e-03 0.0 
0.0 0.0 -9.936726122374e-04 
-1.422222177314e-03 8.859389962602e-05 0.0 
8.859389962602e-05 5.179295465595e-03 0.0 
0.0 0.0 -7.124851972278e-04 
-1.571159218797e-03 -2.082021183410e-04 0.0 
-2.082021183410e-04 7.291178693471e-03 0.0 
0.0 0.0 -1.060142436171e-03 
-1.552782223510e-03 -2.129194587244e-04 0.0 
-2.129194587244e-04 6.002253842572e-03 0.0 
0.0 0.0 -8.626607521900e-04 
-1.382122713210e-03 3.570213775188e-05 0.0 
3.570213775188e-05 5.182667103943e-03 0.0 
0.0 0.0 -7.121912678902e-04 
2.259827960221e-03 -3.791885520061e-04 0.0 
-3.791885520061e-04 -6.773411335669e-04 0.0 
0.0 0.0 -9.442328267794e-05 
1.489465085535e-03 -3.873061726619e-04 0.0 
-3.873061726619e-04 -3.302723319640e-04 0.0 
0.0 0.0 -4.591167563965e-05 
1.195706273835e-03 -4.439423179226e-04 0.0 
-4.439423179226e-04 -2.457069974477e-04 0.0 
0.0 0.0 -4.589015575604e-05 
7.928883186884e-04 -4.308369996379e-04 0.0 
-4.308369996379e-04 -1.962835067220e-05 0.0 
0.0 0.0 -4.556578909549e-05 
-1.455576565641e-03 5.369324781880e-06 0.0 
5.369324781880e-06 4.421569252006e-03 0.0 
0.0 0.0 -1.025222297049e-03 
-1.326853145310e-03 -3.193870868211e-05 0.0 
-3.193870868211e-05 4.074529080795e-03 0.0 
0.0 0.0 -9.784754570978e-04 
3.643447720584e-04 -2.807478551813e-04 0.0 
-2.807478551813e-04 -8.302826669459e-05 0.0 
0.0 0.0 -1.159392125903e-04 
-1.882114812679e-03 5.257899597366e-05 0.0 
5.257899597366e-05 5.463849854237e-03 0.0 
0.0 0.0 -1.072123180932e-03 
1.624781745822e-04 -2.648253394118e-04 0.0 
-2.648253394118e-04 3.767456551544e-06 0.0 
0.0 0.0 -7.124812762874e-05 
-1.341471640605e-03 1.902532918980e-03 0.0 
1.902532918980e-03 8.304452194875e-03 0.0 
0.0 0.0 -1.341471640605e-03 
-1.340968685557e-03 8.342263842268e-04 0.0 
8.342263842268e-04 8.620360450522e-03 0.0 
0.0 0.0 -1.340968685557e-03 
-1.339320413496e-03 1.336323062728e-03 0.0 
1.336323062728e-03 8.515855351859e-03 0.0 
0.0 0.0 -1.339320413496e-03 
-5.175251243654e-04 1.147272255642e-05 0.0 
1.147272255642e-05 1.550881351190e-03 0.0 
0.0 0.0 -2.599136149544e-04 
-9.633323041400e-04 -3.549644401783e-05 0.0 
-3.549644401783e-05 2.981977788141e-03 0.0 
0.0 0.0 -7.340959586659e-04 
-1.337132911908e-03 6.510662741128e-04 0.0 
6.510662741128e-04 8.656607653519e-03 0.0 
0.0 0.0 -1.337132911908e-03 
-2.083032595708e-03 9.922266011855e-05 0.0 
9.922266011855e-05 6.472696883650e-03 0.0 
0.0 0.0 -1.124956933753e-03 
-1.344556937803e-03 5.003882733929e-04 0.0 
5.003882733929e-04 8.710429521741e-03 0.0 
0.0 0.0 -1.344556937803e-03 
-1.932677962729e-03 1.288201926386e-04 0.0 
1.288201926386e-04 6.746175248938e-03 0.0 
0.0 0.0 -1.192538251246e-03 
-1.740079752366e-03 1.547682996820e-04 0.0 
1.547682996820e-04 7.002368902305e-03 0.0 
0.0 0.0 -1.259905836238e-03 
-1.256318881540e-03 -3.058147318078e-04 0.0 
-3.058147318078e-04 3.889569585195e-03 0.0 
0.0 0.0 -9.521061186879e-04 
-1.479483252636e-03 7.231400883548e-04 0.0 
7.231400883548e-04 8.931379513718e-03 0.0 
0.0 0.0 -1.318101597465e-03 
-1.454407492241e-03 7.329644933787e-04 0.0 
7.329644933787e-04 8.932547234701e-03 0.0 
0.0 0.0 -1.321689849711e-03 
-1.996720130669e-03 -4.240856891719e-04 0.0 
-4.240856891719e-04 6.546271744836e-03 0.0 
0.0 0.0 -1.157495185000e-03 
-1.833092771074e-03 -4.338479580684e-04 0.0 
-4.338479580684e-04 6.845712330688e-03 0.0 
0.0 0.0 -1.225777420818e-03 
-1.841879665554e-03 -1.392809369192e-03 0.0 
-1.392809369192e-03 5.462425115064e-03 0.0 
0.0 0.0 -1.076967794221e-03 
0.0 0.0 0.0 
0.0 0.0 0.0 
0.0 0.0 0.0 
-8.795889895974e-04 -1.952925740306e-03 0.0 
-1.952925740306e-03 3.376145193665e-03 0.0 
0.0 0.0 -1.039304039601e-03 
1.660434101197e-03 -6.141622579472e-04 0.0 
-6.141622579472e-04 -6.719522836332e-05 0.0 
0.0 0.0 -2.442944474907e-04 
-1.378694188408e-03 -2.097012646119e-03 0.0 
-2.097012646119e-03 5.460269496084e-03 0.0 
0.0 0.0 -1.177819030284e-03 
-7.813950936845e-04 -2.358745935075e-03 0.0 
-2.358745935075e-03 3.287112188259e-03 0.0 
0.0 0.0 -1.040987640873e-03 
-1.809630590335e-03 -1.291578548695e-03 0.0 
-1.291578548695e-03 5.821414157847e-03 0.0 
0.0 0.0 -1.099016898379e-03 
-2.060296257065e-04 -1.796631504213e-03 0.0 
-1.796631504213e-03 1.564117229874e-03 0.0 
0.0 0.0 -5.820375446434e-04 
4.475341314438e-05 -9.010547106959e-04 0.0 
-9.010547106959e-04 6.723802247933e-04 0.0 
0.0 0.0 -2.733874678612e-04 
-1.819661686397e-03 -1.463949205523e-03 0.0 
-1.463949205523e-03 6.215728401457e-03 0.0 
0.0 0.0 -1.161668299909e-03 
-1.009350816753e-03 -1.981157607315e-03 0.0 
-1.981157607315e-03 3.679610224835e-03 0.0 
0.0 0.0 -1.056886766371e-03 
-1.124597673924e-03 -3.416283390981e-04 0.0 
-3.416283390981e-04 3.530274889455e-03 0.0 
0.0 0.0 -8.978673291013e-04 
-1.908614693689e-03 -1.553426855284e-03 0.0 
-1.553426855284e-03 5.883638228136e-03 0.0 
0.0 0.0 -1.096102707776e-03 
-1.506564574904e-03 4.784902240182e-04 0.0 
4.784902240182e-04 7.990398295391e-03 0.0 
0.0 0.0 -1.188907866872e-03 
-1.145966443117e-03 -2.688887835076e-04 0.0 
-2.688887835076e-04 3.559257817850e-03 0.0 
0.0 0.0 -8.802182425544e-04 
-2.343808151550e-04 -2.448482601409e-03 0.0 
-2.448482601409e-03 2.867036480139e-03 0.0 
0.0 0.0 -1.035646790376e-03 
-9.500506080825e-04 -2.724089328098e-03 0.0 
-2.724089328098e-03 3.674446532369e-03 0.0 
0.0 0.0 -9.625389225288e-04 
-1.856114660532e-03 -1.247587492440e-03 0.0 
-1.247587492440e-03 5.444374226428e-03 0.0 
0.0 0.0 -1.042884296030e-03 
-2.003615679542e-03 -9.107189773551e-04 0.0 
-9.107189773551e-04 5.760788445208e-03 0.0 
0.0 0.0 -1.050199500156e-03 
3.015162384708e-03 1.478491521065e-03 0.0 
1.478491521065e-03 -1.420788746949e-03 0.0 
0.0 0.0 -6.833029876111e-04 
-7.703338813803e-04 2.711642704622e-03 0.0 
2.711642704622e-03 3.268676482316e-03 0.0 
0.0 0.0 -9.206815977879e-04 
8.952220710028e-04 3.337500451005e-03 0.0 
3.337500451005e-03 9.018971507738e-04 0.0 
0.0 0.0 -7.701939521900e-04 
-1.492273682533e-03 -1.948749897048e-03 0.0 
-1.948749897048e-03 4.700056634630e-03 0.0 
0.0 0.0 -1.018483763552e-03 
-1.953152701418e-03 -1.266064436280e-03 0.0 
-1.266064436280e-03 6.190905664489e-03 0.0 
0.0 0.0 -1.125100902632e-03 
-2.130434678919e-03 -5.674193057818e-04 0.0 
-5.674193057818e-04 6.039060582820e-03 0.0 
0.0 0.0 -1.053755873404e-03 
1.981272582958e-04 -2.339075750409e-03 0.0 
-2.339075750409e-03 1.164667172993e-03 0.0 
0.0 0.0 -5.840547562666e-04 
-1.516698384373e-03 7.243684231909e-04 0.0 
7.243684231909e-04 7.963201592157e-03 0.0 
0.0 0.0 -1.183514100502e-03 
-1.571889609711e-03 6.492262438020e-04 0.0 
6.492262438020e-04 7.577660240319e-03 0.0 
0.0 0.0 -1.117084069417e-03 
-1.526943038589e-03 4.067391407097e-04 0.0 
4.067391407097e-04 5.686565415721e-03 0.0 
0.0 0.0 -8.110481619253e-04 
-1.474195239190e-03 -2.107699134124e-03 0.0 
-2.107699134124e-03 4.674985602820e-03 0.0 
0.0 0.0 -1.001070066037e-03 
-1.687869148980e-03 -1.597447162641e-03 0.0 
-1.597447162641e-03 5.094192157887e-03 0.0 
0.0 0.0 -1.032102790996e-03 
-1.559878786953e-03 1.186239496982e-04 0.0 
1.186239496982e-04 8.091883647163e-03 0.0 
0.0 0.0 -1.185362187646e-03 
-1.553576411269e-03 5.639076835034e-04 0.0 
5.639076835034e-04 7.828849217298e-03 0.0 
0.0 0.0 -1.150972777267e-03 
-5.736846005059e-04 -3.010470759541e-03 0.0 
-3.010470759541e-03 3.112745496219e-03 0.0 
0.0 0.0 -1.058777908313e-03 
-1.827264969184e-03 -1.207689843267e-03 0.0 
-1.207689843267e-03 6.491929530035e-03 0.0 
0.0 0.0 -1.190872049285e-03 
-1.617401302618e-03 1.036699389917e-03 0.0 
1.036699389917e-03 7.425262889637e-03 0.0 
0.0 0.0 -1.103416240745e-03 
-2.113993614968e-03 -7.222808743220e-04 0.0 
-7.222808743220e-04 6.023476369147e-03 0.0 
0.0 0.0 -1.069496670503e-03 
-1.471914821471e-03 -1.998353424490e-03 0.0 
-1.998353424490e-03 5.883536090439e-03 0.0 
0.0 0.0 -1.210017230578e-03 
-1.575272729869e-03 3.494544289054e-04 0.0 
3.494544289054e-04 8.019533452472e-03 0.0 
0.0 0.0 -1.181737430652e-03 
-1.652502708926e-03 2.520535947120e-04 0.0 
2.520535947120e-04 7.001595806507e-03 0.0 
0.0 0.0 -1.011817915138e-03 
-3.838894113269e-04 -2.804191833148e-03 0.0 
-2.804191833148e-03 2.874279057775e-03 0.0 
0.0 0.0 -9.985655989919e-04 
-6.304965187655e-04 -7.604202958905e-04 0.0 
-7.604202958905e-04 2.203620271365e-03 0.0 
0.0 0.0 -6.656342390725e-04 
4.047615641515e-04 -2.474054827037e-03 0.0 
-2.474054827037e-03 9.613198754716e-04 0.0 
0.0 0.0 -5.854634741242e-04 
2.836227978939e-05 -1.580599960261e-03 0.0 
-1.580599960261e-03 9.832792497712e-04 0.0 
0.0 0.0 -4.149592254337e-04 
1.034548557929e-04 -1.227500156599e-03 0.0 
-1.227500156599e-03 6.126727267546e-04 0.0 
0.0 0.0 -3.069118210918e-04 
-1.577352812428e-03 2.114313367924e-04 0.0 
2.114313367924e-04 7.845695102100e-03 0.0 
0.0 0.0 -1.150998037120e-03 
-1.900941556448e-03 -7.041406832224e-04 0.0 
-7.041406832224e-04 6.386638876857e-03 0.0 
0.0 0.0 -1.156839719840e-03 
6.843292428348e-05 -1.144232504345e-03 0.0 
-1.144232504345e-03 6.143886100226e-04 0.0 
0.0 0.0 -2.926378004169e-04 
-1.601987702258e-03 2.442990824200e-03 0.0 
2.442990824200e-03 6.852419756780e-03 0.0 
0.0 0.0 -1.160298666437e-03 
-1.543111448516e-03 4.596328783708e-04 0.0 
4.596328783708e-04 5.853297686999e-03 0.0 
0.0 0.0 -8.436798659344e-04 
-1.824750470194e-03 -1.859013687658e-03 0.0 
-1.859013687658e-03 5.532595994557e-03 0.0 
0.0 0.0 -1.067477449466e-03 
-2.006499161308e-03 -7.976010001953e-04 0.0 
-7.976010001953e-04 6.083504909474e-03 0.0 
0.0 0.0 -1.090430023688e-03 
7.833829666557e-04 -2.711290744461e-03 0.0 
-2.711290744461e-03 6.776524641225e-04 0.0 
0.0 0.0 -6.261580417621e-04 
-2.076799610215e-03 -1.031710463461e-03 0.0 
-1.031710463461e-03 6.135351760274e-03 0.0 
0.0 0.0 -1.087955833448e-03 
-1.557514890525e-03 -6.173462151110e-05 0.0 
-6.173462151110e-05 5.695796094032e-03 0.0 
0.0 0.0 -8.100176300978e-04 
8.750615862245e-04 9.176848780839e-04 0.0 
9.176848780839e-04 1.438408062181e-03 0.0 
0.0 0.0 -9.914869921737e-04 
-1.497791782641e-03 -1.444847597853e-03 0.0 
-1.444847597853e-03 6.204442023908e-03 0.0 
0.0 0.0 -1.242964905849e-03 
-6.875629852487e-04 -4.240155203853e-04 0.0 
-4.240155203853e-04 2.190912803371e-03 0.0 
0.0 0.0 -5.658909553065e-04 
-1.268098618658e-03 -2.126035490962e-03 0.0 
-2.126035490962e-03 5.495926708526e-03 0.0 
0.0 0.0 -1.215045542354e-03 
-1.631557581403e-03 2.235766335083e-04 0.0 
2.235766335083e-04 7.237605270102e-03 0.0 
0.0 0.0 -1.048288725887e-03 
-7.383595785151e-04 -6.377031037024e-04 0.0 
-6.377031037024e-04 2.446869421887e-03 0.0 
0.0 0.0 -6.818911139857e-04 
3.993077738021e-04 -2.419206884214e-03 0.0 
-2.419206884214e-03 9.348823657586e-04 0.0 
0.0 0.0 -5.717957740974e-04 
-1.500476059484e-03 -8.906484908892e-04 0.0 
-8.906484908892e-04 4.589149281530e-03 0.0 
0.0 0.0 -1.044847128380e-03 
-1.630418366467e-03 6.661053165545e-04 0.0 
6.661053165545e-04 6.481746764143e-03 0.0 
0.0 0.0 -9.409807611877e-04 
-5.756498552716e-04 -2.159817615522e-03 0.0 
-2.159817615522e-03 2.678873720584e-03 0.0 
0.0 0.0 -9.013816565627e-04 
-1.610525300296e-03 1.600914995101e-04 0.0 
1.600914995101e-04 7.460282061065e-03 0.0 
0.0 0.0 -1.085119818393e-03 
-1.626505474320e-03 1.193898643633e-04 0.0 
1.193898643633e-04 6.796479922044e-03 0.0 
0.0 0.0 -9.816794289629e-04 
-1.168002604940e-03 -1.979309092588e-03 0.0 
-1.979309092588e-03 4.001814082530e-03 0.0 
0.0 0.0 -1.032510638845e-03 
-1.993224441762e-03 -1.056137829821e-03 0.0 
-1.056137829821e-03 5.774090597717e-03 0.0 
0.0 0.0 -1.075584385303e-03 
-2.021709392423e-03 -1.349459280440e-03 0.0 
-1.349459280440e-03 5.860171390496e-03 0.0 
0.0 0.0 -1.066391945090e-03 
-1.595291763312e-03 5.874023300959e-04 0.0 
5.874023300959e-04 7.178060268656e-03 0.0 
0.0 0.0 -1.050681058959e-03 
-5.082515002275e-04 -8.941420093747e-04 0.0 
-8.941420093747e-04 1.798316205834e-03 0.0 
0.0 0.0 -5.009000172756e-04 
-1.206852124203e-03 -1.671075112969e-03 0.0 
-1.671075112969e-03 4.019505130445e-03 0.0 
0.0 0.0 -1.029746919386e-03 
-5.152753143587e-05 2.170825683475e-03 0.0 
2.170825683475e-03 3.140726951459e-03 0.0 
0.0 0.0 -1.141128458404e-03 
-1.641668485544e-03 3.431501301840e-04 0.0 
3.431501301840e-04 7.404941610079e-03 0.0 
0.0 0.0 -1.078198857115e-03 
-1.057951637287e-03 -1.671343146736e-03 0.0 
-1.671343146736e-03 3.677031607098e-03 0.0 
0.0 0.0 -1.017599913258e-03 
-8.954401304147e-04 -2.800206404235e-03 0.0 
-2.800206404235e-03 3.674164100142e-03 0.0 
0.0 0.0 -1.058318663232e-03 
-1.115312546428e-03 -2.189534952593e-03 0.0 
-2.189534952593e-03 5.045014028914e-03 0.0 
0.0 0.0 -1.187586327529e-03 
-1.596801678993e-03 6.045917028781e-04 0.0 
6.045917028781e-04 6.950727632054e-03 0.0 
0.0 0.0 -1.013969106439e-03 
2.322873706387e-04 -1.368679716301e-04 0.0 
-1.368679716301e-04 -2.322873706387e-04 0.0 
0.0 0.0 0.0 
4.726741315202e-05 -1.330898926681e-03 0.0 
-1.330898926681e-03 8.674614564573e-04 0.0 
0.0 0.0 -2.916872467244e-04 
2.273358372470e-03 1.445761220817e-05 0.0 
1.445761220817e-05 -1.234043607805e-03 0.0 
0.0 0.0 -4.454206134279e-04 
-1.880676767284e-03 -9.969975945957e-04 0.0 
-9.969975945957e-04 6.131847364448e-03 0.0 
0.0 0.0 -1.127837695838e-03 
-1.619604464873e-03 6.374782176385e-04 0.0 
6.374782176385e-04 6.719807393941e-03 0.0 
0.0 0.0 -9.775003154318e-04 
-1.665473239862e-03 -8.814240019008e-04 0.0 
-8.814240019008e-04 4.990171794499e-03 0.0 
0.0 0.0 -1.065326950858e-03 
-1.596762474986e-03 5.442334346395e-04 0.0 
5.442334346395e-04 6.065464133813e-03 0.0 
0.0 0.0 -8.745614812816e-04 
-3.748877525410e-04 -1.800985621523e-03 0.0 
-1.800985621523e-03 3.574605346147e-03 0.0 
0.0 0.0 -1.139196670502e-03 
-1.359206623324e-03 -1.598338811102e-03 0.0 
-1.598338811102e-03 4.356288718259e-03 0.0 
0.0 0.0 -1.038619054332e-03 
-1.952425401121e-03 -1.122489104774e-03 0.0 
-1.122489104774e-03 5.808139918506e-03 0.0 
0.0 0.0 -1.061632825506e-03 
-7.352512267089e-04 -7.174892847169e-04 0.0 
-7.174892847169e-04 2.324934696345e-03 0.0 
0.0 0.0 -5.540246046759e-04 
-1.437645385880e-03 -1.599317358972e-03 0.0 
-1.599317358972e-03 5.870614125847e-03 0.0 
0.0 0.0 -1.211531131004e-03 
-1.154210490817e-03 -1.954082935906e-03 0.0 
-1.954082935906e-03 4.005717739264e-03 0.0 
0.0 0.0 -1.074148950826e-03 
-8.379192553434e-04 -5.906240485017e-04 0.0 
-5.906240485017e-04 2.576604047046e-03 0.0 
0.0 0.0 -5.876558844704e-04 
-1.197102623790e-03 -1.637680359765e-03 0.0 
-1.637680359765e-03 4.017415051808e-03 0.0 
0.0 0.0 -1.056762485630e-03 
-7.509293429896e-04 -1.933738058068e-03 0.0 
-1.933738058068e-03 3.044668356527e-03 0.0 
0.0 0.0 -9.830310058020e-04 
-3.848069222800e-04 -1.987035085230e-03 0.0 
-1.987035085230e-03 2.096507399408e-03 0.0 
0.0 0.0 -7.335859187690e-04 
-1.641529108376e-03 -8.260601691015e-04 0.0 
-8.260601691015e-04 4.922455749525e-03 0.0 
0.0 0.0 -1.057704792895e-03 
1.274028603033e-03 -1.869459937269e-04 0.0 
-1.869459937269e-04 -4.728594485301e-04 0.0 
0.0 0.0 -1.484808277242e-04 
8.391344234421e-04 -3.183235339587e-04 0.0 
-3.183235339587e-04 -2.967630892776e-04 0.0 
0.0 0.0 -1.070543391422e-04 
-1.665019363331e-03 -1.732448119605e-03 0.0 
-1.732448119605e-03 5.107282910853e-03 0.0 
0.0 0.0 -1.076850574752e-03 
-6.443609575616e-04 -8.027982188953e-04 0.0 
-8.027982188953e-04 2.093114862673e-03 0.0 
0.0 0.0 -5.127475950200e-04 
-1.433152566994e-03 -2.256582062865e-03 0.0 
-2.256582062865e-03 4.678524487026e-03 0.0 
0.0 0.0 -1.065643708224e-03 
-1.181624258185e-03 -2.541209283503e-03 0.0 
-2.541209283503e-03 4.198630913141e-03 0.0 
0.0 0.0 -1.061543848411e-03 
-2.864899867882e-04 -2.872572545388e-03 0.0 
-2.872572545388e-03 2.406784440249e-03 0.0 
0.0 0.0 -9.086976229117e-04 
1.281208818910e-03 -3.086935772070e-03 0.0 
-3.086935772070e-03 3.369465702636e-04 0.0 
0.0 0.0 -6.934951667885e-04 
-1.645375116221e-03 6.411920099951e-04 0.0 
6.411920099951e-04 7.711017833911e-03 0.0 
0.0 0.0 -1.137719822027e-03 
1.154207816654e-03 1.867319367673e-03 0.0 
1.867319367673e-03 -6.876363112737e-04 0.0 
0.0 0.0 -1.999592165914e-04 
-9.249733248304e-04 -1.654130041636e-03 0.0 
-1.654130041636e-03 3.362873241434e-03 0.0 
0.0 0.0 -9.992710862841e-04 
-3.877098979375e-04 -1.380494157509e-03 0.0 
-1.380494157509e-03 3.663297430763e-03 0.0 
0.0 0.0 -1.175533656463e-03 
-5.174404311479e-04 -5.539878075327e-04 0.0 
-5.539878075327e-04 1.742776399261e-03 0.0 
0.0 0.0 -4.908139796285e-04 
-1.654366313170e-03 2.025707585884e-04 0.0 
2.025707585884e-04 6.355277344232e-03 0.0 
0.0 0.0 -9.088859120638e-04 
-1.608026372927e-03 7.066471578212e-05 0.0 
7.066471578212e-05 5.908321987661e-03 0.0 
0.0 0.0 -8.416286270284e-04 
-1.832935889570e-04 -1.554120033244e-03 0.0 
-1.554120033244e-03 1.379295739965e-03 0.0 
0.0 0.0 -5.125723504322e-04 
-9.249495539582e-04 -2.182927448984e-03 0.0 
-2.182927448984e-03 4.540217093715e-03 0.0 
0.0 0.0 -1.158722036769e-03 
-1.708983070523e-03 5.831805314674e-04 0.0 
5.831805314674e-04 7.093076428562e-03 0.0 
0.0 0.0 -1.034898561726e-03 
-5.347835094169e-04 -8.712026877687e-04 0.0 
-8.712026877687e-04 1.955284966163e-03 0.0 
0.0 0.0 -6.087863386054e-04 
-1.641053002078e-03 8.278210871732e-04 0.0 
8.278210871732e-04 7.844844353227e-03 0.0 
0.0 0.0 -1.166520446339e-03 
-1.573669309360e-03 1.135775076811e-03 0.0 
1.135775076811e-03 7.785651679837e-03 0.0 
0.0 0.0 -1.169001632583e-03 
-5.801197933913e-04 -1.186925299187e-03 0.0 
-1.186925299187e-03 2.194197512368e-03 0.0 
0.0 0.0 -6.784273028471e-04 
3.325860372313e-04 2.756630050232e-03 0.0 
2.756630050232e-03 1.228114910237e-03 0.0 
0.0 0.0 -6.688718346292e-04 
-3.593200341485e-04 -1.692198470874e-03 0.0 
-1.692198470874e-03 1.863660251544e-03 0.0 
0.0 0.0 -6.447172360267e-04 
-1.851327153153e-03 -1.651837749691e-03 0.0 
-1.651837749691e-03 5.510234686298e-03 0.0 
0.0 0.0 -1.068438311093e-03 
-1.517049278155e-03 -1.208152311661e-03 0.0 
-1.208152311661e-03 4.665351215207e-03 0.0 
0.0 0.0 -1.047608655120e-03 
-1.588271255534e-03 2.440442444252e-03 0.0 
2.440442444252e-03 7.130284191767e-03 0.0 
0.0 0.0 -1.169529464977e-03 
-1.586290284398e-03 9.796528348583e-04 0.0 
9.796528348583e-04 7.658587432112e-03 0.0 
0.0 0.0 -1.140030709108e-03 
-1.655646109898e-03 -1.957177626158e-03 0.0 
-1.957177626158e-03 5.116194479746e-03 0.0 
0.0 0.0 -1.068248785331e-03 
-1.685997880852e-03 -1.784608356716e-03 0.0 
-1.784608356716e-03 5.105111501202e-03 0.0 
0.0 0.0 -1.017402529519e-03 
-2.876771207717e-04 -1.389411797297e-03 0.0 
-1.389411797297e-03 1.511875759344e-03 0.0 
0.0 0.0 -5.246565593881e-04 
-1.860731135260e-03 -1.457489852606e-03 0.0 
-1.457489852606e-03 5.487326218288e-03 0.0 
0.0 0.0 -1.032853941699e-03 
-1.642797758815e-03 9.181312676492e-04 0.0 
9.181312676492e-04 7.041840567815e-03 0.0 
0.0 0.0 -1.037144748481e-03 
-1.515109443870e-03 -1.227447560286e-03 0.0 
-1.227447560286e-03 4.684685552436e-03 0.0 
0.0 0.0 -1.069204617036e-03 
-1.671620005891e-03 2.929392441870e-04 0.0 
2.929392441870e-04 6.771202525829e-03 0.0 
0.0 0.0 -9.752741834902e-04 
-1.678948556331e-03 5.367956015661e-04 0.0 
5.367956015661e-04 7.330127940856e-03 0.0 
0.0 0.0 -1.071415751597e-03 
2.313268375330e-03 1.796314023182e-03 0.0 
1.796314023182e-03 -1.074261141593e-03 0.0 
0.0 0.0 -5.310031001729e-04 
-1.592584348350e-03 8.322792606474e-04 0.0 
8.322792606474e-04 7.512035850087e-03 0.0 
0.0 0.0 -1.110258267496e-03 
-1.248028584087e-03 -1.336863044777e-03 0.0 
-1.336863044777e-03 4.037984938667e-03 0.0 
0.0 0.0 -1.014964823884e-03 
-1.349668852610e-03 -1.596461481346e-03 0.0 
-1.596461481346e-03 4.366516516387e-03 0.0 
0.0 0.0 -1.071455489612e-03 
-8.215746796524e-04 -1.528227033612e-03 0.0 
-1.528227033612e-03 3.070718427055e-03 0.0 
0.0 0.0 -9.608678829247e-04 
1.835549677296e-04 -2.809528380429e-03 0.0 
-2.809528380429e-03 1.483313829287e-03 0.0 
0.0 0.0 -7.143723415785e-04 
-1.633555633710e-03 7.702002767988e-04 0.0 
7.702002767988e-04 6.885994191198e-03 0.0 
0.0 0.0 -1.007339817349e-03 
3.076530191659e-04 -3.054269635980e-03 0.0 
-3.054269635980e-03 1.447807107602e-03 0.0 
0.0 0.0 -7.523400543292e-04 
-5.051265774841e-04 -1.582649049219e-03 0.0 
-1.582649049219e-03 2.186388830496e-03 0.0 
0.0 0.0 -7.205409655765e-04 
-1.167533049478e-04 -1.421228658134e-03 0.0 
-1.421228658134e-03 1.178987498042e-03 0.0 
0.0 0.0 -4.201231086673e-04 
-1.691347074083e-03 4.318386709728e-04 0.0 
4.318386709728e-04 6.937090811669e-03 0.0 
0.0 0.0 -1.005115000480e-03 
-4.635122803593e-04 -1.604799167025e-03 0.0 
-1.604799167025e-03 2.085354868508e-03 0.0 
0.0 0.0 -6.950753949209e-04 
-1.191515342284e-03 -1.717007076640e-03 0.0 
-1.717007076640e-03 5.423834924642e-03 0.0 
0.0 0.0 -1.218716866995e-03 
-1.611990725284e-03 7.358230951730e-04 0.0 
7.358230951730e-04 7.120198208464e-03 0.0 
0.0 0.0 -1.043883448597e-03 
-1.702982719558e-03 -1.584997506959e-03 0.0 
-1.584997506959e-03 5.470541578607e-03 0.0 
0.0 0.0 -1.070373463590e-03 
-9.109045738307e-04 -2.286339166372e-04 0.0 
-2.286339166372e-04 4.268441463060e-03 0.0 
0.0 0.0 -1.284729618418e-03 
-1.071268175159e-03 -1.648454023553e-03 0.0 
-1.648454023553e-03 3.707169372543e-03 0.0 
0.0 0.0 -1.023311028316e-03 
-5.174967158518e-04 -1.184771327579e-03 0.0 
-1.184771327579e-03 2.030619627748e-03 0.0 
0.0 0.0 -6.484812479557e-04 
-2.326317737538e-04 -1.038651026586e-03 0.0 
-1.038651026586e-03 1.174275035768e-03 0.0 
0.0 0.0 -4.035613980062e-04 
-1.410090236189e-03 -2.406400776569e-03 0.0 
-2.406400776569e-03 4.648410275236e-03 0.0 
0.0 0.0 -1.051259780966e-03 
-1.600848466290e-03 5.345976904083e-04 0.0 
5.345976904083e-04 6.550294708413e-03 0.0 
0.0 0.0 -9.473489374553e-04 
-8.717253142324e-05 -9.933700925620e-04 0.0 
-9.933700925620e-04 8.344671106644e-04 0.0 
0.0 0.0 -3.202691053891e-04 
-6.027995719924e-04 -2.107392599842e-03 0.0 
-2.107392599842e-03 2.722751826872e-03 0.0 
0.0 0.0 -9.085509663768e-04 
-7.199860598078e-04 -4.341095348245e-04 0.0 
-4.341095348245e-04 2.121552428607e-03 0.0 
0.0 0.0 -4.196057652059e-04 
-1.682938822042e-03 3.318724932828e-04 0.0 
3.318724932828e-04 6.532037136807e-03 0.0 
0.0 0.0 -9.387834224271e-04 
-7.776326742692e-04 -1.884645157224e-03 0.0 
-1.884645157224e-03 3.094899202807e-03 0.0 
0.0 0.0 -9.909213861921e-04 
-1.231039957355e-03 -2.426325464904e-03 0.0 
-2.426325464904e-03 4.199347214172e-03 0.0 
0.0 0.0 -9.819879942351e-04 
-8.554599545912e-04 -1.459966539243e-03 0.0 
-1.459966539243e-03 3.093994812612e-03 0.0 
0.0 0.0 -9.237817853494e-04 
-1.614515104562e-03 2.789174945577e-04 0.0 
2.789174945577e-04 7.633843682432e-03 0.0 
0.0 0.0 -1.114809527198e-03 
-5.165996464755e-04 -1.902435422896e-03 0.0 
-1.902435422896e-03 2.384778332934e-03 0.0 
0.0 0.0 -8.006480084822e-04 
-1.128557246388e-03 -2.713813412197e-03 0.0 
-2.713813412197e-03 4.096504171839e-03 0.0 
0.0 0.0 -1.021386065992e-03 
3.769531236008e-04 -2.410295298791e-03 0.0 
-2.410295298791e-03 9.611755011410e-04 0.0 
0.0 0.0 -5.734836963179e-04 
-1.146759310470e-03 -2.656955500371e-03 0.0 
-2.656955500371e-03 4.139056916818e-03 0.0 
0.0 0.0 -1.043150860743e-03 
-1.375457983811e-03 -1.244246825682e-03 0.0 
-1.244246825682e-03 4.353109699875e-03 0.0 
0.0 0.0 -1.054662228279e-03 
-1.554003148348e-03 -1.878419659560e-03 0.0 
-1.878419659560e-03 5.069341272683e-03 0.0 
0.0 0.0 -1.041555045145e-03 
3.002499616426e-03 -7.287809856288e-04 0.0 
-7.287809856288e-04 -1.352929250409e-03 0.0 
0.0 0.0 -7.069587282928e-04 
-6.177242885591e-04 -4.890935474393e-04 0.0 
-4.890935474393e-04 2.000133674606e-03 0.0 
0.0 0.0 -5.285791946032e-04 
-1.609261505607e-03 9.637114852810e-05 0.0 
9.637114852810e-05 6.165456359686e-03 0.0 
0.0 0.0 -8.787268422831e-04 
6.987156508361e-04 -1.946712657170e-03 0.0 
-1.946712657170e-03 1.033985256572e-03 0.0 
0.0 0.0 -7.425861031749e-04 
3.405430775163e-04 3.191948666083e-03 0.0 
3.191948666083e-03 1.485409776068e-03 0.0 
0.0 0.0 -7.825512229649e-04 
-1.644262011324e-03 1.659911649759e-04 0.0 
1.659911649759e-04 6.584724351472e-03 0.0 
0.0 0.0 -9.453210152248e-04 
6.455202986104e-04 -2.635854245695e-03 0.0 
-2.635854245695e-03 6.894465372206e-04 0.0 
0.0 0.0 -5.721286439276e-04 
-1.681255032869e-03 9.721382689111e-04 0.0 
9.721382689111e-04 6.557103597372e-03 0.0 
0.0 0.0 -9.642804585795e-04 
-6.124308423891e-04 -5.450173225678e-04 0.0 
-5.450173225678e-04 1.850421424375e-03 0.0 
0.0 0.0 -3.816933993452e-04 
-1.231036729784e-03 -2.253664933021e-03 0.0 
-2.253664933021e-03 5.042416419642e-03 0.0 
0.0 0.0 -1.150402778756e-03 
7.350617248358e-04 -1.287476273638e-03 0.0 
-1.287476273638e-03 1.272883254993e-03 0.0 
0.0 0.0 -8.605478484982e-04 
6.223710608225e-04 1.356379083397e-03 0.0 
1.356379083397e-03 1.985099964088e-03 0.0 
0.0 0.0 -1.037051012011e-03 
-1.598102879927e-03 7.448720335872e-04 0.0 
7.448720335872e-04 8.095744984387e-03 0.0 
0.0 0.0 -1.204463612412e-03 
8.919152436734e-05 -3.143989424638e-03 0.0 
-3.143989424638e-03 1.851557330955e-03 0.0 
0.0 0.0 -8.317495094241e-04 
-4.309306607764e-04 -9.183848167176e-04 0.0 
-9.183848167176e-04 1.661245254261e-03 0.0 
0.0 0.0 -5.272776829218e-04 
-5.215676815475e-04 -3.050968300431e-03 0.0 
-3.050968300431e-03 3.002352665044e-03 0.0 
0.0 0.0 -1.027200950222e-03 
-1.049023862644e-03 -1.741518653201e-03 0.0 
-1.741518653201e-03 4.976635689622e-03 0.0 
0.0 0.0 -1.189963100592e-03 
9.320234363391e-04 -2.596047537173e-03 0.0 
-2.596047537173e-03 3.625727901239e-04 0.0 
0.0 0.0 -5.548269541984e-04 
-1.645253786717e-03 -2.142300707641e-03 0.0 
-2.142300707641e-03 5.116342603387e-03 0.0 
0.0 0.0 -1.056575865346e-03 
-1.668373394945e-03 3.866502142135e-04 0.0 
3.866502142135e-04 7.172333763355e-03 0.0 
0.0 0.0 -1.041631482750e-03 
1.707610751817e-03 -3.111302323774e-03 0.0 
-3.111302323774e-03 2.006678016110e-05 0.0 
0.0 0.0 -7.404332279907e-04 
-8.518987020310e-04 -2.879189791171e-03 0.0 
-2.879189791171e-03 3.589652711545e-03 0.0 
0.0 0.0 -1.034177093206e-03 
-1.689258382171e-03 3.631400807220e-04 0.0 
3.631400807220e-04 6.026727173804e-03 0.0 
0.0 0.0 -8.663127257150e-04 
-8.305596344540e-04 -9.136388392921e-04 0.0 
-9.136388392921e-04 2.720781083117e-03 0.0 
0.0 0.0 -7.057144296542e-04 
-4.174774710502e-04 -2.264727665933e-03 0.0 
-2.264727665933e-03 2.338052704739e-03 0.0 
0.0 0.0 -8.231036715810e-04 
1.803968687695e-04 3.742029911528e-03 0.0 
3.742029911528e-03 2.055326787370e-03 0.0 
0.0 0.0 -9.358934819731e-04 
-1.362318107691e-03 -2.168484734475e-03 0.0 
-2.168484734475e-03 4.618346883937e-03 0.0 
0.0 0.0 -1.012809740122e-03 
-6.445707195621e-05 3.204089462648e-03 0.0 
3.204089462648e-03 2.166873657449e-03 0.0 
0.0 0.0 -9.010356794969e-04 
5.513709198924e-04 3.609450072054e-03 0.0 
3.609450072054e-03 1.451733722049e-03 0.0 
0.0 0.0 -8.584734179747e-04 
-1.663785911262e-03 9.479908707512e-04 0.0 
9.479908707512e-04 6.801753296704e-03 0.0 
0.0 0.0 -1.000670320419e-03 
-1.603261119446e-03 5.580378966873e-04 0.0 
5.580378966873e-04 6.304876685805e-03 0.0 
0.0 0.0 -9.110000341593e-04 
-1.665053571431e-03 8.222814637678e-04 0.0 
8.222814637678e-04 6.156291516455e-03 0.0 
0.0 0.0 -8.984003255416e-04 
-1.378097458895e-03 -1.307048665384e-03 0.0 
-1.307048665384e-03 4.348190678149e-03 0.0 
0.0 0.0 -1.034446146726e-03 
-6.901682956972e-04 -2.185652284413e-03 0.0 
-2.185652284413e-03 4.019713840668e-03 0.0 
0.0 0.0 -1.130631056169e-03 
-1.834308716731e-04 -3.140526153133e-03 0.0 
-3.140526153133e-03 2.359250978041e-03 0.0 
0.0 0.0 -9.324943313007e-04 
-1.664409897791e-03 2.283299940873e-04 0.0 
2.283299940873e-04 6.118881933301e-03 0.0 
0.0 0.0 -8.720525204519e-04 
-1.540055594527e-03 2.603535571495e-03 0.0 
2.603535571495e-03 6.865325717395e-03 0.0 
0.0 0.0 -1.193584144721e-03 
3.472050528190e-04 1.692564590117e-03 0.0 
1.692564590117e-03 2.541247573186e-03 0.0 
0.0 0.0 -1.073433710836e-03 
-1.128039575521e-03 -2.445102979842e-03 0.0 
-2.445102979842e-03 4.119062361786e-03 0.0 
0.0 0.0 -9.841343610905e-04 
-1.618130106290e-03 8.767059940841e-04 0.0 
8.767059940841e-04 7.278368023729e-03 0.0 
0.0 0.0 -1.073677668998e-03 
-6.910390954278e-05 -2.799918663238e-03 0.0 
-2.799918663238e-03 1.917780934052e-03 0.0 
0.0 0.0 -7.922901533612e-04 
-2.515921695526e-04 -2.585539987467e-03 0.0 
-2.585539987467e-03 2.152735873912e-03 0.0 
0.0 0.0 -8.147758732969e-04 
-3.310614028043e-04 -1.379924337061e-03 0.0 
-1.379924337061e-03 1.616149347076e-03 0.0 
0.0 0.0 -5.507519761165e-04 
-5.011752582021e-04 -3.030712813107e-03 0.0 
-3.030712813107e-03 2.924383664169e-03 0.0 
0.0 0.0 -9.894786617912e-04 
-4.694395913292e-04 -2.445221033123e-03 0.0 
-2.445221033123e-03 2.569902493715e-03 0.0 
0.0 0.0 -9.001983867369e-04 
-1.710187933828e-03 4.633984892961e-04 0.0 
4.633984892961e-04 6.694041267773e-03 0.0 
0.0 0.0 -9.686535345556e-04 
-1.726289188827e-03 4.896054940225e-04 0.0 
4.896054940225e-04 6.449117765340e-03 0.0 
0.0 0.0 -9.322463471790e-04 
2.416944889244e-03 5.439879453653e-04 0.0 
5.439879453653e-04 -1.208818724836e-03 0.0 
0.0 0.0 -5.177683561747e-04 
-1.928901237433e-04 -2.408049599402e-03 0.0 
-2.408049599402e-03 1.916746904624e-03 0.0 
0.0 0.0 -7.387957632348e-04 
2.990366271950e-03 1.613745370932e-03 0.0 
1.613745370932e-03 -1.371577636674e-03 0.0 
0.0 0.0 -6.937665579755e-04 
-3.910486537431e-04 -2.315216698545e-03 0.0 
-2.315216698545e-03 2.304304739270e-03 0.0 
0.0 0.0 -8.199668937971e-04 
-2.230223782308e-04 -2.682222528879e-03 0.0 
-2.682222528879e-03 2.152181418268e-03 0.0 
0.0 0.0 -8.267824457303e-04 
-4.073029906979e-04 -1.294483440297e-03 0.0 
-1.294483440297e-03 1.772331589387e-03 0.0 
0.0 0.0 -5.850122565809e-04 
-4.258807302887e-04 -2.144389728424e-03 0.0 
-2.144389728424e-03 3.478718025925e-03 0.0 
0.0 0.0 -1.101849228970e-03 
4.193172772845e-04 -3.233569204744e-03 0.0 
-3.233569204744e-03 1.400177349689e-03 0.0 
0.0 0.0 -7.797834115600e-04 
-1.646879822787e-03 4.813878958504e-04 0.0 
4.813878958504e-04 7.564621706005e-03 0.0 
0.0 0.0 -1.107989045227e-03 
6.164328486864e-04 -3.141645067701e-03 0.0 
-3.141645067701e-03 1.094713369857e-03 0.0 
0.0 0.0 -7.333483793757e-04 
-5.352671715167e-04 -2.920481306985e-03 0.0 
-2.920481306985e-03 2.976534494236e-03 0.0 
0.0 0.0 -9.268471029392e-04 
3.090740504693e-05 -3.263078096127e-03 0.0 
-3.263078096127e-03 2.029516789361e-03 0.0 
0.0 0.0 -8.830389404604e-04 
1.224821345307e-03 3.216271527602e-03 0.0 
3.216271527602e-03 4.534564749945e-04 0.0 
0.0 0.0 -7.192619229864e-04 
-4.591680976874e-04 -1.267727629031e-03 0.0 
-1.267727629031e-03 1.902437159688e-03 0.0 
0.0 0.0 -6.185438837147e-04 
-8.295759423418e-04 -1.747729159177e-03 0.0 
-1.747729159177e-03 4.457598420487e-03 0.0 
0.0 0.0 -1.161691925552e-03 
-8.640451209017e-04 -2.074084677624e-03 0.0 
-2.074084677624e-03 4.658509439049e-03 0.0 
0.0 0.0 -1.198716319349e-03 
-6.013355258858e-04 3.714306523016e-03 0.0 
3.714306523016e-03 3.360817493125e-03 0.0 
0.0 0.0 -9.650368815299e-04 
-1.923559704036e-05 -2.994572033542e-03 0.0 
-2.994572033542e-03 1.948727475502e-03 0.0 
0.0 0.0 -8.269250907692e-04 
-2.503696762220e-04 -3.166835997765e-03 0.0 
-3.166835997765e-03 2.485701371906e-03 0.0 
0.0 0.0 -9.354962741733e-04 
-1.647815013080e-03 8.021683468908e-04 0.0 
8.021683468908e-04 6.643407279142e-03 0.0 
0.0 0.0 -9.708520278613e-04 
-3.181114656463e-04 -2.713015915343e-03 0.0 
-2.713015915343e-03 2.377429006136e-03 0.0 
0.0 0.0 -8.825646602100e-04 
7.116670481849e-04 3.351796189116e-03 0.0 
3.351796189116e-03 1.105566406541e-03 0.0 
0.0 0.0 -7.788143377395e-04 
-5.501781971430e-04 -1.884487968291e-03 0.0 
-1.884487968291e-03 2.464549120431e-03 0.0 
0.0 0.0 -8.204446814089e-04 
9.957483789486e-04 -2.931560812442e-03 0.0 
-2.931560812442e-03 3.486105119444e-04 0.0 
0.0 0.0 -5.761538103827e-04 
1.170702144068e-04 -2.917551374595e-03 0.0 
-2.917551374595e-03 1.660101911363e-03 0.0 
0.0 0.0 -7.616451967584e-04 
-5.960830469200e-04 -1.478493121431e-03 0.0 
-1.478493121431e-03 2.390521820873e-03 0.0 
0.0 0.0 -7.690451888369e-04 
-7.193147455851e-04 -1.069003876046e-03 0.0 
-1.069003876046e-03 2.479314286133e-03 0.0 
0.0 0.0 -6.849754419779e-04 
-1.850126680382e-05 -3.140240111362e-03 0.0 
-3.140240111362e-03 2.040450553655e-03 0.0 
0.0 0.0 -8.665496943648e-04 
-8.517286139436e-04 -2.699031265188e-03 0.0 
-2.699031265188e-03 3.572094775893e-03 0.0 
0.0 0.0 -9.554846610150e-04 
-9.258628841067e-04 3.334973100130e-03 0.0 
3.334973100130e-03 4.800766489173e-03 0.0 
0.0 0.0 -1.128610778606e-03 
1.795476015728e-03 -3.745896555992e-04 0.0 
-3.745896555992e-04 -4.681407310308e-04 0.0 
0.0 0.0 -1.007271482096e-04 
1.477477984761e-03 -2.160820890410e-03 0.0 
-2.160820890410e-03 -1.640262078733e-04 0.0 
0.0 0.0 -5.629079043802e-04 
9.457248714060e-04 -2.859194649623e-03 0.0 
-2.859194649623e-03 6.047505636496e-04 0.0 
0.0 0.0 -6.644894721667e-04 
2.064739481844e-04 -3.194226446081e-03 0.0 
-3.194226446081e-03 1.689929388459e-03 0.0 
0.0 0.0 -8.127442871328e-04 
-1.656928892650e-03 8.151295774597e-04 0.0 
8.151295774597e-04 6.399838907814e-03 0.0 
0.0 0.0 -9.344164207832e-04 
2.545948249673e-04 -3.270064507394e-03 0.0 
-3.270064507394e-03 1.662466157556e-03 0.0 
0.0 0.0 -8.215975639385e-04 
-6.717590179400e-04 -1.743398916895e-03 0.0 
-1.743398916895e-03 2.730040439290e-03 0.0 
0.0 0.0 -8.821206091502e-04 
2.940147133768e-04 -2.953116785718e-03 0.0 
-2.953116785718e-03 1.404914365559e-03 0.0 
0.0 0.0 -7.281124624012e-04 
-1.597640344519e-03 6.950049643667e-04 0.0 
6.950049643667e-04 7.352823299798e-03 0.0 
0.0 0.0 -1.080452943103e-03 
-7.063133806754e-04 -1.717335593378e-03 0.0 
-1.717335593378e-03 2.816704678048e-03 0.0 
0.0 0.0 -9.044534131596e-04 
-1.993759384210e-04 -8.715145545495e-04 0.0 
-8.715145545495e-04 1.025473523807e-03 0.0 
0.0 0.0 -3.540418223084e-04 
-3.396899465816e-04 -1.001666654583e-03 0.0 
-1.001666654583e-03 1.438762041900e-03 0.0 
0.0 0.0 -4.710308979937e-04 
8.199892085620e-04 -2.799788621547e-03 0.0 
-2.799788621547e-03 6.522727846800e-04 0.0 
0.0 0.0 -6.309694256751e-04 
9.078868863827e-06 -2.738074417405e-03 0.0 
-2.738074417405e-03 1.733216879781e-03 0.0 
0.0 0.0 -7.466981779905e-04 
1.103409613190e-03 -2.545332485906e-03 0.0 
-2.545332485906e-03 3.291592924430e-04 0.0 
0.0 0.0 -6.139581024141e-04 
4.609298661722e-04 -2.917080397583e-03 0.0 
-2.917080397583e-03 1.153463791195e-03 0.0 
0.0 0.0 -6.918829960147e-04 
6.174604848126e-04 -2.601794133831e-03 0.0 
-2.601794133831e-03 7.903429974379e-04 0.0 
0.0 0.0 -6.033443495359e-04 
-4.149645807323e-04 -9.518115957765e-04 0.0 
-9.518115957765e-04 1.570452979312e-03 0.0 
0.0 0.0 -4.579617190245e-04 
-1.800428115941e-03 6.964731656622e-04 0.0 
6.964731656622e-04 6.067707299324e-03 0.0 
0.0 0.0 -8.885078876198e-04 
-6.431842488821e-04 -1.481881899324e-03 0.0 
-1.481881899324e-03 2.527966751562e-03 0.0 
0.0 0.0 -8.077639297199e-04 
-3.542476587942e-04 -1.933324559496e-03 0.0 
-1.933324559496e-03 3.366073220136e-03 0.0 
0.0 0.0 -1.067401112627e-03 
-7.301428169590e-04 3.365159558875e-03 0.0 
3.365159558875e-03 4.241956460408e-03 0.0 
0.0 0.0 -1.093380752811e-03 
-1.742519381031e-03 2.013539484841e-03 0.0 
2.013539484841e-03 5.514346305573e-03 0.0 
0.0 0.0 -9.013836717722e-04 
-1.638703746775e-03 1.447396884762e-03 0.0 
1.447396884762e-03 7.437681461836e-03 0.0 
0.0 0.0 -1.126084317643e-03 
-1.069717058735e-03 3.316002143618e-03 0.0 
3.316002143618e-03 5.313047036020e-03 0.0 
0.0 0.0 -1.164310864388e-03 
2.494431731371e-03 1.270414999422e-03 0.0 
1.270414999422e-03 -1.135062232485e-03 0.0 
0.0 0.0 -5.825869280942e-04 
-6.518857880869e-04 3.512796865886e-03 0.0 
3.512796865886e-03 3.785510000148e-03 0.0 
0.0 0.0 -1.029042339204e-03 
9.845026743479e-04 -3.000223110364e-03 0.0 
-3.000223110364e-03 4.820355227438e-04 0.0 
0.0 0.0 -6.285163701822e-04 
9.169108146704e-06 -3.021931346183e-03 0.0 
-3.021931346183e-03 1.914436153364e-03 0.0 
0.0 0.0 -8.244022549332e-04 
1.935620549985e-03 2.666280335606e-03 0.0 
2.666280335606e-03 -6.114645168814e-04 0.0 
0.0 0.0 -5.674954427585e-04 
2.434658683002e-03 -2.349214516508e-03 0.0 
-2.349214516508e-03 -7.291186468832e-04 0.0 
0.0 0.0 -7.309457297651e-04 
8.115117363057e-04 -2.741951264447e-03 0.0 
-2.741951264447e-03 6.655581968644e-04 0.0 
0.0 0.0 -6.330299713586e-04 
-4.450599208505e-04 -2.552111804523e-03 0.0 
-2.552111804523e-03 2.573524769895e-03 0.0 
0.0 0.0 -9.121992210190e-04 
7.181167573208e-04 -2.648058741041e-03 0.0 
-2.648058741041e-03 7.077719066917e-04 0.0 
0.0 0.0 -6.110951417196e-04 
8.603807904587e-04 -2.481932762305e-03 0.0 
-2.481932762305e-03 4.907815371097e-04 0.0 
0.0 0.0 -5.790695689579e-04 
-7.220048660239e-04 -1.343093892557e-03 0.0 
-1.343093892557e-03 2.702939106315e-03 0.0 
0.0 0.0 -8.489718172674e-04 
4.166245934909e-04 -3.209488587121e-03 0.0 
-3.209488587121e-03 1.389160896237e-03 0.0 
0.0 0.0 -7.739080670262e-04 
1.094305293400e-03 -2.135240774913e-03 0.0 
-2.135240774913e-03 1.298780956037e-04 0.0 
0.0 0.0 -5.246500238586e-04 
1.735397459642e-03 -1.790668401916e-03 0.0 
-1.790668401916e-03 -5.241960348096e-04 0.0 
0.0 0.0 -5.190863249281e-04 
-2.953118235534e-05 -2.621242279383e-03 0.0 
-2.621242279383e-03 1.729246141722e-03 0.0 
0.0 0.0 -7.284492682998e-04 
9.068086297483e-04 -1.885631159827e-04 0.0 
-1.885631159827e-04 1.202081875786e-03 0.0 
0.0 0.0 -9.038102166577e-04 
-1.735518635242e-03 6.223275928078e-04 0.0 
6.223275928078e-04 6.851645939463e-03 0.0 
0.0 0.0 -9.984673180475e-04 
2.290762220203e-03 -1.318712250617e-03 0.0 
-1.318712250617e-03 -1.027744525883e-03 0.0 
0.0 0.0 -5.412932975660e-04 
-5.654229652914e-04 -1.684995955007e-03 0.0 
-1.684995955007e-03 3.940963543082e-03 0.0 
0.0 0.0 -1.133495712197e-03 
1.398246767020e-03 -3.216441844472e-03 0.0 
-3.216441844472e-03 9.154783719246e-05 0.0 
0.0 0.0 -6.384834018056e-04 
-5.648051924757e-04 -1.107091868774e-03 0.0 
-1.107091868774e-03 4.182104582450e-03 0.0 
0.0 0.0 -1.208505026952e-03 
7.869283801720e-04 -2.957311971993e-03 0.0 
-2.957311971993e-03 8.055017795032e-04 0.0 
0.0 0.0 -6.824700684322e-04 
-1.163518298392e-03 3.423968427013e-03 0.0 
3.423968427013e-03 5.864548636599e-03 0.0 
0.0 0.0 -1.203459118631e-03 
-1.226888468028e-03 3.131439724330e-03 0.0 
3.131439724330e-03 4.473148429932e-03 0.0 
0.0 0.0 -9.144069900286e-04 
8.146311757364e-04 -2.866044643526e-03 0.0 
-2.866044643526e-03 7.279520038073e-04 0.0 
0.0 0.0 -6.611070769473e-04 
-1.669436221743e-03 2.273068641771e-03 0.0 
2.273068641771e-03 5.485810747731e-03 0.0 
0.0 0.0 -9.292863832265e-04 
-1.634774651159e-03 1.926043724267e-03 0.0 
1.926043724267e-03 7.350223961808e-03 0.0 
0.0 0.0 -1.148369591821e-03 
9.266283371582e-04 -2.700818447501e-03 0.0 
-2.700818447501e-03 5.423083712425e-04 0.0 
0.0 0.0 -6.295443036003e-04 
1.446287545932e-03 3.073556646394e-03 0.0 
3.073556646394e-03 1.275065551695e-04 0.0 
0.0 0.0 -6.744831861864e-04 
-1.574055992192e-03 2.506613091125e-03 0.0 
2.506613091125e-03 5.429733742182e-03 0.0 
0.0 0.0 -9.572423940436e-04 
2.774777350088e-04 3.373231360524e-03 0.0 
3.373231360524e-03 1.692140773898e-03 0.0 
0.0 0.0 -8.441222181028e-04 
6.686313295052e-04 -2.714647588195e-03 0.0 
-2.714647588195e-03 7.978373867195e-04 0.0 
0.0 0.0 -6.284865926677e-04 
-1.493705396886e-03 1.751261100369e-03 0.0 
1.751261100369e-03 8.145178326217e-03 0.0 
0.0 0.0 -1.259077240559e-03 
2.909241618845e-04 -2.201062680806e-03 0.0 
-2.201062680806e-03 9.491865650592e-04 0.0 
0.0 0.0 -5.314760258330e-04 
-1.393014638960e-04 7.789838351986e-04 0.0 
7.789838351986e-04 3.592179503210e-03 0.0 
0.0 0.0 -1.194426649262e-03 
-1.554233915862e-03 9.163364700516e-04 0.0 
9.163364700516e-04 7.887220632938e-03 0.0 
0.0 0.0 -1.175981821618e-03 
7.026255322913e-04 -6.834983021250e-04 0.0 
-6.834983021250e-04 1.598542050998e-03 0.0 
0.0 0.0 -9.862146785524e-04 
-1.631602720906e-03 6.968439340323e-04 0.0 
6.968439340323e-04 6.226177705545e-03 0.0 
0.0 0.0 -9.041796124736e-04 
-1.724067531766e-03 9.331717393615e-04 0.0 
9.331717393615e-04 7.373782435820e-03 0.0 
0.0 0.0 -1.094228678348e-03 
1.385482593825e-03 -2.030831099799e-03 0.0 
-2.030831099799e-03 -2.112692183438e-04 0.0 
0.0 0.0 -5.032343037776e-04 
1.999660538583e-03 5.238969397191e-04 0.0 
5.238969397191e-04 -8.881969286874e-04 0.0 
0.0 0.0 -4.763415470983e-04 
-1.569811974871e-03 1.587727422304e-03 0.0 
1.587727422304e-03 7.784527269149e-03 0.0 
0.0 0.0 -1.191782302182e-03 
-9.330696091187e-04 -2.330125100931e-03 0.0 
-2.330125100931e-03 4.026828994110e-03 0.0 
0.0 0.0 -1.021464098896e-03 
-1.750430558126e-03 7.997395592586e-04 0.0 
7.997395592586e-04 6.994945578504e-03 0.0 
0.0 0.0 -1.028225029406e-03 
5.898974709842e-04 -1.490603234069e-03 0.0 
-1.490603234069e-03 1.573546015772e-03 0.0 
0.0 0.0 -9.271900657525e-04 
1.226199290364e-03 -3.133713578343e-03 0.0 
-3.133713578343e-03 4.720804484946e-04 0.0 
0.0 0.0 -7.278341737966e-04 
-1.755813224466e-03 9.900590192067e-04 0.0 
9.900590192067e-04 7.121505765451e-03 0.0 
0.0 0.0 -1.057861461704e-03 
-1.020230912339e-03 3.255501544884e-03 0.0 
3.255501544884e-03 5.845285965923e-03 0.0 
0.0 0.0 -1.268085107495e-03 
-8.098027228146e-04 -1.517662878241e-03 0.0 
-1.517662878241e-03 4.547334409745e-03 0.0 
0.0 0.0 -1.202195648613e-03 
7.610076650518e-05 -3.235453866840e-03 0.0 
-3.235453866840e-03 1.932455716982e-03 0.0 
0.0 0.0 -8.608099214947e-04 
-1.689275270792e-03 3.359122450795e-04 0.0 
3.359122450795e-04 6.273459191033e-03 0.0 
0.0 0.0 -9.020111041354e-04 
-1.632588233776e-03 6.974904632293e-04 0.0 
6.974904632293e-04 5.987209936235e-03 0.0 
0.0 0.0 -8.677534307045e-04 
6.088392128265e-04 -2.822537476632e-03 0.0 
-2.822537476632e-03 9.202084504231e-04 0.0 
0.0 0.0 -6.553061413927e-04 
-6.443122983676e-04 -2.499706879338e-03 0.0 
-2.499706879338e-03 3.462729029903e-03 0.0 
0.0 0.0 -9.927925938929e-04 
-4.755079025855e-04 -2.238751106190e-03 0.0 
-2.238751106190e-03 3.389731406328e-03 0.0 
0.0 0.0 -1.030113165296e-03 
-2.437047899643e-04 -1.231397142334e-03 0.0 
-1.231397142334e-03 1.345917923955e-03 0.0 
0.0 0.0 -4.426674065645e-04 
2.847402133071e-03 1.832321194303e-03 0.0 
1.832321194303e-03 -1.311219245011e-03 0.0 
0.0 0.0 -6.583640948828e-04 
2.391065633377e-03 -7.030644689003e-04 0.0 
-7.030644689003e-04 -1.190042454993e-03 0.0 
0.0 0.0 -5.147242193072e-04 
1.968235762107e-03 -1.858343853594e-03 0.0 
-1.858343853594e-03 -8.473461408074e-04 0.0 
0.0 0.0 -4.803812662710e-04 
7.235144373202e-04 3.006853977664e-03 0.0 
3.006853977664e-03 8.982936940798e-04 0.0 
0.0 0.0 -6.950606277428e-04 
-1.594047644543e-03 1.198778980109e-03 0.0 
1.198778980109e-03 8.076345274144e-03 0.0 
0.0 0.0 -1.225426844749e-03 
-1.544957883650e-03 2.714187828761e-03 0.0 
2.714187828761e-03 6.803087963728e-03 0.0 
0.0 0.0 -1.162686153705e-03 
-1.603786220280e-03 5.743670581703e-04 0.0 
5.743670581703e-04 7.933574954986e-03 0.0 
0.0 0.0 -1.173632101657e-03 
-3.176362262569e-04 3.157680560962e-03 0.0 
3.157680560962e-03 2.644961507973e-03 0.0 
0.0 0.0 -9.922833334649e-04 
-1.686655624371e-03 1.762581410411e-03 0.0 
1.762581410411e-03 7.001695775819e-03 0.0 
0.0 0.0 -1.082713561900e-03 
-8.312311815285e-04 -2.893135141048e-03 0.0 
-2.893135141048e-03 3.527094208899e-03 0.0 
0.0 0.0 -1.005652543148e-03 
-1.566323459329e-03 1.337573114455e-03 0.0 
1.337573114455e-03 7.933955714899e-03 0.0 
0.0 0.0 -1.198415070424e-03 
-1.781797660459e-03 1.042297273604e-03 0.0 
1.042297273604e-03 6.860193468522e-03 0.0 
0.0 0.0 -1.021631336281e-03 
1.651541321597e-04 -3.069309819670e-03 0.0 
-3.069309819670e-03 1.677218775847e-03 0.0 
0.0 0.0 -7.895883891459e-04 
2.729895556258e-03 -3.816222067231e-05 0.0 
-3.816222067231e-05 -1.329892949249e-03 0.0 
0.0 0.0 -6.000011172896e-04 
-1.678629276342e-03 1.301261135869e-03 0.0 
1.301261135869e-03 7.071604861536e-03 0.0 
0.0 0.0 -1.060111126929e-03 
-1.674561038714e-03 1.060445620383e-03 0.0 
1.060445620383e-03 7.740408073351e-03 0.0 
0.0 0.0 -1.160283895044e-03 
-1.648358362413e-03 1.080960708592e-03 0.0 
1.080960708592e-03 7.188263314287e-03 0.0 
0.0 0.0 -1.066842251349e-03 
-1.675485628863e-03 1.117801916471e-03 0.0 
1.117801916471e-03 6.945334177936e-03 0.0 
0.0 0.0 -1.030428295937e-03 
-9.047694827226e-04 -1.891564198184e-03 0.0 
-1.891564198184e-03 4.463027696646e-03 0.0 
0.0 0.0 -1.124756152480e-03 
-3.636288725450e-05 1.185092302766e-03 0.0 
1.185092302766e-03 3.361330425582e-03 0.0 
0.0 0.0 -1.167530213646e-03 
-6.417903686716e-04 -1.936633603608e-03 0.0 
-1.936633603608e-03 3.924941189051e-03 0.0 
0.0 0.0 -1.096139997395e-03 
-6.252750457425e-04 -2.981929184320e-03 0.0 
-2.981929184320e-03 3.101913023538e-03 0.0 
0.0 0.0 -9.455690924112e-04 
-9.133871784712e-04 2.307173197510e-03 0.0 
2.307173197510e-03 3.388339270904e-03 0.0 
0.0 0.0 -8.706649152390e-04 
5.857890875911e-04 -1.165024071922e-04 0.0 
-1.165024071922e-04 1.961403903997e-03 0.0 
0.0 0.0 -1.057160997780e-03 
-1.717096850446e-03 1.897490647652e-03 0.0 
1.897490647652e-03 6.421227655064e-03 0.0 
0.0 0.0 -1.010795753303e-03 
-6.313703935137e-04 -1.096821766549e-03 0.0 
-1.096821766549e-03 2.333660856895e-03 0.0 
0.0 0.0 -7.295530557346e-04 
2.168606455157e-03 -1.381490462849e-03 0.0 
-1.381490462849e-03 -1.049895932277e-03 0.0 
0.0 0.0 -4.794473669488e-04 
1.521212506514e-03 -1.320220071534e-03 0.0 
-1.320220071534e-03 -4.274634539344e-04 0.0 
0.0 0.0 -4.687495939627e-04 
1.466355838383e-03 4.602651966615e-04 0.0 
4.602651966615e-04 -3.624189179879e-05 0.0 
0.0 0.0 -6.129059771076e-04 
2.718390450017e-03 -6.950340879152e-04 0.0 
-6.950340879152e-04 -1.327258381844e-03 0.0 
0.0 0.0 -5.961994577885e-04 
2.586833026508e-03 -8.035069926998e-04 0.0 
-8.035069926998e-04 -1.237368745637e-03 0.0 
0.0 0.0 -5.783418346592e-04 
1.064335855090e-03 3.871345564871e-04 0.0 
3.871345564871e-04 8.878223967010e-04 0.0 
0.0 0.0 -8.366392507678e-04 
-8.479776809358e-04 2.867626528881e-03 0.0 
2.867626528881e-03 3.485177703647e-03 0.0 
0.0 0.0 -9.312627088267e-04 
-1.048673303190e-04 -3.229543423404e-03 0.0 
-3.229543423404e-03 2.260338218225e-03 0.0 
0.0 0.0 -9.237732376742e-04 
-1.787010102696e-03 8.860662194747e-04 0.0 
8.860662194747e-04 6.472161902549e-03 0.0 
0.0 0.0 -9.556638187253e-04 
-1.534511977861e-03 4.226734842399e-04 0.0 
4.226734842399e-04 5.386267654424e-03 0.0 
0.0 0.0 -7.638029664831e-04 
2.694004404959e-04 1.692225150283e-03 0.0 
1.692225150283e-03 6.665564429896e-04 0.0 
0.0 0.0 -4.011243786367e-04 
-2.485044760616e-04 -3.138222606519e-03 0.0 
-3.138222606519e-03 2.491915244985e-03 0.0 
0.0 0.0 -9.614617581102e-04 
5.241395104488e-04 -3.820643100564e-04 0.0 
-3.820643100564e-04 1.948070463321e-03 0.0 
0.0 0.0 -1.051835763028e-03 
-1.541512456067e-03 2.665389691955e-03 0.0 
2.665389691955e-03 7.146978989113e-03 0.0 
0.0 0.0 -1.196871286280e-03 
2.182111420875e-03 6.070828475979e-04 0.0 
6.070828475979e-04 -1.164368423359e-03 0.0 
0.0 0.0 -4.361755703639e-04 
-3.379696423289e-04 -3.147707957552e-03 0.0 
-3.147707957552e-03 2.662191701970e-03 0.0 
0.0 0.0 -9.747355338013e-04 
-1.758283285419e-03 6.606645787396e-04 0.0 
6.606645787396e-04 6.605527542412e-03 0.0 
0.0 0.0 -9.620958722924e-04 
2.572595780151e-04 1.907531255629e-03 0.0 
1.907531255629e-03 8.125007966372e-04 0.0 
0.0 0.0 -4.584687319938e-04 
7.215561543483e-04 7.088538436549e-05 0.0 
7.088538436549e-05 1.489224739350e-03 0.0 
0.0 0.0 -9.474775258707e-04 
1.699588376700e-03 -2.701395224992e-04 0.0 
-2.701395224992e-04 -6.431195081869e-04 0.0 
0.0 0.0 -4.527723722201e-04 
-1.123050040693e-03 2.722320328238e-03 0.0 
2.722320328238e-03 3.963607121214e-03 0.0 
0.0 0.0 -8.880452441696e-04 
-6.861996964777e-04 -2.718033399413e-03 0.0 
-2.718033399413e-03 3.467552900927e-03 0.0 
0.0 0.0 -1.027225276160e-03 
2.084513055480e-03 -2.969236307345e-03 0.0 
-2.969236307345e-03 -6.426223811324e-04 0.0 
0.0 0.0 -6.179531461491e-04 
-5.320903479306e-04 -2.451811030805e-03 0.0 
-2.451811030805e-03 3.446359028726e-03 0.0 
0.0 0.0 -1.064556537081e-03 
-5.475761825290e-04 -1.405154027486e-03 0.0 
-1.405154027486e-03 4.014926747039e-03 0.0 
0.0 0.0 -1.170878753521e-03 
8.694157167214e-04 5.959603823475e-04 0.0 
5.959603823475e-04 1.083517633446e-03 0.0 
0.0 0.0 -8.369714357860e-04 
-1.720938074938e-03 7.528205405103e-04 0.0 
7.528205405103e-04 7.239876321155e-03 0.0 
0.0 0.0 -1.064574987933e-03 
-2.581275539260e-04 2.774157829489e-03 0.0 
2.774157829489e-03 3.637568838645e-03 0.0 
0.0 0.0 -1.082686220397e-03 
-6.278749381159e-04 -1.931446236287e-03 0.0 
-1.931446236287e-03 4.088424354687e-03 0.0 
0.0 0.0 -1.168035910845e-03 
7.662032872175e-05 1.799978139758e-03 0.0 
1.799978139758e-03 1.016865245771e-03 0.0 
0.0 0.0 -4.686366747828e-04 
-1.772766923136e-03 8.481702159287e-04 0.0 
8.481702159287e-04 6.740907635403e-03 0.0 
0.0 0.0 -9.919185416031e-04 
-2.292199257427e-04 1.889849914101e-03 0.0 
1.889849914101e-03 3.718845686110e-03 0.0 
0.0 0.0 -1.173906618061e-03 
-1.648981142695e-03 1.259232254070e-03 0.0 
1.259232254070e-03 7.322595481216e-03 0.0 
0.0 0.0 -1.096489272820e-03 
1.160861635041e-03 6.400460397782e-04 0.0 
6.400460397782e-04 2.605650516831e-04 0.0 
0.0 0.0 -6.091828657389e-04 
2.574979574883e-03 -1.390903072999e-04 0.0 
-1.390903072999e-04 -1.282434716650e-03 0.0 
0.0 0.0 -5.539477963855e-04 
-1.116067155649e-03 -2.250326754200e-03 0.0 
-2.250326754200e-03 3.947993630682e-03 0.0 
0.0 0.0 -1.025516461270e-03 
1.249937303602e-03 3.552940721610e-04 0.0 
3.552940721610e-04 -1.039148958258e-03 0.0 
0.0 0.0 -9.033786229011e-05 
-1.613458135025e-03 1.210057674443e-03 0.0 
1.210057674443e-03 7.562124248112e-03 0.0 
0.0 0.0 -1.132911322290e-03 
-7.377235371559e-04 -9.591054036843e-04 0.0 
-9.591054036843e-04 2.612387194917e-03 0.0 
0.0 0.0 -8.013069569330e-04 
-1.500810255742e-04 1.675008285432e-03 0.0 
1.675008285432e-03 1.366929482546e-03 0.0 
0.0 0.0 -5.215064815592e-04 
-3.658200529699e-04 3.020199158602e-03 0.0 
3.020199158602e-03 3.713742958922e-03 0.0 
0.0 0.0 -1.054483161448e-03 
-1.538001914897e-03 1.084053552084e-03 0.0 
1.084053552084e-03 8.041309965801e-03 0.0 
0.0 0.0 -1.206783194404e-03 
1.727844094968e-03 -3.343181964838e-03 0.0 
-3.343181964838e-03 -2.401420928011e-04 0.0 
0.0 0.0 -6.375865723574e-04 
-2.167964077171e-04 3.747756050696e-03 0.0 
3.747756050696e-03 2.648111889763e-03 0.0 
0.0 0.0 -9.072936044704e-04 
-1.701887886532e-03 1.344630388867e-03 0.0 
1.344630388867e-03 6.812020791196e-03 0.0 
0.0 0.0 -1.023814440555e-03 
-4.458873681724e-04 -2.966430795108e-03 0.0 
-2.966430795108e-03 2.822625691825e-03 0.0 
0.0 0.0 -1.018602138708e-03 
2.635787731545e-03 -1.799593391660e-03 0.0 
-1.799593391660e-03 -1.225014149329e-03 0.0 
0.0 0.0 -6.046172495213e-04 
1.631098457746e-03 2.876803562451e-03 0.0 
2.876803562451e-03 -2.192512757881e-04 0.0 
0.0 0.0 -6.050773636963e-04 
9.159182720240e-04 -2.840057079041e-03 0.0 
-2.840057079041e-03 6.236111220924e-04 0.0 
0.0 0.0 -6.597983117642e-04 
1.988952410622e-03 -2.773207495313e-03 0.0 
-2.773207495313e-03 -3.142881963505e-04 0.0 
0.0 0.0 -7.177132346876e-04 
1.648220485470e-03 -3.321848158051e-03 0.0 
-3.321848158051e-03 2.024080431041e-04 0.0 
0.0 0.0 -7.931265122463e-04 
1.705098340266e-03 6.558868029328e-04 0.0 
6.558868029328e-04 -6.969008095806e-04 0.0 
0.0 0.0 -4.320846560080e-04 
-1.468520801646e-03 2.285525207987e-03 0.0 
2.285525207987e-03 8.442456052557e-03 0.0 
0.0 0.0 -1.324146187826e-03 
-3.956257745020e-04 1.730887625779e-03 0.0 
1.730887625779e-03 1.977050055323e-03 0.0 
0.0 0.0 -6.777532632091e-04 
-1.125863067977e-03 -1.827974217199e-03 0.0 
-1.827974217199e-03 4.964930907455e-03 0.0 
0.0 0.0 -1.153422328581e-03 
2.868285214674e-03 1.352379803766e-03 0.0 
1.352379803766e-03 -1.299848991907e-03 0.0 
0.0 0.0 -6.721869526143e-04 
-1.802402553613e-03 1.096854962503e-03 0.0 
1.096854962503e-03 6.595527473872e-03 0.0 
0.0 0.0 -9.856407671940e-04 
1.971085959338e-03 3.239399902758e-04 0.0 
3.239399902758e-04 -1.217941390756e-03 0.0 
0.0 0.0 -3.227762436777e-04 
-6.307118357170e-04 -1.642290149673e-03 0.0 
-1.642290149673e-03 4.191316448183e-03 0.0 
0.0 0.0 -1.206759618350e-03 
1.281188306004e-03 -3.309115169896e-03 0.0 
-3.309115169896e-03 2.482805933930e-04 0.0 
0.0 0.0 -6.554866711701e-04 
-8.580919722625e-04 -1.141606507875e-03 0.0 
-1.141606507875e-03 3.004910753851e-03 0.0 
0.0 0.0 -8.925927511852e-04 
6.775973206905e-04 1.090261256499e-03 0.0 
1.090261256499e-03 1.554850184539e-03 0.0 
0.0 0.0 -9.567632165269e-04 
9.810193940895e-04 -2.270636417532e-03 0.0 
-2.270636417532e-03 2.960510298287e-04 0.0 
0.0 0.0 -5.473158959649e-04 
3.899080625908e-05 1.591876067608e-03 0.0 
1.591876067608e-03 3.206945282166e-03 0.0 
0.0 0.0 -1.139062866688e-03 
6.623861865506e-04 3.094490503078e-03 0.0 
3.094490503078e-03 1.014638708619e-03 0.0 
0.0 0.0 -7.187249550728e-04 
-1.786253758345e-03 1.560633333520e-03 0.0 
1.560633333520e-03 6.766601134335e-03 0.0 
0.0 0.0 -1.044446328659e-03 
-2.152386475275e-04 1.351101504798e-03 0.0 
1.351101504798e-03 3.486323150058e-03 0.0 
0.0 0.0 -1.198892520503e-03 
-1.697142570711e-03 1.154161816812e-03 0.0 
1.154161816812e-03 6.693519511439e-03 0.0 
0.0 0.0 -9.940794652285e-04 
-1.618144651602e-03 2.389450829648e-03 0.0 
2.389450829648e-03 7.197343605865e-03 0.0 
0.0 0.0 -1.194784139986e-03 
-1.753520328123e-03 1.193661618907e-03 0.0 
1.193661618907e-03 7.230580119665e-03 0.0 
0.0 0.0 -1.087318097122e-03 
-1.742396685637e-03 1.406428765971e-03 0.0 
1.406428765971e-03 7.327343743658e-03 0.0 
0.0 0.0 -1.116677092124e-03 
2.275785242891e-03 2.632435729676e-03 0.0 
2.632435729676e-03 -9.199828087608e-04 0.0 
0.0 0.0 -5.810581860557e-04 
-1.241644556097e-03 -1.898381689041e-03 0.0 
-1.898381689041e-03 4.975895501890e-03 0.0 
0.0 0.0 -1.115908039155e-03 
-1.698919862003e-03 1.546534393052e-03 0.0 
1.546534393052e-03 6.917732160494e-03 0.0 
0.0 0.0 -1.053364550114e-03 
1.868987763194e-03 2.227953552638e-03 0.0 
2.227953552638e-03 -6.775743179747e-04 0.0 
0.0 0.0 -5.106057622367e-04 
-6.587012442941e-04 1.777273701504e-03 0.0 
1.777273701504e-03 2.655555522869e-03 0.0 
0.0 0.0 -8.209451439681e-04 
-3.975005523331e-04 1.166939029163e-03 0.0 
1.166939029163e-03 4.024011475053e-03 0.0 
0.0 0.0 -1.232292820449e-03 
2.869313435600e-03 1.110657499061e-03 0.0 
1.110657499061e-03 -1.453214644336e-03 0.0 
0.0 0.0 -6.068994819702e-04 
-7.856974671747e-04 -1.309919738143e-03 0.0 
-1.309919738143e-03 2.807619278170e-03 0.0 
0.0 0.0 -8.201145810434e-04 
1.968962910781e-04 1.862464300239e-03 0.0 
1.862464300239e-03 2.595514694035e-03 0.0 
0.0 0.0 -1.105063927110e-03 
-7.017846764740e-04 -1.435456886112e-05 0.0 
-1.435456886112e-05 1.960630528106e-03 0.0 
0.0 0.0 -3.231071520192e-04 
7.474966936510e-04 3.481240265895e-03 0.0 
3.481240265895e-03 1.138823329650e-03 0.0 
0.0 0.0 -8.084228671290e-04 
5.678040040528e-04 5.673257875062e-04 0.0 
5.673257875062e-04 1.874262662432e-03 0.0 
0.0 0.0 -1.046599999922e-03 
-1.677286885825e-03 1.562425953110e-03 0.0 
1.562425953110e-03 7.659770185164e-03 0.0 
0.0 0.0 -1.181155146799e-03 
-1.652320647354e-03 1.808826218554e-03 0.0 
1.808826218554e-03 7.744329424571e-03 0.0 
0.0 0.0 -1.210943746944e-03 
7.584470326040e-04 3.628423669223e-04 0.0 
3.628423669223e-04 1.668047544981e-03 0.0 
0.0 0.0 -1.028825005900e-03 
-1.718024774256e-03 1.129889074764e-03 0.0 
1.129889074764e-03 7.489751701523e-03 0.0 
0.0 0.0 -1.123737208958e-03 
2.593889195352e-03 1.856767809109e-03 0.0 
1.856767809109e-03 -1.126153271608e-03 0.0 
0.0 0.0 -6.290296816045e-04 
-7.519765885532e-04 3.109043581873e-03 0.0 
3.109043581873e-03 4.411738950076e-03 0.0 
0.0 0.0 -1.062452857821e-03 
-9.715076255527e-04 1.639125050494e-03 0.0 
1.639125050494e-03 3.248586274010e-03 0.0 
0.0 0.0 -7.769695025612e-04 
-1.390466882155e-03 3.112822277328e-03 0.0 
3.112822277328e-03 6.316045090648e-03 0.0 
0.0 0.0 -1.181751882508e-03 
-1.269001708520e-03 1.478688136927e-03 0.0 
1.478688136927e-03 3.854232216412e-03 0.0 
0.0 0.0 -7.538120163098e-04 
-1.420223830458e-03 1.391784125232e-03 0.0 
1.391784125232e-03 4.161040048690e-03 0.0 
0.0 0.0 -7.332406657775e-04 
2.298674918512e-03 1.220061250636e-03 0.0 
1.220061250636e-03 -1.173783310071e-03 0.0 
0.0 0.0 -4.820964036177e-04 
-1.557422700527e-03 1.363360327043e-03 0.0 
1.363360327043e-03 4.471575651466e-03 0.0 
0.0 0.0 -7.361032999402e-04 
6.913968744153e-04 3.249644441005e-03 0.0 
3.249644441005e-03 1.296623038176e-03 0.0 
0.0 0.0 -8.520085339679e-04 
1.718973007646e-03 2.924390266821e-03 0.0 
2.924390266821e-03 -1.924867080382e-04 0.0 
0.0 0.0 -6.542084141176e-04 
2.210348991445e-03 -8.088378780929e-04 0.0 
-8.088378780929e-04 -1.123482344713e-03 0.0 
0.0 0.0 -4.657999914567e-04 
2.497491272241e-03 -1.532773257142e-03 0.0 
-1.532773257142e-03 -1.081083643723e-03 0.0 
0.0 0.0 -6.070318407937e-04 
2.586887755130e-03 6.094796342036e-04 0.0 
6.094796342036e-04 -1.311719394663e-03 0.0 
0.0 0.0 -5.465007259145e-04 
-1.601167176657e-03 1.396089815657e-03 0.0 
1.396089815657e-03 7.688892179250e-03 0.0 
0.0 0.0 -1.162517914204e-03 
-1.471528092625e-03 3.001207936412e-03 0.0 
3.001207936412e-03 6.831752371077e-03 0.0 
0.0 0.0 -1.195263893373e-03 
-1.182311321110e-03 -2.133379308242e-03 0.0 
-2.133379308242e-03 4.544787139884e-03 0.0 
0.0 0.0 -1.050100468764e-03 
-1.223721568856e-04 1.745261046552e-03 0.0 
1.745261046552e-03 3.281782845900e-03 0.0 
0.0 0.0 -1.170266998156e-03 
1.214604030940e-03 -2.155562007462e-03 0.0 
-2.155562007462e-03 9.364629533618e-05 0.0 
0.0 0.0 -5.606787112612e-04 
-1.656719624483e-03 1.711448335042e-03 0.0 
1.711448335042e-03 7.275839845738e-03 0.0 
0.0 0.0 -1.119019617531e-03 
2.359890878457e-03 -4.267964440931e-05 0.0 
-4.267964440931e-05 -1.248439169515e-03 0.0 
0.0 0.0 -4.763364466896e-04 
-1.407406798469e-03 -1.723847992245e-03 0.0 
-1.723847992245e-03 5.419782439974e-03 0.0 
0.0 0.0 -1.144395376583e-03 
-1.671654625585e-03 1.497806515934e-03 0.0 
1.497806515934e-03 7.180003972529e-03 0.0 
0.0 0.0 -1.089631904438e-03 
-1.769810542863e-03 1.479525562214e-03 0.0 
1.479525562214e-03 7.051291447038e-03 0.0 
0.0 0.0 -1.080451501872e-03 
1.020279383885e-03 1.759819708792e-05 0.0 
1.759819708792e-05 6.806225927368e-04 0.0 
0.0 0.0 -7.289579899807e-04 
2.670406423032e-03 1.253518595181e-03 0.0 
1.253518595181e-03 -1.265788156022e-03 0.0 
0.0 0.0 -6.019792572900e-04 
-8.493845713370e-04 3.018177913519e-03 0.0 
3.018177913519e-03 4.847344094450e-03 0.0 
0.0 0.0 -1.126038590206e-03 
-1.241437732375e-03 3.272568664608e-03 0.0 
3.272568664608e-03 4.414773958175e-03 0.0 
0.0 0.0 -9.324202963083e-04 
2.392506853527e-03 -2.638222039722e-03 0.0 
-2.638222039722e-03 -9.888506330534e-04 0.0 
0.0 0.0 -6.015669516317e-04 
2.802892214258e-03 -1.137304662585e-05 0.0 
-1.137304662585e-05 -1.333498735436e-03 0.0 
0.0 0.0 -6.297400623524e-04 
7.949185057269e-04 2.716848624173e-03 0.0 
2.716848624173e-03 6.207904953631e-04 0.0 
0.0 0.0 -6.067324290386e-04 
-1.563287978713e-04 3.620132007229e-03 0.0 
3.620132007229e-03 2.581411168791e-03 0.0 
0.0 0.0 -1.015946800258e-03 
-1.534351365184e-03 -1.516799222336e-03 0.0 
-1.516799222336e-03 5.828494836448e-03 0.0 
0.0 0.0 -1.173545322487e-03 
-1.782237154873e-03 1.254534813549e-03 0.0 
1.254534813549e-03 6.967044995053e-03 0.0 
0.0 0.0 -1.051102540299e-03 
2.754613032243e-03 5.835371394657e-04 0.0 
5.835371394657e-04 -1.282545286099e-03 0.0 
0.0 0.0 -6.308861769187e-04 
-6.435068013720e-04 3.480233123954e-03 0.0 
3.480233123954e-03 3.600985193807e-03 0.0 
0.0 0.0 -9.344940742331e-04 
3.980809440766e-04 1.365381173478e-04 0.0 
1.365381173478e-04 2.266784517746e-03 0.0 
0.0 0.0 -1.088599101970e-03 
-1.685240832100e-03 8.774447861184e-04 0.0 
8.774447861184e-04 7.615424303421e-03 0.0 
0.0 0.0 -1.130578931274e-03 
-1.056611405718e-03 3.085021790290e-03 0.0 
3.085021790290e-03 5.374856941272e-03 0.0 
0.0 0.0 -1.160781586281e-03 
-1.731537587415e-03 1.425159992310e-03 0.0 
1.425159992310e-03 6.282505969900e-03 0.0 
0.0 0.0 -9.517943393003e-04 
-1.629224858151e-05 -1.008868814593e-03 0.0 
-1.008868814593e-03 2.976796140904e-03 0.0 
0.0 0.0 -1.113435711030e-03 
2.175710495241e-03 -1.797462906061e-04 0.0 
-1.797462906061e-04 -1.087187483949e-03 0.0 
0.0 0.0 -4.665098619825e-04 
3.691792219411e-04 -5.499254361333e-04 0.0 
-5.499254361333e-04 2.333255494325e-03 0.0 
0.0 0.0 -1.086118700983e-03 
6.267430188437e-04 3.216016004345e-03 0.0 
3.216016004345e-03 1.125673463038e-03 0.0 
0.0 0.0 -7.510356350921e-04 
-1.659468944553e-03 1.282087032836e-03 0.0 
1.282087032836e-03 7.843512833905e-03 0.0 
0.0 0.0 -1.188704642750e-03 
-1.184759635984e-03 3.039469531493e-03 0.0 
3.039469531493e-03 5.917915895918e-03 0.0 
0.0 0.0 -1.200489323427e-03 
1.397717749359e-03 -3.084135371350e-05 0.0 
-3.084135371350e-05 -2.483823730722e-04 0.0 
0.0 0.0 -4.925723041230e-04 
2.632145634489e-03 2.594608975648e-04 0.0 
2.594608975648e-04 -1.433557919304e-03 0.0 
0.0 0.0 -5.136804493649e-04 
-3.195071874589e-04 2.949770132737e-03 0.0 
2.949770132737e-03 3.519559910753e-03 0.0 
0.0 0.0 -1.113685640909e-03 
5.151939740245e-04 3.610223291188e-03 0.0 
3.610223291188e-03 1.499767463066e-03 0.0 
0.0 0.0 -8.635549016102e-04 
2.789061016644e-03 1.329285031073e-03 0.0 
1.329285031073e-03 -1.174648499198e-03 0.0 
0.0 0.0 -6.918910789057e-04 
1.203480951529e-03 -2.452700069764e-04 0.0 
-2.452700069764e-04 3.890277914199e-04 0.0 
0.0 0.0 -6.825037469782e-04 
-1.401752245562e-04 -2.049705526548e-03 0.0 
-2.049705526548e-03 2.929158581755e-03 0.0 
0.0 0.0 -1.072977024862e-03 
2.580288745065e-03 -9.059416529247e-04 0.0 
-9.059416529247e-04 -1.319309692526e-03 0.0 
0.0 0.0 -5.404195939453e-04 
1.923073746863e-03 -4.525221159698e-05 0.0 
-4.525221159698e-05 -9.232494801660e-04 0.0 
0.0 0.0 -4.284961142987e-04 
-1.564398244357e-03 2.691343570358e-03 0.0 
2.691343570358e-03 5.384100406286e-03 0.0 
0.0 0.0 -9.596127204057e-04 
-1.615413359891e-03 -1.869412921893e-03 0.0 
-1.869412921893e-03 5.891470981236e-03 0.0 
0.0 0.0 -1.170838755190e-03 
-1.469366754309e-03 2.906743993666e-03 0.0 
2.906743993666e-03 5.300260062947e-03 0.0 
0.0 0.0 -9.876491701490e-04 
-3.947067001148e-04 3.217756852044e-03 0.0 
3.217756852044e-03 3.568382132428e-03 0.0 
0.0 0.0 -1.085374163265e-03 
-1.640677092253e-03 2.445403796559e-03 0.0 
2.445403796559e-03 5.441088956569e-03 0.0 
0.0 0.0 -9.316602363005e-04 
-1.740388366318e-03 1.924888427331e-03 0.0 
1.924888427331e-03 5.465143202308e-03 0.0 
0.0 0.0 -8.756372412555e-04 
-1.133390563237e-03 3.456670762875e-03 0.0 
3.456670762875e-03 4.264491800942e-03 0.0 
0.0 0.0 -9.452931837154e-04 
1.258865816682e-04 1.427076262396e-03 0.0 
1.427076262396e-03 2.787339061218e-03 0.0 
0.0 0.0 -1.133505030480e-03 
-1.184151913809e-03 -2.442035502192e-03 0.0 
-2.442035502192e-03 4.566403913145e-03 0.0 
0.0 0.0 -1.084522140297e-03 
-1.719906891250e-03 1.595024504340e-03 0.0 
1.595024504340e-03 6.646342255881e-03 0.0 
0.0 0.0 -1.017300281410e-03 
-1.572744207127e-03 2.077724400643e-03 0.0 
2.077724400643e-03 7.699948884985e-03 0.0 
0.0 0.0 -1.212886757924e-03 
-1.697994519952e-03 2.183604815945e-03 0.0 
2.183604815945e-03 5.469670954577e-03 0.0 
0.0 0.0 -9.037302385344e-04 
3.109518991990e-03 7.142103845853e-04 0.0 
7.142103845853e-04 -1.355577660133e-03 0.0 
0.0 0.0 -7.516891422245e-04 
-4.615783183021e-04 2.634115171252e-03 0.0 
2.634115171252e-03 4.171995570701e-03 0.0 
0.0 0.0 -1.146733564437e-03 
-1.623397737588e-03 9.830618757015e-04 0.0 
9.830618757015e-04 7.977997106224e-03 0.0 
0.0 0.0 -1.196744929305e-03 
1.210285564886e-03 2.794819533997e-03 0.0 
2.794819533997e-03 2.142507881916e-04 0.0 
0.0 0.0 -6.105155798904e-04 
7.664634744893e-04 3.055447408668e-03 0.0 
3.055447408668e-03 8.799111198641e-04 0.0 
0.0 0.0 -7.055891118657e-04 
3.026285545234e-03 6.479754984524e-04 0.0 
6.479754984524e-04 -1.309294928286e-03 0.0 
0.0 0.0 -7.358531215491e-04 
-1.707025994169e-03 1.825045050910e-03 0.0 
1.825045050910e-03 6.718430060264e-03 0.0 
0.0 0.0 -1.046609947212e-03 
1.285120213061e-04 3.160317099540e-03 0.0 
3.160317099540e-03 1.795393702842e-03 0.0 
0.0 0.0 -8.245310246350e-04 
6.213466678406e-04 3.150191375349e-03 0.0 
3.150191375349e-03 1.093887972575e-03 0.0 
0.0 0.0 -7.351005601782e-04 
1.723951590445e-04 3.402388421843e-03 0.0 
3.402388421843e-03 1.876640106691e-03 0.0 
0.0 0.0 -8.781579710297e-04 
4.568820957443e-04 1.515113560259e-03 0.0 
1.515113560259e-03 2.072520192967e-03 0.0 
0.0 0.0 -1.068254633495e-03 
-7.126619732765e-04 2.634214240334e-03 0.0 
2.634214240334e-03 4.664743447894e-03 0.0 
0.0 0.0 -1.211228670573e-03 
2.874495408011e-03 -1.147543994212e-04 0.0 
-1.147543994212e-04 -1.321663854737e-03 0.0 
0.0 0.0 -6.654992371173e-04 
1.333222057608e-03 -6.083160362555e-04 0.0 
-6.083160362555e-04 -1.046303648964e-03 0.0 
0.0 0.0 -1.229650322759e-04 
-1.560287505520e-03 2.397443585750e-03 0.0 
2.397443585750e-03 7.445606798374e-03 0.0 
0.0 0.0 -1.207184308065e-03 
-1.227743039735e-04 3.216961996269e-03 0.0 
3.216961996269e-03 2.287126095753e-03 0.0 
0.0 0.0 -9.275793393341e-04 
1.407399929741e-03 -1.790726840241e-03 0.0 
-1.790726840241e-03 -2.123508212015e-04 0.0 
0.0 0.0 -5.121639036598e-04 
-5.005943122338e-04 2.854917982027e-03 0.0 
2.854917982027e-03 4.092431792890e-03 0.0 
0.0 0.0 -1.177925372349e-03 
-1.802105864534e-03 1.325377431051e-03 0.0 
1.325377431051e-03 6.693893706785e-03 0.0 
0.0 0.0 -1.015069748350e-03 
-9.552400268193e-04 -2.590206578427e-03 0.0 
-2.590206578427e-03 4.033946220946e-03 0.0 
0.0 0.0 -1.055879354346e-03 
2.213755167184e-03 2.540569608467e-03 0.0 
2.540569608467e-03 -6.561328527755e-04 0.0 
0.0 0.0 -6.675524204610e-04 
8.596589765025e-04 -2.241190996513e-04 0.0 
-2.241190996513e-04 -8.596589765025e-04 0.0 
0.0 0.0 0.0 
-1.695761363760e-03 -1.692827267884e-03 0.0 
-1.692827267884e-03 6.306533924159e-03 0.0 
0.0 0.0 -1.202131160132e-03 
-2.109701725842e-06 3.652134540712e-03 0.0 
3.652134540712e-03 2.337584034461e-03 0.0 
0.0 0.0 -1.000917571172e-03 
6.440987285096e-04 1.846403855810e-03 0.0 
1.846403855810e-03 1.851485320469e-03 0.0 
0.0 0.0 -1.007142642412e-03 
-8.363103258721e-04 3.298399834443e-03 0.0 
3.298399834443e-03 4.744308506763e-03 0.0 
0.0 0.0 -1.157822513452e-03 
0.0 0.0 0.0 
0.0 0.0 0.0 
0.0 0.0 0.0 
-7.671375815713e-04 -2.153381723597e-03 0.0 
-2.153381723597e-03 3.958636255064e-03 0.0 
0.0 0.0 -1.058763633038e-03 
2.277342632696e-03 2.678034488429e-03 0.0 
2.678034488429e-03 -4.950023667951e-04 0.0 
0.0 0.0 -7.638601139576e-04 
-1.817865112225e-03 1.160846124058e-03 0.0 
1.160846124058e-03 6.325027627169e-03 0.0 
0.0 0.0 -9.498437721210e-04 
-6.483445776371e-04 -2.910728448364e-03 0.0 
-2.910728448364e-03 3.240421631363e-03 0.0 
0.0 0.0 -1.081826897668e-03 
2.882336660409e-03 6.507094583248e-04 0.0 
6.507094583248e-04 -1.354897536976e-03 0.0 
0.0 0.0 -6.546167671857e-04 
-1.512905320875e-03 -2.064322058959e-03 0.0 
-2.064322058959e-03 5.485314435598e-03 0.0 
0.0 0.0 -1.141635569211e-03 
5.629634582603e-04 3.291314317230e-03 0.0 
3.291314317230e-03 1.247171813043e-03 0.0 
0.0 0.0 -7.757722591300e-04 
3.097498388755e-03 7.515594805802e-04 0.0 
7.515594805802e-04 -1.504351798864e-03 0.0 
0.0 0.0 -6.827771099535e-04 
-3.950988348044e-04 3.677355835862e-03 0.0 
3.677355835862e-03 3.018937195948e-03 0.0 
0.0 0.0 -8.989548790023e-04 
1.227636575782e-03 -1.512351808794e-03 0.0 
-1.512351808794e-03 -1.085715777594e-03 0.0 
0.0 0.0 -6.082319922330e-05 
-5.120566939223e-04 3.175912523353e-03 0.0 
3.175912523353e-03 3.844622698218e-03 0.0 
0.0 0.0 -1.026417656363e-03 
5.399418997976e-04 8.396772710701e-04 0.0 
8.396772710701e-04 2.161243029461e-03 0.0 
0.0 0.0 -1.065496432940e-03 
-1.316213487934e-03 3.030027547422e-03 0.0 
3.030027547422e-03 6.243260056489e-03 0.0 
0.0 0.0 -1.233600908384e-03 
-6.242951805065e-04 3.006743678072e-03 0.0 
3.006743678072e-03 4.303063931573e-03 0.0 
0.0 0.0 -1.090749533212e-03 
3.026627229701e-03 -6.016138979488e-05 0.0 
-6.016138979488e-05 -1.354975115356e-03 0.0 
0.0 0.0 -7.164223347191e-04 
-1.354858739815e-03 -2.484739121398e-03 0.0 
-2.484739121398e-03 4.613680447839e-03 0.0 
0.0 0.0 -1.047231727503e-03 
-1.514361396418e-03 1.521820591863e-03 0.0 
1.521820591863e-03 8.031763007479e-03 0.0 
0.0 0.0 -1.228155452712e-03 
-7.050516080877e-04 1.545847486976e-03 0.0 
1.545847486976e-03 4.498069063216e-03 0.0 
0.0 0.0 -1.267145247477e-03 
2.943450069451e-04 1.256402020470e-03 0.0 
1.256402020470e-03 2.679722888331e-03 0.0 
0.0 0.0 -1.102242875413e-03 
2.428652697383e-03 1.957638321578e-03 0.0 
1.957638321578e-03 -9.445444981417e-04 0.0 
0.0 0.0 -6.360463711034e-04 
-4.362885790871e-04 3.400866484877e-03 0.0 
3.400866484877e-03 3.416922100764e-03 0.0 
0.0 0.0 -9.624716764950e-04 
-1.751273191057e-03 -1.178364827428e-03 0.0 
-1.178364827428e-03 6.153449964232e-03 0.0 
0.0 0.0 -1.164316760544e-03 
-1.510592316959e-03 -9.050842607301e-04 0.0 
-9.050842607301e-04 4.622892738446e-03 0.0 
0.0 0.0 -1.053897668350e-03 
-5.098353463404e-04 3.384769362386e-03 0.0 
3.384769362386e-03 3.650364032255e-03 0.0 
0.0 0.0 -1.057196955382e-03 
-1.719373888211e-03 1.382981273232e-03 0.0 
1.382981273232e-03 6.550039956498e-03 0.0 
0.0 0.0 -9.877098122506e-04 
-1.368682583039e-03 -2.262414624365e-03 0.0 
-2.262414624365e-03 5.045630347078e-03 0.0 
0.0 0.0 -1.112977059762e-03 
-8.018931633473e-04 -2.405053121667e-03 0.0 
-2.405053121667e-03 4.002834443873e-03 0.0 
0.0 0.0 -1.093234982489e-03 
-1.439791436846e-03 3.326807682738e-05 0.0 
3.326807682738e-05 4.943594407769e-03 0.0 
0.0 0.0 -7.313513689239e-04 
-1.427152505588e-03 6.033982237060e-05 0.0 
6.033982237060e-05 4.941916582327e-03 0.0 
0.0 0.0 -7.310574395863e-04 
-1.640756721107e-03 2.340459270020e-03 0.0 
2.340459270020e-03 5.815255979654e-03 0.0 
0.0 0.0 -9.927888931628e-04 
-4.210846566685e-04 3.601854565047e-03 0.0 
3.601854565047e-03 3.185506434217e-03 0.0 
0.0 0.0 -9.930598132463e-04 
-9.560102716365e-04 -2.664544190492e-03 0.0 
-2.664544190492e-03 3.772312719303e-03 0.0 
0.0 0.0 -1.075560717398e-03 
-1.206510850392e-03 3.047967158976e-03 0.0 
3.047967158976e-03 4.800933324251e-03 0.0 
0.0 0.0 -9.775429604617e-04 
9.349897265997e-04 2.908831422528e-03 0.0 
2.908831422528e-03 6.057047016785e-04 0.0 
0.0 0.0 -6.602976121192e-04 
-2.228664070200e-04 -2.583623366081e-04 0.0 
-2.583623366081e-04 3.335250712245e-03 0.0 
0.0 0.0 -1.180288150054e-03 
2.187201504106e-03 2.288354873068e-03 0.0 
2.288354873068e-03 -8.791309691096e-04 0.0 
0.0 0.0 -5.606016578557e-04 
-1.487430872272e-03 2.032395386043e-03 0.0 
2.032395386043e-03 8.531052034659e-03 0.0 
0.0 0.0 -1.323793839065e-03 
-1.724651487443e-03 1.733577269253e-03 0.0 
1.733577269253e-03 5.152685708698e-03 0.0 
0.0 0.0 -8.119939454945e-04 
9.559001502051e-04 3.301449321883e-03 0.0 
3.301449321883e-03 8.023167039533e-04 0.0 
0.0 0.0 -7.535215089251e-04 
-6.923989162598e-04 -2.921867110632e-03 0.0 
-2.921867110632e-03 3.238107663680e-03 0.0 
0.0 0.0 -9.778014170609e-04 
2.952487269304e-03 8.767188776773e-04 0.0 
8.767188776773e-04 -1.231732878316e-03 0.0 
0.0 0.0 -7.374661675664e-04 
-1.449260709310e-04 -3.081657457247e-03 0.0 
-3.081657457247e-03 2.244720614764e-03 0.0 
0.0 0.0 -8.999119473571e-04 
-2.467797576170e-04 3.715212164584e-03 0.0 
3.715212164584e-03 2.738719973416e-03 0.0 
0.0 0.0 -9.758126512751e-04 
-5.058945486498e-04 3.618733188483e-03 0.0 
3.618733188483e-03 3.154888480052e-03 0.0 
0.0 0.0 -9.833357802921e-04 
-1.733759676165e-03 1.654794489536e-03 0.0 
1.654794489536e-03 6.367451579884e-03 0.0 
0.0 0.0 -9.814596669550e-04 
-1.124005872780e-03 3.379084100680e-03 0.0 
3.379084100680e-03 4.616783585522e-03 0.0 
0.0 0.0 -1.008022096355e-03 
-1.207720735867e-03 2.984451381318e-03 0.0 
2.984451381318e-03 5.147076662744e-03 0.0 
0.0 0.0 -1.040850218070e-03 
2.462504755941e-04 -3.466601191775e-04 0.0 
-3.466601191775e-04 1.225957598323e-03 0.0 
0.0 0.0 -3.048810613884e-04 
-2.528363505661e-04 -3.115888982409e-03 0.0 
-3.115888982409e-03 2.486992936593e-03 0.0 
0.0 0.0 -9.574956797260e-04 
-1.072167557266e-04 3.402438706717e-03 0.0 
3.402438706717e-03 2.375040834749e-03 0.0 
0.0 0.0 -9.719246052952e-04 
-1.390405142798e-03 3.085939311603e-03 0.0 
3.085939311603e-03 4.874750960273e-03 0.0 
0.0 0.0 -9.521954671713e-04 
-1.463685875107e-03 2.723658434378e-03 0.0 
2.723658434378e-03 5.354618705334e-03 0.0 
0.0 0.0 -9.850634846466e-04 
6.151608619480e-06 9.602693822456e-04 0.0 
9.602693822456e-04 3.003172333009e-03 0.0 
0.0 0.0 -1.160108757481e-03 
-7.116028528234e-04 -3.542186094007e-05 0.0 
-3.542186094007e-05 2.109496799795e-03 0.0 
0.0 0.0 -4.489418961951e-04 
2.420991236615e-03 -1.793290854156e-03 0.0 
-1.793290854156e-03 -1.206914640352e-03 0.0 
0.0 0.0 -5.203185412556e-04 
3.220195077698e-04 3.501557464345e-03 0.0 
3.501557464345e-03 1.705209014718e-03 0.0 
0.0 0.0 -8.688122239235e-04 
-2.823129498517e-04 -2.964277233818e-03 0.0 
-2.964277233818e-03 2.454860756862e-03 0.0 
0.0 0.0 -9.310919172903e-04 
-1.415275034250e-03 1.292164494452e-03 0.0 
1.292164494452e-03 4.167269738145e-03 0.0 
0.0 0.0 -7.665650418521e-04 
-1.567864091306e-03 1.226683465556e-03 0.0 
1.226683465556e-03 4.493286725470e-03 0.0 
0.0 0.0 -7.530137074853e-04 
-1.810136366687e-03 1.412997826384e-03 0.0 
1.412997826384e-03 6.411444835685e-03 0.0 
0.0 0.0 -9.793492904611e-04 
2.087664328359e-03 2.568536785539e-03 0.0 
2.568536785539e-03 -3.889452908062e-04 0.0 
0.0 0.0 -7.280224446655e-04 
-7.741376345699e-04 -2.792621548151e-03 0.0 
-2.792621548151e-03 3.378364177398e-03 0.0 
0.0 0.0 -1.004244986112e-03 
4.531124457367e-04 -1.076750210340e-03 0.0 
-1.076750210340e-03 2.037967656610e-03 0.0 
0.0 0.0 -1.049209916622e-03 
2.297209205504e-03 -5.483206442365e-04 0.0 
-5.483206442365e-04 -1.311033635610e-03 0.0 
0.0 0.0 -4.226466728115e-04 
-1.149618319309e-03 2.959992214286e-03 0.0 
2.959992214286e-03 5.456359281312e-03 0.0 
0.0 0.0 -1.285586381397e-03 
-1.702357103576e-03 1.352649744862e-03 0.0 
1.352649744862e-03 7.576949821791e-03 0.0 
0.0 0.0 -1.152455342817e-03 
-8.320143767109e-04 -2.543685297260e-03 0.0 
-2.543685297260e-03 3.497707295059e-03 0.0 
0.0 0.0 -1.095064427584e-03 
-1.386779618523e-03 -1.910481505052e-03 0.0 
-1.910481505052e-03 5.018049845752e-03 0.0 
0.0 0.0 -1.078722419643e-03 
2.229975894309e-04 -4.489617714331e-04 0.0 
-4.489617714331e-04 5.979694486616e-04 0.0 
0.0 0.0 -2.949115613585e-04 
4.540170595140e-04 -1.645489130381e-03 0.0 
-1.645489130381e-03 1.801582255490e-03 0.0 
0.0 0.0 -9.666854207159e-04 
-6.035540888641e-05 3.789347029411e-03 0.0 
3.789347029411e-03 2.399475313532e-03 0.0 
0.0 0.0 -8.867106850074e-04 
4.160484422948e-04 -3.622442174599e-04 0.0 
-3.622442174599e-04 5.441875866839e-04 0.0 
0.0 0.0 -3.067690066256e-04 
-1.619412582140e-03 1.641534764462e-03 0.0 
1.641534764462e-03 7.530266774085e-03 0.0 
0.0 0.0 -1.154859126927e-03 
1.948099663815e-03 -7.569421743857e-04 0.0 
-7.569421743857e-04 -1.147440738389e-03 0.0 
0.0 0.0 -3.431395394681e-04 
-1.356737557429e-03 2.911706860265e-03 0.0 
2.911706860265e-03 4.923580709307e-03 0.0 
0.0 0.0 -9.496453321265e-04 
-5.843331771905e-04 3.664260117298e-03 0.0 
3.664260117298e-03 3.237703376181e-03 0.0 
0.0 0.0 -8.924259012440e-04 
1.585702125321e-03 -1.745985882028e-03 0.0 
-1.745985882028e-03 -4.551642142342e-04 0.0 
0.0 0.0 -4.845162476087e-04 
3.886198775371e-04 -2.656776709997e-03 0.0 
-2.656776709997e-03 1.521016158266e-03 0.0 
0.0 0.0 -8.184154439158e-04 
-1.604458387616e-03 1.854152015569e-03 0.0 
1.854152015569e-03 7.626319442818e-03 0.0 
0.0 0.0 -1.182898372388e-03 
1.911502030331e-04 -2.214449408558e-03 0.0 
-2.214449408558e-03 2.167051973238e-03 0.0 
0.0 0.0 -9.716005391690e-04 
4.578213256305e-04 3.411459955915e-03 0.0 
3.411459955915e-03 1.456160682634e-03 0.0 
0.0 0.0 -8.202780035418e-04 
3.627077773465e-04 3.714478666179e-03 0.0 
3.714478666179e-03 1.773296424289e-03 0.0 
0.0 0.0 -9.111404029742e-04 
1.874131474266e-04 1.317598379107e-03 0.0 
1.317598379107e-03 5.481764939296e-04 0.0 
0.0 0.0 -3.152527034384e-04 
1.643748758810e-03 -4.204231761426e-04 0.0 
-4.204231761426e-04 -1.117599327178e-03 0.0 
0.0 0.0 -2.254926135565e-04 
-5.203694144565e-04 2.878386602619e-03 0.0 
2.878386602619e-03 4.197902991695e-03 0.0 
0.0 0.0 -1.118331045454e-03 
-1.809983628728e-03 1.593568509076e-03 0.0 
1.593568509076e-03 5.817131701425e-03 0.0 
0.0 0.0 -9.085367473448e-04 
-5.577334774044e-04 3.082426156906e-03 0.0 
3.082426156906e-03 4.104685153811e-03 0.0 
0.0 0.0 -1.148691026115e-03 
1.974680470733e-03 2.873021825660e-03 0.0 
2.873021825660e-03 -4.940617528099e-04 0.0 
0.0 0.0 -6.345508791099e-04 
-1.588961869452e-03 2.584393938582e-03 0.0 
2.584393938582e-03 6.455891274831e-03 0.0 
0.0 0.0 -1.097950598811e-03 
-7.723714131083e-04 2.927319470345e-03 0.0 
2.927319470345e-03 4.791549148204e-03 0.0 
0.0 0.0 -1.155407764312e-03 
-1.528620740983e-03 1.641090201076e-03 0.0 
1.641090201076e-03 4.483124494598e-03 0.0 
0.0 0.0 -7.696970057192e-04 
-6.364037100851e-04 3.205127351833e-03 0.0 
3.205127351833e-03 4.133031580390e-03 0.0 
0.0 0.0 -1.120992621467e-03 
-1.531289715330e-03 -2.235814658200e-03 0.0 
-2.235814658200e-03 5.083560864057e-03 0.0 
0.0 0.0 -1.075946734593e-03 
-1.542078502361e-04 3.681831680089e-03 0.0 
3.681831680089e-03 2.560354402538e-03 0.0 
0.0 0.0 -9.606735922745e-04 
-4.462082875552e-04 -3.056851139717e-03 0.0 
-3.056851139717e-03 2.847631123845e-03 0.0 
0.0 0.0 -1.006543408955e-03 
-3.390473984761e-04 -3.081268501996e-03 0.0 
-3.081268501996e-03 2.650937052075e-03 0.0 
0.0 0.0 -9.908098515424e-04 
-1.654766843293e-03 2.110154288789e-03 0.0 
2.110154288789e-03 7.526175185133e-03 0.0 
0.0 0.0 -1.204704583718e-03 
6.478121330843e-04 -2.891464683005e-03 0.0 
-2.891464683005e-03 9.158033438757e-04 0.0 
0.0 0.0 -6.701209186971e-04 
-3.674328541616e-04 3.694790859021e-03 0.0 
3.694790859021e-03 2.941360548218e-03 0.0 
0.0 0.0 -9.833476869619e-04 
1.512914527637e-03 2.270095044354e-03 0.0 
2.270095044354e-03 -2.495167818894e-04 0.0 
0.0 0.0 -5.414561767490e-04 
-4.689248235341e-05 -1.859495784931e-03 0.0 
-1.859495784931e-03 2.784842397477e-03 0.0 
0.0 0.0 -1.038364586984e-03 
1.508518420493e-03 2.943740230317e-03 0.0 
2.943740230317e-03 4.760392635737e-05 0.0 
0.0 0.0 -6.669095772216e-04 
3.102345530720e-03 7.378269526544e-05 0.0 
7.378269526544e-05 -1.464469892876e-03 0.0 
0.0 0.0 -7.019467019332e-04 
1.507578771505e-03 -7.604032194635e-04 0.0 
-7.604032194635e-04 -4.928220476776e-04 0.0 
0.0 0.0 -4.348957387830e-04 
3.148975456484e-03 8.306636056168e-04 0.0 
8.306636056168e-04 -1.496370463473e-03 0.0 
0.0 0.0 -7.082592827190e-04 
-1.261991141926e-03 3.267444165813e-03 0.0 
3.267444165813e-03 4.752384958846e-03 0.0 
0.0 0.0 -9.799122972177e-04 
3.123536661893e-03 -9.721135346994e-05 0.0 
-9.721135346994e-05 -1.405927083563e-03 0.0 
0.0 0.0 -7.361183907127e-04 
-1.047249439091e-03 3.250277679615e-03 0.0 
3.250277679615e-03 4.315763371752e-03 0.0 
0.0 0.0 -9.420580210740e-04 
1.883489007768e-04 8.010579783403e-04 0.0 
8.010579783403e-04 2.876523535355e-03 0.0 
0.0 0.0 -1.130549445556e-03 
3.588863471818e-04 1.014874640691e-03 0.0 
1.014874640691e-03 2.306525440664e-03 0.0 
0.0 0.0 -1.096529089934e-03 
1.700464822711e-03 2.598856322658e-03 0.0 
2.598856322658e-03 -4.407098144151e-04 0.0 
0.0 0.0 -5.398950035552e-04 
-1.732708782740e-03 1.731245879395e-03 0.0 
1.731245879395e-03 6.071080868846e-03 0.0 
0.0 0.0 -9.460253849645e-04 
-1.548270655095e-03 -1.671057713006e-03 0.0 
-1.671057713006e-03 5.446327602559e-03 0.0 
0.0 0.0 -1.107441567342e-03 
-1.667313564664e-03 -1.981097125204e-03 0.0 
-1.981097125204e-03 5.509726630970e-03 0.0 
0.0 0.0 -1.104747680386e-03 
1.318532451431e-03 2.199681040646e-03 0.0 
2.199681040646e-03 -1.454539841179e-04 0.0 
0.0 0.0 -5.027479145627e-04 
-9.715008187727e-04 3.547635970715e-03 0.0 
3.547635970715e-03 4.097719530490e-03 0.0 
0.0 0.0 -9.724793438395e-04 
-1.624312607657e-03 -1.275879739373e-03 0.0 
-1.275879739373e-03 6.206545711786e-03 0.0 
0.0 0.0 -1.205818386895e-03 
-2.985133365854e-04 2.525233875689e-03 0.0 
2.525233875689e-03 2.218258876373e-03 0.0 
0.0 0.0 -8.227480884806e-04 
-1.021411894397e-03 -2.472960565398e-03 0.0 
-2.472960565398e-03 3.861949643739e-03 0.0 
0.0 0.0 -1.085013296808e-03 
1.242793848756e-04 1.186515148645e-03 0.0 
1.186515148645e-03 5.554989300674e-04 0.0 
0.0 0.0 -2.913335635470e-04 
-1.667346094177e-03 -1.424810251550e-03 0.0 
-1.424810251550e-03 5.825346578498e-03 0.0 
0.0 0.0 -1.136235114959e-03 
3.019668846566e-03 9.582089678435e-04 0.0 
9.582089678435e-04 -1.448201355488e-03 0.0 
0.0 0.0 -6.734860676048e-04 
-1.578302787965e-03 -5.539699262797e-04 0.0 
-5.539699262797e-04 4.756261434844e-03 0.0 
0.0 0.0 -1.057437106069e-03 
4.911868189057e-04 2.542757255714e-03 0.0 
2.542757255714e-03 1.777357060087e-03 0.0 
0.0 0.0 -9.722330909969e-04 
-1.811529723315e-03 1.498050121893e-03 0.0 
1.498050121893e-03 6.116522056800e-03 0.0 
0.0 0.0 -9.438854677472e-04 
-1.729248363348e-03 1.804686593249e-03 0.0 
1.804686593249e-03 5.771244996451e-03 0.0 
0.0 0.0 -9.108073647307e-04 
1.218753398279e-04 3.628872757319e-03 0.0 
3.628872757319e-03 2.104833384723e-03 0.0 
0.0 0.0 -9.543037390934e-04 
-1.106695794268e-03 1.517581520969e-03 0.0 
1.517581520969e-03 3.539684992285e-03 0.0 
0.0 0.0 -7.963586959451e-04 
-1.268797780777e-03 1.437345509075e-03 0.0 
1.437345509075e-03 3.867869279896e-03 0.0 
0.0 0.0 -7.758011671882e-04 
-1.764900971931e-03 -1.718354051601e-03 0.0 
-1.718354051601e-03 5.889801463908e-03 0.0 
0.0 0.0 -1.133400347077e-03 
2.569249843707e-04 -2.786570784076e-03 0.0 
-2.786570784076e-03 1.556740733674e-03 0.0 
0.0 0.0 -7.772853077335e-04 
1.174175751745e-03 -1.803885435246e-03 0.0 
-1.803885435246e-03 -1.174563587325e-05 0.0 
0.0 0.0 -4.981843353734e-04 
5.912929398665e-04 -9.060768193030e-04 0.0 
-9.060768193030e-04 1.727113514221e-03 0.0 
0.0 0.0 -9.936027660373e-04 
2.016096735556e-03 -6.850330429382e-04 0.0 
-6.850330429382e-04 -9.758089702167e-04 0.0 
0.0 0.0 -4.458376137168e-04 
3.081197548797e-03 7.466969370712e-04 0.0 
7.466969370712e-04 -1.300129295292e-03 0.0 
0.0 0.0 -7.633149657881e-04 
-1.128831614242e-03 1.542551351037e-03 0.0 
1.542551351037e-03 3.551129300523e-03 0.0 
0.0 0.0 -7.520787537531e-04 
-1.821423928511e-03 1.474632635918e-03 0.0 
1.474632635918e-03 5.487726439764e-03 0.0 
0.0 0.0 -8.442294783838e-04 
-1.409406014707e-03 4.528826506854e-05 0.0 
4.528826506854e-05 5.214877225355e-03 0.0 
0.0 0.0 -7.121995050294e-04 
4.077287179479e-04 3.674953038794e-04 0.0 
3.674953038794e-04 2.393170375530e-03 0.0 
0.0 0.0 -1.093598669875e-03 
1.997342351340e-03 2.504018622736e-03 0.0 
2.504018622736e-03 -5.807467309884e-04 0.0 
0.0 0.0 -6.071124087219e-04 
-4.482284720357e-04 1.652414080391e-03 0.0 
1.652414080391e-03 3.958656300163e-03 0.0 
0.0 0.0 -1.233571955743e-03 
-2.022662331208e-03 -4.627058437959e-04 0.0 
-4.627058437959e-04 6.332672682848e-03 0.0 
0.0 0.0 -1.121177773779e-03 
1.798099945912e-03 -8.661440026173e-04 0.0 
-8.661440026173e-04 -7.288088564904e-04 0.0 
0.0 0.0 -4.582676097521e-04 
-1.524985310237e-03 -1.822620195545e-03 0.0 
-1.822620195545e-03 6.245562815238e-03 0.0 
0.0 0.0 -1.241472629463e-03 
3.003131752772e-03 -8.623198735716e-04 0.0 
-8.623198735716e-04 -1.396381984480e-03 0.0 
0.0 0.0 -6.886070435535e-04 
-3.779034990216e-04 2.052169755275e-03 0.0 
2.052169755275e-03 3.788846745744e-03 0.0 
0.0 0.0 -1.204482468497e-03 
1.415534273829e-04 3.636591431357e-03 0.0 
3.636591431357e-03 2.169944347150e-03 0.0 
0.0 0.0 -8.910665706739e-04 
8.940143763455e-06 3.422262264522e-03 0.0 
3.422262264522e-03 2.416052284656e-03 0.0 
0.0 0.0 -9.848034212814e-04 
-1.370477965762e-04 -1.170123439274e-03 0.0 
-1.170123439274e-03 3.214973093205e-03 0.0 
0.0 0.0 -1.146785027167e-03 
3.884013163081e-04 -2.855323367017e-03 0.0 
-2.855323367017e-03 1.211719834243e-03 0.0 
0.0 0.0 -6.857662073788e-04 
-7.129927410741e-04 3.670079492291e-03 0.0 
3.670079492291e-03 3.538541594785e-03 0.0 
0.0 0.0 -9.649174008510e-04 
1.717035050200e-03 -1.344860437860e-03 0.0 
-1.344860437860e-03 -6.217055712217e-04 0.0 
0.0 0.0 -4.694269195620e-04 
-8.587679122771e-04 3.481313587749e-03 0.0 
3.481313587749e-03 3.794469535060e-03 0.0 
0.0 0.0 -9.065670216064e-04 
1.889810402813e-03 2.899509189946e-03 0.0 
2.899509189946e-03 -2.152817456685e-04 0.0 
0.0 0.0 -7.176551387762e-04 
1.428912843794e-04 3.126816861625e-03 0.0 
3.126816861625e-03 2.356543378173e-03 0.0 
0.0 0.0 -1.013229387512e-03 
1.943775632291e-03 -1.286497408609e-03 0.0 
-1.286497408609e-03 -8.334086717492e-04 0.0 
0.0 0.0 -4.758715545177e-04 
-1.000337791729e-03 -2.628959420428e-03 0.0 
-2.628959420428e-03 3.773462867951e-03 0.0 
0.0 0.0 -9.886579807222e-04 
-8.325357311160e-04 3.547635505547e-03 0.0 
3.547635505547e-03 3.716995785029e-03 0.0 
0.0 0.0 -9.612835620876e-04 
2.687167972919e-04 1.795311194676e-03 0.0 
1.795311194676e-03 1.563575924244e-04 0.0 
0.0 0.0 -1.821747384498e-04 
1.057813883420e-03 2.534506278338e-03 0.0 
2.534506278338e-03 3.175156107454e-04 0.0 
0.0 0.0 -5.894269260710e-04 
4.651919044669e-04 1.924261843739e-03 0.0 
1.924261843739e-03 5.725607713308e-04 0.0 
0.0 0.0 -4.447511467704e-04 
-3.371303889653e-04 -7.500919376923e-04 0.0 
-7.500919376923e-04 1.299829984783e-03 0.0 
0.0 0.0 -4.040777003935e-04 
-1.056371726126e-03 -2.468497531733e-03 0.0 
-2.468497531733e-03 3.865104933196e-03 0.0 
0.0 0.0 -1.010653628765e-03 
-9.607789536057e-04 3.048565223821e-03 0.0 
3.048565223821e-03 4.940644900743e-03 0.0 
0.0 0.0 -1.098354823938e-03 
-1.707850550320e-03 2.055402839425e-03 0.0 
2.055402839425e-03 5.786469608898e-03 0.0 
0.0 0.0 -9.387552692591e-04 
-7.756723233026e-04 1.730094175383e-03 0.0 
1.730094175383e-03 2.916527936956e-03 0.0 
0.0 0.0 -8.497951325312e-04 
-1.342322198460e-03 2.098270725376e-03 0.0 
2.098270725376e-03 8.248661573518e-03 0.0 
0.0 0.0 -1.342322198460e-03 
-1.672187532771e-04 1.985858802812e-03 0.0 
1.985858802812e-03 2.474410086190e-04 0.0 
0.0 0.0 -3.438096657507e-05 
-9.510393810217e-04 1.672687846132e-03 0.0 
1.672687846132e-03 3.246503304730e-03 0.0 
0.0 0.0 -8.134098498104e-04 
1.098475143763e-03 -2.031876221816e-03 0.0 
-2.031876221816e-03 1.166483383452e-04 0.0 
0.0 0.0 -5.207672066180e-04 
-1.089976521784e-03 -2.234801732660e-03 0.0 
-2.234801732660e-03 3.943897982090e-03 0.0 
0.0 0.0 -1.084767721667e-03 
-1.111038172895e-03 2.200189741588e-03 0.0 
2.200189741588e-03 3.768833115442e-03 0.0 
0.0 0.0 -8.610308207870e-04 
2.262464148868e-03 -1.945012542063e-03 0.0 
-1.945012542063e-03 -8.191237484730e-04 0.0 
0.0 0.0 -6.185744573122e-04 
5.761048584873e-04 -2.775225325336e-03 0.0 
-2.775225325336e-03 9.303736926874e-04 0.0 
0.0 0.0 -6.456336647891e-04 
-1.625181255020e-04 3.528619970826e-03 0.0 
3.528619970826e-03 2.809301514261e-03 0.0 
0.0 0.0 -9.266779469803e-04 
7.488835648315e-04 2.251240740231e-03 0.0 
2.251240740231e-03 1.162555029076e-03 0.0 
0.0 0.0 -8.191879688175e-04 
-1.329752805185e-03 3.181517598016e-03 0.0 
3.181517598016e-03 5.907007101231e-03 0.0 
0.0 0.0 -1.144302277022e-03 
1.946489244002e-03 2.821542424935e-03 0.0 
2.821542424935e-03 -8.035545710095e-04 0.0 
0.0 0.0 -4.898291455683e-04 
-8.586335344055e-04 -2.592060326530e-03 0.0 
-2.592060326530e-03 3.501562453949e-03 0.0 
0.0 0.0 -1.023226067289e-03 
-1.335563518602e-03 -1.880041070522e-03 0.0 
-1.880041070522e-03 4.351195601973e-03 0.0 
0.0 0.0 -1.033071644556e-03 
-2.022124363338e-05 -2.395587679301e-03 0.0 
-2.395587679301e-03 1.567846091858e-03 0.0 
0.0 0.0 -6.632677920962e-04 
-1.674900766220e-03 1.599025443535e-03 0.0 
1.599025443535e-03 4.804084785627e-03 0.0 
0.0 0.0 -7.663799295492e-04 
-1.769874274313e-03 1.858383186956e-03 0.0 
1.858383186956e-03 5.835930784600e-03 0.0 
0.0 0.0 -9.362314798257e-04 
-2.069835677089e-03 -4.002455476683e-04 0.0 
-4.002455476683e-04 5.909495734486e-03 0.0 
0.0 0.0 -1.073191215027e-03 
1.059197299257e-03 -5.440939611188e-04 0.0 
-5.440939611188e-04 5.670737881280e-04 0.0 
0.0 0.0 -3.365581251930e-04 
0.0 0.0 0.0 
0.0 0.0 0.0 
0.0 0.0 0.0 
-4.602170046064e-05 -1.936536183988e-03 0.0 
-1.936536183988e-03 1.323038368316e-03 0.0 
0.0 0.0 -5.472928576524e-04 
-1.313750205869e-03 -1.893362186714e-03 0.0 
-1.893362186714e-03 4.351424993746e-03 0.0 
0.0 0.0 -1.080662880999e-03 
2.816321063082e-03 -8.334388727588e-04 0.0 
-8.334388727588e-04 -1.272649618703e-03 0.0 
0.0 0.0 -6.615734761625e-04 
2.373065583622e-03 -2.080956134851e-03 0.0 
-2.080956134851e-03 -1.010649277428e-03 0.0 
0.0 0.0 -5.838927026542e-04 
2.954183213689e-03 -8.930251278497e-04 0.0 
-8.930251278497e-04 -1.356411275311e-03 0.0 
0.0 0.0 -6.847594021618e-04 
-1.301232695251e-03 -2.116378151629e-03 0.0 
-2.116378151629e-03 4.314126103213e-03 0.0 
0.0 0.0 -1.020860678390e-03 
-1.603005468093e-03 2.550878726920e-03 0.0 
2.550878726920e-03 5.754736739264e-03 0.0 
0.0 0.0 -9.956198530692e-04 
-1.518941795168e-03 -1.499106977263e-03 0.0 
-1.499106977263e-03 4.706029179031e-03 0.0 
0.0 0.0 -1.043188517862e-03 
2.974270505683e-03 -1.234815007946e-05 0.0 
-1.234815007946e-05 -1.384428534307e-03 0.0 
0.0 0.0 -6.813608448753e-04 
-8.631645989931e-04 3.291242542591e-03 0.0 
3.291242542591e-03 4.149472146392e-03 0.0 
0.0 0.0 -9.699423737970e-04 
-1.666656418554e-03 8.515973861887e-04 0.0 
8.515973861887e-04 5.656067677278e-03 0.0 
0.0 0.0 -8.236220363599e-04 
2.293852952879e-04 2.317534078424e-03 0.0 
2.317534078424e-03 2.464619361077e-03 0.0 
0.0 0.0 -1.076197569190e-03 
-1.503911657480e-03 -1.536228813635e-03 0.0 
-1.536228813635e-03 4.713514709764e-03 0.0 
0.0 0.0 -1.079735805607e-03 
-1.269594224654e-03 -2.151916428327e-03 0.0 
-2.151916428327e-03 4.311241093571e-03 0.0 
0.0 0.0 -1.081849276551e-03 
-4.912617181252e-04 1.776659374520e-03 0.0 
1.776659374520e-03 2.250419150674e-03 0.0 
0.0 0.0 -7.539246139495e-04 
2.432965561316e-03 -1.404722775878e-03 0.0 
-1.404722775878e-03 -1.097996306609e-03 0.0 
0.0 0.0 -5.721296805886e-04 
-1.672927313923e-03 -1.115371020166e-03 0.0 
-1.115371020166e-03 5.017856732658e-03 0.0 
0.0 0.0 -1.052805964859e-03 
-1.580075754320e-03 2.157353104837e-04 0.0 
2.157353104837e-04 6.692661968395e-03 0.0 
0.0 0.0 -9.615701295831e-04 
-1.562907036777e-03 2.120583330649e-04 0.0 
2.120583330649e-04 6.337987109484e-03 0.0 
0.0 0.0 -8.972249362023e-04 
-6.223529423683e-04 1.809817658288e-03 0.0 
1.809817658288e-03 2.623397927817e-03 0.0 
0.0 0.0 -8.575907080495e-04 
-1.509705893005e-03 -1.747591078712e-03 0.0 
-1.747591078712e-03 4.715855182949e-03 0.0 
0.0 0.0 -1.032785096058e-03 
1.569414128809e-03 -2.550888608895e-03 0.0 
-2.550888608895e-03 -3.370499251341e-04 0.0 
0.0 0.0 -5.281560872893e-04 
8.209882341614e-04 2.381580320664e-03 0.0 
2.381580320664e-03 4.553315452112e-04 0.0 
0.0 0.0 -5.469941911596e-04 
-2.931643961127e-04 1.527189756473e-03 0.0 
1.527189756473e-03 3.869126548266e-03 0.0 
0.0 0.0 -1.202908440308e-03 
1.382596818972e-04 -2.070148021774e-03 0.0 
-2.070148021774e-03 1.091658495820e-03 0.0 
0.0 0.0 -5.271077904503e-04 
1.398235426833e-03 -2.548773596058e-03 0.0 
-2.548773596058e-03 -7.584749764512e-05 0.0 
0.0 0.0 -5.667376839375e-04 
1.254646909069e-03 2.484629242297e-03 0.0 
2.484629242297e-03 3.513264158718e-04 0.0 
0.0 0.0 -6.882742821176e-04 
-8.245697505670e-04 1.707333830662e-03 0.0 
1.707333830662e-03 2.953610139157e-03 0.0 
0.0 0.0 -7.843752346430e-04 
-1.666758732331e-03 -1.174236117568e-03 0.0 
-1.174236117568e-03 5.037001804565e-03 0.0 
0.0 0.0 -1.079856008588e-03 
-9.244628747481e-04 -1.936309255703e-04 0.0 
-1.936309255703e-04 2.822852214519e-03 0.0 
0.0 0.0 -6.624393034254e-04 
-1.781970376818e-03 1.286452196400e-03 0.0 
1.286452196400e-03 5.020731578576e-03 0.0 
0.0 0.0 -7.824198048058e-04 
-1.484587749919e-03 -1.812874826371e-03 0.0 
-1.812874826371e-03 4.718401123365e-03 0.0 
0.0 0.0 -1.081372135754e-03 
1.084769609676e-03 -2.051097269290e-03 0.0 
-2.051097269290e-03 1.328211131768e-04 0.0 
0.0 0.0 -5.218245955084e-04 
-7.383188819978e-04 -2.755351396555e-03 0.0 
-2.755351396555e-03 3.375108004806e-03 0.0 
0.0 0.0 -1.093992571453e-03 
0.0 0.0 0.0 
0.0 0.0 0.0 
0.0 0.0 0.0 
-1.585395185030e-03 -8.733622601649e-05 0.0 
-8.733622601649e-05 7.915806537563e-03 0.0 
0.0 0.0 -1.152567315725e-03 
1.675271907871e-03 -2.177617042757e-03 0.0 
-2.177617042757e-03 -5.173898653476e-04 0.0 
0.0 0.0 -4.962351610816e-04 
3.706447397785e-05 2.070351060898e-04 0.0 
2.070351060898e-04 3.044600736775e-03 0.0 
0.0 0.0 -1.154039482800e-03 
2.069033457779e-04 2.961881208612e-03 0.0 
2.961881208612e-03 2.494592241471e-03 0.0 
0.0 0.0 -9.821191134873e-04 
-1.685773855788e-03 -1.377399783606e-03 0.0 
-1.377399783606e-03 5.070521373149e-03 0.0 
0.0 0.0 -1.044398856648e-03 
-1.669266621470e-03 -1.454184032041e-03 0.0 
-1.454184032041e-03 5.079788696568e-03 0.0 
0.0 0.0 -1.081576243284e-03 
2.914990553637e-03 -7.685843879532e-04 0.0 
-7.685843879532e-04 -1.358389786941e-03 0.0 
0.0 0.0 -6.671146142983e-04 
1.578300081431e-04 -1.839580637340e-03 0.0 
-1.839580637340e-03 9.146826550122e-04 0.0 
0.0 0.0 -4.596482842094e-04 
5.655633450819e-04 1.634462446329e-03 0.0 
1.634462446329e-03 -4.353216112412e-04 0.0 
0.0 0.0 -5.581788593170e-05 
-1.838374468884e-03 -1.008357892208e-03 0.0 
-1.008357892208e-03 5.389548205880e-03 0.0 
0.0 0.0 -1.053342186814e-03 
-7.735429255110e-05 -5.938829985412e-04 0.0 
-5.938829985412e-04 3.207515001155e-03 0.0 
0.0 0.0 -1.148056181429e-03 
8.407270435530e-04 -2.401906140793e-03 0.0 
-2.401906140793e-03 4.680800088294e-04 0.0 
0.0 0.0 -5.609173081639e-04 
-8.059519139880e-04 3.569609752867e-03 0.0 
3.569609752867e-03 3.937575205409e-03 0.0 
0.0 0.0 -1.000702849114e-03 
-1.423128099077e-04 2.434671484328e-03 0.0 
2.434671484328e-03 1.829214520191e-03 0.0 
0.0 0.0 -7.229578758357e-04 
-1.050409536978e-03 3.126628093613e-03 0.0 
3.126628093613e-03 4.667808075339e-03 0.0 
0.0 0.0 -1.005614027492e-03 
-9.737300203529e-04 -1.654439195094e-03 0.0 
-1.654439195094e-03 5.294537233988e-03 0.0 
0.0 0.0 -1.266534580134e-03 
0.0 0.0 0.0 
0.0 0.0 0.0 
0.0 0.0 0.0 
-1.341620833825e-03 1.946460220436e-04 0.0 
1.946460220436e-04 8.726655578502e-03 0.0 
0.0 0.0 -1.341620833825e-03 
-1.340051318819e-03 -5.222823624513e-04 0.0 
-5.222823624513e-04 7.102242080382e-03 0.0 
0.0 0.0 -1.340051318819e-03 
-1.487218295656e-03 -1.877140319118e-04 0.0 
-1.877140319118e-04 5.546795712007e-03 0.0 
0.0 0.0 -7.955197795907e-04 
9.332368058577e-04 -2.323240235713e-03 0.0 
-2.323240235713e-03 3.557999178189e-04 0.0 
0.0 0.0 -5.524443101471e-04 
4.489255113101e-05 3.284657334475e-03 0.0 
3.284657334475e-03 2.631811467132e-03 0.0 
0.0 0.0 -9.543595451431e-04 
3.058132153657e-03 -1.043711929510e-04 0.0 
-1.043711929510e-04 -1.411540431284e-03 0.0 
0.0 0.0 -7.056821667315e-04 
-3.299569164523e-05 -1.162968038586e-03 0.0 
-1.162968038586e-03 1.091173189700e-03 0.0 
0.0 0.0 -3.090400745732e-04 
-5.009462419672e-05 1.601961848337e-03 0.0 
1.601961848337e-03 4.810055806684e-04 0.0 
0.0 0.0 -1.846761242021e-04 
-1.574977123889e-03 5.363765110094e-04 0.0 
5.363765110094e-04 8.165141429638e-03 0.0 
0.0 0.0 -1.209499414335e-03 
-1.716498366635e-03 2.104119454666e-03 0.0 
2.104119454666e-03 5.843034081691e-03 0.0 
0.0 0.0 -9.648175333861e-04 
-1.733356707705e-03 1.154742806149e-03 0.0 
1.154742806149e-03 4.860119042041e-03 0.0 
0.0 0.0 -7.487175554447e-04 
-1.114495707937e-03 3.137897512820e-03 0.0 
3.137897512820e-03 5.995042437661e-03 0.0 
0.0 0.0 -1.323661129950e-03 
-8.127251142362e-04 -1.412537566310e-04 0.0 
-1.412537566310e-04 2.411308652960e-03 0.0 
0.0 0.0 -5.128881373376e-04 
-1.119968701545e-03 2.850061398458e-03 0.0 
2.850061398458e-03 5.775097260118e-03 0.0 
0.0 0.0 -1.324908485340e-03 
-1.665581242751e-03 2.319761122546e-03 0.0 
2.319761122546e-03 5.793099015746e-03 0.0 
0.0 0.0 -9.670422101491e-04 
5.568715715285e-04 -2.770077582360e-03 0.0 
-2.770077582360e-03 9.496266440003e-04 0.0 
0.0 0.0 -6.456420923695e-04 
2.161043505782e-04 3.547732125549e-03 0.0 
3.547732125549e-03 1.898015910390e-03 0.0 
0.0 0.0 -9.060515404150e-04 
9.950905598312e-04 -2.671652170698e-03 0.0 
-2.671652170698e-03 4.709180402517e-04 0.0 
0.0 0.0 -6.282894000355e-04 
6.980021611784e-04 2.329704923171e-03 0.0 
2.329704923171e-03 5.591408928334e-04 0.0 
0.0 0.0 -5.387755945765e-04 
7.505691487916e-04 -2.806175756815e-03 0.0 
-2.806175756815e-03 7.604579484207e-04 0.0 
0.0 0.0 -6.475830416624e-04 
-1.523404584578e-03 2.773030803061e-03 0.0 
2.773030803061e-03 5.696563371559e-03 0.0 
0.0 0.0 -1.023749757194e-03 
-1.948666597127e-03 -9.778535476886e-04 0.0 
-9.778535476886e-04 6.429483775968e-03 0.0 
0.0 0.0 -1.155390781228e-03 
1.789573321784e-03 -2.334741346390e-03 0.0 
-2.334741346390e-03 -4.865776105569e-04 0.0 
0.0 0.0 -5.584267333832e-04 
-9.825735489597e-04 3.435129640079e-03 0.0 
3.435129640079e-03 4.478995622056e-03 0.0 
0.0 0.0 -1.036271578259e-03 
0.0 0.0 0.0 
0.0 0.0 0.0 
0.0 0.0 0.0 
2.596759179503e-03 -1.389222099922e-03 0.0 
-1.389222099922e-03 -1.085257982110e-03 0.0 
0.0 0.0 -6.477862274541e-04 
-1.710970656604e-03 2.103685284721e-03 0.0 
2.103685284721e-03 6.525687664567e-03 0.0 
0.0 0.0 -1.066385360782e-03 
2.404574348015e-04 -2.949261258943e-03 0.0 
-2.949261258943e-03 1.482737397066e-03 0.0 
0.0 0.0 -7.385120708005e-04 
6.388802882870e-04 -2.505035958296e-03 0.0 
-2.505035958296e-03 7.105369687538e-04 0.0 
0.0 0.0 -5.783216815889e-04 
3.613031293431e-04 3.302322730047e-03 0.0 
3.302322730047e-03 1.977511413847e-03 0.0 
0.0 0.0 -9.187611816440e-04 
1.834377336541e-03 -2.869898485884e-03 0.0 
-2.869898485884e-03 -1.676988345135e-04 0.0 
0.0 0.0 -7.142907865831e-04 
-2.603602936992e-04 1.802957872284e-03 0.0 
1.802957872284e-03 1.690888390106e-03 0.0 
0.0 0.0 -6.130834698885e-04 
-3.766094290651e-04 1.893748037744e-03 0.0 
1.893748037744e-03 2.022328291586e-03 0.0 
0.0 0.0 -7.053080839374e-04 
2.569187355972e-04 -2.744654995445e-03 0.0 
-2.744654995445e-03 1.329889881086e-03 0.0 
0.0 0.0 -6.800608357214e-04 
9.113223760588e-04 -2.364957113740e-03 0.0 
-2.364957113740e-03 3.924099138829e-04 0.0 
0.0 0.0 -5.587424099750e-04 
1.417197887517e-03 2.585133621544e-03 0.0 
2.585133621544e-03 -7.607709962934e-05 0.0 
0.0 0.0 -5.747660519518e-04 
-8.949493316928e-04 3.143090586373e-03 0.0 
3.143090586373e-03 4.528621917534e-03 0.0 
0.0 0.0 -1.033897369924e-03 
-1.400349245868e-03 3.030732209316e-03 0.0 
3.030732209316e-03 6.703483299750e-03 0.0 
0.0 0.0 -1.224260864640e-03 
-5.253406665386e-04 1.775908047208e-03 0.0 
1.775908047208e-03 2.340968666104e-03 0.0 
0.0 0.0 -7.781262855279e-04 
-1.583002963210e-03 -1.557788336479e-04 0.0 
-1.557788336479e-04 7.086569384723e-03 0.0 
0.0 0.0 -1.028620860735e-03 
-1.145284533028e-03 3.268026662313e-03 0.0 
3.268026662313e-03 5.700409497196e-03 0.0 
0.0 0.0 -1.228414553209e-03 
3.124385303303e-03 -1.108728093105e-05 0.0 
-1.108728093105e-05 -1.500119221682e-03 0.0 
0.0 0.0 -6.961140349804e-04 
5.697530012785e-04 2.144073309248e-03 0.0 
2.144073309248e-03 5.848519704173e-04 0.0 
0.0 0.0 -4.948307021553e-04 
-2.816210062748e-04 2.601627525948e-03 0.0 
2.601627525948e-03 2.228068929511e-03 0.0 
0.0 0.0 -8.341919671012e-04 
8.341721467740e-04 -2.510433576068e-03 0.0 
-2.510433576068e-03 5.276394565767e-04 0.0 
0.0 0.0 -5.836335442932e-04 
-1.247042165843e-03 3.250100918931e-03 0.0 
3.250100918931e-03 5.099970820779e-03 0.0 
0.0 0.0 -1.043024347135e-03 
1.027519968218e-03 -2.380813166548e-03 0.0 
-2.380813166548e-03 3.112209895361e-04 0.0 
0.0 0.0 -5.737461247516e-04 
1.268606586028e-03 2.037384257040e-03 0.0 
2.037384257040e-03 -4.121339973903e-04 0.0 
0.0 0.0 -3.670596808449e-04 
5.930292221715e-04 -2.622911752925e-03 0.0 
-2.622911752925e-03 8.838728538733e-04 0.0 
0.0 0.0 -6.329580325906e-04 
5.486710723125e-04 2.332384511628e-03 0.0 
2.332384511628e-03 7.102378801027e-04 0.0 
0.0 0.0 -5.395324081779e-04 
1.682768200706e-03 2.516609952748e-03 0.0 
2.516609952748e-03 -2.542264434373e-04 0.0 
0.0 0.0 -6.122321816866e-04 
7.358023053180e-04 -2.505051408807e-03 0.0 
-2.505051408807e-03 7.718123993888e-04 0.0 
0.0 0.0 -6.461205877315e-04 
2.812366509539e-04 3.418056531118e-03 0.0 
3.418056531118e-03 1.761992896829e-03 0.0 
0.0 0.0 -8.756698061928e-04 
-1.585509504414e-03 6.854986193214e-05 0.0 
6.854986193214e-05 6.515313053331e-03 0.0 
0.0 0.0 -9.494079867578e-04 
1.950119496099e-04 -2.582141659643e-03 0.0 
-2.582141659643e-03 1.322040652856e-03 0.0 
0.0 0.0 -6.501654010570e-04 
9.460441418101e-04 2.468386529063e-03 0.0 
2.468386529063e-03 3.152412733386e-04 0.0 
0.0 0.0 -5.405508922066e-04 
5.243693270813e-04 -2.069869324487e-03 0.0 
-2.069869324487e-03 1.498209352589e-03 0.0 
0.0 0.0 -8.668194341442e-04 
3.838921855015e-04 2.277447822888e-03 0.0 
2.277447822888e-03 8.700555358996e-04 0.0 
0.0 0.0 -5.374061663147e-04 
0.0 0.0 0.0 
0.0 0.0 0.0 
0.0 0.0 0.0 
-1.483198277618e-03 2.721071498371e-04 0.0 
2.721071498371e-04 8.165740664983e-03 0.0 
0.0 0.0 -1.223389224544e-03 
-1.535254932215e-03 2.717190120097e-04 0.0 
2.717190120097e-04 7.854733745092e-03 0.0 
0.0 0.0 -1.157435638217e-03 
1.714590457334e-06 -7.115369139069e-04 0.0 
-7.115369139069e-04 4.515715516867e-04 0.0 
0.0 0.0 -1.942654894903e-04 
3.878432463794e-04 -2.223127307783e-03 0.0 
-2.223127307783e-03 1.630928175518e-03 0.0 
0.0 0.0 -8.651877522419e-04 
-2.798740380973e-05 -2.159694096595e-03 0.0 
-2.159694096595e-03 1.431561792510e-03 0.0 
0.0 0.0 -6.015318808715e-04 
-1.829025907462e-04 -2.119639284792e-03 0.0 
-2.119639284792e-03 1.714857895665e-03 0.0 
0.0 0.0 -6.565522735366e-04 
-1.017733219917e-03 3.364025437069e-03 0.0 
3.364025437069e-03 4.897256146699e-03 0.0 
0.0 0.0 -1.100737838324e-03 
5.257552207879e-04 2.875144563505e-03 0.0 
2.875144563505e-03 1.853285664374e-03 0.0 
0.0 0.0 -9.467522836136e-04 
-8.497134643687e-04 3.433349612216e-03 0.0 
3.433349612216e-03 4.357788075562e-03 0.0 
0.0 0.0 -1.064854740548e-03 
2.203223739880e-03 -1.975974349915e-03 0.0 
-1.975974349915e-03 -9.232686555069e-04 0.0 
0.0 0.0 -5.485521790173e-04 
-1.446388010227e-03 1.342323327112e-04 0.0 
1.342323327112e-04 5.217166277606e-03 0.0 
0.0 0.0 -7.105917616147e-04 
-1.197543499266e-03 -1.810608894436e-03 0.0 
-1.810608894436e-03 5.325302062837e-03 0.0 
0.0 0.0 -1.281538364137e-03 
-1.726353625323e-04 -1.807145954026e-03 0.0 
-1.807145954026e-03 1.497715714659e-03 0.0 
0.0 0.0 -5.678915794828e-04 
2.222123337372e-04 -1.923483587620e-05 0.0 
-1.923483587620e-05 2.651456288210e-03 0.0 
0.0 0.0 -1.121221582973e-03 
1.156875498320e-03 3.056207622502e-03 0.0 
3.056207622502e-03 4.647886417546e-04 0.0 
0.0 0.0 -6.949989171747e-04 
-5.424671300971e-04 -2.887281693977e-04 0.0 
-2.887281693977e-04 1.675559050033e-03 0.0 
0.0 0.0 -3.973267919445e-04 
-1.360155763593e-03 3.097514486866e-03 0.0 
3.097514486866e-03 5.194571229381e-03 0.0 
0.0 0.0 -1.015166614560e-03 
2.718308302872e-03 -7.221702226311e-04 0.0 
-7.221702226311e-04 -1.243788694723e-03 0.0 
0.0 0.0 -6.319369749211e-04 
2.871950510200e-04 -2.057705951039e-03 0.0 
-2.057705951039e-03 8.654869691646e-04 0.0 
0.0 0.0 -4.940065800791e-04 
2.698077562336e-03 -1.426914000199e-03 0.0 
-1.426914000199e-03 -1.126048004927e-03 0.0 
0.0 0.0 -6.737269531753e-04 
-2.035172389928e-03 5.681521720379e-05 0.0 
5.681521720379e-05 5.818689376235e-03 0.0 
0.0 0.0 -1.069816800183e-03 
-1.547603731344e-03 2.557965682965e-03 0.0 
2.557965682965e-03 5.760856088478e-03 0.0 
0.0 0.0 -1.020980360542e-03 
3.535477644423e-04 -2.409077986448e-03 0.0 
-2.409077986448e-03 9.968391477695e-04 0.0 
0.0 0.0 -5.787372480908e-04 
-1.638049386592e-03 -5.261620418510e-04 0.0 
-5.261620418510e-04 4.881654597217e-03 0.0 
0.0 0.0 -1.045407985144e-03 
-1.131069213092e-03 3.339054972024e-03 0.0 
3.339054972024e-03 5.004170711216e-03 0.0 
0.0 0.0 -1.071782534217e-03 
7.849170986353e-05 2.002784816892e-03 0.0 
2.002784816892e-03 3.087471277383e-03 0.0 
0.0 0.0 -1.109893377180e-03 
5.081300325286e-04 -2.843687144981e-03 0.0 
-2.843687144981e-03 1.050709009186e-03 0.0 
0.0 0.0 -6.680738750205e-04 
-8.485846460072e-04 -2.429092323345e-04 0.0 
-2.429092323345e-04 2.701937249489e-03 0.0 
0.0 0.0 -7.163733244607e-04 
1.054276666128e-03 2.747625866901e-03 0.0 
2.747625866901e-03 4.044819373952e-04 0.0 
0.0 0.0 -6.251822586527e-04 
-1.556582639800e-03 -2.026954580916e-04 0.0 
-2.026954580916e-04 6.435079901625e-03 0.0 
0.0 0.0 -9.278975173457e-04 
6.306613738133e-04 -2.843431008643e-03 0.0 
-2.843431008643e-03 9.087558385051e-04 0.0 
0.0 0.0 -6.597502338507e-04 
-1.151665732863e-03 3.368799827368e-03 0.0 
3.368799827368e-03 6.118948746046e-03 0.0 
0.0 0.0 -1.269179263064e-03 
-1.428509069589e-03 2.793670889960e-03 0.0 
2.793670889960e-03 7.317810969107e-03 0.0 
0.0 0.0 -1.281197857596e-03 
-1.509195270466e-03 -1.457985023921e-04 0.0 
-1.457985023921e-04 5.771603983327e-03 0.0 
0.0 0.0 -8.387747867703e-04 
-1.581495188537e-03 1.397540288099e-03 0.0 
1.397540288099e-03 8.227342162666e-03 0.0 
0.0 0.0 -1.255037608383e-03 
-1.367281596907e-03 3.139996712098e-03 0.0 
3.139996712098e-03 6.951432883283e-03 0.0 
0.0 0.0 -1.285499913836e-03 
2.109542503114e-03 -1.930775448323e-03 0.0 
-1.930775448323e-03 -7.849211290522e-04 0.0 
0.0 0.0 -5.676948745980e-04 
1.380801218232e-03 -2.351235301793e-03 0.0 
-2.351235301793e-03 -1.698746639676e-04 0.0 
0.0 0.0 -5.189685232560e-04 
-5.757297583633e-04 4.366962327414e-04 0.0 
4.366962327414e-04 4.537400147680e-03 0.0 
0.0 0.0 -1.265535665854e-03 
0.0 0.0 0.0 
0.0 0.0 0.0 
0.0 0.0 0.0 
-8.394320087675e-04 -3.205840844428e-05 0.0 
-3.205840844428e-05 2.565992005118e-03 0.0 
0.0 0.0 -6.072167217314e-04 
-1.628413269992e-03 -1.673586948164e-04 0.0 
-1.673586948164e-04 4.868895534124e-03 0.0 
0.0 0.0 -1.067827858613e-03 
4.161330338528e-04 -2.673128765629e-03 0.0 
-2.673128765629e-03 1.065048131365e-03 0.0 
0.0 0.0 -6.347919279505e-04 
1.927385449734e-03 -2.370761864729e-03 0.0 
-2.370761864729e-03 -5.075034197406e-04 0.0 
0.0 0.0 -6.085208699972e-04 
-3.171269370445e-05 1.814506539183e-03 0.0 
1.814506539183e-03 1.218095740662e-03 0.0 
0.0 0.0 -5.084498772674e-04 
-1.067456340534e-04 1.927365287384e-03 0.0 
1.927365287384e-03 1.436121596143e-03 0.0 
0.0 0.0 -5.697325551813e-04 
-1.696184299969e-03 4.188758800933e-04 0.0 
4.188758800933e-04 5.835163577314e-03 0.0 
0.0 0.0 -8.290026594306e-04 
2.687649412673e-03 -1.534651648036e-03 0.0 
-1.534651648036e-03 -1.236375441606e-03 0.0 
0.0 0.0 -6.219745590288e-04 
-8.374689021838e-04 -7.956683833314e-04 0.0 
-7.956683833314e-04 2.821114433129e-03 0.0 
0.0 0.0 -8.100060677168e-04 
-5.763887782379e-05 2.884104717794e-03 0.0 
2.884104717794e-03 2.960925031656e-03 0.0 
0.0 0.0 -1.077832113627e-03 
-1.357626258592e-03 -2.064052997114e-03 0.0 
-2.064052997114e-03 6.484172296954e-03 0.0 
0.0 0.0 -1.324978758543e-03 
-1.316853930481e-03 -2.171233133158e-03 0.0 
-2.171233133158e-03 6.262828385778e-03 0.0 
0.0 0.0 -1.320624918399e-03 
1.210545566472e-03 -2.440771907645e-03 0.0 
-2.440771907645e-03 2.098806390541e-04 0.0 
0.0 0.0 -6.087540880828e-04 
-1.669792706879e-03 7.585625911679e-04 0.0 
7.585625911679e-04 5.225921064138e-03 0.0 
0.0 0.0 -7.877541558771e-04 
0.0 0.0 0.0 
0.0 0.0 0.0 
0.0 0.0 0.0 
1.526705898496e-04 1.832423170921e-03 0.0 
1.832423170921e-03 9.162592996274e-04 0.0 
0.0 0.0 -4.581128097759e-04 
1.694782762505e-03 -3.278967534484e-03 0.0 
-3.278967534484e-03 -3.718783773796e-04 0.0 
0.0 0.0 -5.669590221966e-04 
7.211551457005e-05 1.826082030850e-03 0.0 
1.826082030850e-03 1.040988995356e-03 0.0 
0.0 0.0 -4.770447899684e-04 
8.520859723696e-04 2.702963814911e-03 0.0 
2.702963814911e-03 1.160586394610e-03 0.0 
0.0 0.0 -8.625738715628e-04 
1.049602008115e-03 -2.610080274348e-03 0.0 
-2.610080274348e-03 3.535904184598e-04 0.0 
0.0 0.0 -6.013681828177e-04 
1.924226435236e-03 -2.386188926630e-03 0.0 
-2.386188926630e-03 -7.021276801158e-04 0.0 
0.0 0.0 -5.237566093371e-04 
8.906199206854e-04 -2.335912402002e-03 0.0 
-2.335912402002e-03 -6.441539282859e-04 0.0 
0.0 0.0 -1.056282824569e-04 
-1.518150307999e-03 2.180517986998e-04 0.0 
2.180517986998e-04 7.814279060755e-03 0.0 
0.0 0.0 -1.176327079312e-03 
1.081599261770e-03 -2.356565631716e-03 0.0 
-2.356565631716e-03 1.958644745057e-04 0.0 
0.0 0.0 -5.474844584040e-04 
-1.503838573524e-03 8.537407365335e-04 0.0 
8.537407365335e-04 8.091641180223e-03 0.0 
0.0 0.0 -1.212957849656e-03 
-1.563004608103e-03 1.345074243690e-04 0.0 
1.345074243690e-04 7.574721874408e-03 0.0 
0.0 0.0 -1.117460450001e-03 
-1.452677521913e-03 3.546154927313e-04 0.0 
3.546154927313e-04 8.989483437301e-03 0.0 
0.0 0.0 -1.319418651152e-03 
-1.573682658163e-03 -6.434523803718e-04 0.0 
-6.434523803718e-04 7.311749488072e-03 0.0 
0.0 0.0 -1.324849633189e-03 
-1.522640732825e-03 1.776300828802e-04 0.0 
1.776300828802e-04 5.910709247101e-03 0.0 
0.0 0.0 -8.315138651140e-04 
8.069897163257e-04 -2.530526196753e-03 0.0 
-2.530526196753e-03 5.619735093356e-04 0.0 
0.0 0.0 -5.866985252834e-04 
-2.779641202251e-04 1.703949019227e-03 0.0 
1.703949019227e-03 1.672572981451e-03 0.0 
0.0 0.0 -5.976895119538e-04 
7.490285409449e-04 -3.064892262470e-03 0.0 
-3.064892262470e-03 9.033898181147e-04 0.0 
0.0 0.0 -7.081792967398e-04 
-1.343328350294e-03 -1.797161006887e-03 0.0 
-1.797161006887e-03 6.496235434020e-03 0.0 
0.0 0.0 -1.343328350294e-03 
1.770851489837e-04 1.574613937019e-03 0.0 
1.574613937019e-03 7.197174740553e-04 0.0 
0.0 0.0 -3.843439813024e-04 
1.884365055557e-04 1.730723292298e-03 0.0 
1.730723292298e-03 7.999529513160e-04 0.0 
0.0 0.0 -4.235954815164e-04 
5.120454739847e-05 4.425631252095e-04 0.0 
4.425631252095e-04 3.081010907522e-03 0.0 
0.0 0.0 -1.156027955174e-03 
-1.600063486753e-03 4.454182285367e-04 0.0 
4.454182285367e-04 5.553533901810e-03 0.0 
0.0 0.0 -7.715229432315e-04 
-1.496300168116e-03 6.368230222668e-04 0.0 
6.368230222668e-04 8.172597464420e-03 0.0 
0.0 0.0 -1.219279742240e-03 
-1.079188820050e-03 3.032068943539e-03 0.0 
3.032068943539e-03 5.044159493797e-03 0.0 
0.0 0.0 -1.069611963270e-03 
-3.125996649260e-04 2.376006221788e-03 0.0 
2.376006221788e-03 3.643123644996e-03 0.0 
0.0 0.0 -1.175036385391e-03 
-1.440706362563e-03 2.765679407787e-03 0.0 
2.765679407787e-03 6.040073424197e-03 0.0 
0.0 0.0 -1.113576918908e-03 
-1.533426048517e-03 3.483355765343e-04 0.0 
3.483355765343e-04 5.830518730214e-03 0.0 
0.0 0.0 -8.542750875040e-04 
4.145616627609e-04 -2.510686493370e-03 0.0 
-2.510686493370e-03 9.700386978898e-04 0.0 
0.0 0.0 -5.934001545646e-04 
5.188237827814e-04 -2.738227656747e-03 0.0 
-2.738227656747e-03 9.760172721955e-04 0.0 
0.0 0.0 -6.406461664186e-04 
-1.559322814184e-03 2.985337068608e-04 0.0 
2.985337068608e-04 6.828450389527e-03 0.0 
0.0 0.0 -9.963059934037e-04 
-1.981024320875e-04 2.157190390334e-03 0.0 
2.157190390334e-03 3.614846179737e-03 0.0 
0.0 0.0 -1.142506377625e-03 
-1.686833987170e-03 9.535938984725e-04 0.0 
9.535938984725e-04 4.721621554871e-03 0.0 
0.0 0.0 -7.386355146563e-04 
-1.463703012742e-03 6.266658719779e-05 0.0 
6.266658719779e-05 5.604963867248e-03 0.0 
0.0 0.0 -7.676068998053e-04 
-1.515549186513e-03 3.697674288865e-05 0.0 
3.697674288865e-05 5.930448629907e-03 0.0 
0.0 0.0 -8.242303029217e-04 
-1.592254304502e-03 -3.437592554212e-05 0.0 
-3.437592554212e-05 6.006274404460e-03 0.0 
0.0 0.0 -8.467401457521e-04 
1.475757754276e-03 -1.289294546505e-03 0.0 
-1.289294546505e-03 -9.417009757612e-04 0.0 
0.0 0.0 -2.288814765064e-04 
2.490964718879e-04 -2.584180670905e-03 0.0 
-2.584180670905e-03 1.241456993708e-03 0.0 
0.0 0.0 -6.388086281126e-04 
-1.524289002589e-03 1.055576054381e-03 0.0 
1.055576054381e-03 8.572679794113e-03 0.0 
0.0 0.0 -1.269310366786e-03 
-1.609154575879e-03 5.927002029432e-05 0.0 
5.927002029432e-05 6.380922986421e-03 0.0 
0.0 0.0 -9.150577043801e-04 
-9.099437829954e-04 1.617518349232e-03 0.0 
1.617518349232e-03 4.661075676102e-03 0.0 
0.0 0.0 -1.295322057178e-03 
-1.481137119135e-03 2.911611220647e-03 0.0 
2.911611220647e-03 6.859531798370e-03 0.0 
0.0 0.0 -1.215577547940e-03 
-1.339321083005e-03 2.882096422563e-03 0.0 
2.882096422563e-03 5.250850385045e-03 0.0 
0.0 0.0 -1.012565562176e-03 
-1.640900346179e-03 1.517631824607e-03 0.0 
1.517631824607e-03 7.910833663920e-03 0.0 
0.0 0.0 -1.214907066889e-03 
-1.059540956040e-03 -1.334979029727e-03 0.0 
-1.334979029727e-03 3.594823103032e-03 0.0 
0.0 0.0 -9.974489174931e-04 
-1.013156646554e-03 -1.368118382081e-03 0.0 
-1.368118382081e-03 3.447232281497e-03 0.0 
0.0 0.0 -9.464646038184e-04 
-1.053605941392e-03 -1.657375267239e-03 0.0 
-1.657375267239e-03 4.938505543447e-03 0.0 
0.0 0.0 -1.226851238141e-03 
0.0 0.0 0.0 
0.0 0.0 0.0 
0.0 0.0 0.0 
-9.591830860426e-04 -2.723797524876e-04 0.0 
-2.723797524876e-04 2.822378765221e-03 0.0 
0.0 0.0 -5.777536677209e-04 
-1.342405754833e-03 2.832331701177e-03 0.0 
2.832331701177e-03 5.623065616304e-03 0.0 
0.0 0.0 -1.342405754833e-03 
-1.232108481340e-04 -4.438827698639e-05 0.0 
-4.438827698639e-05 1.111663342237e-03 0.0 
0.0 0.0 -2.724401835525e-04 
-1.475085458698e-03 8.547838585484e-05 0.0 
8.547838585484e-05 5.344445388578e-03 0.0 
0.0 0.0 -7.870118106326e-04 
-3.041907190684e-04 -2.929338759418e-04 0.0 
-2.929338759418e-04 3.995006628254e-03 0.0 
0.0 0.0 -1.213461936786e-03 
-7.635875139996e-06 -1.081722019394e-03 0.0 
-1.081722019394e-03 7.060070926500e-04 0.0 
0.0 0.0 -2.993019503614e-04 
1.505773719545e-03 -8.263394782763e-04 0.0 
-8.263394782763e-04 -6.336254798976e-05 0.0 
0.0 0.0 -2.382422751898e-04 
-1.473393185853e-03 1.353598964677e-03 0.0 
1.353598964677e-03 8.746165970417e-03 0.0 
0.0 0.0 -1.324389858384e-03 
-1.521392000938e-03 2.912474066464e-04 0.0 
2.912474066464e-04 4.940937614450e-03 0.0 
0.0 0.0 -7.294542769151e-04 
-1.503978704987e-03 1.473877310897e-03 0.0 
1.473877310897e-03 8.344062810088e-03 0.0 
0.0 0.0 -1.261418349269e-03 
-5.327298325037e-04 3.575837178235e-04 0.0 
3.575837178235e-04 3.642687559217e-03 0.0 
0.0 0.0 -1.231858344535e-03 
-1.518533849991e-03 1.071472041001e-04 0.0 
1.071472041001e-04 4.942575461076e-03 0.0 
0.0 0.0 -7.289279708929e-04 
0.0 0.0 0.0 
0.0 0.0 0.0 
0.0 0.0 0.0 
-1.422405127371e-03 1.531540875437e-04 0.0 
1.531540875437e-04 8.427070743481e-03 0.0 
0.0 0.0 -1.284140717545e-03 
-3.551011727049e-04 -7.009671051649e-04 0.0 
-7.009671051649e-04 1.319322733909e-03 0.0 
0.0 0.0 -3.479328688591e-04 
-1.509662464093e-03 1.187111297047e-03 0.0 
1.187111297047e-03 8.089981201651e-03 0.0 
0.0 0.0 -1.232184317627e-03 
-1.343095105526e-03 -1.540983607491e-03 0.0 
-1.540983607491e-03 6.702452530061e-03 0.0 
0.0 0.0 -1.343095105526e-03 
-1.554707611052e-03 2.562602135152e-03 0.0 
2.562602135152e-03 7.111310188225e-03 0.0 
0.0 0.0 -1.225700354592e-03 
2.173759747286e-03 -1.419935824116e-03 0.0 
-1.419935824116e-03 -1.114841162711e-03 0.0 
0.0 0.0 -4.538222505322e-04 
-1.741082427331e-03 1.054953553281e-03 0.0 
1.054953553281e-03 5.737463170789e-03 0.0 
0.0 0.0 -8.279144014868e-04 
-1.224194647146e-03 -9.467109309958e-04 0.0 
-9.467109309958e-04 3.877522353974e-03 0.0 
0.0 0.0 -9.630043323905e-04 
6.517046530341e-05 2.327281681424e-03 0.0 
2.327281681424e-03 2.984838930140e-03 0.0 
0.0 0.0 -1.077599360682e-03 
-1.012701747737e-03 1.623436123670e-03 0.0 
1.623436123670e-03 5.329514602195e-03 0.0 
0.0 0.0 -1.326997735404e-03 
-1.585109039191e-03 2.780588406276e-04 0.0 
2.780588406276e-04 7.347999637207e-03 0.0 
0.0 0.0 -1.061614915164e-03 
-1.008710860855e-03 1.312542642731e-03 0.0 
1.312542642731e-03 5.209194240256e-03 0.0 
0.0 0.0 -1.325870641008e-03 
3.673422327950e-04 -3.776124720398e-04 0.0 
-3.776124720398e-04 -3.673422327950e-04 0.0 
0.0 0.0 0.0 
-1.430003464036e-03 -1.969193470792e-03 0.0 
-1.969193470792e-03 6.388366935774e-03 0.0 
0.0 0.0 -1.277656510522e-03 
2.370305391374e-03 -2.562363361486e-03 0.0 
-2.562363361486e-03 -6.166549384612e-04 0.0 
0.0 0.0 -7.515644798196e-04 
-3.100324176095e-04 -2.408320728402e-04 0.0 
-2.408320728402e-04 1.151728361162e-03 0.0 
0.0 0.0 -2.782378078114e-04 
-7.322007537650e-04 -9.555468943118e-04 0.0 
-9.555468943118e-04 4.734669521016e-03 0.0 
0.0 0.0 -1.270335377537e-03 
-1.575122942683e-03 2.171152972729e-03 0.0 
2.171152972729e-03 8.127111917130e-03 0.0 
0.0 0.0 -1.270603359501e-03 
-1.496692965649e-03 1.319095711312e-03 0.0 
1.319095711312e-03 8.369617950368e-03 0.0 
0.0 0.0 -1.289850838753e-03 
-1.498527200318e-03 3.689228571039e-04 0.0 
3.689228571039e-04 5.398355138859e-03 0.0 
0.0 0.0 -7.762633204683e-04 
-1.744558354744e-03 1.631310676350e-03 0.0 
1.631310676350e-03 5.391746306119e-03 0.0 
0.0 0.0 -8.489529362435e-04 
7.301121496963e-04 2.437654514774e-03 0.0 
2.437654514774e-03 5.848010967936e-04 0.0 
0.0 0.0 -5.635342484957e-04 
-1.427601509624e-03 3.175353375607e-03 0.0 
3.175353375607e-03 7.125136039489e-03 0.0 
0.0 0.0 -1.273041473476e-03 
-1.038080719471e-03 -6.334570087308e-04 0.0 
-6.334570087308e-04 3.329140480764e-03 0.0 
0.0 0.0 -8.764843149172e-04 
1.193441318594e-03 2.328942464463e-03 0.0 
2.328942464463e-03 3.040131158427e-05 0.0 
0.0 0.0 -5.245039843621e-04 
-2.118585962265e-05 2.523859735457e-03 0.0 
2.523859735457e-03 3.050030047244e-03 0.0 
0.0 0.0 -1.110141529071e-03 
-1.425138137322e-03 6.470798395339e-05 0.0 
6.470798395339e-05 5.179988142805e-03 0.0 
0.0 0.0 -7.096328662732e-04 
-1.517585115342e-03 2.260614719474e-03 0.0 
2.260614719474e-03 7.684999531697e-03 0.0 
0.0 0.0 -1.237729719596e-03 
-1.422593477448e-03 -1.670334611249e-04 0.0 
-1.670334611249e-04 8.888807101193e-03 0.0 
0.0 0.0 -1.321509982054e-03 
-1.343732204276e-03 1.010834953933e-04 0.0 
1.010834953933e-04 8.744729451207e-03 0.0 
0.0 0.0 -1.343732204276e-03 
3.369232126492e-03 1.693280559230e-04 0.0 
1.693280559230e-04 -1.155841201236e-03 0.0 
0.0 0.0 -6.603666768414e-05 
2.499766675984e-03 -2.952033461878e-04 0.0 
-2.952033461878e-04 -9.796559826583e-04 0.0 
0.0 0.0 -1.532902690118e-04 
-1.416942128620e-03 -1.624029676109e-04 0.0 
-1.624029676109e-04 5.054688992973e-03 0.0 
0.0 0.0 -7.318233512793e-04 
-1.419792893404e-03 3.183177604522e-05 0.0 
3.183177604522e-05 5.196638347434e-03 0.0 
0.0 0.0 -7.096011290571e-04 
-1.343732204276e-03 -2.406936037715e-04 0.0 
-2.406936037715e-04 7.113693032304e-03 0.0 
0.0 0.0 -1.343732204276e-03 
-1.562203585825e-03 1.305016391806e-04 0.0 
1.305016391806e-04 7.294302504235e-03 0.0 
0.0 0.0 -1.321509982054e-03 
2.262811037578e-03 -4.868403071367e-05 0.0 
-4.868403071367e-05 -4.447467837794e-04 0.0 
0.0 0.0 -2.434615908245e-04 
0.0 0.0 0.0 
0.0 0.0 0.0 
0.0 0.0 0.0 
-1.642313907969e-03 -1.143113511814e-03 0.0 
-1.143113511814e-03 6.403076283141e-03 0.0 
0.0 0.0 -1.230181737024e-03 
-7.148794360532e-04 3.164508669310e-03 0.0 
3.164508669310e-03 4.742447412984e-03 0.0 
0.0 0.0 -1.209364118140e-03 
-5.258157990741e-04 -7.879783393280e-04 0.0 
-7.879783393280e-04 1.688623542397e-03 0.0 
0.0 0.0 -3.144533898553e-04 
-1.351136438279e-03 -1.975186179308e-03 0.0 
-1.975186179308e-03 5.772523348463e-03 0.0 
0.0 0.0 -1.240191881334e-03 
-1.731554632553e-03 -2.342398403810e-04 0.0 
-2.342398403810e-04 5.123990276158e-03 0.0 
0.0 0.0 -1.081029080859e-03 
-1.535845139517e-03 -3.312382585291e-04 0.0 
-3.312382585291e-04 4.629162629476e-03 0.0 
0.0 0.0 -1.039595904837e-03 
-1.612928706957e-03 3.113730006726e-04 0.0 
3.113730006726e-04 6.721792739589e-03 0.0 
0.0 0.0 -9.400782610458e-04 
1.101421061084e-03 -2.909512193680e-03 0.0 
-2.909512193680e-03 4.457906368086e-04 0.0 
0.0 0.0 -6.630907276683e-04 
3.131506035800e-04 2.556520147165e-03 0.0 
2.556520147165e-03 2.414585707981e-03 0.0 
0.0 0.0 -1.011657465016e-03 
-1.177300482134e-05 -1.092061392265e-03 0.0 
-1.092061392265e-03 1.284900459222e-03 0.0 
0.0 0.0 -3.097963217911e-04 
-1.220126007134e-03 -1.262020264430e-03 0.0 
-1.262020264430e-03 3.977099482089e-03 0.0 
0.0 0.0 -1.029451436826e-03 
-1.346849968967e-03 3.153673073291e-03 0.0 
3.153673073291e-03 6.593026306646e-03 0.0 
0.0 0.0 -1.240519096027e-03 
-1.527894889398e-03 -1.936018657920e-04 0.0 
-1.936018657920e-04 8.104261702945e-03 0.0 
0.0 0.0 -1.191726112421e-03 
-1.479396360357e-03 -2.989971596189e-04 0.0 
-2.989971596189e-04 4.503238817139e-03 0.0 
0.0 0.0 -1.046336039097e-03 
-1.560842421660e-03 -8.540456832086e-05 0.0 
-8.540456832086e-05 6.232717148515e-03 0.0 
0.0 0.0 -8.745659502648e-04 
-9.955423334814e-04 3.339003162247e-03 0.0 
3.339003162247e-03 5.559555520798e-03 0.0 
0.0 0.0 -1.217119345309e-03 
-1.351529115626e-03 2.876362203055e-03 0.0 
2.876362203055e-03 5.976398005188e-03 0.0 
0.0 0.0 -1.140944809983e-03 
-1.341013158963e-03 2.862888668155e-03 0.0 
2.862888668155e-03 5.603065071307e-03 0.0 
0.0 0.0 -1.076426999079e-03 
-1.492882998354e-03 1.325735461083e-04 0.0 
1.325735461083e-04 4.933841446090e-03 0.0 
0.0 0.0 -7.312123441678e-04 
6.172998628868e-04 2.362607397547e-03 0.0 
2.362607397547e-03 1.812787626421e-03 0.0 
0.0 0.0 -9.763781674015e-04 
-1.502422605285e-03 2.514513612527e-03 0.0 
2.514513612527e-03 7.380594194812e-03 0.0 
0.0 0.0 -1.231404929774e-03 
-8.003792871297e-04 -5.108965880218e-04 0.0 
-5.108965880218e-04 2.603757424793e-03 0.0 
0.0 0.0 -7.107894383394e-04 
1.779720377328e-04 -1.298870854502e-03 0.0 
-1.298870854502e-03 4.337348693579e-04 0.0 
0.0 0.0 -1.164291272224e-04 
-9.970216092610e-04 3.010797291644e-03 0.0 
3.010797291644e-03 5.249606407737e-03 0.0 
0.0 0.0 -1.185975225609e-03 
2.191734593223e-04 5.610847358595e-04 0.0 
5.610847358595e-04 2.599656196276e-03 0.0 
0.0 0.0 -1.123538223191e-03 
1.172927684885e-03 -2.889497196016e-03 0.0 
-2.889497196016e-03 3.300442381492e-04 0.0 
0.0 0.0 -6.441308241577e-04 
-1.607945126080e-03 -1.740082688204e-05 0.0 
-1.740082688204e-05 7.004832338719e-03 0.0 
0.0 0.0 -9.893338170986e-04 
-1.512467681835e-03 -1.269144618606e-03 0.0 
-1.269144618606e-03 6.614649124568e-03 0.0 
0.0 0.0 -1.282739585886e-03 
-7.843923001707e-04 3.075094105696e-03 0.0 
3.075094105696e-03 4.595487038338e-03 0.0 
0.0 0.0 -1.182073443778e-03 
-8.715817867822e-04 3.121670101447e-03 0.0 
3.121670101447e-03 5.293578095492e-03 0.0 
0.0 0.0 -1.215129606110e-03 
-1.899421587696e-03 -4.002758172017e-04 0.0 
-4.002758172017e-04 5.518204821451e-03 0.0 
0.0 0.0 -1.079026350805e-03 
0.0 0.0 0.0 
0.0 0.0 0.0 
0.0 0.0 0.0 
-4.777114925537e-05 1.704067356774e-03 0.0 
1.704067356774e-03 1.178107469511e-03 0.0 
0.0 0.0 -4.844298515380e-04 
4.263341666864e-04 2.474607686413e-03 0.0 
2.474607686413e-03 9.338852604604e-04 0.0 
0.0 0.0 -5.829511830629e-04 
-1.721178049984e-03 1.085378291777e-03 0.0 
1.085378291777e-03 5.473315709064e-03 0.0 
0.0 0.0 -8.471429939415e-04 
4.228609678747e-04 3.021260051708e-03 0.0 
3.021260051708e-03 1.732467119469e-03 0.0 
0.0 0.0 -9.237120374330e-04 
-1.533799557255e-03 6.728038073689e-04 0.0 
6.728038073689e-04 8.237501439824e-03 0.0 
0.0 0.0 -1.236541257690e-03 
-8.719226860915e-04 7.267313533335e-04 0.0 
7.267313533335e-04 4.230245890387e-03 0.0 
0.0 0.0 -1.282325209426e-03 
2.964520960670e-04 -1.978928276592e-03 0.0 
-1.978928276592e-03 8.042557840210e-04 0.0 
0.0 0.0 -4.717319486092e-04 
1.319048487483e-04 -1.576566321261e-03 0.0 
-1.576566321261e-03 7.886992305850e-04 0.0 
0.0 0.0 -3.945446054286e-04 
1.817673251283e-04 1.876543985894e-03 0.0 
1.876543985894e-03 9.002005847285e-04 0.0 
0.0 0.0 -4.637005327958e-04 
-1.570049742763e-03 5.369425789645e-04 0.0 
5.369425789645e-04 6.963270594615e-03 0.0 
0.0 0.0 -1.019242131223e-03 
-9.308723645065e-04 -1.101236884891e-03 0.0 
-1.101236884891e-03 3.096386949501e-03 0.0 
0.0 0.0 -8.257845680531e-04 
-1.587305306336e-03 1.706805244546e-03 0.0 
1.706805244546e-03 7.938189703079e-03 0.0 
0.0 0.0 -1.241298427557e-03 
-4.566804084497e-04 -4.114264182866e-04 0.0 
-4.114264182866e-04 1.625098335496e-03 0.0 
0.0 0.0 -2.728146851408e-04 
-4.193612778590e-04 8.066391699242e-04 0.0 
8.066391699242e-04 3.619638834416e-03 0.0 
0.0 0.0 -1.221152601860e-03 
-1.613149922033e-03 6.729604599103e-04 0.0 
6.729604599103e-04 5.730913827298e-03 0.0 
0.0 0.0 -8.343732341398e-04 
-9.805029045404e-04 2.320290812643e-03 0.0 
2.320290812643e-03 4.821535310315e-03 0.0 
0.0 0.0 -1.286815605725e-03 
-1.972178768770e-04 2.471490219589e-03 0.0 
2.471490219589e-03 3.599121568157e-03 0.0 
0.0 0.0 -1.111121968474e-03 
-1.760642934702e-03 1.153303269584e-03 0.0 
1.153303269584e-03 5.427908306702e-03 0.0 
0.0 0.0 -8.465141837044e-04 
-8.764965121591e-04 -1.556039561585e-03 0.0 
-1.556039561585e-03 5.086777567781e-03 0.0 
0.0 0.0 -1.269142588751e-03 
-1.551933899349e-03 2.142615053803e-03 0.0 
2.142615053803e-03 8.208999000424e-03 0.0 
0.0 0.0 -1.272727265576e-03 
-1.482418812719e-03 2.636741981307e-04 0.0 
2.636741981307e-04 8.672320582664e-03 0.0 
0.0 0.0 -1.271339345674e-03 
2.794840770511e-04 1.877110949586e-03 0.0 
1.877110949586e-03 7.644572491491e-04 0.0 
0.0 0.0 -4.474034255144e-04 
-1.548384254494e-03 1.778472603870e-03 0.0 
1.778472603870e-03 7.853183226647e-03 0.0 
0.0 0.0 -1.218309553141e-03 
-1.238984078820e-03 3.237221125149e-03 0.0 
3.237221125149e-03 5.979697278194e-03 0.0 
0.0 0.0 -1.286645293131e-03 
-2.338452424877e-04 4.838955254747e-04 0.0 
4.838955254747e-04 3.810277403162e-03 0.0 
0.0 0.0 -1.211735819529e-03 
-2.641749654371e-04 2.730651329854e-03 0.0 
2.730651329854e-03 3.539043083142e-03 0.0 
0.0 0.0 -1.143254064081e-03 
-1.342665167303e-03 -1.913201158816e-03 0.0 
-1.913201158816e-03 6.140194887135e-03 0.0 
0.0 0.0 -1.342665167303e-03 
-1.336562494305e-03 3.148621666370e-03 0.0 
3.148621666370e-03 5.546558025077e-03 0.0 
0.0 0.0 -1.079065255302e-03 
0.0 0.0 0.0 
0.0 0.0 0.0 
0.0 0.0 0.0 
1.128782554056e-03 2.722430850094e-03 0.0 
2.722430850094e-03 3.671628183846e-04 0.0 
0.0 0.0 -6.411194453319e-04 
-1.438782275937e-03 2.878593628370e-03 0.0 
2.878593628370e-03 6.406037302073e-03 0.0 
0.0 0.0 -1.176936364471e-03 
-1.717609899646e-03 1.241798828460e-03 0.0 
1.241798828460e-03 5.908300544731e-03 0.0 
0.0 0.0 -8.884613587993e-04 
-1.780913372705e-03 -9.535977727778e-04 0.0 
-9.535977727778e-04 6.697114639858e-03 0.0 
0.0 0.0 -1.221994126432e-03 
-4.533386727007e-04 2.366129578243e-03 0.0 
2.366129578243e-03 4.141621556580e-03 0.0 
0.0 0.0 -1.177009544428e-03 
-1.321487320261e-03 -1.869174225829e-03 0.0 
-1.869174225829e-03 5.949052928407e-03 0.0 
0.0 0.0 -1.292249833993e-03 
-1.557982079132e-03 5.560473992337e-04 0.0 
5.560473992337e-04 7.430714466144e-03 0.0 
0.0 0.0 -1.085521458831e-03 
-9.906508321286e-04 2.010874064209e-03 0.0 
2.010874064209e-03 4.656220140669e-03 0.0 
0.0 0.0 -1.288973456333e-03 
-8.669493969727e-04 -1.781456295850e-03 0.0 
-1.781456295850e-03 4.656567585957e-03 0.0 
0.0 0.0 -1.233322439334e-03 
-8.389834207114e-04 -1.353105162080e-03 0.0 
-1.353105162080e-03 4.612963758963e-03 0.0 
0.0 0.0 -1.235043566395e-03 
-1.060688043098e-03 -7.830630523890e-04 0.0 
-7.830630523890e-04 3.332470677800e-03 0.0 
0.0 0.0 -8.113697483009e-04 
-1.399514092732e-03 -1.981208132211e-03 0.0 
-1.981208132211e-03 6.677395424695e-03 0.0 
0.0 0.0 -1.325641941534e-03 
-1.659266455691e-03 6.538953700681e-04 0.0 
6.538953700681e-04 5.459969626810e-03 0.0 
0.0 0.0 -7.662153309038e-04 
-1.522339522893e-03 2.785636433653e-04 0.0 
2.785636433653e-04 8.220976080768e-03 0.0 
0.0 0.0 -1.217406395242e-03 
2.069000998586e-04 -1.834555044401e-03 0.0 
-1.834555044401e-03 8.418202147660e-04 0.0 
0.0 0.0 -4.494515634106e-04 
-1.554320641115e-03 9.540049576088e-05 0.0 
9.540049576088e-05 8.023345832809e-03 0.0 
0.0 0.0 -1.163202487293e-03 
-1.605625159736e-03 1.859754007895e-04 0.0 
1.859754007895e-04 7.063048343461e-03 0.0 
0.0 0.0 -9.926133712568e-04 
1.071864880333e-03 1.610051896133e-04 0.0 
1.610051896133e-04 5.200375252643e-04 0.0 
0.0 0.0 -3.474471837849e-04 
1.832184275694e-03 -1.682280732148e-03 0.0 
-1.682280732148e-03 -1.155510517394e-03 0.0 
0.0 0.0 -2.900030392716e-04 
-1.244256880666e-03 3.271621003319e-03 0.0 
3.271621003319e-03 5.486132487448e-03 0.0 
0.0 0.0 -1.107581195644e-03 
-1.451044372397e-03 1.126612148562e-03 0.0 
1.126612148562e-03 8.289352558878e-03 0.0 
0.0 0.0 -1.285368862661e-03 
-1.527299749628e-03 6.691441746447e-05 0.0 
6.691441746447e-05 8.328526928916e-03 0.0 
0.0 0.0 -1.223917301752e-03 
-6.542601835067e-04 2.123935983624e-03 0.0 
2.123935983624e-03 4.536265029875e-03 0.0 
0.0 0.0 -1.264779455601e-03 
-1.569067467187e-03 4.931081965661e-04 0.0 
4.931081965661e-04 6.107235089411e-03 0.0 
0.0 0.0 -8.807565902733e-04 
9.036251718301e-04 -7.928332989266e-04 0.0 
-7.928332989266e-04 8.196583140466e-05 0.0 
0.0 0.0 -1.521090440113e-04 
0.0 0.0 0.0 
0.0 0.0 0.0 
0.0 0.0 0.0 
1.535104090838e-04 -8.781412906566e-04 0.0 
-8.781412906566e-04 3.080308650687e-04 0.0 
0.0 0.0 -1.564070233212e-04 
2.353484151011e-04 -2.169776398881e-03 0.0 
-2.169776398881e-03 1.011611602068e-03 0.0 
0.0 0.0 -5.344114359296e-04 
2.688329218860e-05 1.615046529758e-03 0.0 
1.615046529758e-03 -2.688329218860e-05 0.0 
0.0 0.0 0.0 
-1.313634282752e-03 -1.068658817985e-03 0.0 
-1.068658817985e-03 4.125079470398e-03 0.0 
0.0 0.0 -9.906016899089e-04 
-1.765538454854e-03 -6.603659762189e-04 0.0 
-6.603659762189e-04 6.689629757519e-03 0.0 
0.0 0.0 -1.222305993939e-03 
-1.487013992754e-03 2.874720261213e-03 0.0 
2.874720261213e-03 7.173251573241e-03 0.0 
0.0 0.0 -1.222833113937e-03 
-1.810465878115e-03 1.368618358307e-03 0.0 
1.368618358307e-03 5.754603684206e-03 0.0 
0.0 0.0 -8.826313165011e-04 
-9.427899726930e-04 -1.641697169279e-03 0.0 
-1.641697169279e-03 3.388954329502e-03 0.0 
0.0 0.0 -9.886704355714e-04 
-1.052300381815e-03 -2.069501750766e-03 0.0 
-2.069501750766e-03 5.090082794775e-03 0.0 
0.0 0.0 -1.221067908166e-03 
-3.450149565899e-04 -4.408348736528e-04 0.0 
-4.408348736528e-04 3.924699322023e-03 0.0 
0.0 0.0 -1.208702654310e-03 
-8.170914780341e-04 2.664423274710e-03 0.0 
2.664423274710e-03 5.146096323449e-03 0.0 
0.0 0.0 -1.272252409145e-03 
-1.123992376730e-03 3.068252591852e-03 0.0 
3.068252591852e-03 5.507273388894e-03 0.0 
0.0 0.0 -1.237422270938e-03 
-1.253834785736e-03 3.291285599942e-03 0.0 
3.291285599942e-03 5.877546624236e-03 0.0 
0.0 0.0 -1.171232062679e-03 
5.704301253037e-05 -1.249012332624e-03 0.0 
-1.249012332624e-03 7.024151054082e-04 0.0 
0.0 0.0 -3.254820505451e-04 
0.0 0.0 0.0 
0.0 0.0 0.0 
0.0 0.0 0.0 
-1.712539485778e-03 -1.411450056388e-03 0.0 
-1.411450056388e-03 6.539673002672e-03 0.0 
0.0 0.0 -1.223662873675e-03 
4.574946163465e-04 -1.248756071680e-04 0.0 
-1.248756071680e-04 4.764925333501e-04 0.0 
0.0 0.0 -3.004112795925e-04 
4.253951230566e-04 3.287859358848e-05 0.0 
3.287859358848e-05 7.852927410903e-04 0.0 
0.0 0.0 -3.059539021820e-04 
3.569372191111e-04 1.397839525162e-03 0.0 
1.397839525162e-03 1.545362028711e-04 0.0 
0.0 0.0 -2.192028951352e-04 
1.631271963867e-04 -1.346040378322e-03 0.0 
-1.346040378322e-03 7.094587977712e-04 0.0 
0.0 0.0 -2.452105594499e-04 
-1.114394941751e-03 -1.506329218264e-03 0.0 
-1.506329218264e-03 4.944157592562e-03 0.0 
0.0 0.0 -1.288571152055e-03 
-1.352715823829e-03 3.152231925611e-03 0.0 
3.152231925611e-03 6.563761337094e-03 0.0 
0.0 0.0 -1.290113636706e-03 
-1.510579169811e-03 9.854603377599e-04 0.0 
9.854603377599e-04 8.241359475843e-03 0.0 
0.0 0.0 -1.236907757659e-03 
-1.086519748050e-03 2.592005204986e-03 0.0 
2.592005204986e-03 5.044458595201e-03 0.0 
0.0 0.0 -1.292605224168e-03 
-2.276922230483e-04 -7.087333384445e-04 0.0 
-7.087333384445e-04 3.411401019740e-03 0.0 
0.0 0.0 -1.176879138244e-03 
-1.566246162816e-03 5.074519573883e-04 0.0 
5.074519573883e-04 6.374166084480e-03 0.0 
0.0 0.0 -9.170130443517e-04 
-1.345069444888e-03 1.513726926191e-03 0.0 
1.513726926191e-03 8.492915807412e-03 0.0 
0.0 0.0 -1.345069444888e-03 
1.877003485193e-03 -3.080309129991e-03 0.0 
-3.080309129991e-03 -5.962554255729e-04 0.0 
0.0 0.0 -5.488920255517e-04 
-1.475350828104e-03 1.976985984706e-04 0.0 
1.976985984706e-04 5.152730599786e-03 0.0 
0.0 0.0 -7.083073883397e-04 
7.042658253586e-04 -2.920094682842e-03 0.0 
-2.920094682842e-03 7.774626018425e-04 0.0 
0.0 0.0 -6.350264688005e-04 
7.675081391674e-04 -5.290525383807e-04 0.0 
-5.290525383807e-04 -3.861513785839e-05 0.0 
0.0 0.0 -2.518608130650e-04 
-1.493015975364e-03 -1.542117778823e-03 0.0 
-1.542117778823e-03 7.001843856807e-03 0.0 
0.0 0.0 -1.323850096553e-03 
-1.762927026530e-03 1.105745086140e-03 0.0 
1.105745086140e-03 5.347670343178e-03 0.0 
0.0 0.0 -7.731261162940e-04 
3.059071642176e-04 -4.769524246547e-04 0.0 
-4.769524246547e-04 1.116375202047e-03 0.0 
0.0 0.0 -3.136165521777e-04 
-1.289952526759e-03 -6.554530809443e-04 0.0 
-6.554530809443e-04 4.022238421528e-03 0.0 
0.0 0.0 -9.854929843998e-04 
-1.353447502636e-03 3.372255620603e-03 0.0 
3.372255620603e-03 6.903608554072e-03 0.0 
0.0 0.0 -1.276804206569e-03 
-1.580153705301e-03 9.463034913401e-04 0.0 
9.463034913401e-04 8.179177676168e-03 0.0 
0.0 0.0 -1.228616961883e-03 
-1.459295938370e-03 2.235750315535e-03 0.0 
2.235750315535e-03 7.840317348904e-03 0.0 
0.0 0.0 -1.289666537713e-03 
-1.042366719392e-03 -4.130279661277e-04 0.0 
-4.130279661277e-04 3.166645294064e-03 0.0 
0.0 0.0 -7.209785830746e-04 
0.0 0.0 0.0 
0.0 0.0 0.0 
0.0 0.0 0.0 
-1.330660736049e-03 -2.112854558462e-03 0.0 
-2.112854558462e-03 6.026587435622e-03 0.0 
0.0 0.0 -1.273144391159e-03 
-1.420679226607e-03 1.845062484055e-04 0.0 
1.845062484055e-04 8.984274218415e-03 0.0 
0.0 0.0 -1.325353038101e-03 
-1.599270300318e-03 -4.031472723049e-04 0.0 
-4.031472723049e-04 7.370420628954e-03 0.0 
0.0 0.0 -1.323783523096e-03 
-1.454892267765e-03 1.410388417337e-04 0.0 
1.410388417337e-04 5.404570969644e-03 0.0 
0.0 0.0 -7.673431308700e-04 
-5.798667066363e-04 -4.017993081382e-04 0.0 
-4.017993081382e-04 3.786051546347e-03 0.0 
0.0 0.0 -1.231867668451e-03 
-2.703199839151e-04 -3.327091265360e-04 0.0 
-3.327091265360e-04 1.134795808800e-03 0.0 
0.0 0.0 -2.923189298614e-04 
-1.540435464510e-03 1.974801601423e-03 0.0 
1.974801601423e-03 7.945053936292e-03 0.0 
0.0 0.0 -1.241575510934e-03 
7.093719106213e-04 -6.473525039570e-04 0.0 
-6.473525039570e-04 -6.146240833120e-06 0.0 
0.0 0.0 -2.201278046225e-04 
-1.035309467580e-03 -9.652751717972e-04 0.0 
-9.652751717972e-04 4.607784315543e-03 0.0 
0.0 0.0 -1.290713494763e-03 
-1.546892534215e-03 2.536580836788e-03 0.0 
2.536580836788e-03 7.963102419275e-03 0.0 
0.0 0.0 -1.268585396830e-03 
0.0 0.0 0.0 
0.0 0.0 0.0 
0.0 0.0 0.0 
-7.125328406643e-04 2.854381537959e-03 0.0 
2.854381537959e-03 4.690081759982e-03 0.0 
0.0 0.0 -1.178018281593e-03 
-1.581615712652e-03 6.406846432010e-05 0.0 
6.406846432010e-05 7.204958832163e-03 0.0 
0.0 0.0 -1.053859681778e-03 
-1.422126824857e-03 8.354035890497e-04 0.0 
8.354035890497e-04 8.383690559568e-03 0.0 
0.0 0.0 -1.289687241943e-03 
-1.346242744377e-03 1.394088556631e-03 0.0 
1.394088556631e-03 5.074174046536e-03 0.0 
0.0 0.0 -1.346242744377e-03 
-1.579226085277e-03 -2.236352472968e-04 0.0 
-2.236352472968e-04 6.673772320033e-03 0.0 
0.0 0.0 -9.627310317561e-04 
-1.352695242601e-03 3.190608641684e-03 0.0 
3.190608641684e-03 6.804006829943e-03 0.0 
0.0 0.0 -1.292510612804e-03 
-1.606507542629e-03 2.038310361331e-03 0.0 
2.038310361331e-03 7.743565210436e-03 0.0 
0.0 0.0 -1.236507170568e-03 
-1.568883613753e-03 1.757297800362e-04 0.0 
1.757297800362e-04 6.816128580048e-03 0.0 
0.0 0.0 -1.009625451247e-03 
-1.338198193755e-03 3.094920805743e-03 0.0 
3.094920805743e-03 6.452958212167e-03 0.0 
0.0 0.0 -1.247605899893e-03 
-1.069270980668e-03 -8.397930297141e-04 0.0 
-8.397930297141e-04 3.454365731416e-03 0.0 
0.0 0.0 -9.078723690805e-04 
-1.462959848022e-03 3.355807606363e-05 0.0 
3.355807606363e-05 4.925884328863e-03 0.0 
0.0 0.0 -7.287847301676e-04 
-7.853622933110e-04 2.799478897718e-03 0.0 
2.799478897718e-03 4.730479437110e-03 0.0 
0.0 0.0 -1.239219007812e-03 
-1.427801408329e-03 2.279610176079e-04 0.0 
2.279610176079e-04 8.599854493521e-03 0.0 
0.0 0.0 -1.286506427510e-03 
2.364174244584e-03 -3.920966346370e-05 0.0 
-3.920966346370e-05 -9.416422440926e-04 0.0 
0.0 0.0 -1.658991634594e-04 
-1.429614866782e-03 7.018012440351e-05 0.0 
7.018012440351e-05 4.945453144079e-03 0.0 
0.0 0.0 -7.284590636140e-04 
-1.619941162379e-03 -3.710140945832e-04 0.0 
-3.710140945832e-04 7.072586371596e-03 0.0 
0.0 0.0 -1.288082484959e-03 
-4.257310582937e-04 -7.375837559217e-04 0.0 
-7.375837559217e-04 1.550072552707e-03 0.0 
0.0 0.0 -4.679105978332e-04 
-2.651775118790e-04 1.741696615315e-04 0.0 
1.741696615315e-04 3.934086569527e-03 0.0 
0.0 0.0 -1.213252366005e-03 
-1.592381110183e-03 2.367463417435e-03 0.0 
2.367463417435e-03 7.496929060090e-03 0.0 
0.0 0.0 -1.225943235494e-03 
-1.523630465134e-03 6.434168762766e-04 0.0 
6.434168762766e-04 8.597347826225e-03 0.0 
0.0 0.0 -1.269037835114e-03 
-5.242932188711e-04 -5.062352980044e-04 0.0 
-5.062352980044e-04 1.580681758625e-03 0.0 
0.0 0.0 -3.173190315717e-04 
9.435665947915e-04 2.759812172338e-03 0.0 
2.759812172338e-03 -2.448701844830e-04 0.0 
0.0 0.0 -2.994413187036e-04 
-1.588603004086e-03 1.309858719882e-04 0.0 
1.309858719882e-04 4.764403352260e-03 0.0 
0.0 0.0 -1.056762885644e-03 
-1.577119311605e-03 2.587547752196e-04 0.0 
2.587547752196e-04 7.701946830658e-03 0.0 
0.0 0.0 -1.120841203304e-03 
0.0 0.0 0.0 
0.0 0.0 0.0 
0.0 0.0 0.0 
-1.448426484907e-03 1.878765382125e-03 0.0 
1.878765382125e-03 8.065670326291e-03 0.0 
0.0 0.0 -1.292233508669e-03 
-1.560868544091e-03 1.573692905966e-04 0.0 
1.573692905966e-04 6.444251121821e-03 0.0 
0.0 0.0 -9.501928138396e-04 
9.548640501235e-04 -2.932790788742e-03 0.0 
-2.932790788742e-03 4.477362362625e-04 0.0 
0.0 0.0 -6.011144084512e-04 
-1.577095330701e-03 2.356135282763e-04 0.0 
2.356135282763e-04 6.152695530289e-03 0.0 
0.0 0.0 -9.030544305944e-04 
-9.123359041244e-04 2.767752077309e-03 0.0 
2.767752077309e-03 5.381455446983e-03 0.0 
0.0 0.0 -1.271643562581e-03 
-1.672772992247e-03 -3.658378199310e-04 0.0 
-3.658378199310e-04 4.968645958279e-03 0.0 
0.0 0.0 -1.058796759180e-03 
-3.335840424817e-04 2.892543626116e-03 0.0 
2.892543626116e-03 3.335840424817e-04 0.0 
0.0 0.0 0.0 
-9.352736057356e-04 -8.421943932676e-04 0.0 
-8.421943932676e-04 3.140704490616e-03 0.0 
0.0 0.0 -9.009998304000e-04 
-1.402484368002e-03 -1.042823096176e-03 0.0 
-1.042823096176e-03 4.352884265014e-03 0.0 
0.0 0.0 -1.017945853013e-03 
-1.735012846972e-03 1.716303062956e-04 0.0 
1.716303062956e-04 5.112807218002e-03 0.0 
0.0 0.0 -1.063010248388e-03 
-5.677318458841e-04 1.906245464939e-03 0.0 
1.906245464939e-03 4.337997414081e-03 0.0 
0.0 0.0 -1.232780192057e-03 
-1.357670205510e-03 -6.381368347671e-04 0.0 
-6.381368347671e-04 4.227863364473e-03 0.0 
0.0 0.0 -1.035743023508e-03 
-1.479273144233e-03 -6.656278634480e-04 0.0 
-6.656278634480e-04 4.508927527855e-03 0.0 
0.0 0.0 -1.032702936181e-03 
1.040523643933e-04 -1.090937755128e-03 0.0 
-1.090937755128e-03 5.650850241542e-04 0.0 
0.0 0.0 -2.287174616664e-04 
-1.350567245042e-03 -1.731169106789e-03 0.0 
-1.731169106789e-03 5.793216621325e-03 0.0 
0.0 0.0 -1.240629869904e-03 
-1.027503594671e-03 3.327843857872e-03 0.0 
3.327843857872e-03 5.261023074075e-03 0.0 
0.0 0.0 -1.186362110037e-03 
1.189612951575e-03 2.308398015229e-03 0.0 
2.308398015229e-03 -4.894900924091e-04 0.0 
0.0 0.0 -3.000526539282e-04 
-1.387676757457e-03 4.952672058335e-05 0.0 
4.952672058335e-05 8.504316401028e-03 0.0 
0.0 0.0 -1.290349483557e-03 
-1.582576424774e-03 -1.560547969950e-04 0.0 
-1.560547969950e-04 7.007946096611e-03 0.0 
0.0 0.0 -1.290356026000e-03 
-1.460183445125e-03 -1.247594329356e-04 0.0 
-1.247594329356e-04 5.521441348557e-03 0.0 
0.0 0.0 -7.639788432047e-04 
-1.578918019610e-03 1.294379469898e-04 0.0 
1.294379469898e-04 6.639288700401e-03 0.0 
0.0 0.0 -9.358343396975e-04 
-1.420511664925e-03 -7.103380260756e-04 0.0 
-7.103380260756e-04 4.349288440906e-03 0.0 
0.0 0.0 -1.005720210571e-03 
-1.359175063422e-03 -8.855188390870e-04 0.0 
-8.855188390870e-04 4.258136974865e-03 0.0 
0.0 0.0 -1.040482674164e-03 
-1.527056262754e-03 -5.709073839489e-04 0.0 
-5.709073839489e-04 4.609671028000e-03 0.0 
0.0 0.0 -1.028873814706e-03 
-1.501496450629e-04 5.539703397871e-04 0.0 
5.539703397871e-04 3.298271412421e-03 0.0 
0.0 0.0 -1.180929064624e-03 
7.927858436439e-04 -3.045537929079e-03 0.0 
-3.045537929079e-03 8.494276970912e-04 0.0 
0.0 0.0 -7.038058031722e-04 
-1.116381248406e-03 3.165697137737e-03 0.0 
3.165697137737e-03 5.872062490069e-03 0.0 
0.0 0.0 -1.217816617926e-03 
-1.516247589342e-03 1.508277039824e-04 0.0 
1.508277039824e-04 5.685216966324e-03 0.0 
0.0 0.0 -8.376728236383e-04 
-1.571303365585e-03 1.703335586913e-03 0.0 
1.703335586913e-03 8.300700874157e-03 0.0 
0.0 0.0 -1.272153791098e-03 
-1.928595014899e-04 9.704790717136e-05 0.0 
9.704790717136e-05 3.265405422004e-03 0.0 
0.0 0.0 -1.181257232468e-03 
-1.580055462922e-03 1.466056733213e-04 0.0 
1.466056733213e-04 6.354105997974e-03 0.0 
0.0 0.0 -8.902468719968e-04 
-1.338698042931e-03 3.178297097849e-03 0.0 
3.178297097849e-03 6.247787653213e-03 0.0 
0.0 0.0 -1.201032862555e-03 
-6.620052052400e-04 2.218466919512e-03 0.0 
2.218466919512e-03 4.229615591751e-03 0.0 
0.0 0.0 -1.236767197193e-03 
-7.541183664370e-04 2.280565164163e-03 0.0 
2.280565164163e-03 4.995952357256e-03 0.0 
0.0 0.0 -1.270271405117e-03 
1.293451072768e-04 1.010666469426e-03 0.0 
1.010666469426e-03 -1.293451072768e-04 0.0 
0.0 0.0 0.0 
-1.368734881355e-03 2.988428396573e-03 0.0 
2.988428396573e-03 6.291274088760e-03 0.0 
0.0 0.0 -1.198686027802e-03 
-1.300476394130e-03 3.433743793017e-03 0.0 
3.433743793017e-03 6.406654162985e-03 0.0 
0.0 0.0 -1.227078865044e-03 
7.248957313196e-04 -1.043101674158e-03 0.0 
-1.043101674158e-03 5.245352296454e-04 0.0 
0.0 0.0 -2.668574800815e-04 
-1.256459332456e-03 -8.842282026345e-04 0.0 
-8.842282026345e-04 4.000740750754e-03 0.0 
0.0 0.0 -1.019774149770e-03 
0.0 0.0 0.0 
0.0 0.0 0.0 
0.0 0.0 0.0 
-1.414281382184e-03 3.115423266543e-03 0.0 
3.115423266543e-03 6.751118296047e-03 0.0 
0.0 0.0 -1.230789928679e-03 
-1.326401929546e-03 -1.098251756258e-04 0.0 
-1.098251756258e-04 4.716210200324e-03 0.0 
0.0 0.0 -6.488888888889e-04 
-1.341042556431e-03 -1.497445551792e-05 0.0 
-1.497445551792e-05 4.487654478362e-03 0.0 
0.0 0.0 -6.711111111111e-04 
-1.315258375770e-03 -3.279398266088e-06 0.0 
-3.279398266088e-06 4.798065319814e-03 0.0 
0.0 0.0 -6.488888888889e-04 
-1.368317620788e-03 -1.903812859008e-05 0.0 
-1.903812859008e-05 4.498221230458e-03 0.0 
0.0 0.0 -6.711111111111e-04 
-1.325994415009e-03 1.380554954630e-05 0.0 
1.380554954630e-05 4.806277874424e-03 0.0 
0.0 0.0 -6.488888888889e-04 
-1.380848091197e-03 -1.506252807686e-07 0.0 
-1.506252807686e-07 4.508257602630e-03 0.0 
0.0 0.0 -6.711111111111e-04 
-1.343944565664e-03 7.917736370567e-06 0.0 
7.917736370567e-06 4.818216293294e-03 0.0 
0.0 0.0 -6.488888888889e-04 
-1.386616382160e-03 -2.067760603014e-05 0.0 
-2.067760603014e-05 4.497592293928e-03 0.0 
0.0 0.0 -6.711111111111e-04 
-1.354669532048e-03 3.875023501283e-05 0.0 
3.875023501283e-05 4.799753708961e-03 0.0 
0.0 0.0 -6.488888888889e-04 
-1.406907359723e-03 3.160898061574e-05 0.0 
3.160898061574e-05 4.503118169212e-03 0.0 
0.0 0.0 -6.711111111111e-04 
-1.380682524645e-03 5.561565498039e-05 0.0 
5.561565498039e-05 4.809868159536e-03 0.0 
0.0 0.0 -6.488888888889e-04 
-1.435189363615e-03 3.130270196416e-05 0.0 
3.130270196416e-05 4.499809120004e-03 0.0 
0.0 0.0 -6.711111111111e-04 
-1.611535782568e-03 8.671279044143e-04 0.0 
8.671279044143e-04 4.506015908724e-03 0.0 
0.0 0.0 -7.049993574243e-04 
-1.401604438003e-03 9.330713447470e-05 0.0 
9.330713447470e-05 4.797672975585e-03 0.0 
0.0 0.0 -6.488888888889e-04 
-1.512351284449e-03 8.656230693377e-04 0.0 
8.656230693377e-04 4.297202840087e-03 0.0 
0.0 0.0 -7.256265952625e-04 
-1.438154550875e-03 9.647646109404e-05 0.0 
9.647646109404e-05 4.497364060681e-03 0.0 
0.0 0.0 -6.711111111111e-04 
-1.436151335856e-03 1.358395788754e-04 0.0 
1.358395788754e-04 4.800332653133e-03 0.0 
0.0 0.0 -6.488888888889e-04 
-1.499230372271e-03 1.062721523167e-04 0.0 
1.062721523167e-04 4.489570327750e-03 0.0 
0.0 0.0 -6.711111111111e-04 
-1.462608346469e-03 2.027818769099e-04 0.0 
2.027818769099e-04 4.774125764298e-03 0.0 
0.0 0.0 -6.488888888889e-04 
-1.532724437083e-03 1.968943510655e-04 0.0 
1.968943510655e-04 4.482722825432e-03 0.0 
0.0 0.0 -6.711111111111e-04 
-1.501447223794e-03 2.766209172912e-04 0.0 
2.766209172912e-04 4.769601642763e-03 0.0 
0.0 0.0 -6.488888888889e-04 
-1.557872225570e-03 2.720774980370e-04 0.0 
2.720774980370e-04 4.471068660141e-03 0.0 
0.0 0.0 -6.711111111111e-04 
-1.549932705829e-03 1.034482702559e-03 0.0 
1.034482702559e-03 4.338594692453e-03 0.0 
0.0 0.0 -6.619668726724e-04 
-1.539964497909e-03 3.703806189017e-04 0.0 
3.703806189017e-04 4.750827424066e-03 0.0 
0.0 0.0 -6.488888888889e-04 
-1.593531228853e-03 3.628458802930e-04 0.0 
3.628458802930e-04 4.447964373288e-03 0.0 
0.0 0.0 -6.711111111111e-04 
-1.575889340432e-03 4.997462669703e-04 0.0 
4.997462669703e-04 4.711328261492e-03 0.0 
0.0 0.0 -6.488888888889e-04 
-1.590906187641e-03 5.071802277050e-04 0.0 
5.071802277050e-04 4.406658573059e-03 0.0 
0.0 0.0 -6.802731460288e-04 
-1.553155722451e-03 6.861757538348e-04 0.0 
6.861757538348e-04 4.351637703117e-03 0.0 
0.0 0.0 -7.011174395038e-04 
-1.617910879156e-03 6.689844391721e-04 0.0 
6.689844391721e-04 4.669016158580e-03 0.0 
0.0 0.0 -6.488888888889e-04 
-1.669910948397e-03 8.547088690357e-04 0.0 
8.547088690357e-04 4.635783510319e-03 0.0 
0.0 0.0 -6.488888888889e-04 
-1.565389776433e-03 1.113185015486e-03 0.0 
1.113185015486e-03 4.431052665958e-03 0.0 
0.0 0.0 -7.101757656324e-04 
-1.502983049113e-03 1.045931653920e-03 0.0 
1.045931653920e-03 4.336949778081e-03 0.0 
0.0 0.0 -7.680142566644e-04 
-1.382040473179e-03 -3.190058038896e-04 0.0 
-3.190058038896e-04 4.672355147485e-03 0.0 
0.0 0.0 -6.600000000000e-04 
-1.311697345882e-03 3.879464369525e-04 0.0 
3.879464369525e-04 4.545991971317e-03 0.0 
0.0 0.0 -6.600000000000e-04 
-1.392413986569e-03 1.825900643476e-05 0.0 
1.825900643476e-05 4.677427317752e-03 0.0 
0.0 0.0 -6.822222222222e-04 
-1.299551274357e-03 6.542939229750e-05 0.0 
6.542939229750e-05 4.553563985542e-03 0.0 
0.0 0.0 -6.377777777778e-04 
-1.453247710607e-03 1.192137069286e-03 0.0 
1.192137069286e-03 4.178885573169e-03 0.0 
0.0 0.0 -7.047837856643e-04 

SCALARS element_materi_plasti_kappa_shear float
LOOKUP_TABLE default
2.638449368411e-03
2.307880314974e-03
5.668059790692e-03
5.685840565928e-03
3.968724762264e-03
2.227775623384e-03
3.926609063437e-03
2.603981897009e-03
3.959861142706e-03
5.676159459017e-03
3.789460879762e-03
2.166184027025e-03
4.891618303360e-03
4.239593676266e-03
4.915486508882e-03
5.763080812267e-03
3.957109970888e-03
9.864085158715e-05
1.385502992053e-03
1.310811347843e-03
5.684919687706e-03
2.668003560693e-03
2.830444855211e-03
2.887992383095e-03
4.492952651090e-03
3.999825579596e-03
3.772973464484e-03
4.950933107395e-03
4.446798420902e-03
3.154878546999e-03
2.756846244610e-03
9.905717093618e-04
5.968283596401e-03
4.581378283716e-03
4.439297578914e-03
4.887177070447e-03
5.091662130986e-03
3.236750732307e-03
3.615750744496e-03
3.662711387174e-03
3.132788783305e-03
4.003574433579e-03
2.231218125306e-03
3.619781891395e-03
5.614862315127e-03
2.308537538977e-03
2.567928975722e-03
5.479464518158e-03
8.195853011298e-04
4.082692105509e-03
3.028705324844e-03
1.800022130003e-03
3.293726347817e-03
2.963783223813e-03
5.752538416863e-03
2.317662380795e-03
1.680471960424e-03
4.591779384906e-03
1.282089538117e-03
5.743217870912e-03
0.0
3.970806248155e-03
2.953445704213e-03
3.287038662097e-03
4.914099357777e-03
2.824966036789e-03
0.0
5.862902570517e-03
2.620748184046e-03
5.405750626231e-03
4.123083578977e-03
5.868967824668e-03
4.513723255217e-03
9.779064778028e-04
2.287061364591e-03
5.715984257660e-03
5.955190373470e-03
2.225229681789e-03
8.958780141002e-04
2.309523210765e-03
2.623606725785e-03
3.807044789785e-03
2.701030844542e-03
2.283651859930e-03
4.111166650998e-03
4.102179279090e-03
4.228241446566e-03
4.546798255786e-03
5.028716670229e-03
3.901152697752e-03
6.549433232101e-04
3.920650833441e-03
4.955587413478e-03
5.010029682247e-03
6.082587846612e-03
3.583046306489e-03
3.812238424463e-03
4.309414704673e-03
4.319293153851e-03
3.152072117772e-03
3.806820599516e-03
4.894923453038e-03
2.752080048091e-03
3.649256563451e-03
2.864912835823e-03
2.832888651383e-03
4.791522079347e-03
5.257296183678e-03
6.216847982976e-04
4.789762209254e-03
4.946970942302e-03
1.455853485302e-03
3.116660414769e-03
3.646713869330e-03
2.740266031467e-03
2.565730635348e-03
3.111248311779e-03
4.481696809263e-03
4.267994674223e-03
2.744319843462e-03
2.256121814009e-03
4.028535080126e-03
5.125478964429e-03
2.884095006377e-03
1.634010763882e-03
3.343960081378e-03
2.825136596843e-03
3.200895695618e-03
5.840634446844e-03
3.049581698772e-03
3.964814282569e-03
5.700506446746e-03
3.554006587530e-03
3.223480759992e-03
4.236959910874e-03
4.935732901856e-03
4.220142662913e-03
3.782725374417e-03
3.633905000164e-03
3.434454553281e-03
5.667308756995e-03
5.731127569311e-03
4.159105326719e-03
4.705255006089e-03
3.527054415500e-03
3.060528253236e-03
3.807578355912e-03
3.078773552032e-03
3.873095872756e-03
3.370616847934e-03
7.627933793163e-04
4.106841682748e-03
9.591787070335e-04
3.491582586837e-03
3.620903548599e-03
2.658320563693e-03
4.383820681644e-03
2.313821533157e-03
3.280595579104e-03
3.781797064791e-03
3.239934934191e-03
4.666843953081e-03
1.844128017672e-03
4.751176865938e-03
3.949884846235e-03
4.988018486650e-03
3.771577015596e-03
2.896598297230e-03
3.483459645253e-03
3.893786270809e-03
2.298745108616e-03
3.272701774280e-03
4.841674106423e-03
3.900979634001e-03
3.037833255544e-03
3.320787467051e-03
5.050201609921e-03
3.079663805871e-03
4.649906474497e-03
5.561012058297e-03
2.890227526471e-03
2.943961554453e-03
2.210045688094e-03
3.349611072643e-03
2.235768342795e-03
3.804052174663e-03
3.255583921612e-03
5.686869579948e-03
5.039238049397e-03
4.717478710770e-03
2.309621426061e-03
3.143595662693e-03
5.111000880600e-03
0.0
3.256985193650e-03
2.315875762829e-03
1.186781807755e-03
5.879212306885e-03
4.749545806609e-03
3.205712272384e-03
1.923895110586e-03
4.248611553850e-03
4.390119912627e-03
3.260852054243e-03
2.726046229142e-03
3.866905638561e-03
4.085059299403e-03
4.849847065370e-03
4.084848891733e-03
3.788784052669e-03
2.384045379571e-03
4.854751456170e-03
0.0
2.534886222220e-03
2.875294506275e-03
3.926615174907e-03
5.120800106263e-03
2.883704576323e-03
2.560806566150e-03
3.780927287153e-03
3.250336732161e-03
2.904934106925e-03
9.744138873205e-04
5.002746784696e-03
1.187677453753e-03
9.712234474307e-04
2.285555067131e-03
2.450408811608e-03
5.091607850684e-03
2.428262004319e-03
2.774880105580e-03
3.779138720656e-03
1.803156298713e-03
1.957999132830e-03
3.924614645831e-03
4.859013116495e-03
0.0
3.040676180201e-03
3.206874618957e-03
3.130650380996e-03
2.062644621155e-03
4.885442700903e-03
4.892149880117e-03
3.059373875750e-03
2.149562808967e-03
4.104130610049e-03
4.011618650566e-03
4.856263363195e-03
4.079661242982e-03
3.170623979729e-03
2.775910294641e-03
4.348640566437e-03
6.080884502444e-03
4.012120085899e-03
2.651654117440e-03
4.174160396721e-03
2.772644652466e-03
4.114504492513e-03
3.290795862291e-03
2.811701725688e-03
3.471873507376e-03
5.142731837040e-03
4.219310466071e-03
2.711805464269e-03
5.231202940207e-03
4.958047196859e-03
4.103438709337e-03
4.637764333400e-03
2.438306330947e-03
4.211956383520e-03
3.365372856234e-03
2.450675261700e-03
2.887962119562e-03
3.878533253387e-03
2.940597055344e-03
2.728683675051e-03
4.958207544711e-03
0.0
4.231308200600e-03
3.120397780434e-03
3.113605546757e-03
2.278736831083e-03
4.503373325418e-03
1.884659263120e-03
3.120901491325e-03
2.297614029118e-03
4.243041167150e-03
4.240307436026e-03
1.373936041198e-03
2.435310679187e-03
3.155120820171e-03
3.003223930663e-03
4.798301013803e-03
3.306297059749e-03
2.985321424422e-03
3.188763902837e-03
1.370686704752e-03
3.117506418936e-03
2.564683140303e-03
6.161779301333e-03
6.171298087031e-03
3.871585823704e-03
3.224089549692e-03
3.155590452933e-03
4.317766949050e-03
3.003359536048e-03
2.608662778043e-03
3.938150114374e-03
5.859163444552e-03
3.214653691530e-03
2.969191311487e-03
2.861811173678e-03
3.768586856653e-03
3.337633072254e-03
4.030230270756e-03
2.035757012657e-03
1.094219009940e-03
3.031075150381e-03
2.930652641428e-03
4.078338297131e-03
6.100030670434e-03
3.051206385844e-03
1.821620188347e-03
2.861790791984e-03
4.656042724998e-03
2.349687270255e-03
2.816498775574e-03
4.525435709533e-03
5.833892866330e-03
2.486522419678e-03
6.151276113808e-03
4.485990906698e-03
4.856089461195e-03
2.611916462935e-03
3.799226166888e-03
4.210806094155e-03
4.343507042612e-03
3.883342781648e-03
5.453648402860e-03
4.408884898377e-03
3.954238356753e-03
2.946932738359e-03
2.126147916000e-03
3.626304909236e-03
2.828752624356e-03
3.908082809323e-03
3.189022324685e-03
2.979438473071e-03
5.107150669262e-03
3.057133034874e-03
3.948493172096e-03
1.767047002602e-03
3.219295742043e-03
4.649421512783e-03
3.423567528206e-03
2.373751734207e-03
2.784414744251e-03
2.725624955031e-03
2.452240531365e-03
5.184269692729e-03
4.210892199139e-03
3.195156139090e-03
3.675464466287e-03
3.719198240263e-03
3.156300643646e-03
5.270722120897e-03
4.951030620452e-03
2.791959147438e-03
3.435291521076e-03
2.714045320190e-03
2.771808396209e-03
4.119259232477e-03
1.360400106286e-03
3.400766620885e-03
5.356429761657e-03
2.456112603846e-03
3.687823897699e-03
4.067889866897e-03
3.485977458347e-03
6.171877983723e-03
6.194847258957e-03
5.749913356992e-03
3.020677987419e-03
5.279204517925e-03
2.613300540084e-03
2.741755212613e-03
2.004260055720e-03
3.406978849626e-03
3.842950909138e-03
4.513278632072e-03
3.244307823644e-03
5.163355495152e-03
4.386423237293e-03
4.476099206042e-03
2.391474383936e-03
1.955161698588e-03
3.217570021580e-03
3.872368428504e-03
3.338770506916e-03
1.812371568338e-03
4.015486225802e-03
2.355558185555e-03
3.278219706871e-03
3.673414290175e-03
1.915648292058e-03
3.981389866812e-03
1.053059668761e-03
3.652003582868e-03
3.330842304649e-03
4.441446771420e-03
6.067281547840e-03
3.807583682193e-03
4.322942112553e-03
3.526145110671e-03
5.255189385440e-03
3.347041718801e-03
5.955073764805e-03
5.938883086238e-03
5.933478345374e-03
5.925413924026e-03
4.598269985990e-03
5.190485547386e-03
5.356291838170e-03
3.172127365247e-03
3.189545386338e-03
3.291257441844e-03
5.278332870253e-03
5.650465782490e-03
5.386391458906e-03
2.086314033400e-03
5.331196890249e-03
3.953887606243e-03
3.284431480345e-03
3.285128967487e-03
3.301125392640e-03
5.759722545496e-03
2.921518703947e-03
4.716770599090e-03
3.382244159206e-03
3.419989620685e-03
3.235774226863e-03
3.108654577361e-03
5.912838273886e-03
5.757913193712e-03
4.236288878953e-03
1.032336198831e-03
5.784372647958e-03
3.094301216638e-03
3.133163714027e-03
1.473651489525e-03
4.377992282328e-03
0.0
3.076087156915e-03
4.393331777553e-03
4.078214650418e-03
4.173061940919e-03
3.172673925433e-03
5.528089032988e-03
2.695300704482e-03
6.061028079687e-04
4.784301089445e-03
1.109397696731e-03
3.558631343330e-03
2.671343080510e-03
3.641731318210e-03
3.626491229388e-03
5.164773912347e-03
4.369311817321e-03
2.723039152115e-03
3.202065681838e-04
3.393270163090e-03
4.000013488580e-03
3.998607249003e-03
4.091967694103e-03
4.682585152391e-03
3.977798602140e-03
6.148717226547e-03
4.046693637694e-03
4.375476627736e-03
2.475463655856e-03
2.038113747758e-03
2.665603733635e-03
4.155084444683e-03
5.944456476497e-03
5.933805245862e-03
3.347496143322e-03
3.141954240646e-03
3.636565096111e-03
3.524861024850e-03
3.764870203374e-03
3.214228737877e-03
2.609429685079e-03
2.752166065871e-03
4.525635562498e-03
3.964553113648e-03
2.737089484301e-03
3.599211839311e-03
2.982464518279e-03
5.872767812275e-03
5.256518196814e-03
6.948896764315e-04
2.926992632798e-03
5.363068251323e-03
5.678180438031e-03
4.516604651069e-03
3.800290162266e-03
2.959233318371e-03
2.645089123398e-03
2.991327947613e-03
2.961565605678e-03
1.984606166548e-03
5.360282778703e-03
2.617597906633e-03
2.719354908298e-03
4.219904639673e-03
2.558238552366e-03
2.945805251787e-03
4.447306010212e-03
4.403301426083e-03
3.203880338452e-03
3.270240138625e-03
3.822758874253e-03
2.320351021533e-03
2.695647363228e-03
3.241179321446e-03
4.055854335950e-03
4.302137120783e-03
2.006945487216e-03
3.504931263533e-03
3.493889225164e-03
3.226663955409e-03
3.195012242961e-03
3.705694372684e-03
2.015330950654e-03
3.674094389629e-03
5.465741692552e-03
2.782005441388e-03
3.605540778520e-03
3.144508273297e-03
3.122849437202e-03
2.256333325417e-03
4.140151503650e-03
5.431033007288e-03
3.225301536712e-03
3.778146397866e-03
3.509424093333e-03
3.382045560242e-03
4.257156002915e-03
2.174643724136e-03
3.150567633663e-03
1.746587665764e-03
4.710220312248e-03
3.696882214136e-03
2.499260062841e-03
4.393497597306e-03
3.304371545067e-03
1.515148851359e-03
2.794723090240e-03
3.870525163770e-03
5.202539231559e-04
3.198860063348e-03
3.122843769625e-03
3.536839909767e-03
3.054969112373e-03
3.133169061378e-03
4.394974799046e-03
3.171453652514e-03
3.954441890249e-03
4.408365611268e-03
3.531054572272e-03
4.293331672903e-03
3.469160005882e-03
0.0
4.342827187450e-03
2.815733446127e-03
1.169868182888e-03
3.377528405656e-03
3.017950135559e-03
5.309388747160e-03
1.836141118027e-03
1.645439494872e-03
3.818624685672e-03
3.581263554169e-03
5.741565943865e-03
4.177684629919e-03
1.850928756814e-03
2.067405024286e-03
1.416744999512e-03
2.579714406710e-03
4.842819569639e-03
5.316030625827e-03
3.796388360631e-03
2.739477237490e-03
3.923275296672e-03
2.756654641123e-03
1.368956117904e-03
2.826459377297e-03
2.346887089609e-03
4.356557030682e-03
4.139689611657e-03
3.039564492647e-03
3.507425817395e-03
3.484969287982e-03
2.724837710706e-03
1.738579034053e-03
2.880004918018e-03
1.059860394561e-03
3.342988300000e-03
3.564932177344e-03
9.012381607526e-04
2.910014888118e-03
5.510045432400e-03
1.959702749170e-03
3.585704259986e-03
3.723526099815e-03
1.268716263999e-03
2.392889037010e-03
3.063515298584e-03
2.813209111348e-03
4.210048530920e-03
5.103573185464e-03
5.177892081959e-03
2.829945348819e-03
1.363451425510e-03
3.691969532227e-03
3.550626997966e-03
3.676511325993e-03
1.285478420515e-03
8.537344141222e-04
7.845181071081e-04
2.162938812804e-03
1.377340432524e-03
3.170219899797e-03
0.0
2.524870915773e-03
4.491269867148e-03
3.700282617022e-03
5.066161758074e-03
3.327949804502e-03
4.251884330892e-03
2.509212341416e-03
1.018037242248e-03
5.829475890603e-03
6.039028528119e-03
4.216434674855e-03
3.565489033799e-03
2.587498848121e-03
5.999263223227e-03
2.442752516004e-03
3.696609549568e-03
3.563907472710e-03
3.514699694935e-03
5.927065042664e-03
6.015277257663e-03
1.330400211541e-03
1.449907591737e-03
1.344592241943e-03
3.643608196866e-03
4.850396606121e-03
0.0
5.101358492196e-03
1.409139728971e-04
1.499124232117e-03
3.824208957472e-04
0.0
2.029814193675e-03
4.688865864911e-03
4.611649624509e-03
3.864254668426e-03
9.306078872588e-04
4.020589784949e-03
5.797624803762e-03
5.973591106953e-03
3.688007304244e-03
1.196237126604e-03
5.834612071299e-03
3.414725027011e-03
9.671159728271e-04
1.409744689688e-03
9.368666534769e-04
2.773625038877e-03
5.128733981852e-03
5.686078140094e-03
1.614169892137e-03
3.141780048589e-03
4.903795419049e-03
5.124707089311e-03
4.540751789241e-03
4.863760003676e-03
5.230664655895e-03
4.885659315087e-03
4.900079095049e-03
5.104618843216e-03
2.371313285604e-03
3.639130252576e-03
3.700407251155e-03
1.543007074285e-03
4.822691056273e-03
4.723797952646e-03
4.594502443142e-03
2.187658065542e-03
2.078158679153e-03
4.298928970353e-03
4.465695048772e-03
4.739825188448e-03
3.625004239622e-03
4.980074041723e-03
4.182381661481e-03
3.612530889479e-03
1.648586597975e-03
1.078919747717e-03
9.715320649564e-04
8.189522588763e-04
3.276017880373e-03
3.023112973762e-03
3.897742298982e-04
4.028126407989e-03
2.904706458492e-04
5.885086834910e-03
5.811364703112e-03
5.844706076157e-03
1.127270833140e-03
2.214903500655e-03
5.806505327904e-03
4.688671280238e-03
5.826774921975e-03
4.813055851057e-03
4.917144813202e-03
2.903322035183e-03
6.008349193016e-03
6.003877113261e-03
4.727827648335e-03
4.864305038441e-03
4.249335747199e-03
0.0
3.175859147544e-03
1.259325279811e-03
4.420798695160e-03
3.384638883793e-03
4.409067033902e-03
2.131043982543e-03
1.108023222196e-03
4.695482135487e-03
3.365831542969e-03
2.646631452456e-03
4.556588175849e-03
5.414895944389e-03
2.656831201839e-03
3.200576911771e-03
3.816886599349e-03
4.190899904542e-03
4.331300515814e-03
2.822232598008e-03
3.605666078604e-03
3.473782743791e-03
3.959311659394e-03
4.657481856823e-03
4.474738788930e-03
2.497721918515e-03
5.428170056435e-03
5.196932708230e-03
3.994972095663e-03
4.018877418988e-03
4.067532001752e-03
5.468828346424e-03
5.334434594670e-03
3.777218885507e-03
4.785229386991e-03
5.183640898652e-03
4.486085823949e-03
4.626918442455e-03
5.440760853048e-03
4.828731435924e-03
3.492214324912e-03
1.813629337524e-03
2.595415623829e-03
1.751915947168e-03
1.311389193297e-03
5.325791288567e-03
4.638904880307e-03
1.232072997821e-03
5.349220756651e-03
4.109200150890e-03
4.453473742339e-03
4.501290464753e-03
2.822661026846e-03
4.600361826760e-03
3.989940508894e-03
1.568365711787e-03
4.607579259789e-03
1.682217231393e-03
4.433060704539e-03
4.965853579252e-03
1.931234771425e-03
2.536905363929e-03
3.506959235330e-03
4.546823231474e-03
2.929878446617e-03
5.094658413771e-03
4.689487714454e-03
3.549548679273e-03
4.373859018118e-03
4.508144441649e-03
4.950601638813e-03
1.602271484754e-03
3.405781233643e-03
3.108775469077e-03
5.079843116042e-03
3.194307102305e-03
3.880531337843e-03
4.194530845224e-03
4.813687637528e-03
2.696113206384e-04
1.541456333067e-03
1.874707634932e-03
4.535680067079e-03
4.684102630711e-03
3.785681380179e-03
4.265606377495e-03
3.105476038775e-03
3.587079011170e-03
4.392674845493e-03
1.860767443432e-03
4.452816754116e-03
3.543702289538e-03
1.992785431315e-03
3.392397121739e-03
2.975423009005e-03
2.515877789845e-03
3.725661475432e-03
9.890849693237e-04
7.121019429699e-04
4.132428392348e-03
1.740140079302e-03
4.103577769620e-03
3.987009557526e-03
3.370047699069e-03
3.248806400505e-03
5.300420175180e-03
2.104285098993e-03
2.995450123017e-03
2.940527097191e-03
1.410651741479e-03
4.429529881649e-03
4.136718757980e-03
1.859816294009e-03
3.894261520894e-03
4.933477745413e-03
1.699722713993e-03
5.408694418047e-03
5.411197824938e-03
2.017061567542e-03
2.915404601559e-03
2.179306637539e-03
4.367605250964e-03
3.647788208579e-03
5.489535749250e-03
5.304729192866e-03
4.231498250215e-03
4.146491013705e-03
1.780674243216e-03
4.280532226645e-03
4.934868325194e-03
3.669316609231e-03
4.695546322833e-03
5.063717161736e-03
2.645489529404e-03
5.190164349716e-03
3.272404207533e-03
3.596661715041e-03
2.751844944681e-03
3.019000093276e-03
4.810385432176e-03
3.246422704326e-03
2.264566458407e-03
1.689403800147e-03
4.815225778648e-03
2.226110953632e-03
4.194754128453e-03
4.940895878954e-03
4.276223362945e-03
3.112253213804e-03
3.202020562987e-03
1.919623832173e-03
1.352217145348e-03
4.164633130640e-03
4.560658305418e-03
1.177128837243e-03
2.915068821861e-03
1.620327168500e-03
4.555465457417e-03
2.973416926450e-03
3.909810264466e-03
2.724408296497e-03
5.208767427969e-03
2.593619795372e-03
4.035142549939e-03
2.532928249258e-03
4.024142569854e-03
3.450900747862e-03
4.136123601672e-03
2.485244761370e-03
1.564757219021e-03
4.294495704809e-03
2.163488820880e-03
3.387401299419e-03
4.565662359774e-03
2.738581822716e-03
4.665942928302e-03
1.465348703278e-03
4.246327033609e-03
1.699623542301e-03
2.032350589391e-03
5.536974569683e-03
3.426908671018e-03
1.540384123316e-03
3.758577465195e-03
3.927524684089e-03
2.715033437353e-03
4.314845763778e-03
4.948351979472e-03
3.360890771607e-03
3.891846381777e-03
4.252820554628e-03
2.212724349773e-03
2.843833598180e-03
4.035789724437e-03
3.996131275531e-03
3.575096828484e-03
3.792627721388e-03
4.802343365754e-03
4.415034608388e-03
4.389129640424e-03
3.467263775261e-03
3.595494986516e-03
3.583279255749e-03
4.289394557029e-03
5.421975200704e-03
2.486182053314e-03
3.861488826342e-03
5.063142224082e-03
3.131891392016e-03
3.028041098227e-03
1.823938140991e-03
3.705908196928e-03
3.091369410019e-03
4.675935954995e-03
4.534875968551e-03
2.056161555857e-03
2.786655864969e-03
2.873165513745e-03
2.868546210609e-03
3.110365765296e-03
1.843618803568e-03
3.272992134604e-03
3.412916071715e-03
5.192089283469e-03
3.281566540745e-03
3.626240938450e-03
3.586985508785e-03
3.409305181201e-03
1.897398460282e-03
3.604818096321e-03
3.888630237913e-03
4.421922450971e-03
3.317485446496e-03
3.647674555787e-03
4.673336337087e-03
3.224252799485e-03
3.496064654626e-03
2.622358304585e-03
3.055333394029e-03
3.164663825952e-03
2.311141121049e-03
2.125313783725e-03
3.477924834306e-03
3.736945563828e-03
4.738585916756e-03
1.315321289851e-03
2.446620192041e-03
2.982448329977e-03
3.433203482514e-03
4.531582693643e-03
3.499304588405e-03
2.673974497719e-03
3.139905464342e-03
5.072747806473e-03
2.707809154280e-03
1.166214898562e-03
1.463299212712e-03
2.914504388254e-03
3.018723201689e-03
2.686713935682e-03
3.062407380188e-03
2.712109552951e-03
1.499659389839e-03
4.359635542217e-03
2.393958649680e-03
3.066798902882e-03
4.495652146628e-03
4.450791082476e-03
5.300178894970e-03
4.977951589195e-03
2.397146190700e-03
4.416844529747e-03
3.119400395624e-03
3.332129797491e-03
3.122426360325e-03
2.988793531740e-03
2.855846187293e-03
3.177000482072e-03
2.756193394155e-03
2.592075865469e-03
2.421633066575e-03
3.387402253471e-03
2.293172573691e-03
2.277057048855e-03
2.911114260278e-03
1.155684839829e-03
4.799837983891e-03
2.295247612437e-03
3.251041652365e-03
3.393599796704e-03
3.145369302234e-03
3.078086569887e-03
5.318104494318e-03
4.480500477960e-03
2.985180505105e-03
4.544225245269e-03
5.407567982517e-03
2.819844426375e-03
3.291868619470e-03
4.617460502529e-03
3.604719748764e-03
2.828319211559e-03
5.770682299556e-03
2.324148480044e-03
2.632797394299e-03
5.423157329672e-03
1.479799231386e-03
4.397525855562e-03
5.165585481733e-03
2.315901153844e-03
1.693562376470e-03
5.527898528543e-03
3.711930513200e-03
4.919552001560e-03
1.951673982838e-03
3.287761322064e-03
5.034502267977e-03
5.186304779390e-03
3.552693579741e-03
3.534005249318e-03
4.400555289825e-03
4.253543167516e-03
2.943285220908e-03
3.519756308427e-03
3.287722794547e-03
1.604761110599e-03
2.916005013921e-03
2.089170602373e-03
2.495795305072e-03
3.131259226377e-03
5.609482615871e-03
5.438909998859e-03
5.417054799902e-03
3.703317504642e-03
5.161557093516e-03
3.868518273720e-03
5.545650970965e-03
4.897334775276e-03
3.311771604763e-03
2.197730088428e-03
5.053606803532e-03
5.398699092692e-03
5.059342313408e-03
4.930251969398e-03
3.686756924755e-03
2.638215958256e-03
3.385656639266e-03
3.735595459470e-03
3.380928897864e-03
1.515738106098e-03
4.891642251278e-03
2.057605305164e-03
2.303129579541e-03
1.798145096306e-03
1.202338881616e-03
2.291547627481e-03
2.255519192117e-03
1.119365171026e-03
3.821601090175e-03
3.628201443266e-03
4.633003595104e-03
3.816334825167e-03
1.776186669795e-03
3.629386261877e-03
1.548469868944e-03
5.595449219484e-03
1.931840670526e-03
3.698695061029e-03
4.663243438870e-03
2.011134684472e-03
1.247841792706e-03
1.362382450494e-03
3.956724378172e-03
3.694573121702e-03
3.378959753737e-03
3.476784983087e-03
3.160808567775e-03
1.209468731441e-03
5.051259765074e-03
3.748618971867e-03
3.477272273897e-03
1.950538792296e-03
4.782003339930e-03
3.210604208948e-03
5.183136400848e-03
1.092245890419e-03
2.105066893939e-03
3.669072015162e-03
1.206486766565e-03
5.304264296023e-03
2.175618363556e-03
1.951041802013e-03
3.970362899570e-03
5.544534571255e-03
3.589900622387e-03
4.195224401096e-03
4.919263556773e-03
3.618574329088e-03
2.771490720799e-03
3.147261186437e-03
2.962169357454e-03
3.142630492045e-03
3.544072557654e-03
1.522290315329e-03
6.123405621243e-03
2.263220382989e-03
3.970342460406e-03
2.658927723359e-03
4.758938700212e-03
1.696532885482e-03
3.388847263524e-03
3.457624531915e-03
2.514428578240e-03
1.677345446119e-03
2.396212171815e-03
2.754267880200e-03
3.227262210638e-03
4.988779509347e-03
2.815825285194e-03
4.795644255112e-03
5.516289922385e-03
5.146103467286e-03
5.257081820144e-03
3.182071023712e-03
4.029201795451e-03
5.042361025696e-03
2.756595180965e-03
2.647290714061e-03
3.056301189697e-03
2.572569436643e-03
2.462008023465e-03
2.644345930535e-03
1.440401882729e-03
3.630426804566e-03
1.569273956402e-03
5.480811851792e-03
5.602378623592e-03
1.419199509514e-03
5.275547562051e-03
2.804242796237e-03
4.372719245337e-03
2.891727352859e-03
5.381895938702e-03
3.185020396507e-03
3.346610583280e-03
2.289654001474e-03
3.542499471540e-03
3.433320806316e-03
3.266208049097e-03
2.035076047681e-03
2.493404353718e-03
2.201070291381e-03
5.424319885087e-03
5.590129291020e-03
3.903582702292e-03
2.909258766393e-03
2.335058945798e-03
5.293513921390e-03
1.953817967391e-03
4.234737884749e-03
5.172652995614e-03
5.124227989435e-03
9.277188622567e-04
2.506898590902e-03
4.525242961084e-03
4.563239763712e-03
3.241690536946e-03
2.241320889607e-03
2.833288907621e-03
4.078547169666e-03
4.419169055791e-03
5.013620306272e-03
2.282293485652e-03
4.307804809555e-03
1.686847443505e-03
5.290274890223e-03
4.851002717086e-03
4.643175649224e-03
2.345179317856e-03
1.807172178817e-03
1.801948734361e-03
3.359707236442e-03
5.507142592636e-03
5.108003363980e-03
1.046447068849e-03
2.179901417413e-03
3.852336584431e-03
3.800392508022e-03
2.586138136504e-03
9.771895354138e-04
2.930181311238e-03
2.283701537404e-03
1.568412579387e-03
4.696631355627e-03
4.607881037575e-03
4.766072203044e-03
4.081754060291e-03
4.603369163212e-03
4.379957173959e-03
4.618906992019e-03
2.458376662123e-03
4.098638148539e-03
4.907202475208e-03
5.648784616652e-03
4.495095601971e-03
2.548434779706e-03
3.912793135380e-03
5.512760513766e-03
3.001262042829e-03
3.180884923332e-03
2.468543689254e-03
5.028337068141e-03
3.427253910037e-03
3.290153938343e-03
3.675470650321e-03
2.182285102727e-03
4.189801390205e-03
2.291578316535e-03
1.349449754861e-03
5.636015473331e-03
3.625895958899e-03
2.103450277769e-03
4.046287823861e-03
4.878000002137e-03
3.895798009600e-03
3.114017949884e-03
8.889497729122e-04
4.793301523209e-03
4.034143798685e-03
2.338495865229e-03
4.679004096829e-03
0.0
3.545292720195e-03
3.183419108901e-03
4.620052298240e-03
3.760015126243e-03
2.393922234819e-03
4.445933361572e-03
3.448409215898e-03
2.584776922099e-03
4.250432662385e-03
1.906468634271e-03
4.153126910283e-03
1.818802017300e-03
5.293743423829e-03
4.239353654533e-03
2.394815569185e-03
4.179465517636e-03
5.639919064863e-03
3.534684727708e-03
2.288195308190e-03
2.779857412875e-03
4.157293753941e-03
4.559059439739e-03
3.534808419225e-03
4.252606570727e-03
4.782120039691e-03
4.278791894662e-03
3.738223600894e-03
3.499074933205e-03
3.494139593801e-03
4.747419654542e-03
4.255099070675e-03
3.839964885528e-03
4.569340265878e-03
3.056246348132e-03
2.393304954355e-03
2.930480403413e-03
6.086851266750e-03
4.117844399000e-03
3.455995573439e-03
3.753400023371e-03
2.472071372363e-03
3.491628202087e-03
4.204348122107e-03
4.268597776756e-03
4.772004198945e-03
4.710233733702e-03
4.692963440339e-03
1.106720622824e-03
3.608330547153e-03
3.820362875112e-03
4.664326353529e-03
4.680096484355e-03
2.352584026883e-03
1.558884795758e-03
2.654480659438e-03
3.731003145245e-03
3.466490700851e-03
3.315280051285e-03
3.510786059953e-03
4.741445271794e-03
3.000739119005e-03
3.725942709322e-03
1.882186228005e-03
1.989209782105e-03
4.859365221654e-03
5.378791863780e-03
3.622412790060e-03
4.086298431898e-03
8.788451117360e-04
2.150327118180e-03
4.157073371539e-03
8.318441689136e-04
5.408814910997e-03
1.796994317519e-03
4.563827465076e-03
4.326693611244e-03
2.179157756358e-03
2.902957421488e-03
5.531946144864e-03
2.724274636976e-03
3.597238446451e-03
3.949741788311e-03
1.387126890400e-03
1.483538630366e-03
4.094562523506e-03
4.462003929120e-03
4.216899447097e-03
3.250175486718e-03
5.197689124532e-03
4.432557972304e-03
3.662154238880e-03
4.324815174578e-03
4.318493610634e-03
4.118093824424e-03
3.698739609380e-03
3.642170033284e-03
5.589231027012e-03
3.013506558343e-03
4.255186571382e-03
2.631728022376e-03
2.719221655027e-03
3.230635052550e-03
2.472264286779e-03
1.402294089302e-03
2.643957478187e-03
4.711133417206e-03
2.471516709082e-03
4.468472658716e-03
2.193648896864e-03
1.986292001410e-03
2.990854761195e-03
4.632153164590e-03
4.258818863725e-03
4.455822626565e-03
2.409857783535e-03
4.599243387348e-03
4.586353591898e-03
3.003262797050e-03
3.764237663719e-03
1.259809435264e-03
4.417137978971e-03
2.598861938414e-03
3.559924899756e-03
2.891071441809e-03
4.599295072823e-03
4.492928374407e-03
3.946747793921e-03
3.008453656814e-03
3.177730900320e-03
4.583213391973e-03
3.022048143241e-03
1.998492614778e-03
1.639620437187e-03
1.813972294795e-03
2.527763030566e-03
3.023198208948e-03
4.233192300425e-03
3.640278608643e-03
1.787168974819e-03
3.020737013717e-03
3.250114505745e-03
4.609207531696e-03
1.720484110792e-03
4.768807741004e-03
2.542365269620e-03
3.372604860332e-03
3.955992186008e-03
3.843149938690e-03
2.565660421796e-03
3.009689123218e-03
4.457896627465e-03
1.960918397589e-03
4.405903501378e-03
3.240600366134e-03
3.564971743917e-03
2.068612722327e-03
3.806478467456e-03
4.436879848710e-03
1.816133218611e-03
2.713220334332e-03
2.003794310319e-03
1.222241799405e-03
3.754040591865e-03
4.602132618812e-03
4.606753680845e-03
2.762317310720e-03
5.921576080326e-03
2.002934537381e-03
2.912859680010e-03
2.189495913324e-03
3.665001844436e-03
3.520328983887e-03
2.638881836419e-03
2.895778659108e-03
4.043104173156e-03
2.482129023893e-03
5.209900433282e-03
3.214049017557e-03
3.647482495706e-03
3.710983494359e-03
2.656638786889e-03
3.855170451250e-03
4.566671673770e-03
4.366198307929e-03
1.028648459849e-03
0.0
2.165054714133e-03
3.723014921691e-03
2.395137752120e-03
2.817631679997e-03
2.513976997857e-03
3.806732758052e-03
4.815158278389e-03
3.775227130307e-03
2.362468453277e-03
4.403407743042e-03
4.096150277746e-03
2.928708125507e-03
3.798202669823e-03
3.830814983830e-03
2.434166470534e-03
2.429201062824e-03
3.861528244714e-03
4.613156150105e-03
4.387204249011e-03
2.657070979426e-03
3.880643775732e-03
2.837716406776e-03
2.485420115051e-03
3.105685387870e-03
2.225639351650e-03
2.780093807569e-03
2.725707991279e-03
2.761000011738e-03
3.893879650775e-03
2.100922071665e-03
3.891918480221e-03
3.915697350990e-03
2.204461836540e-03
3.709703770702e-03
0.0
5.365652246451e-03
2.578069340872e-03
2.173697461019e-03
3.448943280229e-03
3.975644968851e-03
4.011347503913e-03
2.443864926480e-03
1.964861984032e-03
1.711666579155e-03
4.092079591951e-03
2.346058795579e-03
2.509223878502e-03
4.534649018568e-03
2.777991002642e-03
4.537667482143e-03
4.058891197805e-03
0.0
5.816180050420e-03
4.902062641942e-03
3.881412651745e-03
2.440978645024e-03
3.770170632493e-03
2.426839343308e-03
1.518214254580e-03
1.660184359322e-03
5.546974744787e-03
4.665874526858e-03
3.739497969649e-03
5.215858982210e-03
1.786753972791e-03
4.945218504881e-03
4.727704294311e-03
2.892091425302e-03
3.818142524302e-03
2.797163094051e-03
2.426438530921e-03
2.920765910813e-03
4.893505897122e-03
4.727405870860e-03
2.743689612102e-03
4.673515583297e-03
0.0
2.485522009972e-03
5.040677103797e-03
3.152365298128e-03
2.607652291814e-03
3.607194230213e-03
3.172614263735e-03
2.188759691854e-03
2.409032827129e-03
2.923122928886e-03
2.479690312005e-03
2.876821812237e-03
4.465612370866e-03
5.532694685970e-03
2.480976938953e-03
4.855765288150e-03
5.147151796070e-03
2.491148219769e-03
2.231684133508e-03
3.071159247528e-03
2.618928641937e-03
4.855263855775e-03
2.512300808846e-03
2.262013899534e-03
2.743671721340e-03
2.429414246353e-03
2.905151765398e-03
2.632275217683e-03
3.664855587076e-03
4.505149016415e-03
2.765225984554e-03
2.582205512883e-03
2.386883807025e-03
2.387003191431e-03
0.0
5.504082384171e-03
5.322543550804e-03
7.848135277644e-04
2.549500333694e-03
2.400638059406e-03
2.463285382783e-03
4.810923744731e-03
3.198165242386e-03
4.606096513073e-03
2.664651155853e-03
3.655834997024e-03
4.200689173686e-03
2.113752298900e-03
1.912300493824e-03
3.255578082472e-03
1.273953511854e-03
4.816843425833e-03
2.290848895151e-03
2.168710725122e-03
2.559244781557e-03
4.283416494899e-03
4.812195502839e-03
2.539570789041e-03
3.643462494389e-03
4.855540140174e-03
2.948190669232e-03
2.976334480875e-03
2.027418807040e-03
2.926129920543e-03
4.448255544290e-03
2.964508539853e-03
5.409142776678e-03
5.734258886474e-03
4.026664295728e-03
5.743896818908e-03
5.718569705541e-03
2.582070465025e-03
2.595631204153e-03
3.199953522585e-03
0.0
1.902903777885e-03
3.604210869196e-03
2.807391870645e-03
2.804874001204e-03
2.021751019950e-03
2.194943763957e-03
4.142001498770e-03
2.644769460266e-03
2.249798190126e-03
3.567736017229e-03
4.967219196927e-03
4.886134841971e-03
2.605300666506e-03
3.828525680063e-03
0.0
1.957535475967e-03
3.521502279004e-03
1.981252673420e-03
2.924275991023e-03
2.745952613108e-03
2.849229022871e-03
2.462891224688e-03
5.296655538006e-03
2.503533226713e-03
5.524289484905e-03
5.153625615526e-03
6.001172921191e-03
5.100455085511e-03
4.110540018138e-03
2.637651237191e-03
2.100855566225e-03
3.191285649529e-03
4.869911819269e-03
1.668585154639e-03
1.835666317314e-03
2.227285640186e-03
3.938213713365e-03
5.540832376998e-03
4.655361428653e-03
3.499491474384e-03
5.052024159388e-03
4.084593475503e-03
2.632811007746e-03
2.862235179152e-03
4.698107313135e-03
3.316215251475e-03
3.587892556505e-03
3.896233695222e-03
4.114095616366e-03
4.188562373750e-03
1.799506149793e-03
2.750045215379e-03
5.853261315327e-03
4.426727944562e-03
3.704988570506e-03
5.563415471233e-03
4.701176930839e-03
5.605287308872e-03
2.984653430048e-03
2.899269361477e-03
3.882189993689e-03
0.0
2.099672330588e-03
4.918810832529e-03
9.297763855901e-04
3.755397294441e-03
2.797405890751e-03
1.199320246670e-03
1.287155906031e-03
6.012085979982e-03
3.536739645719e-03
5.807206894269e-03
2.659927490576e-03
3.526193540084e-03
0.0
5.649183673557e-03
1.226889212049e-03
5.591486415216e-03
4.894034742833e-03
5.539486036354e-03
2.262943268428e-03
4.213950339262e-03
3.025007021002e-03
3.131326445098e-03
4.091554630855e-03
5.020955983920e-03
3.911662398283e-03
5.268125805587e-04
4.885085777727e-03
3.118765135349e-03
9.712620635747e-04
3.457233058136e-03
5.927711436663e-03
5.789822867449e-03
3.808569037443e-03
4.215889140078e-03
2.538577934307e-03
5.833806765854e-03
2.555830622428e-03
2.490656388983e-03
3.320251670345e-03
3.625198829927e-03
5.701509361268e-03
5.926679449314e-03
5.825453120953e-03
2.375146025770e-03
1.855020722498e-03
3.558870854792e-03
3.632521599668e-03
4.888825416704e-03
5.046946971521e-03
1.549964253441e-03
0.0
4.672705056340e-03
4.574124372469e-03
1.492817307624e-03
4.534041151919e-03
3.791507055834e-03
3.441092852532e-03
4.640515334488e-03
3.044493888229e-03
3.085586377938e-03
1.541679909506e-03
3.205964040354e-03
5.539122948349e-03
5.470096428524e-03
3.349468659420e-03
4.316012489498e-03
5.096328403816e-03
5.066889044332e-03
4.866255092984e-03
3.513811278074e-03
2.745903881909e-03
5.643353601341e-03
2.006177374357e-03
1.336548591570e-03
4.740994586223e-03
1.967258917603e-03
3.030928276529e-03
4.804010908766e-03
4.798192704978e-03
4.457553134226e-03
4.812474116929e-03
4.086135366692e-03
0.0
1.909648872290e-03
2.592269180864e-03
4.073105943506e-03
3.300295154598e-03
5.598216389854e-03
3.155889343856e-03
2.080876808324e-03
1.684831239890e-03
1.996726710914e-03
4.805748266782e-03
2.545899529970e-03
5.665640345273e-03
1.260613380941e-03
2.717034335033e-03
4.089865816188e-03
4.150741350700e-03
3.513862819322e-03
4.079622705219e-03
3.886731369533e-03
5.955413447924e-03
5.808855366257e-03
1.973720843828e-03
5.623880488313e-03
5.288178170346e-03
2.706065533823e-03
3.694588255657e-03
4.724906017287e-03
5.013738577708e-03
0.0
2.864341795004e-03
5.304542939534e-03
4.364446428508e-03
4.836626331640e-03
3.730875922937e-03
4.587318565965e-03
5.089225402943e-03
3.906899070662e-03
3.750017617316e-03
3.537069004234e-03
2.588839608145e-03
5.047138554197e-03
3.933020823055e-03
5.546377694027e-03
1.946527573604e-03
5.421130664064e-03
4.841192871563e-03
9.322091538505e-04
2.293274876912e-03
5.049998438284e-03
5.689077263393e-03
5.605137768792e-03
3.830427027326e-03
4.275713481985e-03
1.034452648196e-03
0.0
9.165803274728e-04
2.306330849804e-03
1.615302709508e-03
3.232809435929e-03
4.778427176324e-03
5.703044928894e-03
4.347082166528e-03
3.002796748421e-03
4.148995897399e-03
2.783709893463e-03
4.463871432644e-03
4.932249577077e-03
5.252682971647e-03
1.354054557860e-03
0.0
4.840119537013e-03
7.233031137748e-04
8.681517225348e-04
1.435436843906e-03
1.472272678795e-03
3.855676984439e-03
5.537407312308e-03
5.639733232520e-03
4.436603250530e-03
2.523558595448e-03
4.438054910322e-03
5.878210086007e-03
3.406643456978e-03
3.631025882734e-03
3.027978513677e-03
7.658097359086e-04
5.095377053932e-03
4.007087122991e-03
1.117452099742e-03
3.054154399225e-03
5.821463871987e-03
5.616162225123e-03
5.771476761292e-03
2.378943900085e-03
0.0
4.729401298327e-03
5.982820025955e-03
5.116893597155e-03
3.780141864939e-03
2.757852932878e-03
1.016540728646e-03
5.742488357776e-03
8.130160899770e-04
3.471132188594e-03
5.976997195660e-03
0.0
4.334445045259e-03
4.928068088589e-03
5.685262055675e-03
3.960311455775e-03
4.602685966077e-03
5.674047741207e-03
5.673486810091e-03
4.691284669015e-03
5.438753250395e-03
2.700307817537e-03
3.496149835990e-03
4.345309502369e-03
5.753633298066e-03
1.736380299792e-03
3.496568385412e-03
4.939582600280e-03
1.368820282863e-03
2.744988563961e-03
5.663738979536e-03
5.807014388648e-03
1.265820552801e-03
2.857699370651e-03
3.526860356291e-03
5.236929301907e-03
0.0
5.763265201970e-03
4.458722862593e-03
3.044071100787e-03
4.287981028573e-03
4.654162068594e-03
3.688235848984e-03
2.911816278768e-03
2.490177180056e-03
3.382376733098e-03
3.778484931935e-03
3.590372836895e-03
3.200278276933e-03
3.401617339723e-03
1.200485253478e-03
4.444142389629e-03
4.959617724818e-03
2.494216693804e-03
5.683473093287e-03
4.880068419398e-03
3.847676400356e-03
4.572298701193e-03
3.295609289569e-03
3.277091984412e-03
3.455826167072e-03
2.410347476307e-03
3.171270214627e-03
5.151777217512e-03
3.979240728433e-03
5.867901631608e-03
2.336872728529e-03
4.397657744471e-03
5.380026001316e-03
3.734283041452e-03
4.159349955921e-03
1.018917914231e-03
5.297615537063e-03
5.603907969465e-03
1.200386500765e-03
3.098141903975e-03
0.0
5.607338238193e-03
3.312321515307e-03
3.189480759148e-03
3.353757832105e-03
3.204854301679e-03
3.362122923095e-03
3.214839365167e-03
3.375029482880e-03
3.210761067781e-03
3.368277685235e-03
3.220984354806e-03
3.383169786334e-03
3.228836678226e-03
3.413512167486e-03
3.384151656869e-03
3.268396400584e-03
3.229750214111e-03
3.398976425987e-03
3.246842334506e-03
3.396439375541e-03
3.258900424221e-03
3.412527509879e-03
3.266513004898e-03
3.338906532064e-03
3.424132635284e-03
3.274787641877e-03
3.430715204795e-03
3.271602579017e-03
3.264657004864e-03
3.450357719823e-03
3.490825941533e-03
3.429189117639e-03
3.349503053138e-03
3.322189248393e-03
3.233743975656e-03
3.318513455877e-03
3.206052030725e-03
3.282745160465e-03

SCALARS element_materi_plasti_phimob float
LOOKUP_TABLE default
2.300359799089e+01
1.924826062976e+01
2.058673326941e+01
1.674493419250e+01
-5.590038182547e+00
2.362608563432e+01
-5.328898527576e+00
2.132936055684e+01
-4.363868057319e+00
1.669473504516e+01
1.962244280207e+01
2.140506904195e+01
2.089370972161e+01
2.544706136327e+00
2.075982670733e+01
1.727811085446e+01
-6.219447528540e+00
2.601600111392e+01
1.750992793158e+01
1.121413813400e+01
1.664525738880e+01
1.905907230944e+01
2.104525353168e+01
2.246125852016e+01
8.379905984364e+00
1.981977500894e+01
-5.276876636125e-03
2.289994491068e+01
9.612833732291e+00
2.229103979064e+01
1.932649819833e+01
-2.283226586511e+01
2.022169086774e+01
2.113053763625e+01
2.138762853678e+01
2.094364126716e+01
2.086496483160e+01
2.246988865587e+01
-1.368276419382e+01
-1.449842612853e+01
2.049490407723e+01
2.121016190414e+01
2.260043350760e+01
1.499316123570e+00
1.606524136730e+01
2.039347254227e+01
2.185052132461e+01
1.632759737476e+01
1.858362859079e+01
8.747243884302e-01
2.095796014117e+01
1.566391889325e+01
2.184837193024e+01
1.727470830594e+01
1.902468734144e+01
1.582240031446e+01
1.327330855174e+01
2.122477569967e+01
1.006668825210e+01
1.724387166519e+01
1.123210709451e+01
2.328781378028e+01
2.224303420221e+01
2.131961310349e+01
2.092655576887e+01
1.776983962484e+01
1.565368409269e+01
2.055313516755e+01
1.014662128785e+01
2.192597501859e+01
1.996861789638e+01
1.934074130012e+01
2.247512173391e+01
-1.200566238031e+01
1.609348047363e+01
1.702590818363e+01
1.867008378656e+01
2.196989413824e+01
9.179713025436e+00
2.294427012760e+01
1.101006229310e+01
-6.857716892738e+00
2.168157810480e+01
2.079299882601e+01
-2.850862351744e-01
-8.240556680142e-01
2.025710888765e+01
2.116809850049e+01
1.845682607328e+01
-4.466549935429e+00
-1.855528455777e+01
3.514313125983e+00
1.262209905061e+01
1.212187671455e+01
1.834259579418e+01
2.189844950503e+01
-4.935585709715e+00
2.174611132866e+01
5.369914839546e+00
1.978675045364e+01
-9.027169076226e+00
2.082271574974e+01
2.475374093714e+01
2.299541838825e+01
2.257608151245e+01
1.680882791076e+01
2.100825070434e+01
1.388897342534e+01
2.288979264683e+01
2.076517422978e+01
1.844842168204e+01
-2.583792662561e+01
2.511100190820e+01
1.145699137233e+01
1.766398157016e+01
2.185927325516e+01
2.091562825175e+01
2.115178739361e+01
3.689161576254e+00
2.339972691085e+01
7.357709686967e+00
5.250937574725e+00
1.413527289225e+01
2.156163519658e+01
2.606440137780e+01
1.882948216639e+01
1.758620448834e+01
1.585237598770e+01
1.768900339429e+01
2.347877465145e+01
1.982069448385e+01
1.679000201900e+01
1.876012418093e+01
2.025013659252e+01
2.159162731554e+01
2.087008644934e+01
2.056093754286e+01
1.895064280421e+01
2.205353037717e+01
1.743642266474e+01
1.725125835044e+01
2.220320020586e+01
4.008633475920e+00
9.543523092539e+00
1.879432038648e+01
1.666436528882e+01
1.924964396446e+01
2.383453785513e+01
-8.299290247707e+00
2.502365736629e+01
-2.031113012827e+01
-1.155610736112e+00
1.279586307773e+01
1.426715506662e+01
2.134694685610e+01
2.369881131359e+01
2.083104736158e+01
2.008643844144e+01
2.499952436886e+01
-7.726030569960e+00
2.552902794062e+01
2.114438156654e+01
6.947889470172e+00
2.104289987869e+01
1.277337579465e+01
2.110119792675e+01
-8.278176305843e+00
2.393616204170e+01
9.814273485783e+00
1.966923906160e+01
2.355104109132e+01
2.521939309457e+01
1.098318739178e+01
-8.522429293221e+00
2.454814222392e+01
1.357622552864e+01
2.157253471853e+01
1.824517554806e+01
2.222490110224e+01
2.236404062346e+01
1.918170339329e+01
1.812619882822e+01
2.327860825900e+01
1.881559189866e+01
2.132525618613e+01
1.051232455243e+01
2.448294724368e+01
1.718628153772e+01
1.693380378139e+01
2.108819224531e+01
2.136266760800e+01
2.531501792249e+01
1.798903146319e+01
1.163678969314e+01
1.654220615120e+01
2.368050452115e+01
-2.393056562784e+00
1.918260733878e+01
1.294707488584e+01
1.999039238238e+01
2.418610408604e+01
7.355648664521e+00
7.309226212805e+00
2.196198797655e+01
1.648319165908e+01
2.073909606623e+01
1.458521870067e+01
1.366724494890e+01
1.308922100744e+01
1.234709375889e+01
2.645700759144e+01
2.099389668685e+01
1.175314546655e+01
2.139621692414e+01
2.085868724078e+01
2.013891130896e+01
1.717061129230e+01
2.420120690931e+01
2.379793800007e+01
-8.960118728551e+00
2.578204193711e+01
2.379896810438e+01
-1.642667242109e+01
1.466313359108e+01
-2.263645984756e+01
1.613051513539e+00
2.251698386370e+01
1.497043716465e+01
1.516269579089e+01
1.428385486120e+01
2.155872103428e+01
1.736656568712e+01
8.716897105903e+00
2.389600694663e+01
1.410421858182e+01
2.099737905145e+01
1.015435092103e+01
2.269826306794e+01
2.631328873973e+01
1.749607421262e+01
2.437215440817e+01
2.109219625440e+01
1.621092609452e+01
2.428213099784e+01
2.348669862328e+01
1.998175878309e+01
1.951837534255e+01
1.451159359272e+01
2.252800268607e+01
2.578463817277e+01
2.086446819907e+01
1.423299568585e+01
1.827595320933e+01
2.132958536496e+01
2.668154262013e+01
1.768875155107e-01
1.120338746169e+01
1.191322779988e+01
2.510863422812e+01
2.461295855051e+01
2.245729049331e+01
1.491797103951e+01
1.495333294890e+01
2.453444597388e+01
1.541279383654e+01
1.719147974414e+01
1.878629921409e+01
2.087269543269e+01
2.750860931501e+01
1.794321621599e+01
2.467064539922e+01
2.664699762963e+01
2.523359524493e+01
2.100680626928e-01
2.621836505051e+01
2.420790560610e+01
1.585994069922e+01
8.607687810980e+00
1.251202835241e+01
2.594113843194e+01
2.198270372137e+01
2.442067074112e+01
1.506266713018e+01
-2.930328564378e+00
1.969111346513e+01
2.729132476364e+01
1.394170548089e+01
5.276230383192e+00
2.526901454818e+01
2.552898556479e+01
2.289019731925e+01
1.939525491108e+01
1.500500703057e+01
1.960434367379e+01
2.686471781853e+01
2.639672874263e+01
2.347376456968e+01
2.538791347347e+01
2.068682588044e+01
1.989403081883e+01
2.090730223670e+01
2.210223589997e+01
2.508058873232e+01
2.204673897348e+01
1.837024597501e+01
2.333176118844e+01
2.449632181638e+01
1.828631011389e+01
1.710737494939e+01
2.592346773605e+01
2.635477288878e+01
2.171900831885e+01
2.165170789322e+01
2.403050885003e+01
1.992939237164e+01
2.496538591434e+01
2.632266200267e+01
2.686403522764e+01
2.360585924006e+01
1.608867456994e+01
2.205183744762e+01
2.647564989987e+01
2.686309102236e+01
2.099340225702e+01
8.689961463247e+00
2.443054278897e+01
2.024341486977e+01
7.296713186587e+00
2.257173035381e+01
2.378047245635e+01
2.169305373275e+01
8.056215160123e+00
1.900550992018e+01
1.920896074218e+01
1.563454220883e+01
1.639352123286e+01
1.706512255832e+01
2.182718637961e+01
2.258714749784e+01
8.582615196779e+00
1.118606196785e+01
2.592332106447e+01
1.261118359893e+01
1.444208549653e+01
2.294094500251e+01
-7.891530522787e+00
2.226087334401e+01
2.524569389982e+01
1.590582423296e+01
2.212299493387e+01
1.536002834207e+01
2.701030870152e+01
2.319041896350e+01
2.234773151953e+01
1.815227296777e+01
2.585357306762e+01
1.967455952742e+01
1.865752093849e+01
2.259884034635e+01
1.803270854769e+01
2.029031035142e+01
1.901282763461e+01
1.475765859066e+01
2.198714854579e+01
2.255664077809e+01
1.781848495751e+01
1.502963543880e+01
2.274413564584e+01
2.030650272817e+01
2.444663518690e+01
2.511870504134e+01
2.086849288671e+01
2.628640247372e+01
1.886594123047e+01
1.705115381573e+01
2.457693782931e+01
2.230142827884e+01
1.733099492763e+01
2.150836600512e+01
2.123226149415e+01
2.051858643970e+01
1.913132847001e+01
2.297903785011e+01
1.526097214566e+01
2.202901774159e+01
2.578917812663e+01
2.369700033292e+01
1.922506671185e+01
-1.686163431260e+00
7.181901292325e+00
2.232042538055e+01
1.939866119596e+01
1.340751057630e+01
1.764273568445e+01
2.521280406729e+01
2.510377016379e+00
2.586997211969e+01
2.294583698437e+01
2.555655351480e+01
2.510273234163e+01
-1.285021228503e-01
1.182742179329e+01
2.391986266660e+01
2.088727757228e+01
2.599075104867e+01
9.210484255814e+00
1.139725933869e+01
2.169776667019e+01
2.573559530677e+01
1.597547962153e+01
2.234366888833e+01
1.364141397751e+01
1.966115361323e+01
1.929842472125e+01
1.606246305084e+01
2.394952865927e+01
2.242943397037e+01
2.194955354641e+01
2.082951906363e+01
2.146235645454e+01
1.663519307376e+01
1.625071646765e+01
1.919355590925e+01
2.264595081642e+01
2.113290954025e+01
1.865381129418e+01
1.720828055854e+01
2.261336224929e+01
1.628415642725e+01
2.676788558067e+01
1.641416447954e+01
2.433467014273e+01
2.408315242170e+01
1.864561225118e+01
2.315625188586e+01
1.781811273609e+01
2.384312994316e+01
2.235496443539e+01
1.900350561210e+01
2.044562227594e+01
2.153226665209e+01
2.402336782030e+01
2.209787724094e+01
1.946578271157e+01
2.071523037666e+01
-1.346495112980e+01
2.217182694259e+01
2.167285453223e+01
2.194133936805e+01
2.661218583867e+01
2.224907077131e+01
-4.764424340794e+01
2.405927104994e+01
2.009280174433e+01
2.137409763948e+01
1.916136939480e+01
2.278469968715e+01
2.207394364925e+01
2.622302511023e+01
2.497390182950e+01
2.130511581740e+01
-1.804776501471e+01
1.625155742224e+01
1.981246489451e+01
1.156006797364e+01
2.184625058756e+01
2.185458099802e+01
1.554810710729e+01
1.496425483686e+01
2.628868865868e+01
1.561661288633e+01
2.217952807182e+01
-3.832915617201e-01
1.029930748399e+01
2.160875304585e+01
-2.670853818122e+00
1.960148772923e+01
2.437194801728e+01
4.700532456636e+00
2.272470410527e+01
2.681720541104e+01
2.269636426737e+01
2.135627906806e+01
2.172450124504e+01
2.117321318973e+01
2.245640298638e+01
1.841828604791e+01
2.332540288553e+01
2.369637706457e+01
2.114419612558e+01
2.319830140502e+01
2.496719200871e+01
2.437496318602e+01
6.812945083640e+00
2.151700865816e+01
1.322487759622e+01
2.095610603458e+01
2.301201205762e+01
2.217634685847e+01
1.933778873713e+01
-4.483043108034e+01
2.529688759037e+01
1.576641216700e+01
2.214901788975e+01
1.784745861189e+01
2.449949284099e+01
2.235768044228e+01
2.230655442456e+01
2.242520096332e+01
2.313503116637e+01
1.532277343992e+01
2.197192897866e+01
2.354765798156e+01
2.326116533848e+01
2.715199919965e+00
1.785022352448e+01
2.366983253977e+01
1.892675886120e+01
2.148301669849e+01
1.877859104887e+01
2.368022812674e+01
2.330744510433e+01
2.531417482311e+01
2.467501467595e+01
2.346780166380e+01
2.252726677840e+01
2.314984273143e+01
2.568471994874e+01
2.416310302344e+01
1.898740662415e+01
2.325436400583e+01
1.864725537202e+01
2.451043171689e+01
2.752314693178e+01
2.174151160617e+01
1.664499957702e+01
1.599882517786e+01
2.103988140990e+01
2.244775105405e+01
2.606238210661e+01
4.326546991007e+00
2.146527891620e+01
1.728531113630e+01
2.118798095082e+01
2.082419189621e+01
2.310233662573e+01
1.994257553697e+01
1.125385658070e+01
2.685320162706e+01
2.195498104032e+01
2.543661368810e+01
1.356196689104e+01
1.768710878416e+01
2.516747193410e+01
4.725522480566e+00
1.847984978707e+01
2.629090546685e+01
2.117194886179e+01
2.117377921979e+01
-3.696098566175e+01
2.351388821223e+01
2.171262725786e+01
1.948624989384e+01
2.587836472380e+01
2.412805543064e+01
5.216333913934e+00
1.983248095127e+01
2.077273880717e+01
2.122471496018e+01
1.941000083705e+01
2.172181113648e+01
1.928914909782e+01
-3.481912009829e+01
1.203908026450e+01
1.772205545374e+01
-5.777560834913e+01
1.909733553660e+01
2.379834287982e+01
1.461269068897e+01
2.616882775626e+01
2.615860417203e+01
8.723656383686e+00
-7.802933129881e+00
1.818538308774e+01
2.213134332689e+01
-5.189766016284e+01
9.271523578353e+00
-6.142219625843e+00
1.578479443802e+01
2.168835526413e+01
1.456111069583e+01
2.244956462844e+01
1.669918128121e+01
2.013296235870e+01
2.312939000794e+01
2.428899159479e+01
1.764527901253e+01
1.626286699197e+01
2.136856709236e+01
2.072701955467e+01
1.825886492173e+01
1.936015396119e+01
2.284349696422e+01
2.297127972128e+01
1.034345766090e+01
2.327882721217e+01
-1.344060602628e+00
1.909559249373e+01
1.947472654889e+01
-1.831351996923e+01
1.792389532873e+01
1.660885655333e+01
-5.388374779270e+01
-5.113173591575e+00
-4.719913716394e+00
2.543177721932e+01
1.621533115714e+01
2.067174803202e+01
2.079447848914e+01
2.174709834276e+01
2.215811273068e+01
1.349748314850e+01
1.978915810207e+01
1.119734661287e+00
1.702763571081e+01
-1.227193936028e+01
-1.457103682031e+01
-5.668777565589e+01
-1.855862761745e+01
2.588250881791e+00
1.451881524457e+01
-1.848750990591e+01
1.855043041485e+01
3.594189523335e+00
1.619489520735e+01
8.161153435605e+00
-1.078759951114e+01
2.119274563401e+01
2.362858241947e+01
4.647546928430e+00
1.670109521022e+01
-5.341500200893e-01
1.859539497913e+01
1.799764158661e+01
1.519099061772e+00
-1.114977326837e+01
1.687375714214e+01
1.786405159685e+01
1.551464936822e+01
-8.202312007542e+00
-9.377746164960e+00
1.326107264238e+01
2.049112198573e+01
1.787230181741e+01
-1.890979493007e+01
-5.633666878610e+01
4.757424831541e+00
1.974416590139e+01
2.095596719643e+01
1.156383012677e+01
1.336819186883e+01
4.859278585373e+00
2.562063159807e+01
-1.598984067495e+01
1.919648598104e+01
2.554755485674e+01
2.114557793577e+01
7.914090082785e+00
1.813948991772e+01
-1.828987380788e+01
2.022898868292e+01
1.801524588165e+01
1.777710261290e+01
-1.261487677510e+01
2.546647799587e+01
1.840499980278e+01
2.447457127789e+01
-8.808518224298e-01
-1.877760055226e+01
-1.921539745647e+01
1.753779581584e+01
2.083880801256e+01
1.678601297093e+01
-5.649070511948e+01
1.850557722544e+01
2.057816922589e+01
2.090232747754e+01
2.132016175355e+01
1.141329377271e+01
1.421001903229e+01
2.056699105650e+01
2.057783107838e+01
1.337393632905e+01
-5.492536068774e+01
-1.563957251598e+01
-1.384442369706e+01
-5.649209447598e+01
2.060710313507e+01
2.125966785094e+01
2.062854735362e+01
-5.522467538562e+01
-5.494426536373e+01
2.068799045084e+01
2.065818508735e+01
1.021553625946e+01
-1.650440380302e+01
1.245477534006e+01
2.407875330604e+00
-1.627268447668e+01
-4.959867196472e+01
-4.639997738742e+01
-4.600294211457e+01
-4.631239137700e+01
1.876788542786e+01
1.821223642869e+01
-5.631772823771e+01
1.981133504580e+01
-5.462878667184e+01
1.970901928916e+01
1.825652939847e+01
1.881333241436e+01
1.599603076837e+01
1.558961868498e+01
1.813841901503e+01
2.112941200988e+01
1.812816431571e+01
2.101805664319e+01
2.086751661417e+01
1.789814013584e+01
1.778357712055e+01
1.781626093687e+01
2.105495971932e+01
2.093586018593e+01
2.052669913938e+01
-1.821510512286e+01
1.868032319743e+01
-1.988602773943e+01
2.158480327045e+01
1.916585498464e+01
2.149970638516e+01
1.379000138867e+01
-1.039242058428e+00
2.123624152160e+01
1.901940758888e+01
1.723051694151e+01
2.138480031183e+01
1.551657450745e+01
1.715995982248e+01
2.334010074516e+01
2.224633586858e+01
2.105963372234e+01
2.113441987524e+01
2.676042104965e+01
1.802665925236e+01
2.478482738699e+01
2.109430862251e+01
2.124881081746e+01
2.128541462719e+01
1.446684928564e+01
1.539163508698e+01
1.391275926677e+01
-3.264582382895e+00
2.187046665117e+01
2.105321799970e+01
1.551684569901e+01
1.475645142989e+01
2.099011163475e+01
2.108807933698e+01
1.353324154090e+01
2.106434936950e+01
2.134181339311e+01
1.538445379095e+01
1.072169499133e+01
2.323820495880e+01
1.408965103464e+01
1.411936800186e+01
1.350848714885e+00
2.281356030569e+00
1.472804771340e+01
2.116026032892e+01
-9.968483240027e+00
1.796627684468e+01
1.032448906415e-01
2.151854789605e+01
2.132505007395e+01
2.022658461658e+01
2.122636683684e+01
-2.969096587268e+00
2.545154047485e+01
2.117487027139e+01
1.305774082167e+01
2.157102431970e+01
1.200787898700e+01
1.453877725565e+01
1.554406314609e+01
1.924597741937e+01
7.356417714626e+00
1.779214149039e+01
1.310994424599e+01
9.521111249659e+00
1.940047983484e+01
2.077354147808e+01
2.128196876466e+01
1.203157809963e+01
1.269271472252e+01
1.910526613221e+01
2.397460358671e+01
1.286914716696e+01
1.872025277130e+01
2.091245107853e+01
2.181731634540e+01
1.071067300013e+01
2.568639258435e+01
1.366715688794e-01
2.431685359959e+01
2.132725490486e+01
9.194907162544e+00
1.953560420793e+01
2.958994282087e+00
2.282368390199e+01
1.943434518308e+01
2.148730756217e+01
1.381719214382e+01
2.149000043631e+01
1.934968366277e+01
1.439227288047e+01
1.904871573514e+01
1.821604595454e+01
1.620023266468e+01
1.956779752974e+01
-5.587692020696e+01
-5.446340067442e+01
2.036756015456e+01
1.376149072312e+01
2.090741082709e+01
2.088641499368e+01
1.867523909211e+01
1.890181171574e+01
1.440427189540e+01
2.379929100105e+01
1.831107704610e+01
2.265019637657e+01
1.118261975382e+01
5.788893980639e+00
4.945742601977e-01
1.095774429939e+01
2.215211915925e+01
1.151000759872e+01
1.312600728649e+01
1.508109975759e+01
1.516196433340e+01
1.491900614858e+01
2.002281683547e+01
1.478153924772e+01
2.111951233530e+01
1.949673201004e+01
1.721641021198e+01
1.445611055821e+01
2.098570787618e+01
2.173241797113e+01
1.197063064248e+01
2.162852265246e+01
1.149150133093e+01
1.945474837829e+01
9.236741507042e+00
1.264687111782e+01
2.739604465441e+01
1.370757470693e+01
1.879953066773e+01
1.938976319541e+01
1.775600221540e+01
1.761377544172e+01
1.040081843199e+01
2.090203980370e+01
1.565817979906e+01
5.646783848232e+00
1.042646287495e+01
1.530591573558e+01
2.164567425075e+01
1.174166537878e+01
2.174324492637e+01
2.160617874298e+01
1.864312643436e+01
1.418788965501e+01
7.359557415431e+00
2.160931908091e+01
7.819288290140e+00
1.922115494685e-01
1.771275313660e+01
1.452395405568e+01
7.468425401391e+00
1.816886937393e+01
2.204562802278e+01
1.752174455511e+01
1.387842933260e+01
1.672715330218e+01
2.233245232937e+01
1.388798366864e+01
2.165993128873e+01
1.912422330834e+01
2.202188213497e+01
2.584367497314e+01
1.230832671296e+01
3.731216575333e+00
2.485000831176e+01
2.281309215169e+01
7.844076504913e+00
1.545670919508e+01
8.605033632662e+00
1.440010890020e+01
2.187341760121e+01
2.485989517601e+01
2.496063494007e+01
1.587109030089e+01
2.143780083878e+01
1.157846650459e+01
2.190585175108e+01
2.199777365791e+01
1.966457592867e+01
2.158742551240e+01
1.172960916295e+01
1.955872881157e+01
2.175467340570e+01
2.840796245022e+00
1.555136961588e+01
1.722757426065e+01
2.361764739866e+01
2.230821923083e+01
2.001994771222e+01
2.390658842231e+01
1.014648717876e+01
5.644784263107e+00
4.704628284119e+00
1.917072436778e+01
2.251155125442e+01
2.212525975607e+01
3.231944403320e+00
1.910289964243e+01
2.446840341650e+01
2.260984378138e+01
1.267225888862e+01
1.787026308168e+01
1.757063082220e+01
1.263540056814e+01
2.281310881349e+01
1.797472499444e+01
8.918717632027e+00
7.189480173977e+00
2.692122776575e+01
1.691662128149e+01
2.640803692644e+01
1.736819198090e+01
1.789705893512e+01
1.323338619590e+01
2.291365775165e+01
2.057310330455e+01
1.365965255674e+01
2.170378774874e+01
2.333680853858e+01
2.180680246600e+01
2.550979273583e+01
1.396230175784e+01
2.239140137025e+01
2.208037883802e+01
2.356627195019e+01
1.836553122542e+01
2.263692403296e+01
8.810038261294e+00
1.823668511044e+01
2.278724825631e+01
1.684747560617e+01
1.753046007486e+01
1.817078419816e+01
1.596978390338e+01
1.526387287932e+01
2.043427770235e+01
2.296728298026e+01
2.260229574970e+01
-4.923882588016e+01
2.466176314827e+01
2.236961375635e+01
1.936539457197e+01
6.932142419889e+00
2.115198013259e+01
1.725523176857e+01
1.932025193637e+01
1.291286002533e+01
1.741883764525e+01
4.130055954178e+00
9.956751159264e+00
1.867514239375e+01
1.756413591407e+01
2.350777361417e+01
2.051037671326e+01
1.373911999622e+01
1.202107154437e+01
5.583634827635e+00
1.645113736048e+01
2.333785356019e+01
2.313879524901e+01
1.386708738294e+01
1.442513792065e+01
2.211429692082e+01
2.689354792058e+01
2.334912403198e+01
1.591411594018e+01
1.875365790477e+01
2.651169902022e+01
2.287412510892e+01
1.427805031196e+01
1.827829991445e+01
2.146557724851e+01
2.265598082440e+01
1.660687251685e+01
2.219076527289e+01
2.380893284109e+01
2.550742683988e+01
1.717211208595e+01
2.525116831392e+01
1.024993999740e+01
2.604040996290e+01
2.281580588215e+01
1.805996730527e+01
2.251930151699e+01
2.277952630301e+01
2.189722873011e+01
2.041260482665e+01
1.630362563174e+01
1.532246811020e+01
1.568921033486e+01
2.381214324695e+01
2.450925095237e+01
1.669053624166e+01
2.299320613057e+01
1.420918655334e+01
1.720633663000e+01
1.112486837337e+01
2.310003633039e+01
1.526887269466e+01
2.471780800786e+01
5.050225466351e+00
1.350955686891e+01
2.438304731863e+01
2.689957362485e+01
1.591308428167e+01
2.276199263420e+01
1.147785468778e+01
2.500289246173e+01
1.696399566986e+01
1.263377954979e+01
2.274866669094e+01
2.223410376131e+01
2.007645457534e+01
5.317437213497e+00
2.285750599123e+00
2.166126212728e+01
2.317680995565e+01
2.329385663070e+01
8.437190298996e+00
2.591598900707e+01
2.671013689096e+01
2.491845338605e+01
2.521656759823e+01
1.643013949576e+01
1.789778222639e+01
1.519630915959e+01
1.958150853924e+01
1.411606979270e+01
2.255383624789e+01
1.585494344264e+01
1.174407031483e+01
1.983701495812e+01
2.698221957431e+01
1.254266899795e+01
1.513594751659e+01
1.251536020639e+01
1.138234910524e+01
2.245562351754e+01
2.337968891079e+01
2.287161258530e+01
2.244770496371e+01
1.515518755458e+01
2.446652378997e+01
1.321688704706e+01
1.512895049545e+01
2.567002235867e+01
2.605790726386e+01
2.678126956016e+01
2.517598316387e+01
2.606877597146e+01
2.586772291804e+01
1.654916924055e+01
2.077221688598e+01
9.151361734370e+00
-1.111295853441e+01
2.920184656164e+01
2.114407664621e+01
2.465287279883e+01
1.797134678966e+01
2.744150515812e+01
2.157544113888e+01
8.843672149256e+00
2.974612533622e+01
2.517614133262e+01
2.673070325114e+01
1.714492545419e+01
2.283873135840e+01
2.119601695153e+01
2.291310677029e+01
2.269424353476e+01
2.572246933127e+01
1.253577865228e+01
2.392551536973e+01
2.240977825021e+01
3.015992512106e+01
1.033757282074e+01
2.334447232867e+01
1.349313523908e+01
2.680405446376e+01
2.660334058400e+01
1.965610257569e+01
2.572021870356e+01
1.436183898445e+01
1.584629568450e+01
2.953821784653e+01
2.386454673012e+01
1.591254614121e+01
1.906365816551e+01
2.332065605269e+01
1.152162315079e+01
1.964137137855e+01
2.356799715952e+01
2.499652915275e+01
1.471478415174e+01
2.065650740012e+01
1.789689589611e+01
2.723841873323e+01
1.891715700782e+01
2.613526929230e+01
2.207200995325e+01
2.716142537851e+01
1.091210901342e+01
2.539216794096e+01
2.226234173096e+01
1.656152834407e+01
1.696867151552e+01
2.525781557825e+01
2.374630121504e+01
2.372466021090e+01
2.241993655887e+01
1.391693750953e+01
2.323490842461e+01
1.011159209812e+01
1.807240560033e+01
1.372951875567e+01
1.477824602355e+01
2.423082718283e+01
2.209118848894e+01
1.286721783838e+01
2.726745336320e+01
2.232419668614e+01
2.266988986691e+01
2.573527878316e+01
1.660820427837e+01
2.435538528117e+01
1.560744900940e+01
2.488901113041e+01
2.481095757891e+01
1.614713589784e+01
1.699833001334e+01
2.494272176910e+01
1.444386316921e+01
2.717161246622e+01
2.290894147910e+01
2.156036738844e+01
2.027809484557e+01
2.151863588066e+01
1.071251240149e+01
2.758439455660e+01
2.264916987786e+00
2.602943769777e+01
2.609197548239e+01
2.645257863611e+01
2.406322110156e+01
2.736911730591e+01
1.516875212449e+01
1.912454176929e+01
2.238329350951e+01
2.359420523990e+01
2.479681346826e+01
1.469176262623e+01
2.718424955270e+01
2.177112363896e+01
1.364543494013e+01
1.430046267187e+01
2.610712497065e+01
2.732802006634e+01
2.269430645717e+01
1.939186925642e+01
2.231417158529e+01
2.468513061834e+01
2.497781862000e+01
2.264609795245e+01
2.150511153287e+01
1.307746003624e+01
2.666900417576e+01
2.332204733798e+01
2.435597812217e+01
1.433757352976e+01
2.225846341068e+01
9.492326346254e+00
2.361178127604e+01
2.685567813770e+01
2.400668702861e+01
2.516213982088e+01
1.589574731580e+01
2.182791860305e+01
2.682953112395e+01
2.541435745901e+01
2.395997884208e+01
2.532396131689e+01
2.653486995105e+01
2.619161215535e+01
2.334348371193e+01
2.408139680808e+01
2.707266539164e+01
1.609535497567e+01
2.137887877866e+01
1.751329740016e+01
2.394281329084e+01
1.476755180394e+01
1.084324339332e+01
2.084034417664e+01
2.399289409447e+01
2.215300895477e+01
1.214274242886e+01
1.696974999718e+01
1.307554316014e+01
2.598826958115e+01
2.341531217895e+01
1.580937770115e+01
2.638693325722e+01
2.601282890909e+01
2.627399368766e+01
1.360596659715e+01
2.143658904611e+01
2.628734687354e+01
2.113504780066e+01
2.479376005733e+01
2.286538274516e+01
2.626592175569e+01
2.433592369801e+01
1.746007958556e+01
2.023204803611e+01
2.547408793226e+01
2.345753654546e+01
1.250451866681e+01
2.247664104205e+01
2.631142121819e+01
2.611508021185e+01
2.125374942617e+01
2.377916099563e+01
2.532315620752e+01
2.297037378013e+01
2.038745717192e+01
2.284927608052e+01
2.438307345562e+01
1.017040922044e+01
2.009915293019e+01
2.715852600068e+01
2.160098484835e+01
2.590026374073e+01
2.681765731664e+01
2.400642352995e+01
2.364474890101e+01
2.360104433595e+01
2.455453064069e+01
2.138188813103e+01
2.325635014517e+01
2.521992786261e+01
2.207692010590e+01
1.651384907130e+01
2.233143685609e+01
2.414122722358e+01
2.668403289816e+01
2.397476066666e+01
2.132718004873e+01
1.922245583349e+01
2.373336925062e+01
1.048216834166e+01
2.186080619781e+01
2.252845700417e+01
-1.657954530631e+01
-1.669932628512e+01
1.631598865975e+01
2.406315374819e+01
2.008998651663e+01
2.061852427002e+01
2.650311642229e+01
2.306901472696e+01
2.701786210040e+01
1.867925676816e+01
8.426333796099e+00
2.566459338480e+01
2.142185391182e+01
2.501723302657e+01
1.943793509070e+01
2.414554144267e+01
2.210819256211e+01
1.150129098995e+01
2.108624504890e+01
2.081867810427e+01
1.097525384668e+01
1.972345422460e+01
2.064148786848e+01
1.844364059438e+01
1.840370427844e+01
2.359964699823e+01
1.307903091928e+01
2.314551669290e+01
2.437740577160e+01
1.906317754331e+01
2.018529384097e+01
1.078765364503e+01
1.206252230356e+01
2.214962550902e+01
2.042052646634e+01
2.420647768062e+01
2.500284936129e+01
2.220113862543e+01
1.529823777347e+01
1.964855203824e+01
2.205148676993e+01
2.245172791486e+00
2.431559591877e+01
2.438454031027e+01
1.749348069659e+00
1.530023702426e+01
2.406640799014e+01
1.939700882392e+01
2.300588444854e+01
2.531070460330e+01
2.460871498913e+01
1.614946537524e+01
2.436084534057e+01
2.527252122526e+01
2.454605791301e+01
3.273348427270e+01
2.519450739709e+01
2.343619490805e+01
1.185867631992e+01
2.356119690554e+01
2.507470413812e+01
1.696135897360e+01
2.296507815415e+01
7.103704178810e+00
2.339049477461e+01
2.182342530216e+01
2.480374603694e+01
2.054696678695e+01
2.019205156269e+01
1.753665404338e+01
2.417211273886e+01
2.324276775656e+01
2.726144008071e+01
2.384578965378e+01
2.600447985942e+01
2.619628248052e+01
2.657904522654e+01
2.653511124919e+01
1.992059840807e+01
2.559638066214e+01
2.161699964516e+01
2.378709479420e+01
2.440440652871e+01
2.677483238445e+01
1.103908391490e+01
2.176088491611e+01
2.158995136254e+01
2.142708213974e+01
2.193662180415e+01
2.126451110136e+01
1.880146788549e+01
1.984556796670e+01
3.371131450272e+01
2.151302973168e+01
2.629783444457e+01
1.931251198051e+01
2.550239525170e+01
1.180497450765e+01
1.078313286980e+01
2.467959841001e+01
2.865539900712e+01
2.980741561952e+01
2.140256487151e+01
2.417082545138e+01
2.572021516372e+01
2.489395800855e+01
2.665038475550e+01
2.558073776663e+01
2.179226722288e+01
9.724707574421e+00
-1.650894715768e+01
2.415493685784e+01
2.644772914832e+01
2.292611135683e+01
2.118551230315e+01
2.658746583252e+01
2.110650928916e+01
2.534372272363e+01
2.327858772522e+01
2.514771636644e+01
2.503282677059e+01
2.308149583688e+01
1.876019723331e+01
2.268519890456e+01
2.613638058576e+01
2.245326385224e+01
2.446899358382e+01
2.511845608078e+01
2.612021475433e+01
2.129332264681e+01
2.151761627440e+01
2.755623633099e+01
2.685992347240e+01
2.290088396682e+01
8.819593136574e+00
2.033359160013e+01
2.226762432718e+01
1.287118445596e+01
2.715070148367e+01
2.006985074230e+01
3.499586537224e+01
2.718719374947e+01
2.542453049867e+01
1.961591852934e+01
1.681666990940e+01
2.491902781950e+01
2.398999064368e+01
2.463420057001e+01
2.611332304822e+01
2.051125176407e+01
2.345260695124e+01
1.967158467462e+01
1.967735080071e+01
1.620483385386e+01
5.177576119412e+00
1.361926622832e+01
2.067203179768e+01
-1.114062899225e+00
1.352352396904e+01
1.273708456763e+01
1.963196188041e+01
2.578478631659e+01
2.422805956352e+01
2.508259949119e+01
2.029581873244e+01
1.590607759540e+01
1.972035529629e+01
2.672414566053e+01
2.251366195871e+01
-1.121212719072e+00
2.467093515143e+01
1.967765083261e+01
1.984581309607e+01
2.680942200553e+01
2.551480502955e+01
1.977219879817e+01
8.811407721916e+00
5.398275394139e+00
2.687881230839e+01
2.029504125071e+01
2.262384623550e+01
2.199014100841e+01
2.303063775740e+01
1.176974605848e+01
2.317013950746e+01
2.654903803758e+01
2.160709771210e+01
1.974216632465e+01
1.498234100378e+01
6.902564471069e+00
1.987444155316e+01
2.476896858862e+01
1.989003559407e+01
2.466193030206e+01
1.488893048401e+01
2.412393073042e+01
2.362509925579e+01
2.515058150784e+01
2.033017808701e+01
1.991663424548e+01
2.616247362531e+01
6.189180717518e+00
2.718880751955e+01
2.040837133809e+01
2.344936932916e+01
2.081768437271e+01
2.275790114203e+01
1.967108923487e+01
2.162511426582e+01
2.184359431534e+01
9.410506741359e+00
1.802164686252e+01
2.057077146290e+01
-5.433908594844e+00
2.260436522934e+01
2.505379593573e+01
2.594125206067e+01
5.889165143472e+00
3.499586537224e+01
1.593771415249e+01
1.512046357081e+01
6.209530949087e+00
2.251013315699e+01
1.330393580607e+01
2.243862865357e+01
1.457400494541e+01
2.014816449537e+01
2.533046191038e+01
2.216118321836e+01
2.186326056789e+01
2.078991260857e+01
1.699566477641e+01
2.111413449490e+01
2.416101839592e+01
2.200643030833e+01
7.962042374753e+00
2.567192545400e+01
1.619888189957e+01
1.870669749107e+01
1.906281943432e+01
2.558164078527e+01
1.907858859858e+01
2.594969020697e+01
2.816140245914e+01
1.778560208482e+01
2.469720130915e+01
2.691655637179e+01
2.235714627644e+01
2.032264033554e+01
2.293565150261e+01
1.143323055472e+01
2.221127781937e+01
2.642684062058e+01
2.338789182841e+01
1.944893463463e+01
2.377540828760e+01
2.038253378891e+01
2.472746653493e+01
2.235119417653e+01
2.469404586126e+01
2.153080510233e+01
2.639024350260e+01
2.497599038101e+01
2.571217268373e+01
7.844817971173e+00
1.681865764743e+01
2.229929290895e+01
2.494762180601e+01
2.164927822762e+01
1.568481382257e+01
1.614012781168e+01
1.490302489628e+01
-1.743771960865e+01
2.429447303100e+01
1.483014700368e+01
1.557256319287e+01
2.208687967227e+01
2.578808902192e+01
2.268596592839e+01
2.465551760576e+01
-1.600098146780e+01
2.114070659953e+01
1.356398556177e+01
2.369892388962e+01
2.612372787825e+01
1.229021034994e+01
1.908106303901e+01
2.641379289217e+01
3.886535907203e+00
2.542243339931e+01
2.039762290884e+01
1.755848850778e+01
1.106870963488e+01
1.927813641351e+01
2.135063631394e+01
2.402082837390e+01
1.941289284430e+01
1.502874240496e+01
2.681957893377e+01
6.982211239199e+00
9.325199147558e+00
2.259789421790e+01
2.045188767766e+01
-2.834698547274e-01
1.715194754186e+01
2.127404569132e+01
2.512297574202e+01
2.316515109262e+01
2.250411172257e+01
8.192186329845e+00
1.412958022198e+01
1.940481577320e+01
1.818728860603e+01
2.382580599453e+01
2.712779153911e+01
2.868300092840e+01
9.809231830973e-02
2.499981466135e+01
1.600576763201e+01
2.449909130800e+01
2.102206561352e+01
2.114580427469e+01
2.364472822133e+01
-4.834560127475e+00
7.227876410063e+00
2.903549184397e+01
1.867355215304e+01
2.791468504207e+01
2.637311336197e+01
2.199936701674e+01
2.365171934588e+01
2.090094903000e+01
1.522178274881e+01
2.225936307379e+01
1.599118346794e+01
1.388459413363e+01
1.775807819911e+01
2.081466651662e+01
-1.109473694068e-01
2.116121184288e+01
2.837220295603e+01
2.118737223485e+01
2.060064359876e+01
3.164142726710e+01
3.010635855415e+01
2.346893966734e+01
-7.137599811763e+00
1.611253653501e+01
2.164719549852e+01
2.361502028442e+01
1.964899017227e+01
8.632069656773e-01
1.721471875767e+01
1.809756359124e+01
1.009195356554e+01
2.359346204271e+01
-2.373062442831e+00
-8.232231536618e+00
-6.282482614174e-01
1.347047128992e+00
2.369322784393e+01
1.619573087474e+01
1.710841512992e+01
6.150042104160e+00
2.214104456056e+01
2.028865326498e+01
1.975209528884e+01
1.658375001417e+01
1.826410994821e+01
1.790141212871e+01
2.175345675179e+01
2.157246437169e+01
1.473156823434e+01
2.174082399440e+01
1.229726608020e+01
-8.242398288627e+00
2.291616592303e+01
-4.779353445858e+00
-2.216714592060e+01
1.810462655297e+01
-1.396866428958e+01
1.703732253387e+01
2.240728337098e+01
-1.431675605689e+01
7.974765019903e+00
1.715236804141e+01
1.093042739867e+01
1.648158764486e+01
2.058676858978e+01
1.903622775217e+01
2.396052686909e+01
3.299907751071e+00
1.815652276391e+01
2.422065754015e+01
2.201587000504e+01
1.256697478333e+01
2.201324774216e+01
2.607793965314e+01
2.106700150594e+01
2.165743953008e+01
1.209007191944e+01
2.207847320435e+01
1.810745203026e+01
1.763408901360e+01
-9.245969370081e+00
7.533938989970e+00
1.991456564786e+01
2.116966054958e+01
1.696028904378e+01
2.211906476725e+01
2.430479816616e+01
-1.624009042016e+01
1.770056567067e+01
1.771256069828e+01
1.801570589299e+01
-5.377813924060e+01
-5.169315448707e+01
-1.614190402825e+01
-1.691843138663e+01
2.057324038918e+01
2.075499076743e+01
-2.254784109609e+01
8.562900605726e+00
2.102644101982e+01
2.322767408622e+01
1.504733993179e+01
2.122471951502e+01
1.962355750668e+01
1.903739868532e+01
8.057806622814e+00
1.553937931242e+01
2.500370233161e+01
9.247850002776e+00
1.870397677115e+01
2.099663925708e+01
1.562314566442e+01
1.896502289060e+01
3.893550592993e+00
2.288521723456e+01
2.053308226498e+01
2.014945681088e+01
-1.523909707039e+01
2.567509917969e+01
1.820706616629e+01
1.483893006236e+01
-2.432038655889e+01
2.240982045367e+01
2.400103705921e+01
1.526984747821e+01
1.020698615759e+01
2.079045330017e+01
2.304036620505e+01
2.304745299225e+01
1.989908971142e+01
2.442005103321e+01
3.158603306030e+01
1.891399414831e+01
3.458157118877e+00
2.569028888327e+01
1.645340995213e+01
2.185523601840e+01
7.581573139920e+00
-1.791946464465e+00
3.005539052046e+01
1.091430359126e+01
1.679530816008e+01
1.726056009910e+01
1.623887145421e+01
2.272070331698e+01
-1.066871898040e+00
2.206184663732e+01
2.382872151910e+01
5.648265601842e+00
2.188545146560e+01
1.797077245809e+01
1.699925210976e+01
2.913100056985e+01
1.664314197958e+01
2.210778016598e+01
2.301082440882e+01
2.388702354564e+01
2.061893025327e+01
1.981800551440e+01
9.833450495445e+00
2.189401218407e+01
2.034936795968e+01
5.920659951054e+00
2.094319022462e+01
2.318532862390e+01
2.092516921997e+01
1.309075885895e+01
2.194731953962e+01
2.180843668812e+01
2.199126862919e+01
1.681105519946e+01
2.096271046200e+01
-5.336430980421e+00
1.604766173950e+01
5.625289282082e-01
1.503915481400e+01
1.038601819506e+01
1.290657066398e-01
2.316015641068e+01
2.083830581045e+01
1.737575250492e+01
1.623675267179e+01
2.276114016070e+01
3.520477333706e+00
-2.488164546246e+01
2.349216904306e+01
-1.618929542309e+01
5.596549867809e+00
3.499586537224e+01
1.855611066224e+01
2.099209964316e+01
1.910360276238e+01
9.603974999490e+00
1.818249114623e+01
2.171245166765e+01
2.285427855311e+01
2.287226183197e+01
2.221015906493e+01
2.128945925515e+01
-1.745510623784e+00
2.209006667006e+01
2.107130160570e+01
2.319363870075e+00
7.369702493344e+00
2.817407642907e+01
-6.246116825104e+00
2.125600673336e+01
2.171647582018e+01
1.651559783219e+01
2.214605889292e+01
2.288514820856e+01
6.172049539502e+00
1.911230413489e+01
2.021327048340e+01
-1.523791524523e+01
1.403516120927e+01
-2.030116527715e+01
2.087692745153e+01
3.130753389187e+00
9.363577443771e+00
1.831022635557e+01
2.176809522318e+01
1.639262536550e+01
1.888216339883e+01
1.596200477018e+01
1.975920121702e+01
2.132365010632e+01
1.776252736000e+01
2.082349244873e+01
-1.003175333829e+01
2.216114748138e+01
1.118576140245e+01
1.730809370328e+01
-2.260993173225e+01
2.140935916365e+01
1.843290511126e+01
1.702833636364e+01
2.307609872477e+01
1.209769243557e+01
1.734962939511e+01
2.126203147060e+01
8.814057107789e+00
2.162723713061e+01
1.772012346162e+01
1.047270184154e+01
2.124244506956e+01
1.737032639380e+01
-1.658249863701e+01
2.296614776939e+01
1.723347065618e+01
-5.805469122182e+01
-1.706478740308e+01
2.077035510883e+01
1.042324065664e+01
2.310454292400e+01
1.813908780569e+01
1.705179233563e+01
1.417297814266e+01
2.413316397189e+01
1.923113010526e+01
1.416210104112e+01
1.086135730721e+01
1.816325844033e+01
7.831155005286e+00
1.486972096918e+01
4.946468981383e+00
2.275506107841e+01
1.940045685198e+01
3.499586537224e+01
1.691973204094e+01
1.891247563448e+01
1.951936338788e+01
2.274787637824e+01
1.871717396005e+01
1.898564321139e+01
-5.905144732041e+00
2.138888182071e+01
2.259611749081e+01
2.343062308917e+01
1.724108335559e+01
2.073670204915e+01
-9.303212059932e+00
7.783895395409e+00
1.871575042803e+01
1.885787255260e+01
1.902456331381e+01
2.324441134468e+01
1.243426678824e+01
2.244900363938e+01
-9.467368434647e-01
1.769931011175e+01
2.290539306976e+01
5.005207130561e+00
2.101796354620e+01
2.286081408966e+01
2.282415752246e+01
3.159538143575e+01
2.097901671514e+01
2.164874332362e+01
-6.457706087464e+00
1.848560575426e+01
2.965237916417e+01
2.109728448734e+01
-2.236242650937e+01
-2.187706316980e+01
-2.271860504197e+01
-2.240895030499e+01
-2.261705347268e+01
-2.220997168485e+01
-2.271570737312e+01
-2.166529768766e+01
-2.261468267464e+01
-2.149259677129e+01
-2.299787116096e+01
-2.093685573099e+01
-9.326477506506e-01
-2.325091602384e+01
2.028007471802e+00
-1.994238303621e+01
-2.360874048678e+01
-1.965261868155e+01
-2.375460854514e+01
-1.837660680158e+01
-2.416145823106e+01
-1.660589989817e+01
-7.612885984814e+00
-2.398092193692e+01
-1.415042815279e+01
-2.266814440245e+01
-1.028248649625e+01
-4.915990744854e+00
-2.003738155659e+01
-1.433790685223e+01
1.334537320934e+01
2.426853615340e+01
-2.203745563414e+01
-2.040717391838e+01
-2.086608916419e+01
-1.970188122645e+01
2.197318807629e+01


