# vtk DataFile Version 2.0
Calculation C:\Users\johan\Documents\GitHub\TOCHNOG\standsicherheit_phiC at time 1.000000000000e+00 
ASCII
DATASET UNSTRUCTURED_GRID
Field FieldData 1
Time 1 1 double
1.000000000000e+00

POINTS 1283 float
0.0 0.0 0.0 
5.000000000000e+01 -1.000000000000e+01 0.0 
0.0 -2.000000000000e+01 0.0 
5.000000000000e+01 -2.000000000000e+01 0.0 
0.0 -9.999999999991e-01 0.0 
0.0 -1.999999999998e+00 0.0 
0.0 -2.999999999997e+00 0.0 
0.0 -3.999999999994e+00 0.0 
0.0 -4.999999999991e+00 0.0 
0.0 -5.999999999988e+00 0.0 
0.0 -6.999999999985e+00 0.0 
0.0 -7.999999999982e+00 0.0 
0.0 -8.999999999983e+00 0.0 
0.0 -9.999999999985e+00 0.0 
0.0 -1.099999999999e+01 0.0 
0.0 -1.199999999999e+01 0.0 
0.0 -1.299999999999e+01 0.0 
0.0 -1.399999999999e+01 0.0 
0.0 -1.499999999999e+01 0.0 
0.0 -1.599999999999e+01 0.0 
0.0 -1.700000000000e+01 0.0 
0.0 -1.800000000000e+01 0.0 
0.0 -1.900000000000e+01 0.0 
4.900000000001e+01 -2.000000000000e+01 0.0 
4.800000000001e+01 -2.000000000000e+01 0.0 
4.700000000002e+01 -2.000000000000e+01 0.0 
4.600000000003e+01 -2.000000000000e+01 0.0 
4.500000000004e+01 -2.000000000000e+01 0.0 
4.400000000004e+01 -2.000000000000e+01 0.0 
4.300000000005e+01 -2.000000000000e+01 0.0 
4.200000000006e+01 -2.000000000000e+01 0.0 
4.100000000006e+01 -2.000000000000e+01 0.0 
4.000000000007e+01 -2.000000000000e+01 0.0 
3.900000000008e+01 -2.000000000000e+01 0.0 
3.800000000009e+01 -2.000000000000e+01 0.0 
3.700000000009e+01 -2.000000000000e+01 0.0 
3.600000000010e+01 -2.000000000000e+01 0.0 
3.500000000011e+01 -2.000000000000e+01 0.0 
3.400000000011e+01 -2.000000000000e+01 0.0 
3.300000000012e+01 -2.000000000000e+01 0.0 
3.200000000013e+01 -2.000000000000e+01 0.0 
3.100000000013e+01 -2.000000000000e+01 0.0 
3.000000000013e+01 -2.000000000000e+01 0.0 
2.900000000013e+01 -2.000000000000e+01 0.0 
2.800000000013e+01 -2.000000000000e+01 0.0 
2.700000000013e+01 -2.000000000000e+01 0.0 
2.600000000013e+01 -2.000000000000e+01 0.0 
2.500000000013e+01 -2.000000000000e+01 0.0 
2.400000000013e+01 -2.000000000000e+01 0.0 
2.300000000013e+01 -2.000000000000e+01 0.0 
2.200000000013e+01 -2.000000000000e+01 0.0 
2.100000000013e+01 -2.000000000000e+01 0.0 
2.000000000013e+01 -2.000000000000e+01 0.0 
1.900000000013e+01 -2.000000000000e+01 0.0 
1.800000000013e+01 -2.000000000000e+01 0.0 
1.700000000012e+01 -2.000000000000e+01 0.0 
1.600000000011e+01 -2.000000000000e+01 0.0 
1.500000000011e+01 -2.000000000000e+01 0.0 
1.400000000010e+01 -2.000000000000e+01 0.0 
1.300000000009e+01 -2.000000000000e+01 0.0 
1.200000000009e+01 -2.000000000000e+01 0.0 
1.100000000008e+01 -2.000000000000e+01 0.0 
1.000000000007e+01 -2.000000000000e+01 0.0 
9.000000000064e+00 -2.000000000000e+01 0.0 
8.000000000057e+00 -2.000000000000e+01 0.0 
7.000000000050e+00 -2.000000000000e+01 0.0 
6.000000000043e+00 -2.000000000000e+01 0.0 
5.000000000036e+00 -2.000000000000e+01 0.0 
4.000000000028e+00 -2.000000000000e+01 0.0 
3.000000000021e+00 -2.000000000000e+01 0.0 
2.000000000014e+00 -2.000000000000e+01 0.0 
1.000000000007e+00 -2.000000000000e+01 0.0 
5.000000000000e+01 -1.100000000000e+01 0.0 
5.000000000000e+01 -1.200000000000e+01 0.0 
5.000000000000e+01 -1.300000000000e+01 0.0 
5.000000000000e+01 -1.400000000000e+01 0.0 
5.000000000000e+01 -1.500000000000e+01 0.0 
5.000000000000e+01 -1.600000000000e+01 0.0 
5.000000000000e+01 -1.700000000000e+01 0.0 
5.000000000000e+01 -1.800000000000e+01 0.0 
5.000000000000e+01 -1.900000000000e+01 0.0 
2.000000000000e+01 0.0 0.0 
5.000000000000e+01 0.0 0.0 
3.500000000000e+01 -1.000000000000e+01 0.0 
2.150000000000e+01 -1.000000000000e+00 0.0 
2.300000000000e+01 -2.000000000000e+00 0.0 
2.450000000000e+01 -3.000000000000e+00 0.0 
2.600000000000e+01 -4.000000000000e+00 0.0 
2.750000000000e+01 -5.000000000000e+00 0.0 
2.900000000000e+01 -6.000000000000e+00 0.0 
3.050000000000e+01 -7.000000000000e+00 0.0 
3.200000000000e+01 -8.000000000000e+00 0.0 
3.350000000000e+01 -9.000000000000e+00 0.0 
5.000000000000e+01 -1.000000000000e+00 0.0 
5.000000000000e+01 -2.000000000000e+00 0.0 
5.000000000000e+01 -3.000000000000e+00 0.0 
5.000000000000e+01 -4.000000000000e+00 0.0 
5.000000000000e+01 -5.000000000000e+00 0.0 
5.000000000000e+01 -6.000000000000e+00 0.0 
5.000000000000e+01 -7.000000000000e+00 0.0 
5.000000000000e+01 -8.000000000000e+00 0.0 
5.000000000000e+01 -9.000000000000e+00 0.0 
4.900000000000e+01 -1.000000000000e+01 0.0 
4.800000000000e+01 -1.000000000000e+01 0.0 
4.700000000000e+01 -1.000000000000e+01 0.0 
4.600000000000e+01 -1.000000000000e+01 0.0 
4.500000000000e+01 -1.000000000000e+01 0.0 
4.400000000000e+01 -1.000000000000e+01 0.0 
4.300000000000e+01 -1.000000000000e+01 0.0 
4.200000000000e+01 -1.000000000000e+01 0.0 
4.100000000000e+01 -1.000000000000e+01 0.0 
4.000000000000e+01 -1.000000000000e+01 0.0 
3.900000000000e+01 -1.000000000000e+01 0.0 
3.800000000000e+01 -1.000000000000e+01 0.0 
3.700000000000e+01 -1.000000000000e+01 0.0 
3.600000000000e+01 -1.000000000000e+01 0.0 
1.900000000000e+01 0.0 0.0 
1.800000000000e+01 0.0 0.0 
1.700000000000e+01 0.0 0.0 
1.600000000000e+01 0.0 0.0 
1.500000000000e+01 0.0 0.0 
1.400000000000e+01 0.0 0.0 
1.300000000000e+01 0.0 0.0 
1.200000000000e+01 0.0 0.0 
1.100000000000e+01 0.0 0.0 
1.000000000000e+01 0.0 0.0 
9.000000000000e+00 0.0 0.0 
8.000000000000e+00 0.0 0.0 
7.000000000000e+00 0.0 0.0 
6.000000000000e+00 0.0 0.0 
5.000000000000e+00 0.0 0.0 
4.000000000000e+00 0.0 0.0 
3.000000000000e+00 0.0 0.0 
2.000000000000e+00 0.0 0.0 
1.000000000000e+00 0.0 0.0 
2.100000000000e+01 0.0 0.0 
2.199999999999e+01 0.0 0.0 
2.299999999999e+01 0.0 0.0 
2.399999999999e+01 0.0 0.0 
2.499999999998e+01 0.0 0.0 
2.599999999998e+01 0.0 0.0 
2.699999999998e+01 0.0 0.0 
2.799999999997e+01 0.0 0.0 
2.899999999996e+01 0.0 0.0 
2.999999999995e+01 0.0 0.0 
3.099999999993e+01 0.0 0.0 
3.199999999992e+01 0.0 0.0 
3.299999999990e+01 0.0 0.0 
3.399999999989e+01 0.0 0.0 
3.499999999987e+01 0.0 0.0 
3.599999999988e+01 0.0 0.0 
3.699999999989e+01 0.0 0.0 
3.799999999990e+01 0.0 0.0 
3.899999999990e+01 0.0 0.0 
3.999999999991e+01 0.0 0.0 
4.099999999992e+01 0.0 0.0 
4.199999999993e+01 0.0 0.0 
4.299999999994e+01 0.0 0.0 
4.399999999995e+01 0.0 0.0 
4.499999999996e+01 0.0 0.0 
4.599999999997e+01 0.0 0.0 
4.699999999997e+01 0.0 0.0 
4.799999999998e+01 0.0 0.0 
4.899999999999e+01 0.0 0.0 
4.901724137931e+01 -1.000000000000e+00 0.0 
4.803448275862e+01 -1.000000000000e+00 0.0 
4.705172413793e+01 -1.000000000000e+00 0.0 
4.606896551724e+01 -1.000000000000e+00 0.0 
4.508620689655e+01 -1.000000000000e+00 0.0 
4.410344827586e+01 -1.000000000000e+00 0.0 
4.312068965517e+01 -1.000000000000e+00 0.0 
4.213793103448e+01 -1.000000000000e+00 0.0 
4.115517241379e+01 -1.000000000000e+00 0.0 
4.017241379310e+01 -1.000000000000e+00 0.0 
3.918965517241e+01 -1.000000000000e+00 0.0 
3.820689655172e+01 -1.000000000000e+00 0.0 
3.722413793103e+01 -1.000000000000e+00 0.0 
3.624137931034e+01 -1.000000000000e+00 0.0 
3.525862068966e+01 -1.000000000000e+00 0.0 
3.427586206897e+01 -1.000000000000e+00 0.0 
3.329310344828e+01 -1.000000000000e+00 0.0 
3.231034482759e+01 -1.000000000000e+00 0.0 
3.132758620690e+01 -1.000000000000e+00 0.0 
3.034482758621e+01 -1.000000000000e+00 0.0 
2.936206896552e+01 -1.000000000000e+00 0.0 
2.837931034483e+01 -1.000000000000e+00 0.0 
2.739655172414e+01 -1.000000000000e+00 0.0 
2.641379310345e+01 -1.000000000000e+00 0.0 
2.543103448276e+01 -1.000000000000e+00 0.0 
2.444827586207e+01 -1.000000000000e+00 0.0 
2.346551724138e+01 -1.000000000000e+00 0.0 
2.248275862069e+01 -1.000000000000e+00 0.0 
2.400000000000e+01 -2.000000000000e+00 0.0 
2.500000000000e+01 -2.000000000000e+00 0.0 
2.600000000000e+01 -2.000000000000e+00 0.0 
2.700000000000e+01 -2.000000000000e+00 0.0 
2.800000000000e+01 -2.000000000000e+00 0.0 
2.900000000000e+01 -2.000000000000e+00 0.0 
3.000000000000e+01 -2.000000000000e+00 0.0 
3.100000000000e+01 -2.000000000000e+00 0.0 
3.200000000000e+01 -2.000000000000e+00 0.0 
3.300000000000e+01 -2.000000000000e+00 0.0 
3.400000000000e+01 -2.000000000000e+00 0.0 
3.500000000000e+01 -2.000000000000e+00 0.0 
3.600000000000e+01 -2.000000000000e+00 0.0 
3.700000000000e+01 -2.000000000000e+00 0.0 
3.800000000000e+01 -2.000000000000e+00 0.0 
3.900000000000e+01 -2.000000000000e+00 0.0 
4.000000000000e+01 -2.000000000000e+00 0.0 
4.100000000000e+01 -2.000000000000e+00 0.0 
4.200000000000e+01 -2.000000000000e+00 0.0 
4.300000000000e+01 -2.000000000000e+00 0.0 
4.400000000000e+01 -2.000000000000e+00 0.0 
4.500000000000e+01 -2.000000000000e+00 0.0 
4.600000000000e+01 -2.000000000000e+00 0.0 
4.700000000000e+01 -2.000000000000e+00 0.0 
4.800000000000e+01 -2.000000000000e+00 0.0 
4.900000000000e+01 -2.000000000000e+00 0.0 
2.548076923077e+01 -3.000000000000e+00 0.0 
2.646153846153e+01 -3.000000000000e+00 0.0 
2.744230769230e+01 -3.000000000000e+00 0.0 
2.842307692306e+01 -3.000000000000e+00 0.0 
2.940384615383e+01 -3.000000000000e+00 0.0 
3.038461538459e+01 -3.000000000000e+00 0.0 
3.136538461536e+01 -3.000000000000e+00 0.0 
3.234615384612e+01 -3.000000000000e+00 0.0 
3.332692307687e+01 -3.000000000000e+00 0.0 
3.430769230762e+01 -3.000000000000e+00 0.0 
3.528846153837e+01 -3.000000000000e+00 0.0 
3.626923076912e+01 -3.000000000000e+00 0.0 
3.724999999988e+01 -3.000000000000e+00 0.0 
3.823076923065e+01 -3.000000000000e+00 0.0 
3.921153846143e+01 -3.000000000000e+00 0.0 
4.019230769221e+01 -3.000000000000e+00 0.0 
4.117307692299e+01 -3.000000000000e+00 0.0 
4.215384615377e+01 -3.000000000000e+00 0.0 
4.313461538455e+01 -3.000000000000e+00 0.0 
4.411538461533e+01 -3.000000000000e+00 0.0 
4.509615384611e+01 -3.000000000000e+00 0.0 
4.607692307688e+01 -3.000000000000e+00 0.0 
4.705769230766e+01 -3.000000000000e+00 0.0 
4.803846153844e+01 -3.000000000000e+00 0.0 
4.901923076922e+01 -3.000000000000e+00 0.0 
4.900000000000e+01 -4.000000000000e+00 0.0 
4.800000000000e+01 -4.000000000000e+00 0.0 
4.700000000000e+01 -4.000000000000e+00 0.0 
4.600000000000e+01 -4.000000000000e+00 0.0 
4.500000000000e+01 -4.000000000000e+00 0.0 
4.400000000000e+01 -4.000000000000e+00 0.0 
4.300000000000e+01 -4.000000000000e+00 0.0 
4.200000000000e+01 -4.000000000000e+00 0.0 
4.100000000000e+01 -4.000000000000e+00 0.0 
4.000000000000e+01 -4.000000000000e+00 0.0 
3.900000000000e+01 -4.000000000000e+00 0.0 
3.800000000000e+01 -4.000000000000e+00 0.0 
3.700000000000e+01 -4.000000000000e+00 0.0 
3.600000000000e+01 -4.000000000000e+00 0.0 
3.500000000000e+01 -4.000000000000e+00 0.0 
3.400000000000e+01 -4.000000000000e+00 0.0 
3.300000000000e+01 -4.000000000000e+00 0.0 
3.200000000000e+01 -4.000000000000e+00 0.0 
3.100000000000e+01 -4.000000000000e+00 0.0 
3.000000000000e+01 -4.000000000000e+00 0.0 
2.900000000000e+01 -4.000000000000e+00 0.0 
2.800000000000e+01 -4.000000000000e+00 0.0 
2.700000000000e+01 -4.000000000000e+00 0.0 
2.847826086957e+01 -5.000000000000e+00 0.0 
2.945652173913e+01 -5.000000000000e+00 0.0 
3.043478260870e+01 -5.000000000000e+00 0.0 
3.141304347826e+01 -5.000000000000e+00 0.0 
3.239130434783e+01 -5.000000000000e+00 0.0 
3.336956521739e+01 -5.000000000000e+00 0.0 
3.434782608696e+01 -5.000000000000e+00 0.0 
3.532608695652e+01 -5.000000000000e+00 0.0 
3.630434782609e+01 -5.000000000000e+00 0.0 
3.728260869565e+01 -5.000000000000e+00 0.0 
3.826086956522e+01 -5.000000000000e+00 0.0 
3.923913043478e+01 -5.000000000000e+00 0.0 
4.021739130435e+01 -5.000000000000e+00 0.0 
4.119565217391e+01 -5.000000000000e+00 0.0 
4.217391304348e+01 -5.000000000000e+00 0.0 
4.315217391304e+01 -5.000000000000e+00 0.0 
4.413043478261e+01 -5.000000000000e+00 0.0 
4.510869565217e+01 -5.000000000000e+00 0.0 
4.608695652174e+01 -5.000000000000e+00 0.0 
4.706521739130e+01 -5.000000000000e+00 0.0 
4.804347826087e+01 -5.000000000000e+00 0.0 
4.902173913043e+01 -5.000000000000e+00 0.0 
4.900000000001e+01 -6.000000000000e+00 0.0 
4.800000000003e+01 -6.000000000000e+00 0.0 
4.700000000004e+01 -6.000000000000e+00 0.0 
4.600000000006e+01 -6.000000000000e+00 0.0 
4.500000000007e+01 -6.000000000000e+00 0.0 
4.400000000009e+01 -6.000000000000e+00 0.0 
4.300000000010e+01 -6.000000000000e+00 0.0 
4.200000000012e+01 -6.000000000000e+00 0.0 
4.100000000013e+01 -6.000000000000e+00 0.0 
4.000000000014e+01 -6.000000000000e+00 0.0 
3.900000000014e+01 -6.000000000000e+00 0.0 
3.800000000012e+01 -6.000000000000e+00 0.0 
3.700000000010e+01 -6.000000000000e+00 0.0 
3.600000000008e+01 -6.000000000000e+00 0.0 
3.500000000006e+01 -6.000000000000e+00 0.0 
3.400000000005e+01 -6.000000000000e+00 0.0 
3.300000000003e+01 -6.000000000000e+00 0.0 
3.200000000001e+01 -6.000000000000e+00 0.0 
3.100000000000e+01 -6.000000000000e+00 0.0 
3.000000000000e+01 -6.000000000000e+00 0.0 
3.147499999998e+01 -7.000000000000e+00 0.0 
3.244999999998e+01 -7.000000000000e+00 0.0 
3.342499999998e+01 -7.000000000000e+00 0.0 
3.439999999998e+01 -7.000000000000e+00 0.0 
3.537499999998e+01 -7.000000000000e+00 0.0 
3.634999999998e+01 -7.000000000000e+00 0.0 
3.732499999998e+01 -7.000000000000e+00 0.0 
3.829999999998e+01 -7.000000000000e+00 0.0 
3.927499999999e+01 -7.000000000000e+00 0.0 
4.024999999999e+01 -7.000000000000e+00 0.0 
4.122499999999e+01 -7.000000000000e+00 0.0 
4.219999999999e+01 -7.000000000000e+00 0.0 
4.317499999999e+01 -7.000000000000e+00 0.0 
4.414999999999e+01 -7.000000000000e+00 0.0 
4.512499999999e+01 -7.000000000000e+00 0.0 
4.609999999999e+01 -7.000000000000e+00 0.0 
4.707500000000e+01 -7.000000000000e+00 0.0 
4.805000000000e+01 -7.000000000000e+00 0.0 
4.902500000000e+01 -7.000000000000e+00 0.0 
4.900000000000e+01 -8.000000000000e+00 0.0 
4.800000000000e+01 -8.000000000000e+00 0.0 
4.700000000000e+01 -8.000000000000e+00 0.0 
4.600000000000e+01 -8.000000000000e+00 0.0 
4.500000000000e+01 -8.000000000000e+00 0.0 
4.400000000000e+01 -8.000000000000e+00 0.0 
4.300000000000e+01 -8.000000000000e+00 0.0 
4.200000000000e+01 -8.000000000000e+00 0.0 
4.100000000000e+01 -8.000000000000e+00 0.0 
4.000000000000e+01 -8.000000000000e+00 0.0 
3.900000000000e+01 -8.000000000000e+00 0.0 
3.800000000000e+01 -8.000000000000e+00 0.0 
3.700000000000e+01 -8.000000000000e+00 0.0 
3.600000000000e+01 -8.000000000000e+00 0.0 
3.500000000000e+01 -8.000000000000e+00 0.0 
3.400000000000e+01 -8.000000000000e+00 0.0 
3.300000000000e+01 -8.000000000000e+00 0.0 
3.447058823527e+01 -9.000000000000e+00 0.0 
3.544117647055e+01 -9.000000000000e+00 0.0 
3.641176470582e+01 -9.000000000000e+00 0.0 
3.738235294109e+01 -9.000000000000e+00 0.0 
3.835294117637e+01 -9.000000000000e+00 0.0 
3.932352941164e+01 -9.000000000000e+00 0.0 
4.029411764691e+01 -9.000000000000e+00 0.0 
4.126470588219e+01 -9.000000000000e+00 0.0 
4.223529411748e+01 -9.000000000000e+00 0.0 
4.320588235279e+01 -9.000000000000e+00 0.0 
4.417647058811e+01 -9.000000000000e+00 0.0 
4.514705882342e+01 -9.000000000000e+00 0.0 
4.611764705874e+01 -9.000000000000e+00 0.0 
4.708823529405e+01 -9.000000000000e+00 0.0 
4.805882352937e+01 -9.000000000000e+00 0.0 
4.902941176468e+01 -9.000000000000e+00 0.0 
2.075000000000e+01 -5.000000000006e-01 0.0 
2.225000000000e+01 -1.500000000000e+00 0.0 
2.375000000000e+01 -2.500000000000e+00 0.0 
2.525000000000e+01 -3.500000000000e+00 0.0 
2.675000000000e+01 -4.500000000000e+00 0.0 
2.825000000000e+01 -5.500000000000e+00 0.0 
2.975000000000e+01 -6.500000000000e+00 0.0 
3.125000000000e+01 -7.500000000000e+00 0.0 
3.275000000000e+01 -8.500000000000e+00 0.0 
3.425000000000e+01 -9.500000000000e+00 0.0 
2.226951693683e+01 -2.403913980114e+00 0.0 
1.650149491944e+01 -1.913490915758e+01 0.0 
1.050042386896e+01 -8.504605092970e-01 0.0 
1.553146524712e+01 -8.281255032105e-01 0.0 
1.150000000008e+01 -1.913397459621e+01 0.0 
2.530060260647e+01 -4.428336431260e+00 0.0 
8.651114563942e-01 -1.052096295641e+01 0.0 
2.050000000013e+01 -1.913397459622e+01 0.0 
2.819198729811e+01 -6.399519052838e+00 0.0 
2.445670302931e+01 -1.915649188023e+01 0.0 
3.117591465718e+01 -8.394293040695e+00 0.0 
7.465053044742e+00 -1.920411160581e+01 0.0 
6.398295709691e+00 -8.230098819370e-01 0.0 
2.849659607461e+01 -1.914296187762e+01 0.0 
3.418732642882e+01 -1.040265792588e+01 0.0 
8.386450935063e-01 -6.533605142809e+00 0.0 
9.178661865596e-01 -1.329769195597e+01 0.0 
3.149448624493e+01 -1.910466733764e+01 0.0 
3.552916747426e+01 -1.914628590759e+01 0.0 
4.449210346537e+01 -1.914359085008e+01 0.0 
4.140975975145e+01 -1.906941860733e+01 0.0 
3.847475958753e+01 -1.916622382724e+01 0.0 
3.653774794640e+01 -1.088712800241e+01 0.0 
4.047886341787e+01 -1.090139014048e+01 0.0 
4.348006339825e+01 -1.092792621489e+01 0.0 
4.919519968029e+01 -1.451526755068e+01 0.0 
4.500000000032e+00 -1.913397459621e+01 0.0 
1.856136921614e+01 -8.212235170404e-01 0.0 
3.499895312306e+00 -8.661165539723e-01 0.0 
9.076088696565e-01 -1.642306201891e+01 0.0 
4.655174095477e+01 -1.086183387525e+01 0.0 
9.430688970604e-01 -3.496112672958e+00 0.0 
3.353992337063e+01 -1.901202090820e+01 0.0 
2.249746016977e+01 -1.921262287282e+01 0.0 
2.650122741777e+01 -1.916123026018e+01 0.0 
1.863571384842e+01 -1.908325534840e+01 0.0 
1.450089971693e+01 -1.917691901860e+01 0.0 
1.350044695317e+01 -8.659695299584e-01 0.0 
3.849987469880e+01 -1.084154983397e+01 0.0 
9.454419857884e+00 -1.900818879936e+01 0.0 
4.917398660523e+01 -1.645692866081e+01 0.0 
8.500000000000e+00 -8.660254037844e-01 0.0 
8.660319230785e-01 -8.500111697188e+00 0.0 
4.649022621545e+01 -1.930506220113e+01 0.0 
2.667688107845e+01 -5.420288124331e+00 0.0 
2.379251615665e+01 -3.412225477429e+00 0.0 
2.966631491830e+01 -7.389030232731e+00 0.0 
3.267915035995e+01 -9.396934932445e+00 0.0 
2.074836922338e+01 -1.320054020319e+00 0.0 
4.915985743621e+01 -1.261973384855e+01 0.0 
2.527129768623e+00 -1.931592414663e+01 0.0 
1.538676247410e+00 -8.436956619311e-01 0.0 
4.908096641539e+01 -1.842484004551e+01 0.0 
3.478612492673e+01 -1.090889364140e+01 0.0 
3.409757055860e+01 -1.131991530427e+01 0.0 
3.501895309466e+01 -1.177687842717e+01 0.0 
3.407758073088e+01 -1.224293381580e+01 0.0 
3.484541875390e+01 -1.277051428430e+01 0.0 
3.400322025842e+01 -1.319022775640e+01 0.0 
3.321672625034e+01 -1.266779191233e+01 0.0 
3.315244139236e+01 -1.360984106532e+01 0.0 
3.236335186892e+01 -1.308463225210e+01 0.0 
3.478337442841e+01 -1.372341158982e+01 0.0 
3.230105923633e+01 -1.403023731610e+01 0.0 
3.150954055289e+01 -1.350301767700e+01 0.0 
3.144604792090e+01 -1.444931742516e+01 0.0 
3.065653897123e+01 -1.392357262981e+01 0.0 
3.071897610812e+01 -1.297447031198e+01 0.0 
2.986790411740e+01 -1.339226181535e+01 0.0 
2.993181466745e+01 -1.244703272398e+01 0.0 
2.908023061869e+01 -1.286254537734e+01 0.0 
2.901619051372e+01 -1.380881655279e+01 0.0 
2.822986160390e+01 -1.327695262116e+01 0.0 
2.829453476870e+01 -1.233265343811e+01 0.0 
2.744542905518e+01 -1.274510491105e+01 0.0 
2.751120089246e+01 -1.180368086886e+01 0.0 
2.666218649885e+01 -1.221619339205e+01 0.0 
2.672371209234e+01 -1.127125228527e+01 0.0 
2.587763216302e+01 -1.168539979114e+01 0.0 
2.581165585299e+01 -1.262994410089e+01 0.0 
2.502890882577e+01 -1.209827323619e+01 0.0 
2.509631327757e+01 -1.115492410304e+01 0.0 
2.424662989877e+01 -1.156630981079e+01 0.0 
2.431704046904e+01 -1.062389179334e+01 0.0 
2.346445438728e+01 -1.103427680694e+01 0.0 
2.339382552877e+01 -1.197964871788e+01 0.0 
2.260936050780e+01 -1.144513277642e+01 0.0 
2.268075012022e+01 -1.049911928216e+01 0.0 
2.182525737661e+01 -1.090920811464e+01 0.0 
2.189682319817e+01 -9.961716944568e+00 0.0 
2.104174127792e+01 -1.037266986667e+01 0.0 
2.111304367575e+01 -9.424179358711e+00 0.0 
2.025306185381e+01 -9.832727364719e+00 0.0 
2.018141124247e+01 -1.079140628871e+01 0.0 
1.938594498257e+01 -1.025147354112e+01 0.0 
1.946106490453e+01 -9.288010758448e+00 0.0 
1.858929958352e+01 -9.706319802516e+00 0.0 
1.851540991219e+01 -1.067205988724e+01 0.0 
1.771485303178e+01 -1.012504443115e+01 0.0 
1.764134552256e+01 -1.109360378538e+01 0.0 
1.683745148095e+01 -1.054496365337e+01 0.0 
1.691852964353e+01 -9.582555261178e+00 0.0 
1.603603813062e+01 -1.000160132379e+01 0.0 
1.595824239350e+01 -1.096750698862e+01 0.0 
1.515080624291e+01 -1.041639501931e+01 0.0 
1.523171602559e+01 -9.451711491453e+00 0.0 
1.434621060709e+01 -9.871956467464e+00 0.0 
1.426777178765e+01 -1.083749501371e+01 0.0 
1.345775282374e+01 -1.028803175500e+01 0.0 
1.354103873368e+01 -9.324918457162e+00 0.0 
1.265072018622e+01 -9.742612837270e+00 0.0 
1.257285762070e+01 -1.071557782384e+01 0.0 
1.175874815690e+01 -1.015972324288e+01 0.0 
1.184203019714e+01 -9.193604071377e+00 0.0 
1.094927709905e+01 -9.612103238656e+00 0.0 
1.086938022910e+01 -1.058685085646e+01 0.0 
1.005424098961e+01 -1.002939116380e+01 0.0 
9.977974613295e+00 -1.101324897989e+01 0.0 
1.012915646404e+01 -9.051815821181e+00 0.0 
9.237127782494e+00 -9.471239055559e+00 0.0 
9.308426593771e+00 -8.483376461131e+00 0.0 
8.418806073345e+00 -8.910712374517e+00 0.0 
2.253688464062e+01 -1.239459402279e+01 0.0 
8.495126726666e+00 -7.921646665254e+00 0.0 
9.389727383206e+00 -7.512103628377e+00 0.0 
7.601560812974e+00 -8.349460349344e+00 0.0 
7.525680547759e+00 -9.339736686940e+00 0.0 
7.677888324502e+00 -7.359727833346e+00 0.0 
6.782001206724e+00 -7.788454494773e+00 0.0 
6.858778622885e+00 -6.797338062822e+00 0.0 
2.196596590865e+01 -8.979025665442e+00 0.0 
2.816540108272e+01 -1.422634142353e+01 0.0 
5.961601194403e+00 -7.226824010712e+00 0.0 
6.038171749656e+00 -6.234825887079e+00 0.0 
6.936257279557e+00 -5.805287640737e+00 0.0 
6.115068918323e+00 -5.242109758768e+00 0.0 
3.564391741903e+01 -1.329240553876e+01 0.0 
3.558115605778e+01 -1.425902892003e+01 0.0 
3.645445282201e+01 -1.381970786460e+01 0.0 
3.639744204358e+01 -1.479198128612e+01 0.0 
3.727266909778e+01 -1.435399586226e+01 0.0 
5.216667013081e+00 -5.671788584287e+00 0.0 
3.220697293295e+01 -1.499594545107e+01 0.0 
3.551112158269e+01 -1.523479869250e+01 0.0 
2.836056961467e+01 -1.139032434851e+01 0.0 
2.516730388602e+01 -1.021382726837e+01 0.0 
1.844436907403e+01 -1.164097215196e+01 0.0 
5.885434318740e+00 -8.218694781467e+00 0.0 
5.064071066867e+00 -7.656614643901e+00 0.0 
4.988089103470e+00 -8.649722082718e+00 0.0 
1.079421050408e+01 -1.157014985435e+01 0.0 
9.902420005256e+00 -1.199903342656e+01 0.0 
1.071994252214e+01 -1.255727909771e+01 0.0 
9.826974788171e+00 -1.298659581767e+01 0.0 
1.064607883789e+01 -1.354595476388e+01 0.0 
9.751541265343e+00 -1.397556905071e+01 0.0 
8.932296185869e+00 -1.341553353988e+01 0.0 
8.856399248106e+00 -1.440570715508e+01 0.0 
8.036186803543e+00 -1.384470558472e+01 0.0 
1.057112875118e+01 -1.453516759081e+01 0.0 
1.146582585687e+01 -1.410539926903e+01 0.0 
7.959894480382e+00 -1.483563350928e+01 0.0 
7.138792279156e+00 -1.427465094140e+01 0.0 
7.062506792418e+00 -1.526615385482e+01 0.0 
6.240693558277e+00 -1.470508863040e+01 0.0 
6.316957575451e+00 -1.371212581281e+01 0.0 
5.418183007107e+00 -1.414253605022e+01 0.0 
5.494748364428e+00 -1.314886770603e+01 0.0 
1.756825565873e+01 -1.206433872514e+01 0.0 
1.837565773345e+01 -1.261356468266e+01 0.0 
1.749574831391e+01 -1.303769280014e+01 0.0 
1.830539187332e+01 -1.358828364284e+01 0.0 
1.742278925170e+01 -1.401367746928e+01 0.0 
1.823303007798e+01 -1.456432294258e+01 0.0 
1.734941694138e+01 -1.499213734361e+01 0.0 
1.653760041637e+01 -1.443920312098e+01 0.0 
3.056237977307e+01 -1.487132260174e+01 0.0 
1.866469084762e+01 -8.742953000418e+00 0.0 
1.953669694916e+01 -8.326038909849e+00 0.0 
1.874194303780e+01 -7.780688158966e+00 0.0 
1.961032016741e+01 -7.366854697285e+00 0.0 
1.881715755159e+01 -6.821102209649e+00 0.0 
1.968369797150e+01 -6.407747217358e+00 0.0 
1.889237123259e+01 -5.858375520026e+00 0.0 
1.802038875366e+01 -6.276202618170e+00 0.0 
1.809793837984e+01 -5.307629520489e+00 0.0 
1.721985207997e+01 -5.728242054488e+00 0.0 
1.729850893523e+01 -4.756990819347e+00 0.0 
1.641745664240e+01 -5.174636548624e+00 0.0 
2.495978509456e+01 -1.304406404294e+01 0.0 
1.911567814831e+01 -1.413854250293e+01 0.0 
1.904387332608e+01 -1.511463127723e+01 0.0 
1.992115934240e+01 -1.468788025898e+01 0.0 
7.013706899628e+00 -4.812582868662e+00 0.0 
5.342091874585e+00 -1.513658157269e+01 0.0 
1.139098043784e+01 -1.509488509480e+01 0.0 
1.228151810610e+01 -1.465617481983e+01 0.0 
1.646373110164e+01 -1.541993323337e+01 0.0 
5.293328636712e+00 -4.678385108584e+00 0.0 
1.975965862987e+01 -5.448124345648e+00 0.0 
2.054318374236e+01 -5.992561293251e+00 0.0 
3.721453439063e+01 -1.533216152738e+01 0.0 
3.809302733893e+01 -1.489235527381e+01 0.0 
1.220852788900e+01 -1.565304565230e+01 0.0 
4.394120899730e+00 -5.108397613210e+00 0.0 
8.779354620288e+00 -1.539524721159e+01 0.0 
1.817791047702e+01 -4.338570146253e+00 0.0 
4.518860013839e+00 -1.457343189307e+01 0.0 
4.442712140414e+00 -1.556841391069e+01 0.0 
8.115343466391e+00 -1.285760324283e+01 0.0 
1.985334703171e+01 -1.566478400426e+01 0.0 
2.071953850276e+01 -1.522074243119e+01 0.0 
1.634012953883e+01 -6.154777738301e+00 0.0 
1.553479994708e+01 -5.593730508879e+00 0.0 
1.561265946942e+01 -4.617761762647e+00 0.0 
1.470674212978e+01 -5.064576488228e+00 0.0 
1.464498299883e+01 -6.026514471420e+00 0.0 
1.383271561817e+01 -5.467796261169e+00 0.0 
1.389241253067e+01 -4.504338666645e+00 0.0 
1.301868735463e+01 -4.907185188626e+00 0.0 
1.294514184846e+01 -5.888160903592e+00 0.0 
1.212955968622e+01 -5.328262335277e+00 0.0 
1.220721122383e+01 -4.341264976687e+00 0.0 
1.131324345897e+01 -4.766773516508e+00 0.0 
5.266597955397e+00 -1.613148974258e+01 0.0 
1.737805990867e+01 -3.786677807525e+00 0.0 
3.078438094513e+01 -1.203225297748e+01 0.0 
1.131569882285e+01 -1.608511932110e+01 0.0 
1.728478341782e+01 -1.596017432313e+01 0.0 
3.803465906019e+01 -1.587509751228e+01 0.0 
3.891681276677e+01 -1.543395196905e+01 0.0 
3.897340985302e+01 -1.444710288980e+01 0.0 
3.980095968193e+01 -1.499059496613e+01 0.0 
3.974334598189e+01 -1.597921884150e+01 0.0 
4.062964983717e+01 -1.553518690417e+01 0.0 
4.068729602479e+01 -1.454434445295e+01 0.0 
4.151772679790e+01 -1.508974196007e+01 0.0 
4.157505195739e+01 -1.409694289912e+01 0.0 
4.240699932656e+01 -1.464347955968e+01 0.0 
4.234898051011e+01 -1.563721375790e+01 0.0 
4.323934606035e+01 -1.519082036405e+01 0.0 
4.329740528208e+01 -1.419587509788e+01 0.0 
4.413056841369e+01 -1.474359631875e+01 0.0 
4.418850110108e+01 -1.374786684042e+01 0.0 
4.502219770667e+01 -1.429605103525e+01 0.0 
4.496411937907e+01 -1.529215882720e+01 0.0 
4.490027319897e+00 -4.154167794594e+00 0.0 
1.565080385988e+01 -1.486411982419e+01 0.0 
1.557610691279e+01 -1.584855627870e+01 0.0 
4.195350646612e+00 -8.089117689096e+00 0.0 
4.124027797830e+00 -9.082831955007e+00 0.0 
4.917944318925e+00 -9.643530901533e+00 0.0 
4.020105689502e+00 -1.007439673661e+01 0.0 
4.587185899277e+01 -1.484039992728e+01 0.0 
4.580078661551e+01 -1.584043391042e+01 0.0 
2.061956522375e+01 -5.046701343981e+00 0.0 
2.139572955529e+01 -5.579553449826e+00 0.0 
3.715344357292e+01 -1.631485124583e+01 0.0 
3.618886196443e+00 -1.500471207167e+01 0.0 
3.695606940204e+00 -1.400939692294e+01 0.0 
2.438890661143e+01 -9.686110599723e+00 0.0 
2.523267572778e+01 -9.276766000622e+00 0.0 
2.446094171539e+01 -8.751904591412e+00 0.0 
2.529089822738e+01 -8.321495612547e+00 0.0 
2.606882688827e+01 -8.864724051119e+00 0.0 
2.452116646430e+01 -7.792756462004e+00 0.0 
1.235543269617e+01 -1.365845617339e+01 0.0 
4.318116874181e+01 -1.618567469992e+01 0.0 
7.835066111909e+00 -5.376366223896e+00 0.0 
7.905687335704e+00 -4.382539065697e+00 0.0 
3.542640009567e+00 -1.600035116542e+01 0.0 
1.572431503071e+01 -1.388358386695e+01 0.0 
2.574684696680e+01 -1.357896141127e+01 0.0 
2.488842657651e+01 -1.399674354505e+01 0.0 
2.568301775611e+01 -1.453552048595e+01 0.0 
2.481535572009e+01 -1.495542756508e+01 0.0 
2.561729699688e+01 -1.549784648532e+01 0.0 
2.474623061296e+01 -1.592058894178e+01 0.0 
2.394234041695e+01 -1.537572575827e+01 0.0 
2.065825452567e+01 -1.621899055217e+01 0.0 
2.387180528935e+01 -1.634552264687e+01 0.0 
4.585364400844e+01 -1.383912334080e+01 0.0 
1.998744432052e+01 -1.370317155541e+01 0.0 
1.205356951443e+01 -6.313580285498e+00 0.0 
5.396543905849e+00 -3.731818611283e+00 0.0 
1.139652573295e+01 -3.745819399350e+00 0.0 
3.574124306703e+00 -4.551456826011e+00 0.0 
3.494140761930e+00 -5.539787055649e+00 0.0 
1.213651452413e+01 -1.664505033022e+01 0.0 
2.555045568519e+01 -1.646529356744e+01 0.0 
2.641671114986e+01 -1.603899382371e+01 0.0 
2.612920721894e+01 -7.906435260873e+00 0.0 
2.690339829698e+01 -8.456969591431e+00 0.0 
1.978024383368e+01 -1.664410216353e+01 0.0 
3.732829979082e+01 -1.336926601859e+01 0.0 
4.074336584605e+01 -1.355133328401e+01 0.0 
4.163204691081e+01 -1.310280943992e+01 0.0 
3.773826114429e+00 -3.493444309145e+00 0.0 
1.228783001032e+01 -3.374822835872e+00 0.0 
4.057110462520e+01 -1.652588478000e+01 0.0 
2.132535497898e+01 -6.523623360525e+00 0.0 
2.216932532211e+01 -6.110044769206e+00 0.0 
1.825781152128e+01 -3.370146817147e+00 0.0 
1.745679445888e+01 -2.812942552063e+00 0.0 
4.666517057280e+01 -1.539981381543e+01 0.0 
4.660575894464e+01 -1.639014410186e+01 0.0 
4.838230979954e+00 -1.063643436446e+01 0.0 
3.938942630206e+00 -1.106778981745e+01 0.0 
1.302967218620e+01 -1.621373452436e+01 0.0 
1.049548003190e+01 -4.204825123240e+00 0.0 
4.573571907195e+01 -1.683820511148e+01 0.0 
1.483686335807e+01 -1.430849689310e+01 0.0 
1.490982658890e+01 -1.332679386284e+01 0.0 
3.190805600162e+00 -9.510968358545e+00 0.0 
2.146625721848e+01 -4.642437303115e+00 0.0 
2.069866208266e+01 -4.111852942193e+00 0.0 
1.286859345584e+01 -6.873252723348e+00 0.0 
1.041794493184e+01 -5.194814260291e+00 0.0 
2.671081808965e+00 -4.976806516331e+00 0.0 
1.295786792925e+01 -1.720506531799e+01 0.0 
3.968438206511e+01 -1.696869067241e+01 0.0 
2.308550456051e+01 -1.579963151273e+01 0.0 
2.315593682844e+01 -1.482967445235e+01 0.0 
2.299471449450e+01 -1.677069968132e+01 0.0 
1.057344714696e+01 -3.214252277840e+00 0.0 
1.124057603753e+01 -1.707713739755e+01 0.0 
2.718402535754e+00 -1.543629882103e+01 0.0 
2.638549692805e+01 -1.696744916809e+01 0.0 
2.723416349007e+01 -1.658104204545e+01 0.0 
2.210193351704e+01 -7.046769643417e+00 0.0 
2.295180925161e+01 -6.657397605239e+00 0.0 
2.301355235833e+01 -5.709111896800e+00 0.0 
2.379052718281e+01 -6.254965406962e+00 0.0 
3.243528601237e+01 -1.214181853533e+01 0.0 
2.287977995457e+01 -7.583722368300e+00 0.0 
2.999876029544e+01 -1.150837653096e+01 0.0 
3.084435366963e+01 -1.109693775882e+01 0.0 
3.006650579669e+01 -1.057778994262e+01 0.0 
2.683802665066e+01 -9.386863216633e+00 0.0 
2.768641973621e+01 -8.988883915666e+00 0.0 
2.040296980397e+01 -7.903629133404e+00 0.0 
1.925235024054e+01 -1.218872783130e+01 0.0 
5.735667000424e+00 -1.020577277283e+01 0.0 
6.396559909872e+00 -1.272326295703e+01 0.0 
1.161199420714e+01 -1.212812778229e+01 0.0 
4.229046132615e+01 -1.663084237572e+01 0.0 
4.312275399692e+01 -1.718087491556e+01 0.0 
4.335502068163e+01 -1.320039231514e+01 0.0 
4.424630298089e+01 -1.275160688731e+01 0.0 
7.090116643816e+00 -3.818998061530e+00 0.0 
7.989472176569e+00 -3.389238711200e+00 0.0 
9.085824861778e+00 -1.144036167408e+01 0.0 
1.041972423731e+01 -1.651614080893e+01 0.0 
3.797525112640e+01 -1.686052038746e+01 0.0 
3.709114253394e+01 -1.730125999865e+01 0.0 
3.626966748340e+01 -1.675477052919e+01 0.0 
1.385164591440e+01 -1.677597757552e+01 0.0 
1.787152588784e+01 -8.198993896093e+00 0.0 
1.668849729812e+01 -1.248560611628e+01 0.0 
1.659546177905e+01 -3.232482605530e+00 0.0 
2.332214717345e+01 -1.292598167641e+01 0.0 
7.168238450786e+00 -2.824711686516e+00 0.0 
2.894878403906e+01 -1.475427524446e+01 0.0 
2.646763248247e+00 -1.643270107952e+01 0.0 
3.467431944285e+00 -1.699648837348e+01 0.0 
2.059475877282e+01 -1.719473628526e+01 0.0 
3.333868355437e+01 -1.080596971682e+01 0.0 
2.246451062637e+01 -1.334557761546e+01 0.0 
2.167821896388e+01 -1.280847834858e+01 0.0 
3.089653185767e+01 -1.017198487212e+01 0.0 
3.012604365669e+01 -9.657298805968e+00 0.0 
2.929627299435e+01 -1.006100135274e+01 0.0 
2.936201435219e+01 -9.136748899251e+00 0.0 
1.198219052702e+01 -7.291887238230e+00 0.0 
1.116702076035e+01 -6.731976101053e+00 0.0 
2.551388807505e+01 -1.746927036981e+01 0.0 
2.378639090370e+01 -1.728678807149e+01 0.0 
2.718543627188e+01 -1.748668016909e+01 0.0 
2.804681050301e+01 -1.712626668293e+01 0.0 
1.970737034667e+01 -1.762317646822e+01 0.0 
1.889535776135e+01 -1.707158098231e+01 0.0 
2.593777711283e+00 -5.971157087874e+00 0.0 
2.773468281110e+01 -8.067164273938e+00 0.0 
4.051205884347e+01 -1.751819982458e+01 0.0 
3.166903145421e+01 -1.068032992414e+01 0.0 
1.033042452886e+01 -1.748285844336e+01 0.0 
9.519274604626e+00 -1.694349240233e+01 0.0 
1.668308673328e+01 -2.255861778986e+00 0.0 
1.570531902832e+01 -2.676795860126e+00 0.0 
4.655826903379e+01 -1.736656245706e+01 0.0 
2.384148070773e+01 -5.328744256413e+00 0.0 
2.460255123641e+01 -5.852182672816e+00 0.0 
2.306638135119e+01 -4.798935440613e+00 0.0 
8.467720450578e-01 -1.849576263072e+01 0.0 
4.849657322345e+01 -1.084860705506e+01 0.0 
2.565860899507e+00 -1.742859793981e+01 0.0 
2.764418872564e+01 -9.927142821799e+00 0.0 
4.565165880064e+01 -1.785336695404e+01 0.0 
2.162231831329e+01 -1.376528337468e+01 0.0 
2.360646352969e+01 -9.136041963102e+00 0.0 
1.392738739903e+01 -1.578285505772e+01 0.0 
4.756405947478e+01 -1.683706841809e+01 0.0 
4.740895034054e+01 -1.793766756892e+01 0.0 
4.080779328826e+01 -1.257387192544e+01 0.0 
4.168907939671e+01 -1.210739129181e+01 0.0 
3.991197722154e+01 -1.300815793917e+01 0.0 
1.905536506762e+01 -3.940076697685e+00 0.0 
1.923879596617e+01 -2.875000734166e+00 0.0 
4.401386745746e+01 -1.673483229438e+01 0.0 
4.247233362525e+00 -7.094581653070e+00 0.0 
3.286051630211e+00 -7.635300020553e+00 0.0 
9.609533347623e+00 -4.594311677967e+00 0.0 
9.523554636369e+00 -5.595597029530e+00 0.0 
5.660336628893e+00 -1.119290329628e+01 0.0 
6.558070063295e+00 -1.076385809362e+01 0.0 
2.809866407414e+01 -1.518037766799e+01 0.0 
2.888868674504e+01 -1.570360690070e+01 0.0 
2.654431550819e+01 -1.411217777162e+01 0.0 
1.402158265969e+01 -1.375404617952e+01 0.0 
1.409592494026e+01 -1.277071998942e+01 0.0 
1.499355196178e+01 -1.235270737023e+01 0.0 
4.221535326155e+01 -1.759335617494e+01 0.0 
4.305583287033e+01 -1.822663146802e+01 0.0 
1.280748808359e+01 -7.834332838285e+00 0.0 
1.368988389326e+01 -7.420529606172e+00 0.0 
1.110091796060e+01 -7.683966794328e+00 0.0 
3.963446145980e+01 -1.794331310122e+01 0.0 
3.423932362213e+00 -1.796415590455e+01 0.0 
4.280814572302e+00 -1.752272834860e+01 0.0 
8.050136380041e+00 -2.421582378631e+00 0.0 
8.888674091650e+00 -2.984264211327e+00 0.0 
2.152839430898e+01 -3.732609965436e+00 0.0 
2.077799585292e+01 -3.183896021866e+00 0.0 
3.618719395821e+01 -1.770276572576e+01 0.0 
3.538165138340e+01 -1.718709995539e+01 0.0 
3.702925326420e+01 -1.828844288807e+01 0.0 
1.756739438711e+00 -5.353284859169e+00 0.0 
2.233710191104e+01 -1.527265621324e+01 0.0 
1.389483555057e+01 -1.771797164730e+01 0.0 
1.475634224300e+01 -1.728357428390e+01 0.0 
1.298797563052e+01 -1.825968924755e+01 0.0 
2.145331271866e+01 -1.673705379077e+01 0.0 
2.133282821169e+01 -1.769400773673e+01 0.0 
2.292139194136e+01 -1.774915400288e+01 0.0 
1.750750053243e+01 -1.861475593469e+00 0.0 
4.830478841772e+01 -1.752611802221e+01 0.0 
4.341203507805e+01 -1.220326745522e+01 0.0 
1.685254151866e+01 -1.443085301632e+00 0.0 
4.431538535165e+01 -1.171841387375e+01 0.0 
4.511308610496e+01 -1.229557320599e+01 0.0 
4.510133242889e+01 -1.123680627466e+01 0.0 
1.846818030617e+00 -4.410877617069e+00 0.0 
3.995468694584e+01 -1.186571542989e+01 0.0 
3.901387459804e+01 -1.242507616755e+01 0.0 
8.966735877533e+00 -1.837818700423e+00 0.0 
4.049310011091e+01 -1.848269508791e+01 0.0 
7.278862053803e+00 -1.918523922691e+00 0.0 
6.429715522129e+00 -2.316676521184e+00 0.0 
9.443505505022e+00 -1.792198868094e+01 0.0 
8.620386951051e+00 -1.737590365556e+01 0.0 
8.571868171503e+00 -1.834436667826e+01 0.0 
7.758629848526e+00 -1.775677907213e+01 0.0 
7.806648388584e+00 -1.680761266021e+01 0.0 
6.908555145436e+00 -1.723746463044e+01 0.0 
4.251709122090e+01 -1.156937480156e+01 0.0 
6.931136405615e+00 -1.832465719263e+01 0.0 
6.015545461353e+00 -1.768865355295e+01 0.0 
5.960535926343e+00 -1.872011001764e+01 0.0 
3.023253444786e+01 -8.761960642196e+00 0.0 
2.454622702599e+01 -6.749421992767e+00 0.0 
2.537499741604e+01 -6.347634963783e+00 0.0 
2.544077378460e+01 -5.431358513649e+00 0.0 
2.801367161747e+01 -1.820907270221e+01 0.0 
2.884507806914e+01 -1.762032095326e+01 0.0 
1.821474531936e+00 -1.588901260460e+01 0.0 
1.821006262604e+00 -1.489370287756e+01 0.0 
4.599962488908e+01 -1.176478780598e+01 0.0 
4.705457470007e+01 -1.172182804229e+01 0.0 
4.667668314802e+01 -1.263464558483e+01 0.0 
4.759648056504e+01 -1.252380987933e+01 0.0 
4.728041618103e+01 -1.341928568376e+01 0.0 
4.825209352360e+01 -1.330491640804e+01 0.0 
4.778118233428e+01 -1.420151961695e+01 0.0 
2.388192727579e+01 -1.826934810142e+01 0.0 
2.381714684947e+01 -4.385917965223e+00 0.0 
3.172733219247e+01 -9.758744265248e+00 0.0 
1.882012070658e+01 -1.805540597212e+01 0.0 
1.805667505243e+01 -1.742221226236e+01 0.0 
2.852599958080e+01 -8.597196079481e+00 0.0 
2.856486123437e+01 -7.661382718527e+00 0.0 
1.111792842875e+01 -1.818223852980e+01 0.0 
2.203322722466e+01 -7.986646678802e+00 0.0 
3.955703676900e+01 -1.903246763601e+01 0.0 
1.944842206513e+01 -8.038750575182e-01 0.0 
1.909882767783e+01 -1.746322740933e+00 0.0 
2.281147422941e+01 -8.525912918334e+00 0.0 
2.850633001468e+01 -9.533271335986e+00 0.0 
2.532883344309e+01 -7.308951659710e+00 0.0 
2.620475466461e+01 -6.979208585400e+00 0.0 
1.396278270396e+01 -1.475095389807e+01 0.0 
9.791001166724e+00 -2.554159793552e+00 0.0 
2.229293380421e+01 -4.269762271052e+00 0.0 
4.677238984118e+01 -1.430071795514e+01 0.0 
2.228658385918e+01 -3.344747535984e+00 0.0 
8.940223674553e-01 -1.543595733415e+01 0.0 
2.118566862474e+01 -8.435876987696e+00 0.0 
2.678325936437e+01 -1.032621195706e+01 0.0 
2.223400220487e+01 -5.179046761770e+00 0.0 
2.375370625384e+01 -7.251580562134e+00 0.0 
3.156971327386e+01 -1.255534750737e+01 0.0 
3.328226391312e+01 -1.172914813316e+01 0.0 
3.250948774219e+01 -1.120157009348e+01 0.0 
2.032993445717e+01 -8.867880112202e+00 0.0 
2.697226974856e+01 -7.536633082045e+00 0.0 
2.707377810386e+01 -6.590835263295e+00 0.0 
2.914099246827e+01 -1.191678458549e+01 0.0 
3.544824072239e+01 -1.621126558525e+01 0.0 
3.456511855436e+01 -1.665054783843e+01 0.0 
3.448395810225e+01 -1.759117813016e+01 0.0 
3.368378673938e+01 -1.708037781328e+01 0.0 
3.375560452567e+01 -1.610973066913e+01 0.0 
3.288001547988e+01 -1.654324255651e+01 0.0 
3.282475929147e+01 -1.749725654692e+01 0.0 
3.199880906313e+01 -1.697294088625e+01 0.0 
3.197001272932e+01 -1.811667776864e+01 0.0 
3.111884713021e+01 -1.742166785755e+01 0.0 
3.120418962865e+01 -1.642155709385e+01 0.0 
3.034666704371e+01 -1.683123833816e+01 0.0 
3.026224379976e+01 -1.772592851714e+01 0.0 
3.046632362943e+01 -1.582232843075e+01 0.0 
1.961344017324e+01 -1.857459447985e+01 0.0 
2.274975894774e+01 -9.532738811922e+00 0.0 
1.833923246887e+01 -2.396746883672e+00 0.0 
1.988859500848e+01 -2.249244376594e+00 0.0 
2.758045562861e+01 -1.086434261689e+01 0.0 
3.247300178163e+01 -1.909930104252e+01 0.0 
3.461947482503e+01 -1.911879848019e+01 0.0 
2.047161538662e+01 -6.941478180358e+00 0.0 
2.750230940214e+01 -1.915490590764e+01 0.0 
3.165081350803e+01 -1.161860780120e+01 0.0 
1.897456727641e+01 -4.889634688522e+00 0.0 
2.549338539756e+01 -1.914858252089e+01 0.0 
3.462873135081e+01 -1.567482276144e+01 0.0 
3.384432415243e+01 -1.512280684518e+01 0.0 
3.471433767690e+01 -1.469086942990e+01 0.0 
3.651470373046e+01 -1.918207952149e+01 0.0 
3.901742690249e+01 -1.345028556517e+01 0.0 
2.153224102692e+01 -1.920169709333e+01 0.0 
1.918382939341e+01 -1.316226275662e+01 0.0 
2.005389162382e+01 -1.271962165174e+01 0.0 
2.011472087878e+01 -1.175029352900e+01 0.0 
3.210679478412e+01 -1.598038618242e+01 0.0 
1.752175226543e+01 -1.914713022656e+01 0.0 
1.696897240059e+01 -1.832772588765e+01 0.0 
1.599682523337e+01 -1.832599992024e+01 0.0 
1.644507199462e+01 -1.743697981535e+01 0.0 
1.549987712903e+01 -1.915192375101e+01 0.0 
3.050250861901e+01 -1.918943550234e+01 0.0 
2.949944061527e+01 -1.922950455235e+01 0.0 
1.375892575273e+01 -6.447160534926e+00 0.0 
1.457223670180e+01 -7.006709243857e+00 0.0 
1.450818793236e+01 -7.965943451779e+00 0.0 
1.538804712402e+01 -7.553409623699e+00 0.0 
1.545817644768e+01 -6.580929593419e+00 0.0 
1.626506893751e+01 -7.129032608911e+00 0.0 
1.619833811522e+01 -8.086588580887e+00 0.0 
1.714448609609e+01 -6.697429609777e+00 0.0 
2.887616543568e+01 -1.668015232137e+01 0.0 
1.349814589130e+01 -1.918225301544e+01 0.0 
1.153887772210e+01 -1.311384581217e+01 0.0 
1.242708159886e+01 -1.267046795531e+01 0.0 
1.249799674267e+01 -1.169005616014e+01 0.0 
6.631723893693e+00 -9.774184881867e+00 0.0 
7.451471631867e+00 -1.033148796006e+01 0.0 
7.377795355458e+00 -1.132196345268e+01 0.0 
5.810931797536e+00 -9.211654212252e+00 0.0 
2.402683899133e+01 -1.441378562320e+01 0.0 
1.249768692036e+01 -1.917388426624e+01 0.0 
1.580373499437e+01 -1.290751860664e+01 0.0 
8.344650507834e+00 -9.898403995170e+00 0.0 
3.750622115305e+01 -1.086526401533e+01 0.0 
3.699391251667e+01 -1.171695900794e+01 0.0 
3.606517829518e+01 -1.173717504500e+01 0.0 
3.650257641795e+01 -1.270047380221e+01 0.0 
3.808951488918e+01 -1.183518714175e+01 0.0 
4.760380962420e+00 -1.162484888315e+01 0.0 
3.861210370848e+00 -1.205657631736e+01 0.0 
3.038284309476e+00 -1.149851280664e+01 0.0 
2.961598794889e+00 -1.248856794980e+01 0.0 
2.138953225512e+00 -1.193212674534e+01 0.0 
2.227383593457e+00 -1.096258903918e+01 0.0 
2.043265419276e+00 -1.292158472959e+01 0.0 
1.252449446028e+00 -1.225502002753e+01 0.0 
3.949985210740e+01 -1.086594001795e+01 0.0 
1.453499444792e+01 -8.768805922472e-01 0.0 
1.403518950933e+01 -1.749965556633e+00 0.0 
1.300715031023e+01 -1.714737233040e+00 0.0 
1.350929389899e+01 -2.527443911291e+00 0.0 
1.449600910711e+01 -2.595486162864e+00 0.0 
1.395693872901e+01 -3.484211041558e+00 0.0 
1.495105865208e+01 -3.364609636216e+00 0.0 
1.508822528740e+01 -1.766586020494e+00 0.0 
1.250223858430e+01 -8.634590186802e-01 0.0 
1.200279523409e+01 -1.709044504992e+00 0.0 
1.150086239419e+01 -8.592789190668e-01 0.0 
1.101482754194e+01 -1.677730591922e+00 0.0 
1.148018564526e+01 -2.659323866909e+00 0.0 
8.800552119754e+00 -3.989875954728e+00 0.0 
3.452790439430e+00 -1.901136170646e+01 0.0 
8.658451825200e-01 -9.503462241795e+00 0.0 
1.694787786797e+00 -9.000589234502e+00 0.0 
1.703436717094e+00 -8.038819004041e+00 0.0 
2.594197971110e+00 -8.563955242845e+00 0.0 
1.630513735412e+00 -9.907244747511e+00 0.0 
8.566859292791e-01 -7.512203837972e+00 0.0 
1.685461277022e+00 -7.164280248030e+00 0.0 
2.506394468801e+00 -8.623386730818e-01 0.0 
2.007475081581e+00 -1.727729545205e+00 0.0 
9.211534699767e-01 -1.628791366312e+00 0.0 
1.500000000020e+00 -2.598063549486e+00 0.0 
2.482078929963e+00 -2.553580088725e+00 0.0 
2.999795253092e+00 -1.732169015019e+00 0.0 
3.999712607169e+00 -1.728832897453e+00 0.0 
4.499752199340e+00 -8.656478679175e-01 0.0 
4.964377774841e+00 -1.730129617941e+00 0.0 
4.425017908337e+00 -2.597541756243e+00 0.0 
5.446573195014e+00 -8.410144840023e-01 0.0 
4.915722346614e+01 -1.550640962770e+01 0.0 
4.826794919243e+01 -1.600000000000e+01 0.0 
1.053139533193e+01 -1.911782884365e+01 0.0 
4.156049861949e+01 -1.095160998589e+01 0.0 
9.494526624416e+00 -8.650570090219e-01 0.0 
4.555762166964e+01 -1.897098103585e+01 0.0 
4.250656411371e+01 -1.914387356218e+01 0.0 
4.350906466345e+01 -1.917234727395e+01 0.0 
8.759665722424e-01 -1.746422130609e+01 0.0 
1.698936011838e+00 -1.795012186674e+01 0.0 
4.742476811029e+01 -1.900090177972e+01 0.0 
7.749196752349e+00 -6.368049313489e+00 0.0 
3.361572113416e+01 -1.798765193915e+01 0.0 
4.484660149212e+01 -1.728661231383e+01 0.0 
1.984038172228e+01 -4.502575320116e+00 0.0 
1.035080352627e+01 -6.166639575753e+00 0.0 
2.753558010652e+00 -1.444909521181e+01 0.0 
7.217069543032e+00 -1.328635391078e+01 0.0 
4.364336727739e+00 -1.655585677381e+01 0.0 
4.595208426108e+00 -1.357919665443e+01 0.0 
6.164967006980e+00 -1.569873454630e+01 0.0 
1.487855768353e+01 -1.826523774028e+01 0.0 
2.791876456372e+00 -4.019632415181e+00 0.0 
4.246464893515e+01 -1.364898659620e+01 0.0 
4.503855590351e+01 -1.329552780944e+01 0.0 
4.407239109604e+01 -1.573900004093e+01 0.0 
5.141054449252e+00 -6.664290382472e+00 0.0 
3.141083947149e+00 -1.055790764912e+01 0.0 
6.196463198741e+00 -4.256497932609e+00 0.0 
2.599618716181e+01 -1.836893455464e+01 0.0 
2.923057372337e+01 -1.098461757645e+01 0.0 
1.168343877486e+01 -1.114079645041e+01 0.0 
6.706222096238e+00 -8.780364234441e+00 0.0 
8.567858614669e+00 -6.943121440850e+00 0.0 
1.123755132901e+01 -5.753525820030e+00 0.0 
2.353456234423e+01 -1.008536320953e+01 0.0 
9.162073319168e+00 -1.045593739109e+01 0.0 
9.676343469685e+00 -1.496493008366e+01 0.0 
4.490637882905e+01 -1.628778970202e+01 0.0 
7.398129387772e+00 -9.639977982323e-01 0.0 
1.049641705805e+01 -1.552503975272e+01 0.0 
9.010356286268e+00 -1.242805042052e+01 0.0 
3.985573925497e+01 -1.399863651620e+01 0.0 
1.816196318262e+01 -1.554066497931e+01 0.0 
1.306332244168e+01 -3.963646550326e+00 0.0 
4.145850903932e+01 -1.608094559275e+01 0.0 
3.794664933633e+01 -1.779020121986e+01 0.0 
3.819614412903e+01 -1.290749321016e+01 0.0 
6.270014188119e+00 -3.255093186826e+00 0.0 
4.251165370388e+01 -1.263870364997e+01 0.0 
1.207347709171e+01 -1.763942826023e+01 0.0 
3.633240829927e+01 -1.577330481104e+01 0.0 
4.319052668832e+00 -6.101812561904e+00 0.0 
1.676492415806e+01 -1.151547901392e+01 0.0 
2.594059220037e+01 -1.074225223009e+01 0.0 
3.340750911501e+01 -9.898764354137e+00 0.0 
4.397619591281e+01 -1.769773736461e+01 0.0 
2.175611595028e+01 -1.185718747128e+01 0.0 
1.641818733106e+01 -1.640685203215e+01 0.0 
1.661211421753e+01 -1.346121366338e+01 0.0 
3.428853504935e+00 -6.551993389271e+00 0.0 
8.700728832502e+00 -1.638460872825e+01 0.0 
1.931369795309e+01 -1.121629383702e+01 0.0 
4.139798872363e+01 -1.706922153459e+01 0.0 
2.647837478700e+01 -1.507353829290e+01 0.0 
1.779469616424e+01 -9.161615782908e+00 0.0 
3.885879219319e+01 -1.642026488918e+01 0.0 
1.338194936770e+01 -1.125916521471e+01 0.0 
1.897071181111e+01 -1.609204322578e+01 0.0 
2.844308548793e+01 -1.046221003096e+01 0.0 
2.659854702194e+01 -1.316109415760e+01 0.0 
2.979604503271e+01 -1.433296157755e+01 0.0 
2.417694041347e+01 -1.251231397779e+01 0.0 
1.807401327411e+00 -1.388891148480e+01 0.0 
9.599810618782e+00 -1.595439365034e+01 0.0 
1.652144692160e+01 -4.205392788472e+00 0.0 
2.367839450246e+01 -8.188385218643e+00 0.0 
3.814894930468e+01 -1.390748338767e+01 0.0 
2.466448215774e+01 -1.685878545680e+01 0.0 
4.134044524611e+01 -1.806610045954e+01 0.0 
2.600511411958e+01 -9.801774120648e+00 0.0 
7.882158050716e+00 -1.582364037353e+01 0.0 
3.881607873422e+01 -1.737970515013e+01 0.0 
8.270182347708e+00 -1.088622154920e+01 0.0 
8.672520392520e-01 -4.532984309881e+00 0.0 
1.993447205337e+01 -3.579061902667e+00 0.0 
1.794616079549e+01 -7.238038888498e+00 0.0 
2.097277068165e+01 -1.132450168636e+01 0.0 
8.194803300681e+00 -1.187214224265e+01 0.0 
3.522279404911e+01 -1.823342818178e+01 0.0 
6.984481050295e+00 -1.625271465557e+01 0.0 
1.309433007797e+01 -1.521718594215e+01 0.0 
2.150246167611e+01 -1.885399038185e+00 0.0 
3.250689370209e+01 -1.028789870535e+01 0.0 
6.085886272238e+00 -1.668342132851e+01 0.0 
1.588455661727e+01 -1.193498985921e+01 0.0 
1.809323400821e+01 -1.651110084195e+01 0.0 
1.348885082381e+00 -1.136065576512e+01 0.0 
2.497670221995e+01 -1.834631276173e+01 0.0 
2.937062818424e+01 -8.233711194470e+00 0.0 
5.185823744469e+00 -1.711566910207e+01 0.0 
1.477497877209e+01 -1.530177014512e+01 0.0 
2.125346158933e+01 -7.473003997367e+00 0.0 
4.751561118290e+01 -1.084897772632e+01 0.0 
5.056026576843e+00 -1.825750475525e+01 0.0 
1.473948554523e+01 -1.634577436309e+01 0.0 
2.410566630936e+01 -1.345970002612e+01 0.0 
1.507337507513e+01 -1.138527895328e+01 0.0 
3.189857338687e+01 -8.887781229006e+00 0.0 
7.298712468334e+00 -1.230231046246e+01 0.0 
2.738235495295e+01 -1.368931690364e+01 0.0 
3.750141041969e+01 -1.920449893070e+01 0.0 
1.557271965640e+01 -1.683317951731e+01 0.0 
3.393731848929e+01 -1.413034777044e+01 0.0 
6.482156824153e+00 -1.174575135362e+01 0.0 
2.077971718439e+01 -1.421279621836e+01 0.0 
3.455084320178e+00 -2.562590040585e+00 0.0 
3.099056096250e+01 -9.270280416035e+00 0.0 
5.580176125418e+00 -1.217387969259e+01 0.0 
1.707247630389e+01 -7.660651981710e+00 0.0 
1.418658814174e+01 -1.180390575393e+01 0.0 
2.049103025389e+01 -1.811296706038e+01 0.0 
4.680386172316e+00 -1.260396879301e+01 0.0 
1.699679896554e+01 -8.624561788199e+00 0.0 
3.779470168555e+00 -1.303424899720e+01 0.0 
3.036589870126e+01 -7.879832518349e+00 0.0 
3.306993001774e+01 -1.457671062095e+01 0.0 
2.840150110165e+00 -1.346530088269e+01 0.0 
2.732011135052e+01 -1.464591214560e+01 0.0 
5.423639259568e+00 -2.659711955016e+00 0.0 
2.324455961696e+01 -1.387269388211e+01 0.0 
1.752768355571e+00 -1.693128613594e+01 0.0 
1.020244783051e+01 -8.076834012808e+00 0.0 
1.330873875224e+01 -1.222417528206e+01 0.0 
3.297727364880e+01 -1.555480372087e+01 0.0 
2.890929955439e+01 -6.868664170731e+00 0.0 
1.323294664622e+01 -1.320754260334e+01 0.0 
2.726532861246e+01 -1.560593120806e+01 0.0 
2.240020643398e+01 -1.429299177247e+01 0.0 
2.090445823633e+01 -1.228128621332e+01 0.0 
1.315809881502e+01 -1.420739326938e+01 0.0 
2.781328038068e+01 -7.181956082300e+00 0.0 
8.614200829057e+00 -5.936933226306e+00 0.0 
8.714765730069e+00 -4.979270529687e+00 0.0 
1.611881701099e+01 -9.041973294003e+00 0.0 
2.806830314340e+01 -1.614622947108e+01 0.0 
2.084435391396e+00 -3.385085422913e+00 0.0 
3.133211811152e+01 -1.542347619750e+01 0.0 
9.693114650768e+00 -3.590281506442e+00 0.0 
1.531883592202e+01 -8.504584946143e+00 0.0 
2.151589117094e+01 -1.578915763018e+01 0.0 
4.918943882696e+01 -1.355538828056e+01 0.0 
1.443236615188e+01 -8.918701794549e+00 0.0 
8.276250966452e-01 -5.537685192197e+00 0.0 
1.362790867918e+01 -8.374718262212e+00 0.0 
2.083767477370e+01 -1.324843956035e+01 0.0 
1.273834678703e+01 -8.790890389337e+00 0.0 
1.192275845670e+01 -8.242261327467e+00 0.0 
4.477236023583e+01 -1.824312396664e+01 0.0 
1.102989384254e+01 -8.649855800911e+00 0.0 
4.849096516045e+01 -1.917293752213e+01 0.0 
1.588996752238e+00 -1.910230934687e+01 0.0 
4.904245197583e+01 -1.159839008158e+01 0.0 
2.753852929608e+01 -5.782128488093e+00 0.0 
1.756133602833e+01 -8.306130313187e-01 0.0 
2.615423700951e+01 -6.153865090092e+00 0.0 
1.028818761294e+01 -7.122020845892e+00 0.0 
2.970818901196e+01 -1.527821347593e+01 0.0 
4.801461623449e+01 -1.164472570985e+01 0.0 
9.455722100419e+00 -6.546069291118e+00 0.0 
3.089099236677e+01 -1.835339328261e+01 0.0 
2.350000000013e+01 -1.920825896750e+01 0.0 
4.830620531887e+01 -1.506626155470e+01 0.0 
1.725381944701e+01 -1.688794487850e+01 0.0 
2.156246225273e+01 -1.475893794002e+01 0.0 
4.919319648787e+01 -1.742767505896e+01 0.0 
4.437935623576e+01 -1.077662927266e+01 0.0 
1.001520521978e+01 -1.652692675208e+00 0.0 
9.067160240050e-01 -1.441937727541e+01 0.0 
2.603365149390e+01 -4.755996613848e+00 0.0 
2.458344439002e+01 -4.873645517696e+00 0.0 
2.304312390142e+01 -3.836552768096e+00 0.0 
2.546923202198e+00 -6.902480355749e+00 0.0 
1.251534969393e+01 -2.490989965776e+00 0.0 
2.454061833377e+01 -3.933354231935e+00 0.0 
1.788186558740e+01 -1.827424884923e+01 0.0 
4.090785243552e+01 -1.166553231904e+01 0.0 
2.230128851568e+01 -1.623015738726e+01 0.0 
2.302362347568e+01 -2.916239960270e+00 0.0 
3.878119254461e+01 -1.830091164002e+01 0.0 
2.210081359958e+01 -1.829238229150e+01 0.0 
8.443704882233e+00 -1.921993252862e+01 0.0 
2.218405824691e+01 -1.724557581508e+01 0.0 
2.151157503963e+01 -2.790636689331e+00 0.0 
3.741658958955e+01 -1.250400191722e+01 0.0 
2.697247663737e+01 -1.838290202309e+01 0.0 
4.743362342862e+01 -1.585850773010e+01 0.0 
6.671345075358e+00 -1.924977576322e+01 0.0 
3.900825404537e+01 -1.157220003875e+01 0.0 
4.649692961375e+01 -1.836335837481e+01 0.0 
1.578831424832e+01 -3.678284023361e+00 0.0 
4.814208768888e+01 -1.841249298770e+01 0.0 
2.964123298315e+01 -1.625739458193e+01 0.0 
4.580760351902e+01 -1.284294554687e+01 0.0 
3.561520879615e+01 -1.245548941949e+01 0.0 
2.555418095658e+00 -1.841101588290e+01 0.0 
3.288468366144e+01 -1.834258164109e+01 0.0 
2.065894391445e+01 -2.240688571739e+00 0.0 
4.739171429915e+01 -1.496536413446e+01 0.0 
3.478086729185e+00 -8.576434653209e+00 0.0 
1.606010630246e+01 -1.588421807951e+00 0.0 
1.018329200594e+01 -1.834320874317e+01 0.0 
2.957213339430e+01 -1.720496954591e+01 0.0 
4.142712790164e+00 -1.837794506222e+01 0.0 
6.698721532573e-01 -2.499999999997e+00 0.0 
8.037039123140e+00 -1.571229354954e+00 0.0 
1.203541361428e+01 -1.847784298001e+01 0.0 
2.899968332038e+01 -1.848264722179e+01 0.0 
1.469229460948e+01 -4.219485753730e+00 0.0 
4.049590781957e+01 -1.932812501995e+01 0.0 
1.996211678340e+01 -1.506329754720e+00 0.0 
4.250588298353e+01 -1.067383247529e+01 0.0 
5.831497011152e+00 -1.635396227234e+00 0.0 
5.317606125670e+00 -1.923927974868e+01 0.0 
4.208546426993e+01 -1.842830665025e+01 0.0 
2.327553405011e+00 -9.459409929662e+00 0.0 
3.568351902251e+01 -1.096637218582e+01 0.0 
1.682104374890e+00 -6.231413350963e+00 0.0 
2.451812238018e+01 -1.766524914339e+01 0.0 
1.058003429638e+01 -2.391839617098e+00 0.0 
4.399988753123e+01 -1.851998776342e+01 0.0 
1.400000000010e+01 -1.852293523028e+01 0.0 
3.604719565984e+01 -1.850662876800e+01 0.0 
1.951297136734e+01 -1.938092349694e+01 0.0 
1.821365318472e+01 -1.531276353287e+00 0.0 
2.298031859732e+01 -1.854635324722e+01 0.0 
1.552168066204e+01 -1.764280741977e+01 0.0 
4.572957713638e+01 -1.073347898229e+01 0.0 
3.429637429624e+01 -1.838861552790e+01 0.0 
2.427434426052e+00 -7.705577451869e+00 0.0 
4.662792031485e+00 -3.359424455416e+00 0.0 
4.926794919243e+01 -1.926794919243e+01 0.0 
7.320508075690e-01 -7.320508075688e-01 0.0 
4.926794919243e+01 -1.073205080757e+01 0.0 
7.320508075705e-01 -1.926794919243e+01 0.0 
2.917460242467e+00 -3.202866455310e+00 0.0 
4.838200575963e+01 -1.232674147454e+01 0.0 
2.998445708009e+01 -1.854403752148e+01 0.0 
5.949940090766e-01 -1.152762038165e+01 0.0 
4.844763495759e+01 -1.678092548787e+01 0.0 
1.301685480160e+01 -3.170056592566e+00 0.0 
1.650046335855e+01 -6.731535384067e-01 0.0 
4.854881540991e+01 -1.405224059779e+01 0.0 
2.119545114693e+01 -1.846813384545e+01 0.0 
3.797852849897e+01 -1.857978513215e+01 0.0 
4.649823708745e+01 -1.338351810816e+01 0.0 
2.012685900976e+01 -2.889659035009e+00 0.0 
2.953271913273e+01 -1.791558075192e+01 0.0 
2.408509097292e+00 -1.021949208421e+01 0.0 
2.642589566221e+01 -1.773216561448e+01 0.0 
1.730010270775e+01 -1.763165076721e+01 0.0 
2.017406551304e+01 -8.513536440582e-01 0.0 
5.254761581934e-01 -1.249999999999e+01 0.0 
6.640448215642e+00 -1.545337834885e+00 0.0 
7.843361506349e+00 -1.852719839527e+01 0.0 
1.588442191088e+00 -1.066158564320e+01 0.0 
2.131250000000e+01 -4.209183673460e-01 0.0 
4.950862068966e+01 -5.000000000001e-01 0.0 
2.280866189488e+01 -1.416779325160e+00 0.0 
4.950862068966e+01 -1.500000000000e+00 0.0 
2.431250000000e+01 -2.420918367347e+00 0.0 
4.950961538461e+01 -2.500000000000e+00 0.0 
2.580823483239e+01 -3.416278049680e+00 0.0 
4.950961538461e+01 -3.500000000000e+00 0.0 
2.731250000000e+01 -4.420918367347e+00 0.0 
4.951086956522e+01 -4.500000000000e+00 0.0 
2.880770112393e+01 -5.415638864241e+00 0.0 
4.951086956522e+01 -5.500000000000e+00 0.0 
3.031250000000e+01 -6.420918367347e+00 0.0 
4.951250000000e+01 -6.500000000000e+00 0.0 
3.180701530612e+01 -7.414795918363e+00 0.0 
4.951250000000e+01 -7.500000000000e+00 0.0 
3.331250000000e+01 -8.420918367347e+00 0.0 
4.951470588234e+01 -8.500000000000e+00 0.0 
3.480610198624e+01 -9.413633635267e+00 0.0 
4.951470588234e+01 -9.500000000000e+00 0.0 

CELLS 2424 9696 
3 414 884 1160 
3 884 414 1162 
3 894 387 905 
3 1007 772 1196 
3 774 834 1000 
3 864 777 903 
3 394 816 818 
3 414 841 1162 
3 816 394 834 
3 767 1002 1196 
3 386 961 962 
3 841 414 1176 
3 1006 1158 1202 
3 823 954 1044 
3 1158 420 1202 
3 413 1007 1196 
3 822 393 963 
3 777 864 902 
3 401 821 1143 
3 821 401 1081 
3 1002 767 1155 
3 1132 378 1138 
3 859 1132 1138 
3 809 808 1018 
3 508 664 953 
3 961 386 1070 
3 115 83 1223 
3 853 379 1095 
3 506 508 953 
3 1018 808 1228 
3 758 968 970 
3 411 824 1001 
3 894 905 1203 
3 19 399 874 
3 409 828 830 
3 837 66 1194 
3 66 837 1220 
3 856 405 900 
3 820 106 1173 
3 106 820 1234 
3 1096 838 1122 
3 374 860 999 
3 1177 375 1181 
3 83 423 1223 
3 815 422 1172 
3 854 1177 1181 
3 968 758 971 
3 422 815 1198 
3 964 965 971 
3 954 823 1195 
3 416 859 1096 
3 806 821 1081 
3 584 1197 1215 
3 416 1096 1122 
3 906 388 1086 
3 1179 751 1224 
3 806 1081 1150 
3 399 844 874 
3 667 995 1113 
3 1002 413 1196 
3 373 1207 1248 
3 1187 813 1189 
3 633 661 867 
3 1197 970 1215 
3 978 797 1202 
3 859 416 1132 
3 1207 817 1248 
3 387 894 1167 
3 694 655 976 
3 383 842 908 
3 1070 1013 1124 
3 33 32 862 
3 853 1095 1225 
3 4 5 988 
3 985 1179 1224 
3 825 390 1076 
3 906 1086 1235 
3 873 1178 1185 
3 995 667 1237 
3 1178 415 1185 
3 655 668 976 
3 393 822 1183 
3 378 884 1138 
3 884 378 1160 
3 834 774 1046 
3 816 834 1046 
3 845 1070 1175 
3 18 19 874 
3 899 896 1144 
3 774 1000 1183 
3 1001 824 1174 
3 425 952 1223 
3 998 1169 1193 
3 1193 1169 1205 
3 391 33 862 
3 900 405 1230 
3 822 963 1195 
3 999 860 1208 
3 419 851 1148 
3 867 661 868 
3 1000 834 1218 
3 420 978 1202 
3 581 1147 1171 
3 812 1187 1189 
3 702 700 878 
3 965 968 971 
3 1005 1006 1128 
3 771 998 1193 
3 373 964 971 
3 1101 396 1220 
3 546 899 1144 
3 4 988 1239 
3 769 865 901 
3 736 1052 1090 
3 780 982 1206 
3 840 867 868 
3 635 633 867 
3 409 830 1188 
3 851 419 1243 
3 839 635 867 
3 870 800 1145 
3 423 425 1223 
3 998 771 1246 
3 635 839 878 
3 1190 1089 1204 
3 855 1105 1114 
3 982 780 1236 
3 1105 380 1114 
3 390 825 1216 
3 802 1190 1204 
3 961 1070 1124 
3 772 1007 1198 
3 709 766 866 
3 380 838 1114 
3 828 409 1208 
3 1006 763 1158 
3 845 1013 1070 
3 866 766 1066 
3 810 938 1228 
3 742 858 866 
3 792 1003 1004 
3 842 383 1214 
3 1044 954 1191 
3 651 623 872 
3 858 709 866 
3 838 380 1122 
3 766 904 1066 
3 878 704 1073 
3 394 818 1173 
3 865 500 901 
3 824 411 1212 
3 1159 1165 1243 
3 989 401 1143 
3 417 855 1090 
3 938 810 947 
3 839 702 878 
3 874 845 1175 
3 841 375 1177 
3 1147 807 1171 
3 400 846 847 
3 861 500 865 
3 844 399 1128 
3 694 870 1145 
3 1006 765 1128 
3 881 754 909 
3 396 1101 1210 
3 1159 764 1165 
3 700 704 878 
3 1052 417 1090 
3 386 962 1259 
3 375 841 1176 
3 500 861 875 
3 623 674 872 
3 846 400 1234 
3 704 865 1073 
3 855 417 1105 
3 748 937 1142 
3 982 683 1206 
3 379 853 1168 
3 908 842 1192 
3 840 868 1162 
3 683 982 1222 
3 925 1055 1109 
3 858 742 1096 
3 841 840 1162 
3 881 736 1090 
3 865 769 1073 
3 389 1002 1155 
3 512 921 1131 
3 399 1005 1128 
3 854 415 1178 
3 710 875 1099 
3 896 921 1144 
3 81 116 863 
3 742 838 1096 
3 1098 770 1102 
3 994 1126 1219 
3 1009 402 1235 
3 507 432 914 
3 1129 488 1156 
3 618 1098 1102 
3 952 425 1201 
3 953 664 1191 
3 808 810 1228 
3 1139 1030 1166 
3 876 447 904 
3 706 596 909 
3 513 507 914 
3 703 881 909 
3 754 881 1090 
3 652 1112 1152 
3 937 786 1142 
3 863 397 864 
3 868 884 1162 
3 868 661 883 
3 766 876 904 
3 921 891 1131 
3 777 776 1082 
3 770 869 1088 
3 820 846 1234 
3 875 861 1099 
3 566 1088 1137 
3 826 1036 1260 
3 912 513 914 
3 1036 382 1260 
3 994 995 1126 
3 415 854 1181 
3 1139 782 1140 
3 886 513 912 
3 782 781 1140 
3 762 871 877 
3 588 969 1041 
3 800 977 1145 
3 1055 618 1109 
3 754 706 909 
3 797 978 1210 
3 116 397 863 
3 671 701 877 
3 461 500 875 
3 859 858 1096 
3 869 770 1098 
3 837 1101 1220 
3 1123 512 1131 
3 570 552 907 
3 618 1102 1109 
3 1070 386 1175 
3 904 514 1066 
3 913 914 1110 
3 813 1187 1232 
3 461 875 882 
3 701 762 877 
3 431 703 879 
3 862 32 1216 
3 447 876 1051 
3 920 463 1059 
3 847 846 848 
3 976 668 1180 
3 703 880 881 
3 670 570 907 
3 776 910 1011 
3 758 970 1197 
3 513 886 1048 
3 596 879 909 
3 635 878 1073 
3 886 725 1048 
3 921 512 1144 
3 514 885 1027 
3 381 835 1194 
3 711 920 1059 
3 439 705 885 
3 769 901 1032 
3 711 919 920 
3 553 569 910 
3 951 392 952 
3 465 462 882 
3 582 933 934 
3 913 1123 1131 
3 116 117 397 
3 703 429 880 
3 552 550 907 
3 626 671 877 
3 555 553 910 
3 434 431 879 
3 824 870 1174 
3 662 752 883 
3 711 918 919 
3 879 703 909 
3 951 952 953 
3 672 777 902 
3 582 934 936 
3 583 586 933 
3 868 883 884 
3 913 1110 1123 
3 661 662 883 
3 548 465 882 
3 875 710 882 
3 672 776 777 
3 901 457 1032 
3 801 871 873 
3 37 388 906 
3 39 402 905 
3 448 447 1051 
3 569 552 570 
3 625 626 684 
3 440 439 885 
3 569 570 625 
3 582 583 933 
3 514 1027 1066 
3 1003 792 1221 
3 907 710 1099 
3 1112 768 1152 
3 801 684 871 
3 406 57 926 
3 625 570 626 
3 445 514 904 
3 672 576 776 
3 948 641 1056 
3 462 461 882 
3 586 930 933 
3 705 596 706 
3 42 927 928 
3 550 548 710 
3 711 539 918 
3 685 684 801 
3 916 601 1039 
3 1088 869 1137 
3 701 702 760 
3 775 916 1039 
3 404 45 908 
3 678 770 1088 
3 41 387 927 
3 1044 664 1074 
3 899 546 1164 
3 762 760 854 
3 707 706 739 
3 439 596 705 
3 439 437 596 
3 515 1051 1077 
3 379 47 911 
3 506 953 1201 
3 880 736 881 
3 710 548 882 
3 781 977 1140 
3 739 754 855 
3 701 700 702 
3 400 847 1100 
3 586 929 930 
3 550 710 907 
3 890 912 913 
3 671 700 701 
3 705 706 707 
3 539 541 918 
3 714 941 1028 
3 50 403 917 
3 742 740 838 
3 554 556 936 
3 795 1129 1156 
3 761 840 841 
3 760 702 761 
3 896 893 921 
3 445 443 514 
3 752 858 859 
3 707 739 740 
3 54 405 922 
3 405 856 1182 
3 893 891 921 
3 913 912 914 
3 941 481 1028 
3 633 634 661 
3 553 552 569 
3 551 550 552 
3 447 445 904 
3 728 948 1056 
3 496 942 943 
3 889 887 890 
3 556 582 936 
3 630 515 631 
3 885 705 1027 
3 632 631 633 
3 387 40 905 
3 402 38 906 
3 402 1009 1203 
3 714 940 941 
3 725 627 1048 
3 701 760 762 
3 549 548 550 
3 776 576 910 
3 662 709 752 
3 950 951 954 
3 916 1044 1074 
3 926 924 1018 
3 897 896 899 
3 431 429 703 
3 438 437 439 
3 576 555 910 
3 973 975 976 
3 500 459 901 
3 453 451 515 
3 459 457 901 
3 370 1089 1190 
3 847 848 849 
3 977 781 1145 
3 626 670 671 
3 57 56 926 
3 560 562 652 
3 424 736 880 
3 401 989 1211 
3 1051 876 1077 
3 461 459 500 
3 437 434 879 
3 383 43 928 
3 739 706 754 
3 443 440 885 
3 496 943 949 
3 887 886 912 
3 714 939 940 
3 44 383 908 
3 41 40 387 
3 37 36 388 
3 39 38 402 
3 436 434 437 
3 890 887 912 
3 895 893 896 
3 633 631 634 
3 661 634 662 
3 945 942 1029 
3 889 890 891 
3 46 404 911 
3 804 725 886 
3 918 652 919 
3 804 886 887 
3 645 643 946 
3 453 515 630 
3 752 709 858 
3 625 684 685 
3 391 862 1186 
3 632 633 635 
3 1026 745 1095 
3 942 496 1029 
3 587 590 929 
3 406 926 1018 
3 671 699 700 
3 42 41 927 
3 402 906 1235 
3 444 443 445 
3 973 974 975 
3 44 43 383 
3 371 922 923 
3 586 587 929 
3 541 560 918 
3 377 51 917 
3 124 372 974 
3 630 631 632 
3 442 440 443 
3 446 445 447 
3 514 443 885 
3 684 626 877 
3 46 45 404 
3 547 465 548 
3 673 672 902 
3 835 381 1261 
3 974 372 975 
3 741 740 742 
3 968 969 970 
3 855 754 1090 
3 371 55 922 
3 48 47 379 
3 596 437 879 
3 965 967 968 
3 814 673 902 
3 968 967 969 
3 1058 756 1071 
3 950 392 951 
3 426 424 880 
3 50 49 403 
3 408 950 954 
3 388 36 915 
3 648 645 946 
3 775 823 916 
3 761 839 840 
3 560 652 918 
3 776 1011 1082 
3 52 51 377 
3 40 39 905 
3 38 37 906 
3 714 522 939 
3 517 519 945 
3 453 630 1032 
3 522 524 939 
3 54 53 405 
3 626 570 670 
3 933 932 934 
3 930 931 932 
3 665 775 1039 
3 58 406 938 
3 965 966 967 
3 56 55 371 
3 929 794 930 
3 43 42 928 
3 895 896 897 
3 123 124 974 
3 630 769 1032 
3 724 627 725 
3 45 44 908 
3 436 437 438 
3 691 648 692 
3 685 801 802 
3 924 923 925 
3 686 793 794 
3 930 794 931 
3 964 407 965 
3 47 46 911 
3 910 569 1011 
3 678 726 770 
3 775 822 823 
3 1012 744 1031 
3 930 932 933 
3 438 439 440 
3 51 50 917 
3 519 621 945 
3 530 566 636 
3 450 448 451 
3 789 682 790 
3 934 932 935 
3 939 636 940 
3 451 448 1051 
3 787 644 1061 
3 560 561 562 
3 452 451 453 
3 489 491 949 
3 671 670 699 
3 517 945 1029 
3 692 648 946 
3 516 539 711 
3 56 371 926 
3 803 725 804 
3 687 1012 1031 
3 55 54 922 
3 371 923 924 
3 458 457 459 
3 965 407 966 
3 59 938 947 
3 888 887 889 
3 590 686 929 
3 58 57 406 
3 524 530 939 
3 662 708 709 
3 429 426 880 
3 516 711 1059 
3 520 714 1028 
3 682 641 948 
3 914 432 1110 
3 741 866 1066 
3 562 580 581 
3 849 848 850 
3 491 496 949 
3 541 543 560 
3 686 743 793 
3 713 535 1014 
3 122 123 972 
3 700 699 704 
3 686 794 929 
3 942 784 943 
3 456 454 457 
3 530 636 939 
3 665 773 775 
3 590 653 686 
3 59 58 938 
3 442 443 444 
3 712 783 784 
3 444 445 446 
3 712 784 942 
3 972 123 974 
3 428 426 429 
3 981 980 982 
3 382 129 996 
3 621 676 712 
3 530 565 566 
3 1010 680 1035 
3 790 948 1092 
3 790 682 948 
3 424 384 736 
3 408 113 950 
3 805 915 1108 
3 446 447 448 
3 129 130 996 
3 800 720 977 
3 966 972 973 
3 782 1139 1166 
3 698 748 1142 
3 778 1010 1035 
3 575 1058 1071 
3 499 497 1008 
3 537 535 713 
3 678 689 726 
3 595 576 672 
3 412 980 981 
3 385 984 985 
3 374 60 947 
3 60 59 947 
3 980 979 983 
3 712 676 783 
3 520 522 714 
3 726 808 809 
3 720 639 977 
3 573 658 678 
3 994 992 995 
3 621 712 945 
3 943 784 944 
3 398 991 992 
3 412 979 980 
3 724 725 803 
3 130 131 993 
3 114 392 950 
3 114 115 392 
3 641 545 1056 
3 385 10 984 
3 686 653 743 
3 871 684 877 
3 831 829 832 
3 911 404 1026 
3 715 609 1042 
3 761 702 839 
3 824 800 870 
3 707 740 741 
3 110 393 1000 
3 109 110 1000 
3 130 993 996 
3 993 992 994 
3 987 989 990 
3 563 504 638 
3 398 986 991 
3 979 376 983 
3 373 120 964 
3 504 499 1008 
3 852 850 872 
3 112 113 408 
3 748 843 937 
3 524 529 530 
3 849 850 851 
3 10 11 984 
3 987 990 991 
3 30 29 1003 
3 390 30 1003 
3 775 773 822 
3 393 111 963 
3 984 981 985 
3 28 389 1004 
3 638 504 1008 
3 113 114 950 
3 112 408 963 
3 739 855 1114 
3 36 35 915 
3 1003 29 1004 
3 398 992 993 
3 131 398 993 
3 799 720 800 
3 943 944 1080 
3 1005 763 1006 
3 119 120 373 
3 410 997 998 
3 121 407 964 
3 681 641 682 
3 121 122 407 
3 120 121 964 
3 788 682 789 
3 734 797 798 
3 851 850 852 
3 1027 741 1066 
3 986 987 991 
3 536 537 1016 
3 25 24 1007 
3 413 25 1007 
3 111 112 963 
3 617 545 641 
3 29 28 1004 
3 691 692 807 
3 987 988 989 
3 986 421 987 
3 987 421 988 
3 11 12 412 
3 420 69 978 
3 80 79 422 
3 133 421 986 
3 13 376 979 
3 70 69 420 
3 68 396 978 
3 61 374 999 
3 76 395 997 
3 78 77 410 
3 69 68 978 
3 68 67 396 
3 410 77 997 
3 133 134 421 
3 107 108 394 
3 110 111 393 
3 398 132 986 
3 65 64 381 
3 409 62 999 
3 63 62 409 
3 132 133 986 
3 131 132 398 
3 61 60 374 
3 62 61 999 
3 76 75 395 
3 104 105 400 
3 77 76 997 
3 74 73 419 
3 102 103 764 
3 128 129 382 
3 126 127 411 
3 125 126 1001 
3 124 125 372 
3 13 14 376 
3 12 13 979 
3 126 411 1001 
3 16 17 386 
3 372 125 1001 
3 34 33 391 
3 28 27 389 
3 31 30 390 
3 6 7 401 
3 9 10 385 
3 27 26 1002 
3 19 20 399 
3 26 25 413 
3 20 21 1005 
3 21 22 763 
3 412 12 979 
3 389 27 1002 
3 26 413 1002 
3 399 20 1005 
3 21 763 1005 
3 628 629 1013 
3 407 122 972 
3 519 620 621 
3 993 994 996 
3 831 832 833 
3 712 942 945 
3 594 578 1015 
3 563 638 639 
3 1126 827 1219 
3 734 798 1015 
3 621 622 676 
3 412 981 984 
3 578 640 1015 
3 771 772 815 
3 11 412 984 
3 566 565 573 
3 528 526 579 
3 628 577 629 
3 696 628 1013 
3 547 548 549 
3 741 742 866 
3 457 454 1032 
3 536 535 537 
3 640 733 734 
3 844 696 845 
3 687 781 782 
3 759 680 767 
3 675 624 680 
3 820 819 846 
3 534 532 535 
3 577 536 1016 
3 771 759 772 
3 675 759 771 
3 579 526 1038 
3 734 765 797 
3 637 609 715 
3 844 845 874 
3 835 833 836 
3 767 680 1010 
3 614 612 615 
3 530 529 565 
3 574 656 657 
3 593 679 687 
3 799 800 824 
3 966 407 972 
3 675 680 759 
3 734 733 765 
3 973 972 974 
3 892 891 893 
3 818 718 819 
3 564 578 594 
3 640 696 733 
3 743 744 795 
3 733 696 844 
3 818 819 820 
3 560 543 561 
3 835 836 837 
3 806 688 821 
3 830 829 831 
3 623 615 624 
3 657 688 751 
3 687 782 1012 
3 959 957 960 
3 611 613 717 
3 498 502 517 
3 674 624 675 
3 614 623 651 
3 783 676 955 
3 845 696 1013 
3 640 628 696 
3 623 624 674 
3 616 568 654 
3 676 622 677 
3 649 735 811 
3 615 1022 1035 
3 621 620 622 
3 528 579 1014 
3 828 756 829 
3 614 615 623 
3 757 673 814 
3 731 826 827 
3 557 555 576 
3 640 734 1015 
3 613 612 614 
3 961 959 962 
3 717 718 816 
3 678 658 689 
3 955 677 956 
3 578 628 640 
3 657 656 688 
3 831 833 835 
3 676 677 955 
3 751 688 806 
3 677 622 1024 
3 517 518 519 
3 503 499 504 
3 958 959 961 
3 128 382 1036 
3 411 127 1036 
3 629 577 1016 
3 574 616 656 
3 534 535 536 
3 535 532 1014 
3 491 495 496 
3 590 591 653 
3 637 715 716 
3 903 777 1253 
3 519 619 620 
3 726 689 808 
3 656 616 667 
3 717 613 718 
3 816 718 818 
3 719 639 720 
3 755 722 756 
3 608 606 609 
3 574 568 616 
3 791 715 1060 
3 716 715 791 
3 511 568 574 
3 840 839 867 
3 505 504 563 
3 578 577 628 
3 956 957 958 
3 804 887 888 
3 637 716 778 
3 564 536 577 
3 534 536 564 
3 563 639 719 
3 564 577 578 
3 608 609 610 
3 958 957 959 
3 611 612 613 
3 610 609 637 
3 463 464 1059 
3 1022 778 1035 
3 622 683 1024 
3 956 677 957 
3 619 518 779 
3 493 490 494 
3 611 610 612 
3 485 487 520 
3 503 505 511 
3 731 720 799 
3 608 610 611 
3 503 504 505 
3 828 829 830 
3 615 612 1022 
3 564 594 1017 
3 371 924 926 
3 622 620 683 
3 511 505 568 
3 719 720 731 
3 533 532 534 
3 614 651 1021 
3 731 799 826 
3 517 502 518 
3 821 688 1019 
3 611 717 1020 
3 519 518 619 
3 532 528 1014 
3 619 779 780 
3 680 624 1035 
3 502 499 503 
3 527 531 575 
3 687 679 781 
3 531 528 532 
3 960 957 1024 
3 533 534 1017 
3 934 935 1116 
3 688 656 1019 
3 819 718 1021 
3 681 682 788 
3 631 515 1077 
3 613 614 1021 
3 593 687 1031 
3 605 607 665 
3 656 667 1019 
3 832 829 1058 
3 617 641 681 
3 562 561 580 
3 716 791 792 
3 520 521 522 
3 654 568 1025 
3 525 523 526 
3 755 756 828 
3 743 653 744 
3 534 564 1017 
3 612 610 1022 
3 587 589 590 
3 527 526 528 
3 773 666 774 
3 657 751 1057 
3 498 499 502 
3 450 451 452 
3 531 532 533 
3 662 634 708 
3 452 453 454 
3 607 606 608 
3 718 613 1021 
3 665 666 773 
3 957 677 1024 
3 695 597 722 
3 522 523 524 
3 717 816 1046 
3 894 893 895 
3 581 580 649 
3 527 528 531 
3 610 637 1022 
3 491 493 495 
3 495 497 498 
3 563 719 1025 
3 524 525 529 
3 498 517 1029 
3 607 608 1020 
3 665 607 666 
3 467 469 516 
3 1008 497 1030 
3 549 550 551 
3 498 497 499 
3 495 493 497 
3 505 563 1025 
3 573 597 658 
3 486 484 488 
3 637 778 1022 
3 482 484 485 
3 524 523 525 
3 520 487 521 
3 456 457 458 
3 568 505 1025 
3 695 722 755 
3 695 755 860 
3 642 644 787 
3 491 490 493 
3 522 521 523 
3 608 611 1020 
3 496 495 1029 
3 630 632 769 
3 502 503 1023 
3 653 591 1031 
3 489 490 491 
3 503 511 1023 
3 574 657 1049 
3 521 487 721 
3 525 526 527 
3 660 697 698 
3 127 128 1036 
3 478 476 479 
3 482 480 483 
3 489 488 490 
3 666 607 1020 
3 485 486 487 
3 518 502 1023 
3 486 488 489 
3 624 615 1035 
3 779 518 1023 
3 731 827 1045 
3 1025 719 1045 
3 744 653 1031 
3 493 494 1030 
3 478 480 481 
3 485 484 486 
3 593 655 679 
3 654 1025 1045 
3 916 823 1044 
3 1023 511 1049 
3 573 565 597 
3 646 659 660 
3 430 429 431 
3 669 603 690 
3 698 747 748 
3 464 467 1059 
3 644 646 1061 
3 591 592 593 
3 489 949 1033 
3 460 459 461 
3 583 585 586 
3 655 592 668 
3 495 498 1029 
3 482 483 484 
3 481 480 482 
3 779 1023 1049 
3 485 520 1028 
3 478 479 480 
3 474 476 477 
3 497 493 1030 
3 544 542 545 
3 605 606 607 
3 474 472 475 
3 658 597 695 
3 590 589 591 
3 808 689 810 
3 481 482 1028 
3 748 842 843 
3 441 440 442 
3 591 593 1031 
3 433 431 434 
3 723 627 724 
3 481 941 1064 
3 704 861 865 
3 435 434 436 
3 515 451 1051 
3 593 592 655 
3 825 796 862 
3 679 655 694 
3 856 750 857 
3 1010 778 1053 
3 567 545 617 
3 1020 717 1046 
3 604 603 669 
3 477 476 478 
3 516 538 539 
3 753 690 796 
3 527 575 1034 
3 602 604 605 
3 681 788 869 
3 591 589 592 
3 602 600 603 
3 911 1026 1095 
3 695 860 1047 
3 486 489 1033 
3 666 1020 1046 
3 774 666 1046 
3 482 485 1028 
3 529 525 1034 
3 565 529 1037 
3 719 731 1045 
3 551 552 553 
3 470 472 473 
3 474 475 476 
3 454 453 1032 
3 753 796 825 
3 889 891 892 
3 778 716 1053 
3 709 708 766 
3 599 571 627 
3 525 527 1034 
3 791 1060 1076 
3 572 600 601 
3 487 486 1033 
3 470 468 471 
3 602 603 604 
3 669 690 753 
3 609 606 1042 
3 605 604 606 
3 756 722 1071 
3 749 663 750 
3 722 597 1037 
3 526 523 1038 
3 838 740 1114 
3 544 567 598 
3 509 507 513 
3 511 574 1049 
3 473 472 474 
3 790 1092 1104 
3 539 540 541 
3 556 558 582 
3 470 471 472 
3 541 542 543 
3 707 741 1027 
3 721 487 1033 
3 601 916 1074 
3 834 394 1218 
3 85 361 370 
3 523 521 1038 
3 567 617 618 
3 888 889 1009 
3 516 469 538 
3 521 721 1038 
3 605 665 1039 
3 86 362 415 
3 544 545 567 
3 540 538 728 
3 705 707 1027 
3 529 1034 1037 
3 586 585 587 
3 597 565 1037 
3 689 658 1047 
3 543 542 544 
3 606 604 1042 
3 650 648 691 
3 658 695 1047 
3 87 363 375 
3 601 602 1039 
3 811 735 812 
3 604 669 1042 
3 541 540 542 
3 469 468 470 
3 1111 783 1115 
3 595 672 673 
3 715 1042 1060 
3 1049 657 1057 
3 88 364 414 
3 647 645 648 
3 716 792 1053 
3 587 588 589 
3 449 448 450 
3 601 600 602 
3 1080 944 1085 
3 582 558 583 
3 704 699 861 
3 668 592 1041 
3 587 585 588 
3 589 588 1041 
3 539 538 540 
3 915 35 1108 
3 89 365 378 
3 829 756 1058 
3 466 465 547 
3 510 572 1074 
3 557 576 595 
3 810 689 1047 
3 592 589 1041 
3 780 779 1057 
3 561 543 1040 
3 478 481 1064 
3 649 663 735 
3 632 635 1073 
3 509 513 1048 
3 749 750 856 
3 602 605 1039 
3 889 892 1009 
3 600 599 1063 
3 599 627 723 
3 569 625 1011 
3 832 1058 1078 
3 572 599 600 
3 463 920 1084 
3 90 366 416 
3 749 856 900 
3 554 553 555 
3 779 1049 1057 
3 649 580 663 
3 401 7 1081 
3 455 454 456 
3 544 598 1040 
3 723 724 1043 
3 724 803 805 
3 543 544 1040 
3 690 603 1063 
3 464 462 465 
3 646 660 1061 
3 91 367 380 
3 895 897 898 
3 92 368 417 
3 369 92 1052 
3 467 516 1059 
3 83 369 384 
3 737 492 738 
3 458 459 460 
3 470 473 1050 
3 583 558 584 
3 467 468 469 
3 669 753 1060 
3 892 893 894 
3 575 531 1078 
3 735 663 749 
3 477 478 1064 
3 599 723 1063 
3 469 470 1050 
3 833 832 1087 
3 603 600 1063 
3 627 571 1048 
3 545 542 1056 
3 464 466 467 
3 660 659 697 
3 438 440 441 
3 583 584 585 
3 554 555 556 
3 769 632 1073 
3 446 448 449 
3 836 833 1091 
3 572 571 599 
3 467 466 468 
3 642 787 1067 
3 598 567 1055 
3 1042 669 1060 
3 698 697 747 
3 664 510 1074 
3 770 726 1102 
3 538 469 1050 
3 567 618 1055 
3 452 454 455 
3 796 690 1079 
3 748 747 842 
3 540 728 1056 
3 556 555 557 
3 650 691 693 
3 455 492 730 
3 464 465 466 
3 542 540 1056 
3 573 678 1088 
3 556 557 558 
3 728 538 1050 
3 433 434 435 
3 836 1091 1097 
3 435 436 546 
3 647 648 650 
3 430 431 433 
3 427 426 428 
3 441 442 501 
3 750 663 1065 
3 1058 575 1078 
3 510 571 572 
3 724 805 1043 
3 428 429 430 
3 547 549 727 
3 650 693 746 
3 1060 753 1076 
3 456 458 1054 
3 455 456 492 
3 466 547 1062 
3 571 509 1048 
3 708 634 1077 
3 737 738 768 
3 634 631 1077 
3 580 561 1065 
3 746 813 853 
3 471 468 1062 
3 595 673 729 
3 803 804 1086 
3 766 708 876 
3 1104 477 1117 
3 746 693 813 
3 510 509 571 
3 1034 575 1071 
3 460 461 462 
3 729 673 757 
3 1097 798 1101 
3 449 450 559 
3 562 581 1112 
3 697 659 745 
3 757 814 817 
3 1037 1034 1071 
3 670 907 1099 
3 508 510 664 
3 579 1085 1106 
3 468 466 1062 
3 833 1087 1091 
3 730 492 737 
3 547 727 1062 
3 449 559 642 
3 729 757 758 
3 644 645 646 
3 561 1040 1065 
3 843 842 1214 
3 646 647 659 
3 554 936 1083 
3 531 533 1078 
3 753 825 1076 
3 900 377 1118 
3 663 580 1065 
3 463 462 464 
3 642 643 644 
3 1015 798 1097 
3 959 960 1094 
3 646 645 647 
3 572 601 1074 
3 832 1078 1087 
3 722 1037 1071 
3 104 400 1100 
3 764 103 1100 
3 433 435 512 
3 644 643 645 
3 713 1014 1106 
3 441 501 732 
3 738 492 1054 
3 925 1109 1233 
3 460 462 463 
3 34 391 1108 
3 425 424 426 
3 492 456 1054 
3 579 1038 1085 
3 551 553 554 
3 721 1033 1080 
3 642 559 643 
3 444 446 1067 
3 508 509 510 
3 732 501 785 
3 732 785 786 
3 990 989 1143 
3 1033 949 1080 
3 876 708 1077 
3 436 438 1068 
3 546 436 1068 
3 857 750 1093 
3 7 8 1081 
3 584 558 1072 
3 450 452 1069 
3 949 943 1080 
3 92 417 1052 
3 384 369 1052 
3 508 507 509 
3 625 685 1011 
3 1085 944 1106 
3 618 617 1098 
3 558 557 1072 
3 379 911 1095 
3 1063 723 1079 
3 784 783 1111 
3 1078 533 1087 
3 995 992 1113 
3 681 869 1098 
3 559 450 1069 
3 991 990 1113 
3 690 1063 1079 
3 557 595 1072 
3 438 441 1068 
3 446 449 1067 
3 474 477 1104 
3 940 636 1133 
3 723 1043 1079 
3 636 566 1137 
3 455 730 1069 
3 452 455 1069 
3 361 84 1089 
3 595 729 1072 
3 647 650 1075 
3 427 428 432 
3 650 746 1075 
3 699 670 1099 
3 891 890 1131 
3 745 659 1075 
3 736 384 1052 
3 659 647 1075 
3 533 1017 1087 
3 946 643 1103 
3 721 1080 1085 
3 1038 721 1085 
3 804 888 1086 
3 941 940 1130 
3 449 642 1067 
3 920 919 1136 
3 566 573 1088 
3 1054 458 1084 
3 1083 936 1116 
3 948 728 1092 
3 727 549 1083 
3 441 732 1068 
3 727 1083 1116 
3 501 442 1107 
3 750 1065 1093 
3 1065 1040 1093 
3 458 460 1084 
3 506 507 508 
3 1087 1017 1091 
3 1017 594 1091 
3 685 802 1082 
3 501 1107 1125 
3 836 1097 1101 
3 752 859 1138 
3 713 1111 1115 
3 370 361 1089 
3 1091 594 1097 
3 551 554 1083 
3 962 959 1094 
3 1112 581 1171 
3 506 432 507 
3 427 432 506 
3 559 1069 1103 
3 91 380 1105 
3 417 368 1105 
3 594 1015 1097 
3 1133 636 1137 
3 790 1104 1117 
3 617 681 1098 
3 1050 473 1092 
3 549 551 1083 
3 368 91 1105 
3 425 426 427 
3 103 104 1100 
3 1040 598 1093 
3 460 463 1084 
3 749 900 1118 
3 733 844 1128 
3 728 1050 1092 
3 837 836 1101 
3 1116 935 1120 
3 812 735 1118 
3 1069 730 1103 
3 692 946 1127 
3 726 809 1102 
3 490 488 1129 
3 1067 787 1107 
3 1092 473 1104 
3 444 1067 1107 
3 861 699 1099 
3 807 692 1135 
3 473 474 1104 
3 1014 579 1106 
3 442 444 1107 
3 1204 418 1217 
3 919 652 1152 
3 873 370 1190 
3 654 1045 1126 
3 713 1106 1111 
3 660 698 1134 
3 432 428 1110 
3 90 416 1122 
3 35 34 1108 
3 84 360 418 
3 380 367 1122 
3 789 790 1117 
3 783 955 1115 
3 740 739 1114 
3 1146 931 1149 
3 1130 940 1133 
3 643 559 1103 
3 652 562 1112 
3 897 1199 1209 
3 1011 685 1082 
3 944 784 1111 
3 1115 955 1119 
3 1008 1030 1139 
3 423 384 424 
3 428 430 1110 
3 18 874 1175 
3 992 991 1113 
3 817 814 1161 
3 977 639 1140 
3 955 956 1119 
3 471 1120 1141 
3 932 931 1146 
3 936 934 1116 
3 537 713 1115 
3 433 512 1123 
3 1119 956 1121 
3 471 1062 1120 
3 1107 787 1125 
3 823 822 1195 
3 581 649 1147 
3 956 958 1121 
3 537 1115 1119 
3 89 378 1132 
3 475 472 1141 
3 1121 958 1124 
3 395 75 1148 
3 74 419 1148 
3 416 366 1132 
3 1016 537 1119 
3 794 793 1151 
3 873 871 1178 
3 735 749 1118 
3 781 679 1145 
3 1151 793 1153 
3 1136 919 1152 
3 367 90 1122 
3 958 961 1124 
3 9 385 1150 
3 423 424 425 
3 1016 1119 1121 
3 477 1064 1117 
3 1106 944 1111 
3 864 903 1217 
3 1172 410 1246 
3 479 476 1149 
3 1055 925 1170 
3 692 1127 1135 
3 629 1016 1121 
3 629 1121 1124 
3 1120 935 1141 
3 694 976 1226 
3 903 1204 1217 
3 1013 629 1124 
3 1102 809 1109 
3 743 795 1154 
3 787 1061 1125 
3 884 883 1138 
3 785 501 1125 
3 860 374 1213 
3 117 118 1161 
3 24 23 1157 
3 71 70 1158 
3 73 72 1159 
3 483 480 1153 
3 946 1103 1127 
3 1062 727 1120 
3 1045 827 1126 
3 84 418 1089 
3 1010 1053 1155 
3 430 433 1123 
3 83 384 423 
3 48 379 1168 
3 1081 8 1150 
3 403 49 1168 
3 1110 430 1123 
3 488 484 1156 
3 1103 730 1127 
3 483 1153 1154 
3 762 854 1178 
3 1154 795 1156 
3 512 435 1144 
3 765 733 1128 
3 479 1149 1151 
3 785 1125 1134 
3 1161 118 1248 
3 475 1141 1146 
3 890 913 1131 
3 494 490 1129 
3 795 744 1163 
3 730 737 1127 
3 969 588 1215 
3 88 414 1160 
3 378 365 1160 
3 494 1163 1166 
3 789 1117 1130 
3 1054 1084 1136 
3 1125 1061 1134 
3 894 895 1167 
3 366 89 1132 
3 997 395 1169 
3 842 747 1192 
3 727 1116 1120 
3 370 873 1185 
3 883 752 1138 
3 1064 941 1130 
3 732 786 1164 
3 1117 1064 1130 
3 777 1082 1253 
3 788 789 1133 
3 854 760 1177 
3 1084 920 1136 
3 789 1130 1133 
3 1127 737 1135 
3 651 872 1252 
3 1030 494 1166 
3 801 873 1190 
3 788 1133 1137 
3 761 841 1177 
3 1161 814 1231 
3 422 79 1172 
3 78 410 1172 
3 975 372 1174 
3 869 788 1137 
3 638 1139 1140 
3 638 1008 1139 
3 1134 698 1142 
3 737 768 1135 
3 1061 660 1134 
3 475 1146 1149 
3 106 107 1173 
3 409 999 1208 
3 639 638 1140 
3 598 1055 1170 
3 738 1054 1136 
3 821 1019 1143 
3 546 1068 1164 
3 472 471 1141 
3 973 976 1180 
3 935 932 1146 
3 17 18 1175 
3 435 546 1144 
3 679 694 1145 
3 962 1094 1245 
3 786 785 1142 
3 649 811 1147 
3 1129 795 1163 
3 1150 385 1224 
3 738 1136 1152 
3 75 74 1148 
3 967 966 1180 
3 1026 404 1192 
3 905 402 1203 
3 419 1159 1243 
3 862 796 1186 
3 927 387 1167 
3 476 475 1149 
3 479 1151 1153 
3 923 922 1182 
3 397 117 1161 
3 8 9 1150 
3 962 1245 1259 
3 494 1129 1163 
3 931 794 1151 
3 87 375 1176 
3 414 364 1176 
3 822 773 1183 
3 1141 935 1146 
3 1057 751 1179 
3 691 807 1184 
3 381 64 1188 
3 63 409 1188 
3 480 479 1153 
3 408 954 1195 
3 817 1161 1248 
3 86 415 1181 
3 970 969 1215 
3 375 363 1181 
3 768 738 1152 
3 793 743 1154 
3 1149 931 1151 
3 971 758 1207 
3 815 1172 1246 
3 1153 793 1154 
3 767 1010 1155 
3 675 771 1193 
3 1007 24 1157 
3 70 420 1158 
3 419 73 1159 
3 483 1154 1156 
3 365 88 1160 
3 484 483 1156 
3 66 65 1194 
3 85 370 1185 
3 415 362 1185 
3 857 1093 1170 
3 1000 393 1183 
3 772 759 1196 
3 785 1134 1142 
3 811 812 1189 
3 897 899 1199 
3 848 846 1200 
3 1163 1012 1166 
3 744 1012 1163 
3 1169 395 1249 
3 1184 811 1189 
3 392 115 1223 
3 764 1100 1165 
3 847 849 1165 
3 846 819 1200 
3 729 758 1197 
3 1012 782 1166 
3 792 1004 1227 
3 1021 651 1200 
3 377 900 1230 
3 895 898 1167 
3 1068 732 1164 
3 1079 1043 1186 
3 683 620 1206 
3 619 780 1206 
3 860 755 1208 
3 373 971 1207 
3 806 1150 1224 
3 49 48 1168 
3 6 401 1211 
3 1100 847 1165 
3 924 925 1233 
3 799 824 1212 
3 382 996 1219 
3 31 390 1216 
3 109 1000 1218 
3 1076 390 1221 
3 923 1182 1257 
3 394 108 1218 
3 397 1161 1231 
3 1007 1157 1198 
3 654 1126 1237 
3 792 791 1221 
3 67 66 1220 
3 892 894 1203 
3 584 1072 1197 
3 954 951 1191 
3 982 980 1222 
3 807 1147 1184 
3 52 377 1230 
3 998 997 1169 
3 405 53 1230 
3 758 757 1207 
3 835 837 1194 
3 585 584 1215 
3 990 1143 1242 
3 406 1018 1228 
3 915 805 1229 
3 825 862 1216 
3 818 820 1173 
3 425 427 1201 
3 871 762 1178 
3 927 1167 1244 
3 985 981 1236 
3 802 1204 1253 
3 1147 811 1184 
3 105 106 1234 
3 805 803 1229 
3 3 80 1238 
3 23 3 1238 
3 134 0 1239 
3 0 4 1239 
3 72 1 1240 
3 1 102 1240 
3 2 71 1241 
3 22 2 1241 
3 988 421 1239 
3 119 373 1248 
3 1101 798 1210 
3 746 853 1225 
3 667 616 1237 
3 831 835 1261 
3 16 386 1259 
3 376 14 1245 
3 872 850 1252 
3 1041 969 1247 
3 807 1135 1171 
3 1126 995 1237 
3 1024 683 1255 
3 1167 898 1244 
3 79 78 1172 
3 1094 376 1245 
3 849 851 1243 
3 745 1026 1256 
3 1199 937 1209 
3 1164 786 1199 
3 107 394 1173 
3 768 1112 1171 
3 1086 888 1235 
3 751 806 1224 
3 372 1001 1174 
3 697 745 1256 
3 1093 598 1170 
3 969 967 1247 
3 852 1169 1249 
3 978 396 1210 
3 745 1075 1225 
3 1095 745 1225 
3 386 17 1175 
3 863 864 1217 
3 364 87 1176 
3 760 761 1177 
3 951 953 1191 
3 1135 768 1171 
3 1053 792 1227 
3 922 405 1182 
3 966 973 1180 
3 975 1174 1226 
3 363 86 1181 
3 872 674 1205 
3 780 1057 1179 
3 1043 805 1251 
3 1143 1019 1242 
3 856 857 1182 
3 773 774 1183 
3 917 403 1187 
3 693 691 1184 
3 953 952 1201 
3 947 810 1213 
3 805 1108 1251 
3 1157 422 1198 
3 362 85 1185 
3 796 1079 1186 
3 404 908 1192 
3 1182 857 1257 
3 693 1184 1189 
3 64 63 1188 
3 899 1164 1199 
3 81 863 1258 
3 802 801 1190 
3 898 897 1209 
3 664 1044 1191 
3 765 1006 1202 
3 813 693 1189 
3 381 1188 1261 
3 674 675 1193 
3 377 917 1250 
3 1047 860 1213 
3 810 1047 1213 
3 1179 985 1236 
3 65 381 1194 
3 963 408 1195 
3 759 767 1196 
3 976 975 1226 
3 771 815 1246 
3 852 872 1205 
3 988 5 1211 
3 1072 729 1197 
3 786 937 1199 
3 390 1003 1221 
3 815 772 1198 
3 1118 377 1250 
3 819 1021 1200 
3 411 1036 1212 
3 902 864 1231 
3 1036 826 1212 
3 870 694 1226 
3 360 81 1258 
3 683 1222 1255 
3 797 765 1202 
3 1009 892 1203 
3 427 506 1201 
3 620 619 1206 
3 755 828 1208 
3 809 1018 1233 
3 1187 403 1232 
3 1026 1192 1256 
3 937 843 1209 
3 1174 870 1226 
3 757 817 1207 
3 798 797 1210 
3 989 988 1211 
3 5 6 1211 
3 1089 418 1204 
3 826 799 1212 
3 374 947 1213 
3 383 928 1214 
3 1155 1053 1227 
3 403 1168 1232 
3 1109 809 1233 
3 1200 651 1252 
3 32 31 1216 
3 588 585 1215 
3 108 109 1218 
3 967 1180 1247 
3 996 994 1219 
3 396 67 1220 
3 952 392 1223 
3 1113 990 1242 
3 980 983 1222 
3 1214 928 1244 
3 791 1076 1221 
3 388 915 1229 
3 385 985 1224 
3 814 902 1231 
3 1188 830 1261 
3 1157 23 1238 
3 71 1158 1241 
3 1159 72 1240 
3 1018 924 1233 
3 667 1113 1242 
3 1186 1043 1251 
3 382 1219 1260 
3 938 406 1228 
3 1086 388 1229 
3 864 397 1231 
3 1075 746 1225 
3 674 1193 1205 
3 1004 389 1227 
3 53 52 1230 
3 395 1148 1249 
3 928 927 1244 
3 803 1086 1229 
3 1169 852 1205 
3 1214 1244 1254 
3 981 982 1236 
3 400 105 1234 
3 853 813 1232 
3 80 422 1238 
3 421 134 1239 
3 102 764 1240 
3 763 22 1241 
3 616 654 1237 
3 925 923 1257 
3 888 1009 1235 
3 389 1155 1227 
3 1019 667 1242 
3 1204 903 1253 
3 14 15 1245 
3 410 998 1246 
3 118 119 1248 
3 1108 391 1251 
3 851 852 1249 
3 668 1041 1247 
3 850 848 1252 
3 1168 853 1232 
3 1245 15 1259 
3 418 360 1258 
3 780 1179 1236 
3 960 1024 1255 
3 15 16 1259 
3 812 1118 1250 
3 983 376 1262 
3 1094 960 1262 
3 827 826 1260 
3 830 831 1261 
3 747 697 1256 
3 1082 802 1253 
3 422 1157 1238 
3 1158 763 1241 
3 764 1159 1240 
3 1148 851 1249 
3 1255 983 1262 
3 960 1255 1262 
3 376 1094 1262 
3 857 1170 1257 
3 1180 668 1247 
3 1192 747 1256 
3 1165 849 1243 
3 391 1186 1251 
3 1170 925 1257 
3 848 1200 1252 
3 898 1209 1254 
3 1187 812 1250 
3 917 1187 1250 
3 1217 418 1258 
3 1209 843 1254 
3 843 1214 1254 
3 1219 827 1260 
3 1222 983 1255 
3 863 1217 1258 
3 1244 898 1254 
3 163 164 165 
3 162 163 165 
3 162 165 166 
3 161 162 166 
3 161 166 167 
3 160 161 167 
3 160 167 168 
3 159 160 168 
3 159 168 169 
3 158 159 169 
3 158 169 170 
3 157 158 170 
3 157 170 171 
3 156 157 171 
3 156 171 172 
3 155 156 172 
3 155 172 173 
3 154 155 173 
3 154 173 174 
3 153 154 174 
3 153 174 175 
3 152 153 175 
3 152 175 176 
3 136 84 1263 
3 151 152 176 
3 177 151 176 
3 177 150 151 
3 135 136 1263 
3 150 177 178 
3 149 150 178 
3 191 84 136 
3 149 178 179 
3 148 149 179 
3 148 179 180 
3 147 148 180 
3 147 180 181 
3 146 147 181 
3 146 181 182 
3 145 146 182 
3 183 145 182 
3 84 360 1263 
3 144 145 183 
3 144 183 184 
3 143 144 184 
3 143 184 185 
3 142 143 185 
3 141 142 186 
3 142 185 186 
3 140 141 187 
3 141 186 187 
3 139 140 188 
3 140 187 188 
3 139 189 138 
3 189 139 188 
3 190 137 138 
3 191 136 137 
3 189 190 138 
3 190 191 137 
3 360 135 1263 
3 82 93 1264 
3 164 163 1264 
3 163 82 1264 
3 93 164 1264 
3 360 81 135 
3 165 217 164 
3 216 217 165 
3 166 216 165 
3 215 216 166 
3 167 215 166 
3 214 215 167 
3 168 214 167 
3 213 214 168 
3 169 213 168 
3 212 213 169 
3 170 212 169 
3 211 212 170 
3 211 170 171 
3 210 211 171 
3 172 210 171 
3 209 210 172 
3 173 209 172 
3 208 209 173 
3 174 208 173 
3 207 208 174 
3 207 174 175 
3 206 207 175 
3 85 190 1265 
3 206 175 176 
3 205 206 176 
3 205 176 177 
3 85 192 190 
3 204 205 177 
3 204 177 178 
3 203 204 178 
3 203 178 179 
3 202 203 179 
3 190 191 1265 
3 180 202 179 
3 201 202 180 
3 201 180 181 
3 200 201 181 
3 200 181 182 
3 199 200 182 
3 199 182 183 
3 198 199 183 
3 198 183 184 
3 197 198 184 
3 197 184 185 
3 196 197 185 
3 361 85 1265 
3 195 196 186 
3 196 185 186 
3 194 195 187 
3 195 186 187 
3 193 194 188 
3 194 187 188 
3 192 193 189 
3 189 193 188 
3 192 189 190 
3 191 361 1265 
3 94 93 1266 
3 164 217 1266 
3 217 94 1266 
3 93 164 1266 
3 191 84 361 
3 242 241 217 
3 241 216 217 
3 241 240 216 
3 240 215 216 
3 240 239 215 
3 239 214 215 
3 239 238 214 
3 238 213 214 
3 238 237 213 
3 237 212 213 
3 237 236 212 
3 236 211 212 
3 236 235 211 
3 235 210 211 
3 235 234 210 
3 210 234 209 
3 234 233 209 
3 233 208 209 
3 233 232 208 
3 232 207 208 
3 193 86 1267 
3 232 231 207 
3 231 206 207 
3 231 230 206 
3 192 193 1267 
3 230 205 206 
3 230 229 205 
3 218 86 193 
3 229 204 205 
3 229 228 204 
3 228 203 204 
3 228 227 203 
3 227 202 203 
3 227 226 202 
3 226 201 202 
3 226 225 201 
3 201 225 200 
3 86 362 1267 
3 225 224 200 
3 200 224 199 
3 224 223 199 
3 199 223 198 
3 222 197 198 
3 223 222 198 
3 197 221 196 
3 222 221 197 
3 196 220 195 
3 221 220 196 
3 195 219 194 
3 218 193 194 
3 220 219 195 
3 219 218 194 
3 362 192 1267 
3 94 95 1268 
3 242 217 1268 
3 217 94 1268 
3 95 242 1268 
3 192 362 85 
3 241 242 243 
3 241 243 244 
3 240 241 244 
3 245 240 244 
3 239 240 245 
3 246 239 245 
3 238 239 246 
3 247 238 246 
3 237 238 247 
3 248 237 247 
3 236 237 248 
3 249 236 248 
3 235 236 249 
3 250 235 249 
3 234 235 250 
3 251 234 250 
3 233 234 251 
3 233 251 252 
3 232 233 252 
3 219 87 1269 
3 253 232 252 
3 231 232 253 
3 231 253 254 
3 87 219 265 
3 230 231 254 
3 230 254 255 
3 229 230 255 
3 229 255 256 
3 228 229 256 
3 218 219 1269 
3 228 256 257 
3 227 228 257 
3 227 257 258 
3 226 227 258 
3 226 258 259 
3 225 226 259 
3 225 259 260 
3 224 225 260 
3 224 260 261 
3 223 224 261 
3 223 261 262 
3 87 363 1269 
3 222 262 263 
3 222 223 262 
3 221 263 264 
3 221 222 263 
3 220 264 265 
3 220 221 264 
3 219 220 265 
3 363 218 1269 
3 95 96 1270 
3 243 242 1270 
3 96 243 1270 
3 242 95 1270 
3 218 363 86 
3 243 286 287 
3 243 244 286 
3 244 285 286 
3 244 245 285 
3 245 284 285 
3 245 246 284 
3 246 283 284 
3 246 247 283 
3 247 282 283 
3 247 248 282 
3 248 281 282 
3 248 249 281 
3 249 280 281 
3 249 250 280 
3 280 250 279 
3 250 251 279 
3 251 278 279 
3 251 252 278 
3 88 264 1271 
3 252 277 278 
3 252 253 277 
3 253 276 277 
3 264 265 1271 
3 276 253 254 
3 264 88 266 
3 275 276 254 
3 255 275 254 
3 274 275 255 
3 256 274 255 
3 274 256 273 
3 256 257 273 
3 273 257 272 
3 257 258 272 
3 364 88 1271 
3 272 258 271 
3 258 259 271 
3 271 259 270 
3 259 260 270 
3 260 261 269 
3 260 269 270 
3 261 262 268 
3 269 261 268 
3 262 263 267 
3 263 264 266 
3 268 262 267 
3 267 263 266 
3 265 364 1271 
3 97 96 1272 
3 243 287 1272 
3 96 243 1272 
3 287 97 1272 
3 364 265 87 
3 286 287 288 
3 286 288 289 
3 285 286 289 
3 285 289 290 
3 284 285 290 
3 291 284 290 
3 291 283 284 
3 291 292 283 
3 292 282 283 
3 292 293 282 
3 293 281 282 
3 293 294 281 
3 294 280 281 
3 294 295 280 
3 280 295 279 
3 295 296 279 
3 296 278 279 
3 267 89 1273 
3 296 297 278 
3 297 277 278 
3 307 89 267 
3 297 298 277 
3 298 276 277 
3 298 299 276 
3 276 299 275 
3 299 300 275 
3 266 267 1273 
3 275 300 274 
3 300 301 274 
3 274 301 273 
3 301 302 273 
3 273 302 272 
3 302 303 272 
3 272 303 271 
3 303 304 271 
3 271 304 270 
3 304 305 270 
3 89 365 1273 
3 305 306 269 
3 305 269 270 
3 306 307 268 
3 269 306 268 
3 268 307 267 
3 365 266 1273 
3 97 98 1274 
3 288 287 1274 
3 98 288 1274 
3 287 97 1274 
3 365 88 266 
3 325 326 288 
3 289 325 288 
3 324 325 289 
3 290 324 289 
3 323 324 290 
3 291 323 290 
3 322 323 291 
3 292 322 291 
3 321 322 292 
3 321 292 293 
3 320 321 293 
3 294 320 293 
3 319 320 294 
3 295 319 294 
3 318 319 295 
3 296 318 295 
3 90 306 1275 
3 317 318 296 
3 317 296 297 
3 306 307 1275 
3 317 297 316 
3 316 297 298 
3 306 90 308 
3 315 316 298 
3 315 298 299 
3 314 315 299 
3 314 299 300 
3 313 314 300 
3 301 313 300 
3 366 90 1275 
3 312 313 301 
3 312 301 302 
3 311 312 302 
3 311 302 303 
3 310 303 304 
3 310 311 303 
3 304 305 309 
3 310 304 309 
3 305 306 308 
3 305 308 309 
3 307 366 1275 
3 99 98 1276 
3 288 326 1276 
3 98 288 1276 
3 326 99 1276 
3 307 89 366 
3 325 326 327 
3 328 325 327 
3 324 325 328 
3 329 324 328 
3 323 324 329 
3 330 323 329 
3 322 323 330 
3 331 322 330 
3 321 322 331 
3 332 321 331 
3 320 321 332 
3 333 320 332 
3 319 320 333 
3 319 333 334 
3 318 319 334 
3 309 91 1277 
3 335 318 334 
3 91 309 343 
3 318 335 317 
3 335 336 317 
3 317 336 316 
3 336 337 316 
3 337 315 316 
3 315 337 338 
3 308 309 1277 
3 315 338 314 
3 338 339 314 
3 339 313 314 
3 339 340 313 
3 340 312 313 
3 341 312 340 
3 312 341 311 
3 311 341 342 
3 310 342 343 
3 310 311 342 
3 91 367 1277 
3 309 310 343 
3 367 308 1277 
3 99 100 1278 
3 327 326 1278 
3 100 327 1278 
3 326 99 1278 
3 90 308 367 
3 358 359 327 
3 328 358 327 
3 357 358 328 
3 329 357 328 
3 356 357 329 
3 330 356 329 
3 355 356 330 
3 331 355 330 
3 354 355 331 
3 332 354 331 
3 353 354 332 
3 333 353 332 
3 352 353 333 
3 92 342 1279 
3 352 333 334 
3 351 352 334 
3 342 343 1279 
3 335 351 334 
3 351 335 350 
3 342 92 344 
3 335 336 350 
3 336 349 350 
3 336 337 349 
3 337 348 349 
3 337 338 348 
3 368 92 1279 
3 338 347 348 
3 338 339 347 
3 339 340 346 
3 339 346 347 
3 340 341 345 
3 340 345 346 
3 341 342 344 
3 341 344 345 
3 343 368 1279 
3 101 100 1280 
3 327 359 1280 
3 100 327 1280 
3 359 101 1280 
3 91 368 343 
3 358 359 102 
3 358 102 103 
3 357 358 103 
3 357 103 104 
3 356 357 104 
3 356 104 105 
3 355 356 105 
3 355 105 106 
3 354 355 106 
3 354 106 107 
3 353 354 107 
3 353 107 108 
3 345 83 1281 
3 352 353 108 
3 115 83 345 
3 352 108 109 
3 351 352 109 
3 110 351 109 
3 350 351 110 
3 111 350 110 
3 349 350 111 
3 349 111 112 
3 344 345 1281 
3 349 112 348 
3 112 113 348 
3 113 347 348 
3 113 114 347 
3 114 115 346 
3 347 114 346 
3 346 115 345 
3 83 369 1281 
3 369 344 1281 
3 101 1 1282 
3 102 359 1282 
3 1 102 1282 
3 359 101 1282 
3 369 92 344 

CELL_TYPES 2424
5
5
5
5
5
5
5
5
5
5
5
5
5
5
5
5
5
5
5
5
5
5
5
5
5
5
5
5
5
5
5
5
5
5
5
5
5
5
5
5
5
5
5
5
5
5
5
5
5
5
5
5
5
5
5
5
5
5
5
5
5
5
5
5
5
5
5
5
5
5
5
5
5
5
5
5
5
5
5
5
5
5
5
5
5
5
5
5
5
5
5
5
5
5
5
5
5
5
5
5
5
5
5
5
5
5
5
5
5
5
5
5
5
5
5
5
5
5
5
5
5
5
5
5
5
5
5
5
5
5
5
5
5
5
5
5
5
5
5
5
5
5
5
5
5
5
5
5
5
5
5
5
5
5
5
5
5
5
5
5
5
5
5
5
5
5
5
5
5
5
5
5
5
5
5
5
5
5
5
5
5
5
5
5
5
5
5
5
5
5
5
5
5
5
5
5
5
5
5
5
5
5
5
5
5
5
5
5
5
5
5
5
5
5
5
5
5
5
5
5
5
5
5
5
5
5
5
5
5
5
5
5
5
5
5
5
5
5
5
5
5
5
5
5
5
5
5
5
5
5
5
5
5
5
5
5
5
5
5
5
5
5
5
5
5
5
5
5
5
5
5
5
5
5
5
5
5
5
5
5
5
5
5
5
5
5
5
5
5
5
5
5
5
5
5
5
5
5
5
5
5
5
5
5
5
5
5
5
5
5
5
5
5
5
5
5
5
5
5
5
5
5
5
5
5
5
5
5
5
5
5
5
5
5
5
5
5
5
5
5
5
5
5
5
5
5
5
5
5
5
5
5
5
5
5
5
5
5
5
5
5
5
5
5
5
5
5
5
5
5
5
5
5
5
5
5
5
5
5
5
5
5
5
5
5
5
5
5
5
5
5
5
5
5
5
5
5
5
5
5
5
5
5
5
5
5
5
5
5
5
5
5
5
5
5
5
5
5
5
5
5
5
5
5
5
5
5
5
5
5
5
5
5
5
5
5
5
5
5
5
5
5
5
5
5
5
5
5
5
5
5
5
5
5
5
5
5
5
5
5
5
5
5
5
5
5
5
5
5
5
5
5
5
5
5
5
5
5
5
5
5
5
5
5
5
5
5
5
5
5
5
5
5
5
5
5
5
5
5
5
5
5
5
5
5
5
5
5
5
5
5
5
5
5
5
5
5
5
5
5
5
5
5
5
5
5
5
5
5
5
5
5
5
5
5
5
5
5
5
5
5
5
5
5
5
5
5
5
5
5
5
5
5
5
5
5
5
5
5
5
5
5
5
5
5
5
5
5
5
5
5
5
5
5
5
5
5
5
5
5
5
5
5
5
5
5
5
5
5
5
5
5
5
5
5
5
5
5
5
5
5
5
5
5
5
5
5
5
5
5
5
5
5
5
5
5
5
5
5
5
5
5
5
5
5
5
5
5
5
5
5
5
5
5
5
5
5
5
5
5
5
5
5
5
5
5
5
5
5
5
5
5
5
5
5
5
5
5
5
5
5
5
5
5
5
5
5
5
5
5
5
5
5
5
5
5
5
5
5
5
5
5
5
5
5
5
5
5
5
5
5
5
5
5
5
5
5
5
5
5
5
5
5
5
5
5
5
5
5
5
5
5
5
5
5
5
5
5
5
5
5
5
5
5
5
5
5
5
5
5
5
5
5
5
5
5
5
5
5
5
5
5
5
5
5
5
5
5
5
5
5
5
5
5
5
5
5
5
5
5
5
5
5
5
5
5
5
5
5
5
5
5
5
5
5
5
5
5
5
5
5
5
5
5
5
5
5
5
5
5
5
5
5
5
5
5
5
5
5
5
5
5
5
5
5
5
5
5
5
5
5
5
5
5
5
5
5
5
5
5
5
5
5
5
5
5
5
5
5
5
5
5
5
5
5
5
5
5
5
5
5
5
5
5
5
5
5
5
5
5
5
5
5
5
5
5
5
5
5
5
5
5
5
5
5
5
5
5
5
5
5
5
5
5
5
5
5
5
5
5
5
5
5
5
5
5
5
5
5
5
5
5
5
5
5
5
5
5
5
5
5
5
5
5
5
5
5
5
5
5
5
5
5
5
5
5
5
5
5
5
5
5
5
5
5
5
5
5
5
5
5
5
5
5
5
5
5
5
5
5
5
5
5
5
5
5
5
5
5
5
5
5
5
5
5
5
5
5
5
5
5
5
5
5
5
5
5
5
5
5
5
5
5
5
5
5
5
5
5
5
5
5
5
5
5
5
5
5
5
5
5
5
5
5
5
5
5
5
5
5
5
5
5
5
5
5
5
5
5
5
5
5
5
5
5
5
5
5
5
5
5
5
5
5
5
5
5
5
5
5
5
5
5
5
5
5
5
5
5
5
5
5
5
5
5
5
5
5
5
5
5
5
5
5
5
5
5
5
5
5
5
5
5
5
5
5
5
5
5
5
5
5
5
5
5
5
5
5
5
5
5
5
5
5
5
5
5
5
5
5
5
5
5
5
5
5
5
5
5
5
5
5
5
5
5
5
5
5
5
5
5
5
5
5
5
5
5
5
5
5
5
5
5
5
5
5
5
5
5
5
5
5
5
5
5
5
5
5
5
5
5
5
5
5
5
5
5
5
5
5
5
5
5
5
5
5
5
5
5
5
5
5
5
5
5
5
5
5
5
5
5
5
5
5
5
5
5
5
5
5
5
5
5
5
5
5
5
5
5
5
5
5
5
5
5
5
5
5
5
5
5
5
5
5
5
5
5
5
5
5
5
5
5
5
5
5
5
5
5
5
5
5
5
5
5
5
5
5
5
5
5
5
5
5
5
5
5
5
5
5
5
5
5
5
5
5
5
5
5
5
5
5
5
5
5
5
5
5
5
5
5
5
5
5
5
5
5
5
5
5
5
5
5
5
5
5
5
5
5
5
5
5
5
5
5
5
5
5
5
5
5
5
5
5
5
5
5
5
5
5
5
5
5
5
5
5
5
5
5
5
5
5
5
5
5
5
5
5
5
5
5
5
5
5
5
5
5
5
5
5
5
5
5
5
5
5
5
5
5
5
5
5
5
5
5
5
5
5
5
5
5
5
5
5
5
5
5
5
5
5
5
5
5
5
5
5
5
5
5
5
5
5
5
5
5
5
5
5
5
5
5
5
5
5
5
5
5
5
5
5
5
5
5
5
5
5
5
5
5
5
5
5
5
5
5
5
5
5
5
5
5
5
5
5
5
5
5
5
5
5
5
5
5
5
5
5
5
5
5
5
5
5
5
5
5
5
5
5
5
5
5
5
5
5
5
5
5
5
5
5
5
5
5
5
5
5
5
5
5
5
5
5
5
5
5
5
5
5
5
5
5
5
5
5
5
5
5
5
5
5
5
5
5
5
5
5
5
5
5
5
5
5
5
5
5
5
5
5
5
5
5
5
5
5
5
5
5
5
5
5
5
5
5
5
5
5
5
5
5
5
5
5
5
5
5
5
5
5
5
5
5
5
5
5
5
5
5
5
5
5
5
5
5
5
5
5
5
5
5
5
5
5
5
5
5
5
5
5
5
5
5
5
5
5
5
5
5
5
5
5
5
5
5
5
5
5
5
5
5
5
5
5
5
5
5
5
5
5
5
5
5
5
5
5
5
5
5
5
5
5
5
5
5
5
5
5
5
5
5
5
5
5
5
5
5
5
5
5
5
5
5
5
5
5
5
5
5
5
5
5
5
5
5
5
5
5
5
5
5
5
5
5
5
5
5
5
5
5
5
5
5
5
5
5
5
5
5
5
5
5
5
5
5
5
5
5
5
5
5
5
5
5
5
5
5
5
5
5
5
5
5
5
5
5
5
5
5
5
5
5
5
5
5
5
5
5
5
5
5
5
5
5
5
5
5
5
5
5
5
5
5
5
5
5
5
5
5
5
5
5
5
5
5
5
5
5
5
5
5
5
5
5
5
5
5
5
5
5
5
5
5
5
5
5
5
5
5
5
5
5
5
5
5
5
5
5
5
5
5
5
5
5
5
5
5
5
5
5
5
5
5
5
5
5
5
5
5
5
5
5
5
5
5
5
5
5
5
5
5
5
5
5
5
5
5
5
5
5
5
5
5
5
5
5
5
5
5
5
5
5
5
5
5
5
5
5
5
5
5
5
5
5
5
5
5
5
5
5
5
5
5
5
5
5
5
5
5
5
5
5
5
5
5
5
5
5
5
5
5
5
5
5
5
5
5
5
5
5
5
5
5
5
5
5
5
5
5
5
5
5
5
5
5
5
5
5
5
5
5
5
5
5
5
5
5
5
5
5
5
5
5
5
5
5
5
5
5
5
5
5
5
5
5
5
5
5
5
5
5
5
5
5
5
5
5
5
5
5
5
5
5
5
5
5
5
5
5
5
5
5
5
5
5
5
5
5
5
5
5
5
5
5
5
5
5
5
5
5
5
5
5
5
5
5
5
5
5
5
5
5
5
5
5
5
5
5
5
5
5
5
5
5
5
5
5
5
5
5
5
5
5
5
5
5
5
5
5
5
5
5
5
5
5
5
5
5
5
5
5
5
5
5
5
5
5
5
5
5
5
5
5
5
5
5
5
5
5
5
5
5
5
5
5
5
5
5
5
5
5
5
5
5
5
5
5
5
5
5
5
5
5
5
5
5
5
5
5
5
5
5
5
5
5
5
5
5
5
5
5
5
5
5
5
5
5
5
5
5
5
5
5
5
5
5
5
5
5
5
5
5
5
5
5
5
5
5
5
5
5
5
5
5
5
5
5
5
5
5
5
5
5
5
5
5
5
5
5
5
5
5
5
5
5
5
5
5
5
5
5
5
5
5
5
5
5
5
5
5
5
5
5
5
5
5
5
5
5
5
5
5
5
5
5
5
5
5
5
5
5
5
5
5
5
5
5
5
5
5
5
5
5
5
5
5
5
5
5
5
5
5
5
5
5
5
5
5
5
5
5
5
5
5
5
5
5
5
5
5
5
5
5
5
5
5
5
5
5
5
5
5
5
5
5
5
5
5
5
5
5
5
5
5
5
5
5
5
5
5
5
5
5
5
5
5
5
5
5
5
5
5
5
5
5
5
5
5
5
5
5
5
5
5
5
5
5
5
5
5
5
5
5
5
5
5
5
5
5
5
5
5
5
5
5
5
5
5
5
5
5
5
5
5
5
5
5
5
5
5
5
5
5
5
5
5
5
5
5
5
5
5
5
5
5
5
5
5
5
5
5
5
5
5
5
5
5
5
5
5
5
5
5
5
5
5
5
5
5
5
5
5
5
5
5
5
5
5
5
5
5
5
5
5
5
5
5
5
5
5
5
5
5
5
5
5
5
5
5
5
5
5
5
5
5
5
5
5
5
5
5
5
5
5
5
5
5
5
5
5
5
5
5
5
5
5
5
5
5
5
5
5
5
5
5
5
5
5
5
5
5
5
5
5
5
5
5
5
5
5
5
5
5
5
5
5
5
5
5
5
5
5
5
5
5
5
5
5
5
5
5
5
5
5
5
5

POINT_DATA 1283

VECTORS coord float
0.0 0.0 0.0 
5.000000000000e+01 -1.000000000000e+01 0.0 
0.0 -2.000000000000e+01 0.0 
5.000000000000e+01 -2.000000000000e+01 0.0 
0.0 -9.999999999991e-01 0.0 
0.0 -1.999999999998e+00 0.0 
0.0 -2.999999999997e+00 0.0 
0.0 -3.999999999994e+00 0.0 
0.0 -4.999999999991e+00 0.0 
0.0 -5.999999999988e+00 0.0 
0.0 -6.999999999985e+00 0.0 
0.0 -7.999999999982e+00 0.0 
0.0 -8.999999999983e+00 0.0 
0.0 -9.999999999985e+00 0.0 
0.0 -1.099999999999e+01 0.0 
0.0 -1.199999999999e+01 0.0 
0.0 -1.299999999999e+01 0.0 
0.0 -1.399999999999e+01 0.0 
0.0 -1.499999999999e+01 0.0 
0.0 -1.599999999999e+01 0.0 
0.0 -1.700000000000e+01 0.0 
0.0 -1.800000000000e+01 0.0 
0.0 -1.900000000000e+01 0.0 
4.900000000001e+01 -2.000000000000e+01 0.0 
4.800000000001e+01 -2.000000000000e+01 0.0 
4.700000000002e+01 -2.000000000000e+01 0.0 
4.600000000003e+01 -2.000000000000e+01 0.0 
4.500000000004e+01 -2.000000000000e+01 0.0 
4.400000000004e+01 -2.000000000000e+01 0.0 
4.300000000005e+01 -2.000000000000e+01 0.0 
4.200000000006e+01 -2.000000000000e+01 0.0 
4.100000000006e+01 -2.000000000000e+01 0.0 
4.000000000007e+01 -2.000000000000e+01 0.0 
3.900000000008e+01 -2.000000000000e+01 0.0 
3.800000000009e+01 -2.000000000000e+01 0.0 
3.700000000009e+01 -2.000000000000e+01 0.0 
3.600000000010e+01 -2.000000000000e+01 0.0 
3.500000000011e+01 -2.000000000000e+01 0.0 
3.400000000011e+01 -2.000000000000e+01 0.0 
3.300000000012e+01 -2.000000000000e+01 0.0 
3.200000000013e+01 -2.000000000000e+01 0.0 
3.100000000013e+01 -2.000000000000e+01 0.0 
3.000000000013e+01 -2.000000000000e+01 0.0 
2.900000000013e+01 -2.000000000000e+01 0.0 
2.800000000013e+01 -2.000000000000e+01 0.0 
2.700000000013e+01 -2.000000000000e+01 0.0 
2.600000000013e+01 -2.000000000000e+01 0.0 
2.500000000013e+01 -2.000000000000e+01 0.0 
2.400000000013e+01 -2.000000000000e+01 0.0 
2.300000000013e+01 -2.000000000000e+01 0.0 
2.200000000013e+01 -2.000000000000e+01 0.0 
2.100000000013e+01 -2.000000000000e+01 0.0 
2.000000000013e+01 -2.000000000000e+01 0.0 
1.900000000013e+01 -2.000000000000e+01 0.0 
1.800000000013e+01 -2.000000000000e+01 0.0 
1.700000000012e+01 -2.000000000000e+01 0.0 
1.600000000011e+01 -2.000000000000e+01 0.0 
1.500000000011e+01 -2.000000000000e+01 0.0 
1.400000000010e+01 -2.000000000000e+01 0.0 
1.300000000009e+01 -2.000000000000e+01 0.0 
1.200000000009e+01 -2.000000000000e+01 0.0 
1.100000000008e+01 -2.000000000000e+01 0.0 
1.000000000007e+01 -2.000000000000e+01 0.0 
9.000000000064e+00 -2.000000000000e+01 0.0 
8.000000000057e+00 -2.000000000000e+01 0.0 
7.000000000050e+00 -2.000000000000e+01 0.0 
6.000000000043e+00 -2.000000000000e+01 0.0 
5.000000000036e+00 -2.000000000000e+01 0.0 
4.000000000028e+00 -2.000000000000e+01 0.0 
3.000000000021e+00 -2.000000000000e+01 0.0 
2.000000000014e+00 -2.000000000000e+01 0.0 
1.000000000007e+00 -2.000000000000e+01 0.0 
5.000000000000e+01 -1.100000000000e+01 0.0 
5.000000000000e+01 -1.200000000000e+01 0.0 
5.000000000000e+01 -1.300000000000e+01 0.0 
5.000000000000e+01 -1.400000000000e+01 0.0 
5.000000000000e+01 -1.500000000000e+01 0.0 
5.000000000000e+01 -1.600000000000e+01 0.0 
5.000000000000e+01 -1.700000000000e+01 0.0 
5.000000000000e+01 -1.800000000000e+01 0.0 
5.000000000000e+01 -1.900000000000e+01 0.0 
2.000000000000e+01 0.0 0.0 
5.000000000000e+01 0.0 0.0 
3.500000000000e+01 -1.000000000000e+01 0.0 
2.150000000000e+01 -1.000000000000e+00 0.0 
2.300000000000e+01 -2.000000000000e+00 0.0 
2.450000000000e+01 -3.000000000000e+00 0.0 
2.600000000000e+01 -4.000000000000e+00 0.0 
2.750000000000e+01 -5.000000000000e+00 0.0 
2.900000000000e+01 -6.000000000000e+00 0.0 
3.050000000000e+01 -7.000000000000e+00 0.0 
3.200000000000e+01 -8.000000000000e+00 0.0 
3.350000000000e+01 -9.000000000000e+00 0.0 
5.000000000000e+01 -1.000000000000e+00 0.0 
5.000000000000e+01 -2.000000000000e+00 0.0 
5.000000000000e+01 -3.000000000000e+00 0.0 
5.000000000000e+01 -4.000000000000e+00 0.0 
5.000000000000e+01 -5.000000000000e+00 0.0 
5.000000000000e+01 -6.000000000000e+00 0.0 
5.000000000000e+01 -7.000000000000e+00 0.0 
5.000000000000e+01 -8.000000000000e+00 0.0 
5.000000000000e+01 -9.000000000000e+00 0.0 
4.900000000000e+01 -1.000000000000e+01 0.0 
4.800000000000e+01 -1.000000000000e+01 0.0 
4.700000000000e+01 -1.000000000000e+01 0.0 
4.600000000000e+01 -1.000000000000e+01 0.0 
4.500000000000e+01 -1.000000000000e+01 0.0 
4.400000000000e+01 -1.000000000000e+01 0.0 
4.300000000000e+01 -1.000000000000e+01 0.0 
4.200000000000e+01 -1.000000000000e+01 0.0 
4.100000000000e+01 -1.000000000000e+01 0.0 
4.000000000000e+01 -1.000000000000e+01 0.0 
3.900000000000e+01 -1.000000000000e+01 0.0 
3.800000000000e+01 -1.000000000000e+01 0.0 
3.700000000000e+01 -1.000000000000e+01 0.0 
3.600000000000e+01 -1.000000000000e+01 0.0 
1.900000000000e+01 0.0 0.0 
1.800000000000e+01 0.0 0.0 
1.700000000000e+01 0.0 0.0 
1.600000000000e+01 0.0 0.0 
1.500000000000e+01 0.0 0.0 
1.400000000000e+01 0.0 0.0 
1.300000000000e+01 0.0 0.0 
1.200000000000e+01 0.0 0.0 
1.100000000000e+01 0.0 0.0 
1.000000000000e+01 0.0 0.0 
9.000000000000e+00 0.0 0.0 
8.000000000000e+00 0.0 0.0 
7.000000000000e+00 0.0 0.0 
6.000000000000e+00 0.0 0.0 
5.000000000000e+00 0.0 0.0 
4.000000000000e+00 0.0 0.0 
3.000000000000e+00 0.0 0.0 
2.000000000000e+00 0.0 0.0 
1.000000000000e+00 0.0 0.0 
2.100000000000e+01 0.0 0.0 
2.199999999999e+01 0.0 0.0 
2.299999999999e+01 0.0 0.0 
2.399999999999e+01 0.0 0.0 
2.499999999998e+01 0.0 0.0 
2.599999999998e+01 0.0 0.0 
2.699999999998e+01 0.0 0.0 
2.799999999997e+01 0.0 0.0 
2.899999999996e+01 0.0 0.0 
2.999999999995e+01 0.0 0.0 
3.099999999993e+01 0.0 0.0 
3.199999999992e+01 0.0 0.0 
3.299999999990e+01 0.0 0.0 
3.399999999989e+01 0.0 0.0 
3.499999999987e+01 0.0 0.0 
3.599999999988e+01 0.0 0.0 
3.699999999989e+01 0.0 0.0 
3.799999999990e+01 0.0 0.0 
3.899999999990e+01 0.0 0.0 
3.999999999991e+01 0.0 0.0 
4.099999999992e+01 0.0 0.0 
4.199999999993e+01 0.0 0.0 
4.299999999994e+01 0.0 0.0 
4.399999999995e+01 0.0 0.0 
4.499999999996e+01 0.0 0.0 
4.599999999997e+01 0.0 0.0 
4.699999999997e+01 0.0 0.0 
4.799999999998e+01 0.0 0.0 
4.899999999999e+01 0.0 0.0 
4.901724137931e+01 -1.000000000000e+00 0.0 
4.803448275862e+01 -1.000000000000e+00 0.0 
4.705172413793e+01 -1.000000000000e+00 0.0 
4.606896551724e+01 -1.000000000000e+00 0.0 
4.508620689655e+01 -1.000000000000e+00 0.0 
4.410344827586e+01 -1.000000000000e+00 0.0 
4.312068965517e+01 -1.000000000000e+00 0.0 
4.213793103448e+01 -1.000000000000e+00 0.0 
4.115517241379e+01 -1.000000000000e+00 0.0 
4.017241379310e+01 -1.000000000000e+00 0.0 
3.918965517241e+01 -1.000000000000e+00 0.0 
3.820689655172e+01 -1.000000000000e+00 0.0 
3.722413793103e+01 -1.000000000000e+00 0.0 
3.624137931034e+01 -1.000000000000e+00 0.0 
3.525862068966e+01 -1.000000000000e+00 0.0 
3.427586206897e+01 -1.000000000000e+00 0.0 
3.329310344828e+01 -1.000000000000e+00 0.0 
3.231034482759e+01 -1.000000000000e+00 0.0 
3.132758620690e+01 -1.000000000000e+00 0.0 
3.034482758621e+01 -1.000000000000e+00 0.0 
2.936206896552e+01 -1.000000000000e+00 0.0 
2.837931034483e+01 -1.000000000000e+00 0.0 
2.739655172414e+01 -1.000000000000e+00 0.0 
2.641379310345e+01 -1.000000000000e+00 0.0 
2.543103448276e+01 -1.000000000000e+00 0.0 
2.444827586207e+01 -1.000000000000e+00 0.0 
2.346551724138e+01 -1.000000000000e+00 0.0 
2.248275862069e+01 -1.000000000000e+00 0.0 
2.400000000000e+01 -2.000000000000e+00 0.0 
2.500000000000e+01 -2.000000000000e+00 0.0 
2.600000000000e+01 -2.000000000000e+00 0.0 
2.700000000000e+01 -2.000000000000e+00 0.0 
2.800000000000e+01 -2.000000000000e+00 0.0 
2.900000000000e+01 -2.000000000000e+00 0.0 
3.000000000000e+01 -2.000000000000e+00 0.0 
3.100000000000e+01 -2.000000000000e+00 0.0 
3.200000000000e+01 -2.000000000000e+00 0.0 
3.300000000000e+01 -2.000000000000e+00 0.0 
3.400000000000e+01 -2.000000000000e+00 0.0 
3.500000000000e+01 -2.000000000000e+00 0.0 
3.600000000000e+01 -2.000000000000e+00 0.0 
3.700000000000e+01 -2.000000000000e+00 0.0 
3.800000000000e+01 -2.000000000000e+00 0.0 
3.900000000000e+01 -2.000000000000e+00 0.0 
4.000000000000e+01 -2.000000000000e+00 0.0 
4.100000000000e+01 -2.000000000000e+00 0.0 
4.200000000000e+01 -2.000000000000e+00 0.0 
4.300000000000e+01 -2.000000000000e+00 0.0 
4.400000000000e+01 -2.000000000000e+00 0.0 
4.500000000000e+01 -2.000000000000e+00 0.0 
4.600000000000e+01 -2.000000000000e+00 0.0 
4.700000000000e+01 -2.000000000000e+00 0.0 
4.800000000000e+01 -2.000000000000e+00 0.0 
4.900000000000e+01 -2.000000000000e+00 0.0 
2.548076923077e+01 -3.000000000000e+00 0.0 
2.646153846153e+01 -3.000000000000e+00 0.0 
2.744230769230e+01 -3.000000000000e+00 0.0 
2.842307692306e+01 -3.000000000000e+00 0.0 
2.940384615383e+01 -3.000000000000e+00 0.0 
3.038461538459e+01 -3.000000000000e+00 0.0 
3.136538461536e+01 -3.000000000000e+00 0.0 
3.234615384612e+01 -3.000000000000e+00 0.0 
3.332692307687e+01 -3.000000000000e+00 0.0 
3.430769230762e+01 -3.000000000000e+00 0.0 
3.528846153837e+01 -3.000000000000e+00 0.0 
3.626923076912e+01 -3.000000000000e+00 0.0 
3.724999999988e+01 -3.000000000000e+00 0.0 
3.823076923065e+01 -3.000000000000e+00 0.0 
3.921153846143e+01 -3.000000000000e+00 0.0 
4.019230769221e+01 -3.000000000000e+00 0.0 
4.117307692299e+01 -3.000000000000e+00 0.0 
4.215384615377e+01 -3.000000000000e+00 0.0 
4.313461538455e+01 -3.000000000000e+00 0.0 
4.411538461533e+01 -3.000000000000e+00 0.0 
4.509615384611e+01 -3.000000000000e+00 0.0 
4.607692307688e+01 -3.000000000000e+00 0.0 
4.705769230766e+01 -3.000000000000e+00 0.0 
4.803846153844e+01 -3.000000000000e+00 0.0 
4.901923076922e+01 -3.000000000000e+00 0.0 
4.900000000000e+01 -4.000000000000e+00 0.0 
4.800000000000e+01 -4.000000000000e+00 0.0 
4.700000000000e+01 -4.000000000000e+00 0.0 
4.600000000000e+01 -4.000000000000e+00 0.0 
4.500000000000e+01 -4.000000000000e+00 0.0 
4.400000000000e+01 -4.000000000000e+00 0.0 
4.300000000000e+01 -4.000000000000e+00 0.0 
4.200000000000e+01 -4.000000000000e+00 0.0 
4.100000000000e+01 -4.000000000000e+00 0.0 
4.000000000000e+01 -4.000000000000e+00 0.0 
3.900000000000e+01 -4.000000000000e+00 0.0 
3.800000000000e+01 -4.000000000000e+00 0.0 
3.700000000000e+01 -4.000000000000e+00 0.0 
3.600000000000e+01 -4.000000000000e+00 0.0 
3.500000000000e+01 -4.000000000000e+00 0.0 
3.400000000000e+01 -4.000000000000e+00 0.0 
3.300000000000e+01 -4.000000000000e+00 0.0 
3.200000000000e+01 -4.000000000000e+00 0.0 
3.100000000000e+01 -4.000000000000e+00 0.0 
3.000000000000e+01 -4.000000000000e+00 0.0 
2.900000000000e+01 -4.000000000000e+00 0.0 
2.800000000000e+01 -4.000000000000e+00 0.0 
2.700000000000e+01 -4.000000000000e+00 0.0 
2.847826086957e+01 -5.000000000000e+00 0.0 
2.945652173913e+01 -5.000000000000e+00 0.0 
3.043478260870e+01 -5.000000000000e+00 0.0 
3.141304347826e+01 -5.000000000000e+00 0.0 
3.239130434783e+01 -5.000000000000e+00 0.0 
3.336956521739e+01 -5.000000000000e+00 0.0 
3.434782608696e+01 -5.000000000000e+00 0.0 
3.532608695652e+01 -5.000000000000e+00 0.0 
3.630434782609e+01 -5.000000000000e+00 0.0 
3.728260869565e+01 -5.000000000000e+00 0.0 
3.826086956522e+01 -5.000000000000e+00 0.0 
3.923913043478e+01 -5.000000000000e+00 0.0 
4.021739130435e+01 -5.000000000000e+00 0.0 
4.119565217391e+01 -5.000000000000e+00 0.0 
4.217391304348e+01 -5.000000000000e+00 0.0 
4.315217391304e+01 -5.000000000000e+00 0.0 
4.413043478261e+01 -5.000000000000e+00 0.0 
4.510869565217e+01 -5.000000000000e+00 0.0 
4.608695652174e+01 -5.000000000000e+00 0.0 
4.706521739130e+01 -5.000000000000e+00 0.0 
4.804347826087e+01 -5.000000000000e+00 0.0 
4.902173913043e+01 -5.000000000000e+00 0.0 
4.900000000001e+01 -6.000000000000e+00 0.0 
4.800000000003e+01 -6.000000000000e+00 0.0 
4.700000000004e+01 -6.000000000000e+00 0.0 
4.600000000006e+01 -6.000000000000e+00 0.0 
4.500000000007e+01 -6.000000000000e+00 0.0 
4.400000000009e+01 -6.000000000000e+00 0.0 
4.300000000010e+01 -6.000000000000e+00 0.0 
4.200000000012e+01 -6.000000000000e+00 0.0 
4.100000000013e+01 -6.000000000000e+00 0.0 
4.000000000014e+01 -6.000000000000e+00 0.0 
3.900000000014e+01 -6.000000000000e+00 0.0 
3.800000000012e+01 -6.000000000000e+00 0.0 
3.700000000010e+01 -6.000000000000e+00 0.0 
3.600000000008e+01 -6.000000000000e+00 0.0 
3.500000000006e+01 -6.000000000000e+00 0.0 
3.400000000005e+01 -6.000000000000e+00 0.0 
3.300000000003e+01 -6.000000000000e+00 0.0 
3.200000000001e+01 -6.000000000000e+00 0.0 
3.100000000000e+01 -6.000000000000e+00 0.0 
3.000000000000e+01 -6.000000000000e+00 0.0 
3.147499999998e+01 -7.000000000000e+00 0.0 
3.244999999998e+01 -7.000000000000e+00 0.0 
3.342499999998e+01 -7.000000000000e+00 0.0 
3.439999999998e+01 -7.000000000000e+00 0.0 
3.537499999998e+01 -7.000000000000e+00 0.0 
3.634999999998e+01 -7.000000000000e+00 0.0 
3.732499999998e+01 -7.000000000000e+00 0.0 
3.829999999998e+01 -7.000000000000e+00 0.0 
3.927499999999e+01 -7.000000000000e+00 0.0 
4.024999999999e+01 -7.000000000000e+00 0.0 
4.122499999999e+01 -7.000000000000e+00 0.0 
4.219999999999e+01 -7.000000000000e+00 0.0 
4.317499999999e+01 -7.000000000000e+00 0.0 
4.414999999999e+01 -7.000000000000e+00 0.0 
4.512499999999e+01 -7.000000000000e+00 0.0 
4.609999999999e+01 -7.000000000000e+00 0.0 
4.707500000000e+01 -7.000000000000e+00 0.0 
4.805000000000e+01 -7.000000000000e+00 0.0 
4.902500000000e+01 -7.000000000000e+00 0.0 
4.900000000000e+01 -8.000000000000e+00 0.0 
4.800000000000e+01 -8.000000000000e+00 0.0 
4.700000000000e+01 -8.000000000000e+00 0.0 
4.600000000000e+01 -8.000000000000e+00 0.0 
4.500000000000e+01 -8.000000000000e+00 0.0 
4.400000000000e+01 -8.000000000000e+00 0.0 
4.300000000000e+01 -8.000000000000e+00 0.0 
4.200000000000e+01 -8.000000000000e+00 0.0 
4.100000000000e+01 -8.000000000000e+00 0.0 
4.000000000000e+01 -8.000000000000e+00 0.0 
3.900000000000e+01 -8.000000000000e+00 0.0 
3.800000000000e+01 -8.000000000000e+00 0.0 
3.700000000000e+01 -8.000000000000e+00 0.0 
3.600000000000e+01 -8.000000000000e+00 0.0 
3.500000000000e+01 -8.000000000000e+00 0.0 
3.400000000000e+01 -8.000000000000e+00 0.0 
3.300000000000e+01 -8.000000000000e+00 0.0 
3.447058823527e+01 -9.000000000000e+00 0.0 
3.544117647055e+01 -9.000000000000e+00 0.0 
3.641176470582e+01 -9.000000000000e+00 0.0 
3.738235294109e+01 -9.000000000000e+00 0.0 
3.835294117637e+01 -9.000000000000e+00 0.0 
3.932352941164e+01 -9.000000000000e+00 0.0 
4.029411764691e+01 -9.000000000000e+00 0.0 
4.126470588219e+01 -9.000000000000e+00 0.0 
4.223529411748e+01 -9.000000000000e+00 0.0 
4.320588235279e+01 -9.000000000000e+00 0.0 
4.417647058811e+01 -9.000000000000e+00 0.0 
4.514705882342e+01 -9.000000000000e+00 0.0 
4.611764705874e+01 -9.000000000000e+00 0.0 
4.708823529405e+01 -9.000000000000e+00 0.0 
4.805882352937e+01 -9.000000000000e+00 0.0 
4.902941176468e+01 -9.000000000000e+00 0.0 
2.075000000000e+01 -5.000000000006e-01 0.0 
2.225000000000e+01 -1.500000000000e+00 0.0 
2.375000000000e+01 -2.500000000000e+00 0.0 
2.525000000000e+01 -3.500000000000e+00 0.0 
2.675000000000e+01 -4.500000000000e+00 0.0 
2.825000000000e+01 -5.500000000000e+00 0.0 
2.975000000000e+01 -6.500000000000e+00 0.0 
3.125000000000e+01 -7.500000000000e+00 0.0 
3.275000000000e+01 -8.500000000000e+00 0.0 
3.425000000000e+01 -9.500000000000e+00 0.0 
2.226951693683e+01 -2.403913980114e+00 0.0 
1.650149491944e+01 -1.913490915758e+01 0.0 
1.050042386896e+01 -8.504605092970e-01 0.0 
1.553146524712e+01 -8.281255032105e-01 0.0 
1.150000000008e+01 -1.913397459621e+01 0.0 
2.530060260647e+01 -4.428336431260e+00 0.0 
8.651114563942e-01 -1.052096295641e+01 0.0 
2.050000000013e+01 -1.913397459622e+01 0.0 
2.819198729811e+01 -6.399519052838e+00 0.0 
2.445670302931e+01 -1.915649188023e+01 0.0 
3.117591465718e+01 -8.394293040695e+00 0.0 
7.465053044742e+00 -1.920411160581e+01 0.0 
6.398295709691e+00 -8.230098819370e-01 0.0 
2.849659607461e+01 -1.914296187762e+01 0.0 
3.418732642882e+01 -1.040265792588e+01 0.0 
8.386450935063e-01 -6.533605142809e+00 0.0 
9.178661865596e-01 -1.329769195597e+01 0.0 
3.149448624493e+01 -1.910466733764e+01 0.0 
3.552916747426e+01 -1.914628590759e+01 0.0 
4.449210346537e+01 -1.914359085008e+01 0.0 
4.140975975145e+01 -1.906941860733e+01 0.0 
3.847475958753e+01 -1.916622382724e+01 0.0 
3.653774794640e+01 -1.088712800241e+01 0.0 
4.047886341787e+01 -1.090139014048e+01 0.0 
4.348006339825e+01 -1.092792621489e+01 0.0 
4.919519968029e+01 -1.451526755068e+01 0.0 
4.500000000032e+00 -1.913397459621e+01 0.0 
1.856136921614e+01 -8.212235170404e-01 0.0 
3.499895312306e+00 -8.661165539723e-01 0.0 
9.076088696565e-01 -1.642306201891e+01 0.0 
4.655174095477e+01 -1.086183387525e+01 0.0 
9.430688970604e-01 -3.496112672958e+00 0.0 
3.353992337063e+01 -1.901202090820e+01 0.0 
2.249746016977e+01 -1.921262287282e+01 0.0 
2.650122741777e+01 -1.916123026018e+01 0.0 
1.863571384842e+01 -1.908325534840e+01 0.0 
1.450089971693e+01 -1.917691901860e+01 0.0 
1.350044695317e+01 -8.659695299584e-01 0.0 
3.849987469880e+01 -1.084154983397e+01 0.0 
9.454419857884e+00 -1.900818879936e+01 0.0 
4.917398660523e+01 -1.645692866081e+01 0.0 
8.500000000000e+00 -8.660254037844e-01 0.0 
8.660319230785e-01 -8.500111697188e+00 0.0 
4.649022621545e+01 -1.930506220113e+01 0.0 
2.667688107845e+01 -5.420288124331e+00 0.0 
2.379251615665e+01 -3.412225477429e+00 0.0 
2.966631491830e+01 -7.389030232731e+00 0.0 
3.267915035995e+01 -9.396934932445e+00 0.0 
2.074836922338e+01 -1.320054020319e+00 0.0 
4.915985743621e+01 -1.261973384855e+01 0.0 
2.527129768623e+00 -1.931592414663e+01 0.0 
1.538676247410e+00 -8.436956619311e-01 0.0 
4.908096641539e+01 -1.842484004551e+01 0.0 
3.478612492673e+01 -1.090889364140e+01 0.0 
3.409757055860e+01 -1.131991530427e+01 0.0 
3.501895309466e+01 -1.177687842717e+01 0.0 
3.407758073088e+01 -1.224293381580e+01 0.0 
3.484541875390e+01 -1.277051428430e+01 0.0 
3.400322025842e+01 -1.319022775640e+01 0.0 
3.321672625034e+01 -1.266779191233e+01 0.0 
3.315244139236e+01 -1.360984106532e+01 0.0 
3.236335186892e+01 -1.308463225210e+01 0.0 
3.478337442841e+01 -1.372341158982e+01 0.0 
3.230105923633e+01 -1.403023731610e+01 0.0 
3.150954055289e+01 -1.350301767700e+01 0.0 
3.144604792090e+01 -1.444931742516e+01 0.0 
3.065653897123e+01 -1.392357262981e+01 0.0 
3.071897610812e+01 -1.297447031198e+01 0.0 
2.986790411740e+01 -1.339226181535e+01 0.0 
2.993181466745e+01 -1.244703272398e+01 0.0 
2.908023061869e+01 -1.286254537734e+01 0.0 
2.901619051372e+01 -1.380881655279e+01 0.0 
2.822986160390e+01 -1.327695262116e+01 0.0 
2.829453476870e+01 -1.233265343811e+01 0.0 
2.744542905518e+01 -1.274510491105e+01 0.0 
2.751120089246e+01 -1.180368086886e+01 0.0 
2.666218649885e+01 -1.221619339205e+01 0.0 
2.672371209234e+01 -1.127125228527e+01 0.0 
2.587763216302e+01 -1.168539979114e+01 0.0 
2.581165585299e+01 -1.262994410089e+01 0.0 
2.502890882577e+01 -1.209827323619e+01 0.0 
2.509631327757e+01 -1.115492410304e+01 0.0 
2.424662989877e+01 -1.156630981079e+01 0.0 
2.431704046904e+01 -1.062389179334e+01 0.0 
2.346445438728e+01 -1.103427680694e+01 0.0 
2.339382552877e+01 -1.197964871788e+01 0.0 
2.260936050780e+01 -1.144513277642e+01 0.0 
2.268075012022e+01 -1.049911928216e+01 0.0 
2.182525737661e+01 -1.090920811464e+01 0.0 
2.189682319817e+01 -9.961716944568e+00 0.0 
2.104174127792e+01 -1.037266986667e+01 0.0 
2.111304367575e+01 -9.424179358711e+00 0.0 
2.025306185381e+01 -9.832727364719e+00 0.0 
2.018141124247e+01 -1.079140628871e+01 0.0 
1.938594498257e+01 -1.025147354112e+01 0.0 
1.946106490453e+01 -9.288010758448e+00 0.0 
1.858929958352e+01 -9.706319802516e+00 0.0 
1.851540991219e+01 -1.067205988724e+01 0.0 
1.771485303178e+01 -1.012504443115e+01 0.0 
1.764134552256e+01 -1.109360378538e+01 0.0 
1.683745148095e+01 -1.054496365337e+01 0.0 
1.691852964353e+01 -9.582555261178e+00 0.0 
1.603603813062e+01 -1.000160132379e+01 0.0 
1.595824239350e+01 -1.096750698862e+01 0.0 
1.515080624291e+01 -1.041639501931e+01 0.0 
1.523171602559e+01 -9.451711491453e+00 0.0 
1.434621060709e+01 -9.871956467464e+00 0.0 
1.426777178765e+01 -1.083749501371e+01 0.0 
1.345775282374e+01 -1.028803175500e+01 0.0 
1.354103873368e+01 -9.324918457162e+00 0.0 
1.265072018622e+01 -9.742612837270e+00 0.0 
1.257285762070e+01 -1.071557782384e+01 0.0 
1.175874815690e+01 -1.015972324288e+01 0.0 
1.184203019714e+01 -9.193604071377e+00 0.0 
1.094927709905e+01 -9.612103238656e+00 0.0 
1.086938022910e+01 -1.058685085646e+01 0.0 
1.005424098961e+01 -1.002939116380e+01 0.0 
9.977974613295e+00 -1.101324897989e+01 0.0 
1.012915646404e+01 -9.051815821181e+00 0.0 
9.237127782494e+00 -9.471239055559e+00 0.0 
9.308426593771e+00 -8.483376461131e+00 0.0 
8.418806073345e+00 -8.910712374517e+00 0.0 
2.253688464062e+01 -1.239459402279e+01 0.0 
8.495126726666e+00 -7.921646665254e+00 0.0 
9.389727383206e+00 -7.512103628377e+00 0.0 
7.601560812974e+00 -8.349460349344e+00 0.0 
7.525680547759e+00 -9.339736686940e+00 0.0 
7.677888324502e+00 -7.359727833346e+00 0.0 
6.782001206724e+00 -7.788454494773e+00 0.0 
6.858778622885e+00 -6.797338062822e+00 0.0 
2.196596590865e+01 -8.979025665442e+00 0.0 
2.816540108272e+01 -1.422634142353e+01 0.0 
5.961601194403e+00 -7.226824010712e+00 0.0 
6.038171749656e+00 -6.234825887079e+00 0.0 
6.936257279557e+00 -5.805287640737e+00 0.0 
6.115068918323e+00 -5.242109758768e+00 0.0 
3.564391741903e+01 -1.329240553876e+01 0.0 
3.558115605778e+01 -1.425902892003e+01 0.0 
3.645445282201e+01 -1.381970786460e+01 0.0 
3.639744204358e+01 -1.479198128612e+01 0.0 
3.727266909778e+01 -1.435399586226e+01 0.0 
5.216667013081e+00 -5.671788584287e+00 0.0 
3.220697293295e+01 -1.499594545107e+01 0.0 
3.551112158269e+01 -1.523479869250e+01 0.0 
2.836056961467e+01 -1.139032434851e+01 0.0 
2.516730388602e+01 -1.021382726837e+01 0.0 
1.844436907403e+01 -1.164097215196e+01 0.0 
5.885434318740e+00 -8.218694781467e+00 0.0 
5.064071066867e+00 -7.656614643901e+00 0.0 
4.988089103470e+00 -8.649722082718e+00 0.0 
1.079421050408e+01 -1.157014985435e+01 0.0 
9.902420005256e+00 -1.199903342656e+01 0.0 
1.071994252214e+01 -1.255727909771e+01 0.0 
9.826974788171e+00 -1.298659581767e+01 0.0 
1.064607883789e+01 -1.354595476388e+01 0.0 
9.751541265343e+00 -1.397556905071e+01 0.0 
8.932296185869e+00 -1.341553353988e+01 0.0 
8.856399248106e+00 -1.440570715508e+01 0.0 
8.036186803543e+00 -1.384470558472e+01 0.0 
1.057112875118e+01 -1.453516759081e+01 0.0 
1.146582585687e+01 -1.410539926903e+01 0.0 
7.959894480382e+00 -1.483563350928e+01 0.0 
7.138792279156e+00 -1.427465094140e+01 0.0 
7.062506792418e+00 -1.526615385482e+01 0.0 
6.240693558277e+00 -1.470508863040e+01 0.0 
6.316957575451e+00 -1.371212581281e+01 0.0 
5.418183007107e+00 -1.414253605022e+01 0.0 
5.494748364428e+00 -1.314886770603e+01 0.0 
1.756825565873e+01 -1.206433872514e+01 0.0 
1.837565773345e+01 -1.261356468266e+01 0.0 
1.749574831391e+01 -1.303769280014e+01 0.0 
1.830539187332e+01 -1.358828364284e+01 0.0 
1.742278925170e+01 -1.401367746928e+01 0.0 
1.823303007798e+01 -1.456432294258e+01 0.0 
1.734941694138e+01 -1.499213734361e+01 0.0 
1.653760041637e+01 -1.443920312098e+01 0.0 
3.056237977307e+01 -1.487132260174e+01 0.0 
1.866469084762e+01 -8.742953000418e+00 0.0 
1.953669694916e+01 -8.326038909849e+00 0.0 
1.874194303780e+01 -7.780688158966e+00 0.0 
1.961032016741e+01 -7.366854697285e+00 0.0 
1.881715755159e+01 -6.821102209649e+00 0.0 
1.968369797150e+01 -6.407747217358e+00 0.0 
1.889237123259e+01 -5.858375520026e+00 0.0 
1.802038875366e+01 -6.276202618170e+00 0.0 
1.809793837984e+01 -5.307629520489e+00 0.0 
1.721985207997e+01 -5.728242054488e+00 0.0 
1.729850893523e+01 -4.756990819347e+00 0.0 
1.641745664240e+01 -5.174636548624e+00 0.0 
2.495978509456e+01 -1.304406404294e+01 0.0 
1.911567814831e+01 -1.413854250293e+01 0.0 
1.904387332608e+01 -1.511463127723e+01 0.0 
1.992115934240e+01 -1.468788025898e+01 0.0 
7.013706899628e+00 -4.812582868662e+00 0.0 
5.342091874585e+00 -1.513658157269e+01 0.0 
1.139098043784e+01 -1.509488509480e+01 0.0 
1.228151810610e+01 -1.465617481983e+01 0.0 
1.646373110164e+01 -1.541993323337e+01 0.0 
5.293328636712e+00 -4.678385108584e+00 0.0 
1.975965862987e+01 -5.448124345648e+00 0.0 
2.054318374236e+01 -5.992561293251e+00 0.0 
3.721453439063e+01 -1.533216152738e+01 0.0 
3.809302733893e+01 -1.489235527381e+01 0.0 
1.220852788900e+01 -1.565304565230e+01 0.0 
4.394120899730e+00 -5.108397613210e+00 0.0 
8.779354620288e+00 -1.539524721159e+01 0.0 
1.817791047702e+01 -4.338570146253e+00 0.0 
4.518860013839e+00 -1.457343189307e+01 0.0 
4.442712140414e+00 -1.556841391069e+01 0.0 
8.115343466391e+00 -1.285760324283e+01 0.0 
1.985334703171e+01 -1.566478400426e+01 0.0 
2.071953850276e+01 -1.522074243119e+01 0.0 
1.634012953883e+01 -6.154777738301e+00 0.0 
1.553479994708e+01 -5.593730508879e+00 0.0 
1.561265946942e+01 -4.617761762647e+00 0.0 
1.470674212978e+01 -5.064576488228e+00 0.0 
1.464498299883e+01 -6.026514471420e+00 0.0 
1.383271561817e+01 -5.467796261169e+00 0.0 
1.389241253067e+01 -4.504338666645e+00 0.0 
1.301868735463e+01 -4.907185188626e+00 0.0 
1.294514184846e+01 -5.888160903592e+00 0.0 
1.212955968622e+01 -5.328262335277e+00 0.0 
1.220721122383e+01 -4.341264976687e+00 0.0 
1.131324345897e+01 -4.766773516508e+00 0.0 
5.266597955397e+00 -1.613148974258e+01 0.0 
1.737805990867e+01 -3.786677807525e+00 0.0 
3.078438094513e+01 -1.203225297748e+01 0.0 
1.131569882285e+01 -1.608511932110e+01 0.0 
1.728478341782e+01 -1.596017432313e+01 0.0 
3.803465906019e+01 -1.587509751228e+01 0.0 
3.891681276677e+01 -1.543395196905e+01 0.0 
3.897340985302e+01 -1.444710288980e+01 0.0 
3.980095968193e+01 -1.499059496613e+01 0.0 
3.974334598189e+01 -1.597921884150e+01 0.0 
4.062964983717e+01 -1.553518690417e+01 0.0 
4.068729602479e+01 -1.454434445295e+01 0.0 
4.151772679790e+01 -1.508974196007e+01 0.0 
4.157505195739e+01 -1.409694289912e+01 0.0 
4.240699932656e+01 -1.464347955968e+01 0.0 
4.234898051011e+01 -1.563721375790e+01 0.0 
4.323934606035e+01 -1.519082036405e+01 0.0 
4.329740528208e+01 -1.419587509788e+01 0.0 
4.413056841369e+01 -1.474359631875e+01 0.0 
4.418850110108e+01 -1.374786684042e+01 0.0 
4.502219770667e+01 -1.429605103525e+01 0.0 
4.496411937907e+01 -1.529215882720e+01 0.0 
4.490027319897e+00 -4.154167794594e+00 0.0 
1.565080385988e+01 -1.486411982419e+01 0.0 
1.557610691279e+01 -1.584855627870e+01 0.0 
4.195350646612e+00 -8.089117689096e+00 0.0 
4.124027797830e+00 -9.082831955007e+00 0.0 
4.917944318925e+00 -9.643530901533e+00 0.0 
4.020105689502e+00 -1.007439673661e+01 0.0 
4.587185899277e+01 -1.484039992728e+01 0.0 
4.580078661551e+01 -1.584043391042e+01 0.0 
2.061956522375e+01 -5.046701343981e+00 0.0 
2.139572955529e+01 -5.579553449826e+00 0.0 
3.715344357292e+01 -1.631485124583e+01 0.0 
3.618886196443e+00 -1.500471207167e+01 0.0 
3.695606940204e+00 -1.400939692294e+01 0.0 
2.438890661143e+01 -9.686110599723e+00 0.0 
2.523267572778e+01 -9.276766000622e+00 0.0 
2.446094171539e+01 -8.751904591412e+00 0.0 
2.529089822738e+01 -8.321495612547e+00 0.0 
2.606882688827e+01 -8.864724051119e+00 0.0 
2.452116646430e+01 -7.792756462004e+00 0.0 
1.235543269617e+01 -1.365845617339e+01 0.0 
4.318116874181e+01 -1.618567469992e+01 0.0 
7.835066111909e+00 -5.376366223896e+00 0.0 
7.905687335704e+00 -4.382539065697e+00 0.0 
3.542640009567e+00 -1.600035116542e+01 0.0 
1.572431503071e+01 -1.388358386695e+01 0.0 
2.574684696680e+01 -1.357896141127e+01 0.0 
2.488842657651e+01 -1.399674354505e+01 0.0 
2.568301775611e+01 -1.453552048595e+01 0.0 
2.481535572009e+01 -1.495542756508e+01 0.0 
2.561729699688e+01 -1.549784648532e+01 0.0 
2.474623061296e+01 -1.592058894178e+01 0.0 
2.394234041695e+01 -1.537572575827e+01 0.0 
2.065825452567e+01 -1.621899055217e+01 0.0 
2.387180528935e+01 -1.634552264687e+01 0.0 
4.585364400844e+01 -1.383912334080e+01 0.0 
1.998744432052e+01 -1.370317155541e+01 0.0 
1.205356951443e+01 -6.313580285498e+00 0.0 
5.396543905849e+00 -3.731818611283e+00 0.0 
1.139652573295e+01 -3.745819399350e+00 0.0 
3.574124306703e+00 -4.551456826011e+00 0.0 
3.494140761930e+00 -5.539787055649e+00 0.0 
1.213651452413e+01 -1.664505033022e+01 0.0 
2.555045568519e+01 -1.646529356744e+01 0.0 
2.641671114986e+01 -1.603899382371e+01 0.0 
2.612920721894e+01 -7.906435260873e+00 0.0 
2.690339829698e+01 -8.456969591431e+00 0.0 
1.978024383368e+01 -1.664410216353e+01 0.0 
3.732829979082e+01 -1.336926601859e+01 0.0 
4.074336584605e+01 -1.355133328401e+01 0.0 
4.163204691081e+01 -1.310280943992e+01 0.0 
3.773826114429e+00 -3.493444309145e+00 0.0 
1.228783001032e+01 -3.374822835872e+00 0.0 
4.057110462520e+01 -1.652588478000e+01 0.0 
2.132535497898e+01 -6.523623360525e+00 0.0 
2.216932532211e+01 -6.110044769206e+00 0.0 
1.825781152128e+01 -3.370146817147e+00 0.0 
1.745679445888e+01 -2.812942552063e+00 0.0 
4.666517057280e+01 -1.539981381543e+01 0.0 
4.660575894464e+01 -1.639014410186e+01 0.0 
4.838230979954e+00 -1.063643436446e+01 0.0 
3.938942630206e+00 -1.106778981745e+01 0.0 
1.302967218620e+01 -1.621373452436e+01 0.0 
1.049548003190e+01 -4.204825123240e+00 0.0 
4.573571907195e+01 -1.683820511148e+01 0.0 
1.483686335807e+01 -1.430849689310e+01 0.0 
1.490982658890e+01 -1.332679386284e+01 0.0 
3.190805600162e+00 -9.510968358545e+00 0.0 
2.146625721848e+01 -4.642437303115e+00 0.0 
2.069866208266e+01 -4.111852942193e+00 0.0 
1.286859345584e+01 -6.873252723348e+00 0.0 
1.041794493184e+01 -5.194814260291e+00 0.0 
2.671081808965e+00 -4.976806516331e+00 0.0 
1.295786792925e+01 -1.720506531799e+01 0.0 
3.968438206511e+01 -1.696869067241e+01 0.0 
2.308550456051e+01 -1.579963151273e+01 0.0 
2.315593682844e+01 -1.482967445235e+01 0.0 
2.299471449450e+01 -1.677069968132e+01 0.0 
1.057344714696e+01 -3.214252277840e+00 0.0 
1.124057603753e+01 -1.707713739755e+01 0.0 
2.718402535754e+00 -1.543629882103e+01 0.0 
2.638549692805e+01 -1.696744916809e+01 0.0 
2.723416349007e+01 -1.658104204545e+01 0.0 
2.210193351704e+01 -7.046769643417e+00 0.0 
2.295180925161e+01 -6.657397605239e+00 0.0 
2.301355235833e+01 -5.709111896800e+00 0.0 
2.379052718281e+01 -6.254965406962e+00 0.0 
3.243528601237e+01 -1.214181853533e+01 0.0 
2.287977995457e+01 -7.583722368300e+00 0.0 
2.999876029544e+01 -1.150837653096e+01 0.0 
3.084435366963e+01 -1.109693775882e+01 0.0 
3.006650579669e+01 -1.057778994262e+01 0.0 
2.683802665066e+01 -9.386863216633e+00 0.0 
2.768641973621e+01 -8.988883915666e+00 0.0 
2.040296980397e+01 -7.903629133404e+00 0.0 
1.925235024054e+01 -1.218872783130e+01 0.0 
5.735667000424e+00 -1.020577277283e+01 0.0 
6.396559909872e+00 -1.272326295703e+01 0.0 
1.161199420714e+01 -1.212812778229e+01 0.0 
4.229046132615e+01 -1.663084237572e+01 0.0 
4.312275399692e+01 -1.718087491556e+01 0.0 
4.335502068163e+01 -1.320039231514e+01 0.0 
4.424630298089e+01 -1.275160688731e+01 0.0 
7.090116643816e+00 -3.818998061530e+00 0.0 
7.989472176569e+00 -3.389238711200e+00 0.0 
9.085824861778e+00 -1.144036167408e+01 0.0 
1.041972423731e+01 -1.651614080893e+01 0.0 
3.797525112640e+01 -1.686052038746e+01 0.0 
3.709114253394e+01 -1.730125999865e+01 0.0 
3.626966748340e+01 -1.675477052919e+01 0.0 
1.385164591440e+01 -1.677597757552e+01 0.0 
1.787152588784e+01 -8.198993896093e+00 0.0 
1.668849729812e+01 -1.248560611628e+01 0.0 
1.659546177905e+01 -3.232482605530e+00 0.0 
2.332214717345e+01 -1.292598167641e+01 0.0 
7.168238450786e+00 -2.824711686516e+00 0.0 
2.894878403906e+01 -1.475427524446e+01 0.0 
2.646763248247e+00 -1.643270107952e+01 0.0 
3.467431944285e+00 -1.699648837348e+01 0.0 
2.059475877282e+01 -1.719473628526e+01 0.0 
3.333868355437e+01 -1.080596971682e+01 0.0 
2.246451062637e+01 -1.334557761546e+01 0.0 
2.167821896388e+01 -1.280847834858e+01 0.0 
3.089653185767e+01 -1.017198487212e+01 0.0 
3.012604365669e+01 -9.657298805968e+00 0.0 
2.929627299435e+01 -1.006100135274e+01 0.0 
2.936201435219e+01 -9.136748899251e+00 0.0 
1.198219052702e+01 -7.291887238230e+00 0.0 
1.116702076035e+01 -6.731976101053e+00 0.0 
2.551388807505e+01 -1.746927036981e+01 0.0 
2.378639090370e+01 -1.728678807149e+01 0.0 
2.718543627188e+01 -1.748668016909e+01 0.0 
2.804681050301e+01 -1.712626668293e+01 0.0 
1.970737034667e+01 -1.762317646822e+01 0.0 
1.889535776135e+01 -1.707158098231e+01 0.0 
2.593777711283e+00 -5.971157087874e+00 0.0 
2.773468281110e+01 -8.067164273938e+00 0.0 
4.051205884347e+01 -1.751819982458e+01 0.0 
3.166903145421e+01 -1.068032992414e+01 0.0 
1.033042452886e+01 -1.748285844336e+01 0.0 
9.519274604626e+00 -1.694349240233e+01 0.0 
1.668308673328e+01 -2.255861778986e+00 0.0 
1.570531902832e+01 -2.676795860126e+00 0.0 
4.655826903379e+01 -1.736656245706e+01 0.0 
2.384148070773e+01 -5.328744256413e+00 0.0 
2.460255123641e+01 -5.852182672816e+00 0.0 
2.306638135119e+01 -4.798935440613e+00 0.0 
8.467720450578e-01 -1.849576263072e+01 0.0 
4.849657322345e+01 -1.084860705506e+01 0.0 
2.565860899507e+00 -1.742859793981e+01 0.0 
2.764418872564e+01 -9.927142821799e+00 0.0 
4.565165880064e+01 -1.785336695404e+01 0.0 
2.162231831329e+01 -1.376528337468e+01 0.0 
2.360646352969e+01 -9.136041963102e+00 0.0 
1.392738739903e+01 -1.578285505772e+01 0.0 
4.756405947478e+01 -1.683706841809e+01 0.0 
4.740895034054e+01 -1.793766756892e+01 0.0 
4.080779328826e+01 -1.257387192544e+01 0.0 
4.168907939671e+01 -1.210739129181e+01 0.0 
3.991197722154e+01 -1.300815793917e+01 0.0 
1.905536506762e+01 -3.940076697685e+00 0.0 
1.923879596617e+01 -2.875000734166e+00 0.0 
4.401386745746e+01 -1.673483229438e+01 0.0 
4.247233362525e+00 -7.094581653070e+00 0.0 
3.286051630211e+00 -7.635300020553e+00 0.0 
9.609533347623e+00 -4.594311677967e+00 0.0 
9.523554636369e+00 -5.595597029530e+00 0.0 
5.660336628893e+00 -1.119290329628e+01 0.0 
6.558070063295e+00 -1.076385809362e+01 0.0 
2.809866407414e+01 -1.518037766799e+01 0.0 
2.888868674504e+01 -1.570360690070e+01 0.0 
2.654431550819e+01 -1.411217777162e+01 0.0 
1.402158265969e+01 -1.375404617952e+01 0.0 
1.409592494026e+01 -1.277071998942e+01 0.0 
1.499355196178e+01 -1.235270737023e+01 0.0 
4.221535326155e+01 -1.759335617494e+01 0.0 
4.305583287033e+01 -1.822663146802e+01 0.0 
1.280748808359e+01 -7.834332838285e+00 0.0 
1.368988389326e+01 -7.420529606172e+00 0.0 
1.110091796060e+01 -7.683966794328e+00 0.0 
3.963446145980e+01 -1.794331310122e+01 0.0 
3.423932362213e+00 -1.796415590455e+01 0.0 
4.280814572302e+00 -1.752272834860e+01 0.0 
8.050136380041e+00 -2.421582378631e+00 0.0 
8.888674091650e+00 -2.984264211327e+00 0.0 
2.152839430898e+01 -3.732609965436e+00 0.0 
2.077799585292e+01 -3.183896021866e+00 0.0 
3.618719395821e+01 -1.770276572576e+01 0.0 
3.538165138340e+01 -1.718709995539e+01 0.0 
3.702925326420e+01 -1.828844288807e+01 0.0 
1.756739438711e+00 -5.353284859169e+00 0.0 
2.233710191104e+01 -1.527265621324e+01 0.0 
1.389483555057e+01 -1.771797164730e+01 0.0 
1.475634224300e+01 -1.728357428390e+01 0.0 
1.298797563052e+01 -1.825968924755e+01 0.0 
2.145331271866e+01 -1.673705379077e+01 0.0 
2.133282821169e+01 -1.769400773673e+01 0.0 
2.292139194136e+01 -1.774915400288e+01 0.0 
1.750750053243e+01 -1.861475593469e+00 0.0 
4.830478841772e+01 -1.752611802221e+01 0.0 
4.341203507805e+01 -1.220326745522e+01 0.0 
1.685254151866e+01 -1.443085301632e+00 0.0 
4.431538535165e+01 -1.171841387375e+01 0.0 
4.511308610496e+01 -1.229557320599e+01 0.0 
4.510133242889e+01 -1.123680627466e+01 0.0 
1.846818030617e+00 -4.410877617069e+00 0.0 
3.995468694584e+01 -1.186571542989e+01 0.0 
3.901387459804e+01 -1.242507616755e+01 0.0 
8.966735877533e+00 -1.837818700423e+00 0.0 
4.049310011091e+01 -1.848269508791e+01 0.0 
7.278862053803e+00 -1.918523922691e+00 0.0 
6.429715522129e+00 -2.316676521184e+00 0.0 
9.443505505022e+00 -1.792198868094e+01 0.0 
8.620386951051e+00 -1.737590365556e+01 0.0 
8.571868171503e+00 -1.834436667826e+01 0.0 
7.758629848526e+00 -1.775677907213e+01 0.0 
7.806648388584e+00 -1.680761266021e+01 0.0 
6.908555145436e+00 -1.723746463044e+01 0.0 
4.251709122090e+01 -1.156937480156e+01 0.0 
6.931136405615e+00 -1.832465719263e+01 0.0 
6.015545461353e+00 -1.768865355295e+01 0.0 
5.960535926343e+00 -1.872011001764e+01 0.0 
3.023253444786e+01 -8.761960642196e+00 0.0 
2.454622702599e+01 -6.749421992767e+00 0.0 
2.537499741604e+01 -6.347634963783e+00 0.0 
2.544077378460e+01 -5.431358513649e+00 0.0 
2.801367161747e+01 -1.820907270221e+01 0.0 
2.884507806914e+01 -1.762032095326e+01 0.0 
1.821474531936e+00 -1.588901260460e+01 0.0 
1.821006262604e+00 -1.489370287756e+01 0.0 
4.599962488908e+01 -1.176478780598e+01 0.0 
4.705457470007e+01 -1.172182804229e+01 0.0 
4.667668314802e+01 -1.263464558483e+01 0.0 
4.759648056504e+01 -1.252380987933e+01 0.0 
4.728041618103e+01 -1.341928568376e+01 0.0 
4.825209352360e+01 -1.330491640804e+01 0.0 
4.778118233428e+01 -1.420151961695e+01 0.0 
2.388192727579e+01 -1.826934810142e+01 0.0 
2.381714684947e+01 -4.385917965223e+00 0.0 
3.172733219247e+01 -9.758744265248e+00 0.0 
1.882012070658e+01 -1.805540597212e+01 0.0 
1.805667505243e+01 -1.742221226236e+01 0.0 
2.852599958080e+01 -8.597196079481e+00 0.0 
2.856486123437e+01 -7.661382718527e+00 0.0 
1.111792842875e+01 -1.818223852980e+01 0.0 
2.203322722466e+01 -7.986646678802e+00 0.0 
3.955703676900e+01 -1.903246763601e+01 0.0 
1.944842206513e+01 -8.038750575182e-01 0.0 
1.909882767783e+01 -1.746322740933e+00 0.0 
2.281147422941e+01 -8.525912918334e+00 0.0 
2.850633001468e+01 -9.533271335986e+00 0.0 
2.532883344309e+01 -7.308951659710e+00 0.0 
2.620475466461e+01 -6.979208585400e+00 0.0 
1.396278270396e+01 -1.475095389807e+01 0.0 
9.791001166724e+00 -2.554159793552e+00 0.0 
2.229293380421e+01 -4.269762271052e+00 0.0 
4.677238984118e+01 -1.430071795514e+01 0.0 
2.228658385918e+01 -3.344747535984e+00 0.0 
8.940223674553e-01 -1.543595733415e+01 0.0 
2.118566862474e+01 -8.435876987696e+00 0.0 
2.678325936437e+01 -1.032621195706e+01 0.0 
2.223400220487e+01 -5.179046761770e+00 0.0 
2.375370625384e+01 -7.251580562134e+00 0.0 
3.156971327386e+01 -1.255534750737e+01 0.0 
3.328226391312e+01 -1.172914813316e+01 0.0 
3.250948774219e+01 -1.120157009348e+01 0.0 
2.032993445717e+01 -8.867880112202e+00 0.0 
2.697226974856e+01 -7.536633082045e+00 0.0 
2.707377810386e+01 -6.590835263295e+00 0.0 
2.914099246827e+01 -1.191678458549e+01 0.0 
3.544824072239e+01 -1.621126558525e+01 0.0 
3.456511855436e+01 -1.665054783843e+01 0.0 
3.448395810225e+01 -1.759117813016e+01 0.0 
3.368378673938e+01 -1.708037781328e+01 0.0 
3.375560452567e+01 -1.610973066913e+01 0.0 
3.288001547988e+01 -1.654324255651e+01 0.0 
3.282475929147e+01 -1.749725654692e+01 0.0 
3.199880906313e+01 -1.697294088625e+01 0.0 
3.197001272932e+01 -1.811667776864e+01 0.0 
3.111884713021e+01 -1.742166785755e+01 0.0 
3.120418962865e+01 -1.642155709385e+01 0.0 
3.034666704371e+01 -1.683123833816e+01 0.0 
3.026224379976e+01 -1.772592851714e+01 0.0 
3.046632362943e+01 -1.582232843075e+01 0.0 
1.961344017324e+01 -1.857459447985e+01 0.0 
2.274975894774e+01 -9.532738811922e+00 0.0 
1.833923246887e+01 -2.396746883672e+00 0.0 
1.988859500848e+01 -2.249244376594e+00 0.0 
2.758045562861e+01 -1.086434261689e+01 0.0 
3.247300178163e+01 -1.909930104252e+01 0.0 
3.461947482503e+01 -1.911879848019e+01 0.0 
2.047161538662e+01 -6.941478180358e+00 0.0 
2.750230940214e+01 -1.915490590764e+01 0.0 
3.165081350803e+01 -1.161860780120e+01 0.0 
1.897456727641e+01 -4.889634688522e+00 0.0 
2.549338539756e+01 -1.914858252089e+01 0.0 
3.462873135081e+01 -1.567482276144e+01 0.0 
3.384432415243e+01 -1.512280684518e+01 0.0 
3.471433767690e+01 -1.469086942990e+01 0.0 
3.651470373046e+01 -1.918207952149e+01 0.0 
3.901742690249e+01 -1.345028556517e+01 0.0 
2.153224102692e+01 -1.920169709333e+01 0.0 
1.918382939341e+01 -1.316226275662e+01 0.0 
2.005389162382e+01 -1.271962165174e+01 0.0 
2.011472087878e+01 -1.175029352900e+01 0.0 
3.210679478412e+01 -1.598038618242e+01 0.0 
1.752175226543e+01 -1.914713022656e+01 0.0 
1.696897240059e+01 -1.832772588765e+01 0.0 
1.599682523337e+01 -1.832599992024e+01 0.0 
1.644507199462e+01 -1.743697981535e+01 0.0 
1.549987712903e+01 -1.915192375101e+01 0.0 
3.050250861901e+01 -1.918943550234e+01 0.0 
2.949944061527e+01 -1.922950455235e+01 0.0 
1.375892575273e+01 -6.447160534926e+00 0.0 
1.457223670180e+01 -7.006709243857e+00 0.0 
1.450818793236e+01 -7.965943451779e+00 0.0 
1.538804712402e+01 -7.553409623699e+00 0.0 
1.545817644768e+01 -6.580929593419e+00 0.0 
1.626506893751e+01 -7.129032608911e+00 0.0 
1.619833811522e+01 -8.086588580887e+00 0.0 
1.714448609609e+01 -6.697429609777e+00 0.0 
2.887616543568e+01 -1.668015232137e+01 0.0 
1.349814589130e+01 -1.918225301544e+01 0.0 
1.153887772210e+01 -1.311384581217e+01 0.0 
1.242708159886e+01 -1.267046795531e+01 0.0 
1.249799674267e+01 -1.169005616014e+01 0.0 
6.631723893693e+00 -9.774184881867e+00 0.0 
7.451471631867e+00 -1.033148796006e+01 0.0 
7.377795355458e+00 -1.132196345268e+01 0.0 
5.810931797536e+00 -9.211654212252e+00 0.0 
2.402683899133e+01 -1.441378562320e+01 0.0 
1.249768692036e+01 -1.917388426624e+01 0.0 
1.580373499437e+01 -1.290751860664e+01 0.0 
8.344650507834e+00 -9.898403995170e+00 0.0 
3.750622115305e+01 -1.086526401533e+01 0.0 
3.699391251667e+01 -1.171695900794e+01 0.0 
3.606517829518e+01 -1.173717504500e+01 0.0 
3.650257641795e+01 -1.270047380221e+01 0.0 
3.808951488918e+01 -1.183518714175e+01 0.0 
4.760380962420e+00 -1.162484888315e+01 0.0 
3.861210370848e+00 -1.205657631736e+01 0.0 
3.038284309476e+00 -1.149851280664e+01 0.0 
2.961598794889e+00 -1.248856794980e+01 0.0 
2.138953225512e+00 -1.193212674534e+01 0.0 
2.227383593457e+00 -1.096258903918e+01 0.0 
2.043265419276e+00 -1.292158472959e+01 0.0 
1.252449446028e+00 -1.225502002753e+01 0.0 
3.949985210740e+01 -1.086594001795e+01 0.0 
1.453499444792e+01 -8.768805922472e-01 0.0 
1.403518950933e+01 -1.749965556633e+00 0.0 
1.300715031023e+01 -1.714737233040e+00 0.0 
1.350929389899e+01 -2.527443911291e+00 0.0 
1.449600910711e+01 -2.595486162864e+00 0.0 
1.395693872901e+01 -3.484211041558e+00 0.0 
1.495105865208e+01 -3.364609636216e+00 0.0 
1.508822528740e+01 -1.766586020494e+00 0.0 
1.250223858430e+01 -8.634590186802e-01 0.0 
1.200279523409e+01 -1.709044504992e+00 0.0 
1.150086239419e+01 -8.592789190668e-01 0.0 
1.101482754194e+01 -1.677730591922e+00 0.0 
1.148018564526e+01 -2.659323866909e+00 0.0 
8.800552119754e+00 -3.989875954728e+00 0.0 
3.452790439430e+00 -1.901136170646e+01 0.0 
8.658451825200e-01 -9.503462241795e+00 0.0 
1.694787786797e+00 -9.000589234502e+00 0.0 
1.703436717094e+00 -8.038819004041e+00 0.0 
2.594197971110e+00 -8.563955242845e+00 0.0 
1.630513735412e+00 -9.907244747511e+00 0.0 
8.566859292791e-01 -7.512203837972e+00 0.0 
1.685461277022e+00 -7.164280248030e+00 0.0 
2.506394468801e+00 -8.623386730818e-01 0.0 
2.007475081581e+00 -1.727729545205e+00 0.0 
9.211534699767e-01 -1.628791366312e+00 0.0 
1.500000000020e+00 -2.598063549486e+00 0.0 
2.482078929963e+00 -2.553580088725e+00 0.0 
2.999795253092e+00 -1.732169015019e+00 0.0 
3.999712607169e+00 -1.728832897453e+00 0.0 
4.499752199340e+00 -8.656478679175e-01 0.0 
4.964377774841e+00 -1.730129617941e+00 0.0 
4.425017908337e+00 -2.597541756243e+00 0.0 
5.446573195014e+00 -8.410144840023e-01 0.0 
4.915722346614e+01 -1.550640962770e+01 0.0 
4.826794919243e+01 -1.600000000000e+01 0.0 
1.053139533193e+01 -1.911782884365e+01 0.0 
4.156049861949e+01 -1.095160998589e+01 0.0 
9.494526624416e+00 -8.650570090219e-01 0.0 
4.555762166964e+01 -1.897098103585e+01 0.0 
4.250656411371e+01 -1.914387356218e+01 0.0 
4.350906466345e+01 -1.917234727395e+01 0.0 
8.759665722424e-01 -1.746422130609e+01 0.0 
1.698936011838e+00 -1.795012186674e+01 0.0 
4.742476811029e+01 -1.900090177972e+01 0.0 
7.749196752349e+00 -6.368049313489e+00 0.0 
3.361572113416e+01 -1.798765193915e+01 0.0 
4.484660149212e+01 -1.728661231383e+01 0.0 
1.984038172228e+01 -4.502575320116e+00 0.0 
1.035080352627e+01 -6.166639575753e+00 0.0 
2.753558010652e+00 -1.444909521181e+01 0.0 
7.217069543032e+00 -1.328635391078e+01 0.0 
4.364336727739e+00 -1.655585677381e+01 0.0 
4.595208426108e+00 -1.357919665443e+01 0.0 
6.164967006980e+00 -1.569873454630e+01 0.0 
1.487855768353e+01 -1.826523774028e+01 0.0 
2.791876456372e+00 -4.019632415181e+00 0.0 
4.246464893515e+01 -1.364898659620e+01 0.0 
4.503855590351e+01 -1.329552780944e+01 0.0 
4.407239109604e+01 -1.573900004093e+01 0.0 
5.141054449252e+00 -6.664290382472e+00 0.0 
3.141083947149e+00 -1.055790764912e+01 0.0 
6.196463198741e+00 -4.256497932609e+00 0.0 
2.599618716181e+01 -1.836893455464e+01 0.0 
2.923057372337e+01 -1.098461757645e+01 0.0 
1.168343877486e+01 -1.114079645041e+01 0.0 
6.706222096238e+00 -8.780364234441e+00 0.0 
8.567858614669e+00 -6.943121440850e+00 0.0 
1.123755132901e+01 -5.753525820030e+00 0.0 
2.353456234423e+01 -1.008536320953e+01 0.0 
9.162073319168e+00 -1.045593739109e+01 0.0 
9.676343469685e+00 -1.496493008366e+01 0.0 
4.490637882905e+01 -1.628778970202e+01 0.0 
7.398129387772e+00 -9.639977982323e-01 0.0 
1.049641705805e+01 -1.552503975272e+01 0.0 
9.010356286268e+00 -1.242805042052e+01 0.0 
3.985573925497e+01 -1.399863651620e+01 0.0 
1.816196318262e+01 -1.554066497931e+01 0.0 
1.306332244168e+01 -3.963646550326e+00 0.0 
4.145850903932e+01 -1.608094559275e+01 0.0 
3.794664933633e+01 -1.779020121986e+01 0.0 
3.819614412903e+01 -1.290749321016e+01 0.0 
6.270014188119e+00 -3.255093186826e+00 0.0 
4.251165370388e+01 -1.263870364997e+01 0.0 
1.207347709171e+01 -1.763942826023e+01 0.0 
3.633240829927e+01 -1.577330481104e+01 0.0 
4.319052668832e+00 -6.101812561904e+00 0.0 
1.676492415806e+01 -1.151547901392e+01 0.0 
2.594059220037e+01 -1.074225223009e+01 0.0 
3.340750911501e+01 -9.898764354137e+00 0.0 
4.397619591281e+01 -1.769773736461e+01 0.0 
2.175611595028e+01 -1.185718747128e+01 0.0 
1.641818733106e+01 -1.640685203215e+01 0.0 
1.661211421753e+01 -1.346121366338e+01 0.0 
3.428853504935e+00 -6.551993389271e+00 0.0 
8.700728832502e+00 -1.638460872825e+01 0.0 
1.931369795309e+01 -1.121629383702e+01 0.0 
4.139798872363e+01 -1.706922153459e+01 0.0 
2.647837478700e+01 -1.507353829290e+01 0.0 
1.779469616424e+01 -9.161615782908e+00 0.0 
3.885879219319e+01 -1.642026488918e+01 0.0 
1.338194936770e+01 -1.125916521471e+01 0.0 
1.897071181111e+01 -1.609204322578e+01 0.0 
2.844308548793e+01 -1.046221003096e+01 0.0 
2.659854702194e+01 -1.316109415760e+01 0.0 
2.979604503271e+01 -1.433296157755e+01 0.0 
2.417694041347e+01 -1.251231397779e+01 0.0 
1.807401327411e+00 -1.388891148480e+01 0.0 
9.599810618782e+00 -1.595439365034e+01 0.0 
1.652144692160e+01 -4.205392788472e+00 0.0 
2.367839450246e+01 -8.188385218643e+00 0.0 
3.814894930468e+01 -1.390748338767e+01 0.0 
2.466448215774e+01 -1.685878545680e+01 0.0 
4.134044524611e+01 -1.806610045954e+01 0.0 
2.600511411958e+01 -9.801774120648e+00 0.0 
7.882158050716e+00 -1.582364037353e+01 0.0 
3.881607873422e+01 -1.737970515013e+01 0.0 
8.270182347708e+00 -1.088622154920e+01 0.0 
8.672520392520e-01 -4.532984309881e+00 0.0 
1.993447205337e+01 -3.579061902667e+00 0.0 
1.794616079549e+01 -7.238038888498e+00 0.0 
2.097277068165e+01 -1.132450168636e+01 0.0 
8.194803300681e+00 -1.187214224265e+01 0.0 
3.522279404911e+01 -1.823342818178e+01 0.0 
6.984481050295e+00 -1.625271465557e+01 0.0 
1.309433007797e+01 -1.521718594215e+01 0.0 
2.150246167611e+01 -1.885399038185e+00 0.0 
3.250689370209e+01 -1.028789870535e+01 0.0 
6.085886272238e+00 -1.668342132851e+01 0.0 
1.588455661727e+01 -1.193498985921e+01 0.0 
1.809323400821e+01 -1.651110084195e+01 0.0 
1.348885082381e+00 -1.136065576512e+01 0.0 
2.497670221995e+01 -1.834631276173e+01 0.0 
2.937062818424e+01 -8.233711194470e+00 0.0 
5.185823744469e+00 -1.711566910207e+01 0.0 
1.477497877209e+01 -1.530177014512e+01 0.0 
2.125346158933e+01 -7.473003997367e+00 0.0 
4.751561118290e+01 -1.084897772632e+01 0.0 
5.056026576843e+00 -1.825750475525e+01 0.0 
1.473948554523e+01 -1.634577436309e+01 0.0 
2.410566630936e+01 -1.345970002612e+01 0.0 
1.507337507513e+01 -1.138527895328e+01 0.0 
3.189857338687e+01 -8.887781229006e+00 0.0 
7.298712468334e+00 -1.230231046246e+01 0.0 
2.738235495295e+01 -1.368931690364e+01 0.0 
3.750141041969e+01 -1.920449893070e+01 0.0 
1.557271965640e+01 -1.683317951731e+01 0.0 
3.393731848929e+01 -1.413034777044e+01 0.0 
6.482156824153e+00 -1.174575135362e+01 0.0 
2.077971718439e+01 -1.421279621836e+01 0.0 
3.455084320178e+00 -2.562590040585e+00 0.0 
3.099056096250e+01 -9.270280416035e+00 0.0 
5.580176125418e+00 -1.217387969259e+01 0.0 
1.707247630389e+01 -7.660651981710e+00 0.0 
1.418658814174e+01 -1.180390575393e+01 0.0 
2.049103025389e+01 -1.811296706038e+01 0.0 
4.680386172316e+00 -1.260396879301e+01 0.0 
1.699679896554e+01 -8.624561788199e+00 0.0 
3.779470168555e+00 -1.303424899720e+01 0.0 
3.036589870126e+01 -7.879832518349e+00 0.0 
3.306993001774e+01 -1.457671062095e+01 0.0 
2.840150110165e+00 -1.346530088269e+01 0.0 
2.732011135052e+01 -1.464591214560e+01 0.0 
5.423639259568e+00 -2.659711955016e+00 0.0 
2.324455961696e+01 -1.387269388211e+01 0.0 
1.752768355571e+00 -1.693128613594e+01 0.0 
1.020244783051e+01 -8.076834012808e+00 0.0 
1.330873875224e+01 -1.222417528206e+01 0.0 
3.297727364880e+01 -1.555480372087e+01 0.0 
2.890929955439e+01 -6.868664170731e+00 0.0 
1.323294664622e+01 -1.320754260334e+01 0.0 
2.726532861246e+01 -1.560593120806e+01 0.0 
2.240020643398e+01 -1.429299177247e+01 0.0 
2.090445823633e+01 -1.228128621332e+01 0.0 
1.315809881502e+01 -1.420739326938e+01 0.0 
2.781328038068e+01 -7.181956082300e+00 0.0 
8.614200829057e+00 -5.936933226306e+00 0.0 
8.714765730069e+00 -4.979270529687e+00 0.0 
1.611881701099e+01 -9.041973294003e+00 0.0 
2.806830314340e+01 -1.614622947108e+01 0.0 
2.084435391396e+00 -3.385085422913e+00 0.0 
3.133211811152e+01 -1.542347619750e+01 0.0 
9.693114650768e+00 -3.590281506442e+00 0.0 
1.531883592202e+01 -8.504584946143e+00 0.0 
2.151589117094e+01 -1.578915763018e+01 0.0 
4.918943882696e+01 -1.355538828056e+01 0.0 
1.443236615188e+01 -8.918701794549e+00 0.0 
8.276250966452e-01 -5.537685192197e+00 0.0 
1.362790867918e+01 -8.374718262212e+00 0.0 
2.083767477370e+01 -1.324843956035e+01 0.0 
1.273834678703e+01 -8.790890389337e+00 0.0 
1.192275845670e+01 -8.242261327467e+00 0.0 
4.477236023583e+01 -1.824312396664e+01 0.0 
1.102989384254e+01 -8.649855800911e+00 0.0 
4.849096516045e+01 -1.917293752213e+01 0.0 
1.588996752238e+00 -1.910230934687e+01 0.0 
4.904245197583e+01 -1.159839008158e+01 0.0 
2.753852929608e+01 -5.782128488093e+00 0.0 
1.756133602833e+01 -8.306130313187e-01 0.0 
2.615423700951e+01 -6.153865090092e+00 0.0 
1.028818761294e+01 -7.122020845892e+00 0.0 
2.970818901196e+01 -1.527821347593e+01 0.0 
4.801461623449e+01 -1.164472570985e+01 0.0 
9.455722100419e+00 -6.546069291118e+00 0.0 
3.089099236677e+01 -1.835339328261e+01 0.0 
2.350000000013e+01 -1.920825896750e+01 0.0 
4.830620531887e+01 -1.506626155470e+01 0.0 
1.725381944701e+01 -1.688794487850e+01 0.0 
2.156246225273e+01 -1.475893794002e+01 0.0 
4.919319648787e+01 -1.742767505896e+01 0.0 
4.437935623576e+01 -1.077662927266e+01 0.0 
1.001520521978e+01 -1.652692675208e+00 0.0 
9.067160240050e-01 -1.441937727541e+01 0.0 
2.603365149390e+01 -4.755996613848e+00 0.0 
2.458344439002e+01 -4.873645517696e+00 0.0 
2.304312390142e+01 -3.836552768096e+00 0.0 
2.546923202198e+00 -6.902480355749e+00 0.0 
1.251534969393e+01 -2.490989965776e+00 0.0 
2.454061833377e+01 -3.933354231935e+00 0.0 
1.788186558740e+01 -1.827424884923e+01 0.0 
4.090785243552e+01 -1.166553231904e+01 0.0 
2.230128851568e+01 -1.623015738726e+01 0.0 
2.302362347568e+01 -2.916239960270e+00 0.0 
3.878119254461e+01 -1.830091164002e+01 0.0 
2.210081359958e+01 -1.829238229150e+01 0.0 
8.443704882233e+00 -1.921993252862e+01 0.0 
2.218405824691e+01 -1.724557581508e+01 0.0 
2.151157503963e+01 -2.790636689331e+00 0.0 
3.741658958955e+01 -1.250400191722e+01 0.0 
2.697247663737e+01 -1.838290202309e+01 0.0 
4.743362342862e+01 -1.585850773010e+01 0.0 
6.671345075358e+00 -1.924977576322e+01 0.0 
3.900825404537e+01 -1.157220003875e+01 0.0 
4.649692961375e+01 -1.836335837481e+01 0.0 
1.578831424832e+01 -3.678284023361e+00 0.0 
4.814208768888e+01 -1.841249298770e+01 0.0 
2.964123298315e+01 -1.625739458193e+01 0.0 
4.580760351902e+01 -1.284294554687e+01 0.0 
3.561520879615e+01 -1.245548941949e+01 0.0 
2.555418095658e+00 -1.841101588290e+01 0.0 
3.288468366144e+01 -1.834258164109e+01 0.0 
2.065894391445e+01 -2.240688571739e+00 0.0 
4.739171429915e+01 -1.496536413446e+01 0.0 
3.478086729185e+00 -8.576434653209e+00 0.0 
1.606010630246e+01 -1.588421807951e+00 0.0 
1.018329200594e+01 -1.834320874317e+01 0.0 
2.957213339430e+01 -1.720496954591e+01 0.0 
4.142712790164e+00 -1.837794506222e+01 0.0 
6.698721532573e-01 -2.499999999997e+00 0.0 
8.037039123140e+00 -1.571229354954e+00 0.0 
1.203541361428e+01 -1.847784298001e+01 0.0 
2.899968332038e+01 -1.848264722179e+01 0.0 
1.469229460948e+01 -4.219485753730e+00 0.0 
4.049590781957e+01 -1.932812501995e+01 0.0 
1.996211678340e+01 -1.506329754720e+00 0.0 
4.250588298353e+01 -1.067383247529e+01 0.0 
5.831497011152e+00 -1.635396227234e+00 0.0 
5.317606125670e+00 -1.923927974868e+01 0.0 
4.208546426993e+01 -1.842830665025e+01 0.0 
2.327553405011e+00 -9.459409929662e+00 0.0 
3.568351902251e+01 -1.096637218582e+01 0.0 
1.682104374890e+00 -6.231413350963e+00 0.0 
2.451812238018e+01 -1.766524914339e+01 0.0 
1.058003429638e+01 -2.391839617098e+00 0.0 
4.399988753123e+01 -1.851998776342e+01 0.0 
1.400000000010e+01 -1.852293523028e+01 0.0 
3.604719565984e+01 -1.850662876800e+01 0.0 
1.951297136734e+01 -1.938092349694e+01 0.0 
1.821365318472e+01 -1.531276353287e+00 0.0 
2.298031859732e+01 -1.854635324722e+01 0.0 
1.552168066204e+01 -1.764280741977e+01 0.0 
4.572957713638e+01 -1.073347898229e+01 0.0 
3.429637429624e+01 -1.838861552790e+01 0.0 
2.427434426052e+00 -7.705577451869e+00 0.0 
4.662792031485e+00 -3.359424455416e+00 0.0 
4.926794919243e+01 -1.926794919243e+01 0.0 
7.320508075690e-01 -7.320508075688e-01 0.0 
4.926794919243e+01 -1.073205080757e+01 0.0 
7.320508075705e-01 -1.926794919243e+01 0.0 
2.917460242467e+00 -3.202866455310e+00 0.0 
4.838200575963e+01 -1.232674147454e+01 0.0 
2.998445708009e+01 -1.854403752148e+01 0.0 
5.949940090766e-01 -1.152762038165e+01 0.0 
4.844763495759e+01 -1.678092548787e+01 0.0 
1.301685480160e+01 -3.170056592566e+00 0.0 
1.650046335855e+01 -6.731535384067e-01 0.0 
4.854881540991e+01 -1.405224059779e+01 0.0 
2.119545114693e+01 -1.846813384545e+01 0.0 
3.797852849897e+01 -1.857978513215e+01 0.0 
4.649823708745e+01 -1.338351810816e+01 0.0 
2.012685900976e+01 -2.889659035009e+00 0.0 
2.953271913273e+01 -1.791558075192e+01 0.0 
2.408509097292e+00 -1.021949208421e+01 0.0 
2.642589566221e+01 -1.773216561448e+01 0.0 
1.730010270775e+01 -1.763165076721e+01 0.0 
2.017406551304e+01 -8.513536440582e-01 0.0 
5.254761581934e-01 -1.249999999999e+01 0.0 
6.640448215642e+00 -1.545337834885e+00 0.0 
7.843361506349e+00 -1.852719839527e+01 0.0 
1.588442191088e+00 -1.066158564320e+01 0.0 
2.131250000000e+01 -4.209183673460e-01 0.0 
4.950862068966e+01 -5.000000000001e-01 0.0 
2.280866189488e+01 -1.416779325160e+00 0.0 
4.950862068966e+01 -1.500000000000e+00 0.0 
2.431250000000e+01 -2.420918367347e+00 0.0 
4.950961538461e+01 -2.500000000000e+00 0.0 
2.580823483239e+01 -3.416278049680e+00 0.0 
4.950961538461e+01 -3.500000000000e+00 0.0 
2.731250000000e+01 -4.420918367347e+00 0.0 
4.951086956522e+01 -4.500000000000e+00 0.0 
2.880770112393e+01 -5.415638864241e+00 0.0 
4.951086956522e+01 -5.500000000000e+00 0.0 
3.031250000000e+01 -6.420918367347e+00 0.0 
4.951250000000e+01 -6.500000000000e+00 0.0 
3.180701530612e+01 -7.414795918363e+00 0.0 
4.951250000000e+01 -7.500000000000e+00 0.0 
3.331250000000e+01 -8.420918367347e+00 0.0 
4.951470588234e+01 -8.500000000000e+00 0.0 
3.480610198624e+01 -9.413633635267e+00 0.0 
4.951470588234e+01 -9.500000000000e+00 0.0 

SCALARS node_number int
LOOKUP_TABLE default
1
2
3
4
5
6
7
8
9
10
11
12
13
14
15
16
17
18
19
20
21
22
23
24
25
26
27
28
29
30
31
32
33
34
35
36
37
38
39
40
41
42
43
44
45
46
47
48
49
50
51
52
53
54
55
56
57
58
59
60
61
62
63
64
65
66
67
68
69
70
71
72
73
74
75
76
77
78
79
80
81
82
83
84
85
86
87
88
89
90
91
92
93
94
95
96
97
98
99
100
101
102
104
105
106
107
108
109
110
111
112
113
114
115
116
117
118
119
120
121
122
123
124
125
126
127
128
129
130
131
132
133
134
135
136
137
138
139
140
141
142
143
144
145
146
147
148
149
150
151
152
153
154
155
156
157
158
159
160
161
162
163
164
165
166
167
168
169
170
171
172
173
174
175
176
177
178
179
180
181
182
183
184
185
186
187
188
189
190
191
192
193
194
195
196
197
198
199
200
201
202
203
204
205
206
207
208
209
210
211
212
213
214
215
216
217
218
219
220
221
222
223
224
225
226
227
228
229
230
231
232
233
234
235
236
237
238
239
240
241
242
243
244
245
246
247
248
249
250
251
252
253
254
255
256
257
258
259
260
261
262
263
264
265
266
267
268
269
270
271
272
273
274
275
276
277
278
279
280
281
282
283
284
285
286
287
288
289
290
291
292
293
294
295
296
297
298
299
300
301
302
303
304
305
306
307
308
309
310
311
312
313
314
315
316
317
318
319
320
321
322
323
324
325
326
327
328
329
330
331
332
333
334
335
336
337
338
339
340
341
342
343
344
345
346
347
348
349
350
351
352
353
354
355
356
357
358
359
360
361
362
363
364
365
366
367
368
369
370
371
372
373
374
375
376
377
378
379
380
381
382
383
384
385
386
387
388
389
390
391
392
393
394
395
396
397
398
399
400
401
402
403
404
405
406
407
408
409
410
411
412
413
414
415
416
417
418
419
420
421
422
423
424
425
426
427
428
429
430
431
432
433
434
435
436
437
438
439
440
441
442
443
444
445
446
447
448
449
450
451
452
453
454
455
456
457
458
459
460
461
462
463
464
465
466
467
468
469
470
471
472
473
474
475
476
477
478
479
480
481
482
483
484
485
486
487
488
489
490
491
492
493
494
495
496
497
498
499
500
501
502
503
504
505
506
507
508
509
510
511
512
513
514
515
516
517
518
519
520
521
522
523
524
525
526
527
528
529
530
531
532
533
534
535
536
537
538
539
540
541
542
543
544
545
546
547
548
549
550
551
552
553
554
555
556
557
558
559
560
561
562
563
564
565
566
567
568
569
570
571
572
573
574
575
576
577
578
579
580
581
582
583
584
585
586
587
588
589
590
591
592
593
594
595
596
597
598
599
600
601
602
603
604
605
606
607
608
609
610
611
612
613
614
615
616
617
618
619
620
621
622
623
624
625
626
627
628
629
630
631
632
633
634
635
636
637
638
639
640
641
642
643
644
645
646
647
648
649
650
651
652
653
654
655
656
657
658
659
660
661
662
663
664
665
666
667
668
669
670
671
672
673
674
675
676
677
678
679
680
681
682
683
684
685
686
687
688
689
690
691
692
693
694
695
696
697
698
699
700
701
702
703
704
705
706
707
708
709
710
711
712
713
714
715
716
717
718
719
720
721
722
723
724
725
726
727
728
729
730
731
732
733
734
735
736
737
738
739
740
741
742
743
744
745
746
747
748
749
750
751
752
753
754
755
756
757
758
759
760
761
762
763
764
765
766
767
768
769
770
771
772
773
774
775
776
777
778
779
780
781
782
783
784
785
786
787
788
789
790
791
792
793
794
795
796
797
798
799
800
801
802
803
804
805
806
807
808
809
810
811
812
813
814
815
816
817
818
819
820
821
822
823
824
825
826
827
828
829
830
831
832
833
834
835
836
837
838
839
840
841
842
843
844
845
846
847
848
849
850
851
852
853
854
855
856
857
858
859
860
861
862
863
864
865
866
867
868
869
870
871
872
873
874
875
876
877
878
879
880
881
882
883
884
885
886
887
888
889
890
891
892
893
894
895
896
897
898
899
900
901
902
903
904
905
906
907
908
909
910
911
912
913
914
915
916
917
918
919
920
921
922
923
924
925
926
927
928
929
930
931
932
933
934
935
936
937
938
939
940
941
942
943
944
945
946
947
948
949
950
951
952
953
954
955
956
957
958
959
960
961
962
963
964
965
966
967
968
969
970
971
972
973
974
975
976
977
978
979
980
981
982
983
984
985
986
987
988
989
990
991
992
993
994
995
996
997
998
999
1000
1001
1002
1003
1004
1005
1006
1007
1008
1009
1010
1011
1012
1013
1014
1015
1016
1017
1018
1019
1020
1021
1022
1023
1024
1025
1026
1027
1028
1029
1030
1031
1032
1033
1034
1035
1036
1037
1038
1039
1040
1041
1042
1043
1044
1045
1046
1047
1048
1049
1050
1051
1052
1053
1054
1055
1056
1057
1058
1059
1060
1061
1062
1063
1064
1065
1066
1067
1068
1069
1070
1071
1072
1073
1074
1075
1076
1077
1078
1079
1080
1081
1082
1083
1084
1085
1086
1087
1088
1089
1090
1091
1092
1093
1094
1095
1096
1097
1098
1099
1100
1101
1102
1103
1104
1105
1106
1107
1108
1109
1110
1111
1112
1113
1114
1115
1116
1117
1118
1119
1120
1121
1122
1123
1124
1125
1126
1127
1128
1129
1130
1131
1132
1133
1134
1135
1136
1137
1138
1139
1140
1141
1142
1143
1144
1145
1146
1147
1148
1149
1150
1151
1152
1153
1154
1155
1156
1157
1158
1159
1160
1161
1162
1163
1164
1165
1166
1167
1168
1169
1170
1171
1172
1173
1174
1175
1176
1177
1178
1179
1180
1181
1182
1183
1184
1185
1186
1187
1188
1189
1190
1191
1192
1193
1194
1195
1196
1197
1198
1199
1200
1201
1202
1203
1204
1205
1206
1207
1208
1209
1210
1211
1212
1213
1214
1215
1216
1217
1218
1219
1220
1221
1222
1223
1224
1225
1226
1227
1228
1229
1230
1231
1232
1233
1234
1235
1236
1237
1238
1239
1240
1241
1242
1243
1244
1245
1246
1247
1248
1249
1250
1251
1252
1253
1254
1255
1256
1257
1258
1259
1260
1261
1262
1263
1264
1265
1266
1267
1268
1269
1270
1271
1272
1273
1274
1275
1276
1277
1278
1279
1280
1281
1282
1283
1284

VECTORS node_mesh_deformation float
0.0 7.950910381591e-02 0.0 
0.000000000000e+00 6.326752397459e-02 0.0 
0.0 0.000000000000e+00 0.0 
0.000000000000e+00 0.000000000000e+00 0.0 
0.0 7.966590894057e-02 0.0 
0.0 7.930596688018e-02 0.0 
0.0 7.844658124786e-02 0.0 
0.0 7.709327257618e-02 0.0 
0.0 7.523374350604e-02 0.0 
0.0 7.291561585318e-02 0.0 
0.0 7.016385975274e-02 0.0 
0.0 6.699425830828e-02 0.0 
0.0 6.342781395221e-02 0.0 
0.0 5.947634201983e-02 0.0 
0.0 5.514294549572e-02 0.0 
0.0 5.043773183320e-02 0.0 
0.0 4.537216851016e-02 0.0 
0.0 3.996069782957e-02 0.0 
0.0 3.418038072683e-02 0.0 
0.0 2.804124794383e-02 0.0 
0.0 2.154821361380e-02 0.0 
0.0 1.470346082549e-02 0.0 
0.0 7.516719209473e-03 0.0 
0.000000000000e+00 0.000000000000e+00 0.0 
0.000000000000e+00 0.000000000000e+00 0.0 
0.000000000000e+00 0.000000000000e+00 0.0 
0.000000000000e+00 0.000000000000e+00 0.0 
0.000000000000e+00 0.000000000000e+00 0.0 
0.000000000000e+00 0.000000000000e+00 0.0 
0.000000000000e+00 0.000000000000e+00 0.0 
0.000000000000e+00 0.000000000000e+00 0.0 
0.000000000000e+00 0.000000000000e+00 0.0 
0.000000000000e+00 0.000000000000e+00 0.0 
0.000000000000e+00 0.000000000000e+00 0.0 
0.000000000000e+00 0.000000000000e+00 0.0 
0.000000000000e+00 0.000000000000e+00 0.0 
0.000000000000e+00 0.000000000000e+00 0.0 
0.000000000000e+00 0.000000000000e+00 0.0 
0.000000000000e+00 0.000000000000e+00 0.0 
0.000000000000e+00 0.000000000000e+00 0.0 
0.000000000000e+00 0.000000000000e+00 0.0 
0.000000000000e+00 0.000000000000e+00 0.0 
0.000000000000e+00 0.000000000000e+00 0.0 
0.000000000000e+00 0.000000000000e+00 0.0 
0.000000000000e+00 0.000000000000e+00 0.0 
0.000000000000e+00 0.000000000000e+00 0.0 
0.000000000000e+00 0.000000000000e+00 0.0 
0.000000000000e+00 0.000000000000e+00 0.0 
0.000000000000e+00 0.000000000000e+00 0.0 
0.000000000000e+00 0.000000000000e+00 0.0 
0.000000000000e+00 0.000000000000e+00 0.0 
0.000000000000e+00 0.000000000000e+00 0.0 
0.000000000000e+00 0.000000000000e+00 0.0 
0.000000000000e+00 0.000000000000e+00 0.0 
0.000000000000e+00 0.000000000000e+00 0.0 
0.000000000000e+00 0.000000000000e+00 0.0 
0.000000000000e+00 0.000000000000e+00 0.0 
0.000000000000e+00 0.000000000000e+00 0.0 
0.000000000000e+00 0.000000000000e+00 0.0 
0.000000000000e+00 0.000000000000e+00 0.0 
0.000000000000e+00 0.000000000000e+00 0.0 
0.000000000000e+00 0.000000000000e+00 0.0 
0.000000000000e+00 0.000000000000e+00 0.0 
0.000000000000e+00 0.000000000000e+00 0.0 
0.000000000000e+00 0.000000000000e+00 0.0 
0.000000000000e+00 0.000000000000e+00 0.0 
0.000000000000e+00 0.000000000000e+00 0.0 
0.000000000000e+00 0.000000000000e+00 0.0 
0.000000000000e+00 0.000000000000e+00 0.0 
0.000000000000e+00 0.000000000000e+00 0.0 
0.000000000000e+00 0.000000000000e+00 0.0 
0.000000000000e+00 0.000000000000e+00 0.0 
0.000000000000e+00 5.879440712440e-02 0.0 
0.000000000000e+00 5.389912091947e-02 0.0 
0.000000000000e+00 4.857913361929e-02 0.0 
0.000000000000e+00 4.285030432906e-02 0.0 
0.000000000000e+00 3.670577369195e-02 0.0 
0.000000000000e+00 3.015813592841e-02 0.0 
0.000000000000e+00 2.320927654443e-02 0.0 
0.000000000000e+00 1.586287679697e-02 0.0 
0.000000000000e+00 8.125472860822e-03 0.0 
-6.390263404398e-03 2.911043102481e-02 0.0 
0.000000000000e+00 8.404774606031e-02 0.0 
4.654251970621e-03 6.104987409438e-02 0.0 
-6.879168187126e-04 4.526677066242e-02 0.0 
2.703424502734e-03 5.493249626237e-02 0.0 
4.504817373252e-03 6.131848588378e-02 0.0 
5.240492638233e-03 6.523223679542e-02 0.0 
5.587734381624e-03 6.738310110244e-02 0.0 
5.701866402394e-03 6.814478227776e-02 0.0 
5.637321526368e-03 6.774712253844e-02 0.0 
5.427166853579e-03 6.635529287491e-02 0.0 
5.091410730870e-03 6.408842635962e-02 0.0 
0.000000000000e+00 8.393643838898e-02 0.0 
0.000000000000e+00 8.336849822810e-02 0.0 
0.000000000000e+00 8.240062977490e-02 0.0 
0.000000000000e+00 8.096840647394e-02 0.0 
0.000000000000e+00 7.913100058704e-02 0.0 
0.000000000000e+00 7.681762641794e-02 0.0 
0.000000000000e+00 7.409875744637e-02 0.0 
0.000000000000e+00 7.090705319102e-02 0.0 
0.000000000000e+00 6.731633920632e-02 0.0 
2.671443874931e-04 6.326498511343e-02 0.0 
5.219401839440e-04 6.325533251466e-02 0.0 
7.858860236212e-04 6.323691404145e-02 0.0 
1.054853311885e-03 6.320183018910e-02 0.0 
1.327128511029e-03 6.316475916310e-02 0.0 
1.606929413235e-03 6.310078817828e-02 0.0 
1.897589209513e-03 6.302559594895e-02 0.0 
2.191244437519e-03 6.292163466128e-02 0.0 
2.506004762317e-03 6.280193061142e-02 0.0 
2.833633251541e-03 6.263667499994e-02 0.0 
3.171572162209e-03 6.243264897634e-02 0.0 
3.523371803226e-03 6.218565201399e-02 0.0 
3.886610656785e-03 6.187874257920e-02 0.0 
4.262505199804e-03 6.150012237597e-02 0.0 
-3.892880950229e-03 1.879310595597e-02 0.0 
-5.528247760225e-04 1.485001560899e-02 0.0 
2.943351042230e-03 1.484033177119e-02 0.0 
6.621384911970e-03 1.896848589286e-02 0.0 
8.998880007518e-03 2.946834153334e-02 0.0 
9.937236793991e-03 4.130152738869e-02 0.0 
9.908595579029e-03 4.944568640342e-02 0.0 
9.429800108247e-03 5.583551910711e-02 0.0 
8.467649386294e-03 6.097193483573e-02 0.0 
7.566738860728e-03 6.510062601845e-02 0.0 
6.739377730982e-03 6.846320042380e-02 0.0 
5.899057010831e-03 7.113761709874e-02 0.0 
5.148706357405e-03 7.333781848852e-02 0.0 
4.315815277620e-03 7.512019225322e-02 0.0 
3.534654921127e-03 7.654531306348e-02 0.0 
2.816427603379e-03 7.764110472272e-02 0.0 
2.128640502793e-03 7.848007061135e-02 0.0 
1.452573362966e-03 7.908493190190e-02 0.0 
7.331256395304e-04 7.941624841845e-02 0.0 
-7.830205774706e-03 4.137392767388e-02 0.0 
-7.393341418425e-03 4.923062818252e-02 0.0 
-7.053617874259e-03 5.549029305780e-02 0.0 
-6.310357811266e-03 6.063684363861e-02 0.0 
-5.404600564848e-03 6.476340499800e-02 0.0 
-4.668408081919e-03 6.811188813975e-02 0.0 
-3.971408990928e-03 7.085605689640e-02 0.0 
-3.327381401569e-03 7.312394251446e-02 0.0 
-2.748401446937e-03 7.501232020600e-02 0.0 
-2.234029792419e-03 7.659150879083e-02 0.0 
-1.782063479411e-03 7.791640460293e-02 0.0 
-1.385097929671e-03 7.902908863627e-02 0.0 
-1.039791246193e-03 7.996246081901e-02 0.0 
-7.425434327288e-04 8.074316531520e-02 0.0 
-4.905054811815e-04 8.139382925678e-02 0.0 
-2.817661341865e-04 8.193410836846e-02 0.0 
-1.156096114272e-04 8.238095929040e-02 0.0 
1.487961219482e-05 8.274904586419e-02 0.0 
1.198142090928e-04 8.305037566909e-02 0.0 
1.991880118624e-04 8.329437777922e-02 0.0 
2.542355021475e-04 8.348999346591e-02 0.0 
2.868385663177e-04 8.364508184987e-02 0.0 
2.992253046301e-04 8.376636227689e-02 0.0 
2.937742973899e-04 8.385946129991e-02 0.0 
2.728147226350e-04 8.392900544686e-02 0.0 
2.382950726272e-04 8.397882180656e-02 0.0 
1.911026239725e-04 8.401250212415e-02 0.0 
1.294993371417e-04 8.403542417473e-02 0.0 
3.461327722931e-05 8.404726223664e-02 0.0 
8.713688858819e-05 8.388976718366e-02 0.0 
1.650581165293e-04 8.385731767112e-02 0.0 
2.284267287180e-04 8.383715724983e-02 0.0 
2.878746277730e-04 8.380764302861e-02 0.0 
3.413622139519e-04 8.376376324849e-02 0.0 
3.864428341416e-04 8.370210212581e-02 0.0 
4.211541326384e-04 8.361904507406e-02 0.0 
4.438152449637e-04 8.351024827574e-02 0.0 
4.529307621084e-04 8.337044250357e-02 0.0 
4.471673897939e-04 8.319334412176e-02 0.0 
4.253441966924e-04 8.297160975343e-02 0.0 
3.863777435811e-04 8.269686390484e-02 0.0 
3.290866116288e-04 8.235996996018e-02 0.0 
2.517492090490e-04 8.195189682998e-02 0.0 
1.525252174090e-04 8.145878310952e-02 0.0 
3.063784306079e-05 8.086375667752e-02 0.0 
-1.136264810668e-04 8.014897170590e-02 0.0 
-2.796992483241e-04 7.929383459303e-02 0.0 
-4.661785058850e-04 7.827404875772e-02 0.0 
-6.701872500301e-04 7.706005075705e-02 0.0 
-8.873636910600e-04 7.561492381301e-02 0.0 
-1.109824389385e-03 7.389005928262e-02 0.0 
-1.325339795855e-03 7.182274719759e-02 0.0 
-1.513873213604e-03 6.933234289638e-02 0.0 
-1.653762078927e-03 6.630768916290e-02 0.0 
-1.704752127367e-03 6.261678406622e-02 0.0 
-1.599122671916e-03 5.799445844587e-02 0.0 
-1.355505804614e-03 5.230361466434e-02 0.0 
2.069481613752e-03 6.009984033809e-02 0.0 
1.600487707361e-03 6.426849108439e-02 0.0 
1.238806452051e-03 6.763337544221e-02 0.0 
9.985689958967e-04 7.039320599804e-02 0.0 
8.556329349467e-04 7.267282392377e-02 0.0 
7.775761621787e-04 7.456273712627e-02 0.0 
7.450980119650e-04 7.613572427256e-02 0.0 
7.408766396857e-04 7.744820568222e-02 0.0 
7.529144050551e-04 7.854443710454e-02 0.0 
7.717534743890e-04 7.945896677757e-02 0.0 
7.909443355061e-04 8.021973892035e-02 0.0 
8.059560332896e-04 8.085013519670e-02 0.0 
8.138899967420e-04 8.137009807838e-02 0.0 
8.130577737333e-04 8.179754978059e-02 0.0 
8.023737265077e-04 8.214771873416e-02 0.0 
7.811594000415e-04 8.243206548112e-02 0.0 
7.496006395726e-04 8.266040477909e-02 0.0 
7.080871818061e-04 8.284167195234e-02 0.0 
6.571452362678e-04 8.298378033298e-02 0.0 
5.974634547670e-04 8.309357029321e-02 0.0 
5.299169665705e-04 8.317685258865e-02 0.0 
4.555909355943e-04 8.323853251941e-02 0.0 
3.758189303014e-04 8.328288330137e-02 0.0 
2.922416298574e-04 8.331425586226e-02 0.0 
2.068787886245e-04 8.333977380869e-02 0.0 
1.226973807746e-04 8.338760940842e-02 0.0 
3.831552670711e-03 6.498115539489e-02 0.0 
3.301470643223e-03 6.798241547031e-02 0.0 
2.876201838184e-03 7.046709070448e-02 0.0 
2.537088594977e-03 7.254515030797e-02 0.0 
2.271779567387e-03 7.427570087888e-02 0.0 
2.064965769108e-03 7.572508839772e-02 0.0 
1.903227968608e-03 7.693622782775e-02 0.0 
1.773302595446e-03 7.794945554443e-02 0.0 
1.664603416231e-03 7.879472672342e-02 0.0 
1.569780114600e-03 7.949810053119e-02 0.0 
1.483266767821e-03 8.008088305164e-02 0.0 
1.401153454715e-03 8.056177638391e-02 0.0 
1.320399405628e-03 8.095685095795e-02 0.0 
1.238624434535e-03 8.127966196650e-02 0.0 
1.154339729624e-03 8.154128587709e-02 0.0 
1.066757204569e-03 8.175117617814e-02 0.0 
9.754696280453e-04 8.191768354633e-02 0.0 
8.803256190362e-04 8.204814248354e-02 0.0 
7.813864519832e-04 8.214891086621e-02 0.0 
6.789136345020e-04 8.222544404595e-02 0.0 
5.733586566592e-04 8.228242593208e-02 0.0 
4.653248662692e-04 8.232399544968e-02 0.0 
3.553507500129e-04 8.235405764211e-02 0.0 
2.428249675575e-04 8.237532578630e-02 0.0 
1.228156843496e-04 8.236673674438e-02 0.0 
1.475141347527e-04 8.099588774835e-02 0.0 
2.930365224216e-04 8.096504129225e-02 0.0 
4.361438241531e-04 8.094317091562e-02 0.0 
5.780599271574e-04 8.091260346559e-02 0.0 
7.193903393059e-04 8.086965697168e-02 0.0 
8.603578107582e-04 8.081055726406e-02 0.0 
1.001079784331e-03 8.073097042074e-02 0.0 
1.141721876259e-03 8.062582542084e-02 0.0 
1.282606827807e-03 8.048915573937e-02 0.0 
1.424268962460e-03 8.031399760267e-02 0.0 
1.567517788821e-03 8.009228345485e-02 0.0 
1.713535728520e-03 7.981471290008e-02 0.0 
1.864069362568e-03 7.947044745117e-02 0.0 
2.021704308326e-03 7.904670683519e-02 0.0 
2.189704598756e-03 7.852829751714e-02 0.0 
2.372310250301e-03 7.789747663382e-02 0.0 
2.574368780145e-03 7.713317263630e-02 0.0 
2.803007186181e-03 7.621154697450e-02 0.0 
3.065164215112e-03 7.510239104337e-02 0.0 
3.372674120381e-03 7.377329789898e-02 0.0 
3.732058841173e-03 7.217640324158e-02 0.0 
4.162848407084e-03 7.027508446299e-02 0.0 
4.648681175016e-03 6.799092668651e-02 0.0 
5.084325136394e-03 6.940347614652e-02 0.0 
4.647486329006e-03 7.111358898691e-02 0.0 
4.238766963848e-03 7.253750143335e-02 0.0 
3.877292681498e-03 7.374347222159e-02 0.0 
3.550716670652e-03 7.474850208358e-02 0.0 
3.256952375679e-03 7.559023587429e-02 0.0 
2.988936824394e-03 7.628857280848e-02 0.0 
2.742832125485e-03 7.686719361396e-02 0.0 
2.514200533163e-03 7.734320883120e-02 0.0 
2.299592464269e-03 7.773289572146e-02 0.0 
2.095913279966e-03 7.804958889217e-02 0.0 
1.900920047973e-03 7.830517125423e-02 0.0 
1.712835605169e-03 7.850957761888e-02 0.0 
1.530241037813e-03 7.867135228938e-02 0.0 
1.352026941795e-03 7.879790108886e-02 0.0 
1.177332248162e-03 7.889559680450e-02 0.0 
1.005522318735e-03 7.896991161586e-02 0.0 
8.360212887339e-04 7.902538958920e-02 0.0 
6.682306285484e-04 7.906579418917e-02 0.0 
5.013939996630e-04 7.909408552334e-02 0.0 
3.345613789776e-04 7.911118552232e-02 0.0 
1.672941077189e-04 7.909752456447e-02 0.0 
1.951749096492e-04 7.684501446057e-02 0.0 
3.901689550361e-04 7.681597446621e-02 0.0 
5.859111161541e-04 7.679632597721e-02 0.0 
7.833280907477e-04 7.676668566390e-02 0.0 
9.834770242563e-04 7.672391111761e-02 0.0 
1.187372573412e-03 7.666491520473e-02 0.0 
1.396032034620e-03 7.658576853246e-02 0.0 
1.610336287051e-03 7.648170705514e-02 0.0 
1.831270405560e-03 7.634667528535e-02 0.0 
2.060113278482e-03 7.617364737139e-02 0.0 
2.298425900150e-03 7.595441029770e-02 0.0 
2.547909667172e-03 7.567958189408e-02 0.0 
2.810453990591e-03 7.533820599942e-02 0.0 
3.088140322681e-03 7.491663945015e-02 0.0 
3.384677768928e-03 7.440038350904e-02 0.0 
3.702175953485e-03 7.377131038624e-02 0.0 
4.046088351146e-03 7.301256860595e-02 0.0 
4.414668678052e-03 7.209511655279e-02 0.0 
4.819024160913e-03 7.100676113185e-02 0.0 
5.238859190090e-03 6.969420546907e-02 0.0 
5.217118791336e-03 6.888041935993e-02 0.0 
4.824904725055e-03 6.985131671453e-02 0.0 
4.435828335929e-03 7.065046005433e-02 0.0 
4.073077926940e-03 7.132988450948e-02 0.0 
3.729081131105e-03 7.188923007034e-02 0.0 
3.405707676805e-03 7.235327711388e-02 0.0 
3.098496192386e-03 7.273120893639e-02 0.0 
2.806634063582e-03 7.303924929211e-02 0.0 
2.528546990831e-03 7.328842256884e-02 0.0 
2.262929901860e-03 7.348806620814e-02 0.0 
2.008264198906e-03 7.364621297171e-02 0.0 
1.762710629535e-03 7.377013110092e-02 0.0 
1.525368894939e-03 7.386640883209e-02 0.0 
1.295284942891e-03 7.394042365444e-02 0.0 
1.071287598620e-03 7.399593564298e-02 0.0 
8.521166103819e-04 7.403635243361e-02 0.0 
6.366905187178e-04 7.406421232996e-02 0.0 
4.235531764607e-04 7.408027950898e-02 0.0 
2.115620354957e-04 7.406594956701e-02 0.0 
2.361971575624e-04 7.093296540940e-02 0.0 
4.726793833854e-04 7.090525647893e-02 0.0 
7.103742235657e-04 7.088668466774e-02 0.0 
9.520791560433e-04 7.085651663462e-02 0.0 
1.198315197982e-03 7.081325977268e-02 0.0 
1.451236941278e-03 7.075339775934e-02 0.0 
1.711783514473e-03 7.067378585716e-02 0.0 
1.982259886134e-03 7.057042784139e-02 0.0 
2.262101984947e-03 7.043845356370e-02 0.0 
2.553825591058e-03 7.026842209878e-02 0.0 
2.859386746643e-03 7.005344819200e-02 0.0 
3.179190052478e-03 6.978577855625e-02 0.0 
3.514605268577e-03 6.945467615905e-02 0.0 
3.867197005746e-03 6.904940308446e-02 0.0 
4.233617950895e-03 6.854674068496e-02 0.0 
4.624750638854e-03 6.794743583888e-02 0.0 
5.016149695066e-03 6.721325589467e-02 0.0 
4.706898420750e-03 6.469949774408e-02 0.0 
4.337639714848e-03 6.523385475526e-02 0.0 
3.964099176955e-03 6.565370263192e-02 0.0 
3.609038178020e-03 6.600694733836e-02 0.0 
3.269176354323e-03 6.629571134130e-02 0.0 
2.942578134963e-03 6.653028039498e-02 0.0 
2.629805510864e-03 6.672184534608e-02 0.0 
2.330772126243e-03 6.687329477008e-02 0.0 
2.041701030350e-03 6.698878784449e-02 0.0 
1.764935983900e-03 6.708482058510e-02 0.0 
1.496150894305e-03 6.715701565291e-02 0.0 
1.236745925624e-03 6.721347498743e-02 0.0 
9.819143489196e-04 6.725237307795e-02 0.0 
7.335445248131e-04 6.728180521491e-02 0.0 
4.892804287380e-04 6.729575671896e-02 0.0 
2.422346298019e-04 6.727866155372e-02 0.0 
-2.999450714508e-03 3.841309954879e-02 0.0 
1.237544472087e-03 5.053653772677e-02 0.0 
3.778645788472e-03 5.847462557921e-02 0.0 
4.966121032894e-03 6.353521796467e-02 0.0 
5.461996869979e-03 6.650124359158e-02 0.0 
5.674003575447e-03 6.791521625811e-02 0.0 
5.694817888791e-03 6.807686386091e-02 0.0 
5.554409857492e-03 6.716739432515e-02 0.0 
5.279861995071e-03 6.532492078329e-02 0.0 
4.889958057291e-03 6.266033449714e-02 0.0 
4.586037856992e-03 5.033741793446e-02 0.0 
-1.121023679929e-05 5.682938152038e-03 0.0 
4.524521461319e-03 6.323023254828e-02 0.0 
2.225693589438e-03 2.599919272918e-02 0.0 
-6.361585877439e-04 5.933878431126e-03 0.0 
6.290253824776e-03 6.236611958227e-02 0.0 
-5.776441573632e-04 5.720554087436e-02 0.0 
6.522481785076e-04 5.774056136477e-03 0.0 
6.379197473791e-03 6.573117902426e-02 0.0 
1.071086145942e-03 5.891391485992e-03 0.0 
5.918612130948e-03 6.422323647235e-02 0.0 
-6.396880607014e-04 5.746385146622e-03 0.0 
3.175658535570e-03 7.458173560129e-02 0.0 
1.184599730994e-03 6.318168287770e-03 0.0 
5.015350789556e-03 5.891140781424e-02 0.0 
-4.265503466964e-04 7.142000906858e-02 0.0 
-5.423286782789e-04 4.376390723042e-02 0.0 
1.127752915842e-03 6.826921267457e-03 0.0 
8.278396269361e-04 6.727739098388e-03 0.0 
2.745994983044e-04 6.954083216709e-03 0.0 
4.819435199792e-04 7.510718956564e-03 0.0 
6.176016084893e-04 6.669895948743e-03 0.0 
4.116930430477e-03 5.783578462136e-02 0.0 
2.713066371484e-03 5.872130492975e-02 0.0 
1.783352149118e-03 5.895067655822e-02 0.0 
1.855550826875e-04 3.973617333408e-02 0.0 
-4.998353222341e-04 6.417794787662e-03 0.0 
5.021656724864e-04 1.986413055054e-02 0.0 
1.736388031703e-03 7.820390264572e-02 0.0 
-3.619255316226e-04 2.531330638735e-02 0.0 
9.136984081692e-04 5.940461870770e-02 0.0 
-6.687254903537e-05 7.776113559459e-02 0.0 
1.103801782662e-03 7.652676146925e-03 0.0 
8.388624880347e-04 5.363003740630e-03 0.0 
1.150627804360e-03 6.017897584115e-03 0.0 
3.704704871197e-04 6.034390931120e-03 0.0 
-3.137024670128e-04 5.466035092851e-03 0.0 
3.776225013219e-03 4.553373729848e-02 0.0 
3.389838573028e-03 5.860899504327e-02 0.0 
-8.199081903904e-04 6.954027547238e-03 0.0 
1.367272233495e-04 2.703148467339e-02 0.0 
3.997071638002e-03 6.996875537145e-02 0.0 
-5.501212812574e-04 6.517961696553e-02 0.0 
1.350362560757e-04 5.674620250634e-03 0.0 
6.452842858021e-03 6.461045122859e-02 0.0 
5.886070591906e-03 5.782698536424e-02 0.0 
6.210547521754e-03 6.551027060626e-02 0.0 
5.515203263954e-03 6.198891020028e-02 0.0 
1.687139686332e-03 3.871507002116e-02 0.0 
2.198130325226e-04 5.065617375455e-02 0.0 
-2.388870893819e-04 5.143135407032e-03 0.0 
7.947407476272e-04 7.940939441089e-02 0.0 
7.487852501242e-05 1.263139306728e-02 0.0 
4.783888454362e-03 5.698662774838e-02 0.0 
5.041270882465e-03 5.477066426321e-02 0.0 
4.660670185338e-03 5.304786039684e-02 0.0 
4.951277565524e-03 5.031856294091e-02 0.0 
4.570291038412e-03 4.795643918602e-02 0.0 
4.766526756285e-03 4.538300034248e-02 0.0 
5.174746418191e-03 4.774206535350e-02 0.0 
4.915222268501e-03 4.273496108589e-02 0.0 
5.344443496952e-03 4.513468218672e-02 0.0 
4.346062062638e-03 4.276673234571e-02 0.0 
5.005190405612e-03 4.001943131826e-02 0.0 
5.450585126717e-03 4.245499370258e-02 0.0 
5.030102130057e-03 3.725681131187e-02 0.0 
5.482960938934e-03 3.971374416384e-02 0.0 
5.870754595183e-03 4.466536664982e-02 0.0 
5.906742539381e-03 4.195846349734e-02 0.0 
6.259924552570e-03 4.662376242492e-02 0.0 
6.292655914354e-03 4.393683519620e-02 0.0 
5.856382912679e-03 3.922371094387e-02 0.0 
6.228755721953e-03 4.123138915034e-02 0.0 
6.636836452785e-03 4.564401890356e-02 0.0 
6.549043925652e-03 4.295908691386e-02 0.0 
6.933884501436e-03 4.705827256377e-02 0.0 
6.810270039246e-03 4.437836541411e-02 0.0 
7.181549464590e-03 4.817100330906e-02 0.0 
7.009195703141e-03 4.549530809846e-02 0.0 
6.560018739791e-03 4.171958652409e-02 0.0 
6.696700947472e-03 4.287056171893e-02 0.0 
7.137713586594e-03 4.629033879380e-02 0.0 
6.746906895486e-03 4.370671388885e-02 0.0 
7.186938938744e-03 4.675239723374e-02 0.0 
6.698981551327e-03 4.422087524212e-02 0.0 
6.210042218299e-03 4.122487014988e-02 0.0 
6.056315959775e-03 4.184018838095e-02 0.0 
6.539373280578e-03 4.441677154721e-02 0.0 
5.774836120764e-03 4.217263677174e-02 0.0 
6.251266506421e-03 4.429992290723e-02 0.0 
5.349257067451e-03 4.224101971962e-02 0.0 
5.815092183589e-03 4.388354779353e-02 0.0 
4.756207172044e-03 4.207818223532e-02 0.0 
4.329546757681e-03 4.045059682068e-02 0.0 
3.601449261240e-03 4.060464941182e-02 0.0 
3.978519014833e-03 4.174123056626e-02 0.0 
2.698951407481e-03 4.068079831832e-02 0.0 
2.424053059439e-03 3.945071466666e-02 0.0 
1.446270713316e-03 3.997653935367e-02 0.0 
1.284365607408e-03 3.856155024375e-02 0.0 
2.820778082864e-04 3.954092059055e-02 0.0 
3.413677172048e-04 4.059207610834e-02 0.0 
-8.035525430259e-04 4.066010459024e-02 0.0 
-7.472912863236e-04 3.927255876583e-02 0.0 
-1.770882214526e-03 4.086077676510e-02 0.0 
-1.931290762016e-03 4.203169074244e-02 0.0 
-2.776530055769e-03 4.268133827818e-02 0.0 
-2.540571115878e-03 4.106399996770e-02 0.0 
-3.410959202595e-03 4.327220131834e-02 0.0 
-3.704681493904e-03 4.480381373722e-02 0.0 
-4.166379835958e-03 4.572117325608e-02 0.0 
-3.840236246367e-03 4.367814161177e-02 0.0 
-4.436019989633e-03 4.640647419041e-02 0.0 
-4.756683893635e-03 4.843411278760e-02 0.0 
-4.853385102273e-03 4.929425833575e-02 0.0 
-4.537649523209e-03 4.678149174246e-02 0.0 
-4.808776807275e-03 4.982668883392e-02 0.0 
-4.502600411511e-03 4.685821124821e-02 0.0 
-5.068854346364e-03 5.238732203460e-02 0.0 
-4.889353465302e-03 5.296512118220e-02 0.0 
-5.058321653413e-03 5.559826977340e-02 0.0 
-4.773741413892e-03 5.614656214021e-02 0.0 
5.545906591369e-03 3.886927816116e-02 0.0 
-4.822288047540e-03 5.879967473766e-02 0.0 
-5.115617307400e-03 5.782829270904e-02 0.0 
-4.471608947529e-03 5.929924614157e-02 0.0 
-4.419920966270e-03 5.630694242419e-02 0.0 
-4.385448743162e-03 6.195131773961e-02 0.0 
-4.009328903010e-03 6.236072945356e-02 0.0 
-3.788688511070e-03 6.497502688085e-02 0.0 
6.729307490016e-03 4.608479230748e-02 0.0 
5.713317898849e-03 3.647114897334e-02 0.0 
-3.426679009020e-03 6.526870769090e-02 0.0 
-3.088258190628e-03 6.779982429069e-02 0.0 
-3.355506628847e-03 6.725347874003e-02 0.0 
-2.531660172691e-03 6.997094912652e-02 0.0 
4.174591448525e-03 4.545050629921e-02 0.0 
3.908913002427e-03 3.995352213352e-02 0.0 
3.765079402221e-03 4.273889105172e-02 0.0 
3.460329149199e-03 3.697774218100e-02 0.0 
3.343987104195e-03 3.981035329481e-02 0.0 
-2.347861627047e-03 7.036973642254e-02 0.0 
4.546628952333e-03 3.444027835106e-02 0.0 
3.530663111626e-03 3.403861219366e-02 0.0 
6.934517498472e-03 4.973909378161e-02 0.0 
7.501075768122e-03 4.939908871083e-02 0.0 
2.166181032358e-03 3.763961008890e-02 0.0 
-3.589274439114e-03 6.238453599043e-02 0.0 
-3.020643813279e-03 6.519598524449e-02 0.0 
-3.125719309061e-03 6.205490138375e-02 0.0 
-4.197631551794e-03 4.381095614773e-02 0.0 
-4.166995030662e-03 4.347286053417e-02 0.0 
-3.844098971459e-03 4.038761108265e-02 0.0 
-3.810295730172e-03 3.965905337693e-02 0.0 
-3.479856561944e-03 3.651042022842e-02 0.0 
-3.433881830240e-03 3.540829354088e-02 0.0 
-3.666790011634e-03 3.867333224359e-02 0.0 
-3.282587362289e-03 3.406362447948e-02 0.0 
-3.430621720849e-03 3.742833217698e-02 0.0 
-3.100284255254e-03 3.217900691546e-02 0.0 
-3.052299346157e-03 3.342087790614e-02 0.0 
-3.043316302615e-03 3.248207099767e-02 0.0 
-3.118547599787e-03 3.592750057106e-02 0.0 
-2.733521929481e-03 3.066551580039e-02 0.0 
-2.747756692334e-03 3.418242735665e-02 0.0 
-3.084777884004e-03 3.935329023778e-02 0.0 
-2.656282049482e-03 3.766080072404e-02 0.0 
-2.941182617508e-03 4.273278673061e-02 0.0 
1.129122263926e-03 3.655294541065e-02 0.0 
1.918690165287e-03 3.526002532267e-02 0.0 
9.762896482215e-04 3.397053529832e-02 0.0 
1.672010185057e-03 3.232830244483e-02 0.0 
8.228170315618e-04 3.082947817750e-02 0.0 
1.423255902321e-03 2.885789990975e-02 0.0 
6.689205772688e-04 2.714148235232e-02 0.0 
6.237800049647e-05 2.937429436754e-02 0.0 
4.985277989775e-03 3.442322431514e-02 0.0 
2.994977950948e-03 4.131081647621e-02 0.0 
4.379606564790e-03 4.231793046035e-02 0.0 
3.321347855081e-03 4.131683756081e-02 0.0 
4.806258094881e-03 4.232342187503e-02 0.0 
3.682192261810e-03 4.066627576000e-02 0.0 
5.266027279248e-03 4.175257928454e-02 0.0 
4.095498370944e-03 3.932256260622e-02 0.0 
2.275035087404e-03 3.907063261330e-02 0.0 
2.573920355257e-03 3.692694829219e-02 0.0 
5.982904525510e-04 3.782465606660e-02 0.0 
7.377447988404e-04 3.499802537744e-02 0.0 
-1.232163374919e-03 3.727661725378e-02 0.0 
6.186446771920e-03 3.910979366225e-02 0.0 
2.246262350781e-03 3.061837403786e-02 0.0 
1.903826233292e-03 2.679940979402e-02 0.0 
2.684489743118e-03 2.879150240920e-02 0.0 
-2.652684408480e-03 6.919102702071e-02 0.0 
-2.335542287721e-03 3.220443273488e-02 0.0 
-2.686175060076e-03 2.898761860750e-02 0.0 
-2.558346801081e-03 3.043199207480e-02 0.0 
7.207080138016e-06 2.543117484340e-02 0.0 
-1.717393868655e-03 7.237736911599e-02 0.0 
5.757416599984e-03 4.061715712458e-02 0.0 
6.606840162341e-03 4.367866565254e-02 0.0 
3.009199392814e-03 3.378231797240e-02 0.0 
2.922639103332e-03 3.669035990752e-02 0.0 
-2.217036629308e-03 2.583928910590e-02 0.0 
-1.629505129657e-03 7.264947543807e-02 0.0 
-2.865604726813e-03 2.903361922713e-02 0.0 
2.898991497965e-03 3.387181313145e-02 0.0 
-2.196980581336e-03 3.573478705855e-02 0.0 
-1.899369677886e-03 3.001400450423e-02 0.0 
-3.783906648341e-03 4.194667889810e-02 0.0 
2.251328362934e-03 2.461145372920e-02 0.0 
2.987365141323e-03 2.687241725842e-02 0.0 
-1.140514141472e-03 3.955939809450e-02 0.0 
-2.786390888950e-03 4.018330153911e-02 0.0 
-3.010907691912e-03 3.778804577379e-02 0.0 
-4.206389985111e-03 4.199710856291e-02 0.0 
-3.905950966917e-03 4.333483756455e-02 0.0 
-4.927566134949e-03 4.574360170174e-02 0.0 
-5.051876897838e-03 4.474607381895e-02 0.0 
-5.421957350904e-03 4.898292124747e-02 0.0 
-5.325048046402e-03 4.917715543527e-02 0.0 
-5.497041905313e-03 5.261916625248e-02 0.0 
-5.203058813123e-03 5.285173085862e-02 0.0 
-5.108204843426e-03 5.642452337491e-02 0.0 
-1.975431072940e-03 2.635825417090e-02 0.0 
9.091227056146e-04 3.126567532990e-02 0.0 
6.137980558169e-03 4.926218620210e-02 0.0 
-2.291583046375e-03 2.407720453497e-02 0.0 
5.217101593296e-04 2.297158239633e-02 0.0 
2.562875905106e-03 3.040275050062e-02 0.0 
2.506129237801e-03 3.339067503744e-02 0.0 
2.797860681000e-03 3.955442362992e-02 0.0 
2.408841864167e-03 3.631768928792e-02 0.0 
2.100150182812e-03 2.991331391466e-02 0.0 
2.030678432455e-03 3.292248866747e-02 0.0 
2.276806998211e-03 3.918243837823e-02 0.0 
1.924958865729e-03 3.586237170080e-02 0.0 
2.115738115172e-03 4.196887582297e-02 0.0 
1.788797088373e-03 3.872452051389e-02 0.0 
1.588503089202e-03 3.238686346400e-02 0.0 
1.475802716733e-03 3.533563099257e-02 0.0 
1.627387436919e-03 4.151002524030e-02 0.0 
1.335010070541e-03 3.820578225484e-02 0.0 
1.444411046421e-03 4.420989402171e-02 0.0 
1.170529198021e-03 4.099191217840e-02 0.0 
1.060772403385e-03 3.476236870355e-02 0.0 
-1.013537142970e-03 7.436475506042e-02 0.0 
-5.871040930856e-04 2.791793641323e-02 0.0 
-5.429918422770e-04 2.368536788174e-02 0.0 
-2.587883130913e-03 6.474881850782e-02 0.0 
-2.640145897062e-03 6.136227522375e-02 0.0 
-3.126053750364e-03 5.854147723109e-02 0.0 
-2.598685376611e-03 5.764372362225e-02 0.0 
9.123027048403e-04 3.766773315462e-02 0.0 
8.052507995444e-04 3.118881059337e-02 0.0 
7.026617021786e-03 4.298777543335e-02 0.0 
7.536268819187e-03 4.640392820783e-02 0.0 
2.572822014592e-03 2.735443632194e-02 0.0 
-1.722656662940e-03 3.359457242823e-02 0.0 
-1.960187361721e-03 3.918484693727e-02 0.0 
7.557512329139e-03 4.947782346645e-02 0.0 
7.766824655477e-03 5.220218566782e-02 0.0 
7.837386423070e-03 5.191554381418e-02 0.0 
7.913778118773e-03 5.477693636868e-02 0.0 
7.777614263887e-03 5.498626089524e-02 0.0 
7.997900190116e-03 5.412821006223e-02 0.0 
-2.881576815616e-03 3.452886783932e-02 0.0 
1.272710050991e-03 2.876648224289e-02 0.0 
-3.578963218216e-03 6.629129537145e-02 0.0 
-2.704961753875e-03 6.800674065740e-02 0.0 
-1.456963596032e-03 2.763182706491e-02 0.0 
-6.252793816408e-04 3.160222674378e-02 0.0 
6.030568610480e-03 3.759683567716e-02 0.0 
5.607683939459e-03 3.496931146807e-02 0.0 
5.419804846422e-03 3.309088439932e-02 0.0 
4.958043977062e-03 3.043295868518e-02 0.0 
4.723852925583e-03 2.818782749652e-02 0.0 
4.232090745759e-03 2.548359466175e-02 0.0 
4.417844188822e-03 2.782313203169e-02 0.0 
2.454579635575e-03 2.223493817335e-02 0.0 
3.680113868420e-03 2.280022585557e-02 0.0 
1.003483715635e-03 4.374181409346e-02 0.0 
3.104104621684e-03 3.249782415722e-02 0.0 
-5.481396078334e-03 5.210354286220e-02 0.0 
-9.106156996337e-04 7.385730142097e-02 0.0 
-4.172714523179e-03 5.709100684658e-02 0.0 
-9.978468598306e-04 7.458605846157e-02 0.0 
-1.454483109198e-03 7.258289519150e-02 0.0 
-1.844467864654e-03 2.077702994312e-02 0.0 
3.932971618596e-03 2.287245720407e-02 0.0 
4.391231684920e-03 2.567485299932e-02 0.0 
7.767835619518e-03 5.766556182677e-02 0.0 
7.603394257689e-03 5.776156902624e-02 0.0 
1.793260331432e-03 1.991920456904e-02 0.0 
3.582133186654e-03 4.550165874410e-02 0.0 
2.451589661646e-03 4.506361530879e-02 0.0 
2.243522806914e-03 4.768524535442e-02 0.0 
-3.718903329739e-04 7.614111273828e-02 0.0 
-4.107200712600e-03 5.291048409103e-02 0.0 
1.711691237517e-03 2.627718136705e-02 0.0 
7.185146281877e-03 4.631963761189e-02 0.0 
7.834067161038e-03 4.920193628845e-02 0.0 
2.970950474875e-03 3.021641610207e-02 0.0 
1.152411634315e-03 2.709152843450e-02 0.0 
6.784304945526e-04 3.411387123665e-02 0.0 
5.824126906191e-04 2.747719049487e-02 0.0 
-3.039037333022e-03 5.467975508508e-02 0.0 
-2.497778961901e-03 5.352796273361e-02 0.0 
-1.716749381808e-03 2.269914225350e-02 0.0 
-4.157846253602e-03 6.032593244179e-02 0.0 
6.677581345755e-04 2.432602357701e-02 0.0 
-1.239424183247e-03 3.040062130944e-02 0.0 
-1.366264761055e-03 3.386667826503e-02 0.0 
-2.085071870190e-03 6.046120731706e-02 0.0 
7.714196681516e-03 4.626252261344e-02 0.0 
7.158246266496e-03 4.203425823112e-02 0.0 
-5.095776959932e-03 4.897632281734e-02 0.0 
-4.912235486632e-03 5.922649899614e-02 0.0 
-8.918479020141e-04 7.443985434417e-02 0.0 
-1.383178764591e-03 1.747159613956e-02 0.0 
1.710334739727e-03 2.312268104568e-02 0.0 
3.824139028794e-03 2.526370604203e-02 0.0 
4.493839360642e-03 2.991781095608e-02 0.0 
3.091387676605e-03 2.016260597326e-02 0.0 
-2.666899052951e-03 6.121937969107e-02 0.0 
-1.850077835707e-03 1.868247495747e-02 0.0 
-1.249658249065e-03 3.126222862955e-02 0.0 
3.571221286439e-03 2.026467194097e-02 0.0 
3.968073109174e-03 2.289991427575e-02 0.0 
7.553438608074e-03 4.847645736472e-02 0.0 
7.985990438208e-03 5.142613021123e-02 0.0 
8.031476126327e-03 5.250694529896e-02 0.0 
8.037412593850e-03 5.461092810001e-02 0.0 
5.563643667749e-03 4.991205200630e-02 0.0 
7.761563895365e-03 5.014633858405e-02 0.0 
6.493560540417e-03 5.094707267247e-02 0.0 
6.286188473300e-03 5.351032944164e-02 0.0 
6.603100397129e-03 5.493456471001e-02 0.0 
7.599217625625e-03 5.484729236085e-02 0.0 
7.400329515534e-03 5.753522277264e-02 0.0 
5.670354407275e-03 4.385566653619e-02 0.0 
2.915338429762e-03 3.669068051961e-02 0.0 
-3.544007202086e-03 5.553742034051e-02 0.0 
-3.385171877166e-03 4.411447238547e-02 0.0 
-3.750485682433e-03 4.086392734353e-02 0.0 
1.328938114888e-03 2.565891768896e-02 0.0 
1.016612347449e-03 2.180464489431e-02 0.0 
1.730111224653e-03 4.728710796671e-02 0.0 
1.513265400256e-03 4.981179182974e-02 0.0 
-1.622455457991e-03 7.076756439340e-02 0.0 
-1.427716873901e-03 6.934708615353e-02 0.0 
-4.352294993936e-03 4.662238087536e-02 0.0 
-2.250809650297e-03 2.213441147885e-02 0.0 
2.106840513761e-03 2.372352903774e-02 0.0 
2.031509096078e-03 2.053193865570e-02 0.0 
2.528923100527e-03 2.423982638697e-02 0.0 
-1.216693180748e-03 1.955247766625e-02 0.0 
1.817360879645e-03 4.091758196424e-02 0.0 
1.784037481656e-04 3.560604622002e-02 0.0 
-8.152188865793e-04 3.007565260435e-02 0.0 
5.681461950168e-03 3.786060438634e-02 0.0 
-2.215826895302e-04 7.193359863776e-02 0.0 
5.311013507882e-03 3.418585014643e-02 0.0 
-1.027703913582e-03 2.507480220228e-02 0.0 
-1.159259016469e-03 2.129528795447e-02 0.0 
1.901712650678e-03 1.721267936170e-02 0.0 
5.360382743632e-03 5.666007123499e-02 0.0 
5.010400834049e-03 3.549581630582e-02 0.0 
4.785291260195e-03 3.666764602182e-02 0.0 
6.313203865375e-03 5.740028461884e-02 0.0 
6.586711221189e-03 5.858004411880e-02 0.0 
6.890264759868e-03 5.608954925499e-02 0.0 
6.830862810858e-03 5.951880278854e-02 0.0 
-5.307959316385e-03 5.123934956023e-02 0.0 
-5.469515091866e-03 5.447425785467e-02 0.0 
3.007786315074e-03 1.695063103718e-02 0.0 
2.886801761754e-03 1.751391517725e-02 0.0 
3.091047310111e-03 1.731242752325e-02 0.0 
3.459186292151e-03 1.983868250418e-02 0.0 
1.315384346572e-03 1.473021263330e-02 0.0 
1.177249036544e-03 1.760447685564e-02 0.0 
-1.192512319528e-03 7.220885812452e-02 0.0 
7.273345017104e-03 6.042083934689e-02 0.0 
1.318256396679e-03 1.923906998306e-02 0.0 
6.014760041058e-03 5.599825070664e-02 0.0 
-1.756003434583e-03 1.656921728447e-02 0.0 
-2.107868054186e-03 2.001714896272e-02 0.0 
-1.248238261056e-04 2.565831953470e-02 0.0 
-2.096149131116e-03 3.131994301518e-02 0.0 
4.639117548493e-04 2.054952827836e-02 0.0 
7.792367869079e-03 5.595593062226e-02 0.0 
7.744990532252e-03 5.783812983688e-02 0.0 
7.814510860488e-03 5.341432657312e-02 0.0 
-1.699700417581e-04 1.117317611363e-02 0.0 
3.946467069227e-04 5.950247408612e-02 0.0 
-7.785793689266e-04 1.852900486012e-02 0.0 
7.369979761378e-03 5.434503024334e-02 0.0 
4.924213508701e-04 1.694187679676e-02 0.0 
4.278408688279e-03 3.326346913918e-02 0.0 
7.537047939721e-03 4.921990636126e-02 0.0 
-1.458165975800e-03 2.446861439461e-02 0.0 
3.763795420113e-04 2.437723183650e-02 0.0 
2.806223252136e-04 1.633332448525e-02 0.0 
2.552923453628e-03 5.046411076757e-02 0.0 
2.314066532549e-03 5.300371633207e-02 0.0 
2.791142513587e-03 4.799490614774e-02 0.0 
4.803353246782e-03 3.458551710002e-02 0.0 
4.614466952294e-03 3.158191200273e-02 0.0 
9.818775611237e-04 2.500504089733e-02 0.0 
-2.401684377611e-03 6.779164177774e-02 0.0 
-1.964124685336e-03 6.700943553787e-02 0.0 
-3.976225782221e-03 6.286733708833e-02 0.0 
-4.673733387332e-03 6.142697171499e-02 0.0 
-3.395553366931e-03 5.160126674326e-02 0.0 
-3.858826966749e-03 5.242721057431e-02 0.0 
5.089432783628e-03 3.134818428205e-02 0.0 
4.649957964240e-03 2.879577898960e-02 0.0 
5.792204241555e-03 3.580697402414e-02 0.0 
-1.919739890861e-03 3.292084019567e-02 0.0 
-2.125916683724e-03 3.620717343759e-02 0.0 
-1.487331657142e-03 3.676136367701e-02 0.0 
1.023089331468e-03 1.877229503293e-02 0.0 
6.915654441713e-04 1.407727301340e-02 0.0 
-4.798977652177e-03 4.830848845028e-02 0.0 
-4.330576481896e-03 4.630799674037e-02 0.0 
-5.350906318972e-03 5.309760397864e-02 0.0 
1.242594736688e-03 1.606836049778e-02 0.0 
-8.383094226971e-04 1.478555085807e-02 0.0 
-1.197860962614e-03 1.768048522884e-02 0.0 
2.721584424599e-04 7.033155615888e-02 0.0 
-1.187426164583e-03 6.742219142943e-02 0.0 
7.281482090445e-03 4.606528549344e-02 0.0 
6.463482825705e-03 4.110355524602e-02 0.0 
1.924600797835e-03 1.756107179570e-02 0.0 
2.430345947822e-03 2.112138074396e-02 0.0 
1.384640793255e-03 1.333979022780e-02 0.0 
-6.644082710749e-04 7.412102320132e-02 0.0 
3.849648475015e-03 2.740756774895e-02 0.0 
-9.197866030384e-04 1.439371954977e-02 0.0 
-7.269539080088e-04 1.665952184532e-02 0.0 
-9.402082390562e-04 1.134903891898e-02 0.0 
2.537807294825e-03 1.985540031653e-02 0.0 
1.868056789121e-03 1.459382306346e-02 0.0 
2.274527486588e-03 1.459258913136e-02 0.0 
1.230246043466e-03 2.266762490540e-02 0.0 
2.133758843925e-04 1.939458699963e-02 0.0 
1.781801141682e-03 5.266719459646e-02 0.0 
8.609642622091e-04 2.147155067184e-02 0.0 
1.535890957477e-03 5.518570630383e-02 0.0 
1.298032410730e-03 5.227847247864e-02 0.0 
1.318906498554e-03 5.757500019964e-02 0.0 
-4.490631435115e-04 7.598865138901e-02 0.0 
2.881637483938e-03 5.400552215013e-02 0.0 
3.154084671216e-03 5.096405712094e-02 0.0 
1.346686106658e-03 6.829706407158e-02 0.0 
8.567100699750e-04 1.204037074752e-02 0.0 
1.342787154286e-03 7.250106781044e-02 0.0 
6.974434625953e-04 7.387378320473e-02 0.0 
-1.545042470241e-03 1.406593495991e-02 0.0 
-1.877099025625e-03 1.767889667679e-02 0.0 
-1.286788232457e-03 1.149919194973e-02 0.0 
-1.619523510386e-03 1.548446432272e-02 0.0 
-2.140117972363e-03 2.140842224422e-02 0.0 
-1.822076828883e-03 1.900904718516e-02 0.0 
2.069551019133e-03 5.579240547681e-02 0.0 
-1.214065218854e-03 1.188503183879e-02 0.0 
-1.463659599700e-03 1.628419952733e-02 0.0 
-8.807229608143e-04 9.270183122549e-03 0.0 
6.419509196107e-03 6.190862254671e-02 0.0 
7.988335407276e-03 5.616764424274e-02 0.0 
7.652482991205e-03 5.927961706464e-02 0.0 
7.136457543908e-03 6.117849929801e-02 0.0 
2.326076984613e-03 1.277807440140e-02 0.0 
2.942941871137e-03 1.687266372569e-02 0.0 
-7.932143444431e-04 2.862720757077e-02 0.0 
-9.140795154641e-04 3.466645897461e-02 0.0 
1.064780408583e-03 5.503666116554e-02 0.0 
7.759344255334e-04 5.527801444535e-02 0.0 
8.614366206459e-04 5.054247118158e-02 0.0 
6.207953080732e-04 5.116094557114e-02 0.0 
6.701608650772e-04 4.621918994179e-02 0.0 
4.308934729025e-04 4.688241804112e-02 0.0 
5.179468304206e-04 4.164431288438e-02 0.0 
1.972871628968e-03 1.161124212925e-02 0.0 
7.206075571897e-03 5.693399521306e-02 0.0 
5.958809737280e-03 5.980009187181e-02 0.0 
7.914768406394e-04 1.221512897033e-02 0.0 
6.766563402927e-04 1.570257075547e-02 0.0 
7.074044807307e-03 6.012102199938e-02 0.0 
6.819219969966e-03 6.302435927375e-02 0.0 
-1.275961321387e-03 1.212493230857e-02 0.0 
7.174886372603e-03 4.747875318383e-02 0.0 
6.331001445758e-04 7.762074697485e-03 0.0 
1.799093290629e-04 2.553222442276e-02 0.0 
2.946130247601e-03 2.664451039609e-02 0.0 
7.427332694924e-03 4.861327760030e-02 0.0 
7.154967721203e-03 5.696963695866e-02 0.0 
7.894912157070e-03 5.718535354605e-02 0.0 
7.558230037020e-03 6.007076604309e-02 0.0 
-1.702371106113e-03 2.904462103864e-02 0.0 
-7.220057326371e-04 6.495625589058e-02 0.0 
7.687148815382e-03 5.014100327790e-02 0.0 
7.493801959058e-04 4.102175973584e-02 0.0 
6.666542614234e-03 5.024061090085e-02 0.0 
-4.217186557089e-04 3.151686850849e-02 0.0 
6.297834039458e-03 4.513372731065e-02 0.0 
7.449934848616e-03 5.166253193006e-02 0.0 
7.949955393755e-03 4.972484764110e-02 0.0 
8.028601857799e-03 5.305605177723e-02 0.0 
5.755477596026e-03 4.732950165594e-02 0.0 
5.319544736707e-03 5.240203601748e-02 0.0 
5.666207983751e-03 5.435464677603e-02 0.0 
5.209475601397e-03 4.322035590086e-02 0.0 
7.435600918946e-03 6.042126320895e-02 0.0 
7.035365108649e-03 6.300195186183e-02 0.0 
6.617663709321e-03 4.832650931425e-02 0.0 
3.037289499531e-03 2.775834697191e-02 0.0 
2.963228947934e-03 2.465727217459e-02 0.0 
2.288724226922e-03 1.814962992752e-02 0.0 
2.829789258044e-03 2.157230344617e-02 0.0 
3.500477961005e-03 2.804358154587e-02 0.0 
3.390434181128e-03 2.499854525935e-02 0.0 
2.633690389239e-03 1.854654671292e-02 0.0 
3.211973901511e-03 2.194373206945e-02 0.0 
2.171331418452e-03 1.407372334240e-02 0.0 
2.936444122216e-03 1.873340609396e-02 0.0 
3.788663436815e-03 2.532017620470e-02 0.0 
3.567810112095e-03 2.243120331550e-02 0.0 
2.730551829945e-03 1.648000715826e-02 0.0 
4.364444971280e-03 2.878472657374e-02 0.0 
8.159258497606e-04 9.210322492354e-03 0.0 
6.999971806341e-03 4.666653767857e-02 0.0 
2.708283329554e-03 2.627961553073e-02 0.0 
4.487456926789e-03 3.344827006612e-02 0.0 
7.211224798404e-03 5.085182658263e-02 0.0 
1.079286960753e-03 6.926126233008e-03 0.0 
9.150927413302e-04 6.896446466140e-03 0.0 
6.139975349946e-03 4.399090206820e-02 0.0 
1.172692655881e-03 6.151970344757e-03 0.0 
5.933034523263e-03 5.184299716213e-02 0.0 
4.562322041448e-03 3.725489415092e-02 0.0 
1.134593939785e-03 6.025723570062e-03 0.0 
3.545829267743e-03 3.105176452286e-02 0.0 
4.050049004753e-03 3.426459054845e-02 0.0 
4.006082188582e-03 3.714158260030e-02 0.0 
7.304031529785e-04 6.488631616129e-03 0.0 
3.011862225677e-03 4.538697482696e-02 0.0 
7.279971597605e-04 5.377931324364e-03 0.0 
2.580981535385e-03 3.392051589765e-02 0.0 
3.517582405216e-03 3.569044169823e-02 0.0 
3.919895365577e-03 3.833081249281e-02 0.0 
3.950044695081e-03 2.839856051639e-02 0.0 
1.602394282507e-04 5.586532188573e-03 0.0 
1.390649926272e-04 1.059557015918e-02 0.0 
-1.687317117458e-04 1.063869750296e-02 0.0 
-2.180944449393e-05 1.565583885918e-02 0.0 
-1.697921471759e-04 5.603856586323e-03 0.0 
1.067255375869e-03 6.122433595376e-03 0.0 
1.048229274961e-03 5.759880900687e-03 0.0 
-4.650484459701e-03 4.630023679887e-02 0.0 
-3.594995503837e-03 4.408132319821e-02 0.0 
-3.290394567401e-03 4.417573851115e-02 0.0 
-2.306256611798e-03 4.250411127341e-02 0.0 
-2.540815786812e-03 4.174405579533e-02 0.0 
-1.037185376990e-03 4.094249992288e-02 0.0 
-9.340815942771e-04 4.152304686467e-02 0.0 
5.140649341335e-04 3.969889654888e-02 0.0 
3.842473865923e-03 2.290701034285e-02 0.0 
-4.221880756905e-04 5.491619895391e-03 0.0 
-3.405011280071e-03 3.738951684162e-02 0.0 
-3.198379267825e-03 3.809264567177e-02 0.0 
-3.517460308535e-03 4.114005075593e-02 0.0 
-4.007219020057e-03 5.608584359780e-02 0.0 
-4.269233192858e-03 5.295547246085e-02 0.0 
-4.048291064777e-03 4.924342812997e-02 0.0 
-3.617611637807e-03 5.914094103146e-02 0.0 
5.090140644977e-03 3.240689653750e-02 0.0 
-5.395850008139e-04 5.601213204717e-03 0.0 
-6.585847477005e-04 3.472769842796e-02 0.0 
-4.617473462865e-03 5.314860490728e-02 0.0 
3.754912561241e-03 5.824809037601e-02 0.0 
3.918970765056e-03 5.405682882092e-02 0.0 
4.266573611609e-03 5.365288621353e-02 0.0 
3.995982235757e-03 4.891540388942e-02 0.0 
3.520001933573e-03 5.377862467071e-02 0.0 
-2.888827510538e-03 5.047006732992e-02 0.0 
-2.351746249868e-03 4.906518339452e-02 0.0 
-1.930741897553e-03 5.210921652676e-02 0.0 
-1.796347888298e-03 4.740811796152e-02 0.0 
-1.353744550623e-03 5.042823538462e-02 0.0 
-1.454680579380e-03 5.488404699950e-02 0.0 
-1.224789814844e-03 4.552407991983e-02 0.0 
-7.893515614017e-04 4.907716681889e-02 0.0 
3.045763276560e-03 5.871580542127e-02 0.0 
2.605075168317e-03 3.588186250415e-02 0.0 
-8.834775234394e-04 4.105969311092e-02 0.0 
-3.483336708854e-06 4.908568041724e-02 0.0 
-2.971701681700e-03 4.547137513300e-02 0.0 
-3.108293639968e-03 3.856516585628e-02 0.0 
-4.598460509447e-03 4.331373037764e-02 0.0 
-3.691823424685e-03 3.749394884117e-02 0.0 
-1.189934932579e-03 3.251027990108e-02 0.0 
4.347431788521e-03 5.276363865126e-02 0.0 
6.585774628647e-04 5.550103614308e-02 0.0 
4.550803556457e-03 5.860681082250e-02 0.0 
1.272972784388e-03 6.063757436261e-02 0.0 
-2.077182467730e-03 5.766066955719e-02 0.0 
-2.749700213229e-03 6.629063223296e-02 0.0 
-4.553606645956e-04 7.360336312551e-03 0.0 
-5.707319654376e-04 6.141188211575e-02 0.0 
-1.098480858251e-03 6.312936030888e-02 0.0 
-1.053035335824e-03 6.655224036147e-02 0.0 
-1.653853738545e-03 6.433732197634e-02 0.0 
-1.082469798962e-03 5.959454951296e-02 0.0 
-5.042293699881e-04 6.850965661218e-02 0.0 
-9.487823877512e-04 6.935548366280e-02 0.0 
1.259740818650e-03 7.891811317668e-02 0.0 
5.861258767923e-04 7.899188566921e-02 0.0 
3.050373402458e-04 7.942865012601e-02 0.0 
1.460828633593e-04 7.862167044143e-02 0.0 
2.539300229585e-04 7.816295799156e-02 0.0 
8.687791923392e-04 7.838122500771e-02 0.0 
1.141424335308e-03 7.754886175312e-02 0.0 
2.220076080875e-03 7.724699207691e-02 0.0 
1.371200768673e-03 7.648693085714e-02 0.0 
3.452279266627e-04 7.649439371400e-02 0.0 
2.696944095548e-03 7.607927616726e-02 0.0 
1.657389364951e-04 3.344236967732e-02 0.0 
3.180186759764e-04 3.016014116462e-02 0.0 
-7.101872230795e-04 6.114432580883e-03 0.0 
2.369055800678e-03 5.864719948608e-02 0.0 
4.253253921140e-03 6.698372259216e-02 0.0 
2.584475503653e-04 8.352083508438e-03 0.0 
3.790561946104e-04 6.931042740078e-03 0.0 
3.160809558693e-04 6.719666003086e-03 0.0 
-2.706141745110e-04 1.839830543193e-02 0.0 
-4.380053286952e-04 1.501212355122e-02 0.0 
1.367252369704e-04 8.123585063561e-03 0.0 
-4.105017689871e-03 6.429436005405e-02 0.0 
2.083873039815e-03 1.520325105761e-02 0.0 
7.197408198962e-04 2.109436994028e-02 0.0 
6.168973589087e-03 3.899855723435e-02 0.0 
-5.253671971508e-03 5.790916104819e-02 0.0 
-1.430636687000e-03 3.704167581507e-02 0.0 
-3.465583054863e-03 4.077363702060e-02 0.0 
-1.567297217012e-03 2.396396775904e-02 0.0 
-2.461177461069e-03 4.107444866579e-02 0.0 
-2.371141487841e-03 2.861576836223e-02 0.0 
-4.869407327224e-04 1.108354894335e-02 0.0 
-5.052246180832e-04 7.612878360143e-02 0.0 
1.932083631345e-03 4.466980713959e-02 0.0 
1.257017905850e-03 4.684211982148e-02 0.0 
1.181714634690e-03 3.180445173483e-02 0.0 
-2.770798271393e-03 6.796958012225e-02 0.0 
-2.046746273527e-03 5.622422254805e-02 0.0 
-1.727060500649e-03 7.174352367909e-02 0.0 
2.089916686746e-03 1.133378241078e-02 0.0 
6.813863457424e-03 5.238180032505e-02 0.0 
-4.096162691493e-03 4.387825859261e-02 0.0 
-4.068235504203e-03 5.940178579116e-02 0.0 
-4.717221948262e-03 6.110888480700e-02 0.0 
-5.422240626832e-03 5.557886012180e-02 0.0 
7.145999675206e-03 4.687976938081e-02 0.0 
-4.645846698565e-03 4.998356981357e-02 0.0 
-3.032837276288e-03 3.071859953879e-02 0.0 
9.102933704170e-04 2.813620232953e-02 0.0 
3.326911952061e-03 7.264059236633e-02 0.0 
-2.695629552450e-03 2.738841084567e-02 0.0 
-4.023172829378e-03 4.285070969930e-02 0.0 
2.640002024862e-03 4.235614167422e-02 0.0 
1.172335987594e-03 2.486190578501e-02 0.0 
-5.102215667602e-03 4.862780096277e-02 0.0 
1.669349974598e-03 2.937471066877e-02 0.0 
1.583013850293e-03 1.708344561255e-02 0.0 
3.377542989966e-03 4.823007767467e-02 0.0 
-6.096082049982e-04 7.315386563402e-02 0.0 
2.025436936385e-03 5.029576430909e-02 0.0 
-1.416520573221e-03 1.520795381296e-02 0.0 
3.049377365834e-03 3.079268283380e-02 0.0 
-2.096176997712e-03 7.042061389498e-02 0.0 
2.337697393244e-04 3.786492117854e-02 0.0 
7.372523314800e-03 4.895044167960e-02 0.0 
5.288225824543e-03 6.053696509823e-02 0.0 
7.420024605409e-04 1.805860341754e-02 0.0 
5.289207813195e-03 3.963975304527e-02 0.0 
-2.702716457037e-05 2.092512644077e-02 0.0 
1.202906909548e-04 3.276883087715e-02 0.0 
-1.787981312194e-03 7.008241383482e-02 0.0 
-2.403467921175e-03 2.357712450112e-02 0.0 
3.247471539364e-03 3.892154687508e-02 0.0 
1.348803403339e-03 2.252215914385e-02 0.0 
5.141003285580e-03 3.093476480709e-02 0.0 
1.626064674497e-03 4.077149858236e-02 0.0 
2.127681759923e-03 2.685044727927e-02 0.0 
-3.120778779346e-03 4.119126016761e-02 0.0 
1.549988705996e-03 2.246260008600e-02 0.0 
7.107199195779e-03 5.350426178618e-02 0.0 
6.346488160247e-03 4.026834173506e-02 0.0 
5.443389830837e-03 3.698951247120e-02 0.0 
6.249208102211e-03 4.031550588328e-02 0.0 
-1.009695218752e-03 4.040499409530e-02 0.0 
-2.596770063739e-03 2.558822142104e-02 0.0 
-1.177467371782e-03 3.397778203833e-02 0.0 
7.841563673743e-03 5.126636353299e-02 0.0 
3.190712408369e-03 4.261273608941e-02 0.0 
3.444759509470e-03 2.028263704989e-02 0.0 
9.602766397805e-04 1.522727454921e-02 0.0 
7.636027224528e-03 5.210860575734e-02 0.0 
-2.616930595428e-03 2.714011551754e-02 0.0 
1.670852848811e-03 2.013014308805e-02 0.0 
-4.386913528300e-03 4.978784714346e-02 0.0 
-2.309079127971e-04 7.607441248223e-02 0.0 
6.176077720710e-03 3.715974285729e-02 0.0 
2.027293877024e-03 4.037036177609e-02 0.0 
4.889105642778e-03 4.015125493403e-02 0.0 
-4.104674513723e-03 4.605833055513e-02 0.0 
1.663506279407e-03 1.360282410696e-02 0.0 
-2.305471527692e-03 2.503134735694e-02 0.0 
-2.019661579238e-03 2.745024134467e-02 0.0 
3.419112152034e-03 4.514489748613e-02 0.0 
5.682746626562e-03 5.830436499506e-02 0.0 
-1.950683941830e-03 2.271204378729e-02 0.0 
-6.952212854952e-04 3.728872576238e-02 0.0 
9.171475157181e-04 2.037669264511e-02 0.0 
-8.798819146671e-04 5.333944039970e-02 0.0 
2.023354648067e-03 1.130815700181e-02 0.0 
6.653373257659e-03 6.252497715131e-02 0.0 
-1.572555372927e-03 2.019796976296e-02 0.0 
-1.101255855007e-03 2.634938462939e-02 0.0 
6.755539151925e-03 4.591594411535e-02 0.0 
6.541533671509e-04 5.947869556407e-02 0.0 
-1.027301124451e-03 1.258785471737e-02 0.0 
-9.270928655436e-04 2.151099490890e-02 0.0 
5.698668011796e-03 3.656351890147e-02 0.0 
-1.621161210451e-03 3.909107606069e-02 0.0 
5.741929952258e-03 6.321948196324e-02 0.0 
-3.777200112645e-03 4.520600134264e-02 0.0 
6.064197368673e-03 3.853368653878e-02 0.0 
6.510073621442e-04 6.346771741804e-03 0.0 
-4.484502407323e-04 1.891030640687e-02 0.0 
4.473695116168e-03 4.015409406705e-02 0.0 
-3.646942070822e-03 4.844034276031e-02 0.0 
3.495636713961e-03 3.104012304189e-02 0.0 
3.403756863798e-04 7.745912184644e-02 0.0 
6.198649767580e-03 6.094659158356e-02 0.0 
-3.189658361442e-03 4.733333785351e-02 0.0 
4.538055109116e-04 4.072456345459e-02 0.0 
-2.323165268253e-03 3.889890207948e-02 0.0 
1.332274507281e-03 1.202966749220e-02 0.0 
-2.693203318159e-03 4.594168008982e-02 0.0 
3.981213585504e-04 4.100124167021e-02 0.0 
-2.170102819787e-03 4.429736920750e-02 0.0 
6.099896159604e-03 6.496312173208e-02 0.0 
4.536730669912e-03 3.724482211309e-02 0.0 
-1.614256346187e-03 4.243058995637e-02 0.0 
5.475347286733e-03 3.371404879397e-02 0.0 
2.656869180981e-04 7.519094616802e-02 0.0 
5.112452509273e-03 3.411123821749e-02 0.0 
-6.192738386219e-04 2.193130732109e-02 0.0 
-5.258702400297e-03 5.457688173339e-02 0.0 
-2.844772334328e-03 3.861001376691e-02 0.0 
4.031555575374e-03 3.133408718255e-02 0.0 
6.307063890166e-03 6.579993671836e-02 0.0 
-2.575810200593e-03 3.546590779615e-02 0.0 
4.782743535106e-03 2.852978335209e-02 0.0 
4.456308878623e-03 3.173311025180e-02 0.0 
4.429413654197e-03 3.759518645061e-02 0.0 
-2.304707840619e-03 3.174381188537e-02 0.0 
6.964995195105e-03 6.301976153317e-02 0.0 
-4.369626338347e-03 6.324423650980e-02 0.0 
-3.775429236127e-03 6.485791322465e-02 0.0 
-8.617053849420e-04 4.141751448742e-02 0.0 
4.343576993168e-03 2.582485833413e-02 0.0 
-1.420404356192e-04 7.746819565484e-02 0.0 
4.483894368654e-03 3.154035955154e-02 0.0 
-2.745492174181e-03 6.407517031208e-02 0.0 
-2.096646195413e-03 4.257044352655e-02 0.0 
3.135070331041e-03 2.460560271461e-02 0.0 
1.953696286705e-04 4.544688442208e-02 0.0 
-3.017459038890e-03 4.370771190120e-02 0.0 
-3.357447471281e-04 7.396166864733e-02 0.0 
-4.003764648315e-03 4.578540600430e-02 0.0 
3.963453649828e-03 3.454609505990e-02 0.0 
-4.480006636479e-03 4.722417398357e-02 0.0 
-5.053389082661e-03 5.000833787368e-02 0.0 
4.977096916789e-04 1.398387843403e-02 0.0 
-5.130911068663e-03 5.136961548611e-02 0.0 
6.416481240734e-05 6.748656640355e-03 0.0 
-1.973566801536e-04 6.757141353784e-03 0.0 
2.517897006840e-04 5.591954579820e-02 0.0 
6.271374158221e-03 6.583377007146e-02 0.0 
1.253698385781e-03 1.763991365836e-02 0.0 
7.220846607098e-03 6.174274994683e-02 0.0 
-5.339304053047e-03 5.635582391187e-02 0.0 
4.865270726039e-03 3.166187811181e-02 0.0 
5.235008013429e-04 5.567527133448e-02 0.0 
-5.006711132577e-03 5.977694074014e-02 0.0 
2.019951667535e-03 1.222674512451e-02 0.0 
9.292885725323e-04 5.458880828467e-03 0.0 
3.591982533919e-04 3.629730162954e-02 0.0 
3.930899444562e-04 1.849127827707e-02 0.0 
3.730295495899e-03 2.925842505311e-02 0.0 
1.043447330034e-04 2.011382518349e-02 0.0 
1.517894274613e-03 5.968336371441e-02 0.0 
1.688039643764e-03 6.484307854804e-02 0.0 
-4.844506359429e-04 3.754126533618e-02 0.0 
6.184421193261e-03 6.407367357493e-02 0.0 
7.174407038800e-03 5.924929007120e-02 0.0 
7.018683062665e-03 5.396575709542e-02 0.0 
-1.389306728790e-03 6.971722670980e-02 0.0 
-2.277170266805e-03 5.204477078225e-02 0.0 
6.192540363173e-03 6.036161641051e-02 0.0 
4.196706320876e-04 1.091435943388e-02 0.0 
2.574659990870e-03 5.512636875770e-02 0.0 
3.222845667729e-03 2.275057672835e-02 0.0 
5.404964840547e-03 5.446264054869e-02 0.0 
1.150400534193e-03 1.334792612425e-02 0.0 
1.620845938049e-03 1.119057456441e-02 0.0 
-6.452687079523e-04 5.563757387225e-03 0.0 
2.466245771540e-03 1.730805519522e-02 0.0 
5.916755708895e-03 4.548444500168e-02 0.0 
3.699409691166e-03 5.018617193656e-02 0.0 
2.111721712460e-03 1.140345848761e-02 0.0 
4.878314567520e-04 3.110821334703e-02 0.0 
-5.732716882347e-04 5.465889648914e-03 0.0 
3.208552417895e-03 5.526180683017e-02 0.0 
3.089955724249e-04 1.308830093909e-02 0.0 
-2.579145630726e-03 3.442944867443e-02 0.0 
1.531271457367e-04 1.271224100863e-02 0.0 
4.137014341918e-03 2.580407192551e-02 0.0 
1.081669201618e-03 4.937931087775e-02 0.0 
4.345964803072e-03 4.987964182681e-02 0.0 
-5.202492581260e-04 1.171867938219e-02 0.0 
1.832590260086e-03 1.255023323901e-02 0.0 
4.844426795874e-03 3.899045148482e-02 0.0 
5.609687156181e-04 3.691076494979e-02 0.0 
-2.203977425146e-03 6.369157641887e-02 0.0 
-4.604646981576e-05 2.533011773704e-02 0.0 
-1.240842762726e-03 1.124270988362e-02 0.0 
3.306396232993e-03 1.978328156525e-02 0.0 
-8.158911126710e-04 1.183043034692e-02 0.0 
7.758192898422e-05 7.888612937259e-02 0.0 
2.080821696039e-03 7.096312366214e-02 0.0 
-9.811872733394e-04 1.010903682147e-02 0.0 
1.976851073703e-03 1.104686537588e-02 0.0 
-4.366448018141e-03 4.061933306835e-02 0.0 
3.951566361451e-04 5.431076541104e-03 0.0 
2.692479961713e-03 3.202633570892e-02 0.0 
2.069258287733e-03 6.000872217384e-02 0.0 
1.670706716157e-03 7.532638150495e-02 0.0 
-4.973013982497e-04 5.609460700967e-03 0.0 
7.186996318254e-04 1.250008689355e-02 0.0 
-1.528024766678e-03 6.111030711018e-02 0.0 
4.441670236879e-03 5.715186164212e-02 0.0 
-8.087562710286e-04 7.200411962434e-02 0.0 
2.671496154253e-03 1.547179413502e-02 0.0 
-7.188575025161e-04 6.200549195199e-02 0.0 
4.964210175729e-04 1.183490646444e-02 0.0 
-6.152550734271e-04 9.602600614389e-03 0.0 
1.330869398551e-03 1.162389822824e-02 0.0 
3.539922887121e-04 4.124131281021e-03 0.0 
1.743785825347e-03 2.199203970345e-02 0.0 
1.549776415718e-03 9.710286733139e-03 0.0 
-3.755000916925e-04 1.458818125366e-02 0.0 
1.140761186925e-03 5.995254846223e-02 0.0 
1.636069982439e-03 1.235962117881e-02 0.0 
-1.452044190561e-03 6.730999729040e-02 0.0 
-3.811879907945e-04 7.534487336149e-02 0.0 
2.893248220204e-05 5.984436377808e-03 0.0 
4.163262553614e-04 7.957424697545e-02 0.0 
1.906873520241e-04 6.002904380471e-02 0.0 
-7.500877322053e-05 5.527329645837e-03 0.0 
-1.014530805930e-04 7.718404435715e-02 0.0 
4.198700911857e-04 5.219879424971e-02 0.0 
1.862116046336e-03 1.074638635288e-02 0.0 
-3.905871688386e-04 5.268016945229e-02 0.0 
2.459835183757e-04 2.475790873841e-02 0.0 
-4.048839510004e-03 4.876359394662e-02 0.0 
2.447392536872e-03 1.894815120866e-02 0.0 
3.422239298629e-04 4.253715906052e-02 0.0 
1.275085181295e-03 9.984024863112e-03 0.0 
1.062447007378e-03 1.118394206983e-02 0.0 
8.728263729196e-04 4.638897271037e-02 0.0 
5.647061310100e-03 3.660282376784e-02 0.0 
2.586202965301e-03 1.503806274190e-02 0.0 
-1.591676157517e-03 5.801530573632e-02 0.0 
2.801941022771e-03 1.553908114538e-02 0.0 
3.155658547733e-04 1.453983333076e-02 0.0 
-1.941075725220e-04 3.269546196449e-02 0.0 
-3.271820508788e-04 4.792927060760e-02 0.0 
1.983745282156e-03 7.396994232426e-02 0.0 
-1.132578192884e-03 1.037516529092e-02 0.0 
-1.053460607583e-03 5.641076089449e-02 0.0 
-4.391931198111e-03 4.392043049592e-02 0.0 
2.467252017624e-05 8.402498790329e-02 0.0 
4.356967318593e-04 5.409844786998e-02 0.0 
5.995960239602e-05 8.370491371961e-02 0.0 
3.122614531932e-03 6.108757413895e-02 0.0 
5.315071214085e-05 8.293610845568e-02 0.0 
4.405142602220e-03 6.547579306069e-02 0.0 
7.569644650118e-05 8.174084216137e-02 0.0 
5.024714086368e-03 6.801236697042e-02 0.0 
6.909436502411e-05 8.010624100627e-02 0.0 
5.312604251895e-03 6.912094302827e-02 0.0 
9.835133516845e-05 7.803092019288e-02 0.0 
5.383135426992e-03 6.905209378315e-02 0.0 
9.171918645023e-05 7.551456560949e-02 0.0 
5.276454771511e-03 6.799154502724e-02 0.0 
1.190009300132e-04 7.255856133942e-02 0.0 
5.025438677926e-03 6.601741959378e-02 0.0 
1.086063522848e-04 6.916522467389e-02 0.0 
4.657447061668e-03 6.329936672560e-02 0.0 
1.308002094049e-04 6.533916112376e-02 0.0 

VECTORS node_bounda_dof_materi_velocity_x float
1.000000000000e+00 0.0 0.0 
1.000000000000e+00 0.0 0.0 
1.000000000000e+00 0.0 0.0 
1.000000000000e+00 0.0 0.0 
1.000000000000e+00 0.0 0.0 
1.000000000000e+00 0.0 0.0 
1.000000000000e+00 0.0 0.0 
1.000000000000e+00 0.0 0.0 
1.000000000000e+00 0.0 0.0 
1.000000000000e+00 0.0 0.0 
1.000000000000e+00 0.0 0.0 
1.000000000000e+00 0.0 0.0 
1.000000000000e+00 0.0 0.0 
1.000000000000e+00 0.0 0.0 
1.000000000000e+00 0.0 0.0 
1.000000000000e+00 0.0 0.0 
1.000000000000e+00 0.0 0.0 
1.000000000000e+00 0.0 0.0 
1.000000000000e+00 0.0 0.0 
1.000000000000e+00 0.0 0.0 
1.000000000000e+00 0.0 0.0 
1.000000000000e+00 0.0 0.0 
1.000000000000e+00 0.0 0.0 
1.000000000000e+00 0.0 0.0 
1.000000000000e+00 0.0 0.0 
1.000000000000e+00 0.0 0.0 
1.000000000000e+00 0.0 0.0 
1.000000000000e+00 0.0 0.0 
1.000000000000e+00 0.0 0.0 
1.000000000000e+00 0.0 0.0 
1.000000000000e+00 0.0 0.0 
1.000000000000e+00 0.0 0.0 
1.000000000000e+00 0.0 0.0 
1.000000000000e+00 0.0 0.0 
1.000000000000e+00 0.0 0.0 
1.000000000000e+00 0.0 0.0 
1.000000000000e+00 0.0 0.0 
1.000000000000e+00 0.0 0.0 
1.000000000000e+00 0.0 0.0 
1.000000000000e+00 0.0 0.0 
1.000000000000e+00 0.0 0.0 
1.000000000000e+00 0.0 0.0 
1.000000000000e+00 0.0 0.0 
1.000000000000e+00 0.0 0.0 
1.000000000000e+00 0.0 0.0 
1.000000000000e+00 0.0 0.0 
1.000000000000e+00 0.0 0.0 
1.000000000000e+00 0.0 0.0 
1.000000000000e+00 0.0 0.0 
1.000000000000e+00 0.0 0.0 
1.000000000000e+00 0.0 0.0 
1.000000000000e+00 0.0 0.0 
1.000000000000e+00 0.0 0.0 
1.000000000000e+00 0.0 0.0 
1.000000000000e+00 0.0 0.0 
1.000000000000e+00 0.0 0.0 
1.000000000000e+00 0.0 0.0 
1.000000000000e+00 0.0 0.0 
1.000000000000e+00 0.0 0.0 
1.000000000000e+00 0.0 0.0 
1.000000000000e+00 0.0 0.0 
1.000000000000e+00 0.0 0.0 
1.000000000000e+00 0.0 0.0 
1.000000000000e+00 0.0 0.0 
1.000000000000e+00 0.0 0.0 
1.000000000000e+00 0.0 0.0 
1.000000000000e+00 0.0 0.0 
1.000000000000e+00 0.0 0.0 
1.000000000000e+00 0.0 0.0 
1.000000000000e+00 0.0 0.0 
1.000000000000e+00 0.0 0.0 
1.000000000000e+00 0.0 0.0 
1.000000000000e+00 0.0 0.0 
1.000000000000e+00 0.0 0.0 
1.000000000000e+00 0.0 0.0 
1.000000000000e+00 0.0 0.0 
1.000000000000e+00 0.0 0.0 
1.000000000000e+00 0.0 0.0 
1.000000000000e+00 0.0 0.0 
1.000000000000e+00 0.0 0.0 
1.000000000000e+00 0.0 0.0 
0.0 0.0 0.0 
1.000000000000e+00 0.0 0.0 
0.0 0.0 0.0 
0.0 0.0 0.0 
0.0 0.0 0.0 
0.0 0.0 0.0 
0.0 0.0 0.0 
0.0 0.0 0.0 
0.0 0.0 0.0 
0.0 0.0 0.0 
0.0 0.0 0.0 
0.0 0.0 0.0 
1.000000000000e+00 0.0 0.0 
1.000000000000e+00 0.0 0.0 
1.000000000000e+00 0.0 0.0 
1.000000000000e+00 0.0 0.0 
1.000000000000e+00 0.0 0.0 
1.000000000000e+00 0.0 0.0 
1.000000000000e+00 0.0 0.0 
1.000000000000e+00 0.0 0.0 
1.000000000000e+00 0.0 0.0 
0.0 0.0 0.0 
0.0 0.0 0.0 
0.0 0.0 0.0 
0.0 0.0 0.0 
0.0 0.0 0.0 
0.0 0.0 0.0 
0.0 0.0 0.0 
0.0 0.0 0.0 
0.0 0.0 0.0 
0.0 0.0 0.0 
0.0 0.0 0.0 
0.0 0.0 0.0 
0.0 0.0 0.0 
0.0 0.0 0.0 
0.0 0.0 0.0 
0.0 0.0 0.0 
0.0 0.0 0.0 
0.0 0.0 0.0 
0.0 0.0 0.0 
0.0 0.0 0.0 
0.0 0.0 0.0 
0.0 0.0 0.0 
0.0 0.0 0.0 
0.0 0.0 0.0 
0.0 0.0 0.0 
0.0 0.0 0.0 
0.0 0.0 0.0 
0.0 0.0 0.0 
0.0 0.0 0.0 
0.0 0.0 0.0 
0.0 0.0 0.0 
0.0 0.0 0.0 
0.0 0.0 0.0 
0.0 0.0 0.0 
0.0 0.0 0.0 
0.0 0.0 0.0 
0.0 0.0 0.0 
0.0 0.0 0.0 
0.0 0.0 0.0 
0.0 0.0 0.0 
0.0 0.0 0.0 
0.0 0.0 0.0 
0.0 0.0 0.0 
0.0 0.0 0.0 
0.0 0.0 0.0 
0.0 0.0 0.0 
0.0 0.0 0.0 
0.0 0.0 0.0 
0.0 0.0 0.0 
0.0 0.0 0.0 
0.0 0.0 0.0 
0.0 0.0 0.0 
0.0 0.0 0.0 
0.0 0.0 0.0 
0.0 0.0 0.0 
0.0 0.0 0.0 
0.0 0.0 0.0 
0.0 0.0 0.0 
0.0 0.0 0.0 
0.0 0.0 0.0 
0.0 0.0 0.0 
0.0 0.0 0.0 
0.0 0.0 0.0 
0.0 0.0 0.0 
0.0 0.0 0.0 
0.0 0.0 0.0 
0.0 0.0 0.0 
0.0 0.0 0.0 
0.0 0.0 0.0 
0.0 0.0 0.0 
0.0 0.0 0.0 
0.0 0.0 0.0 
0.0 0.0 0.0 
0.0 0.0 0.0 
0.0 0.0 0.0 
0.0 0.0 0.0 
0.0 0.0 0.0 
0.0 0.0 0.0 
0.0 0.0 0.0 
0.0 0.0 0.0 
0.0 0.0 0.0 
0.0 0.0 0.0 
0.0 0.0 0.0 
0.0 0.0 0.0 
0.0 0.0 0.0 
0.0 0.0 0.0 
0.0 0.0 0.0 
0.0 0.0 0.0 
0.0 0.0 0.0 
0.0 0.0 0.0 
0.0 0.0 0.0 
0.0 0.0 0.0 
0.0 0.0 0.0 
0.0 0.0 0.0 
0.0 0.0 0.0 
0.0 0.0 0.0 
0.0 0.0 0.0 
0.0 0.0 0.0 
0.0 0.0 0.0 
0.0 0.0 0.0 
0.0 0.0 0.0 
0.0 0.0 0.0 
0.0 0.0 0.0 
0.0 0.0 0.0 
0.0 0.0 0.0 
0.0 0.0 0.0 
0.0 0.0 0.0 
0.0 0.0 0.0 
0.0 0.0 0.0 
0.0 0.0 0.0 
0.0 0.0 0.0 
0.0 0.0 0.0 
0.0 0.0 0.0 
0.0 0.0 0.0 
0.0 0.0 0.0 
0.0 0.0 0.0 
0.0 0.0 0.0 
0.0 0.0 0.0 
0.0 0.0 0.0 
0.0 0.0 0.0 
0.0 0.0 0.0 
0.0 0.0 0.0 
0.0 0.0 0.0 
0.0 0.0 0.0 
0.0 0.0 0.0 
0.0 0.0 0.0 
0.0 0.0 0.0 
0.0 0.0 0.0 
0.0 0.0 0.0 
0.0 0.0 0.0 
0.0 0.0 0.0 
0.0 0.0 0.0 
0.0 0.0 0.0 
0.0 0.0 0.0 
0.0 0.0 0.0 
0.0 0.0 0.0 
0.0 0.0 0.0 
0.0 0.0 0.0 
0.0 0.0 0.0 
0.0 0.0 0.0 
0.0 0.0 0.0 
0.0 0.0 0.0 
0.0 0.0 0.0 
0.0 0.0 0.0 
0.0 0.0 0.0 
0.0 0.0 0.0 
0.0 0.0 0.0 
0.0 0.0 0.0 
0.0 0.0 0.0 
0.0 0.0 0.0 
0.0 0.0 0.0 
0.0 0.0 0.0 
0.0 0.0 0.0 
0.0 0.0 0.0 
0.0 0.0 0.0 
0.0 0.0 0.0 
0.0 0.0 0.0 
0.0 0.0 0.0 
0.0 0.0 0.0 
0.0 0.0 0.0 
0.0 0.0 0.0 
0.0 0.0 0.0 
0.0 0.0 0.0 
0.0 0.0 0.0 
0.0 0.0 0.0 
0.0 0.0 0.0 
0.0 0.0 0.0 
0.0 0.0 0.0 
0.0 0.0 0.0 
0.0 0.0 0.0 
0.0 0.0 0.0 
0.0 0.0 0.0 
0.0 0.0 0.0 
0.0 0.0 0.0 
0.0 0.0 0.0 
0.0 0.0 0.0 
0.0 0.0 0.0 
0.0 0.0 0.0 
0.0 0.0 0.0 
0.0 0.0 0.0 
0.0 0.0 0.0 
0.0 0.0 0.0 
0.0 0.0 0.0 
0.0 0.0 0.0 
0.0 0.0 0.0 
0.0 0.0 0.0 
0.0 0.0 0.0 
0.0 0.0 0.0 
0.0 0.0 0.0 
0.0 0.0 0.0 
0.0 0.0 0.0 
0.0 0.0 0.0 
0.0 0.0 0.0 
0.0 0.0 0.0 
0.0 0.0 0.0 
0.0 0.0 0.0 
0.0 0.0 0.0 
0.0 0.0 0.0 
0.0 0.0 0.0 
0.0 0.0 0.0 
0.0 0.0 0.0 
0.0 0.0 0.0 
0.0 0.0 0.0 
0.0 0.0 0.0 
0.0 0.0 0.0 
0.0 0.0 0.0 
0.0 0.0 0.0 
0.0 0.0 0.0 
0.0 0.0 0.0 
0.0 0.0 0.0 
0.0 0.0 0.0 
0.0 0.0 0.0 
0.0 0.0 0.0 
0.0 0.0 0.0 
0.0 0.0 0.0 
0.0 0.0 0.0 
0.0 0.0 0.0 
0.0 0.0 0.0 
0.0 0.0 0.0 
0.0 0.0 0.0 
0.0 0.0 0.0 
0.0 0.0 0.0 
0.0 0.0 0.0 
0.0 0.0 0.0 
0.0 0.0 0.0 
0.0 0.0 0.0 
0.0 0.0 0.0 
0.0 0.0 0.0 
0.0 0.0 0.0 
0.0 0.0 0.0 
0.0 0.0 0.0 
0.0 0.0 0.0 
0.0 0.0 0.0 
0.0 0.0 0.0 
0.0 0.0 0.0 
0.0 0.0 0.0 
0.0 0.0 0.0 
0.0 0.0 0.0 
0.0 0.0 0.0 
0.0 0.0 0.0 
0.0 0.0 0.0 
0.0 0.0 0.0 
0.0 0.0 0.0 
0.0 0.0 0.0 
0.0 0.0 0.0 
0.0 0.0 0.0 
0.0 0.0 0.0 
0.0 0.0 0.0 
0.0 0.0 0.0 
0.0 0.0 0.0 
0.0 0.0 0.0 
0.0 0.0 0.0 
0.0 0.0 0.0 
0.0 0.0 0.0 
0.0 0.0 0.0 
0.0 0.0 0.0 
0.0 0.0 0.0 
0.0 0.0 0.0 
0.0 0.0 0.0 
0.0 0.0 0.0 
0.0 0.0 0.0 
0.0 0.0 0.0 
0.0 0.0 0.0 
0.0 0.0 0.0 
0.0 0.0 0.0 
0.0 0.0 0.0 
0.0 0.0 0.0 
0.0 0.0 0.0 
0.0 0.0 0.0 
0.0 0.0 0.0 
0.0 0.0 0.0 
0.0 0.0 0.0 
0.0 0.0 0.0 
0.0 0.0 0.0 
0.0 0.0 0.0 
0.0 0.0 0.0 
0.0 0.0 0.0 
0.0 0.0 0.0 
0.0 0.0 0.0 
0.0 0.0 0.0 
0.0 0.0 0.0 
0.0 0.0 0.0 
0.0 0.0 0.0 
0.0 0.0 0.0 
0.0 0.0 0.0 
0.0 0.0 0.0 
0.0 0.0 0.0 
0.0 0.0 0.0 
0.0 0.0 0.0 
0.0 0.0 0.0 
0.0 0.0 0.0 
0.0 0.0 0.0 
0.0 0.0 0.0 
0.0 0.0 0.0 
0.0 0.0 0.0 
0.0 0.0 0.0 
0.0 0.0 0.0 
0.0 0.0 0.0 
0.0 0.0 0.0 
0.0 0.0 0.0 
0.0 0.0 0.0 
0.0 0.0 0.0 
0.0 0.0 0.0 
0.0 0.0 0.0 
0.0 0.0 0.0 
0.0 0.0 0.0 
0.0 0.0 0.0 
0.0 0.0 0.0 
0.0 0.0 0.0 
0.0 0.0 0.0 
0.0 0.0 0.0 
0.0 0.0 0.0 
0.0 0.0 0.0 
0.0 0.0 0.0 
0.0 0.0 0.0 
0.0 0.0 0.0 
0.0 0.0 0.0 
0.0 0.0 0.0 
0.0 0.0 0.0 
0.0 0.0 0.0 
0.0 0.0 0.0 
0.0 0.0 0.0 
0.0 0.0 0.0 
0.0 0.0 0.0 
0.0 0.0 0.0 
0.0 0.0 0.0 
0.0 0.0 0.0 
0.0 0.0 0.0 
0.0 0.0 0.0 
0.0 0.0 0.0 
0.0 0.0 0.0 
0.0 0.0 0.0 
0.0 0.0 0.0 
0.0 0.0 0.0 
0.0 0.0 0.0 
0.0 0.0 0.0 
0.0 0.0 0.0 
0.0 0.0 0.0 
0.0 0.0 0.0 
0.0 0.0 0.0 
0.0 0.0 0.0 
0.0 0.0 0.0 
0.0 0.0 0.0 
0.0 0.0 0.0 
0.0 0.0 0.0 
0.0 0.0 0.0 
0.0 0.0 0.0 
0.0 0.0 0.0 
0.0 0.0 0.0 
0.0 0.0 0.0 
0.0 0.0 0.0 
0.0 0.0 0.0 
0.0 0.0 0.0 
0.0 0.0 0.0 
0.0 0.0 0.0 
0.0 0.0 0.0 
0.0 0.0 0.0 
0.0 0.0 0.0 
0.0 0.0 0.0 
0.0 0.0 0.0 
0.0 0.0 0.0 
0.0 0.0 0.0 
0.0 0.0 0.0 
0.0 0.0 0.0 
0.0 0.0 0.0 
0.0 0.0 0.0 
0.0 0.0 0.0 
0.0 0.0 0.0 
0.0 0.0 0.0 
0.0 0.0 0.0 
0.0 0.0 0.0 
0.0 0.0 0.0 
0.0 0.0 0.0 
0.0 0.0 0.0 
0.0 0.0 0.0 
0.0 0.0 0.0 
0.0 0.0 0.0 
0.0 0.0 0.0 
0.0 0.0 0.0 
0.0 0.0 0.0 
0.0 0.0 0.0 
0.0 0.0 0.0 
0.0 0.0 0.0 
0.0 0.0 0.0 
0.0 0.0 0.0 
0.0 0.0 0.0 
0.0 0.0 0.0 
0.0 0.0 0.0 
0.0 0.0 0.0 
0.0 0.0 0.0 
0.0 0.0 0.0 
0.0 0.0 0.0 
0.0 0.0 0.0 
0.0 0.0 0.0 
0.0 0.0 0.0 
0.0 0.0 0.0 
0.0 0.0 0.0 
0.0 0.0 0.0 
0.0 0.0 0.0 
0.0 0.0 0.0 
0.0 0.0 0.0 
0.0 0.0 0.0 
0.0 0.0 0.0 
0.0 0.0 0.0 
0.0 0.0 0.0 
0.0 0.0 0.0 
0.0 0.0 0.0 
0.0 0.0 0.0 
0.0 0.0 0.0 
0.0 0.0 0.0 
0.0 0.0 0.0 
0.0 0.0 0.0 
0.0 0.0 0.0 
0.0 0.0 0.0 
0.0 0.0 0.0 
0.0 0.0 0.0 
0.0 0.0 0.0 
0.0 0.0 0.0 
0.0 0.0 0.0 
0.0 0.0 0.0 
0.0 0.0 0.0 
0.0 0.0 0.0 
0.0 0.0 0.0 
0.0 0.0 0.0 
0.0 0.0 0.0 
0.0 0.0 0.0 
0.0 0.0 0.0 
0.0 0.0 0.0 
0.0 0.0 0.0 
0.0 0.0 0.0 
0.0 0.0 0.0 
0.0 0.0 0.0 
0.0 0.0 0.0 
0.0 0.0 0.0 
0.0 0.0 0.0 
0.0 0.0 0.0 
0.0 0.0 0.0 
0.0 0.0 0.0 
0.0 0.0 0.0 
0.0 0.0 0.0 
0.0 0.0 0.0 
0.0 0.0 0.0 
0.0 0.0 0.0 
0.0 0.0 0.0 
0.0 0.0 0.0 
0.0 0.0 0.0 
0.0 0.0 0.0 
0.0 0.0 0.0 
0.0 0.0 0.0 
0.0 0.0 0.0 
0.0 0.0 0.0 
0.0 0.0 0.0 
0.0 0.0 0.0 
0.0 0.0 0.0 
0.0 0.0 0.0 
0.0 0.0 0.0 
0.0 0.0 0.0 
0.0 0.0 0.0 
0.0 0.0 0.0 
0.0 0.0 0.0 
0.0 0.0 0.0 
0.0 0.0 0.0 
0.0 0.0 0.0 
0.0 0.0 0.0 
0.0 0.0 0.0 
0.0 0.0 0.0 
0.0 0.0 0.0 
0.0 0.0 0.0 
0.0 0.0 0.0 
0.0 0.0 0.0 
0.0 0.0 0.0 
0.0 0.0 0.0 
0.0 0.0 0.0 
0.0 0.0 0.0 
0.0 0.0 0.0 
0.0 0.0 0.0 
0.0 0.0 0.0 
0.0 0.0 0.0 
0.0 0.0 0.0 
0.0 0.0 0.0 
0.0 0.0 0.0 
0.0 0.0 0.0 
0.0 0.0 0.0 
0.0 0.0 0.0 
0.0 0.0 0.0 
0.0 0.0 0.0 
0.0 0.0 0.0 
0.0 0.0 0.0 
0.0 0.0 0.0 
0.0 0.0 0.0 
0.0 0.0 0.0 
0.0 0.0 0.0 
0.0 0.0 0.0 
0.0 0.0 0.0 
0.0 0.0 0.0 
0.0 0.0 0.0 
0.0 0.0 0.0 
0.0 0.0 0.0 
0.0 0.0 0.0 
0.0 0.0 0.0 
0.0 0.0 0.0 
0.0 0.0 0.0 
0.0 0.0 0.0 
0.0 0.0 0.0 
0.0 0.0 0.0 
0.0 0.0 0.0 
0.0 0.0 0.0 
0.0 0.0 0.0 
0.0 0.0 0.0 
0.0 0.0 0.0 
0.0 0.0 0.0 
0.0 0.0 0.0 
0.0 0.0 0.0 
0.0 0.0 0.0 
0.0 0.0 0.0 
0.0 0.0 0.0 
0.0 0.0 0.0 
0.0 0.0 0.0 
0.0 0.0 0.0 
0.0 0.0 0.0 
0.0 0.0 0.0 
0.0 0.0 0.0 
0.0 0.0 0.0 
0.0 0.0 0.0 
0.0 0.0 0.0 
0.0 0.0 0.0 
0.0 0.0 0.0 
0.0 0.0 0.0 
0.0 0.0 0.0 
0.0 0.0 0.0 
0.0 0.0 0.0 
0.0 0.0 0.0 
0.0 0.0 0.0 
0.0 0.0 0.0 
0.0 0.0 0.0 
0.0 0.0 0.0 
0.0 0.0 0.0 
0.0 0.0 0.0 
0.0 0.0 0.0 
0.0 0.0 0.0 
0.0 0.0 0.0 
0.0 0.0 0.0 
0.0 0.0 0.0 
0.0 0.0 0.0 
0.0 0.0 0.0 
0.0 0.0 0.0 
0.0 0.0 0.0 
0.0 0.0 0.0 
0.0 0.0 0.0 
0.0 0.0 0.0 
0.0 0.0 0.0 
0.0 0.0 0.0 
0.0 0.0 0.0 
0.0 0.0 0.0 
0.0 0.0 0.0 
0.0 0.0 0.0 
0.0 0.0 0.0 
0.0 0.0 0.0 
0.0 0.0 0.0 
0.0 0.0 0.0 
0.0 0.0 0.0 
0.0 0.0 0.0 
0.0 0.0 0.0 
0.0 0.0 0.0 
0.0 0.0 0.0 
0.0 0.0 0.0 
0.0 0.0 0.0 
0.0 0.0 0.0 
0.0 0.0 0.0 
0.0 0.0 0.0 
0.0 0.0 0.0 
0.0 0.0 0.0 
0.0 0.0 0.0 
0.0 0.0 0.0 
0.0 0.0 0.0 
0.0 0.0 0.0 
0.0 0.0 0.0 
0.0 0.0 0.0 
0.0 0.0 0.0 
0.0 0.0 0.0 
0.0 0.0 0.0 
0.0 0.0 0.0 
0.0 0.0 0.0 
0.0 0.0 0.0 
0.0 0.0 0.0 
0.0 0.0 0.0 
0.0 0.0 0.0 
0.0 0.0 0.0 
0.0 0.0 0.0 
0.0 0.0 0.0 
0.0 0.0 0.0 
0.0 0.0 0.0 
0.0 0.0 0.0 
0.0 0.0 0.0 
0.0 0.0 0.0 
0.0 0.0 0.0 
0.0 0.0 0.0 
0.0 0.0 0.0 
0.0 0.0 0.0 
0.0 0.0 0.0 
0.0 0.0 0.0 
0.0 0.0 0.0 
0.0 0.0 0.0 
0.0 0.0 0.0 
0.0 0.0 0.0 
0.0 0.0 0.0 
0.0 0.0 0.0 
0.0 0.0 0.0 
0.0 0.0 0.0 
0.0 0.0 0.0 
0.0 0.0 0.0 
0.0 0.0 0.0 
0.0 0.0 0.0 
0.0 0.0 0.0 
0.0 0.0 0.0 
0.0 0.0 0.0 
0.0 0.0 0.0 
0.0 0.0 0.0 
0.0 0.0 0.0 
0.0 0.0 0.0 
0.0 0.0 0.0 
0.0 0.0 0.0 
0.0 0.0 0.0 
0.0 0.0 0.0 
0.0 0.0 0.0 
0.0 0.0 0.0 
0.0 0.0 0.0 
0.0 0.0 0.0 
0.0 0.0 0.0 
0.0 0.0 0.0 
0.0 0.0 0.0 
0.0 0.0 0.0 
0.0 0.0 0.0 
0.0 0.0 0.0 
0.0 0.0 0.0 
0.0 0.0 0.0 
0.0 0.0 0.0 
0.0 0.0 0.0 
0.0 0.0 0.0 
0.0 0.0 0.0 
0.0 0.0 0.0 
0.0 0.0 0.0 
0.0 0.0 0.0 
0.0 0.0 0.0 
0.0 0.0 0.0 
0.0 0.0 0.0 
0.0 0.0 0.0 
0.0 0.0 0.0 
0.0 0.0 0.0 
0.0 0.0 0.0 
0.0 0.0 0.0 
0.0 0.0 0.0 
0.0 0.0 0.0 
0.0 0.0 0.0 
0.0 0.0 0.0 
0.0 0.0 0.0 
0.0 0.0 0.0 
0.0 0.0 0.0 
0.0 0.0 0.0 
0.0 0.0 0.0 
0.0 0.0 0.0 
0.0 0.0 0.0 
0.0 0.0 0.0 
0.0 0.0 0.0 
0.0 0.0 0.0 
0.0 0.0 0.0 
0.0 0.0 0.0 
0.0 0.0 0.0 
0.0 0.0 0.0 
0.0 0.0 0.0 
0.0 0.0 0.0 
0.0 0.0 0.0 
0.0 0.0 0.0 
0.0 0.0 0.0 
0.0 0.0 0.0 
0.0 0.0 0.0 
0.0 0.0 0.0 
0.0 0.0 0.0 
0.0 0.0 0.0 
0.0 0.0 0.0 
0.0 0.0 0.0 
0.0 0.0 0.0 
0.0 0.0 0.0 
0.0 0.0 0.0 
0.0 0.0 0.0 
0.0 0.0 0.0 
0.0 0.0 0.0 
0.0 0.0 0.0 
0.0 0.0 0.0 
0.0 0.0 0.0 
0.0 0.0 0.0 
0.0 0.0 0.0 
0.0 0.0 0.0 
0.0 0.0 0.0 
0.0 0.0 0.0 
0.0 0.0 0.0 
0.0 0.0 0.0 
0.0 0.0 0.0 
0.0 0.0 0.0 
0.0 0.0 0.0 
0.0 0.0 0.0 
0.0 0.0 0.0 
0.0 0.0 0.0 
0.0 0.0 0.0 
0.0 0.0 0.0 
0.0 0.0 0.0 
0.0 0.0 0.0 
0.0 0.0 0.0 
0.0 0.0 0.0 
0.0 0.0 0.0 
0.0 0.0 0.0 
0.0 0.0 0.0 
0.0 0.0 0.0 
0.0 0.0 0.0 
0.0 0.0 0.0 
0.0 0.0 0.0 
0.0 0.0 0.0 
0.0 0.0 0.0 
0.0 0.0 0.0 
0.0 0.0 0.0 
0.0 0.0 0.0 
0.0 0.0 0.0 
0.0 0.0 0.0 
0.0 0.0 0.0 
0.0 0.0 0.0 
0.0 0.0 0.0 
0.0 0.0 0.0 
0.0 0.0 0.0 
0.0 0.0 0.0 
0.0 0.0 0.0 
0.0 0.0 0.0 
0.0 0.0 0.0 
0.0 0.0 0.0 
0.0 0.0 0.0 
0.0 0.0 0.0 
0.0 0.0 0.0 
0.0 0.0 0.0 
0.0 0.0 0.0 
0.0 0.0 0.0 
0.0 0.0 0.0 
0.0 0.0 0.0 
0.0 0.0 0.0 
0.0 0.0 0.0 
0.0 0.0 0.0 
0.0 0.0 0.0 
0.0 0.0 0.0 
0.0 0.0 0.0 
0.0 0.0 0.0 
0.0 0.0 0.0 
0.0 0.0 0.0 
0.0 0.0 0.0 
0.0 0.0 0.0 
0.0 0.0 0.0 
0.0 0.0 0.0 
0.0 0.0 0.0 
0.0 0.0 0.0 
0.0 0.0 0.0 
0.0 0.0 0.0 
0.0 0.0 0.0 
0.0 0.0 0.0 
0.0 0.0 0.0 
0.0 0.0 0.0 
0.0 0.0 0.0 
0.0 0.0 0.0 
0.0 0.0 0.0 
0.0 0.0 0.0 
0.0 0.0 0.0 
0.0 0.0 0.0 
0.0 0.0 0.0 
0.0 0.0 0.0 
0.0 0.0 0.0 
0.0 0.0 0.0 
0.0 0.0 0.0 
0.0 0.0 0.0 
0.0 0.0 0.0 
0.0 0.0 0.0 
0.0 0.0 0.0 
0.0 0.0 0.0 
0.0 0.0 0.0 
0.0 0.0 0.0 
0.0 0.0 0.0 
0.0 0.0 0.0 
0.0 0.0 0.0 
0.0 0.0 0.0 
0.0 0.0 0.0 
0.0 0.0 0.0 
0.0 0.0 0.0 
0.0 0.0 0.0 
0.0 0.0 0.0 
0.0 0.0 0.0 
0.0 0.0 0.0 
0.0 0.0 0.0 
0.0 0.0 0.0 
0.0 0.0 0.0 
0.0 0.0 0.0 
0.0 0.0 0.0 
0.0 0.0 0.0 
0.0 0.0 0.0 
0.0 0.0 0.0 
0.0 0.0 0.0 
0.0 0.0 0.0 
0.0 0.0 0.0 
0.0 0.0 0.0 
0.0 0.0 0.0 
0.0 0.0 0.0 
0.0 0.0 0.0 
0.0 0.0 0.0 
0.0 0.0 0.0 
0.0 0.0 0.0 
0.0 0.0 0.0 
0.0 0.0 0.0 
0.0 0.0 0.0 
0.0 0.0 0.0 
0.0 0.0 0.0 
0.0 0.0 0.0 
0.0 0.0 0.0 
0.0 0.0 0.0 
0.0 0.0 0.0 
0.0 0.0 0.0 
0.0 0.0 0.0 
0.0 0.0 0.0 
0.0 0.0 0.0 
0.0 0.0 0.0 
0.0 0.0 0.0 
0.0 0.0 0.0 
0.0 0.0 0.0 
0.0 0.0 0.0 
0.0 0.0 0.0 
0.0 0.0 0.0 
0.0 0.0 0.0 
0.0 0.0 0.0 
0.0 0.0 0.0 
0.0 0.0 0.0 
0.0 0.0 0.0 
0.0 0.0 0.0 
0.0 0.0 0.0 
0.0 0.0 0.0 
0.0 0.0 0.0 
0.0 0.0 0.0 
0.0 0.0 0.0 
0.0 0.0 0.0 
0.0 0.0 0.0 
0.0 0.0 0.0 
0.0 0.0 0.0 
0.0 0.0 0.0 
0.0 0.0 0.0 
0.0 0.0 0.0 
0.0 0.0 0.0 
0.0 0.0 0.0 
0.0 0.0 0.0 
0.0 0.0 0.0 
0.0 0.0 0.0 
0.0 0.0 0.0 
0.0 0.0 0.0 
0.0 0.0 0.0 
0.0 0.0 0.0 
0.0 0.0 0.0 
0.0 0.0 0.0 
0.0 0.0 0.0 
0.0 0.0 0.0 
0.0 0.0 0.0 
0.0 0.0 0.0 
0.0 0.0 0.0 
0.0 0.0 0.0 
0.0 0.0 0.0 
0.0 0.0 0.0 
0.0 0.0 0.0 
0.0 0.0 0.0 
0.0 0.0 0.0 
0.0 0.0 0.0 
0.0 0.0 0.0 
0.0 0.0 0.0 
0.0 0.0 0.0 
0.0 0.0 0.0 
0.0 0.0 0.0 
0.0 0.0 0.0 
0.0 0.0 0.0 
0.0 0.0 0.0 
0.0 0.0 0.0 
0.0 0.0 0.0 
0.0 0.0 0.0 
0.0 0.0 0.0 
0.0 0.0 0.0 
0.0 0.0 0.0 
0.0 0.0 0.0 
0.0 0.0 0.0 
0.0 0.0 0.0 
0.0 0.0 0.0 
0.0 0.0 0.0 
0.0 0.0 0.0 
0.0 0.0 0.0 
0.0 0.0 0.0 
0.0 0.0 0.0 
0.0 0.0 0.0 
0.0 0.0 0.0 
0.0 0.0 0.0 
0.0 0.0 0.0 
0.0 0.0 0.0 
0.0 0.0 0.0 
0.0 0.0 0.0 
0.0 0.0 0.0 
0.0 0.0 0.0 
0.0 0.0 0.0 
0.0 0.0 0.0 
0.0 0.0 0.0 
0.0 0.0 0.0 
0.0 0.0 0.0 
0.0 0.0 0.0 
0.0 0.0 0.0 
0.0 0.0 0.0 
0.0 0.0 0.0 
0.0 0.0 0.0 
0.0 0.0 0.0 
0.0 0.0 0.0 
0.0 0.0 0.0 
0.0 0.0 0.0 
0.0 0.0 0.0 
0.0 0.0 0.0 
0.0 0.0 0.0 
0.0 0.0 0.0 
0.0 0.0 0.0 
0.0 0.0 0.0 
0.0 0.0 0.0 
0.0 0.0 0.0 
0.0 0.0 0.0 
0.0 0.0 0.0 
0.0 0.0 0.0 
0.0 0.0 0.0 
0.0 0.0 0.0 
0.0 0.0 0.0 
0.0 0.0 0.0 
0.0 0.0 0.0 
0.0 0.0 0.0 
0.0 0.0 0.0 
0.0 0.0 0.0 
0.0 0.0 0.0 
0.0 0.0 0.0 
0.0 0.0 0.0 
0.0 0.0 0.0 
0.0 0.0 0.0 
0.0 0.0 0.0 
0.0 0.0 0.0 
0.0 0.0 0.0 
0.0 0.0 0.0 
0.0 0.0 0.0 
0.0 0.0 0.0 
0.0 0.0 0.0 
0.0 0.0 0.0 
0.0 0.0 0.0 
0.0 0.0 0.0 
0.0 0.0 0.0 
0.0 0.0 0.0 
0.0 0.0 0.0 
0.0 0.0 0.0 
0.0 0.0 0.0 
0.0 0.0 0.0 
0.0 0.0 0.0 
0.0 0.0 0.0 
0.0 0.0 0.0 
0.0 0.0 0.0 
0.0 0.0 0.0 
0.0 0.0 0.0 
0.0 0.0 0.0 
0.0 0.0 0.0 
0.0 0.0 0.0 
0.0 0.0 0.0 
0.0 0.0 0.0 
0.0 0.0 0.0 
0.0 0.0 0.0 
0.0 0.0 0.0 
0.0 0.0 0.0 
0.0 0.0 0.0 
0.0 0.0 0.0 
0.0 0.0 0.0 
0.0 0.0 0.0 
0.0 0.0 0.0 
0.0 0.0 0.0 
0.0 0.0 0.0 
0.0 0.0 0.0 
0.0 0.0 0.0 
0.0 0.0 0.0 
0.0 0.0 0.0 
0.0 0.0 0.0 
0.0 0.0 0.0 
0.0 0.0 0.0 
0.0 0.0 0.0 
0.0 0.0 0.0 
0.0 0.0 0.0 
0.0 0.0 0.0 
0.0 0.0 0.0 
0.0 0.0 0.0 
0.0 0.0 0.0 
0.0 0.0 0.0 
0.0 0.0 0.0 
0.0 0.0 0.0 
0.0 0.0 0.0 
0.0 0.0 0.0 
0.0 0.0 0.0 
0.0 0.0 0.0 
0.0 0.0 0.0 
0.0 0.0 0.0 
0.0 0.0 0.0 
0.0 0.0 0.0 
0.0 0.0 0.0 
0.0 0.0 0.0 
0.0 0.0 0.0 
0.0 0.0 0.0 
0.0 0.0 0.0 
0.0 0.0 0.0 
0.0 0.0 0.0 
0.0 0.0 0.0 
0.0 0.0 0.0 
0.0 0.0 0.0 
0.0 0.0 0.0 
0.0 0.0 0.0 
0.0 0.0 0.0 
0.0 0.0 0.0 
0.0 0.0 0.0 
0.0 0.0 0.0 
0.0 0.0 0.0 
0.0 0.0 0.0 
0.0 0.0 0.0 
0.0 0.0 0.0 
0.0 0.0 0.0 
0.0 0.0 0.0 
0.0 0.0 0.0 
0.0 0.0 0.0 
0.0 0.0 0.0 
0.0 0.0 0.0 
0.0 0.0 0.0 
0.0 0.0 0.0 
0.0 0.0 0.0 
0.0 0.0 0.0 
0.0 0.0 0.0 
0.0 0.0 0.0 
0.0 0.0 0.0 
0.0 0.0 0.0 
0.0 0.0 0.0 
0.0 0.0 0.0 
0.0 0.0 0.0 
0.0 0.0 0.0 
0.0 0.0 0.0 
0.0 0.0 0.0 
0.0 0.0 0.0 
0.0 0.0 0.0 
0.0 0.0 0.0 
0.0 0.0 0.0 
0.0 0.0 0.0 
0.0 0.0 0.0 
0.0 0.0 0.0 
0.0 0.0 0.0 
0.0 0.0 0.0 
0.0 0.0 0.0 
0.0 0.0 0.0 
0.0 0.0 0.0 
0.0 0.0 0.0 
0.0 0.0 0.0 
0.0 0.0 0.0 
0.0 0.0 0.0 
0.0 0.0 0.0 
0.0 0.0 0.0 
0.0 0.0 0.0 
0.0 0.0 0.0 
0.0 0.0 0.0 
0.0 0.0 0.0 
0.0 0.0 0.0 
0.0 0.0 0.0 
0.0 0.0 0.0 
0.0 0.0 0.0 
0.0 0.0 0.0 
0.0 0.0 0.0 
0.0 0.0 0.0 
0.0 0.0 0.0 
0.0 0.0 0.0 
0.0 0.0 0.0 
0.0 0.0 0.0 
0.0 0.0 0.0 
0.0 0.0 0.0 
0.0 0.0 0.0 
0.0 0.0 0.0 
0.0 0.0 0.0 
0.0 0.0 0.0 
0.0 0.0 0.0 
0.0 0.0 0.0 
0.0 0.0 0.0 
0.0 0.0 0.0 
0.0 0.0 0.0 
0.0 0.0 0.0 
0.0 0.0 0.0 
0.0 0.0 0.0 
0.0 0.0 0.0 
0.0 0.0 0.0 
0.0 0.0 0.0 
0.0 0.0 0.0 
0.0 0.0 0.0 
0.0 0.0 0.0 
0.0 0.0 0.0 
0.0 0.0 0.0 
0.0 0.0 0.0 
0.0 0.0 0.0 
0.0 0.0 0.0 
0.0 0.0 0.0 
0.0 0.0 0.0 
0.0 0.0 0.0 
0.0 0.0 0.0 
0.0 0.0 0.0 
0.0 0.0 0.0 
0.0 0.0 0.0 
0.0 0.0 0.0 
0.0 0.0 0.0 
0.0 0.0 0.0 
0.0 0.0 0.0 
0.0 0.0 0.0 
0.0 0.0 0.0 
0.0 0.0 0.0 
0.0 0.0 0.0 
0.0 0.0 0.0 
0.0 0.0 0.0 
0.0 0.0 0.0 
0.0 0.0 0.0 
0.0 0.0 0.0 
0.0 0.0 0.0 
0.0 0.0 0.0 
0.0 0.0 0.0 
0.0 0.0 0.0 
0.0 0.0 0.0 
0.0 0.0 0.0 
0.0 0.0 0.0 
0.0 0.0 0.0 
0.0 0.0 0.0 
0.0 0.0 0.0 
0.0 0.0 0.0 
0.0 0.0 0.0 
0.0 0.0 0.0 
0.0 0.0 0.0 
0.0 0.0 0.0 
0.0 0.0 0.0 
0.0 0.0 0.0 
0.0 0.0 0.0 
0.0 0.0 0.0 
0.0 0.0 0.0 
0.0 0.0 0.0 
0.0 0.0 0.0 
0.0 0.0 0.0 
0.0 0.0 0.0 
0.0 0.0 0.0 
0.0 0.0 0.0 
0.0 0.0 0.0 
0.0 0.0 0.0 
0.0 0.0 0.0 
0.0 0.0 0.0 
0.0 0.0 0.0 
0.0 0.0 0.0 
0.0 0.0 0.0 
0.0 0.0 0.0 
0.0 0.0 0.0 
0.0 0.0 0.0 
0.0 0.0 0.0 
0.0 0.0 0.0 
0.0 0.0 0.0 
0.0 0.0 0.0 
0.0 0.0 0.0 
0.0 0.0 0.0 
0.0 0.0 0.0 
0.0 0.0 0.0 
0.0 0.0 0.0 
0.0 0.0 0.0 
0.0 0.0 0.0 
0.0 0.0 0.0 
0.0 0.0 0.0 
0.0 0.0 0.0 
0.0 0.0 0.0 
0.0 0.0 0.0 
0.0 0.0 0.0 
0.0 0.0 0.0 
0.0 0.0 0.0 
0.0 0.0 0.0 
0.0 0.0 0.0 
0.0 0.0 0.0 
0.0 0.0 0.0 
0.0 0.0 0.0 

VECTORS node_bounda_dof_materi_velocity_y float
0.0 0.0 0.0 
0.0 0.0 0.0 
0.0 1.000000000000e+00 0.0 
0.0 1.000000000000e+00 0.0 
0.0 0.0 0.0 
0.0 0.0 0.0 
0.0 0.0 0.0 
0.0 0.0 0.0 
0.0 0.0 0.0 
0.0 0.0 0.0 
0.0 0.0 0.0 
0.0 0.0 0.0 
0.0 0.0 0.0 
0.0 0.0 0.0 
0.0 0.0 0.0 
0.0 0.0 0.0 
0.0 0.0 0.0 
0.0 0.0 0.0 
0.0 0.0 0.0 
0.0 0.0 0.0 
0.0 0.0 0.0 
0.0 0.0 0.0 
0.0 0.0 0.0 
0.0 1.000000000000e+00 0.0 
0.0 1.000000000000e+00 0.0 
0.0 1.000000000000e+00 0.0 
0.0 1.000000000000e+00 0.0 
0.0 1.000000000000e+00 0.0 
0.0 1.000000000000e+00 0.0 
0.0 1.000000000000e+00 0.0 
0.0 1.000000000000e+00 0.0 
0.0 1.000000000000e+00 0.0 
0.0 1.000000000000e+00 0.0 
0.0 1.000000000000e+00 0.0 
0.0 1.000000000000e+00 0.0 
0.0 1.000000000000e+00 0.0 
0.0 1.000000000000e+00 0.0 
0.0 1.000000000000e+00 0.0 
0.0 1.000000000000e+00 0.0 
0.0 1.000000000000e+00 0.0 
0.0 1.000000000000e+00 0.0 
0.0 1.000000000000e+00 0.0 
0.0 1.000000000000e+00 0.0 
0.0 1.000000000000e+00 0.0 
0.0 1.000000000000e+00 0.0 
0.0 1.000000000000e+00 0.0 
0.0 1.000000000000e+00 0.0 
0.0 1.000000000000e+00 0.0 
0.0 1.000000000000e+00 0.0 
0.0 1.000000000000e+00 0.0 
0.0 1.000000000000e+00 0.0 
0.0 1.000000000000e+00 0.0 
0.0 1.000000000000e+00 0.0 
0.0 1.000000000000e+00 0.0 
0.0 1.000000000000e+00 0.0 
0.0 1.000000000000e+00 0.0 
0.0 1.000000000000e+00 0.0 
0.0 1.000000000000e+00 0.0 
0.0 1.000000000000e+00 0.0 
0.0 1.000000000000e+00 0.0 
0.0 1.000000000000e+00 0.0 
0.0 1.000000000000e+00 0.0 
0.0 1.000000000000e+00 0.0 
0.0 1.000000000000e+00 0.0 
0.0 1.000000000000e+00 0.0 
0.0 1.000000000000e+00 0.0 
0.0 1.000000000000e+00 0.0 
0.0 1.000000000000e+00 0.0 
0.0 1.000000000000e+00 0.0 
0.0 1.000000000000e+00 0.0 
0.0 1.000000000000e+00 0.0 
0.0 1.000000000000e+00 0.0 
0.0 0.0 0.0 
0.0 0.0 0.0 
0.0 0.0 0.0 
0.0 0.0 0.0 
0.0 0.0 0.0 
0.0 0.0 0.0 
0.0 0.0 0.0 
0.0 0.0 0.0 
0.0 0.0 0.0 
0.0 0.0 0.0 
0.0 0.0 0.0 
0.0 0.0 0.0 
0.0 0.0 0.0 
0.0 0.0 0.0 
0.0 0.0 0.0 
0.0 0.0 0.0 
0.0 0.0 0.0 
0.0 0.0 0.0 
0.0 0.0 0.0 
0.0 0.0 0.0 
0.0 0.0 0.0 
0.0 0.0 0.0 
0.0 0.0 0.0 
0.0 0.0 0.0 
0.0 0.0 0.0 
0.0 0.0 0.0 
0.0 0.0 0.0 
0.0 0.0 0.0 
0.0 0.0 0.0 
0.0 0.0 0.0 
0.0 0.0 0.0 
0.0 0.0 0.0 
0.0 0.0 0.0 
0.0 0.0 0.0 
0.0 0.0 0.0 
0.0 0.0 0.0 
0.0 0.0 0.0 
0.0 0.0 0.0 
0.0 0.0 0.0 
0.0 0.0 0.0 
0.0 0.0 0.0 
0.0 0.0 0.0 
0.0 0.0 0.0 
0.0 0.0 0.0 
0.0 0.0 0.0 
0.0 0.0 0.0 
0.0 0.0 0.0 
0.0 0.0 0.0 
0.0 0.0 0.0 
0.0 0.0 0.0 
0.0 0.0 0.0 
0.0 0.0 0.0 
0.0 0.0 0.0 
0.0 0.0 0.0 
0.0 0.0 0.0 
0.0 0.0 0.0 
0.0 0.0 0.0 
0.0 0.0 0.0 
0.0 0.0 0.0 
0.0 0.0 0.0 
0.0 0.0 0.0 
0.0 0.0 0.0 
0.0 0.0 0.0 
0.0 0.0 0.0 
0.0 0.0 0.0 
0.0 0.0 0.0 
0.0 0.0 0.0 
0.0 0.0 0.0 
0.0 0.0 0.0 
0.0 0.0 0.0 
0.0 0.0 0.0 
0.0 0.0 0.0 
0.0 0.0 0.0 
0.0 0.0 0.0 
0.0 0.0 0.0 
0.0 0.0 0.0 
0.0 0.0 0.0 
0.0 0.0 0.0 
0.0 0.0 0.0 
0.0 0.0 0.0 
0.0 0.0 0.0 
0.0 0.0 0.0 
0.0 0.0 0.0 
0.0 0.0 0.0 
0.0 0.0 0.0 
0.0 0.0 0.0 
0.0 0.0 0.0 
0.0 0.0 0.0 
0.0 0.0 0.0 
0.0 0.0 0.0 
0.0 0.0 0.0 
0.0 0.0 0.0 
0.0 0.0 0.0 
0.0 0.0 0.0 
0.0 0.0 0.0 
0.0 0.0 0.0 
0.0 0.0 0.0 
0.0 0.0 0.0 
0.0 0.0 0.0 
0.0 0.0 0.0 
0.0 0.0 0.0 
0.0 0.0 0.0 
0.0 0.0 0.0 
0.0 0.0 0.0 
0.0 0.0 0.0 
0.0 0.0 0.0 
0.0 0.0 0.0 
0.0 0.0 0.0 
0.0 0.0 0.0 
0.0 0.0 0.0 
0.0 0.0 0.0 
0.0 0.0 0.0 
0.0 0.0 0.0 
0.0 0.0 0.0 
0.0 0.0 0.0 
0.0 0.0 0.0 
0.0 0.0 0.0 
0.0 0.0 0.0 
0.0 0.0 0.0 
0.0 0.0 0.0 
0.0 0.0 0.0 
0.0 0.0 0.0 
0.0 0.0 0.0 
0.0 0.0 0.0 
0.0 0.0 0.0 
0.0 0.0 0.0 
0.0 0.0 0.0 
0.0 0.0 0.0 
0.0 0.0 0.0 
0.0 0.0 0.0 
0.0 0.0 0.0 
0.0 0.0 0.0 
0.0 0.0 0.0 
0.0 0.0 0.0 
0.0 0.0 0.0 
0.0 0.0 0.0 
0.0 0.0 0.0 
0.0 0.0 0.0 
0.0 0.0 0.0 
0.0 0.0 0.0 
0.0 0.0 0.0 
0.0 0.0 0.0 
0.0 0.0 0.0 
0.0 0.0 0.0 
0.0 0.0 0.0 
0.0 0.0 0.0 
0.0 0.0 0.0 
0.0 0.0 0.0 
0.0 0.0 0.0 
0.0 0.0 0.0 
0.0 0.0 0.0 
0.0 0.0 0.0 
0.0 0.0 0.0 
0.0 0.0 0.0 
0.0 0.0 0.0 
0.0 0.0 0.0 
0.0 0.0 0.0 
0.0 0.0 0.0 
0.0 0.0 0.0 
0.0 0.0 0.0 
0.0 0.0 0.0 
0.0 0.0 0.0 
0.0 0.0 0.0 
0.0 0.0 0.0 
0.0 0.0 0.0 
0.0 0.0 0.0 
0.0 0.0 0.0 
0.0 0.0 0.0 
0.0 0.0 0.0 
0.0 0.0 0.0 
0.0 0.0 0.0 
0.0 0.0 0.0 
0.0 0.0 0.0 
0.0 0.0 0.0 
0.0 0.0 0.0 
0.0 0.0 0.0 
0.0 0.0 0.0 
0.0 0.0 0.0 
0.0 0.0 0.0 
0.0 0.0 0.0 
0.0 0.0 0.0 
0.0 0.0 0.0 
0.0 0.0 0.0 
0.0 0.0 0.0 
0.0 0.0 0.0 
0.0 0.0 0.0 
0.0 0.0 0.0 
0.0 0.0 0.0 
0.0 0.0 0.0 
0.0 0.0 0.0 
0.0 0.0 0.0 
0.0 0.0 0.0 
0.0 0.0 0.0 
0.0 0.0 0.0 
0.0 0.0 0.0 
0.0 0.0 0.0 
0.0 0.0 0.0 
0.0 0.0 0.0 
0.0 0.0 0.0 
0.0 0.0 0.0 
0.0 0.0 0.0 
0.0 0.0 0.0 
0.0 0.0 0.0 
0.0 0.0 0.0 
0.0 0.0 0.0 
0.0 0.0 0.0 
0.0 0.0 0.0 
0.0 0.0 0.0 
0.0 0.0 0.0 
0.0 0.0 0.0 
0.0 0.0 0.0 
0.0 0.0 0.0 
0.0 0.0 0.0 
0.0 0.0 0.0 
0.0 0.0 0.0 
0.0 0.0 0.0 
0.0 0.0 0.0 
0.0 0.0 0.0 
0.0 0.0 0.0 
0.0 0.0 0.0 
0.0 0.0 0.0 
0.0 0.0 0.0 
0.0 0.0 0.0 
0.0 0.0 0.0 
0.0 0.0 0.0 
0.0 0.0 0.0 
0.0 0.0 0.0 
0.0 0.0 0.0 
0.0 0.0 0.0 
0.0 0.0 0.0 
0.0 0.0 0.0 
0.0 0.0 0.0 
0.0 0.0 0.0 
0.0 0.0 0.0 
0.0 0.0 0.0 
0.0 0.0 0.0 
0.0 0.0 0.0 
0.0 0.0 0.0 
0.0 0.0 0.0 
0.0 0.0 0.0 
0.0 0.0 0.0 
0.0 0.0 0.0 
0.0 0.0 0.0 
0.0 0.0 0.0 
0.0 0.0 0.0 
0.0 0.0 0.0 
0.0 0.0 0.0 
0.0 0.0 0.0 
0.0 0.0 0.0 
0.0 0.0 0.0 
0.0 0.0 0.0 
0.0 0.0 0.0 
0.0 0.0 0.0 
0.0 0.0 0.0 
0.0 0.0 0.0 
0.0 0.0 0.0 
0.0 0.0 0.0 
0.0 0.0 0.0 
0.0 0.0 0.0 
0.0 0.0 0.0 
0.0 0.0 0.0 
0.0 0.0 0.0 
0.0 0.0 0.0 
0.0 0.0 0.0 
0.0 0.0 0.0 
0.0 0.0 0.0 
0.0 0.0 0.0 
0.0 0.0 0.0 
0.0 0.0 0.0 
0.0 0.0 0.0 
0.0 0.0 0.0 
0.0 0.0 0.0 
0.0 0.0 0.0 
0.0 0.0 0.0 
0.0 0.0 0.0 
0.0 0.0 0.0 
0.0 0.0 0.0 
0.0 0.0 0.0 
0.0 0.0 0.0 
0.0 0.0 0.0 
0.0 0.0 0.0 
0.0 0.0 0.0 
0.0 0.0 0.0 
0.0 0.0 0.0 
0.0 0.0 0.0 
0.0 0.0 0.0 
0.0 0.0 0.0 
0.0 0.0 0.0 
0.0 0.0 0.0 
0.0 0.0 0.0 
0.0 0.0 0.0 
0.0 0.0 0.0 
0.0 0.0 0.0 
0.0 0.0 0.0 
0.0 0.0 0.0 
0.0 0.0 0.0 
0.0 0.0 0.0 
0.0 0.0 0.0 
0.0 0.0 0.0 
0.0 0.0 0.0 
0.0 0.0 0.0 
0.0 0.0 0.0 
0.0 0.0 0.0 
0.0 0.0 0.0 
0.0 0.0 0.0 
0.0 0.0 0.0 
0.0 0.0 0.0 
0.0 0.0 0.0 
0.0 0.0 0.0 
0.0 0.0 0.0 
0.0 0.0 0.0 
0.0 0.0 0.0 
0.0 0.0 0.0 
0.0 0.0 0.0 
0.0 0.0 0.0 
0.0 0.0 0.0 
0.0 0.0 0.0 
0.0 0.0 0.0 
0.0 0.0 0.0 
0.0 0.0 0.0 
0.0 0.0 0.0 
0.0 0.0 0.0 
0.0 0.0 0.0 
0.0 0.0 0.0 
0.0 0.0 0.0 
0.0 0.0 0.0 
0.0 0.0 0.0 
0.0 0.0 0.0 
0.0 0.0 0.0 
0.0 0.0 0.0 
0.0 0.0 0.0 
0.0 0.0 0.0 
0.0 0.0 0.0 
0.0 0.0 0.0 
0.0 0.0 0.0 
0.0 0.0 0.0 
0.0 0.0 0.0 
0.0 0.0 0.0 
0.0 0.0 0.0 
0.0 0.0 0.0 
0.0 0.0 0.0 
0.0 0.0 0.0 
0.0 0.0 0.0 
0.0 0.0 0.0 
0.0 0.0 0.0 
0.0 0.0 0.0 
0.0 0.0 0.0 
0.0 0.0 0.0 
0.0 0.0 0.0 
0.0 0.0 0.0 
0.0 0.0 0.0 
0.0 0.0 0.0 
0.0 0.0 0.0 
0.0 0.0 0.0 
0.0 0.0 0.0 
0.0 0.0 0.0 
0.0 0.0 0.0 
0.0 0.0 0.0 
0.0 0.0 0.0 
0.0 0.0 0.0 
0.0 0.0 0.0 
0.0 0.0 0.0 
0.0 0.0 0.0 
0.0 0.0 0.0 
0.0 0.0 0.0 
0.0 0.0 0.0 
0.0 0.0 0.0 
0.0 0.0 0.0 
0.0 0.0 0.0 
0.0 0.0 0.0 
0.0 0.0 0.0 
0.0 0.0 0.0 
0.0 0.0 0.0 
0.0 0.0 0.0 
0.0 0.0 0.0 
0.0 0.0 0.0 
0.0 0.0 0.0 
0.0 0.0 0.0 
0.0 0.0 0.0 
0.0 0.0 0.0 
0.0 0.0 0.0 
0.0 0.0 0.0 
0.0 0.0 0.0 
0.0 0.0 0.0 
0.0 0.0 0.0 
0.0 0.0 0.0 
0.0 0.0 0.0 
0.0 0.0 0.0 
0.0 0.0 0.0 
0.0 0.0 0.0 
0.0 0.0 0.0 
0.0 0.0 0.0 
0.0 0.0 0.0 
0.0 0.0 0.0 
0.0 0.0 0.0 
0.0 0.0 0.0 
0.0 0.0 0.0 
0.0 0.0 0.0 
0.0 0.0 0.0 
0.0 0.0 0.0 
0.0 0.0 0.0 
0.0 0.0 0.0 
0.0 0.0 0.0 
0.0 0.0 0.0 
0.0 0.0 0.0 
0.0 0.0 0.0 
0.0 0.0 0.0 
0.0 0.0 0.0 
0.0 0.0 0.0 
0.0 0.0 0.0 
0.0 0.0 0.0 
0.0 0.0 0.0 
0.0 0.0 0.0 
0.0 0.0 0.0 
0.0 0.0 0.0 
0.0 0.0 0.0 
0.0 0.0 0.0 
0.0 0.0 0.0 
0.0 0.0 0.0 
0.0 0.0 0.0 
0.0 0.0 0.0 
0.0 0.0 0.0 
0.0 0.0 0.0 
0.0 0.0 0.0 
0.0 0.0 0.0 
0.0 0.0 0.0 
0.0 0.0 0.0 
0.0 0.0 0.0 
0.0 0.0 0.0 
0.0 0.0 0.0 
0.0 0.0 0.0 
0.0 0.0 0.0 
0.0 0.0 0.0 
0.0 0.0 0.0 
0.0 0.0 0.0 
0.0 0.0 0.0 
0.0 0.0 0.0 
0.0 0.0 0.0 
0.0 0.0 0.0 
0.0 0.0 0.0 
0.0 0.0 0.0 
0.0 0.0 0.0 
0.0 0.0 0.0 
0.0 0.0 0.0 
0.0 0.0 0.0 
0.0 0.0 0.0 
0.0 0.0 0.0 
0.0 0.0 0.0 
0.0 0.0 0.0 
0.0 0.0 0.0 
0.0 0.0 0.0 
0.0 0.0 0.0 
0.0 0.0 0.0 
0.0 0.0 0.0 
0.0 0.0 0.0 
0.0 0.0 0.0 
0.0 0.0 0.0 
0.0 0.0 0.0 
0.0 0.0 0.0 
0.0 0.0 0.0 
0.0 0.0 0.0 
0.0 0.0 0.0 
0.0 0.0 0.0 
0.0 0.0 0.0 
0.0 0.0 0.0 
0.0 0.0 0.0 
0.0 0.0 0.0 
0.0 0.0 0.0 
0.0 0.0 0.0 
0.0 0.0 0.0 
0.0 0.0 0.0 
0.0 0.0 0.0 
0.0 0.0 0.0 
0.0 0.0 0.0 
0.0 0.0 0.0 
0.0 0.0 0.0 
0.0 0.0 0.0 
0.0 0.0 0.0 
0.0 0.0 0.0 
0.0 0.0 0.0 
0.0 0.0 0.0 
0.0 0.0 0.0 
0.0 0.0 0.0 
0.0 0.0 0.0 
0.0 0.0 0.0 
0.0 0.0 0.0 
0.0 0.0 0.0 
0.0 0.0 0.0 
0.0 0.0 0.0 
0.0 0.0 0.0 
0.0 0.0 0.0 
0.0 0.0 0.0 
0.0 0.0 0.0 
0.0 0.0 0.0 
0.0 0.0 0.0 
0.0 0.0 0.0 
0.0 0.0 0.0 
0.0 0.0 0.0 
0.0 0.0 0.0 
0.0 0.0 0.0 
0.0 0.0 0.0 
0.0 0.0 0.0 
0.0 0.0 0.0 
0.0 0.0 0.0 
0.0 0.0 0.0 
0.0 0.0 0.0 
0.0 0.0 0.0 
0.0 0.0 0.0 
0.0 0.0 0.0 
0.0 0.0 0.0 
0.0 0.0 0.0 
0.0 0.0 0.0 
0.0 0.0 0.0 
0.0 0.0 0.0 
0.0 0.0 0.0 
0.0 0.0 0.0 
0.0 0.0 0.0 
0.0 0.0 0.0 
0.0 0.0 0.0 
0.0 0.0 0.0 
0.0 0.0 0.0 
0.0 0.0 0.0 
0.0 0.0 0.0 
0.0 0.0 0.0 
0.0 0.0 0.0 
0.0 0.0 0.0 
0.0 0.0 0.0 
0.0 0.0 0.0 
0.0 0.0 0.0 
0.0 0.0 0.0 
0.0 0.0 0.0 
0.0 0.0 0.0 
0.0 0.0 0.0 
0.0 0.0 0.0 
0.0 0.0 0.0 
0.0 0.0 0.0 
0.0 0.0 0.0 
0.0 0.0 0.0 
0.0 0.0 0.0 
0.0 0.0 0.0 
0.0 0.0 0.0 
0.0 0.0 0.0 
0.0 0.0 0.0 
0.0 0.0 0.0 
0.0 0.0 0.0 
0.0 0.0 0.0 
0.0 0.0 0.0 
0.0 0.0 0.0 
0.0 0.0 0.0 
0.0 0.0 0.0 
0.0 0.0 0.0 
0.0 0.0 0.0 
0.0 0.0 0.0 
0.0 0.0 0.0 
0.0 0.0 0.0 
0.0 0.0 0.0 
0.0 0.0 0.0 
0.0 0.0 0.0 
0.0 0.0 0.0 
0.0 0.0 0.0 
0.0 0.0 0.0 
0.0 0.0 0.0 
0.0 0.0 0.0 
0.0 0.0 0.0 
0.0 0.0 0.0 
0.0 0.0 0.0 
0.0 0.0 0.0 
0.0 0.0 0.0 
0.0 0.0 0.0 
0.0 0.0 0.0 
0.0 0.0 0.0 
0.0 0.0 0.0 
0.0 0.0 0.0 
0.0 0.0 0.0 
0.0 0.0 0.0 
0.0 0.0 0.0 
0.0 0.0 0.0 
0.0 0.0 0.0 
0.0 0.0 0.0 
0.0 0.0 0.0 
0.0 0.0 0.0 
0.0 0.0 0.0 
0.0 0.0 0.0 
0.0 0.0 0.0 
0.0 0.0 0.0 
0.0 0.0 0.0 
0.0 0.0 0.0 
0.0 0.0 0.0 
0.0 0.0 0.0 
0.0 0.0 0.0 
0.0 0.0 0.0 
0.0 0.0 0.0 
0.0 0.0 0.0 
0.0 0.0 0.0 
0.0 0.0 0.0 
0.0 0.0 0.0 
0.0 0.0 0.0 
0.0 0.0 0.0 
0.0 0.0 0.0 
0.0 0.0 0.0 
0.0 0.0 0.0 
0.0 0.0 0.0 
0.0 0.0 0.0 
0.0 0.0 0.0 
0.0 0.0 0.0 
0.0 0.0 0.0 
0.0 0.0 0.0 
0.0 0.0 0.0 
0.0 0.0 0.0 
0.0 0.0 0.0 
0.0 0.0 0.0 
0.0 0.0 0.0 
0.0 0.0 0.0 
0.0 0.0 0.0 
0.0 0.0 0.0 
0.0 0.0 0.0 
0.0 0.0 0.0 
0.0 0.0 0.0 
0.0 0.0 0.0 
0.0 0.0 0.0 
0.0 0.0 0.0 
0.0 0.0 0.0 
0.0 0.0 0.0 
0.0 0.0 0.0 
0.0 0.0 0.0 
0.0 0.0 0.0 
0.0 0.0 0.0 
0.0 0.0 0.0 
0.0 0.0 0.0 
0.0 0.0 0.0 
0.0 0.0 0.0 
0.0 0.0 0.0 
0.0 0.0 0.0 
0.0 0.0 0.0 
0.0 0.0 0.0 
0.0 0.0 0.0 
0.0 0.0 0.0 
0.0 0.0 0.0 
0.0 0.0 0.0 
0.0 0.0 0.0 
0.0 0.0 0.0 
0.0 0.0 0.0 
0.0 0.0 0.0 
0.0 0.0 0.0 
0.0 0.0 0.0 
0.0 0.0 0.0 
0.0 0.0 0.0 
0.0 0.0 0.0 
0.0 0.0 0.0 
0.0 0.0 0.0 
0.0 0.0 0.0 
0.0 0.0 0.0 
0.0 0.0 0.0 
0.0 0.0 0.0 
0.0 0.0 0.0 
0.0 0.0 0.0 
0.0 0.0 0.0 
0.0 0.0 0.0 
0.0 0.0 0.0 
0.0 0.0 0.0 
0.0 0.0 0.0 
0.0 0.0 0.0 
0.0 0.0 0.0 
0.0 0.0 0.0 
0.0 0.0 0.0 
0.0 0.0 0.0 
0.0 0.0 0.0 
0.0 0.0 0.0 
0.0 0.0 0.0 
0.0 0.0 0.0 
0.0 0.0 0.0 
0.0 0.0 0.0 
0.0 0.0 0.0 
0.0 0.0 0.0 
0.0 0.0 0.0 
0.0 0.0 0.0 
0.0 0.0 0.0 
0.0 0.0 0.0 
0.0 0.0 0.0 
0.0 0.0 0.0 
0.0 0.0 0.0 
0.0 0.0 0.0 
0.0 0.0 0.0 
0.0 0.0 0.0 
0.0 0.0 0.0 
0.0 0.0 0.0 
0.0 0.0 0.0 
0.0 0.0 0.0 
0.0 0.0 0.0 
0.0 0.0 0.0 
0.0 0.0 0.0 
0.0 0.0 0.0 
0.0 0.0 0.0 
0.0 0.0 0.0 
0.0 0.0 0.0 
0.0 0.0 0.0 
0.0 0.0 0.0 
0.0 0.0 0.0 
0.0 0.0 0.0 
0.0 0.0 0.0 
0.0 0.0 0.0 
0.0 0.0 0.0 
0.0 0.0 0.0 
0.0 0.0 0.0 
0.0 0.0 0.0 
0.0 0.0 0.0 
0.0 0.0 0.0 
0.0 0.0 0.0 
0.0 0.0 0.0 
0.0 0.0 0.0 
0.0 0.0 0.0 
0.0 0.0 0.0 
0.0 0.0 0.0 
0.0 0.0 0.0 
0.0 0.0 0.0 
0.0 0.0 0.0 
0.0 0.0 0.0 
0.0 0.0 0.0 
0.0 0.0 0.0 
0.0 0.0 0.0 
0.0 0.0 0.0 
0.0 0.0 0.0 
0.0 0.0 0.0 
0.0 0.0 0.0 
0.0 0.0 0.0 
0.0 0.0 0.0 
0.0 0.0 0.0 
0.0 0.0 0.0 
0.0 0.0 0.0 
0.0 0.0 0.0 
0.0 0.0 0.0 
0.0 0.0 0.0 
0.0 0.0 0.0 
0.0 0.0 0.0 
0.0 0.0 0.0 
0.0 0.0 0.0 
0.0 0.0 0.0 
0.0 0.0 0.0 
0.0 0.0 0.0 
0.0 0.0 0.0 
0.0 0.0 0.0 
0.0 0.0 0.0 
0.0 0.0 0.0 
0.0 0.0 0.0 
0.0 0.0 0.0 
0.0 0.0 0.0 
0.0 0.0 0.0 
0.0 0.0 0.0 
0.0 0.0 0.0 
0.0 0.0 0.0 
0.0 0.0 0.0 
0.0 0.0 0.0 
0.0 0.0 0.0 
0.0 0.0 0.0 
0.0 0.0 0.0 
0.0 0.0 0.0 
0.0 0.0 0.0 
0.0 0.0 0.0 
0.0 0.0 0.0 
0.0 0.0 0.0 
0.0 0.0 0.0 
0.0 0.0 0.0 
0.0 0.0 0.0 
0.0 0.0 0.0 
0.0 0.0 0.0 
0.0 0.0 0.0 
0.0 0.0 0.0 
0.0 0.0 0.0 
0.0 0.0 0.0 
0.0 0.0 0.0 
0.0 0.0 0.0 
0.0 0.0 0.0 
0.0 0.0 0.0 
0.0 0.0 0.0 
0.0 0.0 0.0 
0.0 0.0 0.0 
0.0 0.0 0.0 
0.0 0.0 0.0 
0.0 0.0 0.0 
0.0 0.0 0.0 
0.0 0.0 0.0 
0.0 0.0 0.0 
0.0 0.0 0.0 
0.0 0.0 0.0 
0.0 0.0 0.0 
0.0 0.0 0.0 
0.0 0.0 0.0 
0.0 0.0 0.0 
0.0 0.0 0.0 
0.0 0.0 0.0 
0.0 0.0 0.0 
0.0 0.0 0.0 
0.0 0.0 0.0 
0.0 0.0 0.0 
0.0 0.0 0.0 
0.0 0.0 0.0 
0.0 0.0 0.0 
0.0 0.0 0.0 
0.0 0.0 0.0 
0.0 0.0 0.0 
0.0 0.0 0.0 
0.0 0.0 0.0 
0.0 0.0 0.0 
0.0 0.0 0.0 
0.0 0.0 0.0 
0.0 0.0 0.0 
0.0 0.0 0.0 
0.0 0.0 0.0 
0.0 0.0 0.0 
0.0 0.0 0.0 
0.0 0.0 0.0 
0.0 0.0 0.0 
0.0 0.0 0.0 
0.0 0.0 0.0 
0.0 0.0 0.0 
0.0 0.0 0.0 
0.0 0.0 0.0 
0.0 0.0 0.0 
0.0 0.0 0.0 
0.0 0.0 0.0 
0.0 0.0 0.0 
0.0 0.0 0.0 
0.0 0.0 0.0 
0.0 0.0 0.0 
0.0 0.0 0.0 
0.0 0.0 0.0 
0.0 0.0 0.0 
0.0 0.0 0.0 
0.0 0.0 0.0 
0.0 0.0 0.0 
0.0 0.0 0.0 
0.0 0.0 0.0 
0.0 0.0 0.0 
0.0 0.0 0.0 
0.0 0.0 0.0 
0.0 0.0 0.0 
0.0 0.0 0.0 
0.0 0.0 0.0 
0.0 0.0 0.0 
0.0 0.0 0.0 
0.0 0.0 0.0 
0.0 0.0 0.0 
0.0 0.0 0.0 
0.0 0.0 0.0 
0.0 0.0 0.0 
0.0 0.0 0.0 
0.0 0.0 0.0 
0.0 0.0 0.0 
0.0 0.0 0.0 
0.0 0.0 0.0 
0.0 0.0 0.0 
0.0 0.0 0.0 
0.0 0.0 0.0 
0.0 0.0 0.0 
0.0 0.0 0.0 
0.0 0.0 0.0 
0.0 0.0 0.0 
0.0 0.0 0.0 
0.0 0.0 0.0 
0.0 0.0 0.0 
0.0 0.0 0.0 
0.0 0.0 0.0 
0.0 0.0 0.0 
0.0 0.0 0.0 
0.0 0.0 0.0 
0.0 0.0 0.0 
0.0 0.0 0.0 
0.0 0.0 0.0 
0.0 0.0 0.0 
0.0 0.0 0.0 
0.0 0.0 0.0 
0.0 0.0 0.0 
0.0 0.0 0.0 
0.0 0.0 0.0 
0.0 0.0 0.0 
0.0 0.0 0.0 
0.0 0.0 0.0 
0.0 0.0 0.0 
0.0 0.0 0.0 
0.0 0.0 0.0 
0.0 0.0 0.0 
0.0 0.0 0.0 
0.0 0.0 0.0 
0.0 0.0 0.0 
0.0 0.0 0.0 
0.0 0.0 0.0 
0.0 0.0 0.0 
0.0 0.0 0.0 
0.0 0.0 0.0 
0.0 0.0 0.0 
0.0 0.0 0.0 
0.0 0.0 0.0 
0.0 0.0 0.0 
0.0 0.0 0.0 
0.0 0.0 0.0 
0.0 0.0 0.0 
0.0 0.0 0.0 
0.0 0.0 0.0 
0.0 0.0 0.0 
0.0 0.0 0.0 
0.0 0.0 0.0 
0.0 0.0 0.0 
0.0 0.0 0.0 
0.0 0.0 0.0 
0.0 0.0 0.0 
0.0 0.0 0.0 
0.0 0.0 0.0 
0.0 0.0 0.0 
0.0 0.0 0.0 
0.0 0.0 0.0 
0.0 0.0 0.0 
0.0 0.0 0.0 
0.0 0.0 0.0 
0.0 0.0 0.0 
0.0 0.0 0.0 
0.0 0.0 0.0 
0.0 0.0 0.0 
0.0 0.0 0.0 
0.0 0.0 0.0 
0.0 0.0 0.0 
0.0 0.0 0.0 
0.0 0.0 0.0 
0.0 0.0 0.0 
0.0 0.0 0.0 
0.0 0.0 0.0 
0.0 0.0 0.0 
0.0 0.0 0.0 
0.0 0.0 0.0 
0.0 0.0 0.0 
0.0 0.0 0.0 
0.0 0.0 0.0 
0.0 0.0 0.0 
0.0 0.0 0.0 
0.0 0.0 0.0 
0.0 0.0 0.0 
0.0 0.0 0.0 
0.0 0.0 0.0 
0.0 0.0 0.0 
0.0 0.0 0.0 
0.0 0.0 0.0 
0.0 0.0 0.0 
0.0 0.0 0.0 
0.0 0.0 0.0 
0.0 0.0 0.0 
0.0 0.0 0.0 
0.0 0.0 0.0 
0.0 0.0 0.0 
0.0 0.0 0.0 
0.0 0.0 0.0 
0.0 0.0 0.0 
0.0 0.0 0.0 
0.0 0.0 0.0 
0.0 0.0 0.0 
0.0 0.0 0.0 
0.0 0.0 0.0 
0.0 0.0 0.0 
0.0 0.0 0.0 
0.0 0.0 0.0 
0.0 0.0 0.0 
0.0 0.0 0.0 
0.0 0.0 0.0 
0.0 0.0 0.0 
0.0 0.0 0.0 
0.0 0.0 0.0 
0.0 0.0 0.0 
0.0 0.0 0.0 
0.0 0.0 0.0 
0.0 0.0 0.0 
0.0 0.0 0.0 
0.0 0.0 0.0 
0.0 0.0 0.0 
0.0 0.0 0.0 
0.0 0.0 0.0 
0.0 0.0 0.0 
0.0 0.0 0.0 
0.0 0.0 0.0 
0.0 0.0 0.0 
0.0 0.0 0.0 
0.0 0.0 0.0 
0.0 0.0 0.0 
0.0 0.0 0.0 
0.0 0.0 0.0 
0.0 0.0 0.0 
0.0 0.0 0.0 
0.0 0.0 0.0 
0.0 0.0 0.0 
0.0 0.0 0.0 
0.0 0.0 0.0 
0.0 0.0 0.0 
0.0 0.0 0.0 
0.0 0.0 0.0 
0.0 0.0 0.0 
0.0 0.0 0.0 
0.0 0.0 0.0 
0.0 0.0 0.0 
0.0 0.0 0.0 
0.0 0.0 0.0 
0.0 0.0 0.0 
0.0 0.0 0.0 
0.0 0.0 0.0 
0.0 0.0 0.0 
0.0 0.0 0.0 
0.0 0.0 0.0 
0.0 0.0 0.0 
0.0 0.0 0.0 
0.0 0.0 0.0 
0.0 0.0 0.0 
0.0 0.0 0.0 
0.0 0.0 0.0 
0.0 0.0 0.0 
0.0 0.0 0.0 
0.0 0.0 0.0 
0.0 0.0 0.0 
0.0 0.0 0.0 
0.0 0.0 0.0 
0.0 0.0 0.0 
0.0 0.0 0.0 
0.0 0.0 0.0 
0.0 0.0 0.0 
0.0 0.0 0.0 
0.0 0.0 0.0 
0.0 0.0 0.0 
0.0 0.0 0.0 
0.0 0.0 0.0 
0.0 0.0 0.0 
0.0 0.0 0.0 
0.0 0.0 0.0 
0.0 0.0 0.0 
0.0 0.0 0.0 
0.0 0.0 0.0 
0.0 0.0 0.0 
0.0 0.0 0.0 
0.0 0.0 0.0 
0.0 0.0 0.0 
0.0 0.0 0.0 
0.0 0.0 0.0 
0.0 0.0 0.0 
0.0 0.0 0.0 
0.0 0.0 0.0 
0.0 0.0 0.0 
0.0 0.0 0.0 
0.0 0.0 0.0 
0.0 0.0 0.0 
0.0 0.0 0.0 
0.0 0.0 0.0 
0.0 0.0 0.0 
0.0 0.0 0.0 
0.0 0.0 0.0 
0.0 0.0 0.0 
0.0 0.0 0.0 
0.0 0.0 0.0 
0.0 0.0 0.0 
0.0 0.0 0.0 
0.0 0.0 0.0 
0.0 0.0 0.0 
0.0 0.0 0.0 
0.0 0.0 0.0 
0.0 0.0 0.0 
0.0 0.0 0.0 
0.0 0.0 0.0 
0.0 0.0 0.0 
0.0 0.0 0.0 
0.0 0.0 0.0 
0.0 0.0 0.0 
0.0 0.0 0.0 
0.0 0.0 0.0 
0.0 0.0 0.0 
0.0 0.0 0.0 
0.0 0.0 0.0 
0.0 0.0 0.0 
0.0 0.0 0.0 
0.0 0.0 0.0 
0.0 0.0 0.0 
0.0 0.0 0.0 
0.0 0.0 0.0 
0.0 0.0 0.0 
0.0 0.0 0.0 
0.0 0.0 0.0 
0.0 0.0 0.0 
0.0 0.0 0.0 
0.0 0.0 0.0 
0.0 0.0 0.0 
0.0 0.0 0.0 
0.0 0.0 0.0 
0.0 0.0 0.0 
0.0 0.0 0.0 
0.0 0.0 0.0 
0.0 0.0 0.0 
0.0 0.0 0.0 
0.0 0.0 0.0 
0.0 0.0 0.0 
0.0 0.0 0.0 
0.0 0.0 0.0 
0.0 0.0 0.0 
0.0 0.0 0.0 
0.0 0.0 0.0 
0.0 0.0 0.0 
0.0 0.0 0.0 
0.0 0.0 0.0 
0.0 0.0 0.0 
0.0 0.0 0.0 
0.0 0.0 0.0 
0.0 0.0 0.0 
0.0 0.0 0.0 
0.0 0.0 0.0 
0.0 0.0 0.0 
0.0 0.0 0.0 
0.0 0.0 0.0 
0.0 0.0 0.0 
0.0 0.0 0.0 
0.0 0.0 0.0 
0.0 0.0 0.0 
0.0 0.0 0.0 
0.0 0.0 0.0 
0.0 0.0 0.0 
0.0 0.0 0.0 
0.0 0.0 0.0 
0.0 0.0 0.0 
0.0 0.0 0.0 
0.0 0.0 0.0 
0.0 0.0 0.0 
0.0 0.0 0.0 
0.0 0.0 0.0 
0.0 0.0 0.0 
0.0 0.0 0.0 
0.0 0.0 0.0 
0.0 0.0 0.0 
0.0 0.0 0.0 
0.0 0.0 0.0 
0.0 0.0 0.0 
0.0 0.0 0.0 
0.0 0.0 0.0 
0.0 0.0 0.0 
0.0 0.0 0.0 
0.0 0.0 0.0 
0.0 0.0 0.0 
0.0 0.0 0.0 
0.0 0.0 0.0 
0.0 0.0 0.0 
0.0 0.0 0.0 
0.0 0.0 0.0 
0.0 0.0 0.0 
0.0 0.0 0.0 
0.0 0.0 0.0 
0.0 0.0 0.0 
0.0 0.0 0.0 
0.0 0.0 0.0 
0.0 0.0 0.0 
0.0 0.0 0.0 
0.0 0.0 0.0 
0.0 0.0 0.0 
0.0 0.0 0.0 
0.0 0.0 0.0 
0.0 0.0 0.0 
0.0 0.0 0.0 
0.0 0.0 0.0 
0.0 0.0 0.0 
0.0 0.0 0.0 
0.0 0.0 0.0 
0.0 0.0 0.0 
0.0 0.0 0.0 
0.0 0.0 0.0 
0.0 0.0 0.0 
0.0 0.0 0.0 
0.0 0.0 0.0 
0.0 0.0 0.0 
0.0 0.0 0.0 
0.0 0.0 0.0 
0.0 0.0 0.0 
0.0 0.0 0.0 
0.0 0.0 0.0 
0.0 0.0 0.0 
0.0 0.0 0.0 
0.0 0.0 0.0 
0.0 0.0 0.0 
0.0 0.0 0.0 
0.0 0.0 0.0 
0.0 0.0 0.0 
0.0 0.0 0.0 
0.0 0.0 0.0 
0.0 0.0 0.0 
0.0 0.0 0.0 
0.0 0.0 0.0 
0.0 0.0 0.0 
0.0 0.0 0.0 
0.0 0.0 0.0 
0.0 0.0 0.0 
0.0 0.0 0.0 
0.0 0.0 0.0 
0.0 0.0 0.0 
0.0 0.0 0.0 
0.0 0.0 0.0 
0.0 0.0 0.0 
0.0 0.0 0.0 
0.0 0.0 0.0 
0.0 0.0 0.0 
0.0 0.0 0.0 
0.0 0.0 0.0 
0.0 0.0 0.0 
0.0 0.0 0.0 
0.0 0.0 0.0 
0.0 0.0 0.0 
0.0 0.0 0.0 
0.0 0.0 0.0 
0.0 0.0 0.0 
0.0 0.0 0.0 
0.0 0.0 0.0 
0.0 0.0 0.0 
0.0 0.0 0.0 
0.0 0.0 0.0 
0.0 0.0 0.0 

SCALARS node_boundary float
LOOKUP_TABLE default
1.000000000000e+00 
1.000000000000e+00 
1.000000000000e+00 
1.000000000000e+00 
1.000000000000e+00 
1.000000000000e+00 
1.000000000000e+00 
1.000000000000e+00 
1.000000000000e+00 
1.000000000000e+00 
1.000000000000e+00 
1.000000000000e+00 
1.000000000000e+00 
1.000000000000e+00 
1.000000000000e+00 
1.000000000000e+00 
1.000000000000e+00 
1.000000000000e+00 
1.000000000000e+00 
1.000000000000e+00 
1.000000000000e+00 
1.000000000000e+00 
1.000000000000e+00 
1.000000000000e+00 
1.000000000000e+00 
1.000000000000e+00 
1.000000000000e+00 
1.000000000000e+00 
1.000000000000e+00 
1.000000000000e+00 
1.000000000000e+00 
1.000000000000e+00 
1.000000000000e+00 
1.000000000000e+00 
1.000000000000e+00 
1.000000000000e+00 
1.000000000000e+00 
1.000000000000e+00 
1.000000000000e+00 
1.000000000000e+00 
1.000000000000e+00 
1.000000000000e+00 
1.000000000000e+00 
1.000000000000e+00 
1.000000000000e+00 
1.000000000000e+00 
1.000000000000e+00 
1.000000000000e+00 
1.000000000000e+00 
1.000000000000e+00 
1.000000000000e+00 
1.000000000000e+00 
1.000000000000e+00 
1.000000000000e+00 
1.000000000000e+00 
1.000000000000e+00 
1.000000000000e+00 
1.000000000000e+00 
1.000000000000e+00 
1.000000000000e+00 
1.000000000000e+00 
1.000000000000e+00 
1.000000000000e+00 
1.000000000000e+00 
1.000000000000e+00 
1.000000000000e+00 
1.000000000000e+00 
1.000000000000e+00 
1.000000000000e+00 
1.000000000000e+00 
1.000000000000e+00 
1.000000000000e+00 
1.000000000000e+00 
1.000000000000e+00 
1.000000000000e+00 
1.000000000000e+00 
1.000000000000e+00 
1.000000000000e+00 
1.000000000000e+00 
1.000000000000e+00 
1.000000000000e+00 
1.000000000000e+00 
1.000000000000e+00 
0.0
0.0
0.0
0.0
0.0
0.0
0.0
0.0
0.0
0.0
1.000000000000e+00 
1.000000000000e+00 
1.000000000000e+00 
1.000000000000e+00 
1.000000000000e+00 
1.000000000000e+00 
1.000000000000e+00 
1.000000000000e+00 
1.000000000000e+00 
0.0
0.0
0.0
0.0
0.0
0.0
0.0
0.0
0.0
0.0
0.0
0.0
0.0
0.0
1.000000000000e+00 
1.000000000000e+00 
1.000000000000e+00 
1.000000000000e+00 
1.000000000000e+00 
1.000000000000e+00 
1.000000000000e+00 
1.000000000000e+00 
1.000000000000e+00 
1.000000000000e+00 
1.000000000000e+00 
1.000000000000e+00 
1.000000000000e+00 
1.000000000000e+00 
1.000000000000e+00 
1.000000000000e+00 
1.000000000000e+00 
1.000000000000e+00 
1.000000000000e+00 
1.000000000000e+00 
1.000000000000e+00 
1.000000000000e+00 
1.000000000000e+00 
1.000000000000e+00 
1.000000000000e+00 
1.000000000000e+00 
1.000000000000e+00 
1.000000000000e+00 
1.000000000000e+00 
1.000000000000e+00 
1.000000000000e+00 
1.000000000000e+00 
1.000000000000e+00 
1.000000000000e+00 
1.000000000000e+00 
1.000000000000e+00 
1.000000000000e+00 
1.000000000000e+00 
1.000000000000e+00 
1.000000000000e+00 
1.000000000000e+00 
1.000000000000e+00 
1.000000000000e+00 
1.000000000000e+00 
1.000000000000e+00 
1.000000000000e+00 
1.000000000000e+00 
1.000000000000e+00 
0.0
0.0
0.0
0.0
0.0
0.0
0.0
0.0
0.0
0.0
0.0
0.0
0.0
0.0
0.0
0.0
0.0
0.0
0.0
0.0
0.0
0.0
0.0
0.0
0.0
0.0
0.0
0.0
0.0
0.0
0.0
0.0
0.0
0.0
0.0
0.0
0.0
0.0
0.0
0.0
0.0
0.0
0.0
0.0
0.0
0.0
0.0
0.0
0.0
0.0
0.0
0.0
0.0
0.0
0.0
0.0
0.0
0.0
0.0
0.0
0.0
0.0
0.0
0.0
0.0
0.0
0.0
0.0
0.0
0.0
0.0
0.0
0.0
0.0
0.0
0.0
0.0
0.0
0.0
0.0
0.0
0.0
0.0
0.0
0.0
0.0
0.0
0.0
0.0
0.0
0.0
0.0
0.0
0.0
0.0
0.0
0.0
0.0
0.0
0.0
0.0
0.0
0.0
0.0
0.0
0.0
0.0
0.0
0.0
0.0
0.0
0.0
0.0
0.0
0.0
0.0
0.0
0.0
0.0
0.0
0.0
0.0
0.0
0.0
0.0
0.0
0.0
0.0
0.0
0.0
0.0
0.0
0.0
0.0
0.0
0.0
0.0
0.0
0.0
0.0
0.0
0.0
0.0
0.0
0.0
0.0
0.0
0.0
0.0
0.0
0.0
0.0
0.0
0.0
0.0
0.0
0.0
0.0
0.0
0.0
0.0
0.0
0.0
0.0
0.0
0.0
0.0
0.0
0.0
0.0
0.0
0.0
0.0
0.0
0.0
0.0
0.0
0.0
0.0
0.0
0.0
0.0
0.0
0.0
0.0
0.0
0.0
0.0
0.0
0.0
0.0
0.0
0.0
0.0
0.0
0.0
0.0
0.0
0.0
0.0
0.0
0.0
0.0
0.0
0.0
0.0
0.0
0.0
0.0
0.0
0.0
0.0
0.0
0.0
0.0
0.0
0.0
0.0
0.0
0.0
0.0
0.0
0.0
0.0
0.0
0.0
0.0
0.0
0.0
0.0
0.0
0.0
0.0
0.0
0.0
0.0
0.0
0.0
0.0
0.0
0.0
0.0
0.0
0.0
0.0
0.0
0.0
0.0
0.0
0.0
0.0
0.0
0.0
0.0
0.0
0.0
0.0
0.0
0.0
0.0
0.0
0.0
0.0
0.0
0.0
0.0
0.0
0.0
0.0
0.0
0.0
0.0
0.0
0.0
0.0
0.0
0.0
0.0
0.0
0.0
0.0
0.0
0.0
0.0
0.0
0.0
0.0
0.0
0.0
0.0
0.0
0.0
0.0
0.0
0.0
0.0
0.0
0.0
0.0
0.0
0.0
0.0
0.0
0.0
0.0
0.0
0.0
0.0
0.0
0.0
0.0
0.0
0.0
0.0
0.0
0.0
0.0
0.0
0.0
0.0
0.0
0.0
0.0
0.0
0.0
0.0
0.0
0.0
0.0
0.0
0.0
0.0
0.0
0.0
0.0
0.0
0.0
0.0
0.0
0.0
0.0
0.0
0.0
0.0
0.0
0.0
0.0
0.0
0.0
0.0
0.0
0.0
0.0
0.0
0.0
0.0
0.0
0.0
0.0
0.0
0.0
0.0
0.0
0.0
0.0
0.0
0.0
0.0
0.0
0.0
0.0
0.0
0.0
0.0
0.0
0.0
0.0
0.0
0.0
0.0
0.0
0.0
0.0
0.0
0.0
0.0
0.0
0.0
0.0
0.0
0.0
0.0
0.0
0.0
0.0
0.0
0.0
0.0
0.0
0.0
0.0
0.0
0.0
0.0
0.0
0.0
0.0
0.0
0.0
0.0
0.0
0.0
0.0
0.0
0.0
0.0
0.0
0.0
0.0
0.0
0.0
0.0
0.0
0.0
0.0
0.0
0.0
0.0
0.0
0.0
0.0
0.0
0.0
0.0
0.0
0.0
0.0
0.0
0.0
0.0
0.0
0.0
0.0
0.0
0.0
0.0
0.0
0.0
0.0
0.0
0.0
0.0
0.0
0.0
0.0
0.0
0.0
0.0
0.0
0.0
0.0
0.0
0.0
0.0
0.0
0.0
0.0
0.0
0.0
0.0
0.0
0.0
0.0
0.0
0.0
0.0
0.0
0.0
0.0
0.0
0.0
0.0
0.0
0.0
0.0
0.0
0.0
0.0
0.0
0.0
0.0
0.0
0.0
0.0
0.0
0.0
0.0
0.0
0.0
0.0
0.0
0.0
0.0
0.0
0.0
0.0
0.0
0.0
0.0
0.0
0.0
0.0
0.0
0.0
0.0
0.0
0.0
0.0
0.0
0.0
0.0
0.0
0.0
0.0
0.0
0.0
0.0
0.0
0.0
0.0
0.0
0.0
0.0
0.0
0.0
0.0
0.0
0.0
0.0
0.0
0.0
0.0
0.0
0.0
0.0
0.0
0.0
0.0
0.0
0.0
0.0
0.0
0.0
0.0
0.0
0.0
0.0
0.0
0.0
0.0
0.0
0.0
0.0
0.0
0.0
0.0
0.0
0.0
0.0
0.0
0.0
0.0
0.0
0.0
0.0
0.0
0.0
0.0
0.0
0.0
0.0
0.0
0.0
0.0
0.0
0.0
0.0
0.0
0.0
0.0
0.0
0.0
0.0
0.0
0.0
0.0
0.0
0.0
0.0
0.0
0.0
0.0
0.0
0.0
0.0
0.0
0.0
0.0
0.0
0.0
0.0
0.0
0.0
0.0
0.0
0.0
0.0
0.0
0.0
0.0
0.0
0.0
0.0
0.0
0.0
0.0
0.0
0.0
0.0
0.0
0.0
0.0
0.0
0.0
0.0
0.0
0.0
0.0
0.0
0.0
0.0
0.0
0.0
0.0
0.0
0.0
0.0
0.0
0.0
0.0
0.0
0.0
0.0
0.0
0.0
0.0
0.0
0.0
0.0
0.0
0.0
0.0
0.0
0.0
0.0
0.0
0.0
0.0
0.0
0.0
0.0
0.0
0.0
0.0
0.0
0.0
0.0
0.0
0.0
0.0
0.0
0.0
0.0
0.0
0.0
0.0
0.0
0.0
0.0
0.0
0.0
0.0
0.0
0.0
0.0
0.0
0.0
0.0
0.0
0.0
0.0
0.0
0.0
0.0
0.0
0.0
0.0
0.0
0.0
0.0
0.0
0.0
0.0
0.0
0.0
0.0
0.0
0.0
0.0
0.0
0.0
0.0
0.0
0.0
0.0
0.0
0.0
0.0
0.0
0.0
0.0
0.0
0.0
0.0
0.0
0.0
0.0
0.0
0.0
0.0
0.0
0.0
0.0
0.0
0.0
0.0
0.0
0.0
0.0
0.0
0.0
0.0
0.0
0.0
0.0
0.0
0.0
0.0
0.0
0.0
0.0
0.0
0.0
0.0
0.0
0.0
0.0
0.0
0.0
0.0
0.0
0.0
0.0
0.0
0.0
0.0
0.0
0.0
0.0
0.0
0.0
0.0
0.0
0.0
0.0
0.0
0.0
0.0
0.0
0.0
0.0
0.0
0.0
0.0
0.0
0.0
0.0
0.0
0.0
0.0
0.0
0.0
0.0
0.0
0.0
0.0
0.0
0.0
0.0
0.0
0.0
0.0
0.0
0.0
0.0
0.0
0.0
0.0
0.0
0.0
0.0
0.0
0.0
0.0
0.0
0.0
0.0
0.0
0.0
0.0
0.0
0.0
0.0
0.0
0.0
0.0
0.0
0.0
0.0
0.0
0.0
0.0
0.0
0.0
0.0
0.0
0.0
0.0
0.0
0.0
0.0
0.0
0.0
0.0
0.0
0.0
0.0
0.0
0.0
0.0
0.0
0.0
0.0
0.0
0.0
0.0
0.0
0.0
0.0
0.0
0.0
0.0
0.0
0.0
0.0
0.0
0.0
0.0
0.0
0.0
0.0
0.0
0.0
0.0
0.0
0.0
0.0
0.0
0.0
0.0
0.0
0.0
0.0
0.0
0.0
0.0
0.0
0.0
0.0
0.0
0.0
0.0
0.0
0.0
0.0
0.0
0.0
0.0
0.0
0.0
0.0
0.0
0.0
0.0
0.0
0.0
0.0
0.0
0.0
0.0
0.0
0.0
0.0
0.0
0.0
0.0
0.0
0.0
0.0
0.0
0.0
0.0
0.0
0.0
0.0
0.0
0.0
0.0
0.0
0.0
0.0
0.0
0.0
0.0
0.0
0.0
0.0
0.0
0.0
0.0
0.0
0.0
0.0
0.0
0.0
0.0
0.0
0.0
0.0
0.0
0.0
0.0
0.0
0.0
0.0
0.0
0.0
0.0
0.0
0.0
0.0
0.0
0.0
0.0
0.0
0.0
0.0
0.0
0.0
0.0
0.0
0.0
0.0
0.0
0.0
0.0
0.0
0.0
0.0
0.0
0.0
0.0
0.0
0.0
0.0
0.0
0.0
0.0
0.0
0.0
0.0
0.0
0.0
0.0
0.0
0.0
0.0
0.0
0.0
0.0
0.0
0.0
0.0
0.0
0.0
0.0
0.0
0.0
0.0
0.0
0.0
0.0
0.0
0.0
0.0
0.0
0.0
0.0
0.0
0.0
0.0
0.0
0.0
0.0
0.0
0.0
0.0
0.0
0.0
0.0
0.0
0.0
0.0
0.0
0.0
0.0
0.0
0.0
0.0
0.0
0.0
0.0
0.0
0.0
0.0
0.0
0.0
0.0
0.0
0.0
0.0
0.0
0.0
0.0
0.0
0.0
0.0
0.0
0.0
0.0
0.0
0.0
0.0
0.0
0.0
0.0
0.0
0.0
0.0
0.0
0.0
0.0
0.0
0.0
0.0
0.0
0.0
0.0
0.0
0.0
0.0
0.0
0.0
0.0
0.0
0.0
0.0
0.0
0.0
0.0
0.0
0.0
0.0
0.0
0.0
0.0
0.0
0.0
0.0
0.0
0.0
0.0
0.0
0.0
0.0
0.0
0.0
0.0
0.0

VECTORS node_force_edge float
0.0 0.0 0.0 
0.0 0.0 0.0 
0.0 0.0 0.0 
0.0 0.0 0.0 
0.0 0.0 0.0 
0.0 0.0 0.0 
0.0 0.0 0.0 
0.0 0.0 0.0 
0.0 0.0 0.0 
0.0 0.0 0.0 
0.0 0.0 0.0 
0.0 0.0 0.0 
0.0 0.0 0.0 
0.0 0.0 0.0 
0.0 0.0 0.0 
0.0 0.0 0.0 
0.0 0.0 0.0 
0.0 0.0 0.0 
0.0 0.0 0.0 
0.0 0.0 0.0 
0.0 0.0 0.0 
0.0 0.0 0.0 
0.0 0.0 0.0 
0.0 0.0 0.0 
0.0 0.0 0.0 
0.0 0.0 0.0 
0.0 0.0 0.0 
0.0 0.0 0.0 
0.0 0.0 0.0 
0.0 0.0 0.0 
0.0 0.0 0.0 
0.0 0.0 0.0 
0.0 0.0 0.0 
0.0 0.0 0.0 
0.0 0.0 0.0 
0.0 0.0 0.0 
0.0 0.0 0.0 
0.0 0.0 0.0 
0.0 0.0 0.0 
0.0 0.0 0.0 
0.0 0.0 0.0 
0.0 0.0 0.0 
0.0 0.0 0.0 
0.0 0.0 0.0 
0.0 0.0 0.0 
0.0 0.0 0.0 
0.0 0.0 0.0 
0.0 0.0 0.0 
0.0 0.0 0.0 
0.0 0.0 0.0 
0.0 0.0 0.0 
0.0 0.0 0.0 
0.0 0.0 0.0 
0.0 0.0 0.0 
0.0 0.0 0.0 
0.0 0.0 0.0 
0.0 0.0 0.0 
0.0 0.0 0.0 
0.0 0.0 0.0 
0.0 0.0 0.0 
0.0 0.0 0.0 
0.0 0.0 0.0 
0.0 0.0 0.0 
0.0 0.0 0.0 
0.0 0.0 0.0 
0.0 0.0 0.0 
0.0 0.0 0.0 
0.0 0.0 0.0 
0.0 0.0 0.0 
0.0 0.0 0.0 
0.0 0.0 0.0 
0.0 0.0 0.0 
0.0 0.0 0.0 
0.0 0.0 0.0 
0.0 0.0 0.0 
0.0 0.0 0.0 
0.0 0.0 0.0 
0.0 0.0 0.0 
0.0 0.0 0.0 
0.0 0.0 0.0 
0.0 0.0 0.0 
0.0 -1.000000000000e+02 0.0 
0.0 0.0 0.0 
0.0 0.0 0.0 
0.0 0.0 0.0 
0.0 0.0 0.0 
0.0 0.0 0.0 
0.0 0.0 0.0 
0.0 0.0 0.0 
0.0 0.0 0.0 
0.0 0.0 0.0 
0.0 0.0 0.0 
0.0 0.0 0.0 
0.0 0.0 0.0 
0.0 0.0 0.0 
0.0 0.0 0.0 
0.0 0.0 0.0 
0.0 0.0 0.0 
0.0 0.0 0.0 
0.0 0.0 0.0 
0.0 0.0 0.0 
0.0 0.0 0.0 
0.0 0.0 0.0 
0.0 0.0 0.0 
0.0 0.0 0.0 
0.0 0.0 0.0 
0.0 0.0 0.0 
0.0 0.0 0.0 
0.0 0.0 0.0 
0.0 0.0 0.0 
0.0 0.0 0.0 
0.0 0.0 0.0 
0.0 0.0 0.0 
0.0 0.0 0.0 
0.0 0.0 0.0 
0.0 0.0 0.0 
0.0 -1.000000000000e+02 0.0 
0.0 -1.000000000000e+02 0.0 
0.0 -1.000000000000e+02 0.0 
0.0 -1.000000000000e+02 0.0 
0.0 -1.000000000000e+02 0.0 
0.0 0.0 0.0 
0.0 0.0 0.0 
0.0 0.0 0.0 
0.0 0.0 0.0 
0.0 0.0 0.0 
0.0 0.0 0.0 
0.0 0.0 0.0 
0.0 0.0 0.0 
0.0 0.0 0.0 
0.0 0.0 0.0 
0.0 0.0 0.0 
0.0 0.0 0.0 
0.0 0.0 0.0 
0.0 0.0 0.0 
0.0 0.0 0.0 
0.0 0.0 0.0 
0.0 0.0 0.0 
0.0 0.0 0.0 
0.0 0.0 0.0 
0.0 0.0 0.0 
0.0 0.0 0.0 
0.0 0.0 0.0 
0.0 0.0 0.0 
0.0 0.0 0.0 
0.0 0.0 0.0 
0.0 0.0 0.0 
0.0 0.0 0.0 
0.0 0.0 0.0 
0.0 0.0 0.0 
0.0 0.0 0.0 
0.0 0.0 0.0 
0.0 0.0 0.0 
0.0 0.0 0.0 
0.0 0.0 0.0 
0.0 0.0 0.0 
0.0 0.0 0.0 
0.0 0.0 0.0 
0.0 0.0 0.0 
0.0 0.0 0.0 
0.0 0.0 0.0 
0.0 0.0 0.0 
0.0 0.0 0.0 
0.0 0.0 0.0 
0.0 0.0 0.0 
0.0 0.0 0.0 
0.0 0.0 0.0 
0.0 0.0 0.0 
0.0 0.0 0.0 
0.0 0.0 0.0 
0.0 0.0 0.0 
0.0 0.0 0.0 
0.0 0.0 0.0 
0.0 0.0 0.0 
0.0 0.0 0.0 
0.0 0.0 0.0 
0.0 0.0 0.0 
0.0 0.0 0.0 
0.0 0.0 0.0 
0.0 0.0 0.0 
0.0 0.0 0.0 
0.0 0.0 0.0 
0.0 0.0 0.0 
0.0 0.0 0.0 
0.0 0.0 0.0 
0.0 0.0 0.0 
0.0 0.0 0.0 
0.0 0.0 0.0 
0.0 0.0 0.0 
0.0 0.0 0.0 
0.0 0.0 0.0 
0.0 0.0 0.0 
0.0 0.0 0.0 
0.0 0.0 0.0 
0.0 0.0 0.0 
0.0 0.0 0.0 
0.0 0.0 0.0 
0.0 0.0 0.0 
0.0 0.0 0.0 
0.0 0.0 0.0 
0.0 0.0 0.0 
0.0 0.0 0.0 
0.0 0.0 0.0 
0.0 0.0 0.0 
0.0 0.0 0.0 
0.0 0.0 0.0 
0.0 0.0 0.0 
0.0 0.0 0.0 
0.0 0.0 0.0 
0.0 0.0 0.0 
0.0 0.0 0.0 
0.0 0.0 0.0 
0.0 0.0 0.0 
0.0 0.0 0.0 
0.0 0.0 0.0 
0.0 0.0 0.0 
0.0 0.0 0.0 
0.0 0.0 0.0 
0.0 0.0 0.0 
0.0 0.0 0.0 
0.0 0.0 0.0 
0.0 0.0 0.0 
0.0 0.0 0.0 
0.0 0.0 0.0 
0.0 0.0 0.0 
0.0 0.0 0.0 
0.0 0.0 0.0 
0.0 0.0 0.0 
0.0 0.0 0.0 
0.0 0.0 0.0 
0.0 0.0 0.0 
0.0 0.0 0.0 
0.0 0.0 0.0 
0.0 0.0 0.0 
0.0 0.0 0.0 
0.0 0.0 0.0 
0.0 0.0 0.0 
0.0 0.0 0.0 
0.0 0.0 0.0 
0.0 0.0 0.0 
0.0 0.0 0.0 
0.0 0.0 0.0 
0.0 0.0 0.0 
0.0 0.0 0.0 
0.0 0.0 0.0 
0.0 0.0 0.0 
0.0 0.0 0.0 
0.0 0.0 0.0 
0.0 0.0 0.0 
0.0 0.0 0.0 
0.0 0.0 0.0 
0.0 0.0 0.0 
0.0 0.0 0.0 
0.0 0.0 0.0 
0.0 0.0 0.0 
0.0 0.0 0.0 
0.0 0.0 0.0 
0.0 0.0 0.0 
0.0 0.0 0.0 
0.0 0.0 0.0 
0.0 0.0 0.0 
0.0 0.0 0.0 
0.0 0.0 0.0 
0.0 0.0 0.0 
0.0 0.0 0.0 
0.0 0.0 0.0 
0.0 0.0 0.0 
0.0 0.0 0.0 
0.0 0.0 0.0 
0.0 0.0 0.0 
0.0 0.0 0.0 
0.0 0.0 0.0 
0.0 0.0 0.0 
0.0 0.0 0.0 
0.0 0.0 0.0 
0.0 0.0 0.0 
0.0 0.0 0.0 
0.0 0.0 0.0 
0.0 0.0 0.0 
0.0 0.0 0.0 
0.0 0.0 0.0 
0.0 0.0 0.0 
0.0 0.0 0.0 
0.0 0.0 0.0 
0.0 0.0 0.0 
0.0 0.0 0.0 
0.0 0.0 0.0 
0.0 0.0 0.0 
0.0 0.0 0.0 
0.0 0.0 0.0 
0.0 0.0 0.0 
0.0 0.0 0.0 
0.0 0.0 0.0 
0.0 0.0 0.0 
0.0 0.0 0.0 
0.0 0.0 0.0 
0.0 0.0 0.0 
0.0 0.0 0.0 
0.0 0.0 0.0 
0.0 0.0 0.0 
0.0 0.0 0.0 
0.0 0.0 0.0 
0.0 0.0 0.0 
0.0 0.0 0.0 
0.0 0.0 0.0 
0.0 0.0 0.0 
0.0 0.0 0.0 
0.0 0.0 0.0 
0.0 0.0 0.0 
0.0 0.0 0.0 
0.0 0.0 0.0 
0.0 0.0 0.0 
0.0 0.0 0.0 
0.0 0.0 0.0 
0.0 0.0 0.0 
0.0 0.0 0.0 
0.0 0.0 0.0 
0.0 0.0 0.0 
0.0 0.0 0.0 
0.0 0.0 0.0 
0.0 0.0 0.0 
0.0 0.0 0.0 
0.0 0.0 0.0 
0.0 0.0 0.0 
0.0 0.0 0.0 
0.0 0.0 0.0 
0.0 0.0 0.0 
0.0 0.0 0.0 
0.0 0.0 0.0 
0.0 0.0 0.0 
0.0 0.0 0.0 
0.0 0.0 0.0 
0.0 0.0 0.0 
0.0 0.0 0.0 
0.0 0.0 0.0 
0.0 0.0 0.0 
0.0 0.0 0.0 
0.0 0.0 0.0 
0.0 0.0 0.0 
0.0 0.0 0.0 
0.0 0.0 0.0 
0.0 0.0 0.0 
0.0 0.0 0.0 
0.0 0.0 0.0 
0.0 0.0 0.0 
0.0 0.0 0.0 
0.0 0.0 0.0 
0.0 0.0 0.0 
0.0 0.0 0.0 
0.0 0.0 0.0 
0.0 0.0 0.0 
0.0 0.0 0.0 
0.0 0.0 0.0 
0.0 0.0 0.0 
0.0 0.0 0.0 
0.0 0.0 0.0 
0.0 0.0 0.0 
0.0 0.0 0.0 
0.0 0.0 0.0 
0.0 0.0 0.0 
0.0 0.0 0.0 
0.0 0.0 0.0 
0.0 0.0 0.0 
0.0 0.0 0.0 
0.0 0.0 0.0 
0.0 0.0 0.0 
0.0 0.0 0.0 
0.0 0.0 0.0 
0.0 0.0 0.0 
0.0 0.0 0.0 
0.0 0.0 0.0 
0.0 0.0 0.0 
0.0 0.0 0.0 
0.0 0.0 0.0 
0.0 0.0 0.0 
0.0 0.0 0.0 
0.0 0.0 0.0 
0.0 0.0 0.0 
0.0 0.0 0.0 
0.0 0.0 0.0 
0.0 0.0 0.0 
0.0 0.0 0.0 
0.0 0.0 0.0 
0.0 0.0 0.0 
0.0 0.0 0.0 
0.0 0.0 0.0 
0.0 0.0 0.0 
0.0 0.0 0.0 
0.0 0.0 0.0 
0.0 0.0 0.0 
0.0 0.0 0.0 
0.0 0.0 0.0 
0.0 0.0 0.0 
0.0 0.0 0.0 
0.0 0.0 0.0 
0.0 0.0 0.0 
0.0 0.0 0.0 
0.0 0.0 0.0 
0.0 0.0 0.0 
0.0 0.0 0.0 
0.0 0.0 0.0 
0.0 0.0 0.0 
0.0 0.0 0.0 
0.0 0.0 0.0 
0.0 0.0 0.0 
0.0 0.0 0.0 
0.0 0.0 0.0 
0.0 0.0 0.0 
0.0 0.0 0.0 
0.0 0.0 0.0 
0.0 0.0 0.0 
0.0 0.0 0.0 
0.0 0.0 0.0 
0.0 0.0 0.0 
0.0 0.0 0.0 
0.0 0.0 0.0 
0.0 0.0 0.0 
0.0 0.0 0.0 
0.0 0.0 0.0 
0.0 0.0 0.0 
0.0 0.0 0.0 
0.0 0.0 0.0 
0.0 0.0 0.0 
0.0 0.0 0.0 
0.0 0.0 0.0 
0.0 0.0 0.0 
0.0 0.0 0.0 
0.0 0.0 0.0 
0.0 0.0 0.0 
0.0 0.0 0.0 
0.0 0.0 0.0 
0.0 0.0 0.0 
0.0 0.0 0.0 
0.0 0.0 0.0 
0.0 0.0 0.0 
0.0 0.0 0.0 
0.0 0.0 0.0 
0.0 0.0 0.0 
0.0 0.0 0.0 
0.0 0.0 0.0 
0.0 0.0 0.0 
0.0 0.0 0.0 
0.0 0.0 0.0 
0.0 0.0 0.0 
0.0 0.0 0.0 
0.0 0.0 0.0 
0.0 0.0 0.0 
0.0 0.0 0.0 
0.0 0.0 0.0 
0.0 0.0 0.0 
0.0 0.0 0.0 
0.0 0.0 0.0 
0.0 0.0 0.0 
0.0 0.0 0.0 
0.0 0.0 0.0 
0.0 0.0 0.0 
0.0 0.0 0.0 
0.0 0.0 0.0 
0.0 0.0 0.0 
0.0 0.0 0.0 
0.0 0.0 0.0 
0.0 0.0 0.0 
0.0 0.0 0.0 
0.0 0.0 0.0 
0.0 0.0 0.0 
0.0 0.0 0.0 
0.0 0.0 0.0 
0.0 0.0 0.0 
0.0 0.0 0.0 
0.0 0.0 0.0 
0.0 0.0 0.0 
0.0 0.0 0.0 
0.0 0.0 0.0 
0.0 0.0 0.0 
0.0 0.0 0.0 
0.0 0.0 0.0 
0.0 0.0 0.0 
0.0 0.0 0.0 
0.0 0.0 0.0 
0.0 0.0 0.0 
0.0 0.0 0.0 
0.0 0.0 0.0 
0.0 0.0 0.0 
0.0 0.0 0.0 
0.0 0.0 0.0 
0.0 0.0 0.0 
0.0 0.0 0.0 
0.0 0.0 0.0 
0.0 0.0 0.0 
0.0 0.0 0.0 
0.0 0.0 0.0 
0.0 0.0 0.0 
0.0 0.0 0.0 
0.0 0.0 0.0 
0.0 0.0 0.0 
0.0 0.0 0.0 
0.0 0.0 0.0 
0.0 0.0 0.0 
0.0 0.0 0.0 
0.0 0.0 0.0 
0.0 0.0 0.0 
0.0 0.0 0.0 
0.0 0.0 0.0 
0.0 0.0 0.0 
0.0 0.0 0.0 
0.0 0.0 0.0 
0.0 0.0 0.0 
0.0 0.0 0.0 
0.0 0.0 0.0 
0.0 0.0 0.0 
0.0 0.0 0.0 
0.0 0.0 0.0 
0.0 0.0 0.0 
0.0 0.0 0.0 
0.0 0.0 0.0 
0.0 0.0 0.0 
0.0 0.0 0.0 
0.0 0.0 0.0 
0.0 0.0 0.0 
0.0 0.0 0.0 
0.0 0.0 0.0 
0.0 0.0 0.0 
0.0 0.0 0.0 
0.0 0.0 0.0 
0.0 0.0 0.0 
0.0 0.0 0.0 
0.0 0.0 0.0 
0.0 0.0 0.0 
0.0 0.0 0.0 
0.0 0.0 0.0 
0.0 0.0 0.0 
0.0 0.0 0.0 
0.0 0.0 0.0 
0.0 0.0 0.0 
0.0 0.0 0.0 
0.0 0.0 0.0 
0.0 0.0 0.0 
0.0 0.0 0.0 
0.0 0.0 0.0 
0.0 0.0 0.0 
0.0 0.0 0.0 
0.0 0.0 0.0 
0.0 0.0 0.0 
0.0 0.0 0.0 
0.0 0.0 0.0 
0.0 0.0 0.0 
0.0 0.0 0.0 
0.0 0.0 0.0 
0.0 0.0 0.0 
0.0 0.0 0.0 
0.0 0.0 0.0 
0.0 0.0 0.0 
0.0 0.0 0.0 
0.0 0.0 0.0 
0.0 0.0 0.0 
0.0 0.0 0.0 
0.0 0.0 0.0 
0.0 0.0 0.0 
0.0 0.0 0.0 
0.0 0.0 0.0 
0.0 0.0 0.0 
0.0 0.0 0.0 
0.0 0.0 0.0 
0.0 0.0 0.0 
0.0 0.0 0.0 
0.0 0.0 0.0 
0.0 0.0 0.0 
0.0 0.0 0.0 
0.0 0.0 0.0 
0.0 0.0 0.0 
0.0 0.0 0.0 
0.0 0.0 0.0 
0.0 0.0 0.0 
0.0 0.0 0.0 
0.0 0.0 0.0 
0.0 0.0 0.0 
0.0 0.0 0.0 
0.0 0.0 0.0 
0.0 0.0 0.0 
0.0 0.0 0.0 
0.0 0.0 0.0 
0.0 0.0 0.0 
0.0 0.0 0.0 
0.0 0.0 0.0 
0.0 0.0 0.0 
0.0 0.0 0.0 
0.0 0.0 0.0 
0.0 0.0 0.0 
0.0 0.0 0.0 
0.0 0.0 0.0 
0.0 0.0 0.0 
0.0 0.0 0.0 
0.0 0.0 0.0 
0.0 0.0 0.0 
0.0 0.0 0.0 
0.0 0.0 0.0 
0.0 0.0 0.0 
0.0 0.0 0.0 
0.0 0.0 0.0 
0.0 0.0 0.0 
0.0 0.0 0.0 
0.0 0.0 0.0 
0.0 0.0 0.0 
0.0 0.0 0.0 
0.0 0.0 0.0 
0.0 0.0 0.0 
0.0 0.0 0.0 
0.0 0.0 0.0 
0.0 0.0 0.0 
0.0 0.0 0.0 
0.0 0.0 0.0 
0.0 0.0 0.0 
0.0 0.0 0.0 
0.0 0.0 0.0 
0.0 0.0 0.0 
0.0 0.0 0.0 
0.0 0.0 0.0 
0.0 0.0 0.0 
0.0 0.0 0.0 
0.0 0.0 0.0 
0.0 0.0 0.0 
0.0 0.0 0.0 
0.0 0.0 0.0 
0.0 0.0 0.0 
0.0 0.0 0.0 
0.0 0.0 0.0 
0.0 0.0 0.0 
0.0 0.0 0.0 
0.0 0.0 0.0 
0.0 0.0 0.0 
0.0 0.0 0.0 
0.0 0.0 0.0 
0.0 0.0 0.0 
0.0 0.0 0.0 
0.0 0.0 0.0 
0.0 0.0 0.0 
0.0 0.0 0.0 
0.0 0.0 0.0 
0.0 0.0 0.0 
0.0 0.0 0.0 
0.0 0.0 0.0 
0.0 0.0 0.0 
0.0 0.0 0.0 
0.0 0.0 0.0 
0.0 0.0 0.0 
0.0 0.0 0.0 
0.0 0.0 0.0 
0.0 0.0 0.0 
0.0 0.0 0.0 
0.0 0.0 0.0 
0.0 0.0 0.0 
0.0 0.0 0.0 
0.0 0.0 0.0 
0.0 0.0 0.0 
0.0 0.0 0.0 
0.0 0.0 0.0 
0.0 0.0 0.0 
0.0 0.0 0.0 
0.0 0.0 0.0 
0.0 0.0 0.0 
0.0 0.0 0.0 
0.0 0.0 0.0 
0.0 0.0 0.0 
0.0 0.0 0.0 
0.0 0.0 0.0 
0.0 0.0 0.0 
0.0 0.0 0.0 
0.0 0.0 0.0 
0.0 0.0 0.0 
0.0 0.0 0.0 
0.0 0.0 0.0 
0.0 0.0 0.0 
0.0 0.0 0.0 
0.0 0.0 0.0 
0.0 0.0 0.0 
0.0 0.0 0.0 
0.0 0.0 0.0 
0.0 0.0 0.0 
0.0 0.0 0.0 
0.0 0.0 0.0 
0.0 0.0 0.0 
0.0 0.0 0.0 
0.0 0.0 0.0 
0.0 0.0 0.0 
0.0 0.0 0.0 
0.0 0.0 0.0 
0.0 0.0 0.0 
0.0 0.0 0.0 
0.0 0.0 0.0 
0.0 0.0 0.0 
0.0 0.0 0.0 
0.0 0.0 0.0 
0.0 0.0 0.0 
0.0 0.0 0.0 
0.0 0.0 0.0 
0.0 0.0 0.0 
0.0 0.0 0.0 
0.0 0.0 0.0 
0.0 0.0 0.0 
0.0 0.0 0.0 
0.0 0.0 0.0 
0.0 0.0 0.0 
0.0 0.0 0.0 
0.0 0.0 0.0 
0.0 0.0 0.0 
0.0 0.0 0.0 
0.0 0.0 0.0 
0.0 0.0 0.0 
0.0 0.0 0.0 
0.0 0.0 0.0 
0.0 0.0 0.0 
0.0 0.0 0.0 
0.0 0.0 0.0 
0.0 0.0 0.0 
0.0 0.0 0.0 
0.0 0.0 0.0 
0.0 0.0 0.0 
0.0 0.0 0.0 
0.0 0.0 0.0 
0.0 0.0 0.0 
0.0 0.0 0.0 
0.0 0.0 0.0 
0.0 0.0 0.0 
0.0 0.0 0.0 
0.0 0.0 0.0 
0.0 0.0 0.0 
0.0 0.0 0.0 
0.0 0.0 0.0 
0.0 0.0 0.0 
0.0 0.0 0.0 
0.0 0.0 0.0 
0.0 0.0 0.0 
0.0 0.0 0.0 
0.0 0.0 0.0 
0.0 0.0 0.0 
0.0 0.0 0.0 
0.0 0.0 0.0 
0.0 0.0 0.0 
0.0 0.0 0.0 
0.0 0.0 0.0 
0.0 0.0 0.0 
0.0 0.0 0.0 
0.0 0.0 0.0 
0.0 0.0 0.0 
0.0 0.0 0.0 
0.0 0.0 0.0 
0.0 0.0 0.0 
0.0 0.0 0.0 
0.0 0.0 0.0 
0.0 0.0 0.0 
0.0 0.0 0.0 
0.0 0.0 0.0 
0.0 0.0 0.0 
0.0 0.0 0.0 
0.0 0.0 0.0 
0.0 0.0 0.0 
0.0 0.0 0.0 
0.0 0.0 0.0 
0.0 0.0 0.0 
0.0 0.0 0.0 
0.0 0.0 0.0 
0.0 0.0 0.0 
0.0 0.0 0.0 
0.0 0.0 0.0 
0.0 0.0 0.0 
0.0 0.0 0.0 
0.0 0.0 0.0 
0.0 0.0 0.0 
0.0 0.0 0.0 
0.0 0.0 0.0 
0.0 0.0 0.0 
0.0 0.0 0.0 
0.0 0.0 0.0 
0.0 0.0 0.0 
0.0 0.0 0.0 
0.0 0.0 0.0 
0.0 0.0 0.0 
0.0 0.0 0.0 
0.0 0.0 0.0 
0.0 0.0 0.0 
0.0 0.0 0.0 
0.0 0.0 0.0 
0.0 0.0 0.0 
0.0 0.0 0.0 
0.0 0.0 0.0 
0.0 0.0 0.0 
0.0 0.0 0.0 
0.0 0.0 0.0 
0.0 0.0 0.0 
0.0 0.0 0.0 
0.0 0.0 0.0 
0.0 0.0 0.0 
0.0 0.0 0.0 
0.0 0.0 0.0 
0.0 0.0 0.0 
0.0 0.0 0.0 
0.0 0.0 0.0 
0.0 0.0 0.0 
0.0 0.0 0.0 
0.0 0.0 0.0 
0.0 0.0 0.0 
0.0 0.0 0.0 
0.0 0.0 0.0 
0.0 0.0 0.0 
0.0 0.0 0.0 
0.0 0.0 0.0 
0.0 0.0 0.0 
0.0 0.0 0.0 
0.0 0.0 0.0 
0.0 0.0 0.0 
0.0 0.0 0.0 
0.0 0.0 0.0 
0.0 0.0 0.0 
0.0 0.0 0.0 
0.0 0.0 0.0 
0.0 0.0 0.0 
0.0 0.0 0.0 
0.0 0.0 0.0 
0.0 0.0 0.0 
0.0 0.0 0.0 
0.0 0.0 0.0 
0.0 0.0 0.0 
0.0 0.0 0.0 
0.0 0.0 0.0 
0.0 0.0 0.0 
0.0 0.0 0.0 
0.0 0.0 0.0 
0.0 0.0 0.0 
0.0 0.0 0.0 
0.0 0.0 0.0 
0.0 0.0 0.0 
0.0 0.0 0.0 
0.0 0.0 0.0 
0.0 0.0 0.0 
0.0 0.0 0.0 
0.0 0.0 0.0 
0.0 0.0 0.0 
0.0 0.0 0.0 
0.0 0.0 0.0 
0.0 0.0 0.0 
0.0 0.0 0.0 
0.0 0.0 0.0 
0.0 0.0 0.0 
0.0 0.0 0.0 
0.0 0.0 0.0 
0.0 0.0 0.0 
0.0 0.0 0.0 
0.0 0.0 0.0 
0.0 0.0 0.0 
0.0 0.0 0.0 
0.0 0.0 0.0 
0.0 0.0 0.0 
0.0 0.0 0.0 
0.0 0.0 0.0 
0.0 0.0 0.0 
0.0 0.0 0.0 
0.0 0.0 0.0 
0.0 0.0 0.0 
0.0 0.0 0.0 
0.0 0.0 0.0 
0.0 0.0 0.0 
0.0 0.0 0.0 
0.0 0.0 0.0 
0.0 0.0 0.0 
0.0 0.0 0.0 
0.0 0.0 0.0 
0.0 0.0 0.0 
0.0 0.0 0.0 
0.0 0.0 0.0 
0.0 0.0 0.0 
0.0 0.0 0.0 
0.0 0.0 0.0 
0.0 0.0 0.0 
0.0 0.0 0.0 
0.0 0.0 0.0 
0.0 0.0 0.0 
0.0 0.0 0.0 
0.0 0.0 0.0 
0.0 0.0 0.0 
0.0 0.0 0.0 
0.0 0.0 0.0 
0.0 0.0 0.0 
0.0 0.0 0.0 
0.0 0.0 0.0 
0.0 0.0 0.0 
0.0 0.0 0.0 
0.0 0.0 0.0 
0.0 0.0 0.0 
0.0 0.0 0.0 
0.0 0.0 0.0 
0.0 0.0 0.0 
0.0 0.0 0.0 
0.0 0.0 0.0 
0.0 0.0 0.0 
0.0 0.0 0.0 
0.0 0.0 0.0 
0.0 0.0 0.0 
0.0 0.0 0.0 
0.0 0.0 0.0 
0.0 0.0 0.0 
0.0 0.0 0.0 
0.0 0.0 0.0 
0.0 0.0 0.0 
0.0 0.0 0.0 
0.0 0.0 0.0 
0.0 0.0 0.0 
0.0 0.0 0.0 
0.0 0.0 0.0 
0.0 0.0 0.0 
0.0 0.0 0.0 
0.0 0.0 0.0 
0.0 0.0 0.0 
0.0 0.0 0.0 
0.0 0.0 0.0 
0.0 0.0 0.0 
0.0 0.0 0.0 
0.0 0.0 0.0 
0.0 0.0 0.0 
0.0 0.0 0.0 
0.0 0.0 0.0 
0.0 0.0 0.0 
0.0 0.0 0.0 
0.0 0.0 0.0 
0.0 0.0 0.0 
0.0 0.0 0.0 
0.0 0.0 0.0 
0.0 0.0 0.0 
0.0 0.0 0.0 
0.0 0.0 0.0 
0.0 0.0 0.0 
0.0 0.0 0.0 
0.0 0.0 0.0 
0.0 0.0 0.0 
0.0 0.0 0.0 
0.0 0.0 0.0 
0.0 0.0 0.0 
0.0 0.0 0.0 
0.0 0.0 0.0 
0.0 0.0 0.0 
0.0 0.0 0.0 
0.0 0.0 0.0 
0.0 0.0 0.0 
0.0 0.0 0.0 
0.0 0.0 0.0 
0.0 0.0 0.0 
0.0 0.0 0.0 
0.0 0.0 0.0 
0.0 0.0 0.0 
0.0 0.0 0.0 
0.0 0.0 0.0 
0.0 0.0 0.0 
0.0 0.0 0.0 
0.0 0.0 0.0 
0.0 0.0 0.0 
0.0 0.0 0.0 
0.0 0.0 0.0 
0.0 0.0 0.0 
0.0 0.0 0.0 
0.0 0.0 0.0 
0.0 0.0 0.0 
0.0 0.0 0.0 
0.0 0.0 0.0 
0.0 0.0 0.0 
0.0 0.0 0.0 
0.0 0.0 0.0 
0.0 0.0 0.0 
0.0 0.0 0.0 
0.0 0.0 0.0 
0.0 0.0 0.0 
0.0 0.0 0.0 
0.0 0.0 0.0 
0.0 0.0 0.0 
0.0 0.0 0.0 
0.0 0.0 0.0 
0.0 0.0 0.0 
0.0 0.0 0.0 
0.0 0.0 0.0 
0.0 0.0 0.0 
0.0 0.0 0.0 
0.0 0.0 0.0 
0.0 0.0 0.0 
0.0 0.0 0.0 
0.0 0.0 0.0 
0.0 0.0 0.0 
0.0 0.0 0.0 
0.0 0.0 0.0 
0.0 0.0 0.0 
0.0 0.0 0.0 
0.0 0.0 0.0 
0.0 0.0 0.0 
0.0 0.0 0.0 
0.0 0.0 0.0 
0.0 0.0 0.0 
0.0 0.0 0.0 
0.0 0.0 0.0 
0.0 0.0 0.0 
0.0 0.0 0.0 
0.0 0.0 0.0 
0.0 0.0 0.0 
0.0 0.0 0.0 
0.0 0.0 0.0 
0.0 0.0 0.0 
0.0 0.0 0.0 
0.0 0.0 0.0 
0.0 0.0 0.0 
0.0 0.0 0.0 
0.0 0.0 0.0 
0.0 0.0 0.0 
0.0 0.0 0.0 
0.0 0.0 0.0 
0.0 0.0 0.0 
0.0 0.0 0.0 
0.0 0.0 0.0 
0.0 0.0 0.0 
0.0 0.0 0.0 
0.0 0.0 0.0 
0.0 0.0 0.0 
0.0 0.0 0.0 
0.0 0.0 0.0 
0.0 0.0 0.0 
0.0 0.0 0.0 
0.0 0.0 0.0 
0.0 0.0 0.0 
0.0 0.0 0.0 
0.0 0.0 0.0 
0.0 0.0 0.0 
0.0 0.0 0.0 
0.0 0.0 0.0 
0.0 0.0 0.0 
0.0 0.0 0.0 
0.0 0.0 0.0 
0.0 0.0 0.0 
0.0 0.0 0.0 
0.0 0.0 0.0 
0.0 0.0 0.0 
0.0 0.0 0.0 
0.0 0.0 0.0 
0.0 0.0 0.0 
0.0 0.0 0.0 
0.0 0.0 0.0 
0.0 0.0 0.0 
0.0 0.0 0.0 
0.0 0.0 0.0 
0.0 0.0 0.0 
0.0 0.0 0.0 
0.0 0.0 0.0 
0.0 0.0 0.0 
0.0 0.0 0.0 
0.0 0.0 0.0 
0.0 0.0 0.0 
0.0 0.0 0.0 
0.0 0.0 0.0 
0.0 0.0 0.0 
0.0 0.0 0.0 
0.0 0.0 0.0 
0.0 0.0 0.0 
0.0 0.0 0.0 
0.0 0.0 0.0 
0.0 0.0 0.0 
0.0 0.0 0.0 
0.0 0.0 0.0 
0.0 0.0 0.0 
0.0 0.0 0.0 
0.0 0.0 0.0 
0.0 0.0 0.0 
0.0 0.0 0.0 
0.0 0.0 0.0 
0.0 0.0 0.0 
0.0 0.0 0.0 
0.0 0.0 0.0 
0.0 0.0 0.0 
0.0 0.0 0.0 
0.0 0.0 0.0 
0.0 0.0 0.0 
0.0 0.0 0.0 
0.0 0.0 0.0 
0.0 0.0 0.0 
0.0 0.0 0.0 
0.0 0.0 0.0 
0.0 0.0 0.0 
0.0 0.0 0.0 
0.0 0.0 0.0 
0.0 0.0 0.0 
0.0 0.0 0.0 
0.0 0.0 0.0 
0.0 0.0 0.0 
0.0 0.0 0.0 
0.0 0.0 0.0 
0.0 0.0 0.0 
0.0 0.0 0.0 
0.0 0.0 0.0 
0.0 0.0 0.0 
0.0 0.0 0.0 
0.0 0.0 0.0 
0.0 0.0 0.0 
0.0 0.0 0.0 
0.0 0.0 0.0 
0.0 0.0 0.0 
0.0 0.0 0.0 
0.0 0.0 0.0 
0.0 0.0 0.0 
0.0 0.0 0.0 
0.0 0.0 0.0 
0.0 0.0 0.0 
0.0 0.0 0.0 
0.0 0.0 0.0 
0.0 0.0 0.0 
0.0 0.0 0.0 
0.0 0.0 0.0 
0.0 0.0 0.0 
0.0 0.0 0.0 
0.0 0.0 0.0 
0.0 0.0 0.0 
0.0 0.0 0.0 
0.0 0.0 0.0 
0.0 0.0 0.0 
0.0 0.0 0.0 
0.0 0.0 0.0 
0.0 0.0 0.0 
0.0 0.0 0.0 
0.0 0.0 0.0 
0.0 0.0 0.0 
0.0 0.0 0.0 
0.0 0.0 0.0 
0.0 0.0 0.0 
0.0 0.0 0.0 
0.0 0.0 0.0 
0.0 0.0 0.0 
0.0 0.0 0.0 
0.0 0.0 0.0 
0.0 0.0 0.0 
0.0 0.0 0.0 
0.0 0.0 0.0 
0.0 0.0 0.0 
0.0 0.0 0.0 
0.0 0.0 0.0 
0.0 0.0 0.0 
0.0 0.0 0.0 
0.0 0.0 0.0 
0.0 0.0 0.0 
0.0 0.0 0.0 
0.0 0.0 0.0 
0.0 0.0 0.0 
0.0 0.0 0.0 
0.0 0.0 0.0 
0.0 0.0 0.0 
0.0 0.0 0.0 
0.0 0.0 0.0 
0.0 0.0 0.0 
0.0 0.0 0.0 
0.0 0.0 0.0 
0.0 0.0 0.0 
0.0 0.0 0.0 
0.0 0.0 0.0 
0.0 0.0 0.0 
0.0 0.0 0.0 
0.0 0.0 0.0 
0.0 0.0 0.0 
0.0 0.0 0.0 
0.0 0.0 0.0 
0.0 0.0 0.0 
0.0 0.0 0.0 
0.0 0.0 0.0 
0.0 0.0 0.0 
0.0 0.0 0.0 
0.0 0.0 0.0 
0.0 0.0 0.0 
0.0 0.0 0.0 
0.0 0.0 0.0 
0.0 0.0 0.0 
0.0 0.0 0.0 
0.0 0.0 0.0 
0.0 0.0 0.0 
0.0 0.0 0.0 
0.0 0.0 0.0 
0.0 0.0 0.0 
0.0 0.0 0.0 
0.0 0.0 0.0 
0.0 0.0 0.0 
0.0 0.0 0.0 
0.0 0.0 0.0 
0.0 0.0 0.0 
0.0 0.0 0.0 
0.0 0.0 0.0 
0.0 0.0 0.0 
0.0 0.0 0.0 
0.0 0.0 0.0 
0.0 0.0 0.0 
0.0 0.0 0.0 
0.0 0.0 0.0 
0.0 0.0 0.0 
0.0 0.0 0.0 
0.0 0.0 0.0 
0.0 0.0 0.0 
0.0 0.0 0.0 
0.0 0.0 0.0 
0.0 0.0 0.0 
0.0 0.0 0.0 
0.0 0.0 0.0 
0.0 0.0 0.0 
0.0 0.0 0.0 
0.0 0.0 0.0 
0.0 0.0 0.0 
0.0 0.0 0.0 
0.0 0.0 0.0 
0.0 0.0 0.0 
0.0 0.0 0.0 
0.0 0.0 0.0 
0.0 0.0 0.0 
0.0 0.0 0.0 
0.0 0.0 0.0 
0.0 0.0 0.0 
0.0 0.0 0.0 
0.0 0.0 0.0 
0.0 0.0 0.0 
0.0 0.0 0.0 
0.0 0.0 0.0 
0.0 0.0 0.0 
0.0 0.0 0.0 
0.0 0.0 0.0 
0.0 0.0 0.0 
0.0 0.0 0.0 
0.0 0.0 0.0 
0.0 0.0 0.0 
0.0 0.0 0.0 
0.0 0.0 0.0 
0.0 0.0 0.0 
0.0 0.0 0.0 
0.0 0.0 0.0 
0.0 0.0 0.0 
0.0 0.0 0.0 
0.0 0.0 0.0 
0.0 0.0 0.0 
0.0 0.0 0.0 
0.0 0.0 0.0 
0.0 0.0 0.0 
0.0 0.0 0.0 
0.0 0.0 0.0 
0.0 0.0 0.0 
0.0 0.0 0.0 
0.0 0.0 0.0 
0.0 0.0 0.0 
0.0 0.0 0.0 
0.0 0.0 0.0 
0.0 0.0 0.0 
0.0 0.0 0.0 
0.0 0.0 0.0 
0.0 0.0 0.0 
0.0 0.0 0.0 
0.0 0.0 0.0 
0.0 0.0 0.0 
0.0 0.0 0.0 
0.0 0.0 0.0 
0.0 0.0 0.0 
0.0 0.0 0.0 
0.0 0.0 0.0 
0.0 0.0 0.0 
0.0 0.0 0.0 
0.0 0.0 0.0 
0.0 0.0 0.0 
0.0 0.0 0.0 
0.0 0.0 0.0 
0.0 0.0 0.0 
0.0 0.0 0.0 
0.0 0.0 0.0 
0.0 0.0 0.0 
0.0 0.0 0.0 
0.0 0.0 0.0 
0.0 0.0 0.0 
0.0 0.0 0.0 
0.0 0.0 0.0 
0.0 0.0 0.0 
0.0 0.0 0.0 
0.0 0.0 0.0 
0.0 0.0 0.0 
0.0 0.0 0.0 
0.0 0.0 0.0 
0.0 0.0 0.0 
0.0 0.0 0.0 
0.0 0.0 0.0 
0.0 0.0 0.0 
0.0 0.0 0.0 
0.0 0.0 0.0 

VECTORS node_force_gravity float
0.0 -1.962000000000e+01 0.0 
0.0 -1.962000000000e+01 0.0 
0.0 -1.962000000000e+01 0.0 
0.0 -1.962000000000e+01 0.0 
0.0 -1.962000000000e+01 0.0 
0.0 -1.962000000000e+01 0.0 
0.0 -1.962000000000e+01 0.0 
0.0 -1.962000000000e+01 0.0 
0.0 -1.962000000000e+01 0.0 
0.0 -1.962000000000e+01 0.0 
0.0 -1.962000000000e+01 0.0 
0.0 -1.962000000000e+01 0.0 
0.0 -1.962000000000e+01 0.0 
0.0 -1.962000000000e+01 0.0 
0.0 -1.962000000000e+01 0.0 
0.0 -1.962000000000e+01 0.0 
0.0 -1.962000000000e+01 0.0 
0.0 -1.962000000000e+01 0.0 
0.0 -1.962000000000e+01 0.0 
0.0 -1.962000000000e+01 0.0 
0.0 -1.962000000000e+01 0.0 
0.0 -1.962000000000e+01 0.0 
0.0 -1.962000000000e+01 0.0 
0.0 -1.962000000000e+01 0.0 
0.0 -1.962000000000e+01 0.0 
0.0 -1.962000000000e+01 0.0 
0.0 -1.962000000000e+01 0.0 
0.0 -1.962000000000e+01 0.0 
0.0 -1.962000000000e+01 0.0 
0.0 -1.962000000000e+01 0.0 
0.0 -1.962000000000e+01 0.0 
0.0 -1.962000000000e+01 0.0 
0.0 -1.962000000000e+01 0.0 
0.0 -1.962000000000e+01 0.0 
0.0 -1.962000000000e+01 0.0 
0.0 -1.962000000000e+01 0.0 
0.0 -1.962000000000e+01 0.0 
0.0 -1.962000000000e+01 0.0 
0.0 -1.962000000000e+01 0.0 
0.0 -1.962000000000e+01 0.0 
0.0 -1.962000000000e+01 0.0 
0.0 -1.962000000000e+01 0.0 
0.0 -1.962000000000e+01 0.0 
0.0 -1.962000000000e+01 0.0 
0.0 -1.962000000000e+01 0.0 
0.0 -1.962000000000e+01 0.0 
0.0 -1.962000000000e+01 0.0 
0.0 -1.962000000000e+01 0.0 
0.0 -1.962000000000e+01 0.0 
0.0 -1.962000000000e+01 0.0 
0.0 -1.962000000000e+01 0.0 
0.0 -1.962000000000e+01 0.0 
0.0 -1.962000000000e+01 0.0 
0.0 -1.962000000000e+01 0.0 
0.0 -1.962000000000e+01 0.0 
0.0 -1.962000000000e+01 0.0 
0.0 -1.962000000000e+01 0.0 
0.0 -1.962000000000e+01 0.0 
0.0 -1.962000000000e+01 0.0 
0.0 -1.962000000000e+01 0.0 
0.0 -1.962000000000e+01 0.0 
0.0 -1.962000000000e+01 0.0 
0.0 -1.962000000000e+01 0.0 
0.0 -1.962000000000e+01 0.0 
0.0 -1.962000000000e+01 0.0 
0.0 -1.962000000000e+01 0.0 
0.0 -1.962000000000e+01 0.0 
0.0 -1.962000000000e+01 0.0 
0.0 -1.962000000000e+01 0.0 
0.0 -1.962000000000e+01 0.0 
0.0 -1.962000000000e+01 0.0 
0.0 -1.962000000000e+01 0.0 
0.0 -1.962000000000e+01 0.0 
0.0 -1.962000000000e+01 0.0 
0.0 -1.962000000000e+01 0.0 
0.0 -1.962000000000e+01 0.0 
0.0 -1.962000000000e+01 0.0 
0.0 -1.962000000000e+01 0.0 
0.0 -1.962000000000e+01 0.0 
0.0 -1.962000000000e+01 0.0 
0.0 -1.962000000000e+01 0.0 
0.0 -1.962000000000e+01 0.0 
0.0 -1.962000000000e+01 0.0 
0.0 -1.962000000000e+01 0.0 
0.0 -1.962000000000e+01 0.0 
0.0 -1.962000000000e+01 0.0 
0.0 -1.962000000000e+01 0.0 
0.0 -1.962000000000e+01 0.0 
0.0 -1.962000000000e+01 0.0 
0.0 -1.962000000000e+01 0.0 
0.0 -1.962000000000e+01 0.0 
0.0 -1.962000000000e+01 0.0 
0.0 -1.962000000000e+01 0.0 
0.0 -1.962000000000e+01 0.0 
0.0 -1.962000000000e+01 0.0 
0.0 -1.962000000000e+01 0.0 
0.0 -1.962000000000e+01 0.0 
0.0 -1.962000000000e+01 0.0 
0.0 -1.962000000000e+01 0.0 
0.0 -1.962000000000e+01 0.0 
0.0 -1.962000000000e+01 0.0 
0.0 -1.962000000000e+01 0.0 
0.0 -1.962000000000e+01 0.0 
0.0 -1.962000000000e+01 0.0 
0.0 -1.962000000000e+01 0.0 
0.0 -1.962000000000e+01 0.0 
0.0 -1.962000000000e+01 0.0 
0.0 -1.962000000000e+01 0.0 
0.0 -1.962000000000e+01 0.0 
0.0 -1.962000000000e+01 0.0 
0.0 -1.962000000000e+01 0.0 
0.0 -1.962000000000e+01 0.0 
0.0 -1.962000000000e+01 0.0 
0.0 -1.962000000000e+01 0.0 
0.0 -1.962000000000e+01 0.0 
0.0 -1.962000000000e+01 0.0 
0.0 -1.962000000000e+01 0.0 
0.0 -1.962000000000e+01 0.0 
0.0 -1.962000000000e+01 0.0 
0.0 -1.962000000000e+01 0.0 
0.0 -1.962000000000e+01 0.0 
0.0 -1.962000000000e+01 0.0 
0.0 -1.962000000000e+01 0.0 
0.0 -1.962000000000e+01 0.0 
0.0 -1.962000000000e+01 0.0 
0.0 -1.962000000000e+01 0.0 
0.0 -1.962000000000e+01 0.0 
0.0 -1.962000000000e+01 0.0 
0.0 -1.962000000000e+01 0.0 
0.0 -1.962000000000e+01 0.0 
0.0 -1.962000000000e+01 0.0 
0.0 -1.962000000000e+01 0.0 
0.0 -1.962000000000e+01 0.0 
0.0 -1.962000000000e+01 0.0 
0.0 -1.962000000000e+01 0.0 
0.0 -1.962000000000e+01 0.0 
0.0 -1.962000000000e+01 0.0 
0.0 -1.962000000000e+01 0.0 
0.0 -1.962000000000e+01 0.0 
0.0 -1.962000000000e+01 0.0 
0.0 -1.962000000000e+01 0.0 
0.0 -1.962000000000e+01 0.0 
0.0 -1.962000000000e+01 0.0 
0.0 -1.962000000000e+01 0.0 
0.0 -1.962000000000e+01 0.0 
0.0 -1.962000000000e+01 0.0 
0.0 -1.962000000000e+01 0.0 
0.0 -1.962000000000e+01 0.0 
0.0 -1.962000000000e+01 0.0 
0.0 -1.962000000000e+01 0.0 
0.0 -1.962000000000e+01 0.0 
0.0 -1.962000000000e+01 0.0 
0.0 -1.962000000000e+01 0.0 
0.0 -1.962000000000e+01 0.0 
0.0 -1.962000000000e+01 0.0 
0.0 -1.962000000000e+01 0.0 
0.0 -1.962000000000e+01 0.0 
0.0 -1.962000000000e+01 0.0 
0.0 -1.962000000000e+01 0.0 
0.0 -1.962000000000e+01 0.0 
0.0 -1.962000000000e+01 0.0 
0.0 -1.962000000000e+01 0.0 
0.0 -1.962000000000e+01 0.0 
0.0 -1.962000000000e+01 0.0 
0.0 -1.962000000000e+01 0.0 
0.0 -1.962000000000e+01 0.0 
0.0 -1.962000000000e+01 0.0 
0.0 -1.962000000000e+01 0.0 
0.0 -1.962000000000e+01 0.0 
0.0 -1.962000000000e+01 0.0 
0.0 -1.962000000000e+01 0.0 
0.0 -1.962000000000e+01 0.0 
0.0 -1.962000000000e+01 0.0 
0.0 -1.962000000000e+01 0.0 
0.0 -1.962000000000e+01 0.0 
0.0 -1.962000000000e+01 0.0 
0.0 -1.962000000000e+01 0.0 
0.0 -1.962000000000e+01 0.0 
0.0 -1.962000000000e+01 0.0 
0.0 -1.962000000000e+01 0.0 
0.0 -1.962000000000e+01 0.0 
0.0 -1.962000000000e+01 0.0 
0.0 -1.962000000000e+01 0.0 
0.0 -1.962000000000e+01 0.0 
0.0 -1.962000000000e+01 0.0 
0.0 -1.962000000000e+01 0.0 
0.0 -1.962000000000e+01 0.0 
0.0 -1.962000000000e+01 0.0 
0.0 -1.962000000000e+01 0.0 
0.0 -1.962000000000e+01 0.0 
0.0 -1.962000000000e+01 0.0 
0.0 -1.962000000000e+01 0.0 
0.0 -1.962000000000e+01 0.0 
0.0 -1.962000000000e+01 0.0 
0.0 -1.962000000000e+01 0.0 
0.0 -1.962000000000e+01 0.0 
0.0 -1.962000000000e+01 0.0 
0.0 -1.962000000000e+01 0.0 
0.0 -1.962000000000e+01 0.0 
0.0 -1.962000000000e+01 0.0 
0.0 -1.962000000000e+01 0.0 
0.0 -1.962000000000e+01 0.0 
0.0 -1.962000000000e+01 0.0 
0.0 -1.962000000000e+01 0.0 
0.0 -1.962000000000e+01 0.0 
0.0 -1.962000000000e+01 0.0 
0.0 -1.962000000000e+01 0.0 
0.0 -1.962000000000e+01 0.0 
0.0 -1.962000000000e+01 0.0 
0.0 -1.962000000000e+01 0.0 
0.0 -1.962000000000e+01 0.0 
0.0 -1.962000000000e+01 0.0 
0.0 -1.962000000000e+01 0.0 
0.0 -1.962000000000e+01 0.0 
0.0 -1.962000000000e+01 0.0 
0.0 -1.962000000000e+01 0.0 
0.0 -1.962000000000e+01 0.0 
0.0 -1.962000000000e+01 0.0 
0.0 -1.962000000000e+01 0.0 
0.0 -1.962000000000e+01 0.0 
0.0 -1.962000000000e+01 0.0 
0.0 -1.962000000000e+01 0.0 
0.0 -1.962000000000e+01 0.0 
0.0 -1.962000000000e+01 0.0 
0.0 -1.962000000000e+01 0.0 
0.0 -1.962000000000e+01 0.0 
0.0 -1.962000000000e+01 0.0 
0.0 -1.962000000000e+01 0.0 
0.0 -1.962000000000e+01 0.0 
0.0 -1.962000000000e+01 0.0 
0.0 -1.962000000000e+01 0.0 
0.0 -1.962000000000e+01 0.0 
0.0 -1.962000000000e+01 0.0 
0.0 -1.962000000000e+01 0.0 
0.0 -1.962000000000e+01 0.0 
0.0 -1.962000000000e+01 0.0 
0.0 -1.962000000000e+01 0.0 
0.0 -1.962000000000e+01 0.0 
0.0 -1.962000000000e+01 0.0 
0.0 -1.962000000000e+01 0.0 
0.0 -1.962000000000e+01 0.0 
0.0 -1.962000000000e+01 0.0 
0.0 -1.962000000000e+01 0.0 
0.0 -1.962000000000e+01 0.0 
0.0 -1.962000000000e+01 0.0 
0.0 -1.962000000000e+01 0.0 
0.0 -1.962000000000e+01 0.0 
0.0 -1.962000000000e+01 0.0 
0.0 -1.962000000000e+01 0.0 
0.0 -1.962000000000e+01 0.0 
0.0 -1.962000000000e+01 0.0 
0.0 -1.962000000000e+01 0.0 
0.0 -1.962000000000e+01 0.0 
0.0 -1.962000000000e+01 0.0 
0.0 -1.962000000000e+01 0.0 
0.0 -1.962000000000e+01 0.0 
0.0 -1.962000000000e+01 0.0 
0.0 -1.962000000000e+01 0.0 
0.0 -1.962000000000e+01 0.0 
0.0 -1.962000000000e+01 0.0 
0.0 -1.962000000000e+01 0.0 
0.0 -1.962000000000e+01 0.0 
0.0 -1.962000000000e+01 0.0 
0.0 -1.962000000000e+01 0.0 
0.0 -1.962000000000e+01 0.0 
0.0 -1.962000000000e+01 0.0 
0.0 -1.962000000000e+01 0.0 
0.0 -1.962000000000e+01 0.0 
0.0 -1.962000000000e+01 0.0 
0.0 -1.962000000000e+01 0.0 
0.0 -1.962000000000e+01 0.0 
0.0 -1.962000000000e+01 0.0 
0.0 -1.962000000000e+01 0.0 
0.0 -1.962000000000e+01 0.0 
0.0 -1.962000000000e+01 0.0 
0.0 -1.962000000000e+01 0.0 
0.0 -1.962000000000e+01 0.0 
0.0 -1.962000000000e+01 0.0 
0.0 -1.962000000000e+01 0.0 
0.0 -1.962000000000e+01 0.0 
0.0 -1.962000000000e+01 0.0 
0.0 -1.962000000000e+01 0.0 
0.0 -1.962000000000e+01 0.0 
0.0 -1.962000000000e+01 0.0 
0.0 -1.962000000000e+01 0.0 
0.0 -1.962000000000e+01 0.0 
0.0 -1.962000000000e+01 0.0 
0.0 -1.962000000000e+01 0.0 
0.0 -1.962000000000e+01 0.0 
0.0 -1.962000000000e+01 0.0 
0.0 -1.962000000000e+01 0.0 
0.0 -1.962000000000e+01 0.0 
0.0 -1.962000000000e+01 0.0 
0.0 -1.962000000000e+01 0.0 
0.0 -1.962000000000e+01 0.0 
0.0 -1.962000000000e+01 0.0 
0.0 -1.962000000000e+01 0.0 
0.0 -1.962000000000e+01 0.0 
0.0 -1.962000000000e+01 0.0 
0.0 -1.962000000000e+01 0.0 
0.0 -1.962000000000e+01 0.0 
0.0 -1.962000000000e+01 0.0 
0.0 -1.962000000000e+01 0.0 
0.0 -1.962000000000e+01 0.0 
0.0 -1.962000000000e+01 0.0 
0.0 -1.962000000000e+01 0.0 
0.0 -1.962000000000e+01 0.0 
0.0 -1.962000000000e+01 0.0 
0.0 -1.962000000000e+01 0.0 
0.0 -1.962000000000e+01 0.0 
0.0 -1.962000000000e+01 0.0 
0.0 -1.962000000000e+01 0.0 
0.0 -1.962000000000e+01 0.0 
0.0 -1.962000000000e+01 0.0 
0.0 -1.962000000000e+01 0.0 
0.0 -1.962000000000e+01 0.0 
0.0 -1.962000000000e+01 0.0 
0.0 -1.962000000000e+01 0.0 
0.0 -1.962000000000e+01 0.0 
0.0 -1.962000000000e+01 0.0 
0.0 -1.962000000000e+01 0.0 
0.0 -1.962000000000e+01 0.0 
0.0 -1.962000000000e+01 0.0 
0.0 -1.962000000000e+01 0.0 
0.0 -1.962000000000e+01 0.0 
0.0 -1.962000000000e+01 0.0 
0.0 -1.962000000000e+01 0.0 
0.0 -1.962000000000e+01 0.0 
0.0 -1.962000000000e+01 0.0 
0.0 -1.962000000000e+01 0.0 
0.0 -1.962000000000e+01 0.0 
0.0 -1.962000000000e+01 0.0 
0.0 -1.962000000000e+01 0.0 
0.0 -1.962000000000e+01 0.0 
0.0 -1.962000000000e+01 0.0 
0.0 -1.962000000000e+01 0.0 
0.0 -1.962000000000e+01 0.0 
0.0 -1.962000000000e+01 0.0 
0.0 -1.962000000000e+01 0.0 
0.0 -1.962000000000e+01 0.0 
0.0 -1.962000000000e+01 0.0 
0.0 -1.962000000000e+01 0.0 
0.0 -1.962000000000e+01 0.0 
0.0 -1.962000000000e+01 0.0 
0.0 -1.962000000000e+01 0.0 
0.0 -1.962000000000e+01 0.0 
0.0 -1.962000000000e+01 0.0 
0.0 -1.962000000000e+01 0.0 
0.0 -1.962000000000e+01 0.0 
0.0 -1.962000000000e+01 0.0 
0.0 -1.962000000000e+01 0.0 
0.0 -1.962000000000e+01 0.0 
0.0 -1.962000000000e+01 0.0 
0.0 -1.962000000000e+01 0.0 
0.0 -1.962000000000e+01 0.0 
0.0 -1.962000000000e+01 0.0 
0.0 -1.962000000000e+01 0.0 
0.0 -1.962000000000e+01 0.0 
0.0 -1.962000000000e+01 0.0 
0.0 -1.962000000000e+01 0.0 
0.0 -1.962000000000e+01 0.0 
0.0 -1.962000000000e+01 0.0 
0.0 -1.962000000000e+01 0.0 
0.0 -1.962000000000e+01 0.0 
0.0 -1.962000000000e+01 0.0 
0.0 -1.962000000000e+01 0.0 
0.0 -1.962000000000e+01 0.0 
0.0 -1.962000000000e+01 0.0 
0.0 -1.962000000000e+01 0.0 
0.0 -1.962000000000e+01 0.0 
0.0 -1.962000000000e+01 0.0 
0.0 -1.962000000000e+01 0.0 
0.0 -1.962000000000e+01 0.0 
0.0 -1.962000000000e+01 0.0 
0.0 -1.962000000000e+01 0.0 
0.0 -1.962000000000e+01 0.0 
0.0 -1.962000000000e+01 0.0 
0.0 -1.962000000000e+01 0.0 
0.0 -1.962000000000e+01 0.0 
0.0 -1.962000000000e+01 0.0 
0.0 -1.962000000000e+01 0.0 
0.0 -1.962000000000e+01 0.0 
0.0 -1.962000000000e+01 0.0 
0.0 -1.962000000000e+01 0.0 
0.0 -1.962000000000e+01 0.0 
0.0 -1.962000000000e+01 0.0 
0.0 -1.962000000000e+01 0.0 
0.0 -1.962000000000e+01 0.0 
0.0 -1.962000000000e+01 0.0 
0.0 -1.962000000000e+01 0.0 
0.0 -1.962000000000e+01 0.0 
0.0 -1.962000000000e+01 0.0 
0.0 -1.962000000000e+01 0.0 
0.0 -1.962000000000e+01 0.0 
0.0 -1.962000000000e+01 0.0 
0.0 -1.962000000000e+01 0.0 
0.0 -1.962000000000e+01 0.0 
0.0 -1.962000000000e+01 0.0 
0.0 -1.962000000000e+01 0.0 
0.0 -1.962000000000e+01 0.0 
0.0 -1.962000000000e+01 0.0 
0.0 -1.962000000000e+01 0.0 
0.0 -1.962000000000e+01 0.0 
0.0 -1.962000000000e+01 0.0 
0.0 -1.962000000000e+01 0.0 
0.0 -1.962000000000e+01 0.0 
0.0 -1.962000000000e+01 0.0 
0.0 -1.962000000000e+01 0.0 
0.0 -1.962000000000e+01 0.0 
0.0 -1.962000000000e+01 0.0 
0.0 -1.962000000000e+01 0.0 
0.0 -1.962000000000e+01 0.0 
0.0 -1.962000000000e+01 0.0 
0.0 -1.962000000000e+01 0.0 
0.0 -1.962000000000e+01 0.0 
0.0 -1.962000000000e+01 0.0 
0.0 -1.962000000000e+01 0.0 
0.0 -1.962000000000e+01 0.0 
0.0 -1.962000000000e+01 0.0 
0.0 -1.962000000000e+01 0.0 
0.0 -1.962000000000e+01 0.0 
0.0 -1.962000000000e+01 0.0 
0.0 -1.962000000000e+01 0.0 
0.0 -1.962000000000e+01 0.0 
0.0 -1.962000000000e+01 0.0 
0.0 -1.962000000000e+01 0.0 
0.0 -1.962000000000e+01 0.0 
0.0 -1.962000000000e+01 0.0 
0.0 -1.962000000000e+01 0.0 
0.0 -1.962000000000e+01 0.0 
0.0 -1.962000000000e+01 0.0 
0.0 -1.962000000000e+01 0.0 
0.0 -1.962000000000e+01 0.0 
0.0 -1.962000000000e+01 0.0 
0.0 -1.962000000000e+01 0.0 
0.0 -1.962000000000e+01 0.0 
0.0 -1.962000000000e+01 0.0 
0.0 -1.962000000000e+01 0.0 
0.0 -1.962000000000e+01 0.0 
0.0 -1.962000000000e+01 0.0 
0.0 -1.962000000000e+01 0.0 
0.0 -1.962000000000e+01 0.0 
0.0 -1.962000000000e+01 0.0 
0.0 -1.962000000000e+01 0.0 
0.0 -1.962000000000e+01 0.0 
0.0 -1.962000000000e+01 0.0 
0.0 -1.962000000000e+01 0.0 
0.0 -1.962000000000e+01 0.0 
0.0 -1.962000000000e+01 0.0 
0.0 -1.962000000000e+01 0.0 
0.0 -1.962000000000e+01 0.0 
0.0 -1.962000000000e+01 0.0 
0.0 -1.962000000000e+01 0.0 
0.0 -1.962000000000e+01 0.0 
0.0 -1.962000000000e+01 0.0 
0.0 -1.962000000000e+01 0.0 
0.0 -1.962000000000e+01 0.0 
0.0 -1.962000000000e+01 0.0 
0.0 -1.962000000000e+01 0.0 
0.0 -1.962000000000e+01 0.0 
0.0 -1.962000000000e+01 0.0 
0.0 -1.962000000000e+01 0.0 
0.0 -1.962000000000e+01 0.0 
0.0 -1.962000000000e+01 0.0 
0.0 -1.962000000000e+01 0.0 
0.0 -1.962000000000e+01 0.0 
0.0 -1.962000000000e+01 0.0 
0.0 -1.962000000000e+01 0.0 
0.0 -1.962000000000e+01 0.0 
0.0 -1.962000000000e+01 0.0 
0.0 -1.962000000000e+01 0.0 
0.0 -1.962000000000e+01 0.0 
0.0 -1.962000000000e+01 0.0 
0.0 -1.962000000000e+01 0.0 
0.0 -1.962000000000e+01 0.0 
0.0 -1.962000000000e+01 0.0 
0.0 -1.962000000000e+01 0.0 
0.0 -1.962000000000e+01 0.0 
0.0 -1.962000000000e+01 0.0 
0.0 -1.962000000000e+01 0.0 
0.0 -1.962000000000e+01 0.0 
0.0 -1.962000000000e+01 0.0 
0.0 -1.962000000000e+01 0.0 
0.0 -1.962000000000e+01 0.0 
0.0 -1.962000000000e+01 0.0 
0.0 -1.962000000000e+01 0.0 
0.0 -1.962000000000e+01 0.0 
0.0 -1.962000000000e+01 0.0 
0.0 -1.962000000000e+01 0.0 
0.0 -1.962000000000e+01 0.0 
0.0 -1.962000000000e+01 0.0 
0.0 -1.962000000000e+01 0.0 
0.0 -1.962000000000e+01 0.0 
0.0 -1.962000000000e+01 0.0 
0.0 -1.962000000000e+01 0.0 
0.0 -1.962000000000e+01 0.0 
0.0 -1.962000000000e+01 0.0 
0.0 -1.962000000000e+01 0.0 
0.0 -1.962000000000e+01 0.0 
0.0 -1.962000000000e+01 0.0 
0.0 -1.962000000000e+01 0.0 
0.0 -1.962000000000e+01 0.0 
0.0 -1.962000000000e+01 0.0 
0.0 -1.962000000000e+01 0.0 
0.0 -1.962000000000e+01 0.0 
0.0 -1.962000000000e+01 0.0 
0.0 -1.962000000000e+01 0.0 
0.0 -1.962000000000e+01 0.0 
0.0 -1.962000000000e+01 0.0 
0.0 -1.962000000000e+01 0.0 
0.0 -1.962000000000e+01 0.0 
0.0 -1.962000000000e+01 0.0 
0.0 -1.962000000000e+01 0.0 
0.0 -1.962000000000e+01 0.0 
0.0 -1.962000000000e+01 0.0 
0.0 -1.962000000000e+01 0.0 
0.0 -1.962000000000e+01 0.0 
0.0 -1.962000000000e+01 0.0 
0.0 -1.962000000000e+01 0.0 
0.0 -1.962000000000e+01 0.0 
0.0 -1.962000000000e+01 0.0 
0.0 -1.962000000000e+01 0.0 
0.0 -1.962000000000e+01 0.0 
0.0 -1.962000000000e+01 0.0 
0.0 -1.962000000000e+01 0.0 
0.0 -1.962000000000e+01 0.0 
0.0 -1.962000000000e+01 0.0 
0.0 -1.962000000000e+01 0.0 
0.0 -1.962000000000e+01 0.0 
0.0 -1.962000000000e+01 0.0 
0.0 -1.962000000000e+01 0.0 
0.0 -1.962000000000e+01 0.0 
0.0 -1.962000000000e+01 0.0 
0.0 -1.962000000000e+01 0.0 
0.0 -1.962000000000e+01 0.0 
0.0 -1.962000000000e+01 0.0 
0.0 -1.962000000000e+01 0.0 
0.0 -1.962000000000e+01 0.0 
0.0 -1.962000000000e+01 0.0 
0.0 -1.962000000000e+01 0.0 
0.0 -1.962000000000e+01 0.0 
0.0 -1.962000000000e+01 0.0 
0.0 -1.962000000000e+01 0.0 
0.0 -1.962000000000e+01 0.0 
0.0 -1.962000000000e+01 0.0 
0.0 -1.962000000000e+01 0.0 
0.0 -1.962000000000e+01 0.0 
0.0 -1.962000000000e+01 0.0 
0.0 -1.962000000000e+01 0.0 
0.0 -1.962000000000e+01 0.0 
0.0 -1.962000000000e+01 0.0 
0.0 -1.962000000000e+01 0.0 
0.0 -1.962000000000e+01 0.0 
0.0 -1.962000000000e+01 0.0 
0.0 -1.962000000000e+01 0.0 
0.0 -1.962000000000e+01 0.0 
0.0 -1.962000000000e+01 0.0 
0.0 -1.962000000000e+01 0.0 
0.0 -1.962000000000e+01 0.0 
0.0 -1.962000000000e+01 0.0 
0.0 -1.962000000000e+01 0.0 
0.0 -1.962000000000e+01 0.0 
0.0 -1.962000000000e+01 0.0 
0.0 -1.962000000000e+01 0.0 
0.0 -1.962000000000e+01 0.0 
0.0 -1.962000000000e+01 0.0 
0.0 -1.962000000000e+01 0.0 
0.0 -1.962000000000e+01 0.0 
0.0 -1.962000000000e+01 0.0 
0.0 -1.962000000000e+01 0.0 
0.0 -1.962000000000e+01 0.0 
0.0 -1.962000000000e+01 0.0 
0.0 -1.962000000000e+01 0.0 
0.0 -1.962000000000e+01 0.0 
0.0 -1.962000000000e+01 0.0 
0.0 -1.962000000000e+01 0.0 
0.0 -1.962000000000e+01 0.0 
0.0 -1.962000000000e+01 0.0 
0.0 -1.962000000000e+01 0.0 
0.0 -1.962000000000e+01 0.0 
0.0 -1.962000000000e+01 0.0 
0.0 -1.962000000000e+01 0.0 
0.0 -1.962000000000e+01 0.0 
0.0 -1.962000000000e+01 0.0 
0.0 -1.962000000000e+01 0.0 
0.0 -1.962000000000e+01 0.0 
0.0 -1.962000000000e+01 0.0 
0.0 -1.962000000000e+01 0.0 
0.0 -1.962000000000e+01 0.0 
0.0 -1.962000000000e+01 0.0 
0.0 -1.962000000000e+01 0.0 
0.0 -1.962000000000e+01 0.0 
0.0 -1.962000000000e+01 0.0 
0.0 -1.962000000000e+01 0.0 
0.0 -1.962000000000e+01 0.0 
0.0 -1.962000000000e+01 0.0 
0.0 -1.962000000000e+01 0.0 
0.0 -1.962000000000e+01 0.0 
0.0 -1.962000000000e+01 0.0 
0.0 -1.962000000000e+01 0.0 
0.0 -1.962000000000e+01 0.0 
0.0 -1.962000000000e+01 0.0 
0.0 -1.962000000000e+01 0.0 
0.0 -1.962000000000e+01 0.0 
0.0 -1.962000000000e+01 0.0 
0.0 -1.962000000000e+01 0.0 
0.0 -1.962000000000e+01 0.0 
0.0 -1.962000000000e+01 0.0 
0.0 -1.962000000000e+01 0.0 
0.0 -1.962000000000e+01 0.0 
0.0 -1.962000000000e+01 0.0 
0.0 -1.962000000000e+01 0.0 
0.0 -1.962000000000e+01 0.0 
0.0 -1.962000000000e+01 0.0 
0.0 -1.962000000000e+01 0.0 
0.0 -1.962000000000e+01 0.0 
0.0 -1.962000000000e+01 0.0 
0.0 -1.962000000000e+01 0.0 
0.0 -1.962000000000e+01 0.0 
0.0 -1.962000000000e+01 0.0 
0.0 -1.962000000000e+01 0.0 
0.0 -1.962000000000e+01 0.0 
0.0 -1.962000000000e+01 0.0 
0.0 -1.962000000000e+01 0.0 
0.0 -1.962000000000e+01 0.0 
0.0 -1.962000000000e+01 0.0 
0.0 -1.962000000000e+01 0.0 
0.0 -1.962000000000e+01 0.0 
0.0 -1.962000000000e+01 0.0 
0.0 -1.962000000000e+01 0.0 
0.0 -1.962000000000e+01 0.0 
0.0 -1.962000000000e+01 0.0 
0.0 -1.962000000000e+01 0.0 
0.0 -1.962000000000e+01 0.0 
0.0 -1.962000000000e+01 0.0 
0.0 -1.962000000000e+01 0.0 
0.0 -1.962000000000e+01 0.0 
0.0 -1.962000000000e+01 0.0 
0.0 -1.962000000000e+01 0.0 
0.0 -1.962000000000e+01 0.0 
0.0 -1.962000000000e+01 0.0 
0.0 -1.962000000000e+01 0.0 
0.0 -1.962000000000e+01 0.0 
0.0 -1.962000000000e+01 0.0 
0.0 -1.962000000000e+01 0.0 
0.0 -1.962000000000e+01 0.0 
0.0 -1.962000000000e+01 0.0 
0.0 -1.962000000000e+01 0.0 
0.0 -1.962000000000e+01 0.0 
0.0 -1.962000000000e+01 0.0 
0.0 -1.962000000000e+01 0.0 
0.0 -1.962000000000e+01 0.0 
0.0 -1.962000000000e+01 0.0 
0.0 -1.962000000000e+01 0.0 
0.0 -1.962000000000e+01 0.0 
0.0 -1.962000000000e+01 0.0 
0.0 -1.962000000000e+01 0.0 
0.0 -1.962000000000e+01 0.0 
0.0 -1.962000000000e+01 0.0 
0.0 -1.962000000000e+01 0.0 
0.0 -1.962000000000e+01 0.0 
0.0 -1.962000000000e+01 0.0 
0.0 -1.962000000000e+01 0.0 
0.0 -1.962000000000e+01 0.0 
0.0 -1.962000000000e+01 0.0 
0.0 -1.962000000000e+01 0.0 
0.0 -1.962000000000e+01 0.0 
0.0 -1.962000000000e+01 0.0 
0.0 -1.962000000000e+01 0.0 
0.0 -1.962000000000e+01 0.0 
0.0 -1.962000000000e+01 0.0 
0.0 -1.962000000000e+01 0.0 
0.0 -1.962000000000e+01 0.0 
0.0 -1.962000000000e+01 0.0 
0.0 -1.962000000000e+01 0.0 
0.0 -1.962000000000e+01 0.0 
0.0 -1.962000000000e+01 0.0 
0.0 -1.962000000000e+01 0.0 
0.0 -1.962000000000e+01 0.0 
0.0 -1.962000000000e+01 0.0 
0.0 -1.962000000000e+01 0.0 
0.0 -1.962000000000e+01 0.0 
0.0 -1.962000000000e+01 0.0 
0.0 -1.962000000000e+01 0.0 
0.0 -1.962000000000e+01 0.0 
0.0 -1.962000000000e+01 0.0 
0.0 -1.962000000000e+01 0.0 
0.0 -1.962000000000e+01 0.0 
0.0 -1.962000000000e+01 0.0 
0.0 -1.962000000000e+01 0.0 
0.0 -1.962000000000e+01 0.0 
0.0 -1.962000000000e+01 0.0 
0.0 -1.962000000000e+01 0.0 
0.0 -1.962000000000e+01 0.0 
0.0 -1.962000000000e+01 0.0 
0.0 -1.962000000000e+01 0.0 
0.0 -1.962000000000e+01 0.0 
0.0 -1.962000000000e+01 0.0 
0.0 -1.962000000000e+01 0.0 
0.0 -1.962000000000e+01 0.0 
0.0 -1.962000000000e+01 0.0 
0.0 -1.962000000000e+01 0.0 
0.0 -1.962000000000e+01 0.0 
0.0 -1.962000000000e+01 0.0 
0.0 -1.962000000000e+01 0.0 
0.0 -1.962000000000e+01 0.0 
0.0 -1.962000000000e+01 0.0 
0.0 -1.962000000000e+01 0.0 
0.0 -1.962000000000e+01 0.0 
0.0 -1.962000000000e+01 0.0 
0.0 -1.962000000000e+01 0.0 
0.0 -1.962000000000e+01 0.0 
0.0 -1.962000000000e+01 0.0 
0.0 -1.962000000000e+01 0.0 
0.0 -1.962000000000e+01 0.0 
0.0 -1.962000000000e+01 0.0 
0.0 -1.962000000000e+01 0.0 
0.0 -1.962000000000e+01 0.0 
0.0 -1.962000000000e+01 0.0 
0.0 -1.962000000000e+01 0.0 
0.0 -1.962000000000e+01 0.0 
0.0 -1.962000000000e+01 0.0 
0.0 -1.962000000000e+01 0.0 
0.0 -1.962000000000e+01 0.0 
0.0 -1.962000000000e+01 0.0 
0.0 -1.962000000000e+01 0.0 
0.0 -1.962000000000e+01 0.0 
0.0 -1.962000000000e+01 0.0 
0.0 -1.962000000000e+01 0.0 
0.0 -1.962000000000e+01 0.0 
0.0 -1.962000000000e+01 0.0 
0.0 -1.962000000000e+01 0.0 
0.0 -1.962000000000e+01 0.0 
0.0 -1.962000000000e+01 0.0 
0.0 -1.962000000000e+01 0.0 
0.0 -1.962000000000e+01 0.0 
0.0 -1.962000000000e+01 0.0 
0.0 -1.962000000000e+01 0.0 
0.0 -1.962000000000e+01 0.0 
0.0 -1.962000000000e+01 0.0 
0.0 -1.962000000000e+01 0.0 
0.0 -1.962000000000e+01 0.0 
0.0 -1.962000000000e+01 0.0 
0.0 -1.962000000000e+01 0.0 
0.0 -1.962000000000e+01 0.0 
0.0 -1.962000000000e+01 0.0 
0.0 -1.962000000000e+01 0.0 
0.0 -1.962000000000e+01 0.0 
0.0 -1.962000000000e+01 0.0 
0.0 -1.962000000000e+01 0.0 
0.0 -1.962000000000e+01 0.0 
0.0 -1.962000000000e+01 0.0 
0.0 -1.962000000000e+01 0.0 
0.0 -1.962000000000e+01 0.0 
0.0 -1.962000000000e+01 0.0 
0.0 -1.962000000000e+01 0.0 
0.0 -1.962000000000e+01 0.0 
0.0 -1.962000000000e+01 0.0 
0.0 -1.962000000000e+01 0.0 
0.0 -1.962000000000e+01 0.0 
0.0 -1.962000000000e+01 0.0 
0.0 -1.962000000000e+01 0.0 
0.0 -1.962000000000e+01 0.0 
0.0 -1.962000000000e+01 0.0 
0.0 -1.962000000000e+01 0.0 
0.0 -1.962000000000e+01 0.0 
0.0 -1.962000000000e+01 0.0 
0.0 -1.962000000000e+01 0.0 
0.0 -1.962000000000e+01 0.0 
0.0 -1.962000000000e+01 0.0 
0.0 -1.962000000000e+01 0.0 
0.0 -1.962000000000e+01 0.0 
0.0 -1.962000000000e+01 0.0 
0.0 -1.962000000000e+01 0.0 
0.0 -1.962000000000e+01 0.0 
0.0 -1.962000000000e+01 0.0 
0.0 -1.962000000000e+01 0.0 
0.0 -1.962000000000e+01 0.0 
0.0 -1.962000000000e+01 0.0 
0.0 -1.962000000000e+01 0.0 
0.0 -1.962000000000e+01 0.0 
0.0 -1.962000000000e+01 0.0 
0.0 -1.962000000000e+01 0.0 
0.0 -1.962000000000e+01 0.0 
0.0 -1.962000000000e+01 0.0 
0.0 -1.962000000000e+01 0.0 
0.0 -1.962000000000e+01 0.0 
0.0 -1.962000000000e+01 0.0 
0.0 -1.962000000000e+01 0.0 
0.0 -1.962000000000e+01 0.0 
0.0 -1.962000000000e+01 0.0 
0.0 -1.962000000000e+01 0.0 
0.0 -1.962000000000e+01 0.0 
0.0 -1.962000000000e+01 0.0 
0.0 -1.962000000000e+01 0.0 
0.0 -1.962000000000e+01 0.0 
0.0 -1.962000000000e+01 0.0 
0.0 -1.962000000000e+01 0.0 
0.0 -1.962000000000e+01 0.0 
0.0 -1.962000000000e+01 0.0 
0.0 -1.962000000000e+01 0.0 
0.0 -1.962000000000e+01 0.0 
0.0 -1.962000000000e+01 0.0 
0.0 -1.962000000000e+01 0.0 
0.0 -1.962000000000e+01 0.0 
0.0 -1.962000000000e+01 0.0 
0.0 -1.962000000000e+01 0.0 
0.0 -1.962000000000e+01 0.0 
0.0 -1.962000000000e+01 0.0 
0.0 -1.962000000000e+01 0.0 
0.0 -1.962000000000e+01 0.0 
0.0 -1.962000000000e+01 0.0 
0.0 -1.962000000000e+01 0.0 
0.0 -1.962000000000e+01 0.0 
0.0 -1.962000000000e+01 0.0 
0.0 -1.962000000000e+01 0.0 
0.0 -1.962000000000e+01 0.0 
0.0 -1.962000000000e+01 0.0 
0.0 -1.962000000000e+01 0.0 
0.0 -1.962000000000e+01 0.0 
0.0 -1.962000000000e+01 0.0 
0.0 -1.962000000000e+01 0.0 
0.0 -1.962000000000e+01 0.0 
0.0 -1.962000000000e+01 0.0 
0.0 -1.962000000000e+01 0.0 
0.0 -1.962000000000e+01 0.0 
0.0 -1.962000000000e+01 0.0 
0.0 -1.962000000000e+01 0.0 
0.0 -1.962000000000e+01 0.0 
0.0 -1.962000000000e+01 0.0 
0.0 -1.962000000000e+01 0.0 
0.0 -1.962000000000e+01 0.0 
0.0 -1.962000000000e+01 0.0 
0.0 -1.962000000000e+01 0.0 
0.0 -1.962000000000e+01 0.0 
0.0 -1.962000000000e+01 0.0 
0.0 -1.962000000000e+01 0.0 
0.0 -1.962000000000e+01 0.0 
0.0 -1.962000000000e+01 0.0 
0.0 -1.962000000000e+01 0.0 
0.0 -1.962000000000e+01 0.0 
0.0 -1.962000000000e+01 0.0 
0.0 -1.962000000000e+01 0.0 
0.0 -1.962000000000e+01 0.0 
0.0 -1.962000000000e+01 0.0 
0.0 -1.962000000000e+01 0.0 
0.0 -1.962000000000e+01 0.0 
0.0 -1.962000000000e+01 0.0 
0.0 -1.962000000000e+01 0.0 
0.0 -1.962000000000e+01 0.0 
0.0 -1.962000000000e+01 0.0 
0.0 -1.962000000000e+01 0.0 
0.0 -1.962000000000e+01 0.0 
0.0 -1.962000000000e+01 0.0 
0.0 -1.962000000000e+01 0.0 
0.0 -1.962000000000e+01 0.0 
0.0 -1.962000000000e+01 0.0 
0.0 -1.962000000000e+01 0.0 
0.0 -1.962000000000e+01 0.0 
0.0 -1.962000000000e+01 0.0 
0.0 -1.962000000000e+01 0.0 
0.0 -1.962000000000e+01 0.0 
0.0 -1.962000000000e+01 0.0 
0.0 -1.962000000000e+01 0.0 
0.0 -1.962000000000e+01 0.0 
0.0 -1.962000000000e+01 0.0 
0.0 -1.962000000000e+01 0.0 
0.0 -1.962000000000e+01 0.0 
0.0 -1.962000000000e+01 0.0 
0.0 -1.962000000000e+01 0.0 
0.0 -1.962000000000e+01 0.0 
0.0 -1.962000000000e+01 0.0 
0.0 -1.962000000000e+01 0.0 
0.0 -1.962000000000e+01 0.0 
0.0 -1.962000000000e+01 0.0 
0.0 -1.962000000000e+01 0.0 
0.0 -1.962000000000e+01 0.0 
0.0 -1.962000000000e+01 0.0 
0.0 -1.962000000000e+01 0.0 
0.0 -1.962000000000e+01 0.0 
0.0 -1.962000000000e+01 0.0 
0.0 -1.962000000000e+01 0.0 
0.0 -1.962000000000e+01 0.0 
0.0 -1.962000000000e+01 0.0 
0.0 -1.962000000000e+01 0.0 
0.0 -1.962000000000e+01 0.0 
0.0 -1.962000000000e+01 0.0 
0.0 -1.962000000000e+01 0.0 
0.0 -1.962000000000e+01 0.0 
0.0 -1.962000000000e+01 0.0 
0.0 -1.962000000000e+01 0.0 
0.0 -1.962000000000e+01 0.0 
0.0 -1.962000000000e+01 0.0 
0.0 -1.962000000000e+01 0.0 
0.0 -1.962000000000e+01 0.0 
0.0 -1.962000000000e+01 0.0 
0.0 -1.962000000000e+01 0.0 
0.0 -1.962000000000e+01 0.0 
0.0 -1.962000000000e+01 0.0 
0.0 -1.962000000000e+01 0.0 
0.0 -1.962000000000e+01 0.0 
0.0 -1.962000000000e+01 0.0 
0.0 -1.962000000000e+01 0.0 
0.0 -1.962000000000e+01 0.0 
0.0 -1.962000000000e+01 0.0 
0.0 -1.962000000000e+01 0.0 
0.0 -1.962000000000e+01 0.0 
0.0 -1.962000000000e+01 0.0 
0.0 -1.962000000000e+01 0.0 
0.0 -1.962000000000e+01 0.0 
0.0 -1.962000000000e+01 0.0 
0.0 -1.962000000000e+01 0.0 
0.0 -1.962000000000e+01 0.0 
0.0 -1.962000000000e+01 0.0 
0.0 -1.962000000000e+01 0.0 
0.0 -1.962000000000e+01 0.0 
0.0 -1.962000000000e+01 0.0 
0.0 -1.962000000000e+01 0.0 
0.0 -1.962000000000e+01 0.0 
0.0 -1.962000000000e+01 0.0 
0.0 -1.962000000000e+01 0.0 
0.0 -1.962000000000e+01 0.0 
0.0 -1.962000000000e+01 0.0 
0.0 -1.962000000000e+01 0.0 
0.0 -1.962000000000e+01 0.0 
0.0 -1.962000000000e+01 0.0 
0.0 -1.962000000000e+01 0.0 
0.0 -1.962000000000e+01 0.0 
0.0 -1.962000000000e+01 0.0 
0.0 -1.962000000000e+01 0.0 
0.0 -1.962000000000e+01 0.0 
0.0 -1.962000000000e+01 0.0 
0.0 -1.962000000000e+01 0.0 
0.0 -1.962000000000e+01 0.0 
0.0 -1.962000000000e+01 0.0 
0.0 -1.962000000000e+01 0.0 
0.0 -1.962000000000e+01 0.0 
0.0 -1.962000000000e+01 0.0 
0.0 -1.962000000000e+01 0.0 
0.0 -1.962000000000e+01 0.0 
0.0 -1.962000000000e+01 0.0 
0.0 -1.962000000000e+01 0.0 
0.0 -1.962000000000e+01 0.0 
0.0 -1.962000000000e+01 0.0 
0.0 -1.962000000000e+01 0.0 
0.0 -1.962000000000e+01 0.0 
0.0 -1.962000000000e+01 0.0 
0.0 -1.962000000000e+01 0.0 
0.0 -1.962000000000e+01 0.0 
0.0 -1.962000000000e+01 0.0 
0.0 -1.962000000000e+01 0.0 
0.0 -1.962000000000e+01 0.0 
0.0 -1.962000000000e+01 0.0 
0.0 -1.962000000000e+01 0.0 
0.0 -1.962000000000e+01 0.0 
0.0 -1.962000000000e+01 0.0 
0.0 -1.962000000000e+01 0.0 
0.0 -1.962000000000e+01 0.0 
0.0 -1.962000000000e+01 0.0 
0.0 -1.962000000000e+01 0.0 
0.0 -1.962000000000e+01 0.0 
0.0 -1.962000000000e+01 0.0 
0.0 -1.962000000000e+01 0.0 
0.0 -1.962000000000e+01 0.0 
0.0 -1.962000000000e+01 0.0 
0.0 -1.962000000000e+01 0.0 
0.0 -1.962000000000e+01 0.0 
0.0 -1.962000000000e+01 0.0 
0.0 -1.962000000000e+01 0.0 
0.0 -1.962000000000e+01 0.0 
0.0 -1.962000000000e+01 0.0 
0.0 -1.962000000000e+01 0.0 
0.0 -1.962000000000e+01 0.0 
0.0 -1.962000000000e+01 0.0 
0.0 -1.962000000000e+01 0.0 
0.0 -1.962000000000e+01 0.0 
0.0 -1.962000000000e+01 0.0 
0.0 -1.962000000000e+01 0.0 
0.0 -1.962000000000e+01 0.0 
0.0 -1.962000000000e+01 0.0 
0.0 -1.962000000000e+01 0.0 
0.0 -1.962000000000e+01 0.0 
0.0 -1.962000000000e+01 0.0 
0.0 -1.962000000000e+01 0.0 
0.0 -1.962000000000e+01 0.0 
0.0 -1.962000000000e+01 0.0 
0.0 -1.962000000000e+01 0.0 
0.0 -1.962000000000e+01 0.0 
0.0 -1.962000000000e+01 0.0 
0.0 -1.962000000000e+01 0.0 
0.0 -1.962000000000e+01 0.0 
0.0 -1.962000000000e+01 0.0 
0.0 -1.962000000000e+01 0.0 
0.0 -1.962000000000e+01 0.0 
0.0 -1.962000000000e+01 0.0 
0.0 -1.962000000000e+01 0.0 
0.0 -1.962000000000e+01 0.0 
0.0 -1.962000000000e+01 0.0 
0.0 -1.962000000000e+01 0.0 
0.0 -1.962000000000e+01 0.0 
0.0 -1.962000000000e+01 0.0 
0.0 -1.962000000000e+01 0.0 
0.0 -1.962000000000e+01 0.0 
0.0 -1.962000000000e+01 0.0 
0.0 -1.962000000000e+01 0.0 
0.0 -1.962000000000e+01 0.0 
0.0 -1.962000000000e+01 0.0 
0.0 -1.962000000000e+01 0.0 
0.0 -1.962000000000e+01 0.0 
0.0 -1.962000000000e+01 0.0 
0.0 -1.962000000000e+01 0.0 
0.0 -1.962000000000e+01 0.0 
0.0 -1.962000000000e+01 0.0 
0.0 -1.962000000000e+01 0.0 
0.0 -1.962000000000e+01 0.0 
0.0 -1.962000000000e+01 0.0 
0.0 -1.962000000000e+01 0.0 
0.0 -1.962000000000e+01 0.0 
0.0 -1.962000000000e+01 0.0 
0.0 -1.962000000000e+01 0.0 
0.0 -1.962000000000e+01 0.0 
0.0 -1.962000000000e+01 0.0 
0.0 -1.962000000000e+01 0.0 
0.0 -1.962000000000e+01 0.0 
0.0 -1.962000000000e+01 0.0 
0.0 -1.962000000000e+01 0.0 
0.0 -1.962000000000e+01 0.0 
0.0 -1.962000000000e+01 0.0 
0.0 -1.962000000000e+01 0.0 
0.0 -1.962000000000e+01 0.0 
0.0 -1.962000000000e+01 0.0 
0.0 -1.962000000000e+01 0.0 
0.0 -1.962000000000e+01 0.0 
0.0 -1.962000000000e+01 0.0 
0.0 -1.962000000000e+01 0.0 
0.0 -1.962000000000e+01 0.0 
0.0 -1.962000000000e+01 0.0 
0.0 -1.962000000000e+01 0.0 
0.0 -1.962000000000e+01 0.0 
0.0 -1.962000000000e+01 0.0 
0.0 -1.962000000000e+01 0.0 
0.0 -1.962000000000e+01 0.0 
0.0 -1.962000000000e+01 0.0 
0.0 -1.962000000000e+01 0.0 
0.0 -1.962000000000e+01 0.0 
0.0 -1.962000000000e+01 0.0 
0.0 -1.962000000000e+01 0.0 
0.0 -1.962000000000e+01 0.0 
0.0 -1.962000000000e+01 0.0 
0.0 -1.962000000000e+01 0.0 
0.0 -1.962000000000e+01 0.0 
0.0 -1.962000000000e+01 0.0 
0.0 -1.962000000000e+01 0.0 
0.0 -1.962000000000e+01 0.0 
0.0 -1.962000000000e+01 0.0 
0.0 -1.962000000000e+01 0.0 
0.0 -1.962000000000e+01 0.0 
0.0 -1.962000000000e+01 0.0 
0.0 -1.962000000000e+01 0.0 
0.0 -1.962000000000e+01 0.0 
0.0 -1.962000000000e+01 0.0 
0.0 -1.962000000000e+01 0.0 
0.0 -1.962000000000e+01 0.0 
0.0 -1.962000000000e+01 0.0 
0.0 -1.962000000000e+01 0.0 
0.0 -1.962000000000e+01 0.0 
0.0 -1.962000000000e+01 0.0 
0.0 -1.962000000000e+01 0.0 
0.0 -1.962000000000e+01 0.0 
0.0 -1.962000000000e+01 0.0 
0.0 -1.962000000000e+01 0.0 
0.0 -1.962000000000e+01 0.0 
0.0 -1.962000000000e+01 0.0 
0.0 -1.962000000000e+01 0.0 
0.0 -1.962000000000e+01 0.0 
0.0 -1.962000000000e+01 0.0 
0.0 -1.962000000000e+01 0.0 
0.0 -1.962000000000e+01 0.0 
0.0 -1.962000000000e+01 0.0 
0.0 -1.962000000000e+01 0.0 
0.0 -1.962000000000e+01 0.0 
0.0 -1.962000000000e+01 0.0 
0.0 -1.962000000000e+01 0.0 
0.0 -1.962000000000e+01 0.0 
0.0 -1.962000000000e+01 0.0 
0.0 -1.962000000000e+01 0.0 
0.0 -1.962000000000e+01 0.0 
0.0 -1.962000000000e+01 0.0 
0.0 -1.962000000000e+01 0.0 
0.0 -1.962000000000e+01 0.0 
0.0 -1.962000000000e+01 0.0 
0.0 -1.962000000000e+01 0.0 
0.0 -1.962000000000e+01 0.0 
0.0 -1.962000000000e+01 0.0 
0.0 -1.962000000000e+01 0.0 
0.0 -1.962000000000e+01 0.0 
0.0 -1.962000000000e+01 0.0 
0.0 -1.962000000000e+01 0.0 
0.0 -1.962000000000e+01 0.0 
0.0 -1.962000000000e+01 0.0 
0.0 -1.962000000000e+01 0.0 
0.0 -1.962000000000e+01 0.0 
0.0 -1.962000000000e+01 0.0 
0.0 -1.962000000000e+01 0.0 
0.0 -1.962000000000e+01 0.0 
0.0 -1.962000000000e+01 0.0 
0.0 -1.962000000000e+01 0.0 
0.0 -1.962000000000e+01 0.0 
0.0 -1.962000000000e+01 0.0 
0.0 -1.962000000000e+01 0.0 
0.0 -1.962000000000e+01 0.0 
0.0 -1.962000000000e+01 0.0 
0.0 -1.962000000000e+01 0.0 
0.0 -1.962000000000e+01 0.0 
0.0 -1.962000000000e+01 0.0 
0.0 -1.962000000000e+01 0.0 
0.0 -1.962000000000e+01 0.0 
0.0 -1.962000000000e+01 0.0 
0.0 -1.962000000000e+01 0.0 
0.0 -1.962000000000e+01 0.0 
0.0 -1.962000000000e+01 0.0 
0.0 -1.962000000000e+01 0.0 
0.0 -1.962000000000e+01 0.0 
0.0 -1.962000000000e+01 0.0 
0.0 -1.962000000000e+01 0.0 
0.0 -1.962000000000e+01 0.0 
0.0 -1.962000000000e+01 0.0 
0.0 -1.962000000000e+01 0.0 
0.0 -1.962000000000e+01 0.0 
0.0 -1.962000000000e+01 0.0 
0.0 -1.962000000000e+01 0.0 
0.0 -1.962000000000e+01 0.0 
0.0 -1.962000000000e+01 0.0 
0.0 -1.962000000000e+01 0.0 
0.0 -1.962000000000e+01 0.0 
0.0 -1.962000000000e+01 0.0 
0.0 -1.962000000000e+01 0.0 
0.0 -1.962000000000e+01 0.0 
0.0 -1.962000000000e+01 0.0 
0.0 -1.962000000000e+01 0.0 
0.0 -1.962000000000e+01 0.0 
0.0 -1.962000000000e+01 0.0 
0.0 -1.962000000000e+01 0.0 
0.0 -1.962000000000e+01 0.0 
0.0 -1.962000000000e+01 0.0 
0.0 -1.962000000000e+01 0.0 
0.0 -1.962000000000e+01 0.0 
0.0 -1.962000000000e+01 0.0 
0.0 -1.962000000000e+01 0.0 
0.0 -1.962000000000e+01 0.0 
0.0 -1.962000000000e+01 0.0 
0.0 -1.962000000000e+01 0.0 
0.0 -1.962000000000e+01 0.0 
0.0 -1.962000000000e+01 0.0 
0.0 -1.962000000000e+01 0.0 
0.0 -1.962000000000e+01 0.0 
0.0 -1.962000000000e+01 0.0 
0.0 -1.962000000000e+01 0.0 
0.0 -1.962000000000e+01 0.0 
0.0 -1.962000000000e+01 0.0 
0.0 -1.962000000000e+01 0.0 
0.0 -1.962000000000e+01 0.0 
0.0 -1.962000000000e+01 0.0 
0.0 -1.962000000000e+01 0.0 
0.0 -1.962000000000e+01 0.0 
0.0 -1.962000000000e+01 0.0 
0.0 -1.962000000000e+01 0.0 
0.0 -1.962000000000e+01 0.0 
0.0 -1.962000000000e+01 0.0 
0.0 -1.962000000000e+01 0.0 
0.0 -1.962000000000e+01 0.0 
0.0 -1.962000000000e+01 0.0 
0.0 -1.962000000000e+01 0.0 
0.0 -1.962000000000e+01 0.0 
0.0 -1.962000000000e+01 0.0 
0.0 -1.962000000000e+01 0.0 
0.0 -1.962000000000e+01 0.0 
0.0 -1.962000000000e+01 0.0 
0.0 -1.962000000000e+01 0.0 
0.0 -1.962000000000e+01 0.0 
0.0 -1.962000000000e+01 0.0 
0.0 -1.962000000000e+01 0.0 
0.0 -1.962000000000e+01 0.0 
0.0 -1.962000000000e+01 0.0 
0.0 -1.962000000000e+01 0.0 
0.0 -1.962000000000e+01 0.0 
0.0 -1.962000000000e+01 0.0 
0.0 -1.962000000000e+01 0.0 
0.0 -1.962000000000e+01 0.0 
0.0 -1.962000000000e+01 0.0 
0.0 -1.962000000000e+01 0.0 
0.0 -1.962000000000e+01 0.0 
0.0 -1.962000000000e+01 0.0 
0.0 -1.962000000000e+01 0.0 
0.0 -1.962000000000e+01 0.0 
0.0 -1.962000000000e+01 0.0 
0.0 -1.962000000000e+01 0.0 
0.0 -1.962000000000e+01 0.0 
0.0 -1.962000000000e+01 0.0 
0.0 -1.962000000000e+01 0.0 
0.0 -1.962000000000e+01 0.0 
0.0 -1.962000000000e+01 0.0 
0.0 -1.962000000000e+01 0.0 
0.0 -1.962000000000e+01 0.0 
0.0 -1.962000000000e+01 0.0 
0.0 -1.962000000000e+01 0.0 
0.0 -1.962000000000e+01 0.0 
0.0 -1.962000000000e+01 0.0 
0.0 -1.962000000000e+01 0.0 
0.0 -1.962000000000e+01 0.0 
0.0 -1.962000000000e+01 0.0 
0.0 -1.962000000000e+01 0.0 
0.0 -1.962000000000e+01 0.0 
0.0 -1.962000000000e+01 0.0 
0.0 -1.962000000000e+01 0.0 
0.0 -1.962000000000e+01 0.0 
0.0 -1.962000000000e+01 0.0 
0.0 -1.962000000000e+01 0.0 
0.0 -1.962000000000e+01 0.0 
0.0 -1.962000000000e+01 0.0 
0.0 -1.962000000000e+01 0.0 
0.0 -1.962000000000e+01 0.0 
0.0 -1.962000000000e+01 0.0 
0.0 -1.962000000000e+01 0.0 
0.0 -1.962000000000e+01 0.0 
0.0 -1.962000000000e+01 0.0 
0.0 -1.962000000000e+01 0.0 
0.0 -1.962000000000e+01 0.0 
0.0 -1.962000000000e+01 0.0 
0.0 -1.962000000000e+01 0.0 
0.0 -1.962000000000e+01 0.0 
0.0 -1.962000000000e+01 0.0 
0.0 -1.962000000000e+01 0.0 
0.0 -1.962000000000e+01 0.0 
0.0 -1.962000000000e+01 0.0 
0.0 -1.962000000000e+01 0.0 
0.0 -1.962000000000e+01 0.0 
0.0 -1.962000000000e+01 0.0 
0.0 -1.962000000000e+01 0.0 
0.0 -1.962000000000e+01 0.0 
0.0 -1.962000000000e+01 0.0 
0.0 -1.962000000000e+01 0.0 
0.0 -1.962000000000e+01 0.0 
0.0 -1.962000000000e+01 0.0 
0.0 -1.962000000000e+01 0.0 
0.0 -1.962000000000e+01 0.0 
0.0 -1.962000000000e+01 0.0 
0.0 -1.962000000000e+01 0.0 
0.0 -1.962000000000e+01 0.0 
0.0 -1.962000000000e+01 0.0 
0.0 -1.962000000000e+01 0.0 
0.0 -1.962000000000e+01 0.0 
0.0 -1.962000000000e+01 0.0 
0.0 -1.962000000000e+01 0.0 
0.0 -1.962000000000e+01 0.0 
0.0 -1.962000000000e+01 0.0 
0.0 -1.962000000000e+01 0.0 
0.0 -1.962000000000e+01 0.0 
0.0 -1.962000000000e+01 0.0 
0.0 -1.962000000000e+01 0.0 
0.0 -1.962000000000e+01 0.0 
0.0 -1.962000000000e+01 0.0 
0.0 -1.962000000000e+01 0.0 
0.0 -1.962000000000e+01 0.0 
0.0 -1.962000000000e+01 0.0 
0.0 -1.962000000000e+01 0.0 
0.0 -1.962000000000e+01 0.0 
0.0 -1.962000000000e+01 0.0 
0.0 -1.962000000000e+01 0.0 
0.0 -1.962000000000e+01 0.0 
0.0 -1.962000000000e+01 0.0 
0.0 -1.962000000000e+01 0.0 
0.0 -1.962000000000e+01 0.0 
0.0 -1.962000000000e+01 0.0 
0.0 -1.962000000000e+01 0.0 
0.0 -1.962000000000e+01 0.0 
0.0 -1.962000000000e+01 0.0 
0.0 -1.962000000000e+01 0.0 
0.0 -1.962000000000e+01 0.0 
0.0 -1.962000000000e+01 0.0 
0.0 -1.962000000000e+01 0.0 
0.0 -1.962000000000e+01 0.0 
0.0 -1.962000000000e+01 0.0 

VECTORS node_rhside_materi_fixed float
-4.847258420482e-01 0.0 0.0 
8.585883544706e+01 0.0 0.0 
-8.436222285376e+01 -2.008394534487e+02 0.0 
8.255815357219e+01 -1.968147084350e+02 0.0 
-4.394853864456e+00 0.0 0.0 
-1.378543833760e+01 0.0 0.0 
-2.367282689627e+01 0.0 0.0 
-3.485964886376e+01 0.0 0.0 
-4.493580203643e+01 0.0 0.0 
-5.488924137557e+01 0.0 0.0 
-6.453152838004e+01 0.0 0.0 
-7.387052620585e+01 0.0 0.0 
-8.287593609121e+01 0.0 0.0 
-9.157261375747e+01 0.0 0.0 
-1.005188639765e+02 0.0 0.0 
-1.091440378009e+02 0.0 0.0 
-1.170409293404e+02 0.0 0.0 
-1.254125798421e+02 0.0 0.0 
-1.334950498313e+02 0.0 0.0 
-1.414152640248e+02 0.0 0.0 
-1.491785533241e+02 0.0 0.0 
-1.567261983086e+02 0.0 0.0 
-1.647253873029e+02 0.0 0.0 
9.455161545333e-02 -3.926002555903e+02 0.0 
6.583832607276e-02 -3.936787343429e+02 0.0 
1.385910877449e+00 -3.929545094636e+02 0.0 
2.391276414162e-01 -3.931197610848e+02 0.0 
1.287254509463e+00 -3.937614372742e+02 0.0 
1.438112569833e+00 -3.932877363092e+02 0.0 
1.451933926698e+00 -3.938393871152e+02 0.0 
1.785024588819e+00 -3.943613450926e+02 0.0 
2.674096738400e+00 -3.939553155844e+02 0.0 
1.786056895143e+00 -3.944026208098e+02 0.0 
2.805192574075e+00 -3.953388331689e+02 0.0 
3.117616503244e+00 -3.950829482897e+02 0.0 
3.207876586465e+00 -3.960443018350e+02 0.0 
3.435952599274e+00 -3.963358093670e+02 0.0 
3.845257586618e+00 -3.968363550030e+02 0.0 
3.844414141504e+00 -3.978821557234e+02 0.0 
4.660445135793e+00 -3.985549712440e+02 0.0 
4.844308585199e+00 -3.994619527649e+02 0.0 
5.065383317316e+00 -4.003258258121e+02 0.0 
5.252351072680e+00 -4.010717848493e+02 0.0 
5.080817634057e+00 -4.022161372406e+02 0.0 
5.422129092867e+00 -4.035548370909e+02 0.0 
5.300104957531e+00 -4.045518439276e+02 0.0 
5.296238311410e+00 -4.056733378296e+02 0.0 
5.147290965609e+00 -4.070620877563e+02 0.0 
4.796612814140e+00 -4.079784134240e+02 0.0 
4.414725126219e+00 -4.089068057359e+02 0.0 
3.846568140894e+00 -4.099495921764e+02 0.0 
3.273405179850e+00 -4.109860617494e+02 0.0 
2.813470653881e+00 -4.113909828160e+02 0.0 
1.625916186230e+00 -4.116582591699e+02 0.0 
9.206628822061e-01 -4.124729482228e+02 0.0 
3.023513159719e-01 -4.120941487153e+02 0.0 
-3.814896871417e-01 -4.120971291185e+02 0.0 
-1.252301229408e+00 -4.116637529721e+02 0.0 
-1.751528365202e+00 -4.109351042093e+02 0.0 
-2.383257383033e+00 -4.104026685970e+02 0.0 
-2.877867721316e+00 -4.094150254938e+02 0.0 
-3.123406789688e+00 -4.084692330352e+02 0.0 
-3.455175868978e+00 -4.078939742298e+02 0.0 
-3.042227870000e+00 -4.065024588001e+02 0.0 
-3.236366209928e+00 -4.055025153754e+02 0.0 
-2.938853220637e+00 -4.043298700023e+02 0.0 
-2.983675919358e+00 -4.042321376387e+02 0.0 
-2.677790940008e+00 -4.026643594649e+02 0.0 
-2.360642405299e+00 -4.028110365988e+02 0.0 
-8.937041018468e-01 -4.014994137441e+02 0.0 
-1.411097848904e+00 -4.014916292741e+02 0.0 
-4.040912857573e-01 -4.010440329832e+02 0.0 
9.399197815281e+01 0.0 0.0 
1.028079631233e+02 0.0 0.0 
1.111420499833e+02 0.0 0.0 
1.193082101816e+02 0.0 0.0 
1.275266250583e+02 0.0 0.0 
1.360240915591e+02 0.0 0.0 
1.440525558374e+02 0.0 0.0 
1.517365783519e+02 0.0 0.0 
1.605610560727e+02 0.0 0.0 
0.0 0.0 0.0 
1.943061979441e+00 0.0 0.0 
0.0 0.0 0.0 
0.0 0.0 0.0 
0.0 0.0 0.0 
0.0 0.0 0.0 
0.0 0.0 0.0 
0.0 0.0 0.0 
0.0 0.0 0.0 
0.0 0.0 0.0 
0.0 0.0 0.0 
0.0 0.0 0.0 
9.413073613057e+00 0.0 0.0 
1.754637603631e+01 0.0 0.0 
2.595758381231e+01 0.0 0.0 
3.448919684336e+01 0.0 0.0 
4.311018534167e+01 0.0 0.0 
5.173420065649e+01 0.0 0.0 
6.033953322537e+01 0.0 0.0 
6.894241168654e+01 0.0 0.0 
7.749498551657e+01 0.0 0.0 
0.0 0.0 0.0 
0.0 0.0 0.0 
0.0 0.0 0.0 
0.0 0.0 0.0 
0.0 0.0 0.0 
0.0 0.0 0.0 
0.0 0.0 0.0 
0.0 0.0 0.0 
0.0 0.0 0.0 
0.0 0.0 0.0 
0.0 0.0 0.0 
0.0 0.0 0.0 
0.0 0.0 0.0 
0.0 0.0 0.0 
0.0 0.0 0.0 
0.0 0.0 0.0 
0.0 0.0 0.0 
0.0 0.0 0.0 
0.0 0.0 0.0 
0.0 0.0 0.0 
0.0 0.0 0.0 
0.0 0.0 0.0 
0.0 0.0 0.0 
0.0 0.0 0.0 
0.0 0.0 0.0 
0.0 0.0 0.0 
0.0 0.0 0.0 
0.0 0.0 0.0 
0.0 0.0 0.0 
0.0 0.0 0.0 
0.0 0.0 0.0 
0.0 0.0 0.0 
0.0 0.0 0.0 
0.0 0.0 0.0 
0.0 0.0 0.0 
0.0 0.0 0.0 
0.0 0.0 0.0 
0.0 0.0 0.0 
0.0 0.0 0.0 
0.0 0.0 0.0 
0.0 0.0 0.0 
0.0 0.0 0.0 
0.0 0.0 0.0 
0.0 0.0 0.0 
0.0 0.0 0.0 
0.0 0.0 0.0 
0.0 0.0 0.0 
0.0 0.0 0.0 
0.0 0.0 0.0 
0.0 0.0 0.0 
0.0 0.0 0.0 
0.0 0.0 0.0 
0.0 0.0 0.0 
0.0 0.0 0.0 
0.0 0.0 0.0 
0.0 0.0 0.0 
0.0 0.0 0.0 
0.0 0.0 0.0 
0.0 0.0 0.0 
0.0 0.0 0.0 
0.0 0.0 0.0 
0.0 0.0 0.0 
0.0 0.0 0.0 
0.0 0.0 0.0 
0.0 0.0 0.0 
0.0 0.0 0.0 
0.0 0.0 0.0 
0.0 0.0 0.0 
0.0 0.0 0.0 
0.0 0.0 0.0 
0.0 0.0 0.0 
0.0 0.0 0.0 
0.0 0.0 0.0 
0.0 0.0 0.0 
0.0 0.0 0.0 
0.0 0.0 0.0 
0.0 0.0 0.0 
0.0 0.0 0.0 
0.0 0.0 0.0 
0.0 0.0 0.0 
0.0 0.0 0.0 
0.0 0.0 0.0 
0.0 0.0 0.0 
0.0 0.0 0.0 
0.0 0.0 0.0 
0.0 0.0 0.0 
0.0 0.0 0.0 
0.0 0.0 0.0 
0.0 0.0 0.0 
0.0 0.0 0.0 
0.0 0.0 0.0 
0.0 0.0 0.0 
0.0 0.0 0.0 
0.0 0.0 0.0 
0.0 0.0 0.0 
0.0 0.0 0.0 
0.0 0.0 0.0 
0.0 0.0 0.0 
0.0 0.0 0.0 
0.0 0.0 0.0 
0.0 0.0 0.0 
0.0 0.0 0.0 
0.0 0.0 0.0 
0.0 0.0 0.0 
0.0 0.0 0.0 
0.0 0.0 0.0 
0.0 0.0 0.0 
0.0 0.0 0.0 
0.0 0.0 0.0 
0.0 0.0 0.0 
0.0 0.0 0.0 
0.0 0.0 0.0 
0.0 0.0 0.0 
0.0 0.0 0.0 
0.0 0.0 0.0 
0.0 0.0 0.0 
0.0 0.0 0.0 
0.0 0.0 0.0 
0.0 0.0 0.0 
0.0 0.0 0.0 
0.0 0.0 0.0 
0.0 0.0 0.0 
0.0 0.0 0.0 
0.0 0.0 0.0 
0.0 0.0 0.0 
0.0 0.0 0.0 
0.0 0.0 0.0 
0.0 0.0 0.0 
0.0 0.0 0.0 
0.0 0.0 0.0 
0.0 0.0 0.0 
0.0 0.0 0.0 
0.0 0.0 0.0 
0.0 0.0 0.0 
0.0 0.0 0.0 
0.0 0.0 0.0 
0.0 0.0 0.0 
0.0 0.0 0.0 
0.0 0.0 0.0 
0.0 0.0 0.0 
0.0 0.0 0.0 
0.0 0.0 0.0 
0.0 0.0 0.0 
0.0 0.0 0.0 
0.0 0.0 0.0 
0.0 0.0 0.0 
0.0 0.0 0.0 
0.0 0.0 0.0 
0.0 0.0 0.0 
0.0 0.0 0.0 
0.0 0.0 0.0 
0.0 0.0 0.0 
0.0 0.0 0.0 
0.0 0.0 0.0 
0.0 0.0 0.0 
0.0 0.0 0.0 
0.0 0.0 0.0 
0.0 0.0 0.0 
0.0 0.0 0.0 
0.0 0.0 0.0 
0.0 0.0 0.0 
0.0 0.0 0.0 
0.0 0.0 0.0 
0.0 0.0 0.0 
0.0 0.0 0.0 
0.0 0.0 0.0 
0.0 0.0 0.0 
0.0 0.0 0.0 
0.0 0.0 0.0 
0.0 0.0 0.0 
0.0 0.0 0.0 
0.0 0.0 0.0 
0.0 0.0 0.0 
0.0 0.0 0.0 
0.0 0.0 0.0 
0.0 0.0 0.0 
0.0 0.0 0.0 
0.0 0.0 0.0 
0.0 0.0 0.0 
0.0 0.0 0.0 
0.0 0.0 0.0 
0.0 0.0 0.0 
0.0 0.0 0.0 
0.0 0.0 0.0 
0.0 0.0 0.0 
0.0 0.0 0.0 
0.0 0.0 0.0 
0.0 0.0 0.0 
0.0 0.0 0.0 
0.0 0.0 0.0 
0.0 0.0 0.0 
0.0 0.0 0.0 
0.0 0.0 0.0 
0.0 0.0 0.0 
0.0 0.0 0.0 
0.0 0.0 0.0 
0.0 0.0 0.0 
0.0 0.0 0.0 
0.0 0.0 0.0 
0.0 0.0 0.0 
0.0 0.0 0.0 
0.0 0.0 0.0 
0.0 0.0 0.0 
0.0 0.0 0.0 
0.0 0.0 0.0 
0.0 0.0 0.0 
0.0 0.0 0.0 
0.0 0.0 0.0 
0.0 0.0 0.0 
0.0 0.0 0.0 
0.0 0.0 0.0 
0.0 0.0 0.0 
0.0 0.0 0.0 
0.0 0.0 0.0 
0.0 0.0 0.0 
0.0 0.0 0.0 
0.0 0.0 0.0 
0.0 0.0 0.0 
0.0 0.0 0.0 
0.0 0.0 0.0 
0.0 0.0 0.0 
0.0 0.0 0.0 
0.0 0.0 0.0 
0.0 0.0 0.0 
0.0 0.0 0.0 
0.0 0.0 0.0 
0.0 0.0 0.0 
0.0 0.0 0.0 
0.0 0.0 0.0 
0.0 0.0 0.0 
0.0 0.0 0.0 
0.0 0.0 0.0 
0.0 0.0 0.0 
0.0 0.0 0.0 
0.0 0.0 0.0 
0.0 0.0 0.0 
0.0 0.0 0.0 
0.0 0.0 0.0 
0.0 0.0 0.0 
0.0 0.0 0.0 
0.0 0.0 0.0 
0.0 0.0 0.0 
0.0 0.0 0.0 
0.0 0.0 0.0 
0.0 0.0 0.0 
0.0 0.0 0.0 
0.0 0.0 0.0 
0.0 0.0 0.0 
0.0 0.0 0.0 
0.0 0.0 0.0 
0.0 0.0 0.0 
0.0 0.0 0.0 
0.0 0.0 0.0 
0.0 0.0 0.0 
0.0 0.0 0.0 
0.0 0.0 0.0 
0.0 0.0 0.0 
0.0 0.0 0.0 
0.0 0.0 0.0 
0.0 0.0 0.0 
0.0 0.0 0.0 
0.0 0.0 0.0 
0.0 0.0 0.0 
0.0 0.0 0.0 
0.0 0.0 0.0 
0.0 0.0 0.0 
0.0 0.0 0.0 
0.0 0.0 0.0 
0.0 0.0 0.0 
0.0 0.0 0.0 
0.0 0.0 0.0 
0.0 0.0 0.0 
0.0 0.0 0.0 
0.0 0.0 0.0 
0.0 0.0 0.0 
0.0 0.0 0.0 
0.0 0.0 0.0 
0.0 0.0 0.0 
0.0 0.0 0.0 
0.0 0.0 0.0 
0.0 0.0 0.0 
0.0 0.0 0.0 
0.0 0.0 0.0 
0.0 0.0 0.0 
0.0 0.0 0.0 
0.0 0.0 0.0 
0.0 0.0 0.0 
0.0 0.0 0.0 
0.0 0.0 0.0 
0.0 0.0 0.0 
0.0 0.0 0.0 
0.0 0.0 0.0 
0.0 0.0 0.0 
0.0 0.0 0.0 
0.0 0.0 0.0 
0.0 0.0 0.0 
0.0 0.0 0.0 
0.0 0.0 0.0 
0.0 0.0 0.0 
0.0 0.0 0.0 
0.0 0.0 0.0 
0.0 0.0 0.0 
0.0 0.0 0.0 
0.0 0.0 0.0 
0.0 0.0 0.0 
0.0 0.0 0.0 
0.0 0.0 0.0 
0.0 0.0 0.0 
0.0 0.0 0.0 
0.0 0.0 0.0 
0.0 0.0 0.0 
0.0 0.0 0.0 
0.0 0.0 0.0 
0.0 0.0 0.0 
0.0 0.0 0.0 
0.0 0.0 0.0 
0.0 0.0 0.0 
0.0 0.0 0.0 
0.0 0.0 0.0 
0.0 0.0 0.0 
0.0 0.0 0.0 
0.0 0.0 0.0 
0.0 0.0 0.0 
0.0 0.0 0.0 
0.0 0.0 0.0 
0.0 0.0 0.0 
0.0 0.0 0.0 
0.0 0.0 0.0 
0.0 0.0 0.0 
0.0 0.0 0.0 
0.0 0.0 0.0 
0.0 0.0 0.0 
0.0 0.0 0.0 
0.0 0.0 0.0 
0.0 0.0 0.0 
0.0 0.0 0.0 
0.0 0.0 0.0 
0.0 0.0 0.0 
0.0 0.0 0.0 
0.0 0.0 0.0 
0.0 0.0 0.0 
0.0 0.0 0.0 
0.0 0.0 0.0 
0.0 0.0 0.0 
0.0 0.0 0.0 
0.0 0.0 0.0 
0.0 0.0 0.0 
0.0 0.0 0.0 
0.0 0.0 0.0 
0.0 0.0 0.0 
0.0 0.0 0.0 
0.0 0.0 0.0 
0.0 0.0 0.0 
0.0 0.0 0.0 
0.0 0.0 0.0 
0.0 0.0 0.0 
0.0 0.0 0.0 
0.0 0.0 0.0 
0.0 0.0 0.0 
0.0 0.0 0.0 
0.0 0.0 0.0 
0.0 0.0 0.0 
0.0 0.0 0.0 
0.0 0.0 0.0 
0.0 0.0 0.0 
0.0 0.0 0.0 
0.0 0.0 0.0 
0.0 0.0 0.0 
0.0 0.0 0.0 
0.0 0.0 0.0 
0.0 0.0 0.0 
0.0 0.0 0.0 
0.0 0.0 0.0 
0.0 0.0 0.0 
0.0 0.0 0.0 
0.0 0.0 0.0 
0.0 0.0 0.0 
0.0 0.0 0.0 
0.0 0.0 0.0 
0.0 0.0 0.0 
0.0 0.0 0.0 
0.0 0.0 0.0 
0.0 0.0 0.0 
0.0 0.0 0.0 
0.0 0.0 0.0 
0.0 0.0 0.0 
0.0 0.0 0.0 
0.0 0.0 0.0 
0.0 0.0 0.0 
0.0 0.0 0.0 
0.0 0.0 0.0 
0.0 0.0 0.0 
0.0 0.0 0.0 
0.0 0.0 0.0 
0.0 0.0 0.0 
0.0 0.0 0.0 
0.0 0.0 0.0 
0.0 0.0 0.0 
0.0 0.0 0.0 
0.0 0.0 0.0 
0.0 0.0 0.0 
0.0 0.0 0.0 
0.0 0.0 0.0 
0.0 0.0 0.0 
0.0 0.0 0.0 
0.0 0.0 0.0 
0.0 0.0 0.0 
0.0 0.0 0.0 
0.0 0.0 0.0 
0.0 0.0 0.0 
0.0 0.0 0.0 
0.0 0.0 0.0 
0.0 0.0 0.0 
0.0 0.0 0.0 
0.0 0.0 0.0 
0.0 0.0 0.0 
0.0 0.0 0.0 
0.0 0.0 0.0 
0.0 0.0 0.0 
0.0 0.0 0.0 
0.0 0.0 0.0 
0.0 0.0 0.0 
0.0 0.0 0.0 
0.0 0.0 0.0 
0.0 0.0 0.0 
0.0 0.0 0.0 
0.0 0.0 0.0 
0.0 0.0 0.0 
0.0 0.0 0.0 
0.0 0.0 0.0 
0.0 0.0 0.0 
0.0 0.0 0.0 
0.0 0.0 0.0 
0.0 0.0 0.0 
0.0 0.0 0.0 
0.0 0.0 0.0 
0.0 0.0 0.0 
0.0 0.0 0.0 
0.0 0.0 0.0 
0.0 0.0 0.0 
0.0 0.0 0.0 
0.0 0.0 0.0 
0.0 0.0 0.0 
0.0 0.0 0.0 
0.0 0.0 0.0 
0.0 0.0 0.0 
0.0 0.0 0.0 
0.0 0.0 0.0 
0.0 0.0 0.0 
0.0 0.0 0.0 
0.0 0.0 0.0 
0.0 0.0 0.0 
0.0 0.0 0.0 
0.0 0.0 0.0 
0.0 0.0 0.0 
0.0 0.0 0.0 
0.0 0.0 0.0 
0.0 0.0 0.0 
0.0 0.0 0.0 
0.0 0.0 0.0 
0.0 0.0 0.0 
0.0 0.0 0.0 
0.0 0.0 0.0 
0.0 0.0 0.0 
0.0 0.0 0.0 
0.0 0.0 0.0 
0.0 0.0 0.0 
0.0 0.0 0.0 
0.0 0.0 0.0 
0.0 0.0 0.0 
0.0 0.0 0.0 
0.0 0.0 0.0 
0.0 0.0 0.0 
0.0 0.0 0.0 
0.0 0.0 0.0 
0.0 0.0 0.0 
0.0 0.0 0.0 
0.0 0.0 0.0 
0.0 0.0 0.0 
0.0 0.0 0.0 
0.0 0.0 0.0 
0.0 0.0 0.0 
0.0 0.0 0.0 
0.0 0.0 0.0 
0.0 0.0 0.0 
0.0 0.0 0.0 
0.0 0.0 0.0 
0.0 0.0 0.0 
0.0 0.0 0.0 
0.0 0.0 0.0 
0.0 0.0 0.0 
0.0 0.0 0.0 
0.0 0.0 0.0 
0.0 0.0 0.0 
0.0 0.0 0.0 
0.0 0.0 0.0 
0.0 0.0 0.0 
0.0 0.0 0.0 
0.0 0.0 0.0 
0.0 0.0 0.0 
0.0 0.0 0.0 
0.0 0.0 0.0 
0.0 0.0 0.0 
0.0 0.0 0.0 
0.0 0.0 0.0 
0.0 0.0 0.0 
0.0 0.0 0.0 
0.0 0.0 0.0 
0.0 0.0 0.0 
0.0 0.0 0.0 
0.0 0.0 0.0 
0.0 0.0 0.0 
0.0 0.0 0.0 
0.0 0.0 0.0 
0.0 0.0 0.0 
0.0 0.0 0.0 
0.0 0.0 0.0 
0.0 0.0 0.0 
0.0 0.0 0.0 
0.0 0.0 0.0 
0.0 0.0 0.0 
0.0 0.0 0.0 
0.0 0.0 0.0 
0.0 0.0 0.0 
0.0 0.0 0.0 
0.0 0.0 0.0 
0.0 0.0 0.0 
0.0 0.0 0.0 
0.0 0.0 0.0 
0.0 0.0 0.0 
0.0 0.0 0.0 
0.0 0.0 0.0 
0.0 0.0 0.0 
0.0 0.0 0.0 
0.0 0.0 0.0 
0.0 0.0 0.0 
0.0 0.0 0.0 
0.0 0.0 0.0 
0.0 0.0 0.0 
0.0 0.0 0.0 
0.0 0.0 0.0 
0.0 0.0 0.0 
0.0 0.0 0.0 
0.0 0.0 0.0 
0.0 0.0 0.0 
0.0 0.0 0.0 
0.0 0.0 0.0 
0.0 0.0 0.0 
0.0 0.0 0.0 
0.0 0.0 0.0 
0.0 0.0 0.0 
0.0 0.0 0.0 
0.0 0.0 0.0 
0.0 0.0 0.0 
0.0 0.0 0.0 
0.0 0.0 0.0 
0.0 0.0 0.0 
0.0 0.0 0.0 
0.0 0.0 0.0 
0.0 0.0 0.0 
0.0 0.0 0.0 
0.0 0.0 0.0 
0.0 0.0 0.0 
0.0 0.0 0.0 
0.0 0.0 0.0 
0.0 0.0 0.0 
0.0 0.0 0.0 
0.0 0.0 0.0 
0.0 0.0 0.0 
0.0 0.0 0.0 
0.0 0.0 0.0 
0.0 0.0 0.0 
0.0 0.0 0.0 
0.0 0.0 0.0 
0.0 0.0 0.0 
0.0 0.0 0.0 
0.0 0.0 0.0 
0.0 0.0 0.0 
0.0 0.0 0.0 
0.0 0.0 0.0 
0.0 0.0 0.0 
0.0 0.0 0.0 
0.0 0.0 0.0 
0.0 0.0 0.0 
0.0 0.0 0.0 
0.0 0.0 0.0 
0.0 0.0 0.0 
0.0 0.0 0.0 
0.0 0.0 0.0 
0.0 0.0 0.0 
0.0 0.0 0.0 
0.0 0.0 0.0 
0.0 0.0 0.0 
0.0 0.0 0.0 
0.0 0.0 0.0 
0.0 0.0 0.0 
0.0 0.0 0.0 
0.0 0.0 0.0 
0.0 0.0 0.0 
0.0 0.0 0.0 
0.0 0.0 0.0 
0.0 0.0 0.0 
0.0 0.0 0.0 
0.0 0.0 0.0 
0.0 0.0 0.0 
0.0 0.0 0.0 
0.0 0.0 0.0 
0.0 0.0 0.0 
0.0 0.0 0.0 
0.0 0.0 0.0 
0.0 0.0 0.0 
0.0 0.0 0.0 
0.0 0.0 0.0 
0.0 0.0 0.0 
0.0 0.0 0.0 
0.0 0.0 0.0 
0.0 0.0 0.0 
0.0 0.0 0.0 
0.0 0.0 0.0 
0.0 0.0 0.0 
0.0 0.0 0.0 
0.0 0.0 0.0 
0.0 0.0 0.0 
0.0 0.0 0.0 
0.0 0.0 0.0 
0.0 0.0 0.0 
0.0 0.0 0.0 
0.0 0.0 0.0 
0.0 0.0 0.0 
0.0 0.0 0.0 
0.0 0.0 0.0 
0.0 0.0 0.0 
0.0 0.0 0.0 
0.0 0.0 0.0 
0.0 0.0 0.0 
0.0 0.0 0.0 
0.0 0.0 0.0 
0.0 0.0 0.0 
0.0 0.0 0.0 
0.0 0.0 0.0 
0.0 0.0 0.0 
0.0 0.0 0.0 
0.0 0.0 0.0 
0.0 0.0 0.0 
0.0 0.0 0.0 
0.0 0.0 0.0 
0.0 0.0 0.0 
0.0 0.0 0.0 
0.0 0.0 0.0 
0.0 0.0 0.0 
0.0 0.0 0.0 
0.0 0.0 0.0 
0.0 0.0 0.0 
0.0 0.0 0.0 
0.0 0.0 0.0 
0.0 0.0 0.0 
0.0 0.0 0.0 
0.0 0.0 0.0 
0.0 0.0 0.0 
0.0 0.0 0.0 
0.0 0.0 0.0 
0.0 0.0 0.0 
0.0 0.0 0.0 
0.0 0.0 0.0 
0.0 0.0 0.0 
0.0 0.0 0.0 
0.0 0.0 0.0 
0.0 0.0 0.0 
0.0 0.0 0.0 
0.0 0.0 0.0 
0.0 0.0 0.0 
0.0 0.0 0.0 
0.0 0.0 0.0 
0.0 0.0 0.0 
0.0 0.0 0.0 
0.0 0.0 0.0 
0.0 0.0 0.0 
0.0 0.0 0.0 
0.0 0.0 0.0 
0.0 0.0 0.0 
0.0 0.0 0.0 
0.0 0.0 0.0 
0.0 0.0 0.0 
0.0 0.0 0.0 
0.0 0.0 0.0 
0.0 0.0 0.0 
0.0 0.0 0.0 
0.0 0.0 0.0 
0.0 0.0 0.0 
0.0 0.0 0.0 
0.0 0.0 0.0 
0.0 0.0 0.0 
0.0 0.0 0.0 
0.0 0.0 0.0 
0.0 0.0 0.0 
0.0 0.0 0.0 
0.0 0.0 0.0 
0.0 0.0 0.0 
0.0 0.0 0.0 
0.0 0.0 0.0 
0.0 0.0 0.0 
0.0 0.0 0.0 
0.0 0.0 0.0 
0.0 0.0 0.0 
0.0 0.0 0.0 
0.0 0.0 0.0 
0.0 0.0 0.0 
0.0 0.0 0.0 
0.0 0.0 0.0 
0.0 0.0 0.0 
0.0 0.0 0.0 
0.0 0.0 0.0 
0.0 0.0 0.0 
0.0 0.0 0.0 
0.0 0.0 0.0 
0.0 0.0 0.0 
0.0 0.0 0.0 
0.0 0.0 0.0 
0.0 0.0 0.0 
0.0 0.0 0.0 
0.0 0.0 0.0 
0.0 0.0 0.0 
0.0 0.0 0.0 
0.0 0.0 0.0 
0.0 0.0 0.0 
0.0 0.0 0.0 
0.0 0.0 0.0 
0.0 0.0 0.0 
0.0 0.0 0.0 
0.0 0.0 0.0 
0.0 0.0 0.0 
0.0 0.0 0.0 
0.0 0.0 0.0 
0.0 0.0 0.0 
0.0 0.0 0.0 
0.0 0.0 0.0 
0.0 0.0 0.0 
0.0 0.0 0.0 
0.0 0.0 0.0 
0.0 0.0 0.0 
0.0 0.0 0.0 
0.0 0.0 0.0 
0.0 0.0 0.0 
0.0 0.0 0.0 
0.0 0.0 0.0 
0.0 0.0 0.0 
0.0 0.0 0.0 
0.0 0.0 0.0 
0.0 0.0 0.0 
0.0 0.0 0.0 
0.0 0.0 0.0 
0.0 0.0 0.0 
0.0 0.0 0.0 
0.0 0.0 0.0 
0.0 0.0 0.0 
0.0 0.0 0.0 
0.0 0.0 0.0 
0.0 0.0 0.0 
0.0 0.0 0.0 
0.0 0.0 0.0 
0.0 0.0 0.0 
0.0 0.0 0.0 
0.0 0.0 0.0 
0.0 0.0 0.0 
0.0 0.0 0.0 
0.0 0.0 0.0 
0.0 0.0 0.0 
0.0 0.0 0.0 
0.0 0.0 0.0 
0.0 0.0 0.0 
0.0 0.0 0.0 
0.0 0.0 0.0 
0.0 0.0 0.0 
0.0 0.0 0.0 
0.0 0.0 0.0 
0.0 0.0 0.0 
0.0 0.0 0.0 
0.0 0.0 0.0 
0.0 0.0 0.0 
0.0 0.0 0.0 
0.0 0.0 0.0 
0.0 0.0 0.0 
0.0 0.0 0.0 
0.0 0.0 0.0 
0.0 0.0 0.0 
0.0 0.0 0.0 
0.0 0.0 0.0 
0.0 0.0 0.0 
0.0 0.0 0.0 
0.0 0.0 0.0 
0.0 0.0 0.0 
0.0 0.0 0.0 
0.0 0.0 0.0 
0.0 0.0 0.0 
0.0 0.0 0.0 
0.0 0.0 0.0 
0.0 0.0 0.0 
0.0 0.0 0.0 
0.0 0.0 0.0 
0.0 0.0 0.0 
0.0 0.0 0.0 
0.0 0.0 0.0 
0.0 0.0 0.0 
0.0 0.0 0.0 
0.0 0.0 0.0 
0.0 0.0 0.0 
0.0 0.0 0.0 
0.0 0.0 0.0 
0.0 0.0 0.0 
0.0 0.0 0.0 
0.0 0.0 0.0 
0.0 0.0 0.0 
0.0 0.0 0.0 
0.0 0.0 0.0 
0.0 0.0 0.0 
0.0 0.0 0.0 
0.0 0.0 0.0 
0.0 0.0 0.0 
0.0 0.0 0.0 
0.0 0.0 0.0 
0.0 0.0 0.0 
0.0 0.0 0.0 
0.0 0.0 0.0 
0.0 0.0 0.0 
0.0 0.0 0.0 
0.0 0.0 0.0 
0.0 0.0 0.0 
0.0 0.0 0.0 
0.0 0.0 0.0 
0.0 0.0 0.0 
0.0 0.0 0.0 
0.0 0.0 0.0 
0.0 0.0 0.0 
0.0 0.0 0.0 
0.0 0.0 0.0 
0.0 0.0 0.0 
0.0 0.0 0.0 
0.0 0.0 0.0 
0.0 0.0 0.0 
0.0 0.0 0.0 
0.0 0.0 0.0 
0.0 0.0 0.0 
0.0 0.0 0.0 
0.0 0.0 0.0 
0.0 0.0 0.0 
0.0 0.0 0.0 
0.0 0.0 0.0 
0.0 0.0 0.0 
0.0 0.0 0.0 
0.0 0.0 0.0 
0.0 0.0 0.0 
0.0 0.0 0.0 
0.0 0.0 0.0 
0.0 0.0 0.0 
0.0 0.0 0.0 
0.0 0.0 0.0 
0.0 0.0 0.0 
0.0 0.0 0.0 
0.0 0.0 0.0 
0.0 0.0 0.0 
0.0 0.0 0.0 
0.0 0.0 0.0 
0.0 0.0 0.0 
0.0 0.0 0.0 
0.0 0.0 0.0 
0.0 0.0 0.0 
0.0 0.0 0.0 
0.0 0.0 0.0 
0.0 0.0 0.0 
0.0 0.0 0.0 
0.0 0.0 0.0 
0.0 0.0 0.0 
0.0 0.0 0.0 
0.0 0.0 0.0 
0.0 0.0 0.0 
0.0 0.0 0.0 
0.0 0.0 0.0 
0.0 0.0 0.0 
0.0 0.0 0.0 
0.0 0.0 0.0 
0.0 0.0 0.0 
0.0 0.0 0.0 
0.0 0.0 0.0 
0.0 0.0 0.0 
0.0 0.0 0.0 
0.0 0.0 0.0 
0.0 0.0 0.0 
0.0 0.0 0.0 
0.0 0.0 0.0 
0.0 0.0 0.0 
0.0 0.0 0.0 
0.0 0.0 0.0 
0.0 0.0 0.0 
0.0 0.0 0.0 
0.0 0.0 0.0 
0.0 0.0 0.0 
0.0 0.0 0.0 
0.0 0.0 0.0 
0.0 0.0 0.0 
0.0 0.0 0.0 
0.0 0.0 0.0 
0.0 0.0 0.0 
0.0 0.0 0.0 
0.0 0.0 0.0 
0.0 0.0 0.0 
0.0 0.0 0.0 
0.0 0.0 0.0 
0.0 0.0 0.0 
0.0 0.0 0.0 
0.0 0.0 0.0 
0.0 0.0 0.0 
0.0 0.0 0.0 
0.0 0.0 0.0 
0.0 0.0 0.0 
0.0 0.0 0.0 
0.0 0.0 0.0 
0.0 0.0 0.0 
0.0 0.0 0.0 
0.0 0.0 0.0 
0.0 0.0 0.0 
0.0 0.0 0.0 
0.0 0.0 0.0 
0.0 0.0 0.0 
0.0 0.0 0.0 
0.0 0.0 0.0 
0.0 0.0 0.0 
0.0 0.0 0.0 
0.0 0.0 0.0 
0.0 0.0 0.0 
0.0 0.0 0.0 
0.0 0.0 0.0 
0.0 0.0 0.0 
0.0 0.0 0.0 
0.0 0.0 0.0 
0.0 0.0 0.0 
0.0 0.0 0.0 
0.0 0.0 0.0 
0.0 0.0 0.0 
0.0 0.0 0.0 
0.0 0.0 0.0 
0.0 0.0 0.0 
0.0 0.0 0.0 
0.0 0.0 0.0 
0.0 0.0 0.0 
0.0 0.0 0.0 
0.0 0.0 0.0 
0.0 0.0 0.0 
0.0 0.0 0.0 
0.0 0.0 0.0 
0.0 0.0 0.0 
0.0 0.0 0.0 
0.0 0.0 0.0 
0.0 0.0 0.0 
0.0 0.0 0.0 
0.0 0.0 0.0 
0.0 0.0 0.0 
0.0 0.0 0.0 
0.0 0.0 0.0 
0.0 0.0 0.0 
0.0 0.0 0.0 
0.0 0.0 0.0 
0.0 0.0 0.0 
0.0 0.0 0.0 
0.0 0.0 0.0 
0.0 0.0 0.0 
0.0 0.0 0.0 
0.0 0.0 0.0 
0.0 0.0 0.0 
0.0 0.0 0.0 
0.0 0.0 0.0 
0.0 0.0 0.0 
0.0 0.0 0.0 
0.0 0.0 0.0 
0.0 0.0 0.0 
0.0 0.0 0.0 
0.0 0.0 0.0 
0.0 0.0 0.0 
0.0 0.0 0.0 
0.0 0.0 0.0 
0.0 0.0 0.0 
0.0 0.0 0.0 
0.0 0.0 0.0 
0.0 0.0 0.0 
0.0 0.0 0.0 
0.0 0.0 0.0 
0.0 0.0 0.0 
0.0 0.0 0.0 
0.0 0.0 0.0 
0.0 0.0 0.0 
0.0 0.0 0.0 
0.0 0.0 0.0 
0.0 0.0 0.0 
0.0 0.0 0.0 
0.0 0.0 0.0 
0.0 0.0 0.0 
0.0 0.0 0.0 
0.0 0.0 0.0 
0.0 0.0 0.0 
0.0 0.0 0.0 
0.0 0.0 0.0 
0.0 0.0 0.0 
0.0 0.0 0.0 
0.0 0.0 0.0 
0.0 0.0 0.0 
0.0 0.0 0.0 
0.0 0.0 0.0 
0.0 0.0 0.0 
0.0 0.0 0.0 
0.0 0.0 0.0 
0.0 0.0 0.0 
0.0 0.0 0.0 
0.0 0.0 0.0 
0.0 0.0 0.0 
0.0 0.0 0.0 
0.0 0.0 0.0 
0.0 0.0 0.0 
0.0 0.0 0.0 
0.0 0.0 0.0 
0.0 0.0 0.0 
0.0 0.0 0.0 
0.0 0.0 0.0 
0.0 0.0 0.0 
0.0 0.0 0.0 
0.0 0.0 0.0 
0.0 0.0 0.0 
0.0 0.0 0.0 
0.0 0.0 0.0 
0.0 0.0 0.0 
0.0 0.0 0.0 
0.0 0.0 0.0 
0.0 0.0 0.0 
0.0 0.0 0.0 
0.0 0.0 0.0 
0.0 0.0 0.0 
0.0 0.0 0.0 
0.0 0.0 0.0 
0.0 0.0 0.0 
0.0 0.0 0.0 
0.0 0.0 0.0 
0.0 0.0 0.0 
0.0 0.0 0.0 
0.0 0.0 0.0 
0.0 0.0 0.0 
0.0 0.0 0.0 
0.0 0.0 0.0 
0.0 0.0 0.0 
0.0 0.0 0.0 
0.0 0.0 0.0 
0.0 0.0 0.0 
0.0 0.0 0.0 
0.0 0.0 0.0 
0.0 0.0 0.0 
0.0 0.0 0.0 
0.0 0.0 0.0 
0.0 0.0 0.0 
0.0 0.0 0.0 
0.0 0.0 0.0 
0.0 0.0 0.0 
0.0 0.0 0.0 
0.0 0.0 0.0 
0.0 0.0 0.0 
0.0 0.0 0.0 
0.0 0.0 0.0 
0.0 0.0 0.0 
0.0 0.0 0.0 
0.0 0.0 0.0 
0.0 0.0 0.0 
0.0 0.0 0.0 
0.0 0.0 0.0 
0.0 0.0 0.0 
0.0 0.0 0.0 
0.0 0.0 0.0 
0.0 0.0 0.0 
0.0 0.0 0.0 
0.0 0.0 0.0 
0.0 0.0 0.0 
0.0 0.0 0.0 
0.0 0.0 0.0 
0.0 0.0 0.0 
0.0 0.0 0.0 
0.0 0.0 0.0 
0.0 0.0 0.0 
0.0 0.0 0.0 
0.0 0.0 0.0 
0.0 0.0 0.0 
0.0 0.0 0.0 
0.0 0.0 0.0 
0.0 0.0 0.0 
0.0 0.0 0.0 
0.0 0.0 0.0 
0.0 0.0 0.0 
0.0 0.0 0.0 
0.0 0.0 0.0 
0.0 0.0 0.0 
0.0 0.0 0.0 
0.0 0.0 0.0 
0.0 0.0 0.0 
0.0 0.0 0.0 
0.0 0.0 0.0 
0.0 0.0 0.0 
0.0 0.0 0.0 
0.0 0.0 0.0 
0.0 0.0 0.0 
0.0 0.0 0.0 
0.0 0.0 0.0 
0.0 0.0 0.0 
0.0 0.0 0.0 
0.0 0.0 0.0 
0.0 0.0 0.0 
0.0 0.0 0.0 
0.0 0.0 0.0 
0.0 0.0 0.0 
0.0 0.0 0.0 
0.0 0.0 0.0 
0.0 0.0 0.0 
0.0 0.0 0.0 
0.0 0.0 0.0 
0.0 0.0 0.0 
0.0 0.0 0.0 
0.0 0.0 0.0 
0.0 0.0 0.0 
0.0 0.0 0.0 
0.0 0.0 0.0 
0.0 0.0 0.0 
0.0 0.0 0.0 
0.0 0.0 0.0 
0.0 0.0 0.0 
0.0 0.0 0.0 
0.0 0.0 0.0 
0.0 0.0 0.0 
0.0 0.0 0.0 
0.0 0.0 0.0 
0.0 0.0 0.0 
0.0 0.0 0.0 
0.0 0.0 0.0 
0.0 0.0 0.0 
0.0 0.0 0.0 
0.0 0.0 0.0 
0.0 0.0 0.0 
0.0 0.0 0.0 
0.0 0.0 0.0 
0.0 0.0 0.0 
0.0 0.0 0.0 
0.0 0.0 0.0 
0.0 0.0 0.0 
0.0 0.0 0.0 
0.0 0.0 0.0 
0.0 0.0 0.0 
0.0 0.0 0.0 
0.0 0.0 0.0 
0.0 0.0 0.0 
0.0 0.0 0.0 
0.0 0.0 0.0 
0.0 0.0 0.0 
0.0 0.0 0.0 
0.0 0.0 0.0 
0.0 0.0 0.0 
0.0 0.0 0.0 
0.0 0.0 0.0 
0.0 0.0 0.0 
0.0 0.0 0.0 
0.0 0.0 0.0 
0.0 0.0 0.0 
0.0 0.0 0.0 
0.0 0.0 0.0 
0.0 0.0 0.0 
0.0 0.0 0.0 
0.0 0.0 0.0 
0.0 0.0 0.0 
0.0 0.0 0.0 
0.0 0.0 0.0 
0.0 0.0 0.0 
0.0 0.0 0.0 
0.0 0.0 0.0 
0.0 0.0 0.0 
0.0 0.0 0.0 
0.0 0.0 0.0 
0.0 0.0 0.0 
0.0 0.0 0.0 
0.0 0.0 0.0 
0.0 0.0 0.0 

VECTORS node_materi_velocity float
0.0 -1.960655264337e-01 0.0 
0.0 -1.451945359702e-01 0.0 
0.0 0.0 0.0 
0.0 0.0 0.0 
0.0 -1.954024343170e-01 0.0 
0.0 -1.938297876793e-01 0.0 
0.0 -1.913554201488e-01 0.0 
0.0 -1.879704793718e-01 0.0 
0.0 -1.836328923026e-01 0.0 
0.0 -1.783505654601e-01 0.0 
0.0 -1.721137437029e-01 0.0 
0.0 -1.649019434349e-01 0.0 
0.0 -1.567098807813e-01 0.0 
0.0 -1.475230692615e-01 0.0 
0.0 -1.373190726225e-01 0.0 
0.0 -1.260978028423e-01 0.0 
0.0 -1.138714726207e-01 0.0 
0.0 -1.006855682970e-01 0.0 
0.0 -8.645813348751e-02 0.0 
0.0 -7.121121161679e-02 0.0 
0.0 -5.495054376715e-02 0.0 
0.0 -3.765691553033e-02 0.0 
0.0 -1.932336987710e-02 0.0 
0.0 0.0 0.0 
0.0 0.0 0.0 
0.0 0.0 0.0 
0.0 0.0 0.0 
0.0 0.0 0.0 
0.0 0.0 0.0 
0.0 0.0 0.0 
0.0 0.0 0.0 
0.0 0.0 0.0 
0.0 0.0 0.0 
0.0 0.0 0.0 
0.0 0.0 0.0 
0.0 0.0 0.0 
0.0 0.0 0.0 
0.0 0.0 0.0 
0.0 0.0 0.0 
0.0 0.0 0.0 
0.0 0.0 0.0 
0.0 0.0 0.0 
0.0 0.0 0.0 
0.0 0.0 0.0 
0.0 0.0 0.0 
0.0 0.0 0.0 
0.0 0.0 0.0 
0.0 0.0 0.0 
0.0 0.0 0.0 
0.0 0.0 0.0 
0.0 0.0 0.0 
0.0 0.0 0.0 
0.0 0.0 0.0 
0.0 0.0 0.0 
0.0 0.0 0.0 
0.0 0.0 0.0 
0.0 0.0 0.0 
0.0 0.0 0.0 
0.0 0.0 0.0 
0.0 0.0 0.0 
0.0 0.0 0.0 
0.0 0.0 0.0 
0.0 0.0 0.0 
0.0 0.0 0.0 
0.0 0.0 0.0 
0.0 0.0 0.0 
0.0 0.0 0.0 
0.0 0.0 0.0 
0.0 0.0 0.0 
0.0 0.0 0.0 
0.0 0.0 0.0 
0.0 0.0 0.0 
0.0 -1.350791818136e-01 0.0 
0.0 -1.239967216903e-01 0.0 
0.0 -1.119280631727e-01 0.0 
0.0 -9.889901317002e-02 0.0 
0.0 -8.487584856407e-02 0.0 
0.0 -6.987721589803e-02 0.0 
0.0 -5.389232607866e-02 0.0 
0.0 -3.691663009775e-02 0.0 
0.0 -1.895095769956e-02 0.0 
-5.104681823770e-03 -2.301949394657e-01 0.0 
0.0 -1.932505751276e-01 0.0 
2.801506844879e-03 -1.465739693716e-01 0.0 
-8.209989617099e-04 -2.166961420656e-01 0.0 
1.107289507916e-03 -2.086472124611e-01 0.0 
2.125782022324e-03 -2.018008061177e-01 0.0 
2.723563034027e-03 -1.952596839626e-01 0.0 
3.087591678396e-03 -1.884901866583e-01 0.0 
3.266545268724e-03 -1.813211265752e-01 0.0 
3.298401109216e-03 -1.736314329589e-01 0.0 
3.221712025072e-03 -1.653222745220e-01 0.0 
3.056311834287e-03 -1.563191258189e-01 0.0 
0.0 -1.928220627349e-01 0.0 
0.0 -1.913421728122e-01 0.0 
0.0 -1.889697271261e-01 0.0 
0.0 -1.855673984200e-01 0.0 
0.0 -1.812736987230e-01 0.0 
0.0 -1.759501810200e-01 0.0 
0.0 -1.697344084427e-01 0.0 
0.0 -1.624864006597e-01 0.0 
0.0 -1.543504040138e-01 0.0 
1.346962784560e-04 -1.451986258981e-01 0.0 
2.972784571293e-04 -1.452105792709e-01 0.0 
4.491574592029e-04 -1.452271781723e-01 0.0 
6.048317727346e-04 -1.452327955856e-01 0.0 
7.734003141258e-04 -1.452718602873e-01 0.0 
9.423260078858e-04 -1.452956776611e-01 0.0 
1.115686431049e-03 -1.453440189950e-01 0.0 
1.312339436720e-03 -1.453982129663e-01 0.0 
1.493627187802e-03 -1.454935406668e-01 0.0 
1.683008066223e-03 -1.455813542526e-01 0.0 
1.886499870653e-03 -1.456997501247e-01 0.0 
2.099435408209e-03 -1.458646114440e-01 0.0 
2.325434959786e-03 -1.460564345017e-01 0.0 
2.561122551118e-03 -1.462820993114e-01 0.0 
-3.284627121945e-03 -2.392184726347e-01 0.0 
-7.085250939517e-04 -2.425198346824e-01 0.0 
1.988870064235e-03 -2.425261305460e-01 0.0 
4.867160138490e-03 -2.390547103006e-01 0.0 
6.570680039013e-03 -2.299099110667e-01 0.0 
7.044736296841e-03 -2.201056660572e-01 0.0 
6.844415278707e-03 -2.144334291105e-01 0.0 
6.550917217375e-03 -2.103198504488e-01 0.0 
5.323498709054e-03 -2.071993076945e-01 0.0 
4.564511918542e-03 -2.048212766866e-01 0.0 
4.189523666398e-03 -2.028695359227e-01 0.0 
3.745550815359e-03 -2.012523275122e-01 0.0 
3.269982208947e-03 -1.998878668787e-01 0.0 
2.793580018398e-03 -1.987889039093e-01 0.0 
2.322327103073e-03 -1.979167498417e-01 0.0 
1.846879502162e-03 -1.972249161980e-01 0.0 
1.368330483144e-03 -1.967009618960e-01 0.0 
8.955783698524e-04 -1.963482694154e-01 0.0 
4.424260646843e-04 -1.961036825782e-01 0.0 
-5.998819372986e-03 -2.198629687151e-01 0.0 
-5.556973736407e-03 -2.145550868584e-01 0.0 
-5.278679669025e-03 -2.105535770813e-01 0.0 
-4.527028781820e-03 -2.074392069542e-01 0.0 
-3.559781128990e-03 -2.050367597669e-01 0.0 
-3.254863307644e-03 -2.030935772264e-01 0.0 
-2.904088351381e-03 -2.014494145117e-01 0.0 
-2.547359022919e-03 -2.000652146003e-01 0.0 
-2.199645280535e-03 -1.988982525506e-01 0.0 
-1.872079427166e-03 -1.979166024116e-01 0.0 
-1.569002657178e-03 -1.970911023857e-01 0.0 
-1.293272210999e-03 -1.963982634209e-01 0.0 
-1.045699360521e-03 -1.958179206535e-01 0.0 
-8.263741027365e-04 -1.953332134899e-01 0.0 
-6.346418035619e-04 -1.949297265718e-01 0.0 
-4.694451418056e-04 -1.945951649857e-01 0.0 
-3.293937355579e-04 -1.943189789351e-01 0.0 
-2.128888091795e-04 -1.940921148007e-01 0.0 
-1.181843191241e-04 -1.939067978088e-01 0.0 
-4.345118455538e-05 -1.937563604659e-01 0.0 
1.318440404822e-05 -1.936350846795e-01 0.0 
5.363015707924e-05 -1.935380619318e-01 0.0 
7.984780009660e-05 -1.934610857218e-01 0.0 
9.390165189720e-05 -1.934005868743e-01 0.0 
9.804960532724e-05 -1.933536232923e-01 0.0 
9.490817583202e-05 -1.933179610947e-01 0.0 
8.774934692261e-05 -1.932923506053e-01 0.0 
8.088454355742e-05 -1.932779949536e-01 0.0 
7.407033785423e-05 -1.933098287131e-01 0.0 
3.907505465853e-05 -1.927548200719e-01 0.0 
7.565097819488e-05 -1.927993493899e-01 0.0 
1.044610276063e-04 -1.928156895336e-01 0.0 
1.280695510596e-04 -1.928391613805e-01 0.0 
1.464529052475e-04 -1.928711370719e-01 0.0 
1.586094285721e-04 -1.929129589611e-01 0.0 
1.633033747831e-04 -1.929667910483e-01 0.0 
1.592626752510e-04 -1.930354289570e-01 0.0 
1.452496888767e-04 -1.931222319371e-01 0.0 
1.200930980430e-04 -1.932311356166e-01 0.0 
8.270860676936e-05 -1.933667123681e-01 0.0 
3.212091221058e-05 -1.935342694483e-01 0.0 
-3.250590785406e-05 -1.937399863825e-01 0.0 
-1.118152758953e-04 -1.939910669935e-01 0.0 
-2.061807600251e-04 -1.942959094499e-01 0.0 
-3.156026364626e-04 -1.946642707629e-01 0.0 
-4.396039421641e-04 -1.951075605225e-01 0.0 
-5.770482970703e-04 -1.956390179264e-01 0.0 
-7.260194400544e-04 -1.962743704017e-01 0.0 
-8.834068525733e-04 -1.970317082557e-01 0.0 
-1.045059649776e-03 -1.979335482677e-01 0.0 
-1.204477019642e-03 -1.990045173217e-01 0.0 
-1.354946549599e-03 -2.002783731613e-01 0.0 
-1.485287093547e-03 -2.017850445961e-01 0.0 
-1.593939864054e-03 -2.035750742756e-01 0.0 
-1.678928395235e-03 -2.056071895859e-01 0.0 
-1.686289966522e-03 -2.083973875356e-01 0.0 
-1.477042625234e-03 -2.119674705285e-01 0.0 
5.849245570547e-04 -2.053884797373e-01 0.0 
2.594872349072e-04 -2.029764414232e-01 0.0 
1.067357472406e-04 -2.010071663856e-01 0.0 
1.227573766815e-05 -1.993615659226e-01 0.0 
-2.395192307032e-05 -1.979669485074e-01 0.0 
-2.852063165214e-05 -1.968015059925e-01 0.0 
-7.327218456354e-06 -1.958231884265e-01 0.0 
2.784402332445e-05 -1.950059359697e-01 0.0 
7.153502057151e-05 -1.943234436125e-01 0.0 
1.178026921820e-04 -1.937555047648e-01 0.0 
1.630288883883e-04 -1.932842374980e-01 0.0 
2.042234809336e-04 -1.928947568440e-01 0.0 
2.395036969750e-04 -1.925742590485e-01 0.0 
2.675784506193e-04 -1.923118560975e-01 0.0 
2.877557908045e-04 -1.920982125804e-01 0.0 
2.997438537163e-04 -1.919253668408e-01 0.0 
3.035622735035e-04 -1.917865370832e-01 0.0 
2.994479518724e-04 -1.916759308657e-01 0.0 
2.878113268185e-04 -1.915885783354e-01 0.0 
2.691920861986e-04 -1.915202245150e-01 0.0 
2.442122819120e-04 -1.914672644288e-01 0.0 
2.135242500468e-04 -1.914267309121e-01 0.0 
1.777487545054e-04 -1.913963700684e-01 0.0 
1.374019738495e-04 -1.913749712617e-01 0.0 
9.286449553321e-05 -1.913646069429e-01 0.0 
4.491784714786e-05 -1.914023227923e-01 0.0 
1.693223579423e-03 -1.995724867328e-01 0.0 
1.395877427282e-03 -1.978172397544e-01 0.0 
1.200101856930e-03 -1.962887733948e-01 0.0 
1.043324517157e-03 -1.950282703286e-01 0.0 
9.318661941429e-04 -1.939555090056e-01 0.0 
8.469545253778e-04 -1.930617621298e-01 0.0 
7.851966461129e-04 -1.923096954011e-01 0.0 
7.384239956463e-04 -1.916828924370e-01 0.0 
7.024011759899e-04 -1.911600538341e-01 0.0 
6.727440836520e-04 -1.907264918754e-01 0.0 
6.465296637693e-04 -1.903679457121e-01 0.0 
6.213464081274e-04 -1.900730339532e-01 0.0 
5.955503394201e-04 -1.898316004603e-01 0.0 
5.679666756197e-04 -1.896351109108e-01 0.0 
5.377971537171e-04 -1.894762406096e-01 0.0 
5.044957872787e-04 -1.893487966474e-01 0.0 
4.677475264931e-04 -1.892474503062e-01 0.0 
4.274181874835e-04 -1.891676185698e-01 0.0 
3.835046469981e-04 -1.891053832874e-01 0.0 
3.360842931160e-04 -1.890574426751e-01 0.0 
2.852872717382e-04 -1.890210942029e-01 0.0 
2.313039635265e-04 -1.889942594445e-01 0.0 
1.744790941709e-04 -1.889754614192e-01 0.0 
1.157639823531e-04 -1.889615728688e-01 0.0 
5.769128841108e-05 -1.889108638245e-01 0.0 
7.395012058928e-05 -1.856301423899e-01 0.0 
1.494754637795e-04 -1.855990346210e-01 0.0 
2.252686756150e-04 -1.856094007478e-01 0.0 
3.003984277851e-04 -1.856280684614e-01 0.0 
3.743317708259e-04 -1.856548339726e-01 0.0 
4.468765559756e-04 -1.856914995580e-01 0.0 
5.180774222928e-04 -1.857405086845e-01 0.0 
5.881478141122e-04 -1.858048648352e-01 0.0 
6.573982850181e-04 -1.858881633682e-01 0.0 
7.262604308811e-04 -1.859946792522e-01 0.0 
7.953219575738e-04 -1.861294205910e-01 0.0 
8.654059291159e-04 -1.862982333322e-01 0.0 
9.376293134231e-04 -1.865078832663e-01 0.0 
1.013213379643e-03 -1.867664435652e-01 0.0 
1.093927514485e-03 -1.870834098745e-01 0.0 
1.181672939418e-03 -1.874702617397e-01 0.0 
1.280094181562e-03 -1.879395100760e-01 0.0 
1.391492604274e-03 -1.885076596826e-01 0.0 
1.523020450663e-03 -1.891896651154e-01 0.0 
1.674678351233e-03 -1.900126816425e-01 0.0 
1.862902301223e-03 -1.909857782073e-01 0.0 
2.073794970070e-03 -1.921714645237e-01 0.0 
2.360693818409e-03 -1.935363383541e-01 0.0 
2.764003635137e-03 -1.872002518370e-01 0.0 
2.487519838359e-03 -1.861879106367e-01 0.0 
2.272038424767e-03 -1.852899766144e-01 0.0 
2.070602547205e-03 -1.845599950953e-01 0.0 
1.896407702022e-03 -1.839371022071e-01 0.0 
1.737637193277e-03 -1.834245334814e-01 0.0 
1.594851022556e-03 -1.829960588614e-01 0.0 
1.463121540548e-03 -1.826439438886e-01 0.0 
1.340976877149e-03 -1.823537495150e-01 0.0 
1.226506459891e-03 -1.821165533235e-01 0.0 
1.118575739459e-03 -1.819233684049e-01 0.0 
1.015633545636e-03 -1.817675912426e-01 0.0 
9.164490656961e-04 -1.816430734335e-01 0.0 
8.201194642796e-04 -1.815445041146e-01 0.0 
7.259135875971e-04 -1.814673767408e-01 0.0 
6.332028865010e-04 -1.814078190126e-01 0.0 
5.413506230165e-04 -1.813626183966e-01 0.0 
4.499320290295e-04 -1.813289047024e-01 0.0 
3.587459681233e-04 -1.813042076325e-01 0.0 
2.678821881518e-04 -1.812863502099e-01 0.0 
1.777415064183e-04 -1.812712474262e-01 0.0 
8.875040414235e-05 -1.812168303523e-01 0.0 
1.060841684300e-04 -1.760137580162e-01 0.0 
2.132767154582e-04 -1.759853802569e-01 0.0 
3.219642781047e-04 -1.759973418658e-01 0.0 
4.320381262661e-04 -1.760159996931e-01 0.0 
5.435334525577e-04 -1.760417201760e-01 0.0 
6.567216780929e-04 -1.760769749502e-01 0.0 
7.719292969195e-04 -1.761246149584e-01 0.0 
8.900026340726e-04 -1.761880650209e-01 0.0 
1.011873218928e-03 -1.762706252409e-01 0.0 
1.138234249271e-03 -1.763764317749e-01 0.0 
1.269797652008e-03 -1.765103228284e-01 0.0 
1.407757619639e-03 -1.766783496938e-01 0.0 
1.553780199611e-03 -1.768874367730e-01 0.0 
1.709928255256e-03 -1.771437062779e-01 0.0 
1.875530275062e-03 -1.774573899505e-01 0.0 
2.054253176111e-03 -1.778375378178e-01 0.0 
2.242974210721e-03 -1.783039408399e-01 0.0 
2.455682020446e-03 -1.788566285980e-01 0.0 
2.674847211393e-03 -1.795423774909e-01 0.0 
2.948436126646e-03 -1.803200556501e-01 0.0 
3.001873198868e-03 -1.728920195928e-01 0.0 
2.738179303225e-03 -1.723306936207e-01 0.0 
2.525425617372e-03 -1.718183589185e-01 0.0 
2.314486496176e-03 -1.714193234681e-01 0.0 
2.118938225041e-03 -1.710773239163e-01 0.0 
1.930681454181e-03 -1.708001133231e-01 0.0 
1.754998712434e-03 -1.705667137294e-01 0.0 
1.589022632034e-03 -1.703770446403e-01 0.0 
1.431428362034e-03 -1.702244828593e-01 0.0 
1.280508073844e-03 -1.701025455825e-01 0.0 
1.135352446269e-03 -1.700054592092e-01 0.0 
9.963903024866e-04 -1.699289088332e-01 0.0 
8.622058850026e-04 -1.698701776402e-01 0.0 
7.314934833312e-04 -1.698265148229e-01 0.0 
6.038676065691e-04 -1.697938711697e-01 0.0 
4.790016792276e-04 -1.697697988443e-01 0.0 
3.561860493168e-04 -1.697517383843e-01 0.0 
2.359646414159e-04 -1.697349459122e-01 0.0 
1.179020700839e-04 -1.696778189781e-01 0.0 
1.323905941580e-04 -1.625496697059e-01 0.0 
2.657539084131e-04 -1.625235525107e-01 0.0 
4.035605265421e-04 -1.625386587466e-01 0.0 
5.428719993170e-04 -1.625567722766e-01 0.0 
6.863220129825e-04 -1.625825658592e-01 0.0 
8.333724696821e-04 -1.626170558683e-01 0.0 
9.849212968668e-04 -1.626631490696e-01 0.0 
1.140092898505e-03 -1.627261795554e-01 0.0 
1.303871116324e-03 -1.628106713220e-01 0.0 
1.473860692230e-03 -1.629142215386e-01 0.0 
1.649568384861e-03 -1.630443819756e-01 0.0 
1.834236225560e-03 -1.632094694272e-01 0.0 
2.028408869056e-03 -1.634148186119e-01 0.0 
2.231604511595e-03 -1.636693698387e-01 0.0 
2.453058846867e-03 -1.639601912030e-01 0.0 
2.668082643571e-03 -1.643315931847e-01 0.0 
2.929359229437e-03 -1.647484671021e-01 0.0 
2.781338434307e-03 -1.559089955408e-01 0.0 
2.533178107785e-03 -1.556435181650e-01 0.0 
2.325053366557e-03 -1.553635068035e-01 0.0 
2.117178094488e-03 -1.551458318193e-01 0.0 
1.916127176583e-03 -1.549656177087e-01 0.0 
1.726154182409e-03 -1.548189697671e-01 0.0 
1.542983593454e-03 -1.547077352958e-01 0.0 
1.363976082737e-03 -1.546163002113e-01 0.0 
1.195139340782e-03 -1.545333909225e-01 0.0 
1.028900194873e-03 -1.544812784475e-01 0.0 
8.702701199797e-04 -1.544388771633e-01 0.0 
7.135816326627e-04 -1.544089104916e-01 0.0 
5.653540118573e-04 -1.543823510853e-01 0.0 
4.176042987401e-04 -1.543686376252e-01 0.0 
2.726311406442e-04 -1.543463964718e-01 0.0 
1.408719452846e-04 -1.542800153908e-01 0.0 
-2.253045988187e-03 -2.221254391037e-01 0.0 
2.905443361548e-04 -2.124844672127e-01 0.0 
1.680601611156e-03 -2.051513890746e-01 0.0 
2.443952975734e-03 -1.985443693870e-01 0.0 
2.927974946799e-03 -1.919164131784e-01 0.0 
3.194160084922e-03 -1.849653960788e-01 0.0 
3.275828831234e-03 -1.775554554401e-01 0.0 
3.249322944768e-03 -1.695675075950e-01 0.0 
3.129828862402e-03 -1.609180480812e-01 0.0 
2.919016202628e-03 -1.515452809612e-01 0.0 
2.414769978987e-03 -2.106108349513e-01 0.0 
-1.920337519085e-05 -1.733950912772e-02 0.0 
3.050179799611e-03 -2.054202423460e-01 0.0 
1.117866091146e-03 -2.320657481814e-01 0.0 
-4.194572558884e-04 -1.719590578064e-02 0.0 
3.382002296136e-03 -1.948134916893e-01 0.0 
-3.492804264894e-04 -1.423922946359e-01 0.0 
4.160132612341e-04 -1.732529216546e-02 0.0 
3.680591073296e-03 -1.797828978390e-01 0.0 
6.743366739307e-04 -1.670174905525e-02 0.0 
3.521779355783e-03 -1.626868792081e-01 0.0 
-4.237507449877e-04 -1.565904399732e-02 0.0 
2.108534518757e-03 -1.987297210073e-01 0.0 
7.391689736958e-04 -1.673883906550e-02 0.0 
3.017811989855e-03 -1.428369660171e-01 0.0 
-2.596367424671e-04 -1.751917841888e-01 0.0 
-3.461934633034e-04 -1.101238536214e-01 0.0 
7.021775251032e-04 -1.733616580216e-02 0.0 
5.168911012741e-04 -1.639652578649e-02 0.0 
1.574720324080e-04 -1.630065407644e-02 0.0 
2.998080749106e-04 -1.774192183137e-02 0.0 
3.753486909321e-04 -1.594648810910e-02 0.0 
2.480665299132e-03 -1.372067708325e-01 0.0 
1.638995801505e-03 -1.364512698216e-01 0.0 
1.057808970153e-03 -1.360086899622e-01 0.0 
9.512489886834e-05 -9.180551767643e-02 0.0 
-3.013831981663e-04 -1.689100263394e-02 0.0 
2.659992684783e-04 -2.372699376526e-01 0.0 
1.152823693708e-03 -1.964253313063e-01 0.0 
-2.361537293208e-04 -6.447194288145e-02 0.0 
5.380552666603e-04 -1.365959129179e-01 0.0 
-2.677258382346e-05 -1.898822802812e-01 0.0 
6.864924124911e-04 -1.898268834220e-02 0.0 
5.286098608963e-04 -1.569368380614e-02 0.0 
7.280106189806e-04 -1.648541097636e-02 0.0 
2.263495614289e-04 -1.837459648921e-02 0.0 
-2.038926925279e-04 -1.646874523663e-02 0.0 
2.567157259991e-03 -2.166396958787e-01 0.0 
2.051562128620e-03 -1.373087534661e-01 0.0 
-5.374748743385e-04 -1.954136259883e-02 0.0 
8.820165915540e-05 -6.270100296458e-02 0.0 
2.603676170590e-03 -2.015213915908e-01 0.0 
-3.402989142290e-04 -1.609731916752e-01 0.0 
9.477964204656e-05 -1.327107541755e-02 0.0 
3.621048607692e-03 -1.875255554143e-01 0.0 
3.020138867081e-03 -2.023877781873e-01 0.0 
3.646737732212e-03 -1.715884873195e-01 0.0 
3.310240871983e-03 -1.531447324977e-01 0.0 
1.054532295736e-03 -2.210481613720e-01 0.0 
1.141856964062e-04 -1.166504797829e-01 0.0 
-1.573568772231e-04 -1.334057587045e-02 0.0 
5.003474366603e-04 -1.957521244674e-01 0.0 
5.277315779311e-05 -2.943836575558e-02 0.0 
2.908235070106e-03 -1.373827288016e-01 0.0 
3.094395714672e-03 -1.331825215420e-01 0.0 
2.851080396595e-03 -1.277946026403e-01 0.0 
3.037256236591e-03 -1.226047356507e-01 0.0 
2.824305307165e-03 -1.159702692871e-01 0.0 
2.939018121015e-03 -1.108688527160e-01 0.0 
3.182004970291e-03 -1.177035160633e-01 0.0 
3.033610720039e-03 -1.056036496214e-01 0.0 
3.293916164087e-03 -1.127302703995e-01 0.0 
2.671951322956e-03 -1.036853486470e-01 0.0 
3.093583494925e-03 -1.001519243330e-01 0.0 
3.366948143299e-03 -1.075627617115e-01 0.0 
3.115010513456e-03 -9.453521994279e-02 0.0 
3.395932116098e-03 -1.021824933530e-01 0.0 
3.622948525453e-03 -1.147924336458e-01 0.0 
3.655867617649e-03 -1.097120327928e-01 0.0 
3.857971241933e-03 -1.218168869988e-01 0.0 
3.891500697738e-03 -1.170331274195e-01 0.0 
3.634442287804e-03 -1.044534724038e-01 0.0 
3.864449488597e-03 -1.120680166439e-01 0.0 
4.101038019738e-03 -1.241812063463e-01 0.0 
4.061664453969e-03 -1.195098948079e-01 0.0 
4.281075182362e-03 -1.311536843251e-01 0.0 
4.222674962823e-03 -1.267519639542e-01 0.0 
4.430578845231e-03 -1.380177378990e-01 0.0 
4.345189695862e-03 -1.338688013136e-01 0.0 
4.083819435656e-03 -1.221118545424e-01 0.0 
4.169436047060e-03 -1.294977934870e-01 0.0 
4.424465468243e-03 -1.408383720843e-01 0.0 
4.201279203905e-03 -1.367407775921e-01 0.0 
4.455111777879e-03 -1.476820860136e-01 0.0 
4.172183666297e-03 -1.438430879823e-01 0.0 
3.880731192883e-03 -1.323410798126e-01 0.0 
3.784647129932e-03 -1.396930589371e-01 0.0 
4.073620827313e-03 -1.508432864557e-01 0.0 
3.606958943316e-03 -1.468983972715e-01 0.0 
3.893738623911e-03 -1.577269187526e-01 0.0 
3.336272410442e-03 -1.539326453719e-01 0.0 
3.617906073731e-03 -1.644572278119e-01 0.0 
2.956970471443e-03 -1.608066776506e-01 0.0 
2.693986307478e-03 -1.496420764943e-01 0.0 
2.223739933091e-03 -1.565925422276e-01 0.0 
2.455805730751e-03 -1.674926311889e-01 0.0 
1.638091439817e-03 -1.632944045574e-01 0.0 
1.469322592882e-03 -1.519151588791e-01 0.0 
8.329393916752e-04 -1.586247306773e-01 0.0 
7.367428234106e-04 -1.468200635268e-01 0.0 
8.410293162519e-05 -1.535332694033e-01 0.0 
1.142972589967e-04 -1.648401840962e-01 0.0 
-6.202621496694e-04 -1.597030432152e-01 0.0 
-5.761807208557e-04 -1.480687797999e-01 0.0 
-1.236845118952e-03 -1.543103135161e-01 0.0 
-1.346086825067e-03 -1.654013756551e-01 0.0 
-1.878699533662e-03 -1.599278744418e-01 0.0 
-1.722704080167e-03 -1.486180253097e-01 0.0 
-2.271842177253e-03 -1.543306398481e-01 0.0 
-2.458588530662e-03 -1.649953523286e-01 0.0 
-2.736055103146e-03 -1.594546007957e-01 0.0 
-2.531992457993e-03 -1.484945447245e-01 0.0 
-2.890556093395e-03 -1.538662285016e-01 0.0 
-3.081936001306e-03 -1.640746880502e-01 0.0 
-3.125380106006e-03 -1.586544619133e-01 0.0 
-2.939779878565e-03 -1.481424698717e-01 0.0 
-3.082270777905e-03 -1.532522583684e-01 0.0 
-2.903992255744e-03 -1.424010864001e-01 0.0 
-3.222244372626e-03 -1.630835587014e-01 0.0 
-3.098001868985e-03 -1.579315623284e-01 0.0 
-3.170751739566e-03 -1.671439773003e-01 0.0 
-2.987561670664e-03 -1.622333866766e-01 0.0 
3.473750984434e-03 -1.276227990365e-01 0.0 
-2.977261848509e-03 -1.707583846902e-01 0.0 
-3.160294027751e-03 -1.752417815963e-01 0.0 
-2.761515180470e-03 -1.661837115985e-01 0.0 
-2.764147648828e-03 -1.573266928956e-01 0.0 
-2.663263175374e-03 -1.740331290937e-01 0.0 
-2.441229477075e-03 -1.698119912584e-01 0.0 
-2.261485639212e-03 -1.770175953952e-01 0.0 
4.172795720058e-03 -1.680407549102e-01 0.0 
3.554902153042e-03 -9.897723353019e-02 0.0 
-2.055333073414e-03 -1.731636857635e-01 0.0 
-1.813297887912e-03 -1.797506096576e-01 0.0 
-1.947582974102e-03 -1.832305641849e-01 0.0 
-1.434887596930e-03 -1.853550453438e-01 0.0 
2.559654494109e-03 -1.091869061277e-01 0.0 
2.397669351921e-03 -9.623192115156e-02 0.0 
2.303289164926e-03 -1.020938363916e-01 0.0 
2.120476402693e-03 -8.856599962644e-02 0.0 
2.044798453721e-03 -9.465608104416e-02 0.0 
-1.353591604538e-03 -1.822641644158e-01 0.0 
2.814121527089e-03 -8.638695523413e-02 0.0 
2.168410172521e-03 -8.221010280599e-02 0.0 
4.262006585308e-03 -1.353592257358e-01 0.0 
4.622698557452e-03 -1.512371206786e-01 0.0 
1.311102562727e-03 -1.397053641216e-01 0.0 
-2.190612737657e-03 -1.655887159245e-01 0.0 
-1.815255657754e-03 -1.693045124520e-01 0.0 
-1.913289661067e-03 -1.613473421972e-01 0.0 
-2.732137869449e-03 -1.366127042706e-01 0.0 
-2.700852365689e-03 -1.305781507217e-01 0.0 
-2.511439907772e-03 -1.241052918988e-01 0.0 
-2.479640054020e-03 -1.177870100548e-01 0.0 
-2.280688906526e-03 -1.106465460216e-01 0.0 
-2.242228316376e-03 -1.040341085091e-01 0.0 
-2.379469777189e-03 -1.114146017849e-01 0.0 
-2.137870536888e-03 -9.734178074464e-02 0.0 
-2.221857331416e-03 -1.049790546195e-01 0.0 
-2.037236813889e-03 -9.624949595455e-02 0.0 
-2.015423267795e-03 -1.030766631163e-01 0.0 
-1.978974973844e-03 -9.057834711882e-02 0.0 
-2.017443638497e-03 -9.846655214833e-02 0.0 
-1.776053520859e-03 -8.372594509029e-02 0.0 
-1.776514182211e-03 -9.187231560018e-02 0.0 
-1.985147474274e-03 -1.060031506617e-01 0.0 
-1.709087369114e-03 -9.967891475196e-02 0.0 
-1.883001423906e-03 -1.131901964464e-01 0.0 
6.441923134160e-04 -1.341999060221e-01 0.0 
1.158852473317e-03 -1.266364205642e-01 0.0 
5.530471576526e-04 -1.207359157728e-01 0.0 
1.007490250680e-03 -1.127104956312e-01 0.0 
4.617592644815e-04 -1.064078458295e-01 0.0 
8.550225271317e-04 -9.792472248109e-02 0.0 
3.702034745840e-04 -9.120125765692e-02 0.0 
-2.604725732118e-05 -9.984471012243e-02 0.0 
3.094738639161e-03 -8.869440178046e-02 0.0 
1.819762739505e-03 -1.738754617471e-01 0.0 
2.700693565323e-03 -1.775799657162e-01 0.0 
2.017774501095e-03 -1.836943897450e-01 0.0 
2.954526032591e-03 -1.868540437714e-01 0.0 
2.229702785622e-03 -1.927622616674e-01 0.0 
3.214718124218e-03 -1.953466406653e-01 0.0 
2.457007602202e-03 -2.011537019077e-01 0.0 
1.319068109614e-03 -1.982452395485e-01 0.0 
1.481467543522e-03 -2.065548423788e-01 0.0 
2.502416762105e-04 -2.031203485077e-01 0.0 
3.253138637677e-04 -2.112322209290e-01 0.0 
-8.883712558070e-04 -2.071487216708e-01 0.0 
3.865278239594e-03 -1.172250228308e-01 0.0 
1.383910041826e-03 -1.043534783477e-01 0.0 
1.172868424860e-03 -8.912241058641e-02 0.0 
1.672351084634e-03 -9.571142436399e-02 0.0 
-1.466670094671e-03 -1.884520571253e-01 0.0 
-1.508912910680e-03 -8.517887364888e-02 0.0 
-1.777594219183e-03 -8.804753266111e-02 0.0 
-1.702863637450e-03 -9.520632299530e-02 0.0 
-5.408165590970e-05 -8.424139578797e-02 0.0 
-9.444408728124e-04 -1.872882623052e-01 0.0 
3.468368455145e-03 -2.030515354251e-01 0.0 
4.014452970199e-03 -1.971478182473e-01 0.0 
1.844098477237e-03 -8.054216694454e-02 0.0 
1.786626069637e-03 -8.690721215154e-02 0.0 
-1.479334749632e-03 -7.945316124167e-02 0.0 
-9.186898101020e-04 -1.845752315186e-01 0.0 
-1.872619050629e-03 -8.232677765524e-02 0.0 
1.656703916550e-03 -2.142893145857e-01 0.0 
-1.412400991827e-03 -9.326513290083e-02 0.0 
-1.224644069421e-03 -7.838467644964e-02 0.0 
-2.439944816042e-03 -1.183684999405e-01 0.0 
1.405477454031e-03 -8.003074257266e-02 0.0 
1.873325886298e-03 -8.706547925161e-02 0.0 
-8.451969202279e-04 -1.988250175572e-01 0.0 
-1.856720543305e-03 -2.023876351926e-01 0.0 
-1.938138267026e-03 -2.100413865157e-01 0.0 
-2.684781046094e-03 -2.045408011785e-01 0.0 
-2.553901620614e-03 -1.971564195308e-01 0.0 
-3.114416061922e-03 -1.993978449695e-01 0.0 
-3.098452077681e-03 -2.058481118447e-01 0.0 
-3.285091577354e-03 -2.007034341890e-01 0.0 
-3.341180295481e-03 -1.941753710874e-01 0.0 
-3.324118562093e-03 -1.956925298927e-01 0.0 
-2.991329824175e-03 -2.012739648439e-01 0.0 
-2.936278996431e-03 -1.966337352647e-01 0.0 
-1.281181229719e-03 -6.968210630361e-02 0.0 
4.342465643585e-04 -2.188466628043e-01 0.0 
3.768718770575e-03 -1.264074290347e-01 0.0 
-1.519299351057e-03 -7.208995830618e-02 0.0 
2.847785703848e-04 -7.531917460493e-02 0.0 
1.570312233759e-03 -7.221623425638e-02 0.0 
1.531151308910e-03 -7.885333989444e-02 0.0 
1.702852151936e-03 -9.315646029478e-02 0.0 
1.467220784814e-03 -8.532931871690e-02 0.0 
1.282533199377e-03 -7.047435127221e-02 0.0 
1.239103342084e-03 -7.721164253850e-02 0.0 
1.383789934552e-03 -9.165504462153e-02 0.0 
1.173552108885e-03 -8.377627972639e-02 0.0 
1.283392533862e-03 -9.780174061753e-02 0.0 
1.088478250390e-03 -9.015804880900e-02 0.0 
9.705138366180e-04 -7.558988756622e-02 0.0 
9.007533589321e-04 -8.222215745276e-02 0.0 
9.877390128240e-04 -9.636573084876e-02 0.0 
8.151999951122e-04 -8.867099829286e-02 0.0 
8.769142024146e-04 -1.023843255514e-01 0.0 
7.168539191289e-04 -9.492823799442e-02 0.0 
6.480332030360e-04 -8.067925033855e-02 0.0 
-5.340633737376e-04 -1.888947851861e-01 0.0 
-4.414925801859e-04 -9.306483797800e-02 0.0 
-4.056555464139e-04 -7.705815156415e-02 0.0 
-1.549583630912e-03 -1.654183863196e-01 0.0 
-1.637560074333e-03 -1.570636237806e-01 0.0 
-1.944473258121e-03 -1.523854824642e-01 0.0 
-1.608541635137e-03 -1.477418553013e-01 0.0 
5.526846763847e-04 -8.724551141997e-02 0.0 
4.988678497086e-04 -7.240098854653e-02 0.0 
4.190196678366e-03 -2.039372518272e-01 0.0 
4.516117586721e-03 -1.981824887935e-01 0.0 
1.580380010290e-03 -6.540400820826e-02 0.0 
-1.103017287977e-03 -8.675046393605e-02 0.0 
-1.256693866677e-03 -1.010242580123e-01 0.0 
4.656978128488e-03 -1.576612512382e-01 0.0 
4.750052903752e-03 -1.606776192655e-01 0.0 
4.790363904370e-03 -1.666835074038e-01 0.0 
4.789240277826e-03 -1.693530204477e-01 0.0 
4.717239009001e-03 -1.634955285252e-01 0.0 
4.833673668383e-03 -1.749926430307e-01 0.0 
-1.915010789425e-03 -1.100526302791e-01 0.0 
7.776008899730e-04 -6.710354048441e-02 0.0 
-2.046555637530e-03 -1.867340474966e-01 0.0 
-1.440794363557e-03 -1.915737473895e-01 0.0 
-9.388886382265e-04 -7.147262983116e-02 0.0 
-4.739112502867e-04 -1.081515747643e-01 0.0 
3.766270010322e-03 -1.093896825900e-01 0.0 
3.512849124202e-03 -1.039603283749e-01 0.0 
3.392560008401e-03 -9.565459153992e-02 0.0 
3.112032420153e-03 -8.970669781239e-02 0.0 
2.962123407183e-03 -8.092306715385e-02 0.0 
2.659184074105e-03 -7.444562064012e-02 0.0 
2.779363053768e-03 -8.349727905230e-02 0.0 
1.543821170241e-03 -7.060474733388e-02 0.0 
2.313079143768e-03 -6.767642042527e-02 0.0 
6.147450256699e-04 -1.011124942764e-01 0.0 
1.933202885141e-03 -1.106378322253e-01 0.0 
-3.419722758062e-03 -1.890690833540e-01 0.0 
-4.424785522809e-04 -1.912141897512e-01 0.0 
-2.207768688281e-03 -2.014094800975e-01 0.0 
-5.432933296247e-04 -1.866645579870e-01 0.0 
-8.341283937028e-04 -1.818249882898e-01 0.0 
-1.232118130362e-03 -6.286429926268e-02 0.0 
2.468702405809e-03 -6.519673224137e-02 0.0 
2.751001712638e-03 -7.196978671446e-02 0.0 
4.651149106179e-03 -1.716548279290e-01 0.0 
4.572118585749e-03 -1.660752823112e-01 0.0 
1.125276468881e-03 -6.343865459303e-02 0.0 
2.179721107697e-03 -1.079043027128e-01 0.0 
1.482815313400e-03 -1.051574019305e-01 0.0 
1.348752789473e-03 -1.108704432384e-01 0.0 
-1.421682336370e-04 -1.908952621758e-01 0.0 
-2.231955739704e-03 -2.056509292475e-01 0.0 
1.046049555770e-03 -6.179640092980e-02 0.0 
4.379215081932e-03 -1.912899121344e-01 0.0 
4.706393339268e-03 -1.925358065173e-01 0.0 
1.820667532500e-03 -2.214936868735e-01 0.0 
5.824938008020e-04 -2.260606659903e-01 0.0 
4.227494696776e-04 -7.905050970677e-02 0.0 
3.626419457480e-04 -6.381620513657e-02 0.0 
-1.901434652420e-03 -1.424440180077e-01 0.0 
-1.565716573997e-03 -1.374125544249e-01 0.0 
-1.158866332942e-03 -7.041194719840e-02 0.0 
-2.233084143449e-03 -1.971989427221e-01 0.0 
4.099302185424e-04 -5.660438982719e-02 0.0 
-8.658411928838e-04 -1.014946090426e-01 0.0 
-9.547868110477e-04 -1.160622784110e-01 0.0 
-1.288955927263e-03 -1.527886806609e-01 0.0 
4.498402306744e-03 -2.040360013883e-01 0.0 
4.219848277378e-03 -2.097020798909e-01 0.0 
-3.261831005553e-03 -1.866438553784e-01 0.0 
-2.852573237868e-03 -1.922796906635e-01 0.0 
-4.962434265207e-04 -1.842835155159e-01 0.0 
-9.326972456224e-04 -5.325062220465e-02 0.0 
1.046464346219e-03 -5.463310111031e-02 0.0 
2.407553986561e-03 -7.696366822497e-02 0.0 
2.825694739660e-03 -9.236586077932e-02 0.0 
1.936341636903e-03 -6.065012598060e-02 0.0 
-1.213612008643e-03 -2.010341424399e-01 0.0 
-1.226158748964e-03 -5.518513208331e-02 0.0 
-8.009870348083e-04 -8.011865414491e-02 0.0 
2.241160769700e-03 -5.646578187481e-02 0.0 
2.486668464122e-03 -6.280118791982e-02 0.0 
4.608331700520e-03 -1.854942928292e-01 0.0 
4.808055838661e-03 -1.868009261719e-01 0.0 
4.727172271959e-03 -1.932249413179e-01 0.0 
4.755412385077e-03 -1.878822188127e-01 0.0 
3.416442528999e-03 -1.243710286649e-01 0.0 
4.739154824187e-03 -1.795670302254e-01 0.0 
3.980123901861e-03 -1.329352372145e-01 0.0 
3.838559425898e-03 -1.370485720286e-01 0.0 
4.021828730991e-03 -1.430692858578e-01 0.0 
4.619825064060e-03 -1.577318556377e-01 0.0 
4.466735880976e-03 -1.605248400382e-01 0.0 
3.506550239163e-03 -1.807523446276e-01 0.0 
1.798436303956e-03 -1.322248674683e-01 0.0 
-2.219996417158e-03 -1.474172516047e-01 0.0 
-2.166715783806e-03 -1.191039317179e-01 0.0 
-2.463292404898e-03 -1.303582717902e-01 0.0 
8.125346577208e-04 -6.004717408080e-02 0.0 
6.197354751516e-04 -5.099865569346e-02 0.0 
1.038151171340e-03 -1.095441373782e-01 0.0 
9.040651119265e-04 -1.151308175662e-01 0.0 
-7.890873957435e-04 -1.926997361590e-01 0.0 
-6.052480583781e-04 -1.954395899134e-01 0.0 
-2.797861335347e-03 -1.366305755211e-01 0.0 
-1.484645126083e-03 -6.463052793852e-02 0.0 
1.293610247092e-03 -5.651878202714e-02 0.0 
1.250558368399e-03 -4.923923683653e-02 0.0 
1.557734179079e-03 -5.838895059998e-02 0.0 
-8.372048985045e-04 -6.094588256885e-02 0.0 
1.055648979902e-03 -1.798481166397e-01 0.0 
3.301985129858e-05 -1.284055833829e-01 0.0 
-7.672030856600e-04 -2.221608633504e-01 0.0 
3.560068738953e-03 -1.199424069617e-01 0.0 
8.077894386374e-05 -1.959896404923e-01 0.0 
3.303709495952e-03 -9.098161520092e-02 0.0 
-6.658324513877e-04 -6.443209594402e-02 0.0 
-7.563254818762e-04 -5.518716953833e-02 0.0 
1.193457158412e-03 -5.363314658542e-02 0.0 
3.258066636432e-03 -1.390012635083e-01 0.0 
3.144683404163e-03 -1.146590936664e-01 0.0 
2.998832605098e-03 -1.226059838774e-01 0.0 
3.827302145862e-03 -1.467008930722e-01 0.0 
3.978856788041e-03 -1.522254321076e-01 0.0 
4.184922179298e-03 -1.488961214963e-01 0.0 
4.109855219297e-03 -1.576390743057e-01 0.0 
-3.371896893884e-03 -1.815051151884e-01 0.0 
-3.397153675807e-03 -1.841867659057e-01 0.0 
1.889046583222e-03 -4.791391555447e-02 0.0 
1.798976847626e-03 -5.145787220436e-02 0.0 
1.959420515022e-03 -4.728206071001e-02 0.0 
2.170904293077e-03 -5.337710102045e-02 0.0 
8.230715549692e-04 -4.598060324119e-02 0.0 
7.391537696253e-04 -5.599634680847e-02 0.0 
-6.907905302758e-04 -1.790237816863e-01 0.0 
4.335201502473e-03 -1.683514333433e-01 0.0 
8.030650263865e-04 -4.537741173073e-02 0.0 
3.657870365275e-03 -1.410680462455e-01 0.0 
-1.167319527522e-03 -4.784670290706e-02 0.0 
-1.389970613051e-03 -5.711886153338e-02 0.0 
-4.272987803571e-04 -2.290726194078e-01 0.0 
-1.751573078767e-03 -2.233213311817e-01 0.0 
2.737666391123e-04 -4.784004614061e-02 0.0 
4.476131510429e-03 -1.935283972758e-01 0.0 
4.489670115322e-03 -1.887825896375e-01 0.0 
4.436432168564e-03 -1.984082853535e-01 0.0 
-1.058852522356e-04 -2.872156149730e-02 0.0 
2.327963308582e-04 -1.367041255132e-01 0.0 
-5.096960702288e-04 -4.775061098382e-02 0.0 
4.490574782764e-03 -1.516359964121e-01 0.0 
3.073516535012e-04 -3.952456030425e-02 0.0 
2.684841802081e-03 -1.090645568194e-01 0.0 
4.643842493007e-03 -1.642123437622e-01 0.0 
-9.962142464942e-04 -7.782048337857e-02 0.0 
2.303132910678e-04 -5.663837844895e-02 0.0 
1.684455148594e-04 -3.804922924662e-02 0.0 
1.528292214001e-03 -1.174957855125e-01 0.0 
1.364518769963e-03 -1.229820253529e-01 0.0 
1.685988391767e-03 -1.122055699189e-01 0.0 
2.886386181985e-03 -2.157888886273e-01 0.0 
3.028332787589e-03 -2.224531182486e-01 0.0 
6.000832390622e-04 -5.831698086790e-02 0.0 
-1.439331980963e-03 -1.727827538554e-01 0.0 
-1.180819326179e-03 -1.684389237726e-01 0.0 
-2.187138943362e-03 -1.935622509232e-01 0.0 
-2.733918266239e-03 -1.882800695496e-01 0.0 
-2.143599116681e-03 -1.369105572409e-01 0.0 
-2.436959159790e-03 -1.421830654609e-01 0.0 
3.172773176198e-03 -8.490824139189e-02 0.0 
2.898246189686e-03 -7.654649589456e-02 0.0 
3.614946226578e-03 -1.014063097548e-01 0.0 
-1.306377935553e-03 -1.094926813166e-01 0.0 
-1.444749241223e-03 -1.235206788832e-01 0.0 
-1.040120235642e-03 -1.296806884318e-01 0.0 
6.189433027100e-04 -4.405585504650e-02 0.0 
4.179800340088e-04 -3.302496582024e-02 0.0 
-3.109056298997e-03 -1.784184969617e-01 0.0 
-2.834364852477e-03 -1.836481031145e-01 0.0 
-3.378757905461e-03 -1.766854697036e-01 0.0 
7.727363640354e-04 -3.807796846368e-02 0.0 
-5.598960875189e-04 -3.841262023512e-02 0.0 
-7.893092445241e-04 -4.626641763912e-02 0.0 
4.419530316829e-04 -1.982570253928e-01 0.0 
-3.633810308979e-04 -1.981664087430e-01 0.0 
4.193923321020e-03 -2.087033058025e-01 0.0 
3.881557046481e-03 -2.143720002891e-01 0.0 
1.184585910779e-03 -4.243403176441e-02 0.0 
1.503234025217e-03 -5.129647062402e-02 0.0 
8.568696631116e-04 -3.209484235444e-02 0.0 
-3.792057245729e-04 -1.821214456419e-01 0.0 
2.420697027826e-03 -8.573122525283e-02 0.0 
-6.289764156505e-04 -4.412840310267e-02 0.0 
-5.241981252873e-04 -5.209270693834e-02 0.0 
-6.280252364747e-04 -3.402198994107e-02 0.0 
1.595726312126e-03 -6.156321619679e-02 0.0 
1.170425405715e-03 -4.452989441977e-02 0.0 
1.429936721595e-03 -4.330855304980e-02 0.0 
6.594229321308e-04 -2.326454330075e-01 0.0 
1.216343677226e-04 -4.511606905396e-02 0.0 
1.064215804162e-03 -1.217723629378e-01 0.0 
2.899297011467e-04 -2.346716448833e-01 0.0 
9.039082713875e-04 -1.273163897168e-01 0.0 
7.545330212990e-04 -1.206037687057e-01 0.0 
7.738372407402e-04 -1.326121697492e-01 0.0 
-2.296597589385e-04 -1.865648366908e-01 0.0 
1.729571339511e-03 -1.259452749240e-01 0.0 
1.904536725028e-03 -1.194653375575e-01 0.0 
1.165151010274e-03 -2.010062995054e-01 0.0 
5.226505981802e-04 -2.848465037507e-02 0.0 
1.046157633519e-03 -1.982326492321e-01 0.0 
5.986412759326e-04 -1.963844796392e-01 0.0 
-1.029293050701e-03 -3.980144579674e-02 0.0 
-1.238580561512e-03 -4.942687092583e-02 0.0 
-8.311493414227e-04 -3.197107652201e-02 0.0 
-1.063689165714e-03 -4.255514156259e-02 0.0 
-1.406108826736e-03 -5.906798887296e-02 0.0 
-1.194492987655e-03 -5.154689323012e-02 0.0 
1.229394725595e-03 -1.290802018596e-01 0.0 
-7.986762261777e-04 -3.218528309337e-02 0.0 
-9.571907078270e-04 -4.354077847175e-02 0.0 
-5.652942091744e-04 -2.476123359646e-02 0.0 
3.842352003663e-03 -1.602611205670e-01 0.0 
4.747755901040e-03 -1.829605084649e-01 0.0 
4.484850305897e-03 -1.841927548810e-01 0.0 
4.035090268503e-03 -1.895684431698e-01 0.0 
1.466094619883e-03 -3.424277051272e-02 0.0 
1.829663283367e-03 -4.465022269476e-02 0.0 
-5.114785170795e-04 -7.302753186769e-02 0.0 
-5.870971602952e-04 -8.811974976539e-02 0.0 
6.214020170250e-04 -1.267560120606e-01 0.0 
4.599022505741e-04 -1.272154582515e-01 0.0 
4.979908588598e-04 -1.165055312631e-01 0.0 
3.627934271429e-04 -1.178530470808e-01 0.0 
4.070532571288e-04 -1.066457757685e-01 0.0 
2.648255325422e-04 -1.081074688776e-01 0.0 
3.031976167152e-04 -9.620340484143e-02 0.0 
1.255088850765e-03 -3.360805014552e-02 0.0 
3.945130348745e-03 -1.984273024461e-01 0.0 
3.593261092982e-03 -1.502582378465e-01 0.0 
5.065278854937e-04 -3.804569442395e-02 0.0 
4.310219345791e-04 -4.973331726690e-02 0.0 
4.238809279914e-03 -1.631249244640e-01 0.0 
4.029488444109e-03 -1.706314729698e-01 0.0 
-8.493546842939e-04 -3.527333794566e-02 0.0 
4.420982755560e-03 -1.774855789691e-01 0.0 
3.920499751476e-04 -1.846887909650e-02 0.0 
1.806767041531e-04 -2.325152548944e-01 0.0 
2.135002211819e-03 -2.297483598665e-01 0.0 
4.576308030160e-03 -1.712479048294e-01 0.0 
4.332151015975e-03 -1.546908790172e-01 0.0 
4.706306428300e-03 -1.775100697194e-01 0.0 
4.443668087303e-03 -1.785795079470e-01 0.0 
-1.160509593608e-03 -9.439143561224e-02 0.0 
7.672489828073e-06 -2.010591458112e-01 0.0 
4.354109336395e-03 -2.034280519812e-01 0.0 
4.500310032824e-04 -9.483568996177e-02 0.0 
3.687956978328e-03 -2.075340308743e-01 0.0 
-2.723561277853e-04 -7.995715084654e-02 0.0 
3.902991404834e-03 -1.745196331310e-01 0.0 
4.566207503969e-03 -1.483651573889e-01 0.0 
4.652353410837e-03 -1.985527489060e-01 0.0 
4.847481109314e-03 -1.806755880040e-01 0.0 
3.541992521360e-03 -1.197056605674e-01 0.0 
3.263710842842e-03 -1.288709101242e-01 0.0 
3.457043976126e-03 -1.350908068514e-01 0.0 
3.232269574897e-03 -1.712029264389e-01 0.0 
4.406413929516e-03 -1.734162430589e-01 0.0 
4.078057773853e-03 -1.799700593437e-01 0.0 
4.073362524618e-03 -1.286977241957e-01 0.0 
1.870653289323e-03 -6.722486977937e-02 0.0 
1.830366043149e-03 -6.026514976122e-02 0.0 
1.414462551219e-03 -4.448466316872e-02 0.0 
1.748716270220e-03 -5.324691166497e-02 0.0 
2.162308959126e-03 -6.905323782651e-02 0.0 
2.097118950425e-03 -6.223756840464e-02 0.0 
1.627810939723e-03 -4.626534791766e-02 0.0 
1.996499273012e-03 -5.528068118351e-02 0.0 
1.345876146864e-03 -3.549781438032e-02 0.0 
1.838237854758e-03 -4.778702689605e-02 0.0 
2.355506649210e-03 -6.451430967941e-02 0.0 
2.225729983776e-03 -5.792752003302e-02 0.0 
1.707423206774e-03 -4.258314086498e-02 0.0 
2.715979502387e-03 -7.424742944446e-02 0.0 
5.077611769889e-04 -2.819050817621e-02 0.0 
4.341427122754e-03 -1.613212506028e-01 0.0 
1.801204986812e-03 -2.281599616951e-01 0.0 
3.023156691732e-03 -2.230203974899e-01 0.0 
4.426208896506e-03 -1.418604803054e-01 0.0 
6.538149289896e-04 -1.737388220550e-02 0.0 
5.842962126307e-04 -1.694366719954e-02 0.0 
3.772361024867e-03 -1.894384604040e-01 0.0 
7.412441988915e-04 -1.656592991865e-02 0.0 
3.630709001541e-03 -1.308079352908e-01 0.0 
2.695071320914e-03 -2.088901115603e-01 0.0 
7.174197535112e-04 -1.679237950125e-02 0.0 
2.184761473735e-03 -7.569466558228e-02 0.0 
2.498374713013e-03 -8.414685614648e-02 0.0 
2.463729234564e-03 -9.028407332485e-02 0.0 
4.641012066871e-04 -1.570716279465e-02 0.0 
1.819179005898e-03 -1.066244911364e-01 0.0 
4.739099920488e-04 -1.594709439959e-02 0.0 
1.590874053480e-03 -1.187325339912e-01 0.0 
2.189798549184e-03 -1.246691987036e-01 0.0 
2.439885240964e-03 -1.376438227806e-01 0.0 
2.447454932959e-03 -7.138932483279e-02 0.0 
8.887560970305e-05 -1.709484267651e-02 0.0 
6.508166660868e-05 -3.292997102042e-02 0.0 
-1.172114488893e-04 -3.294187109126e-02 0.0 
-4.699174560818e-05 -4.947278074448e-02 0.0 
-1.206477252079e-04 -1.700060584660e-02 0.0 
6.667102402859e-04 -1.574796651317e-02 0.0 
6.558738651557e-04 -1.502693993930e-02 0.0 
-3.004947278935e-03 -1.919236448454e-01 0.0 
-2.386881272831e-03 -1.888335854308e-01 0.0 
-2.204713007548e-03 -1.799355618883e-01 0.0 
-1.588819593914e-03 -1.850262974441e-01 0.0 
-1.729537736031e-03 -1.939875316732e-01 0.0 
-7.850256873469e-04 -1.899399650175e-01 0.0 
-7.161304192775e-04 -1.805629816913e-01 0.0 
2.033967029181e-04 -1.944671643781e-01 0.0 
2.398249693960e-03 -6.074588826981e-02 0.0 
-2.876106475121e-04 -1.634025996072e-02 0.0 
-2.242902645281e-03 -1.172160757546e-01 0.0 
-2.121112480420e-03 -1.238474558833e-01 0.0 
-2.326491339813e-03 -1.366466699885e-01 0.0 
-2.506699673277e-03 -1.523689784915e-01 0.0 
-2.696422023865e-03 -1.474585656776e-01 0.0 
-2.576951400694e-03 -1.366131172149e-01 0.0 
-2.239659180805e-03 -1.570087642391e-01 0.0 
3.196538391875e-03 -9.828463943398e-02 0.0 
-3.467728139249e-04 -1.646394556827e-02 0.0 
-5.034417153450e-04 -1.223304232806e-01 0.0 
-2.919522985157e-03 -1.527248057705e-01 0.0 
2.258234963151e-03 -1.372468519025e-01 0.0 
2.402778108112e-03 -1.280275760399e-01 0.0 
2.602117664171e-03 -1.279835888379e-01 0.0 
2.444992731656e-03 -1.165161750734e-01 0.0 
2.147483427466e-03 -1.265112298735e-01 0.0 
-1.825705659484e-03 -1.315599282277e-01 0.0 
-1.489831344840e-03 -1.261517713267e-01 0.0 
-1.215501064976e-03 -1.323267227508e-01 0.0 
-1.142421641086e-03 -1.206669574956e-01 0.0 
-8.537851260834e-04 -1.271253380636e-01 0.0 
-9.093967233418e-04 -1.379771778024e-01 0.0 
-7.819678349054e-04 -1.150815257722e-01 0.0 
-4.896235403689e-04 -1.231962674282e-01 0.0 
1.827611281437e-03 -1.369249969747e-01 0.0 
1.446059125467e-03 -2.238669783490e-01 0.0 
-7.656988448387e-04 -2.185628991951e-01 0.0 
1.637186935484e-04 -2.130191819012e-01 0.0 
-1.862982270853e-03 -2.135293659859e-01 0.0 
-2.218082493807e-03 -2.182122445266e-01 0.0 
-2.883207986795e-03 -2.116759810461e-01 0.0 
-2.505090860339e-03 -2.162380016573e-01 0.0 
-1.268319574679e-03 -2.250270361840e-01 0.0 
3.084814674340e-03 -2.118521621214e-01 0.0 
7.502116509062e-04 -2.088520619111e-01 0.0 
3.185846655886e-03 -2.080830177330e-01 0.0 
1.198646025125e-03 -2.057238859094e-01 0.0 
-8.733732913933e-04 -2.051648607973e-01 0.0 
-1.399399211963e-03 -1.946088274596e-01 0.0 
-2.876518837031e-04 -1.920689764823e-02 0.0 
-3.548084630912e-04 -1.522561659934e-01 0.0 
-6.896954793128e-04 -1.568721752139e-01 0.0 
-6.306823383798e-04 -1.647944372452e-01 0.0 
-1.010681569761e-03 -1.608685308964e-01 0.0 
-6.508674805640e-04 -1.485502028987e-01 0.0 
-3.048272020481e-04 -1.685918708704e-01 0.0 
-5.826336425443e-04 -1.711914764325e-01 0.0 
8.229183544414e-04 -1.959961323649e-01 0.0 
4.154933222376e-04 -1.946484123115e-01 0.0 
2.051194810003e-04 -1.946000614523e-01 0.0 
1.384252624211e-04 -1.926716163199e-01 0.0 
2.356954981556e-04 -1.930166691522e-01 0.0 
6.111006516180e-04 -1.949895050883e-01 0.0 
7.969040761768e-04 -1.955277896679e-01 0.0 
1.479864257816e-03 -1.970406846843e-01 0.0 
9.630784932875e-04 -1.962112451611e-01 0.0 
3.277654855851e-04 -1.939329068715e-01 0.0 
1.801130881844e-03 -1.978056543294e-01 0.0 
1.060568338834e-04 -7.741677935601e-02 0.0 
1.957524841621e-04 -6.991465886837e-02 0.0 
-4.507958933617e-04 -1.745934332969e-02 0.0 
1.420107934117e-03 -1.358499227382e-01 0.0 
2.815872466176e-03 -2.033111825408e-01 0.0 
1.612122048065e-04 -1.955085258425e-02 0.0 
2.467187298755e-04 -1.632135244478e-02 0.0 
1.824715972981e-04 -1.578439429307e-02 0.0 
-1.715653994035e-04 -4.706140808479e-02 0.0 
-2.795771937171e-04 -3.858548302023e-02 0.0 
1.051010446359e-04 -1.897653157987e-02 0.0 
-2.433929081334e-03 -1.808814327580e-01 0.0 
1.296297579849e-03 -3.760843457067e-02 0.0 
4.421619960754e-04 -4.919912815965e-02 0.0 
3.668781921290e-03 -2.098280858712e-01 0.0 
-3.176252124793e-03 -1.864195141037e-01 0.0 
-9.119691455795e-04 -9.466772104147e-02 0.0 
-2.231656133593e-03 -1.121955526751e-01 0.0 
-1.015629040897e-03 -6.263648793941e-02 0.0 
-1.577117015278e-03 -1.071479016038e-01 0.0 
-1.539572108793e-03 -7.675413590985e-02 0.0 
-3.300579691222e-04 -3.405394978497e-02 0.0 
-2.600655063310e-04 -1.884686001303e-01 0.0 
1.165915926198e-03 -1.037612948063e-01 0.0 
7.611014445600e-04 -1.082624477131e-01 0.0 
7.223116774786e-04 -7.398770296388e-02 0.0 
-1.642838391160e-03 -1.762757763931e-01 0.0 
-1.272213941811e-03 -1.425034652314e-01 0.0 
-9.119374264760e-04 -1.899611682337e-01 0.0 
1.311965497953e-03 -3.150322846585e-02 0.0 
4.168916722101e-03 -1.392789482219e-01 0.0 
-2.680869985894e-03 -1.426045401720e-01 0.0 
-2.514558643464e-03 -1.615996098202e-01 0.0 
-2.857657930713e-03 -1.781955193355e-01 0.0 
-3.277433398218e-03 -1.909055383968e-01 0.0 
4.430532585472e-03 -1.544874202343e-01 0.0 
-2.967798147714e-03 -1.477636745126e-01 0.0 
-1.985852670221e-03 -8.933474899523e-02 0.0 
5.583734653649e-04 -6.545538598003e-02 0.0 
2.209103796249e-03 -1.997958712158e-01 0.0 
-1.775123761779e-03 -8.091430197774e-02 0.0 
-2.599724102209e-03 -1.244997976931e-01 0.0 
1.599439507475e-03 -9.926145743202e-02 0.0 
7.029417251577e-04 -8.228487127281e-02 0.0 
-3.014724413156e-03 -2.059325200145e-01 0.0 
1.020950186530e-03 -6.880023613697e-02 0.0 
9.742726585655e-04 -4.081330465766e-02 0.0 
2.032757338947e-03 -1.136500934724e-01 0.0 
-1.993378994749e-04 -1.936776117577e-01 0.0 
1.206313390310e-03 -1.165841656679e-01 0.0 
-9.480161618052e-04 -4.532215383975e-02 0.0 
1.873002091976e-03 -7.395901303631e-02 0.0 
-1.224798613309e-03 -1.791595070539e-01 0.0 
6.115382353371e-05 -1.413636678432e-01 0.0 
4.545245491831e-03 -1.446991843735e-01 0.0 
3.172952181584e-03 -1.481099282140e-01 0.0 
4.505061522060e-04 -4.222453595367e-02 0.0 
3.310142186017e-03 -1.351993171712e-01 0.0 
-6.467409009254e-05 -6.767924880864e-02 0.0 
3.314926873816e-06 -1.145587472435e-01 0.0 
-1.053243588419e-03 -1.759056431169e-01 0.0 
-1.577848969623e-03 -6.636648349125e-02 0.0 
2.004340683901e-03 -1.448691590683e-01 0.0 
8.234771765572e-04 -5.289571609894e-02 0.0 
3.215707379848e-03 -8.718035552062e-02 0.0 
9.410565889956e-04 -1.696068173486e-01 0.0 
1.301680026695e-03 -6.359080833029e-02 0.0 
-2.084254800371e-03 -1.427486078295e-01 0.0 
9.577745467351e-04 -7.300960737266e-02 0.0 
4.340155323071e-03 -1.454605675500e-01 0.0 
3.949961662022e-03 -1.145769451556e-01 0.0 
3.378933250655e-03 -9.676930261680e-02 0.0 
3.905066404043e-03 -1.248551484996e-01 0.0 
-6.404893261685e-04 -1.023388978487e-01 0.0 
-1.704622834525e-03 -7.369403591841e-02 0.0 
-8.459634343841e-04 -2.148753924253e-01 0.0 
4.791609604910e-03 -1.729749112675e-01 0.0 
1.942279207285e-03 -1.006657207940e-01 0.0 
2.162127267557e-03 -5.874510504777e-02 0.0 
5.689180751029e-04 -3.586731190052e-02 0.0 
4.674637541262e-03 -1.545775803009e-01 0.0 
-1.709008421643e-03 -7.526404518663e-02 0.0 
1.028320264946e-03 -4.781280207381e-02 0.0 
-2.796101903692e-03 -1.422289825157e-01 0.0 
-1.126478550449e-04 -1.858361740607e-01 0.0 
3.760536652251e-03 -2.155783207749e-01 0.0 
1.179711142085e-03 -1.893730319956e-01 0.0 
3.053968024303e-03 -1.425230368082e-01 0.0 
-2.632892428692e-03 -1.307790202009e-01 0.0 
1.025420593090e-03 -3.317237658472e-02 0.0 
-1.504233058814e-03 -6.809829021301e-02 0.0 
-1.358248622883e-03 -8.675758392278e-02 0.0 
1.913670399179e-03 -2.153705520026e-01 0.0 
3.438283930417e-03 -1.446857366516e-01 0.0 
-1.270713843548e-03 -6.080698361580e-02 0.0 
-5.346851170746e-04 -1.356357575960e-01 0.0 
5.538287759243e-04 -6.589320912422e-02 0.0 
-5.545433228600e-04 -1.334859718329e-01 0.0 
1.293004372538e-03 -3.204532166400e-02 0.0 
3.959464470637e-03 -1.653805073980e-01 0.0 
-1.021100924052e-03 -5.338201017628e-02 0.0 
-7.697846806953e-04 -8.588313209429e-02 0.0 
4.160268427821e-03 -1.834221056960e-01 0.0 
3.866806358420e-04 -1.366945132683e-01 0.0 
-6.666781619350e-04 -3.326408756422e-02 0.0 
-6.519666023461e-04 -6.852308779226e-02 0.0 
3.571097177189e-03 -1.120599748393e-01 0.0 
-1.133262653891e-03 -1.423882000995e-01 0.0 
3.427612675401e-03 -1.580895326324e-01 0.0 
-2.419413862003e-03 -1.249071946931e-01 0.0 
3.773842188615e-03 -1.069234265271e-01 0.0 
3.911734846313e-04 -1.526090586855e-02 0.0 
-3.350924421109e-04 -6.018649305117e-02 0.0 
2.756822482575e-03 -9.833615642881e-02 0.0 
-2.319706904570e-03 -1.311013563838e-01 0.0 
2.188461994986e-03 -1.027568794396e-01 0.0 
2.951599434040e-04 -1.934313884667e-01 0.0 
3.723679947834e-03 -1.552440072400e-01 0.0 
-2.029365525346e-03 -1.254943590903e-01 0.0 
1.725876577927e-04 -1.852523644660e-01 0.0 
-1.577044594119e-03 -1.364853011768e-01 0.0 
8.202265399078e-04 -3.686537894317e-02 0.0 
-1.715840908574e-03 -1.198090440362e-01 0.0 
1.438105001805e-04 -1.753653435912e-01 0.0 
-1.386461978490e-03 -1.140493301762e-01 0.0 
3.598832858967e-03 -1.673482534576e-01 0.0 
2.801347201245e-03 -9.226562249201e-02 0.0 
-1.034321380674e-03 -1.081877495866e-01 0.0 
3.415023313925e-03 -9.325427184779e-02 0.0 
3.034743339786e-04 -1.945741111943e-01 0.0 
3.210642751127e-03 -1.066656200303e-01 0.0 
-4.016693318743e-04 -5.614710715815e-02 0.0 
-3.305686747084e-03 -1.719302288859e-01 0.0 
-1.904053435967e-03 -1.304031719400e-01 0.0 
2.492350925012e-03 -7.781720102865e-02 0.0 
3.662392826143e-03 -1.759483725099e-01 0.0 
-1.726750302927e-03 -1.169584325430e-01 0.0 
2.988924975376e-03 -7.861372646839e-02 0.0 
2.799595176005e-03 -1.008788225887e-01 0.0 
2.769229731912e-03 -1.302059889117e-01 0.0 
-1.547444388724e-03 -1.023902872463e-01 0.0 
4.082201538718e-03 -1.749846459472e-01 0.0 
-2.569483189378e-03 -1.847590023031e-01 0.0 
-2.120097226050e-03 -1.901121173317e-01 0.0 
-6.642521317819e-04 -1.705149182602e-01 0.0 
2.713373492571e-03 -6.972622508423e-02 0.0 
-1.295180553095e-05 -1.904819304351e-01 0.0 
2.784542268346e-03 -8.019592450638e-02 0.0 
-1.311847841709e-03 -1.977797489800e-01 0.0 
-1.455662218449e-03 -1.755588303476e-01 0.0 
1.971158560544e-03 -7.760163046361e-02 0.0 
1.225994839580e-04 -1.048153675359e-01 0.0 
-2.034450990840e-03 -1.703207991025e-01 0.0 
-1.890012183403e-04 -1.809608006083e-01 0.0 
-2.642948464396e-03 -1.747224581684e-01 0.0 
2.479674707285e-03 -1.168936110803e-01 0.0 
-2.926557003142e-03 -1.693470046329e-01 0.0 
-3.248763248184e-03 -1.732543183552e-01 0.0 
3.193945303740e-04 -3.270116681963e-02 0.0 
-3.277666425541e-03 -1.681228894577e-01 0.0 
6.377703545191e-05 -1.576262811930e-02 0.0 
-1.298506724972e-04 -1.746505667053e-02 0.0 
1.453941782175e-04 -1.285805298907e-01 0.0 
3.581091330203e-03 -1.843004061831e-01 0.0 
7.088487194041e-04 -2.390966316088e-01 0.0 
4.188469025546e-03 -1.841292448335e-01 0.0 
-3.304461463817e-03 -1.796727679702e-01 0.0 
3.027577665749e-03 -8.286852201752e-02 0.0 
3.024824159563e-04 -1.280610149323e-01 0.0 
-3.027189390131e-03 -1.823014789439e-01 0.0 
1.253565643032e-03 -3.128996234605e-02 0.0 
5.981688689151e-04 -1.572953967363e-02 0.0 
2.141184284046e-04 -8.397826305379e-02 0.0 
2.198228355552e-04 -5.930923615743e-02 0.0 
2.342811728346e-03 -9.409657264574e-02 0.0 
6.450461205815e-05 -4.675536672903e-02 0.0 
8.974501662952e-04 -1.374947012767e-01 0.0 
1.413146312530e-03 -2.033339599146e-01 0.0 
-3.115732151378e-04 -9.487161922805e-02 0.0 
3.376383586732e-03 -1.919637693979e-01 0.0 
3.998937683389e-03 -1.942487954133e-01 0.0 
3.818776847100e-03 -2.030198979357e-01 0.0 
-8.328856212052e-04 -1.732390797146e-01 0.0 
-1.163001974991e-03 -2.091862497671e-01 0.0 
3.232158062325e-03 -1.985405850203e-01 0.0 
2.613628170620e-04 -3.394745728538e-02 0.0 
1.533716038027e-03 -1.280904544694e-01 0.0 
2.024887835116e-03 -7.004309205192e-02 0.0 
2.774169800744e-03 -2.063578555856e-01 0.0 
7.224829409705e-04 -3.179553759166e-02 0.0 
1.021211882671e-03 -3.338696677350e-02 0.0 
-4.383145631484e-04 -1.537379655019e-02 0.0 
1.550157536079e-03 -5.249205813601e-02 0.0 
3.430072410523e-03 -2.127124322379e-01 0.0 
2.239887197374e-03 -1.187176699472e-01 0.0 
1.327573905678e-03 -3.112603177492e-02 0.0 
2.891808056656e-04 -7.212172985933e-02 0.0 
-3.571552446719e-04 -1.473674182600e-02 0.0 
1.940954763337e-03 -1.293215075463e-01 0.0 
1.905677496849e-04 -3.054919223263e-02 0.0 
-1.804590292786e-03 -2.170804934503e-01 0.0 
1.115800757226e-04 -2.963484992519e-02 0.0 
2.578792960245e-03 -6.751387289612e-02 0.0 
6.412507580590e-04 -1.139413547893e-01 0.0 
2.677517897045e-03 -1.196457387108e-01 0.0 
-3.407484549187e-04 -3.031698323398e-02 0.0 
1.151200009395e-03 -3.131599402646e-02 0.0 
3.103452017596e-03 -2.189171791900e-01 0.0 
3.364705776901e-04 -8.541072195152e-02 0.0 
-1.344078605369e-03 -1.610886556718e-01 0.0 
-5.036734192135e-04 -2.311545331005e-01 0.0 
-8.347049514157e-04 -3.214157106342e-02 0.0 
2.058139566006e-03 -5.173878566866e-02 0.0 
-5.364114687201e-04 -3.097616393948e-02 0.0 
7.225962188934e-05 -1.927451881730e-01 0.0 
1.535195981900e-03 -1.999028300703e-01 0.0 
-6.490028028622e-04 -2.979307846450e-02 0.0 
1.247966339533e-03 -2.908140941177e-02 0.0 
-2.771649403854e-03 -2.101882519668e-01 0.0 
2.490157134345e-04 -1.287581368189e-02 0.0 
1.955148415012e-03 -2.259200244806e-01 0.0 
1.231932103802e-03 -1.386449851373e-01 0.0 
1.184313842720e-03 -1.971308282185e-01 0.0 
-3.215017536776e-04 -1.489019123575e-02 0.0 
4.233141662647e-04 -2.941147476719e-02 0.0 
-9.293412139205e-04 -1.529135062368e-01 0.0 
2.689398838097e-03 -1.365804245960e-01 0.0 
-4.802752596235e-04 -1.772111377651e-01 0.0 
1.673548147093e-03 -4.456180343306e-02 0.0 
2.224736447623e-05 -2.032280758647e-01 0.0 
3.061378853344e-04 -2.772563693061e-02 0.0 
-4.159620165137e-04 -2.908802497016e-02 0.0 
8.290242593050e-04 -2.817164494700e-02 0.0 
2.279541798447e-04 -1.245171582165e-02 0.0 
1.150579728395e-03 -2.340474818059e-01 0.0 
9.819490600678e-04 -2.848081057794e-02 0.0 
-2.861478299289e-04 -4.563857539413e-02 0.0 
6.615106521974e-04 -1.379132293671e-01 0.0 
1.004391582079e-03 -3.039928870531e-02 0.0 
-8.891753271613e-04 -1.675142624516e-01 0.0 
-1.354961178681e-04 -1.918863699282e-01 0.0 
2.279799042928e-05 -1.397105795553e-02 0.0 
2.506182761123e-04 -1.956945393602e-01 0.0 
1.157311300652e-04 -1.378768001020e-01 0.0 
-5.600305740557e-05 -1.424922705612e-02 0.0 
2.919064492587e-05 -1.913621482162e-01 0.0 
2.430908025452e-04 -1.201694801314e-01 0.0 
1.167146467653e-03 -2.786384687458e-02 0.0 
-2.270190398605e-04 -1.315639440029e-01 0.0 
1.328369476806e-04 -5.748259072045e-02 0.0 
-2.348051067183e-03 -2.091448774810e-01 0.0 
1.496808481702e-03 -2.382557225748e-01 0.0 
1.996849282794e-04 -9.820793549652e-02 0.0 
7.886183244705e-04 -3.011311605854e-02 0.0 
6.599612625063e-04 -2.676978421232e-02 0.0 
5.175661298653e-04 -1.070812150895e-01 0.0 
3.585345506429e-03 -2.186377199336e-01 0.0 
1.615500921820e-03 -3.930570701383e-02 0.0 
-9.723984570570e-04 -1.456945924865e-01 0.0 
1.768275263964e-03 -4.303083931117e-02 0.0 
1.939224293431e-04 -4.590011049049e-02 0.0 
-1.158372172518e-04 -2.264285804048e-01 0.0 
-2.169620834151e-04 -1.201324510946e-01 0.0 
1.390476151649e-03 -1.980977876026e-01 0.0 
-7.423355406051e-04 -2.848396170007e-02 0.0 
-6.330247386438e-04 -1.409921080828e-01 0.0 
-3.472586486764e-03 -2.180421857223e-01 0.0 
4.611899384022e-05 -1.931641973918e-01 0.0 
-3.553955675315e-04 -2.102616671585e-01 0.0 
2.602945777069e-06 -1.922047568401e-01 0.0 
1.205177669467e-03 -2.037325183755e-01 0.0 
4.250889939084e-05 -1.902793816958e-01 0.0 
2.080540975856e-03 -1.976772078060e-01 0.0 
1.513000353412e-05 -1.873924598707e-01 0.0 
2.624625048211e-03 -1.913720908088e-01 0.0 
5.748398689640e-05 -1.835445939357e-01 0.0 
2.924705140009e-03 -1.847395950139e-01 0.0 
3.080435733592e-05 -1.787363833355e-01 0.0 
3.043882612519e-03 -1.775267278765e-01 0.0 
7.271110723877e-05 -1.729667162328e-01 0.0 
3.036756031136e-03 -1.697882124783e-01 0.0 
4.440103552629e-05 -1.662352172184e-01 0.0 
2.931008490171e-03 -1.612587948714e-01 0.0 
8.672993180908e-05 -1.585393506657e-01 0.0 
2.734994086619e-03 -1.521170823033e-01 0.0 
5.646631468783e-05 -1.498823123219e-01 0.0 

VECTORS node_materi_displacement float
0.0 7.950910381591e-02 0.0 
0.0 6.326752397459e-02 0.0 
0.0 0.0 0.0 
0.0 0.0 0.0 
0.0 7.966590894057e-02 0.0 
0.0 7.930596688018e-02 0.0 
0.0 7.844658124786e-02 0.0 
0.0 7.709327257618e-02 0.0 
0.0 7.523374350604e-02 0.0 
0.0 7.291561585318e-02 0.0 
0.0 7.016385975274e-02 0.0 
0.0 6.699425830828e-02 0.0 
0.0 6.342781395221e-02 0.0 
0.0 5.947634201983e-02 0.0 
0.0 5.514294549572e-02 0.0 
0.0 5.043773183320e-02 0.0 
0.0 4.537216851016e-02 0.0 
0.0 3.996069782957e-02 0.0 
0.0 3.418038072683e-02 0.0 
0.0 2.804124794383e-02 0.0 
0.0 2.154821361380e-02 0.0 
0.0 1.470346082549e-02 0.0 
0.0 7.516719209474e-03 0.0 
0.0 0.0 0.0 
0.0 0.0 0.0 
0.0 0.0 0.0 
0.0 0.0 0.0 
0.0 0.0 0.0 
0.0 0.0 0.0 
0.0 0.0 0.0 
0.0 0.0 0.0 
0.0 0.0 0.0 
0.0 0.0 0.0 
0.0 0.0 0.0 
0.0 0.0 0.0 
0.0 0.0 0.0 
0.0 0.0 0.0 
0.0 0.0 0.0 
0.0 0.0 0.0 
0.0 0.0 0.0 
0.0 0.0 0.0 
0.0 0.0 0.0 
0.0 0.0 0.0 
0.0 0.0 0.0 
0.0 0.0 0.0 
0.0 0.0 0.0 
0.0 0.0 0.0 
0.0 0.0 0.0 
0.0 0.0 0.0 
0.0 0.0 0.0 
0.0 0.0 0.0 
0.0 0.0 0.0 
0.0 0.0 0.0 
0.0 0.0 0.0 
0.0 0.0 0.0 
0.0 0.0 0.0 
0.0 0.0 0.0 
0.0 0.0 0.0 
0.0 0.0 0.0 
0.0 0.0 0.0 
0.0 0.0 0.0 
0.0 0.0 0.0 
0.0 0.0 0.0 
0.0 0.0 0.0 
0.0 0.0 0.0 
0.0 0.0 0.0 
0.0 0.0 0.0 
0.0 0.0 0.0 
0.0 0.0 0.0 
0.0 0.0 0.0 
0.0 0.0 0.0 
0.0 0.0 0.0 
0.0 5.879440712440e-02 0.0 
0.0 5.389912091947e-02 0.0 
0.0 4.857913361929e-02 0.0 
0.0 4.285030432906e-02 0.0 
0.0 3.670577369195e-02 0.0 
0.0 3.015813592841e-02 0.0 
0.0 2.320927654443e-02 0.0 
0.0 1.586287679697e-02 0.0 
0.0 8.125472860823e-03 0.0 
-6.390263404398e-03 2.911043102481e-02 0.0 
0.0 8.404774606031e-02 0.0 
4.654251970623e-03 6.104987409438e-02 0.0 
-6.879168187128e-04 4.526677066242e-02 0.0 
2.703424502734e-03 5.493249626237e-02 0.0 
4.504817373253e-03 6.131848588378e-02 0.0 
5.240492638233e-03 6.523223679542e-02 0.0 
5.587734381626e-03 6.738310110244e-02 0.0 
5.701866402392e-03 6.814478227776e-02 0.0 
5.637321526369e-03 6.774712253844e-02 0.0 
5.427166853582e-03 6.635529287491e-02 0.0 
5.091410730869e-03 6.408842635962e-02 0.0 
0.0 8.393643838898e-02 0.0 
0.0 8.336849822810e-02 0.0 
0.0 8.240062977490e-02 0.0 
0.0 8.096840647394e-02 0.0 
0.0 7.913100058704e-02 0.0 
0.0 7.681762641794e-02 0.0 
0.0 7.409875744637e-02 0.0 
0.0 7.090705319102e-02 0.0 
0.0 6.731633920632e-02 0.0 
2.671443874942e-04 6.326498511343e-02 0.0 
5.219401839407e-04 6.325533251466e-02 0.0 
7.858860236227e-04 6.323691404145e-02 0.0 
1.054853311886e-03 6.320183018910e-02 0.0 
1.327128511031e-03 6.316475916310e-02 0.0 
1.606929413238e-03 6.310078817828e-02 0.0 
1.897589209514e-03 6.302559594895e-02 0.0 
2.191244437520e-03 6.292163466128e-02 0.0 
2.506004762315e-03 6.280193061142e-02 0.0 
2.833633251538e-03 6.263667499994e-02 0.0 
3.171572162210e-03 6.243264897633e-02 0.0 
3.523371803227e-03 6.218565201399e-02 0.0 
3.886610656784e-03 6.187874257920e-02 0.0 
4.262505199806e-03 6.150012237597e-02 0.0 
-3.892880950229e-03 1.879310595597e-02 0.0 
-5.528247760241e-04 1.485001560899e-02 0.0 
2.943351042230e-03 1.484033177119e-02 0.0 
6.621384911969e-03 1.896848589286e-02 0.0 
8.998880007517e-03 2.946834153334e-02 0.0 
9.937236793991e-03 4.130152738869e-02 0.0 
9.908595579029e-03 4.944568640342e-02 0.0 
9.429800108248e-03 5.583551910711e-02 0.0 
8.467649386293e-03 6.097193483573e-02 0.0 
7.566738860727e-03 6.510062601845e-02 0.0 
6.739377730982e-03 6.846320042380e-02 0.0 
5.899057010830e-03 7.113761709874e-02 0.0 
5.148706357405e-03 7.333781848852e-02 0.0 
4.315815277620e-03 7.512019225322e-02 0.0 
3.534654921127e-03 7.654531306348e-02 0.0 
2.816427603379e-03 7.764110472272e-02 0.0 
2.128640502793e-03 7.848007061135e-02 0.0 
1.452573362966e-03 7.908493190190e-02 0.0 
7.331256395304e-04 7.941624841845e-02 0.0 
-7.830205774705e-03 4.137392767388e-02 0.0 
-7.393341418424e-03 4.923062818252e-02 0.0 
-7.053617874261e-03 5.549029305780e-02 0.0 
-6.310357811266e-03 6.063684363861e-02 0.0 
-5.404600564849e-03 6.476340499800e-02 0.0 
-4.668408081919e-03 6.811188813975e-02 0.0 
-3.971408990927e-03 7.085605689640e-02 0.0 
-3.327381401570e-03 7.312394251446e-02 0.0 
-2.748401446935e-03 7.501232020600e-02 0.0 
-2.234029792420e-03 7.659150879083e-02 0.0 
-1.782063479411e-03 7.791640460293e-02 0.0 
-1.385097929672e-03 7.902908863627e-02 0.0 
-1.039791246189e-03 7.996246081901e-02 0.0 
-7.425434327259e-04 8.074316531520e-02 0.0 
-4.905054811805e-04 8.139382925678e-02 0.0 
-2.817661341852e-04 8.193410836846e-02 0.0 
-1.156096114246e-04 8.238095929040e-02 0.0 
1.487961219618e-05 8.274904586419e-02 0.0 
1.198142090957e-04 8.305037566909e-02 0.0 
1.991880118635e-04 8.329437777922e-02 0.0 
2.542355021491e-04 8.348999346591e-02 0.0 
2.868385663163e-04 8.364508184987e-02 0.0 
2.992253046274e-04 8.376636227689e-02 0.0 
2.937742973925e-04 8.385946129991e-02 0.0 
2.728147226382e-04 8.392900544686e-02 0.0 
2.382950726267e-04 8.397882180656e-02 0.0 
1.911026239733e-04 8.401250212415e-02 0.0 
1.294993371399e-04 8.403542417473e-02 0.0 
3.461327723248e-05 8.404726223664e-02 0.0 
8.713688858546e-05 8.388976718366e-02 0.0 
1.650581165303e-04 8.385731767112e-02 0.0 
2.284267287155e-04 8.383715724983e-02 0.0 
2.878746277757e-04 8.380764302861e-02 0.0 
3.413622139491e-04 8.376376324849e-02 0.0 
3.864428341384e-04 8.370210212581e-02 0.0 
4.211541326351e-04 8.361904507406e-02 0.0 
4.438152449639e-04 8.351024827573e-02 0.0 
4.529307621049e-04 8.337044250357e-02 0.0 
4.471673897928e-04 8.319334412176e-02 0.0 
4.253441966957e-04 8.297160975343e-02 0.0 
3.863777435808e-04 8.269686390484e-02 0.0 
3.290866116293e-04 8.235996996018e-02 0.0 
2.517492090517e-04 8.195189682998e-02 0.0 
1.525252174076e-04 8.145878310952e-02 0.0 
3.063784306108e-05 8.086375667752e-02 0.0 
-1.136264810694e-04 8.014897170590e-02 0.0 
-2.796992483223e-04 7.929383459303e-02 0.0 
-4.661785058853e-04 7.827404875772e-02 0.0 
-6.701872500289e-04 7.706005075705e-02 0.0 
-8.873636910611e-04 7.561492381301e-02 0.0 
-1.109824389386e-03 7.389005928262e-02 0.0 
-1.325339795856e-03 7.182274719759e-02 0.0 
-1.513873213603e-03 6.933234289638e-02 0.0 
-1.653762078927e-03 6.630768916290e-02 0.0 
-1.704752127366e-03 6.261678406622e-02 0.0 
-1.599122671915e-03 5.799445844587e-02 0.0 
-1.355505804614e-03 5.230361466434e-02 0.0 
2.069481613752e-03 6.009984033809e-02 0.0 
1.600487707361e-03 6.426849108439e-02 0.0 
1.238806452051e-03 6.763337544221e-02 0.0 
9.985689958980e-04 7.039320599804e-02 0.0 
8.556329349465e-04 7.267282392377e-02 0.0 
7.775761621788e-04 7.456273712627e-02 0.0 
7.450980119655e-04 7.613572427256e-02 0.0 
7.408766396850e-04 7.744820568222e-02 0.0 
7.529144050569e-04 7.854443710454e-02 0.0 
7.717534743860e-04 7.945896677757e-02 0.0 
7.909443355039e-04 8.021973892035e-02 0.0 
8.059560332865e-04 8.085013519670e-02 0.0 
8.138899967434e-04 8.137009807838e-02 0.0 
8.130577737303e-04 8.179754978059e-02 0.0 
8.023737265091e-04 8.214771873416e-02 0.0 
7.811594000396e-04 8.243206548112e-02 0.0 
7.496006395727e-04 8.266040477909e-02 0.0 
7.080871818089e-04 8.284167195234e-02 0.0 
6.571452362697e-04 8.298378033298e-02 0.0 
5.974634547686e-04 8.309357029321e-02 0.0 
5.299169665727e-04 8.317685258865e-02 0.0 
4.555909355950e-04 8.323853251941e-02 0.0 
3.758189302994e-04 8.328288330137e-02 0.0 
2.922416298576e-04 8.331425586226e-02 0.0 
2.068787886215e-04 8.333977380869e-02 0.0 
1.226973807760e-04 8.338760940842e-02 0.0 
3.831552670711e-03 6.498115539489e-02 0.0 
3.301470643222e-03 6.798241547031e-02 0.0 
2.876201838185e-03 7.046709070448e-02 0.0 
2.537088594978e-03 7.254515030797e-02 0.0 
2.271779567387e-03 7.427570087888e-02 0.0 
2.064965769107e-03 7.572508839772e-02 0.0 
1.903227968609e-03 7.693622782775e-02 0.0 
1.773302595444e-03 7.794945554443e-02 0.0 
1.664603416229e-03 7.879472672342e-02 0.0 
1.569780114603e-03 7.949810053119e-02 0.0 
1.483266767823e-03 8.008088305164e-02 0.0 
1.401153454715e-03 8.056177638391e-02 0.0 
1.320399405627e-03 8.095685095795e-02 0.0 
1.238624434533e-03 8.127966196650e-02 0.0 
1.154339729625e-03 8.154128587709e-02 0.0 
1.066757204567e-03 8.175117617814e-02 0.0 
9.754696280423e-04 8.191768354633e-02 0.0 
8.803256190384e-04 8.204814248354e-02 0.0 
7.813864519834e-04 8.214891086621e-02 0.0 
6.789136345006e-04 8.222544404595e-02 0.0 
5.733586566561e-04 8.228242593208e-02 0.0 
4.653248662715e-04 8.232399544968e-02 0.0 
3.553507500164e-04 8.235405764211e-02 0.0 
2.428249675566e-04 8.237532578630e-02 0.0 
1.228156843515e-04 8.236673674438e-02 0.0 
1.475141347502e-04 8.099588774835e-02 0.0 
2.930365224196e-04 8.096504129225e-02 0.0 
4.361438241545e-04 8.094317091562e-02 0.0 
5.780599271595e-04 8.091260346559e-02 0.0 
7.193903393046e-04 8.086965697167e-02 0.0 
8.603578107554e-04 8.081055726406e-02 0.0 
1.001079784328e-03 8.073097042074e-02 0.0 
1.141721876256e-03 8.062582542084e-02 0.0 
1.282606827810e-03 8.048915573937e-02 0.0 
1.424268962457e-03 8.031399760267e-02 0.0 
1.567517788822e-03 8.009228345485e-02 0.0 
1.713535728523e-03 7.981471290008e-02 0.0 
1.864069362567e-03 7.947044745117e-02 0.0 
2.021704308323e-03 7.904670683519e-02 0.0 
2.189704598759e-03 7.852829751714e-02 0.0 
2.372310250302e-03 7.789747663382e-02 0.0 
2.574368780149e-03 7.713317263630e-02 0.0 
2.803007186184e-03 7.621154697450e-02 0.0 
3.065164215113e-03 7.510239104337e-02 0.0 
3.372674120383e-03 7.377329789898e-02 0.0 
3.732058841172e-03 7.217640324158e-02 0.0 
4.162848407084e-03 7.027508446299e-02 0.0 
4.648681175018e-03 6.799092668651e-02 0.0 
5.084325136395e-03 6.940347614652e-02 0.0 
4.647486329005e-03 7.111358898691e-02 0.0 
4.238766963849e-03 7.253750143335e-02 0.0 
3.877292681498e-03 7.374347222159e-02 0.0 
3.550716670654e-03 7.474850208358e-02 0.0 
3.256952375677e-03 7.559023587429e-02 0.0 
2.988936824393e-03 7.628857280848e-02 0.0 
2.742832125483e-03 7.686719361396e-02 0.0 
2.514200533161e-03 7.734320883120e-02 0.0 
2.299592464269e-03 7.773289572146e-02 0.0 
2.095913279964e-03 7.804958889217e-02 0.0 
1.900920047971e-03 7.830517125423e-02 0.0 
1.712835605170e-03 7.850957761888e-02 0.0 
1.530241037813e-03 7.867135228938e-02 0.0 
1.352026941797e-03 7.879790108886e-02 0.0 
1.177332248161e-03 7.889559680450e-02 0.0 
1.005522318736e-03 7.896991161586e-02 0.0 
8.360212887314e-04 7.902538958920e-02 0.0 
6.682306285468e-04 7.906579418917e-02 0.0 
5.013939996625e-04 7.909408552334e-02 0.0 
3.345613789755e-04 7.911118552232e-02 0.0 
1.672941077217e-04 7.909752456447e-02 0.0 
1.951749096485e-04 7.684501446057e-02 0.0 
3.901689550370e-04 7.681597446621e-02 0.0 
5.859111161555e-04 7.679632597721e-02 0.0 
7.833280907446e-04 7.676668566390e-02 0.0 
9.834770242566e-04 7.672391111761e-02 0.0 
1.187372573414e-03 7.666491520473e-02 0.0 
1.396032034618e-03 7.658576853246e-02 0.0 
1.610336287050e-03 7.648170705514e-02 0.0 
1.831270405560e-03 7.634667528535e-02 0.0 
2.060113278480e-03 7.617364737139e-02 0.0 
2.298425900153e-03 7.595441029770e-02 0.0 
2.547909667174e-03 7.567958189409e-02 0.0 
2.810453990589e-03 7.533820599942e-02 0.0 
3.088140322684e-03 7.491663945015e-02 0.0 
3.384677768929e-03 7.440038350904e-02 0.0 
3.702175953483e-03 7.377131038624e-02 0.0 
4.046088351144e-03 7.301256860595e-02 0.0 
4.414668678055e-03 7.209511655279e-02 0.0 
4.819024160914e-03 7.100676113184e-02 0.0 
5.238859190090e-03 6.969420546907e-02 0.0 
5.217118791336e-03 6.888041935993e-02 0.0 
4.824904725058e-03 6.985131671453e-02 0.0 
4.435828335928e-03 7.065046005433e-02 0.0 
4.073077926942e-03 7.132988450948e-02 0.0 
3.729081131104e-03 7.188923007034e-02 0.0 
3.405707676802e-03 7.235327711388e-02 0.0 
3.098496192384e-03 7.273120893639e-02 0.0 
2.806634063578e-03 7.303924929211e-02 0.0 
2.528546990830e-03 7.328842256884e-02 0.0 
2.262929901860e-03 7.348806620814e-02 0.0 
2.008264198903e-03 7.364621297171e-02 0.0 
1.762710629532e-03 7.377013110092e-02 0.0 
1.525368894938e-03 7.386640883209e-02 0.0 
1.295284942893e-03 7.394042365444e-02 0.0 
1.071287598618e-03 7.399593564298e-02 0.0 
8.521166103835e-04 7.403635243361e-02 0.0 
6.366905187190e-04 7.406421232996e-02 0.0 
4.235531764575e-04 7.408027950898e-02 0.0 
2.115620354986e-04 7.406594956701e-02 0.0 
2.361971575589e-04 7.093296540940e-02 0.0 
4.726793833870e-04 7.090525647893e-02 0.0 
7.103742235636e-04 7.088668466774e-02 0.0 
9.520791560462e-04 7.085651663462e-02 0.0 
1.198315197982e-03 7.081325977268e-02 0.0 
1.451236941277e-03 7.075339775934e-02 0.0 
1.711783514476e-03 7.067378585716e-02 0.0 
1.982259886134e-03 7.057042784139e-02 0.0 
2.262101984947e-03 7.043845356370e-02 0.0 
2.553825591060e-03 7.026842209878e-02 0.0 
2.859386746642e-03 7.005344819200e-02 0.0 
3.179190052478e-03 6.978577855625e-02 0.0 
3.514605268580e-03 6.945467615905e-02 0.0 
3.867197005747e-03 6.904940308446e-02 0.0 
4.233617950896e-03 6.854674068496e-02 0.0 
4.624750638851e-03 6.794743583888e-02 0.0 
5.016149695068e-03 6.721325589467e-02 0.0 
4.706898420750e-03 6.469949774408e-02 0.0 
4.337639714849e-03 6.523385475526e-02 0.0 
3.964099176956e-03 6.565370263192e-02 0.0 
3.609038178018e-03 6.600694733836e-02 0.0 
3.269176354322e-03 6.629571134130e-02 0.0 
2.942578134960e-03 6.653028039498e-02 0.0 
2.629805510867e-03 6.672184534608e-02 0.0 
2.330772126240e-03 6.687329477008e-02 0.0 
2.041701030354e-03 6.698878784449e-02 0.0 
1.764935983902e-03 6.708482058510e-02 0.0 
1.496150894306e-03 6.715701565291e-02 0.0 
1.236745925623e-03 6.721347498743e-02 0.0 
9.819143489183e-04 6.725237307795e-02 0.0 
7.335445248105e-04 6.728180521491e-02 0.0 
4.892804287358e-04 6.729575671896e-02 0.0 
2.422346297996e-04 6.727866155372e-02 0.0 
-2.999450714507e-03 3.841309954879e-02 0.0 
1.237544472087e-03 5.053653772677e-02 0.0 
3.778645788471e-03 5.847462557921e-02 0.0 
4.966121032892e-03 6.353521796467e-02 0.0 
5.461996869980e-03 6.650124359158e-02 0.0 
5.674003575445e-03 6.791521625811e-02 0.0 
5.694817888791e-03 6.807686386091e-02 0.0 
5.554409857493e-03 6.716739432515e-02 0.0 
5.279861995074e-03 6.532492078329e-02 0.0 
4.889958057287e-03 6.266033449714e-02 0.0 
4.586037856991e-03 5.033741793446e-02 0.0 
-1.121023679817e-05 5.682938152036e-03 0.0 
4.524521461318e-03 6.323023254828e-02 0.0 
2.225693589438e-03 2.599919272918e-02 0.0 
-6.361585877434e-04 5.933878431124e-03 0.0 
6.290253824776e-03 6.236611958227e-02 0.0 
-5.776441573631e-04 5.720554087436e-02 0.0 
6.522481785085e-04 5.774056136477e-03 0.0 
6.379197473789e-03 6.573117902426e-02 0.0 
1.071086145942e-03 5.891391485991e-03 0.0 
5.918612130947e-03 6.422323647235e-02 0.0 
-6.396880607012e-04 5.746385146623e-03 0.0 
3.175658535570e-03 7.458173560129e-02 0.0 
1.184599730994e-03 6.318168287769e-03 0.0 
5.015350789553e-03 5.891140781424e-02 0.0 
-4.265503466963e-04 7.142000906858e-02 0.0 
-5.423286782788e-04 4.376390723042e-02 0.0 
1.127752915843e-03 6.826921267458e-03 0.0 
8.278396269393e-04 6.727739098387e-03 0.0 
2.745994983052e-04 6.954083216708e-03 0.0 
4.819435199795e-04 7.510718956564e-03 0.0 
6.176016084894e-04 6.669895948743e-03 0.0 
4.116930430478e-03 5.783578462135e-02 0.0 
2.713066371481e-03 5.872130492975e-02 0.0 
1.783352149118e-03 5.895067655822e-02 0.0 
1.855550826851e-04 3.973617333408e-02 0.0 
-4.998353222341e-04 6.417794787664e-03 0.0 
5.021656724852e-04 1.986413055054e-02 0.0 
1.736388031703e-03 7.820390264572e-02 0.0 
-3.619255316226e-04 2.531330638735e-02 0.0 
9.136984081720e-04 5.940461870770e-02 0.0 
-6.687254903536e-05 7.776113559459e-02 0.0 
1.103801782660e-03 7.652676146927e-03 0.0 
8.388624880357e-04 5.363003740628e-03 0.0 
1.150627804359e-03 6.017897584114e-03 0.0 
3.704704871210e-04 6.034390931120e-03 0.0 
-3.137024670123e-04 5.466035092851e-03 0.0 
3.776225013219e-03 4.553373729848e-02 0.0 
3.389838573028e-03 5.860899504327e-02 0.0 
-8.199081903912e-04 6.954027547236e-03 0.0 
1.367272233485e-04 2.703148467339e-02 0.0 
3.997071638002e-03 6.996875537145e-02 0.0 
-5.501212812574e-04 6.517961696553e-02 0.0 
1.350362560778e-04 5.674620250633e-03 0.0 
6.452842858022e-03 6.461045122859e-02 0.0 
5.886070591907e-03 5.782698536424e-02 0.0 
6.210547521755e-03 6.551027060626e-02 0.0 
5.515203263955e-03 6.198891020028e-02 0.0 
1.687139686332e-03 3.871507002116e-02 0.0 
2.198130325195e-04 5.065617375455e-02 0.0 
-2.388870893819e-04 5.143135407032e-03 0.0 
7.947407476273e-04 7.940939441089e-02 0.0 
7.487852501203e-05 1.263139306728e-02 0.0 
4.783888454364e-03 5.698662774838e-02 0.0 
5.041270882467e-03 5.477066426321e-02 0.0 
4.660670185339e-03 5.304786039685e-02 0.0 
4.951277565523e-03 5.031856294091e-02 0.0 
4.570291038415e-03 4.795643918602e-02 0.0 
4.766526756282e-03 4.538300034248e-02 0.0 
5.174746418191e-03 4.774206535350e-02 0.0 
4.915222268498e-03 4.273496108590e-02 0.0 
5.344443496949e-03 4.513468218672e-02 0.0 
4.346062062634e-03 4.276673234571e-02 0.0 
5.005190405609e-03 4.001943131826e-02 0.0 
5.450585126718e-03 4.245499370258e-02 0.0 
5.030102130055e-03 3.725681131187e-02 0.0 
5.482960938934e-03 3.971374416383e-02 0.0 
5.870754595181e-03 4.466536664982e-02 0.0 
5.906742539382e-03 4.195846349734e-02 0.0 
6.259924552570e-03 4.662376242492e-02 0.0 
6.292655914355e-03 4.393683519620e-02 0.0 
5.856382912679e-03 3.922371094387e-02 0.0 
6.228755721951e-03 4.123138915034e-02 0.0 
6.636836452786e-03 4.564401890356e-02 0.0 
6.549043925653e-03 4.295908691386e-02 0.0 
6.933884501435e-03 4.705827256377e-02 0.0 
6.810270039246e-03 4.437836541411e-02 0.0 
7.181549464591e-03 4.817100330906e-02 0.0 
7.009195703140e-03 4.549530809846e-02 0.0 
6.560018739790e-03 4.171958652409e-02 0.0 
6.696700947471e-03 4.287056171893e-02 0.0 
7.137713586595e-03 4.629033879380e-02 0.0 
6.746906895487e-03 4.370671388885e-02 0.0 
7.186938938743e-03 4.675239723374e-02 0.0 
6.698981551326e-03 4.422087524212e-02 0.0 
6.210042218298e-03 4.122487014988e-02 0.0 
6.056315959774e-03 4.184018838095e-02 0.0 
6.539373280578e-03 4.441677154721e-02 0.0 
5.774836120764e-03 4.217263677174e-02 0.0 
6.251266506420e-03 4.429992290723e-02 0.0 
5.349257067452e-03 4.224101971962e-02 0.0 
5.815092183589e-03 4.388354779353e-02 0.0 
4.756207172042e-03 4.207818223532e-02 0.0 
4.329546757682e-03 4.045059682068e-02 0.0 
3.601449261239e-03 4.060464941182e-02 0.0 
3.978519014832e-03 4.174123056627e-02 0.0 
2.698951407481e-03 4.068079831832e-02 0.0 
2.424053059441e-03 3.945071466666e-02 0.0 
1.446270713318e-03 3.997653935367e-02 0.0 
1.284365607408e-03 3.856155024375e-02 0.0 
2.820778082861e-04 3.954092059055e-02 0.0 
3.413677172035e-04 4.059207610835e-02 0.0 
-8.035525430244e-04 4.066010459024e-02 0.0 
-7.472912863228e-04 3.927255876583e-02 0.0 
-1.770882214526e-03 4.086077676510e-02 0.0 
-1.931290762016e-03 4.203169074244e-02 0.0 
-2.776530055769e-03 4.268133827818e-02 0.0 
-2.540571115879e-03 4.106399996771e-02 0.0 
-3.410959202596e-03 4.327220131834e-02 0.0 
-3.704681493905e-03 4.480381373722e-02 0.0 
-4.166379835957e-03 4.572117325608e-02 0.0 
-3.840236246368e-03 4.367814161177e-02 0.0 
-4.436019989633e-03 4.640647419040e-02 0.0 
-4.756683893635e-03 4.843411278760e-02 0.0 
-4.853385102273e-03 4.929425833575e-02 0.0 
-4.537649523209e-03 4.678149174246e-02 0.0 
-4.808776807275e-03 4.982668883392e-02 0.0 
-4.502600411512e-03 4.685821124821e-02 0.0 
-5.068854346363e-03 5.238732203460e-02 0.0 
-4.889353465301e-03 5.296512118220e-02 0.0 
-5.058321653413e-03 5.559826977340e-02 0.0 
-4.773741413893e-03 5.614656214021e-02 0.0 
5.545906591369e-03 3.886927816116e-02 0.0 
-4.822288047540e-03 5.879967473766e-02 0.0 
-5.115617307400e-03 5.782829270904e-02 0.0 
-4.471608947529e-03 5.929924614157e-02 0.0 
-4.419920966270e-03 5.630694242419e-02 0.0 
-4.385448743162e-03 6.195131773962e-02 0.0 
-4.009328903010e-03 6.236072945356e-02 0.0 
-3.788688511070e-03 6.497502688085e-02 0.0 
6.729307490016e-03 4.608479230748e-02 0.0 
5.713317898850e-03 3.647114897334e-02 0.0 
-3.426679009020e-03 6.526870769090e-02 0.0 
-3.088258190628e-03 6.779982429069e-02 0.0 
-3.355506628847e-03 6.725347874003e-02 0.0 
-2.531660172691e-03 6.997094912652e-02 0.0 
4.174591448528e-03 4.545050629922e-02 0.0 
3.908913002428e-03 3.995352213352e-02 0.0 
3.765079402222e-03 4.273889105172e-02 0.0 
3.460329149196e-03 3.697774218100e-02 0.0 
3.343987104196e-03 3.981035329481e-02 0.0 
-2.347861627048e-03 7.036973642254e-02 0.0 
4.546628952337e-03 3.444027835107e-02 0.0 
3.530663111625e-03 3.403861219366e-02 0.0 
6.934517498471e-03 4.973909378161e-02 0.0 
7.501075768124e-03 4.939908871083e-02 0.0 
2.166181032357e-03 3.763961008890e-02 0.0 
-3.589274439114e-03 6.238453599043e-02 0.0 
-3.020643813279e-03 6.519598524449e-02 0.0 
-3.125719309061e-03 6.205490138375e-02 0.0 
-4.197631551794e-03 4.381095614773e-02 0.0 
-4.166995030662e-03 4.347286053417e-02 0.0 
-3.844098971459e-03 4.038761108265e-02 0.0 
-3.810295730172e-03 3.965905337693e-02 0.0 
-3.479856561943e-03 3.651042022842e-02 0.0 
-3.433881830241e-03 3.540829354088e-02 0.0 
-3.666790011634e-03 3.867333224359e-02 0.0 
-3.282587362289e-03 3.406362447948e-02 0.0 
-3.430621720848e-03 3.742833217698e-02 0.0 
-3.100284255255e-03 3.217900691546e-02 0.0 
-3.052299346156e-03 3.342087790614e-02 0.0 
-3.043316302615e-03 3.248207099767e-02 0.0 
-3.118547599786e-03 3.592750057106e-02 0.0 
-2.733521929481e-03 3.066551580039e-02 0.0 
-2.747756692334e-03 3.418242735665e-02 0.0 
-3.084777884004e-03 3.935329023778e-02 0.0 
-2.656282049482e-03 3.766080072404e-02 0.0 
-2.941182617507e-03 4.273278673061e-02 0.0 
1.129122263925e-03 3.655294541065e-02 0.0 
1.918690165285e-03 3.526002532267e-02 0.0 
9.762896482209e-04 3.397053529832e-02 0.0 
1.672010185058e-03 3.232830244483e-02 0.0 
8.228170315618e-04 3.082947817750e-02 0.0 
1.423255902319e-03 2.885789990975e-02 0.0 
6.689205772689e-04 2.714148235232e-02 0.0 
6.237800049471e-05 2.937429436754e-02 0.0 
4.985277989775e-03 3.442322431514e-02 0.0 
2.994977950948e-03 4.131081647621e-02 0.0 
4.379606564789e-03 4.231793046035e-02 0.0 
3.321347855082e-03 4.131683756081e-02 0.0 
4.806258094880e-03 4.232342187503e-02 0.0 
3.682192261808e-03 4.066627576000e-02 0.0 
5.266027279250e-03 4.175257928454e-02 0.0 
4.095498370945e-03 3.932256260622e-02 0.0 
2.275035087405e-03 3.907063261330e-02 0.0 
2.573920355256e-03 3.692694829219e-02 0.0 
5.982904525509e-04 3.782465606660e-02 0.0 
7.377447988420e-04 3.499802537744e-02 0.0 
-1.232163374919e-03 3.727661725378e-02 0.0 
6.186446771920e-03 3.910979366224e-02 0.0 
2.246262350781e-03 3.061837403786e-02 0.0 
1.903826233291e-03 2.679940979402e-02 0.0 
2.684489743116e-03 2.879150240920e-02 0.0 
-2.652684408480e-03 6.919102702071e-02 0.0 
-2.335542287721e-03 3.220443273488e-02 0.0 
-2.686175060076e-03 2.898761860750e-02 0.0 
-2.558346801081e-03 3.043199207480e-02 0.0 
7.207080139430e-06 2.543117484340e-02 0.0 
-1.717393868655e-03 7.237736911599e-02 0.0 
5.757416599983e-03 4.061715712458e-02 0.0 
6.606840162340e-03 4.367866565254e-02 0.0 
3.009199392816e-03 3.378231797240e-02 0.0 
2.922639103335e-03 3.669035990752e-02 0.0 
-2.217036629307e-03 2.583928910590e-02 0.0 
-1.629505129657e-03 7.264947543807e-02 0.0 
-2.865604726812e-03 2.903361922713e-02 0.0 
2.898991497964e-03 3.387181313145e-02 0.0 
-2.196980581336e-03 3.573478705855e-02 0.0 
-1.899369677886e-03 3.001400450423e-02 0.0 
-3.783906648341e-03 4.194667889810e-02 0.0 
2.251328362935e-03 2.461145372920e-02 0.0 
2.987365141323e-03 2.687241725842e-02 0.0 
-1.140514141472e-03 3.955939809450e-02 0.0 
-2.786390888949e-03 4.018330153911e-02 0.0 
-3.010907691912e-03 3.778804577379e-02 0.0 
-4.206389985110e-03 4.199710856291e-02 0.0 
-3.905950966917e-03 4.333483756455e-02 0.0 
-4.927566134948e-03 4.574360170174e-02 0.0 
-5.051876897838e-03 4.474607381895e-02 0.0 
-5.421957350905e-03 4.898292124747e-02 0.0 
-5.325048046401e-03 4.917715543527e-02 0.0 
-5.497041905312e-03 5.261916625248e-02 0.0 
-5.203058813122e-03 5.285173085862e-02 0.0 
-5.108204843427e-03 5.642452337491e-02 0.0 
-1.975431072940e-03 2.635825417090e-02 0.0 
9.091227056158e-04 3.126567532990e-02 0.0 
6.137980558169e-03 4.926218620210e-02 0.0 
-2.291583046375e-03 2.407720453497e-02 0.0 
5.217101593303e-04 2.297158239632e-02 0.0 
2.562875905108e-03 3.040275050062e-02 0.0 
2.506129237799e-03 3.339067503744e-02 0.0 
2.797860681002e-03 3.955442362992e-02 0.0 
2.408841864169e-03 3.631768928792e-02 0.0 
2.100150182811e-03 2.991331391466e-02 0.0 
2.030678432456e-03 3.292248866747e-02 0.0 
2.276806998210e-03 3.918243837823e-02 0.0 
1.924958865728e-03 3.586237170080e-02 0.0 
2.115738115175e-03 4.196887582297e-02 0.0 
1.788797088370e-03 3.872452051389e-02 0.0 
1.588503089202e-03 3.238686346400e-02 0.0 
1.475802716732e-03 3.533563099257e-02 0.0 
1.627387436920e-03 4.151002524030e-02 0.0 
1.335010070544e-03 3.820578225484e-02 0.0 
1.444411046421e-03 4.420989402171e-02 0.0 
1.170529198023e-03 4.099191217840e-02 0.0 
1.060772403387e-03 3.476236870355e-02 0.0 
-1.013537142970e-03 7.436475506043e-02 0.0 
-5.871040930861e-04 2.791793641323e-02 0.0 
-5.429918422774e-04 2.368536788174e-02 0.0 
-2.587883130913e-03 6.474881850782e-02 0.0 
-2.640145897062e-03 6.136227522375e-02 0.0 
-3.126053750364e-03 5.854147723109e-02 0.0 
-2.598685376612e-03 5.764372362225e-02 0.0 
9.123027048387e-04 3.766773315462e-02 0.0 
8.052507995472e-04 3.118881059337e-02 0.0 
7.026617021788e-03 4.298777543335e-02 0.0 
7.536268819187e-03 4.640392820783e-02 0.0 
2.572822014592e-03 2.735443632194e-02 0.0 
-1.722656662940e-03 3.359457242823e-02 0.0 
-1.960187361721e-03 3.918484693727e-02 0.0 
7.557512329139e-03 4.947782346645e-02 0.0 
7.766824655478e-03 5.220218566782e-02 0.0 
7.837386423071e-03 5.191554381418e-02 0.0 
7.913778118773e-03 5.477693636868e-02 0.0 
7.777614263887e-03 5.498626089524e-02 0.0 
7.997900190117e-03 5.412821006223e-02 0.0 
-2.881576815615e-03 3.452886783932e-02 0.0 
1.272710050988e-03 2.876648224289e-02 0.0 
-3.578963218216e-03 6.629129537145e-02 0.0 
-2.704961753876e-03 6.800674065740e-02 0.0 
-1.456963596032e-03 2.763182706491e-02 0.0 
-6.252793816405e-04 3.160222674378e-02 0.0 
6.030568610482e-03 3.759683567716e-02 0.0 
5.607683939459e-03 3.496931146807e-02 0.0 
5.419804846424e-03 3.309088439932e-02 0.0 
4.958043977061e-03 3.043295868518e-02 0.0 
4.723852925582e-03 2.818782749652e-02 0.0 
4.232090745760e-03 2.548359466175e-02 0.0 
4.417844188822e-03 2.782313203169e-02 0.0 
2.454579635575e-03 2.223493817335e-02 0.0 
3.680113868421e-03 2.280022585557e-02 0.0 
1.003483715638e-03 4.374181409346e-02 0.0 
3.104104621683e-03 3.249782415722e-02 0.0 
-5.481396078334e-03 5.210354286221e-02 0.0 
-9.106156996333e-04 7.385730142097e-02 0.0 
-4.172714523180e-03 5.709100684658e-02 0.0 
-9.978468598308e-04 7.458605846157e-02 0.0 
-1.454483109198e-03 7.258289519150e-02 0.0 
-1.844467864653e-03 2.077702994311e-02 0.0 
3.932971618596e-03 2.287245720407e-02 0.0 
4.391231684922e-03 2.567485299932e-02 0.0 
7.767835619518e-03 5.766556182677e-02 0.0 
7.603394257688e-03 5.776156902624e-02 0.0 
1.793260331431e-03 1.991920456904e-02 0.0 
3.582133186658e-03 4.550165874410e-02 0.0 
2.451589661643e-03 4.506361530880e-02 0.0 
2.243522806912e-03 4.768524535442e-02 0.0 
-3.718903329741e-04 7.614111273828e-02 0.0 
-4.107200712600e-03 5.291048409103e-02 0.0 
1.711691237516e-03 2.627718136705e-02 0.0 
7.185146281878e-03 4.631963761189e-02 0.0 
7.834067161037e-03 4.920193628845e-02 0.0 
2.970950474874e-03 3.021641610207e-02 0.0 
1.152411634317e-03 2.709152843450e-02 0.0 
6.784304945559e-04 3.411387123665e-02 0.0 
5.824126906212e-04 2.747719049488e-02 0.0 
-3.039037333022e-03 5.467975508508e-02 0.0 
-2.497778961901e-03 5.352796273361e-02 0.0 
-1.716749381808e-03 2.269914225350e-02 0.0 
-4.157846253602e-03 6.032593244179e-02 0.0 
6.677581345726e-04 2.432602357701e-02 0.0 
-1.239424183246e-03 3.040062130944e-02 0.0 
-1.366264761054e-03 3.386667826503e-02 0.0 
-2.085071870190e-03 6.046120731706e-02 0.0 
7.714196681514e-03 4.626252261344e-02 0.0 
7.158246266494e-03 4.203425823112e-02 0.0 
-5.095776959932e-03 4.897632281734e-02 0.0 
-4.912235486631e-03 5.922649899614e-02 0.0 
-8.918479020139e-04 7.443985434417e-02 0.0 
-1.383178764591e-03 1.747159613956e-02 0.0 
1.710334739728e-03 2.312268104568e-02 0.0 
3.824139028794e-03 2.526370604203e-02 0.0 
4.493839360640e-03 2.991781095608e-02 0.0 
3.091387676604e-03 2.016260597326e-02 0.0 
-2.666899052951e-03 6.121937969107e-02 0.0 
-1.850077835706e-03 1.868247495747e-02 0.0 
-1.249658249065e-03 3.126222862955e-02 0.0 
3.571221286438e-03 2.026467194097e-02 0.0 
3.968073109176e-03 2.289991427575e-02 0.0 
7.553438608074e-03 4.847645736472e-02 0.0 
7.985990438208e-03 5.142613021123e-02 0.0 
8.031476126327e-03 5.250694529896e-02 0.0 
8.037412593849e-03 5.461092810001e-02 0.0 
5.563643667750e-03 4.991205200630e-02 0.0 
7.761563895365e-03 5.014633858405e-02 0.0 
6.493560540418e-03 5.094707267247e-02 0.0 
6.286188473300e-03 5.351032944164e-02 0.0 
6.603100397128e-03 5.493456471001e-02 0.0 
7.599217625626e-03 5.484729236085e-02 0.0 
7.400329515532e-03 5.753522277264e-02 0.0 
5.670354407274e-03 4.385566653619e-02 0.0 
2.915338429763e-03 3.669068051961e-02 0.0 
-3.544007202085e-03 5.553742034051e-02 0.0 
-3.385171877167e-03 4.411447238547e-02 0.0 
-3.750485682433e-03 4.086392734353e-02 0.0 
1.328938114890e-03 2.565891768896e-02 0.0 
1.016612347450e-03 2.180464489431e-02 0.0 
1.730111224651e-03 4.728710796671e-02 0.0 
1.513265400253e-03 4.981179182974e-02 0.0 
-1.622455457991e-03 7.076756439340e-02 0.0 
-1.427716873901e-03 6.934708615353e-02 0.0 
-4.352294993935e-03 4.662238087536e-02 0.0 
-2.250809650297e-03 2.213441147885e-02 0.0 
2.106840513761e-03 2.372352903774e-02 0.0 
2.031509096079e-03 2.053193865570e-02 0.0 
2.528923100528e-03 2.423982638697e-02 0.0 
-1.216693180749e-03 1.955247766625e-02 0.0 
1.817360879644e-03 4.091758196424e-02 0.0 
1.784037481664e-04 3.560604622002e-02 0.0 
-8.152188865785e-04 3.007565260435e-02 0.0 
5.681461950167e-03 3.786060438634e-02 0.0 
-2.215826895305e-04 7.193359863776e-02 0.0 
5.311013507884e-03 3.418585014643e-02 0.0 
-1.027703913582e-03 2.507480220228e-02 0.0 
-1.159259016469e-03 2.129528795447e-02 0.0 
1.901712650677e-03 1.721267936170e-02 0.0 
5.360382743635e-03 5.666007123499e-02 0.0 
5.010400834047e-03 3.549581630582e-02 0.0 
4.785291260194e-03 3.666764602182e-02 0.0 
6.313203865375e-03 5.740028461884e-02 0.0 
6.586711221189e-03 5.858004411880e-02 0.0 
6.890264759867e-03 5.608954925499e-02 0.0 
6.830862810860e-03 5.951880278854e-02 0.0 
-5.307959316385e-03 5.123934956023e-02 0.0 
-5.469515091866e-03 5.447425785467e-02 0.0 
3.007786315075e-03 1.695063103718e-02 0.0 
2.886801761753e-03 1.751391517725e-02 0.0 
3.091047310111e-03 1.731242752325e-02 0.0 
3.459186292153e-03 1.983868250418e-02 0.0 
1.315384346574e-03 1.473021263330e-02 0.0 
1.177249036546e-03 1.760447685564e-02 0.0 
-1.192512319528e-03 7.220885812452e-02 0.0 
7.273345017105e-03 6.042083934689e-02 0.0 
1.318256396677e-03 1.923906998306e-02 0.0 
6.014760041058e-03 5.599825070664e-02 0.0 
-1.756003434582e-03 1.656921728447e-02 0.0 
-2.107868054186e-03 2.001714896272e-02 0.0 
-1.248238261055e-04 2.565831953470e-02 0.0 
-2.096149131117e-03 3.131994301518e-02 0.0 
4.639117548481e-04 2.054952827835e-02 0.0 
7.792367869080e-03 5.595593062226e-02 0.0 
7.744990532253e-03 5.783812983688e-02 0.0 
7.814510860489e-03 5.341432657312e-02 0.0 
-1.699700417581e-04 1.117317611363e-02 0.0 
3.946467069248e-04 5.950247408612e-02 0.0 
-7.785793689265e-04 1.852900486012e-02 0.0 
7.369979761379e-03 5.434503024334e-02 0.0 
4.924213508712e-04 1.694187679676e-02 0.0 
4.278408688277e-03 3.326346913918e-02 0.0 
7.537047939720e-03 4.921990636126e-02 0.0 
-1.458165975799e-03 2.446861439461e-02 0.0 
3.763795420105e-04 2.437723183650e-02 0.0 
2.806223252112e-04 1.633332448525e-02 0.0 
2.552923453629e-03 5.046411076757e-02 0.0 
2.314066532548e-03 5.300371633207e-02 0.0 
2.791142513584e-03 4.799490614774e-02 0.0 
4.803353246781e-03 3.458551710002e-02 0.0 
4.614466952293e-03 3.158191200273e-02 0.0 
9.818775611272e-04 2.500504089733e-02 0.0 
-2.401684377611e-03 6.779164177774e-02 0.0 
-1.964124685336e-03 6.700943553787e-02 0.0 
-3.976225782222e-03 6.286733708833e-02 0.0 
-4.673733387332e-03 6.142697171499e-02 0.0 
-3.395553366931e-03 5.160126674326e-02 0.0 
-3.858826966749e-03 5.242721057431e-02 0.0 
5.089432783627e-03 3.134818428205e-02 0.0 
4.649957964240e-03 2.879577898960e-02 0.0 
5.792204241554e-03 3.580697402414e-02 0.0 
-1.919739890861e-03 3.292084019567e-02 0.0 
-2.125916683723e-03 3.620717343759e-02 0.0 
-1.487331657142e-03 3.676136367701e-02 0.0 
1.023089331472e-03 1.877229503293e-02 0.0 
6.915654441729e-04 1.407727301340e-02 0.0 
-4.798977652176e-03 4.830848845028e-02 0.0 
-4.330576481896e-03 4.630799674037e-02 0.0 
-5.350906318972e-03 5.309760397864e-02 0.0 
1.242594736690e-03 1.606836049778e-02 0.0 
-8.383094226970e-04 1.478555085807e-02 0.0 
-1.197860962614e-03 1.768048522884e-02 0.0 
2.721584424593e-04 7.033155615888e-02 0.0 
-1.187426164582e-03 6.742219142943e-02 0.0 
7.281482090444e-03 4.606528549344e-02 0.0 
6.463482825706e-03 4.110355524602e-02 0.0 
1.924600797837e-03 1.756107179570e-02 0.0 
2.430345947819e-03 2.112138074396e-02 0.0 
1.384640793257e-03 1.333979022780e-02 0.0 
-6.644082710749e-04 7.412102320132e-02 0.0 
3.849648475016e-03 2.740756774895e-02 0.0 
-9.197866030379e-04 1.439371954977e-02 0.0 
-7.269539080086e-04 1.665952184532e-02 0.0 
-9.402082390563e-04 1.134903891897e-02 0.0 
2.537807294826e-03 1.985540031653e-02 0.0 
1.868056789121e-03 1.459382306346e-02 0.0 
2.274527486589e-03 1.459258913136e-02 0.0 
1.230246043465e-03 2.266762490540e-02 0.0 
2.133758843907e-04 1.939458699964e-02 0.0 
1.781801141682e-03 5.266719459647e-02 0.0 
8.609642622079e-04 2.147155067184e-02 0.0 
1.535890957475e-03 5.518570630383e-02 0.0 
1.298032410732e-03 5.227847247864e-02 0.0 
1.318906498551e-03 5.757500019964e-02 0.0 
-4.490631435114e-04 7.598865138901e-02 0.0 
2.881637483941e-03 5.400552215013e-02 0.0 
3.154084671219e-03 5.096405712094e-02 0.0 
1.346686106658e-03 6.829706407158e-02 0.0 
8.567100699782e-04 1.204037074753e-02 0.0 
1.342787154286e-03 7.250106781045e-02 0.0 
6.974434625957e-04 7.387378320473e-02 0.0 
-1.545042470241e-03 1.406593495991e-02 0.0 
-1.877099025626e-03 1.767889667679e-02 0.0 
-1.286788232457e-03 1.149919194973e-02 0.0 
-1.619523510386e-03 1.548446432272e-02 0.0 
-2.140117972363e-03 2.140842224422e-02 0.0 
-1.822076828883e-03 1.900904718517e-02 0.0 
2.069551019130e-03 5.579240547681e-02 0.0 
-1.214065218854e-03 1.188503183879e-02 0.0 
-1.463659599701e-03 1.628419952733e-02 0.0 
-8.807229608144e-04 9.270183122550e-03 0.0 
6.419509196107e-03 6.190862254671e-02 0.0 
7.988335407276e-03 5.616764424274e-02 0.0 
7.652482991205e-03 5.927961706464e-02 0.0 
7.136457543906e-03 6.117849929801e-02 0.0 
2.326076984613e-03 1.277807440140e-02 0.0 
2.942941871136e-03 1.687266372569e-02 0.0 
-7.932143444431e-04 2.862720757077e-02 0.0 
-9.140795154641e-04 3.466645897461e-02 0.0 
1.064780408584e-03 5.503666116554e-02 0.0 
7.759344255308e-04 5.527801444535e-02 0.0 
8.614366206438e-04 5.054247118158e-02 0.0 
6.207953080748e-04 5.116094557114e-02 0.0 
6.701608650761e-04 4.621918994179e-02 0.0 
4.308934728999e-04 4.688241804112e-02 0.0 
5.179468304192e-04 4.164431288438e-02 0.0 
1.972871628967e-03 1.161124212925e-02 0.0 
7.206075571897e-03 5.693399521306e-02 0.0 
5.958809737279e-03 5.980009187181e-02 0.0 
7.914768406404e-04 1.221512897033e-02 0.0 
6.766563402928e-04 1.570257075547e-02 0.0 
7.074044807309e-03 6.012102199938e-02 0.0 
6.819219969966e-03 6.302435927375e-02 0.0 
-1.275961321387e-03 1.212493230857e-02 0.0 
7.174886372604e-03 4.747875318383e-02 0.0 
6.331001445765e-04 7.762074697484e-03 0.0 
1.799093290632e-04 2.553222442276e-02 0.0 
2.946130247602e-03 2.664451039609e-02 0.0 
7.427332694923e-03 4.861327760031e-02 0.0 
7.154967721202e-03 5.696963695866e-02 0.0 
7.894912157069e-03 5.718535354605e-02 0.0 
7.558230037020e-03 6.007076604309e-02 0.0 
-1.702371106113e-03 2.904462103864e-02 0.0 
-7.220057326371e-04 6.495625589058e-02 0.0 
7.687148815381e-03 5.014100327790e-02 0.0 
7.493801959030e-04 4.102175973584e-02 0.0 
6.666542614232e-03 5.024061090085e-02 0.0 
-4.217186557090e-04 3.151686850849e-02 0.0 
6.297834039458e-03 4.513372731065e-02 0.0 
7.449934848616e-03 5.166253193006e-02 0.0 
7.949955393755e-03 4.972484764110e-02 0.0 
8.028601857798e-03 5.305605177723e-02 0.0 
5.755477596024e-03 4.732950165594e-02 0.0 
5.319544736704e-03 5.240203601748e-02 0.0 
5.666207983752e-03 5.435464677603e-02 0.0 
5.209475601396e-03 4.322035590086e-02 0.0 
7.435600918945e-03 6.042126320895e-02 0.0 
7.035365108649e-03 6.300195186183e-02 0.0 
6.617663709320e-03 4.832650931425e-02 0.0 
3.037289499530e-03 2.775834697191e-02 0.0 
2.963228947931e-03 2.465727217459e-02 0.0 
2.288724226919e-03 1.814962992753e-02 0.0 
2.829789258042e-03 2.157230344617e-02 0.0 
3.500477961004e-03 2.804358154587e-02 0.0 
3.390434181128e-03 2.499854525935e-02 0.0 
2.633690389242e-03 1.854654671291e-02 0.0 
3.211973901509e-03 2.194373206945e-02 0.0 
2.171331418454e-03 1.407372334240e-02 0.0 
2.936444122218e-03 1.873340609396e-02 0.0 
3.788663436813e-03 2.532017620470e-02 0.0 
3.567810112095e-03 2.243120331550e-02 0.0 
2.730551829943e-03 1.648000715826e-02 0.0 
4.364444971278e-03 2.878472657374e-02 0.0 
8.159258497596e-04 9.210322492355e-03 0.0 
6.999971806339e-03 4.666653767857e-02 0.0 
2.708283329553e-03 2.627961553073e-02 0.0 
4.487456926789e-03 3.344827006612e-02 0.0 
7.211224798405e-03 5.085182658263e-02 0.0 
1.079286960755e-03 6.926126233009e-03 0.0 
9.150927413334e-04 6.896446466139e-03 0.0 
6.139975349945e-03 4.399090206820e-02 0.0 
1.172692655881e-03 6.151970344755e-03 0.0 
5.933034523264e-03 5.184299716213e-02 0.0 
4.562322041446e-03 3.725489415092e-02 0.0 
1.134593939786e-03 6.025723570061e-03 0.0 
3.545829267745e-03 3.105176452286e-02 0.0 
4.050049004756e-03 3.426459054845e-02 0.0 
4.006082188580e-03 3.714158260030e-02 0.0 
7.304031529817e-04 6.488631616131e-03 0.0 
3.011862225675e-03 4.538697482696e-02 0.0 
7.279971597597e-04 5.377931324363e-03 0.0 
2.580981535385e-03 3.392051589765e-02 0.0 
3.517582405218e-03 3.569044169823e-02 0.0 
3.919895365577e-03 3.833081249281e-02 0.0 
3.950044695080e-03 2.839856051639e-02 0.0 
1.602394282502e-04 5.586532188573e-03 0.0 
1.390649926271e-04 1.059557015918e-02 0.0 
-1.687317117451e-04 1.063869750296e-02 0.0 
-2.180944449469e-05 1.565583885918e-02 0.0 
-1.697921471767e-04 5.603856586324e-03 0.0 
1.067255375870e-03 6.122433595375e-03 0.0 
1.048229274959e-03 5.759880900685e-03 0.0 
-4.650484459701e-03 4.630023679887e-02 0.0 
-3.594995503836e-03 4.408132319821e-02 0.0 
-3.290394567400e-03 4.417573851115e-02 0.0 
-2.306256611798e-03 4.250411127341e-02 0.0 
-2.540815786813e-03 4.174405579533e-02 0.0 
-1.037185376992e-03 4.094249992288e-02 0.0 
-9.340815942773e-04 4.152304686467e-02 0.0 
5.140649341336e-04 3.969889654888e-02 0.0 
3.842473865923e-03 2.290701034285e-02 0.0 
-4.221880756897e-04 5.491619895391e-03 0.0 
-3.405011280070e-03 3.738951684162e-02 0.0 
-3.198379267826e-03 3.809264567177e-02 0.0 
-3.517460308535e-03 4.114005075593e-02 0.0 
-4.007219020057e-03 5.608584359780e-02 0.0 
-4.269233192858e-03 5.295547246085e-02 0.0 
-4.048291064777e-03 4.924342812997e-02 0.0 
-3.617611637807e-03 5.914094103146e-02 0.0 
5.090140644977e-03 3.240689653750e-02 0.0 
-5.395850008145e-04 5.601213204716e-03 0.0 
-6.585847477003e-04 3.472769842796e-02 0.0 
-4.617473462865e-03 5.314860490728e-02 0.0 
3.754912561245e-03 5.824809037601e-02 0.0 
3.918970765053e-03 5.405682882092e-02 0.0 
4.266573611607e-03 5.365288621353e-02 0.0 
3.995982235759e-03 4.891540388942e-02 0.0 
3.520001933573e-03 5.377862467071e-02 0.0 
-2.888827510538e-03 5.047006732992e-02 0.0 
-2.351746249868e-03 4.906518339452e-02 0.0 
-1.930741897553e-03 5.210921652676e-02 0.0 
-1.796347888298e-03 4.740811796152e-02 0.0 
-1.353744550623e-03 5.042823538462e-02 0.0 
-1.454680579380e-03 5.488404699950e-02 0.0 
-1.224789814844e-03 4.552407991983e-02 0.0 
-7.893515614018e-04 4.907716681889e-02 0.0 
3.045763276558e-03 5.871580542127e-02 0.0 
2.605075168316e-03 3.588186250415e-02 0.0 
-8.834775234399e-04 4.105969311092e-02 0.0 
-3.483336708551e-06 4.908568041724e-02 0.0 
-2.971701681700e-03 4.547137513300e-02 0.0 
-3.108293639969e-03 3.856516585628e-02 0.0 
-4.598460509446e-03 4.331373037764e-02 0.0 
-3.691823424684e-03 3.749394884117e-02 0.0 
-1.189934932579e-03 3.251027990108e-02 0.0 
4.347431788520e-03 5.276363865126e-02 0.0 
6.585774628640e-04 5.550103614308e-02 0.0 
4.550803556457e-03 5.860681082250e-02 0.0 
1.272972784389e-03 6.063757436261e-02 0.0 
-2.077182467730e-03 5.766066955719e-02 0.0 
-2.749700213229e-03 6.629063223296e-02 0.0 
-4.553606645955e-04 7.360336312551e-03 0.0 
-5.707319654376e-04 6.141188211575e-02 0.0 
-1.098480858251e-03 6.312936030888e-02 0.0 
-1.053035335824e-03 6.655224036147e-02 0.0 
-1.653853738545e-03 6.433732197634e-02 0.0 
-1.082469798962e-03 5.959454951296e-02 0.0 
-5.042293699881e-04 6.850965661218e-02 0.0 
-9.487823877511e-04 6.935548366280e-02 0.0 
1.259740818650e-03 7.891811317668e-02 0.0 
5.861258767923e-04 7.899188566921e-02 0.0 
3.050373402458e-04 7.942865012601e-02 0.0 
1.460828633593e-04 7.862167044143e-02 0.0 
2.539300229583e-04 7.816295799156e-02 0.0 
8.687791923392e-04 7.838122500771e-02 0.0 
1.141424335308e-03 7.754886175312e-02 0.0 
2.220076080875e-03 7.724699207691e-02 0.0 
1.371200768673e-03 7.648693085714e-02 0.0 
3.452279266628e-04 7.649439371400e-02 0.0 
2.696944095547e-03 7.607927616726e-02 0.0 
1.657389364946e-04 3.344236967732e-02 0.0 
3.180186759741e-04 3.016014116462e-02 0.0 
-7.101872230788e-04 6.114432580883e-03 0.0 
2.369055800676e-03 5.864719948608e-02 0.0 
4.253253921140e-03 6.698372259216e-02 0.0 
2.584475503668e-04 8.352083508439e-03 0.0 
3.790561946087e-04 6.931042740078e-03 0.0 
3.160809558681e-04 6.719666003085e-03 0.0 
-2.706141745110e-04 1.839830543193e-02 0.0 
-4.380053286952e-04 1.501212355122e-02 0.0 
1.367252369682e-04 8.123585063561e-03 0.0 
-4.105017689871e-03 6.429436005405e-02 0.0 
2.083873039816e-03 1.520325105761e-02 0.0 
7.197408198980e-04 2.109436994028e-02 0.0 
6.168973589086e-03 3.899855723436e-02 0.0 
-5.253671971507e-03 5.790916104819e-02 0.0 
-1.430636687000e-03 3.704167581507e-02 0.0 
-3.465583054864e-03 4.077363702060e-02 0.0 
-1.567297217011e-03 2.396396775904e-02 0.0 
-2.461177461069e-03 4.107444866579e-02 0.0 
-2.371141487841e-03 2.861576836223e-02 0.0 
-4.869407327221e-04 1.108354894335e-02 0.0 
-5.052246180830e-04 7.612878360143e-02 0.0 
1.932083631343e-03 4.466980713959e-02 0.0 
1.257017905853e-03 4.684211982148e-02 0.0 
1.181714634692e-03 3.180445173483e-02 0.0 
-2.770798271393e-03 6.796958012225e-02 0.0 
-2.046746273527e-03 5.622422254805e-02 0.0 
-1.727060500649e-03 7.174352367909e-02 0.0 
2.089916686746e-03 1.133378241078e-02 0.0 
6.813863457426e-03 5.238180032505e-02 0.0 
-4.096162691492e-03 4.387825859261e-02 0.0 
-4.068235504203e-03 5.940178579117e-02 0.0 
-4.717221948263e-03 6.110888480700e-02 0.0 
-5.422240626832e-03 5.557886012180e-02 0.0 
7.145999675207e-03 4.687976938081e-02 0.0 
-4.645846698566e-03 4.998356981357e-02 0.0 
-3.032837276288e-03 3.071859953879e-02 0.0 
9.102933704182e-04 2.813620232953e-02 0.0 
3.326911952061e-03 7.264059236633e-02 0.0 
-2.695629552451e-03 2.738841084567e-02 0.0 
-4.023172829378e-03 4.285070969930e-02 0.0 
2.640002024860e-03 4.235614167422e-02 0.0 
1.172335987594e-03 2.486190578501e-02 0.0 
-5.102215667601e-03 4.862780096277e-02 0.0 
1.669349974599e-03 2.937471066877e-02 0.0 
1.583013850292e-03 1.708344561255e-02 0.0 
3.377542989967e-03 4.823007767467e-02 0.0 
-6.096082049986e-04 7.315386563402e-02 0.0 
2.025436936384e-03 5.029576430909e-02 0.0 
-1.416520573220e-03 1.520795381296e-02 0.0 
3.049377365834e-03 3.079268283380e-02 0.0 
-2.096176997713e-03 7.042061389498e-02 0.0 
2.337697393235e-04 3.786492117854e-02 0.0 
7.372523314799e-03 4.895044167960e-02 0.0 
5.288225824544e-03 6.053696509823e-02 0.0 
7.420024605376e-04 1.805860341754e-02 0.0 
5.289207813196e-03 3.963975304527e-02 0.0 
-2.702716457125e-05 2.092512644077e-02 0.0 
1.202906909555e-04 3.276883087715e-02 0.0 
-1.787981312194e-03 7.008241383482e-02 0.0 
-2.403467921175e-03 2.357712450112e-02 0.0 
3.247471539364e-03 3.892154687508e-02 0.0 
1.348803403336e-03 2.252215914385e-02 0.0 
5.141003285580e-03 3.093476480709e-02 0.0 
1.626064674495e-03 4.077149858236e-02 0.0 
2.127681759924e-03 2.685044727927e-02 0.0 
-3.120778779346e-03 4.119126016761e-02 0.0 
1.549988705997e-03 2.246260008600e-02 0.0 
7.107199195778e-03 5.350426178618e-02 0.0 
6.346488160247e-03 4.026834173506e-02 0.0 
5.443389830838e-03 3.698951247120e-02 0.0 
6.249208102211e-03 4.031550588328e-02 0.0 
-1.009695218752e-03 4.040499409530e-02 0.0 
-2.596770063740e-03 2.558822142104e-02 0.0 
-1.177467371781e-03 3.397778203833e-02 0.0 
7.841563673742e-03 5.126636353298e-02 0.0 
3.190712408370e-03 4.261273608941e-02 0.0 
3.444759509472e-03 2.028263704989e-02 0.0 
9.602766397786e-04 1.522727454921e-02 0.0 
7.636027224527e-03 5.210860575734e-02 0.0 
-2.616930595428e-03 2.714011551754e-02 0.0 
1.670852848811e-03 2.013014308805e-02 0.0 
-4.386913528301e-03 4.978784714346e-02 0.0 
-2.309079127971e-04 7.607441248223e-02 0.0 
6.176077720712e-03 3.715974285729e-02 0.0 
2.027293877024e-03 4.037036177609e-02 0.0 
4.889105642780e-03 4.015125493403e-02 0.0 
-4.104674513723e-03 4.605833055513e-02 0.0 
1.663506279403e-03 1.360282410696e-02 0.0 
-2.305471527692e-03 2.503134735694e-02 0.0 
-2.019661579239e-03 2.745024134467e-02 0.0 
3.419112152036e-03 4.514489748613e-02 0.0 
5.682746626558e-03 5.830436499507e-02 0.0 
-1.950683941830e-03 2.271204378729e-02 0.0 
-6.952212854953e-04 3.728872576238e-02 0.0 
9.171475157195e-04 2.037669264511e-02 0.0 
-8.798819146672e-04 5.333944039970e-02 0.0 
2.023354648068e-03 1.130815700181e-02 0.0 
6.653373257660e-03 6.252497715131e-02 0.0 
-1.572555372926e-03 2.019796976296e-02 0.0 
-1.101255855006e-03 2.634938462939e-02 0.0 
6.755539151924e-03 4.591594411535e-02 0.0 
6.541533671543e-04 5.947869556407e-02 0.0 
-1.027301124451e-03 1.258785471737e-02 0.0 
-9.270928655427e-04 2.151099490891e-02 0.0 
5.698668011795e-03 3.656351890146e-02 0.0 
-1.621161210451e-03 3.909107606069e-02 0.0 
5.741929952259e-03 6.321948196324e-02 0.0 
-3.777200112645e-03 4.520600134264e-02 0.0 
6.064197368671e-03 3.853368653878e-02 0.0 
6.510073621422e-04 6.346771741803e-03 0.0 
-4.484502407327e-04 1.891030640687e-02 0.0 
4.473695116165e-03 4.015409406705e-02 0.0 
-3.646942070822e-03 4.844034276031e-02 0.0 
3.495636713960e-03 3.104012304189e-02 0.0 
3.403756863799e-04 7.745912184644e-02 0.0 
6.198649767580e-03 6.094659158356e-02 0.0 
-3.189658361442e-03 4.733333785351e-02 0.0 
4.538055109109e-04 4.072456345459e-02 0.0 
-2.323165268253e-03 3.889890207948e-02 0.0 
1.332274507281e-03 1.202966749220e-02 0.0 
-2.693203318158e-03 4.594168008982e-02 0.0 
3.981213585489e-04 4.100124167021e-02 0.0 
-2.170102819787e-03 4.429736920750e-02 0.0 
6.099896159603e-03 6.496312173208e-02 0.0 
4.536730669915e-03 3.724482211309e-02 0.0 
-1.614256346187e-03 4.243058995637e-02 0.0 
5.475347286734e-03 3.371404879397e-02 0.0 
2.656869180984e-04 7.519094616802e-02 0.0 
5.112452509272e-03 3.411123821749e-02 0.0 
-6.192738386218e-04 2.193130732109e-02 0.0 
-5.258702400297e-03 5.457688173339e-02 0.0 
-2.844772334328e-03 3.861001376691e-02 0.0 
4.031555575373e-03 3.133408718255e-02 0.0 
6.307063890166e-03 6.579993671836e-02 0.0 
-2.575810200593e-03 3.546590779615e-02 0.0 
4.782743535106e-03 2.852978335209e-02 0.0 
4.456308878625e-03 3.173311025180e-02 0.0 
4.429413654198e-03 3.759518645062e-02 0.0 
-2.304707840618e-03 3.174381188537e-02 0.0 
6.964995195103e-03 6.301976153317e-02 0.0 
-4.369626338348e-03 6.324423650980e-02 0.0 
-3.775429236127e-03 6.485791322465e-02 0.0 
-8.617053849406e-04 4.141751448742e-02 0.0 
4.343576993170e-03 2.582485833412e-02 0.0 
-1.420404356190e-04 7.746819565484e-02 0.0 
4.483894368654e-03 3.154035955154e-02 0.0 
-2.745492174181e-03 6.407517031208e-02 0.0 
-2.096646195414e-03 4.257044352655e-02 0.0 
3.135070331039e-03 2.460560271461e-02 0.0 
1.953696286718e-04 4.544688442208e-02 0.0 
-3.017459038891e-03 4.370771190120e-02 0.0 
-3.357447471281e-04 7.396166864733e-02 0.0 
-4.003764648316e-03 4.578540600431e-02 0.0 
3.963453649829e-03 3.454609505990e-02 0.0 
-4.480006636480e-03 4.722417398357e-02 0.0 
-5.053389082662e-03 5.000833787368e-02 0.0 
4.977096916780e-04 1.398387843403e-02 0.0 
-5.130911068663e-03 5.136961548611e-02 0.0 
6.416481240869e-05 6.748656640354e-03 0.0 
-1.973566801536e-04 6.757141353783e-03 0.0 
2.517897006812e-04 5.591954579820e-02 0.0 
6.271374158220e-03 6.583377007146e-02 0.0 
1.253698385783e-03 1.763991365836e-02 0.0 
7.220846607096e-03 6.174274994683e-02 0.0 
-5.339304053047e-03 5.635582391187e-02 0.0 
4.865270726039e-03 3.166187811181e-02 0.0 
5.235008013425e-04 5.567527133448e-02 0.0 
-5.006711132576e-03 5.977694074014e-02 0.0 
2.019951667535e-03 1.222674512451e-02 0.0 
9.292885725307e-04 5.458880828467e-03 0.0 
3.591982533914e-04 3.629730162954e-02 0.0 
3.930899444555e-04 1.849127827707e-02 0.0 
3.730295495900e-03 2.925842505311e-02 0.0 
1.043447330069e-04 2.011382518349e-02 0.0 
1.517894274616e-03 5.968336371441e-02 0.0 
1.688039643763e-03 6.484307854804e-02 0.0 
-4.844506359429e-04 3.754126533618e-02 0.0 
6.184421193262e-03 6.407367357493e-02 0.0 
7.174407038799e-03 5.924929007120e-02 0.0 
7.018683062665e-03 5.396575709542e-02 0.0 
-1.389306728790e-03 6.971722670980e-02 0.0 
-2.277170266804e-03 5.204477078225e-02 0.0 
6.192540363174e-03 6.036161641051e-02 0.0 
4.196706320876e-04 1.091435943388e-02 0.0 
2.574659990871e-03 5.512636875770e-02 0.0 
3.222845667729e-03 2.275057672835e-02 0.0 
5.404964840548e-03 5.446264054869e-02 0.0 
1.150400534192e-03 1.334792612425e-02 0.0 
1.620845938049e-03 1.119057456441e-02 0.0 
-6.452687079518e-04 5.563757387225e-03 0.0 
2.466245771540e-03 1.730805519522e-02 0.0 
5.916755708896e-03 4.548444500168e-02 0.0 
3.699409691166e-03 5.018617193656e-02 0.0 
2.111721712459e-03 1.140345848761e-02 0.0 
4.878314567522e-04 3.110821334703e-02 0.0 
-5.732716882351e-04 5.465889648913e-03 0.0 
3.208552417898e-03 5.526180683017e-02 0.0 
3.089955724219e-04 1.308830093909e-02 0.0 
-2.579145630726e-03 3.442944867443e-02 0.0 
1.531271457395e-04 1.271224100863e-02 0.0 
4.137014341918e-03 2.580407192551e-02 0.0 
1.081669201620e-03 4.937931087775e-02 0.0 
4.345964803070e-03 4.987964182681e-02 0.0 
-5.202492581260e-04 1.171867938219e-02 0.0 
1.832590260085e-03 1.255023323901e-02 0.0 
4.844426795872e-03 3.899045148482e-02 0.0 
5.609687156162e-04 3.691076494979e-02 0.0 
-2.203977425146e-03 6.369157641887e-02 0.0 
-4.604646981508e-05 2.533011773704e-02 0.0 
-1.240842762727e-03 1.124270988362e-02 0.0 
3.306396232993e-03 1.978328156525e-02 0.0 
-8.158911126707e-04 1.183043034692e-02 0.0 
7.758192898417e-05 7.888612937259e-02 0.0 
2.080821696038e-03 7.096312366214e-02 0.0 
-9.811872733386e-04 1.010903682147e-02 0.0 
1.976851073703e-03 1.104686537588e-02 0.0 
-4.366448018140e-03 4.061933306835e-02 0.0 
3.951566361444e-04 5.431076541102e-03 0.0 
2.692479961711e-03 3.202633570892e-02 0.0 
2.069258287730e-03 6.000872217384e-02 0.0 
1.670706716157e-03 7.532638150495e-02 0.0 
-4.973013982493e-04 5.609460700968e-03 0.0 
7.186996318246e-04 1.250008689355e-02 0.0 
-1.528024766678e-03 6.111030711018e-02 0.0 
4.441670236877e-03 5.715186164212e-02 0.0 
-8.087562710286e-04 7.200411962434e-02 0.0 
2.671496154254e-03 1.547179413502e-02 0.0 
-7.188575025165e-04 6.200549195199e-02 0.0 
4.964210175734e-04 1.183490646444e-02 0.0 
-6.152550734268e-04 9.602600614391e-03 0.0 
1.330869398553e-03 1.162389822824e-02 0.0 
3.539922887108e-04 4.124131281019e-03 0.0 
1.743785825346e-03 2.199203970345e-02 0.0 
1.549776415719e-03 9.710286733137e-03 0.0 
-3.755000916918e-04 1.458818125366e-02 0.0 
1.140761186928e-03 5.995254846223e-02 0.0 
1.636069982441e-03 1.235962117881e-02 0.0 
-1.452044190561e-03 6.730999729040e-02 0.0 
-3.811879907943e-04 7.534487336149e-02 0.0 
2.893248220428e-05 5.984436377810e-03 0.0 
4.163262553614e-04 7.957424697545e-02 0.0 
1.906873520214e-04 6.002904380471e-02 0.0 
-7.500877322056e-05 5.527329645837e-03 0.0 
-1.014530805930e-04 7.718404435715e-02 0.0 
4.198700911886e-04 5.219879424971e-02 0.0 
1.862116046336e-03 1.074638635288e-02 0.0 
-3.905871688385e-04 5.268016945229e-02 0.0 
2.459835183775e-04 2.475790873841e-02 0.0 
-4.048839510005e-03 4.876359394662e-02 0.0 
2.447392536872e-03 1.894815120866e-02 0.0 
3.422239298601e-04 4.253715906052e-02 0.0 
1.275085181296e-03 9.984024863110e-03 0.0 
1.062447007378e-03 1.118394206983e-02 0.0 
8.728263729218e-04 4.638897271037e-02 0.0 
5.647061310098e-03 3.660282376784e-02 0.0 
2.586202965301e-03 1.503806274190e-02 0.0 
-1.591676157517e-03 5.801530573632e-02 0.0 
2.801941022772e-03 1.553908114538e-02 0.0 
3.155658547724e-04 1.453983333076e-02 0.0 
-1.941075725216e-04 3.269546196449e-02 0.0 
-3.271820508788e-04 4.792927060760e-02 0.0 
1.983745282156e-03 7.396994232426e-02 0.0 
-1.132578192884e-03 1.037516529092e-02 0.0 
-1.053460607583e-03 5.641076089449e-02 0.0 
-4.391931198110e-03 4.392043049592e-02 0.0 
2.467252017372e-05 8.402498790329e-02 0.0 
4.356967318602e-04 5.409844786998e-02 0.0 
5.995960239865e-05 8.370491371961e-02 0.0 
3.122614531932e-03 6.108757413895e-02 0.0 
5.315071213817e-05 8.293610845568e-02 0.0 
4.405142602219e-03 6.547579306069e-02 0.0 
7.569644650192e-05 8.174084216137e-02 0.0 
5.024714086368e-03 6.801236697042e-02 0.0 
6.909436502090e-05 8.010624100627e-02 0.0 
5.312604251894e-03 6.912094302827e-02 0.0 
9.835133516849e-05 7.803092019288e-02 0.0 
5.383135426991e-03 6.905209378315e-02 0.0 
9.171918645131e-05 7.551456560949e-02 0.0 
5.276454771512e-03 6.799154502724e-02 0.0 
1.190009300102e-04 7.255856133942e-02 0.0 
5.025438677928e-03 6.601741959378e-02 0.0 
1.086063522844e-04 6.916522467389e-02 0.0 
4.657447061666e-03 6.329936672560e-02 0.0 
1.308002094039e-04 6.533916112376e-02 0.0 

TENSORS node_materi_stress float
-1.460898265514e+00 -1.503301059170e-01 0.0 
-1.503301059170e-01 -8.482454811012e+00 0.0 
0.0 0.0 -1.728235797028e+00 
-8.596747030590e+01 4.541833974686e-01 0.0 
4.541833974686e-01 -1.963065408700e+02 0.0 
0.0 0.0 -8.428220335277e+01 
-1.680802149270e+02 -6.231642342552e-01 0.0 
-6.231642342552e-01 -3.920800076986e+02 0.0 
0.0 0.0 -1.676480667877e+02 
-1.643816001818e+02 4.787473516935e-01 0.0 
4.787473516935e-01 -3.842757794072e+02 0.0 
0.0 0.0 -1.641972138767e+02 
-5.331943529337e+00 -3.036881366418e-01 0.0 
-3.036881366418e-01 -2.076771323651e+01 0.0 
0.0 0.0 -6.856297238413e+00 
-1.386374823319e+01 -5.693203515807e-01 0.0 
-5.693203515807e-01 -4.011490333148e+01 0.0 
0.0 0.0 -1.579359546940e+01 
-2.401366154903e+01 -5.322773421088e-01 0.0 
-5.322773421088e-01 -5.831788923673e+01 0.0 
0.0 0.0 -2.429946523573e+01 
-3.476337198209e+01 -5.261084114538e-01 0.0 
-5.261084114538e-01 -7.887958110506e+01 0.0 
0.0 0.0 -3.369288592614e+01 
-4.502158536834e+01 -4.860654624900e-01 0.0 
-4.860654624900e-01 -9.889981568670e+01 0.0 
0.0 0.0 -4.277642031651e+01 
-5.503758392531e+01 -4.997031207757e-01 0.0 
-4.997031207757e-01 -1.187828617891e+02 0.0 
0.0 0.0 -5.174613371432e+01 
-6.463104257428e+01 -5.560719697156e-01 0.0 
-5.560719697156e-01 -1.387542069255e+02 0.0 
0.0 0.0 -6.061557484992e+01 
-7.387807481699e+01 -5.504470922174e-01 0.0 
-5.504470922174e-01 -1.588297169014e+02 0.0 
0.0 0.0 -6.941233751552e+01 
-8.289497964671e+01 -5.628929127733e-01 0.0 
-5.628929127733e-01 -1.789678654870e+02 0.0 
0.0 0.0 -7.815885354011e+01 
-9.166505036343e+01 -6.357589921060e-01 0.0 
-6.357589921060e-01 -1.993652603992e+02 0.0 
0.0 0.0 -8.690909322878e+01 
-1.003732535281e+02 -7.774800502670e-01 0.0 
-7.774800502670e-01 -2.203220310315e+02 0.0 
0.0 0.0 -9.580858536787e+01 
-1.090680318672e+02 -7.482578896256e-01 0.0 
-7.482578896256e-01 -2.405912662035e+02 0.0 
0.0 0.0 -1.044977894212e+02 
-1.168368341433e+02 -9.410741375655e-01 0.0 
-9.410741375655e-01 -2.589807270747e+02 0.0 
0.0 0.0 -1.123452683654e+02 
-1.249799819524e+02 -5.163888269551e-01 0.0 
-5.163888269551e-01 -2.793093616655e+02 0.0 
0.0 0.0 -1.208868030854e+02 
-1.332889264659e+02 -4.807155580026e-01 0.0 
-4.807155580026e-01 -3.001051589309e+02 0.0 
0.0 0.0 -1.296182256190e+02 
-1.412275586176e+02 -4.691699452869e-01 0.0 
-4.691699452869e-01 -3.202473102464e+02 0.0 
0.0 0.0 -1.380424606592e+02 
-1.490444289639e+02 -4.326878564556e-01 0.0 
-4.326878564556e-01 -3.405536166270e+02 0.0 
0.0 0.0 -1.464794136773e+02 
-1.567364165350e+02 -4.937226833242e-01 0.0 
-4.937226833242e-01 -3.610299456333e+02 0.0 
0.0 0.0 -1.549299086505e+02 
-1.641665151361e+02 -5.839005589921e-01 0.0 
-5.839005589921e-01 -3.806716941608e+02 0.0 
0.0 0.0 -1.630514627891e+02 
-1.648563544251e+02 2.567779951328e-01 0.0 
2.567779951328e-01 -3.853860467144e+02 0.0 
0.0 0.0 -1.646727203418e+02 
-1.642974746347e+02 4.324902460823e-01 0.0 
4.324902460823e-01 -3.843745638262e+02 0.0 
0.0 0.0 -1.642016115383e+02 
-1.644441324369e+02 8.787622769915e-01 0.0 
8.787622769915e-01 -3.846806325925e+02 0.0 
0.0 0.0 -1.643374295088e+02 
-1.644146567919e+02 7.096716363929e-01 0.0 
7.096716363929e-01 -3.847286598074e+02 0.0 
0.0 0.0 -1.643429949798e+02 
-1.642158766175e+02 1.068489320540e+00 0.0 
1.068489320540e+00 -3.841859547242e+02 0.0 
0.0 0.0 -1.641205494025e+02 
-1.645776680356e+02 1.262043049659e+00 0.0 
1.262043049659e+00 -3.849376955145e+02 0.0 
0.0 0.0 -1.644546090650e+02 
-1.648830480764e+02 1.496719768596e+00 0.0 
1.496719768596e+00 -3.853235515793e+02 0.0 
0.0 0.0 -1.646619798967e+02 
-1.646624863798e+02 1.804160848424e+00 0.0 
1.804160848424e+00 -3.851841512676e+02 0.0 
0.0 0.0 -1.645539912942e+02 
-1.651452082198e+02 2.190995649259e+00 0.0 
2.190995649259e+00 -3.861462859570e+02 0.0 
0.0 0.0 -1.649874482530e+02 
-1.651788357242e+02 2.172017141157e+00 0.0 
2.172017141157e+00 -3.863770339760e+02 0.0 
0.0 0.0 -1.650667609100e+02 
-1.650924029807e+02 2.572833166174e+00 0.0 
2.572833166174e+00 -3.860698559869e+02 0.0 
0.0 0.0 -1.649486776903e+02 
-1.654861649594e+02 2.857243685234e+00 0.0 
2.857243685234e+00 -3.870235935499e+02 0.0 
0.0 0.0 -1.653529275528e+02 
-1.660109453433e+02 3.135157679429e+00 0.0 
3.135157679429e+00 -3.879029433464e+02 0.0 
0.0 0.0 -1.657741666069e+02 
-1.659054025084e+02 3.433605156265e+00 0.0 
3.433605156265e+00 -3.880387171184e+02 0.0 
0.0 0.0 -1.657832358880e+02 
-1.661647177446e+02 3.748965831448e+00 0.0 
3.748965831448e+00 -3.883580193870e+02 0.0 
0.0 0.0 -1.659568211395e+02 
-1.659992548018e+02 3.934382290619e+00 0.0 
3.934382290619e+00 -3.883280163852e+02 0.0 
0.0 0.0 -1.658981813561e+02 
-1.662627803951e+02 4.253335777142e+00 0.0 
4.253335777142e+00 -3.889435833087e+02 0.0 
0.0 0.0 -1.661619091111e+02 
-1.670772310662e+02 4.502019926657e+00 0.0 
4.502019926657e+00 -3.905132547913e+02 0.0 
0.0 0.0 -1.668771457573e+02 
-1.675314992915e+02 4.749006630549e+00 0.0 
4.749006630549e+00 -3.918401675131e+02 0.0 
0.0 0.0 -1.674115000414e+02 
-1.680639520219e+02 4.936650623986e+00 0.0 
4.936650623986e+00 -3.932129231833e+02 0.0 
0.0 0.0 -1.679830625616e+02 
-1.684115665862e+02 4.971998588659e+00 0.0 
4.971998588659e+00 -3.941970229678e+02 0.0 
0.0 0.0 -1.683825768662e+02 
-1.688483139510e+02 5.107614127768e+00 0.0 
5.107614127768e+00 -3.951749700985e+02 0.0 
0.0 0.0 -1.688069852148e+02 
-1.692329462944e+02 5.078428037410e+00 0.0 
5.078428037410e+00 -3.963276040719e+02 0.0 
0.0 0.0 -1.692681651099e+02 
-1.696469532130e+02 4.996146454409e+00 0.0 
4.996146454409e+00 -3.974630725901e+02 0.0 
0.0 0.0 -1.697330077409e+02 
-1.701607220089e+02 4.805457208911e+00 0.0 
4.805457208911e+00 -3.988362502977e+02 0.0 
0.0 0.0 -1.702990916920e+02 
-1.707509894640e+02 4.539884855930e+00 0.0 
4.539884855930e+00 -4.002333012230e+02 0.0 
0.0 0.0 -1.708952872061e+02 
-1.711141263623e+02 4.158470727575e+00 0.0 
4.158470727575e+00 -4.014403287446e+02 0.0 
0.0 0.0 -1.713663365321e+02 
-1.715895857248e+02 3.669300985475e+00 0.0 
3.669300985475e+00 -4.025077810596e+02 0.0 
0.0 0.0 -1.718292100353e+02 
-1.717115403753e+02 3.101849964123e+00 0.0 
3.101849964123e+00 -4.031325303733e+02 0.0 
0.0 0.0 -1.720532212246e+02 
-1.723243661374e+02 2.601453873213e+00 0.0 
2.601453873213e+00 -4.044442489379e+02 0.0 
0.0 0.0 -1.726305845226e+02 
-1.723535297250e+02 1.631484243740e+00 0.0 
1.631484243740e+00 -4.047212636227e+02 0.0 
0.0 0.0 -1.727224380043e+02 
-1.719872397765e+02 1.032342981626e+00 0.0 
1.032342981626e+00 -4.040454002904e+02 0.0 
0.0 0.0 -1.724097920201e+02 
-1.720372847059e+02 2.942869956406e-01 0.0 
2.942869956406e-01 -4.040690911082e+02 0.0 
0.0 0.0 -1.724319127442e+02 
-1.720777359418e+02 -3.817719558198e-01 0.0 
-3.817719558198e-01 -4.041197914176e+02 0.0 
0.0 0.0 -1.724592582078e+02 
-1.720338986047e+02 -1.073798542474e+00 0.0 
-1.073798542474e+00 -4.038395028689e+02 0.0 
0.0 0.0 -1.723620204421e+02 
-1.717890708848e+02 -1.642873419820e+00 0.0 
-1.642873419820e+00 -4.032410885223e+02 0.0 
0.0 0.0 -1.721090478221e+02 
-1.716593427776e+02 -2.170177586973e+00 0.0 
-2.170177586973e+00 -4.025733166319e+02 0.0 
0.0 0.0 -1.718697978229e+02 
-1.711367336285e+02 -2.584687601553e+00 0.0 
-2.584687601553e+00 -4.013514631543e+02 0.0 
0.0 0.0 -1.713464590348e+02 
-1.707628281534e+02 -2.841757174552e+00 0.0 
-2.841757174552e+00 -4.000952892013e+02 0.0 
0.0 0.0 -1.708574352064e+02 
-1.700959150501e+02 -3.049925950313e+00 0.0 
-3.049925950313e+00 -3.985844259059e+02 0.0 
0.0 0.0 -1.702041022868e+02 
-1.698251213569e+02 -3.043790145817e+00 0.0 
-3.043790145817e+00 -3.978296137231e+02 0.0 
0.0 0.0 -1.698964205240e+02 
-1.699994236357e+02 -3.096961467695e+00 0.0 
-3.096961467695e+00 -3.977187678380e+02 0.0 
0.0 0.0 -1.699154574421e+02 
-1.699284894945e+02 -2.861645852783e+00 0.0 
-2.861645852783e+00 -3.971555896745e+02 0.0 
0.0 0.0 -1.697252237507e+02 
-1.683046257777e+02 -2.575109028321e+00 0.0 
-2.575109028321e+00 -3.935132700821e+02 0.0 
0.0 0.0 -1.681453687579e+02 
-1.690666022928e+02 -2.303647744136e+00 0.0 
-2.303647744136e+00 -3.948897404542e+02 0.0 
0.0 0.0 -1.687869028241e+02 
-1.682581122955e+02 -1.920608332989e+00 0.0 
-1.920608332989e+00 -3.933159523688e+02 0.0 
0.0 0.0 -1.680722193993e+02 
-1.682521991827e+02 -1.352373389513e+00 0.0 
-1.352373389513e+00 -3.932640360421e+02 0.0 
0.0 0.0 -1.680548705674e+02 
-1.684904448349e+02 -1.106534558359e+00 0.0 
-1.106534558359e+00 -3.936096100366e+02 0.0 
0.0 0.0 -1.682300164615e+02 
-1.683348918957e+02 -5.878320084605e-01 0.0 
-5.878320084605e-01 -3.932820221872e+02 0.0 
0.0 0.0 -1.680850742249e+02 
-9.476877127731e+01 3.254498851537e-01 0.0 
3.254498851537e-01 -2.161398448834e+02 0.0 
0.0 0.0 -9.287258484823e+01 
-1.030296580643e+02 3.752206509209e-01 0.0 
3.752206509209e-01 -2.358610335092e+02 0.0 
0.0 0.0 -1.012672074720e+02 
-1.113642731346e+02 3.713528975450e-01 0.0 
3.713528975450e-01 -2.554066555344e+02 0.0 
0.0 0.0 -1.096312786007e+02 
-1.194315687199e+02 4.038552721978e-01 0.0 
4.038552721978e-01 -2.745725922198e+02 0.0 
0.0 0.0 -1.178012482819e+02 
-1.275980296391e+02 3.667184002116e-01 0.0 
3.667184002116e-01 -2.941708270200e+02 0.0 
0.0 0.0 -1.261306569977e+02 
-1.359297226982e+02 4.078986037340e-01 0.0 
4.078986037340e-01 -3.138720323611e+02 0.0 
0.0 0.0 -1.345405265178e+02 
-1.438737326701e+02 3.726137464255e-01 0.0 
3.726137464255e-01 -3.333437433896e+02 0.0 
0.0 0.0 -1.427652428179e+02 
-1.517351855092e+02 4.340738613070e-01 0.0 
4.340738613070e-01 -3.526873760875e+02 0.0 
0.0 0.0 -1.509267684790e+02 
-1.598349123687e+02 4.775573156584e-01 0.0 
4.775573156584e-01 -3.725755925054e+02 0.0 
0.0 0.0 -1.593231514622e+02 
-4.561963344567e+01 1.900489621690e+01 0.0 
1.900489621690e+01 -5.404135335722e+01 0.0 
0.0 0.0 -3.025750082446e+01 
-4.533519665372e+00 6.513869254391e-01 0.0 
6.513869254391e-01 -7.177869766868e+00 0.0 
0.0 0.0 -3.178299964168e+00 
-8.849673736418e+01 1.438983535356e+00 0.0 
1.438983535356e+00 -1.983276352000e+02 0.0 
0.0 0.0 -8.564731176927e+01 
-2.531540239507e+01 1.180304336605e+01 0.0 
1.180304336605e+01 -2.545707002001e+01 0.0 
0.0 0.0 -1.484220446331e+01 
-2.914092977295e+01 8.572345813456e+00 0.0 
8.572345813456e+00 -4.402088481176e+01 0.0 
0.0 0.0 -2.047584526729e+01 
-3.533775831993e+01 6.541255289503e+00 0.0 
6.541255289503e+00 -6.280081880535e+01 0.0 
0.0 0.0 -2.834426206027e+01 
-4.091029780503e+01 5.308158338238e+00 0.0 
5.308158338238e+00 -8.093799854421e+01 0.0 
0.0 0.0 -3.615448890477e+01 
-4.822565278439e+01 4.201161754516e+00 0.0 
4.201161754516e+00 -1.002752152093e+02 0.0 
0.0 0.0 -4.415026039812e+01 
-5.614362448970e+01 3.385570529224e+00 0.0 
3.385570529224e+00 -1.198752430528e+02 0.0 
0.0 0.0 -5.240566026275e+01 
-6.396092632401e+01 2.619454728399e+00 0.0 
2.619454728399e+00 -1.392082034948e+02 0.0 
0.0 0.0 -6.055073894563e+01 
-7.199020237972e+01 2.054201550044e+00 0.0 
2.054201550044e+00 -1.585566309459e+02 0.0 
0.0 0.0 -6.876404999769e+01 
-8.010259815993e+01 1.678075062711e+00 0.0 
1.678075062711e+00 -1.779086656458e+02 0.0 
0.0 0.0 -7.700337914172e+01 
-9.522379345926e+00 5.285563149605e-01 0.0 
5.285563149605e-01 -1.974415628540e+01 0.0 
0.0 0.0 -8.502399907573e+00 
-1.757241938257e+01 8.028474957658e-01 0.0 
8.028474957658e-01 -3.920329069773e+01 0.0 
0.0 0.0 -1.662116678005e+01 
-2.593831874436e+01 6.543696745197e-01 0.0 
6.543696745197e-01 -5.879815046729e+01 0.0 
0.0 0.0 -2.502094076350e+01 
-3.448873605897e+01 7.897889912274e-01 0.0 
7.897889912274e-01 -7.835629608408e+01 0.0 
0.0 0.0 -3.345350964292e+01 
-4.311295657760e+01 6.432867977441e-01 0.0 
6.432867977441e-01 -9.789707730512e+01 0.0 
0.0 0.0 -4.190301016481e+01 
-5.173475908395e+01 7.995089040899e-01 0.0 
7.995089040899e-01 -1.174454151062e+02 0.0 
0.0 0.0 -5.035405225704e+01 
-6.034317188895e+01 6.544566383484e-01 0.0 
6.544566383484e-01 -1.370034516553e+02 0.0 
0.0 0.0 -5.880398706329e+01 
-6.892451539347e+01 7.918123685735e-01 0.0 
7.918123685735e-01 -1.565528983925e+02 0.0 
0.0 0.0 -6.724322413578e+01 
-7.745646732096e+01 5.672718614936e-01 0.0 
5.672718614936e-01 -1.760072913195e+02 0.0 
0.0 0.0 -7.563912759214e+01 
-8.506566983229e+01 -2.187298408311e-01 0.0 
-2.187298408311e-01 -1.937069520641e+02 0.0 
0.0 0.0 -8.323178656892e+01 
-8.570407549798e+01 -9.132630400552e-03 0.0 
-9.132630400552e-03 -1.949206431092e+02 0.0 
0.0 0.0 -8.378741558215e+01 
-8.570099847485e+01 -1.164166023655e-03 0.0 
-1.164166023655e-03 -1.949871318044e+02 0.0 
0.0 0.0 -8.380643908378e+01 
-8.569730004855e+01 5.856887079709e-02 0.0 
5.856887079709e-02 -1.947861631025e+02 0.0 
0.0 0.0 -8.374503894531e+01 
-8.701440627842e+01 4.881587594566e-02 0.0 
4.881587594566e-02 -1.974772747769e+02 0.0 
0.0 0.0 -8.494750431661e+01 
-8.605124014870e+01 6.323162941806e-02 0.0 
6.323162941806e-02 -1.951946028182e+02 0.0 
0.0 0.0 -8.397375289008e+01 
-8.620948545480e+01 1.520210069287e-01 0.0 
1.520210069287e-01 -1.950761074474e+02 0.0 
0.0 0.0 -8.398567787066e+01 
-8.638246950169e+01 1.362709000262e-01 0.0 
1.362709000262e-01 -1.953455799200e+02 0.0 
0.0 0.0 -8.411841482651e+01 
-8.662456708596e+01 2.545687424124e-01 0.0 
2.545687424124e-01 -1.958710134717e+02 0.0 
0.0 0.0 -8.434867416731e+01 
-8.674157508930e+01 3.116748044451e-01 0.0 
3.116748044451e-01 -1.959076898312e+02 0.0 
0.0 0.0 -8.439477947614e+01 
-8.701009702778e+01 4.628145854193e-01 0.0 
4.628145854193e-01 -1.960013688547e+02 0.0 
0.0 0.0 -8.450343976474e+01 
-8.715513077330e+01 6.368919789399e-01 0.0 
6.368919789399e-01 -1.961142365369e+02 0.0 
0.0 0.0 -8.458081019305e+01 
-8.748841162010e+01 7.891237344646e-01 0.0 
7.891237344646e-01 -1.964264658268e+02 0.0 
0.0 0.0 -8.477446323407e+01 
-8.784962977323e+01 1.013743989651e+00 0.0 
1.013743989651e+00 -1.970265146939e+02 0.0 
0.0 0.0 -8.506284334013e+01 
-7.582964242860e+01 1.058427000480e+01 0.0 
1.058427000480e+01 -9.754244579635e+01 0.0 
0.0 0.0 -5.237275948405e+01 
-8.731260686422e+01 1.031591914879e+00 0.0 
1.031591914879e+00 -1.054422156125e+02 0.0 
0.0 0.0 -5.819352153154e+01 
-8.973711060300e+01 -2.868639746322e+00 0.0 
-2.868639746322e+00 -1.045641301325e+02 0.0 
0.0 0.0 -5.862454256948e+01 
-7.867280593560e+01 -1.023582176036e+01 0.0 
-1.023582176036e+01 -9.608167099213e+01 0.0 
0.0 0.0 -5.275996064312e+01 
-4.777291659490e+01 -1.908850616921e+01 0.0 
-1.908850616921e+01 -5.788173786097e+01 0.0 
0.0 0.0 -3.197360886129e+01 
-1.990887397140e+01 -1.205718983945e+01 0.0 
-1.205718983945e+01 -1.943491395611e+01 0.0 
0.0 0.0 -1.165418906365e+01 
-6.508711574290e+00 -2.497123562997e+00 0.0 
-2.497123562997e+00 -1.008913025333e+01 0.0 
0.0 0.0 -4.699827156391e+00 
-2.222806122886e+00 -2.777593186502e-01 0.0 
-2.777593186502e-01 -8.448254299582e+00 0.0 
0.0 0.0 -2.372426601029e+00 
-6.150864765261e-01 5.050839688248e-02 0.0 
5.050839688248e-02 -8.023678833592e+00 0.0 
0.0 0.0 -1.201992699081e+00 
1.646722290633e-01 1.383452979227e-01 0.0 
1.383452979227e-01 -8.182988931216e+00 0.0 
0.0 0.0 -1.502846322405e+00 
1.042370941903e-01 3.455142708222e-01 0.0 
3.455142708222e-01 -8.253914523533e+00 0.0 
0.0 0.0 -1.798441925239e+00 
-2.963614979789e-01 1.968734481234e-01 0.0 
1.968734481234e-01 -8.683775007526e+00 0.0 
0.0 0.0 -1.773699838592e+00 
-6.313198834496e-01 1.738127938505e-01 0.0 
1.738127938505e-01 -8.444434821153e+00 0.0 
0.0 0.0 -1.764581427830e+00 
-6.313254209341e-01 4.954348279495e-02 0.0 
4.954348279495e-02 -7.727006094601e+00 0.0 
0.0 0.0 -1.616187833041e+00 
-7.118705881259e-01 4.703513865532e-03 0.0 
4.703513865532e-03 -7.928222649056e+00 0.0 
0.0 0.0 -1.695636812070e+00 
-7.773101384211e-01 -2.220403796484e-02 0.0 
-2.220403796484e-02 -8.191450435483e+00 0.0 
0.0 0.0 -1.723957398416e+00 
-7.816323575972e-01 4.097222182787e-03 0.0 
4.097222182787e-03 -8.234650116221e+00 0.0 
0.0 0.0 -1.729506137253e+00 
-7.687343662990e-01 -4.643670100123e-02 0.0 
-4.643670100123e-02 -7.857955190464e+00 0.0 
0.0 0.0 -1.633301499550e+00 
-8.585743390909e-01 5.025328578842e-02 0.0 
5.025328578842e-02 -7.256950927942e+00 0.0 
0.0 0.0 -1.477075657650e+00 
-1.658711499804e+01 6.924402435097e+00 0.0 
6.924402435097e+00 -7.823551711156e+00 0.0 
0.0 0.0 -6.821256874975e+00 
-7.207230611732e+00 2.465438645213e+00 0.0 
2.465438645213e+00 -9.632182329996e+00 0.0 
0.0 0.0 -4.861261961817e+00 
-3.252453836917e+00 7.540373879834e-01 0.0 
7.540373879834e-01 -1.004246669171e+01 0.0 
0.0 0.0 -3.555467326799e+00 
-1.913682452004e+00 -6.908463042080e-02 0.0 
-6.908463042080e-02 -9.304876395931e+00 0.0 
0.0 0.0 -2.215602185980e+00 
-1.086408454022e+00 -2.231833713772e-01 0.0 
-2.231833713772e-01 -9.306131550471e+00 0.0 
0.0 0.0 -2.085372912939e+00 
-8.227933081760e-01 -3.553813337902e-01 0.0 
-3.553813337902e-01 -9.367127648006e+00 0.0 
0.0 0.0 -2.458989880300e+00 
-9.365247744115e-01 -3.500489164712e-01 0.0 
-3.500489164712e-01 -9.311092239292e+00 0.0 
0.0 0.0 -2.465851129509e+00 
-1.123113773051e+00 -2.438709035160e-01 0.0 
-2.438709035160e-01 -9.316941650984e+00 0.0 
0.0 0.0 -2.514999633303e+00 
-1.311086119386e+00 -1.468062553793e-01 0.0 
-1.468062553793e-01 -9.383022870570e+00 0.0 
0.0 0.0 -2.577634513300e+00 
-1.479236036603e+00 -8.413761098715e-02 0.0 
-8.413761098715e-02 -9.433108449836e+00 0.0 
0.0 0.0 -2.633468652285e+00 
-1.639057954504e+00 -5.398381202173e-02 0.0 
-5.398381202173e-02 -9.477663233219e+00 0.0 
0.0 0.0 -2.729962937805e+00 
-1.797250806415e+00 -4.227886229885e-02 0.0 
-4.227886229885e-02 -9.504130006968e+00 0.0 
0.0 0.0 -2.883814506799e+00 
-1.961005135711e+00 -4.021288783199e-02 0.0 
-4.021288783199e-02 -9.524109252300e+00 0.0 
0.0 0.0 -3.048008921575e+00 
-2.131485763989e+00 -4.325119125005e-02 0.0 
-4.325119125005e-02 -9.538713146422e+00 0.0 
0.0 0.0 -3.201665624565e+00 
-2.310434874025e+00 -5.042927469762e-02 0.0 
-5.042927469762e-02 -9.551780847071e+00 0.0 
0.0 0.0 -3.348416966491e+00 
-2.504728710558e+00 -6.460578394447e-02 0.0 
-6.460578394447e-02 -9.566811811879e+00 0.0 
0.0 0.0 -3.493033151748e+00 
-2.723385983419e+00 -8.894464309534e-02 0.0 
-8.894464309534e-02 -9.582136692920e+00 0.0 
0.0 0.0 -3.624842646857e+00 
-2.967485915058e+00 -1.132393234182e-01 0.0 
-1.132393234182e-01 -9.584359440980e+00 0.0 
0.0 0.0 -3.721109162367e+00 
-3.221783942970e+00 -1.228794481407e-01 0.0 
-1.228794481407e-01 -9.575420447560e+00 0.0 
0.0 0.0 -3.794716872715e+00 
-3.472459870413e+00 -1.205995069561e-01 0.0 
-1.205995069561e-01 -9.572545264859e+00 0.0 
0.0 0.0 -3.869057096137e+00 
-3.709558797452e+00 -1.119734617008e-01 0.0 
-1.119734617008e-01 -9.572937794325e+00 0.0 
0.0 0.0 -3.940304533089e+00 
-3.926733043239e+00 -9.994211469111e-02 0.0 
-9.994211469111e-02 -9.574409203071e+00 0.0 
0.0 0.0 -4.005898229448e+00 
-4.119648718568e+00 -8.580356478329e-02 0.0 
-8.580356478329e-02 -9.575761673828e+00 0.0 
0.0 0.0 -4.064178673274e+00 
-4.284962847171e+00 -7.004943951283e-02 0.0 
-7.004943951283e-02 -9.576292144476e+00 0.0 
0.0 0.0 -4.113932053050e+00 
-4.419814873320e+00 -5.290378435381e-02 0.0 
-5.290378435381e-02 -9.575451696060e+00 0.0 
0.0 0.0 -4.154135526370e+00 
-4.521867998025e+00 -3.491476709559e-02 0.0 
-3.491476709559e-02 -9.572754893921e+00 0.0 
0.0 0.0 -4.183942423139e+00 
-4.593153609559e+00 -2.063749173703e-02 0.0 
-2.063749173703e-02 -9.570821541074e+00 0.0 
0.0 0.0 -4.204748100746e+00 
-4.712847276289e+00 -8.069980384804e-02 0.0 
-8.069980384804e-02 -9.638109051302e+00 0.0 
0.0 0.0 -4.260842453833e+00 
-4.877284903081e+00 -2.103037273074e-01 0.0 
-2.103037273074e-01 -9.329729842346e+00 0.0 
0.0 0.0 -4.023999933849e+00 
-9.479718405798e+00 -4.121243296101e-01 0.0 
-4.121243296101e-01 -1.968550494411e+01 0.0 
0.0 0.0 -8.525193275097e+00 
-9.319317539230e+00 -9.785794137800e-03 0.0 
-9.785794137800e-03 -1.958352547816e+01 0.0 
0.0 0.0 -8.641019339048e+00 
-9.266157795310e+00 -4.510813627373e-02 0.0 
-4.510813627373e-02 -1.967026267586e+01 0.0 
0.0 0.0 -8.680925924617e+00 
-9.206879857828e+00 -6.744924408730e-02 0.0 
-6.744924408730e-02 -1.968052689160e+01 0.0 
0.0 0.0 -8.664356200576e+00 
-9.118886110486e+00 -9.315697633224e-02 0.0 
-9.315697633224e-02 -1.967828994406e+01 0.0 
0.0 0.0 -8.636712166978e+00 
-9.004592352589e+00 -1.196956616752e-01 0.0 
-1.196956616752e-01 -1.967742680994e+01 0.0 
0.0 0.0 -8.602004904172e+00 
-8.866478770660e+00 -1.450810841545e-01 0.0 
-1.450810841545e-01 -1.967784564713e+01 0.0 
0.0 0.0 -8.560736500271e+00 
-8.706832873169e+00 -1.682767064518e-01 0.0 
-1.682767064518e-01 -1.967920362115e+01 0.0 
0.0 0.0 -8.513398332791e+00 
-8.528034053237e+00 -1.885591297783e-01 0.0 
-1.885591297783e-01 -1.968158048472e+01 0.0 
0.0 0.0 -8.460684825506e+00 
-8.332643630683e+00 -2.050434582961e-01 0.0 
-2.050434582961e-01 -1.968549799452e+01 0.0 
0.0 0.0 -8.403500103384e+00 
-8.123208870218e+00 -2.163556417998e-01 0.0 
-2.163556417998e-01 -1.969196163176e+01 0.0 
0.0 0.0 -8.342898793965e+00 
-7.901414506309e+00 -2.205949255914e-01 0.0 
-2.205949255914e-01 -1.970222040518e+01 0.0 
0.0 0.0 -8.279751629449e+00 
-7.665666091217e+00 -2.162477303670e-01 0.0 
-2.162477303670e-01 -1.971447348711e+01 0.0 
0.0 0.0 -8.213038581110e+00 
-7.416909958611e+00 -2.063068819378e-01 0.0 
-2.063068819378e-01 -1.971544102345e+01 0.0 
0.0 0.0 -8.127875567798e+00 
-7.162636672280e+00 -1.958071960817e-01 0.0 
-1.958071960817e-01 -1.971197491717e+01 0.0 
0.0 0.0 -8.031328221719e+00 
-6.912542491755e+00 -1.873325309617e-01 0.0 
-1.873325309617e-01 -1.971219202231e+01 0.0 
0.0 0.0 -7.935501177207e+00 
-6.674902512907e+00 -1.804589368032e-01 0.0 
-1.804589368032e-01 -1.971352966339e+01 0.0 
0.0 0.0 -7.841942019750e+00 
-6.458308105570e+00 -1.744239674151e-01 0.0 
-1.744239674151e-01 -1.971570877487e+01 0.0 
0.0 0.0 -7.752578903700e+00 
-6.273456216661e+00 -1.686481084775e-01 0.0 
-1.686481084775e-01 -1.971422978596e+01 0.0 
0.0 0.0 -7.668953263982e+00 
-6.136491603276e+00 -1.628331729375e-01 0.0 
-1.628331729375e-01 -1.971301232728e+01 0.0 
0.0 0.0 -7.607783968945e+00 
-6.072575817341e+00 -1.522740182717e-01 0.0 
-1.522740182717e-01 -1.969819367714e+01 0.0 
0.0 0.0 -7.588247850009e+00 
-6.127374778071e+00 -1.333496109378e-01 0.0 
-1.333496109378e-01 -1.970802170690e+01 0.0 
0.0 0.0 -7.609061361112e+00 
-6.362954388335e+00 -7.342772705259e-02 0.0 
-7.342772705259e-02 -1.970865736686e+01 0.0 
0.0 0.0 -7.687389138543e+00 
-6.886414480521e+00 7.026229343637e-02 0.0 
7.026229343637e-02 -1.988042864550e+01 0.0 
0.0 0.0 -7.891228360248e+00 
-7.796626313930e+00 4.429267597515e-01 0.0 
4.429267597515e-01 -2.010865696956e+01 0.0 
0.0 0.0 -8.247288829788e+00 
-9.266105767549e+00 1.157359052636e+00 0.0 
1.157359052636e+00 -2.043356850348e+01 0.0 
0.0 0.0 -8.539519863456e+00 
-1.297157184825e+01 3.143073448476e+00 0.0 
3.143073448476e+00 -2.242830701646e+01 0.0 
0.0 0.0 -1.009631072129e+01 
-1.509220453823e+01 4.960205894949e+00 0.0 
4.960205894949e+00 -1.925307632090e+01 0.0 
0.0 0.0 -1.011060087151e+01 
-2.371771947368e+01 4.792887537999e+00 0.0 
4.792887537999e+00 -3.910249536951e+01 0.0 
0.0 0.0 -1.798721470628e+01 
-2.300663337345e+01 3.208583347321e+00 0.0 
3.208583347321e+00 -4.209328304864e+01 0.0 
0.0 0.0 -1.894251752069e+01 
-2.020347574542e+01 1.569454090307e+00 0.0 
1.569454090307e+00 -4.022600799879e+01 0.0 
0.0 0.0 -1.775260768630e+01 
-1.866787795007e+01 8.675446872875e-01 0.0 
8.675446872875e-01 -3.963974484517e+01 0.0 
0.0 0.0 -1.710668869508e+01 
-1.759015275655e+01 3.700802964088e-01 0.0 
3.700802964088e-01 -3.948383895444e+01 0.0 
0.0 0.0 -1.678953074841e+01 
-1.687049913613e+01 7.683177162717e-02 0.0 
7.683177162717e-02 -3.936041488081e+01 0.0 
0.0 0.0 -1.655331186360e+01 
-1.643400483687e+01 -1.197996251003e-01 0.0 
-1.197996251003e-01 -3.933245307425e+01 0.0 
0.0 0.0 -1.642667117827e+01 
-1.619101720607e+01 -2.424762295533e-01 0.0 
-2.424762295533e-01 -3.930571062987e+01 0.0 
0.0 0.0 -1.634379197968e+01 
-1.608151101953e+01 -3.296535534523e-01 0.0 
-3.296535534523e-01 -3.929614954713e+01 0.0 
0.0 0.0 -1.630628600804e+01 
-1.606225502030e+01 -3.891167398976e-01 0.0 
-3.891167398976e-01 -3.928533374275e+01 0.0 
0.0 0.0 -1.629549219943e+01 
-1.610849577102e+01 -4.304250220367e-01 0.0 
-4.304250220367e-01 -3.927798166922e+01 0.0 
0.0 0.0 -1.630580011287e+01 
-1.619800003619e+01 -4.561761099439e-01 0.0 
-4.561761099439e-01 -3.927311765715e+01 0.0 
0.0 0.0 -1.633015141746e+01 
-1.631281293242e+01 -4.684500271190e-01 0.0 
-4.684500271190e-01 -3.927220775940e+01 0.0 
0.0 0.0 -1.636350239477e+01 
-1.643749981715e+01 -4.664122112276e-01 0.0 
-4.664122112276e-01 -3.926807684211e+01 0.0 
0.0 0.0 -1.639891372326e+01 
-1.656132006476e+01 -4.548267943204e-01 0.0 
-4.548267943204e-01 -3.925263987987e+01 0.0 
0.0 0.0 -1.643073473589e+01 
-1.668125538663e+01 -4.395156024256e-01 0.0 
-4.395156024256e-01 -3.923360720070e+01 0.0 
0.0 0.0 -1.646035646446e+01 
-1.679690879445e+01 -4.185224278882e-01 0.0 
-4.185224278882e-01 -3.921860407033e+01 0.0 
0.0 0.0 -1.648994800752e+01 
-1.690771995816e+01 -3.909831592900e-01 0.0 
-3.909831592900e-01 -3.920751076592e+01 0.0 
0.0 0.0 -1.651931618606e+01 
-1.701227894316e+01 -3.573354653424e-01 0.0 
-3.573354653424e-01 -3.919905326702e+01 0.0 
0.0 0.0 -1.654767640056e+01 
-1.710880636780e+01 -3.183662042046e-01 0.0 
-3.183662042046e-01 -3.919225730241e+01 0.0 
0.0 0.0 -1.657423454938e+01 
-1.719556383607e+01 -2.747636175659e-01 0.0 
-2.747636175659e-01 -3.918673375970e+01 0.0 
0.0 0.0 -1.659841649797e+01 
-1.727104143164e+01 -2.269178540363e-01 0.0 
-2.269178540363e-01 -3.918287345737e+01 0.0 
0.0 0.0 -1.662002186162e+01 
-1.733413425080e+01 -1.747114712496e-01 0.0 
-1.747114712496e-01 -3.918210265738e+01 0.0 
0.0 0.0 -1.663945348770e+01 
-1.738462869574e+01 -1.190520672287e-01 0.0 
-1.190520672287e-01 -3.918609972200e+01 0.0 
0.0 0.0 -1.665824137322e+01 
-1.742991933327e+01 -1.176747872357e-01 0.0 
-1.176747872357e-01 -3.918573460802e+01 0.0 
0.0 0.0 -1.668444821376e+01 
-1.748723900952e+01 -3.061624602904e-01 0.0 
-3.061624602904e-01 -3.918290055967e+01 0.0 
0.0 0.0 -1.664252272351e+01 
-3.178315399575e+01 4.177157514875e+00 0.0 
4.177157514875e+00 -5.859258609883e+01 0.0 
0.0 0.0 -2.648131596482e+01 
-3.135158338672e+01 3.290491810533e+00 0.0 
3.290491810533e+00 -6.158954765676e+01 0.0 
0.0 0.0 -2.734319125078e+01 
-2.915984219595e+01 1.948848572051e+00 0.0 
1.948848572051e+00 -5.994176784186e+01 0.0 
0.0 0.0 -2.621473022335e+01 
-2.793663685897e+01 1.229574493458e+00 0.0 
1.229574493458e+00 -5.947801645223e+01 0.0 
0.0 0.0 -2.577881851998e+01 
-2.713245577414e+01 6.780876933768e-01 0.0 
6.780876933768e-01 -5.932485274426e+01 0.0 
0.0 0.0 -2.552380503825e+01 
-2.651587378866e+01 3.054350409621e-01 0.0 
3.054350409621e-01 -5.916291145955e+01 0.0 
0.0 0.0 -2.530363557446e+01 
-2.611426136904e+01 3.415998639482e-02 0.0 
3.415998639482e-02 -5.909073171557e+01 0.0 
0.0 0.0 -2.516149792538e+01 
-2.583515343302e+01 -1.560860561861e-01 0.0 
-1.560860561861e-01 -5.902396869084e+01 0.0 
0.0 0.0 -2.505773663716e+01 
-2.566193372206e+01 -2.919068243739e-01 0.0 
-2.919068243739e-01 -5.898124973231e+01 0.0 
0.0 0.0 -2.499295503631e+01 
-2.555534837259e+01 -3.846278793031e-01 0.0 
-3.846278793031e-01 -5.894482049667e+01 0.0 
0.0 0.0 -2.495005066078e+01 
-2.549995154256e+01 -4.441052908471e-01 0.0 
-4.441052908471e-01 -5.891902774262e+01 0.0 
0.0 0.0 -2.492569378556e+01 
-2.547661752380e+01 -4.751096033130e-01 0.0 
-4.751096033130e-01 -5.889627685030e+01 0.0 
0.0 0.0 -2.491186831223e+01 
-2.547623411134e+01 -4.840317158676e-01 0.0 
-4.840317158676e-01 -5.887219681461e+01 0.0 
0.0 0.0 -2.490452927778e+01 
-2.549108717266e+01 -4.793033395544e-01 0.0 
-4.793033395544e-01 -5.884563045009e+01 0.0 
0.0 0.0 -2.490101528682e+01 
-2.551494381956e+01 -4.656652874462e-01 0.0 
-4.656652874462e-01 -5.882107541581e+01 0.0 
0.0 0.0 -2.490080577061e+01 
-2.554442480306e+01 -4.437618109723e-01 0.0 
-4.437618109723e-01 -5.880070344364e+01 0.0 
0.0 0.0 -2.490353847401e+01 
-2.557738503547e+01 -4.137862308084e-01 0.0 
-4.137862308084e-01 -5.878427778131e+01 0.0 
0.0 0.0 -2.490849884504e+01 
-2.561227063533e+01 -3.763931500516e-01 0.0 
-3.763931500516e-01 -5.877090919118e+01 0.0 
0.0 0.0 -2.491495394795e+01 
-2.564787037785e+01 -3.324149669791e-01 0.0 
-3.324149669791e-01 -5.875986410633e+01 0.0 
0.0 0.0 -2.492232034525e+01 
-2.568330184361e+01 -2.825279362899e-01 0.0 
-2.825279362899e-01 -5.875095248125e+01 0.0 
0.0 0.0 -2.493027629746e+01 
-2.571782759966e+01 -2.271135886033e-01 0.0 
-2.271135886033e-01 -5.874477239624e+01 0.0 
0.0 0.0 -2.493877999877e+01 
-2.575129020903e+01 -1.661754853804e-01 0.0 
-1.661754853804e-01 -5.874218698115e+01 0.0 
0.0 0.0 -2.494804315705e+01 
-2.578506016056e+01 -9.834631675794e-02 0.0 
-9.834631675794e-02 -5.874149563710e+01 0.0 
0.0 0.0 -2.495796673930e+01 
-2.581870071615e+01 -1.866190427938e-02 0.0 
-1.866190427938e-02 -5.874114740582e+01 0.0 
0.0 0.0 -2.496795443659e+01 
-2.591258190143e+01 -4.439431772956e-01 0.0 
-4.439431772956e-01 -5.878567762538e+01 0.0 
0.0 0.0 -2.500947785804e+01 
-3.449115097782e+01 -3.690525958266e-01 0.0 
-3.690525958266e-01 -7.833097589716e+01 0.0 
0.0 0.0 -3.344663806250e+01 
-3.447423297974e+01 -1.972308676621e-01 0.0 
-1.972308676621e-01 -7.829677330875e+01 0.0 
0.0 0.0 -3.343130188654e+01 
-3.445778138092e+01 -1.860928376430e-01 0.0 
-1.860928376430e-01 -7.829702006072e+01 0.0 
0.0 0.0 -3.342644043249e+01 
-3.444477184947e+01 -2.437062407574e-01 0.0 
-2.437062407574e-01 -7.830329143688e+01 0.0 
0.0 0.0 -3.342441898590e+01 
-3.443480832911e+01 -3.012281462973e-01 0.0 
-3.012281462973e-01 -7.831392408314e+01 0.0 
0.0 0.0 -3.342461972367e+01 
-3.442843988608e+01 -3.534763286500e-01 0.0 
-3.534763286500e-01 -7.832796864600e+01 0.0 
0.0 0.0 -3.342692255962e+01 
-3.442683549314e+01 -3.993302846659e-01 0.0 
-3.993302846659e-01 -7.834453620289e+01 0.0 
0.0 0.0 -3.343141150881e+01 
-3.443153001360e+01 -4.381113882256e-01 0.0 
-4.381113882256e-01 -7.836388640865e+01 0.0 
0.0 0.0 -3.343862492668e+01 
-3.444363049332e+01 -4.686463906424e-01 0.0 
-4.686463906424e-01 -7.838697793137e+01 0.0 
0.0 0.0 -3.344918252741e+01 
-3.446493942585e+01 -4.894592806879e-01 0.0 
-4.894592806879e-01 -7.841467160884e+01 0.0 
0.0 0.0 -3.346388331041e+01 
-3.449833731629e+01 -4.988674464929e-01 0.0 
-4.988674464929e-01 -7.844743877088e+01 0.0 
0.0 0.0 -3.348373282615e+01 
-3.454864465412e+01 -4.949524928250e-01 0.0 
-4.949524928250e-01 -7.848452306603e+01 0.0 
0.0 0.0 -3.350995031604e+01 
-3.462224331371e+01 -4.741543715176e-01 0.0 
-4.741543715176e-01 -7.852656485657e+01 0.0 
0.0 0.0 -3.354464245108e+01 
-3.472509723077e+01 -4.272875614871e-01 0.0 
-4.272875614871e-01 -7.857423617994e+01 0.0 
0.0 0.0 -3.358980002321e+01 
-3.486680050678e+01 -3.447349027946e-01 0.0 
-3.447349027946e-01 -7.863314846154e+01 0.0 
0.0 0.0 -3.364998469050e+01 
-3.505850486392e+01 -2.127223622876e-01 0.0 
-2.127223622876e-01 -7.870200044292e+01 0.0 
0.0 0.0 -3.372815159205e+01 
-3.532442196803e+01 -2.595010897048e-02 0.0 
-2.595010897048e-02 -7.879884277730e+01 0.0 
0.0 0.0 -3.383697942360e+01 
-3.567103121865e+01 2.448179807301e-01 0.0 
2.448179807301e-01 -7.890743385283e+01 0.0 
0.0 0.0 -3.397353952145e+01 
-3.615313446647e+01 6.015662613666e-01 0.0 
6.015662613666e-01 -7.909089710420e+01 0.0 
0.0 0.0 -3.417320947120e+01 
-3.673083300305e+01 1.118290061191e+00 0.0 
1.118290061191e+00 -7.926953097182e+01 0.0 
0.0 0.0 -3.440010919246e+01 
-3.757136388131e+01 1.753609938014e+00 0.0 
1.753609938014e+00 -7.969809479305e+01 0.0 
0.0 0.0 -3.478083760231e+01 
-3.915387723206e+01 2.894250581838e+00 0.0 
2.894250581838e+00 -8.123814230025e+01 0.0 
0.0 0.0 -3.571760585969e+01 
-3.897918808972e+01 3.731597668842e+00 0.0 
3.731597668842e+00 -7.801416698052e+01 0.0 
0.0 0.0 -3.469800652107e+01 
-4.688376430967e+01 2.973407669961e+00 0.0 
2.973407669961e+00 -9.760652983079e+01 0.0 
0.0 0.0 -4.294708824214e+01 
-4.736023137708e+01 2.373989658297e+00 0.0 
2.373989658297e+00 -1.008745330153e+02 0.0 
0.0 0.0 -4.407042931772e+01 
-4.605191205213e+01 1.477944086845e+00 0.0 
1.477944086845e+00 -9.943279162552e+01 0.0 
0.0 0.0 -4.324541110330e+01 
-4.537879865495e+01 9.652380011565e-01 0.0 
9.652380011565e-01 -9.900339409448e+01 0.0 
0.0 0.0 -4.291465782483e+01 
-4.494123268993e+01 5.354147852810e-01 0.0 
5.354147852810e-01 -9.881465414508e+01 0.0 
0.0 0.0 -4.272676605050e+01 
-4.453459725802e+01 2.284015235676e-01 0.0 
2.284015235676e-01 -9.859688301708e+01 0.0 
0.0 0.0 -4.253944408253e+01 
-4.424052721575e+01 -4.806511103778e-03 0.0 
-4.806511103778e-03 -9.846232379264e+01 0.0 
0.0 0.0 -4.241085530252e+01 
-4.399313690681e+01 -1.652693363051e-01 0.0 
-1.652693363051e-01 -9.833552334177e+01 0.0 
0.0 0.0 -4.229859807457e+01 
-4.380010863376e+01 -2.721120801490e-01 0.0 
-2.721120801490e-01 -9.824349825451e+01 0.0 
0.0 0.0 -4.221308206648e+01 
-4.363907746112e+01 -3.387365577713e-01 0.0 
-3.387365577713e-01 -9.816817048126e+01 0.0 
0.0 0.0 -4.214217438271e+01 
-4.351259535933e+01 -3.795938886714e-01 0.0 
-3.795938886714e-01 -9.810860116012e+01 0.0 
0.0 0.0 -4.208635895583e+01 
-4.341418680373e+01 -3.997153755725e-01 0.0 
-3.997153755725e-01 -9.805603600839e+01 0.0 
0.0 0.0 -4.204106684364e+01 
-4.333696661332e+01 -4.019899410650e-01 0.0 
-4.019899410650e-01 -9.801162169701e+01 0.0 
0.0 0.0 -4.200457649310e+01 
-4.327534545618e+01 -3.902185482937e-01 0.0 
-3.902185482937e-01 -9.797503532193e+01 0.0 
0.0 0.0 -4.197511423343e+01 
-4.322657554047e+01 -3.674139603430e-01 0.0 
-3.674139603430e-01 -9.794451936135e+01 0.0 
0.0 0.0 -4.195132847054e+01 
-4.319006202723e+01 -3.358962218480e-01 0.0 
-3.358962218480e-01 -9.791832904325e+01 0.0 
0.0 0.0 -4.193251732114e+01 
-4.316425247388e+01 -2.958935035168e-01 0.0 
-2.958935035168e-01 -9.789535743118e+01 0.0 
0.0 0.0 -4.191788297152e+01 
-4.314630861674e+01 -2.482547646462e-01 0.0 
-2.482547646462e-01 -9.787686979213e+01 0.0 
0.0 0.0 -4.190695352266e+01 
-4.313500475307e+01 -1.945191172537e-01 0.0 
-1.945191172537e-01 -9.786467575874e+01 0.0 
0.0 0.0 -4.189990415354e+01 
-4.312848415399e+01 -1.357565880754e-01 0.0 
-1.357565880754e-01 -9.786171816256e+01 0.0 
0.0 0.0 -4.189706069496e+01 
-4.312289829705e+01 -6.012134569676e-02 0.0 
-6.012134569676e-02 -9.787386110821e+01 0.0 
0.0 0.0 -4.189902782158e+01 
-4.311605569157e+01 -4.751367879569e-01 0.0 
-4.751367879569e-01 -9.789159508508e+01 0.0 
0.0 0.0 -4.190229523299e+01 
-5.173724063046e+01 -3.548096721939e-01 0.0 
-3.548096721939e-01 -1.174383443408e+02 0.0 
0.0 0.0 -5.035267549139e+01 
-5.175738295112e+01 -1.841248557646e-01 0.0 
-1.841248557646e-01 -1.174204901554e+02 0.0 
0.0 0.0 -5.035336193196e+01 
-5.178209634522e+01 -1.707894006838e-01 0.0 
-1.707894006838e-01 -1.174212431121e+02 0.0 
0.0 0.0 -5.036100183721e+01 
-5.181030700702e+01 -2.191488869749e-01 0.0 
-2.191488869749e-01 -1.174350659498e+02 0.0 
0.0 0.0 -5.037361188704e+01 
-5.184740605160e+01 -2.634360678061e-01 0.0 
-2.634360678061e-01 -1.174578272670e+02 0.0 
0.0 0.0 -5.039156999557e+01 
-5.189338767740e+01 -2.996933494721e-01 0.0 
-2.996933494721e-01 -1.174876613131e+02 0.0 
0.0 0.0 -5.041431469715e+01 
-5.195041978098e+01 -3.242557221235e-01 0.0 
-3.242557221235e-01 -1.175220044465e+02 0.0 
0.0 0.0 -5.044172726823e+01 
-5.202346643750e+01 -3.381868177544e-01 0.0 
-3.381868177544e-01 -1.175583411217e+02 0.0 
0.0 0.0 -5.047454226775e+01 
-5.211456844904e+01 -3.420412546897e-01 0.0 
-3.420412546897e-01 -1.176032539990e+02 0.0 
0.0 0.0 -5.051534673441e+01 
-5.221906879691e+01 -3.311050869899e-01 0.0 
-3.311050869899e-01 -1.176600918313e+02 0.0 
0.0 0.0 -5.056374818845e+01 
-5.234487807739e+01 -2.978793708904e-01 0.0 
-2.978793708904e-01 -1.177296947600e+02 0.0 
0.0 0.0 -5.062237185121e+01 
-5.250050951199e+01 -2.375340475443e-01 0.0 
-2.375340475443e-01 -1.178096989125e+02 0.0 
0.0 0.0 -5.069306252736e+01 
-5.269113732125e+01 -1.493577660831e-01 0.0 
-1.493577660831e-01 -1.178982002654e+02 0.0 
0.0 0.0 -5.077680127600e+01 
-5.292234701222e+01 -3.172079755766e-02 0.0 
-3.172079755766e-02 -1.180283618097e+02 0.0 
0.0 0.0 -5.088521264659e+01 
-5.317692007126e+01 1.499389528233e-01 0.0 
1.499389528233e-01 -1.181868957628e+02 0.0 
0.0 0.0 -5.100914475022e+01 
-5.349817438911e+01 3.956133926619e-01 0.0 
3.956133926619e-01 -1.184208833297e+02 0.0 
0.0 0.0 -5.117571731564e+01 
-5.384551203079e+01 7.612857688543e-01 0.0 
7.612857688543e-01 -1.186235492085e+02 0.0 
0.0 0.0 -5.134071837179e+01 
-5.439515143690e+01 1.160139487877e+00 0.0 
1.160139487877e+00 -1.190138969510e+02 0.0 
0.0 0.0 -5.162271451636e+01 
-5.548213753513e+01 1.889950934711e+00 0.0 
1.889950934711e+00 -1.204498955299e+02 0.0 
0.0 0.0 -5.237960991951e+01 
-5.487281718448e+01 2.412302704856e+00 0.0 
2.412302704856e+00 -1.171581472796e+02 0.0 
0.0 0.0 -5.120928933922e+01 
-6.292569061017e+01 1.878726360892e+00 0.0 
1.878726360892e+00 -1.365820039948e+02 0.0 
0.0 0.0 -5.945230838148e+01 
-6.366283941292e+01 1.536109007077e+00 0.0 
1.536109007077e+00 -1.399181306399e+02 0.0 
0.0 0.0 -6.067429101584e+01 
-6.270734606764e+01 9.368032396144e-01 0.0 
9.368032396144e-01 -1.385907430658e+02 0.0 
0.0 0.0 -5.998942674004e+01 
-6.225873815841e+01 6.126482563842e-01 0.0 
6.126482563842e-01 -1.381626155258e+02 0.0 
0.0 0.0 -5.972640610526e+01 
-6.200613495530e+01 3.455654343032e-01 0.0 
3.455654343032e-01 -1.379397103583e+02 0.0 
0.0 0.0 -5.958375359409e+01 
-6.171182402805e+01 1.783910498009e-01 0.0 
1.783910498009e-01 -1.377112947766e+02 0.0 
0.0 0.0 -5.942693564141e+01 
-6.147690296947e+01 3.982199139732e-02 0.0 
3.982199139732e-02 -1.375914375665e+02 0.0 
0.0 0.0 -5.932050216079e+01 
-6.127407203111e+01 -7.027181489221e-02 0.0 
-7.027181489221e-02 -1.374749824327e+02 0.0 
0.0 0.0 -5.922471633913e+01 
-6.110080751926e+01 -1.481922165961e-01 0.0 
-1.481922165961e-01 -1.373691921192e+02 0.0 
0.0 0.0 -5.914099989155e+01 
-6.096155961024e+01 -1.933690357285e-01 0.0 
-1.933690357285e-01 -1.372777776903e+02 0.0 
0.0 0.0 -5.907180119016e+01 
-6.083740519295e+01 -2.101191903087e-01 0.0 
-2.101191903087e-01 -1.372136069178e+02 0.0 
0.0 0.0 -5.901530363324e+01 
-6.072077194714e+01 -2.201749246860e-01 0.0 
-2.201749246860e-01 -1.371654983845e+02 0.0 
0.0 0.0 -5.896588109951e+01 
-6.063503237298e+01 -2.210585914833e-01 0.0 
-2.210585914833e-01 -1.371163500724e+02 0.0 
0.0 0.0 -5.892541473363e+01 
-6.055946035454e+01 -2.040178191869e-01 0.0 
-2.040178191869e-01 -1.370695113369e+02 0.0 
0.0 0.0 -5.888869150744e+01 
-6.049692174427e+01 -1.748510536970e-01 0.0 
-1.748510536970e-01 -1.370356776464e+02 0.0 
0.0 0.0 -5.885977981720e+01 
-6.044270526316e+01 -1.385847823344e-01 0.0 
-1.385847823344e-01 -1.370086559642e+02 0.0 
0.0 0.0 -5.883540836819e+01 
-6.040336075278e+01 -8.813682475555e-02 0.0 
-8.813682475555e-02 -1.369970564687e+02 0.0 
0.0 0.0 -5.882012516645e+01 
-6.036186898662e+01 -1.839523596031e-02 0.0 
-1.839523596031e-02 -1.370031391616e+02 0.0 
0.0 0.0 -5.880950244447e+01 
-6.034816167269e+01 -4.536836467255e-01 0.0 
-4.536836467255e-01 -1.370076764751e+02 0.0 
0.0 0.0 -5.880675144434e+01 
-6.890307980245e+01 -3.230747413005e-01 0.0 
-3.230747413005e-01 -1.565964349602e+02 0.0 
0.0 0.0 -6.724985442880e+01 
-6.896485926677e+01 -9.884232703286e-02 0.0 
-9.884232703286e-02 -1.565601140058e+02 0.0 
0.0 0.0 -6.725749198178e+01 
-6.901504954728e+01 -8.567181832122e-02 0.0 
-8.567181832122e-02 -1.565646192151e+02 0.0 
0.0 0.0 -6.727390062871e+01 
-6.906982237557e+01 -1.096683131410e-01 0.0 
-1.096683131410e-01 -1.566040068922e+02 0.0 
0.0 0.0 -6.730214878034e+01 
-6.915827074337e+01 -1.328759829135e-01 0.0 
-1.328759829135e-01 -1.566386484109e+02 0.0 
0.0 0.0 -6.733907574627e+01 
-6.923881048127e+01 -1.461955674412e-01 0.0 
-1.461955674412e-01 -1.566918405670e+02 0.0 
0.0 0.0 -6.737919531447e+01 
-6.934510508139e+01 -1.453450544338e-01 0.0 
-1.453450544338e-01 -1.567659969522e+02 0.0 
0.0 0.0 -6.743333061009e+01 
-6.945555238471e+01 -1.068070355032e-01 0.0 
-1.068070355032e-01 -1.568229625370e+02 0.0 
0.0 0.0 -6.748355447652e+01 
-6.960202892943e+01 -8.534213417718e-02 0.0 
-8.534213417718e-02 -1.568719993218e+02 0.0 
0.0 0.0 -6.754220847537e+01 
-6.974506338454e+01 -4.372844359492e-02 0.0 
-4.372844359492e-02 -1.569930115072e+02 0.0 
0.0 0.0 -6.762142246753e+01 
-6.991972719356e+01 5.149274524237e-02 0.0 
5.149274524237e-02 -1.571283986641e+02 0.0 
0.0 0.0 -6.771443775729e+01 
-7.013336966712e+01 1.733105928352e-01 0.0 
1.733105928352e-01 -1.572642505477e+02 0.0 
0.0 0.0 -6.781928606446e+01 
-7.035556500416e+01 3.328293734366e-01 0.0 
3.328293734366e-01 -1.574353481666e+02 0.0 
0.0 0.0 -6.793727395124e+01 
-7.059986210713e+01 5.312988394674e-01 0.0 
5.312988394674e-01 -1.575659397003e+02 0.0 
0.0 0.0 -6.804974054223e+01 
-7.097798068941e+01 7.110964718210e-01 0.0 
7.110964718210e-01 -1.579738552831e+02 0.0 
0.0 0.0 -6.828555079175e+01 
-7.185202247749e+01 1.210396266464e+00 0.0 
1.210396266464e+00 -1.593983454328e+02 0.0 
0.0 0.0 -6.897511037309e+01 
-7.105613378003e+01 1.500066617489e+00 0.0 
1.500066617489e+00 -1.560867899944e+02 0.0 
0.0 0.0 -6.774287713232e+01 
-7.917255622692e+01 1.190818417007e+00 0.0 
1.190818417007e+00 -1.754288386902e+02 0.0 
0.0 0.0 -7.598041847514e+01 
-7.991399902005e+01 1.020314603517e+00 0.0 
1.020314603517e+00 -1.786413990300e+02 0.0 
0.0 0.0 -7.716661941501e+01 
-7.916373791350e+01 6.697233922902e-01 0.0 
6.697233922902e-01 -1.773833668241e+02 0.0 
0.0 0.0 -7.656413142129e+01 
-7.895991140913e+01 4.736742736075e-01 0.0 
4.736742736075e-01 -1.771147836638e+02 0.0 
0.0 0.0 -7.642240852187e+01 
-7.872899218500e+01 3.453122896617e-01 0.0 
3.453122896617e-01 -1.769497462102e+02 0.0 
0.0 0.0 -7.630362151856e+01 
-7.852126995614e+01 2.014584855403e-01 0.0 
2.014584855403e-01 -1.768102989087e+02 0.0 
0.0 0.0 -7.619947065944e+01 
-7.832168517658e+01 9.706883294254e-02 0.0 
9.706883294254e-02 -1.766069690329e+02 0.0 
0.0 0.0 -7.607859626284e+01 
-7.815611948732e+01 7.383908081186e-02 0.0 
7.383908081186e-02 -1.764922607955e+02 0.0 
0.0 0.0 -7.599451408486e+01 
-7.810290484142e+01 4.647368516790e-03 0.0 
4.647368516790e-03 -1.764836678576e+02 0.0 
0.0 0.0 -7.597597180970e+01 
-7.792293464886e+01 -1.136419941360e-02 0.0 
-1.136419941360e-02 -1.763642651662e+02 0.0 
0.0 0.0 -7.588615994451e+01 
-7.781475926278e+01 -3.735606239312e-02 0.0 
-3.735606239312e-02 -1.762888648677e+02 0.0 
0.0 0.0 -7.583108723915e+01 
-7.772320108140e+01 -6.185663067832e-03 0.0 
-6.185663067832e-03 -1.762334522490e+02 0.0 
0.0 0.0 -7.578699599911e+01 
-7.761889198464e+01 -2.526839140104e-02 0.0 
-2.526839140104e-02 -1.762145815230e+02 0.0 
0.0 0.0 -7.575004205230e+01 
-7.754662352256e+01 8.813800759227e-03 0.0 
8.813800759227e-03 -1.761214518401e+02 0.0 
0.0 0.0 -7.570042260880e+01 
-7.751872234571e+01 1.158205776688e-01 0.0 
1.158205776688e-01 -1.762276066561e+02 0.0 
0.0 0.0 -7.572389870053e+01 
-7.742859227377e+01 -4.602121225178e-01 0.0 
-4.602121225178e-01 -1.762875642810e+02 0.0 
0.0 0.0 -7.571484696642e+01 
-2.994118637802e+01 1.658636512273e+01 0.0 
1.658636512273e+01 -2.612216325609e+01 0.0 
0.0 0.0 -1.670194563248e+01 
-2.801996722003e+01 1.056935552162e+01 0.0 
1.056935552162e+01 -3.681390314163e+01 0.0 
0.0 0.0 -1.857179060254e+01 
-3.355023997731e+01 7.629537149425e+00 0.0 
7.629537149425e+00 -5.550100704751e+01 0.0 
0.0 0.0 -2.494926051782e+01 
-3.916424066518e+01 6.000203892834e+00 0.0 
6.000203892834e+00 -7.426420009825e+01 0.0 
0.0 0.0 -3.355676685976e+01 
-4.583873528972e+01 4.976514793599e+00 0.0 
4.976514793599e+00 -9.289580797531e+01 0.0 
0.0 0.0 -4.122036297951e+01 
-5.343621874576e+01 3.784358812653e+00 0.0 
3.784358812653e+00 -1.122440715471e+02 0.0 
0.0 0.0 -4.930408708787e+01 
-6.104736768262e+01 2.964922709752e+00 0.0 
2.964922709752e+00 -1.314972066656e+02 0.0 
0.0 0.0 -5.736337230446e+01 
-6.902855446078e+01 2.257992428458e+00 0.0 
2.257992428458e+00 -1.508365234220e+02 0.0 
0.0 0.0 -6.555952336483e+01 
-7.709830611425e+01 1.794333705248e+00 0.0 
1.794333705248e+00 -1.701492422697e+02 0.0 
0.0 0.0 -7.377426451519e+01 
-8.527279484740e+01 1.458352986177e+00 0.0 
1.458352986177e+00 -1.896222353559e+02 0.0 
0.0 0.0 -8.206850906098e+01 
-3.706880585564e+01 1.431265833596e+01 0.0 
1.431265833596e+01 -5.935317903857e+01 0.0 
0.0 0.0 -2.743068793069e+01 
-1.675615297694e+02 -2.642093989449e-02 0.0 
-2.642093989449e-02 -3.960547141711e+02 0.0 
0.0 0.0 -1.686848731822e+02 
-6.060612869990e+00 -7.894315246913e-01 0.0 
-7.894315246913e-01 -1.723066831819e+01 0.0 
0.0 0.0 -6.683338781888e+00 
-4.995150021414e+01 -1.886859434132e+01 0.0 
-1.886859434132e+01 -8.743476963232e+01 0.0 
0.0 0.0 -4.191046569750e+01 
-1.670296197940e+02 -2.798061274581e+00 0.0 
-2.798061274581e+00 -3.926402484789e+02 0.0 
0.0 0.0 -1.675009604819e+02 
-4.609867795251e+01 7.478291244491e+00 0.0 
7.478291244491e+00 -9.310464549243e+01 0.0 
0.0 0.0 -4.134827689864e+01 
-9.638886837016e+01 -5.438253339810e-01 0.0 
-5.438253339810e-01 -2.106733425131e+02 0.0 
0.0 0.0 -9.171866326497e+01 
-1.669226951298e+02 2.677234671935e+00 0.0 
2.677234671935e+00 -3.943956294110e+02 0.0 
0.0 0.0 -1.679954973623e+02 
-5.960585998035e+01 4.751571430150e+00 0.0 
4.751571430150e+00 -1.286272329981e+02 0.0 
0.0 0.0 -5.606992789353e+01 
-1.664858214700e+02 4.577049482689e+00 0.0 
4.577049482689e+00 -3.913239834264e+02 0.0 
0.0 0.0 -1.669429414689e+02 
-7.566234707701e+01 2.744969825795e+00 0.0 
2.744969825795e+00 -1.676537629353e+02 0.0 
0.0 0.0 -7.259483300369e+01 
-1.669112489541e+02 -3.005669311362e+00 0.0 
-3.005669311362e+00 -3.896114771278e+02 0.0 
0.0 0.0 -1.665568178246e+02 
-3.490592089870e+00 1.485507554392e-01 0.0 
1.485507554392e-01 -1.611186703244e+01 0.0 
0.0 0.0 -5.307227662925e+00 
-1.652084029752e+02 4.964760475318e+00 0.0 
4.964760475318e+00 -3.865310202803e+02 0.0 
0.0 0.0 -1.651218269767e+02 
-9.206335261633e+01 1.766256571766e+00 0.0 
1.766256571766e+00 -2.066566991889e+02 0.0 
0.0 0.0 -8.921601554155e+01 
-6.037553671355e+01 -4.261137110210e-01 0.0 
-4.261137110210e-01 -1.297354337160e+02 0.0 
0.0 0.0 -5.663329112888e+01 
-1.195146387682e+02 -6.250937456793e-01 0.0 
-6.250937456793e-01 -2.661191160479e+02 0.0 
0.0 0.0 -1.152901264448e+02 
-1.639754677599e+02 4.569970184523e+00 0.0 
4.569970184523e+00 -3.825330718084e+02 0.0 
0.0 0.0 -1.635525618705e+02 
-1.630011602210e+02 3.405163837333e+00 0.0 
3.405163837333e+00 -3.801514083084e+02 0.0 
0.0 0.0 -1.625457705588e+02 
-1.613660539317e+02 1.204391457817e+00 0.0 
1.204391457817e+00 -3.767550944952e+02 0.0 
0.0 0.0 -1.610363445280e+02 
-1.611213857954e+02 1.798456049127e+00 0.0 
1.798456049127e+00 -3.757299409305e+02 0.0 
0.0 0.0 -1.606553980177e+02 
-1.624267674726e+02 2.731905335309e+00 0.0 
2.731905335309e+00 -3.789700904342e+02 0.0 
0.0 0.0 -1.620190573721e+02 
-9.539036733586e+01 1.154587850108e+00 0.0 
1.154587850108e+00 -2.147810684130e+02 0.0 
0.0 0.0 -9.265143072464e+01 
-9.447631786221e+01 4.510848588018e-01 0.0 
4.510848588018e-01 -2.138525026420e+02 0.0 
0.0 0.0 -9.209864615125e+01 
-9.458685868611e+01 2.987362488236e-01 0.0 
2.987362488236e-01 -2.148215880174e+02 0.0 
0.0 0.0 -9.242253401104e+01 
-1.236356921866e+02 2.285841918120e-01 0.0 
2.285841918120e-01 -2.845044776897e+02 0.0 
0.0 0.0 -1.220420509629e+02 
-1.657295433024e+02 -2.090273909827e+00 0.0 
-2.090273909827e+00 -3.858979023660e+02 0.0 
0.0 0.0 -1.650882337005e+02 
-6.012712595577e+01 8.201936308126e+00 0.0 
8.201936308126e+00 -1.084078401863e+02 0.0 
0.0 0.0 -5.138001847976e+01 
-3.790955677605e+00 3.130290126900e-02 0.0 
3.130290126900e-02 -1.712786353397e+01 0.0 
0.0 0.0 -5.533215216807e+00 
-1.448401033559e+02 -4.454999271301e-01 0.0 
-4.454999271301e-01 -3.297472428017e+02 0.0 
0.0 0.0 -1.419762038473e+02 
-9.311761943849e+01 6.640271850966e-03 0.0 
6.640271850966e-03 -2.123165826343e+02 0.0 
0.0 0.0 -9.123026062184e+01 
-2.931368667182e+01 -1.482496539661e-01 0.0 
-1.482496539661e-01 -6.851369767192e+01 0.0 
0.0 0.0 -2.894821530312e+01 
-1.621010981000e+02 3.954232161841e+00 0.0 
3.954232161841e+00 -3.780344540422e+02 0.0 
0.0 0.0 -1.616406656427e+02 
-1.674356276595e+02 3.805419477436e+00 0.0 
3.805419477436e+00 -3.944467069829e+02 0.0 
0.0 0.0 -1.681647003927e+02 
-1.658480953077e+02 4.947632122687e+00 0.0 
4.947632122687e+00 -3.888990850402e+02 0.0 
0.0 0.0 -1.660241541044e+02 
-1.666878429626e+02 1.415756084450e+00 0.0 
1.415756084450e+00 -3.945732867347e+02 0.0 
0.0 0.0 -1.679783389092e+02 
-1.677042399862e+02 -1.324545231743e+00 0.0 
-1.324545231743e+00 -3.957837857157e+02 0.0 
0.0 0.0 -1.686464077106e+02 
-2.249165602504e+01 -1.091820927882e+01 0.0 
-1.091820927882e+01 -2.442131671295e+01 0.0 
0.0 0.0 -1.370685548693e+01 
-9.464475542191e+01 7.189065246239e-01 0.0 
7.189065246239e-01 -2.135784362847e+02 0.0 
0.0 0.0 -9.206695751199e+01 
-1.652749112390e+02 -3.079687863309e+00 0.0 
-3.079687863309e+00 -3.874147752160e+02 0.0 
0.0 0.0 -1.654069059365e+02 
-1.395867069748e+02 2.517938673406e-01 0.0 
2.517938673406e-01 -3.231442038815e+02 0.0 
0.0 0.0 -1.384192732569e+02 
-4.330128403824e+00 1.907255101442e-01 0.0 
1.907255101442e-01 -1.719984800148e+01 0.0 
0.0 0.0 -6.171718331398e+00 
-7.846232432042e+01 -5.097070613388e-01 0.0 
-5.097070613388e-01 -1.690683531696e+02 0.0 
0.0 0.0 -7.385920324702e+01 
-1.623567220608e+02 7.553546292158e-01 0.0 
7.553546292158e-01 -3.793565752486e+02 0.0 
0.0 0.0 -1.621139891928e+02 
-5.313067391232e+01 6.206353028866e+00 0.0 
6.206353028866e+00 -1.123094242693e+02 0.0 
0.0 0.0 -4.923202945448e+01 
-4.138559369348e+01 9.994713420541e+00 0.0 
9.994713420541e+00 -7.549571154711e+01 0.0 
0.0 0.0 -3.358409679034e+01 
-6.752125307276e+01 3.604925636025e+00 0.0 
3.604925636025e+00 -1.481157504247e+02 0.0 
0.0 0.0 -6.429110104924e+01 
-8.377591925092e+01 2.239904243236e+00 0.0 
2.239904243236e+00 -1.868916039274e+02 0.0 
0.0 0.0 -8.080025695351e+01 
-3.595647305590e+01 2.322792600870e+01 0.0 
2.322792600870e+01 -5.070744250810e+01 0.0 
0.0 0.0 -2.621387207889e+01 
-1.079858219024e+02 8.540475813923e-02 0.0 
8.540475813923e-02 -2.471993850474e+02 0.0 
0.0 0.0 -1.061555620849e+02 
-1.666263731153e+02 -1.226441881256e+00 0.0 
-1.226441881256e+00 -3.880936159791e+02 0.0 
0.0 0.0 -1.660159967283e+02 
-3.598162253763e+00 -7.258288451364e-02 0.0 
-7.258288451364e-02 -1.635339841913e+01 0.0 
0.0 0.0 -5.180535293554e+00 
-1.553427839917e+02 1.802649693782e-01 0.0 
1.802649693782e-01 -3.615080875123e+02 0.0 
0.0 0.0 -1.546552614512e+02 
-9.601509112075e+01 1.675562556527e+00 0.0 
1.675562556527e+00 -2.157518828498e+02 0.0 
0.0 0.0 -9.313009219117e+01 
-9.953675822515e+01 2.064301772537e+00 0.0 
2.064301772537e+00 -2.242436073798e+02 0.0 
0.0 0.0 -9.673410968148e+01 
-1.033634419376e+02 1.802331120065e+00 0.0 
1.802331120065e+00 -2.332380296376e+02 0.0 
0.0 0.0 -1.005804414726e+02 
-1.073663817808e+02 2.372311427915e+00 0.0 
2.372311427915e+00 -2.431842650240e+02 0.0 
0.0 0.0 -1.047651940414e+02 
-1.115645089629e+02 2.183553392860e+00 0.0 
2.183553392860e+00 -2.530859091002e+02 0.0 
0.0 0.0 -1.089951254189e+02 
-1.151957507945e+02 2.599909400563e+00 0.0 
2.599909400563e+00 -2.620812759391e+02 0.0 
0.0 0.0 -1.127831080201e+02 
-1.110788680878e+02 2.782544674357e+00 0.0 
2.782544674357e+00 -2.522695744129e+02 0.0 
0.0 0.0 -1.086045327502e+02 
-1.188997793814e+02 2.995944311606e+00 0.0 
2.995944311606e+00 -2.712336492455e+02 0.0 
0.0 0.0 -1.166400285881e+02 
-1.146719755135e+02 3.191837624354e+00 0.0 
3.191837624354e+00 -2.613587161067e+02 0.0 
0.0 0.0 -1.124092074860e+02 
-1.195749009700e+02 2.466513464426e+00 0.0 
2.466513464426e+00 -2.722437662761e+02 0.0 
0.0 0.0 -1.171456001738e+02 
-1.225081121353e+02 3.381384100287e+00 0.0 
3.381384100287e+00 -2.804325516874e+02 0.0 
0.0 0.0 -1.204821991468e+02 
-1.182263138643e+02 3.593609365061e+00 0.0 
3.593609365061e+00 -2.705651377838e+02 0.0 
0.0 0.0 -1.162374354944e+02 
-1.260607199676e+02 3.729081121454e+00 0.0 
3.729081121454e+00 -2.896920065855e+02 0.0 
0.0 0.0 -1.243258179659e+02 
-1.217299518305e+02 3.964926529512e+00 0.0 
3.964926529512e+00 -2.798919875088e+02 0.0 
0.0 0.0 -1.200865818018e+02 
-1.139563087664e+02 3.870599473161e+00 0.0 
3.870599473161e+00 -2.608631235236e+02 0.0 
0.0 0.0 -1.120458296870e+02 
-1.173889066493e+02 4.248215800271e+00 0.0 
4.248215800271e+00 -2.702464086334e+02 0.0 
0.0 0.0 -1.158905945848e+02 
-1.096676506480e+02 4.210084744375e+00 0.0 
4.210084744375e+00 -2.512258093659e+02 0.0 
0.0 0.0 -1.078680380042e+02 
-1.130271402896e+02 4.602185740679e+00 0.0 
4.602185740679e+00 -2.607080125549e+02 0.0 
0.0 0.0 -1.117205458534e+02 
-1.207743252654e+02 4.556091118396e+00 0.0 
4.556091118396e+00 -2.797351497421e+02 0.0 
0.0 0.0 -1.197528425023e+02 
-1.163291290382e+02 4.910141579001e+00 0.0 
4.910141579001e+00 -2.702885053821e+02 0.0 
0.0 0.0 -1.155852903261e+02 
-1.086017811504e+02 5.027003719165e+00 0.0 
5.027003719165e+00 -2.512411057294e+02 0.0 
0.0 0.0 -1.075528660639e+02 
-1.118069623333e+02 5.315558427068e+00 0.0 
5.315558427068e+00 -2.609237126924e+02 0.0 
0.0 0.0 -1.114192025077e+02 
-1.041390787537e+02 5.514800192226e+00 0.0 
5.514800192226e+00 -2.419026212818e+02 0.0 
0.0 0.0 -1.034125100106e+02 
-1.072415249825e+02 5.773868934380e+00 0.0 
5.773868934380e+00 -2.517208842971e+02 0.0 
0.0 0.0 -1.072887227839e+02 
-9.960818881290e+01 6.077208864803e+00 0.0 
6.077208864803e+00 -2.326634479784e+02 0.0 
0.0 0.0 -9.928149103738e+01 
-1.026035415610e+02 6.283240916270e+00 0.0 
6.283240916270e+00 -2.426635488154e+02 0.0 
0.0 0.0 -1.031801271129e+02 
-1.102996801976e+02 5.866149567953e+00 0.0 
5.866149567953e+00 -2.616011297229e+02 0.0 
0.0 0.0 -1.111702429761e+02 
-1.055277641654e+02 6.284081243082e+00 0.0 
6.284081243082e+00 -2.526578925712e+02 0.0 
0.0 0.0 -1.070556970210e+02 
-9.788433648679e+01 6.825520166998e+00 0.0 
6.825520166998e+00 -2.337862642160e+02 0.0 
0.0 0.0 -9.910118021083e+01 
-1.006699265754e+02 6.702595740358e+00 0.0 
6.702595740358e+00 -2.439046909322e+02 0.0 
0.0 0.0 -1.029723852523e+02 
-9.307537814937e+01 7.382543531645e+00 0.0 
7.382543531645e+00 -2.251338200855e+02 0.0 
0.0 0.0 -9.506275947047e+01 
-9.570495519446e+01 7.085662085339e+00 0.0 
7.085662085339e+00 -2.353369110718e+02 0.0 
0.0 0.0 -9.891255987988e+01 
-1.034672340479e+02 6.332999760676e+00 0.0 
6.332999760676e+00 -2.538994693782e+02 0.0 
0.0 0.0 -1.068100110278e+02 
-9.839671655570e+01 6.510167718865e+00 0.0 
6.510167718865e+00 -2.453812880198e+02 0.0 
0.0 0.0 -1.027334013727e+02 
-9.059913049318e+01 7.399384286301e+00 0.0 
7.399384286301e+00 -2.269410924923e+02 0.0 
0.0 0.0 -9.486206689564e+01 
-9.321968226459e+01 6.546545774501e+00 0.0 
6.546545774501e+00 -2.370490626372e+02 0.0 
0.0 0.0 -9.868062347054e+01 
-8.537129095653e+01 7.579747788135e+00 0.0 
7.579747788135e+00 -2.188084622581e+02 0.0 
0.0 0.0 -9.085392596439e+01 
-8.796078351866e+01 6.358594008130e+00 0.0 
6.358594008130e+00 -2.289383491003e+02 0.0 
0.0 0.0 -9.466973978568e+01 
-8.001773246645e+01 7.506034562817e+00 0.0 
7.506034562817e+00 -2.109827627785e+02 0.0 
0.0 0.0 -8.690014857347e+01 
-8.259612607466e+01 5.853964602531e+00 0.0 
5.853964602531e+00 -2.209355425197e+02 0.0 
0.0 0.0 -9.065950057830e+01 
-9.078713919219e+01 4.903661674156e+00 0.0 
4.903661674156e+00 -2.384776896420e+02 0.0 
0.0 0.0 -9.837944865026e+01 
-8.552147733947e+01 4.021876306904e+00 0.0 
4.021876306904e+00 -2.301594387030e+02 0.0 
0.0 0.0 -9.430427481274e+01 
-7.719756917241e+01 4.918023938680e+00 0.0 
4.918023938680e+00 -2.130304365409e+02 0.0 
0.0 0.0 -8.666840171400e+01 
-8.029745197281e+01 2.689003727101e+00 0.0 
2.689003727101e+00 -2.216938487305e+02 0.0 
0.0 0.0 -9.019739021100e+01 
-8.882567508030e+01 2.159474838022e+00 0.0 
2.159474838022e+00 -2.386800707734e+02 0.0 
0.0 0.0 -9.785172375612e+01 
-8.382861092861e+01 5.810827285722e-01 0.0 
5.810827285722e-01 -2.295373348026e+02 0.0 
0.0 0.0 -9.360978371935e+01 
-9.247445268629e+01 4.200286659141e-01 0.0 
4.200286659141e-01 -2.465506763091e+02 0.0 
0.0 0.0 -1.013075386986e+02 
-8.772288683742e+01 -1.256023422857e+00 0.0 
-1.256023422857e+00 -2.367198843822e+02 0.0 
0.0 0.0 -9.693283136588e+01 
-7.912630538819e+01 -1.404252758258e+00 0.0 
-1.404252758258e+00 -2.200130281031e+02 0.0 
0.0 0.0 -8.934180004740e+01 
-8.329343370230e+01 -3.207220150234e+00 0.0 
-3.207220150234e+00 -2.263806057031e+02 0.0 
0.0 0.0 -9.250221182162e+01 
-9.187935721526e+01 -2.733255491381e+00 0.0 
-2.733255491381e+00 -2.434066765099e+02 0.0 
0.0 0.0 -1.001858101175e+02 
-8.765575424544e+01 -4.515896013030e+00 0.0 
-4.515896013030e+00 -2.323458373397e+02 0.0 
0.0 0.0 -9.560047747553e+01 
-7.925156250352e+01 -5.321119567806e+00 0.0 
-5.321119567806e+00 -2.153472379227e+02 0.0 
0.0 0.0 -8.797964012785e+01 
-8.380466230490e+01 -6.318208109267e+00 0.0 
-6.318208109267e+00 -2.206811768714e+02 0.0 
0.0 0.0 -9.094575175290e+01 
-9.213356988360e+01 -5.363811118941e+00 0.0 
-5.363811118941e+00 -2.381988538223e+02 0.0 
0.0 0.0 -9.869972711176e+01 
-8.837415137267e+01 -6.810367337673e+00 0.0 
-6.810367337673e+00 -2.260831105759e+02 0.0 
0.0 0.0 -9.393717858458e+01 
-8.028364886017e+01 -7.961637801464e+00 0.0 
-7.961637801464e+00 -2.083265120423e+02 0.0 
0.0 0.0 -8.618304827073e+01 
-8.485167083677e+01 -8.027238495176e+00 0.0 
-8.027238495176e+00 -2.134262721851e+02 0.0 
0.0 0.0 -8.908338290655e+01 
-9.293030092309e+01 -6.908883680249e+00 0.0 
-6.908883680249e+00 -2.317749627143e+02 0.0 
0.0 0.0 -9.701157909122e+01 
-8.930487645082e+01 -7.747168178583e+00 0.0 
-7.747168178583e+00 -2.188885795987e+02 0.0 
0.0 0.0 -9.205803681486e+01 
-8.145516511391e+01 -8.877659980998e+00 0.0 
-8.877659980998e+00 -2.002220385236e+02 0.0 
0.0 0.0 -8.410316109125e+01 
-8.574448215985e+01 -8.250674915622e+00 0.0 
-8.250674915622e+00 -2.056678003708e+02 0.0 
0.0 0.0 -8.702368475919e+01 
-9.366804165875e+01 -7.263480221885e+00 0.0 
-7.263480221885e+00 -2.248061593951e+02 0.0 
0.0 0.0 -9.514226031615e+01 
-8.990641749712e+01 -7.493412611897e+00 0.0 
-7.493412611897e+00 -2.115873248063e+02 0.0 
0.0 0.0 -9.004812269102e+01 
-9.791505514015e+01 -6.651382596635e+00 0.0 
-6.651382596635e+00 -2.310711571987e+02 0.0 
0.0 0.0 -9.829586370165e+01 
-8.205647507360e+01 -8.345544029568e+00 0.0 
-8.345544029568e+00 -1.920520846902e+02 0.0 
0.0 0.0 -8.183256792914e+01 
-8.601457378650e+01 -7.380430242667e+00 0.0 
-7.380430242667e+00 -1.982043031064e+02 0.0 
0.0 0.0 -8.486566306788e+01 
-7.814301119947e+01 -8.029202436626e+00 0.0 
-8.029202436626e+00 -1.782588962524e+02 0.0 
0.0 0.0 -7.652057223557e+01 
-8.192705385226e+01 -6.942143969360e+00 0.0 
-6.942143969360e+00 -1.848253040580e+02 0.0 
0.0 0.0 -7.962570737307e+01 
-1.063381591494e+02 5.741090759383e+00 0.0 
5.741090759383e+00 -2.637151157724e+02 0.0 
0.0 0.0 -1.106159824766e+02 
-7.394617470278e+01 -7.325547002528e+00 0.0 
-7.325547002528e+00 -1.645977815527e+02 0.0 
0.0 0.0 -7.116318687665e+01 
-7.043010557354e+01 -8.545685730146e+00 0.0 
-8.545685730146e+00 -1.582863093379e+02 0.0 
0.0 0.0 -6.821492447345e+01 
-7.756807906858e+01 -6.223668935230e+00 0.0 
-6.223668935230e+00 -1.716045935422e+02 0.0 
0.0 0.0 -7.435180178323e+01 
-8.573153254853e+01 -5.941121119558e+00 0.0 
-5.941121119558e+00 -1.919032469366e+02 0.0 
0.0 0.0 -8.289043384554e+01 
-6.936066750457e+01 -6.324553184326e+00 0.0 
-6.324553184326e+00 -1.511799810812e+02 0.0 
0.0 0.0 -6.576219457573e+01 
-7.288293099381e+01 -5.313948423620e+00 0.0 
-5.313948423620e+00 -1.586165072394e+02 0.0 
0.0 0.0 -6.904983146997e+01 
-6.435495454180e+01 -5.177526428936e+00 0.0 
-5.177526428936e+00 -1.381241296737e+02 0.0 
0.0 0.0 -6.034372526465e+01 
-7.756352984905e+01 8.803402377013e+00 0.0 
8.803402377013e+00 -2.000666846534e+02 0.0 
0.0 0.0 -8.288906435073e+01 
-1.241334229733e+02 4.791058352880e+00 0.0 
4.791058352880e+00 -2.893174465235e+02 0.0 
0.0 0.0 -1.236352608490e+02 
-6.785294864572e+01 -4.313253315855e+00 0.0 
-4.313253315855e+00 -1.459422140860e+02 0.0 
0.0 0.0 -6.373854881951e+01 
-5.894782376190e+01 -3.969215453159e+00 0.0 
-3.969215453159e+00 -1.254811274322e+02 0.0 
0.0 0.0 -5.492868535822e+01 
-5.557993454198e+01 -4.757794950444e+00 0.0 
-4.757794950444e+00 -1.175211822467e+02 0.0 
0.0 0.0 -5.153033503662e+01 
-4.974185292362e+01 -3.396615195677e+00 0.0 
-3.396615195677e+00 -1.050234637607e+02 0.0 
0.0 0.0 -4.602959500530e+01 
-1.159407924390e+02 2.157561791588e+00 0.0 
2.157561791588e+00 -2.632507814704e+02 0.0 
0.0 0.0 -1.133574721728e+02 
-1.237837465682e+02 2.306366632435e+00 0.0 
2.306366632435e+00 -2.824788373775e+02 0.0 
0.0 0.0 -1.214787751837e+02 
-1.198396088939e+02 1.995065688585e+00 0.0 
1.995065688585e+00 -2.728889858463e+02 0.0 
0.0 0.0 -1.174185784220e+02 
-1.279476187865e+02 2.222983196987e+00 0.0 
2.222983196987e+00 -2.926957204137e+02 0.0 
0.0 0.0 -1.257930017600e+02 
-1.241620761672e+02 1.920758614835e+00 0.0 
1.920758614835e+00 -2.835004941676e+02 0.0 
0.0 0.0 -1.218987711004e+02 
-5.322911400728e+01 -2.825423594463e+00 0.0 
-2.825423594463e+00 -1.132220711007e+02 0.0 
0.0 0.0 -4.953535553240e+01 
-1.304433243245e+02 3.533236966110e+00 0.0 
3.533236966110e+00 -2.997695779387e+02 0.0 
0.0 0.0 -1.286638706790e+02 
-1.317168116100e+02 2.537194294524e+00 0.0 
2.537194294524e+00 -3.018950584609e+02 0.0 
0.0 0.0 -1.296835610213e+02 
-1.009660293827e+02 5.113162540625e+00 0.0 
5.113162540625e+00 -2.322058780548e+02 0.0 
0.0 0.0 -9.955157223127e+01 
-9.040091435303e+01 7.376764858223e+00 0.0 
7.376764858223e+00 -2.148039322598e+02 0.0 
0.0 0.0 -9.116145398385e+01 
-9.745621482389e+01 1.777866989864e+00 0.0 
1.777866989864e+00 -2.560272789348e+02 0.0 
0.0 0.0 -1.056450481276e+02 
-7.649091903793e+01 -4.407860120397e+00 0.0 
-4.407860120397e+00 -1.663149475985e+02 0.0 
0.0 0.0 -7.244175999092e+01 
-7.147342185882e+01 -3.558181444472e+00 0.0 
-3.558181444472e+00 -1.539644212175e+02 0.0 
0.0 0.0 -6.723135292290e+01 
-8.013169204298e+01 -3.586067181863e+00 0.0 
-3.586067181863e+00 -1.742677625180e+02 0.0 
0.0 0.0 -7.591983636830e+01 
-1.017851670413e+02 -6.339015153042e+00 0.0 
-6.339015153042e+00 -2.440142395508e+02 0.0 
0.0 0.0 -1.033398219776e+02 
-1.060509772783e+02 -5.849531293984e+00 0.0 
-5.849531293984e+00 -2.505172927391e+02 0.0 
0.0 0.0 -1.065704810052e+02 
-1.100403184137e+02 -5.500827827485e+00 0.0 
-5.500827827485e+00 -2.632340360507e+02 0.0 
0.0 0.0 -1.115823063393e+02 
-1.142846471496e+02 -5.111151802685e+00 0.0 
-5.111151802685e+00 -2.699174981577e+02 0.0 
0.0 0.0 -1.148606435922e+02 
-1.183968976852e+02 -4.758194073106e+00 0.0 
-4.758194073106e+00 -2.824513940604e+02 0.0 
0.0 0.0 -1.198544875237e+02 
-1.225963259672e+02 -4.458274673461e+00 0.0 
-4.458274673461e+00 -2.892915680653e+02 0.0 
0.0 0.0 -1.231663682098e+02 
-1.184220294319e+02 -4.653152476779e+00 0.0 
-4.653152476779e+00 -2.767901589068e+02 0.0 
0.0 0.0 -1.181636565016e+02 
-1.266852978868e+02 -4.089623121358e+00 0.0 
-4.089623121358e+00 -2.962868208380e+02 0.0 
0.0 0.0 -1.264916356174e+02 
-1.224558144179e+02 -4.160613821741e+00 0.0 
-4.160613821741e+00 -2.838527487461e+02 0.0 
0.0 0.0 -1.214925689492e+02 
-1.268330870982e+02 -4.126277468567e+00 0.0 
-4.126277468567e+00 -3.016688329637e+02 0.0 
0.0 0.0 -1.281505760186e+02 
-1.225726370327e+02 -4.259211957999e+00 0.0 
-4.259211957999e+00 -2.947707897703e+02 0.0 
0.0 0.0 -1.248030280409e+02 
-1.306655320500e+02 -3.686728431500e+00 0.0 
-3.686728431500e+00 -3.034366701144e+02 0.0 
0.0 0.0 -1.298306606493e+02 
-1.263905736341e+02 -3.660583845545e+00 0.0 
-3.660583845545e+00 -2.910993994235e+02 0.0 
0.0 0.0 -1.248469919173e+02 
-1.345477187748e+02 -3.274537523067e+00 0.0 
-3.274537523067e+00 -3.107589244160e+02 0.0 
0.0 0.0 -1.331919929572e+02 
-1.302306212598e+02 -3.159903137957e+00 0.0 
-3.159903137957e+00 -2.985241040391e+02 0.0 
0.0 0.0 -1.282264175897e+02 
-1.220905101111e+02 -3.524631239259e+00 0.0 
-3.524631239259e+00 -2.787293969546e+02 0.0 
0.0 0.0 -1.198459721197e+02 
-1.258802042228e+02 -2.961707689874e+00 0.0 
-2.961707689874e+00 -2.862758433167e+02 0.0 
0.0 0.0 -1.232468142619e+02 
-1.177647035473e+02 -3.275487047488e+00 0.0 
-3.275487047488e+00 -2.664632566904e+02 0.0 
0.0 0.0 -1.148683880713e+02 
-1.011972553593e+02 3.334564835749e-01 0.0 
3.334564835749e-01 -2.639435258116e+02 0.0 
0.0 0.0 -1.091422343513e+02 
-1.061786722057e+02 1.501486024357e+00 0.0 
1.501486024357e+00 -2.736883612966e+02 0.0 
0.0 0.0 -1.135601100507e+02 
-1.099922481680e+02 2.925092268798e-01 0.0 
2.925092268798e-01 -2.816455479917e+02 0.0 
0.0 0.0 -1.170913388479e+02 
-1.149863062062e+02 1.302856467011e+00 0.0 
1.302856467011e+00 -2.916051261762e+02 0.0 
0.0 0.0 -1.215774297147e+02 
-1.188712063989e+02 2.861171031444e-01 0.0 
2.861171031444e-01 -2.996113133590e+02 0.0 
0.0 0.0 -1.251447559274e+02 
-1.238820302219e+02 1.164476324149e+00 0.0 
1.164476324149e+00 -3.097251856602e+02 0.0 
0.0 0.0 -1.296821647646e+02 
-1.278247429714e+02 3.009276422222e-01 0.0 
3.009276422222e-01 -3.177525331120e+02 0.0 
0.0 0.0 -1.332731828250e+02 
-1.229069243996e+02 -5.978295607754e-01 0.0 
-5.978295607754e-01 -3.073073815491e+02 0.0 
0.0 0.0 -1.286642917846e+02 
-1.295254202775e+02 4.040326704819e+00 0.0 
4.040326704819e+00 -2.989679043821e+02 0.0 
0.0 0.0 -1.281479973979e+02 
-7.187258920155e+01 3.405706804012e+00 0.0 
3.405706804012e+00 -2.051025544776e+02 0.0 
0.0 0.0 -8.269254310376e+01 
-6.903269407500e+01 6.075044624591e+00 0.0 
6.075044624591e+00 -1.961673967781e+02 0.0 
0.0 0.0 -7.916002725593e+01 
-6.357914361921e+01 4.377150157481e+00 0.0 
4.377150157481e+00 -1.889734797895e+02 0.0 
0.0 0.0 -7.536578702260e+01 
-6.111088688622e+01 7.578637952332e+00 0.0 
7.578637952332e+00 -1.796259500635e+02 0.0 
0.0 0.0 -7.182105108493e+01 
-5.548812358542e+01 5.715851842262e+00 0.0 
5.715851842262e+00 -1.733859755625e+02 0.0 
0.0 0.0 -6.826222974438e+01 
-5.356169283258e+01 9.527739414140e+00 0.0 
9.527739414140e+00 -1.633900735914e+02 0.0 
0.0 0.0 -6.468552992718e+01 
-4.786319602303e+01 7.520324509547e+00 0.0 
7.520324509547e+00 -1.583785365979e+02 0.0 
0.0 0.0 -6.141756277641e+01 
-5.015317089836e+01 2.641405129675e+00 0.0 
2.641405129675e+00 -1.669653235804e+02 0.0 
0.0 0.0 -6.471151273561e+01 
-4.292361510728e+01 3.819633407539e+00 0.0 
3.819633407539e+00 -1.533593491863e+02 0.0 
0.0 0.0 -5.858820345057e+01 
-4.580293394904e+01 -1.779308862609e+00 0.0 
-1.779308862609e+00 -1.594586278952e+02 0.0 
0.0 0.0 -6.105384223410e+01 
-3.890441298085e+01 -1.587197012166e+00 0.0 
-1.587197012166e+00 -1.469573410828e+02 0.0 
0.0 0.0 -5.591974358247e+01 
-4.261045917004e+01 -7.133453612914e+00 0.0 
-7.133453612914e+00 -1.498368262643e+02 0.0 
0.0 0.0 -5.744979950243e+01 
-1.133276956300e+02 5.782079135720e+00 0.0 
5.782079135720e+00 -2.714575959136e+02 0.0 
0.0 0.0 -1.150355874631e+02 
-1.200849405971e+02 2.109979458535e+00 0.0 
2.109979458535e+00 -3.013507379700e+02 0.0 
0.0 0.0 -1.260307035701e+02 
-1.290038841895e+02 1.876363507114e+00 0.0 
1.876363507114e+00 -3.196576387304e+02 0.0 
0.0 0.0 -1.341984568760e+02 
-1.252090885560e+02 2.730761680850e+00 0.0 
2.730761680850e+00 -3.108626035741e+02 0.0 
0.0 0.0 -1.304215076390e+02 
-4.638098354271e+01 -4.000091863966e+00 0.0 
-4.000091863966e+00 -9.689310068620e+01 0.0 
0.0 0.0 -4.258222526867e+01 
-1.339894028319e+02 -2.669015997349e+00 0.0 
-2.669015997349e+00 -3.061345695866e+02 0.0 
0.0 0.0 -1.316371917255e+02 
-1.311629352942e+02 -3.673699459090e+00 0.0 
-3.673699459090e+00 -3.138716947663e+02 0.0 
0.0 0.0 -1.331103890181e+02 
-1.268406181425e+02 -3.646981853236e+00 0.0 
-3.646981853236e+00 -3.068016731062e+02 0.0 
0.0 0.0 -1.296926873746e+02 
-1.319147467916e+02 -4.656444535017e-01 0.0 
-4.656444535017e-01 -3.255761258994e+02 0.0 
0.0 0.0 -1.368472618073e+02 
-4.369129916697e+01 -2.236705445770e+00 0.0 
-2.236705445770e+00 -9.315715401973e+01 0.0 
0.0 0.0 -4.065453595601e+01 
-4.694218334472e+01 1.201800141045e+01 0.0 
1.201800141045e+01 -1.474860876293e+02 0.0 
0.0 0.0 -5.789394224168e+01 
-5.242107759520e+01 1.264402634751e+01 0.0 
1.264402634751e+01 -1.514954055600e+02 0.0 
0.0 0.0 -6.077494494657e+01 
-1.321372364730e+02 2.153303307970e+00 0.0 
2.153303307970e+00 -3.029901804865e+02 0.0 
0.0 0.0 -1.301382250878e+02 
-1.283592008031e+02 1.850068292416e+00 0.0 
1.850068292416e+00 -2.938189679935e+02 0.0 
0.0 0.0 -1.262534506390e+02 
-1.356308895399e+02 -3.141755047794e+00 0.0 
-3.141755047794e+00 -3.258851738104e+02 0.0 
0.0 0.0 -1.380548190051e+02 
-4.732839494033e+01 -1.875695894639e+00 0.0 
-1.875695894639e+00 -1.014579758905e+02 0.0 
0.0 0.0 -4.423591124926e+01 
-1.349729243655e+02 -3.612994352203e+00 0.0 
-3.612994352203e+00 -3.157471637878e+02 0.0 
0.0 0.0 -1.348160264460e+02 
-3.671148282139e+01 5.579291209507e+00 0.0 
5.579291209507e+00 -1.411972864570e+02 0.0 
0.0 0.0 -5.404565421606e+01 
-1.296111717517e+02 -2.430350857673e+00 0.0 
-2.430350857673e+00 -2.940170322077e+02 0.0 
0.0 0.0 -1.266884611878e+02 
-1.376441267410e+02 -2.197085817378e+00 0.0 
-2.197085817378e+00 -3.139074465930e+02 0.0 
0.0 0.0 -1.350654720002e+02 
-1.142754152527e+02 -4.697752259862e+00 0.0 
-4.697752259862e+00 -2.642484210927e+02 0.0 
0.0 0.0 -1.131571509036e+02 
-1.341954719579e+02 2.448005164482e+00 0.0 
2.448005164482e+00 -3.294336225642e+02 0.0 
0.0 0.0 -1.386887283566e+02 
-1.303478071446e+02 3.199638477910e+00 0.0 
3.199638477910e+00 -3.202309114396e+02 0.0 
0.0 0.0 -1.347736155753e+02 
-4.990267516652e+01 -6.136641773622e+00 0.0 
-6.136641773622e+00 -1.636049772658e+02 0.0 
0.0 0.0 -6.362713405974e+01 
-4.729013173449e+01 -1.080636851769e+01 0.0 
-1.080636851769e+01 -1.515523110489e+02 0.0 
0.0 0.0 -5.918363416945e+01 
-4.119974603998e+01 -1.283092273481e+01 0.0 
-1.283092273481e+01 -1.372870640321e+02 0.0 
0.0 0.0 -5.347938732214e+01 
-4.640087472681e+01 -1.490187563700e+01 0.0 
-1.490187563700e+01 -1.372107980956e+02 0.0 
0.0 0.0 -5.450815449323e+01 
-5.246621289512e+01 -1.247702557664e+01 0.0 
-1.247702557664e+01 -1.532045790490e+02 0.0 
0.0 0.0 -6.129437380200e+01 
-5.093141155510e+01 -1.501581875684e+01 0.0 
-1.501581875684e+01 -1.376977379008e+02 0.0 
0.0 0.0 -5.609036508409e+01 
-4.636074696176e+01 -1.748130571115e+01 0.0 
-1.748130571115e+01 -1.198725976302e+02 0.0 
0.0 0.0 -4.888241335636e+01 
-4.967289492112e+01 -1.601530427312e+01 0.0 
-1.601530427312e+01 -1.204732563010e+02 0.0 
0.0 0.0 -5.029884425631e+01 
-5.532032497872e+01 -1.412377167206e+01 0.0 
-1.412377167206e+01 -1.397631398159e+02 0.0 
0.0 0.0 -5.812503943838e+01 
-5.300303671618e+01 -1.404976055445e+01 0.0 
-1.404976055445e+01 -1.231877237211e+02 0.0 
0.0 0.0 -5.240484792990e+01 
-4.807642521171e+01 -1.477820628612e+01 0.0 
-1.477820628612e+01 -1.022480673497e+02 0.0 
0.0 0.0 -4.397369194067e+01 
-4.998790041625e+01 -1.240359568432e+01 0.0 
-1.240359568432e+01 -1.063493564647e+02 0.0 
0.0 0.0 -4.632707961842e+01 
-1.419898034067e+02 -2.432601342586e+00 0.0 
-2.432601342586e+00 -3.259003341360e+02 0.0 
0.0 0.0 -1.399670412628e+02 
-3.268451538830e+01 -1.259510522854e+00 0.0 
-1.259510522854e+00 -1.359991675221e+02 0.0 
0.0 0.0 -5.181452996596e+01 
-1.062204140038e+02 3.763077967939e+00 0.0 
3.763077967939e+00 -2.418715446599e+02 0.0 
0.0 0.0 -1.040275875991e+02 
-1.398080460121e+02 -3.224398516132e+00 0.0 
-3.224398516132e+00 -3.329686801930e+02 0.0 
0.0 0.0 -1.414330178615e+02 
-1.367975004880e+02 3.204668486206e-01 0.0 
3.204668486206e-01 -3.358783834817e+02 0.0 
0.0 0.0 -1.414027651909e+02 
-1.363478455369e+02 2.077158893362e+00 0.0 
2.077158893362e+00 -3.133777461237e+02 0.0 
0.0 0.0 -1.345176774982e+02 
-1.325712932144e+02 1.777947558475e+00 0.0 
1.777947558475e+00 -3.042543371960e+02 0.0 
0.0 0.0 -1.306476891231e+02 
-1.245035746205e+02 1.524766938479e+00 0.0 
1.524766938479e+00 -2.846172794781e+02 0.0 
0.0 0.0 -1.223362562296e+02 
-1.287546582791e+02 1.477685888376e+00 0.0 
1.477685888376e+00 -2.951844508826e+02 0.0 
0.0 0.0 -1.267817327485e+02 
-1.367953004537e+02 1.717952339070e+00 0.0 
1.717952339070e+00 -3.148229644485e+02 0.0 
0.0 0.0 -1.350854794707e+02 
-1.330079309164e+02 1.428859304272e+00 0.0 
1.428859304272e+00 -3.057719504831e+02 0.0 
0.0 0.0 -1.312339644198e+02 
-1.249067269862e+02 1.214823182520e+00 0.0 
1.214823182520e+00 -2.861211793035e+02 0.0 
0.0 0.0 -1.229083718869e+02 
-1.292096414603e+02 1.170050784053e+00 0.0 
1.170050784053e+00 -2.967093937072e+02 0.0 
0.0 0.0 -1.273757105503e+02 
-1.210711598645e+02 9.784368781814e-01 0.0 
9.784368781814e-01 -2.770440423666e+02 0.0 
0.0 0.0 -1.190345606693e+02 
-1.253996166063e+02 9.352325467743e-01 0.0 
9.352325467743e-01 -2.876696842175e+02 0.0 
0.0 0.0 -1.235207902472e+02 
-1.335213809681e+02 1.118618834200e+00 0.0 
1.118618834200e+00 -3.073385088930e+02 0.0 
0.0 0.0 -1.318579669583e+02 
-1.297420163868e+02 9.050208410539e-01 0.0 
9.050208410539e-01 -2.983558202104e+02 0.0 
0.0 0.0 -1.280293509791e+02 
-1.215618252191e+02 7.234640573618e-01 0.0 
7.234640573618e-01 -2.786935559675e+02 0.0 
0.0 0.0 -1.196766143560e+02 
-1.259423989732e+02 7.179956512087e-01 0.0 
7.179956512087e-01 -2.893799336234e+02 0.0 
0.0 0.0 -1.241966997790e+02 
-1.177046878643e+02 5.589853398215e-01 0.0 
5.589853398215e-01 -2.696991732962e+02 0.0 
0.0 0.0 -1.158211583481e+02 
-1.221378197014e+02 5.703894334873e-01 0.0 
5.703894334873e-01 -2.803275696381e+02 0.0 
0.0 0.0 -1.203396168018e+02 
-1.303447885456e+02 6.593684626453e-01 0.0 
6.593684626453e-01 -3.001103685993e+02 0.0 
0.0 0.0 -1.287365471435e+02 
-3.774956483515e+01 -1.383411234629e+00 0.0 
-1.383411234629e+00 -8.215249547125e+01 0.0 
0.0 0.0 -3.557061809192e+01 
-1.270545752695e+02 -1.338129754766e+00 0.0 
-1.338129754766e+00 -3.147909370531e+02 0.0 
0.0 0.0 -1.321536536968e+02 
-1.361473985947e+02 -1.125970723137e+00 0.0 
-1.125970723137e+00 -3.333580698146e+02 0.0 
0.0 0.0 -1.404516405228e+02 
-7.531915095067e+01 -2.783394127045e+00 0.0 
-2.783394127045e+00 -1.627459400727e+02 0.0 
0.0 0.0 -7.101952730700e+01 
-8.373870606765e+01 -2.804901293755e+00 0.0 
-2.804901293755e+00 -1.821388495254e+02 0.0 
0.0 0.0 -7.936326667791e+01 
-8.860761946614e+01 -3.591821716202e+00 0.0 
-3.591821716202e+00 -1.944465489858e+02 0.0 
0.0 0.0 -8.451625053558e+01 
-9.246262696077e+01 -2.840343398334e+00 0.0 
-2.840343398334e+00 -2.026338868107e+02 0.0 
0.0 0.0 -8.812895413144e+01 
-1.265204753623e+02 5.148934507377e-01 0.0 
5.148934507377e-01 -2.909626597174e+02 0.0 
0.0 0.0 -1.248449405239e+02 
-1.346756400758e+02 5.688541989035e-01 0.0 
5.688541989035e-01 -3.108574256254e+02 0.0 
0.0 0.0 -1.332599197104e+02 
-4.700481672501e+01 1.537334759008e+01 0.0 
1.537334759008e+01 -1.342723730874e+02 0.0 
0.0 0.0 -5.383419160741e+01 
-5.181157588924e+01 1.455759163369e+01 0.0 
1.455759163369e+01 -1.381387194549e+02 0.0 
0.0 0.0 -5.651716015296e+01 
-1.400853285714e+02 2.384173860687e+00 0.0 
2.384173860687e+00 -3.225285831268e+02 0.0 
0.0 0.0 -1.383841735094e+02 
-1.332799915981e+02 -1.902866533760e+00 0.0 
-1.902866533760e+00 -3.020226127761e+02 0.0 
0.0 0.0 -1.301907813123e+02 
-1.252140873766e+02 -2.117393545852e+00 0.0 
-2.117393545852e+00 -2.820614925300e+02 0.0 
0.0 0.0 -1.217826739720e+02 
-8.567522368829e+01 8.090016500541e+00 0.0 
8.090016500541e+00 -2.062269178853e+02 0.0 
0.0 0.0 -8.717064247207e+01 
-8.304637322340e+01 7.890548630096e+00 0.0 
7.890548630096e+00 -1.956200074360e+02 0.0 
0.0 0.0 -8.319991419782e+01 
-7.843123191595e+01 8.792303822083e+00 0.0 
8.792303822083e+00 -1.870155803875e+02 0.0 
0.0 0.0 -7.923404369103e+01 
-7.567515573729e+01 8.328860686422e+00 0.0 
8.328860686422e+00 -1.758437636131e+02 0.0 
0.0 0.0 -7.505567580511e+01 
-8.020436846898e+01 7.368864340582e+00 0.0 
7.368864340582e+00 -1.850848336144e+02 0.0 
0.0 0.0 -7.918676062500e+01 
-7.116074950882e+01 9.474757272730e+00 0.0 
9.474757272730e+00 -1.669808986856e+02 0.0 
0.0 0.0 -7.104249445833e+01 
-1.181380617940e+02 -4.287157605895e+00 0.0 
-4.287157605895e+00 -2.877744699486e+02 0.0 
0.0 0.0 -1.213737595228e+02 
-1.378394164003e+02 1.072184931152e+00 0.0 
1.072184931152e+00 -3.180469066250e+02 0.0 
0.0 0.0 -1.363658969076e+02 
-5.240204274979e+01 -5.665860957970e+00 0.0 
-5.665860957970e+00 -1.098099509332e+02 0.0 
0.0 0.0 -4.826359810490e+01 
-4.333599715133e+01 -4.695175450659e+00 0.0 
-4.695175450659e+00 -8.901865146274e+01 0.0 
0.0 0.0 -3.930639458422e+01 
-1.411952477752e+02 -1.739187448171e+00 0.0 
-1.739187448171e+00 -3.219543757161e+02 0.0 
0.0 0.0 -1.385448870474e+02 
-1.181112487077e+02 -1.617071089576e+00 0.0 
-1.617071089576e+00 -2.965187996790e+02 0.0 
0.0 0.0 -1.239890145160e+02 
-1.181388399685e+02 5.479538275899e+00 0.0 
5.479538275899e+00 -2.804926384562e+02 0.0 
0.0 0.0 -1.191894435274e+02 
-1.212929117614e+02 5.336743502526e+00 0.0 
5.336743502526e+00 -2.902579892507e+02 0.0 
0.0 0.0 -1.230652703037e+02 
-1.261397948709e+02 5.141438287845e+00 0.0 
5.141438287845e+00 -2.994294963658e+02 0.0 
0.0 0.0 -1.272707873710e+02 
-1.294297719531e+02 4.958993008178e+00 0.0 
4.958993008178e+00 -3.091117200714e+02 0.0 
0.0 0.0 -1.311624476074e+02 
-1.342838598053e+02 4.871130806225e+00 0.0 
4.871130806225e+00 -3.184029292024e+02 0.0 
0.0 0.0 -1.354060367023e+02 
-1.376776836688e+02 4.678630045956e+00 0.0 
4.678630045956e+00 -3.279372145296e+02 0.0 
0.0 0.0 -1.392844694595e+02 
-1.327806158784e+02 4.664359322666e+00 0.0 
4.664359322666e+00 -3.187302998414e+02 0.0 
0.0 0.0 -1.350532747160e+02 
-1.394061569977e+02 2.897182611404e+00 0.0 
2.897182611404e+00 -3.390533669732e+02 0.0 
0.0 0.0 -1.431378571913e+02 
-1.411694930058e+02 4.408983700908e+00 0.0 
4.408983700908e+00 -3.374654845871e+02 0.0 
0.0 0.0 -1.431904932779e+02 
-1.182776064337e+02 3.576356207880e-01 0.0 
3.576356207880e-01 -2.709847487287e+02 0.0 
0.0 0.0 -1.163787065487e+02 
-1.163546309572e+02 3.085313872968e+00 0.0 
3.085313872968e+00 -2.924092242746e+02 0.0 
0.0 0.0 -1.222291565695e+02 
-5.956274769414e+01 -1.275512362721e+01 0.0 
-1.275512362721e+01 -1.433166714712e+02 0.0 
0.0 0.0 -6.046382574959e+01 
-3.377670608304e+01 -1.446826051891e+00 0.0 
-1.446826051891e+00 -7.346239993848e+01 0.0 
0.0 0.0 -3.177173180645e+01 
-4.368210784124e+01 -1.152858904829e+01 0.0 
-1.152858904829e+01 -8.380330457015e+01 0.0 
0.0 0.0 -3.697296532721e+01 
-4.121989302292e+01 -1.171336709705e+00 0.0 
-1.171336709705e+00 -8.978027101633e+01 0.0 
0.0 0.0 -3.890004921178e+01 
-5.111067437025e+01 -1.569629940628e+00 0.0 
-1.569629940628e+00 -1.098154221939e+02 0.0 
0.0 0.0 -4.787782896925e+01 
-1.444620490653e+02 -2.778870650754e+00 0.0 
-2.778870650754e+00 -3.449308617003e+02 0.0 
0.0 0.0 -1.464178732297e+02 
-1.425134401605e+02 4.688518864720e+00 0.0 
4.688518864720e+00 -3.373264267993e+02 0.0 
0.0 0.0 -1.435519600879e+02 
-1.389700566174e+02 4.778143592735e+00 0.0 
4.778143592735e+00 -3.276417576985e+02 0.0 
0.0 0.0 -1.395835442948e+02 
-7.287078962559e+01 7.495949760559e+00 0.0 
7.495949760559e+00 -1.653621875703e+02 0.0 
0.0 0.0 -7.106989315878e+01 
-7.722684630131e+01 6.622248408004e+00 0.0 
6.622248408004e+00 -1.748942916625e+02 0.0 
0.0 0.0 -7.523634138915e+01 
-1.433294831203e+02 2.257130946005e+00 0.0 
2.257130946005e+00 -3.480060109576e+02 0.0 
0.0 0.0 -1.470006482234e+02 
-1.161951693105e+02 1.645831725902e+00 0.0 
1.645831725902e+00 -2.639716251565e+02 0.0 
0.0 0.0 -1.136500383401e+02 
-1.167749226168e+02 1.002836765427e+00 0.0 
1.002836765427e+00 -2.665202035788e+02 0.0 
0.0 0.0 -1.145885378587e+02 
-1.128394327118e+02 7.707178254520e-01 0.0 
7.707178254520e-01 -2.573482739997e+02 0.0 
0.0 0.0 -1.106563120135e+02 
-3.028166184111e+01 -6.272955246156e-01 0.0 
-6.272955246156e-01 -6.846690024833e+01 0.0 
0.0 0.0 -2.922456862683e+01 
-4.273615132744e+01 -1.438837399527e+01 0.0 
-1.438837399527e+01 -8.005325570515e+01 0.0 
0.0 0.0 -3.490574644493e+01 
-1.410400237575e+02 1.643324626560e+00 0.0 
1.643324626560e+00 -3.254416990282e+02 0.0 
0.0 0.0 -1.395445168357e+02 
-5.790686773827e+01 1.241502619472e+01 0.0 
1.241502619472e+01 -1.565114497335e+02 0.0 
0.0 0.0 -6.392549524153e+01 
-5.671018889601e+01 1.331158680233e+01 0.0 
1.331158680233e+01 -1.435696935486e+02 0.0 
0.0 0.0 -5.968396473340e+01 
-3.160458069465e+01 8.462456214543e+00 0.0 
8.462456214543e+00 -1.301600782990e+02 0.0 
0.0 0.0 -4.987938294719e+01 
-2.895915239752e+01 -6.422856724607e-01 0.0 
-6.422856724607e-01 -1.278068586915e+02 0.0 
0.0 0.0 -4.889460374177e+01 
-1.308923937453e+02 3.473406757328e-01 0.0 
3.473406757328e-01 -3.014440530810e+02 0.0 
0.0 0.0 -1.293009340479e+02 
-1.389941373177e+02 4.485717112955e-01 0.0 
4.485717112955e-01 -3.211962625751e+02 0.0 
0.0 0.0 -1.376571199679e+02 
-9.710001206619e+01 -3.418516381137e+00 0.0 
-3.418516381137e+00 -2.146534490267e+02 0.0 
0.0 0.0 -9.312603832787e+01 
-1.008420038256e+02 -2.659661288508e+00 0.0 
-2.659661288508e+00 -2.227097258012e+02 0.0 
0.0 0.0 -9.666551888802e+01 
-1.402901681570e+02 -2.563295388153e+00 0.0 
-2.563295388153e+00 -3.377350160406e+02 0.0 
0.0 0.0 -1.430075552593e+02 
-4.533847986460e+01 -9.578222859629e+00 0.0 
-9.578222859629e+00 -9.027953210561e+01 0.0 
0.0 0.0 -4.009771151059e+01 
-1.428476436439e+02 6.824527962968e-01 0.0 
6.824527962968e-01 -3.306406311091e+02 0.0 
0.0 0.0 -1.416464824259e+02 
-1.223575941120e+02 -2.278770280344e+00 0.0 
-2.278770280344e+00 -3.037218882714e+02 0.0 
0.0 0.0 -1.274238447150e+02 
-1.135049925461e+02 -2.717306349534e+00 0.0 
-2.717306349534e+00 -2.854004515511e+02 0.0 
0.0 0.0 -1.192716332291e+02 
-8.763871484462e+01 -2.263837558039e+00 0.0 
-2.263837558039e+00 -1.903627027469e+02 0.0 
0.0 0.0 -8.300042527745e+01 
-4.756712515274e+01 1.676222563421e+01 0.0 
1.676222563421e+01 -1.192469585871e+02 0.0 
0.0 0.0 -4.911018837545e+01 
-4.374352630452e+01 1.841366009512e+01 0.0 
1.841366009512e+01 -1.165084880230e+02 0.0 
0.0 0.0 -4.741083838453e+01 
-6.224149583048e+01 -1.232442253693e+01 0.0 
-1.232442253693e+01 -1.587262689371e+02 0.0 
0.0 0.0 -6.589032943027e+01 
-5.262386953031e+01 -1.042514453905e+01 0.0 
-1.042514453905e+01 -1.119639638662e+02 0.0 
0.0 0.0 -4.897635001896e+01 
-4.516829034298e+01 -9.445740600840e-01 0.0 
-9.445740600840e-01 -9.822043324791e+01 0.0 
0.0 0.0 -4.261661707726e+01 
-1.492707216385e+02 -2.329418842659e+00 0.0 
-2.329418842659e+00 -3.567112862265e+02 0.0 
0.0 0.0 -1.513946023595e+02 
-1.447582413212e+02 1.927299022063e+00 0.0 
1.927299022063e+00 -3.343822185136e+02 0.0 
0.0 0.0 -1.433421379505e+02 
-1.362646017312e+02 4.320239630901e+00 0.0 
4.320239630901e+00 -3.282813386131e+02 0.0 
0.0 0.0 -1.389637821033e+02 
-1.277536652260e+02 4.641136449259e+00 0.0 
4.641136449259e+00 -3.095091671875e+02 0.0 
0.0 0.0 -1.307788497240e+02 
-1.449965874644e+02 4.059886327439e+00 0.0 
4.059886327439e+00 -3.470671327917e+02 0.0 
0.0 0.0 -1.472191160768e+02 
-3.720307779452e+01 -7.715041031013e+00 0.0 
-7.715041031013e+00 -6.842700924167e+01 0.0 
0.0 0.0 -3.069000270522e+01 
-1.486007512157e+02 -2.911679032177e+00 0.0 
-2.911679032177e+00 -3.523399740633e+02 0.0 
0.0 0.0 -1.498822175837e+02 
-1.368325411564e+02 -1.393528964870e+00 0.0 
-1.393528964870e+00 -3.102795537105e+02 0.0 
0.0 0.0 -1.337336284601e+02 
-1.468058861682e+02 4.648996801057e+00 0.0 
4.648996801057e+00 -3.459065888365e+02 0.0 
0.0 0.0 -1.474137425014e+02 
-1.435629061715e+02 4.686465136271e+00 0.0 
4.686465136271e+00 -3.369664785888e+02 0.0 
0.0 0.0 -1.437588154281e+02 
-6.310312046734e+01 1.170195423681e+01 0.0 
1.170195423681e+01 -1.625071518091e+02 0.0 
0.0 0.0 -6.728308168294e+01 
-6.159525510014e+01 1.197677064638e+01 0.0 
1.197677064638e+01 -1.504109628002e+02 0.0 
0.0 0.0 -6.320186537011e+01 
-5.541568018608e+01 1.302636228869e+01 0.0 
1.302636228869e+01 -1.306469156563e+02 0.0 
0.0 0.0 -5.541877875272e+01 
-5.975974799588e+01 1.133719616986e+01 0.0 
1.133719616986e+01 -1.383844865151e+02 0.0 
0.0 0.0 -5.904327035331e+01 
-1.068366949067e+02 3.001035401583e+00 0.0 
3.001035401583e+00 -2.423983314073e+02 0.0 
0.0 0.0 -1.043705078942e+02 
-6.821900842022e+01 1.078501520272e+01 0.0 
1.078501520272e+01 -1.697183923500e+02 0.0 
0.0 0.0 -7.098122023107e+01 
-1.019648472163e+02 4.151398074902e+00 0.0 
4.151398074902e+00 -2.322068177521e+02 0.0 
0.0 0.0 -9.985149949053e+01 
-9.849911391294e+01 3.627318863385e+00 0.0 
3.627318863385e+00 -2.229143395909e+02 0.0 
0.0 0.0 -9.602403605115e+01 
-9.432092746752e+01 4.031798186335e+00 0.0 
4.031798186335e+00 -2.133181372949e+02 0.0 
0.0 0.0 -9.189171942873e+01 
-8.460378592467e+01 6.556515748161e+00 0.0 
6.556515748161e+00 -1.942260266807e+02 0.0 
0.0 0.0 -8.324894378161e+01 
-8.153193504555e+01 5.832205166866e+00 0.0 
5.832205166866e+00 -1.843948169024e+02 0.0 
0.0 0.0 -7.937802558438e+01 
-6.670818408226e+01 8.556915301568e+00 0.0 
8.556915301568e+00 -1.859818450967e+02 0.0 
0.0 0.0 -7.540700875370e+01 
-1.025573552865e+02 2.815505376075e+00 0.0 
2.815505376075e+00 -2.652330553078e+02 0.0 
0.0 0.0 -1.099371231783e+02 
-9.328715721827e+01 -4.201699132125e+00 0.0 
-4.201699132125e+00 -2.068673191167e+02 0.0 
0.0 0.0 -8.964634290048e+01 
-1.139707323051e+02 -3.915398203669e+00 0.0 
-3.915398203669e+00 -2.589815261456e+02 0.0 
0.0 0.0 -1.114856775352e+02 
-1.056745407977e+02 -5.786780407276e+00 0.0 
-5.786780407276e+00 -2.567002369438e+02 0.0 
0.0 0.0 -1.083124333225e+02 
-1.415180298950e+02 1.299478144744e+00 0.0 
1.299478144744e+00 -3.269191945792e+02 0.0 
0.0 0.0 -1.401311673422e+02 
-1.458362089784e+02 1.239597186631e+00 0.0 
1.239597186631e+00 -3.377545563564e+02 0.0 
0.0 0.0 -1.446772296004e+02 
-1.133078007838e+02 5.434107206633e-01 0.0 
5.434107206633e-01 -2.590253516377e+02 0.0 
0.0 0.0 -1.112999457264e+02 
-1.094940980329e+02 4.192244850307e-01 0.0 
4.192244850307e-01 -2.499495994812e+02 0.0 
0.0 0.0 -1.074331092542e+02 
-3.661473515950e+01 -2.932775479457e+00 0.0 
-2.932775479457e+00 -7.634787573887e+01 0.0 
0.0 0.0 -3.348878326951e+01 
-3.347220132829e+01 -3.343648503062e+00 0.0 
-3.343648503062e+00 -6.829576733827e+01 0.0 
0.0 0.0 -3.012829563406e+01 
-1.020662752287e+02 -5.974421691054e+00 0.0 
-5.974421691054e+00 -2.376847118383e+02 0.0 
0.0 0.0 -1.015252961201e+02 
-1.438139917382e+02 -3.234762118171e+00 0.0 
-3.234762118171e+00 -3.400193455004e+02 0.0 
0.0 0.0 -1.447500011716e+02 
-1.441671646594e+02 2.278089159505e+00 0.0 
2.278089159505e+00 -3.327464262583e+02 0.0 
0.0 0.0 -1.426740772753e+02 
-1.478693622571e+02 2.615008357174e+00 0.0 
2.615008357174e+00 -3.419088344930e+02 0.0 
0.0 0.0 -1.465334590250e+02 
-1.437681073103e+02 2.709327819399e+00 0.0 
2.709327819399e+00 -3.316022133624e+02 0.0 
0.0 0.0 -1.422110962018e+02 
-1.450390249988e+02 -1.975941162617e+00 0.0 
-1.975941162617e+00 -3.491629395916e+02 0.0 
0.0 0.0 -1.478605893771e+02 
-6.678377630805e+01 1.223708239520e+00 0.0 
1.223708239520e+00 -1.969510910528e+02 0.0 
0.0 0.0 -7.872046020824e+01 
-1.051567041777e+02 -9.185203650466e-01 0.0 
-9.185203650466e-01 -2.714027128694e+02 0.0 
0.0 0.0 -1.125678251142e+02 
-3.120595947828e+01 -1.043583375055e+01 0.0 
-1.043583375055e+01 -1.277639132413e+02 0.0 
0.0 0.0 -4.894501253892e+01 
-1.113876101806e+02 5.671662426840e+00 0.0 
5.671662426840e+00 -2.723927958201e+02 0.0 
0.0 0.0 -1.147341218002e+02 
-2.616105716484e+01 -1.722336065063e+00 0.0 
-1.722336065063e+00 -5.623806384539e+01 0.0 
0.0 0.0 -2.431973630307e+01 
-1.285597813839e+02 4.509583444918e+00 0.0 
4.509583444918e+00 -2.987160441441e+02 0.0 
0.0 0.0 -1.277827476584e+02 
-1.447445747799e+02 -1.295938041110e+00 0.0 
-1.295938041110e+00 -3.302751700280e+02 0.0 
0.0 0.0 -1.421059234424e+02 
-1.490057656777e+02 -1.639362524158e+00 0.0 
-1.639362524158e+00 -3.417498384139e+02 0.0 
0.0 0.0 -1.468266812275e+02 
-1.484040480563e+02 2.743803142097e+00 0.0 
2.743803142097e+00 -3.575210769701e+02 0.0 
0.0 0.0 -1.513775375079e+02 
-9.559769948643e+01 2.238112298007e+00 0.0 
2.238112298007e+00 -2.149690383797e+02 0.0 
0.0 0.0 -9.277002135983e+01 
-1.144403049987e+02 5.088692668038e+00 0.0 
5.088692668038e+00 -2.820433431239e+02 0.0 
0.0 0.0 -1.185450944368e+02 
-1.093646581677e+02 4.959031290687e+00 0.0 
4.959031290687e+00 -2.733244046951e+02 0.0 
0.0 0.0 -1.144067188589e+02 
-9.084986672617e+01 3.414168078519e+00 0.0 
3.414168078519e+00 -2.041752969372e+02 0.0 
0.0 0.0 -8.810754909901e+01 
-8.673801329193e+01 3.834014802498e+00 0.0 
3.834014802498e+00 -1.946050208332e+02 0.0 
0.0 0.0 -8.400291023753e+01 
-9.012246302257e+01 4.508622406975e+00 0.0 
4.508622406975e+00 -2.037465086767e+02 0.0 
0.0 0.0 -8.776069150978e+01 
-8.259023544825e+01 4.349667787635e+00 0.0 
4.349667787635e+00 -1.849806958824e+02 0.0 
0.0 0.0 -7.987127939921e+01 
-6.659951425102e+01 -1.139806232574e+01 0.0 
-1.139806232574e+01 -1.627631583298e+02 0.0 
0.0 0.0 -6.840880177423e+01 
-6.342768538687e+01 -1.126520239732e+01 0.0 
-1.126520239732e+01 -1.477973121281e+02 0.0 
0.0 0.0 -6.296749925448e+01 
-1.514489031460e+02 4.610569694379e+00 0.0 
4.610569694379e+00 -3.575646635980e+02 0.0 
0.0 0.0 -1.523040700232e+02 
-1.496194559078e+02 4.181104192134e+00 0.0 
4.181104192134e+00 -3.559481486037e+02 0.0 
0.0 0.0 -1.512702813534e+02 
-1.514604368796e+02 4.737420675530e+00 0.0 
4.737420675530e+00 -3.554818189072e+02 0.0 
0.0 0.0 -1.516826767361e+02 
-1.484165718387e+02 4.645060740470e+00 0.0 
4.645060740470e+00 -3.469089948398e+02 0.0 
0.0 0.0 -1.481976700035e+02 
-1.525826252040e+02 2.163297624610e+00 0.0 
2.163297624610e+00 -3.664207929166e+02 0.0 
0.0 0.0 -1.553010254362e+02 
-1.472689565941e+02 1.612525928793e+00 0.0 
1.612525928793e+00 -3.564595464588e+02 0.0 
0.0 0.0 -1.507185509159e+02 
-5.461863357208e+01 -1.183794032408e+00 0.0 
-1.183794032408e+00 -1.176523958363e+02 0.0 
0.0 0.0 -5.128130882252e+01 
-7.410399784705e+01 5.687208673535e+00 0.0 
5.687208673535e+00 -1.652640904866e+02 0.0 
0.0 0.0 -7.141042650010e+01 
-1.490696370609e+02 1.851252199977e+00 0.0 
1.851252199977e+00 -3.450129724889e+02 0.0 
0.0 0.0 -1.478247828649e+02 
-9.494680559977e+01 3.058452801216e+00 0.0 
3.058452801216e+00 -2.137507426959e+02 0.0 
0.0 0.0 -9.220926448871e+01 
-1.522703895162e+02 -2.971286457874e+00 0.0 
-2.971286457874e+00 -3.589775670195e+02 0.0 
0.0 0.0 -1.529743869607e+02 
-1.477758937761e+02 -3.169119539950e+00 0.0 
-3.169119539950e+00 -3.472592440535e+02 0.0 
0.0 0.0 -1.481105413489e+02 
-3.188623309928e+01 -1.086432192629e+01 0.0 
-1.086432192629e+01 -1.217141071513e+02 0.0 
0.0 0.0 -4.793474257823e+01 
-3.348936554155e+01 -2.032615978426e+01 0.0 
-2.032615978426e+01 -1.115461186890e+02 0.0 
0.0 0.0 -4.429071011227e+01 
-1.471546722306e+02 5.742277742276e-01 0.0 
5.742277742276e-01 -3.412537512583e+02 0.0 
0.0 0.0 -1.461225270467e+02 
-5.341648168323e+01 1.176650852931e+01 0.0 
1.176650852931e+01 -1.179354249422e+02 0.0 
0.0 0.0 -5.100557198764e+01 
-5.703378582247e+01 1.009598303595e+01 0.0 
1.009598303595e+01 -1.260135554445e+02 0.0 
0.0 0.0 -5.451420238010e+01 
-5.004018374870e+01 1.364272321165e+01 0.0 
1.364272321165e+01 -1.102363718382e+02 0.0 
0.0 0.0 -4.738219246333e+01 
-1.602061485537e+02 -4.420909836026e-01 0.0 
-4.420909836026e-01 -3.704506081367e+02 0.0 
0.0 0.0 -1.587970270071e+02 
-9.289343053578e+01 4.729084049618e-02 0.0 
4.729084049618e-02 -2.117648249536e+02 0.0 
0.0 0.0 -9.099747664682e+01 
-1.525645465829e+02 -1.240137590303e+00 0.0 
-1.240137590303e+00 -3.502432415064e+02 0.0 
0.0 0.0 -1.504423364268e+02 
-8.903027079415e+01 5.803989907521e+00 0.0 
5.803989907521e+00 -2.036543585249e+02 0.0 
0.0 0.0 -8.740538879572e+01 
-1.510989892121e+02 7.683296368225e-01 0.0 
7.683296368225e-01 -3.507738384120e+02 0.0 
0.0 0.0 -1.501618482872e+02 
-1.177403987242e+02 4.371692986442e+00 0.0 
4.371692986442e+00 -2.916626184547e+02 0.0 
0.0 0.0 -1.224209051537e+02 
-8.067146442160e+01 8.812217466098e+00 0.0 
8.812217466098e+00 -1.975816383756e+02 0.0 
0.0 0.0 -8.307593083917e+01 
-1.359515404821e+02 -2.248287510784e+00 0.0 
-2.248287510784e+00 -3.303375446815e+02 0.0 
0.0 0.0 -1.394867255491e+02 
-1.428561992629e+02 4.507289410337e-01 0.0 
4.507289410337e-01 -3.306751561801e+02 0.0 
0.0 0.0 -1.416594066329e+02 
-1.515041656348e+02 4.044549543284e-01 0.0 
4.044549543284e-01 -3.523197428775e+02 0.0 
0.0 0.0 -1.507471725537e+02 
-1.086009097829e+02 7.524552504947e-01 0.0 
7.524552504947e-01 -2.468534306470e+02 0.0 
0.0 0.0 -1.062363021290e+02 
-1.042825404942e+02 6.587285444065e-01 0.0 
6.587285444065e-01 -2.371180718247e+02 0.0 
0.0 0.0 -1.020201836957e+02 
-1.122491946306e+02 1.005787235354e+00 0.0 
1.005787235354e+00 -2.554797333801e+02 0.0 
0.0 0.0 -1.099186784032e+02 
-3.639695137687e+01 1.335672302736e+01 0.0 
1.335672302736e+01 -1.308947496667e+02 0.0 
0.0 0.0 -5.072794692991e+01 
-3.318109536364e+01 1.881425611866e+01 0.0 
1.881425611866e+01 -1.154405147824e+02 0.0 
0.0 0.0 -4.558939426991e+01 
-1.420982807907e+02 9.897982827779e-01 0.0 
9.897982827779e-01 -3.287036475447e+02 0.0 
0.0 0.0 -1.408405785006e+02 
-6.617066277173e+01 -2.661482624868e+00 0.0 
-2.661482624868e+00 -1.419419322542e+02 0.0 
0.0 0.0 -6.203377850778e+01 
-7.068131910963e+01 -2.150262168651e+00 0.0 
-2.150262168651e+00 -1.523135994831e+02 0.0 
0.0 0.0 -6.649847557782e+01 
-4.737434765156e+01 -8.014549253928e+00 0.0 
-8.014549253928e+00 -9.646234182377e+01 0.0 
0.0 0.0 -4.274292824068e+01 
-5.523868189339e+01 -8.715624014049e+00 0.0 
-8.715624014049e+00 -1.176014746753e+02 0.0 
0.0 0.0 -5.145204697060e+01 
-1.015628085801e+02 -3.923023660988e+00 0.0 
-3.923023660988e+00 -2.269169138965e+02 0.0 
0.0 0.0 -9.814391674297e+01 
-9.773442711229e+01 -4.705635456611e+00 0.0 
-4.705635456611e+00 -2.193901060952e+02 0.0 
0.0 0.0 -9.473735996225e+01 
-1.320362434650e+02 4.685816405205e+00 0.0 
4.685816405205e+00 -3.083719102645e+02 0.0 
0.0 0.0 -1.317224461188e+02 
-1.364713780503e+02 4.484719751736e+00 0.0 
4.484719751736e+00 -3.178192638195e+02 0.0 
0.0 0.0 -1.358871925609e+02 
-1.228585400316e+02 5.190244079561e+00 0.0 
5.190244079561e+00 -2.896653579019e+02 0.0 
0.0 0.0 -1.233571693800e+02 
-1.178648396071e+02 -3.232117461367e+00 0.0 
-3.232117461367e+00 -2.923452139421e+02 0.0 
0.0 0.0 -1.226630160648e+02 
-1.091339958649e+02 -3.840727400189e+00 0.0 
-3.840727400189e+00 -2.739668205255e+02 0.0 
0.0 0.0 -1.145302449171e+02 
-1.047916669324e+02 -3.221720307119e+00 0.0 
-3.221720307119e+00 -2.674228779047e+02 0.0 
0.0 0.0 -1.112643634511e+02 
-1.492071569678e+02 1.484673048515e+00 0.0 
1.484673048515e+00 -3.461304569372e+02 0.0 
0.0 0.0 -1.482012841715e+02 
-1.544164845693e+02 1.359998586958e+00 0.0 
1.359998586958e+00 -3.591448278083e+02 0.0 
0.0 0.0 -1.536683937133e+02 
-6.950497562434e+01 -1.069948305397e+01 0.0 
-1.069948305397e+01 -1.772094727866e+02 0.0 
0.0 0.0 -7.361433452329e+01 
-6.484490103333e+01 -1.089956502417e+01 0.0 
-1.089956502417e+01 -1.732763716775e+02 0.0 
0.0 0.0 -7.103638181325e+01 
-7.061642195746e+01 -1.029729980956e+01 0.0 
-1.029729980956e+01 -1.673400813791e+02 0.0 
0.0 0.0 -7.098695100097e+01 
-1.526942384746e+02 2.126942346101e+00 0.0 
2.126942346101e+00 -3.539651464310e+02 0.0 
0.0 0.0 -1.515978154717e+02 
-1.566484383964e+02 -1.684892130761e+00 0.0 
-1.684892130761e+00 -3.614114803525e+02 0.0 
0.0 0.0 -1.550179756247e+02 
-1.530670362242e+02 -1.889599147518e+00 0.0 
-1.889599147518e+00 -3.531705304177e+02 0.0 
0.0 0.0 -1.514712699926e+02 
-2.254589952065e+01 -1.734042849425e+00 0.0 
-1.734042849425e+00 -4.824472565265e+01 0.0 
0.0 0.0 -2.083509258609e+01 
-3.044383509802e+01 -3.650673509714e+00 0.0 
-3.650673509714e+00 -6.018934442673e+01 0.0 
0.0 0.0 -2.669441686809e+01 
-4.415560307054e+01 1.842711931269e+01 0.0 
1.842711931269e+01 -9.882921045024e+01 0.0 
0.0 0.0 -4.150538842236e+01 
-4.042386797878e+01 2.147340500657e+01 0.0 
2.147340500657e+01 -9.701917010393e+01 0.0 
0.0 0.0 -4.072763999755e+01 
-1.513212902428e+02 2.931029530630e+00 0.0 
2.931029530630e+00 -3.505841471356e+02 0.0 
0.0 0.0 -1.501716312135e+02 
-1.475010136284e+02 3.040690472261e+00 0.0 
3.040690472261e+00 -3.409256268533e+02 0.0 
0.0 0.0 -1.461279921445e+02 
-1.561333870490e+02 2.856190606334e+00 0.0 
2.856190606334e+00 -3.625741124908e+02 0.0 
0.0 0.0 -1.552122498620e+02 
-4.818901239657e+01 -6.984945724292e-01 0.0 
-6.984945724292e-01 -1.048404286246e+02 0.0 
0.0 0.0 -4.550883230636e+01 
-1.313444017535e+02 4.111224801100e+00 0.0 
4.111224801100e+00 -3.192406096899e+02 0.0 
0.0 0.0 -1.347755034330e+02 
-1.538325762052e+02 -1.811004888644e+00 0.0 
-1.811004888644e+00 -3.673433144758e+02 0.0 
0.0 0.0 -1.559527672043e+02 
-1.495516824554e+02 -1.419592745198e+00 0.0 
-1.419592745198e+00 -3.597688046346e+02 0.0 
0.0 0.0 -1.523961461270e+02 
-1.591419362263e+02 -2.193435587525e+00 0.0 
-2.193435587525e+00 -3.773696811864e+02 0.0 
0.0 0.0 -1.605534852238e+02 
-1.443479087592e+02 3.315884072273e+00 0.0 
3.315884072273e+00 -3.481736406714e+02 0.0 
0.0 0.0 -1.473564648292e+02 
-1.530511121824e+02 3.183675277359e+00 0.0 
3.183675277359e+00 -3.662499585111e+02 0.0 
0.0 0.0 -1.553903212080e+02 
-1.536835506921e+02 3.893561570414e+00 0.0 
3.893561570414e+00 -3.655268981332e+02 0.0 
0.0 0.0 -1.553631346476e+02 
-3.648185141237e+01 -4.385119152066e-02 0.0 
-4.385119152066e-02 -1.238725467510e+02 0.0 
0.0 0.0 -4.994357905879e+01 
-1.487554527480e+02 3.575499089837e-01 0.0 
3.575499089837e-01 -3.454169089999e+02 0.0 
0.0 0.0 -1.478517085244e+02 
-1.046174544901e+02 4.231279613432e-01 0.0 
4.231279613432e-01 -2.383909012357e+02 0.0 
0.0 0.0 -1.025025067177e+02 
-4.435590157130e+01 -7.370538513312e+00 0.0 
-7.370538513312e+00 -1.181363053807e+02 0.0 
0.0 0.0 -5.018996061949e+01 
-1.008345700123e+02 2.895877502814e-01 0.0 
2.895877502814e-01 -2.294803547456e+02 0.0 
0.0 0.0 -9.869447742739e+01 
-1.054868819289e+02 3.035506594730e-01 0.0 
3.035506594730e-01 -2.407429200865e+02 0.0 
0.0 0.0 -1.034689406046e+02 
-9.640047563221e+01 1.992195136119e-01 0.0 
1.992195136119e-01 -2.193639583831e+02 0.0 
0.0 0.0 -9.432933020460e+01 
-3.841661697317e+01 -5.211084599741e-01 0.0 
-5.211084599741e-01 -8.544594971155e+01 0.0 
0.0 0.0 -3.675877000542e+01 
-1.027624278917e+02 8.156160089846e-01 0.0 
8.156160089846e-01 -2.328600692436e+02 0.0 
0.0 0.0 -1.002867491406e+02 
-1.079394176592e+02 1.123598372531e+00 0.0 
1.123598372531e+00 -2.449095990813e+02 0.0 
0.0 0.0 -1.054547050222e+02 
-1.716122928352e+01 -1.486325100034e+00 0.0 
-1.486325100034e+00 -3.676212309890e+01 0.0 
0.0 0.0 -1.581301147573e+01 
-1.567104078936e+02 1.964685753958e+00 0.0 
1.964685753958e+00 -3.642358978441e+02 0.0 
0.0 0.0 -1.558838917213e+02 
-1.549492252896e+01 -5.578831729178e-01 0.0 
-5.578831729178e-01 -3.760866684037e+01 0.0 
0.0 0.0 -1.553107681080e+01 
-1.918519728910e+01 -6.813457262161e-01 0.0 
-6.813457262161e-01 -4.534614187395e+01 0.0 
0.0 0.0 -1.895940174892e+01 
-1.563129404186e+02 -3.079018044817e+00 0.0 
-3.079018044817e+00 -3.665120868288e+02 0.0 
0.0 0.0 -1.564475081742e+02 
-1.515427211302e+02 -3.048878163363e+00 0.0 
-3.048878163363e+00 -3.544079846843e+02 0.0 
0.0 0.0 -1.513852117443e+02 
-1.595382277415e+02 -2.965917982565e+00 0.0 
-2.965917982565e+00 -3.732073847570e+02 0.0 
0.0 0.0 -1.594236837495e+02 
-1.547624660106e+02 -2.973241099818e+00 0.0 
-2.973241099818e+00 -3.610626647196e+02 0.0 
0.0 0.0 -1.543475392191e+02 
-1.469905335370e+02 -3.030248758874e+00 0.0 
-3.030248758874e+00 -3.422474806511e+02 0.0 
0.0 0.0 -1.463714042565e+02 
-1.507975773956e+02 -2.836770564734e+00 0.0 
-2.836770564734e+00 -3.500377178886e+02 0.0 
0.0 0.0 -1.498505885853e+02 
-9.996322379904e+01 4.743498362119e-01 0.0 
4.743498362119e-01 -2.273282123535e+02 0.0 
0.0 0.0 -9.778743084578e+01 
-1.596602475558e+02 -2.861868747861e+00 0.0 
-2.861868747861e+00 -3.717344337780e+02 0.0 
0.0 0.0 -1.590184044001e+02 
-1.545497822349e+02 -2.549049646549e+00 0.0 
-2.549049646549e+00 -3.581753618705e+02 0.0 
0.0 0.0 -1.534175432316e+02 
-1.632212933899e+02 -2.650608052271e+00 0.0 
-2.650608052271e+00 -3.800165366582e+02 0.0 
0.0 0.0 -1.625713490144e+02 
-7.925204786118e+01 3.543309190751e+00 0.0 
3.543309190751e+00 -1.762484822117e+02 0.0 
0.0 0.0 -7.625015902186e+01 
-6.387458030659e+01 9.957905131729e+00 0.0 
9.957905131729e+00 -1.463885371821e+02 0.0 
0.0 0.0 -6.267893524660e+01 
-6.101007690071e+01 8.681771200252e+00 0.0 
8.681771200252e+00 -1.349951431477e+02 0.0 
0.0 0.0 -5.840156601453e+01 
-5.364882799317e+01 7.977422694801e+00 0.0 
7.977422694801e+00 -1.141070219787e+02 0.0 
0.0 0.0 -4.992675499158e+01 
-1.573856587903e+02 4.755233351052e+00 0.0 
4.755233351052e+00 -3.682314191856e+02 0.0 
0.0 0.0 -1.572851233928e+02 
-1.522648692189e+02 4.521078058039e+00 0.0 
4.521078058039e+00 -3.554271133923e+02 0.0 
0.0 0.0 -1.519075947833e+02 
-1.406309907840e+02 -9.225691520065e-01 0.0 
-9.225691520065e-01 -3.193305279654e+02 0.0 
0.0 0.0 -1.375884556248e+02 
-1.326143267388e+02 -1.004795195480e+00 0.0 
-1.004795195480e+00 -2.991193338430e+02 0.0 
0.0 0.0 -1.291200981746e+02 
-1.009641923185e+02 1.558407988886e-01 0.0 
1.558407988886e-01 -2.304809293128e+02 0.0 
0.0 0.0 -9.903353648938e+01 
-1.004706501714e+02 1.603823550559e-01 0.0 
1.603823550559e-01 -2.294015562302e+02 0.0 
0.0 0.0 -9.856166192047e+01 
-1.080533423809e+02 8.123726068293e-02 0.0 
8.123726068293e-02 -2.472309993027e+02 0.0 
0.0 0.0 -1.061853025051e+02 
-1.069793323085e+02 1.723099647837e-01 0.0 
1.723099647837e-01 -2.448053735660e+02 0.0 
0.0 0.0 -1.051354117623e+02 
-1.145394789741e+02 9.730149867944e-02 0.0 
9.730149867944e-02 -2.627316387724e+02 0.0 
0.0 0.0 -1.127813353239e+02 
-1.134450616405e+02 1.938483409693e-01 0.0 
1.938483409693e-01 -2.599768755362e+02 0.0 
0.0 0.0 -1.116265811530e+02 
-1.211406725059e+02 3.381622147347e-01 0.0 
3.381622147347e-01 -2.782613214820e+02 0.0 
0.0 0.0 -1.194205981963e+02 
-1.585582372705e+02 4.178016154918e+00 0.0 
4.178016154918e+00 -3.750252554805e+02 0.0 
0.0 0.0 -1.596750478253e+02 
-4.753713050600e+01 1.139139979281e+01 0.0 
1.139139979281e+01 -9.699104622591e+01 0.0 
0.0 0.0 -4.262376337308e+01 
-8.733442347264e+01 2.794778662829e+00 0.0 
2.794778662829e+00 -1.953277426038e+02 0.0 
0.0 0.0 -8.439864982293e+01 
-1.564759949076e+02 1.569831506675e+00 0.0 
1.569831506675e+00 -3.746682696158e+02 0.0 
0.0 0.0 -1.589432793570e+02 
-1.505283698715e+02 9.794528970566e-01 0.0 
9.794528970566e-01 -3.633365046071e+02 0.0 
0.0 0.0 -1.537594623436e+02 
-7.827272914875e+01 4.972054894543e+00 0.0 
4.972054894543e+00 -1.749368903735e+02 0.0 
0.0 0.0 -7.556288585667e+01 
-7.085162243631e+01 4.604724575923e+00 0.0 
4.604724575923e+00 -1.563711733504e+02 0.0 
0.0 0.0 -6.776683873602e+01 
-1.583466835563e+02 -2.844496641252e+00 0.0 
-2.844496641252e+00 -3.736799224318e+02 0.0 
0.0 0.0 -1.592079817964e+02 
-7.004202402114e+01 1.019159809873e+01 0.0 
1.019159809873e+01 -1.811785570131e+02 0.0 
0.0 0.0 -7.496617431026e+01 
-1.612041703031e+02 2.331486289582e+00 0.0 
2.331486289582e+00 -3.757580401583e+02 0.0 
0.0 0.0 -1.606886631384e+02 
-5.028914565204e+01 1.993218238838e+01 0.0 
1.993218238838e+01 -8.716310019363e+01 0.0 
0.0 0.0 -4.203565761313e+01 
-3.675228597743e+01 2.005826927612e+01 0.0 
2.005826927612e+01 -1.063235146979e+02 0.0 
0.0 0.0 -4.429870069701e+01 
-7.531247883939e+01 9.569510306167e+00 0.0 
9.569510306167e+00 -1.888289408490e+02 0.0 
0.0 0.0 -7.884242590652e+01 
-8.587244787447e+01 5.112251553290e+00 0.0 
5.112251553290e+00 -1.941100625143e+02 0.0 
0.0 0.0 -8.359475311662e+01 
-6.831828442436e+01 8.631166911545e+00 0.0 
8.631166911545e+00 -1.553553646158e+02 0.0 
0.0 0.0 -6.670209471206e+01 
-6.583977847496e+01 7.563422897394e+00 0.0 
7.563422897394e+00 -1.458394245141e+02 0.0 
0.0 0.0 -6.310376089673e+01 
-1.268021494423e+02 -2.708867610751e+00 0.0 
-2.708867610751e+00 -3.111626984479e+02 0.0 
0.0 0.0 -1.309894543670e+02 
-2.827417956527e+01 -4.279703796624e+00 0.0 
-4.279703796624e+00 -5.310417829891e+01 0.0 
0.0 0.0 -2.369493054862e+01 
-4.726685927860e+01 1.580048132553e+01 0.0 
1.580048132553e+01 -1.038266968936e+02 0.0 
0.0 0.0 -4.399377005598e+01 
-1.221828475030e+02 2.162802462538e-01 0.0 
2.162802462538e-01 -2.805310141670e+02 0.0 
0.0 0.0 -1.204141585010e+02 
-4.302889076480e+01 1.580639707231e+01 0.0 
1.580639707231e+01 -8.233095093096e+01 0.0 
0.0 0.0 -3.573080935172e+01 
-1.368921629346e+02 -4.930625258257e-01 0.0 
-4.930625258257e-01 -3.094356308904e+02 0.0 
0.0 0.0 -1.334983381475e+02 
-7.220316191110e+01 8.901653804854e+00 0.0 
8.901653804854e+00 -1.927620412671e+02 0.0 
0.0 0.0 -7.908956095346e+01 
-9.206596663936e+01 6.354182564684e+00 0.0 
6.354182564684e+00 -2.134903788380e+02 0.0 
0.0 0.0 -9.126690364322e+01 
-5.129949890307e+01 1.487333652363e+01 0.0 
1.487333652363e+01 -1.241641061964e+02 0.0 
0.0 0.0 -5.205668154751e+01 
-6.649093974592e+01 1.069274585165e+01 0.0 
1.069274585165e+01 -1.585509204980e+02 0.0 
0.0 0.0 -6.711255807316e+01 
-1.104288246506e+02 3.444906096410e+00 0.0 
3.444906096410e+00 -2.515616464145e+02 0.0 
0.0 0.0 -1.081971413195e+02 
-1.031997805498e+02 2.561826660345e+00 0.0 
2.561826660345e+00 -2.334024473044e+02 0.0 
0.0 0.0 -1.005806683563e+02 
-9.910526377001e+01 2.755084735098e+00 0.0 
2.755084735098e+00 -2.236496774817e+02 0.0 
0.0 0.0 -9.642648237551e+01 
-7.453835185777e+01 7.065360938226e+00 0.0 
7.065360938226e+00 -2.034221586960e+02 0.0 
0.0 0.0 -8.298815316614e+01 
-6.987261461609e+01 6.496528227916e+00 0.0 
6.496528227916e+00 -1.554504217261e+02 0.0 
0.0 0.0 -6.719691090265e+01 
-6.166586875571e+01 6.097283463689e+00 0.0 
6.097283463689e+00 -1.340939683831e+02 0.0 
0.0 0.0 -5.832795114163e+01 
-1.053252087414e+02 4.622846896100e+00 0.0 
4.622846896100e+00 -2.416493655875e+02 0.0 
0.0 0.0 -1.036923722987e+02 
-1.396275798426e+02 2.769153895488e+00 0.0 
2.769153895488e+00 -3.213824706973e+02 0.0 
0.0 0.0 -1.379030151620e+02 
-1.432647688762e+02 3.092067808482e+00 0.0 
3.092067808482e+00 -3.305673133879e+02 0.0 
0.0 0.0 -1.417496246792e+02 
-1.508494645339e+02 3.365530065311e+00 0.0 
3.365530065311e+00 -3.494163269135e+02 0.0 
0.0 0.0 -1.496797374342e+02 
-1.468980723314e+02 3.442825158652e+00 0.0 
3.442825158652e+00 -3.397609174417e+02 0.0 
0.0 0.0 -1.455976969319e+02 
-1.391276176900e+02 3.222369878283e+00 0.0 
3.222369878283e+00 -3.204654031646e+02 0.0 
0.0 0.0 -1.374779062564e+02 
-1.427880322900e+02 3.587085473583e+00 0.0 
3.587085473583e+00 -3.297127329323e+02 0.0 
0.0 0.0 -1.413502295667e+02 
-1.505018915256e+02 3.733847358778e+00 0.0 
3.733847358778e+00 -3.489730044520e+02 0.0 
0.0 0.0 -1.494424687933e+02 
-1.467019597726e+02 3.883067323420e+00 0.0 
3.883067323420e+00 -3.395874114118e+02 0.0 
0.0 0.0 -1.454868113553e+02 
-1.557214654708e+02 4.192964955825e+00 0.0 
4.192964955825e+00 -3.621057285103e+02 0.0 
0.0 0.0 -1.549481581943e+02 
-1.501985144766e+02 4.238503527827e+00 0.0 
4.238503527827e+00 -3.488225063330e+02 0.0 
0.0 0.0 -1.493063062429e+02 
-1.420741829496e+02 3.973434753606e+00 0.0 
3.973434753606e+00 -3.288921827947e+02 0.0 
0.0 0.0 -1.408899097233e+02 
-1.453656024426e+02 4.233887395263e+00 0.0 
4.233887395263e+00 -3.377916090820e+02 0.0 
0.0 0.0 -1.445471634574e+02 
-1.529100704673e+02 4.452029596097e+00 0.0 
4.452029596097e+00 -3.561417737647e+02 0.0 
0.0 0.0 -1.523155532696e+02 
-1.374662725185e+02 4.125846782058e+00 0.0 
4.125846782058e+00 -3.183654433234e+02 0.0 
0.0 0.0 -1.363495147526e+02 
-1.616962183158e+02 2.120542865556e+00 0.0 
2.120542865556e+00 -3.843754145330e+02 0.0 
0.0 0.0 -1.634214898547e+02 
-8.287154123026e+01 8.417467525384e+00 0.0 
8.417467525384e+00 -2.080806319571e+02 0.0 
0.0 0.0 -8.688565195620e+01 
-3.146646517406e+01 1.039581861168e+01 0.0 
1.039581861168e+01 -1.223396673276e+02 0.0 
0.0 0.0 -4.807553272394e+01 
-3.540046687246e+01 2.550327310264e+01 0.0 
2.550327310264e+01 -9.654720790009e+01 0.0 
0.0 0.0 -4.034036150945e+01 
-9.655186439062e+01 5.683912200761e+00 0.0 
5.683912200761e+00 -2.228239642839e+02 0.0 
0.0 0.0 -9.541274860236e+01 
-1.633254820634e+02 4.288990615178e+00 0.0 
4.288990615178e+00 -3.811739567175e+02 0.0 
0.0 0.0 -1.629498316343e+02 
-1.630268388690e+02 3.729216880879e+00 0.0 
3.729216880879e+00 -3.801708456576e+02 0.0 
0.0 0.0 -1.625593053580e+02 
-5.927625647938e+01 1.040788025420e+01 0.0 
1.040788025420e+01 -1.687249106754e+02 0.0 
0.0 0.0 -6.800035014642e+01 
-1.654495165997e+02 5.022050884713e+00 0.0 
5.022050884713e+00 -3.874284951190e+02 0.0 
0.0 0.0 -1.654634035156e+02 
-1.026760391854e+02 3.279099041088e+00 0.0 
3.279099041088e+00 -2.326288094479e+02 0.0 
0.0 0.0 -1.001914545900e+02 
-4.163393493334e+01 9.910889662252e+00 0.0 
9.910889662252e+00 -1.442509732796e+02 0.0 
0.0 0.0 -5.579819015421e+01 
-1.661999434097e+02 4.861459830641e+00 0.0 
4.861459830641e+00 -3.901126375561e+02 0.0 
0.0 0.0 -1.664937742897e+02 
-1.354515350757e+02 2.862743665270e+00 0.0 
2.862743665270e+00 -3.111487177048e+02 0.0 
0.0 0.0 -1.335800758342e+02 
-1.311626538534e+02 3.014511530538e+00 0.0 
3.014511530538e+00 -3.007962173487e+02 0.0 
0.0 0.0 -1.291876613606e+02 
-1.274961084580e+02 2.648187643083e+00 0.0 
2.648187643083e+00 -2.915883436369e+02 0.0 
0.0 0.0 -1.253253356285e+02 
-1.630723176090e+02 3.256080782772e+00 0.0 
3.256080782772e+00 -3.801093254695e+02 0.0 
0.0 0.0 -1.625544929236e+02 
-1.162088706827e+02 1.281480404060e+00 0.0 
1.281480404060e+00 -2.648159228832e+02 0.0 
0.0 0.0 -1.139074380698e+02 
-1.674958444213e+02 3.409272933805e+00 0.0 
3.409272933805e+00 -3.950657658708e+02 0.0 
0.0 0.0 -1.683684830876e+02 
-1.112668522408e+02 2.416565810266e+00 0.0 
2.416565810266e+00 -2.831881548039e+02 0.0 
0.0 0.0 -1.179365021134e+02 
-1.076604980034e+02 3.558398305622e+00 0.0 
3.558398305622e+00 -2.741735880679e+02 0.0 
0.0 0.0 -1.141502258214e+02 
-9.913288258224e+01 4.151812013802e+00 0.0 
4.151812013802e+00 -2.561907080556e+02 0.0 
0.0 0.0 -1.061970771914e+02 
-1.384647523269e+02 3.699194274567e+00 0.0 
3.699194274567e+00 -3.194360835269e+02 0.0 
0.0 0.0 -1.369702507562e+02 
-1.674180031211e+02 6.241312697918e-01 0.0 
6.241312697918e-01 -3.959996007405e+02 0.0 
0.0 0.0 -1.686252811585e+02 
-1.594206029337e+02 2.244938995964e-01 0.0 
2.244938995964e-01 -3.807063796527e+02 0.0 
0.0 0.0 -1.616380947759e+02 
-1.595093296861e+02 -3.846963582584e-01 0.0 
-3.846963582584e-01 -3.804576004891e+02 0.0 
0.0 0.0 -1.615900790526e+02 
-1.508353406060e+02 -2.021898853223e-01 0.0 
-2.021898853223e-01 -3.638390947544e+02 0.0 
0.0 0.0 -1.540023306081e+02 
-1.675572402339e+02 -7.656997491356e-01 0.0 
-7.656997491356e-01 -3.958081010457e+02 0.0 
0.0 0.0 -1.686096023839e+02 
-1.648041913288e+02 4.755201642795e+00 0.0 
4.755201642795e+00 -3.849206162841e+02 0.0 
0.0 0.0 -1.645174422839e+02 
-1.653097141067e+02 4.918991770014e+00 0.0 
4.918991770014e+00 -3.864679771978e+02 0.0 
0.0 0.0 -1.651333073914e+02 
-5.751988344338e+01 -1.279820993025e+01 0.0 
-1.279820993025e+01 -1.555114796370e+02 0.0 
0.0 0.0 -6.350940892411e+01 
-5.994539751768e+01 -1.043409369404e+01 0.0 
-1.043409369404e+01 -1.699063828197e+02 0.0 
0.0 0.0 -6.855553410120e+01 
-6.772264969892e+01 -8.770366464654e+00 0.0 
-8.770366464654e+00 -1.867110236456e+02 0.0 
0.0 0.0 -7.593010200336e+01 
-6.289877025383e+01 -7.463099743049e+00 0.0 
-7.463099743049e+00 -1.827011107916e+02 0.0 
0.0 0.0 -7.327996431363e+01 
-5.487092494425e+01 -8.969490510073e+00 0.0 
-8.969490510073e+00 -1.668472663491e+02 0.0 
0.0 0.0 -6.611545738802e+01 
-5.811608018500e+01 -5.174077710350e+00 0.0 
-5.174077710350e+00 -1.784045849156e+02 0.0 
0.0 0.0 -7.055619953018e+01 
-6.644502851361e+01 -4.372519469689e+00 0.0 
-4.372519469689e+00 -1.938768485742e+02 0.0 
0.0 0.0 -7.769656312633e+01 
-5.367006811382e+01 -1.776625872811e+00 0.0 
-1.776625872811e+00 -1.733538147990e+02 0.0 
0.0 0.0 -6.770716487386e+01 
-1.445151905811e+02 4.515746380947e+00 0.0 
4.515746380947e+00 -3.369648259631e+02 0.0 
0.0 0.0 -1.440440049633e+02 
-1.676720344026e+02 -1.968242161347e+00 0.0 
-1.968242161347e+00 -3.951698893794e+02 0.0 
0.0 0.0 -1.684525771346e+02 
-1.140689474964e+02 -4.966804561443e+00 0.0 
-4.966804561443e+00 -2.757029670640e+02 0.0 
0.0 0.0 -1.165315743681e+02 
-1.095792864381e+02 -5.042517386375e+00 0.0 
-5.042517386375e+00 -2.689266041232e+02 0.0 
0.0 0.0 -1.131517671684e+02 
-1.011846306736e+02 -5.918972531893e+00 0.0 
-5.918972531893e+00 -2.502866763675e+02 0.0 
0.0 0.0 -1.050413921123e+02 
-8.952281966443e+01 -5.023263468053e+00 0.0 
-5.023263468053e+00 -1.993013541740e+02 0.0 
0.0 0.0 -8.624725215153e+01 
-9.387707656403e+01 -5.541003939106e+00 0.0 
-5.541003939106e+00 -2.120501350214e+02 0.0 
0.0 0.0 -9.137816347564e+01 
-1.020072095776e+02 -5.076010105564e+00 0.0 
-5.076010105564e+00 -2.319954831140e+02 0.0 
0.0 0.0 -9.980080780749e+01 
-8.493158173271e+01 -4.357238312575e+00 0.0 
-4.357238312575e+00 -1.866868618309e+02 0.0 
0.0 0.0 -8.108553306909e+01 
-1.244749522522e+02 5.047537498330e+00 0.0 
5.047537498330e+00 -2.999263309980e+02 0.0 
0.0 0.0 -1.269203849750e+02 
-1.674544193162e+02 -2.338567336999e+00 0.0 
-2.338567336999e+00 -3.941453628113e+02 0.0 
0.0 0.0 -1.680799346382e+02 
-1.092771814205e+02 -1.939599698413e+00 0.0 
-1.939599698413e+00 -2.785103843596e+02 0.0 
0.0 0.0 -1.159362697340e+02 
-8.996204260782e+01 -6.438023577134e+00 0.0 
-6.438023577134e+00 -2.049284057847e+02 0.0 
0.0 0.0 -8.806713451774e+01 
-9.500280007862e+01 9.924448404801e-01 0.0 
9.924448404801e-01 -2.142209663249e+02 0.0 
0.0 0.0 -9.236712992106e+01 
-1.024906652085e+02 1.253698050615e+00 0.0 
1.253698050615e+00 -2.315877935783e+02 0.0 
0.0 0.0 -9.982353763604e+01 
-1.028634043858e+02 1.649262635950e+00 0.0 
1.649262635950e+00 -2.322305526260e+02 0.0 
0.0 0.0 -1.001281871035e+02 
-1.107077546921e+02 1.761255181136e+00 0.0 
1.761255181136e+00 -2.506770485538e+02 0.0 
0.0 0.0 -1.080154409738e+02 
-1.030429877253e+02 1.216751089248e+00 0.0 
1.216751089248e+00 -2.330189565125e+02 0.0 
0.0 0.0 -1.004185832713e+02 
-1.053307999029e+02 -3.186543460343e+00 0.0 
-3.186543460343e+00 -2.346653443667e+02 0.0 
0.0 0.0 -1.015988432809e+02 
-1.090612433899e+02 -2.501974759418e+00 0.0 
-2.501974759418e+00 -2.425972444009e+02 0.0 
0.0 0.0 -1.050975463372e+02 
-1.046088927254e+02 -2.030767086494e+00 0.0 
-2.030767086494e+00 -2.309376006282e+02 0.0 
0.0 0.0 -1.002639480061e+02 
-1.127712899789e+02 -1.853811092100e+00 0.0 
-1.853811092100e+00 -2.506810618450e+02 0.0 
0.0 0.0 -1.086357055472e+02 
-1.081557379693e+02 -1.342140048366e+00 0.0 
-1.342140048366e+00 -2.387624352309e+02 0.0 
0.0 0.0 -1.036754519601e+02 
-1.005490632363e+02 -1.461622875998e+00 0.0 
-1.461622875998e+00 -2.204127767146e+02 0.0 
0.0 0.0 -9.588855198527e+01 
-1.163293334649e+02 -1.198031430986e+00 0.0 
-1.198031430986e+00 -2.585320198276e+02 0.0 
0.0 0.0 -1.120584059877e+02 
-1.110929612393e+02 -8.373960267483e-01 0.0 
-8.373960267483e-01 -2.454953122394e+02 0.0 
0.0 0.0 -1.065764820436e+02 
-9.452737529036e+01 6.772775650782e-01 0.0 
6.772775650782e-01 -2.135184771339e+02 0.0 
0.0 0.0 -9.201375572726e+01 
-3.486420182649e+01 -2.068951021698e+01 0.0 
-2.068951021698e+01 -4.805737834440e+01 0.0 
0.0 0.0 -2.522519197907e+01 
-3.604498560312e+01 -2.210703266516e+01 0.0 
-2.210703266516e+01 -5.754856314382e+01 0.0 
0.0 0.0 -2.776430728948e+01 
-3.027234756305e+01 -1.375870955502e+01 0.0 
-1.375870955502e+01 -4.298419264620e+01 0.0 
0.0 0.0 -2.098592915423e+01 
-3.917640371265e+01 -2.000707045305e+01 0.0 
-2.000707045305e+01 -7.064349266331e+01 0.0 
0.0 0.0 -3.181552637690e+01 
-3.770299515431e+01 -2.352585453214e+01 0.0 
-2.352585453214e+01 -8.853829863646e+01 0.0 
0.0 0.0 -3.761919294882e+01 
-4.243633264714e+01 -2.016703006429e+01 0.0 
-2.016703006429e+01 -9.919014408323e+01 0.0 
0.0 0.0 -4.140390586318e+01 
-3.818712442662e+01 -2.069433788943e+01 0.0 
-2.069433788943e+01 -1.106721545506e+02 0.0 
0.0 0.0 -4.446218117588e+01 
-3.686853820157e+01 -2.574196806617e+01 0.0 
-2.574196806617e+01 -8.478569469622e+01 0.0 
0.0 0.0 -3.707965530181e+01 
-1.387575608838e+01 -4.631144436638e+00 0.0 
-4.631144436638e+00 -1.965870738900e+01 0.0 
0.0 0.0 -9.763863939795e+00 
-2.460706475788e+01 -7.899241343364e+00 0.0 
-7.899241343364e+00 -3.781086978513e+01 0.0 
0.0 0.0 -1.768046851359e+01 
-8.817188153365e+00 -1.964037818496e+00 0.0 
-1.964037818496e+00 -1.767986869281e+01 0.0 
0.0 0.0 -7.431935494218e+00 
-1.983830679643e+01 -4.208325635271e+00 0.0 
-4.208325635271e+00 -3.494567712713e+01 0.0 
0.0 0.0 -1.573769834516e+01 
-3.421432567282e+01 -9.265133904670e+00 0.0 
-9.265133904670e+00 -5.821298714177e+01 0.0 
0.0 0.0 -2.608932714014e+01 
-4.076125640448e+01 -5.491065286781e+00 0.0 
-5.491065286781e+00 -8.170644511337e+01 0.0 
0.0 0.0 -3.632637941349e+01 
-1.644770588515e+02 -1.754196625665e+00 0.0 
-1.754196625665e+00 -3.826343558721e+02 0.0 
0.0 0.0 -1.637334244171e+02 
-8.721811056667e+01 -5.876512474228e-01 0.0 
-5.876512474228e-01 -1.890818449785e+02 0.0 
0.0 0.0 -8.248998666356e+01 
-8.292193264778e+01 -1.188462713427e+00 0.0 
-1.188462713427e+00 -1.795230858960e+02 0.0 
0.0 0.0 -7.833350556313e+01 
-7.444776751758e+01 -1.113349661073e+00 0.0 
-1.113349661073e+00 -1.600996858598e+02 0.0 
0.0 0.0 -6.996423601322e+01 
-7.909417757659e+01 -1.679379986386e+00 0.0 
-1.679379986386e+00 -1.709221438842e+02 0.0 
0.0 0.0 -7.460489643823e+01 
-9.060130917760e+01 -1.188782470675e+00 0.0 
-1.188782470675e+00 -1.972298956589e+02 0.0 
0.0 0.0 -8.594936145094e+01 
-6.950385059771e+01 -5.369619463617e-01 0.0 
-5.369619463617e-01 -1.492842761311e+02 0.0 
0.0 0.0 -6.523643801863e+01 
-6.623275049210e+01 -1.021747222032e+00 0.0 
-1.021747222032e+00 -1.422216338775e+02 0.0 
0.0 0.0 -6.213631531089e+01 
-3.771158836720e+00 5.143696150018e-02 0.0 
5.143696150018e-02 -1.709383732226e+01 0.0 
0.0 0.0 -5.498592137332e+00 
-1.084651660153e+01 4.990000743290e-02 0.0 
4.990000743290e-02 -3.358487079130e+01 0.0 
0.0 0.0 -1.284709236273e+01 
-1.014183389561e+01 -2.916423269648e-02 0.0 
-2.916423269648e-02 -3.195619227843e+01 0.0 
0.0 0.0 -1.205351577685e+01 
-1.957627646621e+01 -1.510106821152e-01 0.0 
-1.510106821152e-01 -5.024633173382e+01 0.0 
0.0 0.0 -2.054678246001e+01 
-1.967333150856e+01 -1.346120764223e-01 0.0 
-1.346120764223e-01 -4.991425403815e+01 0.0 
0.0 0.0 -2.047627566401e+01 
-1.116162564323e+01 -6.606293275227e-03 0.0 
-6.606293275227e-03 -3.388268698570e+01 0.0 
0.0 0.0 -1.305790979935e+01 
-1.134596370460e+01 -2.844453275068e-02 0.0 
-2.844453275068e-02 -3.390285076278e+01 0.0 
0.0 0.0 -1.315203228987e+01 
-3.709894595515e+00 7.847901217649e-02 0.0 
7.847901217649e-02 -1.696866684722e+01 0.0 
0.0 0.0 -5.525727498639e+00 
-1.153387860283e+01 9.251927599622e-03 0.0 
9.251927599622e-03 -3.374954269035e+01 0.0 
0.0 0.0 -1.324426778763e+01 
-2.087560898729e+01 -4.334586826458e-01 0.0 
-4.334586826458e-01 -5.078585096071e+01 0.0 
0.0 0.0 -2.109843798440e+01 
-3.513311961822e+00 1.140815280673e-01 0.0 
1.140815280673e-01 -1.641284415277e+01 0.0 
0.0 0.0 -5.390734692472e+00 
-1.318571236627e+02 2.272174647208e-01 0.0 
2.272174647208e-01 -3.042151770443e+02 0.0 
0.0 0.0 -1.304216902121e+02 
-1.362198214258e+02 3.339611500632e-01 0.0 
3.339611500632e-01 -3.149315914305e+02 0.0 
0.0 0.0 -1.349454238569e+02 
-1.665576182151e+02 -2.921169603488e+00 0.0 
-2.921169603488e+00 -3.911015728175e+02 0.0 
0.0 0.0 -1.668977573098e+02 
-9.504933313545e+01 5.053638128956e-01 0.0 
5.053638128956e-01 -2.153350982023e+02 0.0 
0.0 0.0 -9.271532940132e+01 
-5.108922818456e+00 -3.157125312406e-01 0.0 
-3.157125312406e-01 -1.740648251891e+01 0.0 
0.0 0.0 -6.604729770792e+00 
-1.600563789388e+02 8.916656180607e-01 0.0 
8.916656180607e-01 -3.734742763804e+02 0.0 
0.0 0.0 -1.596591965958e+02 
-1.616970731001e+02 1.629702406295e+00 0.0 
1.629702406295e+00 -3.771568346679e+02 0.0 
0.0 0.0 -1.612561723304e+02 
-1.617738922400e+02 1.318454186400e+00 0.0 
1.318454186400e+00 -3.773330500990e+02 0.0 
0.0 0.0 -1.613320827017e+02 
-1.526978284249e+02 -4.666482597100e-01 0.0 
-4.666482597100e-01 -3.502849454966e+02 0.0 
0.0 0.0 -1.504948321765e+02 
-1.565725431819e+02 -8.420642468663e-01 0.0 
-8.420642468663e-01 -3.604868328957e+02 0.0 
0.0 0.0 -1.547178128233e+02 
-1.601344607574e+02 4.806953819368e-01 0.0 
4.806953819368e-01 -3.738709637766e+02 0.0 
0.0 0.0 -1.598016273602e+02 
-6.098529150293e+01 -6.160495091083e+00 0.0 
-6.160495091083e+00 -1.305092260812e+02 0.0 
0.0 0.0 -5.704835527522e+01 
-1.545642797368e+02 3.666547606874e+00 0.0 
3.666547606874e+00 -3.585207651049e+02 0.0 
0.0 0.0 -1.535255134525e+02 
-1.463870251532e+02 8.750745731290e-01 0.0 
8.750745731290e-01 -3.394289415980e+02 0.0 
0.0 0.0 -1.453447900253e+02 
-4.196836980250e+01 1.524252922839e+01 0.0 
1.524252922839e+01 -1.320517902387e+02 0.0 
0.0 0.0 -5.207666315978e+01 
-5.976164229415e+01 -1.033162534939e+01 0.0 
-1.033162534939e+01 -1.327148044659e+02 0.0 
0.0 0.0 -5.734293402803e+01 
-1.288985179390e+02 -1.535878278255e+00 0.0 
-1.535878278255e+00 -2.903054370795e+02 0.0 
0.0 0.0 -1.253611865055e+02 
-1.182366183939e+02 -4.107100963195e+00 0.0 
-4.107100963195e+00 -2.714095681402e+02 0.0 
0.0 0.0 -1.164938559602e+02 
-1.454607223895e+02 -2.029176750603e+00 0.0 
-2.029176750603e+00 -3.336249652941e+02 0.0 
0.0 0.0 -1.433257063051e+02 
-1.215085424783e+02 -2.677049881801e+00 0.0 
-2.677049881801e+00 -2.741744094737e+02 0.0 
0.0 0.0 -1.183048855856e+02 
-1.383274649861e+02 -2.853452981403e+00 0.0 
-2.853452981403e+00 -3.182566837582e+02 0.0 
0.0 0.0 -1.365752446233e+02 
-1.589136495545e+02 -1.247498120145e+00 0.0 
-1.247498120145e+00 -3.786632176077e+02 0.0 
0.0 0.0 -1.608730601487e+02 
-3.539060993443e+01 -6.444210358557e-01 0.0 
-6.444210358557e-01 -7.897898378483e+01 0.0 
0.0 0.0 -3.391087811578e+01 
-1.171819431596e+02 7.362039592161e-01 0.0 
7.362039592161e-01 -2.679436973478e+02 0.0 
0.0 0.0 -1.151376921522e+02 
-1.138863775593e+02 3.884557417524e-01 0.0 
3.884557417524e-01 -2.606274404271e+02 0.0 
0.0 0.0 -1.119541453959e+02 
-1.340924170156e+02 8.540468269654e-01 0.0 
8.540468269654e-01 -3.090773618889e+02 0.0 
0.0 0.0 -1.325509336713e+02 
-6.243588757944e+01 -3.277139871692e+00 0.0 
-3.277139871692e+00 -1.335708115566e+02 0.0 
0.0 0.0 -5.840200974081e+01 
-9.656725097723e+01 -2.101498389583e+00 0.0 
-2.101498389583e+00 -2.116386750935e+02 0.0 
0.0 0.0 -9.206177782122e+01 
-4.000988432785e+01 -2.556492157610e+00 0.0 
-2.556492157610e+00 -8.472359498426e+01 0.0 
0.0 0.0 -3.702004379364e+01 
-1.591912553563e+02 4.712174588508e+00 0.0 
4.712174588508e+00 -3.741594645760e+02 0.0 
0.0 0.0 -1.596052159797e+02 
-9.769902061737e+01 4.607649675893e+00 0.0 
4.607649675893e+00 -2.226586597820e+02 0.0 
0.0 0.0 -9.570730411982e+01 
-9.740558395176e+01 -6.717490395510e+00 0.0 
-6.717490395510e+00 -2.377511051189e+02 0.0 
0.0 0.0 -1.001470067212e+02 
-8.124801051458e+01 -5.241611219397e+00 0.0 
-5.241611219397e+00 -1.790144259521e+02 0.0 
0.0 0.0 -7.767873094000e+01 
-6.595696426316e+01 -7.478776987581e+00 0.0 
-7.478776987581e+00 -1.441724681186e+02 0.0 
0.0 0.0 -6.263882971452e+01 
-5.645120633849e+01 -1.209591239219e+01 0.0 
-1.209591239219e+01 -1.275528979448e+02 0.0 
0.0 0.0 -5.480123128499e+01 
-8.810089382259e+01 7.917397588227e+00 0.0 
7.917397588227e+00 -2.166079512623e+02 0.0 
0.0 0.0 -9.101265352548e+01 
-9.399734139507e+01 -6.681719114800e+00 0.0 
-6.681719114800e+00 -2.180088965856e+02 0.0 
0.0 0.0 -9.320187139421e+01 
-1.309598188711e+02 -3.904700065764e+00 0.0 
-3.904700065764e+00 -3.086439880691e+02 0.0 
0.0 0.0 -1.314811420821e+02 
-1.384182718415e+02 7.834912524467e-01 0.0 
7.834912524467e-01 -3.198256929330e+02 0.0 
0.0 0.0 -1.370731894324e+02 
-4.899505494512e+00 6.374834242453e-02 0.0 
6.374834242453e-02 -1.904560358516e+01 0.0 
0.0 0.0 -6.651330533043e+00 
-1.353237657185e+02 -3.615414212534e+00 0.0 
-3.615414212534e+00 -3.208750294350e+02 0.0 
0.0 0.0 -1.364596385461e+02 
-1.102106846304e+02 -5.287975498777e+00 0.0 
-5.287975498777e+00 -2.572666344865e+02 0.0 
0.0 0.0 -1.098431957351e+02 
-1.206008504649e+02 1.233597727469e+00 0.0 
1.233597727469e+00 -2.755396945652e+02 0.0 
0.0 0.0 -1.184421635090e+02 
-1.328583671453e+02 1.070986954750e+00 0.0 
1.070986954750e+00 -3.279650478630e+02 0.0 
0.0 0.0 -1.378470245025e+02 
-4.637160734219e+01 -1.746140569018e+01 0.0 
-1.746140569018e+01 -1.006928350452e+02 0.0 
0.0 0.0 -4.248425136837e+01 
-1.372789000384e+02 1.356519650156e+00 0.0 
1.356519650156e+00 -3.163706896264e+02 0.0 
0.0 0.0 -1.356948768994e+02 
-1.515443146101e+02 2.458050606319e+00 0.0 
2.458050606319e+00 -3.513480599125e+02 0.0 
0.0 0.0 -1.504677123568e+02 
-1.119456206655e+02 1.436189585227e+00 0.0 
1.436189585227e+00 -2.542569900156e+02 0.0 
0.0 0.0 -1.094607832044e+02 
-2.970861357372e+01 -1.602467161196e+00 0.0 
-1.602467161196e+00 -6.461466451440e+01 0.0 
0.0 0.0 -2.789698342644e+01 
-1.086907579779e+02 5.617282567753e-01 0.0 
5.617282567753e-01 -2.479610435731e+02 0.0 
0.0 0.0 -1.065955404653e+02 
-1.533193477362e+02 -2.577151788006e+00 0.0 
-2.577151788006e+00 -3.639182749214e+02 0.0 
0.0 0.0 -1.547712867973e+02 
-1.358933536078e+02 2.456240362725e+00 0.0 
2.456240362725e+00 -3.121699727730e+02 0.0 
0.0 0.0 -1.340189979142e+02 
-5.688603299156e+01 -2.308543640564e+00 0.0 
-2.308543640564e+00 -1.215427804846e+02 0.0 
0.0 0.0 -5.312864404286e+01 
-9.640659395561e+01 -1.087633265413e+00 0.0 
-1.087633265413e+00 -2.538861097414e+02 0.0 
0.0 0.0 -1.046878111091e+02 
-9.503433837666e+01 6.702228328005e+00 0.0 
6.702228328005e+00 -2.236151027051e+02 0.0 
0.0 0.0 -9.519483232453e+01 
-8.801799646954e+01 2.037483902980e+00 0.0 
2.037483902980e+00 -1.966492669257e+02 0.0 
0.0 0.0 -8.500017901858e+01 
-1.497647676362e+02 1.058498797307e+00 0.0 
1.058498797307e+00 -3.478460386804e+02 0.0 
0.0 0.0 -1.488832418950e+02 
-1.012014588520e+02 5.685970927178e+00 0.0 
5.685970927178e+00 -2.551519377518e+02 0.0 
0.0 0.0 -1.065060189811e+02 
-1.410237595117e+02 -3.559162508220e-01 0.0 
-3.559162508220e-01 -3.440518466492e+02 0.0 
0.0 0.0 -1.451226818483e+02 
-1.139865758886e+02 -7.544562573439e-01 0.0 
-7.544562573439e-01 -2.892251681047e+02 0.0 
0.0 0.0 -1.205635231980e+02 
-6.069737259974e+01 -1.874679970800e+00 0.0 
-1.874679970800e+00 -1.301059415602e+02 0.0 
0.0 0.0 -5.684099424798e+01 
-1.432704873179e+02 -3.243055610752e+00 0.0 
-3.243055610752e+00 -3.351683115685e+02 0.0 
0.0 0.0 -1.431316396659e+02 
-9.397187149923e+01 3.334322081319e+00 0.0 
3.334322081319e+00 -2.475525106231e+02 0.0 
0.0 0.0 -1.020573146367e+02 
-1.452743058942e+02 1.549428103856e+00 0.0 
1.549428103856e+00 -3.360187715061e+02 0.0 
0.0 0.0 -1.439879232201e+02 
-1.308812313381e+02 4.950811019803e+00 0.0 
4.950811019803e+00 -3.086931878518e+02 0.0 
0.0 0.0 -1.314723257570e+02 
-7.527055533183e+01 8.410704366974e-01 0.0 
8.410704366974e-01 -2.129859392749e+02 0.0 
0.0 0.0 -8.607694838201e+01 
-1.405065115546e+02 1.998145732868e+00 0.0 
1.998145732868e+00 -3.237639709974e+02 0.0 
0.0 0.0 -1.388811447656e+02 
-9.664362068820e+01 -5.804123915014e+00 0.0 
-5.804123915014e+00 -2.441032308575e+02 0.0 
0.0 0.0 -1.018240554637e+02 
-1.380467261374e+02 1.704885354233e+00 0.0 
1.704885354233e+00 -3.380671977515e+02 0.0 
0.0 0.0 -1.424341771666e+02 
-9.340249961539e+01 5.146740058628e+00 0.0 
5.146740058628e+00 -2.131760371472e+02 0.0 
0.0 0.0 -9.157356102877e+01 
-1.149784637592e+02 5.468047944044e+00 0.0 
5.468047944044e+00 -2.706880664170e+02 0.0 
0.0 0.0 -1.152999590529e+02 
-1.251429038888e+02 4.269881512720e+00 0.0 
4.269881512720e+00 -2.892364397681e+02 0.0 
0.0 0.0 -1.239138030971e+02 
-1.084394177279e+02 6.077223025443e+00 0.0 
6.077223025443e+00 -2.625904621788e+02 0.0 
0.0 0.0 -1.109089639720e+02 
-1.245289248682e+02 -1.152976540592e+00 0.0 
-1.152976540592e+00 -2.788254563765e+02 0.0 
0.0 0.0 -1.206063143734e+02 
-1.393539716325e+02 -3.466461788009e+00 0.0 
-3.466461788009e+00 -3.279840457999e+02 0.0 
0.0 0.0 -1.398014052297e+02 
-3.647469178873e+01 -8.403243119724e+00 0.0 
-8.403243119724e+00 -1.378279100320e+02 0.0 
0.0 0.0 -5.303988638371e+01 
-7.350528740443e+01 9.772208633113e+00 0.0 
9.772208633113e+00 -1.783244623609e+02 0.0 
0.0 0.0 -7.514892492960e+01 
-1.202708565524e+02 1.593718667439e+00 0.0 
1.593718667439e+00 -2.741682768361e+02 0.0 
0.0 0.0 -1.179317400166e+02 
-1.457814104183e+02 4.520941767228e+00 0.0 
4.520941767228e+00 -3.462781982095e+02 0.0 
0.0 0.0 -1.472178825883e+02 
-1.531582305769e+02 1.678398014058e+00 0.0 
1.678398014058e+00 -3.554575299198e+02 0.0 
0.0 0.0 -1.521847281490e+02 
-8.758162553675e+01 7.083189339365e+00 0.0 
7.083189339365e+00 -2.044546203793e+02 0.0 
0.0 0.0 -8.721087377482e+01 
-1.388700719614e+02 -3.295385658947e+00 0.0 
-3.295385658947e+00 -3.229415103964e+02 0.0 
0.0 0.0 -1.381434747073e+02 
-1.481572306601e+02 2.177924964272e+00 0.0 
2.177924964272e+00 -3.428709775955e+02 0.0 
0.0 0.0 -1.469084624767e+02 
-9.803493467034e+01 -5.869687426883e+00 0.0 
-5.869687426883e+00 -2.248518345248e+02 0.0 
0.0 0.0 -9.646603075853e+01 
-4.086793199915e+01 -2.461907226477e-01 0.0 
-2.461907226477e-01 -9.044988273453e+01 0.0 
0.0 0.0 -3.899534442010e+01 
-3.904732728477e+01 1.935255962582e+01 0.0 
1.935255962582e+01 -1.161467829901e+02 0.0 
0.0 0.0 -4.655043467391e+01 
-5.837621882469e+01 1.796579341668e+00 0.0 
1.796579341668e+00 -1.815523164155e+02 0.0 
0.0 0.0 -7.157856057205e+01 
-9.601848507525e+01 5.431093388300e+00 0.0 
5.431093388300e+00 -2.467686461841e+02 0.0 
0.0 0.0 -1.024361393778e+02 
-1.061378329925e+02 -5.275363154214e+00 0.0 
-5.275363154214e+00 -2.446083991112e+02 0.0 
0.0 0.0 -1.048238696311e+02 
-1.558760447986e+02 3.299024669182e+00 0.0 
3.299024669182e+00 -3.620748591474e+02 0.0 
0.0 0.0 -1.549852711838e+02 
-1.426667976004e+02 -2.975043592797e+00 0.0 
-2.975043592797e+00 -3.303121072620e+02 0.0 
0.0 0.0 -1.414936714587e+02 
-1.312975003365e+02 -2.960407932453e+00 0.0 
-2.960407932453e+00 -3.186590774508e+02 0.0 
0.0 0.0 -1.345869733362e+02 
-3.543366337322e+01 1.799932836946e+01 0.0 
1.799932836946e+01 -5.263557959599e+01 0.0 
0.0 0.0 -2.571820656646e+01 
-9.148884139085e+01 2.487420244971e+00 0.0 
2.487420244971e+00 -2.050695207445e+02 0.0 
0.0 0.0 -8.856750864060e+01 
-1.463630046882e+02 -2.628952628582e+00 0.0 
-2.628952628582e+00 -3.379174768116e+02 0.0 
0.0 0.0 -1.448841444499e+02 
-1.005393778748e+02 -2.309211032894e+00 0.0 
-2.309211032894e+00 -2.608037053857e+02 0.0 
0.0 0.0 -1.080029249781e+02 
-1.418260334871e+02 9.937762743713e-01 0.0 
9.937762743713e-01 -3.460354274742e+02 0.0 
0.0 0.0 -1.459584382884e+02 
-1.032692408185e+02 -9.357235005568e-01 0.0 
-9.357235005568e-01 -2.264853291020e+02 0.0 
0.0 0.0 -9.852637097614e+01 
-1.591199543129e+02 4.603109433141e+00 0.0 
4.603109433141e+00 -3.749702946536e+02 0.0 
0.0 0.0 -1.598270746899e+02 
-7.509305107534e+01 4.028962340714e+00 0.0 
4.028962340714e+00 -1.663432471284e+02 0.0 
0.0 0.0 -7.203088946111e+01 
-1.500060527698e+02 -2.280616820976e+00 0.0 
-2.280616820976e+00 -3.459880571817e+02 0.0 
0.0 0.0 -1.483982329855e+02 
-1.314413770314e+02 -1.912065653282e+00 0.0 
-1.912065653282e+00 -3.225310877212e+02 0.0 
0.0 0.0 -1.357917394258e+02 
-6.477357071024e+01 1.052878234316e+01 0.0 
1.052878234316e+01 -1.746129665935e+02 0.0 
0.0 0.0 -7.141596119113e+01 
-9.320450411037e+01 4.431350448168e-02 0.0 
4.431350448168e-02 -2.124030148676e+02 0.0 
0.0 0.0 -9.128225569339e+01 
-1.588837445214e+02 -2.278580011041e+00 0.0 
-2.278580011041e+00 -3.684691264283e+02 0.0 
0.0 0.0 -1.578058612849e+02 
-1.406304855673e+02 -1.584827430073e+00 0.0 
-1.584827430073e+00 -3.414658244186e+02 0.0 
0.0 0.0 -1.442288929958e+02 
-1.163704945984e+02 5.524777893431e+00 0.0 
5.524777893431e+00 -2.812376493858e+02 0.0 
0.0 0.0 -1.188824431953e+02 
-9.618589061932e+01 -3.818954473904e+00 0.0 
-3.818954473904e+00 -2.497504089349e+02 0.0 
0.0 0.0 -1.033808898663e+02 
-7.977466579526e+01 2.499188994723e+00 0.0 
2.499188994723e+00 -1.771942715442e+02 0.0 
0.0 0.0 -7.669068120183e+01 
-1.101166885118e+02 -4.585595835551e+00 0.0 
-4.585595835551e+00 -2.517388355654e+02 0.0 
0.0 0.0 -1.081566572232e+02 
-1.195826505658e+02 5.113288285386e+00 0.0 
5.113288285386e+00 -2.799222664038e+02 0.0 
0.0 0.0 -1.194514750909e+02 
-1.629319462867e+02 2.920253754484e+00 0.0 
2.920253754484e+00 -3.798796012123e+02 0.0 
0.0 0.0 -1.624434642497e+02 
-1.451155608975e+02 -8.793514501033e-01 0.0 
-8.793514501033e-01 -3.516078638767e+02 0.0 
0.0 0.0 -1.486170274323e+02 
-1.231760880143e+02 2.820248006171e+00 0.0 
2.820248006171e+00 -2.812309498484e+02 0.0 
0.0 0.0 -1.209221113588e+02 
-1.058802108366e+02 -4.320139209444e+00 0.0 
-4.320139209444e+00 -2.392661295357e+02 0.0 
0.0 0.0 -1.031439021117e+02 
-1.213765687849e+02 3.574426167784e+00 0.0 
3.574426167784e+00 -3.013626768379e+02 0.0 
0.0 0.0 -1.264217736868e+02 
-2.009918187504e+01 -1.802489333186e-01 0.0 
-1.802489333186e-01 -5.010225307909e+01 0.0 
0.0 0.0 -2.066043048624e+01 
-8.333363246455e+01 3.127885958009e+00 0.0 
3.127885958009e+00 -1.858243972939e+02 0.0 
0.0 0.0 -8.034740892752e+01 
-1.096847002739e+02 -3.603609228030e+00 0.0 
-3.603609228030e+00 -2.467470355735e+02 0.0 
0.0 0.0 -1.065295207542e+02 
-6.212954943074e+01 -1.669582564535e+00 0.0 
-1.669582564535e+00 -1.882246144109e+02 0.0 
0.0 0.0 -7.470624915249e+01 
-1.005762192169e+02 -4.540370371029e+00 0.0 
-4.540370371029e+00 -2.559620868889e+02 0.0 
0.0 0.0 -1.065614918317e+02 
-1.573152517117e+02 2.628147699728e+00 0.0 
2.628147699728e+00 -3.755188720009e+02 0.0 
0.0 0.0 -1.594502371138e+02 
-1.134473913870e+02 -2.934833842892e+00 0.0 
-2.934833842892e+00 -2.544626514895e+02 0.0 
0.0 0.0 -1.099730128630e+02 
-7.060794522278e+01 -1.540579643829e+00 0.0 
-1.540579643829e+00 -2.038347028949e+02 0.0 
0.0 0.0 -8.193279443531e+01 
-1.171543688967e+02 -2.307748435784e+00 0.0 
-2.307748435784e+00 -2.623434541398e+02 0.0 
0.0 0.0 -1.134493469109e+02 
-7.168038187927e+01 3.158329487585e+00 0.0 
3.158329487585e+00 -1.578644153187e+02 0.0 
0.0 0.0 -6.846343915938e+01 
-1.268422875930e+02 3.197207594644e+00 0.0 
3.197207594644e+00 -2.905264269672e+02 0.0 
0.0 0.0 -1.248106143681e+02 
-1.208346830266e+02 -1.686169908782e+00 0.0 
-1.686169908782e+00 -2.703296925498e+02 0.0 
0.0 0.0 -1.169493126729e+02 
-1.274872971177e+02 4.926837704631e+00 0.0 
4.926837704631e+00 -2.989558236750e+02 0.0 
0.0 0.0 -1.275329362378e+02 
-2.229013084175e+01 -6.010831535116e-01 0.0 
-6.010831535116e-01 -5.241812968584e+01 0.0 
0.0 0.0 -2.201247815828e+01 
-1.194653110544e+02 5.114614134323e+00 0.0 
5.114614134323e+00 -2.908802495315e+02 0.0 
0.0 0.0 -1.227036681758e+02 
-1.486132459897e+02 -8.964802877235e-01 0.0 
-8.964802877235e-01 -3.397171489195e+02 0.0 
0.0 0.0 -1.460991184727e+02 
-7.439846399552e+01 -9.152246848483e+00 0.0 
-9.152246848483e+00 -1.724405727053e+02 0.0 
0.0 0.0 -7.365171101023e+01 
-1.050362279760e+02 -4.934456743792e+00 0.0 
-4.934456743792e+00 -2.622816967092e+02 0.0 
0.0 0.0 -1.097953774056e+02 
-1.348281882685e+02 3.379544891285e+00 0.0 
3.379544891285e+00 -3.101340691770e+02 0.0 
0.0 0.0 -1.330886772337e+02 
-6.357160556294e+01 4.150635222174e+00 0.0 
4.150635222174e+00 -1.383080039929e+02 0.0 
0.0 0.0 -6.016388286676e+01 
-1.136048608170e+02 -4.173318472325e+00 0.0 
-4.173318472325e+00 -2.807492109256e+02 0.0 
0.0 0.0 -1.179062215228e+02 
-1.355162906794e+02 4.779056699109e+00 0.0 
4.779056699109e+00 -3.180429719324e+02 0.0 
0.0 0.0 -1.356677787835e+02 
-1.227529201530e+02 4.544239567889e+00 0.0 
4.544239567889e+00 -3.005036203748e+02 0.0 
0.0 0.0 -1.265769621583e+02 
-1.042675969215e+02 4.670343706027e+00 0.0 
4.670343706027e+00 -2.647479409426e+02 0.0 
0.0 0.0 -1.103046613592e+02 
-1.223720622167e+02 -3.517455220280e+00 0.0 
-3.517455220280e+00 -2.995757355458e+02 0.0 
0.0 0.0 -1.261843393288e+02 
-6.688689019879e+01 5.241255150549e+00 0.0 
5.241255150549e+00 -1.468265630467e+02 0.0 
0.0 0.0 -6.371403597365e+01 
-5.789756852207e+01 -7.330463802008e+00 0.0 
-7.330463802008e+00 -1.235283084836e+02 0.0 
0.0 0.0 -5.402776310171e+01 
-4.964752208045e+01 -6.695641539173e+00 0.0 
-6.695641539173e+00 -1.028085931288e+02 0.0 
0.0 0.0 -4.533683456277e+01 
-7.482163259960e+01 -3.737152252277e+00 0.0 
-3.737152252277e+00 -2.098659305246e+02 0.0 
0.0 0.0 -8.500626893727e+01 
-1.400998309280e+02 4.627521944113e+00 0.0 
4.627521944113e+00 -3.275439298665e+02 0.0 
0.0 0.0 -1.398931282383e+02 
-2.845234537667e+01 -2.031126962850e-01 0.0 
-2.031126962850e-01 -6.647332543497e+01 0.0 
0.0 0.0 -2.807770124349e+01 
-1.340151507374e+02 3.862342082872e+00 0.0 
3.862342082872e+00 -3.091233164864e+02 0.0 
0.0 0.0 -1.325415401671e+02 
-3.851226739622e+01 -6.363651988235e+00 0.0 
-6.363651988235e+00 -7.470143916662e+01 0.0 
0.0 0.0 -3.344402830492e+01 
-7.101736303906e+01 -6.273852504879e+00 0.0 
-6.273852504879e+00 -1.988502117238e+02 0.0 
0.0 0.0 -8.056027242886e+01 
-1.354340197929e+02 3.534208422008e+00 0.0 
3.534208422008e+00 -3.294802373373e+02 0.0 
0.0 0.0 -1.390742771391e+02 
-1.160015463538e+02 2.649273984966e-01 0.0 
2.649273984966e-01 -2.661705862435e+02 0.0 
0.0 0.0 -1.142516397792e+02 
-7.566538057709e+01 -7.429759150913e+00 0.0 
-7.429759150913e+00 -2.035614220598e+02 0.0 
0.0 0.0 -8.336804079108e+01 
-5.079560389509e+01 -3.562889534589e-01 0.0 
-3.562889534589e-01 -1.101542056687e+02 0.0 
0.0 0.0 -4.788494286913e+01 
-7.244491596260e+01 -9.301151610854e+00 0.0 
-9.301151610854e+00 -1.908322291349e+02 0.0 
0.0 0.0 -7.858314352924e+01 
-1.127043419536e+02 4.052938078365e+00 0.0 
4.052938078365e+00 -2.829017367930e+02 0.0 
0.0 0.0 -1.182818236240e+02 
-7.703512169402e+01 -9.278317536097e+00 0.0 
-9.278317536097e+00 -1.953295472140e+02 0.0 
0.0 0.0 -8.130940067241e+01 
-7.389229001304e+01 -1.009615506465e+01 0.0 
-1.009615506465e+01 -1.816258108900e+02 0.0 
0.0 0.0 -7.625543027091e+01 
-1.541984158611e+02 1.016970487755e+00 0.0 
1.016970487755e+00 -3.588540344050e+02 0.0 
0.0 0.0 -1.535157350798e+02 
-7.805674078075e+01 -9.276562912034e+00 0.0 
-9.276562912034e+00 -1.865599770292e+02 0.0 
0.0 0.0 -7.898501534298e+01 
-1.616888646091e+02 3.478560723181e-01 0.0 
3.478560723181e-01 -3.772028019414e+02 0.0 
0.0 0.0 -1.612674999652e+02 
-1.648896044346e+02 -7.862129431207e-01 0.0 
-7.862129431207e-01 -3.831288265965e+02 0.0 
0.0 0.0 -1.640055293093e+02 
-9.951569068464e+01 1.784170318862e-01 0.0 
1.784170318862e-01 -2.273056708011e+02 0.0 
0.0 0.0 -9.764640844574e+01 
-5.516720988653e+01 4.887817236231e+00 0.0 
4.887817236231e+00 -1.179200999525e+02 0.0 
0.0 0.0 -5.152619295171e+01 
-6.237742114828e+01 3.517871051057e-01 0.0 
3.517871051057e-01 -1.125639154847e+02 0.0 
0.0 0.0 -5.336214955307e+01 
-5.937215418893e+01 7.467039713793e+00 0.0 
7.467039713793e+00 -1.281587670678e+02 0.0 
0.0 0.0 -5.585927637703e+01 
-6.699732864233e+01 -9.855983248320e+00 0.0 
-9.855983248320e+00 -1.527677994247e+02 0.0 
0.0 0.0 -6.552953842010e+01 
-1.329559000091e+02 4.286262817859e+00 0.0 
4.286262817859e+00 -3.082889932629e+02 0.0 
0.0 0.0 -1.319734679816e+02 
-9.991772467025e+01 4.809350667163e-02 0.0 
4.809350667163e-02 -2.280861886807e+02 0.0 
0.0 0.0 -9.800117400530e+01 
-6.285367966346e+01 -8.840259925738e+00 0.0 
-8.840259925738e+00 -1.381392592202e+02 0.0 
0.0 0.0 -5.989788166510e+01 
-1.579674630477e+02 4.433411087162e+00 0.0 
4.433411087162e+00 -3.679375660700e+02 0.0 
0.0 0.0 -1.573715087353e+02 
-1.670470459228e+02 4.346752115281e+00 0.0 
4.346752115281e+00 -3.931075150965e+02 0.0 
0.0 0.0 -1.676463683058e+02 
-1.279072941106e+02 2.532010361500e-01 0.0 
2.532010361500e-01 -2.946579632174e+02 0.0 
0.0 0.0 -1.263695771984e+02 
-1.455030363741e+02 3.228192352483e-01 0.0 
3.228192352483e-01 -3.533711655315e+02 0.0 
0.0 0.0 -1.492622605717e+02 
-1.264682515510e+02 3.889011426844e+00 0.0 
3.889011426844e+00 -3.104860865256e+02 0.0 
0.0 0.0 -1.306863014230e+02 
-1.469051685953e+02 2.240949481161e-01 0.0 
2.240949481161e-01 -3.411625746868e+02 0.0 
0.0 0.0 -1.460203229846e+02 
-9.294306316454e+01 3.974119048379e-01 0.0 
3.974119048379e-01 -2.111554538761e+02 0.0 
0.0 0.0 -9.082955511220e+01 
-1.739454786426e+01 -2.340744184222e+00 0.0 
-2.340744184222e+00 -3.408035051291e+01 0.0 
0.0 0.0 -1.500308563928e+01 
-1.286885561239e+02 -5.587752858294e-01 0.0 
-5.587752858294e-01 -2.888420936937e+02 0.0 
0.0 0.0 -1.248591949453e+02 
-4.779772670200e+01 6.473454694254e+00 0.0 
6.473454694254e+00 -9.842099793919e+01 0.0 
0.0 0.0 -4.346561739236e+01 
-5.036029685479e+01 9.845021781904e+00 0.0 
9.845021781904e+00 -1.053278557118e+02 0.0 
0.0 0.0 -4.630644576997e+01 
-4.527240831821e+01 1.328975362594e+01 0.0 
1.328975362594e+01 -8.907685178965e+01 0.0 
0.0 0.0 -3.876292096433e+01 
-6.358129967297e+01 -1.413042509019e+00 0.0 
-1.413042509019e+00 -1.368093790706e+02 0.0 
0.0 0.0 -5.971720362306e+01 
-3.646889951331e+01 -1.399186702310e+01 0.0 
-1.399186702310e+01 -5.992665544359e+01 0.0 
0.0 0.0 -2.716316561793e+01 
-4.359685356900e+01 8.664258947954e+00 0.0 
8.664258947954e+00 -8.435845176593e+01 0.0 
0.0 0.0 -3.770464855374e+01 
-1.588187161170e+02 9.483328128796e-01 0.0 
9.483328128796e-01 -3.795961343354e+02 0.0 
0.0 0.0 -1.611244551357e+02 
-1.011322781169e+02 8.018444672299e-01 0.0 
8.018444672299e-01 -2.291652012329e+02 0.0 
0.0 0.0 -9.868924380496e+01 
-1.401395567975e+02 3.856936793026e+00 0.0 
3.856936793026e+00 -3.380426889843e+02 0.0 
0.0 0.0 -1.430546737345e+02 
-3.909811798286e+01 1.169661023318e+01 0.0 
1.169661023318e+01 -6.704877763289e+01 0.0 
0.0 0.0 -2.986827613775e+01 
-1.556176355391e+02 2.456326785531e+00 0.0 
2.456326785531e+00 -3.616556132878e+02 0.0 
0.0 0.0 -1.547819746481e+02 
-1.589500045610e+02 3.532638917967e+00 0.0 
3.532638917967e+00 -3.775913522576e+02 0.0 
0.0 0.0 -1.605624070456e+02 
-1.667523728400e+02 -2.996238485110e+00 0.0 
-2.996238485110e+00 -3.902156320655e+02 0.0 
0.0 0.0 -1.666904014717e+02 
-1.491243552340e+02 3.628876288286e+00 0.0 
3.628876288286e+00 -3.570466659425e+02 0.0 
0.0 0.0 -1.514513063529e+02 
-4.044952165564e+01 1.962081646821e+01 0.0 
1.962081646821e+01 -7.708376457205e+01 0.0 
0.0 0.0 -3.397494366523e+01 
-1.089379546357e+02 1.592455732829e+00 0.0 
1.592455732829e+00 -2.465386265825e+02 0.0 
0.0 0.0 -1.062429743654e+02 
-1.588125802646e+02 4.844861621848e+00 0.0 
4.844861621848e+00 -3.726906999822e+02 0.0 
0.0 0.0 -1.590509840741e+02 
-1.344687392329e+02 3.538749767528e-01 0.0 
3.538749767528e-01 -3.102057547888e+02 0.0 
0.0 0.0 -1.330023482065e+02 
-1.670265157971e+02 -3.060607686674e+00 0.0 
-3.060607686674e+00 -3.895889698630e+02 0.0 
0.0 0.0 -1.665846456980e+02 
-1.005824012293e+02 8.643298926931e-01 0.0 
8.643298926931e-01 -2.271888107101e+02 0.0 
0.0 0.0 -9.793136358181e+01 
-1.551587435229e+02 6.069690193480e-01 0.0 
6.069690193480e-01 -3.612937695594e+02 0.0 
0.0 0.0 -1.545357539247e+02 
-3.625504581942e+01 -1.597819701124e+01 0.0 
-1.597819701124e+01 -1.254831235825e+02 0.0 
0.0 0.0 -4.909145873041e+01 
-1.552069242543e+02 2.636749615052e-01 0.0 
2.636749615052e-01 -3.614391626495e+02 0.0 
0.0 0.0 -1.545938260711e+02 
-1.409151025546e+02 4.358984661624e+00 0.0 
4.358984661624e+00 -3.276178904995e+02 0.0 
0.0 0.0 -1.401598979162e+02 
-1.103015183155e+02 1.770440936618e-01 0.0 
1.770440936618e-01 -2.521440113091e+02 0.0 
0.0 0.0 -1.083336588874e+02 
-1.089038254364e+02 1.823370953112e+00 0.0 
1.823370953112e+00 -2.463113868360e+02 0.0 
0.0 0.0 -1.061645636817e+02 
-1.600506792860e+02 -1.260673583648e+00 0.0 
-1.260673583648e+00 -3.702346721099e+02 0.0 
0.0 0.0 -1.586856054188e+02 
-1.571980472089e+02 4.080736696678e+00 0.0 
4.080736696678e+00 -3.658186576651e+02 0.0 
0.0 0.0 -1.565050114622e+02 
-3.773753843257e+01 2.443281895906e+01 0.0 
2.443281895906e+01 -7.839126018659e+01 0.0 
0.0 0.0 -3.469294258185e+01 
-1.276417781056e+02 1.534820829239e-01 0.0 
1.534820829239e-01 -2.936098932915e+02 0.0 
0.0 0.0 -1.259755014191e+02 
-7.930393847193e+01 -2.293859070673e+00 0.0 
-2.293859070673e+00 -1.716267464986e+02 0.0 
0.0 0.0 -7.487920549115e+01 
-3.756794734136e+01 -1.831280527984e+01 0.0 
-1.831280527984e+01 -1.082750012828e+02 0.0 
0.0 0.0 -4.503906954918e+01 
-1.596618371085e+02 -3.079625802029e+00 0.0 
-3.079625802029e+00 -3.754380514999e+02 0.0 
0.0 0.0 -1.601299665825e+02 
-1.484389296440e+02 4.444557140232e+00 0.0 
4.444557140232e+00 -3.459513790516e+02 0.0 
0.0 0.0 -1.479170926087e+02 
-1.595507550950e+02 -2.076360504711e+00 0.0 
-2.076360504711e+00 -3.699218887734e+02 0.0 
0.0 0.0 -1.584417931605e+02 
-1.912910977329e+01 -9.243136940503e-02 0.0 
-9.243136940503e-02 -4.955311651606e+01 0.0 
0.0 0.0 -2.020466788681e+01 
-1.248542675775e+01 -5.203516889424e-01 0.0 
-5.203516889424e-01 -3.132351240289e+01 0.0 
0.0 0.0 -1.279604137030e+01 
-1.610065848662e+02 -2.563738059958e+00 0.0 
-2.563738059958e+00 -3.804797637136e+02 0.0 
0.0 0.0 -1.620459045739e+02 
-1.592373201603e+02 4.718206770851e+00 0.0 
4.718206770851e+00 -3.720069111806e+02 0.0 
0.0 0.0 -1.589732694023e+02 
-4.186915949930e+01 -1.768415928007e+01 0.0 
-1.768415928007e+01 -1.217436774337e+02 0.0 
0.0 0.0 -4.841063254696e+01 
-1.633520707134e+02 2.141005042278e+00 0.0 
2.141005042278e+00 -3.812780766834e+02 0.0 
0.0 0.0 -1.629890442190e+02 
-3.716179669405e+01 2.697372115080e+01 0.0 
2.697372115080e+01 -7.950004040985e+01 0.0 
0.0 0.0 -3.593480311274e+01 
-9.238793615387e+01 2.453980313936e-01 0.0 
2.453980313936e-01 -2.092395318653e+02 0.0 
0.0 0.0 -9.008824040577e+01 
-1.116943214447e+01 9.139218795084e-03 0.0 
9.139218795084e-03 -3.214905480573e+01 0.0 
0.0 0.0 -1.267243587950e+01 
-1.664700919169e+02 -2.200622411680e+00 0.0 
-2.200622411680e+00 -3.879326183166e+02 0.0 
0.0 0.0 -1.659208130700e+02 
-1.558478138381e+02 1.483306688213e+00 0.0 
1.483306688213e+00 -3.627676745132e+02 0.0 
0.0 0.0 -1.551846465054e+02 
-8.691778146482e+01 -1.725037366653e+00 0.0 
-1.725037366653e+00 -1.885612223770e+02 0.0 
0.0 0.0 -8.224370115255e+01 
-9.597568458572e+01 1.356935586033e+00 0.0 
1.356935586033e+00 -2.157677987275e+02 0.0 
0.0 0.0 -9.312304499397e+01 
-5.737302309907e+01 -8.635806843503e-01 0.0 
-8.635806843503e-01 -1.236813653810e+02 0.0 
0.0 0.0 -5.391631654401e+01 
-1.528891208192e+02 4.291223816331e+00 0.0 
4.291223816331e+00 -3.621413972055e+02 0.0 
0.0 0.0 -1.541091554074e+02 
-2.806467611041e+01 -5.479341383502e+00 0.0 
-5.479341383502e+00 -4.912514218182e+01 0.0 
0.0 0.0 -2.212526869381e+01 
-1.563964393463e+02 1.243144199538e+00 0.0 
1.243144199538e+00 -3.643436173718e+02 0.0 
0.0 0.0 -1.558220170154e+02 
-1.614035871749e+02 -1.654561350517e+00 0.0 
-1.654561350517e+00 -3.831243007713e+02 0.0 
0.0 0.0 -1.629583663839e+02 
-1.578400386890e+02 3.124828830738e+00 0.0 
3.124828830738e+00 -3.670844997246e+02 0.0 
0.0 0.0 -1.570773615241e+02 
-1.695295407699e+02 2.121822777114e+00 0.0 
2.121822777114e+00 -3.999052658994e+02 0.0 
0.0 0.0 -1.704304420008e+02 
-4.293497473618e+01 8.801926068181e+00 0.0 
8.801926068181e+00 -1.187072676892e+02 0.0 
0.0 0.0 -4.996025167621e+01 
-1.611589991021e+02 4.017568004822e+00 0.0 
4.017568004822e+00 -3.814854684673e+02 0.0 
0.0 0.0 -1.623933402708e+02 
-1.527814192796e+02 -9.138368895625e-01 0.0 
-9.138368895625e-01 -3.670762058475e+02 0.0 
0.0 0.0 -1.555572875381e+02 
-9.264103483464e+01 -7.703804786142e-02 0.0 
-7.703804786142e-02 -2.108855518103e+02 0.0 
0.0 0.0 -9.065797599349e+01 
-1.572419838484e+02 3.439908657764e+00 0.0 
3.439908657764e+00 -3.655187404339e+02 0.0 
0.0 0.0 -1.564282172847e+02 
-7.105565976761e+01 -1.582816161196e+00 0.0 
-1.582816161196e+00 -1.528373041536e+02 0.0 
0.0 0.0 -6.676788917636e+01 
-2.921780809077e+01 -7.158946926318e-01 0.0 
-7.158946926318e-01 -6.569273118656e+01 0.0 
0.0 0.0 -2.807316178320e+01 
-1.625316772100e+02 2.592897140648e-01 0.0 
2.592897140648e-01 -3.792480313715e+02 0.0 
0.0 0.0 -1.621339125744e+02 
-3.063907297299e+00 2.218087729723e-03 0.0 
2.218087729723e-03 -1.411750409235e+01 0.0 
0.0 0.0 -4.096352667380e+00 
-9.191551599925e+01 1.027275414397e-01 0.0 
1.027275414397e-01 -2.096774530605e+02 0.0 
0.0 0.0 -9.007789071792e+01 
-1.664075343665e+02 -5.449309473676e-01 0.0 
-5.449309473676e-01 -3.872581094065e+02 0.0 
0.0 0.0 -1.656996931319e+02 
-2.691419403699e+01 -3.811136875100e-01 0.0 
-3.811136875100e-01 -6.270617136957e+01 0.0 
0.0 0.0 -2.648610962197e+01 
-1.057226394073e+02 1.964786813966e-01 0.0 
1.964786813966e-01 -2.416755469902e+02 0.0 
0.0 0.0 -1.038194559192e+02 
-1.594411374019e+02 4.671631016845e+00 0.0 
4.671631016845e+00 -3.718783930194e+02 0.0 
0.0 0.0 -1.589958591264e+02 
-1.052977199955e+02 -4.623077769770e-01 0.0 
-4.623077769770e-01 -2.315328622832e+02 0.0 
0.0 0.0 -1.006491746836e+02 
-1.423770691189e+02 4.917980681398e-01 0.0 
4.917980681398e-01 -3.299307329469e+02 0.0 
0.0 0.0 -1.412923406197e+02 
-4.257205085162e+01 -1.769261825945e+01 0.0 
-1.769261825945e+01 -8.072842205032e+01 0.0 
0.0 0.0 -3.517764451512e+01 
-6.328934174632e+01 -7.278883891889e+00 0.0 
-7.278883891889e+00 -1.088392315584e+02 0.0 
0.0 0.0 -5.238409490912e+01 
-1.203699025711e+02 3.116545612261e-01 0.0 
3.116545612261e-01 -2.764884522775e+02 0.0 
0.0 0.0 -1.186575064546e+02 
-1.606525623114e+02 2.963309140882e+00 0.0 
2.963309140882e+00 -3.818675769593e+02 0.0 
0.0 0.0 -1.623560417812e+02 
-1.578340218344e+02 2.731648697510e+00 0.0 
2.731648697510e+00 -3.672221866573e+02 0.0 
0.0 0.0 -1.571168625475e+02 
-1.147794433182e+02 1.268422177608e-01 0.0 
1.268422177608e-01 -2.628971160452e+02 0.0 
0.0 0.0 -1.129029678090e+02 
-3.671520432451e+01 2.311605968105e+01 0.0 
2.311605968105e+01 -9.941599889775e+01 0.0 
0.0 0.0 -4.102862766223e+01 
-1.546628864562e+02 4.537002795921e+00 0.0 
4.537002795921e+00 -3.608722151183e+02 0.0 
0.0 0.0 -1.542605304723e+02 
-9.368124598734e+01 -1.599631464505e+00 0.0 
-1.599631464505e+00 -2.039433453193e+02 0.0 
0.0 0.0 -8.888737739200e+01 
-1.535513294830e+02 4.790012617442e+00 0.0 
4.790012617442e+00 -3.613661146129e+02 0.0 
0.0 0.0 -1.540752332288e+02 
-1.528058818430e+02 4.768733376825e-01 0.0 
4.768733376825e-01 -3.680795270149e+02 0.0 
0.0 0.0 -1.558656226574e+02 
-3.873589953753e+01 2.367952024665e+01 0.0 
2.367952024665e+01 -5.797603736939e+01 0.0 
0.0 0.0 -2.975174697157e+01 
-1.125618466120e+02 -4.363867787039e-01 0.0 
-4.363867787039e-01 -2.490922895941e+02 0.0 
0.0 0.0 -1.080962408618e+02 
-1.029457557038e+01 5.451383222018e-02 0.0 
5.451383222018e-02 -3.009102055949e+01 0.0 
0.0 0.0 -1.173995991437e+01 
-1.613711333449e+02 -2.860071424054e+00 0.0 
-2.860071424054e+00 -3.770787938170e+02 0.0 
0.0 0.0 -1.611349781486e+02 
-9.721002127219e+01 -1.060321645348e+00 0.0 
-1.060321645348e+00 -2.123920014678e+02 0.0 
0.0 0.0 -9.248060682200e+01 
-1.507954012787e+01 5.034981492282e+00 0.0 
5.034981492282e+00 -7.503531134216e+00 0.0 
0.0 0.0 -5.921094543237e+00 
-5.727946800127e+00 1.930090941622e-02 0.0 
1.930090941622e-02 -1.040964008000e+01 0.0 
0.0 0.0 -4.531535757890e+00 
-2.209382817096e+01 7.075624601940e+00 0.0 
7.075624601940e+00 -3.071982194205e+01 0.0 
0.0 0.0 -1.477749202259e+01 
-1.308745596111e+01 -2.124683423488e-02 0.0 
-2.124683423488e-02 -2.888106020063e+01 0.0 
0.0 0.0 -1.217900860448e+01 
-2.975654345008e+01 5.696516847700e+00 0.0 
5.696516847700e+00 -5.051027663050e+01 0.0 
0.0 0.0 -2.289157338540e+01 
-2.197976493479e+01 2.717026259222e-02 0.0 
2.717026259222e-02 -4.955163748490e+01 0.0 
0.0 0.0 -2.105942072591e+01 
-3.671209907699e+01 4.959027222141e+00 0.0 
4.959027222141e+00 -6.967684660119e+01 0.0 
0.0 0.0 -3.151668370345e+01 
-2.996042805422e+01 -2.289977208379e-02 0.0 
-2.289977208379e-02 -6.803840835884e+01 0.0 
0.0 0.0 -2.899965092392e+01 
-4.404643636198e+01 4.144702353720e+00 0.0 
4.144702353720e+00 -8.904000548204e+01 0.0 
0.0 0.0 -3.952593255321e+01 
-3.903138155966e+01 -2.191971771295e-02 0.0 
-2.191971771295e-02 -8.865910151468e+01 0.0 
0.0 0.0 -3.790714492230e+01 
-5.187301045194e+01 3.291958554594e+00 0.0 
3.291958554594e+00 -1.087030190622e+02 0.0 
0.0 0.0 -4.777280885423e+01 
-4.719146586462e+01 -1.459851713282e-02 0.0 
-1.459851713282e-02 -1.071299546843e+02 0.0 
0.0 0.0 -4.589642616468e+01 
-5.953843370302e+01 2.659930933754e+00 0.0 
2.659930933754e+00 -1.280645713253e+02 0.0 
0.0 0.0 -5.588090150849e+01 
-5.627496591549e+01 -1.042794859917e-02 0.0 
-1.042794859917e-02 -1.277595191068e+02 0.0 
0.0 0.0 -5.481034550669e+01 
-6.758445832730e+01 2.129326399114e+00 0.0 
2.129326399114e+00 -1.475436031076e+02 0.0 
0.0 0.0 -6.413841843048e+01 
-6.439767953628e+01 -9.726252418662e-04 0.0 
-9.726252418662e-04 -1.462500906214e+02 0.0 
0.0 0.0 -6.279433104730e+01 
-7.566461486208e+01 1.738150027389e+00 0.0 
1.738150027389e+00 -1.668846998476e+02 0.0 
0.0 0.0 -7.236479441289e+01 
-7.344419247243e+01 -4.338995835616e-02 0.0 
-4.338995835616e-02 -1.669092299818e+02 0.0 
0.0 0.0 -7.170602673628e+01 
-8.380644162850e+01 1.468045705521e+00 0.0 
1.468045705521e+00 -1.863277018856e+02 0.0 
0.0 0.0 -8.064024305423e+01 
-8.134018479503e+01 -1.502710817512e-01 0.0 
-1.502710817512e-01 -1.853440027991e+02 0.0 
0.0 0.0 -7.960525627825e+01 

TENSORS node_materi_strain_total float
6.509189403082e-04 9.350217840426e-07 0.0 
9.350217840426e-07 -1.693238664722e-04 0.0 
0.0 0.0 0.0 
-2.660750615626e-04 -1.656757113764e-05 0.0 
-1.656757113764e-05 4.272244472396e-03 0.0 
0.0 0.0 0.0 
-5.123194486290e-05 -1.717759697147e-05 0.0 
-1.717759697147e-05 7.533595960383e-03 0.0 
0.0 0.0 0.0 
-1.976125284281e-05 -2.474188224428e-06 0.0 
-2.474188224428e-06 8.150182490115e-03 0.0 
0.0 0.0 0.0 
4.618833152987e-04 -4.091382957483e-06 0.0 
-4.091382957483e-06 1.097841731051e-04 0.0 
0.0 0.0 0.0 
2.342047582851e-04 9.490021858255e-06 0.0 
9.490021858255e-06 6.268275243481e-04 0.0 
0.0 0.0 0.0 
1.706417215397e-05 -1.419702952992e-06 0.0 
-1.419702952992e-06 1.099849262891e-03 0.0 
0.0 0.0 0.0 
-1.663064798663e-04 -7.403866330940e-06 0.0 
-7.403866330940e-06 1.617277033287e-03 0.0 
0.0 0.0 0.0 
-3.337882892034e-04 -1.870745873156e-05 0.0 
-1.870745873156e-05 2.095695153488e-03 0.0 
0.0 0.0 0.0 
-4.560302251393e-04 -2.300362602442e-05 0.0 
-2.300362602442e-05 2.540059307663e-03 0.0 
0.0 0.0 0.0 
-5.481176186604e-04 -2.559679555850e-05 0.0 
-2.559679555850e-05 2.964169666634e-03 0.0 
0.0 0.0 0.0 
-6.118462234332e-04 -3.010502756911e-05 0.0 
-3.010502756911e-05 3.368476733824e-03 0.0 
0.0 0.0 0.0 
-6.471764757795e-04 -3.175686675357e-05 0.0 
-3.175686675357e-05 3.757698757637e-03 0.0 
0.0 0.0 0.0 
-6.634013724752e-04 -2.900524686319e-05 0.0 
-2.900524686319e-05 4.139653153627e-03 0.0 
0.0 0.0 0.0 
-6.625168433130e-04 -1.887925181443e-05 0.0 
-1.887925181443e-05 4.522388000090e-03 0.0 
0.0 0.0 0.0 
-6.400562898051e-04 -9.434278702436e-06 0.0 
-9.434278702436e-06 4.888324473596e-03 0.0 
0.0 0.0 0.0 
-6.041448013079e-04 -7.569071045445e-06 0.0 
-7.569071045445e-06 5.221502847175e-03 0.0 
0.0 0.0 0.0 
-5.602507845458e-04 -2.332534682770e-05 0.0 
-2.332534682770e-05 5.580128058065e-03 0.0 
0.0 0.0 0.0 
-5.015881846911e-04 -2.079771618986e-05 0.0 
-2.079771618986e-05 5.948900359195e-03 0.0 
0.0 0.0 0.0 
-4.334127501593e-04 -1.797012294617e-05 0.0 
-1.797012294617e-05 6.305238509271e-03 0.0 
0.0 0.0 0.0 
-3.524921942077e-04 -1.660072279310e-05 0.0 
-1.660072279310e-05 6.660567062181e-03 0.0 
0.0 0.0 0.0 
-2.544353247881e-04 -1.459842699768e-05 0.0 
-1.459842699768e-05 7.012534701922e-03 0.0 
0.0 0.0 0.0 
-1.476871695496e-04 -1.152197360191e-05 0.0 
-1.152197360191e-05 7.340264779603e-03 0.0 
0.0 0.0 0.0 
-1.292549650271e-05 3.103432411981e-05 0.0 
3.103432411981e-05 8.167981039126e-03 0.0 
0.0 0.0 0.0 
-1.689420948163e-05 5.779824016381e-05 0.0 
5.779824016381e-05 8.145280429141e-03 0.0 
0.0 0.0 0.0 
-1.653154078018e-05 7.651991980913e-05 0.0 
7.651991980913e-05 8.146743862765e-03 0.0 
0.0 0.0 0.0 
-1.668975251582e-05 1.197261857883e-04 0.0 
1.197261857883e-04 8.139114809309e-03 0.0 
0.0 0.0 0.0 
-2.040658925606e-05 1.421752447310e-04 0.0 
1.421752447310e-04 8.118272433305e-03 0.0 
0.0 0.0 0.0 
-1.748616872096e-05 1.757117004034e-04 0.0 
1.757117004034e-04 8.119498734023e-03 0.0 
0.0 0.0 0.0 
-1.702627642775e-05 2.095644143368e-04 0.0 
2.095644143368e-04 8.107255046471e-03 0.0 
0.0 0.0 0.0 
-2.042959533558e-05 2.433199025388e-04 0.0 
2.433199025388e-04 8.083550172722e-03 0.0 
0.0 0.0 0.0 
-1.966651368279e-05 2.732397362884e-04 0.0 
2.732397362884e-04 8.076688727538e-03 0.0 
0.0 0.0 0.0 
-1.845298507034e-05 3.204035482167e-04 0.0 
3.204035482167e-04 8.050626161199e-03 0.0 
0.0 0.0 0.0 
-2.388220636551e-05 3.516134735799e-04 0.0 
3.516134735799e-04 8.011257799545e-03 0.0 
0.0 0.0 0.0 
-2.163378440963e-05 3.924289163044e-04 0.0 
3.924289163044e-04 7.989148253015e-03 0.0 
0.0 0.0 0.0 
-2.033250243531e-05 4.341914699170e-04 0.0 
4.341914699170e-04 7.955480014898e-03 0.0 
0.0 0.0 0.0 
-2.164974695799e-05 4.735085701657e-04 0.0 
4.735085701657e-04 7.906241665486e-03 0.0 
0.0 0.0 0.0 
-2.179662055165e-05 5.116786500827e-04 0.0 
5.116786500827e-04 7.851749202714e-03 0.0 
0.0 0.0 0.0 
-2.246774478594e-05 5.517218053919e-04 0.0 
5.517218053919e-04 7.783265477066e-03 0.0 
0.0 0.0 0.0 
-2.387350799515e-05 5.869041986101e-04 0.0 
5.869041986101e-04 7.718074474026e-03 0.0 
0.0 0.0 0.0 
-1.875453810455e-05 6.241791361648e-04 0.0 
6.241791361648e-04 7.657757882912e-03 0.0 
0.0 0.0 0.0 
-1.632021275374e-05 6.540677300488e-04 0.0 
6.540677300488e-04 7.589783484978e-03 0.0 
0.0 0.0 0.0 
-1.149428935239e-05 6.794057841686e-04 0.0 
6.794057841686e-04 7.514728588356e-03 0.0 
0.0 0.0 0.0 
-5.865127677270e-06 6.997103076180e-04 0.0 
6.997103076180e-04 7.422977030220e-03 0.0 
0.0 0.0 0.0 
-1.553623963590e-06 7.056495417776e-04 0.0 
7.056495417776e-04 7.325987515716e-03 0.0 
0.0 0.0 0.0 
4.441517026092e-06 7.045748801742e-04 0.0 
7.045748801742e-04 7.227153628277e-03 0.0 
0.0 0.0 0.0 
1.095925617567e-05 6.897025563006e-04 0.0 
6.897025563006e-04 7.125943348300e-03 0.0 
0.0 0.0 0.0 
1.710683055300e-05 6.635277593088e-04 0.0 
6.635277593088e-04 7.031655682668e-03 0.0 
0.0 0.0 0.0 
2.730190329658e-05 6.242297570504e-04 0.0 
6.242297570504e-04 6.940733523378e-03 0.0 
0.0 0.0 0.0 
2.844082726157e-05 5.707941058976e-04 0.0 
5.707941058976e-04 6.853077251392e-03 0.0 
0.0 0.0 0.0 
4.200622600396e-05 5.040477374184e-04 0.0 
5.040477374184e-04 6.773498036844e-03 0.0 
0.0 0.0 0.0 
4.254320897553e-05 4.246175028641e-04 0.0 
4.246175028641e-04 6.701174588055e-03 0.0 
0.0 0.0 0.0 
4.431509677542e-05 3.342380890117e-04 0.0 
3.342380890117e-04 6.664668741877e-03 0.0 
0.0 0.0 0.0 
4.559406394574e-05 2.498504321541e-04 0.0 
2.498504321541e-04 6.617428611303e-03 0.0 
0.0 0.0 0.0 
5.746901281634e-05 1.503634792166e-04 0.0 
1.503634792166e-04 6.565777160895e-03 0.0 
0.0 0.0 0.0 
5.635240238266e-05 4.057850228098e-05 0.0 
4.057850228098e-05 6.559822463924e-03 0.0 
0.0 0.0 0.0 
5.337423384303e-05 -5.865185178744e-05 0.0 
-5.865185178744e-05 6.588399046343e-03 0.0 
0.0 0.0 0.0 
5.043278524930e-05 -1.497510335698e-04 0.0 
-1.497510335698e-04 6.624257387812e-03 0.0 
0.0 0.0 0.0 
3.685766561149e-05 -2.344791044649e-04 0.0 
-2.344791044649e-04 6.678194450796e-03 0.0 
0.0 0.0 0.0 
3.748380110221e-05 -3.012204231060e-04 0.0 
-3.012204231060e-04 6.747874337430e-03 0.0 
0.0 0.0 0.0 
2.300223160153e-05 -3.572022924664e-04 0.0 
-3.572022924664e-04 6.816270262641e-03 0.0 
0.0 0.0 0.0 
2.119055361279e-05 -3.970662232315e-04 0.0 
-3.970662232315e-04 6.892035475293e-03 0.0 
0.0 0.0 0.0 
6.257060955287e-06 -4.196288233055e-04 0.0 
-4.196288233055e-04 6.971887930185e-03 0.0 
0.0 0.0 0.0 
1.475079876023e-07 -4.306708917734e-04 0.0 
-4.306708917734e-04 7.067535654397e-03 0.0 
0.0 0.0 0.0 
-6.300354702541e-06 -4.196735115964e-04 0.0 
-4.196735115964e-04 7.175030303921e-03 0.0 
0.0 0.0 0.0 
-1.291318238487e-05 -4.021880274028e-04 0.0 
-4.021880274028e-04 7.254445417101e-03 0.0 
0.0 0.0 0.0 
-3.045607672705e-05 -3.628579221272e-04 0.0 
-3.628579221272e-04 7.285556079110e-03 0.0 
0.0 0.0 0.0 
-2.565335686292e-05 -3.149029168439e-04 0.0 
-3.149029168439e-04 7.391272010243e-03 0.0 
0.0 0.0 0.0 
-3.435954450567e-05 -2.642876506411e-04 0.0 
-2.642876506411e-04 7.427897770881e-03 0.0 
0.0 0.0 0.0 
-3.230587303319e-05 -2.149866311283e-04 0.0 
-2.149866311283e-04 7.479162148121e-03 0.0 
0.0 0.0 0.0 
-3.510264691083e-05 -1.407254975012e-04 0.0 
-1.407254975012e-04 7.523186424950e-03 0.0 
0.0 0.0 0.0 
-3.828056936872e-05 -8.158870530604e-05 0.0 
-8.158870530604e-05 7.539959528574e-03 0.0 
0.0 0.0 0.0 
-2.616106625143e-04 -1.053734304213e-05 0.0 
-1.053734304213e-05 4.700037162504e-03 0.0 
0.0 0.0 0.0 
-2.623554356498e-04 -1.100097694604e-05 0.0 
-1.100097694604e-05 5.124953844630e-03 0.0 
0.0 0.0 0.0 
-2.520359673489e-04 -9.801165630567e-06 0.0 
-9.801165630567e-06 5.539294428446e-03 0.0 
0.0 0.0 0.0 
-2.359298737100e-04 -9.437684136926e-06 0.0 
-9.437684136926e-06 5.941042170984e-03 0.0 
0.0 0.0 0.0 
-2.136026473127e-04 -6.769917604937e-06 0.0 
-6.769917604937e-06 6.346667233986e-03 0.0 
0.0 0.0 0.0 
-1.809443702897e-04 -6.624706587023e-06 0.0 
-6.624706587023e-06 6.747353467584e-03 0.0 
0.0 0.0 0.0 
-1.467817880967e-04 -4.522857649341e-06 0.0 
-4.522857649341e-06 7.140847771982e-03 0.0 
0.0 0.0 0.0 
-1.037209909851e-04 -4.536026493753e-06 0.0 
-4.536026493753e-06 7.527291733711e-03 0.0 
0.0 0.0 0.0 
-5.866738527967e-05 -5.269247201084e-06 0.0 
-5.269247201084e-06 7.918247557386e-03 0.0 
0.0 0.0 0.0 
-1.331384827171e-03 1.647091005465e-03 0.0 
1.647091005465e-03 -1.749956407056e-03 0.0 
0.0 0.0 0.0 
-4.241201002092e-05 -2.044757792891e-05 0.0 
-2.044757792891e-05 7.817425174395e-05 0.0 
0.0 0.0 0.0 
-3.993984285325e-04 1.956548618015e-04 0.0 
1.956548618015e-04 4.166594656001e-03 0.0 
0.0 0.0 0.0 
-8.111109492084e-04 1.189882214138e-03 0.0 
1.189882214138e-03 2.104484104733e-04 0.0 
0.0 0.0 0.0 
-6.576631418504e-04 1.033815073698e-03 0.0 
1.033815073698e-03 5.777257587099e-04 0.0 
0.0 0.0 0.0 
-6.957751331963e-04 9.031614831553e-04 0.0 
9.031614831553e-04 1.076914663381e-03 0.0 
0.0 0.0 0.0 
-6.367236845163e-04 7.488966573999e-04 0.0 
7.488966573999e-04 1.530221385087e-03 0.0 
0.0 0.0 0.0 
-5.410478242316e-04 5.922856911206e-04 0.0 
5.922856911206e-04 1.943081559043e-03 0.0 
0.0 0.0 0.0 
-4.815284435689e-04 4.656588695590e-04 0.0 
4.656588695590e-04 2.366244232765e-03 0.0 
0.0 0.0 0.0 
-4.462952746044e-04 3.638273889636e-04 0.0 
3.638273889636e-04 2.803394668418e-03 0.0 
0.0 0.0 0.0 
-4.247515385264e-04 2.857681157541e-04 0.0 
2.857681157541e-04 3.247519556874e-03 0.0 
0.0 0.0 0.0 
-4.089342482176e-04 2.312498688382e-04 0.0 
2.312498688382e-04 3.695763411798e-03 0.0 
0.0 0.0 0.0 
-8.739125129079e-05 -1.865884640847e-05 0.0 
-1.865884640847e-05 3.298490498937e-04 0.0 
0.0 0.0 0.0 
-1.189508944938e-04 -2.958624307087e-05 0.0 
-2.958624307087e-05 7.683452805849e-04 0.0 
0.0 0.0 0.0 
-1.282987042690e-04 -2.449292354844e-05 0.0 
-2.449292354844e-05 1.197656085695e-03 0.0 
0.0 0.0 0.0 
-1.476623103276e-04 -3.407162406565e-05 0.0 
-3.407162406565e-05 1.634690641279e-03 0.0 
0.0 0.0 0.0 
-1.710892351545e-04 -2.767387923486e-05 0.0 
-2.767387923486e-05 2.075355420693e-03 0.0 
0.0 0.0 0.0 
-1.948913952543e-04 -3.418947173857e-05 0.0 
-3.418947173857e-05 2.516215749649e-03 0.0 
0.0 0.0 0.0 
-2.165549497228e-04 -2.713372273666e-05 0.0 
-2.713372273666e-05 2.955645441769e-03 0.0 
0.0 0.0 0.0 
-2.350734236665e-04 -3.206807805102e-05 0.0 
-3.206807805102e-05 3.392244313122e-03 0.0 
0.0 0.0 0.0 
-2.481181895490e-04 -2.179643474591e-05 0.0 
-2.179643474591e-05 3.822914079174e-03 0.0 
0.0 0.0 0.0 
-2.588139699702e-04 8.557626012858e-06 0.0 
8.557626012858e-06 4.212045046236e-03 0.0 
0.0 0.0 0.0 
-2.589484195989e-04 1.622760020838e-06 0.0 
1.622760020838e-06 4.237374352738e-03 0.0 
0.0 0.0 0.0 
-2.651475847028e-04 2.752998233305e-06 0.0 
2.752998233305e-06 4.239292412782e-03 0.0 
0.0 0.0 0.0 
-2.705790989083e-04 2.905311044797e-06 0.0 
2.905311044797e-06 4.233569570619e-03 0.0 
0.0 0.0 0.0 
-2.755486642177e-04 9.856568796516e-06 0.0 
9.856568796516e-06 4.289200753724e-03 0.0 
0.0 0.0 0.0 
-2.847405839146e-04 1.239730158075e-05 0.0 
1.239730158075e-05 4.237935016158e-03 0.0 
0.0 0.0 0.0 
-2.926543975299e-04 1.656004545931e-05 0.0 
1.656004545931e-05 4.230578577969e-03 0.0 
0.0 0.0 0.0 
-3.030078668984e-04 2.717745636661e-05 0.0 
2.717745636661e-05 4.231075308263e-03 0.0 
0.0 0.0 0.0 
-3.188319811339e-04 3.703813996316e-05 0.0 
3.703813996316e-05 4.236928789508e-03 0.0 
0.0 0.0 0.0 
-3.324903190904e-04 5.234003041302e-05 0.0 
5.234003041302e-05 4.228130083791e-03 0.0 
0.0 0.0 0.0 
-3.435624458473e-04 6.952160731695e-05 0.0 
6.952160731695e-05 4.216146347249e-03 0.0 
0.0 0.0 0.0 
-3.577069623429e-04 9.123278671944e-05 0.0 
9.123278671944e-05 4.202426601335e-03 0.0 
0.0 0.0 0.0 
-3.694014102300e-04 1.209996099140e-04 0.0 
1.209996099140e-04 4.186724293934e-03 0.0 
0.0 0.0 0.0 
-3.824119064891e-04 1.562099940657e-04 0.0 
1.562099940657e-04 4.173467833530e-03 0.0 
0.0 0.0 0.0 
-2.032929855194e-03 9.173034004163e-04 0.0 
9.173034004163e-04 -3.601724199373e-03 0.0 
0.0 0.0 0.0 
-2.523654062165e-03 8.940463262283e-05 0.0 
8.940463262283e-05 -3.776755336963e-03 0.0 
0.0 0.0 0.0 
-2.696422562905e-03 -2.486154446812e-04 0.0 
-2.486154446812e-04 -3.691816619812e-03 0.0 
0.0 0.0 0.0 
-2.245779925348e-03 -8.871045525648e-04 0.0 
-8.871045525648e-04 -3.465413007417e-03 0.0 
0.0 0.0 0.0 
-1.357660052872e-03 -1.668698522938e-03 0.0 
-1.668698522938e-03 -1.899239356463e-03 0.0 
0.0 0.0 0.0 
-6.534429505083e-04 -1.115644781865e-03 0.0 
-1.115644781865e-03 -2.454466474192e-04 0.0 
0.0 0.0 0.0 
-1.593073091259e-05 -2.921303746689e-04 0.0 
-2.921303746689e-04 -5.319198943347e-06 0.0 
0.0 0.0 0.0 
4.206632970228e-04 -4.917840124614e-05 0.0 
-4.917840124614e-05 -7.885809061958e-05 0.0 
0.0 0.0 0.0 
6.432847602172e-04 -1.039761507804e-05 0.0 
-1.039761507804e-05 -1.375352256222e-04 0.0 
0.0 0.0 0.0 
6.480658470940e-04 -1.073946963999e-05 0.0 
-1.073946963999e-05 -1.461830263184e-04 0.0 
0.0 0.0 0.0 
6.407779509274e-04 1.562416197364e-06 0.0 
1.562416197364e-06 -1.373261766625e-04 0.0 
0.0 0.0 0.0 
6.611447916116e-04 1.484967974045e-06 0.0 
1.484967974045e-06 -1.425444559890e-04 0.0 
0.0 0.0 0.0 
6.756141174662e-04 2.089814073496e-05 0.0 
2.089814073496e-05 -1.590518982971e-04 0.0 
0.0 0.0 0.0 
6.955052856830e-04 5.716700799152e-06 0.0 
5.716700799152e-06 -1.723974780647e-04 0.0 
0.0 0.0 0.0 
6.568715756269e-04 1.512659627695e-06 0.0 
1.512659627695e-06 -1.597654512249e-04 0.0 
0.0 0.0 0.0 
6.297726602812e-04 4.929061602909e-06 0.0 
4.929061602909e-06 -1.466387183239e-04 0.0 
0.0 0.0 0.0 
6.154669100077e-04 6.467030183779e-06 0.0 
6.467030183779e-06 -1.411276568027e-04 0.0 
0.0 0.0 0.0 
6.286273940557e-04 1.210527982990e-05 0.0 
1.210527982990e-05 -1.570092616984e-04 0.0 
0.0 0.0 0.0 
6.520315777906e-04 2.534369477823e-05 0.0 
2.534369477823e-05 -1.731598311163e-04 0.0 
0.0 0.0 0.0 
-7.349211848957e-04 6.515740151444e-04 0.0 
6.515740151444e-04 2.256283422561e-04 0.0 
0.0 0.0 0.0 
-6.947207319660e-05 2.886335516972e-04 0.0 
2.886335516972e-04 6.565264033406e-05 0.0 
0.0 0.0 0.0 
2.783642532439e-04 1.074466606731e-04 0.0 
1.074466606731e-04 1.068693207954e-05 0.0 
0.0 0.0 0.0 
5.138449018750e-04 2.445341688999e-06 0.0 
2.445341688999e-06 -3.665704434223e-05 0.0 
0.0 0.0 0.0 
5.646114466818e-04 -2.181047066456e-05 0.0 
-2.181047066456e-05 -5.218039419345e-05 0.0 
0.0 0.0 0.0 
5.251782099570e-04 -3.748335868546e-05 0.0 
-3.748335868546e-05 -4.427515288493e-05 0.0 
0.0 0.0 0.0 
5.109559006399e-04 -4.677412052958e-05 0.0 
-4.677412052958e-05 -3.802777315172e-05 0.0 
0.0 0.0 0.0 
4.807679741716e-04 -4.385907825452e-05 0.0 
-4.385907825452e-05 -2.846625482004e-05 0.0 
0.0 0.0 0.0 
4.399050422535e-04 -3.818843868479e-05 0.0 
-3.818843868479e-05 -1.593040181832e-05 0.0 
0.0 0.0 0.0 
3.957748405237e-04 -3.264461161390e-05 0.0 
-3.264461161390e-05 -1.329883825063e-06 0.0 
0.0 0.0 0.0 
3.521732358929e-04 -2.814043775073e-05 0.0 
-2.814043775073e-05 1.406543049269e-05 0.0 
0.0 0.0 0.0 
3.106743522395e-04 -2.447608945007e-05 0.0 
-2.447608945007e-05 2.968957840584e-05 0.0 
0.0 0.0 0.0 
2.705136071763e-04 -2.161550624687e-05 0.0 
-2.161550624687e-05 4.525585735397e-05 0.0 
0.0 0.0 0.0 
2.320270140674e-04 -1.944775020363e-05 0.0 
-1.944775020363e-05 6.042282176318e-05 0.0 
0.0 0.0 0.0 
1.949343492926e-04 -1.787441298841e-05 0.0 
-1.787441298841e-05 7.510256439118e-05 0.0 
0.0 0.0 0.0 
1.586202110600e-04 -1.711744121987e-05 0.0 
-1.711744121987e-05 8.939093296267e-05 0.0 
0.0 0.0 0.0 
1.251133151643e-04 -1.762421653433e-05 0.0 
-1.762421653433e-05 1.025407466383e-04 0.0 
0.0 0.0 0.0 
9.790668668264e-05 -1.874204342749e-05 0.0 
-1.874204342749e-05 1.137081835527e-04 0.0 
0.0 0.0 0.0 
7.465282492166e-05 -1.889602333475e-05 0.0 
-1.889602333475e-05 1.237850930871e-04 0.0 
0.0 0.0 0.0 
5.220911639540e-05 -1.797887874118e-05 0.0 
-1.797887874118e-05 1.332457006040e-04 0.0 
0.0 0.0 0.0 
3.117167951968e-05 -1.650006788170e-05 0.0 
-1.650006788170e-05 1.419635886677e-04 0.0 
0.0 0.0 0.0 
1.190478799451e-05 -1.475551004929e-05 0.0 
-1.475551004929e-05 1.498779156872e-04 0.0 
0.0 0.0 0.0 
-5.374314875610e-06 -1.291361312029e-05 0.0 
-1.291361312029e-05 1.569311379651e-04 0.0 
0.0 0.0 0.0 
-2.057695021163e-05 -1.109807857971e-05 0.0 
-1.109807857971e-05 1.630695698952e-04 0.0 
0.0 0.0 0.0 
-3.378357767603e-05 -9.459770014656e-06 0.0 
-9.459770014656e-06 1.682470590446e-04 0.0 
0.0 0.0 0.0 
-4.537935451417e-05 -8.257386975897e-06 0.0 
-8.257386975897e-06 1.724321104647e-04 0.0 
0.0 0.0 0.0 
-5.642886004783e-05 -7.860541203204e-06 0.0 
-7.860541203204e-06 1.756434368296e-04 0.0 
0.0 0.0 0.0 
-7.365656298767e-05 -1.030820137114e-05 0.0 
-1.030820137114e-05 1.779530323557e-04 0.0 
0.0 0.0 0.0 
-7.029818241008e-05 -4.418510246348e-07 0.0 
-4.418510246348e-07 1.352655729873e-04 0.0 
0.0 0.0 0.0 
-8.303798932589e-05 1.333119655154e-05 0.0 
1.333119655154e-05 3.265196233325e-04 0.0 
0.0 0.0 0.0 
-7.776744771043e-05 -6.372720046394e-06 0.0 
-6.372720046394e-06 3.416187109801e-04 0.0 
0.0 0.0 0.0 
-6.615141697190e-05 -1.074135573539e-05 0.0 
-1.074135573539e-05 3.486681032251e-04 0.0 
0.0 0.0 0.0 
-6.010056136111e-05 -1.327177598552e-05 0.0 
-1.327177598552e-05 3.483804046541e-04 0.0 
0.0 0.0 0.0 
-5.248110026481e-05 -1.585192347115e-05 0.0 
-1.585192347115e-05 3.462259217684e-04 0.0 
0.0 0.0 0.0 
-4.294485992482e-05 -1.865021884845e-05 0.0 
-1.865021884845e-05 3.427506482636e-04 0.0 
0.0 0.0 0.0 
-3.162589735473e-05 -2.152532955420e-05 0.0 
-2.152532955420e-05 3.382295760164e-04 0.0 
0.0 0.0 0.0 
-1.866054526412e-05 -2.432604825961e-05 0.0 
-2.432604825961e-05 3.328299849116e-04 0.0 
0.0 0.0 0.0 
-4.193465024523e-06 -2.691013599240e-05 0.0 
-2.691013599240e-05 3.266597804199e-04 0.0 
0.0 0.0 0.0 
1.161251883386e-05 -2.912383366141e-05 0.0 
-2.912383366141e-05 3.197902325833e-04 0.0 
0.0 0.0 0.0 
2.858788412774e-05 -3.077848956348e-05 0.0 
-3.077848956348e-05 3.122606515815e-04 0.0 
0.0 0.0 0.0 
4.660214994784e-05 -3.165137154683e-05 0.0 
-3.165137154683e-05 3.040796973765e-04 0.0 
0.0 0.0 0.0 
6.563100894769e-05 -3.157147725504e-05 0.0 
-3.157147725504e-05 2.953603613493e-04 0.0 
0.0 0.0 0.0 
8.744037080479e-05 -3.094792516386e-05 0.0 
-3.094792516386e-05 2.860187767368e-04 0.0 
0.0 0.0 0.0 
1.111090559959e-04 -3.016200654421e-05 0.0 
-3.016200654421e-05 2.761087679800e-04 0.0 
0.0 0.0 0.0 
1.347819503954e-04 -2.928409817202e-05 0.0 
-2.928409817202e-05 2.660229883481e-04 0.0 
0.0 0.0 0.0 
1.580003130172e-04 -2.822266369914e-05 0.0 
-2.822266369914e-05 2.560427865851e-04 0.0 
0.0 0.0 0.0 
1.802700081555e-04 -2.689311102337e-05 0.0 
-2.689311102337e-05 2.464407967656e-04 0.0 
0.0 0.0 0.0 
2.006134419874e-04 -2.524450268419e-05 0.0 
-2.524450268419e-05 2.377398369723e-04 0.0 
0.0 0.0 0.0 
2.174822897727e-04 -2.291332404982e-05 0.0 
-2.291332404982e-05 2.306747976524e-04 0.0 
0.0 0.0 0.0 
2.294322745940e-04 -1.914160236993e-05 0.0 
-1.914160236993e-05 2.261993377302e-04 0.0 
0.0 0.0 0.0 
2.320404956816e-04 -1.225687508011e-05 0.0 
-1.225687508011e-05 2.252063043501e-04 0.0 
0.0 0.0 0.0 
2.205610547612e-04 9.964726418480e-07 0.0 
9.964726418480e-07 2.286946534581e-04 0.0 
0.0 0.0 0.0 
1.875216316440e-04 2.758676290605e-05 0.0 
2.758676290605e-05 2.355659248552e-04 0.0 
0.0 0.0 0.0 
1.271610934826e-04 7.799576363211e-05 0.0 
7.799576363211e-05 2.435451725440e-04 0.0 
0.0 0.0 0.0 
5.426122563819e-05 1.720722067955e-04 0.0 
1.720722067955e-04 2.583421431067e-04 0.0 
0.0 0.0 0.0 
-1.604916838083e-04 3.818384275761e-04 0.0 
3.818384275761e-04 2.750270711935e-04 0.0 
0.0 0.0 0.0 
-3.711334609463e-04 5.351064326008e-04 0.0 
5.351064326008e-04 2.591604244459e-04 0.0 
0.0 0.0 0.0 
-5.084830029361e-04 6.318141429563e-04 0.0 
6.318141429563e-04 6.877059818194e-04 0.0 
0.0 0.0 0.0 
-4.177223416767e-04 4.483450337419e-04 0.0 
4.483450337419e-04 7.587179756116e-04 0.0 
0.0 0.0 0.0 
-2.669950266196e-04 2.444536850066e-04 0.0 
2.444536850066e-04 7.440547770565e-04 0.0 
0.0 0.0 0.0 
-1.680189036167e-04 1.368405514855e-04 0.0 
1.368405514855e-04 7.354925776550e-04 0.0 
0.0 0.0 0.0 
-9.474196856877e-05 6.888827143688e-05 0.0 
6.888827143688e-05 7.218339237098e-04 0.0 
0.0 0.0 0.0 
-4.420291562603e-05 2.368601841643e-05 0.0 
2.368601841643e-05 7.081480163414e-04 0.0 
0.0 0.0 0.0 
-1.054691029182e-05 -5.754647479594e-06 0.0 
-5.754647479594e-06 6.980680925607e-04 0.0 
0.0 0.0 0.0 
9.718583530142e-06 -2.619399628464e-05 0.0 
-2.619399628464e-05 6.918005958463e-04 0.0 
0.0 0.0 0.0 
1.983859389746e-05 -4.056090111117e-05 0.0 
-4.056090111117e-05 6.893892317282e-04 0.0 
0.0 0.0 0.0 
2.236927496576e-05 -5.094277187407e-05 0.0 
-5.094277187407e-05 6.896771035311e-04 0.0 
0.0 0.0 0.0 
1.975296882262e-05 -5.823366451299e-05 0.0 
-5.823366451299e-05 6.918961445699e-04 0.0 
0.0 0.0 0.0 
1.361789748326e-05 -6.308650667409e-05 0.0 
-6.308650667409e-05 6.953097966936e-04 0.0 
0.0 0.0 0.0 
5.240811040400e-06 -6.577762992934e-05 0.0 
-6.577762992934e-05 6.994094201394e-04 0.0 
0.0 0.0 0.0 
-4.445967195140e-06 -6.643810753750e-05 0.0 
-6.643810753750e-05 7.041592784515e-04 0.0 
0.0 0.0 0.0 
-1.481315162512e-05 -6.557624907599e-05 0.0 
-6.557624907599e-05 7.097329302475e-04 0.0 
0.0 0.0 0.0 
-2.530557415892e-05 -6.378682272226e-05 0.0 
-6.378682272226e-05 7.155070303938e-04 0.0 
0.0 0.0 0.0 
-3.553970163293e-05 -6.098751053471e-05 0.0 
-6.098751053471e-05 7.209194806476e-04 0.0 
0.0 0.0 0.0 
-4.535397525067e-05 -5.722469857597e-05 0.0 
-5.722469857597e-05 7.258761834296e-04 0.0 
0.0 0.0 0.0 
-5.458874506366e-05 -5.266621537971e-05 0.0 
-5.266621537971e-05 7.303507545013e-04 0.0 
0.0 0.0 0.0 
-6.306572763641e-05 -4.750568107084e-05 0.0 
-4.750568107084e-05 7.342918731781e-04 0.0 
0.0 0.0 0.0 
-7.059123256762e-05 -4.191092199185e-05 0.0 
-4.191092199185e-05 7.376012371341e-04 0.0 
0.0 0.0 0.0 
-7.694871068346e-05 -3.596957843989e-05 0.0 
-3.596957843989e-05 7.401146148779e-04 0.0 
0.0 0.0 0.0 
-8.187944605868e-05 -2.954952584262e-05 0.0 
-2.954952584262e-05 7.415840582978e-04 0.0 
0.0 0.0 0.0 
-8.508359991470e-05 -2.177903040146e-05 0.0 
-2.177903040146e-05 7.417439538391e-04 0.0 
0.0 0.0 0.0 
-8.638350178945e-05 -8.048755534851e-06 0.0 
-8.048755534851e-06 7.412587769658e-04 0.0 
0.0 0.0 0.0 
-1.055668695117e-04 1.211457041490e-05 0.0 
1.211457041490e-05 7.581326258440e-04 0.0 
0.0 0.0 0.0 
-5.882645857219e-04 6.041480725473e-04 0.0 
6.041480725473e-04 1.136933199594e-03 0.0 
0.0 0.0 0.0 
-4.890195925832e-04 4.579554442323e-04 0.0 
4.579554442323e-04 1.210512004024e-03 0.0 
0.0 0.0 0.0 
-3.645847819961e-04 2.843668480249e-04 0.0 
2.843668480249e-04 1.200048345488e-03 0.0 
0.0 0.0 0.0 
-2.902322857385e-04 1.781774227660e-04 0.0 
1.781774227660e-04 1.196164561702e-03 0.0 
0.0 0.0 0.0 
-2.257705238952e-04 1.041616610404e-04 0.0 
1.041616610404e-04 1.187573197759e-03 0.0 
0.0 0.0 0.0 
-1.772145798307e-04 5.034770712138e-05 0.0 
5.034770712138e-05 1.177379709547e-03 0.0 
0.0 0.0 0.0 
-1.408138970671e-04 1.190586321370e-05 0.0 
1.190586321370e-05 1.169966165178e-03 0.0 
0.0 0.0 0.0 
-1.160677111760e-04 -1.592501268527e-05 0.0 
-1.592501268527e-05 1.164853016257e-03 0.0 
0.0 0.0 0.0 
-9.964898402922e-05 -3.593064207102e-05 0.0 
-3.593064207102e-05 1.162115987374e-03 0.0 
0.0 0.0 0.0 
-8.956308194868e-05 -5.014231146833e-05 0.0 
-5.014231146833e-05 1.161038600720e-03 0.0 
0.0 0.0 0.0 
-8.398874282543e-05 -5.976037443737e-05 0.0 
-5.976037443737e-05 1.161252457610e-03 0.0 
0.0 0.0 0.0 
-8.176480809112e-05 -6.557869007469e-05 0.0 
-6.557869007469e-05 1.162480659065e-03 0.0 
0.0 0.0 0.0 
-8.210823478270e-05 -6.832206996131e-05 0.0 
-6.832206996131e-05 1.164781061513e-03 0.0 
0.0 0.0 0.0 
-8.431062705488e-05 -6.884795021456e-05 0.0 
-6.884795021456e-05 1.167892905179e-03 0.0 
0.0 0.0 0.0 
-8.754698968862e-05 -6.768214444167e-05 0.0 
-6.768214444167e-05 1.171228783835e-03 0.0 
0.0 0.0 0.0 
-9.132171822688e-05 -6.505129912576e-05 0.0 
-6.505129912576e-05 1.174417563422e-03 0.0 
0.0 0.0 0.0 
-9.533351845272e-05 -6.114103857515e-05 0.0 
-6.114103857515e-05 1.177321441900e-03 0.0 
0.0 0.0 0.0 
-9.935022174775e-05 -5.615473660245e-05 0.0 
-5.615473660245e-05 1.179870717672e-03 0.0 
0.0 0.0 0.0 
-1.031651566730e-04 -5.028314093046e-05 0.0 
-5.028314093046e-05 1.181998755709e-03 0.0 
0.0 0.0 0.0 
-1.065845076395e-04 -4.366217000530e-05 0.0 
-4.366217000530e-05 1.183627319161e-03 0.0 
0.0 0.0 0.0 
-1.094426640035e-04 -3.630465687031e-05 0.0 
-3.630465687031e-05 1.184694326490e-03 0.0 
0.0 0.0 0.0 
-1.116764243990e-04 -2.799033918129e-05 0.0 
-2.799033918129e-05 1.185284424966e-03 0.0 
0.0 0.0 0.0 
-1.136992377701e-04 -1.821406337729e-05 0.0 
-1.821406337729e-05 1.186185474405e-03 0.0 
0.0 0.0 0.0 
-1.173154915038e-04 -7.519622754694e-06 0.0 
-7.519622754694e-06 1.190306686928e-03 0.0 
0.0 0.0 0.0 
-1.255535083008e-04 1.611800033575e-05 0.0 
1.611800033575e-05 1.195658840335e-03 0.0 
0.0 0.0 0.0 
-1.468720264371e-04 3.164531952004e-06 0.0 
3.164531952004e-06 1.634002055564e-03 0.0 
0.0 0.0 0.0 
-1.437552602360e-04 -1.581051572109e-05 0.0 
-1.581051572109e-05 1.631416321055e-03 0.0 
0.0 0.0 0.0 
-1.421202317468e-04 -2.814159238763e-05 0.0 
-2.814159238763e-05 1.629789082660e-03 0.0 
0.0 0.0 0.0 
-1.413607453035e-04 -3.728309295760e-05 0.0 
-3.728309295760e-05 1.629102558831e-03 0.0 
0.0 0.0 0.0 
-1.409146950071e-04 -4.545088277623e-05 0.0 
-4.545088277623e-05 1.628601827129e-03 0.0 
0.0 0.0 0.0 
-1.405814843862e-04 -5.276956672222e-05 0.0 
-5.276956672222e-05 1.627928424709e-03 0.0 
0.0 0.0 0.0 
-1.403640132771e-04 -5.920051903236e-05 0.0 
-5.920051903236e-05 1.626957172654e-03 0.0 
0.0 0.0 0.0 
-1.403730123385e-04 -6.457728833065e-05 0.0 
-6.457728833065e-05 1.625673791521e-03 0.0 
0.0 0.0 0.0 
-1.408039876359e-04 -6.866391286748e-05 0.0 
-6.866391286748e-05 1.624118550862e-03 0.0 
0.0 0.0 0.0 
-1.418976414300e-04 -7.118061996849e-05 0.0 
-7.118061996849e-05 1.622348591104e-03 0.0 
0.0 0.0 0.0 
-1.439662155397e-04 -7.180816504722e-05 0.0 
-7.180816504722e-05 1.620470303236e-03 0.0 
0.0 0.0 0.0 
-1.474478229651e-04 -7.013370692112e-05 0.0 
-7.013370692112e-05 1.618696396635e-03 0.0 
0.0 0.0 0.0 
-1.530086264176e-04 -6.550926955440e-05 0.0 
-6.550926955440e-05 1.617409254257e-03 0.0 
0.0 0.0 0.0 
-1.614510241383e-04 -5.707411465021e-05 0.0 
-5.707411465021e-05 1.616882353775e-03 0.0 
0.0 0.0 0.0 
-1.734992105153e-04 -4.369815681733e-05 0.0 
-4.369815681733e-05 1.617199361629e-03 0.0 
0.0 0.0 0.0 
-1.899970662091e-04 -2.424020234725e-05 0.0 
-2.424020234725e-05 1.618181060527e-03 0.0 
0.0 0.0 0.0 
-2.120861329760e-04 3.195627042249e-06 0.0 
3.195627042249e-06 1.620061639985e-03 0.0 
0.0 0.0 0.0 
-2.413161758267e-04 4.046145611445e-05 0.0 
4.046145611445e-05 1.622256276968e-03 0.0 
0.0 0.0 0.0 
-2.789583404167e-04 9.182805763410e-05 0.0 
9.182805763410e-05 1.625102509945e-03 0.0 
0.0 0.0 0.0 
-3.270767067717e-04 1.605934133291e-04 0.0 
1.605934133291e-04 1.625423801502e-03 0.0 
0.0 0.0 0.0 
-3.829010125388e-04 2.560882004208e-04 0.0 
2.560882004208e-04 1.623401765322e-03 0.0 
0.0 0.0 0.0 
-4.632918097687e-04 3.976164268468e-04 0.0 
3.976164268468e-04 1.626653189988e-03 0.0 
0.0 0.0 0.0 
-5.298479119648e-04 5.281361982699e-04 0.0 
5.281361982699e-04 1.550529542392e-03 0.0 
0.0 0.0 0.0 
-4.762549885309e-04 4.296451879541e-04 0.0 
4.296451879541e-04 1.956213315968e-03 0.0 
0.0 0.0 0.0 
-4.350421642569e-04 3.261734228117e-04 0.0 
3.261734228117e-04 2.038987538878e-03 0.0 
0.0 0.0 0.0 
-3.836605097064e-04 2.150754917516e-04 0.0 
2.150754917516e-04 2.043500830124e-03 0.0 
0.0 0.0 0.0 
-3.455321852013e-04 1.380943423860e-04 0.0 
1.380943423860e-04 2.052713626642e-03 0.0 
0.0 0.0 0.0 
-3.109116708066e-04 8.120006101953e-05 0.0 
8.120006101953e-05 2.059183004169e-03 0.0 
0.0 0.0 0.0 
-2.824164355316e-04 3.756285213817e-05 0.0 
3.756285213817e-05 2.061571651729e-03 0.0 
0.0 0.0 0.0 
-2.585323542297e-04 5.231477341262e-06 0.0 
5.231477341262e-06 2.063475736677e-03 0.0 
0.0 0.0 0.0 
-2.391849516435e-04 -1.863817067521e-05 0.0 
-1.863817067521e-05 2.064432931581e-03 0.0 
0.0 0.0 0.0 
-2.235833567954e-04 -3.562768740839e-05 0.0 
-3.562768740839e-05 2.065506315739e-03 0.0 
0.0 0.0 0.0 
-2.113738347389e-04 -4.714098875471e-05 0.0 
-4.714098875471e-05 2.066738420463e-03 0.0 
0.0 0.0 0.0 
-2.017608855620e-04 -5.419003427537e-05 0.0 
-5.419003427537e-05 2.068141752174e-03 0.0 
0.0 0.0 0.0 
-1.941237453435e-04 -5.779627281055e-05 0.0 
-5.779627281055e-05 2.069448148251e-03 0.0 
0.0 0.0 0.0 
-1.880562750935e-04 -5.871475348625e-05 0.0 
-5.871475348625e-05 2.070607334759e-03 0.0 
0.0 0.0 0.0 
-1.832453895677e-04 -5.742641709797e-05 0.0 
-5.742641709797e-05 2.071566622464e-03 0.0 
0.0 0.0 0.0 
-1.794081264604e-04 -5.430902758847e-05 0.0 
-5.430902758847e-05 2.072271176406e-03 0.0 
0.0 0.0 0.0 
-1.762984810620e-04 -4.968178900338e-05 0.0 
-4.968178900338e-05 2.072685469744e-03 0.0 
0.0 0.0 0.0 
-1.737757192409e-04 -4.387153684030e-05 0.0 
-4.387153684030e-05 2.072840585199e-03 0.0 
0.0 0.0 0.0 
-1.718422446373e-04 -3.710838178749e-05 0.0 
-3.710838178749e-05 2.072904699966e-03 0.0 
0.0 0.0 0.0 
-1.705766632822e-04 -2.956872268311e-05 0.0 
-2.956872268311e-05 2.073126860398e-03 0.0 
0.0 0.0 0.0 
-1.701696177373e-04 -2.157628199261e-05 0.0 
-2.157628199261e-05 2.073816934764e-03 0.0 
0.0 0.0 0.0 
-1.705941835048e-04 -1.440477662681e-05 0.0 
-1.440477662681e-05 2.074847580277e-03 0.0 
0.0 0.0 0.0 
-1.710630020063e-04 1.040086924407e-05 0.0 
1.040086924407e-05 2.075397194372e-03 0.0 
0.0 0.0 0.0 
-1.947267452918e-04 2.640098801535e-06 0.0 
2.640098801535e-06 2.515895258979e-03 0.0 
0.0 0.0 0.0 
-1.951024712670e-04 -1.572049138382e-05 0.0 
-1.572049138382e-05 2.515355130461e-03 0.0 
0.0 0.0 0.0 
-1.963020364262e-04 -2.569548342002e-05 0.0 
-2.569548342002e-05 2.515003991434e-03 0.0 
0.0 0.0 0.0 
-1.985736524832e-04 -3.240463399972e-05 0.0 
-3.240463399972e-05 2.514995878847e-03 0.0 
0.0 0.0 0.0 
-2.018495918055e-04 -3.835373788037e-05 0.0 
-3.835373788037e-05 2.515200039192e-03 0.0 
0.0 0.0 0.0 
-2.061202481919e-04 -4.338662625888e-05 0.0 
-4.338662625888e-05 2.515433837695e-03 0.0 
0.0 0.0 0.0 
-2.113219408863e-04 -4.729217105918e-05 0.0 
-4.729217105918e-05 2.515458449320e-03 0.0 
0.0 0.0 0.0 
-2.174168276492e-04 -4.962578907933e-05 0.0 
-4.962578907933e-05 2.515046394792e-03 0.0 
0.0 0.0 0.0 
-2.245669666764e-04 -4.988717316519e-05 0.0 
-4.988717316519e-05 2.514255937074e-03 0.0 
0.0 0.0 0.0 
-2.331671449728e-04 -4.765791386545e-05 0.0 
-4.765791386545e-05 2.513174116685e-03 0.0 
0.0 0.0 0.0 
-2.433561171356e-04 -4.250831591834e-05 0.0 
-4.250831591834e-05 2.511709836317e-03 0.0 
0.0 0.0 0.0 
-2.552678903977e-04 -3.372069692174e-05 0.0 
-3.372069692174e-05 2.509653607546e-03 0.0 
0.0 0.0 0.0 
-2.691545250092e-04 -2.013943780247e-05 0.0 
-2.013943780247e-05 2.506737191292e-03 0.0 
0.0 0.0 0.0 
-2.856374887278e-04 -2.678147311345e-07 0.0 
-2.678147311345e-07 2.503468570633e-03 0.0 
0.0 0.0 0.0 
-3.054103633823e-04 2.648704853089e-05 0.0 
2.648704853089e-05 2.499157924684e-03 0.0 
0.0 0.0 0.0 
-3.281407197255e-04 6.250138954141e-05 0.0 
6.250138954141e-05 2.493745828564e-03 0.0 
0.0 0.0 0.0 
-3.540550910561e-04 1.084335269314e-04 0.0 
1.084335269314e-04 2.483834058828e-03 0.0 
0.0 0.0 0.0 
-3.803292853773e-04 1.707908960587e-04 0.0 
1.707908960587e-04 2.470799881527e-03 0.0 
0.0 0.0 0.0 
-4.156228796474e-04 2.572441595101e-04 0.0 
2.572441595101e-04 2.465433481204e-03 0.0 
0.0 0.0 0.0 
-4.402640799538e-04 3.382042018590e-04 0.0 
3.382042018590e-04 2.375219209721e-03 0.0 
0.0 0.0 0.0 
-4.159886505095e-04 2.681329225643e-04 0.0 
2.681329225643e-04 2.803488648554e-03 0.0 
0.0 0.0 0.0 
-4.034753589091e-04 2.057759852202e-04 0.0 
2.057759852202e-04 2.898551803768e-03 0.0 
0.0 0.0 0.0 
-3.795867117531e-04 1.402804800476e-04 0.0 
1.402804800476e-04 2.905489791696e-03 0.0 
0.0 0.0 0.0 
-3.597281214251e-04 9.206740975745e-05 0.0 
9.206740975745e-05 2.918883204898e-03 0.0 
0.0 0.0 0.0 
-3.386538345096e-04 5.562120721574e-05 0.0 
5.562120721574e-05 2.929936598639e-03 0.0 
0.0 0.0 0.0 
-3.206309393100e-04 2.649400058807e-05 0.0 
2.649400058807e-05 2.937284214627e-03 0.0 
0.0 0.0 0.0 
-3.044714149522e-04 5.308400640056e-06 0.0 
5.308400640056e-06 2.944033650855e-03 0.0 
0.0 0.0 0.0 
-2.897356066900e-04 -9.743782750299e-06 0.0 
-9.743782750299e-06 2.948452735269e-03 0.0 
0.0 0.0 0.0 
-2.765273942322e-04 -2.018996616525e-05 0.0 
-2.018996616525e-05 2.951386975801e-03 0.0 
0.0 0.0 0.0 
-2.646355386177e-04 -2.712896756282e-05 0.0 
-2.712896756282e-05 2.953236896510e-03 0.0 
0.0 0.0 0.0 
-2.544778387260e-04 -3.122764690598e-05 0.0 
-3.122764690598e-05 2.954735098786e-03 0.0 
0.0 0.0 0.0 
-2.458891822937e-04 -3.243841207038e-05 0.0 
-3.243841207038e-05 2.955780299179e-03 0.0 
0.0 0.0 0.0 
-2.380046592861e-04 -3.151753749655e-05 0.0 
-3.151753749655e-05 2.955900230122e-03 0.0 
0.0 0.0 0.0 
-2.313776842365e-04 -2.922158597600e-05 0.0 
-2.922158597600e-05 2.955592720103e-03 0.0 
0.0 0.0 0.0 
-2.259080369371e-04 -2.582151108452e-05 0.0 
-2.582151108452e-05 2.955235238276e-03 0.0 
0.0 0.0 0.0 
-2.217671827683e-04 -2.147277943643e-05 0.0 
-2.147277943643e-05 2.954987766004e-03 0.0 
0.0 0.0 0.0 
-2.187569135242e-04 -1.666358922984e-05 0.0 
-1.666358922984e-05 2.955013559508e-03 0.0 
0.0 0.0 0.0 
-2.172557830562e-04 -1.197135062942e-05 0.0 
-1.197135062942e-05 2.955591929823e-03 0.0 
0.0 0.0 0.0 
-2.169804889857e-04 1.144432010358e-05 0.0 
1.144432010358e-05 2.956017604952e-03 0.0 
0.0 0.0 0.0 
-2.360367536378e-04 5.900715491801e-06 0.0 
5.900715491801e-06 3.393286412770e-03 0.0 
0.0 0.0 0.0 
-2.364370954505e-04 -9.499993827266e-06 0.0 
-9.499993827266e-06 3.391994096137e-03 0.0 
0.0 0.0 0.0 
-2.392742608885e-04 -1.504558074005e-05 0.0 
-1.504558074005e-05 3.391684057674e-03 0.0 
0.0 0.0 0.0 
-2.438710752817e-04 -1.789839446354e-05 0.0 
-1.789839446354e-05 3.392079257932e-03 0.0 
0.0 0.0 0.0 
-2.492203602814e-04 -1.942934150666e-05 0.0 
-1.942934150666e-05 3.392050935636e-03 0.0 
0.0 0.0 0.0 
-2.566417109755e-04 -2.002245741326e-05 0.0 
-2.002245741326e-05 3.392364485967e-03 0.0 
0.0 0.0 0.0 
-2.651041959740e-04 -1.901633190385e-05 0.0 
-1.901633190385e-05 3.392286041020e-03 0.0 
0.0 0.0 0.0 
-2.750529302909e-04 -1.700843675508e-05 0.0 
-1.700843675508e-05 3.391178669531e-03 0.0 
0.0 0.0 0.0 
-2.854036674962e-04 -1.136720472366e-05 0.0 
-1.136720472366e-05 3.388267964989e-03 0.0 
0.0 0.0 0.0 
-2.982079815594e-04 -2.500871786210e-06 0.0 
-2.500871786210e-06 3.385896191959e-03 0.0 
0.0 0.0 0.0 
-3.120735947422e-04 9.144276997858e-06 0.0 
9.144276997858e-06 3.382055940589e-03 0.0 
0.0 0.0 0.0 
-3.266572473091e-04 2.545171286266e-05 0.0 
2.545171286266e-05 3.375786897563e-03 0.0 
0.0 0.0 0.0 
-3.428205052770e-04 4.719695708871e-05 0.0 
4.719695708871e-05 3.367549779653e-03 0.0 
0.0 0.0 0.0 
-3.590917323512e-04 7.588587122627e-05 0.0 
7.588587122627e-05 3.354059427621e-03 0.0 
0.0 0.0 0.0 
-3.747288093951e-04 1.158198345856e-04 0.0 
1.158198345856e-04 3.340743722174e-03 0.0 
0.0 0.0 0.0 
-3.944950662530e-04 1.658677676997e-04 0.0 
1.658677676997e-04 3.338641850922e-03 0.0 
0.0 0.0 0.0 
-4.017725452477e-04 2.130319618829e-04 0.0 
2.130319618829e-04 3.242980592923e-03 0.0 
0.0 0.0 0.0 
-3.886963546321e-04 1.775994953183e-04 0.0 
1.775994953183e-04 3.682684390734e-03 0.0 
0.0 0.0 0.0 
-3.865773078169e-04 1.408113995159e-04 0.0 
1.408113995159e-04 3.777405819900e-03 0.0 
0.0 0.0 0.0 
-3.716411704638e-04 1.019921697214e-04 0.0 
1.019921697214e-04 3.780911618093e-03 0.0 
0.0 0.0 0.0 
-3.551027082774e-04 7.361539933142e-05 0.0 
7.361539933142e-05 3.793540658715e-03 0.0 
0.0 0.0 0.0 
-3.408190917930e-04 5.031614778519e-05 0.0 
5.031614778519e-05 3.804724756310e-03 0.0 
0.0 0.0 0.0 
-3.268319168802e-04 3.361590897681e-05 0.0 
3.361590897681e-05 3.812814582064e-03 0.0 
0.0 0.0 0.0 
-3.133405441410e-04 2.076222816943e-05 0.0 
2.076222816943e-05 3.816903635458e-03 0.0 
0.0 0.0 0.0 
-3.010756800726e-04 9.516217607581e-06 0.0 
9.516217607581e-06 3.820847847692e-03 0.0 
0.0 0.0 0.0 
-2.883494973104e-04 3.739144215897e-06 0.0 
3.739144215897e-06 3.824272387016e-03 0.0 
0.0 0.0 0.0 
-2.792283810262e-04 -1.637392310234e-06 0.0 
-1.637392310234e-06 3.824983221686e-03 0.0 
0.0 0.0 0.0 
-2.701857134534e-04 -3.876319722064e-06 0.0 
-3.876319722064e-06 3.825499109849e-03 0.0 
0.0 0.0 0.0 
-2.630250305116e-04 -6.645793184405e-06 0.0 
-6.645793184405e-06 3.825432891074e-03 0.0 
0.0 0.0 0.0 
-2.579286794905e-04 -5.983267452988e-06 0.0 
-5.983267452988e-06 3.826427530945e-03 0.0 
0.0 0.0 0.0 
-2.527941869041e-04 -5.965104835371e-06 0.0 
-5.965104835371e-06 3.824913124447e-03 0.0 
0.0 0.0 0.0 
-2.506123615914e-04 -8.125656687008e-06 0.0 
-8.125656687008e-06 3.828148393609e-03 0.0 
0.0 0.0 0.0 
-2.528686496738e-04 1.576940673092e-05 0.0 
1.576940673092e-05 3.831270236957e-03 0.0 
0.0 0.0 0.0 
-1.107588555684e-03 1.505305561763e-03 0.0 
1.505305561763e-03 -1.685845355515e-04 0.0 
0.0 0.0 0.0 
-7.089613738532e-04 1.167751829597e-03 0.0 
1.167751829597e-03 3.868798964733e-04 0.0 
0.0 0.0 0.0 
-6.981550510557e-04 1.021704409795e-03 0.0 
1.021704409795e-03 8.708202386295e-04 0.0 
0.0 0.0 0.0 
-6.997899372267e-04 8.727262541693e-04 0.0 
8.727262541693e-04 1.352565884695e-03 0.0 
0.0 0.0 0.0 
-5.854481986034e-04 7.000309773305e-04 0.0 
7.000309773305e-04 1.764693024406e-03 0.0 
0.0 0.0 0.0 
-5.053396335108e-04 5.457842772200e-04 0.0 
5.457842772200e-04 2.188530625185e-03 0.0 
0.0 0.0 0.0 
-4.608983818180e-04 4.251765945708e-04 0.0 
4.251765945708e-04 2.622074502732e-03 0.0 
0.0 0.0 0.0 
-4.314226214325e-04 3.338268620996e-04 0.0 
3.338268620996e-04 3.062868615929e-03 0.0 
0.0 0.0 0.0 
-4.135110831092e-04 2.656422904197e-04 0.0 
2.656422904197e-04 3.509289650736e-03 0.0 
0.0 0.0 0.0 
-3.966897997878e-04 2.205804005492e-04 0.0 
2.205804005492e-04 3.958586171391e-03 0.0 
0.0 0.0 0.0 
-6.404956604478e-04 1.656890007485e-03 0.0 
1.656890007485e-03 2.503218169359e-04 0.0 
0.0 0.0 0.0 
1.624735599806e-04 -1.390686969636e-05 0.0 
-1.390686969636e-05 6.338760369296e-03 0.0 
0.0 0.0 0.0 
1.905661714501e-04 -1.265938865020e-04 0.0 
-1.265938865020e-04 1.448541070287e-04 0.0 
0.0 0.0 0.0 
-6.757513625247e-04 -1.653317748536e-03 0.0 
-1.653317748536e-03 -3.218470944313e-03 0.0 
0.0 0.0 0.0 
6.530893539917e-05 -3.716433561805e-04 0.0 
-3.716433561805e-04 6.653196852658e-03 0.0 
0.0 0.0 0.0 
-6.551237961911e-04 1.052158806194e-03 0.0 
1.052158806194e-03 1.526738403162e-03 0.0 
0.0 0.0 0.0 
-6.608899852402e-04 -8.071076718533e-05 0.0 
-8.071076718533e-05 4.338311854269e-03 0.0 
0.0 0.0 0.0 
1.490471568311e-04 3.792907975216e-04 0.0 
3.792907975216e-04 6.410764933975e-03 0.0 
0.0 0.0 0.0 
-4.914572883562e-04 6.330088962854e-04 0.0 
6.330088962854e-04 2.423262164011e-03 0.0 
0.0 0.0 0.0 
6.650284299355e-05 6.355629267763e-04 0.0 
6.355629267763e-04 6.779210729258e-03 0.0 
0.0 0.0 0.0 
-4.315351573716e-04 3.827809617572e-04 0.0 
3.827809617572e-04 3.358227235428e-03 0.0 
0.0 0.0 0.0 
-3.064359554814e-05 -4.058845714949e-04 0.0 
-4.058845714949e-04 7.064731212236e-03 0.0 
0.0 0.0 0.0 
4.703557212821e-04 -4.799310838399e-07 0.0 
-4.799310838399e-07 4.434575914475e-05 0.0 
0.0 0.0 0.0 
-1.216014948380e-05 6.909017424455e-04 0.0 
6.909017424455e-04 7.202228298141e-03 0.0 
0.0 0.0 0.0 
-4.011034636353e-04 2.564953411715e-04 0.0 
2.564953411715e-04 4.288588604062e-03 0.0 
0.0 0.0 0.0 
-5.108454316243e-04 -5.505119586684e-05 0.0 
-5.505119586684e-05 2.771789253343e-03 0.0 
0.0 0.0 0.0 
-5.849458594072e-04 -7.663361678311e-05 0.0 
-7.663361678311e-05 5.333370474350e-03 0.0 
0.0 0.0 0.0 
-5.013531659444e-05 6.255278385987e-04 0.0 
6.255278385987e-04 7.453228936636e-03 0.0 
0.0 0.0 0.0 
-6.337269260004e-05 4.838233107983e-04 0.0 
4.838233107983e-04 7.728957696935e-03 0.0 
0.0 0.0 0.0 
-5.356721234776e-05 1.544964541528e-04 0.0 
1.544964541528e-04 7.965951922888e-03 0.0 
0.0 0.0 0.0 
-6.401946069826e-05 2.569035198584e-04 0.0 
2.569035198584e-04 7.888177178410e-03 0.0 
0.0 0.0 0.0 
-6.370407448068e-05 3.630246779944e-04 0.0 
3.630246779944e-04 7.855102664249e-03 0.0 
0.0 0.0 0.0 
-3.759457850457e-04 1.686932501121e-04 0.0 
1.686932501121e-04 4.550320191765e-03 0.0 
0.0 0.0 0.0 
-3.281378670654e-04 7.087577463905e-05 0.0 
7.087577463905e-05 4.615566122698e-03 0.0 
0.0 0.0 0.0 
-2.947400407020e-04 3.249654076690e-05 0.0 
3.249654076690e-05 4.660284496359e-03 0.0 
0.0 0.0 0.0 
-2.243896810597e-04 7.122982813977e-06 0.0 
7.122982813977e-06 6.147020758570e-03 0.0 
0.0 0.0 0.0 
-8.526716457441e-05 -2.959474666052e-04 0.0 
-2.959474666052e-04 7.258736187550e-03 0.0 
0.0 0.0 0.0 
-7.580826479206e-04 7.108344800375e-04 0.0 
7.108344800375e-04 -4.232153062390e-03 0.0 
0.0 0.0 0.0 
4.815500475481e-04 5.347379441515e-06 0.0 
5.347379441515e-06 5.538060585843e-05 0.0 
0.0 0.0 0.0 
-3.919333853076e-04 -6.215445192933e-05 0.0 
-6.215445192933e-05 6.463239100092e-03 0.0 
0.0 0.0 0.0 
-2.726062204415e-04 1.466458051168e-05 0.0 
1.466458051168e-05 4.616384983152e-03 0.0 
0.0 0.0 0.0 
-7.997817224681e-05 -2.261180906029e-05 0.0 
-2.261180906029e-05 1.361395677014e-03 0.0 
0.0 0.0 0.0 
-7.093071405850e-05 5.510850376482e-04 0.0 
5.510850376482e-04 7.551370532761e-03 0.0 
0.0 0.0 0.0 
1.017041587603e-04 5.356219651594e-04 0.0 
5.356219651594e-04 6.612379308837e-03 0.0 
0.0 0.0 0.0 
2.186486579570e-05 6.877009046257e-04 0.0 
6.877009046257e-04 6.994665099773e-03 0.0 
0.0 0.0 0.0 
1.764085789180e-04 2.044218096091e-04 0.0 
2.044218096091e-04 6.307863695738e-03 0.0 
0.0 0.0 0.0 
1.253551184422e-04 -1.946465587403e-04 0.0 
-1.946465587403e-04 6.435127895149e-03 0.0 
0.0 0.0 0.0 
-6.517386092653e-04 -1.104701964366e-03 0.0 
-1.104701964366e-03 6.983068055105e-05 0.0 
0.0 0.0 0.0 
-3.528164239592e-04 1.101016048136e-04 0.0 
1.101016048136e-04 4.577872170383e-03 0.0 
0.0 0.0 0.0 
1.304861232127e-05 -4.178291086178e-04 0.0 
-4.178291086178e-04 6.784501617643e-03 0.0 
0.0 0.0 0.0 
-1.692673818751e-04 1.342436726269e-05 0.0 
1.342436726269e-05 6.936261797172e-03 0.0 
0.0 0.0 0.0 
3.538437393351e-04 -1.128379757948e-05 0.0 
-1.128379757948e-05 1.035888642106e-04 0.0 
0.0 0.0 0.0 
-6.326516205050e-04 -7.503415589391e-05 0.0 
-7.503415589391e-05 3.562798772119e-03 0.0 
0.0 0.0 0.0 
-4.482038670066e-05 9.732067002477e-05 0.0 
9.732067002477e-05 8.037930250625e-03 0.0 
0.0 0.0 0.0 
-5.511053386392e-04 8.439878678405e-04 0.0 
8.439878678405e-04 1.993863945387e-03 0.0 
0.0 0.0 0.0 
-6.913341273888e-04 1.335682021708e-03 0.0 
1.335682021708e-03 9.602488318439e-04 0.0 
0.0 0.0 0.0 
-4.553130388190e-04 4.930739332227e-04 0.0 
4.930739332227e-04 2.892091465251e-03 0.0 
0.0 0.0 0.0 
-4.153932017417e-04 3.058236167732e-04 0.0 
3.058236167732e-04 3.820245829114e-03 0.0 
0.0 0.0 0.0 
-7.138731154351e-04 2.165255243494e-03 0.0 
2.165255243494e-03 -7.817434121443e-04 0.0 
0.0 0.0 0.0 
-2.549012693113e-04 6.015861142230e-06 0.0 
6.015861142230e-06 5.365001065544e-03 0.0 
0.0 0.0 0.0 
-8.988078270520e-05 -1.779661754689e-04 0.0 
-1.779661754689e-04 7.410293850751e-03 0.0 
0.0 0.0 0.0 
4.997997891458e-04 1.097930948968e-05 0.0 
1.097930948968e-05 2.611943877569e-05 0.0 
0.0 0.0 0.0 
-8.124836866181e-05 2.489229954544e-05 0.0 
2.489229954544e-05 7.699945851992e-03 0.0 
0.0 0.0 0.0 
-3.921508731615e-04 2.403016210953e-04 0.0 
2.403016210953e-04 4.500802459426e-03 0.0 
0.0 0.0 0.0 
-3.861742328590e-04 2.898246453596e-04 0.0 
2.898246453596e-04 4.629645235332e-03 0.0 
0.0 0.0 0.0 
-3.765382134987e-04 2.654463686536e-04 0.0 
2.654463686536e-04 4.855001358348e-03 0.0 
0.0 0.0 0.0 
-3.673554138351e-04 3.230141996845e-04 0.0 
3.230141996845e-04 4.992251459352e-03 0.0 
0.0 0.0 0.0 
-3.574388561725e-04 3.027390662994e-04 0.0 
3.027390662994e-04 5.237096483199e-03 0.0 
0.0 0.0 0.0 
-3.414406534621e-04 3.548460385281e-04 0.0 
3.548460385281e-04 5.353210936846e-03 0.0 
0.0 0.0 0.0 
-3.474910496213e-04 3.802280812655e-04 0.0 
3.802280812655e-04 5.102050232816e-03 0.0 
0.0 0.0 0.0 
-3.162862994524e-04 4.083204792016e-04 0.0 
4.083204792016e-04 5.459349219732e-03 0.0 
0.0 0.0 0.0 
-3.180345426184e-04 4.376735638215e-04 0.0 
4.376735638215e-04 5.196685077964e-03 0.0 
0.0 0.0 0.0 
-3.297068797488e-04 3.349766373071e-04 0.0 
3.349766373071e-04 5.604220936555e-03 0.0 
0.0 0.0 0.0 
-2.831852638607e-04 4.601905801667e-04 0.0 
4.601905801667e-04 5.553088241354e-03 0.0 
0.0 0.0 0.0 
-2.788716232941e-04 4.925074496582e-04 0.0 
4.925074496582e-04 5.278572782087e-03 0.0 
0.0 0.0 0.0 
-2.417698351491e-04 5.094781280573e-04 0.0 
5.094781280573e-04 5.634456090112e-03 0.0 
0.0 0.0 0.0 
-2.306084338196e-04 5.431940087392e-04 0.0 
5.431940087392e-04 5.348653512207e-03 0.0 
0.0 0.0 0.0 
-2.685262064255e-04 5.326082565136e-04 0.0 
5.326082565136e-04 4.998178824952e-03 0.0 
0.0 0.0 0.0 
-2.115077106213e-04 5.848173888847e-04 0.0 
5.848173888847e-04 5.055068882712e-03 0.0 
0.0 0.0 0.0 
-2.519027996174e-04 5.812716421275e-04 0.0 
5.812716421275e-04 4.710045665628e-03 0.0 
0.0 0.0 0.0 
-1.842683419412e-04 6.345912682156e-04 0.0 
6.345912682156e-04 4.751917535143e-03 0.0 
0.0 0.0 0.0 
-1.452789895884e-04 6.278282567304e-04 0.0 
6.278282567304e-04 5.101470395739e-03 0.0 
0.0 0.0 0.0 
-1.060929842104e-04 6.757969458122e-04 0.0 
6.757969458122e-04 4.782073474832e-03 0.0 
0.0 0.0 0.0 
-1.481919805180e-04 6.931803587768e-04 0.0 
6.931803587768e-04 4.436721881273e-03 0.0 
0.0 0.0 0.0 
-5.610183650266e-05 7.324016205170e-04 0.0 
7.324016205170e-04 4.449229173557e-03 0.0 
0.0 0.0 0.0 
-1.027109055823e-04 7.613340127136e-04 0.0 
7.613340127136e-04 4.108938078413e-03 0.0 
0.0 0.0 0.0 
5.091614676045e-06 7.961437938164e-04 0.0 
7.961437938164e-04 4.102177864864e-03 0.0 
0.0 0.0 0.0 
-4.700638721702e-05 8.385539045450e-04 0.0 
8.385539045450e-04 3.764952863247e-03 0.0 
0.0 0.0 0.0 
7.881393367948e-05 8.663477794834e-04 0.0 
8.663477794834e-04 3.737442379890e-03 0.0 
0.0 0.0 0.0 
1.200870278345e-04 8.082747906453e-04 0.0 
8.082747906453e-04 4.091095777969e-03 0.0 
0.0 0.0 0.0 
2.107606351182e-04 8.668921369857e-04 0.0 
8.668921369857e-04 3.707673205249e-03 0.0 
0.0 0.0 0.0 
1.677179508135e-04 9.419861519637e-04 0.0 
9.419861519637e-04 3.351841541906e-03 0.0 
0.0 0.0 0.0 
3.177066437980e-04 9.253901604226e-04 0.0 
9.253901604226e-04 3.302684438662e-03 0.0 
0.0 0.0 0.0 
2.742444502242e-04 1.019569608824e-03 0.0 
1.019569608824e-03 2.940737381103e-03 0.0 
0.0 0.0 0.0 
4.431897006847e-04 9.792582616432e-04 0.0 
9.792582616432e-04 2.871205890730e-03 0.0 
0.0 0.0 0.0 
4.617295948912e-04 8.750043317456e-04 0.0 
8.750043317456e-04 3.266535783314e-03 0.0 
0.0 0.0 0.0 
5.990260443858e-04 8.989575775440e-04 0.0 
8.989575775440e-04 2.825011272129e-03 0.0 
0.0 0.0 0.0 
5.890619306305e-04 1.021404771931e-03 0.0 
1.021404771931e-03 2.407479685087e-03 0.0 
0.0 0.0 0.0 
7.535214241367e-04 9.028395934625e-04 0.0 
9.028395934625e-04 2.358106830938e-03 0.0 
0.0 0.0 0.0 
7.563194429509e-04 1.043423650798e-03 0.0 
1.043423650798e-03 1.910107929210e-03 0.0 
0.0 0.0 0.0 
9.251823196062e-04 8.769220383182e-04 0.0 
8.769220383182e-04 1.866620124635e-03 0.0 
0.0 0.0 0.0 
9.492745100191e-04 1.033082926787e-03 0.0 
1.033082926787e-03 1.375982218155e-03 0.0 
0.0 0.0 0.0 
1.111865309167e-03 8.069113286608e-04 0.0 
8.069113286608e-04 1.349499502309e-03 0.0 
0.0 0.0 0.0 
1.046887060753e-03 6.757852888001e-04 0.0 
6.757852888001e-04 1.886987557896e-03 0.0 
0.0 0.0 0.0 
1.210795720320e-03 5.529369170267e-04 0.0 
5.529369170267e-04 1.407145659557e-03 0.0 
0.0 0.0 0.0 
1.305362272618e-03 6.759856588237e-04 0.0 
6.759856588237e-04 8.164200045621e-04 0.0 
0.0 0.0 0.0 
1.364802707415e-03 3.681373903412e-04 0.0 
3.681373903412e-04 9.336619561350e-04 0.0 
0.0 0.0 0.0 
1.245010098081e-03 2.952151232382e-04 0.0 
2.952151232382e-04 1.550947148789e-03 0.0 
0.0 0.0 0.0 
1.348901804082e-03 7.709248414885e-05 0.0 
7.709248414885e-05 1.149548951376e-03 0.0 
0.0 0.0 0.0 
1.218831019770e-03 5.486018043934e-05 0.0 
5.486018043934e-05 1.773095280822e-03 0.0 
0.0 0.0 0.0 
1.270327359928e-03 -1.760854821342e-04 0.0 
-1.760854821342e-04 1.447002727524e-03 0.0 
0.0 0.0 0.0 
1.408246776785e-03 -1.967519664604e-04 0.0 
-1.967519664604e-04 8.037356500125e-04 0.0 
0.0 0.0 0.0 
1.269700479663e-03 -4.446955498627e-04 0.0 
-4.446955498627e-04 1.187081708047e-03 0.0 
0.0 0.0 0.0 
1.145845073611e-03 -3.795658512547e-04 0.0 
-3.795658512547e-04 1.802689726830e-03 0.0 
0.0 0.0 0.0 
1.095282770298e-03 -6.254912900417e-04 0.0 
-6.254912900417e-04 1.614068411899e-03 0.0 
0.0 0.0 0.0 
1.202728579774e-03 -7.366531623924e-04 0.0 
-7.366531623924e-04 1.011353086699e-03 0.0 
0.0 0.0 0.0 
9.842574713973e-04 -8.730619589880e-04 0.0 
-8.730619589880e-04 1.506353649022e-03 0.0 
0.0 0.0 0.0 
9.048012337105e-04 -7.417226433759e-04 0.0 
-7.417226433759e-04 2.062467385361e-03 0.0 
0.0 0.0 0.0 
7.665415695746e-04 -9.404129386226e-04 0.0 
-9.404129386226e-04 1.998126512777e-03 0.0 
0.0 0.0 0.0 
8.129799069838e-04 -1.099569007997e-03 0.0 
-1.099569007997e-03 1.480870065963e-03 0.0 
0.0 0.0 0.0 
5.827289118879e-04 -1.107744817784e-03 0.0 
-1.107744817784e-03 2.000130648829e-03 0.0 
0.0 0.0 0.0 
5.619760425534e-04 -9.535514628102e-04 0.0 
-9.535514628102e-04 2.474652637561e-03 0.0 
0.0 0.0 0.0 
3.785912810212e-04 -1.069509590504e-03 0.0 
-1.069509590504e-03 2.482784994423e-03 0.0 
0.0 0.0 0.0 
3.644508863922e-04 -1.224966856852e-03 0.0 
-1.224966856852e-03 2.055172072353e-03 0.0 
0.0 0.0 0.0 
1.756109735485e-04 -1.137306793523e-03 0.0 
-1.137306793523e-03 2.525950137987e-03 0.0 
0.0 0.0 0.0 
2.023250508264e-04 -1.002021176532e-03 0.0 
-1.002021176532e-03 2.928874096598e-03 0.0 
0.0 0.0 0.0 
1.915869358567e-05 -1.032498049188e-03 0.0 
-1.032498049188e-03 2.951254811676e-03 0.0 
0.0 0.0 0.0 
5.190267598948e-05 -9.171481633297e-04 0.0 
-9.171481633297e-04 3.339034314584e-03 0.0 
0.0 0.0 0.0 
-3.111897128943e-05 -1.149044524108e-03 0.0 
-1.149044524108e-03 2.584102758559e-03 0.0 
0.0 0.0 0.0 
-1.579821366046e-04 -1.016266352690e-03 0.0 
-1.016266352690e-03 2.977196738006e-03 0.0 
0.0 0.0 0.0 
-2.229012426389e-04 -1.103800813649e-03 0.0 
-1.103800813649e-03 2.638716969747e-03 0.0 
0.0 0.0 0.0 
-3.153221439982e-04 -9.553374368325e-04 0.0 
-9.553374368325e-04 2.991887244981e-03 0.0 
0.0 0.0 0.0 
5.904764380104e-04 7.934977910510e-04 0.0 
7.934977910510e-04 3.255077661148e-03 0.0 
0.0 0.0 0.0 
-3.805154515136e-04 -1.006176512430e-03 0.0 
-1.006176512430e-03 2.669784898958e-03 0.0 
0.0 0.0 0.0 
-3.040986978129e-04 -1.173666822963e-03 0.0 
-1.173666822963e-03 2.327882037047e-03 0.0 
0.0 0.0 0.0 
-4.395676575550e-04 -8.568001055429e-04 0.0 
-8.568001055429e-04 2.980008719633e-03 0.0 
0.0 0.0 0.0 
-3.896363928237e-04 -8.185114809544e-04 0.0 
-8.185114809544e-04 3.313620292598e-03 0.0 
0.0 0.0 0.0 
-4.911480910489e-04 -8.695607921934e-04 0.0 
-8.695607921934e-04 2.659962009357e-03 0.0 
0.0 0.0 0.0 
-5.228248311941e-04 -7.321331298764e-04 0.0 
-7.321331298764e-04 2.931077478492e-03 0.0 
0.0 0.0 0.0 
-5.480217254667e-04 -7.116625025977e-04 0.0 
-7.116625025977e-04 2.600941299055e-03 0.0 
0.0 0.0 0.0 
7.344897922471e-04 1.211881867285e-03 0.0 
1.211881867285e-03 1.469209138946e-03 0.0 
0.0 0.0 0.0 
-7.202476094320e-05 6.586000045517e-04 0.0 
6.586000045517e-04 5.140114239175e-03 0.0 
0.0 0.0 0.0 
-5.616048188033e-04 -5.936201581606e-04 0.0 
-5.936201581606e-04 2.839302404173e-03 0.0 
0.0 0.0 0.0 
-5.515108602146e-04 -5.489258389362e-04 0.0 
-5.489258389362e-04 2.487879351201e-03 0.0 
0.0 0.0 0.0 
-5.542383704255e-04 -6.550689956477e-04 0.0 
-6.550689956477e-04 2.268806314693e-03 0.0 
0.0 0.0 0.0 
-5.086074811949e-04 -4.720438102388e-04 0.0 
-4.720438102388e-04 2.122770001128e-03 0.0 
0.0 0.0 0.0 
-3.435493081361e-04 2.853107319227e-04 0.0 
2.853107319227e-04 5.478369467895e-03 0.0 
0.0 0.0 0.0 
-3.151828127034e-04 3.201327908662e-04 0.0 
3.201327908662e-04 5.853393448402e-03 0.0 
0.0 0.0 0.0 
-3.286235284774e-04 2.705469919519e-04 0.0 
2.705469919519e-04 5.711405165067e-03 0.0 
0.0 0.0 0.0 
-2.982673242827e-04 3.062920317637e-04 0.0 
3.062920317637e-04 6.098893101773e-03 0.0 
0.0 0.0 0.0 
-3.107002906569e-04 2.597072517216e-04 0.0 
2.597072517216e-04 5.958402878522e-03 0.0 
0.0 0.0 0.0 
-5.069069304255e-04 -3.981349662274e-04 0.0 
-3.981349662274e-04 2.322508468797e-03 0.0 
0.0 0.0 0.0 
-2.447076608588e-04 4.832349073314e-04 0.0 
4.832349073314e-04 5.915618565529e-03 0.0 
0.0 0.0 0.0 
-2.804105658440e-04 3.537446786723e-04 0.0 
3.537446786723e-04 6.228973411505e-03 0.0 
0.0 0.0 0.0 
-1.983801901368e-04 7.065931026589e-04 0.0 
7.065931026589e-04 4.105780783905e-03 0.0 
0.0 0.0 0.0 
1.049230948414e-04 1.018318630150e-03 0.0 
1.018318630150e-03 3.018363962863e-03 0.0 
0.0 0.0 0.0 
1.130150684468e-03 2.416338539353e-04 0.0 
2.416338539353e-04 2.144126924016e-03 0.0 
0.0 0.0 0.0 
-5.518063918945e-04 -6.101774521843e-04 0.0 
-6.101774521843e-04 3.185527811005e-03 0.0 
0.0 0.0 0.0 
-5.783258782643e-04 -4.894240052676e-04 0.0 
-4.894240052676e-04 3.068547422153e-03 0.0 
0.0 0.0 0.0 
-5.791577111154e-04 -5.014506445400e-04 0.0 
-5.014506445400e-04 3.425781500885e-03 0.0 
0.0 0.0 0.0 
2.135270643608e-04 -8.753522439027e-04 0.0 
-8.753522439027e-04 3.348608762185e-03 0.0 
0.0 0.0 0.0 
7.076966362207e-05 -8.070485441811e-04 0.0 
-8.070485441811e-04 3.742533647055e-03 0.0 
0.0 0.0 0.0 
2.119659198933e-04 -7.597058546453e-04 0.0 
-7.597058546453e-04 3.780081779638e-03 0.0 
0.0 0.0 0.0 
7.847137754439e-05 -7.053840402971e-04 0.0 
-7.053840402971e-04 4.157874450441e-03 0.0 
0.0 0.0 0.0 
2.005224542663e-04 -6.571145984896e-04 0.0 
-6.571145984896e-04 4.219690663071e-03 0.0 
0.0 0.0 0.0 
7.764931298596e-05 -6.149051538208e-04 0.0 
-6.149051538208e-04 4.581907642049e-03 0.0 
0.0 0.0 0.0 
-3.669839210566e-05 -6.423193284712e-04 0.0 
-6.423193284712e-04 4.512544445450e-03 0.0 
0.0 0.0 0.0 
-2.822261467835e-05 -5.647852520261e-04 0.0 
-5.647852520261e-04 4.924260419254e-03 0.0 
0.0 0.0 0.0 
-1.338495444553e-04 -5.748827680938e-04 0.0 
-5.748827680938e-04 4.844579586727e-03 0.0 
0.0 0.0 0.0 
1.815374829408e-04 -5.690674784762e-04 0.0 
-5.690674784762e-04 4.664834705170e-03 0.0 
0.0 0.0 0.0 
3.073625518241e-04 -5.892968912910e-04 0.0 
-5.892968912910e-04 4.301157767204e-03 0.0 
0.0 0.0 0.0 
-1.164938044551e-04 -5.103024984929e-04 0.0 
-5.103024984929e-04 5.246001998601e-03 0.0 
0.0 0.0 0.0 
-2.134007729244e-04 -5.057786129535e-04 0.0 
-5.057786129535e-04 5.154701636199e-03 0.0 
0.0 0.0 0.0 
-1.868238373947e-04 -4.533501744650e-04 0.0 
-4.533501744650e-04 5.547340714240e-03 0.0 
0.0 0.0 0.0 
-2.755874108903e-04 -4.369520020504e-04 0.0 
-4.369520020504e-04 5.443758806591e-03 0.0 
0.0 0.0 0.0 
-3.097613737968e-04 -4.863369005918e-04 0.0 
-4.863369005918e-04 5.061937971217e-03 0.0 
0.0 0.0 0.0 
-3.622342919147e-04 -4.084283475816e-04 0.0 
-4.084283475816e-04 5.335676645099e-03 0.0 
0.0 0.0 0.0 
-4.002920470133e-04 -4.525686015663e-04 0.0 
-4.525686015663e-04 4.964006609054e-03 0.0 
0.0 0.0 0.0 
1.096676981904e-03 4.216354937933e-05 0.0 
4.216354937933e-05 2.369336615622e-03 0.0 
0.0 0.0 0.0 
1.018833866662e-03 2.031518215535e-04 0.0 
2.031518215535e-04 2.718338252182e-03 0.0 
0.0 0.0 0.0 
9.801897449853e-04 3.647874119951e-05 0.0 
3.647874119951e-05 2.943954989070e-03 0.0 
0.0 0.0 0.0 
9.094306796560e-04 1.755001739636e-04 0.0 
1.755001739636e-04 3.275950909907e-03 0.0 
0.0 0.0 0.0 
8.663714383097e-04 3.522708917541e-05 0.0 
3.522708917541e-05 3.501901067165e-03 0.0 
0.0 0.0 0.0 
7.991542863256e-04 1.560109830932e-04 0.0 
1.560109830932e-04 3.821216674513e-03 0.0 
0.0 0.0 0.0 
7.516346383879e-04 3.716456955239e-05 0.0 
3.716456955239e-05 4.046408153627e-03 0.0 
0.0 0.0 0.0 
7.958500769131e-04 -8.594388953347e-05 0.0 
-8.594388953347e-05 3.764451387561e-03 0.0 
0.0 0.0 0.0 
-1.935823954517e-04 5.545283962255e-04 0.0 
5.545283962255e-04 5.703753799489e-03 0.0 
0.0 0.0 0.0 
1.490529818370e-03 4.664431149681e-04 0.0 
4.664431149681e-04 2.871594939948e-04 0.0 
0.0 0.0 0.0 
1.395190933455e-03 8.340640341754e-04 0.0 
8.340640341754e-04 2.075365813444e-04 0.0 
0.0 0.0 0.0 
1.621373754339e-03 5.993267068434e-04 0.0 
5.993267068434e-04 -3.945610205732e-04 0.0 
0.0 0.0 0.0 
1.474298132081e-03 1.039035056183e-03 0.0 
1.039035056183e-03 -4.179826868191e-04 0.0 
0.0 0.0 0.0 
1.753795735817e-03 7.806589452991e-04 0.0 
7.806589452991e-04 -1.117216549024e-03 0.0 
0.0 0.0 0.0 
1.530842604319e-03 1.303852064982e-03 0.0 
1.303852064982e-03 -1.054132981729e-03 0.0 
0.0 0.0 0.0 
1.880113939358e-03 1.025959137625e-03 0.0 
1.025959137625e-03 -1.885929533522e-03 0.0 
0.0 0.0 0.0 
2.001290715097e-03 3.599634523734e-04 0.0 
3.599634523734e-04 -1.790452521703e-03 0.0 
0.0 0.0 0.0 
2.197231320385e-03 5.247425447938e-04 0.0 
5.247425447938e-04 -2.704423847547e-03 0.0 
0.0 0.0 0.0 
2.144516648790e-03 -2.421112084975e-04 0.0 
-2.421112084975e-04 -2.337973948759e-03 0.0 
0.0 0.0 0.0 
2.360084097670e-03 -2.180635646534e-04 0.0 
-2.180635646534e-04 -3.307584616823e-03 0.0 
0.0 0.0 0.0 
2.099517404334e-03 -9.758527823523e-04 0.0 
-9.758527823523e-04 -2.649086547607e-03 0.0 
0.0 0.0 0.0 
2.363547215370e-04 7.971386581554e-04 0.0 
7.971386581554e-04 4.082106540238e-03 0.0 
0.0 0.0 0.0 
8.193004582016e-04 2.872784399281e-04 0.0 
2.872784399281e-04 3.631020814985e-03 0.0 
0.0 0.0 0.0 
7.146078777475e-04 2.567871290103e-04 0.0 
2.567871290103e-04 4.162996476195e-03 0.0 
0.0 0.0 0.0 
7.186613833010e-04 3.746717768980e-04 0.0 
3.746717768980e-04 3.997342877999e-03 0.0 
0.0 0.0 0.0 
-5.220956952462e-04 -5.560311144673e-04 0.0 
-5.560311144673e-04 1.922275631053e-03 0.0 
0.0 0.0 0.0 
-3.209735570257e-04 -3.694850984033e-04 0.0 
-3.694850984033e-04 5.712575306464e-03 0.0 
0.0 0.0 0.0 
2.690172857772e-04 -5.086739869714e-04 0.0 
-5.086739869714e-04 4.767214073023e-03 0.0 
0.0 0.0 0.0 
3.930246357190e-04 -5.067871518268e-04 0.0 
-5.067871518268e-04 4.407035087683e-03 0.0 
0.0 0.0 0.0 
6.813604612115e-04 -6.550977177961e-05 0.0 
-6.550977177961e-05 4.305441593736e-03 0.0 
0.0 0.0 0.0 
-4.180797386714e-04 -3.173593692642e-04 0.0 
-3.173593692642e-04 1.924546303241e-03 0.0 
0.0 0.0 0.0 
1.538990852189e-03 1.627832012197e-03 0.0 
1.627832012197e-03 -1.683184153867e-03 0.0 
0.0 0.0 0.0 
1.155288088318e-03 1.734734448153e-03 0.0 
1.734734448153e-03 -7.767739152293e-04 0.0 
0.0 0.0 0.0 
-2.770651401178e-04 2.939495030876e-04 0.0 
2.939495030876e-04 6.340362906546e-03 0.0 
0.0 0.0 0.0 
-2.890197604202e-04 2.503530633752e-04 0.0 
2.503530633752e-04 6.195600265321e-03 0.0 
0.0 0.0 0.0 
3.354028320876e-04 -4.370549308385e-04 0.0 
-4.370549308385e-04 4.893297728219e-03 0.0 
0.0 0.0 0.0 
-4.244698783983e-04 -2.676937574119e-04 0.0 
-2.676937574119e-04 2.117448739756e-03 0.0 
0.0 0.0 0.0 
-2.439162174452e-05 -5.002358081081e-04 0.0 
-5.002358081081e-04 5.342021368666e-03 0.0 
0.0 0.0 0.0 
2.302709271153e-03 6.899062377641e-04 0.0 
6.899062377641e-04 -3.531992096483e-03 0.0 
0.0 0.0 0.0 
-3.991886527603e-04 -3.335477128627e-04 0.0 
-3.335477128627e-04 5.589592361387e-03 0.0 
0.0 0.0 0.0 
-3.502920161152e-04 -3.037488249413e-04 0.0 
-3.037488249413e-04 5.960913301573e-03 0.0 
0.0 0.0 0.0 
-1.548844140399e-04 -6.486510820462e-04 0.0 
-6.486510820462e-04 4.450400496866e-03 0.0 
0.0 0.0 0.0 
6.194317833473e-04 3.388469974230e-04 0.0 
3.388469974230e-04 4.518200061312e-03 0.0 
0.0 0.0 0.0 
6.126917600308e-04 4.406649450341e-04 0.0 
4.406649450341e-04 4.368699763230e-03 0.0 
0.0 0.0 0.0 
1.892030463987e-03 -8.378885573670e-04 0.0 
-8.378885573670e-04 -1.723546556441e-03 0.0 
0.0 0.0 0.0 
1.662387309997e-03 -1.483965597770e-03 0.0 
-1.483965597770e-03 -1.766235058839e-03 0.0 
0.0 0.0 0.0 
1.742285448422e-03 -1.689605582154e-03 0.0 
-1.689605582154e-03 -2.512009764920e-03 0.0 
0.0 0.0 0.0 
1.196136183857e-03 -2.018998858259e-03 0.0 
-2.018998858259e-03 -1.452532781739e-03 0.0 
0.0 0.0 0.0 
1.219576323280e-03 -1.712694427824e-03 0.0 
-1.712694427824e-03 -8.590268095529e-04 0.0 
0.0 0.0 0.0 
7.556083925232e-04 -2.046755373213e-03 0.0 
-2.046755373213e-03 -5.363500666645e-04 0.0 
0.0 0.0 0.0 
6.085671378692e-04 -2.272085676882e-03 0.0 
-2.272085676882e-03 -9.289908297384e-04 0.0 
0.0 0.0 0.0 
2.213790314599e-04 -2.167289686082e-03 0.0 
-2.167289686082e-03 -4.430158029837e-05 0.0 
0.0 0.0 0.0 
3.957937649381e-04 -1.944331809480e-03 0.0 
-1.944331809480e-03 2.763198810307e-04 0.0 
0.0 0.0 0.0 
-5.234289094182e-05 -1.933811823444e-03 0.0 
-1.933811823444e-03 6.719659014157e-04 0.0 
0.0 0.0 0.0 
-2.870993942788e-04 -1.979991549128e-03 0.0 
-1.979991549128e-03 4.969118961382e-04 0.0 
0.0 0.0 0.0 
-4.269126788805e-04 -1.704642723258e-03 0.0 
-1.704642723258e-03 1.046243210075e-03 0.0 
0.0 0.0 0.0 
-2.753199563134e-04 -3.380210286112e-04 0.0 
-3.380210286112e-04 6.090309036650e-03 0.0 
0.0 0.0 0.0 
2.371015630781e-03 -1.510841898910e-04 0.0 
-1.510841898910e-04 -3.983210511114e-03 0.0 
0.0 0.0 0.0 
-3.075544140497e-04 5.191347875512e-04 0.0 
5.191347875512e-04 4.654839199960e-03 0.0 
0.0 0.0 0.0 
2.254801874842e-04 -4.455256613731e-04 0.0 
-4.455256613731e-04 5.234082923173e-03 0.0 
0.0 0.0 0.0 
6.328788429719e-04 4.316872186353e-05 0.0 
4.316872186353e-05 4.578357805613e-03 0.0 
0.0 0.0 0.0 
-2.521485877957e-04 2.833627544414e-04 0.0 
2.833627544414e-04 6.579086145046e-03 0.0 
0.0 0.0 0.0 
-2.647670664959e-04 2.418464080536e-04 0.0 
2.418464080536e-04 6.430789381119e-03 0.0 
0.0 0.0 0.0 
-2.967744966319e-04 2.103836761582e-04 0.0 
2.103836761582e-04 6.041249098872e-03 0.0 
0.0 0.0 0.0 
-2.740985751893e-04 2.032402180773e-04 0.0 
2.032402180773e-04 6.275698912263e-03 0.0 
0.0 0.0 0.0 
-2.380670008696e-04 2.327970416913e-04 0.0 
2.327970416913e-04 6.664299043598e-03 0.0 
0.0 0.0 0.0 
-2.489586582514e-04 1.955536563632e-04 0.0 
1.955536563632e-04 6.507038141376e-03 0.0 
0.0 0.0 0.0 
-2.802702429887e-04 1.672201526490e-04 0.0 
1.672201526490e-04 6.113803028728e-03 0.0 
0.0 0.0 0.0 
-2.564333149064e-04 1.611198070961e-04 0.0 
1.611198070961e-04 6.343103089274e-03 0.0 
0.0 0.0 0.0 
-2.827000034846e-04 1.345036581522e-04 0.0 
1.345036581522e-04 5.945132658881e-03 0.0 
0.0 0.0 0.0 
-2.612987052840e-04 1.301313159356e-04 0.0 
1.301313159356e-04 6.173831077310e-03 0.0 
0.0 0.0 0.0 
-2.309171968726e-04 1.540287869346e-04 0.0 
1.540287869346e-04 6.570566012044e-03 0.0 
0.0 0.0 0.0 
-2.384083283551e-04 1.237810271818e-04 0.0 
1.237810271818e-04 6.401136939384e-03 0.0 
0.0 0.0 0.0 
-2.648402706066e-04 1.027185173415e-04 0.0 
1.027185173415e-04 6.000734126208e-03 0.0 
0.0 0.0 0.0 
-2.442251098222e-04 9.670280077046e-05 0.0 
9.670280077046e-05 6.227424128048e-03 0.0 
0.0 0.0 0.0 
-2.668093926040e-04 7.818409051287e-05 0.0 
7.818409051287e-05 5.822913172299e-03 0.0 
0.0 0.0 0.0 
-2.477806413592e-04 7.257885243670e-05 0.0 
7.257885243670e-05 6.047693884935e-03 0.0 
0.0 0.0 0.0 
-2.220712981341e-04 9.013390790249e-05 0.0 
9.013390790249e-05 6.452581783866e-03 0.0 
0.0 0.0 0.0 
-2.925881679534e-04 -2.002643609464e-04 0.0 
-2.002643609464e-04 1.695186252218e-03 0.0 
0.0 0.0 0.0 
7.041701124096e-04 -1.850580297523e-04 0.0 
-1.850580297523e-04 4.055817685845e-03 0.0 
0.0 0.0 0.0 
5.918364057284e-04 -1.497612006506e-04 0.0 
-1.497612006506e-04 4.592180265901e-03 0.0 
0.0 0.0 0.0 
-5.983251318091e-04 -4.000259830834e-04 0.0 
-4.000259830834e-04 3.296045460771e-03 0.0 
0.0 0.0 0.0 
-6.033012455255e-04 -4.039825410789e-04 0.0 
-4.039825410789e-04 3.650606389065e-03 0.0 
0.0 0.0 0.0 
-5.655111817334e-04 -4.926513282897e-04 0.0 
-4.926513282897e-04 3.782145364939e-03 0.0 
0.0 0.0 0.0 
-5.946559629074e-04 -3.923900152925e-04 0.0 
-3.923900152925e-04 4.018902813236e-03 0.0 
0.0 0.0 0.0 
-2.288707166711e-04 6.641383544853e-05 0.0 
6.641383544853e-05 6.270824759583e-03 0.0 
0.0 0.0 0.0 
-2.003926535757e-04 8.202109046125e-05 0.0 
8.202109046125e-05 6.676585092188e-03 0.0 
0.0 0.0 0.0 
1.035263806949e-03 2.057273646168e-03 0.0 
2.057273646168e-03 -1.213610547775e-03 0.0 
0.0 0.0 0.0 
6.798059942805e-04 1.995015420710e-03 0.0 
1.995015420710e-03 -3.304888712940e-04 0.0 
0.0 0.0 0.0 
-2.354762296738e-04 3.273084627313e-04 0.0 
3.273084627313e-04 6.719312223924e-03 0.0 
0.0 0.0 0.0 
-4.215366164192e-04 -2.617153400382e-04 0.0 
-2.617153400382e-04 5.824305491184e-03 0.0 
0.0 0.0 0.0 
-4.707159404688e-04 -2.877174041926e-04 0.0 
-2.877174041926e-04 5.459501417833e-03 0.0 
0.0 0.0 0.0 
2.065382624190e-04 1.116938192621e-03 0.0 
1.116938192621e-03 2.604269963527e-03 0.0 
0.0 0.0 0.0 
2.126074825905e-05 1.089933728699e-03 0.0 
1.089933728699e-03 2.709707816794e-03 0.0 
0.0 0.0 0.0 
1.123241539223e-04 1.211592373698e-03 0.0 
1.211592373698e-03 2.295919153206e-03 0.0 
0.0 0.0 0.0 
-8.470661671038e-05 1.151062100554e-03 0.0 
1.151062100554e-03 2.423100760356e-03 0.0 
0.0 0.0 0.0 
-1.425609136254e-04 1.022211835885e-03 0.0 
1.022211835885e-03 2.798955797523e-03 0.0 
0.0 0.0 0.0 
-1.292013323906e-05 1.299513858112e-03 0.0 
1.299513858112e-03 2.014670280127e-03 0.0 
0.0 0.0 0.0 
4.457055311899e-04 -5.940309420073e-04 0.0 
-5.940309420073e-04 3.920132780945e-03 0.0 
0.0 0.0 0.0 
-2.042034286139e-04 1.449729564397e-04 0.0 
1.449729564397e-04 6.796571490578e-03 0.0 
0.0 0.0 0.0 
-5.662655953397e-04 -7.767169701423e-04 0.0 
-7.767169701423e-04 2.043663678930e-03 0.0 
0.0 0.0 0.0 
-5.496569077382e-04 -6.510108329136e-04 0.0 
-6.510108329136e-04 1.722351883344e-03 0.0 
0.0 0.0 0.0 
-3.642714672000e-04 -2.403228766776e-04 0.0 
-2.403228766776e-04 6.190087697298e-03 0.0 
0.0 0.0 0.0 
8.117083576715e-04 -2.245991090664e-04 0.0 
-2.245991090664e-04 3.513910178877e-03 0.0 
0.0 0.0 0.0 
1.460077846513e-04 7.541092785339e-04 0.0 
7.541092785339e-04 4.462503317962e-03 0.0 
0.0 0.0 0.0 
2.462667058338e-04 7.352594912133e-04 0.0 
7.352594912133e-04 4.473270549233e-03 0.0 
0.0 0.0 0.0 
1.577463310999e-04 7.069060795898e-04 0.0 
7.069060795898e-04 4.850300891329e-03 0.0 
0.0 0.0 0.0 
2.418198937666e-04 6.837835929655e-04 0.0 
6.837835929655e-04 4.879045242725e-03 0.0 
0.0 0.0 0.0 
1.562587239683e-04 6.691587574547e-04 0.0 
6.691587574547e-04 5.252670692280e-03 0.0 
0.0 0.0 0.0 
2.226897355606e-04 6.443577309091e-04 0.0 
6.443577309091e-04 5.297268947785e-03 0.0 
0.0 0.0 0.0 
3.151412222418e-04 6.447114127791e-04 0.0 
6.447114127791e-04 4.923260507791e-03 0.0 
0.0 0.0 0.0 
5.211743462492e-04 4.055438860049e-04 0.0 
4.055438860049e-04 4.878638527157e-03 0.0 
0.0 0.0 0.0 
2.770894138426e-04 6.066646021810e-04 0.0 
6.066646021810e-04 5.361386126288e-03 0.0 
0.0 0.0 0.0 
-2.491521316333e-04 5.529774449584e-05 0.0 
5.529774449584e-05 5.857586076608e-03 0.0 
0.0 0.0 0.0 
8.102476994625e-04 4.248396786376e-04 0.0 
4.248396786376e-04 3.474067738589e-03 0.0 
0.0 0.0 0.0 
1.296832903311e-04 -1.758914750878e-03 0.0 
-1.758914750878e-03 9.474354090068e-04 0.0 
0.0 0.0 0.0 
-2.852541619366e-04 -2.223598124204e-04 0.0 
-2.223598124204e-04 1.506113784292e-03 0.0 
0.0 0.0 0.0 
-6.011334831530e-04 -1.549097815568e-03 0.0 
-1.549097815568e-03 9.149205285813e-04 0.0 
0.0 0.0 0.0 
-3.197628723544e-04 -1.641970952283e-04 0.0 
-1.641970952283e-04 1.873023654889e-03 0.0 
0.0 0.0 0.0 
-4.437268312952e-04 -2.185714383387e-04 0.0 
-2.185714383387e-04 2.310787852724e-03 0.0 
0.0 0.0 0.0 
2.724211446205e-04 -3.851918823808e-04 0.0 
-3.851918823808e-04 5.377950226200e-03 0.0 
0.0 0.0 0.0 
1.414541128055e-04 6.441935670551e-04 0.0 
6.441935670551e-04 5.667636354428e-03 0.0 
0.0 0.0 0.0 
8.358882870507e-05 6.565732330834e-04 0.0 
6.565732330834e-04 5.611119572326e-03 0.0 
0.0 0.0 0.0 
-2.486789526262e-04 1.046804926512e-03 0.0 
1.046804926512e-03 2.528429015187e-03 0.0 
0.0 0.0 0.0 
-2.769562017641e-04 9.165475529412e-04 0.0 
9.165475529412e-04 2.867037800562e-03 0.0 
0.0 0.0 0.0 
5.134914423742e-04 3.137731124406e-04 0.0 
3.137731124406e-04 5.034268243550e-03 0.0 
0.0 0.0 0.0 
-3.341237076043e-04 2.271950494361e-04 0.0 
2.271950494361e-04 5.570694865360e-03 0.0 
0.0 0.0 0.0 
-3.027254874922e-04 1.382427884205e-04 0.0 
1.382427884205e-04 5.715957677179e-03 0.0 
0.0 0.0 0.0 
-3.000052539048e-04 1.081296307994e-04 0.0 
1.081296307994e-04 5.540719156508e-03 0.0 
0.0 0.0 0.0 
-1.361709107702e-04 -1.068145409732e-04 0.0 
-1.068145409732e-04 1.365474132961e-03 0.0 
0.0 0.0 0.0 
-4.908194000755e-04 -1.835483220699e-03 0.0 
-1.835483220699e-03 4.453396079844e-04 0.0 
0.0 0.0 0.0 
-2.091416091347e-04 2.230625156142e-04 0.0 
2.230625156142e-04 6.895137986513e-03 0.0 
0.0 0.0 0.0 
8.335872034875e-04 1.709558028680e-03 0.0 
1.709558028680e-03 1.637256923750e-05 0.0 
0.0 0.0 0.0 
4.142430741787e-04 1.836031121772e-03 0.0 
1.836031121772e-03 4.046978506501e-04 0.0 
0.0 0.0 0.0 
2.121402172695e-03 8.556844391783e-04 0.0 
8.556844391783e-04 -3.999948957244e-03 0.0 
0.0 0.0 0.0 
1.996276976971e-03 -6.547326352003e-05 0.0 
-6.547326352003e-05 -4.392504284882e-03 0.0 
0.0 0.0 0.0 
-2.075950073355e-04 6.158104582408e-05 0.0 
6.158104582408e-05 6.488782398947e-03 0.0 
0.0 0.0 0.0 
-1.755102505172e-04 7.178802585757e-05 0.0 
7.178802585757e-05 6.889197676513e-03 0.0 
0.0 0.0 0.0 
-5.421079588562e-04 -4.717610695360e-04 0.0 
-4.717610695360e-04 4.139748246724e-03 0.0 
0.0 0.0 0.0 
-5.757178226368e-04 -3.735530031065e-04 0.0 
-3.735530031065e-04 4.380475774868e-03 0.0 
0.0 0.0 0.0 
3.776228518921e-04 -3.578791618852e-04 0.0 
-3.578791618852e-04 5.048644778208e-03 0.0 
0.0 0.0 0.0 
-6.383973606880e-04 -1.324231930076e-03 0.0 
-1.324231930076e-03 1.284333089469e-03 0.0 
0.0 0.0 0.0 
-1.622801510876e-04 9.524387687965e-05 0.0 
9.524387687965e-05 7.073129071583e-03 0.0 
0.0 0.0 0.0 
6.977451196461e-04 -3.134805940439e-04 0.0 
-3.134805940439e-04 3.841325369756e-03 0.0 
0.0 0.0 0.0 
7.950714375025e-04 -3.756728286454e-04 0.0 
-3.756728286454e-04 3.303162316799e-03 0.0 
0.0 0.0 0.0 
-6.265407508616e-04 -3.015650057162e-04 0.0 
-3.015650057162e-04 3.872295344865e-03 0.0 
0.0 0.0 0.0 
4.346660843982e-04 2.214119351851e-03 0.0 
2.214119351851e-03 -5.484127186436e-04 0.0 
0.0 0.0 0.0 
7.870071433938e-04 2.272495082819e-03 0.0 
2.272495082819e-03 -1.457544668757e-03 0.0 
0.0 0.0 0.0 
5.068870585457e-04 -1.696941740400e-03 0.0 
-1.696941740400e-03 6.666196339513e-04 0.0 
0.0 0.0 0.0 
-4.925832658000e-04 -1.437235506105e-03 0.0 
-1.437235506105e-03 1.468054986925e-03 0.0 
0.0 0.0 0.0 
-3.516095384039e-04 -1.344632527174e-04 0.0 
-1.344632527174e-04 2.067478500120e-03 0.0 
0.0 0.0 0.0 
2.956269577002e-04 -3.168232081708e-04 0.0 
-3.168232081708e-04 5.544492027525e-03 0.0 
0.0 0.0 0.0 
-1.930304258785e-04 2.616830493971e-04 0.0 
2.616830493971e-04 7.045784788136e-03 0.0 
0.0 0.0 0.0 
3.717115324524e-04 5.896404274886e-04 0.0 
5.896404274886e-04 4.989137701409e-03 0.0 
0.0 0.0 0.0 
4.165918996497e-04 6.410572994352e-04 0.0 
6.410572994352e-04 4.537451367541e-03 0.0 
0.0 0.0 0.0 
3.154591139370e-04 5.553717402706e-04 0.0 
5.553717402706e-04 5.445971232598e-03 0.0 
0.0 0.0 0.0 
-6.681030070625e-04 -1.066544023028e-03 0.0 
-1.066544023028e-03 1.080672118915e-03 0.0 
0.0 0.0 0.0 
1.746403029944e-04 -4.037030201971e-04 0.0 
-4.037030201971e-04 5.710185249324e-03 0.0 
0.0 0.0 0.0 
-4.293309518173e-04 -1.928562794903e-04 0.0 
-1.928562794903e-04 6.041499433807e-03 0.0 
0.0 0.0 0.0 
7.133751212052e-05 6.486275414078e-04 0.0 
6.486275414078e-04 6.008647150403e-03 0.0 
0.0 0.0 0.0 
2.443372514677e-05 6.471377182211e-04 0.0 
6.471377182211e-04 5.955612883008e-03 0.0 
0.0 0.0 0.0 
5.781186867345e-04 1.615837261363e-03 0.0 
1.615837261363e-03 6.970231850760e-04 0.0 
0.0 0.0 0.0 
2.220724290513e-04 1.648967983204e-03 0.0 
1.648967983204e-03 1.022034557442e-03 0.0 
0.0 0.0 0.0 
4.479209490982e-06 1.797189745315e-03 0.0 
1.797189745315e-03 8.207138136200e-04 0.0 
0.0 0.0 0.0 
-9.997815339624e-05 1.570837266564e-03 0.0 
1.570837266564e-03 1.333790163411e-03 0.0 
0.0 0.0 0.0 
-3.508045276900e-04 4.121867041715e-04 0.0 
4.121867041715e-04 4.845526883430e-03 0.0 
0.0 0.0 0.0 
3.802395147021e-04 1.486963216675e-03 0.0 
1.486963216675e-03 1.293342032025e-03 0.0 
0.0 0.0 0.0 
-2.949707670331e-04 5.728490953275e-04 0.0 
5.728490953275e-04 4.374864720477e-03 0.0 
0.0 0.0 0.0 
-3.455079168068e-04 5.003689133478e-04 0.0 
5.003689133478e-04 4.318166533863e-03 0.0 
0.0 0.0 0.0 
-3.385960164131e-04 5.575027030658e-04 0.0 
5.575027030658e-04 4.048507079055e-03 0.0 
0.0 0.0 0.0 
-1.899839053833e-04 9.046228229719e-04 0.0 
9.046228229719e-04 3.146856513316e-03 0.0 
0.0 0.0 0.0 
-2.990549844065e-04 8.028926007251e-04 0.0 
8.028926007251e-04 3.181005709585e-03 0.0 
0.0 0.0 0.0 
1.199228907808e-03 1.175984139524e-03 0.0 
1.175984139524e-03 2.587445885923e-04 0.0 
0.0 0.0 0.0 
1.018324165595e-03 3.853227261739e-04 0.0 
3.853227261739e-04 2.541885766354e-03 0.0 
0.0 0.0 0.0 
-5.011008720972e-04 -5.777021367277e-04 0.0 
-5.777021367277e-04 3.884173923676e-03 0.0 
0.0 0.0 0.0 
-3.431232799253e-04 -5.409999001683e-04 0.0 
-5.409999001683e-04 4.686998444209e-03 0.0 
0.0 0.0 0.0 
3.633241838812e-04 -7.994574394367e-04 0.0 
-7.994574394367e-04 3.378486831071e-03 0.0 
0.0 0.0 0.0 
-1.924265444089e-04 1.774057188549e-04 0.0 
1.774057188549e-04 6.960090170001e-03 0.0 
0.0 0.0 0.0 
-1.626536721004e-04 1.653722631155e-04 0.0 
1.653722631155e-04 7.187105040169e-03 0.0 
0.0 0.0 0.0 
-2.833353095038e-04 8.174656636468e-05 0.0 
8.174656636468e-05 5.594513599432e-03 0.0 
0.0 0.0 0.0 
-2.790049036235e-04 5.867255752020e-05 0.0 
5.867255752020e-05 5.410208844305e-03 0.0 
0.0 0.0 0.0 
-4.288149055533e-04 -4.171575948268e-04 0.0 
-4.171575948268e-04 1.542639988951e-03 0.0 
0.0 0.0 0.0 
-4.611183324270e-04 -4.720202342811e-04 0.0 
-4.720202342811e-04 1.362996136724e-03 0.0 
0.0 0.0 0.0 
-7.516572709878e-05 -8.238746983504e-04 0.0 
-8.238746983504e-04 3.716695704951e-03 0.0 
0.0 0.0 0.0 
1.262896376710e-04 -4.435791740530e-04 0.0 
-4.435791740530e-04 5.563777616742e-03 0.0 
0.0 0.0 0.0 
-2.070534439518e-04 3.154859099229e-04 0.0 
3.154859099229e-04 6.954721460926e-03 0.0 
0.0 0.0 0.0 
-1.862935945562e-04 3.602057652294e-04 0.0 
3.602057652294e-04 7.091427917434e-03 0.0 
0.0 0.0 0.0 
-2.145454140777e-04 3.728791326278e-04 0.0 
3.728791326278e-04 6.849781878895e-03 0.0 
0.0 0.0 0.0 
3.953043804784e-04 -2.726662025053e-04 0.0 
-2.726662025053e-04 5.222924760651e-03 0.0 
0.0 0.0 0.0 
1.642839314161e-03 1.659372080122e-04 0.0 
1.659372080122e-04 -2.062898763068e-04 0.0 
0.0 0.0 0.0 
1.023197606638e-03 -1.302177342790e-04 0.0 
-1.302177342790e-04 2.645435314693e-03 0.0 
0.0 0.0 0.0 
2.050533562626e-03 -1.054549241030e-03 0.0 
-1.054549241030e-03 -3.968384550801e-03 0.0 
0.0 0.0 0.0 
4.623316432934e-04 7.836142260485e-04 0.0 
7.836142260485e-04 3.676841967913e-03 0.0 
0.0 0.0 0.0 
-2.548355394693e-04 -2.606679160161e-04 0.0 
-2.606679160161e-04 1.116706440353e-03 0.0 
0.0 0.0 0.0 
-1.120767962014e-04 6.221673532625e-04 0.0 
6.221673532625e-04 5.459915002062e-03 0.0 
0.0 0.0 0.0 
-3.614436576858e-04 -1.780825077846e-04 0.0 
-1.780825077846e-04 6.402813298037e-03 0.0 
0.0 0.0 0.0 
-2.974907295384e-04 -2.258092922260e-04 0.0 
-2.258092922260e-04 6.552431820078e-03 0.0 
0.0 0.0 0.0 
4.189596826008e-04 3.803102637154e-04 0.0 
3.803102637154e-04 5.378987687509e-03 0.0 
0.0 0.0 0.0 
-3.943085649922e-04 3.184142982965e-04 0.0 
3.184142982965e-04 4.397747910169e-03 0.0 
0.0 0.0 0.0 
5.662198937723e-04 7.045822277024e-04 0.0 
7.045822277024e-04 3.696476793775e-03 0.0 
0.0 0.0 0.0 
6.950431888872e-04 6.857923203597e-04 0.0 
6.857923203597e-04 3.279862483980e-03 0.0 
0.0 0.0 0.0 
-3.805354452497e-04 4.747661268128e-04 0.0 
4.747661268128e-04 3.987438347169e-03 0.0 
0.0 0.0 0.0 
-3.795532208821e-04 5.325172825828e-04 0.0 
5.325172825828e-04 3.730853178854e-03 0.0 
0.0 0.0 0.0 
-3.283393073882e-04 6.248637412951e-04 0.0 
6.248637412951e-04 3.772126099778e-03 0.0 
0.0 0.0 0.0 
-3.779102899300e-04 6.031374806403e-04 0.0 
6.031374806403e-04 3.463712034533e-03 0.0 
0.0 0.0 0.0 
2.513362584657e-04 -1.572168347665e-03 0.0 
-1.572168347665e-03 1.279530778584e-03 0.0 
0.0 0.0 0.0 
-6.110228604228e-05 -1.554904818431e-03 0.0 
-1.554904818431e-03 1.492859113388e-03 0.0 
0.0 0.0 0.0 
1.121351004880e-04 6.387214954784e-04 0.0 
6.387214954784e-04 6.126487092462e-03 0.0 
0.0 0.0 0.0 
2.272671730159e-04 5.932830159312e-04 0.0 
5.932830159312e-04 5.801922335985e-03 0.0 
0.0 0.0 0.0 
2.469696065490e-05 6.511274386755e-04 0.0 
6.511274386755e-04 6.349113862621e-03 0.0 
0.0 0.0 0.0 
-1.407020079071e-05 6.418651402147e-04 0.0 
6.418651402147e-04 6.297602420835e-03 0.0 
0.0 0.0 0.0 
3.994221639774e-04 2.966894059378e-04 0.0 
2.966894059378e-04 5.543944544819e-03 0.0 
0.0 0.0 0.0 
4.877782454163e-04 2.217717258949e-04 0.0 
2.217717258949e-04 5.211028579632e-03 0.0 
0.0 0.0 0.0 
-4.693557687653e-04 -1.706043997906e-04 0.0 
-1.706043997906e-04 2.495150709165e-03 0.0 
0.0 0.0 0.0 
-3.735371487958e-04 7.852891514238e-04 0.0 
7.852891514238e-04 2.900914752024e-03 0.0 
0.0 0.0 0.0 
-1.588632537446e-04 2.493343662210e-04 0.0 
2.493343662210e-04 7.275558167944e-03 0.0 
0.0 0.0 0.0 
-3.799539329534e-04 4.255052103243e-04 0.0 
4.255052103243e-04 4.241332966152e-03 0.0 
0.0 0.0 0.0 
8.891170200761e-05 -4.132012543986e-04 0.0 
-4.132012543986e-04 6.015313323321e-03 0.0 
0.0 0.0 0.0 
4.292008754294e-05 -4.348689218692e-04 0.0 
-4.348689218692e-04 5.883660095818e-03 0.0 
0.0 0.0 0.0 
1.499651720805e-03 -9.697372142421e-04 0.0 
-9.697372142421e-04 -4.421728070582e-03 0.0 
0.0 0.0 0.0 
1.333139624071e-03 -1.987601250200e-03 0.0 
-1.987601250200e-03 -3.386146734645e-03 0.0 
0.0 0.0 0.0 
-1.364309067713e-04 8.082558192393e-05 0.0 
8.082558192393e-05 7.289906821859e-03 0.0 
0.0 0.0 0.0 
-3.278125134576e-04 1.622104340351e-03 0.0 
1.622104340351e-03 1.180906938512e-03 0.0 
0.0 0.0 0.0 
-3.514884734452e-04 1.396377701436e-03 0.0 
1.396377701436e-03 1.579723238317e-03 0.0 
0.0 0.0 0.0 
-2.486079889485e-04 1.855708394441e-03 0.0 
1.855708394441e-03 7.028773509233e-04 0.0 
0.0 0.0 0.0 
-1.943407819864e-04 -5.758066022648e-05 0.0 
-5.758066022648e-05 7.165830209329e-03 0.0 
0.0 0.0 0.0 
-2.629659794648e-04 4.384899407239e-06 0.0 
4.384899407239e-06 4.604981499341e-03 0.0 
0.0 0.0 0.0 
-2.799410511507e-04 -1.692869653503e-04 0.0 
-1.692869653503e-04 6.759738287086e-03 0.0 
0.0 0.0 0.0 
-2.267617128718e-04 8.005510182678e-04 0.0 
8.005510182678e-04 3.476119082841e-03 0.0 
0.0 0.0 0.0 
-1.170732228683e-04 1.090784108565e-04 0.0 
1.090784108565e-04 7.471563420380e-03 0.0 
0.0 0.0 0.0 
6.455872041421e-04 6.051035083897e-04 0.0 
6.051035083897e-04 3.754148341531e-03 0.0 
0.0 0.0 0.0 
3.328535385366e-04 1.221378843425e-03 0.0 
1.221378843425e-03 2.144053710719e-03 0.0 
0.0 0.0 0.0 
4.871757947322e-04 -3.172924175461e-04 0.0 
-3.172924175461e-04 4.713955577360e-03 0.0 
0.0 0.0 0.0 
-1.551272407733e-04 5.057594511396e-05 0.0 
5.057594511396e-05 7.083070208407e-03 0.0 
0.0 0.0 0.0 
-1.116651448186e-04 6.513682793085e-05 0.0 
6.513682793085e-05 7.514548983529e-03 0.0 
0.0 0.0 0.0 
-3.145275076516e-04 1.111593250603e-04 0.0 
1.111593250603e-04 5.310333228148e-03 0.0 
0.0 0.0 0.0 
-3.113895764710e-04 7.859705946275e-05 0.0 
7.859705946275e-05 5.119788815096e-03 0.0 
0.0 0.0 0.0 
-3.207999929601e-04 1.417804913622e-04 0.0 
1.417804913622e-04 5.473400707897e-03 0.0 
0.0 0.0 0.0 
1.914414927486e-03 1.542050571082e-03 0.0 
1.542050571082e-03 -3.234307499879e-03 0.0 
0.0 0.0 0.0 
1.484566893313e-03 1.850086367031e-03 0.0 
1.850086367031e-03 -3.425361293156e-03 0.0 
0.0 0.0 0.0 
-1.769948692992e-04 1.343541568608e-04 0.0 
1.343541568608e-04 7.019730711682e-03 0.0 
0.0 0.0 0.0 
-5.720440092834e-04 -3.707745951030e-04 0.0 
-3.707745951030e-04 2.917701265444e-03 0.0 
0.0 0.0 0.0 
-5.960248740785e-04 -2.868239803930e-04 0.0 
-2.868239803930e-04 3.166807442443e-03 0.0 
0.0 0.0 0.0 
-6.231955624777e-04 -1.110252875488e-03 0.0 
-1.110252875488e-03 1.575995375039e-03 0.0 
0.0 0.0 0.0 
-5.151430074999e-04 -1.199860783226e-03 0.0 
-1.199860783226e-03 1.804801315391e-03 0.0 
0.0 0.0 0.0 
-4.688760634241e-04 -5.415680411027e-04 0.0 
-5.415680411027e-04 4.239661589836e-03 0.0 
0.0 0.0 0.0 
-4.126596151825e-04 -6.488586639416e-04 0.0 
-6.488586639416e-04 3.961469888833e-03 0.0 
0.0 0.0 0.0 
-4.608870562435e-05 6.449918891110e-04 0.0 
6.449918891110e-04 5.510640490133e-03 0.0 
0.0 0.0 0.0 
-8.512606477233e-05 6.203002412656e-04 0.0 
6.203002412656e-04 5.832190127902e-03 0.0 
0.0 0.0 0.0 
6.895238965114e-05 7.134245681036e-04 0.0 
7.134245681036e-04 4.826864366734e-03 0.0 
0.0 0.0 0.0 
6.607585453170e-04 -4.470634057188e-04 0.0 
-4.470634057188e-04 3.663914223326e-03 0.0 
0.0 0.0 0.0 
7.432118969693e-04 -5.315843944175e-04 0.0 
-5.315843944175e-04 3.137344483243e-03 0.0 
0.0 0.0 0.0 
8.929367620461e-04 -4.472524743842e-04 0.0 
-4.472524743842e-04 2.755272901135e-03 0.0 
0.0 0.0 0.0 
-1.471050723120e-04 1.985501384701e-04 0.0 
1.985501384701e-04 7.336625911935e-03 0.0 
0.0 0.0 0.0 
-1.095039284777e-04 1.872307206982e-04 0.0 
1.872307206982e-04 7.602855544285e-03 0.0 
0.0 0.0 0.0 
5.670157291601e-04 -1.476061184293e-03 0.0 
-1.476061184293e-03 1.088885039466e-03 0.0 
0.0 0.0 0.0 
8.543074856404e-04 -1.500641538341e-03 0.0 
-1.500641538341e-03 4.550718046499e-04 0.0 
0.0 0.0 0.0 
5.171200963118e-05 -1.420262153725e-03 0.0 
-1.420262153725e-03 1.798426589693e-03 0.0 
0.0 0.0 0.0 
-1.396748978873e-04 2.902456481704e-04 0.0 
2.902456481704e-04 7.422994346965e-03 0.0 
0.0 0.0 0.0 
-2.200676691410e-04 -2.202471163789e-04 0.0 
-2.202471163789e-04 6.906884593461e-03 0.0 
0.0 0.0 0.0 
-2.297799497757e-04 -2.706143769349e-04 0.0 
-2.706143769349e-04 6.695047992125e-03 0.0 
0.0 0.0 0.0 
-2.433051682185e-04 -2.750132657878e-04 0.0 
-2.750132657878e-04 9.352649407903e-04 0.0 
0.0 0.0 0.0 
-4.908419157133e-04 -5.319892911099e-04 0.0 
-5.319892911099e-04 1.174492828366e-03 0.0 
0.0 0.0 0.0 
1.319804296198e-04 2.270933990290e-03 0.0 
2.270933990290e-03 -5.783804111013e-04 0.0 
0.0 0.0 0.0 
4.564206765915e-04 2.377746215762e-03 0.0 
2.377746215762e-03 -1.452596723363e-03 0.0 
0.0 0.0 0.0 
-1.609705596997e-04 4.060621296786e-04 0.0 
4.060621296786e-04 7.209364294032e-03 0.0 
0.0 0.0 0.0 
-1.901763568495e-04 4.210175189703e-04 0.0 
4.210175189703e-04 6.975319548274e-03 0.0 
0.0 0.0 0.0 
-1.246814083078e-04 3.955098272928e-04 0.0 
3.955098272928e-04 7.480513195564e-03 0.0 
0.0 0.0 0.0 
-3.744298948443e-04 -9.036622727774e-05 0.0 
-9.036622727774e-05 2.222199806760e-03 0.0 
0.0 0.0 0.0 
4.744471919293e-04 5.721284493679e-04 0.0 
5.721284493679e-04 4.616358038574e-03 0.0 
0.0 0.0 0.0 
2.963219505000e-04 -2.418190921138e-04 0.0 
-2.418190921138e-04 5.710146053253e-03 0.0 
0.0 0.0 0.0 
3.919594483241e-04 -1.840033314146e-04 0.0 
-1.840033314146e-04 5.414692547457e-03 0.0 
0.0 0.0 0.0 
1.978120735971e-04 -2.961834380163e-04 0.0 
-2.961834380163e-04 6.086281460892e-03 0.0 
0.0 0.0 0.0 
4.231436890139e-04 4.566521722117e-04 0.0 
4.566521722117e-04 5.228708790358e-03 0.0 
0.0 0.0 0.0 
3.183823495725e-04 4.349568235490e-04 0.0 
4.349568235490e-04 5.708248746517e-03 0.0 
0.0 0.0 0.0 
2.359568741013e-04 5.425853441617e-04 0.0 
5.425853441617e-04 5.909928842453e-03 0.0 
0.0 0.0 0.0 
1.176679933124e-03 -5.232036556265e-06 0.0 
-5.232036556265e-06 -4.783845267743e-03 0.0 
0.0 0.0 0.0 
-1.219129156052e-04 3.765758459002e-05 0.0 
3.765758459002e-05 7.381318973181e-03 0.0 
0.0 0.0 0.0 
-2.928610764344e-04 5.745750280162e-05 0.0 
5.745750280162e-05 5.161671637840e-03 0.0 
0.0 0.0 0.0 
5.056184508426e-04 -6.387800044870e-04 0.0 
-6.387800044870e-04 -4.638691149927e-03 0.0 
0.0 0.0 0.0 
-2.836965481639e-04 3.972995837898e-05 0.0 
3.972995837898e-05 4.976504382951e-03 0.0 
0.0 0.0 0.0 
-2.762075375736e-04 4.076125873685e-05 0.0 
4.076125873685e-05 5.219939658407e-03 0.0 
0.0 0.0 0.0 
-2.792935643063e-04 2.432186912277e-05 0.0 
2.432186912277e-05 4.763513044130e-03 0.0 
0.0 0.0 0.0 
-2.324729686670e-04 -7.010072428656e-05 0.0 
-7.010072428656e-05 1.771055287122e-03 0.0 
0.0 0.0 0.0 
-3.314105077444e-04 1.056693320566e-04 0.0 
1.056693320566e-04 5.006689752182e-03 0.0 
0.0 0.0 0.0 
-3.380871447161e-04 1.449703210640e-04 0.0 
1.449703210640e-04 5.236830254355e-03 0.0 
0.0 0.0 0.0 
-1.590207740187e-04 -2.328290568262e-04 0.0 
-2.328290568262e-04 6.462649700011e-04 0.0 
0.0 0.0 0.0 
-1.007417400767e-04 2.746974597252e-04 0.0 
2.746974597252e-04 7.645062300087e-03 0.0 
0.0 0.0 0.0 
-1.699714600885e-05 -1.161443962734e-04 0.0 
-1.161443962734e-04 6.592829027894e-04 0.0 
0.0 0.0 0.0 
-3.657051283262e-05 -1.299910373827e-04 0.0 
-1.299910373827e-04 8.363767861546e-04 0.0 
0.0 0.0 0.0 
3.183055114022e-05 -4.145886646356e-04 0.0 
-4.145886646356e-04 6.320355004506e-03 0.0 
0.0 0.0 0.0 
-1.908979713272e-05 -4.216226437504e-04 0.0 
-4.216226437504e-04 6.183106555587e-03 0.0 
0.0 0.0 0.0 
-1.740207728827e-05 -4.139500947568e-04 0.0 
-4.139500947568e-04 6.589382568775e-03 0.0 
0.0 0.0 0.0 
-6.507326185044e-05 -4.004099806831e-04 0.0 
-4.004099806831e-04 6.447415124198e-03 0.0 
0.0 0.0 0.0 
-8.465714183196e-05 -4.214702380332e-04 0.0 
-4.214702380332e-04 6.056618227889e-03 0.0 
0.0 0.0 0.0 
-1.279790322704e-04 -3.866188260568e-04 0.0 
-3.866188260568e-04 6.340266580835e-03 0.0 
0.0 0.0 0.0 
-3.063410976239e-04 5.532401843101e-05 0.0 
5.532401843101e-05 4.921412532550e-03 0.0 
0.0 0.0 0.0 
-8.118303453984e-05 -3.822261508577e-04 0.0 
-3.822261508577e-04 6.764478982133e-03 0.0 
0.0 0.0 0.0 
-1.495369854100e-04 -3.482675900909e-04 0.0 
-3.482675900909e-04 6.610059460844e-03 0.0 
0.0 0.0 0.0 
-9.371836951435e-05 -3.584999243220e-04 0.0 
-3.584999243220e-04 7.029282963869e-03 0.0 
0.0 0.0 0.0 
-4.162060241694e-04 4.927118988296e-04 0.0 
4.927118988296e-04 3.422927772878e-03 0.0 
0.0 0.0 0.0 
-1.720289184858e-04 1.374314323244e-03 0.0 
1.374314323244e-03 1.769388257387e-03 0.0 
0.0 0.0 0.0 
-3.655914718800e-04 1.196782311367e-03 0.0 
1.196782311367e-03 1.949774802654e-03 0.0 
0.0 0.0 0.0 
-5.158146139614e-04 1.126344968365e-03 0.0 
1.126344968365e-03 1.757642938415e-03 0.0 
0.0 0.0 0.0 
-6.944856968870e-06 6.613680324342e-04 0.0 
6.613680324342e-04 6.747843779933e-03 0.0 
0.0 0.0 0.0 
-4.471131586588e-05 6.406087873768e-04 0.0 
6.406087873768e-04 6.595737195483e-03 0.0 
0.0 0.0 0.0 
-4.198357772775e-04 -1.262403831302e-04 0.0 
-1.262403831302e-04 6.250944877486e-03 0.0 
0.0 0.0 0.0 
-4.848287536778e-04 -1.350914750259e-04 0.0 
-1.350914750259e-04 5.890501190003e-03 0.0 
0.0 0.0 0.0 
-2.750636500815e-04 2.657289587134e-05 0.0 
2.657289587134e-05 5.004904493852e-03 0.0 
0.0 0.0 0.0 
-2.680401014747e-04 1.628324305341e-05 0.0 
1.628324305341e-05 4.983860181382e-03 0.0 
0.0 0.0 0.0 
-2.645137419168e-04 3.370153127185e-05 0.0 
3.370153127185e-05 5.362920577356e-03 0.0 
0.0 0.0 0.0 
-2.607776710064e-04 1.877832645182e-05 0.0 
1.877832645182e-05 5.313730317991e-03 0.0 
0.0 0.0 0.0 
-2.523371965249e-04 3.491214644557e-05 0.0 
3.491214644557e-05 5.690973014049e-03 0.0 
0.0 0.0 0.0 
-2.481434313670e-04 1.679045487637e-05 0.0 
1.679045487637e-05 5.633704869802e-03 0.0 
0.0 0.0 0.0 
-2.341965985497e-04 2.594515070907e-05 0.0 
2.594515070907e-05 6.015130105148e-03 0.0 
0.0 0.0 0.0 
1.515160963385e-04 5.959414376616e-04 0.0 
5.959414376616e-04 6.287515379070e-03 0.0 
0.0 0.0 0.0 
-5.435961996325e-04 1.562409170571e-03 0.0 
1.562409170571e-03 1.061147558261e-03 0.0 
0.0 0.0 0.0 
-4.054822457030e-04 3.898403694114e-04 0.0 
3.898403694114e-04 3.909147407278e-03 0.0 
0.0 0.0 0.0 
3.562465180264e-04 2.089674574870e-04 0.0 
2.089674574870e-04 5.725777359807e-03 0.0 
0.0 0.0 0.0 
4.429638164611e-04 1.327050118210e-04 0.0 
1.327050118210e-04 5.380296919147e-03 0.0 
0.0 0.0 0.0 
-3.752890117498e-04 6.871600863775e-04 0.0 
6.871600863775e-04 3.183774656624e-03 0.0 
0.0 0.0 0.0 
-4.303178653446e-04 6.429193736652e-04 0.0 
6.429193736652e-04 2.903032136204e-03 0.0 
0.0 0.0 0.0 
1.103903715782e-04 -3.829332184150e-04 0.0 
-3.829332184150e-04 6.242543830562e-03 0.0 
0.0 0.0 0.0 
6.791995245190e-04 1.406206168558e-03 0.0 
1.406206168558e-03 1.055678583986e-03 0.0 
0.0 0.0 0.0 
-7.103835553338e-05 3.208901572635e-04 0.0 
3.208901572635e-04 7.834445732809e-03 0.0 
0.0 0.0 0.0 
-7.128104699491e-04 1.729634956378e-03 0.0 
1.729634956378e-03 -3.202627369978e-03 0.0 
0.0 0.0 0.0 
7.354869788856e-04 1.782343362646e-03 0.0 
1.782343362646e-03 -3.840939025453e-03 0.0 
0.0 0.0 0.0 
4.873788348599e-04 1.322096132270e-03 0.0 
1.322096132270e-03 1.623264227955e-03 0.0 
0.0 0.0 0.0 
-3.156131848842e-04 7.060349324079e-04 0.0 
7.060349324079e-04 3.482887696940e-03 0.0 
0.0 0.0 0.0 
-2.173416277112e-04 1.195138156598e-03 0.0 
1.195138156598e-03 2.162282268712e-03 0.0 
0.0 0.0 0.0 
-3.660032577242e-04 1.042931251715e-03 0.0 
1.042931251715e-03 2.285878865087e-03 0.0 
0.0 0.0 0.0 
5.767712175541e-04 -3.744944799015e-04 0.0 
-3.744944799015e-04 4.189081632717e-03 0.0 
0.0 0.0 0.0 
-4.965830008932e-04 -6.129803797368e-04 0.0 
-6.129803797368e-04 9.847312216428e-04 0.0 
0.0 0.0 0.0 
-1.083716626042e-04 2.078941364143e-03 0.0 
2.078941364143e-03 1.255439837240e-04 0.0 
0.0 0.0 0.0 
-2.358190348273e-04 5.015666297880e-05 0.0 
5.015666297880e-05 6.058734342786e-03 0.0 
0.0 0.0 0.0 
-3.825051674450e-04 1.966599205157e-03 0.0 
1.966599205157e-03 1.414027371895e-04 0.0 
0.0 0.0 0.0 
-4.653266099930e-04 -6.532945069074e-05 0.0 
-6.532945069074e-05 6.104758390354e-03 0.0 
0.0 0.0 0.0 
9.498370218300e-04 1.224073542672e-03 0.0 
1.224073542672e-03 8.899683875232e-04 0.0 
0.0 0.0 0.0 
-1.127520638128e-04 8.763636685089e-04 0.0 
8.763636685089e-04 3.446411485519e-03 0.0 
0.0 0.0 0.0 
1.768211299291e-04 2.031734922432e-03 0.0 
2.031734922432e-03 2.039497097909e-04 0.0 
0.0 0.0 0.0 
8.448684993284e-05 1.468370264123e-03 0.0 
1.468370264123e-03 1.556121940610e-03 0.0 
0.0 0.0 0.0 
-3.152614703788e-04 4.742876749953e-04 0.0 
4.742876749953e-04 4.928407494267e-03 0.0 
0.0 0.0 0.0 
-3.750092516516e-04 3.498581935493e-04 0.0 
3.498581935493e-04 4.748110992618e-03 0.0 
0.0 0.0 0.0 
-3.787347119039e-04 3.844830840344e-04 0.0 
3.844830840344e-04 4.497495660569e-03 0.0 
0.0 0.0 0.0 
1.164928365067e-03 9.708050142125e-04 0.0 
9.708050142125e-04 8.045490568660e-04 0.0 
0.0 0.0 0.0 
-3.691215984510e-04 9.018080066649e-04 0.0 
9.018080066649e-04 2.609583574241e-03 0.0 
0.0 0.0 0.0 
-4.605160892388e-04 8.415531505999e-04 0.0 
8.415531505999e-04 2.334654633572e-03 0.0 
0.0 0.0 0.0 
-2.286217999883e-04 6.389771590479e-04 0.0 
6.389771590479e-04 4.412980365415e-03 0.0 
0.0 0.0 0.0 
-2.386233572614e-04 3.868794601650e-04 0.0 
3.868794601650e-04 6.603247122746e-03 0.0 
0.0 0.0 0.0 
-2.131144178929e-04 4.340905020628e-04 0.0 
4.340905020628e-04 6.720987582890e-03 0.0 
0.0 0.0 0.0 
-1.623629937008e-04 4.658716821909e-04 0.0 
4.658716821909e-04 7.076112504624e-03 0.0 
0.0 0.0 0.0 
-1.844996535716e-04 4.794925289292e-04 0.0 
4.794925289292e-04 6.828890518733e-03 0.0 
0.0 0.0 0.0 
-2.300813289112e-04 4.477614583600e-04 0.0 
4.477614583600e-04 6.462738052025e-03 0.0 
0.0 0.0 0.0 
-1.974617346936e-04 4.919921807716e-04 0.0 
4.919921807716e-04 6.564578768625e-03 0.0 
0.0 0.0 0.0 
-1.499720066010e-04 5.242780395106e-04 0.0 
5.242780395106e-04 6.932194680706e-03 0.0 
0.0 0.0 0.0 
-1.590182597425e-04 5.372037099879e-04 0.0 
5.372037099879e-04 6.668511990566e-03 0.0 
0.0 0.0 0.0 
-1.084818752470e-04 5.719295125162e-04 0.0 
5.719295125162e-04 7.103510198806e-03 0.0 
0.0 0.0 0.0 
-1.216794936230e-04 5.758815255758e-04 0.0 
5.758815255758e-04 6.751604155737e-03 0.0 
0.0 0.0 0.0 
-1.619396118556e-04 5.516708815887e-04 0.0 
5.516708815887e-04 6.371186980579e-03 0.0 
0.0 0.0 0.0 
-1.226925204256e-04 5.866533827460e-04 0.0 
5.866533827460e-04 6.443764909176e-03 0.0 
0.0 0.0 0.0 
-8.987139066217e-05 6.114851401334e-04 0.0 
6.114851401334e-04 6.794148911808e-03 0.0 
0.0 0.0 0.0 
-1.570114443170e-04 5.690847224003e-04 0.0 
5.690847224003e-04 6.069820819380e-03 0.0 
0.0 0.0 0.0 
2.529728066680e-04 2.898237718634e-04 0.0 
2.898237718634e-04 6.051725979162e-03 0.0 
0.0 0.0 0.0 
5.547153871497e-04 1.163117907806e-03 0.0 
1.163117907806e-03 2.003380999008e-03 0.0 
0.0 0.0 0.0 
1.558687736286e-03 9.284144686941e-04 0.0 
9.284144686941e-04 -4.368045386884e-03 0.0 
0.0 0.0 0.0 
7.195319360335e-04 2.405679175242e-03 0.0 
2.405679175242e-03 -2.780143155026e-03 0.0 
0.0 0.0 0.0 
-1.600619281107e-04 7.855120978745e-04 0.0 
7.855120978745e-04 3.784829798874e-03 0.0 
0.0 0.0 0.0 
-5.904494434450e-05 5.954887883460e-04 0.0 
5.954887883460e-04 7.518954660656e-03 0.0 
0.0 0.0 0.0 
-6.813887885756e-05 5.164048423440e-04 0.0 
5.164048423440e-04 7.669472786009e-03 0.0 
0.0 0.0 0.0 
1.203439910523e-03 1.429495202620e-03 0.0 
1.429495202620e-03 -2.747570427328e-04 0.0 
0.0 0.0 0.0 
3.796952747344e-06 6.937091220285e-04 0.0 
6.937091220285e-04 7.095675153339e-03 0.0 
0.0 0.0 0.0 
-3.500480718857e-04 4.518429023649e-04 0.0 
4.518429023649e-04 4.583674353932e-03 0.0 
0.0 0.0 0.0 
1.958939182790e-03 1.310275453445e-03 0.0 
1.310275453445e-03 -2.663689654421e-03 0.0 
0.0 0.0 0.0 
4.315967151147e-05 6.657000916196e-04 0.0 
6.657000916196e-04 6.887747778591e-03 0.0 
0.0 0.0 0.0 
-2.575686283498e-04 4.014692401097e-04 0.0 
4.014692401097e-04 6.350386082455e-03 0.0 
0.0 0.0 0.0 
-2.716276289672e-04 4.163899600644e-04 0.0 
4.163899600644e-04 6.088898060322e-03 0.0 
0.0 0.0 0.0 
-2.963575519831e-04 3.686722395468e-04 0.0 
3.686722395468e-04 5.975872500838e-03 0.0 
0.0 0.0 0.0 
-6.349625429773e-05 4.411149454551e-04 0.0 
4.411149454551e-04 7.784436428156e-03 0.0 
0.0 0.0 0.0 
-3.223058440653e-04 1.779668717774e-04 0.0 
1.779668717774e-04 5.643696848449e-03 0.0 
0.0 0.0 0.0 
1.204286171238e-04 4.653888447298e-04 0.0 
4.653888447298e-04 6.530871772383e-03 0.0 
0.0 0.0 0.0 
9.198914805908e-04 3.295664074225e-04 0.0 
3.295664074225e-04 3.091464787957e-03 0.0 
0.0 0.0 0.0 
8.950242089775e-04 4.897076143265e-04 0.0 
4.897076143265e-04 2.948247528539e-03 0.0 
0.0 0.0 0.0 
9.741431273092e-04 5.721001195085e-04 0.0 
5.721001195085e-04 2.419582871128e-03 0.0 
0.0 0.0 0.0 
-2.034619486811e-04 5.078968750355e-04 0.0 
5.078968750355e-04 6.285665974178e-03 0.0 
0.0 0.0 0.0 
1.639265547399e-04 8.978809862755e-05 0.0 
8.978809862755e-05 6.327078720915e-03 0.0 
0.0 0.0 0.0 
3.014197174998e-04 2.895243960616e-05 0.0 
2.895243960616e-05 5.883836663243e-03 0.0 
0.0 0.0 0.0 
2.895784559283e-04 -6.250454142307e-05 0.0 
-6.250454142307e-05 5.905622040886e-03 0.0 
0.0 0.0 0.0 
4.214155085304e-04 -2.786122423244e-05 0.0 
-2.786122423244e-05 5.415538886288e-03 0.0 
0.0 0.0 0.0 
1.495574635565e-04 -1.061353299900e-04 0.0 
-1.061353299900e-04 6.372395508275e-03 0.0 
0.0 0.0 0.0 
-3.721019679280e-05 6.561148504912e-04 0.0 
6.561148504912e-04 7.398938515681e-03 0.0 
0.0 0.0 0.0 
-2.541765416303e-05 6.779242816734e-04 0.0 
6.779242816734e-04 7.321118832383e-03 0.0 
0.0 0.0 0.0 
8.297726763685e-04 -1.757990537617e-03 0.0 
-1.757990537617e-03 -5.055394842625e-05 0.0 
0.0 0.0 0.0 
1.186048075982e-03 -1.434662790429e-03 0.0 
-1.434662790429e-03 -2.420959532016e-04 0.0 
0.0 0.0 0.0 
1.130793470950e-03 -1.209684395678e-03 0.0 
-1.209684395678e-03 3.562022235023e-04 0.0 
0.0 0.0 0.0 
1.429242724041e-03 -1.028317027198e-03 0.0 
-1.028317027198e-03 -2.784240770810e-04 0.0 
0.0 0.0 0.0 
1.545850355572e-03 -1.231335449999e-03 0.0 
-1.231335449999e-03 -9.920853375164e-04 0.0 
0.0 0.0 0.0 
1.709756476806e-03 -7.103211656807e-04 0.0 
-7.103211656807e-04 -8.952771221670e-04 0.0 
0.0 0.0 0.0 
1.548979253707e-03 -6.051076252161e-04 0.0 
-6.051076252161e-04 -1.487936841142e-04 0.0 
0.0 0.0 0.0 
1.923074338766e-03 -2.428779863133e-04 0.0 
-2.428779863133e-04 -1.429722620518e-03 0.0 
0.0 0.0 0.0 
-6.229121596183e-05 6.240675918092e-04 0.0 
6.240675918092e-04 6.216454084579e-03 0.0 
0.0 0.0 0.0 
1.084715084386e-04 -2.658291884344e-04 0.0 
-2.658291884344e-04 6.506742299928e-03 0.0 
0.0 0.0 0.0 
3.394507322756e-04 -6.865446808907e-04 0.0 
-6.865446808907e-04 3.837509602660e-03 0.0 
0.0 0.0 0.0 
4.920329644493e-04 -6.974751495091e-04 0.0 
-6.974751495091e-04 3.435201649861e-03 0.0 
0.0 0.0 0.0 
5.311838095827e-04 -8.169205345240e-04 0.0 
-8.169205345240e-04 2.953590470800e-03 0.0 
0.0 0.0 0.0 
-4.506861711484e-04 -6.930389225797e-04 0.0 
-6.930389225797e-04 3.610043315950e-03 0.0 
0.0 0.0 0.0 
-3.440540829620e-04 -7.639225244391e-04 0.0 
-7.639225244391e-04 3.660844316101e-03 0.0 
0.0 0.0 0.0 
-3.042218407482e-04 -7.003107925007e-04 0.0 
-7.003107925007e-04 4.019774943498e-03 0.0 
0.0 0.0 0.0 
-5.303144046988e-04 -6.026954899853e-04 0.0 
-6.026954899853e-04 3.533405805868e-03 0.0 
0.0 0.0 0.0 
3.386778021747e-04 6.966525293528e-04 0.0 
6.966525293528e-04 4.495362933599e-03 0.0 
0.0 0.0 0.0 
8.857546238483e-05 -3.289699887229e-04 0.0 
-3.289699887229e-04 6.576662652204e-03 0.0 
0.0 0.0 0.0 
9.193751951800e-04 -2.700156545356e-04 0.0 
-2.700156545356e-04 2.960509067726e-03 0.0 
0.0 0.0 0.0 
-2.604442450265e-04 -8.867261914702e-04 0.0 
-8.867261914702e-04 3.333953188095e-03 0.0 
0.0 0.0 0.0 
-3.675812452278e-04 1.345262244971e-04 0.0 
1.345262244971e-04 4.569678778815e-03 0.0 
0.0 0.0 0.0 
-3.644866699765e-04 1.841984275050e-04 0.0 
1.841984275050e-04 4.908271272899e-03 0.0 
0.0 0.0 0.0 
-3.762139312249e-04 2.150333111393e-04 0.0 
2.150333111393e-04 4.887662031603e-03 0.0 
0.0 0.0 0.0 
-3.528587964717e-04 2.309185351503e-04 0.0 
2.309185351503e-04 5.272984745082e-03 0.0 
0.0 0.0 0.0 
-3.539228716625e-04 1.488140276093e-04 0.0 
1.488140276093e-04 4.969935065979e-03 0.0 
0.0 0.0 0.0 
-5.139984987839e-04 -4.411445500070e-04 0.0 
-4.411445500070e-04 4.498567334238e-03 0.0 
0.0 0.0 0.0 
-5.476348577919e-04 -3.465069303339e-04 0.0 
-3.465069303339e-04 4.738188679389e-03 0.0 
0.0 0.0 0.0 
-5.995007478898e-04 -2.786468634701e-04 0.0 
-2.786468634701e-04 4.603169635450e-03 0.0 
0.0 0.0 0.0 
-5.690994524135e-04 -2.572232948990e-04 0.0 
-2.572232948990e-04 4.959364966686e-03 0.0 
0.0 0.0 0.0 
-6.121836066223e-04 -1.925509743137e-04 0.0 
-1.925509743137e-04 4.799514013971e-03 0.0 
0.0 0.0 0.0 
-6.321427360410e-04 -2.097495535046e-04 0.0 
-2.097495535046e-04 4.466235541825e-03 0.0 
0.0 0.0 0.0 
-5.808634906095e-04 -1.710284728044e-04 0.0 
-1.710284728044e-04 5.158864388386e-03 0.0 
0.0 0.0 0.0 
-6.199562386129e-04 -1.099025722661e-04 0.0 
-1.099025722661e-04 4.956975459536e-03 0.0 
0.0 0.0 0.0 
-3.418543175058e-04 8.475115778618e-05 0.0 
8.475115778618e-05 4.594816170697e-03 0.0 
0.0 0.0 0.0 
-7.712325881018e-04 -1.866500572010e-03 0.0 
-1.866500572010e-03 -1.136895778551e-03 0.0 
0.0 0.0 0.0 
-4.920898892336e-04 -2.196499953031e-03 0.0 
-2.196499953031e-03 -7.136522710581e-04 0.0 
0.0 0.0 0.0 
-6.411771092695e-04 -1.503279685853e-03 0.0 
-1.503279685853e-03 1.871398087205e-04 0.0 
0.0 0.0 0.0 
-3.235206931740e-04 -2.206060084260e-03 0.0 
-2.206060084260e-03 -4.271019328773e-04 0.0 
0.0 0.0 0.0 
4.015283096929e-04 -2.435720534334e-03 0.0 
-2.435720534334e-03 -1.749830934950e-03 0.0 
0.0 0.0 0.0 
3.543203291393e-04 -2.358621445685e-03 0.0 
-2.358621445685e-03 -1.117459699164e-03 0.0 
0.0 0.0 0.0 
1.111207193960e-03 -2.286881652528e-03 0.0 
-2.286881652528e-03 -2.387071328437e-03 0.0 
0.0 0.0 0.0 
2.233516822894e-04 -2.384456931349e-03 0.0 
-2.384456931349e-03 -2.503167296635e-03 0.0 
0.0 0.0 0.0 
-2.720627127089e-04 -5.195513328278e-04 0.0 
-5.195513328278e-04 1.840366017170e-04 0.0 
0.0 0.0 0.0 
-5.317835571467e-04 -9.365475282197e-04 0.0 
-9.365475282197e-04 4.881391405201e-04 0.0 
0.0 0.0 0.0 
4.016911385294e-05 -2.494721701114e-04 0.0 
-2.494721701114e-04 1.745086415868e-04 0.0 
0.0 0.0 0.0 
-3.639995756478e-04 -5.533468564659e-04 0.0 
-5.533468564659e-04 5.770633902604e-04 0.0 
0.0 0.0 0.0 
-6.413901906702e-04 -1.194746786249e-03 0.0 
-1.194746786249e-03 7.762091421218e-04 0.0 
0.0 0.0 0.0 
-5.989144238202e-04 -7.682283373164e-04 0.0 
-7.682283373164e-04 1.530087580777e-03 0.0 
0.0 0.0 0.0 
-1.124977719606e-04 -2.290468654752e-04 0.0 
-2.290468654752e-04 7.274145949980e-03 0.0 
0.0 0.0 0.0 
-6.563808736906e-04 -7.769711546749e-05 0.0 
-7.769711546749e-05 3.941754521216e-03 0.0 
0.0 0.0 0.0 
-6.460192891361e-04 -1.506784760745e-04 0.0 
-1.506784760745e-04 3.744738499269e-03 0.0 
0.0 0.0 0.0 
-6.137997254057e-04 -1.414316710625e-04 0.0 
-1.414316710625e-04 3.375659920691e-03 0.0 
0.0 0.0 0.0 
-6.258388178651e-04 -2.353620512064e-04 0.0 
-2.353620512064e-04 3.546766225252e-03 0.0 
0.0 0.0 0.0 
-6.565568355255e-04 -1.489407777230e-04 0.0 
-1.489407777230e-04 4.080116226047e-03 0.0 
0.0 0.0 0.0 
-5.861912389771e-04 -6.485706156324e-05 0.0 
-6.485706156324e-05 3.174581776031e-03 0.0 
0.0 0.0 0.0 
-5.616954751736e-04 -1.261022389390e-04 0.0 
-1.261022389390e-04 3.019157115226e-03 0.0 
0.0 0.0 0.0 
4.848570308521e-04 2.118221231113e-06 0.0 
2.118221231113e-06 5.333765631223e-05 0.0 
0.0 0.0 0.0 
2.896990806051e-04 -7.816419412622e-06 0.0 
-7.816419412622e-06 4.568572253747e-04 0.0 
0.0 0.0 0.0 
3.238631967572e-04 9.926281463744e-06 0.0 
9.926281463744e-06 4.085673818736e-04 0.0 
0.0 0.0 0.0 
9.781312838040e-05 -1.993934529915e-05 0.0 
-1.993934529915e-05 8.971055107678e-04 0.0 
0.0 0.0 0.0 
9.910766235490e-05 -3.205757372545e-05 0.0 
-3.205757372545e-05 8.854280556327e-04 0.0 
0.0 0.0 0.0 
2.820985719542e-04 -8.950209888798e-06 0.0 
-8.950209888798e-06 4.628740909948e-04 0.0 
0.0 0.0 0.0 
2.568633700586e-04 -9.448330752788e-06 0.0 
-9.448330752788e-06 4.728451538243e-04 0.0 
0.0 0.0 0.0 
4.778763355170e-04 4.466533551451e-06 0.0 
4.466533551451e-06 5.532971432374e-05 0.0 
0.0 0.0 0.0 
2.239044624161e-04 -1.980460506627e-05 0.0 
-1.980460506627e-05 4.881890339727e-04 0.0 
0.0 0.0 0.0 
2.292031696719e-05 -6.681347475410e-05 0.0 
-6.681347475410e-05 9.290643471421e-04 0.0 
0.0 0.0 0.0 
4.774284167176e-04 1.193299500440e-07 0.0 
1.193299500440e-07 4.549651507156e-05 0.0 
0.0 0.0 0.0 
-1.983827762165e-04 1.126610716051e-05 0.0 
1.126610716051e-05 6.551385435016e-03 0.0 
0.0 0.0 0.0 
-1.824618437853e-04 3.022510807853e-05 0.0 
3.022510807853e-05 6.768908931091e-03 0.0 
0.0 0.0 0.0 
4.271955053359e-05 -4.060462249995e-04 0.0 
-4.060462249995e-04 6.730000261233e-03 0.0 
0.0 0.0 0.0 
-3.147895407066e-04 5.197147690330e-05 0.0 
5.197147690330e-05 4.657461928033e-03 0.0 
0.0 0.0 0.0 
2.582757138377e-04 -6.500867809726e-05 0.0 
-6.500867809726e-05 1.327996425506e-04 0.0 
0.0 0.0 0.0 
-6.063683033816e-05 1.228738237248e-04 0.0 
1.228738237248e-04 7.914763415204e-03 0.0 
0.0 0.0 0.0 
-5.693022416201e-05 2.174126081132e-04 0.0 
2.174126081132e-04 7.940151014283e-03 0.0 
0.0 0.0 0.0 
-5.085333685782e-05 1.894032698623e-04 0.0 
1.894032698623e-04 7.961366695057e-03 0.0 
0.0 0.0 0.0 
-3.031679857351e-04 -5.803445346896e-05 0.0 
-5.803445346896e-05 6.822818235101e-03 0.0 
0.0 0.0 0.0 
-2.463359524578e-04 -1.132542220253e-04 0.0 
-1.132542220253e-04 6.977204533056e-03 0.0 
0.0 0.0 0.0 
-5.607964407942e-05 7.084694393036e-05 0.0 
7.084694393036e-05 7.937911247032e-03 0.0 
0.0 0.0 0.0 
-5.381057535918e-04 -8.462097336496e-04 0.0 
-8.462097336496e-04 2.351564711893e-03 0.0 
0.0 0.0 0.0 
-1.340188637489e-04 5.152400017363e-04 0.0 
5.152400017363e-04 7.181529521817e-03 0.0 
0.0 0.0 0.0 
-1.486156523771e-04 1.231183193083e-04 0.0 
1.231183193083e-04 7.241386988398e-03 0.0 
0.0 0.0 0.0 
1.471199347911e-03 1.933753938269e-03 0.0 
1.933753938269e-03 -2.219046349148e-03 0.0 
0.0 0.0 0.0 
-3.295482789619e-04 -1.424523772399e-03 0.0 
-1.424523772399e-03 1.683749046322e-03 0.0 
0.0 0.0 0.0 
-4.859458803569e-04 -2.094778522064e-04 0.0 
-2.094778522064e-04 5.680962445856e-03 0.0 
0.0 0.0 0.0 
-2.407981022988e-04 -5.668316386833e-04 0.0 
-5.668316386833e-04 4.767692962218e-03 0.0 
0.0 0.0 0.0 
-2.950068979101e-04 -2.812379237473e-04 0.0 
-2.812379237473e-04 6.330630335686e-03 0.0 
0.0 0.0 0.0 
-4.424567960377e-04 -3.684021040245e-04 0.0 
-3.684021040245e-04 5.221105584388e-03 0.0 
0.0 0.0 0.0 
-2.395524526989e-04 -3.956238131570e-04 0.0 
-3.956238131570e-04 5.828928239695e-03 0.0 
0.0 0.0 0.0 
2.677566876171e-04 -1.562122292131e-04 0.0 
-1.562122292131e-04 5.930673833389e-03 0.0 
0.0 0.0 0.0 
-1.954727473674e-04 -9.964030880169e-05 0.0 
-9.964030880169e-05 1.613888554222e-03 0.0 
0.0 0.0 0.0 
-2.832102815036e-04 1.065169382251e-04 0.0 
1.065169382251e-04 5.770213752759e-03 0.0 
0.0 0.0 0.0 
-2.660715134543e-04 5.841642872751e-05 0.0 
5.841642872751e-05 5.638990403127e-03 0.0 
0.0 0.0 0.0 
-2.141482066358e-04 1.159647274251e-04 0.0 
1.159647274251e-04 6.626854854175e-03 0.0 
0.0 0.0 0.0 
-5.583681634740e-04 -4.562951379502e-04 0.0 
-4.562951379502e-04 2.702719081976e-03 0.0 
0.0 0.0 0.0 
-6.179842146211e-04 -2.985895143357e-04 0.0 
-2.985895143357e-04 4.256149523260e-03 0.0 
0.0 0.0 0.0 
-4.185957495513e-04 -3.647969231833e-04 0.0 
-3.647969231833e-04 1.735809464016e-03 0.0 
0.0 0.0 0.0 
6.161769323402e-05 6.545266905236e-04 0.0 
6.545266905236e-04 6.583387653729e-03 0.0 
0.0 0.0 0.0 
-2.777901744014e-04 6.361649809731e-04 0.0 
6.361649809731e-04 4.087698990719e-03 0.0 
0.0 0.0 0.0 
3.771125467055e-04 -9.274449017140e-04 0.0 
-9.274449017140e-04 2.925945984944e-03 0.0 
0.0 0.0 0.0 
-4.885213988341e-04 -7.232735700785e-04 0.0 
-7.232735700785e-04 3.266669158769e-03 0.0 
0.0 0.0 0.0 
-4.532797943972e-04 -1.026961416001e-03 0.0 
-1.026961416001e-03 2.368834045135e-03 0.0 
0.0 0.0 0.0 
-2.219845766890e-04 -1.669178267312e-03 0.0 
-1.669178267312e-03 1.237023312192e-03 0.0 
0.0 0.0 0.0 
4.024958028234e-04 1.095931363299e-03 0.0 
1.095931363299e-03 2.495166582468e-03 0.0 
0.0 0.0 0.0 
-1.097612827841e-04 -9.208413218120e-04 0.0 
-9.208413218120e-04 3.338307434686e-03 0.0 
0.0 0.0 0.0 
7.050482179046e-05 -5.378787155495e-04 0.0 
-5.378787155495e-04 5.011946688339e-03 0.0 
0.0 0.0 0.0 
-1.893387216059e-04 1.066149509046e-04 0.0 
1.066149509046e-04 6.850967024753e-03 0.0 
0.0 0.0 0.0 
3.711912612764e-04 -1.022005269047e-05 0.0 
-1.022005269047e-05 1.300462384075e-04 0.0 
0.0 0.0 0.0 
1.567742229833e-04 -4.970866725348e-04 0.0 
-4.970866725348e-04 5.113414580245e-03 0.0 
0.0 0.0 0.0 
-5.154082063580e-05 -7.297634082007e-04 0.0 
-7.297634082007e-04 4.109050717423e-03 0.0 
0.0 0.0 0.0 
-3.022356363587e-04 1.733931004792e-04 0.0 
1.733931004792e-04 5.881820215169e-03 0.0 
0.0 0.0 0.0 
6.851834106587e-04 1.432757059844e-04 0.0 
1.432757059844e-04 4.356874204188e-03 0.0 
0.0 0.0 0.0 
-4.187958874076e-05 -2.232290236649e-03 0.0 
-2.232290236649e-03 -2.001558028638e-04 0.0 
0.0 0.0 0.0 
-2.215807577101e-04 1.872534333792e-04 0.0 
1.872534333792e-04 6.735296641467e-03 0.0 
0.0 0.0 0.0 
-1.560123427820e-04 3.453580664564e-04 0.0 
3.453580664564e-04 7.310985595052e-03 0.0 
0.0 0.0 0.0 
-3.384511187551e-04 1.812095867002e-04 0.0 
1.812095867002e-04 5.405939044470e-03 0.0 
0.0 0.0 0.0 
-2.559887869399e-04 -2.400457740088e-04 0.0 
-2.400457740088e-04 1.303725075731e-03 0.0 
0.0 0.0 0.0 
-2.994740586130e-04 8.140276322695e-05 0.0 
8.140276322695e-05 5.356262098171e-03 0.0 
0.0 0.0 0.0 
1.986069521792e-04 -3.528366211164e-04 0.0 
-3.528366211164e-04 5.860606964553e-03 0.0 
0.0 0.0 0.0 
-2.602082611890e-04 3.398676678127e-04 0.0 
3.398676678127e-04 6.476390945940e-03 0.0 
0.0 0.0 0.0 
-5.158510877493e-04 -3.289951436308e-04 0.0 
-3.289951436308e-04 2.524346668598e-03 0.0 
0.0 0.0 0.0 
1.142746627149e-03 -1.535064806861e-04 0.0 
-1.535064806861e-04 2.059247336657e-03 0.0 
0.0 0.0 0.0 
2.123700414205e-05 9.250031733778e-04 0.0 
9.250031733778e-04 3.403048055720e-03 0.0 
0.0 0.0 0.0 
-4.049880212277e-04 2.764558869306e-04 0.0 
2.764558869306e-04 4.052296546717e-03 0.0 
0.0 0.0 0.0 
-1.335033434880e-04 1.523843450324e-04 0.0 
1.523843450324e-04 7.397467876130e-03 0.0 
0.0 0.0 0.0 
7.317400394419e-04 7.844475070601e-04 0.0 
7.844475070601e-04 2.814734423773e-03 0.0 
0.0 0.0 0.0 
5.614226418471e-04 -4.489350064798e-05 0.0 
-4.489350064798e-05 4.841973982180e-03 0.0 
0.0 0.0 0.0 
9.085676790432e-04 -1.074328347530e-04 0.0 
-1.074328347530e-04 3.212320593011e-03 0.0 
0.0 0.0 0.0 
-5.328021700434e-04 -2.637059605235e-04 0.0 
-2.637059605235e-04 2.727078378261e-03 0.0 
0.0 0.0 0.0 
-2.319555679984e-05 -4.518334284917e-04 0.0 
-4.518334284917e-04 5.764049977086e-03 0.0 
0.0 0.0 0.0 
1.115382811894e-03 4.580230549764e-04 0.0 
4.580230549764e-04 1.981057574847e-03 0.0 
0.0 0.0 0.0 
-1.787511272451e-04 2.124750473621e-04 0.0 
2.124750473621e-04 7.121718455305e-03 0.0 
0.0 0.0 0.0 
8.239372474409e-05 6.802183389349e-04 0.0 
6.802183389349e-04 5.212674980515e-03 0.0 
0.0 0.0 0.0 
1.489107414015e-03 1.126388463107e-04 0.0 
1.126388463107e-04 4.933162161316e-04 0.0 
0.0 0.0 0.0 
-2.238966547116e-04 2.730675847680e-04 0.0 
2.730675847680e-04 6.812862904444e-03 0.0 
0.0 0.0 0.0 
7.132292968713e-04 -8.018743168637e-04 0.0 
-8.018743168637e-04 2.511894667468e-03 0.0 
0.0 0.0 0.0 
6.033083166198e-04 2.359107419673e-04 0.0 
2.359107419673e-04 4.690069954564e-03 0.0 
0.0 0.0 0.0 
-2.550307769225e-04 7.113242002686e-04 0.0 
7.113242002686e-04 3.789704607109e-03 0.0 
0.0 0.0 0.0 
4.354701670160e-05 7.533217140634e-04 0.0 
7.533217140634e-04 4.456130964982e-03 0.0 
0.0 0.0 0.0 
-1.744214497746e-04 5.876855108158e-04 0.0 
5.876855108158e-04 5.406890911987e-03 0.0 
0.0 0.0 0.0 
3.410491009018e-04 8.388593496650e-04 0.0 
8.388593496650e-04 3.684626408908e-03 0.0 
0.0 0.0 0.0 
-5.400939383265e-04 -1.464332579894e-04 0.0 
-1.464332579894e-04 5.527449578159e-03 0.0 
0.0 0.0 0.0 
5.823887132050e-05 -4.766816316196e-04 0.0 
-4.766816316196e-04 5.446726142930e-03 0.0 
0.0 0.0 0.0 
2.208829595754e-03 -1.034482812117e-03 0.0 
-1.034482812117e-03 -3.476459379138e-03 0.0 
0.0 0.0 0.0 
2.283085619273e-04 1.347687197501e-03 0.0 
1.347687197501e-03 1.828879911781e-03 0.0 
0.0 0.0 0.0 
-3.166614043410e-04 2.172990390607e-04 0.0 
2.172990390607e-04 5.805523817356e-03 0.0 
0.0 0.0 0.0 
1.894711482409e-04 6.201658798687e-04 0.0 
6.201658798687e-04 5.716398635514e-03 0.0 
0.0 0.0 0.0 
-1.277031271884e-04 2.373351424569e-04 0.0 
2.373351424569e-04 7.498547494915e-03 0.0 
0.0 0.0 0.0 
-5.267166945352e-05 9.791655370623e-04 0.0 
9.791655370623e-04 3.090286802423e-03 0.0 
0.0 0.0 0.0 
-1.010472298097e-04 -4.584081099873e-04 0.0 
-4.584081099873e-04 5.651722907719e-03 0.0 
0.0 0.0 0.0 
-1.759132624442e-04 3.034231792994e-04 0.0 
3.034231792994e-04 7.182561095815e-03 0.0 
0.0 0.0 0.0 
-2.163368420680e-04 -8.088334825686e-04 0.0 
-8.088334825686e-04 3.693006687602e-03 0.0 
0.0 0.0 0.0 
-2.722879660831e-04 -3.416955449854e-05 0.0 
-3.416955449854e-05 1.897146533649e-03 0.0 
0.0 0.0 0.0 
1.210123639884e-03 2.176011905990e-03 0.0 
2.176011905990e-03 -2.449796545733e-03 0.0 
0.0 0.0 0.0 
1.812614646235e-03 2.446678455436e-04 0.0 
2.446678455436e-04 -9.615258246498e-04 0.0 
0.0 0.0 0.0 
8.848349297685e-04 7.492213415341e-04 0.0 
7.492213415341e-04 2.358328046345e-03 0.0 
0.0 0.0 0.0 
-1.816148049724e-04 -7.280569057981e-04 0.0 
-7.280569057981e-04 4.065816728847e-03 0.0 
0.0 0.0 0.0 
-1.284786746921e-04 4.628682830260e-04 0.0 
4.628682830260e-04 7.367651835780e-03 0.0 
0.0 0.0 0.0 
-1.590532389783e-04 -4.128392739715e-04 0.0 
-4.128392739715e-04 5.941829130755e-03 0.0 
0.0 0.0 0.0 
4.539176499950e-04 -4.143522381613e-04 0.0 
-4.143522381613e-04 4.543984111441e-03 0.0 
0.0 0.0 0.0 
-6.389981065188e-04 1.881860940743e-03 0.0 
1.881860940743e-03 -1.615316904076e-04 0.0 
0.0 0.0 0.0 
-3.987982824772e-04 3.511892634495e-04 0.0 
3.511892634495e-04 4.153112639813e-03 0.0 
0.0 0.0 0.0 
-1.994400298185e-04 -3.653399847599e-04 0.0 
-3.653399847599e-04 6.214974856532e-03 0.0 
0.0 0.0 0.0 
1.029982969527e-03 -3.214910382954e-04 0.0 
-3.214910382954e-04 2.391966414132e-03 0.0 
0.0 0.0 0.0 
5.657716575477e-04 1.379425774550e-04 0.0 
1.379425774550e-04 4.879711927564e-03 0.0 
0.0 0.0 0.0 
-6.415289539632e-04 -1.293395706539e-04 0.0 
-1.293395706539e-04 4.615270190369e-03 0.0 
0.0 0.0 0.0 
1.012249342410e-04 6.298085260169e-04 0.0 
6.298085260169e-04 6.455558332928e-03 0.0 
0.0 0.0 0.0 
-4.215612873818e-04 5.638069273273e-04 0.0 
5.638069273273e-04 3.166625653602e-03 0.0 
0.0 0.0 0.0 
-2.238168103680e-04 -3.175399369876e-04 0.0 
-3.175399369876e-04 6.475851161768e-03 0.0 
0.0 0.0 0.0 
5.988061228431e-04 -2.598086976135e-04 0.0 
-2.598086976135e-04 4.377911729623e-03 0.0 
0.0 0.0 0.0 
9.171535995773e-04 1.450761390570e-03 0.0 
1.450761390570e-03 4.296832240093e-04 0.0 
0.0 0.0 0.0 
-2.657316017157e-04 8.703626990973e-06 0.0 
8.703626990973e-06 4.618029300461e-03 0.0 
0.0 0.0 0.0 
-1.515473003600e-04 -3.093814755700e-04 0.0 
-3.093814755700e-04 6.903401644735e-03 0.0 
0.0 0.0 0.0 
4.923710821244e-04 -2.178573798567e-04 0.0 
-2.178573798567e-04 4.907337704902e-03 0.0 
0.0 0.0 0.0 
3.476006242028e-04 7.620246779744e-04 0.0 
7.620246779744e-04 4.082622279182e-03 0.0 
0.0 0.0 0.0 
9.924121836787e-04 -5.296830507781e-04 0.0 
-5.296830507781e-04 2.194206620420e-03 0.0 
0.0 0.0 0.0 
-4.220557226103e-04 3.398360461197e-04 0.0 
3.398360461197e-04 3.588462893197e-03 0.0 
0.0 0.0 0.0 
-2.703791956034e-04 -6.332034978066e-04 0.0 
-6.332034978066e-04 4.388897864205e-03 0.0 
0.0 0.0 0.0 
-2.040461546206e-05 7.028213040785e-04 0.0 
7.028213040785e-04 4.804862259452e-03 0.0 
0.0 0.0 0.0 
-6.036648848812e-05 4.057759964692e-04 0.0 
4.057759964692e-04 7.828559329350e-03 0.0 
0.0 0.0 0.0 
4.712880898669e-04 -1.241494644793e-04 0.0 
-1.241494644793e-04 5.112227771723e-03 0.0 
0.0 0.0 0.0 
-3.086180595586e-04 3.854145184048e-04 0.0 
3.854145184048e-04 5.717197584551e-03 0.0 
0.0 0.0 0.0 
-3.767805321569e-04 -5.966230164073e-04 0.0 
-5.966230164073e-04 4.320342923035e-03 0.0 
0.0 0.0 0.0 
6.962039468919e-04 4.925052301727e-04 0.0 
4.925052301727e-04 3.856448590750e-03 0.0 
0.0 0.0 0.0 
7.798681806448e-05 -4.032792157587e-05 0.0 
-4.032792157587e-05 8.930327751469e-04 0.0 
0.0 0.0 0.0 
-4.102623781118e-04 4.362523247305e-04 0.0 
4.362523247305e-04 3.669856422808e-03 0.0 
0.0 0.0 0.0 
-4.354894815303e-04 -4.983028302044e-04 0.0 
-4.983028302044e-04 4.599225566237e-03 0.0 
0.0 0.0 0.0 
1.729176207493e-03 -2.315081899758e-04 0.0 
-2.315081899758e-04 -6.173590684264e-04 0.0 
0.0 0.0 0.0 
8.244478282071e-04 -6.289751960086e-04 0.0 
-6.289751960086e-04 2.605071869442e-03 0.0 
0.0 0.0 0.0 
3.052533709962e-04 3.721669571804e-04 0.0 
3.721669571804e-04 5.871886653146e-03 0.0 
0.0 0.0 0.0 
-4.805237849788e-04 -4.052505203801e-04 0.0 
-4.052505203801e-04 4.858089843223e-03 0.0 
0.0 0.0 0.0 
1.559741507955e-03 -2.153947183056e-04 0.0 
-2.153947183056e-04 1.198708015334e-04 0.0 
0.0 0.0 0.0 
-5.122373326057e-04 -3.170204996964e-04 0.0 
-3.170204996964e-04 5.097430692970e-03 0.0 
0.0 0.0 0.0 
-4.401570303787e-04 4.333178934640e-04 0.0 
4.333178934640e-04 3.125919316362e-03 0.0 
0.0 0.0 0.0 
-2.804852392359e-04 4.352959600116e-04 0.0 
4.352959600116e-04 5.823099421413e-03 0.0 
0.0 0.0 0.0 
-5.316967729601e-04 -2.318526731399e-04 0.0 
-2.318526731399e-04 5.320199544389e-03 0.0 
0.0 0.0 0.0 
5.198645230538e-06 6.762397386909e-04 0.0 
6.762397386909e-04 5.175228319233e-03 0.0 
0.0 0.0 0.0 
-4.794085909181e-05 -1.146841120033e-04 0.0 
-1.146841120033e-04 9.942309728103e-04 0.0 
0.0 0.0 0.0 
4.468995988827e-04 7.051654481381e-04 0.0 
7.051654481381e-04 4.100323684517e-03 0.0 
0.0 0.0 0.0 
-3.407729363249e-04 -1.171418393909e-04 0.0 
-1.171418393909e-04 6.613133885170e-03 0.0 
0.0 0.0 0.0 
-1.032228752733e-04 -1.260836448978e-03 0.0 
-1.260836448978e-03 2.245087841111e-03 0.0 
0.0 0.0 0.0 
6.548538300949e-04 -6.815868485572e-04 0.0 
-6.815868485572e-04 3.021000426408e-03 0.0 
0.0 0.0 0.0 
-2.407261864281e-04 4.633661389771e-04 0.0 
4.633661389771e-04 6.193306465617e-03 0.0 
0.0 0.0 0.0 
-4.701619969195e-04 5.581965470852e-04 0.0 
5.581965470852e-04 2.659289361269e-03 0.0 
0.0 0.0 0.0 
5.921712505632e-04 -5.773157276533e-04 0.0 
-5.773157276533e-04 3.528200700151e-03 0.0 
0.0 0.0 0.0 
2.036424400085e-05 6.564293450980e-04 0.0 
6.564293450980e-04 5.560273770620e-03 0.0 
0.0 0.0 0.0 
5.278449926218e-04 6.310210918882e-04 0.0 
6.310210918882e-04 4.149275100750e-03 0.0 
0.0 0.0 0.0 
8.322943879604e-04 6.449404033320e-04 0.0 
6.449404033320e-04 2.854242102159e-03 0.0 
0.0 0.0 0.0 
5.257183804313e-04 -4.877890539463e-04 0.0 
-4.877890539463e-04 4.036176708321e-03 0.0 
0.0 0.0 0.0 
-4.407893578762e-04 7.344255283621e-04 0.0 
7.344255283621e-04 2.646726173188e-03 0.0 
0.0 0.0 0.0 
-5.289621794232e-04 -1.004432850445e-03 0.0 
-1.004432850445e-03 2.088753273921e-03 0.0 
0.0 0.0 0.0 
-5.875743711599e-04 -9.245754600383e-04 0.0 
-9.245754600383e-04 1.816474794363e-03 0.0 
0.0 0.0 0.0 
1.403334765981e-03 -5.186116655929e-04 0.0 
-5.186116655929e-04 5.389516857220e-04 0.0 
0.0 0.0 0.0 
-2.882157000148e-05 6.375809183983e-04 0.0 
6.375809183983e-04 5.898011142391e-03 0.0 
0.0 0.0 0.0 
-7.129709995844e-05 -5.124216565737e-05 0.0 
-5.124216565737e-05 1.311972547304e-03 0.0 
0.0 0.0 0.0 
-2.030380803614e-04 5.284710970594e-04 0.0 
5.284710970594e-04 5.997868630707e-03 0.0 
0.0 0.0 0.0 
-6.400145248018e-04 -9.018823505437e-04 0.0 
-9.018823505437e-04 1.320362412477e-03 0.0 
0.0 0.0 0.0 
1.314719701948e-03 -8.675786715030e-04 0.0 
-8.675786715030e-04 3.835261317227e-04 0.0 
0.0 0.0 0.0 
5.093030819409e-04 4.919098708704e-04 0.0 
4.919098708704e-04 4.739060307812e-03 0.0 
0.0 0.0 0.0 
-2.431210250154e-04 2.631137303664e-06 0.0 
2.631137303664e-06 5.764510634642e-03 0.0 
0.0 0.0 0.0 
1.061529034016e-03 -1.026366336681e-03 0.0 
-1.026366336681e-03 9.372470912928e-04 0.0 
0.0 0.0 0.0 
-4.071993775869e-04 -4.440511118334e-05 0.0 
-4.440511118334e-05 2.346223909266e-03 0.0 
0.0 0.0 0.0 
8.458810396084e-04 -1.283855699589e-03 0.0 
-1.283855699589e-03 9.647154576845e-04 0.0 
0.0 0.0 0.0 
7.690855952871e-04 5.602847048479e-04 0.0 
5.602847048479e-04 3.352302107924e-03 0.0 
0.0 0.0 0.0 
5.886396120211e-04 -1.281030452460e-03 0.0 
-1.281030452460e-03 1.535059246268e-03 0.0 
0.0 0.0 0.0 
3.258269265212e-04 -1.393289276099e-03 0.0 
-1.393289276099e-03 1.650725575325e-03 0.0 
0.0 0.0 0.0 
-1.027334362043e-04 1.370370673261e-04 0.0 
1.370370673261e-04 7.621388805777e-03 0.0 
0.0 0.0 0.0 
1.278269482319e-04 -1.278342521296e-03 0.0 
-1.278342521296e-03 2.146022010561e-03 0.0 
0.0 0.0 0.0 
-4.410494265676e-05 3.896019947499e-05 0.0 
3.896019947499e-05 8.005657067877e-03 0.0 
0.0 0.0 0.0 
-1.211043204557e-04 -1.125776827783e-04 0.0 
-1.125776827783e-04 7.358112442324e-03 0.0 
0.0 0.0 0.0 
-2.623588463388e-04 -1.131924022186e-07 0.0 
-1.131924022186e-07 4.940494160469e-03 0.0 
0.0 0.0 0.0 
-5.153714387292e-04 6.895949999804e-04 0.0 
6.895949999804e-04 2.193623537033e-03 0.0 
0.0 0.0 0.0 
-7.813235382519e-04 3.048821577583e-05 0.0 
3.048821577583e-05 -4.368370959310e-03 0.0 
0.0 0.0 0.0 
-4.688467618879e-04 1.014822994506e-03 0.0 
1.014822994506e-03 2.074589203469e-03 0.0 
0.0 0.0 0.0 
-2.014358213013e-04 -1.357431313644e-03 0.0 
-1.357431313644e-03 1.942800970653e-03 0.0 
0.0 0.0 0.0 
-1.404685048424e-04 5.928532687610e-04 0.0 
5.928532687610e-04 5.766931107308e-03 0.0 
0.0 0.0 0.0 
-2.632544380633e-04 1.262023577632e-05 0.0 
1.262023577632e-05 4.956525943360e-03 0.0 
0.0 0.0 0.0 
-4.042117708990e-04 -1.211771227137e-03 0.0 
-1.211771227137e-03 2.050856782500e-03 0.0 
0.0 0.0 0.0 
-7.747267933339e-05 6.141333233113e-04 0.0 
6.141333233113e-04 7.103514669986e-03 0.0 
0.0 0.0 0.0 
8.152301183340e-05 5.890773184530e-04 0.0 
5.890773184530e-04 6.697910016203e-03 0.0 
0.0 0.0 0.0 
-2.127199814894e-04 2.663256550281e-05 0.0 
2.663256550281e-05 6.355311088556e-03 0.0 
0.0 0.0 0.0 
5.049849512972e-04 5.376654247912e-05 0.0 
5.376654247912e-05 5.088795327058e-03 0.0 
0.0 0.0 0.0 
5.840397590828e-04 5.409825768682e-04 0.0 
5.409825768682e-04 4.242907005444e-03 0.0 
0.0 0.0 0.0 
-1.328270990858e-04 1.727177709030e-05 0.0 
1.727177709030e-05 7.299665596175e-03 0.0 
0.0 0.0 0.0 
-2.855843005194e-04 1.553571968600e-05 0.0 
1.553571968600e-05 4.584822127951e-03 0.0 
0.0 0.0 0.0 
-2.322842349461e-04 -3.391591213474e-04 0.0 
-3.391591213474e-04 5.780535823124e-04 0.0 
0.0 0.0 0.0 
-5.277196864829e-04 -6.929015998780e-05 0.0 
-6.929015998780e-05 5.740055024380e-03 0.0 
0.0 0.0 0.0 
-6.026135286803e-04 8.980959466246e-04 0.0 
8.980959466246e-04 1.727640752454e-03 0.0 
0.0 0.0 0.0 
-5.484732356691e-04 1.358925808430e-03 0.0 
1.358925808430e-03 1.416854543505e-03 0.0 
0.0 0.0 0.0 
-4.901746733069e-04 1.754634717577e-03 0.0 
1.754634717577e-03 6.388825420119e-04 0.0 
0.0 0.0 0.0 
-5.512517078565e-04 -1.944858304956e-04 0.0 
-1.944858304956e-04 2.891028089079e-03 0.0 
0.0 0.0 0.0 
-6.096707358298e-04 -1.666874280855e-03 0.0 
-1.666874280855e-03 3.813833832489e-04 0.0 
0.0 0.0 0.0 
-6.923603686250e-04 1.199353589676e-03 0.0 
1.199353589676e-03 1.262681734289e-03 0.0 
0.0 0.0 0.0 
3.079284094239e-04 1.179495270112e-04 0.0 
1.179495270112e-04 5.848420935545e-03 0.0 
0.0 0.0 0.0 
-3.206789415944e-04 7.769910620198e-05 0.0 
7.769910620198e-05 4.942618420094e-03 0.0 
0.0 0.0 0.0 
4.090181963574e-04 5.263645997264e-04 0.0 
5.263645997264e-04 5.090652186665e-03 0.0 
0.0 0.0 0.0 
-6.640003925951e-04 1.480698492911e-03 0.0 
1.480698492911e-03 6.254459865434e-04 0.0 
0.0 0.0 0.0 
-1.218866507433e-04 3.299547347685e-04 0.0 
3.299547347685e-04 7.538452725763e-03 0.0 
0.0 0.0 0.0 
2.177051882201e-04 4.929414758988e-04 0.0 
4.929414758988e-04 6.113855443926e-03 0.0 
0.0 0.0 0.0 
-1.408895997708e-05 -4.255868495299e-04 0.0 
-4.255868495299e-04 6.972118902826e-03 0.0 
0.0 0.0 0.0 
3.278389699508e-04 4.993251896104e-04 0.0 
4.993251896104e-04 5.573144102631e-03 0.0 
0.0 0.0 0.0 
-2.279212374236e-04 2.221862841697e-03 0.0 
2.221862841697e-03 -4.672461060434e-04 0.0 
0.0 0.0 0.0 
-3.498247647840e-04 1.900943767284e-04 0.0 
1.900943767284e-04 5.224434936807e-03 0.0 
0.0 0.0 0.0 
2.476449402781e-05 6.632360660330e-04 0.0 
6.632360660330e-04 6.695108034408e-03 0.0 
0.0 0.0 0.0 
-1.928277060816e-04 4.684834331964e-05 0.0 
4.684834331964e-05 6.670198148307e-03 0.0 
0.0 0.0 0.0 
-4.690729055867e-05 -3.804028186361e-04 0.0 
-3.804028186361e-04 7.144063781155e-03 0.0 
0.0 0.0 0.0 
-3.423108082812e-04 1.188662753031e-04 0.0 
1.188662753031e-04 4.871169266375e-03 0.0 
0.0 0.0 0.0 
-8.831931953357e-05 9.225265621686e-05 0.0 
9.225265621686e-05 7.685741095970e-03 0.0 
0.0 0.0 0.0 
1.740322369403e-03 -1.779099292642e-03 0.0 
-1.779099292642e-03 -3.130960600981e-03 0.0 
0.0 0.0 0.0 
-8.416612688456e-05 4.941405551323e-05 0.0 
4.941405551323e-05 7.697509304267e-03 0.0 
0.0 0.0 0.0 
-1.105703342363e-04 6.008808791701e-04 0.0 
6.008808791701e-04 6.141568409198e-03 0.0 
0.0 0.0 0.0 
-2.650571084461e-04 4.537517022019e-05 0.0 
4.537517022019e-05 5.463337665741e-03 0.0 
0.0 0.0 0.0 
-3.617757264617e-04 2.619305696586e-04 0.0 
2.619305696586e-04 5.145129936902e-03 0.0 
0.0 0.0 0.0 
-1.815594711759e-04 -1.676770754695e-04 0.0 
-1.676770754695e-04 7.108666133590e-03 0.0 
0.0 0.0 0.0 
-1.094847044303e-04 5.472866690204e-04 0.0 
5.472866690204e-04 7.262873444400e-03 0.0 
0.0 0.0 0.0 
5.499982422620e-05 2.454461012168e-03 0.0 
2.454461012168e-03 -1.459270639547e-03 0.0 
0.0 0.0 0.0 
-2.161470757730e-04 4.757764469884e-05 0.0 
4.757764469884e-05 6.330665856992e-03 0.0 
0.0 0.0 0.0 
-6.177880317574e-04 -3.296924012229e-04 0.0 
-3.296924012229e-04 3.512361106940e-03 0.0 
0.0 0.0 0.0 
7.144380172581e-04 -1.627193391021e-03 0.0 
-1.627193391021e-03 -4.068924527661e-03 0.0 
0.0 0.0 0.0 
5.423023330939e-05 -3.981794335279e-04 0.0 
-3.981794335279e-04 6.420977408749e-03 0.0 
0.0 0.0 0.0 
-8.457219130790e-05 6.134734429958e-04 0.0 
6.134734429958e-04 6.504864003971e-03 0.0 
0.0 0.0 0.0 
-1.656080036615e-04 -2.598739506944e-04 0.0 
-2.598739506944e-04 7.008953155551e-03 0.0 
0.0 0.0 0.0 
1.180728711587e-04 3.489922640388e-06 0.0 
3.489922640388e-06 8.750714270451e-04 0.0 
0.0 0.0 0.0 
4.433706462497e-05 -9.250819654354e-05 0.0 
-9.250819654354e-05 4.845623773422e-04 0.0 
0.0 0.0 0.0 
1.344958165943e-04 -3.465003615396e-04 0.0 
-3.465003615396e-04 6.286747840895e-03 0.0 
0.0 0.0 0.0 
-3.699690889168e-05 6.574959288204e-04 0.0 
6.574959288204e-04 6.967753189464e-03 0.0 
0.0 0.0 0.0 
1.148063552588e-03 -2.202553073856e-03 0.0 
-2.202553073856e-03 -1.920845839635e-03 0.0 
0.0 0.0 0.0 
-5.109750471366e-05 2.934432795167e-04 0.0 
2.934432795167e-04 7.968084040536e-03 0.0 
0.0 0.0 0.0 
-9.458703162509e-06 2.419220875495e-03 0.0 
2.419220875495e-03 -2.380075485873e-03 0.0 
0.0 0.0 0.0 
-3.019149889944e-04 3.831461935975e-05 0.0 
3.831461935975e-05 4.534808740987e-03 0.0 
0.0 0.0 0.0 
2.052733915716e-04 -3.874921226999e-05 0.0 
-3.874921226999e-05 4.658419949675e-04 0.0 
0.0 0.0 0.0 
-6.350003508360e-05 -3.399484727882e-04 0.0 
-3.399484727882e-04 7.237419584986e-03 0.0 
0.0 0.0 0.0 
-1.033051847396e-04 2.228870645067e-04 0.0 
2.228870645067e-04 7.656221464221e-03 0.0 
0.0 0.0 0.0 
-6.470375880606e-04 -2.113631451049e-04 0.0 
-2.113631451049e-04 3.894925613438e-03 0.0 
0.0 0.0 0.0 
-3.818880118074e-04 2.082405383590e-04 0.0 
2.082405383590e-04 4.534487852184e-03 0.0 
0.0 0.0 0.0 
-4.845485245093e-04 -1.084225723387e-04 0.0 
-1.084225723387e-04 2.636093129369e-03 0.0 
0.0 0.0 0.0 
1.574189044466e-04 6.212490157181e-04 0.0 
6.212490157181e-04 6.073140802980e-03 0.0 
0.0 0.0 0.0 
-5.557752349578e-04 -7.448824228707e-04 0.0 
-7.448824228707e-04 8.660639533671e-04 0.0 
0.0 0.0 0.0 
-9.332748664181e-05 1.620333081485e-04 0.0 
1.620333081485e-04 7.717975332203e-03 0.0 
0.0 0.0 0.0 
2.044768076924e-04 -2.330239626474e-04 0.0 
-2.330239626474e-04 6.134532334706e-03 0.0 
0.0 0.0 0.0 
-1.136954560386e-04 4.393121854443e-04 0.0 
4.393121854443e-04 7.515220497330e-03 0.0 
0.0 0.0 0.0 
1.204328058130e-04 2.940561607344e-04 0.0 
2.940561607344e-04 6.508585754942e-03 0.0 
0.0 0.0 0.0 
6.253269611587e-04 7.684742293866e-04 0.0 
7.684742293866e-04 -4.629036702167e-03 0.0 
0.0 0.0 0.0 
1.582484168054e-04 5.484899452624e-04 0.0 
5.484899452624e-04 6.332026586156e-03 0.0 
0.0 0.0 0.0 
3.696611027723e-04 -1.044230988090e-04 0.0 
-1.044230988090e-04 5.557544074660e-03 0.0 
0.0 0.0 0.0 
-2.761875985870e-04 2.210620134969e-05 0.0 
2.210620134969e-05 4.583325748041e-03 0.0 
0.0 0.0 0.0 
-1.127418610948e-04 5.045570570166e-04 0.0 
5.045570570166e-04 7.369634917200e-03 0.0 
0.0 0.0 0.0 
-5.964416682625e-04 -1.995581798659e-04 0.0 
-1.995581798659e-04 3.213044301791e-03 0.0 
0.0 0.0 0.0 
-1.503101012878e-04 -1.428186035581e-04 0.0 
-1.428186035581e-04 1.312007840962e-03 0.0 
0.0 0.0 0.0 
-3.461253789809e-05 1.632104330569e-05 0.0 
1.632104330569e-05 8.048181136096e-03 0.0 
0.0 0.0 0.0 
5.584161583823e-04 1.267485234300e-05 0.0 
1.267485234300e-05 -4.476123973161e-05 0.0 
0.0 0.0 0.0 
-2.637343864534e-04 -1.327358464638e-06 0.0 
-1.327358464638e-06 4.560875393623e-03 0.0 
0.0 0.0 0.0 
-9.593924194757e-05 -4.596188963943e-05 0.0 
-4.596188963943e-05 7.446968728162e-03 0.0 
0.0 0.0 0.0 
-4.663253777575e-05 -6.397764859143e-05 0.0 
-6.397764859143e-05 1.214343107941e-03 0.0 
0.0 0.0 0.0 
-2.581699131559e-04 8.719802423217e-06 0.0 
8.719802423217e-06 5.247001563577e-03 0.0 
0.0 0.0 0.0 
-5.465935982479e-05 6.396963304001e-04 0.0 
6.396963304001e-04 7.078162185763e-03 0.0 
0.0 0.0 0.0 
-6.463422477951e-04 -5.683639851014e-05 0.0 
-5.683639851014e-05 4.722407063083e-03 0.0 
0.0 0.0 0.0 
-1.542735816938e-04 2.505829780448e-05 0.0 
2.505829780448e-05 7.073031284519e-03 0.0 
0.0 0.0 0.0 
-3.223825153129e-04 -2.124540894928e-03 0.0 
-2.124540894928e-03 -8.082588529523e-05 0.0 
0.0 0.0 0.0 
-9.451213925580e-04 -6.308366039637e-04 0.0 
-6.308366039637e-04 -4.246658647594e-03 0.0 
0.0 0.0 0.0 
-2.338878297964e-04 1.424538764742e-05 0.0 
1.424538764742e-05 5.979989069888e-03 0.0 
0.0 0.0 0.0 
2.242185727171e-04 4.349998285076e-04 0.0 
4.349998285076e-04 6.121830403823e-03 0.0 
0.0 0.0 0.0 
-1.097801042121e-04 3.667154973566e-04 0.0 
3.667154973566e-04 7.611792430347e-03 0.0 
0.0 0.0 0.0 
-2.548462320411e-04 4.560515430303e-05 0.0 
4.560515430303e-05 5.691443405439e-03 0.0 
0.0 0.0 0.0 
8.157552396248e-04 2.376155661494e-03 0.0 
2.376155661494e-03 -2.267045434322e-03 0.0 
0.0 0.0 0.0 
-6.431077248177e-05 6.344229120458e-04 0.0 
6.344229120458e-04 6.800517717965e-03 0.0 
0.0 0.0 0.0 
-6.414565370388e-04 -2.220223247616e-04 0.0 
-2.220223247616e-04 4.163864710001e-03 0.0 
0.0 0.0 0.0 
5.368732137221e-05 6.512166853255e-04 0.0 
6.512166853255e-04 6.365232043629e-03 0.0 
0.0 0.0 0.0 
3.983301319198e-04 6.002917478694e-05 0.0 
6.002917478694e-05 5.515818832601e-03 0.0 
0.0 0.0 0.0 
-7.630964686487e-04 2.065558499603e-03 0.0 
2.065558499603e-03 -1.710588565042e-03 0.0 
0.0 0.0 0.0 
-6.229767900946e-04 -4.657268368349e-05 0.0 
-4.657268368349e-05 5.036712619396e-03 0.0 
0.0 0.0 0.0 
1.956334056811e-04 -5.087552465220e-05 0.0 
-5.087552465220e-05 4.270337612585e-04 0.0 
0.0 0.0 0.0 
-4.288887290891e-05 -4.081683510586e-04 0.0 
-4.081683510586e-04 6.763891819714e-03 0.0 
0.0 0.0 0.0 
-6.515924660634e-04 -1.552881830648e-04 0.0 
-1.552881830648e-04 4.347385453229e-03 0.0 
0.0 0.0 0.0 
-6.619066116668e-04 5.620388706595e-04 0.0 
5.620388706595e-04 4.605555583072e-04 0.0 
0.0 0.0 0.0 
-6.147368786019e-05 -1.614718858602e-06 0.0 
-1.614718858602e-06 1.348902854731e-04 0.0 
0.0 0.0 0.0 
-5.745600309730e-04 8.070421037798e-04 0.0 
8.070421037798e-04 4.719203965724e-04 0.0 
0.0 0.0 0.0 
-1.058252754411e-04 -1.669574920025e-06 0.0 
-1.669574920025e-06 5.345604350147e-04 0.0 
0.0 0.0 0.0 
-6.572995796430e-04 7.626397448134e-04 0.0 
7.626397448134e-04 9.302290616766e-04 0.0 
0.0 0.0 0.0 
-1.238796556447e-04 2.866699922470e-06 0.0 
2.866699922470e-06 9.948453642845e-04 0.0 
0.0 0.0 0.0 
-6.626496192715e-04 6.839663177416e-04 0.0 
6.839663177416e-04 1.368891484100e-03 0.0 
0.0 0.0 0.0 
-1.365090692431e-04 -4.124193280405e-06 0.0 
-4.124193280405e-06 1.401095866980e-03 0.0 
0.0 0.0 0.0 
-5.595673606328e-04 5.539475473933e-04 0.0 
5.539475473933e-04 1.768071809651e-03 0.0 
0.0 0.0 0.0 
-1.591012481124e-04 -4.548212294826e-06 0.0 
-4.548212294826e-06 1.868382298572e-03 0.0 
0.0 0.0 0.0 
-4.916279737372e-04 4.424424123512e-04 0.0 
4.424424123512e-04 2.171439577994e-03 0.0 
0.0 0.0 0.0 
-1.832567130090e-04 -4.688879526365e-06 0.0 
-4.688879526365e-06 2.282442607593e-03 0.0 
0.0 0.0 0.0 
-4.523450914850e-04 3.434981163948e-04 0.0 
3.434981163948e-04 2.597028799883e-03 0.0 
0.0 0.0 0.0 
-2.059005264749e-04 -4.305768176540e-06 0.0 
-4.305768176540e-06 2.749534302245e-03 0.0 
0.0 0.0 0.0 
-4.267441196161e-04 2.709387525773e-04 0.0 
2.709387525773e-04 3.030648768600e-03 0.0 
0.0 0.0 0.0 
-2.267614163717e-04 -3.292873392068e-06 0.0 
-3.292873392068e-06 3.161767359707e-03 0.0 
0.0 0.0 0.0 
-4.109077106732e-04 2.149167550358e-04 0.0 
2.149167550358e-04 3.473044831496e-03 0.0 
0.0 0.0 0.0 
-2.426965553007e-04 -6.595460518926e-07 0.0 
-6.595460518926e-07 3.623192083176e-03 0.0 
0.0 0.0 0.0 
-3.960038269294e-04 1.797517581267e-04 0.0 
1.797517581267e-04 3.915303055453e-03 0.0 
0.0 0.0 0.0 
-2.585064408305e-04 5.504707114684e-06 0.0 
5.504707114684e-06 4.030236906294e-03 0.0 
0.0 0.0 0.0 

TENSORS node_materi_strain_plasti float
5.167194390135e-04 2.792726192703e-05 0.0 
2.792726192703e-05 -5.091425601016e-05 0.0 
0.0 0.0 -1.110302485635e-04 
-8.159302679306e-04 -1.118602645032e-04 0.0 
-1.118602645032e-04 4.584923598267e-03 0.0 
0.0 0.0 -6.959116756397e-04 
-1.346400199288e-03 7.365993999463e-05 0.0 
7.365993999463e-05 8.674335535019e-03 0.0 
0.0 0.0 -1.332621093165e-03 
-1.336402199564e-03 -8.793125074240e-05 0.0 
-8.793125074240e-05 8.913629531779e-03 0.0 
0.0 0.0 -1.332621093165e-03 
1.928535311059e-04 4.445651110295e-05 0.0 
4.445651110295e-05 2.423589004168e-04 0.0 
0.0 0.0 -1.369191294062e-04 
-9.495668909469e-05 1.176622379905e-04 0.0 
1.176622379905e-04 8.146285890130e-04 0.0 
0.0 0.0 -1.619080202416e-04 
-2.343145573296e-04 8.942200005953e-05 0.0 
8.942200005953e-05 1.222252270070e-03 0.0 
0.0 0.0 -2.266090766362e-04 
-3.672954214302e-04 7.638439199011e-05 0.0 
7.638439199011e-05 1.767422352355e-03 0.0 
0.0 0.0 -2.937643997455e-04 
-5.002542736311e-04 4.683642936848e-05 0.0 
4.683642936848e-05 2.251732040701e-03 0.0 
0.0 0.0 -3.610469555860e-04 
-5.984940266315e-04 4.060795555227e-05 0.0 
4.060795555227e-05 2.708456263927e-03 0.0 
0.0 0.0 -4.277228197774e-04 
-6.941224007828e-04 4.519221696703e-05 0.0 
4.519221696703e-05 3.166683324582e-03 0.0 
0.0 0.0 -4.940119848999e-04 
-7.849981096782e-04 3.520077417946e-05 0.0 
3.520077417946e-05 3.622095280725e-03 0.0 
0.0 0.0 -5.601824523721e-04 
-8.634318271181e-04 3.405437137357e-05 0.0 
3.405437137357e-05 4.067071864957e-03 0.0 
0.0 0.0 -6.267196139102e-04 
-9.449136089268e-04 5.218773157199e-05 0.0 
5.218773157199e-05 4.520788341368e-03 0.0 
0.0 0.0 -6.936951881209e-04 
-1.027632022584e-03 9.700470508409e-05 0.0 
9.700470508409e-05 5.010143413423e-03 0.0 
0.0 0.0 -7.607197531558e-04 
-1.071044468659e-03 1.108294767969e-04 0.0 
1.108294767969e-04 5.450697122990e-03 0.0 
0.0 0.0 -8.270758575053e-04 
-1.105211944346e-03 1.479813750871e-04 0.0 
1.479813750871e-04 5.811869455564e-03 0.0 
0.0 0.0 -8.903361771249e-04 
-1.161317049125e-03 4.285670301683e-05 0.0 
4.285670301683e-05 6.275431738875e-03 0.0 
0.0 0.0 -9.558084330571e-04 
-1.207984253662e-03 4.172859767407e-05 0.0 
4.172859767407e-05 6.727772586467e-03 0.0 
0.0 0.0 -1.024523475697e-03 
-1.248615658251e-03 4.538254462405e-05 0.0 
4.538254462405e-05 7.165565903975e-03 0.0 
0.0 0.0 -1.091244731156e-03 
-1.288520992697e-03 4.179778286610e-05 0.0 
4.179778286610e-05 7.610376257827e-03 0.0 
0.0 0.0 -1.158330123333e-03 
-1.323945144233e-03 5.638174444750e-05 0.0 
5.638174444750e-05 8.056170868355e-03 0.0 
0.0 0.0 -1.226073836101e-03 
-1.340882067222e-03 7.816548302147e-05 0.0 
7.816548302147e-05 8.489692749980e-03 0.0 
0.0 0.0 -1.289832767750e-03 
-1.333912568024e-03 1.756046241659e-05 0.0 
1.756046241659e-05 8.926507635803e-03 0.0 
0.0 0.0 -1.336902025401e-03 
-1.341531841891e-03 4.063150434003e-05 0.0 
4.063150434003e-05 8.912362216672e-03 0.0 
0.0 0.0 -1.332945767435e-03 
-1.342187123766e-03 7.210449397357e-07 0.0 
7.210449397357e-07 8.901177082135e-03 0.0 
0.0 0.0 -1.334903170087e-03 
-1.344938961940e-03 1.164426212685e-04 0.0 
1.164426212685e-04 8.903433830404e-03 0.0 
0.0 0.0 -1.334459899807e-03 
-1.344212628933e-03 9.914567390186e-05 0.0 
9.914567390186e-05 8.888325984844e-03 0.0 
0.0 0.0 -1.332067731643e-03 
-1.341871993109e-03 1.326692721992e-04 0.0 
1.326692721992e-04 8.883986467254e-03 0.0 
0.0 0.0 -1.335050935171e-03 
-1.332922157688e-03 1.596974021170e-04 0.0 
1.596974021170e-04 8.887152863323e-03 0.0 
0.0 0.0 -1.335055123498e-03 
-1.344556942280e-03 1.739185913509e-04 0.0 
1.739185913509e-04 8.882073809328e-03 0.0 
0.0 0.0 -1.333530254363e-03 
-1.342253888820e-03 1.667068933720e-04 0.0 
1.667068933720e-04 8.882815983630e-03 0.0 
0.0 0.0 -1.336259905589e-03 
-1.344452318304e-03 2.643241252995e-04 0.0 
2.643241252995e-04 8.877541720491e-03 0.0 
0.0 0.0 -1.335712483792e-03 
-1.344739962132e-03 2.572691983564e-04 0.0 
2.572691983564e-04 8.855364652133e-03 0.0 
0.0 0.0 -1.333313947604e-03 
-1.345949101879e-03 2.896022605016e-04 0.0 
2.896022605016e-04 8.845196808155e-03 0.0 
0.0 0.0 -1.335862559377e-03 
-1.335909137164e-03 3.249556087329e-04 0.0 
3.249556087329e-04 8.847942912603e-03 0.0 
0.0 0.0 -1.336097458551e-03 
-1.346297016590e-03 3.518589132456e-04 0.0 
3.518589132456e-04 8.821759431274e-03 0.0 
0.0 0.0 -1.335235043394e-03 
-1.338076461259e-03 3.735365560477e-04 0.0 
3.735365560477e-04 8.793020733369e-03 0.0 
0.0 0.0 -1.334297546486e-03 
-1.346016481544e-03 4.214840137430e-04 0.0 
4.214840137430e-04 8.754866417549e-03 0.0 
0.0 0.0 -1.332308435384e-03 
-1.347150914510e-03 4.365635291823e-04 0.0 
4.365635291823e-04 8.724212055446e-03 0.0 
0.0 0.0 -1.332019584455e-03 
-1.334805935481e-03 4.680081517091e-04 0.0 
4.680081517091e-04 8.718730927757e-03 0.0 
0.0 0.0 -1.333392124151e-03 
-1.340647727227e-03 4.849743108024e-04 0.0 
4.849743108024e-04 8.700750373122e-03 0.0 
0.0 0.0 -1.334727449481e-03 
-1.341060759155e-03 5.031254601797e-04 0.0 
5.031254601797e-04 8.669240053120e-03 0.0 
0.0 0.0 -1.336576889699e-03 
-1.339241076831e-03 5.376075265351e-04 0.0 
5.376075265351e-04 8.637791543921e-03 0.0 
0.0 0.0 -1.335888391555e-03 
-1.332755026613e-03 5.259793014087e-04 0.0 
5.259793014087e-04 8.604247702023e-03 0.0 
0.0 0.0 -1.334783226448e-03 
-1.333664649469e-03 5.288889005307e-04 0.0 
5.288889005307e-04 8.561550836847e-03 0.0 
0.0 0.0 -1.335053869153e-03 
-1.331458992258e-03 5.134063938371e-04 0.0 
5.134063938371e-04 8.519772984337e-03 0.0 
0.0 0.0 -1.334960189349e-03 
-1.329775199773e-03 4.941096024064e-04 0.0 
4.941096024064e-04 8.496416219376e-03 0.0 
0.0 0.0 -1.334889991128e-03 
-1.320977987653e-03 4.615461390730e-04 0.0 
4.615461390730e-04 8.462524191980e-03 0.0 
0.0 0.0 -1.335774086633e-03 
-1.330023044346e-03 4.207866190154e-04 0.0 
4.207866190154e-04 8.427010713301e-03 0.0 
0.0 0.0 -1.336605656894e-03 
-1.315269658186e-03 3.720833040210e-04 0.0 
3.720833040210e-04 8.401189310414e-03 0.0 
0.0 0.0 -1.336508443943e-03 
-1.322412415585e-03 3.115810119469e-04 0.0 
3.115810119469e-04 8.379908734224e-03 0.0 
0.0 0.0 -1.335343284290e-03 
-1.320222320207e-03 2.175575066663e-04 0.0 
2.175575066663e-04 8.369874127435e-03 0.0 
0.0 0.0 -1.337998490269e-03 
-1.323625080933e-03 2.169102620600e-04 0.0 
2.169102620600e-04 8.349200848827e-03 0.0 
0.0 0.0 -1.337247094005e-03 
-1.312935671626e-03 1.217875082846e-04 0.0 
1.217875082846e-04 8.314561017664e-03 0.0 
0.0 0.0 -1.333783489999e-03 
-1.312397425891e-03 3.014725865093e-05 0.0 
3.014725865093e-05 8.298029012834e-03 0.0 
0.0 0.0 -1.334548731617e-03 
-1.314310776006e-03 -5.112989789944e-05 0.0 
-5.112989789944e-05 8.327635469408e-03 0.0 
0.0 0.0 -1.334619746794e-03 
-1.313246555764e-03 -1.133769864441e-04 0.0 
-1.133769864441e-04 8.338916253329e-03 0.0 
0.0 0.0 -1.335242115105e-03 
-1.326565106495e-03 -1.841934828275e-04 0.0 
-1.841934828275e-04 8.356624519228e-03 0.0 
0.0 0.0 -1.335691437541e-03 
-1.316402114403e-03 -2.262767311367e-04 0.0 
-2.262767311367e-04 8.389795272091e-03 0.0 
0.0 0.0 -1.335646478247e-03 
-1.330105212687e-03 -2.663920673302e-04 0.0 
-2.663920673302e-04 8.407666559300e-03 0.0 
0.0 0.0 -1.334931242407e-03 
-1.321109516020e-03 -3.015612028738e-04 0.0 
-3.015612028738e-04 8.428571737695e-03 0.0 
0.0 0.0 -1.334100791702e-03 
-1.335356464641e-03 -3.106038152236e-04 0.0 
-3.106038152236e-04 8.460193799364e-03 0.0 
0.0 0.0 -1.332237298415e-03 
-1.339781698762e-03 -3.337514916052e-04 0.0 
-3.337514916052e-04 8.495913159923e-03 0.0 
0.0 0.0 -1.333749945600e-03 
-1.335675790289e-03 -3.025403687924e-04 0.0 
-3.025403687924e-04 8.551515458499e-03 0.0 
0.0 0.0 -1.336652505695e-03 
-1.332391445612e-03 -3.083574403233e-04 0.0 
-3.083574403233e-04 8.592419009515e-03 0.0 
0.0 0.0 -1.337094627689e-03 
-1.345644529791e-03 -2.793636126787e-04 0.0 
-2.793636126787e-04 8.558237333725e-03 0.0 
0.0 0.0 -1.328990728106e-03 
-1.337312800610e-03 -2.305068913709e-04 0.0 
-2.305068913709e-04 8.630917037025e-03 0.0 
0.0 0.0 -1.335900064369e-03 
-1.350772327614e-03 -1.956698568975e-04 0.0 
-1.956698568975e-04 8.640358950647e-03 0.0 
0.0 0.0 -1.332523500780e-03 
-1.350423109387e-03 -1.955618747409e-04 0.0 
-1.955618747409e-04 8.650889793805e-03 0.0 
0.0 0.0 -1.335219049675e-03 
-1.349098610006e-03 -8.965167155351e-05 0.0 
-8.965167155351e-05 8.690821291703e-03 0.0 
0.0 0.0 -1.336566422126e-03 
-1.352485386629e-03 -6.128652914560e-05 0.0 
-6.128652914560e-05 8.701715469751e-03 0.0 
0.0 0.0 -1.335855682064e-03 
-8.621699259071e-04 -7.748599951090e-05 0.0 
-7.748599951090e-05 5.021330477437e-03 0.0 
0.0 0.0 -7.648954205800e-04 
-9.395078499560e-04 -8.704020005170e-05 0.0 
-8.704020005170e-05 5.517844915676e-03 0.0 
0.0 0.0 -8.298981322982e-04 
-9.977708429922e-04 -8.397016683561e-05 0.0 
-8.397016683561e-05 5.976838802593e-03 0.0 
0.0 0.0 -8.959277352460e-04 
-1.055682188809e-03 -8.887694878813e-05 0.0 
-8.887694878813e-05 6.419904102828e-03 0.0 
0.0 0.0 -9.610467530554e-04 
-1.113418161777e-03 -7.710435791321e-05 0.0 
-7.710435791321e-05 6.878985961880e-03 0.0 
0.0 0.0 -1.026987810050e-03 
-1.153337564853e-03 -8.395183782127e-05 0.0 
-8.395183782127e-05 7.337021217867e-03 0.0 
0.0 0.0 -1.092790196867e-03 
-1.209003093049e-03 -7.363209801243e-05 0.0 
-7.363209801243e-05 7.788251864833e-03 0.0 
0.0 0.0 -1.158290425478e-03 
-1.258139886954e-03 -8.431152228072e-05 0.0 
-8.431152228072e-05 8.217133852926e-03 0.0 
0.0 0.0 -1.224481705251e-03 
-1.303096836171e-03 -9.331509578295e-05 0.0 
-9.331509578295e-05 8.703843568816e-03 0.0 
0.0 0.0 -1.288782062784e-03 
0.0 0.0 0.0 
0.0 0.0 0.0 
0.0 0.0 0.0 
3.047701749425e-05 -1.538022229339e-04 0.0 
-1.538022229339e-04 9.135139916658e-05 0.0 
0.0 0.0 -4.456334658919e-05 
-8.469977810266e-04 1.418859108081e-04 0.0 
1.418859108081e-04 4.555195363259e-03 0.0 
0.0 0.0 -6.945495707198e-04 
6.302632378210e-06 3.339035781605e-04 0.0 
3.339035781605e-04 2.043123701197e-04 0.0 
0.0 0.0 -9.026357249908e-05 
-1.365321602539e-04 5.817568730635e-04 0.0 
5.817568730635e-04 6.768329550849e-04 0.0 
0.0 0.0 -2.298430088943e-04 
-3.613436439526e-04 6.725053827967e-04 0.0 
6.725053827967e-04 1.210751235982e-03 0.0 
0.0 0.0 -2.716715199271e-04 
-5.153511105879e-04 5.777125361718e-04 0.0 
5.777125361718e-04 1.686960123191e-03 0.0 
0.0 0.0 -2.907975307606e-04 
-5.454556268170e-04 4.563700114584e-04 0.0 
4.563700114584e-04 2.147392311147e-03 0.0 
0.0 0.0 -3.576084760620e-04 
-5.822307317594e-04 3.444855140525e-04 0.0 
3.444855140525e-04 2.615046111209e-03 0.0 
0.0 0.0 -4.246591878591e-04 
-6.421093914524e-04 2.736159583380e-04 0.0 
2.736159583380e-04 3.087949941038e-03 0.0 
0.0 0.0 -4.913636896408e-04 
-7.032270316906e-04 2.154746295006e-04 0.0 
2.154746295006e-04 3.563154777891e-03 0.0 
0.0 0.0 -5.580753662734e-04 
-7.652026803153e-04 1.716333934732e-04 0.0 
1.716333934732e-04 4.039411117358e-03 0.0 
0.0 0.0 -6.248674136757e-04 
-8.416375208849e-05 -1.289341207434e-04 0.0 
-1.289341207434e-04 3.522972171837e-04 0.0 
0.0 0.0 -8.517071878833e-05 
-1.972787518781e-04 -1.983327187411e-04 0.0 
-1.983327187411e-04 8.313596038478e-04 0.0 
0.0 0.0 -1.607697496026e-04 
-2.754592792606e-04 -1.624099240136e-04 0.0 
-1.624099240136e-04 1.298347593357e-03 0.0 
0.0 0.0 -2.266666666667e-04 
-3.512760209361e-04 -2.050400066107e-04 0.0 
-2.050400066107e-04 1.766265466180e-03 0.0 
0.0 0.0 -2.933333333333e-04 
-4.262272127133e-04 -1.668508034120e-04 0.0 
-1.668508034120e-04 2.234841239519e-03 0.0 
0.0 0.0 -3.600000000000e-04 
-5.018968035888e-04 -2.069604868527e-04 0.0 
-2.069604868527e-04 2.704133863242e-03 0.0 
0.0 0.0 -4.266666666667e-04 
-5.764922648323e-04 -1.677065961204e-04 0.0 
-1.677065961204e-04 3.172932373080e-03 0.0 
0.0 0.0 -4.933333333333e-04 
-6.493615146667e-04 -2.013836333214e-04 0.0 
-2.013836333214e-04 3.639082748701e-03 0.0 
0.0 0.0 -5.600000000000e-04 
-7.172820797178e-04 -1.419199921507e-04 0.0 
-1.419199921507e-04 4.094821602212e-03 0.0 
0.0 0.0 -6.266666666667e-04 
-7.873736608755e-04 5.502842443645e-05 0.0 
5.502842443645e-05 4.508278690252e-03 0.0 
0.0 0.0 -6.874962403976e-04 
-7.839311141629e-04 4.828509311105e-06 0.0 
4.828509311105e-06 4.540282316640e-03 0.0 
0.0 0.0 -6.910932206029e-04 
-7.921436345257e-04 5.707785244044e-06 0.0 
5.707785244044e-06 4.544942356556e-03 0.0 
0.0 0.0 -6.911911970487e-04 
-7.917187874242e-04 -4.341315515235e-06 0.0 
-4.341315515235e-06 4.539101219755e-03 0.0 
0.0 0.0 -6.903356507966e-04 
-7.944928086677e-04 1.125171909579e-05 0.0 
1.125171909579e-05 4.615388457654e-03 0.0 
0.0 0.0 -6.980756478071e-04 
-7.958365436316e-04 1.383445406237e-05 0.0 
1.383445406237e-05 4.547714033445e-03 0.0 
0.0 0.0 -6.911448554634e-04 
-7.903078046097e-04 6.769783050965e-06 0.0 
6.769783050965e-06 4.539714906749e-03 0.0 
0.0 0.0 -6.903833977050e-04 
-7.973486280958e-04 3.073462339535e-05 0.0 
3.073462339535e-05 4.549605953727e-03 0.0 
0.0 0.0 -6.905588330458e-04 
-8.138323735647e-04 2.995103124151e-05 0.0 
2.995103124151e-05 4.557442627231e-03 0.0 
0.0 0.0 -6.922444453805e-04 
-8.207112189752e-04 5.065642805556e-05 0.0 
5.065642805556e-05 4.556711038870e-03 0.0 
0.0 0.0 -6.916098530255e-04 
-8.174854078797e-04 5.882201982790e-05 0.0 
5.882201982790e-05 4.549634587438e-03 0.0 
0.0 0.0 -6.911665914957e-04 
-8.257607627907e-04 7.207096375596e-05 0.0 
7.207096375596e-05 4.539061374169e-03 0.0 
0.0 0.0 -6.911615840689e-04 
-8.256917502379e-04 1.052177725209e-04 0.0 
1.052177725209e-04 4.528909050130e-03 0.0 
0.0 0.0 -6.914992001314e-04 
-8.331385651634e-04 1.367043632585e-04 0.0 
1.367043632585e-04 4.532178590594e-03 0.0 
0.0 0.0 -6.922481495424e-04 
0.0 0.0 0.0 
0.0 0.0 0.0 
0.0 0.0 0.0 
0.0 0.0 0.0 
0.0 0.0 0.0 
0.0 0.0 0.0 
0.0 0.0 0.0 
0.0 0.0 0.0 
0.0 0.0 0.0 
0.0 0.0 0.0 
0.0 0.0 0.0 
0.0 0.0 0.0 
4.834769447440e-06 -2.872264321309e-05 0.0 
-2.872264321309e-05 1.098176460521e-05 0.0 
0.0 0.0 -6.778514593995e-06 
2.621325204595e-05 -1.413766582246e-04 0.0 
-1.413766582246e-04 5.747299694100e-05 0.0 
0.0 0.0 -3.574982278410e-05 
9.658306216209e-05 -1.514259984182e-04 0.0 
-1.514259984182e-04 8.442241842910e-05 0.0 
0.0 0.0 -4.425618980996e-05 
3.269147103475e-04 -5.021185392625e-05 0.0 
-5.021185392625e-05 3.514559889707e-05 0.0 
0.0 0.0 -8.078147856958e-05 
4.744476216527e-04 -2.955001894905e-05 0.0 
-2.955001894905e-05 6.422490925946e-06 0.0 
0.0 0.0 -1.179719326098e-04 
4.179559190719e-04 -4.545879091992e-05 0.0 
-4.545879091992e-05 1.677504639263e-05 0.0 
0.0 0.0 -8.559165356152e-05 
4.071360169644e-04 -5.676430788113e-05 0.0 
-5.676430788113e-05 2.001137970326e-05 0.0 
0.0 0.0 -6.874308561246e-05 
4.446412730432e-04 -3.115479505997e-05 0.0 
-3.115479505997e-05 1.541228328890e-05 0.0 
0.0 0.0 -8.846752904866e-05 
4.870475968622e-04 1.166873053583e-05 0.0 
1.166873053583e-05 -1.464623307350e-05 0.0 
0.0 0.0 -9.035052009108e-05 
5.260775556971e-04 2.845864580513e-06 0.0 
2.845864580513e-06 -4.734498310635e-05 0.0 
0.0 0.0 -8.407298760335e-05 
4.865685389177e-04 2.210043518698e-06 0.0 
2.210043518698e-06 -3.334183635663e-05 0.0 
0.0 0.0 -8.504329730078e-05 
4.576294102847e-04 1.370682311972e-05 0.0 
1.370682311972e-05 -9.748142346333e-06 0.0 
0.0 0.0 -9.010048746351e-05 
4.426858646735e-04 1.222387518921e-05 0.0 
1.222387518921e-05 -8.681697480964e-07 0.0 
0.0 0.0 -9.063198443064e-05 
4.647766352677e-04 3.225958783335e-05 0.0 
3.225958783335e-05 -3.503045802417e-05 0.0 
0.0 0.0 -8.892160723951e-05 
5.112449432108e-04 4.197682001980e-05 0.0 
4.197682001980e-05 -6.289759249197e-05 0.0 
0.0 0.0 -8.718318697143e-05 
6.434707484575e-05 1.029182748721e-04 0.0 
1.029182748721e-04 8.802572786769e-05 0.0 
0.0 0.0 -4.710611092402e-05 
9.424198877875e-05 1.499244048908e-04 0.0 
1.499244048908e-04 8.984097594231e-05 0.0 
0.0 0.0 -3.960322101727e-05 
1.936061990384e-04 8.419350742916e-05 0.0 
8.419350742916e-05 1.292114734380e-04 0.0 
0.0 0.0 -5.849688508235e-05 
3.813845307407e-04 1.686535265094e-05 0.0 
1.686535265094e-05 8.626754114535e-05 0.0 
0.0 0.0 -1.062939941897e-04 
3.795789580521e-04 -4.935823623727e-06 0.0 
-4.935823623727e-06 8.997793368393e-05 0.0 
0.0 0.0 -9.845556885686e-05 
3.138791169730e-04 -1.336728618061e-05 0.0 
-1.336728618061e-05 9.974954506449e-05 0.0 
0.0 0.0 -6.949539006663e-05 
3.082223885950e-04 -3.287309553748e-05 0.0 
-3.287309553748e-05 9.984937657450e-05 0.0 
0.0 0.0 -7.019189460309e-05 
2.893737703929e-04 -4.544719989962e-05 0.0 
-4.544719989962e-05 1.050861056370e-04 0.0 
0.0 0.0 -7.076409589014e-05 
2.584680062389e-04 -5.093045977051e-05 0.0 
-5.093045977051e-05 1.170152287511e-04 0.0 
0.0 0.0 -7.166950854207e-05 
2.234294046251e-04 -5.070537065669e-05 0.0 
-5.070537065669e-05 1.304751042381e-04 0.0 
0.0 0.0 -7.231194253938e-05 
1.876616131430e-04 -4.692368141768e-05 0.0 
-4.692368141768e-05 1.437144133796e-04 0.0 
0.0 0.0 -6.996652419706e-05 
1.531025527622e-04 -4.162384276835e-05 0.0 
-4.162384276835e-05 1.548621244579e-04 0.0 
0.0 0.0 -6.340294544400e-05 
1.201752897832e-04 -3.626077860286e-05 0.0 
-3.626077860286e-05 1.652013782134e-04 0.0 
0.0 0.0 -5.613132261821e-05 
8.968885995060e-05 -3.139862725725e-05 0.0 
-3.139862725725e-05 1.748591889387e-04 0.0 
0.0 0.0 -4.958923286683e-05 
6.132975499335e-05 -2.700775169591e-05 0.0 
-2.700775169591e-05 1.838961025708e-04 0.0 
0.0 0.0 -4.364614628547e-05 
3.477559619507e-05 -2.303654655603e-05 0.0 
-2.303654655603e-05 1.924083350270e-04 0.0 
0.0 0.0 -3.819156329514e-05 
1.290316430037e-05 -1.983136159879e-05 0.0 
-1.983136159879e-05 1.995704720793e-04 0.0 
0.0 0.0 -3.408390669928e-05 
7.932328013455e-11 -1.785593746250e-05 0.0 
-1.785593746250e-05 2.040787632547e-04 0.0 
0.0 0.0 -3.259259259259e-05 
-7.593954915498e-06 -1.649294232511e-05 0.0 
-1.649294232511e-05 2.070016251293e-04 0.0 
0.0 0.0 -3.259259259259e-05 
-1.475523575997e-05 -1.505384294330e-05 0.0 
-1.505384294330e-05 2.097702307822e-04 0.0 
0.0 0.0 -3.259259259259e-05 
-2.141887682810e-05 -1.359140240193e-05 0.0 
-1.359140240193e-05 2.123473601971e-04 0.0 
0.0 0.0 -3.259259259259e-05 
-2.754878740294e-05 -1.218772021878e-05 0.0 
-1.218772021878e-05 2.147044222901e-04 0.0 
0.0 0.0 -3.259259259259e-05 
-3.315950354278e-05 -1.095460834482e-05 0.0 
-1.095460834482e-05 2.168238869020e-04 0.0 
0.0 0.0 -3.259259259259e-05 
-3.834687398038e-05 -1.005425431052e-05 0.0 
-1.005425431052e-05 2.186963333743e-04 0.0 
0.0 0.0 -3.259259259259e-05 
-4.335062686627e-05 -9.749550741318e-06 0.0 
-9.749550741318e-06 2.203166826400e-04 0.0 
0.0 0.0 -3.259259259259e-05 
-4.868506394999e-05 -1.046288098856e-05 0.0 
-1.046288098856e-05 2.216847468213e-04 0.0 
0.0 0.0 -3.259259259259e-05 
-5.535964187657e-05 -1.214391717199e-05 0.0 
-1.214391717199e-05 2.229253572136e-04 0.0 
0.0 0.0 -3.259259259259e-05 
-6.707540430074e-05 -6.628436741949e-06 0.0 
-6.628436741949e-06 2.262050263586e-04 0.0 
0.0 0.0 -3.259259259259e-05 
-3.999822883967e-05 3.556894401735e-05 0.0 
3.556894401735e-05 1.903329768495e-04 0.0 
0.0 0.0 -4.365141042972e-05 
-8.193739332348e-05 9.809727690216e-05 0.0 
9.809727690216e-05 3.454550526551e-04 0.0 
0.0 0.0 -8.162491532500e-05 
-8.763717477251e-05 -1.104923577557e-05 0.0 
-1.104923577557e-05 3.546470052917e-04 0.0 
0.0 0.0 -6.865557107786e-05 
-8.209800262743e-05 -1.366396784999e-05 0.0 
-1.366396784999e-05 3.677439405505e-04 0.0 
0.0 0.0 -6.666668111556e-05 
-7.987289934951e-05 -1.485234966257e-05 0.0 
-1.485234966257e-05 3.696574762596e-04 0.0 
0.0 0.0 -6.679105495025e-05 
-7.752206845315e-05 -1.555663771139e-05 0.0 
-1.555663771139e-05 3.696666191565e-04 0.0 
0.0 0.0 -6.682937662571e-05 
-7.489400403446e-05 -1.655318967319e-05 0.0 
-1.655318967319e-05 3.691138237911e-04 0.0 
0.0 0.0 -6.684005630581e-05 
-7.196562225873e-05 -1.790327118829e-05 0.0 
-1.790327118829e-05 3.682083137397e-04 0.0 
0.0 0.0 -6.683738833772e-05 
-6.872372613159e-05 -1.948413406757e-05 0.0 
-1.948413406757e-05 3.670389355357e-04 0.0 
0.0 0.0 -6.682750770031e-05 
-6.516983434664e-05 -2.113668948991e-05 0.0 
-2.113668948991e-05 3.656574351599e-04 0.0 
0.0 0.0 -6.681330239213e-05 
-6.132453441208e-05 -2.270680121817e-05 0.0 
-2.270680121817e-05 3.641005575367e-04 0.0 
0.0 0.0 -6.679615894512e-05 
-5.722873303879e-05 -2.405533454834e-05 0.0 
-2.405533454834e-05 3.624026070816e-04 0.0 
0.0 0.0 -6.677682377517e-05 
-5.294299032408e-05 -2.506628932449e-05 0.0 
-2.506628932449e-05 3.606044016731e-04 0.0 
0.0 0.0 -6.675592293309e-05 
-4.854149300217e-05 -2.566001457981e-05 0.0 
-2.566001457981e-05 3.587511670432e-04 0.0 
0.0 0.0 -6.673355282586e-05 
-4.163196377942e-05 -2.613599079183e-05 0.0 
-2.613599079183e-05 3.561524677720e-04 0.0 
0.0 0.0 -6.745531512138e-05 
-3.291456196317e-05 -2.638409910092e-05 0.0 
-2.638409910092e-05 3.530277979111e-04 0.0 
0.0 0.0 -6.873701700767e-05 
-2.400241414464e-05 -2.609722431069e-05 0.0 
-2.609722431069e-05 3.498749164562e-04 0.0 
0.0 0.0 -7.012794513418e-05 
-1.478228645177e-05 -2.516577835240e-05 0.0 
-2.516577835240e-05 3.466078734911e-04 0.0 
0.0 0.0 -7.163917554256e-05 
-5.208538377890e-06 -2.355273436146e-05 0.0 
-2.355273436146e-05 3.432703082382e-04 0.0 
0.0 0.0 -7.330841069545e-05 
4.513528766003e-06 -2.125666656562e-05 0.0 
-2.125666656562e-05 3.398402997565e-04 0.0 
0.0 0.0 -7.515683578683e-05 
1.349913739990e-05 -1.760223145713e-05 0.0 
-1.760223145713e-05 3.366567746936e-04 0.0 
0.0 0.0 -7.647114734821e-05 
2.187516520701e-05 -1.188904157275e-05 0.0 
-1.188904157275e-05 3.328624428594e-04 0.0 
0.0 0.0 -7.619886655577e-05 
2.752381952617e-05 -1.399817597678e-06 0.0 
-1.399817597678e-06 3.310123620262e-04 0.0 
0.0 0.0 -7.610383895857e-05 
3.017041720892e-05 1.472041797281e-05 0.0 
1.472041797281e-05 3.282649407109e-04 0.0 
0.0 0.0 -7.560629253427e-05 
2.451612356365e-05 4.299472828314e-05 0.0 
4.299472828314e-05 3.320416444068e-04 0.0 
0.0 0.0 -7.592163850395e-05 
1.315059842440e-05 7.921755557395e-05 0.0 
7.921755557395e-05 3.299106676400e-04 0.0 
0.0 0.0 -7.495307701718e-05 
2.587317613616e-05 1.435355111341e-04 0.0 
1.435355111341e-04 3.311341973850e-04 0.0 
0.0 0.0 -9.135882785675e-05 
-1.552546661769e-05 2.188774574163e-04 0.0 
2.188774574163e-04 3.385095031083e-04 0.0 
0.0 0.0 -1.042230804791e-04 
-1.090284539529e-05 2.104438434103e-04 0.0 
2.104438434103e-04 2.176434002206e-04 0.0 
0.0 0.0 -7.150836889767e-05 
-1.944360422608e-04 4.328611126594e-04 0.0 
4.328611126594e-04 7.056784180921e-04 0.0 
0.0 0.0 -1.825967858330e-04 
-2.406686257372e-04 3.405356206148e-04 0.0 
3.405356206148e-04 8.218721949850e-04 0.0 
0.0 0.0 -1.751696579662e-04 
-2.130022906266e-04 2.168686610265e-04 0.0 
2.168686610265e-04 8.000003083416e-04 0.0 
0.0 0.0 -1.584158291307e-04 
-1.917557110836e-04 1.233066905079e-04 0.0 
1.233066905079e-04 7.959842344299e-04 0.0 
0.0 0.0 -1.590398762326e-04 
-1.808658455225e-04 7.362929149623e-05 0.0 
7.362929149623e-05 7.998295172398e-04 0.0 
0.0 0.0 -1.555111176588e-04 
-1.711108414388e-04 3.405452975082e-05 0.0 
3.405452975082e-05 7.970327884004e-04 0.0 
0.0 0.0 -1.543974894318e-04 
-1.634624062176e-04 9.255973391536e-06 0.0 
9.255973391536e-06 7.963514438749e-04 0.0 
0.0 0.0 -1.535510796713e-04 
-1.572036549231e-04 -1.035877944669e-05 0.0 
-1.035877944669e-05 7.948184541228e-04 0.0 
0.0 0.0 -1.536817580736e-04 
-1.534427159043e-04 -2.398185295729e-05 0.0 
-2.398185295729e-05 7.947099276525e-04 0.0 
0.0 0.0 -1.538008107973e-04 
-1.517635758577e-04 -3.443864216590e-05 0.0 
-3.443864216590e-05 7.948777419866e-04 0.0 
0.0 0.0 -1.539189619659e-04 
-1.513562820848e-04 -4.186032520629e-05 0.0 
-4.186032520629e-05 7.954756715071e-04 0.0 
0.0 0.0 -1.540095412804e-04 
-1.519141482631e-04 -4.710248762457e-05 0.0 
-4.710248762457e-05 7.962879447640e-04 0.0 
0.0 0.0 -1.540789260361e-04 
-1.532858632149e-04 -5.035725515805e-05 0.0 
-5.035725515805e-05 7.973636308889e-04 0.0 
0.0 0.0 -1.541335875185e-04 
-1.552857906927e-04 -5.203143179554e-05 0.0 
-5.203143179554e-05 7.986361304509e-04 0.0 
0.0 0.0 -1.541839516346e-04 
-1.577259729563e-04 -5.231585380311e-05 0.0 
-5.231585380311e-05 8.000678262256e-04 0.0 
0.0 0.0 -1.542302164997e-04 
-1.604344883536e-04 -5.139094102408e-05 0.0 
-5.139094102408e-05 8.015819400851e-04 0.0 
0.0 0.0 -1.542734874490e-04 
-1.632501568932e-04 -4.943113356881e-05 0.0 
-4.943113356881e-05 8.030892826301e-04 0.0 
0.0 0.0 -1.543137234610e-04 
-1.660425170795e-04 -4.667898287501e-05 0.0 
-4.667898287501e-05 8.045028449402e-04 0.0 
0.0 0.0 -1.543502020780e-04 
-1.687047422044e-04 -4.339428343341e-05 0.0 
-4.339428343341e-05 8.057551987615e-04 0.0 
0.0 0.0 -1.543815508332e-04 
-1.711418068186e-04 -3.982788674622e-05 0.0 
-3.982788674622e-05 8.067815416616e-04 0.0 
0.0 0.0 -1.544056367788e-04 
-1.732566486500e-04 -3.619615027229e-05 0.0 
-3.619615027229e-05 8.075038811005e-04 0.0 
0.0 0.0 -1.544181853843e-04 
-1.749371882873e-04 -3.260672884681e-05 0.0 
-3.260672884681e-05 8.078182461705e-04 0.0 
0.0 0.0 -1.544101736723e-04 
-1.760349522403e-04 -2.881573000198e-05 0.0 
-2.881573000198e-05 8.075858140199e-04 0.0 
0.0 0.0 -1.543611723167e-04 
-1.763285087699e-04 -2.292236914994e-05 0.0 
-2.292236914994e-05 8.066265339266e-04 0.0 
0.0 0.0 -1.541984768065e-04 
-1.751258693404e-04 4.299452051145e-06 0.0 
4.299452051145e-06 8.046870665598e-04 0.0 
0.0 0.0 -1.533498645749e-04 
-1.895927345406e-04 7.729730061347e-05 0.0 
7.729730061347e-05 8.210640951615e-04 0.0 
0.0 0.0 -1.572346098167e-04 
-3.628381239421e-04 4.842555091829e-04 0.0 
4.842555091829e-04 1.190202187004e-03 0.0 
0.0 0.0 -2.340661675681e-04 
-3.802118468551e-04 3.455589746389e-04 0.0 
3.455589746389e-04 1.305583861753e-03 0.0 
0.0 0.0 -2.385862393868e-04 
-3.437252635702e-04 2.309332768943e-04 0.0 
2.309332768943e-04 1.288674753226e-03 0.0 
0.0 0.0 -2.343835191995e-04 
-3.329265279177e-04 1.432285999993e-04 0.0 
1.432285999993e-04 1.287056550938e-03 0.0 
0.0 0.0 -2.297051648921e-04 
-3.139132946028e-04 9.078812189553e-05 0.0 
9.078812189553e-05 1.289438164461e-03 0.0 
0.0 0.0 -2.275591678181e-04 
-2.988206012670e-04 4.775334047599e-05 0.0 
4.775334047599e-05 1.285183619587e-03 0.0 
0.0 0.0 -2.266666666667e-04 
-2.849077319500e-04 1.789066211896e-05 0.0 
1.789066211896e-05 1.283833093661e-03 0.0 
0.0 0.0 -2.266666666667e-04 
-2.753582555348e-04 -4.795108964955e-06 0.0 
-4.795108964955e-06 1.281926460909e-03 0.0 
0.0 0.0 -2.266666666667e-04 
-2.683374979312e-04 -2.126410125056e-05 0.0 
-2.126410125056e-05 1.281101527694e-03 0.0 
0.0 0.0 -2.266666666667e-04 
-2.637706135916e-04 -3.361579052413e-05 0.0 
-3.361579052413e-05 1.280585319830e-03 0.0 
0.0 0.0 -2.266666666667e-04 
-2.608864038848e-04 -4.254249846124e-05 0.0 
-4.254249846124e-05 1.280674733889e-03 0.0 
0.0 0.0 -2.266666666667e-04 
-2.594865430883e-04 -4.880504890846e-05 0.0 
-4.880504890846e-05 1.281129399031e-03 0.0 
0.0 0.0 -2.266666666667e-04 
-2.592271492083e-04 -5.274530917222e-05 0.0 
-5.274530917222e-05 1.281978914705e-03 0.0 
0.0 0.0 -2.266666666667e-04 
-2.598377302827e-04 -5.461665490637e-05 0.0 
-5.461665490637e-05 1.283092885995e-03 0.0 
0.0 0.0 -2.266666666667e-04 
-2.609883587795e-04 -5.464897239266e-05 0.0 
-5.464897239266e-05 1.284318819752e-03 0.0 
0.0 0.0 -2.266666666667e-04 
-2.624449030428e-04 -5.318388434965e-05 0.0 
-5.318388434965e-05 1.285505194123e-03 0.0 
0.0 0.0 -2.266666666667e-04 
-2.640300486149e-04 -5.055913047683e-05 0.0 
-5.055913047683e-05 1.286555616377e-03 0.0 
0.0 0.0 -2.266666666667e-04 
-2.655827755082e-04 -4.706799386262e-05 0.0 
-4.706799386262e-05 1.287386838751e-03 0.0 
0.0 0.0 -2.266666666667e-04 
-2.669508205149e-04 -4.294768758454e-05 0.0 
-4.294768758454e-05 1.287919215002e-03 0.0 
0.0 0.0 -2.266666666667e-04 
-2.679889603064e-04 -3.835283105368e-05 0.0 
-3.835283105368e-05 1.288085921756e-03 0.0 
0.0 0.0 -2.266666666667e-04 
-2.685918719264e-04 -3.324295838272e-05 0.0 
-3.324295838272e-05 1.287880334271e-03 0.0 
0.0 0.0 -2.266666666667e-04 
-2.687283465611e-04 -2.717692756331e-05 0.0 
-2.717692756331e-05 1.287443556388e-03 0.0 
0.0 0.0 -2.266666666667e-04 
-2.686844745940e-04 -1.938143184987e-05 0.0 
-1.938143184987e-05 1.287424645548e-03 0.0 
0.0 0.0 -2.266666666667e-04 
-2.702508139422e-04 -1.180451543429e-05 0.0 
-1.180451543429e-05 1.290650077595e-03 0.0 
0.0 0.0 -2.266666666667e-04 
-2.739511578738e-04 1.091861514027e-04 0.0 
1.091861514027e-04 1.296262820171e-03 0.0 
0.0 0.0 -2.266666666667e-04 
-3.496809071087e-04 7.029818051395e-05 0.0 
7.029818051395e-05 1.763978001235e-03 0.0 
0.0 0.0 -2.933333333333e-04 
-3.467012321594e-04 2.565652285915e-06 0.0 
2.565652285915e-06 1.759757177646e-03 0.0 
0.0 0.0 -2.933333333333e-04 
-3.460706828833e-04 -2.402709291714e-05 0.0 
-2.402709291714e-05 1.758572650440e-03 0.0 
0.0 0.0 -2.933333333333e-04 
-3.462634971279e-04 -3.232377085059e-05 0.0 
-3.232377085059e-05 1.758604837916e-03 0.0 
0.0 0.0 -2.933333333333e-04 
-3.466983492028e-04 -3.868888686092e-05 0.0 
-3.868888686092e-05 1.759008204949e-03 0.0 
0.0 0.0 -2.933333333333e-04 
-3.471166494268e-04 -4.426990314512e-05 0.0 
-4.426990314512e-05 1.759352418861e-03 0.0 
0.0 0.0 -2.933333333333e-04 
-3.474272679685e-04 -4.918378872263e-05 0.0 
-4.918378872263e-05 1.759427979474e-03 0.0 
0.0 0.0 -2.933333333333e-04 
-3.476545714717e-04 -5.321526936886e-05 0.0 
-5.321526936886e-05 1.759196453292e-03 0.0 
0.0 0.0 -2.933333333333e-04 
-3.479518305898e-04 -5.609578469028e-05 0.0 
-5.609578469028e-05 1.758727485872e-03 0.0 
0.0 0.0 -2.933333333333e-04 
-3.484727780912e-04 -5.752163128441e-05 0.0 
-5.752163128441e-05 1.758083576967e-03 0.0 
0.0 0.0 -2.933333333333e-04 
-3.493671597279e-04 -5.714597270233e-05 0.0 
-5.714597270233e-05 1.757324818446e-03 0.0 
0.0 0.0 -2.933333333333e-04 
-3.507609803320e-04 -5.447564841924e-05 0.0 
-5.447564841924e-05 1.756492701634e-03 0.0 
0.0 0.0 -2.933333333333e-04 
-3.529498849902e-04 -4.883178137910e-05 0.0 
-4.883178137910e-05 1.755842529399e-03 0.0 
0.0 0.0 -2.933333333333e-04 
-3.563919328167e-04 -4.008505197600e-05 0.0 
-4.008505197600e-05 1.755533487358e-03 0.0 
0.0 0.0 -2.933333333333e-04 
-3.613751731038e-04 -2.764226381693e-05 0.0 
-2.764226381693e-05 1.755740221786e-03 0.0 
0.0 0.0 -2.933333333333e-04 
-3.680331159808e-04 -1.160852856466e-05 0.0 
-1.160852856466e-05 1.755914627603e-03 0.0 
0.0 0.0 -2.933333333333e-04 
-3.765077791255e-04 1.088927297272e-05 0.0 
1.088927297272e-05 1.756756463973e-03 0.0 
0.0 0.0 -2.933333333333e-04 
-3.875335620688e-04 3.848779556901e-05 0.0 
3.848779556901e-05 1.756527119021e-03 0.0 
0.0 0.0 -2.933333333333e-04 
-4.006981741599e-04 7.938462996467e-05 0.0 
7.938462996467e-05 1.757968771471e-03 0.0 
0.0 0.0 -2.933333333333e-04 
-4.184139765209e-04 1.273498827186e-04 0.0 
1.273498827186e-04 1.754107022380e-03 0.0 
0.0 0.0 -2.933333333333e-04 
-4.343887350254e-04 2.082173449192e-04 0.0 
2.082173449192e-04 1.756230721853e-03 0.0 
0.0 0.0 -2.933333333333e-04 
-4.614874550674e-04 2.935627528416e-04 0.0 
2.935627528416e-04 1.774351382184e-03 0.0 
0.0 0.0 -2.960058309038e-04 
-4.441523120693e-04 4.094621339406e-04 0.0 
4.094621339406e-04 1.656501544115e-03 0.0 
0.0 0.0 -2.853401360544e-04 
-4.870440913019e-04 3.438997131150e-04 0.0 
3.438997131150e-04 2.112483852915e-03 0.0 
0.0 0.0 -3.519676952907e-04 
-5.125649626942e-04 2.408553048519e-04 0.0 
2.408553048519e-04 2.231730849181e-03 0.0 
0.0 0.0 -3.626389769158e-04 
-5.004304274742e-04 1.739740084501e-04 0.0 
1.739740084501e-04 2.219740475384e-03 0.0 
0.0 0.0 -3.600000000000e-04 
-4.919733132572e-04 1.088807645715e-04 0.0 
1.088807645715e-04 2.220404103345e-03 0.0 
0.0 0.0 -3.600000000000e-04 
-4.789912287228e-04 6.959489259035e-05 0.0 
6.959489259035e-05 2.226799972365e-03 0.0 
0.0 0.0 -3.600000000000e-04 
-4.695031603226e-04 3.553610685796e-05 0.0 
3.553610685796e-05 2.226549692723e-03 0.0 
0.0 0.0 -3.600000000000e-04 
-4.599607884164e-04 1.129608327385e-05 0.0 
1.129608327385e-05 2.227936339154e-03 0.0 
0.0 0.0 -3.600000000000e-04 
-4.523249195166e-04 -8.629656390873e-06 0.0 
-8.629656390873e-06 2.227633121405e-03 0.0 
0.0 0.0 -3.600000000000e-04 
-4.460410542978e-04 -2.408928092428e-05 0.0 
-2.408928092428e-05 2.228142385368e-03 0.0 
0.0 0.0 -3.600000000000e-04 
-4.416422346106e-04 -3.556764082908e-05 0.0 
-3.556764082908e-05 2.228991415671e-03 0.0 
0.0 0.0 -3.600000000000e-04 
-4.381537305926e-04 -4.258379451435e-05 0.0 
-4.258379451435e-05 2.230069409879e-03 0.0 
0.0 0.0 -3.600000000000e-04 
-4.351200154686e-04 -4.630854718854e-05 0.0 
-4.630854718854e-05 2.230745475863e-03 0.0 
0.0 0.0 -3.600000000000e-04 
-4.325824646744e-04 -4.775125052124e-05 0.0 
-4.775125052124e-05 2.231217919098e-03 0.0 
0.0 0.0 -3.600000000000e-04 
-4.305586835962e-04 -4.721495249169e-05 0.0 
-4.721495249169e-05 2.231559783467e-03 0.0 
0.0 0.0 -3.600000000000e-04 
-4.288867137335e-04 -4.493296871748e-05 0.0 
-4.493296871748e-05 2.231681053608e-03 0.0 
0.0 0.0 -3.600000000000e-04 
-4.273112732016e-04 -4.114156621977e-05 0.0 
-4.114156621977e-05 2.231455818993e-03 0.0 
0.0 0.0 -3.600000000000e-04 
-4.257570290361e-04 -3.645486640434e-05 0.0 
-3.645486640434e-05 2.230888371703e-03 0.0 
0.0 0.0 -3.600000000000e-04 
-4.244314698173e-04 -3.118593770298e-05 0.0 
-3.118593770298e-05 2.230297443320e-03 0.0 
0.0 0.0 -3.600000000000e-04 
-4.235346113232e-04 -2.542079837558e-05 0.0 
-2.542079837558e-05 2.230073732848e-03 0.0 
0.0 0.0 -3.600000000000e-04 
-4.234462512888e-04 -1.962142205216e-05 0.0 
-1.962142205216e-05 2.230753915289e-03 0.0 
0.0 0.0 -3.600000000000e-04 
-4.245254089640e-04 -1.838851999952e-05 0.0 
-1.838851999952e-05 2.232666465119e-03 0.0 
0.0 0.0 -3.600000000000e-04 
-4.258704289300e-04 1.031587817340e-04 0.0 
1.031587817340e-04 2.234469848219e-03 0.0 
0.0 0.0 -3.600000000000e-04 
-5.013977665724e-04 6.678054078335e-05 0.0 
6.678054078335e-05 2.703319892598e-03 0.0 
0.0 0.0 -4.266666666667e-04 
-5.000873162729e-04 4.739922315480e-07 0.0 
4.739922315480e-07 2.701172909826e-03 0.0 
0.0 0.0 -4.266666666667e-04 
-4.998071790653e-04 -2.178747072151e-05 0.0 
-2.178747072151e-05 2.700224901928e-03 0.0 
0.0 0.0 -4.266666666667e-04 
-5.007267420848e-04 -2.682346092380e-05 0.0 
-2.682346092380e-05 2.700321897617e-03 0.0 
0.0 0.0 -4.266666666667e-04 
-5.023438002827e-04 -3.104522400768e-05 0.0 
-3.104522400768e-05 2.700942336046e-03 0.0 
0.0 0.0 -4.266666666667e-04 
-5.046005899036e-04 -3.482640527593e-05 0.0 
-3.482640527593e-05 2.701790544412e-03 0.0 
0.0 0.0 -4.266666666667e-04 
-5.072352564482e-04 -3.838001695029e-05 0.0 
-3.838001695029e-05 2.702415804766e-03 0.0 
0.0 0.0 -4.266666666667e-04 
-5.098433996047e-04 -4.063252974789e-05 0.0 
-4.063252974789e-05 2.702308962132e-03 0.0 
0.0 0.0 -4.266666666667e-04 
-5.126344180745e-04 -4.048719551750e-05 0.0 
-4.048719551750e-05 2.701874566670e-03 0.0 
0.0 0.0 -4.266666666667e-04 
-5.163726922397e-04 -3.792427931932e-05 0.0 
-3.792427931932e-05 2.701523899062e-03 0.0 
0.0 0.0 -4.266666666667e-04 
-5.207389108666e-04 -3.338420754901e-05 0.0 
-3.338420754901e-05 2.701011155077e-03 0.0 
0.0 0.0 -4.266666666667e-04 
-5.252891517300e-04 -2.626882560247e-05 0.0 
-2.626882560247e-05 2.699762094262e-03 0.0 
0.0 0.0 -4.266666666667e-04 
-5.299120677543e-04 -1.439019615054e-05 0.0 
-1.439019615054e-05 2.697258437041e-03 0.0 
0.0 0.0 -4.266666666667e-04 
-5.357525103733e-04 4.962642114391e-06 0.0 
4.962642114391e-06 2.695874831440e-03 0.0 
0.0 0.0 -4.266666666667e-04 
-5.442031688919e-04 2.698467857241e-05 0.0 
2.698467857241e-05 2.694563012441e-03 0.0 
0.0 0.0 -4.266666666667e-04 
-5.535277733574e-04 5.642979102142e-05 0.0 
5.642979102142e-05 2.694993549781e-03 0.0 
0.0 0.0 -4.266666666667e-04 
-5.636396406095e-04 8.491085392806e-05 0.0 
8.491085392806e-05 2.688346064678e-03 0.0 
0.0 0.0 -4.266666666667e-04 
-5.667180855967e-04 1.404909475521e-04 0.0 
1.404909475521e-04 2.684702359192e-03 0.0 
0.0 0.0 -4.266666666667e-04 
-5.760763171982e-04 1.868968236703e-04 0.0 
1.868968236703e-04 2.700776601453e-03 0.0 
0.0 0.0 -4.293391642371e-04 
-5.414318027528e-04 2.582759348764e-04 0.0 
2.582759348764e-04 2.576024993124e-03 0.0 
0.0 0.0 -4.186734693878e-04 
-6.002569752709e-04 2.106199425740e-04 0.0 
2.106199425740e-04 3.040601950913e-03 0.0 
0.0 0.0 -4.852947845805e-04 
-6.404347893740e-04 1.452930758805e-04 0.0 
1.452930758805e-04 3.169480489552e-03 0.0 
0.0 0.0 -4.959669582118e-04 
-6.373670366941e-04 1.181817318953e-04 0.0 
1.181817318953e-04 3.157603873263e-03 0.0 
0.0 0.0 -4.933333333333e-04 
-6.335926768194e-04 7.794245507497e-05 0.0 
7.794245507497e-05 3.156688021345e-03 0.0 
0.0 0.0 -4.933333333333e-04 
-6.220474498716e-04 5.134440581893e-05 0.0 
5.134440581893e-05 3.160786184874e-03 0.0 
0.0 0.0 -4.933333333333e-04 
-6.159406124673e-04 2.206688587732e-05 0.0 
2.206688587732e-05 3.161928673014e-03 0.0 
0.0 0.0 -4.933333333333e-04 
-6.109166782003e-04 3.714322771242e-06 0.0 
3.714322771242e-06 3.167514719351e-03 0.0 
0.0 0.0 -4.933333333333e-04 
-6.054581133856e-04 -7.307117585949e-06 0.0 
-7.307117585949e-06 3.170142463375e-03 0.0 
0.0 0.0 -4.933333333333e-04 
-6.000107331639e-04 -1.469328145384e-05 0.0 
-1.469328145384e-05 3.171163635534e-03 0.0 
0.0 0.0 -4.933333333333e-04 
-5.941898088781e-04 -2.074063559937e-05 0.0 
-2.074063559937e-05 3.171088193189e-03 0.0 
0.0 0.0 -4.933333333333e-04 
-5.898957035509e-04 -2.603463415847e-05 0.0 
-2.603463415847e-05 3.171921383452e-03 0.0 
0.0 0.0 -4.933333333333e-04 
-5.871319754984e-04 -2.671317052851e-05 0.0 
-2.671317052851e-05 3.173080463882e-03 0.0 
0.0 0.0 -4.933333333333e-04 
-5.831711305422e-04 -2.471825246934e-05 0.0 
-2.471825246934e-05 3.172447959486e-03 0.0 
0.0 0.0 -4.933333333333e-04 
-5.799110508209e-04 -2.308008329295e-05 0.0 
-2.308008329295e-05 3.171263771991e-03 0.0 
0.0 0.0 -4.933333333333e-04 
-5.773557365906e-04 -2.133550619489e-05 0.0 
-2.133550619489e-05 3.170479716806e-03 0.0 
0.0 0.0 -4.933333333333e-04 
-5.758014518713e-04 -1.892419660156e-05 0.0 
-1.892419660156e-05 3.170002557654e-03 0.0 
0.0 0.0 -4.933333333333e-04 
-5.748764960425e-04 -1.805012883539e-05 0.0 
-1.805012883539e-05 3.170347605706e-03 0.0 
0.0 0.0 -4.933333333333e-04 
-5.760506827362e-04 -2.075419369238e-05 0.0 
-2.075419369238e-05 3.172373778641e-03 0.0 
0.0 0.0 -4.933333333333e-04 
-5.767249358615e-04 1.015271389729e-04 0.0 
1.015271389729e-04 3.173431107618e-03 0.0 
0.0 0.0 -4.933333333333e-04 
-6.527572212549e-04 6.780105280902e-05 0.0 
6.780105280902e-05 3.643323392159e-03 0.0 
0.0 0.0 -5.600000000000e-04 
-6.484652640847e-04 -1.867317635502e-06 0.0 
-1.867317635502e-06 3.638221338221e-03 0.0 
0.0 0.0 -5.600000000000e-04 
-6.483746879456e-04 -1.524137963776e-05 0.0 
-1.524137963776e-05 3.636879668493e-03 0.0 
0.0 0.0 -5.600000000000e-04 
-6.506726970290e-04 -1.678761464932e-05 0.0 
-1.678761464932e-05 3.638240294297e-03 0.0 
0.0 0.0 -5.600000000000e-04 
-6.515567938656e-04 -1.582684597498e-05 0.0 
-1.582684597498e-05 3.638013899900e-03 0.0 
0.0 0.0 -5.600000000000e-04 
-6.554750631859e-04 -1.470434980338e-05 0.0 
-1.470434980338e-05 3.639460407849e-03 0.0 
0.0 0.0 -5.600000000000e-04 
-6.594170751284e-04 -1.283952103919e-05 0.0 
-1.283952103919e-05 3.641117124007e-03 0.0 
0.0 0.0 -5.600000000000e-04 
-6.641464449147e-04 -1.550365402295e-05 0.0 
-1.550365402295e-05 3.640594034775e-03 0.0 
0.0 0.0 -5.600000000000e-04 
-6.668858948113e-04 -7.941772856611e-06 0.0 
-7.941772856611e-06 3.636849838348e-03 0.0 
0.0 0.0 -5.600000000000e-04 
-6.741591020856e-04 2.577853317367e-06 0.0 
2.577853317367e-06 3.638100575400e-03 0.0 
0.0 0.0 -5.600000000000e-04 
-6.809485102659e-04 9.363144820372e-06 0.0 
9.363144820372e-06 3.637932552511e-03 0.0 
0.0 0.0 -5.600000000000e-04 
-6.861033350786e-04 2.086292296722e-05 0.0 
2.086292296722e-05 3.634350486115e-03 0.0 
0.0 0.0 -5.600000000000e-04 
-6.932352806905e-04 3.670348944842e-05 0.0 
3.670348944842e-05 3.630716211654e-03 0.0 
0.0 0.0 -5.600000000000e-04 
-6.980811967268e-04 5.967994361152e-05 0.0 
5.967994361152e-05 3.618796687988e-03 0.0 
0.0 0.0 -5.600000000000e-04 
-7.013848849314e-04 1.083829473888e-04 0.0 
1.083829473888e-04 3.620396778090e-03 0.0 
0.0 0.0 -5.600000000000e-04 
-7.078351814424e-04 1.219335158790e-04 0.0 
1.219335158790e-04 3.644573923445e-03 0.0 
0.0 0.0 -5.626724975705e-04 
-6.666304385001e-04 1.660523767343e-04 0.0 
1.660523767343e-04 3.518024469538e-03 0.0 
0.0 0.0 -5.520068027211e-04 
-7.306639245541e-04 1.487904650220e-04 0.0 
1.487904650220e-04 3.987541024977e-03 0.0 
0.0 0.0 -6.186195084094e-04 
-7.777639873500e-04 1.047682677556e-04 0.0 
1.047682677556e-04 4.108452618951e-03 0.0 
0.0 0.0 -6.292929119699e-04 
-7.730086078056e-04 8.789895144587e-05 0.0 
8.789895144587e-05 4.091912019672e-03 0.0 
0.0 0.0 -6.266666666667e-04 
-7.618524580481e-04 6.512725790421e-05 0.0 
6.512725790421e-05 4.093546504346e-03 0.0 
0.0 0.0 -6.266666666667e-04 
-7.572869673676e-04 4.077816536235e-05 0.0 
4.077816536235e-05 4.100722229585e-03 0.0 
0.0 0.0 -6.266666666667e-04 
-7.522759778333e-04 3.231234712664e-05 0.0 
3.231234712664e-05 4.105753030330e-03 0.0 
0.0 0.0 -6.266666666667e-04 
-7.456061716167e-04 2.469919196216e-05 0.0 
2.469919196216e-05 4.102695942195e-03 0.0 
0.0 0.0 -6.266666666667e-04 
-7.404032118594e-04 6.233661207773e-06 0.0 
6.233661207773e-06 4.103985895951e-03 0.0 
0.0 0.0 -6.266666666667e-04 
-7.306819678944e-04 6.672744555550e-06 0.0 
6.672744555550e-06 4.108272711165e-03 0.0 
0.0 0.0 -6.266666666667e-04 
-7.293745733164e-04 -1.304990055444e-06 0.0 
-1.304990055444e-06 4.106419007565e-03 0.0 
0.0 0.0 -6.266666666667e-04 
-7.249341380716e-04 -1.277588629320e-06 0.0 
-1.277588629320e-06 4.105173170991e-03 0.0 
0.0 0.0 -6.266666666667e-04 
-7.218872567136e-04 -1.221940477039e-05 0.0 
-1.221940477039e-05 4.104125766063e-03 0.0 
0.0 0.0 -6.266666666667e-04 
-7.226283520212e-04 -7.586680396462e-06 0.0 
-7.586680396462e-06 4.106687618408e-03 0.0 
0.0 0.0 -6.266666666667e-04 
-7.194567743785e-04 -1.345793513568e-05 0.0 
-1.345793513568e-05 4.101402324494e-03 0.0 
0.0 0.0 -6.266666666667e-04 
-7.217276456755e-04 -3.632688016994e-05 0.0 
-3.632688016994e-05 4.111803083088e-03 0.0 
0.0 0.0 -6.266666666667e-04 
-7.310107230365e-04 1.113089146982e-04 0.0 
1.113089146982e-04 4.120905737550e-03 0.0 
0.0 0.0 -6.266666666667e-04 
-5.712575155337e-06 1.356411689195e-04 0.0 
1.356411689195e-04 1.119373046878e-04 0.0 
0.0 0.0 -4.552488408536e-05 
-5.390774772352e-05 5.034820354463e-04 0.0 
5.034820354463e-04 4.360805582907e-04 0.0 
0.0 0.0 -1.637883473860e-04 
-2.426953950237e-04 7.209557136897e-04 0.0 
7.209557136897e-04 9.898501558157e-04 0.0 
0.0 0.0 -2.899585637902e-04 
-4.843559632477e-04 7.054171669141e-04 0.0 
7.054171669141e-04 1.501747503856e-03 0.0 
0.0 0.0 -2.705470891579e-04 
-5.162796584260e-04 5.374660571038e-04 0.0 
5.374660571038e-04 1.954632750136e-03 0.0 
0.0 0.0 -3.310903933743e-04 
-5.449792335688e-04 4.356130269135e-04 0.0 
4.356130269135e-04 2.421388465933e-03 0.0 
0.0 0.0 -3.977576770754e-04 
-6.066455436428e-04 3.364332527846e-04 0.0 
3.364332527846e-04 2.883298822982e-03 0.0 
0.0 0.0 -4.650267612653e-04 
-6.625430485052e-04 2.762683699332e-04 0.0 
2.762683699332e-04 3.355431578782e-03 0.0 
0.0 0.0 -5.317697887215e-04 
-7.239877336263e-04 2.202667385963e-04 0.0 
2.202667385963e-04 3.828610808697e-03 0.0 
0.0 0.0 -5.985602557689e-04 
-7.842817421153e-04 1.883796168278e-04 0.0 
1.883796168278e-04 4.312421836845e-03 0.0 
0.0 0.0 -6.652967104836e-04 
-6.528049956140e-05 8.329192367362e-04 0.0 
8.329192367362e-04 6.721534156509e-04 0.0 
0.0 0.0 -2.600883926098e-04 
-1.238271811776e-03 -2.323410981101e-05 0.0 
-2.323410981101e-05 8.143368057859e-03 0.0 
0.0 0.0 -1.303388942653e-03 
5.998510431380e-05 -1.163529753908e-04 0.0 
-1.163529753908e-04 2.499013313257e-04 0.0 
0.0 0.0 -7.661148810519e-05 
1.270751205327e-05 -3.607914457565e-05 0.0 
-3.607914457565e-05 6.964316184807e-06 0.0 
0.0 0.0 -8.430783530605e-06 
-1.278901467981e-03 -2.582894247670e-04 0.0 
-2.582894247670e-04 8.264882866352e-03 0.0 
0.0 0.0 -1.303360877099e-03 
-5.655990039998e-04 8.080804633426e-04 0.0 
8.080804633426e-04 1.859508276799e-03 0.0 
0.0 0.0 -3.221766324775e-04 
-9.861956324832e-04 -6.715847648061e-05 0.0 
-6.715847648061e-05 4.773589466734e-03 0.0 
0.0 0.0 -7.300567563597e-04 
-1.244927303710e-03 2.945275852412e-04 0.0 
2.945275852412e-04 8.164800639293e-03 0.0 
0.0 0.0 -1.300998267065e-03 
-6.348034790759e-04 4.424120780115e-04 0.0 
4.424120780115e-04 2.761117670990e-03 0.0 
0.0 0.0 -4.497936382440e-04 
-1.277128875373e-03 4.777706098865e-04 0.0 
4.777706098865e-04 8.316029240451e-03 0.0 
0.0 0.0 -1.304014651794e-03 
-7.514819667783e-04 2.897671537100e-04 0.0 
2.897671537100e-04 3.742162088854e-03 0.0 
0.0 0.0 -5.857980290939e-04 
-1.307584739855e-03 -2.907864623538e-04 0.0 
-2.907864623538e-04 8.435582561033e-03 0.0 
0.0 0.0 -1.307658508868e-03 
2.194594038095e-04 -2.670865977714e-05 0.0 
-2.670865977714e-05 1.694259524564e-04 0.0 
0.0 0.0 -9.345456780789e-05 
-1.309138496400e-03 5.212450025025e-04 0.0 
5.212450025025e-04 8.474949316046e-03 0.0 
0.0 0.0 -1.304481600125e-03 
-8.746417822978e-04 2.068395432367e-04 0.0 
2.068395432367e-04 4.729142408164e-03 0.0 
0.0 0.0 -7.203075318094e-04 
-6.505648739721e-04 -3.624268182337e-05 0.0 
-3.624268182337e-05 2.957311441966e-03 0.0 
0.0 0.0 -4.640473930190e-04 
-1.131372666701e-03 -4.491765098181e-05 0.0 
-4.491765098181e-05 5.976165985442e-03 0.0 
0.0 0.0 -9.125512086551e-04 
-1.314763544022e-03 4.589275118802e-04 0.0 
4.589275118802e-04 8.560285468091e-03 0.0 
0.0 0.0 -1.301280071178e-03 
-1.328200349095e-03 3.774182231255e-04 0.0 
3.774182231255e-04 8.674652987533e-03 0.0 
0.0 0.0 -1.304294760550e-03 
-1.328231009146e-03 1.002317222840e-04 0.0 
1.002317222840e-04 8.762903021805e-03 0.0 
0.0 0.0 -1.303238611779e-03 
-1.321361255880e-03 2.020746578681e-04 0.0 
2.020746578681e-04 8.706453928135e-03 0.0 
0.0 0.0 -1.297727402575e-03 
-1.333675382953e-03 2.525190978684e-04 0.0 
2.525190978684e-04 8.729905622316e-03 0.0 
0.0 0.0 -1.305306183856e-03 
-8.907724214169e-04 1.372579395388e-04 0.0 
1.372579395388e-04 4.950739460616e-03 0.0 
0.0 0.0 -7.522011426764e-04 
-8.750579348879e-04 6.356350708577e-05 0.0 
6.356350708577e-05 4.972444393085e-03 0.0 
0.0 0.0 -7.529849494387e-04 
-8.651922808025e-04 1.321213173771e-05 0.0 
1.321213173771e-05 5.002490543075e-03 0.0 
0.0 0.0 -7.580270452736e-04 
-1.081282276580e-03 -2.537529428612e-05 0.0 
-2.537529428612e-05 6.643650052824e-03 0.0 
0.0 0.0 -9.950081682429e-04 
-1.332561184719e-03 -2.295807888403e-04 0.0 
-2.295807888403e-04 8.502002206283e-03 0.0 
0.0 0.0 -1.302874185639e-03 
0.0 0.0 0.0 
0.0 0.0 0.0 
0.0 0.0 0.0 
2.233748649996e-04 5.268922663070e-06 0.0 
5.268922663070e-06 2.031789523429e-04 0.0 
0.0 0.0 -1.071793558177e-04 
-1.266615157062e-03 -4.708891648946e-05 0.0 
-4.708891648946e-05 7.362986267811e-03 0.0 
0.0 0.0 -1.122886395833e-03 
-8.590690058330e-04 2.817818056919e-05 0.0 
2.817818056919e-05 4.956725197885e-03 0.0 
0.0 0.0 -7.500338828344e-04 
-3.077541790528e-04 -1.952701143312e-05 0.0 
-1.952701143312e-05 1.504768126338e-03 0.0 
0.0 0.0 -2.594501920933e-04 
-1.324226706230e-03 4.167698339106e-04 0.0 
4.167698339106e-04 8.547363588762e-03 0.0 
0.0 0.0 -1.293200138473e-03 
-1.268789998251e-03 4.116378875631e-04 0.0 
4.116378875631e-04 8.267843264786e-03 0.0 
0.0 0.0 -1.307307853467e-03 
-1.298127013523e-03 5.178122413189e-04 0.0 
5.178122413189e-04 8.390890810401e-03 0.0 
0.0 0.0 -1.304733450272e-03 
-1.233362636415e-03 1.634458979136e-04 0.0 
1.634458979136e-04 8.121763907804e-03 0.0 
0.0 0.0 -1.297928233296e-03 
-1.261877986510e-03 -1.597052773119e-04 0.0 
-1.597052773119e-04 8.188934025231e-03 0.0 
0.0 0.0 -1.305578568836e-03 
2.734204477331e-05 -3.169143204034e-04 0.0 
-3.169143204034e-04 1.647533136443e-04 0.0 
0.0 0.0 -8.226872593096e-05 
-8.795053511419e-04 9.559274535899e-05 0.0 
9.559274535899e-05 4.954160552764e-03 0.0 
0.0 0.0 -7.500980793755e-04 
-1.291571793349e-03 -3.018456542619e-04 0.0 
-3.018456542619e-04 8.267318175430e-03 0.0 
0.0 0.0 -1.293180865222e-03 
-1.191688283040e-03 -1.679553581366e-05 0.0 
-1.679553581366e-05 7.562043590583e-03 0.0 
0.0 0.0 -1.123598490052e-03 
1.170418686809e-04 -5.562668358397e-05 0.0 
-5.562668358397e-05 2.275676700802e-04 0.0 
0.0 0.0 -7.719741026454e-05 
-8.274582342161e-04 -6.171908782243e-05 0.0 
-6.171908782243e-05 3.848512271059e-03 0.0 
0.0 0.0 -5.937437734062e-04 
-1.335764842081e-03 6.371320431880e-05 0.0 
6.371320431880e-05 8.844549453637e-03 0.0 
0.0 0.0 -1.311981303940e-03 
-6.029700723185e-04 6.122078773443e-04 0.0 
6.122078773443e-04 2.350776615634e-03 0.0 
0.0 0.0 -3.897472533596e-04 
-3.421036135192e-04 9.389470505226e-04 0.0 
9.389470505226e-04 1.298921873387e-03 0.0 
0.0 0.0 -3.268992177355e-04 
-6.932234286341e-04 3.612940895342e-04 0.0 
3.612940895342e-04 3.253564498504e-03 0.0 
0.0 0.0 -5.178568985205e-04 
-8.102727904185e-04 2.233971647189e-04 0.0 
2.233971647189e-04 4.222711404521e-03 0.0 
0.0 0.0 -6.527703211191e-04 
5.632521825810e-05 3.043366454816e-04 0.0 
3.043366454816e-04 1.167157562534e-04 0.0 
0.0 0.0 -7.416041764780e-05 
-9.647575502476e-04 -2.771769126341e-06 0.0 
-2.771769126341e-06 5.776762544034e-03 0.0 
0.0 0.0 -8.684787984471e-04 
-1.350888138525e-03 -1.433490915200e-04 0.0 
-1.433490915200e-04 8.608994521473e-03 0.0 
0.0 0.0 -1.313906642692e-03 
2.535763956766e-04 3.453965229505e-05 0.0 
3.453965229505e-05 1.648612099088e-04 0.0 
0.0 0.0 -1.090843966873e-04 
-1.275593957644e-03 1.853867106533e-05 0.0 
1.853867106533e-05 8.418825182379e-03 0.0 
0.0 0.0 -1.253930875827e-03 
-8.953448143456e-04 1.901723990594e-04 0.0 
1.901723990594e-04 4.929510438704e-03 0.0 
0.0 0.0 -7.532271817479e-04 
-9.242130448013e-04 2.218369834796e-04 0.0 
2.218369834796e-04 5.094044769017e-03 0.0 
0.0 0.0 -7.809350190597e-04 
-9.469027331401e-04 2.184886764960e-04 0.0 
2.184886764960e-04 5.336848493436e-03 0.0 
0.0 0.0 -8.115578932774e-04 
-9.847582339447e-04 2.348277518639e-04 0.0 
2.348277518639e-04 5.535490339246e-03 0.0 
0.0 0.0 -8.428390908522e-04 
-1.013224796440e-03 2.269955445031e-04 0.0 
2.269955445031e-04 5.773109205172e-03 0.0 
0.0 0.0 -8.784658474099e-04 
-1.038385862696e-03 2.590411142921e-04 0.0 
2.590411142921e-04 5.954479327597e-03 0.0 
0.0 0.0 -9.060409163497e-04 
-1.004174411440e-03 2.781484189758e-04 0.0 
2.781484189758e-04 5.703926568537e-03 0.0 
0.0 0.0 -8.711257577414e-04 
-1.054585459025e-03 2.973439443916e-04 0.0 
2.973439443916e-04 6.126110480118e-03 0.0 
0.0 0.0 -9.341442283280e-04 
-1.020905393351e-03 3.220952727550e-04 0.0 
3.220952727550e-04 5.866625374892e-03 0.0 
0.0 0.0 -8.989774131092e-04 
-1.060675836449e-03 2.424242741137e-04 0.0 
2.424242741137e-04 6.211611638975e-03 0.0 
0.0 0.0 -9.415083590319e-04 
-1.069903741450e-03 3.342745829502e-04 0.0 
3.342745829502e-04 6.289952349254e-03 0.0 
0.0 0.0 -9.622976032585e-04 
-1.033366094007e-03 3.621226093725e-04 0.0 
3.621226093725e-04 6.024211968433e-03 0.0 
0.0 0.0 -9.268639294333e-04 
-1.081748877589e-03 3.725821950626e-04 0.0 
3.725821950626e-04 6.448138080981e-03 0.0 
0.0 0.0 -9.903372159162e-04 
-1.042953915019e-03 3.991340856965e-04 0.0 
3.991340856965e-04 6.178329635147e-03 0.0 
0.0 0.0 -9.547708836903e-04 
-9.946320659626e-04 3.943126043460e-04 0.0 
3.943126043460e-04 5.758814307551e-03 0.0 
0.0 0.0 -8.916807130883e-04 
-1.001107217771e-03 4.332773723891e-04 0.0 
4.332773723891e-04 5.906894361937e-03 0.0 
0.0 0.0 -9.194532194038e-04 
-9.524385169357e-04 4.327952618966e-04 0.0 
4.327952618966e-04 5.490022466699e-03 0.0 
0.0 0.0 -8.565021464485e-04 
-9.551941416785e-04 4.714703413802e-04 0.0 
4.714703413802e-04 5.632535536945e-03 0.0 
0.0 0.0 -8.841639842141e-04 
-1.003948910985e-03 4.659340529388e-04 0.0 
4.659340529388e-04 6.052492370979e-03 0.0 
0.0 0.0 -9.471984275390e-04 
-9.534464918986e-04 5.005026845975e-04 0.0 
5.005026845975e-04 5.770878701320e-03 0.0 
0.0 0.0 -9.118195294070e-04 
-9.061256584098e-04 5.150134062317e-04 0.0 
5.150134062317e-04 5.352614190247e-03 0.0 
0.0 0.0 -8.488396520500e-04 
-8.989049191365e-04 5.434397803423e-04 0.0 
5.434397803423e-04 5.483228311018e-03 0.0 
0.0 0.0 -8.764089341820e-04 
-8.533039374695e-04 5.667693254413e-04 0.0 
5.667693254413e-04 5.068208533921e-03 0.0 
0.0 0.0 -8.135623229517e-04 
-8.400733524865e-04 5.914836390070e-04 0.0 
5.914836390070e-04 5.191255654721e-03 0.0 
0.0 0.0 -8.410744910442e-04 
-7.968543408339e-04 6.237249391908e-04 0.0 
6.237249391908e-04 4.777124479860e-03 0.0 
0.0 0.0 -7.781617608290e-04 
-7.768533972698e-04 6.436004668132e-04 0.0 
6.436004668132e-04 4.892920097115e-03 0.0 
0.0 0.0 -8.056965831182e-04 
-8.240566969273e-04 5.997503228454e-04 0.0 
5.997503228454e-04 5.313376653990e-03 0.0 
0.0 0.0 -8.686949506212e-04 
-7.549029941076e-04 6.445435251704e-04 0.0 
6.445435251704e-04 5.007797875212e-03 0.0 
0.0 0.0 -8.332427817419e-04 
-7.080731455591e-04 7.008821416478e-04 0.0 
7.008821416478e-04 4.586577191639e-03 0.0 
0.0 0.0 -7.703313069557e-04 
-6.796342790660e-04 6.889970591832e-04 0.0 
6.889970591832e-04 4.694361205396e-03 0.0 
0.0 0.0 -7.977945042040e-04 
-6.329025767040e-04 7.594983388287e-04 0.0 
7.594983388287e-04 4.271526927018e-03 0.0 
0.0 0.0 -7.349073124327e-04 
-5.970419350956e-04 7.303350951608e-04 0.0 
7.303350951608e-04 4.369967111415e-03 0.0 
0.0 0.0 -7.622392297106e-04 
-6.532929672579e-04 6.522887049741e-04 0.0 
6.522887049741e-04 4.806542372592e-03 0.0 
0.0 0.0 -8.253152238873e-04 
-5.665194748989e-04 6.694860838181e-04 0.0 
6.694860838181e-04 4.478701756150e-03 0.0 
0.0 0.0 -7.896995018144e-04 
-5.068058502527e-04 7.602496009026e-04 0.0 
7.602496009026e-04 4.031209139410e-03 0.0 
0.0 0.0 -7.264132926704e-04 
-4.737449794266e-04 6.709445860115e-04 0.0 
6.709445860115e-04 4.140917238724e-03 0.0 
0.0 0.0 -7.539848323805e-04 
-4.092281239023e-04 7.730243516518e-04 0.0 
7.730243516518e-04 3.680765614921e-03 0.0 
0.0 0.0 -6.903858661722e-04 
-3.744957372966e-04 6.516877818939e-04 0.0 
6.516877818939e-04 3.794607072583e-03 0.0 
0.0 0.0 -7.182351804274e-04 
-3.014418119782e-04 7.651198626849e-04 0.0 
7.651198626849e-04 3.317111817818e-03 0.0 
0.0 0.0 -6.542402593883e-04 
-2.691367924077e-04 5.991354595496e-04 0.0 
5.991354595496e-04 3.436288112929e-03 0.0 
0.0 0.0 -6.821763112594e-04 
-3.572033048063e-04 5.016025540799e-04 0.0 
5.016025540799e-04 3.930238801817e-03 0.0 
0.0 0.0 -7.460902125261e-04 
-2.604633093040e-04 4.087486075233e-04 0.0 
4.087486075233e-04 3.586761049540e-03 0.0 
0.0 0.0 -7.100832486075e-04 
-1.613056217724e-04 4.995138349428e-04 0.0 
4.995138349428e-04 3.072389318551e-03 0.0 
0.0 0.0 -6.458624074531e-04 
-1.669705829229e-04 2.701808013183e-04 0.0 
2.701808013183e-04 3.243787358763e-03 0.0 
0.0 0.0 -6.737786430284e-04 
-2.753947664968e-04 2.161212745525e-04 0.0 
2.161212745525e-04 3.768674846201e-03 0.0 
0.0 0.0 -7.381473126730e-04 
-2.005498486414e-04 5.346396201185e-05 0.0 
5.346396201185e-05 3.452103226554e-03 0.0 
0.0 0.0 -7.017500108595e-04 
-3.129525029214e-04 3.691539212023e-05 0.0 
3.691539212023e-05 3.980008917697e-03 0.0 
0.0 0.0 -7.662494016216e-04 
-2.576506604218e-04 -1.344602376400e-04 0.0 
-1.344602376400e-04 3.691587731914e-03 0.0 
0.0 0.0 -7.297828278826e-04 
-1.426325829897e-04 -1.501001214894e-04 0.0 
-1.501001214894e-04 3.157731231159e-03 0.0 
0.0 0.0 -6.655364893108e-04 
-2.218003623758e-04 -3.334729403515e-04 0.0 
-3.334729403515e-04 3.428848173996e-03 0.0 
0.0 0.0 -6.934067383651e-04 
-3.318343911700e-04 -2.853674173367e-04 0.0 
-2.853674173367e-04 3.952815162001e-03 0.0 
0.0 0.0 -7.577868799165e-04 
-3.144801710965e-04 -4.682272711583e-04 0.0 
-4.682272711583e-04 3.714915939774e-03 0.0 
0.0 0.0 -7.212202614536e-04 
-2.108184981842e-04 -5.509789330318e-04 0.0 
-5.509789330318e-04 3.196953321697e-03 0.0 
0.0 0.0 -6.571136838490e-04 
-3.194748950850e-04 -6.509678457029e-04 0.0 
-6.509678457029e-04 3.509025892108e-03 0.0 
0.0 0.0 -6.848379476561e-04 
-4.134303053585e-04 -5.537180261355e-04 0.0 
-5.537180261355e-04 4.010754256809e-03 0.0 
0.0 0.0 -7.491645792950e-04 
-4.282972412297e-04 -7.003622053819e-04 0.0 
-7.003622053819e-04 3.819503617895e-03 0.0 
0.0 0.0 -7.127097857715e-04 
-3.469063150971e-04 -8.191207970740e-04 0.0 
-8.191207970740e-04 3.332834435183e-03 0.0 
0.0 0.0 -6.486049398320e-04 
-4.603200915782e-04 -8.241016297384e-04 0.0 
-8.241016297384e-04 3.654972315785e-03 0.0 
0.0 0.0 -6.763006240845e-04 
-5.326763552168e-04 -7.095630877107e-04 0.0 
-7.095630877107e-04 4.127629826769e-03 0.0 
0.0 0.0 -7.409416231994e-04 
-5.642434690968e-04 -7.961766967206e-04 0.0 
-7.961766967206e-04 3.962246775740e-03 0.0 
0.0 0.0 -7.042275185679e-04 
-5.048810542407e-04 -9.111393169982e-04 0.0 
-9.111393169982e-04 3.507729400124e-03 0.0 
0.0 0.0 -6.398389559308e-04 
-6.027165900428e-04 -8.444966016725e-04 0.0 
-8.444966016725e-04 3.810620087909e-03 0.0 
0.0 0.0 -6.674633383154e-04 
-6.579291994771e-04 -7.450391146030e-04 0.0 
-7.450391146030e-04 4.258237816838e-03 0.0 
0.0 0.0 -7.324886333286e-04 
-6.885251553241e-04 -7.661379123145e-04 0.0 
-7.661379123145e-04 4.095680745521e-03 0.0 
0.0 0.0 -6.954027321055e-04 
-7.420005201256e-04 -6.813900099092e-04 0.0 
-6.813900099092e-04 4.540296059999e-03 0.0 
0.0 0.0 -7.608997874520e-04 
-6.419229239274e-04 -8.515280830913e-04 0.0 
-8.515280830913e-04 3.660198205629e-03 0.0 
0.0 0.0 -6.302092384919e-04 
-7.165087956100e-04 -7.532581299851e-04 0.0 
-7.532581299851e-04 3.933160643348e-03 0.0 
0.0 0.0 -6.580989212857e-04 
-6.748415764425e-04 -8.158732049488e-04 0.0 
-8.158732049488e-04 3.506981101763e-03 0.0 
0.0 0.0 -5.925517106747e-04 
-7.365832294088e-04 -7.073699189760e-04 0.0 
-7.073699189760e-04 3.765896700508e-03 0.0 
0.0 0.0 -6.207111136070e-04 
-6.332000182986e-04 5.918731838089e-04 0.0 
5.918731838089e-04 4.929291128701e-03 0.0 
0.0 0.0 -8.529317679587e-04 
-6.943116331248e-04 -7.425915444218e-04 0.0 
-7.425915444218e-04 3.344277999279e-03 0.0 
0.0 0.0 -5.549884598765e-04 
-6.397413698948e-04 -8.660814527003e-04 0.0 
-8.660814527003e-04 3.093984914707e-03 0.0 
0.0 0.0 -5.276250340903e-04 
-7.441497249529e-04 -6.348309289793e-04 0.0 
-6.348309289793e-04 3.588685288948e-03 0.0 
0.0 0.0 -5.833260987948e-04 
-7.927694967591e-04 -6.072286345187e-04 0.0 
-6.072286345187e-04 4.017000879105e-03 0.0 
0.0 0.0 -6.493616581942e-04 
-6.966675025981e-04 -6.428656991036e-04 0.0 
-6.428656991036e-04 3.166084591150e-03 0.0 
0.0 0.0 -5.173870653820e-04 
-7.365323002863e-04 -5.431818663254e-04 0.0 
-5.431818663254e-04 3.397457388952e-03 0.0 
0.0 0.0 -5.459094278256e-04 
-6.801980278813e-04 -5.258870908465e-04 0.0 
-5.258870908465e-04 2.971149924429e-03 0.0 
0.0 0.0 -4.798161731008e-04 
-3.522724475006e-04 8.978406558880e-04 0.0 
8.978406558880e-04 3.218246737404e-03 0.0 
0.0 0.0 -6.252159162693e-04 
-1.003922379852e-03 4.867498946042e-04 0.0 
4.867498946042e-04 6.194900288835e-03 0.0 
0.0 0.0 -9.750716696758e-04 
-7.134730581966e-04 -4.396097415729e-04 0.0 
-4.396097415729e-04 3.191992919970e-03 0.0 
0.0 0.0 -5.084495576641e-04 
-6.454975030147e-04 -4.098543326581e-04 0.0 
-4.098543326581e-04 2.756723401947e-03 0.0 
0.0 0.0 -4.423119711188e-04 
-6.169555617155e-04 -4.854535332185e-04 0.0 
-4.854535332185e-04 2.543124995000e-03 0.0 
0.0 0.0 -4.136824817550e-04 
-5.630688119643e-04 -3.553409865602e-04 0.0 
-3.553409865602e-04 2.315573721592e-03 0.0 
0.0 0.0 -3.761903503575e-04 
-1.032297422083e-03 1.966440866369e-04 0.0 
1.966440866369e-04 6.038887422175e-03 0.0 
0.0 0.0 -9.126358703463e-04 
-1.092679819842e-03 2.404953654437e-04 0.0 
2.404953654437e-04 6.471742125457e-03 0.0 
0.0 0.0 -9.772611937912e-04 
-1.065662184042e-03 1.952825978825e-04 0.0 
1.952825978825e-04 6.276115658093e-03 0.0 
0.0 0.0 -9.468612964576e-04 
-1.124488971150e-03 2.272669760496e-04 0.0 
2.272669760496e-04 6.729090336894e-03 0.0 
0.0 0.0 -1.012955122490e-03 
-1.098065280761e-03 1.864830102051e-04 0.0 
1.864830102051e-04 6.541298868571e-03 0.0 
0.0 0.0 -9.835180958883e-04 
-5.915603593799e-04 -3.065298427479e-04 0.0 
-3.065298427479e-04 2.521782196510e-03 0.0 
0.0 0.0 -4.047791634435e-04 
-1.117175513921e-03 3.540420738705e-04 0.0 
3.540420738705e-04 6.717826161917e-03 0.0 
0.0 0.0 -1.026687169009e-03 
-1.146459728684e-03 2.677090129604e-04 0.0 
2.677090129604e-04 6.908937528882e-03 0.0 
0.0 0.0 -1.042264213861e-03 
-8.619810308033e-04 5.269046982762e-04 0.0 
5.269046982762e-04 4.942534175484e-03 0.0 
0.0 0.0 -7.861871271282e-04 
-6.685992335526e-04 7.579980182072e-04 0.0 
7.579980182072e-04 4.174187567995e-03 0.0 
0.0 0.0 -7.076088937226e-04 
-3.823000922578e-04 1.751040962943e-04 0.0 
1.751040962943e-04 4.285393794973e-03 0.0 
0.0 0.0 -8.027518904046e-04 
-7.754697783619e-04 -4.563258168331e-04 0.0 
-4.563258168331e-04 3.623603682734e-03 0.0 
0.0 0.0 -5.745905038755e-04 
-7.478137892348e-04 -3.620965601600e-04 0.0 
-3.620965601600e-04 3.412205611854e-03 0.0 
0.0 0.0 -5.371338854166e-04 
-8.174754817651e-04 -3.813163108904e-04 0.0 
-3.813163108904e-04 3.849101426160e-03 0.0 
0.0 0.0 -6.033452624549e-04 
-7.192525572030e-04 -6.519418612780e-04 0.0 
-6.519418612780e-04 4.714458239345e-03 0.0 
0.0 0.0 -7.980428604176e-04 
-8.008672232585e-04 -6.001783307384e-04 0.0 
-6.001783307384e-04 4.992005436326e-03 0.0 
0.0 0.0 -8.266132305475e-04 
-7.854918836627e-04 -5.659348858598e-04 0.0 
-5.659348858598e-04 5.176434454621e-03 0.0 
0.0 0.0 -8.638188500004e-04 
-8.639017049063e-04 -5.248351014622e-04 0.0 
-5.248351014622e-04 5.448454375514e-03 0.0 
0.0 0.0 -8.924533907576e-04 
-8.555184497349e-04 -4.894755576408e-04 0.0 
-4.894755576408e-04 5.642058910946e-03 0.0 
0.0 0.0 -9.297164513315e-04 
-9.301291339826e-04 -4.570426975750e-04 0.0 
-4.570426975750e-04 5.908844626244e-03 0.0 
0.0 0.0 -9.583747859490e-04 
-9.353789003032e-04 -4.780922276340e-04 0.0 
-4.780922276340e-04 5.711821717037e-03 0.0 
0.0 0.0 -9.210728288235e-04 
-9.984662583326e-04 -4.207024963502e-04 0.0 
-4.207024963502e-04 6.168121907027e-03 0.0 
0.0 0.0 -9.870277070005e-04 
-1.000069004232e-03 -4.285924737525e-04 0.0 
-4.285924737525e-04 5.966651563586e-03 0.0 
0.0 0.0 -9.497007337289e-04 
-9.283284515458e-04 -4.229135290675e-04 0.0 
-4.229135290675e-04 6.110180447664e-03 0.0 
0.0 0.0 -9.956835613869e-04 
-8.527578693464e-04 -4.403303765288e-04 0.0 
-4.403303765288e-04 5.842885643991e-03 0.0 
0.0 0.0 -9.668198671257e-04 
-1.059819806392e-03 -3.815720688592e-04 0.0 
-3.815720688592e-04 6.418981492352e-03 0.0 
0.0 0.0 -1.015681523326e-03 
-1.057949721367e-03 -3.770560260125e-04 0.0 
-3.770560260125e-04 6.213345858748e-03 0.0 
0.0 0.0 -9.783260305704e-04 
-1.113690001508e-03 -3.391138449317e-04 0.0 
-3.391138449317e-04 6.662067817752e-03 0.0 
0.0 0.0 -1.044362401637e-03 
-1.108897527401e-03 -3.261874601882e-04 0.0 
-3.261874601882e-04 6.451449547970e-03 0.0 
0.0 0.0 -1.007007767922e-03 
-1.056102434059e-03 -3.617377197121e-04 0.0 
-3.617377197121e-04 6.006353850389e-03 0.0 
0.0 0.0 -9.408676861799e-04 
-1.103510128039e-03 -3.034940289184e-04 0.0 
-3.034940289184e-04 6.238484304806e-03 0.0 
0.0 0.0 -9.695029660748e-04 
-1.052845247082e-03 -3.373861149014e-04 0.0 
-3.373861149014e-04 5.798954310895e-03 0.0 
0.0 0.0 -9.035672079865e-04 
-4.228503435162e-04 2.652797493901e-05 0.0 
2.652797493901e-05 4.498640496550e-03 0.0 
0.0 0.0 -8.309624794500e-04 
-4.884683166150e-04 1.460460655517e-04 0.0 
1.460460655517e-04 4.796700712876e-03 0.0 
0.0 0.0 -8.675775700443e-04 
-5.309148746778e-04 2.225588307319e-05 0.0 
2.225588307319e-05 5.010085131158e-03 0.0 
0.0 0.0 -8.958500940740e-04 
-5.943549435448e-04 1.251718936452e-04 0.0 
1.251718936452e-04 5.302582402065e-03 0.0 
0.0 0.0 -9.325549191312e-04 
-6.382538609797e-04 2.086054713912e-05 0.0 
2.086054713912e-05 5.516155282354e-03 0.0 
0.0 0.0 -9.609176734917e-04 
-7.011603817707e-04 1.101794033340e-04 0.0 
1.101794033340e-04 5.804703043974e-03 0.0 
0.0 0.0 -9.976363410588e-04 
-7.465959866999e-04 2.216834778625e-05 0.0 
2.216834778625e-05 6.016830116331e-03 0.0 
0.0 0.0 -1.026032504441e-03 
-6.923978724816e-04 -6.826398853254e-05 0.0 
-6.826398853254e-05 5.743653636097e-03 0.0 
0.0 0.0 -9.892761093610e-04 
-1.092308246197e-03 4.087334969491e-04 0.0 
4.087334969491e-04 6.601377400440e-03 0.0 
0.0 0.0 -1.018102500310e-03 
-5.675897396992e-05 3.425637172408e-04 0.0 
3.425637172408e-04 2.708861454988e-03 0.0 
0.0 0.0 -6.095594541484e-04 
-6.420114659775e-05 6.151203334216e-04 0.0 
6.151203334216e-04 2.551183745386e-03 0.0 
0.0 0.0 -5.816898710390e-04 
5.441246620249e-05 4.399473863901e-04 0.0 
4.399473863901e-04 2.161774981432e-03 0.0 
0.0 0.0 -5.454521931755e-04 
2.844502818309e-05 7.644395339616e-04 0.0 
7.644395339616e-04 2.024830997844e-03 0.0 
0.0 0.0 -5.176388733440e-04 
1.652901373793e-04 5.705702379394e-04 0.0 
5.705702379394e-04 1.600345183292e-03 0.0 
0.0 0.0 -4.814163979944e-04 
1.130601457631e-04 9.562292981796e-04 0.0 
9.562292981796e-04 1.494895390825e-03 0.0 
0.0 0.0 -4.537165770244e-04 
2.845119300012e-04 7.483953602617e-04 0.0 
7.483953602617e-04 1.019187802654e-03 0.0 
0.0 0.0 -4.208902240644e-04 
2.929325993539e-04 2.620833489363e-04 0.0 
2.620833489363e-04 1.186149753907e-03 0.0 
0.0 0.0 -4.466351565148e-04 
4.659960569609e-04 3.874152989476e-04 0.0 
3.874152989476e-04 5.352766773023e-04 0.0 
0.0 0.0 -3.736376070058e-04 
4.059265982279e-04 -1.758088808093e-04 0.0 
-1.758088808093e-04 8.092916298160e-04 0.0 
0.0 0.0 -4.168446658567e-04 
5.790431118009e-04 -1.610129805314e-04 0.0 
-1.610129805314e-04 1.533127793959e-04 0.0 
0.0 0.0 -3.063790003961e-04 
4.494391646470e-04 -7.152402717994e-04 0.0 
-7.152402717994e-04 5.082279969168e-04 0.0 
0.0 0.0 -3.640020775467e-04 
-8.080190775198e-04 5.920502661192e-04 0.0 
5.920502661192e-04 5.436356176569e-03 0.0 
0.0 0.0 -8.963565068603e-04 
-6.651558879210e-04 2.088271070434e-04 0.0 
2.088271070434e-04 5.603894024499e-03 0.0 
0.0 0.0 -9.691568884624e-04 
-7.699005087498e-04 1.883379167874e-04 0.0 
1.883379167874e-04 6.102423018858e-03 0.0 
0.0 0.0 -1.034312087004e-03 
-7.384024095732e-04 2.760115291154e-04 0.0 
2.760115291154e-04 5.907746579569e-03 0.0 
0.0 0.0 -1.005320805676e-03 
-5.404221803057e-04 -4.187129725138e-04 0.0 
-4.187129725138e-04 2.110154003912e-03 0.0 
0.0 0.0 -3.475522021424e-04 
-1.152888887005e-03 -2.763407572661e-04 0.0 
-2.763407572661e-04 6.681517292358e-03 0.0 
0.0 0.0 -1.035773625862e-03 
-9.326850124499e-04 -3.805734010338e-04 0.0 
-3.805734010338e-04 6.318938914437e-03 0.0 
0.0 0.0 -1.032922975483e-03 
-8.578946226242e-04 -3.814307824260e-04 0.0 
-3.814307824260e-04 6.050788235921e-03 0.0 
0.0 0.0 -1.003739924893e-03 
-8.007230077279e-04 -5.030783828559e-05 0.0 
-5.030783828559e-05 6.244226135644e-03 0.0 
0.0 0.0 -1.054598834243e-03 
-4.941523760955e-04 -2.470231279283e-04 0.0 
-2.470231279283e-04 2.071816915527e-03 0.0 
0.0 0.0 -3.392587823741e-04 
1.975953042673e-04 1.172543779916e-03 0.0 
1.172543779916e-03 9.666654142640e-04 0.0 
0.0 0.0 -3.922431101850e-04 
5.175793587873e-06 1.277837662737e-03 0.0 
1.277837662737e-03 1.466786264722e-03 0.0 
0.0 0.0 -4.261104576107e-04 
-1.152692083578e-03 2.146597661269e-04 0.0 
2.146597661269e-04 6.983288018661e-03 0.0 
0.0 0.0 -1.048874596840e-03 
-1.125979627456e-03 1.800276227316e-04 0.0 
1.800276227316e-04 6.792196765101e-03 0.0 
0.0 0.0 -1.019458214591e-03 
-9.448287362971e-04 -3.295389867260e-04 0.0 
-3.295389867260e-04 6.536387605041e-03 0.0 
0.0 0.0 -1.070157681403e-03 
-5.240293716215e-04 -2.102668930863e-04 0.0 
-2.102668930863e-04 2.277314558376e-03 0.0 
0.0 0.0 -3.675747464493e-04 
-1.063791247498e-03 -3.742192618344e-04 0.0 
-3.742192618344e-04 6.627422368744e-03 0.0 
0.0 0.0 -1.052997445444e-03 
5.558984473440e-04 4.127353325470e-04 0.0 
4.127353325470e-04 1.463881506699e-05 0.0 
0.0 0.0 -2.445159696047e-04 
-1.144117684349e-03 -2.458346103954e-04 0.0 
-2.458346103954e-04 6.462839923362e-03 0.0 
0.0 0.0 -9.982306137915e-04 
-1.191309827109e-03 -2.266694415371e-04 0.0 
-2.266694415371e-04 6.904200660223e-03 0.0 
0.0 0.0 -1.064501221861e-03 
-9.418341400068e-04 -4.830251057162e-04 0.0 
-4.830251057162e-04 5.517520339527e-03 0.0 
0.0 0.0 -8.838659695519e-04 
-8.408929706273e-04 2.533730996691e-04 0.0 
2.533730996691e-04 6.403362100756e-03 0.0 
0.0 0.0 -1.070909199420e-03 
-8.123210735737e-04 3.267258872306e-04 0.0 
3.267258872306e-04 6.208133296915e-03 0.0 
0.0 0.0 -1.041442769611e-03 
2.640974401389e-04 -6.120925406395e-04 0.0 
-6.120925406395e-04 1.170954425306e-03 0.0 
0.0 0.0 -4.384799197683e-04 
2.270076462303e-04 -1.094827319140e-03 0.0 
-1.094827319140e-03 9.810701092341e-04 0.0 
0.0 0.0 -4.046094527367e-04 
3.640551099348e-04 -1.155184556941e-03 0.0 
-1.155184556941e-03 4.131638396833e-04 0.0 
0.0 0.0 -3.139947606995e-04 
1.171979887630e-04 -1.455005939438e-03 0.0 
-1.455005939438e-03 9.453620887615e-04 0.0 
0.0 0.0 -3.763072820036e-04 
2.556371078841e-05 -1.262704422364e-03 0.0 
-1.262704422364e-03 1.454464914390e-03 0.0 
0.0 0.0 -4.289053338950e-04 
-8.947678599683e-05 -1.490768828574e-03 0.0 
-1.490768828574e-03 1.396555812330e-03 0.0 
0.0 0.0 -3.979758726750e-04 
2.329510608106e-05 -1.514078363831e-03 0.0 
-1.514078363831e-03 9.452166061342e-04 0.0 
0.0 0.0 -3.667276109228e-04 
-2.100553572376e-04 -1.558593298157e-03 0.0 
-1.558593298157e-03 1.402552177449e-03 0.0 
0.0 0.0 -3.771854463149e-04 
-2.665534885264e-04 -1.440543195804e-03 0.0 
-1.440543195804e-03 1.828480576306e-03 0.0 
0.0 0.0 -4.192720002935e-04 
-3.858828221178e-04 -1.432331817451e-03 0.0 
-1.432331817451e-03 1.803183213938e-03 0.0 
0.0 0.0 -3.853829593207e-04 
-2.961455271275e-04 -1.398427341996e-03 0.0 
-1.398427341996e-03 1.416563920223e-03 0.0 
0.0 0.0 -3.646163496721e-04 
-4.654616132702e-04 -1.259328861233e-03 0.0 
-1.259328861233e-03 1.764244007017e-03 0.0 
0.0 0.0 -3.558200702016e-04 
-1.201889062818e-03 -2.543911578407e-04 0.0 
-2.543911578407e-04 7.124942193322e-03 0.0 
0.0 0.0 -1.101875158976e-03 
5.412904168970e-04 -8.385322248721e-05 0.0 
-8.385322248721e-05 -1.404456435363e-04 0.0 
0.0 0.0 -1.717906171546e-04 
-9.463800631761e-04 3.860027273263e-04 0.0 
3.860027273263e-04 5.343793686453e-03 0.0 
0.0 0.0 -8.288706041983e-04 
-1.014362980206e-03 -3.321555799501e-04 0.0 
-3.321555799501e-04 6.794335154877e-03 0.0 
0.0 0.0 -1.099012274073e-03 
-8.569045148225e-04 3.078985663283e-05 0.0 
3.078985663283e-05 6.510332221214e-03 0.0 
0.0 0.0 -1.090660416876e-03 
-1.178566600954e-03 2.066846340334e-04 0.0 
2.066846340334e-04 7.236502688045e-03 0.0 
0.0 0.0 -1.085032576515e-03 
-1.153658343620e-03 1.755152393049e-04 0.0 
1.755152393049e-04 7.044914703598e-03 0.0 
0.0 0.0 -1.055603631703e-03 
-1.098678134952e-03 1.564744163133e-04 0.0 
1.564744163133e-04 6.595940529562e-03 0.0 
0.0 0.0 -9.897378988699e-04 
-1.129113373444e-03 1.503482155027e-04 0.0 
1.503482155027e-04 6.853244331223e-03 0.0 
0.0 0.0 -1.026001677571e-03 
-1.181824965340e-03 1.678156779438e-04 0.0 
1.678156779438e-04 7.301020112961e-03 0.0 
0.0 0.0 -1.091942449670e-03 
-1.157557793781e-03 1.434383666525e-04 0.0 
1.434383666525e-04 7.107529686986e-03 0.0 
0.0 0.0 -1.062342898562e-03 
-1.103342207633e-03 1.238709536611e-04 0.0 
1.238709536611e-04 6.657901312686e-03 0.0 
0.0 0.0 -9.962627399151e-04 
-1.130139591936e-03 1.194308116232e-04 0.0 
1.194308116232e-04 6.908298246914e-03 0.0 
0.0 0.0 -1.032646955902e-03 
-1.072650473166e-03 9.941159075290e-05 0.0 
9.941159075290e-05 6.455574140328e-03 0.0 
0.0 0.0 -9.664557332607e-04 
-1.101356119743e-03 9.815565709695e-05 0.0 
9.815565709695e-05 6.706288769856e-03 0.0 
0.0 0.0 -1.002889032254e-03 
-1.155889062888e-03 1.141636426079e-04 0.0 
1.141636426079e-04 7.157664523701e-03 0.0 
0.0 0.0 -1.069134413525e-03 
-1.129364737971e-03 9.069177524751e-05 0.0 
9.069177524751e-05 6.958007176896e-03 0.0 
0.0 0.0 -1.039387411609e-03 
-1.074512864600e-03 8.003659807365e-05 0.0 
8.003659807365e-05 6.506063569350e-03 0.0 
0.0 0.0 -9.730575354659e-04 
-1.102505706781e-03 6.895302199807e-05 0.0 
6.895302199807e-05 6.755927681467e-03 0.0 
0.0 0.0 -1.009574527126e-03 
-1.046730538131e-03 5.947738879001e-05 0.0 
5.947738879001e-05 6.301429284161e-03 0.0 
0.0 0.0 -9.431603702596e-04 
-1.071542509842e-03 4.629020306893e-05 0.0 
4.629020306893e-05 6.545497453892e-03 0.0 
0.0 0.0 -9.796061197752e-04 
-1.128792209327e-03 6.597728227981e-05 0.0 
6.597728227981e-05 7.006220652052e-03 0.0 
0.0 0.0 -1.046101832713e-03 
-4.073418969283e-04 -1.607374412238e-04 0.0 
-1.607374412238e-04 1.828608037656e-03 0.0 
0.0 0.0 -3.035957800550e-04 
-7.554826328512e-04 -1.381735686785e-04 0.0 
-1.381735686785e-04 5.982792301535e-03 0.0 
0.0 0.0 -1.017732614895e-03 
-8.650297313857e-04 -1.043541426240e-04 0.0 
-1.043541426240e-04 6.483758424389e-03 0.0 
0.0 0.0 -1.083831836677e-03 
-7.928232165852e-04 -3.175969841458e-04 0.0 
-3.175969841458e-04 3.652484692606e-03 0.0 
0.0 0.0 -5.671321338944e-04 
-8.566347672055e-04 -3.217821912401e-04 0.0 
-3.217821912401e-04 4.048954472777e-03 0.0 
0.0 0.0 -6.325382687906e-04 
-8.804918361104e-04 -3.627202257711e-04 0.0 
-3.627202257711e-04 4.282181100263e-03 0.0 
0.0 0.0 -6.695659616924e-04 
-9.177573047804e-04 -2.924538415403e-04 0.0 
-2.924538415403e-04 4.507721826303e-03 0.0 
0.0 0.0 -6.986863204145e-04 
-1.099135465243e-03 4.357947276918e-05 0.0 
4.357947276918e-05 6.797671672464e-03 0.0 
0.0 0.0 -1.015477767897e-03 
-1.160436245727e-03 6.544078644588e-05 0.0 
6.544078644588e-05 7.256684604588e-03 0.0 
0.0 0.0 -1.082739357160e-03 
7.036319334209e-05 1.449833710054e-03 0.0 
1.449833710054e-03 1.011168072104e-03 0.0 
0.0 0.0 -3.730214571323e-04 
-1.313033917885e-04 1.466714958247e-03 0.0 
1.466714958247e-03 1.502828426790e-03 0.0 
0.0 0.0 -4.032920832132e-04 
-1.202425520628e-03 2.413601229435e-04 0.0 
2.413601229435e-04 7.423802842249e-03 0.0 
0.0 0.0 -1.114382729655e-03 
-1.180850422310e-03 -1.936004808914e-04 0.0 
-1.936004808914e-04 6.684429122052e-03 0.0 
0.0 0.0 -1.027045364000e-03 
-1.134320678585e-03 -2.084199271041e-04 0.0 
-2.084199271041e-04 6.243084428302e-03 0.0 
0.0 0.0 -9.609938998495e-04 
-5.952582294012e-04 8.316068584819e-04 0.0 
8.316068584819e-04 3.858437738170e-03 0.0 
0.0 0.0 -6.721935305596e-04 
-6.370100935664e-04 8.121723615139e-04 0.0 
8.121723615139e-04 3.769953827514e-03 0.0 
0.0 0.0 -6.449639573754e-04 
-5.665659749616e-04 8.991854182347e-04 0.0 
8.991854182347e-04 3.453268816289e-03 0.0 
0.0 0.0 -6.093131083769e-04 
-6.122481697245e-04 8.584550154617e-04 0.0 
8.584550154617e-04 3.367517643807e-03 0.0 
0.0 0.0 -5.812298138028e-04 
-6.717347223774e-04 7.671538527367e-04 0.0 
7.671538527367e-04 3.680324616707e-03 0.0 
0.0 0.0 -6.173664885638e-04 
-5.474862438506e-04 9.567364556164e-04 0.0 
9.567364556164e-04 3.048590303343e-03 0.0 
0.0 0.0 -5.448148816535e-04 
-7.720267330795e-04 -4.449545656596e-04 0.0 
-4.449545656596e-04 5.565922562376e-03 0.0 
0.0 0.0 -9.373051277721e-04 
-1.182206612194e-03 1.041005248131e-04 0.0 
1.041005248131e-04 7.409010778114e-03 0.0 
0.0 0.0 -1.105708206284e-03 
-5.928875136439e-04 -5.713513742364e-04 0.0 
-5.713513742364e-04 2.330327898660e-03 0.0 
0.0 0.0 -3.852871208612e-04 
-5.197872744909e-04 -4.881912543796e-04 0.0 
-4.881912543796e-04 1.906337896852e-03 0.0 
0.0 0.0 -3.193625892355e-04 
-1.227873719132e-03 -1.791865956722e-04 0.0 
-1.791865956722e-04 7.126040838435e-03 0.0 
0.0 0.0 -1.093300181677e-03 
-6.499802166189e-04 -1.689058959396e-04 0.0 
-1.689058959396e-04 5.481207367019e-03 0.0 
0.0 0.0 -9.522822042369e-04 
-8.770180670307e-04 5.584319225786e-04 0.0 
5.584319225786e-04 5.741150606381e-03 0.0 
0.0 0.0 -9.319735432435e-04 
-8.671724403427e-04 5.454834419887e-04 0.0 
5.454834419887e-04 5.872286509418e-03 0.0 
0.0 0.0 -9.598347391831e-04 
-9.359860302395e-04 5.226295226197e-04 0.0 
5.226295226197e-04 6.177406845640e-03 0.0 
0.0 0.0 -9.957130113267e-04 
-9.320971335610e-04 5.080083978468e-04 0.0 
5.080083978468e-04 6.315456934145e-03 0.0 
0.0 0.0 -1.023751803962e-03 
-1.000869956237e-03 4.939881751637e-04 0.0 
4.939881751637e-04 6.620841154437e-03 0.0 
0.0 0.0 -1.059873349132e-03 
-1.004419613008e-03 4.777529205192e-04 0.0 
4.777529205192e-04 6.763876066662e-03 0.0 
0.0 0.0 -1.087854580038e-03 
-9.336137141730e-04 4.809338762962e-04 0.0 
4.809338762962e-04 6.463526298401e-03 0.0 
0.0 0.0 -1.051791170495e-03 
-9.097029887622e-04 3.089094526998e-04 0.0 
3.089094526998e-04 6.700162919637e-03 0.0 
0.0 0.0 -1.107463318235e-03 
-1.013980886497e-03 4.491053628713e-04 0.0 
4.491053628713e-04 6.922381498406e-03 0.0 
0.0 0.0 -1.115916943430e-03 
-1.033295848304e-03 4.860531472176e-05 0.0 
4.860531472176e-05 6.321432505072e-03 0.0 
0.0 0.0 -9.487150400336e-04 
-6.387227248277e-04 3.148916192941e-04 0.0 
3.148916192941e-04 5.411845409225e-03 0.0 
0.0 0.0 -9.398448712237e-04 
-3.958753706079e-04 -1.306941406373e-03 0.0 
-1.306941406373e-03 2.210168825673e-03 0.0 
0.0 0.0 -4.474652294669e-04 
-3.867396229061e-04 -1.939364425131e-04 0.0 
-1.939364425131e-04 1.612473113241e-03 0.0 
0.0 0.0 -2.752498982733e-04 
-3.548792531294e-04 -1.099906862766e-03 0.0 
-1.099906862766e-03 1.383653509656e-03 0.0 
0.0 0.0 -3.352047878591e-04 
-4.486846026636e-04 -1.253624941077e-04 0.0 
-1.253624941077e-04 2.009661496099e-03 0.0 
0.0 0.0 -3.299748606085e-04 
-5.597023421830e-04 -1.650736869684e-04 0.0 
-1.650736869684e-04 2.479203026553e-03 0.0 
0.0 0.0 -3.961554456411e-04 
-1.033444219732e-03 -2.887128519644e-04 0.0 
-2.887128519644e-04 7.020027445513e-03 0.0 
0.0 0.0 -1.136360603439e-03 
-1.072616243485e-03 4.757105308921e-04 0.0 
4.757105308921e-04 7.071175993343e-03 0.0 
0.0 0.0 -1.124065295910e-03 
-1.065195527322e-03 4.849349100928e-04 0.0 
4.849349100928e-04 6.917548798149e-03 0.0 
0.0 0.0 -1.095615423988e-03 
-6.465811726499e-04 7.943118945265e-04 0.0 
7.943118945265e-04 3.291375737462e-03 0.0 
0.0 0.0 -5.539799138139e-04 
-6.949762395585e-04 6.852387151617e-04 0.0 
6.852387151617e-04 3.583300335040e-03 0.0 
0.0 0.0 -5.905304635153e-04 
-9.409548518096e-04 2.363101942403e-04 0.0 
2.363101942403e-04 6.893498553700e-03 0.0 
0.0 0.0 -1.136278651916e-03 
-1.031330535355e-03 1.691125997159e-04 0.0 
1.691125997159e-04 6.096244556870e-03 0.0 
0.0 0.0 -9.177848451843e-04 
-1.043451867895e-03 1.026605375003e-04 0.0 
1.026605375003e-04 6.207052540714e-03 0.0 
0.0 0.0 -9.302130594432e-04 
-1.010991519056e-03 8.266817185374e-05 0.0 
8.266817185374e-05 5.998028369178e-03 0.0 
0.0 0.0 -9.001900590098e-04 
-3.040782914078e-04 -1.048978576797e-04 0.0 
-1.048978576797e-04 1.479833111238e-03 0.0 
0.0 0.0 -2.595221258752e-04 
-1.668157979825e-04 -1.176981615551e-03 0.0 
-1.176981615551e-03 1.066881825257e-03 0.0 
0.0 0.0 -3.546314877250e-04 
-1.207894844135e-03 1.612820959581e-04 0.0 
1.612820959581e-04 7.555800088084e-03 0.0 
0.0 0.0 -1.128363834889e-03 
-1.496144498695e-04 1.267178183608e-03 0.0 
1.267178183608e-03 1.924933515505e-03 0.0 
0.0 0.0 -4.615872697407e-04 
-2.777481430259e-04 1.364720531140e-03 0.0 
1.364720531140e-03 1.941765323137e-03 0.0 
0.0 0.0 -4.342639779644e-04 
4.034334735409e-04 2.445431345025e-04 0.0 
2.445431345025e-04 -9.041096436294e-05 0.0 
0.0 0.0 -1.341525039334e-04 
2.051377463425e-04 -1.961701048020e-05 0.0 
-1.961701048020e-05 -5.720414671563e-05 0.0 
0.0 0.0 -6.340011412580e-05 
-1.121483383227e-03 6.295637452115e-05 0.0 
6.295637452115e-05 7.029111019756e-03 0.0 
0.0 0.0 -1.051814883004e-03 
-1.177494848702e-03 6.582362175726e-05 0.0 
6.582362175726e-05 7.492557943411e-03 0.0 
0.0 0.0 -1.117859435171e-03 
-9.333898311745e-04 -3.509792996749e-04 0.0 
-3.509792996749e-04 4.719089492349e-03 0.0 
0.0 0.0 -7.356929296387e-04 
-9.785857666390e-04 -2.860980495383e-04 0.0 
-2.860980495383e-04 4.943354100410e-03 0.0 
0.0 0.0 -7.648299719236e-04 
-9.654424262213e-04 -2.714537898239e-04 0.0 
-2.714537898239e-04 6.765873836397e-03 0.0 
0.0 0.0 -1.107558395918e-03 
-5.027897087658e-04 -9.882385644824e-04 0.0 
-9.882385644824e-04 1.682465534830e-03 0.0 
0.0 0.0 -3.185922720913e-04 
-1.207361177183e-03 7.219593573452e-05 0.0 
7.219593573452e-05 7.710745314262e-03 0.0 
0.0 0.0 -1.149181664990e-03 
-7.221207359935e-04 -2.319743394949e-04 0.0 
-2.319743394949e-04 5.736084564024e-03 0.0 
0.0 0.0 -9.807908033776e-04 
-6.199444920269e-04 -2.803458900383e-04 0.0 
-2.803458900383e-04 5.234294253432e-03 0.0 
0.0 0.0 -9.152404036620e-04 
-8.850179884087e-04 -2.107315013722e-04 0.0 
-2.107315013722e-04 4.277220058387e-03 0.0 
0.0 0.0 -6.604623333687e-04 
-7.131176054971e-05 1.522786260440e-03 0.0 
1.522786260440e-03 1.128166094303e-03 0.0 
0.0 0.0 -3.722456989795e-04 
1.506124378874e-04 1.353289082485e-03 0.0 
1.353289082485e-03 6.471948717885e-04 0.0 
0.0 0.0 -3.185609919049e-04 
-2.939037762269e-04 -1.257650241065e-03 0.0 
-1.257650241065e-03 2.275247472139e-03 0.0 
0.0 0.0 -4.845585894574e-04 
-5.488065046231e-04 -1.067445958774e-03 0.0 
-1.067445958774e-03 2.060865836395e-03 0.0 
0.0 0.0 -3.723415964733e-04 
-4.888098213751e-04 -1.052003350203e-04 0.0 
-1.052003350203e-04 2.216308377581e-03 0.0 
0.0 0.0 -3.583452993329e-04 
-1.062272686561e-03 -2.298804836140e-04 0.0 
-2.298804836140e-04 7.251651551201e-03 0.0 
0.0 0.0 -1.173829981771e-03 
-1.227876715994e-03 1.893009349700e-04 0.0 
1.893009349700e-04 7.743204952100e-03 0.0 
0.0 0.0 -1.157575248917e-03 
-9.423902529627e-04 4.304393189543e-04 0.0 
4.304393189543e-04 6.620906454591e-03 0.0 
0.0 0.0 -1.080172819833e-03 
-8.612685947681e-04 4.776509476654e-04 0.0 
4.776509476654e-04 6.154589150170e-03 0.0 
0.0 0.0 -1.015677837919e-03 
-1.022115058251e-03 4.070298504517e-04 0.0 
4.070298504517e-04 7.083428986968e-03 0.0 
0.0 0.0 -1.144955025780e-03 
-3.834899570330e-04 -7.958142673473e-04 0.0 
-7.958142673473e-04 1.299084562353e-03 0.0 
0.0 0.0 -2.798534577099e-04 
-1.102214544351e-03 -3.027150081502e-04 0.0 
-3.027150081502e-04 7.282068807861e-03 0.0 
0.0 0.0 -1.165794428787e-03 
-1.216895343866e-03 -1.441675384032e-04 0.0 
-1.441675384032e-04 6.902897395280e-03 0.0 
0.0 0.0 -1.056136825731e-03 
-1.138941837453e-03 4.914289706325e-04 0.0 
4.914289706325e-04 7.351648623001e-03 0.0 
0.0 0.0 -1.157598467365e-03 
-1.123764904198e-03 4.819548128218e-04 0.0 
4.819548128218e-04 7.209866110785e-03 0.0 
0.0 0.0 -1.131219827106e-03 
-2.809946016527e-04 1.203335788346e-03 0.0 
1.203335788346e-03 2.340542833527e-03 0.0 
0.0 0.0 -4.968499830348e-04 
-3.877477755505e-04 1.221962387701e-03 0.0 
1.221962387701e-03 2.338693931197e-03 0.0 
0.0 0.0 -4.705806478706e-04 
-4.036150361409e-04 1.336476693924e-03 0.0 
1.336476693924e-03 1.977592500610e-03 0.0 
0.0 0.0 -4.078257031896e-04 
-4.816859073884e-04 1.176560530353e-03 0.0 
1.176560530353e-03 2.343460801890e-03 0.0 
0.0 0.0 -4.438024830152e-04 
-9.732353814622e-04 3.041939387352e-04 0.0 
3.041939387352e-04 5.448266059909e-03 0.0 
0.0 0.0 -8.361670615231e-04 
-3.925437291381e-04 1.104523798212e-03 0.0 
1.104523798212e-03 2.729748532404e-03 0.0 
0.0 0.0 -5.333915535664e-04 
-9.057439282626e-04 4.261225243385e-04 0.0 
4.261225243385e-04 5.077306138642e-03 0.0 
0.0 0.0 -7.939299641313e-04 
-8.975208378586e-04 3.720025570421e-04 0.0 
3.720025570421e-04 4.930717473606e-03 0.0 
0.0 0.0 -7.665196690739e-04 
-8.600171473097e-04 4.161603871668e-04 0.0 
4.161603871668e-04 4.671461707836e-03 0.0 
0.0 0.0 -7.319524942586e-04 
-7.253516315596e-04 6.727829162625e-04 0.0 
6.727829162625e-04 3.972513731187e-03 0.0 
0.0 0.0 -6.527873785750e-04 
-7.385699352999e-04 5.948696391935e-04 0.0 
5.948696391935e-04 3.862508165088e-03 0.0 
0.0 0.0 -6.261871041946e-04 
-1.081656769382e-04 8.687696267767e-04 0.0 
8.687696267767e-04 2.439613486548e-03 0.0 
0.0 0.0 -5.534964465553e-04 
-4.602867709727e-04 2.826245204948e-04 0.0 
2.826245204948e-04 4.601098480980e-03 0.0 
0.0 0.0 -8.390310526140e-04 
-8.925257354332e-04 -4.271097572203e-04 0.0 
-4.271097572203e-04 4.492522403458e-03 0.0 
0.0 0.0 -7.069621042110e-04 
-1.002856146604e-03 -4.033307783673e-04 0.0 
-4.033307783673e-04 5.565178736137e-03 0.0 
0.0 0.0 -8.751042800696e-04 
-7.003078251289e-04 -5.958729416123e-04 0.0 
-5.958729416123e-04 4.895224615458e-03 0.0 
0.0 0.0 -8.350146568664e-04 
-1.207341521713e-03 1.295685592876e-04 0.0 
1.295685592876e-04 7.603516284320e-03 0.0 
0.0 0.0 -1.135109731873e-03 
-1.234147304705e-03 1.158810138817e-04 0.0 
1.158810138817e-04 7.860000857238e-03 0.0 
0.0 0.0 -1.171938512032e-03 
-1.015895156183e-03 6.930194114772e-05 0.0 
6.930194114772e-05 6.052013455342e-03 0.0 
0.0 0.0 -9.065739516476e-04 
-9.767996699331e-04 4.467953763507e-05 0.0 
4.467953763507e-05 5.838511550894e-03 0.0 
0.0 0.0 -8.764137937918e-04 
-4.392150575772e-04 -3.259674398810e-04 0.0 
-3.259674398810e-04 1.665337581441e-03 0.0 
0.0 0.0 -2.813159824896e-04 
-4.247097810398e-04 -3.644747280315e-04 0.0 
-3.644747280315e-04 1.471773465299e-03 0.0 
0.0 0.0 -2.533966087790e-04 
-8.177306416292e-04 -6.121829702514e-04 0.0 
-6.121829702514e-04 4.811548278672e-03 0.0 
0.0 0.0 -7.894497706086e-04 
-1.082360538362e-03 -3.264662476232e-04 0.0 
-3.264662476232e-04 7.048376439915e-03 0.0 
0.0 0.0 -1.127529358476e-03 
-1.227748397910e-03 2.361030321983e-04 0.0 
2.361030321983e-04 7.672982991330e-03 0.0 
0.0 0.0 -1.150095860580e-03 
-1.249888144017e-03 2.671434152154e-04 0.0 
2.671434152154e-04 7.859407510661e-03 0.0 
0.0 0.0 -1.179372829571e-03 
-1.222973776595e-03 2.761414432265e-04 0.0 
2.761414432265e-04 7.603174812567e-03 0.0 
0.0 0.0 -1.143369325256e-03 
-9.935045909858e-04 -2.028359368237e-04 0.0 
-2.028359368237e-04 6.995967624477e-03 0.0 
0.0 0.0 -1.144273392007e-03 
3.495269992969e-05 1.197649878409e-04 0.0 
1.197649878409e-04 2.359795329880e-03 0.0 
0.0 0.0 -5.733740095480e-04 
-4.781962153862e-04 -1.012252719499e-04 0.0 
-1.012252719499e-04 4.730438814657e-03 0.0 
0.0 0.0 -8.590966742019e-04 
3.810975112987e-04 -3.002206319640e-04 0.0 
-3.002206319640e-04 -7.297745490903e-05 0.0 
0.0 0.0 -1.320514527384e-04 
-7.161621287090e-04 5.841402981115e-04 0.0 
5.841402981115e-04 5.248781673340e-03 0.0 
0.0 0.0 -8.884627649733e-04 
-3.115080858313e-04 -2.227975807547e-04 0.0 
-2.227975807547e-04 1.202076532669e-03 0.0 
0.0 0.0 -2.162536877156e-04 
-1.055053453560e-03 4.626735760724e-04 0.0 
4.626735760724e-04 6.476326574185e-03 0.0 
0.0 0.0 -1.010319580236e-03 
-1.255576380871e-03 -1.315357551102e-04 0.0 
-1.315357551102e-04 7.338059588025e-03 0.0 
0.0 0.0 -1.122815839103e-03 
-1.267850494462e-03 -1.674624135979e-04 0.0 
-1.674624135979e-04 7.563446267715e-03 0.0 
0.0 0.0 -1.159213750608e-03 
-1.010702044889e-03 2.850279828007e-04 0.0 
2.850279828007e-04 7.183997457293e-03 0.0 
0.0 0.0 -1.171959308352e-03 
-8.963384137737e-04 2.488891316052e-04 0.0 
2.488891316052e-04 4.875662042004e-03 0.0 
0.0 0.0 -7.470952864203e-04 
-7.058007902936e-04 5.271243929450e-04 0.0 
5.271243929450e-04 5.385179954600e-03 0.0 
0.0 0.0 -9.162722660995e-04 
-6.228080214073e-04 5.120192170004e-04 0.0 
5.120192170004e-04 5.067178617559e-03 0.0 
0.0 0.0 -8.808726170640e-04 
-8.477370711112e-04 3.577431200157e-04 0.0 
3.577431200157e-04 4.525141676784e-03 0.0 
0.0 0.0 -7.048691535495e-04 
-8.132640120407e-04 4.004719993994e-04 0.0 
4.004719993994e-04 4.272493314920e-03 0.0 
0.0 0.0 -6.707530558731e-04 
-8.209482996094e-04 4.682329320479e-04 0.0 
4.682329320479e-04 4.408754927634e-03 0.0 
0.0 0.0 -6.972958566626e-04 
-7.782280701881e-04 4.523325447572e-04 0.0 
4.523325447572e-04 4.016412533301e-03 0.0 
0.0 0.0 -6.359606378414e-04 
-4.177281549139e-04 -1.168672558867e-03 0.0 
-1.168672558867e-03 2.631942087578e-03 0.0 
0.0 0.0 -5.122594947013e-04 
-4.962383683680e-04 -1.157174554661e-03 0.0 
-1.157174554661e-03 2.541178569243e-03 0.0 
0.0 0.0 -4.750188804659e-04 
-1.154021499096e-03 4.782775772644e-04 0.0 
4.782775772644e-04 7.573815285751e-03 0.0 
0.0 0.0 -1.192042136895e-03 
-1.094464537807e-03 4.618413052259e-04 0.0 
4.618413052259e-04 7.386095086857e-03 0.0 
0.0 0.0 -1.178660172201e-03 
-1.187593002781e-03 4.811019602591e-04 0.0 
4.811019602591e-04 7.655964388501e-03 0.0 
0.0 0.0 -1.193029175878e-03 
-1.163263876641e-03 4.785864187479e-04 0.0 
4.785864187479e-04 7.511604884733e-03 0.0 
0.0 0.0 -1.168165168231e-03 
-1.037083014282e-03 2.184072236099e-04 0.0 
2.184072236099e-04 7.374910845912e-03 0.0 
0.0 0.0 -1.200910491468e-03 
-9.753553652922e-04 1.640389574658e-04 0.0 
1.640389574658e-04 7.090218753853e-03 0.0 
0.0 0.0 -1.164168769488e-03 
-6.028560444752e-04 -1.360178339637e-04 0.0 
-1.360178339637e-04 2.675687027615e-03 0.0 
0.0 0.0 -4.227350873389e-04 
-7.047203305141e-04 5.847954661015e-04 0.0 
5.847954661015e-04 3.476801185836e-03 0.0 
0.0 0.0 -5.646260317871e-04 
-1.245127779796e-03 1.777850177793e-04 0.0 
1.777850177793e-04 7.993741479566e-03 0.0 
0.0 0.0 -1.194151889699e-03 
-8.817872830960e-04 3.208786017712e-04 0.0 
3.208786017712e-04 4.774377627364e-03 0.0 
0.0 0.0 -7.390869131010e-04 
-1.164936831278e-03 -3.113795227657e-04 0.0 
-3.113795227657e-04 7.515893028419e-03 0.0 
0.0 0.0 -1.192835421428e-03 
-1.142129895980e-03 -3.204237901470e-04 0.0 
-3.204237901470e-04 7.305220282504e-03 0.0 
0.0 0.0 -1.156047193884e-03 
8.143997684988e-05 -5.632529459351e-05 0.0 
-5.632529459351e-05 -1.764449114255e-05 0.0 
0.0 0.0 -2.734092244600e-05 
2.721987346519e-04 -4.520014711284e-04 0.0 
-4.520014711284e-04 1.905810524669e-05 0.0 
0.0 0.0 -1.248243599565e-04 
-1.231567197499e-03 6.211834964842e-05 0.0 
6.211834964842e-05 7.963702026826e-03 0.0 
0.0 0.0 -1.184588873336e-03 
-5.000595373901e-04 1.204680535621e-03 0.0 
1.204680535621e-03 1.991465428866e-03 0.0 
0.0 0.0 -3.811925308841e-04 
-5.489936022904e-04 1.042785009975e-03 0.0 
1.042785009975e-03 2.300834123338e-03 0.0 
0.0 0.0 -4.158690271831e-04 
-3.842703009259e-04 1.346678098862e-03 0.0 
1.346678098862e-03 1.633275420512e-03 0.0 
0.0 0.0 -3.660215567096e-04 
-1.330527207980e-03 -3.853221662851e-05 0.0 
-3.853221662851e-05 8.239463133450e-03 0.0 
0.0 0.0 -1.258310293365e-03 
-8.465756460554e-04 5.727197951410e-07 0.0 
5.727197951410e-07 4.947192301730e-03 0.0 
0.0 0.0 -7.479256703001e-04 
-1.285435156603e-03 -1.236167483815e-04 0.0 
-1.236167483815e-04 7.770617594905e-03 0.0 
0.0 0.0 -1.189418985649e-03 
-7.744068399611e-04 5.950771192320e-04 0.0 
5.950771192320e-04 4.259141188703e-03 0.0 
0.0 0.0 -6.884682336192e-04 
-1.252365039908e-03 8.497968466371e-05 0.0 
8.497968466371e-05 8.173452803744e-03 0.0 
0.0 0.0 -1.216510697198e-03 
-7.049683277386e-04 4.524468991294e-04 0.0 
4.524468991294e-04 5.539667182357e-03 0.0 
0.0 0.0 -9.449116413281e-04 
-5.109301527551e-04 9.153066593930e-04 0.0 
9.153066593930e-04 3.518995939107e-03 0.0 
0.0 0.0 -6.353966017694e-04 
-8.973844045661e-04 -2.448816665564e-04 0.0 
-2.448816665564e-04 6.506541659943e-03 0.0 
0.0 0.0 -1.078177493492e-03 
-1.200545941931e-03 2.302554044874e-05 0.0 
2.302554044874e-05 7.723131628604e-03 0.0 
0.0 0.0 -1.149140729088e-03 
-1.267685038875e-03 6.016813044477e-05 0.0 
6.016813044477e-05 8.228074956414e-03 0.0 
0.0 0.0 -1.221625961084e-03 
-9.734656256453e-04 9.189307336811e-05 0.0 
9.189307336811e-05 5.749626761027e-03 0.0 
0.0 0.0 -8.638707813346e-04 
-9.480895872449e-04 4.301450456172e-05 0.0 
4.301450456172e-05 5.516146053233e-03 0.0 
0.0 0.0 -8.327709333130e-04 
-1.011335939965e-03 1.092245285963e-04 0.0 
1.092245285963e-04 5.940162525294e-03 0.0 
0.0 0.0 -8.925140200429e-04 
4.463857562194e-04 7.689358174209e-04 0.0 
7.689358174209e-04 8.096987600889e-05 0.0 
0.0 0.0 -2.260095566693e-04 
2.840813490605e-04 4.390350068277e-04 0.0 
4.390350068277e-04 7.817808705328e-06 0.0 
0.0 0.0 -1.250996390425e-04 
-1.210084270230e-03 9.714327804011e-05 0.0 
9.714327804011e-05 7.658599637129e-03 0.0 
0.0 0.0 -1.142090266074e-03 
-7.141279186037e-04 -2.802255352289e-04 0.0 
-2.802255352289e-04 3.181146952729e-03 0.0 
0.0 0.0 -5.006138788623e-04 
-7.694336124780e-04 -2.009358515531e-04 0.0 
-2.009358515531e-04 3.447879024720e-03 0.0 
0.0 0.0 -5.359218444892e-04 
-5.552155606093e-04 -8.313172136283e-04 0.0 
-8.313172136283e-04 1.917610481523e-03 0.0 
0.0 0.0 -3.334096804080e-04 
-5.855222745600e-04 -8.890134040167e-04 0.0 
-8.890134040167e-04 2.304658271308e-03 0.0 
0.0 0.0 -3.985542937016e-04 
-9.453814008689e-04 -4.031453143009e-04 0.0 
-4.031453143009e-04 4.927324523234e-03 0.0 
0.0 0.0 -7.728092966600e-04 
-8.970888917955e-04 -4.820738487373e-04 0.0 
-4.820738487373e-04 4.692923205728e-03 0.0 
0.0 0.0 -7.441750962829e-04 
-1.057585005233e-03 4.777756013197e-04 0.0 
4.777756013197e-04 6.625238408207e-03 0.0 
0.0 0.0 -1.038692069610e-03 
-1.108626014693e-03 4.632490588969e-04 0.0 
4.632490588969e-04 6.908491944325e-03 0.0 
0.0 0.0 -1.074129358999e-03 
-9.418242035971e-04 5.272068290834e-04 0.0 
5.272068290834e-04 6.041038675917e-03 0.0 
0.0 0.0 -9.675620497173e-04 
-6.990392591995e-04 -3.338931181341e-04 0.0 
-3.338931181341e-04 5.500989544803e-03 0.0 
0.0 0.0 -9.439558448496e-04 
-6.028432506679e-04 -3.974427061355e-04 0.0 
-3.974427061355e-04 5.004524485729e-03 0.0 
0.0 0.0 -8.783802297791e-04 
-5.183067816985e-04 -3.360734288677e-04 0.0 
-3.360734288677e-04 4.731806317453e-03 0.0 
0.0 0.0 -8.502765121185e-04 
-1.259796436841e-03 1.397569485309e-04 0.0 
1.397569485309e-04 8.039016122005e-03 0.0 
0.0 0.0 -1.199867006878e-03 
-1.287397602500e-03 1.387283529904e-04 0.0 
1.387283529904e-04 8.359284824254e-03 0.0 
0.0 0.0 -1.242728214876e-03 
-3.379919536494e-04 -1.097545305898e-03 0.0 
-1.097545305898e-03 2.729711593676e-03 0.0 
0.0 0.0 -5.488632449009e-04 
-2.035001513821e-04 -1.112025139158e-03 0.0 
-1.112025139158e-03 2.365560687545e-03 0.0 
0.0 0.0 -5.212126360957e-04 
-5.194133645792e-04 -1.055659007126e-03 0.0 
-1.055659007126e-03 2.949517889644e-03 0.0 
0.0 0.0 -5.390128571062e-04 
-1.267707936259e-03 2.118212896833e-04 0.0 
2.118212896833e-04 8.185373915988e-03 0.0 
0.0 0.0 -1.223056365294e-03 
-1.302765377273e-03 -1.484462634259e-04 0.0 
-1.484462634259e-04 8.004925592989e-03 0.0 
0.0 0.0 -1.224004481682e-03 
-1.287300987604e-03 -2.136982349667e-04 0.0 
-2.136982349667e-04 7.780826338296e-03 0.0 
0.0 0.0 -1.195820777905e-03 
-2.832529258607e-04 -2.494591043419e-04 0.0 
-2.494591043419e-04 1.024201089409e-03 0.0 
0.0 0.0 -1.882176919714e-04 
-3.969707252897e-04 -4.311951738694e-04 0.0 
-4.311951738694e-04 1.271754487823e-03 0.0 
0.0 0.0 -2.310783895037e-04 
2.054226679739e-05 1.347833966380e-03 0.0 
1.347833966380e-03 8.186709947017e-04 0.0 
0.0 0.0 -3.411234323309e-04 
1.823631015032e-04 1.033435563719e-03 0.0 
1.033435563719e-03 3.956751210192e-04 0.0 
0.0 0.0 -2.477306667953e-04 
-1.268592166038e-03 3.040791407146e-04 0.0 
3.040791407146e-04 8.023493563003e-03 0.0 
0.0 0.0 -1.207258722210e-03 
-1.243812686443e-03 3.149820227485e-04 0.0 
3.149820227485e-04 7.787606541598e-03 0.0 
0.0 0.0 -1.172631524865e-03 
-1.292321070540e-03 2.959466161544e-04 0.0 
2.959466161544e-04 8.333939565192e-03 0.0 
0.0 0.0 -1.247471551777e-03 
-5.223015362984e-04 -5.966006200107e-05 0.0 
-5.966006200107e-05 2.388783331191e-03 0.0 
0.0 0.0 -3.801539159394e-04 
-8.682373190693e-04 4.316445998786e-04 0.0 
4.316445998786e-04 6.315487464641e-03 0.0 
0.0 0.0 -1.045322365442e-03 
-1.095327153402e-03 -1.697306701960e-04 0.0 
-1.697306701960e-04 7.466737774382e-03 0.0 
0.0 0.0 -1.207899217314e-03 
-1.032573115176e-03 -1.219439203281e-04 0.0 
-1.219439203281e-04 7.241482983967e-03 0.0 
0.0 0.0 -1.178012378629e-03 
-1.169146255923e-03 -2.121713741949e-04 0.0 
-2.121713741949e-04 7.798947947966e-03 0.0 
0.0 0.0 -1.244624083072e-03 
-9.796999613362e-04 3.385511052295e-04 0.0 
3.385511052295e-04 6.990100956638e-03 0.0 
0.0 0.0 -1.142102124289e-03 
-1.089777783011e-03 3.180765990224e-04 0.0 
3.180765990224e-04 7.453415741070e-03 0.0 
0.0 0.0 -1.205428683694e-03 
-1.118930099946e-03 4.102866827850e-04 0.0 
4.102866827850e-04 7.540265907261e-03 0.0 
0.0 0.0 -1.209323031234e-03 
7.629343076430e-06 -2.863199915616e-06 0.0 
-2.863199915616e-06 -2.105112574008e-06 0.0 
0.0 0.0 -2.367527358181e-06 
-1.243581183883e-03 1.333985162286e-05 0.0 
1.333985162286e-05 8.050404267198e-03 0.0 
0.0 0.0 -1.199992767657e-03 
-9.467227888159e-04 4.157282563709e-05 0.0 
4.157282563709e-05 5.565131892238e-03 0.0 
0.0 0.0 -8.371571859873e-04 
0.0 0.0 0.0 
0.0 0.0 0.0 
0.0 0.0 0.0 
-9.052370495583e-04 2.926470670919e-05 0.0 
2.926470670919e-05 5.359734394624e-03 0.0 
0.0 0.0 -8.070151920887e-04 
-9.464808288455e-04 2.890706983172e-05 0.0 
2.890706983172e-05 5.631422995547e-03 0.0 
0.0 0.0 -8.451615393777e-04 
-8.746039380960e-04 1.411235588614e-05 0.0 
1.411235588614e-05 5.099179134377e-03 0.0 
0.0 0.0 -7.748096441827e-04 
-4.043228169997e-04 -4.987598217760e-05 0.0 
-4.987598217760e-05 1.919858664121e-03 0.0 
0.0 0.0 -3.155299188714e-04 
-9.342623020306e-04 6.996522255594e-05 0.0 
6.996522255594e-05 5.399295489727e-03 0.0 
0.0 0.0 -8.174106193842e-04 
-9.784066260017e-04 9.518359088927e-05 0.0 
9.518359088927e-05 5.690330335138e-03 0.0 
0.0 0.0 -8.556612431672e-04 
-1.892819975809e-04 -2.080284296464e-04 0.0 
-2.080284296464e-04 7.178215811464e-04 0.0 
0.0 0.0 -1.471067669042e-04 
-1.288411893385e-03 2.088493887645e-04 0.0 
2.088493887645e-04 8.418681062039e-03 0.0 
0.0 0.0 -1.259301554906e-03 
-1.756794603790e-04 -1.355890425743e-04 0.0 
-1.355890425743e-04 7.416554994657e-04 0.0 
0.0 0.0 -1.555489432776e-04 
-1.976593762146e-04 -1.418821488879e-04 0.0 
-1.418821488879e-04 9.406849208869e-04 0.0 
0.0 0.0 -1.806578101979e-04 
-1.201046689643e-03 -2.954808681697e-04 0.0 
-2.954808681697e-04 7.775612660441e-03 0.0 
0.0 0.0 -1.221214701962e-03 
-1.189783866574e-03 -3.147730725178e-04 0.0 
-3.147730725178e-04 7.544251850061e-03 0.0 
0.0 0.0 -1.184344882880e-03 
-1.255201532556e-03 -3.138077392023e-04 0.0 
-3.138077392023e-04 7.995797572139e-03 0.0 
0.0 0.0 -1.247726601234e-03 
-1.240131757912e-03 -2.854581707310e-04 0.0 
-2.854581707310e-04 7.755129215709e-03 0.0 
0.0 0.0 -1.211018817991e-03 
-1.178065560448e-03 -3.176973578615e-04 0.0 
-3.176973578615e-04 7.320283461016e-03 0.0 
0.0 0.0 -1.147066289601e-03 
-1.222397278732e-03 -2.815307542264e-04 0.0 
-2.815307542264e-04 7.565615913449e-03 0.0 
0.0 0.0 -1.176490610025e-03 
-9.163713044728e-04 2.842739858528e-05 0.0 
2.842739858528e-05 5.314561917383e-03 0.0 
0.0 0.0 -7.985989294648e-04 
-1.274574997316e-03 -2.683950520862e-04 0.0 
-2.683950520862e-04 8.060277687178e-03 0.0 
0.0 0.0 -1.249018369598e-03 
-1.258852476870e-03 -2.546999081133e-04 0.0 
-2.546999081133e-04 7.798203538470e-03 0.0 
0.0 0.0 -1.207442871744e-03 
-1.315317272271e-03 -2.575611195837e-04 0.0 
-2.575611195837e-04 8.330215412111e-03 0.0 
0.0 0.0 -1.277927415301e-03 
-7.668426714387e-04 3.712502045957e-04 0.0 
3.712502045957e-04 3.884910929190e-03 0.0 
0.0 0.0 -6.108003466767e-04 
-5.473421814769e-04 1.022591756988e-03 0.0 
1.022591756988e-03 2.665785403795e-03 0.0 
0.0 0.0 -4.789358348571e-04 
-5.922456647504e-04 8.887242813561e-04 0.0 
8.887242813561e-04 2.596399578783e-03 0.0 
0.0 0.0 -4.527251363391e-04 
-5.808013297698e-04 8.699366696317e-04 0.0 
8.699366696317e-04 2.240670147384e-03 0.0 
0.0 0.0 -3.875663759467e-04 
-1.238412356123e-03 4.984956173527e-04 0.0 
4.984956173527e-04 8.013994811476e-03 0.0 
0.0 0.0 -1.240180566941e-03 
-1.214337546906e-03 4.975640446935e-04 0.0 
4.975640446935e-04 7.772501925276e-03 0.0 
0.0 0.0 -1.200590015451e-03 
-1.243705293709e-03 -9.256877991256e-05 0.0 
-9.256877991256e-05 7.122808590461e-03 0.0 
0.0 0.0 -1.087555896896e-03 
-1.202734584511e-03 -9.601844950182e-05 0.0 
-9.601844950182e-05 6.680089324953e-03 0.0 
0.0 0.0 -1.020738973070e-03 
-9.185583597048e-04 2.613338660199e-05 0.0 
2.613338660199e-05 5.392223531156e-03 0.0 
0.0 0.0 -8.108182148135e-04 
-9.103297472006e-04 4.766877897124e-06 0.0 
4.766877897124e-06 5.361690236980e-03 0.0 
0.0 0.0 -8.077352941366e-04 
-9.704696328324e-04 5.332193735867e-05 0.0 
5.332193735867e-05 5.783610110985e-03 0.0 
0.0 0.0 -8.678526801547e-04 
-9.618865758326e-04 7.689592341134e-06 0.0 
7.689592341134e-06 5.712312077429e-03 0.0 
0.0 0.0 -8.609153521579e-04 
-1.020016484653e-03 5.295869978670e-05 0.0 
5.295869978670e-05 6.152608316973e-03 0.0 
0.0 0.0 -9.200517378055e-04 
-1.001436562516e-03 -1.946934861067e-08 0.0 
-1.946934861067e-08 6.084870222159e-03 0.0 
0.0 0.0 -9.108947733944e-04 
-1.057814937538e-03 -6.724482469216e-06 0.0 
-6.724482469216e-06 6.510312548520e-03 0.0 
0.0 0.0 -9.726914458129e-04 
-1.190361938599e-03 4.676934084708e-04 0.0 
4.676934084708e-04 7.866637693242e-03 0.0 
0.0 0.0 -1.245087786853e-03 
-4.581667400111e-04 1.150309043721e-03 0.0 
1.150309043721e-03 1.644170079222e-03 0.0 
0.0 0.0 -3.403956918982e-04 
-8.293555136529e-04 2.952524372658e-04 0.0 
2.952524372658e-04 4.373371002006e-03 0.0 
0.0 0.0 -6.783069842581e-04 
-1.085846180975e-03 1.458307871503e-04 0.0 
1.458307871503e-04 7.572950528203e-03 0.0 
0.0 0.0 -1.228261380050e-03 
-1.024461005777e-03 9.563818815218e-05 0.0 
9.563818815218e-05 7.266751936821e-03 0.0 
0.0 0.0 -1.187396807988e-03 
-7.405303751490e-04 5.124973243675e-04 0.0 
5.124973243675e-04 3.741532766096e-03 0.0 
0.0 0.0 -6.000944487132e-04 
-7.031319460548e-04 4.876864875037e-04 0.0 
4.876864875037e-04 3.366473116495e-03 0.0 
0.0 0.0 -5.401620014017e-04 
-1.203049851257e-03 -2.728203523462e-04 0.0 
-2.728203523462e-04 7.833657430654e-03 0.0 
0.0 0.0 -1.238794375355e-03 
-3.075916606640e-04 1.045868666668e-03 0.0 
1.045868666668e-03 2.766977509803e-03 0.0 
0.0 0.0 -5.600314934590e-04 
-1.321820784768e-03 2.376560243328e-04 0.0 
2.376560243328e-04 8.684022372100e-03 0.0 
0.0 0.0 -1.295459716840e-03 
1.477011241759e-06 4.358298770145e-06 0.0 
4.358298770145e-06 8.908916257849e-07 0.0 
0.0 0.0 -1.014815514662e-06 
5.703109316316e-05 8.792005076422e-05 0.0 
8.792005076422e-05 -2.011421540006e-08 0.0 
0.0 0.0 -2.443327669190e-05 
-4.154706477079e-04 9.854771448034e-04 0.0 
9.854771448034e-04 3.145205208474e-03 0.0 
0.0 0.0 -5.969207367497e-04 
-7.802351733359e-04 5.259462622456e-04 0.0 
5.259462622456e-04 4.139237033551e-03 0.0 
0.0 0.0 -6.620222007989e-04 
-5.930037626935e-04 8.942073818617e-04 0.0 
8.942073818617e-04 2.971985586365e-03 0.0 
0.0 0.0 -5.157319100482e-04 
-6.206001126180e-04 7.748692012147e-04 0.0 
7.748692012147e-04 2.918912415158e-03 0.0 
0.0 0.0 -4.917183783407e-04 
-7.966812031951e-04 -2.794519072728e-04 0.0 
-2.794519072728e-04 6.003025537970e-03 0.0 
0.0 0.0 -1.010552660601e-03 
-3.204615651146e-04 -4.841454347256e-04 0.0 
-4.841454347256e-04 1.065843889916e-03 0.0 
0.0 0.0 -2.207468123314e-04 
-1.976838392314e-04 1.419132631860e-03 0.0 
1.419132631860e-03 1.245736136353e-03 0.0 
0.0 0.0 -3.729799092550e-04 
-1.062224956052e-03 6.282474994029e-05 0.0 
6.282474994029e-05 6.566502947635e-03 0.0 
0.0 0.0 -9.796923013958e-04 
-9.725104983260e-05 1.193422917781e-03 0.0 
1.193422917781e-03 9.454912755048e-04 0.0 
0.0 0.0 -3.472462715210e-04 
-1.226995326804e-03 -4.519473023836e-05 0.0 
-4.519473023836e-05 6.918120984331e-03 0.0 
0.0 0.0 -1.055800198362e-03 
-2.361841982036e-04 9.051937591691e-04 0.0 
9.051937591691e-04 2.839450438954e-03 0.0 
0.0 0.0 -5.891999696964e-04 
-7.588500349801e-04 6.513356924725e-04 0.0 
6.513356924725e-04 4.370877970735e-03 0.0 
0.0 0.0 -7.153500975001e-04 
-2.731612567135e-04 1.485424847436e-03 0.0 
1.485424847436e-03 1.576968026293e-03 0.0 
0.0 0.0 -3.843598907912e-04 
-4.773970402082e-04 1.083331247294e-03 0.0 
1.083331247294e-03 2.715302459171e-03 0.0 
0.0 0.0 -5.080103017801e-04 
-9.857070044825e-04 3.514582932795e-04 0.0 
3.514582932795e-04 5.605984683384e-03 0.0 
0.0 0.0 -8.638580894607e-04 
-9.566672598969e-04 2.556664326387e-04 0.0 
2.556664326387e-04 5.284930257865e-03 0.0 
0.0 0.0 -8.086477316853e-04 
-9.204142732436e-04 2.914181473186e-04 0.0 
2.914181473186e-04 5.036403952363e-03 0.0 
0.0 0.0 -7.738406155293e-04 
-1.852699916538e-04 7.169474657993e-04 0.0 
7.169474657993e-04 2.938478129515e-03 0.0 
0.0 0.0 -6.178822433291e-04 
-6.660603751627e-04 6.775511204911e-04 0.0 
6.775511204911e-04 3.201224465995e-03 0.0 
0.0 0.0 -5.288330985435e-04 
-6.329538447596e-04 6.262438341605e-04 0.0 
6.262438341605e-04 2.783574178796e-03 0.0 
0.0 0.0 -4.617239487405e-04 
-9.084122990405e-04 4.766608561051e-04 0.0 
4.766608561051e-04 5.217677913222e-03 0.0 
0.0 0.0 -8.213029907542e-04 
-1.196636206004e-03 2.937722451120e-04 0.0 
2.937722451120e-04 7.346814907567e-03 0.0 
0.0 0.0 -1.107475121065e-03 
-1.218143538823e-03 3.322225839887e-04 0.0 
3.322225839887e-04 7.523071285648e-03 0.0 
0.0 0.0 -1.136341617999e-03 
-1.260255205402e-03 3.483848197279e-04 0.0 
3.483848197279e-04 7.943523748013e-03 0.0 
0.0 0.0 -1.199268560344e-03 
-1.236398534658e-03 3.622286970254e-04 0.0 
3.622286970254e-04 7.698663143048e-03 0.0 
0.0 0.0 -1.164598082371e-03 
-1.187519623503e-03 3.369788044843e-04 0.0 
3.369788044843e-04 7.262535120341e-03 0.0 
0.0 0.0 -1.100413285504e-03 
-1.201927894883e-03 3.622228794556e-04 0.0 
3.622228794556e-04 7.428935513365e-03 0.0 
0.0 0.0 -1.129075729544e-03 
-1.251749756802e-03 4.013558701664e-04 0.0 
4.013558701664e-04 7.861186353057e-03 0.0 
0.0 0.0 -1.193594387005e-03 
-1.212961772203e-03 4.013424172495e-04 0.0 
4.013424172495e-04 7.607641408015e-03 0.0 
0.0 0.0 -1.159256375294e-03 
-1.275748773412e-03 4.170784326894e-04 0.0 
4.170784326894e-04 8.123816889762e-03 0.0 
0.0 0.0 -1.234286862126e-03 
-1.231663961214e-03 4.170891063283e-04 0.0 
4.170891063283e-04 7.767346293695e-03 0.0 
0.0 0.0 -1.187309181180e-03 
-1.180167111311e-03 4.146130725523e-04 0.0 
4.146130725523e-04 7.319280806481e-03 0.0 
0.0 0.0 -1.120864512401e-03 
-1.199520853126e-03 4.394329503130e-04 0.0 
4.394329503130e-04 7.469647570104e-03 0.0 
0.0 0.0 -1.147759711419e-03 
-1.246114513889e-03 4.512851502766e-04 0.0 
4.512851502766e-04 7.897003429628e-03 0.0 
0.0 0.0 -1.207767947030e-03 
-1.142819753357e-03 4.230226692438e-04 0.0 
4.230226692438e-04 7.034885546341e-03 0.0 
0.0 0.0 -1.082593982084e-03 
-1.161095070267e-03 2.120867803638e-04 0.0 
2.120867803638e-04 7.844111974654e-03 0.0 
0.0 0.0 -1.264544343569e-03 
-4.552882566461e-04 8.672081112126e-04 0.0 
8.672081112126e-04 3.584015933420e-03 0.0 
0.0 0.0 -6.621140475474e-04 
8.972285469528e-05 5.488704469766e-05 0.0 
5.488704469766e-05 -2.086067995893e-05 0.0 
0.0 0.0 -2.951236060129e-05 
1.917573457574e-04 3.907910126935e-04 0.0 
3.907910126935e-04 4.076022718459e-05 0.0 
0.0 0.0 -9.965038840371e-05 
-8.122559684108e-04 5.858127476170e-04 0.0 
5.858127476170e-04 4.660958103986e-03 0.0 
0.0 0.0 -7.509174086159e-04 
-1.326294875917e-03 4.475525367279e-04 0.0 
4.475525367279e-04 8.581090605175e-03 0.0 
0.0 0.0 -1.299806302097e-03 
-1.329372981724e-03 3.864120920022e-04 0.0 
3.864120920022e-04 8.651254845127e-03 0.0 
0.0 0.0 -1.301753673823e-03 
-4.221749795590e-05 1.054957827846e-03 0.0 
1.054957827846e-03 1.947401467081e-03 0.0 
0.0 0.0 -4.895692906686e-04 
-1.300820539860e-03 5.169294240401e-04 0.0 
5.169294240401e-04 8.431520987084e-03 0.0 
0.0 0.0 -1.303413959896e-03 
-9.359328158381e-04 3.353086376080e-04 0.0 
3.353086376080e-04 5.191229383814e-03 0.0 
0.0 0.0 -8.012154088905e-04 
4.071496828873e-04 9.026633654341e-04 0.0 
9.026633654341e-04 4.347728874957e-04 0.0 
0.0 0.0 -3.242207140944e-04 
-1.286592464162e-03 4.887471459282e-04 0.0 
4.887471459282e-04 8.354700830031e-03 0.0 
0.0 0.0 -1.304286792737e-03 
-1.166816141077e-03 3.067295782393e-04 0.0 
3.067295782393e-04 7.086165986606e-03 0.0 
0.0 0.0 -1.071440646998e-03 
-1.135318690764e-03 3.102645881689e-04 0.0 
3.102645881689e-04 6.820307156207e-03 0.0 
0.0 0.0 -1.034857077839e-03 
-1.114281868751e-03 2.783252876259e-04 0.0 
2.783252876259e-04 6.647188393663e-03 0.0 
0.0 0.0 -1.006057961993e-03 
-1.324485485700e-03 3.178425552296e-04 0.0 
3.178425552296e-04 8.703712057522e-03 0.0 
0.0 0.0 -1.305867370806e-03 
-1.046143216171e-03 1.338104735178e-04 0.0 
1.338104735178e-04 6.142970752386e-03 0.0 
0.0 0.0 -9.232948652302e-04 
-1.261216399776e-03 3.398370476000e-04 0.0 
3.398370476000e-04 8.240407625413e-03 0.0 
0.0 0.0 -1.306016332489e-03 
-5.621352130883e-04 2.402614077322e-04 0.0 
2.402614077322e-04 5.104076155106e-03 0.0 
0.0 0.0 -9.039903713831e-04 
-5.421821752565e-04 3.626261890118e-04 0.0 
3.626261890118e-04 4.916919296443e-03 0.0 
0.0 0.0 -8.747633066757e-04 
-4.482553543368e-04 4.245528232913e-04 0.0 
4.245528232913e-04 4.423341595392e-03 0.0 
0.0 0.0 -8.101682821885e-04 
-1.166183845535e-03 3.746000758126e-04 0.0 
3.746000758126e-04 7.154603019155e-03 0.0 
0.0 0.0 -1.092245366321e-03 
-1.243382207926e-03 7.139344382452e-05 0.0 
7.139344382452e-05 8.142027759390e-03 0.0 
0.0 0.0 -1.302677999426e-03 
-1.139163622892e-03 1.899260328228e-05 0.0 
1.899260328228e-05 7.738811355617e-03 0.0 
0.0 0.0 -1.248400714067e-03 
-1.139179700515e-03 -5.832838074802e-05 0.0 
-5.832838074802e-05 7.742835606473e-03 0.0 
0.0 0.0 -1.248426544684e-03 
-1.042171814045e-03 -2.067620167567e-05 0.0 
-2.067620167567e-05 7.300450465494e-03 0.0 
0.0 0.0 -1.189114855724e-03 
-1.245046049368e-03 -7.954937012982e-05 0.0 
-7.954937012982e-05 8.162015620032e-03 0.0 
0.0 0.0 -1.303398793257e-03 
-1.319024606982e-03 4.879947495646e-04 0.0 
4.879947495646e-04 8.553889678550e-03 0.0 
0.0 0.0 -1.306665994082e-03 
-1.318629781647e-03 5.032233232110e-04 0.0 
5.032233232110e-04 8.531113616169e-03 0.0 
0.0 0.0 -1.308500709484e-03 
-1.457969009565e-04 -1.297624687323e-03 0.0 
-1.297624687323e-03 1.878942347425e-03 0.0 
0.0 0.0 -4.564773689951e-04 
-5.360535394487e-05 -1.060749340558e-03 0.0 
-1.060749340558e-03 1.980128638088e-03 0.0 
0.0 0.0 -4.934415926888e-04 
-1.381226460422e-04 -8.991719374826e-04 0.0 
-8.991719374826e-04 2.497431923997e-03 0.0 
0.0 0.0 -5.576035839405e-04 
-3.423707423484e-07 -7.630300989339e-04 0.0 
-7.630300989339e-04 2.133066083266e-03 0.0 
0.0 0.0 -5.298816096007e-04 
1.060874476646e-04 -9.079592115861e-04 0.0 
-9.079592115861e-04 1.571356760192e-03 0.0 
0.0 0.0 -4.652367627802e-04 
1.299766153745e-04 -5.238021949006e-04 0.0 
-5.238021949006e-04 1.775343023360e-03 0.0 
0.0 0.0 -5.016361848483e-04 
8.113068861590e-06 -4.523118756860e-04 0.0 
-4.523118756860e-04 2.346566463626e-03 0.0 
0.0 0.0 -5.657331850765e-04 
2.333464364560e-04 -1.778074880060e-04 0.0 
-1.778074880060e-04 1.448473809503e-03 0.0 
0.0 0.0 -4.731795164401e-04 
-1.159968055748e-03 4.654058109210e-04 0.0 
4.654058109210e-04 7.343744264572e-03 0.0 
0.0 0.0 -1.138512926666e-03 
-1.264954689887e-03 -1.904964022353e-04 0.0 
-1.904964022353e-04 8.221334432808e-03 0.0 
0.0 0.0 -1.305779161548e-03 
-7.747711705181e-04 -5.121765711313e-04 0.0 
-5.121765711313e-04 5.367910934867e-03 0.0 
0.0 0.0 -9.007942405787e-04 
-6.889420890608e-04 -5.209139520464e-04 0.0 
-5.209139520464e-04 5.083313389568e-03 0.0 
0.0 0.0 -8.713600568839e-04 
-6.090575816933e-04 -6.078858301865e-04 0.0 
-6.078858301865e-04 4.604339507385e-03 0.0 
0.0 0.0 -8.059887332522e-04 
-8.449920134059e-04 -5.153788440303e-04 0.0 
-5.153788440303e-04 4.260095117302e-03 0.0 
0.0 0.0 -6.781883600425e-04 
-8.428803748540e-04 -5.674043660998e-04 0.0 
-5.674043660998e-04 4.450165882994e-03 0.0 
0.0 0.0 -7.153987595530e-04 
-8.942422948913e-04 -5.207798333702e-04 0.0 
-5.207798333702e-04 4.885926297656e-03 0.0 
0.0 0.0 -7.812419408864e-04 
-8.377845004557e-04 -4.501363391243e-04 0.0 
-4.501363391243e-04 4.061067246097e-03 0.0 
0.0 0.0 -6.407943132712e-04 
-8.608991234260e-04 5.183985589951e-04 0.0 
5.183985589951e-04 6.008926334250e-03 0.0 
0.0 0.0 -9.876394229526e-04 
-1.270638922106e-03 -2.525883056993e-04 0.0 
-2.525883056993e-04 8.245623635122e-03 0.0 
0.0 0.0 -1.305003056577e-03 
-5.449120924268e-04 -2.038340280130e-04 0.0 
-2.038340280130e-04 4.976604129178e-03 0.0 
0.0 0.0 -8.871663004355e-04 
-7.828155216857e-04 -6.575282962370e-04 0.0 
-6.575282962370e-04 4.196243675374e-03 0.0 
0.0 0.0 -6.865966444657e-04 
-8.908351355140e-04 9.702867664421e-05 0.0 
9.702867664421e-05 4.953510345307e-03 0.0 
0.0 0.0 -7.516786372745e-04 
-9.428178873818e-04 1.510891929034e-04 0.0 
1.510891929034e-04 5.341754956276e-03 0.0 
0.0 0.0 -8.094822736869e-04 
-9.489012184647e-04 1.441944320473e-04 0.0 
1.441944320473e-04 5.346848053026e-03 0.0 
0.0 0.0 -8.097394517040e-04 
-9.928370876702e-04 1.565528389037e-04 0.0 
1.565528389037e-04 5.757287346966e-03 0.0 
0.0 0.0 -8.733121467894e-04 
-9.420662265250e-04 8.672453308222e-05 0.0 
8.672453308222e-05 5.390349708032e-03 0.0 
0.0 0.0 -8.155917408702e-04 
-9.920889169566e-04 -3.299549002211e-04 0.0 
-3.299549002211e-04 5.156290872581e-03 0.0 
0.0 0.0 -8.015266587451e-04 
-1.034393455446e-03 -2.593382357018e-04 0.0 
-2.593382357018e-04 5.377589720533e-03 0.0 
0.0 0.0 -8.302790088839e-04 
-1.016724768056e-03 -2.052940986145e-04 0.0 
-2.052940986145e-04 5.161883654298e-03 0.0 
0.0 0.0 -7.937858958383e-04 
-1.069749204098e-03 -1.931193338339e-04 0.0 
-1.931193338339e-04 5.589690211797e-03 0.0 
0.0 0.0 -8.590670690980e-04 
-1.045250008444e-03 -1.524643402440e-04 0.0 
-1.524643402440e-04 5.354709247412e-03 0.0 
0.0 0.0 -8.213578559547e-04 
-9.891061891856e-04 -1.661511418362e-04 0.0 
-1.661511418362e-04 4.952759689804e-03 0.0 
0.0 0.0 -7.608744282309e-04 
-1.097326614700e-03 -1.343981642378e-04 0.0 
-1.343981642378e-04 5.787368511626e-03 0.0 
0.0 0.0 -8.866101721103e-04 
-1.072266853954e-03 -7.465649989587e-05 0.0 
-7.465649989587e-05 5.530930704335e-03 0.0 
0.0 0.0 -8.437388122980e-04 
-8.749604405334e-04 5.210753762548e-05 0.0 
5.210753762548e-05 4.958547900325e-03 0.0 
0.0 0.0 -7.509531518293e-04 
2.931250951271e-05 -1.468193730782e-04 0.0 
-1.468193730782e-04 5.197092075325e-05 0.0 
0.0 0.0 -3.483575582827e-05 
8.911840808784e-05 -5.611142441010e-04 0.0 
-5.611142441010e-04 2.292660682549e-04 0.0 
0.0 0.0 -1.364504898612e-04 
-1.613477578931e-05 -6.217163821683e-04 0.0 
-6.217163821683e-04 4.356228314527e-04 0.0 
0.0 0.0 -1.797805952843e-04 
7.026081585524e-05 -9.442279566568e-04 0.0 
-9.442279566568e-04 4.994486354165e-04 0.0 
0.0 0.0 -2.441611934022e-04 
2.189035585349e-04 -7.936262830972e-04 0.0 
-7.936262830972e-04 2.241675290565e-04 0.0 
0.0 0.0 -1.898876089678e-04 
1.395294056137e-04 -1.221624346892e-03 0.0 
-1.221624346892e-03 5.704290544817e-04 0.0 
0.0 0.0 -3.042679114694e-04 
3.315217795862e-04 -9.867447375553e-04 0.0 
-9.867447375553e-04 2.187882668786e-04 0.0 
0.0 0.0 -2.358471627707e-04 
1.282773509924e-04 -3.069727312294e-04 0.0 
-3.069727312294e-04 5.087018620754e-05 0.0 
0.0 0.0 -7.677751594282e-05 
7.207324065744e-06 -2.363709633052e-04 0.0 
-2.363709633052e-04 2.192194981731e-04 0.0 
0.0 0.0 -7.709394943614e-05 
-1.151589919320e-04 -5.038932235898e-04 0.0 
-5.038932235898e-04 5.668379900610e-04 0.0 
0.0 0.0 -1.836804426236e-04 
6.886756343239e-05 -1.585111183501e-04 0.0 
-1.585111183501e-04 2.318919381609e-04 0.0 
0.0 0.0 -9.135678087991e-05 
-1.673787199121e-04 -3.772506028182e-04 0.0 
-3.772506028182e-04 6.235391984471e-04 0.0 
0.0 0.0 -1.587652100407e-04 
-2.237013217840e-04 -7.835370290226e-04 0.0 
-7.835370290226e-04 9.699234306887e-04 0.0 
0.0 0.0 -2.864776706126e-04 
-5.080022175142e-04 -5.846720249242e-04 0.0 
-5.846720249242e-04 1.713553650264e-03 0.0 
0.0 0.0 -2.934437995798e-04 
-1.342924257900e-03 -1.540329825018e-04 0.0 
-1.540329825018e-04 8.463979425849e-03 0.0 
0.0 0.0 -1.294874803588e-03 
-9.061604714287e-04 -5.353468138170e-05 0.0 
-5.353468138170e-05 4.292677537748e-03 0.0 
0.0 0.0 -6.595503360071e-04 
-8.748353904416e-04 -9.535674848835e-05 0.0 
-9.535674848835e-05 4.090451847143e-03 0.0 
0.0 0.0 -6.264797819744e-04 
-7.893986596546e-04 -8.988273420556e-05 0.0 
-8.988273420556e-05 3.635662269298e-03 0.0 
0.0 0.0 -5.641716646261e-04 
-8.342340843015e-04 -1.796315714393e-04 0.0 
-1.796315714393e-04 3.876399492582e-03 0.0 
0.0 0.0 -5.974662984275e-04 
-9.399601535283e-04 -9.182592719562e-05 0.0 
-9.182592719562e-05 4.459086163681e-03 0.0 
0.0 0.0 -6.865721209800e-04 
-7.450408717977e-04 -3.664071909045e-05 0.0 
-3.664071909045e-05 3.403705623677e-03 0.0 
0.0 0.0 -5.286920563404e-04 
-7.105002771536e-04 -7.510162605901e-05 0.0 
-7.510162605901e-05 3.252942810076e-03 0.0 
0.0 0.0 -5.038291843518e-04 
2.269617952537e-04 -4.679297531140e-06 0.0 
-4.679297531140e-06 2.031304943507e-04 0.0 
0.0 0.0 -1.081843495454e-04 
-2.992668304113e-05 -2.428217344695e-05 0.0 
-2.428217344695e-05 6.247499294921e-04 0.0 
0.0 0.0 -1.462425310096e-04 
1.120520427135e-05 2.490769659488e-05 0.0 
2.490769659488e-05 5.748679317617e-04 0.0 
0.0 0.0 -1.469788961115e-04 
-1.839676854865e-04 -1.370350569834e-05 0.0 
-1.370350569834e-05 1.050348992839e-03 0.0 
0.0 0.0 -1.976702944042e-04 
-1.665493073749e-04 -4.078238753771e-05 0.0 
-4.078238753771e-05 1.038427513794e-03 0.0 
0.0 0.0 -1.960684762570e-04 
-2.740272711721e-05 -1.675532894322e-05 0.0 
-1.675532894322e-05 6.301608269895e-04 0.0 
0.0 0.0 -1.451566722079e-04 
-4.295295916181e-05 -1.396627582879e-05 0.0 
-1.396627582879e-05 6.314478061460e-04 0.0 
0.0 0.0 -1.432903851643e-04 
2.178107760258e-04 -4.669961674357e-06 0.0 
-4.669961674357e-06 1.968060237393e-04 0.0 
0.0 0.0 -1.026933745538e-04 
-6.199861096773e-05 -4.121287758313e-05 0.0 
-4.121287758313e-05 6.332661626784e-04 0.0 
0.0 0.0 -1.376693440338e-04 
-1.958490001476e-04 -5.849411118292e-05 0.0 
-5.849411118292e-05 1.056235548644e-03 0.0 
0.0 0.0 -1.994574706984e-04 
2.194500295117e-04 -1.953547163157e-05 0.0 
-1.953547163157e-05 1.758186835889e-04 0.0 
0.0 0.0 -9.526841721624e-05 
-1.134405852345e-03 -1.685214623059e-05 0.0 
-1.685214623059e-05 7.114171974622e-03 0.0 
0.0 0.0 -1.060427308513e-03 
-1.169096287658e-03 2.563616812788e-06 0.0 
2.563616812788e-06 7.355225522955e-03 0.0 
0.0 0.0 -1.097082233180e-03 
-1.287656187300e-03 -3.057563853945e-04 0.0 
-3.057563853945e-04 8.295106043806e-03 0.0 
0.0 0.0 -1.300897016293e-03 
-8.709102074234e-04 1.634655957137e-05 0.0 
1.634655957137e-05 5.013561359335e-03 0.0 
0.0 0.0 -7.584009903415e-04 
6.085248323127e-05 -7.529385077948e-05 0.0 
-7.529385077948e-05 2.498450074273e-04 0.0 
0.0 0.0 -6.778662807071e-05 
-1.318321890589e-03 9.119227365237e-05 0.0 
9.119227365237e-05 8.702564910127e-03 0.0 
0.0 0.0 -1.292107529982e-03 
-1.321891599576e-03 1.523434658018e-04 0.0 
1.523434658018e-04 8.753789560532e-03 0.0 
0.0 0.0 -1.303172775453e-03 
-1.317386328466e-03 1.502744807486e-04 0.0 
1.502744807486e-04 8.760593080467e-03 0.0 
0.0 0.0 -1.304823151597e-03 
-1.303300137320e-03 -3.518320858820e-05 0.0 
-3.518320858820e-05 7.809809152570e-03 0.0 
0.0 0.0 -1.191058493115e-03 
-1.309915312802e-03 -8.055064126037e-05 0.0 
-8.055064126037e-05 8.016669059363e-03 0.0 
0.0 0.0 -1.224322658093e-03 
-1.321803447330e-03 5.837335499168e-05 0.0 
5.837335499168e-05 8.713282635678e-03 0.0 
0.0 0.0 -1.294569364341e-03 
-6.481855202900e-04 -6.246003181782e-04 0.0 
-6.246003181782e-04 2.746907491681e-03 0.0 
0.0 0.0 -4.512809064328e-04 
-1.269733092336e-03 3.949450849478e-04 0.0 
3.949450849478e-04 8.134082373248e-03 0.0 
0.0 0.0 -1.225740639889e-03 
-1.236917440076e-03 9.455704594097e-05 0.0 
9.455704594097e-05 7.907876475173e-03 0.0 
0.0 0.0 -1.178628832109e-03 
2.863499120991e-04 1.225469476951e-03 0.0 
1.225469476951e-03 5.011020420815e-04 0.0 
0.0 0.0 -3.087973448475e-04 
-5.572892816396e-04 -1.058232484237e-03 0.0 
-1.058232484237e-03 2.439571083886e-03 0.0 
0.0 0.0 -4.373623857420e-04 
-1.169344627949e-03 -1.527368028486e-04 0.0 
-1.527368028486e-04 6.463252890075e-03 0.0 
0.0 0.0 -9.899674718230e-04 
-1.002156622739e-03 -4.217657770794e-04 0.0 
-4.217657770794e-04 5.766816978775e-03 0.0 
0.0 0.0 -9.123979313600e-04 
-1.240362622181e-03 -2.107518773901e-04 0.0 
-2.107518773901e-04 7.344433125846e-03 0.0 
0.0 0.0 -1.130390451587e-03 
-1.097029052933e-03 -2.727822285369e-04 0.0 
-2.727822285369e-04 6.025349028311e-03 0.0 
0.0 0.0 -9.322225209316e-04 
-1.160816713283e-03 -2.966491095374e-04 0.0 
-2.966491095374e-04 6.897592609693e-03 0.0 
0.0 0.0 -1.073123358692e-03 
-1.146188823319e-03 -9.619145093431e-05 0.0 
-9.619145093431e-05 7.734668514319e-03 0.0 
0.0 0.0 -1.244129926109e-03 
-3.611510593238e-04 -8.758097138839e-05 0.0 
-8.758097138839e-05 1.751553404855e-03 0.0 
0.0 0.0 -2.939217362394e-04 
-1.042524547902e-03 8.542519018607e-05 0.0 
8.542519018607e-05 6.249309917826e-03 0.0 
0.0 0.0 -9.364826870394e-04 
-1.011646579925e-03 4.950052888461e-05 0.0 
4.950052888461e-05 6.088183350352e-03 0.0 
0.0 0.0 -9.130351872960e-04 
-1.156492778501e-03 8.389467150956e-05 0.0 
8.389467150956e-05 7.209321502601e-03 0.0 
0.0 0.0 -1.075939795031e-03 
-6.797233321873e-04 -3.445526981405e-04 0.0 
-3.445526981405e-04 2.970604433142e-03 0.0 
0.0 0.0 -4.709579147287e-04 
-9.579355913964e-04 -2.329193078104e-04 0.0 
-2.329193078104e-04 4.740187249377e-03 0.0 
0.0 0.0 -7.304257169629e-04 
-4.699094320929e-04 -2.864685390476e-04 0.0 
-2.864685390476e-04 1.870719163436e-03 0.0 
0.0 0.0 -3.104331955072e-04 
-1.225720132749e-03 4.922764523725e-04 0.0 
4.922764523725e-04 8.004298524687e-03 0.0 
0.0 0.0 -1.251461238623e-03 
-8.642142966185e-04 4.736706847914e-04 0.0 
4.736706847914e-04 4.810262753378e-03 0.0 
0.0 0.0 -7.590395520047e-04 
-6.299061308779e-04 -6.905248015396e-04 0.0 
-6.905248015396e-04 4.426299320179e-03 0.0 
0.0 0.0 -7.694287042311e-04 
-7.912081179997e-04 -5.380011954616e-04 0.0 
-5.380011954616e-04 3.827422774339e-03 0.0 
0.0 0.0 -6.120242822960e-04 
-6.551443874445e-04 -7.576014874881e-04 0.0 
-7.576014874881e-04 2.929641818478e-03 0.0 
0.0 0.0 -4.894362539292e-04 
-4.890802463817e-04 -1.241731719978e-03 0.0 
-1.241731719978e-03 2.147525315431e-03 0.0 
0.0 0.0 -4.100935076628e-04 
-5.488809187293e-04 8.195138113053e-04 0.0 
8.195138113053e-04 3.940420057434e-03 0.0 
0.0 0.0 -6.990242139688e-04 
-7.645737241242e-04 -6.835179970588e-04 0.0 
-6.835179970588e-04 4.369038504805e-03 0.0 
0.0 0.0 -7.237531747479e-04 
-9.990166317683e-04 -3.989427530334e-04 0.0 
-3.989427530334e-04 6.371965153356e-03 0.0 
0.0 0.0 -1.024340108609e-03 
-1.185317591363e-03 7.742475138516e-05 0.0 
7.742475138516e-05 7.460446495103e-03 0.0 
0.0 0.0 -1.112552678551e-03 
1.197712392318e-04 -3.148981806786e-05 0.0 
-3.148981806786e-05 2.711258731277e-04 0.0 
0.0 0.0 -9.959518537181e-05 
-1.003340353985e-03 -3.675015482303e-04 0.0 
-3.675015482303e-04 6.579336743889e-03 0.0 
0.0 0.0 -1.061672265243e-03 
-8.749171253014e-04 -5.429443966133e-04 0.0 
-5.429443966133e-04 5.259260617559e-03 0.0 
0.0 0.0 -8.552253422611e-04 
-1.075058534600e-03 1.329625948637e-04 0.0 
1.329625948637e-04 6.404878824914e-03 0.0 
0.0 0.0 -9.599091010803e-04 
-8.098069298724e-04 1.009136731454e-04 0.0 
1.009136731454e-04 6.303475721426e-03 0.0 
0.0 0.0 -1.062640036239e-03 
-7.822393088759e-05 -1.437936820334e-03 0.0 
-1.437936820334e-03 1.036179245632e-03 0.0 
0.0 0.0 -3.732485265440e-04 
-1.183046367818e-03 1.393767940647e-04 0.0 
1.393767940647e-04 7.358067127657e-03 0.0 
0.0 0.0 -1.098747615487e-03 
-1.275160361241e-03 2.646540278175e-04 0.0 
2.646540278175e-04 8.092932724066e-03 0.0 
0.0 0.0 -1.212453547082e-03 
-1.010608018996e-03 1.134796452945e-04 0.0 
1.134796452945e-04 5.876477578498e-03 0.0 
0.0 0.0 -8.875094802107e-04 
-3.432304284614e-04 -2.023305734104e-04 0.0 
-2.023305734104e-04 1.413096543350e-03 0.0 
0.0 0.0 -2.442495876194e-04 
-9.871354508553e-04 6.543929527951e-05 0.0 
6.543929527951e-05 5.785148960874e-03 0.0 
0.0 0.0 -8.692469099983e-04 
-1.129933755956e-03 -2.589669323117e-04 0.0 
-2.589669323117e-04 7.495462082173e-03 0.0 
0.0 0.0 -1.202705989510e-03 
-1.175984421816e-03 2.539870060864e-04 0.0 
2.539870060864e-04 7.167724276723e-03 0.0 
0.0 0.0 -1.078220320736e-03 
-6.238127593336e-04 -2.578427228971e-04 0.0 
-2.578427228971e-04 2.729809833616e-03 0.0 
0.0 0.0 -4.336020471383e-04 
-3.693103125981e-04 -1.184898620339e-04 0.0 
-1.184898620339e-04 4.215512874596e-03 0.0 
0.0 0.0 -7.943514531093e-04 
-7.354883692347e-04 6.882867699015e-04 0.0 
6.882867699015e-04 4.480048918178e-03 0.0 
0.0 0.0 -7.428158978947e-04 
-8.300346150545e-04 1.997478973446e-04 0.0 
1.997478973446e-04 4.462946677923e-03 0.0 
0.0 0.0 -6.865907729104e-04 
-1.263662037140e-03 1.212955651983e-04 0.0 
1.212955651983e-04 8.095770653682e-03 0.0 
0.0 0.0 -1.206557591227e-03 
-5.452830500886e-04 5.833267200760e-04 0.0 
5.833267200760e-04 4.601923753795e-03 0.0 
0.0 0.0 -8.172945450070e-04 
-9.138715469007e-04 -2.809485115349e-05 0.0 
-2.809485115349e-05 6.748408724194e-03 0.0 
0.0 0.0 -1.120054252910e-03 
-5.855153319979e-04 -8.409325156636e-05 0.0 
-8.409325156636e-05 5.239197065772e-03 0.0 
0.0 0.0 -9.240809108919e-04 
-6.615538158736e-04 -2.024673927750e-04 0.0 
-2.024673927750e-04 2.941778370234e-03 0.0 
0.0 0.0 -4.629711029823e-04 
-1.130081472427e-03 -3.415372177863e-04 0.0 
-3.415372177863e-04 7.089023572073e-03 0.0 
0.0 0.0 -1.118919378802e-03 
-3.597542210602e-04 3.380969491909e-04 0.0 
3.380969491909e-04 4.095727105777e-03 0.0 
0.0 0.0 -7.743986277066e-04 
-1.231879397795e-03 1.563825567224e-04 0.0 
1.563825567224e-04 7.806451874477e-03 0.0 
0.0 0.0 -1.164614768972e-03 
-1.000367767849e-03 5.022961011040e-04 0.0 
5.022961011040e-04 6.477016694026e-03 0.0 
0.0 0.0 -1.031533309622e-03 
-8.496720980242e-05 7.949215026050e-05 0.0 
7.949215026050e-05 2.913474260951e-03 0.0 
0.0 0.0 -6.375205594687e-04 
-1.204201749293e-03 1.997899091721e-04 0.0 
1.997899091721e-04 7.486324816343e-03 0.0 
0.0 0.0 -1.121170216299e-03 
-5.130508831761e-04 -5.977004884583e-04 0.0 
-5.977004884583e-04 4.307094875234e-03 0.0 
0.0 0.0 -7.773091661689e-04 
-8.763670238880e-04 1.763080225343e-04 0.0 
1.763080225343e-04 6.599584220336e-03 0.0 
0.0 0.0 -1.099429584637e-03 
-8.205770634544e-04 5.305467903750e-04 0.0 
5.305467903750e-04 4.538492374159e-03 0.0 
0.0 0.0 -7.240542973723e-04 
-8.884268788468e-04 5.588484511591e-04 0.0 
5.588484511591e-04 5.612213355160e-03 0.0 
0.0 0.0 -9.041109700986e-04 
-1.050324174142e-03 4.352582260935e-04 0.0 
4.352582260935e-04 6.327572321714e-03 0.0 
0.0 0.0 -9.824247929831e-04 
-7.337998657639e-04 6.243333749199e-04 0.0 
6.243333749199e-04 5.125520163039e-03 0.0 
0.0 0.0 -8.608216255090e-04 
-1.153567602020e-03 -9.301724894271e-05 0.0 
-9.301724894271e-05 6.238376526397e-03 0.0 
0.0 0.0 -9.534332399069e-04 
-1.070854558502e-03 -3.525098866510e-04 0.0 
-3.525098866510e-04 6.838133072795e-03 0.0 
0.0 0.0 -1.090315851396e-03 
5.426530316348e-04 -6.124034834809e-04 0.0 
-6.124034834809e-04 -4.758177895348e-06 0.0 
0.0 0.0 -2.305263658883e-04 
-4.860442792995e-04 1.001524898596e-03 0.0 
1.001524898596e-03 3.110766909182e-03 0.0 
0.0 0.0 -5.719042557127e-04 
-1.067589445178e-03 1.583535090986e-04 0.0 
1.583535090986e-04 6.341569706464e-03 0.0 
0.0 0.0 -9.536514739466e-04 
-1.085608803619e-03 4.567018534179e-04 0.0 
4.567018534179e-04 7.206759563006e-03 0.0 
0.0 0.0 -1.150585697120e-03 
-1.272662540904e-03 1.837479624771e-04 0.0 
1.837479624771e-04 8.251575577157e-03 0.0 
0.0 0.0 -1.229329624135e-03 
-7.006581247961e-04 7.305782553014e-04 0.0 
7.305782553014e-04 4.076422328874e-03 0.0 
0.0 0.0 -6.801182747099e-04 
-1.119652443645e-03 -3.456160390905e-04 0.0 
-3.456160390905e-04 6.872141672148e-03 0.0 
0.0 0.0 -1.081576975854e-03 
-1.253042370701e-03 2.293393647918e-04 0.0 
2.293393647918e-04 7.917666161319e-03 0.0 
0.0 0.0 -1.185355684152e-03 
-8.328019205503e-04 -6.002544778108e-04 0.0 
-6.002544778108e-04 4.632328502255e-03 0.0 
0.0 0.0 -7.524367508395e-04 
-4.433075112401e-04 -2.566605040482e-05 0.0 
-2.566605040482e-05 2.036859959460e-03 0.0 
0.0 0.0 -3.333104686742e-04 
3.205177984844e-04 9.975801435051e-04 0.0 
9.975801435051e-04 2.379341149770e-04 0.0 
0.0 0.0 -2.393365343406e-04 
1.591584715393e-04 1.779286051982e-04 0.0 
1.779286051982e-04 1.786654556165e-03 0.0 
0.0 0.0 -5.092532232582e-04 
-4.531066397313e-04 5.570531624296e-04 0.0 
5.570531624296e-04 4.269383883647e-03 0.0 
0.0 0.0 -7.817448632792e-04 
-8.859078879477e-04 -5.417175315324e-04 0.0 
-5.417175315324e-04 5.072763910333e-03 0.0 
0.0 0.0 -8.181699076277e-04 
-1.293553667002e-03 3.539056233938e-04 0.0 
3.539056233938e-04 8.270227580961e-03 0.0 
0.0 0.0 -1.242275372262e-03 
-1.167568761218e-03 -3.100043251916e-04 0.0 
-3.100043251916e-04 7.110149870389e-03 0.0 
0.0 0.0 -1.110186454522e-03 
-8.720271584818e-04 -3.155671013640e-04 0.0 
-3.155671013640e-04 6.271566388977e-03 0.0 
0.0 0.0 -1.040857148505e-03 
3.090009603171e-05 6.438382974465e-04 0.0 
6.438382974465e-04 3.706853633849e-04 0.0 
0.0 0.0 -1.721080540357e-04 
-8.582532174726e-04 2.712256844373e-04 0.0 
2.712256844373e-04 4.619700861909e-03 0.0 
0.0 0.0 -7.126371066839e-04 
-1.210346144101e-03 -2.749948472322e-04 0.0 
-2.749948472322e-04 7.344160972203e-03 0.0 
0.0 0.0 -1.139074001596e-03 
-4.392212359222e-04 -2.427188308892e-04 0.0 
-2.427188308892e-04 4.468278991880e-03 0.0 
0.0 0.0 -8.223634564932e-04 
-9.190954487653e-04 1.036306006856e-04 0.0 
1.036306006856e-04 6.792229327511e-03 0.0 
0.0 0.0 -1.126725356868e-03 
-1.012271879397e-03 -9.648706787801e-05 0.0 
-9.648706787801e-05 5.106630196528e-03 0.0 
0.0 0.0 -7.817916451012e-04 
-1.209813015887e-03 4.617447502893e-04 0.0 
4.617447502893e-04 7.951412152162e-03 0.0 
0.0 0.0 -1.249754184115e-03 
-7.319316117329e-04 4.292603822642e-04 0.0 
4.292603822642e-04 3.626422685243e-03 0.0 
0.0 0.0 -5.757576642514e-04 
-1.253262516526e-03 -2.397729583392e-04 0.0 
-2.397729583392e-04 7.583908034255e-03 0.0 
0.0 0.0 -1.168790087466e-03 
-8.256776309677e-04 -1.881926819914e-04 0.0 
-1.881926819914e-04 6.244322400387e-03 0.0 
0.0 0.0 -1.047452346298e-03 
-1.833871752581e-04 1.076533841658e-03 0.0 
1.076533841658e-03 2.371953294675e-03 0.0 
0.0 0.0 -5.248669331578e-04 
-8.489436119586e-04 9.726246538456e-06 0.0 
9.726246538456e-06 4.964532206226e-03 0.0 
0.0 0.0 -7.498068730476e-04 
-1.301937909208e-03 -2.238090825597e-04 0.0 
-2.238090825597e-04 8.094251106337e-03 0.0 
0.0 0.0 -1.243807156011e-03 
-9.340333835081e-04 -1.610113385009e-04 0.0 
-1.610113385009e-04 6.744276922541e-03 0.0 
0.0 0.0 -1.114542488500e-03 
-7.941362751269e-04 5.664211877541e-04 0.0 
5.664211877541e-04 5.563587855978e-03 0.0 
0.0 0.0 -9.240346875991e-04 
-4.168495056098e-04 -3.974139927462e-04 0.0 
-3.974139927462e-04 4.226500375937e-03 0.0 
0.0 0.0 -7.856950878877e-04 
-7.739148085239e-04 2.464793331539e-04 0.0 
2.464793331539e-04 3.977512213385e-03 0.0 
0.0 0.0 -6.191377506773e-04 
-9.472802509338e-04 -4.715703841177e-04 0.0 
-4.715703841177e-04 5.324567248990e-03 0.0 
0.0 0.0 -8.467704336814e-04 
-9.485585464614e-04 5.193393053567e-04 0.0 
5.193393053567e-04 5.905682896343e-03 0.0 
0.0 0.0 -9.395224721591e-04 
-1.324920476103e-03 3.053746754946e-04 0.0 
3.053746754946e-04 8.723243834592e-03 0.0 
0.0 0.0 -1.306889097489e-03 
-9.807951782906e-04 -9.587801094059e-05 0.0 
-9.587801094059e-05 6.970713904845e-03 0.0 
0.0 0.0 -1.148622835147e-03 
-1.082939420670e-03 2.819860490732e-04 0.0 
2.819860490732e-04 6.381972856138e-03 0.0 
0.0 0.0 -9.696660045843e-04 
-9.493777168521e-04 -4.444219031776e-04 0.0 
-4.444219031776e-04 5.127854127799e-03 0.0 
0.0 0.0 -8.097439408559e-04 
-7.160311725792e-04 3.654432579295e-04 0.0 
3.654432579295e-04 5.714883805619e-03 0.0 
0.0 0.0 -9.749840279683e-04 
-1.676636515260e-04 -4.941269470984e-05 0.0 
-4.941269470984e-05 1.033199140519e-03 0.0 
0.0 0.0 -1.970089232863e-04 
-7.962185908535e-04 3.303377500728e-04 0.0 
3.303377500728e-04 4.131190544581e-03 0.0 
0.0 0.0 -6.447622526173e-04 
-1.000272012546e-03 -3.719800608836e-04 0.0 
-3.719800608836e-04 5.362836932527e-03 0.0 
0.0 0.0 -8.382314227178e-04 
1.017392588855e-04 -1.736220687656e-04 0.0 
-1.736220687656e-04 2.043177635858e-03 0.0 
0.0 0.0 -5.374563060555e-04 
-5.079147546005e-04 -4.709528610388e-04 0.0 
-4.709528610388e-04 4.508844721117e-03 0.0 
0.0 0.0 -8.136389561866e-04 
-1.114056657132e-03 2.887883130746e-04 0.0 
2.887883130746e-04 7.664610237433e-03 0.0 
0.0 0.0 -1.234277959947e-03 
-1.046296347188e-03 -3.017965079923e-04 0.0 
-3.017965079923e-04 5.590796710732e-03 0.0 
0.0 0.0 -8.668853676281e-04 
-2.327182499333e-05 -1.637556316808e-04 0.0 
-1.637556316808e-04 2.609999917965e-03 0.0 
0.0 0.0 -6.015264011954e-04 
-1.086733608739e-03 -2.340312705235e-04 0.0 
-2.340312705235e-04 5.809878777498e-03 0.0 
0.0 0.0 -8.955981815692e-04 
-7.133441625448e-04 3.191920090799e-04 0.0 
3.191920090799e-04 3.492826899708e-03 0.0 
0.0 0.0 -5.519888345566e-04 
-1.102733663682e-03 3.164092702850e-04 0.0 
3.164092702850e-04 6.555228391521e-03 0.0 
0.0 0.0 -9.983267706061e-04 
-1.119318067822e-03 -1.714358954242e-04 0.0 
-1.714358954242e-04 6.018884976543e-03 0.0 
0.0 0.0 -9.243533921793e-04 
-1.001908002250e-03 4.984942752457e-04 0.0 
4.984942752457e-04 6.334427631463e-03 0.0 
0.0 0.0 -1.003151257071e-03 
-2.279098310875e-04 -1.251804773978e-04 0.0 
-1.251804773978e-04 1.119603241316e-03 0.0 
0.0 0.0 -2.040322045631e-04 
-7.855046317287e-04 5.237977796601e-04 0.0 
5.237977796601e-04 5.697841480735e-03 0.0 
0.0 0.0 -9.517466134248e-04 
-1.278300960589e-03 -7.889376224299e-05 0.0 
-7.889376224299e-05 7.564162797006e-03 0.0 
0.0 0.0 -1.155419075730e-03 
-6.039386638838e-04 -9.352834442183e-04 0.0 
-9.352834442183e-04 3.237374525321e-03 0.0 
0.0 0.0 -5.654343806685e-04 
-5.996382576729e-04 -5.078678615237e-04 0.0 
-5.078678615237e-04 4.794693511813e-03 0.0 
0.0 0.0 -8.420324705410e-04 
-1.153622144798e-03 3.409444967982e-04 0.0 
3.409444967982e-04 6.992756961225e-03 0.0 
0.0 0.0 -1.063653581392e-03 
-6.588103306477e-04 3.969496556601e-04 0.0 
3.969496556601e-04 3.002666315313e-03 0.0 
0.0 0.0 -4.839843007303e-04 
-6.880791710433e-04 -4.312562534369e-04 0.0 
-4.312562534369e-04 5.283404868934e-03 0.0 
0.0 0.0 -9.074658271045e-04 
-1.060052777402e-03 4.844888623504e-04 0.0 
4.844888623504e-04 6.770757776904e-03 0.0 
0.0 0.0 -1.067288052377e-03 
-7.837482685475e-04 4.743739920089e-04 0.0 
4.743739920089e-04 5.847117456295e-03 0.0 
0.0 0.0 -9.801762873724e-04 
-5.364910550697e-04 4.803545642860e-04 0.0 
4.803545642860e-04 4.747968314780e-03 0.0 
0.0 0.0 -8.455731917576e-04 
-7.785051872343e-04 -3.658858697108e-04 0.0 
-3.658858697108e-04 5.776530662371e-03 0.0 
0.0 0.0 -9.738262179588e-04 
-6.715128569437e-04 5.603668306290e-04 0.0 
5.603668306290e-04 3.116619739403e-03 0.0 
0.0 0.0 -5.057041985798e-04 
-6.174255134183e-04 -7.382519752092e-04 0.0 
-7.382519752092e-04 2.524949954393e-03 0.0 
0.0 0.0 -4.238464704258e-04 
-5.725994882734e-04 -6.885730532868e-04 0.0 
-6.885730532868e-04 2.123374709043e-03 0.0 
0.0 0.0 -3.586180353125e-04 
-1.087968519769e-04 -3.894502741245e-04 0.0 
-3.894502741245e-04 2.894305128247e-03 0.0 
0.0 0.0 -6.294631353604e-04 
-1.113989301634e-03 4.730580331504e-04 0.0 
4.730580331504e-04 7.064599777148e-03 0.0 
0.0 0.0 -1.103081964739e-03 
-2.909493422495e-04 -6.727813062534e-05 0.0 
-6.727813062534e-05 1.456560370235e-03 0.0 
0.0 0.0 -2.521214004998e-04 
-1.130223577437e-03 3.874695664211e-04 0.0 
3.874695664211e-04 6.879711460710e-03 0.0 
0.0 0.0 -1.054898413167e-03 
-4.747914815808e-04 -7.007316897934e-04 0.0 
-7.007316897934e-04 1.510403036883e-03 0.0 
0.0 0.0 -2.740243446916e-04 
-1.059034309075e-04 -6.476895754937e-04 0.0 
-6.476895754937e-04 2.671993736935e-03 0.0 
0.0 0.0 -5.935709857392e-04 
-8.832674525435e-04 3.712236152595e-04 0.0 
3.712236152595e-04 6.508434955568e-03 0.0 
0.0 0.0 -1.077081564483e-03 
-1.023005590377e-03 -4.065847446542e-05 0.0 
-4.065847446542e-05 6.235882102629e-03 0.0 
0.0 0.0 -9.315431351609e-04 
-2.271455064543e-04 -7.649077538712e-04 0.0 
-7.649077538712e-04 3.005124294304e-03 0.0 
0.0 0.0 -6.211106552582e-04 
-5.539372237771e-04 -2.705347043382e-05 0.0 
-2.705347043382e-05 2.503628127068e-03 0.0 
0.0 0.0 -3.989951351066e-04 
-2.711318037513e-04 -9.555117866304e-04 0.0 
-9.555117866304e-04 2.849172517321e-03 0.0 
0.0 0.0 -5.850331209179e-04 
-6.241921201683e-04 4.180601427792e-04 0.0 
4.180601427792e-04 5.227484326245e-03 0.0 
0.0 0.0 -9.098959706900e-04 
-3.942802621189e-04 -9.538191986641e-04 0.0 
-9.538191986641e-04 3.188718869022e-03 0.0 
0.0 0.0 -6.124823626799e-04 
-4.550624226044e-04 -1.036578340992e-03 0.0 
-1.036578340992e-03 3.064317854104e-03 0.0 
0.0 0.0 -5.760838601101e-04 
-1.286542940212e-03 9.779925010804e-05 0.0 
9.779925010804e-05 8.362389009926e-03 0.0 
0.0 0.0 -1.242975171717e-03 
-5.556616817437e-04 -9.487474711726e-04 0.0 
-9.487474711726e-04 3.373317672553e-03 0.0 
0.0 0.0 -6.030381679152e-04 
-1.312957018488e-03 1.762534641485e-05 0.0 
1.762534641485e-05 8.791531742823e-03 0.0 
0.0 0.0 -1.305370344976e-03 
-1.342889913941e-03 -8.887845541572e-05 0.0 
-8.887845541572e-05 8.517788746463e-03 0.0 
0.0 0.0 -1.298405437673e-03 
-9.001399359898e-04 -3.115200366471e-05 0.0 
-3.115200366471e-05 5.327299192951e-03 0.0 
0.0 0.0 -7.997855503562e-04 
-6.119585369169e-04 5.319683456807e-04 0.0 
5.319683456807e-04 2.524442221547e-03 0.0 
0.0 0.0 -4.121418992062e-04 
0.0 0.0 0.0 
0.0 0.0 0.0 
0.0 0.0 0.0 
-6.013216908629e-04 7.353591052882e-04 0.0 
7.353591052882e-04 2.570270979253e-03 0.0 
0.0 0.0 -4.369243393394e-04 
-5.755877201232e-04 -1.006492197580e-03 0.0 
-1.006492197580e-03 2.831071537896e-03 0.0 
0.0 0.0 -5.013603847490e-04 
-1.101076468124e-03 4.427543157598e-04 0.0 
4.427543157598e-04 6.753747619027e-03 0.0 
0.0 0.0 -1.045752072333e-03 
-9.001350944238e-04 1.690426372956e-05 0.0 
1.690426372956e-05 5.335483219367e-03 0.0 
0.0 0.0 -8.029817139903e-04 
-6.111138971153e-04 -8.912307338130e-04 0.0 
-8.912307338130e-04 2.695444832232e-03 0.0 
0.0 0.0 -4.630712860745e-04 
-1.275916597091e-03 4.598087248478e-04 0.0 
4.598087248478e-04 8.197933557976e-03 0.0 
0.0 0.0 -1.250093291501e-03 
-1.277155987315e-03 4.247176035906e-04 0.0 
4.247176035906e-04 8.290214574666e-03 0.0 
0.0 0.0 -1.306737725957e-03 
-1.108220863065e-03 9.376951406301e-06 0.0 
9.376951406301e-06 6.884195681395e-03 0.0 
0.0 0.0 -1.028769680629e-03 
-9.736500693663e-04 5.157775084853e-05 0.0 
5.157775084853e-05 6.985202160712e-03 0.0 
0.0 0.0 -1.152835590205e-03 
-7.921204258207e-04 4.078698397503e-04 0.0 
4.078698397503e-04 6.023879636983e-03 0.0 
0.0 0.0 -1.010595862668e-03 
-1.241857793517e-03 -4.299570159508e-06 0.0 
-4.299570159508e-06 7.958618347353e-03 0.0 
0.0 0.0 -1.185717314024e-03 
-8.475222208266e-04 -3.781329079989e-05 0.0 
-3.781329079989e-05 4.928212699674e-03 0.0 
0.0 0.0 -7.451086181774e-04 
-1.664286133127e-04 -2.725892507630e-04 0.0 
-2.725892507630e-04 6.325537652716e-04 0.0 
0.0 0.0 -1.414044378648e-04 
-1.183800202695e-03 -4.172593709851e-05 0.0 
-4.172593709851e-05 6.467154125527e-03 0.0 
0.0 0.0 -9.879584850274e-04 
-5.708971627680e-04 6.741264129118e-04 0.0 
6.741264129118e-04 2.024843560255e-03 0.0 
0.0 0.0 -3.437331075899e-04 
-5.495900722021e-04 1.011381174664e-03 0.0 
1.011381174664e-03 1.944401710747e-03 0.0 
0.0 0.0 -3.524505972177e-04 
-2.853835512823e-04 1.205712139992e-03 0.0 
1.205712139992e-03 1.304597058130e-03 0.0 
0.0 0.0 -3.593644486456e-04 
-7.020460695734e-04 -1.440442927613e-04 0.0 
-1.440442927613e-04 3.119459023260e-03 0.0 
0.0 0.0 -4.856826860430e-04 
-8.782495870591e-05 -9.084916110393e-04 0.0 
-9.084916110393e-04 7.572036747300e-04 0.0 
0.0 0.0 -2.846511604759e-04 
-4.893890858810e-04 8.969022950391e-04 0.0 
8.969022950391e-04 1.589417859757e-03 0.0 
0.0 0.0 -3.076864852448e-04 
-1.137014357475e-03 7.152136645661e-05 0.0 
7.152136645661e-05 7.697731072351e-03 0.0 
0.0 0.0 -1.245112051941e-03 
-9.139609418570e-04 1.641183808410e-05 0.0 
1.641183808410e-05 5.327038428336e-03 0.0 
0.0 0.0 -8.050116406322e-04 
-9.540345071131e-04 3.841934886618e-04 0.0 
3.841934886618e-04 6.790550876670e-03 0.0 
0.0 0.0 -1.110409235593e-03 
-1.902162665021e-04 9.339845454039e-04 0.0 
9.339845454039e-04 9.942126500714e-04 0.0 
0.0 0.0 -3.261355004832e-04 
-1.296828862309e-03 2.341461600450e-04 0.0 
2.341461600450e-04 8.351041898143e-03 0.0 
0.0 0.0 -1.247366155457e-03 
-1.168645139073e-03 3.735588726833e-04 0.0 
3.735588726833e-04 7.817174461527e-03 0.0 
0.0 0.0 -1.246608778627e-03 
-1.314967464086e-03 -3.318256949741e-04 0.0 
-3.318256949741e-04 8.403481236488e-03 0.0 
0.0 0.0 -1.306249356034e-03 
-1.050201848033e-03 3.696451559178e-04 0.0 
3.696451559178e-04 7.268871172990e-03 0.0 
0.0 0.0 -1.176371721005e-03 
6.114555871551e-05 1.042784162236e-03 0.0 
1.042784162236e-03 5.736687994652e-04 0.0 
0.0 0.0 -2.720632963632e-04 
-9.766098877979e-04 1.041630930997e-04 0.0 
1.041630930997e-04 5.685157012225e-03 0.0 
0.0 0.0 -8.603500797662e-04 
-1.246724541881e-03 4.866961176123e-04 0.0 
4.866961176123e-04 8.045633532487e-03 0.0 
0.0 0.0 -1.250827372426e-03 
-1.145993633532e-03 3.235835733547e-05 0.0 
3.235835733547e-05 7.250949289083e-03 0.0 
0.0 0.0 -1.080253149739e-03 
-1.318596932855e-03 -2.303003049155e-04 0.0 
-2.303003049155e-04 8.477981163117e-03 0.0 
0.0 0.0 -1.309985050881e-03 
-9.104561560587e-04 8.791536920609e-05 0.0 
8.791536920609e-05 5.249520802984e-03 0.0 
0.0 0.0 -7.979019438933e-04 
-1.287101829326e-03 7.929734908006e-05 0.0 
7.929734908006e-05 8.412586601378e-03 0.0 
0.0 0.0 -1.252774941638e-03 
4.187865149814e-04 -7.886444366699e-04 0.0 
-7.886444366699e-04 6.898920111237e-05 0.0 
0.0 0.0 -2.090467354688e-04 
-1.285197150188e-03 5.312445103222e-05 0.0 
5.312445103222e-05 8.412445019205e-03 0.0 
0.0 0.0 -1.254166199180e-03 
-1.155435508235e-03 4.462044169920e-04 0.0 
4.462044169920e-04 7.190167035892e-03 0.0 
0.0 0.0 -1.110316242656e-03 
-9.785241987209e-04 6.006269753900e-05 0.0 
6.006269753900e-05 5.897359505691e-03 0.0 
0.0 0.0 -8.840149073763e-04 
-9.814056690218e-04 2.078101741112e-04 0.0 
2.078101741112e-04 5.639397818750e-03 0.0 
0.0 0.0 -8.570326279659e-04 
-1.319590243869e-03 -1.168373964399e-04 0.0 
-1.168373964399e-04 8.200864803592e-03 0.0 
0.0 0.0 -1.256337174517e-03 
-1.298927049123e-03 3.872456439500e-04 0.0 
3.872456439500e-04 8.256979916972e-03 0.0 
0.0 0.0 -1.249505442739e-03 
1.588810044440e-04 6.739000714330e-04 0.0 
6.739000714330e-04 2.144145137498e-04 0.0 
0.0 0.0 -1.599837935116e-04 
-1.096094038579e-03 6.855172835755e-05 0.0 
6.855172835755e-05 6.864639960432e-03 0.0 
0.0 0.0 -1.024357608964e-03 
-8.327401503038e-04 -2.617825635292e-04 0.0 
-2.617825635292e-04 3.865808984588e-03 0.0 
0.0 0.0 -5.984289768806e-04 
4.595402762325e-05 -8.016720020432e-05 0.0 
-8.016720020432e-05 3.015012832340e-06 0.0 
0.0 0.0 -2.098673162382e-05 
-1.235862100260e-03 -2.625570613708e-04 0.0 
-2.625570613708e-04 7.934382526740e-03 0.0 
0.0 0.0 -1.249521112489e-03 
-1.211535382329e-03 4.565569816846e-04 0.0 
4.565569816846e-04 7.603855218494e-03 0.0 
0.0 0.0 -1.172189067419e-03 
-1.321360973485e-03 -1.598454139055e-04 0.0 
-1.598454139055e-04 8.157812717265e-03 0.0 
0.0 0.0 -1.251863004148e-03 
-1.704574328015e-04 2.300128264431e-05 0.0 
2.300128264431e-05 1.030856563870e-03 0.0 
0.0 0.0 -1.953152674555e-04 
-1.117901966883e-04 -9.482210033707e-05 0.0 
-9.482210033707e-05 5.817955991869e-04 0.0 
0.0 0.0 -1.292073282250e-04 
-1.214101423412e-03 -2.486194593532e-04 0.0 
-2.486194593532e-04 7.945028851660e-03 0.0 
0.0 0.0 -1.258522865334e-03 
-1.271219324857e-03 4.971693506933e-04 0.0 
4.971693506933e-04 8.177840067003e-03 0.0 
0.0 0.0 -1.257106814994e-03 
2.594232538172e-04 -1.339851872499e-03 0.0 
-1.339851872499e-03 5.141638941498e-04 0.0 
0.0 0.0 -3.217126346404e-04 
-1.334345376368e-03 2.157790183719e-04 0.0 
2.157790183719e-04 8.827191171129e-03 0.0 
0.0 0.0 -1.314710167832e-03 
5.758992691219e-05 1.629967515180e-04 0.0 
1.629967515180e-04 3.408863824387e-05 0.0 
0.0 0.0 -3.929081363831e-05 
-8.415723991859e-04 3.409357994461e-05 0.0 
3.409357994461e-05 4.862419417103e-03 0.0 
0.0 0.0 -7.389643750272e-04 
-5.632071603276e-05 -7.908255579780e-05 0.0 
-7.908255579780e-05 5.951715054384e-04 0.0 
0.0 0.0 -1.313337839019e-04 
-1.324427323831e-03 -2.984557275517e-04 0.0 
-2.984557275517e-04 8.505668996389e-03 0.0 
0.0 0.0 -1.308531455474e-03 
-1.300676432775e-03 1.886676363898e-04 0.0 
1.886676363898e-04 8.425576722081e-03 0.0 
0.0 0.0 -1.254845750201e-03 
-8.984019564796e-04 -1.237198133233e-04 0.0 
-1.237198133233e-04 4.265458849472e-03 0.0 
0.0 0.0 -6.564513288157e-04 
-8.888014077326e-04 1.812789084724e-04 0.0 
1.812789084724e-04 4.952376261473e-03 0.0 
0.0 0.0 -7.541421605440e-04 
-6.276097559503e-04 -6.715782605664e-05 0.0 
-6.715782605664e-05 2.832069501594e-03 0.0 
0.0 0.0 -4.426424662127e-04 
-1.151816338705e-03 4.986859032723e-04 0.0 
4.986859032723e-04 7.600283655027e-03 0.0 
0.0 0.0 -1.203498912175e-03 
-2.674740073154e-04 -5.400123392678e-04 0.0 
-5.400123392678e-04 9.299090651865e-04 0.0 
0.0 0.0 -2.264474151299e-04 
-1.303841109802e-03 1.085882883771e-04 0.0 
1.085882883771e-04 8.492357544012e-03 0.0 
0.0 0.0 -1.260296891839e-03 
-1.191687690371e-03 -1.792572912051e-04 0.0 
-1.792572912051e-04 7.902409115589e-03 0.0 
0.0 0.0 -1.261416966621e-03 
-1.308215205254e-03 3.369873735607e-04 0.0 
3.369873735607e-04 8.413847692259e-03 0.0 
0.0 0.0 -1.260618436842e-03 
-1.275370929010e-03 2.203297067690e-04 0.0 
2.203297067690e-04 8.294911698725e-03 0.0 
0.0 0.0 -1.317725628150e-03 
1.222313271005e-05 1.128127362180e-05 0.0 
1.128127362180e-05 -2.314647535051e-06 0.0 
0.0 0.0 -4.246493646426e-06 
-1.211818034300e-03 4.006014363556e-04 0.0 
4.006014363556e-04 7.983414665776e-03 0.0 
0.0 0.0 -1.263090216482e-03 
-1.073154055867e-03 -5.044780342709e-05 0.0 
-5.044780342709e-05 7.404491594172e-03 0.0 
0.0 0.0 -1.202239909569e-03 
-8.482969471247e-04 5.756566432870e-05 0.0 
5.756566432870e-05 4.934073378721e-03 0.0 
0.0 0.0 -7.439744481034e-04 
-1.294789794099e-03 4.128632800208e-04 0.0 
4.128632800208e-04 8.301439097425e-03 0.0 
0.0 0.0 -1.252574368527e-03 
-7.632240259174e-04 -1.247615584578e-04 0.0 
-1.247615584578e-04 3.481612275262e-03 0.0 
0.0 0.0 -5.383891422301e-04 
-3.003096040968e-04 -1.615487937268e-04 0.0 
-1.615487937268e-04 1.430206630076e-03 0.0 
0.0 0.0 -2.492021827984e-04 
-1.313629829914e-03 -1.230146382652e-05 0.0 
-1.230146382652e-05 8.822541585775e-03 0.0 
0.0 0.0 -1.313490227100e-03 
3.512651625883e-04 2.496523614618e-05 0.0 
2.496523614618e-05 9.331964126241e-05 0.0 
0.0 0.0 -1.176723970536e-04 
-8.447146323437e-04 -2.046082411215e-05 0.0 
-2.046082411215e-05 4.909462012842e-03 0.0 
0.0 0.0 -7.402411036050e-04 
-1.348085845692e-03 2.530918264864e-06 0.0 
2.530918264864e-06 8.606464988216e-03 0.0 
0.0 0.0 -1.313492844077e-03 
-2.497229854947e-04 -6.189559134780e-05 0.0 
-6.189559134780e-05 1.337406434444e-03 0.0 
0.0 0.0 -2.401910970207e-04 
-9.421911629794e-04 -1.661669992897e-05 0.0 
-1.661669992897e-05 5.655702660019e-03 0.0 
0.0 0.0 -8.489638187885e-04 
-1.276280445523e-03 4.696432845470e-04 0.0 
4.696432845470e-04 8.231682282445e-03 0.0 
0.0 0.0 -1.260211869575e-03 
-1.042131282941e-03 -3.353944901092e-05 0.0 
-3.353944901092e-05 5.231045184564e-03 0.0 
0.0 0.0 -7.986629621775e-04 
-1.208709146256e-03 -3.512840286861e-05 0.0 
-3.512840286861e-05 7.690123470060e-03 0.0 
0.0 0.0 -1.148445367820e-03 
-1.362273016930e-05 -1.182361291552e-03 0.0 
-1.182361291552e-03 7.884965128820e-04 0.0 
0.0 0.0 -3.320887640197e-04 
0.0 0.0 0.0 
0.0 0.0 0.0 
0.0 0.0 0.0 
-1.052359765526e-03 -2.552934865100e-05 0.0 
-2.552934865100e-05 6.469023319650e-03 0.0 
0.0 0.0 -9.668795991591e-04 
-1.182130655930e-03 3.563594059290e-04 0.0 
3.563594059290e-04 7.870829341615e-03 0.0 
0.0 0.0 -1.258714341260e-03 
-1.311624000118e-03 2.599452204782e-04 0.0 
2.599452204782e-04 8.471619375797e-03 0.0 
0.0 0.0 -1.263997700767e-03 
-1.012178473530e-03 6.922432419418e-05 0.0 
6.922432419418e-05 6.158161253950e-03 0.0 
0.0 0.0 -9.199601189493e-04 
2.647470927745e-04 7.455276449397e-04 0.0 
7.455276449397e-04 1.486685304712e-04 0.0 
0.0 0.0 -1.771781242482e-04 
-1.250478637346e-03 4.824320061321e-04 0.0 
4.824320061321e-04 7.958988352162e-03 0.0 
0.0 0.0 -1.221038716794e-03 
-9.320485300336e-04 -1.667751956757e-04 0.0 
-1.667751956757e-04 4.597200132756e-03 0.0 
0.0 0.0 -7.060606045913e-04 
-1.200656783891e-03 4.721645169611e-04 0.0 
4.721645169611e-04 7.751960834764e-03 0.0 
0.0 0.0 -1.208939113964e-03 
-1.070653970758e-03 3.740030437558e-05 0.0 
3.740030437558e-05 7.401065294209e-03 0.0 
0.0 0.0 -1.203806565432e-03 
9.108765321086e-06 2.666682312104e-05 0.0 
2.666682312104e-05 5.874318753840e-06 0.0 
0.0 0.0 -6.421321746397e-06 
-1.092227246100e-03 -1.750499239164e-05 0.0 
-1.750499239164e-05 5.615262148534e-03 0.0 
0.0 0.0 -8.562696210230e-04 
-5.708960077967e-05 -1.112001135559e-04 0.0 
-1.112001135559e-04 5.586929987395e-04 0.0 
0.0 0.0 -1.274563633148e-04 
-1.286136249812e-03 -3.205909886145e-04 0.0 
-3.205909886145e-04 8.133690929480e-03 0.0 
0.0 0.0 -1.263714160583e-03 
-9.761535132734e-04 -1.267872809360e-04 0.0 
-1.267872809360e-04 4.804162128704e-03 0.0 
0.0 0.0 -7.344436328926e-04 
4.888314181224e-05 2.513476159900e-04 0.0 
2.513476159900e-04 1.764925595473e-04 0.0 
0.0 0.0 -8.294219718919e-05 
-1.176741794289e-05 -6.574928682681e-06 0.0 
-6.574928682681e-06 1.570099729796e-04 0.0 
0.0 0.0 -5.398268707657e-05 
-1.041795283165e-04 3.876426098901e-04 0.0 
3.876426098901e-04 4.861507765660e-04 0.0 
0.0 0.0 -1.637019635355e-04 
-1.545295874697e-04 3.436347606622e-07 0.0 
3.436347606622e-07 5.546351570785e-04 0.0 
0.0 0.0 -1.274364162693e-04 
-3.009207581188e-04 5.378832360255e-04 0.0 
5.378832360255e-04 1.013666119381e-03 0.0 
0.0 0.0 -2.385852507484e-04 
-2.374498242078e-04 1.023887662289e-06 0.0 
1.023887662289e-06 1.104170816730e-03 0.0 
0.0 0.0 -1.933333333333e-04 
-4.649642435577e-04 5.083679169788e-04 0.0 
5.083679169788e-04 1.486596875336e-03 0.0 
0.0 0.0 -2.525839566596e-04 
-3.132417179502e-04 -4.279092732955e-06 0.0 
-4.279092732955e-06 1.491121511340e-03 0.0 
0.0 0.0 -2.600000000000e-04 
-4.871441053693e-04 3.894800201419e-04 0.0 
3.894800201419e-04 1.935005749198e-03 0.0 
0.0 0.0 -3.193537414966e-04 
-3.883340728744e-04 -5.297006852740e-06 0.0 
-5.297006852740e-06 2.040218536578e-03 0.0 
0.0 0.0 -3.266666666667e-04 
-5.221802544742e-04 3.142786752395e-04 0.0 
3.142786752395e-04 2.396081260473e-03 0.0 
0.0 0.0 -3.859030858720e-04 
-4.643532723477e-04 -6.847349416375e-06 0.0 
-6.847349416375e-06 2.429348412629e-03 0.0 
0.0 0.0 -3.933333333333e-04 
-5.880460427890e-04 2.259415376055e-04 0.0 
2.259415376055e-04 2.861994469718e-03 0.0 
0.0 0.0 -4.526870748299e-04 
-5.389667577120e-04 -6.804025262557e-06 0.0 
-6.804025262557e-06 2.978462680921e-03 0.0 
0.0 0.0 -4.600000000000e-04 
-6.473050156334e-04 1.727942626416e-04 0.0 
1.727942626416e-04 3.336717154907e-03 0.0 
0.0 0.0 -5.192176870747e-04 
-6.144712139930e-04 -6.417158408879e-06 0.0 
-6.417158408879e-06 3.367933189460e-03 0.0 
0.0 0.0 -5.266666666667e-04 
-7.109436799071e-04 1.285541719908e-04 0.0 
1.285541719908e-04 3.807150921548e-03 0.0 
0.0 0.0 -5.860204081633e-04 
-6.853888581673e-04 6.201834011282e-06 0.0 
6.201834011282e-06 3.914136364457e-03 0.0 
0.0 0.0 -5.933333333333e-04 
-7.741251423872e-04 1.050422606297e-04 0.0 
1.050422606297e-04 4.286196800977e-03 0.0 
0.0 0.0 -6.525251918948e-04 
-7.681459693767e-04 3.705640173290e-05 0.0 
3.705640173290e-05 4.300928271438e-03 0.0 
0.0 0.0 -6.600000000000e-04 

SCALARS node_materi_plasti_kappa_shear float
LOOKUP_TABLE default
4.018595016637e-04
3.089753889168e-03
5.782851735544e-03
5.918183804685e-03
3.534406101045e-04
5.777185496190e-04
8.655346567894e-04
1.225178696612e-03
1.561289241519e-03
1.871659154863e-03
2.181083715770e-03
2.488964856422e-03
2.787137593187e-03
3.091771098928e-03
3.420472284368e-03
3.710467865470e-03
3.939561491463e-03
4.240577622205e-03
4.533842638206e-03
4.816933074020e-03
5.104668969230e-03
5.391975952764e-03
5.664103688175e-03
5.924781152092e-03
5.917884078783e-03
5.912198488963e-03
5.915363934694e-03
5.905144694759e-03
5.903457440159e-03
5.903348825920e-03
5.903761712110e-03
5.904265203746e-03
5.905318048855e-03
5.891395232290e-03
5.888128140164e-03
5.888680312796e-03
5.877931512601e-03
5.860031142375e-03
5.843163873242e-03
5.826784160533e-03
5.822850206754e-03
5.815960623432e-03
5.800025919692e-03
5.784362356774e-03
5.761776212317e-03
5.737855144385e-03
5.711749137531e-03
5.696108572039e-03
5.671644922162e-03
5.650827538949e-03
5.628366488181e-03
5.614080868870e-03
5.604140386820e-03
5.593036124330e-03
5.565915778014e-03
5.555192109801e-03
5.573004876633e-03
5.580306717995e-03
5.596307166112e-03
5.614091302200e-03
5.629810666475e-03
5.640837494200e-03
5.663093814390e-03
5.686920133380e-03
5.716693701825e-03
5.739758391817e-03
5.726679333637e-03
5.759394314008e-03
5.766547388258e-03
5.773558049937e-03
5.793695355299e-03
5.800384027879e-03
3.373278433029e-03
3.702017582457e-03
4.003145076898e-03
4.293988028575e-03
4.595203178701e-03
4.888984289506e-03
5.184208240141e-03
5.464856448975e-03
5.776378587400e-03
0.0
1.719096497569e-04
3.081614032412e-03
3.670217105438e-04
7.704259860332e-04
1.116670859615e-03
1.349014216904e-03
1.575876928334e-03
1.839092757794e-03
2.132793436960e-03
2.435412037652e-03
2.742854806992e-03
3.292323720616e-04
6.366266937039e-04
9.327039136355e-04
1.234373397688e-03
1.540487309266e-03
1.848687914648e-03
2.157438038011e-03
2.464376355407e-03
2.763613688910e-03
3.033283060944e-03
3.047551184854e-03
3.052691208087e-03
3.048980415926e-03
3.100970999415e-03
3.055386088564e-03
3.048944342912e-03
3.057111577284e-03
3.066860764030e-03
3.068512091509e-03
3.063486917503e-03
3.060147944086e-03
3.055345893607e-03
3.060924048496e-03
0.0
0.0
0.0
0.0
3.010556392936e-05
1.524327839584e-04
1.995857095858e-04
2.767971837970e-04
3.769179784358e-04
3.253807271213e-04
3.117581124918e-04
3.606568275965e-04
3.857262083461e-04
3.906419353076e-04
3.716692121618e-04
3.690405021818e-04
3.649158742688e-04
3.750961897123e-04
3.938961504005e-04
1.841136274644e-04
2.052780125008e-04
2.288086000475e-04
3.331624558030e-04
3.342800576053e-04
2.770760279791e-04
2.772575801479e-04
2.692971358076e-04
2.554919408425e-04
2.377144965437e-04
2.183199951197e-04
1.987051264909e-04
1.809454024576e-04
1.655476758845e-04
1.521432676885e-04
1.403992926426e-04
1.323132710228e-04
1.309795901070e-04
1.336172254831e-04
1.364024195281e-04
1.392238367200e-04
1.419917783301e-04
1.446483320212e-04
1.471789500315e-04
1.496371491632e-04
1.522032197752e-04
1.553098616646e-04
1.613190848783e-04
1.842731334614e-04
2.987801888840e-04
2.539731855157e-04
2.559476883924e-04
2.563957623877e-04
2.557115370021e-04
2.546637809340e-04
2.533732619501e-04
2.518911850129e-04
2.502508434329e-04
2.484820425386e-04
2.466189900895e-04
2.447062750341e-04
2.427983441621e-04
2.428063514325e-04
2.442667990801e-04
2.461610440956e-04
2.485115380049e-04
2.514780559297e-04
2.552471733212e-04
2.598331938503e-04
2.645438976057e-04
2.704339588244e-04
2.756816675752e-04
2.854541652438e-04
2.959249805819e-04
3.649179029841e-04
3.739628353869e-04
2.687470413028e-04
6.765588483990e-04
6.896455871166e-04
6.125048874619e-04
5.758842106849e-04
5.651019133466e-04
5.562092065996e-04
5.523404602067e-04
5.495313735217e-04
5.487758511153e-04
5.489090017277e-04
5.496283092039e-04
5.506469998929e-04
5.519072704306e-04
5.533253067416e-04
5.548351722064e-04
5.563612667463e-04
5.578300993352e-04
5.591867734787e-04
5.603940529731e-04
5.614133671171e-04
5.621881572816e-04
5.626281858834e-04
5.625865165803e-04
5.617917193559e-04
5.607292263102e-04
6.050395182957e-04
9.909652232208e-04
1.000323894640e-03
9.426429247523e-04
9.191754271031e-04
9.069282314655e-04
8.961955305782e-04
8.899178029781e-04
8.856946120988e-04
8.832943610386e-04
8.819803486326e-04
8.815291054231e-04
8.816763298801e-04
8.822954651675e-04
8.832145972014e-04
8.842483524863e-04
8.852607652099e-04
8.861709768136e-04
8.869093519269e-04
8.874063066099e-04
8.875951146691e-04
8.874459252017e-04
8.870250409582e-04
8.867868378057e-04
8.903609641353e-04
9.175642756490e-04
1.218617488871e-03
1.201441144692e-03
1.200450054902e-03
1.200725682078e-03
1.201284400767e-03
1.201809552986e-03
1.202146721212e-03
1.202263596626e-03
1.202225086140e-03
1.202090321804e-03
1.201916536589e-03
1.201744135093e-03
1.201800021073e-03
1.202351193508e-03
1.203648568617e-03
1.205522949758e-03
1.208629005642e-03
1.212461690665e-03
1.219453852663e-03
1.226928831710e-03
1.244550525754e-03
1.281903527467e-03
1.240390523468e-03
1.503710853601e-03
1.563264015597e-03
1.541819981905e-03
1.533515452539e-03
1.530749929635e-03
1.526512742426e-03
1.523991147098e-03
1.521462715804e-03
1.520000732908e-03
1.519373259278e-03
1.519112239051e-03
1.518688350821e-03
1.518233377000e-03
1.517797439737e-03
1.517289149115e-03
1.516573233522e-03
1.515655005308e-03
1.514795103623e-03
1.514285677842e-03
1.514558152049e-03
1.516766357273e-03
1.531646280250e-03
1.838274221278e-03
1.827642067065e-03
1.826933390293e-03
1.827334425569e-03
1.828247054489e-03
1.829485851769e-03
1.830712470314e-03
1.831486639508e-03
1.832077787242e-03
1.832953756020e-03
1.833892061319e-03
1.834434545344e-03
1.834261549352e-03
1.835206308822e-03
1.837211607732e-03
1.841012575748e-03
1.841393986030e-03
1.843823439171e-03
1.861376219882e-03
1.784560400915e-03
2.080506824934e-03
2.164948252942e-03
2.154100839180e-03
2.150515564044e-03
2.148527180390e-03
2.146829621685e-03
2.148399684790e-03
2.148269732465e-03
2.147251103362e-03
2.145502430008e-03
2.144742881416e-03
2.144585681651e-03
2.143007155335e-03
2.141326361852e-03
2.140089070988e-03
2.139324946174e-03
2.139237355337e-03
2.141352669433e-03
2.151708895370e-03
2.461087216651e-03
2.449937346399e-03
2.449035342414e-03
2.450513446923e-03
2.450644149295e-03
2.452642955489e-03
2.454778138053e-03
2.455902509536e-03
2.454538383279e-03
2.457438007012e-03
2.459393424546e-03
2.458960398410e-03
2.459214310986e-03
2.454295807747e-03
2.458028484257e-03
2.475695803071e-03
2.389521690566e-03
2.696529334491e-03
2.782001887569e-03
2.769038020761e-03
2.765913210012e-03
2.768177298345e-03
2.769449690573e-03
2.765618434112e-03
2.764713207464e-03
2.764281696244e-03
2.762786239059e-03
2.760748228383e-03
2.759266427299e-03
2.760944420823e-03
2.756978941966e-03
2.764313748951e-03
2.781014989081e-03
1.677099694690e-04
5.997777534720e-04
1.027015258374e-03
1.303606500789e-03
1.480294313688e-03
1.730609436774e-03
2.006286172887e-03
2.301780023271e-03
2.604607703320e-03
2.917242865590e-03
9.738600395069e-04
5.435588587201e-03
2.909988311951e-04
3.769847250241e-05
5.523350165745e-03
1.570944169196e-03
3.259014405966e-03
5.458606763578e-03
1.964336709912e-03
5.566973844380e-03
2.569306611317e-03
5.632953359091e-03
2.974125210141e-04
5.671758588449e-03
3.203440197606e-03
2.038890301765e-03
4.045860618713e-03
5.716180375960e-03
5.780776132195e-03
5.820339983969e-03
5.787783236705e-03
5.807930197893e-03
3.336276229903e-03
3.342041558882e-03
3.361792062102e-03
4.441169448529e-03
5.674307051813e-03
0.0
3.209899088955e-04
4.945795996265e-03
3.327462179655e-03
1.042267579418e-03
5.707024864184e-03
5.532622783008e-03
5.619797893241e-03
5.423578043402e-03
5.471772884167e-03
3.436383270429e-04
3.333005330643e-03
5.529223749367e-03
5.037839075619e-03
2.638587871684e-04
2.642361659730e-03
5.873210275008e-03
1.763677943653e-03
1.340334044123e-03
2.263467496582e-03
2.874799860949e-03
3.224994524072e-04
3.869122312403e-03
5.743109238437e-03
3.285007242827e-04
5.592525333234e-03
3.331816214928e-03
3.445762685372e-03
3.598635432457e-03
3.735913935781e-03
3.890935618439e-03
4.012600674008e-03
3.849474617287e-03
4.126514031565e-03
3.959165169884e-03
4.176038116471e-03
4.235988580970e-03
4.064707878218e-03
4.341402437136e-03
4.167240197337e-03
3.894151677151e-03
3.992834958239e-03
3.721936449487e-03
3.816849981585e-03
4.088667098279e-03
3.907021233887e-03
3.638494610824e-03
3.722863223661e-03
3.459179651477e-03
3.537390187834e-03
3.278134638251e-03
3.349761859775e-03
3.611638012721e-03
3.416809574398e-03
3.159803868816e-03
3.218051688491e-03
2.967054440755e-03
3.013255720382e-03
3.274741419647e-03
3.060407839341e-03
2.799033525006e-03
2.837141687482e-03
2.575225456547e-03
2.604333461748e-03
2.339006943104e-03
2.356936139518e-03
2.652093179226e-03
2.407825459181e-03
2.096105658174e-03
2.161022888783e-03
2.499076110119e-03
2.280206439540e-03
2.629068977315e-03
2.442266900798e-03
2.092139772061e-03
2.292183785287e-03
2.630236405014e-03
2.506325631077e-03
2.190661895186e-03
2.422274426006e-03
2.721982461051e-03
2.641933182030e-03
2.372758104436e-03
2.584384885052e-03
2.850333968712e-03
2.779077813444e-03
2.534557373611e-03
2.709557774217e-03
2.962454448322e-03
2.875190167875e-03
3.136631662821e-03
2.629761375739e-03
2.778979644167e-03
2.533618166994e-03
2.669371918058e-03
3.335780224915e-03
2.417052975494e-03
2.301133563289e-03
2.544153619348e-03
2.809569658580e-03
2.280488059570e-03
2.403129281843e-03
2.126768242516e-03
2.337020972949e-03
4.180692697777e-03
2.249003779132e-03
1.959755581014e-03
1.842529391951e-03
1.658290441270e-03
4.057689887828e-03
4.345234894460e-03
4.214494829484e-03
4.512207963410e-03
4.386116896851e-03
1.781237856866e-03
4.515858041588e-03
4.632785065629e-03
3.375865563346e-03
2.914340702826e-03
2.837997481989e-03
2.532048550751e-03
2.378710134929e-03
2.668313152737e-03
3.233044162886e-03
3.411145406702e-03
3.516648249659e-03
3.695606962541e-03
3.809881520442e-03
3.987932871345e-03
3.868387923180e-03
4.160380401702e-03
4.035401995459e-03
4.109927676280e-03
3.929071965477e-03
4.326541573449e-03
4.196853341751e-03
4.486612097014e-03
4.352559495553e-03
4.065464170358e-03
4.216259007439e-03
3.932665926102e-03
2.974206145827e-03
3.176937453123e-03
3.316135238148e-03
3.514584502752e-03
3.655690360847e-03
3.851432524779e-03
3.992906615051e-03
3.810423676568e-03
4.443438443786e-03
1.828572061533e-03
1.806415762240e-03
1.513365747016e-03
1.563989916259e-03
1.243214007741e-03
1.411260727777e-03
1.087408529277e-03
9.280634857496e-04
7.696745497682e-04
7.727047061155e-04
6.380213861807e-04
9.424950275726e-04
3.683920707972e-03
3.721810168106e-03
4.055539867157e-03
3.931687734683e-03
1.545289606018e-03
4.502587431745e-03
4.237803823005e-03
4.054767645798e-03
4.147689587509e-03
1.469037962723e-03
1.381279309045e-03
1.636872751770e-03
4.676612476866e-03
4.548915297300e-03
4.373011447568e-03
1.596671411329e-03
4.457517107573e-03
6.726180917699e-04
4.361759767158e-03
4.647438517847e-03
3.749070434487e-03
4.262666346844e-03
4.139562493484e-03
1.058263721451e-03
1.328795762681e-03
1.257951778391e-03
1.615059101371e-03
1.617776829753e-03
1.784704992927e-03
1.664404533731e-03
1.851897133188e-03
1.923512677117e-03
1.920863832566e-03
1.732826179111e-03
1.789080397445e-03
4.789640175199e-03
4.933105548269e-04
3.623293427982e-03
4.549397453839e-03
4.326717748868e-03
4.840106465985e-03
4.712783082347e-03
4.418649943636e-03
4.585859736983e-03
4.878747721020e-03
4.750919794657e-03
4.456475978691e-03
4.618929314417e-03
4.321775629010e-03
4.485087669046e-03
4.780485262660e-03
4.648645754832e-03
4.352908180169e-03
4.515438133183e-03
4.218119818909e-03
4.376442562231e-03
4.677698654010e-03
1.280455175298e-03
3.975684030661e-03
4.313430537097e-03
2.531248625096e-03
2.795187276442e-03
2.950421176089e-03
3.091354176801e-03
4.540325048562e-03
4.842133621751e-03
1.627886023255e-03
1.806948227217e-03
4.964897247722e-03
4.505647349825e-03
4.219641279942e-03
2.730984817609e-03
2.680252985846e-03
2.508656173216e-03
2.453261305901e-03
2.619408054872e-03
2.295804407583e-03
3.740263927180e-03
4.943332949813e-03
1.736869985241e-03
1.441819622179e-03
4.792252417499e-03
3.639826983595e-03
3.882064491805e-03
3.960472891563e-03
4.161603615821e-03
4.245857029618e-03
4.449138486875e-03
4.538270851724e-03
4.336412104350e-03
4.467009293726e-03
4.637465802825e-03
4.227760771006e-03
3.603493058884e-03
2.015316274690e-03
1.151528373984e-03
1.494680084950e-03
1.401763515938e-03
1.725734234278e-03
4.692766413527e-03
4.744201478352e-03
4.646812231519e-03
2.391216520205e-03
2.541437442855e-03
4.590954612420e-03
4.090617543142e-03
4.159541705089e-03
4.020881279015e-03
1.028169191453e-03
1.414727337198e-03
5.043491496533e-03
1.828932906125e-03
1.917980713017e-03
4.157180774186e-04
1.730461438410e-04
4.691724722002e-03
4.992960999119e-03
3.232526540781e-03
3.376337074583e-03
4.517813292037e-03
1.573664134280e-03
5.136914764881e-03
3.818178697522e-03
3.485662865048e-03
2.929371560799e-03
1.726704283358e-03
1.445214139705e-03
2.001081890038e-03
1.816948000307e-03
1.537558582793e-03
4.841861112859e-03
5.166500773962e-03
4.432736485775e-03
4.128543821065e-03
4.737743923515e-03
1.242267063270e-03
4.872712079514e-03
4.648563616368e-03
4.934717953700e-03
4.841015803805e-03
1.998284811115e-03
2.023831337705e-03
1.929656289699e-03
2.012827717834e-03
3.685637869250e-03
2.160195855781e-03
3.453630867072e-03
3.353268669804e-03
3.189580292168e-03
2.780580474833e-03
2.697012491619e-03
1.850761695031e-03
3.058179809856e-03
3.092459470665e-03
3.782098167745e-03
3.330348654579e-03
5.071602464650e-03
5.237586080772e-03
4.054791370477e-03
3.911736450825e-03
1.227723328770e-03
1.121568548935e-03
3.305144710569e-03
4.722576138818e-03
5.125546474561e-03
5.249094215458e-03
5.084093944170e-03
4.665047890294e-03
1.576387794071e-03
3.131769936580e-03
4.332121020711e-04
3.548502236301e-03
8.886689387002e-04
4.364114879908e-03
4.929747689709e-03
5.074378233997e-03
4.790835636384e-03
3.303647652991e-03
3.622953727387e-03
3.407028331038e-03
3.087385769992e-03
2.928470296599e-03
3.025957624230e-03
2.770242371404e-03
2.146257545189e-03
2.105072283453e-03
5.074226657025e-03
4.945890381019e-03
5.132442016699e-03
5.036778597884e-03
4.913108523956e-03
4.718978319234e-03
1.854189815065e-03
2.451969709865e-03
5.326205974980e-03
3.245806195750e-03
5.032929921038e-03
4.895632072523e-03
8.703516401927e-05
5.025155932236e-04
5.299729360747e-03
1.862195518962e-03
1.925793576571e-03
1.786850721610e-03
5.508894573325e-03
3.317615670200e-03
5.206554443835e-03
2.947814730022e-03
5.436495255461e-03
3.710224019945e-03
2.542778381884e-03
4.340023150483e-03
5.139724345049e-03
5.473155703650e-03
3.856151046115e-03
3.706636097451e-03
3.986363479487e-03
8.597848081306e-04
4.948557720352e-04
5.105588847389e-03
2.215579397184e-03
2.383580716268e-03
1.610091948116e-03
1.853488942060e-03
3.371371645262e-03
3.226095624709e-03
4.460118615317e-03
4.646317835839e-03
4.077799721507e-03
3.673670130341e-03
3.349970931866e-03
3.156166832522e-03
5.356340387661e-03
5.560199060828e-03
2.148566688317e-03
1.947252295954e-03
2.277219304698e-03
5.452662980312e-03
5.357012637058e-03
5.217066698957e-03
7.819578528788e-04
1.028971749725e-03
1.479365826605e-03
1.088843442230e-03
5.358763484459e-03
5.206986646545e-03
5.554350471510e-03
1.646365469631e-03
4.227084436487e-03
4.981659535795e-03
4.824566320775e-03
5.205837116450e-03
4.665431215243e-03
4.979351549170e-03
5.045785100976e-03
6.553725280365e-06
5.354913579490e-03
3.735880701652e-03
0.0
3.596581939605e-03
3.776236102998e-03
3.431628553560e-03
1.322961065373e-03
3.627378963851e-03
3.821605526455e-03
5.613183195734e-04
5.602994573649e-03
5.605292770001e-04
6.792338181858e-04
5.201033617940e-03
5.054577875215e-03
5.350694268135e-03
5.195925285154e-03
4.911596497334e-03
5.072562886383e-03
3.571136890228e-03
5.391533904623e-03
5.225263310295e-03
5.570873285067e-03
2.672019548462e-03
2.112700823481e-03
2.016942320669e-03
1.807045388934e-03
5.367508392991e-03
5.211741918196e-03
4.791087967570e-03
4.504528282397e-03
3.617380192862e-03
3.592243224651e-03
3.871542763848e-03
3.825760515629e-03
4.113486033420e-03
4.067343757730e-03
4.345783660312e-03
5.267440361509e-03
1.658829135304e-03
2.980180790998e-03
5.045745089381e-03
4.837810433997e-03
2.604840179930e-03
2.359528337880e-03
5.236949940379e-03
2.139698474170e-03
5.776025953178e-03
4.548865527300e-06
9.778909536357e-05
2.339238525722e-03
2.860933532174e-03
2.233233218599e-03
2.157897013088e-03
4.004695448910e-03
9.235095768594e-04
1.682665914814e-03
4.384602592843e-03
1.382892764948e-03
4.658101181556e-03
2.105930324669e-03
3.025966663440e-03
1.860371278765e-03
2.156903041045e-03
3.791766830717e-03
3.575521711054e-03
3.414449332742e-03
2.082739350568e-03
2.302944948856e-03
2.030320299130e-03
3.548903922870e-03
4.919586046203e-03
5.037796762254e-03
5.310613898604e-03
5.154282845662e-03
4.869442501819e-03
4.979196796726e-03
5.263482143390e-03
5.097588445123e-03
5.433286767238e-03
5.203085790594e-03
4.911819673152e-03
5.013424306316e-03
5.289013913456e-03
4.727439554445e-03
5.236156713520e-03
2.555895745055e-03
9.111497954269e-05
4.210174297476e-04
3.201712461661e-03
5.730004135783e-03
5.767445976811e-03
1.691075707631e-03
5.643473628579e-03
3.519780408461e-03
1.047073323882e-03
5.592957634279e-03
4.751520745493e-03
4.579435651060e-03
4.463201836768e-03
5.793236110746e-03
4.123046406902e-03
5.509305537426e-03
3.389446893060e-03
3.279327038173e-03
2.961278145953e-03
4.801619878836e-03
5.436694213567e-03
5.157649565966e-03
5.160321964187e-03
4.861485784401e-03
5.448713258893e-03
5.717599457512e-03
5.706213826985e-03
1.828494135708e-03
1.709398695910e-03
1.898258451700e-03
1.622333472901e-03
1.412743391040e-03
1.316736111381e-03
1.628168335130e-03
1.039665837842e-03
4.929832743955e-03
5.492129088288e-03
3.625564248661e-03
3.432597322909e-03
3.134856267973e-03
2.952066020253e-03
3.078747520708e-03
3.351373813983e-03
2.815770384213e-03
4.041389319165e-03
5.510043080626e-03
3.303884447530e-03
2.928688293770e-03
3.336341398281e-03
3.593836274312e-03
3.598511107039e-03
3.869249033601e-03
3.623805167776e-03
3.516608453604e-03
3.658527646077e-03
3.515347475486e-03
3.794985028764e-03
3.639781273069e-03
3.373627075467e-03
3.921733030934e-03
3.752559113767e-03
3.333440693931e-03
1.541531548535e-04
5.940250931269e-04
7.027142990941e-04
1.021409890230e-03
8.359819815989e-04
1.303920167999e-03
1.039423496534e-03
3.284076278483e-04
3.019271284436e-04
6.566057884129e-04
3.288717913000e-04
5.940028616348e-04
1.062033452019e-03
1.367334253023e-03
5.652286702243e-03
2.938936405259e-03
2.805289880450e-03
2.499233211098e-03
2.662705054473e-03
3.052456379495e-03
2.341669267002e-03
2.236323217213e-03
3.229285700949e-04
4.419598349488e-04
4.410447408450e-04
7.207625795544e-04
7.074768685298e-04
4.420400412776e-04
4.449633113940e-04
3.145644272533e-04
4.504548672274e-04
7.268015370500e-04
3.062409538729e-04
4.745527215494e-03
4.902505264739e-03
5.544916367284e-03
3.368924595429e-03
2.544811655954e-04
5.780998861492e-03
5.813842834379e-03
5.817013326087e-03
5.233971751005e-03
5.365637462079e-03
5.788240472876e-03
2.014050555547e-03
5.434538857935e-03
5.267458791713e-03
1.311421764019e-03
2.008026884127e-03
4.362324178154e-03
3.910057017267e-03
4.933262515921e-03
4.079022426720e-03
4.641099795521e-03
5.158355521769e-03
1.213464950072e-03
4.185417172818e-03
4.076798602367e-03
4.811798339392e-03
2.086149546152e-03
3.238993663622e-03
1.348867022610e-03
5.359250132040e-03
3.285416912686e-03
3.046769336548e-03
2.677719312106e-03
2.168475210699e-03
1.957305737071e-03
2.768223087164e-03
3.036664388310e-03
4.286179880856e-03
4.975421168353e-03
3.166773246265e-04
4.414552831620e-03
3.582806630633e-03
4.292263749295e-03
4.187531334710e-03
1.624964030413e-03
4.913094015127e-03
5.399859365631e-03
3.948537402346e-03
1.019982226970e-03
3.882948642930e-03
5.011342776406e-03
4.799927772923e-03
1.909455734444e-03
2.789026983488e-03
3.096861197051e-03
3.026441214717e-03
5.391810110936e-03
3.115333052867e-03
4.488935570888e-03
3.471918703045e-03
2.042934957486e-03
4.758450757247e-03
2.730164700611e-03
5.205251802628e-03
4.359423513210e-03
1.928746000249e-03
5.001431347950e-03
2.931441338209e-03
4.390043822392e-03
3.117148399214e-03
3.803735016467e-03
4.266483966727e-03
3.482072113493e-03
4.216350577802e-03
4.589726999369e-03
7.822158450211e-04
2.336975079915e-03
4.252864040516e-03
4.830810690923e-03
5.492998307562e-03
2.853919931406e-03
4.620197000946e-03
5.283300374483e-03
3.195345026289e-03
1.407849422888e-03
1.052568637253e-03
1.231938885888e-03
2.888387059379e-03
3.468984859371e-03
5.520066455693e-03
4.776767016044e-03
4.191097730844e-03
7.054263323160e-04
3.137270481220e-03
4.930209733183e-03
2.967745864271e-03
4.518076980286e-03
3.471719766141e-03
5.320909655121e-03
2.513659337608e-03
5.087932046227e-03
4.157539429139e-03
1.929448282595e-03
3.328255837959e-03
5.415880323612e-03
4.493880815661e-03
3.756679585458e-03
2.829619919497e-03
2.715238429679e-03
3.628276273171e-03
3.993174405771e-03
5.804322562982e-03
4.644362204700e-03
4.291233033703e-03
3.502523749532e-03
3.813462889229e-03
7.047390220056e-04
2.825859966298e-03
3.651715310585e-03
1.384942781952e-03
3.032571676708e-03
5.114951343620e-03
3.797843583975e-03
1.739058177563e-03
3.939088055833e-03
2.408697712716e-03
4.407302233334e-03
4.073717321279e-03
4.269608694399e-03
7.894202949830e-04
3.833002126981e-03
5.075427847675e-03
2.404246341971e-03
3.233663163957e-03
4.694223929722e-03
2.107126776239e-03
3.545482769992e-03
4.553232214608e-03
3.920507140127e-03
3.187539066147e-03
3.865534957540e-03
2.217505343363e-03
1.917452006600e-03
1.657786857477e-03
1.956380160446e-03
4.746672213180e-03
1.005389459169e-03
4.623386601130e-03
1.307883538802e-03
1.891532021104e-03
4.345633367675e-03
4.169109331877e-03
2.143128441899e-03
1.729669733719e-03
2.136474112095e-03
3.495395175694e-03
2.347008504077e-03
2.321698774103e-03
5.562109209316e-03
2.479278600157e-03
5.832033053261e-03
5.683459550606e-03
3.569571471478e-03
1.841669118824e-03
0.0
1.939425135395e-03
2.198379986357e-03
4.544915456455e-03
3.572687871249e-03
2.077081277084e-03
5.482725273702e-03
5.548817509372e-03
4.594253848124e-03
4.650854355195e-03
4.026711817750e-03
5.298348689818e-03
3.310673635212e-03
5.319704039765e-04
4.366888493405e-03
1.596020396402e-03
1.727925572495e-03
1.537504339033e-03
2.155926239816e-03
1.066640011348e-03
1.470469770676e-03
5.133441966827e-03
3.576035110635e-03
4.538549050418e-03
1.190734353883e-03
5.563426082931e-03
5.226029974003e-03
5.618784336637e-03
4.858869215134e-03
1.131768423013e-03
3.817527287724e-03
5.388671225133e-03
4.831755994392e-03
5.661150035348e-03
3.527768805689e-03
5.594510040717e-03
8.645247776374e-04
5.592056671628e-03
4.830647828208e-03
3.948871847594e-03
3.795468355754e-03
5.483498521481e-03
5.518494078473e-03
7.078378622743e-04
4.578727725803e-03
2.665021533502e-03
8.704557035286e-05
5.306855478618e-03
5.101857700586e-03
5.457161495010e-03
7.154962728763e-04
4.367291898862e-04
5.308036467256e-03
5.475077044311e-03
1.415797628064e-03
5.866481278788e-03
1.720779943565e-04
3.266292359391e-03
4.330017662913e-04
5.682371966829e-03
5.607182569852e-03
2.919687531898e-03
3.339776257796e-03
1.951427265437e-03
5.094079203513e-03
8.720869757284e-04
5.646101319162e-03
5.274827266557e-03
5.610655463052e-03
5.543108792546e-03
1.443335536962e-05
5.340000167234e-03
4.934198621273e-03
3.315096198721e-03
5.545224744199e-03
2.394333441960e-03
1.003430899199e-03
5.853061777029e-03
3.539454610573e-04
3.294611847679e-03
5.738597030996e-03
9.205396441291e-04
3.785517905279e-03
5.505285211453e-03
3.560630679607e-03
5.121626185148e-03
1.319457347623e-03
0.0
4.321439572445e-03
5.262500811899e-03
5.642111831980e-03
4.116674015646e-03
7.838175614556e-04
5.331973850864e-03
3.136604846599e-03
5.194131730829e-03
4.931303994474e-03
2.813351495807e-05
3.813324024854e-03
4.130724803800e-04
5.442551602023e-03
3.274124271133e-03
3.303163570628e-04
2.018796594711e-04
5.309758285194e-04
4.716896824692e-04
9.205772766816e-04
8.036923176890e-04
1.189722026919e-03
1.058092070359e-03
1.410613407395e-03
1.408302020406e-03
1.679286936992e-03
1.670388510905e-03
1.968639986938e-03
2.024811344556e-03
2.272195221506e-03
2.288799502470e-03
2.577527492663e-03
2.642045162662e-03
2.890176481776e-03
2.907269203429e-03

SCALARS node_materi_plasti_phimob float
LOOKUP_TABLE default
1.933838060131e+01
1.727692451219e+01
2.053478579703e+01
2.048856635079e+01
-2.912577978281e+01
-4.800029323030e+00
2.876963135564e+00
7.750254421471e+00
1.077256369820e+01
1.275805916766e+01
1.421764714184e+01
1.534966008801e+01
1.624973937714e+01
1.700433174634e+01
1.765711847025e+01
1.816166073026e+01
1.855649285234e+01
1.895944623082e+01
1.931745180363e+01
1.962570617585e+01
1.990901828522e+01
2.017198019913e+01
2.039562322368e+01
2.049765844935e+01
2.049535415436e+01
2.049741938256e+01
2.050013434676e+01
2.049452016259e+01
2.049913416772e+01
2.049644234823e+01
2.050347530342e+01
2.050893221985e+01
2.051422378562e+01
2.051083905869e+01
2.052026804246e+01
2.052199621241e+01
2.053212789146e+01
2.053071795451e+01
2.053876491091e+01
2.054511829766e+01
2.055264592506e+01
2.056992478549e+01
2.058434187016e+01
2.059705230412e+01
2.060316818302e+01
2.062785970135e+01
2.064634612372e+01
2.066581099219e+01
2.067490429735e+01
2.070339864663e+01
2.070478339194e+01
2.072726151742e+01
2.072650145659e+01
2.073787762748e+01
2.074289463430e+01
2.073621647785e+01
2.073385390670e+01
2.072149796391e+01
2.071693649736e+01
2.069084066894e+01
2.068368754920e+01
2.065140133744e+01
2.064429446566e+01
2.063075395348e+01
2.060750540591e+01
2.059463040639e+01
2.056791861652e+01
2.057014563417e+01
2.056283849283e+01
2.056062990953e+01
2.055861782419e+01
2.055614565480e+01
1.784043618061e+01
1.834095077801e+01
1.875091923343e+01
1.910104017653e+01
1.941745826046e+01
1.968776602953e+01
1.993878002544e+01
2.016215369934e+01
2.036667270075e+01
9.919944612629e+00
1.745121700271e+01
1.720175867380e+01
-9.083847901085e+00
-2.895298915533e+00
3.395052547594e+00
7.549701262518e+00
1.067227536937e+01
1.282241661079e+01
1.436949832974e+01
1.552858458189e+01
1.642959728655e+01
-3.351958458383e+01
-8.244359521502e+00
2.271994005002e+00
7.672616408689e+00
1.086661191848e+01
1.300434779608e+01
1.451216225776e+01
1.564943838118e+01
1.651923234329e+01
1.717063753033e+01
1.719921492940e+01
1.720429909081e+01
1.719139974186e+01
1.726241833674e+01
1.718864744230e+01
1.716734367653e+01
1.717081499508e+01
1.718529504173e+01
1.717830049891e+01
1.716247115406e+01
1.715793143696e+01
1.715144710612e+01
1.716267329958e+01
8.465224135025e+00
6.440824075867e+00
6.600641668124e+00
8.348916822274e+00
9.001760449373e+00
-1.339583514919e+01
1.965552377547e+00
3.970362649988e+01
3.887650968011e+01
3.919884837021e+01
4.024251870270e+01
4.168308718520e+01
4.196578811989e+01
8.999999999681e+01
8.999999999681e+01
4.146271850401e+01
4.141743940228e+01
4.139486158803e+01
8.999999999681e+01
2.413157644661e+01
-8.068976820290e+00
-4.844003858652e+00
4.067828731943e+01
4.088831973552e+01
4.181539148061e+01
4.276465773543e+01
4.292191246187e+01
-6.403477068080e+00
-5.562126556493e+01
-5.552049010751e+01
-5.548244679092e+01
-5.546895759072e+01
-5.547584571542e+01
-5.548994208410e+01
-5.550088454545e+01
-5.551713655821e+01
-5.558472028577e+01
-5.569233804809e+01
-5.577899995288e+01
-5.585086213048e+01
-5.590171661377e+01
-5.593932914073e+01
-5.596431974796e+01
-5.598049142643e+01
-5.599937796743e+01
-5.601200667247e+01
-5.580177657070e+01
-1.642359345380e+01
-3.324400893754e+01
-3.541811866948e+01
-3.573539281636e+01
-3.571115984405e+01
-3.569678488989e+01
-3.567791857172e+01
-3.565367921084e+01
-3.561905048467e+01
-3.556702732013e+01
-3.548225026016e+01
-3.537230540119e+01
-3.524769840245e+01
-3.510955522344e+01
-3.498384098143e+01
-3.483896316670e+01
-3.467955303296e+01
-3.452404819174e+01
-3.437902241762e+01
-3.426143673681e+01
-3.416999312544e+01
-3.412149927396e+01
-9.409687716997e+00
-9.413976399170e+00
-9.470542427327e+00
-9.795313221736e+00
-9.568150378375e+00
-8.809419869065e+00
-2.853945809547e+01
-7.876154046001e+00
-7.135570184022e+00
-8.398135658010e+00
-8.528472206511e+00
-8.437480743797e+00
-8.373010349367e+00
-8.300096981553e+00
-8.234883729247e+00
-8.192416078366e+00
-8.210628891108e+00
-8.272177986256e+00
-8.361755784440e+00
-8.462072287949e+00
-8.547937657897e+00
-8.618930271837e+00
-8.686459140768e+00
-8.746821589869e+00
-8.800962473906e+00
-8.842689088905e+00
-8.873822116410e+00
-8.901517737215e+00
-8.924999154989e+00
-8.942738599864e+00
-8.954483413307e+00
-8.997078058029e+00
-8.959286713523e+00
1.539674749351e+00
2.430689086866e+00
1.996731316772e+00
1.968501315791e+00
2.034624932045e+00
2.096503936021e+00
2.166327502560e+00
2.203238602594e+00
2.222203582827e+00
2.224491452252e+00
2.217676539110e+00
2.203537242336e+00
2.189906917707e+00
2.173879747020e+00
2.156662527904e+00
2.140119532222e+00
2.124583844973e+00
2.109998421131e+00
2.096339652270e+00
2.083778868443e+00
2.072832436406e+00
2.064176862213e+00
2.060040233354e+00
2.118405982197e+00
2.336279359424e+00
7.553262639905e+00
7.545147133405e+00
7.552045707941e+00
7.556820571190e+00
7.562142622069e+00
7.567809516641e+00
7.573345549057e+00
7.578511871199e+00
7.583333818885e+00
7.587695347416e+00
7.591175229092e+00
7.592634573734e+00
7.590889414597e+00
7.584888956147e+00
7.574374729920e+00
7.557345003197e+00
7.534384952937e+00
7.501175742339e+00
7.465332709413e+00
7.418431024650e+00
7.401340517024e+00
7.608933656699e+00
6.926055050893e+00
1.029621434909e+01
1.078182227169e+01
1.067324309605e+01
1.068553783490e+01
1.071261587701e+01
1.073190999566e+01
1.075119880505e+01
1.076520422090e+01
1.077754726455e+01
1.078796612098e+01
1.079598035370e+01
1.080093736682e+01
1.080409949043e+01
1.080628260810e+01
1.080760521474e+01
1.080786255761e+01
1.080708815451e+01
1.080596758636e+01
1.080510296434e+01
1.080617442521e+01
1.082503742181e+01
1.088243447402e+01
1.296683753249e+01
1.296107067289e+01
1.295892424161e+01
1.295734311554e+01
1.295587382249e+01
1.295424052547e+01
1.295176748864e+01
1.294745169457e+01
1.294195368408e+01
1.293631423540e+01
1.292962924570e+01
1.292044637197e+01
1.290790237509e+01
1.289599460881e+01
1.288526181630e+01
1.287694936048e+01
1.286226181549e+01
1.284994536496e+01
1.292932288292e+01
1.256717533736e+01
1.417348701589e+01
1.445286356893e+01
1.440314181881e+01
1.440403716224e+01
1.440723237908e+01
1.441482760970e+01
1.442829582664e+01
1.443859007498e+01
1.444668686699e+01
1.445251595463e+01
1.445963039279e+01
1.446766522663e+01
1.447205131605e+01
1.447544388238e+01
1.447879374542e+01
1.448198411959e+01
1.448556259923e+01
1.449691922708e+01
1.451942553577e+01
1.563905430781e+01
1.562926145860e+01
1.562481097989e+01
1.562281165949e+01
1.561694519640e+01
1.561356643109e+01
1.560950485352e+01
1.560333284641e+01
1.559275850607e+01
1.558922249320e+01
1.558386743213e+01
1.557462704598e+01
1.556777593687e+01
1.555531237163e+01
1.555549786039e+01
1.560406465565e+01
1.538476116784e+01
1.631402918237e+01
1.649328425385e+01
1.646060386278e+01
1.645797196841e+01
1.646610977486e+01
1.647424109219e+01
1.647660582793e+01
1.648298122557e+01
1.648758013340e+01
1.649472661761e+01
1.649890561711e+01
1.650311292150e+01
1.651132194786e+01
1.651093953811e+01
1.652494892920e+01
1.654819432363e+01
3.985424184204e+00
-5.078639655024e+00
1.752180918975e+00
6.134817372394e+00
9.598086941373e+00
1.203611892305e+01
1.379037439784e+01
1.508042196275e+01
1.607209624928e+01
1.686535268434e+01
5.313949883059e+00
2.083455849790e+01
-1.390229533746e+01
1.345140353325e+01
2.067586439381e+01
9.818169199356e+00
1.736941292851e+01
2.081930036325e+01
1.364152491930e+01
2.067600217559e+01
1.600169147375e+01
2.052277758435e+01
1.042499728621e+01
2.052497954797e+01
1.746721476132e+01
1.360594598183e+01
1.871530725808e+01
2.046608412837e+01
2.044038021269e+01
2.041552071083e+01
2.039800389427e+01
2.043182422165e+01
1.770740548665e+01
1.772210968377e+01
1.777034481240e+01
1.926311352315e+01
2.047185557021e+01
1.181787626557e+01
-1.256094214259e+01
1.976499934275e+01
1.773461604648e+01
5.556120778219e+00
2.042331695982e+01
2.075175911119e+01
2.059956887720e+01
2.086304158822e+01
2.079506551329e+01
-1.476342870505e+01
1.769236646376e+01
2.056342443422e+01
1.981804715415e+01
-1.294832800202e+01
1.583554107217e+01
2.044334784873e+01
1.217609457903e+01
7.493201977643e+00
1.497824250096e+01
1.679860364079e+01
1.334798665307e+01
1.857817310361e+01
2.049105365815e+01
1.090489627140e+01
2.025458496808e+01
1.772420724328e+01
1.795814525467e+01
1.817646555766e+01
1.842196405326e+01
1.862844013555e+01
1.881681443651e+01
1.862400929940e+01
1.899457758890e+01
1.882003207163e+01
1.899421889048e+01
1.916879523216e+01
1.901066187222e+01
1.933765016533e+01
1.919692667577e+01
1.884786909344e+01
1.905378961848e+01
1.867747060914e+01
1.890695155049e+01
1.925300847349e+01
1.912799568835e+01
1.875763371864e+01
1.901450643383e+01
1.860682394156e+01
1.895521209888e+01
1.848998742672e+01
1.896886689682e+01
1.938526698876e+01
1.946628204513e+01
1.904115531964e+01
1.959964113316e+01
1.917690967955e+01
1.979560253731e+01
2.009530564010e+01
2.032811652308e+01
2.006816599813e+01
2.062776408754e+01
2.043182447102e+01
2.099782153689e+01
2.090041946684e+01
2.143682514501e+01
2.139259343362e+01
2.175955586345e+01
2.193090767961e+01
2.212643148483e+01
2.189108382667e+01
2.211161002677e+01
2.186565933581e+01
2.193963722166e+01
2.223281426345e+01
2.188423787222e+01
2.166300093016e+01
2.146057290938e+01
2.164401040445e+01
2.107431873298e+01
2.101671842327e+01
2.053350700750e+01
2.047140260574e+01
1.986576869685e+01
2.005547145071e+01
1.936559356018e+01
1.900093469342e+01
1.852477533094e+01
1.897512872348e+01
1.818734144542e+01
1.868179857114e+01
1.757870094840e+01
1.747967005587e+01
1.674478920414e+01
1.687460223012e+01
2.051707288076e+01
1.599042203500e+01
1.581409775867e+01
1.621295418030e+01
1.703663992819e+01
1.515916080538e+01
1.549381150709e+01
1.425540771169e+01
2.014168050245e+01
1.944420043179e+01
1.471864051403e+01
1.327011780407e+01
1.259108109925e+01
1.128930986795e+01
1.882052341622e+01
1.917246935821e+01
1.900388970758e+01
1.934045487926e+01
1.919106157346e+01
1.217344945114e+01
1.947708909190e+01
1.948185838974e+01
1.832020839976e+01
1.849053409799e+01
2.171087360569e+01
1.582150143918e+01
1.515040760994e+01
1.614351720953e+01
1.933168672205e+01
1.908225136635e+01
1.961701831474e+01
1.940671319348e+01
1.984898142579e+01
1.967467372452e+01
1.930689102113e+01
1.959169045215e+01
1.931903843326e+01
2.004046883853e+01
2.022156624035e+01
1.960541977009e+01
1.937416747188e+01
1.965659873454e+01
1.943938333090e+01
1.912237424298e+01
1.920500024146e+01
1.885344687819e+01
2.168000283754e+01
2.157045288632e+01
2.153630630541e+01
2.145715588307e+01
2.141973457641e+01
2.136024649830e+01
2.131925038143e+01
2.132823772345e+01
1.950180717108e+01
2.244030236891e+01
2.214758473786e+01
2.286453549448e+01
2.242169287015e+01
2.343763763486e+01
2.275368484225e+01
2.412428545858e+01
2.441867875128e+01
2.525602425301e+01
2.497559516477e+01
2.596008772577e+01
2.493783834956e+01
1.979577007446e+01
2.134373910842e+01
2.126855906306e+01
2.121194772679e+01
1.026042613273e+01
1.951339419060e+01
2.034500645852e+01
2.052113120238e+01
2.123685110867e+01
9.822367507496e+00
2.297320627286e+01
2.139845626983e+01
1.949862680039e+01
1.936002980596e+01
2.058609003475e+01
1.094120282448e+01
1.983759824730e+01
2.617498604252e+01
1.929513741915e+01
1.959581742358e+01
1.898819129548e+01
2.115689706661e+01
2.107300573321e+01
2.407942602560e+01
2.344040864599e+01
2.386751954299e+01
2.167797190262e+01
2.168872988792e+01
1.971542230821e+01
1.858272082173e+01
1.671348849359e+01
1.807396829463e+01
1.533001987061e+01
1.283888327508e+01
1.239410233932e+01
1.978703879536e+01
2.718545885257e+01
1.844277324707e+01
2.044656888469e+01
2.122596737250e+01
1.964859548222e+01
1.952109550584e+01
1.921594473318e+01
1.939022545574e+01
1.967565658478e+01
1.955304818330e+01
1.925330435924e+01
1.942319432963e+01
1.910601206761e+01
1.928680556936e+01
1.958236777316e+01
1.945621849930e+01
1.914604753308e+01
1.932374518044e+01
1.899629408195e+01
1.917983791515e+01
1.948898693561e+01
8.159751018969e+00
2.120233448415e+01
2.113050397042e+01
1.559022514633e+01
1.643897904515e+01
1.693713000087e+01
1.717238381448e+01
1.935285867499e+01
1.964756284999e+01
2.087128231050e+01
1.931525573400e+01
1.977197148630e+01
1.939467819896e+01
1.906619181271e+01
1.861451826389e+01
1.777415527991e+01
1.785895367908e+01
1.688173720505e+01
1.706783598648e+01
1.682684803734e+01
2.043821123445e+01
1.973334268161e+01
1.184769547979e+01
9.071521036572e+00
1.968983666498e+01
2.128245325437e+01
1.971425852004e+01
2.005258268771e+01
1.997679736756e+01
2.025267468479e+01
2.018676533506e+01
2.040918328669e+01
2.049452115227e+01
2.103556408158e+01
2.060114145666e+01
1.901688205806e+01
2.125982841666e+01
1.684618088137e+01
6.327798113927e+00
9.267621106631e+00
9.430570840129e+00
1.188133621376e+01
2.063553350345e+01
2.035524756842e+01
2.015069322118e+01
1.617094596127e+01
1.652842456204e+01
2.108372071378e+01
1.883551534676e+01
1.891328482414e+01
1.874485740116e+01
5.271829012178e+00
9.645290329813e+00
1.982079692754e+01
2.005545322485e+01
1.813153794891e+01
2.717820412760e+01
2.776884835889e+01
1.950852552431e+01
1.978167473063e+01
1.757893224413e+01
1.777101277054e+01
2.076350647319e+01
9.697514609955e+00
1.990188466772e+01
2.110842961364e+01
2.116349877525e+01
1.670891906754e+01
1.761971752500e+01
1.941861608132e+01
1.879301796729e+01
1.252835121382e+01
1.062004699357e+01
2.077204604395e+01
1.992885637587e+01
2.069271490901e+01
2.060935292589e+01
2.073134131154e+01
5.282787470909e+00
2.053590043537e+01
1.950544514421e+01
2.032995419378e+01
2.014057976904e+01
1.908433925036e+01
1.737731336365e+01
1.580782915667e+01
1.548454807885e+01
1.842191887506e+01
1.844579050970e+01
1.823799276344e+01
1.796906489517e+01
1.772264665566e+01
1.731097021863e+01
1.685677787972e+01
2.150376611055e+01
2.151436509179e+01
1.739747917661e+01
1.875825405207e+01
1.988444757764e+01
1.984585164015e+01
1.998368797018e+01
1.879300701659e+01
1.861116163576e+01
6.763802032193e+00
4.758239699841e+00
1.856872287871e+01
2.034027592775e+01
1.990560025786e+01
2.001725062056e+01
1.988895349523e+01
2.088015646797e+01
2.289896010659e+01
2.155965327684e+01
2.725080404265e+01
2.031927215617e+01
1.082091114036e+00
1.955085097676e+01
1.978903585458e+01
1.995174197070e+01
2.098581871417e+01
1.771005597047e+01
2.065287111395e+01
2.085366333243e+01
1.741472831058e+01
1.711326689472e+01
1.745766221880e+01
1.678182515558e+01
1.783310851963e+01
1.606997815672e+01
2.049445507436e+01
2.066691140499e+01
2.033021515674e+01
2.016160980364e+01
2.098737698372e+01
2.108781431118e+01
1.264930839712e+01
1.599305783570e+01
2.005497913462e+01
1.769157475029e+01
2.045674428335e+01
2.026162464085e+01
2.564314538326e+01
2.515537091367e+01
2.002992732082e+01
1.354708795671e+01
1.389711948999e+01
1.345414655307e+01
2.028683382687e+01
1.771948515187e+01
2.004412620257e+01
1.755915678892e+01
2.013404643852e+01
2.091121080548e+01
1.883120656103e+01
2.091052324364e+01
1.990172623661e+01
2.016194934338e+01
1.851852523824e+01
1.831756678967e+01
1.869439668065e+01
2.522671032596e+01
2.551734984555e+01
1.987586723668e+01
1.443023496207e+01
1.503869662393e+01
1.034467111497e+01
1.287499709885e+01
1.796935091399e+01
1.782924932814e+01
1.971970526313e+01
1.981048570193e+01
1.967177068952e+01
2.093779187929e+01
2.095436741772e+01
2.123439954663e+01
2.008329833456e+01
2.022863615158e+01
1.928816818635e+01
2.026816385656e+01
1.715316424140e+01
2.015580113388e+01
2.018909896079e+01
2.011202470359e+01
-2.517093338141e+00
2.212182716505e+00
1.496800959092e+01
1.808745129572e+01
2.012055530465e+01
2.000511962004e+01
2.025125801280e+01
1.142376371251e+01
2.080440341392e+01
2.085182519626e+01
2.096477843747e+01
2.076644173960e+01
2.092750897002e+01
2.090269917160e+01
2.074828731414e+01
2.235660217337e+01
2.008244007337e+01
1.836017263005e+01
1.816362128466e+01
1.815343139862e+01
1.842306756663e+01
1.790538432771e+01
8.840472515330e+00
1.819550168958e+01
1.846625433809e+01
-1.079639569119e+01
2.027186998815e+01
-8.751851212636e+00
-3.457117295093e+00
2.039636331602e+01
2.023686247383e+01
2.040313211110e+01
2.027342542009e+01
2.007463781997e+01
2.012915004239e+01
1.809718625493e+01
2.035306468807e+01
2.019461322690e+01
2.042308717063e+01
1.639250934488e+01
1.552183312687e+01
1.442876215701e+01
1.251259520919e+01
2.037759721983e+01
2.022923382291e+01
1.962576206695e+01
1.931851855003e+01
1.819671560933e+01
1.817502291454e+01
1.857472778449e+01
1.852648800807e+01
1.888417465210e+01
1.882777392060e+01
1.915314907164e+01
2.069478792014e+01
1.104445551420e+01
1.710332350226e+01
2.098511937336e+01
2.108179145414e+01
1.639860083546e+01
1.547563774656e+01
2.061564356754e+01
1.971538622620e+01
2.039558160510e+01
1.381959900449e+01
2.220708878596e+01
1.917769581448e+01
1.716905842220e+01
1.576917176599e+01
1.503741875466e+01
2.092648216814e+01
-4.069729111172e-01
1.379105158244e+01
1.918451734119e+01
1.058090082282e+01
1.946951506828e+01
2.073974325256e+01
1.794312841709e+01
1.651629089727e+01
1.699321211479e+01
1.863704934473e+01
1.820269650984e+01
1.795960666037e+01
2.147753799070e+01
1.553546061187e+01
1.411233437634e+01
1.850128776793e+01
1.975743094359e+01
1.988147873211e+01
2.010871193045e+01
1.999949854127e+01
1.975355593202e+01
1.987927154177e+01
2.011312669829e+01
2.000505737404e+01
2.026023428581e+01
2.012521615072e+01
1.989054159526e+01
2.001693794188e+01
2.021905930165e+01
1.977338978432e+01
2.088877764825e+01
1.970109034706e+01
2.596248251952e+01
2.332928107713e+01
1.813308785668e+01
2.045696673232e+01
2.044067415865e+01
2.149890547619e+01
2.055349680692e+01
1.820242022397e+01
2.462261729541e+01
2.063364413054e+01
1.961886018745e+01
1.947299194340e+01
1.932406452103e+01
2.043536110184e+01
1.887262770710e+01
2.078459350877e+01
2.142344093621e+01
2.130438834825e+01
2.134840366097e+01
1.975491053944e+01
2.085284374664e+01
2.096785504165e+01
2.093517933765e+01
2.106885202837e+01
2.081813746110e+01
2.049576417426e+01
2.051690435654e+01
2.008281599486e+01
2.145413736728e+01
2.128558862705e+01
2.225957463222e+01
2.278151887839e+01
2.322229596375e+01
2.261471862376e+01
2.403393360787e+01
2.003534669140e+01
2.075774138826e+01
2.007002141633e+01
2.033559500919e+01
2.020995345950e+01
1.721490988521e+01
1.769539380666e+01
1.823097844289e+01
1.669888463601e+01
2.035355071139e+01
2.071818034807e+01
2.137827720318e+01
1.757412847098e+01
1.770324864016e+01
1.814813490467e+01
1.815812641020e+01
1.856405770127e+01
1.818490039099e+01
1.811866054479e+01
1.827198321943e+01
1.795940265911e+01
1.842552073496e+01
1.812912240572e+01
1.765313062028e+01
1.856893008890e+01
1.827424732566e+01
1.769794988853e+01
9.333476892403e+00
1.189576671828e+01
-2.063892546151e-01
1.126886586624e+01
1.918135613202e+01
1.682268343236e+01
2.198352995060e+01
2.097960698630e+01
-6.686038898008e+00
-7.599608435650e+00
-1.303003103331e+01
-1.172565506485e+01
2.798110357209e+00
7.773063086026e+00
2.043708900308e+01
1.664686449323e+01
1.629607082424e+01
1.541809205291e+01
1.593518749356e+01
1.695043982885e+01
1.484827038792e+01
1.444232073971e+01
-1.258866469850e+01
-1.056090524424e+01
-1.233692750216e+01
-3.126516528676e-02
-2.355341309486e-01
-1.044418056501e+01
-1.063093995246e+01
1.154609678124e+01
-1.115009034882e+01
-3.959132240857e-01
3.510362754951e+01
1.955905798917e+01
1.971037867289e+01
2.063638288216e+01
1.776647753370e+01
-1.334420959788e+01
2.038161563304e+01
2.041193795953e+01
2.041300152795e+01
2.003794224038e+01
2.016351928112e+01
2.038951201567e+01
1.376040827999e+01
2.020769038435e+01
2.001005570888e+01
2.287304478836e+01
1.441096591094e+01
1.918500375687e+01
1.904986765410e+01
1.986642358220e+01
1.895746457702e+01
1.971746115523e+01
2.089670070455e+01
7.696867515013e+00
1.895110941751e+01
1.882986094356e+01
1.961466658403e+01
1.387995670836e+01
1.742394077208e+01
8.456776460749e+00
2.053325156476e+01
1.802397684463e+01
1.965436839615e+01
1.645294008165e+01
1.483691674920e+01
1.459116897449e+01
1.939072825805e+01
1.807652681493e+01
1.990080782359e+01
1.976479136294e+01
-1.266905013523e+01
2.020102558831e+01
1.897150004958e+01
1.907075703113e+01
2.127081862075e+01
1.414272586792e+01
1.970435548821e+01
2.013243357566e+01
1.865702141188e+01
3.997547216308e+00
1.856766392830e+01
2.067235726864e+01
1.963059626190e+01
1.294074045574e+01
2.172272345001e+01
1.844168656687e+01
1.713239060783e+01
2.010933434925e+01
2.076212229003e+01
2.115547051168e+01
2.143254126434e+01
1.362262021679e+01
2.005192614838e+01
2.162437878004e+01
1.995588897241e+01
1.993520784258e+01
2.244275035873e+01
1.979172883457e+01
2.059131140722e+01
2.118931454720e+01
1.779882194266e+01
1.934772886374e+01
1.937716921238e+01
1.992051876723e+01
1.896737752270e+01
2.009615638142e+01
2.587387556942e+01
1.806021662353e+01
1.903226875783e+01
2.053509661992e+01
2.017852278241e+01
1.781549520821e+01
1.985510868726e+01
2.003293574517e+01
1.813767561967e+01
9.620584144199e+00
2.224060299127e+01
2.353951264176e+01
2.105574067308e+01
1.860063570370e+01
2.024957371806e+01
1.990420128443e+01
2.074877032355e+01
6.643860549343e+00
1.741383572432e+01
1.996410481091e+01
2.150090024801e+01
2.117939679772e+01
1.780260453537e+01
2.060504636185e+01
1.595789283176e+01
2.003884005763e+01
2.106146955039e+01
2.048092598183e+01
1.773379275196e+01
2.029278826101e+01
2.101248693703e+01
2.016582064516e+01
2.132951284466e+01
1.640965533555e+01
1.867419487882e+01
1.936769489041e+01
2.043451407305e+01
2.106247304916e+01
1.915895164613e+01
1.833420254519e+01
2.109479807192e+01
-3.931500053023e-01
1.676455475652e+01
1.844817160437e+01
2.320555071349e+01
2.097937655226e+01
2.092004793339e+01
1.857084231755e+01
2.263680305646e+01
1.869857186480e+01
1.550860379432e+01
1.932223444752e+01
1.882589831245e+01
1.966802730412e+01
-9.578877755984e-02
2.048664515490e+01
1.990407927421e+01
1.680163103407e+01
2.064165127438e+01
1.961811326838e+01
1.434514394726e+01
2.068422728739e+01
1.992459554218e+01
2.074659087285e+01
2.108783506742e+01
2.072058527314e+01
1.494769935892e+01
1.327887764431e+01
1.109029326711e+01
2.218930928458e+01
1.995928360743e+01
5.031627100805e+00
1.962840121686e+01
6.379057488614e+00
2.190041209574e+01
2.094131464483e+01
1.894739868377e+01
2.116348023387e+01
1.196803841756e+01
2.039290435984e+01
2.109917570597e+01
1.962698621024e+01
1.851578412209e+01
2.023074691329e+01
1.793932041430e+01
2.041254233799e+01
2.043084426074e+01
1.812912324978e+01
1.272468836463e+01
1.157012170570e+01
1.373104498588e+01
1.577392959152e+01
1.965943061215e+01
1.814385456497e+01
1.458298045977e+01
2.032728119912e+01
2.071815800804e+01
1.941731227451e+01
2.113773679940e+01
2.094126366286e+01
2.003971625872e+01
1.767998171077e+01
-1.278372133531e+01
1.913589622367e+01
1.055016498437e+01
1.173109932263e+01
1.066334431587e+01
1.411612135248e+01
5.309191097617e+00
8.594895541721e+00
2.098098208134e+01
1.811562143217e+01
2.082766334805e+01
6.379013123015e+00
2.024829766440e+01
2.082178921533e+01
2.055383935965e+01
2.083306247950e+01
1.211072726588e+01
1.848206268702e+01
2.048278832964e+01
1.963493749929e+01
2.051732022504e+01
1.804550433446e+01
2.025738616559e+01
2.481590680189e+01
2.025992886220e+01
1.991066601824e+01
1.866414365824e+01
1.847377682099e+01
2.028813377103e+01
2.030073415671e+01
1.770835833265e+01
1.939315039083e+01
1.598798245750e+01
2.145022223709e+01
2.054245178866e+01
2.012453298820e+01
2.030449848649e+01
-6.446822207956e-02
-1.424123976597e+01
2.070780133582e+01
2.038852725943e+01
2.135578201730e+01
2.045334096573e+01
2.101555836967e+01
1.760415307591e+01
-1.293178463577e+01
2.049528814796e+01
2.026961263325e+01
1.664341314189e+01
1.772258860882e+01
1.316658674897e+01
2.061677582215e+01
-1.734639306417e+00
2.029011933412e+01
2.083886600995e+01
2.030494138615e+01
2.081840170666e+01
1.904485111957e+01
2.076918342821e+01
2.100027677273e+01
1.768683306016e+01
2.028798059045e+01
1.506294721548e+01
4.569097999350e+00
2.043177173698e+01
1.650108763928e+01
1.766991413953e+01
2.047737898262e+01
3.970045873573e+00
1.845597681919e+01
2.037338821930e+01
1.793748090179e+01
1.990337315681e+01
1.111081722787e+01
1.172062886177e+01
1.912637170026e+01
2.086969293413e+01
2.030859657115e+01
1.887774810335e+01
2.167413978390e+01
2.027770923526e+01
1.715604210066e+01
2.045199403325e+01
2.107285239108e+01
1.495766726358e+01
1.835892893574e+01
-1.444213434586e+01
2.042740664335e+01
1.742045129681e+01
6.917287373128e+00
-1.346288946999e+01
-1.126561974610e+01
-1.726397805997e+01
-8.175829071166e-01
-1.306233491098e+00
5.012328127808e+00
5.390138856662e+00
9.013078157021e+00
9.616494291789e+00
1.167386215948e+01
1.202163882650e+01
1.354018840307e+01
1.388564370752e+01
1.490099954250e+01
1.510777808687e+01
1.593361581222e+01
1.615258608627e+01
1.675525520105e+01
1.690202102872e+01

SCALARS node_materi_stress_average_a_sig float
LOOKUP_TABLE default
-3.890529624518e+00
-1.221854048429e+02
-2.426027631378e+02
-2.376181978219e+02
-1.098531800142e+01
-2.325741567802e+01
-3.554367200716e+01
-4.911194633776e+01
-6.223260712385e+01
-7.518885980958e+01
-8.800027478322e+01
-1.007067097446e+02
-1.133405662246e+02
-1.259798013305e+02
-1.388346233091e+02
-1.513856958306e+02
-1.627209431945e+02
-1.750587155678e+02
-1.876707703386e+02
-1.998391098411e+02
-2.120258197561e+02
-2.242320902729e+02
-2.359632240286e+02
-2.383050404938e+02
-2.376245499997e+02
-2.378207315127e+02
-2.378287705264e+02
-2.375074602481e+02
-2.379899908717e+02
-2.382895265175e+02
-2.381335429805e+02
-2.387596474766e+02
-2.388742102034e+02
-2.387036455526e+02
-2.392875620207e+02
-2.398960184322e+02
-2.399091185049e+02
-2.401598527571e+02
-2.400751508477e+02
-2.404560909383e+02
-2.414892105383e+02
-2.422610556153e+02
-2.430866459223e+02
-2.436637221401e+02
-2.442767564214e+02
-2.449429051587e+02
-2.456143445147e+02
-2.464320213329e+02
-2.472931926310e+02
-2.479735972130e+02
-2.486421922732e+02
-2.489657639911e+02
-2.497997331993e+02
-2.499324104507e+02
-2.494808106956e+02
-2.495127628528e+02
-2.495522618557e+02
-2.494118073052e+02
-2.490464024098e+02
-2.487008190775e+02
-2.479448852725e+02
-2.472385175204e+02
-2.462948144143e+02
-2.458503852013e+02
-2.458778829719e+02
-2.456031009732e+02
-2.433210882059e+02
-2.442477485237e+02
-2.432154280212e+02
-2.431903685974e+02
-2.434433571110e+02
-2.432339961026e+02
-1.345937336697e+02
-1.467192996818e+02
-1.588007357566e+02
-1.706018030739e+02
-1.826331712189e+02
-1.947807605257e+02
-2.066609062925e+02
-2.184497766919e+02
-2.305778854455e+02
-4.330616254245e+01
-4.963229798803e+00
-1.241572281112e+02
-2.187155895946e+01
-3.121255328400e+01
-4.216094639518e+01
-5.266759508467e+01
-6.421704279728e+01
-7.614150926842e+01
-8.790662292146e+01
-9.977029444110e+01
-1.116715476492e+02
-1.258964517963e+01
-2.446562562012e+01
-3.658580332505e+01
-4.876618059532e+01
-6.097101468251e+01
-7.317807548239e+01
-8.538353686919e+01
-9.757354597390e+01
-1.097009620775e+02
-1.206681361551e+02
-1.214707113964e+02
-1.214981897877e+02
-1.214095006988e+02
-1.231463951240e+02
-1.217398652857e+02
-1.217570902576e+02
-1.219488214161e+02
-1.222814182417e+02
-1.223480147989e+02
-1.225049685491e+02
-1.226167258344e+02
-1.228964468936e+02
-1.233129959357e+02
-7.524828256967e+01
-8.364944800276e+01
-8.430859443499e+01
-7.583814585695e+01
-4.587608777239e+01
-1.699932566372e+01
-7.099222994671e+00
-4.347829007832e+00
-3.280252669733e+00
-3.173721008186e+00
-3.316039784861e+00
-3.584612114699e+00
-3.613445377477e+00
-3.324839782859e+00
-3.445243349751e+00
-3.564239324107e+00
-3.581929537024e+00
-3.419997018771e+00
-3.197533641561e+00
-1.041064119472e+01
-7.233558301181e+00
-5.616795951810e+00
-4.478053677971e+00
-4.159304305811e+00
-4.216303612161e+00
-4.237822714404e+00
-4.318351685779e+00
-4.423914501085e+00
-4.515271046241e+00
-4.615561375176e+00
-4.728398440061e+00
-4.844374436529e+00
-4.957288178326e+00
-5.070210895863e+00
-5.188191224728e+00
-5.310121774398e+00
-5.424318172802e+00
-5.530640421082e+00
-5.638020743803e+00
-5.740933708289e+00
-5.835680158586e+00
-5.919863021890e+00
-5.991729014899e+00
-6.049800698583e+00
-6.092855105028e+00
-6.122907750460e+00
-6.203932927141e+00
-6.077004893092e+00
-1.256347220833e+01
-1.251462078548e+01
-1.253911546526e+01
-1.251725431667e+01
-1.247796274051e+01
-1.242800802223e+01
-1.236835363935e+01
-1.229981160904e+01
-1.222343312116e+01
-1.214054724286e+01
-1.205268976531e+01
-1.196112884698e+01
-1.186439271981e+01
-1.175340884995e+01
-1.163531327039e+01
-1.152007856376e+01
-1.141012473201e+01
-1.130886526138e+01
-1.121887975553e+01
-1.115242929984e+01
-1.111967244816e+01
-1.114815261536e+01
-1.125300029791e+01
-1.155269049542e+01
-1.205085737109e+01
-1.274639804483e+01
-1.516539652867e+01
-1.481862724355e+01
-2.693580984982e+01
-2.801414464759e+01
-2.606069714351e+01
-2.513810383011e+01
-2.462117415313e+01
-2.426140862685e+01
-2.406437636313e+01
-2.394683993854e+01
-2.389464885823e+01
-2.388102698749e+01
-2.389742585103e+01
-2.393375637027e+01
-2.398284102886e+01
-2.403483012751e+01
-2.408156489351e+01
-2.412507301726e+01
-2.416848695743e+01
-2.421151563671e+01
-2.425300287025e+01
-2.429176607320e+01
-2.432690469791e+01
-2.435797891687e+01
-2.438523013196e+01
-2.440965659699e+01
-2.443336738502e+01
-2.443755409756e+01
-3.895235201980e+01
-4.009477409809e+01
-3.843878008705e+01
-3.773115727706e+01
-3.732703785221e+01
-3.699414027422e+01
-3.678883033667e+01
-3.663895292034e+01
-3.654537949689e+01
-3.648340651001e+01
-3.644822435691e+01
-3.642825422878e+01
-3.641765340124e+01
-3.641257763652e+01
-3.641227500199e+01
-3.641622224024e+01
-3.642338722061e+01
-3.643271125815e+01
-3.644335160981e+01
-3.645484354077e+01
-3.646712666489e+01
-3.648050678241e+01
-3.649484084565e+01
-3.650926751952e+01
-3.656924579495e+01
-4.875625497916e+01
-4.873410272501e+01
-4.872708062471e+01
-4.872416075742e+01
-4.872445071197e+01
-4.872777703056e+01
-4.873426106828e+01
-4.874468044964e+01
-4.875993031737e+01
-4.878116478170e+01
-4.880983630444e+01
-4.884770601206e+01
-4.889781687379e+01
-4.896304447797e+01
-4.904997788627e+01
-4.916288563296e+01
-4.932008138964e+01
-4.951733486431e+01
-4.980574701396e+01
-5.013349105578e+01
-5.068343209223e+01
-5.203654179733e+01
-5.056378719710e+01
-6.247912746087e+01
-6.410173123670e+01
-6.291003826032e+01
-6.243228352476e+01
-6.216088429517e+01
-6.189030811921e+01
-6.170456877030e+01
-6.154241944105e+01
-6.141889631825e+01
-6.131647410836e+01
-6.123585182509e+01
-6.117042988525e+01
-6.111772160114e+01
-6.107516500385e+01
-6.104080779079e+01
-6.101363613054e+01
-6.099249762553e+01
-6.097671064384e+01
-6.096652822179e+01
-6.096242100384e+01
-6.096526240894e+01
-6.096998200321e+01
-7.317608682090e+01
-7.317707834616e+01
-7.318811376486e+01
-7.320632828128e+01
-7.323226777137e+01
-7.326512122922e+01
-7.330471716522e+01
-7.335211660897e+01
-7.341105639414e+01
-7.348096960555e+01
-7.356564822953e+01
-7.366775698396e+01
-7.378871295422e+01
-7.394530715619e+01
-7.412432019476e+01
-7.436492501147e+01
-7.460325987037e+01
-7.501058763474e+01
-7.610388099485e+01
-7.441341793443e+01
-8.632000099548e+01
-8.808508702288e+01
-8.709583862450e+01
-8.671591992983e+01
-8.650986630258e+01
-8.628335148203e+01
-8.612961423226e+01
-8.599125693430e+01
-8.587033317668e+01
-8.577037949690e+01
-8.568877191468e+01
-8.561738381040e+01
-8.555893239302e+01
-8.550588773296e+01
-8.546412640262e+01
-8.542892319850e+01
-8.540684746266e+01
-8.539150353090e+01
-8.538752986404e+01
-9.758312306382e+01
-9.759415508479e+01
-9.761785646369e+01
-9.765865934939e+01
-9.771199830017e+01
-9.776994878756e+01
-9.784814421458e+01
-9.792068979942e+01
-9.800541224221e+01
-9.811983245310e+01
-9.825418787164e+01
-9.840563542644e+01
-9.857606237401e+01
-9.873851411656e+01
-9.907912892142e+01
-1.000751594278e+02
-9.829526696890e+01
-1.101939377974e+02
-1.119073391550e+02
-1.110370787196e+02
-1.108323678649e+02
-1.106607866379e+02
-1.105103465081e+02
-1.103357501574e+02
-1.102142981226e+02
-1.101875148362e+02
-1.100577865865e+02
-1.099782371232e+02
-1.099145497765e+02
-1.098611718533e+02
-1.097894993238e+02
-1.098234092341e+02
-1.098103345070e+02
-2.425509842220e+01
-2.780188698807e+01
-3.800016918088e+01
-4.899506920773e+01
-5.998496874818e+01
-7.166145912692e+01
-8.330264888422e+01
-9.514153374920e+01
-1.070072709664e+02
-1.189878464214e+02
-4.128422427497e+01
-2.441003723742e+02
-9.991539990022e+00
-5.976557851465e+01
-2.423902762516e+02
-6.018386678119e+01
-1.329269580494e+02
-2.431046073010e+02
-8.143434029065e+01
-2.415842487884e+02
-1.053036476720e+02
-2.410265146355e+02
-8.303228928410e+00
-2.389537500774e+02
-1.293120224489e+02
-8.224808718616e+01
-1.669746270870e+02
-2.366870338129e+02
-2.352327796960e+02
-2.330524976516e+02
-2.325022415812e+02
-2.344719717596e+02
-1.342742888245e+02
-1.334758222185e+02
-1.339436602382e+02
-1.767274069464e+02
-2.389052264563e+02
-7.330499487396e+01
-8.817344809461e+00
-2.055211833350e+02
-1.322214875649e+02
-4.225853321562e+01
-2.339254059283e+02
-2.433490116784e+02
-2.402571114841e+02
-2.430798228688e+02
-2.440448111375e+02
-2.020660940831e+01
-1.334300497395e+02
-2.393655307972e+02
-2.003833947044e+02
-9.233898245566e+00
-1.071299602457e+02
-2.346090955007e+02
-7.155737587869e+01
-5.015513401031e+01
-9.330936818223e+01
-1.171559267106e+02
-3.762592921429e+01
-1.537802563449e+02
-2.402453286076e+02
-8.377365322149e+00
-2.238353776517e+02
-1.349656887206e+02
-1.401714917621e+02
-1.457273043493e+02
-1.517719469488e+02
-1.578818478274e+02
-1.633533782512e+02
-1.573176584170e+02
-1.689244857383e+02
-1.628132997021e+02
-1.696547558066e+02
-1.744742876565e+02
-1.683429623808e+02
-1.800261815063e+02
-1.739028403804e+02
-1.622884206590e+02
-1.678419699558e+02
-1.562538326727e+02
-1.618185662326e+02
-1.734207725033e+02
-1.674009749155e+02
-1.557985843146e+02
-1.613832925111e+02
-1.498180700154e+02
-1.554170440211e+02
-1.438510426095e+02
-1.494824058298e+02
-1.610236842989e+02
-1.550804512525e+02
-1.435905936379e+02
-1.491823342533e+02
-1.377573192351e+02
-1.433181420487e+02
-1.547255714846e+02
-1.488371353161e+02
-1.374674299604e+02
-1.429831227908e+02
-1.316778930597e+02
-1.371896241349e+02
-1.259668812728e+02
-1.313970563909e+02
-1.425480924948e+02
-1.366617302851e+02
-1.256321358091e+02
-1.307295636381e+02
-1.417858232033e+02
-1.356585764835e+02
-1.467775558980e+02
-1.404585341952e+02
-1.294937111796e+02
-1.340587504090e+02
-1.451572812809e+02
-1.385340230202e+02
-1.275261468513e+02
-1.318105303097e+02
-1.430107169392e+02
-1.361314801777e+02
-1.249310697244e+02
-1.291204419761e+02
-1.405722809095e+02
-1.334171642881e+02
-1.219267882429e+02
-1.261453224299e+02
-1.378721537900e+02
-1.305139549981e+02
-1.424273586802e+02
-1.186470425643e+02
-1.230281799869e+02
-1.109741598958e+02
-1.154593550944e+02
-1.602230857995e+02
-1.032357143774e+02
-9.897711312831e+01
-1.078414914647e+02
-1.201750711102e+02
-9.543428105383e+01
-1.001830899011e+02
-8.760760316006e+01
-1.201730929510e+02
-1.790287101153e+02
-9.251123718374e+01
-7.978587885076e+01
-7.487715060845e+01
-6.693163722988e+01
-1.641830153607e+02
-1.759137863765e+02
-1.700490577207e+02
-1.821454469867e+02
-1.765204471450e+02
-7.199551354680e+01
-1.862922576474e+02
-1.877651436974e+02
-1.442411598896e+02
-1.321221001989e+02
-1.530428472954e+02
-1.050825422091e+02
-9.755639866642e+01
-1.101064303098e+02
-1.497130761899e+02
-1.543795836742e+02
-1.616188869346e+02
-1.663542629665e+02
-1.735675930897e+02
-1.783514207474e+02
-1.711252816134e+02
-1.831545847807e+02
-1.759337107044e+02
-1.855508320268e+02
-1.807154849479e+02
-1.879776209379e+02
-1.807789883250e+02
-1.928328787160e+02
-1.856603809629e+02
-1.735552930618e+02
-1.784676206005e+02
-1.663654494363e+02
-1.580943385074e+02
-1.644757145177e+02
-1.695763783359e+02
-1.760562873657e+02
-1.812090918951e+02
-1.877631268822e+02
-1.929501529695e+02
-1.862928659111e+02
-1.855471073525e+02
-1.198892289277e+02
-1.147867060363e+02
-1.093061368104e+02
-1.041859626782e+02
-9.904544296411e+01
-9.387909878371e+01
-8.921976513244e+01
-9.394333573811e+01
-8.495705591472e+01
-8.877180135943e+01
-8.059383254870e+01
-8.329902831225e+01
-1.666069596689e+02
-1.824887940458e+02
-1.942866599320e+02
-1.888310665897e+02
-6.195210316586e+01
-1.905870547147e+02
-1.927150063595e+02
-1.877783262078e+02
-1.981127114994e+02
-5.916766304757e+01
-8.410740440523e+01
-8.823047603394e+01
-1.884218806824e+02
-1.828105398119e+02
-1.998569607851e+02
-6.434076069337e+01
-1.951787048664e+02
-7.731814116482e+01
-1.834388883824e+02
-1.955390151114e+02
-1.638936624163e+02
-2.007726076262e+02
-1.951174447198e+02
-9.237826216404e+01
-8.600869231762e+01
-7.732206579806e+01
-7.937327577187e+01
-8.898838858204e+01
-8.157317151333e+01
-7.170525264944e+01
-7.348166515948e+01
-8.440283474433e+01
-7.619853612239e+01
-6.476606150069e+01
-6.755477883313e+01
-2.026190596018e+02
-7.349940429212e+01
-1.507065154209e+02
-2.047365813555e+02
-2.046928830535e+02
-1.947477563863e+02
-1.891577731779e+02
-1.771523701094e+02
-1.835736139700e+02
-1.955679147909e+02
-1.900046152731e+02
-1.779787593922e+02
-1.844315819059e+02
-1.723832543001e+02
-1.788633636903e+02
-1.909059522731e+02
-1.853757291921e+02
-1.733106651809e+02
-1.798396774585e+02
-1.677416731695e+02
-1.742683353804e+02
-1.863972347628e+02
-5.182422613277e+01
-1.913330553398e+02
-2.033190363107e+02
-1.030282061101e+02
-1.150802740903e+02
-1.225234729958e+02
-1.277418226343e+02
-1.807760252012e+02
-1.929309951372e+02
-7.837046047327e+01
-8.215581849902e+01
-2.003326950692e+02
-1.884977952288e+02
-1.763527512929e+02
-1.263575946819e+02
-1.206220982857e+02
-1.148936186648e+02
-1.088581983852e+02
-1.148253209028e+02
-1.030613808843e+02
-1.757620970885e+02
-1.974174066443e+02
-7.015853059596e+01
-5.722034773276e+01
-2.005648368462e+02
-1.795396876342e+02
-1.726069739840e+02
-1.782053904386e+02
-1.842800262026e+02
-1.899013132106e+02
-1.960309419033e+02
-2.016331225527e+02
-1.955213968119e+02
-2.071991270541e+02
-2.072751569569e+02
-1.685470205704e+02
-1.769976706004e+02
-8.778108163830e+01
-4.633694594266e+01
-5.481945924620e+01
-5.663340441701e+01
-6.960130851113e+01
-2.119369279984e+02
-2.077972756826e+02
-2.020651195369e+02
-1.031009567849e+02
-1.091191597843e+02
-2.127787141004e+02
-1.646056109357e+02
-1.659612213514e+02
-1.602813395750e+02
-4.265771023876e+01
-5.256505115918e+01
-2.020087465405e+02
-9.278127090444e+01
-8.665461572602e+01
-7.054801398029e+01
-6.855353827694e+01
-1.872124602914e+02
-1.992825066202e+02
-1.349598331403e+02
-1.400724161716e+02
-2.070109131523e+02
-5.857190782693e+01
-2.050449190596e+02
-1.845011090328e+02
-1.727256924421e+02
-1.203339476230e+02
-7.197475737178e+01
-6.922095090401e+01
-9.561936473261e+01
-7.118806113850e+01
-6.200178022272e+01
-2.191255367415e+02
-2.074941992618e+02
-2.011699074825e+02
-1.893472273791e+02
-2.130942787776e+02
-4.544002991380e+01
-2.169409809542e+02
-1.936152411090e+02
-2.133754058354e+02
-2.080960667295e+02
-9.763111798647e+01
-9.173602775683e+01
-8.049379153170e+01
-8.572916828811e+01
-1.512018447361e+02
-1.029728736671e+02
-1.446743881530e+02
-1.391458298517e+02
-1.331769280637e+02
-1.206929187957e+02
-1.151015925108e+02
-1.093656793109e+02
-1.592425112575e+02
-1.299336064118e+02
-1.614793119953e+02
-1.568957370213e+02
-2.028561306055e+02
-2.094226649784e+02
-1.612110327160e+02
-1.556256022561e+02
-4.881713138930e+01
-4.396542143354e+01
-1.470920943957e+02
-2.095277794701e+02
-2.065292227310e+02
-2.121038852584e+02
-2.058604722915e+02
-2.140208513225e+02
-1.141517758564e+02
-1.630424140538e+02
-6.930496175283e+01
-1.661715092670e+02
-3.557295243777e+01
-1.850195243955e+02
-2.057085560834e+02
-2.125274284397e+02
-2.191008875114e+02
-1.344455864086e+02
-1.716762475198e+02
-1.656985939072e+02
-1.277109042541e+02
-1.217819814542e+02
-1.272098877364e+02
-1.158140702433e+02
-9.925715811834e+01
-9.139749892314e+01
-2.204392122557e+02
-2.189459619550e+02
-2.195416441743e+02
-2.145077455607e+02
-2.247681478523e+02
-2.181490179896e+02
-7.451744607697e+01
-1.035928382779e+02
-2.139691308049e+02
-1.336356042615e+02
-2.214074478321e+02
-2.143818930595e+02
-6.717836094294e+01
-6.310873144760e+01
-2.115103168452e+02
-7.411915953770e+01
-7.918718121571e+01
-6.921958268340e+01
-2.298179278992e+02
-1.318852440454e+02
-2.177500415054e+02
-1.266966727049e+02
-2.173448919704e+02
-1.772746407775e+02
-1.204430112121e+02
-2.019252702376e+02
-2.050635873586e+02
-2.181903603553e+02
-1.538968808530e+02
-1.478069320049e+02
-1.592158688046e+02
-7.267321599116e+01
-6.473700147198e+01
-2.038808356120e+02
-9.004879117791e+01
-9.649779805685e+01
-6.219320590534e+01
-7.476406784643e+01
-1.422078797398e+02
-1.372872977233e+02
-1.907101999494e+02
-1.967259448103e+02
-1.786270224378e+02
-1.776243565380e+02
-1.658770204359e+02
-1.611596360961e+02
-2.145129660255e+02
-2.224099020303e+02
-1.067762609781e+02
-1.030525515080e+02
-1.029811514459e+02
-2.194190667925e+02
-2.243592981245e+02
-2.192362788781e+02
-3.054190591979e+01
-3.910919879761e+01
-6.149673398105e+01
-5.939022602676e+01
-2.173590228640e+02
-2.115182108754e+02
-2.246399164673e+02
-6.617942444252e+01
-1.951201716255e+02
-2.257095526284e+02
-2.205722110723e+02
-2.323550342122e+02
-2.132926714199e+02
-2.248971306338e+02
-2.248578611576e+02
-7.009932574072e+01
-2.140080234241e+02
-1.485036208145e+02
-7.089405585716e+01
-1.430031340618e+02
-1.498995808733e+02
-1.366979214066e+02
-5.354044556338e+01
-1.453030820919e+02
-1.527679072542e+02
-2.324545461938e+01
-2.256100658196e+02
-2.287822206004e+01
-2.783024697066e+01
-2.264241784739e+02
-2.191119725196e+02
-2.307230987493e+02
-2.233908899831e+02
-2.118698061482e+02
-2.168952946232e+02
-1.416929556661e+02
-2.301376952446e+02
-2.220475624457e+02
-2.352697263542e+02
-1.105835630316e+02
-9.098068424508e+01
-8.480226202099e+01
-7.256086832117e+01
-2.276340671229e+02
-2.198665257982e+02
-1.991833247914e+02
-1.869512529188e+02
-1.434928860402e+02
-1.428112894407e+02
-1.538232147296e+02
-1.523067058789e+02
-1.633508176901e+02
-1.616828394432e+02
-1.729408640614e+02
-2.310861801921e+02
-6.238398003500e+01
-1.223536052998e+02
-2.300291812935e+02
-2.225414456074e+02
-1.095908351263e+02
-9.832987817425e+01
-2.304115292615e+02
-1.087289184482e+02
-2.325502911999e+02
-5.982930115293e+01
-6.245816712411e+01
-1.143279485316e+02
-1.211924211685e+02
-9.679191458409e+01
-9.159432129527e+01
-1.896514340857e+02
-3.502442947093e+01
-6.502910874274e+01
-1.743760067237e+02
-5.369688368249e+01
-1.932753773242e+02
-1.146849213772e+02
-1.322744163735e+02
-7.584009554898e+01
-9.738480610568e+01
-1.567292041282e+02
-1.457276320702e+02
-1.397271412091e+02
-1.203162212400e+02
-9.750664908160e+01
-8.469592942680e+01
-1.502223155425e+02
-1.996376885673e+02
-2.051939023144e+02
-2.166485096272e+02
-2.107522289017e+02
-1.990236423703e+02
-2.046169982630e+02
-2.163057882570e+02
-2.105920608466e+02
-2.242584507252e+02
-2.161091090175e+02
-2.039520918225e+02
-2.092347916607e+02
-2.204557991672e+02
-1.973937435315e+02
-2.364977075678e+02
-1.259459417145e+02
-6.729388840854e+01
-5.742934542733e+01
-1.382628590923e+02
-2.358164234717e+02
-2.352523299615e+02
-9.866717243372e+01
-2.394471384114e+02
-1.451654344078e+02
-8.056103278904e+01
-2.409354517519e+02
-1.933934428716e+02
-1.870488441876e+02
-1.814699292411e+02
-2.352453786674e+02
-1.649774105452e+02
-2.436433644599e+02
-1.707971697194e+02
-1.653281039642e+02
-1.538402226097e+02
-1.982903622033e+02
-2.440142950067e+02
-2.339216924541e+02
-2.338523364092e+02
-2.228922553228e+02
-2.439916478878e+02
-2.380807499656e+02
-2.389703328986e+02
-9.218025733482e+01
-9.946910481285e+01
-1.101212584493e+02
-1.062932817864e+02
-9.594454956047e+01
-1.023589548769e+02
-1.126728134047e+02
-9.824368259557e+01
-2.085080071692e+02
-2.437648336389e+02
-1.687678296428e+02
-1.638858859099e+02
-1.521708997178e+02
-1.250238086633e+02
-1.324351250204e+02
-1.446011668330e+02
-1.175679922109e+02
-1.837738894084e+02
-2.432265722552e+02
-1.679079451714e+02
-1.276525276367e+02
-1.338636321082e+02
-1.446339988076e+02
-1.450740480385e+02
-1.564667480733e+02
-1.454935091697e+02
-1.471983291835e+02
-1.522520113760e+02
-1.452701471199e+02
-1.573626857904e+02
-1.501978750534e+02
-1.389501306454e+02
-1.623065864267e+02
-1.543882518408e+02
-1.333532027172e+02
-3.604892404999e+01
-4.045261867881e+01
-3.141415645449e+01
-4.721180758429e+01
-5.462016224653e+01
-6.101012753118e+01
-6.444048671768e+01
-5.291129606653e+01
-1.443277580573e+01
-2.669946768553e+01
-1.130966411346e+01
-2.350722742291e+01
-3.950554665158e+01
-5.293136031045e+01
-2.369482797135e+02
-1.195966474029e+02
-1.135928413690e+02
-1.015038964635e+02
-1.082070726330e+02
-1.245935220958e+02
-9.467485491580e+01
-9.019689989351e+01
-8.787862765438e+00
-1.909282658519e+01
-1.805051398363e+01
-3.012313022001e+01
-3.002128707024e+01
-1.936740747609e+01
-1.946694891908e+01
-8.734762980459e+00
-1.950922969360e+01
-3.091996597746e+01
-8.438963602355e+00
-1.888313303064e+02
-1.953656122378e+02
-2.415189827808e+02
-1.343665869130e+02
-9.706711702720e+00
-2.310632839717e+02
-2.333700266995e+02
-2.334796750136e+02
-2.178258686993e+02
-2.239257296336e+02
-2.312690172981e+02
-8.284762428644e+01
-2.222035194314e+02
-2.103869189255e+02
-7.536560773367e+01
-8.327312692937e+01
-1.815217138413e+02
-1.687133474981e+02
-2.074704646629e+02
-1.713292791792e+02
-1.977197977892e+02
-2.328166424369e+02
-4.942682394501e+01
-1.667544442199e+02
-1.621559877941e+02
-1.919069041919e+02
-8.480290295894e+01
-1.334225679640e+02
-5.391784103525e+01
-2.309853119706e+02
-1.386883281731e+02
-1.451012319306e+02
-1.126470558022e+02
-9.092275403209e+01
-7.960177852276e+01
-1.319071662035e+02
-1.350693697916e+02
-1.903616496741e+02
-1.984390514023e+02
-1.019881320424e+01
-1.975528112332e+02
-1.591068382840e+02
-1.715275695130e+02
-1.995568131702e+02
-6.318289791858e+01
-1.964481555214e+02
-2.177866956265e+02
-1.585544646285e+02
-4.074008717152e+01
-1.544157806721e+02
-2.240029698183e+02
-1.940274414317e+02
-7.718581917301e+01
-1.516601716021e+02
-1.379480911354e+02
-1.232224808046e+02
-2.154980160705e+02
-1.542864718616e+02
-2.100660960030e+02
-1.745917557304e+02
-8.254810280264e+01
-2.071901461841e+02
-1.478605655863e+02
-2.084270002068e+02
-1.903489149823e+02
-1.247778143296e+02
-2.010505424392e+02
-1.475236356698e+02
-2.061827003518e+02
-1.327173659304e+02
-1.669888297430e+02
-1.794310489180e+02
-1.606462812929e+02
-1.746535652060e+02
-2.023798075540e+02
-7.578082940147e+01
-1.089928915650e+02
-1.707902911350e+02
-2.130924970720e+02
-2.202668295486e+02
-1.264157065636e+02
-1.999850190217e+02
-2.126455569108e+02
-1.397842666512e+02
-5.677105305126e+01
-6.724818164959e+01
-1.038356986041e+02
-1.484077568790e+02
-1.518567005782e+02
-2.243120583766e+02
-2.048241921070e+02
-1.948478503745e+02
-3.792914984522e+01
-1.283752902586e+02
-2.097215419832e+02
-1.564486694129e+02
-2.112732997499e+02
-1.427603136322e+02
-2.313057745521e+02
-1.044890625549e+02
-2.147974476457e+02
-1.965880680595e+02
-1.036008328316e+02
-1.322965915571e+02
-2.283862440782e+02
-2.087750676606e+02
-1.721635290598e+02
-1.497723964735e+02
-1.112198728471e+02
-1.566707271001e+02
-1.729854640201e+02
-2.350850039162e+02
-2.151134840688e+02
-1.751097164072e+02
-1.494300808280e+02
-1.830536731032e+02
-3.028728848012e+01
-1.165018128953e+02
-1.543204188672e+02
-1.083534709980e+02
-1.543665993125e+02
-2.307614536088e+02
-1.592943519132e+02
-1.187918141843e+02
-1.643157233158e+02
-9.933607878576e+01
-1.807264429761e+02
-1.693712294164e+02
-1.846586856768e+02
-3.224024622862e+01
-1.776830762539e+02
-2.114765044606e+02
-1.068302492370e+02
-1.590377673636e+02
-1.926836448931e+02
-8.734783080755e+01
-1.707534310885e+02
-1.964090137984e+02
-1.832778342287e+02
-1.597733997411e+02
-1.827107123638e+02
-9.247582973972e+01
-7.848454670248e+01
-6.593098325733e+01
-1.232312773538e+02
-2.025122963443e+02
-4.100112401838e+01
-1.918933357970e+02
-4.888591162259e+01
-1.168092823972e+02
-2.013295114231e+02
-1.654745907922e+02
-1.208649478093e+02
-6.961158414430e+01
-1.139534295422e+02
-1.712959674569e+02
-1.178913565268e+02
-1.105911770580e+02
-2.221893951153e+02
-1.145339110510e+02
-2.333863888386e+02
-2.373413201135e+02
-1.414892566438e+02
-7.487116759691e+01
-7.610116206200e+01
-8.113006587794e+01
-9.509822216237e+01
-1.910727870845e+02
-1.420016957854e+02
-8.696360684959e+01
-2.277588459510e+02
-2.426003097750e+02
-1.829782781755e+02
-2.160454874924e+02
-1.892135464999e+02
-2.113626887556e+02
-1.316426907176e+02
-2.215932800548e+01
-1.807966149210e+02
-6.322811401118e+01
-6.733153277884e+01
-5.770406035740e+01
-8.670262745553e+01
-4.118624019161e+01
-5.521998462956e+01
-2.331797685294e+02
-1.429955743849e+02
-2.070789731721e+02
-4.533839058450e+01
-2.240184078250e+02
-2.323679212881e+02
-2.412194687924e+02
-2.192074425098e+02
-5.050274329764e+01
-1.539065185279e+02
-2.301847547736e+02
-1.925589474094e+02
-2.410667104527e+02
-1.419008585071e+02
-2.236627556690e+02
-7.027654271077e+01
-2.237466376583e+02
-2.028976303234e+02
-1.569263961707e+02
-1.537932586514e+02
-2.296569856049e+02
-2.265072387787e+02
-5.027391373367e+01
-1.824090576054e+02
-1.086032968206e+02
-6.362733939111e+01
-2.317432850637e+02
-2.141024671014e+02
-2.293048123430e+02
-2.962896472539e+01
-1.886832684365e+01
-2.345107510512e+02
-2.300725002477e+02
-7.067448982667e+01
-2.358730638719e+02
-5.086554673888e+01
-1.305719028083e+02
-1.866364094323e+01
-2.401078411012e+02
-2.246000449522e+02
-1.192409016648e+02
-1.349555094357e+02
-7.832356834135e+01
-2.230465578107e+02
-3.310502899535e+01
-2.255206912445e+02
-2.358287514434e+02
-2.273339666459e+02
-2.466217495567e+02
-7.053416470053e+01
-2.350126026134e+02
-2.251383042218e+02
-1.313948542128e+02
-2.263963138556e+02
-9.688695103252e+01
-4.099456702018e+01
-2.346378737186e+02
-7.092588019011e+00
-1.305569532592e+02
-2.397884456350e+02
-3.870215834284e+01
-1.504058807722e+02
-2.301051298492e+02
-1.458265856541e+02
-2.045333808952e+02
-5.282603913902e+01
-7.483755607127e+01
-1.718386204344e+02
-2.349587270173e+02
-2.273910236797e+02
-1.635265090575e+02
-5.905327696150e+01
-2.232652106823e+02
-1.288373228996e+02
-2.229975591082e+02
-2.255836771718e+02
-4.215456129283e+01
-1.565834590226e+02
-1.737518534808e+01
-2.331949684368e+02
-1.340275431873e+02
-9.501388601774e+00
-6.889707546006e+00
-2.253038071187e+01
-1.804917492207e+01
-3.438613115533e+01
-3.086360771520e+01
-4.596854312721e+01
-4.233282911233e+01
-5.753745813241e+01
-5.519920933221e+01
-6.944961278944e+01
-6.673928223788e+01
-8.116130217893e+01
-7.961494350966e+01
-9.308882662180e+01
-9.114736706832e+01
-1.049713697075e+02
-1.040198163968e+02
-1.169247955228e+02
-1.154298146241e+02

SCALARS node_materi_stress_size_dev_sd_sig float
LOOKUP_TABLE default
5.631127625699e+00
9.078957449174e+01
1.830738648895e+02
1.796194442478e+02
1.203699152144e+01
2.070682837816e+01
2.790349325516e+01
3.647320481913e+01
4.494128589627e+01
5.344690581830e+01
6.223040144851e+01
7.126011037211e+01
8.045037448530e+01
8.994585230690e+01
9.985951869564e+01
1.093069714889e+02
1.179439583515e+02
1.277153326314e+02
1.377295785386e+02
1.474880156238e+02
1.574253980208e+02
1.675487961948e+02
1.772346341508e+02
1.801371208744e+02
1.797323802980e+02
1.798702197607e+02
1.799176924083e+02
1.796501015729e+02
1.799823183726e+02
1.800916754449e+02
1.801175670908e+02
1.805376558278e+02
1.806794568528e+02
1.805227111366e+02
1.809840851485e+02
1.813250153544e+02
1.814859601434e+02
1.815824220260e+02
1.816571827538e+02
1.819587587990e+02
1.826275034934e+02
1.833193372289e+02
1.839988940095e+02
1.844989266833e+02
1.849529200488e+02
1.855466843692e+02
1.861101313434e+02
1.867799987167e+02
1.874226420263e+02
1.880496585827e+02
1.885175996246e+02
1.888660612827e+02
1.894359294891e+02
1.895910734391e+02
1.893080539072e+02
1.892927335663e+02
1.893067512572e+02
1.891407667698e+02
1.888635780048e+02
1.884796003356e+02
1.879195317641e+02
1.872536905271e+02
1.865658023359e+02
1.861855545197e+02
1.860179220968e+02
1.856573024144e+02
1.839831848282e+02
1.845268741971e+02
1.838549587717e+02
1.838119576832e+02
1.839220977086e+02
1.837725156143e+02
9.988324172692e+01
1.091842834924e+02
1.183251158680e+02
1.273441897535e+02
1.366100968025e+02
1.458608728776e+02
1.551570297451e+02
1.644089512360e+02
1.739126513139e+02
3.183137135767e+01
3.020573679744e+00
9.088495415599e+01
1.878167823196e+01
2.075071336180e+01
2.736854099424e+01
3.558771581155e+01
4.465301365275e+01
5.384115126911e+01
6.298663373370e+01
7.209295081418e+01
8.118785716995e+01
8.823801126913e+00
1.809805864919e+01
2.722792204471e+01
3.626493874426e+01
4.524224543701e+01
5.423677387805e+01
6.323736692606e+01
7.225311980371e+01
8.122246550611e+01
8.946384852823e+01
8.996763674976e+01
9.001517415671e+01
8.987833109595e+01
9.104812086370e+01
8.997535035831e+01
8.981111458707e+01
8.990676476013e+01
9.014356462869e+01
9.010819437475e+01
9.003416766330e+01
9.003860808120e+01
9.008287138473e+01
9.031313699913e+01
3.528045907827e+01
3.374131012872e+01
3.340485327611e+01
3.405851339450e+01
3.270710395386e+01
1.826799662271e+01
5.245626913869e+00
5.038424851257e+00
5.824729119137e+00
6.250418833143e+00
6.214721582693e+00
6.338057739312e+00
5.975805480933e+00
5.436771877974e+00
5.534401262537e+00
5.706634784170e+00
5.737680638347e+00
5.470032906564e+00
4.991455277116e+00
1.239436317849e+01
4.851665253006e+00
5.528371876018e+00
5.916286796726e+00
6.350852908010e+00
6.433322918096e+00
6.326261419375e+00
6.210190948716e+00
6.142825921409e+00
6.079306854651e+00
6.005074276159e+00
5.899601964592e+00
5.783070091815e+00
5.662205039163e+00
5.538094751537e+00
5.408807448801e+00
5.272314629572e+00
5.125283925560e+00
4.973398534448e+00
4.829954241198e+00
4.698731837699e+00
4.581512055866e+00
4.479358815309e+00
4.392957871310e+00
4.322755233935e+00
4.268968111863e+00
4.231837129786e+00
4.219659651450e+00
4.040152512968e+00
8.768139909515e+00
8.670891308221e+00
8.743866905892e+00
8.782082653597e+00
8.826135624252e+00
8.884863621294e+00
8.957223137084e+00
9.042039718073e+00
9.138343405405e+00
9.245324154775e+00
9.362449643812e+00
9.489765091949e+00
9.626992602196e+00
9.768766329762e+00
9.914771225545e+00
1.006277762683e+01
1.020617076295e+01
1.033977478869e+01
1.045404460401e+01
1.053853654697e+01
1.056321661818e+01
1.053756613735e+01
1.039880049176e+01
1.022455539819e+01
9.893741361796e+00
9.569838451193e+00
1.014968904990e+01
9.545259583488e+00
1.686431852020e+01
1.806050221338e+01
1.757594369714e+01
1.783732916410e+01
1.821929263570e+01
1.849410973556e+01
1.870026685576e+01
1.881413359363e+01
1.886933862205e+01
1.887509002311e+01
1.884760573164e+01
1.879810980696e+01
1.873732313053e+01
1.866851717055e+01
1.859205570808e+01
1.851519521513e+01
1.844333137412e+01
1.837664194786e+01
1.831501948471e+01
1.825876654931e+01
1.820854365899e+01
1.816538311928e+01
1.813073340155e+01
1.810544319261e+01
1.807633995945e+01
1.807434942501e+01
2.505115217070e+01
2.688356769433e+01
2.656126102718e+01
2.673463339638e+01
2.698275883730e+01
2.716805045772e+01
2.732248928211e+01
2.742233233552e+01
2.748538875949e+01
2.751820755956e+01
2.753116147574e+01
2.752869393720e+01
2.751257487889e+01
2.748629374074e+01
2.745639770747e+01
2.742620489334e+01
2.739672028655e+01
2.736821329993e+01
2.734089072903e+01
2.731515840398e+01
2.729188281786e+01
2.727180667656e+01
2.725310734346e+01
2.723503820574e+01
2.722419391754e+01
3.623277631260e+01
3.621531293150e+01
3.622392952923e+01
3.623571170925e+01
3.624909818017e+01
3.626304489439e+01
3.627625882210e+01
3.628805390065e+01
3.629843864054e+01
3.630698676232e+01
3.631244509163e+01
3.631171693186e+01
3.630185005047e+01
3.628007180548e+01
3.624533041096e+01
3.619135776887e+01
3.611929745861e+01
3.601704441721e+01
3.590423149350e+01
3.575724423172e+01
3.567660005593e+01
3.607987751131e+01
3.416575662145e+01
4.331665512781e+01
4.522213482978e+01
4.482381210137e+01
4.484493902625e+01
4.492519933788e+01
4.497947991816e+01
4.503745915661e+01
4.507869896978e+01
4.511634269615e+01
4.514887742419e+01
4.517415990880e+01
4.518942556154e+01
4.519901127201e+01
4.520564661504e+01
4.520961186635e+01
4.521007520852e+01
4.520711688609e+01
4.520314014684e+01
4.520009236283e+01
4.520102053916e+01
4.521198011078e+01
4.523269156275e+01
5.422113472865e+01
5.419661127985e+01
5.418415534656e+01
5.417933141454e+01
5.417608970275e+01
5.417308407184e+01
5.416734350014e+01
5.415453584133e+01
5.413814028209e+01
5.412283774220e+01
5.410504123466e+01
5.407876508379e+01
5.404023744412e+01
5.400972627234e+01
5.398759521255e+01
5.398519351030e+01
5.395345139843e+01
5.395342340084e+01
5.442251533686e+01
5.252634536119e+01
6.166437249972e+01
6.355455600055e+01
6.311130262073e+01
6.304046922576e+01
6.301361825882e+01
6.300733315633e+01
6.304607121094e+01
6.307115658063e+01
6.308853345429e+01
6.309816542176e+01
6.311862847330e+01
6.314625047588e+01
6.315702737380e+01
6.316399211233e+01
6.317308453099e+01
6.318254000436e+01
6.319488390366e+01
6.322062160739e+01
6.323415955533e+01
7.228714825691e+01
7.222848162844e+01
7.220534424406e+01
7.220399839808e+01
7.218182033707e+01
7.217656009305e+01
7.217229210723e+01
7.215388973468e+01
7.211136254650e+01
7.212028541011e+01
7.212278418366e+01
7.210577248445e+01
7.210942311944e+01
7.207506585588e+01
7.216314222362e+01
7.270439482281e+01
7.085040179789e+01
7.994572790623e+01
8.176801484824e+01
8.128358354347e+01
8.120163890762e+01
8.120664341266e+01
8.121762173020e+01
8.118094755243e+01
8.118805132220e+01
8.120980127669e+01
8.122129115166e+01
8.122573050520e+01
8.123527410748e+01
8.127674968410e+01
8.125020782255e+01
8.133826699440e+01
8.142926482232e+01
2.535907451720e+01
1.974541024417e+01
2.475534461710e+01
3.233450538811e+01
4.104730305794e+01
5.007596874289e+01
5.923209049100e+01
6.833090047676e+01
7.741012016057e+01
8.656334478739e+01
3.075519021605e+01
1.861069996876e+02
8.946941738522e+00
4.350578155305e+01
1.840607253226e+02
4.181864824922e+01
9.527983703601e+01
1.853331343282e+02
5.824225230119e+01
1.835074533567e+02
7.649235157847e+01
1.820284799832e+02
9.651759457010e+00
1.808808377404e+02
9.478181006276e+01
5.822316950727e+01
1.214666591026e+02
1.787413183294e+02
1.775539561646e+02
1.760074145628e+02
1.754361372465e+02
1.770157314422e+02
9.863280069352e+01
9.845734990508e+01
9.906754988453e+01
1.320046204292e+02
1.800533651051e+02
4.495680245014e+01
1.025264727277e+01
1.521600101095e+02
9.810513509042e+01
3.215759990300e+01
1.765856860718e+02
1.851350817588e+02
1.821829522200e+02
1.855538892386e+02
1.858521651454e+02
1.742545794105e+01
9.818351171612e+01
1.813748765002e+02
1.503533593099e+02
9.846472080986e+00
7.593194809424e+01
1.772820349637e+02
5.075166521587e+01
3.454616584413e+01
6.735589967101e+01
8.549303270106e+01
3.719168207158e+01
1.144219818250e+02
1.810852526218e+02
9.833013002890e+00
1.686148388934e+02
9.899187023187e+01
1.030273315178e+02
1.072266753260e+02
1.120221257417e+02
1.166557182525e+02
1.209844045865e+02
1.163715850385e+02
1.253844169256e+02
1.207879727289e+02
1.257055119403e+02
1.298678183895e+02
1.253070851600e+02
1.344217498024e+02
1.299359095124e+02
1.208604406453e+02
1.255675942901e+02
1.164756775703e+02
1.212926119456e+02
1.303693133279e+02
1.262032547795e+02
1.171110754167e+02
1.221434745553e+02
1.130505942766e+02
1.182299484758e+02
1.091117927723e+02
1.144692647414e+02
1.234622863603e+02
1.198423223448e+02
1.108909567637e+02
1.164087089504e+02
1.075311958993e+02
1.131668606840e+02
1.218154090664e+02
1.186394880172e+02
1.101221708800e+02
1.156426695531e+02
1.073197974730e+02
1.128277948104e+02
1.047755462774e+02
1.101215580832e+02
1.178161482579e+02
1.148200851893e+02
1.074751911357e+02
1.116925136892e+02
1.188814714696e+02
1.151882931558e+02
1.223575820588e+02
1.180886871742e+02
1.111158950000e+02
1.133488454587e+02
1.205357019532e+02
1.152099418716e+02
1.079978442000e+02
1.093266884942e+02
1.169199309558e+02
1.106579394322e+02
1.028415116029e+02
1.039184118435e+02
1.121636639725e+02
1.052704679783e+02
9.672823248458e+01
9.809537297726e+01
1.069714211648e+02
9.985814660504e+01
1.089731105005e+02
9.067398519838e+01
9.266485703853e+01
8.319318456160e+01
8.553646670871e+01
1.270471193467e+02
7.588909487164e+01
7.365379919189e+01
7.862086306854e+01
8.827245647599e+01
6.890463741276e+01
7.201054655002e+01
6.236615842353e+01
9.870997638705e+01
1.352458525457e+02
6.578735737505e+01
5.631757890531e+01
5.273749145731e+01
4.697281438964e+01
1.213848439490e+02
1.305659229773e+02
1.259959026864e+02
1.354409425839e+02
1.310611902648e+02
5.071717198773e+01
1.390762527727e+02
1.398334649848e+02
1.079813718642e+02
1.018015253286e+02
1.262875285118e+02
7.530715444647e+01
6.933337145273e+01
7.880104343146e+01
1.158474808489e+02
1.180349847763e+02
1.247003002074e+02
1.270449887101e+02
1.335285223331e+02
1.360201798653e+02
1.295798459420e+02
1.386788485677e+02
1.323059465536e+02
1.423376458720e+02
1.398273504440e+02
1.415051959940e+02
1.352179009150e+02
1.445067215387e+02
1.383087429334e+02
1.289176218390e+02
1.321171076132e+02
1.226988527985e+02
1.297607776313e+02
1.338762677161e+02
1.373485269253e+02
1.416065589942e+02
1.450809136627e+02
1.494377745505e+02
1.529002125478e+02
1.482702193045e+02
1.390324168131e+02
1.047554278108e+02
1.002961565139e+02
9.812293143996e+01
9.332209202567e+01
9.185152692889e+01
8.655107706208e+01
8.590328571373e+01
9.010129168493e+01
8.467691214218e+01
8.727868096136e+01
8.219472017034e+01
8.278159919996e+01
1.286810289316e+02
1.456668206747e+02
1.536143117032e+02
1.495528094127e+02
4.324958628273e+01
1.415763258138e+02
1.484833429782e+02
1.458783868950e+02
1.561505091809e+02
4.180364712225e+01
7.983809528100e+01
7.973903257709e+01
1.403570961281e+02
1.359903279219e+02
1.544258549729e+02
4.558892073582e+01
1.477540175253e+02
7.958210561842e+01
1.354893839637e+02
1.450158869209e+02
1.230909395271e+02
1.576469640760e+02
1.533308142380e+02
8.820070604459e+01
8.214762221609e+01
7.614697283062e+01
7.412667718456e+01
8.084490846127e+01
7.203615380423e+01
6.398836756145e+01
6.185054814004e+01
7.071096188367e+01
6.088469499771e+01
5.052284746442e+01
5.071418003554e+01
1.510340685345e+02
7.775269814026e+01
1.117914110727e+02
1.571219924667e+02
1.607024048151e+02
1.453269267318e+02
1.409929107954e+02
1.316436803700e+02
1.367178909405e+02
1.460822192041e+02
1.418053969665e+02
1.324655531777e+02
1.375277434676e+02
1.281983205180e+02
1.332731683201e+02
1.426138017544e+02
1.383830054110e+02
1.290780938669e+02
1.341683880403e+02
1.248815299356e+02
1.299042309243e+02
1.392773418906e+02
3.722777779218e+01
1.512592288708e+02
1.593016767689e+02
7.330790934070e+01
8.228357057478e+01
8.828117186654e+01
9.186270938874e+01
1.349576806931e+02
1.444355006008e+02
7.199677467614e+01
7.166621246533e+01
1.497015969238e+02
1.390821329679e+02
1.295235923326e+02
9.849202026600e+01
9.252871374957e+01
8.920368552062e+01
8.288263172533e+01
8.668169804465e+01
7.942358703069e+01
1.373395493702e+02
1.477518161962e+02
4.930638929156e+01
3.960942278808e+01
1.487033690691e+02
1.433480829500e+02
1.323615407180e+02
1.374489346654e+02
1.412183028707e+02
1.461758049803e+02
1.500347972453e+02
1.548358986595e+02
1.510521289604e+02
1.615613227364e+02
1.595782021714e+02
1.254682865996e+02
1.414780316204e+02
7.037112288039e+01
3.331489087319e+01
3.934994234010e+01
4.066333784946e+01
4.935499498461e+01
1.629369094788e+02
1.587803676896e+02
1.539483276100e+02
7.699799625993e+01
8.111252285096e+01
1.656700357028e+02
1.217335760715e+02
1.231769656316e+02
1.188972483190e+02
3.163095249605e+01
3.972543664341e+01
1.511954362469e+02
8.011667260765e+01
7.223439266092e+01
7.510398023782e+01
7.393219963014e+01
1.399099455004e+02
1.493175879708e+02
9.776439720942e+01
1.013225370970e+02
1.601562352103e+02
4.129500803807e+01
1.538280767792e+02
1.460945253559e+02
1.381115367751e+02
8.588973513951e+01
6.257097130538e+01
6.355326187780e+01
7.927270534343e+01
5.213473737830e+01
4.441538245897e+01
1.685463304584e+02
1.554325763214e+02
1.558106081574e+02
1.473295416183e+02
1.641905100476e+02
3.054268517517e+01
1.658828135462e+02
1.429144087490e+02
1.624505549042e+02
1.579725282458e+02
8.121549821704e+01
7.383968223140e+01
6.412781005883e+01
6.645445440660e+01
1.117866371170e+02
8.317989185655e+01
1.073759315608e+02
1.027381269314e+02
9.833301299479e+01
9.054043587799e+01
8.527998192472e+01
9.481208606434e+01
1.299772201973e+02
9.444644271476e+01
1.195565601760e+02
1.225228966382e+02
1.519598787331e+02
1.571857383350e+02
1.198084630173e+02
1.155335449750e+02
3.404410313546e+01
3.026383024396e+01
1.112747377482e+02
1.598857049155e+02
1.546210455752e+02
1.590237596237e+02
1.540531441664e+02
1.655501897683e+02
1.017734102331e+02
1.328234966232e+02
7.417090917318e+01
1.303624856117e+02
2.545973995417e+01
1.393962785760e+02
1.525847374926e+02
1.582889638693e+02
1.695868538707e+02
9.869172027635e+01
1.353940837793e+02
1.320487330205e+02
9.379380716713e+01
8.937523331414e+01
9.396928142647e+01
8.495627542555e+01
7.944171765838e+01
7.088951861925e+01
1.680713076933e+02
1.679009368546e+02
1.666268515703e+02
1.622908295424e+02
1.735259702285e+02
1.694280194017e+02
5.290848174892e+01
7.598244120701e+01
1.605190386383e+02
9.823496547717e+01
1.685414234913e+02
1.628027279949e+02
6.946989082933e+01
6.636196794531e+01
1.589063570059e+02
5.621036701286e+01
5.912779280859e+01
5.384557308588e+01
1.722431706246e+02
9.784131521260e+01
1.622867827034e+02
9.461723325379e+01
1.634213737556e+02
1.402714907775e+02
9.530872354469e+01
1.573242724502e+02
1.538457727796e+02
1.642761412091e+02
1.138653076530e+02
1.093990243083e+02
1.179187699367e+02
7.445880265037e+01
6.812638842987e+01
1.528850937043e+02
6.373437864591e+01
6.849161173514e+01
4.359760930672e+01
5.395978726478e+01
1.039233147163e+02
1.007972416770e+02
1.442580330399e+02
1.484445483063e+02
1.361920316933e+02
1.406190495649e+02
1.325487436794e+02
1.303054937564e+02
1.612130896329e+02
1.674772787681e+02
8.762794804755e+01
8.748625967173e+01
8.015762724691e+01
1.648138955257e+02
1.678748280940e+02
1.640609338264e+02
2.185319150906e+01
2.646209954440e+01
5.266118086554e+01
5.519208758886e+01
1.632214548763e+02
1.585523672362e+02
1.689837375176e+02
4.739807315225e+01
1.521463613960e+02
1.734906073103e+02
1.705039983781e+02
1.776358362218e+02
1.652750122628e+02
1.731875874574e+02
1.723757439143e+02
6.654285722900e+01
1.609444216899e+02
1.101007690657e+02
5.893566838939e+01
1.059241344835e+02
1.112698914742e+02
1.012557884894e+02
3.910062823999e+01
1.072554611672e+02
1.128749259321e+02
1.671459423415e+01
1.698050161256e+02
1.805829798111e+01
2.147472507869e+01
1.716272206248e+02
1.657592232191e+02
1.745573187746e+02
1.686654758570e+02
1.597374830426e+02
1.631162169678e+02
1.048947702934e+02
1.734676947207e+02
1.667627145232e+02
1.773181358454e+02
8.060668808940e+01
6.931146934966e+01
6.271472267796e+01
5.218553233442e+01
1.723271674829e+02
1.661503941597e+02
1.471711806828e+02
1.374068470300e+02
1.065471341579e+02
1.060598181080e+02
1.144083883016e+02
1.132950338221e+02
1.217225774792e+02
1.203922957966e+02
1.289973106778e+02
1.763894026386e+02
4.547606087035e+01
8.948613318222e+01
1.771684827905e+02
1.724587243179e+02
8.036339147667e+01
7.141675462152e+01
1.755143924640e+02
8.996269317849e+01
1.754243243482e+02
4.415142893415e+01
6.098684773721e+01
9.227663898603e+01
8.961215212095e+01
7.276549071185e+01
6.731976279504e+01
1.488990387446e+02
2.318258972756e+01
5.255993004425e+01
1.300191758651e+02
4.190680235661e+01
1.422886221997e+02
9.657248625905e+01
9.987551933040e+01
6.281348540752e+01
7.642514741328e+01
1.162583894876e+02
1.074563428819e+02
1.028749583734e+02
1.024472229107e+02
7.158359194413e+01
6.115696164264e+01
1.121714434434e+02
1.491627012764e+02
1.536164311001e+02
1.626784487153e+02
1.580804040875e+02
1.488095427262e+02
1.532976916049e+02
1.625709992584e+02
1.580841403104e+02
1.689327348428e+02
1.626517647695e+02
1.531251681378e+02
1.575641757647e+02
1.663004612564e+02
1.482764209951e+02
1.811413978387e+02
1.013357048301e+02
6.999380913241e+01
6.006950893810e+01
1.038803796443e+02
1.781293915797e+02
1.775668541654e+02
8.727446865623e+01
1.813785130221e+02
1.072350433462e+02
7.988352339692e+01
1.828334211745e+02
1.442830513574e+02
1.393837228976e+02
1.349276832473e+02
1.774814999373e+02
1.223009627880e+02
1.855174991922e+02
1.377734444215e+02
1.334818032363e+02
1.255900446502e+02
1.484685607681e+02
1.861472738944e+02
1.797809111781e+02
1.795608975401e+02
1.726386804657e+02
1.859410645861e+02
1.799671761975e+02
1.807809202611e+02
7.976083713206e+01
8.773210956052e+01
9.479719400780e+01
9.445906420532e+01
8.811876160605e+01
9.383670506224e+01
9.996339010007e+01
9.255879634666e+01
1.574567444751e+02
1.854542772049e+02
1.311680448264e+02
1.288703379239e+02
1.204888551586e+02
9.127738862194e+01
9.783839971515e+01
1.072875372021e+02
8.492051756147e+01
1.424465860280e+02
1.848671291589e+02
1.355693370720e+02
9.508960852161e+01
9.844488313639e+01
1.065276674854e+02
1.067874771645e+02
1.154261642400e+02
1.072262123486e+02
1.072519929240e+02
1.107418931482e+02
1.050050293468e+02
1.143586626568e+02
1.085318439000e+02
9.984676721019e+01
1.179024682487e+02
1.116348800246e+02
9.820276668664e+01
3.344953487371e+01
3.808061946595e+01
2.495038209902e+01
4.063524076792e+01
5.322213015831e+01
5.477701754963e+01
6.389248841515e+01
5.337870415307e+01
9.608036608820e+00
1.827511368762e+01
8.339281212660e+00
1.549466687588e+01
2.701195490263e+01
3.622355478211e+01
1.784462946867e+02
8.517134065508e+01
8.083036207942e+01
7.185213931939e+01
7.691220774304e+01
8.903769349517e+01
6.695495044821e+01
6.379919861982e+01
1.024602969125e+01
1.780548088701e+01
1.708451925487e+01
2.465626508906e+01
2.437116744557e+01
1.782801287159e+01
1.772640553275e+01
1.016644981335e+01
1.748263876382e+01
2.433887175880e+01
9.857106258600e+00
1.413197849638e+02
1.464413540472e+02
1.832472405635e+02
9.918207651830e+01
9.499882839115e+00
1.744219170584e+02
1.761175126875e+02
1.761938265829e+02
1.622373959863e+02
1.672618920824e+02
1.746524841917e+02
5.908549366318e+01
1.670359657751e+02
1.580501188268e+02
7.304617116832e+01
6.231475953579e+01
1.332734852224e+02
1.259167414141e+02
1.545410990891e+02
1.260362889759e+02
1.476872738072e+02
1.786389301961e+02
3.622044432179e+01
1.239438215343e+02
1.206113967740e+02
1.435131391643e+02
5.997565122753e+01
9.589380249467e+01
3.796093507890e+01
1.754786363686e+02
1.030580866509e+02
1.138859322153e+02
8.165941822965e+01
6.611102248749e+01
6.117963862903e+01
1.043596858265e+02
1.020198744566e+02
1.449713648223e+02
1.486748379975e+02
1.090601316939e+01
1.511269062634e+02
1.204533572781e+02
1.274094059644e+02
1.573141744491e+02
5.222882557027e+01
1.468913072139e+02
1.636172992281e+02
1.172419401830e+02
2.935591880443e+01
1.145814136861e+02
1.714023815159e+02
1.447422170815e+02
5.448878562179e+01
1.253469936366e+02
1.053475577087e+02
9.000053151235e+01
1.621006724734e+02
1.238527069696e+02
1.641247269586e+02
1.404777397857e+02
5.837025542104e+01
1.568077188197e+02
1.223219050729e+02
1.562853767952e+02
1.451111509752e+02
1.083088815559e+02
1.503235989593e+02
1.186263944955e+02
1.615726434547e+02
9.881825254264e+01
1.272405136205e+02
1.346218961026e+02
1.251632479344e+02
1.276245529332e+02
1.539115649035e+02
7.780226312899e+01
8.603861318524e+01
1.266425185429e+02
1.632469173868e+02
1.655925605019e+02
9.610161276049e+01
1.506633042975e+02
1.595250974426e+02
1.045221213265e+02
4.127069014587e+01
6.605907400180e+01
9.567348292256e+01
1.207968687983e+02
1.138456785908e+02
1.687899516579e+02
1.537504964419e+02
1.517127821634e+02
3.193063275300e+01
9.401940808254e+01
1.570548084505e+02
1.279588897975e+02
1.650810715087e+02
1.026051455203e+02
1.760734754200e+02
7.600041918190e+01
1.607114153197e+02
1.543024339370e+02
8.836207276336e+01
9.811936623449e+01
1.715977437530e+02
1.625476945930e+02
1.338280496449e+02
1.226721537156e+02
8.090846245550e+01
1.166228713006e+02
1.311698120519e+02
1.773848589382e+02
1.671937505728e+02
1.300423857196e+02
1.102127232647e+02
1.450303783286e+02
2.427285958525e+01
8.504385438219e+01
1.133356466056e+02
9.825355476999e+01
1.246659789765e+02
1.773362869559e+02
1.166566329825e+02
1.044859428655e+02
1.201318817607e+02
7.185731498252e+01
1.345606288910e+02
1.237018646048e+02
1.401581325962e+02
2.472815437191e+01
1.388451010694e+02
1.570772488594e+02
8.139335281935e+01
1.266845921903e+02
1.439314379953e+02
6.273492415800e+01
1.348802854352e+02
1.491238408075e+02
1.437408754721e+02
1.288073318755e+02
1.432416216602e+02
6.701476202737e+01
5.619937552321e+01
4.624815033518e+01
1.064807058467e+02
1.532716978229e+02
3.119939512489e+01
1.436844587819e+02
3.306807902741e+01
1.010956336222e+02
1.570526020912e+02
1.233336803532e+02
1.019712136314e+02
4.969955832343e+01
9.517030262435e+01
1.368655485821e+02
9.579310595420e+01
8.817899815483e+01
1.673861909858e+02
8.918616123705e+01
1.761393533496e+02
1.785570570597e+02
1.051118270298e+02
5.323744811936e+01
4.511300976486e+01
5.861084902004e+01
7.200019602799e+01
1.436895444021e+02
1.054402725943e+02
6.394599170667e+01
1.717981321487e+02
1.844358869149e+02
1.367839120101e+02
1.682105439060e+02
1.486596389023e+02
1.589732917650e+02
9.739593722654e+01
1.506598416608e+01
1.323582059715e+02
4.417016454178e+01
4.865846891052e+01
4.302092373554e+01
6.146127913996e+01
3.101044619116e+01
3.796147002938e+01
1.793351196789e+02
1.055560372698e+02
1.605030939429e+02
3.198793101817e+01
1.686072855440e+02
1.779354555736e+02
1.825314817107e+02
1.689038842413e+02
4.302021612941e+01
1.134890499291e+02
1.746679432986e+02
1.440919239102e+02
1.819536330330e+02
1.044799517568e+02
1.685656396113e+02
7.186544486044e+01
1.686391833214e+02
1.528757718187e+02
1.166258559393e+02
1.133569901017e+02
1.721837368156e+02
1.707192201290e+02
4.883070574802e+01
1.361979226656e+02
7.731911486706e+01
6.073505640522e+01
1.760436213400e+02
1.616039841927e+02
1.722468598260e+02
2.441420153539e+01
1.527374359651e+01
1.788130716275e+02
1.739615570233e+02
6.751997702883e+01
1.781099669456e+02
5.182487205730e+01
9.636212187802e+01
1.655035521458e+01
1.810748007587e+02
1.692337468730e+02
8.499903126909e+01
9.901358732797e+01
5.561888691561e+01
1.704659349116e+02
2.150931621380e+01
1.700322411289e+02
1.804179927099e+02
1.712166381878e+02
1.877582612001e+02
6.050286638167e+01
1.794839662800e+02
1.738536016161e+02
9.736598295974e+01
1.704598821326e+02
6.862846438526e+01
3.027670866840e+01
1.771111518658e+02
8.634648245134e+00
9.691124688311e+01
1.806150520262e+02
2.940529009379e+01
1.117905014692e+02
1.737620057261e+02
1.050218107069e+02
1.535832539733e+02
4.267564366799e+01
4.358437116226e+01
1.281758220748e+02
1.799786893224e+02
1.713018160366e+02
1.217110063130e+02
5.934417599020e+01
1.686558070115e+02
9.207594764800e+01
1.696019204137e+02
1.745357747199e+02
3.920810521753e+01
1.133453893404e+02
1.560734471819e+01
1.762674692358e+02
9.604641964641e+01
9.931152587168e+00
4.393328158358e+00
1.508289547226e+01
1.328187295481e+01
2.187342260241e+01
2.289735089890e+01
3.009660367638e+01
3.149012228850e+01
3.915597434388e+01
4.098755289414e+01
4.838723659021e+01
4.947674828806e+01
5.762563857298e+01
5.897391807484e+01
6.680561114529e+01
6.749630048771e+01
7.590373780045e+01
7.703331673396e+01
8.505567494589e+01
8.563609468869e+01

SCALARS node_materi_strain_total_average_a_ept float
LOOKUP_TABLE default
1.605316912787e-04
1.335389803611e-03
2.494121338507e-03
2.710140412424e-03
1.905558294679e-04
2.870107608777e-04
3.723044783483e-04
4.836568511402e-04
5.873022880950e-04
6.946763608412e-04
8.053506826578e-04
9.188768367970e-04
1.036840760619e-03
1.158750593717e-03
1.286623718926e-03
1.416089394597e-03
1.539119348622e-03
1.673292424506e-03
1.815770724835e-03
1.957275253037e-03
2.102691622658e-03
2.252699792378e-03
2.397525870018e-03
2.718351847541e-03
2.709462073220e-03
2.710070773995e-03
2.707475018931e-03
2.699288614683e-03
2.700670855101e-03
2.696742923348e-03
2.687706859129e-03
2.685674071285e-03
2.677391058709e-03
2.662458531060e-03
2.655838156202e-03
2.645049170821e-03
2.628197306176e-03
2.609984194054e-03
2.586932577427e-03
2.564733655344e-03
2.546334448269e-03
2.524487757408e-03
2.501078099668e-03
2.472370634181e-03
2.441477963917e-03
2.410531715101e-03
2.378967534825e-03
2.349587504407e-03
2.322678475558e-03
2.293839359551e-03
2.271834754283e-03
2.247905932344e-03
2.236327946217e-03
2.221007558416e-03
2.207748724570e-03
2.205391622102e-03
2.213924426729e-03
2.224896724354e-03
2.238350705469e-03
2.261786046177e-03
2.279757498081e-03
2.304408676302e-03
2.326048330380e-03
2.355894387462e-03
2.389576649739e-03
2.413844078239e-03
2.418366667461e-03
2.455206217793e-03
2.464512742125e-03
2.482285425029e-03
2.496027926013e-03
2.500559653068e-03
1.479475499997e-03
1.620866136327e-03
1.762419487032e-03
1.901704099091e-03
2.044354862224e-03
2.188803032431e-03
2.331355327962e-03
2.474523580909e-03
2.619860057369e-03
-1.027113744742e-03
1.192074724101e-05
1.255732075823e-03
-2.002208462450e-04
-2.664579438015e-05
1.270465100617e-04
2.978325668570e-04
4.673445782704e-04
6.282385963986e-04
7.856997979379e-04
9.409226727824e-04
1.095609721193e-03
8.081926620099e-05
2.164647953637e-04
3.564524604753e-04
4.956761103171e-04
6.347553951795e-04
7.737747847983e-04
9.130301640153e-04
1.052390296485e-03
1.191598629875e-03
1.317743692089e-03
1.326141977713e-03
1.324714942693e-03
1.320996823903e-03
1.337884029836e-03
1.317731477414e-03
1.312641393480e-03
1.309355813788e-03
1.306032269458e-03
1.298546588234e-03
1.290861300467e-03
1.281573212997e-03
1.272440961235e-03
1.263685309014e-03
-1.878218018189e-03
-2.100136466376e-03
-2.129413060906e-03
-1.903730977588e-03
-1.085633136445e-03
-2.996298659758e-04
-7.083309951978e-06
1.139350688011e-04
1.685831781983e-04
1.672942735919e-04
1.678172580883e-04
1.728667785409e-04
1.721874063897e-04
1.743692692061e-04
1.657020414673e-04
1.610446473191e-04
1.581130844017e-04
1.572060441191e-04
1.596239155581e-04
-1.697642808799e-04
-1.273144287513e-06
9.635039510780e-05
1.590626191776e-04
1.708103508295e-04
1.603010190240e-04
1.576427091627e-04
1.507672397838e-04
1.413248801451e-04
1.314816522329e-04
1.220795554619e-04
1.134546435484e-04
1.052564881767e-04
9.748327861018e-05
9.001230456124e-05
8.267038134090e-05
7.588468726752e-05
7.053829007845e-05
6.614597266958e-05
6.181827233314e-05
5.771175606246e-05
5.392756789391e-05
5.051894102985e-05
4.749753989451e-05
4.482116045618e-05
4.235091865019e-05
3.973819226058e-05
3.476548978935e-05
2.165579685906e-05
8.116054466887e-05
8.795042108989e-05
9.417222875108e-05
9.609328109766e-05
9.791494050121e-05
9.993526277961e-05
1.022012262205e-04
1.047231465492e-04
1.074887717984e-04
1.104675838057e-04
1.136161785697e-04
1.168939491081e-04
1.203304567656e-04
1.244863825139e-04
1.290726079920e-04
1.336016462478e-04
1.380143665341e-04
1.422369349737e-04
1.461177596532e-04
1.493856958084e-04
1.518772041081e-04
1.524156000106e-04
1.497519027398e-04
1.410291854997e-04
1.235687553422e-04
1.042011229150e-04
3.817846246172e-05
-3.732434550011e-05
5.974099296110e-05
1.136652113116e-04
1.590199168123e-04
1.891578913461e-04
2.090306517137e-04
2.213150335718e-04
2.291737274230e-04
2.338397264588e-04
2.364092752085e-04
2.373487928323e-04
2.372163711308e-04
2.363092313923e-04
2.348834103933e-04
2.332377704188e-04
2.316399262075e-04
2.300671520783e-04
2.284599263382e-04
2.268407360597e-04
2.252540031459e-04
2.237420485139e-04
2.223366681888e-04
2.210553013981e-04
2.199015374131e-04
2.188867846415e-04
2.182917583921e-04
2.175219187774e-04
1.828895379573e-04
2.404974704802e-04
2.784878544975e-04
3.019774253212e-04
3.206008912878e-04
3.333883765719e-04
3.430507560370e-04
3.495951016937e-04
3.541556677816e-04
3.571585062570e-04
3.590879049280e-04
3.602386169914e-04
3.608909422433e-04
3.611940927079e-04
3.612272647155e-04
3.610319483982e-04
3.606626411490e-04
3.601734986413e-04
3.596111996786e-04
3.590142705072e-04
3.584172208289e-04
3.578693335224e-04
3.574954122118e-04
3.576637318081e-04
3.567017773448e-04
4.957100097090e-04
4.958870202731e-04
4.958896169712e-04
4.959139378426e-04
4.958957107073e-04
4.957823134408e-04
4.955310531255e-04
4.951002597274e-04
4.944381877421e-04
4.934836498912e-04
4.921680292320e-04
4.904161912234e-04
4.881335426130e-04
4.851437765455e-04
4.812333837047e-04
4.760613314394e-04
4.693251690030e-04
4.603133670470e-04
4.487147231761e-04
4.327823649101e-04
4.135002509277e-04
3.877871267398e-04
3.402272101425e-04
4.933194424792e-04
5.346484582070e-04
5.532801068059e-04
5.690604804801e-04
5.827571111207e-04
5.930517387323e-04
6.016477941490e-04
6.084159933127e-04
6.139743196478e-04
6.184548619082e-04
6.221269555374e-04
6.251081343025e-04
6.275170198886e-04
6.294404109654e-04
6.309543499817e-04
6.321289962273e-04
6.330216219860e-04
6.336874851095e-04
6.341833990384e-04
6.345491056755e-04
6.347511322575e-04
6.347780641219e-04
7.737228378957e-04
7.734175530647e-04
7.729006516691e-04
7.721407421212e-04
7.711168157956e-04
7.697711965011e-04
7.680455028112e-04
7.658765223810e-04
7.632296567991e-04
7.600023239039e-04
7.561179063939e-04
7.514619057162e-04
7.458608887608e-04
7.392770273016e-04
7.312491871006e-04
7.218683696130e-04
7.099263225907e-04
6.968235320499e-04
6.832702005188e-04
6.449850432556e-04
7.958333326816e-04
8.316921482863e-04
8.419676933143e-04
8.530516944911e-04
8.637609213765e-04
8.722177584391e-04
8.798540786343e-04
8.862390428596e-04
8.916198605230e-04
8.962004526307e-04
9.000857533534e-04
9.032970389616e-04
9.059651902785e-04
9.080716786223e-04
9.097757337797e-04
9.110735277453e-04
9.120855486613e-04
9.127787155889e-04
9.130123719888e-04
1.052416553044e-03
1.051852333562e-03
1.050803265595e-03
1.049402727550e-03
1.047610191785e-03
1.045240924997e-03
1.042393948349e-03
1.038708579747e-03
1.034288099164e-03
1.029229403466e-03
1.023327448616e-03
1.016376550085e-03
1.008243091459e-03
9.983225650898e-04
9.886716375928e-04
9.813822615564e-04
9.470693492251e-04
1.097996012034e-03
1.130276170694e-03
1.136423482543e-03
1.146145983479e-03
1.154635221506e-03
1.161994221728e-03
1.167854363772e-03
1.173257389206e-03
1.178640963235e-03
1.181918280220e-03
1.185104465465e-03
1.187469286854e-03
1.189499617152e-03
1.190706312514e-03
1.192512010673e-03
1.192800529094e-03
-4.253910304118e-04
-1.073604924600e-04
5.755506252459e-05
2.175919824896e-04
3.930816086009e-04
5.610636638916e-04
7.203920403046e-04
8.771486648323e-04
1.031926189209e-03
1.187298790534e-03
-1.300579478373e-04
2.167077976425e-03
1.118067594929e-04
-1.298074102279e-03
2.239501929352e-03
2.905382023238e-04
1.225807289676e-03
2.186604030269e-03
6.439349585516e-04
2.281904524084e-03
9.755640260189e-04
2.344695872229e-03
1.715671601423e-04
2.396689382886e-03
1.295828380142e-03
7.536479405731e-04
1.582808204981e-03
2.467697873347e-03
2.555195001445e-03
2.637461570180e-03
2.608052572570e-03
2.597132863256e-03
1.391458135573e-03
1.429142751878e-03
1.455181485219e-03
1.974210359170e-03
2.391156340992e-03
-1.663411903437e-03
1.789768844689e-04
2.023768571595e-03
1.447926254237e-03
4.271391682558e-04
2.493479939567e-03
2.238027822532e-03
2.338843321856e-03
2.161424091552e-03
2.186827671197e-03
-1.939693095714e-04
1.408351915475e-03
2.265850076655e-03
2.255664805099e-03
1.524775345152e-04
9.767157172046e-04
2.664369954641e-03
4.809195355824e-04
8.963823481838e-05
8.122594754774e-04
1.134950875791e-03
-4.985388425265e-04
1.703366598744e-03
2.440137689349e-03
1.753064093072e-04
2.539565827777e-03
1.369550528755e-03
1.414490334158e-03
1.492821048283e-03
1.541632015172e-03
1.626552542342e-03
1.670590094461e-03
1.584853061065e-03
1.714354306760e-03
1.626216845115e-03
1.758171352269e-03
1.756634325831e-03
1.666567052931e-03
1.797562084987e-03
1.706015026129e-03
1.576550872842e-03
1.614520390697e-03
1.486047622004e-03
1.522549731067e-03
1.652063802050e-03
1.558660163541e-03
1.429509966918e-03
1.464375779018e-03
1.335409057610e-03
1.369089826513e-03
1.239315492010e-03
1.272085437857e-03
1.403727601934e-03
1.306144613456e-03
1.173186497573e-03
1.206797027487e-03
1.071660610442e-03
1.104798530471e-03
1.242755126068e-03
1.141345772172e-03
9.988472052390e-04
1.037209418358e-03
8.888091240538e-04
9.306008147470e-04
7.750855760582e-04
8.204549371587e-04
9.779582062163e-04
8.726471266259e-04
7.072607590600e-04
7.661548878501e-04
9.319857489566e-04
8.328169184861e-04
9.973087668638e-04
9.057766958172e-04
7.373274755993e-04
8.189273959035e-04
9.828449334803e-04
9.031170607326e-04
7.380272221576e-04
8.302037068063e-04
9.890895396906e-04
9.215560274507e-04
7.646166576489e-04
8.609531869055e-04
1.012209560038e-03
9.537920918146e-04
8.065409862484e-04
9.005203705118e-04
1.043733049141e-03
9.901378350872e-04
1.130312330191e-03
8.509945957564e-04
9.397382004670e-04
8.052719090361e-04
8.921883669943e-04
1.281851366386e-03
7.630898158148e-04
6.745944464114e-04
8.468136873593e-04
9.746612999249e-04
7.229379727695e-04
8.027508824327e-04
6.843065245294e-04
7.345663103977e-04
1.689363159411e-03
7.592325284564e-04
6.454561636622e-04
5.715226480892e-04
5.380541733110e-04
1.711606719920e-03
1.846070211900e-03
1.794260545530e-03
1.933541925830e-03
1.882567529288e-03
6.052005127906e-04
1.890303634890e-03
1.982854281887e-03
1.302466864589e-03
1.041095685901e-03
1.091425869495e-03
8.779071397034e-04
8.300738479628e-04
9.488745965900e-04
1.187378608849e-03
1.271101103559e-03
1.330682566511e-03
1.412115275995e-03
1.473404372446e-03
1.553185651678e-03
1.491948684448e-03
1.632012601525e-03
1.570243347424e-03
1.615457396037e-03
1.536173439676e-03
1.709836064715e-03
1.647100287758e-03
1.786838958948e-03
1.722723798567e-03
1.584058865807e-03
1.657814117728e-03
1.521238187347e-03
1.155337865842e-03
1.245724039615e-03
1.308048244685e-03
1.395127196521e-03
1.456090835158e-03
1.540123653613e-03
1.599347597338e-03
1.520100488158e-03
1.836723801346e-03
5.925631041217e-04
5.342425049332e-04
4.089375779218e-04
3.521051484207e-04
2.121930622642e-04
1.589032075301e-04
-1.938531387740e-06
7.027939779790e-05
-1.690641757207e-04
-6.448576665648e-05
-3.158335063842e-04
-1.831897144244e-04
1.439487087258e-03
1.483440424395e-03
1.625868117981e-03
1.572001420433e-03
4.667266452689e-04
1.797200583146e-03
1.678743786267e-03
1.600019907801e-03
1.662267351649e-03
5.021555215233e-04
-4.806443389282e-05
1.261713910295e-04
2.021099255476e-03
1.968860168300e-03
1.742900186769e-03
5.643262871191e-04
1.772543248974e-03
-4.097609417768e-04
1.730134569542e-03
1.870207095153e-03
1.431838694275e-03
1.712543948220e-03
1.660463841087e-03
5.616130251540e-05
-3.461591628068e-05
-2.565747721661e-04
-8.546553262744e-05
1.201831712422e-04
7.308610861958e-05
-1.068078972897e-04
5.902581705385e-05
2.240378819896e-04
2.065410034913e-04
6.993750061982e-05
2.064435103981e-04
1.938329693446e-03
-5.373982934442e-04
1.449094928637e-03
1.819854370219e-03
1.737078882862e-03
2.108979185750e-03
2.055340771541e-03
1.914824867413e-03
2.000533445691e-03
2.142077347576e-03
2.086026494375e-03
1.944510928580e-03
2.028889924789e-03
1.887477551799e-03
1.970844124009e-03
2.113216271724e-03
2.054242870343e-03
1.911964618534e-03
1.994399672742e-03
1.852034593232e-03
1.933304414525e-03
2.076836828577e-03
4.675326947550e-04
1.586662599418e-03
1.728005557210e-03
8.992401096540e-04
1.015768381180e-03
1.072211394402e-03
1.141415616776e-03
2.013984680970e-03
2.158730812871e-03
-5.944891360859e-05
1.164390409955e-04
2.161278664750e-03
1.800922958255e-03
1.662928492455e-03
9.369360753153e-04
9.103228550176e-04
8.027477690426e-04
7.794647145485e-04
8.854649612991e-04
6.672500489626e-04
1.455279437378e-03
2.197456020655e-03
4.924660278636e-04
3.908983252020e-04
1.941938743366e-03
1.441872845516e-03
1.536170367538e-03
1.573179085022e-03
1.669349074143e-03
1.706955045497e-03
1.802976472083e-03
1.839986227782e-03
1.746133910011e-03
1.799937624469e-03
1.879491846710e-03
1.869477981658e-03
1.428105146017e-03
3.590395664460e-04
4.069532074517e-04
1.045956818094e-04
5.177535941783e-04
6.223536738095e-04
1.883457123607e-03
1.936363489078e-03
1.898236133677e-03
7.599166875203e-04
8.633605329327e-04
1.849253228641e-03
1.745523719252e-03
1.804410729896e-03
1.746904634201e-03
4.097677407302e-04
-1.515993069701e-05
2.228665459126e-03
2.833199242417e-04
2.729803082763e-04
-6.261822615166e-04
-7.987424359705e-04
2.093729130537e-03
2.237895808665e-03
1.199213429289e-03
1.268252650744e-03
1.808755876700e-03
2.153119095935e-04
2.303616306832e-03
1.513023496467e-03
1.366077918101e-03
1.081918198001e-03
-3.791554474847e-05
-2.235125084543e-04
3.911688974990e-04
3.251572403751e-04
5.719563205719e-04
1.946706328408e-03
2.284251454086e-03
1.786949744620e-03
1.651347755730e-03
1.920476782178e-03
1.375230372843e-04
1.961608517439e-03
1.870722827330e-03
2.026661554175e-03
1.993348869385e-03
4.250472906035e-04
4.147023288310e-04
2.750643410370e-04
4.112706700048e-04
1.498240785247e-03
5.578605155758e-04
1.359964651148e-03
1.324219539019e-03
1.236637020881e-03
9.856242026442e-04
9.606502417260e-04
4.859911654669e-04
1.186736643983e-03
1.127691017193e-03
1.447958388095e-03
1.247270338318e-03
2.255887875198e-03
2.341483789356e-03
1.770392763309e-03
1.710401313560e-03
3.712750277991e-04
3.006259347657e-04
1.213843325951e-03
1.896689084804e-03
2.249222672325e-03
2.301711440959e-03
2.211745488272e-03
1.872743047043e-03
4.788498126182e-04
1.222877640443e-03
-6.392836627251e-04
1.379724537069e-03
2.872903002947e-04
1.782612735287e-03
2.013789880117e-03
2.084980363513e-03
1.932649123370e-03
1.334479781726e-03
1.420898895849e-03
1.324968557622e-03
1.202300967307e-03
1.117099985991e-03
1.147928930797e-03
1.028600581534e-03
5.102890123499e-04
4.772522757819e-04
2.079540730983e-03
2.009729836334e-03
2.124603607759e-03
2.094510740015e-03
1.981122236265e-03
1.899602275016e-03
6.752649801333e-04
8.424592010762e-04
2.372231638066e-03
1.287126344399e-03
2.034741675109e-03
1.975526727787e-03
-9.740254499255e-04
-6.843357035247e-04
2.384491971696e-03
2.843648083515e-04
4.094115882905e-04
1.514231206583e-04
2.323829809114e-03
1.447338506625e-03
2.159932411978e-03
1.083119123323e-03
2.451496732504e-03
1.466578515224e-03
8.256357497520e-04
1.733710457364e-03
2.309314322545e-03
2.467627946237e-03
1.665268573499e-03
1.602799746208e-03
1.717533571646e-03
-4.399641907980e-04
-6.469314666145e-04
2.280911947461e-03
7.818857520534e-04
8.569275227881e-04
3.175999375204e-04
4.298861026302e-04
1.256928508804e-03
1.182936757883e-03
1.821517261503e-03
1.915688021043e-03
1.631938918795e-03
1.441557589548e-03
1.293518793404e-03
1.216069887727e-03
2.396506946541e-03
2.497783871936e-03
5.519669228754e-04
4.364597634301e-04
6.167128664412e-04
2.427773149692e-03
2.228938974773e-03
2.155089347450e-03
2.306532575239e-04
2.278836375507e-04
-1.487999938272e-04
-3.320586822573e-04
2.349464578111e-03
2.261714397142e-03
2.451943929086e-03
6.159233039718e-04
1.696935076834e-03
2.002156001251e-03
1.935550665260e-03
2.094697844830e-03
1.883950826457e-03
2.008877032030e-03
2.048628572185e-03
-1.202388444873e-03
2.419802019192e-03
1.622936853802e-03
-1.377690899695e-03
1.564269278263e-03
1.647910706944e-03
1.494739826608e-03
5.128607728185e-04
1.558426414813e-03
1.632914369880e-03
1.624147319941e-04
2.514773520004e-03
2.140952522602e-04
2.666020911073e-04
2.117395185216e-03
2.054672252818e-03
2.190660163829e-03
2.127447287449e-03
1.990653695352e-03
2.070762516188e-03
1.538357144975e-03
2.227765315864e-03
2.153507491811e-03
2.311854864785e-03
1.002240582903e-03
5.324531129671e-04
5.280611102579e-04
4.139427748180e-04
2.246966307655e-03
2.183675293206e-03
1.943703033403e-03
1.801890812108e-03
1.576613614590e-03
1.571940026636e-03
1.699468945146e-03
1.684317548995e-03
1.812878605841e-03
1.795187146145e-03
1.926977835533e-03
2.146343825136e-03
1.725171195429e-04
1.167888387192e-03
2.027341292611e-03
1.941086911869e-03
9.361618816247e-04
8.242380902864e-04
2.117644734047e-03
5.782927028349e-04
2.587802459092e-03
-1.305145946642e-03
-1.035150682189e-03
7.035476876049e-04
1.055758170685e-03
6.483135470003e-04
6.399585357876e-04
1.588617616757e-03
1.627160735832e-04
5.724107039954e-06
1.940971769320e-03
-8.036747675182e-05
1.879810593454e-03
6.132684697844e-04
1.111219807235e-03
1.269236132400e-04
5.468695968477e-04
1.537715341296e-03
1.457700580322e-03
1.372920316222e-03
6.564924739777e-04
7.468206585965e-04
6.247128481109e-04
1.394786188476e-03
2.121541255162e-03
2.169291054999e-03
2.304583170308e-03
2.214796955054e-03
2.077552241038e-03
2.122372344644e-03
2.260740891368e-03
2.169831243608e-03
2.331676107853e-03
2.209974887371e-03
2.069749122908e-03
2.107024129583e-03
2.234759173715e-03
1.970936458354e-03
2.101566261943e-03
8.526987953860e-04
-9.364525501993e-04
-6.868704063307e-04
1.208255956921e-03
2.486636572104e-03
2.533777969050e-03
3.095609559300e-04
2.366490702029e-03
1.411208760682e-03
-2.349168238770e-04
2.310302483368e-03
2.030939151368e-03
1.939090143785e-03
1.893171649618e-03
2.573646724619e-03
1.773797001461e-03
2.217100129836e-03
1.337118756183e-03
1.281090579172e-03
1.131241999479e-03
2.027401341832e-03
2.163668425218e-03
2.061752126914e-03
2.065066832271e-03
1.945651464939e-03
2.173984323944e-03
2.453909439629e-03
2.431900392740e-03
2.597395759808e-04
3.146507075936e-04
4.956652314840e-04
3.836062156532e-04
1.845883393517e-04
2.714931182129e-04
4.667285231976e-04
1.644505727491e-04
2.051387622872e-03
2.205071269456e-03
1.392320111645e-03
1.309078204770e-03
1.161591426794e-03
1.053119048267e-03
1.105596744380e-03
1.238517700916e-03
1.001030467056e-03
1.611346911925e-03
2.221746038196e-03
1.293294754302e-03
1.024502981023e-03
1.400699177862e-03
1.514594867641e-03
1.503816033459e-03
1.640041982870e-03
1.538670731439e-03
1.328189611818e-03
1.396851273866e-03
1.334556295853e-03
1.463421838091e-03
1.395776802450e-03
1.278030935261e-03
1.526000299259e-03
1.445673073641e-03
1.417653951064e-03
-6.360427888843e-04
-4.019140534306e-04
-1.513457668497e-04
-2.502075420171e-04
-4.494342084191e-04
-2.543797900082e-04
-4.252880448257e-04
-7.599385381151e-04
-2.934203699730e-05
-1.454813887553e-05
7.155925181324e-05
7.102127153756e-05
4.493965048386e-05
3.103910523191e-04
2.387216059340e-03
1.095124549175e-03
1.032906403378e-03
9.206200650952e-04
9.736424691290e-04
1.141186463507e-03
8.627968456848e-04
8.191538800174e-04
1.793982290548e-04
2.488521019933e-04
2.441435262103e-04
3.316395463827e-04
3.281785726625e-04
2.483242209830e-04
2.432361746276e-04
1.777353499469e-04
2.373644987963e-04
3.173282213698e-04
1.743083105964e-04
2.117667552933e-03
2.195482362435e-03
2.257573270589e-03
1.447557462442e-03
1.303584521294e-04
2.618042194955e-03
2.627740263374e-03
2.636837786066e-03
2.173216749789e-03
2.243622860199e-03
2.627277200984e-03
6.044863194338e-04
2.349170219356e-03
2.364257112007e-03
-2.492823337457e-04
4.514002557867e-04
1.731672188500e-03
1.508964953306e-03
2.011874479259e-03
1.592882929450e-03
1.863125262332e-03
2.066143507002e-03
4.728052689516e-04
1.829001157085e-03
1.790972963224e-03
2.137568882513e-03
7.147836395008e-04
1.212721769546e-03
4.390712381549e-04
2.215001782321e-03
1.269969605439e-03
1.101019510550e-03
9.260492533118e-04
6.385180835793e-04
3.383462451678e-04
9.658874617639e-04
1.076182050634e-03
1.694150503377e-03
2.220542767716e-03
1.670791665613e-04
1.756729601076e-03
1.352503298929e-03
1.859861526270e-03
1.680685871616e-03
-8.067846386817e-05
2.171238627919e-03
2.384991084090e-03
1.689162641905e-03
3.492454295970e-04
1.685596013186e-03
2.019737972244e-03
2.072060894917e-03
6.694985269496e-04
1.067331321268e-03
1.141428353287e-03
1.215769508496e-03
2.421321510881e-03
1.182158154405e-03
1.801132208009e-03
1.373629424018e-03
7.314254027391e-04
1.913618140095e-03
1.032146795580e-03
2.314322442687e-03
1.765022901753e-03
6.608078767156e-04
2.196322083244e-03
1.075041321446e-03
1.764459423728e-03
1.178224610062e-03
1.499892660561e-03
1.744156487404e-03
1.341891836603e-03
1.662451879944e-03
1.834988338083e-03
-4.225432611278e-04
6.857294912360e-04
1.829620804338e-03
1.968623261252e-03
2.456948122575e-03
1.012538377656e-03
1.850225225970e-03
2.335549277790e-03
1.158889948511e-03
5.416195225220e-04
-4.132243019498e-04
2.836962738618e-04
1.081054325371e-03
1.294733974625e-03
2.413057720363e-03
1.927591963926e-03
1.665967253812e-03
-2.668432656421e-04
1.251438119112e-03
2.005178275571e-03
1.140649794553e-03
1.815161195037e-03
1.324580412135e-03
2.185594422390e-03
9.150214554068e-04
2.084011450467e-03
1.658905950822e-03
4.489456078622e-04
1.450765899582e-03
2.250618114792e-03
1.799902929009e-03
1.476740967795e-03
1.062206268033e-03
1.055469056862e-03
1.372839556201e-03
1.594819214663e-03
2.589397613621e-03
1.861171953863e-03
1.802859841664e-03
1.314520796959e-03
1.517550845881e-03
3.236731977371e-04
1.086531348232e-03
1.387912028236e-03
3.706057130221e-04
1.143173232550e-03
2.059046674714e-03
1.459188686082e-03
5.598707698294e-04
1.528397786788e-03
8.952540953278e-04
1.847538060726e-03
1.596167590476e-03
1.726808988154e-03
3.154300379062e-04
1.515741094467e-03
2.090786982948e-03
7.139549886125e-04
1.225284752168e-03
1.984193426396e-03
7.297091214497e-04
1.373457316905e-03
1.860212671540e-03
1.559040031124e-03
1.228845496707e-03
1.520631696251e-03
7.353122717707e-04
5.199303648324e-04
4.096334744010e-04
6.474288172344e-04
1.956396524130e-03
4.135584824486e-04
1.931610183449e-03
2.267826292252e-04
5.660819445568e-04
1.749454463251e-03
1.840463203209e-03
6.662587084363e-04
6.463415105599e-04
6.035321657643e-04
1.373795901070e-03
7.078996194298e-04
6.588508339488e-04
2.506218456524e-03
7.579496529310e-04
2.653850708407e-03
2.412336040623e-03
1.559378438043e-03
5.594173661012e-04
-1.716564832521e-03
5.352474805269e-04
5.804550497839e-04
1.875487534155e-03
1.564423835099e-03
5.488816705336e-04
2.342013996884e-03
2.259811009345e-03
2.047530369022e-03
1.864593426118e-03
1.608982254842e-03
2.388946165696e-03
1.433079275811e-03
1.152564491221e-04
1.737445112632e-03
3.750090745914e-04
2.894604359453e-04
4.956928956834e-05
7.799254604076e-04
-7.609578419365e-05
1.901071218880e-04
2.052116448323e-03
1.540646492833e-03
1.833223461007e-03
-1.285146868389e-05
2.472188691673e-03
2.110520210716e-03
2.319343314283e-03
1.966994357527e-03
-2.317224478223e-04
1.624870057341e-03
2.239957509479e-03
2.159123480742e-03
2.365718830199e-03
1.509619486031e-03
2.532473925479e-03
-4.635460771928e-04
2.537781059128e-03
2.010332691654e-03
1.732760185765e-03
1.594451403480e-03
2.309035554138e-03
2.384462913323e-03
-4.680902717736e-04
2.038172927073e-03
9.648576917274e-04
-1.118162170134e-03
2.158402547353e-03
2.140097270888e-03
2.281115050630e-03
3.310480994013e-04
1.762998139891e-04
2.140414552496e-03
2.310252093524e-03
-2.575940956824e-04
2.638995511941e-03
-7.965113963453e-04
1.410964583998e-03
2.237051288464e-04
2.391306516634e-03
2.517638759827e-03
1.082629341793e-03
1.384199946792e-03
7.171815349534e-04
2.076853235809e-03
1.034295728031e-04
2.541549281854e-03
2.113003047466e-03
2.467175013764e-03
2.209672853585e-03
-1.334569913669e-03
2.163425000987e-03
1.975735059144e-03
1.435712716485e-03
2.418964352035e-03
8.722008778428e-04
3.872325798915e-04
2.671189532733e-03
1.712183062169e-04
1.432380335723e-03
2.450343162072e-03
3.892368567216e-04
1.662943883474e-03
2.341167608646e-03
1.358688271763e-03
2.306252567608e-03
-1.344028002027e-04
-1.730593346717e-03
1.915367080030e-03
2.115349658847e-03
2.500670775378e-03
1.812199057799e-03
-4.837633982323e-04
2.245402315161e-03
1.174136057654e-03
2.139639788334e-03
1.971382988174e-03
-8.245616778970e-04
1.471245276434e-03
2.075557223132e-04
2.240334315602e-03
1.231930995722e-03
-6.711701778654e-05
2.447219920432e-05
-3.421321146686e-05
1.429117198579e-04
9.097649401118e-05
2.903219028799e-04
2.354139549427e-04
4.215289325790e-04
4.028348163394e-04
5.697603501532e-04
5.599372014190e-04
6.997286315280e-04
7.148945694659e-04
8.478779252566e-04
8.679682163279e-04
9.783353144451e-04
1.020712373607e-03
1.126831842625e-03
1.173099742841e-03
1.257243488488e-03

SCALARS node_materi_strain_total_size_dev_sd_ept float
LOOKUP_TABLE default
6.124185786096e-04
3.601891163870e-03
6.172224817079e-03
6.662679206396e-03
3.413028977493e-04
4.481285580440e-04
8.911406984148e-04
1.393406126422e-03
1.862600548583e-03
2.283242748236e-03
2.672503687966e-03
3.031468292628e-03
3.363931933389e-03
3.681087258773e-03
3.990668222369e-03
4.276638715631e-03
4.530180172771e-03
4.801361850128e-03
5.074524736875e-03
5.334017798337e-03
5.587845678327e-03
5.832395515100e-03
6.054516756461e-03
6.674555961369e-03
6.658003137439e-03
6.659427051437e-03
6.654537866124e-03
6.639933301970e-03
6.641343648574e-03
6.633132109814e-03
6.617499938149e-03
6.613930134856e-03
6.596436183553e-03
6.569781554308e-03
6.555496152251e-03
6.532860383860e-03
6.498867861103e-03
6.460496748490e-03
6.411853063403e-03
6.365891959430e-03
6.322131709061e-03
6.272286152374e-03
6.215165913518e-03
6.143448686348e-03
6.064943041852e-03
5.982694323531e-03
5.895091886099e-03
5.810622009337e-03
5.724451669215e-03
5.641984712367e-03
5.559358683252e-03
5.487158425789e-03
5.444236899506e-03
5.396171512992e-03
5.341861798400e-03
5.333524440802e-03
5.358390316161e-03
5.392372747483e-03
5.447839835108e-03
5.510866741233e-03
5.579011883958e-03
5.646682845820e-03
5.720833388133e-03
5.802611479960e-03
5.890935543221e-03
5.955730498990e-03
5.983150899226e-03
6.061829344556e-03
6.090408248158e-03
6.127489356703e-03
6.160252209882e-03
6.173116943047e-03
3.948729957035e-03
4.295649337588e-03
4.629160795947e-03
4.949988654631e-03
5.271408002171e-03
5.584535012943e-03
5.891319012986e-03
6.188789799470e-03
6.489309794692e-03
2.663806038597e-03
9.121341168768e-05
3.586921053393e-03
1.847583208039e-03
1.703439191331e-03
1.796337137158e-03
1.898044844331e-03
2.028465062182e-03
2.254020091890e-03
2.543810008537e-03
2.869515210842e-03
3.214306369266e-03
3.123118157367e-04
6.824100337485e-04
1.034826262708e-03
1.399733897100e-03
1.768943215776e-03
2.139037153000e-03
2.506658385243e-03
2.870899111650e-03
3.227609483458e-03
3.549522403702e-03
3.570216144829e-03
3.574536266785e-03
3.572288260123e-03
3.619884451765e-03
3.582210078676e-03
3.579791598312e-03
3.584975776566e-03
3.597054653544e-03
3.596448671937e-03
3.592300515304e-03
3.588551344546e-03
3.582887317096e-03
3.580806343210e-03
2.864437691724e-03
2.723412848839e-03
2.724082215878e-03
2.784591326271e-03
2.735628365179e-03
1.645364438399e-03
4.132939315227e-04
3.860953748860e-04
5.896495381996e-04
5.980195396805e-04
5.873430404316e-04
6.064544486595e-04
6.274391587128e-04
6.498460802850e-04
6.120770726883e-04
5.834029253916e-04
5.690350915461e-04
5.881973848064e-04
6.164209016768e-04
1.163466784258e-03
4.192259889113e-04
2.698893141060e-04
4.353039524469e-04
4.846975806336e-04
4.511022008734e-04
4.385704155273e-04
4.093936105596e-04
3.698226228295e-04
3.269687442183e-04
2.847759457934e-04
2.449128695817e-04
2.071795829783e-04
1.724381448434e-04
1.413228221991e-04
1.150388977144e-04
9.753827497122e-05
9.105409153976e-05
9.210886946370e-05
9.829645132487e-05
1.080643244936e-04
1.196495549708e-04
1.316559832394e-04
1.431550953129e-04
1.536247643490e-04
1.629346079973e-04
1.715256178861e-04
1.835188578481e-04
1.477568256887e-04
3.067649126980e-04
3.156366788366e-04
3.155487024474e-04
3.124604101037e-04
3.071924722789e-04
3.000945833647e-04
2.915319042191e-04
2.817919725333e-04
2.711291204259e-04
2.597840980661e-04
2.479772255394e-04
2.358967048597e-04
2.238312584687e-04
2.118431706292e-04
2.010511202549e-04
1.926170336526e-04
1.870057455238e-04
1.843441997453e-04
1.843620187646e-04
1.860408319115e-04
1.879841895333e-04
1.875355639576e-04
1.835034391792e-04
1.803053875358e-04
2.045560098453e-04
3.103691514398e-04
6.233986325142e-04
8.794331353511e-04
1.232544419266e-03
1.055183452783e-03
8.176533873823e-04
7.066033068450e-04
6.390852852650e-04
5.980037905233e-04
5.743820497547e-04
5.621491911858e-04
5.579188290554e-04
5.588755453883e-04
5.630967535120e-04
5.692756947517e-04
5.764926251432e-04
5.843701974521e-04
5.929330353289e-04
6.016107684676e-04
6.097910355396e-04
6.173592069350e-04
6.242767962798e-04
6.304711790924e-04
6.358073417614e-04
6.400640823772e-04
6.429054749289e-04
6.439236685273e-04
6.435078658383e-04
6.665250276580e-04
1.506093078463e-03
1.396570353293e-03
1.225602157299e-03
1.142351841646e-03
1.083811301967e-03
1.043673484420e-03
1.017782597991e-03
1.002103422674e-03
9.933512969450e-04
9.891279416905e-04
9.878621429808e-04
9.886011896671e-04
9.909922690847e-04
9.945746238856e-04
9.985728188362e-04
1.002510553179e-03
1.006189886816e-03
1.009503461359e-03
1.012353817482e-03
1.014629449025e-03
1.016231119177e-03
1.017214987297e-03
1.018439046439e-03
1.023198899429e-03
1.031588509002e-03
1.397987445253e-03
1.394622860002e-03
1.392937534858e-03
1.392460471362e-03
1.392334284715e-03
1.392150515249e-03
1.391778727724e-03
1.391217995075e-03
1.390542675201e-03
1.389857875787e-03
1.389343367576e-03
1.389327980294e-03
1.390389944597e-03
1.393124702425e-03
1.398033654941e-03
1.405660282843e-03
1.417322238038e-03
1.434419044802e-03
1.460002054612e-03
1.496215381982e-03
1.549277714708e-03
1.650969709080e-03
1.701608855150e-03
1.921636570674e-03
1.924048635115e-03
1.870093402472e-03
1.843821121333e-03
1.825176720166e-03
1.810394310516e-03
1.799690425083e-03
1.791445636950e-03
1.785483443343e-03
1.781311846258e-03
1.778388325209e-03
1.776147501306e-03
1.774356759833e-03
1.772844335523e-03
1.771463764821e-03
1.770107784180e-03
1.768775393890e-03
1.767636339813e-03
1.766956209201e-03
1.767101510118e-03
1.767988363169e-03
1.768593466332e-03
2.138158158342e-03
2.138000594051e-03
2.138451269054e-03
2.139656960766e-03
2.141507198791e-03
2.143831770994e-03
2.146387567211e-03
2.148942377120e-03
2.151588290699e-03
2.154563300244e-03
2.157864581093e-03
2.161414377049e-03
2.165193132794e-03
2.170104198714e-03
2.176302559192e-03
2.184256305398e-03
2.192331213184e-03
2.202533172456e-03
2.232236376995e-03
2.194594677967e-03
2.505261185591e-03
2.563970933532e-03
2.549232323230e-03
2.546202018819e-03
2.543059877621e-03
2.539597441814e-03
2.537255158445e-03
2.534018787073e-03
2.530416926738e-03
2.526576011736e-03
2.523233187023e-03
2.520191767772e-03
2.516676443372e-03
2.513362138952e-03
2.510519388144e-03
2.508364132702e-03
2.506953316333e-03
2.506694119050e-03
2.506912001666e-03
2.871834581183e-03
2.870980138078e-03
2.872048597961e-03
2.874469906736e-03
2.876875735021e-03
2.880489159361e-03
2.884242124011e-03
2.887832909998e-03
2.890124195681e-03
2.894010027078e-03
2.897285341167e-03
2.899116044533e-03
2.900467225875e-03
2.898315892938e-03
2.897482345944e-03
2.909956454804e-03
2.842233009630e-03
3.187404369077e-03
3.259650253859e-03
3.252666542048e-03
3.253757100715e-03
3.255396146376e-03
3.255140931477e-03
3.252098761456e-03
3.249631864251e-03
3.246636586445e-03
3.243096981853e-03
3.239453044686e-03
3.236194892502e-03
3.234720766101e-03
3.231190478363e-03
3.232863134294e-03
3.236472188098e-03
2.290019702228e-03
1.828937431663e-03
1.823066210987e-03
1.923643377965e-03
1.993348526731e-03
2.167122075997e-03
2.427418013894e-03
2.735324668809e-03
3.071257387717e-03
3.419947871793e-03
2.431608415742e-03
5.110575956912e-03
2.277014444808e-04
3.350690250316e-03
5.431337267279e-03
2.172776174828e-03
3.842257570634e-03
5.202320016709e-03
2.381422603156e-03
5.581105305985e-03
2.983585054863e-03
5.809307575098e-03
3.672814183249e-04
5.966118568139e-03
3.694176816447e-03
2.499176731107e-03
4.613339599063e-03
6.169854690609e-03
6.373531884685e-03
6.529807592124e-03
6.477161559085e-03
6.460261030365e-03
3.885253746795e-03
3.910732006662e-03
3.931230833232e-03
5.113100505785e-03
5.976521178293e-03
3.345977088850e-03
3.727150026630e-04
5.444986694303e-03
3.885393577337e-03
1.146068792905e-03
6.243660056378e-03
5.411227220851e-03
5.784558647487e-03
5.088082019051e-03
5.211114440094e-03
1.660572226594e-03
3.892977319570e-03
5.565659447403e-03
5.733817964835e-03
2.577644219732e-04
3.200487874674e-03
6.582755687477e-03
2.238300866729e-03
2.223512667280e-03
2.660535744439e-03
3.330096906201e-03
3.122783244769e-03
4.488196760661e-03
6.092705605875e-03
3.981534042971e-04
6.320508119870e-03
3.859985605136e-03
3.968424558562e-03
4.143452511911e-03
4.258675048564e-03
4.449856680362e-03
4.544520512132e-03
4.348049645509e-03
4.628277226610e-03
4.422222787780e-03
4.739928070714e-03
4.699280922228e-03
4.482620879381e-03
4.757204605897e-03
4.529893188313e-03
4.262006925800e-03
4.296795480515e-03
4.037168070821e-03
4.057784393892e-03
4.318159145421e-03
4.062587961842e-03
3.812737034977e-03
3.799792449047e-03
3.564158886294e-03
3.531622598919e-03
3.312961861893e-03
3.259018264072e-03
3.485218542912e-03
3.190019332668e-03
2.984718944858e-03
2.890030919256e-03
2.712346096214e-03
2.587739261392e-03
2.789515100068e-03
2.459219353168e-03
2.288318288662e-03
2.128682901046e-03
2.007000810688e-03
1.811122278466e-03
1.768246837025e-03
1.529760192115e-03
1.643429133071e-03
1.331549709607e-03
1.335579336683e-03
1.115563274004e-03
1.234503475840e-03
1.035438704965e-03
1.285130685584e-03
1.143794745932e-03
1.037119681242e-03
1.185278159121e-03
1.397440218761e-03
1.463037462569e-03
1.385876734767e-03
1.641530953105e-03
1.799402010397e-03
1.949628681061e-03
1.875660040801e-03
2.137889517646e-03
2.276958267766e-03
2.422002508614e-03
2.325106279044e-03
2.562300916305e-03
2.712783762621e-03
2.810917584121e-03
3.000224601159e-03
2.673310062060e-03
2.881827495748e-03
2.739320379287e-03
2.913444066908e-03
2.697043143192e-03
2.747800495465e-03
2.627025964409e-03
2.896653978831e-03
3.101922646090e-03
2.694620259664e-03
2.829023133702e-03
2.583277807240e-03
2.004146470763e-03
4.328004879483e-03
2.711550442532e-03
2.417954935631e-03
2.309324280201e-03
2.083741319102e-03
4.637302005516e-03
4.933821986352e-03
4.818342144037e-03
5.124191345393e-03
5.010171028976e-03
2.206630948838e-03
4.980131856408e-03
5.228181053909e-03
3.578558141307e-03
2.818480947523e-03
1.554883721962e-03
2.980695881384e-03
2.856999831662e-03
3.142167889183e-03
2.926030360224e-03
3.235293974827e-03
3.190000862801e-03
3.508133739360e-03
3.492396942437e-03
3.810376194908e-03
3.809438246320e-03
4.110560370535e-03
4.092902998655e-03
3.822591591990e-03
3.494207351963e-03
4.391390093255e-03
4.357670798140e-03
4.651942015095e-03
4.603148988586e-03
4.320241639524e-03
4.548543000423e-03
4.274194093388e-03
1.677973533108e-03
1.963273154126e-03
2.120691792715e-03
2.404449929594e-03
2.579881952388e-03
2.858860034239e-03
3.044240098036e-03
2.808403072252e-03
4.802564113696e-03
1.298416333980e-03
1.588933490543e-03
1.732404809903e-03
2.033597329380e-03
2.325457243450e-03
2.603648430375e-03
3.032611360003e-03
2.730423877648e-03
3.550590825843e-03
3.189017760105e-03
4.038064384171e-03
3.637242741288e-03
3.431318728674e-03
2.723754160266e-03
3.169028546385e-03
3.059806652619e-03
1.983070203758e-03
4.829056773743e-03
3.855081927577e-03
3.522769073724e-03
3.274181456562e-03
1.823080518336e-03
3.239497690908e-03
2.812279828513e-03
5.309920234603e-03
5.192794748041e-03
3.914816542162e-03
1.962572613605e-03
4.428603648270e-03
4.269152995931e-03
4.758708397696e-03
5.034550113610e-03
3.810651398045e-03
3.497004686848e-03
3.402628322187e-03
2.818695478817e-03
3.206841258507e-03
3.854580891380e-03
3.416342043745e-03
2.837006501594e-03
3.036610909319e-03
3.394687141468e-03
3.071613310810e-03
2.764648048854e-03
2.793842645804e-03
2.855767287784e-03
2.638301754723e-03
5.111244043316e-03
4.546090978493e-03
4.000186397379e-03
4.231765802247e-03
3.509030317245e-03
5.492282102887e-03
5.372974592580e-03
5.066914795047e-03
5.247450603559e-03
5.550897267618e-03
5.424526582677e-03
5.115632491491e-03
5.291828705646e-03
4.977247187567e-03
5.154188182430e-03
5.465899850126e-03
5.329380341286e-03
5.013304948076e-03
5.189052887986e-03
4.868227004214e-03
5.043167067834e-03
5.362986289749e-03
1.543928570975e-03
3.075956921610e-03
3.539101177258e-03
3.019280028860e-03
3.304836905978e-03
3.414809701560e-03
3.592303794781e-03
5.216899815012e-03
5.536248229630e-03
3.316439190170e-03
2.913907683995e-03
5.604060231364e-03
4.950479462368e-03
4.679454917427e-03
2.585814053903e-03
2.689389602980e-03
2.507301675409e-03
2.589552992456e-03
2.755388657225e-03
2.469993505820e-03
3.149337269701e-03
5.638322312076e-03
2.230746084757e-03
1.912549197665e-03
5.220345900724e-03
2.621131972032e-03
3.740742914134e-03
3.705041489002e-03
4.023624741213e-03
4.007192628706e-03
4.331090001265e-03
4.334096773143e-03
4.002769383064e-03
3.831754416565e-03
4.354291539613e-03
4.888216785183e-03
2.639729639118e-03
2.591386806504e-03
1.397069683777e-03
2.442340752766e-03
1.691206943464e-03
2.114286797601e-03
4.318689069455e-03
4.660855193013e-03
4.641543440542e-03
2.629443952387e-03
2.782185308651e-03
3.942743312805e-03
4.701803478719e-03
4.799410669936e-03
4.653807962819e-03
1.184124998901e-03
2.678906285477e-03
5.725847767044e-03
2.509880964363e-03
2.617984623510e-03
4.559387884778e-03
4.623182964247e-03
5.385524314511e-03
5.698914156583e-03
3.682685847558e-03
3.869587621364e-03
4.009086509335e-03
2.329198452014e-03
5.844115693206e-03
2.927703658402e-03
2.495350355211e-03
3.472386282400e-03
3.207807250721e-03
3.594775512288e-03
2.449795797205e-03
2.492375137393e-03
1.858186010788e-03
4.434021249914e-03
5.844988104885e-03
4.018139863797e-03
3.661020952535e-03
4.394348580390e-03
1.957679341825e-03
4.628060408744e-03
5.124413710258e-03
4.962690180550e-03
4.938337486101e-03
2.345192326688e-03
2.452779556951e-03
2.628001524616e-03
2.493315177671e-03
4.148230225187e-03
2.303434360106e-03
3.786059916430e-03
3.742459601797e-03
3.541025556968e-03
2.942977998027e-03
2.954480936463e-03
1.887435797461e-03
1.889466320293e-03
3.491464961899e-03
4.047381783851e-03
2.856114884720e-03
5.768512668905e-03
5.940369688735e-03
4.689280830248e-03
4.536371948260e-03
1.580546056835e-03
1.498287999820e-03
3.279751366648e-03
4.535725626094e-03
5.782134256253e-03
5.889730462917e-03
5.706852451532e-03
4.130666140452e-03
1.452121003943e-03
1.895490831580e-03
4.577211075941e-03
3.041397790714e-03
1.095565060165e-03
4.589585272865e-03
5.387396157938e-03
5.484834894064e-03
4.265314718658e-03
3.788922326076e-03
2.986730130014e-03
2.629558922234e-03
3.486931989579e-03
3.299505760874e-03
3.341321432202e-03
3.113456185257e-03
2.421282909242e-03
2.526758913377e-03
5.038737909137e-03
4.722380817931e-03
5.255280125063e-03
5.227145513355e-03
4.392763645272e-03
4.082357831146e-03
2.266348437772e-03
2.767486582858e-03
6.016715932047e-03
3.677675489983e-03
4.910483598228e-03
4.825909516231e-03
4.564563310104e-03
4.442906971798e-03
6.009743299331e-03
2.553792707071e-03
2.452744887040e-03
2.715577822232e-03
5.932366058172e-03
3.871779682786e-03
5.642146823891e-03
3.145973221801e-03
6.150792924109e-03
2.964819639734e-03
2.376187529866e-03
3.693617542036e-03
5.848099346760e-03
6.182381264527e-03
4.472574322746e-03
4.314470407326e-03
4.609931306534e-03
4.277950908829e-03
4.418949763557e-03
5.808301868103e-03
2.698356284089e-03
2.888853869886e-03
2.243846667078e-03
2.418182317518e-03
3.747206855344e-03
3.536601285163e-03
4.609505011654e-03
4.876643428796e-03
4.041243542723e-03
2.833078858171e-03
2.437393210058e-03
2.086254168820e-03
6.057790633101e-03
6.258493541617e-03
2.225014214336e-03
2.206646846533e-03
2.475943703350e-03
6.132421367260e-03
5.739860215297e-03
5.575813881193e-03
9.620705439065e-04
1.424988261364e-03
3.255733526529e-03
3.646220276190e-03
5.980858344759e-03
5.805144727488e-03
6.184690135764e-03
1.989124754321e-03
3.681271198705e-03
4.559017617252e-03
4.277987016248e-03
4.908576546431e-03
4.157847575268e-03
4.577890907381e-03
4.793860156531e-03
4.464593155266e-03
6.077437230769e-03
4.339752566903e-03
4.110363578226e-03
4.184306563747e-03
4.379560994833e-03
4.008429003431e-03
1.552878043315e-03
4.232378591710e-03
4.425098733390e-03
6.871892911847e-04
6.295695854188e-03
5.695713821227e-04
7.221003015360e-04
5.180886118951e-03
5.091332655213e-03
5.419040410599e-03
5.321273976764e-03
5.015671351743e-03
5.258339565559e-03
4.149775844690e-03
5.582843839649e-03
5.481336010742e-03
5.800226526862e-03
3.059694995476e-03
2.467243303729e-03
2.441988758875e-03
2.319188118284e-03
5.591215117920e-03
5.479159984168e-03
5.286634351243e-03
5.022860848838e-03
4.203452125650e-03
4.183091171556e-03
4.490943346176e-03
4.449007003767e-03
4.753282981768e-03
4.704538116782e-03
5.009815744558e-03
5.142540589692e-03
2.492887749503e-03
3.414368239637e-03
4.546255008475e-03
4.227951977365e-03
2.931287032909e-03
2.720543034524e-03
5.081491665963e-03
2.127753156105e-03
6.441999896965e-03
3.411447958791e-03
4.293324890290e-03
2.209855923391e-03
3.143757798976e-03
2.513658897656e-03
2.511169245499e-03
3.254296298296e-03
1.374172691379e-03
2.944724402043e-03
5.046463078973e-03
2.807481613599e-03
5.185757045122e-03
1.887498748734e-03
3.118022343473e-03
2.877572931375e-03
2.417369834988e-03
4.212455626945e-03
4.068822741607e-03
3.874510433406e-03
1.611314657885e-03
2.626684080517e-03
2.430702019847e-03
3.808800561575e-03
5.518727499345e-03
5.610391245585e-03
5.882048282848e-03
5.693121758162e-03
5.410381802744e-03
5.486657001317e-03
5.770156105834e-03
5.563003842358e-03
5.900482334570e-03
5.622301719892e-03
5.326851340824e-03
5.376507416002e-03
5.651010419595e-03
5.085402702535e-03
4.858563156452e-03
2.201282675144e-03
4.538987186164e-03
4.290237043861e-03
3.347382196102e-03
6.220714988116e-03
6.332354321672e-03
2.307203537422e-03
5.874542557695e-03
3.945427448792e-03
3.768391046896e-03
5.684782559495e-03
5.323716614018e-03
5.120059628395e-03
5.031741418292e-03
6.412462450501e-03
4.751786209631e-03
5.324787672347e-03
2.292798115979e-03
2.247060235757e-03
1.902316433211e-03
5.266483017371e-03
5.102013102537e-03
4.686106989264e-03
4.708984810136e-03
4.260343423516e-03
5.145259744957e-03
6.127122859706e-03
6.064335999741e-03
2.582585122480e-03
2.298873622062e-03
1.896099814661e-03
1.947733390818e-03
2.510785147023e-03
2.124329332418e-03
1.581227441558e-03
2.403990254531e-03
5.177115872929e-03
5.282402278370e-03
3.157329261891e-03
2.806170476479e-03
2.508522931889e-03
3.296810196971e-03
3.319680268019e-03
3.553904001305e-03
3.238284681146e-03
3.674822912749e-03
5.354279912899e-03
2.176659742007e-03
3.099487484743e-03
3.894534652941e-03
4.172510359854e-03
4.163996604171e-03
4.468367831226e-03
4.215125659978e-03
3.949462825576e-03
4.139672639304e-03
4.044840969443e-03
4.315865182997e-03
4.199961505439e-03
3.941416609511e-03
4.474791046460e-03
4.325528486493e-03
3.900556032092e-03
2.764295425419e-03
3.148979420601e-03
2.212942023150e-03
3.135709241696e-03
3.805604945873e-03
3.508036785767e-03
4.104867425031e-03
3.994306254996e-03
8.032259332834e-04
1.508204618861e-03
3.757357734581e-04
1.030898283799e-03
1.965365884244e-03
1.895043068730e-03
5.994529042515e-03
3.518869833592e-03
3.359334523642e-03
3.044538047957e-03
3.199699438972e-03
3.635362756781e-03
2.862996211570e-03
2.729391105199e-03
3.760173478791e-04
3.270843446360e-04
3.052761924898e-04
6.965676523789e-04
6.875732832512e-04
3.301476711209e-04
3.350348673475e-04
3.697262572715e-04
3.467282366325e-04
7.553293206574e-04
3.726361402542e-04
5.432008201406e-03
5.602929514537e-03
5.507682301443e-03
3.938296371989e-03
2.044856174676e-04
6.489600749912e-03
6.513733106991e-03
6.526787294084e-03
5.699200151573e-03
5.802257053833e-03
6.505064334711e-03
2.480996793986e-03
5.963846886769e-03
5.976700870375e-03
3.792225964094e-03
2.528015487026e-03
4.858103945546e-03
4.074377305842e-03
5.308406756792e-03
4.485011001033e-03
4.892148707343e-03
4.741997818256e-03
1.411406311324e-03
4.833480199036e-03
4.717316960955e-03
5.502759141218e-03
2.549535054476e-03
3.776631088552e-03
1.695894994011e-03
5.429815966453e-03
3.571749401839e-03
2.605177533929e-03
3.063221866866e-03
2.589019269171e-03
2.609287538481e-03
2.447687579187e-03
3.062309280473e-03
4.134340307432e-03
5.674671908710e-03
2.667536913136e-04
4.172227279594e-03
3.530477021254e-03
4.936601165513e-03
3.319453267643e-03
3.160463352589e-03
5.598268932381e-03
6.053829135079e-03
4.565587437397e-03
1.230673055317e-03
4.502086120545e-03
4.732559735201e-03
5.418676870820e-03
2.347385614742e-03
1.475096430248e-03
3.063310752166e-03
3.507661873861e-03
6.099049312898e-03
2.344439258817e-03
3.745891961536e-03
2.346701741608e-03
2.500993191013e-03
4.758919405505e-03
1.546692324552e-03
5.896851016217e-03
4.331079036969e-03
1.084516320385e-03
5.669468264168e-03
2.153409891778e-03
3.623823075981e-03
3.357711459734e-03
3.774248633818e-03
4.563923217786e-03
3.114182906648e-03
4.753529945210e-03
4.474720281241e-03
4.309220225566e-03
2.370395175984e-03
4.884289315820e-03
4.675028500342e-03
6.184447940665e-03
2.897322078273e-03
4.701325153449e-03
5.953141131834e-03
3.311260408164e-03
1.672000508968e-03
4.052615821683e-03
2.021973726113e-03
1.990294928176e-03
3.548940001039e-03
6.103994737267e-03
4.952239043707e-03
3.587599158242e-03
2.702516657206e-03
3.599411114156e-03
5.183668165621e-03
1.756654592633e-03
3.779591496702e-03
4.059827086628e-03
5.305405592271e-03
2.886034590941e-03
5.399916136396e-03
3.376947459292e-03
2.151873403919e-03
3.883657338662e-03
5.716249552962e-03
3.834105455881e-03
3.377529042097e-03
1.725023604600e-03
3.153431346224e-03
3.805700641131e-03
4.055205083494e-03
6.442387259428e-03
3.999491006009e-03
4.829883145938e-03
3.786205199474e-03
2.988835352234e-03
7.018184572918e-04
3.236532473576e-03
4.007522791509e-03
1.751093622970e-03
2.082498053283e-03
4.704277771346e-03
4.215768154979e-03
1.264747608544e-03
4.408989834988e-03
2.817125998564e-03
4.911815685590e-03
4.588189517001e-03
4.330358842609e-03
8.477087459247e-04
3.333838177150e-03
5.546434870634e-03
2.588686211407e-03
2.445491813054e-03
5.199359553957e-03
2.513685098591e-03
2.793975458957e-03
4.625763129129e-03
3.316573831353e-03
2.267404774040e-03
3.178996113821e-03
2.579954262429e-03
2.418569654952e-03
2.202522447731e-03
1.241064576956e-03
4.911000192913e-03
1.103863626183e-03
5.037942265622e-03
1.904066164273e-03
1.555512580161e-03
3.744363779804e-03
4.809032140501e-03
1.667462057931e-03
2.102676757969e-03
1.962143811463e-03
2.606782392769e-03
2.116982737079e-03
2.326223304130e-03
6.268196466920e-03
2.483265264300e-03
6.554903155743e-03
6.060011297099e-03
4.145157584508e-03
2.256065402773e-03
3.294723948896e-03
2.392488134434e-03
2.547451147665e-03
4.840228850120e-03
4.158666259702e-03
2.530289795093e-03
5.896198222207e-03
5.499311899407e-03
5.278210451823e-03
3.965665572099e-03
3.340990108455e-03
6.015161355692e-03
3.865421894509e-03
7.604653718758e-04
4.917334180704e-03
2.130526431448e-03
2.397977556484e-03
2.607404217548e-03
2.629205233984e-03
2.461040373984e-03
2.200500841833e-03
4.657587978134e-03
4.174159949596e-03
4.068664422175e-03
2.283970178554e-03
6.222998901371e-03
4.954767386671e-03
5.730168287092e-03
4.478712366432e-03
3.159514220609e-03
4.423659278175e-03
5.536480840599e-03
5.526994914163e-03
5.877021648871e-03
4.127574604551e-03
6.313094728574e-03
4.303184858155e-03
6.320017311033e-03
5.131168618568e-03
4.573298366461e-03
4.371914129569e-03
5.884504539286e-03
6.025228029793e-03
3.677489360016e-03
5.259860299841e-03
3.184789735715e-03
4.314072929346e-03
5.250988559803e-03
5.416000231688e-03
5.803228555335e-03
6.715184525409e-04
4.007956242935e-04
5.102674707558e-03
5.779598676940e-03
3.809345690842e-03
6.540053532846e-03
3.932787416179e-03
3.832246837841e-03
3.346893760626e-04
5.954860524177e-03
6.301764957732e-03
3.487433591865e-03
3.878932623893e-03
2.379965778213e-03
4.973908173066e-03
1.461697472573e-03
6.344284402349e-03
4.938476731642e-03
6.214225496966e-03
5.282155647259e-03
4.202010151988e-03
5.165274676590e-03
4.397063425518e-03
3.860093115162e-03
6.105671099754e-03
2.911501360000e-03
1.155380801101e-03
6.585528818611e-03
4.756115569845e-04
3.836144344001e-03
6.120312715151e-03
1.015122684472e-03
4.393367968131e-03
5.871847498745e-03
4.145750361956e-03
5.839214417160e-03
3.013904278548e-03
3.276951901165e-03
4.980912115391e-03
4.947870110015e-03
6.281746031597e-03
4.754938277647e-03
4.049086562566e-03
5.650722723660e-03
3.702976801417e-03
5.256714978839e-03
4.350985938100e-03
3.162560261547e-03
4.389444626696e-03
3.107551561847e-04
5.570276588540e-03
3.849623348552e-03
1.126273983936e-03
1.420667182927e-04
1.360863833351e-03
4.854772327802e-04
1.560697740736e-03
8.673058756762e-04
1.755656307546e-03
1.203610588767e-03
1.888407174825e-03
1.594467441944e-03
2.099468855053e-03
1.942758548472e-03
2.377379617307e-03
2.333598092408e-03
2.693260411448e-03
2.678954143023e-03
3.032771459005e-03
3.062217065278e-03
3.379726233901e-03
3.401133948608e-03


CELL_DATA 2424

SCALARS element_number int
LOOKUP_TABLE default
407
408
409
410
411
412
413
414
415
416
417
418
419
420
421
422
423
424
425
426
427
428
429
430
431
432
433
434
435
436
437
438
439
440
441
442
443
444
445
446
447
448
449
450
451
452
453
454
455
456
457
458
459
460
461
462
463
464
465
466
467
468
469
470
471
472
473
474
475
476
477
478
479
480
481
482
483
484
485
486
487
488
489
490
491
492
493
494
495
496
497
498
499
500
501
502
503
504
505
506
507
508
509
510
511
512
513
514
515
516
517
518
519
520
521
522
523
524
525
526
527
528
529
530
531
532
533
534
535
536
537
538
539
540
541
542
543
544
545
546
547
548
549
550
551
552
553
554
555
556
557
558
559
560
561
562
563
564
565
566
567
568
569
570
571
572
573
574
575
576
577
578
579
580
581
582
583
584
585
586
587
588
589
590
591
592
593
594
595
596
597
598
599
600
601
602
603
604
605
606
607
608
609
610
611
612
613
614
615
616
617
618
619
620
621
622
623
624
625
626
627
628
629
630
631
632
633
634
635
636
637
638
639
640
641
642
643
644
645
646
647
648
649
650
651
652
653
654
655
656
657
658
659
660
661
662
663
664
665
666
667
668
669
670
671
672
673
674
675
676
677
678
679
680
681
682
683
684
685
686
687
688
689
690
691
692
693
694
695
696
697
698
699
700
701
702
703
704
705
706
707
708
709
710
711
712
713
714
715
716
717
718
719
720
721
722
723
724
725
726
727
728
729
730
731
732
733
734
735
736
737
738
739
740
741
742
743
744
745
746
747
748
749
750
751
752
753
754
755
756
757
758
759
760
761
762
763
764
765
766
767
768
769
770
771
772
773
774
775
776
777
778
779
780
781
782
783
784
785
786
787
788
789
790
791
792
793
794
795
796
797
798
799
800
801
802
803
804
805
806
807
808
809
810
811
812
813
814
815
816
817
818
819
820
821
822
823
824
825
826
827
828
829
830
831
832
833
834
835
836
837
838
839
840
841
842
843
844
845
846
847
848
849
850
851
852
853
854
855
856
857
858
859
860
861
862
863
864
865
866
867
868
869
870
871
872
873
874
875
876
877
878
879
880
881
882
883
884
885
886
887
888
889
890
891
892
893
894
895
896
897
898
899
900
901
902
903
904
905
906
907
908
909
910
911
912
913
914
915
916
917
918
919
920
921
922
923
924
925
926
927
928
929
930
931
932
933
934
935
936
937
938
939
940
941
942
943
944
945
946
947
948
949
950
951
952
953
954
955
956
957
958
959
960
961
962
963
964
965
966
967
968
969
970
971
972
973
974
975
976
977
978
979
980
981
982
983
984
985
986
987
988
989
990
991
992
993
994
995
996
997
998
999
1000
1001
1002
1003
1004
1005
1006
1007
1008
1009
1010
1011
1012
1013
1014
1015
1016
1017
1018
1019
1020
1021
1022
1023
1024
1025
1026
1027
1028
1029
1030
1031
1032
1033
1034
1035
1036
1037
1038
1039
1040
1041
1042
1043
1044
1045
1046
1047
1048
1049
1050
1051
1052
1053
1054
1055
1056
1057
1058
1059
1060
1061
1062
1063
1064
1065
1066
1067
1068
1069
1070
1071
1072
1073
1074
1075
1076
1077
1078
1079
1080
1081
1082
1083
1084
1085
1086
1087
1088
1089
1090
1091
1092
1093
1094
1095
1096
1097
1098
1099
1100
1101
1102
1103
1104
1105
1106
1107
1108
1109
1110
1111
1112
1113
1114
1115
1116
1117
1118
1119
1120
1121
1122
1123
1124
1125
1126
1127
1128
1129
1130
1131
1132
1133
1134
1135
1136
1137
1138
1139
1140
1141
1142
1143
1144
1145
1146
1147
1148
1149
1150
1151
1152
1153
1154
1155
1156
1157
1158
1159
1160
1161
1162
1163
1164
1165
1166
1167
1168
1169
1170
1171
1172
1173
1174
1175
1176
1177
1178
1179
1180
1181
1182
1183
1184
1185
1186
1187
1188
1189
1190
1191
1192
1193
1194
1195
1196
1197
1198
1199
1200
1201
1202
1203
1204
1205
1206
1207
1208
1209
1210
1211
1212
1213
1214
1215
1216
1217
1218
1219
1220
1221
1222
1223
1224
1225
1226
1227
1228
1229
1230
1231
1232
1233
1234
1235
1236
1237
1238
1239
1240
1241
1242
1243
1244
1245
1246
1247
1248
1249
1250
1251
1252
1253
1254
1255
1256
1257
1258
1259
1260
1261
1262
1263
1264
1265
1266
1267
1268
1269
1270
1271
1272
1273
1274
1275
1276
1277
1278
1279
1280
1281
1282
1283
1284
1285
1286
1287
1288
1289
1290
1291
1292
1293
1294
1295
1296
1297
1298
1299
1300
1301
1302
1303
1304
1305
1306
1307
1308
1309
1310
1311
1312
1313
1314
1315
1316
1317
1318
1319
1320
1321
1322
1323
1324
1325
1326
1327
1328
1329
1330
1331
1332
1333
1334
1335
1336
1337
1338
1339
1340
1341
1342
1343
1344
1345
1346
1347
1348
1349
1350
1351
1352
1353
1354
1355
1356
1357
1358
1359
1360
1361
1362
1363
1364
1365
1366
1367
1368
1369
1370
1371
1372
1373
1374
1375
1376
1377
1378
1379
1380
1381
1382
1383
1384
1385
1386
1387
1388
1389
1390
1391
1392
1393
1394
1395
1396
1397
1398
1399
1400
1401
1402
1403
1404
1405
1406
1407
1408
1409
1410
1411
1412
1413
1414
1415
1416
1417
1418
1419
1420
1421
1422
1423
1424
1425
1426
1427
1428
1429
1430
1431
1432
1433
1434
1435
1436
1437
1438
1439
1440
1441
1442
1443
1444
1445
1446
1447
1448
1449
1450
1451
1452
1453
1454
1455
1456
1457
1458
1459
1460
1461
1462
1463
1464
1465
1466
1467
1468
1469
1470
1471
1472
1473
1474
1475
1476
1477
1478
1479
1480
1481
1482
1483
1484
1485
1486
1487
1488
1489
1490
1491
1492
1493
1494
1495
1496
1497
1498
1499
1500
1501
1502
1503
1504
1505
1506
1507
1508
1509
1510
1511
1512
1513
1514
1515
1516
1517
1518
1519
1520
1521
1522
1523
1524
1525
1526
1527
1528
1529
1530
1531
1532
1533
1534
1535
1536
1537
1538
1539
1540
1541
1542
1543
1544
1545
1546
1547
1548
1549
1550
1551
1552
1553
1554
1555
1556
1557
1558
1559
1560
1561
1562
1563
1564
1565
1566
1567
1568
1569
1570
1571
1572
1573
1574
1575
1576
1577
1578
1579
1580
1581
1582
1583
1584
1585
1586
1587
1588
1589
1590
1591
1592
1593
1594
1595
1596
1597
1598
1599
1600
1601
1602
1603
1604
1605
1606
1607
1608
1609
1610
1611
1612
1613
1614
1615
1616
1617
1618
1619
1620
1621
1622
1623
1624
1625
1626
1627
1628
1629
1630
1631
1632
1633
1634
1635
1636
1637
1638
1639
1640
1641
1642
1643
1644
1645
1646
1647
1648
1649
1650
1651
1652
1653
1654
1655
1656
1657
1658
1659
1660
1661
1662
1663
1664
1665
1666
1667
1668
1669
1670
1671
1672
1673
1674
1675
1676
1677
1678
1679
1680
1681
1682
1683
1684
1685
1686
1687
1688
1689
1690
1691
1692
1693
1694
1695
1696
1697
1698
1699
1700
1701
1702
1703
1704
1705
1706
1707
1708
1709
1710
1711
1712
1713
1714
1715
1716
1717
1718
1719
1720
1721
1722
1723
1724
1725
1726
1727
1728
1729
1730
1731
1732
1733
1734
1735
1736
1737
1738
1739
1740
1741
1742
1743
1744
1745
1746
1747
1748
1749
1750
1751
1752
1753
1754
1755
1756
1757
1758
1759
1760
1761
1762
1763
1764
1765
1766
1767
1768
1769
1770
1771
1772
1773
1774
1775
1776
1777
1778
1779
1780
1781
1782
1783
1784
1785
1786
1787
1788
1789
1790
1791
1792
1793
1794
1795
1796
1797
1798
1799
1800
1801
1802
1803
1804
1805
1806
1807
1808
1809
1810
1811
1812
1813
1814
1815
1816
1817
1818
1819
1820
1821
1822
1823
1824
1825
1826
1827
1828
1829
1830
1831
1832
1833
1834
1835
1836
1837
1838
1839
1840
1841
1842
1843
1844
1845
1846
1847
1848
1849
1850
1851
1852
1853
1854
1855
1856
1857
1858
1859
1860
1861
1862
1863
1864
1865
1866
1867
1868
1869
1870
1871
1872
1873
1874
1875
1876
1877
1878
1879
1880
1881
1882
1883
1884
1885
1886
1887
1888
1889
1890
1891
1892
1893
1894
1895
1896
1897
1898
1899
1900
1901
1902
1903
1904
1905
1906
1907
1908
1909
1910
1911
1912
1913
1914
1915
1916
1917
1918
1919
1920
1921
1922
1923
1924
1925
1926
1927
1928
1929
1930
1931
1932
1933
1934
1935
1936
1937
1938
1939
1940
1941
1942
1943
1944
1945
1946
1947
1948
1949
1950
1951
1952
1953
1954
1955
1956
1957
1958
1959
1960
1961
1962
1963
1964
1965
1966
1967
1968
1969
1970
1971
1972
1973
1974
1975
1976
1977
1978
1979
1980
1981
1982
1983
1984
1985
1986
1987
1988
1989
1990
1991
1992
1993
1994
1995
1996
1997
1998
1999
2000
2001
2002
2003
2004
2005
2006
2007
2008
2009
2010
2011
2012
2013
2014
2015
2016
2017
2018
2019
2020
2021
2022
2023
2024
2025
2026
2027
2028
2029
2030
2031
2032
2033
2034
2035
2036
2037
2038
2039
2040
2041
2042
2043
2044
2045
2046
2047
2048
2049
2050
2051
2052
2053
2054
2055
2056
2057
2058
2059
2060
2061
2062
2063
2064
2065
2066
2067
2068
2069
2070
2071
2072
2073
2074
2075
2076
2077
2078
2079
2080
2081
2082
2083
2084
2085
2086
2087
2088
2089
2090
2091
2092
2093
2094
2095
2096
2097
2098
2099
2100
2101
2102
2103
2104
2105
2106
2107
2108
2109
2110
2111
2112
2113
2114
2115
2116
2117
2118
2119
2120
2121
2122
2123
2124
2125
2126
2127
2128
2129
2130
2131
2132
2133
2134
2135
2136
2137
2138
2139
2140
2141
2142
2143
2144
2145
2146
2147
2148
2149
2150
2151
2152
2153
2154
2155
2156
2157
2158
2159
2160
2161
2162
2163
2164
2165
2166
2167
2168
2169
2170
2171
2172
2173
2174
2175
2176
2177
2178
2179
2180
2181
2182
2183
2184
2185
2186
2187
2188
2189
2190
2191
2192
2193
2194
2195
2196
2197
2198
2199
2200
2201
2202
2203
2204
2205
2206
2207
2208
2209
2210
2211
2212
2213
2214
2215
2216
2217
2218
2219
2220
2221
2222
2223
2224
2225
2226
2227
2228
2229
2230
2231
2232
2233
2234
2235
2236
2237
2238
2239
2240
2241
2242
2243
2244
2245
2246
2247
2248
2249
2250
2251
2252
2253
2254
2255
2256
2257
2258
2259
2260
2261
2262
2263
2264
2265
2266
2267
2268
2269
2270
2271
2272
2273
2274
2275
2276
2277
2278
2279
2280
2281
2282
2283
2284
2285
2286
2287
2288
2289
2290
2291
2292
2293
2294
2295
2296
2297
2298
2299
2300
2301
2302
2303
2304
2305
2306
2307
2308
2309
2310
2311
2312
2313
2314
2315
2316
2317
2318
2319
2320
2321
2322
2323
2324
2325
2326
2327
2328
2329
2330
2331
2332
2333
2334
2335
2336
2337
2338
2339
2340
2341
2342
2343
2344
2345
2346
2347
2348
2349
2350
2351
2352
2353
2354
2355
2356
2357
2358
2359
2360
2361
2362
2363
2364
2365
2366
2367
2368
2369
2370
2371
2372
2373
2374
2375
2376
2377
2378
2379
2380
2381
2382
2383
2384
2385
2386
2387
2388
2389
2390
2391
2392
2393
2394
2395
2396
2397
2398
2399
2400
2401
2402
2403
2404
2405
2406
2407
2408
2409
2410
2411
2412
2413
2414
2415
2416
2417
2418
2419
2420
2421
2422
2423
2424
2425
2426
2427
2428
2429
2430
2431
2432
2433
2434
2435
2436
2437
2438
2439
2440
2441
2442
2443
2444
2445
2446
2447
2448
2449
2450
2451
2452
2453
2454
2455
2456
2457
2458
2459
2460
2461
2462
2463
2464
2465
2466
2467
2468
2469
2470
2471
2472
2473
2474
2475
2476
2477
2478
2479
2480
2481
2482
2483
2484
2485
2486
2487
2488
2489
2490
2491
2492
2493
2494
2495
2496
2497
2498
2499
2500
2501
2502
2503
2504
2505
2506
2507
2508
2509
2510
2511
2512
2513
2514
2515
2516
2517
2518
2519
2520
2521
2522
2523
2524
2525
2526
2527
2528
2529
2530
2531
2532
2533
2534
2535
2536
2537
2538
2539
2540
2541
2542
2543
2544
2545
2546
2547
2548
2549
2550
2551
2552
2553
2554
2555
2556
2557
2558
2559
2560
2561
2562
2563
2564
2565
2566
2567
2568
2569
2570
2571
2572
2573
2574
2575
2576
2577
2578
2579
2580
2581
2582
2583
2584
2585
2586
2587
2588
2589
2590
2591
2592
2593
2594
2595
2596
2597
2598
2599
2600
2601
2602
2603
2604
2605
2606
2607
2608
2609
2610
2611
2612
2613
2614
2615
2616
2617
2618
2619
2620
2621
2622
2623
2624
2625
2626
2627
2628
2629
2630
2631
2632
2633
2634
2635
2636
2637
2638
2639
2640
2641
2642
2643
2644
2645
2646
2647
2648
2649
2650
2651
2652
2653
2654
2655
2656
2657
2658
2659
2660
2661
2662
2663
2664
2665
2666
2667
2668
2669
2670
2671
2672
2673
2674
2675
2676
2677
2678
2679
2680
2681
2682
2683
2684
2685
2686
2687
2688
2689
2690
2691
2692
2693
2694
2695
2696
2697
2698
2699
2700
2701
2702
2703
2704
2705
2706
2707
2708
2709
2710
2711
2712
2713
2714
2715
2716
2717
2718
2719
2720
2721
2722
2723
2724
2725
2726
2727
2728
2729
2730
2731
2732
2733
2734
2735
2736
2737
2738
2739
2740
2741
2742
2743
2744
2745
2746
2747
2748
2749
2750
2751
2752
2753
2754
2755
2756
2757
2758
2759
2760
2761
2762
2763
2764
2765
2766
2767
2768
2769
2770
2771
2772
2773
2774
2775
2776
2777
2778
2779
2780
2781
2782
2783
2784
2785
2786
2787
2788
2789
2790
2791
2792
2793
2794
2795
2796
2797
2798
2799
2800
2801
2802
2803
2804
2805
2806
2807
2808
2809
2810
2811
2812
2813
2814
2815
2816
2817
2818
2819
2820
2821
2822
2823
2824
2825
2826
2827
2828
2829
2830

SCALARS element_group int
LOOKUP_TABLE default
0
0
0
0
0
0
0
0
0
0
0
0
0
0
0
0
0
0
0
0
0
0
0
0
0
0
0
0
0
0
0
0
0
0
0
0
0
0
0
0
0
0
0
0
0
0
0
0
0
0
0
0
0
0
0
0
0
0
0
0
0
0
0
0
0
0
0
0
0
0
0
0
0
0
0
0
0
0
0
0
0
0
0
0
0
0
0
0
0
0
0
0
0
0
0
0
0
0
0
0
0
0
0
0
0
0
0
0
0
0
0
0
0
0
0
0
0
0
0
0
0
0
0
0
0
0
0
0
0
0
0
0
0
0
0
0
0
0
0
0
0
0
0
0
0
0
0
0
0
0
0
0
0
0
0
0
0
0
0
0
0
0
0
0
0
0
0
0
0
0
0
0
0
0
0
0
0
0
0
0
0
0
0
0
0
0
0
0
0
0
0
0
0
0
0
0
0
0
0
0
0
0
0
0
0
0
0
0
0
0
0
0
0
0
0
0
0
0
0
0
0
0
0
0
0
0
0
0
0
0
0
0
0
0
0
0
0
0
0
0
0
0
0
0
0
0
0
0
0
0
0
0
0
0
0
0
0
0
0
0
0
0
0
0
0
0
0
0
0
0
0
0
0
0
0
0
0
0
0
0
0
0
0
0
0
0
0
0
0
0
0
0
0
0
0
0
0
0
0
0
0
0
0
0
0
0
0
0
0
0
0
0
0
0
0
0
0
0
0
0
0
0
0
0
0
0
0
0
0
0
0
0
0
0
0
0
0
0
0
0
0
0
0
0
0
0
0
0
0
0
0
0
0
0
0
0
0
0
0
0
0
0
0
0
0
0
0
0
0
0
0
0
0
0
0
0
0
0
0
0
0
0
0
0
0
0
0
0
0
0
0
0
0
0
0
0
0
0
0
0
0
0
0
0
0
0
0
0
0
0
0
0
0
0
0
0
0
0
0
0
0
0
0
0
0
0
0
0
0
0
0
0
0
0
0
0
0
0
0
0
0
0
0
0
0
0
0
0
0
0
0
0
0
0
0
0
0
0
0
0
0
0
0
0
0
0
0
0
0
0
0
0
0
0
0
0
0
0
0
0
0
0
0
0
0
0
0
0
0
0
0
0
0
0
0
0
0
0
0
0
0
0
0
0
0
0
0
0
0
0
0
0
0
0
0
0
0
0
0
0
0
0
0
0
0
0
0
0
0
0
0
0
0
0
0
0
0
0
0
0
0
0
0
0
0
0
0
0
0
0
0
0
0
0
0
0
0
0
0
0
0
0
0
0
0
0
0
0
0
0
0
0
0
0
0
0
0
0
0
0
0
0
0
0
0
0
0
0
0
0
0
0
0
0
0
0
0
0
0
0
0
0
0
0
0
0
0
0
0
0
0
0
0
0
0
0
0
0
0
0
0
0
0
0
0
0
0
0
0
0
0
0
0
0
0
0
0
0
0
0
0
0
0
0
0
0
0
0
0
0
0
0
0
0
0
0
0
0
0
0
0
0
0
0
0
0
0
0
0
0
0
0
0
0
0
0
0
0
0
0
0
0
0
0
0
0
0
0
0
0
0
0
0
0
0
0
0
0
0
0
0
0
0
0
0
0
0
0
0
0
0
0
0
0
0
0
0
0
0
0
0
0
0
0
0
0
0
0
0
0
0
0
0
0
0
0
0
0
0
0
0
0
0
0
0
0
0
0
0
0
0
0
0
0
0
0
0
0
0
0
0
0
0
0
0
0
0
0
0
0
0
0
0
0
0
0
0
0
0
0
0
0
0
0
0
0
0
0
0
0
0
0
0
0
0
0
0
0
0
0
0
0
0
0
0
0
0
0
0
0
0
0
0
0
0
0
0
0
0
0
0
0
0
0
0
0
0
0
0
0
0
0
0
0
0
0
0
0
0
0
0
0
0
0
0
0
0
0
0
0
0
0
0
0
0
0
0
0
0
0
0
0
0
0
0
0
0
0
0
0
0
0
0
0
0
0
0
0
0
0
0
0
0
0
0
0
0
0
0
0
0
0
0
0
0
0
0
0
0
0
0
0
0
0
0
0
0
0
0
0
0
0
0
0
0
0
0
0
0
0
0
0
0
0
0
0
0
0
0
0
0
0
0
0
0
0
0
0
0
0
0
0
0
0
0
0
0
0
0
0
0
0
0
0
0
0
0
0
0
0
0
0
0
0
0
0
0
0
0
0
0
0
0
0
0
0
0
0
0
0
0
0
0
0
0
0
0
0
0
0
0
0
0
0
0
0
0
0
0
0
0
0
0
0
0
0
0
0
0
0
0
0
0
0
0
0
0
0
0
0
0
0
0
0
0
0
0
0
0
0
0
0
0
0
0
0
0
0
0
0
0
0
0
0
0
0
0
0
0
0
0
0
0
0
0
0
0
0
0
0
0
0
0
0
0
0
0
0
0
0
0
0
0
0
0
0
0
0
0
0
0
0
0
0
0
0
0
0
0
0
0
0
0
0
0
0
0
0
0
0
0
0
0
0
0
0
0
0
0
0
0
0
0
0
0
0
0
0
0
0
0
0
0
0
0
0
0
0
0
0
0
0
0
0
0
0
0
0
0
0
0
0
0
0
0
0
0
0
0
0
0
0
0
0
0
0
0
0
0
0
0
0
0
0
0
0
0
0
0
0
0
0
0
0
0
0
0
0
0
0
0
0
0
0
0
0
0
0
0
0
0
0
0
0
0
0
0
0
0
0
0
0
0
0
0
0
0
0
0
0
0
0
0
0
0
0
0
0
0
0
0
0
0
0
0
0
0
0
0
0
0
0
0
0
0
0
0
0
0
0
0
0
0
0
0
0
0
0
0
0
0
0
0
0
0
0
0
0
0
0
0
0
0
0
0
0
0
0
0
0
0
0
0
0
0
0
0
0
0
0
0
0
0
0
0
0
0
0
0
0
0
0
0
0
0
0
0
0
0
0
0
0
0
0
0
0
0
0
0
0
0
0
0
0
0
0
0
0
0
0
0
0
0
0
0
0
0
0
0
0
0
0
0
0
0
0
0
0
0
0
0
0
0
0
0
0
0
0
0
0
0
0
0
0
0
0
0
0
0
0
0
0
0
0
0
0
0
0
0
0
0
0
0
0
0
0
0
0
0
0
0
0
0
0
0
0
0
0
0
0
0
0
0
0
0
0
0
0
0
0
0
0
0
0
0
0
0
0
0
0
0
0
0
0
0
0
0
0
0
0
0
0
0
0
0
0
0
0
0
0
0
0
0
0
0
0
0
0
0
0
0
0
0
0
0
0
0
0
0
0
0
0
0
0
0
0
0
0
0
0
0
0
0
0
0
0
0
0
0
0
0
0
0
0
0
0
0
0
0
0
0
0
0
0
0
0
0
0
0
0
0
0
0
0
0
0
0
0
0
0
0
0
0
0
0
0
0
0
0
0
0
0
0
0
0
0
0
0
0
0
0
0
0
0
0
0
0
0
0
0
0
0
0
0
0
0
0
0
0
0
0
0
0
0
0
0
0
0
0
0
0
0
0
0
0
0
0
0
0
0
0
0
0
0
0
0
0
0
0
0
0
0
0
0
0
0
0
0
0
0
0
0
0
0
0
0
0
0
0
0
0
0
0
0
0
0
0
0
0
0
0
0
0
0
0
0
0
0
0
0
0
0
0
0
0
0
0
0
0
0
0
0
0
0
0
0
0
0
0
0
0
0
0
0
0
0
0
0
0
0
0
0
0
0
0
0
0
0
0
0
0
0
0
0
0
0
0
0
0
0
0
0
0
0
0
0
0
0
0
0
0
0
0
0
0
0
0
0
0
0
0
0
0
0
0
0
0
0
0
0
0
0
0
0
0
0
0
0
0
0
0
0
0
0
0
0
0
0
0
0
0
0
0
0
0
0
0
0
0
0
0
0
0
0
0
0
0
0
0
0
0
0
0
0
0
0
0
0
0
0
0
0
0
0
0
0
0
0
0
0
0
0
0
0
0
0
0
0
0
0
0
0
0
0
0
0
0
0
0
0
0
0
0
0
0
0
0
0
0
0
0
0
0
0
0
0
0
0
0
0
0
0
0
0
0
0
0
0
0
0
0
0
0
0
0
0
0
0
0
0
0
0
0
0
0
0
0
0
0
0
0
0
0
0
0
0
0
0
0
0
0
0
0
0
0
0
0
0
0
0
0
0
0
0
0
0
0
0
0
0
0
0
0
0
0
0
0
0
0
0
0
0
0
0
0
0
0
0
0
0
0
0
0
0
0
0
0
0
0
0
0
0
0
0
0
0
0
0
0
0
0
0
0
0
0
0
0
0
0
0
0
0
0
0
0
0
0
0
0
0
0
0
0
0
0
0
0
0
0
0
0
0
0
0
0
0
0
0
0
0
0
0
0
0
0
0
0
0
0
0
0
0
0
0
0
0
0
0
0
0
0
0
0
0
0
0
0
0
0
0
0
0
0
0
0
0
0
0
0
0
0
0
0
0
0
0
0
0
0
0
0
0
0
0
0
0
0
0
0
0
0
0
0
0
0
0
0
0
0
0
0
0
0
0
0
0
0
0
0
0
0
0
0
0
0
0
0
0
0
0
0
0
0
0
0
0
0
0
0
0
0
0
0
0
0
0
0
0
0
0
0
0
0
0
0
0
0
0
0
0
0
0
0
0
0
0
0
0
0
0
0
0
0
0
0
0
0
0
0
0
0
0
0
0
0
0
0
0
0
0
0
0
0
0
0
0
0
0
0
0
0
0
0
0
0
0
0
0
0
0
0
0
0
0
0
0
0
0
0
0
0
0
0
0
0
0
0
0
0
0
0
0
0
0
0
0
0
0
0
0
0
0
0
0
0
0
0
0
0
0
0
0
0
0
0
0
0
0
0
0
0
0
0
0
0
0
0
0
0
0
0
0
0
0
0
0
0
0
0
0
0
0
0
0
0
0
0
0
0
0
0
0
0
0
0
0
0
0
0
0
0
0
0
0
0
0
0
0
0
0
0
0
0
0
0
0
0
0
0
0
0
0
0
0
0
0
0
0
0
0
0
0
0
0
0
0
0
0
0
0
0
0
0
0
0
0
0
0
0
0
0
0
0
0
0
0
0
0
0
0
0
0
0
0
0
0
0
0
0
0
0
0
0
0
0
0
0
0
0
0
0
0
0
0
0
0
0
0
0
0
0
0
0
0
0
0
0
0
0
0
0
0
0
0
0
0
0
0
0
0
0
0
0
0
0
0
0
0
0
0
0
0
0
0
0
0
0
0
0
0
0
0
0
0
0
0
0
0
0
0
0
0
0
0
0
0
0
0
0
0
0
0
0
0
0
0
0
0
0
0
0
0
0
0
0
0
0
0
0
0
0
0
0
0
0
0
0
0
0
0
0
0
0
0
0
0
0
0
0
0
0
0
0
0
0
0
0
0
0
0
0
0
0
0
0
0
0
0
0
0
0
0
0
0
0
0
0
0
0
0
0
0
0
0
0
0
0
0
0
0
0
0
0
0


VECTORS element_materi_velocity float
3.760065903916e-03 -1.839320069804e-01 0.0 
3.962525135697e-03 -1.838749531972e-01 0.0 
9.006228669857e-04 -2.340262079599e-02 0.0 
1.547047697268e-04 -2.919165101971e-02 0.0 
1.338007143225e-03 -1.293040499836e-01 0.0 
2.728830563713e-03 -2.250739585350e-01 0.0 
1.008644348567e-03 -1.283658142056e-01 0.0 
3.948202633914e-03 -1.870744144725e-01 0.0 
1.117139833303e-03 -1.289537515865e-01 0.0 
2.197105359975e-04 -2.987486837371e-02 0.0 
-5.392616128593e-04 -1.161338822740e-01 0.0 
3.677507487643e-03 -1.896859226607e-01 0.0 
-2.500587737110e-04 -2.878917430824e-02 0.0 
2.028259163814e-03 -1.198755536344e-01 0.0 
-2.093186682130e-04 -2.037420525832e-02 0.0 
1.301494787892e-04 -2.093226641002e-02 0.0 
1.732059474151e-03 -1.331071805734e-01 0.0 
2.321513328740e-03 -2.267871466034e-01 0.0 
-8.979471609763e-05 -1.889763491357e-01 0.0 
-1.230267326023e-04 -1.874277636776e-01 0.0 
2.626527962272e-04 -3.059219323605e-02 0.0 
3.808395146053e-03 -1.769053054321e-01 0.0 
3.924694269657e-03 -1.738548304756e-01 0.0 
-4.944108366867e-04 -4.342501994200e-02 0.0 
2.309334334760e-03 -1.088381047260e-01 0.0 
-5.895502081258e-04 -1.091814257475e-01 0.0 
2.684009411365e-03 -1.431454977597e-01 0.0 
1.074143299078e-03 -2.745170695493e-02 0.0 
2.435978796897e-03 -1.092656391976e-01 0.0 
-4.583321337622e-04 -3.575679261927e-02 0.0 
-2.158248810971e-03 -2.192571924552e-01 0.0 
2.194899882347e-03 -2.019462912124e-01 0.0 
1.050297028416e-03 -2.806256353743e-02 0.0 
-1.695032857020e-04 -7.188010178159e-02 0.0 
-7.993057554874e-04 -3.043796163919e-02 0.0 
-3.074831512821e-04 -1.316599180749e-02 0.0 
-2.955986542840e-04 -1.321714161074e-02 0.0 
4.135462079705e-04 -2.820359969646e-02 0.0 
8.148959070537e-04 -1.384595771044e-01 0.0 
7.362494023544e-04 -1.385990864679e-01 0.0 
3.800216444423e-03 -1.643299604742e-01 0.0 
-5.732026111813e-04 -2.330952901866e-02 0.0 
3.537699347283e-03 -1.958676240410e-01 0.0 
2.799713584361e-03 -1.401790409231e-01 0.0 
7.963737919127e-05 -4.043660051286e-02 0.0 
3.725408698153e-03 -1.970722276266e-01 0.0 
-1.745991715751e-03 -2.221868706308e-01 0.0 
9.532920041274e-05 -3.472976157824e-02 0.0 
-1.959864313504e-04 -2.224856379094e-01 0.0 
1.997658305277e-03 -1.250993583257e-01 0.0 
3.878563548986e-03 -1.692001558958e-01 0.0 
-2.405044461854e-04 -1.848408187978e-01 0.0 
-2.171459321222e-03 -2.124367106442e-01 0.0 
3.735011687272e-03 -1.681057493917e-01 0.0 
7.088693023317e-04 -2.217085652358e-02 0.0 
-6.679838037015e-04 -1.764913330553e-01 0.0 
-2.269515993194e-04 -1.829728067703e-01 0.0 
-3.399961247285e-04 -7.248554186523e-02 0.0 
1.602523984507e-04 -1.927531858380e-01 0.0 
1.488531988460e-04 -2.112370674481e-02 0.0 
7.036670512116e-04 -2.338253346189e-01 0.0 
1.333768713448e-03 -4.306252598644e-02 0.0 
4.715565270768e-03 -1.728393060320e-01 0.0 
-2.360443518993e-03 -2.145022490248e-01 0.0 
-3.960988087136e-04 -2.931216703911e-02 0.0 
3.779539667488e-03 -1.727227775997e-01 0.0 
4.276882545452e-04 -2.346939668529e-01 0.0 
1.100539771667e-03 -2.804131417618e-02 0.0 
-1.431584662773e-03 -2.025361611116e-01 0.0 
9.821692641567e-04 -2.251584649896e-02 0.0 
-8.622599508075e-04 -1.017314561589e-01 0.0 
1.306833250492e-04 -6.156293032166e-03 0.0 
1.407213790132e-03 -3.673839174753e-02 0.0 
6.837316033345e-05 -1.946107611495e-01 0.0 
-6.319315077910e-04 -1.738805646374e-01 0.0 
4.637922493979e-04 -2.736462803565e-02 0.0 
8.713694626000e-04 -2.683844416319e-02 0.0 
3.426967875391e-03 -2.056372614652e-01 0.0 
1.670037802664e-05 -1.922381796585e-01 0.0 
3.204361838309e-03 -2.039218439029e-01 0.0 
-1.771032573126e-03 -2.040750900474e-01 0.0 
1.634094393014e-03 -1.301623330717e-01 0.0 
3.946950128623e-03 -1.782458677100e-01 0.0 
3.779913392451e-03 -1.813511211219e-01 0.0 
1.266742295289e-03 -1.228821309601e-01 0.0 
1.166641306689e-03 -1.224789101551e-01 0.0 
-5.130532338671e-04 -9.511008894738e-02 0.0 
-9.078537592843e-05 -7.920883198361e-02 0.0 
2.618676139981e-03 -7.298588787675e-02 0.0 
1.439447580702e-03 -1.289741341868e-01 0.0 
1.798056596327e-03 -2.025504806536e-01 0.0 
2.714198966288e-03 -1.307862053581e-01 0.0 
2.330172394108e-04 -7.533821726050e-02 0.0 
2.799232705868e-04 -8.050357162155e-02 0.0 
2.557995553599e-04 -1.147178906853e-02 0.0 
3.206883060875e-04 -1.967227349569e-02 0.0 
1.832712461428e-03 -1.307305931483e-01 0.0 
-7.116185096904e-04 -2.829141744626e-02 0.0 
1.672035709688e-04 -1.098577720655e-01 0.0 
4.600374540594e-03 -1.759148018651e-01 0.0 
1.293811587838e-03 -1.345250365784e-01 0.0 
-2.619190719483e-04 -2.095481891755e-02 0.0 
2.062432058396e-03 -8.625456078698e-02 0.0 
1.247264941489e-03 -4.346963977643e-02 0.0 
4.803649777684e-03 -1.851195776629e-01 0.0 
-1.417366971108e-03 -2.206007266352e-01 0.0 
-2.842706416650e-04 -4.726466608772e-02 0.0 
2.384155269651e-04 -6.622492239222e-02 0.0 
4.318685473111e-04 -2.269865875715e-01 0.0 
-4.298543712596e-04 -2.168176047797e-02 0.0 
2.865086803298e-03 -8.104591857710e-02 0.0 
1.519125857042e-04 -1.952323450432e-01 0.0 
4.520525881974e-03 -1.655938330648e-01 0.0 
3.289767582811e-03 -1.439323094580e-01 0.0 
-1.178526500437e-03 -1.634653701136e-01 0.0 
4.544941607167e-03 -1.800941108491e-01 0.0 
4.776406791503e-03 -1.739519110659e-01 0.0 
-6.023129263032e-04 -2.229541189034e-02 0.0 
2.073673438312e-04 -1.149758095973e-01 0.0 
4.762578665908e-03 -1.784877404050e-01 0.0 
-5.558521275928e-04 -1.990017678447e-01 0.0 
2.816238101599e-03 -1.339192520126e-01 0.0 
1.863009076368e-04 -6.134520934592e-02 0.0 
4.809636892912e-03 -1.795429131665e-01 0.0 
2.815731609099e-03 -2.156667211435e-01 0.0 
3.581517905406e-03 -1.545305925730e-01 0.0 
-1.026892074367e-03 -1.656072390402e-01 0.0 
3.557690659673e-03 -1.586734730268e-01 0.0 
3.571581288418e-04 -1.970079529611e-02 0.0 
3.471693824867e-03 -2.153338705723e-01 0.0 
-8.189261805828e-04 -1.085360577359e-01 0.0 
1.283755450726e-04 -2.888687025056e-02 0.0 
4.429820559905e-03 -1.556172384892e-01 0.0 
3.695937102427e-03 -1.593973356717e-01 0.0 
-8.004909588184e-04 -3.049479315300e-02 0.0 
-1.717710394833e-04 -2.825736706268e-02 0.0 
-7.131852106810e-04 -9.504212288519e-02 0.0 
4.387627040603e-03 -1.505958143264e-01 0.0 
-4.438659668335e-04 -2.648342495732e-02 0.0 
4.226938505062e-03 -1.584849592623e-01 0.0 
2.823901203942e-04 -2.171023751937e-02 0.0 
1.151076644371e-03 -2.668767299666e-02 0.0 
2.140042654596e-03 -1.196263310977e-01 0.0 
5.391535684457e-04 -9.439789855273e-02 0.0 
4.345898725622e-03 -1.594468811731e-01 0.0 
3.654321406138e-03 -1.634320844109e-01 0.0 
4.418979667447e-03 -1.463190147558e-01 0.0 
4.792748512804e-03 -1.777391764990e-01 0.0 
9.530558026119e-04 -1.336065936519e-01 0.0 
4.363510290991e-03 -1.668699701141e-01 0.0 
1.768007720921e-03 -2.008101737222e-01 0.0 
2.303224655730e-04 -1.256036749848e-01 0.0 
3.290029102225e-05 -1.910119423454e-01 0.0 
3.447261965127e-03 -1.493629023319e-01 0.0 
-4.208028993039e-04 -2.227539849002e-02 0.0 
4.783549798477e-03 -1.838394384272e-01 0.0 
-3.903421677394e-04 -8.764950661332e-02 0.0 
3.805343416009e-03 -1.928769100908e-01 0.0 
2.244889105572e-03 -8.580980945406e-02 0.0 
5.397865114198e-04 -1.301891277433e-01 0.0 
4.390028835260e-03 -1.722580795696e-01 0.0 
-3.831005260915e-04 -6.454886063577e-02 0.0 
-8.392624535080e-04 -1.999576790770e-01 0.0 
-3.969808652734e-04 -4.749440038740e-02 0.0 
3.581874447647e-03 -1.356555961293e-01 0.0 
-5.014909429405e-04 -2.704375137921e-02 0.0 
2.268909750107e-04 -1.311152234454e-01 0.0 
4.798230590721e-03 -1.823478481338e-01 0.0 
3.307158994661e-03 -1.486467991211e-01 0.0 
-3.509263623625e-04 -1.178175240481e-01 0.0 
3.597825383790e-03 -1.921152347523e-01 0.0 
4.165589960151e-03 -1.733486556701e-01 0.0 
4.751550497816e-04 -8.704390369617e-02 0.0 
6.069893119609e-04 -1.337550514485e-01 0.0 
4.702357486419e-03 -1.745966154408e-01 0.0 
3.443704880122e-03 -1.538308343255e-01 0.0 
2.427509159869e-03 -6.128307145816e-02 0.0 
-1.214572034131e-03 -1.582486224097e-01 0.0 
8.425314645371e-04 -2.201311295813e-02 0.0 
1.178304241484e-03 -2.731157740210e-02 0.0 
4.372329139582e-03 -1.823005025538e-01 0.0 
-1.076326236982e-03 -1.555235725980e-01 0.0 
-1.489194259372e-04 -5.911284086809e-02 0.0 
4.102709656616e-03 -1.620481687225e-01 0.0 
4.236136533316e-03 -1.859634809614e-01 0.0 
3.384464847658e-03 -1.395926023371e-01 0.0 
4.670586709359e-03 -1.694783866197e-01 0.0 
2.126929225295e-04 -2.285089116011e-02 0.0 
2.584642461687e-03 -7.853116036519e-02 0.0 
-2.697961535329e-04 -5.589348604147e-02 0.0 
3.594682020976e-03 -2.012783261897e-01 0.0 
3.856603357273e-03 -1.795646944849e-01 0.0 
2.529167950172e-03 -7.203318633952e-02 0.0 
-2.736210747187e-03 -2.339762223316e-01 0.0 
3.970557231199e-03 -1.610935674235e-01 0.0 
-8.059885098452e-04 -7.740890108837e-02 0.0 
8.169555566621e-04 -1.959720615246e-01 0.0 
9.957271914731e-04 -2.899680387273e-02 0.0 
2.511116636480e-03 -9.673378104113e-02 0.0 
-3.268532515084e-03 -1.677122256817e-01 0.0 
-6.091356098184e-04 -7.715479048357e-02 0.0 
2.710238652604e-03 -1.251413100630e-01 0.0 
2.288200345576e-03 -1.143793825778e-01 0.0 
-5.576545562130e-04 -3.574613933797e-02 0.0 
-2.818110170074e-03 -1.817520001942e-01 0.0 
4.474331748569e-03 -1.427477918644e-01 0.0 
3.745995732671e-03 -1.314213121181e-01 0.0 
2.343269586336e-03 -8.957536576080e-02 0.0 
3.501398502222e-03 -1.300899236024e-01 0.0 
3.517732757273e-03 -1.402815299162e-01 0.0 
2.200446529137e-03 -1.100961075818e-01 0.0 
2.669956458739e-03 -6.900620308287e-02 0.0 
8.605593948167e-04 -2.331778508045e-01 0.0 
4.236731628901e-03 -1.808929373747e-01 0.0 
4.500410374333e-03 -1.745501929783e-01 0.0 
4.494330394413e-03 -1.472872113688e-01 0.0 
2.345641602799e-03 -7.048136475536e-02 0.0 
3.225085207275e-03 -2.179401092169e-01 0.0 
-1.171657487662e-03 -8.632316763786e-02 0.0 
6.855833033209e-04 -1.324271370590e-01 0.0 
4.161414196072e-03 -1.784757725987e-01 0.0 
-1.536185549686e-03 -9.478473138813e-02 0.0 
1.548579193805e-03 -1.987087693502e-01 0.0 
2.272300293607e-03 -8.272961390437e-02 0.0 
1.902704822218e-03 -1.988744599419e-01 0.0 
5.314394376170e-04 -1.949060877423e-01 0.0 
3.399142426050e-03 -1.997852218846e-01 0.0 
-2.474499560556e-03 -1.877170630615e-01 0.0 
2.074608311860e-03 -7.504321272255e-02 0.0 
-2.347051478550e-03 -1.906514792682e-01 0.0 
4.480964971932e-03 -2.001296954136e-01 0.0 
-2.998794825877e-03 -2.078188709684e-01 0.0 
-1.024876028190e-03 -1.968516617276e-01 0.0 
-2.684740262058e-04 -6.830796447465e-02 0.0 
3.709046264238e-03 -1.363081845216e-01 0.0 
-4.613198133140e-04 -2.953189394094e-02 0.0 
-9.459837164380e-04 -2.363345550606e-01 0.0 
4.695306340688e-03 -1.947711655804e-01 0.0 
3.897897732874e-03 -1.690058719510e-01 0.0 
4.075920731553e-03 -1.663789682772e-01 0.0 
-9.755028402657e-04 -8.603168369503e-02 0.0 
-5.178247082623e-04 -2.430517079881e-02 0.0 
2.702606551115e-03 -8.548992625160e-02 0.0 
3.667177373095e-03 -1.939776397722e-01 0.0 
-4.642381969570e-04 -6.858924413586e-02 0.0 
-4.327520015366e-04 -1.024447902327e-01 0.0 
4.342790268295e-03 -1.408934245304e-01 0.0 
2.572975476718e-03 -9.092236196672e-02 0.0 
1.144365888111e-03 -3.505877680041e-02 0.0 
3.584389017821e-03 -1.700599291273e-01 0.0 
4.605319283787e-03 -1.967286585258e-01 0.0 
3.417450404815e-03 -1.189356532106e-01 0.0 
2.136885628607e-04 -1.044823092613e-02 0.0 
4.514010613677e-03 -1.436940265538e-01 0.0 
2.379404077448e-03 -1.440516861144e-01 0.0 
5.264317088196e-04 -1.234923338584e-01 0.0 
-1.422777002030e-03 -2.066673466040e-01 0.0 
3.379065782656e-03 -1.294442485469e-01 0.0 
4.055343025666e-03 -1.926253969286e-01 0.0 
3.083413141396e-03 -2.115023620196e-01 0.0 
-2.020418077297e-03 -2.188799420964e-01 0.0 
1.970688517940e-03 -7.446466187389e-02 0.0 
3.647140097825e-03 -1.256403416310e-01 0.0 
4.824254794202e-03 -1.762143807674e-01 0.0 
1.767129853459e-03 -6.652427780522e-02 0.0 
2.682039576131e-03 -7.932406819110e-02 0.0 
4.168095277342e-03 -1.344452993845e-01 0.0 
-5.265274052791e-04 -2.086035630556e-02 0.0 
2.080887409607e-03 -1.382459497724e-01 0.0 
3.970485889471e-03 -1.278166161363e-01 0.0 
4.471934067077e-03 -1.600070048665e-01 0.0 
2.142706698035e-03 -1.315126296508e-01 0.0 
2.873482459420e-03 -2.043651162977e-01 0.0 
2.495187023805e-03 -1.310726452368e-01 0.0 
2.881681925697e-03 -1.665007450928e-01 0.0 
-1.119920114535e-03 -1.942508380826e-01 0.0 
2.597357613090e-03 -8.474322655572e-02 0.0 
-1.242384315806e-03 -2.396694149899e-01 0.0 
3.287386114044e-03 -1.236484849508e-01 0.0 
3.313868393892e-03 -1.905463816136e-01 0.0 
4.624954778942e-03 -1.964236814056e-01 0.0 
2.211182155546e-03 -2.055328852823e-01 0.0 
3.400952276248e-03 -1.133328975594e-01 0.0 
8.619899375443e-04 -2.017998017437e-01 0.0 
4.437911339246e-03 -1.692809862378e-01 0.0 
1.859702968873e-03 -1.252088667210e-01 0.0 
3.529714683967e-03 -1.249615415077e-01 0.0 
2.483296167980e-03 -1.241757799837e-01 0.0 
2.216735102300e-03 -2.240355889391e-01 0.0 
-4.756086348856e-04 -1.944107156509e-01 0.0 
-2.046719966650e-03 -1.978438621322e-01 0.0 
4.309379930224e-03 -1.773219367832e-01 0.0 
2.685514798944e-03 -9.158287835577e-02 0.0 
4.543227207148e-03 -1.703821177664e-01 0.0 
2.796256290324e-03 -1.720918411147e-01 0.0 
3.547270406298e-03 -1.754916347325e-01 0.0 
2.578462167358e-03 -2.199118979165e-01 0.0 
4.281860178513e-03 -1.555506524309e-01 0.0 
4.078663211914e-03 -2.065551295526e-01 0.0 
3.670624379683e-04 -1.111339766201e-02 0.0 
4.467691138269e-04 -1.211885684923e-02 0.0 
4.440338010975e-03 -1.388619078620e-01 0.0 
3.565846516520e-03 -1.985153314459e-01 0.0 
4.401572190610e-03 -2.020519140030e-01 0.0 
3.940944821430e-03 -1.225159128714e-01 0.0 
3.891006034570e-03 -2.013788684999e-01 0.0 
-1.477151733188e-03 -1.984000614743e-01 0.0 
4.257026210160e-03 -1.400329138359e-01 0.0 
3.626709767164e-04 -2.625259767740e-02 0.0 
3.813059897284e-03 -1.845376369092e-01 0.0 
2.450992834784e-03 -1.095716824464e-01 0.0 
4.348811654720e-03 -2.053891197240e-01 0.0 
-1.081801392453e-04 -1.115645036108e-02 0.0 
4.240255745095e-03 -1.997558529560e-01 0.0 
4.323096888059e-03 -1.361244634554e-01 0.0 
2.121252543678e-03 -2.171906300288e-01 0.0 
-3.246793462526e-04 -1.150135817628e-01 0.0 
3.269048706690e-03 -1.654889439671e-01 0.0 
-2.223440209825e-03 -1.933258455449e-01 0.0 
3.862467366111e-03 -1.321304127593e-01 0.0 
4.408613684806e-04 -1.025830215082e-02 0.0 
3.053923279026e-03 -1.817287847050e-01 0.0 
1.516054276917e-03 -1.258646073412e-01 0.0 
4.304057968381e-03 -2.074804623606e-01 0.0 
1.707156888436e-03 -9.968080295441e-02 0.0 
-1.355400868405e-03 -9.451310226044e-02 0.0 
4.652905389155e-03 -1.915451858021e-01 0.0 
1.701535635047e-03 -1.060305061624e-01 0.0 
4.897516059574e-04 -1.101711363167e-02 0.0 
-1.171109734106e-03 -7.833000483325e-02 0.0 
4.562959217964e-04 -1.102804410511e-02 0.0 
2.051585884643e-03 -1.074067056597e-01 0.0 
2.946098602432e-03 -8.193678441415e-02 0.0 
4.285898009246e-03 -1.967879950251e-01 0.0 
3.895896767584e-03 -1.422729169862e-01 0.0 
3.868937971456e-03 -1.270531844160e-01 0.0 
3.749879512654e-03 -1.210055832265e-01 0.0 
4.614193863515e-03 -1.501712951177e-01 0.0 
4.639188091473e-04 -1.116470951883e-02 0.0 
2.560721707603e-03 -1.151162733040e-01 0.0 
3.326273818467e-03 -1.343209934947e-01 0.0 
3.146504459795e-03 -1.765117455942e-01 0.0 
-1.902211793791e-03 -1.927610652382e-01 0.0 
3.692811201373e-03 -1.460090590547e-01 0.0 
4.763546831899e-03 -1.893026954342e-01 0.0 
4.615460510255e-04 -1.335019614792e-01 0.0 
-2.648576724127e-03 -1.926378832690e-01 0.0 
3.411145765541e-03 -1.856816162676e-01 0.0 
2.281815048625e-03 -7.629825318509e-02 0.0 
4.747207149963e-03 -1.908538913357e-01 0.0 
3.946837352917e-03 -1.376843650336e-01 0.0 
1.252405592492e-03 -1.193598167288e-01 0.0 
-2.490217910202e-03 -1.365364939836e-01 0.0 
3.341732843150e-04 -1.054692606858e-02 0.0 
3.977021337000e-03 -1.567085423267e-01 0.0 
5.909021629143e-04 -1.986109174781e-01 0.0 
-3.320703692696e-03 -1.722461960157e-01 0.0 
4.336536896574e-03 -1.875145958961e-01 0.0 
4.573738003609e-03 -1.900644019086e-01 0.0 
2.266486951727e-03 -6.372810523190e-02 0.0 
4.214706595803e-03 -1.302313721357e-01 0.0 
4.201166408832e-03 -1.673692769257e-01 0.0 
3.942662554964e-03 -1.473318703458e-01 0.0 
1.050750570440e-04 -1.182314638857e-02 0.0 
3.314134213282e-04 -3.012258273285e-02 0.0 
2.180357718799e-03 -6.296919147364e-02 0.0 
2.382288473771e-03 -8.337519835120e-02 0.0 
-2.513117927900e-03 -1.425819182950e-01 0.0 
4.719209464335e-03 -1.681677923006e-01 0.0 
3.046698060521e-03 -1.998506259994e-01 0.0 
2.799648980810e-03 -1.916543153680e-01 0.0 
4.379287641366e-03 -1.370106341765e-01 0.0 
-1.557023123909e-04 -1.217649179690e-01 0.0 
-2.655756448657e-03 -1.523847456882e-01 0.0 
1.913797090832e-03 -6.085509975090e-02 0.0 
-1.305195136998e-04 -1.988041768143e-01 0.0 
4.676576529897e-03 -1.565253303941e-01 0.0 
4.074134382860e-03 -1.336373032107e-01 0.0 
4.776552361983e-03 -1.655713823723e-01 0.0 
4.519974846976e-04 -1.157001600255e-02 0.0 
4.235962083739e-04 -1.197545184725e-02 0.0 
1.044663333912e-03 -2.930237231311e-02 0.0 
-2.303632075044e-03 -1.302841325540e-01 0.0 
1.670372093782e-03 -6.591732394819e-02 0.0 
4.546578650317e-03 -1.950538746491e-01 0.0 
2.557664699670e-03 -1.827094664108e-01 0.0 
2.412720473150e-03 -2.129894382578e-01 0.0 
4.458018656400e-03 -1.649838518976e-01 0.0 
2.269498832910e-03 -1.305952192720e-01 0.0 
1.931405184043e-03 -1.069801018009e-01 0.0 
-1.893057144065e-04 -2.799880890761e-02 0.0 
2.432405378458e-03 -6.556308638563e-02 0.0 
3.297454554459e-03 -1.182682717092e-01 0.0 
3.712262461678e-03 -1.154404511458e-01 0.0 
1.944414260329e-03 -2.099114228416e-01 0.0 
3.584947948793e-04 -2.065802695393e-01 0.0 
4.135987155574e-03 -1.623629747552e-01 0.0 
4.500758601191e-03 -1.465858595921e-01 0.0 
4.102928857993e-03 -1.566304852704e-01 0.0 
2.586170929563e-03 -2.128979397306e-01 0.0 
4.402288455256e-04 -1.205246788652e-01 0.0 
-1.632795332344e-03 -1.953169424543e-01 0.0 
4.533908669307e-03 -1.940027358151e-01 0.0 
-4.021590840264e-05 -5.666868615534e-03 0.0 
1.663154670534e-03 -1.035675783124e-01 0.0 
3.205391064649e-03 -1.336848983915e-01 0.0 
6.130410016234e-05 -1.917663615914e-01 0.0 
4.595363512354e-03 -1.492139740211e-01 0.0 
3.894813472567e-03 -1.634083004916e-01 0.0 
3.510629730037e-03 -1.140202853082e-01 0.0 
4.650142796172e-04 -1.058859300160e-02 0.0 
3.774577312345e-03 -1.416058371154e-01 0.0 
4.021967080698e-03 -1.233040193205e-01 0.0 
-2.793364219283e-03 -1.525033547812e-01 0.0 
1.961926935402e-03 -6.772822837429e-02 0.0 
-2.275769176866e-03 -1.238072678093e-01 0.0 
4.934710575291e-04 -1.110158966138e-02 0.0 
2.340591750344e-04 -5.778721934054e-03 0.0 
1.722970337580e-04 -5.465508595495e-03 0.0 
2.288308041637e-04 -6.327562780733e-03 0.0 
3.461942928283e-03 -1.081792295701e-01 0.0 
2.059145492003e-03 -6.833768439000e-02 0.0 
2.063414592327e-03 -5.586067258632e-02 0.0 
4.752177396860e-03 -1.645087227461e-01 0.0 
4.646835566976e-03 -1.670752129218e-01 0.0 
-2.420305832515e-03 -1.569924508503e-01 0.0 
2.002714726590e-03 -6.151257263204e-02 0.0 
4.818101241640e-04 -1.109259682587e-02 0.0 
1.643873831206e-03 -5.897009700112e-02 0.0 
1.904625162601e-03 -1.180131883067e-01 0.0 
1.734751119230e-03 -5.959549672154e-02 0.0 
3.273806645410e-03 -9.731722187374e-02 0.0 
4.578262821273e-03 -1.521934859768e-01 0.0 
4.346915554454e-03 -1.640003992819e-01 0.0 
4.302815754163e-03 -2.058917777021e-01 0.0 
4.966272023500e-04 -2.207030159908e-02 0.0 
4.804425950193e-03 -1.703430569607e-01 0.0 
1.498005484571e-03 -3.715415522811e-02 0.0 
-2.595135321856e-03 -1.570984270691e-01 0.0 
-3.153514545446e-03 -1.951656203008e-01 0.0 
-2.181994622860e-04 -2.250776695607e-02 0.0 
4.707593626150e-03 -1.882770085061e-01 0.0 
2.222367467620e-04 -5.249322171056e-03 0.0 
7.583934024003e-04 -2.210854808235e-02 0.0 
4.147925885356e-03 -1.249482618264e-01 0.0 
1.711568110639e-03 -2.075529885178e-01 0.0 
2.463896578986e-04 -5.579613021832e-03 0.0 
4.491796704029e-05 -2.245477427488e-02 0.0 
-2.891088320490e-03 -1.961593031152e-01 0.0 
1.327424781995e-03 -1.119321693234e-01 0.0 
2.966410844276e-04 -1.109079552168e-02 0.0 
3.853175054851e-03 -2.069008559245e-01 0.0 
4.732464978870e-03 -1.616741259692e-01 0.0 
3.952329402024e-03 -1.177607834699e-01 0.0 
4.311442996806e-03 -1.319744620594e-01 0.0 
4.145469043221e-03 -1.294127187593e-01 0.0 
4.555624434767e-03 -2.002570796959e-01 0.0 
2.426702063269e-04 -5.495136992121e-03 0.0 
2.325420678526e-03 -1.729826862174e-01 0.0 
1.401455440038e-03 -2.252381048530e-01 0.0 
-6.549208372568e-04 -2.544276293025e-02 0.0 
2.478224160208e-03 -2.064090486628e-01 0.0 
4.091211395545e-03 -1.529202093032e-01 0.0 
-2.535460446980e-03 -2.153754090767e-01 0.0 
3.563138462891e-03 -1.453373402479e-01 0.0 
2.322407817073e-05 -1.147811726808e-02 0.0 
2.247788913102e-04 -5.567249685085e-03 0.0 
3.644553272463e-03 -1.203018410826e-01 0.0 
-1.615587869833e-03 -2.167681699025e-01 0.0 
1.014373906582e-03 -2.289553535643e-01 0.0 
-2.321424250485e-03 -2.144725305195e-01 0.0 
-1.557480805733e-03 -6.572646031435e-02 0.0 
2.380559456798e-03 -1.341603995916e-01 0.0 
3.131787598035e-03 -1.282193891056e-01 0.0 
1.762032869654e-04 -5.231227935380e-03 0.0 
2.152426839746e-03 -1.336889450807e-01 0.0 
3.269974359871e-04 -1.070122952705e-02 0.0 
3.029311288599e-03 -9.049620543289e-02 0.0 
1.803234707564e-03 -1.127651328709e-01 0.0 
4.574092107420e-03 -1.853119509945e-01 0.0 
1.635995660149e-03 -1.112412815214e-01 0.0 
3.438568251842e-03 -2.137317650911e-01 0.0 
1.386710870780e-04 -5.775097388487e-03 0.0 
2.179383096632e-04 -5.791294068499e-03 0.0 
1.947654042102e-04 -5.647889066512e-03 0.0 
-2.405878319317e-03 -1.238932131478e-01 0.0 
-2.114520526510e-03 -1.613149407870e-01 0.0 
4.514207497280e-03 -1.532769191620e-01 0.0 
-2.345010486526e-03 -1.173226378916e-01 0.0 
7.544985380962e-05 -6.124865496403e-03 0.0 
4.303261879617e-03 -1.955400730584e-01 0.0 
-1.367794339097e-03 -1.896512647116e-01 0.0 
-2.060137958098e-03 -1.845984815878e-01 0.0 
1.589414404214e-03 -1.055414764271e-01 0.0 
-1.638344466800e-04 -1.093633506578e-02 0.0 
-8.216541407143e-04 -2.150371490274e-01 0.0 
-6.401125063618e-06 -5.779836375906e-03 0.0 
-2.742064468081e-03 -1.881351111303e-01 0.0 
2.186246217186e-04 -5.008979979766e-03 0.0 
2.139824829248e-03 -5.674295220283e-02 0.0 
5.020087527438e-03 -2.085340586255e-01 0.0 
4.577117735655e-03 -1.587870050782e-01 0.0 
1.462890852589e-03 -5.767739854826e-02 0.0 
2.470813996305e-04 -5.521976639550e-03 0.0 
3.558249419733e-03 -1.088956532639e-01 0.0 
2.670870593330e-03 -8.427560268553e-02 0.0 
4.098442881627e-03 -2.109257953275e-01 0.0 
-3.304050929626e-05 -3.844820761872e-02 0.0 
-3.068417385676e-03 -1.829034851515e-01 0.0 
-2.475319710952e-03 -1.841390834779e-01 0.0 
1.082505846873e-03 -2.196898578076e-01 0.0 
2.391399178371e-04 -5.597459833750e-03 0.0 
3.277407232450e-03 -2.072565776188e-01 0.0 
-9.974284926469e-04 -6.972610438194e-02 0.0 
1.773365485436e-03 -1.192053941334e-01 0.0 
-3.283613066273e-03 -1.871706061354e-01 0.0 
-1.901746200925e-03 -1.892824715161e-01 0.0 
3.801779852440e-03 -1.161873490704e-01 0.0 
1.579699973496e-04 -5.315698133196e-03 0.0 
-2.032474033331e-03 -1.569138629668e-01 0.0 
-1.877765898223e-03 -1.027785387969e-01 0.0 
4.313030403722e-03 -1.347349889616e-01 0.0 
-1.146552095971e-03 -1.230878819087e-01 0.0 
-1.029991900179e-03 -1.851764147177e-01 0.0 
-2.093008638375e-03 -1.170387206390e-01 0.0 
4.438300218645e-03 -1.398021192571e-01 0.0 
3.407737871609e-03 -9.474708560510e-02 0.0 
1.409709850440e-03 -9.639577109937e-02 0.0 
4.360285483342e-03 -1.417537452300e-01 0.0 
-3.001695508269e-03 -1.576299182585e-01 0.0 
4.564646707240e-03 -1.897733371603e-01 0.0 
-2.314943520642e-03 -1.613990299946e-01 0.0 
2.933865395101e-03 -9.138259308853e-02 0.0 
1.422797113333e-03 -1.328555507180e-01 0.0 
-4.661703346625e-05 -1.144670499144e-02 0.0 
1.415184705025e-03 -5.070648432947e-02 0.0 
-3.102086253626e-03 -1.898682477213e-01 0.0 
2.962520323435e-05 -5.698280892170e-03 0.0 
-2.377771915715e-05 -2.773711707980e-02 0.0 
3.858106131513e-03 -1.518228674933e-01 0.0 
6.550590362335e-04 -2.160739256583e-01 0.0 
-2.114611538123e-04 -1.093473517633e-02 0.0 
1.664514954863e-03 -5.266557486497e-02 0.0 
-3.202652859990e-03 -1.909142904371e-01 0.0 
-6.796423084263e-05 -5.489581745544e-03 0.0 
-2.179671606534e-03 -1.103130949641e-01 0.0 
4.552893176928e-03 -1.614439926624e-01 0.0 
3.160990683242e-03 -1.230597206127e-01 0.0 
1.704626516861e-03 -1.389331302194e-01 0.0 
-2.625433420080e-03 -1.365251720776e-01 0.0 
-6.440465922264e-04 -1.155147588186e-01 0.0 
2.630834346698e-03 -9.743519280021e-02 0.0 
4.285742839448e-03 -1.496825226878e-01 0.0 
1.650384808321e-03 -8.760254872942e-02 0.0 
4.226125143772e-04 -1.136681180375e-01 0.0 
-2.890410768217e-03 -1.574282951142e-01 0.0 
1.082140939879e-03 -1.049962321533e-01 0.0 
-3.247594732811e-03 -1.821891558429e-01 0.0 
-2.127839797224e-03 -1.124342116849e-01 0.0 
5.493382390141e-03 -2.122018138935e-01 0.0 
4.718514121123e-03 -1.839540830755e-01 0.0 
-3.033714378988e-03 -1.874052011128e-01 0.0 
-2.546693618977e-03 -1.473368698766e-01 0.0 
4.010150541180e-03 -1.447931444583e-01 0.0 
-2.057778900834e-03 -1.101151230500e-01 0.0 
1.565698639723e-03 -1.116195857873e-01 0.0 
-3.340911353032e-03 -1.899627699399e-01 0.0 
-9.587021583735e-05 -5.446753320240e-03 0.0 
4.009050654101e-03 -1.185863725994e-01 0.0 
-2.266851564543e-03 -1.421702914355e-01 0.0 
4.188471533051e-03 -1.258051810290e-01 0.0 
-2.387885083409e-03 -1.473230985190e-01 0.0 
4.273859515867e-03 -2.100850101011e-01 0.0 
3.052759775966e-03 -1.170590348100e-01 0.0 
-7.770197958180e-04 -1.608450477852e-01 0.0 
2.234415139666e-03 -1.984414264153e-01 0.0 
-2.021968109233e-03 -1.474155840255e-01 0.0 
-1.831960374809e-03 -9.544350625758e-02 0.0 
4.701552266609e-04 -5.708630132229e-02 0.0 
-6.927490226872e-04 -1.292156231028e-01 0.0 
-8.327829206782e-04 -1.226911300411e-01 0.0 
3.123424780319e-03 -1.383402503558e-01 0.0 
2.136410833326e-03 -1.401400722708e-01 0.0 
5.707147848100e-04 -2.102097033922e-02 0.0 
4.332814501306e-03 -1.328795010556e-01 0.0 
2.305679334438e-03 -1.981704360268e-01 0.0 
-7.893427670795e-04 -1.960716087053e-01 0.0 
1.332915006265e-03 -2.112411353112e-01 0.0 
-2.776863615250e-03 -1.851135169322e-01 0.0 
2.456982083257e-03 -6.196817134150e-02 0.0 
5.335395668342e-04 -5.765716500253e-02 0.0 
-1.718363618259e-03 -7.412909902163e-02 0.0 
-2.452892631973e-03 -1.773107190823e-01 0.0 
-2.011621560662e-03 -1.127657596087e-01 0.0 
-9.762561590230e-04 -6.153615065730e-02 0.0 
1.303872671136e-03 -2.182098880878e-01 0.0 
-5.535589106405e-04 -1.608799347114e-01 0.0 
-3.823658623532e-04 -1.716583771639e-01 0.0 
-2.554100232711e-04 -1.121995044964e-02 0.0 
-1.155909379750e-04 -5.487981856092e-03 0.0 
-5.651238076560e-04 -1.525595147020e-01 0.0 
-2.088343395420e-03 -1.422572756177e-01 0.0 
-2.568956727373e-03 -1.303587559865e-01 0.0 
-6.634598131474e-04 -5.238899753662e-02 0.0 
-1.148480544633e-03 -1.938740549209e-01 0.0 
-1.290106404312e-03 -7.090980256758e-02 0.0 
6.959160183498e-04 -1.952239805668e-01 0.0 
-2.134709618695e-03 -1.522704994360e-01 0.0 
-2.570110861450e-03 -1.420849161178e-01 0.0 
8.536094738344e-04 -1.956475420208e-01 0.0 
-4.616009522110e-04 -1.567005109608e-01 0.0 
1.330959486086e-03 -5.002073973364e-02 0.0 
1.883023621017e-03 -1.973941169080e-01 0.0 
2.354778407356e-03 -1.401700190789e-01 0.0 
2.455740936679e-03 -1.431817682152e-01 0.0 
-1.655478602447e-04 -1.075183440434e-01 0.0 
-1.881546481717e-04 -1.719657995873e-01 0.0 
-3.351150219166e-03 -1.857393513069e-01 0.0 
4.501621684659e-03 -2.020056007585e-01 0.0 
-1.236126184654e-03 -5.035000045379e-02 0.0 
9.191319568148e-04 -2.159367298116e-02 0.0 
9.346662269563e-04 -6.814576592800e-02 0.0 
4.664279467146e-03 -1.865417723050e-01 0.0 
2.698141564015e-04 -2.000772846865e-01 0.0 
4.061869232776e-03 -1.480636131539e-01 0.0 
1.517576974475e-03 -1.392649110755e-01 0.0 
1.408691519546e-03 -1.422472254571e-01 0.0 
1.867774080911e-03 -1.975876962851e-01 0.0 
1.079948942427e-03 -1.962599065044e-01 0.0 
2.632046942715e-04 -1.934455659279e-01 0.0 
-1.820269568768e-03 -1.861388896023e-01 0.0 
8.622808999226e-04 -1.958036562532e-01 0.0 
-4.516521233815e-04 -1.477328878427e-01 0.0 
3.044868418542e-03 -2.286142125324e-01 0.0 
-2.214332564883e-03 -1.803765307794e-01 0.0 
3.867606257088e-04 -9.922829019058e-02 0.0 
2.012499135827e-03 -1.429577050116e-01 0.0 
2.132939090135e-03 -5.292440399500e-02 0.0 
-2.111116329403e-03 -1.033242350308e-01 0.0 
3.448907389380e-04 -1.108687639090e-01 0.0 
-1.016090673494e-04 -1.685358526694e-01 0.0 
4.207631573371e-04 -1.942181955174e-01 0.0 
8.223957662518e-05 -5.440450814927e-03 0.0 
1.821756015954e-04 -1.135442475872e-02 0.0 
1.647950648426e-03 -1.185488767851e-01 0.0 
1.716538383055e-03 -1.396525403496e-01 0.0 
-5.060477276574e-04 -1.681925948494e-01 0.0 
1.133145432354e-04 -1.069501612317e-02 0.0 
-2.142689230989e-03 -1.836153481465e-01 0.0 
2.227701777049e-03 -1.430559659494e-01 0.0 
1.921891093570e-03 -1.399778335218e-01 0.0 
3.714747728893e-03 -1.507343793863e-01 0.0 
1.547004022290e-04 -5.235720931551e-03 0.0 
1.430634423912e-04 -1.070191557928e-02 0.0 
1.143197342567e-03 -1.963312685528e-01 0.0 
1.493189151229e-03 -1.968969773962e-01 0.0 
-1.755586858644e-04 -1.972876746831e-01 0.0 
-2.689825109417e-03 -1.421002218027e-01 0.0 
-1.856759484521e-04 -3.812281753411e-02 0.0 
4.185235422883e-03 -2.336767898496e-01 0.0 
1.300036590669e-04 -7.001081372965e-02 0.0 
3.685984227433e-03 -2.202041134283e-01 0.0 
-7.648464180727e-04 -1.085694874059e-01 0.0 
5.485436278513e-03 -2.170595970155e-01 0.0 
5.020491820440e-03 -2.246275184910e-01 0.0 
-1.235304662608e-03 -1.163585462036e-01 0.0 
-7.018436046397e-04 -4.662206913752e-02 0.0 
3.250254687954e-04 -1.036522164959e-01 0.0 
4.231331408157e-03 -1.445452124227e-01 0.0 
6.165041094324e-04 -1.952113499216e-01 0.0 
-1.723068602766e-03 -1.066723376007e-01 0.0 
3.503368154532e-05 -6.325510526624e-03 0.0 
6.662689556084e-05 -1.074920233247e-02 0.0 
1.799039739438e-03 -1.427353671174e-01 0.0 
-3.138170292646e-04 -1.003537076216e-01 0.0 
6.082386576604e-05 -5.261464764357e-03 0.0 
2.551315251349e-03 -8.502025141904e-02 0.0 
2.530126885530e-04 -1.939733633613e-01 0.0 
5.795863711131e-04 -1.954655563813e-01 0.0 
3.736534132994e-04 -1.950001994104e-01 0.0 
-1.134329714097e-04 -1.608616719638e-01 0.0 
-1.483362536420e-04 -1.084915783956e-02 0.0 
1.759105259770e-05 -2.843531785097e-02 0.0 
7.396147203181e-04 -1.960321754159e-01 0.0 
-2.346962965268e-04 -1.473905099636e-01 0.0 
-5.245229240769e-05 -4.446858623485e-03 0.0 
-1.963450272898e-04 -1.203263342739e-02 0.0 
-2.900843830834e-04 -1.155174970344e-02 0.0 
6.706057758390e-05 -8.469938186551e-02 0.0 
2.940055305180e-05 -6.215684831375e-02 0.0 
-9.588396123435e-05 -6.402299216076e-03 0.0 
-1.004610660554e-04 -5.630334211314e-03 0.0 
6.475283101292e-05 -6.999833273954e-02 0.0 
6.127839570657e-04 -1.960680254870e-01 0.0 
1.038607136363e-03 -1.422161288728e-01 0.0 
1.605210351843e-03 -1.425087215803e-01 0.0 
1.114690843765e-03 -1.963741418557e-01 0.0 
-1.412502483292e-04 -5.219681332440e-03 0.0 
-3.294235892334e-04 -1.233356864284e-02 0.0 
-1.791582914462e-04 -6.513787532943e-03 0.0 
1.028942402479e-03 -1.963484545588e-01 0.0 
1.456011226338e-03 -1.967837364668e-01 0.0 
-1.398190852961e-04 -5.731968593548e-03 0.0 
-1.502652977872e-04 -5.819781109897e-03 0.0 
3.170829962278e-05 -9.186012647018e-02 0.0 
5.306814995326e-04 -1.423519622253e-01 0.0 
3.535227796112e-05 -7.738994793937e-02 0.0 
3.806189880205e-05 -1.175250882153e-01 0.0 
2.215903554811e-04 -1.423711102274e-01 0.0 
2.724032248700e-03 -1.991354972651e-01 0.0 
3.512916884116e-03 -2.018810850086e-01 0.0 
3.856636017039e-03 -2.036673317167e-01 0.0 
4.312730142403e-03 -2.058136089090e-01 0.0 
-1.164268088298e-04 -1.424114788400e-01 0.0 
-1.182694876971e-04 -1.521630386787e-01 0.0 
3.203024101055e-03 -2.025673700181e-01 0.0 
-1.153978211011e-04 -1.082269648464e-01 0.0 
3.476854728110e-03 -2.045175671911e-01 0.0 
1.251162303107e-04 -5.315496036365e-03 0.0 
5.249067746932e-05 -5.433551358815e-03 0.0 
9.993602497020e-05 -5.913973943790e-03 0.0 
-8.924194607819e-06 -1.897360599339e-01 0.0 
-8.654558082235e-05 -1.752186977839e-01 0.0 
5.373740160217e-05 -6.516950861418e-03 0.0 
-7.871790977360e-05 -6.354456608846e-02 0.0 
3.159321401552e-05 -4.423691805850e-03 0.0 
-5.718846646784e-05 -4.655628912742e-02 0.0 
-3.529508407854e-05 -2.856728230158e-02 0.0 
-2.317024591067e-04 -1.566464128166e-01 0.0 
1.062280790715e-04 -1.195050222023e-02 0.0 
8.533061561769e-05 -1.094064266727e-02 0.0 
-1.359063762414e-04 -5.549463157780e-02 0.0 
-9.248355054638e-05 -3.781329503747e-02 0.0 
-1.090560100078e-03 -9.414748099661e-02 0.0 
4.165462404346e-03 -2.143084290369e-01 0.0 
-1.831774331174e-03 -1.569321494807e-01 0.0 
1.414691210982e-03 -1.970191947249e-01 0.0 
-1.221430326702e-03 -5.105667455522e-02 0.0 
-2.322118423747e-03 -1.522649981118e-01 0.0 
-1.173818113346e-03 -7.023442356422e-02 0.0 
-1.651340031920e-03 -1.889199506705e-01 0.0 
6.954764842104e-04 -1.960298063507e-01 0.0 
-8.537545890991e-04 -5.469669170562e-02 0.0 
-1.818149848559e-03 -1.475237852577e-01 0.0 
-4.252694848857e-04 -1.647864999302e-01 0.0 
-1.059720582848e-03 -7.083126474007e-02 0.0 
1.734643912166e-04 -4.660122558317e-02 0.0 
-2.150420387590e-04 -1.648223353268e-01 0.0 
-1.653264202088e-03 -8.756900563269e-02 0.0 
-2.347090641549e-03 -1.115873854483e-01 0.0 
-1.257370715494e-03 -9.367995161640e-02 0.0 
-9.386578227883e-04 -8.717894637414e-02 0.0 
2.179410268641e-03 -1.783832724027e-01 0.0 
4.208976138190e-03 -1.537420249397e-01 0.0 
4.225445693027e-03 -1.497245982241e-01 0.0 
-1.859078755765e-03 -1.062907539534e-01 0.0 
-7.870155238301e-04 -6.369729843783e-02 0.0 
-6.331875707276e-04 -8.042197859266e-02 0.0 
-2.591210149156e-03 -1.913740037121e-01 0.0 
3.303495037186e-04 -4.798966542402e-02 0.0 
4.238133379997e-04 -6.427386117010e-02 0.0 
7.165907596881e-04 -1.266573168385e-01 0.0 
-1.926368431660e-03 -9.878067280340e-02 0.0 
-1.566201792073e-03 -1.000306497522e-01 0.0 
2.241751483465e-04 -4.750921794539e-02 0.0 
2.889072919760e-04 -5.609820990871e-02 0.0 
-2.473046231814e-03 -1.180942998062e-01 0.0 
-6.086392132080e-04 -4.711680025242e-02 0.0 
8.535497947706e-04 -6.758020071048e-02 0.0 
-4.569772683866e-04 -8.036814415987e-02 0.0 
-9.834533072197e-04 -4.242431826508e-02 0.0 
3.864812893730e-04 -4.844269276370e-02 0.0 
7.266957057590e-04 -8.809282887528e-02 0.0 
-1.943418100289e-03 -9.579123057733e-02 0.0 
-7.653705111432e-04 -1.843549259318e-01 0.0 
-2.673978792583e-03 -1.953707895501e-01 0.0 
4.145743370198e-04 -1.991432445471e-01 0.0 
1.938563542626e-03 -2.138370133004e-01 0.0 
3.487796011343e-04 -5.608688036812e-02 0.0 
-6.439513344976e-04 -5.578995882206e-02 0.0 
2.340290993711e-03 -2.095957472552e-01 0.0 
1.907143054387e-03 -5.459453250194e-02 0.0 
8.541688015377e-04 -1.210169919962e-01 0.0 
-1.338246069940e-03 -7.774855213404e-02 0.0 
-8.019027081408e-04 -7.200779330670e-02 0.0 
-3.382602825051e-03 -1.807924502659e-01 0.0 
-6.594326677585e-04 -7.252609398554e-02 0.0 
8.107595111422e-04 -1.268441093906e-01 0.0 
1.137266997939e-03 -9.713353713841e-02 0.0 
-7.737203810597e-04 -3.349576505386e-02 0.0 
-3.683696366774e-04 -1.843232659495e-01 0.0 
-1.044473022883e-03 -4.131769633681e-02 0.0 
5.665285763765e-04 -8.010858343502e-02 0.0 
-6.737207834998e-04 -1.817107618307e-01 0.0 
-2.920914542967e-03 -1.889930914389e-01 0.0 
-9.928943048006e-04 -1.324764128723e-01 0.0 
9.676014621930e-04 -1.027647312595e-01 0.0 
-2.229058429382e-03 -1.695214643155e-01 0.0 
4.280864217114e-04 -7.175590112996e-02 0.0 
6.280945403945e-04 -9.442874789694e-02 0.0 
-1.956913142862e-03 -1.369715011587e-01 0.0 
-7.666844468943e-04 -8.763537498392e-02 0.0 
-9.476309870040e-04 -7.944724930404e-02 0.0 
4.914339985903e-04 -7.956566989109e-02 0.0 
-6.403275996103e-04 -1.891324124142e-01 0.0 
-1.691897620518e-03 -1.425328092446e-01 0.0 
1.444334880260e-03 -6.193370337203e-02 0.0 
6.429061152932e-04 -7.337411309416e-02 0.0 
-1.730191655864e-03 -1.523969871820e-01 0.0 
-2.297819427017e-03 -1.118477024117e-01 0.0 
-1.219281408421e-03 -4.878239275198e-02 0.0 
6.391905995165e-04 -8.761766658431e-02 0.0 
2.715393175253e-04 -2.292595728018e-01 0.0 
5.751926177717e-04 -1.968689231212e-01 0.0 
1.154495107947e-03 -2.106921259645e-01 0.0 
-9.036143869999e-04 -6.309876243630e-02 0.0 
8.029893722186e-04 -9.532785394623e-02 0.0 
-7.084588337859e-04 -1.218010437547e-01 0.0 
1.002144029143e-03 -1.154824392941e-01 0.0 
-1.107893902975e-03 -6.217562288858e-02 0.0 
-1.627084526107e-03 -1.317080846597e-01 0.0 
-1.088849998542e-03 -7.886925673895e-02 0.0 
-6.245550499494e-04 -1.842576872642e-01 0.0 
-1.018952793182e-03 -4.209577262869e-02 0.0 
-1.764285628634e-03 -1.371388335534e-01 0.0 
-5.220798937898e-04 -1.818095809480e-01 0.0 
-1.482157383648e-03 -1.425526249859e-01 0.0 
-1.973052685493e-03 -1.654135235246e-01 0.0 
-2.007455500409e-03 -1.799995897459e-01 0.0 
-9.260582006917e-04 -1.209579404438e-01 0.0 
2.529206841317e-03 -1.994711530339e-01 0.0 
2.852776927399e-03 -2.008565301063e-01 0.0 
-1.415403957927e-03 -1.004790975056e-01 0.0 
-6.653488378214e-04 -1.867115248973e-01 0.0 
-1.823583008533e-03 -9.918479367128e-02 0.0 
-2.078082415455e-03 -1.055550851617e-01 0.0 
-2.837741499987e-03 -1.619145970569e-01 0.0 
-3.361673871879e-03 -1.929789947780e-01 0.0 
7.366236742818e-04 -5.938312341956e-02 0.0 
3.212278328583e-03 -2.213704118907e-01 0.0 
-1.700144455437e-03 -1.612764507658e-01 0.0 
-7.996261865925e-04 -5.277496929206e-02 0.0 
-4.065083123331e-04 -1.888182017830e-01 0.0 
9.397101618939e-04 -1.090197601653e-01 0.0 
9.573963958252e-04 -1.214065234070e-01 0.0 
-9.450432725597e-04 -1.932376911540e-01 0.0 
-1.347311755552e-03 -5.653203079299e-02 0.0 
1.077514731964e-03 -8.317473870054e-02 0.0 
-7.990646855507e-04 -1.869194263366e-01 0.0 
7.516517123293e-04 -5.233291507541e-02 0.0 
6.837378118608e-04 -5.170056160692e-02 0.0 
-1.072240762484e-03 -1.847092194132e-01 0.0 
4.646304211746e-03 -1.815544443551e-01 0.0 
-1.616380221901e-03 -1.856792222180e-01 0.0 
-1.246687449742e-03 -8.613342442884e-02 0.0 
-1.282584683634e-03 -1.263818171910e-01 0.0 
1.582687539862e-03 -5.201542785132e-02 0.0 
6.658065347289e-04 -5.880639234859e-02 0.0 
-1.543467090540e-03 -9.270764043389e-02 0.0 
-1.664838154002e-03 -9.224336800034e-02 0.0 
-1.232183951324e-03 -1.909085135579e-01 0.0 
-1.381985990643e-03 -8.560956099978e-02 0.0 
9.865818153134e-04 -8.265669794266e-02 0.0 
-1.070569277382e-03 -1.267063394367e-01 0.0 
8.932844034503e-04 -9.580701823101e-02 0.0 
8.829560285077e-04 -7.497186183446e-02 0.0 
2.307355641490e-03 -1.503679259301e-01 0.0 
6.269227939686e-04 -6.592002327061e-02 0.0 
-1.389903834737e-03 -1.476780003979e-01 0.0 
-1.423682994604e-03 -1.319636828341e-01 0.0 
-1.601390423210e-03 -1.691685508756e-01 0.0 
-3.102769205276e-03 -1.710480478623e-01 0.0 
9.012307889561e-04 -8.908629553146e-02 0.0 
-2.858636667920e-03 -1.423854201808e-01 0.0 
-1.533925696460e-03 -1.824566064724e-01 0.0 
-2.750536094381e-05 -1.965620852662e-01 0.0 
9.923235407154e-04 -8.958197903684e-02 0.0 
-1.731922819648e-03 -1.827787397288e-01 0.0 
-1.033007651212e-03 -4.039979774819e-02 0.0 
7.285149585423e-04 -8.111265053177e-02 0.0 
-1.443222083064e-03 -7.720503862078e-02 0.0 
-8.568751642934e-05 -2.242732868853e-02 0.0 
-1.511685878911e-03 -1.525313865809e-01 0.0 
-1.244306691427e-03 -1.849691573549e-01 0.0 
-4.378521700860e-04 -1.947096555216e-01 0.0 
-1.856670447189e-03 -9.135493761293e-02 0.0 
6.975667964529e-04 -1.014343933280e-01 0.0 
5.229632030219e-04 -1.974931050391e-01 0.0 
-2.020400489608e-03 -1.693523047133e-01 0.0 
-3.286562305967e-04 -1.864389841123e-01 0.0 
1.063935370121e-03 -1.032237210111e-01 0.0 
-1.759376316578e-03 -1.653567469896e-01 0.0 
-2.156985701169e-03 -1.052137198143e-01 0.0 
-1.389911646018e-03 -1.688800213159e-01 0.0 
4.890571778720e-04 -6.482025478458e-02 0.0 
-2.043372200179e-03 -1.766439636055e-01 0.0 
-1.996488187121e-03 -9.008230183957e-02 0.0 
-2.424265441560e-03 -1.943469614363e-01 0.0 
-2.072758647919e-03 -9.800798462887e-02 0.0 
-1.132370576710e-03 -1.376024552615e-01 0.0 
-1.697379937287e-03 -8.411746553344e-02 0.0 
-4.428561496106e-04 -1.852517703916e-01 0.0 
-4.332007541588e-04 -1.864722245444e-01 0.0 
8.065665259285e-04 -1.146656779950e-01 0.0 
-1.042335313161e-03 -1.090165229234e-01 0.0 
4.682463000822e-03 -1.554974400817e-01 0.0 
7.849565220345e-04 -1.018583370863e-01 0.0 
-3.022095210839e-03 -1.932729881083e-01 0.0 
1.383332593938e-03 -9.820472905652e-02 0.0 
-3.151756898643e-04 -1.886761400977e-01 0.0 
-1.407512785957e-03 -5.828711443001e-02 0.0 
-5.937483411188e-04 -1.009036739283e-01 0.0 
1.416898987842e-03 -8.828819250768e-02 0.0 
5.522196039568e-04 -4.269315885340e-02 0.0 
-2.648143380970e-03 -1.304320489637e-01 0.0 
-7.662856171898e-04 -1.894878734300e-01 0.0 
-2.367112715862e-03 -1.110785734496e-01 0.0 
-1.195527730425e-03 -4.825567007906e-02 0.0 
-3.396257775917e-03 -1.849203214827e-01 0.0 
-1.608333067228e-03 -8.460177505297e-02 0.0 
8.127550105076e-04 -8.162695290317e-02 0.0 
-3.246895978252e-03 -1.980922167486e-01 0.0 
-2.246399215164e-03 -1.045784790497e-01 0.0 
1.413854591145e-03 -1.171160847013e-01 0.0 
-8.593875041326e-04 -1.789181376977e-01 0.0 
-2.252682729900e-03 -1.733310908057e-01 0.0 
4.265060239736e-03 -1.356923143878e-01 0.0 
-1.924157377733e-03 -9.092361478581e-02 0.0 
4.636394219603e-03 -1.624342221580e-01 0.0 
4.276191549360e-03 -1.427553171960e-01 0.0 
1.181807631046e-03 -9.057868971764e-02 0.0 
8.473602529671e-04 -1.085925302769e-01 0.0 
1.453286772291e-03 -1.111745435605e-01 0.0 
-1.351143860262e-03 -1.374142474690e-01 0.0 
-1.410034408701e-03 -6.396853944267e-02 0.0 
-2.423922956106e-03 -1.175129493251e-01 0.0 
1.102893455271e-03 -1.159668886613e-01 0.0 
1.726871091545e-03 -4.618850748663e-02 0.0 
1.607541503524e-03 -7.923365638605e-02 0.0 
-2.112900947383e-03 -9.763306082764e-02 0.0 
8.002219754612e-04 -7.443780030035e-02 0.0 
-2.908779566548e-03 -1.663918276551e-01 0.0 
-2.622002610973e-03 -1.700096106502e-01 0.0 
-1.055898305630e-03 -1.903709871727e-01 0.0 
-2.186718012264e-03 -1.036433834951e-01 0.0 
-2.382133619398e-03 -1.656667723344e-01 0.0 
1.179262236817e-03 -9.724036141093e-02 0.0 
1.371653545578e-03 -1.046098619288e-01 0.0 
1.172389326340e-03 -1.461468621759e-01 0.0 
-2.651616729140e-03 -1.777033603957e-01 0.0 
2.400667773103e-03 -1.877702317279e-01 0.0 
-2.455326097220e-03 -1.736209052491e-01 0.0 
-2.800680068118e-03 -1.703250751275e-01 0.0 
-1.271165039359e-03 -1.879227569009e-01 0.0 
-1.410250743684e-03 -7.146913960351e-02 0.0 
-3.143298418845e-03 -1.583300929944e-01 0.0 
6.999986021713e-04 -6.646940810540e-02 0.0 
-2.985238692655e-03 -1.535543867622e-01 0.0 
-2.334185758974e-03 -1.108225548618e-01 0.0 
-2.778994163627e-03 -1.365306471308e-01 0.0 
3.821742300187e-03 -1.458115808881e-01 0.0 
-1.097088632073e-03 -1.875348252942e-01 0.0 
-1.292707800856e-03 -5.588745430963e-02 0.0 
-1.080944320260e-03 -4.610172431201e-02 0.0 
3.591258748433e-03 -1.021501946282e-01 0.0 
-3.045191752913e-03 -1.667119162224e-01 0.0 
-2.563977442494e-03 -1.241568175584e-01 0.0 
1.080711063137e-03 -9.676169148800e-02 0.0 
-2.680073824254e-03 -1.617033381048e-01 0.0 
4.697061508621e-03 -1.628523674681e-01 0.0 
-1.837156450829e-03 -1.763966906048e-01 0.0 
-3.340424906124e-03 -1.918890505478e-01 0.0 
-3.085438426405e-03 -1.624363087684e-01 0.0 
-1.603242627870e-03 -1.794301834889e-01 0.0 
-9.925389390380e-04 -1.818532422875e-01 0.0 
-2.800901985593e-03 -1.365366042143e-01 0.0 
-2.253189543484e-03 -1.042634970129e-01 0.0 
2.492943648820e-03 -6.374558550303e-02 0.0 
3.074878940185e-03 -2.003120218689e-01 0.0 
-2.203043413859e-03 -1.597512888728e-01 0.0 
-2.902849065949e-03 -1.591318391159e-01 0.0 
-3.163665993726e-03 -1.627196994434e-01 0.0 
1.266020416511e-03 -1.041444928874e-01 0.0 
-2.975347637405e-03 -1.479319382134e-01 0.0 
-1.837809040776e-03 -1.729146582029e-01 0.0 
-3.134172339839e-03 -1.580891264661e-01 0.0 
5.684248393699e-04 -7.284520828837e-02 0.0 
-1.632475343292e-03 -1.727876809002e-01 0.0 
1.600274401072e-04 -1.953505772964e-01 0.0 
-6.334542405648e-04 -1.921128387168e-01 0.0 
-3.364769944029e-03 -1.880537958855e-01 0.0 
-2.998404602324e-03 -1.747318952073e-01 0.0 
-2.513296579464e-03 -1.540932617895e-01 0.0 
-3.049143587492e-03 -1.533497300511e-01 0.0 
-2.459043942720e-03 -1.984140526948e-01 0.0 
-5.179179594106e-04 -1.916176565809e-01 0.0 
1.918824356624e-03 -1.132466407221e-01 0.0 
-1.407076203002e-03 -1.792331492876e-01 0.0 
-1.592076106624e-03 -7.986355073632e-02 0.0 
2.727275841876e-03 -7.269652870323e-02 0.0 
3.169843951472e-03 -1.120124786947e-01 0.0 
1.125015700455e-03 -6.230128443744e-02 0.0 
2.205664424074e-03 -5.448678321676e-02 0.0 
1.899134403291e-03 -1.511256200583e-01 0.0 
3.190130265144e-03 -8.791933807147e-02 0.0 
-3.083909127566e-03 -1.978667433338e-01 0.0 
-2.995107667285e-03 -1.528066808705e-01 0.0 
3.615972369361e-03 -1.587055973121e-01 0.0 
-2.365134403338e-03 -2.013616186340e-01 0.0 
-2.477018084054e-03 -2.027781247296e-01 0.0 
-2.572434433670e-03 -1.658651042257e-01 0.0 
-3.032624066902e-03 -1.588651261550e-01 0.0 
-2.719534551511e-03 -1.539384580073e-01 0.0 
-1.435656328477e-03 -1.760726791008e-01 0.0 
-2.784262577969e-03 -1.424532381048e-01 0.0 
-2.488828603687e-03 -1.595935309908e-01 0.0 
-1.612749577594e-03 -1.542854044226e-01 0.0 
-2.832727651532e-03 -1.743290110398e-01 0.0 
2.686384939148e-04 -9.915127120296e-02 0.0 
1.280244859100e-03 -9.107768832182e-02 0.0 
-1.067731364563e-03 -1.598049107955e-01 0.0 
-1.325858743461e-03 -6.337979655072e-02 0.0 
-3.316796811643e-03 -1.968571117230e-01 0.0 
-7.298996325825e-04 -4.380033841613e-02 0.0 
-2.701139512427e-03 -1.483217711327e-01 0.0 
1.822220732109e-03 -4.409003140931e-02 0.0 
3.796797491380e-03 -1.111848721557e-01 0.0 
-3.179276985581e-03 -1.944106011847e-01 0.0 
3.251482600770e-03 -1.068149854813e-01 0.0 
1.374849541927e-03 -5.705400902398e-02 0.0 
-2.314246199392e-03 -1.426299408475e-01 0.0 
4.578815203303e-03 -1.761001713413e-01 0.0 
3.292630257617e-03 -1.014268250024e-01 0.0 
4.530803172509e-03 -1.455915590454e-01 0.0 
-2.711792502962e-03 -1.997723934020e-01 0.0 
5.624789791211e-04 -2.834383264508e-02 0.0 
-1.884821613458e-03 -1.998808550865e-01 0.0 
5.589011965660e-04 -4.792511949978e-02 0.0 
4.975837957812e-04 -4.991354832707e-02 0.0 
-1.738738311389e-04 -9.238364796280e-02 0.0 
1.136793495949e-03 -1.099631992841e-01 0.0 
1.189228699077e-03 -6.982746491350e-02 0.0 
-1.957748597027e-03 -1.542921798666e-01 0.0 
1.038049116487e-03 -1.335138969027e-01 0.0 
8.740885788803e-04 -4.602949376824e-02 0.0 
-1.998780752580e-03 -8.966776913170e-02 0.0 
1.363371353817e-03 -8.473200195898e-02 0.0 
-1.110909574015e-03 -1.017929086572e-01 0.0 
-3.200179987874e-03 -1.992233096419e-01 0.0 
1.426968431034e-03 -7.821900329452e-02 0.0 
1.107463208001e-03 -2.678030987704e-02 0.0 
-1.007843198354e-03 -4.526020795624e-02 0.0 
-3.049356931535e-03 -1.529824984031e-01 0.0 
1.240327368660e-03 -1.104053012375e-01 0.0 
1.306528316582e-03 -1.168122114197e-01 0.0 
-2.837068652618e-03 -1.482044128485e-01 0.0 
-2.088439266829e-03 -9.653945115297e-02 0.0 
-1.863318264950e-03 -8.840377686446e-02 0.0 
-3.025487837849e-04 -1.941223294697e-01 0.0 
2.633809504014e-03 -1.964208680801e-01 0.0 
-3.707799796333e-04 -1.537683641394e-01 0.0 
-1.487210492560e-03 -1.598798545377e-01 0.0 
4.352609343216e-03 -1.486708647434e-01 0.0 
6.994839962007e-04 -3.731334352316e-02 0.0 
1.824548720123e-03 -5.391660932909e-02 0.0 
5.567749554733e-04 -5.051339083834e-02 0.0 
4.525711909267e-03 -1.566308973627e-01 0.0 
1.664930240429e-03 -7.272080313640e-02 0.0 
-2.121983841162e-03 -9.690354608300e-02 0.0 
6.704461847900e-04 -4.427296101532e-02 0.0 
1.673543176828e-03 -8.630567078026e-02 0.0 
-2.984687060454e-03 -1.478056730937e-01 0.0 
3.437798607657e-04 -1.589993947256e-01 0.0 
1.329619108758e-03 -7.767177084254e-02 0.0 
9.651929761250e-04 -5.393563792361e-02 0.0 
1.055005377344e-03 -7.605546780986e-02 0.0 
1.265481795174e-03 -8.421432229547e-02 0.0 
-1.526412857886e-03 -6.514780846344e-02 0.0 
8.958339311584e-04 -5.513853488090e-02 0.0 
-1.593022746306e-03 -7.254492940748e-02 0.0 
-2.486277977806e-03 -1.179004698443e-01 0.0 
3.848296246512e-03 -1.559101866382e-01 0.0 
2.003001296863e-04 -8.358727601661e-02 0.0 
2.228851975712e-03 -8.900267452800e-02 0.0 
-1.165693342650e-03 -1.819996343295e-01 0.0 
-8.110959964924e-04 -1.540273788437e-01 0.0 
-9.026893355360e-04 -1.359015487091e-01 0.0 
9.064632938831e-04 -1.200276106560e-01 0.0 
-4.944421666081e-04 -2.030313625786e-01 0.0 
-1.406206530158e-04 -1.593588322382e-01 0.0 
7.747573474309e-04 -1.056810213139e-01 0.0 
4.125222544130e-03 -1.437481185253e-01 0.0 
-2.889883912935e-03 -1.422651121446e-01 0.0 
1.821436788373e-03 -1.001488907417e-01 0.0 
1.173045266517e-03 -1.345779589864e-01 0.0 
1.270867941020e-03 -2.105808382084e-01 0.0 
-2.593405507306e-03 -1.242883194899e-01 0.0 
-3.004099275032e-04 -8.478812844337e-02 0.0 
1.486492133763e-03 -4.511333646812e-02 0.0 
8.973458998513e-04 -1.402417778902e-01 0.0 
-2.699479267748e-03 -1.305695079786e-01 0.0 
1.488681585142e-03 -9.869130132801e-02 0.0 
2.275507500187e-03 -2.031133244599e-01 0.0 
9.669152045103e-05 -9.176245452244e-02 0.0 
4.100864407891e-04 -1.277804683926e-01 0.0 
4.056956451651e-03 -1.384278237647e-01 0.0 
-1.932737748630e-03 -8.883284897584e-02 0.0 
-2.784366242877e-03 -2.003650218929e-01 0.0 
-1.690672444006e-03 -8.035059764834e-02 0.0 
-1.037610512596e-03 -5.381235843570e-02 0.0 
5.623284220657e-04 -9.851127532251e-02 0.0 
1.144535212500e-03 -7.659605280062e-02 0.0 
2.499998728032e-03 -7.604578923418e-02 0.0 
-1.135431013710e-03 -5.445719506192e-02 0.0 
2.849839435299e-03 -1.962058483463e-01 0.0 
1.589837481408e-03 -9.258241214790e-02 0.0 
1.319869625418e-03 -5.324208573399e-02 0.0 
1.102034361461e-03 -6.926942653509e-02 0.0 
6.740988909379e-04 -1.132847524112e-01 0.0 
5.512617155703e-04 -1.529926878691e-01 0.0 
-2.164223848866e-03 -1.311687575717e-01 0.0 
9.458026325536e-04 -2.221336718893e-01 0.0 
8.856540069360e-04 -6.058104210557e-02 0.0 
-1.037390198477e-03 -1.789633794869e-01 0.0 
3.212205077629e-03 -1.893107184170e-01 0.0 
2.850193182675e-03 -8.254986583494e-02 0.0 
4.960738871221e-04 -4.208271915579e-02 0.0 
-3.165986572319e-03 -2.019831303344e-01 0.0 
4.199481726193e-03 -1.284928164477e-01 0.0 
1.567074748553e-03 -8.577970630204e-02 0.0 
-2.668648577693e-03 -1.365403733105e-01 0.0 
-1.196762906447e-03 -2.027871248069e-01 0.0 
4.589489760089e-03 -1.808489673412e-01 0.0 
-2.746003325678e-03 -2.042858047020e-01 0.0 
-2.965883061899e-03 -2.032622526642e-01 0.0 
-3.132756022730e-03 -2.041613553494e-01 0.0 
7.853639814619e-04 -1.271907474530e-01 0.0 
2.850915637728e-04 -1.032268955440e-02 0.0 
3.380432142314e-03 -1.820231401643e-01 0.0 
-1.402133381395e-03 -5.763740531682e-02 0.0 
1.971219970024e-03 -1.682208324978e-01 0.0 
1.924567910215e-03 -9.407633799657e-02 0.0 
8.054214482255e-04 -2.147893994396e-01 0.0 
-8.362462146341e-04 -4.419825532849e-02 0.0 
-3.097048604895e-03 -2.026366396825e-01 0.0 
-1.224464965187e-03 -1.723757735816e-01 0.0 
9.102775590499e-04 -8.977733478010e-02 0.0 
-2.296029811872e-03 -1.485245974674e-01 0.0 
1.287518265845e-03 -6.255884950411e-02 0.0 
4.805215725888e-03 -1.715503539007e-01 0.0 
2.053962889063e-03 -8.157837182292e-02 0.0 
6.895844033627e-04 -4.667421482454e-02 0.0 
1.483483408947e-03 -9.208194025682e-02 0.0 
1.557608263264e-03 -4.570689805110e-02 0.0 
1.467714523121e-03 -7.155346082704e-02 0.0 
1.481434163714e-03 -6.471300816393e-02 0.0 
3.775782351600e-03 -2.056056243745e-01 0.0 
-1.564322072667e-03 -6.689950585028e-02 0.0 
1.629363204102e-03 -7.932559543412e-02 0.0 
2.729279857582e-03 -1.432696453610e-01 0.0 
3.406989224221e-03 -1.742584585728e-01 0.0 
6.124535391506e-04 -3.740560194712e-02 0.0 
1.752514418446e-03 -2.019845946117e-01 0.0 
-1.239124727564e-03 -1.759493013421e-01 0.0 
1.358191697718e-03 -7.135804816652e-02 0.0 
-4.647347962277e-05 -1.878963112379e-01 0.0 
3.945853996370e-03 -1.386257422440e-01 0.0 
4.526412567088e-04 -8.293510117822e-02 0.0 
1.172813758019e-03 -4.885710784044e-02 0.0 
1.097337980763e-03 -4.125603698513e-02 0.0 
6.427225756244e-04 -9.047028380360e-02 0.0 
1.210225857430e-03 -6.289942023760e-02 0.0 
2.545505378428e-03 -1.616306170223e-01 0.0 
2.976277499889e-03 -8.002440312964e-02 0.0 
3.330938108541e-03 -1.658588871084e-01 0.0 
1.923797015103e-03 -4.943256259802e-02 0.0 
3.165460522891e-03 -1.567939687993e-01 0.0 
3.049426739500e-03 -1.519914449980e-01 0.0 
1.594921946504e-03 -1.454965606897e-01 0.0 
2.912778345787e-03 -1.469854054500e-01 0.0 
3.205755664565e-03 -1.216292921934e-01 0.0 
3.612323325890e-03 -1.528526537987e-01 0.0 
-1.436413218989e-04 -1.476552390154e-01 0.0 
-1.561076688713e-03 -2.065259144597e-01 0.0 
1.013001602656e-03 -1.524533176944e-01 0.0 
8.908639195712e-04 -5.335650958649e-02 0.0 
1.656728786533e-03 -4.568128116050e-02 0.0 
-1.853534148705e-03 -8.272305665356e-02 0.0 
1.047268394087e-03 -5.435080147321e-02 0.0 
-2.026267019264e-03 -1.485657576625e-01 0.0 
1.388534169182e-03 -6.410860820460e-02 0.0 
2.939998595232e-04 -1.472390002577e-01 0.0 
-1.368278291068e-03 -5.957105743870e-02 0.0 
1.371788178327e-03 -7.097283316565e-02 0.0 
1.765826859834e-03 -7.330172939637e-02 0.0 
1.463423113447e-04 -1.069371010651e-01 0.0 
1.777051321930e-03 -1.572673685547e-01 0.0 
2.486954962716e-03 -6.454410027688e-02 0.0 
3.727270201064e-03 -1.103995442054e-01 0.0 
-2.159879952142e-03 -2.056566076289e-01 0.0 
1.016925776449e-03 -2.026401434783e-01 0.0 
4.741938667429e-03 -1.679569208112e-01 0.0 
4.217228031447e-03 -1.275775399367e-01 0.0 
-1.140799179677e-03 -5.196488510589e-02 0.0 
1.733678926878e-03 -7.988853778415e-02 0.0 
1.313451141458e-03 -1.579447647046e-01 0.0 
3.777059299641e-03 -1.084576458334e-01 0.0 
5.534094146084e-05 -7.574660640051e-02 0.0 
9.634923062857e-04 -6.116411772190e-02 0.0 
2.229083249615e-03 -5.551634350155e-02 0.0 
2.055599589568e-03 -1.010753681837e-01 0.0 
-8.284619157816e-04 -6.909648457990e-02 0.0 
4.806963201201e-04 -1.407945457974e-01 0.0 
-1.748037641387e-04 -7.632626538692e-02 0.0 
4.084731354362e-03 -1.376416484623e-01 0.0 
9.491736584000e-04 -4.684129054927e-02 0.0 
1.865473142661e-03 -4.496731074773e-02 0.0 
1.964606452750e-04 -1.212334154664e-01 0.0 
6.856743611668e-04 -2.069691372718e-01 0.0 
2.218991589077e-03 -6.843007154361e-02 0.0 
3.638183638757e-03 -1.266354286036e-01 0.0 
2.105879034553e-03 -1.624598593246e-01 0.0 
3.393737830027e-04 -1.139008362819e-01 0.0 
-1.332149901819e-03 -7.887423078761e-02 0.0 
-1.042719052762e-04 -2.071670970358e-01 0.0 
2.461219960827e-04 -1.346563857494e-01 0.0 
3.191847383893e-03 -1.007499686624e-01 0.0 
-1.083001825143e-03 -5.257659075461e-02 0.0 
3.201893756238e-03 -9.513737169209e-02 0.0 
2.583875423880e-03 -7.520644003923e-02 0.0 
3.140370126350e-03 -1.061619481180e-01 0.0 
2.933526554924e-03 -1.164812858846e-01 0.0 
3.684597976481e-03 -1.051662408593e-01 0.0 
9.407349284137e-04 -6.414820292472e-02 0.0 
-1.719825480632e-03 -7.465243544437e-02 0.0 
1.891841000198e-03 -8.736848671341e-02 0.0 
1.027233563359e-03 -4.071579461621e-02 0.0 
3.051544603782e-03 -1.113920061336e-01 0.0 
1.631062073501e-03 -1.791393227106e-01 0.0 
2.016132542766e-03 -5.992813953675e-02 0.0 
7.318200926822e-04 -4.471347991006e-02 0.0 
3.567249419755e-03 -1.405969244599e-01 0.0 
3.713043102416e-03 -1.332189792620e-01 0.0 
1.466303589439e-03 -1.689255612177e-01 0.0 
1.945858990635e-03 -8.102239320243e-02 0.0 
4.670567204774e-03 -1.586016548213e-01 0.0 
2.942785937114e-03 -1.154432114544e-01 0.0 
4.713976484672e-03 -1.595835760306e-01 0.0 
1.178706808542e-03 -8.072092017724e-02 0.0 
1.494667473329e-03 -4.279149179990e-02 0.0 
6.294310798892e-04 -1.643572440407e-01 0.0 
8.317909316681e-05 -2.223560640483e-01 0.0 
1.237746843029e-03 -4.230095965772e-02 0.0 
4.558869116931e-03 -1.525776698129e-01 0.0 
-1.477670442726e-03 -1.424971755287e-01 0.0 
1.721751735375e-03 -5.180551707826e-02 0.0 
2.003124444550e-03 -8.792141587171e-02 0.0 
-1.854364851792e-03 -8.178518752296e-02 0.0 
3.303716318539e-03 -1.597321836114e-01 0.0 
-2.040026884050e-04 -2.257647162495e-01 0.0 
-8.256961101705e-04 -4.430417179320e-02 0.0 
4.039511240770e-03 -1.229448902867e-01 0.0 
1.911379655306e-03 -9.517792768508e-02 0.0 
2.199636586244e-03 -5.652547655688e-02 0.0 
1.740179509735e-04 -2.321298990995e-01 0.0 
-1.821866422175e-03 -8.131436229713e-02 0.0 
4.103948178207e-03 -1.880501594115e-01 0.0 
2.175936242115e-03 -1.015514067162e-01 0.0 
-2.497417035579e-03 -1.246849049448e-01 0.0 
1.137362473496e-03 -1.638419841944e-01 0.0 
-1.323146630006e-03 -6.015072235298e-02 0.0 
3.392834375850e-03 -1.207414332215e-01 0.0 
1.272156102801e-03 -1.744434652451e-01 0.0 
3.905122561857e-03 -1.162421866544e-01 0.0 
-9.820249815947e-04 -2.248516046466e-01 0.0 
3.155571945245e-03 -8.876145216872e-02 0.0 
9.445282322511e-04 -8.147229641062e-02 0.0 
1.514574747594e-03 -3.599146753975e-02 0.0 
2.696669962365e-03 -7.352180667845e-02 0.0 
9.007253182058e-04 -1.940284786407e-01 0.0 
-1.821345638782e-03 -8.318944579858e-02 0.0 
6.315445665565e-04 -3.657645800210e-02 0.0 
5.813336593769e-04 -2.746039309495e-02 0.0 
1.162842823216e-03 -7.215966817945e-02 0.0 
2.624898904004e-03 -1.556804321242e-01 0.0 
3.557226380975e-03 -1.030015341683e-01 0.0 
-9.420130698245e-04 -5.409497191827e-02 0.0 
-7.725750574284e-04 -1.328628292330e-01 0.0 
2.911113300480e-03 -8.169179520212e-02 0.0 
1.810585809619e-03 -9.357646441345e-02 0.0 
-1.539783435731e-03 -6.747677475753e-02 0.0 
-1.654797240796e-03 -7.307962194489e-02 0.0 
4.579644539018e-04 -1.395058681195e-01 0.0 
3.055851412765e-04 -1.395364060175e-01 0.0 
3.007571845157e-03 -9.369136650330e-02 0.0 
3.339147184252e-03 -9.644053924239e-02 0.0 
-2.272595259801e-03 -1.187355596954e-01 0.0 
3.497684645599e-03 -9.813744037831e-02 0.0 
3.260908591849e-03 -1.284760333617e-01 0.0 
-2.227440058827e-04 -5.176594972993e-02 0.0 
2.995743063121e-03 -1.547937998389e-01 0.0 
2.555073918545e-04 -1.040246465922e-02 0.0 
2.994244115953e-03 -1.278606199443e-01 0.0 
3.522846766794e-03 -1.341717250482e-01 0.0 
-2.557520448981e-03 -1.245491059448e-01 0.0 
2.001926165813e-03 -1.973870677079e-01 0.0 
-2.853920462251e-03 -1.422077441831e-01 0.0 
3.714799124706e-03 -1.101916779319e-01 0.0 
4.078100359605e-03 -1.202796013059e-01 0.0 
2.156188007114e-03 -9.510530568740e-02 0.0 
3.343794941731e-03 -9.162236337433e-02 0.0 
3.124909620612e-03 -8.414545082912e-02 0.0 
1.203896516819e-04 -1.920567386357e-01 0.0 
-2.894474345521e-03 -1.475724875996e-01 0.0 
4.620223369763e-03 -1.535581977758e-01 0.0 
3.476910994801e-03 -1.028879429209e-01 0.0 
3.289868001971e-03 -9.588206591676e-02 0.0 
5.746681600429e-04 -5.720762439986e-02 0.0 
-3.754928501495e-05 -1.858131819117e-01 0.0 
-1.224157652406e-03 -2.106885002039e-01 0.0 
4.091927218336e-03 -1.303645731929e-01 0.0 
-2.804015637571e-03 -1.474707846546e-01 0.0 
3.179834962618e-03 -1.525245955102e-01 0.0 
3.036593458022e-03 -1.474973917308e-01 0.0 
2.273811639847e-03 -9.563058572320e-02 0.0 
4.026275625678e-03 -2.078224725297e-01 0.0 
-2.543085897130e-03 -1.307664440363e-01 0.0 
-5.389776024317e-04 -8.533537387881e-02 0.0 
-4.696736088078e-04 -2.110854450084e-01 0.0 
8.949202666600e-04 -2.184648340684e-02 0.0 
1.207870179578e-03 -5.597413081041e-02 0.0 
-2.300088393680e-03 -1.367316596952e-01 0.0 
-1.663098333772e-03 -7.569609349664e-02 0.0 
4.732765017220e-04 -1.942973616687e-01 0.0 
-9.320451557290e-04 -9.392305891637e-02 0.0 
3.979926896899e-03 -1.238593216058e-01 0.0 
3.806520310592e-04 -1.938125209024e-01 0.0 
1.125488212620e-03 -5.534557050480e-02 0.0 
-2.880100208596e-05 -2.149847587195e-01 0.0 
3.556414385369e-03 -1.036449359378e-01 0.0 
4.085485353501e-03 -1.211469212174e-01 0.0 
-1.364270617670e-03 -1.484388463084e-01 0.0 
-1.920957857590e-03 -1.169528395685e-01 0.0 
1.098734390201e-03 -4.838162958620e-02 0.0 
-1.721772938533e-03 -1.025497468402e-01 0.0 
3.781955445293e-03 -1.257128784247e-01 0.0 
3.995692266944e-03 -1.313123353015e-01 0.0 
4.610719245414e-04 -2.148503870936e-01 0.0 
-3.929733185619e-04 -2.186276395266e-01 0.0 
2.378130161810e-03 -6.695571537105e-02 0.0 
2.811758250379e-03 -1.101748235500e-01 0.0 
2.091394419650e-03 -5.929313255914e-02 0.0 
4.382605070091e-03 -1.867354368865e-01 0.0 
2.250592944854e-03 -6.970266908660e-02 0.0 
2.173292085529e-03 -5.728525094787e-02 0.0 
3.149610269290e-03 -1.433160525798e-01 0.0 
2.430004582490e-03 -6.612915264309e-02 0.0 
-1.606619562822e-03 -7.619279040438e-02 0.0 
3.426828231089e-03 -1.047683142161e-01 0.0 
-2.742285222577e-03 -1.365461927459e-01 0.0 
-2.676825955416e-03 -1.306364644717e-01 0.0 
1.314372389842e-03 -4.298450345915e-02 0.0 
-2.117219085400e-03 -1.302990992706e-01 0.0 
3.933350369333e-03 -1.153594940960e-01 0.0 
2.466304507353e-03 -1.308396701320e-01 0.0 
-1.513482336655e-03 -8.713902271991e-02 0.0 
3.323689717879e-03 -1.415402504170e-01 0.0 
5.185651675986e-04 -1.896975202799e-01 0.0 
-3.350356603737e-04 -1.287905880865e-01 0.0 
1.417711541027e-03 -1.843051794601e-01 0.0 
3.439028344804e-03 -9.740146340718e-02 0.0 
8.026492599267e-04 -1.848245043671e-01 0.0 
3.731064610085e-03 -1.059895589004e-01 0.0 
7.502523640949e-04 -6.496638776845e-02 0.0 
7.381816826057e-04 -7.372922925656e-02 0.0 
3.332399792687e-03 -1.477846931505e-01 0.0 
2.420204336985e-03 -1.025042212236e-01 0.0 
-1.438173003718e-03 -6.855313657955e-02 0.0 
-1.363822394020e-03 -6.908107527642e-02 0.0 
3.953980658703e-03 -2.132174669849e-01 0.0 
3.581255885194e-03 -9.971831063502e-02 0.0 
-8.816565979381e-04 -4.339562540408e-02 0.0 
4.148963828433e-03 -1.713225174201e-01 0.0 
-2.171929404574e-03 -1.252332157307e-01 0.0 
1.539661571440e-03 -2.128219513889e-01 0.0 
-1.190998665773e-03 -6.129036669856e-02 0.0 
1.576160679107e-03 -1.934601777372e-01 0.0 
-6.326506631041e-04 -1.279358591082e-01 0.0 
2.134866536544e-03 -9.463964377899e-02 0.0 
2.543091722995e-03 -1.030347253088e-01 0.0 
2.685303708077e-03 -1.096141746873e-01 0.0 
3.780480606942e-03 -1.180467153899e-01 0.0 
3.390368018752e-03 -1.620328954542e-01 0.0 
3.289227469929e-03 -1.573841044038e-01 0.0 
-1.105970398223e-03 -6.190020147310e-02 0.0 
-1.729735160358e-03 -1.098004500228e-01 0.0 
-1.250142494551e-03 -1.361847299027e-01 0.0 
-6.923728179217e-04 -9.348085970495e-02 0.0 
-3.499040047989e-04 -1.416894017464e-01 0.0 
1.809062809601e-03 -1.886098944693e-01 0.0 
3.259717854292e-03 -1.614432850785e-01 0.0 
2.904213980117e-03 -1.221232025260e-01 0.0 
3.777055173914e-04 -1.423774235705e-01 0.0 
5.138496904889e-04 -7.449908500065e-02 0.0 
3.028075580741e-03 -1.486992528915e-01 0.0 
7.170197572886e-04 -3.701216345352e-02 0.0 
-5.263267667805e-04 -6.453557832329e-02 0.0 
-1.468371474141e-04 -1.351350029407e-01 0.0 
-7.297210263121e-04 -3.385536654414e-02 0.0 
-1.332440871014e-04 -1.803935632495e-01 0.0 
1.061369701345e-03 -4.500947331612e-02 0.0 
3.678744106729e-03 -1.189525101002e-01 0.0 
3.077625294221e-03 -9.910537341454e-02 0.0 
-6.711232087126e-04 -6.052055909982e-02 0.0 
-3.232894286426e-03 -1.673859216292e-01 0.0 
3.779583359072e-03 -1.076355604792e-01 0.0 
-7.480428306072e-04 -1.420309124985e-01 0.0 
3.928489434869e-03 -1.136700888302e-01 0.0 
4.396527627967e-03 -1.821339924981e-01 0.0 
2.681995647831e-03 -9.299196954027e-02 0.0 
-9.820961645664e-04 -1.482557644718e-01 0.0 
-2.363671603879e-03 -1.184904157696e-01 0.0 
3.899985377060e-03 -1.128337793263e-01 0.0 
2.037710909448e-03 -2.219617883475e-01 0.0 
2.200892047203e-03 -1.174002140031e-01 0.0 
3.177599789280e-03 -2.102857660211e-01 0.0 
-1.127807059257e-04 -1.931553042344e-01 0.0 
-2.301945516793e-03 -1.250374942650e-01 0.0 
2.742198384045e-03 -7.112823370089e-02 0.0 
2.789263975515e-03 -1.042967859306e-01 0.0 
3.514657233465e-03 -1.708560579120e-01 0.0 
1.303911615438e-04 -5.086968622851e-03 0.0 
-6.731708847203e-04 -2.199565808471e-01 0.0 
3.456645053173e-03 -1.665342134202e-01 0.0 
-1.353971356995e-03 -1.298955561639e-01 0.0 
-1.999556767171e-03 -1.313216148530e-01 0.0 
3.843279627245e-03 -1.513901108066e-01 0.0 
-1.898275405613e-03 -1.752717304461e-01 0.0 
-1.917305406438e-03 -1.237363534555e-01 0.0 
3.649741513662e-03 -1.110817753483e-01 0.0 
1.931338654920e-03 -1.030353786763e-01 0.0 
2.287554170009e-03 -5.906005953260e-02 0.0 
3.883055616973e-03 -2.117028288456e-01 0.0 
-2.444539155018e-03 -1.366325130199e-01 0.0 
-1.856970697801e-03 -1.256211104514e-01 0.0 
-2.620356733808e-03 -1.812786514655e-01 0.0 
3.006814258211e-03 -1.378007387869e-01 0.0 
2.909817107876e-03 -1.049362195887e-01 0.0 
-1.946431143077e-04 -8.709563452070e-02 0.0 
5.677215570663e-04 -1.946495610743e-01 0.0 
5.527337842272e-04 -2.354712364999e-01 0.0 
-1.653430267190e-03 -1.920982307270e-01 0.0 
-1.677125970966e-03 -1.258402478635e-01 0.0 
-1.353814575349e-04 -1.702401486492e-01 0.0 
-1.749731606637e-03 -1.801735632267e-01 0.0 
-1.363471088787e-04 -1.898864979539e-01 0.0 
-2.026360911019e-03 -1.192628290849e-01 0.0 
2.903017407753e-03 -9.293483401970e-02 0.0 
-1.530711410635e-03 -1.200033818464e-01 0.0 
3.997214493910e-04 -1.699374483453e-01 0.0 
3.601270576373e-03 -1.005280027099e-01 0.0 
1.858354275959e-03 -1.249107066759e-01 0.0 
1.796101872361e-03 -7.842395234970e-02 0.0 
-1.339571654805e-03 -1.202893529995e-01 0.0 
-1.876069285942e-03 -1.194978665243e-01 0.0 
3.536509722721e-03 -1.790174656414e-01 0.0 
-8.768670355061e-04 -1.652064457102e-01 0.0 
-1.187735000084e-03 -1.143013457528e-01 0.0 
7.257479427543e-05 -9.850663279413e-02 0.0 
7.892839345471e-05 -1.111313034972e-01 0.0 
3.528319796530e-03 -1.750307717565e-01 0.0 
-1.725319782586e-03 -1.133823806955e-01 0.0 
-2.862123205290e-03 -1.789296860816e-01 0.0 
3.953614387275e-03 -2.046606602637e-01 0.0 
9.455850844296e-04 -4.549304292326e-02 0.0 
-1.910690309506e-03 -1.961803142084e-01 0.0 
-2.892853922178e-03 -1.741626532543e-01 0.0 
2.479567662794e-03 -1.239229328985e-01 0.0 
3.382185637650e-03 -1.701823980038e-01 0.0 
-9.862369522220e-04 -1.146454109515e-01 0.0 
-1.495459869358e-04 -1.781677167524e-01 0.0 
2.951237060457e-03 -1.327866176613e-01 0.0 
-1.559806634114e-03 -1.136687586054e-01 0.0 
-1.794667824886e-03 -1.426173114387e-01 0.0 
-2.438690722422e-03 -1.308738894306e-01 0.0 
2.371102439521e-03 -2.262295939457e-01 0.0 
9.518107296470e-05 -5.564632013802e-02 0.0 
-2.123913018388e-03 -1.650813419576e-01 0.0 
3.605233328484e-05 -5.882042190351e-02 0.0 
2.945310888931e-03 -9.997010113277e-02 0.0 
-1.406757620149e-03 -1.074071632641e-01 0.0 
-1.225825741947e-03 -1.077537792584e-01 0.0 
-4.121906836263e-04 -1.754810811809e-01 0.0 
-6.882459785202e-04 -2.031423597006e-01 0.0 
2.693919041447e-03 -2.226192003868e-01 0.0 
-1.067661464310e-03 -1.012932428801e-01 0.0 
-5.037523899148e-04 -6.026742926059e-02 0.0 
-3.333139349176e-03 -1.771483010824e-01 0.0 
3.415225640117e-03 -9.394697904105e-02 0.0 
4.188891080696e-03 -1.761236494499e-01 0.0 
3.380899547722e-03 -9.237991558996e-02 0.0 
-6.392715810149e-04 -2.742077406360e-02 0.0 
6.630645632291e-04 -2.413808656124e-01 0.0 
2.125901181730e-05 -5.254209373100e-03 0.0 
-4.328355749906e-05 -5.821685556842e-03 0.0 
4.846472607250e-05 -1.292188111315e-01 0.0 
-2.914849369198e-03 -1.642920978263e-01 0.0 
3.326092773397e-03 -1.056700781012e-01 0.0 
7.135053563595e-04 -1.749400925265e-01 0.0 
2.342592368121e-04 -1.948787341970e-01 0.0 
7.157345777350e-04 -2.177049518134e-01 0.0 
4.040208928851e-04 -4.137494364432e-02 0.0 
2.976180472070e-03 -9.934039881547e-02 0.0 
2.909184634946e-03 -1.422645547301e-01 0.0 
4.241685142819e-04 -1.081042957629e-02 0.0 
-1.005496911284e-04 -1.834766223239e-01 0.0 
3.755929099371e-04 -1.047440782659e-02 0.0 
2.863926801286e-03 -9.873514284742e-02 0.0 
-3.208430301391e-03 -1.632869700241e-01 0.0 
3.447269555756e-03 -1.128893339438e-01 0.0 
-3.085752084211e-03 -1.688920036794e-01 0.0 
4.066779788136e-03 -1.999518285784e-01 0.0 
-3.301729193062e-03 -1.726875591722e-01 0.0 
2.904558102964e-03 -8.703936656110e-02 0.0 
-5.257326178303e-04 -5.610993802866e-02 0.0 
-2.378662661966e-03 -1.700128698665e-01 0.0 
3.192240488500e-03 -8.559207990269e-02 0.0 
1.398175755114e-03 -2.399594949099e-01 0.0 
-1.155333725099e-03 -1.704917080876e-01 0.0 
2.384344865717e-03 -7.700576500055e-02 0.0 
-3.212244171467e-03 -1.714386625942e-01 0.0 
-3.360124348362e-03 -1.801816678598e-01 0.0 
3.305131631414e-03 -1.137557068861e-01 0.0 
-2.917769822777e-03 -2.092374482858e-01 0.0 
3.429910538764e-03 -1.867720494186e-01 0.0 
3.485280829474e-03 -1.830162333670e-01 0.0 
-3.163981627233e-03 -1.790720095035e-01 0.0 
-1.641949090436e-03 -1.301363840000e-01 0.0 
3.044446647411e-03 -1.359761142970e-01 0.0 
3.206551889716e-03 -8.634945127893e-02 0.0 
1.479226548218e-03 -3.819160120747e-02 0.0 
3.401588975367e-03 -1.782749848417e-01 0.0 
1.384333870521e-04 -8.440018669541e-02 0.0 
1.584363013527e-03 -3.755028766589e-02 0.0 
4.573490459585e-04 -1.801552748990e-01 0.0 
2.958965586020e-03 -2.081675738037e-01 0.0 
4.274605656902e-03 -1.722507741165e-01 0.0 
-2.104933192050e-03 -1.365994832527e-01 0.0 
3.076511117129e-03 -8.346554437100e-02 0.0 
-1.855117610152e-03 -1.365456936488e-01 0.0 
3.458071648756e-03 -2.188897196523e-01 0.0 
-1.492625826568e-03 -1.166572642476e-01 0.0 
4.140066514188e-03 -1.954014983784e-01 0.0 
2.754360999060e-03 -1.367909495002e-01 0.0 
-1.691850993372e-03 -1.236274277888e-01 0.0 
3.051640443765e-03 -1.074011787618e-01 0.0 
5.274473862725e-04 -1.010097997759e-01 0.0 
-3.015047116198e-03 -1.785795932919e-01 0.0 
3.770650903290e-03 -2.096499229715e-01 0.0 
-1.526857542401e-03 -1.096138003687e-01 0.0 
4.174566022405e-03 -1.908666094068e-01 0.0 
8.396171266434e-04 -2.352631821407e-01 0.0 
3.909258995042e-05 -3.770345419412e-02 0.0 
5.090209040452e-05 -5.444956525742e-02 0.0 
1.887324045756e-03 -2.048260293900e-01 0.0 
-1.338110639295e-03 -1.020914680584e-01 0.0 
-2.245378684319e-03 -1.872017223771e-01 0.0 
-2.349989302748e-03 -1.841248275193e-01 0.0 
2.729655644023e-03 -7.038037982415e-02 0.0 
2.876373460750e-03 -1.082008243582e-01 0.0 
2.985211355954e-03 -7.925462290116e-02 0.0 
-1.612066678119e-03 -1.704270017017e-01 0.0 
8.710588294356e-04 -1.426874130750e-01 0.0 
-6.076585730386e-04 -2.304742566398e-02 0.0 
-1.869149075712e-03 -1.894733040726e-01 0.0 
1.466424386158e-04 -6.743588652366e-02 0.0 
3.026068174342e-03 -1.293370966534e-01 0.0 
-1.675590236002e-04 -1.885051224187e-01 0.0 
3.167083185188e-03 -8.944407547159e-02 0.0 
-3.900723408182e-04 -1.650193818572e-01 0.0 
-4.287212051593e-04 -2.077343908252e-01 0.0 
-1.253537410547e-03 -1.803827031610e-01 0.0 
-1.038577383793e-04 -9.400510700419e-02 0.0 
2.998097140321e-03 -8.780851540988e-02 0.0 
-1.586181331267e-03 -1.986709447140e-01 0.0 
-4.237286343632e-04 -1.294153944213e-01 0.0 
2.928130952818e-03 -7.706032079023e-02 0.0 
1.703568680970e-03 -6.992319799809e-02 0.0 
-3.329635372121e-03 -1.760961555199e-01 0.0 
-3.096377401436e-04 -1.777879075207e-01 0.0 
2.749245681432e-03 -1.232351946231e-01 0.0 
4.086649465265e-05 -1.052141479596e-01 0.0 
-9.540885174318e-04 -2.119115992181e-01 0.0 
1.122516674204e-03 -2.637155707238e-02 0.0 
8.305024502918e-04 -2.255752152472e-02 0.0 
1.675568923896e-04 -1.218001632684e-01 0.0 
6.290897600512e-04 -2.944746171728e-02 0.0 
8.741511361405e-04 -2.145803155379e-02 0.0 
-1.753079116523e-03 -1.652166830665e-01 0.0 
-2.676031332733e-03 -1.696882717100e-01 0.0 
1.384400311246e-04 -2.799075699410e-02 0.0 
8.877429797688e-05 -2.396288013146e-01 0.0 
-6.300040611343e-05 -1.809814194570e-01 0.0 
-3.112015545482e-04 -1.249642208419e-01 0.0 
-3.256814079551e-03 -1.756149261508e-01 0.0 
-2.560675441474e-03 -1.794353743904e-01 0.0 
3.160649638965e-03 -1.940123150166e-01 0.0 
3.308469047075e-03 -1.904685793302e-01 0.0 
1.597193197179e-03 -1.238438383020e-01 0.0 
-9.453482565029e-04 -1.755455767664e-01 0.0 
-8.589732466335e-04 -1.760561681726e-01 0.0 
2.284379616501e-03 -7.757932850991e-02 0.0 
-2.873551027120e-04 -1.034428018250e-02 0.0 
-3.252631458290e-04 -1.163838638301e-02 0.0 
-2.707066878983e-03 -1.645989859190e-01 0.0 
2.046666773141e-03 -1.310471636286e-01 0.0 
8.318623007510e-04 -2.373413330223e-01 0.0 
2.792692983910e-03 -2.009097231085e-01 0.0 
-2.719982750329e-03 -2.127007448900e-01 0.0 
3.019371111398e-03 -1.972994820322e-01 0.0 
2.721116371488e-03 -1.161880505924e-01 0.0 
-3.243238813688e-03 -1.777259768351e-01 0.0 
-2.294037487595e-03 -1.749929397198e-01 0.0 
-1.174522024220e-03 -2.265009668221e-01 0.0 
1.063253091538e-04 -4.978467550115e-02 0.0 
-3.094792183441e-03 -1.736732733166e-01 0.0 
3.563027266502e-04 -4.047495176118e-02 0.0 
2.940453474938e-04 -6.419210448161e-02 0.0 
5.629269336262e-05 -1.157971989972e-02 0.0 
-9.573584990674e-05 -1.026854418033e-02 0.0 
8.652662487456e-05 -1.230759104547e-01 0.0 
-3.202788558344e-03 -1.684839652877e-01 0.0 
3.287614364507e-03 -1.859186629734e-01 0.0 
-3.161660844284e-03 -1.636173464737e-01 0.0 
-1.190517482240e-04 -4.912247275332e-03 0.0 
2.098743095883e-03 -2.085386343327e-01 0.0 
2.491636759661e-03 -2.046323409492e-01 0.0 
4.015578486862e-04 -5.831192084951e-02 0.0 
1.530939924549e-03 -1.334638823431e-01 0.0 
2.109266345522e-04 -3.881282253995e-02 0.0 
2.958357214715e-03 -7.774939764817e-02 0.0 
1.438769751307e-03 -5.286172291752e-02 0.0 
2.506834148803e-03 -6.656294079120e-02 0.0 
5.868812113146e-04 -1.190676327043e-01 0.0 
-3.169300992914e-03 -1.827979203393e-01 0.0 
-3.292622421472e-03 -1.834263493265e-01 0.0 
1.696427518508e-04 -9.133057207558e-02 0.0 
1.723590561107e-03 -6.136612212824e-02 0.0 
2.577062229449e-03 -1.400230982466e-01 0.0 
3.073197942188e-04 -1.338198845713e-01 0.0 
3.750593645577e-04 -1.243765067549e-01 0.0 
6.723952654610e-04 -1.204337118519e-01 0.0 
-1.441122152404e-03 -2.208542293274e-01 0.0 
-2.979119927055e-03 -1.856670208658e-01 0.0 
3.021965055471e-04 -2.551166568131e-02 0.0 
6.723657427630e-04 -1.077720989263e-01 0.0 
3.839095393559e-04 -1.932250538777e-02 0.0 
1.599742234855e-03 -4.055337670236e-02 0.0 
3.236740137452e-03 -9.020647994508e-02 0.0 
9.083586214940e-04 -4.014054810771e-02 0.0 
-1.423531535655e-03 -1.569803200378e-01 0.0 
-1.358160520820e-03 -1.649819885880e-01 0.0 
-9.504597210773e-04 -3.842053730538e-02 0.0 
-2.180423009156e-04 -2.294157724887e-01 0.0 
-3.494940675122e-04 -1.800977946718e-01 0.0 
1.993896229717e-04 -5.243179891210e-03 0.0 
1.516234602196e-05 -1.913276295343e-01 0.0 
3.830217674575e-04 -1.306569954840e-01 0.0 
-1.501170081421e-04 -4.268440907662e-02 0.0 
1.047433341286e-03 -1.997220516562e-01 0.0 
1.697993081107e-03 -1.978887345184e-01 0.0 
1.829412627817e-04 -1.020591183775e-02 0.0 
1.321459824880e-03 -1.399643736139e-01 0.0 
4.306801054261e-04 -2.767356949969e-02 0.0 
1.734556376713e-04 -3.759251293210e-02 0.0 
1.135142501668e-03 -1.399992313648e-01 0.0 
7.084759054259e-04 -2.368046836891e-01 0.0 
9.348605193681e-05 -2.145800320812e-02 0.0 
-9.150011205681e-05 -1.925582236246e-01 0.0 
4.867458343278e-04 -3.549743187798e-02 0.0 
-1.071672512259e-04 -4.963397078584e-03 0.0 
1.374962365327e-03 -3.769305210815e-02 0.0 
-1.529563998065e-03 -2.139990907971e-01 0.0 
2.263382910984e-03 -1.244188252868e-01 0.0 
-8.765727543316e-04 -1.568847374491e-01 0.0 
2.138914474495e-03 -7.779198258945e-02 0.0 
2.146558136929e-04 -9.925669329037e-03 0.0 
1.719759154834e-04 -7.710323375939e-02 0.0 
1.514345804245e-04 -1.027543743695e-02 0.0 
-8.941817594459e-04 -2.278494945633e-01 0.0 
-5.737085600080e-04 -2.389441950528e-02 0.0 
-2.464856238991e-03 -2.082568132203e-01 0.0 
8.397811251685e-05 -1.916202492678e-01 0.0 
-3.166375593879e-04 -2.653690666392e-02 0.0 
7.166650430346e-04 -2.532455003203e-02 0.0 
3.879054289208e-04 -1.994311438448e-02 0.0 
8.583985594743e-04 -1.324744202476e-01 0.0 
2.784301200268e-03 -1.211368702127e-01 0.0 
4.203106117353e-03 -2.016187450901e-01 0.0 
1.029140783657e-03 -2.496725857793e-02 0.0 
-7.008304360285e-04 -1.678333920431e-01 0.0 
3.523451523502e-03 -2.173089664709e-01 0.0 
1.863924235929e-03 -6.973597957077e-02 0.0 
6.799142463526e-04 -1.428059617467e-01 0.0 
9.568266110653e-04 -3.423350635528e-02 0.0 
7.599330143092e-06 -1.097400521836e-02 0.0 
7.599330143092e-06 -4.657019318509e-03 0.0 
2.310147802655e-04 -1.959545827907e-01 0.0 
8.353942537076e-05 -1.957208333703e-01 0.0 
3.857704335508e-05 -1.393835059619e-01 0.0 
8.347580284040e-05 -1.427566539901e-01 0.0 
-1.866768580186e-05 -4.749742352040e-03 0.0 
-1.866768580186e-05 -1.119086564441e-02 0.0 
3.186950645910e-04 -1.953489084266e-01 0.0 
2.493944903779e-03 -2.364587270189e-01 0.0 
-6.641329583931e-04 -3.683555638094e-02 0.0 
1.575871281828e-03 -4.320924192765e-02 0.0 
-2.705759084142e-04 -1.905588057634e-01 0.0 
-8.682336441655e-04 -3.440812878534e-02 0.0 
-1.877185155729e-04 -1.147092591123e-01 0.0 
-1.920998221166e-04 -1.370917704205e-01 0.0 
4.582167967588e-04 -1.028542269399e-01 0.0 
-2.748661155711e-03 -2.089177928472e-01 0.0 
2.521034644059e-03 -9.356887349574e-02 0.0 
1.652479005652e-04 -1.934644626647e-01 0.0 
-1.177856108710e-03 -1.469955794596e-01 0.0 
1.376045105820e-03 -3.391231669520e-02 0.0 
2.150153735272e-05 -4.585477430182e-02 0.0 
-3.769475964033e-04 -1.358140701572e-01 0.0 
2.902365874101e-04 -1.153766653633e-01 0.0 
1.656429115046e-03 -4.081599444383e-02 0.0 
2.345060740070e-03 -5.999951561153e-02 0.0 
2.834872271893e-03 -7.564296360273e-02 0.0 
9.658617147781e-04 -1.395996896333e-01 0.0 
2.405371841804e-03 -1.019726696349e-01 0.0 
1.148091575463e-03 -3.601877615292e-02 0.0 
-5.167571714907e-04 -1.794521216978e-01 0.0 
2.426399526106e-03 -2.040217949338e-01 0.0 
1.966160872295e-03 -4.913684558015e-02 0.0 
3.528100606215e-04 -6.684053996219e-02 0.0 
-2.364747108277e-03 -2.114500748376e-01 0.0 
2.390003244664e-04 -9.279653446391e-02 0.0 
-3.751488501965e-04 -2.235802140722e-02 0.0 
1.908240665957e-03 -5.040694134510e-02 0.0 
1.618533034284e-03 -4.150701355051e-02 0.0 
-2.192555594804e-04 -1.018936803822e-01 0.0 
1.423609110328e-03 -2.293945464138e-01 0.0 
3.009307189186e-03 -1.930466221796e-01 0.0 
4.321579769713e-03 -1.921865941088e-01 0.0 
2.362552679047e-03 -1.210871403535e-01 0.0 
2.609082902144e-03 -1.013466506846e-01 0.0 
3.915413571831e-04 -3.432504623484e-02 0.0 
1.921959960646e-04 -2.313896548370e-02 0.0 
-8.302387684547e-05 -2.103524978598e-01 0.0 
8.780132340438e-04 -2.040953072296e-01 0.0 
2.600631020128e-03 -1.996285868417e-01 0.0 
4.030836835500e-04 -8.643230720669e-02 0.0 
-1.022316178601e-03 -1.725278822014e-01 0.0 
8.303678613945e-04 -3.322597707481e-02 0.0 
-8.127555564537e-05 -1.901042262605e-01 0.0 
3.996375457116e-04 -4.057548965875e-02 0.0 
1.475509007330e-03 -1.228560884449e-01 0.0 
6.745772452054e-04 -2.167591499307e-02 0.0 
2.122927819527e-03 -6.921896208583e-02 0.0 
2.574876097624e-03 -1.213818342074e-01 0.0 
-5.412669510873e-04 -2.675967132461e-02 0.0 
6.360014700831e-04 -2.470851081177e-02 0.0 
7.604342298919e-05 -2.494528126669e-02 0.0 
1.854020306606e-03 -2.067188190404e-01 0.0 
8.411798566506e-04 -3.922876937638e-02 0.0 
9.322762411833e-04 -2.139245755664e-02 0.0 
2.954357269947e-04 -4.319362834759e-02 0.0 
1.837129002700e-03 -6.106175872285e-02 0.0 
-1.461048543828e-04 -5.124598850064e-03 0.0 
2.774116709460e-03 -7.487660811936e-02 0.0 
-1.679947445623e-03 -2.297129249217e-01 0.0 
3.835184259342e-03 -2.119292461098e-01 0.0 
1.997097585519e-03 -5.074981552222e-02 0.0 
2.150788548006e-03 -1.134240220441e-01 0.0 
-3.766739062882e-04 -3.888435907934e-02 0.0 
1.638811964859e-03 -5.215024572214e-02 0.0 
-5.348002829137e-04 -1.983893408253e-02 0.0 
3.581907403637e-04 -7.166281490089e-02 0.0 
5.595138592511e-04 -2.112850087453e-02 0.0 
-8.154578829871e-04 -3.679619008330e-02 0.0 
-7.416814003807e-04 -3.637907408177e-02 0.0 
-7.682315303036e-04 -1.706482728663e-01 0.0 
-2.603019965532e-04 -1.013192860777e-02 0.0 
1.940042724465e-03 -1.345184193290e-01 0.0 
2.572286807661e-04 -3.930459955916e-02 0.0 
1.158400327359e-04 -2.047056075238e-01 0.0 
1.615948688236e-04 -5.307901274112e-02 0.0 
3.632330658959e-04 -9.214993891824e-02 0.0 
9.245970096323e-05 -1.937250124349e-01 0.0 
-1.139252270943e-03 -2.180389164087e-01 0.0 
2.625096281297e-03 -6.826875235350e-02 0.0 
3.232803236836e-04 -2.115824968111e-02 0.0 
1.338866527682e-04 -3.760004940859e-02 0.0 
6.749527085375e-04 -2.810126238906e-02 0.0 
7.189617413060e-04 -1.142691904027e-01 0.0 
2.115991982913e-03 -2.004066976257e-01 0.0 
1.695595642342e-03 -2.306519344558e-01 0.0 
1.596819137222e-03 -1.993104501727e-01 0.0 
-3.945640514464e-04 -2.017737880386e-01 0.0 
-2.491188343070e-03 -2.262496529914e-01 0.0 
-1.063565199413e-03 -1.504655931281e-01 0.0 
-4.701135375555e-04 -3.882673815097e-02 0.0 
1.358436176322e-03 -3.839659217159e-02 0.0 
2.687159232773e-03 -1.149343047086e-01 0.0 
-1.510407436871e-03 -1.611902219240e-01 0.0 
-1.010439176546e-03 -3.992990658907e-02 0.0 
-3.801346414461e-04 -4.392841070582e-02 0.0 
8.439236012118e-04 -2.585382038586e-02 0.0 
1.469271555865e-03 -3.522003318398e-02 0.0 
2.095350847778e-03 -5.237829887774e-02 0.0 
4.810220556115e-04 -2.025403938635e-01 0.0 
-2.136808328080e-04 -2.316329324639e-01 0.0 
-6.285389335877e-04 -3.855173393791e-02 0.0 
1.386014551036e-04 -1.933389553151e-01 0.0 
2.408654062978e-05 -1.926434653337e-01 0.0 
2.023884904170e-03 -2.184452975215e-01 0.0 
1.007768882367e-03 -1.987975015651e-01 0.0 
-4.717442908919e-04 -2.115097660447e-02 0.0 
8.810030594617e-04 -2.028239613886e-02 0.0 
3.586795226381e-04 -3.421711323464e-02 0.0 
7.029092632931e-04 -1.996801135257e-02 0.0 
-3.818127991090e-04 -5.263925846121e-02 0.0 
5.911873045314e-04 -1.073783547184e-01 0.0 
8.300523781149e-05 -4.291937893962e-03 0.0 
-2.851627509210e-03 -2.068590549966e-01 0.0 
1.219985990524e-03 -1.431290723662e-01 0.0 
-1.791345104342e-03 -2.106201644113e-01 0.0 
1.316174405950e-03 -1.970492425697e-01 0.0 
-2.076283172813e-04 -1.059373128990e-02 0.0 
2.590727267133e-03 -1.339235947555e-01 0.0 
1.866820288285e-04 -1.926034019450e-01 0.0 
-7.566347245991e-04 -1.527786281165e-01 0.0 
1.023662224114e-03 -2.399073207522e-02 0.0 
5.370585146925e-04 -3.644488057140e-02 0.0 
6.033388557554e-04 -2.009177784271e-02 0.0 
-4.408485482116e-04 -1.745314661288e-01 0.0 
1.203735882446e-03 -2.316176255028e-01 0.0 
-6.705998150587e-04 -2.527627825742e-02 0.0 
2.885834196040e-05 -9.911228691609e-03 0.0 
-6.195124330091e-05 -1.057142790888e-02 0.0 
8.704176942758e-05 -1.338455039354e-01 0.0 
-2.444724159801e-04 -3.754479875679e-02 0.0 
6.072745156430e-05 -1.918962662862e-01 0.0 
7.855722873475e-04 -3.312620882054e-02 0.0 
1.561108171042e-03 -1.979861122761e-01 0.0 
-3.024884521846e-04 -2.063234338917e-02 0.0 
7.904453178898e-04 -2.591351577274e-02 0.0 
1.183860402897e-03 -2.336885931083e-01 0.0 
1.878217420759e-03 -5.158826022840e-02 0.0 
3.494669510111e-04 -7.886098717254e-02 0.0 
2.153605050135e-04 -1.993689510004e-02 0.0 
7.598472661490e-05 -4.150571940550e-03 0.0 
1.391364370352e-04 -9.827627356962e-02 0.0 
8.299101910316e-04 -1.954625110901e-02 0.0 
1.013010254392e-03 -3.459268443204e-02 0.0 
2.845955409366e-04 -8.853079661558e-02 0.0 
1.343537909669e-03 -3.208365443339e-02 0.0 
-8.435130784342e-04 -1.643924101978e-01 0.0 
6.014658971974e-04 -1.399139792902e-01 0.0 
1.222324877476e-03 -3.513247125775e-02 0.0 
2.519038274080e-05 -2.078679380356e-02 0.0 
3.977972591523e-04 -1.958501154686e-01 0.0 
1.610745797931e-04 -1.399265171711e-01 0.0 
-5.396276988040e-05 -2.076471947684e-02 0.0 
-3.706793479622e-04 -1.906651149552e-01 0.0 
7.067078344787e-05 -4.276762075180e-02 0.0 
1.238383904382e-03 -3.749746214823e-02 0.0 
2.610014827055e-04 -2.557581927556e-02 0.0 
-1.243476983474e-04 -1.902420035074e-01 0.0 
3.237318071919e-03 -2.201917655378e-01 0.0 
-7.567301328684e-05 -1.316602731559e-01 0.0 
1.389303636660e-04 -6.336608418447e-02 0.0 
2.784279561476e-03 -2.399455211405e-01 0.0 
4.754944793566e-04 -1.932572606332e-02 0.0 
2.559026925123e-04 -1.008396030719e-01 0.0 
-2.531577073348e-03 -2.069094422477e-01 0.0 
4.742034152846e-04 -1.100775073737e-01 0.0 
9.450689265828e-04 -2.593946679903e-02 0.0 
-1.479937077586e-04 -1.259313993133e-01 0.0 
-4.381169699010e-04 -2.232007269602e-01 0.0 
-9.676267581820e-04 -1.697307553129e-01 0.0 
-1.051336374070e-03 -1.420584118401e-01 0.0 
-7.232069447171e-05 -1.200339088526e-01 0.0 
9.264234233646e-04 -3.716946314049e-02 0.0 
-5.443908818991e-04 -1.439782018725e-01 0.0 
-6.989882616152e-04 -1.374850859060e-01 0.0 
1.011758353700e-03 -1.975716388246e-01 0.0 
-8.790580159139e-04 -3.433672659489e-02 0.0 
1.989618849562e-03 -4.892622729866e-02 0.0 
3.742479735054e-03 -2.161960136658e-01 0.0 
4.644939455810e-05 -1.972401727680e-02 0.0 
-9.724632737945e-05 -2.014528174131e-02 0.0 
1.646405463803e-04 -1.343871518353e-01 0.0 
1.957033149265e-04 -1.037102573034e-01 0.0 
-7.520968920883e-04 -1.450789678226e-01 0.0 
-8.382733063475e-04 -1.415546261239e-01 0.0 
-5.122828293311e-04 -1.389567915172e-01 0.0 
2.815890664925e-04 -5.164755463827e-02 0.0 
-1.914336260626e-03 -2.079940188319e-01 0.0 
1.685089894888e-03 -4.047964393203e-02 0.0 
3.027888818815e-04 -1.220278473815e-01 0.0 
5.859309648030e-04 -2.483726997102e-02 0.0 
1.222511730967e-04 -5.156070913080e-02 0.0 
5.522692489280e-04 -1.125093670473e-01 0.0 
1.793687898200e-03 -4.454254451583e-02 0.0 
9.934185376191e-04 -3.600999241727e-02 0.0 
7.612467330635e-04 -2.648239241054e-02 0.0 
9.646144978318e-04 -2.244655887525e-01 0.0 
1.834434590398e-03 -4.523157179242e-02 0.0 
1.564376848240e-03 -3.767911304012e-02 0.0 
1.057810423434e-03 -1.972043651534e-01 0.0 
-8.508690505139e-04 -1.490527672073e-01 0.0 
6.733293006376e-04 -2.282879532600e-01 0.0 
1.496690198749e-03 -3.658423158447e-02 0.0 
6.293212356922e-05 -1.929546660583e-01 0.0 
7.686861986884e-05 -1.931290576856e-01 0.0 
8.699884978620e-05 -1.929643446257e-01 0.0 
9.103163936211e-05 -1.931286783642e-01 0.0 
1.067599751962e-04 -1.929824005065e-01 0.0 
1.035756912714e-04 -1.931498243602e-01 0.0 
1.231435440464e-04 -1.930094198490e-01 0.0 
1.131368954689e-04 -1.931809071530e-01 0.0 
1.343706463823e-04 -1.930459064418e-01 0.0 
1.168535619322e-04 -1.932223897093e-01 0.0 
1.386048184175e-04 -1.930934456279e-01 0.0 
1.123509422590e-04 -1.932761545481e-01 0.0 
1.341379500435e-04 -1.931544352424e-01 0.0 
9.758021080893e-05 -1.933448588702e-01 0.0 
1.193808404023e-04 -1.932319076086e-01 0.0 
7.068808333473e-05 -1.934317928495e-01 0.0 
9.284239698930e-05 -1.933294840777e-01 0.0 
2.994210584527e-05 -1.935408602540e-01 0.0 
5.311684008565e-05 -1.934514028169e-01 0.0 
-2.630896563672e-05 -1.936766235476e-01 0.0 
-1.118266714735e-06 -1.936025932084e-01 0.0 
-9.965073869769e-05 -1.938443940193e-01 0.0 
-7.109126827433e-05 -1.937887902105e-01 0.0 
-3.283519728294e-03 -2.164311382154e-01 0.0 
-1.915961508638e-04 -1.940503600394e-01 0.0 
-1.579049731024e-04 -1.940166774370e-01 0.0 
-3.035513844196e-04 -1.943017369714e-01 0.0 
-5.009459865386e-03 -2.174867470986e-01 0.0 
-2.624803925753e-04 -1.942940471430e-01 0.0 
-4.367559017975e-04 -1.946069336691e-01 0.0 
-2.618338441117e-03 -2.144062331508e-01 0.0 
-3.854750666832e-04 -1.946299689282e-01 0.0 
-5.922061809203e-04 -1.949757369415e-01 0.0 
-5.271935604544e-04 -1.950350149251e-01 0.0 
-7.705591351405e-04 -1.954195648886e-01 0.0 
-6.874505332517e-04 -1.955214997008e-01 0.0 
-9.720066228634e-04 -1.959517340002e-01 0.0 
-8.654466493747e-04 -1.961038839163e-01 0.0 
-1.196098102744e-03 -1.965879120694e-01 0.0 
-1.059476316602e-03 -1.967990603477e-01 0.0 
-2.182210478887e-03 -2.189545889639e-01 0.0 
-1.441496312306e-03 -1.973464710177e-01 0.0 
-1.266848643172e-03 -1.976272863117e-01 0.0 
-1.705594785826e-03 -1.982494677433e-01 0.0 
-1.483060649984e-03 -1.986121060467e-01 0.0 
-1.983827107699e-03 -1.993226614909e-01 0.0 
-2.268797974633e-03 -2.005976674244e-01 0.0 
-1.702260864053e-03 -1.997827016944e-01 0.0 
-2.548079584191e-03 -2.021093454447e-01 0.0 
-1.914773998176e-03 -2.011709440897e-01 0.0 
-2.802861433563e-03 -2.039018037563e-01 0.0 
-2.111363421748e-03 -2.028178986994e-01 0.0 
-3.255246102015e-03 -2.060277187690e-01 0.0 
-2.277549796093e-03 -2.047396745428e-01 0.0 
-3.830666139122e-03 -2.087967238570e-01 0.0 
-4.104232010222e-03 -2.123587114894e-01 0.0 
-2.630749047859e-03 -2.071479280252e-01 0.0 
-2.814004086927e-03 -2.103061450485e-01 0.0 
-3.908150615979e-03 -2.200101978471e-01 0.0 
1.537299794674e-05 -1.930789450848e-01 0.0 
5.308812878433e-05 -1.930762820589e-01 0.0 
4.006311056482e-05 -1.932415337441e-01 0.0 
2.839801616625e-05 -1.929136933995e-01 0.0 
-4.452182394981e-03 -2.240611157615e-01 0.0 
5.321462666709e-05 -1.923188307514e-01 0.0 
7.114444029198e-05 -1.918554263751e-01 0.0 
9.099216711146e-05 -1.923265486222e-01 0.0 
1.115758323297e-04 -1.918517559127e-01 0.0 
1.233108508385e-04 -1.923432740586e-01 0.0 
1.477400931382e-04 -1.918701675702e-01 0.0 
1.507570702708e-04 -1.923688895069e-01 0.0 
1.792419699332e-04 -1.918980793508e-01 0.0 
1.728621946221e-04 -1.924036089817e-01 0.0 
2.054486535103e-04 -1.919356514340e-01 0.0 
1.887083617557e-04 -1.924490048128e-01 0.0 
2.255692476312e-04 -1.919847599974e-01 0.0 
1.972527120775e-04 -1.925074815068e-01 0.0 
2.387553627560e-04 -1.920480772691e-01 0.0 
1.974412303154e-04 -1.925820797432e-01 0.0 
2.441696558559e-04 -1.921289137127e-01 0.0 
1.882635795974e-04 -1.926764328064e-01 0.0 
2.410344411396e-04 -1.922312011885e-01 0.0 
1.687879927719e-04 -1.927947950226e-01 0.0 
2.286715779964e-04 -1.923595387640e-01 0.0 
1.381911242321e-04 -1.929421162191e-01 0.0 
2.065401855771e-04 -1.925192829565e-01 0.0 
-3.114653420457e-04 -2.091020890517e-01 0.0 
9.579026505367e-05 -1.931241561371e-01 0.0 
1.742761111899e-04 -1.927166850201e-01 0.0 
4.108575562331e-05 -1.933476364912e-01 0.0 
1.974699482982e-06 -2.074776932446e-01 0.0 
1.317556238997e-04 -1.929590607132e-01 0.0 
-2.616411298179e-05 -1.936204118306e-01 0.0 
7.918213929452e-05 -1.932549751141e-01 0.0 
-1.058533051847e-04 -1.939516456856e-01 0.0 
1.721657761979e-05 -1.936144217016e-01 0.0 
-1.172909386429e-03 -2.102088417409e-01 0.0 
-1.973925634128e-04 -1.943520229278e-01 0.0 
-5.292412053126e-05 -1.940491009284e-01 0.0 
-2.996165156841e-04 -1.948340277379e-01 0.0 
-1.292368614389e-04 -1.945726554346e-01 0.0 
-4.105109055177e-04 -1.954122773135e-01 0.0 
-2.088801320528e-04 -1.952012499947e-01 0.0 
-5.271940897678e-04 -1.961040048757e-01 0.0 
-2.876300159018e-04 -1.959536108840e-01 0.0 
-6.452645736018e-04 -1.969294816500e-01 0.0 
-3.603024999614e-04 -1.968527475622e-01 0.0 
-7.593524336901e-04 -1.979131905273e-01 0.0 
-4.189831914550e-04 -1.979243239405e-01 0.0 
3.474794255132e-04 -2.104644489441e-01 0.0 
-4.555409116671e-04 -1.992022958638e-01 0.0 
-8.611251641040e-04 -1.990832796635e-01 0.0 
-4.554252028793e-04 -2.007179256348e-01 0.0 
-9.426526351592e-04 -2.004749945600e-01 0.0 
-4.092389606353e-04 -2.025195606948e-01 0.0 
-9.908304034532e-04 -2.021224284191e-01 0.0 
-2.781722010910e-04 -2.046573702488e-01 0.0 
-1.004460341461e-03 -2.040529017616e-01 0.0 
-9.267646015675e-04 -2.064643522862e-01 0.0 
-5.139646188704e-04 -2.115712016332e-01 0.0 
8.676485923564e-07 -1.921229974624e-01 0.0 
2.886528252782e-05 -1.921206332348e-01 0.0 
1.584026430831e-05 -1.916497508149e-01 0.0 
1.389266681187e-05 -1.925938798823e-01 0.0 
-6.691657502632e-04 -2.137160266022e-01 0.0 
7.279103930400e-05 -1.897582531619e-01 0.0 
8.451544167805e-05 -1.905761675347e-01 0.0 
1.277025240190e-04 -1.897672137436e-01 0.0 
1.349151878512e-04 -1.905716798746e-01 0.0 
1.810616771823e-04 -1.897815640418e-01 0.0 
1.821515639605e-04 -1.905885335915e-01 0.0 
2.314466632567e-04 -1.898039079053e-01 0.0 
2.255200920968e-04 -1.906147317278e-01 0.0 
2.782986049670e-04 -1.898350892634e-01 0.0 
2.646069416916e-04 -1.906504793387e-01 0.0 
3.212670740087e-04 -1.898766967971e-01 0.0 
2.989696717029e-04 -1.906976240771e-01 0.0 
3.600383068934e-04 -1.899310754574e-01 0.0 
3.281405335002e-04 -1.907588071401e-01 0.0 
3.943256802650e-04 -1.900012157372e-01 0.0 
3.516689350613e-04 -1.908373198358e-01 0.0 
4.238970885480e-04 -1.900907259398e-01 0.0 
3.691686708848e-04 -1.909370881988e-01 0.0 
4.486184048331e-04 -1.902038581134e-01 0.0 
3.803677603123e-04 -1.910627148445e-01 0.0 
1.196815642233e-03 -2.028365886388e-01 0.0 
4.685025610177e-04 -1.903455727871e-01 0.0 
3.851554400468e-04 -1.912195634440e-01 0.0 
4.837576019481e-04 -1.905216413172e-01 0.0 
6.831964871428e-04 -2.040324798453e-01 0.0 
3.836281936146e-04 -1.914138897127e-01 0.0 
4.948250660556e-04 -1.907388301703e-01 0.0 
1.359497612218e-03 -2.014499114246e-01 0.0 
3.761428519073e-04 -1.916530496997e-01 0.0 
5.024599229572e-04 -1.910050795712e-01 0.0 
3.634189472260e-04 -1.919456538682e-01 0.0 
5.078324094516e-04 -1.913297314772e-01 0.0 
3.466654843246e-04 -1.923018287391e-01 0.0 
5.127247160101e-04 -1.917235944025e-01 0.0 
3.277442521868e-04 -1.927332653656e-01 0.0 
5.195426212728e-04 -1.921994836786e-01 0.0 
3.092539027999e-04 -1.932539469381e-01 0.0 
1.670520434316e-03 -2.035615711893e-01 0.0 
5.317185541102e-04 -1.927720104835e-01 0.0 
2.948585633363e-04 -1.938796916611e-01 0.0 
5.533317316050e-04 -1.934591311669e-01 0.0 
2.891571100820e-04 -1.946302955087e-01 0.0 
2.986727813448e-04 -1.955267344748e-01 0.0 
5.904978336881e-04 -1.942801531873e-01 0.0 
3.302839874781e-04 -1.965989082761e-01 0.0 
6.488900265492e-04 -1.952617617755e-01 0.0 
3.961418905094e-04 -1.978724292749e-01 0.0 
7.398248170056e-04 -1.964279974102e-01 0.0 
5.049629707302e-04 -1.993953240209e-01 0.0 
6.864821871904e-04 -2.011853648472e-01 0.0 
8.694183406268e-04 -1.978225263573e-01 0.0 
1.065278917982e-03 -1.994656309576e-01 0.0 
1.156901279226e-03 -2.047574623958e-01 0.0 
1.416963313028e-05 -1.901970938780e-01 0.0 
4.837267831659e-05 -1.901975227709e-01 0.0 
2.914224884623e-05 -1.910079591001e-01 0.0 
3.340006260064e-05 -1.893866575488e-01 0.0 
1.124271892042e-03 -2.063956937576e-01 0.0 
8.246846378448e-05 -1.878341930277e-01 0.0 
1.130631889073e-04 -1.867302499599e-01 0.0 
1.465728467678e-04 -1.878453563030e-01 0.0 
1.830744111885e-04 -1.867279655960e-01 0.0 
2.103505777708e-04 -1.878597072038e-01 0.0 
2.523236889755e-04 -1.867439095513e-01 0.0 
2.723298876833e-04 -1.878811407030e-01 0.0 
3.200058234497e-04 -1.867679988790e-01 0.0 
3.319011118934e-04 -1.879111236169e-01 0.0 
3.857642066392e-04 -1.868012587352e-01 0.0 
3.888218320299e-04 -1.879514418402e-01 0.0 
4.494862084222e-04 -1.868457971766e-01 0.0 
4.430000855915e-04 -1.880045035139e-01 0.0 
5.112144746295e-04 -1.869043306965e-01 0.0 
4.944378426962e-04 -1.880733112371e-01 0.0 
5.710978752078e-04 -1.869801595032e-01 0.0 
5.432138662633e-04 -1.881614701073e-01 0.0 
6.293848343926e-04 -1.870772130893e-01 0.0 
5.895177906256e-04 -1.882732388364e-01 0.0 
2.066660479055e-03 -1.969180438410e-01 0.0 
6.864598473907e-04 -1.872001134843e-01 0.0 
6.336952623035e-04 -1.884135907038e-01 0.0 
7.428981874365e-04 -1.873542549447e-01 0.0 
2.160044759906e-03 -1.955377540237e-01 0.0 
6.763076480519e-04 -1.885883149011e-01 0.0 
7.995285273197e-04 -1.875459056863e-01 0.0 
7.181753536569e-04 -1.888041725599e-01 0.0 
8.573963670646e-04 -1.877824535949e-01 0.0 
7.603631505133e-04 -1.890691410768e-01 0.0 
1.723213994187e-03 -1.983556447644e-01 0.0 
9.178901859658e-04 -1.880725997173e-01 0.0 
8.044004206355e-04 -1.893926158207e-01 0.0 
9.827815125182e-04 -1.884267211632e-01 0.0 
8.522727330199e-04 -1.897856024831e-01 0.0 
1.054722765656e-03 -1.888566085499e-01 0.0 
9.069731177327e-04 -1.902608187823e-01 0.0 
1.136670260494e-03 -1.893766873985e-01 0.0 
9.717044153443e-04 -1.908334158402e-01 0.0 
1.233236567016e-03 -1.900023400664e-01 0.0 
1.051723874051e-03 -1.915203742154e-01 0.0 
1.348217775758e-03 -1.907547029626e-01 0.0 
2.416018995206e-03 -1.971604203852e-01 0.0 
1.489815615533e-03 -1.916513229518e-01 0.0 
1.151166356918e-03 -1.923433175926e-01 0.0 
1.660007262817e-03 -1.927285043532e-01 0.0 
1.279364337508e-03 -1.933231858472e-01 0.0 
1.878196881803e-03 -1.939988587576e-01 0.0 
1.439073781386e-03 -1.944961694157e-01 0.0 
1.652224367540e-03 -1.958807838344e-01 0.0 
2.072572510338e-03 -1.985980213086e-01 0.0 
5.043334511373e-06 -1.873098618056e-01 0.0 
4.892380417816e-05 -1.873111553617e-01 0.0 
2.969337470780e-05 -1.861966668935e-01 0.0 
2.427376398173e-05 -1.884243502737e-01 0.0 
2.087652859160e-03 -1.999725540792e-01 0.0 
1.134806770500e-04 -1.827060733895e-01 0.0 
1.337223635957e-04 -1.841668081457e-01 0.0 
1.983663861166e-04 -1.827188774191e-01 0.0 
2.142087758488e-04 -1.841649285263e-01 0.0 
2.839656106300e-04 -1.827333195301e-01 0.0 
2.948043571745e-04 -1.841805589473e-01 0.0 
3.696921416460e-04 -1.827537269321e-01 0.0 
3.748874092135e-04 -1.842039357122e-01 0.0 
4.552048076240e-04 -1.827821190239e-01 0.0 
4.541863166060e-04 -1.842363173090e-01 0.0 
5.404766884977e-04 -1.828206456557e-01 0.0 
5.327189549231e-04 -1.842799424184e-01 0.0 
6.257312987970e-04 -1.828719014793e-01 0.0 
6.107129413340e-04 -1.843375834202e-01 0.0 
7.113936219963e-04 -1.829389152302e-01 0.0 
6.885551878033e-04 -1.844125107727e-01 0.0 
7.979889383313e-04 -1.830252469721e-01 0.0 
7.667025938651e-04 -1.845086386846e-01 0.0 
2.595337232226e-03 -1.906779139969e-01 0.0 
8.861143474044e-04 -1.831351146428e-01 0.0 
8.457386446970e-04 -1.846305636953e-01 0.0 
9.765104142230e-04 -1.832734600795e-01 0.0 
2.353037945563e-03 -1.923599645622e-01 0.0 
9.264345420496e-04 -1.847836741094e-01 0.0 
2.641796761201e-03 -1.892873010063e-01 0.0 
1.070162709489e-03 -1.834460516869e-01 0.0 
1.009847234143e-03 -1.849742233074e-01 0.0 
1.168370883488e-03 -1.836593953683e-01 0.0 
1.097273190072e-03 -1.852093587821e-01 0.0 
1.272437265780e-03 -1.839213789896e-01 0.0 
1.190087478225e-03 -1.854979324428e-01 0.0 
1.383966692530e-03 -1.842411375415e-01 0.0 
1.290150492153e-03 -1.858499101585e-01 0.0 
2.880063891135e-03 -1.905928968818e-01 0.0 
1.504720385084e-03 -1.846302846942e-01 0.0 
1.399801438086e-03 -1.862781017657e-01 0.0 
1.638046358954e-03 -1.851003819215e-01 0.0 
1.522664829286e-03 -1.867947573219e-01 0.0 
1.661705200714e-03 -1.874191066311e-01 0.0 
1.786167617833e-03 -1.856682523283e-01 0.0 
1.823245742221e-03 -1.881641077908e-01 0.0 
1.955220474212e-03 -1.863465456084e-01 0.0 
2.008366830272e-03 -1.890621234955e-01 0.0 
2.233566968810e-03 -1.901191648560e-01 0.0 
2.144745538120e-03 -1.871635229645e-01 0.0 
2.371475258240e-03 -1.881246468937e-01 0.0 
2.637764604473e-03 -1.922749474471e-01 0.0 
1.916132896547e-05 -1.834618970262e-01 0.0 
7.339483720935e-05 -1.834638555593e-01 0.0 
4.381136916190e-05 -1.849140449152e-01 0.0 
4.874479701292e-05 -1.820117076703e-01 0.0 
2.670743933078e-03 -1.935708118317e-01 0.0 
1.241920263302e-04 -1.795006119316e-01 0.0 
1.657007967688e-04 -1.777567952331e-01 0.0 
2.196334700094e-04 -1.795143259644e-01 0.0 
2.677077272382e-04 -1.777563574442e-01 0.0 
3.161974781266e-04 -1.795292999028e-01 0.0 
3.709161241647e-04 -1.777725163971e-01 0.0 
4.135720411396e-04 -1.795497040093e-01 0.0 
4.751678692844e-04 -1.777955415238e-01 0.0 
5.116053682012e-04 -1.795777477583e-01 0.0 
5.805352512224e-04 -1.778271045076e-01 0.0 
6.104250625368e-04 -1.796158041198e-01 0.0 
6.872846205045e-04 -1.778698029737e-01 0.0 
7.103485903392e-04 -1.796666035706e-01 0.0 
7.959485061964e-04 -1.779266855733e-01 0.0 
8.120118953164e-04 -1.797333152921e-01 0.0 
9.073317724267e-04 -1.780010647921e-01 0.0 
9.161472496345e-04 -1.798194009297e-01 0.0 
2.892923415697e-03 -1.840828774086e-01 0.0 
1.022185511298e-03 -1.780967101498e-01 0.0 
1.023438953534e-03 -1.799290321503e-01 0.0 
2.900833744577e-03 -1.826096976207e-01 0.0 
1.141221815638e-03 -1.782181152820e-01 0.0 
1.134668979034e-03 -1.800670941587e-01 0.0 
1.265377003702e-03 -1.783706803090e-01 0.0 
1.250946606329e-03 -1.802394238074e-01 0.0 
1.396014759713e-03 -1.785607799301e-01 0.0 
2.725409537835e-03 -1.860425858292e-01 0.0 
1.373754512217e-03 -1.804525798705e-01 0.0 
1.534895110672e-03 -1.787949641886e-01 0.0 
1.504675557651e-03 -1.807137998938e-01 0.0 
1.682860023622e-03 -1.790816800390e-01 0.0 
1.644500946055e-03 -1.810324642335e-01 0.0 
1.841544824576e-03 -1.794303288766e-01 0.0 
1.795580463981e-03 -1.814193767202e-01 0.0 
2.011621526703e-03 -1.798553373797e-01 0.0 
1.959006368673e-03 -1.818885255095e-01 0.0 
2.198354644396e-03 -1.803658905483e-01 0.0 
3.128470164552e-03 -1.836753725560e-01 0.0 
2.400377259681e-03 -1.809863337281e-01 0.0 
2.140897423224e-03 -1.824512419668e-01 0.0 
2.631773920935e-03 -1.817174699185e-01 0.0 
2.339162727788e-03 -1.831307830669e-01 0.0 
2.569331463258e-03 -1.839326476337e-01 0.0 
2.960956286689e-03 -1.856350809766e-01 0.0 
1.026811911197e-05 -1.786534210262e-01 0.0 
7.521297663609e-05 -1.786556572347e-01 0.0 
4.562950858864e-05 -1.769001074572e-01 0.0 
3.985158715942e-05 -1.804089708036e-01 0.0 
3.015251799485e-03 -1.868852781914e-01 0.0 
1.533169599766e-04 -1.718088409688e-01 0.0 
1.851085084347e-04 -1.739113613951e-01 0.0 
2.684758020637e-04 -1.718240215178e-01 0.0 
2.971423476266e-04 -1.739114868357e-01 0.0 
3.857173355497e-04 -1.718396263648e-01 0.0 
4.110013611995e-04 -1.739277134677e-01 0.0 
5.049691373542e-04 -1.718598899023e-01 0.0 
5.264797284643e-04 -1.739505303462e-01 0.0 
6.262981808193e-04 -1.718873687228e-01 0.0 
6.439162046606e-04 -1.739817366497e-01 0.0 
7.501403488089e-04 -1.719245558044e-01 0.0 
7.636189533384e-04 -1.740239225162e-01 0.0 
8.768418281363e-04 -1.719745671439e-01 0.0 
8.861074111596e-04 -1.740805296041e-01 0.0 
1.007248460943e-03 -1.720408110211e-01 0.0 
1.012409433090e-03 -1.741547164903e-01 0.0 
3.005710311042e-03 -1.769001794421e-01 0.0 
1.142577913014e-03 -1.721262100108e-01 0.0 
1.143538514014e-03 -1.742498675327e-01 0.0 
2.889055316853e-03 -1.791297203391e-01 0.0 
1.283390228383e-03 -1.722344867389e-01 0.0 
1.279820087771e-03 -1.743704124875e-01 0.0 
2.991707173159e-03 -1.753552766809e-01 0.0 
1.430082882025e-03 -1.723706167760e-01 0.0 
1.422192634560e-03 -1.745219057208e-01 0.0 
1.583926321369e-03 -1.725407026878e-01 0.0 
1.572178843894e-03 -1.747108333987e-01 0.0 
1.746486788742e-03 -1.727514212752e-01 0.0 
1.731463303016e-03 -1.749437521246e-01 0.0 
3.206037517656e-03 -1.762378720918e-01 0.0 
1.919849311493e-03 -1.730070478391e-01 0.0 
1.901465585120e-03 -1.752261400482e-01 0.0 
2.102984998760e-03 -1.733180124450e-01 0.0 
2.081423315783e-03 -1.755714170788e-01 0.0 
2.274217668068e-03 -1.759866125254e-01 0.0 
2.298055096553e-03 -1.736917400681e-01 0.0 
2.478945178131e-03 -1.764970876862e-01 0.0 
2.502193043773e-03 -1.741509977930e-01 0.0 
2.710800810235e-03 -1.770970085605e-01 0.0 
2.731911507513e-03 -1.746931139371e-01 0.0 
3.089382523466e-03 -1.784674129889e-01 0.0 
2.423703574626e-05 -1.728837685652e-01 0.0 
9.889911525088e-05 -1.728860977424e-01 0.0 
5.959842522292e-05 -1.749768850897e-01 0.0 
6.353772577422e-05 -1.707929812179e-01 0.0 
3.163603408868e-03 -1.797322125551e-01 0.0 
1.620857685526e-04 -1.673208115320e-01 0.0 
2.113697146624e-04 -1.649360560429e-01 0.0 
2.859681997153e-04 -1.673367456024e-01 0.0 
3.418334947574e-04 -1.649379832139e-01 0.0 
4.129160850288e-04 -1.673533986584e-01 0.0 
4.751447350289e-04 -1.649550766225e-01 0.0 
5.419137617045e-04 -1.673734807635e-01 0.0 
6.110205396228e-04 -1.649777364351e-01 0.0 
6.738943676276e-04 -1.674009839506e-01 0.0 
7.503959886652e-04 -1.650087121835e-01 0.0 
8.090239460053e-04 -1.674379161105e-01 0.0 
8.934998838505e-04 -1.650501275260e-01 0.0 
9.478391614520e-04 -1.674874118476e-01 0.0 
1.040468165953e-03 -1.651060791527e-01 0.0 
1.090611882420e-03 -1.675535158659e-01 0.0 
2.998882453144e-03 -1.691470602070e-01 0.0 
1.193105487033e-03 -1.651807700288e-01 0.0 
2.963083519245e-03 -1.674671450816e-01 0.0 
1.239910545479e-03 -1.676395587045e-01 0.0 
1.352746627466e-03 -1.652758128143e-01 0.0 
1.395265709369e-03 -1.677470833268e-01 0.0 
1.518285813042e-03 -1.653943621245e-01 0.0 
1.556673126310e-03 -1.678819698251e-01 0.0 
1.690942414152e-03 -1.655436320144e-01 0.0 
2.925602844409e-03 -1.716703085639e-01 0.0 
1.726085856676e-03 -1.680510759323e-01 0.0 
1.872547935683e-03 -1.657303339229e-01 0.0 
1.904696345223e-03 -1.682605485548e-01 0.0 
2.063564944944e-03 -1.659614339246e-01 0.0 
2.093741396939e-03 -1.685156023594e-01 0.0 
2.267867194501e-03 -1.662356283193e-01 0.0 
2.295494522695e-03 -1.688189461958e-01 0.0 
2.478542662205e-03 -1.665703692853e-01 0.0 
2.707622496793e-03 -1.669661397351e-01 0.0 
2.502664919040e-03 -1.691897585238e-01 0.0 
3.169263666992e-03 -1.682259981984e-01 0.0 
2.730988050011e-03 -1.696325065471e-01 0.0 
3.095984058257e-03 -1.707492465553e-01 0.0 
1.480034517543e-05 -1.661520087736e-01 0.0 
9.823123325607e-05 -1.661542353008e-01 0.0 
5.893054322811e-05 -1.637570958613e-01 0.0 
5.410103520339e-05 -1.685491482131e-01 0.0 
3.183199084284e-03 -1.720303200489e-01 0.0 
1.819645600290e-04 -1.570586938562e-01 0.0 
2.235918810718e-04 -1.598065395628e-01 0.0 
3.186631159325e-04 -1.570795288693e-01 0.0 
3.623062445651e-04 -1.598102829609e-01 0.0 
4.621729457131e-04 -1.570965491524e-01 0.0 
5.039288459054e-04 -1.598259273695e-01 0.0 
6.072692146123e-04 -1.571160112845e-01 0.0 
6.475918816541e-04 -1.598494162091e-01 0.0 
7.567245885416e-04 -1.571434511713e-01 0.0 
7.966548675481e-04 -1.598794996303e-01 0.0 
9.108475948450e-04 -1.571790704930e-01 0.0 
9.490646538074e-04 -1.599204944618e-01 0.0 
1.069653610841e-03 -1.572259394799e-01 0.0 
2.885134322676e-03 -1.606365046250e-01 0.0 
1.106717845384e-03 -1.599742398492e-01 0.0 
1.233069440674e-03 -1.572919568964e-01 0.0 
2.842816787726e-03 -1.634462850527e-01 0.0 
1.269313365855e-03 -1.600510503629e-01 0.0 
1.403610264171e-03 -1.573782356097e-01 0.0 
2.835244304055e-03 -1.588532381815e-01 0.0 
1.440238467336e-03 -1.601442093854e-01 0.0 
1.580999489364e-03 -1.574803088671e-01 0.0 
1.616527753167e-03 -1.602591910937e-01 0.0 
1.763949914618e-03 -1.576096564838e-01 0.0 
1.799977262335e-03 -1.604064897038e-01 0.0 
3.039049728953e-03 -1.594986562572e-01 0.0 
1.955847165544e-03 -1.577736396518e-01 0.0 
1.993274396368e-03 -1.605900399528e-01 0.0 
2.195022249069e-03 -1.608158984180e-01 0.0 
2.156880110034e-03 -1.579747190782e-01 0.0 
2.405947155416e-03 -1.610910264022e-01 0.0 
2.363278661979e-03 -1.582254649357e-01 0.0 
2.634159974915e-03 -1.614002599762e-01 0.0 
2.589191796320e-03 -1.585042349696e-01 0.0 
2.996732194003e-03 -1.623084366849e-01 0.0 
2.890997726969e-05 -1.584587184464e-01 0.0 
1.199974904172e-04 -1.584563452541e-01 0.0 
7.304017532237e-05 -1.611918070104e-01 0.0 
7.586729236456e-05 -1.557232566901e-01 0.0 
3.093633372304e-03 -1.636629299018e-01 0.0 
1.827331214616e-04 -1.512750125869e-01 0.0 
2.348686254098e-04 -1.482518672136e-01 0.0 
3.291712988379e-04 -1.513085377893e-01 0.0 
3.880134050241e-04 -1.482687983561e-01 0.0 
4.773719232668e-04 -1.513260556276e-01 0.0 
5.397810812649e-04 -1.482807749478e-01 0.0 
6.279224724182e-04 -1.513413523875e-01 0.0 
6.972712398410e-04 -1.483045221215e-01 0.0 
7.857506889227e-04 -1.513732159807e-01 0.0 
8.619988139971e-04 -1.483354717039e-01 0.0 
9.471654409129e-04 -1.514052777573e-01 0.0 
1.028970877936e-03 -1.483736583679e-01 0.0 
2.689893013094e-03 -1.514448566133e-01 0.0 
1.113241988901e-03 -1.514528961217e-01 0.0 
2.631935834594e-03 -1.494998622827e-01 0.0 
1.207721736184e-03 -1.484252076279e-01 0.0 
1.290484953413e-03 -1.515159680334e-01 0.0 
1.389980902420e-03 -1.485026846148e-01 0.0 
1.466862287997e-03 -1.516058587246e-01 0.0 
1.573206282493e-03 -1.485942100717e-01 0.0 
1.650715280695e-03 -1.517026864385e-01 0.0 
1.765220706428e-03 -1.487000247148e-01 0.0 
2.683170209570e-03 -1.545565320030e-01 0.0 
1.842927076548e-03 -1.518281125335e-01 0.0 
1.967354151815e-03 -1.488433264258e-01 0.0 
2.044246893093e-03 -1.519920203240e-01 0.0 
2.180682820828e-03 -1.490222925883e-01 0.0 
2.403870292487e-03 -1.492340135388e-01 0.0 
2.255888806944e-03 -1.521885910415e-01 0.0 
2.473118008487e-03 -1.524297080933e-01 0.0 
2.818505711375e-03 -1.500787775454e-01 0.0 
2.811782907851e-03 -1.531904529351e-01 0.0 
1.882210489594e-05 -1.498090841019e-01 0.0 
1.106781794761e-04 -1.497869845369e-01 0.0 
6.372086438127e-05 -1.467584913967e-01 0.0 
6.577941999081e-05 -1.528375772421e-01 0.0 
2.918888823741e-03 -1.545911341070e-01 0.0 

VECTORS element_materi_displacement float
0.0 0.0 0.0 
0.0 0.0 0.0 
0.0 0.0 0.0 
0.0 0.0 0.0 
0.0 0.0 0.0 
0.0 0.0 0.0 
0.0 0.0 0.0 
0.0 0.0 0.0 
0.0 0.0 0.0 
0.0 0.0 0.0 
0.0 0.0 0.0 
0.0 0.0 0.0 
0.0 0.0 0.0 
0.0 0.0 0.0 
0.0 0.0 0.0 
0.0 0.0 0.0 
0.0 0.0 0.0 
0.0 0.0 0.0 
0.0 0.0 0.0 
0.0 0.0 0.0 
0.0 0.0 0.0 
0.0 0.0 0.0 
0.0 0.0 0.0 
0.0 0.0 0.0 
0.0 0.0 0.0 
0.0 0.0 0.0 
0.0 0.0 0.0 
0.0 0.0 0.0 
0.0 0.0 0.0 
0.0 0.0 0.0 
0.0 0.0 0.0 
0.0 0.0 0.0 
0.0 0.0 0.0 
0.0 0.0 0.0 
0.0 0.0 0.0 
0.0 0.0 0.0 
0.0 0.0 0.0 
0.0 0.0 0.0 
0.0 0.0 0.0 
0.0 0.0 0.0 
0.0 0.0 0.0 
0.0 0.0 0.0 
0.0 0.0 0.0 
0.0 0.0 0.0 
0.0 0.0 0.0 
0.0 0.0 0.0 
0.0 0.0 0.0 
0.0 0.0 0.0 
0.0 0.0 0.0 
0.0 0.0 0.0 
0.0 0.0 0.0 
0.0 0.0 0.0 
0.0 0.0 0.0 
0.0 0.0 0.0 
0.0 0.0 0.0 
0.0 0.0 0.0 
0.0 0.0 0.0 
0.0 0.0 0.0 
0.0 0.0 0.0 
0.0 0.0 0.0 
0.0 0.0 0.0 
0.0 0.0 0.0 
0.0 0.0 0.0 
0.0 0.0 0.0 
0.0 0.0 0.0 
0.0 0.0 0.0 
0.0 0.0 0.0 
0.0 0.0 0.0 
0.0 0.0 0.0 
0.0 0.0 0.0 
0.0 0.0 0.0 
0.0 0.0 0.0 
0.0 0.0 0.0 
0.0 0.0 0.0 
0.0 0.0 0.0 
0.0 0.0 0.0 
0.0 0.0 0.0 
0.0 0.0 0.0 
0.0 0.0 0.0 
0.0 0.0 0.0 
0.0 0.0 0.0 
0.0 0.0 0.0 
0.0 0.0 0.0 
0.0 0.0 0.0 
0.0 0.0 0.0 
0.0 0.0 0.0 
0.0 0.0 0.0 
0.0 0.0 0.0 
0.0 0.0 0.0 
0.0 0.0 0.0 
0.0 0.0 0.0 
0.0 0.0 0.0 
0.0 0.0 0.0 
0.0 0.0 0.0 
0.0 0.0 0.0 
0.0 0.0 0.0 
0.0 0.0 0.0 
0.0 0.0 0.0 
0.0 0.0 0.0 
0.0 0.0 0.0 
0.0 0.0 0.0 
0.0 0.0 0.0 
0.0 0.0 0.0 
0.0 0.0 0.0 
0.0 0.0 0.0 
0.0 0.0 0.0 
0.0 0.0 0.0 
0.0 0.0 0.0 
0.0 0.0 0.0 
0.0 0.0 0.0 
0.0 0.0 0.0 
0.0 0.0 0.0 
0.0 0.0 0.0 
0.0 0.0 0.0 
0.0 0.0 0.0 
0.0 0.0 0.0 
0.0 0.0 0.0 
0.0 0.0 0.0 
0.0 0.0 0.0 
0.0 0.0 0.0 
0.0 0.0 0.0 
0.0 0.0 0.0 
0.0 0.0 0.0 
0.0 0.0 0.0 
0.0 0.0 0.0 
0.0 0.0 0.0 
0.0 0.0 0.0 
0.0 0.0 0.0 
0.0 0.0 0.0 
0.0 0.0 0.0 
0.0 0.0 0.0 
0.0 0.0 0.0 
0.0 0.0 0.0 
0.0 0.0 0.0 
0.0 0.0 0.0 
0.0 0.0 0.0 
0.0 0.0 0.0 
0.0 0.0 0.0 
0.0 0.0 0.0 
0.0 0.0 0.0 
0.0 0.0 0.0 
0.0 0.0 0.0 
0.0 0.0 0.0 
0.0 0.0 0.0 
0.0 0.0 0.0 
0.0 0.0 0.0 
0.0 0.0 0.0 
0.0 0.0 0.0 
0.0 0.0 0.0 
0.0 0.0 0.0 
0.0 0.0 0.0 
0.0 0.0 0.0 
0.0 0.0 0.0 
0.0 0.0 0.0 
0.0 0.0 0.0 
0.0 0.0 0.0 
0.0 0.0 0.0 
0.0 0.0 0.0 
0.0 0.0 0.0 
0.0 0.0 0.0 
0.0 0.0 0.0 
0.0 0.0 0.0 
0.0 0.0 0.0 
0.0 0.0 0.0 
0.0 0.0 0.0 
0.0 0.0 0.0 
0.0 0.0 0.0 
0.0 0.0 0.0 
0.0 0.0 0.0 
0.0 0.0 0.0 
0.0 0.0 0.0 
0.0 0.0 0.0 
0.0 0.0 0.0 
0.0 0.0 0.0 
0.0 0.0 0.0 
0.0 0.0 0.0 
0.0 0.0 0.0 
0.0 0.0 0.0 
0.0 0.0 0.0 
0.0 0.0 0.0 
0.0 0.0 0.0 
0.0 0.0 0.0 
0.0 0.0 0.0 
0.0 0.0 0.0 
0.0 0.0 0.0 
0.0 0.0 0.0 
0.0 0.0 0.0 
0.0 0.0 0.0 
0.0 0.0 0.0 
0.0 0.0 0.0 
0.0 0.0 0.0 
0.0 0.0 0.0 
0.0 0.0 0.0 
0.0 0.0 0.0 
0.0 0.0 0.0 
0.0 0.0 0.0 
0.0 0.0 0.0 
0.0 0.0 0.0 
0.0 0.0 0.0 
0.0 0.0 0.0 
0.0 0.0 0.0 
0.0 0.0 0.0 
0.0 0.0 0.0 
0.0 0.0 0.0 
0.0 0.0 0.0 
0.0 0.0 0.0 
0.0 0.0 0.0 
0.0 0.0 0.0 
0.0 0.0 0.0 
0.0 0.0 0.0 
0.0 0.0 0.0 
0.0 0.0 0.0 
0.0 0.0 0.0 
0.0 0.0 0.0 
0.0 0.0 0.0 
0.0 0.0 0.0 
0.0 0.0 0.0 
0.0 0.0 0.0 
0.0 0.0 0.0 
0.0 0.0 0.0 
0.0 0.0 0.0 
0.0 0.0 0.0 
0.0 0.0 0.0 
0.0 0.0 0.0 
0.0 0.0 0.0 
0.0 0.0 0.0 
0.0 0.0 0.0 
0.0 0.0 0.0 
0.0 0.0 0.0 
0.0 0.0 0.0 
0.0 0.0 0.0 
0.0 0.0 0.0 
0.0 0.0 0.0 
0.0 0.0 0.0 
0.0 0.0 0.0 
0.0 0.0 0.0 
0.0 0.0 0.0 
0.0 0.0 0.0 
0.0 0.0 0.0 
0.0 0.0 0.0 
0.0 0.0 0.0 
0.0 0.0 0.0 
0.0 0.0 0.0 
0.0 0.0 0.0 
0.0 0.0 0.0 
0.0 0.0 0.0 
0.0 0.0 0.0 
0.0 0.0 0.0 
0.0 0.0 0.0 
0.0 0.0 0.0 
0.0 0.0 0.0 
0.0 0.0 0.0 
0.0 0.0 0.0 
0.0 0.0 0.0 
0.0 0.0 0.0 
0.0 0.0 0.0 
0.0 0.0 0.0 
0.0 0.0 0.0 
0.0 0.0 0.0 
0.0 0.0 0.0 
0.0 0.0 0.0 
0.0 0.0 0.0 
0.0 0.0 0.0 
0.0 0.0 0.0 
0.0 0.0 0.0 
0.0 0.0 0.0 
0.0 0.0 0.0 
0.0 0.0 0.0 
0.0 0.0 0.0 
0.0 0.0 0.0 
0.0 0.0 0.0 
0.0 0.0 0.0 
0.0 0.0 0.0 
0.0 0.0 0.0 
0.0 0.0 0.0 
0.0 0.0 0.0 
0.0 0.0 0.0 
0.0 0.0 0.0 
0.0 0.0 0.0 
0.0 0.0 0.0 
0.0 0.0 0.0 
0.0 0.0 0.0 
0.0 0.0 0.0 
0.0 0.0 0.0 
0.0 0.0 0.0 
0.0 0.0 0.0 
0.0 0.0 0.0 
0.0 0.0 0.0 
0.0 0.0 0.0 
0.0 0.0 0.0 
0.0 0.0 0.0 
0.0 0.0 0.0 
0.0 0.0 0.0 
0.0 0.0 0.0 
0.0 0.0 0.0 
0.0 0.0 0.0 
0.0 0.0 0.0 
0.0 0.0 0.0 
0.0 0.0 0.0 
0.0 0.0 0.0 
0.0 0.0 0.0 
0.0 0.0 0.0 
0.0 0.0 0.0 
0.0 0.0 0.0 
0.0 0.0 0.0 
0.0 0.0 0.0 
0.0 0.0 0.0 
0.0 0.0 0.0 
0.0 0.0 0.0 
0.0 0.0 0.0 
0.0 0.0 0.0 
0.0 0.0 0.0 
0.0 0.0 0.0 
0.0 0.0 0.0 
0.0 0.0 0.0 
0.0 0.0 0.0 
0.0 0.0 0.0 
0.0 0.0 0.0 
0.0 0.0 0.0 
0.0 0.0 0.0 
0.0 0.0 0.0 
0.0 0.0 0.0 
0.0 0.0 0.0 
0.0 0.0 0.0 
0.0 0.0 0.0 
0.0 0.0 0.0 
0.0 0.0 0.0 
0.0 0.0 0.0 
0.0 0.0 0.0 
0.0 0.0 0.0 
0.0 0.0 0.0 
0.0 0.0 0.0 
0.0 0.0 0.0 
0.0 0.0 0.0 
0.0 0.0 0.0 
0.0 0.0 0.0 
0.0 0.0 0.0 
0.0 0.0 0.0 
0.0 0.0 0.0 
0.0 0.0 0.0 
0.0 0.0 0.0 
0.0 0.0 0.0 
0.0 0.0 0.0 
0.0 0.0 0.0 
0.0 0.0 0.0 
0.0 0.0 0.0 
0.0 0.0 0.0 
0.0 0.0 0.0 
0.0 0.0 0.0 
0.0 0.0 0.0 
0.0 0.0 0.0 
0.0 0.0 0.0 
0.0 0.0 0.0 
0.0 0.0 0.0 
0.0 0.0 0.0 
0.0 0.0 0.0 
0.0 0.0 0.0 
0.0 0.0 0.0 
0.0 0.0 0.0 
0.0 0.0 0.0 
0.0 0.0 0.0 
0.0 0.0 0.0 
0.0 0.0 0.0 
0.0 0.0 0.0 
0.0 0.0 0.0 
0.0 0.0 0.0 
0.0 0.0 0.0 
0.0 0.0 0.0 
0.0 0.0 0.0 
0.0 0.0 0.0 
0.0 0.0 0.0 
0.0 0.0 0.0 
0.0 0.0 0.0 
0.0 0.0 0.0 
0.0 0.0 0.0 
0.0 0.0 0.0 
0.0 0.0 0.0 
0.0 0.0 0.0 
0.0 0.0 0.0 
0.0 0.0 0.0 
0.0 0.0 0.0 
0.0 0.0 0.0 
0.0 0.0 0.0 
0.0 0.0 0.0 
0.0 0.0 0.0 
0.0 0.0 0.0 
0.0 0.0 0.0 
0.0 0.0 0.0 
0.0 0.0 0.0 
0.0 0.0 0.0 
0.0 0.0 0.0 
0.0 0.0 0.0 
0.0 0.0 0.0 
0.0 0.0 0.0 
0.0 0.0 0.0 
0.0 0.0 0.0 
0.0 0.0 0.0 
0.0 0.0 0.0 
0.0 0.0 0.0 
0.0 0.0 0.0 
0.0 0.0 0.0 
0.0 0.0 0.0 
0.0 0.0 0.0 
0.0 0.0 0.0 
0.0 0.0 0.0 
0.0 0.0 0.0 
0.0 0.0 0.0 
0.0 0.0 0.0 
0.0 0.0 0.0 
0.0 0.0 0.0 
0.0 0.0 0.0 
0.0 0.0 0.0 
0.0 0.0 0.0 
0.0 0.0 0.0 
0.0 0.0 0.0 
0.0 0.0 0.0 
0.0 0.0 0.0 
0.0 0.0 0.0 
0.0 0.0 0.0 
0.0 0.0 0.0 
0.0 0.0 0.0 
0.0 0.0 0.0 
0.0 0.0 0.0 
0.0 0.0 0.0 
0.0 0.0 0.0 
0.0 0.0 0.0 
0.0 0.0 0.0 
0.0 0.0 0.0 
0.0 0.0 0.0 
0.0 0.0 0.0 
0.0 0.0 0.0 
0.0 0.0 0.0 
0.0 0.0 0.0 
0.0 0.0 0.0 
0.0 0.0 0.0 
0.0 0.0 0.0 
0.0 0.0 0.0 
0.0 0.0 0.0 
0.0 0.0 0.0 
0.0 0.0 0.0 
0.0 0.0 0.0 
0.0 0.0 0.0 
0.0 0.0 0.0 
0.0 0.0 0.0 
0.0 0.0 0.0 
0.0 0.0 0.0 
0.0 0.0 0.0 
0.0 0.0 0.0 
0.0 0.0 0.0 
0.0 0.0 0.0 
0.0 0.0 0.0 
0.0 0.0 0.0 
0.0 0.0 0.0 
0.0 0.0 0.0 
0.0 0.0 0.0 
0.0 0.0 0.0 
0.0 0.0 0.0 
0.0 0.0 0.0 
0.0 0.0 0.0 
0.0 0.0 0.0 
0.0 0.0 0.0 
0.0 0.0 0.0 
0.0 0.0 0.0 
0.0 0.0 0.0 
0.0 0.0 0.0 
0.0 0.0 0.0 
0.0 0.0 0.0 
0.0 0.0 0.0 
0.0 0.0 0.0 
0.0 0.0 0.0 
0.0 0.0 0.0 
0.0 0.0 0.0 
0.0 0.0 0.0 
0.0 0.0 0.0 
0.0 0.0 0.0 
0.0 0.0 0.0 
0.0 0.0 0.0 
0.0 0.0 0.0 
0.0 0.0 0.0 
0.0 0.0 0.0 
0.0 0.0 0.0 
0.0 0.0 0.0 
0.0 0.0 0.0 
0.0 0.0 0.0 
0.0 0.0 0.0 
0.0 0.0 0.0 
0.0 0.0 0.0 
0.0 0.0 0.0 
0.0 0.0 0.0 
0.0 0.0 0.0 
0.0 0.0 0.0 
0.0 0.0 0.0 
0.0 0.0 0.0 
0.0 0.0 0.0 
0.0 0.0 0.0 
0.0 0.0 0.0 
0.0 0.0 0.0 
0.0 0.0 0.0 
0.0 0.0 0.0 
0.0 0.0 0.0 
0.0 0.0 0.0 
0.0 0.0 0.0 
0.0 0.0 0.0 
0.0 0.0 0.0 
0.0 0.0 0.0 
0.0 0.0 0.0 
0.0 0.0 0.0 
0.0 0.0 0.0 
0.0 0.0 0.0 
0.0 0.0 0.0 
0.0 0.0 0.0 
0.0 0.0 0.0 
0.0 0.0 0.0 
0.0 0.0 0.0 
0.0 0.0 0.0 
0.0 0.0 0.0 
0.0 0.0 0.0 
0.0 0.0 0.0 
0.0 0.0 0.0 
0.0 0.0 0.0 
0.0 0.0 0.0 
0.0 0.0 0.0 
0.0 0.0 0.0 
0.0 0.0 0.0 
0.0 0.0 0.0 
0.0 0.0 0.0 
0.0 0.0 0.0 
0.0 0.0 0.0 
0.0 0.0 0.0 
0.0 0.0 0.0 
0.0 0.0 0.0 
0.0 0.0 0.0 
0.0 0.0 0.0 
0.0 0.0 0.0 
0.0 0.0 0.0 
0.0 0.0 0.0 
0.0 0.0 0.0 
0.0 0.0 0.0 
0.0 0.0 0.0 
0.0 0.0 0.0 
0.0 0.0 0.0 
0.0 0.0 0.0 
0.0 0.0 0.0 
0.0 0.0 0.0 
0.0 0.0 0.0 
0.0 0.0 0.0 
0.0 0.0 0.0 
0.0 0.0 0.0 
0.0 0.0 0.0 
0.0 0.0 0.0 
0.0 0.0 0.0 
0.0 0.0 0.0 
0.0 0.0 0.0 
0.0 0.0 0.0 
0.0 0.0 0.0 
0.0 0.0 0.0 
0.0 0.0 0.0 
0.0 0.0 0.0 
0.0 0.0 0.0 
0.0 0.0 0.0 
0.0 0.0 0.0 
0.0 0.0 0.0 
0.0 0.0 0.0 
0.0 0.0 0.0 
0.0 0.0 0.0 
0.0 0.0 0.0 
0.0 0.0 0.0 
0.0 0.0 0.0 
0.0 0.0 0.0 
0.0 0.0 0.0 
0.0 0.0 0.0 
0.0 0.0 0.0 
0.0 0.0 0.0 
0.0 0.0 0.0 
0.0 0.0 0.0 
0.0 0.0 0.0 
0.0 0.0 0.0 
0.0 0.0 0.0 
0.0 0.0 0.0 
0.0 0.0 0.0 
0.0 0.0 0.0 
0.0 0.0 0.0 
0.0 0.0 0.0 
0.0 0.0 0.0 
0.0 0.0 0.0 
0.0 0.0 0.0 
0.0 0.0 0.0 
0.0 0.0 0.0 
0.0 0.0 0.0 
0.0 0.0 0.0 
0.0 0.0 0.0 
0.0 0.0 0.0 
0.0 0.0 0.0 
0.0 0.0 0.0 
0.0 0.0 0.0 
0.0 0.0 0.0 
0.0 0.0 0.0 
0.0 0.0 0.0 
0.0 0.0 0.0 
0.0 0.0 0.0 
0.0 0.0 0.0 
0.0 0.0 0.0 
0.0 0.0 0.0 
0.0 0.0 0.0 
0.0 0.0 0.0 
0.0 0.0 0.0 
0.0 0.0 0.0 
0.0 0.0 0.0 
0.0 0.0 0.0 
0.0 0.0 0.0 
0.0 0.0 0.0 
0.0 0.0 0.0 
0.0 0.0 0.0 
0.0 0.0 0.0 
0.0 0.0 0.0 
0.0 0.0 0.0 
0.0 0.0 0.0 
0.0 0.0 0.0 
0.0 0.0 0.0 
0.0 0.0 0.0 
0.0 0.0 0.0 
0.0 0.0 0.0 
0.0 0.0 0.0 
0.0 0.0 0.0 
0.0 0.0 0.0 
0.0 0.0 0.0 
0.0 0.0 0.0 
0.0 0.0 0.0 
0.0 0.0 0.0 
0.0 0.0 0.0 
0.0 0.0 0.0 
0.0 0.0 0.0 
0.0 0.0 0.0 
0.0 0.0 0.0 
0.0 0.0 0.0 
0.0 0.0 0.0 
0.0 0.0 0.0 
0.0 0.0 0.0 
0.0 0.0 0.0 
0.0 0.0 0.0 
0.0 0.0 0.0 
0.0 0.0 0.0 
0.0 0.0 0.0 
0.0 0.0 0.0 
0.0 0.0 0.0 
0.0 0.0 0.0 
0.0 0.0 0.0 
0.0 0.0 0.0 
0.0 0.0 0.0 
0.0 0.0 0.0 
0.0 0.0 0.0 
0.0 0.0 0.0 
0.0 0.0 0.0 
0.0 0.0 0.0 
0.0 0.0 0.0 
0.0 0.0 0.0 
0.0 0.0 0.0 
0.0 0.0 0.0 
0.0 0.0 0.0 
0.0 0.0 0.0 
0.0 0.0 0.0 
0.0 0.0 0.0 
0.0 0.0 0.0 
0.0 0.0 0.0 
0.0 0.0 0.0 
0.0 0.0 0.0 
0.0 0.0 0.0 
0.0 0.0 0.0 
0.0 0.0 0.0 
0.0 0.0 0.0 
0.0 0.0 0.0 
0.0 0.0 0.0 
0.0 0.0 0.0 
0.0 0.0 0.0 
0.0 0.0 0.0 
0.0 0.0 0.0 
0.0 0.0 0.0 
0.0 0.0 0.0 
0.0 0.0 0.0 
0.0 0.0 0.0 
0.0 0.0 0.0 
0.0 0.0 0.0 
0.0 0.0 0.0 
0.0 0.0 0.0 
0.0 0.0 0.0 
0.0 0.0 0.0 
0.0 0.0 0.0 
0.0 0.0 0.0 
0.0 0.0 0.0 
0.0 0.0 0.0 
0.0 0.0 0.0 
0.0 0.0 0.0 
0.0 0.0 0.0 
0.0 0.0 0.0 
0.0 0.0 0.0 
0.0 0.0 0.0 
0.0 0.0 0.0 
0.0 0.0 0.0 
0.0 0.0 0.0 
0.0 0.0 0.0 
0.0 0.0 0.0 
0.0 0.0 0.0 
0.0 0.0 0.0 
0.0 0.0 0.0 
0.0 0.0 0.0 
0.0 0.0 0.0 
0.0 0.0 0.0 
0.0 0.0 0.0 
0.0 0.0 0.0 
0.0 0.0 0.0 
0.0 0.0 0.0 
0.0 0.0 0.0 
0.0 0.0 0.0 
0.0 0.0 0.0 
0.0 0.0 0.0 
0.0 0.0 0.0 
0.0 0.0 0.0 
0.0 0.0 0.0 
0.0 0.0 0.0 
0.0 0.0 0.0 
0.0 0.0 0.0 
0.0 0.0 0.0 
0.0 0.0 0.0 
0.0 0.0 0.0 
0.0 0.0 0.0 
0.0 0.0 0.0 
0.0 0.0 0.0 
0.0 0.0 0.0 
0.0 0.0 0.0 
0.0 0.0 0.0 
0.0 0.0 0.0 
0.0 0.0 0.0 
0.0 0.0 0.0 
0.0 0.0 0.0 
0.0 0.0 0.0 
0.0 0.0 0.0 
0.0 0.0 0.0 
0.0 0.0 0.0 
0.0 0.0 0.0 
0.0 0.0 0.0 
0.0 0.0 0.0 
0.0 0.0 0.0 
0.0 0.0 0.0 
0.0 0.0 0.0 
0.0 0.0 0.0 
0.0 0.0 0.0 
0.0 0.0 0.0 
0.0 0.0 0.0 
0.0 0.0 0.0 
0.0 0.0 0.0 
0.0 0.0 0.0 
0.0 0.0 0.0 
0.0 0.0 0.0 
0.0 0.0 0.0 
0.0 0.0 0.0 
0.0 0.0 0.0 
0.0 0.0 0.0 
0.0 0.0 0.0 
0.0 0.0 0.0 
0.0 0.0 0.0 
0.0 0.0 0.0 
0.0 0.0 0.0 
0.0 0.0 0.0 
0.0 0.0 0.0 
0.0 0.0 0.0 
0.0 0.0 0.0 
0.0 0.0 0.0 
0.0 0.0 0.0 
0.0 0.0 0.0 
0.0 0.0 0.0 
0.0 0.0 0.0 
0.0 0.0 0.0 
0.0 0.0 0.0 
0.0 0.0 0.0 
0.0 0.0 0.0 
0.0 0.0 0.0 
0.0 0.0 0.0 
0.0 0.0 0.0 
0.0 0.0 0.0 
0.0 0.0 0.0 
0.0 0.0 0.0 
0.0 0.0 0.0 
0.0 0.0 0.0 
0.0 0.0 0.0 
0.0 0.0 0.0 
0.0 0.0 0.0 
0.0 0.0 0.0 
0.0 0.0 0.0 
0.0 0.0 0.0 
0.0 0.0 0.0 
0.0 0.0 0.0 
0.0 0.0 0.0 
0.0 0.0 0.0 
0.0 0.0 0.0 
0.0 0.0 0.0 
0.0 0.0 0.0 
0.0 0.0 0.0 
0.0 0.0 0.0 
0.0 0.0 0.0 
0.0 0.0 0.0 
0.0 0.0 0.0 
0.0 0.0 0.0 
0.0 0.0 0.0 
0.0 0.0 0.0 
0.0 0.0 0.0 
0.0 0.0 0.0 
0.0 0.0 0.0 
0.0 0.0 0.0 
0.0 0.0 0.0 
0.0 0.0 0.0 
0.0 0.0 0.0 
0.0 0.0 0.0 
0.0 0.0 0.0 
0.0 0.0 0.0 
0.0 0.0 0.0 
0.0 0.0 0.0 
0.0 0.0 0.0 
0.0 0.0 0.0 
0.0 0.0 0.0 
0.0 0.0 0.0 
0.0 0.0 0.0 
0.0 0.0 0.0 
0.0 0.0 0.0 
0.0 0.0 0.0 
0.0 0.0 0.0 
0.0 0.0 0.0 
0.0 0.0 0.0 
0.0 0.0 0.0 
0.0 0.0 0.0 
0.0 0.0 0.0 
0.0 0.0 0.0 
0.0 0.0 0.0 
0.0 0.0 0.0 
0.0 0.0 0.0 
0.0 0.0 0.0 
0.0 0.0 0.0 
0.0 0.0 0.0 
0.0 0.0 0.0 
0.0 0.0 0.0 
0.0 0.0 0.0 
0.0 0.0 0.0 
0.0 0.0 0.0 
0.0 0.0 0.0 
0.0 0.0 0.0 
0.0 0.0 0.0 
0.0 0.0 0.0 
0.0 0.0 0.0 
0.0 0.0 0.0 
0.0 0.0 0.0 
0.0 0.0 0.0 
0.0 0.0 0.0 
0.0 0.0 0.0 
0.0 0.0 0.0 
0.0 0.0 0.0 
0.0 0.0 0.0 
0.0 0.0 0.0 
0.0 0.0 0.0 
0.0 0.0 0.0 
0.0 0.0 0.0 
0.0 0.0 0.0 
0.0 0.0 0.0 
0.0 0.0 0.0 
0.0 0.0 0.0 
0.0 0.0 0.0 
0.0 0.0 0.0 
0.0 0.0 0.0 
0.0 0.0 0.0 
0.0 0.0 0.0 
0.0 0.0 0.0 
0.0 0.0 0.0 
0.0 0.0 0.0 
0.0 0.0 0.0 
0.0 0.0 0.0 
0.0 0.0 0.0 
0.0 0.0 0.0 
0.0 0.0 0.0 
0.0 0.0 0.0 
0.0 0.0 0.0 
0.0 0.0 0.0 
0.0 0.0 0.0 
0.0 0.0 0.0 
0.0 0.0 0.0 
0.0 0.0 0.0 
0.0 0.0 0.0 
0.0 0.0 0.0 
0.0 0.0 0.0 
0.0 0.0 0.0 
0.0 0.0 0.0 
0.0 0.0 0.0 
0.0 0.0 0.0 
0.0 0.0 0.0 
0.0 0.0 0.0 
0.0 0.0 0.0 
0.0 0.0 0.0 
0.0 0.0 0.0 
0.0 0.0 0.0 
0.0 0.0 0.0 
0.0 0.0 0.0 
0.0 0.0 0.0 
0.0 0.0 0.0 
0.0 0.0 0.0 
0.0 0.0 0.0 
0.0 0.0 0.0 
0.0 0.0 0.0 
0.0 0.0 0.0 
0.0 0.0 0.0 
0.0 0.0 0.0 
0.0 0.0 0.0 
0.0 0.0 0.0 
0.0 0.0 0.0 
0.0 0.0 0.0 
0.0 0.0 0.0 
0.0 0.0 0.0 
0.0 0.0 0.0 
0.0 0.0 0.0 
0.0 0.0 0.0 
0.0 0.0 0.0 
0.0 0.0 0.0 
0.0 0.0 0.0 
0.0 0.0 0.0 
0.0 0.0 0.0 
0.0 0.0 0.0 
0.0 0.0 0.0 
0.0 0.0 0.0 
0.0 0.0 0.0 
0.0 0.0 0.0 
0.0 0.0 0.0 
0.0 0.0 0.0 
0.0 0.0 0.0 
0.0 0.0 0.0 
0.0 0.0 0.0 
0.0 0.0 0.0 
0.0 0.0 0.0 
0.0 0.0 0.0 
0.0 0.0 0.0 
0.0 0.0 0.0 
0.0 0.0 0.0 
0.0 0.0 0.0 
0.0 0.0 0.0 
0.0 0.0 0.0 
0.0 0.0 0.0 
0.0 0.0 0.0 
0.0 0.0 0.0 
0.0 0.0 0.0 
0.0 0.0 0.0 
0.0 0.0 0.0 
0.0 0.0 0.0 
0.0 0.0 0.0 
0.0 0.0 0.0 
0.0 0.0 0.0 
0.0 0.0 0.0 
0.0 0.0 0.0 
0.0 0.0 0.0 
0.0 0.0 0.0 
0.0 0.0 0.0 
0.0 0.0 0.0 
0.0 0.0 0.0 
0.0 0.0 0.0 
0.0 0.0 0.0 
0.0 0.0 0.0 
0.0 0.0 0.0 
0.0 0.0 0.0 
0.0 0.0 0.0 
0.0 0.0 0.0 
0.0 0.0 0.0 
0.0 0.0 0.0 
0.0 0.0 0.0 
0.0 0.0 0.0 
0.0 0.0 0.0 
0.0 0.0 0.0 
0.0 0.0 0.0 
0.0 0.0 0.0 
0.0 0.0 0.0 
0.0 0.0 0.0 
0.0 0.0 0.0 
0.0 0.0 0.0 
0.0 0.0 0.0 
0.0 0.0 0.0 
0.0 0.0 0.0 
0.0 0.0 0.0 
0.0 0.0 0.0 
0.0 0.0 0.0 
0.0 0.0 0.0 
0.0 0.0 0.0 
0.0 0.0 0.0 
0.0 0.0 0.0 
0.0 0.0 0.0 
0.0 0.0 0.0 
0.0 0.0 0.0 
0.0 0.0 0.0 
0.0 0.0 0.0 
0.0 0.0 0.0 
0.0 0.0 0.0 
0.0 0.0 0.0 
0.0 0.0 0.0 
0.0 0.0 0.0 
0.0 0.0 0.0 
0.0 0.0 0.0 
0.0 0.0 0.0 
0.0 0.0 0.0 
0.0 0.0 0.0 
0.0 0.0 0.0 
0.0 0.0 0.0 
0.0 0.0 0.0 
0.0 0.0 0.0 
0.0 0.0 0.0 
0.0 0.0 0.0 
0.0 0.0 0.0 
0.0 0.0 0.0 
0.0 0.0 0.0 
0.0 0.0 0.0 
0.0 0.0 0.0 
0.0 0.0 0.0 
0.0 0.0 0.0 
0.0 0.0 0.0 
0.0 0.0 0.0 
0.0 0.0 0.0 
0.0 0.0 0.0 
0.0 0.0 0.0 
0.0 0.0 0.0 
0.0 0.0 0.0 
0.0 0.0 0.0 
0.0 0.0 0.0 
0.0 0.0 0.0 
0.0 0.0 0.0 
0.0 0.0 0.0 
0.0 0.0 0.0 
0.0 0.0 0.0 
0.0 0.0 0.0 
0.0 0.0 0.0 
0.0 0.0 0.0 
0.0 0.0 0.0 
0.0 0.0 0.0 
0.0 0.0 0.0 
0.0 0.0 0.0 
0.0 0.0 0.0 
0.0 0.0 0.0 
0.0 0.0 0.0 
0.0 0.0 0.0 
0.0 0.0 0.0 
0.0 0.0 0.0 
0.0 0.0 0.0 
0.0 0.0 0.0 
0.0 0.0 0.0 
0.0 0.0 0.0 
0.0 0.0 0.0 
0.0 0.0 0.0 
0.0 0.0 0.0 
0.0 0.0 0.0 
0.0 0.0 0.0 
0.0 0.0 0.0 
0.0 0.0 0.0 
0.0 0.0 0.0 
0.0 0.0 0.0 
0.0 0.0 0.0 
0.0 0.0 0.0 
0.0 0.0 0.0 
0.0 0.0 0.0 
0.0 0.0 0.0 
0.0 0.0 0.0 
0.0 0.0 0.0 
0.0 0.0 0.0 
0.0 0.0 0.0 
0.0 0.0 0.0 
0.0 0.0 0.0 
0.0 0.0 0.0 
0.0 0.0 0.0 
0.0 0.0 0.0 
0.0 0.0 0.0 
0.0 0.0 0.0 
0.0 0.0 0.0 
0.0 0.0 0.0 
0.0 0.0 0.0 
0.0 0.0 0.0 
0.0 0.0 0.0 
0.0 0.0 0.0 
0.0 0.0 0.0 
0.0 0.0 0.0 
0.0 0.0 0.0 
0.0 0.0 0.0 
0.0 0.0 0.0 
0.0 0.0 0.0 
0.0 0.0 0.0 
0.0 0.0 0.0 
0.0 0.0 0.0 
0.0 0.0 0.0 
0.0 0.0 0.0 
0.0 0.0 0.0 
0.0 0.0 0.0 
0.0 0.0 0.0 
0.0 0.0 0.0 
0.0 0.0 0.0 
0.0 0.0 0.0 
0.0 0.0 0.0 
0.0 0.0 0.0 
0.0 0.0 0.0 
0.0 0.0 0.0 
0.0 0.0 0.0 
0.0 0.0 0.0 
0.0 0.0 0.0 
0.0 0.0 0.0 
0.0 0.0 0.0 
0.0 0.0 0.0 
0.0 0.0 0.0 
0.0 0.0 0.0 
0.0 0.0 0.0 
0.0 0.0 0.0 
0.0 0.0 0.0 
0.0 0.0 0.0 
0.0 0.0 0.0 
0.0 0.0 0.0 
0.0 0.0 0.0 
0.0 0.0 0.0 
0.0 0.0 0.0 
0.0 0.0 0.0 
0.0 0.0 0.0 
0.0 0.0 0.0 
0.0 0.0 0.0 
0.0 0.0 0.0 
0.0 0.0 0.0 
0.0 0.0 0.0 
0.0 0.0 0.0 
0.0 0.0 0.0 
0.0 0.0 0.0 
0.0 0.0 0.0 
0.0 0.0 0.0 
0.0 0.0 0.0 
0.0 0.0 0.0 
0.0 0.0 0.0 
0.0 0.0 0.0 
0.0 0.0 0.0 
0.0 0.0 0.0 
0.0 0.0 0.0 
0.0 0.0 0.0 
0.0 0.0 0.0 
0.0 0.0 0.0 
0.0 0.0 0.0 
0.0 0.0 0.0 
0.0 0.0 0.0 
0.0 0.0 0.0 
0.0 0.0 0.0 
0.0 0.0 0.0 
0.0 0.0 0.0 
0.0 0.0 0.0 
0.0 0.0 0.0 
0.0 0.0 0.0 
0.0 0.0 0.0 
0.0 0.0 0.0 
0.0 0.0 0.0 
0.0 0.0 0.0 
0.0 0.0 0.0 
0.0 0.0 0.0 
0.0 0.0 0.0 
0.0 0.0 0.0 
0.0 0.0 0.0 
0.0 0.0 0.0 
0.0 0.0 0.0 
0.0 0.0 0.0 
0.0 0.0 0.0 
0.0 0.0 0.0 
0.0 0.0 0.0 
0.0 0.0 0.0 
0.0 0.0 0.0 
0.0 0.0 0.0 
0.0 0.0 0.0 
0.0 0.0 0.0 
0.0 0.0 0.0 
0.0 0.0 0.0 
0.0 0.0 0.0 
0.0 0.0 0.0 
0.0 0.0 0.0 
0.0 0.0 0.0 
0.0 0.0 0.0 
0.0 0.0 0.0 
0.0 0.0 0.0 
0.0 0.0 0.0 
0.0 0.0 0.0 
0.0 0.0 0.0 
0.0 0.0 0.0 
0.0 0.0 0.0 
0.0 0.0 0.0 
0.0 0.0 0.0 
0.0 0.0 0.0 
0.0 0.0 0.0 
0.0 0.0 0.0 
0.0 0.0 0.0 
0.0 0.0 0.0 
0.0 0.0 0.0 
0.0 0.0 0.0 
0.0 0.0 0.0 
0.0 0.0 0.0 
0.0 0.0 0.0 
0.0 0.0 0.0 
0.0 0.0 0.0 
0.0 0.0 0.0 
0.0 0.0 0.0 
0.0 0.0 0.0 
0.0 0.0 0.0 
0.0 0.0 0.0 
0.0 0.0 0.0 
0.0 0.0 0.0 
0.0 0.0 0.0 
0.0 0.0 0.0 
0.0 0.0 0.0 
0.0 0.0 0.0 
0.0 0.0 0.0 
0.0 0.0 0.0 
0.0 0.0 0.0 
0.0 0.0 0.0 
0.0 0.0 0.0 
0.0 0.0 0.0 
0.0 0.0 0.0 
0.0 0.0 0.0 
0.0 0.0 0.0 
0.0 0.0 0.0 
0.0 0.0 0.0 
0.0 0.0 0.0 
0.0 0.0 0.0 
0.0 0.0 0.0 
0.0 0.0 0.0 
0.0 0.0 0.0 
0.0 0.0 0.0 
0.0 0.0 0.0 
0.0 0.0 0.0 
0.0 0.0 0.0 
0.0 0.0 0.0 
0.0 0.0 0.0 
0.0 0.0 0.0 
0.0 0.0 0.0 
0.0 0.0 0.0 
0.0 0.0 0.0 
0.0 0.0 0.0 
0.0 0.0 0.0 
0.0 0.0 0.0 
0.0 0.0 0.0 
0.0 0.0 0.0 
0.0 0.0 0.0 
0.0 0.0 0.0 
0.0 0.0 0.0 
0.0 0.0 0.0 
0.0 0.0 0.0 
0.0 0.0 0.0 
0.0 0.0 0.0 
0.0 0.0 0.0 
0.0 0.0 0.0 
0.0 0.0 0.0 
0.0 0.0 0.0 
0.0 0.0 0.0 
0.0 0.0 0.0 
0.0 0.0 0.0 
0.0 0.0 0.0 
0.0 0.0 0.0 
0.0 0.0 0.0 
0.0 0.0 0.0 
0.0 0.0 0.0 
0.0 0.0 0.0 
0.0 0.0 0.0 
0.0 0.0 0.0 
0.0 0.0 0.0 
0.0 0.0 0.0 
0.0 0.0 0.0 
0.0 0.0 0.0 
0.0 0.0 0.0 
0.0 0.0 0.0 
0.0 0.0 0.0 
0.0 0.0 0.0 
0.0 0.0 0.0 
0.0 0.0 0.0 
0.0 0.0 0.0 
0.0 0.0 0.0 
0.0 0.0 0.0 
0.0 0.0 0.0 
0.0 0.0 0.0 
0.0 0.0 0.0 
0.0 0.0 0.0 
0.0 0.0 0.0 
0.0 0.0 0.0 
0.0 0.0 0.0 
0.0 0.0 0.0 
0.0 0.0 0.0 
0.0 0.0 0.0 
0.0 0.0 0.0 
0.0 0.0 0.0 
0.0 0.0 0.0 
0.0 0.0 0.0 
0.0 0.0 0.0 
0.0 0.0 0.0 
0.0 0.0 0.0 
0.0 0.0 0.0 
0.0 0.0 0.0 
0.0 0.0 0.0 
0.0 0.0 0.0 
0.0 0.0 0.0 
0.0 0.0 0.0 
0.0 0.0 0.0 
0.0 0.0 0.0 
0.0 0.0 0.0 
0.0 0.0 0.0 
0.0 0.0 0.0 
0.0 0.0 0.0 
0.0 0.0 0.0 
0.0 0.0 0.0 
0.0 0.0 0.0 
0.0 0.0 0.0 
0.0 0.0 0.0 
0.0 0.0 0.0 
0.0 0.0 0.0 
0.0 0.0 0.0 
0.0 0.0 0.0 
0.0 0.0 0.0 
0.0 0.0 0.0 
0.0 0.0 0.0 
0.0 0.0 0.0 
0.0 0.0 0.0 
0.0 0.0 0.0 
0.0 0.0 0.0 
0.0 0.0 0.0 
0.0 0.0 0.0 
0.0 0.0 0.0 
0.0 0.0 0.0 
0.0 0.0 0.0 
0.0 0.0 0.0 
0.0 0.0 0.0 
0.0 0.0 0.0 
0.0 0.0 0.0 
0.0 0.0 0.0 
0.0 0.0 0.0 
0.0 0.0 0.0 
0.0 0.0 0.0 
0.0 0.0 0.0 
0.0 0.0 0.0 
0.0 0.0 0.0 
0.0 0.0 0.0 
0.0 0.0 0.0 
0.0 0.0 0.0 
0.0 0.0 0.0 
0.0 0.0 0.0 
0.0 0.0 0.0 
0.0 0.0 0.0 
0.0 0.0 0.0 
0.0 0.0 0.0 
0.0 0.0 0.0 
0.0 0.0 0.0 
0.0 0.0 0.0 
0.0 0.0 0.0 
0.0 0.0 0.0 
0.0 0.0 0.0 
0.0 0.0 0.0 
0.0 0.0 0.0 
0.0 0.0 0.0 
0.0 0.0 0.0 
0.0 0.0 0.0 
0.0 0.0 0.0 
0.0 0.0 0.0 
0.0 0.0 0.0 
0.0 0.0 0.0 
0.0 0.0 0.0 
0.0 0.0 0.0 
0.0 0.0 0.0 
0.0 0.0 0.0 
0.0 0.0 0.0 
0.0 0.0 0.0 
0.0 0.0 0.0 
0.0 0.0 0.0 
0.0 0.0 0.0 
0.0 0.0 0.0 
0.0 0.0 0.0 
0.0 0.0 0.0 
0.0 0.0 0.0 
0.0 0.0 0.0 
0.0 0.0 0.0 
0.0 0.0 0.0 
0.0 0.0 0.0 
0.0 0.0 0.0 
0.0 0.0 0.0 
0.0 0.0 0.0 
0.0 0.0 0.0 
0.0 0.0 0.0 
0.0 0.0 0.0 
0.0 0.0 0.0 
0.0 0.0 0.0 
0.0 0.0 0.0 
0.0 0.0 0.0 
0.0 0.0 0.0 
0.0 0.0 0.0 
0.0 0.0 0.0 
0.0 0.0 0.0 
0.0 0.0 0.0 
0.0 0.0 0.0 
0.0 0.0 0.0 
0.0 0.0 0.0 
0.0 0.0 0.0 
0.0 0.0 0.0 
0.0 0.0 0.0 
0.0 0.0 0.0 
0.0 0.0 0.0 
0.0 0.0 0.0 
0.0 0.0 0.0 
0.0 0.0 0.0 
0.0 0.0 0.0 
0.0 0.0 0.0 
0.0 0.0 0.0 
0.0 0.0 0.0 
0.0 0.0 0.0 
0.0 0.0 0.0 
0.0 0.0 0.0 
0.0 0.0 0.0 
0.0 0.0 0.0 
0.0 0.0 0.0 
0.0 0.0 0.0 
0.0 0.0 0.0 
0.0 0.0 0.0 
0.0 0.0 0.0 
0.0 0.0 0.0 
0.0 0.0 0.0 
0.0 0.0 0.0 
0.0 0.0 0.0 
0.0 0.0 0.0 
0.0 0.0 0.0 
0.0 0.0 0.0 
0.0 0.0 0.0 
0.0 0.0 0.0 
0.0 0.0 0.0 
0.0 0.0 0.0 
0.0 0.0 0.0 
0.0 0.0 0.0 
0.0 0.0 0.0 
0.0 0.0 0.0 
0.0 0.0 0.0 
0.0 0.0 0.0 
0.0 0.0 0.0 
0.0 0.0 0.0 
0.0 0.0 0.0 
0.0 0.0 0.0 
0.0 0.0 0.0 
0.0 0.0 0.0 
0.0 0.0 0.0 
0.0 0.0 0.0 
0.0 0.0 0.0 
0.0 0.0 0.0 
0.0 0.0 0.0 
0.0 0.0 0.0 
0.0 0.0 0.0 
0.0 0.0 0.0 
0.0 0.0 0.0 
0.0 0.0 0.0 
0.0 0.0 0.0 
0.0 0.0 0.0 
0.0 0.0 0.0 
0.0 0.0 0.0 
0.0 0.0 0.0 
0.0 0.0 0.0 
0.0 0.0 0.0 
0.0 0.0 0.0 
0.0 0.0 0.0 
0.0 0.0 0.0 
0.0 0.0 0.0 
0.0 0.0 0.0 
0.0 0.0 0.0 
0.0 0.0 0.0 
0.0 0.0 0.0 
0.0 0.0 0.0 
0.0 0.0 0.0 
0.0 0.0 0.0 
0.0 0.0 0.0 
0.0 0.0 0.0 
0.0 0.0 0.0 
0.0 0.0 0.0 
0.0 0.0 0.0 
0.0 0.0 0.0 
0.0 0.0 0.0 
0.0 0.0 0.0 
0.0 0.0 0.0 
0.0 0.0 0.0 
0.0 0.0 0.0 
0.0 0.0 0.0 
0.0 0.0 0.0 
0.0 0.0 0.0 
0.0 0.0 0.0 
0.0 0.0 0.0 
0.0 0.0 0.0 
0.0 0.0 0.0 
0.0 0.0 0.0 
0.0 0.0 0.0 
0.0 0.0 0.0 
0.0 0.0 0.0 
0.0 0.0 0.0 
0.0 0.0 0.0 
0.0 0.0 0.0 
0.0 0.0 0.0 
0.0 0.0 0.0 
0.0 0.0 0.0 
0.0 0.0 0.0 
0.0 0.0 0.0 
0.0 0.0 0.0 
0.0 0.0 0.0 
0.0 0.0 0.0 
0.0 0.0 0.0 
0.0 0.0 0.0 
0.0 0.0 0.0 
0.0 0.0 0.0 
0.0 0.0 0.0 
0.0 0.0 0.0 
0.0 0.0 0.0 
0.0 0.0 0.0 
0.0 0.0 0.0 
0.0 0.0 0.0 
0.0 0.0 0.0 
0.0 0.0 0.0 
0.0 0.0 0.0 
0.0 0.0 0.0 
0.0 0.0 0.0 
0.0 0.0 0.0 
0.0 0.0 0.0 
0.0 0.0 0.0 
0.0 0.0 0.0 
0.0 0.0 0.0 
0.0 0.0 0.0 
0.0 0.0 0.0 
0.0 0.0 0.0 
0.0 0.0 0.0 
0.0 0.0 0.0 
0.0 0.0 0.0 
0.0 0.0 0.0 
0.0 0.0 0.0 
0.0 0.0 0.0 
0.0 0.0 0.0 
0.0 0.0 0.0 
0.0 0.0 0.0 
0.0 0.0 0.0 
0.0 0.0 0.0 
0.0 0.0 0.0 
0.0 0.0 0.0 
0.0 0.0 0.0 
0.0 0.0 0.0 
0.0 0.0 0.0 
0.0 0.0 0.0 
0.0 0.0 0.0 
0.0 0.0 0.0 
0.0 0.0 0.0 
0.0 0.0 0.0 
0.0 0.0 0.0 
0.0 0.0 0.0 
0.0 0.0 0.0 
0.0 0.0 0.0 
0.0 0.0 0.0 
0.0 0.0 0.0 
0.0 0.0 0.0 
0.0 0.0 0.0 
0.0 0.0 0.0 
0.0 0.0 0.0 
0.0 0.0 0.0 
0.0 0.0 0.0 
0.0 0.0 0.0 
0.0 0.0 0.0 
0.0 0.0 0.0 
0.0 0.0 0.0 
0.0 0.0 0.0 
0.0 0.0 0.0 
0.0 0.0 0.0 
0.0 0.0 0.0 
0.0 0.0 0.0 
0.0 0.0 0.0 
0.0 0.0 0.0 
0.0 0.0 0.0 
0.0 0.0 0.0 
0.0 0.0 0.0 
0.0 0.0 0.0 
0.0 0.0 0.0 
0.0 0.0 0.0 
0.0 0.0 0.0 
0.0 0.0 0.0 
0.0 0.0 0.0 
0.0 0.0 0.0 
0.0 0.0 0.0 
0.0 0.0 0.0 
0.0 0.0 0.0 
0.0 0.0 0.0 
0.0 0.0 0.0 
0.0 0.0 0.0 
0.0 0.0 0.0 
0.0 0.0 0.0 
0.0 0.0 0.0 
0.0 0.0 0.0 
0.0 0.0 0.0 
0.0 0.0 0.0 
0.0 0.0 0.0 
0.0 0.0 0.0 
0.0 0.0 0.0 
0.0 0.0 0.0 
0.0 0.0 0.0 
0.0 0.0 0.0 
0.0 0.0 0.0 
0.0 0.0 0.0 
0.0 0.0 0.0 
0.0 0.0 0.0 
0.0 0.0 0.0 
0.0 0.0 0.0 
0.0 0.0 0.0 
0.0 0.0 0.0 
0.0 0.0 0.0 
0.0 0.0 0.0 
0.0 0.0 0.0 
0.0 0.0 0.0 
0.0 0.0 0.0 
0.0 0.0 0.0 
0.0 0.0 0.0 
0.0 0.0 0.0 
0.0 0.0 0.0 
0.0 0.0 0.0 
0.0 0.0 0.0 
0.0 0.0 0.0 
0.0 0.0 0.0 
0.0 0.0 0.0 
0.0 0.0 0.0 
0.0 0.0 0.0 
0.0 0.0 0.0 
0.0 0.0 0.0 
0.0 0.0 0.0 
0.0 0.0 0.0 
0.0 0.0 0.0 
0.0 0.0 0.0 
0.0 0.0 0.0 
0.0 0.0 0.0 
0.0 0.0 0.0 
0.0 0.0 0.0 
0.0 0.0 0.0 
0.0 0.0 0.0 
0.0 0.0 0.0 
0.0 0.0 0.0 
0.0 0.0 0.0 
0.0 0.0 0.0 
0.0 0.0 0.0 
0.0 0.0 0.0 
0.0 0.0 0.0 
0.0 0.0 0.0 
0.0 0.0 0.0 
0.0 0.0 0.0 
0.0 0.0 0.0 
0.0 0.0 0.0 
0.0 0.0 0.0 
0.0 0.0 0.0 
0.0 0.0 0.0 
0.0 0.0 0.0 
0.0 0.0 0.0 
0.0 0.0 0.0 
0.0 0.0 0.0 
0.0 0.0 0.0 
0.0 0.0 0.0 
0.0 0.0 0.0 
0.0 0.0 0.0 
0.0 0.0 0.0 
0.0 0.0 0.0 
0.0 0.0 0.0 
0.0 0.0 0.0 
0.0 0.0 0.0 
0.0 0.0 0.0 
0.0 0.0 0.0 
0.0 0.0 0.0 
0.0 0.0 0.0 
0.0 0.0 0.0 
0.0 0.0 0.0 
0.0 0.0 0.0 
0.0 0.0 0.0 
0.0 0.0 0.0 
0.0 0.0 0.0 
0.0 0.0 0.0 
0.0 0.0 0.0 
0.0 0.0 0.0 
0.0 0.0 0.0 
0.0 0.0 0.0 
0.0 0.0 0.0 
0.0 0.0 0.0 
0.0 0.0 0.0 
0.0 0.0 0.0 
0.0 0.0 0.0 
0.0 0.0 0.0 
0.0 0.0 0.0 
0.0 0.0 0.0 
0.0 0.0 0.0 
0.0 0.0 0.0 
0.0 0.0 0.0 
0.0 0.0 0.0 
0.0 0.0 0.0 
0.0 0.0 0.0 
0.0 0.0 0.0 
0.0 0.0 0.0 
0.0 0.0 0.0 
0.0 0.0 0.0 
0.0 0.0 0.0 
0.0 0.0 0.0 
0.0 0.0 0.0 
0.0 0.0 0.0 
0.0 0.0 0.0 
0.0 0.0 0.0 
0.0 0.0 0.0 
0.0 0.0 0.0 
0.0 0.0 0.0 
0.0 0.0 0.0 
0.0 0.0 0.0 
0.0 0.0 0.0 
0.0 0.0 0.0 
0.0 0.0 0.0 
0.0 0.0 0.0 
0.0 0.0 0.0 
0.0 0.0 0.0 
0.0 0.0 0.0 
0.0 0.0 0.0 
0.0 0.0 0.0 
0.0 0.0 0.0 
0.0 0.0 0.0 
0.0 0.0 0.0 
0.0 0.0 0.0 
0.0 0.0 0.0 
0.0 0.0 0.0 
0.0 0.0 0.0 
0.0 0.0 0.0 
0.0 0.0 0.0 
0.0 0.0 0.0 
0.0 0.0 0.0 
0.0 0.0 0.0 
0.0 0.0 0.0 
0.0 0.0 0.0 
0.0 0.0 0.0 
0.0 0.0 0.0 
0.0 0.0 0.0 
0.0 0.0 0.0 
0.0 0.0 0.0 
0.0 0.0 0.0 
0.0 0.0 0.0 
0.0 0.0 0.0 
0.0 0.0 0.0 
0.0 0.0 0.0 
0.0 0.0 0.0 
0.0 0.0 0.0 
0.0 0.0 0.0 
0.0 0.0 0.0 
0.0 0.0 0.0 
0.0 0.0 0.0 
0.0 0.0 0.0 
0.0 0.0 0.0 
0.0 0.0 0.0 
0.0 0.0 0.0 
0.0 0.0 0.0 
0.0 0.0 0.0 
0.0 0.0 0.0 
0.0 0.0 0.0 
0.0 0.0 0.0 
0.0 0.0 0.0 
0.0 0.0 0.0 
0.0 0.0 0.0 
0.0 0.0 0.0 
0.0 0.0 0.0 
0.0 0.0 0.0 
0.0 0.0 0.0 
0.0 0.0 0.0 
0.0 0.0 0.0 
0.0 0.0 0.0 
0.0 0.0 0.0 
0.0 0.0 0.0 
0.0 0.0 0.0 
0.0 0.0 0.0 
0.0 0.0 0.0 
0.0 0.0 0.0 
0.0 0.0 0.0 
0.0 0.0 0.0 
0.0 0.0 0.0 
0.0 0.0 0.0 
0.0 0.0 0.0 
0.0 0.0 0.0 
0.0 0.0 0.0 
0.0 0.0 0.0 
0.0 0.0 0.0 
0.0 0.0 0.0 
0.0 0.0 0.0 
0.0 0.0 0.0 
0.0 0.0 0.0 
0.0 0.0 0.0 
0.0 0.0 0.0 
0.0 0.0 0.0 
0.0 0.0 0.0 
0.0 0.0 0.0 
0.0 0.0 0.0 
0.0 0.0 0.0 
0.0 0.0 0.0 
0.0 0.0 0.0 
0.0 0.0 0.0 
0.0 0.0 0.0 
0.0 0.0 0.0 
0.0 0.0 0.0 
0.0 0.0 0.0 
0.0 0.0 0.0 
0.0 0.0 0.0 
0.0 0.0 0.0 
0.0 0.0 0.0 
0.0 0.0 0.0 
0.0 0.0 0.0 
0.0 0.0 0.0 
0.0 0.0 0.0 
0.0 0.0 0.0 
0.0 0.0 0.0 
0.0 0.0 0.0 
0.0 0.0 0.0 
0.0 0.0 0.0 
0.0 0.0 0.0 
0.0 0.0 0.0 
0.0 0.0 0.0 
0.0 0.0 0.0 
0.0 0.0 0.0 
0.0 0.0 0.0 
0.0 0.0 0.0 
0.0 0.0 0.0 
0.0 0.0 0.0 
0.0 0.0 0.0 
0.0 0.0 0.0 
0.0 0.0 0.0 
0.0 0.0 0.0 
0.0 0.0 0.0 
0.0 0.0 0.0 
0.0 0.0 0.0 
0.0 0.0 0.0 
0.0 0.0 0.0 
0.0 0.0 0.0 
0.0 0.0 0.0 
0.0 0.0 0.0 
0.0 0.0 0.0 
0.0 0.0 0.0 
0.0 0.0 0.0 
0.0 0.0 0.0 
0.0 0.0 0.0 
0.0 0.0 0.0 
0.0 0.0 0.0 
0.0 0.0 0.0 
0.0 0.0 0.0 
0.0 0.0 0.0 
0.0 0.0 0.0 
0.0 0.0 0.0 
0.0 0.0 0.0 
0.0 0.0 0.0 
0.0 0.0 0.0 
0.0 0.0 0.0 
0.0 0.0 0.0 
0.0 0.0 0.0 
0.0 0.0 0.0 
0.0 0.0 0.0 
0.0 0.0 0.0 
0.0 0.0 0.0 
0.0 0.0 0.0 
0.0 0.0 0.0 
0.0 0.0 0.0 
0.0 0.0 0.0 
0.0 0.0 0.0 
0.0 0.0 0.0 
0.0 0.0 0.0 
0.0 0.0 0.0 
0.0 0.0 0.0 
0.0 0.0 0.0 
0.0 0.0 0.0 
0.0 0.0 0.0 
0.0 0.0 0.0 
0.0 0.0 0.0 
0.0 0.0 0.0 
0.0 0.0 0.0 
0.0 0.0 0.0 
0.0 0.0 0.0 
0.0 0.0 0.0 
0.0 0.0 0.0 
0.0 0.0 0.0 
0.0 0.0 0.0 
0.0 0.0 0.0 
0.0 0.0 0.0 
0.0 0.0 0.0 
0.0 0.0 0.0 
0.0 0.0 0.0 
0.0 0.0 0.0 
0.0 0.0 0.0 
0.0 0.0 0.0 
0.0 0.0 0.0 
0.0 0.0 0.0 
0.0 0.0 0.0 
0.0 0.0 0.0 
0.0 0.0 0.0 
0.0 0.0 0.0 
0.0 0.0 0.0 
0.0 0.0 0.0 
0.0 0.0 0.0 
0.0 0.0 0.0 
0.0 0.0 0.0 
0.0 0.0 0.0 
0.0 0.0 0.0 
0.0 0.0 0.0 
0.0 0.0 0.0 
0.0 0.0 0.0 
0.0 0.0 0.0 
0.0 0.0 0.0 
0.0 0.0 0.0 
0.0 0.0 0.0 
0.0 0.0 0.0 
0.0 0.0 0.0 
0.0 0.0 0.0 
0.0 0.0 0.0 
0.0 0.0 0.0 
0.0 0.0 0.0 
0.0 0.0 0.0 
0.0 0.0 0.0 
0.0 0.0 0.0 
0.0 0.0 0.0 
0.0 0.0 0.0 
0.0 0.0 0.0 
0.0 0.0 0.0 
0.0 0.0 0.0 
0.0 0.0 0.0 
0.0 0.0 0.0 
0.0 0.0 0.0 
0.0 0.0 0.0 
0.0 0.0 0.0 
0.0 0.0 0.0 
0.0 0.0 0.0 
0.0 0.0 0.0 
0.0 0.0 0.0 
0.0 0.0 0.0 
0.0 0.0 0.0 
0.0 0.0 0.0 
0.0 0.0 0.0 
0.0 0.0 0.0 
0.0 0.0 0.0 
0.0 0.0 0.0 
0.0 0.0 0.0 
0.0 0.0 0.0 
0.0 0.0 0.0 
0.0 0.0 0.0 
0.0 0.0 0.0 
0.0 0.0 0.0 
0.0 0.0 0.0 
0.0 0.0 0.0 
0.0 0.0 0.0 
0.0 0.0 0.0 
0.0 0.0 0.0 
0.0 0.0 0.0 
0.0 0.0 0.0 
0.0 0.0 0.0 
0.0 0.0 0.0 
0.0 0.0 0.0 
0.0 0.0 0.0 
0.0 0.0 0.0 
0.0 0.0 0.0 
0.0 0.0 0.0 
0.0 0.0 0.0 
0.0 0.0 0.0 
0.0 0.0 0.0 
0.0 0.0 0.0 
0.0 0.0 0.0 
0.0 0.0 0.0 
0.0 0.0 0.0 
0.0 0.0 0.0 
0.0 0.0 0.0 
0.0 0.0 0.0 
0.0 0.0 0.0 
0.0 0.0 0.0 
0.0 0.0 0.0 
0.0 0.0 0.0 
0.0 0.0 0.0 
0.0 0.0 0.0 
0.0 0.0 0.0 
0.0 0.0 0.0 
0.0 0.0 0.0 
0.0 0.0 0.0 
0.0 0.0 0.0 
0.0 0.0 0.0 
0.0 0.0 0.0 
0.0 0.0 0.0 
0.0 0.0 0.0 
0.0 0.0 0.0 
0.0 0.0 0.0 
0.0 0.0 0.0 
0.0 0.0 0.0 
0.0 0.0 0.0 
0.0 0.0 0.0 
0.0 0.0 0.0 
0.0 0.0 0.0 
0.0 0.0 0.0 
0.0 0.0 0.0 
0.0 0.0 0.0 
0.0 0.0 0.0 
0.0 0.0 0.0 
0.0 0.0 0.0 
0.0 0.0 0.0 
0.0 0.0 0.0 
0.0 0.0 0.0 
0.0 0.0 0.0 
0.0 0.0 0.0 
0.0 0.0 0.0 
0.0 0.0 0.0 
0.0 0.0 0.0 
0.0 0.0 0.0 
0.0 0.0 0.0 
0.0 0.0 0.0 
0.0 0.0 0.0 
0.0 0.0 0.0 
0.0 0.0 0.0 
0.0 0.0 0.0 
0.0 0.0 0.0 
0.0 0.0 0.0 
0.0 0.0 0.0 
0.0 0.0 0.0 
0.0 0.0 0.0 
0.0 0.0 0.0 
0.0 0.0 0.0 
0.0 0.0 0.0 
0.0 0.0 0.0 
0.0 0.0 0.0 
0.0 0.0 0.0 
0.0 0.0 0.0 
0.0 0.0 0.0 
0.0 0.0 0.0 
0.0 0.0 0.0 
0.0 0.0 0.0 
0.0 0.0 0.0 
0.0 0.0 0.0 
0.0 0.0 0.0 
0.0 0.0 0.0 
0.0 0.0 0.0 
0.0 0.0 0.0 
0.0 0.0 0.0 
0.0 0.0 0.0 
0.0 0.0 0.0 
0.0 0.0 0.0 
0.0 0.0 0.0 
0.0 0.0 0.0 
0.0 0.0 0.0 
0.0 0.0 0.0 
0.0 0.0 0.0 
0.0 0.0 0.0 
0.0 0.0 0.0 
0.0 0.0 0.0 
0.0 0.0 0.0 
0.0 0.0 0.0 
0.0 0.0 0.0 
0.0 0.0 0.0 
0.0 0.0 0.0 
0.0 0.0 0.0 
0.0 0.0 0.0 
0.0 0.0 0.0 
0.0 0.0 0.0 
0.0 0.0 0.0 
0.0 0.0 0.0 
0.0 0.0 0.0 
0.0 0.0 0.0 
0.0 0.0 0.0 
0.0 0.0 0.0 
0.0 0.0 0.0 
0.0 0.0 0.0 
0.0 0.0 0.0 
0.0 0.0 0.0 
0.0 0.0 0.0 
0.0 0.0 0.0 
0.0 0.0 0.0 
0.0 0.0 0.0 
0.0 0.0 0.0 
0.0 0.0 0.0 
0.0 0.0 0.0 
0.0 0.0 0.0 
0.0 0.0 0.0 
0.0 0.0 0.0 
0.0 0.0 0.0 
0.0 0.0 0.0 
0.0 0.0 0.0 
0.0 0.0 0.0 
0.0 0.0 0.0 
0.0 0.0 0.0 
0.0 0.0 0.0 
0.0 0.0 0.0 
0.0 0.0 0.0 
0.0 0.0 0.0 
0.0 0.0 0.0 
0.0 0.0 0.0 
0.0 0.0 0.0 
0.0 0.0 0.0 
0.0 0.0 0.0 
0.0 0.0 0.0 
0.0 0.0 0.0 
0.0 0.0 0.0 
0.0 0.0 0.0 
0.0 0.0 0.0 
0.0 0.0 0.0 
0.0 0.0 0.0 
0.0 0.0 0.0 
0.0 0.0 0.0 
0.0 0.0 0.0 
0.0 0.0 0.0 
0.0 0.0 0.0 
0.0 0.0 0.0 
0.0 0.0 0.0 
0.0 0.0 0.0 
0.0 0.0 0.0 
0.0 0.0 0.0 
0.0 0.0 0.0 
0.0 0.0 0.0 
0.0 0.0 0.0 
0.0 0.0 0.0 
0.0 0.0 0.0 
0.0 0.0 0.0 
0.0 0.0 0.0 
0.0 0.0 0.0 
0.0 0.0 0.0 
0.0 0.0 0.0 
0.0 0.0 0.0 
0.0 0.0 0.0 
0.0 0.0 0.0 
0.0 0.0 0.0 
0.0 0.0 0.0 
0.0 0.0 0.0 
0.0 0.0 0.0 
0.0 0.0 0.0 
0.0 0.0 0.0 
0.0 0.0 0.0 
0.0 0.0 0.0 
0.0 0.0 0.0 
0.0 0.0 0.0 
0.0 0.0 0.0 
0.0 0.0 0.0 
0.0 0.0 0.0 
0.0 0.0 0.0 
0.0 0.0 0.0 
0.0 0.0 0.0 
0.0 0.0 0.0 
0.0 0.0 0.0 
0.0 0.0 0.0 
0.0 0.0 0.0 
0.0 0.0 0.0 
0.0 0.0 0.0 
0.0 0.0 0.0 
0.0 0.0 0.0 
0.0 0.0 0.0 
0.0 0.0 0.0 
0.0 0.0 0.0 
0.0 0.0 0.0 
0.0 0.0 0.0 
0.0 0.0 0.0 
0.0 0.0 0.0 
0.0 0.0 0.0 
0.0 0.0 0.0 
0.0 0.0 0.0 
0.0 0.0 0.0 
0.0 0.0 0.0 
0.0 0.0 0.0 
0.0 0.0 0.0 
0.0 0.0 0.0 
0.0 0.0 0.0 
0.0 0.0 0.0 
0.0 0.0 0.0 
0.0 0.0 0.0 
0.0 0.0 0.0 
0.0 0.0 0.0 
0.0 0.0 0.0 
0.0 0.0 0.0 
0.0 0.0 0.0 
0.0 0.0 0.0 
0.0 0.0 0.0 
0.0 0.0 0.0 
0.0 0.0 0.0 
0.0 0.0 0.0 
0.0 0.0 0.0 
0.0 0.0 0.0 
0.0 0.0 0.0 
0.0 0.0 0.0 
0.0 0.0 0.0 
0.0 0.0 0.0 
0.0 0.0 0.0 
0.0 0.0 0.0 
0.0 0.0 0.0 
0.0 0.0 0.0 
0.0 0.0 0.0 
0.0 0.0 0.0 
0.0 0.0 0.0 
0.0 0.0 0.0 
0.0 0.0 0.0 
0.0 0.0 0.0 
0.0 0.0 0.0 
0.0 0.0 0.0 
0.0 0.0 0.0 
0.0 0.0 0.0 
0.0 0.0 0.0 
0.0 0.0 0.0 
0.0 0.0 0.0 
0.0 0.0 0.0 
0.0 0.0 0.0 
0.0 0.0 0.0 
0.0 0.0 0.0 
0.0 0.0 0.0 
0.0 0.0 0.0 
0.0 0.0 0.0 
0.0 0.0 0.0 
0.0 0.0 0.0 
0.0 0.0 0.0 
0.0 0.0 0.0 
0.0 0.0 0.0 
0.0 0.0 0.0 
0.0 0.0 0.0 
0.0 0.0 0.0 
0.0 0.0 0.0 
0.0 0.0 0.0 
0.0 0.0 0.0 
0.0 0.0 0.0 
0.0 0.0 0.0 
0.0 0.0 0.0 
0.0 0.0 0.0 
0.0 0.0 0.0 
0.0 0.0 0.0 
0.0 0.0 0.0 
0.0 0.0 0.0 
0.0 0.0 0.0 
0.0 0.0 0.0 
0.0 0.0 0.0 
0.0 0.0 0.0 
0.0 0.0 0.0 
0.0 0.0 0.0 
0.0 0.0 0.0 
0.0 0.0 0.0 
0.0 0.0 0.0 
0.0 0.0 0.0 
0.0 0.0 0.0 
0.0 0.0 0.0 
0.0 0.0 0.0 
0.0 0.0 0.0 
0.0 0.0 0.0 
0.0 0.0 0.0 
0.0 0.0 0.0 
0.0 0.0 0.0 
0.0 0.0 0.0 
0.0 0.0 0.0 
0.0 0.0 0.0 
0.0 0.0 0.0 
0.0 0.0 0.0 
0.0 0.0 0.0 
0.0 0.0 0.0 
0.0 0.0 0.0 
0.0 0.0 0.0 
0.0 0.0 0.0 
0.0 0.0 0.0 
0.0 0.0 0.0 
0.0 0.0 0.0 
0.0 0.0 0.0 
0.0 0.0 0.0 
0.0 0.0 0.0 
0.0 0.0 0.0 
0.0 0.0 0.0 
0.0 0.0 0.0 
0.0 0.0 0.0 
0.0 0.0 0.0 
0.0 0.0 0.0 
0.0 0.0 0.0 
0.0 0.0 0.0 
0.0 0.0 0.0 
0.0 0.0 0.0 
0.0 0.0 0.0 
0.0 0.0 0.0 
0.0 0.0 0.0 
0.0 0.0 0.0 
0.0 0.0 0.0 
0.0 0.0 0.0 
0.0 0.0 0.0 
0.0 0.0 0.0 
0.0 0.0 0.0 
0.0 0.0 0.0 
0.0 0.0 0.0 
0.0 0.0 0.0 
0.0 0.0 0.0 
0.0 0.0 0.0 
0.0 0.0 0.0 
0.0 0.0 0.0 
0.0 0.0 0.0 
0.0 0.0 0.0 
0.0 0.0 0.0 
0.0 0.0 0.0 
0.0 0.0 0.0 
0.0 0.0 0.0 
0.0 0.0 0.0 
0.0 0.0 0.0 
0.0 0.0 0.0 
0.0 0.0 0.0 
0.0 0.0 0.0 
0.0 0.0 0.0 
0.0 0.0 0.0 
0.0 0.0 0.0 
0.0 0.0 0.0 
0.0 0.0 0.0 
0.0 0.0 0.0 
0.0 0.0 0.0 
0.0 0.0 0.0 
0.0 0.0 0.0 
0.0 0.0 0.0 
0.0 0.0 0.0 
0.0 0.0 0.0 
0.0 0.0 0.0 
0.0 0.0 0.0 
0.0 0.0 0.0 
0.0 0.0 0.0 
0.0 0.0 0.0 
0.0 0.0 0.0 
0.0 0.0 0.0 
0.0 0.0 0.0 
0.0 0.0 0.0 
0.0 0.0 0.0 
0.0 0.0 0.0 
0.0 0.0 0.0 
0.0 0.0 0.0 
0.0 0.0 0.0 
0.0 0.0 0.0 
0.0 0.0 0.0 
0.0 0.0 0.0 
0.0 0.0 0.0 
0.0 0.0 0.0 
0.0 0.0 0.0 
0.0 0.0 0.0 
0.0 0.0 0.0 
0.0 0.0 0.0 
0.0 0.0 0.0 
0.0 0.0 0.0 
0.0 0.0 0.0 
0.0 0.0 0.0 
0.0 0.0 0.0 
0.0 0.0 0.0 
0.0 0.0 0.0 
0.0 0.0 0.0 
0.0 0.0 0.0 
0.0 0.0 0.0 
0.0 0.0 0.0 
0.0 0.0 0.0 
0.0 0.0 0.0 
0.0 0.0 0.0 
0.0 0.0 0.0 
0.0 0.0 0.0 
0.0 0.0 0.0 
0.0 0.0 0.0 
0.0 0.0 0.0 
0.0 0.0 0.0 
0.0 0.0 0.0 
0.0 0.0 0.0 
0.0 0.0 0.0 
0.0 0.0 0.0 
0.0 0.0 0.0 
0.0 0.0 0.0 
0.0 0.0 0.0 
0.0 0.0 0.0 
0.0 0.0 0.0 
0.0 0.0 0.0 
0.0 0.0 0.0 
0.0 0.0 0.0 
0.0 0.0 0.0 
0.0 0.0 0.0 
0.0 0.0 0.0 
0.0 0.0 0.0 
0.0 0.0 0.0 
0.0 0.0 0.0 
0.0 0.0 0.0 
0.0 0.0 0.0 
0.0 0.0 0.0 
0.0 0.0 0.0 
0.0 0.0 0.0 
0.0 0.0 0.0 
0.0 0.0 0.0 
0.0 0.0 0.0 
0.0 0.0 0.0 
0.0 0.0 0.0 
0.0 0.0 0.0 
0.0 0.0 0.0 
0.0 0.0 0.0 
0.0 0.0 0.0 
0.0 0.0 0.0 
0.0 0.0 0.0 
0.0 0.0 0.0 
0.0 0.0 0.0 
0.0 0.0 0.0 
0.0 0.0 0.0 
0.0 0.0 0.0 
0.0 0.0 0.0 
0.0 0.0 0.0 
0.0 0.0 0.0 
0.0 0.0 0.0 
0.0 0.0 0.0 
0.0 0.0 0.0 
0.0 0.0 0.0 
0.0 0.0 0.0 
0.0 0.0 0.0 
0.0 0.0 0.0 
0.0 0.0 0.0 
0.0 0.0 0.0 
0.0 0.0 0.0 
0.0 0.0 0.0 
0.0 0.0 0.0 
0.0 0.0 0.0 
0.0 0.0 0.0 
0.0 0.0 0.0 
0.0 0.0 0.0 
0.0 0.0 0.0 
0.0 0.0 0.0 
0.0 0.0 0.0 
0.0 0.0 0.0 
0.0 0.0 0.0 
0.0 0.0 0.0 
0.0 0.0 0.0 
0.0 0.0 0.0 
0.0 0.0 0.0 
0.0 0.0 0.0 
0.0 0.0 0.0 
0.0 0.0 0.0 
0.0 0.0 0.0 
0.0 0.0 0.0 
0.0 0.0 0.0 
0.0 0.0 0.0 
0.0 0.0 0.0 
0.0 0.0 0.0 
0.0 0.0 0.0 
0.0 0.0 0.0 
0.0 0.0 0.0 
0.0 0.0 0.0 
0.0 0.0 0.0 
0.0 0.0 0.0 
0.0 0.0 0.0 
0.0 0.0 0.0 
0.0 0.0 0.0 
0.0 0.0 0.0 
0.0 0.0 0.0 

TENSORS element_materi_stress float
-5.718643790940e+01 4.847760294411e+00 0.0 
4.847760294411e+00 -1.245872259646e+02 0.0 
0.0 0.0 -5.413209916219e+01 
-5.773281787724e+01 7.657633547626e+00 0.0 
7.657633547626e+00 -1.219042545980e+02 0.0 
0.0 0.0 -5.349112174257e+01 
-1.598755629219e+02 4.292929834227e+00 0.0 
4.292929834227e+00 -3.723913033785e+02 0.0 
0.0 0.0 -1.592800598901e+02 
-1.557692313262e+02 1.211570498685e+00 0.0 
1.211570498685e+00 -3.627431865252e+02 0.0 
0.0 0.0 -1.551537253554e+02 
-9.971845563403e+01 -4.704025660177e-01 0.0 
-4.704025660177e-01 -2.267555410024e+02 0.0 
0.0 0.0 -9.754219899092e+01 
-3.594886342085e+01 2.652077648356e+01 0.0 
2.652077648356e+01 -1.100184100584e+02 0.0 
0.0 0.0 -4.447293986469e+01 
-9.975774180420e+01 -7.847832248903e-01 0.0 
-7.847832248903e-01 -2.268853743482e+02 0.0 
0.0 0.0 -9.759293484572e+01 
-5.706750982461e+01 7.434162684523e+00 0.0 
7.434162684523e+00 -1.213900803974e+02 0.0 
0.0 0.0 -5.313727706662e+01 
-9.996829121248e+01 1.526689202338e+00 0.0 
1.526689202338e+00 -2.273278270448e+02 0.0 
0.0 0.0 -9.778883547719e+01 
-1.551918967571e+02 -9.571441246854e-02 0.0 
-9.571441246854e-02 -3.612193976186e+02 0.0 
0.0 0.0 -1.545233883127e+02 
-1.149763953141e+02 -1.496217750168e+00 0.0 
-1.496217750168e+00 -2.550480406595e+02 0.0 
0.0 0.0 -1.106073307921e+02 
-5.004353454987e+01 6.637239503664e+00 0.0 
6.637239503664e+00 -1.050458901322e+02 0.0 
0.0 0.0 -4.612682740463e+01 
-1.606162624052e+02 -1.810178096204e+00 0.0 
-1.810178096204e+00 -3.710614452574e+02 0.0 
0.0 0.0 -1.591033122988e+02 
-1.075778518404e+02 3.986595395360e-01 0.0 
3.986595395360e-01 -2.441826134320e+02 0.0 
0.0 0.0 -1.051281395817e+02 
-1.633522198426e+02 -4.146204654792e-01 0.0 
-4.146204654792e-01 -3.796796164602e+02 0.0 
0.0 0.0 -1.625095508908e+02 
-1.587154341269e+02 -1.638668125979e-01 0.0 
-1.638668125979e-01 -3.707812721744e+02 0.0 
0.0 0.0 -1.584490118904e+02 
-9.817136831098e+01 6.559242982790e-01 0.0 
6.559242982790e-01 -2.227284946702e+02 0.0 
0.0 0.0 -9.586995889437e+01 
-2.833015464001e+01 1.453465372866e+01 0.0 
1.453465372866e+01 -1.132003839129e+02 0.0 
0.0 0.0 -4.479851835213e+01 
-3.252671593978e+01 3.463277699689e-01 0.0 
3.463277699689e-01 -7.635000952366e+01 0.0 
0.0 0.0 -3.226301763903e+01 
-3.593304100623e+01 -9.603234838491e-01 0.0 
-9.603234838491e-01 -7.948468857375e+01 0.0 
0.0 0.0 -3.422531887399e+01 
-1.557943919968e+02 1.787686434385e+00 0.0 
1.787686434385e+00 -3.619282699820e+02 0.0 
0.0 0.0 -1.549167985937e+02 
-6.256166408903e+01 4.104201359954e+00 0.0 
4.104201359954e+00 -1.363026131244e+02 0.0 
0.0 0.0 -5.925928316402e+01 
-6.793126080734e+01 5.274595206789e+00 0.0 
5.274595206789e+00 -1.484852160779e+02 0.0 
0.0 0.0 -6.452494306557e+01 
-1.541691054684e+02 -7.553101189142e-01 0.0 
-7.553101189142e-01 -3.688633111929e+02 0.0 
0.0 0.0 -1.565097249984e+02 
-1.153086957393e+02 8.402261062356e-01 0.0 
8.402261062356e-01 -2.621689814970e+02 0.0 
0.0 0.0 -1.128433031709e+02 
-1.208680216637e+02 -3.616903550026e-01 0.0 
-3.616903550026e-01 -2.693319017139e+02 0.0 
0.0 0.0 -1.166599770133e+02 
-9.216008855708e+01 1.506300075568e+00 0.0 
1.506300075568e+00 -2.068598550105e+02 0.0 
0.0 0.0 -8.930598307027e+01 
-1.620681048577e+02 4.565981453418e+00 0.0 
4.565981453418e+00 -3.827644580312e+02 0.0 
0.0 0.0 -1.630497688667e+02 
-1.157541659894e+02 2.952338182912e+00 0.0 
2.952338182912e+00 -2.626188995919e+02 0.0 
0.0 0.0 -1.131119196744e+02 
-1.578458453463e+02 -2.228278507285e+00 0.0 
-2.228278507285e+00 -3.759829309256e+02 0.0 
0.0 0.0 -1.597486328816e+02 
-3.657168853107e+01 -2.162387919802e+01 0.0 
-2.162387919802e+01 -1.004073392925e+02 0.0 
0.0 0.0 -4.018062168143e+01 
-7.300848467797e+00 -4.532936516224e-01 0.0 
-4.532936516224e-01 -2.611381161651e+01 0.0 
0.0 0.0 -9.624398025292e+00 
-1.598817506790e+02 4.069353941300e+00 0.0 
4.069353941300e+00 -3.727608141279e+02 0.0 
0.0 0.0 -1.593927694421e+02 
-1.407919395700e+02 4.232895027047e-01 0.0 
4.232895027047e-01 -3.193161138598e+02 0.0 
0.0 0.0 -1.376324160290e+02 
-1.609431247476e+02 -2.175310300818e+00 0.0 
-2.175310300818e+00 -3.766646878081e+02 0.0 
0.0 0.0 -1.608823437667e+02 
-1.676762145534e+02 -4.317301070957e+00 0.0 
-4.317301070957e+00 -3.912447242147e+02 0.0 
0.0 0.0 -1.672762816304e+02 
-1.672360620009e+02 -9.594756373596e-01 0.0 
-9.594756373596e-01 -3.907604941491e+02 0.0 
0.0 0.0 -1.669989668450e+02 
-1.615839466727e+02 8.899522822047e-01 0.0 
8.899522822047e-01 -3.843442278792e+02 0.0 
0.0 0.0 -1.633784523656e+02 
-9.165953424386e+01 1.411728910916e+00 0.0 
1.411728910916e+00 -2.079018433478e+02 0.0 
0.0 0.0 -8.946841327749e+01 
-9.173088645060e+01 -1.324346643104e+00 0.0 
-1.324346643104e+00 -2.085743604627e+02 0.0 
0.0 0.0 -8.969157407400e+01 
-7.598576676947e+01 4.293381008525e+00 0.0 
4.293381008525e+00 -1.676193812459e+02 0.0 
0.0 0.0 -7.268154440461e+01 
-1.633951513255e+02 -2.675348917136e+00 0.0 
-2.675348917136e+00 -3.835688072768e+02 0.0 
0.0 0.0 -1.636891875807e+02 
-4.588803374276e+01 7.730422338961e+00 0.0 
7.730422338961e+00 -9.451323015883e+01 0.0 
0.0 0.0 -4.172037917048e+01 
-9.256715089527e+01 1.197249670781e+00 0.0 
1.197249670781e+00 -2.076177023827e+02 0.0 
0.0 0.0 -8.965545598339e+01 
-1.512258169960e+02 5.800313451511e-01 0.0 
5.800313451511e-01 -3.515403793059e+02 0.0 
0.0 0.0 -1.504298588906e+02 
-4.783782068796e+01 1.110482307867e+01 0.0 
1.110482307867e+01 -9.490604676418e+01 0.0 
0.0 0.0 -4.242316023564e+01 
-3.274237003845e+01 -2.461839841771e+01 0.0 
-2.461839841771e+01 -9.778070230038e+01 0.0 
0.0 0.0 -4.023883743624e+01 
-1.518784992775e+02 2.380353509263e-02 0.0 
2.380353509263e-02 -3.532533899725e+02 0.0 
0.0 0.0 -1.511395667750e+02 
-3.023824310354e+01 -2.313354401214e+01 0.0 
-2.313354401214e+01 -5.693414680981e+01 0.0 
0.0 0.0 -2.760165226699e+01 
-1.043353982428e+02 1.764870107489e+00 0.0 
1.764870107489e+00 -2.354832439142e+02 0.0 
0.0 0.0 -1.015455926471e+02 
-7.204078298992e+01 4.751316587791e+00 0.0 
4.751316587791e+00 -1.583235928655e+02 0.0 
0.0 0.0 -6.870931275661e+01 
-4.318439507116e+01 8.195031522851e-02 0.0 
8.195031522851e-02 -9.602539396487e+01 0.0 
0.0 0.0 -4.136293671081e+01 
-4.186272097472e+01 -1.705802813322e+01 0.0 
-1.705802813322e+01 -1.321459432524e+02 0.0 
0.0 0.0 -5.235119591370e+01 
-7.077206064746e+01 2.905464537110e+00 0.0 
2.905464537110e+00 -1.559653200047e+02 0.0 
0.0 0.0 -6.762121419564e+01 
-1.595498542848e+02 3.416318439107e+00 0.0 
3.416318439107e+00 -3.714203622872e+02 0.0 
0.0 0.0 -1.588910649716e+02 
-5.899070112191e+01 -3.659787912506e-01 0.0 
-3.659787912506e-01 -1.275628629364e+02 0.0 
0.0 0.0 -5.556606921750e+01 
-4.606873629377e+01 -1.187268530513e+00 0.0 
-1.187268530513e+00 -9.960730380125e+01 0.0 
0.0 0.0 -4.330281202851e+01 
-1.407912954083e+02 -1.343960565488e+00 0.0 
-1.343960565488e+00 -3.193853418704e+02 0.0 
0.0 0.0 -1.376529911836e+02 
-2.404058578000e+01 -6.741696474973e-01 0.0 
-6.741696474973e-01 -5.873399601277e+01 0.0 
0.0 0.0 -2.443237453783e+01 
-1.589886091793e+02 1.536963001553e+00 0.0 
1.536963001553e+00 -3.709329284756e+02 0.0 
0.0 0.0 -1.585764612965e+02 
-4.737424354337e+01 -2.217104719259e+01 0.0 
-2.217104719259e+01 -9.848580874462e+01 0.0 
0.0 0.0 -4.478791596958e+01 
-1.538171163497e+02 2.734081834225e+00 0.0 
2.734081834225e+00 -3.667767150279e+02 0.0 
0.0 0.0 -1.557781494133e+02 
-7.202309957314e+01 7.187584701794e+00 0.0 
7.187584701794e+00 -1.653156177442e+02 0.0 
0.0 0.0 -7.080161519520e+01 
-3.550930923250e+01 -1.742257367403e+01 0.0 
-1.742257367403e+01 -1.144389668626e+02 0.0 
0.0 0.0 -4.471860734235e+01 
-1.604788697523e+02 -8.292289951912e-01 0.0 
-8.292289951912e-01 -3.714115578496e+02 0.0 
0.0 0.0 -1.591671282806e+02 
-6.630873586116e+01 3.461220560697e+00 0.0 
3.461220560697e+00 -1.456125493755e+02 0.0 
0.0 0.0 -6.317638557101e+01 
-4.201135369304e+01 -8.965079215437e+00 0.0 
-8.965079215437e+00 -1.211163405676e+02 0.0 
0.0 0.0 -5.017319516085e+01 
-1.604286182600e+02 4.814748340588e+00 0.0 
4.814748340588e+00 -3.733088935207e+02 0.0 
0.0 0.0 -1.597212535342e+02 
-3.770118340069e+01 -8.189255893580e+00 0.0 
-8.189255893580e+00 -7.116253339400e+01 0.0 
0.0 0.0 -3.128753164682e+01 
-1.616257172231e+02 4.735812509789e+00 0.0 
4.735812509789e+00 -3.780901601182e+02 0.0 
0.0 0.0 -1.615147632024e+02 
-1.252451414348e+02 -7.182417611155e-01 0.0 
-7.182417611155e-01 -2.805867800577e+02 0.0 
0.0 0.0 -1.213495764478e+02 
-1.646827127267e+02 2.385623053840e+00 0.0 
2.385623053840e+00 -3.855929963623e+02 0.0 
0.0 0.0 -1.646827127267e+02 
-1.560197443772e+02 4.303590002959e+00 0.0 
4.303590002959e+00 -3.683927967285e+02 0.0 
0.0 0.0 -1.569237623317e+02 
-8.543212062213e+00 -1.159667187644e+00 0.0 
-1.159667187644e+00 -2.984022514896e+01 0.0 
0.0 0.0 -1.111503116335e+01 
-6.208184909127e+01 -1.833405108878e+00 0.0 
-1.833405108878e+00 -1.330937232889e+02 0.0 
0.0 0.0 -5.815267171404e+01 
-1.572470544201e+02 2.507318693267e+00 0.0 
2.507318693267e+00 -3.653427568181e+02 0.0 
0.0 0.0 -1.563769433715e+02 
-1.599936759656e+02 3.689594878423e+00 0.0 
3.689594878423e+00 -3.720647821059e+02 0.0 
0.0 0.0 -1.592175374214e+02 
-4.384466647281e+01 1.458250877410e+01 0.0 
1.458250877410e+01 -7.821329207968e+01 0.0 
0.0 0.0 -3.458459240306e+01 
-2.649296523527e+01 -4.436758532457e-01 0.0 
-4.436758532457e-01 -5.903655698532e+01 0.0 
0.0 0.0 -2.525885666618e+01 
-4.113953860120e+01 1.075161374509e+01 0.0 
1.075161374509e+01 -7.749548517339e+01 0.0 
0.0 0.0 -3.363179167747e+01 
-4.131991341383e+01 -1.274863219823e+01 0.0 
-1.274863219823e+01 -7.114683669300e+01 0.0 
0.0 0.0 -3.184076249436e+01 
-9.829069478356e+01 4.431036334649e-01 0.0 
4.431036334649e-01 -2.223682373197e+02 0.0 
0.0 0.0 -9.579767963099e+01 
-6.420586484483e+01 5.981686630651e+00 0.0 
5.981686630651e+00 -1.395438548325e+02 0.0 
0.0 0.0 -6.072491590320e+01 
-5.762687520857e+01 4.855644037671e+00 0.0 
4.855644037671e+00 -1.246527431360e+02 0.0 
0.0 0.0 -5.428388550338e+01 
-1.043060880967e+02 1.516301718613e+00 0.0 
1.516301718613e+00 -2.376242229349e+02 0.0 
0.0 0.0 -1.021790933095e+02 
-1.041131565003e+02 -4.490938030377e-01 0.0 
-4.490938030377e-01 -2.375129874377e+02 0.0 
0.0 0.0 -1.020878431814e+02 
-1.285656415770e+02 -8.991127603008e-02 0.0 
-8.991127603008e-02 -2.887719051756e+02 0.0 
0.0 0.0 -1.248012640258e+02 
-1.375067552944e+02 -9.418834943408e-01 0.0 
-9.418834943408e-01 -3.106714767376e+02 0.0 
0.0 0.0 -1.340534696096e+02 
-1.383508494592e+02 4.879741859954e+00 0.0 
4.879741859954e+00 -3.195042661484e+02 0.0 
0.0 0.0 -1.369565346823e+02 
-9.976052124226e+01 1.711873243681e+00 0.0 
1.711873243681e+00 -2.260757903939e+02 0.0 
0.0 0.0 -9.735089349085e+01 
-1.488597767774e+01 -1.108021403813e+00 0.0 
-1.108021403813e+00 -2.615789713314e+01 0.0 
0.0 0.0 -1.226682678627e+01 
-9.984101598769e+01 1.472481175742e+00 0.0 
1.472481175742e+00 -2.250161397352e+02 0.0 
0.0 0.0 -9.705714671686e+01 
-1.320918179161e+02 6.734299538131e-01 0.0 
6.734299538131e-01 -3.052371107870e+02 0.0 
0.0 0.0 -1.307986786109e+02 
-1.309428234153e+02 -1.482671542031e-01 0.0 
-1.482671542031e-01 -3.017287881161e+02 0.0 
0.0 0.0 -1.294014834594e+02 
-1.655906269319e+02 2.687322666182e+00 0.0 
2.687322666182e+00 -3.862742099369e+02 0.0 
0.0 0.0 -1.651594510606e+02 
-1.660761257155e+02 2.629298623044e+00 0.0 
2.629298623044e+00 -3.931192905187e+02 0.0 
0.0 0.0 -1.673586248703e+02 
-9.840472814533e+01 1.151061240178e+00 0.0 
1.151061240178e+00 -2.220790095533e+02 0.0 
0.0 0.0 -9.574512130960e+01 
-1.623956311376e+02 -3.010915948559e+00 0.0 
-3.010915948559e+00 -3.828032664617e+02 0.0 
0.0 0.0 -1.631596692798e+02 
-1.121421943879e+02 6.971912391253e-01 0.0 
6.971912391253e-01 -2.567541936274e+02 0.0 
0.0 0.0 -1.102689164046e+02 
-6.950694835366e+01 8.657099408507e+00 0.0 
8.657099408507e+00 -1.558433796830e+02 0.0 
0.0 0.0 -6.720509841100e+01 
-9.602683740136e+01 1.114505401572e+00 0.0 
1.114505401572e+00 -2.174288859524e+02 0.0 
0.0 0.0 -9.363671700613e+01 
-1.632620649744e+02 -2.086302779639e+00 0.0 
-2.086302779639e+00 -3.794916782166e+02 0.0 
0.0 0.0 -1.624261229573e+02 
-1.307073260889e+02 4.454717286861e+00 0.0 
4.454717286861e+00 -3.202268397712e+02 0.0 
0.0 0.0 -1.348802497580e+02 
-1.537197545755e+02 4.353307660035e+00 0.0 
4.353307660035e+00 -3.671043919076e+02 0.0 
0.0 0.0 -1.558472439449e+02 
-6.246041004370e+01 1.231477343303e+01 0.0 
1.231477343303e+01 -1.485043261723e+02 0.0 
0.0 0.0 -6.288942086481e+01 
-4.296365047899e+01 -2.762438097750e+01 0.0 
-2.762438097750e+01 -7.826599614256e+01 0.0 
0.0 0.0 -3.542275553889e+01 
-1.525998279464e+02 6.311640369015e-02 0.0 
6.311640369015e-02 -3.500319812707e+02 0.0 
0.0 0.0 -1.503895427651e+02 
-1.386170278013e+02 5.912723203436e-02 0.0 
5.912723203436e-02 -3.206121904356e+02 0.0 
0.0 0.0 -1.373687654711e+02 
-4.455197609156e+01 -3.276076820278e+01 0.0 
-3.276076820278e+01 -7.574761116097e+01 0.0 
0.0 0.0 -3.648830302999e+01 
-1.627745697406e+02 -1.859257565714e+00 0.0 
-1.859257565714e+00 -3.784384822746e+02 0.0 
0.0 0.0 -1.619639156046e+02 
-1.332092859337e+02 3.198973752287e+00 0.0 
3.198973752287e+00 -3.081260039040e+02 0.0 
0.0 0.0 -1.320005869513e+02 
-5.723893723493e+00 8.661102002523e-01 0.0 
8.661102002523e-01 -2.176912913311e+01 0.0 
0.0 0.0 -7.217621876539e+00 
-7.995893237269e+01 8.148703581317e+00 0.0 
8.148703581317e+00 -1.985407004408e+02 0.0 
0.0 0.0 -8.314988984404e+01 
-9.211093276397e+01 2.936645589297e+00 0.0 
2.936645589297e+00 -2.059967017920e+02 0.0 
0.0 0.0 -8.903229036680e+01 
-7.540695402975e+01 -1.643628288142e+00 0.0 
-1.643628288142e+00 -1.624752847784e+02 0.0 
0.0 0.0 -7.096467164244e+01 
-6.459284994338e+01 7.433891906387e+00 0.0 
7.433891906387e+00 -1.443393662347e+02 0.0 
0.0 0.0 -6.227966485342e+01 
-7.157306020362e+01 9.855903678474e+00 0.0 
9.855903678474e+00 -1.654090580529e+02 0.0 
0.0 0.0 -7.069463547694e+01 
-1.633232830751e+02 -3.377152287771e+00 0.0 
-3.377152287771e+00 -3.823489167804e+02 0.0 
0.0 0.0 -1.633016599566e+02 
-1.095154288920e+02 -6.523104332656e-01 0.0 
-6.523104332656e-01 -2.502017393229e+02 0.0 
0.0 0.0 -1.075151504645e+02 
-6.789983453237e+01 8.398038554543e+00 0.0 
8.398038554543e+00 -1.566170371904e+02 0.0 
0.0 0.0 -6.695506151684e+01 
-3.065049718346e+01 -3.255528599282e+00 0.0 
-3.255528599282e+00 -6.301376759121e+01 0.0 
0.0 0.0 -2.769927943240e+01 
-9.964731301112e+01 1.229321383389e+00 0.0 
1.229321383389e+00 -2.242822493467e+02 0.0 
0.0 0.0 -9.677886870735e+01 
-1.394819576416e+02 6.453978638325e-01 0.0 
6.453978638325e-01 -3.222875382301e+02 0.0 
0.0 0.0 -1.381308487615e+02 
-6.694121031092e+01 1.114969173464e+01 0.0 
1.114969173464e+01 -1.563955360662e+02 0.0 
0.0 0.0 -6.660102391313e+01 
-3.956478221560e+01 2.165991786586e+01 0.0 
2.165991786586e+01 -6.496028592891e+01 0.0 
0.0 0.0 -3.020149548279e+01 
-8.401646441704e+01 3.531001696790e+00 0.0 
3.531001696790e+00 -1.868449077808e+02 0.0 
0.0 0.0 -8.085841165936e+01 
-7.439041702342e+01 -2.202141276801e+00 0.0 
-2.202141276801e+00 -1.610840617124e+02 0.0 
0.0 0.0 -7.024234362076e+01 
-7.910905305795e+01 2.033252724103e+00 0.0 
2.033252724103e+00 -1.759674410857e+02 0.0 
0.0 0.0 -7.612294824310e+01 
-1.600003263435e+02 1.347958897142e+00 0.0 
1.347958897142e+00 -3.732672323600e+02 0.0 
0.0 0.0 -1.595802676110e+02 
-4.093782161753e+01 2.356327309152e+01 0.0 
2.356327309152e+01 -8.755214768740e+01 0.0 
0.0 0.0 -3.801540274782e+01 
-1.200058083283e+02 -2.029137632407e+00 0.0 
-2.029137632407e+00 -2.678133063491e+02 0.0 
0.0 0.0 -1.159457344032e+02 
-1.555563180862e+02 -4.645914035097e-01 0.0 
-4.645914035097e-01 -3.627232298378e+02 0.0 
0.0 0.0 -1.550838643772e+02 
-8.529376886371e+01 4.779483018176e+00 0.0 
4.779483018176e+00 -1.938538105030e+02 0.0 
0.0 0.0 -8.334427381001e+01 
-8.009768041406e+01 3.897510268381e+00 0.0 
3.897510268381e+00 -1.775033925480e+02 0.0 
0.0 0.0 -7.688032188862e+01 
-1.607010172918e+02 -4.028106752106e+00 0.0 
-4.028106752106e+00 -3.766141419099e+02 0.0 
0.0 0.0 -1.607945477605e+02 
-1.608103502153e+02 3.317737281910e-01 0.0 
3.317737281910e-01 -3.717294091765e+02 0.0 
0.0 0.0 -1.593619278175e+02 
-1.283764798293e+02 -1.914156512029e+00 0.0 
-1.914156512029e+00 -2.887614422526e+02 0.0 
0.0 0.0 -1.247413766246e+02 
-8.969697779739e+01 6.164384170613e+00 0.0 
6.164384170613e+00 -2.038677880676e+02 0.0 
0.0 0.0 -8.766942975949e+01 
-1.631673087302e+02 -2.309821049363e+00 0.0 
-2.309821049363e+00 -3.870525041003e+02 0.0 
0.0 0.0 -1.646659438492e+02 
-8.198335145887e+01 3.989771082987e+00 0.0 
3.989771082987e+00 -1.843727665317e+02 0.0 
0.0 0.0 -7.950683539717e+01 
-1.583500751343e+02 1.419877273739e+00 0.0 
1.419877273739e+00 -3.685687728399e+02 0.0 
0.0 0.0 -1.576756543923e+02 
-1.615525725485e+02 4.685759075452e+00 0.0 
4.685759075452e+00 -3.781603696629e+02 0.0 
0.0 0.0 -1.615138826634e+02 
-1.075489631729e+02 2.367224425585e+00 0.0 
2.367224425585e+00 -2.436087936950e+02 0.0 
0.0 0.0 -1.049473270604e+02 
-1.224515348145e+02 -3.633681212425e-01 0.0 
-3.633681212425e-01 -2.810898776903e+02 0.0 
0.0 0.0 -1.206624237514e+02 
-8.217059249787e+01 6.174747662887e+00 0.0 
6.174747662887e+00 -1.845841485462e+02 0.0 
0.0 0.0 -7.962642231322e+01 
-7.491580501981e+01 2.325035468941e+00 0.0 
2.325035468941e+00 -1.663223374852e+02 0.0 
0.0 0.0 -7.197144275149e+01 
-9.283083109601e+01 4.745581396512e+00 0.0 
4.745581396512e+00 -2.130475444683e+02 0.0 
0.0 0.0 -9.136351266928e+01 
-6.923533302701e+01 1.124978755050e+01 0.0 
1.124978755050e+01 -1.686331715802e+02 0.0 
0.0 0.0 -7.096055138215e+01 
-9.685021059893e+01 1.051258845873e+00 0.0 
1.051258845873e+00 -2.200911448003e+02 0.0 
0.0 0.0 -9.468240661978e+01 
-7.784032447780e+01 9.831314786830e+00 0.0 
9.831314786830e+00 -1.979343918799e+02 0.0 
0.0 0.0 -8.233241490730e+01 
-1.108273160522e+01 4.985818214724e-01 0.0 
4.985818214724e-01 -2.528220449448e+01 0.0 
0.0 0.0 -1.088492270336e+01 
-1.027533365770e+02 1.313661135940e-01 0.0 
1.313661135940e-01 -2.348744701669e+02 0.0 
0.0 0.0 -1.008883420232e+02 
-2.537791550091e+01 -2.531467194120e-01 0.0 
-2.531467194120e-01 -5.975957778851e+01 0.0 
0.0 0.0 -2.514124798682e+01 
-8.805892495834e+01 3.238326158282e+00 0.0 
3.238326158282e+00 -1.965411666400e+02 0.0 
0.0 0.0 -8.498002747950e+01 
-1.642494475580e+02 -2.032443086188e+00 0.0 
-2.032443086188e+00 -3.867010482928e+02 0.0 
0.0 0.0 -1.648851487553e+02 
-6.370223788084e+01 9.782553563983e+00 0.0 
9.782553563983e+00 -1.487676960486e+02 0.0 
0.0 0.0 -6.334098017883e+01 
-1.327923913767e+02 -1.500134246770e+00 0.0 
-1.500134246770e+00 -2.991144738965e+02 0.0 
0.0 0.0 -1.291720595820e+02 
-5.073890881668e+01 9.794262687196e+00 0.0 
9.794262687196e+00 -1.035308548880e+02 0.0 
0.0 0.0 -4.588092911141e+01 
-1.313342985662e+02 2.924497644832e+00 0.0 
2.924497644832e+00 -3.202966834161e+02 0.0 
0.0 0.0 -1.350892945947e+02 
-9.703541128398e+01 8.627497056139e-02 0.0 
8.627497056139e-02 -2.215419556249e+02 0.0 
0.0 0.0 -9.517321007266e+01 
-7.496535864714e+01 8.832356985631e+00 0.0 
8.832356985631e+00 -1.909209101074e+02 0.0 
0.0 0.0 -7.936588062635e+01 
-1.446639610611e+02 1.089066534689e-01 0.0 
1.089066534689e-01 -3.294932719156e+02 0.0 
0.0 0.0 -1.418471698930e+02 
-3.685651664479e+01 -7.164068889471e+00 0.0 
-7.164068889471e+00 -6.390825298738e+01 0.0 
0.0 0.0 -2.926560105955e+01 
-1.525171666875e+02 -1.823147607499e+00 0.0 
-1.823147607499e+00 -3.497116460758e+02 0.0 
0.0 0.0 -1.502686438290e+02 
-9.861169616643e+01 2.243534063053e+00 0.0 
2.243534063053e+00 -2.229964169890e+02 0.0 
0.0 0.0 -9.608243394663e+01 
-1.627537759751e+02 -2.259155036860e+00 0.0 
-2.259155036860e+00 -3.775619129135e+02 0.0 
0.0 0.0 -1.616947066666e+02 
-9.655295299279e+01 -5.258806801236e-02 0.0 
-5.258806801236e-02 -2.204061863981e+02 0.0 
0.0 0.0 -9.468774181726e+01 
-6.575616053233e+01 1.046105246353e+01 0.0 
1.046105246353e+01 -1.601604884171e+02 0.0 
0.0 0.0 -6.737499468484e+01 
-8.741278774104e+01 1.526707592396e+00 0.0 
1.526707592396e+00 -1.953234091530e+02 0.0 
0.0 0.0 -8.442085906821e+01 
-1.154362496204e+02 -5.903034468377e-02 0.0 
-5.903034468377e-02 -2.565831707984e+02 0.0 
0.0 0.0 -1.112058261256e+02 
-4.985224653869e+01 6.466714355349e+00 0.0 
6.466714355349e+00 -1.045049577220e+02 0.0 
0.0 0.0 -4.590716127820e+01 
-7.231487565583e+01 1.011476301001e+01 0.0 
1.011476301001e+01 -1.900437770404e+02 0.0 
0.0 0.0 -7.830759580886e+01 
-1.267642480502e+02 1.339137091258e+00 0.0 
1.339137091258e+00 -2.916596993956e+02 0.0 
0.0 0.0 -1.251271842337e+02 
-9.647255599797e+01 -4.897866540043e-01 0.0 
-4.897866540043e-01 -2.203068825795e+02 0.0 
0.0 0.0 -9.463383157323e+01 
-7.260159985126e+01 9.371044335321e+00 0.0 
9.371044335321e+00 -1.791728068380e+02 0.0 
0.0 0.0 -7.513232200678e+01 
-8.302234702259e+01 1.787806426743e+00 0.0 
1.787806426743e+00 -1.854550260250e+02 0.0 
0.0 0.0 -8.014321191427e+01 
-1.442497965997e+02 3.723486193205e+00 0.0 
3.723486193205e+00 -3.371836597941e+02 0.0 
0.0 0.0 -1.440300369181e+02 
-8.309249533670e+01 -1.943426190191e+00 0.0 
-1.943426190191e+00 -1.803867950647e+02 0.0 
0.0 0.0 -7.864378712042e+01 
-1.633470895566e+02 3.974415632922e+00 0.0 
3.974415632922e+00 -3.841134696496e+02 0.0 
0.0 0.0 -1.638381677619e+02 
-1.616632824025e+02 5.179142207162e+00 0.0 
5.179142207162e+00 -3.788788999731e+02 0.0 
0.0 0.0 -1.617626547127e+02 
-6.268391487276e+01 8.625927938598e+00 0.0 
8.625927938598e+00 -1.366635452942e+02 0.0 
0.0 0.0 -5.940423805010e+01 
-8.382569506123e+01 -2.097551061654e+00 0.0 
-2.097551061654e+00 -1.807490670052e+02 0.0 
0.0 0.0 -7.897242861994e+01 
-1.458006587264e+02 3.282078149952e-01 0.0 
3.282078149952e-01 -3.536327252311e+02 0.0 
0.0 0.0 -1.494300151873e+02 
-7.903428524399e+01 5.247069152263e+00 0.0 
5.247069152263e+00 -1.757221501875e+02 0.0 
0.0 0.0 -7.602693062945e+01 
-5.666374104253e+01 7.013968214098e+00 0.0 
7.013968214098e+00 -1.238058741718e+02 0.0 
0.0 0.0 -5.374088456429e+01 
-9.505948425822e+01 1.742119328922e+00 0.0 
1.742119328922e+00 -2.141809326608e+02 0.0 
0.0 0.0 -9.237212507572e+01 
-7.618164832709e+01 1.021825203582e+01 0.0 
1.021825203582e+01 -1.878557044889e+02 0.0 
0.0 0.0 -7.881120584480e+01 
-1.573745432732e+02 5.096488606704e-01 0.0 
5.096488606704e-01 -3.674704023385e+02 0.0 
0.0 0.0 -1.570534836835e+02 
-1.341205604347e+02 2.691615995385e+00 0.0 
2.691615995385e+00 -3.091184784420e+02 0.0 
0.0 0.0 -1.325717116630e+02 
-1.486950451965e+02 -1.476795732053e+00 0.0 
-1.476795732053e+00 -3.396770012335e+02 0.0 
0.0 0.0 -1.461116139290e+02 
-4.599851980992e+01 1.281299455655e+01 0.0 
1.281299455655e+01 -8.643964024627e+01 0.0 
0.0 0.0 -3.861745595115e+01 
-6.675506910792e+01 1.003410569843e+01 0.0 
1.003410569843e+01 -1.830367569154e+02 0.0 
0.0 0.0 -7.453754780701e+01 
-1.378073642106e+02 3.011266135270e+00 0.0 
3.011266135270e+00 -3.185895727798e+02 0.0 
0.0 0.0 -1.365190810971e+02 
-7.585000640719e+01 2.225639068775e+01 0.0 
2.225639068775e+01 -8.003698246090e+01 0.0 
0.0 0.0 -4.703405501293e+01 
-7.860565954007e+01 3.275898535352e+00 0.0 
3.275898535352e+00 -1.754847618783e+02 0.0 
0.0 0.0 -7.582712642551e+01 
-1.364457052637e+02 -9.986079629816e-01 0.0 
-9.986079629816e-01 -3.324136182616e+02 0.0 
0.0 0.0 -1.402577970576e+02 
-1.478410101391e+01 1.244956481348e-01 0.0 
1.244956481348e-01 -4.199754580648e+01 0.0 
0.0 0.0 -1.663449404611e+01 
-1.582607542903e+02 2.845406066328e+00 0.0 
2.845406066328e+00 -3.677798712021e+02 0.0 
0.0 0.0 -1.574121876477e+02 
-1.232377027929e+02 1.650383703034e+00 0.0 
1.650383703034e+00 -2.815740859867e+02 0.0 
0.0 0.0 -1.210435366339e+02 
-7.701905270977e+01 -9.654505274644e+00 0.0 
-9.654505274644e+00 -1.815021249760e+02 0.0 
0.0 0.0 -7.715635330573e+01 
-1.357826040117e+02 -2.466896069894e+00 0.0 
-2.466896069894e+00 -3.319873653044e+02 0.0 
0.0 0.0 -1.399309907948e+02 
-1.062809310606e+02 1.914119714440e+00 0.0 
1.914119714440e+00 -2.399718578339e+02 0.0 
0.0 0.0 -1.034758366683e+02 
-1.128784596633e+02 2.281283753485e+00 0.0 
2.281283753485e+00 -2.551877828921e+02 0.0 
0.0 0.0 -1.100198727666e+02 
-1.580949325359e+02 -1.196502002578e+00 0.0 
-1.196502002578e+00 -3.756982158422e+02 0.0 
0.0 0.0 -1.597379445134e+02 
-6.172546624896e+01 -8.776255144559e+00 0.0 
-8.776255144559e+00 -1.333899447399e+02 0.0 
0.0 0.0 -5.813462329665e+01 
-9.602021472332e+01 5.240413189263e+00 0.0 
5.240413189263e+00 -2.229444656119e+02 0.0 
0.0 0.0 -9.528940410056e+01 
-1.022008571913e+02 2.768048454314e+00 0.0 
2.768048454314e+00 -2.321302805473e+02 0.0 
0.0 0.0 -9.989934132156e+01 
-1.280742695845e+02 3.302502930240e+00 0.0 
3.302502930240e+00 -2.924982633763e+02 0.0 
0.0 0.0 -1.257717598882e+02 
-1.032206218487e+02 3.800316176220e+00 0.0 
3.800316176220e+00 -2.332861926673e+02 0.0 
0.0 0.0 -1.005520443548e+02 
-9.547136075924e+01 3.509053971770e+00 0.0 
3.509053971770e+00 -2.143431153355e+02 0.0 
0.0 0.0 -9.254434282841e+01 
-1.165134529563e+02 4.340978787771e+00 0.0 
4.340978787771e+00 -2.919372635171e+02 0.0 
0.0 0.0 -1.221352149420e+02 
-1.404677671471e+02 5.394174243007e+00 0.0 
5.394174243007e+00 -3.273709503140e+02 0.0 
0.0 0.0 -1.399516152383e+02 
-4.840942032824e+01 2.099364840618e+01 0.0 
2.099364840618e+01 -9.735851196291e+01 0.0 
0.0 0.0 -4.485418679251e+01 
-6.271278732751e+01 6.603506184121e+00 0.0 
6.603506184121e+00 -1.370300808778e+02 0.0 
0.0 0.0 -5.952286046158e+01 
-6.902154148659e+01 6.348295731706e+00 0.0 
6.348295731706e+00 -1.550989844107e+02 0.0 
0.0 0.0 -6.683615776920e+01 
-9.267296358475e+01 6.771455288226e+00 0.0 
6.771455288226e+00 -2.133748858318e+02 0.0 
0.0 0.0 -9.141435482497e+01 
-1.391715135846e+02 4.406073985614e+00 0.0 
4.406073985614e+00 -3.204016906304e+02 0.0 
0.0 0.0 -1.374719612645e+02 
-3.757834783442e+01 1.885503612499e+01 0.0 
1.885503612499e+01 -1.283455442178e+02 0.0 
0.0 0.0 -5.038583535788e+01 
-1.318378737966e+02 -1.792383502779e+00 0.0 
-1.792383502779e+00 -3.210517635121e+02 0.0 
0.0 0.0 -1.354668911926e+02 
-9.629560819532e+01 1.094581167422e+00 0.0 
1.094581167422e+00 -2.190200347005e+02 0.0 
0.0 0.0 -9.419469286875e+01 
-6.997301280578e+01 9.318541498534e+00 0.0 
9.318541498534e+00 -1.842585747152e+02 0.0 
0.0 0.0 -7.586947625629e+01 
-1.274460974896e+02 -2.589179319326e+00 0.0 
-2.589179319326e+00 -3.095371655715e+02 0.0 
0.0 0.0 -1.306949789183e+02 
-9.319482601616e+00 1.241988934184e+00 0.0 
1.241988934184e+00 -2.853549834806e+01 0.0 
0.0 0.0 -1.095649428490e+01 
-1.311838016543e+02 1.862835528970e+00 0.0 
1.862835528970e+00 -3.010302763519e+02 0.0 
0.0 0.0 -1.292642234019e+02 
-5.921862943216e+00 -4.177465056299e-01 0.0 
-4.177465056299e-01 -2.364441767044e+01 0.0 
0.0 0.0 -8.231125636143e+00 
-1.791192857455e+01 -9.382478379035e-02 0.0 
-9.382478379035e-02 -4.298617699521e+01 0.0 
0.0 0.0 -1.786943167093e+01 
-4.327292179604e+01 8.874427650295e+00 0.0 
8.874427650295e+00 -8.579996569243e+01 0.0 
0.0 0.0 -3.776194450719e+01 
-5.387898758573e+01 -8.334282741770e+00 0.0 
-8.334282741770e+00 -1.126243371670e+02 0.0 
0.0 0.0 -4.955099742583e+01 
-1.359893905036e+02 3.501196793885e+00 0.0 
3.501196793885e+00 -3.119205770684e+02 0.0 
0.0 0.0 -1.339729902716e+02 
-5.115079573639e+01 -7.027888767135e+00 0.0 
-7.027888767135e+00 -1.073976942376e+02 0.0 
0.0 0.0 -4.716454699218e+01 
-5.025114427402e+01 1.443952667888e+01 0.0 
1.443952667888e+01 -1.140432829895e+02 0.0 
0.0 0.0 -4.820149898677e+01 
-4.794583244513e+01 -1.985601601021e+01 0.0 
-1.985601601021e+01 -1.115943242878e+02 0.0 
0.0 0.0 -4.613508061913e+01 
-3.787763088209e+01 -6.264507220613e+00 0.0 
-6.264507220613e+00 -7.133084527904e+01 0.0 
0.0 0.0 -3.227895659716e+01 
-1.405087784491e+02 -1.598160101194e+00 0.0 
-1.598160101194e+00 -3.425034550923e+02 0.0 
0.0 0.0 -1.445036700624e+02 
-9.898086702852e+01 4.149203987811e+00 0.0 
4.149203987811e+00 -2.232602541930e+02 0.0 
0.0 0.0 -9.627233636645e+01 
-1.605833222255e+02 -2.721550815771e+00 0.0 
-2.721550815771e+00 -3.716052987069e+02 0.0 
0.0 0.0 -1.592565862797e+02 
-5.194620502578e+01 7.331520868140e+00 0.0 
7.331520868140e+00 -1.093501875206e+02 0.0 
0.0 0.0 -4.893061728877e+01 
-5.513974959022e+01 1.315455802152e+01 0.0 
1.315455802152e+01 -1.341988532097e+02 0.0 
0.0 0.0 -5.640158083997e+01 
-7.739679308252e+01 7.741589661450e+00 0.0 
7.741589661450e+00 -2.024310134643e+02 0.0 
0.0 0.0 -8.354834196404e+01 
-7.411975126115e+01 3.700644223246e+00 0.0 
3.700644223246e+00 -1.649442765883e+02 0.0 
0.0 0.0 -7.131920835483e+01 
-1.309050374166e+02 -3.162951730824e+00 0.0 
-3.162951730824e+00 -3.205184852895e+02 0.0 
0.0 0.0 -1.350270568119e+02 
-1.634029425044e+02 -3.223976793583e+00 0.0 
-3.223976793583e+00 -3.797417107231e+02 0.0 
0.0 0.0 -1.625433959683e+02 
-1.311436960004e+02 4.201151401847e+00 0.0 
4.201151401847e+00 -3.006947335927e+02 0.0 
0.0 0.0 -1.291515288780e+02 
-5.341684576092e+01 1.146785726976e+01 0.0 
1.146785726976e+01 -1.591714833003e+02 0.0 
0.0 0.0 -6.337649871838e+01 
-1.408675247353e+02 -3.996835204515e-01 0.0 
-3.996835204515e-01 -3.426689799374e+02 0.0 
0.0 0.0 -1.446609514018e+02 
-1.241124563760e+02 -1.804721706970e+00 0.0 
-1.804721706970e+00 -2.776874027099e+02 0.0 
0.0 0.0 -1.201399577258e+02 
-9.716428461390e+01 6.132743933940e+00 0.0 
6.132743933940e+00 -2.229041590545e+02 0.0 
0.0 0.0 -9.562053310053e+01 
-1.268254870842e+02 1.955347585883e+00 0.0 
1.955347585883e+00 -2.904830267189e+02 0.0 
0.0 0.0 -1.247925541409e+02 
-1.577682800577e+02 4.467811977611e+00 0.0 
4.467811977611e+00 -3.740291976848e+02 0.0 
0.0 0.0 -1.591392433227e+02 
-7.473762335803e+01 8.562636399669e+00 0.0 
8.562636399669e+00 -2.014759019205e+02 0.0 
0.0 0.0 -8.246405758357e+01 
-5.160426556180e+01 1.485561746849e+01 0.0 
1.485561746849e+01 -1.202902220948e+02 0.0 
0.0 0.0 -5.116834629698e+01 
-1.109898712499e+02 4.018986702025e+00 0.0 
4.018986702025e+00 -2.521433607285e+02 0.0 
0.0 0.0 -1.085399695935e+02 
-1.655202567601e+02 1.945854621203e+00 0.0 
1.945854621203e+00 -3.864265176321e+02 0.0 
0.0 0.0 -1.651840323177e+02 
-9.553889009368e+01 7.218036000868e+00 0.0 
7.218036000868e+00 -2.230963834158e+02 0.0 
0.0 0.0 -9.519058205286e+01 
-9.419384123283e+01 4.811716209487e+00 0.0 
4.811716209487e+00 -2.470863132896e+02 0.0 
0.0 0.0 -1.019840463567e+02 
-1.043976779712e+02 4.040817927111e-01 0.0 
4.040817927111e-01 -2.386884363119e+02 0.0 
0.0 0.0 -1.025258342849e+02 
-3.847561989522e+01 -1.239057706820e+01 0.0 
-1.239057706820e+01 -6.897063719414e+01 0.0 
0.0 0.0 -2.970591575297e+01 
-1.025773678293e+02 1.947793872307e+00 0.0 
1.947793872307e+00 -2.325949713178e+02 0.0 
0.0 0.0 -1.001517017442e+02 
-5.791609328470e+01 1.146563499824e+01 0.0 
1.146563499824e+01 -1.610783086793e+02 0.0 
0.0 0.0 -6.529832058919e+01 
-4.187333025081e+01 1.430524172114e+01 0.0 
1.430524172114e+01 -1.407305921250e+02 0.0 
0.0 0.0 -5.559932750254e+01 
-3.805239596188e+01 -2.165210064933e+01 0.0 
-2.165210064933e+01 -1.243250838499e+02 0.0 
0.0 0.0 -4.935533917757e+01 
-1.353836193487e+02 1.802868630341e+00 0.0 
1.802868630341e+00 -3.113499843892e+02 0.0 
0.0 0.0 -1.336200811214e+02 
-1.067690431680e+02 4.281601326854e+00 0.0 
4.281601326854e+00 -2.423841095256e+02 0.0 
0.0 0.0 -1.043459458081e+02 
-7.085028668074e+01 9.198616364194e+00 0.0 
9.198616364194e+00 -1.688443047033e+02 0.0 
0.0 0.0 -7.150837741522e+01 
-1.401639872221e+02 3.419975213829e+00 0.0 
3.419975213829e+00 -3.222066881282e+02 0.0 
0.0 0.0 -1.383112026051e+02 
-1.347446633238e+02 4.544465161046e+00 0.0 
4.544465161046e+00 -3.099217637887e+02 0.0 
0.0 0.0 -1.329999281337e+02 
-1.015507778073e+02 5.587187702248e+00 0.0 
5.587187702248e+00 -2.323907068324e+02 0.0 
0.0 0.0 -9.978244539191e+01 
-1.636068762237e+02 -3.021647714160e+00 0.0 
-3.021647714160e+00 -3.809691209364e+02 0.0 
0.0 0.0 -1.629727991480e+02 
-9.880384617140e+01 2.773063017496e+00 0.0 
2.773063017496e+00 -2.566196585957e+02 0.0 
0.0 0.0 -1.062270514301e+02 
-1.059042599583e+02 5.138455983429e+00 0.0 
5.138455983429e+00 -2.419197539722e+02 0.0 
0.0 0.0 -1.039472041792e+02 
-8.345716785977e+01 9.190190681032e+00 0.0 
9.190190681032e+00 -2.069405835072e+02 0.0 
0.0 0.0 -8.671932541009e+01 
-1.027927505951e+02 4.234831975902e+00 0.0 
4.234831975902e+00 -2.649895897729e+02 0.0 
0.0 0.0 -1.099347021104e+02 
-4.656840846278e+01 9.812146252626e+00 0.0 
9.812146252626e+00 -1.526753317132e+02 0.0 
0.0 0.0 -5.937312205278e+01 
-9.868866436035e+01 1.081617546593e+00 0.0 
1.081617546593e+00 -2.232144707344e+02 0.0 
0.0 0.0 -9.617094052842e+01 
-7.735681358651e+01 6.598628813851e+00 0.0 
6.598628813851e+00 -2.117620280120e+02 0.0 
0.0 0.0 -8.633565247954e+01 
-5.524574075934e+01 -6.662305915869e+00 0.0 
-6.662305915869e+00 -1.714945876897e+02 0.0 
0.0 0.0 -6.762209853473e+01 
-1.305401082502e+02 2.354410122409e+00 0.0 
2.354410122409e+00 -2.999387197178e+02 0.0 
0.0 0.0 -1.287436483904e+02 
-9.969271585283e+01 2.164898458518e+00 0.0 
2.164898458518e+00 -1.032401674076e+02 0.0 
0.0 0.0 -6.115360615046e+01 
-1.074009317155e+02 3.619007509006e+00 0.0 
3.619007509006e+00 -2.430895259101e+02 0.0 
0.0 0.0 -1.047471372877e+02 
-5.924190958236e+01 8.841074119423e+00 0.0 
8.841074119423e+00 -1.725208602127e+02 0.0 
0.0 0.0 -6.912883093853e+01 
-5.190796533278e+01 1.513556567197e+01 0.0 
1.513556567197e+01 -1.332205809363e+02 0.0 
0.0 0.0 -5.513856388071e+01 
-4.244415555536e+01 7.371015977422e+00 0.0 
7.371015977422e+00 -1.499074411296e+02 0.0 
0.0 0.0 -5.697573694630e+01 
-1.141465793254e+02 2.604644030744e+00 0.0 
2.604644030744e+00 -2.607856425779e+02 0.0 
0.0 0.0 -1.120796665710e+02 
-1.868720350147e+01 -1.599973813700e+00 0.0 
-1.599973813700e+00 -4.244547467601e+01 0.0 
0.0 0.0 -1.793980345324e+01 
-7.340715701120e+01 5.427567471100e+00 0.0 
5.427567471100e+00 -1.648416505846e+02 0.0 
0.0 0.0 -7.107464227875e+01 
-1.073319924843e+02 2.236951836391e+00 0.0 
2.236951836391e+00 -2.743716358104e+02 0.0 
0.0 0.0 -1.141110884884e+02 
-1.062731497096e+02 2.431890238273e+00 0.0 
2.431890238273e+00 -2.417156027651e+02 0.0 
0.0 0.0 -1.039966257424e+02 
-1.061136380480e+02 1.696336908485e+00 0.0 
1.696336908485e+00 -2.404657585570e+02 0.0 
0.0 0.0 -1.035738189815e+02 
-3.283439397945e+01 1.672990486063e+01 0.0 
1.672990486063e+01 -1.294481705783e+02 0.0 
0.0 0.0 -5.003240491858e+01 
-5.304513896694e+01 -4.645311598012e+00 0.0 
-4.645311598012e+00 -1.710072882706e+02 0.0 
0.0 0.0 -6.681572817125e+01 
-5.314170885533e+01 -1.078307858996e+01 0.0 
-1.078307858996e+01 -1.600817158232e+02 0.0 
0.0 0.0 -6.356702740355e+01 
-6.652062886587e+01 7.711816215042e+00 0.0 
7.711816215042e+00 -1.460611905843e+02 0.0 
0.0 0.0 -6.337454583506e+01 
-1.274161326427e+02 3.870924346288e+00 0.0 
3.870924346288e+00 -2.912466805641e+02 0.0 
0.0 0.0 -1.251988439620e+02 
-7.369078401952e+01 7.811882292252e+00 0.0 
7.811882292252e+00 -1.654729180242e+02 0.0 
0.0 0.0 -7.134911061312e+01 
-7.427216036386e+01 5.519474140734e+00 0.0 
5.519474140734e+00 -2.051659666060e+02 0.0 
0.0 0.0 -8.343143809096e+01 
-7.204159745654e+01 7.638286561027e+00 0.0 
7.638286561027e+00 -1.953262235467e+02 0.0 
0.0 0.0 -7.981034630097e+01 
-3.045516034261e+01 1.206175490771e+01 0.0 
1.206175490771e+01 -1.200270171078e+02 0.0 
0.0 0.0 -4.622370510465e+01 
-8.766379530951e+01 7.178932205775e+00 0.0 
7.178932205775e+00 -2.178480265574e+02 0.0 
0.0 0.0 -9.125354656009e+01 
-4.483364867798e+01 1.722527701137e+01 0.0 
1.722527701137e+01 -9.300304686149e+01 0.0 
0.0 0.0 -3.968042326198e+01 
-1.669035303086e+02 3.847754362275e+00 0.0 
3.847754362275e+00 -3.886959380021e+02 0.0 
0.0 0.0 -1.662798404932e+02 
-1.666084192301e+02 4.507327055950e+00 0.0 
4.507327055950e+00 -3.890775986976e+02 0.0 
0.0 0.0 -1.663058053783e+02 
-9.915702661417e+01 5.565982767294e+00 0.0 
5.565982767294e+00 -2.331168959271e+02 0.0 
0.0 0.0 -9.928217676239e+01 
-5.244140885416e+01 1.118850772516e+01 0.0 
1.118850772516e+01 -1.566495597509e+02 0.0 
0.0 0.0 -6.232729058152e+01 
-4.664545073648e+01 1.624792919387e+01 0.0 
1.624792919387e+01 -1.278724813644e+02 0.0 
0.0 0.0 -5.195537963028e+01 
-1.091503096584e+02 3.671308110277e+00 0.0 
3.671308110277e+00 -2.509677957428e+02 0.0 
0.0 0.0 -1.076354316204e+02 
-4.655939786502e+01 1.394619856525e+01 0.0 
1.394619856525e+01 -1.417200450174e+02 0.0 
0.0 0.0 -5.608383286471e+01 
-4.899210134758e+01 -8.935638166912e+00 0.0 
-8.935638166912e+00 -1.587345272782e+02 0.0 
0.0 0.0 -6.191798858774e+01 
-9.714528329614e+01 4.172387502498e+00 0.0 
4.172387502498e+00 -2.223964761658e+02 0.0 
0.0 0.0 -9.546252783857e+01 
-1.584814593342e+02 1.695131136919e+00 0.0 
1.695131136919e+00 -3.691360953437e+02 0.0 
0.0 0.0 -1.578852664034e+02 
-6.472870396250e+01 9.370242231983e+00 0.0 
9.370242231983e+00 -1.781394174463e+02 0.0 
0.0 0.0 -7.246043642265e+01 
-1.174386608617e+02 3.251418113886e+00 0.0 
3.251418113886e+00 -2.921436665297e+02 0.0 
0.0 0.0 -1.224746982174e+02 
-4.793199615982e+01 1.711869224174e+01 0.0 
1.711869224174e+01 -1.092701171017e+02 0.0 
0.0 0.0 -4.532368344743e+01 
-1.708869313526e+02 -1.185760600709e+00 0.0 
-1.185760600709e+00 -4.033507248634e+02 0.0 
0.0 0.0 -1.718712968648e+02 
-5.171940549547e+01 1.383490130151e+01 0.0 
1.383490130151e+01 -1.438781803192e+02 0.0 
0.0 0.0 -5.827927574441e+01 
-1.004486321063e+02 4.634550647647e+00 0.0 
4.634550647647e+00 -2.321893014478e+02 0.0 
0.0 0.0 -9.939138006622e+01 
-3.663996058261e+01 1.155813990687e+01 0.0 
1.155813990687e+01 -1.402745900339e+02 0.0 
0.0 0.0 -5.415954119606e+01 
-1.133523692105e+02 -2.132994226697e+00 0.0 
-2.132994226697e+00 -2.873073936769e+02 0.0 
0.0 0.0 -1.197979288662e+02 
-7.972928743865e+01 6.215319221768e+00 0.0 
6.215319221768e+00 -2.126789811340e+02 0.0 
0.0 0.0 -8.732248057181e+01 
-5.385762081030e+01 -1.109028168872e+01 0.0 
-1.109028168872e+01 -1.607745625630e+02 0.0 
0.0 0.0 -6.398965501199e+01 
-1.025161364935e+02 4.663244007376e+00 0.0 
4.663244007376e+00 -2.326121547186e+02 0.0 
0.0 0.0 -1.001384873636e+02 
-1.683421039756e+02 5.158096071427e+00 0.0 
5.158096071427e+00 -3.933226813395e+02 0.0 
0.0 0.0 -1.680994355945e+02 
-6.657367892891e+01 6.981582344805e+00 0.0 
6.981582344805e+00 -1.886652951621e+02 0.0 
0.0 0.0 -7.617169222732e+01 
-1.065322417696e+02 2.950456186306e+00 0.0 
2.950456186306e+00 -2.741759145889e+02 0.0 
0.0 0.0 -1.138124469075e+02 
-4.356800405775e+01 1.776963196424e+01 0.0 
1.776963196424e+01 -1.082128841259e+02 0.0 
0.0 0.0 -4.451645391247e+01 
-1.200895611075e+02 4.910871838251e-01 0.0 
4.910871838251e-01 -2.744717187940e+02 0.0 
0.0 0.0 -1.179683839704e+02 
-1.262344303607e+02 -3.872252935483e+00 0.0 
-3.872252935483e+00 -3.087899302867e+02 0.0 
0.0 0.0 -1.301073081942e+02 
-5.617838346384e+01 1.299557849480e+01 0.0 
1.299557849480e+01 -1.282293098847e+02 0.0 
0.0 0.0 -5.492230800455e+01 
-1.167378271796e+02 1.952440829038e+00 0.0 
1.952440829038e+00 -2.659784126413e+02 0.0 
0.0 0.0 -1.144148719463e+02 
-1.691096483538e+02 5.239878844798e+00 0.0 
5.239878844798e+00 -3.962747009805e+02 0.0 
0.0 0.0 -1.692153048003e+02 
-1.353417937109e+02 -3.357594272598e+00 0.0 
-3.357594272598e+00 -3.279765383415e+02 0.0 
0.0 0.0 -1.385954996157e+02 
-1.679416415236e+02 4.959099091576e+00 0.0 
4.959099091576e+00 -3.919971710540e+02 0.0 
0.0 0.0 -1.675816437733e+02 
-1.165227463189e+02 2.376722738855e+00 0.0 
2.376722738855e+00 -2.645336389764e+02 0.0 
0.0 0.0 -1.139169155886e+02 
-1.335853723638e+02 4.942466700840e+00 0.0 
4.942466700840e+00 -3.087893936109e+02 0.0 
0.0 0.0 -1.323124297924e+02 
-5.043671882497e+01 1.340709163826e+01 0.0 
1.340709163826e+01 -1.075668269143e+02 0.0 
0.0 0.0 -4.700106372178e+01 
-9.488146163721e+01 4.506240163243e+00 0.0 
4.506240163243e+00 -2.137621538012e+02 0.0 
0.0 0.0 -9.219308463152e+01 
-1.057078324429e+02 3.232640587393e+00 0.0 
3.232640587393e+00 -2.414471851099e+02 0.0 
0.0 0.0 -1.037465052658e+02 
-1.102255185697e+02 4.753932460411e+00 0.0 
4.753932460411e+00 -2.515825374365e+02 0.0 
0.0 0.0 -1.081424168019e+02 
-9.091888065867e+01 7.895870674667e+00 0.0 
7.895870674667e+00 -2.140663546755e+02 0.0 
0.0 0.0 -9.109557060024e+01 
-1.696650075978e+02 5.045625873413e+00 0.0 
5.045625873413e+00 -3.986020478921e+02 0.0 
0.0 0.0 -1.700801166470e+02 
-1.122086070566e+02 1.323951451469e+00 0.0 
1.323951451469e+00 -2.543913395361e+02 0.0 
0.0 0.0 -1.095799839778e+02 
-9.969105175809e+01 3.287690998314e+00 0.0 
3.287690998314e+00 -2.244964359198e+02 0.0 
0.0 0.0 -9.685624630335e+01 
-6.909262894305e+01 7.857820492307e+00 0.0 
7.857820492307e+00 -1.941238509569e+02 0.0 
0.0 0.0 -7.856494396999e+01 
-4.627923363265e+01 -7.663392582579e+00 0.0 
-7.663392582579e+00 -9.218468958589e+01 0.0 
0.0 0.0 -4.113917696556e+01 
-9.134515032297e+01 3.921830288368e+00 0.0 
3.921830288368e+00 -2.046084235575e+02 0.0 
0.0 0.0 -8.838607216415e+01 
-5.928664192784e+01 1.137478040740e+01 0.0 
1.137478040740e+01 -1.405789109609e+02 0.0 
0.0 0.0 -5.955966586663e+01 
-9.696068570005e+01 2.682460639171e-01 0.0 
2.682460639171e-01 -2.211781863110e+02 0.0 
0.0 0.0 -9.504166160332e+01 
-5.850343154021e+01 -1.172526718882e+01 0.0 
-1.172526718882e+01 -1.626097207964e+02 0.0 
0.0 0.0 -6.593394570100e+01 
-6.105742609465e+01 9.459454480851e+00 0.0 
9.459454480851e+00 -1.765995265529e+02 0.0 
0.0 0.0 -7.089708579425e+01 
-1.348721406185e+02 2.186879218186e+00 0.0 
2.186879218186e+00 -3.103066419973e+02 0.0 
0.0 0.0 -1.331536347847e+02 
-5.726898655295e+01 1.368145279011e+01 0.0 
1.368145279011e+01 -1.401510862760e+02 0.0 
0.0 0.0 -5.882602184869e+01 
-9.796315967005e+01 3.121750900436e+00 0.0 
3.121750900436e+00 -2.224567470702e+02 0.0 
0.0 0.0 -9.572597202209e+01 
-1.108021865815e+02 1.041842448267e+00 0.0 
1.041842448267e+00 -2.826973368211e+02 0.0 
0.0 0.0 -1.176498570208e+02 
-1.004465397439e+02 -6.887569258941e+00 0.0 
-6.887569258941e+00 -2.466571814860e+02 0.0 
0.0 0.0 -1.037311163690e+02 
-1.707554920850e+02 3.797321388554e+00 0.0 
3.797321388554e+00 -4.021590579704e+02 0.0 
0.0 0.0 -1.714743650166e+02 
-8.325588337184e+01 4.727118948789e+00 0.0 
4.727118948789e+00 -1.857460527597e+02 0.0 
0.0 0.0 -8.030058083946e+01 
-4.958709789451e+01 -4.496290245532e-01 0.0 
-4.496290245532e-01 -1.669435594786e+02 0.0 
0.0 0.0 -6.455919721193e+01 
-7.561154234865e+01 -8.991113078419e+00 0.0 
-8.991113078419e+00 -1.776914160463e+02 0.0 
0.0 0.0 -7.559088751847e+01 
-5.757874784935e+01 9.925008839540e+00 0.0 
9.925008839540e+00 -1.247925514847e+02 0.0 
0.0 0.0 -5.431138980022e+01 
-5.676782323990e+01 1.023017448563e+01 0.0 
1.023017448563e+01 -1.280452439381e+02 0.0 
0.0 0.0 -5.504392015341e+01 
-1.427422180762e+02 4.675777761153e+00 0.0 
4.675777761153e+00 -3.296883143717e+02 0.0 
0.0 0.0 -1.413291597344e+02 
-1.046927490795e+02 6.044907680390e+00 0.0 
6.044907680390e+00 -2.418501148102e+02 0.0 
0.0 0.0 -1.035628591669e+02 
-7.468222856008e+01 6.033130828509e+00 0.0 
6.033130828509e+00 -1.654614977024e+02 0.0 
0.0 0.0 -7.164311787874e+01 
-9.029328209333e+01 2.936872208109e+00 0.0 
2.936872208109e+00 -2.036010820538e+02 0.0 
0.0 0.0 -8.776830924413e+01 
-1.705082987340e+02 1.004225226010e+00 0.0 
1.004225226010e+00 -4.034115528150e+02 0.0 
0.0 0.0 -1.717759554647e+02 
-1.609930768514e+02 1.957563822464e+00 0.0 
1.957563822464e+00 -3.846616546622e+02 0.0 
0.0 0.0 -1.632964194541e+02 
-1.422021943316e+02 2.865966608936e+00 0.0 
2.865966608936e+00 -3.288966811491e+02 0.0 
0.0 0.0 -1.409296626442e+02 
-1.318282490356e+02 3.663118226370e+00 0.0 
3.663118226370e+00 -3.017514407936e+02 0.0 
0.0 0.0 -1.296739069488e+02 
-9.819399432979e+01 -5.878493703174e+00 0.0 
-5.878493703174e+00 -2.416612770485e+02 0.0 
0.0 0.0 -1.015565814135e+02 
-7.638683025775e+01 8.642511311393e+00 0.0 
8.642511311393e+00 -1.753853891585e+02 0.0 
0.0 0.0 -7.513166582488e+01 
-4.746348671199e+01 1.016330963134e+01 0.0 
1.016330963134e+01 -1.543092094621e+02 0.0 
0.0 0.0 -6.013180885223e+01 
-5.532604358592e+01 8.090683077383e+00 0.0 
8.090683077383e+00 -1.706969493951e+02 0.0 
0.0 0.0 -6.740689789431e+01 
-1.001742602194e+02 6.578728748977e+00 0.0 
6.578728748977e+00 -2.324834292891e+02 0.0 
0.0 0.0 -9.939730685257e+01 
-1.097801790892e+02 -5.334271511622e-01 0.0 
-5.334271511622e-01 -2.804963528624e+02 0.0 
0.0 0.0 -1.166829595855e+02 
-9.036753250989e+01 -4.684766001671e+00 0.0 
-4.684766001671e+00 -2.024300739711e+02 0.0 
0.0 0.0 -8.743928194431e+01 
-1.427889510390e+02 2.443932369312e+00 0.0 
2.443932369312e+00 -3.299842652707e+02 0.0 
0.0 0.0 -1.414319648929e+02 
-4.974842477425e+01 -3.205077090626e+00 0.0 
-3.205077090626e+00 -1.663981127380e+02 0.0 
0.0 0.0 -6.444396125367e+01 
-8.619646064977e+01 8.620238987969e+00 0.0 
8.620238987969e+00 -2.052068901144e+02 0.0 
0.0 0.0 -8.702100522924e+01 
-1.014049575004e+02 3.654613211780e+00 0.0 
3.654613211780e+00 -2.317965777934e+02 0.0 
0.0 0.0 -9.956046058814e+01 
-7.895301492334e+01 9.234595246919e+00 0.0 
9.234595246919e+00 -1.858334463523e+02 0.0 
0.0 0.0 -7.903593838270e+01 
-1.677699230191e+02 4.755094463933e+00 0.0 
4.755094463933e+00 -3.907956339552e+02 0.0 
0.0 0.0 -1.671696670923e+02 
-1.663445557828e+02 3.898865524172e+00 0.0 
3.898865524172e+00 -3.884598957031e+02 0.0 
0.0 0.0 -1.660413354458e+02 
-1.588480118497e+02 4.830787753851e+00 0.0 
4.830787753851e+00 -3.684496450294e+02 0.0 
0.0 0.0 -1.577892970637e+02 
-1.063723399445e+02 -4.892767158444e+00 0.0 
-4.892767158444e+00 -2.601654884285e+02 0.0 
0.0 0.0 -1.095613485119e+02 
-1.395582854287e+02 1.728556148985e+00 0.0 
1.728556148985e+00 -3.216396551008e+02 0.0 
0.0 0.0 -1.379593821588e+02 
-5.301605401980e+01 1.209618654979e+01 0.0 
1.209618654979e+01 -1.204331115118e+02 0.0 
0.0 0.0 -5.163474965949e+01 
-6.355198186601e+01 6.531833437656e+00 0.0 
6.531833437656e+00 -1.872859704355e+02 0.0 
0.0 0.0 -7.485138569046e+01 
-3.619375156579e+01 8.849098697216e+00 0.0 
8.849098697216e+00 -1.350938803443e+02 0.0 
0.0 0.0 -5.132375737343e+01 
-7.794155344544e+01 6.911476954631e+00 0.0 
6.911476954631e+00 -1.749956263907e+02 0.0 
0.0 0.0 -7.548115395085e+01 
-9.905504155800e+01 1.116914141047e+00 0.0 
1.116914141047e+00 -2.231995585932e+02 0.0 
0.0 0.0 -9.627638004537e+01 
-1.158202125790e+02 5.099104050200e-01 0.0 
5.099104050200e-01 -2.639818633397e+02 0.0 
0.0 0.0 -1.135406227756e+02 
-1.624086981113e+02 -8.167496048975e-01 0.0 
-8.167496048975e-01 -3.871735525240e+02 0.0 
0.0 0.0 -1.644746751906e+02 
-1.411862718300e+02 3.193970941650e+00 0.0 
3.193970941650e+00 -3.276338299892e+02 0.0 
0.0 0.0 -1.402460305458e+02 
-1.105582270873e+02 2.188217911669e+00 0.0 
2.188217911669e+00 -2.515603350550e+02 0.0 
0.0 0.0 -1.082355686427e+02 
-1.134409058817e+02 3.302439266581e+00 0.0 
3.302439266581e+00 -2.605099231235e+02 0.0 
0.0 0.0 -1.117852487016e+02 
-4.121891010584e+01 6.697497794174e+00 0.0 
6.697497794174e+00 -1.488158182365e+02 0.0 
0.0 0.0 -5.813913161972e+01 
-2.678755157100e+01 -7.730168134582e+00 0.0 
-7.730168134582e+00 -4.706815187293e+01 0.0 
0.0 0.0 -2.047103210542e+01 
-8.259379860380e+01 7.561702860024e+00 0.0 
7.561702860024e+00 -2.099096966987e+02 0.0 
0.0 0.0 -8.735104859074e+01 
-9.356723279649e+01 8.014021281596e+00 0.0 
8.014021281596e+00 -2.242532753908e+02 0.0 
0.0 0.0 -9.494615245619e+01 
-8.571522875800e+01 8.593961037326e+00 0.0 
8.593961037326e+00 -2.173103926585e+02 0.0 
0.0 0.0 -9.050768642496e+01 
-3.650598847535e+01 1.694769961235e+01 0.0 
1.694769961235e+01 -6.403405760777e+01 0.0 
0.0 0.0 -2.926980019361e+01 
-1.039404478874e+02 -1.706278361256e-01 0.0 
-1.706278361256e-01 -2.378278602201e+02 0.0 
0.0 0.0 -1.021304924323e+02 
-4.187330352966e+01 -5.674627068336e+00 0.0 
-5.674627068336e+00 -8.529297811480e+01 0.0 
0.0 0.0 -3.774988449334e+01 
-5.660773504058e+01 1.290582186950e+01 0.0 
1.290582186950e+01 -1.480026685645e+02 0.0 
0.0 0.0 -6.098312108153e+01 
-1.727617449312e+02 -7.235401443066e-01 0.0 
-7.235401443066e-01 -4.044440715062e+02 0.0 
0.0 0.0 -1.727617449312e+02 
-1.204521664799e+02 3.425543019057e+00 0.0 
3.425543019057e+00 -3.016974893444e+02 0.0 
0.0 0.0 -1.262448967473e+02 
-9.888309761000e+01 1.496915990479e+00 0.0 
1.496915990479e+00 -2.238394432624e+02 0.0 
0.0 0.0 -9.641676226171e+01 
-2.313600886375e+01 -7.506945292683e-01 0.0 
-7.506945292683e-01 -5.858594697651e+01 0.0 
0.0 0.0 -2.411658675208e+01 
-9.161161908426e+01 5.920180818776e+00 0.0 
5.920180818776e+00 -2.139725268417e+02 0.0 
0.0 0.0 -9.127524377778e+01 
-8.027002862724e+01 8.738686958130e+00 0.0 
8.738686958130e+00 -2.091603187297e+02 0.0 
0.0 0.0 -8.642910420707e+01 
-1.144912082933e+02 4.453313309276e+00 0.0 
4.453313309276e+00 -2.612681622686e+02 0.0 
0.0 0.0 -1.123278111686e+02 
-1.685168393993e+02 5.056364270853e+00 0.0 
5.056364270853e+00 -3.942493947314e+02 0.0 
0.0 0.0 -1.684298702392e+02 
-9.445220145713e+01 2.555425667130e+00 0.0 
2.555425667130e+00 -2.132644472151e+02 0.0 
0.0 0.0 -9.191499460166e+01 
-1.091464981304e+02 5.578318591839e+00 0.0 
5.578318591839e+00 -2.513168491659e+02 0.0 
0.0 0.0 -1.077390041889e+02 
-8.918222376482e+01 -6.821251727647e+00 0.0 
-6.821251727647e+00 -2.014696593681e+02 0.0 
0.0 0.0 -8.679556493986e+01 
-1.391360006557e+02 2.128098809948e+00 0.0 
2.128098809948e+00 -3.206626849465e+02 0.0 
0.0 0.0 -1.375396056807e+02 
-1.089152083292e+02 -6.017778834903e+00 0.0 
-6.017778834903e+00 -2.657005927062e+02 0.0 
0.0 0.0 -1.119847403106e+02 
-1.689913310544e+02 5.337052401089e+00 0.0 
5.337052401089e+00 -3.952331517655e+02 0.0 
0.0 0.0 -1.688673448460e+02 
-1.670459891316e+02 4.539016333492e+00 0.0 
4.539016333492e+00 -3.911073079738e+02 0.0 
0.0 0.0 -1.670459891316e+02 
-1.657015552101e+02 3.535593077313e+00 0.0 
3.535593077313e+00 -3.879702954903e+02 0.0 
0.0 0.0 -1.657015552101e+02 
-1.657641409073e+02 4.040731292930e+00 0.0 
4.040731292930e+00 -3.881163287837e+02 0.0 
0.0 0.0 -1.657641409073e+02 
-1.177270946165e+02 2.998181703924e+00 0.0 
2.998181703924e+00 -2.701520753545e+02 0.0 
0.0 0.0 -1.159637509913e+02 
-1.396996279867e+02 3.834333414261e+00 0.0 
3.834333414261e+00 -3.212206850709e+02 0.0 
0.0 0.0 -1.378760939173e+02 
-1.459582034063e+02 3.148964890473e+00 0.0 
3.148964890473e+00 -3.386572588566e+02 0.0 
0.0 0.0 -1.449846386789e+02 
-7.970483428215e+01 7.019737749248e+00 0.0 
7.019737749248e+00 -1.857670626852e+02 0.0 
0.0 0.0 -7.924156909022e+01 
-7.659553406288e+01 6.328325117700e+00 0.0 
6.328325117700e+00 -1.750568364014e+02 0.0 
0.0 0.0 -7.509571113929e+01 
-8.577928807683e+01 -4.024778197355e+00 0.0 
-4.024778197355e+00 -1.895462774406e+02 0.0 
0.0 0.0 -8.219766965524e+01 
-1.434117351544e+02 4.245056425483e+00 0.0 
4.245056425483e+00 -3.306300339692e+02 0.0 
0.0 0.0 -1.418125307371e+02 
-1.693461711084e+02 5.209791339786e+00 0.0 
5.209791339786e+00 -3.973349445318e+02 0.0 
0.0 0.0 -1.696043346921e+02 
-1.432633724246e+02 2.046203802752e+00 0.0 
2.046203802752e+00 -3.307941334443e+02 0.0 
0.0 0.0 -1.418172517607e+02 
-1.115567088187e+02 3.785739655151e+00 0.0 
3.785739655151e+00 -2.832367254779e+02 0.0 
0.0 0.0 -1.180380302890e+02 
-1.438291089009e+02 3.716580122172e+00 0.0 
3.716580122172e+00 -3.313607562071e+02 0.0 
0.0 0.0 -1.421569595324e+02 
-1.249546229372e+02 5.921408181232e+00 0.0 
5.921408181232e+00 -2.996872429861e+02 0.0 
0.0 0.0 -1.269925597770e+02 
-8.998714365552e+01 6.879177346093e+00 0.0 
6.879177346093e+00 -2.157856553185e+02 0.0 
0.0 0.0 -9.133183969221e+01 
-7.764616587057e+01 4.686966417364e+00 0.0 
4.686966417364e+00 -1.745365026848e+02 0.0 
0.0 0.0 -7.525480056661e+01 
-4.836343130280e+01 1.778234910448e+01 0.0 
1.778234910448e+01 -1.268945709829e+02 0.0 
0.0 0.0 -5.143551398192e+01 
-1.585051610455e+02 2.033333948607e+00 0.0 
2.033333948607e+00 -3.698014364013e+02 0.0 
0.0 0.0 -1.580919792340e+02 
-7.541009518374e+01 8.032831430702e+00 0.0 
8.032831430702e+00 -1.773520076854e+02 0.0 
0.0 0.0 -7.542863086075e+01 
-1.559683755547e+02 4.510630371810e+00 0.0 
4.510630371810e+00 -3.666074838884e+02 0.0 
0.0 0.0 -1.563727578329e+02 
-8.497469048958e+01 -6.276113544001e+00 0.0 
-6.276113544001e+00 -1.887218047728e+02 0.0 
0.0 0.0 -8.170894857871e+01 
-5.660474630347e+01 -1.378812897752e+01 0.0 
-1.378812897752e+01 -1.477495029292e+02 0.0 
0.0 0.0 -6.090627476981e+01 
-1.643061964126e+02 -1.193427609816e+00 0.0 
-1.193427609816e+00 -3.879786203275e+02 0.0 
0.0 0.0 -1.652854450220e+02 
-6.122123832441e+01 1.171535936484e+01 0.0 
1.171535936484e+01 -1.534206008802e+02 0.0 
0.0 0.0 -6.399255176138e+01 
-1.676068672192e+02 4.748904466579e+00 0.0 
4.748904466579e+00 -3.924160235114e+02 0.0 
0.0 0.0 -1.676068672192e+02 
-1.594803491571e+02 3.659218026543e+00 0.0 
3.659218026543e+00 -3.719762711787e+02 0.0 
0.0 0.0 -1.590369861008e+02 
-1.081030254712e+02 4.488742119605e+00 0.0 
4.488742119605e+00 -2.512768829990e+02 0.0 
0.0 0.0 -1.074139725411e+02 
-1.901987560539e+01 -4.129697802261e+00 0.0 
-4.129697802261e+00 -2.521254680832e+01 0.0 
0.0 0.0 -1.320814432641e+01 
-1.684749754884e+02 4.956680161174e+00 0.0 
4.956680161174e+00 -3.944416094730e+02 0.0 
0.0 0.0 -1.684749754884e+02 
-1.643656796908e+02 3.565509059301e-01 0.0 
3.565509059301e-01 -3.888009775297e+02 0.0 
0.0 0.0 -1.655499971662e+02 
-5.133141216406e+01 -1.393628910396e+01 0.0 
-1.393628910396e+01 -1.454820272508e+02 0.0 
0.0 0.0 -5.864403182445e+01 
-1.153805038581e+02 2.675704054276e+00 0.0 
2.675704054276e+00 -2.922793209795e+02 0.0 
0.0 0.0 -1.218979474513e+02 
-1.705212669415e+02 3.170277197535e+00 0.0 
3.170277197535e+00 -4.026330980229e+02 0.0 
0.0 0.0 -1.715463094893e+02 
-3.839808469791e+00 -1.364329376625e-01 0.0 
-1.364329376625e-01 -9.628805432960e+00 0.0 
0.0 0.0 -4.610497313613e+00 
-8.267425886373e+01 7.507455558725e+00 0.0 
7.507455558725e+00 -1.967991239365e+02 0.0 
0.0 0.0 -8.344201484008e+01 
-1.125261873675e+02 4.039645135270e+00 0.0 
4.039645135270e+00 -2.606043285627e+02 0.0 
0.0 0.0 -1.115391547791e+02 
-1.036496503434e+02 4.989814130348e+00 0.0 
4.989814130348e+00 -2.421094241528e+02 0.0 
0.0 0.0 -1.033277223489e+02 
-1.047944493934e+02 4.107197777028e+00 0.0 
4.107197777028e+00 -2.415045100182e+02 0.0 
0.0 0.0 -1.034896878235e+02 
-5.151558441920e+01 1.526027354017e+01 0.0 
1.526027354017e+01 -1.293835492515e+02 0.0 
0.0 0.0 -5.346216939957e+01 
-1.695105552193e+02 4.966295446392e+00 0.0 
4.966295446392e+00 -3.968579621783e+02 0.0 
0.0 0.0 -1.695105552193e+02 
-7.196263016279e+01 5.363876479707e+00 0.0 
5.363876479707e+00 -2.041528075288e+02 0.0 
0.0 0.0 -8.243463130747e+01 
-2.723471926302e+01 3.337499598532e+00 0.0 
3.337499598532e+00 -1.235720928289e+02 0.0 
0.0 0.0 -4.731169858466e+01 
-1.634680593064e+02 -3.255848841856e+00 0.0 
-3.255848841856e+00 -3.814416741045e+02 0.0 
0.0 0.0 -1.630729200233e+02 
-8.899862056716e+00 -2.066567475563e+00 0.0 
-2.066567475563e+00 -2.624635241319e+01 0.0 
0.0 0.0 -1.014386434097e+01 
-8.612713215890e+01 3.394836512719e+00 0.0 
3.394836512719e+00 -1.939820032547e+02 0.0 
0.0 0.0 -8.363274062407e+01 
-3.715715295056e+01 -2.151181139387e+01 0.0 
-2.151181139387e+01 -9.886155581560e+01 0.0 
0.0 0.0 -4.158051649766e+01 
-9.081955786431e+01 1.971668829162e+00 0.0 
1.971668829162e+00 -2.040317988856e+02 0.0 
0.0 0.0 -8.805540702496e+01 
-1.706561120192e+02 2.882347962473e-01 0.0 
2.882347962473e-01 -4.034772084281e+02 0.0 
0.0 0.0 -1.718399961342e+02 
-1.707330251176e+02 4.558393176271e+00 0.0 
4.558393176271e+00 -3.997103919410e+02 0.0 
0.0 0.0 -1.707330251176e+02 
-1.099030961572e+02 2.879000971286e+00 0.0 
2.879000971286e+00 -2.510730006215e+02 0.0 
0.0 0.0 -1.078928290336e+02 
-3.330866808834e+01 -2.186076704154e+01 0.0 
-2.186076704154e+01 -6.733066471333e+01 0.0 
0.0 0.0 -3.029501184738e+01 
-2.873532956989e+01 7.454303252266e+00 0.0 
7.454303252266e+00 -1.271234435247e+02 0.0 
0.0 0.0 -4.910034789508e+01 
-4.347444083846e+01 -2.391589016418e+01 0.0 
-2.391589016418e+01 -8.858353355442e+01 0.0 
0.0 0.0 -3.799741469130e+01 
-1.440187917816e+02 -2.512657519906e+00 0.0 
-2.512657519906e+00 -3.380477177895e+02 0.0 
0.0 0.0 -1.442199528713e+02 
-9.895288042589e+01 1.116305023524e+00 0.0 
1.116305023524e+00 -2.231902489581e+02 0.0 
0.0 0.0 -9.624293881521e+01 
-1.036476261418e+02 3.228650254574e+00 0.0 
3.228650254574e+00 -2.338410546548e+02 0.0 
0.0 0.0 -1.008466042390e+02 
-1.718237245847e+02 3.824140100246e+00 0.0 
3.824140100246e+00 -4.022553573644e+02 0.0 
0.0 0.0 -1.718237245847e+02 
-9.853179711037e+01 1.191252173588e+00 0.0 
1.191252173588e+00 -2.230069660598e+02 0.0 
0.0 0.0 -9.606162895106e+01 
-1.663334321325e+02 3.446009754709e+00 0.0 
3.446009754709e+00 -3.882230087725e+02 0.0 
0.0 0.0 -1.659669322715e+02 
-1.289568232239e+02 4.082945583654e+00 0.0 
4.082945583654e+00 -3.092836823285e+02 0.0 
0.0 0.0 -1.310721516657e+02 
-1.117794650600e+02 2.823818296006e-01 0.0 
2.823818296006e-01 -2.546869936408e+02 0.0 
0.0 0.0 -1.095399376102e+02 
-6.022729375625e+01 8.837347083325e+00 0.0 
8.837347083325e+00 -1.357617929111e+02 0.0 
0.0 0.0 -5.839672600021e+01 
-1.159974799325e+02 1.808700681204e+00 0.0 
1.808700681204e+00 -2.923679951459e+02 0.0 
0.0 0.0 -1.221096425235e+02 
-3.564115768496e+01 1.451106680625e+01 0.0 
1.451106680625e+01 -1.208968741714e+02 0.0 
0.0 0.0 -4.667551504490e+01 
-1.724238136798e+02 2.748831227210e+00 0.0 
2.748831227210e+00 -4.036555652530e+02 0.0 
0.0 0.0 -1.724238136798e+02 
-1.664157810479e+02 4.211948982546e+00 0.0 
4.211948982546e+00 -3.896368224450e+02 0.0 
0.0 0.0 -1.664157810479e+02 
-1.658890677152e+02 3.863550054755e+00 0.0 
3.863550054755e+00 -3.884078246687e+02 0.0 
0.0 0.0 -1.658890677152e+02 
-1.108242900487e+02 -4.708768433833e+00 0.0 
-4.708768433833e+00 -2.667882513630e+02 0.0 
0.0 0.0 -1.128837624235e+02 
-8.093415378268e+01 -3.236852830547e+00 0.0 
-3.236852830547e+00 -1.767954765832e+02 0.0 
0.0 0.0 -7.691888910975e+01 
-8.863528738964e+01 8.599158251056e+00 0.0 
8.599158251056e+00 -2.155903342647e+02 0.0 
0.0 0.0 -9.086768649630e+01 
-1.133168323632e+02 -5.833224569556e+00 0.0 
-5.833224569556e+00 -2.723203968459e+02 0.0 
0.0 0.0 -1.152911687627e+02 
-1.727268264117e+02 1.443875058497e+00 0.0 
1.443875058497e+00 -4.043625949605e+02 0.0 
0.0 0.0 -1.727268264117e+02 
-5.247331431091e+01 1.396105822514e+01 0.0 
1.396105822514e+01 -1.464748562932e+02 0.0 
0.0 0.0 -5.928445118124e+01 
-5.734339324132e+01 -7.578927195421e+00 0.0 
-7.578927195421e+00 -1.744212808616e+02 0.0 
0.0 0.0 -6.912940223086e+01 
-6.200256443083e+01 -9.362163925430e+00 0.0 
-9.362163925430e+00 -1.777125916840e+02 0.0 
0.0 0.0 -7.151454683445e+01 
-1.162637456277e+02 3.015448534841e-01 0.0 
3.015448534841e-01 -2.655082978602e+02 0.0 
0.0 0.0 -1.141316130464e+02 
-1.706694433593e+02 -1.717783104164e+00 0.0 
-1.717783104164e+00 -4.027618038779e+02 0.0 
0.0 0.0 -1.716293741712e+02 
-4.169567812227e+01 -2.147798432693e+01 0.0 
-2.147798432693e+01 -6.242128532135e+01 0.0 
0.0 0.0 -2.976370642936e+01 
-1.727291479147e+02 -5.430246969661e-02 0.0 
-5.430246969661e-02 -4.043680118009e+02 0.0 
0.0 0.0 -1.727291479147e+02 
-5.891936571798e+01 -1.191501148284e+01 0.0 
-1.191501148284e+01 -1.635350981291e+02 0.0 
0.0 0.0 -6.633633915413e+01 
-1.682428848711e+02 4.902951333951e+00 0.0 
4.902951333951e+00 -3.939000646991e+02 0.0 
0.0 0.0 -1.682428848711e+02 
-1.464001907150e+02 4.930886933137e+00 0.0 
4.930886933137e+00 -3.392798546223e+02 0.0 
0.0 0.0 -1.453040136012e+02 
9.987859317650e-01 9.820828953839e-02 0.0 
9.820828953839e-02 -6.944255401785e+00 0.0 
0.0 0.0 8.772797153762e-01 
-8.517102558670e+01 7.550679676100e+00 0.0 
7.550679676100e+00 -2.073113858817e+02 0.0 
0.0 0.0 -8.734472344052e+01 
-1.443589109164e+02 3.352183749303e+00 0.0 
3.352183749303e+00 -3.326008059504e+02 0.0 
0.0 0.0 -1.426879150600e+02 
-1.690786353101e+02 5.029109821040e+00 0.0 
5.029109821040e+00 -3.958501490570e+02 0.0 
0.0 0.0 -1.690786353101e+02 
-1.179500290801e+02 4.836729127487e+00 0.0 
4.836729127487e+00 -2.705930423368e+02 0.0 
0.0 0.0 -1.161629214251e+02 
-1.322887389908e+02 3.698073982502e+00 0.0 
3.698073982502e+00 -3.188325751523e+02 0.0 
0.0 0.0 -1.349363942429e+02 
-4.476765775364e+01 2.038600820870e+01 0.0 
2.038600820870e+01 -1.076490512997e+02 0.0 
0.0 0.0 -4.511467958393e+01 
-1.564068608735e+02 -1.342097549669e-01 0.0 
-1.342097549669e-01 -3.732394694519e+02 0.0 
0.0 0.0 -1.584938990976e+02 
-6.384401120722e+01 -1.192886138722e+01 0.0 
-1.192886138722e+01 -1.671403068785e+02 0.0 
0.0 0.0 -6.889529542571e+01 
-6.574441795513e+01 -9.745126374849e+00 0.0 
-9.745126374849e+00 -1.792293998662e+02 0.0 
0.0 0.0 -7.309214534640e+01 
-4.113664504792e+01 -2.391759577332e+01 0.0 
-2.391759577332e+01 -4.880735037893e+01 0.0 
0.0 0.0 -2.609059826775e+01 
-1.700841333115e+02 4.812352577049e+00 0.0 
4.812352577049e+00 -3.981963110601e+02 0.0 
0.0 0.0 -1.700841333115e+02 
-4.150505365946e+01 1.243033753094e+01 0.0 
1.243033753094e+01 -1.382827761289e+02 0.0 
0.0 0.0 -5.337806543049e+01 
-1.409355240086e+02 -1.464644808191e+00 0.0 
-1.464644808191e+00 -3.403155249745e+02 0.0 
0.0 0.0 -1.439753146950e+02 
-1.080327995432e+02 1.900479284117e+00 0.0 
1.900479284117e+00 -2.450116339241e+02 0.0 
0.0 0.0 -1.055133300402e+02 
-6.107739301175e+01 -1.062529542857e+01 0.0 
-1.062529542857e+01 -1.384635818158e+02 0.0 
0.0 0.0 -5.946229244826e+01 
-6.064498465162e+01 -8.766711503556e+00 0.0 
-8.766711503556e+00 -1.755769238792e+02 0.0 
0.0 0.0 -7.046657255924e+01 
-1.135770773767e+02 5.161732058161e+00 0.0 
5.161732058161e+00 -2.609276608106e+02 0.0 
0.0 0.0 -1.119514214562e+02 
-1.721895405046e+02 3.386441467626e+00 0.0 
3.386441467626e+00 -4.031089278440e+02 0.0 
0.0 0.0 -1.721895405046e+02 
-8.421773755745e+01 -4.725350386854e+00 0.0 
-4.725350386854e+00 -1.841246192896e+02 0.0 
0.0 0.0 -8.010270705413e+01 
-1.232136177005e+02 -3.308440408965e+00 0.0 
-3.308440408965e+00 -2.977435720667e+02 0.0 
0.0 0.0 -1.258871569302e+02 
-1.021638146577e+02 5.692487052651e+00 0.0 
5.692487052651e+00 -2.432507759132e+02 0.0 
0.0 0.0 -1.032243771713e+02 
-1.097263409521e+02 -2.615060673101e+00 0.0 
-2.615060673101e+00 -2.767405908872e+02 0.0 
0.0 0.0 -1.155400795518e+02 
-6.330646242367e+01 -5.408716761568e+00 0.0 
-5.408716761568e+00 -1.865816887308e+02 0.0 
0.0 0.0 -7.456644534633e+01 
-1.147122582585e+02 -4.040449175557e+00 0.0 
-4.040449175557e+00 -2.788443737693e+02 0.0 
0.0 0.0 -1.176669896083e+02 
-9.838557746390e+01 7.424198669833e+00 0.0 
7.424198669833e+00 -2.331441808650e+02 0.0 
0.0 0.0 -9.905892749867e+01 
-1.266133064629e+02 5.912281819372e+00 0.0 
5.912281819372e+00 -2.992303191301e+02 0.0 
0.0 0.0 -1.273530876779e+02 
-1.247917291926e+02 1.476485239730e+00 0.0 
1.476485239730e+00 -3.105439563628e+02 0.0 
0.0 0.0 -1.302007056666e+02 
-9.745998459951e+01 6.222153575756e+00 0.0 
6.222153575756e+00 -2.346091324646e+02 0.0 
0.0 0.0 -9.922073511924e+01 
-8.517366356937e+01 -7.748795512534e+00 0.0 
-7.748795512534e+00 -1.943161491744e+02 0.0 
0.0 0.0 -8.344694382313e+01 
-5.811545853514e+01 1.327676309606e+01 0.0 
1.327676309606e+01 -1.524243714252e+02 0.0 
0.0 0.0 -6.276194898811e+01 
-8.049856932229e+01 -5.561745606480e+00 0.0 
-5.561745606480e+00 -1.761112029895e+02 0.0 
0.0 0.0 -7.658293169355e+01 
-1.282046648964e+02 5.587502583758e+00 0.0 
5.587502583758e+00 -3.093449437939e+02 0.0 
0.0 0.0 -1.308648826071e+02 
-1.021228643541e+02 1.374968501433e+00 0.0 
1.374968501433e+00 -2.649664032176e+02 0.0 
0.0 0.0 -1.097267802715e+02 
-1.707423149794e+02 -3.674732534561e-01 0.0 
-3.674732534561e-01 -4.035472909455e+02 0.0 
0.0 0.0 -1.718868817775e+02 
-1.480295324495e+02 3.643340771328e+00 0.0 
3.643340771328e+00 -3.415505976243e+02 0.0 
0.0 0.0 -1.464740390222e+02 
-5.549645294138e+01 -1.179580161324e+01 0.0 
-1.179580161324e+01 -1.218996879332e+02 0.0 
0.0 0.0 -5.281884226239e+01 
-1.727265941838e+02 6.489286603710e-01 0.0 
6.489286603710e-01 -4.043620530955e+02 0.0 
0.0 0.0 -1.727265941838e+02 
-1.626383683966e+02 -7.428833676418e-02 0.0 
-7.428833676418e-02 -3.877804502149e+02 0.0 
0.0 0.0 -1.647256455834e+02 
-9.027177298571e+01 6.503779215024e+00 0.0 
6.503779215024e+00 -2.283097743786e+02 0.0 
0.0 0.0 -9.517446420930e+01 
-2.692702877768e+01 -1.462792385951e+01 0.0 
-1.462792385951e+01 -3.153193549695e+01 0.0 
0.0 0.0 -1.741211938649e+01 
-1.709226161817e+02 -2.328796000112e+00 0.0 
-2.328796000112e+00 -4.022573215435e+02 0.0 
0.0 0.0 -1.715539813176e+02 
-1.474011100044e+02 3.988132328846e+00 0.0 
3.988132328846e+00 -3.404199735626e+02 0.0 
0.0 0.0 -1.459463250701e+02 
-5.643403823498e+01 -1.372960290041e+01 0.0 
-1.372960290041e+01 -1.482421884954e+02 0.0 
0.0 0.0 -6.100286801911e+01 
-1.724530195302e+02 -1.312094882407e+00 0.0 
-1.312094882407e+00 -4.037237122370e+02 0.0 
0.0 0.0 -1.724530195302e+02 
-1.191516156467e+02 -3.928166677276e+00 0.0 
-3.928166677276e+00 -2.857755394642e+02 0.0 
0.0 0.0 -1.210781465333e+02 
-8.091334577248e+01 5.525482845184e+00 0.0 
5.525482845184e+00 -1.842989804114e+02 0.0 
0.0 0.0 -7.916369785516e+01 
-1.069986082441e+02 1.790901337391e+00 0.0 
1.790901337391e+00 -2.425532527618e+02 0.0 
0.0 0.0 -1.044655583018e+02 
-9.776043634455e+01 3.322760738924e+00 0.0 
3.322760738924e+00 -2.562751298612e+02 0.0 
0.0 0.0 -1.058106698617e+02 
-1.025979985105e+02 -5.586740906400e+00 0.0 
-5.586740906400e+00 -2.478395649773e+02 0.0 
0.0 0.0 -1.047312690464e+02 
-1.140720341994e+02 -1.419626970925e+00 0.0 
-1.419626970925e+00 -2.877782353929e+02 0.0 
0.0 0.0 -1.201550808777e+02 
-1.238271405965e+02 3.454937884001e+00 0.0 
3.454937884001e+00 -2.821929685943e+02 0.0 
0.0 0.0 -1.214060327572e+02 
-8.955489571316e+01 4.101810891377e+00 0.0 
4.101810891377e+00 -2.034054207543e+02 0.0 
0.0 0.0 -8.748809494024e+01 
-1.300007359274e+02 1.991202860317e+00 0.0 
1.991202860317e+00 -3.202490217715e+02 0.0 
0.0 0.0 -1.346749273097e+02 
-1.110067404584e+02 2.966148424972e-01 0.0 
2.966148424972e-01 -2.543993733694e+02 0.0 
0.0 0.0 -1.092218341483e+02 
-8.662575689839e+01 -5.656323886299e+00 0.0 
-5.656323886299e+00 -1.953817268736e+02 0.0 
0.0 0.0 -8.420224513158e+01 
-1.195832343052e+02 7.968320988228e-01 0.0 
7.968320988228e-01 -3.006676544839e+02 0.0 
0.0 0.0 -1.256752666367e+02 
-6.776280385388e+01 -1.104641846231e+01 0.0 
-1.104641846231e+01 -1.689674152859e+02 0.0 
0.0 0.0 -7.061906574194e+01 
-1.174365478705e+02 -4.639030709368e+00 0.0 
-4.639030709368e+00 -2.683387542715e+02 0.0 
0.0 0.0 -1.153325906426e+02 
2.697302355033e-01 -6.286437530837e-01 0.0 
-6.286437530837e-01 -8.678081523468e+00 0.0 
0.0 0.0 -2.122505386389e+00 
-6.357809321959e+01 1.231320541939e+01 0.0 
1.231320541939e+01 -1.596503640948e+02 0.0 
0.0 0.0 -6.656853719433e+01 
-6.332630669956e+01 -1.169495992796e+01 0.0 
-1.169495992796e+01 -1.654503402209e+02 0.0 
0.0 0.0 -6.823299407614e+01 
-9.312581061332e+01 -5.935801833209e+00 0.0 
-5.935801833209e+00 -2.089179197069e+02 0.0 
0.0 0.0 -9.021311909608e+01 
-9.532351570209e+01 6.288871501994e+00 0.0 
6.288871501994e+00 -2.364190050081e+02 0.0 
0.0 0.0 -9.912275621305e+01 
-1.174934803322e+02 -5.272439677534e+00 0.0 
-5.272439677534e+00 -2.847886482353e+02 0.0 
0.0 0.0 -1.202846385703e+02 
-1.130613382882e+02 1.695483633084e+00 0.0 
1.695483633084e+00 -2.570714241453e+02 0.0 
0.0 0.0 -1.106398287301e+02 
-6.084994340949e+01 -1.267528821608e+01 0.0 
-1.267528821608e+01 -1.503475814791e+02 0.0 
0.0 0.0 -6.295925746657e+01 
-1.722447497651e+02 -1.898742272890e+00 0.0 
-1.898742272890e+00 -4.032377494518e+02 0.0 
0.0 0.0 -1.722447497651e+02 
-1.123477774603e+02 5.903211010858e+00 0.0 
5.903211010858e+00 -2.608939488204e+02 0.0 
0.0 0.0 -1.115725178842e+02 
-9.699117164497e+01 -5.128137225335e+00 0.0 
-5.128137225335e+00 -2.164607555310e+02 0.0 
0.0 0.0 -9.363557815278e+01 
-1.077661553024e+02 6.352057826388e+00 0.0 
6.352057826388e+00 -2.515065749917e+02 0.0 
0.0 0.0 -1.073818190882e+02 
-9.410509609601e+01 -3.823406557844e+00 0.0 
-3.823406557844e+00 -2.097834138920e+02 0.0 
0.0 0.0 -9.076655299640e+01 
-7.936934535927e+00 -3.028424924053e-01 0.0 
-3.028424924053e-01 -9.722425973492e+00 0.0 
0.0 0.0 -5.872054132075e+00 
-1.116037112601e+02 3.347870521183e+00 0.0 
3.347870521183e+00 -2.529799173392e+02 0.0 
0.0 0.0 -1.089750885798e+02 
-7.870424021751e+01 -2.276351210271e+00 0.0 
-2.276351210271e+00 -1.696409999307e+02 0.0 
0.0 0.0 -7.410357204445e+01 
-1.067437196974e-01 1.398043381591e-01 0.0 
1.398043381591e-01 -9.154299697878e+00 0.0 
0.0 0.0 -2.377776696317e+00 
-9.254540035600e+01 -4.643420112634e+00 0.0 
-4.643420112634e+00 -2.041004187966e+02 0.0 
0.0 0.0 -8.859374574578e+01 
-1.261644127486e+02 -4.626668534440e+00 0.0 
-4.626668534440e+00 -3.039185063747e+02 0.0 
0.0 0.0 -1.286248757370e+02 
-1.422838556052e+02 1.934545284352e-02 0.0 
1.934545284352e-02 -3.294542080962e+02 0.0 
0.0 0.0 -1.411214191104e+02 
-1.053476924859e+02 -1.858515211962e+00 0.0 
-1.858515211962e+00 -2.699328307851e+02 0.0 
0.0 0.0 -1.121841569813e+02 
-1.085859168446e+02 -3.307962802311e+00 0.0 
-3.307962802311e+00 -2.760880345294e+02 0.0 
0.0 0.0 -1.150021854122e+02 
-9.621535107014e+01 2.728361948535e+00 0.0 
2.728361948535e+00 -2.158787773269e+02 0.0 
0.0 0.0 -9.322823851912e+01 
-9.081584026843e+01 7.552948575454e-01 0.0 
7.552948575454e-01 -2.050529634455e+02 0.0 
0.0 0.0 -8.836064111417e+01 
-1.596353375354e+02 2.997460681773e+00 0.0 
2.997460681773e+00 -3.714004795799e+02 0.0 
0.0 0.0 -1.589107451346e+02 
-1.031090908834e+02 6.870278352067e+00 0.0 
6.870278352067e+00 -2.422300894734e+02 0.0 
0.0 0.0 -1.032017541070e+02 
-9.667172927848e-01 1.647920413893e-02 0.0 
1.647920413893e-02 -6.977315938313e+00 0.0 
0.0 0.0 -1.259177069169e+00 
-3.431106260428e+01 -3.093817058087e+00 0.0 
-3.093817058087e+00 -7.072771107750e+01 0.0 
0.0 0.0 -3.111163210454e+01 
-2.295893256099e+01 -7.982409950449e+00 0.0 
-7.982409950449e+00 -2.778345419599e+01 0.0 
0.0 0.0 -1.514431038584e+01 
-5.942679816142e+01 -7.679845502773e+00 0.0 
-7.679845502773e+00 -1.283050451571e+02 0.0 
0.0 0.0 -5.591955299557e+01 
-1.441468648121e+02 5.494524447740e+00 0.0 
5.494524447740e+00 -3.372505798566e+02 0.0 
0.0 0.0 -1.440192334006e+02 
-1.426387860850e+02 1.657894037488e+00 0.0 
1.657894037488e+00 -3.298858940518e+02 0.0 
0.0 0.0 -1.413574040411e+02 
-1.385939766156e+02 -4.195438370896e+00 0.0 
-4.195438370896e+00 -3.250627392155e+02 0.0 
0.0 0.0 -1.386970147493e+02 
-6.522772934868e+01 -5.007148182688e+00 0.0 
-5.007148182688e+00 -1.410916173317e+02 0.0 
0.0 0.0 -6.149580400410e+01 
-1.185667013376e+02 -2.792281872407e+00 0.0 
-2.792281872407e+00 -2.692430398709e+02 0.0 
0.0 0.0 -1.159429223625e+02 
-1.444820776972e+02 -3.048660535280e+00 0.0 
-3.048660535280e+00 -3.469375956932e+02 0.0 
0.0 0.0 -1.470259020171e+02 
-3.178841939489e+01 2.510212670889e+00 0.0 
2.510212670889e+00 -1.331097905432e+02 0.0 
0.0 0.0 -5.063513971063e+01 
-7.862642130483e+01 1.712508603698e-01 0.0 
1.712508603698e-01 -1.696705437133e+02 0.0 
0.0 0.0 -7.408908950545e+01 
-6.519601349721e+01 -1.555976900194e+00 0.0 
-1.555976900194e+00 -1.393152890086e+02 0.0 
0.0 0.0 -6.095339075176e+01 
-1.703983737685e+02 -2.816925169128e+00 0.0 
-2.816925169128e+00 -4.010267928565e+02 0.0 
0.0 0.0 -1.710275499875e+02 
-1.718106623859e+02 -2.282994487915e+00 0.0 
-2.282994487915e+00 -4.022248789005e+02 0.0 
0.0 0.0 -1.718106623859e+02 
-8.698284053685e+01 -1.393775535206e-01 0.0 
-1.393775535206e-01 -1.888312484582e+02 0.0 
0.0 0.0 -8.234422669850e+01 
-9.792153355561e+01 -3.020528042727e+00 0.0 
-3.020528042727e+00 -2.173157317980e+02 0.0 
0.0 0.0 -9.417117960607e+01 
-1.048908682095e+02 -6.627057851137e+00 0.0 
-6.627057851137e+00 -2.530503427017e+02 0.0 
0.0 0.0 -1.069823632734e+02 
-1.493927779095e+02 -2.451005443080e+00 0.0 
-2.451005443080e+00 -3.584633011491e+02 0.0 
0.0 0.0 -1.519568237176e+02 
-3.981789806006e+01 -5.529316466405e+00 0.0 
-5.529316466405e+00 -7.857667464112e+01 0.0 
0.0 0.0 -3.511837181035e+01 
-1.396146793066e+02 -3.607917846104e+00 0.0 
-3.607917846104e+00 -3.351181470966e+02 0.0 
0.0 0.0 -1.420198479210e+02 
-1.485709536859e+01 -2.868009774225e-01 0.0 
-2.868009774225e-01 -4.242171058425e+01 0.0 
0.0 0.0 -1.678364178585e+01 
-8.937524145606e+01 -3.199988179976e+00 0.0 
-3.199988179976e+00 -1.971349594220e+02 0.0 
0.0 0.0 -8.555306026341e+01 
-9.857069764603e+01 -4.306256534217e+00 0.0 
-4.306256534217e+00 -2.225275601747e+02 0.0 
0.0 0.0 -9.592947734623e+01 
-7.478245392370e+00 4.004636983320e-02 0.0 
4.004636983320e-02 -2.568899455745e+01 0.0 
0.0 0.0 -9.695993465211e+00 
-8.311565524160e+01 -1.676779590365e+00 0.0 
-1.676779590365e+00 -1.790464095866e+02 0.0 
0.0 0.0 -7.824861944847e+01 
-1.472345554207e+02 2.065707230194e+00 0.0 
2.065707230194e+00 -3.408213999263e+02 0.0 
0.0 0.0 -1.460167866041e+02 
-9.559353987906e-01 -5.272025722669e-03 0.0 
-5.272025722669e-03 -7.498238440839e+00 0.0 
0.0 0.0 -1.356888799217e+00 
-9.135314685067e+01 8.683841202401e-01 0.0 
8.683841202401e-01 -2.054776598150e+02 0.0 
0.0 0.0 -8.864924199969e+01 
-9.170897331507e+01 1.124959199577e+00 0.0 
1.124959199577e+00 -2.059731850804e+02 0.0 
0.0 0.0 -8.890464751863e+01 
-1.186361792127e+02 -2.822935183440e-01 0.0 
-2.822935183440e-01 -2.984610317013e+02 0.0 
0.0 0.0 -1.247291632742e+02 
-6.472622760357e+01 6.732780726104e-01 0.0 
6.732780726104e-01 -1.389966450031e+02 0.0 
0.0 0.0 -6.071686178199e+01 
-6.123187157773e+01 -1.287140432760e+01 0.0 
-1.287140432760e+01 -1.522097812628e+02 0.0 
0.0 0.0 -6.363249585216e+01 
-4.737828424039e+01 1.639447776073e+01 0.0 
1.639447776073e+01 -1.138481486964e+02 0.0 
0.0 0.0 -4.796792988105e+01 
-1.506842753773e+02 -3.656269181022e+00 0.0 
-3.656269181022e+00 -3.514409594861e+02 0.0 
0.0 0.0 -1.502375704590e+02 
-1.626583349658e+02 4.677981534587e+00 0.0 
4.677981534587e+00 -3.816808020303e+02 0.0 
0.0 0.0 -1.629017410989e+02 
-1.378069227103e+02 2.024581019133e+00 0.0 
2.024581019133e+00 -3.174014151189e+02 0.0 
0.0 0.0 -1.361625013488e+02 
-6.016299141916e+01 1.132531663432e+01 0.0 
1.132531663432e+01 -1.361814320862e+02 0.0 
0.0 0.0 -5.850332705161e+01 
-2.738468076608e+01 -4.522561402415e+00 0.0 
-4.522561402415e+00 -4.915804341723e+01 0.0 
0.0 0.0 -2.208575136557e+01 
-9.071728147986e+01 4.957748664220e+00 0.0 
4.957748664220e+00 -2.041554773162e+02 0.0 
0.0 0.0 -8.806182763882e+01 
-9.097107995933e+01 3.392877393419e-01 0.0 
3.392877393419e-01 -2.054423560978e+02 0.0 
0.0 0.0 -8.852403081713e+01 
-9.049111988680e+01 4.588181683419e-01 0.0 
4.588181683419e-01 -2.051600396081e+02 0.0 
0.0 0.0 -8.829534784847e+01 
-2.129590728022e-01 2.903363180336e-03 0.0 
2.903363180336e-03 -9.309113568017e+00 0.0 
0.0 0.0 -2.470844567822e+00 
-7.636594408542e+00 9.680611965683e-02 0.0 
9.680611965683e-02 -2.557725471653e+01 0.0 
0.0 0.0 -9.850884776932e+00 
-1.621499694244e+01 1.375531516646e-01 0.0 
1.375531516646e-01 -4.207940748757e+01 0.0 
0.0 0.0 -1.708832132900e+01 
-5.169976295574e+01 -5.803855888520e+00 0.0 
-5.803855888520e+00 -1.070828677594e+02 0.0 
0.0 0.0 -4.723478921453e+01 
-6.766662615238e+00 6.903994405068e-02 0.0 
6.903994405068e-02 -2.543910724612e+01 0.0 
0.0 0.0 -8.668775266365e+00 
-9.131230699910e+01 -1.637082592152e+00 0.0 
-1.637082592152e+00 -1.991994270010e+02 0.0 
0.0 0.0 -8.675352020003e+01 
-3.922644297882e+01 -1.223898743929e+01 0.0 
-1.223898743929e+01 -6.051359740288e+01 0.0 
0.0 0.0 -3.049034747966e+01 
-6.024238034828e+01 -6.341001393195e+00 0.0 
-6.341001393195e+00 -1.275733429895e+02 0.0 
0.0 0.0 -5.594471700133e+01 
-1.183232803117e+02 1.559020140316e-03 0.0 
1.559020140316e-03 -2.714589104773e+02 0.0 
0.0 0.0 -1.165346572367e+02 
-9.104514595118e+01 6.548037287340e-01 0.0 
6.548037287340e-01 -2.052743546892e+02 0.0 
0.0 0.0 -8.849585019210e+01 
-1.486797196122e+02 5.408576423044e+00 0.0 
5.408576423044e+00 -3.464548912609e+02 0.0 
0.0 0.0 -1.481403832619e+02 
-1.218366461864e+02 -5.141181845604e+00 0.0 
-5.141181845604e+00 -2.915894837159e+02 0.0 
0.0 0.0 -1.236278389707e+02 
-1.107422289878e+02 -1.558029677939e-01 0.0 
-1.558029677939e-01 -2.538324555740e+02 0.0 
0.0 0.0 -1.089724053686e+02 
-6.925580664286e+01 -1.168541893854e+00 0.0 
-1.168541893854e+00 -1.486920540602e+02 0.0 
0.0 0.0 -6.498435821091e+01 
-1.433145702738e+01 -4.044323206575e-02 0.0 
-4.044323206575e-02 -4.220415903913e+01 0.0 
0.0 0.0 -1.656068481995e+01 
-1.644665002699e+02 1.703312900236e+00 0.0 
1.703312900236e+00 -3.850885006297e+02 0.0 
0.0 0.0 -1.644665002699e+02 
-1.650420758296e+02 1.806340218143e+00 0.0 
1.806340218143e+00 -3.853465594130e+02 0.0 
0.0 0.0 -1.647165905728e+02 
-1.076199920846e+02 -9.760701719899e-02 0.0 
-9.760701719899e-02 -2.446216380687e+02 0.0 
0.0 0.0 -1.052724890460e+02 
-9.062282107985e+01 4.643302003481e-01 0.0 
4.643302003481e-01 -2.050247012160e+02 0.0 
0.0 0.0 -8.829425668875e+01 
-7.014838668495e+01 -1.552741860590e-01 0.0 
-1.552741860590e-01 -1.508010290950e+02 0.0 
0.0 0.0 -6.588482473400e+01 
-1.650066445048e+02 1.385222901722e+00 0.0 
1.385222901722e+00 -3.851182474722e+02 0.0 
0.0 0.0 -1.646374675931e+02 
-5.642066592465e+01 -4.617912046391e+00 0.0 
-4.617912046391e+00 -1.202433298210e+02 0.0 
0.0 0.0 -5.259919872369e+01 
-9.130809425834e+01 9.065187269366e-01 0.0 
9.065187269366e-01 -2.053984010778e+02 0.0 
0.0 0.0 -8.861194860085e+01 
-9.113949411347e+01 5.397051451908e-01 0.0 
5.397051451908e-01 -2.050524440554e+02 0.0 
0.0 0.0 -8.845758145066e+01 
-8.674409625057e+01 2.318038577631e+00 0.0 
2.318038577631e+00 -1.944851327338e+02 0.0 
0.0 0.0 -8.396876869532e+01 
-1.656812201825e+02 3.319212636773e+00 0.0 
3.319212636773e+00 -3.879228470924e+02 0.0 
0.0 0.0 -1.656812201825e+02 
-1.656561367940e+02 1.478614073539e+00 0.0 
1.478614073539e+00 -3.856536373894e+02 0.0 
0.0 0.0 -1.649929322550e+02 
-6.625293766891e+00 1.100795119354e-01 0.0 
1.100795119354e-01 -2.527144697951e+01 0.0 
0.0 0.0 -8.600798402151e+00 
-4.664679708916e-01 -1.333041363369e-02 0.0 
-1.333041363369e-02 -9.327796721048e+00 0.0 
0.0 0.0 -2.431369401444e+00 
-3.000880389485e+01 -4.028000236869e+00 0.0 
-4.028000236869e+00 -5.846874098572e+01 0.0 
0.0 0.0 -2.613069366875e+01 
-9.729027467862e+01 -6.329475504396e+00 0.0 
-6.329475504396e+00 -2.215535921588e+02 0.0 
0.0 0.0 -9.525316005123e+01 
-1.565919183842e+02 -1.454622576806e+00 0.0 
-1.454622576806e+00 -3.604777250428e+02 0.0 
0.0 0.0 -1.547208930281e+02 
-7.282898173162e+01 -2.219262165882e+01 0.0 
-2.219262165882e+01 -7.757203219958e+01 0.0 
0.0 0.0 -4.539634601376e+01 
-1.357203319029e+02 1.001175130006e+00 0.0 
1.001175130006e+00 -3.136163435046e+02 0.0 
0.0 0.0 -1.344010026223e+02 
-2.276857866282e+01 -9.252256464809e+00 0.0 
-9.252256464809e+00 -1.078198033336e+01 0.0 
0.0 0.0 -1.064611773959e+01 
-1.174391713504e+02 -2.926580960627e+00 0.0 
-2.926580960627e+00 -2.942447191490e+02 0.0 
0.0 0.0 -1.231051671498e+02 
-5.694718177106e+00 -4.085403644030e+00 0.0 
-4.085403644030e+00 -1.196317755451e+01 0.0 
0.0 0.0 -4.282316360915e+00 
-3.126332507427e+01 -2.283390940952e+01 0.0 
-2.283390940952e+01 -3.555958398047e+01 0.0 
0.0 0.0 -2.003413309044e+01 
-1.127928674580e+02 -3.988503040302e+00 0.0 
-3.988503040302e+00 -2.827057773900e+02 0.0 
0.0 0.0 -1.182495934544e+02 
-1.526957993392e+02 -2.485859058755e+00 0.0 
-2.485859058755e+00 -3.514042475519e+02 0.0 
0.0 0.0 -1.508300140673e+02 
-1.178003109163e+02 5.869823444922e-01 0.0 
5.869823444922e-01 -2.701480961377e+02 0.0 
0.0 0.0 -1.159845221162e+02 
-9.402272517573e+01 5.563532456830e+00 0.0 
5.563532456830e+00 -2.134348343726e+02 0.0 
0.0 0.0 -9.183726786450e+01 
-7.247102017955e+00 1.002929559984e-01 0.0 
1.002929559984e-01 -2.567756485007e+01 0.0 
0.0 0.0 -9.592230336194e+00 
-1.222707759531e+02 -2.178106160228e+00 0.0 
-2.178106160228e+00 -2.767085810975e+02 0.0 
0.0 0.0 -1.192938071152e+02 
-1.638502642627e+02 6.228912697603e-01 0.0 
6.228912697603e-01 -3.836506166129e+02 0.0 
0.0 0.0 -1.638502642627e+02 
-1.647383165263e+02 1.205048528692e+00 0.0 
1.205048528692e+00 -3.846557092804e+02 0.0 
0.0 0.0 -1.644182077420e+02 
-9.082258188728e+01 4.942996995206e-01 0.0 
4.942996995206e-01 -2.051045451446e+02 0.0 
0.0 0.0 -8.837813810955e+01 
-1.222779871725e+02 -1.911204022813e+00 0.0 
-1.911204022813e+00 -3.054363889824e+02 0.0 
0.0 0.0 -1.279143128465e+02 
-1.645265071652e+02 1.308232332012e+00 0.0 
1.308232332012e+00 -3.852285167189e+02 0.0 
0.0 0.0 -1.645265071652e+02 
-1.316184394568e+02 5.221134903123e+00 0.0 
5.221134903123e+00 -3.188648976985e+02 0.0 
0.0 0.0 -1.347450011466e+02 
-1.374078667717e+01 -1.864848478114e-01 0.0 
-1.864848478114e-01 -4.119093548534e+01 0.0 
0.0 0.0 -1.607951664875e+01 
-6.695850950226e+00 1.388579605366e-02 0.0 
1.388579605366e-02 -2.522088692878e+01 0.0 
0.0 0.0 -8.566247957165e+00 
-6.848905994033e+00 2.745962207579e-01 0.0 
2.745962207579e-01 -2.513627095694e+01 0.0 
0.0 0.0 -9.195553085290e+00 
-7.844832569609e+01 -1.129960662975e+00 0.0 
-1.129960662975e+00 -1.688429586646e+02 0.0 
0.0 0.0 -7.378738530820e+01 
-1.688993701438e+02 -1.126857254811e+00 0.0 
-1.126857254811e+00 -3.934585775163e+02 0.0 
0.0 0.0 -1.683073842980e+02 
-1.561400589104e+02 9.697093298773e-01 0.0 
9.697093298773e-01 -3.633864461434e+02 0.0 
0.0 0.0 -1.554579515161e+02 
-4.819674096931e-01 6.510173181185e-02 0.0 
6.510173181185e-02 -9.269830704499e+00 0.0 
0.0 0.0 -2.359394847095e+00 
-9.166124737841e+01 4.860503268468e-01 0.0 
4.860503268468e-01 -1.993533470290e+02 0.0 
0.0 0.0 -8.690437832224e+01 
-1.682499399133e+02 -1.295046801348e+00 0.0 
-1.295046801348e+00 -3.939165264643e+02 0.0 
0.0 0.0 -1.682499399133e+02 
-1.689041278555e+02 -2.176067715922e+00 0.0 
-2.176067715922e+00 -3.935840360340e+02 0.0 
0.0 0.0 -1.683464491669e+02 
-1.704242356003e+02 -3.059670965280e+00 0.0 
-3.059670965280e+00 -3.999359535979e+02 0.0 
0.0 0.0 -1.707080567595e+02 
-1.276065154633e+02 -7.841169984308e-01 0.0 
-7.841169984308e-01 -2.941905260668e+02 0.0 
0.0 0.0 -1.261391124590e+02 
-1.400224156883e+02 8.933912309170e-01 0.0 
8.933912309170e-01 -3.238035707542e+02 0.0 
0.0 0.0 -1.387477959328e+02 
-1.676072874910e+02 -1.635216112382e+00 0.0 
-1.635216112382e+00 -3.924170041458e+02 0.0 
0.0 0.0 -1.676072874910e+02 
-1.682629215400e+02 -1.950541170663e+00 0.0 
-1.950541170663e+00 -3.939468169266e+02 0.0 
0.0 0.0 -1.682629215400e+02 
-1.358812149334e+02 -6.047603588060e-01 0.0 
-6.047603588060e-01 -3.137661830689e+02 0.0 
0.0 0.0 -1.344942194007e+02 
-8.884029366490e-01 -2.347215059354e-01 0.0 
-2.347215059354e-01 -6.639920217936e+00 0.0 
0.0 0.0 -1.154346005466e+00 
-8.996720264335e+01 1.817461863851e-01 0.0 
1.817461863851e-01 -2.042206607501e+02 0.0 
0.0 0.0 -8.785635901803e+01 
-9.069075943146e+01 2.956260754421e-01 0.0 
2.956260754421e-01 -2.053273147375e+02 0.0 
0.0 0.0 -8.840542225070e+01 
-4.995372746556e-01 2.999166996663e-02 0.0 
2.999166996663e-02 -9.291519555144e+00 0.0 
0.0 0.0 -2.418740771083e+00 
-1.697113232544e+02 -2.967453430066e+00 0.0 
-2.967453430066e+00 -3.973264209268e+02 0.0 
0.0 0.0 -1.697113232544e+02 
-1.697060014326e+02 -3.339841351182e+00 0.0 
-3.339841351182e+00 -3.983958757099e+02 0.0 
0.0 0.0 -1.700305631428e+02 
-1.699186595890e+02 -2.998479088996e+00 0.0 
-2.998479088996e+00 -3.978102057077e+02 0.0 
0.0 0.0 -1.699186595890e+02 
-9.358327525548e-01 3.030967111991e-02 0.0 
3.030967111991e-02 -7.664114648957e+00 0.0 
0.0 0.0 -1.386163646089e+00 
-9.095270455811e-01 -4.800967453817e-02 0.0 
-4.800967453817e-02 -7.748316144562e+00 0.0 
0.0 0.0 -1.383613994588e+00 
-1.712011647311e+02 -2.654143147617e+00 0.0 
-2.654143147617e+00 -4.008027177059e+02 0.0 
0.0 0.0 -1.712011647311e+02 
-1.706630841286e+02 -2.811457410760e+00 0.0 
-2.811457410760e+00 -3.995471963001e+02 0.0 
0.0 0.0 -1.706630841286e+02 
-1.233020359811e+02 9.492072599746e-01 0.0 
9.492072599746e-01 -2.842756117330e+02 0.0 
0.0 0.0 -1.218732943142e+02 
-8.946125547478e+01 -6.483458765210e-02 0.0 
-6.483458765210e-02 -2.036999339139e+02 0.0 
0.0 0.0 -8.754835681659e+01 
-1.318855374729e+02 9.350649390909e-01 0.0 
9.350649390909e-01 -3.040463432601e+02 0.0 
0.0 0.0 -1.303795642199e+02 
-1.067706777721e+02 9.160982941832e-01 0.0 
9.160982941832e-01 -2.449464928728e+02 0.0 
0.0 0.0 -1.051151511935e+02 
-8.959434382199e+01 -2.857185775308e-02 0.0 
-2.857185775308e-02 -2.037384752415e+02 0.0 
0.0 0.0 -8.759984571905e+01 
-8.205152503201e-01 -7.653093913184e-03 0.0 
-7.653093913184e-03 -7.049402647614e+00 0.0 
0.0 0.0 -1.211609733637e+00 
1.635768829068e-01 5.493072069891e-01 0.0 
5.493072069891e-01 -7.757302650489e+00 0.0 
0.0 0.0 -9.635883178745e-01 
8.256338984614e-01 3.830234230033e-01 0.0 
3.830234230033e-01 -7.555059189414e+00 0.0 
0.0 0.0 -8.169456180606e-01 
9.957631084474e-01 1.897498387715e-01 0.0 
1.897498387715e-01 -7.497975666031e+00 0.0 
0.0 0.0 1.272395009953e-01 
-9.598416499022e+01 -1.242105432208e+00 0.0 
-1.242105432208e+00 -2.096313638059e+02 0.0 
0.0 0.0 -9.128465863885e+01 
-8.734973872165e+01 -1.151221870957e+00 0.0 
-1.151221870957e+00 -1.891110703626e+02 0.0 
0.0 0.0 -8.253824272526e+01 
-6.764994987972e-01 1.042121824743e-01 0.0 
1.042121824743e-01 -9.449381730695e+00 0.0 
0.0 0.0 -3.614791839783e+00 
-1.211606023282e+02 -1.119397638693e+00 0.0 
-1.119397638693e+00 -2.696723168368e+02 0.0 
0.0 0.0 -1.168498757495e+02 
-1.327380319719e+00 -1.577373680068e-01 0.0 
-1.577373680068e-01 -9.495931938202e+00 0.0 
0.0 0.0 -3.818832850149e+00 
-1.650038692835e+02 2.645553778499e+00 0.0 
2.645553778499e+00 -3.863423616614e+02 0.0 
0.0 0.0 -1.650038692835e+02 
-1.641998524368e+02 1.092673915244e+00 0.0 
1.092673915244e+00 -3.844663223525e+02 0.0 
0.0 0.0 -1.641998524368e+02 
-1.644788830400e+02 1.902829426892e+00 0.0 
1.902829426892e+00 -3.851173937599e+02 0.0 
0.0 0.0 -1.644788830400e+02 
-2.948788557667e+01 -1.261080020629e+00 0.0 
-1.261080020629e+00 -6.853714399576e+01 0.0 
0.0 0.0 -2.900750887173e+01 
-5.991109347640e+01 -1.172952087904e+00 0.0 
-1.172952087904e+00 -1.285739217131e+02 0.0 
0.0 0.0 -5.614550455686e+01 
-1.639027199042e+02 9.303864807475e-01 0.0 
9.303864807475e-01 -3.837730131098e+02 0.0 
0.0 0.0 -1.639027199042e+02 
-1.453839809886e+02 -8.889158442247e-01 0.0 
-8.889158442247e-01 -3.307543401418e+02 0.0 
0.0 0.0 -1.424414963391e+02 
-1.647438165218e+02 8.083470325217e-01 0.0 
8.083470325217e-01 -3.857355718841e+02 0.0 
0.0 0.0 -1.647438165218e+02 
-1.530349079924e+02 -9.136241479543e-01 0.0 
-9.136241479543e-01 -3.510491219499e+02 0.0 
0.0 0.0 -1.508252089827e+02 
-1.606234684935e+02 -1.045103974069e+00 0.0 
-1.045103974069e+00 -3.714242592561e+02 0.0 
0.0 0.0 -1.592143183249e+02 
-8.288687452238e+01 5.925037956111e-01 0.0 
5.925037956111e-01 -1.789495674339e+02 0.0 
0.0 0.0 -7.815093258687e+01 
-1.645450575115e+02 1.182407565628e+00 0.0 
1.182407565628e+00 -3.843185287103e+02 0.0 
0.0 0.0 -1.642590758665e+02 
-1.645974339497e+02 3.902813959095e-01 0.0 
3.902813959095e-01 -3.846773944283e+02 0.0 
0.0 0.0 -1.643824485134e+02 
-1.487143979108e+02 5.044764228122e-01 0.0 
5.044764228122e-01 -3.398573877892e+02 0.0 
0.0 0.0 -1.461715357100e+02 
-1.565508731190e+02 4.775600720512e-01 0.0 
4.775600720512e-01 -3.606164556938e+02 0.0 
0.0 0.0 -1.547501986438e+02 
-1.296234773197e+02 -1.086724394609e+00 0.0 
-1.086724394609e+00 -2.923026464895e+02 0.0 
0.0 0.0 -1.261778371427e+02 
-1.410114678127e+01 -2.777323291877e+00 0.0 
-2.777323291877e+00 -9.626131682026e+00 0.0 
0.0 0.0 -7.694659721868e+00 
-8.433473386443e+01 -2.470503290093e+00 0.0 
-2.470503290093e+00 -1.846299740920e+02 0.0 
0.0 0.0 -8.028941238694e+01 
-6.362116955175e+00 2.796875176427e-01 0.0 
2.796875176427e-01 -2.482815065740e+01 0.0 
0.0 0.0 -8.443579044268e+00 
-1.511989056424e+02 -2.256835798207e+00 0.0 
-2.256835798207e+00 -3.518629400331e+02 0.0 
0.0 0.0 -1.505185537027e+02 
-8.878450020097e+01 -5.394714674235e+00 0.0 
-5.394714674235e+00 -1.964086352605e+02 0.0 
0.0 0.0 -8.515794063844e+01 
-1.412493575752e+02 -2.946336106880e+00 0.0 
-2.946336106880e+00 -3.234246657119e+02 0.0 
0.0 0.0 -1.390022069861e+02 
-4.712751335314e+01 -3.772319859410e+00 0.0 
-3.772319859410e+00 -9.921174868559e+01 0.0 
0.0 0.0 -4.350177861162e+01 
-1.778264437728e+01 -1.095198709173e+00 0.0 
-1.095198709173e+00 -4.137752669803e+01 0.0 
0.0 0.0 -1.734805132259e+01 
-1.495990515053e+02 -1.153206675734e+00 0.0 
-1.153206675734e+00 -3.436177696077e+02 0.0 
0.0 0.0 -1.475650463339e+02 
-9.330985436007e+01 -2.418638556749e+00 0.0 
-2.418638556749e+00 -2.049357430120e+02 0.0 
0.0 0.0 -8.907367921163e+01 
-7.376657704563e+01 -1.662418050850e+00 0.0 
-1.662418050850e+00 -1.589465016400e+02 0.0 
0.0 0.0 -6.941392360568e+01 
-1.419178783899e+02 -1.253053016958e+00 0.0 
-1.253053016958e+00 -3.240927652268e+02 0.0 
0.0 0.0 -1.394031930850e+02 
-1.472006179517e+02 -3.898970098093e-01 0.0 
-3.898970098093e-01 -3.414930277643e+02 0.0 
0.0 0.0 -1.462080937148e+02 
-7.393009211201e+01 6.471612801759e-01 0.0 
6.471612801759e-01 -1.589541379795e+02 0.0 
0.0 0.0 -6.946526902744e+01 
-1.318327621804e+02 -2.716045935890e+00 0.0 
-2.716045935890e+00 -3.167735935906e+02 0.0 
0.0 0.0 -1.341819067313e+02 
-1.176373472170e+02 -5.284517067850e+00 0.0 
-5.284517067850e+00 -2.735302719229e+02 0.0 
0.0 0.0 -1.169502857420e+02 
-1.288762416045e+02 -2.964732647339e+00 0.0 
-2.964732647339e+00 -2.915713792348e+02 0.0 
0.0 0.0 -1.257342862518e+02 
-1.326107893768e+02 -2.358951031601e+00 0.0 
-2.358951031601e+00 -3.000069071715e+02 0.0 
0.0 0.0 -1.293853089645e+02 
-6.874308418538e+01 4.195680852338e+00 0.0 
4.195680852338e+00 -1.976104899792e+02 0.0 
0.0 0.0 -7.950607224938e+01 
-8.653510091582e+01 5.463312493698e+00 0.0 
5.463312493698e+00 -1.945764406828e+02 0.0 
0.0 0.0 -8.393346247960e+01 
-9.103185125720e+01 8.254346494584e+00 0.0 
8.254346494584e+00 -2.257975066535e+02 0.0 
0.0 0.0 -9.464880737320e+01 
-1.213182465566e+02 -4.053659083041e+00 0.0 
-4.053659083041e+00 -2.758910223835e+02 0.0 
0.0 0.0 -1.187627806820e+02 
-1.454347348117e+02 -7.558196071495e-01 0.0 
-7.558196071495e-01 -3.322665382041e+02 0.0 
0.0 0.0 -1.429103819048e+02 
-1.363606146252e+02 -1.894274831304e+00 0.0 
-1.894274831304e+00 -3.088079033793e+02 0.0 
0.0 0.0 -1.331505554013e+02 
-5.158765827799e+01 -9.997974096995e+00 0.0 
-9.997974096995e+00 -1.068512981342e+02 0.0 
0.0 0.0 -4.713168692366e+01 
-1.469457541047e+02 -1.787282485017e-01 0.0 
-1.787282485017e-01 -3.404352567780e+02 0.0 
0.0 0.0 -1.458143032648e+02 
-1.385559054751e+02 -2.306053998604e-01 0.0 
-2.306053998604e-01 -3.205082090735e+02 0.0 
0.0 0.0 -1.373192343646e+02 
-1.009925432306e+02 -7.192107481141e-01 0.0 
-7.192107481141e-01 -2.305182357065e+02 0.0 
0.0 0.0 -9.905323368112e+01 
-1.256225825816e+02 -4.234050216544e+00 0.0 
-4.234050216544e+00 -2.881802251871e+02 0.0 
0.0 0.0 -1.237408423306e+02 
-1.251339921732e+02 -3.490154378874e+00 0.0 
-3.490154378874e+00 -2.836552856090e+02 0.0 
0.0 0.0 -1.222367833347e+02 
-1.474636552769e+02 1.302722388022e+00 0.0 
1.302722388022e+00 -3.422888606753e+02 0.0 
0.0 0.0 -1.465257547857e+02 
-1.429537700012e+02 -2.206311696055e-01 0.0 
-2.206311696055e-01 -3.311752447481e+02 0.0 
0.0 0.0 -1.418387044248e+02 
-1.150953405979e+02 -4.126126006400e+00 0.0 
-4.126126006400e+00 -2.675457468150e+02 0.0 
0.0 0.0 -1.143923262238e+02 
-1.530900439445e+02 -7.435495760389e-01 0.0 
-7.435495760389e-01 -3.517965299540e+02 0.0 
0.0 0.0 -1.510659721695e+02 
-1.373106814072e+02 3.867683231654e-01 0.0 
3.867683231654e-01 -3.169141427913e+02 0.0 
0.0 0.0 -1.358674472595e+02 
-1.365890920736e+02 -6.757070802550e-02 0.0 
-6.757070802550e-02 -3.089033667573e+02 0.0 
0.0 0.0 -1.332477376492e+02 
-1.551284047330e+02 -1.847581650466e+00 0.0 
-1.847581650466e+00 -3.603734534794e+02 0.0 
0.0 0.0 -1.542505574637e+02 
-1.470742835983e+02 1.596253820107e+00 0.0 
1.596253820107e+00 -3.409107913287e+02 0.0 
0.0 0.0 -1.459955224781e+02 
-1.264414545794e+02 1.451249213334e+00 0.0 
1.451249213334e+00 -2.904390315028e+02 0.0 
0.0 0.0 -1.246641458247e+02 
-1.275760495817e+02 -3.278374604175e+00 0.0 
-3.278374604175e+00 -3.048089887647e+02 0.0 
0.0 0.0 -1.293155115039e+02 
-4.665329393262e+01 -2.517576420244e+00 0.0 
-2.517576420244e+00 -9.970174210704e+01 0.0 
0.0 0.0 -4.350651081190e+01 
-4.913777680058e+01 -1.179419635717e+01 0.0 
-1.179419635717e+01 -1.009259288342e+02 0.0 
0.0 0.0 -4.461911169045e+01 
-2.243033525735e+01 -7.396265410182e-01 0.0 
-7.396265410182e-01 -4.843695820966e+01 0.0 
0.0 0.0 -2.086018804010e+01 
-2.432181870346e+01 -1.084875263939e+01 0.0 
-1.084875263939e+01 -3.381732483195e+01 0.0 
0.0 0.0 -1.611532144498e+01 
-1.432775642530e+02 1.389141834535e+00 0.0 
1.389141834535e+00 -3.315373127856e+02 0.0 
0.0 0.0 -1.420444631116e+02 
-1.483629206630e+02 -2.112173147855e+00 0.0 
-2.112173147855e+00 -3.397900813661e+02 0.0 
0.0 0.0 -1.460459006087e+02 
-1.420543418413e+01 -5.246894492623e+00 0.0 
-5.246894492623e+00 -2.832482612709e+01 0.0 
0.0 0.0 -1.163433256762e+01 
-1.470664689025e+02 4.528290142236e+00 0.0 
4.528290142236e+00 -3.396549652280e+02 0.0 
0.0 0.0 -1.456164302392e+02 
-1.051950265916e+02 -5.367356056950e-01 0.0 
-5.367356056950e-01 -2.396341802053e+02 0.0 
0.0 0.0 -1.030487620391e+02 
-1.384351099835e+02 -1.655101628694e+00 0.0 
-1.655101628694e+00 -3.164023430220e+02 0.0 
0.0 0.0 -1.360512359017e+02 
-1.404663222074e+02 -2.230875985915e+00 0.0 
-2.230875985915e+00 -3.198036599618e+02 0.0 
0.0 0.0 -1.376809946508e+02 
-6.553903072634e+01 -1.169275889400e+01 0.0 
-1.169275889400e+01 -1.568432764854e+02 0.0 
0.0 0.0 -6.631469216353e+01 
-1.409999959508e+02 -4.257980617925e-01 0.0 
-4.257980617925e-01 -3.204017476149e+02 0.0 
0.0 0.0 -1.380205230697e+02 
-1.012679104523e+02 1.352945636323e+00 0.0 
1.352945636323e+00 -2.305704944723e+02 0.0 
0.0 0.0 -9.915152147739e+01 
-1.243045298147e+02 2.476611658122e+00 0.0 
2.476611658122e+00 -3.105480115036e+02 0.0 
0.0 0.0 -1.300557623955e+02 
-1.586127868591e+02 -3.453923161051e+00 0.0 
-3.453923161051e+00 -3.682371005332e+02 0.0 
0.0 0.0 -1.576549662177e+02 
-4.424245095518e+01 -1.533283770364e+00 0.0 
-1.533283770364e+00 -9.602807682162e+01 0.0 
0.0 0.0 -4.168115833304e+01 
-1.556941748043e+02 -2.361750638616e+00 0.0 
-2.361750638616e+00 -3.641142409240e+02 0.0 
0.0 0.0 -1.555425247185e+02 
-1.308615981918e+02 1.317100558255e+00 0.0 
1.317100558255e+00 -3.012531021149e+02 0.0 
0.0 0.0 -1.292344100920e+02 
-5.046066189350e+01 -2.272376043908e+00 0.0 
-2.272376043908e+00 -1.080761479601e+02 0.0 
0.0 0.0 -4.716104295608e+01 
-5.673637133944e+01 -9.185283725512e+00 0.0 
-9.185283725512e+00 -1.229425974738e+02 0.0 
0.0 0.0 -5.350369064396e+01 
-1.039076987639e+02 -2.512356344187e+00 0.0 
-2.512356344187e+00 -2.287800922859e+02 0.0 
0.0 0.0 -9.940633731494e+01 
-1.171906494508e+02 -1.916063533998e-01 0.0 
-1.916063533998e-01 -2.686337723341e+02 0.0 
0.0 0.0 -1.153473265355e+02 
-7.213952851004e+01 -5.596923594730e+00 0.0 
-5.596923594730e+00 -1.557762953742e+02 0.0 
0.0 0.0 -6.797474716528e+01 
-1.352215990266e+02 1.301956013257e+00 0.0 
1.301956013257e+00 -3.119751374279e+02 0.0 
0.0 0.0 -1.337590209363e+02 
-1.225178676298e+02 1.362176614362e+00 0.0 
1.362176614362e+00 -2.810285876879e+02 0.0 
0.0 0.0 -1.206639365953e+02 
-1.008462929415e+02 -4.342396839959e+00 0.0 
-4.342396839959e+00 -2.242745402502e+02 0.0 
0.0 0.0 -9.713624995751e+01 
-1.330017409513e+02 -5.627235987226e-01 0.0 
-5.627235987226e-01 -3.003569115969e+02 0.0 
0.0 0.0 -1.296075957644e+02 
-1.375557838271e+02 -8.885502798838e-01 0.0 
-8.885502798838e-01 -3.123001925388e+02 0.0 
0.0 0.0 -1.345567929097e+02 
-1.303439550162e+02 -3.668396014653e-01 0.0 
-3.668396014653e-01 -3.006907163390e+02 0.0 
0.0 0.0 -1.289104014066e+02 
-3.826203612705e+01 -7.031282632691e-01 0.0 
-7.031282632691e-01 -8.340925490685e+01 0.0 
0.0 0.0 -3.610138731017e+01 
-9.638183858261e+01 -3.828410606296e+00 0.0 
-3.828410606296e+00 -2.122322016059e+02 0.0 
0.0 0.0 -9.218421205656e+01 
-1.441322482477e+02 2.132165851527e+00 0.0 
2.132165851527e+00 -3.484315650545e+02 0.0 
0.0 0.0 -1.473691439906e+02 
-1.346136458379e+02 1.538465239306e+00 0.0 
1.538465239306e+00 -3.102017870531e+02 0.0 
0.0 0.0 -1.330446298673e+02 
-8.786274920283e+01 -4.093029770905e+00 0.0 
-4.093029770905e+00 -1.917535793024e+02 0.0 
0.0 0.0 -8.348489855157e+01 
-1.190531155347e+02 -3.558518786647e+00 0.0 
-3.558518786647e+00 -2.745261255809e+02 0.0 
0.0 0.0 -1.176737723347e+02 
-1.522909282280e+02 -2.274689655967e+00 0.0 
-2.274689655967e+00 -3.571953836709e+02 0.0 
0.0 0.0 -1.524458935697e+02 
-1.261836484712e+02 -1.988458367398e-01 0.0 
-1.988458367398e-01 -2.900539750770e+02 0.0 
0.0 0.0 -1.244712870645e+02 
-3.007151735802e+01 -8.236988247332e+00 0.0 
-8.236988247332e+00 -1.243060856917e+02 0.0 
0.0 0.0 -4.842463580388e+01 
-1.966916129584e+01 1.737641691071e-01 0.0 
1.737641691071e-01 -4.664024105153e+01 0.0 
0.0 0.0 -1.949282070421e+01 
-3.842216365475e+01 2.278024637276e+00 0.0 
2.278024637276e+00 -1.464333482691e+02 0.0 
0.0 0.0 -5.475699334259e+01 
-1.448520438024e+02 -2.585567079415e+00 0.0 
-2.585567079415e+00 -3.316238637995e+02 0.0 
0.0 0.0 -1.425427722806e+02 
-1.216275864682e+02 -1.749368496958e-01 0.0 
-1.749368496958e-01 -2.793311788987e+02 0.0 
0.0 0.0 -1.198876296101e+02 
-1.128471509716e+02 -2.194011916033e-01 0.0 
-2.194011916033e-01 -2.493933462106e+02 0.0 
0.0 0.0 -1.082721491547e+02 
-1.090588714544e+02 -2.940345815650e-01 0.0 
-2.940345815650e-01 -2.490740321564e+02 0.0 
0.0 0.0 -1.070398710832e+02 
-1.450856332032e+02 -1.785972189939e+00 0.0 
-1.785972189939e+00 -3.474555727080e+02 0.0 
0.0 0.0 -1.473623617734e+02 
-1.046351965772e+02 -3.633459902229e+00 0.0 
-3.633459902229e+00 -2.322390347436e+02 0.0 
0.0 0.0 -1.006622693962e+02 
-1.369447236128e+02 -2.721258719706e+00 0.0 
-2.721258719706e+00 -3.116392345655e+02 0.0 
0.0 0.0 -1.341751874535e+02 
-4.587620072166e+01 -2.325774745181e-01 0.0 
-2.325774745181e-01 -9.990269935461e+01 0.0 
0.0 0.0 -4.333367002288e+01 
-1.549431522625e+02 -3.787788118237e+00 0.0 
-3.787788118237e+00 -3.604092848820e+02 0.0 
0.0 0.0 -1.542057311434e+02 
-1.015951526013e+02 -2.257704128455e+00 0.0 
-2.257704128455e+00 -2.250620586976e+02 0.0 
0.0 0.0 -9.759716338968e+01 
-4.970629242112e+01 7.606794232028e-02 0.0 
7.606794232028e-02 -1.082795782477e+02 0.0 
0.0 0.0 -4.699576120063e+01 
-9.689923774698e+01 -1.623537071208e+00 0.0 
-1.623537071208e+00 -2.129672917947e+02 0.0 
0.0 0.0 -9.255995886249e+01 
-7.575710035424e+01 -4.747249309012e+00 0.0 
-4.747249309012e+00 -1.636930934213e+02 0.0 
0.0 0.0 -7.143505813266e+01 
-5.974330255461e+01 -3.701798064832e+00 0.0 
-3.701798064832e+00 -1.279524032577e+02 0.0 
0.0 0.0 -5.590871174369e+01 
-1.120416971303e+02 -2.316245254183e+00 0.0 
-2.316245254183e+00 -2.484726224040e+02 0.0 
0.0 0.0 -1.077542958603e+02 
-8.037627931491e-01 5.358389457310e-01 0.0 
5.358389457310e-01 -9.766962787205e+00 0.0 
0.0 0.0 -2.839698575730e+00 
-7.829797699640e-01 4.806060764743e-02 0.0 
4.806060764743e-02 -9.777083343450e+00 0.0 
0.0 0.0 -3.115075223780e+00 
-1.259418392052e+02 -1.617864945922e+00 0.0 
-1.617864945922e+00 -2.844094340593e+02 0.0 
0.0 0.0 -1.227053819794e+02 
-4.200885149641e+01 -4.628026919117e-01 0.0 
-4.628026919117e-01 -9.172321437794e+01 0.0 
0.0 0.0 -3.971961976230e+01 
-1.266806304956e+02 -2.432212343004e+00 0.0 
-2.432212343004e+00 -2.890249664425e+02 0.0 
0.0 0.0 -1.243116790814e+02 
-1.229183518246e+02 -2.996553211193e+00 0.0 
-2.996553211193e+00 -2.816983735720e+02 0.0 
0.0 0.0 -1.209850176190e+02 
-8.112445097088e+01 -7.231493556919e+00 0.0 
-7.231493556919e+00 -1.812508904202e+02 0.0 
0.0 0.0 -7.831260241732e+01 
-5.420685927558e+01 -1.440054457489e+01 0.0 
-1.440054457489e+01 -1.322144318786e+02 0.0 
0.0 0.0 -5.552638734625e+01 
-1.421151274989e+02 1.984713828993e+00 0.0 
1.984713828993e+00 -3.281474211012e+02 0.0 
0.0 0.0 -1.406787645800e+02 
-3.186684712676e+01 2.260028877344e+01 0.0 
2.260028877344e+01 -1.018006825347e+02 0.0 
0.0 0.0 -4.142375652491e+01 
-7.944545142584e+01 -3.953866290110e+00 0.0 
-3.953866290110e+00 -1.720063788068e+02 0.0 
0.0 0.0 -7.503554906980e+01 
-1.496716950789e+02 -1.298819124226e+00 0.0 
-1.298819124226e+00 -3.584312882735e+02 0.0 
0.0 0.0 -1.520308950057e+02 
-3.661740009251e+01 -2.027887292421e+00 0.0 
-2.027887292421e+00 -7.917405667160e+01 0.0 
0.0 0.0 -3.433743702923e+01 
-1.137947259422e+02 1.296385070284e+00 0.0 
1.296385070284e+00 -2.601189069844e+02 0.0 
0.0 0.0 -1.117740898780e+02 
-1.054801594063e+02 1.275222091849e+00 0.0 
1.275222091849e+00 -2.401021530387e+02 0.0 
0.0 0.0 -1.032746937335e+02 
-3.730466391901e+01 -2.554318878642e+00 0.0 
-2.554318878642e+00 -7.823338300232e+01 0.0 
0.0 0.0 -3.426141407640e+01 
-1.484300854876e+02 -2.408134890442e+00 0.0 
-2.408134890442e+00 -3.498512498708e+02 0.0 
0.0 0.0 -1.490844006075e+02 
-1.297249106871e+02 1.864187484318e+00 0.0 
1.864187484318e+00 -2.977428689779e+02 0.0 
0.0 0.0 -1.278403338995e+02 
-4.306185668754e+01 -2.795835032164e+00 0.0 
-2.795835032164e+00 -9.149291051151e+01 0.0 
0.0 0.0 -3.996643015971e+01 
-1.457258111919e+02 2.144726095070e+00 0.0 
2.144726095070e+00 -3.368501735061e+02 0.0 
0.0 0.0 -1.443727954094e+02 
-1.451203663657e+02 6.559118260436e-01 0.0 
6.559118260436e-01 -3.362609117866e+02 0.0 
0.0 0.0 -1.440143834457e+02 
-4.794584580216e+01 -1.265970209995e+00 0.0 
-1.265970209995e+00 -1.030747583437e+02 0.0 
0.0 0.0 -4.490618124376e+01 
-6.431391393998e+01 1.025448321956e+01 0.0 
1.025448321956e+01 -1.446077287899e+02 0.0 
0.0 0.0 -6.227649281895e+01 
-5.048174863383e+01 -3.058282401648e+00 0.0 
-3.058282401648e+00 -1.071805484291e+02 0.0 
0.0 0.0 -4.689868911889e+01 
-1.340689338480e+02 -1.396982129420e+00 0.0 
-1.396982129420e+00 -3.043153166564e+02 0.0 
0.0 0.0 -1.311152751513e+02 
-1.083806433932e+02 -2.962964647141e+00 0.0 
-2.962964647141e+00 -2.403822841394e+02 0.0 
0.0 0.0 -1.042288782598e+02 
-1.467338146701e+02 2.441329806353e+00 0.0 
2.441329806353e+00 -3.397555152694e+02 0.0 
0.0 0.0 -1.455467989819e+02 
-1.416182993987e+02 3.237342813765e-01 0.0 
3.237342813765e-01 -3.276569289765e+02 0.0 
0.0 0.0 -1.403825685125e+02 
-1.303972666428e+02 -1.902587741870e+00 0.0 
-1.902587741870e+00 -2.965804233113e+02 0.0 
0.0 0.0 -1.276933069862e+02 
-1.294803135158e+02 -3.713526432227e+00 0.0 
-3.713526432227e+00 -2.957947810563e+02 0.0 
0.0 0.0 -1.271825283716e+02 
-4.264695993712e+01 -4.915562465362e+00 0.0 
-4.915562465362e+00 -8.667206005806e+01 0.0 
0.0 0.0 -3.839570599855e+01 
-1.332487570365e+02 -3.209783302612e+00 0.0 
-3.209783302612e+00 -3.035703543755e+02 0.0 
0.0 0.0 -1.306457334236e+02 
-1.292237452517e+02 1.955864161188e-01 0.0 
1.955864161188e-01 -2.972507283855e+02 0.0 
0.0 0.0 -1.275423420912e+02 
-1.089965957520e+02 -9.389774017967e-01 0.0 
-9.389774017967e-01 -2.410923069792e+02 0.0 
0.0 0.0 -1.046266708194e+02 
-1.220608273177e+02 1.466286150413e+00 0.0 
1.466286150413e+00 -2.797888745561e+02 0.0 
0.0 0.0 -1.201549105621e+02 
-1.340538750789e+02 1.820417932315e+00 0.0 
1.820417932315e+00 -3.084368838192e+02 0.0 
0.0 0.0 -1.323472276694e+02 
-9.044598078340e+01 3.478307870725e+00 0.0 
3.478307870725e+00 -2.391560332658e+02 0.0 
0.0 0.0 -9.848060421475e+01 
-1.379025607756e+02 9.372916180714e-02 0.0 
9.372916180714e-02 -3.186948796002e+02 0.0 
0.0 0.0 -1.365792321127e+02 
-9.202637991994e+01 -3.383217452441e+00 0.0 
-3.383217452441e+00 -2.012578661910e+02 0.0 
0.0 0.0 -8.758527383329e+01 
-1.052650725342e+02 -1.552192927479e+00 0.0 
-1.552192927479e+00 -2.329745120028e+02 0.0 
0.0 0.0 -1.010718753611e+02 
-7.084434060120e+01 -4.106078700676e+00 0.0 
-4.106078700676e+00 -1.519244973609e+02 0.0 
0.0 0.0 -6.643065138862e+01 
-7.501352329146e+01 -7.252240663325e+00 0.0 
-7.252240663325e+00 -1.687468370465e+02 0.0 
0.0 0.0 -7.272810810140e+01 
-1.254247450128e+02 -9.235946418770e-03 0.0 
-9.235946418770e-03 -2.882790751647e+02 0.0 
0.0 0.0 -1.237111460532e+02 
-9.879377968575e+01 -6.063055099149e+00 0.0 
-6.063055099149e+00 -2.350289993771e+02 0.0 
0.0 0.0 -9.974683371886e+01 
-5.395447992345e+01 -2.400350360335e+00 0.0 
-2.400350360335e+00 -1.152796589607e+02 0.0 
0.0 0.0 -5.037024166524e+01 
-2.660903933100e+01 -1.078435373299e+00 0.0 
-1.078435373299e+00 -5.756905618172e+01 0.0 
0.0 0.0 -2.485342865382e+01 
-1.259226883220e+02 1.644342746119e+00 0.0 
1.644342746119e+00 -2.887671911531e+02 0.0 
0.0 0.0 -1.240069638425e+02 
-5.489174683478e+01 -5.023919908077e+00 0.0 
-5.023919908077e+00 -1.150946012238e+02 0.0 
0.0 0.0 -5.059590441757e+01 
-1.557212830021e+02 -3.784099121115e+00 0.0 
-3.784099121115e+00 -3.639219899719e+02 0.0 
0.0 0.0 -1.554929818922e+02 
-1.298461002753e+02 -4.396270286045e-02 0.0 
-4.396270286045e-02 -2.989949356434e+02 0.0 
0.0 0.0 -1.282523107756e+02 
-1.376087147421e+02 -3.416240293341e+00 0.0 
-3.416240293341e+00 -3.156693066840e+02 0.0 
0.0 0.0 -1.355834064278e+02 
-1.642375556160e+02 -3.072472816274e-01 0.0 
-3.072472816274e-01 -3.883543461075e+02 0.0 
0.0 0.0 -1.653775705170e+02 
-8.829570195218e+01 -1.695226932406e+00 0.0 
-1.695226932406e+00 -1.926566389583e+02 0.0 
0.0 0.0 -8.388570227313e+01 
-4.907211992365e+01 -3.825277624474e+00 0.0 
-3.825277624474e+00 -1.029862182481e+02 0.0 
0.0 0.0 -4.521750145153e+01 
-3.278174016053e+01 -3.778003005071e+00 0.0 
-3.778003005071e+00 -6.619903814121e+01 0.0 
0.0 0.0 -2.929423349052e+01 
-1.310188940137e+02 -2.593804721890e+00 0.0 
-2.593804721890e+00 -3.013498366259e+02 0.0 
0.0 0.0 -1.293106191919e+02 
-1.178803991037e+02 -3.566546848184e-01 0.0 
-3.566546848184e-01 -2.704534022334e+02 0.0 
0.0 0.0 -1.161001404011e+02 
-2.208158520397e+01 -2.413010793874e+00 0.0 
-2.413010793874e+00 -4.673656493707e+01 0.0 
0.0 0.0 -2.024544504231e+01 
-7.229281014476e+01 -3.182276987151e+00 0.0 
-3.182276987151e+00 -1.563723712934e+02 0.0 
0.0 0.0 -6.819955443145e+01 
-4.014481618775e+01 2.904318965836e-01 0.0 
2.904318965836e-01 -8.884277273832e+01 0.0 
0.0 0.0 -3.829627667782e+01 
-1.177267673227e+02 1.442437135063e+00 0.0 
1.442437135063e+00 -2.691326668603e+02 0.0 
0.0 0.0 -1.156578302549e+02 
-7.610097527323e+01 -2.382580984563e+00 0.0 
-2.382580984563e+00 -1.643570329152e+02 0.0 
0.0 0.0 -7.173740245653e+01 
-1.216845608386e+02 -4.756382162271e+00 0.0 
-4.756382162271e+00 -2.807766225610e+02 0.0 
0.0 0.0 -1.203383550199e+02 
-7.047986836321e+01 -1.530374456385e+00 0.0 
-1.530374456385e+00 -1.521534645515e+02 0.0 
0.0 0.0 -6.638999987442e+01 
-1.389484988272e+02 1.499309318658e+00 0.0 
1.499309318658e+00 -3.209980085925e+02 0.0 
0.0 0.0 -1.375839522259e+02 
-6.364247595780e+01 -5.450623745791e+00 0.0 
-5.450623745791e+00 -1.354836477978e+02 0.0 
0.0 0.0 -5.933783712669e+01 
-1.314514800534e+02 -3.036007821028e+00 0.0 
-3.036007821028e+00 -3.064660541258e+02 0.0 
0.0 0.0 -1.309752602538e+02 
-4.884795887090e+01 -8.701522761579e+00 0.0 
-8.701522761579e+00 -1.014970446247e+02 0.0 
0.0 0.0 -4.470350104868e+01 
-1.271845834779e+02 -3.069227233866e+00 0.0 
-3.069227233866e+00 -2.940884691586e+02 0.0 
0.0 0.0 -1.259819157909e+02 
-1.008278209977e+02 -1.155448102979e+00 0.0 
-1.155448102979e+00 -2.216131523995e+02 0.0 
0.0 0.0 -9.633229201917e+01 
-1.338150518816e+02 -3.868968528729e+00 0.0 
-3.868968528729e+00 -3.080046058523e+02 0.0 
0.0 0.0 -1.321458973202e+02 
-6.153499555443e+01 -4.098740683433e+00 0.0 
-4.098740683433e+00 -1.860909003402e+02 0.0 
0.0 0.0 -7.388776876838e+01 
-4.057931987864e+01 -1.995706910618e+00 0.0 
-1.995706910618e+00 -8.819332436513e+01 0.0 
0.0 0.0 -3.823179327313e+01 
-1.100574287519e+02 1.156074058465e+00 0.0 
1.156074058465e+00 -2.511052599278e+02 0.0 
0.0 0.0 -1.079488066039e+02 
-1.184136244720e+02 -2.046103649936e+00 0.0 
-2.046103649936e+00 -2.948453519580e+02 0.0 
0.0 0.0 -1.235776929290e+02 
-8.714173201244e+01 6.662179822421e+00 0.0 
6.662179822421e+00 -2.052171435542e+02 0.0 
0.0 0.0 -8.730766266999e+01 
-1.181759619560e+02 1.339348144482e+00 0.0 
1.339348144482e+00 -2.706592424289e+02 0.0 
0.0 0.0 -1.162505613154e+02 
-5.393699895156e+01 -1.107608867979e+01 0.0 
-1.107608867979e+01 -1.176672261972e+02 0.0 
0.0 0.0 -5.108126754462e+01 
-1.205783571663e+02 2.739970194314e-01 0.0 
2.739970194314e-01 -2.760606164793e+02 0.0 
0.0 0.0 -1.185916920937e+02 
-3.558429201570e+01 2.085305314814e-01 0.0 
2.085305314814e-01 -7.998658922169e+01 0.0 
0.0 0.0 -3.427126437122e+01 
-1.478021930611e+02 -2.329508553492e+00 0.0 
-2.329508553492e+00 -3.452248111394e+02 0.0 
0.0 0.0 -1.475081012602e+02 
-1.228897511007e+02 -1.029726838048e+00 0.0 
-1.029726838048e+00 -3.058850291715e+02 0.0 
0.0 0.0 -1.282324340817e+02 
-1.294240134600e+02 3.133595557772e+00 0.0 
3.133595557772e+00 -3.202311679848e+02 0.0 
0.0 0.0 -1.344965544334e+02 
-1.501458876262e+02 2.147549651842e+00 0.0 
2.147549651842e+00 -3.481705620873e+02 0.0 
0.0 0.0 -1.490949349140e+02 
-1.068834722581e+02 -5.184567770637e+00 0.0 
-5.184567770637e+00 -2.542059190974e+02 0.0 
0.0 0.0 -1.079268174067e+02 
-3.950811412227e+01 -3.124723065002e+00 0.0 
-3.124723065002e+00 -8.317282486202e+01 0.0 
0.0 0.0 -3.640428169529e+01 
-1.192290680437e+02 -3.995631819343e+00 0.0 
-3.995631819343e+00 -2.801142329687e+02 0.0 
0.0 0.0 -1.194029903037e+02 
-1.517343619714e+02 -3.866078076475e+00 0.0 
-3.866078076475e+00 -3.566065996670e+02 0.0 
0.0 0.0 -1.521022884915e+02 
-6.471154785323e+01 -1.129409544112e+01 0.0 
-1.129409544112e+01 -1.540154761469e+02 0.0 
0.0 0.0 -6.521810720004e+01 
-1.347662550705e+02 -2.116856585348e+00 0.0 
-2.116856585348e+00 -3.087902090705e+02 0.0 
0.0 0.0 -1.326669392423e+02 
-1.302536801861e+02 1.618574042481e+00 0.0 
1.618574042481e+00 -2.994465059747e+02 0.0 
0.0 0.0 -1.285100558482e+02 
-4.945969002907e+01 -1.570584459483e+01 0.0 
-1.570584459483e+01 -1.288367987442e+02 0.0 
0.0 0.0 -5.308894663198e+01 
-1.232600750822e+02 -3.542491758897e+00 0.0 
-3.542491758897e+00 -2.870156246289e+02 0.0 
0.0 0.0 -1.226827099133e+02 
-1.090171975726e+02 1.507106823152e+00 0.0 
1.507106823152e+00 -2.477836052117e+02 0.0 
0.0 0.0 -1.066402408353e+02 
-5.564195801446e+01 -5.860140610387e-01 0.0 
-5.860140610387e-01 -1.199496515099e+02 0.0 
0.0 0.0 -5.227748285729e+01 
-6.868703606000e+01 -4.039658172648e+00 0.0 
-4.039658172648e+00 -1.486188576760e+02 0.0 
0.0 0.0 -6.479176812079e+01 
-1.011353730578e+02 7.411159385560e+00 0.0 
7.411159385560e+00 -2.431659461568e+02 0.0 
0.0 0.0 -1.028903957644e+02 
-1.299144690686e+02 -4.313485527504e+00 0.0 
-4.313485527504e+00 -3.005028694361e+02 0.0 
0.0 0.0 -1.287252015514e+02 
-8.081270349637e+01 7.728755767158e+00 0.0 
7.728755767158e+00 -1.846997381627e+02 0.0 
0.0 0.0 -7.925373249773e+01 
-9.615638492235e+01 7.849672514552e+00 0.0 
7.849672514552e+00 -2.344046523651e+02 0.0 
0.0 0.0 -9.876831118622e+01 
-1.248995951696e+02 2.321125758263e-01 0.0 
2.321125758263e-01 -2.866278282809e+02 0.0 
0.0 0.0 -1.230582270352e+02 
-1.133783760509e+02 -3.815641231538e-01 0.0 
-3.815641231538e-01 -2.596630645747e+02 0.0 
0.0 0.0 -1.115124321877e+02 
-1.124079398014e+02 6.373981086335e-02 0.0 
6.373981086335e-02 -2.564858498159e+02 0.0 
0.0 0.0 -1.102681368852e+02 
-1.002755249112e+02 -3.062663095384e+00 0.0 
-3.062663095384e+00 -2.207832559624e+02 0.0 
0.0 0.0 -9.591763426207e+01 
-1.445484188778e+02 -2.370348028274e+00 0.0 
-2.370348028274e+00 -3.428435137510e+02 0.0 
0.0 0.0 -1.458175797886e+02 
-1.150857998018e+02 -4.394583946300e+00 0.0 
-4.394583946300e+00 -2.733782696825e+02 0.0 
0.0 0.0 -1.161392208453e+02 
-1.093265065629e+02 1.264768083365e+00 0.0 
1.264768083365e+00 -2.494430333881e+02 0.0 
0.0 0.0 -1.072308619853e+02 
-1.514289496879e+02 5.112881557792e+00 0.0 
5.112881557792e+00 -3.505225198603e+02 0.0 
0.0 0.0 -1.501854408645e+02 
-1.345817667409e+02 3.693404411946e+00 0.0 
3.693404411946e+00 -3.297312019668e+02 0.0 
0.0 0.0 -1.388938906123e+02 
-1.259152043568e+02 -4.752545920913e+00 0.0 
-4.752545920913e+00 -2.931793786242e+02 0.0 
0.0 0.0 -1.253283748943e+02 
-1.335733644691e+02 1.604398557087e-01 0.0 
1.604398557087e-01 -3.079545367650e+02 0.0 
0.0 0.0 -1.320583703702e+02 
-7.849514188490e+01 -6.028233220478e+00 0.0 
-6.028233220478e+00 -1.751406186633e+02 0.0 
0.0 0.0 -7.569072816448e+01 
-7.376324387024e+01 -5.111927792143e+00 0.0 
-5.111927792143e+00 -1.617370371010e+02 0.0 
0.0 0.0 -7.025008429138e+01 
-4.057671648954e+01 -2.083968169039e+00 0.0 
-2.083968169039e+00 -8.641858072871e+01 0.0 
0.0 0.0 -3.769858916547e+01 
-1.233711840509e+02 -3.707812614361e+00 0.0 
-3.707812614361e+00 -2.925509924052e+02 0.0 
0.0 0.0 -1.243766529368e+02 
-7.732335211360e+01 -4.122112394466e+00 0.0 
-4.122112394466e+00 -1.691412459291e+02 0.0 
0.0 0.0 -7.353937941281e+01 
-1.215814863186e+02 1.686605445868e+00 0.0 
1.686605445868e+00 -2.780697327710e+02 0.0 
0.0 0.0 -1.194953657269e+02 
-1.172468342661e+02 1.731855182079e+00 0.0 
1.731855182079e+00 -2.674450930449e+02 0.0 
0.0 0.0 -1.150075781933e+02 
-9.278490412076e+01 2.078428931407e+00 0.0 
2.078428931407e+00 -2.472629270973e+02 0.0 
0.0 0.0 -1.016143493654e+02 
-6.512398214894e+01 -7.553259610691e+00 0.0 
-7.553259610691e+00 -1.405233378998e+02 0.0 
0.0 0.0 -6.129419601462e+01 
-6.091428125949e+01 5.567200253877e+00 0.0 
5.567200253877e+00 -1.819870986228e+02 0.0 
0.0 0.0 -7.247041396468e+01 
-6.858680298144e+01 -6.524929014465e+00 0.0 
-6.524929014465e+00 -1.480249089896e+02 0.0 
0.0 0.0 -6.458351359132e+01 
-7.311347460028e+01 -7.505441467763e+00 0.0 
-7.505441467763e+00 -1.609329904882e+02 0.0 
0.0 0.0 -6.981393952653e+01 
-4.575319988687e+01 -4.366562399816e+00 0.0 
-4.366562399816e+00 -9.479279845637e+01 0.0 
0.0 0.0 -4.176379950297e+01 
-1.404895970590e+02 -2.270681146772e+00 0.0 
-2.270681146772e+00 -3.357673246471e+02 0.0 
0.0 0.0 -1.424770765118e+02 
-8.481751488594e+01 -8.784746448977e+00 0.0 
-8.784746448977e+00 -2.011182480881e+02 0.0 
0.0 0.0 -8.538072889221e+01 
-1.383651505493e+02 1.757035365350e+00 0.0 
1.757035365350e+00 -3.191715262969e+02 0.0 
0.0 0.0 -1.368610030539e+02 
-8.844606718308e+01 -8.489861162113e+00 0.0 
-8.489861162113e+00 -2.145309187503e+02 0.0 
0.0 0.0 -9.049309578000e+01 
-1.176193080621e+02 -5.544194785541e+00 0.0 
-5.544194785541e+00 -2.790936822485e+02 0.0 
0.0 0.0 -1.186138970932e+02 
-1.009649552672e+02 -7.052398198301e+00 0.0 
-7.052398198301e+00 -2.401888991930e+02 0.0 
0.0 0.0 -1.019461563381e+02 
-9.358861894658e+01 7.576415263101e+00 0.0 
7.576415263101e+00 -2.359618496975e+02 0.0 
0.0 0.0 -9.846514059323e+01 
-4.429782233917e+01 -1.705298479715e+00 0.0 
-1.705298479715e+00 -9.480695724619e+01 0.0 
0.0 0.0 -4.133143387561e+01 
-1.476156845140e+02 -3.751130883458e+00 0.0 
-3.751130883458e+00 -3.491521618839e+02 0.0 
0.0 0.0 -1.486303539194e+02 
-1.533912736765e+02 -2.073051615394e+00 0.0 
-2.073051615394e+00 -3.628408791256e+02 0.0 
0.0 0.0 -1.544696458406e+02 
-1.224262244896e+02 4.478377571066e+00 0.0 
4.478377571066e+00 -2.899252792252e+02 0.0 
0.0 0.0 -1.233054511144e+02 
-7.725610490668e+01 -8.288199155329e+00 0.0 
-8.288199155329e+00 -1.741161120810e+02 0.0 
0.0 0.0 -7.501166509632e+01 
-1.092406478008e+02 -6.256764393447e+00 0.0 
-6.256764393447e+00 -2.596610366138e+02 0.0 
0.0 0.0 -1.102705053244e+02 
-1.210452738889e+02 -1.143938760473e-02 0.0 
-1.143938760473e-02 -2.775597557367e+02 0.0 
0.0 0.0 -1.191815088877e+02 
-8.211454065763e+01 -4.976778000811e+00 0.0 
-4.976778000811e+00 -1.821653262140e+02 0.0 
0.0 0.0 -7.888396006147e+01 
-8.138716598439e+01 9.383389183302e+00 0.0 
9.383389183302e+00 -1.966681177958e+02 0.0 
0.0 0.0 -8.301658513405e+01 
-6.319307459749e+01 -2.914449289413e+00 0.0 
-2.914449289413e+00 -1.358539925678e+02 0.0 
0.0 0.0 -5.931412014960e+01 
-5.782775212942e+01 -1.246811716805e+01 0.0 
-1.246811716805e+01 -1.341755157656e+02 0.0 
0.0 0.0 -5.720098036849e+01 
-8.288720488335e+01 -6.699818484599e+00 0.0 
-6.699818484599e+00 -1.887463271353e+02 0.0 
0.0 0.0 -8.109005960560e+01 
-5.826186270326e+01 -4.324151350506e+00 0.0 
-4.324151350506e+00 -1.232224607852e+02 0.0 
0.0 0.0 -5.404529704654e+01 
-5.172554266341e+01 -8.857811906303e-01 0.0 
-8.857811906303e-01 -1.114616710294e+02 0.0 
0.0 0.0 -4.855616410784e+01 
-1.029298562140e+02 -5.432811178058e+00 0.0 
-5.432811178058e+00 -2.413771110088e+02 0.0 
0.0 0.0 -1.028920901669e+02 
-1.218203440958e+02 -5.174314783298e+00 0.0 
-5.174314783298e+00 -2.860472476414e+02 0.0 
0.0 0.0 -1.219602775211e+02 
-1.431078027088e+02 3.953577448996e+00 0.0 
3.953577448996e+00 -3.369571923109e+02 0.0 
0.0 0.0 -1.436194985059e+02 
-2.696816068796e-01 -6.747470266343e-03 0.0 
-6.747470266343e-03 -8.516939028639e+00 0.0 
0.0 0.0 -1.242435974122e+00 
-8.297908358821e+01 -7.656142325720e+00 0.0 
-7.656142325720e+00 -2.165449449883e+02 0.0 
0.0 0.0 -8.945720857296e+01 
-8.394523111487e+01 -8.909688974455e+00 0.0 
-8.909688974455e+00 -2.087554951521e+02 0.0 
0.0 0.0 -8.741021788009e+01 
-8.111020578924e+01 -8.722085309962e+00 0.0 
-8.722085309962e+00 -1.875743771447e+02 0.0 
0.0 0.0 -8.020537488018e+01 
-1.167151118932e+02 2.572656513935e-02 0.0 
2.572656513935e-02 -2.669387763504e+02 0.0 
0.0 0.0 -1.146961664731e+02 
-9.281439807625e+01 -7.910025594003e+00 0.0 
-7.910025594003e+00 -2.206677781468e+02 0.0 
0.0 0.0 -9.364465286691e+01 
-6.716276660421e+01 -4.695588105399e+00 0.0 
-4.695588105399e+00 -1.435481198067e+02 0.0 
0.0 0.0 -6.281326592327e+01 
-8.700270004611e+01 -7.045313705855e+00 0.0 
-7.045313705855e+00 -2.024260706725e+02 0.0 
0.0 0.0 -8.642863121557e+01 
-1.341222839181e+02 -1.077956954228e-01 0.0 
-1.077956954228e-01 -3.097193802044e+02 0.0 
0.0 0.0 -1.327524992368e+02 
-6.668253817529e+01 -2.235314580034e+00 0.0 
-2.235314580034e+00 -1.438914125077e+02 0.0 
0.0 0.0 -6.277218520489e+01 
-2.551414872840e+01 -2.374947482805e+00 0.0 
-2.374947482805e+00 -5.447495736879e+01 0.0 
0.0 0.0 -2.359673182916e+01 
-3.606766218151e+01 -3.401416454191e+00 0.0 
-3.401416454191e+00 -7.475566711094e+01 0.0 
0.0 0.0 -3.284699878773e+01 
-5.854851191941e+01 -1.282129203554e+01 0.0 
-1.282129203554e+01 -1.369372422940e+02 0.0 
0.0 0.0 -5.824572626403e+01 
-6.945003145554e+01 -8.634554470067e+00 0.0 
-8.634554470067e+00 -1.538801363602e+02 0.0 
0.0 0.0 -6.659905034472e+01 
-8.756239303689e+01 -7.935878997591e+00 0.0 
-7.935878997591e+00 -2.219399473772e+02 0.0 
0.0 0.0 -9.245070212423e+01 
-9.085987334059e+01 -7.014737572214e+00 0.0 
-7.014737572214e+00 -2.158985880165e+02 0.0 
0.0 0.0 -9.162753840714e+01 
-4.632004262730e+01 -1.039280601949e+01 0.0 
-1.039280601949e+01 -9.513637805147e+01 0.0 
0.0 0.0 -4.166125713263e+01 
-3.385579094777e+01 -6.569843778970e-01 0.0 
-6.569843778970e-01 -7.439474150135e+01 0.0 
0.0 0.0 -3.207515973474e+01 
-1.120753665988e+02 2.161864601331e+00 0.0 
2.161864601331e+00 -2.547951989523e+02 0.0 
0.0 0.0 -1.096611696653e+02 
-5.756539663131e+01 -1.810582198582e+00 0.0 
-1.810582198582e+00 -1.234757712931e+02 0.0 
0.0 0.0 -5.391235037731e+01 
-1.349234920322e+02 -4.104847793468e+00 0.0 
-4.104847793468e+00 -3.230529105350e+02 0.0 
0.0 0.0 -1.369929207701e+02 
-1.385692482021e+02 3.964696592341e+00 0.0 
3.964696592341e+00 -3.278149625779e+02 0.0 
0.0 0.0 -1.395152632340e+02 
-1.152317869924e+02 3.772133778250e+00 0.0 
3.772133778250e+00 -2.620097438670e+02 0.0 
0.0 0.0 -1.127724592578e+02 
-1.405074614844e+02 9.802090080421e-01 0.0 
9.802090080421e-01 -3.243826130245e+02 0.0 
0.0 0.0 -1.390670223527e+02 
-1.476799401729e+02 3.906810312084e+00 0.0 
3.906810312084e+00 -3.461547908297e+02 0.0 
0.0 0.0 -1.477504193008e+02 
-8.907373461014e+01 3.813481373370e+00 0.0 
3.813481373370e+00 -2.386461060920e+02 0.0 
0.0 0.0 -9.791595221066e+01 
-1.304325191885e+02 4.179241670048e+00 0.0 
4.179241670048e+00 -3.088551339073e+02 0.0 
0.0 0.0 -1.313862959288e+02 
-5.157271543816e+01 -1.357075749937e+01 0.0 
-1.357075749937e+01 -1.135225032907e+02 0.0 
0.0 0.0 -4.881428441099e+01 
-9.087090277467e+01 -6.086372360329e+00 0.0 
-6.086372360329e+00 -2.086755722436e+02 0.0 
0.0 0.0 -8.946394250547e+01 
-8.511180469550e+01 6.524595327968e+00 0.0 
6.524595327968e+00 -2.204738659801e+02 0.0 
0.0 0.0 -9.127570120267e+01 
-4.611372047598e+01 -1.316239568111e+01 0.0 
-1.316239568111e+01 -1.439844826778e+02 0.0 
0.0 0.0 -5.658827825875e+01 
-4.570232325166e+01 -1.328436218843e+01 0.0 
-1.328436218843e+01 -9.124906043489e+01 0.0 
0.0 0.0 -3.932801163501e+01 
-7.679762242756e+01 -6.488139573269e+00 0.0 
-6.488139573269e+00 -1.684006983665e+02 0.0 
0.0 0.0 -7.315949623821e+01 
-8.665855964290e+01 -7.681346709391e+00 0.0 
-7.681346709391e+00 -2.102053375174e+02 0.0 
0.0 0.0 -8.865916914809e+01 
-9.016435795466e+01 -6.970244813624e+00 0.0 
-6.970244813624e+00 -2.232628309288e+02 0.0 
0.0 0.0 -9.362815666502e+01 
-6.174968676511e+01 -3.682753706218e+00 0.0 
-3.682753706218e+00 -1.314331123790e+02 0.0 
0.0 0.0 -5.755483974322e+01 
-9.657992831697e+01 -7.520271092630e+00 0.0 
-7.520271092630e+00 -2.337717119581e+02 0.0 
0.0 0.0 -9.870549208251e+01 
-8.562494466918e+01 -7.068629602602e+00 0.0 
-7.068629602602e+00 -2.178083073009e+02 0.0 
0.0 0.0 -9.062997559103e+01 
-8.690290017116e+01 -6.015949140507e+00 0.0 
-6.015949140507e+00 -2.289750114515e+02 0.0 
0.0 0.0 -9.436337348680e+01 
-7.034877207784e+01 -6.244613038207e+00 0.0 
-6.244613038207e+00 -1.547699946769e+02 0.0 
0.0 0.0 -6.713563002643e+01 
-1.233891116008e+02 7.329137674821e-01 0.0 
7.329137674821e-01 -3.088378546322e+02 0.0 
0.0 0.0 -1.292680898699e+02 
-1.254055743729e+02 1.920324480745e+00 0.0 
1.920324480745e+00 -2.871222072731e+02 0.0 
0.0 0.0 -1.233583344938e+02 
-8.257795325006e+01 -4.915755264507e+00 0.0 
-4.915755264507e+00 -2.234781469891e+02 0.0 
0.0 0.0 -9.141683007176e+01 
-1.437475860050e+02 -3.730443968796e+00 0.0 
-3.730443968796e+00 -3.422090576784e+02 0.0 
0.0 0.0 -1.453869931050e+02 
-5.436667261971e+01 -1.444322076864e+01 0.0 
-1.444322076864e+01 -1.311883353689e+02 0.0 
0.0 0.0 -5.526650239657e+01 
-1.538211008923e+02 -2.936114135781e+00 0.0 
-2.936114135781e+00 -3.666208394715e+02 0.0 
0.0 0.0 -1.557325821092e+02 
-9.210083945957e+01 -7.848936600712e+00 0.0 
-7.848936600712e+00 -2.276379351221e+02 0.0 
0.0 0.0 -9.552163237449e+01 
-1.528086433578e+02 3.730886001855e+00 0.0 
3.730886001855e+00 -3.570960915143e+02 0.0 
0.0 0.0 -1.525714204616e+02 
-1.168748675117e+02 5.501854700507e+00 0.0 
5.501854700507e+00 -2.703913485634e+02 0.0 
0.0 0.0 -1.157798648225e+02 
-5.182012907742e+01 -1.378887942793e+01 0.0 
-1.378887942793e+01 -1.161741336631e+02 0.0 
0.0 0.0 -4.999827882214e+01 
-1.187716502782e+02 4.181319645628e+00 0.0 
4.181319645628e+00 -2.710889641173e+02 0.0 
0.0 0.0 -1.165581843187e+02 
-1.437374002910e+02 1.652068422740e+00 0.0 
1.652068422740e+00 -3.320291509128e+02 0.0 
0.0 0.0 -1.423299653611e+02 
-9.590726460953e+01 -6.911885353439e+00 0.0 
-6.911885353439e+00 -2.404649002365e+02 0.0 
0.0 0.0 -1.005116494538e+02 
-7.032700936034e+01 1.101539011209e+01 0.0 
1.101539011209e+01 -1.785491313391e+02 0.0 
0.0 0.0 -7.426284220984e+01 
-1.222825631125e+02 4.559770161794e+00 0.0 
4.559770161794e+00 -2.802934425077e+02 0.0 
0.0 0.0 -1.203728016860e+02 
-9.459403634528e+01 6.189101036589e+00 0.0 
6.189101036589e+00 -2.242942745055e+02 0.0 
0.0 0.0 -9.526649325523e+01 
-4.713973960249e+01 -1.379884612219e+01 0.0 
-1.379884612219e+01 -9.466996875160e+01 0.0 
0.0 0.0 -4.178827810970e+01 
-1.566089350867e+02 1.337665440199e+00 0.0 
1.337665440199e+00 -3.640959042631e+02 0.0 
0.0 0.0 -1.558114518049e+02 
-4.390944475146e+01 -1.075763186782e+01 0.0 
-1.075763186782e+01 -7.945505009594e+01 0.0 
0.0 0.0 -3.593195094474e+01 
-1.518192322653e+02 2.214400782071e+00 0.0 
2.214400782071e+00 -3.658974124406e+02 0.0 
0.0 0.0 -1.549149934118e+02 
-1.458120254969e+02 2.509790854456e-01 0.0 
2.509790854456e-01 -3.382224082132e+02 0.0 
0.0 0.0 -1.448103301130e+02 
-1.275774639609e+02 -5.110976289118e-02 0.0 
-5.110976289118e-02 -3.166512275862e+02 0.0 
0.0 0.0 -1.328686074641e+02 
-1.127492839697e+02 -2.574850297666e-01 0.0 
-2.574850297666e-01 -2.577496981030e+02 0.0 
0.0 0.0 -1.107496946218e+02 
-1.373235454210e+02 2.386359797883e+00 0.0 
2.386359797883e+00 -3.158723988368e+02 0.0 
0.0 0.0 -1.355587832773e+02 
-8.906685088205e+01 -5.635019767272e+00 0.0 
-5.635019767272e+00 -2.299793957746e+02 0.0 
0.0 0.0 -9.531387399701e+01 
-1.015601936324e+02 1.869854536498e+00 0.0 
1.869854536498e+00 -2.648276630957e+02 0.0 
0.0 0.0 -1.095163570184e+02 
-1.485643434635e+02 1.176129358979e+00 0.0 
1.176129358979e+00 -3.439437835462e+02 0.0 
0.0 0.0 -1.473524381029e+02 
-1.301993085272e+02 -4.635529469350e+00 0.0 
-4.635529469350e+00 -3.055788744040e+02 0.0 
0.0 0.0 -1.303334548794e+02 
-1.292661401209e+02 2.165248429285e+00 0.0 
2.165248429285e+00 -2.962095332071e+02 0.0 
0.0 0.0 -1.272427019984e+02 
-1.217087935557e+02 -3.518866711647e+00 0.0 
-3.518866711647e+00 -3.013194963181e+02 0.0 
0.0 0.0 -1.265084869621e+02 
-4.822409175681e+01 -1.562704388782e+01 0.0 
-1.562704388782e+01 -1.118514223596e+02 0.0 
0.0 0.0 -4.762265423494e+01 
-1.331101076988e+02 2.449245237560e+00 0.0 
2.449245237560e+00 -3.052783966180e+02 0.0 
0.0 0.0 -1.311165512950e+02 
-1.625760458069e+02 4.861876710931e+00 0.0 
4.861876710931e+00 -3.820918769183e+02 0.0 
0.0 0.0 -1.630003768175e+02 
-1.530544138425e+02 -3.618999091999e+00 0.0 
-3.618999091999e+00 -3.622071024292e+02 0.0 
0.0 0.0 -1.541784548815e+02 
-8.904276565627e+01 -7.980196082723e+00 0.0 
-7.980196082723e+00 -2.074873222682e+02 0.0 
0.0 0.0 -8.855902637734e+01 
-1.132737355647e+02 1.531379026598e+00 0.0 
1.531379026598e+00 -2.582115542657e+02 0.0 
0.0 0.0 -1.110455869491e+02 
-1.083757771728e+02 -2.355004551191e-01 0.0 
-2.355004551191e-01 -2.472247653095e+02 0.0 
0.0 0.0 -1.062801627447e+02 
-9.451420334984e+01 -6.582930811204e+00 0.0 
-6.582930811204e+00 -2.289389601217e+02 0.0 
0.0 0.0 -9.663594904147e+01 
-1.260726763455e+02 -4.930845063562e+00 0.0 
-4.930845063562e+00 -2.985095075246e+02 0.0 
0.0 0.0 -1.269746551610e+02 
-1.304336345129e+02 -4.566949119420e+00 0.0 
-4.566949119420e+00 -3.108517893982e+02 0.0 
0.0 0.0 -1.319856271733e+02 
-3.031066826931e+01 -8.633839044363e-01 0.0 
-8.633839044363e-01 -6.580852539201e+01 0.0 
0.0 0.0 -2.843575809840e+01 
-5.348046250015e+01 7.415004661782e+00 0.0 
7.415004661782e+00 -1.669923794269e+02 0.0 
0.0 0.0 -6.574185257813e+01 
-8.711291626377e+01 -2.979194573023e+00 0.0 
-2.979194573023e+00 -2.347386741758e+02 0.0 
0.0 0.0 -9.615547713188e+01 
-8.437558428364e+01 -4.893522696570e+00 0.0 
-4.893522696570e+00 -2.242435500766e+02 0.0 
0.0 0.0 -9.218574030808e+01 
-9.264623553272e+01 6.731078220814e+00 0.0 
6.731078220814e+00 -2.261598707095e+02 0.0 
0.0 0.0 -9.524183187268e+01 
-1.532647120375e+02 2.709910116221e+00 0.0 
2.709910116221e+00 -3.547981405799e+02 0.0 
0.0 0.0 -1.520188557852e+02 
-1.463768359150e+02 2.909497520864e+00 0.0 
2.909497520864e+00 -3.390930282381e+02 0.0 
0.0 0.0 -1.452409592459e+02 
-1.462528624391e+02 1.855417765199e+00 0.0 
1.855417765199e+00 -3.385902481296e+02 0.0 
0.0 0.0 -1.450529331706e+02 
-8.522618382321e+01 6.915074102953e+00 0.0 
6.915074102953e+00 -1.940998328782e+02 0.0 
0.0 0.0 -8.339780501044e+01 
-1.358223763193e+02 1.416443526850e+00 0.0 
1.416443526850e+00 -3.124580861728e+02 0.0 
0.0 0.0 -1.340841387476e+02 
-1.274653752055e+02 -3.396848974659e+00 0.0 
-3.396848974659e+00 -2.994337456036e+02 0.0 
0.0 0.0 -1.276697362427e+02 
-1.489514237678e+02 7.776097499726e-01 0.0 
7.776097499726e-01 -3.456245850057e+02 0.0 
0.0 0.0 -1.479728026320e+02 
-1.288696145047e+02 2.515871538685e+00 0.0 
2.515871538685e+00 -2.947087999669e+02 0.0 
0.0 0.0 -1.266735243415e+02 
-9.490125297755e+01 -6.225456267610e+00 0.0 
-6.225456267610e+00 -2.219259416455e+02 0.0 
0.0 0.0 -9.464815838692e+01 
-8.329841247491e+01 -1.234644768980e+00 0.0 
-1.234644768980e+00 -2.283714734680e+02 0.0 
0.0 0.0 -9.310096578286e+01 
-1.324861504046e+02 7.527431308981e-01 0.0 
7.527431308981e-01 -3.047298313166e+02 0.0 
0.0 0.0 -1.307647945163e+02 
-1.453477802552e+02 2.605431103042e+00 0.0 
2.605431103042e+00 -3.355667847764e+02 0.0 
0.0 0.0 -1.438743695095e+02 
-1.330081506731e+02 4.201718301518e-01 0.0 
4.201718301518e-01 -3.062850142653e+02 0.0 
0.0 0.0 -1.313879494815e+02 
-1.286994271308e+02 4.768367771458e-01 0.0 
4.768367771458e-01 -2.956871593875e+02 0.0 
0.0 0.0 -1.269159759555e+02 
-1.431177228800e+02 -4.066205266941e+00 0.0 
-4.066205266941e+00 -3.373039904094e+02 0.0 
0.0 0.0 -1.437265139868e+02 
-1.478495207047e+02 2.861764302019e+00 0.0 
2.861764302019e+00 -3.574267484390e+02 0.0 
0.0 0.0 -1.511828807431e+02 
-1.390919213891e+02 -4.120759392331e+00 0.0 
-4.120759392331e+00 -3.301148946117e+02 0.0 
0.0 0.0 -1.403620448002e+02 
-1.134900015550e+02 -5.795833424888e+00 0.0 
-5.795833424888e+00 -2.664878294640e+02 0.0 
0.0 0.0 -1.135933493057e+02 
-8.265149205183e+01 2.740910914519e+00 0.0 
2.740910914519e+00 -1.848149673531e+02 0.0 
0.0 0.0 -7.983993782148e+01 
-1.323608010291e+02 8.068043644112e-01 0.0 
8.068043644112e-01 -3.269981185819e+02 0.0 
0.0 0.0 -1.374076758833e+02 
-1.274539127360e+02 1.565283210434e+00 0.0 
1.565283210434e+00 -2.918779754347e+02 0.0 
0.0 0.0 -1.253995664512e+02 
-5.257497905984e+01 -3.326209822888e+00 0.0 
-3.326209822888e+00 -1.112935589736e+02 0.0 
0.0 0.0 -4.876056141003e+01 
-8.816789962976e+01 -2.961596331140e+00 0.0 
-2.961596331140e+00 -2.351892686613e+02 0.0 
0.0 0.0 -9.660715048733e+01 
-9.984751649475e+01 -3.762392221123e+00 0.0 
-3.762392221123e+00 -2.582848828388e+02 0.0 
0.0 0.0 -1.070397198001e+02 
-1.103971845189e+02 1.731984494906e+00 0.0 
1.731984494906e+00 -2.826679499907e+02 0.0 
0.0 0.0 -1.175195403529e+02 
-4.511466149401e+01 -5.164327424302e+00 0.0 
-5.164327424302e+00 -1.567765053228e+02 0.0 
0.0 0.0 -6.001638002524e+01 
-8.366122920570e+01 -1.447754379208e+00 0.0 
-1.447754379208e+00 -2.284734058770e+02 0.0 
0.0 0.0 -9.324039052482e+01 
-1.193043243874e+02 1.649550104386e+00 0.0 
1.649550104386e+00 -3.007304282022e+02 0.0 
0.0 0.0 -1.256104257769e+02 
-9.377764269193e+01 3.570493423004e+00 0.0 
3.570493423004e+00 -2.129248756796e+02 0.0 
0.0 0.0 -9.161075551146e+01 
-9.708608862015e+01 -7.224549242692e+00 0.0 
-7.224549242692e+00 -2.272382138208e+02 0.0 
0.0 0.0 -9.689729073229e+01 
-1.207507915716e+02 2.291197575544e+00 0.0 
2.291197575544e+00 -2.749813499309e+02 0.0 
0.0 0.0 -1.183196424507e+02 
-9.564651394933e+01 -3.919009361958e-01 0.0 
-3.919009361958e-01 -2.173198097491e+02 0.0 
0.0 0.0 -9.348989710954e+01 
-2.890266353418e+01 9.770639660247e+00 0.0 
9.770639660247e+00 -4.592541271613e+01 0.0 
0.0 0.0 -2.115723477903e+01 
-1.110430576341e+02 -4.679902446592e+00 0.0 
-4.679902446592e+00 -2.607699379688e+02 0.0 
0.0 0.0 -1.111438986809e+02 
-1.313201863863e+02 -1.725416712191e+00 0.0 
-1.725416712191e+00 -3.237937170876e+02 0.0 
0.0 0.0 -1.361341710422e+02 
-1.505144998033e+02 2.677811172895e+00 0.0 
2.677811172895e+00 -3.489541608359e+02 0.0 
0.0 0.0 -1.494405981917e+02 
-9.695550063845e+01 2.145859530097e-01 0.0 
2.145859530097e-01 -2.552997277024e+02 0.0 
0.0 0.0 -1.052765685022e+02 
-1.052438744955e+02 -6.490743776867e+00 0.0 
-6.490743776867e+00 -2.469008525527e+02 0.0 
0.0 0.0 -1.052434181145e+02 
-1.210913205512e+02 1.950400093623e+00 0.0 
1.950400093623e+00 -2.765499401269e+02 0.0 
0.0 0.0 -1.188923782034e+02 
-3.517816619594e+01 6.759673064727e+00 0.0 
6.759673064727e+00 -6.406071695725e+01 0.0 
0.0 0.0 -2.818537949729e+01 
-1.272710944424e+02 -1.001105505838e+00 0.0 
-1.001105505838e+00 -3.163164093102e+02 0.0 
0.0 0.0 -1.326762511258e+02 
-1.055875207143e+02 5.658796118413e-01 0.0 
5.658796118413e-01 -2.728775180085e+02 0.0 
0.0 0.0 -1.131395116168e+02 
-9.829273723274e+01 5.097683758999e+00 0.0 
5.097683758999e+00 -2.230084878484e+02 0.0 
0.0 0.0 -9.599036752433e+01 
-1.317083319117e+02 -3.132501564280e+00 0.0 
-3.132501564280e+00 -3.117022359735e+02 0.0 
0.0 0.0 -1.326231703655e+02 
-5.184938352486e+01 -1.416484120727e+01 0.0 
-1.416484120727e+01 -1.462949651827e+02 0.0 
0.0 0.0 -5.904330461227e+01 
-1.360472607093e+02 -2.749310767150e+00 0.0 
-2.749310767150e+00 -3.238243799345e+02 0.0 
0.0 0.0 -1.375614921932e+02 
-1.485876684394e+02 -3.352108147769e+00 0.0 
-3.352108147769e+00 -3.542479385602e+02 0.0 
0.0 0.0 -1.504506820999e+02 
-1.233436979191e+02 -1.543813858871e-01 0.0 
-1.543813858871e-01 -3.086280382360e+02 0.0 
0.0 0.0 -1.291915208465e+02 
-1.335201907284e+02 2.106671556129e+00 0.0 
2.106671556129e+00 -3.067912840585e+02 0.0 
0.0 0.0 -1.316934424361e+02 
-1.367268352558e+02 5.288400838987e+00 0.0 
5.288400838987e+00 -3.282150028253e+02 0.0 
0.0 0.0 -1.390825514243e+02 
-1.492471303784e+02 -1.926100605142e+00 0.0 
-1.926100605142e+00 -3.547871295113e+02 0.0 
0.0 0.0 -1.508102779669e+02 
-4.061643627636e+01 5.135815448651e+00 0.0 
5.135815448651e+00 -8.252949715468e+01 0.0 
0.0 0.0 -3.654378002931e+01 
-1.250231057482e+02 2.203981109952e+00 0.0 
2.203981109952e+00 -2.856321786218e+02 0.0 
0.0 0.0 -1.227965853110e+02 
-1.487178780521e+02 3.900359959642e+00 0.0 
3.900359959642e+00 -3.576703475405e+02 0.0 
0.0 0.0 -1.515164676778e+02 
-1.367521316925e+02 6.852961342938e-01 0.0 
6.852961342938e-01 -3.153414960922e+02 0.0 
0.0 0.0 -1.352280883354e+02 
-1.144504035865e+02 -7.877439858966e-02 0.0 
-7.877439858966e-02 -2.905880665798e+02 0.0 
0.0 0.0 -1.211115410499e+02 
-8.804267657615e+01 4.850017146705e-01 0.0 
4.850017146705e-01 -2.380300838312e+02 0.0 
0.0 0.0 -9.742182812222e+01 
-1.051337383149e+02 -4.760219887193e+00 0.0 
-4.760219887193e+00 -2.363916663454e+02 0.0 
0.0 0.0 -1.020576213981e+02 
-3.067483060532e+01 4.577225342627e+00 0.0 
4.577225342627e+00 -1.345288087021e+02 0.0 
0.0 0.0 -5.091380816857e+01 
-1.410292701956e+02 6.001677760585e-01 0.0 
6.001677760585e-01 -3.259411031709e+02 0.0 
0.0 0.0 -1.396911120100e+02 
-5.630638899583e+01 -2.923454453431e+00 0.0 
-2.923454453431e+00 -1.198006212024e+02 0.0 
0.0 0.0 -5.243210305948e+01 
-4.776193756593e+01 4.068127563286e+00 0.0 
4.068127563286e+00 -1.010191371273e+02 0.0 
0.0 0.0 -4.423432240797e+01 
-1.332577404670e+02 5.568066923211e+00 0.0 
5.568066923211e+00 -3.185872014908e+02 0.0 
0.0 0.0 -1.351534825873e+02 
-1.497647105421e+02 4.702557663307e-01 0.0 
4.702557663307e-01 -3.477012660568e+02 0.0 
0.0 0.0 -1.488397929797e+02 
-5.134427934680e+01 -1.665697457141e+01 0.0 
-1.665697457141e+01 -1.301329596240e+02 0.0 
0.0 0.0 -5.345289317513e+01 
-1.060151835623e+02 6.956113477254e+00 0.0 
6.956113477254e+00 -2.521316347774e+02 0.0 
0.0 0.0 -1.070440455019e+02 
-1.282429031270e+02 7.927651276697e-01 0.0 
7.927651276697e-01 -2.941591461848e+02 0.0 
0.0 0.0 -1.263206147935e+02 
-1.028278058917e+02 -4.632295935257e+00 0.0 
-4.632295935257e+00 -2.352480217782e+02 0.0 
0.0 0.0 -1.010227483010e+02 
-4.726998365697e+01 -8.207190446011e+00 0.0 
-8.207190446011e+00 -1.572188422958e+02 0.0 
0.0 0.0 -6.094664778583e+01 
-6.781585453082e+01 1.029961133549e+01 0.0 
1.029961133549e+01 -1.721443918309e+02 0.0 
0.0 0.0 -7.158807390851e+01 
-4.545414238832e+01 -1.570067696844e+01 0.0 
-1.570067696844e+01 -9.066465208964e+01 0.0 
0.0 0.0 -3.938435610744e+01 
-4.499895796237e+01 -1.584283408606e+01 0.0 
-1.584283408606e+01 -1.276901736739e+02 0.0 
0.0 0.0 -5.140673949087e+01 
-4.427709694156e+01 -1.697119076556e+01 0.0 
-1.697119076556e+01 -1.092992245377e+02 0.0 
0.0 0.0 -4.545750195331e+01 
-1.056573623778e+02 3.980997873185e-02 0.0 
3.980997873185e-02 -2.727949000657e+02 0.0 
0.0 0.0 -1.131356787331e+02 
-1.668413934358e+02 3.201644622263e+00 0.0 
3.201644622263e+00 -3.882621306528e+02 0.0 
0.0 0.0 -1.661310572266e+02 
-5.535209200634e+01 3.065041164875e+00 0.0 
3.065041164875e+00 -1.198929625408e+02 0.0 
0.0 0.0 -5.217351636414e+01 
-1.470634723081e+02 -3.886951829968e+00 0.0 
-3.886951829968e+00 -3.445505229133e+02 0.0 
0.0 0.0 -1.470841985664e+02 
-7.684437991289e+01 3.171848179476e+00 0.0 
3.171848179476e+00 -2.138055942049e+02 0.0 
0.0 0.0 -8.679499223533e+01 
-1.246467972652e+02 2.605071131173e+00 0.0 
2.605071131173e+00 -2.842911300186e+02 0.0 
0.0 0.0 -1.222813781851e+02 
-3.600569162446e+01 1.582773550619e+00 0.0 
1.582773550619e+00 -1.434562913150e+02 0.0 
0.0 0.0 -5.525936205390e+01 
-1.539761545199e+02 -1.554838922957e+00 0.0 
-1.554838922957e+00 -3.665744826529e+02 0.0 
0.0 0.0 -1.557651911518e+02 
-5.036553883280e+01 -1.668755105048e+01 0.0 
-1.668755105048e+01 -1.115307971716e+02 0.0 
0.0 0.0 -4.690456714593e+01 
-6.587333889173e+01 -3.191893834260e+00 0.0 
-3.191893834260e+00 -1.404571586960e+02 0.0 
0.0 0.0 -6.149914927631e+01 
-1.284779708821e+02 6.124124672383e-01 0.0 
6.124124672383e-01 -3.188272831743e+02 0.0 
0.0 0.0 -1.337915762169e+02 
-9.365295614811e+01 -5.907862612952e+00 0.0 
-5.907862612952e+00 -2.356828855728e+02 0.0 
0.0 0.0 -9.840075251628e+01 
-1.437800361288e+02 3.467207054449e+00 0.0 
3.467207054449e+00 -3.485305068399e+02 0.0 
0.0 0.0 -1.472931628906e+02 
-7.429001014152e+01 1.021346187383e+01 0.0 
1.021346187383e+01 -1.772674484155e+02 0.0 
0.0 0.0 -7.506723756712e+01 
-1.322158758327e+02 3.188478673275e+00 0.0 
3.188478673275e+00 -3.026932741450e+02 0.0 
0.0 0.0 -1.300727449933e+02 
-1.521838625245e+02 9.288756459433e-01 0.0 
9.288756459433e-01 -3.657703479650e+02 0.0 
0.0 0.0 -1.549862631468e+02 
-1.243995425749e+02 5.021322948921e-01 0.0 
5.021322948921e-01 -2.850976193471e+02 0.0 
0.0 0.0 -1.224491485766e+02 
-1.508953020721e+02 4.392521134512e+00 0.0 
4.392521134512e+00 -3.494840427736e+02 0.0 
0.0 0.0 -1.497138034537e+02 
-1.368745032566e+02 2.739230100747e+00 0.0 
2.739230100747e+00 -3.143008606289e+02 0.0 
0.0 0.0 -1.349526091656e+02 
-1.406201935474e+02 3.040514311328e+00 0.0 
3.040514311328e+00 -3.234314414682e+02 0.0 
0.0 0.0 -1.388154905047e+02 
-4.711534451489e+01 1.456750875739e+01 0.0 
1.456750875739e+01 -1.412796037034e+02 0.0 
0.0 0.0 -5.606953366831e+01 
-1.424954726950e+02 -3.914449905417e+00 0.0 
-3.914449905417e+00 -3.322557888573e+02 0.0 
0.0 0.0 -1.420253784657e+02 
-1.320723345372e+02 1.109894290288e+00 0.0 
1.109894290288e+00 -3.033228435879e+02 0.0 
0.0 0.0 -1.302185534375e+02 
-9.569118787473e+01 4.183533166318e+00 0.0 
4.183533166318e+00 -2.475970206077e+02 0.0 
0.0 0.0 -1.025864625447e+02 
-6.310401198484e+01 2.155020486604e+00 0.0 
2.155020486604e+00 -1.389910252033e+02 0.0 
0.0 0.0 -6.022851115644e+01 
-1.572122611145e+02 2.797554549242e+00 0.0 
2.797554549242e+00 -3.757886271696e+02 0.0 
0.0 0.0 -1.595002664852e+02 
-4.748561277950e+01 4.703378915818e+00 0.0 
4.703378915818e+00 -1.613735212354e+02 0.0 
0.0 0.0 -6.225774020447e+01 
-6.139420383384e+01 -1.222480471637e+00 0.0 
-1.222480471637e+00 -1.317919480303e+02 0.0 
0.0 0.0 -5.755584555925e+01 
-1.389635810423e+02 1.710332736598e+00 0.0 
1.710332736598e+00 -3.387328655509e+02 0.0 
0.0 0.0 -1.429089339780e+02 
-3.497182485715e+01 8.679010122054e-01 0.0 
8.679010122054e-01 -7.945976723812e+01 0.0 
0.0 0.0 -3.392947762858e+01 
-9.880762769246e+01 7.416816232989e+00 0.0 
7.416816232989e+00 -2.444658834824e+02 0.0 
0.0 0.0 -1.025820533524e+02 
-1.323053288140e+02 -1.844983890466e-01 0.0 
-1.844983890466e-01 -3.267850795506e+02 0.0 
0.0 0.0 -1.373271225094e+02 
-1.482461840914e+02 3.161562428227e+00 0.0 
3.161562428227e+00 -3.424623482310e+02 0.0 
0.0 0.0 -1.468125596967e+02 
-1.520413901899e+02 3.495603046289e+00 0.0 
3.495603046289e+00 -3.520015075196e+02 0.0 
0.0 0.0 -1.508128693129e+02 
-1.282784240229e+02 1.605833002211e+00 0.0 
1.605833002211e+00 -3.189496983612e+02 0.0 
0.0 0.0 -1.337684367153e+02 
-1.410862415513e+02 2.678477804140e+00 0.0 
2.678477804140e+00 -3.249185707053e+02 0.0 
0.0 0.0 -1.394014436770e+02 
-8.226922094170e+01 4.373566900422e+00 0.0 
4.373566900422e+00 -2.220150507526e+02 0.0 
0.0 0.0 -9.088528150828e+01 
-1.347673156791e+02 5.690162384703e+00 0.0 
5.690162384703e+00 -3.183110202036e+02 0.0 
0.0 0.0 -1.355235007648e+02 
-7.119436487835e+01 1.495281170031e+00 0.0 
1.495281170031e+00 -1.582698402202e+02 0.0 
0.0 0.0 -6.843926152957e+01 
-1.489679233731e+02 3.502106424035e+00 0.0 
3.502106424035e+00 -3.469491024242e+02 0.0 
0.0 0.0 -1.483751077392e+02 
-7.929768410384e+01 1.070634505912e+00 0.0 
1.070634505912e+00 -1.775592791291e+02 0.0 
0.0 0.0 -7.665708896989e+01 
-8.397450078080e+01 1.062364898691e+00 0.0 
1.062364898691e+00 -1.872773226153e+02 0.0 
0.0 0.0 -8.097554701883e+01 
-9.355338985306e+01 1.806603277911e+00 0.0 
1.806603277911e+00 -2.475318226343e+02 0.0 
0.0 0.0 -1.019255637462e+02 
-8.762134897064e+01 6.950420108007e-01 0.0 
6.950420108007e-01 -1.970958919736e+02 0.0 
0.0 0.0 -8.501517228327e+01 
-1.097166734627e+02 6.026611276294e+00 0.0 
6.026611276294e+00 -2.727672120567e+02 0.0 
0.0 0.0 -1.143451656558e+02 
-8.826511206893e+01 7.555761330339e+00 0.0 
7.555761330339e+00 -2.276867251030e+02 0.0 
0.0 0.0 -9.438555115159e+01 
-9.230221831899e+01 -1.115189520477e+00 0.0 
-1.115189520477e+00 -2.454477159835e+02 0.0 
0.0 0.0 -1.009249802907e+02 
-4.188507710785e+01 -1.040891554426e+01 0.0 
-1.040891554426e+01 -1.437784594537e+02 0.0 
0.0 0.0 -5.493952567981e+01 
-8.834848272889e+01 4.747894080251e-01 0.0 
4.747894080251e-01 -2.381574822717e+02 0.0 
0.0 0.0 -9.755178950016e+01 
-1.447524894613e+02 9.004221309279e-01 0.0 
9.004221309279e-01 -3.350230763867e+02 0.0 
0.0 0.0 -1.435326697544e+02 
-1.508137242311e+02 2.966522979931e+00 0.0 
2.966522979931e+00 -3.501047290048e+02 0.0 
0.0 0.0 -1.498755359708e+02 
-1.342118708205e+02 -4.290157828824e+00 0.0 
-4.290157828824e+00 -3.127740747933e+02 0.0 
0.0 0.0 -1.336957836841e+02 
-1.480708004375e+02 1.552579118583e+00 0.0 
1.552579118583e+00 -3.572415055590e+02 0.0 
0.0 0.0 -1.511936917989e+02 
-9.135867991157e+01 -6.658670719902e+00 0.0 
-6.658670719902e+00 -2.345431824418e+02 0.0 
0.0 0.0 -9.737055870600e+01 
-1.400473511953e+02 1.334323067628e+00 0.0 
1.334323067628e+00 -3.228932936110e+02 0.0 
0.0 0.0 -1.384821934419e+02 
-9.191986818498e+01 -1.244359010123e+00 0.0 
-1.244359010123e+00 -2.452579529575e+02 0.0 
0.0 0.0 -1.007533463428e+02 
-1.463595537968e+02 -3.676233677479e+00 0.0 
-3.676233677479e+00 -3.397158338501e+02 0.0 
0.0 0.0 -1.454226162940e+02 
-1.362582961624e+02 1.060679055897e+00 0.0 
1.060679055897e+00 -3.137559761896e+02 0.0 
0.0 0.0 -1.346042817056e+02 
-1.364148049255e+02 3.115277004916e+00 0.0 
3.115277004916e+00 -3.130123591556e+02 0.0 
0.0 0.0 -1.344281492243e+02 
-1.182897100083e+02 -1.074178322248e+00 0.0 
-1.074178322248e+00 -2.981413770824e+02 0.0 
0.0 0.0 -1.245293261272e+02 
-8.512479270647e+01 2.395426421954e+00 0.0 
2.395426421954e+00 -2.304656099319e+02 0.0 
0.0 0.0 -9.427712079151e+01 
-1.428400636128e+02 5.470809584195e+00 0.0 
5.470809584195e+00 -3.369885036669e+02 0.0 
0.0 0.0 -1.435485701839e+02 
-1.168879016931e+02 3.660255848018e+00 0.0 
3.660255848018e+00 -2.700400924839e+02 0.0 
0.0 0.0 -1.156783982531e+02 
-4.633819896321e+01 -1.334099267788e+01 0.0 
-1.334099267788e+01 -1.455158387649e+02 0.0 
0.0 0.0 -5.714233730101e+01 
-4.537135201883e+01 1.614440508261e+00 0.0 
1.614440508261e+00 -1.595678735318e+02 0.0 
0.0 0.0 -6.093755401714e+01 
-7.787284639899e+01 8.382089639021e+00 0.0 
8.382089639021e+00 -1.881733381394e+02 0.0 
0.0 0.0 -7.941385536151e+01 
-1.067905561846e+02 5.190385178522e+00 0.0 
5.190385178522e+00 -2.521077159361e+02 0.0 
0.0 0.0 -1.072694816362e+02 
-1.500938987099e+02 -3.407099356202e+00 0.0 
-3.407099356202e+00 -3.474912768339e+02 0.0 
0.0 0.0 -1.488755526631e+02 
-1.326503143658e+02 2.822548063327e+00 0.0 
2.822548063327e+00 -3.038599512733e+02 0.0 
0.0 0.0 -1.305530796918e+02 
-8.406874646246e+01 2.388119615465e+00 0.0 
2.388119615465e+00 -2.300164766134e+02 0.0 
0.0 0.0 -9.382556692277e+01 
-1.186048325036e+02 6.189938835557e+00 0.0 
6.189938835557e+00 -2.801675215036e+02 0.0 
0.0 0.0 -1.192317062022e+02 
-1.363743282482e+02 -9.499658036017e-01 0.0 
-9.499658036017e-01 -3.347327058043e+02 0.0 
0.0 0.0 -1.409321102158e+02 
-1.415567342305e+02 2.302229585168e+00 0.0 
2.302229585168e+00 -3.264638250524e+02 0.0 
0.0 0.0 -1.400061677848e+02 
-1.473187335694e+02 5.327554739134e+00 0.0 
5.327554739134e+00 -3.462195201030e+02 0.0 
0.0 0.0 -1.476614761017e+02 
-1.198391199158e+02 9.257110588447e-01 0.0 
9.257110588447e-01 -2.734711953810e+02 0.0 
0.0 0.0 -1.175930945890e+02 
-1.402433086961e+02 -2.713542787329e+00 0.0 
-2.713542787329e+00 -3.397493377098e+02 0.0 
0.0 0.0 -1.435977939218e+02 
-9.679528386849e+01 5.117249984955e-01 0.0 
5.117249984955e-01 -2.552958839948e+02 0.0 
0.0 0.0 -1.052273503590e+02 
-1.365846066824e+02 1.269266991004e-01 0.0 
1.269266991004e-01 -3.349645770262e+02 0.0 
0.0 0.0 -1.410647551126e+02 
-1.002641160599e+02 5.973187547103e+00 0.0 
5.973187547103e+00 -2.447745482124e+02 0.0 
0.0 0.0 -1.031115992817e+02 
-1.488996166759e+02 2.806595352506e+00 0.0 
2.806595352506e+00 -3.443256309800e+02 0.0 
0.0 0.0 -1.475675742968e+02 
-1.529344664776e+02 5.606081064895e+00 0.0 
5.606081064895e+00 -3.573139557829e+02 0.0 
0.0 0.0 -1.526745266782e+02 
-1.094110269191e+02 -1.145417179334e+00 0.0 
-1.145417179334e+00 -2.802027378838e+02 0.0 
0.0 0.0 -1.164841294409e+02 
-4.259949652942e+01 2.534426122812e-01 0.0 
2.534426122812e-01 -1.540580927153e+02 0.0 
0.0 0.0 -5.846206457321e+01 
-1.407412519978e+02 3.431583915179e+00 0.0 
3.431583915179e+00 -3.375375886826e+02 0.0 
0.0 0.0 -1.430836522041e+02 
-1.067318575928e+02 6.688343695402e+00 0.0 
6.688343695402e+00 -2.630179065779e+02 0.0 
0.0 0.0 -1.105249292512e+02 
-8.048021006673e+01 4.480749117888e+00 0.0 
4.480749117888e+00 -2.212811721412e+02 0.0 
0.0 0.0 -9.012841466239e+01 
-1.144499908916e+02 6.415728537231e-01 0.0 
6.415728537231e-01 -2.907421154214e+02 0.0 
0.0 0.0 -1.211576318939e+02 
-1.362813010157e+02 -2.114982676807e+00 0.0 
-2.114982676807e+00 -3.286067174298e+02 0.0 
0.0 0.0 -1.390664055337e+02 
-4.239657098321e+01 -3.724702756718e+00 0.0 
-3.724702756718e+00 -1.530076235845e+02 0.0 
0.0 0.0 -5.790389632339e+01 
-1.006276709243e+02 -1.201116177126e+00 0.0 
-1.201116177126e+00 -2.625654620026e+02 0.0 
0.0 0.0 -1.085579398781e+02 
-1.219387875597e+02 2.764427338998e+00 0.0 
2.764427338998e+00 -2.798025398768e+02 0.0 
0.0 0.0 -1.201223982309e+02 
-1.506882195907e+02 -1.692464259630e+00 0.0 
-1.692464259630e+00 -3.480871291163e+02 0.0 
0.0 0.0 -1.492326046121e+02 
-1.254842034084e+02 3.127938867216e+00 0.0 
3.127938867216e+00 -2.891058188833e+02 0.0 
0.0 0.0 -1.239770066875e+02 
-1.372488924367e+02 3.761166023882e+00 0.0 
3.761166023882e+00 -3.281183934578e+02 0.0 
0.0 0.0 -1.392101857684e+02 
-1.183337381477e+02 2.385723677806e+00 0.0 
2.385723677806e+00 -2.705642502944e+02 0.0 
0.0 0.0 -1.162693965326e+02 
-1.107554534974e+02 1.509676226190e+00 0.0 
1.509676226190e+00 -2.522072957611e+02 0.0 
0.0 0.0 -1.084888247776e+02 
-1.202867415778e+02 3.944014372177e+00 0.0 
3.944014372177e+00 -2.796442000877e+02 0.0 
0.0 0.0 -1.195792824997e+02 
-1.428134340253e+02 1.009434787384e+00 0.0 
1.009434787384e+00 -3.473051368519e+02 0.0 
0.0 0.0 -1.466355712632e+02 
-1.396490174462e+02 -2.619327484832e+00 0.0 
-2.619327484832e+00 -3.258682894958e+02 0.0 
0.0 0.0 -1.392551920826e+02 
-1.278706724814e+02 1.193325635827e+00 0.0 
1.193325635827e+00 -2.929805997444e+02 0.0 
0.0 0.0 -1.258553816677e+02 
-1.515977326330e+02 1.962925266289e+00 0.0 
1.962925266289e+00 -3.515377944178e+02 0.0 
0.0 0.0 -1.505406581152e+02 
-1.146799432273e+02 1.977136988643e+00 0.0 
1.977136988643e+00 -2.614246715443e+02 0.0 
0.0 0.0 -1.124313844315e+02 
-6.679754802215e+01 3.475689299628e+00 0.0 
3.475689299628e+00 -1.966213469614e+02 0.0 
0.0 0.0 -7.862566849505e+01 
-1.452867597570e+02 5.065873453493e+00 0.0 
5.065873453493e+00 -3.469610362270e+02 0.0 
0.0 0.0 -1.472743387952e+02 
-1.496301065180e+02 2.571413285938e+00 0.0 
2.571413285938e+00 -3.462098659146e+02 0.0 
0.0 0.0 -1.483519917298e+02 
-9.801193437063e+01 5.559801561960e+00 0.0 
5.559801561960e+00 -2.463382522312e+02 0.0 
0.0 0.0 -1.029050559806e+02 
-1.030742517041e+02 5.473037205469e+00 0.0 
5.473037205469e+00 -2.547300312619e+02 0.0 
0.0 0.0 -1.069412848898e+02 
-7.541240434849e+01 2.842566406228e+00 0.0 
2.842566406228e+00 -2.131252489480e+02 0.0 
0.0 0.0 -8.616129598896e+01 
-1.316235488890e+02 1.482286505003e+00 0.0 
1.482286505003e+00 -3.021178757189e+02 0.0 
0.0 0.0 -1.297224273824e+02 
-8.411837010579e+01 6.194771682701e+00 0.0 
6.194771682701e+00 -1.947035973048e+02 0.0 
0.0 0.0 -8.324659022319e+01 
-1.140591841019e+02 4.055890393627e+00 0.0 
4.055890393627e+00 -2.825508570028e+02 0.0 
0.0 0.0 -1.185830123314e+02 
-8.360793860896e+01 8.299084415291e+00 0.0 
8.299084415291e+00 -1.948963779734e+02 0.0 
0.0 0.0 -8.315129497471e+01 
-1.337032081940e+02 1.218027743264e+00 0.0 
1.218027743264e+00 -3.288581756060e+02 0.0 
0.0 0.0 -1.383684151400e+02 
-1.538446119779e+02 4.799190712316e+00 0.0 
4.799190712316e+00 -3.650733289514e+02 0.0 
0.0 0.0 -1.552753822788e+02 
-7.935916898947e+01 5.179177806580e-01 0.0 
5.179177806580e-01 -2.211795020874e+02 0.0 
0.0 0.0 -8.976160132306e+01 
-3.005681771938e+01 -6.495297529522e+00 0.0 
-6.495297529522e+00 -1.305793218634e+02 0.0 
0.0 0.0 -4.938468434976e+01 
-1.511780304284e+02 2.316105564715e+00 0.0 
2.316105564715e+00 -3.504972244446e+02 0.0 
0.0 0.0 -1.501025764619e+02 
-8.846089959981e+01 5.447961468642e+00 0.0 
5.447961468642e+00 -2.036822894007e+02 0.0 
0.0 0.0 -8.724295670016e+01 
-9.545175775974e+01 -5.218582386720e+00 0.0 
-5.218582386720e+00 -2.466620649358e+02 0.0 
0.0 0.0 -1.022341468087e+02 
-1.496197026072e+02 3.181523311821e+00 0.0 
3.181523311821e+00 -3.564138070454e+02 0.0 
0.0 0.0 -1.514100528958e+02 
-1.284417018570e+02 2.889939111898e+00 0.0 
2.889939111898e+00 -2.935122108538e+02 0.0 
0.0 0.0 -1.261861738132e+02 
-1.357318927299e+02 -2.901505138286e+00 0.0 
-2.901505138286e+00 -3.187329506924e+02 0.0 
0.0 0.0 -1.359394530267e+02 
-8.286085759673e+01 7.253379807919e+00 0.0 
7.253379807919e+00 -2.196764954422e+02 0.0 
0.0 0.0 -9.036120591167e+01 
-2.698169986948e+01 -4.490456451335e+00 0.0 
-4.490456451335e+00 -1.267313995385e+02 0.0 
0.0 0.0 -4.823244764871e+01 
-1.544149019847e+02 -1.282277770206e+00 0.0 
-1.282277770206e+00 -3.571049779429e+02 0.0 
0.0 0.0 -1.530559639783e+02 
-1.098535476322e+02 5.201459260163e+00 0.0 
5.201459260163e+00 -2.620671546941e+02 0.0 
0.0 0.0 -1.111762106979e+02 
-1.254360932343e+02 4.012776648588e+00 0.0 
4.012776648588e+00 -3.106683272305e+02 0.0 
0.0 0.0 -1.304313261394e+02 
-1.468886019239e+02 3.870070550013e+00 0.0 
3.870070550013e+00 -3.470082378304e+02 0.0 
0.0 0.0 -1.477690519263e+02 
-3.692799025324e+01 -1.879182478933e+00 0.0 
-1.879182478933e+00 -1.254209107422e+02 0.0 
0.0 0.0 -5.055814452334e+01 
-1.345813285069e+02 -4.430970184446e+00 0.0 
-4.430970184446e+00 -3.179066142167e+02 0.0 
0.0 0.0 -1.353463828171e+02 
-5.929656019116e+01 1.184301842493e+01 0.0 
1.184301842493e+01 -1.648398678606e+02 0.0 
0.0 0.0 -6.684092841552e+01 
-1.204934107425e+02 2.648290896956e+00 0.0 
2.648290896956e+00 -2.740283204942e+02 0.0 
0.0 0.0 -1.179565193710e+02 
-1.109409609435e+02 -4.088454890619e+00 0.0 
-4.088454890619e+00 -2.549400660957e+02 0.0 
0.0 0.0 -1.093643081118e+02 
-7.985417833980e+01 8.553126215951e-01 0.0 
8.553126215951e-01 -2.214689905436e+02 0.0 
0.0 0.0 -8.999695066503e+01 
-1.470615492290e+02 -2.045084787810e+00 0.0 
-2.045084787810e+00 -3.403735182532e+02 0.0 
0.0 0.0 -1.458305202447e+02 
-1.109984116112e+02 4.762620059592e+00 0.0 
4.762620059592e+00 -2.730349256516e+02 0.0 
0.0 0.0 -1.148100011789e+02 
-7.147548857758e+01 1.384579606697e+00 0.0 
1.384579606697e+00 -2.052998392436e+02 0.0 
0.0 0.0 -8.263259834635e+01 
-1.138063425805e+02 6.517197402603e+00 0.0 
6.517197402603e+00 -2.710397180407e+02 0.0 
0.0 0.0 -1.150538181864e+02 
-3.202909379999e+01 -1.815331589602e+01 0.0 
-1.815331589602e+01 -1.237641003146e+02 0.0 
0.0 0.0 -4.784630486753e+01 
-1.299135037359e+02 5.797500798826e+00 0.0 
5.797500798826e+00 -3.089510735547e+02 0.0 
0.0 0.0 -1.312593731872e+02 
-1.333218535938e+02 2.341048376558e+00 0.0 
2.341048376558e+00 -3.289372377510e+02 0.0 
0.0 0.0 -1.382777274034e+02 
-1.560001769532e+02 5.221523357859e+00 0.0 
5.221523357859e+00 -3.640971240190e+02 0.0 
0.0 0.0 -1.556291902917e+02 
-1.382073706642e+02 5.562988376280e+00 0.0 
5.562988376280e+00 -3.279774366594e+02 0.0 
0.0 0.0 -1.394554421971e+02 
-5.349359177188e+01 1.120568119156e+00 0.0 
1.120568119156e+00 -1.738458119936e+02 0.0 
0.0 0.0 -6.780182112965e+01 
-1.353155845226e+02 -2.658946256867e+00 0.0 
-2.658946256867e+00 -3.136091745487e+02 0.0 
0.0 0.0 -1.342774277214e+02 
-1.528583906297e+02 1.144207204755e+00 0.0 
1.144207204755e+00 -3.545361837296e+02 0.0 
0.0 0.0 -1.518183723078e+02 
-1.620000480384e+02 3.317496403356e+00 0.0 
3.317496403356e+00 -3.848251169038e+02 0.0 
0.0 0.0 -1.636475494827e+02 
-1.384995263830e+02 2.941467676998e+00 0.0 
2.941467676998e+00 -3.387993025050e+02 0.0 
0.0 0.0 -1.427896486664e+02 
-8.573492492837e+01 5.589726157066e+00 0.0 
5.589726157066e+00 -2.293926600344e+02 0.0 
0.0 0.0 -9.413827548883e+01 
-1.217704753556e+02 6.129386320763e+00 0.0 
6.129386320763e+00 -2.899620006209e+02 0.0 
0.0 0.0 -1.231197427929e+02 
-1.488801567593e+02 -2.719307415425e+00 0.0 
-2.719307415425e+00 -3.429262937922e+02 0.0 
0.0 0.0 -1.471419351654e+02 
-1.042802967403e+02 -4.143089653797e-01 0.0 
-4.143089653797e-01 -2.294859379652e+02 0.0 
0.0 0.0 -9.972987041165e+01 
-1.338132013622e+02 4.032195015152e+00 0.0 
4.032195015152e+00 -3.185079483115e+02 0.0 
0.0 0.0 -1.352963449021e+02 
-1.240454716642e+02 8.536990951974e-01 0.0 
8.536990951974e-01 -2.837504833700e+02 0.0 
0.0 0.0 -1.219387865103e+02 
-1.434028006496e+02 -2.348195437626e+00 0.0 
-2.348195437626e+00 -3.329845505407e+02 0.0 
0.0 0.0 -1.425162053571e+02 
-1.400801172808e+02 -2.691994247577e+00 0.0 
-2.691994247577e+00 -3.308502624757e+02 0.0 
0.0 0.0 -1.408791139270e+02 
-8.958131126540e+01 8.321935241300e-02 0.0 
8.321935241300e-02 -2.039702682669e+02 0.0 
0.0 0.0 -8.766547385969e+01 
-8.955085171146e+01 -1.090378123455e-01 0.0 
-1.090378123455e-01 -2.038917519132e+02 0.0 
0.0 0.0 -8.763278108741e+01 
-1.266800242276e+02 4.382744772041e+00 0.0 
4.382744772041e+00 -2.903519459477e+02 0.0 
0.0 0.0 -1.247095910526e+02 
-1.256827399927e+02 4.351841546995e+00 0.0 
4.351841546995e+00 -2.996531717569e+02 0.0 
0.0 0.0 -1.272007735249e+02 
-1.148272273420e+02 -3.441000636888e+00 0.0 
-3.441000636888e+00 -2.620546293486e+02 0.0 
0.0 0.0 -1.126645570072e+02 
-1.246475930118e+02 5.428669774103e+00 0.0 
5.428669774103e+00 -2.893868560799e+02 0.0 
0.0 0.0 -1.238103347275e+02 
-1.059334096074e+02 4.749867771865e+00 0.0 
4.749867771865e+00 -2.643679126484e+02 0.0 
0.0 0.0 -1.106903966767e+02 
-1.492381606215e+02 -1.212494607102e+00 0.0 
-1.212494607102e+00 -3.598726744341e+02 0.0 
0.0 0.0 -1.523332505167e+02 
-8.762565195602e+01 5.093166714159e+00 0.0 
5.093166714159e+00 -2.300880397428e+02 0.0 
0.0 0.0 -9.491410750964e+01 
-1.659444031832e+02 3.041561497950e+00 0.0 
3.041561497950e+00 -3.872045666946e+02 0.0 
0.0 0.0 -1.655446909634e+02 
-1.034041752180e+02 1.457353416632e+00 0.0 
1.457353416632e+00 -2.336271868654e+02 0.0 
0.0 0.0 -1.007094086250e+02 
-1.015743509183e+02 6.746064547674e+00 0.0 
6.746064547674e+00 -2.543727064380e+02 0.0 
0.0 0.0 -1.063841172069e+02 
-1.094258202696e+02 -5.877776534854e+00 0.0 
-5.877776534854e+00 -2.538854126345e+02 0.0 
0.0 0.0 -1.085933698713e+02 
-4.973705012840e+01 5.657091618299e+00 0.0 
5.657091618299e+00 -1.650133366201e+02 0.0 
0.0 0.0 -6.402511602454e+01 
-9.888924987362e+01 -5.426814792945e+00 0.0 
-5.426814792945e+00 -2.284010072362e+02 0.0 
0.0 0.0 -9.778707713293e+01 
-1.176851338592e+02 4.746908461481e+00 0.0 
4.746908461481e+00 -2.808426625450e+02 0.0 
0.0 0.0 -1.191583389213e+02 
-1.113412769778e+02 4.724357093704e+00 0.0 
4.724357093704e+00 -2.611295951411e+02 0.0 
0.0 0.0 -1.113412616357e+02 
-1.236807547411e+02 1.262213854311e+00 0.0 
1.262213854311e+00 -2.827195085134e+02 0.0 
0.0 0.0 -1.215200789763e+02 
-1.281217657806e+02 3.851995345507e+00 0.0 
3.851995345507e+00 -2.986827391544e+02 0.0 
0.0 0.0 -1.276413514805e+02 
-1.324642694908e+02 5.364174456701e+00 0.0 
5.364174456701e+00 -3.083216312152e+02 0.0 
0.0 0.0 -1.318357702118e+02 
-2.328885840591e+01 2.831456960167e-01 0.0 
2.831456960167e-01 -5.860572151385e+01 0.0 
0.0 0.0 -2.416837397593e+01 
-9.319378846815e+01 -7.146925942499e+00 0.0 
-7.146925942499e+00 -2.143253222995e+02 0.0 
0.0 0.0 -9.185573323031e+01 
-8.809121275036e+01 7.527048622329e+00 0.0 
7.527048622329e+00 -2.038717219262e+02 0.0 
0.0 0.0 -8.718888040298e+01 
-1.211730593761e+02 3.371158950091e+00 0.0 
3.371158950091e+00 -2.794806516113e+02 0.0 
0.0 0.0 -1.197961132962e+02 
-1.257627613895e+02 4.895780366558e+00 0.0 
4.895780366558e+00 -2.897268943590e+02 0.0 
0.0 0.0 -1.242468967246e+02 
-1.464924350706e+02 4.186013617800e-01 0.0 
4.186013617800e-01 -3.549326491701e+02 0.0 
0.0 0.0 -1.500275252722e+02 
-3.983040551244e+01 -1.185146225937e+00 0.0 
-1.185146225937e+00 -8.864183208130e+01 0.0 
0.0 0.0 -3.814167127812e+01 
-4.061120264261e+01 -9.881474554549e+00 0.0 
-9.881474554549e+00 -1.440292165110e+02 0.0 
0.0 0.0 -5.540877904577e+01 
-1.051043079005e+02 5.596174852382e+00 0.0 
5.596174852382e+00 -2.533271549039e+02 0.0 
0.0 0.0 -1.071294388413e+02 
-9.472592017151e+01 -5.168472033498e+00 0.0 
-5.168472033498e+00 -2.154020047488e+02 0.0 
0.0 0.0 -9.263837747609e+01 
-8.439602452500e+01 2.918979607594e+00 0.0 
2.918979607594e+00 -1.880026959791e+02 0.0 
0.0 0.0 -8.131961615123e+01 
-8.858745354826e+01 2.543265797411e+00 0.0 
2.543265797411e+00 -1.978735326988e+02 0.0 
0.0 0.0 -8.553829587411e+01 
-1.242699186629e+02 2.949697827003e+00 0.0 
2.949697827003e+00 -2.832534778163e+02 0.0 
0.0 0.0 -1.218570189438e+02 
-4.162587043541e+01 1.586119861800e+01 0.0 
1.586119861800e+01 -1.239893571369e+02 0.0 
0.0 0.0 -4.918161375483e+01 
-1.053838286812e+02 -5.782040408794e+00 0.0 
-5.782040408794e+00 -2.413858077475e+02 0.0 
0.0 0.0 -1.036308909286e+02 
-1.318206913031e+02 -6.925946341911e-01 0.0 
-6.925946341911e-01 -3.242303244398e+02 0.0 
0.0 0.0 -1.364153047229e+02 
-3.838525913561e+01 -5.414110951645e+00 0.0 
-5.414110951645e+00 -1.442103104179e+02 0.0 
0.0 0.0 -5.548356815453e+01 
-1.628699676679e+02 4.561130948079e+00 0.0 
4.561130948079e+00 -3.827698429041e+02 0.0 
0.0 0.0 -1.632919431716e+02 
-1.446286726652e+02 2.859212863132e+00 0.0 
2.859212863132e+00 -3.335591968002e+02 0.0 
0.0 0.0 -1.430563608396e+02 
-1.023787875399e+02 -3.522515811057e+00 0.0 
-3.522515811057e+00 -2.297887215902e+02 0.0 
0.0 0.0 -9.925025273906e+01 
-1.381456856345e+02 -3.941237040113e+00 0.0 
-3.941237040113e+00 -3.201571841428e+02 0.0 
0.0 0.0 -1.370908609332e+02 
-1.698973765192e+01 1.104404212337e-02 0.0 
1.104404212337e-02 -4.240631330752e+01 0.0 
0.0 0.0 -1.741881528783e+01 
-1.272528524999e+02 -1.532616963345e+00 0.0 
-1.532616963345e+00 -3.132877979806e+02 0.0 
0.0 0.0 -1.317621951441e+02 
-1.088943581816e+02 6.847093430482e+00 0.0 
6.847093430482e+00 -2.620046889815e+02 0.0 
0.0 0.0 -1.108697141489e+02 
-1.665747116714e+01 -6.673153483748e-02 0.0 
-6.673153483748e-02 -4.223491179005e+01 0.0 
0.0 0.0 -1.726771488716e+01 
-1.441440044972e+02 1.316951505666e+00 0.0 
1.316951505666e+00 -3.331559280491e+02 0.0 
0.0 0.0 -1.427899797639e+02 
-3.561729595765e+01 -4.498609164808e+00 0.0 
-4.498609164808e+00 -1.405783801948e+02 0.0 
0.0 0.0 -5.365257704717e+01 
-1.213044664878e+02 5.156979551290e+00 0.0 
5.156979551290e+00 -2.799270814343e+02 0.0 
0.0 0.0 -1.199694643766e+02 
-1.107924202034e+02 6.516321025252e+00 0.0 
6.516321025252e+00 -2.612419060873e+02 0.0 
0.0 0.0 -1.112102978872e+02 
-9.272430990761e+01 -4.002317591587e+00 0.0 
-4.002317591587e+00 -2.414549588517e+02 0.0 
0.0 0.0 -9.985378062779e+01 
-1.129712280313e+02 -5.263782887820e+00 0.0 
-5.263782887820e+00 -2.778516620676e+02 0.0 
0.0 0.0 -1.168468670297e+02 
-1.477231861662e+02 1.620853863977e+00 0.0 
1.620853863977e+00 -3.421031265264e+02 0.0 
0.0 0.0 -1.465478938078e+02 
-1.217433130903e+02 -4.605502033068e+00 0.0 
-4.605502033068e+00 -2.968448514704e+02 0.0 
0.0 0.0 -1.251764493682e+02 
-1.080261583254e+02 5.283387316297e+00 0.0 
5.283387316297e+00 -2.632617352445e+02 0.0 
0.0 0.0 -1.109863680710e+02 
-1.038993929125e+02 7.163226566794e+00 0.0 
7.163226566794e+00 -2.531467114903e+02 0.0 
0.0 0.0 -1.067138313208e+02 
-2.555039951872e+01 1.148933942579e+01 0.0 
1.148933942579e+01 -3.558158396912e+01 0.0 
0.0 0.0 -1.780807463496e+01 
-3.196403702812e+01 -5.233368006931e+00 0.0 
-5.233368006931e+00 -1.337424125142e+02 0.0 
0.0 0.0 -5.104160846571e+01 
-1.415739826356e+02 5.286895671776e+00 0.0 
5.286895671776e+00 -3.373117343857e+02 0.0 
0.0 0.0 -1.432657151064e+02 
-1.157769450856e+02 3.307164976575e+00 0.0 
3.307164976575e+00 -2.629035658168e+02 0.0 
0.0 0.0 -1.132041532707e+02 
-1.454392359522e+02 3.619982302130e+00 0.0 
3.619982302130e+00 -3.466491519442e+02 0.0 
0.0 0.0 -1.472265163689e+02 
-6.303204506713e+01 1.103786055446e+01 0.0 
1.103786055446e+01 -1.662486255782e+02 0.0 
0.0 0.0 -6.838420119361e+01 
-1.384994458520e+02 2.567628158363e+00 0.0 
2.567628158363e+00 -3.195999983789e+02 0.0 
0.0 0.0 -1.370298332693e+02 
-1.466104421126e+02 5.402079820055e+00 0.0 
5.402079820055e+00 -3.470488471889e+02 0.0 
0.0 0.0 -1.476977867905e+02 
-9.162627945818e+01 1.236939932493e+00 0.0 
1.236939932493e+00 -2.054219393161e+02 0.0 
0.0 0.0 -8.871446563228e+01 
-1.419649144472e+02 3.860468265434e+00 0.0 
3.860468265434e+00 -3.371205728726e+02 0.0 
0.0 0.0 -1.433256461959e+02 
-1.390766275280e+02 -2.270783063298e+00 0.0 
-2.270783063298e+00 -3.209298758902e+02 0.0 
0.0 0.0 -1.376019510255e+02 
-1.208287813858e+02 4.517620418991e+00 0.0 
4.517620418991e+00 -2.905757219979e+02 0.0 
0.0 0.0 -1.230213510151e+02 
-1.012825689384e+02 -6.514140352703e+00 0.0 
-6.514140352703e+00 -2.341810589270e+02 0.0 
0.0 0.0 -1.002390883596e+02 
-1.069660132303e+02 -4.757470803060e+00 0.0 
-4.757470803060e+00 -2.480100274840e+02 0.0 
0.0 0.0 -1.060928122143e+02 
-1.519722228970e+02 4.080582766248e+00 0.0 
4.080582766248e+00 -3.515955341303e+02 0.0 
0.0 0.0 -1.506703271082e+02 
-1.043681894373e+02 -6.030454525969e+00 0.0 
-6.030454525969e+00 -2.590794995596e+02 0.0 
0.0 0.0 -1.086343066991e+02 
-1.145400310225e+02 4.815421063924e+00 0.0 
4.815421063924e+00 -2.710186488017e+02 0.0 
0.0 0.0 -1.152676039473e+02 
-1.039575388235e+02 3.428560368154e+00 0.0 
3.428560368154e+00 -2.653402272114e+02 0.0 
0.0 0.0 -1.103893298105e+02 
-1.306435056457e+02 -4.036054887726e+00 0.0 
-4.036054887726e+00 -3.159923495634e+02 0.0 
0.0 0.0 -1.335907565627e+02 
-9.631062879869e+01 6.624376335363e+00 0.0 
6.624376335363e+00 -2.458388769913e+02 0.0 
0.0 0.0 -1.022448517370e+02 
-5.792540511105e+01 -8.298415350301e-01 0.0 
-8.298415350301e-01 -1.810963527126e+02 0.0 
0.0 0.0 -7.130652734709e+01 
-1.045248966936e+02 -2.385071827421e+00 0.0 
-2.385071827421e+00 -2.694594589110e+02 0.0 
0.0 0.0 -1.117953066814e+02 
-6.324138314071e+01 2.129946300222e+00 0.0 
2.129946300222e+00 -1.897577220504e+02 0.0 
0.0 0.0 -7.549973155735e+01 
-1.246443813104e+02 3.644772464280e+00 0.0 
3.644772464280e+00 -2.890213198033e+02 0.0 
0.0 0.0 -1.236997103341e+02 
-6.212602888591e+01 7.936717234252e-01 0.0 
7.936717234252e-01 -1.889879224260e+02 0.0 
0.0 0.0 -7.493418539358e+01 
-1.201187099471e+02 5.759061450607e+00 0.0 
5.759061450607e+00 -2.799256200221e+02 0.0 
0.0 0.0 -1.196132989908e+02 
-1.424552549742e+02 2.242078693560e+00 0.0 
2.242078693560e+00 -3.474249838865e+02 0.0 
0.0 0.0 -1.465640716582e+02 
-1.374870796539e+02 4.772548476312e-01 0.0 
4.772548476312e-01 -3.370783499083e+02 0.0 
0.0 0.0 -1.419696288687e+02 
-9.287002641698e+01 5.459140941219e+00 0.0 
5.459140941219e+00 -2.381588974217e+02 0.0 
0.0 0.0 -9.890867715160e+01 
-1.195307074881e+02 1.317627264091e+00 0.0 
1.317627264091e+00 -2.725447271648e+02 0.0 
0.0 0.0 -1.172226303959e+02 
-1.419545687648e+02 -3.568727550456e+00 0.0 
-3.568727550456e+00 -3.277116808947e+02 0.0 
0.0 0.0 -1.404998748979e+02 
-1.427435719293e+02 -1.879141867244e+00 0.0 
-1.879141867244e+00 -3.284344241573e+02 0.0 
0.0 0.0 -1.409533988260e+02 
-4.008673200802e+01 1.890295073866e+01 0.0 
1.890295073866e+01 -1.051735264254e+02 0.0 
0.0 0.0 -4.266084551647e+01 
-1.236307699621e+02 4.128606064012e+00 0.0 
4.128606064012e+00 -2.892794563547e+02 0.0 
0.0 0.0 -1.234730678950e+02 
-1.541509720739e+02 -3.290863321238e+00 0.0 
-3.290863321238e+00 -3.563386769984e+02 0.0 
0.0 0.0 -1.527468947217e+02 
-7.002697513819e+01 4.407440048508e+00 0.0 
4.407440048508e+00 -1.553999074930e+02 0.0 
0.0 0.0 -6.722806478936e+01 
-1.104855328806e+02 -3.169445976214e+00 0.0 
-3.169445976214e+00 -2.495645169090e+02 0.0 
0.0 0.0 -1.076150149369e+02 
-3.768798648890e+01 1.541392735661e+01 0.0 
1.541392735661e+01 -4.851399541010e+01 0.0 
0.0 0.0 -2.471073777991e+01 
-1.456362199053e+02 -3.181197950150e+00 0.0 
-3.181197950150e+00 -3.354068316144e+02 0.0 
0.0 0.0 -1.439129154559e+02 
-5.524432079704e+01 3.202580641071e+00 0.0 
3.202580641071e+00 -1.750478386227e+02 0.0 
0.0 0.0 -6.868764782593e+01 
-1.068609884575e+02 -1.651551133044e+00 0.0 
-1.651551133044e+00 -2.353503055405e+02 0.0 
0.0 0.0 -1.022633881994e+02 
-1.261499510142e+02 2.695490982549e+00 0.0 
2.695490982549e+00 -3.107471347288e+02 0.0 
0.0 0.0 -1.306691257229e+02 
-1.201359681444e+02 3.052704859808e+00 0.0 
3.052704859808e+00 -2.731244944865e+02 0.0 
0.0 0.0 -1.175781387893e+02 
-1.155121645656e+02 1.494212726305e+00 0.0 
1.494212726305e+00 -2.624531252258e+02 0.0 
0.0 0.0 -1.129895869374e+02 
-1.128910744887e+02 5.026520173897e+00 0.0 
5.026520173897e+00 -2.719642156223e+02 0.0 
0.0 0.0 -1.150565870333e+02 
-7.627941264235e+01 3.335460883331e+00 0.0 
3.335460883331e+00 -1.686410103862e+02 0.0 
0.0 0.0 -7.307612690858e+01 
-8.046774715472e+01 2.896971168492e+00 0.0 
2.896971168492e+00 -1.784680466384e+02 0.0 
0.0 0.0 -7.728073813795e+01 
-1.462658463049e+02 -1.517590209209e+00 0.0 
-1.517590209209e+00 -3.360644336262e+02 0.0 
0.0 0.0 -1.442990839793e+02 
-1.186944733510e+02 -3.232331452425e+00 0.0 
-3.232331452425e+00 -2.905737120823e+02 0.0 
0.0 0.0 -1.223804556300e+02 
-1.011842421856e+02 -3.251772536517e+00 0.0 
-3.251772536517e+00 -2.589710427062e+02 0.0 
0.0 0.0 -1.076465854676e+02 
-1.264413716933e+02 -2.618726558459e+00 0.0 
-2.618726558459e+00 -3.127489350512e+02 0.0 
0.0 0.0 -1.313570920234e+02 
-9.578559171086e+01 -2.664890416169e+00 0.0 
-2.664890416169e+00 -2.519348959620e+02 0.0 
0.0 0.0 -1.039161463019e+02 
-5.822658324153e+01 4.362550801163e+00 0.0 
4.362550801163e+00 -1.805782506875e+02 0.0 
0.0 0.0 -7.124145017870e+01 
-7.575297047692e+01 1.410641068883e+00 0.0 
1.410641068883e+00 -1.677891973489e+02 0.0 
0.0 0.0 -7.266265034773e+01 
-1.077887163233e+02 2.899416811518e+00 0.0 
2.899416811518e+00 -2.438968827619e+02 0.0 
0.0 0.0 -1.051056797255e+02 
-8.958051872430e+01 1.007663316164e-02 0.0 
1.007663316164e-02 -2.041209622697e+02 0.0 
0.0 0.0 -8.771044429819e+01 
-1.372795459047e+02 1.573871423909e+00 0.0 
1.573871423909e+00 -3.372126384325e+02 0.0 
0.0 0.0 -1.419476553012e+02 
-9.103124837779e+01 6.265519927178e+00 0.0 
6.265519927178e+00 -2.375460709119e+02 0.0 
0.0 0.0 -9.817319578692e+01 
-1.572726517409e+02 1.492963668592e+00 0.0 
1.492963668592e+00 -3.754444892764e+02 0.0 
0.0 0.0 -1.594151423052e+02 
-1.443809855853e+02 -1.912717398898e+00 0.0 
-1.912717398898e+00 -3.289915362548e+02 0.0 
0.0 0.0 -1.416117565520e+02 
-1.010089307260e+02 -8.119694670772e-01 0.0 
-8.119694670772e-01 -2.628147475483e+02 0.0 
0.0 0.0 -1.087471034823e+02 
-1.586244114428e+02 -1.602366130704e+00 0.0 
-1.602366130704e+00 -3.685245342618e+02 0.0 
0.0 0.0 -1.577446837114e+02 
-6.664919152844e+01 -2.175204369786e+00 0.0 
-2.175204369786e+00 -1.961141308898e+02 0.0 
0.0 0.0 -7.842899672548e+01 
-1.528166707703e+02 2.064458405104e+00 0.0 
2.064458405104e+00 -3.663994977356e+02 0.0 
0.0 0.0 -1.553648505518e+02 
-1.118212145587e+02 6.546935812805e+00 0.0 
6.546935812805e+00 -2.718382668304e+02 0.0 
0.0 0.0 -1.146978444167e+02 
-1.239814509452e+02 4.150993442064e+00 0.0 
4.150993442064e+00 -3.001168289971e+02 0.0 
0.0 0.0 -1.268294839827e+02 
-1.455087666021e+02 -8.789742775957e-01 0.0 
-8.789742775957e-01 -3.510805897494e+02 0.0 
0.0 0.0 -1.485768069055e+02 
-7.923779845687e+01 -7.847874463453e+00 0.0 
-7.847874463453e+00 -1.828317214269e+02 0.0 
0.0 0.0 -7.822085596514e+01 
-1.191291734248e+02 4.450329938565e+00 0.0 
4.450329938565e+00 -2.801070390019e+02 0.0 
0.0 0.0 -1.193708637280e+02 
-9.672163913779e+01 -2.372427053611e+00 0.0 
-2.372427053611e+00 -2.523954162689e+02 0.0 
0.0 0.0 -1.043351166220e+02 
-1.154630484231e+02 6.111919707266e+00 0.0 
6.111919707266e+00 -2.704636879665e+02 0.0 
0.0 0.0 -1.153780209169e+02 
-6.485603312695e+01 1.156892565064e+01 0.0 
1.156892565064e+01 -1.711545570455e+02 0.0 
0.0 0.0 -7.040317705173e+01 
-1.273329889298e+02 3.596075664790e+00 0.0 
3.596075664790e+00 -3.097693498926e+02 0.0 
0.0 0.0 -1.307307016467e+02 
-9.118587823040e+01 -4.306235053866e+00 0.0 
-4.306235053866e+00 -2.407340880077e+02 0.0 
0.0 0.0 -9.917598987143e+01 
-1.134999069533e+02 -5.251120272805e+00 0.0 
-5.251120272805e+00 -2.610629035071e+02 0.0 
0.0 0.0 -1.119688431381e+02 
-1.158204903649e+02 4.313062804586e+00 0.0 
4.313062804586e+00 -2.702715862361e+02 0.0 
0.0 0.0 -1.154276229803e+02 
-3.951471287630e+01 2.787554005598e+01 0.0 
2.787554005598e+01 -6.468903309107e+01 0.0 
0.0 0.0 -3.098819420724e+01 
-1.124581845142e+02 2.805954334989e+00 0.0 
2.805954334989e+00 -2.834302134114e+02 0.0 
0.0 0.0 -1.183665193777e+02 
-4.185622585129e+01 1.749090178946e+01 0.0 
1.749090178946e+01 -7.111593289559e+01 0.0 
0.0 0.0 -3.196587323877e+01 
-2.907894589075e+01 -2.408645825254e+00 0.0 
-2.408645825254e+00 -6.341080464816e+01 0.0 
0.0 0.0 -2.734692516167e+01 
-1.093125557163e+02 -5.062661331479e+00 0.0 
-5.062661331479e+00 -2.485939555446e+02 0.0 
0.0 0.0 -1.069719533783e+02 
-1.394485336221e+02 5.575788697117e+00 0.0 
5.575788697117e+00 -3.276381892763e+02 0.0 
0.0 0.0 -1.397260168695e+02 
-1.189594846347e+02 1.839676636836e+00 0.0 
1.839676636836e+00 -2.712143575468e+02 0.0 
0.0 0.0 -1.166521526545e+02 
-6.836819496238e+01 4.052871308997e+00 0.0 
4.052871308997e+00 -1.496285648469e+02 0.0 
0.0 0.0 -6.499902794279e+01 
-1.655102224116e+02 2.884615779253e+00 0.0 
2.884615779253e+00 -3.875238522938e+02 0.0 
0.0 0.0 -1.655102224116e+02 
-2.833795432924e+01 1.724821385177e+01 0.0 
1.724821385177e+01 -3.402871403713e+01 0.0 
0.0 0.0 -1.903078074395e+01 
-7.237776644952e+01 3.383278439983e+00 0.0 
3.383278439983e+00 -1.592185558865e+02 0.0 
0.0 0.0 -6.907889670079e+01 
-1.040582926312e+02 -4.534618397702e+00 0.0 
-4.534618397702e+00 -2.645198856815e+02 0.0 
0.0 0.0 -1.101734534938e+02 
-1.061053274835e+02 -2.764344159657e+00 0.0 
-2.764344159657e+00 -2.372700678641e+02 0.0 
0.0 0.0 -1.026126186043e+02 
-8.738300859584e+01 4.246601566631e+00 0.0 
4.246601566631e+00 -1.953305422616e+02 0.0 
0.0 0.0 -8.441406525724e+01 
-7.021961436792e+01 -8.008180105080e+00 0.0 
-8.008180105080e+00 -1.946459403587e+02 0.0 
0.0 0.0 -7.905966641797e+01 
-1.101364946277e+02 -4.009871735559e+00 0.0 
-4.009871735559e+00 -2.719180082077e+02 0.0 
0.0 0.0 -1.142163508506e+02 
-1.168357170381e+02 6.353296085696e+00 0.0 
6.353296085696e+00 -2.808271355977e+02 0.0 
0.0 0.0 -1.188988557907e+02 
-1.211497930417e+02 2.344966759634e+00 0.0 
2.344966759634e+00 -3.017856587507e+02 0.0 
0.0 0.0 -1.264806355377e+02 
-1.445289950863e+02 3.476761496080e+00 0.0 
3.476761496080e+00 -3.367890385276e+02 0.0 
0.0 0.0 -1.439954100842e+02 
-4.404946226948e+01 1.977982193662e+01 0.0 
1.977982193662e+01 -1.271315381669e+02 0.0 
0.0 0.0 -5.155592355759e+01 
-1.012349991335e+02 -5.517694778002e+00 0.0 
-5.517694778002e+00 -2.288622656764e+02 0.0 
0.0 0.0 -9.862917944295e+01 
-1.089861231274e+02 -4.052363900082e+00 0.0 
-4.052363900082e+00 -2.441653155540e+02 0.0 
0.0 0.0 -1.055454316044e+02 
-6.190038279163e+01 -6.070125178918e+00 0.0 
-6.070125178918e+00 -1.338210349121e+02 0.0 
0.0 0.0 -5.831642531111e+01 
-9.553899026430e+01 9.172170378949e-01 0.0 
9.172170378949e-01 -2.150857734674e+02 0.0 
0.0 0.0 -9.278742911950e+01 
-1.193989670617e+02 3.617931053948e+00 0.0 
3.617931053948e+00 -2.717578476261e+02 0.0 
0.0 0.0 -1.169470444063e+02 
-1.328815038848e+02 4.718843569651e-01 0.0 
4.718843569651e-01 -2.992230122208e+02 0.0 
0.0 0.0 -1.292313548317e+02 
-1.448881563931e+01 -1.418422626304e-01 0.0 
-1.418422626304e-01 -4.205138443141e+01 0.0 
0.0 0.0 -1.656206002121e+01 
-4.412510139349e+01 -7.235984427766e+00 0.0 
-7.235984427766e+00 -1.198903039318e+02 0.0 
0.0 0.0 -5.058301290640e+01 
-4.440840971815e+01 -4.720731324664e+00 0.0 
-4.720731324664e+00 -9.212577198184e+01 0.0 
0.0 0.0 -4.056025451000e+01 
-1.098167066863e+02 -2.068991831678e+00 0.0 
-2.068991831678e+00 -2.449810490910e+02 0.0 
0.0 0.0 -1.060393267332e+02 
-7.513021302498e+01 -1.794722535324e+00 0.0 
-1.794722535324e+00 -2.120303629340e+02 0.0 
0.0 0.0 -8.574817278769e+01 
-6.836968696681e+01 -7.196292318667e+00 0.0 
-7.196292318667e+00 -1.914418601659e+02 0.0 
0.0 0.0 -7.754346413983e+01 
-5.822075016430e+01 -2.650464107801e+00 0.0 
-2.650464107801e+00 -1.808317636009e+02 0.0 
0.0 0.0 -7.131575412956e+01 
-1.131958286838e+02 -4.387968695656e+00 0.0 
-4.387968695656e+00 -2.560942609293e+02 0.0 
0.0 0.0 -1.103870268839e+02 
-1.261995478050e+02 2.534019326334e+00 0.0 
2.534019326334e+00 -2.896330457873e+02 0.0 
0.0 0.0 -1.243497780777e+02 
-1.127712461130e+02 -3.387417742069e+00 0.0 
-3.387417742069e+00 -2.521122440059e+02 0.0 
0.0 0.0 -1.090650470357e+02 
-7.478080785400e+01 -1.169232716732e+00 0.0 
-1.169232716732e+00 -2.120289556873e+02 0.0 
0.0 0.0 -8.564292906238e+01 
-1.233337112726e+02 5.916749747283e+00 0.0 
5.916749747283e+00 -2.894862088415e+02 0.0 
0.0 0.0 -1.234459760342e+02 
-1.038356246704e+02 2.333348731138e-01 0.0 
2.333348731138e-01 -2.352979106242e+02 0.0 
0.0 0.0 -1.013400605884e+02 
-1.352109698617e+02 2.350238677196e+00 0.0 
2.350238677196e+00 -3.297629431689e+02 0.0 
0.0 0.0 -1.390921739092e+02 
-1.134985950355e+02 -1.406821505916e+00 0.0 
-1.406821505916e+00 -2.528943424229e+02 0.0 
0.0 0.0 -1.095178812375e+02 
-1.142016511529e+02 -2.487312749377e+00 0.0 
-2.487312749377e+00 -2.569963858393e+02 0.0 
0.0 0.0 -1.109594110977e+02 
-6.051326580792e+01 4.996756341878e+00 0.0 
4.996756341878e+00 -1.301674062138e+02 0.0 
0.0 0.0 -5.680420160652e+01 
-7.971260308443e+01 -3.641940423564e+00 0.0 
-3.641940423564e+00 -2.184096699500e+02 0.0 
0.0 0.0 -8.903668191033e+01 
-1.164732811809e+02 -2.732361341013e+00 0.0 
-2.732361341013e+00 -2.601119134965e+02 0.0 
0.0 0.0 -1.125755584032e+02 
-1.196129509219e+02 -6.182011134557e-01 0.0 
-6.182011134557e-01 -2.749621220910e+02 0.0 
0.0 0.0 -1.179725219039e+02 
-1.119424223750e+02 -6.825992716225e-01 0.0 
-6.825992716225e-01 -2.567934308952e+02 0.0 
0.0 0.0 -1.102207559811e+02 
-6.453373199083e+01 4.303660334954e+00 0.0 
4.303660334954e+00 -1.401734502524e+02 0.0 
0.0 0.0 -6.101215467296e+01 
-1.170350175996e+02 -3.753593724223e+00 0.0 
-3.753593724223e+00 -2.638462500215e+02 0.0 
0.0 0.0 -1.138643802863e+02 
-7.046724044558e+01 -9.915747919418e+00 0.0 
-9.915747919418e+00 -1.829640492743e+02 0.0 
0.0 0.0 -7.562938691595e+01 
-4.571880521373e+01 1.453348774538e+01 0.0 
1.453348774538e+01 -9.322790571989e+01 0.0 
0.0 0.0 -3.945618963930e+01 
-1.529066547017e+02 3.346048463280e+00 0.0 
3.346048463280e+00 -3.668530390909e+02 0.0 
0.0 0.0 -1.555279081378e+02 
-4.450713586178e+01 -9.021890246941e+00 0.0 
-9.021890246941e+00 -8.555034624546e+01 0.0 
0.0 0.0 -3.856877302066e+01 
-7.153429837078e+01 -1.038461643059e+01 0.0 
-1.038461643059e+01 -1.855644949396e+02 0.0 
0.0 0.0 -7.672963799311e+01 
-1.078658127847e+02 4.858351663146e+00 0.0 
4.858351663146e+00 -2.736731367234e+02 0.0 
0.0 0.0 -1.140616848524e+02 
-6.766269742696e+01 1.989946161954e+00 0.0 
1.989946161954e+00 -1.484323324428e+02 0.0 
0.0 0.0 -6.442850896093e+01 
-1.172369273813e+02 -7.654964025529e-01 0.0 
-7.654964025529e-01 -2.611329016283e+02 0.0 
0.0 0.0 -1.131109487029e+02 
-5.518649696107e+01 8.526354640888e-01 0.0 
8.526354640888e-01 -1.191973594232e+02 0.0 
0.0 0.0 -5.191515691529e+01 
-9.953130904663e+01 2.557311987106e+00 0.0 
2.557311987106e+00 -2.231894087019e+02 0.0 
0.0 0.0 -9.641621532457e+01 
-1.178736036429e+02 -1.859323109922e+00 0.0 
-1.859323109922e+00 -2.646746644255e+02 0.0 
0.0 0.0 -1.143644804205e+02 
-9.729692066946e+01 -4.652327107656e+00 0.0 
-4.652327107656e+00 -2.475785094782e+02 0.0 
0.0 0.0 -1.030626290443e+02 
-1.067356514346e+02 -3.888297472718e+00 0.0 
-3.888297472718e+00 -2.423956511486e+02 0.0 
0.0 0.0 -1.043393907750e+02 
-3.451222578258e+01 2.500370271403e+01 0.0 
2.500370271403e+01 -8.650389262382e+01 0.0 
0.0 0.0 -3.749922557983e+01 
-1.431031944629e+02 9.549279338731e-01 0.0 
9.549279338731e-01 -3.323573325822e+02 0.0 
0.0 0.0 -1.422381581135e+02 
-8.102092553316e+01 -6.781984053799e+00 0.0 
-6.781984053799e+00 -2.127262489746e+02 0.0 
0.0 0.0 -8.772415235233e+01 
-1.456318265365e+02 -9.053888078030e-01 0.0 
-9.053888078030e-01 -3.536524746824e+02 0.0 
0.0 0.0 -1.493852903657e+02 
-1.230957081368e+02 5.593038119318e+00 0.0 
5.593038119318e+00 -3.001264075904e+02 0.0 
0.0 0.0 -1.265666347182e+02 
-1.207960262959e+02 -3.163256971635e+00 0.0 
-3.163256971635e+00 -2.717522416291e+02 0.0 
0.0 0.0 -1.173644803775e+02 
-1.215134611123e+02 -1.297309944151e+00 0.0 
-1.297309944151e+00 -2.725153188587e+02 0.0 
0.0 0.0 -1.178086339913e+02 
-7.002524970730e+01 -3.662680748286e+00 0.0 
-3.662680748286e+00 -2.017950522233e+02 0.0 
0.0 0.0 -8.114609057919e+01 
-3.593857434781e+01 -8.840239279626e+00 0.0 
-8.840239279626e+00 -5.922729907233e+01 0.0 
0.0 0.0 -2.701154037235e+01 
-3.429836380094e+01 2.658583318785e+01 0.0 
2.658583318785e+01 -8.933167004414e+01 0.0 
0.0 0.0 -3.849038966485e+01 
-1.245334787220e+02 -2.574472371454e+00 0.0 
-2.574472371454e+00 -2.798179349086e+02 0.0 
0.0 0.0 -1.209054240892e+02 
-1.449350040950e+02 -2.051259962185e+00 0.0 
-2.051259962185e+00 -3.508950555488e+02 0.0 
0.0 0.0 -1.483490178931e+02 
-7.183716159190e+01 -1.010648978825e+01 0.0 
-1.010648978825e+01 -1.730918624794e+02 0.0 
0.0 0.0 -7.307870722140e+01 
-1.270439920361e+02 4.193786565522e+00 0.0 
4.193786565522e+00 -2.990757797090e+02 0.0 
0.0 0.0 -1.274359315235e+02 
-6.567566925655e+01 5.022937336299e+00 0.0 
5.022937336299e+00 -1.448784286883e+02 0.0 
0.0 0.0 -6.276622938346e+01 
-1.279949575602e+02 5.634003110873e+00 0.0 
5.634003110873e+00 -2.989858074423e+02 0.0 
0.0 0.0 -1.276942295008e+02 
-1.626367890908e+02 -3.237581060965e+00 0.0 
-3.237581060965e+00 -3.840436869187e+02 0.0 
0.0 0.0 -1.636041428029e+02 
-1.024757288924e+02 -1.839465781837e+00 0.0 
-1.839465781837e+00 -1.037188300120e+02 0.0 
0.0 0.0 -6.213523868177e+01 
-1.644120263841e+02 4.547412161087e-01 0.0 
4.547412161087e-01 -3.849613948963e+02 0.0 
0.0 0.0 -1.644120263841e+02 
-1.678531238888e+02 -8.151747687265e-01 0.0 
-8.151747687265e-01 -3.929906224073e+02 0.0 
0.0 0.0 -1.678531238888e+02 
-9.857152728160e+01 8.033541611299e-01 0.0 
8.033541611299e-01 -2.251621783309e+02 0.0 
0.0 0.0 -9.672011168376e+01 
-8.240450136094e+01 -8.212027007342e+00 0.0 
-8.212027007342e+00 -2.051399621581e+02 0.0 
0.0 0.0 -8.586333905570e+01 
-1.199233701246e+02 6.024754780281e+00 0.0 
6.024754780281e+00 -2.905495658844e+02 0.0 
0.0 0.0 -1.227418808027e+02 
-7.074128388163e+01 6.152789217371e-01 0.0 
6.152789217371e-01 -2.048130991393e+02 0.0 
0.0 0.0 -8.226631490628e+01 
-2.342446542457e+01 9.057507740856e-02 0.0 
9.057507740856e-02 -5.484329106514e+01 0.0 
0.0 0.0 -2.308032694691e+01 
-3.822664560721e+01 2.005344492735e+01 0.0 
2.005344492735e+01 -4.046396710042e+01 0.0 
0.0 0.0 -2.285890855688e+01 
-1.503414382007e+02 1.607136762435e+00 0.0 
1.607136762435e+00 -3.492515659973e+02 0.0 
0.0 0.0 -1.494779012594e+02 
-1.231249247937e+02 4.040069840916e+00 0.0 
4.040069840916e+00 -2.811545641009e+02 0.0 
0.0 0.0 -1.208838466684e+02 
-9.279069238644e+01 2.476712703463e+00 0.0 
2.476712703463e+00 -2.085842803504e+02 0.0 
0.0 0.0 -9.001249182104e+01 
-1.702317340225e+02 4.756749812032e+00 0.0 
4.756749812032e+00 -3.999836901403e+02 0.0 
0.0 0.0 -1.706646272488e+02 
-4.521918925413e+01 9.057425769797e-01 0.0 
9.057425769797e-01 -9.948031074786e+01 0.0 
0.0 0.0 -4.300985000060e+01 
-1.702304452503e+02 4.346760502992e+00 0.0 
4.346760502992e+00 -4.010598072818e+02 0.0 
0.0 0.0 -1.709870757596e+02 
-1.226293160658e+02 2.182670530071e+00 0.0 
2.182670530071e+00 -2.804908180404e+02 0.0 
0.0 0.0 -1.205360402319e+02 
-8.315157855371e+01 -8.018738974519e+00 0.0 
-8.018738974519e+00 -1.968599658329e+02 0.0 
0.0 0.0 -8.360346331598e+01 
-1.159228099944e+02 4.679540088913e+00 0.0 
4.679540088913e+00 -2.816709903822e+02 0.0 
0.0 0.0 -1.188781401130e+02 
-7.607010689827e+01 -1.006878495725e+01 0.0 
-1.006878495725e+01 -1.901298212184e+02 0.0 
0.0 0.0 -7.945997843501e+01 
-4.744564270593e+01 1.196649041938e+01 0.0 
1.196649041938e+01 -9.951710752588e+01 0.0 
0.0 0.0 -4.295460099566e+01 
-7.290567940585e+01 -1.060090790707e+01 0.0 
-1.060090790707e+01 -1.762047402245e+02 0.0 
0.0 0.0 -7.433312588912e+01 
-1.297714541555e+02 2.845425140005e+00 0.0 
2.845425140005e+00 -2.988975000737e+02 0.0 
0.0 0.0 -1.282006862688e+02 
-1.488224894611e+02 -3.382440450494e-01 0.0 
-3.382440450494e-01 -3.403974567665e+02 0.0 
0.0 0.0 -1.463659838683e+02 
-7.478194580186e+01 -8.802641088368e+00 0.0 
-8.802641088368e+00 -1.989059980453e+02 0.0 
0.0 0.0 -8.170638315416e+01 
-1.315774730929e+02 3.972313909982e+00 0.0 
3.972313909982e+00 -3.083614936971e+02 0.0 
0.0 0.0 -1.315816900370e+02 
-6.392547864048e+01 -2.947370786284e+00 0.0 
-2.947370786284e+00 -1.122940599277e+02 0.0 
0.0 0.0 -5.336711709370e+01 
-7.410498694170e+01 -5.602502375111e+00 0.0 
-5.602502375111e+00 -2.067590296425e+02 0.0 
0.0 0.0 -8.385920497525e+01 
-1.354938054893e+02 4.056389684091e+00 0.0 
4.056389684091e+00 -3.110507943004e+02 0.0 
0.0 0.0 -1.335633799369e+02 
-7.335322986924e+01 -9.364996543087e+00 0.0 
-9.364996543087e+00 -1.675380026801e+02 0.0 
0.0 0.0 -7.186736976481e+01 
-6.831462916408e+01 -9.916292407619e+00 0.0 
-9.916292407619e+00 -1.583750341109e+02 0.0 
0.0 0.0 -6.760689898249e+01 
-1.148252090013e+02 6.069147588031e+00 0.0 
6.069147588031e+00 -2.815329502337e+02 0.0 
0.0 0.0 -1.185074477705e+02 
-4.109286389709e+01 -1.746283917160e+01 0.0 
-1.746283917160e+01 -1.087699992811e+02 0.0 
0.0 0.0 -4.404990354879e+01 
-5.200068620799e+01 5.672634940848e+00 0.0 
5.672634940848e+00 -1.095048243561e+02 0.0 
0.0 0.0 -4.805165316922e+01 
-5.737539792540e+01 5.506099045870e+00 0.0 
5.506099045870e+00 -1.212038181410e+02 0.0 
0.0 0.0 -5.317376481991e+01 
-6.589202588837e+01 -9.849713272064e+00 0.0 
-9.849713272064e+00 -1.476565076441e+02 0.0 
0.0 0.0 -6.366456005974e+01 
-1.056396552413e+02 -3.803589292835e+00 0.0 
-3.803589292835e+00 -2.653828225617e+02 0.0 
0.0 0.0 -1.109067433409e+02 
-1.008496881874e+02 4.574822614266e+00 0.0 
4.574822614266e+00 -2.559595723153e+02 0.0 
0.0 0.0 -1.066427781508e+02 
-1.313428787821e+02 5.715566830118e+00 0.0 
5.715566830118e+00 -3.085461960052e+02 0.0 
0.0 0.0 -1.315667224362e+02 
-1.537485002740e+02 3.633396892709e+00 0.0 
3.633396892709e+00 -3.580586477718e+02 0.0 
0.0 0.0 -1.531421444137e+02 
-5.958097482137e+01 2.763377528773e+00 0.0 
2.763377528773e+00 -1.291067889136e+02 0.0 
0.0 0.0 -5.620632912049e+01 
-1.278774884402e+02 1.114313673922e+00 0.0 
1.114313673922e+00 -2.945142904682e+02 0.0 
0.0 0.0 -1.263175336725e+02 
-1.551147525694e+02 4.127429240350e+00 0.0 
4.127429240350e+00 -3.639833332286e+02 0.0 
0.0 0.0 -1.553294257394e+02 
-6.632092534031e+01 -1.056916414587e+00 0.0 
-1.056916414587e+00 -1.962266164959e+02 0.0 
0.0 0.0 -7.836426255085e+01 
-3.875944302919e+01 1.315443133813e+01 0.0 
1.315443133813e+01 -7.037112727957e+01 0.0 
0.0 0.0 -3.076031326915e+01 
-7.091990705683e+01 6.656670321095e+00 0.0 
6.656670321095e+00 -1.563493580642e+02 0.0 
0.0 0.0 -6.778077953631e+01 
-1.018194559766e+02 -4.912665191388e+00 0.0 
-4.912665191388e+00 -2.536917114460e+02 0.0 
0.0 0.0 -1.062533502268e+02 
-1.324115351686e+02 3.599910978166e+00 0.0 
3.599910978166e+00 -3.079795505223e+02 0.0 
0.0 0.0 -1.317173257073e+02 
-9.982644681394e+01 -5.781332504747e+00 0.0 
-5.781332504747e+00 -2.526581959700e+02 0.0 
0.0 0.0 -1.053453928352e+02 
-3.525390020141e+01 2.039737795165e+01 0.0 
2.039737795165e+01 -1.052433950667e+02 0.0 
0.0 0.0 -4.178859976653e+01 
-1.141596931478e+02 -3.033765784938e+00 0.0 
-3.033765784938e+00 -2.834919041229e+02 0.0 
0.0 0.0 -1.188954791812e+02 
-5.023115921120e+01 1.018257141372e+01 0.0 
1.018257141372e+01 -1.077166902124e+02 0.0 
0.0 0.0 -4.698435482708e+01 
-9.935813079590e+01 5.479167345456e+00 0.0 
5.479167345456e+00 -2.555114388566e+02 0.0 
0.0 0.0 -1.060608708957e+02 
-1.084271257593e+02 -5.068827212258e+00 0.0 
-5.068827212258e+00 -2.709599425099e+02 0.0 
0.0 0.0 -1.134161204807e+02 
-1.190433181241e+02 4.170210787332e+00 0.0 
4.170210787332e+00 -2.912847541013e+02 0.0 
0.0 0.0 -1.226984216676e+02 
-1.181054425714e+02 1.005966893277e+00 0.0 
1.005966893277e+00 -2.702451489590e+02 0.0 
0.0 0.0 -1.161051774591e+02 
-6.719315085605e+01 -7.593854483046e+00 0.0 
-7.593854483046e+00 -1.486503601226e+02 0.0 
0.0 0.0 -6.435305329360e+01 
-4.316055534378e+01 1.785177577541e+01 0.0 
1.785177577541e+01 -8.805440074956e+01 0.0 
0.0 0.0 -3.793746429804e+01 
-1.172401499849e+02 -4.431331760952e+00 0.0 
-4.431331760952e+00 -2.897000365633e+02 0.0 
0.0 0.0 -1.216820559644e+02 
-5.359710733045e+01 8.570602579234e+00 0.0 
8.570602579234e+00 -1.156789450551e+02 0.0 
0.0 0.0 -5.038281571566e+01 
-4.206564140858e+01 7.738873062986e+00 0.0 
7.738873062986e+00 -1.217119005160e+02 0.0 
0.0 0.0 -5.054105090340e+01 
-1.510236606267e+02 -5.489168044130e-01 0.0 
-5.489168044130e-01 -3.510908263549e+02 0.0 
0.0 0.0 -1.502343460945e+02 
-1.435569453316e+02 -6.569790500974e-01 0.0 
-6.569790500974e-01 -3.326428036504e+02 0.0 
0.0 0.0 -1.424599246946e+02 
-1.600392463702e+01 -1.903142836209e+00 0.0 
-1.903142836209e+00 -2.484813095324e+01 0.0 
0.0 0.0 -1.216749418239e+01 
-1.228739090241e+02 -2.374133820426e+00 0.0 
-2.374133820426e+00 -3.020087173004e+02 0.0 
0.0 0.0 -1.270647878973e+02 
-5.345716788926e+01 -5.748750109414e+00 0.0 
-5.748750109414e+00 -1.132267953929e+02 0.0 
0.0 0.0 -4.960518898464e+01 
-5.699660845540e+01 -7.373524134615e+00 0.0 
-7.373524134615e+00 -1.198026935329e+02 0.0 
0.0 0.0 -5.263979059649e+01 
-1.396755621437e+02 3.860535172557e+00 0.0 
3.860535172557e+00 -3.275785991565e+02 0.0 
0.0 0.0 -1.397762483901e+02 
-1.179990336911e+02 5.447675903351e+00 0.0 
5.447675903351e+00 -2.910893596974e+02 0.0 
0.0 0.0 -1.223265180165e+02 
-1.350873758797e+02 4.013826849055e+00 0.0 
4.013826849055e+00 -3.181406781556e+02 0.0 
0.0 0.0 -1.355684162106e+02 
-7.625561809008e+01 -5.946365975349e+00 0.0 
-5.946365975349e+00 -2.075751209149e+02 0.0 
0.0 0.0 -8.474922170150e+01 
-8.986009851598e+01 4.635049344151e-02 0.0 
4.635049344151e-02 -2.041299074778e+02 0.0 
0.0 0.0 -8.779700179814e+01 
-1.627616056657e+02 -2.629783028010e+00 0.0 
-2.629783028010e+00 -3.823583375585e+02 0.0 
0.0 0.0 -1.631359829673e+02 
-4.871053792051e+01 -6.678803709474e+00 0.0 
-6.678803709474e+00 -9.929227040751e+01 0.0 
0.0 0.0 -4.400084249840e+01 
-1.412423584273e+02 8.628826935718e-01 0.0 
8.628826935718e-01 -3.448251420590e+02 0.0 
0.0 0.0 -1.454202501459e+02 
-1.045287412297e+02 5.860892731939e+00 0.0 
5.860892731939e+00 -2.640343058863e+02 0.0 
0.0 0.0 -1.101689141348e+02 
-3.446828267891e+01 -1.351753487412e+00 0.0 
-1.351753487412e+00 -7.594475664708e+01 0.0 
0.0 0.0 -3.272391179780e+01 
-1.289036112275e+02 3.382620093349e+00 0.0 
3.382620093349e+00 -2.983585233114e+02 0.0 
0.0 0.0 -1.277786403617e+02 
-7.852800078010e+01 -3.297079929963e+00 0.0 
-3.297079929963e+00 -2.179944685652e+02 0.0 
0.0 0.0 -8.855674080359e+01 
-3.189857474796e+01 -9.709226153532e+00 0.0 
-9.709226153532e+00 -4.657730185725e+01 0.0 
0.0 0.0 -2.239322740242e+01 
-6.572552980876e+01 -6.465786753651e+00 0.0 
-6.465786753651e+00 -1.904723194281e+02 0.0 
0.0 0.0 -7.645935477106e+01 
-1.294785202184e+02 -9.721475366321e-01 0.0 
-9.721475366321e-01 -2.904209878343e+02 0.0 
0.0 0.0 -1.255698524158e+02 
-1.302072873417e+02 4.694180448668e+00 0.0 
4.694180448668e+00 -2.997007922238e+02 0.0 
0.0 0.0 -1.285724238697e+02 
-3.930852027555e+01 -6.801289904768e+00 0.0 
-6.801289904768e+00 -7.911244478183e+01 0.0 
0.0 0.0 -3.510167522642e+01 
-1.077173244252e+02 -1.862547639203e-01 0.0 
-1.862547639203e-01 -2.361628188329e+02 0.0 
0.0 0.0 -1.027640429774e+02 
-1.360930743098e+02 3.756102872342e+00 0.0 
3.756102872342e+00 -3.178871147743e+02 0.0 
0.0 0.0 -1.357940567252e+02 
-1.397683399649e+02 4.029746936708e+00 0.0 
4.029746936708e+00 -3.391311192583e+02 0.0 
0.0 0.0 -1.432698377669e+02 
-6.949048850796e+01 -1.047623678201e+01 0.0 
-1.047623678201e+01 -1.618341589281e+02 0.0 
0.0 0.0 -6.899739423083e+01 
-5.563102054074e+01 -1.467109404437e+00 0.0 
-1.467109404437e+00 -1.194611669714e+02 0.0 
0.0 0.0 -5.212765625365e+01 
-1.090456697077e+02 3.820267513199e+00 0.0 
3.820267513199e+00 -2.739689646627e+02 0.0 
0.0 0.0 -1.145043903111e+02 
-1.153797192566e+02 8.805596700744e-01 0.0 
8.805596700744e-01 -2.644800428354e+02 0.0 
0.0 0.0 -1.135579286276e+02 
-3.295860733609e+01 -1.501813502713e+01 0.0 
-1.501813502713e+01 -5.045221818178e+01 0.0 
0.0 0.0 -2.424835298487e+01 
-1.622353769445e+02 4.980536046160e+00 0.0 
4.980536046160e+00 -3.810021917009e+02 0.0 
0.0 0.0 -1.625712705936e+02 
-1.594014554827e+02 3.897289413112e+00 0.0 
3.897289413112e+00 -3.723815677011e+02 0.0 
0.0 0.0 -1.591349069551e+02 
-1.037974388481e+02 8.278392229656e-01 0.0 
8.278392229656e-01 -2.370260242424e+02 0.0 
0.0 0.0 -1.018470389272e+02 
-1.572384707269e+02 3.189550124884e+00 0.0 
3.189550124884e+00 -3.647400471986e+02 0.0 
0.0 0.0 -1.561935553776e+02 
-1.607910717033e+02 4.058933043322e+00 0.0 
4.058933043322e+00 -3.755981209678e+02 0.0 
0.0 0.0 -1.605167578013e+02 
-7.848262937118e+01 -6.926630671735e+00 0.0 
-6.926630671735e+00 -2.116179099628e+02 0.0 
0.0 0.0 -8.663016180021e+01 
-7.788639668455e+01 -8.393468162853e+00 0.0 
-8.393468162853e+00 -2.003224827511e+02 0.0 
0.0 0.0 -8.306266383069e+01 
-1.623147245348e+02 7.897636544663e-01 0.0 
7.897636544663e-01 -3.878312482346e+02 0.0 
0.0 0.0 -1.646437918308e+02 
-5.976937584744e+01 2.769343067956e+00 0.0 
2.769343067956e+00 -1.093676494179e+02 0.0 
0.0 0.0 -5.129171976240e+01 
-5.001516133844e+01 -1.178792738512e+00 0.0 
-1.178792738512e+00 -1.085773042309e+02 0.0 
0.0 0.0 -4.717773967082e+01 
-1.087196586468e+02 -1.411920977070e+00 0.0 
-1.411920977070e+00 -2.404341913948e+02 0.0 
0.0 0.0 -1.043461550125e+02 
-7.167867208061e+01 -8.578754949288e+00 0.0 
-8.578754949288e+00 -1.632460121741e+02 0.0 
0.0 0.0 -7.007740527641e+01 
-6.676806417448e+01 -1.019768305275e+01 0.0 
-1.019768305275e+01 -1.813390356961e+02 0.0 
0.0 0.0 -7.403212996118e+01 
-4.530096261061e+01 7.150260686413e+00 0.0 
7.150260686413e+00 -9.013021131226e+01 0.0 
0.0 0.0 -4.022935217686e+01 
-5.012179345124e+01 7.126912667700e+00 0.0 
7.126912667700e+00 -1.027145573092e+02 0.0 
0.0 0.0 -4.545090522813e+01 
-1.049817877039e+02 1.423015750939e+00 0.0 
1.423015750939e+00 -2.379135605445e+02 0.0 
0.0 0.0 -1.024686044745e+02 
-7.142874205909e+01 -4.423987501414e+00 0.0 
-4.423987501414e+00 -2.022069998327e+02 0.0 
0.0 0.0 -8.169072256755e+01 
-5.963300732565e+01 -2.388970937685e+00 0.0 
-2.388970937685e+00 -1.275457042888e+02 0.0 
0.0 0.0 -5.575361348435e+01 
-1.358245756373e+02 3.255291218923e+00 0.0 
3.255291218923e+00 -3.284215680493e+02 0.0 
0.0 0.0 -1.388738431060e+02 
-1.703009300423e+02 -3.199681858846e+00 0.0 
-3.199681858846e+00 -3.978625081631e+02 0.0 
0.0 0.0 -1.700490314616e+02 
-1.695706868713e+02 -3.009142234281e+00 0.0 
-3.009142234281e+00 -3.977112610374e+02 0.0 
0.0 0.0 -1.697845843726e+02 
-7.940859688406e+01 -9.066961575443e+00 0.0 
-9.066961575443e+00 -2.036510901934e+02 0.0 
0.0 0.0 -8.451790612325e+01 
-9.833299688276e+01 4.140384357325e-01 0.0 
4.140384357325e-01 -2.219622212949e+02 0.0 
0.0 0.0 -9.568856545331e+01 
-6.323553852587e+01 -1.074962534751e+00 0.0 
-1.074962534751e+00 -1.104661993336e+02 0.0 
0.0 0.0 -5.309280531496e+01 
-4.240620356518e+01 9.870985687399e+00 0.0 
9.870985687399e+00 -7.409179103299e+01 0.0 
0.0 0.0 -3.373815419054e+01 
-4.364507545707e+01 -2.126132453190e+01 0.0 
-2.126132453190e+01 -1.153278269321e+02 0.0 
0.0 0.0 -4.647582118039e+01 
-4.419547972996e+01 8.592271950377e+00 0.0 
8.592271950377e+00 -8.341912171878e+01 0.0 
0.0 0.0 -3.780805962559e+01 
-1.129042708971e+02 5.240658057197e+00 0.0 
5.240658057197e+00 -2.822571759137e+02 0.0 
0.0 0.0 -1.181484340432e+02 
-6.851466990305e+01 -1.137720704118e+01 0.0 
-1.137720704118e+01 -1.714511383181e+02 0.0 
0.0 0.0 -7.158974246634e+01 
-7.323155029835e+01 -8.112753011146e+00 0.0 
-8.112753011146e+00 -1.958973141027e+02 0.0 
0.0 0.0 -8.033865932033e+01 
-3.536694435643e+01 -2.716233618385e+01 0.0 
-2.716233618385e+01 -1.006896237967e+02 0.0 
0.0 0.0 -4.093876582933e+01 
-1.444795571642e+02 1.340772057258e-01 0.0 
1.340772057258e-01 -3.357592504630e+02 0.0 
0.0 0.0 -1.436716422882e+02 
-7.490682996554e+01 -9.544047083107e+00 0.0 
-9.544047083107e+00 -1.871694320234e+02 0.0 
0.0 0.0 -7.822287859669e+01 
-1.501717619329e+02 1.188382804549e-01 0.0 
1.188382804549e-01 -3.488487819008e+02 0.0 
0.0 0.0 -1.493061631501e+02 
-1.386918693716e+02 9.568042636449e-01 0.0 
9.568042636449e-01 -3.202986776771e+02 0.0 
0.0 0.0 -1.372971641146e+02 
-1.646301332573e+02 2.198382523779e-01 0.0 
2.198382523779e-01 -3.845116799693e+02 0.0 
0.0 0.0 -1.643425439680e+02 
-1.693682707026e+02 -1.209382105004e+00 0.0 
-1.209382105004e+00 -3.939216812383e+02 0.0 
0.0 0.0 -1.685869855823e+02 
-1.037467691390e+02 -5.937905025505e-01 0.0 
-5.937905025505e-01 -2.374744293239e+02 0.0 
0.0 0.0 -1.019663595389e+02 
-7.911929231361e+01 -8.879493611032e+00 0.0 
-8.879493611032e+00 -1.917078710760e+02 0.0 
0.0 0.0 -8.084814901687e+01 
-5.164665218131e+01 3.556947862354e+00 0.0 
3.556947862354e+00 -1.096518881648e+02 0.0 
0.0 0.0 -4.798956210383e+01 
-8.053329935289e+01 -9.514618626519e+00 0.0 
-9.514618626519e+00 -1.953937440195e+02 0.0 
0.0 0.0 -8.237811301171e+01 
-1.694468364031e+02 -2.655726607089e+00 0.0 
-2.655726607089e+00 -3.967092849405e+02 0.0 
0.0 0.0 -1.694468364031e+02 
-3.870052775493e+01 1.309835025896e+01 0.0 
1.309835025896e+01 -5.615854832229e+01 0.0 
0.0 0.0 -2.672016832366e+01 
-4.031821219259e+01 1.089858581919e+01 0.0 
1.089858581919e+01 -6.508667018028e+01 0.0 
0.0 0.0 -2.956985491841e+01 
-1.460192448148e+02 1.437144516868e+00 0.0 
1.437144516868e+00 -3.548473269864e+02 0.0 
0.0 0.0 -1.498599715404e+02 
-9.811118360808e+01 5.082372059350e-01 0.0 
5.082372059350e-01 -2.222239118105e+02 0.0 
0.0 0.0 -9.570052862558e+01 
-1.508714428650e+02 -2.287801060431e-01 0.0 
-2.287801060431e-01 -3.507852996990e+02 0.0 
0.0 0.0 -1.500970227692e+02 
-1.359659205558e+02 5.536308735827e+00 0.0 
5.536308735827e+00 -3.179926753034e+02 0.0 
0.0 0.0 -1.357875787578e+02 
-1.488515380980e+02 2.495856432687e+00 0.0 
2.495856432687e+00 -3.572171963249e+02 0.0 
0.0 0.0 -1.514206203269e+02 
-1.417117344590e+02 5.173865518146e+00 0.0 
5.173865518146e+00 -3.285279276822e+02 0.0 
0.0 0.0 -1.406718986424e+02 
-1.056599688646e+02 -5.153036084198e-01 0.0 
-5.153036084198e-01 -2.411478418551e+02 0.0 
0.0 0.0 -1.036423432159e+02 
-6.423315656662e+01 -9.073421901878e+00 0.0 
-9.073421901878e+00 -1.433458217754e+02 0.0 
0.0 0.0 -6.187369350261e+01 
-6.237499964638e+01 -1.124148017706e+01 0.0 
-1.124148017706e+01 -1.421492619154e+02 0.0 
0.0 0.0 -6.095727846852e+01 
-1.237027003793e+02 -5.941212412265e-01 0.0 
-5.941212412265e-01 -2.841125178557e+02 0.0 
0.0 0.0 -1.219445654705e+02 
-1.444136810048e+02 4.536627445325e+00 0.0 
4.536627445325e+00 -3.475077268702e+02 0.0 
0.0 0.0 -1.471764223625e+02 
-9.185817696413e+01 9.931747233571e-01 0.0 
9.931747233571e-01 -2.062549087685e+02 0.0 
0.0 0.0 -8.903392571980e+01 
-9.670356287320e+01 2.723489690787e-02 0.0 
2.723489690787e-02 -2.205810725449e+02 0.0 
0.0 0.0 -9.478539062544e+01 
-1.036395837977e+02 3.881772464356e-01 0.0 
3.881772464356e-01 -2.364970510135e+02 0.0 
0.0 0.0 -1.016409904434e+02 
-1.058955806859e+02 1.230248672064e+00 0.0 
1.230248672064e+00 -2.421431184111e+02 0.0 
0.0 0.0 -1.040116097291e+02 
-2.983549277900e+01 -1.434458357042e+01 0.0 
-1.434458357042e+01 -1.175816069760e+02 0.0 
0.0 0.0 -4.547082435975e+01 
-5.865148025936e+01 -1.006846925011e+01 0.0 
-1.006846925011e+01 -1.274878758820e+02 0.0 
0.0 0.0 -5.544180684242e+01 
-1.584944017292e+02 9.921220896221e-01 0.0 
9.921220896221e-01 -3.692502770762e+02 0.0 
0.0 0.0 -1.579234036416e+02 
-1.143132976320e+02 1.235549111745e+00 0.0 
1.235549111745e+00 -2.613974416020e+02 0.0 
0.0 0.0 -1.123132217702e+02 
-1.660322766129e+02 1.595991666894e+00 0.0 
1.595991666894e+00 -3.927307354504e+02 0.0 
0.0 0.0 -1.672289036190e+02 
-1.546873194033e+02 5.102784468813e+00 0.0 
5.102784468813e+00 -3.594676544630e+02 0.0 
0.0 0.0 -1.538464921599e+02 
-1.290691435414e+02 5.167977650752e+00 0.0 
5.167977650752e+00 -2.989041680895e+02 0.0 
0.0 0.0 -1.279919934893e+02 
-1.519585510987e+02 2.922132516534e+00 0.0 
2.922132516534e+00 -3.521946111989e+02 0.0 
0.0 0.0 -1.508459486893e+02 
-8.297597295267e+01 -3.154776544497e+00 0.0 
-3.154776544497e+00 -1.792373858483e+02 0.0 
0.0 0.0 -7.826400764029e+01 
-7.552664303258e+01 -3.265459396014e+00 0.0 
-3.265459396014e+00 -1.634851266570e+02 0.0 
0.0 0.0 -7.130353090686e+01 
-1.559640041769e+02 -3.383498919053e+00 0.0 
-3.383498919053e+00 -3.673447936241e+02 0.0 
0.0 0.0 -1.565926393403e+02 
-3.534804514042e+01 -1.915238060301e+01 0.0 
-1.915238060301e+01 -9.929608796684e+01 0.0 
0.0 0.0 -4.178761770940e+01 
-5.265301898238e+01 -6.294108835905e-02 0.0 
-6.294108835905e-02 -1.146017888374e+02 0.0 
0.0 0.0 -4.977644234592e+01 
-1.712882092518e+02 4.304511579488e+00 0.0 
4.304511579488e+00 -4.010058215876e+02 0.0 
0.0 0.0 -1.712882092518e+02 
-2.376241495828e+01 9.732683932218e-01 0.0 
9.732683932218e-01 -5.741874960717e+01 0.0 
0.0 0.0 -2.395434936963e+01 
-9.685009438781e+01 -1.385810716412e-02 0.0 
-1.385810716412e-02 -2.206758478998e+02 0.0 
0.0 0.0 -9.485778268628e+01 
-1.547912039172e+02 -2.915882539230e-01 0.0 
-2.915882539230e-01 -3.726688974813e+02 0.0 
0.0 0.0 -1.578380304196e+02 
-1.835682770901e+01 -2.479380709145e+00 0.0 
-2.479380709145e+00 -3.974047214526e+01 0.0 
0.0 0.0 -1.702918995628e+01 
-5.779899434286e+00 3.104667039063e-01 0.0 
3.104667039063e-01 -2.352176767278e+01 0.0 
0.0 0.0 -7.909455375542e+00 
-1.656232039337e+02 2.485583772457e+00 0.0 
2.485583772457e+00 -3.862098761776e+02 0.0 
0.0 0.0 -1.651499240334e+02 
-9.026613421631e+01 -1.247725025855e-01 0.0 
-1.247725025855e-01 -2.042591625509e+02 0.0 
0.0 0.0 -8.795758903018e+01 
-1.572719657623e+02 8.642225007911e-01 0.0 
8.642225007911e-01 -3.656783255930e+02 0.0 
0.0 0.0 -1.564850874066e+02 
-1.562750185873e+02 4.082935133717e-01 0.0 
4.082935133717e-01 -3.737959216075e+02 0.0 
0.0 0.0 -1.586212820584e+02 
-9.002894935116e+01 4.100411525247e-01 0.0 
4.100411525247e-01 -2.038507072832e+02 0.0 
0.0 0.0 -8.776389699031e+01 
-6.104508332971e+01 5.052077135437e+00 0.0 
5.052077135437e+00 -1.104984652535e+02 0.0 
0.0 0.0 -5.252410220884e+01 
-1.576815277162e+02 7.339773401489e-01 0.0 
7.339773401489e-01 -3.680310520360e+02 0.0 
0.0 0.0 -1.573137739256e+02 
-2.808748929779e+01 2.883413941358e-01 0.0 
2.883413941358e-01 -6.318121070871e+01 0.0 
0.0 0.0 -2.698061000195e+01 
-1.523090104919e+02 9.766243185381e-01 0.0 
9.766243185381e-01 -3.545230467799e+02 0.0 
0.0 0.0 -1.516496171815e+02 
-1.688593901533e+02 -2.367932797880e+00 0.0 
-2.367932797880e+00 -3.953385770243e+02 0.0 
0.0 0.0 -1.688593901533e+02 
-1.538731522419e+02 4.460921144225e+00 0.0 
4.460921144225e+00 -3.575931919083e+02 0.0 
0.0 0.0 -1.530399032451e+02 
-3.590174029469e+01 -1.149391499133e+01 0.0 
-1.149391499133e+01 -1.302225023129e+02 0.0 
0.0 0.0 -5.095858004702e+01 
-1.059188652697e+02 1.264298801759e+00 0.0 
1.264298801759e+00 -2.396892985984e+02 0.0 
0.0 0.0 -1.032824491604e+02 
-8.347611891958e+01 -8.629639374400e-01 0.0 
-8.629639374400e-01 -1.817174156910e+02 0.0 
0.0 0.0 -7.915806038317e+01 
-1.353794170877e+02 4.645502178701e+00 0.0 
4.645502178701e+00 -3.283799494298e+02 0.0 
0.0 0.0 -1.387278099553e+02 
-1.712055387580e+02 2.933245922910e+00 0.0 
2.933245922910e+00 -4.038751076201e+02 0.0 
0.0 0.0 -1.721241939134e+02 
-1.321716537634e+02 -2.983715974578e-01 0.0 
-2.983715974578e-01 -3.051573758972e+02 0.0 
0.0 0.0 -1.307987088982e+02 
-1.709900167888e+02 1.328293203200e+00 0.0 
1.328293203200e+00 -4.039991219671e+02 0.0 
0.0 0.0 -1.720967416268e+02 
-2.982757332405e+01 -1.472850457446e+01 0.0 
-1.472850457446e+01 -1.162743742927e+02 0.0 
0.0 0.0 -4.600427743404e+01 
-1.637753429791e+02 -2.346605519969e+00 0.0 
-2.346605519969e+00 -3.815906560672e+02 0.0 
0.0 0.0 -1.632097997139e+02 
-4.059953625679e+01 -1.480221050761e+01 0.0 
-1.480221050761e+01 -1.280304238975e+02 0.0 
0.0 0.0 -5.007590594555e+01 
-2.458554032752e+01 -6.777459953107e-01 0.0 
-6.777459953107e-01 -5.743748417832e+01 0.0 
0.0 0.0 -2.420690735175e+01 
-1.631312084413e+02 -1.016337737996e+00 0.0 
-1.016337737996e+00 -3.878789439783e+02 0.0 
0.0 0.0 -1.649030457259e+02 
-1.602373710871e+02 3.373416191840e+00 0.0 
3.373416191840e+00 -3.721895000265e+02 0.0 
0.0 0.0 -1.593280613341e+02 
-1.602830288439e+02 2.741054172161e+00 0.0 
2.741054172161e+00 -3.733751693138e+02 0.0 
0.0 0.0 -1.596974594473e+02 
-9.645637122060e+01 -6.203812417718e-01 0.0 
-6.203812417718e-01 -2.195987816090e+02 0.0 
0.0 0.0 -9.441654584887e+01 
-1.070506329158e+02 1.086313351630e+00 0.0 
1.086313351630e+00 -2.426824822182e+02 0.0 
0.0 0.0 -1.045199345402e+02 
-4.748727710569e+01 1.509142651512e+01 0.0 
1.509142651512e+01 -9.956767999280e+01 0.0 
0.0 0.0 -4.333289511932e+01 
-1.620514471464e+02 5.044646652623e+00 0.0 
5.044646652623e+00 -3.773355839697e+02 0.0 
0.0 0.0 -1.614161093348e+02 
-7.067765740459e+01 -2.027707439429e+00 0.0 
-2.027707439429e+00 -1.511376577732e+02 0.0 
0.0 0.0 -6.614459455334e+01 
-3.440487635294e+01 2.210776312909e+01 0.0 
2.210776312909e+01 -8.486471275562e+01 0.0 
0.0 0.0 -3.587939730666e+01 
-1.402037671880e+02 2.800547807749e+00 0.0 
2.800547807749e+00 -3.390838889798e+02 0.0 
0.0 0.0 -1.433862968503e+02 
-8.951162662054e+01 1.776394045086e-01 0.0 
1.776394045086e-01 -2.033242121993e+02 0.0 
0.0 0.0 -8.745075164595e+01 
-1.544130362777e+02 2.359312151558e+00 0.0 
2.359312151558e+00 -3.588528772928e+02 0.0 
0.0 0.0 -1.535797740711e+02 
-1.641244449171e+02 7.731083982645e-01 0.0 
7.731083982645e-01 -3.830611294391e+02 0.0 
0.0 0.0 -1.637556723069e+02 
-1.646387554466e+02 1.843863051226e-01 0.0 
1.843863051226e-01 -3.854904293753e+02 0.0 
0.0 0.0 -1.646387554466e+02 
-1.193071728723e+00 3.168472107000e-01 0.0 
3.168472107000e-01 -6.271124194553e+00 0.0 
0.0 0.0 -1.220232918709e+00 
-1.728724802304e+00 -6.175074225340e-01 0.0 
-6.175074225340e-01 -1.069378542747e+01 0.0 
0.0 0.0 -2.236238675346e+00 
-9.033927022837e+01 6.891183654593e-01 0.0 
6.891183654593e-01 -2.056790169452e+02 0.0 
0.0 0.0 -8.840548615208e+01 
-8.888392163068e+01 -1.060656713129e-01 0.0 
-1.060656713129e-01 -2.031584453591e+02 0.0 
0.0 0.0 -8.721271009692e+01 
-1.679345909301e+02 -4.321481393096e-01 0.0 
-4.321481393096e-01 -3.931807121702e+02 0.0 
0.0 0.0 -1.679345909301e+02 
-1.682258389239e+02 -8.141803292007e-01 0.0 
-8.141803292007e-01 -3.909793032270e+02 0.0 
0.0 0.0 -1.673615426453e+02 
-6.179597880075e+00 -6.229937023704e-01 0.0 
-6.229937023704e-01 -2.299367333530e+01 0.0 
0.0 0.0 -7.751021817532e+00 
-6.037931179906e+01 -4.695760951426e+00 0.0 
-4.695760951426e+00 -1.129934803190e+02 0.0 
0.0 0.0 -5.251226398263e+01 
-1.560646379283e+02 -2.432163458980e+00 0.0 
-2.432163458980e+00 -3.615735898834e+02 0.0 
0.0 0.0 -1.548914683435e+02 
-1.541084847443e+02 3.380857423070e+00 0.0 
3.380857423070e+00 -3.655799969824e+02 0.0 
0.0 0.0 -1.555065445180e+02 
-3.267938449483e+01 -2.349979539493e-01 0.0 
-2.349979539493e-01 -7.390997335582e+01 0.0 
0.0 0.0 -3.157680735520e+01 
-1.580871105265e+02 -2.319686229289e+00 0.0 
-2.319686229289e+00 -3.691197464433e+02 0.0 
0.0 0.0 -1.577620570909e+02 
-1.157479227645e+02 -7.697711869738e-02 0.0 
-7.697711869738e-02 -2.566761992911e+02 0.0 
0.0 0.0 -1.113272366167e+02 
-1.008369020210e+02 5.204334972159e-01 0.0 
5.204334972159e-01 -2.213288171639e+02 0.0 
0.0 0.0 -9.624971575546e+01 
-1.180794580648e+02 -1.065580893131e-01 0.0 
-1.065580893131e-01 -2.712239130072e+02 0.0 
0.0 0.0 -1.163910113216e+02 
-4.377431735172e+01 -1.848744959042e+01 0.0 
-1.848744959042e+01 -9.028050822338e+01 0.0 
0.0 0.0 -3.812411758731e+01 
-1.265766908434e+02 5.024847196228e+00 0.0 
5.024847196228e+00 -3.097112096531e+02 0.0 
0.0 0.0 -1.304863701489e+02 
-2.496134131338e+01 -1.113324876042e+00 0.0 
-1.113324876042e+00 -5.913035187918e+01 0.0 
0.0 0.0 -2.482750795777e+01 
-9.270628406886e+01 -1.102381506582e+00 0.0 
-1.102381506582e+00 -2.018577925162e+02 0.0 
0.0 0.0 -8.796922297552e+01 
-1.560978214994e+02 3.945957124918e+00 0.0 
3.945957124918e+00 -3.638564957268e+02 0.0 
0.0 0.0 -1.555862951679e+02 
-1.480418369904e+02 8.814290584568e-01 0.0 
8.814290584568e-01 -3.435848557641e+02 0.0 
0.0 0.0 -1.470880078264e+02 
-1.009103166159e+02 -1.078178404516e+00 0.0 
-1.078178404516e+00 -2.200912127931e+02 0.0 
0.0 0.0 -9.590045882271e+01 
-1.095401753264e+02 8.672695454201e-01 0.0 
8.672695454201e-01 -2.507929971575e+02 0.0 
0.0 0.0 -1.076999517452e+02 
-1.554429478035e+02 4.507341890190e+00 0.0 
4.507341890190e+00 -3.665286277858e+02 0.0 
0.0 0.0 -1.561914726768e+02 
-1.451041425316e+02 5.343263075847e+00 0.0 
5.343263075847e+00 -3.374228020901e+02 0.0 
0.0 0.0 -1.443580833865e+02 
-1.370116166882e+02 5.258539564575e+00 0.0 
5.258539564575e+00 -3.180910854373e+02 0.0 
0.0 0.0 -1.361308106377e+02 
-8.988910124336e+01 9.810251573038e-02 0.0 
9.810251573038e-02 -2.040555921457e+02 0.0 
0.0 0.0 -8.778340801671e+01 
-1.215714616009e+02 4.800925714275e+00 0.0 
4.800925714275e+00 -3.008940102705e+02 0.0 
0.0 0.0 -1.263396415614e+02 
-1.535938952150e+02 2.897896034768e+00 0.0 
2.897896034768e+00 -3.572239764532e+02 0.0 
0.0 0.0 -1.528453615005e+02 
-5.327918065584e+01 -1.565492302887e+00 0.0 
-1.565492302887e+00 -1.145004300750e+02 0.0 
0.0 0.0 -4.993388321924e+01 
-7.288464845146e+00 -6.624583694785e-01 0.0 
-6.624583694785e-01 -2.566681350551e+01 0.0 
0.0 0.0 -9.486583505196e+00 
-1.503325200609e+02 5.251391522935e+00 0.0 
5.251391522935e+00 -3.540368266475e+02 0.0 
0.0 0.0 -1.509108040125e+02 
-1.412226405045e+02 -1.862931975201e-01 0.0 
-1.862931975201e-01 -3.447166164617e+02 0.0 
0.0 0.0 -1.453817770899e+02 
-3.996464558996e+01 -1.867387958787e+01 0.0 
-1.867387958787e+01 -8.091326048812e+01 0.0 
0.0 0.0 -3.546448691765e+01 
-1.240592575697e+02 8.343618184614e-01 0.0 
8.343618184614e-01 -2.852492986746e+02 0.0 
0.0 0.0 -1.223925668733e+02 
-1.616043695177e+02 -1.704152705938e+00 0.0 
-1.704152705938e+00 -3.764723386354e+02 0.0 
0.0 0.0 -1.610230124460e+02 
-1.496819469536e+02 3.917026594001e+00 0.0 
3.917026594001e+00 -3.545273123941e+02 0.0 
0.0 0.0 -1.508627778043e+02 
-1.552174876129e+02 4.815447111651e+00 0.0 
4.815447111651e+00 -3.671953094510e+02 0.0 
0.0 0.0 -1.563238391191e+02 
-1.243008233107e+02 5.423786944602e-01 0.0 
5.423786944602e-01 -2.778347803253e+02 0.0 
0.0 0.0 -1.202406810908e+02 
-3.546671721871e+01 2.403229514761e+01 0.0 
2.403229514761e+01 -1.006400677504e+02 0.0 
0.0 0.0 -4.218421134178e+01 
-4.367009635957e+01 4.986146258145e+00 0.0 
4.986146258145e+00 -8.970937322027e+01 0.0 
0.0 0.0 -3.961384087395e+01 
-5.386875133968e+01 1.168744859364e+01 0.0 
1.168744859364e+01 -1.156213671921e+02 0.0 
0.0 0.0 -5.044703555952e+01 
-1.062149015892e+02 1.246715882284e+00 0.0 
1.246715882284e+00 -2.397674260286e+02 0.0 
0.0 0.0 -1.033946982853e+02 
-1.224697811926e+02 3.433589736315e+00 0.0 
3.433589736315e+00 -3.010406413139e+02 0.0 
0.0 0.0 -1.266531267519e+02 
-1.533698471269e+02 1.818429871715e+00 0.0 
1.818429871715e+00 -3.566637744741e+02 0.0 
0.0 0.0 -1.526100864803e+02 
-1.639366095640e+02 6.570843757255e-01 0.0 
6.570843757255e-01 -3.881145643398e+02 0.0 
0.0 0.0 -1.652153521712e+02 
-3.277201987778e+01 -1.259705152674e+01 0.0 
-1.259705152674e+01 -5.189893784917e+01 0.0 
0.0 0.0 -2.323176429382e+01 
-2.093976457520e+01 -4.172538958062e+00 0.0 
-4.172538958062e+00 -4.296073080640e+01 0.0 
0.0 0.0 -1.852037490912e+01 
-3.798066189208e+01 5.812622982022e+00 0.0 
5.812622982022e+00 -7.342055522838e+01 0.0 
0.0 0.0 -3.277619359301e+01 
-1.265556634858e+02 -7.723650138804e-01 0.0 
-7.723650138804e-01 -2.909810036066e+02 0.0 
0.0 0.0 -1.248610001277e+02 
-6.533533853691e+01 -9.352660667490e-01 0.0 
-9.352660667490e-01 -1.410905656338e+02 0.0 
0.0 0.0 -6.152777125120e+01 
-1.550955105114e+02 3.210863102543e+00 0.0 
3.210863102543e+00 -3.599141423245e+02 0.0 
0.0 0.0 -1.541028958508e+02 
-3.046675940699e+01 4.344965584394e-01 0.0 
4.344965584394e-01 -7.074240295841e+01 0.0 
0.0 0.0 -2.996274870962e+01 
-1.550635900170e+02 6.306419581241e-01 0.0 
6.306419581241e-01 -3.715473475783e+02 0.0 
0.0 0.0 -1.575832812786e+02 
-1.045172032468e+02 -7.700749787033e-02 0.0 
-7.700749787033e-02 -2.372445060961e+02 0.0 
0.0 0.0 -1.021285128029e+02 
-1.642970139643e+02 3.466344686065e+00 0.0 
3.466344686065e+00 -3.870606126500e+02 0.0 
0.0 0.0 -1.650072879843e+02 
-1.403877690487e+02 5.026952926695e+00 0.0 
5.026952926695e+00 -3.378163992705e+02 0.0 
0.0 0.0 -1.430612504958e+02 
-1.064758147593e+02 1.987933983080e+00 0.0 
1.987933983080e+00 -2.401391517741e+02 0.0 
0.0 0.0 -1.035844899600e+02 
-1.632234117550e+02 -2.225546891293e+00 0.0 
-2.225546891293e+00 -3.861986027569e+02 0.0 
0.0 0.0 -1.644266043536e+02 
-1.599133311086e+02 2.593753804047e+00 0.0 
2.593753804047e+00 -3.721224862749e+02 0.0 
0.0 0.0 -1.592107452150e+02 
-1.587545478893e+02 2.947997716943e-02 0.0 
2.947997716943e-02 -3.693032886379e+02 0.0 
0.0 0.0 -1.580173509582e+02 
-3.182631984641e+01 7.694171463613e+00 0.0 
7.694171463613e+00 -5.496754276210e+01 0.0 
0.0 0.0 -2.394293623473e+01 
-1.515893528574e+02 1.541803683815e+00 0.0 
1.541803683815e+00 -3.518873720184e+02 0.0 
0.0 0.0 -1.506430174627e+02 
-1.622284852543e+02 4.611309524402e+00 0.0 
4.611309524402e+00 -3.802439088197e+02 0.0 
0.0 0.0 -1.623417182222e+02 
-1.543292771472e+02 1.246649553126e+00 0.0 
1.246649553126e+00 -3.716260695901e+02 0.0 
0.0 0.0 -1.573866040212e+02 
-1.446281308183e+02 2.876699180761e+00 0.0 
2.876699180761e+00 -3.470466013060e+02 0.0 
0.0 0.0 -1.471024196373e+02 
-1.699860176103e+02 -3.123749114172e+00 0.0 
-3.123749114172e+00 -3.979673744241e+02 0.0 
0.0 0.0 -1.699860176103e+02 
-1.367541210650e+02 3.366061919472e+00 0.0 
3.366061919472e+00 -3.176112386058e+02 0.0 
0.0 0.0 -1.359096079012e+02 
-4.504437165327e+01 1.293840769849e+01 0.0 
1.293840769849e+01 -6.460783196475e+01 0.0 
0.0 0.0 -3.344740398593e+01 
-4.067175643027e+01 2.021133067467e+01 0.0 
2.021133067467e+01 -8.678576256307e+01 0.0 
0.0 0.0 -3.645962603034e+01 
-1.493984991922e+02 5.125733058530e+00 0.0 
5.125733058530e+00 -3.475699012465e+02 0.0 
0.0 0.0 -1.486905201316e+02 
-1.121285834833e+02 8.027558010331e-01 0.0 
8.027558010331e-01 -2.544398316985e+02 0.0 
0.0 0.0 -1.095705245545e+02 
-1.562997334529e+02 -3.593273325703e-01 0.0 
-3.593273325703e-01 -3.599087905508e+02 0.0 
0.0 0.0 -1.544625572011e+02 
-1.493159105574e+02 4.776685176685e+00 0.0 
4.776685176685e+00 -3.566273642185e+02 0.0 
0.0 0.0 -1.513829824328e+02 
-1.637529960719e+02 -2.627626502053e+00 0.0 
-2.627626502053e+00 -3.826380754799e+02 0.0 
0.0 0.0 -1.635173214655e+02 
-1.352641157788e+02 -5.052352741980e-01 0.0 
-5.052352741980e-01 -3.116829937386e+02 0.0 
0.0 0.0 -1.336841328552e+02 
-1.644256949527e+02 3.081576650963e+00 0.0 
3.081576650963e+00 -3.882531141254e+02 0.0 
0.0 0.0 -1.654036427234e+02 
-1.575895216441e+02 -1.912080935657e+00 0.0 
-1.912080935657e+00 -3.729509211868e+02 0.0 
0.0 0.0 -1.587621328493e+02 
-1.574611975931e+02 -3.098783024515e+00 0.0 
-3.098783024515e+00 -3.727420751878e+02 0.0 
0.0 0.0 -1.586609818343e+02 
-6.769022807232e+01 -6.715622873436e-01 0.0 
-6.715622873436e-01 -1.461138839227e+02 0.0 
0.0 0.0 -6.374123359850e+01 
-1.706273088261e+02 -2.961757521193e+00 0.0 
-2.961757521193e+00 -3.974310631562e+02 0.0 
0.0 0.0 -1.700175115947e+02 
-9.800325820525e+01 7.583448069528e-01 0.0 
7.583448069528e-01 -2.211216681636e+02 0.0 
0.0 0.0 -9.533747791065e+01 
-1.514158468830e+02 1.381641946959e+00 0.0 
1.381641946959e+00 -3.513005328637e+02 0.0 
0.0 0.0 -1.504149139240e+02 
-2.737886233323e+01 -5.247838604947e+00 0.0 
-5.247838604947e+00 -4.333814990870e+01 0.0 
0.0 0.0 -1.991528020665e+01 
-1.455844967958e+02 8.015790191170e-01 0.0 
8.015790191170e-01 -3.365705537304e+02 0.0 
0.0 0.0 -1.442465151579e+02 
-1.250003052224e+02 4.095899435371e-01 0.0 
4.095899435371e-01 -2.870585460333e+02 0.0 
0.0 0.0 -1.232176553767e+02 
-1.425734852521e+01 7.607265318207e-01 0.0 
7.607265318207e-01 -4.150671073821e+01 0.0 
0.0 0.0 -1.632921777903e+01 
-3.636861567372e+01 -1.389798104908e+01 0.0 
-1.389798104908e+01 -1.341846382410e+02 0.0 
0.0 0.0 -5.169420554205e+01 
-1.403800054974e+02 3.535416395626e+00 0.0 
3.535416395626e+00 -3.272652506541e+02 0.0 
0.0 0.0 -1.398935768454e+02 
-1.581861912384e+02 1.674938835195e+00 0.0 
1.674938835195e+00 -3.691474423917e+02 0.0 
0.0 0.0 -1.578000900890e+02 
-1.521637283026e+02 9.957053586250e-01 0.0 
9.957053586250e-01 -3.538848527632e+02 0.0 
0.0 0.0 -1.514145743197e+02 
-1.618502269255e+02 1.893223634677e+00 0.0 
1.893223634677e+00 -3.847966685014e+02 0.0 
0.0 0.0 -1.635940686281e+02 
-1.095128018612e+02 -6.620180562039e-01 0.0 
-6.620180562039e-01 -2.504862317958e+02 0.0 
0.0 0.0 -1.075997100971e+02 
-6.301287964072e+00 3.974848939046e-01 0.0 
3.974848939046e-01 -2.481930417323e+01 0.0 
0.0 0.0 -8.827533878303e+00 
-3.469866510097e+01 1.842267854031e+01 0.0 
1.842267854031e+01 -1.159112770214e+02 0.0 
0.0 0.0 -4.675594427252e+01 
-1.089748078269e+01 -1.352641008599e+00 0.0 
-1.352641008599e+00 -2.825901974506e+01 0.0 
0.0 0.0 -1.134695015832e+01 
-2.950422734683e+01 -4.537760350807e+00 0.0 
-4.537760350807e+00 -5.769647511852e+01 0.0 
0.0 0.0 -2.554171698145e+01 
-2.902362516623e+01 2.165964582439e+01 0.0 
2.165964582439e+01 -5.148398211959e+01 0.0 
0.0 0.0 -2.460273340043e+01 
-9.054847462074e+01 -2.470283218503e+00 0.0 
-2.470283218503e+00 -1.963933736444e+02 0.0 
0.0 0.0 -8.568255447954e+01 
-1.562949252884e+02 -2.064383832804e+00 0.0 
-2.064383832804e+00 -3.598549443251e+02 0.0 
0.0 0.0 -1.544449608840e+02 
-1.539858657912e+02 3.145331230900e+00 0.0 
3.145331230900e+00 -3.579080695589e+02 0.0 
0.0 0.0 -1.531681806050e+02 
-1.125031413897e+02 2.804536264941e+00 0.0 
2.804536264941e+00 -2.543721028177e+02 0.0 
0.0 0.0 -1.096625732622e+02 
-7.951762700796e+01 -1.462004934520e+00 0.0 
-1.462004934520e+00 -1.725491401445e+02 0.0 
0.0 0.0 -7.522003014575e+01 
-1.564869272706e+02 -2.345824362419e+00 0.0 
-2.345824362419e+00 -3.680697179453e+02 0.0 
0.0 0.0 -1.569669935648e+02 
-1.539612018995e+02 -2.038288344734e+00 0.0 
-2.038288344734e+00 -3.692362771507e+02 0.0 
0.0 0.0 -1.565592437151e+02 
-1.631062353945e+02 3.519876472421e+00 0.0 
3.519876472421e+00 -3.866748668605e+02 0.0 
0.0 0.0 -1.645343306765e+02 
-1.562664510623e+02 4.734680977369e+00 0.0 
4.734680977369e+00 -3.670458051322e+02 0.0 
0.0 0.0 -1.565936768583e+02 
-1.482097120987e+02 3.689561954951e+00 0.0 
3.689561954951e+00 -3.460914016655e+02 0.0 
0.0 0.0 -1.478903341293e+02 
-2.656195194901e+01 -4.598329724066e+00 0.0 
-4.598329724066e+00 -4.240305600314e+01 0.0 
0.0 0.0 -1.963743099948e+01 
-3.547952399088e+01 -1.769748390967e+01 0.0 
-1.769748390967e+01 -1.137877723281e+02 0.0 
0.0 0.0 -4.654264519189e+01 
-1.567476698286e+02 -1.264780506009e+00 0.0 
-1.264780506009e+00 -3.623963037278e+02 0.0 
0.0 0.0 -1.553431920669e+02 
-1.569909240707e+01 -1.364368438806e-01 0.0 
-1.364368438806e-01 -4.125640115115e+01 0.0 
0.0 0.0 -1.668664806747e+01 
-1.879068411214e+01 -1.309020398919e+00 0.0 
-1.309020398919e+00 -4.899777410726e+01 0.0 
0.0 0.0 -1.993653746582e+01 
-3.506617793353e+01 2.243164102880e+01 0.0 
2.243164102880e+01 -6.225958755962e+01 0.0 
0.0 0.0 -2.946022275060e+01 
-1.578880572774e+01 3.341965576542e-01 0.0 
3.341965576542e-01 -3.851656145644e+01 0.0 
0.0 0.0 -1.589161015525e+01 
-1.641220042479e+02 -2.344698387361e+00 0.0 
-2.344698387361e+00 -3.864635325177e+02 0.0 
0.0 0.0 -1.647756610297e+02 
-1.620889821377e+02 5.016894433554e+00 0.0 
5.016894433554e+00 -3.790114359311e+02 0.0 
0.0 0.0 -1.619301254207e+02 
-1.530477220118e+02 3.487735327140e-01 0.0 
3.487735327140e-01 -3.566469692112e+02 0.0 
0.0 0.0 -1.525084073669e+02 
-1.644008546784e+02 3.878073714339e+00 0.0 
3.878073714339e+00 -3.874705397705e+02 0.0 
0.0 0.0 -1.651614183347e+02 
-1.493432387579e+02 -3.427183246818e-01 0.0 
-3.427183246818e-01 -3.600742930165e+02 0.0 
0.0 0.0 -1.524252595323e+02 
-1.143970968506e+02 -7.378560885947e-01 0.0 
-7.378560885947e-01 -2.616940341998e+02 0.0 
0.0 0.0 -1.124273393151e+02 
-1.653335376858e+02 2.184573748427e+00 0.0 
2.184573748427e+00 -3.871115879335e+02 0.0 
0.0 0.0 -1.653335376858e+02 
-4.850545117762e+01 -1.809797966208e+01 0.0 
-1.809797966208e+01 -1.317489043766e+02 0.0 
0.0 0.0 -5.279236135095e+01 
-8.997124585119e+01 2.191170416524e-01 0.0 
2.191170416524e-01 -2.033390937910e+02 0.0 
0.0 0.0 -8.759310189267e+01 
-4.365638230078e+01 -1.909576657065e+01 0.0 
-1.909576657065e+01 -7.415999372087e+01 0.0 
0.0 0.0 -3.312418539085e+01 
-7.651435296185e+00 -6.485195862380e-02 0.0 
-6.485195862380e-02 -2.468641738224e+01 0.0 
0.0 0.0 -9.883575401711e+00 
-1.700774951853e+02 -2.592469263866e+00 0.0 
-2.592469263866e+00 -3.953838274119e+02 0.0 
0.0 0.0 -1.692383967791e+02 
-9.978036209902e+01 1.743086487359e+00 0.0 
1.743086487359e+00 -2.245759371214e+02 0.0 
0.0 0.0 -9.690688976612e+01 
-2.296166518094e+01 -4.434505440010e-01 0.0 
-4.434505440010e-01 -5.692384021998e+01 0.0 
0.0 0.0 -2.356565162028e+01 
-8.662631966628e+01 -2.346554849335e+00 0.0 
-2.346554849335e+00 -1.882318979962e+02 0.0 
0.0 0.0 -8.205746529875e+01 
-1.625754578521e+02 4.818113979059e+00 0.0 
4.818113979059e+00 -3.794701696230e+02 0.0 
0.0 0.0 -1.622136882425e+02 
-1.529904423636e+02 2.205616649622e+00 0.0 
2.205616649622e+00 -3.553534624576e+02 0.0 
0.0 0.0 -1.521031714464e+02 
-1.597051512806e+02 3.198740809276e+00 0.0 
3.198740809276e+00 -3.726579866931e+02 0.0 
0.0 0.0 -1.593089413921e+02 
-6.160236820227e+01 1.134425897099e-01 0.0 
1.134425897099e-01 -1.328682201768e+02 0.0 
0.0 0.0 -5.794117651371e+01 
-3.696552849102e+01 1.895871689656e+00 0.0 
1.895871689656e+00 -1.247826360996e+02 0.0 
0.0 0.0 -5.045428232066e+01 
-1.635803233693e+02 -2.640078913535e+00 0.0 
-2.640078913535e+00 -3.827656565083e+02 0.0 
0.0 0.0 -1.635037939633e+02 
-1.655182814445e+02 1.312064641671e-01 0.0 
1.312064641671e-01 -3.857063158716e+02 0.0 
0.0 0.0 -1.649673791948e+02 
-1.692169608681e+02 -5.161731173452e-01 0.0 
-5.161731173452e-01 -3.936747319841e+02 0.0 
0.0 0.0 -1.684675078556e+02 
-9.539551632196e+01 -5.161228711282e-01 0.0 
-5.161228711282e-01 -2.175783393742e+02 0.0 
0.0 0.0 -9.349215670884e+01 
-1.565732912020e+02 -6.840949173713e-01 0.0 
-6.840949173713e-01 -3.735288871549e+02 0.0 
0.0 0.0 -1.586306535071e+02 
-2.545681583091e+01 2.336563469311e-01 0.0 
2.336563469311e-01 -5.826307271281e+01 0.0 
0.0 0.0 -2.471596656312e+01 
-1.546447231601e+02 1.869966460345e+00 0.0 
1.869966460345e+00 -3.598763367762e+02 0.0 
0.0 0.0 -1.539563179809e+02 
-7.510768398552e+00 3.305941443818e-01 0.0 
3.305941443818e-01 -2.353435171870e+01 0.0 
0.0 0.0 -9.273699960180e+00 
-1.647786408209e+02 -1.521867455365e+00 0.0 
-1.521867455365e+00 -3.890089090103e+02 0.0 
0.0 0.0 -1.657362649494e+02 
-1.598134381091e+02 2.986566581319e+00 0.0 
2.986566581319e+00 -3.719408586048e+02 0.0 
0.0 0.0 -1.591262890142e+02 
-3.989995535062e+01 1.090012991252e+01 0.0 
1.090012991252e+01 -1.206320595556e+02 0.0 
0.0 0.0 -4.952587867561e+01 
-1.494179404082e+02 5.039197949973e+00 0.0 
5.039197949973e+00 -3.550115704717e+02 0.0 
0.0 0.0 -1.509288532640e+02 
-1.312047811144e+02 1.087390839425e+00 0.0 
1.087390839425e+00 -3.016747679781e+02 0.0 
0.0 0.0 -1.294638647278e+02 
-1.586095881126e+02 1.326656447765e+00 0.0 
1.326656447765e+00 -3.701788490973e+02 0.0 
0.0 0.0 -1.582365311630e+02 
-1.733437459745e+02 2.122284469521e+00 0.0 
2.122284469521e+00 -4.058020739405e+02 0.0 
0.0 0.0 -1.733437459745e+02 
-1.197124619338e+02 1.304423570088e+00 0.0 
1.304423570088e+00 -2.749717979233e+02 0.0 
0.0 0.0 -1.180052779571e+02 
-1.620920164048e+02 4.561530531243e+00 0.0 
4.561530531243e+00 -3.788541168624e+02 0.0 
0.0 0.0 -1.618838399802e+02 
-1.550311966905e+02 3.706108419696e+00 0.0 
3.706108419696e+00 -3.597812760058e+02 0.0 
0.0 0.0 -1.540437418089e+02 
-1.245053172899e+02 1.910617997404e-01 0.0 
1.910617997404e-01 -2.866063607234e+02 0.0 
0.0 0.0 -1.229335034040e+02 
-1.571146096536e+02 4.573496868791e+00 0.0 
4.573496868791e+00 -3.665304149702e+02 0.0 
0.0 0.0 -1.566935073871e+02 
-7.476332244793e+01 -7.295979402003e-01 0.0 
-7.295979402003e-01 -1.604013830068e+02 0.0 
0.0 0.0 -7.014941163643e+01 
-8.919449690876e+01 1.567224858706e-01 0.0 
1.567224858706e-01 -2.032022691097e+02 0.0 
0.0 0.0 -8.731902980555e+01 
-1.577356826025e+02 3.402076409824e+00 0.0 
3.402076409824e+00 -3.742409758714e+02 0.0 
0.0 0.0 -1.591929975422e+02 
-1.592402332786e+02 -3.101457811667e-01 0.0 
-3.101457811667e-01 -3.712792019338e+02 0.0 
0.0 0.0 -1.587558305637e+02 
-4.942483519004e-01 6.863415260065e-02 0.0 
6.863415260065e-02 -8.859808371338e+00 0.0 
0.0 0.0 -2.056648048774e+00 
-8.916657818321e+01 -2.021532830249e-01 0.0 
-2.021532830249e-01 -2.033533958524e+02 0.0 
0.0 0.0 -8.735599221069e+01 
-1.636502379909e+02 1.075826262939e-01 0.0 
1.075826262939e-01 -3.796115199992e+02 0.0 
0.0 0.0 -1.625785273970e+02 
-3.386786011257e+01 -2.075816174057e+00 0.0 
-2.075816174057e+00 -7.320556300377e+01 0.0 
0.0 0.0 -3.172202693490e+01 
-1.545229655192e+02 8.534155412482e-04 0.0 
8.534155412482e-04 -3.727902108774e+02 0.0 
0.0 0.0 -1.577939529190e+02 
-1.548812446138e+02 4.107428282756e+00 0.0 
4.107428282756e+00 -3.585488012295e+02 0.0 
0.0 0.0 -1.536290137530e+02 
-1.584606377511e+02 1.729739055872e+00 0.0 
1.729739055872e+00 -3.689782170001e+02 0.0 
0.0 0.0 -1.578316564254e+02 
-3.110018943857e+01 -1.452524803608e+00 0.0 
-1.452524803608e+00 -7.016405677833e+01 0.0 
0.0 0.0 -2.997927386507e+01 
-4.037603423117e+01 2.680576435431e+01 0.0 
2.680576435431e+01 -9.508138423940e+01 0.0 
0.0 0.0 -3.981549591298e+01 
-1.042986935731e+02 -1.610768215809e+00 0.0 
-1.610768215809e+00 -2.300059121246e+02 0.0 
0.0 0.0 -9.989138170931e+01 
-1.392361395297e+02 -7.699168184950e-02 0.0 
-7.699168184950e-02 -3.226789897287e+02 0.0 
0.0 0.0 -1.381745387775e+02 
-1.028101242761e+02 -3.819082670844e+00 0.0 
-3.819082670844e+00 -9.767950045779e+01 0.0 
0.0 0.0 -6.037127193297e+01 
-1.597469900456e+02 2.802486141618e+00 0.0 
2.802486141618e+00 -3.727640917778e+02 0.0 
0.0 0.0 -1.593533245470e+02 
-1.171555637251e+02 5.418362037045e-03 0.0 
5.418362037045e-03 -2.690467168455e+02 0.0 
0.0 0.0 -1.154606841712e+02 
-4.641271609357e+01 -1.706554975598e+01 0.0 
-1.706554975598e+01 -9.078750396094e+01 0.0 
0.0 0.0 -3.889988479712e+01 
-1.112848551054e+02 -3.898615794611e-02 0.0 
-3.898615794611e-02 -2.553270840689e+02 0.0 
0.0 0.0 -1.095835817523e+02 
-1.627839427773e+02 4.820001449916e+00 0.0 
4.820001449916e+00 -3.850117621492e+02 0.0 
0.0 0.0 -1.639387114779e+02 
-1.093034246912e+02 9.928422022376e-01 0.0 
9.928422022376e-01 -2.411742213900e+02 0.0 
0.0 0.0 -1.047432938244e+02 
-4.043274038241e+01 2.545459191103e+01 0.0 
2.545459191103e+01 -3.795279381287e+01 0.0 
0.0 0.0 -2.426179958875e+01 
-6.775667388978e+01 -2.283071862206e+00 0.0 
-2.283071862206e+00 -1.454495343528e+02 0.0 
0.0 0.0 -6.356186247276e+01 
-9.666825821869e+01 -2.281743108904e+00 0.0 
-2.281743108904e+00 -2.113526916972e+02 0.0 
0.0 0.0 -9.200628497478e+01 
-1.136019773373e+02 -1.626847655306e+00 0.0 
-1.626847655306e+00 -2.505936650960e+02 0.0 
0.0 0.0 -1.088586927300e+02 
-1.570452580933e+02 3.654695623361e+00 0.0 
3.654695623361e+00 -3.747944204971e+02 0.0 
0.0 0.0 -1.591519035771e+02 
-9.415142772963e+01 -1.220133035560e-01 0.0 
-1.220133035560e-01 -2.057964513489e+02 0.0 
0.0 0.0 -8.958436372355e+01 
-9.998080581491e+01 -1.550166306983e+00 0.0 
-1.550166306983e+00 -2.185089210308e+02 0.0 
0.0 0.0 -9.514691805371e+01 
-1.521301956192e+01 -1.331596895979e+00 0.0 
-1.331596895979e+00 -3.696411550406e+01 0.0 
0.0 0.0 -1.525314051979e+01 
-1.579671774503e+02 -3.457116633537e+00 0.0 
-3.457116633537e+00 -3.694288165493e+02 0.0 
0.0 0.0 -1.578187981999e+02 
-1.503475951336e+02 4.020576961068e+00 0.0 
4.020576961068e+00 -3.542292524603e+02 0.0 
0.0 0.0 -1.509730542782e+02 
-4.167436371030e+01 2.366910419677e+01 0.0 
2.366910419677e+01 -1.100898198924e+02 0.0 
0.0 0.0 -4.623588880008e+01 
-1.591366709634e+02 5.178931839365e-01 0.0 
5.178931839365e-01 -3.707030802374e+02 0.0 
0.0 0.0 -1.585519253602e+02 
-1.630100431195e+02 -1.069735777277e+00 0.0 
-1.069735777277e+00 -3.788442796519e+02 0.0 
0.0 0.0 -1.621562968314e+02 
-9.579229363202e+01 6.488611672050e-01 0.0 
6.488611672050e-01 -2.186180677716e+02 0.0 
0.0 0.0 -9.392310842108e+01 
-1.172195292475e+02 8.190296770300e-03 0.0 
8.190296770300e-03 -2.690619300887e+02 0.0 
0.0 0.0 -1.154844378009e+02 
-9.442266107749e+01 -2.039832759150e+00 0.0 
-2.039832759150e+00 -2.056059916008e+02 0.0 
0.0 0.0 -8.960859580347e+01 
-9.762949888202e+01 -8.557144275543e-01 0.0 
-8.557144275543e-01 -2.127358649091e+02 0.0 
0.0 0.0 -9.270960913734e+01 
-9.986571285688e+01 -7.338814294975e-01 0.0 
-7.338814294975e-01 -2.193127784496e+02 0.0 
0.0 0.0 -9.535354739194e+01 
-1.494464399139e+02 -7.072078962877e-02 0.0 
-7.072078962877e-02 -3.611682218774e+02 0.0 
0.0 0.0 -1.527843985374e+02 
-3.905219292206e+01 -1.514044579232e+01 0.0 
-1.514044579232e+01 -6.750084385831e+01 0.0 
0.0 0.0 -3.027554788267e+01 
-1.553671333549e+02 5.436071735648e+00 0.0 
5.436071735648e+00 -3.649900610389e+02 0.0 
0.0 0.0 -1.557071583181e+02 
-1.030068173930e+02 -1.917710417312e-01 0.0 
-1.917710417312e-01 -2.354825040612e+02 0.0 
0.0 0.0 -1.011467964362e+02 
-1.597695543461e+02 3.181173978998e+00 0.0 
3.181173978998e+00 -3.714338761333e+02 0.0 
0.0 0.0 -1.589610291438e+02 
-1.494557080474e+02 7.992909960026e-01 0.0 
7.992909960026e-01 -3.610172111223e+02 0.0 
0.0 0.0 -1.527418757509e+02 
-1.120303639986e+02 5.116445313808e-01 0.0 
5.116445313808e-01 -2.559953999909e+02 0.0 
0.0 0.0 -1.100077291968e+02 
-1.515933874808e+02 3.949555555850e+00 0.0 
3.949555555850e+00 -3.537839117632e+02 0.0 
0.0 0.0 -1.512131897732e+02 
-1.571555735053e+02 2.633373583324e+00 0.0 
2.633373583324e+00 -3.743138970608e+02 0.0 
0.0 0.0 -1.590408411698e+02 
-1.627860580800e+02 3.553676212087e+00 0.0 
3.553676212087e+00 -3.871797846118e+02 0.0 
0.0 0.0 -1.645897528075e+02 
-3.416060720671e+01 2.630412427724e+01 0.0 
2.630412427724e+01 -6.485055944746e+01 0.0 
0.0 0.0 -3.068332662592e+01 
-1.517988414746e+02 5.082467700134e+00 0.0 
5.082467700134e+00 -3.540512190166e+02 0.0 
0.0 0.0 -1.513550181473e+02 
-1.560921218168e+02 3.993452910392e+00 0.0 
3.993452910392e+00 -3.647719528774e+02 0.0 
0.0 0.0 -1.558592224083e+02 
-1.350774434659e+01 4.493294841443e-01 0.0 
4.493294841443e-01 -3.777671955618e+01 0.0 
0.0 0.0 -1.498533917083e+01 
-9.011229905626e+01 -8.478337663346e-01 0.0 
-8.478337663346e-01 -1.957143575482e+02 0.0 
0.0 0.0 -8.534799698134e+01 
-4.501815327902e+01 3.204083152208e+01 0.0 
3.204083152208e+01 -7.098501950226e+01 0.0 
0.0 0.0 -3.576347125683e+01 
-1.567154718551e+02 5.086040944435e+00 0.0 
5.086040944435e+00 -3.652235769643e+02 0.0 
0.0 0.0 -1.561817146458e+02 
-6.947664158127e+00 7.104450240034e-02 0.0 
7.104450240034e-02 -1.159388755215e+01 0.0 
0.0 0.0 -5.984950627420e+00 
-3.982012145834e+00 -1.547971739846e-01 0.0 
-1.547971739846e-01 -9.419125602491e+00 0.0 
0.0 0.0 -3.620341324497e+00 
-6.421245710352e+00 -9.962380716878e-02 0.0 
-9.962380716878e-02 -1.028067127282e+01 0.0 
0.0 0.0 -5.677241761618e+00 
-3.735283972681e+00 1.232156960926e-02 0.0 
1.232156960926e-02 -9.214530278598e+00 0.0 
0.0 0.0 -3.484944275384e+00 
-6.357266136237e+00 -6.012073242862e-02 0.0 
-6.012073242862e-02 -1.028482781396e+01 0.0 
0.0 0.0 -5.659294851726e+00 
-3.686910719760e+00 -1.411331239172e-02 0.0 
-1.411331239172e-02 -9.213106530666e+00 0.0 
0.0 0.0 -3.470005175128e+00 
-6.257650046953e+00 -5.009693740780e-02 0.0 
-5.009693740780e-02 -1.028565487920e+01 0.0 
0.0 0.0 -5.629658144511e+00 
-3.621043227363e+00 -4.053405148724e-02 0.0 
-4.053405148724e-02 -9.219503271900e+00 0.0 
0.0 0.0 -3.452163949779e+00 
-6.116130180541e+00 -5.630212450080e-02 0.0 
-5.630212450080e-02 -1.028445941970e+01 0.0 
0.0 0.0 -5.586843546740e+00 
-3.522271212055e+00 -6.187517707339e-02 0.0 
-6.187517707339e-02 -9.222392396577e+00 0.0 
0.0 0.0 -3.423399082590e+00 
-5.942443057672e+00 -6.812402675231e-02 0.0 
-6.812402675231e-02 -1.028500637469e+01 0.0 
0.0 0.0 -5.534901496374e+00 
-3.390174271785e+00 -8.014911471278e-02 0.0 
-8.014911471278e-02 -9.221477662166e+00 0.0 
0.0 0.0 -3.383495580185e+00 
-5.741790004457e+00 -8.080533198264e-02 0.0 
-8.080533198264e-02 -1.028841564576e+01 0.0 
0.0 0.0 -5.475728361731e+00 
-3.226981879461e+00 -9.645624765445e-02 0.0 
-9.645624765445e-02 -9.217391713562e+00 0.0 
0.0 0.0 -3.333312077907e+00 
-5.517325586096e+00 -9.229352576955e-02 0.0 
-9.229352576955e-02 -1.029478984427e+01 0.0 
0.0 0.0 -5.410301295776e+00 
-3.035891664159e+00 -1.110765706493e-01 0.0 
-1.110765706493e-01 -9.211046051383e+00 0.0 
0.0 0.0 -3.274081314663e+00 
-5.271686908029e+00 -1.014224009521e-01 0.0 
-1.014224009521e-01 -1.030393764422e+01 0.0 
0.0 0.0 -5.339354032341e+00 
-2.821097820167e+00 -1.234214135011e-01 0.0 
-1.234214135011e-01 -9.203829687375e+00 0.0 
0.0 0.0 -3.207478252263e+00 
-5.007304172940e+00 -1.068825149768e-01 0.0 
-1.068825149768e-01 -1.031556659671e+01 0.0 
0.0 0.0 -5.263527897562e+00 
-2.588977618131e+00 -1.314945923903e-01 0.0 
-1.314945923903e-01 -9.198239510492e+00 0.0 
0.0 0.0 -3.136165138587e+00 
-4.725575343233e+00 -1.064088148246e-01 0.0 
-1.064088148246e-01 -1.032912313375e+01 0.0 
0.0 0.0 -5.183076209762e+00 
-2.350798867545e+00 -1.307349372073e-01 0.0 
-1.307349372073e-01 -9.198898698438e+00 0.0 
0.0 0.0 -3.064909269795e+00 
-4.424182019167e+00 -9.595659058167e-02 0.0 
-9.595659058167e-02 -1.034303221467e+01 0.0 
0.0 0.0 -5.096830936817e+00 
-1.176928942132e+01 4.983959945772e+00 0.0 
4.983959945772e+00 -1.266417942203e+01 0.0 
0.0 0.0 -6.712289410019e+00 
-2.127476858463e+00 -1.130264424656e-01 0.0 
-1.130264424656e-01 -9.211147409834e+00 0.0 
0.0 0.0 -3.001587280489e+00 
-4.090603255750e+00 -6.822438544475e-02 0.0 
-6.822438544475e-02 -1.034921867379e+01 0.0 
0.0 0.0 -4.998613245530e+00 
-1.952077836043e+00 -8.558310137570e-02 0.0 
-8.558310137570e-02 -9.186043995132e+00 0.0 
0.0 0.0 -2.874327414552e+00 
7.433967440982e-01 -8.346324688438e-01 0.0 
-8.346324688438e-01 -4.119072431525e+00 0.0 
0.0 0.0 -6.015395997440e-01 
-3.733777498737e+00 -4.257519174064e-02 0.0 
-4.257519174064e-02 -1.037318540664e+01 0.0 
0.0 0.0 -4.898755538281e+00 
-1.828330796895e+00 -6.565905871707e-02 0.0 
-6.565905871707e-02 -9.141206033861e+00 0.0 
0.0 0.0 -2.706016502413e+00 
-1.706276588212e+01 4.583788514056e+00 0.0 
4.583788514056e+00 -1.146393380890e+01 0.0 
0.0 0.0 -9.224676573975e+00 
-3.369330906575e+00 -3.167066268654e-02 0.0 
-3.167066268654e-02 -1.040977102139e+01 0.0 
0.0 0.0 -4.800397245057e+00 
-1.733642918606e+00 -5.395810268924e-02 0.0 
-5.395810268924e-02 -9.104365485960e+00 0.0 
0.0 0.0 -2.538837152004e+00 
-3.009790589153e+00 -3.092866184906e-02 0.0 
-3.092866184906e-02 -1.044659468524e+01 0.0 
0.0 0.0 -4.703582248985e+00 
-1.651023784209e+00 -4.486680921185e-02 0.0 
-4.486680921185e-02 -9.065179268065e+00 0.0 
0.0 0.0 -2.362577472708e+00 
-2.661394671847e+00 -3.746984018112e-02 0.0 
-3.746984018112e-02 -1.048717270080e+01 0.0 
0.0 0.0 -4.611236878460e+00 
-1.570596951078e+00 -3.830201410301e-02 0.0 
-3.830201410301e-02 -9.019975788038e+00 0.0 
0.0 0.0 -2.170212413557e+00 
-2.339366308086e+00 -5.096353764522e-02 0.0 
-5.096353764522e-02 -1.053440775890e+01 0.0 
0.0 0.0 -4.528798886761e+00 
-1.481789160080e+00 -3.757103514830e-02 0.0 
-3.757103514830e-02 -8.958006473969e+00 0.0 
0.0 0.0 -1.952432220080e+00 
-2.068069211939e+00 -7.261065916265e-02 0.0 
-7.261065916265e-02 -1.058742048710e+01 0.0 
0.0 0.0 -4.463313576379e+00 
-3.134805665203e+01 1.354789937502e+01 0.0 
1.354789937502e+01 -1.391590686501e+01 0.0 
0.0 0.0 -1.245412903656e+01 
-1.367315491493e+00 -5.176974175424e-02 0.0 
-5.176974175424e-02 -8.887562738585e+00 0.0 
0.0 0.0 -1.774143016958e+00 
-1.871090983921e+00 -9.900135027456e-02 0.0 
-9.900135027456e-02 -1.064313958767e+01 0.0 
0.0 0.0 -4.420935838145e+00 
-1.199301634394e+00 -1.016417409326e-01 0.0 
-1.016417409326e-01 -8.768623023247e+00 0.0 
0.0 0.0 -1.705327101753e+00 
-1.811388724023e+00 -1.381917668828e-01 0.0 
-1.381917668828e-01 -1.071064060540e+01 0.0 
0.0 0.0 -4.423275465493e+00 
-9.225679997424e-01 -2.005852583225e-01 0.0 
-2.005852583225e-01 -8.669804983064e+00 0.0 
0.0 0.0 -1.604300972655e+00 
-4.833397140955e-01 -3.533645149714e-01 0.0 
-3.533645149714e-01 -8.487421016386e+00 0.0 
0.0 0.0 -1.446921492942e+00 
-1.963433605315e+00 -1.776629372540e-01 0.0 
-1.776629372540e-01 -1.079359895350e+01 0.0 
0.0 0.0 -4.493776434311e+00 
1.360584292075e-01 -4.896743356340e-01 0.0 
-4.896743356340e-01 -8.544226671399e+00 0.0 
0.0 0.0 -1.274788608387e+00 
-2.462293038347e+00 -2.071078988081e-01 0.0 
-2.071078988081e-01 -1.090162903009e+01 0.0 
0.0 0.0 -4.675843287198e+00 
7.286157239209e-01 -4.731054770263e-01 0.0 
-4.731054770263e-01 -8.527519392714e+00 0.0 
0.0 0.0 -1.126707078576e+00 
-3.333054077656e+00 -1.033641887103e-01 0.0 
-1.033641887103e-01 -1.102963687991e+01 0.0 
0.0 0.0 -4.975473953935e+00 
9.861509992124e-01 -3.532718760829e-01 0.0 
-3.532718760829e-01 -8.011553999089e+00 0.0 
0.0 0.0 4.432490098674e-01 
-4.973992085199e+00 1.568272389775e-01 0.0 
1.568272389775e-01 -1.137932125961e+01 0.0 
0.0 0.0 -5.572660670110e+00 
9.978677870142e-01 -1.403176584943e-01 0.0 
-1.403176584943e-01 -8.234089378751e+00 0.0 
0.0 0.0 -6.051733154819e-01 
-7.402638875789e-01 1.128638589870e+00 0.0 
1.128638589870e+00 -1.028154365752e+01 0.0 
0.0 0.0 -2.906542263529e+00 
-7.725066142238e+00 2.863356433148e-01 0.0 
2.863356433148e-01 -1.166898580995e+01 0.0 
0.0 0.0 -6.484882252324e+00 
-1.001496541019e+01 1.273791232575e+00 0.0 
1.273791232575e+00 -1.161176703887e+01 0.0 
0.0 0.0 -7.154686401384e+00 
-1.794421118222e+01 2.442699117177e+00 0.0 
2.442699117177e+00 6.850341816998e-01 0.0 
0.0 0.0 -3.916420126624e+00 
-6.141159800015e+00 8.828776247450e-01 0.0 
8.828776247450e-01 -9.663874570552e+00 0.0 
0.0 0.0 -4.471276580161e+00 
-5.653583777636e+00 -1.177358463779e+00 0.0 
-1.177358463779e+00 -1.161404125155e+01 0.0 
0.0 0.0 -4.605384435305e+00 
-2.925879530729e+00 4.198962261332e-01 0.0 
4.198962261332e-01 -4.691864963185e+00 0.0 
0.0 0.0 -1.885323348174e+00 
-8.191164092130e+00 -4.821174943481e-02 0.0 
-4.821174943481e-02 -1.566877953472e+01 0.0 
0.0 0.0 -7.164158667921e+00 
-3.256053055599e+01 1.916514065696e+01 0.0 
1.916514065696e+01 -2.003661688364e+01 0.0 
0.0 0.0 -1.594581089856e+01 
-1.203311422954e+01 3.191622236076e-01 0.0 
3.191622236076e-01 -2.747643959826e+01 0.0 
0.0 0.0 -1.145286614834e+01 
-1.391439525476e+01 -2.158512417240e-01 0.0 
-2.158512417240e-01 -2.941507935469e+01 0.0 
0.0 0.0 -1.293068920483e+01 
-1.261747373678e+01 2.135073204263e-02 0.0 
2.135073204263e-02 -2.931594948853e+01 0.0 
0.0 0.0 -1.218002696759e+01 
-1.387808811796e+01 -1.027016611634e-01 0.0 
-1.027016611634e-01 -2.953868585442e+01 0.0 
0.0 0.0 -1.289169755798e+01 
-1.258758909785e+01 -4.187491853349e-02 0.0 
-4.187491853349e-02 -2.938691134683e+01 0.0 
0.0 0.0 -1.219235013340e+01 
-1.383502727553e+01 -1.539841441188e-01 0.0 
-1.539841441188e-01 -2.953828530830e+01 0.0 
0.0 0.0 -1.286746549629e+01 
-1.251683587063e+01 -8.450541964336e-02 0.0 
-8.450541964336e-02 -2.937437547067e+01 0.0 
0.0 0.0 -1.216736340239e+01 
-1.376944646261e+01 -2.045467739155e-01 0.0 
-2.045467739155e-01 -2.953988439485e+01 0.0 
0.0 0.0 -1.284482202759e+01 
-1.243221087481e+01 -1.229565510387e-01 0.0 
-1.229565510387e-01 -2.936586222804e+01 0.0 
0.0 0.0 -1.213942193085e+01 
-1.368242430017e+01 -2.509794722409e-01 0.0 
-2.509794722409e-01 -2.954624190841e+01 0.0 
0.0 0.0 -1.281966146172e+01 
-1.233207449029e+01 -1.579366184451e-01 0.0 
-1.579366184451e-01 -2.936059853223e+01 0.0 
0.0 0.0 -1.210780190675e+01 
-1.357651082303e+01 -2.942034904682e-01 0.0 
-2.942034904682e-01 -2.955517737641e+01 0.0 
0.0 0.0 -1.279080817610e+01 
-1.221587997673e+01 -1.892679225658e-01 0.0 
-1.892679225658e-01 -2.935639829153e+01 0.0 
0.0 0.0 -1.207168348048e+01 
-1.345455614592e+01 -3.341852325384e-01 0.0 
-3.341852325384e-01 -2.956554082381e+01 0.0 
0.0 0.0 -1.275822006456e+01 
-1.208446364635e+01 -2.166519781999e-01 0.0 
-2.166519781999e-01 -2.935268540796e+01 0.0 
0.0 0.0 -1.203114471629e+01 
-1.331948056076e+01 -3.703443657822e-01 0.0 
-3.703443657822e-01 -2.957708789020e+01 0.0 
0.0 0.0 -1.272243998666e+01 
-1.193935595403e+01 -2.395659373165e-01 0.0 
-2.395659373165e-01 -2.934993607031e+01 0.0 
0.0 0.0 -1.198678760730e+01 
-1.317427157926e+01 -4.017748495769e-01 0.0 
-4.017748495769e-01 -2.959035714282e+01 0.0 
0.0 0.0 -1.268440097823e+01 
-1.178214534967e+01 -2.571936334533e-01 0.0 
-2.571936334533e-01 -2.934936082569e+01 0.0 
0.0 0.0 -1.193945185261e+01 
-1.302196098960e+01 -4.274316762442e-01 0.0 
-4.274316762442e-01 -2.960686163560e+01 0.0 
0.0 0.0 -1.264539931446e+01 
-1.161328974773e+01 -2.687226189095e-01 0.0 
-2.687226189095e-01 -2.935261808829e+01 0.0 
0.0 0.0 -1.188977235081e+01 
-1.286566536377e+01 -4.467424784195e-01 0.0 
-4.467424784195e-01 -2.962936682077e+01 0.0 
0.0 0.0 -1.260714325805e+01 
-2.204669101101e+01 7.127724410904e+00 0.0 
7.127724410904e+00 -3.463477127443e+01 0.0 
0.0 0.0 -1.554529292171e+01 
-1.142897569641e+01 -2.750041136060e-01 0.0 
-2.750041136060e-01 -2.936028347514e+01 0.0 
0.0 0.0 -1.183677775147e+01 
-1.270918580095e+01 -4.612623179867e-01 0.0 
-4.612623179867e-01 -2.965943809668e+01 0.0 
0.0 0.0 -1.257123408163e+01 
-1.121357291656e+01 -2.840125321171e-01 0.0 
-2.840125321171e-01 -2.936372105253e+01 0.0 
0.0 0.0 -1.177318819073e+01 
-2.417729656642e+01 5.109177086611e+00 0.0 
5.109177086611e+00 -3.197116296202e+01 0.0 
0.0 0.0 -1.647168222797e+01 
-1.255665364510e+01 -4.750214690122e-01 0.0 
-4.750214690122e-01 -2.967388228972e+01 0.0 
0.0 0.0 -1.253195822099e+01 
-1.095477459948e+01 -2.824246119366e-01 0.0 
-2.824246119366e-01 -2.934659472288e+01 0.0 
0.0 0.0 -1.169041079671e+01 
-1.241791340306e+01 -4.832233145939e-01 0.0 
-4.832233145939e-01 -2.968006098213e+01 0.0 
0.0 0.0 -1.249457199835e+01 
-1.067169282893e+01 -2.692903368153e-01 0.0 
-2.692903368153e-01 -2.932103133609e+01 0.0 
0.0 0.0 -1.159781724951e+01 
-1.230914153392e+01 -4.849864778428e-01 0.0 
-4.849864778428e-01 -2.969330838716e+01 0.0 
0.0 0.0 -1.246845195028e+01 
-1.526257324930e+01 5.147204832408e+00 0.0 
5.147204832408e+00 -2.746329467675e+01 0.0 
0.0 0.0 -1.161655103414e+01 
-1.038165617334e+01 -2.531609438870e-01 0.0 
-2.531609438870e-01 -2.929808121803e+01 0.0 
0.0 0.0 -1.150392121741e+01 
-1.224976771293e+01 -4.822174552107e-01 0.0 
-4.822174552107e-01 -2.970906046205e+01 0.0 
0.0 0.0 -1.245907276331e+01 
-1.009578214595e+01 -2.341099104792e-01 0.0 
-2.341099104792e-01 -2.927508964614e+01 0.0 
0.0 0.0 -1.141126153763e+01 
-1.226683763652e+01 -4.756035903904e-01 0.0 
-4.756035903904e-01 -2.972892011818e+01 0.0 
0.0 0.0 -1.247459643867e+01 
-9.815870919929e+00 -2.100949116915e-01 0.0 
-2.100949116915e-01 -2.924868663717e+01 0.0 
0.0 0.0 -1.131936726713e+01 
-1.239137768605e+01 -4.608874603395e-01 0.0 
-4.608874603395e-01 -2.974662928356e+01 0.0 
0.0 0.0 -1.252346000687e+01 
-9.544264013875e+00 -1.797610468779e-01 0.0 
-1.797610468779e-01 -2.921022807503e+01 0.0 
0.0 0.0 -1.122634762667e+01 
-1.267295674674e+01 -4.411677535228e-01 0.0 
-4.411677535228e-01 -2.977434543166e+01 0.0 
0.0 0.0 -1.262077451092e+01 
-9.295253171687e+00 -1.326884860328e-01 0.0 
-1.326884860328e-01 -2.917537764364e+01 0.0 
0.0 0.0 -1.114118924460e+01 
-1.314675466452e+01 -3.814016936830e-01 0.0 
-3.814016936830e-01 -2.977681338980e+01 0.0 
0.0 0.0 -1.277088938848e+01 
-9.111665725499e+00 -6.071907182462e-02 0.0 
-6.071907182462e-02 -2.911456781310e+01 0.0 
0.0 0.0 -1.106787006158e+01 
-1.391286939009e+01 -2.991080118206e-01 0.0 
-2.991080118206e-01 -2.982475031979e+01 0.0 
0.0 0.0 -1.301201799555e+01 
-2.850609497815e+01 9.114414486261e+00 0.0 
9.114414486261e+00 -3.616450801108e+01 0.0 
0.0 0.0 -1.799354746526e+01 
-1.500786293131e+01 -6.242194014310e-02 0.0 
-6.242194014310e-02 -2.982259061988e+01 0.0 
0.0 0.0 -1.335554313014e+01 
-9.042323223760e+00 7.616938047779e-02 0.0 
7.616938047779e-02 -2.913476756653e+01 0.0 
0.0 0.0 -1.105312723709e+01 
-1.672519371347e+01 2.111710217732e-01 0.0 
2.111710217732e-01 -3.008928288648e+01 0.0 
0.0 0.0 -1.392572404557e+01 
-9.218473817187e+00 2.838215483833e-01 0.0 
2.838215483833e-01 -2.911193701474e+01 0.0 
0.0 0.0 -1.109912324958e+01 
-1.891713975897e+01 1.042179685380e+00 0.0 
1.042179685380e+00 -3.030691381622e+01 0.0 
0.0 0.0 -1.470106982974e+01 
-9.715530665673e+00 7.267276136141e-01 0.0 
7.267276136141e-01 -2.960585939041e+01 0.0 
0.0 0.0 -1.139641701682e+01 
-2.074279201147e+01 2.348369031319e+00 0.0 
2.348369031319e+00 -3.032478089926e+01 0.0 
0.0 0.0 -1.511551394261e+01 
-1.056865702000e+01 1.308295686274e+00 0.0 
1.308295686274e+00 -2.980269107847e+01 0.0 
0.0 0.0 -1.171140442954e+01 
-1.257227834560e+01 3.197598592016e+00 0.0 
3.197598592016e+00 -3.141407797447e+01 0.0 
0.0 0.0 -1.279590689602e+01 
-2.255995344539e+01 6.913154678185e+00 0.0 
6.913154678185e+00 -2.461671380594e+01 0.0 
0.0 0.0 -1.395457666925e+01 
-1.296237472124e+01 1.438358042192e+00 0.0 
1.438358042192e+00 -2.979659765582e+01 0.0 
0.0 0.0 -1.238150673696e+01 
-1.325796540704e+01 -1.478583832795e+00 0.0 
-1.478583832795e+00 -2.791250834745e+01 0.0 
0.0 0.0 -1.195114212635e+01 
-1.533466494582e+01 1.140371113237e-01 0.0 
1.140371113237e-01 -3.396776141875e+01 0.0 
0.0 0.0 -1.439072790937e+01 
-1.079481877032e+01 -1.587986576599e-01 0.0 
-1.587986576599e-01 -2.384737338051e+01 0.0 
0.0 0.0 -9.992657645248e+00 
-2.491270535481e+01 1.071465752260e+01 0.0 
1.071465752260e+01 -3.008120493743e+01 0.0 
0.0 0.0 -1.580657228682e+01 
-2.242396244058e+01 3.264576202549e-01 0.0 
3.264576202549e-01 -5.073091378091e+01 0.0 
0.0 0.0 -2.154646286645e+01 
-2.127663947075e+01 -2.751776355616e-01 0.0 
-2.751776355616e-01 -4.893585206740e+01 0.0 
0.0 0.0 -2.066374746144e+01 
-2.166248465840e+01 -3.189259997099e-03 0.0 
-3.189259997099e-03 -4.907084026131e+01 0.0 
0.0 0.0 -2.081999747591e+01 
-2.123043476098e+01 -1.304796570105e-01 0.0 
-1.304796570105e-01 -4.883800062177e+01 0.0 
0.0 0.0 -2.062053061483e+01 
-2.158323835053e+01 -9.334230703478e-02 0.0 
-9.334230703478e-02 -4.898211191537e+01 0.0 
0.0 0.0 -2.076960507977e+01 
-2.119339457158e+01 -1.919297155112e-01 0.0 
-1.919297155112e-01 -4.883260328532e+01 0.0 
0.0 0.0 -2.060779935707e+01 
-2.154457587758e+01 -1.589275041709e-01 0.0 
-1.589275041709e-01 -4.897413724977e+01 0.0 
0.0 0.0 -2.075561393821e+01 
-2.114552544686e+01 -2.543752701379e-01 0.0 
-2.543752701379e-01 -4.883333023539e+01 0.0 
0.0 0.0 -2.059365670467e+01 
-2.150865990785e+01 -2.165110938208e-01 0.0 
-2.165110938208e-01 -4.897576403904e+01 0.0 
0.0 0.0 -2.074532718406e+01 
-2.108798159753e+01 -3.121379630642e-01 0.0 
-3.121379630642e-01 -4.883615793847e+01 0.0 
0.0 0.0 -2.057724186080e+01 
-2.147282473770e+01 -2.679037126513e-01 0.0 
-2.679037126513e-01 -4.898221773440e+01 0.0 
0.0 0.0 -2.073651274163e+01 
-2.102156706769e+01 -3.654204485255e-01 0.0 
-3.654204485255e-01 -4.884000906831e+01 0.0 
0.0 0.0 -2.055847284080e+01 
-2.143720996047e+01 -3.133411307494e-01 0.0 
-3.133411307494e-01 -4.899175776119e+01 0.0 
0.0 0.0 -2.072869031650e+01 
-2.094711423299e+01 -4.137790003803e-01 0.0 
-4.137790003803e-01 -4.884466049319e+01 0.0 
0.0 0.0 -2.053753241785e+01 
-2.140236199029e+01 -3.526322069585e-01 0.0 
-3.526322069585e-01 -4.900372739601e+01 0.0 
0.0 0.0 -2.072182681589e+01 
-2.086569708266e+01 -4.564200081948e-01 0.0 
-4.564200081948e-01 -4.885061759093e+01 0.0 
0.0 0.0 -2.051489440208e+01 
-2.136909414802e+01 -3.853568513409e-01 0.0 
-3.853568513409e-01 -4.901829111036e+01 0.0 
0.0 0.0 -2.071621557751e+01 
-2.077842042425e+01 -4.924369435287e-01 0.0 
-4.924369435287e-01 -4.885877479092e+01 0.0 
0.0 0.0 -2.049115856455e+01 
-2.133876696995e+01 -4.110814107456e-01 0.0 
-4.110814107456e-01 -4.903631349913e+01 0.0 
0.0 0.0 -2.071252414072e+01 
-2.068588745396e+01 -5.212160537806e-01 0.0 
-5.212160537806e-01 -4.886995652780e+01 0.0 
0.0 0.0 -2.046675319453e+01 
-2.982772027307e+01 6.017586911987e+00 0.0 
6.017586911987e+00 -5.422878376475e+01 0.0 
0.0 0.0 -2.410974285547e+01 
-2.131345496694e+01 -4.297365855680e-01 0.0 
-4.297365855680e-01 -4.905917025613e+01 0.0 
0.0 0.0 -2.071178756692e+01 
-2.058727379777e+01 -5.432442016317e-01 0.0 
-5.432442016317e-01 -4.888366987559e+01 0.0 
0.0 0.0 -2.044128310201e+01 
-2.129652363766e+01 -4.418114932070e-01 0.0 
-4.418114932070e-01 -4.908763995900e+01 0.0 
0.0 0.0 -2.071524907900e+01 
-2.504662661790e+01 4.435631257379e+00 0.0 
4.435631257379e+00 -4.724545800604e+01 0.0 
0.0 0.0 -2.095921314829e+01 
-2.048029609200e+01 -5.608961610715e-01 0.0 
-5.608961610715e-01 -4.889544105203e+01 0.0 
0.0 0.0 -2.041272114321e+01 
-2.129233387779e+01 -4.454689944574e-01 0.0 
-4.454689944574e-01 -4.911616927128e+01 0.0 
0.0 0.0 -2.072255094472e+01 
-3.162413553308e+01 4.211997192516e+00 0.0 
4.211997192516e+00 -5.144138773428e+01 0.0 
0.0 0.0 -2.371397990685e+01 
-2.037295657049e+01 -5.718117927205e-01 0.0 
-5.718117927205e-01 -4.889980929045e+01 0.0 
0.0 0.0 -2.038182975828e+01 
-2.130637647330e+01 -4.341589023721e-01 0.0 
-4.341589023721e-01 -4.913356196565e+01 0.0 
0.0 0.0 -2.073198153168e+01 
-2.026820290310e+01 -5.640600720790e-01 0.0 
-5.640600720790e-01 -4.889933730558e+01 0.0 
0.0 0.0 -2.035026206260e+01 
-2.134743115143e+01 -4.024048472549e-01 0.0 
-4.024048472549e-01 -4.914768516915e+01 0.0 
0.0 0.0 -2.074853489617e+01 
-2.017361839669e+01 -5.330916110778e-01 0.0 
-5.330916110778e-01 -4.889728276280e+01 0.0 
0.0 0.0 -2.032127034785e+01 
-2.143174441535e+01 -3.504881963635e-01 0.0 
-3.504881963635e-01 -4.916781335855e+01 0.0 
0.0 0.0 -2.077986733217e+01 
-2.010504639385e+01 -4.786054478385e-01 0.0 
-4.786054478385e-01 -4.890234382675e+01 0.0 
0.0 0.0 -2.030221706618e+01 
-2.157263156522e+01 -2.694909275180e-01 0.0 
-2.694909275180e-01 -4.919241532837e+01 0.0 
0.0 0.0 -2.082951406808e+01 
-2.008346466733e+01 -3.946731079485e-01 0.0 
-3.946731079485e-01 -4.890417307501e+01 0.0 
0.0 0.0 -2.029629132270e+01 
-3.421141832822e+01 6.758243288354e+00 0.0 
6.758243288354e+00 -5.523162001020e+01 0.0 
0.0 0.0 -2.541642043372e+01 
-2.180482302489e+01 -1.626344037772e-01 0.0 
-1.626344037772e-01 -4.922249863197e+01 0.0 
0.0 0.0 -2.090819649706e+01 
-2.012669218242e+01 -2.740278465665e-01 0.0 
-2.740278465665e-01 -4.892598953691e+01 0.0 
0.0 0.0 -2.031580451580e+01 
-2.213822061475e+01 1.287536007150e-03 0.0 
1.287536007150e-03 -4.925068297127e+01 0.0 
0.0 0.0 -2.101667107581e+01 
-2.027259199254e+01 -1.003008060204e-01 0.0 
-1.003008060204e-01 -4.892638848078e+01 0.0 
0.0 0.0 -2.035969414200e+01 
-2.054013092496e+01 1.469169950063e-01 0.0 
1.469169950063e-01 -4.903557053883e+01 0.0 
0.0 0.0 -2.047271043914e+01 
-2.267634152077e+01 1.898439936508e-01 0.0 
1.898439936508e-01 -4.930622296081e+01 0.0 
0.0 0.0 -2.119476934447e+01 
-2.102186381117e+01 5.221169131501e-01 0.0 
5.221169131501e-01 -4.907915660642e+01 0.0 
0.0 0.0 -2.063030612528e+01 
-2.348971030055e+01 5.331854989349e-01 0.0 
5.331854989349e-01 -4.933163061689e+01 0.0 
0.0 0.0 -2.136607717160e+01 
-2.172614948932e+01 1.082843559139e+00 0.0 
1.082843559139e+00 -4.955335298752e+01 0.0 
0.0 0.0 -2.098385074305e+01 
-2.482984769366e+01 9.008818776492e-01 0.0 
9.008818776492e-01 -4.948841562648e+01 0.0 
0.0 0.0 -2.170233925938e+01 
-2.290392504993e+01 1.924080141515e+00 0.0 
1.924080141515e+00 -4.971685465573e+01 0.0 
0.0 0.0 -2.138623391170e+01 
-2.431936239964e+01 3.096023666395e+00 0.0 
3.096023666395e+00 -5.130296604144e+01 0.0 
0.0 0.0 -2.228669853232e+01 
-2.642566269922e+01 1.765773793057e+00 0.0 
1.765773793057e+00 -4.954445090667e+01 0.0 
0.0 0.0 -2.188965709047e+01 
-2.863970288486e+01 2.416542413167e+00 0.0 
2.416542413167e+00 -5.033417120249e+01 0.0 
0.0 0.0 -2.281950278168e+01 
-2.994040858114e+01 5.574605933080e+00 0.0 
5.574605933080e+00 -4.533524474101e+01 0.0 
0.0 0.0 -2.108091710412e+01 
-2.216426125708e+01 1.486242088265e+00 0.0 
1.486242088265e+00 -4.859571509022e+01 0.0 
0.0 0.0 -2.082799290419e+01 
-2.182879372153e+01 -1.412096668712e+00 0.0 
-1.412096668712e+00 -5.057156128377e+01 0.0 
0.0 0.0 -2.132010650159e+01 
-1.982837660613e+01 1.727527412832e-01 0.0 
1.727527412832e-01 -4.445308862613e+01 0.0 
0.0 0.0 -1.888443956968e+01 
-2.409762815443e+01 -1.382171104667e-01 0.0 
-1.382171104667e-01 -5.458618493948e+01 0.0 
0.0 0.0 -2.320514392817e+01 
-2.982691471954e+01 8.091943327590e+00 0.0 
8.091943327590e+00 -4.832424763423e+01 0.0 
0.0 0.0 -2.150005491865e+01 
-2.929954913927e+01 2.304952932485e-01 0.0 
2.304952932485e-01 -6.677394941117e+01 0.0 
0.0 0.0 -2.842204956513e+01 
-3.029957409779e+01 -3.353067182571e-01 0.0 
-3.353067182571e-01 -6.852696571219e+01 0.0 
0.0 0.0 -2.924796194299e+01 
-2.994999449010e+01 -5.525072536393e-02 0.0 
-5.525072536393e-02 -6.840836320196e+01 0.0 
0.0 0.0 -2.910750730762e+01 
-3.033816435329e+01 -1.780749019280e-01 0.0 
-1.780749019280e-01 -6.865433190790e+01 0.0 
0.0 0.0 -2.929774887836e+01 
-2.994604435006e+01 -1.297410492134e-01 0.0 
-1.297410492134e-01 -6.849532591427e+01 0.0 
0.0 0.0 -2.913241107930e+01 
-3.032707774743e+01 -2.323756202544e-01 0.0 
-2.323756202544e-01 -6.866752582046e+01 0.0 
0.0 0.0 -2.929838107037e+01 
-2.991341035698e+01 -1.907367160977e-01 0.0 
-1.907367160977e-01 -6.850141770169e+01 0.0 
0.0 0.0 -2.912444841760e+01 
-3.031567915559e+01 -2.954600938601e-01 0.0 
-2.954600938601e-01 -6.867715957359e+01 0.0 
0.0 0.0 -2.929785161875e+01 
-2.987911485310e+01 -2.466708535327e-01 0.0 
-2.466708535327e-01 -6.850682557797e+01 0.0 
0.0 0.0 -2.911578212932e+01 
-3.030712767817e+01 -3.546635512113e-01 0.0 
-3.546635512113e-01 -6.868955091412e+01 0.0 
0.0 0.0 -2.929900357768e+01 
-2.984410228731e+01 -2.972804434595e-01 0.0 
-2.972804434595e-01 -6.851519868351e+01 0.0 
0.0 0.0 -2.910779029125e+01 
-3.030256949465e+01 -4.085784650931e-01 0.0 
-4.085784650931e-01 -6.870418652556e+01 0.0 
0.0 0.0 -2.930202680606e+01 
-2.980894871925e+01 -3.419656013957e-01 0.0 
-3.419656013957e-01 -6.852581486501e+01 0.0 
0.0 0.0 -2.910042907528e+01 
-3.030354933715e+01 -4.567033804233e-01 0.0 
-4.567033804233e-01 -6.872091954538e+01 0.0 
0.0 0.0 -2.930734066476e+01 
-2.977443957184e+01 -3.799375804025e-01 0.0 
-3.799375804025e-01 -6.853857508628e+01 0.0 
0.0 0.0 -2.909390439744e+01 
-3.031103514460e+01 -4.982121412698e-01 0.0 
-4.982121412698e-01 -6.874012543000e+01 0.0 
0.0 0.0 -2.931534817238e+01 
-2.974168227542e+01 -4.101585966842e-01 0.0 
-4.101585966842e-01 -6.855433007430e+01 0.0 
0.0 0.0 -2.908880370492e+01 
-3.032653276581e+01 -5.318726326015e-01 0.0 
-5.318726326015e-01 -6.876253206980e+01 0.0 
0.0 0.0 -2.932671945068e+01 
-2.971205223489e+01 -4.316644309328e-01 0.0 
-4.316644309328e-01 -6.857397911733e+01 0.0 
0.0 0.0 -2.908580940567e+01 
-3.674868107810e+01 5.439682100761e+00 0.0 
5.439682100761e+00 -7.310213579869e+01 0.0 
0.0 0.0 -3.255524506304e+01 
-3.035219529491e+01 -5.565139010221e-01 0.0 
-5.565139010221e-01 -6.878887710215e+01 0.0 
0.0 0.0 -2.934232171912e+01 
-2.968730599672e+01 -4.437793426281e-01 0.0 
-4.437793426281e-01 -6.859815599230e+01 0.0 
0.0 0.0 -2.908563859671e+01 
-3.039180183947e+01 -5.710818249164e-01 0.0 
-5.710818249164e-01 -6.881901528586e+01 0.0 
0.0 0.0 -2.936324513760e+01 
-3.667213093694e+01 3.831946271821e+00 0.0 
3.831946271821e+00 -7.075089098093e+01 0.0 
0.0 0.0 -3.182690657536e+01 
-2.967016279737e+01 -4.461665893748e-01 0.0 
-4.461665893748e-01 -6.862613133166e+01 0.0 
0.0 0.0 -2.908888823871e+01 
-3.045091212319e+01 -5.743676098195e-01 0.0 
-5.743676098195e-01 -6.885033139061e+01 0.0 
0.0 0.0 -2.939037305414e+01 
-2.966717614001e+01 -4.354794472754e-01 0.0 
-4.354794472754e-01 -6.865746788311e+01 0.0 
0.0 0.0 -2.909739320693e+01 
-3.053192521139e+01 -5.605239955163e-01 0.0 
-5.605239955163e-01 -6.887778313376e+01 0.0 
0.0 0.0 -2.942291250354e+01 
-2.968893686983e+01 -4.032144875361e-01 0.0 
-4.032144875361e-01 -6.869286955755e+01 0.0 
0.0 0.0 -2.911454192821e+01 
-3.404285158913e+01 4.293591711365e+00 0.0 
4.293591711365e+00 -6.652010102797e+01 0.0 
0.0 0.0 -2.976888578513e+01 
-3.064623852281e+01 -5.213135575067e-01 0.0 
-5.213135575067e-01 -6.890447886052e+01 0.0 
0.0 0.0 -2.946521521500e+01 
-2.974252333491e+01 -3.394798783341e-01 0.0 
-3.394798783341e-01 -6.873623359728e+01 0.0 
0.0 0.0 -2.914362707966e+01 
-3.079607772869e+01 -4.448177667930e-01 0.0 
-4.448177667930e-01 -6.893120954970e+01 0.0 
0.0 0.0 -2.951818618352e+01 
-2.984069520848e+01 -2.374849759952e-01 0.0 
-2.374849759952e-01 -6.878869854252e+01 0.0 
0.0 0.0 -2.918881812530e+01 
-3.101744713895e+01 -3.286478945033e-01 0.0 
-3.286478945033e-01 -6.897053123698e+01 0.0 
0.0 0.0 -2.959639351278e+01 
-3.000403761050e+01 -8.672350402519e-02 0.0 
-8.672350402519e-02 -6.886569610069e+01 0.0 
0.0 0.0 -2.926092011336e+01 
-3.128474222088e+01 -1.468762894846e-01 0.0 
-1.468762894846e-01 -6.900493391344e+01 0.0 
0.0 0.0 -2.968690284030e+01 
-3.026122150928e+01 1.238818956372e-01 0.0 
1.238818956372e-01 -6.895409509555e+01 0.0 
0.0 0.0 -2.936459498145e+01 
-3.170195826258e+01 8.995323010539e-02 0.0 
8.995323010539e-02 -6.907343307348e+01 0.0 
0.0 0.0 -2.983261740082e+01 
-3.065265262032e+01 4.264995069629e-01 0.0 
4.264995069629e-01 -6.911769098426e+01 0.0 
0.0 0.0 -2.953110308138e+01 
-3.212296336350e+01 4.737971938417e-01 0.0 
4.737971938417e-01 -6.910595450099e+01 0.0 
0.0 0.0 -2.996867535935e+01 
-4.011999452488e+01 5.415722870145e+00 0.0 
5.415722870145e+00 -7.425913590086e+01 0.0 
0.0 0.0 -3.391373912772e+01 
-3.289955441202e+01 9.016118171273e-01 0.0 
9.016118171273e-01 -6.929361078230e+01 0.0 
0.0 0.0 -3.025794955830e+01 
-3.123247262006e+01 8.414828213306e-01 0.0 
8.414828213306e-01 -6.927052885918e+01 0.0 
0.0 0.0 -2.975090044377e+01 
-3.338266130584e+01 1.725510816213e+00 0.0 
1.725510816213e+00 -6.935164112440e+01 0.0 
0.0 0.0 -3.042029072907e+01 
-3.195652486647e+01 1.455485034211e+00 0.0 
1.455485034211e+00 -6.971155270753e+01 0.0 
0.0 0.0 -3.010042327220e+01 
-3.501005064845e+01 2.341499139824e+00 0.0 
2.341499139824e+00 -7.000045647402e+01 0.0 
0.0 0.0 -3.110315213674e+01 
-3.293921317616e+01 2.240266820591e+00 0.0 
2.240266820591e+00 -6.990570203164e+01 0.0 
0.0 0.0 -3.045347456234e+01 
-3.402812946890e+01 3.361826242047e+00 0.0 
3.361826242047e+00 -7.115822902483e+01 0.0 
0.0 0.0 -3.115590754812e+01 
-3.593686911587e+01 4.687112206292e+00 0.0 
4.687112206292e+00 -6.482601367723e+01 0.0 
0.0 0.0 -2.982886483793e+01 
-2.977762743208e+01 1.456500887859e+00 0.0 
1.456500887859e+00 -6.898688028135e+01 0.0 
0.0 0.0 -2.922935231403e+01 
-3.011179981891e+01 -1.483251030519e+00 0.0 
-1.483251030519e+00 -6.702763477882e+01 0.0 
0.0 0.0 -2.874183037932e+01 
-3.223852683205e+01 1.221982219036e-01 0.0 
1.221982219036e-01 -7.311529681709e+01 0.0 
0.0 0.0 -3.120614709474e+01 
-2.771375813385e+01 -1.870471675786e-01 0.0 
-1.870471675786e-01 -6.302382155812e+01 0.0 
0.0 0.0 -2.682127390759e+01 
-3.613600245195e+01 6.357677899515e+00 0.0 
6.357677899515e+00 -6.713087690955e+01 0.0 
0.0 0.0 -3.046996394499e+01 
-3.969061677335e+01 2.326418721894e-01 0.0 
2.326418721894e-01 -8.988936515522e+01 0.0 
0.0 0.0 -3.847399457857e+01 
-3.867823725021e+01 -3.506115767427e-01 0.0 
-3.506115767427e-01 -8.807717973451e+01 0.0 
0.0 0.0 -3.762662509542e+01 
-3.897401666472e+01 -7.503896900132e-02 0.0 
-7.503896900132e-02 -8.816922516028e+01 0.0 
0.0 0.0 -3.774297254750e+01 
-3.860541102232e+01 -1.891023146798e-01 0.0 
-1.891023146798e-01 -8.794457413563e+01 0.0 
0.0 0.0 -3.756499554738e+01 
-3.894342191971e+01 -1.485536918763e-01 0.0 
-1.485536918763e-01 -8.808069075999e+01 0.0 
0.0 0.0 -3.770723380391e+01 
-3.858656889270e+01 -2.387094479061e-01 0.0 
-2.387094479061e-01 -8.793967182608e+01 0.0 
0.0 0.0 -3.755787221563e+01 
-3.895127485125e+01 -2.075608684813e-01 0.0 
-2.075608684813e-01 -8.808595193887e+01 0.0 
0.0 0.0 -3.771116803703e+01 
-3.857462009287e+01 -2.973946979447e-01 0.0 
-2.973946979447e-01 -8.794802176058e+01 0.0 
0.0 0.0 -3.755679255604e+01 
-3.896583594687e+01 -2.613160294215e-01 0.0 
-2.613160294215e-01 -8.810063176204e+01 0.0 
0.0 0.0 -3.771994031267e+01 
-3.856647224806e+01 -3.518636518135e-01 0.0 
-3.518636518135e-01 -8.796135491053e+01 0.0 
0.0 0.0 -3.755834814758e+01 
-3.898766958312e+01 -3.085127650243e-01 0.0 
-3.085127650243e-01 -8.811970107888e+01 0.0 
0.0 0.0 -3.773221119860e+01 
-3.856269802515e+01 -3.999590952983e-01 0.0 
-3.999590952983e-01 -8.797781976338e+01 0.0 
0.0 0.0 -3.756215533656e+01 
-3.901866121630e+01 -3.482161312208e-01 0.0 
-3.482161312208e-01 -8.814180437124e+01 0.0 
0.0 0.0 -3.774813967626e+01 
-3.856458616630e+01 -4.405590345641e-01 0.0 
-4.405590345641e-01 -8.799667214673e+01 0.0 
0.0 0.0 -3.756837749391e+01 
-3.906170988578e+01 -3.803437380176e-01 0.0 
-3.803437380176e-01 -8.816697620709e+01 0.0 
0.0 0.0 -3.776860582786e+01 
-3.857385997593e+01 -4.729124546767e-01 0.0 
-4.729124546767e-01 -8.802005003644e+01 0.0 
0.0 0.0 -3.757817300371e+01 
-3.911657007049e+01 -4.035334338382e-01 0.0 
-4.035334338382e-01 -8.819596799678e+01 0.0 
0.0 0.0 -3.779376142018e+01 
-3.859210272770e+01 -4.951890847839e-01 0.0 
-4.951890847839e-01 -8.804886198089e+01 0.0 
0.0 0.0 -3.759228941258e+01 
-4.415693396738e+01 4.513941522250e+00 0.0 
4.513941522250e+00 -9.248329228936e+01 0.0 
0.0 0.0 -4.059206787702e+01 
-3.918512107123e+01 -4.161413543993e-01 0.0 
-4.161413543993e-01 -8.822954889412e+01 0.0 
0.0 0.0 -3.782440098960e+01 
-3.862163246059e+01 -5.053742803876e-01 0.0 
-5.053742803876e-01 -8.808423048872e+01 0.0 
0.0 0.0 -3.761175888479e+01 
-3.927092060450e+01 -4.155083072893e-01 0.0 
-4.155083072893e-01 -8.826848479227e+01 0.0 
0.0 0.0 -3.786182161903e+01 
-4.179400996768e+01 3.584500351903e+00 0.0 
3.584500351903e+00 -8.582969488555e+01 0.0 
0.0 0.0 -3.788711145597e+01 
-3.866616770154e+01 -5.009470227140e-01 0.0 
-5.009470227140e-01 -8.812586896401e+01 0.0 
0.0 0.0 -3.763761099967e+01 
-4.424671795062e+01 3.175548010172e+00 0.0 
3.175548010172e+00 -9.035981946668e+01 0.0 
0.0 0.0 -3.998196122519e+01 
-3.938065390882e+01 -3.984807387449e-01 0.0 
-3.984807387449e-01 -8.831252602743e+01 0.0 
0.0 0.0 -3.790795398087e+01 
-3.873216955433e+01 -4.786711713803e-01 0.0 
-4.786711713803e-01 -8.817326539660e+01 0.0 
0.0 0.0 -3.767163048528e+01 
-3.952197839938e+01 -3.635910718107e-01 0.0 
-3.635910718107e-01 -8.836222063560e+01 0.0 
0.0 0.0 -3.796525971049e+01 
-3.882929845395e+01 -4.322929333031e-01 0.0 
-4.322929333031e-01 -8.823832069974e+01 0.0 
0.0 0.0 -3.772028574611e+01 
-3.968904656275e+01 -2.971578635582e-01 0.0 
-2.971578635582e-01 -8.841672107172e+01 0.0 
0.0 0.0 -3.803173029034e+01 
-3.896513776388e+01 -3.492225315020e-01 0.0 
-3.492225315020e-01 -8.831524375635e+01 0.0 
0.0 0.0 -3.778411445607e+01 
-3.989780019461e+01 -1.964169906563e-01 0.0 
-1.964169906563e-01 -8.848097066575e+01 0.0 
0.0 0.0 -3.811363125811e+01 
-3.915302549580e+01 -2.171586919757e-01 0.0 
-2.171586919757e-01 -8.843075433963e+01 0.0 
0.0 0.0 -3.787513395063e+01 
-4.710777684521e+01 4.408088265008e+00 0.0 
4.408088265008e+00 -9.358604967730e+01 0.0 
0.0 0.0 -4.180814795675e+01 
-4.013995045751e+01 -2.741398288562e-02 0.0 
-2.741398288562e-02 -8.855204371643e+01 0.0 
0.0 0.0 -3.820759825218e+01 
-3.940383315408e+01 -2.081086157273e-02 0.0 
-2.081086157273e-02 -8.853876527227e+01 0.0 
0.0 0.0 -3.798277952790e+01 
-4.048551224501e+01 1.758416520262e-01 0.0 
1.758416520262e-01 -8.865368938526e+01 0.0 
0.0 0.0 -3.834176048908e+01 
-3.975095943876e+01 2.515162437367e-01 0.0 
2.515162437367e-01 -8.875944075517e+01 0.0 
0.0 0.0 -3.815312005818e+01 
-4.019886381293e+01 6.281958911831e-01 0.0 
6.281958911831e-01 -8.889954602428e+01 0.0 
0.0 0.0 -3.832952295116e+01 
-4.082844206748e+01 5.222369132028e-01 0.0 
5.222369132028e-01 -8.875315425508e+01 0.0 
0.0 0.0 -3.847447889677e+01 
-4.081957733024e+01 1.135394551825e+00 0.0 
1.135394551825e+00 -8.939805375671e+01 0.0 
0.0 0.0 -3.866528932609e+01 
-4.142279140925e+01 8.555571942816e-01 0.0 
8.555571942816e-01 -8.895070428544e+01 0.0 
0.0 0.0 -3.871204870841e+01 
-4.154874369781e+01 1.800656115029e+00 0.0 
1.800656115029e+00 -8.947505244916e+01 0.0 
0.0 0.0 -3.890713884409e+01 
-4.254755360829e+01 2.678487411915e+00 0.0 
2.678487411915e+00 -9.073638983011e+01 0.0 
0.0 0.0 -3.958518303152e+01 
-4.176168659464e+01 1.556797867989e+00 0.0 
1.556797867989e+00 -8.907398548259e+01 0.0 
0.0 0.0 -3.885070162317e+01 
-4.309314539743e+01 1.959908433587e+00 0.0 
1.959908433587e+00 -8.962032186483e+01 0.0 
0.0 0.0 -3.941404017868e+01 
-4.312702466764e+01 4.072279275719e+00 0.0 
4.072279275719e+00 -8.426098507596e+01 0.0 
0.0 0.0 -3.781640292308e+01 
-3.921267505219e+01 1.463221067473e+00 0.0 
1.463221067473e+00 -8.773667154992e+01 0.0 
0.0 0.0 -3.768480398063e+01 
-3.888478899145e+01 -1.485822616109e+00 0.0 
-1.485822616109e+00 -8.965107988033e+01 0.0 
0.0 0.0 -3.816076066153e+01 
-3.672611491957e+01 1.172357876734e-01 0.0 
1.172357876734e-01 -8.358633568798e+01 0.0 
0.0 0.0 -3.569373518227e+01 
-4.130194727545e+01 -1.823131098901e-01 0.0 
-1.823131098901e-01 -9.366231894048e+01 0.0 
0.0 0.0 -4.008927986478e+01 
-4.324378284874e+01 5.197534731734e+00 0.0 
5.197534731734e+00 -8.608474544180e+01 0.0 
0.0 0.0 -3.839855848716e+01 
-4.655009387209e+01 2.387271776658e-01 0.0 
2.387271776658e-01 -1.058948117189e+02 0.0 
0.0 0.0 -4.533347167731e+01 
-4.755835516443e+01 -3.307970352397e-01 0.0 
-3.307970352397e-01 -1.076485684702e+02 0.0 
0.0 0.0 -4.616207709040e+01 
-4.728607005747e+01 -7.564954305206e-02 0.0 
-7.564954305206e-02 -1.075640164100e+02 0.0 
0.0 0.0 -4.605502594026e+01 
-4.763421043132e+01 -1.813721952545e-01 0.0 
-1.813721952545e-01 -1.077676216292e+02 0.0 
0.0 0.0 -4.622054961816e+01 
-4.732777482838e+01 -1.448228145884e-01 0.0 
-1.448228145884e-01 -1.076441808802e+02 0.0 
0.0 0.0 -4.609158671257e+01 
-4.766324351498e+01 -2.311598930950e-01 0.0 
-2.311598930950e-01 -1.077831780014e+02 0.0 
0.0 0.0 -4.623392645491e+01 
-4.733774451141e+01 -1.963079875749e-01 0.0 
-1.963079875749e-01 -1.076543811459e+02 0.0 
0.0 0.0 -4.609763769720e+01 
-4.769505170197e+01 -2.855590558977e-01 0.0 
-2.855590558977e-01 -1.078007935352e+02 0.0 
0.0 0.0 -4.624875357117e+01 
-4.735332459606e+01 -2.413899485569e-01 0.0 
-2.413899485569e-01 -1.076714386101e+02 0.0 
0.0 0.0 -4.610742896186e+01 
-4.773491874905e+01 -3.330804032075e-01 0.0 
-3.330804032075e-01 -1.078235274935e+02 0.0 
0.0 0.0 -4.626753387278e+01 
-4.737729372016e+01 -2.791982230773e-01 0.0 
-2.791982230773e-01 -1.076954907320e+02 0.0 
0.0 0.0 -4.612183533564e+01 
-4.778226777736e+01 -3.716859373471e-01 0.0 
-3.716859373471e-01 -1.078494058179e+02 0.0 
0.0 0.0 -4.628950207858e+01 
-4.741178184126e+01 -3.078051791203e-01 0.0 
-3.078051791203e-01 -1.077257524961e+02 0.0 
0.0 0.0 -4.614126030122e+01 
-4.784480790724e+01 -3.999602158607e-01 0.0 
-3.999602158607e-01 -1.078778099461e+02 0.0 
0.0 0.0 -4.631678535601e+01 
-4.745790622593e+01 -3.275994632743e-01 0.0 
-3.275994632743e-01 -1.077581010008e+02 0.0 
0.0 0.0 -4.616480216800e+01 
-4.792482287547e+01 -4.202679068517e-01 0.0 
-4.202679068517e-01 -1.079116702168e+02 0.0 
0.0 0.0 -4.635094792767e+01 
-4.751720370348e+01 -3.366542931039e-01 0.0 
-3.366542931039e-01 -1.077974464737e+02 0.0 
0.0 0.0 -4.619439505317e+01 
-5.203638037428e+01 3.756191894578e+00 0.0 
3.756191894578e+00 -1.119816649556e+02 0.0 
0.0 0.0 -4.880541359895e+01 
-4.801831116903e+01 -4.285679036977e-01 0.0 
-4.285679036977e-01 -1.079511595867e+02 0.0 
0.0 0.0 -4.639084122672e+01 
-4.759249093797e+01 -3.318535765670e-01 0.0 
-3.318535765670e-01 -1.078467452498e+02 0.0 
0.0 0.0 -4.623177085635e+01 
-5.233250732122e+01 2.455039602626e+00 0.0 
2.455039602626e+00 -1.101896423960e+02 0.0 
0.0 0.0 -4.835664491515e+01 
-4.812639547304e+01 -4.209423420849e-01 0.0 
-4.209423420849e-01 -1.079975626018e+02 0.0 
0.0 0.0 -4.643718742246e+01 
-4.768856027506e+01 -3.084723927068e-01 0.0 
-3.084723927068e-01 -1.079096440236e+02 0.0 
0.0 0.0 -4.627946128959e+01 
-4.825795708551e+01 -3.914902850290e-01 0.0 
-3.914902850290e-01 -1.080510202254e+02 0.0 
0.0 0.0 -4.649269319327e+01 
-4.781131258052e+01 -2.626645855444e-01 0.0 
-2.626645855444e-01 -1.079840629281e+02 0.0 
0.0 0.0 -4.633861265257e+01 
-4.842171578474e+01 -3.363906025362e-01 0.0 
-3.363906025362e-01 -1.081105296054e+02 0.0 
0.0 0.0 -4.655967361703e+01 
-4.987135584424e+01 2.846421638673e+00 0.0 
2.846421638673e+00 -1.054361462407e+02 0.0 
0.0 0.0 -4.619225062548e+01 
-4.796663453892e+01 -1.926211766110e-01 0.0 
-1.926211766110e-01 -1.080664182945e+02 0.0 
0.0 0.0 -4.640991585003e+01 
-4.863225782498e+01 -2.611120714415e-01 0.0 
-2.611120714415e-01 -1.081916790141e+02 0.0 
0.0 0.0 -4.664718105173e+01 
-4.816143602260e+01 -8.589736416963e-02 0.0 
-8.589736416963e-02 -1.081856298114e+02 0.0 
0.0 0.0 -4.650411975019e+01 
-4.883885505071e+01 -1.343147604446e-01 0.0 
-1.343147604446e-01 -1.082798642258e+02 0.0 
0.0 0.0 -4.673561578294e+01 
-4.840654584629e+01 7.139349250026e-02 0.0 
7.139349250026e-02 -1.083347105197e+02 0.0 
0.0 0.0 -4.662237690979e+01 
-4.913112243202e+01 3.714426094413e-02 0.0 
3.714426094413e-02 -1.084156268395e+02 0.0 
0.0 0.0 -4.686402478147e+01 
-4.871471886825e+01 3.036128454505e-01 0.0 
3.036128454505e-01 -1.085598366748e+02 0.0 
0.0 0.0 -4.678236666292e+01 
-4.936422521314e+01 3.311884470382e-01 0.0 
3.311884470382e-01 -1.085243338165e+02 0.0 
0.0 0.0 -4.696656770889e+01 
-4.909934361012e+01 6.079910413489e-01 0.0 
6.079910413489e-01 -1.087526292372e+02 0.0 
0.0 0.0 -4.695559185420e+01 
-4.989754144851e+01 6.201931540020e-01 0.0 
6.201931540020e-01 -1.087824947042e+02 0.0 
0.0 0.0 -4.720401084581e+01 
-5.469935730405e+01 3.397984277403e+00 0.0 
3.397984277403e+00 -1.132292588538e+02 0.0 
0.0 0.0 -4.997858484736e+01 
-5.007663901547e+01 1.209086302464e+00 0.0 
1.209086302464e+00 -1.088918497832e+02 0.0 
0.0 0.0 -4.729054663960e+01 
-4.958559732969e+01 1.034709707370e+00 0.0 
1.034709707370e+00 -1.091865165336e+02 0.0 
0.0 0.0 -4.723163415898e+01 
-5.126915827376e+01 1.535360852937e+00 0.0 
1.535360852937e+00 -1.094904948247e+02 0.0 
0.0 0.0 -4.782789592954e+01 
-5.016045829492e+01 1.541641998438e+00 0.0 
1.541641998438e+00 -1.093385936853e+02 0.0 
0.0 0.0 -4.744971559407e+01 
-5.087780040997e+01 2.242912055598e+00 0.0 
2.242912055598e+00 -1.103449177184e+02 0.0 
0.0 0.0 -4.796681543850e+01 
-5.088494828518e+01 3.167236407720e+00 0.0 
3.167236407720e+00 -1.041650061985e+02 0.0 
0.0 0.0 -4.611498634511e+01 
-4.700812234889e+01 1.469228651772e+00 0.0 
1.469228651772e+00 -1.080636862866e+02 0.0 
0.0 0.0 -4.612154259065e+01 
-4.733980560321e+01 -1.477064633219e+00 0.0 
-1.477064633219e+00 -1.061263623721e+02 0.0 
0.0 0.0 -4.563985039258e+01 
-4.948885387252e+01 1.264313312949e-01 0.0 
1.264313312949e-01 -1.122041376352e+02 0.0 
0.0 0.0 -4.810789745230e+01 
-4.492908163386e+01 -1.769894183788e-01 0.0 
-1.769894183788e-01 -1.021256324435e+02 0.0 
0.0 0.0 -4.371641422319e+01 
-5.065886477228e+01 4.012844117698e+00 0.0 
4.012844117698e+00 -1.053214953839e+02 0.0 
0.0 0.0 -4.639410804685e+01 
-5.691621232572e+01 2.611165751666e-01 0.0 
2.611165751666e-01 -1.289830241237e+02 0.0 
0.0 0.0 -5.536977093483e+01 
-5.593591244914e+01 -3.137296474076e-01 0.0 
-3.137296474076e-01 -1.271962021346e+02 0.0 
0.0 0.0 -5.453963437511e+01 
-5.622539395717e+01 -4.962942351404e-02 0.0 
-4.962942351404e-02 -1.272819051555e+02 0.0 
0.0 0.0 -5.465218973381e+01 
-5.590435564717e+01 -1.535712901196e-01 0.0 
-1.535712901196e-01 -1.270646271328e+02 0.0 
0.0 0.0 -5.449069483401e+01 
-5.623343439200e+01 -1.184545922282e-01 0.0 
-1.184545922282e-01 -1.271966029620e+02 0.0 
0.0 0.0 -5.462901120620e+01 
-5.592955925747e+01 -1.953556188171e-01 0.0 
-1.953556188171e-01 -1.270712480672e+02 0.0 
0.0 0.0 -5.450024219740e+01 
-5.627296891313e+01 -1.670370680712e-01 0.0 
-1.670370680712e-01 -1.272074823842e+02 0.0 
0.0 0.0 -5.464413538920e+01 
-5.596327414315e+01 -2.394736983934e-01 0.0 
-2.394736983934e-01 -1.270933125647e+02 0.0 
0.0 0.0 -5.451697601234e+01 
-5.633137869817e+01 -2.052361608402e-01 0.0 
-2.052361608402e-01 -1.272340346696e+02 0.0 
0.0 0.0 -5.466962401032e+01 
-5.600648842121e+01 -2.758771399410e-01 0.0 
-2.758771399410e-01 -1.271238567286e+02 0.0 
0.0 0.0 -5.453910354494e+01 
-5.639836951856e+01 -2.359687003122e-01 0.0 
-2.359687003122e-01 -1.272672677204e+02 0.0 
0.0 0.0 -5.469969117168e+01 
-5.606098787810e+01 -3.023496929474e-01 0.0 
-3.023496929474e-01 -1.271664193863e+02 0.0 
0.0 0.0 -5.456822217931e+01 
-5.647430666969e+01 -2.499265448521e-01 0.0 
-2.499265448521e-01 -1.273065254412e+02 0.0 
0.0 0.0 -5.473424963327e+01 
-5.612836661221e+01 -3.138067626133e-01 0.0 
-3.138067626133e-01 -1.272061135910e+02 0.0 
0.0 0.0 -5.460034406098e+01 
-5.657231657606e+01 -2.535324175299e-01 0.0 
-2.535324175299e-01 -1.273465854692e+02 0.0 
0.0 0.0 -5.477567061358e+01 
-5.621257842807e+01 -3.139541403965e-01 0.0 
-3.139541403965e-01 -1.272497665062e+02 0.0 
0.0 0.0 -5.463870348027e+01 
-5.976781013880e+01 3.036562354862e+00 0.0 
3.036562354862e+00 -1.313499555967e+02 0.0 
0.0 0.0 -5.693532972064e+01 
-5.669773011777e+01 -2.501443980398e-01 0.0 
-2.501443980398e-01 -1.273952640838e+02 0.0 
0.0 0.0 -5.482789826047e+01 
-5.631676440045e+01 -3.026588860488e-01 0.0 
-3.026588860488e-01 -1.273142171267e+02 0.0 
0.0 0.0 -5.468929445813e+01 
-5.781123116727e+01 2.300286366406e+00 0.0 
2.300286366406e+00 -1.247553315762e+02 0.0 
0.0 0.0 -5.436996882305e+01 
-5.681910733279e+01 -2.326082524843e-01 0.0 
-2.326082524843e-01 -1.274517584987e+02 0.0 
0.0 0.0 -5.488125974944e+01 
-5.644134346821e+01 -2.699995610568e-01 0.0 
-2.699995610568e-01 -1.273991079239e+02 0.0 
0.0 0.0 -5.475213541763e+01 
-6.030800763071e+01 1.908324985853e+00 0.0 
1.908324985853e+00 -1.296528153046e+02 0.0 
0.0 0.0 -5.658824688060e+01 
-5.696245644422e+01 -1.877652602684e-01 0.0 
-1.877652602684e-01 -1.275224167500e+02 0.0 
0.0 0.0 -5.494546195825e+01 
-5.659255571831e+01 -2.086063841969e-01 0.0 
-2.086063841969e-01 -1.274984170352e+02 0.0 
0.0 0.0 -5.482729182607e+01 
-5.714121881537e+01 -1.113726206948e-01 0.0 
-1.113726206948e-01 -1.276049443695e+02 0.0 
0.0 0.0 -5.502384895546e+01 
-5.677829708747e+01 -1.146798072644e-01 0.0 
-1.146798072644e-01 -1.276092193117e+02 0.0 
0.0 0.0 -5.491625491976e+01 
-5.734670339425e+01 -2.219513307270e-03 0.0 
-2.219513307270e-03 -1.276921089176e+02 0.0 
0.0 0.0 -5.511164369355e+01 
-5.700121529715e+01 1.087657466158e-02 0.0 
1.087657466158e-02 -1.277192464492e+02 0.0 
0.0 0.0 -5.501613852390e+01 
-6.211928136405e+01 2.627260556616e+00 0.0 
2.627260556616e+00 -1.325434784619e+02 0.0 
0.0 0.0 -5.799882794780e+01 
-5.762277255899e+01 1.022331811219e-01 0.0 
1.022331811219e-01 -1.278236098399e+02 0.0 
0.0 0.0 -5.523391471966e+01 
-5.727754531888e+01 1.778896549263e-01 0.0 
1.778896549263e-01 -1.279701415182e+02 0.0 
0.0 0.0 -5.517430605111e+01 
-5.781788966584e+01 3.240686057547e-01 0.0 
3.240686057547e-01 -1.279690453766e+02 0.0 
0.0 0.0 -5.533608051272e+01 
-5.758956211383e+01 4.234524632588e-01 0.0 
4.234524632588e-01 -1.281519860971e+02 0.0 
0.0 0.0 -5.532246446327e+01 
-5.799406680850e+01 7.621026696998e-01 0.0 
7.621026696998e-01 -1.286606308723e+02 0.0 
0.0 0.0 -5.559640930425e+01 
-5.819535089894e+01 5.161796695802e-01 0.0 
5.161796695802e-01 -1.282128856777e+02 0.0 
0.0 0.0 -5.552247097300e+01 
-5.841382223837e+01 1.198037808173e+00 0.0 
1.198037808173e+00 -1.286538165472e+02 0.0 
0.0 0.0 -5.572029163566e+01 
-5.830407286611e+01 1.048201492864e+00 0.0 
1.048201492864e+00 -1.283673900737e+02 0.0 
0.0 0.0 -5.560143888195e+01 
-5.898165822496e+01 1.698393682015e+00 0.0 
1.698393682015e+00 -1.296702279387e+02 0.0 
0.0 0.0 -5.619556584909e+01 
-5.941565036442e+01 1.200416273239e+00 0.0 
1.200416273239e+00 -1.288984761990e+02 0.0 
0.0 0.0 -5.609423796901e+01 
-5.845541214195e+01 2.675614457132e+00 0.0 
2.675614457132e+00 -1.236095196662e+02 0.0 
0.0 0.0 -5.421947954246e+01 
-5.646179511336e+01 1.474651546154e+00 0.0 
1.474651546154e+00 -1.268297395679e+02 0.0 
0.0 0.0 -5.458746040438e+01 
-5.612842675555e+01 -1.470885232951e+00 0.0 
-1.470885232951e+00 -1.287695513371e+02 0.0 
0.0 0.0 -5.506939342779e+01 
-5.398026500103e+01 1.277240871388e-01 0.0 
1.277240871388e-01 -1.226840969350e+02 0.0 
0.0 0.0 -5.259930858082e+01 
-5.852937679202e+01 -1.732021947385e-01 0.0 
-1.732021947385e-01 -1.327546885872e+02 0.0 
0.0 0.0 -5.698521961376e+01 
-5.849079379270e+01 3.264602894436e+00 0.0 
3.264602894436e+00 -1.245589774961e+02 0.0 
0.0 0.0 -5.451493138663e+01 
-6.380084251607e+01 2.813948304055e-01 0.0 
2.813948304055e-01 -1.450471612345e+02 0.0 
0.0 0.0 -6.225440112518e+01 
-6.472914479328e+01 -2.704981024454e-01 0.0 
-2.704981024454e-01 -1.467725713497e+02 0.0 
0.0 0.0 -6.305051484291e+01 
-6.456370787834e+01 -1.902564796698e-02 0.0 
-1.902564796698e-02 -1.467379709716e+02 0.0 
0.0 0.0 -6.299050365497e+01 
-6.485559612918e+01 -1.037554737512e-01 0.0 
-1.037554737512e-01 -1.468947313465e+02 0.0 
0.0 0.0 -6.312509824271e+01 
-6.463767651282e+01 -8.438452095330e-02 0.0 
-8.438452095330e-02 -1.468065012439e+02 0.0 
0.0 0.0 -6.303325332703e+01 
-6.489231700303e+01 -1.515401415610e-01 0.0 
-1.515401415610e-01 -1.469222367061e+02 0.0 
0.0 0.0 -6.314436611274e+01 
-6.469027550052e+01 -1.147367523758e-01 0.0 
-1.147367523758e-01 -1.468478644215e+02 0.0 
0.0 0.0 -6.306144197659e+01 
-6.497411195925e+01 -1.817978973267e-01 0.0 
-1.817978973267e-01 -1.469550045446e+02 0.0 
0.0 0.0 -6.317873495116e+01 
-6.474952125143e+01 -1.408247451750e-01 0.0 
-1.408247451750e-01 -1.468763672938e+02 0.0 
0.0 0.0 -6.308776656358e+01 
-6.504874715897e+01 -2.100626143366e-01 0.0 
-2.100626143366e-01 -1.469925362480e+02 0.0 
0.0 0.0 -6.321238502209e+01 
-6.482225707889e+01 -1.561375545160e-01 0.0 
-1.561375545160e-01 -1.469230053611e+02 0.0 
0.0 0.0 -6.312357873201e+01 
-6.514479795722e+01 -2.276757400022e-01 0.0 
-2.276757400022e-01 -1.470462973310e+02 0.0 
0.0 0.0 -6.325732858648e+01 
-6.490947513544e+01 -1.542933162698e-01 0.0 
-1.542933162698e-01 -1.469885851946e+02 0.0 
0.0 0.0 -6.316941809902e+01 
-6.522090063601e+01 -2.149965955199e-01 0.0 
-2.149965955199e-01 -1.470890463614e+02 0.0 
0.0 0.0 -6.329298409922e+01 
-6.501926605346e+01 -1.344939113309e-01 0.0 
-1.344939113309e-01 -1.470561342498e+02 0.0 
0.0 0.0 -6.322262009098e+01 
-6.782067245783e+01 2.590995181379e+00 0.0 
2.590995181379e+00 -1.507266259689e+02 0.0 
0.0 0.0 -6.516418952802e+01 
-6.538245261439e+01 -1.907703121664e-01 0.0 
-1.907703121664e-01 -1.471397935305e+02 0.0 
0.0 0.0 -6.335667384347e+01 
-6.845380723021e+01 1.480414177396e+00 0.0 
1.480414177396e+00 -1.493197752442e+02 0.0 
0.0 0.0 -6.493207474231e+01 
-6.514008736797e+01 -1.178199623884e-01 0.0 
-1.178199623884e-01 -1.470940976676e+02 0.0 
0.0 0.0 -6.327025551068e+01 
-6.551223107970e+01 -1.819388678053e-01 0.0 
-1.819388678053e-01 -1.472094668632e+02 0.0 
0.0 0.0 -6.341650938287e+01 
-6.528343736275e+01 -7.504384760443e-02 0.0 
-7.504384760443e-02 -1.472018619019e+02 0.0 
0.0 0.0 -6.334558977940e+01 
-6.564277168370e+01 -1.285676905181e-01 0.0 
-1.285676905181e-01 -1.472999553384e+02 0.0 
0.0 0.0 -6.348281810664e+01 
-6.545572882391e+01 4.831312355430e-03 0.0 
4.831312355430e-03 -1.473400523026e+02 0.0 
0.0 0.0 -6.343873433795e+01 
-6.583473111199e+01 -3.334625656977e-02 0.0 
-3.334625656977e-02 -1.474072340351e+02 0.0 
0.0 0.0 -6.357258954414e+01 
-6.597714360183e+01 1.813058860206e+00 0.0 
1.813058860206e+00 -1.442086270863e+02 0.0 
0.0 0.0 -6.265573120643e+01 
-6.565774127283e+01 1.146283200212e-01 0.0 
1.146283200212e-01 -1.474768301036e+02 0.0 
0.0 0.0 -6.354037141292e+01 
-6.604062187724e+01 8.994794948413e-02 0.0 
8.994794948413e-02 -1.475231058365e+02 0.0 
0.0 0.0 -6.366911831411e+01 
-6.589683536965e+01 2.626276201451e-01 0.0 
2.626276201451e-01 -1.476424168602e+02 0.0 
0.0 0.0 -6.366177566895e+01 
-6.623397805564e+01 2.716066923127e-01 0.0 
2.716066923127e-01 -1.476245539079e+02 0.0 
0.0 0.0 -6.375755958906e+01 
-6.616943949264e+01 4.252217438713e-01 0.0 
4.252217438713e-01 -1.477658326851e+02 0.0 
0.0 0.0 -6.378058165331e+01 
-6.665986357467e+01 3.696847608216e-01 0.0 
3.696847608216e-01 -1.479072986256e+02 0.0 
0.0 0.0 -6.397014866009e+01 
-6.648929912078e+01 6.742946593236e-01 0.0 
6.742946593236e-01 -1.482023341048e+02 0.0 
0.0 0.0 -6.400748996766e+01 
-6.661700897081e+01 7.555580353745e-01 0.0 
7.555580353745e-01 -1.480479658979e+02 0.0 
0.0 0.0 -6.399949246061e+01 
-6.765256052037e+01 8.903602442489e-01 0.0 
8.903602442489e-01 -1.486598724103e+02 0.0 
0.0 0.0 -6.449372987921e+01 
-6.684331818025e+01 9.823361050134e-01 0.0 
9.823361050134e-01 -1.483914760008e+02 0.0 
0.0 0.0 -6.417043825431e+01 
-7.006481417077e+01 2.027284434738e+00 0.0 
2.027284434738e+00 -1.520365345422e+02 0.0 
0.0 0.0 -6.623040461390e+01 
-6.725470713166e+01 1.421639256280e+00 0.0 
1.421639256280e+00 -1.492522033600e+02 0.0 
0.0 0.0 -6.455207314749e+01 
-6.647520307875e+01 2.085967120133e+00 0.0 
2.085967120133e+00 -1.432026248331e+02 0.0 
0.0 0.0 -6.250334837357e+01 
-6.421097115710e+01 1.479883309139e+00 0.0 
1.479883309139e+00 -1.471786319094e+02 0.0 
0.0 0.0 -6.301688091997e+01 
-6.454356715349e+01 -1.457019751075e+00 0.0 
-1.457019751075e+00 -1.452408870113e+02 0.0 
0.0 0.0 -6.253533624942e+01 
-6.666563534123e+01 1.367520481292e-01 0.0 
1.367520481292e-01 -1.513300970080e+02 0.0 
0.0 0.0 -6.499871970476e+01 
-6.217054449330e+01 -1.635061071606e-01 0.0 
-1.635061071606e-01 -1.412507465568e+02 0.0 
0.0 0.0 -6.062638731504e+01 
-6.639648076032e+01 2.566197243907e+00 0.0 
2.566197243907e+00 -1.438592526070e+02 0.0 
0.0 0.0 -6.267672001021e+01 
-7.391909653000e+01 3.331463928740e-01 0.0 
3.331463928740e-01 -1.681606815833e+02 0.0 
0.0 0.0 -7.222393343398e+01 
-7.311896580235e+01 -2.208989645680e-01 0.0 
-2.208989645680e-01 -1.663488203709e+02 0.0 
0.0 0.0 -7.144033585197e+01 
-7.339836206317e+01 6.074735656618e-02 0.0 
6.074735656618e-02 -1.664203654378e+02 0.0 
0.0 0.0 -7.154561825030e+01 
-7.312337893431e+01 -3.962313003179e-02 0.0 
-3.962313003179e-02 -1.661862245585e+02 0.0 
0.0 0.0 -7.139288104783e+01 
-7.339510587135e+01 -4.907803892010e-02 0.0 
-4.907803892010e-02 -1.663033377928e+02 0.0 
0.0 0.0 -7.150953309924e+01 
-7.318622283300e+01 -8.564960470993e-02 0.0 
-8.564960470993e-02 -1.662746836427e+02 0.0 
0.0 0.0 -7.143827194271e+01 
-7.342592481742e+01 -3.821900803410e-02 0.0 
-3.821900803410e-02 -1.663586504051e+02 0.0 
0.0 0.0 -7.153537256676e+01 
-7.325008214019e+01 -8.606647483842e-02 0.0 
-8.606647483842e-02 -1.662656016335e+02 0.0 
0.0 0.0 -7.145470513211e+01 
-7.358368366073e+01 -6.918994234891e-02 0.0 
-6.918994234891e-02 -1.663954718589e+02 0.0 
0.0 0.0 -7.159374665588e+01 
-7.334347828967e+01 -1.093142234554e-01 0.0 
-1.093142234554e-01 -1.663469088863e+02 0.0 
0.0 0.0 -7.150711615279e+01 
-7.363537957742e+01 -7.063067766495e-02 0.0 
-7.063067766495e-02 -1.664447202183e+02 0.0 
0.0 0.0 -7.162402993872e+01 
-7.343820282545e+01 -1.033525946719e-01 0.0 
-1.033525946719e-01 -1.663975753569e+02 0.0 
0.0 0.0 -7.155073345471e+01 
-7.379632426499e+01 -8.153457308337e-02 0.0 
-8.153457308337e-02 -1.665253633640e+02 0.0 
0.0 0.0 -7.169650628869e+01 
-7.593050939607e+01 2.159713210732e+00 0.0 
2.159713210732e+00 -1.700516608274e+02 0.0 
0.0 0.0 -7.339465106705e+01 
-7.356092966921e+01 -9.021750705551e-02 0.0 
-9.021750705551e-02 -1.665491141055e+02 0.0 
0.0 0.0 -7.163301313243e+01 
-7.386561599069e+01 1.480803932581e-02 0.0 
1.480803932581e-02 -1.665932677409e+02 0.0 
0.0 0.0 -7.173766511947e+01 
-7.402188990381e+01 1.444465345171e+00 0.0 
1.444465345171e+00 -1.635216409717e+02 0.0 
0.0 0.0 -7.086305926265e+01 
-7.368414934448e+01 -2.517192627228e-02 0.0 
-2.517192627228e-02 -1.665104192341e+02 0.0 
0.0 0.0 -7.165837057356e+01 
-7.404813486954e+01 -3.400039435029e-05 0.0 
-3.400039435029e-05 -1.666253482571e+02 0.0 
0.0 0.0 -7.180204493800e+01 
-7.650926795859e+01 1.179112452255e+00 0.0 
1.179112452255e+00 -1.685984513264e+02 0.0 
0.0 0.0 -7.313231578549e+01 
-7.384511830049e+01 3.682263963728e-03 0.0 
3.682263963728e-03 -1.666528703784e+02 0.0 
0.0 0.0 -7.174939660366e+01 
-7.416268743811e+01 3.603773456495e-02 0.0 
3.603773456495e-02 -1.667374461193e+02 0.0 
0.0 0.0 -7.187004006722e+01 
-7.402413444246e+01 8.345974582962e-02 0.0 
8.345974582962e-02 -1.668564684422e+02 0.0 
0.0 0.0 -7.186418086540e+01 
-7.433532511231e+01 1.675811053951e-01 0.0 
1.675811053951e-01 -1.668805857894e+02 0.0 
0.0 0.0 -7.196477327052e+01 
-7.422567198696e+01 2.149982549619e-01 0.0 
2.149982549619e-01 -1.669860960767e+02 0.0 
0.0 0.0 -7.196353041911e+01 
-7.811759705586e+01 1.624234806363e+00 0.0 
1.624234806363e+00 -1.713116825219e+02 0.0 
0.0 0.0 -7.442878387331e+01 
-7.458003044561e+01 2.894377656533e-01 0.0 
2.894377656533e-01 -1.670205993928e+02 0.0 
0.0 0.0 -7.208018895153e+01 
-7.446142130806e+01 3.641975234603e-01 0.0 
3.641975234603e-01 -1.671716378417e+02 0.0 
0.0 0.0 -7.208991774493e+01 
-7.473782597638e+01 5.767069231239e-01 0.0 
5.767069231239e-01 -1.674668657229e+02 0.0 
0.0 0.0 -7.226140750979e+01 
-7.476270743797e+01 4.318895320933e-01 0.0 
4.318895320933e-01 -1.671835088306e+02 0.0 
0.0 0.0 -7.218386488057e+01 
-7.500039032875e+01 7.936477597006e-01 0.0 
7.936477597006e-01 -1.673685277185e+02 0.0 
0.0 0.0 -7.231067541417e+01 
-7.479767521470e+01 7.509251569743e-01 0.0 
7.509251569743e-01 -1.672625595419e+02 0.0 
0.0 0.0 -7.221807042698e+01 
-7.538960241250e+01 1.061228472456e+00 0.0 
1.061228472456e+00 -1.685173505952e+02 0.0 
0.0 0.0 -7.277208590230e+01 
-7.571171972897e+01 6.121651432497e-01 0.0 
6.121651432497e-01 -1.677996547567e+02 0.0 
0.0 0.0 -7.265341234569e+01 
-7.458846309256e+01 1.724186747288e+00 0.0 
1.724186747288e+00 -1.626538150693e+02 0.0 
0.0 0.0 -7.077268344855e+01 
-7.365618763976e+01 1.440724689364e+00 0.0 
1.440724689364e+00 -1.658736260905e+02 0.0 
0.0 0.0 -7.145894411908e+01 
-7.328211884741e+01 -1.497363811387e+00 0.0 
-1.497363811387e+00 -1.680420225622e+02 0.0 
0.0 0.0 -7.199724242288e+01 
-7.116526743578e+01 1.098894276622e-01 0.0 
1.098894276622e-01 -1.618292385619e+02 0.0 
0.0 0.0 -6.949835179931e+01 
-7.567319596679e+01 -2.268101390641e-01 0.0 
-2.268101390641e-01 -1.718920327127e+02 0.0 
0.0 0.0 -7.386956860385e+01 
-7.436537480158e+01 2.039333934553e+00 0.0 
2.039333934553e+00 -1.631134329107e+02 0.0 
0.0 0.0 -7.084364231368e+01 
-8.098309248287e+01 4.645200452028e-01 0.0 
4.645200452028e-01 -1.846433388066e+02 0.0 
0.0 0.0 -7.928792938685e+01 
-8.196749920445e+01 -2.580896250802e-03 0.0 
-2.580896250802e-03 -1.859425044673e+02 0.0 
0.0 0.0 -7.997300110151e+01 
-8.172531799144e+01 5.998953218874e-02 0.0 
5.998953218874e-02 -1.858499292705e+02 0.0 
0.0 0.0 -7.987257417857e+01 
-8.180592153425e+01 1.532861859565e-02 0.0 
1.532861859565e-02 -1.859802354929e+02 0.0 
0.0 0.0 -7.993584710814e+01 
-8.183165474083e+01 5.518466156688e-03 0.0 
5.518466156688e-03 -1.859886184882e+02 0.0 
0.0 0.0 -7.994608196872e+01 
-8.194532910956e+01 -5.629347881682e-02 0.0 
-5.629347881682e-02 -1.861627723950e+02 0.0 
0.0 0.0 -8.003243045137e+01 
-8.192911453565e+01 7.211131591804e-02 0.0 
7.211131591804e-02 -1.861994264143e+02 0.0 
0.0 0.0 -8.003856228499e+01 
-8.214197764202e+01 6.606808495421e-02 0.0 
6.606808495421e-02 -1.861283645827e+02 0.0 
0.0 0.0 -8.008110266743e+01 
-8.200842369237e+01 1.818204594218e-02 0.0 
1.818204594218e-02 -1.860531985994e+02 0.0 
0.0 0.0 -8.001848668752e+01 
-8.218829678357e+01 -5.391116503885e-02 0.0 
-5.391116503885e-02 -1.862290367689e+02 0.0 
0.0 0.0 -8.012520006573e+01 
-8.212929357293e+01 6.072758820720e-02 0.0 
6.072758820720e-02 -1.862638528745e+02 0.0 
0.0 0.0 -8.011794393423e+01 
-8.227344813299e+01 4.637415778308e-02 0.0 
4.637415778308e-02 -1.862685668926e+02 0.0 
0.0 0.0 -8.016260450767e+01 
-8.405597487788e+01 1.975591012594e+00 0.0 
1.975591012594e+00 -1.894238997420e+02 0.0 
0.0 0.0 -8.164396238597e+01 
-8.226495951936e+01 8.023090294837e-02 0.0 
8.023090294837e-02 -1.862855122908e+02 0.0 
0.0 0.0 -8.016514154306e+01 
-8.404425818796e+01 8.863159414447e-01 0.0 
8.863159414447e-01 -1.879229174825e+02 0.0 
0.0 0.0 -8.119015270115e+01 
-8.275110723073e+01 -2.538339972119e-02 0.0 
-2.538339972119e-02 -1.864921036767e+02 0.0 
0.0 0.0 -8.037296327222e+01 
-8.237849237353e+01 1.299807486866e-01 0.0 
1.299807486866e-01 -1.864566459675e+02 0.0 
0.0 0.0 -8.025054150231e+01 
-8.243671745157e+01 1.598653437828e-01 0.0 
1.598653437828e-01 -1.863664339259e+02 0.0 
0.0 0.0 -8.024094541324e+01 
-8.252360689409e+01 1.635862797426e-01 0.0 
1.635862797426e-01 -1.864014496478e+02 0.0 
0.0 0.0 -8.027751696255e+01 
-8.263411889252e+01 1.102288478231e-01 0.0 
1.102288478231e-01 -1.865284868134e+02 0.0 
0.0 0.0 -8.034878171176e+01 
-8.271644466471e+01 2.689118719552e-01 0.0 
2.689118719552e-01 -1.866962129814e+02 0.0 
0.0 0.0 -8.042379729382e+01 
-8.296272458000e+01 2.366521315816e-01 0.0 
2.366521315816e-01 -1.867648780942e+02 0.0 
0.0 0.0 -8.051828080226e+01 
-8.220892915077e+01 1.178632556761e+00 0.0 
1.178632556761e+00 -1.829598100742e+02 0.0 
0.0 0.0 -7.915062176750e+01 
-8.292630349924e+01 4.161083239156e-01 0.0 
4.161083239156e-01 -1.869262020256e+02 0.0 
0.0 0.0 -8.055575165744e+01 
-8.316433213550e+01 4.353184835732e-01 0.0 
4.353184835732e-01 -1.868857891192e+02 0.0 
0.0 0.0 -8.061503637643e+01 
-8.314228993039e+01 5.484298044711e-01 0.0 
5.484298044711e-01 -1.869992048573e+02 0.0 
0.0 0.0 -8.064244843631e+01 
-8.345508209595e+01 5.209862723791e-01 0.0 
5.209862723791e-01 -1.870747060323e+02 0.0 
0.0 0.0 -8.075893643846e+01 
-8.374723596379e+01 6.267893440668e-01 0.0 
6.267893440668e-01 -1.873957979274e+02 0.0 
0.0 0.0 -8.094291016734e+01 
-8.335793723681e+01 6.871047435877e-01 0.0 
6.871047435877e-01 -1.872390450279e+02 0.0 
0.0 0.0 -8.077909467942e+01 
-8.357904565133e+01 9.449246538954e-01 0.0 
9.449246538954e-01 -1.877524238940e+02 0.0 
0.0 0.0 -8.099944086361e+01 
-8.623764767398e+01 1.335673332838e+00 0.0 
1.335673332838e+00 -1.907888994587e+02 0.0 
0.0 0.0 -8.270796413979e+01 
-8.272321481137e+01 1.382285919892e+00 0.0 
1.382285919892e+00 -1.821381982675e+02 0.0 
0.0 0.0 -7.905842392365e+01 
-8.120856212297e+01 1.308601156749e+00 0.0 
1.308601156749e+00 -1.859371093912e+02 0.0 
0.0 0.0 -7.974370145425e+01 
-8.142612626125e+01 -1.581336961658e+00 0.0 
-1.581336961658e+00 -1.846609129373e+02 0.0 
0.0 0.0 -7.942611175958e+01 
-8.343812724157e+01 -7.492026102134e-02 0.0 
-7.492026102134e-02 -1.904515917845e+02 0.0 
0.0 0.0 -8.176691570781e+01 
-7.928792355431e+01 -2.534282610748e-01 0.0 
-2.534282610748e-01 -1.803263970836e+02 0.0 
0.0 0.0 -7.748429619137e+01 
-8.249260329934e+01 1.731485957427e+00 0.0 
1.731485957427e+00 -1.825595671215e+02 0.0 
0.0 0.0 -7.911565112624e+01 

TENSORS element_materi_strain_total float
-4.892535714676e-04 8.323937627264e-04 0.0 
8.323937627264e-04 2.163608611043e-03 0.0 
0.0 0.0 0.0 
-5.223633927816e-04 8.680319834676e-04 0.0 
8.680319834676e-04 2.191582867917e-03 0.0 
0.0 0.0 0.0 
-5.546917647659e-05 5.721409738667e-04 0.0 
5.721409738667e-04 7.305383819216e-03 0.0 
0.0 0.0 0.0 
-9.363040031207e-05 4.413947501881e-05 0.0 
4.413947501881e-05 7.720798471304e-03 0.0 
0.0 0.0 0.0 
-3.042271786572e-04 9.789691621750e-05 0.0 
9.789691621750e-05 4.903083950391e-03 0.0 
0.0 0.0 0.0 
1.096978027639e-03 2.493463533622e-03 0.0 
2.493463533622e-03 -3.589632350610e-03 0.0 
0.0 0.0 0.0 
-2.809154776142e-04 8.199611892595e-05 0.0 
8.199611892595e-05 4.919019116113e-03 0.0 
0.0 0.0 0.0 
-5.471533726740e-04 1.050954009466e-03 0.0 
1.050954009466e-03 1.943517069211e-03 0.0 
0.0 0.0 0.0 
-3.089926903649e-04 7.727406684889e-06 0.0 
7.727406684889e-06 4.927022178673e-03 0.0 
0.0 0.0 0.0 
-8.630943434484e-05 1.455356079353e-04 0.0 
1.455356079353e-04 7.679566337590e-03 0.0 
0.0 0.0 0.0 
-5.905746600201e-04 -1.015346586724e-04 0.0 
-1.015346586724e-04 5.145763070661e-03 0.0 
0.0 0.0 0.0 
-5.446959529163e-04 9.141129075714e-04 0.0 
9.141129075714e-04 1.864179103003e-03 0.0 
0.0 0.0 0.0 
-1.982402782904e-04 -9.015082843818e-05 0.0 
-9.015082843818e-05 7.163696851559e-03 0.0 
0.0 0.0 0.0 
-3.321569476439e-04 1.872325918649e-04 0.0 
1.872325918649e-04 5.201716187837e-03 0.0 
0.0 0.0 0.0 
-1.142550760885e-04 -1.863663026180e-04 0.0 
-1.863663026180e-04 7.268574726535e-03 0.0 
0.0 0.0 0.0 
-5.845067003452e-05 1.217577989266e-04 0.0 
1.217577989266e-04 7.872209069866e-03 0.0 
0.0 0.0 0.0 
-3.394774528057e-04 9.444447821513e-05 0.0 
9.444447821513e-05 4.792851151297e-03 0.0 
0.0 0.0 0.0 
1.427258188384e-03 1.259669989818e-03 0.0 
1.259669989818e-03 -3.900719133844e-03 0.0 
0.0 0.0 0.0 
-9.716209300736e-05 -4.215164397699e-05 0.0 
-4.215164397699e-05 1.536416268710e-03 0.0 
0.0 0.0 0.0 
-2.446565147790e-04 -5.845440496133e-05 0.0 
-5.845440496133e-05 1.648166876956e-03 0.0 
0.0 0.0 0.0 
-1.026391119352e-04 8.677977237770e-05 0.0 
8.677977237770e-05 7.689569492641e-03 0.0 
0.0 0.0 0.0 
-4.483084104100e-04 6.313025960982e-04 0.0 
6.313025960982e-04 2.596889427963e-03 0.0 
0.0 0.0 0.0 
-4.745539928506e-04 6.568415795003e-04 0.0 
6.568415795003e-04 2.739412241690e-03 0.0 
0.0 0.0 0.0 
3.266110342584e-04 -2.120263486041e-04 0.0 
-2.120263486041e-04 5.652709923349e-03 0.0 
0.0 0.0 0.0 
-3.228566189430e-04 2.721780090701e-04 0.0 
2.721780090701e-04 5.504579270455e-03 0.0 
0.0 0.0 0.0 
-5.793114415468e-04 -1.518934903184e-04 0.0 
-1.518934903184e-04 5.346288921024e-03 0.0 
0.0 0.0 0.0 
-3.917467708167e-04 1.965716654040e-04 0.0 
1.965716654040e-04 4.352117930629e-03 0.0 
0.0 0.0 0.0 
1.231856667829e-04 6.405790719942e-04 0.0 
6.405790719942e-04 6.567248466778e-03 0.0 
0.0 0.0 0.0 
-3.609271354041e-04 2.299166118276e-04 0.0 
2.299166118276e-04 5.508283870902e-03 0.0 
0.0 0.0 0.0 
2.475330410450e-04 -2.019618733603e-04 0.0 
-2.019618733603e-04 5.944399504917e-03 0.0 
0.0 0.0 0.0 
9.247594660866e-04 -2.418029484704e-03 0.0 
-2.418029484704e-03 -2.241050813876e-03 0.0 
0.0 0.0 0.0 
2.548173611219e-04 -7.601678893811e-05 0.0 
-7.601678893811e-05 2.785316876539e-04 0.0 
0.0 0.0 0.0 
-1.097343173579e-04 6.025164211849e-04 0.0 
6.025164211849e-04 7.350700056734e-03 0.0 
0.0 0.0 0.0 
-4.297607870635e-04 -7.159323672632e-05 0.0 
-7.159323672632e-05 6.283548414804e-03 0.0 
0.0 0.0 0.0 
2.708162037335e-05 -4.471331904799e-04 0.0 
-4.471331904799e-04 6.545230731781e-03 0.0 
0.0 0.0 0.0 
-8.211125672875e-05 -3.222524917256e-04 0.0 
-3.222524917256e-04 7.244376117092e-03 0.0 
0.0 0.0 0.0 
-3.971305017947e-05 -4.202500970519e-04 0.0 
-4.202500970519e-04 7.238292499666e-03 0.0 
0.0 0.0 0.0 
2.674754590182e-04 2.469194289790e-04 0.0 
2.469194289790e-04 5.989549178957e-03 0.0 
0.0 0.0 0.0 
-2.863308381142e-04 -2.929558640893e-05 0.0 
-2.929558640893e-05 4.516087477597e-03 0.0 
0.0 0.0 0.0 
-2.710918834024e-04 6.896080567497e-05 0.0 
6.896080567497e-05 4.532085617881e-03 0.0 
0.0 0.0 0.0 
-4.515538386124e-04 4.968613466208e-04 0.0 
4.968613466208e-04 3.267956142622e-03 0.0 
0.0 0.0 0.0 
6.566175431422e-05 -3.621937578938e-04 0.0 
-3.621937578938e-04 6.473498060919e-03 0.0 
0.0 0.0 0.0 
-5.683914122380e-04 1.221055241657e-03 0.0 
1.221055241657e-03 1.342924916731e-03 0.0 
0.0 0.0 0.0 
-3.846842812819e-04 2.056857809613e-04 0.0 
2.056857809613e-04 4.361477617509e-03 0.0 
0.0 0.0 0.0 
-1.275920618323e-04 1.087107921840e-05 0.0 
1.087107921840e-05 7.506200233824e-03 0.0 
0.0 0.0 0.0 
-7.270165261329e-04 1.404838280892e-03 0.0 
1.404838280892e-03 1.359994956237e-03 0.0 
0.0 0.0 0.0 
9.470732601835e-04 -2.273763715783e-03 0.0 
-2.273763715783e-03 -2.885626784215e-03 0.0 
0.0 0.0 0.0 
-8.225019071051e-05 4.803546489351e-05 0.0 
4.803546489351e-05 7.536574183538e-03 0.0 
0.0 0.0 0.0 
-2.259165020229e-04 -2.006950316257e-03 0.0 
-2.006950316257e-03 -1.271322776181e-03 0.0 
0.0 0.0 0.0 
-3.566047897267e-04 1.165590214099e-04 0.0 
1.165590214099e-04 5.040256229723e-03 0.0 
0.0 0.0 0.0 
-4.630596211154e-04 5.759715766910e-04 0.0 
5.759715766910e-04 3.004205056797e-03 0.0 
0.0 0.0 0.0 
-2.542190709585e-04 -4.290731863537e-05 0.0 
-4.290731863537e-05 2.014129816738e-03 0.0 
0.0 0.0 0.0 
1.546573253319e-03 -2.053402915551e-03 0.0 
-2.053402915551e-03 -2.775247447300e-03 0.0 
0.0 0.0 0.0 
-4.222613645919e-04 4.931378346899e-04 0.0 
4.931378346899e-04 3.057198745520e-03 0.0 
0.0 0.0 0.0 
-6.895310634769e-05 4.674219653068e-04 0.0 
4.674219653068e-04 7.545666441393e-03 0.0 
0.0 0.0 0.0 
-4.882702096534e-04 -1.555752561867e-04 0.0 
-1.555752561867e-04 2.702887302326e-03 0.0 
0.0 0.0 0.0 
-3.774022873703e-04 -6.427386690917e-05 0.0 
-6.427386690917e-05 2.112631342577e-03 0.0 
0.0 0.0 0.0 
-4.330569972372e-04 -5.627392842301e-05 0.0 
-5.627392842301e-05 6.283970748975e-03 0.0 
0.0 0.0 0.0 
3.298282182529e-05 -8.946538984171e-05 0.0 
-8.946538984171e-05 1.088767017416e-03 0.0 
0.0 0.0 0.0 
-6.598738358077e-05 6.726822327778e-05 0.0 
6.726822327778e-05 7.872985205917e-03 0.0 
0.0 0.0 0.0 
-2.241483897277e-04 -1.921490756691e-03 0.0 
-1.921490756691e-03 -3.761237128406e-03 0.0 
0.0 0.0 0.0 
2.765328218080e-04 5.390762122174e-04 0.0 
5.390762122174e-04 5.820682278476e-03 0.0 
0.0 0.0 0.0 
-1.679824274213e-04 1.149315931238e-03 0.0 
1.149315931238e-03 2.291999278394e-03 0.0 
0.0 0.0 0.0 
1.459139971349e-03 -2.085039490608e-03 0.0 
-2.085039490608e-03 -2.288521786525e-03 0.0 
0.0 0.0 0.0 
-1.755729062000e-04 -2.429295565815e-04 0.0 
-2.429295565815e-04 7.087323425969e-03 0.0 
0.0 0.0 0.0 
-4.401436349806e-04 5.518983989666e-04 0.0 
5.518983989666e-04 2.824112004806e-03 0.0 
0.0 0.0 0.0 
7.073595938769e-04 -7.769735320046e-04 0.0 
-7.769735320046e-04 -5.078170636942e-03 0.0 
0.0 0.0 0.0 
-1.022233646031e-04 6.100820882162e-04 0.0 
6.100820882162e-04 7.279692073692e-03 0.0 
0.0 0.0 0.0 
-5.562186436906e-04 -1.242024204186e-03 0.0 
-1.242024204186e-03 8.673910742656e-04 0.0 
0.0 0.0 0.0 
-2.690668776895e-06 6.522159783859e-04 0.0 
6.522159783859e-04 6.960407885666e-03 0.0 
0.0 0.0 0.0 
-5.278915303994e-04 -2.181663691900e-04 0.0 
-2.181663691900e-04 5.503750587538e-03 0.0 
0.0 0.0 0.0 
0.0 3.271725929475e-04 0.0 
3.271725929475e-04 8.022547861293e-03 0.0 
0.0 0.0 0.0 
1.186317450588e-04 5.960383236491e-04 0.0 
5.960383236491e-04 6.221528183277e-03 0.0 
0.0 0.0 0.0 
3.311471434326e-04 -5.932971524479e-06 0.0 
-5.932971524479e-06 3.599420603944e-04 0.0 
0.0 0.0 0.0 
-5.563764612576e-04 -1.471744722139e-04 0.0 
-1.471744722139e-04 2.837651018679e-03 0.0 
0.0 0.0 0.0 
-1.084837665404e-04 2.248463975136e-04 0.0 
2.248463975136e-04 7.689684031990e-03 0.0 
0.0 0.0 0.0 
-1.264153655109e-04 5.069813216829e-04 0.0 
5.069813216829e-04 7.518434994484e-03 0.0 
0.0 0.0 0.0 
-6.838225532135e-04 1.790320571719e-03 0.0 
1.790320571719e-03 6.532376344510e-04 0.0 
0.0 0.0 0.0 
-1.472710431957e-04 -8.259931646175e-05 0.0 
-8.259931646175e-05 1.174017284499e-03 0.0 
0.0 0.0 0.0 
-5.123764699008e-04 1.512502830112e-03 0.0 
1.512502830112e-03 6.413873497777e-04 0.0 
0.0 0.0 0.0 
-7.534504300966e-04 -1.542195434802e-03 0.0 
-1.542195434802e-03 9.147866895773e-04 0.0 
0.0 0.0 0.0 
-3.221214771443e-04 8.417450997507e-05 0.0 
8.417450997507e-05 4.798887900002e-03 0.0 
0.0 0.0 0.0 
-5.001239924919e-04 7.540174664046e-04 0.0 
7.540174664046e-04 2.490237698900e-03 0.0 
0.0 0.0 0.0 
-4.715337082026e-04 6.843511938338e-04 0.0 
6.843511938338e-04 2.327911928789e-03 0.0 
0.0 0.0 0.0 
-3.231777420791e-04 3.546702999606e-05 0.0 
3.546702999606e-05 5.140129461329e-03 0.0 
0.0 0.0 0.0 
-2.912589979793e-04 9.550170966113e-05 0.0 
9.550170966113e-05 5.139518085577e-03 0.0 
0.0 0.0 0.0 
-5.229457042418e-04 -1.424616689952e-04 0.0 
-1.424616689952e-04 5.708697122074e-03 0.0 
0.0 0.0 0.0 
-4.717092894547e-04 7.207730039524e-06 0.0 
7.207730039524e-06 6.139132782989e-03 0.0 
0.0 0.0 0.0 
-1.944073554058e-04 5.264099888695e-04 0.0 
5.264099888695e-04 6.189674892719e-03 0.0 
0.0 0.0 0.0 
-3.272512812091e-04 2.940119656698e-05 0.0 
2.940119656698e-05 4.888128599812e-03 0.0 
0.0 0.0 0.0 
-2.234060187259e-04 -1.352669117902e-04 0.0 
-1.352669117902e-04 4.836064493638e-04 0.0 
0.0 0.0 0.0 
-3.781983747014e-04 2.192187575032e-04 0.0 
2.192187575032e-04 4.736725583614e-03 0.0 
0.0 0.0 0.0 
-1.947009483275e-04 1.527358565421e-05 0.0 
1.527358565421e-05 6.573558384328e-03 0.0 
0.0 0.0 0.0 
-2.127032993929e-04 5.906085059637e-05 0.0 
5.906085059637e-05 6.498942006322e-03 0.0 
0.0 0.0 0.0 
-7.164661909653e-05 3.573036769181e-04 0.0 
3.573036769181e-04 8.011601457615e-03 0.0 
0.0 0.0 0.0 
1.684823409158e-04 2.581092270217e-04 0.0 
2.581092270217e-04 6.312280915096e-03 0.0 
0.0 0.0 0.0 
-3.428835276482e-04 8.193471541203e-05 0.0 
8.193471541203e-05 4.782173790504e-03 0.0 
0.0 0.0 0.0 
7.463400029573e-05 -4.168518292207e-04 0.0 
-4.168518292207e-04 6.538503434141e-03 0.0 
0.0 0.0 0.0 
-2.463674426662e-04 -1.290109550463e-05 0.0 
-1.290109550463e-05 5.566140132186e-03 0.0 
0.0 0.0 0.0 
-3.087451620256e-04 1.095035793453e-03 0.0 
1.095035793453e-03 2.399167766706e-03 0.0 
0.0 0.0 0.0 
-3.158594796873e-04 2.616448933785e-05 0.0 
2.616448933785e-05 4.708823983723e-03 0.0 
0.0 0.0 0.0 
-1.329232776054e-04 -1.511554492979e-04 0.0 
-1.511554492979e-04 7.266391517847e-03 0.0 
0.0 0.0 0.0 
5.791825119645e-04 4.584706389820e-04 0.0 
4.584706389820e-04 4.499823938484e-03 0.0 
0.0 0.0 0.0 
2.894122328685e-04 4.496876563521e-04 0.0 
4.496876563521e-04 5.834817630671e-03 0.0 
0.0 0.0 0.0 
5.809845000559e-05 1.555171678371e-03 0.0 
1.555171678371e-03 1.445489834787e-03 0.0 
0.0 0.0 0.0 
-2.516568117036e-04 -2.824079822613e-03 0.0 
-2.824079822613e-03 -1.487372995164e-03 0.0 
0.0 0.0 0.0 
-2.991143109350e-04 -1.319036898081e-04 0.0 
-1.319036898081e-04 6.796638564015e-03 0.0 
0.0 0.0 0.0 
-1.884784306241e-04 5.982158607287e-05 0.0 
5.982158607287e-05 6.882565868612e-03 0.0 
0.0 0.0 0.0 
-5.720218918328e-04 -2.947504011301e-03 0.0 
-2.947504011301e-03 -2.307198384007e-03 0.0 
0.0 0.0 0.0 
-6.879094387224e-05 -3.169731517767e-04 0.0 
-3.169731517767e-04 7.087745815232e-03 0.0 
0.0 0.0 0.0 
-1.707168671119e-04 5.717599182337e-04 0.0 
5.717599182337e-04 5.881161703558e-03 0.0 
0.0 0.0 0.0 
4.857905613773e-04 2.756777957535e-05 0.0 
2.756777957535e-05 1.262155835855e-04 0.0 
0.0 0.0 0.0 
4.429336409562e-04 1.271676643483e-03 0.0 
1.271676643483e-03 1.801996212561e-03 0.0 
0.0 0.0 0.0 
-4.173719301370e-04 3.030402905629e-04 0.0 
3.030402905629e-04 4.223834279631e-03 0.0 
0.0 0.0 0.0 
-6.205797663960e-04 -2.772692355494e-04 0.0 
-2.772692355494e-04 3.386066048365e-03 0.0 
0.0 0.0 0.0 
-2.947680845560e-04 1.140774560650e-03 0.0 
1.140774560650e-03 2.057542305057e-03 0.0 
0.0 0.0 0.0 
-1.190231450441e-04 1.200181143362e-03 0.0 
1.200181143362e-03 2.288119200816e-03 0.0 
0.0 0.0 0.0 
-1.990025241605e-05 -3.879234286325e-04 0.0 
-3.879234286325e-04 6.785713313823e-03 0.0 
0.0 0.0 0.0 
-2.489811356250e-04 4.138009753121e-05 0.0 
4.138009753121e-05 5.426898910682e-03 0.0 
0.0 0.0 0.0 
-1.238028059531e-04 1.323105815585e-03 0.0 
1.323105815585e-03 1.891017184351e-03 0.0 
0.0 0.0 0.0 
-4.346660781930e-04 -6.460881831851e-04 0.0 
-6.460881831851e-04 1.160827580144e-03 0.0 
0.0 0.0 0.0 
-3.787615519911e-04 2.617181894777e-04 0.0 
2.617181894777e-04 4.667410298160e-03 0.0 
0.0 0.0 0.0 
-1.512278883758e-04 2.442621480938e-05 0.0 
2.442621480938e-05 6.915753457553e-03 0.0 
0.0 0.0 0.0 
-4.569477864980e-05 1.360552577533e-03 0.0 
1.360552577533e-03 1.889173201715e-03 0.0 
0.0 0.0 0.0 
-5.253656103869e-04 2.329144299904e-03 0.0 
2.329144299904e-03 -3.003652486517e-04 0.0 
0.0 0.0 0.0 
-4.340409841371e-04 3.811764023175e-04 0.0 
3.811764023175e-04 3.743920238935e-03 0.0 
0.0 0.0 0.0 
-6.060082313064e-04 -2.531105026532e-04 0.0 
-2.531105026532e-04 3.341981553941e-03 0.0 
0.0 0.0 0.0 
-4.043653113690e-04 3.920487599100e-04 0.0 
3.920487599100e-04 3.525067155994e-03 0.0 
0.0 0.0 0.0 
-5.952821189092e-05 3.041158885458e-04 0.0 
3.041158885458e-04 7.817879885840e-03 0.0 
0.0 0.0 0.0 
1.638364217336e-04 2.511244009878e-03 0.0 
2.511244009878e-03 -1.392345874721e-03 0.0 
0.0 0.0 0.0 
-5.491010397355e-04 -1.605123274725e-04 0.0 
-1.605123274725e-04 5.348695884146e-03 0.0 
0.0 0.0 0.0 
-8.708867603435e-05 9.819657395681e-05 0.0 
9.819657395681e-05 7.722405441869e-03 0.0 
0.0 0.0 0.0 
-2.697169723392e-04 7.833616912928e-04 0.0 
7.833616912928e-04 3.331603805054e-03 0.0 
0.0 0.0 0.0 
-4.428920542534e-04 4.296245567722e-04 0.0 
4.296245567722e-04 3.510890448330e-03 0.0 
0.0 0.0 0.0 
3.126650657559e-05 -3.780130510131e-04 0.0 
-3.780130510131e-04 6.546619374817e-03 0.0 
0.0 0.0 0.0 
-1.925652121865e-04 -1.392134626285e-04 0.0 
-1.392134626285e-04 7.173008085312e-03 0.0 
0.0 0.0 0.0 
-5.052873246577e-04 -1.383746222548e-04 0.0 
-1.383746222548e-04 5.708804562418e-03 0.0 
0.0 0.0 0.0 
-2.816458595883e-04 7.268150589637e-04 0.0 
7.268150589637e-04 3.636306647755e-03 0.0 
0.0 0.0 0.0 
2.044434992641e-04 -2.675440388707e-04 0.0 
-2.675440388707e-04 6.301153956135e-03 0.0 
0.0 0.0 0.0 
-3.420370545976e-04 6.768572422016e-04 0.0 
6.768572422016e-04 3.336482823772e-03 0.0 
0.0 0.0 0.0 
-5.225248687679e-05 1.911283576224e-04 0.0 
1.911283576224e-04 7.784852156126e-03 0.0 
0.0 0.0 0.0 
-1.757199691532e-05 7.020126399150e-04 0.0 
7.020126399150e-04 7.015888023333e-03 0.0 
0.0 0.0 0.0 
-3.627944608855e-04 1.374659904066e-04 0.0 
1.374659904066e-04 5.192121635777e-03 0.0 
0.0 0.0 0.0 
-2.329530844646e-04 8.742627985078e-05 0.0 
8.742627985078e-05 6.067938076536e-03 0.0 
0.0 0.0 0.0 
-3.517457660489e-04 7.225726302390e-04 0.0 
7.225726302390e-04 3.334565893537e-03 0.0 
0.0 0.0 0.0 
-4.141539315073e-04 4.367184519646e-04 0.0 
4.367184519646e-04 3.285286668128e-03 0.0 
0.0 0.0 0.0 
-2.060905417595e-04 7.822333483451e-04 0.0 
7.822333483451e-04 3.633360269389e-03 0.0 
0.0 0.0 0.0 
2.369194737750e-04 1.433031876417e-03 0.0 
1.433031876417e-03 1.694528238565e-03 0.0 
0.0 0.0 0.0 
-2.953453388860e-04 6.180240011434e-06 0.0 
6.180240011434e-06 4.774900344702e-03 0.0 
0.0 0.0 0.0 
6.184106422009e-04 1.203614956140e-03 0.0 
1.203614956140e-03 1.809680829182e-03 0.0 
0.0 0.0 0.0 
-8.810132184345e-06 -1.527273950895e-05 0.0 
-1.527273950895e-05 3.976918040660e-04 0.0 
0.0 0.0 0.0 
-2.647727737125e-04 8.499598172074e-06 0.0 
8.499598172074e-06 5.101492879910e-03 0.0 
0.0 0.0 0.0 
-9.463379895924e-05 -3.825590003458e-05 0.0 
-3.825590003458e-05 1.189130277429e-03 0.0 
0.0 0.0 0.0 
-4.258796909903e-04 3.398183603260e-04 0.0 
3.398183603260e-04 3.983623477102e-03 0.0 
0.0 0.0 0.0 
1.131696575796e-04 -2.778073390919e-04 0.0 
-2.778073390919e-04 6.317714454305e-03 0.0 
0.0 0.0 0.0 
-5.776189995410e-05 1.509519873351e-03 0.0 
1.509519873351e-03 1.449021286684e-03 0.0 
0.0 0.0 0.0 
-4.986877833636e-04 -6.245353881278e-05 0.0 
-6.245353881278e-05 5.927007946970e-03 0.0 
0.0 0.0 0.0 
-6.523904536635e-04 1.193864950127e-03 0.0 
1.193864950127e-03 1.648365215084e-03 0.0 
0.0 0.0 0.0 
5.215957229632e-04 5.711722478188e-04 0.0 
5.711722478188e-04 4.489752264024e-03 0.0 
0.0 0.0 0.0 
-2.738047458750e-04 1.635192631175e-05 0.0 
1.635192631175e-05 4.817473075653e-03 0.0 
0.0 0.0 0.0 
6.069942137494e-04 1.364963073999e-03 0.0 
1.364963073999e-03 1.247281195268e-03 0.0 
0.0 0.0 0.0 
-3.894146623770e-04 -1.371886107615e-04 0.0 
-1.371886107615e-04 6.433099442567e-03 0.0 
0.0 0.0 0.0 
-7.762365185578e-04 -8.663157511632e-04 0.0 
-8.663157511632e-04 1.205487747053e-03 0.0 
0.0 0.0 0.0 
-2.952049549062e-04 -9.600785244591e-05 0.0 
-9.600785244591e-05 6.792834384838e-03 0.0 
0.0 0.0 0.0 
-3.564065813155e-04 4.377798592938e-04 0.0 
4.377798592938e-04 4.413421256996e-03 0.0 
0.0 0.0 0.0 
-1.660018758247e-04 -3.022781203178e-04 0.0 
-3.022781203178e-04 7.108223966227e-03 0.0 
0.0 0.0 0.0 
-2.642683840252e-04 9.829690483099e-06 0.0 
9.829690483099e-06 4.794294018561e-03 0.0 
0.0 0.0 0.0 
2.199834538723e-04 1.557482237841e-03 0.0 
1.557482237841e-03 1.156874848836e-03 0.0 
0.0 0.0 0.0 
-3.893293611104e-04 3.212260116519e-04 0.0 
3.212260116519e-04 3.989446443222e-03 0.0 
0.0 0.0 0.0 
-6.233103363071e-04 -9.593375036713e-05 0.0 
-9.593375036713e-05 5.145539327639e-03 0.0 
0.0 0.0 0.0 
-5.562162633593e-04 1.063855277424e-03 0.0 
1.063855277424e-03 1.610149554811e-03 0.0 
0.0 0.0 0.0 
8.265068258830e-04 1.245312913457e-03 0.0 
1.245312913457e-03 1.262492051791e-03 0.0 
0.0 0.0 0.0 
-2.332401173832e-04 2.129758460455e-05 0.0 
2.129758460455e-05 6.289426244917e-03 0.0 
0.0 0.0 0.0 
-2.759561213254e-04 4.122031374378e-05 0.0 
4.122031374378e-05 4.787865606944e-03 0.0 
0.0 0.0 0.0 
3.495717417161e-04 1.413368307683e-03 0.0 
1.413368307683e-03 1.446075103025e-03 0.0 
0.0 0.0 0.0 
-4.014067018157e-04 3.511843860709e-04 0.0 
3.511843860709e-04 3.754452267678e-03 0.0 
0.0 0.0 0.0 
-2.353468654304e-05 6.609676746875e-04 0.0 
6.609676746875e-04 6.098921592484e-03 0.0 
0.0 0.0 0.0 
-6.214892059576e-04 -3.075045329688e-04 0.0 
-3.075045329688e-04 3.665338350390e-03 0.0 
0.0 0.0 0.0 
9.005480176039e-05 5.872830952528e-04 0.0 
5.872830952528e-04 6.512095366759e-03 0.0 
0.0 0.0 0.0 
2.514010366328e-06 6.918301454715e-04 0.0 
6.918301454715e-04 6.916051971408e-03 0.0 
0.0 0.0 0.0 
-4.454902136557e-04 1.090656507467e-03 0.0 
1.090656507467e-03 2.186007164587e-03 0.0 
0.0 0.0 0.0 
-6.422590939044e-04 -2.382889814887e-04 0.0 
-2.382889814887e-04 3.760791665507e-03 0.0 
0.0 0.0 0.0 
4.944961222269e-04 -9.292914873328e-05 0.0 
-9.292914873328e-05 5.110123367598e-03 0.0 
0.0 0.0 0.0 
-4.151754903925e-04 6.133974821149e-04 0.0 
6.133974821149e-04 3.315418646710e-03 0.0 
0.0 0.0 0.0 
-4.213998304629e-04 1.080385831821e-03 0.0 
1.080385831821e-03 1.879018718120e-03 0.0 
0.0 0.0 0.0 
-3.769468496758e-04 3.669802283779e-04 0.0 
3.669802283779e-04 4.324944409846e-03 0.0 
0.0 0.0 0.0 
3.634507915395e-04 1.290459145511e-03 0.0 
1.290459145511e-03 1.985886562568e-03 0.0 
0.0 0.0 0.0 
-5.823285719064e-05 1.578858111587e-04 0.0 
1.578858111587e-04 7.791310601518e-03 0.0 
0.0 0.0 0.0 
-2.132543267609e-04 5.094869495440e-04 0.0 
5.094869495440e-04 6.097393166570e-03 0.0 
0.0 0.0 0.0 
-3.508233617888e-04 -4.233078238629e-05 0.0 
-4.233078238629e-05 6.641867595961e-03 0.0 
0.0 0.0 0.0 
-7.332533323041e-04 1.596768981516e-03 0.0 
1.596768981516e-03 1.032663959195e-03 0.0 
0.0 0.0 0.0 
1.073536667401e-03 1.242620460754e-03 0.0 
1.242620460754e-03 6.655462293865e-04 0.0 
0.0 0.0 0.0 
-1.724752947474e-04 5.537352088975e-04 0.0 
5.537352088975e-04 6.182309786824e-03 0.0 
0.0 0.0 0.0 
-2.497382454169e-03 1.928887192939e-03 0.0 
1.928887192939e-03 -2.628023139985e-03 0.0 
0.0 0.0 0.0 
-3.895171986090e-04 5.623141412197e-04 0.0 
5.623141412197e-04 3.316390852433e-03 0.0 
0.0 0.0 0.0 
5.259226161736e-04 -3.021565396448e-04 0.0 
-3.021565396448e-04 4.648719792226e-03 0.0 
0.0 0.0 0.0 
2.044412532576e-04 -6.205245717202e-05 0.0 
-6.205245717202e-05 6.953874674496e-04 0.0 
0.0 0.0 0.0 
-9.035151941517e-05 5.604552442796e-04 0.0 
5.604552442796e-04 7.359300555243e-03 0.0 
0.0 0.0 0.0 
-2.977558796463e-04 3.663924254386e-04 0.0 
3.663924254386e-04 5.788663740380e-03 0.0 
0.0 0.0 0.0 
1.862420569676e-05 -1.201080532132e-03 0.0 
-1.201080532132e-03 2.411576781867e-03 0.0 
0.0 0.0 0.0 
5.697671268829e-04 -1.723684204210e-04 0.0 
-1.723684204210e-04 4.639844249350e-03 0.0 
0.0 0.0 0.0 
-3.815605259853e-04 2.583362980911e-04 0.0 
2.583362980911e-04 5.009750864708e-03 0.0 
0.0 0.0 0.0 
-3.615374415541e-04 2.020328635828e-04 0.0 
2.020328635828e-04 5.390333448275e-03 0.0 
0.0 0.0 0.0 
2.305188006564e-04 -2.659582141964e-04 0.0 
-2.659582141964e-04 5.927968304775e-03 0.0 
0.0 0.0 0.0 
-4.906457625939e-04 -1.066337157866e-03 0.0 
-1.066337157866e-03 2.237395581451e-03 0.0 
0.0 0.0 0.0 
-1.033377230022e-04 8.536248420768e-04 0.0 
8.536248420768e-04 3.605312105031e-03 0.0 
0.0 0.0 0.0 
-3.220481574565e-04 5.074919220239e-04 0.0 
5.074919220239e-04 4.488340804532e-03 0.0 
0.0 0.0 0.0 
-3.165368038525e-04 3.213618037921e-04 0.0 
3.213618037921e-04 6.045110998905e-03 0.0 
0.0 0.0 0.0 
-3.782174550190e-04 3.971508220463e-04 0.0 
3.971508220463e-04 4.673195789200e-03 0.0 
0.0 0.0 0.0 
-4.042031754912e-04 3.718183352863e-04 0.0 
3.718183352863e-04 4.324972101668e-03 0.0 
0.0 0.0 0.0 
7.762232080126e-04 4.592740588834e-04 0.0 
4.592740588834e-04 3.606702006189e-03 0.0 
0.0 0.0 0.0 
-7.317217138314e-05 5.991376982588e-04 0.0 
5.991376982588e-04 6.025454515960e-03 0.0 
0.0 0.0 0.0 
-3.081202397635e-04 1.819449528536e-03 0.0 
1.819449528536e-03 -3.576408690293e-03 0.0 
0.0 0.0 0.0 
-4.078269998652e-04 9.840866403101e-04 0.0 
9.840866403101e-04 2.172820197508e-03 0.0 
0.0 0.0 0.0 
-3.058539401204e-04 1.004347484929e-03 0.0 
1.004347484929e-03 2.413926556509e-03 0.0 
0.0 0.0 0.0 
-1.769682380149e-04 8.073541207445e-04 0.0 
8.073541207445e-04 3.629808979756e-03 0.0 
0.0 0.0 0.0 
-2.347691416628e-04 4.611881294503e-04 0.0 
4.611881294503e-04 6.384981420977e-03 0.0 
0.0 0.0 0.0 
1.758713189946e-03 1.958546285468e-03 0.0 
1.958546285468e-03 -3.577407902450e-03 0.0 
0.0 0.0 0.0 
5.016384164842e-04 -4.044483235895e-04 0.0 
-4.044483235895e-04 4.453577953565e-03 0.0 
0.0 0.0 0.0 
-2.831789161198e-04 -1.447173846613e-05 0.0 
-1.447173846613e-05 4.759194961463e-03 0.0 
0.0 0.0 0.0 
8.131940007947e-04 1.422439090599e-03 0.0 
1.422439090599e-03 6.415158167787e-04 0.0 
0.0 0.0 0.0 
4.483659055126e-04 -5.068314777299e-04 0.0 
-5.068314777299e-04 4.296331635916e-03 0.0 
0.0 0.0 0.0 
1.967244937122e-04 -5.254983565742e-06 0.0 
-5.254983565742e-06 4.041390894918e-04 0.0 
0.0 0.0 0.0 
-2.618048527595e-04 4.013386212820e-04 0.0 
4.013386212820e-04 6.161976046197e-03 0.0 
0.0 0.0 0.0 
4.030128480312e-04 -6.361671456488e-05 0.0 
-6.361671456488e-05 2.058502659090e-04 0.0 
0.0 0.0 0.0 
-5.790397455852e-06 -3.536020587977e-05 0.0 
-3.536020587977e-05 7.730769319314e-04 0.0 
0.0 0.0 0.0 
-5.442887315368e-04 1.364870760282e-03 0.0 
1.364870760282e-03 1.020810766775e-03 0.0 
0.0 0.0 0.0 
-5.905995811809e-04 -1.028187663564e-03 0.0 
-1.028187663564e-03 1.972625609254e-03 0.0 
0.0 0.0 0.0 
-2.780789172560e-04 3.533710991767e-04 0.0 
3.533710991767e-04 6.419799966879e-03 0.0 
0.0 0.0 0.0 
-5.442232103507e-04 -1.104660248905e-03 0.0 
-1.104660248905e-03 1.692056752965e-03 0.0 
0.0 0.0 0.0 
-3.167167237206e-05 2.032644153797e-03 0.0 
2.032644153797e-03 1.755995155288e-04 0.0 
0.0 0.0 0.0 
3.366888973582e-04 -2.476328430865e-03 0.0 
-2.476328430865e-03 -1.064044839691e-03 0.0 
0.0 0.0 0.0 
-7.190101542587e-04 -7.456313814527e-04 0.0 
-7.456313814527e-04 1.397584039634e-03 0.0 
0.0 0.0 0.0 
5.478171069675e-04 -8.017867902708e-05 0.0 
-8.017867902708e-05 4.849847980254e-03 0.0 
0.0 0.0 0.0 
-3.768306113918e-04 4.408794643267e-04 0.0 
4.408794643267e-04 4.413308590630e-03 0.0 
0.0 0.0 0.0 
-1.822205036587e-04 -2.003018786806e-04 0.0 
-2.003018786806e-04 7.089677874471e-03 0.0 
0.0 0.0 0.0 
-2.613509372079e-04 6.353984752388e-04 0.0 
6.353984752388e-04 -4.766889831887e-03 0.0 
0.0 0.0 0.0 
1.806792820342e-04 1.942241549886e-03 0.0 
1.942241549886e-03 2.995861299304e-04 0.0 
0.0 0.0 0.0 
8.495107475692e-04 1.211621808210e-03 0.0 
1.211621808210e-03 1.118212393371e-03 0.0 
0.0 0.0 0.0 
-3.878002109696e-04 6.411591826278e-04 0.0 
6.411591826278e-04 3.038584477531e-03 0.0 
0.0 0.0 0.0 
5.664389305200e-04 -2.800236386716e-04 0.0 
-2.800236386716e-04 4.444965914203e-03 0.0 
0.0 0.0 0.0 
-1.320361107775e-04 -3.063904224207e-04 0.0 
-3.063904224207e-04 7.097874675773e-03 0.0 
0.0 0.0 0.0 
-2.750451418769e-04 4.359003314482e-04 0.0 
4.359003314482e-04 6.011930072119e-03 0.0 
0.0 0.0 0.0 
1.372350700742e-03 1.439580550153e-03 0.0 
1.439580550153e-03 -5.168939616468e-04 0.0 
0.0 0.0 0.0 
5.172323822127e-04 -1.908014694191e-04 0.0 
-1.908014694191e-04 4.850609461266e-03 0.0 
0.0 0.0 0.0 
-5.560265893779e-04 -6.719106970519e-05 0.0 
-6.719106970519e-05 5.548460391757e-03 0.0 
0.0 0.0 0.0 
-2.162895867213e-04 7.200661291602e-04 0.0 
7.200661291602e-04 3.947006883625e-03 0.0 
0.0 0.0 0.0 
-2.752677978203e-04 4.154493185043e-04 0.0 
4.154493185043e-04 5.898811772393e-03 0.0 
0.0 0.0 0.0 
1.856802439715e-04 5.050554918940e-04 0.0 
5.050554918940e-04 6.130769231268e-03 0.0 
0.0 0.0 0.0 
1.064752672984e-03 1.034545938766e-03 0.0 
1.034545938766e-03 1.143074770679e-03 0.0 
0.0 0.0 0.0 
-5.532983870593e-05 1.925159069448e-03 0.0 
1.925159069448e-03 7.597969328734e-04 0.0 
0.0 0.0 0.0 
-3.452880046059e-04 4.214634413229e-04 0.0 
4.214634413229e-04 5.022576534468e-03 0.0 
0.0 0.0 0.0 
-5.535895521103e-05 3.399679881651e-04 0.0 
3.399679881651e-04 8.045867623420e-03 0.0 
0.0 0.0 0.0 
-4.990031838947e-05 8.631427533744e-04 0.0 
8.631427533744e-04 3.603900489793e-03 0.0 
0.0 0.0 0.0 
1.074441710276e-03 5.280633335726e-04 0.0 
5.280633335726e-04 2.161733245289e-03 0.0 
0.0 0.0 0.0 
-2.746158636002e-04 1.892046574455e-05 0.0 
1.892046574455e-05 5.180452745448e-03 0.0 
0.0 0.0 0.0 
-5.530514610795e-04 -1.641491178903e-03 0.0 
-1.641491178903e-03 4.352802588479e-04 0.0 
0.0 0.0 0.0 
-3.549974865339e-04 4.001694115674e-04 0.0 
4.001694115674e-04 4.672574740184e-03 0.0 
0.0 0.0 0.0 
1.021116920146e-03 1.707221327797e-03 0.0 
1.707221327797e-03 -5.552675475280e-04 0.0 
0.0 0.0 0.0 
1.811068806225e-03 1.749844993039e-03 0.0 
1.749844993039e-03 -3.100480660379e-03 0.0 
0.0 0.0 0.0 
1.558014745161e-03 -2.183282327519e-03 0.0 
-2.183282327519e-03 -3.517417975869e-03 0.0 
0.0 0.0 0.0 
-2.444002769925e-04 3.875731376616e-04 0.0 
3.875731376616e-04 6.415255335624e-03 0.0 
0.0 0.0 0.0 
-3.411324528457e-04 4.633387989248e-04 0.0 
4.633387989248e-04 4.757041162738e-03 0.0 
0.0 0.0 0.0 
9.537640054802e-05 1.394463341225e-03 0.0 
1.394463341225e-03 1.701644233075e-03 0.0 
0.0 0.0 0.0 
-2.571393238918e-04 3.377433506716e-04 0.0 
3.377433506716e-04 6.668371016188e-03 0.0 
0.0 0.0 0.0 
-2.361882321653e-04 4.810636954748e-04 0.0 
4.810636954748e-04 6.103415441298e-03 0.0 
0.0 0.0 0.0 
-2.479447777797e-04 6.452550729999e-04 0.0 
6.452550729999e-04 4.248889681417e-03 0.0 
0.0 0.0 0.0 
-4.454767506190e-05 -3.633539517820e-04 0.0 
-3.633539517820e-04 6.951797794774e-03 0.0 
0.0 0.0 0.0 
1.024079271328e-03 5.184333388196e-04 0.0 
5.184333388196e-04 2.246164522435e-03 0.0 
0.0 0.0 0.0 
-2.724438950186e-04 5.803790620470e-04 0.0 
5.803790620470e-04 4.542202454943e-03 0.0 
0.0 0.0 0.0 
4.520209499501e-04 1.141767828500e-03 0.0 
1.141767828500e-03 2.320715244173e-03 0.0 
0.0 0.0 0.0 
9.853036933403e-04 4.436409812241e-04 0.0 
4.436409812241e-04 2.690403398424e-03 0.0 
0.0 0.0 0.0 
1.758872935078e-03 1.469800009831e-03 0.0 
1.469800009831e-03 -2.355583031108e-03 0.0 
0.0 0.0 0.0 
-3.749816900824e-04 1.821330913140e-04 0.0 
1.821330913140e-04 4.736302326565e-03 0.0 
0.0 0.0 0.0 
1.237240909727e-03 7.732171042668e-04 0.0 
7.732171042668e-04 1.090152791796e-03 0.0 
0.0 0.0 0.0 
1.702348290630e-03 -1.048788079761e-03 0.0 
-1.048788079761e-03 -1.276321066049e-03 0.0 
0.0 0.0 0.0 
-2.476963119689e-04 4.635879534312e-04 0.0 
4.635879534312e-04 6.006438853415e-03 0.0 
0.0 0.0 0.0 
-3.340056174205e-03 1.876245330715e-04 0.0 
1.876245330715e-04 -3.410259626247e-03 0.0 
0.0 0.0 0.0 
-3.761576268128e-04 3.599217562989e-04 0.0 
3.599217562989e-04 4.926922482590e-03 0.0 
0.0 0.0 0.0 
1.363260381210e-03 1.346302177222e-03 0.0 
1.346302177222e-03 -7.724868230313e-04 0.0 
0.0 0.0 0.0 
4.489269766601e-04 1.956677003400e-03 0.0 
1.956677003400e-03 2.962858508901e-04 0.0 
0.0 0.0 0.0 
2.124411029316e-03 8.760685410553e-04 0.0 
8.760685410553e-04 -2.257460377664e-03 0.0 
0.0 0.0 0.0 
-2.910237119863e-04 4.890230495662e-04 0.0 
4.890230495662e-04 5.103175770058e-03 0.0 
0.0 0.0 0.0 
-1.532035878212e-04 -3.554325063749e-04 0.0 
-3.554325063749e-04 7.256473401120e-04 0.0 
0.0 0.0 0.0 
-3.228729037510e-04 8.763758138022e-04 0.0 
8.763758138022e-04 2.746916138123e-03 0.0 
0.0 0.0 0.0 
9.352370575983e-04 4.430178230838e-04 0.0 
4.430178230838e-04 2.802647813003e-03 0.0 
0.0 0.0 0.0 
-3.256531732857e-04 4.644165475740e-04 0.0 
4.644165475740e-04 4.756738519495e-03 0.0 
0.0 0.0 0.0 
-3.766674860707e-04 2.172744063061e-04 0.0 
2.172744063061e-04 5.065402762978e-03 0.0 
0.0 0.0 0.0 
1.891433255982e-03 1.578315703525e-03 0.0 
1.578315703525e-03 -4.344225893838e-03 0.0 
0.0 0.0 0.0 
1.887369956600e-03 -4.985216450060e-04 0.0 
-4.985216450060e-04 -1.362208894372e-03 0.0 
0.0 0.0 0.0 
1.433289644071e-03 -1.620808496855e-03 0.0 
-1.620808496855e-03 -1.357330299731e-03 0.0 
0.0 0.0 0.0 
-4.333351461222e-04 9.426865234810e-04 0.0 
9.426865234810e-04 2.485809200157e-03 0.0 
0.0 0.0 0.0 
-3.071503921575e-04 3.855583478923e-04 0.0 
3.855583478923e-04 5.904693320640e-03 0.0 
0.0 0.0 0.0 
-3.247692639452e-04 9.554711870980e-04 0.0 
9.554711870980e-04 2.735088885075e-03 0.0 
0.0 0.0 0.0 
1.263146556167e-03 8.929642373348e-04 0.0 
8.929642373348e-04 4.840574515121e-04 0.0 
0.0 0.0 0.0 
1.071521216349e-03 1.187901044245e-03 0.0 
1.187901044245e-03 5.089690631330e-04 0.0 
0.0 0.0 0.0 
1.932914399696e-03 1.286592998698e-03 0.0 
1.286592998698e-03 -3.351122834397e-03 0.0 
0.0 0.0 0.0 
4.967097610153e-04 1.130330926073e-03 0.0 
1.130330926073e-03 2.198103118024e-03 0.0 
0.0 0.0 0.0 
-2.457707029453e-04 2.163887632464e-03 0.0 
2.163887632464e-03 1.449767420016e-04 0.0 
0.0 0.0 0.0 
-6.538986165494e-05 5.309598883240e-04 0.0 
5.309598883240e-04 7.848509274045e-03 0.0 
0.0 0.0 0.0 
-7.162052398546e-05 6.029580688528e-04 0.0 
6.029580688528e-04 7.718712048493e-03 0.0 
0.0 0.0 0.0 
1.565455512287e-05 8.998490710283e-04 0.0 
8.998490710283e-04 3.568914222292e-03 0.0 
0.0 0.0 0.0 
1.364846407812e-03 1.664191329448e-03 0.0 
1.664191329448e-03 -1.414678714897e-03 0.0 
0.0 0.0 0.0 
7.483128787036e-04 2.110069595935e-03 0.0 
2.110069595935e-03 -4.584524971138e-04 0.0 
0.0 0.0 0.0 
-2.127814197516e-04 6.383315796039e-04 0.0 
6.383315796039e-04 4.582356349162e-03 0.0 
0.0 0.0 0.0 
1.318501399259e-03 1.778250578845e-03 0.0 
1.778250578845e-03 -9.903952636454e-04 0.0 
0.0 0.0 0.0 
1.774476104909e-03 -1.083194360148e-03 0.0 
-1.083194360148e-03 -1.442841813667e-03 0.0 
0.0 0.0 0.0 
-2.351965953205e-04 7.011556106228e-04 0.0 
7.011556106228e-04 3.950518888765e-03 0.0 
0.0 0.0 0.0 
-1.128130555603e-04 2.076234301417e-04 0.0 
2.076234301417e-04 7.786813384757e-03 0.0 
0.0 0.0 0.0 
1.067373177781e-03 1.425675805955e-03 0.0 
1.425675805955e-03 -3.348659045643e-05 0.0 
0.0 0.0 0.0 
6.934853943705e-04 5.872806439554e-04 0.0 
5.872806439554e-04 3.591614527200e-03 0.0 
0.0 0.0 0.0 
1.874588920217e-04 2.226560734323e-03 0.0 
2.226560734323e-03 -5.542690084697e-04 0.0 
0.0 0.0 0.0 
1.512983557479e-04 -1.585828277925e-04 0.0 
-1.585828277925e-04 6.624100388136e-03 0.0 
0.0 0.0 0.0 
9.108147062680e-04 2.032636616685e-03 0.0 
2.032636616685e-03 -1.028821803072e-03 0.0 
0.0 0.0 0.0 
-1.482620999980e-04 7.706713358726e-04 0.0 
7.706713358726e-04 3.947473938620e-03 0.0 
0.0 0.0 0.0 
2.219753783732e-03 1.258577346271e-03 0.0 
1.258577346271e-03 -3.991246911747e-03 0.0 
0.0 0.0 0.0 
8.905012069584e-04 -1.621874215360e-04 0.0 
-1.621874215360e-04 3.219834859714e-03 0.0 
0.0 0.0 0.0 
1.047768113096e-03 9.918473140416e-04 0.0 
9.918473140416e-04 1.056517536862e-03 0.0 
0.0 0.0 0.0 
1.392014153671e-03 -1.388380646879e-03 0.0 
-1.388380646879e-03 -5.866995891146e-04 0.0 
0.0 0.0 0.0 
-3.327194772281e-04 5.137958054451e-04 0.0 
5.137958054451e-04 4.487576264555e-03 0.0 
0.0 0.0 0.0 
-3.448286805718e-05 6.996458687617e-04 0.0 
6.996458687617e-04 7.515334997179e-03 0.0 
0.0 0.0 0.0 
1.322608038671e-03 1.092263718278e-03 0.0 
1.092263718278e-03 -1.356011939632e-04 0.0 
0.0 0.0 0.0 
1.004663101059e-03 2.673290641930e-04 0.0 
2.673290641930e-04 2.827035085362e-03 0.0 
0.0 0.0 0.0 
3.776961015283e-04 2.307823911804e-03 0.0 
2.307823911804e-03 -5.662561412166e-04 0.0 
0.0 0.0 0.0 
-2.946433104791e-04 2.168379500903e-04 0.0 
2.168379500903e-04 5.842077987689e-03 0.0 
0.0 0.0 0.0 
5.350346409190e-04 -3.892642398301e-04 0.0 
-3.892642398301e-04 4.281137185208e-03 0.0 
0.0 0.0 0.0 
-1.715936779926e-04 1.667125595330e-03 0.0 
1.667125595330e-03 1.254680044414e-03 0.0 
0.0 0.0 0.0 
-3.314583721296e-04 1.379881722849e-04 0.0 
1.379881722849e-04 5.687032694710e-03 0.0 
0.0 0.0 0.0 
1.332455107828e-05 7.339988476616e-04 0.0 
7.339988476616e-04 7.227161425220e-03 0.0 
0.0 0.0 0.0 
4.478874052924e-04 -3.302161919760e-04 0.0 
-3.302161919760e-04 4.788796956966e-03 0.0 
0.0 0.0 0.0 
-4.896063826121e-05 6.740669067793e-04 0.0 
6.740669067793e-04 7.591043580444e-03 0.0 
0.0 0.0 0.0 
-3.437906016646e-04 1.809908970123e-04 0.0 
1.809908970123e-04 5.609896294372e-03 0.0 
0.0 0.0 0.0 
-1.790916305457e-04 5.500024744030e-04 0.0 
5.500024744030e-04 5.885642354694e-03 0.0 
0.0 0.0 0.0 
-4.617685298530e-04 1.713005285546e-03 0.0 
1.713005285546e-03 1.142155843646e-03 0.0 
0.0 0.0 0.0 
-3.738524800082e-04 4.953789029282e-04 0.0 
4.953789029282e-04 4.152518134310e-03 0.0 
0.0 0.0 0.0 
-2.736197479014e-04 5.765089385041e-04 0.0 
5.765089385041e-04 4.542760476021e-03 0.0 
0.0 0.0 0.0 
-2.908337904999e-04 5.250784047844e-04 0.0 
5.250784047844e-04 4.826916464092e-03 0.0 
0.0 0.0 0.0 
2.409028336126e-05 9.581388293074e-04 0.0 
9.581388293074e-04 3.245682489418e-03 0.0 
0.0 0.0 0.0 
5.132049165901e-05 6.893864853845e-04 0.0 
6.893864853845e-04 7.033290588379e-03 0.0 
0.0 0.0 0.0 
-3.411035083699e-04 2.855461528137e-04 0.0 
2.855461528137e-04 5.305176965933e-03 0.0 
0.0 0.0 0.0 
-4.016367233881e-04 3.329998476348e-04 0.0 
3.329998476348e-04 4.575865665521e-03 0.0 
0.0 0.0 0.0 
1.305140722081e-03 9.443544466211e-04 0.0 
9.443544466211e-04 5.445227272147e-04 0.0 
0.0 0.0 0.0 
-6.964244023289e-04 -9.304669594494e-04 0.0 
-9.304669594494e-04 1.704556293812e-03 0.0 
0.0 0.0 0.0 
-4.092494452623e-04 4.144840008602e-04 0.0 
4.144840008602e-04 4.070681415515e-03 0.0 
0.0 0.0 0.0 
3.953032550097e-05 1.700278433027e-03 0.0 
1.700278433027e-03 9.213012514897e-04 0.0 
0.0 0.0 0.0 
-2.693102243252e-04 7.740135678695e-06 0.0 
7.740135678695e-06 4.805866013844e-03 0.0 
0.0 0.0 0.0 
1.027069541462e-03 -1.743835930026e-03 0.0 
-1.743835930026e-03 -5.319284039591e-04 0.0 
0.0 0.0 0.0 
1.355193624567e-03 1.163089361293e-03 0.0 
1.163089361293e-03 2.517296239013e-06 0.0 
0.0 0.0 0.0 
-2.359964226674e-04 4.489617548520e-04 0.0 
4.489617548520e-04 6.274680318622e-03 0.0 
0.0 0.0 0.0 
2.177886474968e-04 1.757490553302e-03 0.0 
1.757490553302e-03 9.130953639782e-04 0.0 
0.0 0.0 0.0 
-3.136216779547e-04 5.608501376758e-04 0.0 
5.608501376758e-04 4.213496104459e-03 0.0 
0.0 0.0 0.0 
9.450629647896e-04 2.758147929622e-04 0.0 
2.758147929622e-04 2.981328919839e-03 0.0 
0.0 0.0 0.0 
4.522981442980e-04 -8.125779035265e-04 0.0 
-8.125779035265e-04 3.142904280104e-03 0.0 
0.0 0.0 0.0 
1.260186780119e-04 5.234834981567e-04 0.0 
5.234834981567e-04 6.772562704481e-03 0.0 
0.0 0.0 0.0 
-4.133007571062e-04 5.344415971290e-04 0.0 
5.344415971290e-04 3.574180466579e-03 0.0 
0.0 0.0 0.0 
2.045151999450e-03 7.442241604257e-05 0.0 
7.442241604257e-05 -1.951010001583e-03 0.0 
0.0 0.0 0.0 
-3.131049749583e-06 -1.368463857850e-03 0.0 
-1.368463857850e-03 1.973535193368e-03 0.0 
0.0 0.0 0.0 
-4.598127341999e-04 1.262278457009e-03 0.0 
1.262278457009e-03 1.853101766654e-03 0.0 
0.0 0.0 0.0 
-2.353060599855e-04 1.546818857564e-03 0.0 
1.546818857564e-03 1.268109553024e-03 0.0 
0.0 0.0 0.0 
-1.950328856799e-04 5.048907328242e-04 0.0 
5.048907328242e-04 6.476596927591e-03 0.0 
0.0 0.0 0.0 
-1.583930469542e-04 7.025641268616e-04 0.0 
7.025641268616e-04 4.270143850765e-03 0.0 
0.0 0.0 0.0 
-4.224983174139e-04 6.992210067156e-04 0.0 
6.992210067156e-04 3.033822031402e-03 0.0 
0.0 0.0 0.0 
-3.516780954432e-04 5.365636792897e-04 0.0 
5.365636792897e-04 3.891272594086e-03 0.0 
0.0 0.0 0.0 
1.724070384490e-04 1.550914943044e-04 0.0 
1.550914943044e-04 6.564643810450e-03 0.0 
0.0 0.0 0.0 
3.138717475248e-04 1.681941132675e-04 0.0 
1.681941132675e-04 6.016304050424e-03 0.0 
0.0 0.0 0.0 
-1.690518110703e-04 5.370165340220e-04 0.0 
5.370165340220e-04 6.469299101810e-03 0.0 
0.0 0.0 0.0 
-2.955302238561e-04 3.690717597185e-04 0.0 
3.690717597185e-04 6.167845918179e-03 0.0 
0.0 0.0 0.0 
4.631106299799e-04 -9.465321372008e-04 0.0 
-9.465321372008e-04 2.721813064550e-03 0.0 
0.0 0.0 0.0 
-1.744824791788e-04 1.064320683246e-03 0.0 
1.064320683246e-03 2.661849501166e-03 0.0 
0.0 0.0 0.0 
1.739123059412e-03 1.253308840094e-03 0.0 
1.253308840094e-03 -1.351975584894e-03 0.0 
0.0 0.0 0.0 
1.659668769007e-03 9.740776422778e-04 0.0 
9.740776422778e-04 -7.172666920743e-04 0.0 
0.0 0.0 0.0 
-1.094233791682e-04 7.791228110474e-04 0.0 
7.791228110474e-04 3.946016616819e-03 0.0 
0.0 0.0 0.0 
9.531861624312e-04 -2.121955343648e-04 0.0 
-2.121955343648e-04 2.940199873434e-03 0.0 
0.0 0.0 0.0 
-4.024516640440e-04 -7.847244292832e-04 0.0 
-7.847244292832e-04 3.487665195571e-03 0.0 
0.0 0.0 0.0 
-1.925304948274e-04 4.816818427745e-04 0.0 
4.816818427745e-04 6.647872542962e-03 0.0 
0.0 0.0 0.0 
2.010192780907e-03 -5.721182580170e-04 0.0 
-5.721182580170e-04 -1.850245985471e-03 0.0 
0.0 0.0 0.0 
1.143542002584e-04 1.057730947778e-03 0.0 
1.057730947778e-03 2.863017853898e-03 0.0 
0.0 0.0 0.0 
-2.566384863327e-04 6.330301018659e-04 0.0 
6.330301018659e-04 4.251319609248e-03 0.0 
0.0 0.0 0.0 
1.266602205052e-05 1.134921476128e-03 0.0 
1.134921476128e-03 2.566295866466e-03 0.0 
0.0 0.0 0.0 
-5.626361431366e-05 6.436033706735e-04 0.0 
6.436033706735e-04 7.658538970217e-03 0.0 
0.0 0.0 0.0 
-6.740323435783e-05 5.773193338737e-04 0.0 
5.773193338737e-04 7.777823486184e-03 0.0 
0.0 0.0 0.0 
-1.252859814438e-04 5.091548978248e-04 0.0 
5.091548978248e-04 7.367083724767e-03 0.0 
0.0 0.0 0.0 
4.396482103843e-04 -8.139499262832e-04 0.0 
-8.139499262832e-04 3.200199075684e-03 0.0 
0.0 0.0 0.0 
-2.213308955499e-04 3.759046650710e-04 0.0 
3.759046650710e-04 6.663345713287e-03 0.0 
0.0 0.0 0.0 
-1.841994813876e-04 1.790843270896e-03 0.0 
1.790843270896e-03 7.758231590347e-04 0.0 
0.0 0.0 0.0 
1.554882029807e-03 7.628971146937e-04 0.0 
7.628971146937e-04 -8.640785769565e-05 0.0 
0.0 0.0 0.0 
2.137652645121e-03 1.123012398268e-03 0.0 
1.123012398268e-03 -2.996170980955e-03 0.0 
0.0 0.0 0.0 
-3.408005027691e-04 8.272980694652e-04 0.0 
8.272980694652e-04 3.037770535939e-03 0.0 
0.0 0.0 0.0 
-3.614775716834e-04 1.425157955241e-04 0.0 
1.425157955241e-04 4.764554700875e-03 0.0 
0.0 0.0 0.0 
-3.120433960869e-04 2.223862424824e-04 0.0 
2.223862424824e-04 5.605918250302e-03 0.0 
0.0 0.0 0.0 
2.756143786786e-04 -1.145067817360e-04 0.0 
-1.145067817360e-04 6.134798233288e-03 0.0 
0.0 0.0 0.0 
-1.268716184475e-04 5.933403238135e-04 0.0 
5.933403238135e-04 6.252104689506e-03 0.0 
0.0 0.0 0.0 
-3.245134198826e-04 4.299982462196e-04 0.0 
4.299982462196e-04 5.021153234642e-03 0.0 
0.0 0.0 0.0 
-2.334577014322e-04 5.865617485835e-04 0.0 
5.865617485835e-04 4.882639365298e-03 0.0 
0.0 0.0 0.0 
2.194645946798e-03 1.054299233163e-03 0.0 
1.054299233163e-03 -3.313957552679e-03 0.0 
0.0 0.0 0.0 
-5.215394627396e-04 -1.007548602316e-03 0.0 
-1.007548602316e-03 5.765810003779e-04 0.0 
0.0 0.0 0.0 
6.563627550837e-04 1.184863632866e-03 0.0 
1.184863632866e-03 1.680550289793e-03 0.0 
0.0 0.0 0.0 
1.901660475234e-04 9.743983891072e-04 0.0 
9.743983891072e-04 3.184364252023e-03 0.0 
0.0 0.0 0.0 
6.618545736918e-04 1.046453459775e-03 0.0 
1.046453459775e-03 2.209240300316e-03 0.0 
0.0 0.0 0.0 
-3.461512764883e-04 1.898962773521e-03 0.0 
1.898962773521e-03 -3.090450066490e-04 0.0 
0.0 0.0 0.0 
-2.634809646841e-04 3.257934929419e-05 0.0 
3.257934929419e-05 5.167235309558e-03 0.0 
0.0 0.0 0.0 
-5.651266922142e-04 -9.324012740361e-04 0.0 
-9.324012740361e-04 1.464180401239e-03 0.0 
0.0 0.0 0.0 
6.088749511226e-04 1.912887259982e-03 0.0 
1.912887259982e-03 -1.715622964328e-04 0.0 
0.0 0.0 0.0 
0.0 -1.001042933220e-04 0.0 
-1.001042933220e-04 6.607727303996e-03 0.0 
0.0 0.0 0.0 
7.980410217663e-04 3.291014328718e-04 0.0 
3.291014328718e-04 3.744638443434e-03 0.0 
0.0 0.0 0.0 
-3.750197317904e-04 3.379554597992e-04 0.0 
3.379554597992e-04 4.575160531246e-03 0.0 
0.0 0.0 0.0 
1.029862699216e-04 -9.048811213615e-06 0.0 
-9.048811213615e-06 1.076900801624e-03 0.0 
0.0 0.0 0.0 
-4.809456203247e-05 9.493622805622e-04 0.0 
9.493622805622e-04 3.247226480405e-03 0.0 
0.0 0.0 0.0 
8.491535689961e-04 1.060914819037e-03 0.0 
1.060914819037e-03 1.697038074271e-03 0.0 
0.0 0.0 0.0 
-3.034986211825e-04 4.788893569587e-04 0.0 
4.788893569587e-04 5.104512951019e-03 0.0 
0.0 0.0 0.0 
-1.759538303181e-05 7.277992933414e-04 0.0 
7.277992933414e-04 7.421279207960e-03 0.0 
0.0 0.0 0.0 
-3.539750968012e-04 4.838172476869e-04 0.0 
4.838172476869e-04 4.153759304693e-03 0.0 
0.0 0.0 0.0 
-1.977271869998e-04 6.370207973341e-04 0.0 
6.370207973341e-04 4.582462637486e-03 0.0 
0.0 0.0 0.0 
-3.281202584294e-04 -8.016405587739e-04 0.0 
-8.016405587739e-04 3.489780554918e-03 0.0 
0.0 0.0 0.0 
-2.202882668667e-04 4.357504050178e-04 0.0 
4.357504050178e-04 6.536626304914e-03 0.0 
0.0 0.0 0.0 
4.232670550040e-04 -6.934819999294e-04 0.0 
-6.934819999294e-04 3.599304147259e-03 0.0 
0.0 0.0 0.0 
-4.660871890771e-06 7.320239483628e-04 0.0 
7.320239483628e-04 7.326237733416e-03 0.0 
0.0 0.0 0.0 
0.0 6.297954733804e-04 0.0 
6.297954733804e-04 7.625010852938e-03 0.0 
0.0 0.0 0.0 
0.0 4.848459421591e-04 0.0 
4.848459421591e-04 7.880552937090e-03 0.0 
0.0 0.0 0.0 
0.0 5.586159625370e-04 0.0 
5.586159625370e-04 7.745787548006e-03 0.0 
0.0 0.0 0.0 
-2.474271534230e-04 5.439021043933e-04 0.0 
5.439021043933e-04 5.173552414147e-03 0.0 
0.0 0.0 0.0 
-2.537130866932e-04 4.003218006112e-04 0.0 
4.003218006112e-04 6.541387939936e-03 0.0 
0.0 0.0 0.0 
-1.269399785496e-04 5.829581744727e-04 0.0 
5.829581744727e-04 6.560188181249e-03 0.0 
0.0 0.0 0.0 
-6.485102044906e-05 1.110592763960e-03 0.0 
1.110592763960e-03 2.569549429883e-03 0.0 
0.0 0.0 0.0 
-2.102404430657e-04 1.012338479107e-03 0.0 
1.012338479107e-03 2.668542103273e-03 0.0 
0.0 0.0 0.0 
-4.914994304611e-04 -6.949149299825e-04 0.0 
-6.949149299825e-04 3.438903106517e-03 0.0 
0.0 0.0 0.0 
-2.246557729800e-04 4.455698819331e-04 0.0 
4.455698819331e-04 6.653392230010e-03 0.0 
0.0 0.0 0.0 
3.287776852701e-05 7.169085293523e-04 0.0 
7.169085293523e-04 7.125873948085e-03 0.0 
0.0 0.0 0.0 
-1.983897256821e-04 4.214424590406e-04 0.0 
4.214424590406e-04 6.787173712425e-03 0.0 
0.0 0.0 0.0 
8.933052142486e-04 3.782616274882e-04 0.0 
3.782616274882e-04 3.219229112990e-03 0.0 
0.0 0.0 0.0 
-2.334436328794e-04 3.853963094215e-04 0.0 
3.853963094215e-04 6.792256400447e-03 0.0 
0.0 0.0 0.0 
2.831283196443e-04 6.829528204000e-04 0.0 
6.829528204000e-04 4.677749346094e-03 0.0 
0.0 0.0 0.0 
1.857458367056e-04 1.078880632693e-03 0.0 
1.078880632693e-03 2.770083151238e-03 0.0 
0.0 0.0 0.0 
-3.324772310765e-04 7.697529743659e-04 0.0 
7.697529743659e-04 3.043774066792e-03 0.0 
0.0 0.0 0.0 
7.762066021773e-04 2.306574110985e-03 0.0 
2.306574110985e-03 -1.403928494584e-03 0.0 
0.0 0.0 0.0 
-6.460387431062e-05 3.482525953164e-04 0.0 
3.482525953164e-04 7.696977815733e-03 0.0 
0.0 0.0 0.0 
5.433349780537e-06 1.247040605391e-03 0.0 
1.247040605391e-03 2.160791285410e-03 0.0 
0.0 0.0 0.0 
8.898686593772e-05 6.167906495649e-04 0.0 
6.167906495649e-04 6.332070431081e-03 0.0 
0.0 0.0 0.0 
-4.481462630095e-04 -7.269717805140e-04 0.0 
-7.269717805140e-04 3.443465549588e-03 0.0 
0.0 0.0 0.0 
6.033538019383e-04 -2.030428747179e-03 0.0 
-2.030428747179e-03 -2.871414137853e-04 0.0 
0.0 0.0 0.0 
1.503706605743e-04 -1.343445409586e-04 0.0 
-1.343445409586e-04 6.168492662720e-03 0.0 
0.0 0.0 0.0 
3.843730457256e-04 1.747007421617e-03 0.0 
1.747007421617e-03 5.426747193493e-04 0.0 
0.0 0.0 0.0 
0.0 6.583408099866e-04 0.0 
6.583408099866e-04 7.553296021552e-03 0.0 
0.0 0.0 0.0 
-8.067170527393e-05 4.965164251114e-04 0.0 
4.965164251114e-04 7.500217122939e-03 0.0 
0.0 0.0 0.0 
-9.851598417399e-05 7.497275206459e-04 0.0 
7.497275206459e-04 4.278521501220e-03 0.0 
0.0 0.0 0.0 
-4.857972473220e-04 -4.434147856368e-04 0.0 
-4.434147856368e-04 5.950398942773e-04 0.0 
0.0 0.0 0.0 
0.0 6.911009557551e-04 0.0 
6.911009557551e-04 7.372097136361e-03 0.0 
0.0 0.0 0.0 
1.691024518318e-04 3.339827208756e-05 0.0 
3.339827208756e-05 6.098559327229e-03 0.0 
0.0 0.0 0.0 
1.010743475220e-03 -1.775062986319e-03 0.0 
-1.775062986319e-03 -3.279349819619e-04 0.0 
0.0 0.0 0.0 
8.989170949967e-04 2.291587456180e-04 0.0 
2.291587456180e-04 3.369931816892e-03 0.0 
0.0 0.0 0.0 
1.276296269266e-04 4.413113523041e-04 0.0 
4.413113523041e-04 6.699512857539e-03 0.0 
0.0 0.0 0.0 
6.679303313128e-05 -1.182418793075e-05 0.0 
-1.182418793075e-05 5.900468673947e-05 0.0 
0.0 0.0 0.0 
1.067203560272e-04 1.165258351217e-03 0.0 
1.165258351217e-03 2.452167049646e-03 0.0 
0.0 0.0 0.0 
-1.401320122291e-04 6.886169444796e-04 0.0 
6.886169444796e-04 4.608845462282e-03 0.0 
0.0 0.0 0.0 
-4.678795575919e-05 8.208770536642e-04 0.0 
8.208770536642e-04 3.932509226726e-03 0.0 
0.0 0.0 0.0 
-1.841950340474e-04 6.998463404366e-04 0.0 
6.998463404366e-04 4.270651460238e-03 0.0 
0.0 0.0 0.0 
4.178080572481e-04 2.171295762270e-03 0.0 
2.171295762270e-03 -4.657962814490e-04 0.0 
0.0 0.0 0.0 
0.0 6.859020716463e-04 0.0 
6.859020716463e-04 7.174671782241e-03 0.0 
0.0 0.0 0.0 
1.442754329806e-03 6.028697529786e-04 0.0 
6.028697529786e-04 5.285627768772e-04 0.0 
0.0 0.0 0.0 
1.968063898746e-03 2.967569887062e-04 0.0 
2.967569887062e-04 -4.130367697048e-03 0.0 
0.0 0.0 0.0 
-6.435616066658e-05 -4.069783865572e-04 0.0 
-4.069783865572e-04 6.906129837440e-03 0.0 
0.0 0.0 0.0 
6.125147065927e-05 -3.252723653955e-04 0.0 
-3.252723653955e-04 2.618040264428e-04 0.0 
0.0 0.0 0.0 
-3.465520552324e-04 5.997707184825e-04 0.0 
5.997707184825e-04 3.622159018013e-03 0.0 
0.0 0.0 0.0 
7.661847597178e-04 -2.204806886808e-03 0.0 
-2.204806886808e-03 -1.933237364535e-03 0.0 
0.0 0.0 0.0 
-3.790586874586e-04 4.042523544920e-04 0.0 
4.042523544920e-04 4.071855127409e-03 0.0 
0.0 0.0 0.0 
1.690572071480e-04 3.427340992378e-05 0.0 
3.427340992378e-05 6.560010849481e-03 0.0 
0.0 0.0 0.0 
0.0 6.348997246385e-04 0.0 
6.348997246385e-04 6.984392145051e-03 0.0 
0.0 0.0 0.0 
-2.849728583666e-04 5.285948556250e-04 0.0 
5.285948556250e-04 4.826400027824e-03 0.0 
0.0 0.0 0.0 
4.469886003755e-05 -2.202733024510e-03 0.0 
-2.202733024510e-03 -8.981182083201e-04 0.0 
0.0 0.0 0.0 
1.769033416053e-03 6.465999261312e-04 0.0 
6.465999261312e-04 -4.719143383791e-03 0.0 
0.0 0.0 0.0 
-2.188967616434e-05 -2.690910271585e-03 0.0 
-2.690910271585e-03 -1.053579443592e-03 0.0 
0.0 0.0 0.0 
2.239336789311e-05 -4.865136013192e-04 0.0 
-4.865136013192e-04 5.671305475126e-03 0.0 
0.0 0.0 0.0 
-3.745401400514e-04 1.758142576218e-04 0.0 
1.758142576218e-04 4.729221875328e-03 0.0 
0.0 0.0 0.0 
-3.945390667772e-04 2.977557412704e-04 0.0 
2.977557412704e-04 4.812814570391e-03 0.0 
0.0 0.0 0.0 
0.0 5.326942192504e-04 0.0 
5.326942192504e-04 6.811226228844e-03 0.0 
0.0 0.0 0.0 
-3.679055429461e-04 1.352979239888e-04 0.0 
1.352979239888e-04 4.758198050878e-03 0.0 
0.0 0.0 0.0 
-6.494924087397e-05 4.891796670634e-04 0.0 
4.891796670634e-04 7.905088359197e-03 0.0 
0.0 0.0 0.0 
2.947688382051e-04 6.995304096878e-04 0.0 
6.995304096878e-04 4.701346287317e-03 0.0 
0.0 0.0 0.0 
-3.147634913162e-04 1.819662658156e-04 0.0 
1.819662658156e-04 5.440728680433e-03 0.0 
0.0 0.0 0.0 
-2.823498271388e-04 1.344182815952e-03 0.0 
1.344182815952e-03 1.677130984557e-03 0.0 
0.0 0.0 0.0 
8.421634508520e-04 3.838163911896e-04 0.0 
3.838163911896e-04 3.348615979656e-03 0.0 
0.0 0.0 0.0 
1.626386740192e-03 1.875729404746e-03 0.0 
1.875729404746e-03 -2.389415709348e-03 0.0 
0.0 0.0 0.0 
0.0 3.765756614403e-04 0.0 
3.765756614403e-04 6.667305729422e-03 0.0 
0.0 0.0 0.0 
0.0 5.991385644405e-04 0.0 
5.991385644405e-04 7.689723825580e-03 0.0 
0.0 0.0 0.0 
0.0 5.192301197649e-04 0.0 
5.192301197649e-04 7.826185397007e-03 0.0 
0.0 0.0 0.0 
2.836745230459e-04 -7.881279462391e-04 0.0 
-7.881279462391e-04 3.614113082945e-03 0.0 
0.0 0.0 0.0 
-5.501192422334e-04 -5.884168870338e-04 0.0 
-5.884168870338e-04 3.360130593176e-03 0.0 
0.0 0.0 0.0 
3.080361168499e-04 1.058450629579e-03 0.0 
1.058450629579e-03 2.772496239423e-03 0.0 
0.0 0.0 0.0 
2.719768461392e-04 -6.681883334489e-04 0.0 
-6.681883334489e-04 3.992398503210e-03 0.0 
0.0 0.0 0.0 
0.0 2.020576212117e-04 0.0 
2.020576212117e-04 6.582411929644e-03 0.0 
0.0 0.0 0.0 
9.440983956803e-04 1.786526285988e-03 0.0 
1.786526285988e-03 -1.545862005867e-04 0.0 
0.0 0.0 0.0 
1.620274045960e-03 -9.055723807097e-04 0.0 
-9.055723807097e-04 -6.767751380312e-04 0.0 
0.0 0.0 0.0 
1.308363341539e-03 -1.159273318510e-03 0.0 
-1.159273318510e-03 2.934736264804e-05 0.0 
0.0 0.0 0.0 
-2.976793614227e-04 1.781043831636e-04 0.0 
1.781043831636e-04 5.682368314764e-03 0.0 
0.0 0.0 0.0 
1.105729968345e-04 -2.547303172863e-04 0.0 
-2.547303172863e-04 6.678089941030e-03 0.0 
0.0 0.0 0.0 
-7.466475021596e-04 -2.314664153411e-03 0.0 
-2.314664153411e-03 -3.846279930099e-04 0.0 
0.0 0.0 0.0 
0.0 -6.479225214537e-06 0.0 
-6.479225214537e-06 6.569180799700e-03 0.0 
0.0 0.0 0.0 
1.021790377897e-03 -1.503835734319e-03 0.0 
-1.503835734319e-03 1.769113634127e-04 0.0 
0.0 0.0 0.0 
0.0 6.802306737575e-04 0.0 
6.802306737575e-04 7.475554746337e-03 0.0 
0.0 0.0 0.0 
-1.559105383033e-04 5.486908606548e-04 0.0 
5.486908606548e-04 6.566247405586e-03 0.0 
0.0 0.0 0.0 
9.621507219546e-04 -8.648420685992e-06 0.0 
-8.648420685992e-06 -2.414972153854e-04 0.0 
0.0 0.0 0.0 
2.997808329823e-04 1.173775299178e-03 0.0 
1.173775299178e-03 2.316740102697e-03 0.0 
0.0 0.0 0.0 
-2.307456543460e-04 3.236750904628e-04 0.0 
3.236750904628e-04 6.911195838109e-03 0.0 
0.0 0.0 0.0 
0.0 6.938237212147e-04 0.0 
6.938237212147e-04 7.279627677370e-03 0.0 
0.0 0.0 0.0 
-2.509671136487e-04 5.326230687370e-04 0.0 
5.326230687370e-04 5.175051727330e-03 0.0 
0.0 0.0 0.0 
3.644097335096e-04 6.500188224147e-04 0.0 
6.500188224147e-04 4.752072300824e-03 0.0 
0.0 0.0 0.0 
5.106872948055e-04 2.370242502960e-03 0.0 
2.370242502960e-03 -1.475978681290e-03 0.0 
0.0 0.0 0.0 
3.166253157014e-04 -1.434655721461e-05 0.0 
-1.434655721461e-05 5.660751563077e-03 0.0 
0.0 0.0 0.0 
6.964149499538e-04 -1.512882569745e-03 0.0 
-1.512882569745e-03 8.648069683981e-04 0.0 
0.0 0.0 0.0 
1.014351147137e-03 -1.471382377196e-03 0.0 
-1.471382377196e-03 7.233766630921e-05 0.0 
0.0 0.0 0.0 
-1.083358791674e-03 -2.359951852505e-03 0.0 
-2.359951852505e-03 -5.861739318607e-04 0.0 
0.0 0.0 0.0 
0.0 6.662970679034e-04 0.0 
6.662970679034e-04 7.077284314573e-03 0.0 
0.0 0.0 0.0 
1.726983734204e-03 1.588627545316e-03 0.0 
1.588627545316e-03 -1.958485323742e-03 0.0 
0.0 0.0 0.0 
4.201283735308e-04 -3.477209471128e-04 0.0 
-3.477209471128e-04 4.982232710194e-03 0.0 
0.0 0.0 0.0 
-3.443362039693e-04 9.961200860914e-05 0.0 
9.961200860914e-05 5.257192430113e-03 0.0 
0.0 0.0 0.0 
-2.199945765938e-04 -1.599639507242e-03 0.0 
-1.599639507242e-03 1.364172989813e-03 0.0 
0.0 0.0 0.0 
1.352699894189e-03 -1.341268735644e-03 0.0 
-1.341268735644e-03 -6.125441185056e-04 0.0 
0.0 0.0 0.0 
-2.282802431008e-04 5.807701192420e-04 0.0 
5.807701192420e-04 4.883398884254e-03 0.0 
0.0 0.0 0.0 
0.0 4.559654948480e-04 0.0 
4.559654948480e-04 6.736705177205e-03 0.0 
0.0 0.0 0.0 
-5.700874843452e-04 -5.173069210672e-04 0.0 
-5.173069210672e-04 3.611200590938e-03 0.0 
0.0 0.0 0.0 
3.683828062926e-04 -6.001899138709e-04 0.0 
-6.001899138709e-04 4.169149395495e-03 0.0 
0.0 0.0 0.0 
1.458428642698e-04 9.170080048032e-04 0.0 
9.170080048032e-04 3.526759146319e-03 0.0 
0.0 0.0 0.0 
8.013701537997e-04 -4.958042224586e-04 0.0 
-4.958042224586e-04 3.040320541614e-03 0.0 
0.0 0.0 0.0 
1.551441838689e-03 -8.774539445346e-04 0.0 
-8.774539445346e-04 -4.990209206845e-04 0.0 
0.0 0.0 0.0 
4.074562039698e-04 -6.985415026356e-04 0.0 
-6.985415026356e-04 3.683025347573e-03 0.0 
0.0 0.0 0.0 
9.285387965963e-05 8.925115526395e-04 0.0 
8.925115526395e-04 3.569549837452e-03 0.0 
0.0 0.0 0.0 
1.028979839626e-04 6.779438863167e-04 0.0 
6.779438863167e-04 5.021011414448e-03 0.0 
0.0 0.0 0.0 
7.458969354639e-04 3.385577230489e-04 0.0 
3.385577230489e-04 3.884477616088e-03 0.0 
0.0 0.0 0.0 
2.426568435039e-04 9.900834604445e-04 0.0 
9.900834604445e-04 3.117362006770e-03 0.0 
0.0 0.0 0.0 
-2.374413863266e-04 -9.302910014133e-04 0.0 
-9.302910014133e-04 3.164468650088e-03 0.0 
0.0 0.0 0.0 
6.448155420329e-04 1.699882942445e-03 0.0 
1.699882942445e-03 5.481073361855e-04 0.0 
0.0 0.0 0.0 
-5.364652120627e-04 -6.307831605239e-04 0.0 
-6.307831605239e-04 3.366411275345e-03 0.0 
0.0 0.0 0.0 
3.663101447668e-04 6.373755249695e-04 0.0 
6.373755249695e-04 4.711713857980e-03 0.0 
0.0 0.0 0.0 
1.049444145788e-03 3.212013657203e-04 0.0 
3.212013657203e-04 2.413996272548e-03 0.0 
0.0 0.0 0.0 
1.601227015291e-04 -6.937203682576e-05 0.0 
-6.937203682576e-05 6.588289035332e-03 0.0 
0.0 0.0 0.0 
-2.081617008690e-04 3.704928325852e-04 0.0 
3.704928325852e-04 7.037705685117e-03 0.0 
0.0 0.0 0.0 
-3.655414305437e-04 -1.495617105647e-03 0.0 
-1.495617105647e-03 1.588205573255e-03 0.0 
0.0 0.0 0.0 
0.0 9.394132213371e-05 0.0 
9.394132213371e-05 6.550275742591e-03 0.0 
0.0 0.0 0.0 
3.166203145655e-04 -1.536013884409e-05 0.0 
-1.536013884409e-05 6.105556777855e-03 0.0 
0.0 0.0 0.0 
6.771601769122e-04 1.028380260483e-03 0.0 
1.028380260483e-03 2.123943472867e-03 0.0 
0.0 0.0 0.0 
-6.896585878789e-04 -1.470620548889e-03 0.0 
-1.470620548889e-03 3.457022781872e-04 0.0 
0.0 0.0 0.0 
1.124514033066e-04 -3.189407078547e-04 0.0 
-3.189407078547e-04 6.747894279237e-03 0.0 
0.0 0.0 0.0 
-2.070272451277e-04 4.333512964438e-04 0.0 
4.333512964438e-04 6.907015880817e-03 0.0 
0.0 0.0 0.0 
6.351464877290e-04 -1.752622539594e-03 0.0 
-1.752622539594e-03 4.543327687032e-04 0.0 
0.0 0.0 0.0 
0.0 -1.905659795950e-04 0.0 
-1.905659795950e-04 6.640944471302e-03 0.0 
0.0 0.0 0.0 
2.654625165324e-04 -6.815000466821e-04 0.0 
-6.815000466821e-04 4.075215636399e-03 0.0 
0.0 0.0 0.0 
-2.446025719849e-04 8.888549209863e-04 0.0 
8.888549209863e-04 3.010540660259e-03 0.0 
0.0 0.0 0.0 
-3.477048746069e-04 3.703469447250e-04 0.0 
3.703469447250e-04 4.925327965779e-03 0.0 
0.0 0.0 0.0 
1.111217724459e-03 3.183137840028e-04 0.0 
3.183137840028e-04 2.271067506350e-03 0.0 
0.0 0.0 0.0 
2.934079036601e-04 -9.101974784094e-04 0.0 
-9.101974784094e-04 3.157864010727e-03 0.0 
0.0 0.0 0.0 
8.397213295808e-04 -3.312604789608e-04 0.0 
-3.312604789608e-04 3.247685151154e-03 0.0 
0.0 0.0 0.0 
-3.312497539641e-04 3.384195085452e-04 0.0 
3.384195085452e-04 5.792826528971e-03 0.0 
0.0 0.0 0.0 
-2.876542730884e-04 6.945592690562e-04 0.0 
6.945592690562e-04 3.640726611829e-03 0.0 
0.0 0.0 0.0 
6.454013866042e-04 4.153523544568e-04 0.0 
4.153523544568e-04 4.248879971649e-03 0.0 
0.0 0.0 0.0 
-2.663077844830e-04 2.330493649140e-05 0.0 
2.330493649140e-05 5.515848107206e-03 0.0 
0.0 0.0 0.0 
-3.321377673470e-04 -9.160877687269e-04 0.0 
-9.160877687269e-04 3.162869701390e-03 0.0 
0.0 0.0 0.0 
8.395102825447e-04 2.411676916510e-04 0.0 
2.411676916510e-04 3.534118240814e-03 0.0 
0.0 0.0 0.0 
3.971504055702e-04 -1.652245198530e-03 0.0 
-1.652245198530e-03 8.837380387339e-04 0.0 
0.0 0.0 0.0 
-2.904301117000e-04 -5.038132659147e-04 0.0 
-5.038132659147e-04 4.873346405404e-03 0.0 
0.0 0.0 0.0 
4.787954707810e-04 -1.126404337106e-04 0.0 
-1.126404337106e-04 -1.590580122330e-04 0.0 
0.0 0.0 0.0 
4.126606517063e-04 1.576377575065e-03 0.0 
1.576377575065e-03 1.152771326211e-03 0.0 
0.0 0.0 0.0 
6.805323739656e-04 -1.742157288263e-03 0.0 
-1.742157288263e-03 2.124369770329e-04 0.0 
0.0 0.0 0.0 
-4.012621905231e-04 -6.813223005183e-04 0.0 
-6.813223005183e-04 3.789283977987e-03 0.0 
0.0 0.0 0.0 
5.252739872541e-04 1.000986424222e-03 0.0 
1.000986424222e-03 2.608088104232e-03 0.0 
0.0 0.0 0.0 
3.848672489621e-04 -5.894282564091e-04 0.0 
-5.894282564091e-04 4.061000898572e-03 0.0 
0.0 0.0 0.0 
-3.266197068608e-04 1.028240636066e-04 0.0 
1.028240636066e-04 5.519719293332e-03 0.0 
0.0 0.0 0.0 
2.974446467079e-04 -1.882771786961e-03 0.0 
-1.882771786961e-03 4.765989115174e-04 0.0 
0.0 0.0 0.0 
0.0 -2.581410165133e-04 0.0 
-2.581410165133e-04 6.715548940055e-03 0.0 
0.0 0.0 0.0 
-1.101886187037e-04 6.813064229033e-04 0.0 
6.813064229033e-04 4.609706375646e-03 0.0 
0.0 0.0 0.0 
-4.609867340414e-04 -5.690903181726e-04 0.0 
-5.690903181726e-04 4.065535653883e-03 0.0 
0.0 0.0 0.0 
-5.488296744049e-05 7.450412281897e-04 0.0 
7.450412281897e-04 4.278963336330e-03 0.0 
0.0 0.0 0.0 
-4.612596607020e-04 -6.637964057087e-04 0.0 
-6.637964057087e-04 3.787007647951e-03 0.0 
0.0 0.0 0.0 
-1.789563016672e-04 -2.624634934180e-05 0.0 
-2.624634934180e-05 1.639809557596e-04 0.0 
0.0 0.0 0.0 
-3.701842363759e-04 3.313270410848e-04 0.0 
3.313270410848e-04 5.175743727040e-03 0.0 
0.0 0.0 0.0 
-6.432330561046e-04 -1.666686913807e-04 0.0 
-1.666686913807e-04 3.562411960483e-03 0.0 
0.0 0.0 0.0 
4.724644207708e-04 2.125209948851e-05 0.0 
2.125209948851e-05 -1.062721943538e-04 0.0 
0.0 0.0 0.0 
-5.414861710362e-04 -4.956915512114e-04 0.0 
-4.956915512114e-04 3.965368353666e-03 0.0 
0.0 0.0 0.0 
3.384339927832e-04 -5.017712347414e-04 0.0 
-5.017712347414e-04 4.526350794920e-03 0.0 
0.0 0.0 0.0 
-1.594938066797e-04 1.409386474099e-04 0.0 
1.409386474099e-04 7.045252258991e-03 0.0 
0.0 0.0 0.0 
9.434257102983e-04 -3.924111545997e-04 0.0 
-3.924111545997e-04 2.688945318068e-03 0.0 
0.0 0.0 0.0 
8.856706047740e-04 -3.245627688066e-04 0.0 
-3.245627688066e-04 3.010260407312e-03 0.0 
0.0 0.0 0.0 
-4.123136511828e-04 2.721657805797e-04 0.0 
2.721657805797e-04 4.462184367434e-03 0.0 
0.0 0.0 0.0 
-3.660041180633e-04 9.969558240876e-05 0.0 
9.969558240876e-05 4.403404666005e-03 0.0 
0.0 0.0 0.0 
-6.300660253455e-05 3.992090831406e-04 0.0 
3.992090831406e-04 7.649312027104e-03 0.0 
0.0 0.0 0.0 
1.175649789409e-05 8.147068960786e-04 0.0 
8.147068960786e-04 3.933064518822e-03 0.0 
0.0 0.0 0.0 
7.811603564927e-04 -7.128974180412e-06 0.0 
-7.128974180412e-06 -2.025932496290e-04 0.0 
0.0 0.0 0.0 
-4.502183014525e-04 -5.816083174217e-04 0.0 
-5.816083174217e-04 1.366773220110e-03 0.0 
0.0 0.0 0.0 
-6.323462407405e-04 -8.242664827172e-04 0.0 
-8.242664827172e-04 5.337186654066e-04 0.0 
0.0 0.0 0.0 
-4.787457517481e-04 -1.169247094063e-03 0.0 
-1.169247094063e-03 1.930343833490e-03 0.0 
0.0 0.0 0.0 
-2.046225176067e-05 6.145723803342e-04 0.0 
6.145723803342e-04 6.100955052602e-03 0.0 
0.0 0.0 0.0 
-1.811937266752e-04 8.894332661812e-05 0.0 
8.894332661812e-05 7.051553594107e-03 0.0 
0.0 0.0 0.0 
8.849598285510e-06 -4.429547155156e-04 0.0 
-4.429547155156e-04 5.548394675042e-03 0.0 
0.0 0.0 0.0 
-5.092497251600e-04 -8.262506568915e-04 0.0 
-8.262506568915e-04 2.504496813901e-03 0.0 
0.0 0.0 0.0 
-3.627455843319e-04 -5.220025550484e-04 0.0 
-5.220025550484e-04 4.876743448640e-03 0.0 
0.0 0.0 0.0 
3.603442350146e-04 -2.866670956836e-04 0.0 
-2.866670956836e-04 5.288525894230e-03 0.0 
0.0 0.0 0.0 
2.402310066414e-03 2.473601156380e-04 0.0 
2.473601156380e-04 -3.825626002694e-03 0.0 
0.0 0.0 0.0 
-6.297112884259e-04 -1.350105542410e-04 0.0 
-1.350105542410e-04 3.561841481471e-03 0.0 
0.0 0.0 0.0 
-5.653453009351e-04 -7.860899827680e-05 0.0 
-7.860899827680e-05 2.969830342729e-03 0.0 
0.0 0.0 0.0 
6.900669480459e-05 -3.777410005709e-04 0.0 
-3.777410005709e-04 6.816778375878e-03 0.0 
0.0 0.0 0.0 
0.0 -3.265795449499e-04 0.0 
-3.265795449499e-04 6.780179792997e-03 0.0 
0.0 0.0 0.0 
-6.540688723821e-04 -1.388622198186e-04 0.0 
-1.388622198186e-04 3.920459780732e-03 0.0 
0.0 0.0 0.0 
-5.091576077133e-04 -5.528835039692e-04 0.0 
-5.528835039692e-04 4.063342617326e-03 0.0 
0.0 0.0 0.0 
2.876492668951e-04 -7.784093822330e-04 0.0 
-7.784093822330e-04 3.556536389709e-03 0.0 
0.0 0.0 0.0 
3.741109397903e-04 -2.131994904664e-04 0.0 
-2.131994904664e-04 5.470537823202e-03 0.0 
0.0 0.0 0.0 
-6.378325058050e-04 -6.333195682706e-04 0.0 
-6.333195682706e-04 1.569227189765e-03 0.0 
0.0 0.0 0.0 
3.361484143378e-04 -3.618010845795e-04 0.0 
-3.618010845795e-04 5.126553169815e-03 0.0 
0.0 0.0 0.0 
2.395826262052e-04 -3.304828798497e-05 0.0 
-3.304828798497e-05 6.753309019738e-04 0.0 
0.0 0.0 0.0 
-5.342172409392e-04 -5.782473518325e-04 0.0 
-5.782473518325e-04 3.709854851145e-03 0.0 
0.0 0.0 0.0 
-3.645428679183e-04 -7.320313092516e-04 0.0 
-7.320313092516e-04 3.842067929135e-03 0.0 
0.0 0.0 0.0 
2.698451705001e-04 6.310568282735e-06 0.0 
6.310568282735e-06 2.764708457801e-04 0.0 
0.0 0.0 0.0 
-6.491880082059e-04 -9.275553435617e-05 0.0 
-9.275553435617e-05 3.755191414445e-03 0.0 
0.0 0.0 0.0 
-1.715051841273e-04 4.080163979355e-04 0.0 
4.080163979355e-04 7.030899308243e-03 0.0 
0.0 0.0 0.0 
7.182273177475e-04 3.880036510869e-06 0.0 
3.880036510869e-06 -1.773372887519e-04 0.0 
0.0 0.0 0.0 
-3.723212450656e-04 1.305323497475e-04 0.0 
1.305323497475e-04 4.387131488786e-03 0.0 
0.0 0.0 0.0 
-3.758945430214e-04 1.574309651815e-04 0.0 
1.574309651815e-04 4.360069776719e-03 0.0 
0.0 0.0 0.0 
8.421498618685e-04 -1.774438218770e-04 0.0 
-1.774438218770e-04 3.497595823410e-03 0.0 
0.0 0.0 0.0 
-5.471530701109e-04 -4.261040878603e-05 0.0 
-4.261040878603e-05 2.971151454990e-03 0.0 
0.0 0.0 0.0 
3.346334873480e-04 -1.638971059306e-03 0.0 
-1.638971059306e-03 1.107804139322e-03 0.0 
0.0 0.0 0.0 
1.005139747103e-04 2.162391995791e-03 0.0 
2.162391995791e-03 1.582261109714e-04 0.0 
0.0 0.0 0.0 
-5.777491701231e-05 -3.812024161416e-04 0.0 
-3.812024161416e-04 6.252192213093e-03 0.0 
0.0 0.0 0.0 
3.103494799017e-05 6.411808386201e-04 0.0 
6.411808386201e-04 6.758585778349e-03 0.0 
0.0 0.0 0.0 
-2.276454807103e-04 1.417180804813e-04 0.0 
1.417180804813e-04 6.770568701929e-03 0.0 
0.0 0.0 0.0 
-2.328360579519e-04 1.446109161742e-03 0.0 
1.446109161742e-03 1.664139010066e-03 0.0 
0.0 0.0 0.0 
-5.558567234912e-04 -4.761146799730e-04 0.0 
-4.761146799730e-04 9.810394514043e-04 0.0 
0.0 0.0 0.0 
-3.687704631534e-04 5.577901836144e-04 0.0 
5.577901836144e-04 3.888598217882e-03 0.0 
0.0 0.0 0.0 
-3.201192564191e-04 4.666740741404e-05 0.0 
4.666740741404e-05 4.447267735724e-03 0.0 
0.0 0.0 0.0 
-3.147603247952e-04 3.911150808606e-05 0.0 
3.911150808606e-05 4.436507752792e-03 0.0 
0.0 0.0 0.0 
4.712270526406e-04 7.786916552630e-06 0.0 
7.786916552630e-06 -9.936581529391e-05 0.0 
0.0 0.0 0.0 
2.396860570031e-04 5.163698756376e-06 0.0 
5.163698756376e-06 2.877653312345e-04 0.0 
0.0 0.0 0.0 
8.927152992655e-05 -2.299687560549e-05 0.0 
-2.299687560549e-05 7.166457943562e-04 0.0 
0.0 0.0 0.0 
-6.091529945872e-04 -6.619139371982e-04 0.0 
-6.619139371982e-04 2.114014623089e-03 0.0 
0.0 0.0 0.0 
4.825152041232e-04 2.542651333820e-06 0.0 
2.542651333820e-06 2.099084405942e-04 0.0 
0.0 0.0 0.0 
-6.653877332657e-04 -9.316486887840e-05 0.0 
-9.316486887840e-05 4.134133010874e-03 0.0 
0.0 0.0 0.0 
-7.571282765935e-04 -1.060712244738e-03 0.0 
-1.060712244738e-03 -2.109457676880e-03 0.0 
0.0 0.0 0.0 
-5.879155043915e-04 -7.311954836686e-04 0.0 
-7.311954836686e-04 2.448610162435e-03 0.0 
0.0 0.0 0.0 
-2.338310402906e-04 4.221595298793e-05 0.0 
4.221595298793e-05 5.873786580624e-03 0.0 
0.0 0.0 0.0 
-3.517996410169e-04 9.835290590162e-05 0.0 
9.835290590162e-05 4.396797852645e-03 0.0 
0.0 0.0 0.0 
-5.345483762653e-05 6.051019615786e-04 0.0 
6.051019615786e-04 6.410044957604e-03 0.0 
0.0 0.0 0.0 
2.469358314268e-04 -5.723431850638e-04 0.0 
-5.723431850638e-04 4.434886038418e-03 0.0 
0.0 0.0 0.0 
-2.501449504287e-04 3.380008625682e-05 0.0 
3.380008625682e-05 5.506425892622e-03 0.0 
0.0 0.0 0.0 
-5.885813607472e-04 -1.793020917450e-05 0.0 
-1.793020917450e-05 3.169601444468e-03 0.0 
0.0 0.0 0.0 
2.873792921010e-04 -2.253571653622e-05 0.0 
-2.253571653622e-05 6.517482223234e-04 0.0 
0.0 0.0 0.0 
0.0 2.213786292911e-04 0.0 
2.213786292911e-04 8.095816732082e-03 0.0 
0.0 0.0 0.0 
-6.128878600675e-05 2.496335409165e-04 0.0 
2.496335409165e-04 8.083837508116e-03 0.0 
0.0 0.0 0.0 
-3.099428220621e-04 1.501880546932e-04 0.0 
1.501880546932e-04 5.253362834031e-03 0.0 
0.0 0.0 0.0 
-3.415565323460e-04 5.920165288524e-05 0.0 
5.920165288524e-05 4.431941757162e-03 0.0 
0.0 0.0 0.0 
-5.814250226546e-04 -1.075129246870e-04 0.0 
-1.075129246870e-04 3.198772017740e-03 0.0 
0.0 0.0 0.0 
-5.245850616287e-05 1.758645982606e-04 0.0 
1.758645982606e-04 8.119504580362e-03 0.0 
0.0 0.0 0.0 
-5.233855353399e-04 -7.716180532921e-04 0.0 
-7.716180532921e-04 2.197168039439e-03 0.0 
0.0 0.0 0.0 
-3.632388535573e-04 1.233014376913e-04 0.0 
1.233014376913e-04 4.375561891020e-03 0.0 
0.0 0.0 0.0 
-3.454024365983e-04 8.021583252625e-05 0.0 
8.021583252625e-05 4.416095868954e-03 0.0 
0.0 0.0 0.0 
-3.832579645537e-04 4.481267124019e-04 0.0 
4.481267124019e-04 3.830351917027e-03 0.0 
0.0 0.0 0.0 
0.0 4.465001012747e-04 0.0 
4.465001012747e-04 7.933083700172e-03 0.0 
0.0 0.0 0.0 
-5.107882928324e-05 2.163643842814e-04 0.0 
2.163643842814e-04 8.107004565802e-03 0.0 
0.0 0.0 0.0 
4.833027579598e-04 6.249691123549e-06 0.0 
6.249691123549e-06 2.047532914360e-04 0.0 
0.0 0.0 0.0 
4.833035625096e-04 5.462284014047e-06 0.0 
5.462284014047e-06 -9.721180491151e-05 0.0 
0.0 0.0 0.0 
-5.391600798741e-04 -4.419412588857e-04 0.0 
-4.419412588857e-04 1.185037392918e-03 0.0 
0.0 0.0 0.0 
-2.807326961515e-04 -7.340344447701e-04 0.0 
-7.340344447701e-04 3.841902205256e-03 0.0 
0.0 0.0 0.0 
-2.567149727056e-04 -3.489248936437e-05 0.0 
-3.489248936437e-05 7.003626692646e-03 0.0 
0.0 0.0 0.0 
-2.377495095548e-03 -1.923360543764e-03 0.0 
-1.923360543764e-03 -2.549323212954e-03 0.0 
0.0 0.0 0.0 
-1.863574394553e-04 -1.246784220900e-05 0.0 
-1.246784220900e-05 6.743695001672e-03 0.0 
0.0 0.0 0.0 
-1.050613280013e-03 -8.018622269501e-04 0.0 
-8.018622269501e-04 4.917152771768e-04 0.0 
0.0 0.0 0.0 
7.817132252705e-04 -2.681040489820e-04 0.0 
-2.681040489820e-04 3.556588926105e-03 0.0 
0.0 0.0 0.0 
2.864121496260e-05 -5.230493383333e-04 0.0 
-5.230493383333e-04 -1.891180398789e-04 0.0 
0.0 0.0 0.0 
-9.383567864741e-04 -2.022022780311e-03 0.0 
-2.022022780311e-03 -1.038937179555e-03 0.0 
0.0 0.0 0.0 
7.512869021464e-04 -4.148345135381e-04 0.0 
-4.148345135381e-04 3.384637372471e-03 0.0 
0.0 0.0 0.0 
-2.546378724304e-04 -2.047093574493e-04 0.0 
-2.047093574493e-04 6.731255006345e-03 0.0 
0.0 0.0 0.0 
-2.502861306350e-04 1.447362212189e-05 0.0 
1.447362212189e-05 5.845010398764e-03 0.0 
0.0 0.0 0.0 
-3.033078050569e-04 6.431157854637e-04 0.0 
6.431157854637e-04 3.930308341293e-03 0.0 
0.0 0.0 0.0 
2.875814934031e-04 -7.939961905254e-07 0.0 
-7.939961905254e-07 2.688447502062e-04 0.0 
0.0 0.0 0.0 
-4.116233991062e-04 -4.380970384851e-04 0.0 
-4.380970384851e-04 5.152169792185e-03 0.0 
0.0 0.0 0.0 
0.0 6.842432215047e-05 0.0 
6.842432215047e-05 8.130917359979e-03 0.0 
0.0 0.0 0.0 
-4.959462234055e-05 6.397835624241e-05 0.0 
6.397835624241e-05 8.143662194642e-03 0.0 
0.0 0.0 0.0 
-3.379389106724e-04 7.712064620605e-05 0.0 
7.712064620605e-05 4.410035699654e-03 0.0 
0.0 0.0 0.0 
7.790314097313e-04 -1.306830010651e-04 0.0 
-1.306830010651e-04 3.769722302822e-03 0.0 
0.0 0.0 0.0 
0.0 1.909502294379e-04 0.0 
1.909502294379e-04 8.118943841529e-03 0.0 
0.0 0.0 0.0 
4.300886339430e-04 5.741199929072e-04 0.0 
5.741199929072e-04 4.762748596329e-03 0.0 
0.0 0.0 0.0 
2.894308255827e-04 -4.077515676688e-06 0.0 
-4.077515676688e-06 6.265319509740e-04 0.0 
0.0 0.0 0.0 
4.900645392452e-04 -3.928956606763e-06 0.0 
-3.928956606763e-06 2.051580061442e-04 0.0 
0.0 0.0 0.0 
2.944668033722e-04 7.434544139953e-06 0.0 
7.434544139953e-06 2.722146282441e-04 0.0 
0.0 0.0 0.0 
-6.352205578078e-04 -1.790973405399e-05 0.0 
-1.790973405399e-05 3.566444356068e-03 0.0 
0.0 0.0 0.0 
-9.691761909958e-05 -2.400572931991e-04 0.0 
-2.400572931991e-04 7.474193049445e-03 0.0 
0.0 0.0 0.0 
-8.147528693792e-05 -3.029013932625e-05 0.0 
-3.029013932625e-05 7.737403936150e-03 0.0 
0.0 0.0 0.0 
4.903673189045e-04 9.334025826176e-07 0.0 
9.334025826176e-07 -1.058693499713e-04 0.0 
0.0 0.0 0.0 
-6.633317587595e-04 -6.403920354510e-05 0.0 
-6.403920354510e-05 4.134091004406e-03 0.0 
0.0 0.0 0.0 
0.0 -1.746057021338e-04 0.0 
-1.746057021338e-04 7.518370048692e-03 0.0 
0.0 0.0 0.0 
-1.030786335170e-04 -2.739859960312e-04 0.0 
-2.739859960312e-04 7.428138869948e-03 0.0 
0.0 0.0 0.0 
6.357166083837e-05 -4.213899826198e-04 0.0 
-4.213899826198e-04 6.893135580074e-03 0.0 
0.0 0.0 0.0 
-2.135893189783e-04 4.304051518028e-05 0.0 
4.304051518028e-05 6.347833301302e-03 0.0 
0.0 0.0 0.0 
-1.655266418374e-04 -2.934683490815e-05 0.0 
-2.934683490815e-05 6.948859383979e-03 0.0 
0.0 0.0 0.0 
0.0 -2.302968980520e-04 0.0 
-2.302968980520e-04 7.444923346225e-03 0.0 
0.0 0.0 0.0 
0.0 -2.885800578403e-04 0.0 
-2.885800578403e-04 7.410631096471e-03 0.0 
0.0 0.0 0.0 
-1.806482448936e-04 4.055022229476e-05 0.0 
4.055022229476e-05 6.745563255230e-03 0.0 
0.0 0.0 0.0 
7.194477234354e-04 2.750042825069e-05 0.0 
2.750042825069e-05 -2.034126024638e-04 0.0 
0.0 0.0 0.0 
-2.906597962768e-04 2.396460563962e-05 0.0 
2.396460563962e-05 4.430326853465e-03 0.0 
0.0 0.0 0.0 
-3.276284892226e-04 6.247980519618e-05 0.0 
6.247980519618e-05 4.431493931121e-03 0.0 
0.0 0.0 0.0 
4.825464896097e-04 6.074217611130e-06 0.0 
6.074217611130e-06 -9.627007643986e-05 0.0 
0.0 0.0 0.0 
0.0 -4.018704540543e-04 0.0 
-4.018704540543e-04 7.220089133797e-03 0.0 
0.0 0.0 0.0 
1.877118286586e-05 -4.430252706639e-04 0.0 
-4.430252706639e-04 6.973102717885e-03 0.0 
0.0 0.0 0.0 
0.0 -4.133388440566e-04 0.0 
-4.133388440566e-04 7.011442845913e-03 0.0 
0.0 0.0 0.0 
6.760671398272e-04 7.882008656397e-06 0.0 
7.882008656397e-06 -1.617458326600e-04 0.0 
0.0 0.0 0.0 
6.877871005864e-04 5.444864283810e-06 0.0 
5.444864283810e-06 -1.653670613083e-04 0.0 
0.0 0.0 0.0 
0.0 -3.672863318783e-04 0.0 
-3.672863318783e-04 6.851852619048e-03 0.0 
0.0 0.0 0.0 
0.0 -4.025223551962e-04 0.0 
-4.025223551962e-04 6.931118226756e-03 0.0 
0.0 0.0 0.0 
-2.305603988216e-04 -3.227276084742e-05 0.0 
-3.227276084742e-05 6.144530637113e-03 0.0 
0.0 0.0 0.0 
-2.689672882633e-04 1.333846833521e-05 0.0 
1.333846833521e-05 4.428427321321e-03 0.0 
0.0 0.0 0.0 
-1.966582241381e-04 -3.107750714768e-05 0.0 
-3.107750714768e-05 6.547637763542e-03 0.0 
0.0 0.0 0.0 
-2.616377767226e-04 -3.215468491479e-05 0.0 
-3.215468491479e-05 5.319987300180e-03 0.0 
0.0 0.0 0.0 
-2.547957964465e-04 5.279222235335e-06 0.0 
5.279222235335e-06 4.428023109424e-03 0.0 
0.0 0.0 0.0 
8.328910797857e-04 3.026977089356e-06 0.0 
3.026977089356e-06 -2.083269902113e-04 0.0 
0.0 0.0 0.0 
8.403207201513e-04 3.483126519657e-06 0.0 
3.483126519657e-06 -1.943899214130e-04 0.0 
0.0 0.0 0.0 
8.273611297456e-04 -7.827600408675e-06 0.0 
-7.827600408675e-06 -2.120146261730e-04 0.0 
0.0 0.0 0.0 
9.009105255657e-04 -1.072023661738e-05 0.0 
-1.072023661738e-05 -2.301131482209e-04 0.0 
0.0 0.0 0.0 
-6.677106783105e-04 -7.664955094910e-06 0.0 
-7.664955094910e-06 4.333396524098e-03 0.0 
0.0 0.0 0.0 
-6.591616803555e-04 -1.531158194956e-05 0.0 
-1.531158194956e-05 3.951471932376e-03 0.0 
0.0 0.0 0.0 
2.546520028854e-04 9.031722481109e-06 0.0 
9.031722481109e-06 -5.573982401641e-06 0.0 
0.0 0.0 0.0 
-5.908581078813e-04 1.465361679564e-06 0.0 
1.465361679564e-06 5.411470680587e-03 0.0 
0.0 0.0 0.0 
2.159258859706e-04 -1.367057189392e-05 0.0 
-1.367057189392e-05 3.578695438655e-06 0.0 
0.0 0.0 0.0 
0.0 3.703641508742e-04 0.0 
3.703641508742e-04 7.999624079728e-03 0.0 
0.0 0.0 0.0 
0.0 1.603202735117e-04 0.0 
1.603202735117e-04 8.120047780180e-03 0.0 
0.0 0.0 0.0 
0.0 2.589475374089e-04 0.0 
2.589475374089e-04 8.070996277969e-03 0.0 
0.0 0.0 0.0 
-7.090950538591e-05 -7.450182521428e-06 0.0 
-7.450182521428e-06 1.353308671683e-03 0.0 
0.0 0.0 0.0 
-5.086184251230e-04 -1.624976871498e-05 0.0 
-1.624976871498e-05 2.751756100443e-03 0.0 
0.0 0.0 0.0 
0.0 1.255795856878e-04 0.0 
1.255795856878e-04 8.116549645228e-03 0.0 
0.0 0.0 0.0 
-3.987681739598e-04 1.047513784828e-05 0.0 
1.047513784828e-05 6.493034330019e-03 0.0 
0.0 0.0 0.0 
0.0 9.715708103450e-05 0.0 
9.715708103450e-05 8.165652033673e-03 0.0 
0.0 0.0 0.0 
-3.089320792439e-04 1.573798489956e-05 0.0 
1.573798489956e-05 6.844752788299e-03 0.0 
0.0 0.0 0.0 
-2.007270348026e-04 1.926918713480e-05 0.0 
1.926918713480e-05 7.186741616007e-03 0.0 
0.0 0.0 0.0 
-6.471471891750e-04 -6.204928425716e-05 0.0 
-6.204928425716e-05 3.755179984466e-03 0.0 
0.0 0.0 0.0 
-6.121976776818e-05 1.406258749936e-04 0.0 
1.406258749936e-04 8.118219874509e-03 0.0 
0.0 0.0 0.0 
-5.006925754747e-05 1.364418906426e-04 0.0 
1.364418906426e-04 8.135142749027e-03 0.0 
0.0 0.0 0.0 
-3.497763294196e-04 -7.601529112715e-05 0.0 
-7.601529112715e-05 6.643914068226e-03 0.0 
0.0 0.0 0.0 
-2.536468603179e-04 -7.880245302740e-05 0.0 
-7.880245302740e-05 7.006109701459e-03 0.0 
0.0 0.0 0.0 
-4.675597112801e-04 -2.810269811554e-04 0.0 
-2.810269811554e-04 5.644294121478e-03 0.0 
0.0 0.0 0.0 
-5.552288784814e-04 -2.407013519627e-04 0.0 
-2.407013519627e-04 3.322184552819e-04 0.0 
0.0 0.0 0.0 
-5.827522895075e-04 -4.823017280323e-04 0.0 
-4.823017280323e-04 3.606322227387e-03 0.0 
0.0 0.0 0.0 
4.715112652414e-04 -1.743425648768e-06 0.0 
-1.743425648768e-06 2.133745722293e-04 0.0 
0.0 0.0 0.0 
-9.388735570670e-05 -4.335718117633e-04 0.0 
-4.335718117633e-04 6.257583396971e-03 0.0 
0.0 0.0 0.0 
-4.994978181511e-04 -6.065036894717e-04 0.0 
-6.065036894717e-04 3.713934418087e-03 0.0 
0.0 0.0 0.0 
-3.055811792956e-04 -2.744894558847e-04 0.0 
-2.744894558847e-04 6.145780275711e-03 0.0 
0.0 0.0 0.0 
-4.997213866867e-04 -6.607890242277e-04 0.0 
-6.607890242277e-04 1.885026913292e-03 0.0 
0.0 0.0 0.0 
-4.459377449106e-05 -8.880681720043e-05 0.0 
-8.880681720043e-05 7.561763504962e-04 0.0 
0.0 0.0 0.0 
-2.790682233959e-04 -2.924527463629e-04 0.0 
-2.924527463629e-04 6.518378841395e-03 0.0 
0.0 0.0 0.0 
-5.671699749287e-04 -4.716892748476e-04 0.0 
-4.716892748476e-04 3.961679942419e-03 0.0 
0.0 0.0 0.0 
-6.229059276704e-04 -8.800468897625e-05 0.0 
-8.800468897625e-05 3.368750995325e-03 0.0 
0.0 0.0 0.0 
-3.432104150848e-04 -3.071572103526e-04 0.0 
-3.071572103526e-04 6.151203153748e-03 0.0 
0.0 0.0 0.0 
-1.229989375141e-04 8.402887042710e-05 0.0 
8.402887042710e-05 7.299682173146e-03 0.0 
0.0 0.0 0.0 
-6.117367517446e-04 -5.447513947885e-05 0.0 
-5.447513947885e-05 3.369384400936e-03 0.0 
0.0 0.0 0.0 
3.238927166469e-04 -5.190261707666e-04 0.0 
-5.190261707666e-04 4.656319557418e-03 0.0 
0.0 0.0 0.0 
-9.581964449457e-05 -5.925917906600e-04 0.0 
-5.925917906600e-04 4.644341000149e-03 0.0 
0.0 0.0 0.0 
-4.285065437311e-04 -2.655521636622e-04 0.0 
-2.655521636622e-04 5.641676427203e-03 0.0 
0.0 0.0 0.0 
-4.450024591542e-04 -1.935104500779e-04 0.0 
-1.935104500779e-04 5.862180093389e-03 0.0 
0.0 0.0 0.0 
1.482613924199e-03 7.090349351462e-04 0.0 
7.090349351462e-04 -8.991441587869e-05 0.0 
0.0 0.0 0.0 
-3.608791836426e-04 6.320437026940e-04 0.0 
6.320437026940e-04 3.617640399694e-03 0.0 
0.0 0.0 0.0 
5.001105408904e-04 1.008836474188e-03 0.0 
1.008836474188e-03 2.685044792164e-03 0.0 
0.0 0.0 0.0 
-3.524570282341e-04 -4.211662578662e-04 0.0 
-4.211662578662e-04 5.149209366846e-03 0.0 
0.0 0.0 0.0 
-3.475857667383e-04 -2.482133789718e-04 0.0 
-2.482133789718e-04 6.378008374788e-03 0.0 
0.0 0.0 0.0 
-4.474979178205e-04 -1.231958715844e-04 0.0 
-1.231958715844e-04 6.067651932683e-03 0.0 
0.0 0.0 0.0 
-6.019847359230e-04 -1.240431678550e-03 0.0 
-1.240431678550e-03 1.715799584805e-03 0.0 
0.0 0.0 0.0 
-1.299659022679e-04 1.302386542842e-04 0.0 
1.302386542842e-04 7.267485877133e-03 0.0 
0.0 0.0 0.0 
-1.749340732600e-04 1.158438829006e-04 0.0 
1.158438829006e-04 6.872738195936e-03 0.0 
0.0 0.0 0.0 
-2.730929732535e-04 6.599989000209e-05 0.0 
6.599989000209e-05 5.003823741628e-03 0.0 
0.0 0.0 0.0 
-2.597526191149e-04 -4.466733833017e-04 0.0 
-4.466733833017e-04 5.251586198868e-03 0.0 
0.0 0.0 0.0 
-3.980449229564e-04 -3.416344176880e-04 0.0 
-3.416344176880e-04 5.405032541993e-03 0.0 
0.0 0.0 0.0 
-1.434764070519e-04 3.095842397180e-05 0.0 
3.095842397180e-05 7.315047490077e-03 0.0 
0.0 0.0 0.0 
-1.548850191543e-04 1.006493944111e-04 0.0 
1.006493944111e-04 7.091451914231e-03 0.0 
0.0 0.0 0.0 
-9.783383853190e-05 -7.068144730260e-04 0.0 
-7.068144730260e-04 4.314157054253e-03 0.0 
0.0 0.0 0.0 
-2.690714250173e-04 -2.394945462194e-04 0.0 
-2.394945462194e-04 6.734411572173e-03 0.0 
0.0 0.0 0.0 
-1.995616249318e-04 1.904511015078e-04 0.0 
1.904511015078e-04 6.764731085292e-03 0.0 
0.0 0.0 0.0 
-4.599810066813e-04 -1.366704499709e-04 0.0 
-1.366704499709e-04 6.067639256514e-03 0.0 
0.0 0.0 0.0 
-1.175669368185e-04 -4.091976607783e-04 0.0 
-4.091976607783e-04 6.547339348894e-03 0.0 
0.0 0.0 0.0 
-1.519162379924e-04 7.504382267071e-05 0.0 
7.504382267071e-05 7.276777176328e-03 0.0 
0.0 0.0 0.0 
-2.470078429900e-04 5.491868759134e-05 0.0 
5.491868759134e-05 6.254744906963e-03 0.0 
0.0 0.0 0.0 
2.400929149473e-04 -5.905487109786e-04 0.0 
-5.905487109786e-04 4.540343839418e-03 0.0 
0.0 0.0 0.0 
-4.327240578283e-04 -2.183563414945e-04 0.0 
-2.183563414945e-04 2.102383045501e-03 0.0 
0.0 0.0 0.0 
-6.058938007905e-04 -1.496768883419e-03 0.0 
-1.496768883419e-03 1.408399386369e-03 0.0 
0.0 0.0 0.0 
-2.461401570104e-04 -3.005519257414e-04 0.0 
-3.005519257414e-04 9.556952859819e-04 0.0 
0.0 0.0 0.0 
-5.602133325068e-04 -1.232026467557e-03 0.0 
-1.232026467557e-03 2.464004439995e-05 0.0 
0.0 0.0 0.0 
-1.647200832243e-04 4.829218673374e-05 0.0 
4.829218673374e-05 7.096568158571e-03 0.0 
0.0 0.0 0.0 
-3.145954890470e-04 -1.549255670916e-04 0.0 
-1.549255670916e-04 6.579692194511e-03 0.0 
0.0 0.0 0.0 
-1.844269936383e-04 -6.814269116774e-04 0.0 
-6.814269116774e-04 2.087195016867e-04 0.0 
0.0 0.0 0.0 
-1.896320241220e-04 4.889638218920e-04 0.0 
4.889638218920e-04 6.752940020104e-03 0.0 
0.0 0.0 0.0 
-2.693074877832e-04 7.658781930427e-05 0.0 
7.658781930427e-05 5.193695103891e-03 0.0 
0.0 0.0 0.0 
-3.229461575727e-04 -3.689646899235e-04 0.0 
-3.689646899235e-04 5.906487228696e-03 0.0 
0.0 0.0 0.0 
-3.850074617180e-04 -1.714091521394e-04 0.0 
-1.714091521394e-04 6.220390043380e-03 0.0 
0.0 0.0 0.0 
1.074837725548e-04 -1.485872351893e-03 0.0 
-1.485872351893e-03 1.643257043120e-03 0.0 
0.0 0.0 0.0 
-4.113929006695e-04 -1.985268475615e-04 0.0 
-1.985268475615e-04 6.224425851901e-03 0.0 
0.0 0.0 0.0 
-2.862143657731e-04 -4.348955320493e-06 0.0 
-4.348955320493e-06 5.002263433179e-03 0.0 
0.0 0.0 0.0 
7.912739635862e-04 2.018686551891e-04 0.0 
2.018686551891e-04 3.904342793025e-03 0.0 
0.0 0.0 0.0 
-1.156897876005e-04 -3.186059278801e-04 0.0 
-3.186059278801e-04 6.804280800716e-03 0.0 
0.0 0.0 0.0 
-3.568786609005e-04 -1.119067609468e-04 0.0 
-1.119067609468e-04 2.028258153786e-03 0.0 
0.0 0.0 0.0 
-3.016478914541e-05 -4.439885085902e-04 0.0 
-4.439885085902e-04 6.394965669418e-03 0.0 
0.0 0.0 0.0 
-2.247855868975e-04 4.926530909581e-05 0.0 
4.926530909581e-05 6.480443121985e-03 0.0 
0.0 0.0 0.0 
-4.526916281212e-04 -1.737394259006e-04 0.0 
-1.737394259006e-04 2.296929362241e-03 0.0 
0.0 0.0 0.0 
-4.376494241938e-04 -1.392081609933e-03 0.0 
-1.392081609933e-03 1.574243647535e-03 0.0 
0.0 0.0 0.0 
-6.185930103669e-04 -2.051835638479e-04 0.0 
-2.051835638479e-04 4.628890232423e-03 0.0 
0.0 0.0 0.0 
-2.649274123298e-04 1.170212821794e-04 0.0 
1.170212821794e-04 5.796611579101e-03 0.0 
0.0 0.0 0.0 
-5.681144881455e-04 -6.343941939933e-04 0.0 
-6.343941939933e-04 3.021179966673e-03 0.0 
0.0 0.0 0.0 
-2.023279356091e-04 3.799016334310e-05 0.0 
3.799016334310e-05 6.703468661548e-03 0.0 
0.0 0.0 0.0 
-2.484707955240e-04 3.018799742163e-05 0.0 
3.018799742163e-05 6.065860681665e-03 0.0 
0.0 0.0 0.0 
-5.093720814328e-04 -4.650038393632e-04 0.0 
-4.650038393632e-04 4.323470753050e-03 0.0 
0.0 0.0 0.0 
-4.745727853016e-04 -2.073926985370e-04 0.0 
-2.073926985370e-04 5.863206319359e-03 0.0 
0.0 0.0 0.0 
-4.125121862401e-04 -2.631026570416e-04 0.0 
-2.631026570416e-04 6.011142362131e-03 0.0 
0.0 0.0 0.0 
-2.088517290615e-04 1.032075834033e-04 0.0 
1.032075834033e-04 6.472695290255e-03 0.0 
0.0 0.0 0.0 
-2.987409315738e-04 -2.361319880655e-04 0.0 
-2.361319880655e-04 1.711461296733e-03 0.0 
0.0 0.0 0.0 
-5.757132263261e-04 -3.949424106853e-04 0.0 
-3.949424106853e-04 4.203214010254e-03 0.0 
0.0 0.0 0.0 
4.546098433074e-04 4.416517610789e-04 0.0 
4.416517610789e-04 5.124564231982e-03 0.0 
0.0 0.0 0.0 
-2.176881996439e-04 7.268814206482e-05 0.0 
7.268814206482e-05 6.656310342471e-03 0.0 
0.0 0.0 0.0 
-5.973539296436e-04 -4.106711427473e-04 0.0 
-4.106711427473e-04 3.838446224078e-03 0.0 
0.0 0.0 0.0 
-1.908494283882e-04 -6.282504950535e-04 0.0 
-6.282504950535e-04 4.650671107317e-03 0.0 
0.0 0.0 0.0 
2.074349084213e-05 -4.569185713453e-04 0.0 
-4.569185713453e-04 6.108097786681e-03 0.0 
0.0 0.0 0.0 
-2.249229866956e-04 1.070982583150e-04 0.0 
1.070982583150e-04 6.248585142137e-03 0.0 
0.0 0.0 0.0 
1.646519660046e-03 -7.230222254504e-04 0.0 
-7.230222254504e-04 -4.572814196828e-03 0.0 
0.0 0.0 0.0 
-5.245823583755e-05 -1.467301963209e-04 0.0 
-1.467301963209e-04 8.735639374364e-04 0.0 
0.0 0.0 0.0 
2.391947406821e-03 1.832067277665e-04 0.0 
1.832067277665e-04 -3.171526598435e-03 0.0 
0.0 0.0 0.0 
-3.199856006013e-04 -2.150601572608e-04 0.0 
-2.150601572608e-04 6.372844931258e-03 0.0 
0.0 0.0 0.0 
-2.468288756342e-04 1.126552165954e-04 0.0 
1.126552165954e-04 6.023981505288e-03 0.0 
0.0 0.0 0.0 
-6.106914447251e-04 -1.813899625405e-04 0.0 
-1.813899625405e-04 4.984597077993e-03 0.0 
0.0 0.0 0.0 
-2.773850384789e-04 9.347012413671e-05 0.0 
9.347012413671e-05 5.388781692848e-03 0.0 
0.0 0.0 0.0 
3.165630787854e-04 -3.840952314483e-04 0.0 
-3.840952314483e-04 5.302869454441e-03 0.0 
0.0 0.0 0.0 
-5.470446874164e-04 -3.665183077835e-04 0.0 
-3.665183077835e-04 4.562787459220e-03 0.0 
0.0 0.0 0.0 
-3.773273728173e-04 -2.369947042995e-04 0.0 
-2.369947042995e-04 6.006937318484e-03 0.0 
0.0 0.0 0.0 
-3.482794462498e-04 -1.669845189452e-04 0.0 
-1.669845189452e-04 2.093515156407e-03 0.0 
0.0 0.0 0.0 
-1.046992726619e-04 -3.532055456038e-04 0.0 
-3.532055456038e-04 6.549659738086e-03 0.0 
0.0 0.0 0.0 
-5.497486917001e-04 -4.503558371393e-04 0.0 
-4.503558371393e-04 4.321413803628e-03 0.0 
0.0 0.0 0.0 
-3.855909231477e-04 -1.308979241425e-04 0.0 
-1.308979241425e-04 2.289862524464e-03 0.0 
0.0 0.0 0.0 
-5.989455246543e-04 -3.739906452157e-04 0.0 
-3.739906452157e-04 4.199945455691e-03 0.0 
0.0 0.0 0.0 
-5.890547752431e-04 -5.224890166105e-04 0.0 
-5.224890166105e-04 3.254377964481e-03 0.0 
0.0 0.0 0.0 
-5.260696686976e-04 -6.476553884402e-04 0.0 
-6.476553884402e-04 2.435184049828e-03 0.0 
0.0 0.0 0.0 
-5.877336657806e-04 -1.863069458254e-04 0.0 
-1.863069458254e-04 4.985333386248e-03 0.0 
0.0 0.0 0.0 
4.436006191877e-04 5.990512398226e-05 0.0 
5.990512398226e-05 -8.341468150319e-05 0.0 
0.0 0.0 0.0 
3.927630012583e-04 1.209456269218e-06 0.0 
1.209456269218e-06 -4.782942337755e-05 0.0 
0.0 0.0 0.0 
-4.462136194481e-04 -3.585530244448e-04 0.0 
-3.585530244448e-04 5.407914983305e-03 0.0 
0.0 0.0 0.0 
-3.106781452735e-04 -1.955810558406e-04 0.0 
-1.955810558406e-04 1.904885078594e-03 0.0 
0.0 0.0 0.0 
-3.262156034315e-04 -4.741838056797e-04 0.0 
-4.741838056797e-04 5.256204108205e-03 0.0 
0.0 0.0 0.0 
-2.669672959681e-04 -5.501821357405e-04 0.0 
-5.501821357405e-04 4.964538299336e-03 0.0 
0.0 0.0 0.0 
-3.852679664230e-04 -8.580412687832e-04 0.0 
-8.580412687832e-04 3.151443562742e-03 0.0 
0.0 0.0 0.0 
1.899281445328e-04 -1.848721731275e-03 0.0 
-1.848721731275e-03 8.061083483666e-04 0.0 
0.0 0.0 0.0 
-1.975349817085e-04 1.306655942055e-04 0.0 
1.306655942055e-04 6.995859700401e-03 0.0 
0.0 0.0 0.0 
1.139861370096e-03 2.110139101188e-03 0.0 
2.110139101188e-03 -2.839769416086e-03 0.0 
0.0 0.0 0.0 
-6.102847548299e-04 -4.220423158230e-04 0.0 
-4.220423158230e-04 3.475466897896e-03 0.0 
0.0 0.0 0.0 
3.303181101382e-04 -2.972575889803e-04 0.0 
-2.972575889803e-04 5.462921895815e-03 0.0 
0.0 0.0 0.0 
-2.981756989486e-04 -1.548273005061e-04 0.0 
-1.548273005061e-04 1.650531290879e-03 0.0 
0.0 0.0 0.0 
-2.864655297627e-04 4.355763892251e-05 0.0 
4.355763892251e-05 5.622847637818e-03 0.0 
0.0 0.0 0.0 
-2.945442097525e-04 1.887772809762e-05 0.0 
1.887772809762e-05 5.201525266795e-03 0.0 
0.0 0.0 0.0 
-4.146326263417e-04 -4.984157601326e-04 0.0 
-4.984157601326e-04 1.544880881118e-03 0.0 
0.0 0.0 0.0 
8.803371839861e-05 -4.591291280888e-04 0.0 
-4.591291280888e-04 5.793585120379e-03 0.0 
0.0 0.0 0.0 
-2.619374707785e-04 1.177261058191e-04 0.0 
1.177261058191e-04 6.376531858607e-03 0.0 
0.0 0.0 0.0 
-4.269536920708e-04 -2.662378309146e-04 0.0 
-2.662378309146e-04 1.920262593799e-03 0.0 
0.0 0.0 0.0 
-1.854496359872e-04 1.662499119981e-04 0.0 
1.662499119981e-04 7.154809125285e-03 0.0 
0.0 0.0 0.0 
-1.571584551489e-04 2.113530065146e-04 0.0 
2.113530065146e-04 7.147597774369e-03 0.0 
0.0 0.0 0.0 
-4.166146323094e-04 -3.254402112663e-04 0.0 
-3.254402112663e-04 2.122650691701e-03 0.0 
0.0 0.0 0.0 
-2.897281412669e-04 1.262415695301e-03 0.0 
1.262415695301e-03 2.045847876949e-03 0.0 
0.0 0.0 0.0 
-4.914005047540e-04 -5.621145875419e-04 0.0 
-5.621145875419e-04 2.097725423846e-03 0.0 
0.0 0.0 0.0 
-3.983114252926e-04 -3.301050839929e-04 0.0 
-3.301050839929e-04 5.779602624418e-03 0.0 
0.0 0.0 0.0 
-5.735234651594e-04 -2.732011426226e-04 0.0 
-2.732011426226e-04 4.783568593923e-03 0.0 
0.0 0.0 0.0 
-1.716837809632e-04 4.680413581080e-04 0.0 
4.680413581080e-04 6.900766428262e-03 0.0 
0.0 0.0 0.0 
-1.728646253665e-04 1.800689167730e-04 0.0 
1.800689167730e-04 6.989975102402e-03 0.0 
0.0 0.0 0.0 
-3.696798585056e-04 -4.006597821934e-04 0.0 
-4.006597821934e-04 5.527858383018e-03 0.0 
0.0 0.0 0.0 
-3.153849392544e-04 -3.748287835773e-04 0.0 
-3.748287835773e-04 5.523585678348e-03 0.0 
0.0 0.0 0.0 
-5.800167821260e-04 -5.458940399113e-04 0.0 
-5.458940399113e-04 1.753847948626e-03 0.0 
0.0 0.0 0.0 
-3.543755466282e-04 -3.047818051948e-04 0.0 
-3.047818051948e-04 5.775469208381e-03 0.0 
0.0 0.0 0.0 
-2.344941998411e-04 1.665389948878e-04 0.0 
1.665389948878e-04 6.370738464694e-03 0.0 
0.0 0.0 0.0 
-5.984865880901e-04 -2.629778103307e-04 0.0 
-2.629778103307e-04 4.782134644920e-03 0.0 
0.0 0.0 0.0 
-2.684289432796e-04 6.184249974473e-05 0.0 
6.184249974473e-05 6.029967307249e-03 0.0 
0.0 0.0 0.0 
-2.358413156490e-04 1.096474715214e-04 0.0 
1.096474715214e-04 6.603046674837e-03 0.0 
0.0 0.0 0.0 
1.108019714250e-03 6.132146179948e-04 0.0 
6.132146179948e-04 1.673895815061e-03 0.0 
0.0 0.0 0.0 
-1.862000000106e-04 1.512999853104e-04 0.0 
1.512999853104e-04 6.822520669543e-03 0.0 
0.0 0.0 0.0 
-6.240683206494e-04 -3.172932028823e-04 0.0 
-3.172932028823e-04 4.076827561363e-03 0.0 
0.0 0.0 0.0 
-5.807862435189e-04 -3.540128588064e-04 0.0 
-3.540128588064e-04 4.561029784774e-03 0.0 
0.0 0.0 0.0 
-6.071381794595e-04 -4.082420721275e-04 0.0 
-4.082420721275e-04 3.113553885943e-03 0.0 
0.0 0.0 0.0 
-3.128723029419e-04 -1.127432129927e-03 0.0 
-1.127432129927e-03 2.481978634049e-03 0.0 
0.0 0.0 0.0 
-2.415019808963e-04 1.380048181462e-04 0.0 
1.380048181462e-04 6.199369316282e-03 0.0 
0.0 0.0 0.0 
1.308747374600e-04 -9.725248123493e-04 0.0 
-9.725248123493e-04 3.142481799603e-03 0.0 
0.0 0.0 0.0 
-4.909290047523e-04 -4.742492669231e-04 0.0 
-4.742492669231e-04 2.306903983669e-03 0.0 
0.0 0.0 0.0 
-2.503235267780e-04 -2.882859390713e-04 0.0 
-2.882859390713e-04 1.164636301891e-03 0.0 
0.0 0.0 0.0 
-2.656577321127e-04 8.842799556113e-05 0.0 
8.842799556113e-05 6.205237602028e-03 0.0 
0.0 0.0 0.0 
-5.875060147829e-04 -5.559165237452e-04 0.0 
-5.559165237452e-04 2.320135589521e-03 0.0 
0.0 0.0 0.0 
-9.414000831098e-07 -3.802454660826e-04 0.0 
-3.802454660826e-04 6.388505429563e-03 0.0 
0.0 0.0 0.0 
-2.192173790528e-04 1.321195136021e-04 0.0 
1.321195136021e-04 6.425194668775e-03 0.0 
0.0 0.0 0.0 
-2.762150816779e-04 -3.353661394645e-04 0.0 
-3.353661394645e-04 5.901119224237e-03 0.0 
0.0 0.0 0.0 
1.599386848092e-04 -5.990149930511e-05 0.0 
-5.990149930511e-05 6.110965426177e-03 0.0 
0.0 0.0 0.0 
-6.046848012421e-04 -3.857534153767e-04 0.0 
-3.857534153767e-04 3.833303685611e-03 0.0 
0.0 0.0 0.0 
-5.275926999140e-04 -3.945677965305e-04 0.0 
-3.945677965305e-04 2.133980846744e-03 0.0 
0.0 0.0 0.0 
-4.745429543107e-04 -3.885505619046e-04 0.0 
-3.885505619046e-04 1.347421834541e-03 0.0 
0.0 0.0 0.0 
-2.354283170197e-04 -4.968431281628e-04 0.0 
-4.968431281628e-04 5.355049152524e-03 0.0 
0.0 0.0 0.0 
-2.506674678679e-04 9.271037017862e-05 0.0 
9.271037017862e-05 5.845597027463e-03 0.0 
0.0 0.0 0.0 
-2.428154876376e-04 -2.355777999069e-04 0.0 
-2.355777999069e-04 8.980930228146e-04 0.0 
0.0 0.0 0.0 
-5.511574207667e-04 -5.776094401664e-04 0.0 
-5.776094401664e-04 3.012358842287e-03 0.0 
0.0 0.0 0.0 
-2.391400977527e-04 -9.009939288828e-05 0.0 
-9.009939288828e-05 1.842019511070e-03 0.0 
0.0 0.0 0.0 
-2.872054204560e-04 6.798965728424e-05 0.0 
6.798965728424e-05 5.802361795584e-03 0.0 
0.0 0.0 0.0 
-5.726477205333e-04 -4.761469986732e-04 0.0 
-4.761469986732e-04 3.247190731434e-03 0.0 
0.0 0.0 0.0 
-1.866018122398e-04 -5.199642303831e-04 0.0 
-5.199642303831e-04 4.959247372956e-03 0.0 
0.0 0.0 0.0 
-5.775017424418e-04 -3.587254982647e-04 0.0 
-3.587254982647e-04 3.108306893768e-03 0.0 
0.0 0.0 0.0 
-1.926508031015e-04 6.110606727873e-05 0.0 
6.110606727873e-05 6.879952762541e-03 0.0 
0.0 0.0 0.0 
-5.885573038962e-04 -6.108108457022e-04 0.0 
-6.108108457022e-04 2.675667886384e-03 0.0 
0.0 0.0 0.0 
-6.732577707980e-05 -5.579094608205e-04 0.0 
-5.579094608205e-04 5.137650639930e-03 0.0 
0.0 0.0 0.0 
-5.592616143826e-04 -1.335342888040e-03 0.0 
-1.335342888040e-03 1.382827858764e-03 0.0 
0.0 0.0 0.0 
-1.666442886726e-04 -5.622984396731e-04 0.0 
-5.622984396731e-04 5.049024303607e-03 0.0 
0.0 0.0 0.0 
-6.235466179986e-04 -2.750078462039e-04 0.0 
-2.750078462039e-04 4.428930421015e-03 0.0 
0.0 0.0 0.0 
-2.295032280057e-04 -3.968735215146e-04 0.0 
-3.968735215146e-04 5.635195585495e-03 0.0 
0.0 0.0 0.0 
1.697839407885e-03 -4.328758289168e-04 0.0 
-4.328758289168e-04 -5.616960363675e-04 0.0 
0.0 0.0 0.0 
-3.270764742511e-04 -1.331514934812e-04 0.0 
-1.331514934812e-04 1.854286292750e-03 0.0 
0.0 0.0 0.0 
-2.809074407887e-04 2.341671354305e-05 0.0 
2.341671354305e-05 5.437726406228e-03 0.0 
0.0 0.0 0.0 
7.106664094438e-04 -4.194709391265e-04 0.0 
-4.194709391265e-04 3.579481502139e-03 0.0 
0.0 0.0 0.0 
2.236401406952e-05 1.053748428657e-03 0.0 
1.053748428657e-03 2.864021215638e-03 0.0 
0.0 0.0 0.0 
-2.687858794431e-04 3.790258451817e-05 0.0 
3.790258451817e-05 5.847394046091e-03 0.0 
0.0 0.0 0.0 
-3.851685889665e-04 -1.663170871040e-03 0.0 
-1.663170871040e-03 1.138853870823e-03 0.0 
0.0 0.0 0.0 
-2.780510632712e-04 1.750865277260e-04 0.0 
1.750865277260e-04 5.913621392399e-03 0.0 
0.0 0.0 0.0 
-2.016434115748e-04 -1.162818611020e-04 0.0 
-1.162818611020e-04 1.632541065205e-03 0.0 
0.0 0.0 0.0 
-4.505548953815e-05 -4.661483564566e-04 0.0 
-4.661483564566e-04 5.982843933459e-03 0.0 
0.0 0.0 0.0 
7.371331126191e-04 -2.779158819772e-04 0.0 
-2.779158819772e-04 3.792034010059e-03 0.0 
0.0 0.0 0.0 
6.977315503474e-04 2.954470363127e-04 0.0 
2.954470363127e-04 4.265274404976e-03 0.0 
0.0 0.0 0.0 
-1.528780785151e-04 1.514598302938e-04 0.0 
1.514598302938e-04 7.390396522912e-03 0.0 
0.0 0.0 0.0 
1.430616490028e-04 -8.530006121743e-04 0.0 
-8.530006121743e-04 3.568578769551e-03 0.0 
0.0 0.0 0.0 
-4.307972491369e-04 -3.048779623236e-04 0.0 
-3.048779623236e-04 1.728023822973e-03 0.0 
0.0 0.0 0.0 
2.291588733394e-05 -6.888346711855e-04 0.0 
-6.888346711855e-04 4.374071490601e-03 0.0 
0.0 0.0 0.0 
4.880237262106e-05 -3.876837867901e-04 0.0 
-3.876837867901e-04 6.097207260398e-03 0.0 
0.0 0.0 0.0 
7.277068247302e-05 -1.691902006802e-03 0.0 
-1.691902006802e-03 1.116922013352e-03 0.0 
0.0 0.0 0.0 
-2.872397585155e-04 -4.323093900662e-04 0.0 
-4.323093900662e-04 5.640932116104e-03 0.0 
0.0 0.0 0.0 
-2.423656370802e-04 8.067606894306e-05 0.0 
8.067606894306e-05 6.431287063728e-03 0.0 
0.0 0.0 0.0 
5.128262802703e-04 -2.025448132135e-03 0.0 
-2.025448132135e-03 9.541308891836e-05 0.0 
0.0 0.0 0.0 
-8.067868346506e-05 -6.270713303736e-04 0.0 
-6.270713303736e-04 4.722316819324e-03 0.0 
0.0 0.0 0.0 
-3.181941114545e-04 7.217920676410e-05 0.0 
7.217920676410e-05 5.339785523199e-03 0.0 
0.0 0.0 0.0 
-4.631274391024e-04 -2.166335260765e-04 0.0 
-2.166335260765e-04 2.521451355828e-03 0.0 
0.0 0.0 0.0 
-5.297107147476e-04 -6.938116648528e-04 0.0 
-6.938116648528e-04 2.765646922730e-03 0.0 
0.0 0.0 0.0 
2.419698827936e-04 8.909009514325e-04 0.0 
8.909009514325e-04 3.529999193912e-03 0.0 
0.0 0.0 0.0 
-1.650103045311e-04 -4.587103604596e-04 0.0 
-4.587103604596e-04 5.348764489902e-03 0.0 
0.0 0.0 0.0 
-2.184515250689e-04 9.389468471890e-04 0.0 
9.389468471890e-04 3.003368480704e-03 0.0 
0.0 0.0 0.0 
3.605452415103e-04 9.531775188419e-04 0.0 
9.531775188419e-04 3.122218638835e-03 0.0 
0.0 0.0 0.0 
-2.569955270493e-04 1.714103636002e-04 0.0 
1.714103636002e-04 6.142953334231e-03 0.0 
0.0 0.0 0.0 
-2.654197151748e-04 9.612532111701e-05 0.0 
9.612532111701e-05 5.616676958249e-03 0.0 
0.0 0.0 0.0 
-2.963104503687e-04 1.451315949785e-04 0.0 
1.451315949785e-04 5.514010378550e-03 0.0 
0.0 0.0 0.0 
-6.020685622048e-04 -3.014979590090e-04 0.0 
-3.014979590090e-04 4.434464135644e-03 0.0 
0.0 0.0 0.0 
1.749681042036e-04 -4.614857964804e-04 0.0 
-4.614857964804e-04 5.473324094591e-03 0.0 
0.0 0.0 0.0 
1.444583223358e-04 -7.442892428642e-04 0.0 
-7.442892428642e-04 4.004481208866e-03 0.0 
0.0 0.0 0.0 
-3.040700444163e-04 4.717192930342e-05 0.0 
4.717192930342e-05 5.394163487031e-03 0.0 
0.0 0.0 0.0 
-1.528205630881e-04 5.274534798254e-04 0.0 
5.274534798254e-04 6.877405875786e-03 0.0 
0.0 0.0 0.0 
5.948553950201e-04 3.666772611932e-04 0.0 
3.666772611932e-04 4.631119846539e-03 0.0 
0.0 0.0 0.0 
-8.250340947136e-05 -5.191203224193e-04 0.0 
-5.191203224193e-04 5.041876917010e-03 0.0 
0.0 0.0 0.0 
-2.105891045512e-04 1.593908140310e-04 0.0 
1.593908140310e-04 6.597142514736e-03 0.0 
0.0 0.0 0.0 
-3.831027550539e-04 -9.667938888443e-04 0.0 
-9.667938888443e-04 2.830140975540e-03 0.0 
0.0 0.0 0.0 
-4.791732985827e-04 -8.409734745757e-04 0.0 
-8.409734745757e-04 2.818858192715e-03 0.0 
0.0 0.0 0.0 
-4.058450673814e-04 -4.369608377172e-04 0.0 
-4.369608377172e-04 1.736063281975e-03 0.0 
0.0 0.0 0.0 
1.379060507303e-04 -6.489445899467e-04 0.0 
-6.489445899467e-04 4.447119724603e-03 0.0 
0.0 0.0 0.0 
-5.159272129156e-04 -7.073720147779e-04 0.0 
-7.073720147779e-04 3.098708224067e-03 0.0 
0.0 0.0 0.0 
-2.873871673577e-04 9.365958461186e-05 0.0 
9.365958461186e-05 5.976668047300e-03 0.0 
0.0 0.0 0.0 
-3.079140645991e-04 9.776193432753e-05 0.0 
9.776193432753e-05 5.747274477270e-03 0.0 
0.0 0.0 0.0 
1.218629066237e-03 1.484155433741e-04 0.0 
1.484155433741e-04 1.860413201871e-03 0.0 
0.0 0.0 0.0 
-5.227626632714e-04 -9.018603042384e-04 0.0 
-9.018603042384e-04 2.515440379138e-03 0.0 
0.0 0.0 0.0 
1.590175949225e-03 8.955803233328e-04 0.0 
8.955803233328e-04 -7.986508503893e-04 0.0 
0.0 0.0 0.0 
-5.466274359071e-04 -7.602509760310e-04 0.0 
-7.602509760310e-04 2.776041959050e-03 0.0 
0.0 0.0 0.0 
-4.507716507147e-04 -8.953924663815e-04 0.0 
-8.953924663815e-04 2.827082789701e-03 0.0 
0.0 0.0 0.0 
-5.464374359421e-04 -4.685142602074e-04 0.0 
-4.685142602074e-04 1.946975595489e-03 0.0 
0.0 0.0 0.0 
2.749055394564e-04 -4.547762506576e-04 0.0 
-4.547762506576e-04 5.140374747624e-03 0.0 
0.0 0.0 0.0 
7.694553355275e-05 -1.077658382851e-03 0.0 
-1.077658382851e-03 2.763702334008e-03 0.0 
0.0 0.0 0.0 
-2.088289194762e-04 9.961384059936e-05 0.0 
9.961384059936e-05 6.828673865799e-03 0.0 
0.0 0.0 0.0 
2.808925006612e-04 -1.037331583341e-03 0.0 
-1.037331583341e-03 2.719479682846e-03 0.0 
0.0 0.0 0.0 
1.363951584334e-04 -6.274221929321e-04 0.0 
-6.274221929321e-04 4.364042866929e-03 0.0 
0.0 0.0 0.0 
1.343255105641e-04 -8.359464392770e-04 0.0 
-8.359464392770e-04 3.535427946893e-03 0.0 
0.0 0.0 0.0 
6.732625440189e-04 9.134410868425e-04 0.0 
9.134410868425e-04 2.620458322915e-03 0.0 
0.0 0.0 0.0 
-4.077792270238e-04 -3.769004264849e-04 0.0 
-3.769004264849e-04 1.930898567498e-03 0.0 
0.0 0.0 0.0 
1.301637880338e-04 -3.893541816753e-04 0.0 
-3.893541816753e-04 5.780334824179e-03 0.0 
0.0 0.0 0.0 
1.348983782039e-04 -4.373022968343e-04 0.0 
-4.373022968343e-04 5.971632047801e-03 0.0 
0.0 0.0 0.0 
1.225554850119e-04 7.484484155113e-04 0.0 
7.484484155113e-04 4.652758694414e-03 0.0 
0.0 0.0 0.0 
-3.077179548461e-04 -1.001757990633e-03 0.0 
-1.001757990633e-03 2.835088075819e-03 0.0 
0.0 0.0 0.0 
1.409749119412e-04 -7.262196109122e-04 0.0 
-7.262196109122e-04 3.944382723548e-03 0.0 
0.0 0.0 0.0 
-2.613201345649e-04 1.430248511334e-04 0.0 
1.430248511334e-04 5.970857157002e-03 0.0 
0.0 0.0 0.0 
-4.416944376895e-04 -8.236030796451e-04 0.0 
-8.236030796451e-04 3.146497191381e-03 0.0 
0.0 0.0 0.0 
2.245922316904e-04 1.167533295282e-03 0.0 
1.167533295282e-03 2.451115384258e-03 0.0 
0.0 0.0 0.0 
-5.370247214046e-04 -5.411039178064e-04 0.0 
-5.411039178064e-04 2.664599748890e-03 0.0 
0.0 0.0 0.0 
-7.919886630325e-05 -1.856722297101e-03 0.0 
-1.856722297101e-03 8.089431301190e-04 0.0 
0.0 0.0 0.0 
-2.462650339924e-04 -1.059052702594e-03 0.0 
-1.059052702594e-03 2.807312504308e-03 0.0 
0.0 0.0 0.0 
-5.789784477538e-04 -4.638190909999e-04 0.0 
-4.638190909999e-04 2.524784848915e-03 0.0 
0.0 0.0 0.0 
-4.354181688349e-04 -2.682183884581e-04 0.0 
-2.682183884581e-04 2.322156824827e-03 0.0 
0.0 0.0 0.0 
-5.698113191399e-06 -8.861588926938e-04 0.0 
-8.861588926938e-04 3.543947472526e-03 0.0 
0.0 0.0 0.0 
1.810051756279e-05 -5.761909704497e-04 0.0 
-5.761909704497e-04 4.713936494996e-03 0.0 
0.0 0.0 0.0 
6.650620094861e-05 6.700070400821e-04 0.0 
6.700070400821e-04 5.811644207917e-03 0.0 
0.0 0.0 0.0 
7.503506534252e-04 -2.376788667386e-07 0.0 
-2.376788667386e-07 -1.854140231766e-04 0.0 
0.0 0.0 0.0 
8.930680772556e-04 -9.257449428904e-04 0.0 
-9.257449428904e-04 1.717330178244e-03 0.0 
0.0 0.0 0.0 
4.767235191439e-04 -1.098114483354e-03 0.0 
-1.098114483354e-03 2.255912674385e-03 0.0 
0.0 0.0 0.0 
-1.250479837015e-04 -1.064913481731e-03 0.0 
-1.064913481731e-03 2.807527061208e-03 0.0 
0.0 0.0 0.0 
-2.792337413827e-04 1.446979046869e-04 0.0 
1.446979046869e-04 5.741798409147e-03 0.0 
0.0 0.0 0.0 
1.137597293162e-04 -9.541120453551e-04 0.0 
-9.541120453551e-04 3.140295519255e-03 0.0 
0.0 0.0 0.0 
-5.950642638594e-04 -5.039908864423e-04 0.0 
-5.039908864423e-04 2.896361058072e-03 0.0 
0.0 0.0 0.0 
-7.898258437045e-05 -1.104789289821e-03 0.0 
-1.104789289821e-03 2.768776361076e-03 0.0 
0.0 0.0 0.0 
-1.988057935247e-04 1.247135367459e-04 0.0 
1.247135367459e-04 6.650212520862e-03 0.0 
0.0 0.0 0.0 
-5.548929097241e-04 -4.480656175858e-04 0.0 
-4.480656175858e-04 2.887442050699e-03 0.0 
0.0 0.0 0.0 
-2.562740475993e-04 -2.214617282581e-04 0.0 
-2.214617282581e-04 1.086995164144e-03 0.0 
0.0 0.0 0.0 
-4.452530185073e-04 -3.497230986600e-04 0.0 
-3.497230986600e-04 1.544097606151e-03 0.0 
0.0 0.0 0.0 
-3.747835277190e-05 -1.634399623822e-03 0.0 
-1.634399623822e-03 1.368235911364e-03 0.0 
0.0 0.0 0.0 
-3.903242728676e-04 -1.053045723751e-03 0.0 
-1.053045723751e-03 2.526566997000e-03 0.0 
0.0 0.0 0.0 
6.731000524993e-04 -9.608055605127e-04 0.0 
-9.608055605127e-04 2.222442889157e-03 0.0 
0.0 0.0 0.0 
1.051977276807e-04 -1.100331132509e-03 0.0 
-1.100331132509e-03 2.730987829358e-03 0.0 
0.0 0.0 0.0 
-5.042254699321e-04 -1.567695816723e-03 0.0 
-1.567695816723e-03 9.866675051462e-04 0.0 
0.0 0.0 0.0 
-2.754624993163e-04 -2.518049537069e-04 0.0 
-2.518049537069e-04 1.528797910010e-03 0.0 
0.0 0.0 0.0 
-3.543825167402e-04 1.356617830468e-04 0.0 
1.356617830468e-04 5.440408270195e-03 0.0 
0.0 0.0 0.0 
-5.028962237503e-04 -3.984047151476e-04 0.0 
-3.984047151476e-04 2.514376237644e-03 0.0 
0.0 0.0 0.0 
2.868907903226e-04 -4.313728831852e-04 0.0 
-4.313728831852e-04 4.992477957467e-03 0.0 
0.0 0.0 0.0 
1.311695463360e-04 6.791964941347e-04 0.0 
6.791964941347e-04 5.456226162892e-03 0.0 
0.0 0.0 0.0 
-3.449167605193e-04 3.870040060531e-04 0.0 
3.870040060531e-04 5.282707481566e-03 0.0 
0.0 0.0 0.0 
-2.011921774538e-04 2.701440861427e-04 0.0 
2.701440861427e-04 6.854881258090e-03 0.0 
0.0 0.0 0.0 
2.269909322794e-05 6.633013944026e-04 0.0 
6.633013944026e-04 6.150330010369e-03 0.0 
0.0 0.0 0.0 
1.219355832773e-03 3.882136429241e-04 0.0 
3.882136429241e-04 1.706968275322e-03 0.0 
0.0 0.0 0.0 
1.325461276862e-04 7.086437037939e-04 0.0 
7.086437037939e-04 5.046986045558e-03 0.0 
0.0 0.0 0.0 
-2.575206735029e-04 -1.975219850221e-03 0.0 
-1.975219850221e-03 5.714549686051e-04 0.0 
0.0 0.0 0.0 
-1.933277244108e-04 -9.750155217073e-04 0.0 
-9.750155217073e-04 3.158790351011e-03 0.0 
0.0 0.0 0.0 
8.495346327198e-04 1.030950287799e-03 0.0 
1.030950287799e-03 1.608845803407e-03 0.0 
0.0 0.0 0.0 
1.455551035234e-03 -1.681768487098e-03 0.0 
-1.681768487098e-03 -1.200763826764e-03 0.0 
0.0 0.0 0.0 
-4.128088866259e-04 -1.858464239724e-03 0.0 
-1.858464239724e-03 4.683136910355e-04 0.0 
0.0 0.0 0.0 
-4.973958368664e-04 -7.559964550278e-04 0.0 
-7.559964550278e-04 3.106029605719e-03 0.0 
0.0 0.0 0.0 
2.750218124794e-04 -1.192466361015e-03 0.0 
-1.192466361015e-03 2.273678264460e-03 0.0 
0.0 0.0 0.0 
4.768945701306e-04 -1.095817963141e-03 0.0 
-1.095817963141e-03 2.245308447190e-03 0.0 
0.0 0.0 0.0 
-5.813524143516e-04 -3.823865997194e-04 0.0 
-3.823865997194e-04 2.728750547639e-03 0.0 
0.0 0.0 0.0 
2.918433185828e-04 -9.020347389732e-04 0.0 
-9.020347389732e-04 3.130763656626e-03 0.0 
0.0 0.0 0.0 
6.896331008321e-04 -1.108088928805e-03 0.0 
-1.108088928805e-03 1.750388127679e-03 0.0 
0.0 0.0 0.0 
1.028006519554e-03 -6.991531244145e-04 0.0 
-6.991531244145e-04 1.762022002070e-03 0.0 
0.0 0.0 0.0 
-4.383037726574e-04 -9.926368750424e-04 0.0 
-9.926368750424e-04 2.517851921640e-03 0.0 
0.0 0.0 0.0 
8.127586839120e-04 -3.896610850416e-05 0.0 
-3.896610850416e-05 3.782252600299e-03 0.0 
0.0 0.0 0.0 
-2.866184572476e-04 1.244056339606e-04 0.0 
1.244056339606e-04 6.148480292939e-03 0.0 
0.0 0.0 0.0 
1.218544621374e-03 -5.482262139070e-04 0.0 
-5.482262139070e-04 1.283223774001e-03 0.0 
0.0 0.0 0.0 
2.292742714951e-04 -3.790251702322e-04 0.0 
-3.790251702322e-04 5.460523639352e-03 0.0 
0.0 0.0 0.0 
1.360632284506e-04 -2.125997919738e-03 0.0 
-2.125997919738e-03 1.126075824638e-04 0.0 
0.0 0.0 0.0 
2.688397771116e-04 -2.605110370754e-04 0.0 
-2.605110370754e-04 5.802338867463e-03 0.0 
0.0 0.0 0.0 
4.706329924546e-04 -9.475344055126e-04 0.0 
-9.475344055126e-04 2.693094805755e-03 0.0 
0.0 0.0 0.0 
9.366264663857e-07 6.802977934121e-04 0.0 
6.802977934121e-04 6.511043349725e-03 0.0 
0.0 0.0 0.0 
-1.546349330172e-04 6.257436901433e-04 0.0 
6.257436901433e-04 4.927947196653e-03 0.0 
0.0 0.0 0.0 
-2.445256449546e-04 -1.765520199020e-03 0.0 
-1.765520199020e-03 1.153728397781e-03 0.0 
0.0 0.0 0.0 
-3.101302425167e-04 4.416007203715e-04 0.0 
4.416007203715e-04 5.376298610584e-03 0.0 
0.0 0.0 0.0 
-1.944871877712e-04 3.641541518679e-04 0.0 
3.641541518679e-04 6.905937927961e-03 0.0 
0.0 0.0 0.0 
6.339598169340e-04 -8.193787173960e-04 0.0 
-8.193787173960e-04 2.701268560602e-03 0.0 
0.0 0.0 0.0 
5.429119789975e-04 1.388494666802e-03 0.0 
1.388494666802e-03 1.448665465125e-03 0.0 
0.0 0.0 0.0 
-2.658235485148e-04 4.924135414723e-04 0.0 
4.924135414723e-04 5.458099468897e-03 0.0 
0.0 0.0 0.0 
9.281818713047e-05 9.870145533552e-04 0.0 
9.870145533552e-04 3.183014814962e-03 0.0 
0.0 0.0 0.0 
-5.641418951366e-04 -1.759480719124e-03 0.0 
-1.759480719124e-03 1.018355131725e-03 0.0 
0.0 0.0 0.0 
-9.369719510333e-05 3.308097388967e-04 0.0 
3.308097388967e-04 7.619582594973e-03 0.0 
0.0 0.0 0.0 
-8.159555734362e-04 -1.324726478846e-03 0.0 
-1.324726478846e-03 1.234009079738e-03 0.0 
0.0 0.0 0.0 
4.472461022087e-04 1.673556534883e-04 0.0 
1.673556534883e-04 5.479728090740e-03 0.0 
0.0 0.0 0.0 
-1.459398223042e-04 1.683184992627e-04 0.0 
1.683184992627e-04 7.210841165272e-03 0.0 
0.0 0.0 0.0 
7.318491285457e-04 -1.468739429600e-04 0.0 
-1.468739429600e-04 4.042806491359e-03 0.0 
0.0 0.0 0.0 
-2.799584115792e-04 1.212687663618e-04 0.0 
1.212687663618e-04 5.562315404207e-03 0.0 
0.0 0.0 0.0 
-2.470074608905e-04 1.861605478859e-04 0.0 
1.861605478859e-04 6.705591023954e-03 0.0 
0.0 0.0 0.0 
8.612932892760e-04 -9.105865762031e-04 0.0 
-9.105865762031e-04 1.797475292273e-03 0.0 
0.0 0.0 0.0 
1.098230698517e-03 1.184781283941e-04 0.0 
1.184781283941e-04 2.442396600281e-03 0.0 
0.0 0.0 0.0 
-1.499823850054e-04 2.985655719567e-04 0.0 
2.985655719567e-04 7.232393331098e-03 0.0 
0.0 0.0 0.0 
1.632795171980e-05 -5.022432673189e-04 0.0 
-5.022432673189e-04 5.128475297120e-03 0.0 
0.0 0.0 0.0 
-2.823016433877e-04 1.588122092252e-04 0.0 
1.588122092252e-04 6.314733642302e-03 0.0 
0.0 0.0 0.0 
6.597081072952e-04 -3.433279307452e-04 0.0 
-3.433279307452e-04 3.913587511708e-03 0.0 
0.0 0.0 0.0 
-5.880353387355e-05 -2.030688943311e-03 0.0 
-2.030688943311e-03 5.789529811586e-04 0.0 
0.0 0.0 0.0 
-2.746361751582e-04 1.961152687420e-04 0.0 
1.961152687420e-04 6.474342064247e-03 0.0 
0.0 0.0 0.0 
9.117443302342e-05 6.701240206734e-04 0.0 
6.701240206734e-04 6.696241910443e-03 0.0 
0.0 0.0 0.0 
1.579781627714e-04 -3.455657525320e-04 0.0 
-3.455657525320e-04 5.950985346098e-03 0.0 
0.0 0.0 0.0 
-6.682810682590e-05 -9.635361188755e-04 0.0 
-9.635361188755e-04 3.156305500342e-03 0.0 
0.0 0.0 0.0 
-3.041568136812e-04 6.846086527242e-05 0.0 
6.846086527242e-05 5.567281703311e-03 0.0 
0.0 0.0 0.0 
-2.942223419427e-04 1.205462787669e-04 0.0 
1.205462787669e-04 5.334164447572e-03 0.0 
0.0 0.0 0.0 
2.913822912574e-04 -1.045792746662e-03 0.0 
-1.045792746662e-03 2.709236091900e-03 0.0 
0.0 0.0 0.0 
1.238345511918e-04 -5.418623376360e-04 0.0 
-5.418623376360e-04 4.790968928016e-03 0.0 
0.0 0.0 0.0 
2.149404665945e-04 -4.923923626707e-04 0.0 
-4.923923626707e-04 4.881859892576e-03 0.0 
0.0 0.0 0.0 
-2.525989846526e-04 -2.834012706349e-04 0.0 
-2.834012706349e-04 1.329528381293e-03 0.0 
0.0 0.0 0.0 
1.685806307733e-03 1.145651850696e-03 0.0 
1.145651850696e-03 -1.551496113830e-03 0.0 
0.0 0.0 0.0 
1.247054059118e-03 -2.796752829471e-04 0.0 
-2.796752829471e-04 1.468793265775e-03 0.0 
0.0 0.0 0.0 
1.076281903581e-03 -8.102634924283e-04 0.0 
-8.102634924283e-04 1.328179616531e-03 0.0 
0.0 0.0 0.0 
3.583166152521e-04 1.062427022276e-03 0.0 
1.062427022276e-03 2.677899998329e-03 0.0 
0.0 0.0 0.0 
-1.469910049152e-04 2.394436780516e-04 0.0 
2.394436780516e-04 7.463745690157e-03 0.0 
0.0 0.0 0.0 
-1.611940873608e-04 5.248918733311e-04 0.0 
5.248918733311e-04 6.748682736910e-03 0.0 
0.0 0.0 0.0 
-1.669421219629e-04 1.178803726014e-04 0.0 
1.178803726014e-04 7.214819872968e-03 0.0 
0.0 0.0 0.0 
-2.549868622204e-04 8.255153180016e-04 0.0 
8.255153180016e-04 3.327779295927e-03 0.0 
0.0 0.0 0.0 
-2.403448527154e-04 3.301242336110e-04 0.0 
3.301242336110e-04 6.528599463785e-03 0.0 
0.0 0.0 0.0 
2.674371266354e-05 -6.061761607746e-04 0.0 
-6.061761607746e-04 4.801306347145e-03 0.0 
0.0 0.0 0.0 
-1.432673154846e-04 2.495058563269e-04 0.0 
2.495058563269e-04 7.311893751883e-03 0.0 
0.0 0.0 0.0 
-2.999409510303e-04 2.049966379399e-04 0.0 
2.049966379399e-04 6.240314816825e-03 0.0 
0.0 0.0 0.0 
-3.514013783923e-05 -9.945613257190e-04 0.0 
-9.945613257190e-04 3.147461326018e-03 0.0 
0.0 0.0 0.0 
1.351887274100e-03 -3.981306783541e-05 0.0 
-3.981306783541e-05 1.094517016707e-03 0.0 
0.0 0.0 0.0 
-2.418775034538e-04 2.402852651227e-04 0.0 
2.402852651227e-04 6.469082650294e-03 0.0 
0.0 0.0 0.0 
-2.024792957797e-04 2.123122451414e-04 0.0 
2.123122451414e-04 7.091660159881e-03 0.0 
0.0 0.0 0.0 
-2.260230893251e-04 1.980909673904e-04 0.0 
1.980909673904e-04 6.537779286905e-03 0.0 
0.0 0.0 0.0 
-2.509617873750e-04 2.043703831405e-04 0.0 
2.043703831405e-04 6.309326508662e-03 0.0 
0.0 0.0 0.0 
7.889325336219e-05 -4.177358997856e-04 0.0 
-4.177358997856e-04 5.659730631020e-03 0.0 
0.0 0.0 0.0 
4.775271629938e-04 2.550720471450e-04 0.0 
2.550720471450e-04 5.295608916631e-03 0.0 
0.0 0.0 0.0 
1.769895860588e-04 -4.295613081974e-04 0.0 
-4.295613081974e-04 5.331864703664e-03 0.0 
0.0 0.0 0.0 
1.312540896081e-05 -6.624127351324e-04 0.0 
-6.624127351324e-04 4.306443813379e-03 0.0 
0.0 0.0 0.0 
-3.858183649282e-04 4.963112992715e-04 0.0 
4.963112992715e-04 3.582862059178e-03 0.0 
0.0 0.0 0.0 
6.961173248101e-04 -2.447302206882e-05 0.0 
-2.447302206882e-05 4.317901532314e-03 0.0 
0.0 0.0 0.0 
-2.831809345774e-04 3.531079268922e-04 0.0 
3.531079268922e-04 6.040382103139e-03 0.0 
0.0 0.0 0.0 
-5.244305740730e-04 -3.323287164971e-04 0.0 
-3.323287164971e-04 2.332354204111e-03 0.0 
0.0 0.0 0.0 
1.163961806214e-03 -5.435429919573e-04 0.0 
-5.435429919573e-04 1.511837019663e-03 0.0 
0.0 0.0 0.0 
9.922443008246e-04 -3.894624245407e-04 0.0 
-3.894624245407e-04 2.454249861536e-03 0.0 
0.0 0.0 0.0 
9.831965716021e-04 9.923247677252e-05 0.0 
9.923247677252e-05 3.006589797758e-03 0.0 
0.0 0.0 0.0 
2.102290764054e-03 -5.677811704013e-04 0.0 
-5.677811704013e-04 -2.259906001533e-03 0.0 
0.0 0.0 0.0 
1.320962234090e-03 -3.351103694804e-04 0.0 
-3.351103694804e-04 1.144491182711e-03 0.0 
0.0 0.0 0.0 
8.704119635654e-04 8.711351401146e-05 0.0 
8.711351401146e-05 3.556790988974e-03 0.0 
0.0 0.0 0.0 
-3.028720641555e-04 6.219027884597e-04 0.0 
6.219027884597e-04 3.933324009955e-03 0.0 
0.0 0.0 0.0 
-2.670567037277e-05 -8.595854645838e-04 0.0 
-8.595854645838e-04 3.524591823212e-03 0.0 
0.0 0.0 0.0 
-3.265439776400e-04 1.729608169442e-04 0.0 
1.729608169442e-04 5.846015207366e-03 0.0 
0.0 0.0 0.0 
-2.945304969756e-04 6.918655868862e-05 0.0 
6.918655868862e-05 4.709897535606e-03 0.0 
0.0 0.0 0.0 
-5.226418013007e-04 1.190079636150e-03 0.0 
1.190079636150e-03 3.519059821384e-04 0.0 
0.0 0.0 0.0 
1.295857626116e-05 -7.831257887565e-04 0.0 
-7.831257887565e-04 3.953824599320e-03 0.0 
0.0 0.0 0.0 
6.658923899185e-04 -1.044162432314e-04 0.0 
-1.044162432314e-04 4.308095603379e-03 0.0 
0.0 0.0 0.0 
-1.444378783717e-04 5.137739491773e-04 0.0 
5.137739491773e-04 7.005390428136e-03 0.0 
0.0 0.0 0.0 
1.148199853530e-03 1.614946895760e-04 0.0 
1.614946895760e-04 2.050371878424e-03 0.0 
0.0 0.0 0.0 
-1.004552845463e-06 -7.578399212729e-04 0.0 
-7.578399212729e-04 3.909040370493e-03 0.0 
0.0 0.0 0.0 
-3.097782784309e-04 1.305482267210e-04 0.0 
1.305482267210e-04 5.918752206760e-03 0.0 
0.0 0.0 0.0 
-5.902453927257e-04 1.032089746922e-03 0.0 
1.032089746922e-03 9.151155195892e-04 0.0 
0.0 0.0 0.0 
7.471292384105e-04 -5.684747475085e-06 0.0 
-5.684747475085e-06 4.021450855550e-03 0.0 
0.0 0.0 0.0 
1.042664275664e-03 -6.097043820001e-05 0.0 
-6.097043820001e-05 2.668098854613e-03 0.0 
0.0 0.0 0.0 
-3.207813177634e-04 5.725305264268e-04 0.0 
5.725305264268e-04 4.211833413639e-03 0.0 
0.0 0.0 0.0 
1.255150827544e-04 -5.683136845614e-04 0.0 
-5.683136845614e-04 4.893829807987e-03 0.0 
0.0 0.0 0.0 
9.987900900208e-04 -2.066310019767e-03 0.0 
-2.066310019767e-03 -1.149503755787e-03 0.0 
0.0 0.0 0.0 
2.098528333685e-04 -5.169325594859e-04 0.0 
-5.169325594859e-04 5.005932396341e-03 0.0 
0.0 0.0 0.0 
2.570764503897e-04 -3.219686339390e-04 0.0 
-3.219686339390e-04 5.613068802045e-03 0.0 
0.0 0.0 0.0 
8.068357901838e-04 1.094021334634e-04 0.0 
1.094021334634e-04 3.760034363118e-03 0.0 
0.0 0.0 0.0 
-2.560635576626e-04 1.507153886661e-04 0.0 
1.507153886661e-04 6.543547254302e-03 0.0 
0.0 0.0 0.0 
3.283729531034e-04 5.886733642028e-04 0.0 
5.886733642028e-04 5.147298187657e-03 0.0 
0.0 0.0 0.0 
2.205591132585e-04 -4.094849234285e-04 0.0 
-4.094849234285e-04 5.624311543921e-03 0.0 
0.0 0.0 0.0 
-6.071340928483e-04 8.798987446294e-04 0.0 
8.798987446294e-04 1.434825097314e-03 0.0 
0.0 0.0 0.0 
-3.059442674705e-04 1.667819354947e-04 0.0 
1.667819354947e-04 6.082785957784e-03 0.0 
0.0 0.0 0.0 
3.942579944045e-04 4.039438065468e-04 0.0 
4.039438065468e-04 5.478406801194e-03 0.0 
0.0 0.0 0.0 
-2.155399967388e-04 2.329781441386e-04 0.0 
2.329781441386e-04 6.699947768739e-03 0.0 
0.0 0.0 0.0 
9.194852004377e-04 1.205138227664e-04 0.0 
1.205138227664e-04 3.206945695166e-03 0.0 
0.0 0.0 0.0 
1.293858122110e-03 -7.068799914511e-05 0.0 
-7.068799914511e-05 1.476884979552e-03 0.0 
0.0 0.0 0.0 
-4.237905412314e-04 -5.234155954302e-04 0.0 
-5.234155954302e-04 4.421915419909e-03 0.0 
0.0 0.0 0.0 
2.313937631597e-03 4.665034822319e-04 0.0 
4.665034822319e-04 -4.357104403741e-03 0.0 
0.0 0.0 0.0 
-1.872090879664e-04 2.239966184224e-04 0.0 
2.239966184224e-04 6.926974632733e-03 0.0 
0.0 0.0 0.0 
-5.301202476347e-04 -2.674964291572e-04 0.0 
-2.674964291572e-04 2.528291371539e-03 0.0 
0.0 0.0 0.0 
-5.224560088297e-04 6.911562230231e-04 0.0 
6.911562230231e-04 1.862492202154e-03 0.0 
0.0 0.0 0.0 
2.658273074247e-04 6.361780035801e-04 0.0 
6.361780035801e-04 5.089396766184e-03 0.0 
0.0 0.0 0.0 
-1.285437699008e-04 2.008058583048e-04 0.0 
2.008058583048e-04 7.383981267964e-03 0.0 
0.0 0.0 0.0 
4.972616887229e-04 -2.330104225581e-03 0.0 
-2.330104225581e-03 -7.565144330902e-04 0.0 
0.0 0.0 0.0 
1.416703308210e-04 8.270117493218e-04 0.0 
8.270117493218e-04 3.914392632307e-03 0.0 
0.0 0.0 0.0 
-2.659216334463e-04 2.473486947586e-04 0.0 
2.473486947586e-04 6.235345029642e-03 0.0 
0.0 0.0 0.0 
-2.489696064970e-04 -7.761096723090e-04 0.0 
-7.761096723090e-04 3.881019593632e-03 0.0 
0.0 0.0 0.0 
1.875504886820e-03 -1.256927830868e-03 0.0 
-1.256927830868e-03 -2.149755577551e-03 0.0 
0.0 0.0 0.0 
5.193897881455e-04 1.553024636244e-03 0.0 
1.553024636244e-03 8.611372103904e-04 0.0 
0.0 0.0 0.0 
-3.969654112751e-04 -1.991572952791e-03 0.0 
-1.991572952791e-03 4.904108001058e-04 0.0 
0.0 0.0 0.0 
9.106750189674e-04 -2.053178128299e-03 0.0 
-2.053178128299e-03 -7.924189042811e-04 0.0 
0.0 0.0 0.0 
2.732824904479e-04 -2.226976306131e-03 0.0 
-2.226976306131e-03 -1.502525054399e-04 0.0 
0.0 0.0 0.0 
1.032405718218e-03 1.368551012787e-04 0.0 
1.368551012787e-04 2.638682837302e-03 0.0 
0.0 0.0 0.0 
-6.099750730593e-05 4.468936126421e-04 0.0 
4.468936126421e-04 7.955024213020e-03 0.0 
0.0 0.0 0.0 
-4.654811833974e-04 5.457333631902e-04 0.0 
5.457333631902e-04 2.308989193763e-03 0.0 
0.0 0.0 0.0 
-1.345677859477e-06 -4.012325438860e-04 0.0 
-4.012325438860e-04 5.972034301307e-03 0.0 
0.0 0.0 0.0 
1.371857087391e-03 5.688781632074e-04 0.0 
5.688781632074e-04 5.805824117637e-04 0.0 
0.0 0.0 0.0 
-3.229553832677e-04 2.142176918179e-04 0.0 
2.142176918179e-04 6.005516306731e-03 0.0 
0.0 0.0 0.0 
2.469945778031e-03 2.729816054783e-04 0.0 
2.729816054783e-04 -3.893424532389e-03 0.0 
0.0 0.0 0.0 
2.406200947616e-04 -3.504396618981e-04 0.0 
-3.504396618981e-04 5.797227251158e-03 0.0 
0.0 0.0 0.0 
-3.235596525863e-05 -2.264522589598e-03 0.0 
-2.264522589598e-03 -1.460161958009e-04 0.0 
0.0 0.0 0.0 
-5.904899118722e-04 -3.020917701153e-04 0.0 
-3.020917701153e-04 2.948003388784e-03 0.0 
0.0 0.0 0.0 
7.309905608928e-04 2.157895240291e-04 0.0 
2.157895240291e-04 4.076241579151e-03 0.0 
0.0 0.0 0.0 
6.541581933222e-04 -9.512399930987e-04 0.0 
-9.512399930987e-04 2.263988058111e-03 0.0 
0.0 0.0 0.0 
4.944416496151e-04 3.422703792811e-04 0.0 
3.422703792811e-04 5.137329862161e-03 0.0 
0.0 0.0 0.0 
1.101901798841e-04 1.271739665573e-03 0.0 
1.271739665573e-03 2.157276575394e-03 0.0 
0.0 0.0 0.0 
-2.984616096260e-04 3.057154832292e-04 0.0 
3.057154832292e-04 6.291316018284e-03 0.0 
0.0 0.0 0.0 
4.149214807885e-04 2.664429644253e-04 0.0 
2.664429644253e-04 5.464761923489e-03 0.0 
0.0 0.0 0.0 
-2.739102282194e-04 2.100979351205e-04 0.0 
2.100979351205e-04 6.077904129305e-03 0.0 
0.0 0.0 0.0 
-1.771524427618e-04 4.776863299153e-04 0.0 
4.776863299153e-04 7.010989293564e-03 0.0 
0.0 0.0 0.0 
-2.639722812985e-04 2.362256295683e-04 0.0 
2.362256295683e-04 6.626679164160e-03 0.0 
0.0 0.0 0.0 
-2.497425098191e-04 2.784951248729e-04 0.0 
2.784951248729e-04 6.773253731180e-03 0.0 
0.0 0.0 0.0 
1.325617577368e-03 2.012813769647e-03 0.0 
2.012813769647e-03 -2.027987004916e-03 0.0 
0.0 0.0 0.0 
-6.774568734025e-05 -4.110647809328e-04 0.0 
-4.110647809328e-04 5.851358024890e-03 0.0 
0.0 0.0 0.0 
-2.549692976814e-04 2.872672694581e-04 0.0 
2.872672694581e-04 6.386543674350e-03 0.0 
0.0 0.0 0.0 
9.503514603566e-04 7.111716200355e-04 0.0 
7.111716200355e-04 2.136863221060e-03 0.0 
0.0 0.0 0.0 
-4.360346972985e-04 4.291193390388e-04 0.0 
4.291193390388e-04 2.755429643721e-03 0.0 
0.0 0.0 0.0 
3.516592401704e-04 2.495004772387e-04 0.0 
2.495004772387e-04 5.800886195447e-03 0.0 
0.0 0.0 0.0 
2.017257982450e-03 7.751693028422e-04 0.0 
7.751693028422e-04 -2.325593507321e-03 0.0 
0.0 0.0 0.0 
-5.208888978511e-04 -3.251360128054e-04 0.0 
-3.251360128054e-04 2.720150825829e-03 0.0 
0.0 0.0 0.0 
5.464837572400e-04 3.782417403048e-04 0.0 
3.782417403048e-04 4.766744134907e-03 0.0 
0.0 0.0 0.0 
-1.617575619544e-04 1.243317175252e-06 0.0 
1.243317175252e-06 1.638993358023e-03 0.0 
0.0 0.0 0.0 
5.218032182452e-04 8.932970941546e-04 0.0 
8.932970941546e-04 3.071378869243e-03 0.0 
0.0 0.0 0.0 
6.910636358308e-04 1.019847816837e-04 0.0 
1.019847816837e-04 4.301037488482e-03 0.0 
0.0 0.0 0.0 
-1.987278544934e-04 3.098710524980e-04 0.0 
3.098710524980e-04 7.140782024988e-03 0.0 
0.0 0.0 0.0 
-1.777300931706e-04 3.591985766498e-04 0.0 
3.591985766498e-04 7.282268581185e-03 0.0 
0.0 0.0 0.0 
7.559031571804e-04 8.072438021526e-05 0.0 
8.072438021526e-05 4.095772081998e-03 0.0 
0.0 0.0 0.0 
-2.345266279002e-04 2.249521343998e-04 0.0 
2.249521343998e-04 6.860385727519e-03 0.0 
0.0 0.0 0.0 
1.187431716316e-03 7.363213173953e-04 0.0 
7.363213173953e-04 1.088159517608e-03 0.0 
0.0 0.0 0.0 
1.050785639147e-04 6.458968220062e-04 0.0 
6.458968220062e-04 5.414779868508e-03 0.0 
0.0 0.0 0.0 
-4.180691823831e-04 3.405785276322e-04 0.0 
3.405785276322e-04 3.204865132015e-03 0.0 
0.0 0.0 0.0 
-9.522639613380e-05 6.110338152034e-04 0.0 
6.110338152034e-04 6.625520127514e-03 0.0 
0.0 0.0 0.0 
-4.048702470071e-04 2.794672070350e-04 0.0 
2.794672070350e-04 3.656994731594e-03 0.0 
0.0 0.0 0.0 
-3.879755249407e-04 2.521340775898e-04 0.0 
2.521340775898e-04 3.881172868094e-03 0.0 
0.0 0.0 0.0 
1.155182618279e-03 3.818996125447e-04 0.0 
3.818996125447e-04 1.826516084626e-03 0.0 
0.0 0.0 0.0 
-3.888840568610e-04 2.410574002889e-04 0.0 
2.410574002889e-04 4.111963874339e-03 0.0 
0.0 0.0 0.0 
6.377840208036e-04 7.006312968504e-04 0.0 
7.006312968504e-04 3.479858446573e-03 0.0 
0.0 0.0 0.0 
8.438509503017e-04 9.089794448243e-04 0.0 
9.089794448243e-04 2.141029634609e-03 0.0 
0.0 0.0 0.0 
1.189592385701e-03 -2.916935762028e-04 0.0 
-2.916935762028e-04 1.767590161946e-03 0.0 
0.0 0.0 0.0 
1.943704352413e-03 -1.298346882538e-03 0.0 
-1.298346882538e-03 -2.277801116735e-03 0.0 
0.0 0.0 0.0 
1.269751289565e-03 1.976886589511e-04 0.0 
1.976886589511e-04 1.436287660359e-03 0.0 
0.0 0.0 0.0 
-1.716273900878e-04 2.607586692003e-04 0.0 
2.607586692003e-04 7.085785504223e-03 0.0 
0.0 0.0 0.0 
-1.206322959448e-04 5.819395168909e-04 0.0 
5.819395168909e-04 6.874641836856e-03 0.0 
0.0 0.0 0.0 
-7.388169041156e-05 -4.576553793501e-04 0.0 
-4.576553793501e-04 5.445318751723e-03 0.0 
0.0 0.0 0.0 
4.409251471573e-04 3.514102650734e-04 0.0 
3.514102650734e-04 5.281470589620e-03 0.0 
0.0 0.0 0.0 
8.279967042626e-04 -7.860116302257e-04 0.0 
-7.860116302257e-04 2.237134531201e-03 0.0 
0.0 0.0 0.0 
-2.134199801549e-04 3.211700495612e-04 0.0 
3.211700495612e-04 6.767976252991e-03 0.0 
0.0 0.0 0.0 
1.218610084447e-03 -3.953259719466e-05 0.0 
-3.953259719466e-05 1.729739758452e-03 0.0 
0.0 0.0 0.0 
-1.237470590477e-04 -3.732851498462e-04 0.0 
-3.732851498462e-04 6.136012401187e-03 0.0 
0.0 0.0 0.0 
-2.291620603607e-04 2.791249478547e-04 0.0 
2.791249478547e-04 6.621511537487e-03 0.0 
0.0 0.0 0.0 
-2.762062778413e-04 2.914975105023e-04 0.0 
2.914975105023e-04 6.533540669221e-03 0.0 
0.0 0.0 0.0 
8.621821390107e-04 -1.601171531949e-05 0.0 
-1.601171531949e-05 3.472880251928e-03 0.0 
0.0 0.0 0.0 
1.261607946420e-03 4.627746802074e-04 0.0 
4.627746802074e-04 1.217300106957e-03 0.0 
0.0 0.0 0.0 
9.596256062383e-05 6.268070692407e-04 0.0 
6.268070692407e-04 5.814515638673e-03 0.0 
0.0 0.0 0.0 
-1.720542565489e-04 6.370644784906e-04 0.0 
6.370644784906e-04 4.926494681018e-03 0.0 
0.0 0.0 0.0 
1.491797836536e-03 -1.962747529113e-03 0.0 
-1.962747529113e-03 -2.168917718586e-03 0.0 
0.0 0.0 0.0 
2.185948609100e-03 8.644538506729e-05 0.0 
8.644538506729e-05 -2.216388376639e-03 0.0 
0.0 0.0 0.0 
2.143427841013e-04 1.283060848597e-03 0.0 
1.283060848597e-03 1.987868758059e-03 0.0 
0.0 0.0 0.0 
6.510547430949e-05 8.469994030287e-04 0.0 
8.469994030287e-04 3.911973922152e-03 0.0 
0.0 0.0 0.0 
-1.623111646770e-04 -3.295668154198e-04 0.0 
-3.295668154198e-04 6.407402816139e-03 0.0 
0.0 0.0 0.0 
-2.904426051048e-04 2.468942195769e-04 0.0 
2.468942195769e-04 6.391464583807e-03 0.0 
0.0 0.0 0.0 
1.345533835213e-03 1.922986014278e-04 0.0 
1.922986014278e-04 1.258197563598e-03 0.0 
0.0 0.0 0.0 
8.744078295897e-05 7.185362823256e-04 0.0 
7.185362823256e-04 4.641829932085e-03 0.0 
0.0 0.0 0.0 
6.303234574294e-04 6.952893351059e-06 0.0 
6.952893351059e-06 4.565390932087e-03 0.0 
0.0 0.0 0.0 
-2.170033338573e-04 1.760214011762e-04 0.0 
1.760214011762e-04 6.932962204192e-03 0.0 
0.0 0.0 0.0 
2.736239230416e-05 6.352039283683e-04 0.0 
6.352039283683e-04 6.153340039119e-03 0.0 
0.0 0.0 0.0 
-3.069822276619e-04 2.598625643860e-04 0.0 
2.598625643860e-04 5.764841251442e-03 0.0 
0.0 0.0 0.0 
4.610390263919e-04 -2.391888642820e-04 0.0 
-2.391888642820e-04 4.965440137006e-03 0.0 
0.0 0.0 0.0 
1.163937702730e-03 -6.821721292533e-05 0.0 
-6.821721292533e-05 2.084874206273e-03 0.0 
0.0 0.0 0.0 
6.168512281546e-04 -1.185635682934e-04 0.0 
-1.185635682934e-04 4.577004147726e-03 0.0 
0.0 0.0 0.0 
3.930886009560e-04 9.568250361772e-04 0.0 
9.568250361772e-04 3.062604941574e-03 0.0 
0.0 0.0 0.0 
-1.862161817244e-04 2.551232677747e-04 0.0 
2.551232677747e-04 7.236938661004e-03 0.0 
0.0 0.0 0.0 
-1.060514850837e-05 6.269496368735e-04 0.0 
6.269496368735e-04 6.514319562225e-03 0.0 
0.0 0.0 0.0 
9.768318512418e-04 -2.606940405540e-05 0.0 
-2.606940405540e-05 2.910910246074e-03 0.0 
0.0 0.0 0.0 
2.269176947825e-03 1.732660788682e-04 0.0 
1.732660788682e-04 -2.941616672545e-03 0.0 
0.0 0.0 0.0 
3.199360798760e-04 6.036534671353e-04 0.0 
6.036534671353e-04 5.207957203571e-03 0.0 
0.0 0.0 0.0 
5.237543758740e-04 7.927112018502e-04 0.0 
7.927112018502e-04 3.474272052084e-03 0.0 
0.0 0.0 0.0 
1.329743036302e-03 4.816633777591e-04 0.0 
4.816633777591e-04 1.127005077816e-03 0.0 
0.0 0.0 0.0 
9.265548527488e-04 -5.068911136516e-05 0.0 
-5.068911136516e-05 3.232502503503e-03 0.0 
0.0 0.0 0.0 
3.846656043918e-04 -4.367744205113e-04 0.0 
-4.367744205113e-04 4.802890483603e-03 0.0 
0.0 0.0 0.0 
2.254338791402e-03 -6.469017025446e-04 0.0 
-6.469017025446e-04 -2.808676654782e-03 0.0 
0.0 0.0 0.0 
1.094623642768e-03 -3.465897184740e-05 0.0 
-3.465897184740e-05 2.331595316839e-03 0.0 
0.0 0.0 0.0 
-2.553264621411e-04 5.092159251873e-04 0.0 
5.092159251873e-04 5.455797477818e-03 0.0 
0.0 0.0 0.0 
-1.939595118275e-04 -3.791013878830e-04 0.0 
-3.791013878830e-04 6.414490113375e-03 0.0 
0.0 0.0 0.0 
-2.100162160925e-04 5.568531356557e-04 0.0 
5.568531356557e-04 5.525786217482e-03 0.0 
0.0 0.0 0.0 
2.711583564410e-04 6.564923518201e-04 0.0 
6.564923518201e-04 5.137735646784e-03 0.0 
0.0 0.0 0.0 
-2.923351161996e-04 4.569519193958e-04 0.0 
4.569519193958e-04 5.374198836466e-03 0.0 
0.0 0.0 0.0 
-3.436414071328e-04 3.499023836099e-04 0.0 
3.499023836099e-04 5.172663926391e-03 0.0 
0.0 0.0 0.0 
-1.016677160273e-04 6.756007406183e-04 0.0 
6.756007406183e-04 4.959593572623e-03 0.0 
0.0 0.0 0.0 
5.320938611018e-04 2.839985134958e-04 0.0 
2.839985134958e-04 4.942037237019e-03 0.0 
0.0 0.0 0.0 
-5.626945223980e-05 -5.030865728397e-04 0.0 
-5.030865728397e-04 5.558363452691e-03 0.0 
0.0 0.0 0.0 
-2.781574857119e-04 2.953665397373e-04 0.0 
2.953665397373e-04 6.148806616291e-03 0.0 
0.0 0.0 0.0 
-1.445655934287e-04 3.963193219625e-04 0.0 
3.963193219625e-04 7.277483824119e-03 0.0 
0.0 0.0 0.0 
-3.214693795305e-04 4.027704932118e-04 0.0 
4.027704932118e-04 5.280446505281e-03 0.0 
0.0 0.0 0.0 
1.627693683804e-03 3.412344063898e-04 0.0 
3.412344063898e-04 -3.179422316968e-05 0.0 
0.0 0.0 0.0 
2.747507711001e-04 5.578672885429e-04 0.0 
5.578672885429e-04 5.589145931900e-03 0.0 
0.0 0.0 0.0 
-1.679500000873e-04 1.983178270485e-04 0.0 
1.983178270485e-04 7.317885513515e-03 0.0 
0.0 0.0 0.0 
6.754468960481e-04 8.993199892932e-04 0.0 
8.993199892932e-04 2.574461741337e-03 0.0 
0.0 0.0 0.0 
5.344578518576e-04 8.889155413668e-04 0.0 
8.889155413668e-04 3.031261146436e-03 0.0 
0.0 0.0 0.0 
1.481389603610e-03 2.542482719496e-04 0.0 
2.542482719496e-04 6.291562788947e-04 0.0 
0.0 0.0 0.0 
-2.637111832325e-04 3.407718597404e-04 0.0 
3.407718597404e-04 6.286516923035e-03 0.0 
0.0 0.0 0.0 
-1.236509315877e-04 9.897218373594e-04 0.0 
9.897218373594e-04 2.947229784877e-03 0.0 
0.0 0.0 0.0 
6.232900552299e-04 6.986254884061e-04 0.0 
6.986254884061e-04 3.505048747945e-03 0.0 
0.0 0.0 0.0 
-6.368908240229e-05 1.017350404452e-03 0.0 
1.017350404452e-03 2.943195485232e-03 0.0 
0.0 0.0 0.0 
6.426415347345e-04 3.057178629271e-04 0.0 
3.057178629271e-04 4.414763288840e-03 0.0 
0.0 0.0 0.0 
2.002335782283e-04 5.537645018384e-04 0.0 
5.537645018384e-04 6.022796386310e-03 0.0 
0.0 0.0 0.0 
1.433695567948e-03 -6.589253600136e-05 0.0 
-6.589253600136e-05 8.416761902608e-04 0.0 
0.0 0.0 0.0 
2.251373916147e-03 -6.825886448083e-04 0.0 
-6.825886448083e-04 -4.170868150741e-03 0.0 
0.0 0.0 0.0 
-1.446209582348e-04 4.595009592588e-04 0.0 
4.595009592588e-04 7.160734686200e-03 0.0 
0.0 0.0 0.0 
-1.711618033082e-04 8.780265722589e-04 0.0 
8.780265722589e-04 3.297855499163e-03 0.0 
0.0 0.0 0.0 
9.348995991931e-04 -5.895598448391e-04 0.0 
-5.895598448391e-04 2.313906395446e-03 0.0 
0.0 0.0 0.0 
2.724984056102e-04 5.813748558797e-04 0.0 
5.813748558797e-04 5.666566983445e-03 0.0 
0.0 0.0 0.0 
-3.135284361007e-04 2.590426553576e-04 0.0 
2.590426553576e-04 6.153249183137e-03 0.0 
0.0 0.0 0.0 
2.594963925873e-05 -5.375654528038e-04 0.0 
-5.375654528038e-04 5.233925395488e-03 0.0 
0.0 0.0 0.0 
1.034927324749e-03 8.686173928645e-04 0.0 
8.686173928645e-04 1.632204730344e-03 0.0 
0.0 0.0 0.0 
2.028733339234e-03 -3.970891079307e-04 0.0 
-3.970891079307e-04 -4.404727877144e-03 0.0 
0.0 0.0 0.0 
-2.099754897203e-04 -3.406501708293e-04 0.0 
-3.406501708293e-04 6.690685021012e-03 0.0 
0.0 0.0 0.0 
1.827573208437e-04 8.491923093247e-04 0.0 
8.491923093247e-04 3.890647194726e-03 0.0 
0.0 0.0 0.0 
6.884889532854e-04 4.027562351284e-04 0.0 
4.027562351284e-04 4.114409421428e-03 0.0 
0.0 0.0 0.0 
1.183554576627e-04 6.660941027727e-04 0.0 
6.660941027727e-04 5.883254855229e-03 0.0 
0.0 0.0 0.0 
1.181280036742e-03 -1.628624815076e-04 0.0 
-1.628624815076e-04 -4.881762077568e-03 0.0 
0.0 0.0 0.0 
1.046579931545e-04 -4.711113902025e-04 0.0 
-4.711113902025e-04 5.223174354280e-03 0.0 
0.0 0.0 0.0 
1.041344658690e-03 1.495101993301e-03 0.0 
1.495101993301e-03 2.270753700269e-04 0.0 
0.0 0.0 0.0 
-3.440365662929e-04 2.245859471769e-04 0.0 
2.245859471769e-04 5.768945299282e-03 0.0 
0.0 0.0 0.0 
-2.176147261945e-04 -7.010288220791e-04 0.0 
-7.010288220791e-04 4.260532871965e-03 0.0 
0.0 0.0 0.0 
1.398684735556e-03 2.489612474961e-04 0.0 
2.489612474961e-04 7.897302977804e-04 0.0 
0.0 0.0 0.0 
-1.656624047106e-04 -4.208859729294e-04 0.0 
-4.208859729294e-04 6.143601783734e-03 0.0 
0.0 0.0 0.0 
5.265614369203e-04 7.921787188596e-04 0.0 
7.921787188596e-04 3.466568314904e-03 0.0 
0.0 0.0 0.0 
1.536870281411e-03 3.223931601372e-04 0.0 
3.223931601372e-04 1.063641354815e-04 0.0 
0.0 0.0 0.0 
1.730682669439e-04 7.652477935930e-04 0.0 
7.652477935930e-04 4.277004794289e-03 0.0 
0.0 0.0 0.0 
1.780592428523e-03 -1.725197135272e-03 0.0 
-1.725197135272e-03 -4.164407711576e-03 0.0 
0.0 0.0 0.0 
1.884241543177e-04 6.641670108081e-04 0.0 
6.641670108081e-04 5.052800380944e-03 0.0 
0.0 0.0 0.0 
6.791127214603e-04 1.833419725547e-04 0.0 
1.833419725547e-04 4.432879175090e-03 0.0 
0.0 0.0 0.0 
-4.560683458588e-05 6.185319009958e-04 0.0 
6.185319009958e-04 6.778304512652e-03 0.0 
0.0 0.0 0.0 
1.736313953768e-04 6.293845928000e-04 0.0 
6.293845928000e-04 5.462906520900e-03 0.0 
0.0 0.0 0.0 
1.959311832623e-03 1.816915371231e-05 0.0 
1.816915371231e-05 -1.345895638788e-03 0.0 
0.0 0.0 0.0 
-1.435973565640e-04 -5.061210282352e-04 0.0 
-5.061210282352e-04 5.453376889434e-03 0.0 
0.0 0.0 0.0 
-1.141494465924e-04 2.866082059276e-04 0.0 
2.866082059276e-04 7.461878808789e-03 0.0 
0.0 0.0 0.0 
2.369306211483e-04 3.289538465661e-04 0.0 
3.289538465661e-04 6.126810596097e-03 0.0 
0.0 0.0 0.0 
5.894770761374e-04 2.716457293434e-04 0.0 
2.716457293434e-04 4.782418720962e-03 0.0 
0.0 0.0 0.0 
1.158616075861e-03 6.354338658794e-04 0.0 
6.354338658794e-04 1.629545164580e-03 0.0 
0.0 0.0 0.0 
1.879860487912e-04 7.100240689765e-04 0.0 
7.100240689765e-04 4.657595311673e-03 0.0 
0.0 0.0 0.0 
-2.519519379269e-04 -2.536852189781e-04 0.0 
-2.536852189781e-04 6.511478712892e-03 0.0 
0.0 0.0 0.0 
-6.332966944618e-04 -1.922746828557e-04 0.0 
-1.922746828557e-04 4.626657746013e-03 0.0 
0.0 0.0 0.0 
2.067025561781e-04 6.876639211852e-04 0.0 
6.876639211852e-04 5.082325174875e-03 0.0 
0.0 0.0 0.0 
-2.876528397251e-04 2.533760217213e-04 0.0 
2.533760217213e-04 6.000955593923e-03 0.0 
0.0 0.0 0.0 
-1.197323423466e-04 -4.635489130585e-04 0.0 
-4.635489130585e-04 5.859719397732e-03 0.0 
0.0 0.0 0.0 
1.086893759690e-04 -5.042087300907e-04 0.0 
-5.042087300907e-04 5.343826326621e-03 0.0 
0.0 0.0 0.0 
-2.691630699178e-04 4.680527682276e-06 0.0 
4.680527682276e-06 4.437486662162e-03 0.0 
0.0 0.0 0.0 
-2.645412069623e-04 8.883573433895e-06 0.0 
8.883573433895e-06 4.435578352291e-03 0.0 
0.0 0.0 0.0 
-2.750120514079e-04 4.605283951475e-04 0.0 
4.605283951475e-04 5.736403416630e-03 0.0 
0.0 0.0 0.0 
2.120681868296e-04 7.322093921320e-04 0.0 
7.322093921320e-04 4.670653500937e-03 0.0 
0.0 0.0 0.0 
-2.983360264562e-04 -6.098168931466e-04 0.0 
-6.098168931466e-04 4.581205999958e-03 0.0 
0.0 0.0 0.0 
-1.190906751634e-04 6.140816964782e-04 0.0 
6.140816964782e-04 5.282651803104e-03 0.0 
0.0 0.0 0.0 
6.563891737159e-04 7.887646579936e-04 0.0 
7.887646579936e-04 3.034086558281e-03 0.0 
0.0 0.0 0.0 
4.088640972360e-04 -7.503805856259e-05 0.0 
-7.503805856259e-05 5.340565179760e-03 0.0 
0.0 0.0 0.0 
1.005207715251e-03 8.360309775172e-04 0.0 
8.360309775172e-04 1.600417272668e-03 0.0 
0.0 0.0 0.0 
-6.490135322890e-05 3.977419022050e-04 0.0 
3.977419022050e-04 7.989488547816e-03 0.0 
0.0 0.0 0.0 
-3.608449066504e-04 3.110750912835e-04 0.0 
3.110750912835e-04 4.812221852158e-03 0.0 
0.0 0.0 0.0 
6.639117688907e-04 7.977853293853e-04 0.0 
7.977853293853e-04 3.044419448612e-03 0.0 
0.0 0.0 0.0 
-1.155849075902e-04 -6.742580995971e-04 0.0 
-6.742580995971e-04 4.255552359176e-03 0.0 
0.0 0.0 0.0 
1.955212322162e-03 6.357562812308e-04 0.0 
6.357562812308e-04 -1.473468586313e-03 0.0 
0.0 0.0 0.0 
-1.521425443164e-04 -8.848093058248e-04 0.0 
-8.848093058248e-04 3.529251770110e-03 0.0 
0.0 0.0 0.0 
2.044154873904e-04 7.868239284943e-04 0.0 
7.868239284943e-04 4.272630474386e-03 0.0 
0.0 0.0 0.0 
-1.981498225279e-06 7.836158756364e-04 0.0 
7.836158756364e-04 4.277200761739e-03 0.0 
0.0 0.0 0.0 
-2.985416449065e-04 3.051681118538e-04 0.0 
3.051681118538e-04 5.909058614250e-03 0.0 
0.0 0.0 0.0 
-6.956597141583e-05 6.643922392829e-04 0.0 
6.643922392829e-04 5.322913638597e-03 0.0 
0.0 0.0 0.0 
-9.127244361129e-05 6.051814306511e-04 0.0 
6.051814306511e-04 5.645579023352e-03 0.0 
0.0 0.0 0.0 
9.019898779838e-05 -4.151739447015e-05 0.0 
-4.151739447015e-05 1.082361903946e-03 0.0 
0.0 0.0 0.0 
-1.844235129393e-04 -8.475401941619e-04 0.0 
-8.475401941619e-04 3.513443837422e-03 0.0 
0.0 0.0 0.0 
-1.270497381294e-04 9.066714420362e-04 0.0 
9.066714420362e-04 3.294365358966e-03 0.0 
0.0 0.0 0.0 
-1.954583829937e-04 5.924757033840e-04 0.0 
5.924757033840e-04 5.230435527006e-03 0.0 
0.0 0.0 0.0 
-2.139581882449e-04 5.408964987931e-04 0.0 
5.408964987931e-04 5.528995718383e-03 0.0 
0.0 0.0 0.0 
4.948286029556e-04 1.845762358143e-04 0.0 
1.845762358143e-04 5.125114157845e-03 0.0 
0.0 0.0 0.0 
-2.662523722587e-04 -1.600473364664e-05 0.0 
-1.600473364664e-05 1.859529070155e-03 0.0 
0.0 0.0 0.0 
2.093784660081e-03 -1.476029345176e-03 0.0 
-1.476029345176e-03 -3.104835148432e-03 0.0 
0.0 0.0 0.0 
2.795770643549e-04 9.045249671361e-04 0.0 
9.045249671361e-04 3.488742588160e-03 0.0 
0.0 0.0 0.0 
-2.872148207060e-04 -8.497821040377e-04 0.0 
-8.497821040377e-04 3.514366033741e-03 0.0 
0.0 0.0 0.0 
-4.318839176963e-04 2.531338051178e-04 0.0 
2.531338051178e-04 3.881432107131e-03 0.0 
0.0 0.0 0.0 
-4.208048897026e-04 2.318569538367e-04 0.0 
2.318569538367e-04 4.113395374888e-03 0.0 
0.0 0.0 0.0 
-3.321801372531e-04 2.739461535091e-04 0.0 
2.739461535091e-04 5.912835768791e-03 0.0 
0.0 0.0 0.0 
1.132129677918e-03 2.103297204908e-03 0.0 
2.103297204908e-03 -1.372078223318e-03 0.0 
0.0 0.0 0.0 
-2.420761076860e-04 -6.620902350764e-04 0.0 
-6.620902350764e-04 4.204452754943e-03 0.0 
0.0 0.0 0.0 
6.334582002339e-04 -2.322388235113e-04 0.0 
-2.322388235113e-04 4.327680153430e-03 0.0 
0.0 0.0 0.0 
2.327480971233e-03 -6.091297625852e-04 0.0 
-6.091297625852e-04 -3.293544786609e-03 0.0 
0.0 0.0 0.0 
5.255038786922e-05 6.103036077843e-04 0.0 
6.103036077843e-04 6.635210131719e-03 0.0 
0.0 0.0 0.0 
-2.185130911483e-04 2.679317562566e-04 0.0 
2.679317562566e-04 7.002175153283e-03 0.0 
0.0 0.0 0.0 
-4.287589967685e-04 -6.211539641739e-04 0.0 
-6.211539641739e-04 4.142314179760e-03 0.0 
0.0 0.0 0.0 
-1.450568499561e-04 -4.089719855074e-04 0.0 
-4.089719855074e-04 5.742200929847e-03 0.0 
0.0 0.0 0.0 
3.871288684110e-05 -1.624397775746e-05 0.0 
-1.624397775746e-05 7.399319393135e-04 0.0 
0.0 0.0 0.0 
6.195934298390e-04 -3.538444776637e-04 0.0 
-3.538444776637e-04 4.111692714505e-03 0.0 
0.0 0.0 0.0 
2.727463476260e-04 8.127148398956e-04 0.0 
8.127148398956e-04 3.895498476070e-03 0.0 
0.0 0.0 0.0 
9.521954975567e-05 -1.410308928564e-05 0.0 
-1.410308928564e-05 7.174536738570e-04 0.0 
0.0 0.0 0.0 
-1.837858874072e-04 3.090009909673e-04 0.0 
3.090009909673e-04 6.998449591224e-03 0.0 
0.0 0.0 0.0 
2.447614690710e-03 -6.818043349037e-04 0.0 
-6.818043349037e-04 -3.736718456177e-03 0.0 
0.0 0.0 0.0 
-1.888285660034e-04 5.794092148714e-04 0.0 
5.794092148714e-04 5.232393111368e-03 0.0 
0.0 0.0 0.0 
5.734013727765e-05 7.656223063011e-04 0.0 
7.656223063011e-04 4.279355423414e-03 0.0 
0.0 0.0 0.0 
9.827876787540e-04 -6.889392545481e-04 0.0 
-6.889392545481e-04 1.918025853528e-03 0.0 
0.0 0.0 0.0 
5.330807146740e-04 -5.877068094712e-04 0.0 
-5.877068094712e-04 3.666289206181e-03 0.0 
0.0 0.0 0.0 
-1.674300403240e-04 3.512933244811e-04 0.0 
3.512933244811e-04 7.138203675152e-03 0.0 
0.0 0.0 0.0 
4.731584657089e-04 -4.943253385211e-04 0.0 
-4.943253385211e-04 4.152888688959e-03 0.0 
0.0 0.0 0.0 
4.088712927452e-04 8.614480884215e-04 0.0 
8.614480884215e-04 3.464518427828e-03 0.0 
0.0 0.0 0.0 
3.884022296692e-04 8.568290285033e-04 0.0 
8.568290285033e-04 3.495179262719e-03 0.0 
0.0 0.0 0.0 
-5.261062292286e-04 1.245628750864e-03 0.0 
1.245628750864e-03 1.574750120454e-04 0.0 
0.0 0.0 0.0 
2.340911701789e-03 -5.289573629821e-04 0.0 
-5.289573629821e-04 -3.915521520942e-03 0.0 
0.0 0.0 0.0 
2.333104340484e-04 6.051104802745e-04 0.0 
6.051104802745e-04 5.509469470222e-03 0.0 
0.0 0.0 0.0 
-3.620203628371e-04 3.058989841757e-04 0.0 
3.058989841757e-04 5.423260752747e-03 0.0 
0.0 0.0 0.0 
2.350078884867e-04 6.281906611104e-04 0.0 
6.281906611104e-04 5.576710317596e-03 0.0 
0.0 0.0 0.0 
7.412727532530e-04 1.655728362567e-03 0.0 
1.655728362567e-03 2.044687537601e-04 0.0 
0.0 0.0 0.0 
-2.054675709655e-04 4.943228440012e-04 0.0 
4.943228440012e-04 6.378177101938e-03 0.0 
0.0 0.0 0.0 
1.440973529390e-04 6.123621075875e-04 0.0 
6.123621075875e-04 5.887134841134e-03 0.0 
0.0 0.0 0.0 
-3.825625037793e-04 2.973441828244e-04 0.0 
2.973441828244e-04 4.224498207335e-03 0.0 
0.0 0.0 0.0 
1.855083638946e-04 6.513170357948e-04 0.0 
6.513170357948e-04 5.501780107742e-03 0.0 
0.0 0.0 0.0 
-2.023469682912e-04 -4.525810229102e-04 0.0 
-4.525810229102e-04 5.749457238236e-03 0.0 
0.0 0.0 0.0 
3.041219918205e-04 7.570004265314e-04 0.0 
7.570004265314e-04 4.282188192366e-03 0.0 
0.0 0.0 0.0 
-1.445378717975e-04 -7.607251743081e-04 0.0 
-7.607251743081e-04 3.878056685450e-03 0.0 
0.0 0.0 0.0 
-1.209056100692e-04 -7.941294314190e-04 0.0 
-7.941294314190e-04 3.915286107916e-03 0.0 
0.0 0.0 0.0 
-1.847583424687e-04 4.212311954076e-04 0.0 
4.212311954076e-04 7.173280377194e-03 0.0 
0.0 0.0 0.0 
5.873201933257e-04 -6.960152651609e-04 0.0 
-6.960152651609e-04 3.182365568694e-03 0.0 
0.0 0.0 0.0 
1.005806368115e-04 7.955751823025e-04 0.0 
7.955751823025e-04 4.273200700926e-03 0.0 
0.0 0.0 0.0 
8.868172082119e-04 6.114720261512e-04 0.0 
6.114720261512e-04 2.669727093112e-03 0.0 
0.0 0.0 0.0 
4.059139273700e-04 -4.185787753308e-04 0.0 
-4.185787753308e-04 4.641170453387e-03 0.0 
0.0 0.0 0.0 
8.185203714479e-04 7.807599702286e-04 0.0 
7.807599702286e-04 2.590995135839e-03 0.0 
0.0 0.0 0.0 
1.837154141945e-03 1.949553054426e-05 0.0 
1.949553054426e-05 -1.073334525397e-03 0.0 
0.0 0.0 0.0 
1.003746157037e-03 -1.974765689458e-04 0.0 
-1.974765689458e-04 2.656128796677e-03 0.0 
0.0 0.0 0.0 
1.685827417019e-03 4.241440625859e-04 0.0 
4.241440625859e-04 -6.285407443409e-04 0.0 
0.0 0.0 0.0 
-1.353977907704e-04 6.350697197805e-04 0.0 
6.350697197805e-04 5.279742009671e-03 0.0 
0.0 0.0 0.0 
1.761483419052e-03 -2.668924783745e-05 0.0 
-2.668924783745e-05 -5.589669878346e-04 0.0 
0.0 0.0 0.0 
-7.238556042033e-05 6.583565654158e-04 0.0 
6.583565654158e-04 4.961800233148e-03 0.0 
0.0 0.0 0.0 
5.600522624494e-04 1.731849410009e-04 0.0 
1.731849410009e-04 4.958921152071e-03 0.0 
0.0 0.0 0.0 
6.164724438356e-04 1.975754324821e-04 0.0 
1.975754324821e-04 4.609400153402e-03 0.0 
0.0 0.0 0.0 
8.328876060912e-04 8.861568091031e-04 0.0 
8.861568091031e-04 2.097752678064e-03 0.0 
0.0 0.0 0.0 
-3.131990680646e-04 3.174871182743e-04 0.0 
3.174871182743e-04 5.664728166725e-03 0.0 
0.0 0.0 0.0 
-1.977738095176e-04 -3.577625995775e-04 0.0 
-3.577625995775e-04 6.019983033794e-03 0.0 
0.0 0.0 0.0 
-2.442358701857e-04 -3.988502054088e-04 0.0 
-3.988502054088e-04 6.026882240305e-03 0.0 
0.0 0.0 0.0 
7.203136323775e-04 2.274822054300e-03 0.0 
2.274822054300e-03 -1.461195298950e-03 0.0 
0.0 0.0 0.0 
-2.482183063512e-05 7.017306697279e-04 0.0 
7.017306697279e-04 4.987163628551e-03 0.0 
0.0 0.0 0.0 
-1.840724735848e-04 -2.813471632494e-04 0.0 
-2.813471632494e-04 6.676867872376e-03 0.0 
0.0 0.0 0.0 
-3.938514147376e-04 7.324244974900e-04 0.0 
7.324244974900e-04 2.778057004998e-03 0.0 
0.0 0.0 0.0 
-3.963420395560e-04 -5.720886283392e-04 0.0 
-5.720886283392e-04 4.505171024229e-03 0.0 
0.0 0.0 0.0 
-9.973819209829e-04 1.647414982353e-03 0.0 
1.647414982353e-03 3.718764956862e-04 0.0 
0.0 0.0 0.0 
-2.326974179923e-04 -3.058729273408e-04 0.0 
-3.058729273408e-04 6.277489151843e-03 0.0 
0.0 0.0 0.0 
1.844861544796e-03 5.698181753450e-04 0.0 
5.698181753450e-04 -1.430359019573e-03 0.0 
0.0 0.0 0.0 
-6.243002363094e-04 -1.271728804817e-04 0.0 
-1.271728804817e-04 4.789470996227e-03 0.0 
0.0 0.0 0.0 
6.255686780841e-04 5.256724713643e-04 0.0 
5.256724713643e-04 4.099956461370e-03 0.0 
0.0 0.0 0.0 
-3.482440528267e-04 2.885013172910e-04 0.0 
2.885013172910e-04 5.668639912472e-03 0.0 
0.0 0.0 0.0 
-3.278060592193e-04 3.303824321635e-04 0.0 
3.303824321635e-04 5.419927406776e-03 0.0 
0.0 0.0 0.0 
2.992607058914e-04 8.263067668789e-04 0.0 
8.263067668789e-04 3.878051832013e-03 0.0 
0.0 0.0 0.0 
-4.513879560917e-04 3.230299817368e-04 0.0 
3.230299817368e-04 3.423763488733e-03 0.0 
0.0 0.0 0.0 
-4.389892918305e-04 2.901119304379e-04 0.0 
2.901119304379e-04 3.655525947955e-03 0.0 
0.0 0.0 0.0 
-2.702440311562e-04 -3.445827536448e-04 0.0 
-3.445827536448e-04 6.284096099112e-03 0.0 
0.0 0.0 0.0 
5.072877475323e-04 -5.939938311362e-04 0.0 
-5.939938311362e-04 3.788443148893e-03 0.0 
0.0 0.0 0.0 
8.916617292314e-04 -5.846545620054e-04 0.0 
-5.846545620054e-04 2.487145474326e-03 0.0 
0.0 0.0 0.0 
6.776564334090e-04 -2.182202857686e-04 0.0 
-2.182202857686e-04 4.094567554022e-03 0.0 
0.0 0.0 0.0 
1.121582396563e-03 -2.370010376857e-04 0.0 
-2.370010376857e-04 2.076005775913e-03 0.0 
0.0 0.0 0.0 
1.787049521978e-03 4.630693989119e-04 0.0 
4.630693989119e-04 -7.320580319649e-04 0.0 
0.0 0.0 0.0 
-4.021440904178e-04 3.014648162449e-04 0.0 
3.014648162449e-04 3.428048259890e-03 0.0 
0.0 0.0 0.0 
-3.872179914670e-04 2.776779961337e-04 0.0 
2.776779961337e-04 5.054736714352e-03 0.0 
0.0 0.0 0.0 
-2.639458396819e-04 6.640988927979e-06 0.0 
6.640988927979e-06 4.437943577677e-03 0.0 
0.0 0.0 0.0 
6.375579447526e-04 8.023814494143e-05 0.0 
8.023814494143e-05 4.625914747006e-03 0.0 
0.0 0.0 0.0 
9.846856885238e-04 7.307973178010e-04 0.0 
7.307973178010e-04 2.119470628717e-03 0.0 
0.0 0.0 0.0 
3.293349727700e-04 3.310168469056e-04 0.0 
3.310168469056e-04 5.785008136077e-03 0.0 
0.0 0.0 0.0 
-3.776711788797e-04 -1.055865904797e-04 0.0 
-1.055865904797e-04 6.428882032277e-03 0.0 
0.0 0.0 0.0 
1.068133550684e-03 -2.499354882604e-04 0.0 
-2.499354882604e-04 2.365678800517e-03 0.0 
0.0 0.0 0.0 
-1.236220379518e-04 -3.717865853347e-04 0.0 
-3.717865853347e-04 6.809975813565e-03 0.0 
0.0 0.0 0.0 
1.621607121287e-03 -4.369524157185e-04 0.0 
-4.369524157185e-04 -2.238864836126e-04 0.0 
0.0 0.0 0.0 
3.473584811358e-04 4.158915354735e-04 0.0 
4.158915354735e-04 5.616223132445e-03 0.0 
0.0 0.0 0.0 
3.974369651238e-04 7.713324071547e-04 0.0 
7.713324071547e-04 3.885767866656e-03 0.0 
0.0 0.0 0.0 
3.934002254822e-04 7.054619318012e-04 0.0 
7.054619318012e-04 4.307763845162e-03 0.0 
0.0 0.0 0.0 
4.258855980046e-04 -2.519632285067e-04 0.0 
-2.519632285067e-04 5.167890103460e-03 0.0 
0.0 0.0 0.0 
-1.403873758697e-04 -1.212214402746e-03 0.0 
-1.212214402746e-03 2.414149241468e-03 0.0 
0.0 0.0 0.0 
3.139492699455e-05 7.470192734009e-04 0.0 
7.470192734009e-04 4.638763913966e-03 0.0 
0.0 0.0 0.0 
1.050765701755e-03 -4.626595557402e-04 0.0 
-4.626595557402e-04 2.110789932080e-03 0.0 
0.0 0.0 0.0 
-1.349288560781e-05 7.095613644140e-04 0.0 
7.095613644140e-04 4.626435057764e-03 0.0 
0.0 0.0 0.0 
7.662003395437e-04 1.463002630244e-03 0.0 
1.463002630244e-03 8.729797645601e-04 0.0 
0.0 0.0 0.0 
4.680156259242e-04 6.452629328131e-04 0.0 
6.452629328131e-04 4.370149183796e-03 0.0 
0.0 0.0 0.0 
1.102114092314e-03 -4.628226629951e-04 0.0 
-4.628226629951e-04 1.881122205603e-03 0.0 
0.0 0.0 0.0 
-2.116039390402e-04 -5.889628118613e-04 0.0 
-5.889628118613e-04 4.577148588336e-03 0.0 
0.0 0.0 0.0 
-5.754906486466e-05 7.251573113128e-04 0.0 
7.251573113128e-04 4.624548008641e-03 0.0 
0.0 0.0 0.0 
-4.771325915841e-04 2.698452066428e-03 0.0 
2.698452066428e-03 -1.151964205456e-03 0.0 
0.0 0.0 0.0 
8.153448495565e-04 5.317686818231e-04 0.0 
5.317686818231e-04 3.198843478849e-03 0.0 
0.0 0.0 0.0 
-6.216579517087e-04 2.034736806689e-03 0.0 
2.034736806689e-03 2.170348713941e-04 0.0 
0.0 0.0 0.0 
-2.577713908366e-04 -2.006586469518e-04 0.0 
-2.006586469518e-04 1.281984202260e-03 0.0 
0.0 0.0 0.0 
-3.227818491491e-04 -5.654808169034e-04 0.0 
-5.654808169034e-04 4.503449736291e-03 0.0 
0.0 0.0 0.0 
3.558250063551e-05 6.295640008450e-04 0.0 
6.295640008450e-04 5.759991471683e-03 0.0 
0.0 0.0 0.0 
-3.111651699994e-04 3.802651562289e-04 0.0 
3.802651562289e-04 5.532007277982e-03 0.0 
0.0 0.0 0.0 
-4.761063678217e-04 4.228642251929e-04 0.0 
4.228642251929e-04 2.966262988225e-03 0.0 
0.0 0.0 0.0 
0.0 4.091806958341e-04 0.0 
4.091806958341e-04 7.978332131501e-03 0.0 
0.0 0.0 0.0 
-7.269761213468e-04 1.583716992244e-03 0.0 
1.583716992244e-03 -3.858932901268e-04 0.0 
0.0 0.0 0.0 
-4.583425086249e-04 3.746854925275e-04 0.0 
3.746854925275e-04 3.199490519369e-03 0.0 
0.0 0.0 0.0 
8.432480733489e-04 -4.966197138941e-04 0.0 
-4.966197138941e-04 2.850715803952e-03 0.0 
0.0 0.0 0.0 
-4.811904193572e-04 -5.178610255073e-04 0.0 
-5.178610255073e-04 4.421390915089e-03 0.0 
0.0 0.0 0.0 
-4.111995894294e-04 4.702262177100e-04 0.0 
4.702262177100e-04 3.826046717384e-03 0.0 
0.0 0.0 0.0 
1.217841348449e-03 -9.770912861889e-04 0.0 
-9.770912861889e-04 6.162393538309e-04 0.0 
0.0 0.0 0.0 
5.614254093382e-04 -6.951553935742e-04 0.0 
-6.951553935742e-04 3.280026553772e-03 0.0 
0.0 0.0 0.0 
2.858802005266e-04 7.425463107457e-04 0.0 
7.425463107457e-04 4.278806469944e-03 0.0 
0.0 0.0 0.0 
7.364084523389e-04 4.668158795694e-04 0.0 
4.668158795694e-04 3.726377410418e-03 0.0 
0.0 0.0 0.0 
-8.857266728235e-05 6.243610826282e-04 0.0 
6.243610826282e-04 6.327226347656e-03 0.0 
0.0 0.0 0.0 
1.205009551556e-03 2.272210711958e-03 0.0 
2.272210711958e-03 -2.465831173183e-03 0.0 
0.0 0.0 0.0 
-3.591472411416e-04 -6.257576858243e-04 0.0 
-6.257576858243e-04 4.142609944280e-03 0.0 
0.0 0.0 0.0 
-4.747867148346e-04 -4.260094948124e-04 0.0 
-4.260094948124e-04 4.681413042322e-03 0.0 
0.0 0.0 0.0 
-4.893119842001e-04 -9.785484627146e-04 0.0 
-9.785484627146e-04 2.229306148726e-03 0.0 
0.0 0.0 0.0 
-3.790751885049e-04 2.824393936863e-04 0.0 
2.824393936863e-04 4.459855509679e-03 0.0 
0.0 0.0 0.0 
-3.401633648972e-04 3.589121728576e-04 0.0 
3.589121728576e-04 5.535143431638e-03 0.0 
0.0 0.0 0.0 
-4.987637961575e-04 -7.219328025096e-05 0.0 
-7.219328025096e-05 5.927251191869e-03 0.0 
0.0 0.0 0.0 
2.700507218423e-04 -2.512167693696e-05 0.0 
-2.512167693696e-05 6.528186132080e-04 0.0 
0.0 0.0 0.0 
5.596856644523e-04 -6.271186504064e-04 0.0 
-6.271186504064e-04 -4.812026087904e-03 0.0 
0.0 0.0 0.0 
-5.248744868620e-04 -7.859425232680e-04 0.0 
-7.859425232680e-04 1.678204340105e-03 0.0 
0.0 0.0 0.0 
-5.218483979625e-04 -4.211187954361e-04 0.0 
-4.211187954361e-04 4.680928032121e-03 0.0 
0.0 0.0 0.0 
1.463596714607e-03 -3.824411579326e-04 0.0 
-3.824411579326e-04 4.846692291458e-04 0.0 
0.0 0.0 0.0 
1.264998037508e-03 -1.122775357360e-03 0.0 
-1.122775357360e-03 7.092522063812e-05 0.0 
0.0 0.0 0.0 
1.799265321069e-03 -4.987151151558e-04 0.0 
-4.987151151558e-04 -9.956406774982e-04 0.0 
0.0 0.0 0.0 
-3.881040683587e-04 -4.727972416573e-04 0.0 
-4.727972416573e-04 4.782074050734e-03 0.0 
0.0 0.0 0.0 
-2.541864138443e-04 4.824448436067e-04 0.0 
4.824448436067e-04 5.731935218866e-03 0.0 
0.0 0.0 0.0 
-5.123560071236e-04 -3.339436393277e-04 0.0 
-3.339436393277e-04 4.920585738389e-03 0.0 
0.0 0.0 0.0 
1.496551045604e-03 -3.172999528615e-05 0.0 
-3.172999528615e-05 4.271421325008e-04 0.0 
0.0 0.0 0.0 
1.442672176100e-05 6.751026401997e-04 0.0 
6.751026401997e-04 4.990462714645e-03 0.0 
0.0 0.0 0.0 
-3.262789189004e-04 1.487902556377e-04 0.0 
1.487902556377e-04 5.040679727830e-03 0.0 
0.0 0.0 0.0 
5.426536352264e-04 4.750607090802e-04 0.0 
4.750607090802e-04 4.618008939911e-03 0.0 
0.0 0.0 0.0 
-5.502503455705e-04 -3.302468380269e-04 0.0 
-3.302468380269e-04 4.920232467909e-03 0.0 
0.0 0.0 0.0 
-4.487231058442e-04 -4.776449954798e-04 0.0 
-4.776449954798e-04 4.783388945139e-03 0.0 
0.0 0.0 0.0 
-5.206679735903e-04 5.500049005796e-04 0.0 
5.500049005796e-04 2.517444899189e-03 0.0 
0.0 0.0 0.0 
1.284892332818e-03 -6.360937686580e-04 0.0 
-6.360937686580e-04 8.842268573848e-04 0.0 
0.0 0.0 0.0 
-5.368339580316e-04 -2.460735805912e-04 0.0 
-2.460735805912e-04 5.142412716876e-03 0.0 
0.0 0.0 0.0 
-2.361991370180e-04 3.447896690493e-05 0.0 
3.447896690493e-05 5.949766585614e-03 0.0 
0.0 0.0 0.0 
-2.534400400339e-04 3.327044649138e-05 0.0 
3.327044649138e-05 5.569066694934e-03 0.0 
0.0 0.0 0.0 
-4.942725471060e-04 4.854522247567e-04 0.0 
4.854522247567e-04 2.745340352438e-03 0.0 
0.0 0.0 0.0 
-4.380990962045e-04 -3.837035208614e-04 0.0 
-3.837035208614e-04 5.040454050780e-03 0.0 
0.0 0.0 0.0 
7.131691257618e-04 -1.496033023428e-03 0.0 
-1.496033023428e-03 7.167631550760e-04 0.0 
0.0 0.0 0.0 
-2.529172730507e-04 1.955617335159e-03 0.0 
1.955617335159e-03 1.421176541907e-04 0.0 
0.0 0.0 0.0 
3.821649799847e-04 3.266938348389e-04 0.0 
3.266938348389e-04 5.635931507651e-03 0.0 
0.0 0.0 0.0 
-7.721527196667e-04 -1.118214203947e-03 0.0 
-1.118214203947e-03 1.496551358648e-03 0.0 
0.0 0.0 0.0 
7.155690665914e-04 -1.304030854737e-03 0.0 
-1.304030854737e-03 1.294232031595e-03 0.0 
0.0 0.0 0.0 
8.541372309094e-04 5.300845461885e-04 0.0 
5.300845461885e-04 3.108634274855e-03 0.0 
0.0 0.0 0.0 
-4.185241711139e-04 3.756400097883e-04 0.0 
3.756400097883e-04 2.979320834308e-03 0.0 
0.0 0.0 0.0 
-5.677686918488e-04 -2.445334519970e-04 0.0 
-2.445334519970e-04 5.142507990241e-03 0.0 
0.0 0.0 0.0 
-4.537997441214e-04 -3.726378682427e-05 0.0 
-3.726378682427e-05 2.550294169680e-03 0.0 
0.0 0.0 0.0 
-3.952528522484e-04 2.375564055387e-04 0.0 
2.375564055387e-04 4.655634581082e-03 0.0 
0.0 0.0 0.0 
-4.873293879031e-04 -3.890826763633e-04 0.0 
-3.890826763633e-04 5.041769250589e-03 0.0 
0.0 0.0 0.0 
7.938236112235e-04 -7.760854300250e-04 0.0 
-7.760854300250e-04 2.346240237649e-03 0.0 
0.0 0.0 0.0 
-3.298625250946e-04 -6.718414077727e-04 0.0 
-6.718414077727e-04 4.206597233738e-03 0.0 
0.0 0.0 0.0 
3.885510371247e-04 2.251508323790e-03 0.0 
2.251508323790e-03 -2.602545716298e-03 0.0 
0.0 0.0 0.0 
-1.638514331620e-04 -9.005561193982e-06 0.0 
-9.005561193982e-06 7.125171917379e-03 0.0 
0.0 0.0 0.0 
9.242671717451e-04 -1.065315549668e-03 0.0 
-1.065315549668e-03 1.238878781766e-03 0.0 
0.0 0.0 0.0 
5.074624055819e-04 2.050809823250e-05 0.0 
2.050809823250e-05 5.116035592078e-03 0.0 
0.0 0.0 0.0 
4.773270342726e-04 6.341045917054e-04 0.0 
6.341045917054e-04 4.320260421153e-03 0.0 
0.0 0.0 0.0 
-4.734303506081e-04 -2.993419463044e-04 0.0 
-2.993419463044e-04 5.279292887478e-03 0.0 
0.0 0.0 0.0 
-5.132239463973e-04 -3.034343175650e-04 0.0 
-3.034343175650e-04 5.280291096580e-03 0.0 
0.0 0.0 0.0 
1.531533082550e-03 -3.757856076944e-04 0.0 
-3.757856076944e-04 1.561013691431e-04 0.0 
0.0 0.0 0.0 
-8.032166716639e-04 -1.078409610323e-03 0.0 
-1.078409610323e-03 9.921598855782e-04 0.0 
0.0 0.0 0.0 
4.907611642042e-04 2.379439827932e-03 0.0 
2.379439827932e-03 -2.628867965781e-03 0.0 
0.0 0.0 0.0 
-4.953614713482e-04 -2.183959920235e-04 0.0 
-2.183959920235e-04 5.503538990956e-03 0.0 
0.0 0.0 0.0 
4.543797430805e-04 -1.506657568667e-04 0.0 
-1.506657568667e-04 5.171522486106e-03 0.0 
0.0 0.0 0.0 
1.727108775749e-04 -1.520190705788e-03 0.0 
-1.520190705788e-03 1.467996972117e-03 0.0 
0.0 0.0 0.0 
5.499843721779e-05 7.134969108675e-04 0.0 
7.134969108675e-04 5.016359530845e-03 0.0 
0.0 0.0 0.0 
-3.991758137405e-04 8.253044839761e-04 0.0 
8.253044839761e-04 2.510611930688e-03 0.0 
0.0 0.0 0.0 
-4.461681199730e-05 6.374381157871e-04 0.0 
6.374381157871e-04 5.326562559026e-03 0.0 
0.0 0.0 0.0 
1.202461724592e-04 -3.701897129272e-04 0.0 
-3.701897129272e-04 6.458281349572e-03 0.0 
0.0 0.0 0.0 
-3.496175818254e-03 -1.594203677592e-04 0.0 
-1.594203677592e-04 -3.363956372908e-03 0.0 
0.0 0.0 0.0 
0.0 3.879078916358e-05 0.0 
3.879078916358e-05 8.159790609407e-03 0.0 
0.0 0.0 0.0 
0.0 -1.099246602744e-04 0.0 
-1.099246602744e-04 7.527249314921e-03 0.0 
0.0 0.0 0.0 
-2.629525562439e-04 -2.842123003393e-05 0.0 
-2.842123003393e-05 4.895286204936e-03 0.0 
0.0 0.0 0.0 
4.764522308840e-04 -1.260863628831e-03 0.0 
-1.260863628831e-03 1.777042268321e-03 0.0 
0.0 0.0 0.0 
3.903372931291e-04 6.975940627271e-04 0.0 
6.975940627271e-04 4.291416072675e-03 0.0 
0.0 0.0 0.0 
1.587453249964e-03 -5.214707043125e-05 0.0 
-5.214707043125e-05 1.658282618713e-04 0.0 
0.0 0.0 0.0 
-4.857278072734e-05 -1.332249458413e-04 0.0 
-1.332249458413e-04 1.050947190528e-03 0.0 
0.0 0.0 0.0 
-1.183286884847e-03 2.002944183597e-03 0.0 
2.002944183597e-03 1.616912222910e-04 0.0 
0.0 0.0 0.0 
-1.403638116436e-04 1.093192261194e-04 0.0 
1.093192261194e-04 7.435666504648e-03 0.0 
0.0 0.0 0.0 
-3.121212970544e-04 4.104016772912e-04 0.0 
4.104016772912e-04 5.643895887757e-03 0.0 
0.0 0.0 0.0 
-4.229804917811e-04 2.141083358127e-04 0.0 
2.141083358127e-04 4.359634290698e-03 0.0 
0.0 0.0 0.0 
8.190570988975e-05 6.509255756036e-04 0.0 
6.509255756036e-04 6.943027676861e-03 0.0 
0.0 0.0 0.0 
-3.294399891780e-04 -2.462032001401e-05 0.0 
-2.462032001401e-05 2.109428737446e-03 0.0 
0.0 0.0 0.0 
8.532248178472e-05 5.928241275331e-04 0.0 
5.928241275331e-04 6.853224777108e-03 0.0 
0.0 0.0 0.0 
-2.867118785133e-04 4.338826064002e-04 0.0 
4.338826064002e-04 5.639703175681e-03 0.0 
0.0 0.0 0.0 
6.213437695557e-05 -1.233611055368e-03 0.0 
-1.233611055368e-03 2.338884771725e-03 0.0 
0.0 0.0 0.0 
4.085665887257e-04 7.773680938085e-04 0.0 
7.773680938085e-04 3.879503241437e-03 0.0 
0.0 0.0 0.0 
4.665995879412e-04 -1.263912055120e-03 0.0 
-1.263912055120e-03 1.839419065961e-03 0.0 
0.0 0.0 0.0 
-3.508352173832e-04 1.740052253633e-03 0.0 
1.740052253633e-03 6.772757663360e-04 0.0 
0.0 0.0 0.0 
1.974259885835e-04 -1.332455069631e-03 0.0 
-1.332455069631e-03 1.967155155415e-03 0.0 
0.0 0.0 0.0 
-2.145597990973e-04 5.299852287673e-04 0.0 
5.299852287673e-04 5.812634077693e-03 0.0 
0.0 0.0 0.0 
-3.324091490625e-04 -1.898335104637e-04 0.0 
-1.898335104637e-04 6.585481291363e-03 0.0 
0.0 0.0 0.0 
9.542168071703e-04 -1.088235146193e-03 0.0 
-1.088235146193e-03 1.195264774489e-03 0.0 
0.0 0.0 0.0 
-4.022808746118e-07 6.823093571296e-04 0.0 
6.823093571296e-04 5.363468542880e-03 0.0 
0.0 0.0 0.0 
-9.150580007210e-04 -2.554388014779e-04 0.0 
-2.554388014779e-04 -4.672580258805e-03 0.0 
0.0 0.0 0.0 
1.343423756075e-03 -6.478052590433e-04 0.0 
-6.478052590433e-04 6.605776745221e-04 0.0 
0.0 0.0 0.0 
-2.681246253334e-04 4.157106259878e-04 0.0 
4.157106259878e-04 6.280918178681e-03 0.0 
0.0 0.0 0.0 
-2.051168044821e-04 -1.157434174260e-03 0.0 
-1.157434174260e-03 2.486246301630e-03 0.0 
0.0 0.0 0.0 
-9.582069301206e-05 -1.494602142665e-03 0.0 
-1.494602142665e-03 1.645449588205e-03 0.0 
0.0 0.0 0.0 
5.087992003712e-04 7.066468461968e-04 0.0 
7.066468461968e-04 3.890421904567e-03 0.0 
0.0 0.0 0.0 
7.147279409914e-04 -2.183636978694e-03 0.0 
-2.183636978694e-03 -1.102584617589e-03 0.0 
0.0 0.0 0.0 
-5.898684637685e-04 6.980186739075e-04 0.0 
6.980186739075e-04 2.094178280901e-03 0.0 
0.0 0.0 0.0 
-5.426284620449e-04 6.326438576061e-04 0.0 
6.326438576061e-04 2.298099835462e-03 0.0 
0.0 0.0 0.0 
-3.070191067227e-04 -1.228912005090e-03 0.0 
-1.228912005090e-03 2.194203104346e-03 0.0 
0.0 0.0 0.0 
7.243823633338e-04 -6.614707524277e-04 0.0 
-6.614707524277e-04 2.882678963199e-03 0.0 
0.0 0.0 0.0 
7.986990318489e-04 7.666229147884e-04 0.0 
7.666229147884e-04 2.592280867942e-03 0.0 
0.0 0.0 0.0 
3.160763591148e-05 6.473607384338e-04 0.0 
6.473607384338e-04 5.367352939450e-03 0.0 
0.0 0.0 0.0 
-7.977980542428e-05 5.965176328847e-04 0.0 
5.965176328847e-04 6.937019268705e-03 0.0 
0.0 0.0 0.0 
-4.430254225793e-04 4.736795826096e-04 0.0 
4.736795826096e-04 2.532537241525e-03 0.0 
0.0 0.0 0.0 
-2.127699180329e-04 -2.047610072365e-05 0.0 
-2.047610072365e-05 6.352699454230e-03 0.0 
0.0 0.0 0.0 
2.441001317166e-05 6.577381319853e-04 0.0 
6.577381319853e-04 6.538891154518e-03 0.0 
0.0 0.0 0.0 
1.657707833719e-03 -1.331206277081e-05 0.0 
-1.331206277081e-05 -2.906296998481e-04 0.0 
0.0 0.0 0.0 
-4.215837309071e-04 1.695195292454e-03 0.0 
1.695195292454e-03 2.046503218138e-04 0.0 
0.0 0.0 0.0 
-4.287225230267e-04 8.066625467036e-04 0.0 
8.066625467036e-04 2.765148734892e-03 0.0 
0.0 0.0 0.0 
6.107658625740e-04 -8.130692575764e-04 0.0 
-8.130692575764e-04 2.772992275166e-03 0.0 
0.0 0.0 0.0 
-1.020786626867e-04 6.358029134700e-04 0.0 
6.358029134700e-04 5.641745352823e-03 0.0 
0.0 0.0 0.0 
7.586715929118e-04 -6.654608728603e-04 0.0 
-6.654608728603e-04 2.749744342080e-03 0.0 
0.0 0.0 0.0 
1.144809821445e-03 2.263876956901e-03 0.0 
2.263876956901e-03 -2.374651520868e-03 0.0 
0.0 0.0 0.0 
6.524263301013e-04 -5.624276144426e-04 0.0 
-5.624276144426e-04 3.407519362685e-03 0.0 
0.0 0.0 0.0 
-4.444148605851e-04 1.554919461555e-03 0.0 
1.554919461555e-03 1.133984057379e-03 0.0 
0.0 0.0 0.0 
9.238654203425e-04 6.198194172479e-04 0.0 
6.198194172479e-04 2.612605746447e-03 0.0 
0.0 0.0 0.0 
6.865575590858e-04 -5.583495497437e-04 0.0 
-5.583495497437e-04 3.258194855534e-03 0.0 
0.0 0.0 0.0 
5.029672513157e-04 7.098171625895e-04 0.0 
7.098171625895e-04 3.912576622109e-03 0.0 
0.0 0.0 0.0 
-2.458807440655e-04 1.842946615022e-05 0.0 
1.842946615022e-05 5.844493234223e-03 0.0 
0.0 0.0 0.0 
-3.883303107924e-04 -1.169339972394e-03 0.0 
-1.169339972394e-03 2.186443242856e-03 0.0 
0.0 0.0 0.0 
-6.927879284468e-05 2.159837592458e-03 0.0 
2.159837592458e-03 -5.136008007142e-04 0.0 
0.0 0.0 0.0 
6.122497426480e-04 -4.662611675520e-04 0.0 
-4.662611675520e-04 3.768731073840e-03 0.0 
0.0 0.0 0.0 
-4.290336904538e-04 1.318963345138e-03 0.0 
1.318963345138e-03 1.505169142025e-03 0.0 
0.0 0.0 0.0 
7.345354895516e-04 6.707023321254e-04 0.0 
6.707023321254e-04 -4.948057083872e-03 0.0 
0.0 0.0 0.0 
-1.003566513385e-04 4.545026890194e-05 0.0 
4.545026890194e-05 7.498071517529e-03 0.0 
0.0 0.0 0.0 
-1.454876877738e-04 4.454647101708e-05 0.0 
4.454647101708e-05 7.127284184512e-03 0.0 
0.0 0.0 0.0 
-3.217878086550e-04 -2.317740391405e-04 0.0 
-2.317740391405e-04 5.261807503503e-04 0.0 
0.0 0.0 0.0 
5.782137802672e-04 -4.760582689086e-04 0.0 
-4.760582689086e-04 3.929528517110e-03 0.0 
0.0 0.0 0.0 
-5.284608876286e-04 -9.164912833719e-04 0.0 
-9.164912833719e-04 1.948481742883e-03 0.0 
0.0 0.0 0.0 
-5.960091091877e-04 -8.677854410925e-04 0.0 
-8.677854410925e-04 2.214366727720e-03 0.0 
0.0 0.0 0.0 
1.491441552504e-05 6.701775652944e-04 0.0 
6.701775652944e-04 5.757416516355e-03 0.0 
0.0 0.0 0.0 
5.979173979929e-04 6.195938533123e-04 0.0 
6.195938533123e-04 3.924386726552e-03 0.0 
0.0 0.0 0.0 
6.723359977179e-05 6.879679721916e-04 0.0 
6.879679721916e-04 5.409560084282e-03 0.0 
0.0 0.0 0.0 
1.170600997825e-03 -9.502221719940e-04 0.0 
-9.502221719940e-04 7.176745745086e-04 0.0 
0.0 0.0 0.0 
-2.798009022060e-04 2.097053392027e-05 0.0 
2.097053392027e-05 4.431576785762e-03 0.0 
0.0 0.0 0.0 
3.367870488735e-05 -3.902941544029e-04 0.0 
-3.902941544029e-04 6.570643547619e-03 0.0 
0.0 0.0 0.0 
-6.408636586080e-04 -7.817040816715e-04 0.0 
-7.817040816715e-04 1.902924027160e-03 0.0 
0.0 0.0 0.0 
5.715855307222e-04 -5.150599417678e-06 0.0 
-5.150599417678e-06 4.833441873335e-03 0.0 
0.0 0.0 0.0 
7.774729946999e-04 6.734321806715e-04 0.0 
6.734321806715e-04 3.052162790630e-03 0.0 
0.0 0.0 0.0 
-2.027813746038e-04 -7.508482431054e-05 0.0 
-7.508482431054e-05 1.557341095474e-03 0.0 
0.0 0.0 0.0 
-1.578305370744e-04 5.997858081540e-04 0.0 
5.997858081540e-04 5.582920920667e-03 0.0 
0.0 0.0 0.0 
1.382787824364e-03 -3.255246722264e-04 0.0 
-3.255246722264e-04 8.299181487494e-04 0.0 
0.0 0.0 0.0 
-7.263027279056e-04 -1.136880106100e-03 0.0 
-1.136880106100e-03 7.807641062865e-04 0.0 
0.0 0.0 0.0 
1.477679186358e-03 -7.635584264295e-04 0.0 
-7.635584264295e-04 1.752313144920e-05 0.0 
0.0 0.0 0.0 
-5.342914684612e-04 2.592401641872e-06 0.0 
2.592401641872e-06 5.780317102728e-03 0.0 
0.0 0.0 0.0 
-2.298809336410e-04 5.078725421138e-04 0.0 
5.078725421138e-04 5.818015882150e-03 0.0 
0.0 0.0 0.0 
-5.728949859203e-04 -1.102643309478e-03 0.0 
-1.102643309478e-03 1.197543348146e-03 0.0 
0.0 0.0 0.0 
-6.419374800229e-04 -1.087021670171e-04 0.0 
-1.087021670171e-04 4.785692811528e-03 0.0 
0.0 0.0 0.0 
-4.392431888300e-05 6.594337551215e-04 0.0 
6.594337551215e-04 5.701466107872e-03 0.0 
0.0 0.0 0.0 
4.940017970860e-04 4.293614650912e-04 0.0 
4.293614650912e-04 4.994064147441e-03 0.0 
0.0 0.0 0.0 
-6.839683816440e-05 -1.319988794523e-03 0.0 
-1.319988794523e-03 2.093165585931e-03 0.0 
0.0 0.0 0.0 
-4.838894195083e-04 -6.756545236819e-05 0.0 
-6.756545236819e-05 2.549627269246e-03 0.0 
0.0 0.0 0.0 
7.527744417497e-04 6.682113349444e-04 0.0 
6.682113349444e-04 3.090041839970e-03 0.0 
0.0 0.0 0.0 
-2.410300852903e-04 -3.051925846830e-05 0.0 
-3.051925846830e-05 5.728829290224e-03 0.0 
0.0 0.0 0.0 
-5.779083217967e-04 -1.652352181672e-03 0.0 
-1.652352181672e-03 3.693941822533e-04 0.0 
0.0 0.0 0.0 
3.965723147159e-05 6.898530493994e-04 0.0 
6.898530493994e-04 6.817133437787e-03 0.0 
0.0 0.0 0.0 
-6.118203393335e-05 5.525753310578e-04 0.0 
5.525753310578e-04 7.390669243694e-03 0.0 
0.0 0.0 0.0 
-2.565052468373e-04 -2.107258086038e-05 0.0 
-2.107258086038e-05 5.148325326510e-03 0.0 
0.0 0.0 0.0 
-1.303610295942e-04 2.803636591847e-04 0.0 
2.803636591847e-04 7.626939987858e-03 0.0 
0.0 0.0 0.0 
-3.789510591212e-05 6.234782186763e-04 0.0 
6.234782186763e-04 7.259704323307e-03 0.0 
0.0 0.0 0.0 
1.122627866972e-03 -8.273080683238e-04 0.0 
-8.273080683238e-04 1.194236023245e-03 0.0 
0.0 0.0 0.0 
7.131242870624e-04 -1.287251138363e-03 0.0 
-1.287251138363e-03 1.233669047360e-03 0.0 
0.0 0.0 0.0 
2.971513563297e-04 8.303347742281e-05 0.0 
8.303347742281e-05 6.107253120252e-03 0.0 
0.0 0.0 0.0 
-7.347301940364e-04 2.400097325562e-04 0.0 
2.400097325562e-04 -4.556050011732e-03 0.0 
0.0 0.0 0.0 
-4.056725061734e-04 -1.549732253402e-05 0.0 
-1.549732253402e-05 2.318127652865e-03 0.0 
0.0 0.0 0.0 
-6.289232742929e-04 -4.468201451790e-05 0.0 
-4.468201451790e-05 4.890789473165e-03 0.0 
0.0 0.0 0.0 
-2.209293890710e-04 -1.305836932354e-03 0.0 
-1.305836932354e-03 2.091853942400e-03 0.0 
0.0 0.0 0.0 
9.995869391275e-04 -1.277558237093e-03 0.0 
-1.277558237093e-03 6.871746976704e-04 0.0 
0.0 0.0 0.0 
-7.167310212938e-04 8.975436807769e-04 0.0 
8.975436807769e-04 1.669400415143e-03 0.0 
0.0 0.0 0.0 
-6.419466080368e-04 8.532475147216e-04 0.0 
8.532475147216e-04 1.837489483477e-03 0.0 
0.0 0.0 0.0 
-3.348331516806e-04 8.054130185420e-05 0.0 
8.054130185420e-05 5.121680431499e-03 0.0 
0.0 0.0 0.0 
1.413774885473e-03 -7.440195280027e-04 0.0 
-7.440195280027e-04 2.182168353870e-04 0.0 
0.0 0.0 0.0 
-5.469583050480e-04 -2.117786918549e-04 0.0 
-2.117786918549e-04 2.708690990925e-03 0.0 
0.0 0.0 0.0 
4.159035843287e-04 5.923997970395e-04 0.0 
5.923997970395e-04 4.843280225034e-03 0.0 
0.0 0.0 0.0 
-1.890106410762e-05 -4.435520705468e-04 0.0 
-4.435520705468e-04 7.172596452346e-03 0.0 
0.0 0.0 0.0 
4.425239628070e-07 -4.650758210755e-04 0.0 
-4.650758210755e-04 7.058758791660e-03 0.0 
0.0 0.0 0.0 
7.035699978373e-04 -1.122778342064e-03 0.0 
-1.122778342064e-03 1.749689486240e-03 0.0 
0.0 0.0 0.0 
-3.419197601662e-04 1.314577625835e-04 0.0 
1.314577625835e-04 4.756937827207e-03 0.0 
0.0 0.0 0.0 
-8.790368782794e-04 -9.316341967844e-05 0.0 
-9.316341967844e-05 -4.121048052111e-03 0.0 
0.0 0.0 0.0 
-8.765268417776e-04 1.192050516278e-03 0.0 
1.192050516278e-03 1.209299215537e-03 0.0 
0.0 0.0 0.0 
8.479370274839e-04 -2.543250073002e-03 0.0 
-2.543250073002e-03 -1.955128701380e-03 0.0 
0.0 0.0 0.0 
-8.298795337435e-04 1.056734942549e-03 0.0 
1.056734942549e-03 1.454765219892e-03 0.0 
0.0 0.0 0.0 
7.225484471240e-04 5.850889632925e-04 0.0 
5.850889632925e-04 3.517976520480e-03 0.0 
0.0 0.0 0.0 
4.232683252734e-04 -1.443828763669e-03 0.0 
-1.443828763669e-03 1.457466464859e-03 0.0 
0.0 0.0 0.0 
9.796200119370e-04 -1.250025797721e-03 0.0 
-1.250025797721e-03 6.611890399169e-04 0.0 
0.0 0.0 0.0 
8.845357498009e-04 -2.594570736547e-03 0.0 
-2.594570736547e-03 -3.291876158186e-03 0.0 
0.0 0.0 0.0 
-1.303437257293e-04 4.053661365534e-05 0.0 
4.053661365534e-05 7.194865976349e-03 0.0 
0.0 0.0 0.0 
4.565225018103e-04 -1.447346695648e-03 0.0 
-1.447346695648e-03 1.316303578134e-03 0.0 
0.0 0.0 0.0 
-1.127865089675e-04 1.561463937692e-04 0.0 
1.561463937692e-04 7.428231231042e-03 0.0 
0.0 0.0 0.0 
-1.726119856194e-04 3.108265292917e-05 0.0 
3.108265292917e-05 6.874622524178e-03 0.0 
0.0 0.0 0.0 
-5.068262844488e-05 6.617960917739e-05 0.0 
6.617960917739e-05 8.145133318037e-03 0.0 
0.0 0.0 0.0 
-1.053079407325e-04 -1.376461300955e-04 0.0 
-1.376461300955e-04 7.523939911237e-03 0.0 
0.0 0.0 0.0 
-2.624759739830e-04 2.757298411059e-05 0.0 
2.757298411059e-05 5.159588028775e-03 0.0 
0.0 0.0 0.0 
2.384342779438e-04 -1.352002366737e-03 0.0 
-1.352002366737e-03 1.856012215466e-03 0.0 
0.0 0.0 0.0 
-4.835729881622e-04 6.005675118281e-04 0.0 
6.005675118281e-04 2.084319028969e-03 0.0 
0.0 0.0 0.0 
2.534738899611e-04 -1.182442246057e-03 0.0 
-1.182442246057e-03 2.328967945526e-03 0.0 
0.0 0.0 0.0 
0.0 -3.820668942207e-04 0.0 
-3.820668942207e-04 7.285674576892e-03 0.0 
0.0 0.0 0.0 
-9.335572812991e-04 1.474950553742e-03 0.0 
1.474950553742e-03 6.655082372320e-04 0.0 
0.0 0.0 0.0 
-8.913139960878e-04 1.315809295140e-03 0.0 
1.315809295140e-03 9.422161801902e-04 0.0 
0.0 0.0 0.0 
5.150935270066e-04 9.262057779977e-05 0.0 
9.262057779977e-05 5.132461094607e-03 0.0 
0.0 0.0 0.0 
-3.179239944547e-04 7.828679414860e-05 0.0 
7.828679414860e-05 4.790954260883e-03 0.0 
0.0 0.0 0.0 
-1.067158872273e-04 1.140886180410e-04 0.0 
1.140886180410e-04 7.481137083599e-03 0.0 
0.0 0.0 0.0 
-2.675040696409e-05 6.211964366935e-04 0.0 
6.211964366935e-04 5.703853069071e-03 0.0 
0.0 0.0 0.0 
3.577656136238e-04 4.838384299630e-04 0.0 
4.838384299630e-04 5.458867138500e-03 0.0 
0.0 0.0 0.0 
-1.500952189012e-04 5.593989263671e-04 0.0 
5.593989263671e-04 6.260482241810e-03 0.0 
0.0 0.0 0.0 
-2.607867685805e-04 5.755590782144e-05 0.0 
5.755590782144e-05 5.232218760763e-03 0.0 
0.0 0.0 0.0 
-3.228743519337e-04 -1.372234729069e-03 0.0 
-1.372234729069e-03 1.813016468561e-03 0.0 
0.0 0.0 0.0 
-1.935745489037e-04 -1.423013278163e-03 0.0 
-1.423013278163e-03 1.819117134475e-03 0.0 
0.0 0.0 0.0 
-2.171515072743e-04 4.949414882593e-05 0.0 
4.949414882593e-05 6.138320279329e-03 0.0 
0.0 0.0 0.0 
3.893119343226e-04 4.629911302966e-04 0.0 
4.629911302966e-04 5.333809986502e-03 0.0 
0.0 0.0 0.0 
-3.743288631182e-04 1.662093188611e-04 0.0 
1.662093188611e-04 4.370136786380e-03 0.0 
0.0 0.0 0.0 
-2.645423758810e-04 1.036264432708e-05 0.0 
1.036264432708e-05 4.793749150785e-03 0.0 
0.0 0.0 0.0 
-2.641419168379e-04 8.193689395344e-06 0.0 
8.193689395344e-06 5.134581897782e-03 0.0 
0.0 0.0 0.0 
-2.840101618163e-04 4.335059419277e-07 0.0 
4.335059419277e-07 5.253302565061e-03 0.0 
0.0 0.0 0.0 
1.835020695873e-03 -1.441894955122e-03 0.0 
-1.441894955122e-03 -3.396440033527e-03 0.0 
0.0 0.0 0.0 
-4.376553416030e-04 -1.264556404341e-03 0.0 
-1.264556404341e-03 1.943738464294e-03 0.0 
0.0 0.0 0.0 
-9.791475512766e-05 1.999022598442e-04 0.0 
1.999022598442e-04 7.803749514332e-03 0.0 
0.0 0.0 0.0 
-2.669357814249e-04 1.786500405794e-05 0.0 
1.786500405794e-05 5.657721280276e-03 0.0 
0.0 0.0 0.0 
1.639542059855e-04 3.244428044692e-04 0.0 
3.244428044692e-04 6.295820853297e-03 0.0 
0.0 0.0 0.0 
-1.193996802387e-04 5.886351904137e-04 0.0 
5.886351904137e-04 6.943244075583e-03 0.0 
0.0 0.0 0.0 
-1.550552335610e-04 5.784761199120e-04 0.0 
5.784761199120e-04 5.586858184826e-03 0.0 
0.0 0.0 0.0 
-1.687327830801e-04 3.000217631591e-04 0.0 
3.000217631591e-04 7.361233677529e-03 0.0 
0.0 0.0 0.0 
-6.244927928435e-04 -3.286892239842e-04 0.0 
-3.286892239842e-04 3.678646780358e-03 0.0 
0.0 0.0 0.0 
-6.221394885036e-04 -3.405615931026e-04 0.0 
-3.405615931026e-04 3.360301836527e-03 0.0 
0.0 0.0 0.0 
6.754123827601e-05 -3.682002109002e-04 0.0 
-3.682002109002e-04 6.212651243368e-03 0.0 
0.0 0.0 0.0 
5.580962893110e-04 -1.659872985594e-03 0.0 
-1.659872985594e-03 -3.775606682056e-03 0.0 
0.0 0.0 0.0 
-3.929923191701e-04 -5.720991845039e-05 0.0 
-5.720991845039e-05 2.437234283786e-03 0.0 
0.0 0.0 0.0 
0.0 5.868639709092e-04 0.0 
5.868639709092e-04 6.894780748224e-03 0.0 
0.0 0.0 0.0 
6.285998436661e-06 -4.165037889317e-06 0.0 
-4.165037889317e-06 1.086853484674e-03 0.0 
0.0 0.0 0.0 
-2.628868935259e-04 1.391389189592e-05 0.0 
1.391389189592e-05 4.797552046004e-03 0.0 
0.0 0.0 0.0 
3.900318342336e-04 -7.299167720339e-05 0.0 
-7.299167720339e-05 5.701228207628e-03 0.0 
0.0 0.0 0.0 
-1.805461600197e-04 -2.711478454568e-04 0.0 
-2.711478454568e-04 7.016427714255e-04 0.0 
0.0 0.0 0.0 
4.742114349150e-04 -2.766368404325e-05 0.0 
-2.766368404325e-05 1.836367784591e-04 0.0 
0.0 0.0 0.0 
-5.899954104838e-05 2.667016079190e-04 0.0 
2.667016079190e-04 8.075606905762e-03 0.0 
0.0 0.0 0.0 
-3.033852697237e-04 4.627202655208e-05 0.0 
4.627202655208e-05 4.427467212907e-03 0.0 
0.0 0.0 0.0 
-9.568773215640e-05 2.757323602789e-04 0.0 
2.757323602789e-04 7.696653900378e-03 0.0 
0.0 0.0 0.0 
3.009122867177e-04 6.409160377990e-05 0.0 
6.409160377990e-05 5.657982417229e-03 0.0 
0.0 0.0 0.0 
-3.021444705799e-04 1.768424376563e-05 0.0 
1.768424376563e-05 4.426902447291e-03 0.0 
0.0 0.0 0.0 
-7.384850304759e-04 4.378466850712e-04 0.0 
4.378466850712e-04 -4.104878847837e-03 0.0 
0.0 0.0 0.0 
-5.311051138956e-05 3.325247204008e-05 0.0 
3.325247204008e-05 7.830252873530e-03 0.0 
0.0 0.0 0.0 
-1.626039309726e-04 -1.385220403786e-04 0.0 
-1.385220403786e-04 1.278782659289e-03 0.0 
0.0 0.0 0.0 
-1.071964464672e-04 2.237320180413e-04 0.0 
2.237320180413e-04 7.501769334227e-03 0.0 
0.0 0.0 0.0 
0.0 -3.268622055106e-04 0.0 
-3.268622055106e-04 7.373881122789e-03 0.0 
0.0 0.0 0.0 
-1.387136038342e-04 5.128564747445e-04 0.0 
5.128564747445e-04 7.099728460655e-03 0.0 
0.0 0.0 0.0 
1.976616256527e-03 -1.359407826989e-03 0.0 
-1.359407826989e-03 -3.049794351791e-03 0.0 
0.0 0.0 0.0 
-3.546010285855e-04 1.911691074871e-04 0.0 
1.911691074871e-04 5.075760829559e-03 0.0 
0.0 0.0 0.0 
-6.420884569046e-04 -2.122302258868e-04 0.0 
-2.122302258868e-04 3.745257211351e-03 0.0 
0.0 0.0 0.0 
4.694698730665e-04 4.992677239565e-04 0.0 
4.992677239565e-04 4.850172120482e-03 0.0 
0.0 0.0 0.0 
1.329452903263e-04 3.402350969303e-04 0.0 
3.402350969303e-04 6.664953102051e-03 0.0 
0.0 0.0 0.0 
-2.002735118009e-04 4.802735556833e-05 0.0 
4.802735556833e-05 6.570883834121e-03 0.0 
0.0 0.0 0.0 
1.367821918372e-04 2.615901665863e-04 0.0 
2.615901665863e-04 6.608126510107e-03 0.0 
0.0 0.0 0.0 
1.401981022866e-03 -1.276470396453e-03 0.0 
-1.276470396453e-03 -4.206207665265e-03 0.0 
0.0 0.0 0.0 
-6.913797384811e-05 -4.117140215188e-04 0.0 
-4.117140215188e-04 6.980897876401e-03 0.0 
0.0 0.0 0.0 
1.401236331657e-03 -1.987698993556e-03 0.0 
-1.987698993556e-03 -1.695462806680e-03 0.0 
0.0 0.0 0.0 
-6.192249097914e-05 -3.963056629568e-05 0.0 
-3.963056629568e-05 1.115346771782e-03 0.0 
0.0 0.0 0.0 
2.296972038494e-04 -2.118439758202e-04 0.0 
-2.118439758202e-04 6.219087678895e-03 0.0 
0.0 0.0 0.0 
-1.237279116727e-04 4.268645136431e-04 0.0 
4.268645136431e-04 7.637595813315e-03 0.0 
0.0 0.0 0.0 
-8.160081541797e-05 2.623608494162e-04 0.0 
2.623608494162e-04 7.817602788774e-03 0.0 
0.0 0.0 0.0 
-2.758524091745e-04 5.908679925510e-05 0.0 
5.908679925510e-05 4.767623033029e-03 0.0 
0.0 0.0 0.0 
-3.539312914469e-04 2.925418425476e-04 0.0 
2.925418425476e-04 5.048529614361e-03 0.0 
0.0 0.0 0.0 
-4.078431939890e-04 1.932546333324e-03 0.0 
1.932546333324e-03 6.866128881213e-04 0.0 
0.0 0.0 0.0 
-7.263226257903e-05 6.406669485746e-04 0.0 
6.406669485746e-04 7.251230533690e-03 0.0 
0.0 0.0 0.0 
-6.003091430965e-04 -1.589309785726e-04 0.0 
-1.589309785726e-04 3.196666282401e-03 0.0 
0.0 0.0 0.0 
5.070880216920e-04 2.302031137135e-03 0.0 
2.302031137135e-03 -1.450628238699e-03 0.0 
0.0 0.0 0.0 
4.489149513389e-04 5.181264402939e-04 0.0 
5.181264402939e-04 4.982540436531e-03 0.0 
0.0 0.0 0.0 
-2.722751991455e-04 1.016551447747e-05 0.0 
1.016551447747e-05 4.416291334932e-03 0.0 
0.0 0.0 0.0 
-1.137430951935e-04 4.345041041642e-04 0.0 
4.345041041642e-04 7.366540386305e-03 0.0 
0.0 0.0 0.0 
-3.952250568562e-05 -2.470962929162e-05 0.0 
-2.470962929162e-05 8.125472860823e-03 0.0 
0.0 0.0 0.0 
0.0 1.976125284276e-05 0.0 
1.976125284276e-05 8.174892119406e-03 0.0 
0.0 0.0 0.0 
7.331256395304e-04 3.577900049140e-05 0.0 
3.577900049140e-05 -1.818426082798e-04 0.0 
0.0 0.0 0.0 
5.687122410860e-04 -3.390895692332e-05 0.0 
-3.390895692332e-05 -1.568051246646e-04 0.0 
0.0 0.0 0.0 
-2.604837670416e-04 -2.463533423805e-05 0.0 
-2.463533423805e-05 4.473116850185e-03 0.0 
0.0 0.0 0.0 
-2.671443874942e-04 4.599740805240e-06 0.0 
4.599740805240e-06 4.421307320551e-03 0.0 
0.0 0.0 0.0 
0.0 -5.123194486299e-05 0.0 
-5.123194486299e-05 7.550472711303e-03 0.0 
0.0 0.0 0.0 
-1.024638897258e-04 1.687675092005e-05 0.0 
1.687675092005e-05 7.516719209463e-03 0.0 
0.0 0.0 0.0 
5.009309795114e-04 2.118478297897e-05 0.0 
2.118478297897e-05 1.228502333062e-04 0.0 
0.0 0.0 0.0 
-6.818108107576e-04 -4.069659491236e-04 0.0 
-4.069659491236e-04 -4.808002581575e-03 0.0 
0.0 0.0 0.0 
-1.763321707887e-04 -2.462447150616e-04 0.0 
-2.462447150616e-04 6.852438348958e-03 0.0 
0.0 0.0 0.0 
1.967394203237e-04 6.411762780610e-04 0.0 
6.411762780610e-04 6.039827880960e-03 0.0 
0.0 0.0 0.0 
-1.348315700702e-04 -1.466447072552e-04 0.0 
-1.466447072552e-04 1.476344438821e-03 0.0 
0.0 0.0 0.0 
-5.228343512143e-05 -4.125275618842e-04 0.0 
-4.125275618842e-04 6.611247478618e-03 0.0 
0.0 0.0 0.0 
-5.989371034221e-04 -4.731390629376e-05 0.0 
-4.731390629376e-05 5.187474537906e-03 0.0 
0.0 0.0 0.0 
-6.633842186639e-04 -6.560371147975e-05 0.0 
-6.560371147975e-05 4.528553813657e-03 0.0 
0.0 0.0 0.0 
-2.564544295347e-04 5.458042776953e-05 0.0 
5.458042776953e-05 5.867049092327e-03 0.0 
0.0 0.0 0.0 
-1.438948462275e-04 -2.267828082290e-03 0.0 
-2.267828082290e-03 -1.716955002214e-04 0.0 
0.0 0.0 0.0 
5.416097113502e-04 5.505480016724e-04 0.0 
5.505480016724e-04 4.382045841776e-03 0.0 
0.0 0.0 0.0 
-2.069499241686e-05 -1.441636705989e-04 0.0 
-1.441636705989e-04 1.123262007718e-03 0.0 
0.0 0.0 0.0 
-6.244045309939e-04 -2.849898904281e-04 0.0 
-2.849898904281e-04 4.073759996426e-03 0.0 
0.0 0.0 0.0 
-5.290585724316e-05 6.254198611022e-04 0.0 
6.254198611022e-04 6.950197744942e-03 0.0 
0.0 0.0 0.0 
-1.293310346789e-04 -2.876820905695e-05 0.0 
-2.876820905695e-05 7.346399747455e-03 0.0 
0.0 0.0 0.0 
-6.462788369958e-04 -7.058633046092e-05 0.0 
-7.058633046092e-05 4.529996182392e-03 0.0 
0.0 0.0 0.0 
-2.616761252072e-04 -1.013000311124e-05 0.0 
-1.013000311124e-05 5.440805033665e-03 0.0 
0.0 0.0 0.0 
8.088713222709e-05 6.807973403772e-04 0.0 
6.807973403772e-04 6.403024640884e-03 0.0 
0.0 0.0 0.0 
-1.035593516747e-04 5.856829132184e-04 0.0 
5.856829132184e-04 6.332947064324e-03 0.0 
0.0 0.0 0.0 
-1.278689896964e-04 5.794555939121e-04 0.0 
5.794555939121e-04 5.954560796849e-03 0.0 
0.0 0.0 0.0 
-2.905920142164e-04 2.073661165214e-05 0.0 
2.073661165214e-05 4.433922998665e-03 0.0 
0.0 0.0 0.0 
6.570489952600e-04 5.132320921355e-04 0.0 
5.132320921355e-04 3.999631717897e-03 0.0 
0.0 0.0 0.0 
-1.118929403552e-04 4.877929250784e-04 0.0 
4.877929250784e-04 7.229994520289e-03 0.0 
0.0 0.0 0.0 
-4.794961075190e-04 -1.350015745822e-04 0.0 
-1.350015745822e-04 2.451082719208e-03 0.0 
0.0 0.0 0.0 
2.203039220288e-04 -1.663019180337e-04 0.0 
-1.663019180337e-04 2.486696314217e-04 0.0 
0.0 0.0 0.0 
6.526851214583e-05 6.233003013205e-04 0.0 
6.233003013205e-04 6.192063443937e-03 0.0 
0.0 0.0 0.0 
5.706251642863e-04 9.946013269150e-05 0.0 
9.946013269150e-05 4.826460260454e-03 0.0 
0.0 0.0 0.0 
-1.951179918458e-05 -2.143589396548e-03 0.0 
-2.143589396548e-03 -5.419474271395e-04 0.0 
0.0 0.0 0.0 
-2.366716004677e-04 2.349185026856e-06 0.0 
2.349185026856e-06 6.161997055587e-03 0.0 
0.0 0.0 0.0 
-9.677146364373e-05 -2.646009864840e-04 0.0 
-2.646009864840e-04 7.128373565952e-03 0.0 
0.0 0.0 0.0 
1.545298757299e-04 6.266904842904e-04 0.0 
6.266904842904e-04 5.906810560692e-03 0.0 
0.0 0.0 0.0 
1.328205067739e-04 6.450154824356e-04 0.0 
6.450154824356e-04 6.281050874273e-03 0.0 
0.0 0.0 0.0 
-5.556027772951e-04 -7.403380380453e-05 0.0 
-7.403380380453e-05 5.548596390880e-03 0.0 
0.0 0.0 0.0 
5.821828239994e-04 2.082798912793e-03 0.0 
2.082798912793e-03 -3.894288484494e-03 0.0 
0.0 0.0 0.0 
-5.534777977954e-04 7.617203526286e-04 0.0 
7.617203526286e-04 1.656985205837e-03 0.0 
0.0 0.0 0.0 
-4.695924709416e-04 1.459913571213e-03 0.0 
1.459913571213e-03 1.510688973575e-03 0.0 
0.0 0.0 0.0 
-3.446521033854e-04 1.962839067770e-04 0.0 
1.962839067770e-04 5.078385142089e-03 0.0 
0.0 0.0 0.0 
5.792329348751e-04 6.268000092365e-04 0.0 
6.268000092365e-04 3.986231809112e-03 0.0 
0.0 0.0 0.0 
-1.149289068960e-04 1.359632906394e-04 0.0 
1.359632906394e-04 7.568426629679e-03 0.0 
0.0 0.0 0.0 
1.758412746811e-04 1.389906158931e-04 0.0 
1.389906158931e-04 6.081729475487e-03 0.0 
0.0 0.0 0.0 
-6.402886705343e-04 -1.525748280871e-03 0.0 
-1.525748280871e-03 2.340116750859e-04 0.0 
0.0 0.0 0.0 
-3.401724683136e-04 -5.973929791913e-04 0.0 
-5.973929791913e-04 6.362736901950e-04 0.0 
0.0 0.0 0.0 
-6.080591663212e-04 9.565717963955e-04 0.0 
9.565717963955e-04 1.188295330562e-03 0.0 
0.0 0.0 0.0 
-2.126786894333e-04 9.113955892826e-05 0.0 
9.113955892826e-05 6.275604090564e-03 0.0 
0.0 0.0 0.0 
-5.452282187524e-04 -2.590993331319e-04 0.0 
-2.590993331319e-04 2.935882336660e-03 0.0 
0.0 0.0 0.0 
-1.387864267081e-04 3.380243839967e-04 0.0 
3.380243839967e-04 7.472564038318e-03 0.0 
0.0 0.0 0.0 
-6.148182999943e-05 -7.081266485627e-05 0.0 
-7.081266485627e-05 1.391238966484e-03 0.0 
0.0 0.0 0.0 
3.423050784479e-04 1.553921075231e-04 0.0 
1.553921075231e-04 5.603434719784e-03 0.0 
0.0 0.0 0.0 
-3.012648034831e-04 1.160917284650e-04 0.0 
1.160917284650e-04 5.113440908275e-03 0.0 
0.0 0.0 0.0 
1.250894149247e-04 4.800845044338e-04 0.0 
4.800845044338e-04 6.357009812484e-03 0.0 
0.0 0.0 0.0 
3.715582099539e-04 5.289771212321e-04 0.0 
5.289771212321e-04 5.221469695037e-03 0.0 
0.0 0.0 0.0 
-3.622672815746e-04 2.131977956747e-04 0.0 
2.131977956747e-04 5.058731754941e-03 0.0 
0.0 0.0 0.0 
1.634576886396e-04 -3.416919886770e-04 0.0 
-3.416919886770e-04 6.371773880350e-03 0.0 
0.0 0.0 0.0 
-1.112101354467e-04 4.144488074929e-04 0.0 
4.144488074929e-04 7.677827698605e-03 0.0 
0.0 0.0 0.0 
-8.230069551673e-05 4.817676050622e-05 0.0 
4.817676050622e-05 7.850090781222e-03 0.0 
0.0 0.0 0.0 
-5.413483241622e-04 1.095412414301e-03 0.0 
1.095412414301e-03 6.456761957956e-04 0.0 
0.0 0.0 0.0 
-1.308015909814e-04 3.371679731577e-04 0.0 
3.371679731577e-04 7.358365816698e-03 0.0 
0.0 0.0 0.0 
1.429469570713e-05 6.583620910745e-04 0.0 
6.583620910745e-04 6.864564226956e-03 0.0 
0.0 0.0 0.0 
4.174887128423e-04 9.799524418081e-05 0.0 
9.799524418081e-05 5.623821830093e-03 0.0 
0.0 0.0 0.0 
3.589506251336e-04 5.564253855400e-04 0.0 
5.564253855400e-04 5.312640656401e-03 0.0 
0.0 0.0 0.0 
0.0 -4.135980101881e-04 0.0 
-4.135980101881e-04 7.132405325619e-03 0.0 
0.0 0.0 0.0 
-1.208859754899e-04 6.135967027150e-04 0.0 
6.135967027150e-04 5.949859033992e-03 0.0 
0.0 0.0 0.0 
-1.005070531169e-03 1.121328667203e-03 0.0 
1.121328667203e-03 -2.222393244376e-03 0.0 
0.0 0.0 0.0 
3.108978515320e-05 2.397251567729e-03 0.0 
2.397251567729e-03 -5.051545769187e-04 0.0 
0.0 0.0 0.0 
-1.194786834856e-04 5.830952878089e-04 0.0 
5.830952878089e-04 6.631008642982e-03 0.0 
0.0 0.0 0.0 
-3.255387895095e-04 2.235200153883e-04 0.0 
2.235200153883e-04 5.385573628337e-03 0.0 
0.0 0.0 0.0 
-2.361759857231e-04 -1.873570094665e-04 0.0 
-1.873570094665e-04 6.933422619964e-03 0.0 
0.0 0.0 0.0 
2.950605919485e-04 5.039323232933e-04 0.0 
5.039323232933e-04 5.678046925234e-03 0.0 
0.0 0.0 0.0 
-1.731712629816e-05 -3.969258320959e-04 0.0 
-3.969258320959e-04 6.880201514445e-03 0.0 
0.0 0.0 0.0 
-1.835824062361e-04 9.686987482765e-05 0.0 
9.686987482765e-05 6.696336604614e-03 0.0 
0.0 0.0 0.0 
1.261112481274e-04 4.163854099971e-04 0.0 
4.163854099971e-04 6.292417239182e-03 0.0 
0.0 0.0 0.0 
1.517728947267e-04 -3.802289685965e-04 0.0 
-3.802289685965e-04 6.092255332034e-03 0.0 
0.0 0.0 0.0 
1.636349971672e-04 -3.093317863044e-04 0.0 
-3.093317863044e-04 6.085793512060e-03 0.0 
0.0 0.0 0.0 
-5.604502931505e-04 -1.763772996528e-04 0.0 
-1.763772996528e-04 3.073946846833e-03 0.0 
0.0 0.0 0.0 
-3.873954715461e-05 -4.226267339334e-04 0.0 
-4.226267339334e-04 7.257572540613e-03 0.0 
0.0 0.0 0.0 
-3.438670449644e-04 1.155896214724e-04 0.0 
1.155896214724e-04 4.735798756610e-03 0.0 
0.0 0.0 0.0 
-1.188221417019e-04 6.072621410164e-05 0.0 
6.072621410164e-05 7.487750407546e-03 0.0 
0.0 0.0 0.0 
-5.759519375156e-04 -7.146783671148e-04 0.0 
-7.146783671148e-04 8.665009799191e-04 0.0 
0.0 0.0 0.0 
-1.522120170736e-04 2.306447317624e-05 0.0 
2.306447317624e-05 7.202368031054e-03 0.0 
0.0 0.0 0.0 
-2.356951386192e-04 3.600737056035e-05 0.0 
3.600737056035e-05 6.192843080315e-03 0.0 
0.0 0.0 0.0 
2.556511080116e-04 2.704692554748e-05 0.0 
2.704692554748e-05 6.611548803337e-04 0.0 
0.0 0.0 0.0 
2.066569294186e-03 -1.551568240064e-03 0.0 
-1.551568240064e-03 -3.758342010876e-03 0.0 
0.0 0.0 0.0 
-7.243980237337e-05 6.427900561799e-04 0.0 
6.427900561799e-04 6.024334970557e-03 0.0 
0.0 0.0 0.0 
-6.414818724498e-05 2.183473064258e-04 0.0 
2.183473064258e-04 7.782581738814e-03 0.0 
0.0 0.0 0.0 
-1.160805607716e-04 1.940900616952e-05 0.0 
1.940900616952e-05 7.548223241178e-03 0.0 
0.0 0.0 0.0 
2.557591053034e-04 4.271314109439e-04 0.0 
4.271314109439e-04 6.128534160238e-03 0.0 
0.0 0.0 0.0 
-2.637127960264e-04 8.247857895027e-05 0.0 
8.247857895027e-05 5.428826700453e-03 0.0 
0.0 0.0 0.0 
3.893194827782e-04 9.862437700173e-06 0.0 
9.862437700173e-06 1.931030207356e-04 0.0 
0.0 0.0 0.0 
1.127312326651e-03 1.624835324214e-03 0.0 
1.624835324214e-03 -4.344547436287e-03 0.0 
0.0 0.0 0.0 
2.256773054188e-05 -7.340800978759e-05 0.0 
-7.340800978759e-05 4.238894207738e-04 0.0 
0.0 0.0 0.0 
-4.840956491061e-04 -7.851447841714e-04 0.0 
-7.851447841714e-04 9.874415787114e-04 0.0 
0.0 0.0 0.0 
-3.831439530358e-04 1.877169304781e-03 0.0 
1.877169304781e-03 -1.939317169599e-03 0.0 
0.0 0.0 0.0 
-6.443865104403e-04 -2.484357928845e-04 0.0 
-2.484357928845e-04 4.017399374398e-03 0.0 
0.0 0.0 0.0 
-2.321893031481e-04 -1.481033064146e-04 0.0 
-1.481033064146e-04 6.932587659665e-03 0.0 
0.0 0.0 0.0 
-1.125075855823e-04 5.593302202899e-04 0.0 
5.593302202899e-04 7.106185736150e-03 0.0 
0.0 0.0 0.0 
-3.700160249318e-04 2.600307591661e-04 0.0 
2.600307591661e-04 5.303460484564e-03 0.0 
0.0 0.0 0.0 
-6.002389050863e-04 -3.944374205097e-04 0.0 
-3.944374205097e-04 3.471452519057e-03 0.0 
0.0 0.0 0.0 
6.403071651229e-05 -4.375379221027e-04 0.0 
-4.375379221027e-04 6.236469443799e-03 0.0 
0.0 0.0 0.0 
3.658302873326e-04 -1.208814897769e-04 0.0 
-1.208814897769e-04 5.674796793266e-03 0.0 
0.0 0.0 0.0 
1.879711594488e-04 5.485184131514e-04 0.0 
5.485184131514e-04 6.404320921257e-03 0.0 
0.0 0.0 0.0 
3.796554875413e-05 6.284142445067e-04 0.0 
6.284142445067e-04 6.493269723828e-03 0.0 
0.0 0.0 0.0 
-4.758644617020e-05 6.507252469321e-04 0.0 
6.507252469321e-04 6.407021406542e-03 0.0 
0.0 0.0 0.0 
-5.754394481895e-04 -5.487863735535e-04 0.0 
-5.487863735535e-04 8.479436324316e-04 0.0 
0.0 0.0 0.0 
9.588038374211e-04 -1.533781938838e-03 0.0 
-1.533781938838e-03 -4.300448895110e-03 0.0 
0.0 0.0 0.0 
-2.067140043918e-04 -2.859440529281e-04 0.0 
-2.859440529281e-04 6.866052022147e-03 0.0 
0.0 0.0 0.0 
1.096249560124e-04 -3.739574794372e-06 0.0 
-3.739574794372e-06 6.910623362777e-04 0.0 
0.0 0.0 0.0 
1.158160234112e-04 7.356111551768e-06 0.0 
7.356111551768e-06 8.593856323162e-04 0.0 
0.0 0.0 0.0 
-2.556967171790e-04 2.167070654221e-03 0.0 
2.167070654221e-03 -1.050822617167e-03 0.0 
0.0 0.0 0.0 
-8.455979911837e-07 -1.125748256645e-04 0.0 
-1.125748256645e-04 7.064848697103e-04 0.0 
0.0 0.0 0.0 
7.336732997865e-05 -3.310593511930e-04 0.0 
-3.310593511930e-04 6.425635130457e-03 0.0 
0.0 0.0 0.0 
-3.044197628799e-05 6.402576389128e-04 0.0 
6.402576389128e-04 7.117459802110e-03 0.0 
0.0 0.0 0.0 
-1.043016282205e-04 1.820188232667e-04 0.0 
1.820188232667e-04 7.571071816248e-03 0.0 
0.0 0.0 0.0 
8.582321839157e-05 5.361270284308e-04 0.0 
5.361270284308e-04 6.475931408847e-03 0.0 
0.0 0.0 0.0 
4.049390874781e-04 -1.552836742667e-04 0.0 
-1.552836742667e-04 5.350698155357e-03 0.0 
0.0 0.0 0.0 
-2.500049164527e-04 8.516734931585e-05 0.0 
8.516734931585e-05 5.663906159483e-03 0.0 
0.0 0.0 0.0 
0.0 2.940700635374e-04 0.0 
2.940700635374e-04 8.083462998883e-03 0.0 
0.0 0.0 0.0 
9.187667907278e-04 -2.362289991723e-03 0.0 
-2.362289991723e-03 -1.708129678339e-03 0.0 
0.0 0.0 0.0 
-2.936552280056e-04 3.226577845458e-05 0.0 
3.226577845458e-05 4.400952525407e-03 0.0 
0.0 0.0 0.0 
-6.198657197766e-04 -2.232111477831e-03 0.0 
-2.232111477831e-03 -5.373270745523e-05 0.0 
0.0 0.0 0.0 
1.939959702455e-04 8.213047531552e-06 0.0 
8.213047531552e-06 2.841989990177e-04 0.0 
0.0 0.0 0.0 
-7.696007058877e-05 -3.292664871809e-04 0.0 
-3.292664871809e-04 7.389303811469e-03 0.0 
0.0 0.0 0.0 
-3.836082289349e-04 2.000395179468e-04 0.0 
2.000395179468e-04 4.719058896811e-03 0.0 
0.0 0.0 0.0 
9.449910552695e-05 -5.156180015956e-05 0.0 
-5.156180015956e-05 1.029011967532e-03 0.0 
0.0 0.0 0.0 
-6.578260527933e-04 -1.585436307639e-04 0.0 
-1.585436307639e-04 3.923269147135e-03 0.0 
0.0 0.0 0.0 
-4.069539165397e-05 6.791218650982e-04 0.0 
6.791218650982e-04 7.174062602799e-03 0.0 
0.0 0.0 0.0 
-1.366805022693e-04 1.890002076459e-04 0.0 
1.890002076459e-04 7.513288962932e-03 0.0 
0.0 0.0 0.0 
-6.829626339921e-05 4.380426949665e-04 0.0 
4.380426949665e-04 7.626514456127e-03 0.0 
0.0 0.0 0.0 
-5.062666299472e-04 -8.800876023075e-05 0.0 
-8.800876023075e-05 2.838076182972e-03 0.0 
0.0 0.0 0.0 
1.169025331902e-03 1.643088797702e-04 0.0 
1.643088797702e-04 -4.769268776495e-03 0.0 
0.0 0.0 0.0 
-2.885784100348e-05 -4.464459346405e-04 0.0 
-4.464459346405e-04 6.803038019065e-03 0.0 
0.0 0.0 0.0 
-3.877648950812e-05 3.455093035307e-05 0.0 
3.455093035307e-05 8.169260388566e-03 0.0 
0.0 0.0 0.0 
-1.148417081062e-04 -8.360951078077e-05 0.0 
-8.360951078077e-05 7.542156559498e-03 0.0 
0.0 0.0 0.0 
-2.613956642574e-04 2.144453514559e-05 0.0 
2.144453514559e-05 4.731708432391e-03 0.0 
0.0 0.0 0.0 
2.786402075812e-04 -9.792059423518e-05 0.0 
-9.792059423518e-05 5.720432037289e-03 0.0 
0.0 0.0 0.0 
-6.354417740440e-05 -4.547159547387e-05 0.0 
-4.547159547387e-05 1.130213439554e-03 0.0 
0.0 0.0 0.0 
-1.178313586578e-04 3.766185526411e-04 0.0 
3.766185526411e-04 7.475646330208e-03 0.0 
0.0 0.0 0.0 
1.959539250023e-04 4.216611544962e-06 0.0 
4.216611544962e-06 2.746013765687e-04 0.0 
0.0 0.0 0.0 
1.101914936470e-04 -2.178117109893e-04 0.0 
-2.178117109893e-04 6.280052228808e-03 0.0 
0.0 0.0 0.0 
-1.126476833244e-04 4.924897069699e-04 0.0 
4.924897069699e-04 7.567414713761e-03 0.0 
0.0 0.0 0.0 
8.342466881652e-04 9.446779257517e-04 0.0 
9.446779257517e-04 -4.978431366343e-03 0.0 
0.0 0.0 0.0 
1.843729743467e-04 5.973245101547e-04 0.0 
5.973245101547e-04 5.916486515699e-03 0.0 
0.0 0.0 0.0 
-2.048891662899e-04 1.898150983758e-05 0.0 
1.898150983758e-05 6.495163501786e-03 0.0 
0.0 0.0 0.0 
-5.141544369636e-05 1.622097897271e-04 0.0 
1.622097897271e-04 7.834145512192e-03 0.0 
0.0 0.0 0.0 
0.0 2.859035086643e-04 0.0 
2.859035086643e-04 6.661747394158e-03 0.0 
0.0 0.0 0.0 
-2.360678062332e-04 -3.152687245621e-05 0.0 
-3.152687245621e-05 5.948974293830e-03 0.0 
0.0 0.0 0.0 
-2.929030594723e-05 6.404903501688e-04 0.0 
6.404903501688e-04 7.223021637912e-03 0.0 
0.0 0.0 0.0 
-1.500623266032e-04 4.046599074779e-04 0.0 
4.046599074779e-04 7.378037117141e-03 0.0 
0.0 0.0 0.0 
-2.147690851294e-04 3.269893357165e-05 0.0 
3.269893357165e-05 6.190776605972e-03 0.0 
0.0 0.0 0.0 
-4.677973225797e-05 6.223920526150e-04 0.0 
6.223920526150e-04 6.919656763623e-03 0.0 
0.0 0.0 0.0 
-6.052139144820e-04 -1.924621885172e-04 0.0 
-1.924621885172e-04 3.365516786726e-03 0.0 
0.0 0.0 0.0 
-2.784358729421e-04 4.656111318376e-06 0.0 
4.656111318376e-06 4.421191218985e-03 0.0 
0.0 0.0 0.0 
1.857356030412e-04 5.723086798471e-04 0.0 
5.723086798471e-04 6.140711249989e-03 0.0 
0.0 0.0 0.0 
-5.500436321548e-05 3.919202701462e-05 0.0 
3.919202701462e-05 7.891865875184e-03 0.0 
0.0 0.0 0.0 
5.035213704061e-04 1.275165559259e-05 0.0 
1.275165559259e-05 -1.342242826052e-04 0.0 
0.0 0.0 0.0 
-2.655067881614e-04 1.059960979660e-05 0.0 
1.059960979660e-05 4.425480132783e-03 0.0 
0.0 0.0 0.0 
-1.398705841203e-04 -7.071185886058e-05 0.0 
-7.071185886058e-05 7.317333513341e-03 0.0 
0.0 0.0 0.0 
-2.861489697835e-04 -2.021632830963e-04 0.0 
-2.021632830963e-04 1.507632814485e-03 0.0 
0.0 0.0 0.0 
4.081065798529e-04 2.289798040537e-05 0.0 
2.289798040537e-05 5.672916773814e-03 0.0 
0.0 0.0 0.0 
-1.543777749186e-04 4.710393689305e-04 0.0 
4.710393689305e-04 7.240227393044e-03 0.0 
0.0 0.0 0.0 
-9.807669926853e-05 1.300723772652e-04 0.0 
1.300723772652e-04 7.812483188565e-03 0.0 
0.0 0.0 0.0 
-1.407132960227e-04 -1.124116161718e-04 0.0 
-1.124116161718e-04 1.405904394351e-03 0.0 
0.0 0.0 0.0 
4.815080811036e-04 2.793845089680e-03 0.0 
2.793845089680e-03 -2.239900326353e-03 0.0 
0.0 0.0 0.0 
-6.564556329646e-04 1.663091113137e-05 0.0 
1.663091113137e-05 4.705213662516e-03 0.0 
0.0 0.0 0.0 
-1.737328441285e-04 4.626974857541e-05 0.0 
4.626974857541e-05 6.926997040259e-03 0.0 
0.0 0.0 0.0 
-3.678033869739e-03 -3.309871648065e-04 0.0 
-3.309871648065e-04 -3.038913227722e-03 0.0 
0.0 0.0 0.0 
-6.208333241264e-05 3.671818775008e-04 0.0 
3.671818775008e-04 7.721371358056e-03 0.0 
0.0 0.0 0.0 
-2.339265961560e-04 2.792583998574e-05 0.0 
2.792583998574e-05 5.826366909628e-03 0.0 
0.0 0.0 0.0 
-2.880326974894e-04 -2.166513058220e-03 0.0 
-2.166513058220e-03 -1.593365761350e-04 0.0 
0.0 0.0 0.0 
-2.569988437771e-04 4.109785304585e-05 0.0 
4.109785304585e-05 5.537718012750e-03 0.0 
0.0 0.0 0.0 
1.460318591739e-04 5.804401129887e-04 0.0 
5.804401129887e-04 6.508400119417e-03 0.0 
0.0 0.0 0.0 
-6.410740438304e-04 -6.807507871653e-05 0.0 
-6.807507871653e-05 4.894196435240e-03 0.0 
0.0 0.0 0.0 
-1.386153206319e-03 2.226168404007e-03 0.0 
2.226168404007e-03 -3.884458680276e-04 0.0 
0.0 0.0 0.0 
-6.102267592770e-04 -2.169099299335e-04 0.0 
-2.169099299335e-04 3.087110039052e-03 0.0 
0.0 0.0 0.0 
-6.348717312257e-04 -2.387575422752e-04 0.0 
-2.387575422752e-04 4.322969569422e-03 0.0 
0.0 0.0 0.0 
-6.226391926203e-04 2.314133147786e-05 0.0 
2.314133147786e-05 5.065563323032e-03 0.0 
0.0 0.0 0.0 
2.799720656352e-04 4.033142683544e-04 0.0 
4.033142683544e-04 5.938812386367e-03 0.0 
0.0 0.0 0.0 
-6.581532310148e-04 -1.385059237349e-04 0.0 
-1.385059237349e-04 4.235975209133e-03 0.0 
0.0 0.0 0.0 
-6.413770363177e-04 -1.518909860048e-04 0.0 
-1.518909860048e-04 4.487766170730e-03 0.0 
0.0 0.0 0.0 
-2.515577884088e-05 -1.233205623946e-04 0.0 
-1.233205623946e-04 6.495270765094e-04 0.0 
0.0 0.0 0.0 
-5.162980145490e-05 -3.779640401154e-04 0.0 
-3.779640401154e-04 6.618842249001e-03 0.0 
0.0 0.0 0.0 
5.456994903796e-05 6.703528066627e-04 0.0 
6.703528066627e-04 6.197064717546e-03 0.0 
0.0 0.0 0.0 
8.055089037873e-04 2.410886022569e-03 0.0 
2.410886022569e-03 -2.430277669602e-03 0.0 
0.0 0.0 0.0 
-3.975933108125e-05 1.281063560962e-05 0.0 
1.281063560962e-05 7.879414436499e-03 0.0 
0.0 0.0 0.0 
-1.225200277856e-04 -4.113288461288e-05 0.0 
-4.113288461288e-05 7.308161647207e-03 0.0 
0.0 0.0 0.0 
-2.641413253125e-04 -1.864534383257e-05 0.0 
-1.864534383257e-05 4.752764232202e-03 0.0 
0.0 0.0 0.0 
-2.456216388508e-04 2.298463685481e-05 0.0 
2.298463685481e-05 5.824286811065e-03 0.0 
0.0 0.0 0.0 
-6.552772974372e-04 -1.652509286413e-04 0.0 
-1.652509286413e-04 4.238949539610e-03 0.0 
0.0 0.0 0.0 
-6.411713258756e-04 -1.953826998398e-04 0.0 
-1.953826998398e-04 4.302199111349e-03 0.0 
0.0 0.0 0.0 
-6.619834396715e-04 -1.254103771034e-04 0.0 
-1.254103771034e-04 4.472037235325e-03 0.0 
0.0 0.0 0.0 
4.408208753057e-04 9.829025211971e-05 0.0 
9.829025211971e-05 5.317221621811e-03 0.0 
0.0 0.0 0.0 
-5.406075138863e-04 -1.812662459751e-03 0.0 
-1.812662459751e-03 5.225827844750e-04 0.0 
0.0 0.0 0.0 
2.974546469603e-05 6.532187337605e-04 0.0 
6.532187337605e-04 6.540737691949e-03 0.0 
0.0 0.0 0.0 
-2.589142843975e-04 2.492190038442e-05 0.0 
2.492190038442e-05 5.117485667117e-03 0.0 
0.0 0.0 0.0 
-1.189892678354e-04 3.373038651518e-04 0.0 
3.373038651518e-04 7.711552726549e-03 0.0 
0.0 0.0 0.0 
4.243222048805e-04 1.687079344893e-05 0.0 
1.687079344893e-05 5.307151520061e-03 0.0 
0.0 0.0 0.0 
-2.648922263757e-04 2.875067523370e-05 0.0 
2.875067523370e-05 5.544050528411e-03 0.0 
0.0 0.0 0.0 
-6.656511760439e-05 6.306397814304e-04 0.0 
6.306397814304e-04 6.664119048216e-03 0.0 
0.0 0.0 0.0 
2.415277097669e-04 4.530652446039e-04 0.0 
4.530652446039e-04 5.922365389923e-03 0.0 
0.0 0.0 0.0 
2.177227347524e-04 4.751028086388e-04 0.0 
4.751028086388e-04 6.327022843407e-03 0.0 
0.0 0.0 0.0 
-2.539931713345e-04 2.313179160469e-03 0.0 
2.313179160469e-03 -1.875025714379e-03 0.0 
0.0 0.0 0.0 
-8.167088163014e-05 6.063363459567e-04 0.0 
6.063363459567e-04 6.666861514108e-03 0.0 
0.0 0.0 0.0 
-4.088552164894e-05 6.826594753855e-04 0.0 
6.826594753855e-04 6.801147432268e-03 0.0 
0.0 0.0 0.0 
2.076315405004e-04 -6.640197428076e-05 0.0 
-6.640197428076e-05 6.010509978136e-04 0.0 
0.0 0.0 0.0 
-6.486278262602e-04 -1.993170945007e-04 0.0 
-1.993170945007e-04 4.027910668801e-03 0.0 
0.0 0.0 0.0 
-7.871214813847e-04 2.789946961558e-03 0.0 
2.789946961558e-03 -2.127760828831e-03 0.0 
0.0 0.0 0.0 
-8.565260926741e-05 6.300869048416e-04 0.0 
6.300869048416e-04 6.950803831611e-03 0.0 
0.0 0.0 0.0 
-7.928826703163e-05 -1.043592410606e-05 0.0 
-1.043592410606e-05 1.580643426780e-04 0.0 
0.0 0.0 0.0 
-9.488605990660e-05 -1.349632528854e-05 0.0 
-1.349632528854e-05 1.785147126352e-04 0.0 
0.0 0.0 0.0 
-6.448034222362e-05 -8.634063287961e-06 0.0 
-8.634063287961e-06 1.788138868071e-04 0.0 
0.0 0.0 0.0 
-6.160328683280e-05 -8.794215536912e-06 0.0 
-8.794215536912e-06 1.765304976249e-04 0.0 
0.0 0.0 0.0 
-6.049084465765e-05 -5.210463477147e-06 0.0 
-5.210463477147e-06 1.768982543842e-04 0.0 
0.0 0.0 0.0 
-4.719244865303e-05 -9.576944595552e-06 0.0 
-9.576944595552e-06 1.735015584796e-04 0.0 
0.0 0.0 0.0 
-5.442596487826e-05 -4.341734575343e-06 0.0 
-4.341734575343e-06 1.742580607718e-04 0.0 
0.0 0.0 0.0 
-3.451965001122e-05 -1.085348175680e-05 0.0 
-1.085348175680e-05 1.695367121428e-04 0.0 
0.0 0.0 0.0 
-4.587150826274e-05 -4.879517456736e-06 0.0 
-4.879517456736e-06 1.706510687876e-04 0.0 
0.0 0.0 0.0 
-2.095957475412e-05 -1.264631083044e-05 0.0 
-1.264631083044e-05 1.645533962034e-04 0.0 
0.0 0.0 0.0 
-3.532026864583e-05 -5.904082318534e-06 0.0 
-5.904082318534e-06 1.661020216575e-04 0.0 
0.0 0.0 0.0 
-5.451007234925e-06 -1.474384259015e-05 0.0 
-1.474384259015e-05 1.585532918247e-04 0.0 
0.0 0.0 0.0 
-2.305867570296e-05 -7.003128771828e-06 0.0 
-7.003128771828e-06 1.606782131622e-04 0.0 
0.0 0.0 0.0 
1.238673831105e-05 -1.699386799890e-05 0.0 
-1.699386799890e-05 1.515619089085e-04 0.0 
0.0 0.0 0.0 
-9.275438494383e-06 -7.998772233361e-06 0.0 
-7.998772233361e-06 1.544554369084e-04 0.0 
0.0 0.0 0.0 
3.260306416686e-05 -1.927388991559e-05 0.0 
-1.927388991559e-05 1.436164012447e-04 0.0 
0.0 0.0 0.0 
5.864484106999e-06 -8.789941415850e-06 0.0 
-8.789941415850e-06 1.475138647484e-04 0.0 
0.0 0.0 0.0 
5.504749028518e-05 -2.143637231367e-05 0.0 
-2.143637231367e-05 1.347605000099e-04 0.0 
0.0 0.0 0.0 
2.220605613390e-05 -9.263151297992e-06 0.0 
-9.263151297992e-06 1.399344238515e-04 0.0 
0.0 0.0 0.0 
7.937380276712e-05 -2.323711261187e-05 0.0 
-2.323711261187e-05 1.250421779506e-04 0.0 
0.0 0.0 0.0 
3.965007509921e-05 -9.222097284794e-06 0.0 
-9.222097284794e-06 1.317870443653e-04 0.0 
0.0 0.0 0.0 
1.049345968986e-04 -2.422886010758e-05 0.0 
-2.422886010758e-05 1.145260569453e-04 0.0 
0.0 0.0 0.0 
5.829623952969e-05 -8.316237850412e-06 0.0 
-8.316237850412e-06 1.231070003640e-04 0.0 
0.0 0.0 0.0 
-3.751751198597e-04 5.580895077666e-04 0.0 
5.580895077666e-04 1.468494924945e-04 0.0 
0.0 0.0 0.0 
1.304892236196e-04 -2.368103232448e-05 0.0 
-2.368103232448e-05 1.034914933489e-04 0.0 
0.0 0.0 0.0 
7.869419911422e-05 -5.912780071878e-06 0.0 
-5.912780071878e-06 1.140586406616e-04 0.0 
0.0 0.0 0.0 
1.661565227591e-04 -2.327883720662e-05 0.0 
-2.327883720662e-05 9.007210590428e-05 0.0 
0.0 0.0 0.0 
4.368643562820e-04 6.266162263241e-06 0.0 
6.266162263241e-06 -2.168684479729e-04 0.0 
0.0 0.0 0.0 
1.009647634271e-04 -3.689849950855e-06 0.0 
-3.689849950855e-06 1.033271891864e-04 0.0 
0.0 0.0 0.0 
2.087393469938e-04 -2.438363650214e-05 0.0 
-2.438363650214e-05 7.477350379737e-05 0.0 
0.0 0.0 0.0 
-6.793010733729e-04 3.972616712182e-04 0.0 
3.972616712182e-04 3.837088174172e-04 0.0 
0.0 0.0 0.0 
1.240257493351e-04 -2.744790766167e-06 0.0 
-2.744790766167e-06 9.163205049534e-05 0.0 
0.0 0.0 0.0 
2.520379515487e-04 -2.649481169693e-05 0.0 
-2.649481169693e-05 5.890213888082e-05 0.0 
0.0 0.0 0.0 
1.467952771854e-04 -2.680484026919e-06 0.0 
-2.680484026919e-06 8.005003330225e-05 0.0 
0.0 0.0 0.0 
2.972478134680e-04 -2.916795488704e-05 0.0 
-2.916795488704e-05 4.231629310647e-05 0.0 
0.0 0.0 0.0 
1.689863245731e-04 -3.247386149030e-06 0.0 
-3.247386149030e-06 6.853000650864e-05 0.0 
0.0 0.0 0.0 
3.453066834878e-04 -3.243117770455e-05 0.0 
-3.243117770455e-05 2.492127244680e-05 0.0 
0.0 0.0 0.0 
1.897508234852e-04 -4.416839929253e-06 0.0 
-4.416839929253e-06 5.729167552615e-05 0.0 
0.0 0.0 0.0 
3.969655497456e-04 -3.658025071642e-05 0.0 
-3.658025071642e-05 6.855787244575e-06 0.0 
0.0 0.0 0.0 
2.075878449181e-04 -6.292923794097e-06 0.0 
-6.292923794097e-06 4.702184551508e-05 0.0 
0.0 0.0 0.0 
-1.507630142431e-03 1.396322786374e-03 0.0 
1.396322786374e-03 8.083956397029e-04 0.0 
0.0 0.0 0.0 
4.519663130149e-04 -4.154813874166e-05 0.0 
-4.154813874166e-05 -1.168134128160e-05 0.0 
0.0 0.0 0.0 
2.209865540328e-04 -8.580117023796e-06 0.0 
-8.580117023796e-06 3.852011948524e-05 0.0 
0.0 0.0 0.0 
5.143716545233e-04 -4.780557907624e-05 0.0 
-4.780557907624e-05 -3.082842967883e-05 0.0 
0.0 0.0 0.0 
2.263635175941e-04 -1.197661979651e-05 0.0 
-1.197661979651e-05 3.287279898601e-05 0.0 
0.0 0.0 0.0 
5.789799546432e-04 -5.478311718163e-05 0.0 
-5.478311718163e-05 -4.983557476212e-05 0.0 
0.0 0.0 0.0 
6.440275893584e-04 -6.139666301992e-05 0.0 
-6.139666301992e-05 -6.735634914601e-05 0.0 
0.0 0.0 0.0 
2.192963785130e-04 -1.539745456202e-05 0.0 
-1.539745456202e-05 3.179315944801e-05 0.0 
0.0 0.0 0.0 
6.969990909942e-04 -6.097634733877e-05 0.0 
-6.097634733877e-05 -8.493665036957e-05 0.0 
0.0 0.0 0.0 
1.918410215671e-04 -1.794935123004e-05 0.0 
-1.794935123004e-05 3.820968006041e-05 0.0 
0.0 0.0 0.0 
7.361924829326e-04 -4.251549902938e-05 0.0 
-4.251549902938e-05 -1.009724658122e-04 0.0 
0.0 0.0 0.0 
1.423430559442e-04 -8.958229688224e-06 0.0 
-8.958229688224e-06 5.308365752699e-05 0.0 
0.0 0.0 0.0 
9.057572464206e-04 -3.650760700901e-05 0.0 
-3.650760700901e-05 -1.301025767891e-04 0.0 
0.0 0.0 0.0 
5.188461069228e-05 1.359169404472e-05 0.0 
1.359169404472e-05 7.453386002099e-05 0.0 
0.0 0.0 0.0 
7.432600629969e-04 1.902787632206e-05 0.0 
1.902787632206e-05 -1.083573590208e-04 0.0 
0.0 0.0 0.0 
3.397235441642e-04 1.929168655409e-04 0.0 
1.929168655409e-04 -5.107930060266e-05 0.0 
0.0 0.0 0.0 
-1.074826037926e-04 2.481575575395e-05 0.0 
2.481575575395e-05 1.284888027833e-04 0.0 
0.0 0.0 0.0 
-2.478908474295e-04 1.103952401565e-04 0.0 
1.103952401565e-04 1.914974558621e-04 0.0 
0.0 0.0 0.0 
-1.201685540658e-03 2.874770262338e-04 0.0 
2.874770262338e-04 1.103845549004e-03 0.0 
0.0 0.0 0.0 
-5.021074280964e-05 -3.347279581127e-05 0.0 
-3.347279581127e-05 1.113076713244e-04 0.0 
0.0 0.0 0.0 
-7.240512546991e-05 2.958720534261e-05 0.0 
2.958720534261e-05 1.594424044724e-04 0.0 
0.0 0.0 0.0 
-3.461327723220e-05 -7.422360046555e-06 0.0 
-7.422360046555e-06 4.504083216350e-05 0.0 
0.0 0.0 0.0 
-8.866560592902e-05 4.849075080807e-06 0.0 
4.849075080807e-06 2.237702339323e-04 0.0 
0.0 0.0 0.0 
-1.439942370311e-03 1.660978856936e-03 0.0 
1.660978856936e-03 -2.100920742627e-04 0.0 
0.0 0.0 0.0 
-7.928826703163e-05 -5.873254377159e-07 0.0 
-5.873254377159e-07 5.015884855415e-04 0.0 
0.0 0.0 0.0 
-8.418140784550e-05 4.458867403030e-06 0.0 
4.458867403030e-06 5.158943589916e-04 0.0 
0.0 0.0 0.0 
-6.448034222362e-05 -9.541549561119e-06 0.0 
-9.541549561119e-06 5.168364792274e-04 0.0 
0.0 0.0 0.0 
-8.536284123606e-05 -1.694081766558e-05 0.0 
-1.694081766558e-05 5.215814937953e-04 0.0 
0.0 0.0 0.0 
-6.049084465765e-05 -1.532702488360e-05 0.0 
-1.532702488360e-05 5.213480075119e-04 0.0 
0.0 0.0 0.0 
-8.357730044184e-05 -2.540389493887e-05 0.0 
-2.540389493887e-05 5.225961023516e-04 0.0 
0.0 0.0 0.0 
-5.442596487826e-05 -1.977059344259e-05 0.0 
-1.977059344259e-05 5.216804444255e-04 0.0 
0.0 0.0 0.0 
-7.977200529563e-05 -3.150052133974e-05 0.0 
-3.150052133974e-05 5.214073858109e-04 0.0 
0.0 0.0 0.0 
-4.587150826274e-05 -2.376569225572e-05 0.0 
-2.376569225572e-05 5.198218586722e-04 0.0 
0.0 0.0 0.0 
-7.432603097768e-05 -3.705265096182e-05 0.0 
-3.705265096182e-05 5.188688546609e-04 0.0 
0.0 0.0 0.0 
-3.532026864583e-05 -2.765305926745e-05 0.0 
-2.765305926745e-05 5.165066896005e-04 0.0 
0.0 0.0 0.0 
-6.754648819585e-05 -4.243743216257e-05 0.0 
-4.243743216257e-05 5.154234693276e-04 0.0 
0.0 0.0 0.0 
-2.305867570296e-05 -3.141043221466e-05 0.0 
-3.141043221466e-05 5.121137705257e-04 0.0 
0.0 0.0 0.0 
-5.968178150106e-05 -4.765403060353e-05 0.0 
-4.765403060353e-05 5.113244999668e-04 0.0 
0.0 0.0 0.0 
-9.275438494383e-06 -3.489605773537e-05 0.0 
-3.489605773537e-05 5.068460799982e-04 0.0 
0.0 0.0 0.0 
-5.094194553923e-05 -5.257162720951e-05 0.0 
-5.257162720951e-05 5.067192507842e-04 0.0 
0.0 0.0 0.0 
5.864484106999e-06 -3.793052744474e-05 0.0 
-3.793052744474e-05 5.008076488353e-04 0.0 
0.0 0.0 0.0 
-4.151345776382e-05 -5.700429190402e-05 0.0 
-5.700429190402e-05 5.016863817608e-04 0.0 
0.0 0.0 0.0 
2.220605613390e-05 -4.031871759220e-05 0.0 
-4.031871759220e-05 4.940385762937e-04 0.0 
0.0 0.0 0.0 
-3.155876046690e-05 -6.074531160615e-05 0.0 
-6.074531160615e-05 4.962385433884e-04 0.0 
0.0 0.0 0.0 
3.965007509921e-05 -4.188454698788e-05 0.0 
-4.188454698788e-05 4.865231436393e-04 0.0 
0.0 0.0 0.0 
-2.121432646940e-05 -6.363003248794e-05 0.0 
-6.363003248794e-05 4.903148092430e-04 0.0 
0.0 0.0 0.0 
-5.220120582281e-04 8.004327957147e-04 0.0 
8.004327957147e-04 4.269450606698e-04 0.0 
0.0 0.0 0.0 
5.829623952969e-05 -4.262645456239e-05 0.0 
-4.262645456239e-05 4.782201297020e-04 0.0 
0.0 0.0 0.0 
-1.068404722127e-05 -6.570375414742e-05 0.0 
-6.570375414742e-05 4.839340348257e-04 0.0 
0.0 0.0 0.0 
7.869419911422e-05 -4.318860457366e-05 0.0 
-4.318860457366e-05 4.693508691933e-04 0.0 
0.0 0.0 0.0 
-6.339428889828e-04 5.799541229720e-04 0.0 
5.799541229720e-04 6.564744241211e-04 0.0 
0.0 0.0 0.0 
-8.322230130586e-07 -6.724410203054e-05 0.0 
-6.724410203054e-05 4.786207545138e-04 0.0 
0.0 0.0 0.0 
1.009647634271e-04 -4.237337714960e-05 0.0 
-4.237337714960e-05 4.606831009617e-04 0.0 
0.0 0.0 0.0 
7.933963456885e-06 -6.775991064895e-05 0.0 
-6.775991064895e-05 4.741747537711e-04 0.0 
0.0 0.0 0.0 
1.240257493351e-04 -4.002047424752e-05 0.0 
-4.002047424752e-05 4.520620096684e-04 0.0 
0.0 0.0 0.0 
1.501169778262e-05 -6.702568705257e-05 0.0 
-6.702568705257e-05 4.701153361109e-04 0.0 
0.0 0.0 0.0 
-2.478908474295e-04 6.495596180953e-04 0.0 
6.495596180953e-04 2.216266161392e-04 0.0 
0.0 0.0 0.0 
1.467952771854e-04 -3.673834124202e-05 0.0 
-3.673834124202e-05 4.433763616307e-04 0.0 
0.0 0.0 0.0 
1.919086111801e-05 -6.511636012083e-05 0.0 
-6.511636012083e-05 4.670199899368e-04 0.0 
0.0 0.0 0.0 
1.689863245731e-04 -3.238545576899e-05 0.0 
-3.238545576899e-05 4.349640350259e-04 0.0 
0.0 0.0 0.0 
1.883906932898e-05 -6.196529403744e-05 0.0 
-6.196529403744e-05 4.655779347955e-04 0.0 
0.0 0.0 0.0 
1.897508234852e-04 -2.691251255094e-05 0.0 
-2.691251255094e-05 4.273598562905e-04 0.0 
0.0 0.0 0.0 
1.203776537206e-05 -5.738356457650e-05 0.0 
-5.738356457650e-05 4.667327819821e-04 0.0 
0.0 0.0 0.0 
2.075878449181e-04 -1.988092453794e-05 0.0 
-1.988092453794e-05 4.211770752756e-04 0.0 
0.0 0.0 0.0 
-4.221372280511e-06 -5.067410335843e-05 0.0 
-5.067410335843e-05 4.717466880562e-04 0.0 
0.0 0.0 0.0 
2.209865540328e-04 -1.050373684298e-05 0.0 
-1.050373684298e-05 4.172643988642e-04 0.0 
0.0 0.0 0.0 
-3.247815021323e-05 -4.009668835002e-05 0.0 
-4.009668835002e-05 4.826568579144e-04 0.0 
0.0 0.0 0.0 
2.263635175941e-04 4.113126869988e-06 0.0 
4.113126869988e-06 4.167102808101e-04 0.0 
0.0 0.0 0.0 
-7.805677276773e-05 -2.296819021808e-05 0.0 
-2.296819021808e-05 5.003717303194e-04 0.0 
0.0 0.0 0.0 
-8.161967499972e-04 1.062882407619e-03 0.0 
1.062882407619e-03 6.308129311099e-04 0.0 
0.0 0.0 0.0 
-1.429360609515e-04 6.195337692156e-06 0.0 
6.195337692156e-06 5.255547807279e-04 0.0 
0.0 0.0 0.0 
2.192963785130e-04 2.747100440756e-05 0.0 
2.747100440756e-05 4.193254312990e-04 0.0 
0.0 0.0 0.0 
-2.402374561529e-04 5.327974636219e-05 0.0 
5.327974636219e-05 5.569686034801e-04 0.0 
0.0 0.0 0.0 
1.918410215671e-04 6.705596256334e-05 0.0 
6.705596256334e-05 4.246412183593e-04 0.0 
0.0 0.0 0.0 
-3.616812553099e-04 1.332658321697e-04 0.0 
1.332658321697e-04 5.888168897992e-04 0.0 
0.0 0.0 0.0 
1.423430559442e-04 1.330687967678e-04 0.0 
1.330687967678e-04 4.254290400743e-04 0.0 
0.0 0.0 0.0 
-4.689939063909e-04 3.023278264373e-04 0.0 
3.023278264373e-04 6.482382211708e-04 0.0 
0.0 0.0 0.0 
5.188461069228e-05 2.395219875280e-04 0.0 
2.395219875280e-04 4.203800536546e-04 0.0 
0.0 0.0 0.0 
-1.074826037926e-04 4.886835840182e-04 0.0 
4.886835840182e-04 4.085144977997e-04 0.0 
0.0 0.0 0.0 
-7.121404682371e-04 7.152935936907e-04 0.0 
7.152935936907e-04 6.082969783707e-04 0.0 
0.0 0.0 0.0 
-1.220230504955e-04 -5.336550599731e-05 0.0 
-5.336550599731e-05 5.679401608873e-04 0.0 
0.0 0.0 0.0 
-8.991506456413e-05 4.922030733569e-05 0.0 
4.922030733569e-05 4.998741399398e-04 0.0 
0.0 0.0 0.0 
-1.226973807760e-04 -9.886942112381e-06 0.0 
-9.886942112381e-06 6.540493058007e-04 0.0 
0.0 0.0 0.0 
-8.866560592902e-05 7.353841093899e-06 0.0 
7.353841093899e-06 4.163781334310e-04 0.0 
0.0 0.0 0.0 
-6.793010733729e-04 1.145211606903e-03 0.0 
1.145211606903e-03 2.009119794890e-04 0.0 
0.0 0.0 0.0 
-1.223624064040e-04 -5.614440642768e-06 0.0 
-5.614440642768e-06 1.020704251462e-03 0.0 
0.0 0.0 0.0 
-8.418140784550e-05 4.325837170547e-06 0.0 
4.325837170547e-06 9.662878531520e-04 0.0 
0.0 0.0 0.0 
-1.147321703500e-04 -9.336894045092e-06 0.0 
-9.336894045092e-06 9.652820672639e-04 0.0 
0.0 0.0 0.0 
-8.536284123606e-05 -2.125797651089e-05 0.0 
-2.125797651089e-05 9.616704093647e-04 0.0 
0.0 0.0 0.0 
-1.121304714747e-04 -1.946326931560e-05 0.0 
-1.946326931560e-05 9.619665844078e-04 0.0 
0.0 0.0 0.0 
-8.357730044184e-05 -3.228119909419e-05 0.0 
-3.228119909419e-05 9.613011256031e-04 0.0 
0.0 0.0 0.0 
-1.101520999989e-04 -2.779728412851e-05 0.0 
-2.779728412851e-05 9.621482060089e-04 0.0 
0.0 0.0 0.0 
-7.977200529563e-05 -4.054366211184e-05 0.0 
-4.054366211184e-05 9.603710855870e-04 0.0 
0.0 0.0 0.0 
-1.076246832914e-04 -3.500853513692e-05 0.0 
-3.500853513692e-05 9.616930467462e-04 0.0 
0.0 0.0 0.0 
-7.432603097768e-05 -4.794640883330e-05 0.0 
-4.794640883330e-05 9.585254577902e-04 0.0 
0.0 0.0 0.0 
-1.044820884128e-04 -4.150923159678e-05 0.0 
-4.150923159678e-05 9.604124461999e-04 0.0 
0.0 0.0 0.0 
-6.754648819585e-05 -5.486674912918e-05 0.0 
-5.486674912918e-05 9.558705052257e-04 0.0 
0.0 0.0 0.0 
-1.008791507217e-04 -4.737932478203e-05 0.0 
-4.737932478203e-05 9.584903814772e-04 0.0 
0.0 0.0 0.0 
-5.968178150106e-05 -6.128611753307e-05 0.0 
-6.128611753307e-05 9.525286125456e-04 0.0 
0.0 0.0 0.0 
-9.700957780701e-05 -5.254398880373e-05 0.0 
-5.254398880373e-05 9.561019964437e-04 0.0 
0.0 0.0 0.0 
-5.094194553923e-05 -6.704547039306e-05 0.0 
-6.704547039306e-05 9.485840872696e-04 0.0 
0.0 0.0 0.0 
-9.307752900489e-05 -5.685990000511e-05 0.0 
-5.685990000511e-05 9.533720592132e-04 0.0 
0.0 0.0 0.0 
-4.151345776382e-05 -7.193637449939e-05 0.0 
-7.193637449939e-05 9.440876727147e-04 0.0 
0.0 0.0 0.0 
-8.929982947004e-05 -6.016190598388e-05 0.0 
-6.016190598388e-05 9.503835619216e-04 0.0 
0.0 0.0 0.0 
-3.155876046690e-05 -7.575846162264e-05 0.0 
-7.575846162264e-05 9.390821478064e-04 0.0 
0.0 0.0 0.0 
-6.281247078053e-04 7.374026662330e-04 0.0 
7.374026662330e-04 9.174688783764e-04 0.0 
0.0 0.0 0.0 
-8.593734618012e-05 -6.230279619698e-05 0.0 
-6.230279619698e-05 9.472082905964e-04 0.0 
0.0 0.0 0.0 
-2.121432646940e-05 -7.839978743194e-05 0.0 
-7.839978743194e-05 9.336752476892e-04 0.0 
0.0 0.0 0.0 
-8.337840189909e-05 -6.317562075913e-05 0.0 
-6.317562075913e-05 9.440122990394e-04 0.0 
0.0 0.0 0.0 
-4.689939063909e-04 6.592348960002e-04 0.0 
6.592348960002e-04 7.482913120307e-04 0.0 
0.0 0.0 0.0 
-1.068404722127e-05 -7.992184506713e-05 0.0 
-7.992184506713e-05 9.282410609859e-04 0.0 
0.0 0.0 0.0 
-8.233746181641e-05 -6.255243150615e-05 0.0 
-6.255243150615e-05 9.414041061697e-04 0.0 
0.0 0.0 0.0 
-6.864659712225e-04 5.866949400380e-04 0.0 
5.866949400380e-04 1.082761920426e-03 0.0 
0.0 0.0 0.0 
-8.322230130586e-07 -8.001790790007e-05 0.0 
-8.001790790007e-05 9.234048450204e-04 0.0 
0.0 0.0 0.0 
-8.372337807239e-05 -5.974087707148e-05 0.0 
-5.974087707148e-05 9.403316287677e-04 0.0 
0.0 0.0 0.0 
7.933963456885e-06 -7.752960477542e-05 0.0 
-7.752960477542e-05 9.192414378019e-04 0.0 
0.0 0.0 0.0 
-8.820968691459e-05 -5.427310390974e-05 0.0 
-5.427310390974e-05 9.406587686669e-04 0.0 
0.0 0.0 0.0 
1.501169778262e-05 -7.191025941035e-05 0.0 
-7.191025941035e-05 9.156064741425e-04 0.0 
0.0 0.0 0.0 
-9.668258205098e-05 -4.570940740446e-05 0.0 
-4.570940740446e-05 9.423046817427e-04 0.0 
0.0 0.0 0.0 
1.919086111801e-05 -6.290193184773e-05 0.0 
-6.290193184773e-05 9.129540238557e-04 0.0 
0.0 0.0 0.0 
-1.108305356725e-04 -3.361893894227e-05 0.0 
-3.361893894227e-05 9.459971137624e-04 0.0 
0.0 0.0 0.0 
1.883906932898e-05 -4.966865052717e-05 0.0 
-4.966865052717e-05 9.115495238101e-04 0.0 
0.0 0.0 0.0 
-7.945378812991e-04 9.262305740979e-04 0.0 
9.262305740979e-04 1.057196100408e-03 0.0 
0.0 0.0 0.0 
-1.324729295025e-04 -1.657463880577e-05 0.0 
-1.657463880577e-05 9.525913424293e-04 0.0 
0.0 0.0 0.0 
1.203776537206e-05 -3.086074616921e-05 0.0 
-3.086074616921e-05 9.125239510615e-04 0.0 
0.0 0.0 0.0 
-1.649091299204e-04 6.140337034701e-06 0.0 
6.140337034701e-06 9.631866617110e-04 0.0 
0.0 0.0 0.0 
-4.221372280511e-06 -4.504976100433e-06 0.0 
-4.504976100433e-06 9.154364169917e-04 0.0 
0.0 0.0 0.0 
-3.247815021323e-05 3.283378251754e-05 0.0 
3.283378251754e-05 9.222810564375e-04 0.0 
0.0 0.0 0.0 
-2.108689707963e-04 3.841783725676e-05 0.0 
3.841783725676e-05 9.790231371001e-04 0.0 
0.0 0.0 0.0 
-7.805677276773e-05 8.771676161184e-05 0.0 
8.771676161184e-05 9.272522783641e-04 0.0 
0.0 0.0 0.0 
-2.705111653883e-04 8.051731806732e-05 0.0 
8.051731806732e-05 9.996158942027e-04 0.0 
0.0 0.0 0.0 
-1.429360609515e-04 1.693816820869e-04 0.0 
1.693816820869e-04 9.344078376081e-04 0.0 
0.0 0.0 0.0 
-3.457625224872e-04 1.455330330408e-04 0.0 
1.455330330408e-04 1.024091483941e-03 0.0 
0.0 0.0 0.0 
-2.402374561529e-04 2.931437693733e-04 0.0 
2.931437693733e-04 9.247279207272e-04 0.0 
0.0 0.0 0.0 
-3.616812553099e-04 4.799670877871e-04 0.0 
4.799670877871e-04 9.050685538237e-04 0.0 
0.0 0.0 0.0 
-4.336074090583e-04 2.319868108353e-04 0.0 
2.319868108353e-04 1.046655105027e-03 0.0 
0.0 0.0 0.0 
-5.404757927362e-04 3.739968775793e-04 0.0 
3.739968775793e-04 1.063317654435e-03 0.0 
0.0 0.0 0.0 
-7.375418230768e-04 7.276908429226e-04 0.0 
7.276908429226e-04 9.979599558914e-04 0.0 
0.0 0.0 0.0 
-1.083857659278e-04 -5.255512975250e-05 0.0 
-5.255512975250e-05 9.678684531917e-04 0.0 
0.0 0.0 0.0 
-1.392116408511e-04 5.753765402408e-05 0.0 
5.753765402408e-05 1.023139409404e-03 0.0 
0.0 0.0 0.0 
-1.226973807760e-04 -2.537394421287e-06 0.0 
-2.537394421287e-06 8.835232024600e-04 0.0 
0.0 0.0 0.0 
-1.252238350239e-04 9.021669839587e-06 0.0 
9.021669839587e-06 1.104850392082e-03 0.0 
0.0 0.0 0.0 
-6.339428889828e-04 1.032993585388e-03 0.0 
1.032993585388e-03 6.667574799029e-04 0.0 
0.0 0.0 0.0 
-1.223624064040e-04 -1.555139085545e-05 0.0 
-1.555139085545e-05 1.371017408613e-03 0.0 
0.0 0.0 0.0 
-1.455223876693e-04 -6.884041926865e-06 0.0 
-6.884041926865e-06 1.409098091895e-03 0.0 
0.0 0.0 0.0 
-1.147321703500e-04 -1.205680622854e-05 0.0 
-1.205680622854e-05 1.409450449182e-03 0.0 
0.0 0.0 0.0 
-1.431073017349e-04 -2.533325351707e-05 0.0 
-2.533325351707e-05 1.409624973988e-03 0.0 
0.0 0.0 0.0 
-1.121304714747e-04 -2.183618064654e-05 0.0 
-2.183618064654e-05 1.409118362225e-03 0.0 
0.0 0.0 0.0 
-1.419161030051e-04 -3.562549377364e-05 0.0 
-3.562549377364e-05 1.409040641781e-03 0.0 
0.0 0.0 0.0 
-1.101520999989e-04 -3.093860812928e-05 0.0 
-3.093860812928e-05 1.408131629771e-03 0.0 
0.0 0.0 0.0 
-1.413304121450e-04 -4.474786301905e-05 0.0 
-4.474786301905e-05 1.408639489842e-03 0.0 
0.0 0.0 0.0 
-1.076246832914e-04 -3.879198869628e-05 0.0 
-3.879198869628e-05 1.407182500986e-03 0.0 
0.0 0.0 0.0 
-1.409674714508e-04 -5.303949558833e-05 0.0 
-5.303949558833e-05 1.408067584854e-03 0.0 
0.0 0.0 0.0 
-1.044820884128e-04 -4.567736018020e-05 0.0 
-4.567736018020e-05 1.405882878390e-03 0.0 
0.0 0.0 0.0 
-1.407219735728e-04 -6.058157321479e-05 0.0 
-6.058157321479e-05 1.407226831960e-03 0.0 
0.0 0.0 0.0 
-1.008791507217e-04 -5.168460667976e-05 0.0 
-5.168460667976e-05 1.404109491001e-03 0.0 
0.0 0.0 0.0 
-1.406420919281e-04 -6.730700621208e-05 0.0 
-6.730700621208e-05 1.406140908872e-03 0.0 
0.0 0.0 0.0 
-9.700957780701e-05 -5.672737560404e-05 0.0 
-5.672737560404e-05 1.401852915691e-03 0.0 
0.0 0.0 0.0 
-1.408849515533e-04 -7.304179219261e-05 0.0 
-7.304179219261e-05 1.404873439020e-03 0.0 
0.0 0.0 0.0 
-9.307752900489e-05 -6.062770445236e-05 0.0 
-6.062770445236e-05 1.399144153760e-03 0.0 
0.0 0.0 0.0 
-1.416621346476e-04 -7.755545150242e-05 0.0 
-7.755545150242e-05 1.403494318424e-03 0.0 
0.0 0.0 0.0 
-8.929982947004e-05 -6.316645831139e-05 0.0 
-6.316645831139e-05 1.396023614495e-03 0.0 
0.0 0.0 0.0 
-6.429218251253e-04 6.552826530139e-04 0.0 
6.552826530139e-04 1.387322912916e-03 0.0 
0.0 0.0 0.0 
-1.432488263645e-04 -8.058063752319e-05 0.0 
-8.058063752319e-05 1.402101352526e-03 0.0 
0.0 0.0 0.0 
-8.593734618012e-05 -6.412260701194e-05 0.0 
-6.412260701194e-05 1.392573735665e-03 0.0 
0.0 0.0 0.0 
-1.460179397015e-04 -8.182214580494e-05 0.0 
-8.182214580494e-05 1.400894323045e-03 0.0 
0.0 0.0 0.0 
-5.918114632154e-04 5.464058241656e-04 0.0 
5.464058241656e-04 1.476937186711e-03 0.0 
0.0 0.0 0.0 
-8.337840189909e-05 -6.326474408244e-05 0.0 
-6.326474408244e-05 1.388993535037e-03 0.0 
0.0 0.0 0.0 
-1.505336340439e-04 -8.088554976948e-05 0.0 
-8.088554976948e-05 1.400337144596e-03 0.0 
0.0 0.0 0.0 
-8.233746181641e-05 -6.013222858350e-05 0.0 
-6.013222858350e-05 1.385698223248e-03 0.0 
0.0 0.0 0.0 
-1.576349457560e-04 -7.718502996953e-05 0.0 
-7.718502996953e-05 1.400985536766e-03 0.0 
0.0 0.0 0.0 
-8.372337807239e-05 -5.384366541740e-05 0.0 
-5.384366541740e-05 1.383059614419e-03 0.0 
0.0 0.0 0.0 
-5.404757927362e-04 6.285207186334e-04 0.0 
6.285207186334e-04 1.218999041849e-03 0.0 
0.0 0.0 0.0 
-1.680002904355e-04 -6.978344532786e-05 0.0 
-6.978344532786e-05 1.403044385111e-03 0.0 
0.0 0.0 0.0 
-8.820968691459e-05 -4.339155012234e-05 0.0 
-4.339155012234e-05 1.381178910892e-03 0.0 
0.0 0.0 0.0 
-1.826056515436e-04 -5.776144903680e-05 0.0 
-5.776144903680e-05 1.406525164088e-03 0.0 
0.0 0.0 0.0 
-9.668258205098e-05 -2.780809892630e-05 0.0 
-2.780809892630e-05 1.379957604786e-03 0.0 
0.0 0.0 0.0 
-2.020585298463e-04 -3.970188505741e-05 0.0 
-3.970188505741e-05 1.411685472593e-03 0.0 
0.0 0.0 0.0 
-1.108305356725e-04 -5.843590247952e-06 0.0 
-5.843590247952e-06 1.379797027504e-03 0.0 
0.0 0.0 0.0 
-2.286384060350e-04 -1.446743265988e-05 0.0 
-1.446743265988e-05 1.418884302425e-03 0.0 
0.0 0.0 0.0 
-1.324729295025e-04 2.462317507143e-05 0.0 
2.462317507143e-05 1.380298787611e-03 0.0 
0.0 0.0 0.0 
-2.621570289290e-04 2.150391490189e-05 0.0 
2.150391490189e-05 1.428568271112e-03 0.0 
0.0 0.0 0.0 
-1.649091299204e-04 6.660313724916e-05 0.0 
6.660313724916e-05 1.382627977144e-03 0.0 
0.0 0.0 0.0 
-3.075099052705e-04 6.982891679777e-05 0.0 
6.982891679777e-05 1.440600827850e-03 0.0 
0.0 0.0 0.0 
-7.531781281205e-04 7.874432301962e-04 0.0 
7.874432301962e-04 1.486057633376e-03 0.0 
0.0 0.0 0.0 
-3.593847207888e-04 1.408757604227e-04 0.0 
1.408757604227e-04 1.454397871843e-03 0.0 
0.0 0.0 0.0 
-2.108689707963e-04 1.256009904903e-04 0.0 
1.256009904903e-04 1.383403236482e-03 0.0 
0.0 0.0 0.0 
-4.307895659121e-04 2.289080452609e-04 0.0 
2.289080452609e-04 1.465661746378e-03 0.0 
0.0 0.0 0.0 
-2.705111653883e-04 2.067242774879e-04 0.0 
2.067242774879e-04 1.386717990486e-03 0.0 
0.0 0.0 0.0 
-4.858327679339e-04 3.632830050336e-04 0.0 
3.632830050336e-04 1.465863463013e-03 0.0 
0.0 0.0 0.0 
-3.457625224872e-04 3.196651011274e-04 0.0 
3.196651011274e-04 1.373647976841e-03 0.0 
0.0 0.0 0.0 
-4.336074090583e-04 4.763514560256e-04 0.0 
4.763514560256e-04 1.355624206501e-03 0.0 
0.0 0.0 0.0 
-7.140227311040e-04 6.646186691230e-04 0.0 
6.646186691230e-04 1.383186348257e-03 0.0 
0.0 0.0 0.0 
-1.543613811005e-04 -5.742842983185e-05 0.0 
-5.742842983185e-05 1.432223300968e-03 0.0 
0.0 0.0 0.0 
-1.189369260979e-04 4.832431409806e-05 0.0 
4.832431409806e-05 1.368559383911e-03 0.0 
0.0 0.0 0.0 
-1.475141347502e-04 -1.038285293883e-05 0.0 
-1.038285293883e-05 1.517918586503e-03 0.0 
0.0 0.0 0.0 
-1.252238350239e-04 2.990195551002e-06 0.0 
2.990195551002e-06 1.285682196538e-03 0.0 
0.0 0.0 0.0 
-6.864659712225e-04 8.910901421228e-04 0.0 
8.910901421228e-04 1.168265678772e-03 0.0 
0.0 0.0 0.0 
-1.709843217261e-04 -1.873077906895e-05 0.0 
-1.873077906895e-05 1.898059607040e-03 0.0 
0.0 0.0 0.0 
-1.455223876693e-04 -8.502730393855e-06 0.0 
-8.502730393855e-06 1.855196920192e-03 0.0 
0.0 0.0 0.0 
-1.705400122578e-04 -1.572982037008e-05 0.0 
-1.572982037008e-05 1.854615769881e-03 0.0 
0.0 0.0 0.0 
-1.431073017349e-04 -2.635644189015e-05 0.0 
-2.635644189015e-05 1.850511721194e-03 0.0 
0.0 0.0 0.0 
-1.705441095261e-04 -2.372629347578e-05 0.0 
-2.372629347578e-05 1.850971481228e-03 0.0 
0.0 0.0 0.0 
-1.419161030051e-04 -3.597189102259e-05 0.0 
-3.597189102259e-05 1.849467315546e-03 0.0 
0.0 0.0 0.0 
-1.715193415220e-04 -3.189147338305e-05 0.0 
-3.189147338305e-05 1.850400796410e-03 0.0 
0.0 0.0 0.0 
-1.413304121450e-04 -4.452322841799e-05 0.0 
-4.452322841799e-05 1.848935479637e-03 0.0 
0.0 0.0 0.0 
-1.732677195598e-04 -3.937679000437e-05 0.0 
-3.937679000437e-05 1.850431601733e-03 0.0 
0.0 0.0 0.0 
-1.409674714508e-04 -5.222593093133e-05 0.0 
-5.222593093133e-05 1.848354305720e-03 0.0 
0.0 0.0 0.0 
-1.756279278573e-04 -4.605312348147e-05 0.0 
-4.605312348147e-05 1.850554289720e-03 0.0 
0.0 0.0 0.0 
-1.407219735728e-04 -5.903991693723e-05 0.0 
-5.903991693723e-05 1.847484657609e-03 0.0 
0.0 0.0 0.0 
-1.785767979388e-04 -5.178023120209e-05 0.0 
-5.178023120209e-05 1.850570727556e-03 0.0 
0.0 0.0 0.0 
-1.406420919281e-04 -6.480977994819e-05 0.0 
-6.480977994819e-05 1.846210418925e-03 0.0 
0.0 0.0 0.0 
-1.821744092609e-04 -5.631328823951e-05 0.0 
-5.631328823951e-05 1.850421896338e-03 0.0 
0.0 0.0 0.0 
-1.408849515533e-04 -6.926448778748e-05 0.0 
-6.926448778748e-05 1.844543170279e-03 0.0 
0.0 0.0 0.0 
-1.866522244089e-04 -5.939173014854e-05 0.0 
-5.939173014854e-05 1.850158384091e-03 0.0 
0.0 0.0 0.0 
-1.416621346476e-04 -7.210231112148e-05 0.0 
-7.210231112148e-05 1.842497839598e-03 0.0 
0.0 0.0 0.0 
-5.494393608544e-04 5.206601753916e-04 0.0 
5.206601753916e-04 1.796240038094e-03 0.0 
0.0 0.0 0.0 
-1.922640970857e-04 -6.070722862193e-05 0.0 
-6.070722862193e-05 1.849843620384e-03 0.0 
0.0 0.0 0.0 
-1.432488263645e-04 -7.297163273052e-05 0.0 
-7.297163273052e-05 1.840130801195e-03 0.0 
0.0 0.0 0.0 
-1.993264149263e-04 -5.990265065702e-05 0.0 
-5.990265065702e-05 1.849587889132e-03 0.0 
0.0 0.0 0.0 
-4.858327679339e-04 5.150503569609e-04 0.0 
5.150503569609e-04 1.644877189855e-03 0.0 
0.0 0.0 0.0 
-1.460179397015e-04 -7.144931655572e-05 0.0 
-7.144931655572e-05 1.837533717852e-03 0.0 
0.0 0.0 0.0 
-5.145961173474e-04 4.488421757071e-04 0.0 
4.488421757071e-04 1.859347226902e-03 0.0 
0.0 0.0 0.0 
-2.082053884009e-04 -5.648060193274e-05 0.0 
-5.648060193274e-05 1.849575520099e-03 0.0 
0.0 0.0 0.0 
-1.505336340439e-04 -6.689988338139e-05 0.0 
-6.689988338139e-05 1.834844139184e-03 0.0 
0.0 0.0 0.0 
-2.193771370890e-04 -4.958719466675e-05 0.0 
-4.958719466675e-05 1.850127942453e-03 0.0 
0.0 0.0 0.0 
-1.576349457560e-04 -5.836573095578e-05 0.0 
-5.836573095578e-05 1.832462539292e-03 0.0 
0.0 0.0 0.0 
-2.337122943741e-04 -3.851636019384e-05 0.0 
-3.851636019384e-05 1.851591627132e-03 0.0 
0.0 0.0 0.0 
-1.680002904355e-04 -4.475045603686e-05 0.0 
-4.475045603686e-05 1.830150419929e-03 0.0 
0.0 0.0 0.0 
-2.515736922191e-04 -2.184169037713e-05 0.0 
-2.184169037713e-05 1.853977505001e-03 0.0 
0.0 0.0 0.0 
-1.826056515436e-04 -2.466035000301e-05 0.0 
-2.466035000301e-05 1.828319784755e-03 0.0 
0.0 0.0 0.0 
-6.128057133113e-04 6.263352261757e-04 0.0 
6.263352261757e-04 1.871316046695e-03 0.0 
0.0 0.0 0.0 
-2.739714524239e-04 9.672701984336e-07 0.0 
9.672701984336e-07 1.857201401939e-03 0.0 
0.0 0.0 0.0 
-2.020585298463e-04 3.523298741564e-06 0.0 
3.523298741564e-06 1.825396935001e-03 0.0 
0.0 0.0 0.0 
-3.002923904207e-04 3.343888399269e-05 0.0 
3.343888399269e-05 1.860925082940e-03 0.0 
0.0 0.0 0.0 
-2.286384060350e-04 4.222448748449e-05 0.0 
4.222448748449e-05 1.823681019446e-03 0.0 
0.0 0.0 0.0 
-2.621570289290e-04 9.437260683238e-05 0.0 
9.437260683238e-05 1.817048445501e-03 0.0 
0.0 0.0 0.0 
-3.338332555295e-04 7.451198505636e-05 0.0 
7.451198505636e-05 1.865056835711e-03 0.0 
0.0 0.0 0.0 
-3.075099052705e-04 1.646501710558e-04 0.0 
1.646501710558e-04 1.813663050142e-03 0.0 
0.0 0.0 0.0 
-3.695070441810e-04 1.340095989677e-04 0.0 
1.340095989677e-04 1.868106487920e-03 0.0 
0.0 0.0 0.0 
-3.593847207888e-04 2.587001159057e-04 0.0 
2.587001159057e-04 1.791831380873e-03 0.0 
0.0 0.0 0.0 
-4.307895659121e-04 3.869061284457e-04 0.0 
3.869061284457e-04 1.780934688834e-03 0.0 
0.0 0.0 0.0 
-4.178020177151e-04 2.039045253026e-04 0.0 
2.039045253026e-04 1.868646441821e-03 0.0 
0.0 0.0 0.0 
-4.465463364426e-04 3.144148750017e-04 0.0 
3.144148750017e-04 1.860866913518e-03 0.0 
0.0 0.0 0.0 
-5.901916004317e-04 5.537444310451e-04 0.0 
5.537444310451e-04 1.759853963960e-03 0.0 
0.0 0.0 0.0 
-1.412595907094e-04 -5.779386413121e-05 0.0 
-5.779386413121e-05 1.837405886901e-03 0.0 
0.0 0.0 0.0 
-1.766195124301e-04 4.772508606263e-05 0.0 
4.772508606263e-05 1.900951655614e-03 0.0 
0.0 0.0 0.0 
-1.475141347502e-04 -1.068134936071e-05 0.0 
-1.068134936071e-05 1.751214790744e-03 0.0 
0.0 0.0 0.0 
-1.710117545599e-04 2.557278249982e-06 0.0 
2.557278249982e-06 1.983956861029e-03 0.0 
0.0 0.0 0.0 
-5.918114632154e-04 7.139821163886e-04 0.0 
7.139821163886e-04 1.600021244313e-03 0.0 
0.0 0.0 0.0 
-1.709843217261e-04 -1.906414307555e-05 0.0 
-1.906414307555e-05 2.252813680740e-03 0.0 
0.0 0.0 0.0 
-1.949940453914e-04 -9.044789868731e-06 0.0 
-9.044789868731e-06 2.293948447658e-03 0.0 
0.0 0.0 0.0 
-1.705400122578e-04 -1.535639698371e-05 0.0 
-1.535639698371e-05 2.294451056153e-03 0.0 
0.0 0.0 0.0 
-1.957421611213e-04 -2.605141718958e-05 0.0 
-2.605141718958e-05 2.296478122938e-03 0.0 
0.0 0.0 0.0 
-1.705441095261e-04 -2.223732204637e-05 0.0 
-2.223732204637e-05 2.295873457189e-03 0.0 
0.0 0.0 0.0 
-1.974169745920e-04 -3.414522772726e-05 0.0 
-3.414522772726e-05 2.296531106730e-03 0.0 
0.0 0.0 0.0 
-1.715193415220e-04 -2.944012844358e-05 0.0 
-2.944012844358e-05 2.295517005282e-03 0.0 
0.0 0.0 0.0 
-2.001489335148e-04 -4.146293519443e-05 0.0 
-4.146293519443e-05 2.296829064393e-03 0.0 
0.0 0.0 0.0 
-1.732677195598e-04 -3.595573528153e-05 0.0 
-3.595573528153e-05 2.295314252339e-03 0.0 
0.0 0.0 0.0 
-2.038955491606e-04 -4.812963509496e-05 0.0 
-4.812963509496e-05 2.297301292061e-03 0.0 
0.0 0.0 0.0 
-1.756279278573e-04 -4.148800624813e-05 0.0 
-4.148800624813e-05 2.295087769620e-03 0.0 
0.0 0.0 0.0 
-2.086594612070e-04 -5.390029374948e-05 0.0 
-5.390029374948e-05 2.297784213228e-03 0.0 
0.0 0.0 0.0 
-1.785767979388e-04 -4.582916240189e-05 0.0 
-4.582916240189e-05 2.294631160731e-03 0.0 
0.0 0.0 0.0 
-2.143042524346e-04 -5.848878159152e-05 0.0 
-5.848878159152e-05 2.298096385501e-03 0.0 
0.0 0.0 0.0 
-1.821744092609e-04 -4.863292214759e-05 0.0 
-4.863292214759e-05 2.293696469383e-03 0.0 
0.0 0.0 0.0 
-2.209341185131e-04 -6.138567870393e-05 0.0 
-6.138567870393e-05 2.298257744741e-03 0.0 
0.0 0.0 0.0 
-1.866522244089e-04 -4.957039556076e-05 0.0 
-4.957039556076e-05 2.292322069951e-03 0.0 
0.0 0.0 0.0 
-4.942065083930e-04 4.119521687229e-04 0.0 
4.119521687229e-04 2.214327658744e-03 0.0 
0.0 0.0 0.0 
-2.288428729238e-04 -6.225065437488e-05 0.0 
-6.225065437488e-05 2.298315483606e-03 0.0 
0.0 0.0 0.0 
-1.922640970857e-04 -4.826620108993e-05 0.0 
-4.826620108993e-05 2.290506610925e-03 0.0 
0.0 0.0 0.0 
-4.630072123011e-04 3.532079878565e-04 0.0 
3.532079878565e-04 2.261461339206e-03 0.0 
0.0 0.0 0.0 
-2.383126216725e-04 -6.064048884138e-05 0.0 
-6.064048884138e-05 2.298334699807e-03 0.0 
0.0 0.0 0.0 
-1.993264149263e-04 -4.428943492253e-05 0.0 
-4.428943492253e-05 2.288285268064e-03 0.0 
0.0 0.0 0.0 
-2.494837670158e-04 -5.604263090237e-05 0.0 
-5.604263090237e-05 2.298312631961e-03 0.0 
0.0 0.0 0.0 
-2.082053884009e-04 -3.697557068181e-05 0.0 
-3.697557068181e-05 2.285555485936e-03 0.0 
0.0 0.0 0.0 
-2.625443234098e-04 -4.764416144760e-05 0.0 
-4.764416144760e-05 2.298213925764e-03 0.0 
0.0 0.0 0.0 
-4.465463364426e-04 4.224764017974e-04 0.0 
4.224764017974e-04 2.065333049898e-03 0.0 
0.0 0.0 0.0 
-2.193771370890e-04 -2.525852041800e-05 0.0 
-2.525852041800e-05 2.282113509344e-03 0.0 
0.0 0.0 0.0 
-2.776863320901e-04 -3.393000439195e-05 0.0 
-3.393000439195e-05 2.298266518264e-03 0.0 
0.0 0.0 0.0 
-2.337122943741e-04 -8.108313824025e-06 0.0 
-8.108313824025e-06 2.278475757948e-03 0.0 
0.0 0.0 0.0 
-2.965374462389e-04 -1.444635451028e-05 0.0 
-1.444635451028e-05 2.298465776340e-03 0.0 
0.0 0.0 0.0 
-2.515736922191e-04 1.583415089086e-05 0.0 
1.583415089086e-05 2.273936503138e-03 0.0 
0.0 0.0 0.0 
-3.174981845484e-04 1.313407241141e-05 0.0 
1.313407241141e-05 2.298454379558e-03 0.0 
0.0 0.0 0.0 
-2.739714524239e-04 4.795541092700e-05 0.0 
4.795541092700e-05 2.268964845669e-03 0.0 
0.0 0.0 0.0 
-3.439123976542e-04 4.835193240276e-05 0.0 
4.835193240276e-05 2.297262697391e-03 0.0 
0.0 0.0 0.0 
-3.002923904207e-04 9.114031656657e-05 0.0 
9.114031656657e-05 2.259678947431e-03 0.0 
0.0 0.0 0.0 
-3.685803269040e-04 9.886356508956e-05 0.0 
9.886356508956e-05 2.294382553481e-03 0.0 
0.0 0.0 0.0 
-5.213035924198e-04 4.905293839230e-04 0.0 
4.905293839230e-04 2.268977676261e-03 0.0 
0.0 0.0 0.0 
-4.043554828577e-04 1.568201683098e-04 0.0 
1.568201683098e-04 2.287172981104e-03 0.0 
0.0 0.0 0.0 
-3.338332555295e-04 1.470211279275e-04 0.0 
1.470211279275e-04 2.251373586004e-03 0.0 
0.0 0.0 0.0 
-4.198350291753e-04 2.475002028663e-04 0.0 
2.475002028663e-04 2.272619589166e-03 0.0 
0.0 0.0 0.0 
-3.695070441810e-04 2.218305672222e-04 0.0 
2.218305672222e-04 2.227523423610e-03 0.0 
0.0 0.0 0.0 
-4.178020177151e-04 3.185578850951e-04 0.0 
3.185578850951e-04 2.210445988087e-03 0.0 
0.0 0.0 0.0 
-5.044554576933e-04 4.448116949615e-04 0.0 
4.448116949615e-04 2.137119927074e-03 0.0 
0.0 0.0 0.0 
-2.010738407889e-04 -5.786461684049e-05 0.0 
-5.786461684049e-05 2.313374169092e-03 0.0 
0.0 0.0 0.0 
-1.657663470356e-04 4.751208751406e-05 0.0 
4.751208751406e-05 2.249916596059e-03 0.0 
0.0 0.0 0.0 
-1.951749096514e-04 -1.080867456131e-05 0.0 
-1.080867456131e-05 2.399794899471e-03 0.0 
0.0 0.0 0.0 
-1.710117545599e-04 2.405685782284e-06 0.0 
2.405685782284e-06 2.166684765750e-03 0.0 
0.0 0.0 0.0 
-5.145961173474e-04 5.604198518113e-04 0.0 
5.604198518113e-04 2.033678089585e-03 0.0 
0.0 0.0 0.0 
-2.174268112396e-04 -1.826008625008e-05 0.0 
-1.826008625008e-05 2.778697459148e-03 0.0 
0.0 0.0 0.0 
-1.949940453914e-04 -7.046964663822e-06 0.0 
-7.046964663822e-06 2.737146956955e-03 0.0 
0.0 0.0 0.0 
-2.186024023192e-04 -1.391759178082e-05 0.0 
-1.391759178082e-05 2.736518915136e-03 0.0 
0.0 0.0 0.0 
-1.957421611213e-04 -2.290578781627e-05 0.0 
-2.290578781627e-05 2.733587283926e-03 0.0 
0.0 0.0 0.0 
-2.209498376043e-04 -1.938819385380e-05 0.0 
-1.938819385380e-05 2.734256716200e-03 0.0 
0.0 0.0 0.0 
-1.974169745920e-04 -2.944495188680e-05 0.0 
-2.944495188680e-05 2.733297261619e-03 0.0 
0.0 0.0 0.0 
-2.247907571633e-04 -2.490723837395e-05 0.0 
-2.490723837395e-05 2.734478542146e-03 0.0 
0.0 0.0 0.0 
-2.001489335148e-04 -3.502732237231e-05 0.0 
-3.502732237231e-05 2.733322292911e-03 0.0 
0.0 0.0 0.0 
-2.297408659226e-04 -2.979640486062e-05 0.0 
-2.979640486062e-05 2.735092396231e-03 0.0 
0.0 0.0 0.0 
-2.038955491606e-04 -3.975039447839e-05 0.0 
-3.975039447839e-05 2.733340937219e-03 0.0 
0.0 0.0 0.0 
-2.359835405592e-04 -3.369863111488e-05 0.0 
-3.369863111488e-05 2.735878446032e-03 0.0 
0.0 0.0 0.0 
-2.086594612070e-04 -4.335279686745e-05 0.0 
-4.335279686745e-05 2.733210368012e-03 0.0 
0.0 0.0 0.0 
-2.434274200961e-04 -3.659513393502e-05 0.0 
-3.659513393502e-05 2.736640318777e-03 0.0 
0.0 0.0 0.0 
-2.143042524346e-04 -4.558685780974e-05 0.0 
-4.558685780974e-05 2.732388249670e-03 0.0 
0.0 0.0 0.0 
-2.518498147390e-04 -3.782439412855e-05 0.0 
-3.782439412855e-05 2.736995057631e-03 0.0 
0.0 0.0 0.0 
-2.209341185131e-04 -4.583610009464e-05 0.0 
-4.583610009464e-05 2.730844461828e-03 0.0 
0.0 0.0 0.0 
-4.604949251416e-04 3.166414463535e-04 0.0 
3.166414463535e-04 2.648972195608e-03 0.0 
0.0 0.0 0.0 
-2.611955927759e-04 -3.678049644840e-05 0.0 
-3.678049644840e-05 2.736957720598e-03 0.0 
0.0 0.0 0.0 
-2.288428729238e-04 -4.349971380854e-05 0.0 
-4.349971380854e-05 2.728838141717e-03 0.0 
0.0 0.0 0.0 
-4.198350291753e-04 3.290472982369e-04 0.0 
3.290472982369e-04 2.499974845882e-03 0.0 
0.0 0.0 0.0 
-2.724277835587e-04 -3.308043112721e-05 0.0 
-3.308043112721e-05 2.736771839966e-03 0.0 
0.0 0.0 0.0 
-2.383126216725e-04 -3.820999395076e-05 0.0 
-3.820999395076e-05 2.726277924087e-03 0.0 
0.0 0.0 0.0 
-4.309771641435e-04 2.797734654956e-04 0.0 
2.797734654956e-04 2.678460736216e-03 0.0 
0.0 0.0 0.0 
-2.852175105104e-04 -2.649678545831e-05 0.0 
-2.649678545831e-05 2.736267370969e-03 0.0 
0.0 0.0 0.0 
-2.494837670158e-04 -2.937056143472e-05 0.0 
-2.937056143472e-05 2.722781123016e-03 0.0 
0.0 0.0 0.0 
-2.993457731340e-04 -1.629465095860e-05 0.0 
-1.629465095860e-05 2.735114249845e-03 0.0 
0.0 0.0 0.0 
-2.625443234098e-04 -1.599660610535e-05 0.0 
-1.599660610535e-05 2.717944228755e-03 0.0 
0.0 0.0 0.0 
-3.150887019666e-04 -1.411823919961e-06 0.0 
-1.411823919961e-06 2.732974337153e-03 0.0 
0.0 0.0 0.0 
-2.776863320901e-04 3.404489468009e-06 0.0 
3.404489468009e-06 2.710910628469e-03 0.0 
0.0 0.0 0.0 
-4.709524325682e-04 3.818965839206e-04 0.0 
3.818965839206e-04 2.692326282723e-03 0.0 
0.0 0.0 0.0 
-3.316650813348e-04 2.114777656359e-05 0.0 
2.114777656359e-05 2.729943326211e-03 0.0 
0.0 0.0 0.0 
-2.965374462389e-04 3.032551830785e-05 0.0 
3.032551830785e-05 2.704749416565e-03 0.0 
0.0 0.0 0.0 
-3.528172265002e-04 4.848896632395e-05 0.0 
4.848896632395e-05 2.726286346669e-03 0.0 
0.0 0.0 0.0 
-3.174981845484e-04 6.558593776155e-05 0.0 
6.558593776155e-05 2.693055125835e-03 0.0 
0.0 0.0 0.0 
-3.439123976542e-04 1.114195132541e-04 0.0 
1.114195132541e-04 2.684573808205e-03 0.0 
0.0 0.0 0.0 
-3.720517015239e-04 8.856147049169e-05 0.0 
8.856147049169e-05 2.720164114729e-03 0.0 
0.0 0.0 0.0 
-3.685803269040e-04 1.706774295217e-04 0.0 
1.706774295217e-04 2.656653262146e-03 0.0 
0.0 0.0 0.0 
-3.990527067997e-04 1.301484047538e-04 0.0 
1.301484047538e-04 2.710453084315e-03 0.0 
0.0 0.0 0.0 
-4.043554828577e-04 2.490959680862e-04 0.0 
2.490959680862e-04 2.643310596839e-03 0.0 
0.0 0.0 0.0 
-4.022708372110e-04 2.022671174177e-04 0.0 
2.022671174177e-04 2.691906309587e-03 0.0 
0.0 0.0 0.0 
-4.580979790548e-04 3.464071370681e-04 0.0 
3.464071370681e-04 2.546841875317e-03 0.0 
0.0 0.0 0.0 
-1.881419209255e-04 -5.781915624291e-05 0.0 
-5.781915624291e-05 2.718868971573e-03 0.0 
0.0 0.0 0.0 
-2.232985722477e-04 4.809880062728e-05 0.0 
4.809880062728e-05 2.782019073341e-03 0.0 
0.0 0.0 0.0 
-1.951749096514e-04 -1.026543930956e-05 0.0 
-1.026543930956e-05 2.632824958460e-03 0.0 
0.0 0.0 0.0 
-2.169867030751e-04 2.762722219022e-06 0.0 
2.762722219022e-06 2.864424205605e-03 0.0 
0.0 0.0 0.0 
-4.630072123011e-04 4.345047000313e-04 0.0 
4.345047000313e-04 2.459971620665e-03 0.0 
0.0 0.0 0.0 
-2.174268112396e-04 -1.694841407610e-05 0.0 
-1.694841407610e-05 3.133351592021e-03 0.0 
0.0 0.0 0.0 
-2.364822258282e-04 -4.796582582513e-06 0.0 
-4.796582582513e-06 3.173637583525e-03 0.0 
0.0 0.0 0.0 
-2.186024023192e-04 -1.085846442317e-05 0.0 
-1.085846442317e-05 3.174199072151e-03 0.0 
0.0 0.0 0.0 
-2.376948401765e-04 -1.864239032528e-05 0.0 
-1.864239032528e-05 3.176134776374e-03 0.0 
0.0 0.0 0.0 
-2.209498376043e-04 -1.426910717972e-05 0.0 
-1.426910717972e-05 3.175384593262e-03 0.0 
0.0 0.0 0.0 
-2.417049324825e-04 -2.281200964711e-05 0.0 
-2.281200964711e-05 3.176818995672e-03 0.0 
0.0 0.0 0.0 
-2.247907571633e-04 -1.801517567720e-05 0.0 
-1.801517567720e-05 3.175690487125e-03 0.0 
0.0 0.0 0.0 
-2.462360419361e-04 -2.649561609163e-05 0.0 
-2.649561609163e-05 3.177268762554e-03 0.0 
0.0 0.0 0.0 
-2.297408659226e-04 -2.068730913144e-05 0.0 
-2.068730913144e-05 3.175558948689e-03 0.0 
0.0 0.0 0.0 
-2.529217432947e-04 -2.907586177495e-05 0.0 
-2.907586177495e-05 3.178046593097e-03 0.0 
0.0 0.0 0.0 
-2.359835405592e-04 -2.232091449576e-05 0.0 
-2.232091449576e-05 3.175638999352e-03 0.0 
0.0 0.0 0.0 
-2.605465731993e-04 -3.060353352470e-05 0.0 
-3.060353352470e-05 3.178690892045e-03 0.0 
0.0 0.0 0.0 
-2.434274200961e-04 -2.253421504152e-05 0.0 
-2.253421504152e-05 3.175342356512e-03 0.0 
0.0 0.0 0.0 
-2.704763716573e-04 -3.104798325027e-05 0.0 
-3.104798325027e-05 3.179031656378e-03 0.0 
0.0 0.0 0.0 
-2.518498147390e-04 -2.104188825715e-05 0.0 
-2.104188825715e-05 3.174284156104e-03 0.0 
0.0 0.0 0.0 
-4.420829389236e-04 2.471776716338e-04 0.0 
2.471776716338e-04 3.092067772464e-03 0.0 
0.0 0.0 0.0 
-2.798420988133e-04 -2.944951806345e-05 0.0 
-2.944951806345e-05 3.178065195526e-03 0.0 
0.0 0.0 0.0 
-4.110171585145e-04 2.203293062816e-04 0.0 
2.203293062816e-04 3.109940480747e-03 0.0 
0.0 0.0 0.0 
-2.611955927759e-04 -1.643348444372e-05 0.0 
-1.643348444372e-05 3.171264001030e-03 0.0 
0.0 0.0 0.0 
-2.917236061131e-04 -2.396666137855e-05 0.0 
-2.396666137855e-05 3.177136243130e-03 0.0 
0.0 0.0 0.0 
-2.724277835587e-04 -9.013018170507e-06 0.0 
-9.013018170507e-06 3.168453432617e-03 0.0 
0.0 0.0 0.0 
-3.055611555826e-04 -1.591826562491e-05 0.0 
-1.591826562491e-05 3.175856552479e-03 0.0 
0.0 0.0 0.0 
-2.852175105104e-04 1.578697340231e-06 0.0 
1.578697340231e-06 3.164694734690e-03 0.0 
0.0 0.0 0.0 
-3.198033058355e-04 -4.472680701335e-06 0.0 
-4.472680701335e-06 3.173169845142e-03 0.0 
0.0 0.0 0.0 
-4.022708372110e-04 2.653768489811e-04 0.0 
2.653768489811e-04 2.939982090178e-03 0.0 
0.0 0.0 0.0 
-2.993457731340e-04 1.659328471094e-05 0.0 
1.659328471094e-05 3.158689087952e-03 0.0 
0.0 0.0 0.0 
-3.354152161020e-04 1.200163311581e-05 0.0 
1.200163311581e-05 3.168924498252e-03 0.0 
0.0 0.0 0.0 
-3.150887019666e-04 3.695856699749e-05 0.0 
3.695856699749e-05 3.150555503174e-03 0.0 
0.0 0.0 0.0 
-3.525917371674e-04 3.359542682214e-05 0.0 
3.359542682214e-05 3.162028453319e-03 0.0 
0.0 0.0 0.0 
-3.316650813348e-04 6.526956759713e-05 0.0 
6.526956759713e-05 3.137293039439e-03 0.0 
0.0 0.0 0.0 
-3.664209451488e-04 6.776671706737e-05 0.0 
6.776671706737e-05 3.153990985580e-03 0.0 
0.0 0.0 0.0 
-3.528172265002e-04 1.007286974346e-04 0.0 
1.007286974346e-04 3.127356477371e-03 0.0 
0.0 0.0 0.0 
-3.911326879543e-04 1.020426046729e-04 0.0 
1.020426046729e-04 3.142726732181e-03 0.0 
0.0 0.0 0.0 
-3.913990562172e-04 1.601015919739e-04 0.0 
1.601015919739e-04 3.125177683382e-03 0.0 
0.0 0.0 0.0 
-3.720517015239e-04 1.469967818601e-04 0.0 
1.469967818601e-04 3.103710432605e-03 0.0 
0.0 0.0 0.0 
-4.375422848396e-04 2.997730072445e-04 0.0 
2.997730072445e-04 3.126263051379e-03 0.0 
0.0 0.0 0.0 
-3.990527067997e-04 2.044551179518e-04 0.0 
2.044551179518e-04 3.088859626939e-03 0.0 
0.0 0.0 0.0 
-4.250804174902e-04 2.714274824498e-04 0.0 
2.714274824498e-04 2.964282160379e-03 0.0 
0.0 0.0 0.0 
-2.441044718154e-04 -5.708309817883e-05 0.0 
-5.708309817883e-05 3.191704255352e-03 0.0 
0.0 0.0 0.0 
-2.097573330371e-04 4.940825684528e-05 0.0 
4.940825684528e-05 3.130028965052e-03 0.0 
0.0 0.0 0.0 
-2.361971575590e-04 -9.101293490808e-06 0.0 
-9.101293490808e-06 3.277751883879e-03 0.0 
0.0 0.0 0.0 
-2.169867030751e-04 3.604641256083e-06 0.0 
3.604641256083e-06 3.047584334545e-03 0.0 
0.0 0.0 0.0 
-4.309771641435e-04 3.408566529553e-04 0.0 
3.408566529553e-04 2.902989998126e-03 0.0 
0.0 0.0 0.0 
-2.545320352622e-04 -1.556845455838e-05 0.0 
-1.556845455838e-05 3.653785820371e-03 0.0 
0.0 0.0 0.0 
-2.364822258282e-04 -1.401417015732e-06 0.0 
-1.401417015732e-06 3.611129697052e-03 0.0 
0.0 0.0 0.0 
-2.516660383746e-04 -8.515326525157e-06 0.0 
-8.515326525157e-06 3.610345305666e-03 0.0 
0.0 0.0 0.0 
-2.376948401765e-04 -1.278578209174e-05 0.0 
-1.278578209174e-05 3.606518142054e-03 0.0 
0.0 0.0 0.0 
-2.558961824086e-04 -7.712678126360e-06 0.0 
-7.712678126360e-06 3.607555101646e-03 0.0 
0.0 0.0 0.0 
-2.417049324825e-04 -1.405151707010e-05 0.0 
-1.405151707010e-05 3.607692737036e-03 0.0 
0.0 0.0 0.0 
-2.625537456898e-04 -1.032352413927e-05 0.0 
-1.032352413927e-05 3.608858476731e-03 0.0 
0.0 0.0 0.0 
-2.462360419361e-04 -1.569252415596e-05 0.0 
-1.569252415596e-05 3.606146088473e-03 0.0 
0.0 0.0 0.0 
-2.672657253041e-04 -9.782143649983e-06 0.0 
-9.782143649983e-06 3.608339229869e-03 0.0 
0.0 0.0 0.0 
-2.529217432947e-04 -1.484259423601e-05 0.0 
-1.484259423601e-05 3.606945991131e-03 0.0 
0.0 0.0 0.0 
-2.769300923057e-04 -9.700586074029e-06 0.0 
-9.700586074029e-06 3.609508482387e-03 0.0 
0.0 0.0 0.0 
-2.605465731993e-04 -1.359125437412e-05 0.0 
-1.359125437412e-05 3.605355957791e-03 0.0 
0.0 0.0 0.0 
-2.851518660347e-04 -6.458691424176e-06 0.0 
-6.458691424176e-06 3.609335853387e-03 0.0 
0.0 0.0 0.0 
-4.281860755904e-04 1.941170183456e-04 0.0 
1.941170183456e-04 3.538608933800e-03 0.0 
0.0 0.0 0.0 
-2.704763716573e-04 -9.862313808337e-06 0.0 
-9.862313808337e-06 3.605959530007e-03 0.0 
0.0 0.0 0.0 
-2.978308260649e-04 -5.263060528366e-06 0.0 
-5.263060528366e-06 3.609638317950e-03 0.0 
0.0 0.0 0.0 
-3.913990562172e-04 2.107637125020e-04 0.0 
2.107637125020e-04 3.386090140095e-03 0.0 
0.0 0.0 0.0 
-2.798420988133e-04 -5.385856622933e-06 0.0 
-5.385856622933e-06 3.600093161223e-03 0.0 
0.0 0.0 0.0 
-3.080950023487e-04 2.907049900443e-06 0.0 
2.907049900443e-06 3.606463181961e-03 0.0 
0.0 0.0 0.0 
-3.961641983133e-04 1.805053531443e-04 0.0 
1.805053531443e-04 3.544215129682e-03 0.0 
0.0 0.0 0.0 
-2.917236061131e-04 4.125242266243e-06 0.0 
4.125242266243e-06 3.596586007067e-03 0.0 
0.0 0.0 0.0 
-3.222505824063e-04 1.330522340133e-05 0.0 
1.330522340133e-05 3.604626737858e-03 0.0 
0.0 0.0 0.0 
-3.055611555826e-04 1.646224878914e-05 0.0 
1.646224878914e-05 3.592718178602e-03 0.0 
0.0 0.0 0.0 
-3.364951351069e-04 2.480987271383e-05 0.0 
2.480987271383e-05 3.601357481554e-03 0.0 
0.0 0.0 0.0 
-3.198033058355e-04 3.240578947019e-05 0.0 
3.240578947019e-05 3.584538851070e-03 0.0 
0.0 0.0 0.0 
-4.172955756623e-04 2.402677462123e-04 0.0 
2.402677462123e-04 3.567353338600e-03 0.0 
0.0 0.0 0.0 
-3.501606668458e-04 4.197100388115e-05 0.0 
4.197100388115e-05 3.595072306901e-03 0.0 
0.0 0.0 0.0 
-3.354152161020e-04 5.421124669921e-05 0.0 
5.421124669921e-05 3.574326796065e-03 0.0 
0.0 0.0 0.0 
-3.525917371674e-04 8.159303522469e-05 0.0 
8.159303522469e-05 3.562577600877e-03 0.0 
0.0 0.0 0.0 
-3.658204231568e-04 6.482183367293e-05 0.0 
6.482183367293e-05 3.586885826232e-03 0.0 
0.0 0.0 0.0 
-3.664209451488e-04 1.184921681178e-04 0.0 
1.184921681178e-04 3.534648752984e-03 0.0 
0.0 0.0 0.0 
-3.848599481402e-04 8.859831252845e-05 0.0 
8.859831252845e-05 3.573817733525e-03 0.0 
0.0 0.0 0.0 
-3.911326879543e-04 1.665473113996e-04 0.0 
1.665473113996e-04 3.529963904709e-03 0.0 
0.0 0.0 0.0 
-3.804483636639e-04 1.393415088212e-04 0.0 
1.393415088212e-04 3.555775480216e-03 0.0 
0.0 0.0 0.0 
-4.067501352231e-04 2.145185430832e-04 0.0 
2.145185430832e-04 3.400126913486e-03 0.0 
0.0 0.0 0.0 
-2.237949077327e-04 -5.515055022992e-05 0.0 
-5.515055022992e-05 3.590713984697e-03 0.0 
0.0 0.0 0.0 
-2.612190827896e-04 5.255099911720e-05 0.0 
5.255099911720e-05 3.657798631698e-03 0.0 
0.0 0.0 0.0 
-2.361971575590e-04 -6.937370304523e-06 0.0 
-6.937370304523e-06 3.508807128560e-03 0.0 
0.0 0.0 0.0 
-2.495750731214e-04 6.898737209678e-06 0.0 
6.898737209678e-06 3.735448587748e-03 0.0 
0.0 0.0 0.0 
-4.110171585145e-04 2.680234995049e-04 0.0 
2.680234995049e-04 3.347688712888e-03 0.0 
0.0 0.0 0.0 
-2.545320352622e-04 -1.751836095948e-05 0.0 
-1.751836095948e-05 4.014194475598e-03 0.0 
0.0 0.0 0.0 
-2.547957964465e-04 -4.009584209818e-06 0.0 
-4.009584209818e-06 4.039856404371e-03 0.0 
0.0 0.0 0.0 
-2.516660383746e-04 -1.740796853480e-06 0.0 
-1.740796853480e-06 4.039578658599e-03 0.0 
0.0 0.0 0.0 
-2.639458396819e-04 -5.316843408884e-06 0.0 
-5.316843408884e-06 4.043266014065e-03 0.0 
0.0 0.0 0.0 
-2.558961824086e-04 2.807979933921e-07 0.0 
2.807979933921e-07 4.042215524652e-03 0.0 
0.0 0.0 0.0 
-2.689672882633e-04 -3.105950130144e-06 0.0 
-3.105950130144e-06 4.046415376814e-03 0.0 
0.0 0.0 0.0 
-2.625537456898e-04 -9.867332454428e-07 0.0 
-9.867332454428e-07 4.045827968792e-03 0.0 
0.0 0.0 0.0 
-2.722751991455e-04 -6.635544486691e-06 0.0 
-6.635544486691e-06 4.043264202866e-03 0.0 
0.0 0.0 0.0 
-2.672657253041e-04 3.545710570914e-06 0.0 
3.545710570914e-06 4.040161379715e-03 0.0 
0.0 0.0 0.0 
-2.798009022060e-04 1.284547827605e-06 0.0 
1.284547827605e-06 4.044938477318e-03 0.0 
0.0 0.0 0.0 
-2.769300923057e-04 6.237147229123e-06 0.0 
6.237147229123e-06 4.043101098676e-03 0.0 
0.0 0.0 0.0 
-2.906597962768e-04 1.190363215735e-06 0.0 
1.190363215735e-06 4.043743883061e-03 0.0 
0.0 0.0 0.0 
-4.172568151446e-04 1.589433154215e-04 0.0 
1.589433154215e-04 3.985268161963e-03 0.0 
0.0 0.0 0.0 
-2.851518660347e-04 1.249866756606e-05 0.0 
1.249866756606e-05 4.038854054818e-03 0.0 
0.0 0.0 0.0 
-3.917467708167e-04 1.532327417592e-04 0.0 
1.532327417592e-04 3.985341713141e-03 0.0 
0.0 0.0 0.0 
-2.936552280056e-04 1.175661411421e-05 0.0 
1.175661411421e-05 4.042691703773e-03 0.0 
0.0 0.0 0.0 
-2.978308260649e-04 1.976364937599e-05 0.0 
1.976364937599e-05 4.039154862160e-03 0.0 
0.0 0.0 0.0 
-3.147603247952e-04 1.389516161673e-05 0.0 
1.389516161673e-05 4.039677792539e-03 0.0 
0.0 0.0 0.0 
-3.080950023487e-04 3.118036190361e-05 0.0 
3.118036190361e-05 4.030059770319e-03 0.0 
0.0 0.0 0.0 
-3.276284892226e-04 2.889459556235e-05 0.0 
2.889459556235e-05 4.036565754553e-03 0.0 
0.0 0.0 0.0 
-3.222505824063e-04 4.416089598262e-05 0.0 
4.416089598262e-05 4.027120360988e-03 0.0 
0.0 0.0 0.0 
-3.379389106724e-04 4.218258664568e-05 0.0 
4.218258664568e-05 4.031622999268e-03 0.0 
0.0 0.0 0.0 
-3.804483636639e-04 1.807536199277e-04 0.0 
1.807536199277e-04 3.831525922505e-03 0.0 
0.0 0.0 0.0 
-3.364951351069e-04 6.077462632828e-05 0.0 
6.077462632828e-05 4.019441734112e-03 0.0 
0.0 0.0 0.0 
-3.517996410169e-04 5.848304629384e-05 0.0 
5.848304629384e-05 4.022883928862e-03 0.0 
0.0 0.0 0.0 
-3.501606668458e-04 8.345254802384e-05 0.0 
8.345254802384e-05 4.005054235362e-03 0.0 
0.0 0.0 0.0 
-3.632388535573e-04 8.411119999728e-05 0.0 
8.411119999728e-05 4.010857034116e-03 0.0 
0.0 0.0 0.0 
-3.758945430214e-04 1.174971431526e-04 0.0 
1.174971431526e-04 3.997677819346e-03 0.0 
0.0 0.0 0.0 
-3.658204231568e-04 1.131245637141e-04 0.0 
1.131245637141e-04 3.989047753616e-03 0.0 
0.0 0.0 0.0 
-3.848599481402e-04 1.463181300357e-04 0.0 
1.463181300357e-04 3.975462974963e-03 0.0 
0.0 0.0 0.0 
-3.984898130253e-04 1.999847929632e-04 0.0 
1.999847929632e-04 4.010359003731e-03 0.0 
0.0 0.0 0.0 
-3.878203158839e-04 1.793253041944e-04 0.0 
1.793253041944e-04 3.834059133613e-03 0.0 
0.0 0.0 0.0 
-2.695277042203e-04 -4.866073128436e-05 0.0 
-4.866073128436e-05 4.048815231733e-03 0.0 
0.0 0.0 0.0 
-2.477785984861e-04 5.852671425552e-05 0.0 
5.852671425552e-05 4.009715393809e-03 0.0 
0.0 0.0 0.0 
-2.671443874942e-04 2.426040166603e-06 0.0 
2.426040166603e-06 4.145738487116e-03 0.0 
0.0 0.0 0.0 
-2.495750731214e-04 9.726805320968e-06 0.0 
9.726805320968e-06 3.916678512518e-03 0.0 
0.0 0.0 0.0 
-3.961641983133e-04 2.191238744224e-04 0.0 
2.191238744224e-04 3.800566773680e-03 0.0 
0.0 0.0 0.0 

TENSORS element_materi_strain_plasti float
-6.466164772809e-04 8.245090744215e-04 0.0 
8.245090744215e-04 2.707374572581e-03 0.0 
0.0 0.0 -4.220722639049e-04 
-5.850828050599e-04 4.087408186800e-04 0.0 
4.087408186800e-04 2.442724633431e-03 0.0 
0.0 0.0 -4.303330772826e-04 
-1.282095494807e-03 4.001741098009e-04 0.0 
4.001741098009e-04 8.226379453025e-03 0.0 
0.0 0.0 -1.278236581085e-03 
-1.295884943363e-03 -1.217266030679e-04 0.0 
-1.217266030679e-04 8.480174258718e-03 0.0 
0.0 0.0 -1.255598393855e-03 
-9.118044046819e-04 2.773302772114e-04 0.0 
2.773302772114e-04 5.301634366726e-03 0.0 
0.0 0.0 -7.961861350945e-04 
2.510626383067e-04 3.899924767601e-04 0.0 
3.899924767601e-04 -1.017744063534e-06 0.0 
0.0 0.0 -1.071620975328e-04 
-8.944012644099e-04 3.000213301662e-04 0.0 
3.000213301662e-04 5.255597081572e-03 0.0 
0.0 0.0 -8.011023898636e-04 
-6.111001276048e-04 8.133198202813e-04 0.0 
8.133198202813e-04 2.541489709150e-03 0.0 
0.0 0.0 -4.045669272905e-04 
-9.178969371214e-04 -2.491713150355e-04 0.0 
-2.491713150355e-04 5.331335701126e-03 0.0 
0.0 0.0 -7.977904104816e-04 
-1.281432177268e-03 3.076617140319e-04 0.0 
3.076617140319e-04 8.397045163972e-03 0.0 
0.0 0.0 -1.253060141438e-03 
-1.093573439511e-03 5.627509268443e-05 0.0 
5.627509268443e-05 5.667510059544e-03 0.0 
0.0 0.0 -8.816510380685e-04 
-5.787511837025e-04 6.777709678412e-04 0.0 
6.777709678412e-04 2.088119972159e-03 0.0 
0.0 0.0 -3.735031833740e-04 
-1.326305648993e-03 1.334625464656e-04 0.0 
1.334625464656e-04 8.251440389062e-03 0.0 
0.0 0.0 -1.259187713256e-03 
-9.724653634380e-04 3.053641968768e-04 0.0 
3.053641968768e-04 5.663135226582e-03 0.0 
0.0 0.0 -8.526168115438e-04 
-1.330762641967e-03 -3.008650578863e-04 0.0 
-3.008650578863e-04 8.383102825445e-03 0.0 
0.0 0.0 -1.289538875031e-03 
-1.321345684109e-03 2.719191787034e-04 0.0 
2.719191787034e-04 8.617215783831e-03 0.0 
0.0 0.0 -1.285984941237e-03 
-9.140896497734e-04 7.519541139523e-05 0.0 
7.519541139523e-05 5.296976735505e-03 0.0 
0.0 0.0 -7.740676797406e-04 
0.0 0.0 0.0 
0.0 0.0 0.0 
0.0 0.0 0.0 
-3.519099227855e-04 -1.443334347486e-04 0.0 
-1.443334347486e-04 1.817532010240e-03 0.0 
0.0 0.0 -2.776016825098e-04 
-3.997644766498e-04 4.954726061119e-05 0.0 
4.954726061119e-05 1.673764597630e-03 0.0 
0.0 0.0 -3.031105466646e-04 
-1.276969282696e-03 -1.363061038713e-04 0.0 
-1.363061038713e-04 8.471794626493e-03 0.0 
0.0 0.0 -1.250388265701e-03 
-6.432162703731e-04 5.512102898043e-04 0.0 
5.512102898043e-04 2.885045796034e-03 0.0 
0.0 0.0 -4.811142067971e-04 
-6.884954101540e-04 3.994199898237e-04 0.0 
3.994199898237e-04 3.234457200495e-03 0.0 
0.0 0.0 -5.091556215902e-04 
-1.086615628820e-03 -2.931322765965e-04 0.0 
-2.931322765965e-04 7.458132473520e-03 0.0 
0.0 0.0 -1.210372970477e-03 
-1.022288100468e-03 3.987168263927e-04 0.0 
3.987168263927e-04 6.009421001038e-03 0.0 
0.0 0.0 -9.130988374533e-04 
-1.132573975630e-03 -2.410939857696e-04 0.0 
-2.410939857696e-04 6.073086075411e-03 0.0 
0.0 0.0 -9.179597371190e-04 
-8.591992327558e-04 1.320513177097e-04 0.0 
1.320513177097e-04 4.879471040969e-03 0.0 
0.0 0.0 -7.148082707961e-04 
-1.227939719405e-03 4.897213587292e-04 0.0 
4.897213587292e-04 8.231185118654e-03 0.0 
0.0 0.0 -1.266047838742e-03 
-1.043323281561e-03 -5.190539471628e-05 0.0 
-5.190539471628e-05 6.052750555350e-03 0.0 
0.0 0.0 -9.113908267906e-04 
-1.155289536852e-03 -1.768880545786e-05 0.0 
-1.768880545786e-05 7.700571454284e-03 0.0 
0.0 0.0 -1.237914324842e-03 
3.591818895870e-04 -1.087919908418e-03 0.0 
-1.087919908418e-03 2.306926407283e-04 0.0 
0.0 0.0 -2.528033701351e-04 
-5.253251415500e-05 -7.346267826167e-05 0.0 
-7.346267826167e-05 5.706227414438e-04 0.0 
0.0 0.0 -1.059755802940e-04 
-1.328657286874e-03 4.996781592111e-04 0.0 
4.996781592111e-04 8.531045122136e-03 0.0 
0.0 0.0 -1.261301343383e-03 
-1.246135843572e-03 -2.165566539215e-04 0.0 
-2.165566539215e-04 7.113329539199e-03 0.0 
0.0 0.0 -1.090200430068e-03 
-1.222640564805e-03 -5.172125954847e-04 0.0 
-5.172125954847e-04 8.023175699372e-03 0.0 
0.0 0.0 -1.254989870190e-03 
-1.362336754091e-03 1.038272021812e-04 0.0 
1.038272021812e-04 8.593232231463e-03 0.0 
0.0 0.0 -1.314886350686e-03 
-1.333817909252e-03 -6.741910836282e-04 0.0 
-6.741910836282e-04 8.572481383167e-03 0.0 
0.0 0.0 -1.314653105918e-03 
-1.152787385481e-03 3.395804623759e-04 0.0 
3.395804623759e-04 7.780236807800e-03 0.0 
0.0 0.0 -1.264739017786e-03 
-8.345100331917e-04 -3.032908507100e-04 0.0 
-3.032908507100e-04 4.793915913410e-03 0.0 
0.0 0.0 -7.380763454961e-04 
-8.314689275844e-04 3.674750294880e-04 0.0 
3.674750294880e-04 4.862282802739e-03 0.0 
0.0 0.0 -7.371174501546e-04 
-7.446435526587e-04 2.495366517639e-04 0.0 
2.495366517639e-04 3.730189536197e-03 0.0 
0.0 0.0 -5.794556523337e-04 
-1.240577876015e-03 -2.606603701506e-04 0.0 
-2.606603701506e-04 7.945807599574e-03 0.0 
0.0 0.0 -1.280756488215e-03 
-5.279799311040e-04 1.102170611227e-03 0.0 
1.102170611227e-03 1.773978523889e-03 0.0 
0.0 0.0 -3.207852484642e-04 
-8.673432961900e-04 2.038482856540e-04 0.0 
2.038482856540e-04 4.641456270313e-03 0.0 
0.0 0.0 -7.350059072715e-04 
-1.271467539957e-03 -7.879660805606e-05 0.0 
-7.879660805606e-05 8.302426141521e-03 0.0 
0.0 0.0 -1.212858513926e-03 
-5.775885694842e-04 8.848405614820e-04 0.0 
8.848405614820e-04 1.777381832978e-03 0.0 
0.0 0.0 -3.198426158856e-04 
2.130878448261e-04 -2.803383724960e-04 0.0 
-2.803383724960e-04 -1.640750498909e-05 0.0 
0.0 0.0 -8.429157421588e-05 
-1.252952730617e-03 9.194498370430e-05 0.0 
9.194498370430e-05 8.113365198973e-03 0.0 
0.0 0.0 -1.234743356787e-03 
1.618564024129e-06 -4.086337075162e-06 0.0 
-4.086337075162e-06 6.435399236555e-07 0.0 
0.0 0.0 -9.694731204789e-07 
-9.377652680597e-04 -7.279277581159e-05 0.0 
-7.279277581159e-05 5.473641853479e-03 0.0 
0.0 0.0 -8.229436299569e-04 
-7.184238485782e-04 3.283816114982e-04 0.0 
3.283816114982e-04 3.500159598670e-03 0.0 
0.0 0.0 -5.440916476828e-04 
-4.407403860860e-04 -1.000193585770e-04 0.0 
-1.000193585770e-04 2.276874889741e-03 0.0 
0.0 0.0 -3.443810396916e-04 
3.693556118723e-04 -1.150080954677e-03 0.0 
-1.150080954677e-03 2.564828416198e-04 0.0 
0.0 0.0 -2.682164800680e-04 
-6.981340931129e-04 4.826618162809e-04 0.0 
4.826618162809e-04 3.375109354798e-03 0.0 
0.0 0.0 -5.489460876789e-04 
-1.294047200749e-03 3.426820678350e-04 0.0 
3.426820678350e-04 8.360890520438e-03 0.0 
0.0 0.0 -1.282189168212e-03 
-6.426921289281e-04 -2.477141885566e-04 0.0 
-2.477141885566e-04 2.972149177427e-03 0.0 
0.0 0.0 -4.512233509908e-04 
-5.071100590753e-04 7.724547813732e-05 0.0 
7.724547813732e-05 2.167123717160e-03 0.0 
0.0 0.0 -3.694212080277e-04 
-1.248804674603e-03 1.204053078386e-04 0.0 
1.204053078386e-04 7.152497866114e-03 0.0 
0.0 0.0 -1.087734043503e-03 
-2.199405617637e-04 -6.207470745057e-05 0.0 
-6.207470745057e-05 1.342683867831e-03 0.0 
0.0 0.0 -2.189683579105e-04 
-1.315587936217e-03 -1.318704737137e-04 0.0 
-1.318704737137e-04 8.629398526663e-03 0.0 
0.0 0.0 -1.285320035817e-03 
0.0 0.0 0.0 
0.0 0.0 0.0 
0.0 0.0 0.0 
-1.104248090582e-03 6.042449065024e-04 0.0 
6.042449065024e-04 7.502345308807e-03 0.0 
0.0 0.0 -1.210824713543e-03 
-6.118289487359e-04 1.052783847498e-03 0.0 
1.052783847498e-03 3.133960488999e-03 0.0 
0.0 0.0 -5.497085007362e-04 
3.930006713422e-04 -1.150166211052e-03 0.0 
-1.150166211052e-03 2.323329664583e-04 0.0 
0.0 0.0 -2.680001304859e-04 
-1.319367167403e-03 -3.421260873299e-04 0.0 
-3.421260873299e-04 8.223808012733e-03 0.0 
0.0 0.0 -1.257478522087e-03 
-6.824305458781e-04 5.038519007458e-04 0.0 
5.038519007458e-04 3.122644429912e-03 0.0 
0.0 0.0 -5.137572693775e-04 
0.0 0.0 0.0 
0.0 0.0 0.0 
0.0 0.0 0.0 
-1.302579274791e-03 3.856077973971e-04 0.0 
3.856077973971e-04 8.474035595977e-03 0.0 
0.0 0.0 -1.261660853087e-03 
-3.055720632183e-04 -1.064577386819e-03 0.0 
-1.064577386819e-03 1.239084830307e-03 0.0 
0.0 0.0 -3.052032381971e-04 
-1.275451108923e-03 4.835577884085e-04 0.0 
4.835577884085e-04 8.123671911160e-03 0.0 
0.0 0.0 -1.282376455277e-03 
-1.145904955508e-03 -3.118374997867e-04 0.0 
-3.118374997867e-04 6.272168097955e-03 0.0 
0.0 0.0 -9.556290573178e-04 
-1.338499280800e-03 2.408371898962e-04 0.0 
2.408371898962e-04 8.775782511843e-03 0.0 
0.0 0.0 -1.338499280800e-03 
-1.192625588921e-03 4.461210467852e-04 0.0 
4.461210467852e-04 7.634783606740e-03 0.0 
0.0 0.0 -1.232909111256e-03 
-2.127254236185e-05 1.891430361426e-04 0.0 
1.891430361426e-04 5.160571140730e-04 0.0 
0.0 0.0 -1.295286970291e-04 
-6.935849542252e-04 2.344127444435e-05 0.0 
2.344127444435e-05 2.990888035910e-03 0.0 
0.0 0.0 -4.777371989943e-04 
-1.295701123542e-03 1.509088819434e-05 0.0 
1.509088819434e-05 8.469943460322e-03 0.0 
0.0 0.0 -1.262626981217e-03 
-1.324502073679e-03 3.744328644392e-04 0.0 
3.744328644392e-04 8.596934185840e-03 0.0 
0.0 0.0 -1.265352048664e-03 
-2.411922616665e-04 1.053006289260e-03 0.0 
1.053006289260e-03 1.157414957781e-03 0.0 
0.0 0.0 -3.599094611647e-04 
-2.769907565586e-04 -8.829481836090e-05 0.0 
-8.829481836090e-05 1.134623594574e-03 0.0 
0.0 0.0 -2.366757893512e-04 
-2.181753936334e-04 1.161392611074e-03 0.0 
1.161392611074e-03 1.149876313961e-03 0.0 
0.0 0.0 -3.564703237892e-04 
-2.758740996359e-04 -8.746279552454e-04 0.0 
-8.746279552454e-04 1.152039496951e-03 0.0 
0.0 0.0 -3.439500825601e-04 
-8.978965614641e-04 9.154439014956e-05 0.0 
9.154439014956e-05 5.029293334098e-03 0.0 
0.0 0.0 -7.918363975426e-04 
-6.733819819602e-04 4.712092501630e-04 0.0 
4.712092501630e-04 3.018715837704e-03 0.0 
0.0 0.0 -4.749402310763e-04 
-6.256408849580e-04 5.270574211380e-04 0.0 
5.270574211380e-04 2.559551606748e-03 0.0 
0.0 0.0 -4.438329512050e-04 
-9.725152992593e-04 -1.918915712341e-04 0.0 
-1.918915712341e-04 5.553894553160e-03 0.0 
0.0 0.0 -8.336771054075e-04 
-9.515395304919e-04 2.688463451821e-04 0.0 
2.688463451821e-04 5.521722972354e-03 0.0 
0.0 0.0 -8.358076868167e-04 
-1.183410575090e-03 -2.693387168119e-04 0.0 
-2.693387168119e-04 6.452199734420e-03 0.0 
0.0 0.0 -9.867109252839e-04 
-1.231001359755e-03 1.776752657648e-04 0.0 
1.776752657648e-04 6.972617785685e-03 0.0 
0.0 0.0 -1.058576829647e-03 
-1.159508113008e-03 2.069980553471e-04 0.0 
2.069980553471e-04 7.153965750682e-03 0.0 
0.0 0.0 -1.085941371602e-03 
-9.167398449037e-04 -2.379223024375e-04 0.0 
-2.379223024375e-04 5.214431434648e-03 0.0 
0.0 0.0 -7.983229688164e-04 
-9.629239381275e-05 -7.847678025284e-05 0.0 
-7.847678025284e-05 3.293444492904e-04 0.0 
0.0 0.0 -9.987945234756e-05 
-9.298280525189e-04 1.832074445445e-04 0.0 
1.832074445445e-04 5.072594773826e-03 0.0 
0.0 0.0 -7.928983479555e-04 
-1.152068192651e-03 -8.618068735251e-05 0.0 
-8.618068735251e-05 7.066072062095e-03 0.0 
0.0 0.0 -1.069439317440e-03 
-1.125567912536e-03 1.438213412546e-04 0.0 
1.438213412546e-04 7.130378012797e-03 0.0 
0.0 0.0 -1.046447409317e-03 
-1.354248964991e-03 2.488047583645e-04 0.0 
2.488047583645e-04 9.041954327214e-03 0.0 
0.0 0.0 -1.319970921405e-03 
-1.236862548615e-03 6.047335938228e-05 0.0 
6.047335938228e-05 8.106142459015e-03 0.0 
0.0 0.0 -1.294194962782e-03 
-9.013588349204e-04 -3.564785080674e-05 0.0 
-3.564785080674e-05 5.032133509131e-03 0.0 
0.0 0.0 -7.889745663688e-04 
-1.254766552398e-03 -3.118115606911e-04 0.0 
-3.118115606911e-04 8.236373731402e-03 0.0 
0.0 0.0 -1.263183913703e-03 
-9.880175404899e-04 -1.466486724576e-04 0.0 
-1.466486724576e-04 5.952185502159e-03 0.0 
0.0 0.0 -9.040008563810e-04 
-6.291314004619e-04 6.895076894316e-04 0.0 
6.895076894316e-04 3.149500208419e-03 0.0 
0.0 0.0 -5.198799001330e-04 
-8.730449846052e-04 -1.408519575968e-04 0.0 
-1.408519575968e-04 5.083535477325e-03 0.0 
0.0 0.0 -7.643292725053e-04 
-1.347992785810e-03 5.931491654167e-05 0.0 
5.931491654167e-05 8.400156878011e-03 0.0 
0.0 0.0 -1.287517816355e-03 
-8.262228282774e-04 1.447902815746e-04 0.0 
1.447902815746e-04 6.297334361413e-03 0.0 
0.0 0.0 -1.043751955586e-03 
-1.104569420112e-03 1.448019849648e-04 0.0 
1.448019849648e-04 7.556047747294e-03 0.0 
0.0 0.0 -1.209599240962e-03 
-4.538367894760e-04 9.757826283503e-04 0.0 
9.757826283503e-04 2.565554738313e-03 0.0 
0.0 0.0 -4.747543016519e-04 
2.029884590449e-04 -8.599336091252e-04 0.0 
-8.599336091252e-04 2.611091082078e-04 0.0 
0.0 0.0 -1.988989573940e-04 
-1.297459135418e-03 -2.747475562559e-04 0.0 
-2.747475562559e-04 7.787009671767e-03 0.0 
0.0 0.0 -1.189902873528e-03 
-1.189086276409e-03 1.093944519264e-04 0.0 
1.093944519264e-04 7.587261230545e-03 0.0 
0.0 0.0 -1.108790581071e-03 
7.624507231963e-05 -2.164748674539e-04 0.0 
-2.164748674539e-04 4.178589710884e-05 0.0 
0.0 0.0 -5.058470118363e-05 
-1.283662232086e-03 -3.116749921630e-04 0.0 
-3.116749921630e-04 8.203749873262e-03 0.0 
0.0 0.0 -1.285127980003e-03 
-1.117454671525e-03 5.890310527375e-04 0.0 
5.890310527375e-04 6.771147145683e-03 0.0 
0.0 0.0 -1.051491716222e-03 
2.129630744421e-04 -9.499020889305e-05 0.0 
-9.499020889305e-05 2.730652041404e-04 0.0 
0.0 0.0 -1.433710470045e-04 
-4.646091997464e-04 1.130911332871e-03 0.0 
1.130911332871e-03 3.315295093012e-03 0.0 
0.0 0.0 -6.309931931857e-04 
-8.659480951891e-04 9.706201231431e-05 0.0 
9.706201231431e-05 4.691930850523e-03 0.0 
0.0 0.0 -7.153918394734e-04 
-8.128195131981e-04 -2.696429011542e-04 0.0 
-2.696429011542e-04 3.582326768313e-03 0.0 
0.0 0.0 -5.772375537024e-04 
-5.795319369569e-04 9.930078575254e-04 0.0 
9.930078575254e-04 2.722691248666e-03 0.0 
0.0 0.0 -4.852398935310e-04 
-5.900753072712e-04 6.920056491215e-04 0.0 
6.920056491215e-04 3.182816884513e-03 0.0 
0.0 0.0 -5.471823052058e-04 
-1.301859315623e-03 -1.904737940513e-04 0.0 
-1.904737940513e-04 8.142812636608e-03 0.0 
0.0 0.0 -1.283833066805e-03 
-9.523212659311e-04 1.958273368285e-04 0.0 
1.958273368285e-04 5.865970295395e-03 0.0 
0.0 0.0 -8.766975940251e-04 
-5.541698138184e-04 1.190551615049e-03 0.0 
1.190551615049e-03 2.836925707114e-03 0.0 
0.0 0.0 -5.122473358773e-04 
-4.084206622420e-04 -7.278847424947e-04 0.0 
-7.278847424947e-04 1.354708172608e-03 0.0 
0.0 0.0 -2.295267891405e-04 
-9.046551402062e-04 3.103540058347e-04 0.0 
3.103540058347e-04 5.221480629983e-03 0.0 
0.0 0.0 -7.744920945421e-04 
-1.163420538902e-03 -6.301653344554e-05 0.0 
-6.301653344554e-05 7.412623996309e-03 0.0 
0.0 0.0 -1.129288753466e-03 
-5.271843801054e-04 7.884919210617e-04 0.0 
7.884919210617e-04 2.864417005275e-03 0.0 
0.0 0.0 -5.109724225979e-04 
5.534592465795e-05 9.039028363928e-04 0.0 
9.039028363928e-04 4.831251439840e-04 0.0 
0.0 0.0 -2.307733151323e-04 
-8.073832098114e-04 1.503125105248e-04 0.0 
1.503125105248e-04 4.217521397372e-03 0.0 
0.0 0.0 -6.470401313397e-04 
-8.043937078593e-04 -1.245165173277e-04 0.0 
-1.245165173277e-04 3.751204721582e-03 0.0 
0.0 0.0 -5.578851714504e-04 
-7.622885537649e-04 4.316670476422e-04 0.0 
4.316670476422e-04 3.890857300125e-03 0.0 
0.0 0.0 -6.167189930163e-04 
-1.313795093192e-03 3.745855682538e-04 0.0 
3.745855682538e-04 8.614675897131e-03 0.0 
0.0 0.0 -1.290671971449e-03 
1.991130479106e-04 9.381873505590e-04 0.0 
9.381873505590e-04 3.095528624407e-04 0.0 
0.0 0.0 -2.179996758648e-04 
-1.118912346163e-03 3.069253467211e-05 0.0 
3.069253467211e-05 5.953637467028e-03 0.0 
0.0 0.0 -9.216843799351e-04 
-1.302832962065e-03 2.769223245220e-04 0.0 
2.769223245220e-04 8.470819943817e-03 0.0 
0.0 0.0 -1.256690274141e-03 
-7.596340248727e-04 7.382796594352e-04 0.0 
7.382796594352e-04 4.031537584483e-03 0.0 
0.0 0.0 -6.588732905211e-04 
-7.779772953584e-04 1.836806670251e-04 0.0 
1.836806670251e-04 3.983301519145e-03 0.0 
0.0 0.0 -6.139229799761e-04 
-1.231803605678e-03 -5.782093166128e-05 0.0 
-5.782093166128e-05 8.028152931577e-03 0.0 
0.0 0.0 -1.254964138299e-03 
-1.328106245368e-03 -3.359343714767e-04 0.0 
-3.359343714767e-04 8.269862829300e-03 0.0 
0.0 0.0 -1.261070974318e-03 
-1.177616370787e-03 5.503788424212e-05 0.0 
5.503788424212e-05 6.447345049328e-03 0.0 
0.0 0.0 -9.873713238705e-04 
-7.975389004980e-04 3.851368616877e-04 0.0 
3.851368616877e-04 4.370903509068e-03 0.0 
0.0 0.0 -6.916138708610e-04 
-1.195768822005e-03 -1.347190958518e-04 0.0 
-1.347190958518e-04 8.136693957771e-03 0.0 
0.0 0.0 -1.270330610962e-03 
-7.600104695776e-04 6.621541633523e-04 0.0 
6.621541633523e-04 3.915062890853e-03 0.0 
0.0 0.0 -6.326048069937e-04 
-1.276977184880e-03 1.361446544635e-04 0.0 
1.361446544635e-04 8.444479482518e-03 0.0 
0.0 0.0 -1.283174495648e-03 
-1.281656246909e-03 5.918270400850e-04 0.0 
5.918270400850e-04 8.394460336114e-03 0.0 
0.0 0.0 -1.267437373369e-03 
-9.916900482218e-04 -1.353869196216e-04 0.0 
-1.353869196216e-04 5.594925371490e-03 0.0 
0.0 0.0 -8.543707170918e-04 
-1.059679930627e-03 2.378363673836e-04 0.0 
2.378363673836e-04 6.573353481791e-03 0.0 
0.0 0.0 -9.817831382938e-04 
-7.605699351815e-04 3.748556655775e-04 0.0 
3.748556655775e-04 3.967103975153e-03 0.0 
0.0 0.0 -6.293189184696e-04 
-7.420000060583e-04 4.704307559795e-04 0.0 
4.704307559795e-04 3.646692949105e-03 0.0 
0.0 0.0 -5.830241378053e-04 
-8.001161774359e-04 7.418992546282e-04 0.0 
7.418992546282e-04 4.429271101410e-03 0.0 
0.0 0.0 -7.211932326589e-04 
-4.509036314279e-04 9.161005774141e-04 0.0 
9.161005774141e-04 2.969896787124e-03 0.0 
0.0 0.0 -5.383041810906e-04 
-8.768683131663e-04 -1.698577199285e-04 0.0 
-1.698577199285e-04 5.218733852389e-03 0.0 
0.0 0.0 -7.693993191400e-04 
-3.984078038155e-04 7.031353492297e-04 0.0 
7.031353492297e-04 3.390130310364e-03 0.0 
0.0 0.0 -6.275039421266e-04 
-8.830553488541e-05 -1.169663280731e-04 0.0 
-1.169663280731e-04 3.137961635653e-04 0.0 
0.0 0.0 -9.663884086279e-05 
-9.202478516251e-04 -5.770930012148e-06 0.0 
-5.770930012148e-06 5.620779502953e-03 0.0 
0.0 0.0 -8.171079392438e-04 
-3.114395398576e-04 -3.263303537109e-05 0.0 
-3.263303537109e-05 1.213615237241e-03 0.0 
0.0 0.0 -2.373169254524e-04 
-8.400103073364e-04 1.183268532165e-04 0.0 
1.183268532165e-04 4.465364634510e-03 0.0 
0.0 0.0 -6.809683978454e-04 
-1.226720591274e-03 -2.033245432446e-04 0.0 
-2.033245432446e-04 7.901279716244e-03 0.0 
0.0 0.0 -1.284796145094e-03 
-5.032521871548e-04 1.323397128945e-03 0.0 
1.323397128945e-03 2.524146629484e-03 0.0 
0.0 0.0 -4.767992880414e-04 
-1.206015416419e-03 1.351161918146e-04 0.0 
1.351161918146e-04 6.706761080456e-03 0.0 
0.0 0.0 -1.021089721936e-03 
-5.854397783758e-04 6.900577011398e-04 0.0 
6.900577011398e-04 2.034319527358e-03 0.0 
0.0 0.0 -3.540742325023e-04 
-8.487428613626e-04 6.354315705334e-04 0.0 
6.354315705334e-04 6.259047629254e-03 0.0 
0.0 0.0 -1.044905595188e-03 
-9.023795236384e-04 1.774952439286e-05 0.0 
1.774952439286e-05 5.056579998417e-03 0.0 
0.0 0.0 -7.899655494116e-04 
-3.675306969511e-04 1.198984270489e-03 0.0 
1.198984270489e-03 2.958001668599e-03 0.0 
0.0 0.0 -5.931463391684e-04 
-1.266256333575e-03 -2.932543747909e-04 0.0 
-2.932543747909e-04 7.348938270472e-03 0.0 
0.0 0.0 -1.120963572432e-03 
-3.905834582402e-04 -4.908595614848e-04 0.0 
-4.908595614848e-04 1.232002034576e-03 0.0 
0.0 0.0 -2.722262904030e-04 
-1.289444217002e-03 1.239965470747e-04 0.0 
1.239965470747e-04 7.777003841897e-03 0.0 
0.0 0.0 -1.189111243166e-03 
-9.083262515729e-04 4.866804809917e-04 0.0 
4.866804809917e-04 4.963586243701e-03 0.0 
0.0 0.0 -7.711223959738e-04 
-1.340203078278e-03 -2.129693675799e-04 0.0 
-2.129693675799e-04 8.439560912258e-03 0.0 
0.0 0.0 -1.265987209193e-03 
-8.868772565119e-04 2.877464608834e-05 0.0 
2.877464608834e-05 5.056912107765e-03 0.0 
0.0 0.0 -7.842605076999e-04 
-4.245977401382e-04 1.301715382003e-03 0.0 
1.301715382003e-03 2.484999694538e-03 0.0 
0.0 0.0 -5.042822341261e-04 
-8.141088315077e-04 3.778227072886e-04 0.0 
3.778227072886e-04 4.370548075301e-03 0.0 
0.0 0.0 -6.840799553763e-04 
-1.128956121950e-03 -1.816355743224e-04 0.0 
-1.816355743224e-04 5.879621026637e-03 0.0 
0.0 0.0 -8.722824885218e-04 
-5.657686865338e-04 1.006813399921e-03 0.0 
1.006813399921e-03 2.114854539436e-03 0.0 
0.0 0.0 -3.514598124168e-04 
-2.840077947560e-04 7.374002385130e-04 0.0 
7.374002385130e-04 3.016923521918e-03 0.0 
0.0 0.0 -5.911455407098e-04 
-1.107826402130e-03 -1.895219266089e-04 0.0 
-1.895219266089e-04 6.838398808500e-03 0.0 
0.0 0.0 -1.016465148841e-03 
-8.846022414820e-04 1.673369808483e-04 0.0 
1.673369808483e-04 5.274165376609e-03 0.0 
0.0 0.0 -7.680022369673e-04 
-4.363801896578e-04 1.202422263910e-03 0.0 
1.202422263910e-03 2.876866297868e-03 0.0 
0.0 0.0 -5.666226778950e-04 
-8.017363352442e-04 3.924823248397e-04 0.0 
3.924823248397e-04 4.130177357856e-03 0.0 
0.0 0.0 -6.498546761489e-04 
-1.141214369151e-03 6.765310758862e-04 0.0 
6.765310758862e-04 7.271411604946e-03 0.0 
0.0 0.0 -1.136725521675e-03 
-8.548535662047e-04 -2.781485263044e-04 0.0 
-2.781485263044e-04 4.164865359686e-03 0.0 
0.0 0.0 -6.189190723244e-04 
-1.237707508229e-03 4.856674807990e-04 0.0 
4.856674807990e-04 7.956457412847e-03 0.0 
0.0 0.0 -1.285202198870e-03 
-1.271584492805e-03 4.859423083683e-04 0.0 
4.859423083683e-04 8.362652585957e-03 0.0 
0.0 0.0 -1.265486236287e-03 
-6.208228587870e-04 6.861521722427e-04 0.0 
6.861521722427e-04 2.794482215749e-03 0.0 
0.0 0.0 -4.595713030950e-04 
-8.601834141272e-04 -1.130024456241e-04 0.0 
-1.130024456241e-04 3.988529893684e-03 0.0 
0.0 0.0 -6.385407451345e-04 
-9.728705791535e-04 -2.427476520657e-04 0.0 
-2.427476520657e-04 7.014843591236e-03 0.0 
0.0 0.0 -1.152822474774e-03 
-7.582637832037e-04 3.173029778375e-04 0.0 
3.173029778375e-04 3.850177976745e-03 0.0 
0.0 0.0 -6.037256927378e-04 
-5.932602371824e-04 9.450171731982e-04 0.0 
9.450171731982e-04 2.345539596427e-03 0.0 
0.0 0.0 -4.251746348339e-04 
-8.883854653183e-04 4.319931064094e-04 0.0 
4.319931064094e-04 4.807571306798e-03 0.0 
0.0 0.0 -7.443430781256e-04 
-4.655628622191e-04 8.097546048135e-04 0.0 
8.097546048135e-04 3.367415080588e-03 0.0 
0.0 0.0 -6.011186688906e-04 
-1.309467600587e-03 2.274324864678e-04 0.0 
2.274324864678e-04 8.467271508597e-03 0.0 
0.0 0.0 -1.279059907835e-03 
-1.139712663312e-03 5.524271265546e-04 0.0 
5.524271265546e-04 6.895093066062e-03 0.0 
0.0 0.0 -1.060691896764e-03 
-1.282894195515e-03 1.713163621167e-04 0.0 
1.713163621167e-04 7.580646218946e-03 0.0 
0.0 0.0 -1.155968210243e-03 
-4.263760736077e-04 9.726189065638e-04 0.0 
9.726189065638e-04 1.483303861492e-03 0.0 
0.0 0.0 -3.328149423972e-04 
-1.567783780417e-04 7.459959337790e-04 0.0 
7.459959337790e-04 2.633807870816e-03 0.0 
0.0 0.0 -5.558335581882e-04 
-1.150277857659e-03 5.855176210150e-04 0.0 
5.855176210150e-04 7.056066340815e-03 0.0 
0.0 0.0 -1.089453766084e-03 
0.0 0.0 0.0 
0.0 0.0 0.0 
0.0 0.0 0.0 
-7.560981228119e-04 5.568058696449e-04 0.0 
5.568058696449e-04 3.796632807166e-03 0.0 
0.0 0.0 -6.073871274648e-04 
-8.851342185419e-04 -4.312210323728e-04 0.0 
-4.312210323728e-04 6.519433320506e-03 0.0 
0.0 0.0 -1.080675545910e-03 
-1.164869828715e-04 -1.456841600207e-04 0.0 
-1.456841600207e-04 9.923335266216e-04 0.0 
0.0 0.0 -1.605608400042e-04 
-1.274326596506e-03 6.277067703956e-04 0.0 
6.277067703956e-04 8.332587857653e-03 0.0 
0.0 0.0 -1.257517519450e-03 
-1.082557255636e-03 4.467183423513e-04 0.0 
4.467183423513e-04 6.398503814141e-03 0.0 
0.0 0.0 -9.749624431058e-04 
-5.927975267284e-04 -7.287134833264e-04 0.0 
-7.287134833264e-04 3.408230795765e-03 0.0 
0.0 0.0 -5.995223474422e-04 
-8.718953006962e-04 8.285847793953e-05 0.0 
8.285847793953e-05 6.481498684251e-03 0.0 
0.0 0.0 -1.082135573042e-03 
-9.644421873602e-04 1.848918456793e-04 0.0 
1.848918456793e-04 5.622214910538e-03 0.0 
0.0 0.0 -8.259898420369e-04 
-9.976541713563e-04 8.643209894894e-06 0.0 
8.643209894894e-06 5.944166007327e-03 0.0 
0.0 0.0 -8.838609275114e-04 
-1.149666595734e-03 -3.245227479459e-04 0.0 
-3.245227479459e-04 7.662117469895e-03 0.0 
0.0 0.0 -1.237791025003e-03 
-6.377976835771e-04 -6.114567573414e-04 0.0 
-6.114567573414e-04 2.689173763955e-03 0.0 
0.0 0.0 -4.583583101839e-04 
-7.880409547895e-04 7.989113980148e-04 0.0 
7.989113980148e-04 4.542855302031e-03 0.0 
0.0 0.0 -7.480401524272e-04 
-9.214234162491e-04 5.351887786335e-04 0.0 
5.351887786335e-04 5.111262659093e-03 0.0 
0.0 0.0 -7.988399675000e-04 
-1.125534786672e-03 7.028976634263e-05 0.0 
7.028976634263e-05 6.721724443554e-03 0.0 
0.0 0.0 -1.008548823165e-03 
-9.505406595461e-04 1.355801735478e-04 0.0 
1.355801735478e-04 5.273089753614e-03 0.0 
0.0 0.0 -8.035999206669e-04 
-8.920793708860e-04 1.354006487991e-04 0.0 
1.354006487991e-04 4.845817227354e-03 0.0 
0.0 0.0 -7.415510827328e-04 
-6.524274381720e-04 1.661117945530e-04 0.0 
1.661117945530e-04 5.489508378744e-03 0.0 
0.0 0.0 -9.414312740916e-04 
-1.133549865804e-03 2.632851943964e-04 0.0 
2.632851943964e-04 7.143578184647e-03 0.0 
0.0 0.0 -1.105110859848e-03 
0.0 0.0 0.0 
0.0 0.0 0.0 
0.0 0.0 0.0 
-5.963424256803e-04 8.235655420392e-04 0.0 
8.235655420392e-04 2.727118741511e-03 0.0 
0.0 0.0 -4.649757541953e-04 
-6.413935052421e-04 9.083237096948e-04 0.0 
9.083237096948e-04 3.060885376631e-03 0.0 
0.0 0.0 -5.249394872960e-04 
-7.860598654059e-04 4.409893248632e-04 0.0 
4.409893248632e-04 4.491993588337e-03 0.0 
0.0 0.0 -7.181710532390e-04 
-1.182550884137e-03 1.586567680609e-04 0.0 
1.586567680609e-04 7.254490089636e-03 0.0 
0.0 0.0 -1.095076276885e-03 
4.583279132942e-04 6.488863092727e-04 0.0 
6.488863092727e-04 -1.405418918228e-05 0.0 
0.0 0.0 -1.904030246194e-04 
-8.562318666799e-04 -4.982168400307e-04 0.0 
-4.982168400307e-04 6.277290697447e-03 0.0 
0.0 0.0 -1.043355442177e-03 
-8.774345447710e-04 -2.186708792855e-04 0.0 
-2.186708792855e-04 5.055368522856e-03 0.0 
0.0 0.0 -7.763349569542e-04 
-2.555112241128e-04 1.229664321452e-03 0.0 
1.229664321452e-03 2.574406854457e-03 0.0 
0.0 0.0 -5.576783925304e-04 
-8.394427967850e-04 -5.648718734432e-04 0.0 
-5.648718734432e-04 6.055308780542e-03 0.0 
0.0 0.0 -1.006238978475e-03 
-7.021339785738e-05 -2.257880490566e-04 0.0 
-2.257880490566e-04 5.234298020475e-04 0.0 
0.0 0.0 -1.250635456846e-04 
-1.135452312747e-03 4.797857508759e-04 0.0 
4.797857508759e-04 6.834881249119e-03 0.0 
0.0 0.0 -1.040010908530e-03 
8.624072222387e-05 -5.482403482058e-05 0.0 
-5.482403482058e-05 4.623552898900e-04 0.0 
0.0 0.0 -1.166360257537e-04 
-1.840491842350e-04 -5.445744923588e-05 0.0 
-5.445744923588e-05 7.493422687288e-04 0.0 
0.0 0.0 -1.819418517600e-04 
-3.913654307844e-04 1.191507394513e-03 0.0 
1.191507394513e-03 1.470311877001e-03 0.0 
0.0 0.0 -3.246947309473e-04 
-6.091026736672e-04 -6.117663185554e-04 0.0 
-6.117663185554e-04 2.275310364661e-03 0.0 
0.0 0.0 -3.935955730116e-04 
-1.177121720242e-03 9.986808741325e-05 0.0 
9.986808741325e-05 7.155425965963e-03 0.0 
0.0 0.0 -1.073797489760e-03 
-5.625078577902e-04 -9.911531115061e-04 0.0 
-9.911531115061e-04 2.166295973773e-03 0.0 
0.0 0.0 -3.637595386041e-04 
-2.431075708166e-04 1.562437016590e-03 0.0 
1.562437016590e-03 1.376800568989e-03 0.0 
0.0 0.0 -3.890718233399e-04 
1.128852675938e-04 -1.510947419960e-03 0.0 
-1.510947419960e-03 7.754974600040e-04 0.0 
0.0 0.0 -3.807354546848e-04 
-5.007957256990e-04 -4.054148446658e-04 0.0 
-4.054148446658e-04 1.463133010542e-03 0.0 
0.0 0.0 -2.670040094673e-04 
-9.159310068134e-04 1.166570594862e-04 0.0 
1.166570594862e-04 6.711157580750e-03 0.0 
0.0 0.0 -1.117524173959e-03 
-9.108885203266e-04 1.625635707661e-04 0.0 
1.625635707661e-04 5.002433540525e-03 0.0 
0.0 0.0 -7.687972329812e-04 
-1.323980336649e-03 7.113171737239e-05 0.0 
7.113171737239e-05 8.245489008711e-03 0.0 
0.0 0.0 -1.256743614961e-03 
0.0 0.0 0.0 
0.0 0.0 0.0 
0.0 0.0 0.0 
-3.330839468946e-04 1.604359709376e-03 0.0 
1.604359709376e-03 1.727019779997e-03 0.0 
0.0 0.0 -4.044045206172e-04 
-3.067142002033e-04 1.081368075103e-03 0.0 
1.081368075103e-03 3.044773964149e-03 0.0 
0.0 0.0 -6.230907113744e-04 
-7.160262700322e-04 6.408733665596e-04 0.0 
6.408733665596e-04 3.506266837881e-03 0.0 
0.0 0.0 -5.709397776106e-04 
-8.360378415299e-04 -1.180231066696e-05 0.0 
-1.180231066696e-05 6.234265106431e-03 0.0 
0.0 0.0 -1.045235091131e-03 
-1.333473067012e-03 -5.395820062031e-05 0.0 
-5.395820062031e-05 8.405361436706e-03 0.0 
0.0 0.0 -1.275930989368e-03 
-1.131889764436e-03 1.436010865761e-04 0.0 
1.436010865761e-04 6.812686989612e-03 0.0 
0.0 0.0 -1.029499106509e-03 
5.269662907404e-05 8.913991735483e-04 0.0 
8.913991735483e-04 1.741226620489e-03 0.0 
0.0 0.0 -4.564841486881e-04 
-9.276981546427e-04 -3.123244619600e-04 0.0 
-3.123244619600e-04 6.731635440410e-03 0.0 
0.0 0.0 -1.116166892424e-03 
-1.162987388940e-03 1.784362897977e-04 0.0 
1.784362897977e-04 6.231822734238e-03 0.0 
0.0 0.0 -9.512440159151e-04 
-8.362061665926e-04 3.771233097708e-04 0.0 
3.771233097708e-04 4.773003845214e-03 0.0 
0.0 0.0 -7.537083776970e-04 
-1.102280810414e-03 4.919717221224e-04 0.0 
4.919717221224e-04 6.560511914991e-03 0.0 
0.0 0.0 -1.003200534345e-03 
-1.172867451038e-03 2.356902410022e-04 0.0 
2.356902410022e-04 7.744999640819e-03 0.0 
0.0 0.0 -1.239730878702e-03 
-2.254924367537e-04 5.849015682570e-04 0.0 
5.849015682570e-04 3.115409937203e-03 0.0 
0.0 0.0 -6.206208101913e-04 
-3.928189268474e-04 1.275344444358e-03 0.0 
1.275344444358e-03 1.843263560049e-03 0.0 
0.0 0.0 -3.752687577596e-04 
-9.992253787165e-04 1.463025209614e-04 0.0 
1.463025209614e-04 5.687199852232e-03 0.0 
0.0 0.0 -8.662621843288e-04 
-1.349788229223e-03 3.426545086550e-04 0.0 
3.426545086550e-04 9.036920857709e-03 0.0 
0.0 0.0 -1.323568725688e-03 
-7.650406542386e-04 4.751592665984e-04 0.0 
4.751592665984e-04 4.601158149833e-03 0.0 
0.0 0.0 -7.453270327203e-04 
-3.775537039009e-04 2.220958575009e-04 0.0 
2.220958575009e-04 4.208109464666e-03 0.0 
0.0 0.0 -7.768443034385e-04 
-9.417507759690e-04 -3.219991258082e-05 0.0 
-3.219991258082e-05 5.716819141930e-03 0.0 
0.0 0.0 -8.293613651800e-04 
-1.509886751970e-04 -1.135282332652e-03 0.0 
-1.135282332652e-03 1.017427284165e-03 0.0 
0.0 0.0 -3.579782397794e-04 
-9.508294649731e-04 4.627212186017e-04 0.0 
4.627212186017e-04 5.212868888400e-03 0.0 
0.0 0.0 -8.060563724883e-04 
-7.773528700208e-05 1.427065922566e-03 0.0 
1.427065922566e-03 1.665502982993e-03 0.0 
0.0 0.0 -4.590591740919e-04 
3.797527258111e-04 1.020114754415e-03 0.0 
1.020114754415e-03 1.842831286956e-04 0.0 
0.0 0.0 -2.417296519314e-04 
4.052395816326e-04 -6.135338758200e-04 0.0 
-6.135338758200e-04 -1.137161459370e-06 0.0 
0.0 0.0 -1.731867515028e-04 
-1.167546277040e-03 4.626490460642e-04 0.0 
4.626490460642e-04 7.101376568989e-03 0.0 
0.0 0.0 -1.075985979751e-03 
-9.623797546726e-04 1.845333678616e-04 0.0 
1.845333678616e-04 5.429528329259e-03 0.0 
0.0 0.0 -8.312490730234e-04 
-5.046075129470e-04 1.194499845990e-03 0.0 
1.194499845990e-03 2.882799900291e-03 0.0 
0.0 0.0 -5.429493831729e-04 
-1.206327788760e-03 8.269099761283e-05 0.0 
8.269099761283e-05 7.415962584707e-03 0.0 
0.0 0.0 -1.109763131677e-03 
-1.142751356386e-03 1.744200963682e-04 0.0 
1.744200963682e-04 6.974478761757e-03 0.0 
0.0 0.0 -1.057773507355e-03 
-8.833943353455e-04 3.220642776102e-04 0.0 
3.220642776102e-04 5.046401869676e-03 0.0 
0.0 0.0 -7.887050335656e-04 
-1.278006429871e-03 -2.029556331096e-04 0.0 
-2.029556331096e-04 8.153709597249e-03 0.0 
0.0 0.0 -1.288412101370e-03 
-4.271610777015e-04 5.562024212731e-04 0.0 
5.562024212731e-04 4.316314637617e-03 0.0 
0.0 0.0 -8.078958932737e-04 
-9.266589239438e-04 2.700924202998e-04 0.0 
2.700924202998e-04 5.312918686649e-03 0.0 
0.0 0.0 -8.238265297874e-04 
-4.963470151794e-04 6.905692722870e-04 0.0 
6.905692722870e-04 3.767490595173e-03 0.0 
0.0 0.0 -6.656476441012e-04 
-4.749686160319e-04 1.532444199585e-04 0.0 
1.532444199585e-04 4.696915836540e-03 0.0 
0.0 0.0 -8.413031780454e-04 
2.625503227397e-04 1.238828002540e-03 0.0 
1.238828002540e-03 6.651443892644e-04 0.0 
0.0 0.0 -3.865807678710e-04 
-9.465847814334e-04 1.767858078852e-04 0.0 
1.767858078852e-04 5.036126749418e-03 0.0 
0.0 0.0 -7.898058234521e-04 
-1.895610884557e-04 4.026718807994e-04 0.0 
4.026718807994e-04 3.226201886936e-03 0.0 
0.0 0.0 -6.486359607860e-04 
1.616252847495e-04 -9.427764674384e-04 0.0 
-9.427764674384e-04 1.519153345857e-03 0.0 
0.0 0.0 -4.681053320140e-04 
-1.124321372716e-03 5.190781523116e-04 0.0 
5.190781523116e-04 6.737556221388e-03 0.0 
0.0 0.0 -1.032318248600e-03 
0.0 0.0 0.0 
0.0 0.0 0.0 
0.0 0.0 0.0 
-9.848011893069e-04 9.254887770331e-05 0.0 
9.254887770331e-05 5.522315715833e-03 0.0 
0.0 0.0 -8.386390795737e-04 
1.936986156422e-05 1.160151507078e-03 0.0 
1.160151507078e-03 1.716486351178e-03 0.0 
0.0 0.0 -4.870240021111e-04 
-2.325836748457e-04 1.289855956993e-03 0.0 
1.289855956993e-03 1.788704446122e-03 0.0 
0.0 0.0 -4.015254440178e-04 
4.595658441768e-04 4.744943126908e-04 0.0 
4.744943126908e-04 7.528832652438e-04 0.0 
0.0 0.0 -4.054414645913e-04 
-1.008402327414e-03 5.265744671369e-04 0.0 
5.265744671369e-04 5.786538932645e-03 0.0 
0.0 0.0 -8.965110541436e-04 
-2.494216096235e-04 -4.335362183750e-04 0.0 
-4.335362183750e-04 9.422411490062e-04 0.0 
0.0 0.0 -1.609926926485e-04 
-6.820720035477e-04 8.119732659470e-04 0.0 
8.119732659470e-04 3.361151585438e-03 0.0 
0.0 0.0 -5.613503766092e-04 
-5.249648680804e-04 4.982973278599e-04 0.0 
4.982973278599e-04 4.821038106347e-03 0.0 
0.0 0.0 -8.726802719924e-04 
-9.620382926610e-04 5.073054538474e-04 0.0 
5.073054538474e-04 5.367475776694e-03 0.0 
0.0 0.0 -8.336838631977e-04 
-9.866522304222e-04 1.405170818081e-04 0.0 
1.405170818081e-04 5.654603971252e-03 0.0 
0.0 0.0 -8.301023967811e-04 
2.987392461190e-04 2.567812312072e-04 0.0 
2.567812312072e-04 -6.027321301994e-05 0.0 
0.0 0.0 -1.021997284710e-04 
2.232246709604e-04 -1.918559463565e-04 0.0 
-1.918559463565e-04 1.424673883171e-03 0.0 
0.0 0.0 -4.706942212664e-04 
9.862482380878e-05 -1.372550038116e-03 0.0 
-1.372550038116e-03 1.318021718147e-03 0.0 
0.0 0.0 -4.311372127493e-04 
-6.563785485795e-04 5.486582363547e-04 0.0 
5.486582363547e-04 3.058796699974e-03 0.0 
0.0 0.0 -4.957039317942e-04 
-1.115649045089e-03 1.001564757614e-04 0.0 
1.001564757614e-04 6.632881085886e-03 0.0 
0.0 0.0 -1.000663671924e-03 
-6.796028561542e-04 5.568827768722e-04 0.0 
5.568827768722e-04 3.430251503350e-03 0.0 
0.0 0.0 -5.577786207633e-04 
-1.458115086374e-04 8.292196236090e-04 0.0 
8.292196236090e-04 2.768893991105e-03 0.0 
0.0 0.0 -6.151539951222e-04 
-1.886011553539e-04 1.051832417911e-03 0.0 
1.051832417911e-03 2.651380485181e-03 0.0 
0.0 0.0 -5.868308051845e-04 
4.119056616429e-04 4.824818133927e-04 0.0 
4.824818133927e-04 -5.163543584124e-05 0.0 
0.0 0.0 -1.544015253436e-04 
-5.103402652263e-04 1.016313603146e-03 0.0 
1.016313603146e-03 3.773155867782e-03 0.0 
0.0 0.0 -6.959382511914e-04 
-1.626884107157e-04 1.342060582958e-03 0.0 
1.342060582958e-03 1.124683386977e-03 0.0 
0.0 0.0 -3.635305771564e-04 
-1.332783064049e-03 3.949756871870e-04 0.0 
3.949756871870e-04 8.970989248616e-03 0.0 
0.0 0.0 -1.321446319728e-03 
-1.363423366848e-03 4.246461146743e-04 0.0 
4.246461146743e-04 8.919856195938e-03 0.0 
0.0 0.0 -1.318029376683e-03 
-7.707229978672e-04 8.349277957258e-04 0.0 
8.349277957258e-04 4.657152987880e-03 0.0 
0.0 0.0 -7.755312068111e-04 
8.477148352467e-05 1.389041319869e-03 0.0 
1.389041319869e-03 1.180405502280e-03 0.0 
0.0 0.0 -4.232985079168e-04 
-7.785189424599e-05 1.403831464932e-03 0.0 
1.403831464932e-03 1.344103223027e-03 0.0 
0.0 0.0 -3.659709354871e-04 
-9.354111606034e-04 6.403030867596e-04 0.0 
6.403030867596e-04 5.396292848320e-03 0.0 
0.0 0.0 -8.539191708179e-04 
9.999732188838e-05 1.139160073047e-03 0.0 
1.139160073047e-03 1.275333839354e-03 0.0 
0.0 0.0 -3.930530440640e-04 
2.202450365264e-04 -6.175447713642e-04 0.0 
-6.175447713642e-04 1.218766433543e-03 0.0 
0.0 0.0 -4.339875075689e-04 
-8.457389435739e-04 6.790973874792e-04 0.0 
6.790973874792e-04 4.708791579724e-03 0.0 
0.0 0.0 -7.563811545761e-04 
-1.327783261122e-03 1.214241298840e-04 0.0 
1.214241298840e-04 8.708921592335e-03 0.0 
0.0 0.0 -1.266640259566e-03 
-1.253349979010e-04 1.227176291700e-03 0.0 
1.227176291700e-03 2.155279357023e-03 0.0 
0.0 0.0 -5.226246958029e-04 
-6.857827131982e-04 6.109821481705e-04 0.0 
6.109821481705e-04 5.443563599872e-03 0.0 
0.0 0.0 -9.428115367422e-04 
1.005352414743e-05 1.485881480078e-03 0.0 
1.485881480078e-03 9.313511271754e-04 0.0 
0.0 0.0 -4.034591362812e-04 
-1.256876494634e-03 -1.116338181287e-04 0.0 
-1.116338181287e-04 8.512233064138e-03 0.0 
0.0 0.0 -1.322863172658e-03 
-5.368107279650e-05 1.667223674442e-03 0.0 
1.667223674442e-03 1.192784921883e-03 0.0 
0.0 0.0 -3.959736908235e-04 
-8.401524306230e-04 7.380205594863e-04 0.0 
7.380205594863e-04 4.834030021030e-03 0.0 
0.0 0.0 -7.835188407615e-04 
5.148731166168e-04 5.137437753511e-04 0.0 
5.137437753511e-04 -7.966675073374e-05 0.0 
0.0 0.0 -1.865170139499e-04 
-5.892765440231e-04 4.534415622219e-05 0.0 
4.534415622219e-05 5.187712345136e-03 0.0 
0.0 0.0 -9.211625808215e-04 
-2.619705547916e-04 9.063726296434e-04 0.0 
9.063726296434e-04 3.144147236726e-03 0.0 
0.0 0.0 -6.516619296807e-04 
5.136778266445e-05 -8.544458010471e-04 0.0 
-8.544458010471e-04 1.672478035934e-03 0.0 
0.0 0.0 -4.625367401933e-04 
-9.230469363571e-04 2.192959829449e-04 0.0 
2.192959829449e-04 5.165828729947e-03 0.0 
0.0 0.0 -7.963903837170e-04 
-1.338316942917e-03 5.052217518095e-04 0.0 
5.052217518095e-04 8.833234944730e-03 0.0 
0.0 0.0 -1.324865334549e-03 
-6.025361920259e-05 9.743864967892e-04 0.0 
9.743864967892e-04 2.246037318888e-03 0.0 
0.0 0.0 -5.510338386786e-04 
-4.966114613551e-04 2.324572275960e-05 0.0 
2.324572275960e-05 4.887340644677e-03 0.0 
0.0 0.0 -8.703234504572e-04 
-4.984372673971e-05 1.535578283139e-03 0.0 
1.535578283139e-03 1.001433575544e-03 0.0 
0.0 0.0 -3.453408408593e-04 
-1.068497402403e-03 3.485541216510e-04 0.0 
3.485541216510e-04 6.344714792472e-03 0.0 
0.0 0.0 -9.576894438039e-04 
-8.089599515326e-04 -1.073379708431e-04 0.0 
-1.073379708431e-04 5.996798576901e-03 0.0 
0.0 0.0 -1.008345180213e-03 
-4.736853950805e-04 1.081684251561e-03 0.0 
1.081684251561e-03 2.201297944192e-03 0.0 
0.0 0.0 -4.109515902261e-04 
-1.055848474588e-03 -6.244673246336e-05 0.0 
-6.244673246336e-05 6.209225770776e-03 0.0 
0.0 0.0 -9.257128893455e-04 
-1.318413144677e-03 5.597520288916e-04 0.0 
5.597520288916e-04 8.736177841961e-03 0.0 
0.0 0.0 -1.322580803729e-03 
-9.099621181087e-04 -7.844937670166e-05 0.0 
-7.844937670166e-05 6.486423483438e-03 0.0 
0.0 0.0 -1.075861678316e-03 
-1.339852007458e-03 4.885566376854e-04 0.0 
4.885566376854e-04 8.877779505668e-03 0.0 
0.0 0.0 -1.322091174222e-03 
-1.037601774292e-03 -4.998348071014e-05 0.0 
-4.998348071014e-05 6.134914618430e-03 0.0 
0.0 0.0 -9.196498359204e-04 
-1.117033596766e-03 2.433107206605e-04 0.0 
2.433107206605e-04 6.851288038562e-03 0.0 
0.0 0.0 -1.048263655743e-03 
-5.132028134043e-04 1.102114687126e-03 0.0 
1.102114687126e-03 1.849180492075e-03 0.0 
0.0 0.0 -3.491910591611e-04 
-8.752311967057e-04 2.096761775609e-04 0.0 
2.096761775609e-04 4.753971328354e-03 0.0 
0.0 0.0 -7.343713905235e-04 
-9.300305532746e-04 5.926935085268e-04 0.0 
5.926935085268e-04 5.253991145748e-03 0.0 
0.0 0.0 -8.263924940540e-04 
-9.692706598054e-04 2.261418497641e-04 0.0 
2.261418497641e-04 5.579447270465e-03 0.0 
0.0 0.0 -8.589723558544e-04 
-7.013973697775e-04 5.476600750058e-04 0.0 
5.476600750058e-04 4.307373761106e-03 0.0 
0.0 0.0 -7.101745248689e-04 
-1.306990612628e-03 5.041978193775e-04 0.0 
5.041978193775e-04 8.672501482610e-03 0.0 
0.0 0.0 -1.322334986692e-03 
-9.943643695485e-04 3.416073873728e-04 0.0 
3.416073873728e-04 5.867113055505e-03 0.0 
0.0 0.0 -8.810748613436e-04 
-9.323244271653e-04 9.613325556177e-05 0.0 
9.613325556177e-05 5.115490294310e-03 0.0 
0.0 0.0 -7.763708431881e-04 
-1.001832059306e-04 5.266866745758e-04 0.0 
5.266866745758e-04 2.724835239940e-03 0.0 
0.0 0.0 -5.843899590101e-04 
-5.790296725673e-04 -5.326125379184e-04 0.0 
-5.326125379184e-04 1.882091514832e-03 0.0 
0.0 0.0 -3.280768480529e-04 
-8.597084284199e-04 1.491840850699e-04 0.0 
1.491840850699e-04 4.593177939361e-03 0.0 
0.0 0.0 -7.069124235890e-04 
-4.246089693938e-04 1.428928262105e-03 0.0 
1.428928262105e-03 2.122954743528e-03 0.0 
0.0 0.0 -4.404772202000e-04 
-8.726090169173e-04 -3.101571305491e-05 0.0 
-3.101571305491e-05 5.309765821533e-03 0.0 
0.0 0.0 -7.696142143080e-04 
-7.647244692160e-05 -1.455292213990e-03 0.0 
-1.455292213990e-03 1.759408115361e-03 0.0 
0.0 0.0 -4.595640944490e-04 
-1.784270519958e-05 6.865399459054e-04 0.0 
6.865399459054e-04 2.226340647437e-03 0.0 
0.0 0.0 -5.202658224677e-04 
-1.156111700983e-03 5.188644452185e-04 0.0 
5.188644452185e-04 7.007873302369e-03 0.0 
0.0 0.0 -1.069052450572e-03 
-3.544111730508e-04 1.143529289652e-03 0.0 
1.143529289652e-03 2.186339618849e-03 0.0 
0.0 0.0 -4.372567615832e-04 
-8.838010647401e-04 5.805967859428e-04 0.0 
5.805967859428e-04 4.846530847442e-03 0.0 
0.0 0.0 -7.640689829422e-04 
-5.498264973309e-04 3.710435615581e-04 0.0 
3.710435615581e-04 5.012164832543e-03 0.0 
0.0 0.0 -9.014246907137e-04 
-6.358980608267e-04 -4.313104688366e-04 0.0 
-4.313104688366e-04 4.627036023584e-03 0.0 
0.0 0.0 -8.035328976187e-04 
-1.261046308643e-03 3.887646222973e-04 0.0 
3.887646222973e-04 8.565225437675e-03 0.0 
0.0 0.0 -1.324762665914e-03 
-7.961969453534e-04 2.495159098011e-04 0.0 
2.495159098011e-04 4.113140991581e-03 0.0 
0.0 0.0 -6.390224077203e-04 
3.053061856643e-04 2.267805296744e-04 0.0 
2.267805296744e-04 1.077273840324e-03 0.0 
0.0 0.0 -4.422638729430e-04 
-5.704666668683e-04 -1.178468115440e-03 0.0 
-1.178468115440e-03 3.201154498828e-03 0.0 
0.0 0.0 -5.691257024010e-04 
-5.951122843918e-04 8.042220484985e-04 0.0 
8.042220484985e-04 2.449547643678e-03 0.0 
0.0 0.0 -4.184705811166e-04 
-5.000320666269e-04 1.320407470952e-03 0.0 
1.320407470952e-03 2.143724443106e-03 0.0 
0.0 0.0 -4.141309408042e-04 
-1.196454144110e-03 1.993133203818e-04 0.0 
1.993133203818e-04 7.413315256709e-03 0.0 
0.0 0.0 -1.123886314723e-03 
-8.766172246535e-04 3.573442557890e-04 0.0 
3.573442557890e-04 5.175634424808e-03 0.0 
0.0 0.0 -8.161479701220e-04 
-7.263474599636e-04 3.526993364896e-04 0.0 
3.526993364896e-04 3.570072660402e-03 0.0 
0.0 0.0 -5.672387349321e-04 
-8.352265289735e-04 5.640695091739e-04 0.0 
5.640695091739e-04 4.443467777814e-03 0.0 
0.0 0.0 -7.023794137935e-04 
-1.258131779879e-03 1.361172827669e-04 0.0 
1.361172827669e-04 8.496942290823e-03 0.0 
0.0 0.0 -1.320675234999e-03 
-1.143815948478e-03 -2.922836025437e-06 0.0 
-2.922836025437e-06 7.935052382313e-03 0.0 
0.0 0.0 -1.258064670439e-03 
-1.185356167607e-03 5.772655224951e-04 0.0 
5.772655224951e-04 7.334174599953e-03 0.0 
0.0 0.0 -1.126590436115e-03 
-1.146342777142e-03 1.032030268662e-04 0.0 
1.032030268662e-04 6.902588040038e-03 0.0 
0.0 0.0 -1.037522200811e-03 
-6.004564824823e-04 -8.741253658515e-04 0.0 
-8.741253658515e-04 4.400886106663e-03 0.0 
0.0 0.0 -7.721428985420e-04 
-6.499827822082e-04 6.306060725170e-04 0.0 
6.306060725170e-04 3.517235102446e-03 0.0 
0.0 0.0 -5.842812205453e-04 
2.208852054121e-04 7.449773440899e-04 0.0 
7.449773440899e-04 1.272300042131e-03 0.0 
0.0 0.0 -4.203166018451e-04 
1.283124150736e-04 5.457702178093e-04 0.0 
5.457702178093e-04 1.800318710438e-03 0.0 
0.0 0.0 -4.843489805398e-04 
-8.229602156181e-04 4.179326389388e-04 0.0 
4.179326389388e-04 4.894594765891e-03 0.0 
0.0 0.0 -7.808727949117e-04 
-5.351512224978e-04 -3.319303625282e-04 0.0 
-3.319303625282e-04 5.022677570586e-03 0.0 
0.0 0.0 -8.900964085843e-04 
-8.296790490015e-04 -7.574227516101e-04 0.0 
-7.574227516101e-04 4.266073095582e-03 0.0 
0.0 0.0 -6.810091006415e-04 
-1.209161835961e-03 5.397487415350e-04 0.0 
5.397487415350e-04 7.456423275886e-03 0.0 
0.0 0.0 -1.134236807130e-03 
2.970140770782e-04 -5.886898203256e-04 0.0 
-5.886898203256e-04 1.178529551260e-03 0.0 
0.0 0.0 -4.395655422792e-04 
-6.321441937111e-04 6.212871376415e-04 0.0 
6.212871376415e-04 4.001931118120e-03 0.0 
0.0 0.0 -6.750378637491e-04 
-8.881105026694e-04 6.325939136900e-04 0.0 
6.325939136900e-04 4.979851951469e-03 0.0 
0.0 0.0 -7.913284153978e-04 
-6.067465934174e-04 6.691797761234e-04 0.0 
6.691797761234e-04 3.597583737962e-03 0.0 
0.0 0.0 -6.122259156574e-04 
-1.324329620218e-03 4.629903675986e-04 0.0 
4.629903675986e-04 8.904888157841e-03 0.0 
0.0 0.0 -1.320088186226e-03 
-1.359586791555e-03 4.788353102242e-04 0.0 
4.788353102242e-04 8.942288232093e-03 0.0 
0.0 0.0 -1.318462653075e-03 
-1.290025244180e-03 1.809732516489e-04 0.0 
1.809732516489e-04 8.380056929833e-03 0.0 
0.0 0.0 -1.256494544188e-03 
-6.742581298534e-04 -7.798202117693e-04 0.0 
-7.798202117693e-04 4.873866166937e-03 0.0 
0.0 0.0 -8.375255977276e-04 
-1.194824314076e-03 4.521929309845e-04 0.0 
4.521929309845e-04 7.360058874814e-03 0.0 
0.0 0.0 -1.112065035246e-03 
-4.430818055785e-04 1.485014206495e-03 0.0 
1.485014206495e-03 1.784679357047e-03 0.0 
0.0 0.0 -3.785953687517e-04 
2.729854799726e-05 3.936097668604e-04 0.0 
3.936097668604e-04 2.328364048534e-03 0.0 
0.0 0.0 -5.483018170244e-04 
5.295881833206e-04 7.121810223511e-04 0.0 
7.121810223511e-04 1.629388308909e-04 0.0 
0.0 0.0 -2.967972918049e-04 
-7.211884972610e-04 4.566068001278e-04 0.0 
4.566068001278e-04 3.698308171073e-03 0.0 
0.0 0.0 -5.936226173563e-04 
-9.121582442551e-04 9.143313993339e-05 0.0 
9.143313993339e-05 5.030258123682e-03 0.0 
0.0 0.0 -7.914980036671e-04 
-1.035929216748e-03 3.563880147614e-04 0.0 
3.563880147614e-04 6.090521981813e-03 0.0 
0.0 0.0 -9.214502702889e-04 
-1.168840555119e-03 -8.744363195648e-05 0.0 
-8.744363195648e-05 8.066384051930e-03 0.0 
0.0 0.0 -1.265403586923e-03 
-1.162609015209e-03 6.330590177409e-04 0.0 
6.330590177409e-04 7.197897661744e-03 0.0 
0.0 0.0 -1.117224974728e-03 
-9.919773035698e-04 4.807053877499e-04 0.0 
4.807053877499e-04 5.626646372679e-03 0.0 
0.0 0.0 -8.687609488834e-04 
-9.791621869581e-04 6.007006909595e-04 0.0 
6.007006909595e-04 5.670050972566e-03 0.0 
0.0 0.0 -8.891947744737e-04 
4.804557488344e-04 9.476988486698e-04 0.0 
9.476988486698e-04 9.767658471986e-05 0.0 
0.0 0.0 -2.477710000947e-04 
-2.208441256582e-04 -6.752013946383e-04 0.0 
-6.752013946383e-04 8.882775518556e-04 0.0 
0.0 0.0 -2.467363499356e-04 
-4.153429420499e-04 1.059032103328e-03 0.0 
1.059032103328e-03 3.417216683434e-03 0.0 
0.0 0.0 -6.594106982652e-04 
-6.669546155335e-04 5.596997560711e-04 0.0 
5.596997560711e-04 4.411048143991e-03 0.0 
0.0 0.0 -7.376142925499e-04 
-4.466823138591e-04 6.032870064143e-04 0.0 
6.032870064143e-04 3.840807050757e-03 0.0 
0.0 0.0 -6.931905564144e-04 
6.417191678250e-05 8.603242808997e-04 0.0 
8.603242808997e-04 4.417253736716e-04 0.0 
0.0 0.0 -2.168131244803e-04 
-9.528466809374e-04 9.473419018348e-05 0.0 
9.473419018348e-05 5.427141204722e-03 0.0 
0.0 0.0 -8.462285223656e-04 
-5.049741343807e-04 -8.812005228938e-04 0.0 
-8.812005228938e-04 1.770302560701e-03 0.0 
0.0 0.0 -2.972104253142e-04 
-2.017300964170e-04 1.588765395916e-03 0.0 
1.588765395916e-03 1.677129549565e-03 0.0 
0.0 0.0 -4.314049239902e-04 
-1.341153861134e-03 -7.479496163088e-05 0.0 
-7.479496163088e-05 8.257374884626e-03 0.0 
0.0 0.0 -1.341153861134e-03 
-6.757643640114e-04 6.444207577368e-05 0.0 
6.444207577368e-05 5.692433792017e-03 0.0 
0.0 0.0 -9.717687626070e-04 
-9.402714050330e-04 4.164454812488e-04 0.0 
4.164454812488e-04 5.059115903313e-03 0.0 
0.0 0.0 -7.790007367612e-04 
-1.996455075654e-04 1.120227626459e-04 0.0 
1.120227626459e-04 1.363834974093e-03 0.0 
0.0 0.0 -2.176483604987e-04 
-7.316139978666e-04 8.725598858698e-04 0.0 
8.725598858698e-04 4.250250205740e-03 0.0 
0.0 0.0 -7.126719623954e-04 
-3.416312472277e-04 6.071238986655e-04 0.0 
6.071238986655e-04 3.482434275960e-03 0.0 
0.0 0.0 -6.569982659716e-04 
-1.010067214733e-03 1.858710736428e-04 0.0 
1.858710736428e-04 5.842461225268e-03 0.0 
0.0 0.0 -8.940630110299e-04 
-1.333890643160e-03 5.791621130684e-04 0.0 
5.791621130684e-04 8.805315107962e-03 0.0 
0.0 0.0 -1.323832587333e-03 
-8.707338927728e-04 5.246940464045e-04 0.0 
5.246940464045e-04 4.704277736275e-03 0.0 
0.0 0.0 -7.366500567795e-04 
-9.271217876491e-04 3.071330387493e-04 0.0 
3.071330387493e-04 5.453258810761e-03 0.0 
0.0 0.0 -8.513774089097e-04 
-8.050460189817e-04 -4.209308180889e-04 0.0 
-4.209308180889e-04 4.202095383354e-03 0.0 
0.0 0.0 -6.837695253815e-04 
-1.187192617587e-03 5.026303496447e-04 0.0 
5.026303496447e-04 7.280339694805e-03 0.0 
0.0 0.0 -1.105258581891e-03 
-7.119244178252e-04 -3.438823351423e-04 0.0 
-3.438823351423e-04 5.099696206057e-03 0.0 
0.0 0.0 -8.691653677727e-04 
-1.316090240167e-03 5.389588138701e-04 0.0 
5.389588138701e-04 8.780826577697e-03 0.0 
0.0 0.0 -1.322174839672e-03 
-1.340103718614e-03 4.728281156223e-04 0.0 
4.728281156223e-04 8.628873091994e-03 0.0 
0.0 0.0 -1.340103718614e-03 
-1.341028575724e-03 3.568557509173e-04 0.0 
3.568557509173e-04 8.716110367900e-03 0.0 
0.0 0.0 -1.341028575724e-03 
-1.338044909071e-03 4.168385009661e-04 0.0 
4.168385009661e-04 8.630348436964e-03 0.0 
0.0 0.0 -1.338044909071e-03 
-1.019072052988e-03 5.681193801066e-04 0.0 
5.681193801066e-04 5.940654999783e-03 0.0 
0.0 0.0 -9.244680137507e-04 
-1.198675717763e-03 1.360258094172e-04 0.0 
1.360258094172e-04 7.335887667339e-03 0.0 
0.0 0.0 -1.103002250422e-03 
-1.198479165231e-03 6.200957679300e-04 0.0 
6.200957679300e-04 7.509008113829e-03 0.0 
0.0 0.0 -1.155914796392e-03 
-6.394343852437e-04 1.004430984718e-03 0.0 
1.004430984718e-03 3.542163334784e-03 0.0 
0.0 0.0 -6.147330147620e-04 
-6.675475430971e-04 9.277672711453e-04 0.0 
9.277672711453e-04 3.456421744926e-03 0.0 
0.0 0.0 -5.872917534094e-04 
-8.247859078912e-04 -6.922016390902e-04 0.0 
-6.922016390902e-04 4.077408079033e-03 0.0 
0.0 0.0 -6.436934073013e-04 
-1.217910302125e-03 1.553299834490e-04 0.0 
1.553299834490e-04 7.518311075799e-03 0.0 
0.0 0.0 -1.131852245309e-03 
-1.311936692750e-03 5.307865598084e-04 0.0 
5.307865598084e-04 8.695029491200e-03 0.0 
0.0 0.0 -1.322440284024e-03 
-1.214240069696e-03 4.882095922708e-04 0.0 
4.882095922708e-04 7.535305569948e-03 0.0 
0.0 0.0 -1.141180801552e-03 
-5.747438901480e-04 1.003283814169e-04 0.0 
1.003283814169e-04 5.194431951746e-03 0.0 
0.0 0.0 -9.063345769726e-04 
-1.227388762698e-03 1.265853976664e-04 0.0 
1.265853976664e-04 7.592479060989e-03 0.0 
0.0 0.0 -1.138864741757e-03 
-8.838474672112e-04 3.395282227197e-04 0.0 
3.395282227197e-04 6.126324240512e-03 0.0 
0.0 0.0 -9.903545940741e-04 
-6.357684789507e-04 9.653705253964e-04 0.0 
9.653705253964e-04 4.033111277517e-03 0.0 
0.0 0.0 -7.049739924763e-04 
-7.219643329354e-04 7.270984363887e-04 0.0 
7.270984363887e-04 3.640512255542e-03 0.0 
0.0 0.0 -5.967387615352e-04 
1.271449544166e-04 1.530874377193e-03 0.0 
1.530874377193e-03 7.660888374693e-04 0.0 
0.0 0.0 -3.828144822368e-04 
-1.311008186282e-03 3.440606395408e-04 0.0 
3.440606395408e-04 8.440809804770e-03 0.0 
0.0 0.0 -1.282213402295e-03 
-5.754210014705e-04 1.101723762793e-03 0.0 
1.101723762793e-03 3.231346314138e-03 0.0 
0.0 0.0 -5.792479259103e-04 
-1.176826657867e-03 4.517387013495e-04 0.0 
4.517387013495e-04 7.668341186852e-03 0.0 
0.0 0.0 -1.230767059693e-03 
-8.116549819174e-04 -3.660838800677e-04 0.0 
-3.660838800677e-04 4.013024169842e-03 0.0 
0.0 0.0 -6.465396845166e-04 
-1.917368362491e-04 -1.670915138255e-03 0.0 
-1.670915138255e-03 1.673857297907e-03 0.0 
0.0 0.0 -4.222915044375e-04 
-1.218810452461e-03 -6.182829621563e-05 0.0 
-6.182829621563e-05 7.834853919449e-03 0.0 
0.0 0.0 -1.284312900220e-03 
-3.227899414303e-04 1.463352553329e-03 0.0 
1.463352553329e-03 2.102017459643e-03 0.0 
0.0 0.0 -4.669824892858e-04 
-1.341987455608e-03 4.935381790995e-04 0.0 
4.935381790995e-04 8.595598521703e-03 0.0 
0.0 0.0 -1.341987455608e-03 
-1.324901016307e-03 3.587683922887e-04 0.0 
3.587683922887e-04 8.344464300183e-03 0.0 
0.0 0.0 -1.282654109251e-03 
-8.850522684098e-04 7.214064072268e-04 0.0 
7.214064072268e-04 5.245748206413e-03 0.0 
0.0 0.0 -8.462542048450e-04 
-8.057611890132e-05 -1.710152855484e-04 0.0 
-1.710152855484e-04 3.103213667799e-04 0.0 
0.0 0.0 -9.846224909082e-05 
-1.340954708392e-03 5.230440169069e-04 0.0 
5.230440169069e-04 8.529172830874e-03 0.0 
0.0 0.0 -1.340954708391e-03 
-1.218199846518e-03 4.994387147231e-06 0.0 
4.994387147231e-06 7.808383985296e-03 0.0 
0.0 0.0 -1.284661450484e-03 
-4.838292351495e-05 -1.134502527952e-03 0.0 
-1.134502527952e-03 1.589566893982e-03 0.0 
0.0 0.0 -4.253660281670e-04 
-6.012411031331e-04 -5.471211505199e-06 0.0 
-5.471211505199e-06 5.388600975266e-03 0.0 
0.0 0.0 -9.353130867196e-04 
-1.284222320321e-03 3.331079903689e-04 0.0 
3.331079903689e-04 8.551492227036e-03 0.0 
0.0 0.0 -1.323014926434e-03 
0.0 0.0 0.0 
0.0 0.0 0.0 
0.0 0.0 0.0 
-6.023691884067e-04 1.029224405588e-03 0.0 
1.029224405588e-03 3.627406800571e-03 0.0 
0.0 0.0 -6.425506931502e-04 
-9.361925531562e-04 6.770287321789e-04 0.0 
6.770287321789e-04 5.532046743254e-03 0.0 
0.0 0.0 -8.816033652580e-04 
-8.298014528126e-04 7.768529914014e-04 0.0 
7.768529914014e-04 4.954128457589e-03 0.0 
0.0 0.0 -8.109139232486e-04 
-8.897770840316e-04 6.877783995216e-04 0.0 
6.877783995216e-04 5.117343312454e-03 0.0 
0.0 0.0 -8.186613860469e-04 
-1.469792992645e-04 1.697477444243e-03 0.0 
1.697477444243e-03 1.268784698810e-03 0.0 
0.0 0.0 -3.960833248805e-04 
-1.341360672448e-03 5.109795992512e-04 0.0 
5.109795992512e-04 8.445730971081e-03 0.0 
0.0 0.0 -1.341360672448e-03 
-7.719693981543e-05 2.760009161414e-04 0.0 
2.760009161414e-04 2.850848330235e-03 0.0 
0.0 0.0 -6.123778370826e-04 
1.753729935007e-04 1.501404700023e-05 0.0 
1.501404700023e-05 -5.243892185943e-05 0.0 
0.0 0.0 -5.268603070342e-05 
-1.302465582654e-03 -2.496096405259e-04 0.0 
-2.496096405259e-04 8.365120953103e-03 0.0 
0.0 0.0 -1.272354826527e-03 
-1.485058388714e-04 -2.923397016935e-04 0.0 
-2.923397016935e-04 5.768067641683e-04 0.0 
0.0 0.0 -1.019437782286e-04 
-7.982614346128e-04 6.111031080938e-04 0.0 
6.111031080938e-04 4.181968739078e-03 0.0 
0.0 0.0 -6.678899790657e-04 
2.246133581427e-04 -6.808997986787e-04 0.0 
-6.808997986787e-04 1.445508393424e-04 0.0 
0.0 0.0 -1.582132274936e-04 
-8.489872345980e-04 4.667487785959e-04 0.0 
4.667487785959e-04 4.536973076965e-03 0.0 
0.0 0.0 -7.094882865497e-04 
-1.255369180247e-03 1.858612183136e-05 0.0 
1.858612183136e-05 8.476379217670e-03 0.0 
0.0 0.0 -1.321823097425e-03 
-1.341255375116e-03 4.796779653900e-04 0.0 
4.796779653900e-04 8.398188684786e-03 0.0 
0.0 0.0 -1.341255375116e-03 
-9.721290586981e-04 5.581628762271e-04 0.0 
5.581628762271e-04 5.522703984207e-03 0.0 
0.0 0.0 -8.613793510407e-04 
1.600321873614e-04 -6.162664284866e-04 0.0 
-6.162664284866e-04 1.802849776087e-04 0.0 
0.0 0.0 -1.458502135586e-04 
3.109225001714e-06 1.120621869491e-06 0.0 
1.120621869491e-06 -8.787071989560e-07 0.0 
0.0 0.0 -9.559362011822e-07 
1.535176122475e-04 -1.236399581379e-03 0.0 
-1.236399581379e-03 5.447751134408e-04 0.0 
0.0 0.0 -2.992683110093e-04 
-1.116873810569e-03 -5.374998991881e-04 0.0 
-5.374998991881e-04 7.110713391746e-03 0.0 
0.0 0.0 -1.121833217354e-03 
-9.101085565852e-04 1.581356444995e-04 0.0 
1.581356444995e-04 5.291968435283e-03 0.0 
0.0 0.0 -7.704300227928e-04 
-9.627171074924e-04 3.587877174801e-05 0.0 
3.587877174801e-05 5.332601127641e-03 0.0 
0.0 0.0 -8.109332722942e-04 
-1.342502730507e-03 4.025374877915e-04 0.0 
4.025374877915e-04 8.333596175980e-03 0.0 
0.0 0.0 -1.342502730507e-03 
-9.258687689408e-04 6.411213788910e-05 0.0 
6.411213788910e-05 5.298171403091e-03 0.0 
0.0 0.0 -7.720444664677e-04 
-1.356038484680e-03 3.810509766439e-04 0.0 
3.810509766439e-04 8.994012411350e-03 0.0 
0.0 0.0 -1.322852565091e-03 
-9.095582700075e-04 6.913502515422e-04 0.0 
6.913502515422e-04 6.199031272495e-03 0.0 
0.0 0.0 -1.020998643257e-03 
-1.011415993933e-03 3.149863478337e-04 0.0 
3.149863478337e-04 5.896378527379e-03 0.0 
0.0 0.0 -8.907448815977e-04 
-5.714615022677e-04 1.156558804127e-03 0.0 
1.156558804127e-03 2.460117787699e-03 0.0 
0.0 0.0 -4.477608806526e-04 
-6.254234584821e-04 4.541246643039e-04 0.0 
4.541246643039e-04 5.320880420055e-03 0.0 
0.0 0.0 -9.378661514434e-04 
3.838669366307e-04 1.236207229742e-03 0.0 
1.236207229742e-03 2.839536722242e-04 0.0 
0.0 0.0 -2.862088323664e-04 
-1.340754991027e-03 2.766872434976e-04 0.0 
2.766872434976e-04 8.283487658048e-03 0.0 
0.0 0.0 -1.340754991027e-03 
-1.339984467612e-03 4.682059719065e-04 0.0 
4.682059719065e-04 8.622431533437e-03 0.0 
0.0 0.0 -1.339984467612e-03 
-1.340417744004e-03 3.687782300389e-04 0.0 
3.687782300389e-04 8.691962583590e-03 0.0 
0.0 0.0 -1.340417744004e-03 
-7.614631425941e-04 -7.600693639472e-04 0.0 
-7.600693639472e-04 5.166067953467e-03 0.0 
0.0 0.0 -8.666500598261e-04 
-8.083534389449e-04 -6.157792834396e-04 0.0 
-6.157792834396e-04 3.875634950425e-03 0.0 
0.0 0.0 -6.062238016986e-04 
-5.875577080076e-04 6.263804956418e-04 0.0 
6.263804956418e-04 4.098789747432e-03 0.0 
0.0 0.0 -7.021192356133e-04 
-7.972896345737e-04 -3.252844081748e-04 0.0 
-3.252844081748e-04 5.374062371917e-03 0.0 
0.0 0.0 -8.981573260837e-04 
-1.339627896631e-03 1.538435656171e-04 0.0 
1.538435656171e-04 8.249387984378e-03 0.0 
0.0 0.0 -1.339627896631e-03 
-7.499431316128e-05 1.153135812952e-03 0.0 
1.153135812952e-03 1.745463721331e-03 0.0 
0.0 0.0 -4.287941800800e-04 
9.963389295363e-05 -4.974640475465e-04 0.0 
-4.974640475465e-04 1.806583108532e-03 0.0 
0.0 0.0 -4.991860405784e-04 
-4.325429609302e-05 -6.957715566116e-04 0.0 
-6.957715566116e-04 2.198402972482e-03 0.0 
0.0 0.0 -5.272458293186e-04 
-1.040852931917e-03 3.039409917234e-04 0.0 
3.039409917234e-04 6.156930146379e-03 0.0 
0.0 0.0 -9.279583942086e-04 
-1.296158163173e-03 -2.117115631842e-04 0.0 
-2.117115631842e-04 8.526713660580e-03 0.0 
0.0 0.0 -1.323537156312e-03 
5.620572206727e-05 -9.064776901539e-04 0.0 
-9.064776901539e-04 4.833799193028e-04 0.0 
0.0 0.0 -2.312509891586e-04 
-1.340775759057e-03 -3.546022348329e-06 0.0 
-3.546022348329e-06 8.220355043040e-03 0.0 
0.0 0.0 -1.340775759057e-03 
-1.115561951243e-04 -9.424028116119e-04 0.0 
-9.424028116119e-04 2.079879554815e-03 0.0 
0.0 0.0 -4.905422085546e-04 
-1.342877878941e-03 5.106164496302e-04 0.0 
5.106164496302e-04 8.578886692927e-03 0.0 
0.0 0.0 -1.342877878941e-03 
-1.213674372651e-03 2.426946528992e-04 0.0 
2.426946528992e-04 7.585431715108e-03 0.0 
0.0 0.0 -1.152765850879e-03 
7.551303923517e-04 -3.431961155864e-05 0.0 
-3.431961155864e-05 -8.356761588734e-06 0.0 
0.0 0.0 -1.964897908492e-04 
-5.576622204016e-04 1.038766121166e-03 0.0 
1.038766121166e-03 3.693734829533e-03 0.0 
0.0 0.0 -6.690559060524e-04 
-1.231945608432e-03 6.630499771306e-05 0.0 
6.630499771306e-05 7.672705385687e-03 0.0 
0.0 0.0 -1.146019594970e-03 
-1.341220131281e-03 5.159350734491e-04 0.0 
5.159350734491e-04 8.502743697500e-03 0.0 
0.0 0.0 -1.341220131281e-03 
-1.018091222593e-03 2.268797553762e-04 0.0 
2.268797553762e-04 5.997567393014e-03 0.0 
0.0 0.0 -9.220067723808e-04 
-9.140544266385e-04 6.590381545290e-04 0.0 
6.590381545290e-04 6.350398110146e-03 0.0 
0.0 0.0 -1.049000704964e-03 
1.948485511646e-04 1.206910249746e-03 0.0 
1.206910249746e-03 4.719329916516e-04 0.0 
0.0 0.0 -2.857635183498e-04 
-1.092933677572e-03 -5.430090234953e-06 0.0 
-5.430090234953e-06 7.417148133219e-03 0.0 
0.0 0.0 -1.228682347183e-03 
-2.597655749325e-04 -9.580958323714e-04 0.0 
-9.580958323714e-04 2.468405464320e-03 0.0 
0.0 0.0 -5.184025592846e-04 
-1.467448334793e-04 -1.253609516085e-03 0.0 
-1.253609516085e-03 2.277465230796e-03 0.0 
0.0 0.0 -5.242929400402e-04 
8.350711239017e-05 -5.741871043008e-04 0.0 
-5.741871043008e-04 2.364507936714e-04 0.0 
0.0 0.0 -1.371248168835e-04 
-1.341079611575e-03 4.984530224516e-04 0.0 
4.984530224516e-04 8.418558490732e-03 0.0 
0.0 0.0 -1.341079611575e-03 
3.309852724411e-04 1.022663251937e-03 0.0 
1.022663251937e-03 7.457111261596e-04 0.0 
0.0 0.0 -3.670041082731e-04 
-9.538216450079e-04 -4.415701274725e-04 0.0 
-4.415701274725e-04 6.798030040948e-03 0.0 
0.0 0.0 -1.110501492391e-03 
-9.815143922996e-04 -1.301923920288e-04 0.0 
-1.301923920288e-04 5.716261133104e-03 0.0 
0.0 0.0 -8.555322119248e-04 
-5.211778943541e-04 -1.357561140200e-03 0.0 
-1.357561140200e-03 2.381396269316e-03 0.0 
0.0 0.0 -4.411586999297e-04 
5.027865284573e-06 -1.162974144005e-03 0.0 
-1.162974144005e-03 1.893137919142e-03 0.0 
0.0 0.0 -4.964677435772e-04 
-9.740976170288e-04 2.668400150695e-04 0.0 
2.668400150695e-04 5.727433876448e-03 0.0 
0.0 0.0 -8.867075537039e-04 
-1.342259935407e-03 3.249478019742e-04 0.0 
3.249478019742e-04 8.304746317588e-03 0.0 
0.0 0.0 -1.342259935407e-03 
-8.513383339797e-04 -2.155531084130e-04 0.0 
-2.155531084130e-04 4.042684079104e-03 0.0 
0.0 0.0 -6.378868265889e-04 
-8.326579327741e-04 -6.269168235212e-04 0.0 
-6.269168235212e-04 5.839362625743e-03 0.0 
0.0 0.0 -9.693340058278e-04 
-7.491524898005e-04 8.473182538136e-04 0.0 
8.473182538136e-04 4.765927930056e-03 0.0 
0.0 0.0 -8.030799362305e-04 
-5.836032186753e-04 -5.383312615796e-04 0.0 
-5.383312615796e-04 5.022073810354e-03 0.0 
0.0 0.0 -8.811160271665e-04 
4.293152286993e-05 -8.173969837308e-04 0.0 
-8.173969837308e-04 2.098601697323e-03 0.0 
0.0 0.0 -5.326451291888e-04 
-7.517931783722e-04 -6.967384815080e-04 0.0 
-6.967384815080e-04 5.353981326588e-03 0.0 
0.0 0.0 -9.031726653527e-04 
-7.384492594485e-04 4.981620025079e-04 0.0 
4.981620025079e-04 4.715692557206e-03 0.0 
0.0 0.0 -7.729461360948e-04 
-9.594660891244e-04 3.310922572756e-04 0.0 
3.310922572756e-04 6.288208991268e-03 0.0 
0.0 0.0 -9.982497011217e-04 
-7.260155598219e-04 4.211913378779e-04 0.0 
4.211913378779e-04 5.817009197579e-03 0.0 
0.0 0.0 -1.003134534203e-03 
-6.776109950317e-04 9.016603010913e-04 0.0 
9.016603010913e-04 4.450317334473e-03 0.0 
0.0 0.0 -7.676694601592e-04 
-7.429113511032e-04 -5.174574473206e-04 0.0 
-5.174574473206e-04 3.948133648233e-03 0.0 
0.0 0.0 -6.551190094499e-04 
-2.218900255169e-04 1.098460281572e-03 0.0 
1.098460281572e-03 2.169381084645e-03 0.0 
0.0 0.0 -4.640097282922e-04 
-8.062369115313e-04 -2.975304159246e-04 0.0 
-2.975304159246e-04 3.811084005570e-03 0.0 
0.0 0.0 -6.091269606258e-04 
-8.824461864644e-04 3.062506020875e-04 0.0 
3.062506020875e-04 6.271794679198e-03 0.0 
0.0 0.0 -1.018204129641e-03 
-4.460788929649e-04 4.040748578588e-04 0.0 
4.040748578588e-04 4.503525698480e-03 0.0 
0.0 0.0 -8.365169925761e-04 
-1.261002707828e-03 -7.504870971913e-05 0.0 
-7.504870971913e-05 8.505176480558e-03 0.0 
0.0 0.0 -1.321929620191e-03 
-1.247677519614e-03 1.094732648068e-04 0.0 
1.094732648068e-04 7.850453942976e-03 0.0 
0.0 0.0 -1.174325249119e-03 
-5.404813862772e-04 -9.466285983316e-04 0.0 
-9.466285983316e-04 2.223885193950e-03 0.0 
0.0 0.0 -4.069995479128e-04 
-1.341047338368e-03 7.540167646977e-05 0.0 
7.540167646977e-05 8.197352777791e-03 0.0 
0.0 0.0 -1.341047338368e-03 
-1.130691151971e-03 -1.784363264906e-05 0.0 
-1.784363264906e-05 8.053842301100e-03 0.0 
0.0 0.0 -1.266414110344e-03 
-4.715184922734e-04 9.294387903624e-04 0.0 
9.294387903624e-04 3.876101003561e-03 0.0 
0.0 0.0 -7.237787631415e-04 
3.035840363914e-05 -4.057342954642e-04 0.0 
-4.057342954642e-04 2.137280708151e-04 0.0 
0.0 0.0 -1.046084890518e-04 
-1.265736625837e-03 -2.342234423567e-04 0.0 
-2.342234423567e-04 8.560274388960e-03 0.0 
0.0 0.0 -1.323469717371e-03 
-1.248103745975e-03 1.754263225543e-04 0.0 
1.754263225543e-04 7.767855351365e-03 0.0 
0.0 0.0 -1.167157861819e-03 
-2.143426304924e-04 -1.125447243117e-03 0.0 
-1.125447243117e-03 2.012406359622e-03 0.0 
0.0 0.0 -4.535238702637e-04 
-1.341709311524e-03 -1.537021795728e-04 0.0 
-1.537021795728e-04 8.247140811223e-03 0.0 
0.0 0.0 -1.341709311524e-03 
-8.340634901946e-04 -6.821178693031e-04 0.0 
-6.821178693031e-04 5.639816405277e-03 0.0 
0.0 0.0 -9.325599965574e-04 
-7.159156796781e-04 8.199594821406e-04 0.0 
8.199594821406e-04 3.747642167749e-03 0.0 
0.0 0.0 -6.229492605273e-04 
-9.690599654105e-04 4.302709909689e-04 0.0 
4.302709909689e-04 5.467189617691e-03 0.0 
0.0 0.0 -8.408860858065e-04 
-3.919357097026e-04 6.068237325882e-05 0.0 
6.068237325882e-05 4.381455962217e-03 0.0 
0.0 0.0 -8.054665293395e-04 
-6.923438558252e-04 -8.520265330426e-04 0.0 
-8.520265330426e-04 4.695093275442e-03 0.0 
0.0 0.0 -8.008683130455e-04 
-6.056515233478e-04 -4.164522829612e-04 0.0 
-4.164522829612e-04 5.267235237804e-03 0.0 
0.0 0.0 -9.181754741429e-04 
-1.093523269899e-03 7.798311719689e-05 0.0 
7.798311719689e-05 6.464920900132e-03 0.0 
0.0 0.0 -9.721028620036e-04 
-8.031200443167e-04 6.781379836070e-04 0.0 
6.781379836070e-04 4.309322447368e-03 0.0 
0.0 0.0 -6.945885048819e-04 
-7.991042375162e-04 4.855628797920e-04 0.0 
4.855628797920e-04 6.126908297853e-03 0.0 
0.0 0.0 -1.039409037654e-03 
-9.955657075652e-04 -4.803366383392e-06 0.0 
-4.803366383392e-06 6.069270927012e-03 0.0 
0.0 0.0 -8.839498032872e-04 
-7.742968154824e-04 -8.517460638285e-04 0.0 
-8.517460638285e-04 4.014337168077e-03 0.0 
0.0 0.0 -6.521967345917e-04 
-6.549358325978e-04 3.442178195061e-04 0.0 
3.442178195061e-04 5.516212137862e-03 0.0 
0.0 0.0 -9.664699797409e-04 
-3.659361313913e-04 -1.389777863593e-03 0.0 
-1.389777863593e-03 2.536314572587e-03 0.0 
0.0 0.0 -5.155438399970e-04 
-1.017459211522e-03 -2.035278755390e-04 0.0 
-2.035278755390e-04 5.749338419273e-03 0.0 
0.0 0.0 -9.093720595694e-04 
2.256137386907e-04 -1.163159502201e-04 0.0 
-1.163159502201e-04 1.137935582799e-04 0.0 
0.0 0.0 -4.585464485956e-05 
-3.462420398140e-04 1.018466210769e-03 0.0 
1.018466210769e-03 2.570297332312e-03 0.0 
0.0 0.0 -4.997308803768e-04 
-2.322903734365e-04 -1.457188189013e-03 0.0 
-1.457188189013e-03 2.158535862862e-03 0.0 
0.0 0.0 -4.875765080988e-04 
-8.614851687078e-04 -3.337722832802e-04 0.0 
-3.337722832802e-04 4.446512628758e-03 0.0 
0.0 0.0 -7.126562430121e-04 
-5.635163873739e-04 9.119017880977e-04 0.0 
9.119017880977e-04 4.220442908307e-03 0.0 
0.0 0.0 -7.595228636782e-04 
-7.920931595490e-04 -2.649669687123e-04 0.0 
-2.649669687123e-04 5.573841345894e-03 0.0 
0.0 0.0 -9.350600278798e-04 
-1.013052504013e-03 -8.823570252137e-05 0.0 
-8.823570252137e-05 6.008966805305e-03 0.0 
0.0 0.0 -8.962969588583e-04 
-3.359179918489e-04 -1.568493616469e-03 0.0 
-1.568493616469e-03 2.089144442065e-03 0.0 
0.0 0.0 -4.505554202764e-04 
-1.341827844788e-03 -1.871667057256e-04 0.0 
-1.871667057256e-04 8.296019085882e-03 0.0 
0.0 0.0 -1.341827844788e-03 
-9.219930325587e-04 3.393896039245e-04 0.0 
3.393896039245e-04 5.591653643792e-03 0.0 
0.0 0.0 -8.789935771182e-04 
-9.115582794458e-04 -2.493035172872e-04 0.0 
-2.493035172872e-04 4.677595953812e-03 0.0 
0.0 0.0 -7.413896480605e-04 
-8.652400327000e-04 3.890590998056e-04 0.0 
3.890590998056e-04 5.305115327796e-03 0.0 
0.0 0.0 -8.436662038215e-04 
-8.817818309206e-04 -6.648690080579e-04 0.0 
-6.648690080579e-04 4.510392914982e-03 0.0 
0.0 0.0 -7.098625721847e-04 
0.0 0.0 0.0 
0.0 0.0 0.0 
0.0 0.0 0.0 
-1.015724792628e-03 8.235652516452e-05 0.0 
8.235652516452e-05 5.775865579893e-03 0.0 
0.0 0.0 -8.733545218784e-04 
-8.401387806922e-04 6.123016035238e-05 0.0 
6.123016035238e-05 3.850164849745e-03 0.0 
0.0 0.0 -5.956302995864e-04 
2.119608216236e-04 1.827144702945e-05 0.0 
1.827144702945e-05 -6.337242555222e-05 0.0 
0.0 0.0 -6.368074117344e-05 
-9.031369501237e-04 -1.865236162329e-04 0.0 
-1.865236162329e-04 4.464828183770e-03 0.0 
0.0 0.0 -7.041275119738e-04 
-8.760607814048e-04 -2.015865901798e-04 0.0 
-2.015865901798e-04 6.047567037496e-03 0.0 
0.0 0.0 -1.001254648526e-03 
-1.205696135514e-03 2.785240829935e-04 0.0 
2.785240829935e-04 7.656838420364e-03 0.0 
0.0 0.0 -1.146946825052e-03 
-5.022948978825e-04 -4.626796724593e-04 0.0 
-4.626796724593e-04 4.761985454285e-03 0.0 
0.0 0.0 -8.532270185794e-04 
-5.545620008577e-04 -7.574531854601e-05 0.0 
-7.574531854601e-05 4.939516714005e-03 0.0 
0.0 0.0 -8.841559964380e-04 
-9.029537400273e-04 7.141549008008e-05 0.0 
7.141549008008e-05 4.945239925053e-03 0.0 
0.0 0.0 -7.495231765994e-04 
-8.844827213453e-04 6.847338950965e-05 0.0 
6.847338950965e-05 4.625730514937e-03 0.0 
0.0 0.0 -7.312625299844e-04 
-1.286320179804e-03 2.788583147739e-04 0.0 
2.788583147739e-04 8.406193484283e-03 0.0 
0.0 0.0 -1.286111585339e-03 
-8.045597696771e-04 4.385655444655e-04 0.0 
4.385655444655e-04 5.012857215938e-03 0.0 
0.0 0.0 -8.082854548548e-04 
6.621891051064e-04 -1.711434374491e-05 0.0 
-1.711434374491e-05 -4.360569155907e-05 0.0 
0.0 0.0 -9.362473743294e-05 
-4.298982998579e-04 -6.269550114416e-04 0.0 
-6.269550114416e-04 1.549337747066e-03 0.0 
0.0 0.0 -2.569639750501e-04 
-5.557804512661e-05 -2.649152406900e-04 0.0 
-2.649152406900e-04 2.900758507811e-04 0.0 
0.0 0.0 -1.004990595662e-04 
-6.031978273067e-04 -1.007320967644e-03 0.0 
-1.007320967644e-03 2.552633295107e-03 0.0 
0.0 0.0 -4.284133232656e-04 
-1.143923933864e-03 2.767605230601e-04 0.0 
2.767605230601e-04 7.311015416728e-03 0.0 
0.0 0.0 -1.134523071099e-03 
-1.214790267536e-03 -1.094816465951e-04 0.0 
-1.094816465951e-04 7.712260942966e-03 0.0 
0.0 0.0 -1.144649651339e-03 
-1.087508141976e-03 -1.587001134092e-04 0.0 
-1.587001134092e-04 6.822768700719e-03 0.0 
0.0 0.0 -1.087427768671e-03 
-6.685965332887e-04 -7.845956287838e-04 0.0 
-7.845956287838e-04 2.990542570396e-03 0.0 
0.0 0.0 -4.827803379924e-04 
-1.041668217069e-03 -5.600095855462e-04 0.0 
-5.600095855462e-04 5.820984951314e-03 0.0 
0.0 0.0 -9.063168105749e-04 
-1.002226704218e-03 -4.489969858519e-05 0.0 
-4.489969858519e-05 6.971386371707e-03 0.0 
0.0 0.0 -1.142106164841e-03 
5.911862038656e-04 5.961670165533e-05 0.0 
5.961670165533e-05 -1.764561884350e-04 0.0 
0.0 0.0 -1.777414351845e-04 
-8.306874199400e-04 -2.997045909462e-04 0.0 
-2.997045909462e-04 3.873272421704e-03 0.0 
0.0 0.0 -5.942115541274e-04 
-6.956533125248e-04 1.124846661467e-04 0.0 
1.124846661467e-04 3.135833764917e-03 0.0 
0.0 0.0 -4.980019828625e-04 
-1.307918774452e-03 -2.672149718263e-04 0.0 
-2.672149718263e-04 8.583156667318e-03 0.0 
0.0 0.0 -1.322396863610e-03 
-1.341641872583e-03 -2.574400453278e-04 0.0 
-2.574400453278e-04 8.313092341430e-03 0.0 
0.0 0.0 -1.341641872583e-03 
-9.100844780323e-04 -2.535656636935e-04 0.0 
-2.535656636935e-04 4.283598396940e-03 0.0 
0.0 0.0 -6.580288049735e-04 
-9.226849417219e-04 -5.822088138657e-04 0.0 
-5.822088138657e-04 4.742725005737e-03 0.0 
0.0 0.0 -7.385580096348e-04 
-7.259593438489e-04 -4.081287369355e-04 0.0 
-4.081287369355e-04 4.909588067259e-03 0.0 
0.0 0.0 -8.323457052078e-04 
-1.025384663725e-03 -1.558037465639e-06 0.0 
-1.558037465639e-06 7.232536331843e-03 0.0 
0.0 0.0 -1.177278300149e-03 
-5.185769804223e-04 -3.082242823645e-04 0.0 
-3.082242823645e-04 1.649765607481e-03 0.0 
0.0 0.0 -2.880367495917e-04 
-9.770068768367e-04 -9.822974250100e-05 0.0 
-9.822974250100e-05 6.742502940673e-03 0.0 
0.0 0.0 -1.104707344597e-03 
-8.864038043829e-05 -1.638440655004e-05 0.0 
-1.638440655004e-05 9.863844244366e-04 0.0 
0.0 0.0 -1.612556504808e-04 
-8.754272683905e-04 -6.018300858025e-04 0.0 
-6.018300858025e-04 4.312432546832e-03 0.0 
0.0 0.0 -6.724657308136e-04 
-8.826884309659e-04 -7.176448192389e-04 0.0 
-7.176448192389e-04 4.701849927849e-03 0.0 
0.0 0.0 -7.470513223636e-04 
-3.546308527174e-05 5.679765794383e-06 0.0 
5.679765794383e-06 2.993710717870e-04 0.0 
0.0 0.0 -1.131034227923e-04 
-8.541374211011e-04 1.051307269510e-04 0.0 
1.051307269510e-04 4.063038016891e-03 0.0 
0.0 0.0 -6.267591816330e-04 
-1.242827358992e-03 4.579768759709e-04 0.0 
4.579768759709e-04 7.784562517271e-03 0.0 
0.0 0.0 -1.176862138969e-03 
5.856171802454e-04 8.673890813667e-06 0.0 
8.673890813667e-06 6.976119991761e-06 0.0 
0.0 0.0 -9.786084279852e-05 
-8.702582028195e-04 1.105447853201e-04 0.0 
1.105447853201e-04 4.607072405037e-03 0.0 
0.0 0.0 -7.322753781719e-04 
-8.459002629386e-04 1.198690024363e-04 0.0 
1.198690024363e-04 4.870014320209e-03 0.0 
0.0 0.0 -7.130472889423e-04 
-6.411087712709e-04 -3.059567672411e-04 0.0 
-3.059567672411e-04 5.528224217795e-03 0.0 
0.0 0.0 -9.552000144736e-04 
-6.940260095912e-04 -2.019223501579e-04 0.0 
-2.019223501579e-04 3.181147651246e-03 0.0 
0.0 0.0 -4.943513106837e-04 
-3.551699552598e-04 -1.046898701828e-03 0.0 
-1.046898701828e-03 2.386678131376e-03 0.0 
0.0 0.0 -4.817493388239e-04 
-2.903941216122e-04 1.483074513055e-03 0.0 
1.483074513055e-03 1.457235103792e-03 0.0 
0.0 0.0 -3.398054741319e-04 
-1.199955943827e-03 -1.286515075727e-04 0.0 
-1.286515075727e-04 7.503949585872e-03 0.0 
0.0 0.0 -1.180895453064e-03 
-1.276254635442e-03 4.715115445783e-04 0.0 
4.715115445783e-04 8.059382999082e-03 0.0 
0.0 0.0 -1.286194385238e-03 
-1.186217889961e-03 -6.749121568718e-05 0.0 
-6.749121568718e-05 7.409362913807e-03 0.0 
0.0 0.0 -1.101088927253e-03 
-5.347000365982e-04 9.291634402025e-04 0.0 
9.291634402025e-04 2.503086312716e-03 0.0 
0.0 0.0 -4.457015571677e-04 
-3.190037393042e-04 -1.683187168607e-04 0.0 
-1.683187168607e-04 9.740026393817e-04 0.0 
0.0 0.0 -2.223875638571e-04 
-8.385442436262e-04 2.562372654306e-04 0.0 
2.562372654306e-04 4.497930936177e-03 0.0 
0.0 0.0 -6.999131133628e-04 
-8.425527780140e-04 3.452494000883e-05 0.0 
3.452494000883e-05 4.643700331840e-03 0.0 
0.0 0.0 -7.345111139194e-04 
-8.389403033821e-04 -1.305466340479e-06 0.0 
-1.305466340479e-06 4.908724598573e-03 0.0 
0.0 0.0 -7.144802219086e-04 
2.118993314013e-04 1.507058348733e-05 0.0 
1.507058348733e-05 -6.339593750257e-05 0.0 
0.0 0.0 -6.364431167088e-05 
-5.587289192583e-05 -6.452329894431e-06 0.0 
-6.452329894431e-06 2.977317204857e-04 0.0 
0.0 0.0 -1.036537836685e-04 
-1.659582098733e-04 -6.983629749951e-05 0.0 
-6.983629749951e-05 7.156238265913e-04 0.0 
0.0 0.0 -1.795416262981e-04 
-6.042827533109e-04 -3.178261870528e-04 0.0 
-3.178261870528e-04 2.298196668838e-03 0.0 
0.0 0.0 -3.820941496288e-04 
1.745656339544e-04 -6.881620967810e-06 0.0 
-6.881620967810e-06 5.205015129475e-04 0.0 
0.0 0.0 -1.430998070711e-04 
-9.621077650285e-04 9.743124488288e-05 0.0 
9.743124488288e-05 4.540703172736e-03 0.0 
0.0 0.0 -6.918148876825e-04 
0.0 0.0 0.0 
0.0 0.0 0.0 
0.0 0.0 0.0 
-6.636885702572e-04 -3.632840591834e-04 0.0 
-3.632840591834e-04 2.727769964994e-03 0.0 
0.0 0.0 -4.482372226011e-04 
-1.037073112810e-03 8.416167581821e-05 0.0 
8.416167581821e-05 6.231636848545e-03 0.0 
0.0 0.0 -9.582560723523e-04 
-8.428951159850e-04 8.320649882269e-05 0.0 
8.320649882269e-05 4.895786071823e-03 0.0 
0.0 0.0 -7.120344407548e-04 
-1.176195464104e-03 2.727173431630e-04 0.0 
2.727173431630e-04 7.571205441829e-03 0.0 
0.0 0.0 -1.169483110168e-03 
-8.724458015180e-04 -2.535481835564e-04 0.0 
-2.535481835564e-04 5.840199633402e-03 0.0 
0.0 0.0 -9.641449249716e-04 
-9.956049472303e-04 9.460602026458e-05 0.0 
9.460602026458e-05 5.823804297189e-03 0.0 
0.0 0.0 -8.988447104697e-04 
-7.453270263773e-04 1.666868432523e-04 0.0 
1.666868432523e-04 3.393805001824e-03 0.0 
0.0 0.0 -5.269378630653e-04 
-6.611997545445e-05 -3.806127284770e-05 0.0 
-3.806127284770e-05 9.766559638682e-04 0.0 
0.0 0.0 -1.602995255322e-04 
-1.340974968048e-03 1.475163558745e-04 0.0 
1.475163558745e-04 8.789407210591e-03 0.0 
0.0 0.0 -1.340974968048e-03 
-1.353375445294e-03 1.861681106883e-04 0.0 
1.861681106883e-04 9.067632799309e-03 0.0 
0.0 0.0 -1.320295381545e-03 
-9.653313430370e-04 3.172946590342e-04 0.0 
3.172946590342e-04 5.653212768820e-03 0.0 
0.0 0.0 -8.588387843224e-04 
-8.723549553050e-04 3.791940437681e-05 0.0 
3.791940437681e-05 4.638744233564e-03 0.0 
0.0 0.0 -7.326073368542e-04 
-7.433675000171e-04 -1.881116571238e-04 0.0 
-1.881116571238e-04 3.464526545461e-03 0.0 
0.0 0.0 -5.314511797787e-04 
-1.343039576571e-03 1.116238935560e-04 0.0 
1.116238935560e-04 9.058435864628e-03 0.0 
0.0 0.0 -1.322576402756e-03 
-6.088517818817e-04 -7.427980185432e-04 0.0 
-7.427980185432e-04 2.573085079122e-03 0.0 
0.0 0.0 -4.166600706249e-04 
-8.421343191380e-04 8.947296271354e-05 0.0 
8.947296271354e-05 4.867861189812e-03 0.0 
0.0 0.0 -7.125614225629e-04 
-8.442475580862e-04 6.688277321944e-05 0.0 
6.688277321944e-05 4.629764896323e-03 0.0 
0.0 0.0 -7.312775522649e-04 
-8.183075665077e-04 4.944600713478e-04 0.0 
4.944600713478e-04 4.297011605974e-03 0.0 
0.0 0.0 -6.755779900756e-04 
-1.341823989366e-03 3.176700121755e-04 0.0 
3.176700121755e-04 8.755155514573e-03 0.0 
0.0 0.0 -1.341823989366e-03 
-1.316183787817e-03 1.764356624828e-04 0.0 
1.764356624828e-04 9.061441417317e-03 0.0 
0.0 0.0 -1.322582685247e-03 
1.706419388007e-04 -6.581066488368e-06 0.0 
-6.581066488368e-06 5.083643028934e-04 0.0 
0.0 0.0 -1.414504174366e-04 
2.407344509661e-04 1.323517305793e-05 0.0 
1.323517305793e-05 -7.208659109850e-05 0.0 
0.0 0.0 -7.227765422896e-05 
-4.260081866660e-04 -1.856958100474e-04 0.0 
-1.856958100474e-04 1.223914747001e-03 0.0 
0.0 0.0 -2.229509930541e-04 
-8.539532720431e-04 -3.709598021116e-04 0.0 
-3.709598021116e-04 4.637819177533e-03 0.0 
0.0 0.0 -7.497705102653e-04 
-1.319228459702e-03 1.823496012509e-04 0.0 
1.823496012509e-04 8.037185883931e-03 0.0 
0.0 0.0 -1.224669017856e-03 
0.0 0.0 0.0 
0.0 0.0 0.0 
0.0 0.0 0.0 
-1.164534197096e-03 -1.984727069524e-04 0.0 
-1.984727069524e-04 7.327097077271e-03 0.0 
0.0 0.0 -1.092518628634e-03 
0.0 0.0 0.0 
0.0 0.0 0.0 
0.0 0.0 0.0 
-6.586480689669e-04 -2.893406478862e-05 0.0 
-2.893406478862e-05 5.445033550024e-03 0.0 
0.0 0.0 -9.493083249531e-04 
6.413544779552e-05 -3.379620450346e-04 0.0 
-3.379620450346e-04 1.394736970074e-04 0.0 
0.0 0.0 -8.691392457031e-05 
1.450430834232e-05 -8.616792963926e-05 0.0 
-8.616792963926e-05 3.294529381564e-05 0.0 
0.0 0.0 -2.033554378198e-05 
-6.338862404721e-04 -1.383285000905e-04 0.0 
-1.383285000905e-04 5.212576859225e-03 0.0 
0.0 0.0 -9.122568895951e-04 
-1.285900318348e-03 2.146352195215e-05 0.0 
2.146352195215e-05 7.759528202279e-03 0.0 
0.0 0.0 -1.192963836147e-03 
-1.029044917040e-03 -7.279636213487e-05 0.0 
-7.279636213487e-05 6.446740060124e-03 0.0 
0.0 0.0 -9.361271490834e-04 
-8.407421483093e-04 3.218859450769e-04 0.0 
3.218859450769e-04 4.639661762171e-03 0.0 
0.0 0.0 -7.268406435589e-04 
-3.072399208747e-05 -1.897210475410e-05 0.0 
-1.897210475410e-05 2.991997316549e-04 0.0 
0.0 0.0 -1.150610312432e-04 
-1.088521664505e-03 -4.986556758640e-04 0.0 
-4.986556758640e-04 6.052818965112e-03 0.0 
0.0 0.0 -9.349022313484e-04 
-1.337797817327e-03 2.888082420915e-05 0.0 
2.888082420915e-05 8.797778454419e-03 0.0 
0.0 0.0 -1.337797817327e-03 
-1.344206616167e-03 -8.091836582187e-05 0.0 
-8.091836582187e-05 9.064612422815e-03 0.0 
0.0 0.0 -1.322354755130e-03 
-8.386635614455e-04 6.856267782852e-05 0.0 
6.856267782852e-05 4.896920748213e-03 0.0 
0.0 0.0 -7.125764448434e-04 
-6.958258556128e-04 6.990936182405e-05 0.0 
6.990936182405e-05 5.692375670829e-03 0.0 
0.0 0.0 -9.863757069361e-04 
-1.341607717199e-03 1.551401879936e-04 0.0 
1.551401879936e-04 8.810609962061e-03 0.0 
0.0 0.0 -1.341607717199e-03 
-8.875903164710e-04 2.432432692731e-04 0.0 
2.432432692731e-04 6.412529175352e-03 0.0 
0.0 0.0 -1.046710270629e-03 
-7.224987108801e-05 2.416900893393e-05 0.0 
2.416900893393e-05 9.236508622773e-04 0.0 
0.0 0.0 -1.589907658001e-04 
1.844060408699e-04 -1.026478452949e-05 0.0 
-1.026478452949e-05 5.130263938471e-04 0.0 
0.0 0.0 -1.435574244405e-04 
-2.891409061342e-05 -3.272758998480e-05 0.0 
-3.272758998480e-05 3.203427987140e-04 0.0 
0.0 0.0 -1.200048127433e-04 
-8.246082063499e-04 1.600403801409e-04 0.0 
1.600403801409e-04 3.844559296729e-03 0.0 
0.0 0.0 -5.933358154923e-04 
-1.368440753648e-03 -2.847926622310e-04 0.0 
-2.847926622310e-04 8.814363085181e-03 0.0 
0.0 0.0 -1.322828574513e-03 
-1.280689091558e-03 -2.286632291646e-04 0.0 
-2.286632291646e-04 8.487923234130e-03 0.0 
0.0 0.0 -1.258329778789e-03 
2.520020944074e-04 -9.417495015486e-06 0.0 
-9.417495015486e-06 -7.547411903337e-05 0.0 
0.0 0.0 -7.565484658888e-05 
-9.449458894061e-04 -2.123271304103e-04 0.0 
-2.123271304103e-04 4.512069341782e-03 0.0 
0.0 0.0 -6.938761155152e-04 
-1.344798314369e-03 -1.247366253674e-04 0.0 
-1.247366253674e-04 8.595631148609e-03 0.0 
0.0 0.0 -1.344798314369e-03 
-1.373531731671e-03 -1.707869213026e-04 0.0 
-1.707869213026e-04 8.832402882049e-03 0.0 
0.0 0.0 -1.318785251170e-03 
-1.282177360506e-03 -3.124369979244e-04 0.0 
-3.124369979244e-04 8.610103347005e-03 0.0 
0.0 0.0 -1.321151187552e-03 
-1.113562773683e-03 2.219946434219e-04 0.0 
2.219946434219e-04 6.878878469590e-03 0.0 
0.0 0.0 -1.027148381742e-03 
-1.180769122149e-03 -2.135481498419e-04 0.0 
-2.135481498419e-04 7.573759840694e-03 0.0 
0.0 0.0 -1.125709525796e-03 
-1.338030260144e-03 -1.771563366243e-04 0.0 
-1.771563366243e-04 8.542675147626e-03 0.0 
0.0 0.0 -1.338030260144e-03 
-1.340754991027e-03 -2.390663127656e-04 0.0 
-2.390663127656e-04 8.545998822267e-03 0.0 
0.0 0.0 -1.340754991027e-03 
-1.152960594027e-03 1.859255734492e-04 0.0 
1.859255734492e-04 7.333872638941e-03 0.0 
0.0 0.0 -1.092518628634e-03 
6.040404689232e-04 9.568591753019e-05 0.0 
9.568591753019e-05 -6.408932826674e-05 0.0 
0.0 0.0 -9.235885521468e-05 
-8.216739313019e-04 1.642653897250e-05 0.0 
1.642653897250e-05 4.866544847831e-03 0.0 
0.0 0.0 -7.139539158865e-04 
-8.429301589013e-04 7.371775731573e-05 0.0 
7.371775731573e-05 4.924292125164e-03 0.0 
0.0 0.0 -7.133642253441e-04 
2.432336519054e-04 6.949879094711e-06 0.0 
6.949879094711e-06 -7.294262653964e-05 0.0 
0.0 0.0 -7.298186801390e-05 
-1.342313591240e-03 -2.893823135638e-04 0.0 
-2.893823135638e-04 8.501007321383e-03 0.0 
0.0 0.0 -1.342313591240e-03 
-1.327713446301e-03 -3.071447071229e-04 0.0 
-3.071447071229e-04 8.654446540322e-03 0.0 
0.0 0.0 -1.318355947622e-03 
-1.337959751097e-03 -3.069413126871e-04 0.0 
-3.069413126871e-04 8.377273660842e-03 0.0 
0.0 0.0 -1.337959751097e-03 
5.382873424725e-04 1.051034098534e-05 0.0 
1.051034098534e-05 3.447207322761e-05 0.0 
0.0 0.0 -9.875111991497e-05 
5.465365996427e-04 1.921140548757e-05 0.0 
1.921140548757e-05 3.586604406774e-05 0.0 
0.0 0.0 -1.001629653630e-04 
-1.340754991027e-03 -2.745211848364e-04 0.0 
-2.745211848364e-04 8.326750669152e-03 0.0 
0.0 0.0 -1.340754991027e-03 
-1.340396196526e-03 -3.177254258607e-04 0.0 
-3.177254258607e-04 8.348861196928e-03 0.0 
0.0 0.0 -1.340396196526e-03 
-1.100408733265e-03 -2.290747800904e-04 0.0 
-2.290747800904e-04 6.654648242085e-03 0.0 
0.0 0.0 -9.936726122374e-04 
-8.156679351147e-04 3.791493186346e-05 0.0 
3.791493186346e-05 4.866771241895e-03 0.0 
0.0 0.0 -7.124851972278e-04 
-1.126282978383e-03 -2.242329370711e-04 0.0 
-2.242329370711e-04 7.103431173965e-03 0.0 
0.0 0.0 -1.060142436171e-03 
-9.808195587630e-04 -2.230997408213e-04 0.0 
-2.230997408213e-04 5.708119715060e-03 0.0 
0.0 0.0 -8.626607521899e-04 
-7.941305620824e-04 1.551089981454e-05 0.0 
1.551089981454e-05 4.869359917574e-03 0.0 
0.0 0.0 -7.121912678902e-04 
7.040827403612e-04 7.380490456996e-06 0.0 
7.380490456996e-06 -3.505683220774e-05 0.0 
0.0 0.0 -9.491348420367e-05 
6.357527662839e-04 -8.824699617213e-05 0.0 
-8.824699617213e-05 3.733323429846e-05 0.0 
0.0 0.0 -1.068803031330e-04 
5.856552846093e-04 -8.204592747125e-05 0.0 
-8.204592747125e-05 2.270090481132e-05 0.0 
0.0 0.0 -9.934895370439e-05 
6.682124726064e-04 -5.433044528850e-05 0.0 
-5.433044528850e-05 2.762423436657e-05 0.0 
0.0 0.0 -1.574260069802e-04 
-9.875526380001e-04 1.999683647263e-04 0.0 
1.999683647263e-04 4.756922496595e-03 0.0 
0.0 0.0 -7.271325101417e-04 
-9.022422993743e-04 1.689219604000e-04 0.0 
1.689219604000e-04 4.293373185727e-03 0.0 
0.0 0.0 -6.600769387058e-04 
0.0 0.0 0.0 
0.0 0.0 0.0 
0.0 0.0 0.0 
-1.139432736752e-03 1.969596473993e-04 0.0 
1.969596473993e-04 6.092355855196e-03 0.0 
0.0 0.0 -9.221709323543e-04 
0.0 0.0 0.0 
0.0 0.0 0.0 
0.0 0.0 0.0 
-1.341471640605e-03 2.821656468085e-04 0.0 
2.821656468085e-04 8.748357117342e-03 0.0 
0.0 0.0 -1.341471640605e-03 
-1.340968685557e-03 1.312437350478e-04 0.0 
1.312437350478e-04 8.782913575074e-03 0.0 
0.0 0.0 -1.340968685557e-03 
-1.339320413496e-03 1.880713074898e-04 0.0 
1.880713074898e-04 8.789181418084e-03 0.0 
0.0 0.0 -1.339320413496e-03 
-2.891904725790e-04 2.036868385329e-04 0.0 
2.036868385329e-04 1.487086439737e-03 0.0 
0.0 0.0 -2.599136149544e-04 
-6.430141663801e-04 1.708121578067e-04 0.0 
1.708121578067e-04 2.925097320677e-03 0.0 
0.0 0.0 -4.607467809507e-04 
-1.337132911908e-03 8.989218137943e-05 0.0 
8.989218137943e-05 8.798780956337e-03 0.0 
0.0 0.0 -1.337132911908e-03 
-1.268709771428e-03 1.750290220288e-04 0.0 
1.750290220288e-04 7.410750387042e-03 0.0 
0.0 0.0 -1.124956933753e-03 
-1.344556937803e-03 5.420067643192e-05 0.0 
5.420067643192e-05 8.841140369170e-03 0.0 
0.0 0.0 -1.344556937803e-03 
-1.309963082983e-03 1.898374887779e-04 0.0 
1.898374887779e-04 7.848623061347e-03 0.0 
0.0 0.0 -1.192538251246e-03 
-1.338506523092e-03 2.196897297750e-04 0.0 
2.196897297750e-04 8.286254789378e-03 0.0 
0.0 0.0 -1.259905836238e-03 
-8.634449756302e-04 -2.267992264203e-04 0.0 
-2.267992264203e-04 4.063283112415e-03 0.0 
0.0 0.0 -6.267460875326e-04 
-1.354536289335e-03 7.630110527830e-05 0.0 
7.630110527830e-05 9.083283423121e-03 0.0 
0.0 0.0 -1.318101597465e-03 
-1.353127036110e-03 2.052350059942e-04 0.0 
2.052350059942e-04 9.070380165704e-03 0.0 
0.0 0.0 -1.321689849711e-03 
-1.286890123680e-03 -2.394731622084e-04 0.0 
-2.394731622084e-04 7.571755325092e-03 0.0 
0.0 0.0 -1.157495185000e-03 
-1.323365826624e-03 -2.403819852103e-04 0.0 
-2.403819852103e-04 8.033634754339e-03 0.0 
0.0 0.0 -1.225777420818e-03 
-1.161453211646e-03 -3.736884005785e-04 0.0 
-3.736884005785e-04 6.493225178424e-03 0.0 
0.0 0.0 -9.925156490314e-04 
0.0 0.0 0.0 
0.0 0.0 0.0 
0.0 0.0 0.0 
-8.671818712195e-04 -5.363828857818e-04 0.0 
-5.363828857818e-04 4.105500038503e-03 0.0 
0.0 0.0 -6.350241097613e-04 
1.538446466672e-04 -5.196602102228e-05 0.0 
-5.196602102228e-05 5.032465276658e-04 0.0 
0.0 0.0 -1.372732375194e-04 
-1.212742551210e-03 -4.759587518373e-04 0.0 
-4.759587518373e-04 7.564630454968e-03 0.0 
0.0 0.0 -1.177819030284e-03 
-8.605651419967e-04 -2.779235020759e-04 0.0 
-2.779235020759e-04 4.247159815615e-03 0.0 
0.0 0.0 -6.753691525988e-04 
-1.209845026625e-03 -3.828065324347e-05 0.0 
-3.828065324347e-05 7.089490121300e-03 0.0 
0.0 0.0 -1.099016898379e-03 
-5.359685570494e-04 -6.677092728244e-04 0.0 
-6.677092728244e-04 2.153205781578e-03 0.0 
0.0 0.0 -3.504775146279e-04 
-1.805242587165e-04 1.222080852242e-05 0.0 
1.222080852242e-05 7.550645308543e-04 0.0 
0.0 0.0 -1.735952156319e-04 
-1.264456075116e-03 -3.850163355986e-04 0.0 
-3.850163355986e-04 7.592925326403e-03 0.0 
0.0 0.0 -1.161668299909e-03 
-9.012428398998e-04 -5.241478665253e-04 0.0 
-5.241478665253e-04 4.532812848754e-03 0.0 
0.0 0.0 -7.012080445024e-04 
-8.068122859681e-04 1.121430841948e-04 0.0 
1.121430841948e-04 3.618999234990e-03 0.0 
0.0 0.0 -5.611363230934e-04 
-1.221373729773e-03 -3.971185644326e-04 0.0 
-3.971185644326e-04 7.158861497178e-03 0.0 
0.0 0.0 -1.096102707776e-03 
-1.225888037185e-03 2.356398892211e-04 0.0 
2.356398892211e-04 7.926332987898e-03 0.0 
0.0 0.0 -1.188907866872e-03 
-7.850590963076e-04 -2.211249008548e-04 0.0 
-2.211249008548e-04 3.627921543623e-03 0.0 
0.0 0.0 -5.602736785587e-04 
-9.153466014746e-04 -5.672710459790e-04 0.0 
-5.672710459790e-04 6.328544019957e-03 0.0 
0.0 0.0 -1.035646790376e-03 
-9.544485914901e-04 -2.692006228927e-04 0.0 
-2.692006228927e-04 5.706833288183e-03 0.0 
0.0 0.0 -9.181742748318e-04 
-1.151482432891e-03 -1.721733511891e-05 0.0 
-1.721733511891e-05 6.426989542900e-03 0.0 
0.0 0.0 -9.952786863929e-04 
-1.189685403522e-03 2.186394532171e-05 0.0 
2.186394532171e-05 6.656907816596e-03 0.0 
0.0 0.0 -1.024224580100e-03 
-2.906015399770e-05 6.908185225539e-04 0.0 
6.908185225539e-04 2.388123543614e-03 0.0 
0.0 0.0 -5.788817793163e-04 
-8.005376655691e-04 3.171132398136e-04 0.0 
3.171132398136e-04 4.241491794382e-03 0.0 
0.0 0.0 -6.651338130661e-04 
-5.426647513542e-04 5.869195559815e-04 0.0 
5.869195559815e-04 4.187651392435e-03 0.0 
0.0 0.0 -7.293057621918e-04 
-1.068839531754e-03 -1.396982746719e-04 0.0 
-1.396982746719e-04 5.983670003937e-03 0.0 
0.0 0.0 -9.378562126457e-04 
-1.253909417431e-03 -3.654180260376e-04 0.0 
-3.654180260376e-04 7.384129283890e-03 0.0 
0.0 0.0 -1.125100902632e-03 
-1.223048658493e-03 8.194922759041e-05 0.0 
8.194922759041e-05 6.885373196445e-03 0.0 
0.0 0.0 -1.053755873404e-03 
-5.843499511654e-04 -7.478811802874e-04 0.0 
-7.478811802874e-04 2.078474299742e-03 0.0 
0.0 0.0 -3.685493992842e-04 
-1.215420929976e-03 2.914568716421e-04 0.0 
2.914568716421e-04 7.912104441246e-03 0.0 
0.0 0.0 -1.183514100502e-03 
-1.184839979766e-03 2.716593684437e-04 0.0 
2.716593684437e-04 7.456605698874e-03 0.0 
0.0 0.0 -1.117084069417e-03 
-9.160676408920e-04 2.566629763440e-04 0.0 
2.566629763440e-04 5.389449650205e-03 0.0 
0.0 0.0 -8.110481619253e-04 
-1.072043250355e-03 -1.594447290691e-04 0.0 
-1.594447290691e-04 6.194419037886e-03 0.0 
0.0 0.0 -9.753747863247e-04 
-1.113512703567e-03 -7.830874303778e-05 0.0 
-7.830874303778e-05 6.209473753146e-03 0.0 
0.0 0.0 -9.665592132828e-04 
-1.247553885459e-03 -1.638883659802e-04 0.0 
-1.638883659802e-04 8.032779373469e-03 0.0 
0.0 0.0 -1.185362187646e-03 
-1.209218779800e-03 2.395415248872e-04 0.0 
2.395415248872e-04 7.733666527183e-03 0.0 
0.0 0.0 -1.150972777267e-03 
-9.235989750770e-04 -6.984337716094e-04 0.0 
-6.984337716094e-04 5.520417486699e-03 0.0 
0.0 0.0 -8.866930489607e-04 
-1.284523920474e-03 -3.501071659254e-04 0.0 
-3.501071659254e-04 7.805517890163e-03 0.0 
0.0 0.0 -1.190872049285e-03 
-1.177897572884e-03 3.138623603337e-04 0.0 
3.138623603337e-04 7.354283994280e-03 0.0 
0.0 0.0 -1.103416240745e-03 
-1.224145241381e-03 -2.616286438841e-04 0.0 
-2.616286438841e-04 6.885317791912e-03 0.0 
0.0 0.0 -1.053748284807e-03 
-1.251504070725e-03 -4.981478354757e-04 0.0 
-4.981478354757e-04 7.817749108824e-03 0.0 
0.0 0.0 -1.210017230578e-03 
-1.240161038229e-03 -1.265963501437e-04 0.0 
-1.265963501437e-04 7.971776447579e-03 0.0 
0.0 0.0 -1.181737430652e-03 
-1.104792332721e-03 -1.417124884619e-04 0.0 
-1.417124884619e-04 6.803117520475e-03 0.0 
0.0 0.0 -1.011817915138e-03 
-9.092260506378e-04 -6.128458239001e-04 0.0 
-6.128458239001e-04 6.116526816133e-03 0.0 
0.0 0.0 -9.985655989919e-04 
-5.244393316962e-04 -3.327701467071e-07 0.0 
-3.327701467071e-07 2.217192403788e-03 0.0 
0.0 0.0 -3.644364776638e-04 
-5.557520001356e-04 -9.492103982614e-04 0.0 
-9.492103982614e-04 1.854328414375e-03 0.0 
0.0 0.0 -3.414758422231e-04 
-2.976977379688e-04 -4.729019177062e-04 0.0 
-4.729019177062e-04 1.065430610337e-03 0.0 
0.0 0.0 -1.876370064529e-04 
-1.394869518500e-05 -5.836024776206e-04 0.0 
-5.836024776206e-04 3.988673203720e-04 0.0 
0.0 0.0 -1.649651250801e-04 
-1.208849354757e-03 -1.442002111852e-04 0.0 
-1.442002111852e-04 7.751975943977e-03 0.0 
0.0 0.0 -1.150998037120e-03 
-1.270626804187e-03 5.625887811154e-05 0.0 
5.625887811154e-05 7.521765115722e-03 0.0 
0.0 0.0 -1.156839719840e-03 
-1.128430539847e-04 -4.533921113002e-04 0.0 
-4.533921113002e-04 5.125802596057e-04 0.0 
0.0 0.0 -1.512448671109e-04 
-1.224260673069e-03 1.930240191298e-04 0.0 
1.930240191298e-04 7.672098389018e-03 0.0 
0.0 0.0 -1.160298666437e-03 
-9.269777591648e-04 2.462098102623e-04 0.0 
2.462098102623e-04 5.566246555216e-03 0.0 
0.0 0.0 -8.436798659344e-04 
-1.183821186611e-03 -4.510450975400e-04 0.0 
-4.510450975400e-04 6.938898886609e-03 0.0 
0.0 0.0 -1.067477449466e-03 
-1.234042430495e-03 4.386686661325e-05 0.0 
4.386686661325e-05 7.085000705368e-03 0.0 
0.0 0.0 -1.090430023688e-03 
-4.688031105262e-04 -9.449998288247e-04 0.0 
-9.449998288247e-04 2.708853865005e-03 0.0 
0.0 0.0 -5.090628918580e-04 
-1.241127751091e-03 -3.232486977457e-04 0.0 
-3.232486977457e-04 7.146083644213e-03 0.0 
0.0 0.0 -1.087955833448e-03 
-9.128116180444e-04 -2.432084876036e-04 0.0 
-2.432084876036e-04 5.398327604704e-03 0.0 
0.0 0.0 -8.100176300978e-04 
-7.075550094797e-04 -2.554204369628e-05 0.0 
-2.554204369628e-05 5.888227624213e-03 0.0 
0.0 0.0 -1.000388816061e-03 
-1.275643571196e-03 -3.853184117788e-05 0.0 
-3.853184117788e-05 7.999890426169e-03 0.0 
0.0 0.0 -1.242964905849e-03 
-4.891437223720e-04 4.195566496952e-05 0.0 
4.195566496952e-05 2.125578513997e-03 0.0 
0.0 0.0 -3.542437553904e-04 
-1.232067324065e-03 -4.786069064869e-04 0.0 
-4.786069064869e-04 7.807210147599e-03 0.0 
0.0 0.0 -1.215045542354e-03 
-1.132051344136e-03 -1.297668119058e-04 0.0 
-1.297668119058e-04 7.059354268222e-03 0.0 
0.0 0.0 -1.048288725887e-03 
-5.597857793192e-04 4.639966247623e-05 0.0 
4.639966247623e-05 2.420049368412e-03 0.0 
0.0 0.0 -3.930611257745e-04 
-5.609737831535e-04 -1.192047374110e-03 0.0 
-1.192047374110e-03 2.290088636828e-03 0.0 
0.0 0.0 -4.034900192350e-04 
-1.019435653485e-03 2.510797196313e-05 0.0 
2.510797196313e-05 5.114500101547e-03 0.0 
0.0 0.0 -7.909606353592e-04 
-1.046153520856e-03 2.672543322815e-04 0.0 
2.672543322815e-04 6.254372891690e-03 0.0 
0.0 0.0 -9.409807611877e-04 
-7.501439557545e-04 -2.986549649001e-04 0.0 
-2.986549649001e-04 3.375633566619e-03 0.0 
0.0 0.0 -5.429771841545e-04 
-1.160690986180e-03 -1.496920489451e-04 0.0 
-1.496920489451e-04 7.303854633305e-03 0.0 
0.0 0.0 -1.085119818393e-03 
-1.069476201499e-03 -1.757346183128e-04 0.0 
-1.757346183128e-04 6.567285104211e-03 0.0 
0.0 0.0 -9.816794289629e-04 
-9.579280571301e-04 -1.773255598002e-04 0.0 
-1.773255598002e-04 4.907486764764e-03 0.0 
0.0 0.0 -7.700930343086e-04 
-1.202171244896e-03 -3.172466399621e-04 0.0 
-3.172466399621e-04 6.703539097156e-03 0.0 
0.0 0.0 -1.021757709120e-03 
-1.211296574698e-03 -3.721899322367e-04 0.0 
-3.721899322367e-04 6.940479911899e-03 0.0 
0.0 0.0 -1.058696934625e-03 
-1.135291475184e-03 2.700006977273e-04 0.0 
2.700006977273e-04 6.997454425646e-03 0.0 
0.0 0.0 -1.050681058959e-03 
-4.173596233207e-04 -3.503884104976e-04 0.0 
-3.503884104976e-04 1.875894239502e-03 0.0 
0.0 0.0 -3.058749225436e-04 
-9.447771700352e-04 -1.262936496125e-04 0.0 
-1.262936496125e-04 4.694024374325e-03 0.0 
0.0 0.0 -7.328582426338e-04 
-9.670495794898e-04 5.137281078932e-04 0.0 
5.137281078932e-04 6.920842306521e-03 0.0 
0.0 0.0 -1.141128458404e-03 
-1.159905672637e-03 -1.212910240168e-04 0.0 
-1.212910240168e-04 7.261813298966e-03 0.0 
0.0 0.0 -1.078198857115e-03 
-8.846237530489e-04 -1.118837918711e-04 0.0 
-1.118837918711e-04 4.234828904613e-03 0.0 
0.0 0.0 -6.666835465145e-04 
-9.866099674588e-04 -6.396910670883e-04 0.0 
-6.396910670883e-04 5.776957758952e-03 0.0 
0.0 0.0 -9.153036164073e-04 
-1.180273166295e-03 -5.195576023231e-04 0.0 
-5.195576023231e-04 7.573511676705e-03 0.0 
0.0 0.0 -1.187586327529e-03 
-1.090487437882e-03 2.486631283317e-04 0.0 
2.486631283317e-04 6.750183946417e-03 0.0 
0.0 0.0 -1.013969106439e-03 
4.266683345687e-05 -1.829982136319e-05 0.0 
-1.829982136319e-05 -1.175196824509e-05 0.0 
0.0 0.0 -1.324922794790e-05 
-2.207289874608e-04 -3.235795152871e-04 0.0 
-3.235795152871e-04 1.003256593638e-03 0.0 
0.0 0.0 -1.835536028976e-04 
6.095472518787e-04 -2.844414826135e-05 0.0 
-2.844414826135e-05 2.461208838896e-04 0.0 
0.0 0.0 -3.667149153293e-04 
-1.247686431213e-03 1.804464591039e-05 0.0 
1.804464591039e-05 7.316811787833e-03 0.0 
0.0 0.0 -1.127837695838e-03 
-1.073532930030e-03 2.556328204713e-04 0.0 
2.556328204713e-04 6.504084694261e-03 0.0 
0.0 0.0 -9.775003154318e-04 
-1.065496431756e-03 -3.247503852032e-04 0.0 
-3.247503852032e-04 5.643495466523e-03 0.0 
0.0 0.0 -8.513051444990e-04 
-9.769664875946e-04 2.379062424114e-04 0.0 
2.379062424114e-04 5.801214914582e-03 0.0 
0.0 0.0 -8.745614812816e-04 
-1.019950067796e-03 -4.586219499737e-04 0.0 
-4.586219499737e-04 7.042194348422e-03 0.0 
0.0 0.0 -1.139196670502e-03 
-1.001595776578e-03 -1.032368991806e-04 0.0 
-1.032368991806e-04 5.128573561517e-03 0.0 
0.0 0.0 -7.988714448434e-04 
-1.198933731184e-03 -2.304563849883e-06 0.0 
-2.304563849883e-06 6.870961844438e-03 0.0 
0.0 0.0 -1.061632825506e-03 
-4.894390167554e-04 -2.936556089740e-04 0.0 
-2.936556089740e-04 2.281659796893e-03 0.0 
0.0 0.0 -3.615122310665e-04 
-1.252320573339e-03 -4.986115071304e-05 0.0 
-4.986115071304e-05 7.805865228042e-03 0.0 
0.0 0.0 -1.211531131004e-03 
-9.705690281363e-04 -5.093762920131e-04 0.0 
-5.093762920131e-04 4.972659776742e-03 0.0 
0.0 0.0 -7.673127347790e-04 
-5.395948498915e-04 -2.749809582872e-04 0.0 
-2.749809582872e-04 2.502960479934e-03 0.0 
0.0 0.0 -3.889166325194e-04 
-9.539878925134e-04 -4.665681980887e-04 0.0 
-4.665681980887e-04 4.746329446601e-03 0.0 
0.0 0.0 -7.311132045151e-04 
-7.861451495527e-04 -2.221214863257e-04 0.0 
-2.221214863257e-04 3.593397886981e-03 0.0 
0.0 0.0 -5.716673668464e-04 
-6.390151670991e-04 -6.536657789763e-04 0.0 
-6.536657789763e-04 2.791763486177e-03 0.0 
0.0 0.0 -4.452767020142e-04 
-1.072653987371e-03 2.886861907429e-05 0.0 
2.886861907429e-05 5.536656976787e-03 0.0 
0.0 0.0 -8.564950983273e-04 
2.053402963574e-04 2.693149737115e-05 0.0 
2.693149737115e-05 -6.111100134196e-05 0.0 
0.0 0.0 -6.181255500660e-05 
1.464512989776e-04 -5.911592787119e-06 0.0 
-5.911592787119e-06 -4.332551876097e-05 0.0 
0.0 0.0 -4.419676295000e-05 
-1.129321225881e-03 -4.366761249298e-04 0.0 
-4.366761249298e-04 6.278524906094e-03 0.0 
0.0 0.0 -9.636005660098e-04 
-4.459230001805e-04 -3.109429784165e-04 0.0 
-3.109429784165e-04 2.087500805873e-03 0.0 
0.0 0.0 -3.336449385292e-04 
-1.093345380725e-03 -5.267841385720e-04 0.0 
-5.267841385720e-04 6.263877748210e-03 0.0 
0.0 0.0 -9.724388998541e-04 
-1.043259012928e-03 -5.809617148742e-04 0.0 
-5.809617148742e-04 6.025832941714e-03 0.0 
0.0 0.0 -9.438473481109e-04 
-7.593501897991e-04 -4.626236543671e-04 0.0 
-4.626236543671e-04 3.770567817408e-03 0.0 
0.0 0.0 -6.177757646845e-04 
-3.406532554668e-04 -1.201349069570e-03 0.0 
-1.201349069570e-03 1.971960000255e-03 0.0 
0.0 0.0 -4.162223005415e-04 
-1.210770017431e-03 -8.268587528123e-05 0.0 
-8.268587528123e-05 7.661732423863e-03 0.0 
0.0 0.0 -1.137719822027e-03 
2.217423052273e-04 3.028948149786e-04 0.0 
3.028948149786e-04 -1.208394326889e-05 0.0 
0.0 0.0 -8.985358369644e-05 
-8.285748112363e-04 -1.587478080269e-04 0.0 
-1.587478080269e-04 3.819529826762e-03 0.0 
0.0 0.0 -6.004815939293e-04 
-1.049679539983e-03 -3.693865297615e-04 0.0 
-3.693865297615e-04 7.240151455212e-03 0.0 
0.0 0.0 -1.175533656463e-03 
-3.983359874590e-04 4.184586300730e-05 0.0 
4.184586300730e-05 1.714439103962e-03 0.0 
0.0 0.0 -2.977570873278e-04 
-1.020229649597e-03 -1.375914676709e-04 0.0 
-1.375914676709e-04 6.101662351483e-03 0.0 
0.0 0.0 -9.088859120638e-04 
-9.450324784717e-04 -1.832830397253e-04 0.0 
-1.832830397253e-04 5.623770961517e-03 0.0 
0.0 0.0 -8.416286270284e-04 
-4.351237697251e-04 -5.540829146340e-04 0.0 
-5.540829146340e-04 1.723099038299e-03 0.0 
0.0 0.0 -2.842394630762e-04 
-1.127395628762e-03 -5.008482085009e-04 0.0 
-5.008482085009e-04 7.317936875090e-03 0.0 
0.0 0.0 -1.158722036769e-03 
-1.133506044246e-03 -8.767361897690e-05 0.0 
-8.767361897690e-05 6.959505034578e-03 0.0 
0.0 0.0 -1.034898561726e-03 
-4.951489600236e-04 -4.786425625421e-05 0.0 
-4.786425625421e-05 2.022039619189e-03 0.0 
0.0 0.0 -3.364655670308e-04 
-1.234708714507e-03 -3.925269914934e-05 0.0 
-3.925269914934e-05 7.851562311589e-03 0.0 
0.0 0.0 -1.166520446339e-03 
-1.230308234664e-03 3.090146298482e-04 0.0 
3.090146298482e-04 7.789607374426e-03 0.0 
0.0 0.0 -1.169001632583e-03 
-5.233675107163e-04 -4.314455861334e-04 0.0 
-4.314455861334e-04 2.327927411805e-03 0.0 
0.0 0.0 -3.701904734684e-04 
-5.932851689167e-04 7.473876325445e-04 0.0 
7.473876325445e-04 2.806018980480e-03 0.0 
0.0 0.0 -4.801335248058e-04 
-5.599793527513e-04 -5.941268921314e-04 0.0 
-5.941268921314e-04 2.361270480637e-03 0.0 
0.0 0.0 -3.791106726259e-04 
-1.172251179922e-03 -4.180665988864e-04 0.0 
-4.180665988864e-04 6.718010438057e-03 0.0 
0.0 0.0 -1.029923508343e-03 
-1.041340644124e-03 -3.282174640750e-05 0.0 
-3.282174640750e-05 5.343281569417e-03 0.0 
0.0 0.0 -8.276368238623e-04 
-1.238338552957e-03 5.129188831146e-04 0.0 
5.129188831146e-04 7.705442663502e-03 0.0 
0.0 0.0 -1.169529464977e-03 
-1.205798657677e-03 3.040238914407e-04 0.0 
3.040238914407e-04 7.606656415098e-03 0.0 
0.0 0.0 -1.140030709108e-03 
-1.136504455291e-03 -4.715376891294e-04 0.0 
-4.715376891294e-04 6.495059726217e-03 0.0 
0.0 0.0 -1.001167767022e-03 
-1.120337032388e-03 -1.059796522353e-04 0.0 
-1.059796522353e-04 6.426005632212e-03 0.0 
0.0 0.0 -1.004093472296e-03 
-5.274441073591e-04 -2.397572524931e-04 0.0 
-2.397572524931e-04 1.862294635062e-03 0.0 
0.0 0.0 -3.158693332420e-04 
-1.161634108540e-03 -5.320117127017e-05 0.0 
-5.320117127017e-05 6.648981173758e-03 0.0 
0.0 0.0 -1.032853941699e-03 
-1.125917341076e-03 2.991763443149e-04 0.0 
2.991763443149e-04 6.905438798140e-03 0.0 
0.0 0.0 -1.037144748481e-03 
-1.044631038411e-03 -3.631995376833e-04 0.0 
-3.631995376833e-04 5.407625222663e-03 0.0 
0.0 0.0 -8.248712778174e-04 
-1.078523674622e-03 -1.304712665821e-04 0.0 
-1.304712665821e-04 6.557738951195e-03 0.0 
0.0 0.0 -9.752741834902e-04 
-1.159347625089e-03 -9.624416522510e-05 0.0 
-9.624416522510e-05 7.210996352120e-03 0.0 
0.0 0.0 -1.071415751597e-03 
-3.318515090644e-04 6.235225383972e-04 0.0 
6.235225383972e-04 3.802912303128e-03 0.0 
0.0 0.0 -7.435371925968e-04 
-1.181769783394e-03 2.863535825742e-04 0.0 
2.863535825742e-04 7.408927706841e-03 0.0 
0.0 0.0 -1.110258267496e-03 
-9.356896319010e-04 -4.816204734149e-05 0.0 
-4.816204734149e-05 4.523878489702e-03 0.0 
0.0 0.0 -6.965171720950e-04 
-1.013439798328e-03 -4.389789435164e-04 0.0 
-4.389789435164e-04 5.194362623047e-03 0.0 
0.0 0.0 -7.960639764766e-04 
-7.588476473929e-04 -1.047638361378e-04 0.0 
-1.047638361378e-04 3.390478407872e-03 0.0 
0.0 0.0 -5.342291996904e-04 
-6.729613587978e-04 -9.978092115441e-04 0.0 
-9.978092115441e-04 3.336051263368e-03 0.0 
0.0 0.0 -5.581583723280e-04 
-1.100329888420e-03 2.776105336716e-04 0.0 
2.776105336716e-04 6.705832396394e-03 0.0 
0.0 0.0 -1.007339817349e-03 
-7.155066052029e-04 -8.941200741794e-04 0.0 
-8.941200741794e-04 4.520636252880e-03 0.0 
0.0 0.0 -7.637833264599e-04 
-5.880444497108e-04 -5.324378047215e-04 0.0 
-5.324378047215e-04 2.570561499900e-03 0.0 
0.0 0.0 -4.077494273363e-04 
-3.167379964521e-04 -3.896430801043e-04 0.0 
-3.896430801043e-04 1.286713823890e-03 0.0 
0.0 0.0 -2.185673950299e-04 
-1.104743277708e-03 -1.081634182050e-04 0.0 
-1.081634182050e-04 6.759513962222e-03 0.0 
0.0 0.0 -1.005115000480e-03 
-6.259157449930e-04 -2.410202634238e-04 0.0 
-2.410202634238e-04 2.506664290233e-03 0.0 
0.0 0.0 -4.107160730352e-04 
-1.199872170886e-03 -1.045804178386e-04 0.0 
-1.045804178386e-04 7.736983325214e-03 0.0 
0.0 0.0 -1.218716866995e-03 
-1.124972404341e-03 2.718592290333e-04 0.0 
2.718592290333e-04 6.955187210285e-03 0.0 
0.0 0.0 -1.043883448597e-03 
-1.171061824699e-03 -7.858396141652e-05 0.0 
-7.858396141652e-05 6.870002089505e-03 0.0 
0.0 0.0 -1.070373463590e-03 
-1.223592225032e-03 -6.654680312814e-05 0.0 
-6.654680312814e-05 7.796071319491e-03 0.0 
0.0 0.0 -1.284729618418e-03 
-8.862225412837e-04 -4.776674958030e-04 0.0 
-4.776674958030e-04 4.314456893826e-03 0.0 
0.0 0.0 -6.637377122259e-04 
-5.666876201447e-04 -1.260874714856e-04 0.0 
-1.260874714856e-04 2.263003673050e-03 0.0 
0.0 0.0 -3.731618544809e-04 
-4.219134531154e-04 -1.222472695970e-04 0.0 
-1.222472695970e-04 1.397809828057e-03 0.0 
0.0 0.0 -2.496210768721e-04 
-1.097286575279e-03 -5.440934378647e-04 0.0 
-5.440934378647e-04 6.473058930747e-03 0.0 
0.0 0.0 -1.009908742814e-03 
-1.043727317765e-03 2.472408857258e-04 0.0 
2.472408857258e-04 6.306661261885e-03 0.0 
0.0 0.0 -9.473489374553e-04 
-2.695681844680e-04 -5.290039554231e-05 0.0 
-5.290039554231e-05 9.382689285882e-04 0.0 
0.0 0.0 -1.858848441742e-04 
-7.364560019706e-04 -6.036242025600e-04 0.0 
-6.036242025600e-04 3.440005901319e-03 0.0 
0.0 0.0 -5.400474096907e-04 
-4.035403746382e-04 -2.305403145177e-04 0.0 
-2.305403145177e-04 2.024884021199e-03 0.0 
0.0 0.0 -3.246070344129e-04 
-1.046680963677e-03 -1.140431221757e-04 0.0 
-1.140431221757e-04 6.307213054075e-03 0.0 
0.0 0.0 -9.387834224271e-04 
-7.632592856577e-04 -5.393132933556e-04 0.0 
-5.393132933556e-04 3.657861775186e-03 0.0 
0.0 0.0 -5.687878759048e-04 
-1.016724206552e-03 -2.154888859726e-04 0.0 
-2.154888859726e-04 5.955453979487e-03 0.0 
0.0 0.0 -9.467935652645e-04 
-7.568020148065e-04 -4.521860907560e-04 0.0 
-4.521860907560e-04 3.415229586271e-03 0.0 
0.0 0.0 -5.337555413938e-04 
-1.189199624854e-03 -1.376681473433e-04 0.0 
-1.376681473433e-04 7.515170933533e-03 0.0 
0.0 0.0 -1.114809527198e-03 
-6.923550043241e-04 -2.768469088006e-04 0.0 
-2.768469088006e-04 2.945508556802e-03 0.0 
0.0 0.0 -4.768663991247e-04 
-1.044644236131e-03 -5.895775659962e-04 0.0 
-5.895775659962e-04 6.433247658548e-03 0.0 
0.0 0.0 -1.018590841688e-03 
-5.377186267121e-04 -1.162421830740e-03 0.0 
-1.162421830740e-03 1.924594638442e-03 0.0 
0.0 0.0 -3.376433569222e-04 
-1.043635089924e-03 -5.925974921427e-04 0.0 
-5.925974921427e-04 6.227817584456e-03 0.0 
0.0 0.0 -9.812220007866e-04 
-9.943565397434e-04 -3.497380212248e-04 0.0 
-3.497380212248e-04 4.987357588882e-03 0.0 
0.0 0.0 -7.604224332210e-04 
-1.126398211161e-03 -1.231258313828e-04 0.0 
-1.231258313828e-04 6.641179692916e-03 0.0 
0.0 0.0 -1.041555045145e-03 
9.223743664251e-05 -1.553032727052e-04 0.0 
-1.553032727052e-04 2.018845935385e-03 0.0 
0.0 0.0 -5.350282927002e-04 
-4.513551852745e-04 7.961954421125e-05 0.0 
7.961954421125e-05 1.942718085049e-03 0.0 
0.0 0.0 -3.277310168338e-04 
-9.768870302484e-04 -1.535527430477e-04 0.0 
-1.535527430477e-04 5.889109902335e-03 0.0 
0.0 0.0 -8.787268422831e-04 
-6.833158998415e-04 -4.842839122641e-04 0.0 
-4.842839122641e-04 5.519329349180e-03 0.0 
0.0 0.0 -9.464297096767e-04 
-6.696248071327e-04 9.527190214272e-04 0.0 
9.527190214272e-04 3.942995259938e-03 0.0 
0.0 0.0 -6.776081642141e-04 
-1.047238839157e-03 -1.563485093405e-04 0.0 
-1.563485093405e-04 6.341652196106e-03 0.0 
0.0 0.0 -9.453210152248e-04 
-5.135632802951e-04 -1.406486370917e-03 0.0 
-1.406486370917e-03 1.993823835031e-03 0.0 
0.0 0.0 -3.758914132629e-04 
-1.070153882220e-03 3.026802387506e-04 0.0 
3.026802387506e-04 6.407668419037e-03 0.0 
0.0 0.0 -9.642804585795e-04 
-3.826150946160e-04 -2.687090143275e-04 0.0 
-2.687090143275e-04 1.814458781029e-03 0.0 
0.0 0.0 -2.947674122297e-04 
-1.169970312209e-03 -5.285152303079e-04 0.0 
-5.285152303079e-04 7.359319887074e-03 0.0 
0.0 0.0 -1.150402778756e-03 
-7.093705364921e-04 -3.773457786927e-04 0.0 
-3.773457786927e-04 5.766663180528e-03 0.0 
0.0 0.0 -9.834711240942e-04 
-7.789396793629e-04 4.773750927831e-05 0.0 
4.773750927831e-05 6.190226744614e-03 0.0 
0.0 0.0 -1.037051012011e-03 
-1.266259122541e-03 -6.932227906499e-05 0.0 
-6.932227906499e-05 8.127793637496e-03 0.0 
0.0 0.0 -1.204463612412e-03 
-7.768385389529e-04 -8.073428107716e-04 0.0 
-8.073428107716e-04 4.980090398291e-03 0.0 
0.0 0.0 -8.294769417472e-04 
-4.699473644088e-04 -6.813726004672e-05 0.0 
-6.813726004672e-05 1.813879272209e-03 0.0 
0.0 0.0 -3.081489256106e-04 
-9.161062287207e-04 -6.850931603516e-04 0.0 
-6.850931603516e-04 5.713761905663e-03 0.0 
0.0 0.0 -9.239488535170e-04 
-1.173047693050e-03 -1.052473736579e-04 0.0 
-1.052473736579e-04 7.508097487322e-03 0.0 
0.0 0.0 -1.189963100592e-03 
-4.497409859123e-04 -1.426160803811e-03 0.0 
-1.426160803811e-03 2.458822638814e-03 0.0 
0.0 0.0 -4.786098583285e-04 
-1.143974714499e-03 -4.976969720053e-04 0.0 
-4.976969720053e-04 6.710156245847e-03 0.0 
0.0 0.0 -1.038675661098e-03 
-1.132883010551e-03 -1.192006961438e-04 0.0 
-1.192006961438e-04 7.009605316192e-03 0.0 
0.0 0.0 -1.041631482750e-03 
-1.897791220570e-04 -1.328549867833e-03 0.0 
-1.328549867833e-03 1.573915984256e-03 0.0 
0.0 0.0 -3.880698300753e-04 
-9.832169528241e-04 -6.401107558717e-04 0.0 
-6.401107558717e-04 5.975097252107e-03 0.0 
0.0 0.0 -9.525765839929e-04 
-9.785039199354e-04 -1.168734358181e-04 0.0 
-1.168734358181e-04 5.790498942477e-03 0.0 
0.0 0.0 -8.663127257150e-04 
-5.996048706546e-04 -3.316912815730e-04 0.0 
-3.316912815730e-04 2.740125406625e-03 0.0 
0.0 0.0 -4.280652785065e-04 
-7.035123059792e-04 -6.874159131133e-04 0.0 
-6.874159131133e-04 3.217847307373e-03 0.0 
0.0 0.0 -5.113914792957e-04 
-7.105655773308e-04 4.972009427012e-04 0.0 
4.972009427012e-04 4.827811336805e-03 0.0 
0.0 0.0 -8.004334922225e-04 
-1.074750193164e-03 -1.697498961518e-04 0.0 
-1.697498961518e-04 6.403492678198e-03 0.0 
0.0 0.0 -1.012809740122e-03 
-7.035308576128e-04 5.382426947374e-04 0.0 
5.382426947374e-04 3.806026837703e-03 0.0 
0.0 0.0 -6.201901524263e-04 
-6.308101104936e-04 5.457451351616e-04 0.0 
5.457451351616e-04 4.514197146446e-03 0.0 
0.0 0.0 -7.649884091348e-04 
-1.098080609149e-03 3.025878807238e-04 0.0 
3.025878807238e-04 6.656267622990e-03 0.0 
0.0 0.0 -1.000670320419e-03 
-1.014704614523e-03 2.583884235807e-04 0.0 
2.583884235807e-04 6.049064620228e-03 0.0 
0.0 0.0 -9.110000341593e-04 
-1.009261189838e-03 2.792149560740e-04 0.0 
2.792149560740e-04 5.955274274962e-03 0.0 
0.0 0.0 -8.984003255416e-04 
-9.871449342436e-04 -7.213431481816e-05 0.0 
-7.213431481816e-05 4.924174820230e-03 0.0 
0.0 0.0 -7.627602282935e-04 
-1.065656897570e-03 -5.121112680600e-04 0.0 
-5.121112680600e-04 7.066736918301e-03 0.0 
0.0 0.0 -1.130631056169e-03 
-8.421677165310e-04 -7.268506017030e-04 0.0 
-7.268506017030e-04 5.443918430101e-03 0.0 
0.0 0.0 -8.953295484280e-04 
-9.945000348060e-04 -1.248826091764e-04 0.0 
-1.248826091764e-04 5.857149722276e-03 0.0 
0.0 0.0 -8.720525204519e-04 
-1.238633943108e-03 1.686741563001e-04 0.0 
1.686741563001e-04 7.876441362665e-03 0.0 
0.0 0.0 -1.193584144721e-03 
-8.522957180035e-04 9.316442431590e-05 0.0 
9.316442431590e-05 6.488948212224e-03 0.0 
0.0 0.0 -1.073433710836e-03 
-1.015779217143e-03 -2.144660185469e-04 0.0 
-2.144660185469e-04 6.157749518334e-03 0.0 
0.0 0.0 -9.841343610905e-04 
-1.152967284980e-03 2.909720530725e-04 0.0 
2.909720530725e-04 7.156656236309e-03 0.0 
0.0 0.0 -1.073677668998e-03 
-7.263162190416e-04 -8.886940194724e-04 0.0 
-8.886940194724e-04 3.588121008828e-03 0.0 
0.0 0.0 -5.862626530914e-04 
-7.235359723586e-04 -7.958794651799e-04 0.0 
-7.958794651799e-04 3.410683047674e-03 0.0 
0.0 0.0 -5.488365039436e-04 
-4.694757851361e-04 -5.127005261343e-04 0.0 
-5.127005261343e-04 1.922171349029e-03 0.0 
0.0 0.0 -3.130684191733e-04 
-9.104943950574e-04 -6.552016600707e-04 0.0 
-6.552016600707e-04 5.911258485735e-03 0.0 
0.0 0.0 -9.612598090090e-04 
-7.654832124176e-04 -7.002445478485e-04 0.0 
-7.002445478485e-04 3.645865785489e-03 0.0 
0.0 0.0 -5.775003002374e-04 
-1.075243583964e-03 -1.050257747268e-04 0.0 
-1.050257747268e-04 6.505297040680e-03 0.0 
0.0 0.0 -9.686535345556e-04 
-1.046091552134e-03 -1.046643629052e-04 0.0 
-1.046643629052e-04 6.253743570569e-03 0.0 
0.0 0.0 -9.322463471790e-04 
-3.156258732897e-04 -6.342992802895e-05 0.0 
-6.342992802895e-05 4.063447682096e-03 0.0 
0.0 0.0 -7.690363516573e-04 
-6.768678335791e-04 -4.944889426237e-04 0.0 
-4.944889426237e-04 2.924353115240e-03 0.0 
0.0 0.0 -4.860199686152e-04 
7.378566886558e-05 8.261792693270e-04 0.0 
8.261792693270e-04 1.831438910589e-03 0.0 
0.0 0.0 -5.148587792422e-04 
-7.140205863396e-04 -3.895142562213e-04 0.0 
-3.895142562213e-04 3.153467660832e-03 0.0 
0.0 0.0 -5.143448975765e-04 
-7.166082742775e-04 -4.898417450174e-04 0.0 
-4.898417450174e-04 3.345585253682e-03 0.0 
0.0 0.0 -5.517963299543e-04 
-5.453825262275e-04 -1.801577044467e-04 0.0 
-1.801577044467e-04 2.063785108327e-03 0.0 
0.0 0.0 -3.446931235564e-04 
-9.991919087570e-04 -5.159677692080e-04 0.0 
-5.159677692080e-04 6.812973713771e-03 0.0 
0.0 0.0 -1.101849228969e-03 
-6.361621297383e-04 -6.326273812119e-04 0.0 
-6.326273812119e-04 3.840813039186e-03 0.0 
0.0 0.0 -6.642957827475e-04 
-1.186458515100e-03 -1.053251154620e-04 0.0 
-1.053251154620e-04 7.463739247015e-03 0.0 
0.0 0.0 -1.107989045227e-03 
-5.978205852498e-04 -6.030872319160e-04 0.0 
-6.030872319160e-04 3.997835835114e-03 0.0 
0.0 0.0 -7.013039408444e-04 
-8.766496605348e-04 -2.938506230370e-04 0.0 
-2.938506230370e-04 5.643098139245e-03 0.0 
0.0 0.0 -9.268471029391e-04 
-7.458770769302e-04 -4.494771908485e-04 0.0 
-4.494771908485e-04 4.730820068739e-03 0.0 
0.0 0.0 -7.951651613512e-04 
-5.061128914291e-04 5.136368614140e-04 0.0 
5.136368614140e-04 4.289096613620e-03 0.0 
0.0 0.0 -7.567435594048e-04 
-4.924031779586e-04 -4.582157831525e-04 0.0 
-4.582157831525e-04 2.128157277405e-03 0.0 
0.0 0.0 -3.417109511102e-04 
-1.119466152649e-03 -1.285123435513e-04 0.0 
-1.285123435513e-04 7.241871223374e-03 0.0 
0.0 0.0 -1.161691925552e-03 
-1.157276862038e-03 -5.152756470004e-04 0.0 
-5.152756470004e-04 7.595110461611e-03 0.0 
0.0 0.0 -1.198716319349e-03 
-9.186810373389e-04 7.206447187045e-04 0.0 
7.206447187045e-04 5.929294122594e-03 0.0 
0.0 0.0 -9.650368815299e-04 
-7.024384046348e-04 -5.668947943432e-04 0.0 
-5.668947943432e-04 3.521466880882e-03 0.0 
0.0 0.0 -5.892385666867e-04 
-8.092329254756e-04 -3.679333936268e-04 0.0 
-3.679333936268e-04 5.184879506691e-03 0.0 
0.0 0.0 -8.609535187098e-04 
-1.070645862318e-03 2.880325294516e-04 0.0 
2.880325294516e-04 6.451710160525e-03 0.0 
0.0 0.0 -9.708520278613e-04 
-7.765899253724e-04 -7.845646391497e-04 0.0 
-7.845646391497e-04 3.835907640370e-03 0.0 
0.0 0.0 -6.148791393494e-04 
-5.560475869297e-04 7.086124654578e-04 0.0 
7.086124654578e-04 3.695652655845e-03 0.0 
0.0 0.0 -6.394234923164e-04 
-6.747584532598e-04 -5.770366254477e-04 0.0 
-5.770366254477e-04 3.009985049056e-03 0.0 
0.0 0.0 -4.739097840058e-04 
-4.381090568186e-04 -1.552304285074e-03 0.0 
-1.552304285074e-03 2.041510460725e-03 0.0 
0.0 0.0 -4.132304097957e-04 
-7.141863963918e-04 -9.568035345241e-04 0.0 
-9.568035345241e-04 3.752753679619e-03 0.0 
0.0 0.0 -6.236739531379e-04 
-6.528961987011e-04 -1.781186145787e-04 0.0 
-1.781186145787e-04 2.715857529516e-03 0.0 
0.0 0.0 -4.393534411964e-04 
-5.596275213697e-04 -3.829013705402e-04 0.0 
-3.829013705402e-04 2.536190508459e-03 0.0 
0.0 0.0 -3.988888273503e-04 
-7.947060353366e-04 -8.306305145241e-04 0.0 
-8.306305145241e-04 4.800715564885e-03 0.0 
0.0 0.0 -7.922809795675e-04 
-9.495117069836e-04 -2.555007117944e-04 0.0 
-2.555007117944e-04 5.904688651206e-03 0.0 
0.0 0.0 -9.554846610150e-04 
-1.106451546740e-03 6.547273223382e-04 0.0 
6.547273223382e-04 7.113693437201e-03 0.0 
0.0 0.0 -1.128610778606e-03 
5.517197538679e-04 6.942037793557e-07 0.0 
6.942037793557e-07 5.222913432921e-05 0.0 
0.0 0.0 -1.143255210630e-04 
-3.502562365249e-04 -5.244252159893e-04 0.0 
-5.244252159893e-04 3.531851922803e-03 0.0 
0.0 0.0 -6.818868151028e-04 
-4.968184483203e-04 -6.518828778024e-04 0.0 
-6.518828778024e-04 3.693766435261e-03 0.0 
0.0 0.0 -6.732431144785e-04 
-6.734388902022e-04 -6.179988430692e-04 0.0 
-6.179988430692e-04 3.684173063462e-03 0.0 
0.0 0.0 -6.268095852860e-04 
-1.038674892423e-03 2.849365380829e-04 0.0 
2.849365380829e-04 6.200994707550e-03 0.0 
0.0 0.0 -9.344164207832e-04 
-6.877399303223e-04 -5.371529877498e-04 0.0 
-5.371529877498e-04 4.282013621241e-03 0.0 
0.0 0.0 -7.295442444478e-04 
-7.236126278911e-04 -1.940798346154e-04 0.0 
-1.940798346154e-04 3.162977138653e-03 0.0 
0.0 0.0 -5.055050897130e-04 
-6.903954199582e-04 -9.883908706268e-04 0.0 
-9.883908706268e-04 3.912237901394e-03 0.0 
0.0 0.0 -6.611654675676e-04 
-1.160544064243e-03 2.681116606983e-04 0.0 
2.681116606983e-04 7.207667667947e-03 0.0 
0.0 0.0 -1.080452943103e-03 
-7.185620229440e-04 -5.086767079658e-04 0.0 
-5.086767079658e-04 3.228512561114e-03 0.0 
0.0 0.0 -5.025663706543e-04 
-3.033530584322e-04 -3.126589283008e-05 0.0 
-3.126589283008e-05 1.124202721504e-03 0.0 
0.0 0.0 -2.132551421006e-04 
-4.445863950683e-04 -1.098673452603e-04 0.0 
-1.098673452603e-04 1.624443337862e-03 0.0 
0.0 0.0 -2.784575373548e-04 
-4.556609783406e-04 -1.046441961485e-03 0.0 
-1.046441961485e-03 2.312897280805e-03 0.0 
0.0 0.0 -4.444240490352e-04 
-6.671697262521e-04 -6.094353393578e-04 0.0 
-6.094353393578e-04 3.102567689836e-03 0.0 
0.0 0.0 -5.239304829885e-04 
-4.604694554278e-04 -5.460587614430e-04 0.0 
-5.460587614430e-04 3.852686059404e-03 0.0 
0.0 0.0 -7.099160536912e-04 
-6.597409171735e-04 -9.847744191674e-04 0.0 
-9.847744191674e-04 4.070104714955e-03 0.0 
0.0 0.0 -6.984076724203e-04 
-4.347846215514e-04 -1.333971923402e-03 0.0 
-1.333971923402e-03 1.612936656771e-03 0.0 
0.0 0.0 -3.343205611582e-04 
-3.976613437580e-04 -3.897326152451e-04 0.0 
-3.897326152451e-04 1.671878635782e-03 0.0 
0.0 0.0 -2.765202162382e-04 
-1.033660003461e-03 -1.033996314703e-04 0.0 
-1.033996314703e-04 5.926247048388e-03 0.0 
0.0 0.0 -8.885078876198e-04 
-6.226964712633e-04 -4.829751825411e-04 0.0 
-4.829751825411e-04 2.780306463648e-03 0.0 
0.0 0.0 -4.363975895258e-04 
-9.598608129299e-04 -1.512388155027e-04 0.0 
-1.512388155027e-04 6.520728160314e-03 0.0 
0.0 0.0 -1.067401112627e-03 
-1.044199175907e-03 6.711789122637e-04 0.0 
6.711789122637e-04 6.814869566682e-03 0.0 
0.0 0.0 -1.093380752811e-03 
-1.033158695296e-03 1.201714905428e-04 0.0 
1.201714905428e-04 5.943900742884e-03 0.0 
0.0 0.0 -9.013836717722e-04 
-1.202438437016e-03 3.703852775580e-04 0.0 
3.703852775580e-04 7.497052002657e-03 0.0 
0.0 0.0 -1.126084317643e-03 
-1.147719962247e-03 6.494223347106e-04 0.0 
6.494223347106e-04 7.391690108111e-03 0.0 
0.0 0.0 -1.164310864388e-03 
-2.878547429469e-04 1.154238477974e-04 0.0 
1.154238477974e-04 3.877857573592e-03 0.0 
0.0 0.0 -7.408850503417e-04 
-9.791568623396e-04 6.928855181129e-04 0.0 
6.928855181129e-04 6.367692588182e-03 0.0 
0.0 0.0 -1.029042339204e-03 
-3.868820834042e-04 -1.598175067219e-03 0.0 
-1.598175067219e-03 1.640588266591e-03 0.0 
0.0 0.0 -3.684254322556e-04 
-7.608485108981e-04 -8.950598342909e-04 0.0 
-8.950598342909e-04 4.184728790858e-03 0.0 
0.0 0.0 -6.894573431515e-04 
-3.726378683448e-04 9.309707187506e-04 0.0 
9.309707187506e-04 3.521132831243e-03 0.0 
0.0 0.0 -6.879681371099e-04 
1.475700378225e-04 -1.082055056136e-03 0.0 
-1.082055056136e-03 1.153328364632e-03 0.0 
0.0 0.0 -4.001859895708e-04 
-2.322378270667e-04 -1.414305700121e-03 0.0 
-1.414305700121e-03 1.285051000812e-03 0.0 
0.0 0.0 -3.718692805502e-04 
-7.624977688682e-04 -3.873820506890e-04 0.0 
-3.873820506890e-04 3.581246965727e-03 0.0 
0.0 0.0 -5.804062017457e-04 
-5.687072458126e-04 -1.053499292402e-03 0.0 
-1.053499292402e-03 3.769545573336e-03 0.0 
0.0 0.0 -6.703429011759e-04 
-5.303660715230e-04 -9.834601585863e-04 0.0 
-9.834601585863e-04 3.928073668805e-03 0.0 
0.0 0.0 -7.070647534220e-04 
-6.858142190642e-04 -1.264292236945e-04 0.0 
-1.264292236945e-04 2.925987856864e-03 0.0 
0.0 0.0 -4.680152132766e-04 
-6.589899224581e-04 -5.005558218905e-04 0.0 
-5.005558218905e-04 4.450521373462e-03 0.0 
0.0 0.0 -7.666177146937e-04 
-4.231487579380e-04 -9.909487264928e-04 0.0 
-9.909487264928e-04 3.613001704936e-03 0.0 
0.0 0.0 -6.790125122095e-04 
-3.369199789232e-04 -3.555417311412e-04 0.0 
-3.555417311412e-04 3.718100603305e-03 0.0 
0.0 0.0 -7.183521444552e-04 
-6.803758157452e-04 -9.028741567956e-04 0.0 
-9.028741567956e-04 3.171875899076e-03 0.0 
0.0 0.0 -5.205443542100e-04 
-6.888642757158e-04 -2.049706033719e-04 0.0 
-2.049706033719e-04 5.802071078045e-03 0.0 
0.0 0.0 -9.921115096417e-04 
-1.107658319106e-03 -8.404497540785e-05 0.0 
-8.404497540785e-05 6.709473481144e-03 0.0 
0.0 0.0 -9.984673180475e-04 
-2.379293217191e-04 -2.443881819662e-04 0.0 
-2.443881819662e-04 3.409073247204e-03 0.0 
0.0 0.0 -6.904379518788e-04 
-1.046303389369e-03 -1.114400525399e-04 0.0 
-1.114400525399e-04 6.996162598283e-03 0.0 
0.0 0.0 -1.133495712197e-03 
-3.268910950442e-04 -1.748504239578e-03 0.0 
-1.748504239578e-03 1.649599373731e-03 0.0 
0.0 0.0 -3.849690761666e-04 
-1.105326955299e-03 -1.209562394880e-05 0.0 
-1.209562394880e-05 7.506917461540e-03 0.0 
0.0 0.0 -1.208505026952e-03 
-5.639712272191e-04 -5.345864669017e-04 0.0 
-5.345864669017e-04 4.155944038547e-03 0.0 
0.0 0.0 -7.381355003807e-04 
-1.181963174499e-03 7.139086798359e-04 0.0 
7.139086798359e-04 7.734753846791e-03 0.0 
0.0 0.0 -1.203459118631e-03 
-9.741416899861e-04 2.978325655321e-04 0.0 
2.978325655321e-04 5.872577927131e-03 0.0 
0.0 0.0 -9.144069900286e-04 
-4.654888822043e-04 -1.140967963864e-03 0.0 
-1.140967963864e-03 1.931638852762e-03 0.0 
0.0 0.0 -3.788569260404e-04 
-1.047582909248e-03 1.584393688340e-04 0.0 
1.584393688340e-04 6.105623494628e-03 0.0 
0.0 0.0 -9.292863832265e-04 
-1.220879085669e-03 4.419497771274e-04 0.0 
4.419497771274e-04 7.616026390278e-03 0.0 
0.0 0.0 -1.148369591821e-03 
-5.398601850951e-04 -4.406973068625e-04 0.0 
-4.406973068625e-04 4.330390544396e-03 0.0 
0.0 0.0 -7.747733155264e-04 
-3.603331338578e-04 8.676550475076e-04 0.0 
8.676550475076e-04 2.963522800416e-03 0.0 
0.0 0.0 -5.621395992319e-04 
-1.057553285601e-03 1.944669215669e-04 0.0 
1.944669215669e-04 6.263161490160e-03 0.0 
0.0 0.0 -9.572423940436e-04 
-7.057059362099e-04 9.012515937016e-04 0.0 
9.012515937016e-04 4.348665847300e-03 0.0 
0.0 0.0 -7.402445244775e-04 
-4.362988120307e-04 -1.127161443736e-03 0.0 
-1.127161443736e-03 1.552148016574e-03 0.0 
0.0 0.0 -3.359502462693e-04 
-1.283659217910e-03 4.297574681589e-04 0.0 
4.297574681589e-04 8.390487106861e-03 0.0 
0.0 0.0 -1.259077240559e-03 
-4.445080952730e-04 -7.847967672699e-04 0.0 
-7.847967672699e-04 1.460661056520e-03 0.0 
0.0 0.0 -3.199353184197e-04 
-1.015479846412e-03 -4.911816191571e-05 0.0 
-4.911816191571e-05 7.389564650234e-03 0.0 
0.0 0.0 -1.194426649262e-03 
-1.235108043989e-03 2.931339570481e-04 0.0 
2.931339570481e-04 7.856142431297e-03 0.0 
0.0 0.0 -1.175981821618e-03 
-7.472334457018e-04 -2.848888603522e-04 0.0 
-2.848888603522e-04 6.030064979728e-03 0.0 
0.0 0.0 -1.020516803968e-03 
-1.010840280569e-03 2.871682712165e-04 0.0 
2.871682712165e-04 5.990467797945e-03 0.0 
0.0 0.0 -9.041796124736e-04 
-1.188290086785e-03 -4.131460252783e-05 0.0 
-4.131460252783e-05 7.360236208895e-03 0.0 
0.0 0.0 -1.094228678348e-03 
-3.956150081579e-04 -8.444363927456e-04 0.0 
-8.444363927456e-04 3.798159061747e-03 0.0 
0.0 0.0 -7.154996274706e-04 
-4.250562518241e-04 -8.715186287138e-05 0.0 
-8.715186287138e-05 4.576837397274e-03 0.0 
0.0 0.0 -8.337527902170e-04 
-1.236732889268e-03 3.932687216903e-04 0.0 
3.932687216903e-04 7.932024372295e-03 0.0 
0.0 0.0 -1.191782302182e-03 
-1.016762164362e-03 -2.009947599505e-04 0.0 
-2.009947599505e-04 6.362580938042e-03 0.0 
0.0 0.0 -1.021464098896e-03 
-1.135162035509e-03 -5.768530929232e-05 0.0 
-5.768530929232e-05 6.910041935378e-03 0.0 
0.0 0.0 -1.028225029406e-03 
-7.343430317228e-04 -7.671896480507e-05 0.0 
-7.671896480507e-05 5.717453709460e-03 0.0 
0.0 0.0 -9.780777104595e-04 
-3.572725597686e-04 -1.352690279400e-03 0.0 
-1.352690279400e-03 1.583802329561e-03 0.0 
0.0 0.0 -3.505936111242e-04 
-1.159722748538e-03 -3.230530369319e-05 0.0 
-3.230530369319e-05 7.104974861712e-03 0.0 
0.0 0.0 -1.057861461704e-03 
-1.213686028729e-03 4.975227447854e-04 0.0 
4.975227447854e-04 8.277647080915e-03 0.0 
0.0 0.0 -1.268085107495e-03 
-1.141634375887e-03 -6.383832911746e-05 0.0 
-6.383832911746e-05 7.496062386316e-03 0.0 
0.0 0.0 -1.202195648613e-03 
-7.172722051064e-04 -5.438382500790e-04 0.0 
-5.438382500790e-04 4.116936776522e-03 0.0 
0.0 0.0 -6.923681691211e-04 
-1.013061704463e-03 -1.285173007321e-04 0.0 
-1.285173007321e-04 6.040176746182e-03 0.0 
0.0 0.0 -9.020111041354e-04 
-9.803558555424e-04 2.819126364211e-04 0.0 
2.819126364211e-04 5.747481973327e-03 0.0 
0.0 0.0 -8.677534307045e-04 
-6.277772364563e-04 -9.505441527148e-04 0.0 
-9.505441527148e-04 4.228315103377e-03 0.0 
0.0 0.0 -7.352749011056e-04 
-9.471295400473e-04 -2.290448642546e-04 0.0 
-2.290448642546e-04 6.104893151692e-03 0.0 
0.0 0.0 -9.927925938929e-04 
-9.496787292750e-04 -1.931802113086e-04 0.0 
-1.931802113086e-04 6.308676304585e-03 0.0 
0.0 0.0 -1.030113165296e-03 
-3.367468350593e-04 -4.171493311675e-04 0.0 
-4.171493311675e-04 1.462207300335e-03 0.0 
0.0 0.0 -2.466400652194e-04 
1.723252799301e-04 1.006036226683e-03 0.0 
1.006036226683e-03 1.258635118435e-03 0.0 
0.0 0.0 -4.508272210452e-04 
-2.636139264689e-04 -4.295683990350e-05 0.0 
-4.295683990350e-05 3.648292398008e-03 0.0 
0.0 0.0 -7.269793770173e-04 
-2.881552402749e-04 -7.723163841178e-04 0.0 
-7.723163841178e-04 3.494059092135e-03 0.0 
0.0 0.0 -6.875569550716e-04 
-5.987135522068e-04 9.581338196100e-04 0.0 
9.581338196100e-04 4.121697912248e-03 0.0 
0.0 0.0 -7.320784846625e-04 
-1.264443641134e-03 9.169602624826e-06 0.0 
9.169602624826e-06 8.228641212544e-03 0.0 
0.0 0.0 -1.225426844749e-03 
-1.225437596415e-03 5.454708430458e-04 0.0 
5.454708430458e-04 7.618255897701e-03 0.0 
0.0 0.0 -1.162686153705e-03 
-1.236580353686e-03 -8.584500076515e-05 0.0 
-8.584500076515e-05 7.903871079557e-03 0.0 
0.0 0.0 -1.173632101657e-03 
-7.521471418708e-04 4.524177914914e-04 0.0 
4.524177914914e-04 4.089944836528e-03 0.0 
0.0 0.0 -6.556197767577e-04 
-1.172411158405e-03 4.147315892345e-04 0.0 
4.147315892345e-04 7.176351707369e-03 0.0 
0.0 0.0 -1.082713561900e-03 
-9.808832725520e-04 -6.235651659416e-04 0.0 
-6.235651659416e-04 6.175367423925e-03 0.0 
0.0 0.0 -9.899156953211e-04 
-1.256868554146e-03 3.642260226585e-04 0.0 
3.642260226585e-04 8.010570571666e-03 0.0 
0.0 0.0 -1.198415070424e-03 
-1.131244473165e-03 -2.609112415896e-05 0.0 
-2.609112415896e-05 6.847199996424e-03 0.0 
0.0 0.0 -1.021631336281e-03 
-7.398403296460e-04 -9.100435650523e-04 0.0 
-9.100435650523e-04 4.351978419830e-03 0.0 
0.0 0.0 -7.266350563285e-04 
-1.966131980491e-04 1.343789576191e-04 0.0 
1.343789576191e-04 3.379385752975e-03 0.0 
0.0 0.0 -6.989458521267e-04 
-1.152804453403e-03 3.500950542230e-04 0.0 
3.500950542230e-04 7.051163395974e-03 0.0 
0.0 0.0 -1.060111126929e-03 
-1.235067592862e-03 -2.698356757779e-05 0.0 
-2.698356757779e-05 7.807694952398e-03 0.0 
0.0 0.0 -1.160283895044e-03 
-1.152447904070e-03 3.233521508878e-04 0.0 
3.233521508878e-04 7.106400049278e-03 0.0 
0.0 0.0 -1.066842251349e-03 
-1.126824314787e-03 3.260890582423e-04 0.0 
3.260890582423e-04 6.856832929645e-03 0.0 
0.0 0.0 -1.030428295937e-03 
-1.098624795041e-03 -1.306628866347e-04 0.0 
-1.306628866347e-04 7.036525786255e-03 0.0 
0.0 0.0 -1.124756152480e-03 
-9.788942539780e-04 1.410494860673e-05 0.0 
1.410494860673e-05 7.171321125896e-03 0.0 
0.0 0.0 -1.167530213646e-03 
-1.029227773633e-03 -1.448576550575e-04 0.0 
-1.448576550575e-04 6.777818390463e-03 0.0 
0.0 0.0 -1.096139997395e-03 
-8.853909467236e-04 -3.202143432842e-04 0.0 
-3.202143432842e-04 5.450131718365e-03 0.0 
0.0 0.0 -8.895595506238e-04 
-7.841401063913e-04 5.175313733597e-04 0.0 
5.175313733597e-04 4.039507771945e-03 0.0 
0.0 0.0 -6.419897747600e-04 
-7.984394936658e-04 -1.887921339689e-04 0.0 
-1.887921339689e-04 6.295485930606e-03 0.0 
0.0 0.0 -1.057160997780e-03 
-1.115933343197e-03 4.349000973092e-04 0.0 
4.349000973092e-04 6.664037002129e-03 0.0 
0.0 0.0 -1.010795753303e-03 
-5.956699057430e-04 -8.811439702695e-05 0.0 
-8.811439702695e-05 2.473036601140e-03 0.0 
0.0 0.0 -4.018221946533e-04 
-2.915622310354e-04 -5.737426198503e-04 0.0 
-5.737426198503e-04 3.731241780433e-03 0.0 
0.0 0.0 -7.241222962603e-04 
-4.504794563629e-04 -1.267768640868e-04 0.0 
-1.267768640868e-04 4.437238068048e-03 0.0 
0.0 0.0 -8.193994707270e-04 
-5.327307368017e-04 -1.017456922387e-04 0.0 
-1.017456922387e-04 5.084928060617e-03 0.0 
0.0 0.0 -8.986564694586e-04 
3.950181268846e-04 -2.404122539236e-04 0.0 
-2.404122539236e-04 7.824137722745e-04 0.0 
0.0 0.0 -4.157903644632e-04 
-2.054344188629e-04 -4.192766465647e-04 0.0 
-4.192766465647e-04 3.464515105753e-03 0.0 
0.0 0.0 -6.962026719631e-04 
-6.398120247413e-04 -1.116949900707e-04 0.0 
-1.116949900707e-04 5.588791715487e-03 0.0 
0.0 0.0 -9.636952012155e-04 
-8.444842612221e-04 6.249200502653e-04 0.0 
6.249200502653e-04 4.582153886631e-03 0.0 
0.0 0.0 -7.294090860402e-04 
-7.683331433156e-04 -4.669157271009e-04 0.0 
-4.669157271009e-04 4.555612432421e-03 0.0 
0.0 0.0 -7.579899565570e-04 
-1.071508205892e-03 -5.121927920590e-05 0.0 
-5.121927920590e-05 6.390736393491e-03 0.0 
0.0 0.0 -9.556638187253e-04 
-8.714266706772e-04 2.063026129845e-04 0.0 
2.063026129845e-04 5.095248433608e-03 0.0 
0.0 0.0 -7.638029664831e-04 
-6.864860403863e-05 6.865817311915e-04 0.0 
6.865817311915e-04 5.756289586921e-04 0.0 
0.0 0.0 -2.172772948515e-04 
-8.538627514522e-04 -7.550684867704e-04 0.0 
-7.550684867704e-04 5.254936553017e-03 0.0 
0.0 0.0 -8.580817703278e-04 
-8.031553766191e-04 9.023974365030e-05 0.0 
9.023974365030e-05 6.192888911591e-03 0.0 
0.0 0.0 -1.051835763028e-03 
-1.248237691654e-03 5.633939617195e-04 0.0 
5.633939617195e-04 7.887034516043e-03 0.0 
0.0 0.0 -1.196871286280e-03 
-3.729352427207e-04 2.857944806302e-04 0.0 
2.857944806302e-04 4.199383336330e-03 0.0 
0.0 0.0 -7.999758813884e-04 
-8.246860114036e-04 -3.906175878888e-04 0.0 
-3.906175878888e-04 5.000590526334e-03 0.0 
0.0 0.0 -8.237210115815e-04 
-1.081299147246e-03 -7.697289611938e-05 0.0 
-7.697289611938e-05 6.459732028031e-03 0.0 
0.0 0.0 -9.620958722924e-04 
-2.880056971411e-04 8.925028292911e-04 0.0 
8.925028292911e-04 1.145866698786e-03 0.0 
0.0 0.0 -3.038018182983e-04 
-7.446793118804e-04 1.621554593950e-04 0.0 
1.621554593950e-04 5.956534969945e-03 0.0 
0.0 0.0 -1.023361637732e-03 
-4.737891057000e-04 -2.200266757859e-04 0.0 
-2.200266757859e-04 4.791461031182e-03 0.0 
0.0 0.0 -8.619475031456e-04 
-8.828155885906e-04 2.614625346270e-04 0.0 
2.614625346270e-04 4.904715470600e-03 0.0 
0.0 0.0 -7.615729788896e-04 
-9.809961927394e-04 -5.936604313144e-04 0.0 
-5.936604313144e-04 6.379528294436e-03 0.0 
0.0 0.0 -1.027225276160e-03 
-1.932500912873e-05 -1.677380896941e-03 0.0 
-1.677380896941e-03 1.233986358287e-03 0.0 
0.0 0.0 -3.946419382404e-04 
-9.859370989770e-04 -5.573179193325e-04 0.0 
-5.573179193325e-04 6.591591148133e-03 0.0 
0.0 0.0 -1.064556537081e-03 
-1.075263487039e-03 -6.290518893134e-05 0.0 
-6.290518893134e-05 7.229861812646e-03 0.0 
0.0 0.0 -1.170878753521e-03 
-6.948674803166e-04 2.455637071472e-04 0.0 
2.455637071472e-04 5.729378568502e-03 0.0 
0.0 0.0 -9.948919501216e-04 
-1.162320360260e-03 -6.372562573002e-05 0.0 
-6.372562573002e-05 7.161310363851e-03 0.0 
0.0 0.0 -1.064574987933e-03 
-9.584753352366e-04 2.606905829813e-04 0.0 
2.606905829813e-04 6.727836890182e-03 0.0 
0.0 0.0 -1.082686220397e-03 
-1.082949588594e-03 -4.851124086325e-04 0.0 
-4.851124086325e-04 7.296469259281e-03 0.0 
0.0 0.0 -1.168035910845e-03 
-5.459113610208e-04 8.695894781593e-04 0.0 
8.695894781593e-04 1.682549247342e-03 0.0 
0.0 0.0 -2.917408095836e-04 
-1.104897704515e-03 -4.845952140229e-05 0.0 
-4.845952140229e-05 6.655011128943e-03 0.0 
0.0 0.0 -9.919185416031e-04 
-1.022193057884e-03 1.318252200891e-04 0.0 
1.318252200891e-04 7.257050403107e-03 0.0 
0.0 0.0 -1.173906618061e-03 
-1.179945511942e-03 3.471716249997e-04 0.0 
3.471716249997e-04 7.305593288174e-03 0.0 
0.0 0.0 -1.096489272820e-03 
-5.875834666640e-04 2.546818746217e-04 0.0 
2.546818746217e-04 5.224796690614e-03 0.0 
0.0 0.0 -9.297700869391e-04 
-2.515263867691e-04 -2.254429621664e-04 0.0 
-2.254429621664e-04 3.754254559254e-03 0.0 
0.0 0.0 -7.325247082200e-04 
-9.641389493889e-04 -2.217264104135e-04 0.0 
-2.217264104135e-04 5.113633075458e-03 0.0 
0.0 0.0 -8.069452076110e-04 
4.285236195004e-04 1.396212384085e-04 0.0 
1.396212384085e-04 -1.219952762883e-04 0.0 
0.0 0.0 -1.313692899480e-04 
-1.204146700831e-03 3.439641556613e-04 0.0 
3.439641556613e-04 7.554548687955e-03 0.0 
0.0 0.0 -1.132911322290e-03 
-6.253175333027e-04 -2.826075305287e-05 0.0 
-2.826075305287e-05 2.680000675139e-03 0.0 
0.0 0.0 -4.309687334850e-04 
-5.749579867921e-04 6.771703350766e-04 0.0 
6.771703350766e-04 2.115308728038e-03 0.0 
0.0 0.0 -3.582286249851e-04 
-9.529535044554e-04 3.072244071368e-04 0.0 
3.072244071368e-04 6.570888144221e-03 0.0 
0.0 0.0 -1.054483161448e-03 
-1.255167442230e-03 3.201007171124e-04 0.0 
3.201007171124e-04 8.070344212991e-03 0.0 
0.0 0.0 -1.206783194404e-03 
-8.215496895040e-05 -1.772999525451e-03 0.0 
-1.772999525451e-03 1.193950944070e-03 0.0 
0.0 0.0 -3.966701258844e-04 
-7.833558623484e-04 4.482971625863e-04 0.0 
4.482971625863e-04 5.133302818514e-03 0.0 
0.0 0.0 -8.358581584049e-04 
-1.123137751770e-03 3.572847673877e-04 0.0 
3.572847673877e-04 6.794615582447e-03 0.0 
0.0 0.0 -1.023814440555e-03 
-8.765385540671e-04 -7.492880491734e-04 0.0 
-7.492880491734e-04 4.884441485584e-03 0.0 
0.0 0.0 -7.840072721007e-04 
2.874574446344e-04 -1.091275984428e-03 0.0 
-1.091275984428e-03 9.021895657290e-04 0.0 
0.0 0.0 -4.027365510179e-04 
-3.368056399330e-04 1.320783307670e-03 0.0 
1.320783307670e-03 2.512908282168e-03 0.0 
0.0 0.0 -5.292697486782e-04 
-2.272190685037e-04 -1.261695231052e-03 0.0 
-1.261695231052e-03 1.204255834380e-03 0.0 
0.0 0.0 -3.563018015714e-04 
-5.481856080809e-06 -1.360265015014e-03 0.0 
-1.360265015014e-03 1.114057395476e-03 0.0 
0.0 0.0 -3.608158092454e-04 
-1.672715856143e-04 -1.512279546231e-03 0.0 
-1.512279546231e-03 1.180506359655e-03 0.0 
0.0 0.0 -3.382523083772e-04 
-4.805060594133e-04 2.668098062439e-04 0.0 
2.668098062439e-04 4.715407643663e-03 0.0 
0.0 0.0 -8.647910268431e-04 
-1.323581223665e-03 3.388354907586e-04 0.0 
3.388354907586e-04 9.015003947055e-03 0.0 
0.0 0.0 -1.324146187826e-03 
-6.144383844702e-04 5.601929244688e-04 0.0 
5.601929244688e-04 2.582601934857e-03 0.0 
0.0 0.0 -4.244337567297e-04 
-1.156564282164e-03 -1.287267705775e-04 0.0 
-1.287267705775e-04 7.284536477905e-03 0.0 
0.0 0.0 -1.153422328581e-03 
-1.335800596959e-04 5.879693086389e-04 0.0 
5.879693086389e-04 2.932124141139e-03 0.0 
0.0 0.0 -6.430507458085e-04 
-1.103593163525e-03 -2.311027910085e-05 0.0 
-2.311027910085e-05 6.594057391582e-03 0.0 
0.0 0.0 -9.856407671940e-04 
6.097401795475e-04 2.716157955159e-04 0.0 
2.716157955159e-04 -1.627804699296e-04 0.0 
0.0 0.0 -1.915541612648e-04 
-1.121189365028e-03 -4.313739104837e-04 0.0 
-4.313739104837e-04 7.519397857683e-03 0.0 
0.0 0.0 -1.206759618350e-03 
-1.369628119913e-04 -1.636536330447e-03 0.0 
-1.636536330447e-03 1.233538073419e-03 0.0 
0.0 0.0 -4.045577262616e-04 
-7.109907021558e-04 -5.092194229215e-05 0.0 
-5.092194229215e-05 3.143336407810e-03 0.0 
0.0 0.0 -4.995972236199e-04 
-7.610689947692e-04 3.254275537369e-04 0.0 
3.254275537369e-04 6.017676875730e-03 0.0 
0.0 0.0 -1.031547093314e-03 
-5.009347095537e-04 -8.784504666191e-04 0.0 
-8.784504666191e-04 4.097798542798e-03 0.0 
0.0 0.0 -7.436172176343e-04 
-9.490922030985e-04 8.355820245775e-05 0.0 
8.355820245775e-05 6.977686204134e-03 0.0 
0.0 0.0 -1.139062866688e-03 
-5.334594474911e-04 7.731459396832e-04 0.0 
7.731459396832e-04 3.293236008727e-03 0.0 
0.0 0.0 -5.762899171568e-04 
-1.157169932203e-03 5.876132975745e-05 0.0 
5.876132975745e-05 6.976179943537e-03 0.0 
0.0 0.0 -1.044446328659e-03 
-1.026845760321e-03 3.718808168871e-04 0.0 
3.718808168871e-04 7.294887320679e-03 0.0 
0.0 0.0 -1.198892520503e-03 
-1.098955546930e-03 3.331596057930e-04 0.0 
3.331596057930e-04 6.603659082882e-03 0.0 
0.0 0.0 -9.940794652285e-04 
-1.269540035819e-03 1.940023298487e-04 0.0 
1.940023298487e-04 7.944098741491e-03 0.0 
0.0 0.0 -1.194784139986e-03 
-1.184726223875e-03 -2.348624992813e-06 0.0 
-2.348624992813e-06 7.294407597930e-03 0.0 
0.0 0.0 -1.087318097122e-03 
-1.210012004909e-03 2.996776911562e-05 0.0 
2.996776911562e-05 7.486490191622e-03 0.0 
0.0 0.0 -1.116677092124e-03 
1.863822195981e-04 1.500592688013e-03 0.0 
1.500592688013e-03 6.610975863953e-04 0.0 
0.0 0.0 -3.632056311400e-04 
-1.142912226621e-03 -1.436249115933e-04 0.0 
-1.436249115933e-04 7.061947710655e-03 0.0 
0.0 0.0 -1.115908039155e-03 
-1.147672819159e-03 3.821528619329e-04 0.0 
3.821528619329e-04 6.988478452450e-03 0.0 
0.0 0.0 -1.053364550114e-03 
-4.264879333549e-04 6.971974912426e-04 0.0 
6.971974912426e-04 4.141626674137e-03 0.0 
0.0 0.0 -7.792489223127e-04 
-6.776919640089e-04 4.847017937331e-04 0.0 
4.847017937331e-04 3.056038122043e-03 0.0 
0.0 0.0 -4.908673385051e-04 
-1.078927379078e-03 1.409149927546e-05 0.0 
1.409149927546e-05 7.640444635147e-03 0.0 
0.0 0.0 -1.232292820449e-03 
3.227356576489e-04 7.350862602758e-04 0.0 
7.350862602758e-04 8.113095771019e-04 0.0 
0.0 0.0 -4.142712813041e-04 
-6.537509052586e-04 -4.383754105270e-04 0.0 
-4.383754105270e-04 2.983336896445e-03 0.0 
0.0 0.0 -4.655197245388e-04 
-9.005107576278e-04 4.600258062660e-04 0.0 
4.600258062660e-04 6.613923225017e-03 0.0 
0.0 0.0 -1.105063927110e-03 
-3.654007350969e-04 -1.479495410984e-04 0.0 
-1.479495410984e-04 1.815899396191e-03 0.0 
0.0 0.0 -2.939799329518e-04 
-5.977371900919e-04 5.010127079244e-04 0.0 
5.010127079244e-04 4.620714897895e-03 0.0 
0.0 0.0 -7.924235178053e-04 
-8.040024099011e-04 2.359492841355e-04 0.0 
2.359492841355e-04 6.229578808837e-03 0.0 
0.0 0.0 -1.059843925468e-03 
-1.255635553756e-03 7.173795077007e-05 0.0 
7.173795077007e-05 7.907591642771e-03 0.0 
0.0 0.0 -1.181155146799e-03 
-1.282202030770e-03 1.124926252761e-04 0.0 
1.124926252761e-04 8.112071435222e-03 0.0 
0.0 0.0 -1.210943746944e-03 
-7.487229487199e-04 -1.168956266195e-04 0.0 
-1.168956266195e-04 6.087931342050e-03 0.0 
0.0 0.0 -1.028825005900e-03 
-1.212248021085e-03 -1.436521725135e-05 0.0 
-1.436521725135e-05 7.552882477900e-03 0.0 
0.0 0.0 -1.123737208958e-03 
-2.386760142168e-04 7.145577053840e-04 0.0 
7.145577053840e-04 3.288051445445e-03 0.0 
0.0 0.0 -6.793824814286e-04 
-1.022910334669e-03 3.054988306638e-04 0.0 
3.054988306638e-04 6.728691543712e-03 0.0 
0.0 0.0 -1.062452857821e-03 
-7.369445152822e-04 4.219749857923e-04 0.0 
4.219749857923e-04 3.529735228100e-03 0.0 
0.0 0.0 -5.576509564599e-04 
-1.225600923705e-03 6.150358502408e-04 0.0 
6.150358502408e-04 7.637406645108e-03 0.0 
0.0 0.0 -1.181751882508e-03 
-8.003950005641e-04 3.733577663785e-04 0.0 
3.733577663785e-04 4.007249233080e-03 0.0 
0.0 0.0 -6.243763318321e-04 
-7.858165178840e-04 3.201249060732e-04 0.0 
3.201249060732e-04 4.232155620723e-03 0.0 
0.0 0.0 -6.577503189808e-04 
-3.421685830446e-04 4.506546569180e-04 0.0 
4.506546569180e-04 3.987712693438e-03 0.0 
0.0 0.0 -7.717627972493e-04 
-8.541855867529e-04 3.616408520390e-04 0.0 
3.616408520390e-04 4.495910448337e-03 0.0 
0.0 0.0 -6.911701761307e-04 
-6.466553023066e-04 3.566499724765e-04 0.0 
3.566499724765e-04 5.190189138744e-03 0.0 
0.0 0.0 -8.833033330409e-04 
-4.075558796588e-04 5.082935923898e-04 0.0 
5.082935923898e-04 3.946901844573e-03 0.0 
0.0 0.0 -7.209687761305e-04 
-3.183347553168e-04 -3.900876355230e-04 0.0 
-3.900876355230e-04 3.990865140146e-03 0.0 
0.0 0.0 -7.606211034647e-04 
4.197691498195e-04 -7.924817374046e-04 0.0 
-7.924817374046e-04 5.841418248199e-04 0.0 
0.0 0.0 -3.925496596906e-04 
-2.632176995851e-04 3.130804871778e-04 0.0 
3.130804871778e-04 3.673894068274e-03 0.0 
0.0 0.0 -7.353490689725e-04 
-1.228427596361e-03 3.654441690398e-04 0.0 
3.654441690398e-04 7.753036613507e-03 0.0 
0.0 0.0 -1.162517914204e-03 
-1.234586540092e-03 6.496817172604e-04 0.0 
6.496817172604e-04 7.840810725913e-03 0.0 
0.0 0.0 -1.195263893373e-03 
-1.079254607357e-03 -1.716834017040e-04 0.0 
-1.716834017040e-04 6.610697418479e-03 0.0 
0.0 0.0 -1.050100468764e-03 
-9.999924356562e-04 4.337068162590e-04 0.0 
4.337068162590e-04 7.101876474641e-03 0.0 
0.0 0.0 -1.170266998156e-03 
-4.393592797757e-04 -4.178536690016e-04 0.0 
-4.178536690016e-04 4.023524415681e-03 0.0 
0.0 0.0 -7.463264885205e-04 
-1.196792592392e-03 4.110574340668e-04 0.0 
4.110574340668e-04 7.430663622206e-03 0.0 
0.0 0.0 -1.119019617531e-03 
-3.103812770642e-04 1.366237006987e-04 0.0 
1.366237006987e-04 3.912213435347e-03 0.0 
0.0 0.0 -7.634232545038e-04 
-1.186941185396e-03 -1.093564622626e-04 0.0 
-1.093564622626e-04 7.299889317220e-03 0.0 
0.0 0.0 -1.144395376583e-03 
-1.175446045210e-03 3.743988593539e-04 0.0 
3.743988593539e-04 7.239811730626e-03 0.0 
0.0 0.0 -1.089631904438e-03 
-1.184480952279e-03 4.301367348574e-05 0.0 
4.301367348574e-05 7.231184503722e-03 0.0 
0.0 0.0 -1.080451501872e-03 
-6.366755747078e-04 1.541674785508e-04 0.0 
1.541674785508e-04 5.452650900242e-03 0.0 
0.0 0.0 -9.580909834143e-04 
-2.389238927474e-04 5.103421139426e-04 0.0 
5.103421139426e-04 3.464348160629e-03 0.0 
0.0 0.0 -7.073300717972e-04 
-1.091479932409e-03 3.053404772209e-04 0.0 
3.053404772209e-04 7.161436277653e-03 0.0 
0.0 0.0 -1.126038590206e-03 
-9.842000416471e-04 6.396846099915e-04 0.0 
6.396846099915e-04 5.813603015757e-03 0.0 
0.0 0.0 -9.169694165663e-04 
1.883793847700e-04 -1.613056327393e-03 0.0 
-1.613056327393e-03 7.099727485344e-04 0.0 
0.0 0.0 -3.670597958229e-04 
4.158840995285e-04 -1.069455846307e-04 0.0 
-1.069455846307e-04 9.093131002263e-04 0.0 
0.0 0.0 -4.209936697170e-04 
-5.253520320544e-04 1.113226159763e-03 0.0 
1.113226159763e-03 3.274387380493e-03 0.0 
0.0 0.0 -6.061407060701e-04 
-8.148800044768e-04 7.943320417803e-04 0.0 
7.943320417803e-04 5.072587073095e-03 0.0 
0.0 0.0 -8.384786063130e-04 
-1.230266496445e-03 -6.856974243120e-05 0.0 
-6.856974243120e-05 7.537797729461e-03 0.0 
0.0 0.0 -1.173545322487e-03 
-1.159784806983e-03 4.546774843700e-06 0.0 
4.546774843700e-06 7.042624556690e-03 0.0 
0.0 0.0 -1.051102540299e-03 
-2.045778073669e-04 -2.934353049160e-05 0.0 
-2.934353049160e-05 3.544788899175e-03 0.0 
0.0 0.0 -7.045205360201e-04 
-9.013823451461e-04 3.641498331546e-04 0.0 
3.641498331546e-04 5.853350218943e-03 0.0 
0.0 0.0 -9.344940742331e-04 
-8.532834150584e-04 1.785665259931e-04 0.0 
1.785665259931e-04 6.467721788847e-03 0.0 
0.0 0.0 -1.088599101970e-03 
-1.213199839846e-03 -4.701032574329e-05 0.0 
-4.701032574329e-05 7.611187462875e-03 0.0 
0.0 0.0 -1.130578931274e-03 
-1.163123546776e-03 3.469650352866e-04 0.0 
3.469650352866e-04 7.457428311297e-03 0.0 
0.0 0.0 -1.160781586281e-03 
-1.064121038643e-03 3.592685452389e-04 0.0 
3.592685452389e-04 6.295822569873e-03 0.0 
0.0 0.0 -9.517943393003e-04 
-9.431187375283e-04 -8.030312093776e-06 0.0 
-8.030312093776e-06 6.723807310886e-03 0.0 
0.0 0.0 -1.113435711030e-03 
-3.640285380993e-04 -2.251334255899e-04 0.0 
-2.251334255899e-04 4.276860424883e-03 0.0 
0.0 0.0 -7.971871449874e-04 
-8.575470034421e-04 -2.591277644309e-04 0.0 
-2.591277644309e-04 6.522660233149e-03 0.0 
0.0 0.0 -1.086118700983e-03 
-6.488096190532e-04 8.782975641900e-04 0.0 
8.782975641900e-04 4.555098411154e-03 0.0 
0.0 0.0 -7.951163407912e-04 
-1.259477151619e-03 2.377000778179e-05 0.0 
2.377000778179e-05 7.994105241717e-03 0.0 
0.0 0.0 -1.188704642750e-03 
-1.188566355983e-03 2.821785558319e-04 0.0 
2.821785558319e-04 7.789552889991e-03 0.0 
0.0 0.0 -1.200489323427e-03 
-5.291595357548e-04 1.464001696405e-04 0.0 
1.464001696405e-04 4.944674619640e-03 0.0 
0.0 0.0 -8.929891684399e-04 
5.077877396978e-04 3.026021049410e-04 0.0 
3.026021049410e-04 3.943566526323e-04 0.0 
0.0 0.0 -3.866333109986e-04 
-9.967575789130e-04 6.124990556396e-04 0.0 
6.124990556396e-04 6.815699392306e-03 0.0 
0.0 0.0 -1.113685640909e-03 
-6.605390437865e-04 4.261094964972e-04 0.0 
4.261094964972e-04 5.059149157301e-03 0.0 
0.0 0.0 -8.555605426019e-04 
-1.830081198130e-04 1.866635750844e-04 0.0 
1.866635750844e-04 3.368216116446e-03 0.0 
0.0 0.0 -6.765734244908e-04 
-5.817203437328e-04 -2.125841840423e-04 0.0 
-2.125841840423e-04 5.299242741235e-03 0.0 
0.0 0.0 -9.269463096178e-04 
-9.296871453603e-04 -5.069518437094e-04 0.0 
-5.069518437094e-04 6.554705833196e-03 0.0 
0.0 0.0 -1.072977024862e-03 
5.145493605139e-04 -6.481882605914e-04 0.0 
-6.481882605914e-04 5.138628621790e-04 0.0 
0.0 0.0 -3.958212347391e-04 
-4.207868633399e-04 1.388755270071e-04 0.0 
1.388755270071e-04 4.431893145968e-03 0.0 
0.0 0.0 -8.281205301186e-04 
-1.057518774056e-03 5.392644449481e-04 0.0 
5.392644449481e-04 6.206831668111e-03 0.0 
0.0 0.0 -9.596127204057e-04 
-1.238644968873e-03 -4.648423040969e-04 0.0 
-4.648423040969e-04 7.603472997752e-03 0.0 
0.0 0.0 -1.170838755190e-03 
-1.067041670428e-03 5.715302009941e-04 0.0 
5.715302009941e-04 6.356528225694e-03 0.0 
0.0 0.0 -9.876491701491e-04 
-9.841945622355e-04 6.610492595006e-04 0.0 
6.610492595006e-04 6.661208694162e-03 0.0 
0.0 0.0 -1.085374163265e-03 
-1.045085745863e-03 5.003784013052e-04 0.0 
5.003784013052e-04 6.049842854282e-03 0.0 
0.0 0.0 -9.316602363005e-04 
-1.022837492668e-03 4.381275546802e-04 0.0 
4.381275546802e-04 5.716010034056e-03 0.0 
0.0 0.0 -8.756372412555e-04 
-9.850681647526e-04 6.675723233926e-04 0.0 
6.675723233926e-04 5.952563133260e-03 0.0 
0.0 0.0 -9.447135688329e-04 
-9.326630633240e-04 3.930283305116e-04 0.0 
3.930283305116e-04 6.810995827980e-03 0.0 
0.0 0.0 -1.133505030480e-03 
-1.106660061021e-03 -5.521563816417e-04 0.0 
-5.521563816417e-04 6.894855264338e-03 0.0 
0.0 0.0 -1.084522140297e-03 
-1.120799229937e-03 3.838899692646e-04 0.0 
3.838899692646e-04 6.737454909863e-03 0.0 
0.0 0.0 -1.017300281410e-03 
-1.265839226480e-03 4.523982644349e-04 0.0 
4.523982644349e-04 8.063487692737e-03 0.0 
0.0 0.0 -1.212886757924e-03 
-1.030324522425e-03 4.628372417255e-04 0.0 
4.628372417255e-04 5.887641382241e-03 0.0 
0.0 0.0 -9.037302385344e-04 
2.653135269755e-05 8.001600084414e-05 0.0 
8.001600084414e-05 2.476344782206e-03 0.0 
0.0 0.0 -5.760585567884e-04 
-1.044239643313e-03 2.376498451470e-04 0.0 
2.376498451470e-04 7.187723140536e-03 0.0 
0.0 0.0 -1.146733564437e-03 
-1.253924981079e-03 -4.907598213233e-05 0.0 
-4.907598213233e-05 8.057805599269e-03 0.0 
0.0 0.0 -1.196744929305e-03 
-5.355464959753e-04 8.349410411799e-04 0.0 
8.349410411799e-04 4.335085481445e-03 0.0 
0.0 0.0 -7.869228524964e-04 
-6.233378135021e-04 8.291713004523e-04 0.0 
8.291713004523e-04 4.669146782253e-03 0.0 
0.0 0.0 -8.226527892688e-04 
-9.042297380502e-05 1.578503348626e-05 0.0 
1.578503348626e-05 3.015977975308e-03 0.0 
0.0 0.0 -6.402419685743e-04 
-1.145557266538e-03 4.246140586136e-04 0.0 
4.246140586136e-04 6.921583184568e-03 0.0 
0.0 0.0 -1.046609947212e-03 
-6.981713726155e-04 9.056832497172e-04 0.0 
9.056832497172e-04 3.852457966674e-03 0.0 
0.0 0.0 -6.500746975200e-04 
-6.825381544126e-04 6.942299752500e-04 0.0 
6.942299752500e-04 5.269578602974e-03 0.0 
0.0 0.0 -9.137630964162e-04 
-6.717413934869e-04 5.961928435860e-04 0.0 
5.961928435860e-04 3.907642713709e-03 0.0 
0.0 0.0 -6.476280927198e-04 
-8.299310340804e-04 4.003109170218e-04 0.0 
4.003109170218e-04 6.314977660297e-03 0.0 
0.0 0.0 -1.068254633495e-03 
-1.134995185088e-03 2.756692802088e-04 0.0 
2.756692802088e-04 7.594750376581e-03 0.0 
0.0 0.0 -1.211228670573e-03 
-1.360533559688e-04 -2.215574873168e-04 0.0 
-2.215574873168e-04 3.223027219763e-03 0.0 
0.0 0.0 -6.682047883386e-04 
4.373904628404e-04 -2.393257178328e-04 0.0 
-2.393257178328e-04 -1.132865459339e-04 0.0 
0.0 0.0 -1.389016786742e-04 
-1.258599255868e-03 5.175436206336e-04 0.0 
5.175436206336e-04 7.974357198458e-03 0.0 
0.0 0.0 -1.207184308065e-03 
-7.509449296831e-04 8.117398232865e-04 0.0 
8.117398232865e-04 4.141196512392e-03 0.0 
0.0 0.0 -6.853381776776e-04 
-4.357225566231e-04 -2.745654093134e-04 0.0 
-2.745654093134e-04 4.218247831069e-03 0.0 
0.0 0.0 -7.828151049093e-04 
-1.060590658414e-03 6.112856710438e-04 0.0 
6.112856710438e-04 7.289270463529e-03 0.0 
0.0 0.0 -1.177925372349e-03 
-1.133119087327e-03 1.716253131945e-05 0.0 
1.716253131945e-05 6.790529249754e-03 0.0 
0.0 0.0 -1.015069748350e-03 
-1.047918274143e-03 -5.722033483047e-04 0.0 
-5.722033483047e-04 6.640384232333e-03 0.0 
0.0 0.0 -1.055879354346e-03 
-3.002045645479e-04 4.799822856897e-04 0.0 
4.799822856897e-04 3.594772661625e-03 0.0 
0.0 0.0 -6.851017020021e-04 
1.437633437549e-04 -1.583243096343e-05 0.0 
-1.583243096343e-05 -4.287346076812e-05 0.0 
0.0 0.0 -4.323852128003e-05 
-1.294332022630e-03 -4.590388614896e-04 0.0 
-4.590388614896e-04 7.891763322768e-03 0.0 
0.0 0.0 -1.202131160132e-03 
-7.979241755136e-04 7.967983468878e-04 0.0 
7.967983468878e-04 5.189819245057e-03 0.0 
0.0 0.0 -8.660506973337e-04 
-7.515738742409e-04 1.099645178349e-04 0.0 
1.099645178349e-04 5.981619188890e-03 0.0 
0.0 0.0 -1.007142642412e-03 
-1.115772722662e-03 6.613759768766e-04 0.0 
6.613759768766e-04 7.287802445254e-03 0.0 
0.0 0.0 -1.157822513452e-03 
0.0 0.0 0.0 
0.0 0.0 0.0 
0.0 0.0 0.0 
-1.020410346766e-03 -1.741879484343e-04 0.0 
-1.741879484343e-04 6.569036879710e-03 0.0 
0.0 0.0 -1.058763633038e-03 
-1.044584882710e-04 9.374141262810e-04 0.0 
9.374141262810e-04 2.179572843365e-03 0.0 
0.0 0.0 -4.919579008500e-04 
-1.074016419554e-03 -9.865194451983e-06 0.0 
-9.865194451983e-06 6.344021920267e-03 0.0 
0.0 0.0 -9.498437721210e-04 
-9.305727240655e-04 -6.933921297842e-04 0.0 
-6.933921297842e-04 5.329347824549e-03 0.0 
0.0 0.0 -8.496012432876e-04 
-1.513106441093e-04 3.496683072490e-04 0.0 
3.496683072490e-04 3.137268859880e-03 0.0 
0.0 0.0 -6.709551114794e-04 
-1.200608795278e-03 -4.872905826385e-04 0.0 
-4.872905826385e-04 7.367763642178e-03 0.0 
0.0 0.0 -1.141635569211e-03 
-6.896908437113e-04 7.588366273899e-04 0.0 
7.588366273899e-04 5.123258515759e-03 0.0 
0.0 0.0 -8.859145181037e-04 
-3.682506920307e-05 4.047925217802e-04 0.0 
4.047925217802e-04 2.589749957424e-03 0.0 
0.0 0.0 -6.067458373204e-04 
-8.340011645670e-04 4.008480374015e-04 0.0 
4.008480374015e-04 5.557081142302e-03 0.0 
0.0 0.0 -8.989548790023e-04 
3.022096838876e-04 -3.038195152345e-04 0.0 
-3.038195152345e-04 -5.124151784209e-05 0.0 
0.0 0.0 -1.075577854481e-04 
-9.546355211556e-04 3.234338831530e-04 0.0 
3.234338831530e-04 6.429567223705e-03 0.0 
0.0 0.0 -1.026417656363e-03 
-8.158927749848e-04 -3.909777349409e-05 0.0 
-3.909777349409e-05 6.386420010715e-03 0.0 
0.0 0.0 -1.065496432940e-03 
-1.247055565640e-03 3.319997532961e-04 0.0 
3.319997532961e-04 7.921779384989e-03 0.0 
0.0 0.0 -1.233600908384e-03 
-1.025284337354e-03 2.945178670449e-04 0.0 
2.945178670449e-04 6.877652576001e-03 0.0 
0.0 0.0 -1.090749533212e-03 
2.434503745851e-04 -1.578934998957e-04 0.0 
-1.578934998957e-04 1.529841444305e-03 0.0 
0.0 0.0 -4.758149136988e-04 
-1.100855494631e-03 -5.513580386133e-04 0.0 
-5.513580386133e-04 6.680884096093e-03 0.0 
0.0 0.0 -1.047231727503e-03 
-1.252169978070e-03 3.748871630309e-04 0.0 
3.748871630309e-04 8.183246127380e-03 0.0 
0.0 0.0 -1.228155452712e-03 
-1.172998084832e-03 8.287498321717e-05 0.0 
8.287498321717e-05 7.902166307926e-03 0.0 
0.0 0.0 -1.267145247477e-03 
-8.845763971731e-04 3.343706134048e-05 0.0 
3.343706134048e-05 6.685188464531e-03 0.0 
0.0 0.0 -1.102242875413e-03 
-2.824655770355e-04 3.019818645340e-04 0.0 
3.019818645340e-04 3.719180698001e-03 0.0 
0.0 0.0 -7.127912709901e-04 
-8.914221389397e-04 3.576211756874e-04 0.0 
3.576211756874e-04 5.989320852496e-03 0.0 
0.0 0.0 -9.624716764950e-04 
-1.265622827008e-03 -3.602381928261e-05 0.0 
-3.602381928261e-05 7.525688479598e-03 0.0 
0.0 0.0 -1.164316760544e-03 
-1.026823558190e-03 -3.127358117122e-04 0.0 
-3.127358117122e-04 5.188290229651e-03 0.0 
0.0 0.0 -7.878971455476e-04 
-9.790335059978e-04 6.764140397440e-04 0.0 
6.764140397440e-04 6.506573428341e-03 0.0 
0.0 0.0 -1.057196955382e-03 
-1.092783271967e-03 3.587775336083e-04 0.0 
3.587775336083e-04 6.543365283594e-03 0.0 
0.0 0.0 -9.877098122506e-04 
-1.155871143424e-03 -5.200772835953e-04 0.0 
-5.200772835953e-04 7.131963810306e-03 0.0 
0.0 0.0 -1.112977059762e-03 
-1.053791982519e-03 -5.418051239347e-04 0.0 
-5.418051239347e-04 6.849369446006e-03 0.0 
0.0 0.0 -1.093234982489e-03 
-8.344751970142e-04 -5.063632387036e-06 0.0 
-5.063632387036e-06 4.624983012521e-03 0.0 
0.0 0.0 -7.313513689239e-04 
-8.293658591313e-04 3.666703434100e-05 0.0 
3.666703434100e-05 4.623218336322e-03 0.0 
0.0 0.0 -7.310574395863e-04 
-1.097030069405e-03 1.613810298079e-04 0.0 
1.613810298079e-04 6.539696336596e-03 0.0 
0.0 0.0 -9.927888931629e-04 
-9.125545325387e-04 7.100995827850e-04 0.0 
7.100995827850e-04 6.060357295598e-03 0.0 
0.0 0.0 -9.930598132463e-04 
-9.889474269995e-04 -6.231936758992e-04 0.0 
-6.231936758992e-04 5.582412655685e-03 0.0 
0.0 0.0 -8.780428295617e-04 
-1.024071250989e-03 2.871939654452e-04 0.0 
2.871939654452e-04 6.293682207182e-03 0.0 
0.0 0.0 -9.775429604617e-04 
-6.061110354643e-04 7.542189021973e-04 0.0 
7.542189021973e-04 4.796279324774e-03 0.0 
0.0 0.0 -8.502279965035e-04 
-1.039665177067e-03 6.008961477257e-05 0.0 
6.008961477257e-05 7.149947818513e-03 0.0 
0.0 0.0 -1.180288150054e-03 
-3.419429553987e-04 7.892463912468e-04 0.0 
7.892463912468e-04 3.645374748844e-03 0.0 
0.0 0.0 -7.154845226688e-04 
-1.354053466570e-03 2.682798114320e-04 0.0 
2.682798114320e-04 9.013564030942e-03 0.0 
0.0 0.0 -1.323793839065e-03 
-9.392924140876e-04 3.695422570173e-04 0.0 
3.695422570173e-04 5.310514062737e-03 0.0 
0.0 0.0 -8.119939454945e-04 
-5.728660710208e-04 4.262528038404e-04 0.0 
4.262528038404e-04 4.737723853376e-03 0.0 
0.0 0.0 -8.199314282332e-04 
-8.958346709753e-04 -3.297015998196e-04 0.0 
-3.297015998196e-04 5.260659561238e-03 0.0 
0.0 0.0 -8.523954645778e-04 
2.690092700999e-04 2.909500152897e-04 0.0 
2.909500152897e-04 1.354854423747e-03 0.0 
0.0 0.0 -4.479040077299e-04 
-8.117880315537e-04 -8.289707142058e-04 0.0 
-8.289707142058e-04 4.623452632362e-03 0.0 
0.0 0.0 -7.551671247638e-04 
-8.525904846397e-04 7.508503903319e-04 0.0 
7.508503903319e-04 5.621343722007e-03 0.0 
0.0 0.0 -9.293281999836e-04 
-8.758111121474e-04 7.483431883641e-04 0.0 
7.483431883641e-04 5.371889788881e-03 0.0 
0.0 0.0 -8.738309435711e-04 
-1.092742745582e-03 3.915524889603e-04 0.0 
3.915524889603e-04 6.485907170089e-03 0.0 
0.0 0.0 -9.814596669550e-04 
-1.035952161766e-03 6.611052853446e-04 0.0 
6.611052853446e-04 6.380857888035e-03 0.0 
0.0 0.0 -1.008022096355e-03 
-1.077652724168e-03 2.805726221407e-04 0.0 
2.805726221407e-04 6.715783923999e-03 0.0 
0.0 0.0 -1.040850218070e-03 
-2.023974518503e-04 -1.321133762499e-04 0.0 
-1.321133762499e-04 1.384394093772e-03 0.0 
0.0 0.0 -2.163717569139e-04 
-7.893601242255e-04 -4.562798916239e-04 0.0 
-4.562798916239e-04 4.381521976835e-03 0.0 
0.0 0.0 -7.209013985657e-04 
-7.313998078972e-04 5.086544562021e-04 0.0 
5.086544562021e-04 4.197814066076e-03 0.0 
0.0 0.0 -6.825522065409e-04 
-1.028318523239e-03 6.006171887521e-04 0.0 
6.006171887521e-04 6.085692307244e-03 0.0 
0.0 0.0 -9.521954671713e-04 
-1.067646735267e-03 2.331910673829e-04 0.0 
2.331910673829e-04 6.426373394987e-03 0.0 
0.0 0.0 -9.850634846466e-04 
-9.716546386639e-04 2.965949022534e-04 0.0 
2.965949022534e-04 6.988702290933e-03 0.0 
0.0 0.0 -1.160108757481e-03 
-4.472950566148e-04 1.734158785359e-04 0.0 
1.734158785359e-04 1.999281221139e-03 0.0 
0.0 0.0 -3.273996513303e-04 
5.013762340144e-04 -1.239269767564e-03 0.0 
-1.239269767564e-03 2.218446430556e-04 0.0 
0.0 0.0 -3.099518044586e-04 
-7.265319955109e-04 8.390462931927e-04 0.0 
8.390462931927e-04 4.877510016991e-03 0.0 
0.0 0.0 -8.305977116616e-04 
-8.244303094237e-04 -8.036957222691e-04 0.0 
-8.036957222691e-04 4.446645084886e-03 0.0 
0.0 0.0 -7.181358556540e-04 
-8.207218427826e-04 3.111449193771e-07 0.0 
3.111449193771e-07 4.297525914166e-03 0.0 
0.0 0.0 -6.554599841463e-04 
-8.454650530547e-04 2.288116945552e-05 0.0 
2.288116945552e-05 4.550895634799e-03 0.0 
0.0 0.0 -6.889204951115e-04 
-1.102411452052e-03 3.661135033764e-05 0.0 
3.661135033764e-05 6.536305471285e-03 0.0 
0.0 0.0 -9.793492904611e-04 
1.401876311920e-04 1.457319982698e-03 0.0 
1.457319982698e-03 8.276000244946e-04 0.0 
0.0 0.0 -3.371109590424e-04 
-9.056307504124e-04 -3.219601326285e-04 0.0 
-3.219601326285e-04 5.073216074597e-03 0.0 
0.0 0.0 -8.154759146177e-04 
-8.139515461008e-04 -3.444279104294e-04 0.0 
-3.444279104294e-04 6.262709696181e-03 0.0 
0.0 0.0 -1.049209916622e-03 
5.784646720155e-04 -2.798136268851e-04 0.0 
-2.798136268851e-04 4.491531344292e-05 0.0 
0.0 0.0 -2.671628509107e-04 
-1.269607203850e-03 4.300111845681e-04 0.0 
4.300111845681e-04 8.005085435650e-03 0.0 
0.0 0.0 -1.285586381397e-03 
-1.234701409080e-03 4.026661623699e-05 0.0 
4.026661623699e-05 7.724712803764e-03 0.0 
0.0 0.0 -1.152455342817e-03 
-9.332307083252e-04 -6.317385210980e-04 0.0 
-6.317385210980e-04 4.943755293323e-03 0.0 
0.0 0.0 -7.756113943005e-04 
-1.132361128818e-03 -1.347962173953e-04 0.0 
-1.347962173953e-04 6.852501733015e-03 0.0 
0.0 0.0 -1.078722419643e-03 
-1.782286125890e-04 -3.440225614963e-05 0.0 
-3.440225614963e-05 7.356149739106e-04 0.0 
0.0 0.0 -1.797547709840e-04 
-7.836878423569e-04 -4.420353483476e-04 0.0 
-4.420353483476e-04 6.015976224596e-03 0.0 
0.0 0.0 -1.012471576362e-03 
-7.618878641414e-04 4.386001518409e-04 0.0 
4.386001518409e-04 5.252415903850e-03 0.0 
0.0 0.0 -8.634366945984e-04 
-1.365202202974e-04 -1.663937919944e-05 0.0 
-1.663937919944e-05 7.240163383166e-04 0.0 
0.0 0.0 -1.788519809851e-04 
-1.221296204116e-03 3.897303876191e-04 0.0 
3.897303876191e-04 7.675470665632e-03 0.0 
0.0 0.0 -1.154859126927e-03 
6.541694671517e-04 -5.838497479074e-04 0.0 
-5.838497479074e-04 -1.165985658389e-04 0.0 
0.0 0.0 -2.303875291341e-04 
-1.022773715161e-03 2.649419741860e-04 0.0 
2.649419741860e-04 6.147018606592e-03 0.0 
0.0 0.0 -9.496453321265e-04 
-8.501477431051e-04 4.017489682252e-04 0.0 
4.017489682252e-04 5.430956065029e-03 0.0 
0.0 0.0 -8.712718144564e-04 
-3.870813166907e-04 -6.841434598879e-04 0.0 
-6.841434598879e-04 4.009053170529e-03 0.0 
0.0 0.0 -7.519815330289e-04 
-7.080628147866e-04 -2.630245850535e-04 0.0 
-2.630245850535e-04 5.293137348391e-03 0.0 
0.0 0.0 -9.052548162676e-04 
-1.248469741651e-03 4.216386458729e-04 0.0 
4.216386458729e-04 7.872413297340e-03 0.0 
0.0 0.0 -1.182898372388e-03 
-7.959805508824e-04 -1.903636579771e-04 0.0 
-1.903636579771e-04 5.775075989453e-03 0.0 
0.0 0.0 -9.716005391689e-04 
-7.058567601375e-04 8.071090420181e-04 0.0 
8.071090420181e-04 4.993912000440e-03 0.0 
0.0 0.0 -8.581765416018e-04 
-6.834773769761e-04 4.720321187624e-04 0.0 
4.720321187624e-04 4.941232986507e-03 0.0 
0.0 0.0 -8.279616112547e-04 
1.200725464497e-05 4.997720012563e-04 0.0 
4.997720012563e-04 2.980647594779e-04 0.0 
0.0 0.0 -1.328880060527e-04 
5.267325684764e-04 -1.507976047628e-04 0.0 
-1.507976047628e-04 -1.515568147922e-04 0.0 
0.0 0.0 -1.607896087218e-04 
-1.031637425544e-03 2.938257107745e-04 0.0 
2.938257107745e-04 7.016823171402e-03 0.0 
0.0 0.0 -1.118331045454e-03 
-1.047581819557e-03 3.855603907834e-05 0.0 
3.855603907834e-05 6.024362043911e-03 0.0 
0.0 0.0 -9.085367473448e-04 
-1.068580773740e-03 6.289177231850e-04 0.0 
6.289177231850e-04 7.124997701846e-03 0.0 
0.0 0.0 -1.148691026115e-03 
-2.168784888490e-04 1.398227562360e-03 0.0 
1.398227562360e-03 2.112550911132e-03 0.0 
0.0 0.0 -4.942977111402e-04 
-1.176051745943e-03 5.435901405529e-04 0.0 
5.435901405529e-04 7.176283028080e-03 0.0 
0.0 0.0 -1.097950598811e-03 
-1.105546950119e-03 2.883637130323e-04 0.0 
2.883637130323e-04 7.335184708628e-03 0.0 
0.0 0.0 -1.155407764312e-03 
-8.481473499091e-04 3.802854440166e-04 0.0 
3.802854440166e-04 4.634623972028e-03 0.0 
0.0 0.0 -7.179420443741e-04 
-1.053414342459e-03 6.334862389143e-04 0.0 
6.334862389143e-04 6.950110385841e-03 0.0 
0.0 0.0 -1.120992621467e-03 
-1.150488405997e-03 -5.115596481821e-04 0.0 
-5.115596481821e-04 6.921289775542e-03 0.0 
0.0 0.0 -1.075946734593e-03 
-8.430169137080e-04 7.309466471044e-04 0.0 
7.309466471044e-04 5.750606817071e-03 0.0 
0.0 0.0 -9.571162043194e-04 
-8.407412319889e-04 -3.923326874810e-04 0.0 
-3.923326874810e-04 4.820090656330e-03 0.0 
0.0 0.0 -7.866383436874e-04 
-8.661293961769e-04 -7.636305903076e-04 0.0 
-7.636305903076e-04 5.068827859701e-03 0.0 
0.0 0.0 -8.209012074946e-04 
-1.276631957823e-03 1.351613779989e-04 0.0 
1.351613779989e-04 8.067600813718e-03 0.0 
0.0 0.0 -1.204704583718e-03 
-6.220699559740e-04 -3.467517458205e-04 0.0 
-3.467517458205e-04 4.812375804049e-03 0.0 
0.0 0.0 -8.396599866114e-04 
-8.640312315529e-04 7.564773801915e-04 0.0 
7.564773801915e-04 5.496513579944e-03 0.0 
0.0 0.0 -9.015555482168e-04 
-5.139647083066e-04 6.286602551559e-04 0.0 
6.286602551559e-04 4.638431100819e-03 0.0 
0.0 0.0 -8.433600309793e-04 
-8.878790724241e-04 -1.375747034556e-04 0.0 
-1.375747034556e-04 6.258870962336e-03 0.0 
0.0 0.0 -1.038364586984e-03 
-4.800211114771e-04 4.132947089942e-04 0.0 
4.132947089942e-04 4.403087062058e-03 0.0 
0.0 0.0 -7.842421616061e-04 
1.708764263770e-04 1.828302604937e-04 0.0 
1.828302604937e-04 1.696323968062e-03 0.0 
0.0 0.0 -5.065804551108e-04 
-4.825363659521e-04 1.845931219475e-05 0.0 
1.845931219475e-05 4.680497453253e-03 0.0 
0.0 0.0 -8.561803240471e-04 
8.082119994225e-05 4.790974331332e-04 0.0 
4.790974331332e-04 2.023860804843e-03 0.0 
0.0 0.0 -5.426160209679e-04 
-1.033438603377e-03 6.383788790857e-04 0.0 
6.383788790857e-04 6.235509335954e-03 0.0 
0.0 0.0 -9.799122972177e-04 
1.114946380246e-04 -1.909482610686e-04 0.0 
-1.909482610686e-04 2.113077183239e-03 0.0 
0.0 0.0 -5.399485503623e-04 
-9.706412986079e-04 3.184758127264e-04 0.0 
3.184758127264e-04 6.013389094156e-03 0.0 
0.0 0.0 -9.420580210740e-04 
-9.265946290547e-04 -4.225709154864e-05 0.0 
-4.225709154864e-05 6.885841307398e-03 0.0 
0.0 0.0 -1.130549445556e-03 
-8.685442447111e-04 3.124266913747e-04 0.0 
3.124266913747e-04 6.514082051094e-03 0.0 
0.0 0.0 -1.096529089934e-03 
-4.417150057457e-04 8.260625217284e-04 0.0 
8.260625217284e-04 3.995231427087e-03 0.0 
0.0 0.0 -7.512528815036e-04 
-1.059191105034e-03 4.065855107728e-04 0.0 
4.065855107728e-04 6.228287830528e-03 0.0 
0.0 0.0 -9.460253849645e-04 
-1.179141908394e-03 -9.694575707592e-05 0.0 
-9.694575707592e-05 7.087490944073e-03 0.0 
0.0 0.0 -1.107441567342e-03 
-1.193835214950e-03 -4.719824871619e-04 0.0 
-4.719824871619e-04 7.155436910273e-03 0.0 
0.0 0.0 -1.104747680386e-03 
1.944125303692e-04 1.273132647232e-03 0.0 
1.273132647232e-03 5.121470870520e-04 0.0 
0.0 0.0 -3.028112646091e-04 
-9.836336619932e-04 6.878362883605e-04 0.0 
6.878362883605e-04 6.089006481299e-03 0.0 
0.0 0.0 -9.724793438395e-04 
-1.268204156625e-03 7.721982515826e-06 0.0 
7.721982515826e-06 7.786698253164e-03 0.0 
0.0 0.0 -1.205818386895e-03 
-6.870681417228e-04 7.008927199053e-04 0.0 
7.008927199053e-04 3.265237971609e-03 0.0 
0.0 0.0 -5.357889572170e-04 
-9.885170178391e-04 -5.948066208015e-04 0.0 
-5.948066208015e-04 5.380783060798e-03 0.0 
0.0 0.0 -8.409532000723e-04 
-7.799555259595e-05 6.230825562270e-04 0.0 
6.230825562270e-04 5.570487652900e-04 0.0 
0.0 0.0 -2.053085197260e-04 
-1.219579480668e-03 -6.033820998881e-05 0.0 
-6.033820998881e-05 7.313003609483e-03 0.0 
0.0 0.0 -1.136235114959e-03 
2.012100085966e-04 5.845223729044e-04 0.0 
5.845223729044e-04 1.434306137738e-03 0.0 
0.0 0.0 -4.785631936959e-04 
-1.042459381450e-03 3.192310209747e-05 0.0 
3.192310209747e-05 5.237687487302e-03 0.0 
0.0 0.0 -8.166178341775e-04 
-7.748148319910e-04 5.841265057534e-04 0.0 
5.841265057534e-04 5.931280080680e-03 0.0 
0.0 0.0 -1.008721701990e-03 
-1.070450976463e-03 4.786712554870e-05 0.0 
4.786712554870e-05 6.281594191104e-03 0.0 
0.0 0.0 -9.438854677472e-04 
-1.019990029507e-03 4.017679917675e-04 0.0 
4.017679917675e-04 5.968797618871e-03 0.0 
0.0 0.0 -9.108073647308e-04 
-7.821076712380e-04 7.813500369489e-04 0.0 
7.813500369489e-04 5.311710917371e-03 0.0 
0.0 0.0 -8.936906232635e-04 
-7.622603984916e-04 6.791341036292e-05 0.0 
6.791341036292e-05 3.813852506224e-03 0.0 
0.0 0.0 -5.884905393267e-04 
-7.846644250761e-04 7.808219167045e-05 0.0 
7.808219167045e-05 4.065403212213e-03 0.0 
0.0 0.0 -6.218825813656e-04 
-1.233191643352e-03 -4.261165376934e-04 0.0 
-4.261165376934e-04 7.382821542764e-03 0.0 
0.0 0.0 -1.133400347077e-03 
-7.515727621129e-04 -6.277168771854e-04 0.0 
-6.277168771854e-04 5.560136738189e-03 0.0 
0.0 0.0 -9.394087121358e-04 
-4.848945124793e-04 -6.056685510147e-04 0.0 
-6.056685510147e-04 4.517787566476e-03 0.0 
0.0 0.0 -8.164864906097e-04 
-7.633590365807e-04 1.747203192895e-05 0.0 
1.747203192895e-05 5.952051370355e-03 0.0 
0.0 0.0 -1.014986374720e-03 
-3.745762426959e-04 -1.208773656876e-05 0.0 
-1.208773656876e-05 4.169816033916e-03 0.0 
0.0 0.0 -7.915105747055e-04 
1.470981817100e-04 1.699633256222e-04 0.0 
1.699633256222e-04 1.922517798804e-03 0.0 
0.0 0.0 -5.119962057136e-04 
-7.251559287553e-04 3.584185138835e-04 0.0 
3.584185138835e-04 3.747261506519e-03 0.0 
0.0 0.0 -5.908395828668e-04 
-9.989176313813e-04 5.279041160422e-05 0.0 
5.279041160422e-05 5.610761613461e-03 0.0 
0.0 0.0 -8.442294783838e-04 
-8.140722277822e-04 1.153536144127e-05 0.0 
1.153536144127e-05 4.902728731460e-03 0.0 
0.0 0.0 -7.121995050294e-04 
-8.606102061483e-04 -1.123280902614e-04 0.0 
-1.123280902614e-04 6.585165240131e-03 0.0 
0.0 0.0 -1.093598669875e-03 
-3.829181500835e-04 3.755711815579e-04 0.0 
3.755711815579e-04 4.064228922124e-03 0.0 
0.0 0.0 -7.486350631497e-04 
-1.089919498544e-03 4.032533245885e-04 0.0 
4.032533245885e-04 7.584210826506e-03 0.0 
0.0 0.0 -1.233571955743e-03 
-1.258849103109e-03 1.203645015164e-04 0.0 
1.203645015164e-04 7.318640773608e-03 0.0 
0.0 0.0 -1.121177773779e-03 
-4.277541990728e-04 -3.591296022275e-04 0.0 
-3.591296022275e-04 4.511429067315e-03 0.0 
0.0 0.0 -8.252461108756e-04 
-1.288851597356e-03 -4.658297080141e-04 0.0 
-4.658297080141e-04 8.043612715449e-03 0.0 
0.0 0.0 -1.241472629463e-03 
3.242839641495e-05 -4.968694073408e-04 0.0 
-4.968694073408e-04 2.366486634827e-03 0.0 
0.0 0.0 -5.682622744621e-04 
-1.077966235092e-03 4.739436140623e-04 0.0 
4.739436140623e-04 7.389804662751e-03 0.0 
0.0 0.0 -1.204482468497e-03 
-7.429375265798e-04 4.078626067565e-04 0.0 
4.078626067565e-04 5.376339153074e-03 0.0 
0.0 0.0 -8.910665706739e-04 
-8.382327257171e-04 6.914183336446e-04 0.0 
6.914183336446e-04 5.885419181804e-03 0.0 
0.0 0.0 -9.848034212814e-04 
-9.867962554531e-04 -3.515709155634e-04 0.0 
-3.515709155634e-04 7.009894236266e-03 0.0 
0.0 0.0 -1.146785027167e-03 
-6.480751664788e-04 -1.064130565160e-03 0.0 
-1.064130565160e-03 3.485571623010e-03 0.0 
0.0 0.0 -5.958228065582e-04 
-9.264979844569e-04 7.226480241173e-04 0.0 
7.226480241173e-04 5.798649245259e-03 0.0 
0.0 0.0 -9.369464185080e-04 
-3.976862535672e-04 -5.140984221878e-04 0.0 
-5.140984221878e-04 4.248707874465e-03 0.0 
0.0 0.0 -7.886172400246e-04 
-9.126908566727e-04 3.597233129020e-04 0.0 
3.597233129020e-04 5.721921232905e-03 0.0 
0.0 0.0 -9.065670216064e-04 
-2.413614743732e-04 9.207248143764e-04 0.0 
9.207248143764e-04 2.576101931259e-03 0.0 
0.0 0.0 -5.268093404353e-04 
-8.396821970539e-04 6.672060837292e-04 0.0 
6.672060837292e-04 6.048287273264e-03 0.0 
0.0 0.0 -1.013229387512e-03 
-3.452329379355e-04 -1.792312499866e-04 0.0 
-1.792312499866e-04 3.927967745038e-03 0.0 
0.0 0.0 -7.548706880268e-04 
-9.599399109740e-04 -2.677314431030e-04 0.0 
-2.677314431030e-04 5.510906117541e-03 0.0 
0.0 0.0 -8.810281692460e-04 
-9.326422123301e-04 7.027170698306e-04 0.0 
7.027170698306e-04 5.663041666324e-03 0.0 
0.0 0.0 -9.091416541300e-04 
1.310354464969e-04 5.651438564875e-04 0.0 
5.651438564875e-04 1.741573510573e-04 0.0 
0.0 0.0 -1.307969132375e-04 
-6.049604556670e-04 5.771719455814e-04 0.0 
5.771719455814e-04 5.135535656328e-03 0.0 
0.0 0.0 -9.082496170556e-04 
-8.264119998562e-05 1.037717303205e-03 0.0 
1.037717303205e-03 8.249845298322e-04 0.0 
0.0 0.0 -3.181471413628e-04 
-3.486990110529e-04 1.618131580725e-05 0.0 
1.618131580725e-05 1.379681923450e-03 0.0 
0.0 0.0 -2.410360834028e-04 
-9.637368636999e-04 -2.534336696837e-04 0.0 
-2.534336696837e-04 5.310722216845e-03 0.0 
0.0 0.0 -8.438072171805e-04 
-1.086820871417e-03 2.926579608564e-04 0.0 
2.926579608564e-04 7.015412211803e-03 0.0 
0.0 0.0 -1.098354823938e-03 
-1.049951667635e-03 4.416530287396e-04 0.0 
4.416530287396e-04 6.131491265693e-03 0.0 
0.0 0.0 -9.387552692591e-04 
-7.056421761476e-04 1.432307568262e-04 0.0 
1.432307568262e-04 3.346065552913e-03 0.0 
0.0 0.0 -5.215302833573e-04 
-1.342322198460e-03 3.183613232645e-04 0.0 
3.183613232645e-04 8.773669276182e-03 0.0 
0.0 0.0 -1.342322198460e-03 
3.836307119602e-05 1.777435835148e-04 0.0 
1.777435835148e-04 5.796280456300e-05 0.0 
0.0 0.0 -4.128251818244e-05 
-7.274210317143e-04 1.629360554579e-04 0.0 
1.629360554579e-04 3.588533030425e-03 0.0 
0.0 0.0 -5.549805679787e-04 
-5.340066039334e-04 -2.072389055199e-04 0.0 
-2.072389055199e-04 4.712236291548e-03 0.0 
0.0 0.0 -8.472740691906e-04 
-9.827474692013e-04 -5.565690633406e-04 0.0 
-5.565690633406e-04 5.178751046310e-03 0.0 
0.0 0.0 -8.042584860449e-04 
-8.272148132873e-04 2.043748305373e-04 0.0 
2.043748305373e-04 4.358943672927e-03 0.0 
0.0 0.0 -6.733236465360e-04 
-1.391682779442e-04 -5.660980208305e-04 0.0 
-5.660980208305e-04 2.708178146588e-03 0.0 
0.0 0.0 -5.908717820549e-04 
-6.655440375533e-04 -6.952663529849e-04 0.0 
-6.952663529849e-04 5.066823485387e-03 0.0 
0.0 0.0 -8.733819075714e-04 
-8.196031050189e-04 3.838546333042e-04 0.0 
3.838546333042e-04 5.685766128825e-03 0.0 
0.0 0.0 -9.266779469803e-04 
-6.990167424859e-04 5.271708541357e-04 0.0 
5.271708541357e-04 5.638282256463e-03 0.0 
0.0 0.0 -9.734188451722e-04 
-1.186630910785e-03 6.460835059358e-04 0.0 
6.460835059358e-04 7.362442267771e-03 0.0 
0.0 0.0 -1.144302277022e-03 
2.969246869216e-04 1.115918954902e-03 0.0 
1.115918954902e-03 3.039667145196e-04 0.0 
0.0 0.0 -2.575248863319e-04 
-9.117889324076e-04 -2.951149434616e-04 0.0 
-2.951149434616e-04 4.877432515646e-03 0.0 
0.0 0.0 -7.784793977761e-04 
-1.012208946591e-03 -1.496092469439e-04 0.0 
-1.496092469439e-04 5.343186025449e-03 0.0 
0.0 0.0 -8.356154970834e-04 
-6.331046465697e-04 -9.049418944168e-04 0.0 
-9.049418944168e-04 2.758073297942e-03 0.0 
0.0 0.0 -4.544023106810e-04 
-8.924169308788e-04 4.058945008041e-04 0.0 
4.058945008041e-04 4.880366770900e-03 0.0 
0.0 0.0 -7.518103749233e-04 
-1.063894881261e-03 9.071629636426e-05 0.0 
9.071629636426e-05 6.191505659791e-03 0.0 
0.0 0.0 -9.362314798257e-04 
-1.205869425098e-03 -2.261798490425e-04 0.0 
-2.261798490425e-04 6.678201842620e-03 0.0 
0.0 0.0 -1.023451880212e-03 
-7.015472354662e-05 -2.565736168466e-05 0.0 
-2.565736168466e-05 9.612203433626e-04 0.0 
0.0 0.0 -1.605242656235e-04 
0.0 0.0 0.0 
0.0 0.0 0.0 
0.0 0.0 0.0 
-5.147384921578e-04 -7.536249502610e-04 0.0 
-7.536249502610e-04 1.966691460963e-03 0.0 
0.0 0.0 -3.233707900025e-04 
-1.027484224102e-03 -4.836123400480e-04 0.0 
-4.836123400480e-04 5.407088060702e-03 0.0 
0.0 0.0 -8.330087554115e-04 
-8.882847245791e-05 -4.537970764089e-04 0.0 
-4.537970764089e-04 2.924964268328e-03 0.0 
0.0 0.0 -6.322020076307e-04 
-9.059460685546e-05 -9.981933794838e-04 0.0 
-9.981933794838e-04 2.441338825064e-03 0.0 
0.0 0.0 -5.605319560360e-04 
1.602068840710e-04 -5.380164516261e-04 0.0 
-5.380164516261e-04 1.784200169895e-03 0.0 
0.0 0.0 -5.041580933422e-04 
-1.016808142495e-03 -1.850132427343e-04 0.0 
-1.850132427343e-04 5.546831112907e-03 0.0 
0.0 0.0 -8.721335634590e-04 
-1.089492890547e-03 5.256596706488e-04 0.0 
5.256596706488e-04 6.464473810732e-03 0.0 
0.0 0.0 -9.956198530692e-04 
-1.055480845035e-03 -8.073487003007e-05 0.0 
-8.073487003007e-05 5.564073531230e-03 0.0 
0.0 0.0 -8.643287579461e-04 
-7.969352206200e-05 1.392070136612e-04 0.0 
1.392070136612e-04 2.839214225501e-03 0.0 
0.0 0.0 -6.348607296063e-04 
-9.652452647080e-04 3.246353242036e-04 0.0 
3.246353242036e-04 6.148089658116e-03 0.0 
0.0 0.0 -9.699423737970e-04 
-9.336187348190e-04 2.571357999357e-04 0.0 
2.571357999357e-04 5.466318221896e-03 0.0 
0.0 0.0 -8.236220363599e-04 
-8.699149514131e-04 5.427467141130e-04 0.0 
5.427467141130e-04 6.422709640430e-03 0.0 
0.0 0.0 -1.076197569190e-03 
-1.067019444508e-03 -4.166446150284e-04 0.0 
-4.166446150284e-04 5.628158977285e-03 0.0 
0.0 0.0 -8.617642947636e-04 
-1.037211549759e-03 -5.241557810677e-04 0.0 
-5.241557810677e-04 5.613837274242e-03 0.0 
0.0 0.0 -8.694825820363e-04 
-6.540642588821e-04 2.339053685670e-04 0.0 
2.339053685670e-04 2.854376740045e-03 0.0 
0.0 0.0 -4.548485160793e-04 
-1.830897456311e-04 -6.409178638984e-04 0.0 
-6.409178638984e-04 3.204685697947e-03 0.0 
0.0 0.0 -6.598952468721e-04 
-1.092100602406e-03 -1.853786207342e-05 0.0 
-1.853786207342e-05 5.772593500168e-03 0.0 
0.0 0.0 -8.930692851043e-04 
-1.055598751707e-03 1.761127934755e-04 0.0 
1.761127934755e-04 6.440216787672e-03 0.0 
0.0 0.0 -9.615701295831e-04 
-1.001453888758e-03 1.848581000640e-04 0.0 
1.848581000640e-04 6.057549413992e-03 0.0 
0.0 0.0 -8.972249362023e-04 
-6.770179440789e-04 2.249366581215e-04 0.0 
2.249366581215e-04 3.121369932688e-03 0.0 
0.0 0.0 -4.879487645214e-04 
-1.064022376908e-03 -1.167841295241e-04 0.0 
-1.167841295241e-04 5.775583557860e-03 0.0 
0.0 0.0 -9.007118478548e-04 
-2.859853618183e-04 -1.273336407491e-03 0.0 
-1.273336407491e-03 2.641008784054e-03 0.0 
0.0 0.0 -5.517684601482e-04 
-1.131468898778e-04 1.392096794452e-03 0.0 
1.392096794452e-03 1.091258670637e-03 0.0 
0.0 0.0 -4.029896332773e-04 
-1.047918758114e-03 7.340593604256e-05 0.0 
7.340593604256e-05 7.456724692606e-03 0.0 
0.0 0.0 -1.202908440308e-03 
-5.627131210403e-04 -6.726340984242e-04 0.0 
-6.726340984242e-04 1.683903901649e-03 0.0 
0.0 0.0 -3.052185142707e-04 
-3.169146226738e-04 -8.080615281722e-04 0.0 
-8.080615281722e-04 2.922160059009e-03 0.0 
0.0 0.0 -5.822209219963e-04 
-5.594905133051e-04 2.180548040984e-04 0.0 
2.180548040984e-04 5.015163126877e-03 0.0 
0.0 0.0 -8.766521650092e-04 
-6.622241155769e-04 4.063560181711e-04 0.0 
4.063560181711e-04 3.270370974807e-03 0.0 
0.0 0.0 -5.239962781855e-04 
-1.100749507766e-03 -3.563808608849e-04 0.0 
-3.563808608849e-04 5.849825024464e-03 0.0 
0.0 0.0 -8.905656347129e-04 
-5.985345031535e-04 -2.223177207573e-04 0.0 
-2.223177207573e-04 2.732572505037e-03 0.0 
0.0 0.0 -4.282508963332e-04 
-9.076266712889e-04 3.184539997901e-05 0.0 
3.184539997901e-05 5.036430824459e-03 0.0 
0.0 0.0 -7.823486082854e-04 
-1.081370140730e-03 -4.558826803401e-04 0.0 
-4.558826803401e-04 5.841011814907e-03 0.0 
0.0 0.0 -8.981647654366e-04 
-4.858836919803e-04 -7.457674947231e-04 0.0 
-7.457674947231e-04 4.297440458521e-03 0.0 
0.0 0.0 -7.800125773855e-04 
-9.348538294518e-04 -6.697112536075e-04 0.0 
-6.697112536075e-04 5.140798604724e-03 0.0 
0.0 0.0 -8.126672281948e-04 
8.703935028516e-05 1.690415104804e-04 0.0 
1.690415104804e-04 1.245018223100e-05 0.0 
0.0 0.0 -4.263837107835e-05 
-1.241448931941e-03 -1.835319642593e-04 0.0 
-1.835319642593e-04 7.812891284508e-03 0.0 
0.0 0.0 -1.152567315725e-03 
-3.081364130084e-04 -9.550871966768e-04 0.0 
-9.550871966768e-04 3.298658843063e-03 0.0 
0.0 0.0 -6.514572604261e-04 
-9.718772757445e-04 1.979502564842e-04 0.0 
1.979502564842e-04 7.009305473662e-03 0.0 
0.0 0.0 -1.154039482800e-03 
-8.056057162638e-04 2.987492427290e-04 0.0 
2.987492427290e-04 5.959106481257e-03 0.0 
0.0 0.0 -9.821191134873e-04 
-1.105426206004e-03 -5.038601752530e-05 0.0 
-5.038601752530e-05 5.994681172748e-03 0.0 
0.0 0.0 -9.293965016571e-04 
-1.119004413752e-03 -3.820015781438e-04 0.0 
-3.820015781438e-04 6.058753668650e-03 0.0 
0.0 0.0 -9.268654845074e-04 
-3.123142997184e-05 -1.167065523526e-04 0.0 
-1.167065523526e-04 2.573595127563e-03 0.0 
0.0 0.0 -5.989583036242e-04 
-3.157644098559e-04 -6.245110788433e-04 0.0 
-6.245110788433e-04 1.110181514534e-03 0.0 
0.0 0.0 -2.862240160649e-04 
8.762727446402e-05 1.506685699699e-04 0.0 
1.506685699699e-04 5.297682451371e-06 0.0 
0.0 0.0 -3.982498153517e-05 
-1.139236581336e-03 9.449893671701e-06 0.0 
9.449893671701e-06 6.206332100994e-03 0.0 
0.0 0.0 -9.583065114986e-04 
-9.895576341864e-04 5.422021304530e-05 0.0 
5.422021304530e-05 6.999392542925e-03 0.0 
0.0 0.0 -1.148056181429e-03 
-4.775145294270e-04 -1.288589848279e-03 0.0 
-1.288589848279e-03 2.885723426917e-03 0.0 
0.0 0.0 -5.426247857783e-04 
-9.796725008080e-04 7.000708170444e-04 0.0 
7.000708170444e-04 6.228639819323e-03 0.0 
0.0 0.0 -1.000702849114e-03 
-6.472337897981e-04 7.799664963271e-04 0.0 
7.799664963271e-04 2.970737159620e-03 0.0 
0.0 0.0 -5.002094317253e-04 
-1.024167741003e-03 2.983156923563e-04 0.0 
2.983156923563e-04 6.439902929080e-03 0.0 
0.0 0.0 -1.005614027492e-03 
-1.230125729383e-03 -1.791987086205e-04 0.0 
-1.791987086205e-04 8.178224384408e-03 0.0 
0.0 0.0 -1.266534580134e-03 
0.0 0.0 0.0 
0.0 0.0 0.0 
0.0 0.0 0.0 
-1.341620833825e-03 -1.240232465015e-06 0.0 
-1.240232465015e-06 8.838044206909e-03 0.0 
0.0 0.0 -1.341620833825e-03 
-1.340051318819e-03 -7.855236063614e-05 0.0 
-7.855236063614e-05 8.625114056382e-03 0.0 
0.0 0.0 -1.340051318819e-03 
-8.980163173550e-04 -1.960905146637e-04 0.0 
-1.960905146637e-04 5.236321733421e-03 0.0 
0.0 0.0 -7.955197795907e-04 
-4.661383092836e-04 -1.098309243055e-03 0.0 
-1.098309243055e-03 3.461471777819e-03 0.0 
0.0 0.0 -6.428246066218e-04 
-8.082931774475e-04 3.508972968720e-04 0.0 
3.508972968720e-04 5.820381814417e-03 0.0 
0.0 0.0 -9.543595451430e-04 
-1.549769366623e-05 -2.109424872969e-04 0.0 
-2.109424872969e-04 2.675607327827e-03 0.0 
0.0 0.0 -6.041149214933e-04 
-2.283359273976e-04 -2.821495717667e-04 0.0 
-2.821495717667e-04 1.216165341166e-03 0.0 
0.0 0.0 -2.095884814006e-04 
5.244130076389e-06 5.299579131201e-04 0.0 
5.299579131201e-04 3.292147719476e-04 0.0 
0.0 0.0 -1.433395294388e-04 
-1.275023357737e-03 -5.993191991654e-05 0.0 
-5.993191991654e-05 8.163058981243e-03 0.0 
0.0 0.0 -1.209499414335e-03 
-1.082712059579e-03 1.205245821570e-04 0.0 
1.205245821570e-04 6.373245931173e-03 0.0 
0.0 0.0 -9.648175333861e-04 
-9.046820331639e-04 -1.080196974862e-06 0.0 
-1.080196974862e-06 4.867817697865e-03 0.0 
0.0 0.0 -7.224789237173e-04 
-1.279272833011e-03 4.773478504551e-04 0.0 
4.773478504551e-04 8.632757308161e-03 0.0 
0.0 0.0 -1.323661129950e-03 
-4.995343539176e-04 -2.062360200378e-04 0.0 
-2.062360200378e-04 2.288215934898e-03 0.0 
0.0 0.0 -3.615704333793e-04 
-1.305160647697e-03 4.322097678811e-04 0.0 
4.322097678811e-04 8.590809380930e-03 0.0 
0.0 0.0 -1.324908485340e-03 
-1.072336849723e-03 4.894356542548e-04 0.0 
4.894356542548e-04 6.310526310337e-03 0.0 
0.0 0.0 -9.670422101491e-04 
-6.106684104583e-04 -1.077307355153e-03 0.0 
-1.077307355153e-03 3.630162810958e-03 0.0 
0.0 0.0 -6.336394413500e-04 
-7.688592567693e-04 7.436159055388e-04 0.0 
7.436159055388e-04 5.436722305107e-03 0.0 
0.0 0.0 -9.212972352143e-04 
-4.366727405360e-04 -7.825680509829e-04 0.0 
-7.825680509829e-04 3.244703639757e-03 0.0 
0.0 0.0 -6.094834619596e-04 
-3.265911223950e-04 1.405912834574e-03 0.0 
1.405912834574e-03 1.452640584362e-03 0.0 
0.0 0.0 -3.649795199019e-04 
-4.990879049153e-04 -8.274194353689e-04 0.0 
-8.274194353689e-04 3.123468955199e-03 0.0 
0.0 0.0 -5.728018649490e-04 
-1.102176339442e-03 5.667634332671e-04 0.0 
5.667634332671e-04 6.620528006741e-03 0.0 
0.0 0.0 -1.023749757194e-03 
-1.274902778913e-03 -3.210380531188e-04 0.0 
-3.210380531188e-04 7.572738005346e-03 0.0 
0.0 0.0 -1.155390781228e-03 
-2.640863970045e-04 -6.506791704026e-04 0.0 
-6.506791704026e-04 3.044637194059e-03 0.0 
0.0 0.0 -6.181853003094e-04 
-1.037039327620e-03 6.760843031957e-04 0.0 
6.760843031957e-04 6.523249431128e-03 0.0 
0.0 0.0 -1.036271578259e-03 
0.0 0.0 0.0 
0.0 0.0 0.0 
0.0 0.0 0.0 
-1.285700230911e-04 -3.245101064007e-04 0.0 
-3.245101064007e-04 2.885767451406e-03 0.0 
0.0 0.0 -6.266282162577e-04 
-1.167206438241e-03 1.283137067331e-04 0.0 
1.283137067331e-04 7.080432372571e-03 0.0 
0.0 0.0 -1.066385360782e-03 
-6.379492421497e-04 -6.916022810517e-04 0.0 
-6.916022810517e-04 3.261870100237e-03 0.0 
0.0 0.0 -5.616069800515e-04 
-5.397721604140e-04 -1.270380268010e-03 0.0 
-1.270380268010e-03 2.784654802048e-03 0.0 
0.0 0.0 -5.052880831394e-04 
-7.290893412698e-04 3.613081104682e-04 0.0 
3.613081104682e-04 5.503308908361e-03 0.0 
0.0 0.0 -9.187611816440e-04 
1.265644672670e-04 -1.340381834312e-03 0.0 
-1.340381834312e-03 6.478378418571e-04 0.0 
0.0 0.0 -3.318867039103e-04 
-6.343393029067e-04 4.127806247347e-04 0.0 
4.127806247347e-04 2.352701282119e-03 0.0 
0.0 0.0 -3.867203691650e-04 
-5.980790938116e-04 3.108972139281e-04 0.0 
3.108972139281e-04 2.666414110552e-03 0.0 
0.0 0.0 -4.195921675762e-04 
-6.113097074720e-04 -7.505403763561e-04 0.0 
-7.505403763561e-04 2.857444945758e-03 0.0 
0.0 0.0 -4.973376392308e-04 
-5.765164058635e-04 -6.636526940974e-04 0.0 
-6.636526940974e-04 4.795423287764e-03 0.0 
0.0 0.0 -8.444178005646e-04 
-5.181015510014e-04 7.402765764373e-04 0.0 
7.402765764373e-04 4.473477357902e-03 0.0 
0.0 0.0 -8.147327860212e-04 
-1.021689517365e-03 3.040232263138e-04 0.0 
3.040232263138e-04 6.577677469830e-03 0.0 
0.0 0.0 -1.033897369924e-03 
-1.251489828841e-03 5.632464710330e-04 0.0 
5.632464710330e-04 7.903464121438e-03 0.0 
0.0 0.0 -1.224260864640e-03 
-6.076375545199e-04 4.683737268985e-04 0.0 
4.683737268985e-04 2.798103792701e-03 0.0 
0.0 0.0 -4.570814260163e-04 
-1.106194698900e-03 -2.340999049272e-04 0.0 
-2.340999049272e-04 6.875726326228e-03 0.0 
0.0 0.0 -1.028620860735e-03 
-1.222609548103e-03 6.000551956434e-04 0.0 
6.000551956434e-04 7.771092725331e-03 0.0 
0.0 0.0 -1.228414553209e-03 
4.319177178305e-05 1.565747196534e-04 0.0 
1.565747196534e-04 2.280131923741e-03 0.0 
0.0 0.0 -5.707601703556e-04 
-5.280303941059e-05 1.110289152965e-03 0.0 
1.110289152965e-03 8.099165551708e-04 0.0 
0.0 0.0 -3.244772210401e-04 
-6.896815476543e-04 4.595022377507e-04 0.0 
4.595022377507e-04 3.325524470953e-03 0.0 
0.0 0.0 -5.330167430730e-04 
-5.818026759286e-04 -7.746098819789e-04 0.0 
-7.746098819789e-04 4.581482398683e-03 0.0 
0.0 0.0 -8.082977034869e-04 
-1.084938189841e-03 6.476212573913e-04 0.0 
6.476212573913e-04 6.662130643566e-03 0.0 
0.0 0.0 -1.043024347135e-03 
-5.304647567233e-04 -3.288241115645e-04 0.0 
-3.288241115645e-04 4.511932891327e-03 0.0 
0.0 0.0 -8.108276944599e-04 
3.467916788336e-04 9.922084021830e-04 0.0 
9.922084021830e-04 1.937891863132e-04 0.0 
0.0 0.0 -2.316775136343e-04 
-6.676153210682e-04 -5.990024928293e-04 0.0 
-5.990024928293e-04 5.284713461811e-03 0.0 
0.0 0.0 -9.096068616062e-04 
-5.138764303910e-04 1.344859878066e-03 0.0 
1.344859878066e-03 1.832201827426e-03 0.0 
0.0 0.0 -3.508512830963e-04 
-4.693960867252e-04 2.899164946168e-04 0.0 
2.899164946168e-04 4.538651858574e-03 0.0 
0.0 0.0 -8.123573650817e-04 
-6.214317139949e-04 -2.381023826960e-04 0.0 
-2.381023826960e-04 5.000123203670e-03 0.0 
0.0 0.0 -8.756097305517e-04 
-7.629475729046e-04 6.967977887081e-04 0.0 
6.967977887081e-04 5.582110193462e-03 0.0 
0.0 0.0 -9.491391837787e-04 
-1.021932421091e-03 -1.375086625343e-04 0.0 
-1.375086625343e-04 6.258245616270e-03 0.0 
0.0 0.0 -9.494079867578e-04 
-6.355506189440e-04 -1.022411834394e-03 0.0 
-1.022411834394e-03 2.931807144820e-03 0.0 
0.0 0.0 -4.933620968966e-04 
6.896550266056e-05 1.225367383845e-03 0.0 
1.225367383845e-03 6.646895526308e-04 0.0 
0.0 0.0 -3.144235951249e-04 
-7.142483767440e-04 -1.644248298722e-04 0.0 
-1.644248298722e-04 5.495494976155e-03 0.0 
0.0 0.0 -9.415329344942e-04 
-5.361770105980e-04 1.152355576541e-03 0.0 
1.152355576541e-03 2.110820043480e-03 0.0 
0.0 0.0 -3.857152600925e-04 
0.0 0.0 0.0 
0.0 0.0 0.0 
0.0 0.0 0.0 
-1.255338616422e-03 1.860461172355e-04 0.0 
1.860461172355e-04 8.124850663151e-03 0.0 
0.0 0.0 -1.223389224544e-03 
-1.207848204117e-03 2.029693107177e-04 0.0 
2.029693107177e-04 7.752368092309e-03 0.0 
0.0 0.0 -1.157435638217e-03 
-8.808053059829e-05 -1.336699866714e-04 0.0 
-1.336699866714e-04 3.185750404010e-04 0.0 
0.0 0.0 -9.878336134402e-05 
-7.608266853487e-04 -5.406000089435e-04 0.0 
-5.406000089435e-04 5.776368912984e-03 0.0 
0.0 0.0 -9.758309632659e-04 
-5.833464932258e-04 -8.365325477788e-04 0.0 
-8.365325477788e-04 2.366888082298e-03 0.0 
0.0 0.0 -3.887237773309e-04 
-6.380037561636e-04 -4.574933655184e-04 0.0 
-4.574933655184e-04 2.507620922393e-03 0.0 
0.0 0.0 -4.195855280820e-04 
-1.094549564148e-03 6.711957006790e-04 0.0 
6.711957006790e-04 6.969957179569e-03 0.0 
0.0 0.0 -1.100737838324e-03 
-7.238835271569e-04 2.949238833770e-04 0.0 
2.949238833770e-04 5.642634368299e-03 0.0 
0.0 0.0 -9.467522836136e-04 
-1.039311302789e-03 6.802059572137e-04 0.0 
6.802059572137e-04 6.671189751840e-03 0.0 
0.0 0.0 -1.064854740548e-03 
-1.894001647684e-04 -8.697409082608e-04 0.0 
-8.697409082608e-04 2.974808611893e-03 0.0 
0.0 0.0 -6.238888496032e-04 
-8.115909482746e-04 3.390698231069e-05 0.0 
3.390698231069e-05 4.912143948729e-03 0.0 
0.0 0.0 -7.105917616147e-04 
-1.280305692054e-03 -3.247592506175e-04 0.0 
-3.247592506175e-04 7.975043847607e-03 0.0 
0.0 0.0 -1.281538364137e-03 
-5.868717402319e-04 -4.057488537009e-04 0.0 
-4.057488537009e-04 2.082970857728e-03 0.0 
0.0 0.0 -3.541816848729e-04 
-9.117200011925e-04 -1.598675323878e-04 0.0 
-1.598675323878e-04 6.764763677517e-03 0.0 
0.0 0.0 -1.121221582973e-03 
-5.590520355925e-04 3.309762878068e-04 0.0 
3.309762878068e-04 4.865889443217e-03 0.0 
0.0 0.0 -8.477100451819e-04 
-3.408380194667e-04 8.413428919704e-05 0.0 
8.413428919704e-05 1.600517951916e-03 0.0 
0.0 0.0 -2.892354545592e-04 
-1.075499676593e-03 6.132508001275e-04 0.0 
6.132508001275e-04 6.500844839128e-03 0.0 
0.0 0.0 -1.015166614560e-03 
-1.491725305372e-04 -7.955548992598e-05 0.0 
-7.955548992598e-05 3.115280814632e-03 0.0 
0.0 0.0 -6.628028861993e-04 
-1.315718485168e-04 -5.908276789213e-04 0.0 
-5.908276789213e-04 6.660589264853e-04 0.0 
0.0 0.0 -2.290658905579e-04 
-1.579860261374e-05 -4.063804822263e-04 0.0 
-4.063804822263e-04 2.360331977056e-03 0.0 
0.0 0.0 -5.632129589051e-04 
-1.187081976134e-03 1.736903763000e-04 0.0 
1.736903763000e-04 6.532498131095e-03 0.0 
0.0 0.0 -9.915417172310e-04 
-1.109173126604e-03 2.020871397918e-04 0.0 
2.020871397918e-04 6.702082758585e-03 0.0 
0.0 0.0 -1.020980360542e-03 
-4.812617878824e-04 -1.026396368797e-03 0.0 
-1.026396368797e-03 1.558368541222e-03 0.0 
0.0 0.0 -2.729600395538e-04 
-1.020281891755e-03 -1.851201749546e-04 0.0 
-1.851201749546e-04 5.386783464776e-03 0.0 
0.0 0.0 -8.076288038732e-04 
-1.089791995769e-03 6.678096790371e-04 0.0 
6.678096790371e-04 6.824575659747e-03 0.0 
0.0 0.0 -1.071782534217e-03 
-9.193547229402e-04 1.602334611530e-04 0.0 
1.602334611530e-04 6.776867929495e-03 0.0 
0.0 0.0 -1.109893377180e-03 
-5.608358153244e-04 -8.240965468318e-04 0.0 
-8.240965468318e-04 2.993251789866e-03 0.0 
0.0 0.0 -5.351738145117e-04 
-6.136579298705e-04 1.191680586993e-04 0.0 
1.191680586993e-04 2.664357051373e-03 0.0 
0.0 0.0 -4.333934152438e-04 
-5.989414354874e-04 6.742429676008e-04 0.0 
6.742429676008e-04 4.956197001293e-03 0.0 
0.0 0.0 -8.786267582723e-04 
-1.011039081455e-03 -2.136688597495e-04 0.0 
-2.136688597495e-04 6.164847278727e-03 0.0 
0.0 0.0 -9.278975173457e-04 
-2.430528072630e-05 -7.015609586409e-04 0.0 
-7.015609586409e-04 4.939718425864e-04 0.0 
0.0 0.0 -2.012856693686e-04 
-1.258632814515e-03 5.164131841311e-04 0.0 
5.164131841311e-04 8.325970250847e-03 0.0 
0.0 0.0 -1.269179263065e-03 
-1.319279019144e-03 4.296204971761e-04 0.0 
4.296204971761e-04 8.281943168671e-03 0.0 
0.0 0.0 -1.281197857596e-03 
-9.262453737932e-04 -1.856372937015e-04 0.0 
-1.856372937015e-04 5.467657039050e-03 0.0 
0.0 0.0 -8.387747867703e-04 
-1.294839307706e-03 7.871963389555e-06 0.0 
7.871963389555e-06 8.477109428305e-03 0.0 
0.0 0.0 -1.255037608383e-03 
-1.299621148244e-03 5.434080431767e-04 0.0 
5.434080431767e-04 8.249757004039e-03 0.0 
0.0 0.0 -1.285499913836e-03 
-2.377664936208e-04 -4.540001535470e-04 0.0 
-4.540001535470e-04 3.213325829595e-03 0.0 
0.0 0.0 -6.542748834104e-04 
-3.508305791302e-04 -1.119634461832e-03 0.0 
-1.119634461832e-03 3.128022697751e-03 0.0 
0.0 0.0 -6.153450468602e-04 
-1.170236808513e-03 2.917458807147e-05 0.0 
2.917458807147e-05 8.079333353292e-03 0.0 
0.0 0.0 -1.265535665854e-03 
0.0 0.0 0.0 
0.0 0.0 0.0 
0.0 0.0 0.0 
-5.539334103609e-04 1.733294296074e-04 0.0 
1.733294296074e-04 2.467698966066e-03 0.0 
0.0 0.0 -3.941707820483e-04 
-1.082833857300e-03 1.553689403231e-04 0.0 
1.553689403231e-04 5.370486721227e-03 0.0 
0.0 0.0 -8.329475646481e-04 
-6.135075657535e-04 -1.124689673499e-03 0.0 
-1.124689673499e-03 3.074168344220e-03 0.0 
0.0 0.0 -5.313546330462e-04 
-1.846585695015e-04 -7.875180783751e-04 0.0 
-7.875180783751e-04 2.568069228426e-03 0.0 
0.0 0.0 -5.546931404481e-04 
-5.968432958156e-04 5.557088425757e-04 0.0 
5.557088425757e-04 1.865682370622e-03 0.0 
0.0 0.0 -3.196518454468e-04 
-5.899426228830e-04 4.711635003752e-04 0.0 
4.711635003752e-04 2.207717411959e-03 0.0 
0.0 0.0 -3.528063275151e-04 
-9.460265979009e-04 -8.557345978762e-05 0.0 
-8.557345978762e-05 5.600872725538e-03 0.0 
0.0 0.0 -8.290026594306e-04 
-7.188891017227e-05 -7.212145557604e-04 0.0 
-7.212145557604e-04 2.661537409605e-03 0.0 
0.0 0.0 -5.962921515785e-04 
-6.690915239770e-04 -9.469087844434e-06 0.0 
-9.469087844434e-06 2.860475934858e-03 0.0 
0.0 0.0 -4.583473518421e-04 
-9.261983765854e-04 6.205491161324e-04 0.0 
6.205491161324e-04 6.527766796007e-03 0.0 
0.0 0.0 -1.077832113627e-03 
-1.322048612324e-03 -3.324926188937e-04 0.0 
-3.324926188937e-04 8.713395146875e-03 0.0 
0.0 0.0 -1.324978758543e-03 
-1.338720177887e-03 -4.085669882089e-04 0.0 
-4.085669882089e-04 8.670321911685e-03 0.0 
0.0 0.0 -1.320624918399e-03 
-3.849795069765e-04 -6.739500110508e-04 0.0 
-6.739500110508e-04 3.380834248484e-03 0.0 
0.0 0.0 -6.457427040837e-04 
-9.004898588244e-04 1.911488629734e-04 0.0 
1.911488629734e-04 5.018763151201e-03 0.0 
0.0 0.0 -7.877541558771e-04 
0.0 0.0 0.0 
0.0 0.0 0.0 
0.0 0.0 0.0 
-4.359472798887e-04 6.731301800727e-04 0.0 
6.731301800727e-04 1.407239997486e-03 0.0 
0.0 0.0 -3.106513839132e-04 
2.755733972267e-04 -1.401203893809e-03 0.0 
-1.401203893809e-03 4.875020493235e-04 0.0 
0.0 0.0 -3.270323342358e-04 
-5.716509711487e-04 6.241427470327e-04 0.0 
6.241427470327e-04 1.685665452150e-03 0.0 
0.0 0.0 -2.953478464511e-04 
-6.435501651802e-04 2.617971966709e-04 0.0 
2.617971966709e-04 5.324938194352e-03 0.0 
0.0 0.0 -9.116044729693e-04 
-3.892042169670e-04 -9.156083068677e-04 0.0 
-9.156083068677e-04 2.815259890772e-03 0.0 
0.0 0.0 -5.459662534218e-04 
-2.243152923797e-04 -1.093841073510e-03 0.0 
-1.093841073510e-03 2.791137140625e-03 0.0 
0.0 0.0 -5.879858557453e-04 
2.757241657395e-04 -4.810032012259e-04 0.0 
-4.810032012259e-04 1.809007699404e-05 0.0 
0.0 0.0 -1.259203897429e-04 
-1.236651515782e-03 5.783317831820e-05 0.0 
5.783317831820e-05 7.720546241133e-03 0.0 
0.0 0.0 -1.176327079312e-03 
-4.101458141136e-04 -1.240391896891e-03 0.0 
-1.240391896891e-03 2.995120791313e-03 0.0 
0.0 0.0 -5.792774345575e-04 
-1.250725797448e-03 2.916941522596e-04 0.0 
2.916941522596e-04 8.087181627586e-03 0.0 
0.0 0.0 -1.212957849656e-03 
-1.169197980018e-03 -1.036807665068e-04 0.0 
-1.036807665068e-04 7.436974066249e-03 0.0 
0.0 0.0 -1.117460450001e-03 
-1.345176874521e-03 9.425392127595e-05 0.0 
9.425392127595e-05 9.101263988686e-03 0.0 
0.0 0.0 -1.319418651152e-03 
-1.362446196828e-03 -6.566602865703e-05 0.0 
-6.566602865703e-05 8.851718670119e-03 0.0 
0.0 0.0 -1.324849633189e-03 
-9.396876737499e-04 1.580696553299e-04 0.0 
1.580696553299e-04 5.609093298548e-03 0.0 
0.0 0.0 -8.315138651140e-04 
-5.177493296675e-04 -1.164892507562e-03 0.0 
-1.164892507562e-03 3.321630420665e-03 0.0 
0.0 0.0 -6.063493599946e-04 
-5.551169256275e-04 5.845973941815e-04 0.0 
5.845973941815e-04 2.336169535734e-03 0.0 
0.0 0.0 -3.884917441798e-04 
-5.432002518243e-04 -7.156839301842e-04 0.0 
-7.156839301842e-04 3.555258553905e-03 0.0 
0.0 0.0 -6.367902913543e-04 
-1.343328350294e-03 -3.038078432126e-04 0.0 
-3.038078432126e-04 8.521823212692e-03 0.0 
0.0 0.0 -1.343328350294e-03 
-1.737665181201e-04 6.795203959292e-04 0.0 
6.795203959292e-04 8.236163112489e-04 0.0 
0.0 0.0 -2.785070541980e-04 
-2.927518060600e-04 7.425303816206e-04 0.0 
7.425303816206e-04 1.136932491594e-03 0.0 
0.0 0.0 -3.329621070679e-04 
-9.737974110450e-04 -6.386389399083e-05 0.0 
-6.386389399083e-05 7.060307194164e-03 0.0 
0.0 0.0 -1.156027955174e-03 
-8.805235058694e-04 6.847913926848e-05 0.0 
6.847913926848e-05 5.301659598337e-03 0.0 
0.0 0.0 -7.715229432315e-04 
-1.258879221168e-03 2.678324544629e-04 0.0 
2.678324544629e-04 8.150871359494e-03 0.0 
0.0 0.0 -1.219279742240e-03 
-1.080906081071e-03 2.827660258438e-04 0.0 
2.827660258438e-04 6.867060617251e-03 0.0 
0.0 0.0 -1.069611963270e-03 
-1.039924564934e-03 5.350617449269e-04 0.0 
5.350617449269e-04 7.190727662860e-03 0.0 
0.0 0.0 -1.175036385391e-03 
-1.173553033698e-03 2.219944962555e-04 0.0 
2.219944962555e-04 7.297927893888e-03 0.0 
0.0 0.0 -1.113576918908e-03 
-9.402009665324e-04 2.044311077690e-04 0.0 
2.044311077690e-04 5.536177417769e-03 0.0 
0.0 0.0 -8.542750875040e-04 
-5.858259911149e-04 -1.171742995146e-03 0.0 
-1.171742995146e-03 2.676462786012e-03 0.0 
0.0 0.0 -4.674384380614e-04 
-5.422750806607e-04 -8.975033256362e-04 0.0 
-8.975033256362e-04 2.600446559473e-03 0.0 
0.0 0.0 -4.715697005044e-04 
-1.061085808578e-03 2.019693127978e-04 0.0 
2.019693127978e-04 6.591258911724e-03 0.0 
0.0 0.0 -9.963059934037e-04 
-9.926320276344e-04 1.396335034036e-04 0.0 
1.396335034036e-04 7.047433757094e-03 0.0 
0.0 0.0 -1.142506377625e-03 
-8.640826483478e-04 1.602683523403e-04 0.0 
1.602683523403e-04 4.592644147598e-03 0.0 
0.0 0.0 -7.345222264051e-04 
-8.659076808803e-04 1.600457319012e-05 0.0 
1.600457319012e-05 5.296211653200e-03 0.0 
0.0 0.0 -7.676068998053e-04 
-9.151607957151e-04 -5.089667725815e-05 0.0 
-5.089667725815e-05 5.629549572959e-03 0.0 
0.0 0.0 -8.242303029217e-04 
-9.674728246486e-04 -2.123760912739e-04 0.0 
-2.123760912739e-04 5.717004610309e-03 0.0 
0.0 0.0 -8.467401457521e-04 
3.499479768906e-04 -3.973954247046e-04 0.0 
-3.973954247046e-04 -4.658979670494e-05 0.0 
0.0 0.0 -1.300106486510e-04 
-5.930015542773e-04 -7.839114719970e-04 0.0 
-7.839114719970e-04 2.465147057737e-03 0.0 
0.0 0.0 -4.335179088089e-04 
-1.317738620986e-03 2.278366908206e-04 0.0 
2.278366908206e-04 8.695066743648e-03 0.0 
0.0 0.0 -1.269310366786e-03 
-1.008653577782e-03 -1.784318379198e-04 0.0 
-1.784318379198e-04 6.114212471042e-03 0.0 
0.0 0.0 -9.150577043801e-04 
-1.235075525051e-03 3.722470533434e-04 0.0 
3.722470533434e-04 8.051470811527e-03 0.0 
0.0 0.0 -1.295322057178e-03 
-1.262105533747e-03 2.927877395666e-04 0.0 
2.927877395666e-04 8.092325804024e-03 0.0 
0.0 0.0 -1.215577547940e-03 
-1.074267791218e-03 2.611694470269e-04 0.0 
2.611694470269e-04 6.569995446378e-03 0.0 
0.0 0.0 -1.012565562176e-03 
-1.287214307820e-03 9.354055678567e-05 0.0 
9.354055678567e-05 8.149418825250e-03 0.0 
0.0 0.0 -1.214907066889e-03 
-8.465721316982e-04 -1.105505135888e-04 0.0 
-1.105505135888e-04 3.950044235392e-03 0.0 
0.0 0.0 -6.304496659280e-04 
-8.228220456719e-04 -1.151102242294e-04 0.0 
-1.151102242294e-04 3.762441621980e-03 0.0 
0.0 0.0 -5.666856080635e-04 
-1.213791714024e-03 -1.499272758312e-04 0.0 
-1.499272758312e-04 7.648587280659e-03 0.0 
0.0 0.0 -1.226851238141e-03 
0.0 0.0 0.0 
0.0 0.0 0.0 
0.0 0.0 0.0 
-5.508530862849e-04 -1.035100482519e-04 0.0 
-1.035100482519e-04 2.701800587875e-03 0.0 
0.0 0.0 -4.071640756073e-04 
-1.342405754833e-03 4.276126013738e-04 0.0 
4.276126013738e-04 8.356626582993e-03 0.0 
0.0 0.0 -1.342405754833e-03 
-2.369285988354e-04 -1.770299306038e-04 0.0 
-1.770299306038e-04 1.161644229230e-03 0.0 
0.0 0.0 -2.265802816212e-04 
-8.772316900263e-04 3.022985570029e-05 0.0 
3.022985570029e-05 5.030285682320e-03 0.0 
0.0 0.0 -7.870118106326e-04 
-1.087488399424e-03 -9.544139039346e-05 0.0 
-9.544139039346e-05 7.678102904648e-03 0.0 
0.0 0.0 -1.213461936786e-03 
-2.217204533164e-04 -1.125363679953e-04 0.0 
-1.125363679953e-04 8.293133150009e-04 0.0 
0.0 0.0 -1.562362318669e-04 
1.575931452750e-04 -1.091415967636e-04 0.0 
-1.091415967636e-04 4.514811203493e-04 0.0 
0.0 0.0 -1.320567747312e-04 
-1.342371808075e-03 1.025686952786e-04 0.0 
1.025686952786e-04 9.039344740884e-03 0.0 
0.0 0.0 -1.324389858384e-03 
-8.327656305072e-04 1.141712868856e-04 0.0 
1.141712868856e-04 4.641243707897e-03 0.0 
0.0 0.0 -7.294542769151e-04 
-1.288909957265e-03 4.016661537540e-04 0.0 
4.016661537540e-04 8.513544320093e-03 0.0 
0.0 0.0 -1.261418349269e-03 
-1.134288891980e-03 5.741233190870e-05 0.0 
5.741233190870e-05 7.407101021319e-03 0.0 
0.0 0.0 -1.231858344535e-03 
-8.347679035328e-04 -3.570531223968e-05 0.0 
-3.570531223968e-05 4.629434413509e-03 0.0 
0.0 0.0 -7.289279708929e-04 
0.0 0.0 0.0 
0.0 0.0 0.0 
0.0 0.0 0.0 
-1.305379233758e-03 -6.071779487898e-05 0.0 
-6.071779487898e-05 8.461113597457e-03 0.0 
0.0 0.0 -1.284140717545e-03 
-3.100289480378e-04 -3.270232557407e-04 0.0 
-3.270232557407e-04 1.355870936008e-03 0.0 
0.0 0.0 -2.433545560381e-04 
-1.282233343865e-03 2.781824875359e-04 0.0 
2.781824875359e-04 8.180219452641e-03 0.0 
0.0 0.0 -1.232184317627e-03 
-1.343095105526e-03 -2.432827260553e-04 0.0 
-2.432827260553e-04 8.545412507579e-03 0.0 
0.0 0.0 -1.343095105526e-03 
-1.292199045367e-03 2.524866178233e-04 0.0 
2.524866178233e-04 8.014541847179e-03 0.0 
0.0 0.0 -1.225700354592e-03 
4.686342162084e-04 -7.265370554805e-04 0.0 
-7.265370554805e-04 5.162950173446e-06 0.0 
0.0 0.0 -2.030559284494e-04 
-9.540260339352e-04 1.631930893359e-04 0.0 
1.631930893359e-04 5.653552826698e-03 0.0 
0.0 0.0 -8.279144014868e-04 
-8.950557039055e-04 -2.748800359507e-04 0.0 
-2.748800359507e-04 4.199615522516e-03 0.0 
0.0 0.0 -6.271989868224e-04 
-8.983235361331e-04 1.933150702716e-04 0.0 
1.933150702716e-04 6.546966492063e-03 0.0 
0.0 0.0 -1.077599360682e-03 
-1.273669225217e-03 1.720409005563e-04 0.0 
1.720409005563e-04 8.518730660981e-03 0.0 
0.0 0.0 -1.326997735404e-03 
-1.142899871982e-03 1.477724546960e-04 0.0 
1.477724546960e-04 7.166026161736e-03 0.0 
0.0 0.0 -1.061614915164e-03 
-1.285004601792e-03 2.929428446180e-04 0.0 
2.929428446180e-04 8.490810498827e-03 0.0 
0.0 0.0 -1.325870641008e-03 
0.0 0.0 0.0 
0.0 0.0 0.0 
0.0 0.0 0.0 
-1.297780734717e-03 -4.166830862430e-04 0.0 
-4.166830862430e-04 8.366714279713e-03 0.0 
0.0 0.0 -1.277656510522e-03 
2.368160629241e-04 -1.409681499125e-03 0.0 
-1.409681499125e-03 7.013780298968e-04 0.0 
0.0 0.0 -3.431348957073e-04 
-2.589194545670e-04 3.821483992917e-05 0.0 
3.821483992917e-05 1.124631262589e-03 0.0 
0.0 0.0 -2.298118214877e-04 
-1.194197405020e-03 -2.475227437211e-04 0.0 
-2.475227437211e-04 8.105636908585e-03 0.0 
0.0 0.0 -1.270335377537e-03 
-1.315524425911e-03 2.690035540339e-04 0.0 
2.690035540339e-04 8.643806800304e-03 0.0 
0.0 0.0 -1.270603359501e-03 
-1.320702306464e-03 4.960564232440e-05 0.0 
4.960564232440e-05 8.625092567998e-03 0.0 
0.0 0.0 -1.289850838753e-03 
-8.753308640926e-04 2.257063470840e-04 0.0 
2.257063470840e-04 5.095730312348e-03 0.0 
0.0 0.0 -7.762633204683e-04 
-9.835570351374e-04 3.967893708127e-04 0.0 
3.967893708127e-04 5.483942639045e-03 0.0 
0.0 0.0 -8.489529362435e-04 
-3.868195665133e-04 1.249245404028e-03 0.0 
1.249245404028e-03 1.493087960549e-03 0.0 
0.0 0.0 -3.390228113434e-04 
-1.290611125717e-03 4.069284773612e-04 0.0 
4.069284773612e-04 8.488337706707e-03 0.0 
0.0 0.0 -1.273041473476e-03 
-7.431920671866e-04 3.360733235591e-05 0.0 
3.360733235591e-05 3.408921231342e-03 0.0 
0.0 0.0 -5.357483711987e-04 
2.011032744506e-04 7.720499985605e-04 0.0 
7.720499985605e-04 2.146802318038e-04 0.0 
0.0 0.0 -1.781929312519e-04 
-9.370458151346e-04 5.508245939114e-04 0.0 
5.508245939114e-04 6.747683680752e-03 0.0 
0.0 0.0 -1.110141529071e-03 
-8.032989009541e-04 -1.045980115988e-05 0.0 
-1.045980115988e-05 4.870464455063e-03 0.0 
0.0 0.0 -7.096328662732e-04 
-1.279256756890e-03 4.600607687250e-04 0.0 
4.600607687250e-04 8.175326591168e-03 0.0 
0.0 0.0 -1.237729719596e-03 
-1.329072194852e-03 -1.834247142824e-04 0.0 
-1.834247142824e-04 8.977472730193e-03 0.0 
0.0 0.0 -1.321509982054e-03 
-1.343732204276e-03 7.562212797617e-06 0.0 
7.562212797617e-06 8.849786333364e-03 0.0 
0.0 0.0 -1.343732204276e-03 
6.465688167897e-04 1.663781779480e-05 0.0 
1.663781779480e-05 -3.978289505741e-05 0.0 
0.0 0.0 -8.420285294201e-05 
3.868700612373e-04 3.921670605925e-05 0.0 
3.921670605925e-05 -6.204561696291e-05 0.0 
0.0 0.0 -1.378576441850e-04 
-8.247124983758e-04 -1.687178518224e-04 0.0 
-1.687178518224e-04 4.737962601015e-03 0.0 
0.0 0.0 -7.318233512793e-04 
-8.319071836255e-04 2.758419797137e-05 0.0 
2.758419797137e-05 4.882188569804e-03 0.0 
0.0 0.0 -7.096011290571e-04 
-1.343732204276e-03 -2.755821224564e-05 0.0 
-2.755821224564e-05 8.606219025581e-03 0.0 
0.0 0.0 -1.343732204276e-03 
-1.349068194300e-03 1.748780922349e-04 0.0 
1.748780922349e-04 8.742452044457e-03 0.0 
0.0 0.0 -1.321509982054e-03 
2.267983165528e-04 1.503551410355e-04 0.0 
1.503551410355e-04 3.801820683437e-04 0.0 
0.0 0.0 -1.379425883790e-04 
0.0 0.0 0.0 
0.0 0.0 0.0 
0.0 0.0 0.0 
-1.304839210467e-03 -7.091443056662e-05 0.0 
-7.091443056662e-05 7.889011230752e-03 0.0 
0.0 0.0 -1.230181737024e-03 
-1.133789878205e-03 6.963372694564e-04 0.0 
6.963372694564e-04 7.661762773916e-03 0.0 
0.0 0.0 -1.209364118140e-03 
-3.105423637276e-04 -2.525564358258e-04 0.0 
-2.525564358258e-04 1.694140784916e-03 0.0 
0.0 0.0 -2.712674790923e-04 
-1.264304018708e-03 -4.229761773583e-04 0.0 
-4.229761773583e-04 7.912894217144e-03 0.0 
0.0 0.0 -1.240191881334e-03 
-1.104648569634e-03 -8.128511201330e-05 0.0 
-8.128511201330e-05 5.687324916732e-03 0.0 
0.0 0.0 -8.888375990210e-04 
-1.026907705388e-03 -2.214158958103e-04 0.0 
-2.214158958103e-04 5.060294452777e-03 0.0 
0.0 0.0 -7.610796297342e-04 
-1.050200639505e-03 1.276309243533e-04 0.0 
1.276309243533e-04 6.471471583772e-03 0.0 
0.0 0.0 -9.400782610458e-04 
-2.965318753647e-05 -1.331164902240e-03 0.0 
-1.331164902240e-03 9.056852696167e-04 0.0 
0.0 0.0 -3.754423208915e-04 
-8.088866268099e-04 2.301224893319e-04 0.0 
2.301224893319e-04 6.098327421906e-03 0.0 
0.0 0.0 -1.011657465016e-03 
-2.272445053013e-04 -9.535102935050e-05 0.0 
-9.535102935050e-05 1.388764162386e-03 0.0 
0.0 0.0 -2.181484037039e-04 
-9.136007493904e-04 -3.789003197154e-04 0.0 
-3.789003197154e-04 4.494388172482e-03 0.0 
0.0 0.0 -6.997415131527e-04 
-1.249092671204e-03 5.668738205519e-04 0.0 
5.668738205519e-04 7.979681115669e-03 0.0 
0.0 0.0 -1.240519096027e-03 
-1.238391952882e-03 -2.103174549131e-04 0.0 
-2.103174549131e-04 8.038627661496e-03 0.0 
0.0 0.0 -1.191726112421e-03 
-9.811853638777e-04 4.571159586099e-05 0.0 
4.571159586099e-05 4.872542694396e-03 0.0 
0.0 0.0 -7.690942022927e-04 
-9.767560317632e-04 -1.705867274286e-04 0.0 
-1.705867274286e-04 5.944945665690e-03 0.0 
0.0 0.0 -8.745659502648e-04 
-1.201104368766e-03 5.803220864547e-04 0.0 
5.803220864547e-04 7.939240582663e-03 0.0 
0.0 0.0 -1.217119345309e-03 
-1.179845702415e-03 2.452002266232e-04 0.0 
2.452002266232e-04 7.438662012216e-03 0.0 
0.0 0.0 -1.140944809983e-03 
-1.127959464392e-03 2.474309966313e-04 0.0 
2.474309966313e-04 7.001139959042e-03 0.0 
0.0 0.0 -1.076426999079e-03 
-8.393109454079e-04 2.446878724435e-05 0.0 
2.446878724435e-05 4.620539471492e-03 0.0 
0.0 0.0 -7.312123441678e-04 
-7.325714353874e-04 1.943037271299e-04 0.0 
1.943037271299e-04 5.805049329063e-03 0.0 
0.0 0.0 -9.763781674015e-04 
-1.278424948200e-03 4.732838707970e-04 0.0 
4.732838707970e-04 8.049805466019e-03 0.0 
0.0 0.0 -1.231404929774e-03 
-6.063671140810e-04 1.348850002822e-06 0.0 
1.348850002822e-06 2.558361798436e-03 0.0 
0.0 0.0 -4.167967844001e-04 
-7.171547725390e-05 -2.177777186911e-04 0.0 
-2.177777186911e-04 5.764019490181e-04 0.0 
0.0 0.0 -1.015157820784e-04 
-1.170824655935e-03 3.363594053323e-04 0.0 
3.363594053323e-04 7.539332247117e-03 0.0 
0.0 0.0 -1.185975225609e-03 
-9.133715629689e-04 2.312110862865e-04 0.0 
2.312110862865e-04 6.719277881344e-03 0.0 
0.0 0.0 -1.123538223191e-03 
1.132049243546e-04 -1.050372997865e-03 0.0 
-1.050372997865e-03 4.871548077874e-04 0.0 
0.0 0.0 -2.572970280609e-04 
-1.081558890546e-03 -1.399243451463e-04 0.0 
-1.399243451463e-04 6.772240372319e-03 0.0 
0.0 0.0 -9.893338170986e-04 
-1.329126769976e-03 -2.338155039388e-04 0.0 
-2.338155039388e-04 8.188960966632e-03 0.0 
0.0 0.0 -1.282739585886e-03 
-1.129882241773e-03 5.744296922873e-04 0.0 
5.744296922873e-04 7.355375345581e-03 0.0 
0.0 0.0 -1.182073443778e-03 
-1.178192896547e-03 4.553534655183e-04 0.0 
4.553534655183e-04 7.891430484162e-03 0.0 
0.0 0.0 -1.215129606110e-03 
-1.157436434489e-03 -2.420799146488e-04 0.0 
-2.420799146488e-04 6.201441230335e-03 0.0 
0.0 0.0 -9.537126495859e-04 
0.0 0.0 0.0 
0.0 0.0 0.0 
0.0 0.0 0.0 
-5.231800249051e-04 6.591753538455e-04 0.0 
6.591753538455e-04 1.847843507099e-03 0.0 
0.0 0.0 -3.212443691966e-04 
-5.564787132596e-04 8.940027195274e-04 0.0 
8.940027195274e-04 2.137708509351e-03 0.0 
0.0 0.0 -3.834349432650e-04 
-9.473774776597e-04 1.764703939582e-04 0.0 
1.764703939582e-04 5.384019631323e-03 0.0 
0.0 0.0 -8.471429939415e-04 
-7.614839710960e-04 6.584444641784e-04 0.0 
6.584444641784e-04 5.752238999582e-03 0.0 
0.0 0.0 -9.781602908260e-04 
-1.285624241878e-03 -4.326792981855e-05 0.0 
-4.326792981855e-05 8.288168648148e-03 0.0 
0.0 0.0 -1.236541257690e-03 
-1.217308294029e-03 1.640866066604e-04 0.0 
1.640866066604e-04 7.793774931469e-03 0.0 
0.0 0.0 -1.282325209426e-03 
-8.954075940437e-05 -8.680076304404e-04 0.0 
-8.680076304404e-04 7.337139848585e-04 0.0 
0.0 0.0 -2.760742394804e-04 
-3.009716750380e-04 -4.715458723185e-04 0.0 
-4.715458723185e-04 9.308600569539e-04 0.0 
0.0 0.0 -1.704796444516e-04 
-4.318023328758e-04 9.056222759074e-04 0.0 
9.056222759074e-04 1.421929475039e-03 0.0 
0.0 0.0 -2.747970858071e-04 
-1.085049996288e-03 3.161557202625e-04 0.0 
3.161557202625e-04 6.749947888276e-03 0.0 
0.0 0.0 -1.019242131223e-03 
-7.105673598930e-04 -3.560858813606e-04 0.0 
-3.560858813606e-04 3.243394900527e-03 0.0 
0.0 0.0 -4.953283059016e-04 
-1.294058250345e-03 1.194991635526e-04 0.0 
1.194991635526e-04 8.278027413572e-03 0.0 
0.0 0.0 -1.241298427557e-03 
-2.801916649698e-04 -2.169380665087e-04 0.0 
-2.169380665087e-04 1.598671665653e-03 0.0 
0.0 0.0 -2.623907620756e-04 
-1.097220766083e-03 2.014729423047e-04 0.0 
2.014729423047e-04 7.397517373048e-03 0.0 
0.0 0.0 -1.221152601860e-03 
-9.286181991470e-04 2.455314232276e-04 0.0 
2.455314232276e-04 5.488935049062e-03 0.0 
0.0 0.0 -8.343732341398e-04 
-1.223283272536e-03 3.593359299497e-04 0.0 
3.593359299497e-04 7.932879470025e-03 0.0 
0.0 0.0 -1.286815605725e-03 
-9.712654839318e-04 1.866157351704e-04 0.0 
1.866157351704e-04 6.891208363551e-03 0.0 
0.0 0.0 -1.111121968474e-03 
-9.581999826764e-04 8.182036761545e-05 0.0 
8.182036761545e-05 5.388937206970e-03 0.0 
0.0 0.0 -8.465141837044e-04 
-1.209961591988e-03 -2.976225161964e-04 0.0 
-2.976225161964e-04 8.170684166123e-03 0.0 
0.0 0.0 -1.269142588751e-03 
-1.323046623582e-03 3.793136222843e-04 0.0 
3.793136222843e-04 8.658663539059e-03 0.0 
0.0 0.0 -1.272727265576e-03 
-1.289749640490e-03 9.124365830308e-05 0.0 
9.124365830308e-05 8.709454540694e-03 0.0 
0.0 0.0 -1.271339345674e-03 
-1.626085801218e-04 8.571684415748e-04 0.0 
8.571684415748e-04 8.875192706734e-04 0.0 
0.0 0.0 -3.044868356389e-04 
-1.267095409920e-03 4.070899744542e-04 0.0 
4.070899744542e-04 8.089876134210e-03 0.0 
0.0 0.0 -1.218309553141e-03 
-1.282164121305e-03 5.174305312528e-04 0.0 
5.174305312528e-04 8.083053308233e-03 0.0 
0.0 0.0 -1.286645293131e-03 
-1.059215435768e-03 -2.009543418022e-05 0.0 
-2.009543418022e-05 7.573607372665e-03 0.0 
0.0 0.0 -1.211735819529e-03 
-9.987418032593e-04 6.142229130813e-04 0.0 
6.142229130813e-04 6.982246170552e-03 0.0 
0.0 0.0 -1.143254064081e-03 
-1.342665167303e-03 -2.857461739196e-04 0.0 
-2.857461739196e-04 8.440143907241e-03 0.0 
0.0 0.0 -1.342665167303e-03 
-1.126760089934e-03 6.437426727216e-04 0.0 
6.437426727216e-04 6.937086787485e-03 0.0 
0.0 0.0 -1.079065255302e-03 
0.0 0.0 0.0 
0.0 0.0 0.0 
0.0 0.0 0.0 
6.191816026709e-05 1.291205818517e-03 0.0 
1.291205818517e-03 7.179353342320e-04 0.0 
0.0 0.0 -3.342229262139e-04 
-1.235056862706e-03 2.777301788060e-04 0.0 
2.777301788060e-04 7.736779237008e-03 0.0 
0.0 0.0 -1.176936364471e-03 
-9.923017078165e-04 3.078956919309e-04 0.0 
3.078956919309e-04 5.849121224287e-03 0.0 
0.0 0.0 -8.884613587993e-04 
-1.298948170332e-03 -3.124306146209e-04 0.0 
-3.124306146209e-04 7.977511740223e-03 0.0 
0.0 0.0 -1.221994126432e-03 
-1.061095181676e-03 1.799058826279e-04 0.0 
1.799058826279e-04 7.334426391334e-03 0.0 
0.0 0.0 -1.177009544428e-03 
-1.289141827740e-03 -3.383964038360e-04 0.0 
-3.383964038360e-04 8.125835853115e-03 0.0 
0.0 0.0 -1.292249833993e-03 
-1.132172011691e-03 2.813138638496e-04 0.0 
2.813138638496e-04 7.272270790879e-03 0.0 
0.0 0.0 -1.085521458831e-03 
-1.247617681667e-03 2.986308671608e-04 0.0 
2.986308671608e-04 7.907076372021e-03 0.0 
0.0 0.0 -1.288973456333e-03 
-1.183175849056e-03 -4.290305750124e-04 0.0 
-4.290305750124e-04 7.735436170610e-03 0.0 
0.0 0.0 -1.233322439334e-03 
-1.175389870133e-03 -8.154118169286e-05 0.0 
-8.154118169286e-05 7.695545006504e-03 0.0 
0.0 0.0 -1.235043566395e-03 
-7.287005066558e-04 -2.363504694994e-04 0.0 
-2.363504694994e-04 3.412626924282e-03 0.0 
0.0 0.0 -5.104964012366e-04 
-1.311532395302e-03 -3.318821641935e-04 0.0 
-3.318821641935e-04 8.754426494470e-03 0.0 
0.0 0.0 -1.325641941534e-03 
-8.790480836699e-04 9.973280973964e-05 0.0 
9.973280973964e-05 5.256747279211e-03 0.0 
0.0 0.0 -7.662153309038e-04 
-1.249481013832e-03 -1.180321759362e-04 0.0 
-1.180321759362e-04 8.200814515591e-03 0.0 
0.0 0.0 -1.217406395242e-03 
-1.652940304057e-04 -5.197313760388e-04 0.0 
-5.197313760388e-04 7.163944105236e-04 0.0 
0.0 0.0 -2.361858771934e-04 
-1.199456095747e-03 -9.281141696113e-05 0.0 
-9.281141696113e-05 7.932283218576e-03 0.0 
0.0 0.0 -1.163202487293e-03 
-1.073812189916e-03 1.019150907596e-06 0.0 
1.019150907596e-06 6.842466406292e-03 0.0 
0.0 0.0 -9.926133712568e-04 
-8.677292434787e-05 -7.776541442063e-05 0.0 
-7.776541442063e-05 9.098025117225e-04 0.0 
0.0 0.0 -1.628620303624e-04 
5.265410319422e-04 -6.941530982861e-04 0.0 
-6.941530982861e-04 -3.231659341296e-05 0.0 
0.0 0.0 -2.118104736554e-04 
-1.137863848184e-03 6.727746037847e-04 0.0 
6.727746037847e-04 7.103743294949e-03 0.0 
0.0 0.0 -1.107581195644e-03 
-1.316054950297e-03 1.463718814179e-04 0.0 
1.463718814179e-04 8.450854861123e-03 0.0 
0.0 0.0 -1.285368862661e-03 
-1.275071184009e-03 -1.337709164893e-04 0.0 
-1.337709164893e-04 8.307471815085e-03 0.0 
0.0 0.0 -1.223917301752e-03 
-1.160153297854e-03 5.261040585439e-04 0.0 
5.261040585439e-04 7.939180437512e-03 0.0 
0.0 0.0 -1.264779455601e-03 
-9.786681000752e-04 2.797069543092e-04 0.0 
2.797069543092e-04 5.828399650514e-03 0.0 
0.0 0.0 -8.807565902733e-04 
6.088519586403e-05 -4.917250620978e-05 0.0 
-4.917250620978e-05 4.869793999348e-04 0.0 
0.0 0.0 -1.094929743475e-04 
6.111566355022e-05 5.640636810901e-05 0.0 
5.640636810901e-05 -1.157323767526e-05 0.0 
0.0 0.0 -2.123246823213e-05 
-1.420251948107e-04 8.764175524857e-05 0.0 
8.764175524857e-05 4.773240057954e-04 0.0 
0.0 0.0 -1.256389127973e-04 
-3.632499277279e-04 -7.837444408696e-04 0.0 
-7.837444408696e-04 1.194209396961e-03 0.0 
0.0 0.0 -2.225718436208e-04 
0.0 0.0 0.0 
0.0 0.0 0.0 
0.0 0.0 0.0 
-8.980038842560e-04 -6.868916122841e-05 0.0 
-6.868916122841e-05 4.504377363934e-03 0.0 
0.0 0.0 -6.753304527203e-04 
-1.294165048711e-03 6.161991819009e-05 0.0 
6.161991819009e-05 7.969168976077e-03 0.0 
0.0 0.0 -1.222305993939e-03 
-1.264474650052e-03 5.734696938905e-04 0.0 
5.734696938905e-04 8.077312517039e-03 0.0 
0.0 0.0 -1.222833113937e-03 
-1.006464770387e-03 3.394189907578e-05 0.0 
3.394189907578e-05 5.834781281692e-03 0.0 
0.0 0.0 -8.826313165011e-04 
-8.266334947460e-04 -5.354606523691e-04 0.0 
-5.354606523691e-04 3.869366937566e-03 0.0 
0.0 0.0 -5.988529843847e-04 
-1.198642937147e-03 -4.684662880526e-04 0.0 
-4.684662880526e-04 7.783754842457e-03 0.0 
0.0 0.0 -1.221067908166e-03 
-1.068035990990e-03 1.115403335333e-04 0.0 
1.115403335333e-04 7.531635864011e-03 0.0 
0.0 0.0 -1.208702654310e-03 
-1.208049507468e-03 4.869249044164e-04 0.0 
4.869249044164e-04 8.191633662499e-03 0.0 
0.0 0.0 -1.272252409145e-03 
-1.227816291176e-03 4.361504529360e-04 0.0 
4.361504529360e-04 7.755209047765e-03 0.0 
0.0 0.0 -1.237422270938e-03 
-1.191139084829e-03 6.619264216726e-04 0.0 
6.619264216726e-04 7.533865048847e-03 0.0 
0.0 0.0 -1.171232062679e-03 
-1.920899935495e-04 -3.005289282689e-04 0.0 
-3.005289282689e-04 6.978999469600e-04 0.0 
0.0 0.0 -2.167756943188e-04 
0.0 0.0 0.0 
0.0 0.0 0.0 
0.0 0.0 0.0 
-1.308655472056e-03 -3.526594848147e-04 0.0 
-3.526594848147e-04 8.026041467974e-03 0.0 
0.0 0.0 -1.223662873675e-03 
-1.521155326843e-04 1.616990335056e-05 0.0 
1.616990335056e-05 7.009749630609e-04 0.0 
0.0 0.0 -1.761523314621e-04 
-1.768246005743e-04 2.416090922495e-04 0.0 
2.416090922495e-04 1.018026141244e-03 0.0 
0.0 0.0 -1.933333333332e-04 
1.266269026244e-04 4.459901967828e-04 0.0 
4.459901967828e-04 1.149333659383e-04 0.0 
0.0 0.0 -1.035258293840e-04 
-1.677849962930e-04 -2.830770546558e-04 0.0 
-2.830770546558e-04 8.015651116380e-04 0.0 
0.0 0.0 -1.580296812506e-04 
-1.271854076500e-03 -2.557043152436e-04 0.0 
-2.557043152436e-04 7.945254530657e-03 0.0 
0.0 0.0 -1.288571152055e-03 
-1.306788030849e-03 4.109202426763e-04 0.0 
4.109202426763e-04 8.216249132470e-03 0.0 
0.0 0.0 -1.290113636706e-03 
-1.294468783320e-03 3.035835675296e-04 0.0 
3.035835675296e-04 8.293038568859e-03 0.0 
0.0 0.0 -1.236907757659e-03 
-1.272697522653e-03 4.000546130429e-04 0.0 
4.000546130429e-04 7.992915461605e-03 0.0 
0.0 0.0 -1.292605224168e-03 
-1.039048517881e-03 -2.511628389219e-04 0.0 
-2.511628389219e-04 7.217306455236e-03 0.0 
0.0 0.0 -1.176879138244e-03 
-9.963056410622e-04 2.982297539881e-04 0.0 
2.982297539881e-04 6.108837095234e-03 0.0 
0.0 0.0 -9.170130443517e-04 
-1.345069444888e-03 2.094806773474e-04 0.0 
2.094806773474e-04 8.819921791921e-03 0.0 
0.0 0.0 -1.345069444888e-03 
1.552293122710e-04 -1.587596842018e-03 0.0 
-1.587596842018e-03 7.594496357434e-04 0.0 
0.0 0.0 -3.920052634348e-04 
-7.958568066072e-04 2.655126968941e-05 0.0 
2.655126968941e-05 4.862635053177e-03 0.0 
0.0 0.0 -7.083073883397e-04 
-3.709027017311e-05 -1.154290083415e-03 0.0 
-1.154290083415e-03 8.071251517729e-04 0.0 
0.0 0.0 -3.300149492570e-04 
-8.078687300304e-05 2.766710122456e-05 0.0 
2.766710122456e-05 2.705585081320e-04 0.0 
0.0 0.0 -8.133070076957e-05 
-1.328088305276e-03 -2.091716352919e-04 0.0 
-2.091716352919e-04 8.801339781229e-03 0.0 
0.0 0.0 -1.323850096553e-03 
-9.077000763770e-04 9.794404475147e-05 0.0 
9.794404475147e-05 5.306610706151e-03 0.0 
0.0 0.0 -7.731261162940e-04 
-1.693805322071e-04 -2.625883935893e-05 0.0 
-2.625883935893e-05 1.305243597625e-03 0.0 
0.0 0.0 -2.115341463249e-04 
-9.189085389785e-04 8.964891235688e-05 0.0 
8.964891235688e-05 4.273021875062e-03 0.0 
0.0 0.0 -6.570498647039e-04 
-1.286146232063e-03 5.231039738263e-04 0.0 
5.231039738263e-04 8.474365430469e-03 0.0 
0.0 0.0 -1.276804206569e-03 
-1.288400651325e-03 -4.306470642736e-06 0.0 
-4.306470642736e-06 8.274343384212e-03 0.0 
0.0 0.0 -1.228616961883e-03 
-1.323624610775e-03 3.216369829918e-04 0.0 
3.216369829918e-04 8.408100187569e-03 0.0 
0.0 0.0 -1.289666537713e-03 
-6.585033223124e-04 -1.956809026779e-04 0.0 
-1.956809026779e-04 3.104860358543e-03 0.0 
0.0 0.0 -4.695399720401e-04 
0.0 0.0 0.0 
0.0 0.0 0.0 
0.0 0.0 0.0 
-1.295369683638e-03 -4.352781909349e-04 0.0 
-4.352781909349e-04 8.328377963407e-03 0.0 
0.0 0.0 -1.273144391159e-03 
-1.316384665971e-03 4.635940691717e-05 0.0 
4.635940691717e-05 9.091692367136e-03 0.0 
0.0 0.0 -1.325353038101e-03 
-1.373672636792e-03 -7.774901455504e-05 0.0 
-7.774901455504e-05 8.873813327292e-03 0.0 
0.0 0.0 -1.323783523096e-03 
-8.637809619907e-04 1.323503679534e-04 0.0 
1.323503679534e-04 5.089707097874e-03 0.0 
0.0 0.0 -7.673431308700e-04 
-1.131532193974e-03 -7.726473612600e-05 0.0 
-7.726473612600e-05 7.445464928452e-03 0.0 
0.0 0.0 -1.231867668451e-03 
-2.317572587520e-04 -1.314436244158e-04 0.0 
-1.314436244158e-04 1.130415722071e-03 0.0 
0.0 0.0 -2.324200178898e-04 
-1.299745087394e-03 4.291095854891e-04 0.0 
4.291095854891e-04 8.286657472724e-03 0.0 
0.0 0.0 -1.241575510934e-03 
-4.846130298420e-05 -4.886976193625e-05 0.0 
-4.886976193625e-05 2.622595636012e-04 0.0 
0.0 0.0 -9.162782597871e-05 
-1.263516092246e-03 -1.718330630488e-04 0.0 
-1.718330630488e-04 7.907025787409e-03 0.0 
0.0 0.0 -1.290713494763e-03 
-1.321680158597e-03 4.673078731777e-04 0.0 
4.673078731777e-04 8.597815189326e-03 0.0 
0.0 0.0 -1.268585396830e-03 
0.0 0.0 0.0 
0.0 0.0 0.0 
0.0 0.0 0.0 
-1.124591088079e-03 3.211880423142e-04 0.0 
3.211880423142e-04 7.458066064736e-03 0.0 
0.0 0.0 -1.178018281593e-03 
-1.107869427890e-03 -1.505180591586e-04 0.0 
-1.505180591586e-04 7.012739571933e-03 0.0 
0.0 0.0 -1.053859681778e-03 
-1.308771083341e-03 9.446579517484e-05 0.0 
9.446579517484e-05 8.493525012630e-03 0.0 
0.0 0.0 -1.289687241943e-03 
-1.346242744377e-03 2.039443759450e-04 0.0 
2.039443759450e-04 8.307404063276e-03 0.0 
0.0 0.0 -1.346242744377e-03 
-1.050842893348e-03 -2.891538303944e-04 0.0 
-2.891538303944e-04 6.421171579649e-03 0.0 
0.0 0.0 -9.627310317561e-04 
-1.303758961951e-03 4.903154082554e-04 0.0 
4.903154082554e-04 8.278630388455e-03 0.0 
0.0 0.0 -1.292510612804e-03 
-1.300990074097e-03 1.669276888751e-04 0.0 
1.669276888751e-04 8.244189692926e-03 0.0 
0.0 0.0 -1.236507170568e-03 
-1.088170666265e-03 3.228048852164e-05 0.0 
3.228048852164e-05 6.587667922864e-03 0.0 
0.0 0.0 -1.009625451247e-03 
-1.257890102395e-03 4.520446479729e-04 0.0 
4.520446479729e-04 7.985706155656e-03 0.0 
0.0 0.0 -1.247605899893e-03 
-7.721939041237e-04 -2.584607340664e-04 0.0 
-2.584607340664e-04 3.598089332548e-03 0.0 
0.0 0.0 -5.668522599723e-04 
-8.446801208318e-04 -1.785300824749e-05 0.0 
-1.785300824749e-05 4.608085736335e-03 0.0 
0.0 0.0 -7.287847301676e-04 
-1.179784032877e-03 5.549241153248e-04 0.0 
5.549241153248e-04 7.775803262496e-03 0.0 
0.0 0.0 -1.239219007812e-03 
-1.299529222104e-03 1.321426560981e-04 0.0 
1.321426560981e-04 8.646134742124e-03 0.0 
0.0 0.0 -1.286506427510e-03 
2.831255439195e-04 1.360672473440e-05 0.0 
1.360672473440e-05 -8.482055415176e-05 0.0 
0.0 0.0 -8.498785275758e-05 
-8.370484008237e-04 5.623912198418e-05 0.0 
5.623912198418e-05 4.626828224470e-03 0.0 
0.0 0.0 -7.284590636140e-04 
-1.335071484274e-03 -1.600713729454e-04 0.0 
-1.600713729454e-04 8.440371416104e-03 0.0 
0.0 0.0 -1.288082484959e-03 
-3.767414468585e-04 -4.451842935601e-05 0.0 
-4.451842935601e-05 1.577633672495e-03 0.0 
0.0 0.0 -2.765646858065e-04 
-1.088631360797e-03 4.564803545026e-05 0.0 
4.564803545026e-05 7.667059339477e-03 0.0 
0.0 0.0 -1.213252366005e-03 
-1.271794335805e-03 2.301245021833e-04 0.0 
2.301245021833e-04 8.183403677429e-03 0.0 
0.0 0.0 -1.225943235494e-03 
-1.312602819485e-03 -3.967668182090e-05 0.0 
-3.967668182090e-05 8.691988746778e-03 0.0 
0.0 0.0 -1.269037835114e-03 
-3.083660169777e-04 2.694773361529e-05 0.0 
2.694773361529e-05 1.528069924280e-03 0.0 
0.0 0.0 -2.647987373252e-04 
3.113151605038e-04 9.413576912784e-04 0.0 
9.413576912784e-04 1.991549585730e-04 0.0 
0.0 0.0 -2.187729081758e-04 
-1.068435724364e-03 3.124616463362e-04 0.0 
3.124616463362e-04 5.213213290896e-03 0.0 
0.0 0.0 -7.939471195916e-04 
-1.202568648909e-03 1.058847220047e-04 0.0 
1.058847220047e-04 7.572272609772e-03 0.0 
0.0 0.0 -1.120841203304e-03 
0.0 0.0 0.0 
0.0 0.0 0.0 
0.0 0.0 0.0 
-1.320199164535e-03 2.485994904543e-04 0.0 
2.485994904543e-04 8.472368730029e-03 0.0 
0.0 0.0 -1.292233508669e-03 
-1.037229848653e-03 5.491249721839e-05 0.0 
5.491249721839e-05 6.181123680978e-03 0.0 
0.0 0.0 -9.501928138396e-04 
-2.112219927373e-05 -1.374997492072e-03 0.0 
-1.374997492072e-03 9.175924767207e-04 0.0 
0.0 0.0 -3.842015474773e-04 
-1.012609583766e-03 8.895330680236e-05 0.0 
8.895330680236e-05 5.872726185200e-03 0.0 
0.0 0.0 -9.030544305944e-04 
-1.225691657466e-03 3.254133079920e-04 0.0 
3.254133079920e-04 8.211721301461e-03 0.0 
0.0 0.0 -1.271643562581e-03 
-1.073143154962e-03 -3.082428058209e-04 0.0 
-3.082428058209e-04 5.482950483311e-03 0.0 
0.0 0.0 -8.272804529250e-04 
5.706336378383e-06 4.020754343460e-05 0.0 
4.020754343460e-05 1.674498004562e-05 0.0 
0.0 0.0 -9.621992753142e-06 
-7.676399437614e-04 -3.808740375144e-05 0.0 
-3.808740375144e-05 3.237219166554e-03 0.0 
0.0 0.0 -5.209635072927e-04 
-9.628338005869e-04 -8.201294567373e-05 0.0 
-8.201294567373e-05 4.764994978367e-03 0.0 
0.0 0.0 -7.319997505002e-04 
-1.071554526652e-03 3.282695898754e-04 0.0 
3.282695898754e-04 5.655927594763e-03 0.0 
0.0 0.0 -8.599999999992e-04 
-1.135384068353e-03 1.731479619930e-04 0.0 
1.731479619930e-04 7.715574497297e-03 0.0 
0.0 0.0 -1.232780192057e-03 
-9.798919804233e-04 -2.558628748534e-04 0.0 
-2.558628748534e-04 4.608642650891e-03 0.0 
0.0 0.0 -7.175509632692e-04 
-9.821029958470e-04 -3.508647879924e-05 0.0 
-3.508647879924e-05 4.890525845077e-03 0.0 
0.0 0.0 -7.596628988333e-04 
-1.837560013843e-04 -1.583099615282e-05 0.0 
-1.583099615282e-05 7.060885550868e-04 0.0 
0.0 0.0 -1.551230728613e-04 
-1.279400136320e-03 -1.566945304177e-04 0.0 
-1.566945304177e-04 7.936225660633e-03 0.0 
0.0 0.0 -1.240629869904e-03 
-1.185998620198e-03 6.438056067403e-04 0.0 
6.438056067403e-04 7.550199019485e-03 0.0 
0.0 0.0 -1.186362110037e-03 
2.427830448571e-04 7.191273176983e-04 0.0 
7.191273176983e-04 1.478022189351e-04 0.0 
0.0 0.0 -1.673936844824e-04 
-1.279430862365e-03 -6.414688066309e-05 0.0 
-6.414688066309e-05 8.547621756056e-03 0.0 
0.0 0.0 -1.290349483557e-03 
-1.338884708819e-03 1.031550988355e-04 0.0 
1.031550988355e-04 8.369469127644e-03 0.0 
0.0 0.0 -1.290356026000e-03 
-8.661241169029e-04 -1.497599566473e-04 0.0 
-1.497599566473e-04 5.210623571048e-03 0.0 
0.0 0.0 -7.639788432047e-04 
-1.031081386504e-03 4.454962226943e-05 0.0 
4.454962226943e-05 6.379322053578e-03 0.0 
0.0 0.0 -9.358343396975e-04 
-9.489099175762e-04 2.306915430345e-05 0.0 
2.306915430345e-05 4.686801294291e-03 0.0 
0.0 0.0 -7.108516105536e-04 
-9.490845872611e-04 -2.424415655702e-04 0.0 
-2.424415655702e-04 4.770889395299e-03 0.0 
0.0 0.0 -7.343037059241e-04 
-1.020778085259e-03 -1.236146397605e-04 0.0 
-1.236146397605e-04 5.063951457963e-03 0.0 
0.0 0.0 -7.498489858827e-04 
-1.029397936689e-03 2.088387744417e-04 0.0 
2.088387744417e-04 7.190812739883e-03 0.0 
0.0 0.0 -1.180929064624e-03 
-9.345291821784e-05 -1.000980982166e-03 0.0 
-1.000980982166e-03 8.249248585122e-04 0.0 
0.0 0.0 -3.134879744119e-04 
-1.217539983379e-03 3.641850333419e-04 0.0 
3.641850333419e-04 7.975823276789e-03 0.0 
0.0 0.0 -1.217816617926e-03 
-9.353852917844e-04 8.308411466891e-05 0.0 
8.308411466891e-05 5.379160797006e-03 0.0 
0.0 0.0 -8.376728236383e-04 
-1.321070874734e-03 1.232042406106e-04 0.0 
1.232042406106e-04 8.662379723599e-03 0.0 
0.0 0.0 -1.272153791098e-03 
-1.041736228558e-03 -1.048021857426e-04 0.0 
-1.048021857426e-04 7.166745997700e-03 0.0 
0.0 0.0 -1.181257232468e-03 
-9.798440822242e-04 -3.118370163861e-05 0.0 
-3.118370163861e-05 6.079525789277e-03 0.0 
0.0 0.0 -8.902468719969e-04 
-1.234647512165e-03 5.766899331800e-04 0.0 
5.766899331800e-04 7.752454878246e-03 0.0 
0.0 0.0 -1.201032862555e-03 
-1.158629351689e-03 4.496790680983e-04 0.0 
4.496790680983e-04 7.611289473110e-03 0.0 
0.0 0.0 -1.236767197193e-03 
-1.208868880085e-03 3.342350738492e-04 0.0 
3.342350738492e-04 8.181025928136e-03 0.0 
0.0 0.0 -1.270271405117e-03 
3.097542277650e-05 6.697677954972e-05 0.0 
6.697677954972e-05 7.281263968875e-06 0.0 
0.0 0.0 -1.639572289087e-05 
-1.241892221072e-03 3.317116238901e-04 0.0 
3.317116238901e-04 7.798927866879e-03 0.0 
0.0 0.0 -1.198686027802e-03 
-1.247779771289e-03 6.731204463031e-04 0.0 
6.731204463031e-04 8.074479962319e-03 0.0 
0.0 0.0 -1.227078865044e-03 
-6.925802389634e-05 -2.106877258132e-04 0.0 
-2.106877258132e-04 8.393317830722e-04 0.0 
0.0 0.0 -1.488313462956e-04 
-9.198582411310e-04 -2.516763361700e-04 0.0 
-2.516763361700e-04 4.361749592167e-03 0.0 
0.0 0.0 -6.841365946973e-04 
8.862067450551e-06 2.614979262088e-05 0.0 
2.614979262088e-05 5.345349754711e-06 0.0 
0.0 0.0 -6.088893087969e-06 
-1.270183579808e-03 3.785933793144e-04 0.0 
3.785933793144e-04 8.183372897712e-03 0.0 
0.0 0.0 -1.230789928679e-03 
-1.213186452572e-05 -3.318622862817e-05 0.0 
-3.318622862817e-05 5.011566155503e-05 0.0 
0.0 0.0 -1.627877015542e-05 
-1.124301442797e-04 -1.611404197513e-07 0.0 
-1.611404197513e-07 3.432982389502e-04 0.0 
0.0 0.0 -4.888888888889e-05 
0.0 0.0 0.0 
0.0 0.0 0.0 
0.0 0.0 0.0 
-8.879606862257e-05 -1.972416980610e-05 0.0 
-1.972416980610e-05 3.353168401257e-04 0.0 
0.0 0.0 -4.888888888889e-05 
0.0 0.0 0.0 
0.0 0.0 0.0 
0.0 0.0 0.0 
-7.728285700716e-05 -1.670758170987e-05 0.0 
-1.670758170987e-05 3.334592315152e-04 0.0 
0.0 0.0 -4.888888888889e-05 
0.0 0.0 0.0 
0.0 0.0 0.0 
0.0 0.0 0.0 
-6.877233484283e-05 -1.468106125580e-05 0.0 
-1.468106125580e-05 3.315950089489e-04 0.0 
0.0 0.0 -4.888888888889e-05 
0.0 0.0 0.0 
0.0 0.0 0.0 
0.0 0.0 0.0 
-6.127954575598e-05 -1.456759096815e-05 0.0 
-1.456759096815e-05 3.293550389711e-04 0.0 
0.0 0.0 -4.888888888889e-05 
0.0 0.0 0.0 
0.0 0.0 0.0 
0.0 0.0 0.0 
-5.376107618517e-05 -1.559517196341e-05 0.0 
-1.559517196341e-05 3.267339611519e-04 0.0 
0.0 0.0 -4.888888888889e-05 
0.0 0.0 0.0 
0.0 0.0 0.0 
0.0 0.0 0.0 
-4.571743444316e-05 -1.726865307104e-05 0.0 
-1.726865307104e-05 3.237376995542e-04 0.0 
0.0 0.0 -4.888888888889e-05 
0.0 0.0 0.0 
0.0 0.0 0.0 
0.0 0.0 0.0 
-3.692892776565e-05 -1.929450758530e-05 0.0 
-1.929450758530e-05 3.203755673160e-04 0.0 
0.0 0.0 -4.888888888889e-05 
0.0 0.0 0.0 
0.0 0.0 0.0 
0.0 0.0 0.0 
-2.732770271864e-05 -2.147969962049e-05 0.0 
-2.147969962049e-05 3.166665132752e-04 0.0 
0.0 0.0 -4.888888888889e-05 
0.0 0.0 0.0 
0.0 0.0 0.0 
0.0 0.0 0.0 
-1.693800456128e-05 -2.368182920942e-05 0.0 
-2.368182920942e-05 3.126441790713e-04 0.0 
0.0 0.0 -4.888888888889e-05 
0.0 0.0 0.0 
0.0 0.0 0.0 
0.0 0.0 0.0 
-5.843860185219e-06 -2.579699776590e-05 0.0 
-2.579699776590e-05 3.083606963166e-04 0.0 
0.0 0.0 -4.888888888889e-05 
0.0 0.0 0.0 
0.0 0.0 0.0 
0.0 0.0 0.0 
-9.661165464755e-06 2.522926249328e-04 0.0 
2.522926249328e-04 1.794330519401e-04 0.0 
0.0 0.0 -7.275937991801e-05 
5.844098155059e-06 -2.777081462160e-05 0.0 
-2.777081462160e-05 3.038755934477e-04 0.0 
0.0 0.0 -4.888888888889e-05 
0.0 0.0 0.0 
0.0 0.0 0.0 
0.0 0.0 0.0 
3.286539474606e-05 -3.172327017478e-05 0.0 
-3.172327017478e-05 2.948358227901e-04 0.0 
0.0 0.0 -5.336283120896e-05 
2.835385912201e-04 1.572019524594e-04 0.0 
1.572019524594e-04 -7.037885726953e-05 0.0 
0.0 0.0 -3.676461526219e-05 
0.0 0.0 0.0 
0.0 0.0 0.0 
0.0 0.0 0.0 
7.146139383914e-05 -3.738636949333e-05 0.0 
-3.738636949333e-05 2.823891822908e-04 0.0 
0.0 0.0 -6.121185867646e-05 
0.0 0.0 0.0 
0.0 0.0 0.0 
0.0 0.0 0.0 
0.0 0.0 0.0 
0.0 0.0 0.0 
0.0 0.0 0.0 
1.125278711409e-04 -4.363688559439e-05 0.0 
-4.363688559439e-05 2.692991254216e-04 0.0 
0.0 0.0 -6.972658017996e-05 
0.0 0.0 0.0 
0.0 0.0 0.0 
0.0 0.0 0.0 
1.565387087109e-04 -5.055899617735e-05 0.0 
-5.055899617735e-05 2.552784413947e-04 0.0 
0.0 0.0 -7.904111842053e-05 
0.0 0.0 0.0 
0.0 0.0 0.0 
0.0 0.0 0.0 
2.039871606388e-04 -5.822333963124e-05 0.0 
-5.822333963124e-05 2.403256932456e-04 0.0 
0.0 0.0 -8.935284943411e-05 
0.0 0.0 0.0 
0.0 0.0 0.0 
0.0 0.0 0.0 
2.553204976477e-04 -6.664818867380e-05 0.0 
-6.664818867380e-05 2.242606801282e-04 0.0 
0.0 0.0 -1.008559868979e-04 
0.0 0.0 0.0 
0.0 0.0 0.0 
0.0 0.0 0.0 
1.215250817648e-05 4.443430144110e-04 0.0 
4.443430144110e-04 2.624600026458e-04 0.0 
0.0 0.0 -1.176910760667e-04 
3.076643417814e-04 -7.412285557925e-05 0.0 
-7.412285557925e-05 2.068825600106e-04 0.0 
0.0 0.0 -1.090435856933e-04 
0.0 0.0 0.0 
0.0 0.0 0.0 
0.0 0.0 0.0 
3.626238720940e-04 -7.799325639083e-05 0.0 
-7.799325639083e-05 1.845427527036e-04 0.0 
0.0 0.0 -1.078922419249e-04 
0.0 0.0 0.0 
0.0 0.0 0.0 
0.0 0.0 0.0 
4.127801466227e-04 -7.479812292071e-05 0.0 
-7.479812292071e-05 1.665029335498e-04 0.0 
0.0 0.0 -1.071162837014e-04 
4.553411645560e-04 -6.154347677815e-05 0.0 
-6.154347677815e-05 1.487553833612e-04 0.0 
0.0 0.0 -1.051760039690e-04 
0.0 0.0 0.0 
0.0 0.0 0.0 
0.0 0.0 0.0 
4.693260012291e-04 -3.707580983430e-05 0.0 
-3.707580983430e-05 1.507927463623e-04 0.0 
0.0 0.0 -1.053996798402e-04 
0.0 0.0 0.0 
0.0 0.0 0.0 
0.0 0.0 0.0 
4.723113496898e-04 -3.026048707522e-06 0.0 
-3.026048707522e-06 1.484558888312e-04 0.0 
0.0 0.0 -1.030864903597e-04 
0.0 0.0 0.0 
0.0 0.0 0.0 
0.0 0.0 0.0 
6.664255244665e-04 -1.178142216366e-05 0.0 
-1.178142216366e-05 1.214779122206e-04 0.0 
0.0 0.0 -1.922802162109e-04 
0.0 0.0 0.0 
0.0 0.0 0.0 
0.0 0.0 0.0 
4.777280677557e-04 6.237748011647e-05 0.0 
6.237748011647e-05 1.373247112154e-04 0.0 
0.0 0.0 -1.266017663582e-04 
1.030905293596e-04 1.902030421710e-04 0.0 
1.902030421710e-04 2.503097090987e-04 0.0 
0.0 0.0 -4.888888888889e-05 
0.0 0.0 0.0 
0.0 0.0 0.0 
0.0 0.0 0.0 
0.0 0.0 0.0 
0.0 0.0 0.0 
0.0 0.0 0.0 
-9.049736668290e-05 1.515528721568e-04 0.0 
1.515528721568e-04 3.344560408726e-04 0.0 
0.0 0.0 -1.045537175099e-04 
4.316355417707e-05 -2.199777132450e-04 0.0 
-2.199777132450e-04 7.665058175765e-05 0.0 
0.0 0.0 -5.134891540060e-05 
-5.322138736472e-05 2.632498777402e-04 0.0 
2.632498777402e-04 2.618657903172e-04 0.0 
0.0 0.0 -7.166020489681e-05 
1.779048081143e-05 -8.762673262287e-05 0.0 
-8.762673262287e-05 1.060522165755e-04 0.0 
0.0 0.0 -3.777777777778e-05 
-5.480231939535e-05 1.805485339698e-05 0.0 
1.805485339698e-05 1.834713032679e-04 0.0 
0.0 0.0 -5.514385023110e-05 
0.0 0.0 0.0 
0.0 0.0 0.0 
0.0 0.0 0.0 
-1.445556555502e-04 -5.649610296742e-05 0.0 
-5.649610296742e-05 6.191870734237e-04 0.0 
0.0 0.0 -1.155555555556e-04 
-1.145815398298e-04 4.633195003822e-05 0.0 
4.633195003822e-05 3.844424045572e-04 0.0 
0.0 0.0 -1.156546563117e-04 
-1.421238444497e-04 -2.278389267629e-05 0.0 
-2.278389267629e-05 7.308386532640e-04 0.0 
0.0 0.0 -1.155555555556e-04 
-1.198757460646e-04 -1.608001406284e-05 0.0 
-1.608001406284e-05 3.998759483491e-04 0.0 
0.0 0.0 -1.200000866933e-04 
-1.417923566277e-04 -2.339573055473e-05 0.0 
-2.339573055473e-05 7.404322015642e-04 0.0 
0.0 0.0 -1.155555555556e-04 
-1.204682759428e-04 -2.411720489715e-05 0.0 
-2.411720489715e-05 4.022097119129e-04 0.0 
0.0 0.0 -1.207463297015e-04 
-1.396939065194e-04 -2.489358081366e-05 0.0 
-2.489358081366e-05 7.418437125651e-04 0.0 
0.0 0.0 -1.155555555556e-04 
-1.206141473480e-04 -2.754626853413e-05 0.0 
-2.754626853413e-05 4.028920867745e-04 0.0 
0.0 0.0 -1.209762597542e-04 
-1.360520220087e-04 -2.621891566472e-05 0.0 
-2.621891566472e-05 7.416689066503e-04 0.0 
0.0 0.0 -1.155555555556e-04 
-1.205935894802e-04 -3.060219340187e-05 0.0 
-3.060219340187e-05 4.030210444283e-04 0.0 
0.0 0.0 -1.210403378349e-04 
-1.314388669618e-04 -2.793043800442e-05 0.0 
-2.793043800442e-05 7.406379526970e-04 0.0 
0.0 0.0 -1.155555555556e-04 
-1.204765888220e-04 -3.387959264400e-05 0.0 
-3.387959264400e-05 4.028666922167e-04 0.0 
0.0 0.0 -1.210243300263e-04 
-1.261172015834e-04 -3.001442451793e-05 0.0 
-3.001442451793e-05 7.390112763724e-04 0.0 
0.0 0.0 -1.155555555556e-04 
-1.202977006515e-04 -3.738262090039e-05 0.0 
-3.738262090039e-05 4.025494751225e-04 0.0 
0.0 0.0 -1.209650462019e-04 
-1.202100201114e-04 -3.223910591608e-05 0.0 
-3.223910591608e-05 7.369351621648e-04 0.0 
0.0 0.0 -1.155555555556e-04 
-1.200782434704e-04 -4.095023101676e-05 0.0 
-4.095023101676e-05 4.021311436269e-04 0.0 
0.0 0.0 -1.208798143528e-04 
-1.138018147323e-04 -3.433629242130e-05 0.0 
-3.433629242130e-05 7.345027378515e-04 0.0 
0.0 0.0 -1.155555555556e-04 
-1.198349593454e-04 -4.436760988139e-05 0.0 
-4.436760988139e-05 4.016478512437e-04 0.0 
0.0 0.0 -1.207769536707e-04 
-1.069827296762e-04 -3.605720538583e-05 0.0 
-3.605720538583e-05 7.317862428499e-04 0.0 
0.0 0.0 -1.155555555556e-04 
-1.195843579388e-04 -4.740246599665e-05 0.0 
-4.740246599665e-05 4.011265574579e-04 0.0 
0.0 0.0 -1.206609426510e-04 
-9.986730605651e-05 -3.719050669812e-05 0.0 
-3.719050669812e-05 7.288586631103e-04 0.0 
0.0 0.0 -1.155555555556e-04 
-1.193446149056e-04 -4.982470204984e-05 0.0 
-4.982470204984e-05 4.005942026356e-04 0.0 
0.0 0.0 -1.205355375985e-04 
-1.539845930873e-04 3.653933602059e-04 0.0 
3.653933602059e-04 6.099810102609e-04 0.0 
0.0 0.0 -1.954270359315e-04 
-9.260216079712e-05 -3.758552943307e-05 0.0 
-3.758552943307e-05 7.258128479760e-04 0.0 
0.0 0.0 -1.155555555556e-04 
-1.191295485017e-04 -5.145537317715e-05 0.0 
-5.145537317715e-05 4.000659547303e-04 0.0 
0.0 0.0 -1.204013169551e-04 
-8.536134686934e-05 -3.714837024702e-05 0.0 
-3.714837024702e-05 7.227526061054e-04 0.0 
0.0 0.0 -1.155555555556e-04 
-1.020911327988e-04 2.743175509314e-04 0.0 
2.743175509314e-04 4.193501568124e-04 0.0 
0.0 0.0 -1.359681531487e-04 
-1.189499013318e-04 -5.215114943230e-05 0.0 
-5.215114943230e-05 3.995517809510e-04 0.0 
0.0 0.0 -1.202579484082e-04 
-7.834592922142e-05 -3.579315489686e-05 0.0 
-3.579315489686e-05 7.197745967854e-04 0.0 
0.0 0.0 -1.155555555556e-04 
-1.188089137264e-04 -5.176111343497e-05 0.0 
-5.176111343497e-05 3.990402223294e-04 0.0 
0.0 0.0 -1.200991322584e-04 
-7.179392267034e-05 -3.336395678040e-05 0.0 
-3.336395678040e-05 7.169627860611e-04 0.0 
0.0 0.0 -1.155555555556e-04 
-1.187251844824e-04 -4.998705127904e-05 0.0 
-4.998705127904e-05 3.985618033484e-04 0.0 
0.0 0.0 -1.199299795140e-04 
-8.791130780871e-05 4.069370652399e-04 0.0 
4.069370652399e-04 4.519324299817e-04 0.0 
0.0 0.0 -1.560090523598e-04 
-6.602324885598e-05 -2.959545221028e-05 0.0 
-2.959545221028e-05 7.144257839063e-04 0.0 
0.0 0.0 -1.155555555556e-04 
-1.186317336380e-04 -4.664836133848e-05 0.0 
-4.664836133848e-05 3.978916556600e-04 0.0 
0.0 0.0 -1.196828237237e-04 
-6.057744492751e-05 -2.419186038825e-05 0.0 
-2.419186038825e-05 7.120513599855e-04 0.0 
0.0 0.0 -1.155555555556e-04 
-1.185531971508e-04 -4.149263240722e-05 0.0 
-4.149263240722e-05 3.971217056150e-04 0.0 
0.0 0.0 -1.193865036275e-04 
-5.610774882782e-05 -1.740857374203e-05 0.0 
-1.740857374203e-05 7.101230905829e-04 0.0 
0.0 0.0 -1.155555555556e-04 
-1.183832858107e-04 -3.487996936083e-05 0.0 
-3.487996936083e-05 3.959890914720e-04 0.0 
0.0 0.0 -1.189739167120e-04 
-5.374829041318e-05 -8.603267617041e-06 0.0 
-8.603267617041e-06 7.086689363557e-04 0.0 
0.0 0.0 -1.155555555556e-04 
-1.183710991269e-04 -2.487912943956e-05 0.0 
-2.487912943956e-05 3.952728694583e-04 0.0 
0.0 0.0 -1.186721872849e-04 
-5.455012784186e-05 1.991863893056e-06 0.0 
1.991863893056e-06 7.091162823371e-04 0.0 
0.0 0.0 -1.155555555556e-04 
-1.180930059217e-04 -1.408374979499e-05 0.0 
-1.408374979499e-05 3.938693139519e-04 0.0 
0.0 0.0 -1.181898462986e-04 
-5.872974708834e-05 1.875089285624e-05 0.0 
1.875089285624e-05 7.096463081638e-04 0.0 
0.0 0.0 -1.155555555556e-04 
-1.183786241798e-04 5.909008279417e-06 0.0 
5.909008279417e-06 3.946351150373e-04 0.0 
0.0 0.0 -1.183956389389e-04 
-1.082132904289e-04 5.459329709520e-04 0.0 
5.459329709520e-04 5.821226040415e-04 0.0 
0.0 0.0 -2.031039915483e-04 
-1.170856516425e-04 2.321047834245e-05 0.0 
2.321047834245e-05 3.909038119352e-04 0.0 
0.0 0.0 -1.173506401255e-04 
-7.052885819760e-05 4.173931619898e-05 0.0 
4.173931619898e-05 7.152898154065e-04 0.0 
0.0 0.0 -1.155555555556e-04 
-1.166357916736e-04 6.995651561702e-05 0.0 
6.995651561702e-05 3.943468851759e-04 0.0 
0.0 0.0 -1.190190400724e-04 
-8.670415146241e-05 8.491619007359e-05 0.0 
8.491619007359e-05 7.146406335624e-04 0.0 
0.0 0.0 -1.155555555556e-04 
-1.118093887419e-04 8.588718554023e-05 0.0 
8.588718554023e-05 3.813580635506e-04 0.0 
0.0 0.0 -1.155208606323e-04 
-1.188893167111e-04 1.401714738425e-04 0.0 
1.401714738425e-04 7.324696013403e-04 0.0 
0.0 0.0 -1.155555555556e-04 
-1.060581135744e-04 1.976050207793e-04 0.0 
1.976050207793e-04 3.971686064842e-04 0.0 
0.0 0.0 -1.247616398185e-04 
-1.627090536903e-04 2.522727227685e-04 0.0 
2.522727227685e-04 7.171804521177e-04 0.0 
0.0 0.0 -1.155555555556e-04 
-2.424193003847e-04 4.231167454203e-04 0.0 
4.231167454203e-04 7.509782134875e-04 0.0 
0.0 0.0 -1.155555555556e-04 
-6.660892194100e-05 2.323070431625e-04 0.0 
2.323070431625e-04 3.005670619799e-04 0.0 
0.0 0.0 -1.002677743024e-04 
-2.014268236016e-04 -3.560464059745e-04 0.0 
-3.560464059745e-04 6.475023754447e-04 0.0 
0.0 0.0 -1.297456650772e-04 
-1.033237135709e-04 3.547284790225e-04 0.0 
3.547284790225e-04 4.565258791023e-04 0.0 
0.0 0.0 -1.266666666667e-04 
-1.897783931724e-04 -3.954031685421e-05 0.0 
-3.954031685421e-05 6.129477655022e-04 0.0 
0.0 0.0 -1.488888888889e-04 
-1.235894195340e-04 4.223278284885e-05 0.0 
4.223278284885e-05 5.015646082647e-04 0.0 
0.0 0.0 -1.044444444444e-04 
-1.398737198164e-05 4.332159098885e-04 0.0 
4.332159098885e-04 3.030512002631e-04 0.0 
0.0 0.0 -1.238844978349e-04 
-2.507568877565e-04 -6.781486879639e-05 0.0 
-6.781486879639e-05 1.034467775160e-03 0.0 
0.0 0.0 -2.044444444444e-04 
-2.132863225946e-04 5.634913117177e-05 0.0 
5.634913117177e-05 1.212092474557e-03 0.0 
0.0 0.0 -1.822222222222e-04 
-2.461610589791e-04 -1.812098302402e-05 0.0 
-1.812098302402e-05 8.981328864429e-04 0.0 
0.0 0.0 -2.044444444444e-04 
-2.147267041248e-04 -1.989947913997e-05 0.0 
-1.989947913997e-05 1.202740032189e-03 0.0 
0.0 0.0 -1.822222222222e-04 
-2.460600324532e-04 -2.274720541184e-05 0.0 
-2.274720541184e-05 8.914949546044e-04 0.0 
0.0 0.0 -2.044444444444e-04 
-2.150479374063e-04 -3.129458083310e-05 0.0 
-3.129458083310e-05 1.203006354940e-03 0.0 
0.0 0.0 -1.822222222222e-04 
-2.462198430306e-04 -2.804713420072e-05 0.0 
-2.804713420072e-05 8.921980041224e-04 0.0 
0.0 0.0 -2.044444444444e-04 
-2.141656031950e-04 -3.699561073311e-05 0.0 
-3.699561073311e-05 1.203365013804e-03 0.0 
0.0 0.0 -1.822222222222e-04 
-2.459136250081e-04 -3.248848067824e-05 0.0 
-3.248848067824e-05 8.927753519548e-04 0.0 
0.0 0.0 -2.044444444444e-04 
-2.122841426835e-04 -4.178890406880e-05 0.0 
-4.178890406880e-05 1.203187073411e-03 0.0 
0.0 0.0 -1.822222222222e-04 
-2.451128265315e-04 -3.658181966735e-05 0.0 
-3.658181966735e-05 8.928179900179e-04 0.0 
0.0 0.0 -2.044444444444e-04 
-2.096338774208e-04 -4.639395384728e-05 0.0 
-4.639395384728e-05 1.202492533832e-03 0.0 
0.0 0.0 -1.822222222222e-04 
-2.439185593551e-04 -4.044618690082e-05 0.0 
-4.044618690082e-05 8.924006711282e-04 0.0 
0.0 0.0 -2.044444444444e-04 
-2.064069130785e-04 -5.085054166689e-05 0.0 
-5.085054166689e-05 1.201368601297e-03 0.0 
0.0 0.0 -1.822222222222e-04 
-2.424743071365e-04 -4.396506173464e-05 0.0 
-4.396506173464e-05 8.916444911649e-04 0.0 
0.0 0.0 -2.044444444444e-04 
-2.027612687777e-04 -5.497813936568e-05 0.0 
-5.497813936568e-05 1.199902319193e-03 0.0 
0.0 0.0 -1.822222222222e-04 
-2.409391640056e-04 -4.692461244445e-05 0.0 
-4.692461244445e-05 8.906630498378e-04 0.0 
0.0 0.0 -2.044444444444e-04 
-1.988396521453e-04 -5.851701212049e-05 0.0 
-5.851701212049e-05 1.198169967889e-03 0.0 
0.0 0.0 -1.822222222222e-04 
-2.394698953818e-04 -4.906970077185e-05 0.0 
-4.906970077185e-05 8.895564174281e-04 0.0 
0.0 0.0 -2.044444444444e-04 
-1.947893468717e-04 -6.117280725664e-05 0.0 
-6.117280725664e-05 1.196248658912e-03 0.0 
0.0 0.0 -1.822222222222e-04 
-3.712898523905e-04 4.317569343883e-04 0.0 
4.317569343883e-04 1.145241708059e-03 0.0 
0.0 0.0 -2.387231874441e-04 
-2.382372826229e-04 -5.011791756217e-05 0.0 
-5.011791756217e-05 8.884259014391e-04 0.0 
0.0 0.0 -2.044444444444e-04 
-1.907840217257e-04 -6.263724658105e-05 0.0 
-6.263724658105e-05 1.194237656955e-03 0.0 
0.0 0.0 -1.822222222222e-04 
-2.374457179260e-04 -4.977058269570e-05 0.0 
-4.977058269570e-05 8.873972864172e-04 0.0 
0.0 0.0 -2.044444444444e-04 
-3.059992964472e-04 5.496270407213e-04 0.0 
5.496270407213e-04 9.802526694908e-04 0.0 
0.0 0.0 -1.912478907564e-04 
-1.870497738819e-04 -6.262168888187e-05 0.0 
-6.262168888187e-05 1.192299008639e-03 0.0 
0.0 0.0 -1.822222222222e-04 
-2.374007187279e-04 -4.789023730634e-05 0.0 
-4.789023730634e-05 8.866288055825e-04 0.0 
0.0 0.0 -2.044444444444e-04 
-2.590753996177e-04 4.433103667067e-04 0.0 
4.433103667067e-04 9.165365716902e-04 0.0 
0.0 0.0 -2.581562493347e-04 
-1.838234548438e-04 -6.092177172858e-05 0.0 
-6.092177172858e-05 1.190518626697e-03 0.0 
0.0 0.0 -1.822222222222e-04 
-2.383869275768e-04 -4.422754439846e-05 0.0 
-4.422754439846e-05 8.862463774891e-04 0.0 
0.0 0.0 -2.044444444444e-04 
-1.814000525890e-04 -5.728879705715e-05 0.0 
-5.728879705715e-05 1.189050181082e-03 0.0 
0.0 0.0 -1.822222222222e-04 
-2.407497892372e-04 -3.879603429531e-05 0.0 
-3.879603429531e-05 8.863629034362e-04 0.0 
0.0 0.0 -2.044444444444e-04 
-1.800070268731e-04 -5.141797290055e-05 0.0 
-5.141797290055e-05 1.187749772327e-03 0.0 
0.0 0.0 -1.822222222222e-04 
-2.446310126199e-04 -3.066752743924e-05 0.0 
-3.066752743924e-05 8.870377818067e-04 0.0 
0.0 0.0 -2.044444444444e-04 
-1.801194860395e-04 -4.284558607012e-05 0.0 
-4.284558607012e-05 1.187187231994e-03 0.0 
0.0 0.0 -1.822222222222e-04 
-2.508714636983e-04 -2.052611711476e-05 0.0 
-2.052611711476e-05 8.885596674327e-04 0.0 
0.0 0.0 -2.044444444444e-04 
-1.818281296921e-04 -3.092729567660e-05 0.0 
-3.092729567660e-05 1.186454831232e-03 0.0 
0.0 0.0 -1.822222222222e-04 
-3.027578764596e-04 6.810323115478e-04 0.0 
6.810323115478e-04 1.082461611564e-03 0.0 
0.0 0.0 -2.704531460172e-04 
-2.592097415346e-04 -4.959314290161e-06 0.0 
-4.959314290161e-06 8.909419718993e-04 0.0 
0.0 0.0 -2.044444444444e-04 
-1.865741924096e-04 -1.422333226689e-05 0.0 
-1.422333226689e-05 1.187628875113e-03 0.0 
0.0 0.0 -1.822222222222e-04 
-2.721526143227e-04 1.205750116150e-05 0.0 
1.205750116150e-05 8.945788037620e-04 0.0 
0.0 0.0 -2.044444444444e-04 
-1.939924474556e-04 8.375520842673e-06 0.0 
8.375520842673e-06 1.186772148575e-03 0.0 
0.0 0.0 -1.822222222222e-04 
-2.088572636642e-04 4.020195256732e-05 0.0 
4.020195256732e-05 1.193284487300e-03 0.0 
0.0 0.0 -1.822222222222e-04 
-2.869104932953e-04 4.392938228072e-05 0.0 
4.392938228072e-05 8.997935616271e-04 0.0 
0.0 0.0 -2.044444444444e-04 
-2.263439955462e-04 8.493325827766e-05 0.0 
8.493325827766e-05 1.188374875619e-03 0.0 
0.0 0.0 -1.822222222222e-04 
-2.962624122326e-04 6.861581631927e-05 0.0 
6.861581631927e-05 9.023866303304e-04 0.0 
0.0 0.0 -2.097994513533e-04 
-2.608257251636e-04 1.510704805897e-04 0.0 
1.510704805897e-04 1.205986921017e-03 0.0 
0.0 0.0 -1.822222222222e-04 
-2.920322184050e-04 1.349132072892e-04 0.0 
1.349132072892e-04 9.037865644230e-04 0.0 
0.0 0.0 -2.173204268883e-04 
-2.909264463953e-04 2.527803142173e-04 0.0 
2.527803142173e-04 1.175603940766e-03 0.0 
0.0 0.0 -1.822222222222e-04 
-3.677392756981e-04 4.232900733992e-04 0.0 
4.232900733992e-04 1.215367293503e-03 0.0 
0.0 0.0 -1.822222222222e-04 
-2.783565001642e-04 1.579061642074e-04 0.0 
1.579061642074e-04 8.944232141228e-04 0.0 
0.0 0.0 -2.378695771978e-04 
-2.720135245397e-04 3.291264035430e-04 0.0 
3.291264035430e-04 9.008560657141e-04 0.0 
0.0 0.0 -2.359550740796e-04 
-2.236360071778e-04 4.891166574447e-04 0.0 
4.891166574447e-04 8.467084884124e-04 0.0 
0.0 0.0 -2.539167787760e-04 
-1.859091753436e-04 -3.627255548042e-04 0.0 
-3.627255548042e-04 1.014404375981e-03 0.0 
0.0 0.0 -1.933333333333e-04 
-2.884587484561e-04 3.598387306250e-04 0.0 
3.598387306250e-04 1.198265490527e-03 0.0 
0.0 0.0 -1.933333333333e-04 
-2.120006153946e-04 -3.501859733167e-05 0.0 
-3.501859733167e-05 1.050583898463e-03 0.0 
0.0 0.0 -1.711111111111e-04 
-2.634307576369e-04 4.200097216007e-05 0.0 
4.200097216007e-05 1.153429501950e-03 0.0 
0.0 0.0 -2.155555555556e-04 
-1.864124031819e-04 6.633836606594e-04 0.0 
6.633836606594e-04 8.396123738653e-04 0.0 
0.0 0.0 -2.741306969431e-04 
-2.952013322010e-04 -7.105529920730e-05 0.0 
-7.105529920730e-05 1.557070950825e-03 0.0 
0.0 0.0 -2.488888888889e-04 
-3.254937786982e-04 4.435174731084e-05 0.0 
4.435174731084e-05 1.364389529670e-03 0.0 
0.0 0.0 -2.711111111111e-04 
-2.906055034236e-04 -1.453682006066e-05 0.0 
-1.453682006066e-05 1.677746848914e-03 0.0 
0.0 0.0 -2.488888888889e-04 
-3.240490716854e-04 -1.980019069996e-05 0.0 
-1.980019069996e-05 1.371639947660e-03 0.0 
0.0 0.0 -2.711111111111e-04 
-2.905044768976e-04 -2.118391276276e-05 0.0 
-2.118391276276e-05 1.682793203478e-03 0.0 
0.0 0.0 -2.488888888889e-04 
-3.238735021039e-04 -3.097254670317e-05 0.0 
-3.097254670317e-05 1.372144297900e-03 0.0 
0.0 0.0 -2.711111111111e-04 
-2.906642874751e-04 -2.881618546829e-05 0.0 
-2.881618546829e-05 1.683024523281e-03 0.0 
0.0 0.0 -2.488888888889e-04 
-3.242298033971e-04 -3.828264310236e-05 0.0 
-3.828264310236e-05 1.372623957039e-03 0.0 
0.0 0.0 -2.711111111111e-04 
-2.903580694526e-04 -3.482769611358e-05 0.0 
-3.482769611358e-05 1.683295155425e-03 0.0 
0.0 0.0 -2.488888888889e-04 
-3.247078271869e-04 -4.460397563338e-05 0.0 
-4.460397563338e-05 1.373026131789e-03 0.0 
0.0 0.0 -2.711111111111e-04 
-2.895572709759e-04 -3.982611016076e-05 0.0 
-3.982611016076e-05 1.683413827941e-03 0.0 
0.0 0.0 -2.488888888889e-04 
-3.251193850062e-04 -5.034287914678e-05 0.0 
-5.034287914678e-05 1.373191785427e-03 0.0 
0.0 0.0 -2.711111111111e-04 
-2.883630037996e-04 -4.409517578428e-05 0.0 
-4.409517578428e-05 1.683198481667e-03 0.0 
0.0 0.0 -2.488888888889e-04 
-3.254151180985e-04 -5.545209315080e-05 0.0 
-5.545209315080e-05 1.373095522970e-03 0.0 
0.0 0.0 -2.711111111111e-04 
-2.869187515810e-04 -4.759890393832e-05 0.0 
-4.759890393832e-05 1.682613264279e-03 0.0 
0.0 0.0 -2.488888888889e-04 
-3.257031917389e-04 -5.972681323178e-05 0.0 
-5.972681323178e-05 1.372798579125e-03 0.0 
0.0 0.0 -2.711111111111e-04 
-2.853836084500e-04 -5.016125214612e-05 0.0 
-5.016125214612e-05 1.681711994663e-03 0.0 
0.0 0.0 -2.488888888889e-04 
-3.261227584480e-04 -6.291964668725e-05 0.0 
-6.291964668725e-05 1.372375856526e-03 0.0 
0.0 0.0 -2.711111111111e-04 
-2.839143398263e-04 -5.151108192776e-05 0.0 
-5.151108192776e-05 1.680553878395e-03 0.0 
0.0 0.0 -2.488888888889e-04 
-5.376302160352e-04 3.676870752292e-04 0.0 
3.676870752292e-04 1.634100272328e-03 0.0 
0.0 0.0 -2.581395122151e-04 
-3.268375609068e-04 -6.469886553588e-05 0.0 
-6.469886553588e-05 1.371913930166e-03 0.0 
0.0 0.0 -2.711111111111e-04 
-2.826817270674e-04 -5.132346130166e-05 0.0 
-5.132346130166e-05 1.679214132172e-03 0.0 
0.0 0.0 -2.488888888889e-04 
-3.279874699837e-04 -6.465677529104e-05 0.0 
-6.465677529104e-05 1.371505513672e-03 0.0 
0.0 0.0 -2.711111111111e-04 
-4.430031296563e-04 4.286076278821e-04 0.0 
4.286076278821e-04 1.401460279639e-03 0.0 
0.0 0.0 -2.711111111111e-04 
-2.818901623705e-04 -4.919394600659e-05 0.0 
-4.919394600659e-05 1.677776825315e-03 0.0 
0.0 0.0 -2.488888888889e-04 
-3.297313591709e-04 -6.221404717026e-05 0.0 
-6.221404717026e-05 1.371311311535e-03 0.0 
0.0 0.0 -2.711111111111e-04 
-2.818451631723e-04 -4.478135297260e-05 0.0 
-4.478135297260e-05 1.676460250739e-03 0.0 
0.0 0.0 -2.488888888889e-04 
-3.326316221874e-04 -5.721256738290e-05 0.0 
-5.721256738290e-05 1.371518769163e-03 0.0 
0.0 0.0 -2.711111111111e-04 
-2.828313720213e-04 -3.779681966187e-05 0.0 
-3.779681966187e-05 1.675403564516e-03 0.0 
0.0 0.0 -2.488888888889e-04 
-4.059827130491e-04 5.128188739634e-04 0.0 
5.128188739634e-04 1.447928969661e-03 0.0 
0.0 0.0 -2.359172899929e-04 
-3.367560482028e-04 -4.920587402124e-05 0.0 
-4.920587402124e-05 1.372225012167e-03 0.0 
0.0 0.0 -2.711111111111e-04 
-2.851942336816e-04 -2.793992133343e-05 0.0 
-2.793992133343e-05 1.674760364641e-03 0.0 
0.0 0.0 -2.488888888889e-04 
-3.429661620733e-04 -3.842115182948e-05 0.0 
-3.842115182948e-05 1.373431633602e-03 0.0 
0.0 0.0 -2.711111111111e-04 
-2.890754570644e-04 -1.445213534676e-05 0.0 
-1.445213534676e-05 1.674169463168e-03 0.0 
0.0 0.0 -2.488888888889e-04 
-3.500116600226e-04 -2.243813506759e-05 0.0 
-2.243813506759e-05 1.375221853135e-03 0.0 
0.0 0.0 -2.711111111111e-04 
-2.953159081427e-04 3.344893535129e-06 0.0 
3.344893535129e-06 1.674433168629e-03 0.0 
0.0 0.0 -2.488888888889e-04 
-3.612701041623e-04 -3.476308475759e-06 0.0 
-3.476308475759e-06 1.377558106542e-03 0.0 
0.0 0.0 -2.711111111111e-04 
-3.036541859790e-04 2.777348823242e-05 0.0 
2.777348823242e-05 1.673611019722e-03 0.0 
0.0 0.0 -2.488888888889e-04 
-3.712585986873e-04 2.741593658551e-05 0.0 
2.741593658551e-05 1.380550073854e-03 0.0 
0.0 0.0 -2.711111111111e-04 
-3.165970587671e-04 5.927969329141e-05 0.0 
5.927969329141e-05 1.675687817617e-03 0.0 
0.0 0.0 -2.488888888889e-04 
-3.919160560217e-04 5.753298666299e-05 0.0 
5.753298666299e-05 1.383609464570e-03 0.0 
0.0 0.0 -2.711111111111e-04 
-4.845532836930e-04 6.361611629006e-04 0.0 
6.361611629006e-04 1.559816627148e-03 0.0 
0.0 0.0 -2.692506233262e-04 
-4.015567445774e-04 1.254721392100e-04 0.0 
1.254721392100e-04 1.388599622368e-03 0.0 
0.0 0.0 -2.711111111111e-04 
-3.313549377398e-04 1.053449586166e-04 0.0 
1.053449586166e-04 1.670659921373e-03 0.0 
0.0 0.0 -2.488888888889e-04 
-4.451618937031e-04 1.587275490449e-04 0.0 
1.587275490449e-04 1.390823225084e-03 0.0 
0.0 0.0 -2.711111111111e-04 
-3.585379161073e-04 1.611644823792e-04 0.0 
1.611644823792e-04 1.681904763770e-03 0.0 
0.0 0.0 -2.488888888889e-04 
-4.183460080304e-04 3.207061591643e-04 0.0 
3.207061591643e-04 1.388074283355e-03 0.0 
0.0 0.0 -2.711111111111e-04 
-3.792207315119e-04 2.510172866857e-04 0.0 
2.510172866857e-04 1.655063246402e-03 0.0 
0.0 0.0 -2.488888888889e-04 
-4.335703981462e-04 3.699863634296e-04 0.0 
3.699863634296e-04 1.684714290038e-03 0.0 
0.0 0.0 -2.488888888889e-04 
-4.316907614535e-04 5.168045558219e-04 0.0 
5.168045558219e-04 1.304541632207e-03 0.0 
0.0 0.0 -2.470284011040e-04 
-3.668442042028e-04 -3.673170135593e-04 0.0 
-3.673170135593e-04 1.584542391469e-03 0.0 
0.0 0.0 -2.600000000000e-04 
-2.602062413331e-04 3.537454734861e-04 0.0 
3.537454734861e-04 1.393329098535e-03 0.0 
0.0 0.0 -2.600000000000e-04 
-3.402634464058e-04 -4.194673100763e-05 0.0 
-4.194673100763e-05 1.545600451328e-03 0.0 
0.0 0.0 -2.822222222222e-04 
-2.856529798592e-04 3.840190014896e-05 0.0 
3.840190014896e-05 1.441014104028e-03 0.0 
0.0 0.0 -2.377777777778e-04 
-4.405270692946e-04 6.801827816630e-04 0.0 
6.801827816630e-04 1.355982589248e-03 0.0 
0.0 0.0 -2.451177686753e-04 
-4.033215092896e-04 -7.778614931741e-05 0.0 
-7.778614931741e-05 1.971836168127e-03 0.0 
0.0 0.0 -3.377777777778e-04 
-3.699382231426e-04 4.376721251435e-05 0.0 
4.376721251435e-05 2.156467211136e-03 0.0 
0.0 0.0 -3.155555555556e-04 
-4.016272998768e-04 -1.845288611326e-05 0.0 
-1.845288611326e-05 1.842668774100e-03 0.0 
0.0 0.0 -3.377777777778e-04 
-3.684935161298e-04 -1.993514923582e-05 0.0 
-1.993514923582e-05 2.145630754397e-03 0.0 
0.0 0.0 -3.155555555556e-04 
-4.011855839344e-04 -2.170328035969e-05 0.0 
-2.170328035969e-05 1.834448861866e-03 0.0 
0.0 0.0 -3.377777777778e-04 
-3.683179465484e-04 -3.056747774146e-05 0.0 
-3.056747774146e-05 2.144778837340e-03 0.0 
0.0 0.0 -3.155555555556e-04 
-4.018211954014e-04 -2.780572956267e-05 0.0 
-2.780572956267e-05 1.833993179013e-03 0.0 
0.0 0.0 -3.377777777778e-04 
-3.686742478415e-04 -3.749804252556e-05 0.0 
-3.749804252556e-05 2.145064232920e-03 0.0 
0.0 0.0 -3.155555555556e-04 
-4.030678757072e-04 -3.345880157567e-05 0.0 
-3.345880157567e-05 1.834535971790e-03 0.0 
0.0 0.0 -3.377777777778e-04 
-3.691522716313e-04 -4.346216221499e-05 0.0 
-4.346216221499e-05 2.145503780732e-03 0.0 
0.0 0.0 -3.155555555556e-04 
-4.045993123101e-04 -3.863070102539e-05 0.0 
-3.863070102539e-05 1.835247857122e-03 0.0 
0.0 0.0 -3.377777777778e-04 
-3.695638294507e-04 -4.875359068941e-05 0.0 
-4.875359068941e-05 2.145731130156e-03 0.0 
0.0 0.0 -3.155555555556e-04 
-4.062427089130e-04 -4.320299965925e-05 0.0 
-4.320299965925e-05 1.835799445565e-03 0.0 
0.0 0.0 -3.377777777778e-04 
-3.698595625429e-04 -5.325599390528e-05 0.0 
-5.325599390528e-05 2.145551511058e-03 0.0 
0.0 0.0 -3.155555555556e-04 
-4.078831686855e-04 -4.670032855598e-05 0.0 
-4.670032855598e-05 1.836058440315e-03 0.0 
0.0 0.0 -3.377777777778e-04 
-3.701476361833e-04 -5.655748343099e-05 0.0 
-5.655748343099e-05 2.145061402005e-03 0.0 
0.0 0.0 -3.155555555556e-04 
-4.097865858263e-04 -4.883766509846e-05 0.0 
-4.883766509846e-05 1.836127398507e-03 0.0 
0.0 0.0 -3.377777777778e-04 
-3.705672028925e-04 -5.837184754707e-05 0.0 
-5.837184754707e-05 2.144289684407e-03 0.0 
0.0 0.0 -3.155555555556e-04 
-5.653935967421e-04 2.589038202600e-04 0.0 
2.589038202600e-04 2.091415995100e-03 0.0 
0.0 0.0 -3.249092970522e-04 
-4.121128011224e-04 -4.928328914799e-05 0.0 
-4.928328914799e-05 1.836067549886e-03 0.0 
0.0 0.0 -3.377777777778e-04 
-3.712820053512e-04 -5.834505686051e-05 0.0 
-5.834505686051e-05 2.143300562424e-03 0.0 
0.0 0.0 -3.155555555556e-04 
-4.149822806298e-04 -4.778386138389e-05 0.0 
-4.778386138389e-05 1.835943141923e-03 0.0 
0.0 0.0 -3.377777777778e-04 
-4.499219717492e-04 4.087873195919e-04 0.0 
4.087873195919e-04 1.908948706133e-03 0.0 
0.0 0.0 -3.026870748299e-04 
-3.724319144282e-04 -5.606781584101e-05 0.0 
-5.606781584101e-05 2.142071630317e-03 0.0 
0.0 0.0 -3.155555555556e-04 
-4.827616455878e-04 3.472560296512e-04 0.0 
3.472560296512e-04 1.843206052276e-03 0.0 
0.0 0.0 -3.377777777778e-04 
-4.183491724233e-04 -4.389120914971e-05 0.0 
-4.389120914971e-05 1.835749541912e-03 0.0 
0.0 0.0 -3.377777777778e-04 
-3.741758036154e-04 -5.083009705685e-05 0.0 
-5.083009705685e-05 2.140541387055e-03 0.0 
0.0 0.0 -3.155555555556e-04 
-4.222392951633e-04 -3.615193688630e-05 0.0 
-3.615193688630e-05 1.835642333740e-03 0.0 
0.0 0.0 -3.377777777778e-04 
-3.770760666319e-04 -4.180068680568e-05 0.0 
-4.180068680568e-05 2.139581124162e-03 0.0 
0.0 0.0 -3.155555555556e-04 
-4.278559952098e-04 -2.552535737092e-05 0.0 
-2.552535737092e-05 1.836068605962e-03 0.0 
0.0 0.0 -3.377777777778e-04 
-3.812004926473e-04 -2.896900661336e-05 0.0 
-2.896900661336e-05 2.138403848176e-03 0.0 
0.0 0.0 -3.155555555556e-04 
-4.347234955002e-04 -9.637769040496e-06 0.0 
-9.637769040496e-06 1.836924698108e-03 0.0 
0.0 0.0 -3.377777777778e-04 
-3.874106065177e-04 -1.167986006356e-05 0.0 
-1.167986006356e-05 2.138695774024e-03 0.0 
0.0 0.0 -3.155555555556e-04 
-4.895249511417e-04 4.886018197501e-04 0.0 
4.886018197501e-04 2.001115148190e-03 0.0 
0.0 0.0 -3.360204081633e-04 
-4.442787057398e-04 6.686297430374e-06 0.0 
6.686297430374e-06 1.838164453285e-03 0.0 
0.0 0.0 -3.377777777778e-04 
-3.944561044670e-04 1.065381348907e-05 0.0 
1.065381348907e-05 2.135804588402e-03 0.0 
0.0 0.0 -3.155555555556e-04 
-4.522783493514e-04 3.639854830083e-05 0.0 
3.639854830083e-05 1.839070031720e-03 0.0 
0.0 0.0 -3.377777777778e-04 
-4.057145486068e-04 4.085282605461e-05 0.0 
4.085282605461e-05 2.138451035408e-03 0.0 
0.0 0.0 -3.155555555556e-04 
-4.157030431317e-04 7.985792585969e-05 0.0 
7.985792585969e-05 2.128672667394e-03 0.0 
0.0 0.0 -3.155555555556e-04 
-4.676008918457e-04 5.850290515757e-05 0.0 
5.850290515757e-05 1.840319811209e-03 0.0 
0.0 0.0 -3.377777777778e-04 
-4.363605004662e-04 1.324986197952e-04 0.0 
1.324986197952e-04 2.139391523019e-03 0.0 
0.0 0.0 -3.155555555556e-04 
-4.723537878857e-04 1.197226175932e-04 0.0 
1.197226175932e-04 1.839901082374e-03 0.0 
0.0 0.0 -3.377777777778e-04 
-4.460011890219e-04 2.052865052064e-04 0.0 
2.052865052064e-04 2.103272782201e-03 0.0 
0.0 0.0 -3.155555555556e-04 
-4.896063381476e-04 3.095411054930e-04 0.0 
3.095411054930e-04 2.142928166934e-03 0.0 
0.0 0.0 -3.155555555556e-04 
-5.032944312987e-04 1.379640868204e-04 0.0 
1.379640868204e-04 1.839108820748e-03 0.0 
0.0 0.0 -3.377777777778e-04 
-4.654683285949e-04 2.891122881816e-04 0.0 
2.891122881816e-04 1.829855770762e-03 0.0 
0.0 0.0 -3.377777777778e-04 
-4.437359018442e-04 4.016271209655e-04 0.0 
4.016271209655e-04 1.738543147369e-03 0.0 
0.0 0.0 -3.137981859410e-04 
-3.355107645077e-04 -3.692127132912e-04 0.0 
-3.692127132912e-04 1.948567742905e-03 0.0 
0.0 0.0 -3.266666666667e-04 
-4.405370571709e-04 3.529927589174e-04 0.0 
3.529927589174e-04 2.136779321243e-03 0.0 
0.0 0.0 -3.266666666667e-04 
-3.624856686281e-04 -4.168356858480e-05 0.0 
-4.168356858480e-05 1.986351279017e-03 0.0 
0.0 0.0 -3.044444444444e-04 
-4.148028011910e-04 3.671549554757e-05 0.0 
3.671549554757e-05 2.089175803146e-03 0.0 
0.0 0.0 -3.488888888889e-04 
-4.763364629896e-04 5.270582126101e-04 0.0 
5.270582126101e-04 1.817268558159e-03 0.0 
0.0 0.0 -3.044444444444e-04 
-4.477659537340e-04 -7.950766361317e-05 0.0 
-7.950766361317e-05 2.497018706570e-03 0.0 
0.0 0.0 -3.822222222222e-04 
-4.784277234196e-04 3.924857303742e-05 0.0 
3.924857303742e-05 2.307222145021e-03 0.0 
0.0 0.0 -4.044444444444e-04 
-4.460717443213e-04 -1.760020650506e-05 0.0 
-1.760020650506e-05 2.620785785757e-03 0.0 
0.0 0.0 -3.822222222222e-04 
-4.776693350914e-04 -2.066498720173e-05 0.0 
-2.066498720173e-05 2.315002141673e-03 0.0 
0.0 0.0 -4.044444444444e-04 
-4.456300283789e-04 -1.937202289743e-05 0.0 
-1.937202289743e-05 2.625987173940e-03 0.0 
0.0 0.0 -3.822222222222e-04 
-4.779872738303e-04 -2.822274065139e-05 0.0 
-2.822274065139e-05 2.315244018536e-03 0.0 
0.0 0.0 -4.044444444444e-04 
-4.462656398459e-04 -2.485353904084e-05 0.0 
-2.485353904084e-05 2.625990326394e-03 0.0 
0.0 0.0 -3.822222222222e-04 
-4.792475399562e-04 -3.342896736660e-05 0.0 
-3.342896736660e-05 2.315783639058e-03 0.0 
0.0 0.0 -4.044444444444e-04 
-4.475123201517e-04 -3.007054614652e-05 0.0 
-3.007054614652e-05 2.626417310746e-03 0.0 
0.0 0.0 -3.822222222222e-04 
-4.811666376616e-04 -3.852533363394e-05 0.0 
-3.852533363394e-05 2.316598516972e-03 0.0 
0.0 0.0 -4.044444444444e-04 
-4.490437567545e-04 -3.458165382954e-05 0.0 
-3.458165382954e-05 2.627026792857e-03 0.0 
0.0 0.0 -3.822222222222e-04 
-4.837308784237e-04 -4.337502502547e-05 0.0 
-4.337502502547e-05 2.317420315081e-03 0.0 
0.0 0.0 -4.044444444444e-04 
-4.506871533574e-04 -3.830542708958e-05 0.0 
-3.830542708958e-05 2.627509373180e-03 0.0 
0.0 0.0 -3.822222222222e-04 
-4.863200757723e-04 -4.765112576718e-05 0.0 
-4.765112576718e-05 2.317829627755e-03 0.0 
0.0 0.0 -4.044444444444e-04 
-4.523276131299e-04 -4.048193732763e-05 0.0 
-4.048193732763e-05 2.627337923777e-03 0.0 
0.0 0.0 -3.822222222222e-04 
-4.889760674818e-04 -4.992492022024e-05 0.0 
-4.992492022024e-05 2.317964787574e-03 0.0 
0.0 0.0 -4.044444444444e-04 
-4.542310302707e-04 -4.078738031685e-05 0.0 
-4.078738031685e-05 2.626808748623e-03 0.0 
0.0 0.0 -3.822222222222e-04 
-6.056480292920e-04 1.728310757190e-04 0.0 
1.728310757190e-04 2.555848462997e-03 0.0 
0.0 0.0 -3.914586414276e-04 
-4.922399223678e-04 -5.021620544214e-05 0.0 
-5.021620544214e-05 2.317987519249e-03 0.0 
0.0 0.0 -4.044444444444e-04 
-4.565572455669e-04 -3.901111557492e-05 0.0 
-3.901111557492e-05 2.626026613918e-03 0.0 
0.0 0.0 -3.822222222222e-04 
-5.228769148866e-04 2.808757779245e-04 0.0 
2.808757779245e-04 2.304765565320e-03 0.0 
0.0 0.0 -4.044444444444e-04 
-4.963590350670e-04 -4.831763838805e-05 0.0 
-4.831763838805e-05 2.318011659797e-03 0.0 
0.0 0.0 -4.044444444444e-04 
-4.594267250742e-04 -3.511032177588e-05 0.0 
-3.511032177588e-05 2.625123327231e-03 0.0 
0.0 0.0 -3.822222222222e-04 
-5.009386741324e-04 -4.422694573305e-05 0.0 
-4.422694573305e-05 2.317812085855e-03 0.0 
0.0 0.0 -4.044444444444e-04 
-4.627936168678e-04 -2.842261320259e-05 0.0 
-2.842261320259e-05 2.623716732034e-03 0.0 
0.0 0.0 -3.822222222222e-04 
-5.056117799861e-04 -3.698061845559e-05 0.0 
-3.698061845559e-05 2.317065889197e-03 0.0 
0.0 0.0 -4.044444444444e-04 
-4.969269700224e-04 3.515730528913e-04 0.0 
3.515730528913e-04 2.377160801008e-03 0.0 
0.0 0.0 -3.692364192054e-04 
-4.666837396077e-04 -1.712937022343e-05 0.0 
-1.712937022343e-05 2.621232610088e-03 0.0 
0.0 0.0 -3.822222222222e-04 
-5.100907895199e-04 -2.260058306738e-05 0.0 
-2.260058306738e-05 2.316567452783e-03 0.0 
0.0 0.0 -4.044444444444e-04 
-4.723004396542e-04 -1.327751191982e-06 0.0 
-1.327751191982e-06 2.619762185472e-03 0.0 
0.0 0.0 -3.822222222222e-04 
-5.187011541432e-04 -5.611483876821e-06 0.0 
-5.611483876821e-06 2.316745085829e-03 0.0 
0.0 0.0 -4.044444444444e-04 
-4.791679399447e-04 1.929342974835e-05 0.0 
1.929342974835e-05 2.617894304883e-03 0.0 
0.0 0.0 -3.822222222222e-04 
-5.254608326116e-04 1.982980625916e-05 0.0 
1.982980625916e-05 2.317371002369e-03 0.0 
0.0 0.0 -4.044444444444e-04 
-4.887231501843e-04 4.328459530924e-05 0.0 
4.328459530924e-05 2.618567802256e-03 0.0 
0.0 0.0 -3.822222222222e-04 
-5.405598583973e-04 3.929786731890e-05 0.0 
3.929786731890e-05 2.316713537828e-03 0.0 
0.0 0.0 -4.044444444444e-04 
-4.967227937958e-04 7.689551929933e-05 0.0 
7.689551929933e-05 2.610977742846e-03 0.0 
0.0 0.0 -3.822222222222e-04 
-5.395854524473e-04 9.022698348543e-05 0.0 
9.022698348543e-05 2.315628932318e-03 0.0 
0.0 0.0 -4.044444444444e-04 
-5.147397320452e-04 3.920748264294e-04 0.0 
3.920748264294e-04 2.461392887946e-03 0.0 
0.0 0.0 -4.025697525387e-04 
-5.673385880599e-04 1.040653775258e-04 0.0 
1.040653775258e-04 2.310397031327e-03 0.0 
0.0 0.0 -4.044444444444e-04 
-5.120453362902e-04 1.146925732443e-04 0.0 
1.146925732443e-04 2.616352280690e-03 0.0 
0.0 0.0 -3.822222222222e-04 
-5.260367371211e-04 2.288711912235e-04 0.0 
2.288711912235e-04 2.301155937859e-03 0.0 
0.0 0.0 -4.044444444444e-04 
-5.167982323301e-04 1.764431880484e-04 0.0 
1.764431880484e-04 2.586781747074e-03 0.0 
0.0 0.0 -3.822222222222e-04 
-5.477388757432e-04 2.483443472200e-04 0.0 
2.483443472200e-04 2.612103741230e-03 0.0 
0.0 0.0 -3.822222222222e-04 
-4.714062865373e-04 3.406357459183e-04 0.0 
3.406357459183e-04 2.189922889939e-03 0.0 
0.0 0.0 -3.803475303165e-04 
-5.175702617414e-04 -3.703955333214e-04 0.0 
-3.703955333214e-04 2.521693289409e-03 0.0 
0.0 0.0 -3.933333333333e-04 
-4.117702287809e-04 3.510487114528e-04 0.0 
3.510487114528e-04 2.332080967614e-03 0.0 
0.0 0.0 -3.933333333333e-04 
-4.910475754552e-04 -4.353211321374e-05 0.0 
-4.353211321374e-05 2.483691270875e-03 0.0 
0.0 0.0 -4.155555555556e-04 
-4.370250234133e-04 3.548953741690e-05 0.0 
3.548953741690e-05 2.379928122617e-03 0.0 
0.0 0.0 -3.711111111111e-04 
-5.160949789211e-04 4.252800565549e-04 0.0 
4.252800565549e-04 2.291829436572e-03 0.0 
0.0 0.0 -3.711111111111e-04 
-5.545130018070e-04 -8.178037886237e-05 0.0 
-8.178037886237e-05 2.909623846630e-03 0.0 
0.0 0.0 -4.711111111111e-04 
-5.228721678640e-04 4.028587622300e-05 0.0 
4.028587622300e-05 3.096271718330e-03 0.0 
0.0 0.0 -4.488888888889e-04 
-5.533691474050e-04 -1.923275015253e-05 0.0 
-1.923275015253e-05 2.782205362795e-03 0.0 
0.0 0.0 -4.711111111111e-04 
-5.221137795359e-04 -1.919255201181e-05 0.0 
-1.919255201181e-05 3.085550305381e-03 0.0 
0.0 0.0 -4.488888888889e-04 
-5.530109392803e-04 -1.824425838804e-05 0.0 
-1.824425838804e-05 2.774559112815e-03 0.0 
0.0 0.0 -4.711111111111e-04 
-5.224317182748e-04 -2.502826317864e-05 0.0 
-2.502826317864e-05 3.085006659223e-03 0.0 
0.0 0.0 -4.488888888889e-04 
-5.547362962008e-04 -2.086138494889e-05 0.0 
-2.086138494889e-05 2.774413059491e-03 0.0 
0.0 0.0 -4.711111111111e-04 
-5.236919844007e-04 -2.854587035644e-05 0.0 
-2.854587035644e-05 3.085493683001e-03 0.0 
0.0 0.0 -4.488888888889e-04 
-5.568332374198e-04 -2.401854184227e-05 0.0 
-2.401854184227e-05 2.775119097809e-03 0.0 
0.0 0.0 -4.711111111111e-04 
-5.256110821061e-04 -3.168208470033e-05 0.0 
-3.168208470033e-05 3.086241768691e-03 0.0 
0.0 0.0 -4.488888888889e-04 
-5.598758616072e-04 -2.649602084230e-05 0.0 
-2.649602084230e-05 2.776179524696e-03 0.0 
0.0 0.0 -4.711111111111e-04 
-5.281753228681e-04 -3.429831362401e-05 0.0 
-3.429831362401e-05 3.087276348172e-03 0.0 
0.0 0.0 -4.488888888889e-04 
-5.637335880510e-04 -2.986966676234e-05 0.0 
-2.986966676234e-05 2.777348666577e-03 0.0 
0.0 0.0 -4.711111111111e-04 
-5.307645202168e-04 -3.678054343318e-05 0.0 
-3.678054343318e-05 3.087110497831e-03 0.0 
0.0 0.0 -4.488888888889e-04 
-5.672516091013e-04 -3.170316921858e-05 0.0 
-3.170316921858e-05 2.777585456228e-03 0.0 
0.0 0.0 -4.711111111111e-04 
-5.334205119262e-04 -3.725348252055e-05 0.0 
-3.725348252055e-05 3.086025479628e-03 0.0 
0.0 0.0 -4.488888888889e-04 
-6.732559192872e-04 1.069454178643e-04 0.0 
1.069454178643e-04 3.029509612801e-03 0.0 
0.0 0.0 -4.582426303855e-04 
-5.702546095882e-04 -3.020263056991e-05 0.0 
-3.020263056991e-05 2.777240536398e-03 0.0 
0.0 0.0 -4.711111111111e-04 
-5.366843668123e-04 -3.453855403530e-05 0.0 
-3.453855403530e-05 3.085220328545e-03 0.0 
0.0 0.0 -4.488888888889e-04 
-5.576127008399e-04 2.593782929634e-04 0.0 
2.593782929634e-04 2.842420570206e-03 0.0 
0.0 0.0 -4.360204081633e-04 
-5.755921041128e-04 -2.584209849049e-05 0.0 
-2.584209849049e-05 2.777326176010e-03 0.0 
0.0 0.0 -4.711111111111e-04 
-5.408034795114e-04 -2.962006398500e-05 0.0 
-2.962006398500e-05 3.084571096852e-03 0.0 
0.0 0.0 -4.488888888889e-04 
-5.797090102450e-04 2.287706001101e-04 0.0 
2.287706001101e-04 2.761834444076e-03 0.0 
0.0 0.0 -4.711111111111e-04 
-5.815224328378e-04 -2.044759247011e-05 0.0 
-2.044759247011e-05 2.777381230694e-03 0.0 
0.0 0.0 -4.711111111111e-04 
-5.453831185768e-04 -2.258268294197e-05 0.0 
-2.258268294197e-05 3.083167530034e-03 0.0 
0.0 0.0 -4.488888888889e-04 
-5.869514963865e-04 -1.328471433010e-05 0.0 
-1.328471433010e-05 2.776586963506e-03 0.0 
0.0 0.0 -4.711111111111e-04 
-5.500562244306e-04 -1.211537895153e-05 0.0 
-1.211537895153e-05 3.080223364949e-03 0.0 
0.0 0.0 -4.488888888889e-04 
-5.924946390174e-04 -2.438932199996e-06 0.0 
-2.438932199996e-06 2.774392434348e-03 0.0 
0.0 0.0 -4.711111111111e-04 
-5.545352339644e-04 4.923705994677e-06 0.0 
4.923705994677e-06 3.074068870883e-03 0.0 
0.0 0.0 -4.488888888889e-04 
-5.832002113227e-04 3.084013380276e-04 0.0 
3.084013380276e-04 2.928576946329e-03 0.0 
0.0 0.0 -4.693537414966e-04 
-5.957418463706e-04 2.457513506605e-05 0.0 
2.457513506605e-05 2.772161347741e-03 0.0 
0.0 0.0 -4.711111111111e-04 
-5.631455985877e-04 2.981682976181e-05 0.0 
2.981682976181e-05 3.075944045931e-03 0.0 
0.0 0.0 -4.488888888889e-04 
-6.088382110079e-04 4.080604098374e-05 0.0 
4.080604098374e-05 2.772254412647e-03 0.0 
0.0 0.0 -4.711111111111e-04 
-5.699052770561e-04 5.777344855823e-05 0.0 
5.777344855823e-05 3.067169222988e-03 0.0 
0.0 0.0 -4.488888888889e-04 
-5.850043028418e-04 9.074123042683e-05 0.0 
9.074123042683e-05 3.079028566329e-03 0.0 
0.0 0.0 -4.488888888889e-04 
-6.115132190535e-04 8.765179825616e-05 0.0 
8.765179825616e-05 2.771111166917e-03 0.0 
0.0 0.0 -4.711111111111e-04 
-5.840298968917e-04 1.336949722933e-04 0.0 
1.336949722933e-04 3.039780976699e-03 0.0 
0.0 0.0 -4.488888888889e-04 
-6.359355392830e-04 7.860855074454e-05 0.0 
7.860855074454e-05 2.767946632045e-03 0.0 
0.0 0.0 -4.711111111111e-04 
-6.117830325044e-04 2.038036979565e-04 0.0 
2.038036979565e-04 3.073336866825e-03 0.0 
0.0 0.0 -4.488888888889e-04 
-5.855262073870e-04 1.964620808073e-04 0.0 
1.964620808073e-04 2.752718067293e-03 0.0 
0.0 0.0 -4.711111111111e-04 
-5.381153397062e-04 2.290411015667e-04 0.0 
2.290411015667e-04 2.647470749537e-03 0.0 
0.0 0.0 -4.471315192744e-04 
-4.856995794812e-04 -3.712445804859e-04 0.0 
-3.712445804859e-04 2.886533165746e-03 0.0 
0.0 0.0 -4.600000000000e-04 
-5.915156838414e-04 3.511510416328e-04 0.0 
3.511510416328e-04 3.076032758812e-03 0.0 
0.0 0.0 -4.600000000000e-04 
-5.132697976774e-04 -4.266972038985e-05 0.0 
-4.266972038985e-05 2.924617726937e-03 0.0 
0.0 0.0 -4.377777777778e-04 
-5.653819698478e-04 3.554715819272e-05 0.0 
3.554715819272e-05 3.026667072190e-03 0.0 
0.0 0.0 -4.822222222222e-04 
-5.562102482200e-04 3.031448983604e-04 0.0 
3.031448983604e-04 2.748233394595e-03 0.0 
0.0 0.0 -4.377777777778e-04 
-5.989574462514e-04 -8.267193208917e-05 0.0 
-8.267193208917e-05 3.437613023720e-03 0.0 
0.0 0.0 -5.155555555556e-04 
-6.287787412402e-04 3.729317259218e-05 0.0 
3.729317259218e-05 3.247326925229e-03 0.0 
0.0 0.0 -5.377777777778e-04 
-5.978135918495e-04 -1.841914986540e-05 0.0 
-1.841914986540e-05 3.561201795145e-03 0.0 
0.0 0.0 -5.155555555556e-04 
-6.254961344599e-04 -1.930049853369e-05 0.0 
-1.930049853369e-05 3.253947423147e-03 0.0 
0.0 0.0 -5.377777777778e-04 
-5.974553837248e-04 -1.391156406088e-05 0.0 
-1.391156406088e-05 3.564621634950e-03 0.0 
0.0 0.0 -5.155555555556e-04 
-6.279936331018e-04 -1.935706142364e-05 0.0 
-1.935706142364e-05 3.255345558208e-03 0.0 
0.0 0.0 -5.377777777778e-04 
-5.991807406452e-04 -1.614264760927e-05 0.0 
-1.614264760927e-05 3.566069321236e-03 0.0 
0.0 0.0 -5.155555555556e-04 
-6.284144790130e-04 -2.147959664663e-05 0.0 
-2.147959664663e-05 3.255656571766e-03 0.0 
0.0 0.0 -5.377777777778e-04 
-6.012776818642e-04 -1.696499576587e-05 0.0 
-1.696499576587e-05 3.566126567533e-03 0.0 
0.0 0.0 -5.155555555556e-04 
-6.315481358764e-04 -2.174087039821e-05 0.0 
-2.174087039821e-05 3.256770810453e-03 0.0 
0.0 0.0 -5.377777777778e-04 
-6.043203060517e-04 -1.757798620874e-05 0.0 
-1.757798620874e-05 3.567144862765e-03 0.0 
0.0 0.0 -5.155555555556e-04 
-6.347436721796e-04 -2.174327211569e-05 0.0 
-2.174327211569e-05 3.258179294352e-03 0.0 
0.0 0.0 -5.377777777778e-04 
-6.081780324954e-04 -1.832425526294e-05 0.0 
-1.832425526294e-05 3.568559060354e-03 0.0 
0.0 0.0 -5.155555555556e-04 
-6.411680495803e-04 -2.482988994377e-05 0.0 
-2.482988994377e-05 3.259134830210e-03 0.0 
0.0 0.0 -5.377777777778e-04 
-6.116960535458e-04 -1.877149855027e-05 0.0 
-1.877149855027e-05 3.568744272090e-03 0.0 
0.0 0.0 -5.155555555556e-04 
-7.366276609701e-04 4.524951182865e-05 0.0 
4.524951182865e-05 3.507320200516e-03 0.0 
0.0 0.0 -5.247732426303e-04 
-6.420523831112e-04 -2.583218201805e-05 0.0 
-2.583218201805e-05 3.257046679515e-03 0.0 
0.0 0.0 -5.377777777778e-04 
-6.435781206746e-04 1.840534884814e-04 0.0 
1.840534884814e-04 3.241318968686e-03 0.0 
0.0 0.0 -5.377777777778e-04 
-6.146990540326e-04 -1.244484207344e-05 0.0 
-1.244484207344e-05 3.564885876854e-03 0.0 
0.0 0.0 -5.155555555556e-04 
-6.478721701654e-04 -1.639725233752e-05 0.0 
-1.639725233752e-05 3.256970335869e-03 0.0 
0.0 0.0 -5.377777777778e-04 
-6.200365485572e-04 -5.018436089581e-06 0.0 
-5.018436089581e-06 3.564885905457e-03 0.0 
0.0 0.0 -5.155555555556e-04 
-6.561429566816e-04 -9.551464893356e-06 0.0 
-9.551464893356e-06 3.257786223678e-03 0.0 
0.0 0.0 -5.377777777778e-04 
-6.259668772823e-04 2.319967205521e-06 0.0 
2.319967205521e-06 3.565031180513e-03 0.0 
0.0 0.0 -5.155555555556e-04 
-6.615288143992e-04 -3.165343597243e-06 0.0 
-3.165343597243e-06 3.256616812139e-03 0.0 
0.0 0.0 -5.377777777778e-04 
-6.169661166839e-04 2.164901621932e-04 0.0 
2.164901621932e-04 3.318852114050e-03 0.0 
0.0 0.0 -5.025510204081e-04 
-6.313959408309e-04 1.331766061821e-05 0.0 
1.331766061821e-05 3.562071063365e-03 0.0 
0.0 0.0 -5.155555555556e-04 
-6.676626850749e-04 8.412288321031e-06 0.0 
8.412288321031e-06 3.254047861299e-03 0.0 
0.0 0.0 -5.377777777778e-04 
-6.369390834618e-04 2.839501316983e-05 0.0 
2.839501316983e-05 3.557766628637e-03 0.0 
0.0 0.0 -5.155555555556e-04 
-6.757465811746e-04 2.011236031009e-05 0.0 
2.011236031009e-05 3.248279072062e-03 0.0 
0.0 0.0 -5.377777777778e-04 
-6.401862908150e-04 5.683403292324e-05 0.0 
5.683403292324e-05 3.544903684413e-03 0.0 
0.0 0.0 -5.155555555556e-04 
-6.710900969960e-04 7.145474225899e-05 0.0 
7.145474225899e-05 3.246321760371e-03 0.0 
0.0 0.0 -5.377777777778e-04 
-6.532826554523e-04 8.457965391973e-05 0.0 
8.457965391973e-05 3.553131858142e-03 0.0 
0.0 0.0 -5.155555555556e-04 
-7.020590348485e-04 7.312181654746e-05 0.0 
7.312181654746e-05 3.244705541191e-03 0.0 
0.0 0.0 -5.377777777778e-04 
-6.554115117610e-04 1.658740749447e-04 0.0 
1.658740749447e-04 3.237354480524e-03 0.0 
0.0 0.0 -5.377777777778e-04 
-6.559576634980e-04 1.237219721845e-04 0.0 
1.237219721845e-04 3.531755926188e-03 0.0 
0.0 0.0 -5.155555555556e-04 
-6.411111436525e-04 2.481500458011e-04 0.0 
2.481500458011e-04 3.407080026122e-03 0.0 
0.0 0.0 -5.358843537414e-04 
-6.803799837275e-04 1.624927648151e-04 0.0 
1.624927648151e-04 3.558426467577e-03 0.0 
0.0 0.0 -5.155555555556e-04 
-5.945151412269e-04 1.812873307433e-04 0.0 
1.812873307433e-04 3.113616278940e-03 0.0 
0.0 0.0 -5.136621315192e-04 
-6.672833179301e-04 -3.706793032750e-04 0.0 
-3.706793032750e-04 3.459056007774e-03 0.0 
0.0 0.0 -5.266666666667e-04 
-5.623773213514e-04 3.513666038768e-04 0.0 
3.513666038768e-04 3.271176697744e-03 0.0 
0.0 0.0 -5.266666666667e-04 
-6.406200246206e-04 -4.190627532401e-05 0.0 
-4.190627532401e-05 3.422026805713e-03 0.0 
0.0 0.0 -5.488888888889e-04 
-5.876041920701e-04 3.555034108668e-05 0.0 
3.555034108668e-05 3.319473246611e-03 0.0 
0.0 0.0 -5.044444444444e-04 
-6.130423435783e-04 2.369057836334e-04 0.0 
2.369057836334e-04 3.223253934296e-03 0.0 
0.0 0.0 -5.044444444444e-04 
-7.120623447180e-04 -8.888228388160e-05 0.0 
-8.888228388160e-05 3.852748437753e-03 0.0 
0.0 0.0 -6.044444444444e-04 
-6.732231856846e-04 3.548631982699e-05 0.0 
3.548631982699e-05 4.032087244247e-03 0.0 
0.0 0.0 -5.822222222222e-04 
-6.955393523700e-04 -2.756019485512e-05 0.0 
-2.756019485512e-05 3.717267839696e-03 0.0 
0.0 0.0 -6.044444444444e-04 
-6.699405789043e-04 -1.870355497797e-05 0.0 
-1.870355497797e-05 4.017496801865e-03 0.0 
0.0 0.0 -5.822222222222e-04 
-6.969243199369e-04 -6.918496173234e-06 0.0 
-6.918496173234e-06 3.707462619531e-03 0.0 
0.0 0.0 -6.044444444444e-04 
-6.724380775462e-04 -1.325710265715e-05 0.0 
-1.325710265715e-05 4.022403973257e-03 0.0 
0.0 0.0 -5.822222222222e-04 
-7.031503284102e-04 -1.402242021930e-05 0.0 
-1.402242021930e-05 3.711320333832e-03 0.0 
0.0 0.0 -6.044444444444e-04 
-6.728589234574e-04 -1.646685933992e-05 0.0 
-1.646685933992e-05 4.018646007482e-03 0.0 
0.0 0.0 -5.822222222222e-04 
-6.992489626615e-04 -7.571363959488e-06 0.0 
-7.571363959488e-06 3.708933191906e-03 0.0 
0.0 0.0 -6.044444444444e-04 
-6.759925803209e-04 -1.073738973976e-05 0.0 
-1.073738973976e-05 4.021950250257e-03 0.0 
0.0 0.0 -5.822222222222e-04 
-7.070575680629e-04 -7.158521352799e-06 0.0 
-7.158521352799e-06 3.711746084396e-03 0.0 
0.0 0.0 -6.044444444444e-04 
-6.791881166240e-04 -9.268059005098e-06 0.0 
-9.268059005098e-06 4.020971144871e-03 0.0 
0.0 0.0 -5.822222222222e-04 
-7.076120858666e-04 1.215276486099e-06 0.0 
1.215276486099e-06 3.712281244356e-03 0.0 
0.0 0.0 -6.044444444444e-04 
-7.999876507941e-04 1.388374683100e-05 0.0 
1.388374683100e-05 3.980152954303e-03 0.0 
0.0 0.0 -5.915759637188e-04 
-6.856124940247e-04 -4.086926393718e-06 0.0 
-4.086926393718e-06 4.027577169899e-03 0.0 
0.0 0.0 -5.822222222222e-04 
-7.178528616705e-04 -1.309284787321e-05 0.0 
-1.309284787321e-05 3.714901656250e-03 0.0 
0.0 0.0 -6.044444444444e-04 
-6.869874754798e-04 1.711534318409e-04 0.0 
1.711534318409e-04 3.792214840593e-03 0.0 
0.0 0.0 -5.693537414966e-04 
-6.864968275557e-04 -6.408579358671e-06 0.0 
-6.408579358671e-06 4.016159600688e-03 0.0 
0.0 0.0 -5.822222222222e-04 
-7.178783193932e-04 5.819993202574e-06 0.0 
5.819993202574e-06 3.708927247396e-03 0.0 
0.0 0.0 -6.044444444444e-04 
-7.079394544223e-04 1.566312145644e-04 0.0 
1.566312145644e-04 3.702391321003e-03 0.0 
0.0 0.0 -6.044444444444e-04 
-6.923166146099e-04 7.612225445440e-06 0.0 
7.612225445440e-06 4.017109289765e-03 0.0 
0.0 0.0 -5.822222222222e-04 
-7.279989213735e-04 2.036390614473e-05 0.0 
2.036390614473e-05 3.710913040149e-03 0.0 
0.0 0.0 -6.044444444444e-04 
-7.005874011261e-04 1.845814163449e-05 0.0 
1.845814163449e-05 4.020938657480e-03 0.0 
0.0 0.0 -5.822222222222e-04 
-7.354917532623e-04 2.057235382585e-05 0.0 
2.057235382585e-05 3.711839010969e-03 0.0 
0.0 0.0 -6.044444444444e-04 
-7.059732588437e-04 2.754521474697e-05 0.0 
2.754521474697e-05 4.015383430286e-03 0.0 
0.0 0.0 -5.822222222222e-04 
-7.002855080047e-04 1.990014593216e-04 0.0 
1.990014593216e-04 3.872918840521e-03 0.0 
0.0 0.0 -6.026870748299e-04 
-7.379521818037e-04 3.377279504907e-05 0.0 
3.377279504907e-05 3.707685656258e-03 0.0 
0.0 0.0 -6.044444444444e-04 
-7.121071295194e-04 4.529492266530e-05 0.0 
4.529492266530e-05 4.010298093341e-03 0.0 
0.0 0.0 -5.822222222222e-04 
-7.201910256190e-04 6.322353710792e-05 0.0 
6.322353710792e-05 4.009272868238e-03 0.0 
0.0 0.0 -5.822222222222e-04 
-7.467651792935e-04 5.478281511635e-05 0.0 
5.478281511635e-05 3.704632746345e-03 0.0 
0.0 0.0 -6.044444444444e-04 
-7.155345414404e-04 9.941872455418e-05 0.0 
9.941872455418e-05 3.968551508246e-03 0.0 
0.0 0.0 -5.822222222222e-04 
-7.657386443158e-04 4.703626451468e-05 0.0 
4.703626451468e-05 3.695451234596e-03 0.0 
0.0 0.0 -6.044444444444e-04 
-7.465034792929e-04 1.491483542401e-04 0.0 
1.491483542401e-04 4.023442400313e-03 0.0 
0.0 0.0 -5.822222222222e-04 
-7.198395015582e-04 1.725743928124e-04 0.0 
1.725743928124e-04 3.686227600280e-03 0.0 
0.0 0.0 -6.044444444444e-04 
-6.565140853496e-04 1.301780499699e-04 0.0 
1.301780499699e-04 3.583317050774e-03 0.0 
0.0 0.0 -5.804648526077e-04 
-6.267004692735e-04 -3.600267132829e-04 0.0 
-3.600267132829e-04 3.813319755553e-03 0.0 
0.0 0.0 -5.933333333333e-04 
-7.431964593305e-04 3.646450588748e-04 0.0 
3.646450588748e-04 4.021679577105e-03 0.0 
0.0 0.0 -5.933333333333e-04 
-6.628422468428e-04 -3.292224140382e-05 0.0 
-3.292224140382e-05 3.861928425764e-03 0.0 
0.0 0.0 -5.711111111111e-04 
-7.088162572225e-04 5.311123185713e-05 0.0 
5.311123185713e-05 3.959617699405e-03 0.0 
0.0 0.0 -6.155555555556e-04 
-6.769114540080e-04 1.825624503540e-04 0.0 
1.825624503540e-04 3.695515009073e-03 0.0 
0.0 0.0 -5.711111111111e-04 
-7.565067891625e-04 -1.155535297541e-04 0.0 
-1.155535297541e-04 4.407218847534e-03 0.0 
0.0 0.0 -6.488888888889e-04 
-7.530504053033e-04 -7.571813069496e-06 0.0 
-7.571813069496e-06 4.174991140514e-03 0.0 
0.0 0.0 -6.711111111111e-04 
-7.399837968145e-04 -1.387977928634e-05 0.0 
-1.387977928634e-05 4.486504988785e-03 0.0 
0.0 0.0 -6.488888888889e-04 
-7.729838338639e-04 -1.329064737435e-05 0.0 
-1.329064737435e-05 4.184890785187e-03 0.0 
0.0 0.0 -6.711111111111e-04 
-7.413687643813e-04 -3.949381470416e-07 0.0 
-3.949381470416e-07 4.494790911899e-03 0.0 
0.0 0.0 -6.488888888889e-04 
-7.742938489980e-04 3.545636067961e-06 0.0 
3.545636067961e-06 4.195489456373e-03 0.0 
0.0 0.0 -6.711111111111e-04 
-7.475947728547e-04 -1.447276125001e-05 0.0 
-1.447276125001e-05 4.508658415556e-03 0.0 
0.0 0.0 -6.488888888889e-04 
-7.647771457920e-04 -2.472289036545e-05 0.0 
-2.472289036545e-05 4.185138013304e-03 0.0 
0.0 0.0 -6.711111111111e-04 
-7.436934071060e-04 3.939866511849e-06 0.0 
3.939866511849e-06 4.492058634297e-03 0.0 
0.0 0.0 -6.488888888889e-04 
-7.721102977711e-04 1.191369759528e-05 0.0 
1.191369759528e-05 4.191715436034e-03 0.0 
0.0 0.0 -6.711111111111e-04 
-7.515020125074e-04 1.948179168996e-06 0.0 
1.948179168996e-06 4.504635429055e-03 0.0 
0.0 0.0 -6.488888888889e-04 
-7.788311265265e-04 -5.657460917598e-06 0.0 
-5.657460917598e-06 4.190705067530e-03 0.0 
0.0 0.0 -6.711111111111e-04 
-8.662964799625e-04 -2.454914467332e-05 0.0 
-2.454914467332e-05 4.459732268515e-03 0.0 
0.0 0.0 -6.580807474504e-04 
-7.520565303110e-04 1.109064528774e-05 0.0 
1.109064528774e-05 4.498175075181e-03 0.0 
0.0 0.0 -6.488888888889e-04 
-8.155020730708e-04 1.528373870012e-04 0.0 
1.528373870012e-04 4.186625771973e-03 0.0 
0.0 0.0 -6.711111111111e-04 
-7.586605293786e-04 2.791301751342e-05 0.0 
2.791301751342e-05 4.190794983268e-03 0.0 
0.0 0.0 -6.711111111111e-04 
-7.622973061150e-04 1.699730231297e-05 0.0 
1.699730231297e-05 4.505906138033e-03 0.0 
0.0 0.0 -6.488888888889e-04 
-7.955711925846e-04 8.033031112466e-08 0.0 
8.033031112466e-08 4.188331241414e-03 0.0 
0.0 0.0 -6.711111111111e-04 
-7.623227638377e-04 3.400576865185e-05 0.0 
3.400576865185e-05 4.489689491926e-03 0.0 
0.0 0.0 -6.488888888889e-04 
-8.006770446683e-04 3.868285750203e-05 0.0 
3.868285750203e-05 4.189917974469e-03 0.0 
0.0 0.0 -6.711111111111e-04 
-7.724433658179e-04 4.171040082635e-05 0.0 
4.171040082635e-05 4.499618609463e-03 0.0 
0.0 0.0 -6.488888888889e-04 
-7.971982277132e-04 4.334547048389e-05 0.0 
4.334547048389e-05 4.190772542348e-03 0.0 
0.0 0.0 -6.711111111111e-04 
-7.512535823419e-04 1.572109300169e-04 0.0 
1.572109300169e-04 4.272969555894e-03 0.0 
0.0 0.0 -6.358585252281e-04 
-7.799361977067e-04 4.942380984451e-05 0.0 
4.942380984451e-05 4.500436321571e-03 0.0 
0.0 0.0 -6.488888888889e-04 
-8.019717863413e-04 4.151088876834e-05 0.0 
4.151088876834e-05 4.184126944351e-03 0.0 
0.0 0.0 -6.711111111111e-04 
-7.823966262481e-04 7.184392993936e-05 0.0 
7.184392993936e-05 4.484862014071e-03 0.0 
0.0 0.0 -6.488888888889e-04 
-8.006840076862e-04 7.791811278218e-05 0.0 
7.791811278218e-05 4.176001510023e-03 0.0 
0.0 0.0 -6.711111111111e-04 
-8.039640851073e-04 1.263508000003e-04 0.0 
1.263508000003e-04 4.174705869658e-03 0.0 
0.0 0.0 -6.711111111111e-04 
-7.912096237380e-04 1.071509718730e-04 0.0 
1.071509718730e-04 4.477799006040e-03 0.0 
0.0 0.0 -6.488888888889e-04 
-8.101830887602e-04 1.288493200629e-04 0.0 
1.288493200629e-04 4.489610393156e-03 0.0 
0.0 0.0 -6.488888888889e-04 
-7.617757652904e-04 1.684528749010e-04 0.0 
1.684528749010e-04 4.355354044839e-03 0.0 
0.0 0.0 -6.691918585615e-04 
-7.171747419539e-04 1.190543822742e-04 0.0 
1.190543822742e-04 4.056731334660e-03 0.0 
0.0 0.0 -6.469696363393e-04 
-8.025731129306e-04 -3.241456630719e-04 0.0 
-3.241456630719e-04 4.358910586267e-03 0.0 
0.0 0.0 -6.600000000000e-04 
-7.344440083408e-04 3.911518351984e-04 0.0 
3.911518351984e-04 4.236731495882e-03 0.0 
0.0 0.0 -6.600000000000e-04 
-8.045282767906e-04 1.783825891024e-05 0.0 
1.783825891024e-05 4.360632635982e-03 0.0 
0.0 0.0 -6.822222222222e-04 
-7.310384794447e-04 6.338117589491e-05 0.0 
6.338117589491e-05 4.247438367621e-03 0.0 
0.0 0.0 -6.377777777778e-04 
-7.412727877556e-04 1.381235162240e-04 0.0 
1.381235162240e-04 4.183483937710e-03 0.0 
0.0 0.0 -6.377777777778e-04 

SCALARS element_materi_plasti_kappa_shear float
LOOKUP_TABLE default
2.048251484052e-03
1.753493670412e-03
5.503175940454e-03
5.633931869583e-03
3.565227349428e-03
4.312193749307e-04
3.536826958687e-03
1.942063469917e-03
3.582504689508e-03
5.588174946624e-03
3.844209359202e-03
1.631469581520e-03
5.512057153719e-03
3.809200862045e-03
5.604521952288e-03
5.734301458091e-03
3.547028291065e-03
0.0
1.240065727301e-03
1.171297693899e-03
5.622446392520e-03
2.066758337528e-03
2.250687853245e-03
4.978061567755e-03
4.048291547957e-03
4.106723662793e-03
3.275000549148e-03
5.494131578830e-03
4.059702375831e-03
5.136982028010e-03
1.134770329222e-03
3.832632936293e-04
5.695120532744e-03
4.786861567557e-03
5.372391993923e-03
5.735141668292e-03
5.753517229623e-03
5.201200685639e-03
3.236338684528e-03
3.281036968799e-03
2.549446708275e-03
5.321786045187e-03
1.684174276636e-03
3.149604634892e-03
5.511212370387e-03
1.565690788834e-03
3.220151479937e-04
5.403179619290e-03
4.290285994548e-06
3.669652725762e-03
2.409350294786e-03
1.545192749097e-03
1.201581906209e-03
2.359715905779e-03
5.581390730100e-03
2.049040073899e-03
1.507776831990e-03
4.806180650684e-03
9.040347839122e-04
5.734539432202e-03
0.0
5.036447355686e-03
2.389363153128e-03
1.200719454992e-03
5.502622384469e-03
2.208078500699e-03
0.0
5.645939813077e-03
1.388688876148e-03
5.450080675048e-03
4.240450452081e-03
5.844447616816e-03
5.127619557211e-03
3.940968838013e-04
2.067872878458e-03
5.628694369718e-03
5.723406412389e-03
1.349407449673e-03
8.084468878613e-04
1.429030436914e-03
1.215963319167e-03
3.393097464491e-03
2.129508046084e-03
1.864830702236e-03
3.733526205207e-03
3.714125906962e-03
4.361075697200e-03
4.690746124938e-03
4.783172209268e-03
3.514212606547e-03
2.589608648574e-04
3.431550400288e-03
4.721859888672e-03
4.746077057757e-03
5.997543046696e-03
5.411150761547e-03
3.393913313148e-03
5.491004293201e-03
3.985594967259e-03
2.258571385844e-03
3.410992711845e-03
5.611034212900e-03
4.179507938013e-03
5.032886742806e-03
2.003062331599e-03
8.956760759698e-04
5.221382607798e-03
5.045193140480e-03
2.261908350144e-04
5.486842463624e-03
4.573653062054e-03
3.479980613031e-04
2.502076270832e-03
3.167763418157e-03
2.487000496226e-03
2.126059688753e-03
2.273861626040e-03
5.451016480833e-03
3.919789090778e-03
2.281181173819e-03
1.213076248653e-03
3.513689619667e-03
4.941959880695e-03
2.106608397090e-03
9.726897685994e-04
2.859921274722e-03
2.565005698292e-03
2.680460766149e-03
5.737782286007e-03
9.785758943600e-04
4.027728111069e-03
5.636355074510e-03
2.835365156538e-03
2.709046400113e-03
5.353249069116e-03
5.532349028915e-03
4.348743351020e-03
2.978900291729e-03
5.411429688504e-03
2.744221608962e-03
5.616125922486e-03
5.613692443858e-03
3.766204035722e-03
4.391065799997e-03
2.718404295077e-03
2.533253388883e-03
3.087137023846e-03
2.200470782986e-03
3.492820352654e-03
2.363376362537e-03
2.621382727248e-04
3.747049311015e-03
8.605114628174e-04
3.020514546332e-03
5.290806449770e-03
2.186313469297e-03
4.518027699077e-03
1.606142966517e-03
4.209701847448e-03
3.408465456370e-03
2.321856290079e-03
4.941287181334e-03
1.029170670083e-03
5.207270841350e-03
3.386399557435e-03
5.629077659096e-03
3.402534046100e-03
2.143777464895e-03
2.980585492464e-03
3.978529564445e-03
1.797981043136e-03
2.131947395522e-03
4.565545625096e-03
3.526561441315e-03
2.292273163024e-03
2.831954602171e-03
4.902639283245e-03
2.846109516762e-03
5.344131269156e-03
5.581762834167e-03
2.045482988632e-03
2.739998364567e-03
4.670836610536e-03
2.636378907130e-03
1.901753547338e-03
3.276383508295e-03
2.394214224877e-03
5.640432630144e-03
4.649191975422e-03
5.084010659974e-03
1.450852845402e-03
1.891185196908e-03
4.756649167095e-03
0.0
2.645910748192e-03
4.353987082835e-03
6.693198157630e-04
5.577145383260e-03
4.311674069402e-03
2.424063329831e-03
4.308254875087e-03
3.768016172911e-03
3.975429040763e-03
5.123403257528e-03
1.968551576487e-03
3.168679698929e-03
3.489417411141e-03
4.497775965736e-03
3.554143506731e-03
3.272990497602e-03
3.636148199777e-03
4.777873359821e-03
0.0
2.054332000673e-03
2.292338041600e-03
3.059823040950e-03
4.848669964181e-03
7.411939793980e-04
4.203239612195e-03
3.403528574950e-03
2.120618832016e-03
4.069098148087e-03
4.246264766717e-04
4.599464078276e-03
3.476148306084e-04
5.410341703710e-04
1.592193211171e-03
1.719248331945e-03
4.782293510667e-03
1.815734887217e-03
1.844404593867e-03
1.618505664870e-03
1.146822852731e-03
4.464359441944e-03
3.377702223347e-03
5.506088258921e-03
0.0
2.009805297429e-03
2.302243100894e-03
2.481153461484e-03
4.143768537590e-03
5.606441244158e-03
4.559795208237e-03
1.455328493326e-03
4.488396010045e-03
4.213382192652e-03
3.236971907541e-03
4.423237357451e-03
5.173514376653e-03
2.134179776736e-03
1.811135889082e-03
3.825403090103e-03
5.999008670889e-03
3.128792099484e-03
2.778892560238e-03
3.812433277429e-03
1.356034459876e-03
3.547869395678e-03
1.821956586395e-03
1.071898620409e-03
6.878759182499e-04
4.770342255613e-03
3.657761913000e-03
2.301185800403e-03
4.951131887675e-03
4.665409177490e-03
3.411799966359e-03
5.452188912108e-03
2.908585602061e-03
3.583300261965e-03
2.605219249823e-03
3.100950466365e-03
1.347698524684e-03
3.414342947476e-03
2.155049212513e-03
1.385737165103e-03
4.542488046730e-03
0.0
3.716563633638e-03
1.636449720064e-03
1.774524551335e-03
8.033729531876e-04
3.926631031118e-03
7.929613934373e-04
2.439400741018e-03
3.230296274809e-03
3.653257839111e-03
3.792551444783e-03
3.394897168044e-04
9.779464977479e-04
1.639638944485e-03
2.170597973029e-03
4.441924025952e-03
2.403845489855e-03
2.012179680430e-03
2.055407645936e-03
5.690441180566e-04
2.724975474439e-03
1.566269675286e-03
5.958720739140e-03
5.939193914372e-03
3.244445123058e-03
1.612814842720e-03
1.675996184199e-03
3.688319290740e-03
1.425607672630e-03
1.036406456605e-03
3.253099720127e-03
5.778400585500e-03
1.895871873376e-03
3.666527252036e-03
1.635469508028e-03
5.660443835014e-03
1.865154342381e-03
3.342266076335e-03
6.537557986607e-04
3.435463054255e-03
2.276354288028e-03
1.404210939028e-03
3.486331641573e-03
5.890375541845e-03
1.783256592407e-03
3.221814678744e-03
1.690872941280e-03
4.262668196764e-03
3.989554513863e-03
1.870987437432e-03
4.157903845114e-03
5.833143474624e-03
4.319705339619e-03
5.914245466119e-03
4.107732014025e-03
4.587246752330e-03
1.718940221779e-03
3.216971996294e-03
3.590070658515e-03
3.756282744682e-03
2.945710028404e-03
5.788099092437e-03
3.944002213719e-03
3.448909530710e-03
1.863265499764e-03
1.455277505311e-03
3.108638757878e-03
2.053960887931e-03
3.540174196265e-03
1.877423184664e-03
1.615583361797e-03
4.717172209803e-03
1.879339039984e-03
3.325468032698e-03
3.338062058546e-03
3.118061036030e-03
5.704944762880e-03
2.801276760200e-03
7.929235320680e-04
2.475643465383e-03
1.888885188254e-03
2.000012791094e-03
4.954048188006e-03
3.495259464146e-03
2.461309541375e-03
3.062435080318e-03
5.651875251926e-03
5.274977967438e-03
4.935750800823e-03
4.617112825186e-03
3.065607714073e-03
2.469090313365e-03
1.133689513580e-03
1.302424423879e-03
3.315397022365e-03
3.332601828915e-03
2.997347446124e-03
5.010744987465e-03
1.001431061527e-03
2.758819764694e-03
3.419306053386e-03
2.519448693487e-03
5.922741708313e-03
5.955236189705e-03
5.576307705796e-03
3.343577244616e-03
4.936203495640e-03
1.952709186338e-03
1.572206337786e-03
8.348386301078e-04
2.556685105344e-03
3.397790353165e-03
4.097341444589e-03
5.360765443340e-03
4.855340331115e-03
3.816589750238e-03
3.860243568889e-03
1.042497557085e-03
9.358115372942e-04
2.519797185523e-03
3.004979550758e-03
2.619929927174e-03
9.216036177595e-04
3.654326841485e-03
1.535889856870e-03
1.965274985910e-03
5.542217875605e-03
3.765591558978e-03
3.443419406157e-03
9.148022967595e-04
3.000502477848e-03
2.382905503139e-03
3.927650911988e-03
5.879566310260e-03
3.223720713770e-03
3.674901719203e-03
2.887355925381e-03
4.891146742092e-03
3.418978839809e-03
5.856068981647e-03
5.774980459742e-03
5.817447372982e-03
5.770330115020e-03
4.031402203216e-03
4.901935106937e-03
5.053219238746e-03
2.608302338338e-03
2.534090737437e-03
2.864377718296e-03
5.021604322951e-03
5.804877108405e-03
5.054229152364e-03
3.432032663523e-03
5.068372728808e-03
4.092526629085e-03
2.882253780088e-03
2.587573265554e-03
1.635529725768e-03
5.632439227330e-03
2.459501711046e-03
5.142282866550e-03
2.763464966763e-03
2.028101785968e-03
5.246511047736e-03
2.055425638514e-03
5.758655944435e-03
5.581996474530e-03
3.601464432629e-03
2.874317802878e-04
5.722474487266e-03
5.230794359338e-03
1.560316552400e-03
3.558601806016e-03
5.699626342238e-03
0.0
2.660857434825e-03
3.779907730678e-03
3.423227498078e-03
3.515796245568e-03
1.920364726314e-03
5.673636790495e-03
1.884624729070e-03
1.324523675438e-04
5.578498981548e-03
5.002872014388e-04
2.903489307071e-03
7.102088304151e-04
3.105385424469e-03
5.637939698663e-03
5.643493109987e-03
3.759896198982e-03
6.466604743843e-04
2.581016059870e-06
1.306561031608e-03
4.781936084338e-03
3.544667014514e-03
3.591768567502e-03
5.600982036969e-03
3.550458207037e-03
5.978204257671e-03
4.194064998041e-03
3.966369650588e-03
2.069110227023e-03
3.555873876722e-03
1.287977702152e-03
5.563443599679e-03
5.770828452205e-03
5.803925315002e-03
3.535689664887e-03
2.718540240995e-03
2.810036151372e-03
3.607200195359e-03
5.538358032675e-03
1.640374573165e-03
1.295740147429e-03
1.612091026105e-03
4.134625190794e-03
5.683102620147e-03
9.751937677047e-04
5.520122581297e-03
1.677390207142e-03
5.751046272795e-03
5.068488904679e-03
5.986160827208e-04
2.695519082935e-03
5.116907936890e-03
5.706785168037e-03
4.029434435152e-03
4.284615340903e-03
1.266337359964e-03
4.952953356985e-03
1.912176692629e-03
1.970550124934e-03
6.041211163241e-04
5.656733513692e-03
1.182133657821e-03
4.542952953280e-03
3.833323984522e-03
2.139158319596e-03
1.714726693588e-03
3.853402172132e-03
5.579172664692e-03
2.774393020232e-03
3.942313972036e-03
3.310099650091e-03
3.368941039505e-03
1.606723124076e-03
3.637032700867e-03
3.197994162511e-03
4.208731222359e-03
3.883013032915e-03
3.120071939876e-03
2.732828783826e-03
1.823514764933e-03
2.627670573605e-03
4.181475254094e-03
3.004073412555e-03
5.656674172997e-03
5.232907453581e-03
1.823811427345e-03
5.507514049442e-03
5.342333532244e-03
2.747952667688e-03
4.382088383837e-04
5.694608369003e-03
5.185125812822e-03
1.765229900576e-03
5.538258443365e-03
3.827720443377e-03
2.679180912128e-03
3.704599732640e-03
2.883358424601e-03
3.255701293151e-03
3.509234741566e-03
4.329946724555e-03
2.998532943868e-03
4.098742247154e-03
4.047052255275e-03
2.859932710936e-03
3.672333583241e-03
2.211642543694e-03
3.881327088903e-03
2.317754686702e-04
2.007422663305e-03
2.062503183499e-03
3.040900024033e-03
2.964066277893e-03
3.726763647670e-03
4.021852142269e-03
2.125448120930e-03
5.567560434823e-03
3.763638072718e-03
3.188675817690e-03
3.577463415310e-03
3.136039882304e-03
0.0
3.881554513064e-03
2.640906468370e-03
1.601175916693e-04
3.049084665278e-03
4.039018151325e-03
5.107511769800e-03
3.179382722343e-03
3.272183804054e-03
3.333812579699e-03
3.138774507407e-03
5.602858950169e-03
3.388266387592e-03
4.889835681516e-04
1.262830355438e-03
3.403732711760e-04
2.039797041705e-03
4.886593675055e-03
5.135074580473e-03
4.569733804699e-03
2.205347307067e-03
3.963428270317e-03
4.644691033612e-03
4.480010223362e-04
2.667099209261e-03
2.160248377513e-03
5.721042981994e-03
5.580105102775e-03
2.939481999310e-03
3.271315706566e-03
3.310083848978e-03
4.812160421875e-03
1.230172725071e-03
4.495251994924e-03
6.428633528680e-04
2.999374668151e-03
3.265631012540e-03
2.192679874259e-04
2.777613716051e-03
5.213183738870e-03
4.661553375830e-04
3.125223871850e-03
3.264611202798e-03
3.668691180678e-03
2.191299816666e-03
1.929490898901e-03
1.801992614561e-03
5.021357309615e-03
5.413378247578e-03
4.938730896674e-03
1.962629389648e-03
7.396549693111e-04
3.052559415623e-03
3.136955965337e-03
3.283077438816e-03
1.598687307509e-04
2.193472717883e-04
5.176799582362e-04
1.646399827615e-03
4.476010659486e-04
3.103497725519e-03
0.0
1.933359932912e-03
4.174873570305e-03
3.277162825819e-03
5.055738530347e-03
3.910516641519e-03
3.910699350519e-03
2.335203039295e-03
6.321407009922e-04
5.850638891353e-03
6.009929428425e-03
3.804106063636e-03
3.142498704503e-03
2.378074668671e-03
6.000434500276e-03
1.932646254916e-03
3.261134435714e-03
3.129035808385e-03
2.954670140417e-03
5.838142907149e-03
5.995969196951e-03
4.354125543212e-04
1.813212541407e-04
9.186762200650e-04
3.162862848184e-03
5.377931686408e-03
0.0
4.886021985717e-03
0.0
3.610910406558e-03
3.669816600871e-04
9.031669178807e-05
3.461382625694e-03
5.195804270535e-03
4.290192669085e-03
3.148248508174e-03
2.197475915269e-04
4.109795966881e-03
5.851848957563e-03
6.003781657386e-03
3.276367122740e-03
3.775548124396e-03
5.863438389457e-03
4.268339267121e-03
6.020741917649e-04
4.453789533022e-04
2.347376138707e-04
2.636386499780e-03
5.872831094669e-03
5.638106297545e-03
1.897411018069e-04
3.087998710896e-03
5.740465009782e-03
5.879140074132e-03
5.731117611362e-03
4.595061384764e-03
5.043133831470e-03
5.707378045359e-03
5.713124045283e-03
4.886059613206e-03
4.831364360602e-04
3.253485872106e-03
3.293767224568e-03
1.826916767147e-04
5.690406926254e-03
5.768685902519e-03
5.617484584069e-03
4.524110312699e-04
4.596449148217e-04
5.588283914655e-03
5.603110956582e-03
4.452788727497e-03
3.251601896083e-03
4.737759423841e-03
3.834702661819e-03
3.246459497800e-03
5.228246461019e-04
4.912700086981e-04
4.440043287774e-04
5.321378525866e-04
3.250169139528e-03
2.937145446359e-03
0.0
4.118703550062e-03
0.0
5.832195033359e-03
5.846499430745e-03
5.850716816551e-03
1.037380994288e-03
2.016748291347e-03
5.852662976723e-03
4.973191529565e-03
5.880964851940e-03
5.257570989653e-03
5.538666694917e-03
2.787880833422e-03
6.016271676808e-03
6.012463975420e-03
5.083244388473e-03
5.379690173722e-03
4.387421699504e-03
0.0
2.857162677749e-03
4.252814149356e-04
5.079913712272e-03
2.910266083999e-03
4.760106554014e-03
1.643649883448e-03
5.383120855226e-04
5.098955867833e-03
3.125495581336e-03
2.489884669676e-03
4.818967528395e-03
5.278656552725e-03
2.495305030192e-03
4.255398696545e-03
3.844899893988e-03
4.331079183945e-03
4.483284984887e-03
1.722961733981e-03
2.890176896868e-03
2.847631786202e-03
4.036906121347e-03
4.963877593991e-03
4.634026856991e-03
1.657361628813e-03
5.268660436221e-03
4.977116357189e-03
3.619668627054e-03
4.170717328187e-03
4.186883659402e-03
5.342654512253e-03
5.152017188016e-03
3.775019514809e-03
5.233037882857e-03
4.914729909785e-03
4.640974992130e-03
5.247897151359e-03
5.303240859678e-03
4.541244193091e-03
4.128098936937e-03
1.538774070067e-03
1.637170348017e-03
8.927698521496e-04
6.525183474627e-04
5.158931490191e-03
5.044076979222e-03
5.868956833529e-04
5.121589647054e-03
3.733179451095e-03
4.678226682694e-03
4.762287906690e-03
2.074136809097e-03
4.809627862754e-03
3.622602601676e-03
3.895447150765e-03
5.345962366384e-03
1.472811966339e-03
5.235843009349e-03
4.707105507548e-03
1.674998648871e-03
1.997272543898e-03
3.477442011437e-03
4.193455430159e-03
2.343630985594e-03
4.867641149368e-03
4.387482060233e-03
3.338211884839e-03
4.524321097962e-03
4.677832988922e-03
4.679006337696e-03
1.339663578638e-03
3.198638979897e-03
4.633717260275e-03
4.840387351562e-03
2.897016443790e-03
3.936845676204e-03
5.082736818756e-03
4.511744960805e-03
3.674133562231e-05
7.677090780190e-04
5.119753373391e-04
4.910516809545e-03
4.354991661180e-03
3.826914815962e-03
3.891439679492e-03
4.711856603341e-03
3.483739004670e-03
4.620031677450e-03
1.591598461033e-03
5.218249190632e-03
3.412412426767e-03
1.736686848489e-03
3.262202328444e-03
2.478917580480e-03
2.035103586398e-03
3.755154455874e-03
1.564516804578e-04
1.127981756129e-04
4.252374733298e-03
1.464746990371e-03
4.246030270520e-03
4.094375942875e-03
2.616673579752e-03
1.812766898726e-03
5.102254688752e-03
3.465488540583e-04
2.625027282395e-03
4.837002714089e-03
1.192572476611e-03
4.082383260840e-03
3.767466409166e-03
1.326156531730e-03
4.910591653427e-03
4.645125771511e-03
1.410538395916e-03
5.226535373693e-03
5.199234746316e-03
1.660825990560e-03
2.070362284012e-03
1.741360747490e-03
4.534233564243e-03
3.626195608604e-03
5.169455195403e-03
5.078103462266e-03
4.392922361779e-03
4.325015664707e-03
1.344427675979e-03
4.473065100284e-03
4.621187335039e-03
3.681381110047e-03
4.381240135388e-03
4.808400950473e-03
2.590644772933e-03
4.947620929573e-03
3.085734269788e-03
3.550246213813e-03
2.335827574008e-03
2.490782004143e-03
4.488879741826e-03
3.165999505287e-03
1.852051741298e-03
9.795830009428e-04
4.513242120104e-03
1.766306002376e-03
5.166203144739e-03
4.649805208552e-03
4.614388070238e-03
5.225667178668e-03
2.979037457551e-03
1.585841628710e-03
1.011992460365e-03
4.379665078225e-03
4.223445145250e-03
6.765581779647e-04
2.432707948999e-03
1.398956561073e-03
4.216513153533e-03
2.555838114567e-03
4.011146820245e-03
2.390150431536e-03
5.006027676207e-03
2.059652164516e-03
4.350001019912e-03
1.794811250637e-03
4.222069039724e-03
3.406036415107e-03
4.462021920913e-03
1.339917336666e-03
1.350299010952e-03
3.939048831294e-03
3.691324572909e-03
2.830557802011e-03
4.239747352825e-03
1.991260803131e-03
4.297758287115e-03
1.272590086592e-03
4.947061823839e-03
3.839114394118e-03
4.100469873386e-03
5.406352818554e-03
3.435279919526e-03
1.276251192001e-03
3.890812531652e-03
5.018055530162e-03
2.209550982896e-03
4.531906710769e-03
4.676467859059e-03
1.712191406574e-03
4.059355262125e-03
3.877866350654e-03
1.909658390552e-03
2.315039142321e-03
3.261954618660e-03
4.303145841247e-03
2.635421671348e-03
3.059028444222e-03
4.459399445595e-03
4.056901073063e-03
3.999117941319e-03
3.350783493908e-03
4.741842824469e-03
3.716486713275e-03
3.922920566098e-03
5.252343855285e-03
4.304735037625e-03
4.138095280470e-03
4.783696522489e-03
2.607621039471e-03
2.469838949813e-03
1.432823964346e-03
4.007204605408e-03
2.590823974833e-03
4.347452842024e-03
4.183394403681e-03
2.669547662572e-03
2.085784252470e-03
1.474019061621e-03
2.212107321881e-03
2.350809507915e-03
1.463075537230e-03
4.569504511566e-03
2.669001313969e-03
4.972812165115e-03
2.750604982809e-03
3.790160523716e-03
3.207941504412e-03
2.889645016640e-03
1.541106990513e-03
4.841361927258e-03
5.091339779464e-03
4.032052527629e-03
2.472525954974e-03
3.495149155929e-03
4.324118500003e-03
2.732643322525e-03
2.578422691737e-03
2.150698556139e-03
2.106845042594e-03
2.726649439388e-03
1.894721435353e-03
1.784390543315e-03
3.334917325845e-03
3.967235808941e-03
4.797201624805e-03
4.779022984785e-04
2.400918837851e-03
2.556449603619e-03
2.577694805079e-03
4.159825931864e-03
2.931072335017e-03
2.192293877224e-03
2.827325159198e-03
4.815904702500e-03
2.276675714295e-03
8.000720813987e-04
1.154840506689e-03
1.907795704095e-03
2.221538328191e-03
2.622719745119e-03
2.913483858148e-03
1.764083930753e-03
1.225103944880e-03
3.978408581491e-03
1.973233867528e-03
4.352924711069e-03
4.600918209763e-03
3.992519858040e-03
5.014455028265e-03
4.977573847804e-03
2.548565445421e-03
4.312209701199e-03
1.977881610171e-03
2.972886214248e-03
2.522487306746e-03
1.343329153242e-03
1.686644144900e-03
2.487335316614e-03
2.744769011227e-03
2.804656212940e-03
2.029273826370e-03
3.023258905964e-03
2.603498899914e-03
2.484258941744e-03
2.359041018273e-03
3.843548607210e-03
4.482822863784e-03
2.260889845850e-03
4.670023540639e-03
2.097337949930e-03
5.002347225511e-03
2.827679967364e-03
5.203491602560e-03
3.947077556836e-03
1.774963125665e-03
4.099246498151e-03
5.100371074435e-03
2.915547663855e-03
2.161634842982e-03
4.202460859535e-03
3.063723291000e-03
1.589122566935e-03
5.594818322494e-03
1.323577671794e-03
4.905374215111e-03
5.240056690777e-03
4.004250475148e-03
4.022036132738e-03
4.908739948371e-03
2.656489500895e-03
3.014023661640e-03
5.295279977407e-03
4.266560699203e-03
4.614700973159e-03
3.798037729663e-03
1.755388368310e-03
4.742604083367e-03
5.518069405150e-03
5.004957839638e-03
2.836493463261e-03
4.042556476747e-03
3.862526569829e-03
2.990307102709e-03
4.091149418794e-03
4.218450148723e-03
1.096098833511e-03
1.326857373094e-03
2.403878583947e-03
2.433427464003e-03
2.925956778214e-03
5.469614393342e-03
5.117047102826e-03
5.259865256129e-03
2.804866215072e-03
4.812380906171e-03
4.181034339560e-03
5.346185944049e-03
4.575117160927e-03
3.073764877658e-03
2.227900412936e-03
4.723026116701e-03
5.199457669429e-03
4.754736712479e-03
4.593382364392e-03
4.706207203460e-03
4.760938801400e-03
4.529156841862e-03
3.673004527565e-03
2.793183285108e-03
4.176641122849e-03
4.482872570103e-03
1.720752477746e-03
2.523073950019e-03
2.936964334964e-03
3.355527503238e-03
6.764221038374e-04
2.312131514981e-03
3.694823953479e-03
3.162738673778e-03
3.106094428709e-03
4.275586722866e-03
3.420444478414e-03
8.056313501550e-04
3.608028323111e-03
4.113825723424e-03
5.289575565493e-03
2.786040332148e-03
3.385556211389e-03
4.320502265356e-03
1.220460717409e-03
3.955179298540e-03
3.165570628649e-03
3.317308554295e-03
4.304146306300e-03
1.881742204703e-03
4.432932293431e-03
4.823215265074e-03
3.806542070162e-03
4.778108728742e-03
4.481570645652e-03
4.886746565618e-03
1.498086320626e-03
4.448193879400e-03
4.826216477314e-03
4.887560636574e-03
3.468158111994e-03
2.473653699252e-03
3.471604947544e-03
3.515654411097e-04
5.048129172683e-03
1.854985291829e-03
1.640845901064e-03
4.384273219759e-03
5.379705512614e-03
1.962931709496e-03
3.460402464098e-03
4.556944250926e-03
3.383719843055e-03
1.271639043888e-03
2.155596217494e-03
1.530379692595e-03
1.562946298421e-03
1.725992673059e-03
3.128123404018e-03
5.978757202265e-03
1.878932715142e-03
4.874265144994e-03
2.021312508689e-03
4.410645559788e-03
5.446402050903e-04
5.032053835528e-03
1.857540691758e-03
2.167450437020e-03
4.007316872521e-03
2.865792508923e-03
4.633094935503e-03
2.352487737097e-03
4.663962013380e-03
4.869204411424e-03
4.429689118342e-03
5.301599282418e-03
4.867555126114e-03
4.994292368551e-03
1.585731642834e-03
4.731482311295e-03
4.686031286375e-03
2.832067385881e-03
2.158927091379e-03
5.079003029780e-03
9.596911832810e-04
2.094098399874e-03
4.422688948064e-03
1.248071604352e-03
3.111224166074e-03
4.143397073038e-03
5.269510986050e-03
5.404504160547e-03
4.032131518505e-03
5.035214563043e-03
2.288963266599e-03
4.497236254835e-03
2.449891336582e-03
5.141368132137e-03
2.751749660152e-03
2.878729614697e-03
2.670941398414e-03
3.064327322831e-03
3.458691017845e-03
2.658280149013e-03
2.653753714281e-03
9.811593336372e-04
2.441082358799e-03
5.179437752949e-03
5.268578940823e-03
4.434728242993e-03
4.747389467128e-03
2.702179599475e-03
4.975773677779e-03
2.582283479392e-03
4.888861475009e-03
4.848446586374e-03
4.829227704648e-03
3.615324373437e-03
2.341624150185e-03
4.784583869030e-03
3.957491419921e-03
1.700601644229e-03
7.020950745825e-04
2.481218771101e-03
3.497363371298e-03
5.046415826891e-03
4.704605430921e-03
2.322695645322e-03
3.926363227239e-03
4.300034730448e-03
5.071297943610e-03
4.988482903574e-03
4.232489050894e-03
4.476485377380e-03
2.821806331728e-03
4.336206174646e-03
3.171626869689e-03
5.322298740709e-03
5.194634648291e-03
3.273686732189e-03
5.984151931342e-04
4.585743008913e-03
3.386888275758e-03
2.214504551746e-03
3.505745048799e-03
4.392421827443e-03
8.649412715446e-04
2.929672516780e-03
4.200855765301e-03
5.106738436651e-03
4.301405107969e-03
4.492473167653e-03
4.094600791655e-03
3.873742424529e-03
4.049253002460e-03
4.546913092459e-03
4.646225374320e-03
4.523702894857e-03
5.390087395958e-03
3.985020216099e-03
1.618655921058e-03
4.788488793259e-03
5.359924628782e-03
3.005660619524e-03
3.223226449347e-03
1.971525089256e-03
4.648699280585e-03
2.766011387022e-03
3.573201295524e-03
2.703531881720e-03
4.214659544867e-03
5.069771484117e-03
2.121431133426e-03
4.058193802694e-04
5.341003982022e-03
2.920796651996e-03
2.806031036896e-03
4.893352200413e-03
4.541058644014e-03
4.477853504311e-03
2.415871683082e-03
1.091173224408e-04
5.297107160486e-03
3.566992170965e-03
3.964772993216e-03
4.908749566295e-03
0.0
4.396335016970e-03
1.721264210827e-03
4.247426129010e-03
3.657351708374e-03
2.094475387503e-03
4.954039962137e-03
3.497476297263e-03
1.752352387144e-03
3.730384878291e-03
3.763523260525e-04
4.296335070821e-03
4.232332728486e-03
5.300157964833e-03
4.591233936654e-03
1.028298279476e-03
4.511210016349e-03
5.453521427974e-03
5.267588892161e-03
4.434702429965e-03
2.462650568201e-03
4.009248660887e-03
5.046804183108e-03
3.535212461732e-03
4.396897747975e-03
4.393389450935e-03
4.800902351973e-03
4.606296382435e-03
3.122680214006e-03
3.120274423476e-03
4.382256899136e-03
4.111044512030e-03
3.813633009546e-03
4.221320453715e-03
3.279774802709e-03
4.769766446077e-03
2.542727818687e-03
5.983048558158e-03
3.591210545370e-03
3.168624506568e-03
3.557292247720e-03
9.531416278351e-04
3.230009085735e-03
3.834311612934e-03
3.683361306900e-03
4.361379102542e-03
4.324884584528e-03
4.497716242812e-03
9.296305416927e-04
3.000738260246e-03
2.877206011431e-03
4.129391706327e-03
4.309346871824e-03
4.660717579237e-03
1.390083491195e-03
1.337430359801e-03
3.372007376568e-03
3.118387867984e-03
2.908488767762e-03
3.071482520293e-03
4.375276169837e-03
1.579296571718e-03
3.441254145347e-03
4.169540997438e-03
5.233780527266e-04
5.376588438414e-03
5.149299469470e-03
3.407577951504e-03
4.596633708749e-03
5.291684185247e-04
4.017860612446e-03
3.529401166009e-03
5.097626183355e-04
5.132298664917e-03
7.847782572496e-04
4.127046447010e-03
3.654659147826e-03
2.736631618381e-03
3.532903553380e-03
5.264031271081e-03
3.850209962935e-03
3.431861875086e-03
3.323620881928e-03
5.457679815637e-04
4.250590229058e-04
4.681238603658e-03
4.043631383605e-03
4.795280597812e-03
2.001212315518e-03
4.830518942521e-03
4.896214853729e-03
3.151597474926e-03
4.683508434643e-03
4.666996016599e-03
3.909137558089e-03
3.276352252530e-03
3.497938959203e-03
5.375951367089e-03
3.220959364287e-03
3.760026043850e-03
3.137860209432e-03
4.172566943858e-03
2.940253828480e-03
1.143043258969e-03
3.094440534048e-03
1.421741084883e-03
4.229813709731e-03
1.395709131982e-03
4.036588971796e-03
4.570721815773e-03
4.340933322800e-03
2.781057843546e-03
4.194893651729e-03
4.753168581798e-03
4.818117472809e-03
1.337755850323e-03
4.137746118188e-03
5.209940225679e-03
2.346590375691e-03
3.683805328026e-03
7.449910221542e-04
4.902778118811e-03
1.132231217255e-03
3.562582783365e-03
3.984078078079e-03
4.208916939956e-03
4.023939684233e-03
3.635866043279e-03
2.594201963328e-03
2.755506096816e-03
4.964224152629e-03
3.752359726194e-03
3.049378824758e-03
3.951824469440e-03
2.751998479851e-03
1.270610342763e-03
2.569385874887e-03
3.772607831582e-03
3.271605333460e-03
4.369076492911e-03
2.705575969413e-03
5.066065955323e-03
4.914430261524e-03
2.994647378897e-03
5.394625854804e-03
1.628019428153e-03
4.948546199405e-03
3.599675338089e-03
3.985333370223e-03
4.676994841526e-03
2.599416272208e-03
3.952410327413e-03
2.849041735521e-03
3.845590045576e-03
1.946537266925e-03
4.082691990806e-03
2.599671966463e-03
3.723013565829e-03
3.865662068831e-03
5.887470109934e-04
3.453775351858e-03
1.200495782290e-03
9.684342886303e-04
3.597379235346e-03
4.690298881192e-03
4.138119897075e-03
2.292437587727e-03
5.849140828973e-03
1.853697180041e-04
2.448985812848e-03
3.130150269505e-03
3.550843563428e-03
2.957877931277e-03
1.876075245636e-03
3.442132234492e-03
3.806568376354e-03
3.777536702449e-03
4.965844843458e-03
1.161492389179e-03
3.317749060185e-03
3.622478808599e-03
2.112089838123e-03
3.317999481307e-03
4.153535609678e-03
4.505816054949e-03
6.237202834362e-04
0.0
1.573012222717e-03
3.691965033318e-03
1.969230988537e-03
1.898292932230e-03
1.294352397267e-03
3.753016074333e-03
4.366198405172e-03
3.768697917664e-03
1.871438903480e-03
4.121048902823e-03
3.672677354321e-03
4.305538666813e-03
3.830322098392e-03
3.828543141580e-03
1.984443132618e-03
2.202423137923e-03
3.907189118964e-03
4.304428646692e-03
4.049985857339e-03
2.152295599124e-03
3.904305982153e-03
2.181745308855e-03
1.601820863611e-03
4.956049478681e-03
1.401476559850e-03
2.111889315513e-03
3.321047263052e-03
2.268346872781e-03
3.969667780703e-03
1.889119106673e-03
3.396365532197e-03
3.971070620537e-03
2.946304068913e-03
3.537025974587e-03
1.811375157662e-04
5.205294236013e-03
2.387586220924e-03
4.665614783562e-03
3.968807703245e-03
4.049703598051e-03
4.107544981389e-03
1.695791505847e-03
1.026663475019e-03
1.642477002779e-04
4.189723483468e-03
4.659166707092e-03
2.346343365980e-03
4.226192121581e-03
2.191228217425e-03
4.314363055978e-03
5.445403603490e-03
0.0
5.877232482387e-03
5.753927133567e-03
3.517916756623e-03
2.567108847699e-03
3.885798105456e-03
1.761253100682e-03
8.753437067106e-04
5.824479928857e-04
5.430593790634e-03
4.272773126407e-03
3.281421806576e-03
5.755399577457e-03
1.584674166795e-03
5.735458500834e-03
4.260634587508e-03
2.681067374150e-03
3.703032091483e-03
2.313425682848e-03
1.747876205062e-03
2.269306335304e-03
4.472296584069e-03
5.084185534072e-03
2.122483088170e-03
4.416764738030e-03
0.0
1.927997949303e-03
4.734679441239e-03
2.334640526172e-03
2.293466231138e-03
3.672079540127e-03
1.427206149762e-03
1.708336649171e-03
1.861547325864e-03
2.108699433633e-03
3.250126257064e-03
3.062054677212e-03
4.401537229797e-03
5.307742241174e-03
1.980497234217e-03
4.592105580898e-03
5.228738582180e-03
1.508615138678e-03
1.258398003978e-03
2.320259230208e-03
3.145384584978e-03
4.507488684930e-03
3.013439603112e-03
1.036494360999e-03
3.559288459622e-03
1.877421539577e-03
3.009312651742e-03
3.329936939808e-03
3.782961951353e-03
4.184693822016e-03
2.263846250652e-03
1.320964814853e-03
3.656275706453e-03
1.881021925859e-03
0.0
5.409655559408e-03
5.162683398980e-03
2.729094268368e-04
3.875711687704e-03
1.849949503547e-03
1.815075747793e-03
4.705943890402e-03
3.753312262213e-03
4.510634549489e-03
2.148267383418e-03
3.276008673573e-03
5.353793394855e-03
1.533498694127e-03
4.496561684191e-03
3.235629882711e-03
1.109441694527e-03
4.399839461737e-03
2.050705679004e-03
7.682699673756e-04
1.606426913977e-03
4.404965734730e-03
4.489139406804e-03
1.520865044627e-03
3.643992042794e-03
4.612769071813e-03
4.502280914076e-03
2.204419621287e-03
1.846579794431e-03
3.359329712728e-03
4.124746711535e-03
7.891390788467e-04
5.560751100390e-03
5.548964266607e-03
3.671227968295e-03
5.630388145665e-03
5.535998868057e-03
2.170965590618e-03
2.370185578734e-03
5.368043001176e-03
0.0
1.709110066567e-03
3.659126116834e-03
2.387294836944e-03
1.879148258664e-03
1.458848135816e-03
1.621284849436e-03
3.747506275773e-03
1.892131702059e-03
1.979788942566e-03
4.392042265884e-03
5.804343183405e-03
5.787944820255e-03
2.351876001022e-03
3.390799711467e-03
0.0
1.230366790518e-03
1.463542949792e-03
1.380432272447e-03
3.535543274713e-03
2.106380670562e-03
2.153393122630e-03
5.222734221171e-04
5.154439084150e-03
2.367565598648e-03
5.388275058918e-03
4.954992804617e-03
6.024570796398e-03
5.886693922548e-03
3.753433328928e-03
2.527170991278e-03
1.725379432797e-03
2.498420104998e-03
5.703744763384e-03
9.120404607056e-04
1.119100263323e-03
4.692417281221e-03
3.538901703327e-03
5.427938698995e-03
4.594213998741e-03
4.821231617115e-03
4.878843592401e-03
3.720203756123e-03
2.190074141243e-03
2.006325653896e-03
4.404135688044e-03
4.687878422867e-03
3.117837671459e-03
3.529702774384e-03
3.752961490192e-03
3.830800216791e-03
4.743220089301e-04
1.891519218784e-03
5.771465514508e-03
4.089532321688e-03
5.391930956668e-03
5.395352371543e-03
4.403465603732e-03
5.428295798469e-03
2.711349306453e-03
2.579117857356e-03
5.122665484976e-03
0.0
1.840758435860e-03
5.616042079043e-03
8.237432765106e-04
3.385098086166e-03
5.098464473505e-03
5.994795909040e-04
3.983112400915e-04
5.989580935828e-03
3.133104392698e-03
5.665785838847e-03
4.960111850706e-03
3.124857482388e-03
0.0
5.632893496604e-03
9.982363891210e-04
5.455855807356e-03
5.714313673249e-03
5.360106047106e-03
8.140468256158e-04
3.782530279231e-03
2.880362090628e-03
4.355508239889e-03
5.671711904199e-03
4.776155304540e-03
5.663484683731e-03
0.0
5.589551347142e-03
1.512890600852e-03
7.914478455334e-04
5.397054391262e-03
5.743402050252e-03
5.733536642357e-03
3.426595864351e-03
3.717007925183e-03
1.646038233533e-03
5.655472529231e-03
2.339881504149e-03
8.036133470503e-04
4.521262599813e-03
3.249064134649e-03
5.466053350077e-03
5.951132079152e-03
5.885235530218e-03
4.854921181183e-04
3.182268852090e-04
3.189601210708e-03
3.264417416490e-03
5.744673122169e-03
5.821030348919e-03
4.049503436329e-04
0.0
5.287127657436e-03
5.147388720085e-03
1.173728759617e-03
5.308389383186e-03
3.861412420017e-03
3.447396140137e-03
4.313090326591e-03
1.487039342624e-03
4.054223007771e-03
9.352616087626e-04
3.085786119638e-03
5.355845819130e-03
5.346807489972e-03
3.320434685778e-03
3.970741636665e-03
5.313594699531e-03
4.970757498224e-03
4.685070856500e-03
3.121604600955e-03
3.851714109814e-03
5.392942080287e-03
1.774965986013e-03
4.406585063081e-04
5.044417363226e-03
4.474595389770e-03
1.114377206921e-03
4.510176921097e-03
5.486912845254e-03
4.947561165270e-03
5.266766084571e-03
4.198063581823e-03
0.0
1.470518372103e-03
1.753101937548e-03
3.631135606701e-03
3.881045925371e-03
5.513487264779e-03
5.223998920856e-03
1.020852490991e-03
8.247746946980e-04
1.369961284446e-03
4.515742145024e-03
2.251628283076e-03
5.512574297706e-03
1.101239483144e-03
4.944710226892e-03
3.686457503037e-03
5.316904859013e-03
4.584108386174e-03
3.633631005452e-03
5.441228742427e-03
5.760973095862e-03
5.768457653903e-03
1.076429508706e-03
5.403578302253e-03
5.433000637951e-03
5.028809833893e-03
4.690494387880e-03
5.655330995816e-03
4.686381379503e-03
0.0
1.396280660218e-03
5.170660034106e-03
3.932337476204e-03
5.342833454285e-03
4.884276764452e-03
5.447158665414e-03
4.847067005331e-03
5.305854444718e-03
5.181492536697e-03
5.139590615884e-03
2.342515450525e-03
5.825123485813e-03
3.511800923746e-03
5.448173838807e-03
7.428025292534e-04
5.262596336557e-03
4.547206860874e-03
6.035790654862e-04
8.086025518277e-04
4.796988799160e-03
5.631992981559e-03
5.519397513834e-03
5.310091205384e-03
3.912116890080e-03
3.336829723450e-04
7.216677684810e-05
3.636648382109e-04
1.164636641950e-03
0.0
3.057585890836e-03
5.327921971227e-03
5.411971840112e-03
3.914684461503e-03
2.701530490713e-03
5.213565150943e-03
5.007366373899e-03
5.467264405238e-03
5.207424473042e-03
5.074998992932e-03
6.015575377216e-04
0.0
5.376601054342e-03
4.998770260557e-04
7.354796995695e-04
4.650576109338e-04
6.246802752465e-04
5.332466837785e-03
5.508668632613e-03
5.527152150685e-03
5.370182133116e-03
4.813648012505e-03
4.090345476850e-03
5.872497858860e-03
1.688844706779e-03
3.242062731608e-03
1.296527781915e-03
2.048831776387e-04
5.850745223492e-03
3.550974671321e-03
8.641995463890e-04
2.926275799080e-03
5.656777809006e-03
5.503877635999e-03
5.618051296971e-03
2.129346423962e-03
0.0
5.566911874099e-03
6.011875443670e-03
5.902551827901e-03
3.412317331757e-03
4.981747800379e-03
7.975484814360e-04
5.534656444521e-03
1.991551371557e-04
5.305266967479e-03
5.730842396305e-03
0.0
4.981060490428e-03
4.675346069498e-03
5.654646432844e-03
5.577265656584e-03
4.298496663279e-03
5.550848395389e-03
5.494928221657e-03
4.409266495861e-03
5.352947711999e-03
2.479552746464e-03
3.115289873894e-03
5.217348424536e-03
5.739897385503e-03
2.130598970231e-04
3.124201721815e-03
5.632614020689e-03
1.101480850632e-03
5.091661295346e-03
5.450633370530e-03
5.763755232995e-03
1.048262864143e-03
9.819337037051e-04
3.563851573438e-03
5.043841388328e-03
0.0
5.651156742465e-03
4.142985444651e-03
1.530326117569e-03
3.945008028744e-03
5.471691496627e-03
3.728983518662e-03
4.233183568903e-05
2.244711810372e-03
3.243419354848e-03
3.838568504311e-03
5.141366330764e-03
3.163902532595e-03
3.328394715870e-03
5.059368158880e-04
5.311799105867e-03
5.084872395273e-03
7.504975414656e-04
5.677168446605e-03
5.592115835300e-03
3.482521557627e-03
4.251403145156e-03
3.187364706085e-03
3.251257493806e-03
3.439701907309e-03
4.794833467625e-03
1.169016289084e-03
5.320349723071e-03
3.618781519640e-03
5.751198579347e-03
4.781103524799e-03
4.050232424031e-03
5.211038119851e-03
5.105861927613e-03
5.449330151016e-03
7.104254593751e-05
5.217846714948e-03
5.418217703554e-03
5.880291415762e-04
2.994215514378e-03
2.729319316378e-05
5.459819003965e-03
4.984664233927e-05
2.483470863269e-04
0.0
2.356101683081e-04
0.0
2.303194166857e-04
0.0
2.262902426401e-04
0.0
2.226212048495e-04
0.0
2.189156452450e-04
0.0
2.150293508185e-04
0.0
2.109459841719e-04
0.0
2.067255259881e-04
0.0
2.024817325962e-04
0.0
1.983699438531e-04
0.0
2.843848454655e-04
1.945688264680e-04
0.0
2.023709866004e-04
2.583223196650e-04
0.0
2.188268913273e-04
0.0
0.0
2.376029117381e-04
0.0
2.590401159154e-04
0.0
2.837960914576e-04
0.0
3.123192880152e-04
0.0
4.845397003924e-04
3.426406973438e-04
0.0
3.705027922875e-04
0.0
3.959730302401e-04
4.119183771827e-04
0.0
4.198543632609e-04
0.0
4.113737206764e-04
0.0
5.914664521395e-04
0.0
4.080209152696e-04
2.784048848728e-04
0.0
0.0
2.940185627282e-04
2.297748989561e-04
3.248544046215e-04
1.140444005577e-04
1.388449337492e-04
0.0
4.364900820947e-04
2.921195578601e-04
4.970357444734e-04
3.005451525233e-04
5.024950650496e-04
3.028105059814e-04
5.027495866096e-04
3.036032867209e-04
5.016261060423e-04
3.039823959412e-04
4.997529787712e-04
3.042031267103e-04
4.973678209741e-04
3.043632234340e-04
4.945867148507e-04
3.044955602241e-04
4.914768013506e-04
3.045991340332e-04
4.880907938595e-04
3.046542232360e-04
4.844871908454e-04
3.046333873269e-04
5.823968987633e-04
4.807471281790e-04
3.045044338593e-04
4.769696764663e-04
4.149152140079e-04
3.042384795344e-04
4.732589659936e-04
3.037955285614e-04
4.697194085980e-04
3.031537673578e-04
5.258719838504e-04
4.664901768796e-04
3.021415992227e-04
4.633973360115e-04
3.008410048574e-04
4.608339032515e-04
2.991838522631e-04
4.591459963974e-04
2.976809155676e-04
4.595315537933e-04
2.959448490273e-04
4.612841905262e-04
2.962524682636e-04
6.940707878655e-04
2.942811329307e-04
4.690940639164e-04
3.038686760161e-04
4.787964314212e-04
2.984337526045e-04
5.102055207647e-04
3.559692405025e-04
5.555368894459e-04
6.865348358170e-04
3.215636435984e-04
5.902750417136e-04
4.846104566718e-04
4.538386176635e-04
3.580346138277e-04
4.866417354953e-04
7.321707340775e-04
8.160713321414e-04
6.492041153339e-04
8.093994555289e-04
6.454908964317e-04
8.100092406204e-04
6.461533472615e-04
8.101931322880e-04
6.466009290983e-04
8.097632652097e-04
6.466006866449e-04
8.088264904123e-04
6.462280519908e-04
8.074914891814e-04
6.455850362013e-04
8.058422939469e-04
6.447644756657e-04
8.039423756516e-04
6.438441965014e-04
8.018498727297e-04
9.443944293245e-04
6.429033510968e-04
7.996395752428e-04
6.420464545931e-04
8.993112986242e-04
7.974400540373e-04
6.414476041782e-04
8.104640710795e-04
7.953515923743e-04
6.412611384576e-04
7.935379176620e-04
6.416895100564e-04
7.919858671216e-04
6.428148585451e-04
7.911835860965e-04
6.451930832692e-04
7.906974009089e-04
1.043478559365e-03
6.488280680812e-04
7.922708773299e-04
6.550535599372e-04
7.938530396349e-04
8.029556655580e-04
6.640767376592e-04
8.088257507124e-04
6.719923155100e-04
8.388261853805e-04
6.833318788760e-04
8.553368924240e-04
9.634094282349e-04
6.841959459369e-04
7.437750547271e-04
7.951248194132e-04
7.840978980929e-04
9.067201485112e-04
7.182952173455e-04
8.056560068066e-04
9.074976820290e-04
1.058681690343e-03
9.613642980480e-04
1.124673614868e-03
9.642913636796e-04
1.127661580992e-03
9.648233326171e-04
1.128011847827e-03
9.654698872071e-04
1.128246407529e-03
9.661174501393e-04
1.128241949394e-03
9.666192092129e-04
1.127921452004e-03
9.669326403947e-04
1.127297441789e-03
9.671031816598e-04
1.126433431619e-03
9.671889276695e-04
1.125391184152e-03
1.237353525443e-03
9.672563440909e-04
1.124245166346e-03
9.673661569137e-04
1.105389387161e-03
1.123086879016e-03
9.676222955820e-04
1.122129503599e-03
9.683134754468e-04
1.121554665225e-03
1.145945620184e-03
9.695365254224e-04
1.121594875715e-03
9.716448673927e-04
1.122152112965e-03
9.743449953803e-04
1.124077529975e-03
9.789309549986e-04
1.126440635360e-03
9.841542575440e-04
1.132759419617e-03
9.937341327789e-04
1.290961962115e-03
1.005880637927e-03
1.137696293842e-03
1.025859589004e-03
1.158967738296e-03
1.053157411498e-03
1.166075290220e-03
1.230270836602e-03
1.084626999933e-03
1.156949487112e-03
1.018044811625e-03
1.073261720169e-03
9.841122625308e-04
1.197570165166e-03
1.355008650809e-03
1.443841627123e-03
1.277845312024e-03
1.436630652410e-03
1.273019814809e-03
1.436273584903e-03
1.273066868925e-03
1.436708570989e-03
1.273891527970e-03
1.437272560770e-03
1.274910118152e-03
1.437696030249e-03
1.275870775207e-03
1.437840220204e-03
1.276638694493e-03
1.437769401218e-03
1.277333767015e-03
1.437521807662e-03
1.492050320424e-03
1.278020419144e-03
1.437163248107e-03
1.278761654515e-03
1.383228364698e-03
1.436706649559e-03
1.348539767128e-03
1.279533274446e-03
1.436149555039e-03
1.280413992585e-03
1.436171304189e-03
1.282119732342e-03
1.436411458420e-03
1.284501989481e-03
1.438201695272e-03
1.478819618675e-03
1.288143499654e-03
1.438650527887e-03
1.291639997313e-03
1.444130028297e-03
1.443167385266e-03
1.297946882526e-03
1.459520057261e-03
1.303387863510e-03
1.450252832353e-03
1.504413949298e-03
1.314489036099e-03
1.321928407647e-03
1.288355325782e-03
1.366973093525e-03
1.498427822904e-03
1.340309289946e-03
1.427497875249e-03
1.381941815066e-03
1.683449326718e-03
1.587854795547e-03
1.752598431419e-03
1.591766725301e-03
1.755487976330e-03
1.592117775931e-03
1.755748046157e-03
1.592908272950e-03
1.756447334746e-03
1.594070061262e-03
1.757338428947e-03
1.595439880482e-03
1.758184168094e-03
1.596577541790e-03
1.758623494902e-03
1.597525668631e-03
1.758893612162e-03
1.775142239222e-03
1.598533292336e-03
1.759097363679e-03
1.623922942480e-03
1.599734639697e-03
1.759352779785e-03
1.600889530669e-03
1.759429545330e-03
1.601695349041e-03
1.661375170989e-03
1.759017839227e-03
1.602504728646e-03
1.759776800456e-03
1.605089372780e-03
1.760876941343e-03
1.607636798844e-03
1.764585957995e-03
1.612270932848e-03
1.763785538860e-03
1.613389646122e-03
1.731789320293e-03
1.619837371080e-03
1.773607484692e-03
1.614639726010e-03
1.763145728161e-03
1.795737480388e-03
1.548841017464e-03
1.759407810678e-03
1.617423548206e-03
1.696652227122e-03
1.608070457612e-03
1.637166809082e-03
1.978075538529e-03
2.068879625806e-03
1.902590828716e-03
2.062161995598e-03
1.898060516849e-03
2.062005351751e-03
1.898519902904e-03
2.062707203719e-03
1.899593226571e-03
2.063756227685e-03
1.901151117505e-03
2.065159394734e-03
1.903035017397e-03
2.065878819387e-03
1.904260045321e-03
2.066054267018e-03
2.081255348113e-03
1.904941591621e-03
2.066518291686e-03
1.946229207625e-03
1.906538266237e-03
2.067300682488e-03
1.912400718489e-03
1.908299225307e-03
2.067775509969e-03
1.909424505434e-03
2.067392831623e-03
1.909798919589e-03
2.065159627985e-03
2.019164063614e-03
1.909657238486e-03
2.069050084578e-03
1.913990891757e-03
2.066625557090e-03
2.079233419176e-03
1.915722788534e-03
2.058653760931e-03
1.921030618245e-03
2.092125439694e-03
1.905326932506e-03
1.827911328399e-03
1.974792546786e-03
2.109959634287e-03
1.963899074007e-03
2.050594123143e-03
1.898921720586e-03
2.308296873625e-03
2.212383277902e-03
2.377889872021e-03
2.214994051217e-03
2.379726867620e-03
2.216547427580e-03
2.381089610341e-03
2.216872246426e-03
2.381752235969e-03
2.218454871060e-03
2.383250492322e-03
2.220224400099e-03
2.385222509952e-03
2.222734674364e-03
2.386383023483e-03
2.391862537500e-03
2.221806440899e-03
2.220677278307e-03
2.385011920154e-03
2.223422370937e-03
2.386582139412e-03
2.226346237541e-03
2.388440069183e-03
2.227280475162e-03
2.250484607725e-03
2.388398609737e-03
2.227668810491e-03
2.387714431866e-03
2.226868736979e-03
2.381778775207e-03
2.225381309291e-03
2.391304783019e-03
2.233950156438e-03
2.220516966315e-03
2.381499207426e-03
2.320752866227e-03
2.406602035383e-03
2.125680874572e-03
2.371949036351e-03
2.230910756870e-03
2.319921770893e-03
2.232416445766e-03
2.197022376616e-03
2.606499819159e-03
2.690961257714e-03
2.522000530317e-03
2.681395089224e-03
2.516611695707e-03
2.684936923134e-03
2.520724084807e-03
2.682910389250e-03
2.518155025397e-03
2.685720127669e-03
2.522107693972e-03
2.686100147812e-03
2.522572435250e-03
2.701698277203e-03
2.691814660839e-03
2.527183984821e-03
2.558519512118e-03
2.685492272813e-03
2.523715955889e-03
2.521830125806e-03
2.687781338981e-03
2.527976907291e-03
2.692519047907e-03
2.530769531241e-03
2.691005186238e-03
2.620190236794e-03
2.529256469091e-03
2.690152839741e-03
2.692355677766e-03
2.530525369073e-03
2.668560171641e-03
2.530830175599e-03
2.711856376190e-03
2.517118108963e-03
2.429701944538e-03
2.579121291386e-03
2.733210654048e-03
2.586513322999e-03
2.669335382215e-03
2.501112406734e-03
2.952964194819e-03
2.821859864007e-03
2.991596827692e-03
2.833511162691e-03
2.996758346163e-03
2.839990296122e-03
3.006645179008e-03
2.831291115803e-03
2.995872769527e-03
2.837184649027e-03
3.005449104704e-03
2.838583631022e-03
3.016774272030e-03
3.001904421592e-03
2.851312415787e-03
2.832771918756e-03
3.009442756207e-03
2.842210225621e-03
3.000234049433e-03
2.844919680408e-03
3.009082672670e-03
2.844437144164e-03
2.872310885887e-03
3.011912840164e-03
2.842005763748e-03
3.004113999591e-03
2.837696132236e-03
2.839675268707e-03
3.003734450339e-03
3.017107183080e-03
2.932857225621e-03
2.738763543566e-03
2.957508157438e-03
2.875589959643e-03
2.947488772035e-03
2.848489924599e-03
2.817296966531e-03

SCALARS element_materi_plasti_phimob float
LOOKUP_TABLE default
1.344129561950e+01
1.314766167687e+01
2.036753426367e+01
2.027354693873e+01
1.808991990633e+01
2.607335233231e+01
1.809474078807e+01
1.314629364298e+01
1.810574432341e+01
2.025519419391e+01
1.849622140011e+01
1.150581380184e+01
2.028806422488e+01
1.845862598810e+01
2.040692265780e+01
2.036920704956e+01
1.797598873141e+01
2.635441667348e+01
7.593443419463e+00
7.864908274462e+00
2.024842722460e+01
1.424995826945e+01
1.503071702700e+01
2.091053221953e+01
1.881258718347e+01
1.878085127167e+01
1.747850640112e+01
2.072724427174e+01
1.881035700906e+01
2.086706651762e+01
2.100481713960e+01
-1.711931105850e+01
2.037728705298e+01
1.961888231273e+01
2.043534201604e+01
2.053623948459e+01
2.053722510238e+01
2.089861531253e+01
1.758618962633e+01
1.762308681320e+01
1.600243391200e+01
2.056711640270e+01
1.025692941942e+01
1.749325559962e+01
2.015367421973e+01
1.049735692363e+01
2.457962631572e+01
2.017439381296e+01
1.641877808280e+01
1.823483408520e+01
1.556100054725e+01
1.055653774266e+01
2.335126239558e+01
1.543287801387e+01
2.035232241897e+01
1.352565581059e+01
1.083340539925e+01
1.962222806499e+01
3.303192895481e+00
2.036145441414e+01
1.540369764040e+01
2.081426731417e+01
1.625956141058e+01
2.303377889472e+01
2.030390762032e+01
1.486177128800e+01
1.885608119147e+01
2.036963345398e+01
6.586967634647e+00
2.045011215381e+01
1.900250806041e+01
2.051713826335e+01
2.059468479019e+01
-1.192293285041e+01
1.387199467844e+01
2.028154307615e+01
2.035070291918e+01
9.445055016549e+00
2.593406200045e+00
8.645116229789e+00
7.618279317008e+00
1.794556822001e+01
1.449540551317e+01
1.339528938928e+01
1.835095834887e+01
1.835699883570e+01
1.914417058872e+01
1.948459033987e+01
1.977098670653e+01
1.805087954150e+01
-2.124460832571e+01
1.798324869732e+01
1.958706888202e+01
1.951935654272e+01
2.049091016220e+01
2.085428644503e+01
1.792112904933e+01
2.066701557888e+01
1.876762572876e+01
1.570757773809e+01
1.782876861829e+01
2.040723399094e+01
2.101690809050e+01
2.086849248688e+01
1.674204833682e+01
1.776825250070e+01
2.003705358455e+01
1.978386369480e+01
2.182216088064e+01
2.039969711616e+01
1.963702135410e+01
-2.413116770383e+01
1.914929345311e+01
1.743458464017e+01
1.556347682671e+01
1.503400551790e+01
1.645099104096e+01
2.049212086387e+01
1.862756051932e+01
1.593649705069e+01
3.588179939777e+00
1.795486604973e+01
1.979601901520e+01
1.649894228511e+01
1.148707831462e+01
1.679496800464e+01
1.554118194304e+01
1.638039347545e+01
2.038105556815e+01
1.701497576850e+01
1.876996501574e+01
2.028283743713e+01
1.720657540303e+01
1.643216851172e+01
2.047575642795e+01
2.029725506568e+01
1.915738304846e+01
1.753233636448e+01
2.085702264092e+01
1.679697583547e+01
2.032250471962e+01
2.046514409792e+01
1.843601860505e+01
1.919593618296e+01
1.683200281365e+01
1.596710476093e+01
1.783937662456e+01
1.796710191809e+01
1.792356234998e+01
1.981178937678e+01
-2.180257017814e+01
1.831416225197e+01
3.150070711867e+00
1.713894747617e+01
2.066348724922e+01
1.596607652227e+01
1.931199979467e+01
1.144849396565e+01
2.088785331716e+01
1.799346929842e+01
1.956179635070e+01
1.976811598432e+01
3.920963723689e+00
2.003241581369e+01
1.796289969151e+01
2.037620865805e+01
1.796397543372e+01
1.754135694769e+01
1.709732099893e+01
1.853825579155e+01
1.142624868718e+01
2.037200370206e+01
1.937049994353e+01
1.796460393337e+01
1.846696086238e+01
1.676456443468e+01
2.005514673284e+01
1.636572233200e+01
2.062377246572e+01
2.050698302120e+01
1.445854951877e+01
1.632852897550e+01
2.110630353341e+01
1.640991000114e+01
1.350071916247e+01
1.770899664181e+01
1.880928854888e+01
2.033629801196e+01
1.962072612502e+01
1.990150948009e+01
9.827766819795e+00
2.112264514916e+01
1.976090327766e+01
9.238438291924e+00
1.640045730666e+01
2.099282397678e+01
-2.776194654117e+00
2.030575082374e+01
1.916957365918e+01
1.747635623736e+01
2.108418066874e+01
1.833475428903e+01
1.864654215718e+01
2.080211271354e+01
1.419644618906e+01
1.818219258976e+01
1.821270371740e+01
1.933165065669e+01
1.820780555944e+01
1.769737617001e+01
2.119426856851e+01
1.993286554228e+01
1.404978625413e+01
1.440200092832e+01
1.560712555866e+01
1.789918679291e+01
1.975574029369e+01
2.540768826619e+01
2.085259942922e+01
1.790310479780e+01
2.016353246211e+01
2.064803098777e+01
-1.474679973033e+01
1.948047344194e+01
-2.050539703854e+01
-4.514290966440e+00
9.278112713868e+00
1.234720672592e+01
1.962186209670e+01
1.177948732028e+01
1.444106410871e+01
1.687535714894e+01
5.661326881325e+00
2.111934581080e+01
1.796323413933e+01
2.030705753751e+01
1.157775957984e+01
1.675926375904e+01
2.047524831772e+01
1.594067720967e+01
2.099104456842e+01
2.040986490549e+01
1.947791627511e+01
2.223475903865e+01
2.106654105319e+01
1.894938715120e+01
1.810306997761e+01
1.932062660490e+01
2.074768151652e+01
2.120807043612e+01
1.549668937619e+01
1.863532530714e+01
2.049721215373e+01
1.826871595144e+01
2.153793300568e+01
1.839876000569e+01
7.772501293194e+00
1.820668021387e+01
2.076130290220e+01
2.445926290087e+01
2.530650587477e+01
1.963004832953e+01
1.843931138987e+01
1.724374667877e+01
1.976164432307e+01
1.962245688065e+01
1.829794309756e+01
2.043468332031e+01
2.145297509867e+01
1.848381548764e+01
1.941917929273e+01
2.145029466067e+01
2.381809333085e+01
1.796552997364e+01
2.176160944722e+01
2.323306228874e+01
1.947681499962e+01
4.579474533315e+00
1.842641211021e+01
2.200430618168e+01
1.835264058442e+01
2.499617653570e+01
1.882939724246e+01
-5.000576924006e+00
1.603518956799e+01
2.138221565215e+01
1.842856684626e+01
1.837190705735e+01
2.780879320381e+01
2.393773296962e+01
2.243190891577e+01
1.501525326620e+01
1.932299220911e+01
1.612692232736e+01
2.173761669079e+01
2.109695944816e+01
2.592149038802e+01
1.964692937496e+01
1.254422407425e+01
2.050030145376e+01
2.052602945838e+01
1.860125521423e+01
2.213853274433e+01
1.985350136293e+01
1.870134138659e+01
2.228736523915e+01
2.377172161222e+01
1.805363034667e+01
2.033322527964e+01
2.097482881901e+01
2.100576565387e+01
1.523157697036e+01
2.085612868638e+01
2.037502887504e+01
1.835871289021e+01
2.665611339051e+01
2.138167841168e+01
2.116013314020e+01
2.229805823326e+01
1.822981107839e+01
2.056511936314e+01
2.186226503793e+01
2.155091961404e+01
1.729631976858e+01
1.905913861727e+01
2.082817924878e+01
1.496285481705e+01
1.889709351259e+01
2.064409476646e+01
2.082433527066e+01
2.054662858213e+01
1.884626721898e+01
1.964796903266e+01
1.256418388233e+01
1.771773181800e+01
1.845890254526e+01
1.866538081329e+01
1.828160229134e+01
2.072506708503e+01
1.865034467026e+01
1.797388168558e+01
2.190083878172e+01
9.720845898056e+00
1.741543014186e+01
1.615193122625e+01
1.797797040459e+01
2.084419861621e+01
2.206505942732e+01
1.962107348868e+01
1.727815855386e+01
1.798618867767e+01
2.146405783661e+01
1.999109024962e+01
2.080408713556e+01
1.679642414228e+01
2.458299518587e+01
1.722201493535e+01
1.370378679723e+01
1.423040661326e+01
1.988714423683e+01
1.857525206924e+01
1.597781801458e+01
1.742715685177e+01
2.091600371193e+01
2.101726597770e+01
1.988249242278e+01
1.947662565778e+01
1.991107338534e+01
1.671579783739e+01
2.376308105198e+01
2.316671216045e+01
1.841598826505e+01
2.146260645603e+01
1.736104015502e+01
1.988733386597e+01
2.446652466679e+01
1.835822126948e+01
1.825870752738e+01
1.755415662378e+01
2.052104014743e+01
2.051941293782e+01
2.030299987935e+01
2.009434522258e+01
1.977029966873e+01
1.419807720760e+01
2.268584203540e+01
2.535956365319e+01
1.649043719051e+01
1.793678902080e+01
1.886269728281e+01
2.097841166920e+01
1.989446754841e+01
1.862672321343e+01
1.886644277347e+01
2.533322578054e+01
-6.457014722963e-01
1.999526093507e+01
1.896600276553e+01
2.018408964970e+01
7.979086524618e+00
1.838604037475e+01
8.649315721556e+00
1.899677930149e+01
2.065625546534e+01
2.131163359552e+01
1.798812043115e+01
3.894844147637e+00
1.800739363834e+01
2.063398433234e+01
1.883916534443e+01
2.058585842017e+01
1.770471994024e+01
1.873327709114e+01
1.742864521860e+01
1.975953754387e+01
2.015596420572e+01
2.058826944968e+01
2.057557824495e+01
2.054297666666e+01
2.054800605179e+01
1.902507491507e+01
1.975358889570e+01
2.001295163301e+01
1.715967928429e+01
1.660869089552e+01
1.684491134971e+01
1.988185742490e+01
2.068410888018e+01
1.988887815629e+01
2.137819439166e+01
1.988261521207e+01
2.025176626751e+01
1.871997202135e+01
1.643422113825e+01
1.928881949285e+01
2.035208200379e+01
1.715023703330e+01
2.046676294448e+01
1.689129485569e+01
1.910257859511e+01
2.074564387624e+01
1.807951703014e+01
2.058756752939e+01
2.037242947903e+01
1.879391646441e+01
-2.032490919358e+01
2.060495977424e+01
2.079528586776e+01
2.088436451077e+01
2.144702337083e+01
2.086793975744e+01
-5.567160700376e+01
1.804794755475e+01
1.893569200950e+01
1.865236360474e+01
1.853264201729e+01
1.771983546052e+01
2.062320901242e+01
2.232224816128e+01
2.765458576816e+01
2.045495204969e+01
-1.778354491312e+01
1.712699673298e+01
2.024933377684e+01
1.740578841880e+01
2.089787495481e+01
2.064064541297e+01
1.865052993824e+01
1.523989801711e+01
2.793118134871e+01
1.624620904214e+01
2.013294374872e+01
1.794403867144e+01
1.820290920415e+01
2.065349925228e+01
1.796570794325e+01
2.051230931983e+01
2.034773947471e+01
1.869235371970e+01
1.464911410801e+01
2.131823475200e+01
2.355614335697e+01
2.065708100685e+01
2.056131938280e+01
2.054887574313e+01
1.981824975690e+01
1.628825473707e+01
1.914501826418e+01
1.989338550572e+01
2.065711934674e+01
2.059374881960e+01
2.296653542874e+01
2.189167855734e+01
1.890369830831e+01
2.084838259941e+01
1.004154250572e+01
2.065521363453e+01
2.087424743166e+01
2.060033871795e+01
2.001679616914e+01
8.615178719978e+01
1.888877134400e+01
1.989541509723e+01
2.061627532515e+01
1.904062077611e+01
2.058404586452e+01
1.770979463774e+01
2.088362861873e+01
1.967452715587e+01
2.082881457360e+01
1.228182053504e+01
2.063172047857e+01
2.376938157131e+01
2.086016910302e+01
1.847221505875e+01
1.495603428907e+01
2.198782679161e+01
1.888894064860e+01
2.065676378797e+01
1.658709640432e+01
2.037061280910e+01
1.913099975634e+01
2.109683078829e+01
2.260569346364e+01
2.024497376539e+01
1.886293415988e+01
1.988009574848e+01
2.125482476087e+01
1.923298090450e+01
1.730250581960e+01
1.932286846450e+01
1.631056398952e+01
2.052172310905e+01
2.157205337956e+01
2.089009262023e+01
2.000212623068e+01
1.373689057076e+01
2.065556084422e+01
2.098659146091e+01
2.029712804596e+01
-3.756913316947e-01
2.077781440943e+01
1.999871710759e+01
1.925754093068e+01
2.065210974001e+01
2.001934715060e+01
1.691189151417e+01
1.841817541407e+01
2.167773214568e+01
1.957389718327e+01
2.126943513485e+01
1.916543710568e+01
1.748627320162e+01
2.112980643269e+01
1.873080104130e+01
1.721164453866e+01
2.137288132597e+01
1.850603844040e+01
1.897169500340e+01
8.879820702207e+01
1.847086808716e+01
1.953396588473e+01
1.757358515839e+01
2.000030194726e+01
2.028820811365e+01
1.872298157599e+01
1.776797895420e+01
2.065031715265e+01
1.897502266025e+01
1.772374219463e+01
1.884471035573e+01
1.752403719530e+01
-5.583911472222e+01
1.863037633863e+01
1.588745571391e+01
8.999999999681e+01
1.729143448002e+01
2.039437310229e+01
1.989334974059e+01
2.136010347324e+01
2.129154199580e+01
1.772714660524e+01
1.746893156588e+01
2.034670317072e+01
1.881940893511e+01
8.999999999681e+01
5.633086436120e+00
-1.265749150798e+01
1.378401861794e+01
2.007489516581e+01
1.989046393440e+01
1.998474774628e+01
1.452250562355e+01
1.892973520116e+01
2.079948869119e+01
2.693695571998e+01
1.588714668492e+01
1.425392373144e+01
2.077104461065e+01
2.064439044474e+01
1.666061501154e+01
1.768317985429e+01
1.967313884776e+01
2.089138719156e+01
7.263434228860e+00
2.066922720142e+01
-2.404422875273e+00
1.706789073829e+01
1.795338951453e+01
-1.810037448044e+01
1.625450906720e+01
2.001535749536e+01
8.999999999681e+01
1.745270797954e+01
1.745650139015e+01
2.135521788470e+01
1.426456222093e+01
1.801805643783e+01
1.632825209473e+01
2.018301702098e+01
2.055628609037e+01
1.971589814954e+01
1.485397095744e+01
-1.599659012668e+00
1.744946763136e+01
1.748102299904e+01
1.750226983983e+01
8.999999999681e+01
-1.845682290037e+01
-3.994898337591e+00
1.156526279561e+01
-1.786582035938e+01
1.703675500299e+01
3.354209963111e+00
1.352327239476e+01
1.903856984553e+01
1.746434049402e+01
2.013358029731e+01
2.007169029936e+01
1.872125483227e+01
1.483832641245e+01
-2.135167673587e+00
2.051021726746e+01
2.048901789316e+01
1.847803790855e+01
1.748254983106e+01
1.495913210661e+01
2.048384610473e+01
1.292558190619e+01
1.745131666001e+01
1.744184601016e+01
1.710024253743e+01
2.054109768791e+01
2.046899068136e+01
-1.803993174420e+01
-5.561184448158e+01
1.961453593756e+00
1.801808407733e+01
2.016509159729e+01
9.056912011887e+00
1.969310227800e+01
-1.247026748029e+01
2.120886136258e+01
-4.231139734038e+01
1.459415937312e+01
2.105732976837e+01
2.007816228240e+01
1.901403855176e+01
1.777824514101e+01
-1.789528579372e+01
1.902265124400e+01
2.049599276919e+01
2.048315676632e+01
1.747133168011e+01
2.128222911241e+01
2.051011909586e+01
2.073341607391e+01
-2.625027824048e+00
-1.820778501841e+01
-1.850726681808e+01
1.583455371691e+01
2.053557129429e+01
2.027463649268e+01
-5.581541522954e+01
1.701464346317e+01
2.057845613166e+01
2.053986988912e+01
2.069145220021e+01
1.942075991817e+01
1.982002388904e+01
2.056786230263e+01
2.058078328674e+01
1.968925577429e+01
8.999999999681e+01
1.748379071944e+01
1.749657214711e+01
-5.574768178678e+01
2.061136415743e+01
2.069057929722e+01
2.061517987987e+01
8.999999999681e+01
8.999999999681e+01
2.063562759222e+01
2.062712421989e+01
1.927759643796e+01
1.749148186452e+01
1.955401842526e+01
1.855502046979e+01
1.748295157932e+01
8.999999999681e+01
8.922903069611e+01
8.675727528461e+01
8.614934884430e+01
1.734704646925e+01
1.665130530660e+01
-5.525874987263e+01
1.877842391171e+01
-5.531007901828e+01
2.052446875052e+01
2.050343730258e+01
2.051119074962e+01
5.716132645177e+00
1.355005279214e+01
2.049748202664e+01
1.977364587496e+01
2.051310861217e+01
2.004779464126e+01
2.029755615649e+01
1.626335910791e+01
2.048264115857e+01
2.048981240148e+01
1.990561433943e+01
2.017058979965e+01
1.922589148177e+01
-4.059015254905e+01
1.658831090960e+01
-1.861482018002e+01
2.016705230105e+01
1.709459059713e+01
1.974419794467e+01
1.068122592784e+01
-5.638293824292e+00
1.998375547691e+01
1.726312605287e+01
1.539757772141e+01
1.972807929260e+01
2.003722754082e+01
1.537610013466e+01
2.047415355223e+01
1.919246055578e+01
1.924535385588e+01
1.935935758060e+01
2.237669772004e+01
1.716018691497e+01
1.984468105604e+01
1.905480643897e+01
1.982246691617e+01
1.948072478152e+01
1.190158934835e+01
2.001579660579e+01
1.978354908235e+01
1.820601963415e+01
1.930805803336e+01
1.914699689938e+01
2.005022836593e+01
1.991632275979e+01
1.908418551126e+01
2.006849641034e+01
1.972376533828e+01
1.946948487073e+01
2.023397846419e+01
2.002579708122e+01
1.934079897676e+01
2.018516596707e+01
1.079531039288e+01
1.147582525244e+01
-1.971291539278e+00
-5.114884063913e+00
1.991230179622e+01
1.992338479067e+01
-1.471279756695e+01
1.999295554466e+01
1.839148176934e+01
1.964452220339e+01
1.965655865196e+01
1.715298356714e+01
1.964642398603e+01
1.818978951806e+01
2.135783684530e+01
2.030378693574e+01
1.040783684032e+01
2.031982871803e+01
1.950673815649e+01
1.175087498611e+01
1.351243648791e+01
1.789823248845e+01
1.898524840028e+01
1.532681028819e+01
1.966132075714e+01
1.919037732618e+01
1.788231896984e+01
1.934734821611e+01
1.954225764904e+01
1.951418834757e+01
8.490897284955e+00
1.749696129969e+01
2.097669584272e+01
1.963046908580e+01
1.682492142008e+01
1.913554227779e+01
2.030727127564e+01
1.933941209320e+01
2.646911670617e+01
-2.447417475141e+00
2.604048812625e+01
1.983418594769e+01
1.917232429078e+01
1.835804587033e+01
1.860274032230e+01
2.073019713981e+01
1.804554483842e+01
1.955547153243e+01
1.091092434781e+01
2.024835358659e+01
1.785657280804e+01
1.186470425725e+01
1.748739775922e+01
1.568371316373e+01
1.353486053688e+01
1.837145238758e+01
-5.410263563396e+01
-5.417976913730e+01
1.912314663208e+01
9.833211717094e+00
1.927136298089e+01
1.919858780012e+01
1.669656744795e+01
1.698686067389e+01
1.985944418805e+01
2.478377322523e+01
1.604025249749e+01
2.083703284321e+01
7.690314311542e+00
1.881753279186e+01
1.839689838955e+01
7.331668344206e+00
2.035901274964e+01
1.943768819157e+01
9.672262748161e+00
1.996299123341e+01
1.997316467590e+01
1.120836789072e+01
1.522639783770e+01
1.161741122728e+01
1.943973709407e+01
1.821186398106e+01
2.000707976747e+01
1.986735170587e+01
1.935269355921e+01
1.938149032633e+01
8.778493849563e+00
1.946289647431e+01
1.944577763272e+01
1.819837582088e+01
1.916630524302e+01
1.959700768094e+01
2.153112713791e+01
1.975488466042e+01
1.713025856608e+01
1.802934623357e+01
1.504377222069e+01
1.626208664011e+01
1.931288399072e+01
1.894872086407e+01
1.244130165391e+01
1.925099707816e+00
1.930445402166e+01
1.238009773475e+01
2.031606332746e+01
1.947743624511e+01
1.966824271721e+01
2.078229244918e+01
1.683163778895e+01
1.110635928735e+01
4.434695888286e+00
1.950417679203e+01
1.902234881053e+01
-2.762942542715e+00
1.531815226649e+01
9.488288095281e+00
1.897459916277e+01
1.567347554498e+01
1.924487129718e+01
1.506868595864e+01
1.978051370011e+01
1.406828690561e+01
1.967464509323e+01
1.123978818996e+01
1.944695038050e+01
1.770834374638e+01
1.960069198960e+01
2.312066338928e+01
9.297653434634e+00
1.863572876926e+01
2.105699360161e+01
1.798918809424e+01
1.901376599349e+01
1.330357743347e+01
1.909739372206e+01
8.056010836810e+00
2.012906385833e+01
2.119729762004e+01
2.124686637519e+01
2.010350975573e+01
1.930478573411e+01
8.305735919748e+00
1.942195512379e+01
2.036388020105e+01
1.685072875388e+01
1.957051986317e+01
1.947272233627e+01
1.862300751357e+01
1.940023245850e+01
1.854289764977e+01
1.289422487325e+01
1.493235848070e+01
1.942579618560e+01
1.954236052809e+01
1.699741587667e+01
1.959769390531e+01
1.927698586827e+01
1.882258777226e+01
1.873653106979e+01
1.771025368431e+01
2.044391851491e+01
1.959415375283e+01
1.860391312127e+01
2.012207559862e+01
2.112026699969e+01
1.949417362984e+01
1.960446533347e+01
1.642937320339e+01
1.571231500325e+01
8.880055605737e+00
1.983415883791e+01
1.600151419010e+01
1.912313332189e+01
1.893016519141e+01
2.187461717651e+01
1.456541121197e+01
2.274597237813e+01
1.495116232862e+01
1.577011332232e+01
1.004010739037e+01
2.055810894732e+01
1.815925533977e+01
1.974802184308e+01
1.904511123504e+01
1.968115300830e+01
1.909202327861e+01
2.043586591484e+01
1.015058191404e+01
2.045013861412e+01
2.057295679288e+01
1.977465303473e+01
1.652179271201e+01
1.941839629110e+01
1.913279438005e+01
1.663064735324e+01
1.852717912961e+01
1.409562924673e+01
1.553149903164e+01
1.708572965911e+01
1.310053074656e+01
1.211513868787e+01
1.871219847865e+01
1.951903446590e+01
2.021174411934e+01
8.999999999681e+01
2.080699336304e+01
1.951964132823e+01
1.720600413809e+01
1.893944553315e+01
1.868118627468e+01
1.457060589644e+01
1.767729618972e+01
1.963906705628e+01
1.461272656733e+01
7.866510786235e-01
6.601438478019e+00
1.592196143675e+01
1.552570898959e+01
2.025856643011e+01
1.850767995416e+01
1.084218844829e+01
6.762739456577e+00
1.868131140824e+01
1.316121161812e+01
2.047557350263e+01
2.022887553774e+01
1.882058515404e+01
1.981408036129e+01
2.019412790314e+01
2.184056767846e+01
2.002594869994e+01
1.347118596409e+01
1.774284978991e+01
2.068114747697e+01
2.280959165430e+01
1.121077828380e+01
1.603870875165e+01
1.889077013593e+01
1.968544352773e+01
1.373903617498e+01
1.939755442450e+01
2.020155973505e+01
2.127713818759e+01
1.543345734255e+01
2.137267483593e+01
1.926894876885e+01
2.174310549546e+01
2.054070887283e+01
1.670584310032e+01
2.080281969210e+01
1.978207554574e+01
2.025230856793e+01
1.910538206641e+01
1.409705108526e+01
1.900594227785e+01
1.990499034048e+01
2.037156546233e+01
1.926704629501e+01
1.918629553896e+01
1.862821814600e+01
1.117478585234e+01
2.027347107918e+01
8.172727103699e+00
2.107076622255e+01
2.000188409769e+01
2.126537543134e+01
1.877400830106e+01
1.968830836579e+01
2.080442193154e+01
2.169401441640e+01
2.004722733118e+01
1.976897002546e+01
1.940507980541e+01
2.102108050437e+01
1.518767936847e+01
1.953343262463e+01
2.060142793152e+01
2.058854086215e+01
1.786363473882e+01
1.876267580616e+01
1.855742915670e+01
1.927051958843e+01
1.989865387130e+01
2.021693818783e+01
4.556460027345e+00
2.321471787639e+01
2.187292473789e+01
2.133168179898e+01
1.939979021641e+01
2.015633847229e+01
2.000492034806e+01
1.999259717859e+01
1.726553921872e+01
1.964556385440e+01
1.969308703995e+01
2.008122145836e+01
1.937002693892e+01
1.823499617538e+01
2.210835095441e+01
1.954534183331e+01
1.994101033531e+01
1.957406964593e+01
1.941519697154e+01
2.024070922748e+01
2.107125801048e+01
2.033726903139e+01
1.922347801153e+01
1.675646743570e+01
2.127672806822e+01
1.933852692839e+01
1.202292551016e+01
2.164187668895e+01
2.140179141703e+01
2.155399485687e+01
2.487439321327e+01
2.202016963524e+01
2.143972205843e+01
1.774480369088e+01
1.842166635544e+01
1.904317170201e+01
1.785072749699e+01
-6.275499210100e-01
1.910114297331e+01
2.119367828166e+01
2.011079677505e+01
2.174088690215e+01
1.886496144231e+01
1.908893907730e+01
4.572990284079e+00
2.129593828730e+01
2.161315586679e+01
1.801053126429e+01
2.003620586772e+01
2.086425739723e+01
2.032383443905e+01
2.069581990402e+01
2.136141270506e+01
1.956627653161e+01
2.061516073885e+01
2.061913895530e+01
8.120156940766e+00
1.923140486102e+01
2.095254873893e+01
1.969808559217e+01
2.146525584969e+01
2.200512209863e+01
1.824475496469e+01
2.809128629512e+01
1.983984625569e+01
1.282154399462e+01
1.094584854691e+01
2.040620887798e+01
2.010606031696e+01
1.832708767287e+01
1.931581599632e+01
1.938182579977e+01
1.834936768091e+01
2.419312140297e+01
1.896140894789e+01
1.145107832056e+01
2.049123815971e+01
1.689952144509e+01
2.158767721446e+01
2.048968543080e+01
1.296242575738e+01
2.016593064255e+01
2.209169855145e+01
1.919982315415e+01
2.672356958463e+01
2.076691799337e+01
1.453779186125e+01
1.433260210210e+01
2.128847118245e+01
2.032410435302e+01
2.105517236087e+01
1.768067413521e+01
1.948858888519e+01
2.099623892170e+01
1.924426781030e+01
2.011336572608e+01
1.965712016227e+01
1.977874453516e+01
2.206278369954e+01
1.998408519917e+01
1.951591710705e+01
2.120461866183e+01
1.446395492988e+01
2.095647704280e+01
2.461763556783e+01
1.378458674870e+01
2.107902207603e+01
8.029721887789e+00
2.014949730077e+01
2.126759351954e+01
2.001924507550e+01
2.013211262682e+01
2.134115487256e+01
1.980452592126e+01
2.162350298876e+01
2.010256485570e+01
1.559670293733e+01
2.012756697922e+01
1.648650717921e+01
1.681301138568e+01
2.170593761387e+01
1.720065156902e+01
2.073857079594e+01
2.079933638607e+01
2.177683463504e+01
2.439244802646e+01
2.193814135798e+01
1.995134015635e+01
2.013272480836e+01
1.975580936148e+01
2.101225574510e+01
2.080539623227e+01
1.978726186869e+01
2.185442126874e+01
2.002845128496e+01
1.966825040241e+01
1.963681542180e+01
2.139799078900e+01
2.187422718164e+01
2.028047911103e+01
1.907707610069e+01
2.304366026423e+01
2.514641474214e+01
1.819352759784e+01
1.908278731901e+01
2.008745876546e+01
1.950696536573e+01
2.211301195158e+01
1.960090400247e+01
2.120453207056e+01
1.983195675433e+01
2.027762630818e+01
1.903155270892e+01
2.094216711372e+01
2.178076721085e+01
2.118485451296e+01
1.978165079807e+01
2.004518579240e+01
2.025960015484e+01
2.151640282433e+01
2.540220476559e+01
2.067286545330e+01
2.037521170674e+01
2.204877023814e+01
2.148135122033e+01
2.069762143307e+01
2.538103841496e+01
2.166351541460e+01
1.917809591456e+01
2.007271472009e+01
1.934900830596e+01
2.049224884854e+01
1.900221923483e+01
1.864294050423e+01
1.927925014048e+01
2.110923284891e+01
1.991478569524e+01
1.935734578979e+01
2.013638308798e+01
1.882178356600e+01
2.286815708188e+01
2.068319985856e+01
2.006797797632e+01
2.050888630242e+01
2.026098899407e+01
2.243155685366e+01
1.949618094308e+01
1.738969317209e+01
2.076867062906e+01
1.753573885291e+01
2.119003727479e+01
2.069504347178e+01
2.230570966555e+01
2.775637928159e+01
2.012536015142e+01
1.761192632979e+01
2.117835828932e+01
2.069486682025e+01
1.934888942755e+01
1.992663156213e+01
2.124393309772e+01
2.871054075359e+01
2.016843200387e+01
1.952351379598e+01
2.116094822290e+01
2.039900881518e+01
2.197540929428e+01
2.008129857495e+01
2.095317648825e+01
1.901893484394e+01
1.877472778990e+01
2.219932413249e+01
2.000960585210e+01
2.045484954751e+01
2.255145584513e+01
1.966727659289e+01
2.755107509280e+01
2.015986500380e+01
2.127331793978e+01
2.031263112104e+01
2.032995730400e+01
2.414650482356e+01
1.971857962740e+01
2.016598053626e+01
2.087988298521e+01
2.117538324130e+01
2.163913995577e+01
1.994313384285e+01
2.000069260819e+01
1.790424506989e+01
2.027338060918e+01
1.921010048011e+01
1.995615725532e+01
2.021060742894e+01
1.749931215947e+01
1.749668111892e+01
1.933346215024e+01
2.007708787557e+01
1.884747577186e+01
1.942279361598e+01
2.065965756119e+01
2.102368963171e+01
2.119263224041e+01
2.050112985834e+01
1.820089915171e+01
2.061315867910e+01
1.884119786387e+01
2.433600838870e+01
1.827450708700e+01
1.983308217607e+01
1.907629562155e+01
1.918982351645e+01
1.957459963672e+01
1.969647783850e+01
3.771174810904e+00
1.792150674304e+01
1.768935520032e+01
1.921444597076e+01
1.936611454775e+01
2.109271102762e+01
9.504908731449e+00
2.502510696669e+01
1.962565889522e+01
1.783761871606e+01
1.684120326205e+01
1.718061754130e+01
1.918071957488e+01
2.136019519350e+01
1.849951697863e+01
2.113442349517e+01
2.576092207303e+01
2.060325431754e+01
1.991210613900e+01
1.807459899503e+01
1.980123498497e+01
-4.342424611964e+00
2.102534162896e+01
1.977590764128e+01
-4.226771980395e+00
1.992110851376e+01
2.645230339017e+01
1.923521144123e+01
1.925570675710e+01
2.122453326471e+01
2.053980083312e+01
2.003125358830e+01
2.059776119109e+01
2.007041893070e+01
1.993406611026e+01
-4.349345815383e+00
2.715225884391e+01
2.052794959563e+01
1.882376363896e+01
2.061542424508e+01
1.970484337307e+01
1.975766321654e+01
2.046781015778e+01
1.742760581886e+01
2.042535448479e+01
1.977254848516e+01
2.016572677038e+01
1.842496941369e+01
1.871403449517e+01
2.012465820229e+01
2.046500988770e+01
1.946650147125e+01
2.120196597131e+01
2.064185557182e+01
2.090559745592e+01
2.359975575887e+01
2.150429774750e+01
2.303064254549e+01
1.939833747612e+01
2.329775771716e+01
1.931305425924e+01
2.118667883581e+01
2.120123714258e+01
2.081977042006e+01
1.901091611768e+01
1.985720984405e+01
1.983555403222e+01
1.882606538727e+01
1.947220272085e+01
2.016148513891e+01
1.548184239287e+01
1.853730344218e+01
3.253238191677e+00
1.992208565154e+01
2.368251379958e+01
1.804438279716e+01
2.101422069695e+01
1.900342921243e+01
1.881359729885e+01
1.993014104667e+01
1.604802733912e+01
1.646307849371e+01
1.990763022317e+01
2.058791069436e+01
2.114888539682e+01
2.114100296427e+01
2.166286081902e+01
2.347990120591e+01
1.600690026573e+01
1.843648370676e+01
1.750927936625e+01
2.125313706759e+01
2.125010960011e+01
2.091478919989e+01
1.976759471412e+01
2.159794135180e+01
2.030825533700e+01
2.281422132513e+01
2.094499661504e+01
2.018691997924e+01
2.045680749893e+01
2.095069386515e+01
1.700371417788e+01
1.944944482324e+01
2.147840667948e+01
1.923752050684e+01
1.996652959940e+01
2.070144886160e+01
2.154510202060e+01
1.890103377426e+01
1.915957299422e+01
1.828038835824e+01
2.118903221867e+01
9.157080892989e+00
3.975722453783e+00
1.858304546331e+01
2.007700274880e+01
1.898951242779e+01
1.507216174389e+01
2.053520551852e+01
4.655205665163e+00
1.558575181794e+01
2.110724420859e+01
1.820751050548e+01
1.712308857420e+01
2.161366789896e+01
2.051347614065e+01
2.004469919389e+01
2.116760697357e+01
2.002676212695e+01
2.203050200797e+01
1.812614291095e+01
1.837349443232e+01
1.409542660255e+01
1.772414860219e+01
1.899251014344e+01
1.930990502670e+01
-2.441663102525e+00
1.719067577566e+01
9.710369350240e+00
1.834652171465e+01
2.235094470812e+01
2.169314043650e+01
2.347008824249e+01
1.868026943053e+01
1.932531576620e+01
1.850867660493e+01
2.245352605363e+01
1.957437403807e+01
1.825818576855e+01
2.099588395653e+01
1.848994594395e+01
1.864569685103e+01
1.376779304424e+01
2.186916611203e+01
1.864444168832e+01
1.911070536518e+01
1.878291850405e+01
1.447768848285e+01
1.878752210345e+01
1.983971765627e+01
1.203726308548e+01
2.097324298233e+01
8.777000211600e+00
1.994613153851e+01
2.122462719507e+01
1.499129251729e+01
1.863704458797e+01
1.284536517727e+01
1.790564753359e+01
1.876314219893e+01
2.081046263421e+01
1.843936949497e+01
2.142829921834e+01
1.994877181197e+01
2.080987757296e+01
2.113767761828e+01
2.065867614730e+01
1.890132838427e+01
1.888389636841e+01
2.255637880200e+01
3.369218134370e+00
2.333894545806e+01
1.901753415385e+01
2.103851494458e+01
1.775268733992e+01
1.975115249010e+01
1.488943424103e+01
1.960330221746e+01
2.072293540776e+01
4.458097409472e+00
2.050641663338e+01
2.057031312484e+01
1.808626160577e+01
1.940476286493e+01
2.037754114776e+01
2.271492960191e+01
1.302271803502e+00
7.619692416425e+00
2.012703892393e+01
1.916773604924e+01
1.754311843129e+01
2.073602950056e+01
1.093402282959e+01
2.080865870907e+01
1.916263138587e+01
1.794957960756e+01
2.028989573303e+01
1.918770707316e+01
1.186093558248e+01
1.798524494725e+01
1.948265735416e+01
1.991778606851e+01
2.083110692695e+01
1.975914005145e+01
1.027703663596e+01
2.202239987459e+01
1.961981870031e+01
1.638940789765e+01
1.624518671031e+01
2.053833703982e+01
1.856735280623e+01
1.191892552316e+01
1.297827754231e+01
1.534490785742e+01
2.082160557257e+01
2.091171333289e+01
1.984799230682e+01
2.023506733969e+01
1.368293557201e+01
1.941792789274e+01
2.039640142208e+01
2.293081784799e+01
7.956556041118e+00
1.553883871000e+01
2.042663654944e+01
1.967833951273e+01
2.080970321203e+01
2.227193482980e+01
2.082971788460e+01
1.223837716307e+01
2.124263456769e+01
2.081347628389e+01
2.059861336254e+01
1.899928083716e+01
1.520505015946e+01
1.234522582651e+01
2.082098188774e+01
1.285681040703e+01
1.878300053357e+01
2.014970306892e+01
1.993419465085e+01
-2.290810533717e+01
2.084064762907e+01
1.231991578946e+01
1.293025194091e+01
2.000808236899e+01
2.081818530885e+01
2.000349295448e+01
2.148190960188e+01
1.748666448656e+01
2.057500959406e+01
1.066393451872e+01
2.118010952404e+01
2.097372040868e+01
7.131820719795e+00
1.951434805792e+01
2.215818456374e+01
-7.620407928938e-01
2.241257311550e+01
1.915786004433e+01
1.949638172806e+01
7.677558453738e+00
1.802436257335e+01
1.983284901210e+01
2.098634325364e+01
1.656086794841e+01
1.283209727665e+01
2.097234892890e+01
1.891481872645e+01
3.362898950379e+00
2.057446838854e+01
2.038859008862e+01
1.835434314130e+01
2.026542637663e+01
2.041609007803e+01
2.141579954379e+01
2.005423974140e+01
2.104102059888e+01
1.028490028481e+01
1.187875953357e+01
1.818421552143e+01
1.615742500777e+01
2.085771043723e+01
9.374146447305e+00
1.112682324196e+01
1.831738709049e+01
2.217878164701e+01
1.346487270896e+01
2.077363720355e+01
2.059405304029e+01
2.065998296055e+01
2.012463829503e+01
1.791851874014e+01
9.797119247857e+00
6.954400901774e+00
2.032321406706e+01
8.283039735820e+00
2.100901167079e+01
1.871815657863e+01
2.082851985870e+01
2.514043093048e+01
1.998983226440e+01
1.904443774844e+01
2.012180047543e+01
1.976911410801e+01
2.048365306050e+01
2.052708421606e+01
1.838157025846e+01
1.840647104513e+01
1.188965374890e+01
1.859625571316e+01
2.060501034783e+01
4.165287568962e+00
5.680824916556e+00
2.116891272764e+01
1.795095617397e+01
2.014765134706e+01
1.985186282256e+01
2.088330593115e+01
1.990475858187e+01
1.843749419596e+01
1.504221584205e+01
1.529297418317e+01
1.924593988469e+01
2.087235752760e+01
1.746226594244e+01
1.796262967550e+01
1.833701361676e+01
1.847355739988e+01
2.635123150359e+01
1.392524409268e+01
2.033526940512e+01
1.884290600672e+01
2.082861490402e+01
2.023683918463e+01
1.953455778051e+01
2.014080268595e+01
1.629554847261e+01
1.566196147399e+01
2.051461069444e+01
2.014839320745e+01
1.248458028903e+01
2.064803797853e+01
2.643724361138e+00
1.795688378700e+01
2.110070416109e+01
-6.836752800018e+00
-2.062942399669e+01
2.048728497015e+01
1.746152565695e+01
2.028826308675e+01
2.094729533592e+01
1.745447149463e+01
1.020002205257e+01
2.033819008825e+01
3.991203731008e+00
2.019275232332e+01
2.059319953129e+01
2.021731748335e+01
2.486932336230e+01
1.834380835438e+01
1.643066894856e+01
2.086709672505e+01
2.085259364854e+01
1.957928364657e+01
2.088668382132e+01
2.615390953871e+01
2.044315125858e+01
2.252331624270e+01
2.294030596717e+00
2.091870389974e+01
2.034196019017e+01
2.037283119686e+01
1.792411557672e+01
1.841935947549e+01
1.216392916110e+01
2.040975358971e+01
1.494796237536e+01
1.894167161333e+01
2.089380252610e+01
1.746251113798e+01
2.022363050210e+01
2.046663133002e+01
2.051050137156e+01
8.999999999681e+01
-5.132323879419e+01
1.754897385893e+01
1.750385065781e+01
2.057131086263e+01
2.049826073143e+01
-2.204015529921e+01
1.092304749600e+01
2.022557466759e+01
2.067824916864e+01
6.831330214565e+00
2.035254720139e+01
1.852195654391e+01
1.768954357257e+01
1.904374540554e+01
1.301233469289e+01
2.086296830223e+01
2.989060013637e+00
1.710038629131e+01
2.029630354864e+01
2.006212153643e+01
1.761087965399e+01
1.865535555849e+01
2.054547233645e+01
2.002495761227e+01
1.979623380674e+01
1.747937651426e+01
2.102597831569e+01
2.021526690769e+01
1.239551774657e+01
-1.788978459675e+01
2.040587098037e+01
2.117370398508e+01
1.248498249245e+01
1.927158472286e+01
2.039812038674e+01
2.053935637062e+01
2.063690391566e+01
1.894205473642e+01
2.309276339361e+01
9.317792743558e+00
1.308862805696e+01
1.832673635041e+01
2.083965325460e+01
2.020713126070e+01
2.081131650226e+01
3.505289919805e+00
-4.339217859396e+00
6.299533555805e+00
1.935492232943e+01
1.443789087311e+01
2.022430522739e+01
6.249222346084e+00
2.097135276290e+01
1.831331613486e+01
2.069059521861e+01
2.077716411992e+01
1.832992948114e+01
2.078533522500e+01
2.035371128444e+01
2.032401854204e+01
2.381238965116e+00
2.014715775162e+01
2.051524612520e+01
2.109764131039e+01
2.078192198610e+01
2.061709902002e+01
1.978513548233e+01
4.214738101831e+00
1.468091626806e+01
2.013127624569e+01
1.865720796809e+01
2.016123540063e+01
2.077802963109e+01
2.047409622447e+01
1.964743988029e+01
2.075555198075e+01
2.067632923398e+01
2.068739666302e+01
1.473123685385e+01
2.056751671390e+01
1.789485402909e+01
2.013726305014e+01
-4.352451613565e+00
1.995930817172e+01
1.928866684416e+01
-2.748187519060e+00
2.598333878040e+01
1.992614849924e+01
2.034767191591e+01
2.018020443060e+01
2.089343825995e+01
1.864182830907e+01
-1.855859846166e+01
2.423568874112e+01
-1.659015094163e+01
1.969289775313e+00
1.417026999599e+01
1.691035104634e+01
2.016143873158e+01
2.021747627924e+01
1.863449618903e+01
1.605320318219e+01
2.047986664797e+01
2.097709908275e+01
2.084595109911e+01
2.045509169720e+01
2.013938146442e+01
-5.320034968808e+00
2.299882091404e+01
2.021553118256e+01
-4.383754500490e+00
2.710324003776e-01
1.387341366410e+01
-7.418126448406e+00
2.066701014935e+01
2.045553339198e+01
2.022129431764e+01
2.070776325250e+01
2.102044332127e+01
1.885044318483e+01
2.052832093978e+01
2.033576769753e+01
1.742527211269e+01
1.023766418968e+01
-2.013399051667e+01
2.053645408447e+01
1.796338896271e+01
2.878427798260e+00
1.665602951933e+01
2.044515034282e+01
2.018615056064e+01
2.038041081161e+01
1.388967469254e+01
2.179022938185e+01
2.048568404872e+01
2.047605734310e+01
2.052681297694e+01
1.788607307714e+01
2.087944766680e+01
2.470338969329e+00
2.024261178883e+01
-2.221255960717e+01
2.074942427796e+01
2.035396060532e+01
2.021531488875e+01
2.063468486564e+01
1.950278188790e+01
2.035727916099e+01
2.066982971438e+01
1.910575164019e+01
2.044942590318e+01
2.022474482153e+01
1.930002434994e+01
2.032867483782e+01
1.542927771523e+01
1.748085861848e+01
2.075983513104e+01
2.035875027954e+01
8.999999999681e+01
1.749319612369e+01
2.039105278313e+01
6.440489837493e+00
2.115330836772e+01
2.019575282263e+01
2.032962252615e+01
5.958209657475e+00
2.102203515173e+01
1.793476536895e+01
1.982293452075e+01
5.066790958938e+00
2.038064917549e+01
1.900601011557e+01
1.208027173878e+01
1.875663823621e+01
2.078468614185e+01
1.818111872044e+01
1.645037443031e+01
1.466507718991e+01
1.740700458519e+01
1.836909810139e+01
2.091393755790e+01
1.724347590484e+01
1.758821068504e+01
-8.545670137592e+00
2.036975369251e+01
2.040499582858e+01
2.135128409943e+01
2.034691836068e+01
2.039945755898e+01
1.791747698008e+01
1.900257213800e+01
1.721427631469e+01
1.741274714672e+01
1.764354643277e+01
2.108936467373e+01
7.738833025541e+00
2.044853932366e+01
1.832846262485e+01
2.034170537959e+01
2.107665226763e+01
1.873863285300e+01
2.021134875808e+01
2.085291369972e+01
2.093262317230e+01
1.920884538419e+01
2.021347172175e+01
2.032402976501e+01
-6.200245215657e+00
1.689148721974e+01
2.074410840558e+01
2.031102109364e+01
-5.034512642987e+01
-5.628263622862e+01
-5.419618903927e+01
-5.692650444421e+01
-5.418268779784e+01
-5.692682777535e+01
-5.417150739446e+01
-5.689979873247e+01
-5.416096356862e+01
-5.688071197819e+01
-5.414154339690e+01
-5.687070386880e+01
-5.411071190175e+01
-5.683657165163e+01
-5.406867335837e+01
-5.679990483132e+01
-5.399361533656e+01
-5.675906622356e+01
-5.387003371382e+01
-5.670789992124e+01
-5.373428253622e+01
-5.663483168681e+01
-5.359054069236e+01
-3.552644569971e+01
-5.652878847813e+01
-5.345975783758e+01
-5.656286335892e+01
8.661523223923e+01
-5.326151300772e+01
-5.667827726972e+01
-3.140257992764e+01
-5.301642447980e+01
-5.677512450277e+01
-5.276869287965e+01
-5.688371976384e+01
-5.250945068945e+01
-5.701370231886e+01
-5.223492265701e+01
-5.719871539688e+01
-5.195732871962e+01
2.857197913159e+00
-5.740542620604e+01
-5.169673336550e+01
-5.776163712325e+01
-5.144879407780e+01
8.999999999681e+01
8.999999999681e+01
-5.123426260800e+01
8.937414380301e+01
-5.108017059352e+01
8.710451799087e+01
-5.103248735206e+01
8.614705177052e+01
-5.058661055483e+01
8.614612461090e+01
-5.196211389304e+01
-5.025831442313e+01
-4.871602229381e+01
-2.627683496017e+01
-5.509756599138e+01
-4.906661115351e+01
8.999999999681e+01
-3.968738073187e+01
1.205633206078e+01
-1.858017098715e+01
-1.679074086018e+01
-1.631384847177e+01
-1.657667206504e+01
-1.621645508005e+01
-1.655585163035e+01
-1.621362938624e+01
-1.653288172838e+01
-1.620192852917e+01
-1.650040543958e+01
-1.618195851784e+01
-1.646076253300e+01
-1.615639504674e+01
-1.641571391341e+01
-1.612623703614e+01
-1.636618257513e+01
-1.604755078323e+01
-1.631227575177e+01
-1.591095975204e+01
-1.625296675123e+01
-1.575768973261e+01
-1.618567001794e+01
-7.972433075242e+00
-1.558317574877e+01
-1.610933132264e+01
-1.538573726119e+01
-1.273240737210e+01
-1.605349279526e+01
-1.517968162792e+01
-1.593520537295e+01
-1.496267724210e+01
-1.582228287552e+01
-1.578252538336e+01
-1.473211621788e+01
-1.574813943143e+01
-1.450217016821e+01
-1.573388136582e+01
-1.428000730636e+01
-1.581585355704e+01
-1.408179278395e+01
-1.598141128176e+01
-1.389726639574e+01
-1.610836249299e+01
-1.381620218848e+01
-1.624375184967e+01
-5.374673310430e+00
-1.653896615290e+01
-1.371511557483e+01
-1.660818863222e+01
-1.391534346258e+01
-1.678131434847e+01
-1.356120832659e+01
-1.644589117675e+01
-1.391477673934e+01
-1.235036114671e+01
-1.593284721538e+01
-1.557937813210e+01
-1.807075084286e+01
-1.169176978498e+01
-2.371401347995e+01
-7.440659859613e+00
-6.420056209959e-01
-1.412764831438e+00
-1.426466230836e+00
-1.461975888919e+00
-1.460179060043e+00
-1.455766755446e+00
-1.455239935830e+00
-1.443062162940e+00
-1.445075844576e+00
-1.426641225290e+00
-1.431955154843e+00
-1.407383552732e+00
-1.417004041854e+00
-1.385673610725e+00
-1.400799087448e+00
-1.361528310581e+00
-1.383491713410e+00
-1.334745709313e+00
-1.364943916323e+00
-1.305037658550e+00
1.097852726839e+00
-1.344870610970e+00
-1.272520073311e+00
-1.323628294297e+00
-2.352770967429e+00
-1.239256174074e+00
-1.305617906641e+00
-1.062380310938e+00
-1.194190487579e+00
-1.298951498197e+00
-1.110911945784e+00
-1.301147695546e+00
-1.038309574738e+00
-1.310447968278e+00
-9.817718496861e-01
-1.330860367186e+00
-9.669501643195e-01
1.253524961115e+00
-1.369513404669e+00
-9.882906719835e-01
-1.432485409401e+00
-1.109468671346e+00
-1.178848524438e+00
-1.525224523038e+00
-1.260897188616e+00
-1.629999851995e+00
-1.122511768709e+00
-1.743641928051e+00
-1.226698616769e+00
-4.897104720650e-01
-1.759124605887e+00
-1.721693551944e+00
-3.268938348992e+00
-1.760040503218e+00
-5.398411148701e-01
-3.946249665708e+00
1.021197319404e+00
-1.065552640255e-01
5.105955249861e+00
5.529402694165e+00
5.556314632427e+00
5.564896582933e+00
5.587651364561e+00
5.572010796687e+00
5.596584763352e+00
5.578105126840e+00
5.605682671587e+00
5.584661992820e+00
5.616000770957e+00
5.591237561669e+00
5.627142330422e+00
5.597441379567e+00
5.638883556822e+00
5.603174865782e+00
5.651263758671e+00
5.608348006832e+00
5.664286766876e+00
6.212240322488e+00
5.612746386379e+00
5.677794200014e+00
5.615531847640e+00
5.278945513063e+00
5.690971413045e+00
5.614663859058e+00
5.702308609149e+00
5.607832306071e+00
5.709842431211e+00
4.380343901254e+00
5.593757065392e+00
5.713470877583e+00
5.572219238276e+00
5.711163836214e+00
5.540675606381e+00
5.704462239519e+00
5.498479243415e+00
5.683814068802e+00
5.439705592169e+00
5.664734840439e+00
5.371403191244e+00
5.974685072176e+00
5.293190037909e+00
5.610064188226e+00
5.251741795838e+00
5.638568265606e+00
5.199618755456e+00
5.555236801964e+00
5.850810645857e+00
3.482043215316e+00
5.820750865266e+00
5.066301984590e+00
6.667434238233e+00
4.006068338556e+00
4.649445714481e+00
9.802532430403e+00
9.556306921271e+00
9.527043840988e+00
9.536918128645e+00
9.511674067250e+00
9.539123307569e+00
9.511753159635e+00
9.543346273054e+00
9.512936389073e+00
9.548123279042e+00
9.513934448276e+00
9.552899047081e+00
9.514094005669e+00
9.557258969936e+00
9.512922008731e+00
9.561390446356e+00
9.510615679858e+00
9.565210155813e+00
9.811400959209e+00
9.507019622037e+00
9.568561146563e+00
9.501694069730e+00
8.612796351336e+00
9.570723724225e+00
9.249613518116e+00
9.493445890459e+00
9.570470707979e+00
9.481135761031e+00
9.568925244294e+00
9.465521833758e+00
9.563454856154e+00
9.445202936881e+00
9.558143405231e+00
9.583898076160e+00
9.421055494710e+00
9.540812438369e+00
9.387458845087e+00
9.534421344850e+00
9.494945717245e+00
9.355688487554e+00
9.514063966217e+00
9.307142949163e+00
9.427811254952e+00
9.582127414974e+00
9.294053509354e+00
9.214604332866e+00
8.044217241379e+00
9.403374940187e+00
9.899262009645e+00
8.798905591069e+00
1.036443462625e+01
8.569941798268e+00
1.190926499152e+01
1.206536104830e+01
1.208971529838e+01
1.207428039405e+01
1.209741482194e+01
1.207285036592e+01
1.209780206372e+01
1.207141087222e+01
1.209855676046e+01
1.206968856722e+01
1.209928948302e+01
1.206741361914e+01
1.209954474248e+01
1.206335675855e+01
1.209845480307e+01
1.205769131556e+01
1.209662139503e+01
1.222290603631e+01
1.205100179008e+01
1.209412829979e+01
1.184902509510e+01
1.204332777984e+01
1.209089328298e+01
1.203340333765e+01
1.208572181717e+01
1.201982466396e+01
1.139277332500e+01
1.207719788531e+01
1.200322248412e+01
1.206928037875e+01
1.198838704465e+01
1.205937827521e+01
1.196960972653e+01
1.205380299175e+01
1.195539489035e+01
1.203293531368e+01
1.192477758251e+01
1.204818898615e+01
1.192355560077e+01
1.204041368835e+01
1.186113523696e+01
1.199148056634e+01
1.207158234826e+01
1.103158029045e+01
1.222554483644e+01
1.184601951525e+01
1.254189768327e+01
1.147309327103e+01
1.130658721313e+01
1.396866191904e+01
1.385872246535e+01
1.383324222437e+01
1.384510260689e+01
1.382104404854e+01
1.384285321234e+01
1.381755809429e+01
1.384158408475e+01
1.381376744427e+01
1.384023520605e+01
1.380977899430e+01
1.383903728312e+01
1.380543931403e+01
1.383581321453e+01
1.379842221811e+01
1.383097185757e+01
1.395199959517e+01
1.378909869927e+01
1.382633704695e+01
1.331472839918e+01
1.378129608341e+01
1.382179441230e+01
1.365030589070e+01
1.377257987531e+01
1.381577678615e+01
1.376099753687e+01
1.380695409004e+01
1.374674926865e+01
1.379346585844e+01
1.381108645766e+01
1.372964381883e+01
1.379196806808e+01
1.372479476801e+01
1.377743301534e+01
1.379499125681e+01
1.371046428212e+01
1.374523967347e+01
1.372023217612e+01
1.381205489130e+01
1.365363075337e+01
1.308293916027e+01
1.375178058566e+01
1.404660455822e+01
1.349816807894e+01
1.424602160723e+01
1.322364178438e+01
1.504826722667e+01
1.512903201978e+01
1.514358950724e+01
1.512775792665e+01
1.514263928171e+01
1.512662378745e+01
1.514118629318e+01
1.512103328635e+01
1.513763326966e+01
1.511674965143e+01
1.513449872856e+01
1.511180291556e+01
1.513175066076e+01
1.510787228647e+01
1.512669366585e+01
1.521925462965e+01
1.509530624703e+01
1.499354249439e+01
1.511728966893e+01
1.508829800849e+01
1.511277622072e+01
1.508338387725e+01
1.510829073291e+01
1.507346674896e+01
1.472164621004e+01
1.510042876966e+01
1.506299979181e+01
1.509164550280e+01
1.505256839441e+01
1.507489281504e+01
1.503571099727e+01
1.508638380724e+01
1.505640896906e+01
1.500792602069e+01
1.506873813168e+01
1.510550015401e+01
1.511649904547e+01
1.455759717630e+01
1.523518589333e+01
1.499133695864e+01
1.538892855068e+01
1.481566094482e+01
1.464568717361e+01
1.621638510409e+01
1.613724152872e+01
1.611559101774e+01
1.612235675147e+01
1.610558352908e+01
1.612390460297e+01
1.610739254931e+01
1.611672943768e+01
1.609492680441e+01
1.611459872887e+01
1.609412570814e+01
1.610962285397e+01
1.608522457458e+01
1.619099279125e+01
1.611075582977e+01
1.608431008834e+01
1.579754315359e+01
1.609505896102e+01
1.606899313267e+01
1.600234935194e+01
1.609160501827e+01
1.606750594146e+01
1.609176589299e+01
1.606304584052e+01
1.608325150010e+01
1.608303526411e+01
1.605123822857e+01
1.607637723678e+01
1.607535911002e+01
1.604770558538e+01
1.604137900307e+01
1.605196390999e+01
1.610449417135e+01
1.600861021436e+01
1.566289203993e+01
1.604571323721e+01
1.627331723043e+01
1.592792584347e+01
1.636338803395e+01
1.573016425298e+01
1.688286499042e+01
1.689134334819e+01
1.690626758603e+01
1.690876657770e+01
1.690707176666e+01
1.690988281024e+01
1.691409642889e+01
1.688956759102e+01
1.689596471770e+01
1.689294398440e+01
1.690087375915e+01
1.688823518999e+01
1.696899237750e+01
1.689027761985e+01
1.685439749630e+01
1.686201492260e+01
1.689289776524e+01
1.688090967316e+01
1.687571773296e+01
1.687527785826e+01
1.688053528397e+01
1.686353619292e+01
1.664427458828e+01
1.687905740129e+01
1.685471514587e+01
1.686535053281e+01
1.684293422315e+01
1.684099638008e+01
1.686422600378e+01
1.688337218742e+01
1.687338884174e+01
1.653436499666e+01
1.696223483687e+01
1.684761731774e+01
1.709263869514e+01
1.670559326512e+01
1.659008177164e+01


