# vtk DataFile Version 2.0
Calculation C:\Users\johan\Documents\GitHub\TOCHNOG\standsicherheit_phiC at time 4.000000000000e+00 
ASCII
DATASET UNSTRUCTURED_GRID
Field FieldData 1
Time 1 1 double
4.000000000000e+00

POINTS 1191 float
0.0 0.0 0.0 
5.000000000000e+01 -1.000000000000e+01 0.0 
0.0 -2.000000000000e+01 0.0 
5.000000000000e+01 -2.000000000000e+01 0.0 
0.0 -9.999999999991e-01 0.0 
0.0 -1.999999999998e+00 0.0 
0.0 -2.999999999997e+00 0.0 
0.0 -3.999999999994e+00 0.0 
0.0 -4.999999999991e+00 0.0 
0.0 -5.999999999988e+00 0.0 
0.0 -6.999999999985e+00 0.0 
0.0 -7.999999999982e+00 0.0 
0.0 -8.999999999983e+00 0.0 
0.0 -9.999999999985e+00 0.0 
0.0 -1.099999999999e+01 0.0 
0.0 -1.199999999999e+01 0.0 
0.0 -1.299999999999e+01 0.0 
0.0 -1.399999999999e+01 0.0 
0.0 -1.499999999999e+01 0.0 
0.0 -1.599999999999e+01 0.0 
0.0 -1.700000000000e+01 0.0 
0.0 -1.800000000000e+01 0.0 
0.0 -1.900000000000e+01 0.0 
4.900000000001e+01 -2.000000000000e+01 0.0 
4.800000000001e+01 -2.000000000000e+01 0.0 
4.700000000002e+01 -2.000000000000e+01 0.0 
4.600000000003e+01 -2.000000000000e+01 0.0 
4.500000000004e+01 -2.000000000000e+01 0.0 
4.400000000004e+01 -2.000000000000e+01 0.0 
4.300000000005e+01 -2.000000000000e+01 0.0 
4.200000000006e+01 -2.000000000000e+01 0.0 
4.100000000006e+01 -2.000000000000e+01 0.0 
4.000000000007e+01 -2.000000000000e+01 0.0 
3.900000000008e+01 -2.000000000000e+01 0.0 
3.800000000009e+01 -2.000000000000e+01 0.0 
3.700000000009e+01 -2.000000000000e+01 0.0 
3.600000000010e+01 -2.000000000000e+01 0.0 
3.500000000011e+01 -2.000000000000e+01 0.0 
3.400000000011e+01 -2.000000000000e+01 0.0 
3.300000000012e+01 -2.000000000000e+01 0.0 
3.200000000013e+01 -2.000000000000e+01 0.0 
3.100000000013e+01 -2.000000000000e+01 0.0 
3.000000000013e+01 -2.000000000000e+01 0.0 
2.900000000013e+01 -2.000000000000e+01 0.0 
2.800000000013e+01 -2.000000000000e+01 0.0 
2.700000000013e+01 -2.000000000000e+01 0.0 
2.600000000013e+01 -2.000000000000e+01 0.0 
2.500000000013e+01 -2.000000000000e+01 0.0 
2.400000000013e+01 -2.000000000000e+01 0.0 
2.300000000013e+01 -2.000000000000e+01 0.0 
2.200000000013e+01 -2.000000000000e+01 0.0 
2.100000000013e+01 -2.000000000000e+01 0.0 
2.000000000013e+01 -2.000000000000e+01 0.0 
1.900000000013e+01 -2.000000000000e+01 0.0 
1.800000000013e+01 -2.000000000000e+01 0.0 
1.700000000012e+01 -2.000000000000e+01 0.0 
1.600000000011e+01 -2.000000000000e+01 0.0 
1.500000000011e+01 -2.000000000000e+01 0.0 
1.400000000010e+01 -2.000000000000e+01 0.0 
1.300000000009e+01 -2.000000000000e+01 0.0 
1.200000000009e+01 -2.000000000000e+01 0.0 
1.100000000008e+01 -2.000000000000e+01 0.0 
1.000000000007e+01 -2.000000000000e+01 0.0 
9.000000000064e+00 -2.000000000000e+01 0.0 
8.000000000057e+00 -2.000000000000e+01 0.0 
7.000000000050e+00 -2.000000000000e+01 0.0 
6.000000000043e+00 -2.000000000000e+01 0.0 
5.000000000036e+00 -2.000000000000e+01 0.0 
4.000000000028e+00 -2.000000000000e+01 0.0 
3.000000000021e+00 -2.000000000000e+01 0.0 
2.000000000014e+00 -2.000000000000e+01 0.0 
1.000000000007e+00 -2.000000000000e+01 0.0 
5.000000000000e+01 -1.100000000000e+01 0.0 
5.000000000000e+01 -1.200000000000e+01 0.0 
5.000000000000e+01 -1.300000000000e+01 0.0 
5.000000000000e+01 -1.400000000000e+01 0.0 
5.000000000000e+01 -1.500000000000e+01 0.0 
5.000000000000e+01 -1.600000000000e+01 0.0 
5.000000000000e+01 -1.700000000000e+01 0.0 
5.000000000000e+01 -1.800000000000e+01 0.0 
5.000000000000e+01 -1.900000000000e+01 0.0 
2.000000000000e+01 0.0 0.0 
3.500000000000e+01 -1.000000000000e+01 0.0 
2.150000000000e+01 -1.000000000000e+00 0.0 
2.300000000000e+01 -2.000000000000e+00 0.0 
2.450000000000e+01 -3.000000000000e+00 0.0 
2.600000000000e+01 -4.000000000000e+00 0.0 
2.750000000000e+01 -5.000000000000e+00 0.0 
2.900000000000e+01 -6.000000000000e+00 0.0 
3.050000000000e+01 -7.000000000000e+00 0.0 
3.200000000000e+01 -8.000000000000e+00 0.0 
3.350000000000e+01 -9.000000000000e+00 0.0 
5.000000000000e+01 -3.000000000000e+00 0.0 
5.000000000000e+01 -4.000000000000e+00 0.0 
5.000000000000e+01 -5.000000000000e+00 0.0 
5.000000000000e+01 -6.000000000000e+00 0.0 
5.000000000000e+01 -7.000000000000e+00 0.0 
5.000000000000e+01 -8.000000000000e+00 0.0 
5.000000000000e+01 -9.000000000000e+00 0.0 
4.900000000000e+01 -1.000000000000e+01 0.0 
4.800000000000e+01 -1.000000000000e+01 0.0 
4.700000000000e+01 -1.000000000000e+01 0.0 
4.600000000000e+01 -1.000000000000e+01 0.0 
4.500000000000e+01 -1.000000000000e+01 0.0 
4.400000000000e+01 -1.000000000000e+01 0.0 
4.300000000000e+01 -1.000000000000e+01 0.0 
4.200000000000e+01 -1.000000000000e+01 0.0 
4.100000000000e+01 -1.000000000000e+01 0.0 
4.000000000000e+01 -1.000000000000e+01 0.0 
3.900000000000e+01 -1.000000000000e+01 0.0 
3.800000000000e+01 -1.000000000000e+01 0.0 
3.700000000000e+01 -1.000000000000e+01 0.0 
3.600000000000e+01 -1.000000000000e+01 0.0 
1.900000000000e+01 0.0 0.0 
1.800000000000e+01 0.0 0.0 
1.700000000000e+01 0.0 0.0 
1.600000000000e+01 0.0 0.0 
1.500000000000e+01 0.0 0.0 
1.400000000000e+01 0.0 0.0 
1.300000000000e+01 0.0 0.0 
1.200000000000e+01 0.0 0.0 
1.100000000000e+01 0.0 0.0 
1.000000000000e+01 0.0 0.0 
9.000000000000e+00 0.0 0.0 
8.000000000000e+00 0.0 0.0 
7.000000000000e+00 0.0 0.0 
6.000000000000e+00 0.0 0.0 
5.000000000000e+00 0.0 0.0 
4.000000000000e+00 0.0 0.0 
3.000000000000e+00 0.0 0.0 
2.000000000000e+00 0.0 0.0 
1.000000000000e+00 0.0 0.0 
2.548076923077e+01 -3.000000000000e+00 0.0 
2.646153846153e+01 -3.000000000000e+00 0.0 
2.744230769230e+01 -3.000000000000e+00 0.0 
2.842307692306e+01 -3.000000000000e+00 0.0 
2.940384615383e+01 -3.000000000000e+00 0.0 
3.038461538459e+01 -3.000000000000e+00 0.0 
3.136538461536e+01 -3.000000000000e+00 0.0 
3.234615384612e+01 -3.000000000000e+00 0.0 
3.332692307687e+01 -3.000000000000e+00 0.0 
3.430769230762e+01 -3.000000000000e+00 0.0 
3.528846153837e+01 -3.000000000000e+00 0.0 
3.626923076912e+01 -3.000000000000e+00 0.0 
3.724999999988e+01 -3.000000000000e+00 0.0 
3.823076923065e+01 -3.000000000000e+00 0.0 
3.921153846143e+01 -3.000000000000e+00 0.0 
4.019230769221e+01 -3.000000000000e+00 0.0 
4.117307692299e+01 -3.000000000000e+00 0.0 
4.215384615377e+01 -3.000000000000e+00 0.0 
4.313461538455e+01 -3.000000000000e+00 0.0 
4.411538461533e+01 -3.000000000000e+00 0.0 
4.509615384611e+01 -3.000000000000e+00 0.0 
4.607692307688e+01 -3.000000000000e+00 0.0 
4.705769230766e+01 -3.000000000000e+00 0.0 
4.803846153844e+01 -3.000000000000e+00 0.0 
4.901923076922e+01 -3.000000000000e+00 0.0 
4.900000000000e+01 -4.000000000000e+00 0.0 
4.800000000000e+01 -4.000000000000e+00 0.0 
4.700000000000e+01 -4.000000000000e+00 0.0 
4.600000000000e+01 -4.000000000000e+00 0.0 
4.500000000000e+01 -4.000000000000e+00 0.0 
4.400000000000e+01 -4.000000000000e+00 0.0 
4.300000000000e+01 -4.000000000000e+00 0.0 
4.200000000000e+01 -4.000000000000e+00 0.0 
4.100000000000e+01 -4.000000000000e+00 0.0 
4.000000000000e+01 -4.000000000000e+00 0.0 
3.900000000000e+01 -4.000000000000e+00 0.0 
3.800000000000e+01 -4.000000000000e+00 0.0 
3.700000000000e+01 -4.000000000000e+00 0.0 
3.600000000000e+01 -4.000000000000e+00 0.0 
3.500000000000e+01 -4.000000000000e+00 0.0 
3.400000000000e+01 -4.000000000000e+00 0.0 
3.300000000000e+01 -4.000000000000e+00 0.0 
3.200000000000e+01 -4.000000000000e+00 0.0 
3.100000000000e+01 -4.000000000000e+00 0.0 
3.000000000000e+01 -4.000000000000e+00 0.0 
2.900000000000e+01 -4.000000000000e+00 0.0 
2.800000000000e+01 -4.000000000000e+00 0.0 
2.700000000000e+01 -4.000000000000e+00 0.0 
2.847826086957e+01 -5.000000000000e+00 0.0 
2.945652173913e+01 -5.000000000000e+00 0.0 
3.043478260870e+01 -5.000000000000e+00 0.0 
3.141304347826e+01 -5.000000000000e+00 0.0 
3.239130434783e+01 -5.000000000000e+00 0.0 
3.336956521739e+01 -5.000000000000e+00 0.0 
3.434782608696e+01 -5.000000000000e+00 0.0 
3.532608695652e+01 -5.000000000000e+00 0.0 
3.630434782609e+01 -5.000000000000e+00 0.0 
3.728260869565e+01 -5.000000000000e+00 0.0 
3.826086956522e+01 -5.000000000000e+00 0.0 
3.923913043478e+01 -5.000000000000e+00 0.0 
4.021739130435e+01 -5.000000000000e+00 0.0 
4.119565217391e+01 -5.000000000000e+00 0.0 
4.217391304348e+01 -5.000000000000e+00 0.0 
4.315217391304e+01 -5.000000000000e+00 0.0 
4.413043478261e+01 -5.000000000000e+00 0.0 
4.510869565217e+01 -5.000000000000e+00 0.0 
4.608695652174e+01 -5.000000000000e+00 0.0 
4.706521739130e+01 -5.000000000000e+00 0.0 
4.804347826087e+01 -5.000000000000e+00 0.0 
4.902173913043e+01 -5.000000000000e+00 0.0 
4.900000000001e+01 -6.000000000000e+00 0.0 
4.800000000003e+01 -6.000000000000e+00 0.0 
4.700000000004e+01 -6.000000000000e+00 0.0 
4.600000000006e+01 -6.000000000000e+00 0.0 
4.500000000007e+01 -6.000000000000e+00 0.0 
4.400000000009e+01 -6.000000000000e+00 0.0 
4.300000000010e+01 -6.000000000000e+00 0.0 
4.200000000012e+01 -6.000000000000e+00 0.0 
4.100000000013e+01 -6.000000000000e+00 0.0 
4.000000000014e+01 -6.000000000000e+00 0.0 
3.900000000014e+01 -6.000000000000e+00 0.0 
3.800000000012e+01 -6.000000000000e+00 0.0 
3.700000000010e+01 -6.000000000000e+00 0.0 
3.600000000008e+01 -6.000000000000e+00 0.0 
3.500000000006e+01 -6.000000000000e+00 0.0 
3.400000000005e+01 -6.000000000000e+00 0.0 
3.300000000003e+01 -6.000000000000e+00 0.0 
3.200000000001e+01 -6.000000000000e+00 0.0 
3.100000000000e+01 -6.000000000000e+00 0.0 
3.000000000000e+01 -6.000000000000e+00 0.0 
3.147499999998e+01 -7.000000000000e+00 0.0 
3.244999999998e+01 -7.000000000000e+00 0.0 
3.342499999998e+01 -7.000000000000e+00 0.0 
3.439999999998e+01 -7.000000000000e+00 0.0 
3.537499999998e+01 -7.000000000000e+00 0.0 
3.634999999998e+01 -7.000000000000e+00 0.0 
3.732499999998e+01 -7.000000000000e+00 0.0 
3.829999999998e+01 -7.000000000000e+00 0.0 
3.927499999999e+01 -7.000000000000e+00 0.0 
4.024999999999e+01 -7.000000000000e+00 0.0 
4.122499999999e+01 -7.000000000000e+00 0.0 
4.219999999999e+01 -7.000000000000e+00 0.0 
4.317499999999e+01 -7.000000000000e+00 0.0 
4.414999999999e+01 -7.000000000000e+00 0.0 
4.512499999999e+01 -7.000000000000e+00 0.0 
4.609999999999e+01 -7.000000000000e+00 0.0 
4.707500000000e+01 -7.000000000000e+00 0.0 
4.805000000000e+01 -7.000000000000e+00 0.0 
4.902500000000e+01 -7.000000000000e+00 0.0 
4.900000000000e+01 -8.000000000000e+00 0.0 
4.800000000000e+01 -8.000000000000e+00 0.0 
4.700000000000e+01 -8.000000000000e+00 0.0 
4.600000000000e+01 -8.000000000000e+00 0.0 
4.500000000000e+01 -8.000000000000e+00 0.0 
4.400000000000e+01 -8.000000000000e+00 0.0 
4.300000000000e+01 -8.000000000000e+00 0.0 
4.200000000000e+01 -8.000000000000e+00 0.0 
4.100000000000e+01 -8.000000000000e+00 0.0 
4.000000000000e+01 -8.000000000000e+00 0.0 
3.900000000000e+01 -8.000000000000e+00 0.0 
3.800000000000e+01 -8.000000000000e+00 0.0 
3.700000000000e+01 -8.000000000000e+00 0.0 
3.600000000000e+01 -8.000000000000e+00 0.0 
3.500000000000e+01 -8.000000000000e+00 0.0 
3.400000000000e+01 -8.000000000000e+00 0.0 
3.300000000000e+01 -8.000000000000e+00 0.0 
3.447058823527e+01 -9.000000000000e+00 0.0 
3.544117647055e+01 -9.000000000000e+00 0.0 
3.641176470582e+01 -9.000000000000e+00 0.0 
3.738235294109e+01 -9.000000000000e+00 0.0 
3.835294117637e+01 -9.000000000000e+00 0.0 
3.932352941164e+01 -9.000000000000e+00 0.0 
4.029411764691e+01 -9.000000000000e+00 0.0 
4.126470588219e+01 -9.000000000000e+00 0.0 
4.223529411748e+01 -9.000000000000e+00 0.0 
4.320588235279e+01 -9.000000000000e+00 0.0 
4.417647058811e+01 -9.000000000000e+00 0.0 
4.514705882342e+01 -9.000000000000e+00 0.0 
4.611764705874e+01 -9.000000000000e+00 0.0 
4.708823529405e+01 -9.000000000000e+00 0.0 
4.805882352937e+01 -9.000000000000e+00 0.0 
4.902941176468e+01 -9.000000000000e+00 0.0 
2.075000000000e+01 -5.000000000006e-01 0.0 
2.225000000000e+01 -1.500000000000e+00 0.0 
2.375000000000e+01 -2.500000000000e+00 0.0 
2.525000000000e+01 -3.500000000000e+00 0.0 
2.675000000000e+01 -4.500000000000e+00 0.0 
2.825000000000e+01 -5.500000000000e+00 0.0 
2.975000000000e+01 -6.500000000000e+00 0.0 
3.125000000000e+01 -7.500000000000e+00 0.0 
3.275000000000e+01 -8.500000000000e+00 0.0 
3.425000000000e+01 -9.500000000000e+00 0.0 
2.226951693683e+01 -2.403913980114e+00 0.0 
1.650149491944e+01 -1.913490915758e+01 0.0 
1.050042386896e+01 -8.504605092970e-01 0.0 
1.553146524712e+01 -8.281255032105e-01 0.0 
1.150000000008e+01 -1.913397459621e+01 0.0 
2.530060260647e+01 -4.428336431260e+00 0.0 
8.651114563942e-01 -1.052096295641e+01 0.0 
2.050000000013e+01 -1.913397459622e+01 0.0 
2.819198729811e+01 -6.399519052838e+00 0.0 
2.445670302931e+01 -1.915649188023e+01 0.0 
3.117591465718e+01 -8.394293040695e+00 0.0 
7.465053044742e+00 -1.920411160581e+01 0.0 
6.398295709691e+00 -8.230098819370e-01 0.0 
2.849659607461e+01 -1.914296187762e+01 0.0 
3.418732642882e+01 -1.040265792588e+01 0.0 
8.386450935063e-01 -6.533605142809e+00 0.0 
9.178661865596e-01 -1.329769195597e+01 0.0 
3.149448624493e+01 -1.910466733764e+01 0.0 
3.552916747426e+01 -1.914628590759e+01 0.0 
4.449210346537e+01 -1.914359085008e+01 0.0 
4.140975975145e+01 -1.906941860733e+01 0.0 
3.847475958753e+01 -1.916622382724e+01 0.0 
3.653774794640e+01 -1.088712800241e+01 0.0 
4.047886341787e+01 -1.090139014048e+01 0.0 
4.348006339825e+01 -1.092792621489e+01 0.0 
4.919519968029e+01 -1.451526755068e+01 0.0 
4.500000000032e+00 -1.913397459621e+01 0.0 
1.856136921614e+01 -8.212235170404e-01 0.0 
3.499895312306e+00 -8.661165539723e-01 0.0 
9.076088696565e-01 -1.642306201891e+01 0.0 
4.655174095477e+01 -1.086183387525e+01 0.0 
9.430688970604e-01 -3.496112672958e+00 0.0 
3.353992337063e+01 -1.901202090820e+01 0.0 
2.249746016977e+01 -1.921262287282e+01 0.0 
2.650122741777e+01 -1.916123026018e+01 0.0 
1.863571384842e+01 -1.908325534840e+01 0.0 
1.450089971693e+01 -1.917691901860e+01 0.0 
1.350044695317e+01 -8.659695299584e-01 0.0 
3.849987469880e+01 -1.084154983397e+01 0.0 
9.454419857884e+00 -1.900818879936e+01 0.0 
4.917398660523e+01 -1.645692866081e+01 0.0 
8.500000000000e+00 -8.660254037844e-01 0.0 
8.660319230785e-01 -8.500111697188e+00 0.0 
4.649022621545e+01 -1.930506220113e+01 0.0 
2.667688107845e+01 -5.420288124331e+00 0.0 
2.379251615665e+01 -3.412225477429e+00 0.0 
2.966631491830e+01 -7.389030232731e+00 0.0 
3.267915035995e+01 -9.396934932445e+00 0.0 
2.074836922338e+01 -1.320054020319e+00 0.0 
4.915985743621e+01 -1.261973384855e+01 0.0 
2.527129768623e+00 -1.931592414663e+01 0.0 
1.538676247410e+00 -8.436956619311e-01 0.0 
4.908096641539e+01 -1.842484004551e+01 0.0 
3.478612492673e+01 -1.090889364140e+01 0.0 
3.409757055860e+01 -1.131991530427e+01 0.0 
3.501895309466e+01 -1.177687842717e+01 0.0 
3.407758073088e+01 -1.224293381580e+01 0.0 
3.484541875390e+01 -1.277051428430e+01 0.0 
3.400322025842e+01 -1.319022775640e+01 0.0 
3.321672625034e+01 -1.266779191233e+01 0.0 
3.315244139236e+01 -1.360984106532e+01 0.0 
3.236335186892e+01 -1.308463225210e+01 0.0 
3.478337442841e+01 -1.372341158982e+01 0.0 
3.230105923633e+01 -1.403023731610e+01 0.0 
3.150954055289e+01 -1.350301767700e+01 0.0 
3.144604792090e+01 -1.444931742516e+01 0.0 
3.065653897123e+01 -1.392357262981e+01 0.0 
3.071897610812e+01 -1.297447031198e+01 0.0 
2.986790411740e+01 -1.339226181535e+01 0.0 
2.993181466745e+01 -1.244703272398e+01 0.0 
2.908023061869e+01 -1.286254537734e+01 0.0 
2.901619051372e+01 -1.380881655279e+01 0.0 
2.822986160390e+01 -1.327695262116e+01 0.0 
2.829453476870e+01 -1.233265343811e+01 0.0 
2.744542905518e+01 -1.274510491105e+01 0.0 
2.751120089246e+01 -1.180368086886e+01 0.0 
2.666218649885e+01 -1.221619339205e+01 0.0 
2.672371209234e+01 -1.127125228527e+01 0.0 
2.587763216302e+01 -1.168539979114e+01 0.0 
2.581165585299e+01 -1.262994410089e+01 0.0 
2.502890882577e+01 -1.209827323619e+01 0.0 
2.509631327757e+01 -1.115492410304e+01 0.0 
2.424662989877e+01 -1.156630981079e+01 0.0 
2.431704046904e+01 -1.062389179334e+01 0.0 
2.346445438728e+01 -1.103427680694e+01 0.0 
2.339382552877e+01 -1.197964871788e+01 0.0 
2.260936050780e+01 -1.144513277642e+01 0.0 
2.268075012022e+01 -1.049911928216e+01 0.0 
2.182525737661e+01 -1.090920811464e+01 0.0 
2.189682319817e+01 -9.961716944568e+00 0.0 
2.104174127792e+01 -1.037266986667e+01 0.0 
2.111304367575e+01 -9.424179358711e+00 0.0 
2.025306185381e+01 -9.832727364719e+00 0.0 
2.018141124247e+01 -1.079140628871e+01 0.0 
1.938594498257e+01 -1.025147354112e+01 0.0 
1.946106490453e+01 -9.288010758448e+00 0.0 
1.858929958352e+01 -9.706319802516e+00 0.0 
1.851540991219e+01 -1.067205988724e+01 0.0 
1.771485303178e+01 -1.012504443115e+01 0.0 
1.764134552256e+01 -1.109360378538e+01 0.0 
1.683745148095e+01 -1.054496365337e+01 0.0 
1.691852964353e+01 -9.582555261178e+00 0.0 
1.603603813062e+01 -1.000160132379e+01 0.0 
1.595824239350e+01 -1.096750698862e+01 0.0 
1.515080624291e+01 -1.041639501931e+01 0.0 
1.523171602559e+01 -9.451711491453e+00 0.0 
1.434621060709e+01 -9.871956467464e+00 0.0 
1.426777178765e+01 -1.083749501371e+01 0.0 
1.345775282374e+01 -1.028803175500e+01 0.0 
1.354103873368e+01 -9.324918457162e+00 0.0 
1.265072018622e+01 -9.742612837270e+00 0.0 
1.257285762070e+01 -1.071557782384e+01 0.0 
1.175874815690e+01 -1.015972324288e+01 0.0 
1.184203019714e+01 -9.193604071377e+00 0.0 
1.094927709905e+01 -9.612103238656e+00 0.0 
1.086938022910e+01 -1.058685085646e+01 0.0 
1.005424098961e+01 -1.002939116380e+01 0.0 
9.977974613295e+00 -1.101324897989e+01 0.0 
1.012915646404e+01 -9.051815821181e+00 0.0 
9.237127782494e+00 -9.471239055559e+00 0.0 
9.308426593771e+00 -8.483376461131e+00 0.0 
8.418806073345e+00 -8.910712374517e+00 0.0 
2.253688464062e+01 -1.239459402279e+01 0.0 
8.495126726666e+00 -7.921646665254e+00 0.0 
9.389727383206e+00 -7.512103628377e+00 0.0 
7.601560812974e+00 -8.349460349344e+00 0.0 
7.525680547759e+00 -9.339736686940e+00 0.0 
7.677888324502e+00 -7.359727833346e+00 0.0 
6.782001206724e+00 -7.788454494773e+00 0.0 
6.858778622885e+00 -6.797338062822e+00 0.0 
2.196596590865e+01 -8.979025665442e+00 0.0 
2.816540108272e+01 -1.422634142353e+01 0.0 
5.961601194403e+00 -7.226824010712e+00 0.0 
6.038171749656e+00 -6.234825887079e+00 0.0 
6.936257279557e+00 -5.805287640737e+00 0.0 
6.115068918323e+00 -5.242109758768e+00 0.0 
3.564391741903e+01 -1.329240553876e+01 0.0 
3.558115605778e+01 -1.425902892003e+01 0.0 
3.645445282201e+01 -1.381970786460e+01 0.0 
3.639744204358e+01 -1.479198128612e+01 0.0 
3.727266909778e+01 -1.435399586226e+01 0.0 
5.216667013081e+00 -5.671788584287e+00 0.0 
3.220697293295e+01 -1.499594545107e+01 0.0 
3.551112158269e+01 -1.523479869250e+01 0.0 
2.836056961467e+01 -1.139032434851e+01 0.0 
2.516730388602e+01 -1.021382726837e+01 0.0 
1.844436907403e+01 -1.164097215196e+01 0.0 
5.885434318740e+00 -8.218694781467e+00 0.0 
5.064071066867e+00 -7.656614643901e+00 0.0 
4.988089103470e+00 -8.649722082718e+00 0.0 
1.079421050408e+01 -1.157014985435e+01 0.0 
9.902420005256e+00 -1.199903342656e+01 0.0 
1.071994252214e+01 -1.255727909771e+01 0.0 
9.826974788171e+00 -1.298659581767e+01 0.0 
1.064607883789e+01 -1.354595476388e+01 0.0 
9.751541265343e+00 -1.397556905071e+01 0.0 
8.932296185869e+00 -1.341553353988e+01 0.0 
8.856399248106e+00 -1.440570715508e+01 0.0 
8.036186803543e+00 -1.384470558472e+01 0.0 
1.057112875118e+01 -1.453516759081e+01 0.0 
1.146582585687e+01 -1.410539926903e+01 0.0 
7.959894480382e+00 -1.483563350928e+01 0.0 
7.138792279156e+00 -1.427465094140e+01 0.0 
7.062506792418e+00 -1.526615385482e+01 0.0 
6.240693558277e+00 -1.470508863040e+01 0.0 
6.316957575451e+00 -1.371212581281e+01 0.0 
5.418183007107e+00 -1.414253605022e+01 0.0 
5.494748364428e+00 -1.314886770603e+01 0.0 
1.756825565873e+01 -1.206433872514e+01 0.0 
1.837565773345e+01 -1.261356468266e+01 0.0 
1.749574831391e+01 -1.303769280014e+01 0.0 
1.830539187332e+01 -1.358828364284e+01 0.0 
1.742278925170e+01 -1.401367746928e+01 0.0 
1.823303007798e+01 -1.456432294258e+01 0.0 
1.734941694138e+01 -1.499213734361e+01 0.0 
1.653760041637e+01 -1.443920312098e+01 0.0 
3.056237977307e+01 -1.487132260174e+01 0.0 
1.866469084762e+01 -8.742953000418e+00 0.0 
1.953669694916e+01 -8.326038909849e+00 0.0 
1.874194303780e+01 -7.780688158966e+00 0.0 
1.961032016741e+01 -7.366854697285e+00 0.0 
1.881715755159e+01 -6.821102209649e+00 0.0 
1.968369797150e+01 -6.407747217358e+00 0.0 
1.889237123259e+01 -5.858375520026e+00 0.0 
1.802038875366e+01 -6.276202618170e+00 0.0 
1.809793837984e+01 -5.307629520489e+00 0.0 
1.721985207997e+01 -5.728242054488e+00 0.0 
1.729850893523e+01 -4.756990819347e+00 0.0 
1.641745664240e+01 -5.174636548624e+00 0.0 
2.495978509456e+01 -1.304406404294e+01 0.0 
1.911567814831e+01 -1.413854250293e+01 0.0 
1.904387332608e+01 -1.511463127723e+01 0.0 
1.992115934240e+01 -1.468788025898e+01 0.0 
7.013706899628e+00 -4.812582868662e+00 0.0 
5.342091874585e+00 -1.513658157269e+01 0.0 
1.139098043784e+01 -1.509488509480e+01 0.0 
1.228151810610e+01 -1.465617481983e+01 0.0 
1.646373110164e+01 -1.541993323337e+01 0.0 
5.293328636712e+00 -4.678385108584e+00 0.0 
1.975965862987e+01 -5.448124345648e+00 0.0 
2.054318374236e+01 -5.992561293251e+00 0.0 
3.721453439063e+01 -1.533216152738e+01 0.0 
3.809302733893e+01 -1.489235527381e+01 0.0 
1.220852788900e+01 -1.565304565230e+01 0.0 
4.394120899730e+00 -5.108397613210e+00 0.0 
8.779354620288e+00 -1.539524721159e+01 0.0 
1.817791047702e+01 -4.338570146253e+00 0.0 
4.518860013839e+00 -1.457343189307e+01 0.0 
4.442712140414e+00 -1.556841391069e+01 0.0 
8.115343466391e+00 -1.285760324283e+01 0.0 
1.985334703171e+01 -1.566478400426e+01 0.0 
2.071953850276e+01 -1.522074243119e+01 0.0 
1.634012953883e+01 -6.154777738301e+00 0.0 
1.553479994708e+01 -5.593730508879e+00 0.0 
1.561265946942e+01 -4.617761762647e+00 0.0 
1.470674212978e+01 -5.064576488228e+00 0.0 
1.464498299883e+01 -6.026514471420e+00 0.0 
1.383271561817e+01 -5.467796261169e+00 0.0 
1.389241253067e+01 -4.504338666645e+00 0.0 
1.301868735463e+01 -4.907185188626e+00 0.0 
1.294514184846e+01 -5.888160903592e+00 0.0 
1.212955968622e+01 -5.328262335277e+00 0.0 
1.220721122383e+01 -4.341264976687e+00 0.0 
1.131324345897e+01 -4.766773516508e+00 0.0 
5.266597955397e+00 -1.613148974258e+01 0.0 
1.737805990867e+01 -3.786677807525e+00 0.0 
3.078438094513e+01 -1.203225297748e+01 0.0 
1.131569882285e+01 -1.608511932110e+01 0.0 
1.728478341782e+01 -1.596017432313e+01 0.0 
3.803465906019e+01 -1.587509751228e+01 0.0 
3.891681276677e+01 -1.543395196905e+01 0.0 
3.897340985302e+01 -1.444710288980e+01 0.0 
3.980095968193e+01 -1.499059496613e+01 0.0 
3.974334598189e+01 -1.597921884150e+01 0.0 
4.062964983717e+01 -1.553518690417e+01 0.0 
4.068729602479e+01 -1.454434445295e+01 0.0 
4.151772679790e+01 -1.508974196007e+01 0.0 
4.157505195739e+01 -1.409694289912e+01 0.0 
4.240699932656e+01 -1.464347955968e+01 0.0 
4.234898051011e+01 -1.563721375790e+01 0.0 
4.323934606035e+01 -1.519082036405e+01 0.0 
4.329740528208e+01 -1.419587509788e+01 0.0 
4.413056841369e+01 -1.474359631875e+01 0.0 
4.418850110108e+01 -1.374786684042e+01 0.0 
4.502219770667e+01 -1.429605103525e+01 0.0 
4.496411937907e+01 -1.529215882720e+01 0.0 
4.490027319897e+00 -4.154167794594e+00 0.0 
1.565080385988e+01 -1.486411982419e+01 0.0 
1.557610691279e+01 -1.584855627870e+01 0.0 
4.195350646612e+00 -8.089117689096e+00 0.0 
4.124027797830e+00 -9.082831955007e+00 0.0 
4.917944318925e+00 -9.643530901533e+00 0.0 
4.020105689502e+00 -1.007439673661e+01 0.0 
4.587185899277e+01 -1.484039992728e+01 0.0 
4.580078661551e+01 -1.584043391042e+01 0.0 
2.061956522375e+01 -5.046701343981e+00 0.0 
2.139572955529e+01 -5.579553449826e+00 0.0 
3.715344357292e+01 -1.631485124583e+01 0.0 
3.618886196443e+00 -1.500471207167e+01 0.0 
3.695606940204e+00 -1.400939692294e+01 0.0 
2.438890661143e+01 -9.686110599723e+00 0.0 
2.523267572778e+01 -9.276766000622e+00 0.0 
2.446094171539e+01 -8.751904591412e+00 0.0 
2.529089822738e+01 -8.321495612547e+00 0.0 
2.606882688827e+01 -8.864724051119e+00 0.0 
2.452116646430e+01 -7.792756462004e+00 0.0 
1.235543269617e+01 -1.365845617339e+01 0.0 
4.318116874181e+01 -1.618567469992e+01 0.0 
7.835066111909e+00 -5.376366223896e+00 0.0 
7.905687335704e+00 -4.382539065697e+00 0.0 
3.542640009567e+00 -1.600035116542e+01 0.0 
1.572431503071e+01 -1.388358386695e+01 0.0 
2.574684696680e+01 -1.357896141127e+01 0.0 
2.488842657651e+01 -1.399674354505e+01 0.0 
2.568301775611e+01 -1.453552048595e+01 0.0 
2.481535572009e+01 -1.495542756508e+01 0.0 
2.561729699688e+01 -1.549784648532e+01 0.0 
2.474623061296e+01 -1.592058894178e+01 0.0 
2.394234041695e+01 -1.537572575827e+01 0.0 
2.065825452567e+01 -1.621899055217e+01 0.0 
2.387180528935e+01 -1.634552264687e+01 0.0 
4.585364400844e+01 -1.383912334080e+01 0.0 
1.998744432052e+01 -1.370317155541e+01 0.0 
1.205356951443e+01 -6.313580285498e+00 0.0 
5.396543905849e+00 -3.731818611283e+00 0.0 
1.139652573295e+01 -3.745819399350e+00 0.0 
3.574124306703e+00 -4.551456826011e+00 0.0 
3.494140761930e+00 -5.539787055649e+00 0.0 
1.213651452413e+01 -1.664505033022e+01 0.0 
2.555045568519e+01 -1.646529356744e+01 0.0 
2.641671114986e+01 -1.603899382371e+01 0.0 
2.612920721894e+01 -7.906435260873e+00 0.0 
2.690339829698e+01 -8.456969591431e+00 0.0 
1.978024383368e+01 -1.664410216353e+01 0.0 
3.732829979082e+01 -1.336926601859e+01 0.0 
4.074336584605e+01 -1.355133328401e+01 0.0 
4.163204691081e+01 -1.310280943992e+01 0.0 
3.773826114429e+00 -3.493444309145e+00 0.0 
1.228783001032e+01 -3.374822835872e+00 0.0 
4.057110462520e+01 -1.652588478000e+01 0.0 
2.132535497898e+01 -6.523623360525e+00 0.0 
2.216932532211e+01 -6.110044769206e+00 0.0 
1.825781152128e+01 -3.370146817147e+00 0.0 
1.745679445888e+01 -2.812942552063e+00 0.0 
4.666517057280e+01 -1.539981381543e+01 0.0 
4.660575894464e+01 -1.639014410186e+01 0.0 
4.838230979954e+00 -1.063643436446e+01 0.0 
3.938942630206e+00 -1.106778981745e+01 0.0 
1.302967218620e+01 -1.621373452436e+01 0.0 
1.049548003190e+01 -4.204825123240e+00 0.0 
4.573571907195e+01 -1.683820511148e+01 0.0 
1.483686335807e+01 -1.430849689310e+01 0.0 
1.490982658890e+01 -1.332679386284e+01 0.0 
3.190805600162e+00 -9.510968358545e+00 0.0 
2.146625721848e+01 -4.642437303115e+00 0.0 
2.069866208266e+01 -4.111852942193e+00 0.0 
1.286859345584e+01 -6.873252723348e+00 0.0 
1.041794493184e+01 -5.194814260291e+00 0.0 
2.671081808965e+00 -4.976806516331e+00 0.0 
1.295786792925e+01 -1.720506531799e+01 0.0 
3.968438206511e+01 -1.696869067241e+01 0.0 
2.308550456051e+01 -1.579963151273e+01 0.0 
2.315593682844e+01 -1.482967445235e+01 0.0 
2.299471449450e+01 -1.677069968132e+01 0.0 
1.057344714696e+01 -3.214252277840e+00 0.0 
1.124057603753e+01 -1.707713739755e+01 0.0 
2.718402535754e+00 -1.543629882103e+01 0.0 
2.638549692805e+01 -1.696744916809e+01 0.0 
2.723416349007e+01 -1.658104204545e+01 0.0 
2.210193351704e+01 -7.046769643417e+00 0.0 
2.295180925161e+01 -6.657397605239e+00 0.0 
2.301355235833e+01 -5.709111896800e+00 0.0 
2.379052718281e+01 -6.254965406962e+00 0.0 
3.243528601237e+01 -1.214181853533e+01 0.0 
2.287977995457e+01 -7.583722368300e+00 0.0 
2.999876029544e+01 -1.150837653096e+01 0.0 
3.084435366963e+01 -1.109693775882e+01 0.0 
3.006650579669e+01 -1.057778994262e+01 0.0 
2.683802665066e+01 -9.386863216633e+00 0.0 
2.768641973621e+01 -8.988883915666e+00 0.0 
2.040296980397e+01 -7.903629133404e+00 0.0 
1.925235024054e+01 -1.218872783130e+01 0.0 
5.735667000424e+00 -1.020577277283e+01 0.0 
6.396559909872e+00 -1.272326295703e+01 0.0 
1.161199420714e+01 -1.212812778229e+01 0.0 
4.229046132615e+01 -1.663084237572e+01 0.0 
4.312275399692e+01 -1.718087491556e+01 0.0 
4.335502068163e+01 -1.320039231514e+01 0.0 
4.424630298089e+01 -1.275160688731e+01 0.0 
7.090116643816e+00 -3.818998061530e+00 0.0 
7.989472176569e+00 -3.389238711200e+00 0.0 
9.085824861778e+00 -1.144036167408e+01 0.0 
1.041972423731e+01 -1.651614080893e+01 0.0 
3.797525112640e+01 -1.686052038746e+01 0.0 
3.709114253394e+01 -1.730125999865e+01 0.0 
3.626966748340e+01 -1.675477052919e+01 0.0 
1.385164591440e+01 -1.677597757552e+01 0.0 
1.787152588784e+01 -8.198993896093e+00 0.0 
1.668849729812e+01 -1.248560611628e+01 0.0 
1.659546177905e+01 -3.232482605530e+00 0.0 
2.332214717345e+01 -1.292598167641e+01 0.0 
7.168238450786e+00 -2.824711686516e+00 0.0 
2.894878403906e+01 -1.475427524446e+01 0.0 
2.646763248247e+00 -1.643270107952e+01 0.0 
3.467431944285e+00 -1.699648837348e+01 0.0 
2.059475877282e+01 -1.719473628526e+01 0.0 
3.333868355437e+01 -1.080596971682e+01 0.0 
2.246451062637e+01 -1.334557761546e+01 0.0 
2.167821896388e+01 -1.280847834858e+01 0.0 
3.089653185767e+01 -1.017198487212e+01 0.0 
3.012604365669e+01 -9.657298805968e+00 0.0 
2.929627299435e+01 -1.006100135274e+01 0.0 
2.936201435219e+01 -9.136748899251e+00 0.0 
1.198219052702e+01 -7.291887238230e+00 0.0 
1.116702076035e+01 -6.731976101053e+00 0.0 
2.551388807505e+01 -1.746927036981e+01 0.0 
2.378639090370e+01 -1.728678807149e+01 0.0 
2.718543627188e+01 -1.748668016909e+01 0.0 
2.804681050301e+01 -1.712626668293e+01 0.0 
1.970737034667e+01 -1.762317646822e+01 0.0 
1.889535776135e+01 -1.707158098231e+01 0.0 
2.593777711283e+00 -5.971157087874e+00 0.0 
2.773468281110e+01 -8.067164273938e+00 0.0 
4.051205884347e+01 -1.751819982458e+01 0.0 
3.166903145421e+01 -1.068032992414e+01 0.0 
1.033042452886e+01 -1.748285844336e+01 0.0 
9.519274604626e+00 -1.694349240233e+01 0.0 
1.668308673328e+01 -2.255861778986e+00 0.0 
1.570531902832e+01 -2.676795860126e+00 0.0 
4.655826903379e+01 -1.736656245706e+01 0.0 
2.384148070773e+01 -5.328744256413e+00 0.0 
2.460255123641e+01 -5.852182672816e+00 0.0 
2.306638135119e+01 -4.798935440613e+00 0.0 
8.467720450578e-01 -1.849576263072e+01 0.0 
4.849657322345e+01 -1.084860705506e+01 0.0 
2.565860899507e+00 -1.742859793981e+01 0.0 
2.764418872564e+01 -9.927142821799e+00 0.0 
4.565165880064e+01 -1.785336695404e+01 0.0 
2.162231831329e+01 -1.376528337468e+01 0.0 
2.360646352969e+01 -9.136041963102e+00 0.0 
1.392738739903e+01 -1.578285505772e+01 0.0 
4.756405947478e+01 -1.683706841809e+01 0.0 
4.740895034054e+01 -1.793766756892e+01 0.0 
4.080779328826e+01 -1.257387192544e+01 0.0 
4.168907939671e+01 -1.210739129181e+01 0.0 
3.991197722154e+01 -1.300815793917e+01 0.0 
1.905536506762e+01 -3.940076697685e+00 0.0 
1.923879596617e+01 -2.875000734166e+00 0.0 
4.401386745746e+01 -1.673483229438e+01 0.0 
4.247233362525e+00 -7.094581653070e+00 0.0 
3.286051630211e+00 -7.635300020553e+00 0.0 
9.609533347623e+00 -4.594311677967e+00 0.0 
9.523554636369e+00 -5.595597029530e+00 0.0 
5.660336628893e+00 -1.119290329628e+01 0.0 
6.558070063295e+00 -1.076385809362e+01 0.0 
2.809866407414e+01 -1.518037766799e+01 0.0 
2.888868674504e+01 -1.570360690070e+01 0.0 
2.654431550819e+01 -1.411217777162e+01 0.0 
1.402158265969e+01 -1.375404617952e+01 0.0 
1.409592494026e+01 -1.277071998942e+01 0.0 
1.499355196178e+01 -1.235270737023e+01 0.0 
4.221535326155e+01 -1.759335617494e+01 0.0 
4.305583287033e+01 -1.822663146802e+01 0.0 
1.280748808359e+01 -7.834332838285e+00 0.0 
1.368988389326e+01 -7.420529606172e+00 0.0 
1.110091796060e+01 -7.683966794328e+00 0.0 
3.963446145980e+01 -1.794331310122e+01 0.0 
3.423932362213e+00 -1.796415590455e+01 0.0 
4.280814572302e+00 -1.752272834860e+01 0.0 
8.050136380041e+00 -2.421582378631e+00 0.0 
8.888674091650e+00 -2.984264211327e+00 0.0 
2.152839430898e+01 -3.732609965436e+00 0.0 
2.077799585292e+01 -3.183896021866e+00 0.0 
3.618719395821e+01 -1.770276572576e+01 0.0 
3.538165138340e+01 -1.718709995539e+01 0.0 
3.702925326420e+01 -1.828844288807e+01 0.0 
1.756739438711e+00 -5.353284859169e+00 0.0 
2.233710191104e+01 -1.527265621324e+01 0.0 
1.389483555057e+01 -1.771797164730e+01 0.0 
1.475634224300e+01 -1.728357428390e+01 0.0 
1.298797563052e+01 -1.825968924755e+01 0.0 
2.145331271866e+01 -1.673705379077e+01 0.0 
2.133282821169e+01 -1.769400773673e+01 0.0 
2.292139194136e+01 -1.774915400288e+01 0.0 
1.750750053243e+01 -1.861475593469e+00 0.0 
4.830478841772e+01 -1.752611802221e+01 0.0 
4.341203507805e+01 -1.220326745522e+01 0.0 
1.685254151866e+01 -1.443085301632e+00 0.0 
4.431538535165e+01 -1.171841387375e+01 0.0 
4.511308610496e+01 -1.229557320599e+01 0.0 
4.510133242889e+01 -1.123680627466e+01 0.0 
1.846818030617e+00 -4.410877617069e+00 0.0 
3.995468694584e+01 -1.186571542989e+01 0.0 
3.901387459804e+01 -1.242507616755e+01 0.0 
8.966735877533e+00 -1.837818700423e+00 0.0 
4.049310011091e+01 -1.848269508791e+01 0.0 
7.278862053803e+00 -1.918523922691e+00 0.0 
6.429715522129e+00 -2.316676521184e+00 0.0 
9.443505505022e+00 -1.792198868094e+01 0.0 
8.620386951051e+00 -1.737590365556e+01 0.0 
8.571868171503e+00 -1.834436667826e+01 0.0 
7.758629848526e+00 -1.775677907213e+01 0.0 
7.806648388584e+00 -1.680761266021e+01 0.0 
6.908555145436e+00 -1.723746463044e+01 0.0 
4.251709122090e+01 -1.156937480156e+01 0.0 
6.931136405615e+00 -1.832465719263e+01 0.0 
6.015545461353e+00 -1.768865355295e+01 0.0 
5.960535926343e+00 -1.872011001764e+01 0.0 
3.023253444786e+01 -8.761960642196e+00 0.0 
2.454622702599e+01 -6.749421992767e+00 0.0 
2.537499741604e+01 -6.347634963783e+00 0.0 
2.544077378460e+01 -5.431358513649e+00 0.0 
2.801367161747e+01 -1.820907270221e+01 0.0 
2.884507806914e+01 -1.762032095326e+01 0.0 
1.821474531936e+00 -1.588901260460e+01 0.0 
1.821006262604e+00 -1.489370287756e+01 0.0 
4.599962488908e+01 -1.176478780598e+01 0.0 
4.705457470007e+01 -1.172182804229e+01 0.0 
4.667668314802e+01 -1.263464558483e+01 0.0 
4.759648056504e+01 -1.252380987933e+01 0.0 
4.728041618103e+01 -1.341928568376e+01 0.0 
4.825209352360e+01 -1.330491640804e+01 0.0 
4.778118233428e+01 -1.420151961695e+01 0.0 
2.388192727579e+01 -1.826934810142e+01 0.0 
2.381714684947e+01 -4.385917965223e+00 0.0 
3.172733219247e+01 -9.758744265248e+00 0.0 
1.882012070658e+01 -1.805540597212e+01 0.0 
1.805667505243e+01 -1.742221226236e+01 0.0 
2.852599958080e+01 -8.597196079481e+00 0.0 
2.856486123437e+01 -7.661382718527e+00 0.0 
1.111792842875e+01 -1.818223852980e+01 0.0 
2.203322722466e+01 -7.986646678802e+00 0.0 
3.955703676900e+01 -1.903246763601e+01 0.0 
1.944842206513e+01 -8.038750575182e-01 0.0 
1.909882767783e+01 -1.746322740933e+00 0.0 
2.281147422941e+01 -8.525912918334e+00 0.0 
2.850633001468e+01 -9.533271335986e+00 0.0 
2.532883344309e+01 -7.308951659710e+00 0.0 
2.620475466461e+01 -6.979208585400e+00 0.0 
1.396278270396e+01 -1.475095389807e+01 0.0 
9.791001166724e+00 -2.554159793552e+00 0.0 
2.229293380421e+01 -4.269762271052e+00 0.0 
4.677238984118e+01 -1.430071795514e+01 0.0 
2.228658385918e+01 -3.344747535984e+00 0.0 
8.940223674553e-01 -1.543595733415e+01 0.0 
2.118566862474e+01 -8.435876987696e+00 0.0 
2.678325936437e+01 -1.032621195706e+01 0.0 
2.223400220487e+01 -5.179046761770e+00 0.0 
2.375370625384e+01 -7.251580562134e+00 0.0 
3.156971327386e+01 -1.255534750737e+01 0.0 
3.328226391312e+01 -1.172914813316e+01 0.0 
3.250948774219e+01 -1.120157009348e+01 0.0 
2.032993445717e+01 -8.867880112202e+00 0.0 
2.697226974856e+01 -7.536633082045e+00 0.0 
2.707377810386e+01 -6.590835263295e+00 0.0 
2.914099246827e+01 -1.191678458549e+01 0.0 
3.544824072239e+01 -1.621126558525e+01 0.0 
3.456511855436e+01 -1.665054783843e+01 0.0 
3.448395810225e+01 -1.759117813016e+01 0.0 
3.368378673938e+01 -1.708037781328e+01 0.0 
3.375560452567e+01 -1.610973066913e+01 0.0 
3.288001547988e+01 -1.654324255651e+01 0.0 
3.282475929147e+01 -1.749725654692e+01 0.0 
3.199880906313e+01 -1.697294088625e+01 0.0 
3.197001272932e+01 -1.811667776864e+01 0.0 
3.111884713021e+01 -1.742166785755e+01 0.0 
3.120418962865e+01 -1.642155709385e+01 0.0 
3.034666704371e+01 -1.683123833816e+01 0.0 
3.026224379976e+01 -1.772592851714e+01 0.0 
3.046632362943e+01 -1.582232843075e+01 0.0 
1.961344017324e+01 -1.857459447985e+01 0.0 
2.274975894774e+01 -9.532738811922e+00 0.0 
1.833923246887e+01 -2.396746883672e+00 0.0 
1.988859500848e+01 -2.249244376594e+00 0.0 
2.758045562861e+01 -1.086434261689e+01 0.0 
3.247300178163e+01 -1.909930104252e+01 0.0 
3.461947482503e+01 -1.911879848019e+01 0.0 
2.047161538662e+01 -6.941478180358e+00 0.0 
2.750230940214e+01 -1.915490590764e+01 0.0 
3.165081350803e+01 -1.161860780120e+01 0.0 
1.897456727641e+01 -4.889634688522e+00 0.0 
2.549338539756e+01 -1.914858252089e+01 0.0 
3.462873135081e+01 -1.567482276144e+01 0.0 
3.384432415243e+01 -1.512280684518e+01 0.0 
3.471433767690e+01 -1.469086942990e+01 0.0 
3.651470373046e+01 -1.918207952149e+01 0.0 
3.901742690249e+01 -1.345028556517e+01 0.0 
2.153224102692e+01 -1.920169709333e+01 0.0 
1.918382939341e+01 -1.316226275662e+01 0.0 
2.005389162382e+01 -1.271962165174e+01 0.0 
2.011472087878e+01 -1.175029352900e+01 0.0 
3.210679478412e+01 -1.598038618242e+01 0.0 
1.752175226543e+01 -1.914713022656e+01 0.0 
1.696897240059e+01 -1.832772588765e+01 0.0 
1.599682523337e+01 -1.832599992024e+01 0.0 
1.644507199462e+01 -1.743697981535e+01 0.0 
1.549987712903e+01 -1.915192375101e+01 0.0 
3.050250861901e+01 -1.918943550234e+01 0.0 
2.949944061527e+01 -1.922950455235e+01 0.0 
1.375892575273e+01 -6.447160534926e+00 0.0 
1.457223670180e+01 -7.006709243857e+00 0.0 
1.450818793236e+01 -7.965943451779e+00 0.0 
1.538804712402e+01 -7.553409623699e+00 0.0 
1.545817644768e+01 -6.580929593419e+00 0.0 
1.626506893751e+01 -7.129032608911e+00 0.0 
1.619833811522e+01 -8.086588580887e+00 0.0 
1.714448609609e+01 -6.697429609777e+00 0.0 
2.887616543568e+01 -1.668015232137e+01 0.0 
1.349814589130e+01 -1.918225301544e+01 0.0 
1.153887772210e+01 -1.311384581217e+01 0.0 
1.242708159886e+01 -1.267046795531e+01 0.0 
1.249799674267e+01 -1.169005616014e+01 0.0 
6.631723893693e+00 -9.774184881867e+00 0.0 
7.451471631867e+00 -1.033148796006e+01 0.0 
7.377795355458e+00 -1.132196345268e+01 0.0 
5.810931797536e+00 -9.211654212252e+00 0.0 
2.402683899133e+01 -1.441378562320e+01 0.0 
1.249768692036e+01 -1.917388426624e+01 0.0 
1.580373499437e+01 -1.290751860664e+01 0.0 
8.344650507834e+00 -9.898403995170e+00 0.0 
3.750622115305e+01 -1.086526401533e+01 0.0 
3.699391251667e+01 -1.171695900794e+01 0.0 
3.606517829518e+01 -1.173717504500e+01 0.0 
3.650257641795e+01 -1.270047380221e+01 0.0 
3.808951488918e+01 -1.183518714175e+01 0.0 
4.760380962420e+00 -1.162484888315e+01 0.0 
3.861210370848e+00 -1.205657631736e+01 0.0 
3.038284309476e+00 -1.149851280664e+01 0.0 
2.961598794889e+00 -1.248856794980e+01 0.0 
2.138953225512e+00 -1.193212674534e+01 0.0 
2.227383593457e+00 -1.096258903918e+01 0.0 
2.043265419276e+00 -1.292158472959e+01 0.0 
1.252449446028e+00 -1.225502002753e+01 0.0 
3.949985210740e+01 -1.086594001795e+01 0.0 
1.453499444792e+01 -8.768805922472e-01 0.0 
1.403518950933e+01 -1.749965556633e+00 0.0 
1.300715031023e+01 -1.714737233040e+00 0.0 
1.350929389899e+01 -2.527443911291e+00 0.0 
1.449600910711e+01 -2.595486162864e+00 0.0 
1.395693872901e+01 -3.484211041558e+00 0.0 
1.495105865208e+01 -3.364609636216e+00 0.0 
1.508822528740e+01 -1.766586020494e+00 0.0 
1.250223858430e+01 -8.634590186802e-01 0.0 
1.200279523409e+01 -1.709044504992e+00 0.0 
1.150086239419e+01 -8.592789190668e-01 0.0 
1.101482754194e+01 -1.677730591922e+00 0.0 
1.148018564526e+01 -2.659323866909e+00 0.0 
8.800552119754e+00 -3.989875954728e+00 0.0 
3.452790439430e+00 -1.901136170646e+01 0.0 
8.658451825200e-01 -9.503462241795e+00 0.0 
1.694787786797e+00 -9.000589234502e+00 0.0 
1.703436717094e+00 -8.038819004041e+00 0.0 
2.594197971110e+00 -8.563955242845e+00 0.0 
1.630513735412e+00 -9.907244747511e+00 0.0 
8.566859292791e-01 -7.512203837972e+00 0.0 
1.685461277022e+00 -7.164280248030e+00 0.0 
2.506394468801e+00 -8.623386730818e-01 0.0 
2.007475081581e+00 -1.727729545205e+00 0.0 
9.211534699767e-01 -1.628791366312e+00 0.0 
1.500000000020e+00 -2.598063549486e+00 0.0 
2.482078929963e+00 -2.553580088725e+00 0.0 
2.999795253092e+00 -1.732169015019e+00 0.0 
3.999712607169e+00 -1.728832897453e+00 0.0 
4.499752199340e+00 -8.656478679175e-01 0.0 
4.964377774841e+00 -1.730129617941e+00 0.0 
4.425017908337e+00 -2.597541756243e+00 0.0 
5.446573195014e+00 -8.410144840023e-01 0.0 
4.915722346614e+01 -1.550640962770e+01 0.0 
4.826794919243e+01 -1.600000000000e+01 0.0 
1.053139533193e+01 -1.911782884365e+01 0.0 
4.156049861949e+01 -1.095160998589e+01 0.0 
9.494526624416e+00 -8.650570090219e-01 0.0 
4.555762166964e+01 -1.897098103585e+01 0.0 
4.250656411371e+01 -1.914387356218e+01 0.0 
4.350906466345e+01 -1.917234727395e+01 0.0 
8.759665722424e-01 -1.746422130609e+01 0.0 
1.698936011838e+00 -1.795012186674e+01 0.0 
4.742476811029e+01 -1.900090177972e+01 0.0 
7.749196752349e+00 -6.368049313489e+00 0.0 
3.361572113416e+01 -1.798765193915e+01 0.0 
4.484660149212e+01 -1.728661231383e+01 0.0 
1.984038172228e+01 -4.502575320116e+00 0.0 
1.035080352627e+01 -6.166639575753e+00 0.0 
2.753558010652e+00 -1.444909521181e+01 0.0 
7.217069543032e+00 -1.328635391078e+01 0.0 
4.364336727739e+00 -1.655585677381e+01 0.0 
4.595208426108e+00 -1.357919665443e+01 0.0 
6.164967006980e+00 -1.569873454630e+01 0.0 
1.487855768353e+01 -1.826523774028e+01 0.0 
2.791876456372e+00 -4.019632415181e+00 0.0 
4.246464893515e+01 -1.364898659620e+01 0.0 
4.503855590351e+01 -1.329552780944e+01 0.0 
4.407239109604e+01 -1.573900004093e+01 0.0 
5.141054449252e+00 -6.664290382472e+00 0.0 
3.141083947149e+00 -1.055790764912e+01 0.0 
6.196463198741e+00 -4.256497932609e+00 0.0 
2.599618716181e+01 -1.836893455464e+01 0.0 
2.923057372337e+01 -1.098461757645e+01 0.0 
1.168343877486e+01 -1.114079645041e+01 0.0 
6.706222096238e+00 -8.780364234441e+00 0.0 
8.567858614669e+00 -6.943121440850e+00 0.0 
1.123755132901e+01 -5.753525820030e+00 0.0 
2.353456234423e+01 -1.008536320953e+01 0.0 
9.162073319168e+00 -1.045593739109e+01 0.0 
9.676343469685e+00 -1.496493008366e+01 0.0 
4.490637882905e+01 -1.628778970202e+01 0.0 
7.398129387772e+00 -9.639977982323e-01 0.0 
1.049641705805e+01 -1.552503975272e+01 0.0 
9.010356286268e+00 -1.242805042052e+01 0.0 
3.985573925497e+01 -1.399863651620e+01 0.0 
1.816196318262e+01 -1.554066497931e+01 0.0 
1.306332244168e+01 -3.963646550326e+00 0.0 
4.145850903932e+01 -1.608094559275e+01 0.0 
3.794664933633e+01 -1.779020121986e+01 0.0 
3.819614412903e+01 -1.290749321016e+01 0.0 
6.270014188119e+00 -3.255093186826e+00 0.0 
4.251165370388e+01 -1.263870364997e+01 0.0 
1.207347709171e+01 -1.763942826023e+01 0.0 
3.633240829927e+01 -1.577330481104e+01 0.0 
4.319052668832e+00 -6.101812561904e+00 0.0 
1.676492415806e+01 -1.151547901392e+01 0.0 
2.594059220037e+01 -1.074225223009e+01 0.0 
3.340750911501e+01 -9.898764354137e+00 0.0 
4.397619591281e+01 -1.769773736461e+01 0.0 
2.175611595028e+01 -1.185718747128e+01 0.0 
1.641818733106e+01 -1.640685203215e+01 0.0 
1.661211421753e+01 -1.346121366338e+01 0.0 
3.428853504935e+00 -6.551993389271e+00 0.0 
8.700728832502e+00 -1.638460872825e+01 0.0 
1.931369795309e+01 -1.121629383702e+01 0.0 
4.139798872363e+01 -1.706922153459e+01 0.0 
2.647837478700e+01 -1.507353829290e+01 0.0 
1.779469616424e+01 -9.161615782908e+00 0.0 
3.885879219319e+01 -1.642026488918e+01 0.0 
1.338194936770e+01 -1.125916521471e+01 0.0 
1.897071181111e+01 -1.609204322578e+01 0.0 
2.844308548793e+01 -1.046221003096e+01 0.0 
2.659854702194e+01 -1.316109415760e+01 0.0 
2.979604503271e+01 -1.433296157755e+01 0.0 
2.417694041347e+01 -1.251231397779e+01 0.0 
1.807401327411e+00 -1.388891148480e+01 0.0 
9.599810618782e+00 -1.595439365034e+01 0.0 
1.652144692160e+01 -4.205392788472e+00 0.0 
2.367839450246e+01 -8.188385218643e+00 0.0 
3.814894930468e+01 -1.390748338767e+01 0.0 
2.466448215774e+01 -1.685878545680e+01 0.0 
4.134044524611e+01 -1.806610045954e+01 0.0 
2.600511411958e+01 -9.801774120648e+00 0.0 
7.882158050716e+00 -1.582364037353e+01 0.0 
3.881607873422e+01 -1.737970515013e+01 0.0 
8.270182347708e+00 -1.088622154920e+01 0.0 
8.672520392520e-01 -4.532984309881e+00 0.0 
1.993447205337e+01 -3.579061902667e+00 0.0 
1.794616079549e+01 -7.238038888498e+00 0.0 
2.097277068165e+01 -1.132450168636e+01 0.0 
8.194803300681e+00 -1.187214224265e+01 0.0 
3.522279404911e+01 -1.823342818178e+01 0.0 
6.984481050295e+00 -1.625271465557e+01 0.0 
1.309433007797e+01 -1.521718594215e+01 0.0 
2.150246167611e+01 -1.885399038185e+00 0.0 
3.250689370209e+01 -1.028789870535e+01 0.0 
6.085886272238e+00 -1.668342132851e+01 0.0 
1.588455661727e+01 -1.193498985921e+01 0.0 
1.809323400821e+01 -1.651110084195e+01 0.0 
1.348885082381e+00 -1.136065576512e+01 0.0 
2.497670221995e+01 -1.834631276173e+01 0.0 
2.937062818424e+01 -8.233711194470e+00 0.0 
5.185823744469e+00 -1.711566910207e+01 0.0 
1.477497877209e+01 -1.530177014512e+01 0.0 
2.125346158933e+01 -7.473003997367e+00 0.0 
4.751561118290e+01 -1.084897772632e+01 0.0 
5.056026576843e+00 -1.825750475525e+01 0.0 
1.473948554523e+01 -1.634577436309e+01 0.0 
2.410566630936e+01 -1.345970002612e+01 0.0 
1.507337507513e+01 -1.138527895328e+01 0.0 
3.189857338687e+01 -8.887781229006e+00 0.0 
7.298712468334e+00 -1.230231046246e+01 0.0 
2.738235495295e+01 -1.368931690364e+01 0.0 
3.750141041969e+01 -1.920449893070e+01 0.0 
1.557271965640e+01 -1.683317951731e+01 0.0 
3.393731848929e+01 -1.413034777044e+01 0.0 
6.482156824153e+00 -1.174575135362e+01 0.0 
2.077971718439e+01 -1.421279621836e+01 0.0 
3.455084320178e+00 -2.562590040585e+00 0.0 
3.099056096250e+01 -9.270280416035e+00 0.0 
5.580176125418e+00 -1.217387969259e+01 0.0 
1.707247630389e+01 -7.660651981710e+00 0.0 
1.418658814174e+01 -1.180390575393e+01 0.0 
2.049103025389e+01 -1.811296706038e+01 0.0 
4.680386172316e+00 -1.260396879301e+01 0.0 
1.699679896554e+01 -8.624561788199e+00 0.0 
3.779470168555e+00 -1.303424899720e+01 0.0 
3.036589870126e+01 -7.879832518349e+00 0.0 
3.306993001774e+01 -1.457671062095e+01 0.0 
2.840150110165e+00 -1.346530088269e+01 0.0 
2.732011135052e+01 -1.464591214560e+01 0.0 
5.423639259568e+00 -2.659711955016e+00 0.0 
2.324455961696e+01 -1.387269388211e+01 0.0 
1.752768355571e+00 -1.693128613594e+01 0.0 
1.020244783051e+01 -8.076834012808e+00 0.0 
1.330873875224e+01 -1.222417528206e+01 0.0 
3.297727364880e+01 -1.555480372087e+01 0.0 
2.890929955439e+01 -6.868664170731e+00 0.0 
1.323294664622e+01 -1.320754260334e+01 0.0 
2.726532861246e+01 -1.560593120806e+01 0.0 
2.240020643398e+01 -1.429299177247e+01 0.0 
2.090445823633e+01 -1.228128621332e+01 0.0 
1.315809881502e+01 -1.420739326938e+01 0.0 
2.781328038068e+01 -7.181956082300e+00 0.0 
8.614200829057e+00 -5.936933226306e+00 0.0 
8.714765730069e+00 -4.979270529687e+00 0.0 
1.611881701099e+01 -9.041973294003e+00 0.0 
2.806830314340e+01 -1.614622947108e+01 0.0 
2.084435391396e+00 -3.385085422913e+00 0.0 
3.133211811152e+01 -1.542347619750e+01 0.0 
9.693114650768e+00 -3.590281506442e+00 0.0 
1.531883592202e+01 -8.504584946143e+00 0.0 
2.151589117094e+01 -1.578915763018e+01 0.0 
4.918943882696e+01 -1.355538828056e+01 0.0 
1.443236615188e+01 -8.918701794549e+00 0.0 
8.276250966452e-01 -5.537685192197e+00 0.0 
1.362790867918e+01 -8.374718262212e+00 0.0 
2.083767477370e+01 -1.324843956035e+01 0.0 
1.273834678703e+01 -8.790890389337e+00 0.0 
1.192275845670e+01 -8.242261327467e+00 0.0 
4.477236023583e+01 -1.824312396664e+01 0.0 
1.102989384254e+01 -8.649855800911e+00 0.0 
4.849096516045e+01 -1.917293752213e+01 0.0 
1.588996752238e+00 -1.910230934687e+01 0.0 
4.904245197583e+01 -1.159839008158e+01 0.0 
2.753852929608e+01 -5.782128488093e+00 0.0 
1.756133602833e+01 -8.306130313187e-01 0.0 
2.615423700951e+01 -6.153865090092e+00 0.0 
1.028818761294e+01 -7.122020845892e+00 0.0 
2.970818901196e+01 -1.527821347593e+01 0.0 
4.801461623449e+01 -1.164472570985e+01 0.0 
9.455722100419e+00 -6.546069291118e+00 0.0 
3.089099236677e+01 -1.835339328261e+01 0.0 
2.350000000013e+01 -1.920825896750e+01 0.0 
4.830620531887e+01 -1.506626155470e+01 0.0 
1.725381944701e+01 -1.688794487850e+01 0.0 
2.156246225273e+01 -1.475893794002e+01 0.0 
4.919319648787e+01 -1.742767505896e+01 0.0 
4.437935623576e+01 -1.077662927266e+01 0.0 
1.001520521978e+01 -1.652692675208e+00 0.0 
9.067160240050e-01 -1.441937727541e+01 0.0 
2.603365149390e+01 -4.755996613848e+00 0.0 
2.458344439002e+01 -4.873645517696e+00 0.0 
2.304312390142e+01 -3.836552768096e+00 0.0 
2.546923202198e+00 -6.902480355749e+00 0.0 
1.251534969393e+01 -2.490989965776e+00 0.0 
2.454061833377e+01 -3.933354231935e+00 0.0 
1.788186558740e+01 -1.827424884923e+01 0.0 
4.090785243552e+01 -1.166553231904e+01 0.0 
2.230128851568e+01 -1.623015738726e+01 0.0 
2.302362347568e+01 -2.916239960270e+00 0.0 
3.878119254461e+01 -1.830091164002e+01 0.0 
2.210081359958e+01 -1.829238229150e+01 0.0 
8.443704882233e+00 -1.921993252862e+01 0.0 
2.218405824691e+01 -1.724557581508e+01 0.0 
2.151157503963e+01 -2.790636689331e+00 0.0 
3.741658958955e+01 -1.250400191722e+01 0.0 
2.697247663737e+01 -1.838290202309e+01 0.0 
4.743362342862e+01 -1.585850773010e+01 0.0 
6.671345075358e+00 -1.924977576322e+01 0.0 
3.900825404537e+01 -1.157220003875e+01 0.0 
4.649692961375e+01 -1.836335837481e+01 0.0 
1.578831424832e+01 -3.678284023361e+00 0.0 
4.814208768888e+01 -1.841249298770e+01 0.0 
2.964123298315e+01 -1.625739458193e+01 0.0 
4.580760351902e+01 -1.284294554687e+01 0.0 
3.561520879615e+01 -1.245548941949e+01 0.0 
2.555418095658e+00 -1.841101588290e+01 0.0 
3.288468366144e+01 -1.834258164109e+01 0.0 
2.065894391445e+01 -2.240688571739e+00 0.0 
4.739171429915e+01 -1.496536413446e+01 0.0 
3.478086729185e+00 -8.576434653209e+00 0.0 
1.606010630246e+01 -1.588421807951e+00 0.0 
1.018329200594e+01 -1.834320874317e+01 0.0 
2.957213339430e+01 -1.720496954591e+01 0.0 
4.142712790164e+00 -1.837794506222e+01 0.0 
6.698721532573e-01 -2.499999999997e+00 0.0 
8.037039123140e+00 -1.571229354954e+00 0.0 
1.203541361428e+01 -1.847784298001e+01 0.0 
2.899968332038e+01 -1.848264722179e+01 0.0 
1.469229460948e+01 -4.219485753730e+00 0.0 
4.049590781957e+01 -1.932812501995e+01 0.0 
1.996211678340e+01 -1.506329754720e+00 0.0 
4.250588298353e+01 -1.067383247529e+01 0.0 
5.831497011152e+00 -1.635396227234e+00 0.0 
5.317606125670e+00 -1.923927974868e+01 0.0 
4.208546426993e+01 -1.842830665025e+01 0.0 
2.327553405011e+00 -9.459409929662e+00 0.0 
3.568351902251e+01 -1.096637218582e+01 0.0 
1.682104374890e+00 -6.231413350963e+00 0.0 
2.451812238018e+01 -1.766524914339e+01 0.0 
1.058003429638e+01 -2.391839617098e+00 0.0 
4.399988753123e+01 -1.851998776342e+01 0.0 
1.400000000010e+01 -1.852293523028e+01 0.0 
3.604719565984e+01 -1.850662876800e+01 0.0 
1.951297136734e+01 -1.938092349694e+01 0.0 
1.821365318472e+01 -1.531276353287e+00 0.0 
2.298031859732e+01 -1.854635324722e+01 0.0 
1.552168066204e+01 -1.764280741977e+01 0.0 
4.572957713638e+01 -1.073347898229e+01 0.0 
3.429637429624e+01 -1.838861552790e+01 0.0 
2.427434426052e+00 -7.705577451869e+00 0.0 
4.662792031485e+00 -3.359424455416e+00 0.0 
4.926794919243e+01 -1.926794919243e+01 0.0 
7.320508075690e-01 -7.320508075688e-01 0.0 
4.926794919243e+01 -1.073205080757e+01 0.0 
7.320508075705e-01 -1.926794919243e+01 0.0 
2.917460242467e+00 -3.202866455310e+00 0.0 
4.838200575963e+01 -1.232674147454e+01 0.0 
2.998445708009e+01 -1.854403752148e+01 0.0 
5.949940090766e-01 -1.152762038165e+01 0.0 
4.844763495759e+01 -1.678092548787e+01 0.0 
1.301685480160e+01 -3.170056592566e+00 0.0 
1.650046335855e+01 -6.731535384067e-01 0.0 
4.854881540991e+01 -1.405224059779e+01 0.0 
2.119545114693e+01 -1.846813384545e+01 0.0 
3.797852849897e+01 -1.857978513215e+01 0.0 
4.649823708745e+01 -1.338351810816e+01 0.0 
2.012685900976e+01 -2.889659035009e+00 0.0 
2.953271913273e+01 -1.791558075192e+01 0.0 
2.408509097292e+00 -1.021949208421e+01 0.0 
2.642589566221e+01 -1.773216561448e+01 0.0 
1.730010270775e+01 -1.763165076721e+01 0.0 
2.017406551304e+01 -8.513536440582e-01 0.0 
5.254761581934e-01 -1.249999999999e+01 0.0 
6.640448215642e+00 -1.545337834885e+00 0.0 
7.843361506349e+00 -1.852719839527e+01 0.0 
1.588442191088e+00 -1.066158564320e+01 0.0 
2.580823483239e+01 -3.416278049680e+00 0.0 
4.950961538461e+01 -3.500000000000e+00 0.0 
2.731250000000e+01 -4.420918367347e+00 0.0 
4.951086956522e+01 -4.500000000000e+00 0.0 
2.880770112393e+01 -5.415638864241e+00 0.0 
4.951086956522e+01 -5.500000000000e+00 0.0 
3.031250000000e+01 -6.420918367347e+00 0.0 
4.951250000000e+01 -6.500000000000e+00 0.0 
3.180701530612e+01 -7.414795918363e+00 0.0 
4.951250000000e+01 -7.500000000000e+00 0.0 
3.331250000000e+01 -8.420918367347e+00 0.0 
4.951470588234e+01 -8.500000000000e+00 0.0 
3.480610198624e+01 -9.413633635267e+00 0.0 
4.951470588234e+01 -9.500000000000e+00 0.0 

CELLS 2241 8964 
3 328 798 1074 
3 798 328 1076 
3 808 301 819 
3 921 686 1110 
3 688 748 914 
3 778 691 817 
3 308 730 732 
3 328 755 1076 
3 730 308 748 
3 681 916 1110 
3 300 875 876 
3 755 328 1090 
3 920 1072 1116 
3 737 868 958 
3 1072 334 1116 
3 327 921 1110 
3 736 307 877 
3 691 778 816 
3 315 735 1057 
3 735 315 995 
3 916 681 1069 
3 1046 292 1052 
3 773 1046 1052 
3 723 722 932 
3 422 578 867 
3 875 300 984 
3 112 82 1137 
3 767 293 1009 
3 420 422 867 
3 932 722 1142 
3 672 882 884 
3 325 738 915 
3 808 819 1117 
3 19 313 788 
3 323 742 744 
3 751 66 1108 
3 66 751 1134 
3 770 319 814 
3 734 103 1087 
3 103 734 1148 
3 1010 752 1036 
3 288 774 913 
3 1091 289 1095 
3 82 337 1137 
3 729 336 1086 
3 768 1091 1095 
3 882 672 885 
3 336 729 1112 
3 878 879 885 
3 868 737 1109 
3 330 773 1010 
3 720 735 995 
3 498 1111 1129 
3 330 1010 1036 
3 820 302 1000 
3 1093 665 1138 
3 720 995 1064 
3 313 758 788 
3 581 909 1027 
3 916 327 1110 
3 287 1121 1162 
3 1101 727 1103 
3 547 575 781 
3 1111 884 1129 
3 892 711 1116 
3 773 330 1046 
3 1121 731 1162 
3 301 808 1081 
3 608 569 890 
3 297 756 822 
3 984 927 1038 
3 33 32 776 
3 767 1009 1139 
3 4 5 902 
3 899 1093 1138 
3 739 304 990 
3 820 1000 1149 
3 787 1092 1099 
3 909 581 1151 
3 1092 329 1099 
3 569 582 890 
3 307 736 1097 
3 292 798 1052 
3 798 292 1074 
3 748 688 960 
3 730 748 960 
3 759 984 1089 
3 18 19 788 
3 813 810 1058 
3 688 914 1097 
3 915 738 1088 
3 339 866 1137 
3 912 1083 1107 
3 1107 1083 1119 
3 305 33 776 
3 814 319 1144 
3 736 877 1109 
3 913 774 1122 
3 333 765 1062 
3 781 575 782 
3 914 748 1132 
3 334 892 1116 
3 495 1061 1085 
3 726 1101 1103 
3 616 614 792 
3 879 882 885 
3 919 920 1042 
3 685 912 1107 
3 287 878 885 
3 1015 310 1134 
3 460 813 1058 
3 4 902 1153 
3 683 779 815 
3 650 966 1004 
3 694 896 1120 
3 754 781 782 
3 549 547 781 
3 323 744 1102 
3 765 333 1157 
3 753 549 781 
3 784 714 1059 
3 337 339 1137 
3 912 685 1160 
3 549 753 792 
3 1104 1003 1118 
3 769 1019 1028 
3 896 694 1150 
3 1019 294 1028 
3 304 739 1130 
3 716 1104 1118 
3 875 984 1038 
3 686 921 1112 
3 623 680 780 
3 294 752 1028 
3 742 323 1122 
3 920 677 1072 
3 759 927 984 
3 780 680 980 
3 724 852 1142 
3 656 772 780 
3 706 917 918 
3 756 297 1128 
3 958 868 1105 
3 565 537 786 
3 772 623 780 
3 752 294 1036 
3 680 818 980 
3 792 618 987 
3 308 732 1087 
3 779 414 815 
3 738 325 1126 
3 1073 1079 1157 
3 903 315 1057 
3 331 769 1004 
3 852 724 861 
3 753 616 792 
3 788 759 1089 
3 755 289 1091 
3 1061 721 1085 
3 314 760 761 
3 775 414 779 
3 758 313 1042 
3 608 784 1059 
3 920 679 1042 
3 795 668 823 
3 310 1015 1124 
3 1073 678 1079 
3 614 618 792 
3 966 331 1004 
3 300 876 1173 
3 289 755 1090 
3 414 775 789 
3 537 588 786 
3 760 314 1148 
3 618 779 987 
3 769 331 1019 
3 662 851 1056 
3 896 597 1120 
3 293 767 1082 
3 822 756 1106 
3 754 782 1076 
3 597 896 1136 
3 839 969 1023 
3 772 656 1010 
3 755 754 1076 
3 795 650 1004 
3 779 683 987 
3 303 916 1069 
3 426 835 1045 
3 313 919 1042 
3 768 329 1092 
3 624 789 1013 
3 810 835 1058 
3 81 113 777 
3 656 752 1010 
3 1012 684 1016 
3 908 1040 1133 
3 923 316 1149 
3 421 346 828 
3 1043 402 1070 
3 532 1012 1016 
3 866 339 1115 
3 867 578 1105 
3 722 724 1142 
3 1053 944 1080 
3 790 361 818 
3 620 510 823 
3 427 421 828 
3 617 795 823 
3 668 795 1004 
3 566 1026 1066 
3 851 700 1056 
3 777 311 778 
3 782 798 1076 
3 782 575 797 
3 680 790 818 
3 835 805 1045 
3 691 690 996 
3 684 783 1002 
3 734 760 1148 
3 789 775 1013 
3 480 1002 1051 
3 740 950 1174 
3 826 427 828 
3 950 296 1174 
3 908 909 1040 
3 329 768 1095 
3 1053 696 1054 
3 800 427 826 
3 696 695 1054 
3 676 785 791 
3 502 883 955 
3 714 891 1059 
3 969 532 1023 
3 668 620 823 
3 711 892 1124 
3 113 311 777 
3 585 615 791 
3 375 414 789 
3 773 772 1010 
3 783 684 1012 
3 751 1015 1134 
3 1037 426 1045 
3 484 466 821 
3 532 1016 1023 
3 984 300 1089 
3 818 428 980 
3 827 828 1024 
3 727 1101 1146 
3 375 789 796 
3 615 676 791 
3 345 617 793 
3 776 32 1130 
3 361 790 965 
3 834 377 973 
3 761 760 762 
3 890 582 1094 
3 617 794 795 
3 584 484 821 
3 690 824 925 
3 672 884 1111 
3 427 800 962 
3 510 793 823 
3 549 792 987 
3 800 639 962 
3 835 426 1058 
3 428 799 941 
3 295 749 1108 
3 625 834 973 
3 353 619 799 
3 683 815 946 
3 625 833 834 
3 467 483 824 
3 865 306 866 
3 379 376 796 
3 496 847 848 
3 827 1037 1045 
3 113 114 311 
3 617 343 794 
3 466 464 821 
3 540 585 791 
3 469 467 824 
3 348 345 793 
3 738 784 1088 
3 576 666 797 
3 625 832 833 
3 793 617 823 
3 865 866 867 
3 586 691 816 
3 496 848 850 
3 497 500 847 
3 782 797 798 
3 827 1024 1037 
3 575 576 797 
3 462 379 796 
3 789 624 796 
3 586 690 691 
3 815 371 946 
3 715 785 787 
3 37 302 820 
3 39 316 819 
3 362 361 965 
3 483 466 484 
3 539 540 598 
3 354 353 799 
3 483 484 539 
3 496 497 847 
3 428 941 980 
3 917 706 1135 
3 821 624 1013 
3 1026 682 1066 
3 715 598 785 
3 320 57 840 
3 539 484 540 
3 359 428 818 
3 586 490 690 
3 862 555 970 
3 376 375 796 
3 500 844 847 
3 619 510 620 
3 42 841 842 
3 464 462 624 
3 625 453 832 
3 599 598 715 
3 830 515 953 
3 1002 783 1051 
3 615 616 674 
3 689 830 953 
3 318 45 822 
3 592 684 1002 
3 41 301 841 
3 958 578 988 
3 813 460 1078 
3 676 674 768 
3 621 620 653 
3 353 510 619 
3 353 351 510 
3 429 965 991 
3 293 47 825 
3 420 867 1115 
3 794 650 795 
3 624 462 796 
3 695 891 1054 
3 653 668 769 
3 615 614 616 
3 314 761 1014 
3 500 843 844 
3 464 624 821 
3 804 826 827 
3 585 614 615 
3 619 620 621 
3 453 455 832 
3 628 855 942 
3 50 317 831 
3 656 654 752 
3 468 470 850 
3 709 1043 1070 
3 675 754 755 
3 674 616 675 
3 810 807 835 
3 359 357 428 
3 666 772 773 
3 621 653 654 
3 54 319 836 
3 319 770 1096 
3 807 805 835 
3 827 826 828 
3 855 395 942 
3 547 548 575 
3 467 466 483 
3 465 464 466 
3 361 359 818 
3 642 862 970 
3 410 856 857 
3 803 801 804 
3 470 496 850 
3 544 429 545 
3 799 619 941 
3 546 545 547 
3 301 40 819 
3 316 38 820 
3 316 923 1117 
3 628 854 855 
3 639 541 962 
3 615 674 676 
3 463 462 464 
3 690 490 824 
3 576 623 666 
3 864 865 868 
3 830 958 988 
3 840 838 932 
3 811 810 813 
3 345 343 617 
3 352 351 353 
3 490 469 824 
3 887 889 890 
3 414 373 815 
3 367 365 429 
3 373 371 815 
3 284 1003 1104 
3 761 762 763 
3 891 695 1059 
3 540 584 585 
3 57 56 840 
3 474 476 566 
3 338 650 794 
3 315 903 1125 
3 965 790 991 
3 375 373 414 
3 351 348 793 
3 297 43 842 
3 653 620 668 
3 357 354 799 
3 410 857 863 
3 801 800 826 
3 628 853 854 
3 44 297 822 
3 41 40 301 
3 37 36 302 
3 39 38 316 
3 350 348 351 
3 804 801 826 
3 809 807 810 
3 547 545 548 
3 575 548 576 
3 859 856 943 
3 803 804 805 
3 46 318 825 
3 718 639 800 
3 832 566 833 
3 718 800 801 
3 559 557 860 
3 367 429 544 
3 666 623 772 
3 539 598 599 
3 305 776 1100 
3 546 547 549 
3 940 659 1009 
3 856 410 943 
3 501 504 843 
3 320 840 932 
3 585 613 614 
3 42 41 841 
3 316 820 1149 
3 358 357 359 
3 887 888 889 
3 44 43 297 
3 285 836 837 
3 500 501 843 
3 455 474 832 
3 291 51 831 
3 121 286 888 
3 544 545 546 
3 356 354 357 
3 360 359 361 
3 428 357 799 
3 598 540 791 
3 46 45 318 
3 461 379 462 
3 587 586 816 
3 749 295 1175 
3 888 286 889 
3 655 654 656 
3 882 883 884 
3 769 668 1004 
3 285 55 836 
3 48 47 293 
3 510 351 793 
3 879 881 882 
3 728 587 816 
3 882 881 883 
3 972 670 985 
3 864 306 865 
3 340 338 794 
3 50 49 317 
3 322 864 868 
3 302 36 829 
3 562 559 860 
3 689 737 830 
3 675 753 754 
3 474 566 832 
3 690 925 996 
3 52 51 291 
3 40 39 819 
3 38 37 820 
3 628 436 853 
3 431 433 859 
3 367 544 946 
3 436 438 853 
3 54 53 319 
3 540 484 584 
3 847 846 848 
3 844 845 846 
3 579 689 953 
3 58 320 852 
3 879 880 881 
3 56 55 285 
3 843 708 844 
3 43 42 842 
3 809 810 811 
3 120 121 888 
3 544 683 946 
3 638 541 639 
3 45 44 822 
3 350 351 352 
3 605 562 606 
3 599 715 716 
3 838 837 839 
3 600 707 708 
3 844 708 845 
3 878 321 879 
3 47 46 825 
3 824 483 925 
3 592 640 684 
3 689 736 737 
3 926 658 945 
3 844 846 847 
3 352 353 354 
3 51 50 831 
3 433 535 859 
3 444 480 550 
3 364 362 365 
3 703 596 704 
3 848 846 849 
3 853 550 854 
3 365 362 965 
3 701 558 975 
3 474 475 476 
3 366 365 367 
3 403 405 863 
3 585 584 613 
3 431 859 943 
3 606 562 860 
3 430 453 625 
3 56 285 840 
3 717 639 718 
3 601 926 945 
3 55 54 836 
3 285 837 838 
3 372 371 373 
3 879 321 880 
3 59 852 861 
3 802 801 803 
3 504 600 843 
3 58 57 320 
3 438 444 853 
3 576 622 623 
3 343 340 794 
3 430 625 973 
3 434 628 942 
3 596 555 862 
3 828 346 1024 
3 655 780 980 
3 476 494 495 
3 763 762 764 
3 405 410 863 
3 455 457 474 
3 600 657 707 
3 627 449 928 
3 119 120 886 
3 614 613 618 
3 600 708 843 
3 856 698 857 
3 370 368 371 
3 444 550 853 
3 579 687 689 
3 504 567 600 
3 59 58 852 
3 356 357 358 
3 626 697 698 
3 358 359 360 
3 626 698 856 
3 886 120 888 
3 342 340 343 
3 895 894 896 
3 296 126 910 
3 535 590 626 
3 444 479 480 
3 924 594 949 
3 704 862 1006 
3 704 596 862 
3 338 298 650 
3 322 110 864 
3 719 829 1022 
3 360 361 362 
3 126 127 910 
3 714 634 891 
3 880 886 887 
3 696 1053 1080 
3 612 662 1056 
3 692 924 949 
3 489 972 985 
3 413 411 922 
3 451 449 627 
3 592 603 640 
3 509 490 586 
3 326 894 895 
3 299 898 899 
3 288 60 861 
3 60 59 861 
3 894 893 897 
3 626 590 697 
3 434 436 628 
3 640 722 723 
3 634 553 891 
3 487 572 592 
3 908 906 909 
3 535 626 859 
3 857 698 858 
3 312 905 906 
3 326 893 894 
3 638 639 717 
3 127 128 907 
3 111 306 864 
3 111 112 306 
3 555 459 970 
3 299 10 898 
3 600 567 657 
3 785 598 791 
3 745 743 746 
3 825 318 940 
3 629 523 956 
3 675 616 753 
3 738 714 784 
3 621 654 655 
3 107 307 914 
3 106 107 914 
3 127 907 910 
3 907 906 908 
3 901 903 904 
3 477 418 552 
3 312 900 905 
3 893 290 897 
3 287 117 878 
3 418 413 922 
3 766 764 786 
3 109 110 322 
3 662 757 851 
3 438 443 444 
3 763 764 765 
3 10 11 898 
3 901 904 905 
3 30 29 917 
3 304 30 917 
3 689 687 736 
3 307 108 877 
3 898 895 899 
3 28 303 918 
3 552 418 922 
3 110 111 864 
3 109 322 877 
3 653 769 1028 
3 36 35 829 
3 917 29 918 
3 312 906 907 
3 128 312 907 
3 713 634 714 
3 857 858 994 
3 919 677 920 
3 116 117 287 
3 324 911 912 
3 118 321 878 
3 595 555 596 
3 118 119 321 
3 117 118 878 
3 702 596 703 
3 648 711 712 
3 765 764 766 
3 941 655 980 
3 900 901 905 
3 450 451 930 
3 25 24 921 
3 327 25 921 
3 108 109 877 
3 531 459 555 
3 29 28 918 
3 605 606 721 
3 901 902 903 
3 900 335 901 
3 901 335 902 
3 11 12 326 
3 334 69 892 
3 80 79 336 
3 130 335 900 
3 13 290 893 
3 70 69 334 
3 68 310 892 
3 61 288 913 
3 76 309 911 
3 78 77 324 
3 69 68 892 
3 68 67 310 
3 324 77 911 
3 130 131 335 
3 104 105 308 
3 107 108 307 
3 312 129 900 
3 65 64 295 
3 323 62 913 
3 63 62 323 
3 129 130 900 
3 128 129 312 
3 61 60 288 
3 62 61 913 
3 76 75 309 
3 101 102 314 
3 77 76 911 
3 74 73 333 
3 99 100 678 
3 125 126 296 
3 123 124 325 
3 122 123 915 
3 121 122 286 
3 13 14 290 
3 12 13 893 
3 123 325 915 
3 16 17 300 
3 286 122 915 
3 34 33 305 
3 28 27 303 
3 31 30 304 
3 6 7 315 
3 9 10 299 
3 27 26 916 
3 19 20 313 
3 26 25 327 
3 20 21 919 
3 21 22 677 
3 326 12 893 
3 303 27 916 
3 26 327 916 
3 313 20 919 
3 21 677 919 
3 542 543 927 
3 321 119 886 
3 433 534 535 
3 907 908 910 
3 745 746 747 
3 626 856 859 
3 508 492 929 
3 477 552 553 
3 1040 741 1133 
3 648 712 929 
3 535 536 590 
3 326 895 898 
3 492 554 929 
3 685 686 729 
3 11 326 898 
3 480 479 487 
3 442 440 493 
3 542 491 543 
3 610 542 927 
3 461 462 463 
3 655 656 780 
3 371 368 946 
3 450 449 451 
3 554 647 648 
3 758 610 759 
3 601 695 696 
3 673 594 681 
3 589 538 594 
3 734 733 760 
3 448 446 449 
3 491 450 930 
3 685 673 686 
3 589 673 685 
3 493 440 952 
3 648 679 711 
3 551 523 629 
3 758 759 788 
3 749 747 750 
3 681 594 924 
3 528 526 529 
3 444 443 479 
3 488 570 571 
3 507 593 601 
3 713 714 738 
3 880 321 886 
3 589 594 673 
3 648 647 679 
3 887 886 888 
3 806 805 807 
3 732 632 733 
3 478 492 508 
3 554 610 647 
3 657 658 709 
3 647 610 758 
3 732 733 734 
3 474 457 475 
3 749 750 751 
3 720 602 735 
3 744 743 745 
3 537 529 538 
3 571 602 665 
3 601 696 926 
3 873 871 874 
3 525 527 631 
3 412 416 431 
3 588 538 589 
3 528 537 565 
3 697 590 869 
3 759 610 927 
3 554 542 610 
3 537 538 588 
3 530 482 568 
3 590 536 591 
3 563 649 725 
3 529 936 949 
3 535 534 536 
3 442 493 928 
3 742 670 743 
3 528 529 537 
3 671 587 728 
3 645 740 741 
3 471 469 490 
3 554 648 929 
3 527 526 528 
3 875 873 876 
3 631 632 730 
3 592 572 603 
3 869 591 870 
3 492 542 554 
3 571 570 602 
3 745 747 749 
3 590 591 869 
3 665 602 720 
3 591 536 938 
3 431 432 433 
3 417 413 418 
3 872 873 875 
3 125 296 950 
3 325 124 950 
3 543 491 930 
3 488 530 570 
3 448 449 450 
3 449 446 928 
3 405 409 410 
3 504 505 567 
3 551 629 630 
3 817 691 1167 
3 433 533 534 
3 640 603 722 
3 570 530 581 
3 631 527 632 
3 730 632 732 
3 633 553 634 
3 669 636 670 
3 522 520 523 
3 488 482 530 
3 705 629 974 
3 630 629 705 
3 425 482 488 
3 754 753 781 
3 419 418 477 
3 492 491 542 
3 870 871 872 
3 718 801 802 
3 551 630 692 
3 478 450 491 
3 448 450 478 
3 477 553 633 
3 478 491 492 
3 522 523 524 
3 872 871 873 
3 525 526 527 
3 524 523 551 
3 377 378 973 
3 936 692 949 
3 536 597 938 
3 870 591 871 
3 533 432 693 
3 407 404 408 
3 525 524 526 
3 399 401 434 
3 417 419 425 
3 645 634 713 
3 522 524 525 
3 417 418 419 
3 742 743 744 
3 529 526 936 
3 478 508 931 
3 285 838 840 
3 536 534 597 
3 425 419 482 
3 633 634 645 
3 447 446 448 
3 528 565 935 
3 645 713 740 
3 431 416 432 
3 735 602 933 
3 525 631 934 
3 433 432 533 
3 446 442 928 
3 533 693 694 
3 594 538 949 
3 416 413 417 
3 441 445 489 
3 601 593 695 
3 445 442 446 
3 874 871 938 
3 447 448 931 
3 848 849 1030 
3 602 570 933 
3 733 632 935 
3 595 596 702 
3 545 429 991 
3 527 528 935 
3 507 601 945 
3 519 521 579 
3 570 581 933 
3 746 743 972 
3 531 555 595 
3 476 475 494 
3 630 705 706 
3 434 435 436 
3 568 482 939 
3 439 437 440 
3 669 670 742 
3 657 567 658 
3 448 478 931 
3 526 524 936 
3 501 503 504 
3 441 440 442 
3 687 580 688 
3 571 665 971 
3 412 413 416 
3 364 365 366 
3 445 446 447 
3 576 548 622 
3 366 367 368 
3 521 520 522 
3 632 527 935 
3 579 580 687 
3 871 591 938 
3 609 511 636 
3 436 437 438 
3 631 730 960 
3 808 807 809 
3 495 494 563 
3 441 442 445 
3 524 551 936 
3 405 407 409 
3 409 411 412 
3 477 633 939 
3 438 439 443 
3 412 431 943 
3 521 522 934 
3 579 521 580 
3 381 383 430 
3 922 411 944 
3 463 464 465 
3 412 411 413 
3 409 407 411 
3 419 477 939 
3 487 511 572 
3 400 398 402 
3 551 692 936 
3 396 398 399 
3 438 437 439 
3 434 401 435 
3 370 371 372 
3 482 419 939 
3 609 636 669 
3 609 669 774 
3 556 558 701 
3 405 404 407 
3 436 435 437 
3 522 525 934 
3 410 409 943 
3 544 546 683 
3 416 417 937 
3 567 505 945 
3 403 404 405 
3 417 425 937 
3 488 571 963 
3 435 401 635 
3 439 440 441 
3 574 611 612 
3 124 125 950 
3 392 390 393 
3 396 394 397 
3 403 402 404 
3 580 521 934 
3 399 400 401 
3 432 416 937 
3 400 402 403 
3 538 529 949 
3 693 432 937 
3 645 741 959 
3 939 633 959 
3 658 567 945 
3 407 408 944 
3 392 394 395 
3 399 398 400 
3 507 569 593 
3 568 939 959 
3 830 737 958 
3 937 425 963 
3 487 479 511 
3 560 573 574 
3 344 343 345 
3 583 517 604 
3 612 661 662 
3 378 381 973 
3 558 560 975 
3 505 506 507 
3 403 863 947 
3 374 373 375 
3 497 499 500 
3 569 506 582 
3 409 412 943 
3 396 397 398 
3 395 394 396 
3 693 937 963 
3 399 434 942 
3 392 393 394 
3 388 390 391 
3 411 407 944 
3 458 456 459 
3 519 520 521 
3 388 386 389 
3 572 511 609 
3 504 503 505 
3 722 603 724 
3 395 396 942 
3 662 756 757 
3 355 354 356 
3 505 507 945 
3 347 345 348 
3 637 541 638 
3 395 855 978 
3 618 775 779 
3 349 348 350 
3 429 365 965 
3 507 506 569 
3 739 710 776 
3 593 569 608 
3 770 664 771 
3 924 692 967 
3 481 459 531 
3 934 631 960 
3 518 517 583 
3 391 390 392 
3 430 452 453 
3 667 604 710 
3 441 489 948 
3 516 518 519 
3 595 702 783 
3 505 503 506 
3 516 514 517 
3 825 940 1009 
3 609 774 961 
3 400 403 947 
3 580 934 960 
3 688 580 960 
3 396 399 942 
3 443 439 948 
3 479 443 951 
3 633 645 959 
3 465 466 467 
3 384 386 387 
3 388 389 390 
3 368 367 946 
3 667 710 739 
3 803 805 806 
3 692 630 967 
3 623 622 680 
3 513 485 541 
3 439 441 948 
3 705 974 990 
3 486 514 515 
3 401 400 947 
3 384 382 385 
3 516 517 518 
3 583 604 667 
3 523 520 956 
3 519 518 520 
3 670 636 985 
3 663 577 664 
3 636 511 951 
3 440 437 952 
3 752 654 1028 
3 458 481 512 
3 423 421 427 
3 425 488 963 
3 387 386 388 
3 704 1006 1018 
3 453 454 455 
3 470 472 496 
3 384 385 386 
3 455 456 457 
3 621 655 941 
3 635 401 947 
3 515 830 988 
3 748 308 1132 
3 84 275 284 
3 437 435 952 
3 481 531 532 
3 802 803 923 
3 430 383 452 
3 435 635 952 
3 519 579 953 
3 85 276 329 
3 458 459 481 
3 454 452 642 
3 619 621 941 
3 443 948 951 
3 500 499 501 
3 511 479 951 
3 603 572 961 
3 457 456 458 
3 520 518 956 
3 564 562 605 
3 572 609 961 
3 86 277 289 
3 515 516 953 
3 725 649 726 
3 518 583 956 
3 455 454 456 
3 383 382 384 
3 1025 697 1029 
3 509 586 587 
3 629 956 974 
3 963 571 971 
3 87 278 328 
3 561 559 562 
3 630 706 967 
3 501 502 503 
3 363 362 364 
3 515 514 516 
3 994 858 999 
3 496 472 497 
3 618 613 775 
3 582 506 955 
3 501 499 502 
3 503 502 955 
3 453 452 454 
3 829 35 1022 
3 88 279 292 
3 743 670 972 
3 380 379 461 
3 424 486 988 
3 471 490 509 
3 724 603 961 
3 506 503 955 
3 694 693 971 
3 475 457 954 
3 392 395 978 
3 563 577 649 
3 546 549 987 
3 423 427 962 
3 663 664 770 
3 516 519 953 
3 803 806 923 
3 514 513 977 
3 513 541 637 
3 483 539 925 
3 746 972 992 
3 486 513 514 
3 377 834 998 
3 89 280 330 
3 663 770 814 
3 468 467 469 
3 693 963 971 
3 563 494 577 
3 315 7 995 
3 369 368 370 
3 458 512 954 
3 637 638 957 
3 638 717 719 
3 457 458 954 
3 604 517 977 
3 378 376 379 
3 560 574 975 
3 90 281 294 
3 809 811 812 
3 91 282 331 
3 283 91 966 
3 381 430 973 
3 82 283 298 
3 651 406 652 
3 372 373 374 
3 384 387 964 
3 497 472 498 
3 381 382 383 
3 583 667 974 
3 806 807 808 
3 489 445 992 
3 649 577 663 
3 391 392 978 
3 513 637 977 
3 383 384 964 
3 747 746 1001 
3 517 514 977 
3 541 485 962 
3 459 456 970 
3 378 380 381 
3 574 573 611 
3 352 354 355 
3 497 498 499 
3 468 469 470 
3 683 546 987 
3 360 362 363 
3 750 747 1005 
3 486 485 513 
3 381 380 382 
3 556 701 981 
3 512 481 969 
3 956 583 974 
3 612 611 661 
3 578 424 988 
3 684 640 1016 
3 452 383 964 
3 481 532 969 
3 366 368 369 
3 710 604 993 
3 662 661 756 
3 454 642 970 
3 470 469 471 
3 564 605 607 
3 369 406 644 
3 378 379 380 
3 456 454 970 
3 487 592 1002 
3 470 471 472 
3 642 452 964 
3 347 348 349 
3 750 1005 1011 
3 349 350 460 
3 561 562 564 
3 344 345 347 
3 341 340 342 
3 355 356 415 
3 664 577 979 
3 972 489 992 
3 424 485 486 
3 638 719 957 
3 342 343 344 
3 461 463 641 
3 564 607 660 
3 974 667 990 
3 370 372 968 
3 369 370 406 
3 380 461 976 
3 485 423 962 
3 622 548 991 
3 651 652 682 
3 548 545 991 
3 494 475 979 
3 660 727 767 
3 385 382 976 
3 509 587 643 
3 717 718 1000 
3 680 622 790 
3 1018 391 1031 
3 660 607 727 
3 424 423 485 
3 948 489 985 
3 374 375 376 
3 643 587 671 
3 1011 712 1015 
3 363 364 473 
3 476 495 1026 
3 611 573 659 
3 671 728 731 
3 951 948 985 
3 584 821 1013 
3 422 424 578 
3 493 999 1020 
3 382 380 976 
3 747 1001 1005 
3 644 406 651 
3 461 641 976 
3 363 473 556 
3 643 671 672 
3 558 559 560 
3 475 954 979 
3 757 756 1128 
3 560 561 573 
3 468 850 997 
3 445 447 992 
3 667 739 990 
3 814 291 1032 
3 577 494 979 
3 377 376 378 
3 556 557 558 
3 929 712 1011 
3 873 874 1008 
3 560 559 561 
3 486 515 988 
3 746 992 1001 
3 636 951 985 
3 101 314 1014 
3 678 100 1014 
3 347 349 426 
3 558 557 559 
3 627 928 1020 
3 355 415 646 
3 652 406 968 
3 839 1023 1147 
3 374 376 377 
3 34 305 1022 
3 339 338 340 
3 406 370 968 
3 493 952 999 
3 465 467 468 
3 635 947 994 
3 556 473 557 
3 358 360 981 
3 422 423 424 
3 646 415 699 
3 646 699 700 
3 904 903 1057 
3 947 863 994 
3 790 622 991 
3 350 352 982 
3 460 350 982 
3 771 664 1007 
3 7 8 995 
3 498 472 986 
3 364 366 983 
3 863 857 994 
3 91 331 966 
3 298 283 966 
3 422 421 423 
3 539 599 925 
3 999 858 1020 
3 532 531 1012 
3 472 471 986 
3 293 825 1009 
3 977 637 993 
3 698 697 1025 
3 992 447 1001 
3 909 906 1027 
3 595 783 1012 
3 473 364 983 
3 905 904 1027 
3 604 977 993 
3 471 509 986 
3 352 355 982 
3 360 363 981 
3 388 391 1018 
3 854 550 1047 
3 637 957 993 
3 550 480 1051 
3 369 644 983 
3 366 369 983 
3 275 83 1003 
3 509 643 986 
3 561 564 989 
3 341 342 346 
3 564 660 989 
3 613 584 1013 
3 805 804 1045 
3 659 573 989 
3 650 298 966 
3 573 561 989 
3 447 931 1001 
3 860 557 1017 
3 635 994 999 
3 952 635 999 
3 718 802 1000 
3 855 854 1044 
3 363 556 981 
3 834 833 1050 
3 480 487 1002 
3 968 372 998 
3 997 850 1030 
3 862 642 1006 
3 641 463 997 
3 355 646 982 
3 641 997 1030 
3 415 356 1021 
3 664 979 1007 
3 979 954 1007 
3 372 374 998 
3 420 421 422 
3 1001 931 1005 
3 931 508 1005 
3 599 716 996 
3 415 1021 1039 
3 750 1011 1015 
3 666 773 1052 
3 627 1025 1029 
3 284 275 1003 
3 1005 508 1011 
3 465 468 997 
3 876 873 1008 
3 1026 495 1085 
3 420 346 421 
3 341 346 420 
3 473 983 1017 
3 90 294 1019 
3 331 282 1019 
3 508 929 1011 
3 1047 550 1051 
3 704 1018 1031 
3 531 595 1012 
3 964 387 1006 
3 463 465 997 
3 282 90 1019 
3 339 340 341 
3 100 101 1014 
3 954 512 1007 
3 374 377 998 
3 663 814 1032 
3 647 758 1042 
3 642 964 1006 
3 751 750 1015 
3 1030 849 1034 
3 726 649 1032 
3 983 644 1017 
3 606 860 1041 
3 640 723 1016 
3 404 402 1043 
3 981 701 1021 
3 1006 387 1018 
3 358 981 1021 
3 775 613 1013 
3 721 606 1049 
3 387 388 1018 
3 928 493 1020 
3 356 358 1021 
3 1118 332 1131 
3 833 566 1066 
3 787 284 1104 
3 568 959 1040 
3 627 1020 1025 
3 574 612 1048 
3 346 342 1024 
3 89 330 1036 
3 35 34 1022 
3 83 274 332 
3 294 281 1036 
3 703 704 1031 
3 697 869 1029 
3 654 653 1028 
3 1060 845 1063 
3 1044 854 1047 
3 557 473 1017 
3 566 476 1026 
3 811 1113 1123 
3 925 599 996 
3 858 698 1025 
3 1029 869 1033 
3 922 944 1053 
3 337 298 338 
3 342 344 1024 
3 18 788 1089 
3 906 905 1027 
3 731 728 1075 
3 891 553 1054 
3 869 870 1033 
3 385 1034 1055 
3 846 845 1060 
3 850 848 1030 
3 451 627 1029 
3 347 426 1037 
3 1033 870 1035 
3 385 976 1034 
3 1021 701 1039 
3 737 736 1109 
3 495 563 1061 
3 870 872 1035 
3 451 1029 1033 
3 88 292 1046 
3 389 386 1055 
3 1035 872 1038 
3 309 75 1062 
3 74 333 1062 
3 330 280 1046 
3 930 451 1033 
3 708 707 1065 
3 787 785 1092 
3 649 663 1032 
3 695 593 1059 
3 1065 707 1067 
3 1050 833 1066 
3 281 89 1036 
3 872 875 1038 
3 9 299 1064 
3 337 338 339 
3 930 1033 1035 
3 391 978 1031 
3 1020 858 1025 
3 778 817 1131 
3 1086 324 1160 
3 393 390 1063 
3 969 839 1084 
3 606 1041 1049 
3 543 930 1035 
3 543 1035 1038 
3 1034 849 1055 
3 608 890 1140 
3 817 1118 1131 
3 927 543 1038 
3 1016 723 1023 
3 657 709 1068 
3 701 975 1039 
3 798 797 1052 
3 699 415 1039 
3 774 288 1127 
3 114 115 1075 
3 24 23 1071 
3 71 70 1072 
3 73 72 1073 
3 397 394 1067 
3 860 1017 1041 
3 976 641 1034 
3 959 741 1040 
3 83 332 1003 
3 924 967 1069 
3 344 347 1037 
3 82 298 337 
3 48 293 1082 
3 995 8 1064 
3 317 49 1082 
3 1024 344 1037 
3 402 398 1070 
3 1017 644 1041 
3 397 1067 1068 
3 676 768 1092 
3 1068 709 1070 
3 426 349 1058 
3 679 647 1042 
3 393 1063 1065 
3 699 1039 1048 
3 1075 115 1162 
3 389 1055 1060 
3 804 827 1045 
3 408 404 1043 
3 709 658 1077 
3 644 651 1041 
3 883 502 1129 
3 87 328 1074 
3 292 279 1074 
3 408 1077 1080 
3 703 1031 1044 
3 968 998 1050 
3 1039 975 1048 
3 808 809 1081 
3 280 88 1046 
3 911 309 1083 
3 756 661 1106 
3 641 1030 1034 
3 284 787 1099 
3 797 666 1052 
3 978 855 1044 
3 646 700 1078 
3 1031 978 1044 
3 691 996 1167 
3 702 703 1047 
3 768 674 1091 
3 998 834 1050 
3 703 1044 1047 
3 1041 651 1049 
3 565 786 1166 
3 944 408 1080 
3 715 787 1104 
3 702 1047 1051 
3 675 755 1091 
3 1075 728 1145 
3 336 79 1086 
3 78 324 1086 
3 889 286 1088 
3 783 702 1051 
3 552 1053 1054 
3 552 922 1053 
3 1048 612 1056 
3 651 682 1049 
3 975 574 1048 
3 389 1060 1063 
3 103 104 1087 
3 323 913 1122 
3 553 552 1054 
3 512 969 1084 
3 652 968 1050 
3 735 933 1057 
3 460 982 1078 
3 386 385 1055 
3 887 890 1094 
3 849 846 1060 
3 17 18 1089 
3 349 460 1058 
3 593 608 1059 
3 876 1008 1159 
3 700 699 1056 
3 563 725 1061 
3 1043 709 1077 
3 1064 299 1138 
3 652 1050 1066 
3 75 74 1062 
3 881 880 1094 
3 940 318 1106 
3 819 316 1117 
3 333 1073 1157 
3 776 710 1100 
3 841 301 1081 
3 390 389 1063 
3 393 1065 1067 
3 837 836 1096 
3 311 114 1075 
3 8 9 1064 
3 876 1159 1173 
3 408 1043 1077 
3 845 708 1065 
3 86 289 1090 
3 328 278 1090 
3 736 687 1097 
3 1055 849 1060 
3 971 665 1093 
3 605 721 1098 
3 295 64 1102 
3 63 323 1102 
3 394 393 1067 
3 322 868 1109 
3 731 1075 1162 
3 85 329 1095 
3 884 883 1129 
3 289 277 1095 
3 682 652 1066 
3 707 657 1068 
3 1063 845 1065 
3 885 672 1121 
3 729 1086 1160 
3 1067 707 1068 
3 681 924 1069 
3 589 685 1107 
3 921 24 1071 
3 70 334 1072 
3 333 73 1073 
3 397 1068 1070 
3 279 87 1074 
3 398 397 1070 
3 66 65 1108 
3 84 284 1099 
3 329 276 1099 
3 771 1007 1084 
3 914 307 1097 
3 686 673 1110 
3 699 1048 1056 
3 725 726 1103 
3 811 813 1113 
3 762 760 1114 
3 1077 926 1080 
3 658 926 1077 
3 1083 309 1163 
3 1098 725 1103 
3 306 112 1137 
3 678 1014 1079 
3 761 763 1079 
3 760 733 1114 
3 643 672 1111 
3 926 696 1080 
3 706 918 1141 
3 935 565 1114 
3 291 814 1144 
3 809 812 1081 
3 982 646 1078 
3 993 957 1100 
3 597 534 1120 
3 533 694 1120 
3 774 669 1122 
3 287 885 1121 
3 720 1064 1138 
3 49 48 1082 
3 6 315 1125 
3 1014 761 1079 
3 838 839 1147 
3 713 738 1126 
3 296 910 1133 
3 31 304 1130 
3 106 914 1132 
3 990 304 1135 
3 837 1096 1171 
3 308 105 1132 
3 311 1075 1145 
3 921 1071 1112 
3 568 1040 1151 
3 706 705 1135 
3 67 66 1134 
3 806 808 1117 
3 498 986 1111 
3 868 865 1105 
3 896 894 1136 
3 721 1061 1098 
3 52 291 1144 
3 912 911 1083 
3 319 53 1144 
3 672 671 1121 
3 749 751 1108 
3 499 498 1129 
3 904 1057 1156 
3 320 932 1142 
3 829 719 1143 
3 739 776 1130 
3 732 734 1087 
3 339 341 1115 
3 785 676 1092 
3 841 1081 1158 
3 899 895 1150 
3 716 1118 1167 
3 1061 725 1098 
3 102 103 1148 
3 719 717 1143 
3 3 80 1152 
3 23 3 1152 
3 131 0 1153 
3 0 4 1153 
3 72 1 1154 
3 1 99 1154 
3 2 71 1155 
3 22 2 1155 
3 902 335 1153 
3 116 287 1162 
3 1015 712 1124 
3 660 767 1139 
3 581 530 1151 
3 745 749 1175 
3 16 300 1173 
3 290 14 1159 
3 786 764 1166 
3 955 883 1161 
3 721 1049 1085 
3 1040 909 1151 
3 938 597 1169 
3 1081 812 1158 
3 79 78 1086 
3 1008 290 1159 
3 763 765 1157 
3 659 940 1170 
3 1113 851 1123 
3 1078 700 1113 
3 104 308 1087 
3 682 1026 1085 
3 1000 802 1149 
3 665 720 1138 
3 286 915 1088 
3 611 659 1170 
3 1007 512 1084 
3 883 881 1161 
3 766 1083 1163 
3 892 310 1124 
3 659 989 1139 
3 1009 659 1139 
3 300 17 1089 
3 777 778 1131 
3 278 86 1090 
3 674 675 1091 
3 865 867 1105 
3 1049 682 1085 
3 967 706 1141 
3 836 319 1096 
3 880 887 1094 
3 889 1088 1140 
3 277 85 1095 
3 786 588 1119 
3 694 971 1093 
3 957 719 1165 
3 1057 933 1156 
3 770 771 1096 
3 687 688 1097 
3 831 317 1101 
3 607 605 1098 
3 867 866 1115 
3 861 724 1127 
3 719 1022 1165 
3 1071 336 1112 
3 276 84 1099 
3 710 993 1100 
3 318 822 1106 
3 1096 771 1171 
3 607 1098 1103 
3 64 63 1102 
3 813 1078 1113 
3 81 777 1172 
3 716 715 1104 
3 812 811 1123 
3 578 958 1105 
3 679 920 1116 
3 727 607 1103 
3 295 1102 1175 
3 588 589 1107 
3 291 831 1164 
3 961 774 1127 
3 724 961 1127 
3 1093 899 1150 
3 65 295 1108 
3 877 322 1109 
3 673 681 1110 
3 890 889 1140 
3 685 729 1160 
3 766 786 1119 
3 902 5 1125 
3 986 643 1111 
3 700 851 1113 
3 304 917 1135 
3 729 686 1112 
3 1032 291 1164 
3 733 935 1114 
3 325 950 1126 
3 816 778 1145 
3 950 740 1126 
3 784 608 1140 
3 274 81 1172 
3 597 1136 1169 
3 711 679 1116 
3 923 806 1117 
3 341 420 1115 
3 534 533 1120 
3 669 742 1122 
3 723 932 1147 
3 1101 317 1146 
3 940 1106 1170 
3 851 757 1123 
3 1088 784 1140 
3 671 731 1121 
3 712 711 1124 
3 903 902 1125 
3 5 6 1125 
3 1003 332 1118 
3 740 713 1126 
3 288 861 1127 
3 297 842 1128 
3 1069 967 1141 
3 317 1082 1146 
3 1023 723 1147 
3 1114 565 1166 
3 32 31 1130 
3 502 499 1129 
3 105 106 1132 
3 881 1094 1161 
3 910 908 1133 
3 310 67 1134 
3 866 306 1137 
3 1027 904 1156 
3 894 897 1136 
3 1128 842 1158 
3 705 990 1135 
3 302 829 1143 
3 299 899 1138 
3 728 816 1145 
3 1102 744 1175 
3 1071 23 1152 
3 71 1072 1155 
3 1073 72 1154 
3 932 838 1147 
3 581 1027 1156 
3 1100 957 1165 
3 296 1133 1174 
3 852 320 1142 
3 1000 302 1143 
3 778 311 1145 
3 989 660 1139 
3 588 1107 1119 
3 918 303 1141 
3 53 52 1144 
3 309 1062 1163 
3 842 841 1158 
3 717 1000 1143 
3 1083 766 1119 
3 1128 1158 1168 
3 895 896 1150 
3 314 102 1148 
3 767 727 1146 
3 80 336 1152 
3 335 131 1153 
3 99 678 1154 
3 677 22 1155 
3 530 568 1151 
3 839 837 1171 
3 802 923 1149 
3 303 1069 1141 
3 933 581 1156 
3 1118 817 1167 
3 14 15 1159 
3 324 912 1160 
3 115 116 1162 
3 1022 305 1165 
3 765 766 1163 
3 582 955 1161 
3 764 762 1166 
3 1082 767 1146 
3 1159 15 1173 
3 332 274 1172 
3 694 1093 1150 
3 874 938 1169 
3 15 16 1173 
3 726 1032 1164 
3 897 290 1176 
3 1008 874 1176 
3 741 740 1174 
3 744 745 1175 
3 661 611 1170 
3 996 716 1167 
3 336 1071 1152 
3 1072 677 1155 
3 678 1073 1154 
3 1062 765 1163 
3 1169 897 1176 
3 874 1169 1176 
3 290 1008 1176 
3 771 1084 1171 
3 1094 582 1161 
3 1106 661 1170 
3 1079 763 1157 
3 305 1100 1165 
3 1084 839 1171 
3 762 1114 1166 
3 812 1123 1168 
3 1101 726 1164 
3 831 1101 1164 
3 1131 332 1172 
3 1123 757 1168 
3 757 1128 1168 
3 1133 741 1174 
3 1136 897 1169 
3 777 1131 1172 
3 1158 812 1168 
3 155 156 157 
3 155 157 158 
3 154 155 158 
3 159 154 158 
3 153 154 159 
3 160 153 159 
3 152 153 160 
3 161 152 160 
3 151 152 161 
3 162 151 161 
3 150 151 162 
3 163 150 162 
3 149 150 163 
3 164 149 163 
3 148 149 164 
3 165 148 164 
3 147 148 165 
3 147 165 166 
3 146 147 166 
3 133 86 1177 
3 167 146 166 
3 145 146 167 
3 145 167 168 
3 86 133 179 
3 144 145 168 
3 144 168 169 
3 143 144 169 
3 143 169 170 
3 142 143 170 
3 132 133 1177 
3 142 170 171 
3 141 142 171 
3 141 171 172 
3 140 141 172 
3 140 172 173 
3 139 140 173 
3 139 173 174 
3 138 139 174 
3 138 174 175 
3 137 138 175 
3 137 175 176 
3 86 277 1177 
3 136 176 177 
3 136 137 176 
3 135 177 178 
3 135 136 177 
3 134 178 179 
3 134 135 178 
3 133 134 179 
3 277 132 1177 
3 92 93 1178 
3 157 156 1178 
3 93 157 1178 
3 156 92 1178 
3 132 277 85 
3 157 200 201 
3 157 158 200 
3 158 199 200 
3 158 159 199 
3 159 198 199 
3 159 160 198 
3 160 197 198 
3 160 161 197 
3 161 196 197 
3 161 162 196 
3 162 195 196 
3 162 163 195 
3 163 194 195 
3 163 164 194 
3 194 164 193 
3 164 165 193 
3 165 192 193 
3 165 166 192 
3 87 178 1179 
3 166 191 192 
3 166 167 191 
3 167 190 191 
3 178 179 1179 
3 190 167 168 
3 178 87 180 
3 189 190 168 
3 169 189 168 
3 188 189 169 
3 170 188 169 
3 188 170 187 
3 170 171 187 
3 187 171 186 
3 171 172 186 
3 278 87 1179 
3 186 172 185 
3 172 173 185 
3 185 173 184 
3 173 174 184 
3 174 175 183 
3 174 183 184 
3 175 176 182 
3 183 175 182 
3 176 177 181 
3 177 178 180 
3 182 176 181 
3 181 177 180 
3 179 278 1179 
3 94 93 1180 
3 157 201 1180 
3 93 157 1180 
3 201 94 1180 
3 278 179 86 
3 200 201 202 
3 200 202 203 
3 199 200 203 
3 199 203 204 
3 198 199 204 
3 205 198 204 
3 205 197 198 
3 205 206 197 
3 206 196 197 
3 206 207 196 
3 207 195 196 
3 207 208 195 
3 208 194 195 
3 208 209 194 
3 194 209 193 
3 209 210 193 
3 210 192 193 
3 181 88 1181 
3 210 211 192 
3 211 191 192 
3 221 88 181 
3 211 212 191 
3 212 190 191 
3 212 213 190 
3 190 213 189 
3 213 214 189 
3 180 181 1181 
3 189 214 188 
3 214 215 188 
3 188 215 187 
3 215 216 187 
3 187 216 186 
3 216 217 186 
3 186 217 185 
3 217 218 185 
3 185 218 184 
3 218 219 184 
3 88 279 1181 
3 219 220 183 
3 219 183 184 
3 220 221 182 
3 183 220 182 
3 182 221 181 
3 279 180 1181 
3 94 95 1182 
3 202 201 1182 
3 95 202 1182 
3 201 94 1182 
3 279 87 180 
3 239 240 202 
3 203 239 202 
3 238 239 203 
3 204 238 203 
3 237 238 204 
3 205 237 204 
3 236 237 205 
3 206 236 205 
3 235 236 206 
3 235 206 207 
3 234 235 207 
3 208 234 207 
3 233 234 208 
3 209 233 208 
3 232 233 209 
3 210 232 209 
3 89 220 1183 
3 231 232 210 
3 231 210 211 
3 220 221 1183 
3 231 211 230 
3 230 211 212 
3 220 89 222 
3 229 230 212 
3 229 212 213 
3 228 229 213 
3 228 213 214 
3 227 228 214 
3 215 227 214 
3 280 89 1183 
3 226 227 215 
3 226 215 216 
3 225 226 216 
3 225 216 217 
3 224 217 218 
3 224 225 217 
3 218 219 223 
3 224 218 223 
3 219 220 222 
3 219 222 223 
3 221 280 1183 
3 96 95 1184 
3 202 240 1184 
3 95 202 1184 
3 240 96 1184 
3 221 88 280 
3 239 240 241 
3 242 239 241 
3 238 239 242 
3 243 238 242 
3 237 238 243 
3 244 237 243 
3 236 237 244 
3 245 236 244 
3 235 236 245 
3 246 235 245 
3 234 235 246 
3 247 234 246 
3 233 234 247 
3 233 247 248 
3 232 233 248 
3 223 90 1185 
3 249 232 248 
3 90 223 257 
3 232 249 231 
3 249 250 231 
3 231 250 230 
3 250 251 230 
3 251 229 230 
3 229 251 252 
3 222 223 1185 
3 229 252 228 
3 252 253 228 
3 253 227 228 
3 253 254 227 
3 254 226 227 
3 255 226 254 
3 226 255 225 
3 225 255 256 
3 224 256 257 
3 224 225 256 
3 90 281 1185 
3 223 224 257 
3 281 222 1185 
3 96 97 1186 
3 241 240 1186 
3 97 241 1186 
3 240 96 1186 
3 89 222 281 
3 272 273 241 
3 242 272 241 
3 271 272 242 
3 243 271 242 
3 270 271 243 
3 244 270 243 
3 269 270 244 
3 245 269 244 
3 268 269 245 
3 246 268 245 
3 267 268 246 
3 247 267 246 
3 266 267 247 
3 91 256 1187 
3 266 247 248 
3 265 266 248 
3 256 257 1187 
3 249 265 248 
3 265 249 264 
3 256 91 258 
3 249 250 264 
3 250 263 264 
3 250 251 263 
3 251 262 263 
3 251 252 262 
3 282 91 1187 
3 252 261 262 
3 252 253 261 
3 253 254 260 
3 253 260 261 
3 254 255 259 
3 254 259 260 
3 255 256 258 
3 255 258 259 
3 257 282 1187 
3 98 97 1188 
3 241 273 1188 
3 97 241 1188 
3 273 98 1188 
3 90 282 257 
3 272 273 99 
3 272 99 100 
3 271 272 100 
3 271 100 101 
3 270 271 101 
3 270 101 102 
3 269 270 102 
3 269 102 103 
3 268 269 103 
3 268 103 104 
3 267 268 104 
3 267 104 105 
3 259 82 1189 
3 266 267 105 
3 112 82 259 
3 266 105 106 
3 265 266 106 
3 107 265 106 
3 264 265 107 
3 108 264 107 
3 263 264 108 
3 263 108 109 
3 258 259 1189 
3 263 109 262 
3 109 110 262 
3 110 261 262 
3 110 111 261 
3 111 112 260 
3 261 111 260 
3 260 112 259 
3 82 283 1189 
3 283 258 1189 
3 98 1 1190 
3 99 273 1190 
3 1 99 1190 
3 273 98 1190 
3 283 91 258 

CELL_TYPES 2241
5
5
5
5
5
5
5
5
5
5
5
5
5
5
5
5
5
5
5
5
5
5
5
5
5
5
5
5
5
5
5
5
5
5
5
5
5
5
5
5
5
5
5
5
5
5
5
5
5
5
5
5
5
5
5
5
5
5
5
5
5
5
5
5
5
5
5
5
5
5
5
5
5
5
5
5
5
5
5
5
5
5
5
5
5
5
5
5
5
5
5
5
5
5
5
5
5
5
5
5
5
5
5
5
5
5
5
5
5
5
5
5
5
5
5
5
5
5
5
5
5
5
5
5
5
5
5
5
5
5
5
5
5
5
5
5
5
5
5
5
5
5
5
5
5
5
5
5
5
5
5
5
5
5
5
5
5
5
5
5
5
5
5
5
5
5
5
5
5
5
5
5
5
5
5
5
5
5
5
5
5
5
5
5
5
5
5
5
5
5
5
5
5
5
5
5
5
5
5
5
5
5
5
5
5
5
5
5
5
5
5
5
5
5
5
5
5
5
5
5
5
5
5
5
5
5
5
5
5
5
5
5
5
5
5
5
5
5
5
5
5
5
5
5
5
5
5
5
5
5
5
5
5
5
5
5
5
5
5
5
5
5
5
5
5
5
5
5
5
5
5
5
5
5
5
5
5
5
5
5
5
5
5
5
5
5
5
5
5
5
5
5
5
5
5
5
5
5
5
5
5
5
5
5
5
5
5
5
5
5
5
5
5
5
5
5
5
5
5
5
5
5
5
5
5
5
5
5
5
5
5
5
5
5
5
5
5
5
5
5
5
5
5
5
5
5
5
5
5
5
5
5
5
5
5
5
5
5
5
5
5
5
5
5
5
5
5
5
5
5
5
5
5
5
5
5
5
5
5
5
5
5
5
5
5
5
5
5
5
5
5
5
5
5
5
5
5
5
5
5
5
5
5
5
5
5
5
5
5
5
5
5
5
5
5
5
5
5
5
5
5
5
5
5
5
5
5
5
5
5
5
5
5
5
5
5
5
5
5
5
5
5
5
5
5
5
5
5
5
5
5
5
5
5
5
5
5
5
5
5
5
5
5
5
5
5
5
5
5
5
5
5
5
5
5
5
5
5
5
5
5
5
5
5
5
5
5
5
5
5
5
5
5
5
5
5
5
5
5
5
5
5
5
5
5
5
5
5
5
5
5
5
5
5
5
5
5
5
5
5
5
5
5
5
5
5
5
5
5
5
5
5
5
5
5
5
5
5
5
5
5
5
5
5
5
5
5
5
5
5
5
5
5
5
5
5
5
5
5
5
5
5
5
5
5
5
5
5
5
5
5
5
5
5
5
5
5
5
5
5
5
5
5
5
5
5
5
5
5
5
5
5
5
5
5
5
5
5
5
5
5
5
5
5
5
5
5
5
5
5
5
5
5
5
5
5
5
5
5
5
5
5
5
5
5
5
5
5
5
5
5
5
5
5
5
5
5
5
5
5
5
5
5
5
5
5
5
5
5
5
5
5
5
5
5
5
5
5
5
5
5
5
5
5
5
5
5
5
5
5
5
5
5
5
5
5
5
5
5
5
5
5
5
5
5
5
5
5
5
5
5
5
5
5
5
5
5
5
5
5
5
5
5
5
5
5
5
5
5
5
5
5
5
5
5
5
5
5
5
5
5
5
5
5
5
5
5
5
5
5
5
5
5
5
5
5
5
5
5
5
5
5
5
5
5
5
5
5
5
5
5
5
5
5
5
5
5
5
5
5
5
5
5
5
5
5
5
5
5
5
5
5
5
5
5
5
5
5
5
5
5
5
5
5
5
5
5
5
5
5
5
5
5
5
5
5
5
5
5
5
5
5
5
5
5
5
5
5
5
5
5
5
5
5
5
5
5
5
5
5
5
5
5
5
5
5
5
5
5
5
5
5
5
5
5
5
5
5
5
5
5
5
5
5
5
5
5
5
5
5
5
5
5
5
5
5
5
5
5
5
5
5
5
5
5
5
5
5
5
5
5
5
5
5
5
5
5
5
5
5
5
5
5
5
5
5
5
5
5
5
5
5
5
5
5
5
5
5
5
5
5
5
5
5
5
5
5
5
5
5
5
5
5
5
5
5
5
5
5
5
5
5
5
5
5
5
5
5
5
5
5
5
5
5
5
5
5
5
5
5
5
5
5
5
5
5
5
5
5
5
5
5
5
5
5
5
5
5
5
5
5
5
5
5
5
5
5
5
5
5
5
5
5
5
5
5
5
5
5
5
5
5
5
5
5
5
5
5
5
5
5
5
5
5
5
5
5
5
5
5
5
5
5
5
5
5
5
5
5
5
5
5
5
5
5
5
5
5
5
5
5
5
5
5
5
5
5
5
5
5
5
5
5
5
5
5
5
5
5
5
5
5
5
5
5
5
5
5
5
5
5
5
5
5
5
5
5
5
5
5
5
5
5
5
5
5
5
5
5
5
5
5
5
5
5
5
5
5
5
5
5
5
5
5
5
5
5
5
5
5
5
5
5
5
5
5
5
5
5
5
5
5
5
5
5
5
5
5
5
5
5
5
5
5
5
5
5
5
5
5
5
5
5
5
5
5
5
5
5
5
5
5
5
5
5
5
5
5
5
5
5
5
5
5
5
5
5
5
5
5
5
5
5
5
5
5
5
5
5
5
5
5
5
5
5
5
5
5
5
5
5
5
5
5
5
5
5
5
5
5
5
5
5
5
5
5
5
5
5
5
5
5
5
5
5
5
5
5
5
5
5
5
5
5
5
5
5
5
5
5
5
5
5
5
5
5
5
5
5
5
5
5
5
5
5
5
5
5
5
5
5
5
5
5
5
5
5
5
5
5
5
5
5
5
5
5
5
5
5
5
5
5
5
5
5
5
5
5
5
5
5
5
5
5
5
5
5
5
5
5
5
5
5
5
5
5
5
5
5
5
5
5
5
5
5
5
5
5
5
5
5
5
5
5
5
5
5
5
5
5
5
5
5
5
5
5
5
5
5
5
5
5
5
5
5
5
5
5
5
5
5
5
5
5
5
5
5
5
5
5
5
5
5
5
5
5
5
5
5
5
5
5
5
5
5
5
5
5
5
5
5
5
5
5
5
5
5
5
5
5
5
5
5
5
5
5
5
5
5
5
5
5
5
5
5
5
5
5
5
5
5
5
5
5
5
5
5
5
5
5
5
5
5
5
5
5
5
5
5
5
5
5
5
5
5
5
5
5
5
5
5
5
5
5
5
5
5
5
5
5
5
5
5
5
5
5
5
5
5
5
5
5
5
5
5
5
5
5
5
5
5
5
5
5
5
5
5
5
5
5
5
5
5
5
5
5
5
5
5
5
5
5
5
5
5
5
5
5
5
5
5
5
5
5
5
5
5
5
5
5
5
5
5
5
5
5
5
5
5
5
5
5
5
5
5
5
5
5
5
5
5
5
5
5
5
5
5
5
5
5
5
5
5
5
5
5
5
5
5
5
5
5
5
5
5
5
5
5
5
5
5
5
5
5
5
5
5
5
5
5
5
5
5
5
5
5
5
5
5
5
5
5
5
5
5
5
5
5
5
5
5
5
5
5
5
5
5
5
5
5
5
5
5
5
5
5
5
5
5
5
5
5
5
5
5
5
5
5
5
5
5
5
5
5
5
5
5
5
5
5
5
5
5
5
5
5
5
5
5
5
5
5
5
5
5
5
5
5
5
5
5
5
5
5
5
5
5
5
5
5
5
5
5
5
5
5
5
5
5
5
5
5
5
5
5
5
5
5
5
5
5
5
5
5
5
5
5
5
5
5
5
5
5
5
5
5
5
5
5
5
5
5
5
5
5
5
5
5
5
5
5
5
5
5
5
5
5
5
5
5
5
5
5
5
5
5
5
5
5
5
5
5
5
5
5
5
5
5
5
5
5
5
5
5
5
5
5
5
5
5
5
5
5
5
5
5
5
5
5
5
5
5
5
5
5
5
5
5
5
5
5
5
5
5
5
5
5
5
5
5
5
5
5
5
5
5
5
5
5
5
5
5
5
5
5
5
5
5
5
5
5
5
5
5
5
5
5
5
5
5
5
5
5
5
5
5
5
5
5
5
5
5
5
5
5
5
5
5
5
5
5
5
5
5
5
5
5
5
5
5
5
5
5
5
5
5
5
5
5
5
5
5
5
5
5
5
5
5
5
5
5
5
5
5
5
5
5
5
5
5
5
5
5
5
5
5
5
5
5
5
5
5
5
5
5
5
5
5
5
5
5
5
5
5
5
5
5
5
5
5
5
5
5
5
5
5
5
5
5
5
5
5
5
5
5
5
5
5
5
5
5
5
5
5
5
5
5
5
5
5
5
5
5
5
5
5
5
5
5
5
5
5
5
5
5
5
5
5
5
5
5
5
5
5
5
5
5
5
5
5
5
5
5
5
5
5
5
5
5
5
5
5
5
5
5
5
5
5
5
5
5
5
5
5
5
5
5
5
5
5
5
5
5
5
5
5
5
5
5
5
5
5
5
5
5
5
5
5
5
5
5
5
5
5
5
5
5
5
5
5
5
5
5
5
5
5
5
5
5
5
5
5
5
5
5
5
5
5
5
5
5
5
5
5
5
5
5
5
5
5
5
5
5
5
5
5
5
5
5
5
5
5
5
5
5
5
5
5
5
5
5
5
5
5
5
5
5
5
5
5
5
5
5
5
5
5
5
5
5
5
5
5
5
5
5
5
5
5
5
5
5
5
5
5
5
5
5
5
5
5
5
5
5
5
5
5
5
5
5
5
5
5
5
5
5
5
5
5
5
5
5
5
5
5
5
5
5
5
5
5
5
5
5
5
5
5
5
5
5
5
5
5
5
5
5
5
5
5
5
5
5
5
5
5
5
5
5
5
5
5
5
5
5
5
5
5
5
5
5
5
5
5
5
5
5
5
5
5
5
5
5
5
5
5
5
5
5
5
5
5
5
5
5
5
5
5
5
5
5
5
5
5
5
5
5
5
5
5
5
5
5
5
5
5
5
5
5
5
5
5
5
5
5
5
5
5
5
5
5
5
5
5
5
5
5
5
5
5
5
5
5
5
5
5
5
5
5
5
5
5
5
5
5
5
5
5
5
5
5
5
5

POINT_DATA 1191

VECTORS coord float
0.0 0.0 0.0 
5.000000000000e+01 -1.000000000000e+01 0.0 
0.0 -2.000000000000e+01 0.0 
5.000000000000e+01 -2.000000000000e+01 0.0 
0.0 -9.999999999991e-01 0.0 
0.0 -1.999999999998e+00 0.0 
0.0 -2.999999999997e+00 0.0 
0.0 -3.999999999994e+00 0.0 
0.0 -4.999999999991e+00 0.0 
0.0 -5.999999999988e+00 0.0 
0.0 -6.999999999985e+00 0.0 
0.0 -7.999999999982e+00 0.0 
0.0 -8.999999999983e+00 0.0 
0.0 -9.999999999985e+00 0.0 
0.0 -1.099999999999e+01 0.0 
0.0 -1.199999999999e+01 0.0 
0.0 -1.299999999999e+01 0.0 
0.0 -1.399999999999e+01 0.0 
0.0 -1.499999999999e+01 0.0 
0.0 -1.599999999999e+01 0.0 
0.0 -1.700000000000e+01 0.0 
0.0 -1.800000000000e+01 0.0 
0.0 -1.900000000000e+01 0.0 
4.900000000001e+01 -2.000000000000e+01 0.0 
4.800000000001e+01 -2.000000000000e+01 0.0 
4.700000000002e+01 -2.000000000000e+01 0.0 
4.600000000003e+01 -2.000000000000e+01 0.0 
4.500000000004e+01 -2.000000000000e+01 0.0 
4.400000000004e+01 -2.000000000000e+01 0.0 
4.300000000005e+01 -2.000000000000e+01 0.0 
4.200000000006e+01 -2.000000000000e+01 0.0 
4.100000000006e+01 -2.000000000000e+01 0.0 
4.000000000007e+01 -2.000000000000e+01 0.0 
3.900000000008e+01 -2.000000000000e+01 0.0 
3.800000000009e+01 -2.000000000000e+01 0.0 
3.700000000009e+01 -2.000000000000e+01 0.0 
3.600000000010e+01 -2.000000000000e+01 0.0 
3.500000000011e+01 -2.000000000000e+01 0.0 
3.400000000011e+01 -2.000000000000e+01 0.0 
3.300000000012e+01 -2.000000000000e+01 0.0 
3.200000000013e+01 -2.000000000000e+01 0.0 
3.100000000013e+01 -2.000000000000e+01 0.0 
3.000000000013e+01 -2.000000000000e+01 0.0 
2.900000000013e+01 -2.000000000000e+01 0.0 
2.800000000013e+01 -2.000000000000e+01 0.0 
2.700000000013e+01 -2.000000000000e+01 0.0 
2.600000000013e+01 -2.000000000000e+01 0.0 
2.500000000013e+01 -2.000000000000e+01 0.0 
2.400000000013e+01 -2.000000000000e+01 0.0 
2.300000000013e+01 -2.000000000000e+01 0.0 
2.200000000013e+01 -2.000000000000e+01 0.0 
2.100000000013e+01 -2.000000000000e+01 0.0 
2.000000000013e+01 -2.000000000000e+01 0.0 
1.900000000013e+01 -2.000000000000e+01 0.0 
1.800000000013e+01 -2.000000000000e+01 0.0 
1.700000000012e+01 -2.000000000000e+01 0.0 
1.600000000011e+01 -2.000000000000e+01 0.0 
1.500000000011e+01 -2.000000000000e+01 0.0 
1.400000000010e+01 -2.000000000000e+01 0.0 
1.300000000009e+01 -2.000000000000e+01 0.0 
1.200000000009e+01 -2.000000000000e+01 0.0 
1.100000000008e+01 -2.000000000000e+01 0.0 
1.000000000007e+01 -2.000000000000e+01 0.0 
9.000000000064e+00 -2.000000000000e+01 0.0 
8.000000000057e+00 -2.000000000000e+01 0.0 
7.000000000050e+00 -2.000000000000e+01 0.0 
6.000000000043e+00 -2.000000000000e+01 0.0 
5.000000000036e+00 -2.000000000000e+01 0.0 
4.000000000028e+00 -2.000000000000e+01 0.0 
3.000000000021e+00 -2.000000000000e+01 0.0 
2.000000000014e+00 -2.000000000000e+01 0.0 
1.000000000007e+00 -2.000000000000e+01 0.0 
5.000000000000e+01 -1.100000000000e+01 0.0 
5.000000000000e+01 -1.200000000000e+01 0.0 
5.000000000000e+01 -1.300000000000e+01 0.0 
5.000000000000e+01 -1.400000000000e+01 0.0 
5.000000000000e+01 -1.500000000000e+01 0.0 
5.000000000000e+01 -1.600000000000e+01 0.0 
5.000000000000e+01 -1.700000000000e+01 0.0 
5.000000000000e+01 -1.800000000000e+01 0.0 
5.000000000000e+01 -1.900000000000e+01 0.0 
2.000000000000e+01 0.0 0.0 
3.500000000000e+01 -1.000000000000e+01 0.0 
2.150000000000e+01 -1.000000000000e+00 0.0 
2.300000000000e+01 -2.000000000000e+00 0.0 
2.450000000000e+01 -3.000000000000e+00 0.0 
2.600000000000e+01 -4.000000000000e+00 0.0 
2.750000000000e+01 -5.000000000000e+00 0.0 
2.900000000000e+01 -6.000000000000e+00 0.0 
3.050000000000e+01 -7.000000000000e+00 0.0 
3.200000000000e+01 -8.000000000000e+00 0.0 
3.350000000000e+01 -9.000000000000e+00 0.0 
5.000000000000e+01 -3.000000000000e+00 0.0 
5.000000000000e+01 -4.000000000000e+00 0.0 
5.000000000000e+01 -5.000000000000e+00 0.0 
5.000000000000e+01 -6.000000000000e+00 0.0 
5.000000000000e+01 -7.000000000000e+00 0.0 
5.000000000000e+01 -8.000000000000e+00 0.0 
5.000000000000e+01 -9.000000000000e+00 0.0 
4.900000000000e+01 -1.000000000000e+01 0.0 
4.800000000000e+01 -1.000000000000e+01 0.0 
4.700000000000e+01 -1.000000000000e+01 0.0 
4.600000000000e+01 -1.000000000000e+01 0.0 
4.500000000000e+01 -1.000000000000e+01 0.0 
4.400000000000e+01 -1.000000000000e+01 0.0 
4.300000000000e+01 -1.000000000000e+01 0.0 
4.200000000000e+01 -1.000000000000e+01 0.0 
4.100000000000e+01 -1.000000000000e+01 0.0 
4.000000000000e+01 -1.000000000000e+01 0.0 
3.900000000000e+01 -1.000000000000e+01 0.0 
3.800000000000e+01 -1.000000000000e+01 0.0 
3.700000000000e+01 -1.000000000000e+01 0.0 
3.600000000000e+01 -1.000000000000e+01 0.0 
1.900000000000e+01 0.0 0.0 
1.800000000000e+01 0.0 0.0 
1.700000000000e+01 0.0 0.0 
1.600000000000e+01 0.0 0.0 
1.500000000000e+01 0.0 0.0 
1.400000000000e+01 0.0 0.0 
1.300000000000e+01 0.0 0.0 
1.200000000000e+01 0.0 0.0 
1.100000000000e+01 0.0 0.0 
1.000000000000e+01 0.0 0.0 
9.000000000000e+00 0.0 0.0 
8.000000000000e+00 0.0 0.0 
7.000000000000e+00 0.0 0.0 
6.000000000000e+00 0.0 0.0 
5.000000000000e+00 0.0 0.0 
4.000000000000e+00 0.0 0.0 
3.000000000000e+00 0.0 0.0 
2.000000000000e+00 0.0 0.0 
1.000000000000e+00 0.0 0.0 
2.548076923077e+01 -3.000000000000e+00 0.0 
2.646153846153e+01 -3.000000000000e+00 0.0 
2.744230769230e+01 -3.000000000000e+00 0.0 
2.842307692306e+01 -3.000000000000e+00 0.0 
2.940384615383e+01 -3.000000000000e+00 0.0 
3.038461538459e+01 -3.000000000000e+00 0.0 
3.136538461536e+01 -3.000000000000e+00 0.0 
3.234615384612e+01 -3.000000000000e+00 0.0 
3.332692307687e+01 -3.000000000000e+00 0.0 
3.430769230762e+01 -3.000000000000e+00 0.0 
3.528846153837e+01 -3.000000000000e+00 0.0 
3.626923076912e+01 -3.000000000000e+00 0.0 
3.724999999988e+01 -3.000000000000e+00 0.0 
3.823076923065e+01 -3.000000000000e+00 0.0 
3.921153846143e+01 -3.000000000000e+00 0.0 
4.019230769221e+01 -3.000000000000e+00 0.0 
4.117307692299e+01 -3.000000000000e+00 0.0 
4.215384615377e+01 -3.000000000000e+00 0.0 
4.313461538455e+01 -3.000000000000e+00 0.0 
4.411538461533e+01 -3.000000000000e+00 0.0 
4.509615384611e+01 -3.000000000000e+00 0.0 
4.607692307688e+01 -3.000000000000e+00 0.0 
4.705769230766e+01 -3.000000000000e+00 0.0 
4.803846153844e+01 -3.000000000000e+00 0.0 
4.901923076922e+01 -3.000000000000e+00 0.0 
4.900000000000e+01 -4.000000000000e+00 0.0 
4.800000000000e+01 -4.000000000000e+00 0.0 
4.700000000000e+01 -4.000000000000e+00 0.0 
4.600000000000e+01 -4.000000000000e+00 0.0 
4.500000000000e+01 -4.000000000000e+00 0.0 
4.400000000000e+01 -4.000000000000e+00 0.0 
4.300000000000e+01 -4.000000000000e+00 0.0 
4.200000000000e+01 -4.000000000000e+00 0.0 
4.100000000000e+01 -4.000000000000e+00 0.0 
4.000000000000e+01 -4.000000000000e+00 0.0 
3.900000000000e+01 -4.000000000000e+00 0.0 
3.800000000000e+01 -4.000000000000e+00 0.0 
3.700000000000e+01 -4.000000000000e+00 0.0 
3.600000000000e+01 -4.000000000000e+00 0.0 
3.500000000000e+01 -4.000000000000e+00 0.0 
3.400000000000e+01 -4.000000000000e+00 0.0 
3.300000000000e+01 -4.000000000000e+00 0.0 
3.200000000000e+01 -4.000000000000e+00 0.0 
3.100000000000e+01 -4.000000000000e+00 0.0 
3.000000000000e+01 -4.000000000000e+00 0.0 
2.900000000000e+01 -4.000000000000e+00 0.0 
2.800000000000e+01 -4.000000000000e+00 0.0 
2.700000000000e+01 -4.000000000000e+00 0.0 
2.847826086957e+01 -5.000000000000e+00 0.0 
2.945652173913e+01 -5.000000000000e+00 0.0 
3.043478260870e+01 -5.000000000000e+00 0.0 
3.141304347826e+01 -5.000000000000e+00 0.0 
3.239130434783e+01 -5.000000000000e+00 0.0 
3.336956521739e+01 -5.000000000000e+00 0.0 
3.434782608696e+01 -5.000000000000e+00 0.0 
3.532608695652e+01 -5.000000000000e+00 0.0 
3.630434782609e+01 -5.000000000000e+00 0.0 
3.728260869565e+01 -5.000000000000e+00 0.0 
3.826086956522e+01 -5.000000000000e+00 0.0 
3.923913043478e+01 -5.000000000000e+00 0.0 
4.021739130435e+01 -5.000000000000e+00 0.0 
4.119565217391e+01 -5.000000000000e+00 0.0 
4.217391304348e+01 -5.000000000000e+00 0.0 
4.315217391304e+01 -5.000000000000e+00 0.0 
4.413043478261e+01 -5.000000000000e+00 0.0 
4.510869565217e+01 -5.000000000000e+00 0.0 
4.608695652174e+01 -5.000000000000e+00 0.0 
4.706521739130e+01 -5.000000000000e+00 0.0 
4.804347826087e+01 -5.000000000000e+00 0.0 
4.902173913043e+01 -5.000000000000e+00 0.0 
4.900000000001e+01 -6.000000000000e+00 0.0 
4.800000000003e+01 -6.000000000000e+00 0.0 
4.700000000004e+01 -6.000000000000e+00 0.0 
4.600000000006e+01 -6.000000000000e+00 0.0 
4.500000000007e+01 -6.000000000000e+00 0.0 
4.400000000009e+01 -6.000000000000e+00 0.0 
4.300000000010e+01 -6.000000000000e+00 0.0 
4.200000000012e+01 -6.000000000000e+00 0.0 
4.100000000013e+01 -6.000000000000e+00 0.0 
4.000000000014e+01 -6.000000000000e+00 0.0 
3.900000000014e+01 -6.000000000000e+00 0.0 
3.800000000012e+01 -6.000000000000e+00 0.0 
3.700000000010e+01 -6.000000000000e+00 0.0 
3.600000000008e+01 -6.000000000000e+00 0.0 
3.500000000006e+01 -6.000000000000e+00 0.0 
3.400000000005e+01 -6.000000000000e+00 0.0 
3.300000000003e+01 -6.000000000000e+00 0.0 
3.200000000001e+01 -6.000000000000e+00 0.0 
3.100000000000e+01 -6.000000000000e+00 0.0 
3.000000000000e+01 -6.000000000000e+00 0.0 
3.147499999998e+01 -7.000000000000e+00 0.0 
3.244999999998e+01 -7.000000000000e+00 0.0 
3.342499999998e+01 -7.000000000000e+00 0.0 
3.439999999998e+01 -7.000000000000e+00 0.0 
3.537499999998e+01 -7.000000000000e+00 0.0 
3.634999999998e+01 -7.000000000000e+00 0.0 
3.732499999998e+01 -7.000000000000e+00 0.0 
3.829999999998e+01 -7.000000000000e+00 0.0 
3.927499999999e+01 -7.000000000000e+00 0.0 
4.024999999999e+01 -7.000000000000e+00 0.0 
4.122499999999e+01 -7.000000000000e+00 0.0 
4.219999999999e+01 -7.000000000000e+00 0.0 
4.317499999999e+01 -7.000000000000e+00 0.0 
4.414999999999e+01 -7.000000000000e+00 0.0 
4.512499999999e+01 -7.000000000000e+00 0.0 
4.609999999999e+01 -7.000000000000e+00 0.0 
4.707500000000e+01 -7.000000000000e+00 0.0 
4.805000000000e+01 -7.000000000000e+00 0.0 
4.902500000000e+01 -7.000000000000e+00 0.0 
4.900000000000e+01 -8.000000000000e+00 0.0 
4.800000000000e+01 -8.000000000000e+00 0.0 
4.700000000000e+01 -8.000000000000e+00 0.0 
4.600000000000e+01 -8.000000000000e+00 0.0 
4.500000000000e+01 -8.000000000000e+00 0.0 
4.400000000000e+01 -8.000000000000e+00 0.0 
4.300000000000e+01 -8.000000000000e+00 0.0 
4.200000000000e+01 -8.000000000000e+00 0.0 
4.100000000000e+01 -8.000000000000e+00 0.0 
4.000000000000e+01 -8.000000000000e+00 0.0 
3.900000000000e+01 -8.000000000000e+00 0.0 
3.800000000000e+01 -8.000000000000e+00 0.0 
3.700000000000e+01 -8.000000000000e+00 0.0 
3.600000000000e+01 -8.000000000000e+00 0.0 
3.500000000000e+01 -8.000000000000e+00 0.0 
3.400000000000e+01 -8.000000000000e+00 0.0 
3.300000000000e+01 -8.000000000000e+00 0.0 
3.447058823527e+01 -9.000000000000e+00 0.0 
3.544117647055e+01 -9.000000000000e+00 0.0 
3.641176470582e+01 -9.000000000000e+00 0.0 
3.738235294109e+01 -9.000000000000e+00 0.0 
3.835294117637e+01 -9.000000000000e+00 0.0 
3.932352941164e+01 -9.000000000000e+00 0.0 
4.029411764691e+01 -9.000000000000e+00 0.0 
4.126470588219e+01 -9.000000000000e+00 0.0 
4.223529411748e+01 -9.000000000000e+00 0.0 
4.320588235279e+01 -9.000000000000e+00 0.0 
4.417647058811e+01 -9.000000000000e+00 0.0 
4.514705882342e+01 -9.000000000000e+00 0.0 
4.611764705874e+01 -9.000000000000e+00 0.0 
4.708823529405e+01 -9.000000000000e+00 0.0 
4.805882352937e+01 -9.000000000000e+00 0.0 
4.902941176468e+01 -9.000000000000e+00 0.0 
2.075000000000e+01 -5.000000000006e-01 0.0 
2.225000000000e+01 -1.500000000000e+00 0.0 
2.375000000000e+01 -2.500000000000e+00 0.0 
2.525000000000e+01 -3.500000000000e+00 0.0 
2.675000000000e+01 -4.500000000000e+00 0.0 
2.825000000000e+01 -5.500000000000e+00 0.0 
2.975000000000e+01 -6.500000000000e+00 0.0 
3.125000000000e+01 -7.500000000000e+00 0.0 
3.275000000000e+01 -8.500000000000e+00 0.0 
3.425000000000e+01 -9.500000000000e+00 0.0 
2.226951693683e+01 -2.403913980114e+00 0.0 
1.650149491944e+01 -1.913490915758e+01 0.0 
1.050042386896e+01 -8.504605092970e-01 0.0 
1.553146524712e+01 -8.281255032105e-01 0.0 
1.150000000008e+01 -1.913397459621e+01 0.0 
2.530060260647e+01 -4.428336431260e+00 0.0 
8.651114563942e-01 -1.052096295641e+01 0.0 
2.050000000013e+01 -1.913397459622e+01 0.0 
2.819198729811e+01 -6.399519052838e+00 0.0 
2.445670302931e+01 -1.915649188023e+01 0.0 
3.117591465718e+01 -8.394293040695e+00 0.0 
7.465053044742e+00 -1.920411160581e+01 0.0 
6.398295709691e+00 -8.230098819370e-01 0.0 
2.849659607461e+01 -1.914296187762e+01 0.0 
3.418732642882e+01 -1.040265792588e+01 0.0 
8.386450935063e-01 -6.533605142809e+00 0.0 
9.178661865596e-01 -1.329769195597e+01 0.0 
3.149448624493e+01 -1.910466733764e+01 0.0 
3.552916747426e+01 -1.914628590759e+01 0.0 
4.449210346537e+01 -1.914359085008e+01 0.0 
4.140975975145e+01 -1.906941860733e+01 0.0 
3.847475958753e+01 -1.916622382724e+01 0.0 
3.653774794640e+01 -1.088712800241e+01 0.0 
4.047886341787e+01 -1.090139014048e+01 0.0 
4.348006339825e+01 -1.092792621489e+01 0.0 
4.919519968029e+01 -1.451526755068e+01 0.0 
4.500000000032e+00 -1.913397459621e+01 0.0 
1.856136921614e+01 -8.212235170404e-01 0.0 
3.499895312306e+00 -8.661165539723e-01 0.0 
9.076088696565e-01 -1.642306201891e+01 0.0 
4.655174095477e+01 -1.086183387525e+01 0.0 
9.430688970604e-01 -3.496112672958e+00 0.0 
3.353992337063e+01 -1.901202090820e+01 0.0 
2.249746016977e+01 -1.921262287282e+01 0.0 
2.650122741777e+01 -1.916123026018e+01 0.0 
1.863571384842e+01 -1.908325534840e+01 0.0 
1.450089971693e+01 -1.917691901860e+01 0.0 
1.350044695317e+01 -8.659695299584e-01 0.0 
3.849987469880e+01 -1.084154983397e+01 0.0 
9.454419857884e+00 -1.900818879936e+01 0.0 
4.917398660523e+01 -1.645692866081e+01 0.0 
8.500000000000e+00 -8.660254037844e-01 0.0 
8.660319230785e-01 -8.500111697188e+00 0.0 
4.649022621545e+01 -1.930506220113e+01 0.0 
2.667688107845e+01 -5.420288124331e+00 0.0 
2.379251615665e+01 -3.412225477429e+00 0.0 
2.966631491830e+01 -7.389030232731e+00 0.0 
3.267915035995e+01 -9.396934932445e+00 0.0 
2.074836922338e+01 -1.320054020319e+00 0.0 
4.915985743621e+01 -1.261973384855e+01 0.0 
2.527129768623e+00 -1.931592414663e+01 0.0 
1.538676247410e+00 -8.436956619311e-01 0.0 
4.908096641539e+01 -1.842484004551e+01 0.0 
3.478612492673e+01 -1.090889364140e+01 0.0 
3.409757055860e+01 -1.131991530427e+01 0.0 
3.501895309466e+01 -1.177687842717e+01 0.0 
3.407758073088e+01 -1.224293381580e+01 0.0 
3.484541875390e+01 -1.277051428430e+01 0.0 
3.400322025842e+01 -1.319022775640e+01 0.0 
3.321672625034e+01 -1.266779191233e+01 0.0 
3.315244139236e+01 -1.360984106532e+01 0.0 
3.236335186892e+01 -1.308463225210e+01 0.0 
3.478337442841e+01 -1.372341158982e+01 0.0 
3.230105923633e+01 -1.403023731610e+01 0.0 
3.150954055289e+01 -1.350301767700e+01 0.0 
3.144604792090e+01 -1.444931742516e+01 0.0 
3.065653897123e+01 -1.392357262981e+01 0.0 
3.071897610812e+01 -1.297447031198e+01 0.0 
2.986790411740e+01 -1.339226181535e+01 0.0 
2.993181466745e+01 -1.244703272398e+01 0.0 
2.908023061869e+01 -1.286254537734e+01 0.0 
2.901619051372e+01 -1.380881655279e+01 0.0 
2.822986160390e+01 -1.327695262116e+01 0.0 
2.829453476870e+01 -1.233265343811e+01 0.0 
2.744542905518e+01 -1.274510491105e+01 0.0 
2.751120089246e+01 -1.180368086886e+01 0.0 
2.666218649885e+01 -1.221619339205e+01 0.0 
2.672371209234e+01 -1.127125228527e+01 0.0 
2.587763216302e+01 -1.168539979114e+01 0.0 
2.581165585299e+01 -1.262994410089e+01 0.0 
2.502890882577e+01 -1.209827323619e+01 0.0 
2.509631327757e+01 -1.115492410304e+01 0.0 
2.424662989877e+01 -1.156630981079e+01 0.0 
2.431704046904e+01 -1.062389179334e+01 0.0 
2.346445438728e+01 -1.103427680694e+01 0.0 
2.339382552877e+01 -1.197964871788e+01 0.0 
2.260936050780e+01 -1.144513277642e+01 0.0 
2.268075012022e+01 -1.049911928216e+01 0.0 
2.182525737661e+01 -1.090920811464e+01 0.0 
2.189682319817e+01 -9.961716944568e+00 0.0 
2.104174127792e+01 -1.037266986667e+01 0.0 
2.111304367575e+01 -9.424179358711e+00 0.0 
2.025306185381e+01 -9.832727364719e+00 0.0 
2.018141124247e+01 -1.079140628871e+01 0.0 
1.938594498257e+01 -1.025147354112e+01 0.0 
1.946106490453e+01 -9.288010758448e+00 0.0 
1.858929958352e+01 -9.706319802516e+00 0.0 
1.851540991219e+01 -1.067205988724e+01 0.0 
1.771485303178e+01 -1.012504443115e+01 0.0 
1.764134552256e+01 -1.109360378538e+01 0.0 
1.683745148095e+01 -1.054496365337e+01 0.0 
1.691852964353e+01 -9.582555261178e+00 0.0 
1.603603813062e+01 -1.000160132379e+01 0.0 
1.595824239350e+01 -1.096750698862e+01 0.0 
1.515080624291e+01 -1.041639501931e+01 0.0 
1.523171602559e+01 -9.451711491453e+00 0.0 
1.434621060709e+01 -9.871956467464e+00 0.0 
1.426777178765e+01 -1.083749501371e+01 0.0 
1.345775282374e+01 -1.028803175500e+01 0.0 
1.354103873368e+01 -9.324918457162e+00 0.0 
1.265072018622e+01 -9.742612837270e+00 0.0 
1.257285762070e+01 -1.071557782384e+01 0.0 
1.175874815690e+01 -1.015972324288e+01 0.0 
1.184203019714e+01 -9.193604071377e+00 0.0 
1.094927709905e+01 -9.612103238656e+00 0.0 
1.086938022910e+01 -1.058685085646e+01 0.0 
1.005424098961e+01 -1.002939116380e+01 0.0 
9.977974613295e+00 -1.101324897989e+01 0.0 
1.012915646404e+01 -9.051815821181e+00 0.0 
9.237127782494e+00 -9.471239055559e+00 0.0 
9.308426593771e+00 -8.483376461131e+00 0.0 
8.418806073345e+00 -8.910712374517e+00 0.0 
2.253688464062e+01 -1.239459402279e+01 0.0 
8.495126726666e+00 -7.921646665254e+00 0.0 
9.389727383206e+00 -7.512103628377e+00 0.0 
7.601560812974e+00 -8.349460349344e+00 0.0 
7.525680547759e+00 -9.339736686940e+00 0.0 
7.677888324502e+00 -7.359727833346e+00 0.0 
6.782001206724e+00 -7.788454494773e+00 0.0 
6.858778622885e+00 -6.797338062822e+00 0.0 
2.196596590865e+01 -8.979025665442e+00 0.0 
2.816540108272e+01 -1.422634142353e+01 0.0 
5.961601194403e+00 -7.226824010712e+00 0.0 
6.038171749656e+00 -6.234825887079e+00 0.0 
6.936257279557e+00 -5.805287640737e+00 0.0 
6.115068918323e+00 -5.242109758768e+00 0.0 
3.564391741903e+01 -1.329240553876e+01 0.0 
3.558115605778e+01 -1.425902892003e+01 0.0 
3.645445282201e+01 -1.381970786460e+01 0.0 
3.639744204358e+01 -1.479198128612e+01 0.0 
3.727266909778e+01 -1.435399586226e+01 0.0 
5.216667013081e+00 -5.671788584287e+00 0.0 
3.220697293295e+01 -1.499594545107e+01 0.0 
3.551112158269e+01 -1.523479869250e+01 0.0 
2.836056961467e+01 -1.139032434851e+01 0.0 
2.516730388602e+01 -1.021382726837e+01 0.0 
1.844436907403e+01 -1.164097215196e+01 0.0 
5.885434318740e+00 -8.218694781467e+00 0.0 
5.064071066867e+00 -7.656614643901e+00 0.0 
4.988089103470e+00 -8.649722082718e+00 0.0 
1.079421050408e+01 -1.157014985435e+01 0.0 
9.902420005256e+00 -1.199903342656e+01 0.0 
1.071994252214e+01 -1.255727909771e+01 0.0 
9.826974788171e+00 -1.298659581767e+01 0.0 
1.064607883789e+01 -1.354595476388e+01 0.0 
9.751541265343e+00 -1.397556905071e+01 0.0 
8.932296185869e+00 -1.341553353988e+01 0.0 
8.856399248106e+00 -1.440570715508e+01 0.0 
8.036186803543e+00 -1.384470558472e+01 0.0 
1.057112875118e+01 -1.453516759081e+01 0.0 
1.146582585687e+01 -1.410539926903e+01 0.0 
7.959894480382e+00 -1.483563350928e+01 0.0 
7.138792279156e+00 -1.427465094140e+01 0.0 
7.062506792418e+00 -1.526615385482e+01 0.0 
6.240693558277e+00 -1.470508863040e+01 0.0 
6.316957575451e+00 -1.371212581281e+01 0.0 
5.418183007107e+00 -1.414253605022e+01 0.0 
5.494748364428e+00 -1.314886770603e+01 0.0 
1.756825565873e+01 -1.206433872514e+01 0.0 
1.837565773345e+01 -1.261356468266e+01 0.0 
1.749574831391e+01 -1.303769280014e+01 0.0 
1.830539187332e+01 -1.358828364284e+01 0.0 
1.742278925170e+01 -1.401367746928e+01 0.0 
1.823303007798e+01 -1.456432294258e+01 0.0 
1.734941694138e+01 -1.499213734361e+01 0.0 
1.653760041637e+01 -1.443920312098e+01 0.0 
3.056237977307e+01 -1.487132260174e+01 0.0 
1.866469084762e+01 -8.742953000418e+00 0.0 
1.953669694916e+01 -8.326038909849e+00 0.0 
1.874194303780e+01 -7.780688158966e+00 0.0 
1.961032016741e+01 -7.366854697285e+00 0.0 
1.881715755159e+01 -6.821102209649e+00 0.0 
1.968369797150e+01 -6.407747217358e+00 0.0 
1.889237123259e+01 -5.858375520026e+00 0.0 
1.802038875366e+01 -6.276202618170e+00 0.0 
1.809793837984e+01 -5.307629520489e+00 0.0 
1.721985207997e+01 -5.728242054488e+00 0.0 
1.729850893523e+01 -4.756990819347e+00 0.0 
1.641745664240e+01 -5.174636548624e+00 0.0 
2.495978509456e+01 -1.304406404294e+01 0.0 
1.911567814831e+01 -1.413854250293e+01 0.0 
1.904387332608e+01 -1.511463127723e+01 0.0 
1.992115934240e+01 -1.468788025898e+01 0.0 
7.013706899628e+00 -4.812582868662e+00 0.0 
5.342091874585e+00 -1.513658157269e+01 0.0 
1.139098043784e+01 -1.509488509480e+01 0.0 
1.228151810610e+01 -1.465617481983e+01 0.0 
1.646373110164e+01 -1.541993323337e+01 0.0 
5.293328636712e+00 -4.678385108584e+00 0.0 
1.975965862987e+01 -5.448124345648e+00 0.0 
2.054318374236e+01 -5.992561293251e+00 0.0 
3.721453439063e+01 -1.533216152738e+01 0.0 
3.809302733893e+01 -1.489235527381e+01 0.0 
1.220852788900e+01 -1.565304565230e+01 0.0 
4.394120899730e+00 -5.108397613210e+00 0.0 
8.779354620288e+00 -1.539524721159e+01 0.0 
1.817791047702e+01 -4.338570146253e+00 0.0 
4.518860013839e+00 -1.457343189307e+01 0.0 
4.442712140414e+00 -1.556841391069e+01 0.0 
8.115343466391e+00 -1.285760324283e+01 0.0 
1.985334703171e+01 -1.566478400426e+01 0.0 
2.071953850276e+01 -1.522074243119e+01 0.0 
1.634012953883e+01 -6.154777738301e+00 0.0 
1.553479994708e+01 -5.593730508879e+00 0.0 
1.561265946942e+01 -4.617761762647e+00 0.0 
1.470674212978e+01 -5.064576488228e+00 0.0 
1.464498299883e+01 -6.026514471420e+00 0.0 
1.383271561817e+01 -5.467796261169e+00 0.0 
1.389241253067e+01 -4.504338666645e+00 0.0 
1.301868735463e+01 -4.907185188626e+00 0.0 
1.294514184846e+01 -5.888160903592e+00 0.0 
1.212955968622e+01 -5.328262335277e+00 0.0 
1.220721122383e+01 -4.341264976687e+00 0.0 
1.131324345897e+01 -4.766773516508e+00 0.0 
5.266597955397e+00 -1.613148974258e+01 0.0 
1.737805990867e+01 -3.786677807525e+00 0.0 
3.078438094513e+01 -1.203225297748e+01 0.0 
1.131569882285e+01 -1.608511932110e+01 0.0 
1.728478341782e+01 -1.596017432313e+01 0.0 
3.803465906019e+01 -1.587509751228e+01 0.0 
3.891681276677e+01 -1.543395196905e+01 0.0 
3.897340985302e+01 -1.444710288980e+01 0.0 
3.980095968193e+01 -1.499059496613e+01 0.0 
3.974334598189e+01 -1.597921884150e+01 0.0 
4.062964983717e+01 -1.553518690417e+01 0.0 
4.068729602479e+01 -1.454434445295e+01 0.0 
4.151772679790e+01 -1.508974196007e+01 0.0 
4.157505195739e+01 -1.409694289912e+01 0.0 
4.240699932656e+01 -1.464347955968e+01 0.0 
4.234898051011e+01 -1.563721375790e+01 0.0 
4.323934606035e+01 -1.519082036405e+01 0.0 
4.329740528208e+01 -1.419587509788e+01 0.0 
4.413056841369e+01 -1.474359631875e+01 0.0 
4.418850110108e+01 -1.374786684042e+01 0.0 
4.502219770667e+01 -1.429605103525e+01 0.0 
4.496411937907e+01 -1.529215882720e+01 0.0 
4.490027319897e+00 -4.154167794594e+00 0.0 
1.565080385988e+01 -1.486411982419e+01 0.0 
1.557610691279e+01 -1.584855627870e+01 0.0 
4.195350646612e+00 -8.089117689096e+00 0.0 
4.124027797830e+00 -9.082831955007e+00 0.0 
4.917944318925e+00 -9.643530901533e+00 0.0 
4.020105689502e+00 -1.007439673661e+01 0.0 
4.587185899277e+01 -1.484039992728e+01 0.0 
4.580078661551e+01 -1.584043391042e+01 0.0 
2.061956522375e+01 -5.046701343981e+00 0.0 
2.139572955529e+01 -5.579553449826e+00 0.0 
3.715344357292e+01 -1.631485124583e+01 0.0 
3.618886196443e+00 -1.500471207167e+01 0.0 
3.695606940204e+00 -1.400939692294e+01 0.0 
2.438890661143e+01 -9.686110599723e+00 0.0 
2.523267572778e+01 -9.276766000622e+00 0.0 
2.446094171539e+01 -8.751904591412e+00 0.0 
2.529089822738e+01 -8.321495612547e+00 0.0 
2.606882688827e+01 -8.864724051119e+00 0.0 
2.452116646430e+01 -7.792756462004e+00 0.0 
1.235543269617e+01 -1.365845617339e+01 0.0 
4.318116874181e+01 -1.618567469992e+01 0.0 
7.835066111909e+00 -5.376366223896e+00 0.0 
7.905687335704e+00 -4.382539065697e+00 0.0 
3.542640009567e+00 -1.600035116542e+01 0.0 
1.572431503071e+01 -1.388358386695e+01 0.0 
2.574684696680e+01 -1.357896141127e+01 0.0 
2.488842657651e+01 -1.399674354505e+01 0.0 
2.568301775611e+01 -1.453552048595e+01 0.0 
2.481535572009e+01 -1.495542756508e+01 0.0 
2.561729699688e+01 -1.549784648532e+01 0.0 
2.474623061296e+01 -1.592058894178e+01 0.0 
2.394234041695e+01 -1.537572575827e+01 0.0 
2.065825452567e+01 -1.621899055217e+01 0.0 
2.387180528935e+01 -1.634552264687e+01 0.0 
4.585364400844e+01 -1.383912334080e+01 0.0 
1.998744432052e+01 -1.370317155541e+01 0.0 
1.205356951443e+01 -6.313580285498e+00 0.0 
5.396543905849e+00 -3.731818611283e+00 0.0 
1.139652573295e+01 -3.745819399350e+00 0.0 
3.574124306703e+00 -4.551456826011e+00 0.0 
3.494140761930e+00 -5.539787055649e+00 0.0 
1.213651452413e+01 -1.664505033022e+01 0.0 
2.555045568519e+01 -1.646529356744e+01 0.0 
2.641671114986e+01 -1.603899382371e+01 0.0 
2.612920721894e+01 -7.906435260873e+00 0.0 
2.690339829698e+01 -8.456969591431e+00 0.0 
1.978024383368e+01 -1.664410216353e+01 0.0 
3.732829979082e+01 -1.336926601859e+01 0.0 
4.074336584605e+01 -1.355133328401e+01 0.0 
4.163204691081e+01 -1.310280943992e+01 0.0 
3.773826114429e+00 -3.493444309145e+00 0.0 
1.228783001032e+01 -3.374822835872e+00 0.0 
4.057110462520e+01 -1.652588478000e+01 0.0 
2.132535497898e+01 -6.523623360525e+00 0.0 
2.216932532211e+01 -6.110044769206e+00 0.0 
1.825781152128e+01 -3.370146817147e+00 0.0 
1.745679445888e+01 -2.812942552063e+00 0.0 
4.666517057280e+01 -1.539981381543e+01 0.0 
4.660575894464e+01 -1.639014410186e+01 0.0 
4.838230979954e+00 -1.063643436446e+01 0.0 
3.938942630206e+00 -1.106778981745e+01 0.0 
1.302967218620e+01 -1.621373452436e+01 0.0 
1.049548003190e+01 -4.204825123240e+00 0.0 
4.573571907195e+01 -1.683820511148e+01 0.0 
1.483686335807e+01 -1.430849689310e+01 0.0 
1.490982658890e+01 -1.332679386284e+01 0.0 
3.190805600162e+00 -9.510968358545e+00 0.0 
2.146625721848e+01 -4.642437303115e+00 0.0 
2.069866208266e+01 -4.111852942193e+00 0.0 
1.286859345584e+01 -6.873252723348e+00 0.0 
1.041794493184e+01 -5.194814260291e+00 0.0 
2.671081808965e+00 -4.976806516331e+00 0.0 
1.295786792925e+01 -1.720506531799e+01 0.0 
3.968438206511e+01 -1.696869067241e+01 0.0 
2.308550456051e+01 -1.579963151273e+01 0.0 
2.315593682844e+01 -1.482967445235e+01 0.0 
2.299471449450e+01 -1.677069968132e+01 0.0 
1.057344714696e+01 -3.214252277840e+00 0.0 
1.124057603753e+01 -1.707713739755e+01 0.0 
2.718402535754e+00 -1.543629882103e+01 0.0 
2.638549692805e+01 -1.696744916809e+01 0.0 
2.723416349007e+01 -1.658104204545e+01 0.0 
2.210193351704e+01 -7.046769643417e+00 0.0 
2.295180925161e+01 -6.657397605239e+00 0.0 
2.301355235833e+01 -5.709111896800e+00 0.0 
2.379052718281e+01 -6.254965406962e+00 0.0 
3.243528601237e+01 -1.214181853533e+01 0.0 
2.287977995457e+01 -7.583722368300e+00 0.0 
2.999876029544e+01 -1.150837653096e+01 0.0 
3.084435366963e+01 -1.109693775882e+01 0.0 
3.006650579669e+01 -1.057778994262e+01 0.0 
2.683802665066e+01 -9.386863216633e+00 0.0 
2.768641973621e+01 -8.988883915666e+00 0.0 
2.040296980397e+01 -7.903629133404e+00 0.0 
1.925235024054e+01 -1.218872783130e+01 0.0 
5.735667000424e+00 -1.020577277283e+01 0.0 
6.396559909872e+00 -1.272326295703e+01 0.0 
1.161199420714e+01 -1.212812778229e+01 0.0 
4.229046132615e+01 -1.663084237572e+01 0.0 
4.312275399692e+01 -1.718087491556e+01 0.0 
4.335502068163e+01 -1.320039231514e+01 0.0 
4.424630298089e+01 -1.275160688731e+01 0.0 
7.090116643816e+00 -3.818998061530e+00 0.0 
7.989472176569e+00 -3.389238711200e+00 0.0 
9.085824861778e+00 -1.144036167408e+01 0.0 
1.041972423731e+01 -1.651614080893e+01 0.0 
3.797525112640e+01 -1.686052038746e+01 0.0 
3.709114253394e+01 -1.730125999865e+01 0.0 
3.626966748340e+01 -1.675477052919e+01 0.0 
1.385164591440e+01 -1.677597757552e+01 0.0 
1.787152588784e+01 -8.198993896093e+00 0.0 
1.668849729812e+01 -1.248560611628e+01 0.0 
1.659546177905e+01 -3.232482605530e+00 0.0 
2.332214717345e+01 -1.292598167641e+01 0.0 
7.168238450786e+00 -2.824711686516e+00 0.0 
2.894878403906e+01 -1.475427524446e+01 0.0 
2.646763248247e+00 -1.643270107952e+01 0.0 
3.467431944285e+00 -1.699648837348e+01 0.0 
2.059475877282e+01 -1.719473628526e+01 0.0 
3.333868355437e+01 -1.080596971682e+01 0.0 
2.246451062637e+01 -1.334557761546e+01 0.0 
2.167821896388e+01 -1.280847834858e+01 0.0 
3.089653185767e+01 -1.017198487212e+01 0.0 
3.012604365669e+01 -9.657298805968e+00 0.0 
2.929627299435e+01 -1.006100135274e+01 0.0 
2.936201435219e+01 -9.136748899251e+00 0.0 
1.198219052702e+01 -7.291887238230e+00 0.0 
1.116702076035e+01 -6.731976101053e+00 0.0 
2.551388807505e+01 -1.746927036981e+01 0.0 
2.378639090370e+01 -1.728678807149e+01 0.0 
2.718543627188e+01 -1.748668016909e+01 0.0 
2.804681050301e+01 -1.712626668293e+01 0.0 
1.970737034667e+01 -1.762317646822e+01 0.0 
1.889535776135e+01 -1.707158098231e+01 0.0 
2.593777711283e+00 -5.971157087874e+00 0.0 
2.773468281110e+01 -8.067164273938e+00 0.0 
4.051205884347e+01 -1.751819982458e+01 0.0 
3.166903145421e+01 -1.068032992414e+01 0.0 
1.033042452886e+01 -1.748285844336e+01 0.0 
9.519274604626e+00 -1.694349240233e+01 0.0 
1.668308673328e+01 -2.255861778986e+00 0.0 
1.570531902832e+01 -2.676795860126e+00 0.0 
4.655826903379e+01 -1.736656245706e+01 0.0 
2.384148070773e+01 -5.328744256413e+00 0.0 
2.460255123641e+01 -5.852182672816e+00 0.0 
2.306638135119e+01 -4.798935440613e+00 0.0 
8.467720450578e-01 -1.849576263072e+01 0.0 
4.849657322345e+01 -1.084860705506e+01 0.0 
2.565860899507e+00 -1.742859793981e+01 0.0 
2.764418872564e+01 -9.927142821799e+00 0.0 
4.565165880064e+01 -1.785336695404e+01 0.0 
2.162231831329e+01 -1.376528337468e+01 0.0 
2.360646352969e+01 -9.136041963102e+00 0.0 
1.392738739903e+01 -1.578285505772e+01 0.0 
4.756405947478e+01 -1.683706841809e+01 0.0 
4.740895034054e+01 -1.793766756892e+01 0.0 
4.080779328826e+01 -1.257387192544e+01 0.0 
4.168907939671e+01 -1.210739129181e+01 0.0 
3.991197722154e+01 -1.300815793917e+01 0.0 
1.905536506762e+01 -3.940076697685e+00 0.0 
1.923879596617e+01 -2.875000734166e+00 0.0 
4.401386745746e+01 -1.673483229438e+01 0.0 
4.247233362525e+00 -7.094581653070e+00 0.0 
3.286051630211e+00 -7.635300020553e+00 0.0 
9.609533347623e+00 -4.594311677967e+00 0.0 
9.523554636369e+00 -5.595597029530e+00 0.0 
5.660336628893e+00 -1.119290329628e+01 0.0 
6.558070063295e+00 -1.076385809362e+01 0.0 
2.809866407414e+01 -1.518037766799e+01 0.0 
2.888868674504e+01 -1.570360690070e+01 0.0 
2.654431550819e+01 -1.411217777162e+01 0.0 
1.402158265969e+01 -1.375404617952e+01 0.0 
1.409592494026e+01 -1.277071998942e+01 0.0 
1.499355196178e+01 -1.235270737023e+01 0.0 
4.221535326155e+01 -1.759335617494e+01 0.0 
4.305583287033e+01 -1.822663146802e+01 0.0 
1.280748808359e+01 -7.834332838285e+00 0.0 
1.368988389326e+01 -7.420529606172e+00 0.0 
1.110091796060e+01 -7.683966794328e+00 0.0 
3.963446145980e+01 -1.794331310122e+01 0.0 
3.423932362213e+00 -1.796415590455e+01 0.0 
4.280814572302e+00 -1.752272834860e+01 0.0 
8.050136380041e+00 -2.421582378631e+00 0.0 
8.888674091650e+00 -2.984264211327e+00 0.0 
2.152839430898e+01 -3.732609965436e+00 0.0 
2.077799585292e+01 -3.183896021866e+00 0.0 
3.618719395821e+01 -1.770276572576e+01 0.0 
3.538165138340e+01 -1.718709995539e+01 0.0 
3.702925326420e+01 -1.828844288807e+01 0.0 
1.756739438711e+00 -5.353284859169e+00 0.0 
2.233710191104e+01 -1.527265621324e+01 0.0 
1.389483555057e+01 -1.771797164730e+01 0.0 
1.475634224300e+01 -1.728357428390e+01 0.0 
1.298797563052e+01 -1.825968924755e+01 0.0 
2.145331271866e+01 -1.673705379077e+01 0.0 
2.133282821169e+01 -1.769400773673e+01 0.0 
2.292139194136e+01 -1.774915400288e+01 0.0 
1.750750053243e+01 -1.861475593469e+00 0.0 
4.830478841772e+01 -1.752611802221e+01 0.0 
4.341203507805e+01 -1.220326745522e+01 0.0 
1.685254151866e+01 -1.443085301632e+00 0.0 
4.431538535165e+01 -1.171841387375e+01 0.0 
4.511308610496e+01 -1.229557320599e+01 0.0 
4.510133242889e+01 -1.123680627466e+01 0.0 
1.846818030617e+00 -4.410877617069e+00 0.0 
3.995468694584e+01 -1.186571542989e+01 0.0 
3.901387459804e+01 -1.242507616755e+01 0.0 
8.966735877533e+00 -1.837818700423e+00 0.0 
4.049310011091e+01 -1.848269508791e+01 0.0 
7.278862053803e+00 -1.918523922691e+00 0.0 
6.429715522129e+00 -2.316676521184e+00 0.0 
9.443505505022e+00 -1.792198868094e+01 0.0 
8.620386951051e+00 -1.737590365556e+01 0.0 
8.571868171503e+00 -1.834436667826e+01 0.0 
7.758629848526e+00 -1.775677907213e+01 0.0 
7.806648388584e+00 -1.680761266021e+01 0.0 
6.908555145436e+00 -1.723746463044e+01 0.0 
4.251709122090e+01 -1.156937480156e+01 0.0 
6.931136405615e+00 -1.832465719263e+01 0.0 
6.015545461353e+00 -1.768865355295e+01 0.0 
5.960535926343e+00 -1.872011001764e+01 0.0 
3.023253444786e+01 -8.761960642196e+00 0.0 
2.454622702599e+01 -6.749421992767e+00 0.0 
2.537499741604e+01 -6.347634963783e+00 0.0 
2.544077378460e+01 -5.431358513649e+00 0.0 
2.801367161747e+01 -1.820907270221e+01 0.0 
2.884507806914e+01 -1.762032095326e+01 0.0 
1.821474531936e+00 -1.588901260460e+01 0.0 
1.821006262604e+00 -1.489370287756e+01 0.0 
4.599962488908e+01 -1.176478780598e+01 0.0 
4.705457470007e+01 -1.172182804229e+01 0.0 
4.667668314802e+01 -1.263464558483e+01 0.0 
4.759648056504e+01 -1.252380987933e+01 0.0 
4.728041618103e+01 -1.341928568376e+01 0.0 
4.825209352360e+01 -1.330491640804e+01 0.0 
4.778118233428e+01 -1.420151961695e+01 0.0 
2.388192727579e+01 -1.826934810142e+01 0.0 
2.381714684947e+01 -4.385917965223e+00 0.0 
3.172733219247e+01 -9.758744265248e+00 0.0 
1.882012070658e+01 -1.805540597212e+01 0.0 
1.805667505243e+01 -1.742221226236e+01 0.0 
2.852599958080e+01 -8.597196079481e+00 0.0 
2.856486123437e+01 -7.661382718527e+00 0.0 
1.111792842875e+01 -1.818223852980e+01 0.0 
2.203322722466e+01 -7.986646678802e+00 0.0 
3.955703676900e+01 -1.903246763601e+01 0.0 
1.944842206513e+01 -8.038750575182e-01 0.0 
1.909882767783e+01 -1.746322740933e+00 0.0 
2.281147422941e+01 -8.525912918334e+00 0.0 
2.850633001468e+01 -9.533271335986e+00 0.0 
2.532883344309e+01 -7.308951659710e+00 0.0 
2.620475466461e+01 -6.979208585400e+00 0.0 
1.396278270396e+01 -1.475095389807e+01 0.0 
9.791001166724e+00 -2.554159793552e+00 0.0 
2.229293380421e+01 -4.269762271052e+00 0.0 
4.677238984118e+01 -1.430071795514e+01 0.0 
2.228658385918e+01 -3.344747535984e+00 0.0 
8.940223674553e-01 -1.543595733415e+01 0.0 
2.118566862474e+01 -8.435876987696e+00 0.0 
2.678325936437e+01 -1.032621195706e+01 0.0 
2.223400220487e+01 -5.179046761770e+00 0.0 
2.375370625384e+01 -7.251580562134e+00 0.0 
3.156971327386e+01 -1.255534750737e+01 0.0 
3.328226391312e+01 -1.172914813316e+01 0.0 
3.250948774219e+01 -1.120157009348e+01 0.0 
2.032993445717e+01 -8.867880112202e+00 0.0 
2.697226974856e+01 -7.536633082045e+00 0.0 
2.707377810386e+01 -6.590835263295e+00 0.0 
2.914099246827e+01 -1.191678458549e+01 0.0 
3.544824072239e+01 -1.621126558525e+01 0.0 
3.456511855436e+01 -1.665054783843e+01 0.0 
3.448395810225e+01 -1.759117813016e+01 0.0 
3.368378673938e+01 -1.708037781328e+01 0.0 
3.375560452567e+01 -1.610973066913e+01 0.0 
3.288001547988e+01 -1.654324255651e+01 0.0 
3.282475929147e+01 -1.749725654692e+01 0.0 
3.199880906313e+01 -1.697294088625e+01 0.0 
3.197001272932e+01 -1.811667776864e+01 0.0 
3.111884713021e+01 -1.742166785755e+01 0.0 
3.120418962865e+01 -1.642155709385e+01 0.0 
3.034666704371e+01 -1.683123833816e+01 0.0 
3.026224379976e+01 -1.772592851714e+01 0.0 
3.046632362943e+01 -1.582232843075e+01 0.0 
1.961344017324e+01 -1.857459447985e+01 0.0 
2.274975894774e+01 -9.532738811922e+00 0.0 
1.833923246887e+01 -2.396746883672e+00 0.0 
1.988859500848e+01 -2.249244376594e+00 0.0 
2.758045562861e+01 -1.086434261689e+01 0.0 
3.247300178163e+01 -1.909930104252e+01 0.0 
3.461947482503e+01 -1.911879848019e+01 0.0 
2.047161538662e+01 -6.941478180358e+00 0.0 
2.750230940214e+01 -1.915490590764e+01 0.0 
3.165081350803e+01 -1.161860780120e+01 0.0 
1.897456727641e+01 -4.889634688522e+00 0.0 
2.549338539756e+01 -1.914858252089e+01 0.0 
3.462873135081e+01 -1.567482276144e+01 0.0 
3.384432415243e+01 -1.512280684518e+01 0.0 
3.471433767690e+01 -1.469086942990e+01 0.0 
3.651470373046e+01 -1.918207952149e+01 0.0 
3.901742690249e+01 -1.345028556517e+01 0.0 
2.153224102692e+01 -1.920169709333e+01 0.0 
1.918382939341e+01 -1.316226275662e+01 0.0 
2.005389162382e+01 -1.271962165174e+01 0.0 
2.011472087878e+01 -1.175029352900e+01 0.0 
3.210679478412e+01 -1.598038618242e+01 0.0 
1.752175226543e+01 -1.914713022656e+01 0.0 
1.696897240059e+01 -1.832772588765e+01 0.0 
1.599682523337e+01 -1.832599992024e+01 0.0 
1.644507199462e+01 -1.743697981535e+01 0.0 
1.549987712903e+01 -1.915192375101e+01 0.0 
3.050250861901e+01 -1.918943550234e+01 0.0 
2.949944061527e+01 -1.922950455235e+01 0.0 
1.375892575273e+01 -6.447160534926e+00 0.0 
1.457223670180e+01 -7.006709243857e+00 0.0 
1.450818793236e+01 -7.965943451779e+00 0.0 
1.538804712402e+01 -7.553409623699e+00 0.0 
1.545817644768e+01 -6.580929593419e+00 0.0 
1.626506893751e+01 -7.129032608911e+00 0.0 
1.619833811522e+01 -8.086588580887e+00 0.0 
1.714448609609e+01 -6.697429609777e+00 0.0 
2.887616543568e+01 -1.668015232137e+01 0.0 
1.349814589130e+01 -1.918225301544e+01 0.0 
1.153887772210e+01 -1.311384581217e+01 0.0 
1.242708159886e+01 -1.267046795531e+01 0.0 
1.249799674267e+01 -1.169005616014e+01 0.0 
6.631723893693e+00 -9.774184881867e+00 0.0 
7.451471631867e+00 -1.033148796006e+01 0.0 
7.377795355458e+00 -1.132196345268e+01 0.0 
5.810931797536e+00 -9.211654212252e+00 0.0 
2.402683899133e+01 -1.441378562320e+01 0.0 
1.249768692036e+01 -1.917388426624e+01 0.0 
1.580373499437e+01 -1.290751860664e+01 0.0 
8.344650507834e+00 -9.898403995170e+00 0.0 
3.750622115305e+01 -1.086526401533e+01 0.0 
3.699391251667e+01 -1.171695900794e+01 0.0 
3.606517829518e+01 -1.173717504500e+01 0.0 
3.650257641795e+01 -1.270047380221e+01 0.0 
3.808951488918e+01 -1.183518714175e+01 0.0 
4.760380962420e+00 -1.162484888315e+01 0.0 
3.861210370848e+00 -1.205657631736e+01 0.0 
3.038284309476e+00 -1.149851280664e+01 0.0 
2.961598794889e+00 -1.248856794980e+01 0.0 
2.138953225512e+00 -1.193212674534e+01 0.0 
2.227383593457e+00 -1.096258903918e+01 0.0 
2.043265419276e+00 -1.292158472959e+01 0.0 
1.252449446028e+00 -1.225502002753e+01 0.0 
3.949985210740e+01 -1.086594001795e+01 0.0 
1.453499444792e+01 -8.768805922472e-01 0.0 
1.403518950933e+01 -1.749965556633e+00 0.0 
1.300715031023e+01 -1.714737233040e+00 0.0 
1.350929389899e+01 -2.527443911291e+00 0.0 
1.449600910711e+01 -2.595486162864e+00 0.0 
1.395693872901e+01 -3.484211041558e+00 0.0 
1.495105865208e+01 -3.364609636216e+00 0.0 
1.508822528740e+01 -1.766586020494e+00 0.0 
1.250223858430e+01 -8.634590186802e-01 0.0 
1.200279523409e+01 -1.709044504992e+00 0.0 
1.150086239419e+01 -8.592789190668e-01 0.0 
1.101482754194e+01 -1.677730591922e+00 0.0 
1.148018564526e+01 -2.659323866909e+00 0.0 
8.800552119754e+00 -3.989875954728e+00 0.0 
3.452790439430e+00 -1.901136170646e+01 0.0 
8.658451825200e-01 -9.503462241795e+00 0.0 
1.694787786797e+00 -9.000589234502e+00 0.0 
1.703436717094e+00 -8.038819004041e+00 0.0 
2.594197971110e+00 -8.563955242845e+00 0.0 
1.630513735412e+00 -9.907244747511e+00 0.0 
8.566859292791e-01 -7.512203837972e+00 0.0 
1.685461277022e+00 -7.164280248030e+00 0.0 
2.506394468801e+00 -8.623386730818e-01 0.0 
2.007475081581e+00 -1.727729545205e+00 0.0 
9.211534699767e-01 -1.628791366312e+00 0.0 
1.500000000020e+00 -2.598063549486e+00 0.0 
2.482078929963e+00 -2.553580088725e+00 0.0 
2.999795253092e+00 -1.732169015019e+00 0.0 
3.999712607169e+00 -1.728832897453e+00 0.0 
4.499752199340e+00 -8.656478679175e-01 0.0 
4.964377774841e+00 -1.730129617941e+00 0.0 
4.425017908337e+00 -2.597541756243e+00 0.0 
5.446573195014e+00 -8.410144840023e-01 0.0 
4.915722346614e+01 -1.550640962770e+01 0.0 
4.826794919243e+01 -1.600000000000e+01 0.0 
1.053139533193e+01 -1.911782884365e+01 0.0 
4.156049861949e+01 -1.095160998589e+01 0.0 
9.494526624416e+00 -8.650570090219e-01 0.0 
4.555762166964e+01 -1.897098103585e+01 0.0 
4.250656411371e+01 -1.914387356218e+01 0.0 
4.350906466345e+01 -1.917234727395e+01 0.0 
8.759665722424e-01 -1.746422130609e+01 0.0 
1.698936011838e+00 -1.795012186674e+01 0.0 
4.742476811029e+01 -1.900090177972e+01 0.0 
7.749196752349e+00 -6.368049313489e+00 0.0 
3.361572113416e+01 -1.798765193915e+01 0.0 
4.484660149212e+01 -1.728661231383e+01 0.0 
1.984038172228e+01 -4.502575320116e+00 0.0 
1.035080352627e+01 -6.166639575753e+00 0.0 
2.753558010652e+00 -1.444909521181e+01 0.0 
7.217069543032e+00 -1.328635391078e+01 0.0 
4.364336727739e+00 -1.655585677381e+01 0.0 
4.595208426108e+00 -1.357919665443e+01 0.0 
6.164967006980e+00 -1.569873454630e+01 0.0 
1.487855768353e+01 -1.826523774028e+01 0.0 
2.791876456372e+00 -4.019632415181e+00 0.0 
4.246464893515e+01 -1.364898659620e+01 0.0 
4.503855590351e+01 -1.329552780944e+01 0.0 
4.407239109604e+01 -1.573900004093e+01 0.0 
5.141054449252e+00 -6.664290382472e+00 0.0 
3.141083947149e+00 -1.055790764912e+01 0.0 
6.196463198741e+00 -4.256497932609e+00 0.0 
2.599618716181e+01 -1.836893455464e+01 0.0 
2.923057372337e+01 -1.098461757645e+01 0.0 
1.168343877486e+01 -1.114079645041e+01 0.0 
6.706222096238e+00 -8.780364234441e+00 0.0 
8.567858614669e+00 -6.943121440850e+00 0.0 
1.123755132901e+01 -5.753525820030e+00 0.0 
2.353456234423e+01 -1.008536320953e+01 0.0 
9.162073319168e+00 -1.045593739109e+01 0.0 
9.676343469685e+00 -1.496493008366e+01 0.0 
4.490637882905e+01 -1.628778970202e+01 0.0 
7.398129387772e+00 -9.639977982323e-01 0.0 
1.049641705805e+01 -1.552503975272e+01 0.0 
9.010356286268e+00 -1.242805042052e+01 0.0 
3.985573925497e+01 -1.399863651620e+01 0.0 
1.816196318262e+01 -1.554066497931e+01 0.0 
1.306332244168e+01 -3.963646550326e+00 0.0 
4.145850903932e+01 -1.608094559275e+01 0.0 
3.794664933633e+01 -1.779020121986e+01 0.0 
3.819614412903e+01 -1.290749321016e+01 0.0 
6.270014188119e+00 -3.255093186826e+00 0.0 
4.251165370388e+01 -1.263870364997e+01 0.0 
1.207347709171e+01 -1.763942826023e+01 0.0 
3.633240829927e+01 -1.577330481104e+01 0.0 
4.319052668832e+00 -6.101812561904e+00 0.0 
1.676492415806e+01 -1.151547901392e+01 0.0 
2.594059220037e+01 -1.074225223009e+01 0.0 
3.340750911501e+01 -9.898764354137e+00 0.0 
4.397619591281e+01 -1.769773736461e+01 0.0 
2.175611595028e+01 -1.185718747128e+01 0.0 
1.641818733106e+01 -1.640685203215e+01 0.0 
1.661211421753e+01 -1.346121366338e+01 0.0 
3.428853504935e+00 -6.551993389271e+00 0.0 
8.700728832502e+00 -1.638460872825e+01 0.0 
1.931369795309e+01 -1.121629383702e+01 0.0 
4.139798872363e+01 -1.706922153459e+01 0.0 
2.647837478700e+01 -1.507353829290e+01 0.0 
1.779469616424e+01 -9.161615782908e+00 0.0 
3.885879219319e+01 -1.642026488918e+01 0.0 
1.338194936770e+01 -1.125916521471e+01 0.0 
1.897071181111e+01 -1.609204322578e+01 0.0 
2.844308548793e+01 -1.046221003096e+01 0.0 
2.659854702194e+01 -1.316109415760e+01 0.0 
2.979604503271e+01 -1.433296157755e+01 0.0 
2.417694041347e+01 -1.251231397779e+01 0.0 
1.807401327411e+00 -1.388891148480e+01 0.0 
9.599810618782e+00 -1.595439365034e+01 0.0 
1.652144692160e+01 -4.205392788472e+00 0.0 
2.367839450246e+01 -8.188385218643e+00 0.0 
3.814894930468e+01 -1.390748338767e+01 0.0 
2.466448215774e+01 -1.685878545680e+01 0.0 
4.134044524611e+01 -1.806610045954e+01 0.0 
2.600511411958e+01 -9.801774120648e+00 0.0 
7.882158050716e+00 -1.582364037353e+01 0.0 
3.881607873422e+01 -1.737970515013e+01 0.0 
8.270182347708e+00 -1.088622154920e+01 0.0 
8.672520392520e-01 -4.532984309881e+00 0.0 
1.993447205337e+01 -3.579061902667e+00 0.0 
1.794616079549e+01 -7.238038888498e+00 0.0 
2.097277068165e+01 -1.132450168636e+01 0.0 
8.194803300681e+00 -1.187214224265e+01 0.0 
3.522279404911e+01 -1.823342818178e+01 0.0 
6.984481050295e+00 -1.625271465557e+01 0.0 
1.309433007797e+01 -1.521718594215e+01 0.0 
2.150246167611e+01 -1.885399038185e+00 0.0 
3.250689370209e+01 -1.028789870535e+01 0.0 
6.085886272238e+00 -1.668342132851e+01 0.0 
1.588455661727e+01 -1.193498985921e+01 0.0 
1.809323400821e+01 -1.651110084195e+01 0.0 
1.348885082381e+00 -1.136065576512e+01 0.0 
2.497670221995e+01 -1.834631276173e+01 0.0 
2.937062818424e+01 -8.233711194470e+00 0.0 
5.185823744469e+00 -1.711566910207e+01 0.0 
1.477497877209e+01 -1.530177014512e+01 0.0 
2.125346158933e+01 -7.473003997367e+00 0.0 
4.751561118290e+01 -1.084897772632e+01 0.0 
5.056026576843e+00 -1.825750475525e+01 0.0 
1.473948554523e+01 -1.634577436309e+01 0.0 
2.410566630936e+01 -1.345970002612e+01 0.0 
1.507337507513e+01 -1.138527895328e+01 0.0 
3.189857338687e+01 -8.887781229006e+00 0.0 
7.298712468334e+00 -1.230231046246e+01 0.0 
2.738235495295e+01 -1.368931690364e+01 0.0 
3.750141041969e+01 -1.920449893070e+01 0.0 
1.557271965640e+01 -1.683317951731e+01 0.0 
3.393731848929e+01 -1.413034777044e+01 0.0 
6.482156824153e+00 -1.174575135362e+01 0.0 
2.077971718439e+01 -1.421279621836e+01 0.0 
3.455084320178e+00 -2.562590040585e+00 0.0 
3.099056096250e+01 -9.270280416035e+00 0.0 
5.580176125418e+00 -1.217387969259e+01 0.0 
1.707247630389e+01 -7.660651981710e+00 0.0 
1.418658814174e+01 -1.180390575393e+01 0.0 
2.049103025389e+01 -1.811296706038e+01 0.0 
4.680386172316e+00 -1.260396879301e+01 0.0 
1.699679896554e+01 -8.624561788199e+00 0.0 
3.779470168555e+00 -1.303424899720e+01 0.0 
3.036589870126e+01 -7.879832518349e+00 0.0 
3.306993001774e+01 -1.457671062095e+01 0.0 
2.840150110165e+00 -1.346530088269e+01 0.0 
2.732011135052e+01 -1.464591214560e+01 0.0 
5.423639259568e+00 -2.659711955016e+00 0.0 
2.324455961696e+01 -1.387269388211e+01 0.0 
1.752768355571e+00 -1.693128613594e+01 0.0 
1.020244783051e+01 -8.076834012808e+00 0.0 
1.330873875224e+01 -1.222417528206e+01 0.0 
3.297727364880e+01 -1.555480372087e+01 0.0 
2.890929955439e+01 -6.868664170731e+00 0.0 
1.323294664622e+01 -1.320754260334e+01 0.0 
2.726532861246e+01 -1.560593120806e+01 0.0 
2.240020643398e+01 -1.429299177247e+01 0.0 
2.090445823633e+01 -1.228128621332e+01 0.0 
1.315809881502e+01 -1.420739326938e+01 0.0 
2.781328038068e+01 -7.181956082300e+00 0.0 
8.614200829057e+00 -5.936933226306e+00 0.0 
8.714765730069e+00 -4.979270529687e+00 0.0 
1.611881701099e+01 -9.041973294003e+00 0.0 
2.806830314340e+01 -1.614622947108e+01 0.0 
2.084435391396e+00 -3.385085422913e+00 0.0 
3.133211811152e+01 -1.542347619750e+01 0.0 
9.693114650768e+00 -3.590281506442e+00 0.0 
1.531883592202e+01 -8.504584946143e+00 0.0 
2.151589117094e+01 -1.578915763018e+01 0.0 
4.918943882696e+01 -1.355538828056e+01 0.0 
1.443236615188e+01 -8.918701794549e+00 0.0 
8.276250966452e-01 -5.537685192197e+00 0.0 
1.362790867918e+01 -8.374718262212e+00 0.0 
2.083767477370e+01 -1.324843956035e+01 0.0 
1.273834678703e+01 -8.790890389337e+00 0.0 
1.192275845670e+01 -8.242261327467e+00 0.0 
4.477236023583e+01 -1.824312396664e+01 0.0 
1.102989384254e+01 -8.649855800911e+00 0.0 
4.849096516045e+01 -1.917293752213e+01 0.0 
1.588996752238e+00 -1.910230934687e+01 0.0 
4.904245197583e+01 -1.159839008158e+01 0.0 
2.753852929608e+01 -5.782128488093e+00 0.0 
1.756133602833e+01 -8.306130313187e-01 0.0 
2.615423700951e+01 -6.153865090092e+00 0.0 
1.028818761294e+01 -7.122020845892e+00 0.0 
2.970818901196e+01 -1.527821347593e+01 0.0 
4.801461623449e+01 -1.164472570985e+01 0.0 
9.455722100419e+00 -6.546069291118e+00 0.0 
3.089099236677e+01 -1.835339328261e+01 0.0 
2.350000000013e+01 -1.920825896750e+01 0.0 
4.830620531887e+01 -1.506626155470e+01 0.0 
1.725381944701e+01 -1.688794487850e+01 0.0 
2.156246225273e+01 -1.475893794002e+01 0.0 
4.919319648787e+01 -1.742767505896e+01 0.0 
4.437935623576e+01 -1.077662927266e+01 0.0 
1.001520521978e+01 -1.652692675208e+00 0.0 
9.067160240050e-01 -1.441937727541e+01 0.0 
2.603365149390e+01 -4.755996613848e+00 0.0 
2.458344439002e+01 -4.873645517696e+00 0.0 
2.304312390142e+01 -3.836552768096e+00 0.0 
2.546923202198e+00 -6.902480355749e+00 0.0 
1.251534969393e+01 -2.490989965776e+00 0.0 
2.454061833377e+01 -3.933354231935e+00 0.0 
1.788186558740e+01 -1.827424884923e+01 0.0 
4.090785243552e+01 -1.166553231904e+01 0.0 
2.230128851568e+01 -1.623015738726e+01 0.0 
2.302362347568e+01 -2.916239960270e+00 0.0 
3.878119254461e+01 -1.830091164002e+01 0.0 
2.210081359958e+01 -1.829238229150e+01 0.0 
8.443704882233e+00 -1.921993252862e+01 0.0 
2.218405824691e+01 -1.724557581508e+01 0.0 
2.151157503963e+01 -2.790636689331e+00 0.0 
3.741658958955e+01 -1.250400191722e+01 0.0 
2.697247663737e+01 -1.838290202309e+01 0.0 
4.743362342862e+01 -1.585850773010e+01 0.0 
6.671345075358e+00 -1.924977576322e+01 0.0 
3.900825404537e+01 -1.157220003875e+01 0.0 
4.649692961375e+01 -1.836335837481e+01 0.0 
1.578831424832e+01 -3.678284023361e+00 0.0 
4.814208768888e+01 -1.841249298770e+01 0.0 
2.964123298315e+01 -1.625739458193e+01 0.0 
4.580760351902e+01 -1.284294554687e+01 0.0 
3.561520879615e+01 -1.245548941949e+01 0.0 
2.555418095658e+00 -1.841101588290e+01 0.0 
3.288468366144e+01 -1.834258164109e+01 0.0 
2.065894391445e+01 -2.240688571739e+00 0.0 
4.739171429915e+01 -1.496536413446e+01 0.0 
3.478086729185e+00 -8.576434653209e+00 0.0 
1.606010630246e+01 -1.588421807951e+00 0.0 
1.018329200594e+01 -1.834320874317e+01 0.0 
2.957213339430e+01 -1.720496954591e+01 0.0 
4.142712790164e+00 -1.837794506222e+01 0.0 
6.698721532573e-01 -2.499999999997e+00 0.0 
8.037039123140e+00 -1.571229354954e+00 0.0 
1.203541361428e+01 -1.847784298001e+01 0.0 
2.899968332038e+01 -1.848264722179e+01 0.0 
1.469229460948e+01 -4.219485753730e+00 0.0 
4.049590781957e+01 -1.932812501995e+01 0.0 
1.996211678340e+01 -1.506329754720e+00 0.0 
4.250588298353e+01 -1.067383247529e+01 0.0 
5.831497011152e+00 -1.635396227234e+00 0.0 
5.317606125670e+00 -1.923927974868e+01 0.0 
4.208546426993e+01 -1.842830665025e+01 0.0 
2.327553405011e+00 -9.459409929662e+00 0.0 
3.568351902251e+01 -1.096637218582e+01 0.0 
1.682104374890e+00 -6.231413350963e+00 0.0 
2.451812238018e+01 -1.766524914339e+01 0.0 
1.058003429638e+01 -2.391839617098e+00 0.0 
4.399988753123e+01 -1.851998776342e+01 0.0 
1.400000000010e+01 -1.852293523028e+01 0.0 
3.604719565984e+01 -1.850662876800e+01 0.0 
1.951297136734e+01 -1.938092349694e+01 0.0 
1.821365318472e+01 -1.531276353287e+00 0.0 
2.298031859732e+01 -1.854635324722e+01 0.0 
1.552168066204e+01 -1.764280741977e+01 0.0 
4.572957713638e+01 -1.073347898229e+01 0.0 
3.429637429624e+01 -1.838861552790e+01 0.0 
2.427434426052e+00 -7.705577451869e+00 0.0 
4.662792031485e+00 -3.359424455416e+00 0.0 
4.926794919243e+01 -1.926794919243e+01 0.0 
7.320508075690e-01 -7.320508075688e-01 0.0 
4.926794919243e+01 -1.073205080757e+01 0.0 
7.320508075705e-01 -1.926794919243e+01 0.0 
2.917460242467e+00 -3.202866455310e+00 0.0 
4.838200575963e+01 -1.232674147454e+01 0.0 
2.998445708009e+01 -1.854403752148e+01 0.0 
5.949940090766e-01 -1.152762038165e+01 0.0 
4.844763495759e+01 -1.678092548787e+01 0.0 
1.301685480160e+01 -3.170056592566e+00 0.0 
1.650046335855e+01 -6.731535384067e-01 0.0 
4.854881540991e+01 -1.405224059779e+01 0.0 
2.119545114693e+01 -1.846813384545e+01 0.0 
3.797852849897e+01 -1.857978513215e+01 0.0 
4.649823708745e+01 -1.338351810816e+01 0.0 
2.012685900976e+01 -2.889659035009e+00 0.0 
2.953271913273e+01 -1.791558075192e+01 0.0 
2.408509097292e+00 -1.021949208421e+01 0.0 
2.642589566221e+01 -1.773216561448e+01 0.0 
1.730010270775e+01 -1.763165076721e+01 0.0 
2.017406551304e+01 -8.513536440582e-01 0.0 
5.254761581934e-01 -1.249999999999e+01 0.0 
6.640448215642e+00 -1.545337834885e+00 0.0 
7.843361506349e+00 -1.852719839527e+01 0.0 
1.588442191088e+00 -1.066158564320e+01 0.0 
2.580823483239e+01 -3.416278049680e+00 0.0 
4.950961538461e+01 -3.500000000000e+00 0.0 
2.731250000000e+01 -4.420918367347e+00 0.0 
4.951086956522e+01 -4.500000000000e+00 0.0 
2.880770112393e+01 -5.415638864241e+00 0.0 
4.951086956522e+01 -5.500000000000e+00 0.0 
3.031250000000e+01 -6.420918367347e+00 0.0 
4.951250000000e+01 -6.500000000000e+00 0.0 
3.180701530612e+01 -7.414795918363e+00 0.0 
4.951250000000e+01 -7.500000000000e+00 0.0 
3.331250000000e+01 -8.420918367347e+00 0.0 
4.951470588234e+01 -8.500000000000e+00 0.0 
3.480610198624e+01 -9.413633635267e+00 0.0 
4.951470588234e+01 -9.500000000000e+00 0.0 

SCALARS node_number int
LOOKUP_TABLE default
1
2
3
4
5
6
7
8
9
10
11
12
13
14
15
16
17
18
19
20
21
22
23
24
25
26
27
28
29
30
31
32
33
34
35
36
37
38
39
40
41
42
43
44
45
46
47
48
49
50
51
52
53
54
55
56
57
58
59
60
61
62
63
64
65
66
67
68
69
70
71
72
73
74
75
76
77
78
79
80
81
82
84
85
86
87
88
89
90
91
92
93
96
97
98
99
100
101
102
104
105
106
107
108
109
110
111
112
113
114
115
116
117
118
119
120
121
122
123
124
125
126
127
128
129
130
131
132
133
134
135
136
220
221
222
223
224
225
226
227
228
229
230
231
232
233
234
235
236
237
238
239
240
241
242
243
244
245
246
247
248
249
250
251
252
253
254
255
256
257
258
259
260
261
262
263
264
265
266
267
268
269
270
271
272
273
274
275
276
277
278
279
280
281
282
283
284
285
286
287
288
289
290
291
292
293
294
295
296
297
298
299
300
301
302
303
304
305
306
307
308
309
310
311
312
313
314
315
316
317
318
319
320
321
322
323
324
325
326
327
328
329
330
331
332
333
334
335
336
337
338
339
340
341
342
343
344
345
346
347
348
349
350
351
352
353
354
355
356
357
358
359
360
361
362
363
364
365
366
367
368
369
370
371
372
373
374
375
376
377
378
379
380
381
382
383
384
385
386
387
388
389
390
391
392
393
394
395
396
397
398
399
400
401
402
403
404
405
406
407
408
409
410
411
412
413
414
415
416
417
418
419
420
421
422
423
424
425
426
427
428
429
430
431
432
433
434
435
436
437
438
439
440
441
442
443
444
445
446
447
448
449
450
451
452
453
454
455
456
457
458
459
460
461
462
463
464
465
466
467
468
469
470
471
472
473
474
475
476
477
478
479
480
481
482
483
484
485
486
487
488
489
490
491
492
493
494
495
496
497
498
499
500
501
502
503
504
505
506
507
508
509
510
511
512
513
514
515
516
517
518
519
520
521
522
523
524
525
526
527
528
529
530
531
532
533
534
535
536
537
538
539
540
541
542
543
544
545
546
547
548
549
550
551
552
553
554
555
556
557
558
559
560
561
562
563
564
565
566
567
568
569
570
571
572
573
574
575
576
577
578
579
580
581
582
583
584
585
586
587
588
589
590
591
592
593
594
595
596
597
598
599
600
601
602
603
604
605
606
607
608
609
610
611
612
613
614
615
616
617
618
619
620
621
622
623
624
625
626
627
628
629
630
631
632
633
634
635
636
637
638
639
640
641
642
643
644
645
646
647
648
649
650
651
652
653
654
655
656
657
658
659
660
661
662
663
664
665
666
667
668
669
670
671
672
673
674
675
676
677
678
679
680
681
682
683
684
685
686
687
688
689
690
691
692
693
694
695
696
697
698
699
700
701
702
703
704
705
706
707
708
709
710
711
712
713
714
715
716
717
718
719
720
721
722
723
724
725
726
727
728
729
730
731
732
733
734
735
736
737
738
739
740
741
742
743
744
745
746
747
748
749
750
751
752
753
754
755
756
757
758
759
760
761
762
763
764
765
766
767
768
769
770
771
772
773
774
775
776
777
778
779
780
781
782
783
784
785
786
787
788
789
790
791
792
793
794
795
796
797
798
799
800
801
802
803
804
805
806
807
808
809
810
811
812
813
814
815
816
817
818
819
820
821
822
823
824
825
826
827
828
829
830
831
832
833
834
835
836
837
838
839
840
841
842
843
844
845
846
847
848
849
850
851
852
853
854
855
856
857
858
859
860
861
862
863
864
865
866
867
868
869
870
871
872
873
874
875
876
877
878
879
880
881
882
883
884
885
886
887
888
889
890
891
892
893
894
895
896
897
898
899
900
901
902
903
904
905
906
907
908
909
910
911
912
913
914
915
916
917
918
919
920
921
922
923
924
925
926
927
928
929
930
931
932
933
934
935
936
937
938
939
940
941
942
943
944
945
946
947
948
949
950
951
952
953
954
955
956
957
958
959
960
961
962
963
964
965
966
967
968
969
970
971
972
973
974
975
976
977
978
979
980
981
982
983
984
985
986
987
988
989
990
991
992
993
994
995
996
997
998
999
1000
1001
1002
1003
1004
1005
1006
1007
1008
1009
1010
1011
1012
1013
1014
1015
1016
1017
1018
1019
1020
1021
1022
1023
1024
1025
1026
1027
1028
1029
1030
1031
1032
1033
1034
1035
1036
1037
1038
1039
1040
1041
1042
1043
1044
1045
1046
1047
1048
1049
1050
1051
1052
1053
1054
1055
1056
1057
1058
1059
1060
1061
1062
1063
1064
1065
1066
1067
1068
1069
1070
1071
1072
1073
1074
1075
1076
1077
1078
1079
1080
1081
1082
1083
1084
1085
1086
1087
1088
1089
1090
1091
1092
1093
1094
1095
1096
1097
1098
1099
1100
1101
1102
1103
1104
1105
1106
1107
1108
1109
1110
1111
1112
1113
1114
1115
1116
1117
1118
1119
1120
1121
1122
1123
1124
1125
1126
1127
1128
1129
1130
1131
1132
1133
1134
1135
1136
1137
1138
1139
1140
1141
1142
1143
1144
1145
1146
1147
1148
1149
1150
1151
1152
1153
1154
1155
1156
1157
1158
1159
1160
1161
1162
1163
1164
1165
1166
1167
1168
1169
1170
1171
1172
1173
1174
1175
1176
1177
1178
1179
1180
1181
1182
1183
1184
1185
1186
1187
1188
1189
1190
1191
1192
1193
1194
1195
1196
1197
1198
1199
1200
1201
1202
1203
1204
1205
1206
1207
1208
1209
1210
1211
1212
1213
1214
1215
1216
1217
1218
1219
1220
1221
1222
1223
1224
1225
1226
1227
1228
1229
1230
1231
1232
1233
1234
1235
1236
1237
1238
1239
1240
1241
1242
1243
1244
1245
1246
1247
1248
1249
1250
1251
1252
1253
1254
1255
1256
1257
1258
1259
1260
1261
1262
1263
1264
1271
1272
1273
1274
1275
1276
1277
1278
1279
1280
1281
1282
1283
1284

VECTORS node_mesh_deformation float
0.0 7.697278289935e-02 0.0 
0.000000000000e+00 9.292071344459e-02 0.0 
0.0 0.000000000000e+00 0.0 
0.000000000000e+00 0.000000000000e+00 0.0 
0.0 7.713936803296e-02 0.0 
0.0 7.680847052032e-02 0.0 
0.0 7.600183403868e-02 0.0 
0.0 7.472874717728e-02 0.0 
0.0 7.298311018196e-02 0.0 
0.0 7.080807384051e-02 0.0 
0.0 6.822601986944e-02 0.0 
0.0 6.525016986959e-02 0.0 
0.0 6.189619658970e-02 0.0 
0.0 5.817038655277e-02 0.0 
0.0 5.406906302664e-02 0.0 
0.0 4.959349325038e-02 0.0 
0.0 4.474790847997e-02 0.0 
0.0 3.954274151616e-02 0.0 
0.0 3.394261889961e-02 0.0 
0.0 2.795001892864e-02 0.0 
0.0 2.156266430256e-02 0.0 
0.0 1.477218408197e-02 0.0 
0.0 7.578542215967e-03 0.0 
0.000000000000e+00 0.000000000000e+00 0.0 
0.000000000000e+00 0.000000000000e+00 0.0 
0.000000000000e+00 0.000000000000e+00 0.0 
0.000000000000e+00 0.000000000000e+00 0.0 
0.000000000000e+00 0.000000000000e+00 0.0 
0.000000000000e+00 0.000000000000e+00 0.0 
0.000000000000e+00 0.000000000000e+00 0.0 
0.000000000000e+00 0.000000000000e+00 0.0 
0.000000000000e+00 0.000000000000e+00 0.0 
0.000000000000e+00 0.000000000000e+00 0.0 
0.000000000000e+00 0.000000000000e+00 0.0 
0.000000000000e+00 0.000000000000e+00 0.0 
0.000000000000e+00 0.000000000000e+00 0.0 
0.000000000000e+00 0.000000000000e+00 0.0 
0.000000000000e+00 0.000000000000e+00 0.0 
0.000000000000e+00 0.000000000000e+00 0.0 
0.000000000000e+00 0.000000000000e+00 0.0 
0.000000000000e+00 0.000000000000e+00 0.0 
0.000000000000e+00 0.000000000000e+00 0.0 
0.000000000000e+00 0.000000000000e+00 0.0 
0.000000000000e+00 0.000000000000e+00 0.0 
0.000000000000e+00 0.000000000000e+00 0.0 
0.000000000000e+00 0.000000000000e+00 0.0 
0.000000000000e+00 0.000000000000e+00 0.0 
0.000000000000e+00 0.000000000000e+00 0.0 
0.000000000000e+00 0.000000000000e+00 0.0 
0.000000000000e+00 0.000000000000e+00 0.0 
0.000000000000e+00 0.000000000000e+00 0.0 
0.000000000000e+00 0.000000000000e+00 0.0 
0.000000000000e+00 0.000000000000e+00 0.0 
0.000000000000e+00 0.000000000000e+00 0.0 
0.000000000000e+00 0.000000000000e+00 0.0 
0.000000000000e+00 0.000000000000e+00 0.0 
0.000000000000e+00 0.000000000000e+00 0.0 
0.000000000000e+00 0.000000000000e+00 0.0 
0.000000000000e+00 0.000000000000e+00 0.0 
0.000000000000e+00 0.000000000000e+00 0.0 
0.000000000000e+00 0.000000000000e+00 0.0 
0.000000000000e+00 0.000000000000e+00 0.0 
0.000000000000e+00 0.000000000000e+00 0.0 
0.000000000000e+00 0.000000000000e+00 0.0 
0.000000000000e+00 0.000000000000e+00 0.0 
0.000000000000e+00 0.000000000000e+00 0.0 
0.000000000000e+00 0.000000000000e+00 0.0 
0.000000000000e+00 0.000000000000e+00 0.0 
0.000000000000e+00 0.000000000000e+00 0.0 
0.000000000000e+00 0.000000000000e+00 0.0 
0.000000000000e+00 0.000000000000e+00 0.0 
0.000000000000e+00 0.000000000000e+00 0.0 
0.000000000000e+00 8.542271769137e-02 0.0 
0.000000000000e+00 7.750609016857e-02 0.0 
0.000000000000e+00 6.917239911633e-02 0.0 
0.000000000000e+00 6.043994065991e-02 0.0 
0.000000000000e+00 5.130681625261e-02 0.0 
0.000000000000e+00 4.178850990184e-02 0.0 
0.000000000000e+00 3.189098919794e-02 0.0 
0.000000000000e+00 2.162149121941e-02 0.0 
0.000000000000e+00 1.099024627016e-02 0.0 
-1.123164825711e-02 4.348397526560e-02 0.0 
9.467836838297e-03 9.028287704107e-02 0.0 
-4.281785516103e-03 6.642656579245e-02 0.0 
1.237238360488e-03 8.346416969551e-02 0.0 
5.244624998983e-03 9.605475839942e-02 0.0 
8.354955142849e-03 1.026434497675e-01 0.0 
1.022760283459e-02 1.053691954186e-01 0.0 
1.112776554883e-02 1.055558004554e-01 0.0 
1.134068717670e-02 1.037964784933e-01 0.0 
1.105860346183e-02 1.004885496591e-01 0.0 
1.040111330303e-02 9.590994863284e-02 0.0 
0.000000000000e+00 1.332401595007e-01 0.0 
0.000000000000e+00 1.287616600709e-01 0.0 
0.000000000000e+00 1.239006850248e-01 0.0 
0.000000000000e+00 1.185678561560e-01 0.0 
0.000000000000e+00 1.128275415277e-01 0.0 
0.000000000000e+00 1.066122445838e-01 0.0 
0.000000000000e+00 9.999582462532e-02 0.0 
5.271172819050e-04 9.292174935081e-02 0.0 
1.044292082305e-03 9.292304205354e-02 0.0 
1.573740203106e-03 9.292174669353e-02 0.0 
2.113014894228e-03 9.290946283636e-02 0.0 
2.662071051503e-03 9.289742312674e-02 0.0 
3.225128338322e-03 9.285850259062e-02 0.0 
3.808769222111e-03 9.280749736526e-02 0.0 
4.406037893361e-03 9.271995144769e-02 0.0 
5.036993211903e-03 9.260815432886e-02 0.0 
5.696186672459e-03 9.243543469696e-02 0.0 
6.381938259715e-03 9.220077464316e-02 0.0 
7.101031927590e-03 9.189164630580e-02 0.0 
7.852341565012e-03 9.148334841665e-02 0.0 
8.639242251810e-03 9.095089724867e-02 0.0 
-8.751436992512e-03 3.050556002766e-02 0.0 
-5.012267332937e-03 2.398607554800e-02 0.0 
-9.691120780992e-04 2.180313953656e-02 0.0 
3.307059757041e-03 2.412943324484e-02 0.0 
6.225531715122e-03 3.314613259008e-02 0.0 
7.654697197838e-03 4.375336162463e-02 0.0 
8.068462724092e-03 5.088263937277e-02 0.0 
7.976834693219e-03 5.643444678382e-02 0.0 
7.349532381072e-03 6.088446655237e-02 0.0 
6.727643302227e-03 6.445439522500e-02 0.0 
6.129632893664e-03 6.735835833436e-02 0.0 
5.475250508219e-03 6.967001793228e-02 0.0 
4.864496529738e-03 7.157662161329e-02 0.0 
4.141780716778e-03 7.312595144504e-02 0.0 
3.438290199316e-03 7.436840832229e-02 0.0 
2.770174398487e-03 7.532732101749e-02 0.0 
2.110863411741e-03 7.606604482598e-02 0.0 
1.447884617445e-03 7.660106608070e-02 0.0 
7.331827602755e-04 7.689452314264e-02 0.0 
3.863730675214e-03 1.039113633756e-01 0.0 
3.616669203055e-03 1.096545941316e-01 0.0 
3.518260615774e-03 1.142714692920e-01 0.0 
3.583087242834e-03 1.180159993630e-01 0.0 
3.718766118322e-03 1.210681721686e-01 0.0 
3.875688179242e-03 1.235610851092e-01 0.0 
4.022353256630e-03 1.255961724578e-01 0.0 
4.140842558115e-03 1.272526565205e-01 0.0 
4.220787872768e-03 1.285959597438e-01 0.0 
4.256656440660e-03 1.296786027139e-01 0.0 
4.245931059216e-03 1.305446973790e-01 0.0 
4.188344496761e-03 1.312310225371e-01 0.0 
4.085120325875e-03 1.317689128525e-01 0.0 
3.938545503992e-03 1.321848967027e-01 0.0 
3.751563178731e-03 1.325015052798e-01 0.0 
3.527512554200e-03 1.327378431145e-01 0.0 
3.269963491675e-03 1.329101302471e-01 0.0 
2.982644078294e-03 1.330321106740e-01 0.0 
2.669432510302e-03 1.331153885386e-01 0.0 
2.334413974332e-03 1.331697186541e-01 0.0 
1.982034701605e-03 1.332032465038e-01 0.0 
1.617385872628e-03 1.332226017427e-01 0.0 
1.246584727589e-03 1.332322836659e-01 0.0 
8.757473668339e-04 1.332304291473e-01 0.0 
4.637314788454e-04 1.332103955594e-01 0.0 
4.403350280242e-04 1.288002245545e-01 0.0 
8.718849401532e-04 1.287947721956e-01 0.0 
1.290068127595e-03 1.287965017097e-01 0.0 
1.698480260153e-03 1.287902991141e-01 0.0 
2.097739156156e-03 1.287745164428e-01 0.0 
2.486573909785e-03 1.287445167486e-01 0.0 
2.862915826455e-03 1.286934080387e-01 0.0 
3.224463142537e-03 1.286124573179e-01 0.0 
3.568981506021e-03 1.284910419831e-01 0.0 
3.894453898305e-03 1.283164420755e-01 0.0 
4.199201310314e-03 1.280735190034e-01 0.0 
4.482015864916e-03 1.277443131304e-01 0.0 
4.742362166866e-03 1.273075019023e-01 0.0 
4.980769754781e-03 1.267378593419e-01 0.0 
5.199059487246e-03 1.260054778355e-01 0.0 
5.401103726562e-03 1.250750669923e-01 0.0 
5.592948665083e-03 1.239042030817e-01 0.0 
5.785125595445e-03 1.224429945142e-01 0.0 
5.991190375255e-03 1.206283355443e-01 0.0 
6.235051568428e-03 1.183872673417e-01 0.0 
6.543193765374e-03 1.156134984842e-01 0.0 
6.971343846615e-03 1.122096926388e-01 0.0 
7.519377244222e-03 1.079838921968e-01 0.0 
9.422637611451e-03 1.091109723689e-01 0.0 
8.775303934748e-03 1.121564759876e-01 0.0 
8.189814344604e-03 1.146180653066e-01 0.0 
7.685748224620e-03 1.166325975986e-01 0.0 
7.232810320154e-03 1.182587943941e-01 0.0 
6.818504712413e-03 1.195733234566e-01 0.0 
6.427305418548e-03 1.206241606076e-01 0.0 
6.050175339503e-03 1.214591530454e-01 0.0 
5.679315217847e-03 1.221147026458e-01 0.0 
5.309519516182e-03 1.226232836937e-01 0.0 
4.936989852524e-03 1.230116518000e-01 0.0 
4.559513077588e-03 1.233029742817e-01 0.0 
4.175774270671e-03 1.235165894266e-01 0.0 
3.785122914110e-03 1.236688313563e-01 0.0 
3.387439783914e-03 1.237734936080e-01 0.0 
2.982988516777e-03 1.238421406681e-01 0.0 
2.572284745426e-03 1.238843728548e-01 0.0 
2.155788060456e-03 1.239078260194e-01 0.0 
1.733695961462e-03 1.239182102005e-01 0.0 
1.305862701244e-03 1.239190361535e-01 0.0 
8.725369300464e-04 1.239107814193e-01 0.0 
4.362289438191e-04 1.238771970709e-01 0.0 
4.633980649800e-04 1.186016243004e-01 0.0 
9.286043783590e-04 1.185917157063e-01 0.0 
1.393403252457e-03 1.185978388003e-01 0.0 
1.857027122263e-03 1.185981084823e-01 0.0 
2.319646604242e-03 1.185884250267e-01 0.0 
2.781853598229e-03 1.185644264963e-01 0.0 
3.244374000232e-03 1.185198856019e-01 0.0 
3.707830317076e-03 1.184466375234e-01 0.0 
4.173007161910e-03 1.183340582525e-01 0.0 
4.641126402561e-03 1.181693242369e-01 0.0 
5.113953445175e-03 1.179370438138e-01 0.0 
5.593738681469e-03 1.176190592266e-01 0.0 
6.083368496405e-03 1.171937927331e-01 0.0 
6.586513718560e-03 1.166346646141e-01 0.0 
7.109536440993e-03 1.159116858847e-01 0.0 
7.658202240314e-03 1.149877384022e-01 0.0 
8.243707439817e-03 1.138236244767e-01 0.0 
8.870837096019e-03 1.123610898594e-01 0.0 
9.561397679249e-03 1.105580078525e-01 0.0 
1.029393977557e-02 1.083150259966e-01 0.0 
1.051664818907e-02 1.057381781490e-01 0.0 
9.761494208703e-03 1.073293365899e-01 0.0 
9.029656220413e-03 1.085998993277e-01 0.0 
8.347711121814e-03 1.096324062897e-01 0.0 
7.701674094307e-03 1.104470619792e-01 0.0 
7.089659487207e-03 1.110895828589e-01 0.0 
6.503474966593e-03 1.115848822585e-01 0.0 
5.939808919685e-03 1.119632227614e-01 0.0 
5.394995382701e-03 1.122468143972e-01 0.0 
4.866086667327e-03 1.124543288050e-01 0.0 
4.350251464409e-03 1.126015434233e-01 0.0 
3.844724830259e-03 1.127021267958e-01 0.0 
3.347942004567e-03 1.127678033888e-01 0.0 
2.858360312977e-03 1.128079517489e-01 0.0 
2.374421028030e-03 1.128293680819e-01 0.0 
1.894626288198e-03 1.128376548440e-01 0.0 
1.417993214510e-03 1.128369986128e-01 0.0 
9.437365911324e-04 1.128298775814e-01 0.0 
4.715185485935e-04 1.128002011722e-01 0.0 
5.012264464028e-04 1.066430172854e-01 0.0 
1.004153785367e-03 1.066297712624e-01 0.0 
1.509905002777e-03 1.066334868674e-01 0.0 
2.021358473783e-03 1.066314572137e-01 0.0 
2.539329142209e-03 1.066199630864e-01 0.0 
3.066651715699e-03 1.065933387105e-01 0.0 
3.604839184966e-03 1.065459678651e-01 0.0 
4.157426764785e-03 1.064701124413e-01 0.0 
4.724975052980e-03 1.063565892226e-01 0.0 
5.311255025795e-03 1.061901191818e-01 0.0 
5.920031197910e-03 1.059563792044e-01 0.0 
6.553787005274e-03 1.056390030769e-01 0.0 
7.216241920936e-03 1.052167641863e-01 0.0 
7.911660693274e-03 1.046666058534e-01 0.0 
8.639148007205e-03 1.039486269382e-01 0.0 
9.413735450650e-03 1.030475122035e-01 0.0 
1.020898889551e-02 1.019005945411e-01 0.0 
9.583053270042e-03 9.687178927558e-02 0.0 
8.810758917377e-03 9.765986455758e-02 0.0 
8.051164600097e-03 9.826000207296e-02 0.0 
7.331612485117e-03 9.873680188572e-02 0.0 
6.645783779909e-03 9.910355171509e-02 0.0 
5.989691245006e-03 9.938088014178e-02 0.0 
5.361486597515e-03 9.958852427466e-02 0.0 
4.758929375029e-03 9.973654759012e-02 0.0 
4.176539874898e-03 9.983610086077e-02 0.0 
3.615464863699e-03 9.990853695106e-02 0.0 
3.069326468754e-03 9.995229903545e-02 0.0 
2.538653748147e-03 9.997999316202e-02 0.0 
2.017349439889e-03 9.999109560795e-02 0.0 
1.506345692128e-03 9.999605127796e-02 0.0 
1.002739338169e-03 9.999125805648e-02 0.0 
4.987397137270e-04 9.996252216737e-02 0.0 
-7.392045246490e-03 5.639029111114e-02 0.0 
-1.399322575022e-03 7.545722455783e-02 0.0 
3.505922866665e-03 9.036357379158e-02 0.0 
7.033207031274e-03 9.993010405722e-02 0.0 
9.489485974289e-03 1.043691348734e-01 0.0 
1.079747705664e-02 1.057208009358e-01 0.0 
1.131875087029e-02 1.048848216435e-01 0.0 
1.126214124964e-02 1.023150971435e-01 0.0 
1.077946343680e-02 9.834190183033e-02 0.0 
9.970242988004e-03 9.321505885770e-02 0.0 
4.942461537535e-03 7.421746095837e-02 0.0 
1.504153114105e-03 6.345750323991e-03 0.0 
4.073792910919e-03 6.276697147644e-02 0.0 
4.237217887244e-04 3.027115310818e-02 0.0 
4.023881504018e-04 6.249370788730e-03 0.0 
1.085278427927e-02 9.617717132107e-02 0.0 
-2.165845366917e-04 5.602742212292e-02 0.0 
2.425060094822e-03 6.843411432321e-03 0.0 
1.262218408150e-02 1.007110065821e-01 0.0 
2.801341382742e-03 7.368722736942e-03 0.0 
1.213626541974e-02 9.656873100511e-02 0.0 
-4.446103445055e-05 5.896374171790e-03 0.0 
3.180534484215e-03 7.264675478720e-02 0.0 
2.692130979053e-03 8.223052937293e-03 0.0 
1.025027414675e-02 8.666358780757e-02 0.0 
-1.773333063081e-04 6.940705607800e-02 0.0 
-1.692761896511e-04 4.321227558082e-02 0.0 
2.411338619510e-03 9.046033377157e-03 0.0 
1.667107233850e-03 9.031487118371e-03 0.0 
5.051830232503e-04 9.396282101903e-03 0.0 
9.119991995021e-04 1.014263435820e-02 0.0 
1.198304297830e-03 8.991479820427e-03 0.0 
8.307594662234e-03 8.464042593816e-02 0.0 
5.405994611181e-03 8.576161844903e-02 0.0 
3.529561508657e-03 8.589353764634e-02 0.0 
3.458143974342e-04 5.578393566205e-02 0.0 
-1.327639598436e-04 6.514154258163e-03 0.0 
-2.324069449159e-03 3.024534964214e-02 0.0 
1.810593289725e-03 7.583252357099e-02 0.0 
-1.041064315989e-04 2.527751396196e-02 0.0 
1.805190317889e-03 8.648542664223e-02 0.0 
7.151791873983e-05 7.535855988742e-02 0.0 
2.284247607946e-03 1.023363114479e-02 0.0 
2.485091986998e-03 6.538433879602e-03 0.0 
2.774418252447e-03 7.698254150792e-03 0.0 
2.144092048347e-03 6.949678106992e-03 0.0 
9.554832111540e-04 5.941491893200e-03 0.0 
2.649634646826e-03 4.731978984642e-02 0.0 
6.793490321698e-03 8.575985997302e-02 0.0 
1.330614187207e-04 7.209125825643e-03 0.0 
2.562228662768e-04 3.731083145227e-02 0.0 
3.838211234912e-03 6.861774470781e-02 0.0 
-2.267305247453e-04 6.354758639545e-02 0.0 
2.511583596174e-04 7.658741448527e-03 0.0 
1.217272108946e-02 9.953776139024e-02 0.0 
8.570510034062e-03 8.780246031054e-02 0.0 
1.259776726549e-02 9.950792495334e-02 0.0 
1.132596487722e-02 9.220838930026e-02 0.0 
-5.554884273451e-04 5.620536400217e-02 0.0 
4.181111959838e-04 7.239563727113e-02 0.0 
-7.222113304151e-05 5.201707683653e-03 0.0 
8.345145378035e-04 7.690735725794e-02 0.0 
1.392950870525e-04 1.715331261693e-02 0.0 
9.758422337995e-03 8.335849298757e-02 0.0 
1.035213695562e-02 7.967710192753e-02 0.0 
9.503184237680e-03 7.681776868698e-02 0.0 
1.018920403630e-02 7.240936953918e-02 0.0 
9.351853087033e-03 6.865486285605e-02 0.0 
9.839674996883e-03 6.459686264970e-02 0.0 
1.075836662766e-02 6.826600887947e-02 0.0 
1.025603724467e-02 6.043935642096e-02 0.0 
1.124230213806e-02 6.408999366363e-02 0.0 
8.900094393958e-03 6.057799238072e-02 0.0 
1.057155004336e-02 5.619796353079e-02 0.0 
1.161929175902e-02 5.981811949882e-02 0.0 
1.077097547002e-02 5.190751682408e-02 0.0 
1.186507478647e-02 5.547207240693e-02 0.0 
1.262633749420e-02 6.312069202418e-02 0.0 
1.291305558168e-02 5.873226465859e-02 0.0 
1.357617486929e-02 6.605456777002e-02 0.0 
1.389356786187e-02 6.159454318083e-02 0.0 
1.304037663729e-02 5.432702967982e-02 0.0 
1.403396352793e-02 5.713043085552e-02 0.0 
1.479295898342e-02 6.403868568343e-02 0.0 
1.492822405460e-02 5.949589328267e-02 0.0 
1.559421694954e-02 6.601774079815e-02 0.0 
1.570364395254e-02 6.136650329904e-02 0.0 
1.628719106092e-02 6.750230160664e-02 0.0 
1.634675966947e-02 6.273749101913e-02 0.0 
1.557796030393e-02 5.678736991722e-02 0.0 
1.614908486909e-02 5.809710222024e-02 0.0 
1.683205127313e-02 6.356913095567e-02 0.0 
1.653622787289e-02 5.887754171321e-02 0.0 
1.713434587282e-02 6.383489203127e-02 0.0 
1.671130718616e-02 5.911145398164e-02 0.0 
1.596927327738e-02 5.440894864006e-02 0.0 
1.600634076966e-02 5.469415611214e-02 0.0 
1.664459965940e-02 5.880285009797e-02 0.0 
1.578055228645e-02 5.449816663321e-02 0.0 
1.630355427204e-02 5.796747933032e-02 0.0 
1.526554392471e-02 5.385431109883e-02 0.0 
1.565849076820e-02 5.663651359582e-02 0.0 
1.443115523328e-02 5.281291051233e-02 0.0 
1.400611157521e-02 5.022337951864e-02 0.0 
1.301491845819e-02 4.955007125680e-02 0.0 
1.325967112905e-02 5.146574489713e-02 0.0 
1.170954882737e-02 4.869949514266e-02 0.0 
1.149726889508e-02 4.683879764814e-02 0.0 
1.011722352682e-02 4.652791373056e-02 0.0 
9.951618039210e-03 4.460754961341e-02 0.0 
8.556143236579e-03 4.483966049662e-02 0.0 
8.500297262035e-03 4.626226469341e-02 0.0 
6.977683608536e-03 4.517682078229e-02 0.0 
7.083630748253e-03 4.351205013798e-02 0.0 
5.589833562034e-03 4.441078289111e-02 0.0 
5.272164338317e-03 4.575439855204e-02 0.0 
4.042521377263e-03 4.553821364835e-02 0.0 
4.368761645702e-03 4.381416806849e-02 0.0 
2.989885711930e-03 4.541563879518e-02 0.0 
2.518579113870e-03 4.698134052844e-02 0.0 
1.679914305059e-03 4.727401835424e-02 0.0 
2.120955186715e-03 4.524462119335e-02 0.0 
1.006835229292e-03 4.745620895571e-02 0.0 
5.029852871683e-04 4.942202586900e-02 0.0 
4.635407654341e-05 4.985390786238e-02 0.0 
4.840709878131e-04 4.743537085021e-02 0.0 
-2.927774450345e-04 5.005110923339e-02 0.0 
8.068493911928e-05 4.720424324471e-02 0.0 
-7.334426634031e-04 5.248201841814e-02 0.0 
-8.936077752519e-04 5.278609292209e-02 0.0 
-1.288787262061e-03 5.526464237950e-02 0.0 
-1.299590532140e-03 5.559534182091e-02 0.0 
1.515646324567e-02 5.021044119039e-02 0.0 
-1.598174065743e-03 5.808371511489e-02 0.0 
-1.658815009035e-03 5.735206155207e-02 0.0 
-1.506555626249e-03 5.841124074860e-02 0.0 
-1.268033618500e-03 5.559887342885e-02 0.0 
-1.683004319657e-03 6.089442154829e-02 0.0 
-1.532315289514e-03 6.117179545123e-02 0.0 
-1.574356631416e-03 6.361933027563e-02 0.0 
1.661926091207e-02 6.114464521206e-02 0.0 
1.298860773929e-02 4.992962573914e-02 0.0 
-1.407881830583e-03 6.381504196295e-02 0.0 
-1.320384662303e-03 6.618655084220e-02 0.0 
-1.459076569443e-03 6.575393891671e-02 0.0 
-1.057166413336e-03 6.822463579901e-02 0.0 
8.472753146648e-03 6.473553169128e-02 0.0 
7.937676792366e-03 5.631596521906e-02 0.0 
7.582400760718e-03 6.055969015876e-02 0.0 
6.965163987566e-03 5.186704177724e-02 0.0 
6.679995940097e-03 5.611706694812e-02 0.0 
-9.800051915354e-04 6.853757052601e-02 0.0 
9.636198067469e-03 4.782559504200e-02 0.0 
7.170328673226e-03 4.748722699485e-02 0.0 
1.526305439200e-02 7.069631612569e-02 0.0 
1.724927002341e-02 6.879923583858e-02 0.0 
1.110866602831e-02 4.436836716804e-02 0.0 
-1.370025678757e-03 6.111142869240e-02 0.0 
-1.232873778083e-03 6.368620008578e-02 0.0 
-1.192676473581e-03 6.073788918568e-02 0.0 
8.246361933928e-04 4.454735048948e-02 0.0 
3.683744971159e-04 4.392602811293e-02 0.0 
1.052476297842e-03 4.118613737679e-02 0.0 
5.608592836932e-04 4.019840552144e-02 0.0 
1.164205049815e-03 3.734462239492e-02 0.0 
6.569677389265e-04 3.600670547711e-02 0.0 
1.827980177804e-04 3.901756876200e-02 0.0 
2.672841388307e-04 3.448493009983e-02 0.0 
-9.321570255594e-05 3.763064336387e-02 0.0 
1.165214132005e-03 3.301633994922e-02 0.0 
1.797119372581e-03 3.453478651281e-02 0.0 
-1.638836706963e-05 3.277414632597e-02 0.0 
-2.785762262070e-04 3.603113837256e-02 0.0 
-2.059265049610e-04 3.086641005321e-02 0.0 
-3.848762942535e-04 3.422221881394e-02 0.0 
-4.869119500128e-04 3.925895593905e-02 0.0 
-5.144186931281e-04 3.752906236615e-02 0.0 
-6.295103655676e-04 4.243706198527e-02 0.0 
9.604914710902e-03 4.206019277180e-02 0.0 
1.054284769548e-02 4.130106274555e-02 0.0 
9.077052262253e-03 3.890792292964e-02 0.0 
9.791677806103e-03 3.765296477599e-02 0.0 
8.366260091623e-03 3.516667621701e-02 0.0 
8.852986627332e-03 3.344005637270e-02 0.0 
7.471675273372e-03 3.084949954355e-02 0.0 
6.989441747930e-03 3.287476304720e-02 0.0 
1.084505199225e-02 4.753358206214e-02 0.0 
1.173907234703e-02 4.992762031734e-02 0.0 
1.331437822928e-02 5.279070439494e-02 0.0 
1.158044226989e-02 5.049742965769e-02 0.0 
1.316151115810e-02 5.350281080015e-02 0.0 
1.121911919302e-02 5.036567630697e-02 0.0 
1.278359488378e-02 5.359704576583e-02 0.0 
1.064770127321e-02 4.950113317423e-02 0.0 
8.893965067720e-03 4.729141122302e-02 0.0 
8.084123002131e-03 4.548052250966e-02 0.0 
6.238873395265e-03 4.461963612065e-02 0.0 
5.183778299980e-03 4.201566079739e-02 0.0 
3.410850575474e-03 4.273920633133e-02 0.0 
1.521537364113e-02 5.233777246105e-02 0.0 
1.025513756479e-02 3.622466855357e-02 0.0 
9.089584102991e-03 3.151630257685e-02 0.0 
1.044935466425e-02 3.455251734369e-02 0.0 
-1.119593865466e-03 6.757597831386e-02 0.0 
-4.246378355877e-04 3.220823363411e-02 0.0 
1.674129465901e-03 3.003822322034e-02 0.0 
2.417713762732e-03 3.179860058207e-02 0.0 
6.149557887177e-03 2.840079430475e-02 0.0 
-6.096642264879e-04 7.042597135989e-02 0.0 
1.214923326040e-02 5.309127548743e-02 0.0 
1.399371718968e-02 5.801608474701e-02 0.0 
6.003120137905e-03 4.715048982147e-02 0.0 
5.789591581504e-03 5.145101776149e-02 0.0 
2.145402769905e-03 2.706589939435e-02 0.0 
-6.120675422867e-04 7.063362942267e-02 0.0 
2.811064798927e-04 2.949694042428e-02 0.0 
7.036521553133e-03 4.274225321948e-02 0.0 
-4.902121887556e-04 3.559078629443e-02 0.0 
-4.106825211467e-04 3.000370963071e-02 0.0 
-2.289578466286e-04 4.203075326770e-02 0.0 
9.060676025996e-03 2.933740522055e-02 0.0 
1.039262166351e-02 3.266484815291e-02 0.0 
4.550445251354e-03 4.487355322993e-02 0.0 
1.968499385836e-03 4.434138743306e-02 0.0 
6.569790999649e-04 4.203527602278e-02 0.0 
-3.353601281280e-04 4.507375826964e-02 0.0 
8.894398198862e-04 4.639634885434e-02 0.0 
-9.763741648925e-04 4.789578853430e-02 0.0 
-2.031205559874e-03 4.688712253416e-02 0.0 
-2.264667545306e-03 5.032768219837e-02 0.0 
-1.354159102478e-03 5.055672906839e-02 0.0 
-2.265643607092e-03 5.330434057148e-02 0.0 
-2.773861556106e-03 5.349701989941e-02 0.0 
-2.554288116661e-03 5.650748370601e-02 0.0 
-3.542279024700e-04 2.646141825739e-02 0.0 
3.927071532697e-03 3.850667243371e-02 0.0 
1.310286153591e-02 7.045448253266e-02 0.0 
1.445706545312e-03 2.502292573803e-02 0.0 
6.412651016770e-03 2.603465345560e-02 0.0 
5.065955859259e-03 4.222364734790e-02 0.0 
4.921763447257e-03 4.658194925449e-02 0.0 
5.509008690140e-03 5.571636381645e-02 0.0 
4.705254966453e-03 5.088199933778e-02 0.0 
4.088224603208e-03 4.151782104100e-02 0.0 
3.934784406468e-03 4.588278893928e-02 0.0 
4.429181832236e-03 5.512172979256e-02 0.0 
3.716804284387e-03 5.017914040886e-02 0.0 
4.104171845434e-03 5.927930062473e-02 0.0 
3.445264320014e-03 5.439549569402e-02 0.0 
3.043776090820e-03 4.507698924106e-02 0.0 
2.822147376371e-03 4.936937565515e-02 0.0 
3.130052438976e-03 5.853441503047e-02 0.0 
2.550952628404e-03 5.358310639034e-02 0.0 
2.778466465848e-03 6.258437408727e-02 0.0 
2.237952175030e-03 5.771185630830e-02 0.0 
2.012849101853e-03 4.849762814049e-02 0.0 
-2.039252528503e-04 7.224995971580e-02 0.0 
5.696528000986e-03 3.071848695182e-02 0.0 
4.917439948461e-03 2.603984743834e-02 0.0 
-1.050911341865e-03 6.322198750233e-02 0.0 
-1.004358337228e-03 6.003985057990e-02 0.0 
-1.095363967289e-03 5.743120526170e-02 0.0 
-9.195160442719e-04 5.653143898211e-02 0.0 
1.730627506355e-03 5.275240533919e-02 0.0 
1.519658408363e-03 4.329149189077e-02 0.0 
1.314574213483e-02 5.814206045879e-02 0.0 
1.465827300292e-02 6.362341943824e-02 0.0 
5.123869058067e-03 3.780884172146e-02 0.0 
-4.257641402710e-04 3.345724448716e-02 0.0 
-5.046397623789e-04 3.888629705173e-02 0.0 
1.747224890562e-02 6.852725552771e-02 0.0 
1.737285498095e-02 7.378226245936e-02 0.0 
1.751635141533e-02 7.299570101253e-02 0.0 
1.715575804131e-02 7.865222401663e-02 0.0 
1.693351417437e-02 7.917211284206e-02 0.0 
1.720293797878e-02 7.734505431723e-02 0.0 
2.563449531156e-03 3.599500437838e-02 0.0 
2.419515189317e-03 3.983278088279e-02 0.0 
-1.600652198102e-03 6.495730278467e-02 0.0 
-1.168502994906e-03 6.657436783913e-02 0.0 
-3.559503412114e-04 2.762173508316e-02 0.0 
6.304116068119e-03 3.481153647881e-02 0.0 
1.454563536194e-02 5.054597240926e-02 0.0 
1.402884370422e-02 4.623808547373e-02 0.0 
1.324423905043e-02 4.396457749725e-02 0.0 
1.258219616167e-02 3.978130880538e-02 0.0 
1.166549004384e-02 3.702792279372e-02 0.0 
1.085982611848e-02 3.295106927011e-02 0.0 
1.173619858906e-02 3.575282991014e-02 0.0 
8.752192928995e-03 2.682668060791e-02 0.0 
9.889590512557e-03 2.899877091891e-02 0.0 
1.921750860923e-03 6.183175126815e-02 0.0 
1.163713086945e-02 3.929117253104e-02 0.0 
-1.553442675371e-03 5.285304877106e-02 0.0 
-6.585756063693e-05 7.182809570792e-02 0.0 
-2.407543871724e-03 5.713965077735e-02 0.0 
-2.768653879510e-04 7.242296547905e-02 0.0 
-5.712389826904e-04 7.053946227437e-02 0.0 
1.763415408032e-03 2.182000963217e-02 0.0 
9.790103012019e-03 2.972009796879e-02 0.0 
1.058074227880e-02 3.384876361735e-02 0.0 
1.642070588029e-02 8.439234464591e-02 0.0 
1.618109640233e-02 8.456272946836e-02 0.0 
7.443353896274e-03 2.359623456433e-02 0.0 
7.161717378246e-03 6.479845196568e-02 0.0 
4.789457749645e-03 6.401181392221e-02 0.0 
4.373636287944e-03 6.801276110675e-02 0.0 
1.790249405804e-04 7.389351779775e-02 0.0 
-2.543358161141e-03 5.355512258960e-02 0.0 
3.302810844140e-03 3.628881950075e-02 0.0 
1.540164915696e-02 6.247027021899e-02 0.0 
1.577600335267e-02 6.836260463526e-02 0.0 
5.472581954667e-03 3.939604766157e-02 0.0 
2.520956846794e-03 3.457093233987e-02 0.0 
1.282303216442e-03 4.752688963913e-02 0.0 
1.092477751264e-03 3.795092623302e-02 0.0 
-9.667868540228e-04 5.378050777704e-02 0.0 
-8.096240807371e-04 5.263296985957e-02 0.0 
2.542139755542e-03 2.405270329189e-02 0.0 
-2.206916754147e-03 5.989226465519e-02 0.0 
1.250010750447e-03 3.347687251282e-02 0.0 
5.064489389758e-03 3.295295574745e-02 0.0 
5.450961992954e-03 3.671613510957e-02 0.0 
-7.953709326305e-04 5.915134877056e-02 0.0 
1.339511748156e-02 6.452317880664e-02 0.0 
1.167976558177e-02 5.797813986185e-02 0.0 
-4.375081249446e-04 5.040208153353e-02 0.0 
-2.306382607740e-03 5.885785642460e-02 0.0 
-2.950225170739e-04 7.226153781175e-02 0.0 
1.977917447991e-03 1.855236171255e-02 0.0 
3.317087179518e-03 3.180015210562e-02 0.0 
1.073183596767e-02 3.190232666111e-02 0.0 
1.240694656974e-02 3.815960642851e-02 0.0 
8.786990294912e-03 2.521281369416e-02 0.0 
-1.424078368176e-03 6.075886057529e-02 0.0 
1.130861656600e-03 1.947589974395e-02 0.0 
-3.321939060035e-04 3.114581272503e-02 0.0 
8.640706658113e-03 2.644851508524e-02 0.0 
9.345288719821e-03 3.027123401190e-02 0.0 
1.640827830600e-02 6.629157273217e-02 0.0 
1.655476843551e-02 7.230591245731e-02 0.0 
1.552612610487e-02 7.506026555925e-02 0.0 
1.611241525788e-02 7.884208653411e-02 0.0 
1.164393794779e-02 7.168753161609e-02 0.0 
1.706789654224e-02 6.939143537057e-02 0.0 
1.395042800526e-02 7.308107759457e-02 0.0 
1.330554604134e-02 7.747106545487e-02 0.0 
1.403469876212e-02 7.981006719745e-02 0.0 
1.656142648437e-02 7.907980225003e-02 0.0 
1.579547032681e-02 8.417727236295e-02 0.0 
1.470215097623e-02 5.647157255891e-02 0.0 
1.200571915351e-02 4.401628230275e-02 0.0 
-1.096919051072e-03 5.466384615752e-02 0.0 
-6.239534001207e-04 4.386089767134e-02 0.0 
1.669696245306e-03 4.199867942727e-02 0.0 
2.532778926259e-03 3.539500480498e-02 0.0 
1.920705871839e-03 2.993106385708e-02 0.0 
3.347951185233e-03 6.732109958706e-02 0.0 
2.931037609322e-03 7.119966444458e-02 0.0 
-4.842470607818e-04 6.907006509400e-02 0.0 
-3.602546779922e-04 6.785589731620e-02 0.0 
-2.187927213377e-04 4.673536937244e-02 0.0 
8.852734180085e-04 2.285988834141e-02 0.0 
4.153841184291e-03 3.263604634569e-02 0.0 
4.036764747745e-03 2.810776950193e-02 0.0 
5.079658253472e-03 3.333076606765e-02 0.0 
2.819712284753e-03 2.097136786188e-02 0.0 
9.904407821317e-03 4.838466784808e-02 0.0 
8.138153231968e-03 4.007265175117e-02 0.0 
1.154726482202e-03 3.588073081468e-02 0.0 
1.500732840232e-02 4.937468744612e-02 0.0 
5.069729843834e-04 7.019195115190e-02 0.0 
1.190736936491e-02 4.680004158980e-02 0.0 
-2.735044269371e-04 2.507654167423e-02 0.0 
-2.887317903228e-04 2.137056903599e-02 0.0 
6.905517349804e-03 2.062713038209e-02 0.0 
1.104602671687e-02 8.286246665434e-02 0.0 
1.410115512574e-02 4.534753324888e-02 0.0 
1.414023103113e-02 4.633272448823e-02 0.0 
1.323610276428e-02 8.414261168637e-02 0.0 
1.383365754064e-02 8.621719424769e-02 0.0 
1.468799980183e-02 8.173302520522e-02 0.0 
1.434698536657e-02 8.792351906275e-02 0.0 
-8.030407468365e-04 5.206882208843e-02 0.0 
-1.643830769943e-03 5.471976032956e-02 0.0 
7.519387460235e-03 2.179531729345e-02 0.0 
7.818827932756e-03 2.206093584122e-02 0.0 
7.313559424535e-03 2.265863320155e-02 0.0 
7.982414097853e-03 2.626650030649e-02 0.0 
5.596937743736e-03 1.735026877217e-02 0.0 
6.125502364892e-03 2.048851544551e-02 0.0 
-4.844605159762e-04 7.016652743245e-02 0.0 
1.518361623708e-02 8.973098793457e-02 0.0 
2.531224058728e-03 2.633332816310e-02 0.0 
1.257152976027e-02 8.174062571133e-02 0.0 
6.499552573782e-04 1.716975837206e-02 0.0 
4.610070673845e-04 2.056674631958e-02 0.0 
2.294364399908e-04 3.167581057110e-02 0.0 
-1.074553022320e-03 3.568598928419e-02 0.0 
8.594031649665e-04 2.814975846423e-02 0.0 
1.463990942993e-02 8.217296949602e-02 0.0 
1.511052895518e-02 8.558182888509e-02 0.0 
1.390199240024e-02 7.759517662877e-02 0.0 
-5.452563849151e-05 1.125382653721e-02 0.0 
7.791200453227e-04 8.659536289618e-02 0.0 
-2.129524890644e-04 1.860361728934e-02 0.0 
1.603999957857e-02 7.836565981636e-02 0.0 
9.167148327833e-04 2.311783768975e-02 0.0 
1.303527263161e-02 4.162594368394e-02 0.0 
1.748359684144e-02 6.767565558394e-02 0.0 
3.468518103549e-03 2.621180465123e-02 0.0 
7.006926501560e-04 3.353274728047e-02 0.0 
5.172747385132e-04 2.226836421751e-02 0.0 
5.009420659057e-03 7.239139653501e-02 0.0 
4.535478782408e-03 7.636470406509e-02 0.0 
5.491657992692e-03 6.857230186857e-02 0.0 
8.541881726213e-03 4.565547169921e-02 0.0 
6.297905279116e-03 4.337494424019e-02 0.0 
1.852111924805e-03 3.445210535239e-02 0.0 
-1.011473830636e-03 6.607551125520e-02 0.0 
-8.230797398916e-04 6.530693007227e-02 0.0 
-1.959671104686e-03 6.205710935901e-02 0.0 
-2.094771594196e-03 6.070222688616e-02 0.0 
-9.284608252056e-04 5.093070513819e-02 0.0 
-9.904336821949e-04 5.181038651217e-02 0.0 
1.165345716400e-02 4.241896597842e-02 0.0 
1.047819386739e-02 3.897995517242e-02 0.0 
1.371296315041e-02 4.830472021865e-02 0.0 
4.293144572596e-03 3.516465116239e-02 0.0 
4.476341839862e-03 3.864789619151e-02 0.0 
5.679984628685e-03 3.987895547947e-02 0.0 
1.937326510692e-03 2.567732999927e-02 0.0 
1.296878422878e-03 1.915025790529e-02 0.0 
4.020840189511e-04 4.979308478236e-02 0.0 
1.077228208729e-03 4.849031141338e-02 0.0 
-1.054806986881e-03 5.344804469008e-02 0.0 
2.403872239647e-03 2.190374492223e-02 0.0 
-2.154352411985e-04 1.489650843506e-02 0.0 
-2.726519048526e-04 1.781386027842e-02 0.0 
8.712919336205e-04 6.881527088752e-02 0.0 
-2.430346145506e-04 6.620739797600e-02 0.0 
1.118067357129e-02 6.530268614321e-02 0.0 
9.035898196377e-03 5.781435860329e-02 0.0 
3.857625329132e-03 2.392104650210e-02 0.0 
4.929585813031e-03 2.888273854274e-02 0.0 
2.744532045291e-03 1.808764189271e-02 0.0 
-2.398988656647e-04 7.194706050920e-02 0.0 
1.133267388670e-02 3.432553834184e-02 0.0 
2.143234461663e-03 1.548434156535e-02 0.0 
3.040543999067e-03 1.811063372045e-02 0.0 
1.319056847478e-03 1.209602623812e-02 0.0 
8.245518925570e-03 2.421539717446e-02 0.0 
6.179103031855e-03 1.765399485316e-02 0.0 
6.528111130176e-03 1.808440387563e-02 0.0 
8.166682523978e-04 3.036439086522e-02 0.0 
3.919649800608e-04 2.653070093978e-02 0.0 
3.476675161757e-03 7.572822910295e-02 0.0 
-2.496494554265e-04 2.790024127675e-02 0.0 
3.003113251793e-03 7.970914362422e-02 0.0 
2.514531085772e-03 7.503902791069e-02 0.0 
2.591897240620e-03 8.354711120968e-02 0.0 
-8.971774695565e-05 7.370294434908e-02 0.0 
5.701912234706e-03 7.807864235795e-02 0.0 
6.252029285477e-03 7.328294156211e-02 0.0 
1.646776743279e-03 6.708693134586e-02 0.0 
1.636653394620e-03 1.633891265457e-02 0.0 
1.701800190664e-03 7.076515746975e-02 0.0 
1.182827963053e-03 7.194590066266e-02 0.0 
3.097014696465e-04 1.450305912744e-02 0.0 
1.624331378345e-04 1.809437724559e-02 0.0 
7.412728937695e-05 1.181875748577e-02 0.0 
-2.723290497642e-05 1.580615147354e-02 0.0 
-1.364599646614e-06 2.176417276386e-02 0.0 
-1.500894011599e-04 1.928035145166e-02 0.0 
4.071010865815e-03 8.079233291336e-02 0.0 
-1.174816315981e-04 1.211575232727e-02 0.0 
-2.194310789427e-04 1.649374688095e-02 0.0 
-1.525465102130e-04 9.426608552811e-03 0.0 
1.330428128067e-02 9.232671354480e-02 0.0 
1.638127574044e-02 8.170964184163e-02 0.0 
1.530362985659e-02 8.816601519863e-02 0.0 
1.352493762951e-02 9.269091859788e-02 0.0 
5.373868634468e-03 1.671749772791e-02 0.0 
6.651458101469e-03 2.236127951635e-02 0.0 
-2.211960139322e-04 2.854347956096e-02 0.0 
-2.589688439021e-04 3.443703472570e-02 0.0 
2.073923853537e-03 7.939122225206e-02 0.0 
1.513174789828e-03 7.974635409102e-02 0.0 
1.657288845074e-03 7.225659879345e-02 0.0 
1.195887659755e-03 7.319879623611e-02 0.0 
1.283900803330e-03 6.556116513452e-02 0.0 
8.265963753971e-04 6.656196301297e-02 0.0 
9.806681461342e-04 5.863382294121e-02 0.0 
5.343247501777e-03 1.452736232373e-02 0.0 
1.235019713220e-02 8.496782963705e-02 0.0 
1.235029929984e-02 8.836644557595e-02 0.0 
4.302448503388e-03 1.415166080371e-02 0.0 
4.999233337386e-03 1.799516798645e-02 0.0 
1.483423709391e-02 8.907883036684e-02 0.0 
1.399657170967e-02 9.478654709770e-02 0.0 
7.031673270728e-04 1.268184128062e-02 0.0 
1.666085175275e-02 6.394503322057e-02 0.0 
1.217733659530e-03 1.047384775507e-02 0.0 
-2.960925372282e-03 3.841115601326e-02 0.0 
2.105754669763e-03 3.828408169315e-02 0.0 
1.722274939591e-02 6.624736634944e-02 0.0 
1.527610052316e-02 8.321672297282e-02 0.0 
1.647960937441e-02 8.355144444048e-02 0.0 
1.545000624388e-02 8.940330409378e-02 0.0 
3.959969209649e-03 3.105946081896e-02 0.0 
1.193269975808e-05 6.409439251710e-02 0.0 
1.277361537014e-02 7.193016891150e-02 0.0 
1.423581865808e-03 5.771982661847e-02 0.0 
9.655448208459e-03 7.309022442968e-02 0.0 
-1.216167913269e-04 3.135357620647e-02 0.0 
1.584185335004e-02 5.906148143332e-02 0.0 
1.658094944445e-02 7.341237610112e-02 0.0 
1.464886681885e-02 7.021836026953e-02 0.0 
1.703571049427e-02 7.529532127482e-02 0.0 
1.220054405092e-02 6.746128424320e-02 0.0 
1.101499463802e-02 7.577477394104e-02 0.0 
1.178769037492e-02 7.898558719334e-02 0.0 
1.467699371845e-02 5.491222239668e-02 0.0 
1.540048554781e-02 8.987511554046e-02 0.0 
1.408341373343e-02 9.536691595707e-02 0.0 
1.446458675517e-02 6.860119359899e-02 0.0 
6.165876107247e-03 3.833674857841e-02 0.0 
6.077858181655e-03 3.385074877710e-02 0.0 
4.690065352577e-03 2.467581645240e-02 0.0 
5.868487469797e-03 2.942869596648e-02 0.0 
7.261200266797e-03 3.864979725074e-02 0.0 
7.118241098055e-03 3.421291481182e-02 0.0 
5.526380341678e-03 2.512392481991e-02 0.0 
6.837443343425e-03 2.980313499739e-02 0.0 
4.614340253781e-03 1.887915207848e-02 0.0 
6.346209588241e-03 2.522195527299e-02 0.0 
8.172248935498e-03 3.447320164128e-02 0.0 
7.818418373233e-03 3.027169856638e-02 0.0 
5.993634371723e-03 2.202042120044e-02 0.0 
9.533269987806e-03 3.930389887753e-02 0.0 
3.553138521138e-03 1.079125483594e-02 0.0 
1.706594754316e-02 6.263886545118e-02 0.0 
3.322959078581e-03 3.579540106344e-02 0.0 
4.766235758346e-03 4.737668084315e-02 0.0 
1.596917937577e-02 7.230774658022e-02 0.0 
2.261087359045e-03 9.224022379367e-03 0.0 
1.871235379816e-03 9.238747404854e-03 0.0 
1.448375368302e-02 5.748682771319e-02 0.0 
2.742890168648e-03 7.939047648684e-03 0.0 
1.248991457784e-02 7.477343083355e-02 0.0 
9.841520853662e-03 4.789510852178e-02 0.0 
2.837527581349e-03 7.626429728052e-03 0.0 
7.274505436868e-03 4.306705181780e-02 0.0 
8.392898467392e-03 4.773023226360e-02 0.0 
8.212514638991e-03 5.205843150712e-02 0.0 
1.456157583888e-03 8.720014297221e-03 0.0 
5.945486839089e-03 6.457553132123e-02 0.0 
2.388286679484e-03 6.466673313504e-03 0.0 
1.122440994864e-02 4.039664516681e-02 0.0 
1.262590170984e-02 4.350438274263e-02 0.0 
1.340677298121e-02 4.713272011321e-02 0.0 
8.392624606145e-03 3.899795771703e-02 0.0 
1.734038744932e-03 6.329112841239e-03 0.0 
2.983826019520e-03 1.191512906973e-02 0.0 
2.524752529631e-03 1.178764961044e-02 0.0 
3.970218189657e-03 1.746647739691e-02 0.0 
1.232867361155e-03 6.173491356545e-03 0.0 
2.324902091491e-03 8.070511498055e-03 0.0 
2.330021298594e-03 7.543765150174e-03 0.0 
1.053718696635e-04 4.846433073724e-02 0.0 
1.972220501056e-03 4.711561245078e-02 0.0 
2.867906032785e-03 4.718062737602e-02 0.0 
4.065007515951e-03 4.648700125380e-02 0.0 
3.122946773210e-03 4.581622427930e-02 0.0 
5.484231221004e-03 4.609694014764e-02 0.0 
6.204671326227e-03 4.650657326636e-02 0.0 
7.117205063395e-03 4.625786729576e-02 0.0 
8.680221204603e-03 3.067418307790e-02 0.0 
7.524111706942e-04 5.902462945070e-03 0.0 
1.798656130537e-03 3.852953717078e-02 0.0 
2.564535835717e-03 3.962138911067e-02 0.0 
2.416085088310e-03 4.269987165960e-02 0.0 
-1.198473818756e-03 5.527372677551e-02 0.0 
-1.010306834797e-03 5.243186419584e-02 0.0 
-7.660011415691e-04 4.890074058331e-02 0.0 
-1.253929441486e-03 5.806352218420e-02 0.0 
1.330881279553e-02 4.210325488593e-02 0.0 
5.443565423633e-04 5.954318605284e-03 0.0 
6.745219194880e-03 3.831474636986e-02 0.0 
-9.816466516828e-04 5.276734727904e-02 0.0 
7.545139006673e-03 8.524315506250e-02 0.0 
7.887419245634e-03 7.836984216378e-02 0.0 
8.632568514543e-03 7.776590207984e-02 0.0 
8.052989964362e-03 7.014572897549e-02 0.0 
7.036249509021e-03 7.784446308143e-02 0.0 
-8.283469352648e-04 4.978003110160e-02 0.0 
-6.981861806565e-04 4.838383749283e-02 0.0 
-6.330047588006e-04 5.124355233972e-02 0.0 
-5.460858634225e-04 4.675819029086e-02 0.0 
-4.462813264032e-04 4.961332192742e-02 0.0 
-5.124146442710e-04 5.385056595809e-02 0.0 
-3.778637737288e-04 4.492370064928e-02 0.0 
-2.625106058336e-04 4.830687570700e-02 0.0 
6.080878953362e-03 8.584314744142e-02 0.0 
1.188140799242e-03 3.880919825251e-02 0.0 
-1.075019728514e-03 4.332179946559e-02 0.0 
-1.062055471159e-04 5.033176681967e-02 0.0 
-2.207966795529e-03 4.716157672364e-02 0.0 
-2.243521606310e-03 4.132062191683e-02 0.0 
-2.690969810363e-03 4.546550701295e-02 0.0 
-1.785911904371e-03 4.082608014574e-02 0.0 
-1.494552686461e-03 3.605431429274e-02 0.0 
3.481616008077e-03 5.364609206403e-02 0.0 
6.663807442138e-04 5.593226608739e-02 0.0 
3.911351240989e-03 5.874481608864e-02 0.0 
1.344101147021e-03 6.042041256219e-02 0.0 
-1.215842239738e-03 5.771460657975e-02 0.0 
-1.248650376052e-03 6.510826830950e-02 0.0 
-1.310924845388e-04 7.452530915042e-03 0.0 
-2.241608945563e-04 6.000048020182e-02 0.0 
-4.397348920273e-04 6.162731877802e-02 0.0 
-4.413071552700e-04 6.484540597887e-02 0.0 
-6.741483047739e-04 6.277992302451e-02 0.0 
-4.156290188542e-04 5.829435034671e-02 0.0 
-2.138420433995e-04 6.667601956404e-02 0.0 
-4.008911736020e-04 6.747671750544e-02 0.0 
1.321680940350e-03 7.646776221139e-02 0.0 
7.105183850422e-04 7.652985381210e-02 0.0 
3.583086886182e-04 7.692363054091e-02 0.0 
3.014420799243e-04 7.617297489866e-02 0.0 
5.025525527689e-04 7.576186137914e-02 0.0 
1.047301574855e-03 7.598203541650e-02 0.0 
1.364910505557e-03 7.523827745527e-02 0.0 
2.291996340730e-03 7.498583834883e-02 0.0 
1.629027394210e-03 7.429449477804e-02 0.0 
7.775828412031e-04 7.426180522823e-02 0.0 
2.745807095762e-03 7.395900771020e-02 0.0 
3.126745005559e-04 4.653589526152e-02 0.0 
5.957135719896e-04 4.178818265315e-02 0.0 
2.418881444779e-04 6.385681226313e-03 0.0 
4.704456495325e-03 8.554048406737e-02 0.0 
3.974028972648e-03 6.602574315158e-02 0.0 
4.770667543568e-04 1.128930223094e-02 0.0 
7.149488119111e-04 9.360926816587e-03 0.0 
5.848047952028e-04 9.074593916534e-03 0.0 
-8.119605348167e-05 1.844871990206e-02 0.0 
-1.307410937093e-04 1.509111361391e-02 0.0 
2.564395879077e-04 1.098019292944e-02 0.0 
-1.737557287569e-03 6.308446844006e-02 0.0 
4.322435606390e-03 2.054919645857e-02 0.0 
1.347840320676e-03 2.892267498167e-02 0.0 
1.114270026333e-02 5.207269238228e-02 0.0 
-2.073256089846e-03 5.763747142987e-02 0.0 
-3.910863034799e-04 3.677034548096e-02 0.0 
-3.950815003391e-04 4.074926073259e-02 0.0 
-3.419741285979e-04 2.404831060035e-02 0.0 
-5.859660501333e-04 4.076617554142e-02 0.0 
-3.139508643235e-04 2.875599120397e-02 0.0 
2.110915356191e-03 1.209303654758e-02 0.0 
-1.974294051132e-05 7.385134050654e-02 0.0 
3.740874310921e-03 6.334496705658e-02 0.0 
2.420890431537e-03 6.657708038052e-02 0.0 
2.243414759242e-03 4.420497057640e-02 0.0 
-1.173445680636e-03 6.628629462700e-02 0.0 
-7.215042011324e-04 5.515026266761e-02 0.0 
-5.741788874154e-04 6.989724014898e-02 0.0 
5.131093717335e-03 1.453143996715e-02 0.0 
1.471617318018e-02 7.533012450211e-02 0.0 
1.402829845489e-03 4.498010082660e-02 0.0 
-1.391404776292e-03 5.839617102001e-02 0.0 
-1.824188736988e-03 6.024083414667e-02 0.0 
-2.183177565243e-03 5.573092731107e-02 0.0 
1.722526451449e-02 6.352583804639e-02 0.0 
-5.288818785569e-04 4.995513687834e-02 0.0 
6.631833478075e-04 3.134290210784e-02 0.0 
1.716152225463e-03 3.890972316071e-02 0.0 
3.310919492734e-03 7.094434525544e-02 0.0 
1.067127490115e-03 2.819148767562e-02 0.0 
2.181709474236e-05 4.309054721044e-02 0.0 
5.173648654072e-03 5.991834531808e-02 0.0 
7.726231555395e-03 2.868033515597e-02 0.0 
-2.840835897102e-03 4.993880095968e-02 0.0 
3.208577890042e-03 4.072797390735e-02 0.0 
3.111268630391e-03 2.329666849369e-02 0.0 
6.712976386453e-03 6.901844780794e-02 0.0 
1.970888289140e-04 7.123751389308e-02 0.0 
3.945586951268e-03 7.203820771203e-02 0.0 
1.291794564377e-03 1.601879149903e-02 0.0 
6.133130453044e-03 4.276039678814e-02 0.0 
-8.784632836321e-04 6.854091438835e-02 0.0 
8.442036052848e-03 4.276605169360e-02 0.0 
1.684646861145e-02 6.843054117263e-02 0.0 
1.084055815704e-02 8.955064514429e-02 0.0 
1.389808021536e-03 2.467836595021e-02 0.0 
1.506123549776e-02 5.063750405052e-02 0.0 
5.152264456630e-03 2.333961445125e-02 0.0 
7.652358465769e-03 3.676757891285e-02 0.0 
-7.541248500593e-04 6.819301535034e-02 0.0 
2.391598538516e-04 2.404076787242e-02 0.0 
1.259412132329e-02 4.706469619259e-02 0.0 
2.579241194063e-03 3.095213092762e-02 0.0 
1.229445311795e-02 4.124460730559e-02 0.0 
1.010881899770e-02 4.780101477516e-02 0.0 
4.165787858533e-03 3.710621564423e-02 0.0 
3.310014635145e-03 4.328305127048e-02 0.0 
7.718741114047e-03 2.627251212652e-02 0.0 
1.541943098092e-02 7.707852481642e-02 0.0 
1.484677533216e-02 5.498168942595e-02 0.0 
1.197896308010e-02 5.117669953439e-02 0.0 
1.569658502191e-02 5.362325824648e-02 0.0 
-2.989351577285e-04 3.999487402708e-02 0.0 
5.911011515671e-04 2.619867258978e-02 0.0 
2.237253545122e-03 3.962771247264e-02 0.0 
1.743691934546e-02 7.158584252224e-02 0.0 
6.332000221249e-03 6.035230519847e-02 0.0 
8.911636371128e-03 2.595861435838e-02 0.0 
1.821091043240e-03 2.074591111895e-02 0.0 
1.705398564660e-02 7.390216087596e-02 0.0 
8.629834151286e-06 2.748519510970e-02 0.0 
3.261708907274e-03 2.756986220146e-02 0.0 
-6.824351659791e-04 4.957398861453e-02 0.0 
-5.573120508129e-05 7.377472511615e-02 0.0 
9.448381885107e-03 5.083959531235e-02 0.0 
9.498446201583e-03 4.823324131626e-02 0.0 
1.468481735731e-02 5.062023407156e-02 0.0 
-4.265437005184e-04 4.600195381784e-02 0.0 
3.369149853839e-03 1.840077812851e-02 0.0 
-1.686513133690e-04 2.529024779321e-02 0.0 
2.983062823734e-03 2.902880951205e-02 0.0 
2.490474728727e-03 6.566486278283e-02 0.0 
1.175298086514e-02 8.570606435183e-02 0.0 
-2.645248900386e-04 2.291047166015e-02 0.0 
7.010979509207e-03 4.122187800136e-02 0.0 
6.410941397913e-03 2.341472254143e-02 0.0 
-3.094585846057e-04 5.236684533582e-02 0.0 
5.195297909314e-03 1.433169443766e-02 0.0 
1.375171643160e-02 9.362005203137e-02 0.0 
-2.945447640759e-04 2.035572814704e-02 0.0 
4.518669697465e-03 2.856857630760e-02 0.0 
1.576467970892e-02 6.096631895286e-02 0.0 
1.292556738719e-03 8.658235280229e-02 0.0 
-2.171030569968e-04 1.274668003190e-02 0.0 
3.797814379876e-03 2.334436474426e-02 0.0 
1.462412570910e-02 4.805261143125e-02 0.0 
5.727404620281e-03 4.244138680434e-02 0.0 
1.179367897741e-02 9.455809361916e-02 0.0 
-5.583116826715e-04 4.503084236047e-02 0.0 
1.398203872004e-02 5.271332598517e-02 0.0 
1.274082552364e-03 8.541621081935e-03 0.0 
4.034090450212e-03 2.080404789707e-02 0.0 
9.253506294876e-03 5.655139873726e-02 0.0 
-7.934782651642e-04 4.801209699722e-02 0.0 
1.180955214465e-02 3.804015788281e-02 0.0 
6.782182537077e-04 7.512774708805e-02 0.0 
1.285740039038e-02 9.047622529484e-02 0.0 
-7.680735350091e-04 4.685762975202e-02 0.0 
7.789279852993e-03 4.702561378860e-02 0.0 
4.514156196354e-03 4.151229532828e-02 0.0 
4.917004311253e-03 1.432235201294e-02 0.0 
-6.986066757229e-04 4.545074764106e-02 0.0 
8.249074052806e-03 4.700508964759e-02 0.0 
-5.947333096494e-04 4.381647854691e-02 0.0 
1.245741909793e-02 9.819155283511e-02 0.0 
9.492839284498e-03 5.209624220299e-02 0.0 
-4.615240829802e-04 4.197807065091e-02 0.0 
1.274380377457e-02 4.557273952697e-02 0.0 
7.955237244417e-04 7.309462345260e-02 0.0 
1.382661435343e-02 4.398482922481e-02 0.0 
-1.754079778507e-04 2.195550625084e-02 0.0 
-1.214099784960e-03 5.453951563594e-02 0.0 
3.465870024785e-03 4.062478867789e-02 0.0 
8.454078032905e-03 4.335152735594e-02 0.0 
1.265434663133e-02 1.004362010333e-01 0.0 
3.458633067044e-03 3.737095918326e-02 0.0 
1.121201985798e-02 3.812711087643e-02 0.0 
1.285069766057e-02 4.013093962723e-02 0.0 
1.391731082752e-02 4.691185428849e-02 0.0 
3.293493744787e-03 3.350359071995e-02 0.0 
1.417321224152e-02 9.502690777348e-02 0.0 
-1.902628963958e-03 6.222947218638e-02 0.0 
-1.757273970261e-03 6.374731910018e-02 0.0 
6.692173357528e-03 4.618469175638e-02 0.0 
9.990675758882e-03 3.456131462713e-02 0.0 
1.559032527565e-04 7.509894581981e-02 0.0 
9.642140313254e-03 4.344165742587e-02 0.0 
-1.346201308364e-03 6.321472976720e-02 0.0 
4.784507948251e-03 4.644500219279e-02 0.0 
1.001943527739e-02 3.024232182471e-02 0.0 
3.743258043016e-04 6.437136647521e-02 0.0 
3.556141361484e-03 4.665358295343e-02 0.0 
-1.275085639496e-04 7.179185345336e-02 0.0 
1.894966927388e-03 4.798289615847e-02 0.0 
1.295534211958e-02 4.269936669449e-02 0.0 
1.119599586245e-03 4.875521301481e-02 0.0 
-1.040161306971e-04 5.092544619501e-02 0.0 
9.300912417274e-04 1.902093028180e-02 0.0 
-4.711974525158e-04 5.182855458592e-02 0.0 
1.241257870817e-04 9.112002150086e-03 0.0 
-6.294781338778e-05 6.829483762129e-03 0.0 
4.901169064127e-04 8.074162315074e-02 0.0 
1.208258451673e-02 1.015018589968e-01 0.0 
-1.224816885539e-03 2.559477971947e-02 0.0 
1.424060662388e-02 9.320591006614e-02 0.0 
-1.675208534190e-03 5.620077410451e-02 0.0 
1.076598923079e-02 4.330685541720e-02 0.0 
1.018780938153e-03 8.036520847607e-02 0.0 
-1.955664106976e-03 5.916513890728e-02 0.0 
4.373548512838e-03 1.628632948721e-02 0.0 
2.579874025262e-03 6.744438982192e-03 0.0 
6.757731655469e-04 5.069909845432e-02 0.0 
5.241703013745e-03 2.091926972548e-02 0.0 
1.167231038656e-02 3.627344243945e-02 0.0 
1.931975494358e-04 2.754130394603e-02 0.0 
3.008831373926e-03 8.706921266006e-02 0.0 
1.824088595395e-03 6.409035823435e-02 0.0 
-1.430273759468e-04 3.720925576649e-02 0.0 
1.105039203198e-02 9.924792141259e-02 0.0 
1.300240276698e-02 8.927101656977e-02 0.0 
1.109542423461e-02 7.957822853447e-02 0.0 
-5.871307711391e-04 6.782900232183e-02 0.0 
-1.552580947555e-03 5.285022120628e-02 0.0 
9.962323018016e-03 9.261043411325e-02 0.0 
3.470038256481e-03 1.244943918490e-02 0.0 
5.082997717800e-03 7.983206485797e-02 0.0 
9.621762404848e-03 2.825479812176e-02 0.0 
7.012391495525e-03 8.150726556056e-02 0.0 
2.241844288072e-03 1.812641161976e-02 0.0 
4.979297675465e-03 1.364438588187e-02 0.0 
2.319204568835e-05 5.733715016881e-03 0.0 
7.490803594450e-03 2.128957581744e-02 0.0 
7.534264390909e-03 6.538614901895e-02 0.0 
7.403312254624e-03 7.213520140736e-02 0.0 
5.023030201702e-03 1.476485625002e-02 0.0 
9.127258167894e-04 4.315591490981e-02 0.0 
-8.358802755826e-05 5.587919405944e-03 0.0 
6.390964781367e-03 8.019685453207e-02 0.0 
5.705884981282e-04 1.778364659648e-02 0.0 
-9.220396894349e-05 3.891625237761e-02 0.0 
2.866235889414e-04 1.726986417273e-02 0.0 
9.187373371308e-03 3.489552746583e-02 0.0 
2.084596848611e-03 7.047473496324e-02 0.0 
8.828693830807e-03 7.170446495897e-02 0.0 
-1.505665305990e-04 1.181627333354e-02 0.0 
3.844357872111e-03 1.686278244349e-02 0.0 
5.083183623928e-03 5.568986072008e-02 0.0 
1.058436926456e-03 5.161807162538e-02 0.0 
-8.823952596395e-04 6.220150790503e-02 0.0 
-7.574852395251e-04 3.033307891927e-02 0.0 
4.088330799501e-04 1.167645096398e-02 0.0 
7.355350200498e-03 2.646741100299e-02 0.0 
-1.993844590844e-04 1.195810355344e-02 0.0 
1.442772685064e-04 7.641630543588e-02 0.0 
2.281104005606e-03 6.944349504833e-02 0.0 
8.549306013172e-04 1.067218340368e-02 0.0 
4.458526756860e-03 1.453077089777e-02 0.0 
-1.448047731552e-03 4.363772662547e-02 0.0 
7.544235571331e-04 7.321645794338e-03 0.0 
1.136414587521e-03 4.636596637706e-02 0.0 
4.116591097379e-03 8.774262721832e-02 0.0 
1.923269316922e-03 7.327239820851e-02 0.0 
-1.069596947287e-04 5.709724688771e-03 0.0 
1.351982749583e-03 1.698044153731e-02 0.0 
-5.942918185955e-04 5.973754961124e-02 0.0 
9.005360408302e-03 8.356034965563e-02 0.0 
-3.313566865812e-04 6.996048121892e-02 0.0 
6.976197910358e-03 1.961897677315e-02 0.0 
-8.360655839468e-05 6.153574641943e-02 0.0 
9.263720395651e-04 1.606877116676e-02 0.0 
1.489320598962e-03 1.036085721635e-02 0.0 
2.669603913979e-03 1.571393029567e-02 0.0 
1.599422329956e-03 4.811586216650e-03 0.0 
5.608395319037e-04 3.136124508400e-02 0.0 
4.444819545650e-03 1.197223673620e-02 0.0 
3.144181747201e-03 1.604582756912e-02 0.0 
2.256445605298e-03 8.744042165556e-02 0.0 
3.352166702307e-03 1.666619757661e-02 0.0 
-6.082408140111e-04 6.557023757082e-02 0.0 
2.584370990526e-04 7.318641505235e-02 0.0 
5.420676043144e-05 8.077420948982e-03 0.0 
4.329960796099e-04 7.705141722443e-02 0.0 
3.782350156456e-04 8.746973452825e-02 0.0 
-2.279720220000e-05 5.582236565317e-03 0.0 
2.843080171964e-04 7.485056494392e-02 0.0 
8.097691922444e-04 7.482608695421e-02 0.0 
4.107797394237e-03 1.421657072082e-02 0.0 
-1.393744823188e-04 5.173212477804e-02 0.0 
4.524129170349e-04 3.408197185501e-02 0.0 
-2.607478193266e-03 5.000397410576e-02 0.0 
4.475991628539e-05 2.482298425064e-02 0.0 
6.482746738783e-04 5.997214445820e-02 0.0 
4.285477311843e-03 1.199825491763e-02 0.0 
2.083362112955e-03 1.514653339139e-02 0.0 
1.671071465992e-03 6.584657119519e-02 0.0 
7.452286040404e-03 5.114217060249e-02 0.0 
5.760067455476e-03 1.996574082923e-02 0.0 
-5.916467262810e-04 5.681848487458e-02 0.0 
6.786631507691e-03 2.013942495548e-02 0.0 
4.206509689684e-03 1.644524390631e-02 0.0 
-3.380391525965e-03 4.786678046735e-02 0.0 
-1.069207433210e-04 4.720069159117e-02 0.0 
2.206758767588e-03 7.207963746466e-02 0.0 
-2.173003449180e-05 1.062788984320e-02 0.0 
-3.876389110977e-04 5.528348915052e-02 0.0 
5.910287651766e-03 1.041203415402e-01 0.0 
2.335498568087e-04 1.310534060814e-01 0.0 
8.695240139254e-03 1.073724317178e-01 0.0 
2.078644258461e-04 1.263904425637e-01 0.0 
1.011257573698e-02 1.080354698853e-01 0.0 
2.306447897311e-04 1.212940132569e-01 0.0 
1.070087377048e-02 1.066897917846e-01 0.0 
2.219868595859e-04 1.157567729165e-01 0.0 
1.068627779630e-02 1.037954692190e-01 0.0 
2.484849757209e-04 1.097778814221e-01 0.0 
1.023783311562e-02 9.954301769301e-02 0.0 
2.369957309725e-04 1.033597323378e-01 0.0 
9.467729833517e-03 9.428834223570e-02 0.0 
2.578680835654e-04 9.650686707374e-02 0.0 

VECTORS node_bounda_dof_materi_velocity_x float
1.000000000000e+00 0.0 0.0 
1.000000000000e+00 0.0 0.0 
1.000000000000e+00 0.0 0.0 
1.000000000000e+00 0.0 0.0 
1.000000000000e+00 0.0 0.0 
1.000000000000e+00 0.0 0.0 
1.000000000000e+00 0.0 0.0 
1.000000000000e+00 0.0 0.0 
1.000000000000e+00 0.0 0.0 
1.000000000000e+00 0.0 0.0 
1.000000000000e+00 0.0 0.0 
1.000000000000e+00 0.0 0.0 
1.000000000000e+00 0.0 0.0 
1.000000000000e+00 0.0 0.0 
1.000000000000e+00 0.0 0.0 
1.000000000000e+00 0.0 0.0 
1.000000000000e+00 0.0 0.0 
1.000000000000e+00 0.0 0.0 
1.000000000000e+00 0.0 0.0 
1.000000000000e+00 0.0 0.0 
1.000000000000e+00 0.0 0.0 
1.000000000000e+00 0.0 0.0 
1.000000000000e+00 0.0 0.0 
1.000000000000e+00 0.0 0.0 
1.000000000000e+00 0.0 0.0 
1.000000000000e+00 0.0 0.0 
1.000000000000e+00 0.0 0.0 
1.000000000000e+00 0.0 0.0 
1.000000000000e+00 0.0 0.0 
1.000000000000e+00 0.0 0.0 
1.000000000000e+00 0.0 0.0 
1.000000000000e+00 0.0 0.0 
1.000000000000e+00 0.0 0.0 
1.000000000000e+00 0.0 0.0 
1.000000000000e+00 0.0 0.0 
1.000000000000e+00 0.0 0.0 
1.000000000000e+00 0.0 0.0 
1.000000000000e+00 0.0 0.0 
1.000000000000e+00 0.0 0.0 
1.000000000000e+00 0.0 0.0 
1.000000000000e+00 0.0 0.0 
1.000000000000e+00 0.0 0.0 
1.000000000000e+00 0.0 0.0 
1.000000000000e+00 0.0 0.0 
1.000000000000e+00 0.0 0.0 
1.000000000000e+00 0.0 0.0 
1.000000000000e+00 0.0 0.0 
1.000000000000e+00 0.0 0.0 
1.000000000000e+00 0.0 0.0 
1.000000000000e+00 0.0 0.0 
1.000000000000e+00 0.0 0.0 
1.000000000000e+00 0.0 0.0 
1.000000000000e+00 0.0 0.0 
1.000000000000e+00 0.0 0.0 
1.000000000000e+00 0.0 0.0 
1.000000000000e+00 0.0 0.0 
1.000000000000e+00 0.0 0.0 
1.000000000000e+00 0.0 0.0 
1.000000000000e+00 0.0 0.0 
1.000000000000e+00 0.0 0.0 
1.000000000000e+00 0.0 0.0 
1.000000000000e+00 0.0 0.0 
1.000000000000e+00 0.0 0.0 
1.000000000000e+00 0.0 0.0 
1.000000000000e+00 0.0 0.0 
1.000000000000e+00 0.0 0.0 
1.000000000000e+00 0.0 0.0 
1.000000000000e+00 0.0 0.0 
1.000000000000e+00 0.0 0.0 
1.000000000000e+00 0.0 0.0 
1.000000000000e+00 0.0 0.0 
1.000000000000e+00 0.0 0.0 
1.000000000000e+00 0.0 0.0 
1.000000000000e+00 0.0 0.0 
1.000000000000e+00 0.0 0.0 
1.000000000000e+00 0.0 0.0 
1.000000000000e+00 0.0 0.0 
1.000000000000e+00 0.0 0.0 
1.000000000000e+00 0.0 0.0 
1.000000000000e+00 0.0 0.0 
1.000000000000e+00 0.0 0.0 
0.0 0.0 0.0 
0.0 0.0 0.0 
0.0 0.0 0.0 
0.0 0.0 0.0 
0.0 0.0 0.0 
0.0 0.0 0.0 
0.0 0.0 0.0 
0.0 0.0 0.0 
0.0 0.0 0.0 
0.0 0.0 0.0 
0.0 0.0 0.0 
1.000000000000e+00 0.0 0.0 
1.000000000000e+00 0.0 0.0 
1.000000000000e+00 0.0 0.0 
1.000000000000e+00 0.0 0.0 
1.000000000000e+00 0.0 0.0 
1.000000000000e+00 0.0 0.0 
1.000000000000e+00 0.0 0.0 
0.0 0.0 0.0 
0.0 0.0 0.0 
0.0 0.0 0.0 
0.0 0.0 0.0 
0.0 0.0 0.0 
0.0 0.0 0.0 
0.0 0.0 0.0 
0.0 0.0 0.0 
0.0 0.0 0.0 
0.0 0.0 0.0 
0.0 0.0 0.0 
0.0 0.0 0.0 
0.0 0.0 0.0 
0.0 0.0 0.0 
0.0 0.0 0.0 
0.0 0.0 0.0 
0.0 0.0 0.0 
0.0 0.0 0.0 
0.0 0.0 0.0 
0.0 0.0 0.0 
0.0 0.0 0.0 
0.0 0.0 0.0 
0.0 0.0 0.0 
0.0 0.0 0.0 
0.0 0.0 0.0 
0.0 0.0 0.0 
0.0 0.0 0.0 
0.0 0.0 0.0 
0.0 0.0 0.0 
0.0 0.0 0.0 
0.0 0.0 0.0 
0.0 0.0 0.0 
0.0 0.0 0.0 
0.0 0.0 0.0 
0.0 0.0 0.0 
0.0 0.0 0.0 
0.0 0.0 0.0 
0.0 0.0 0.0 
0.0 0.0 0.0 
0.0 0.0 0.0 
0.0 0.0 0.0 
0.0 0.0 0.0 
0.0 0.0 0.0 
0.0 0.0 0.0 
0.0 0.0 0.0 
0.0 0.0 0.0 
0.0 0.0 0.0 
0.0 0.0 0.0 
0.0 0.0 0.0 
0.0 0.0 0.0 
0.0 0.0 0.0 
0.0 0.0 0.0 
0.0 0.0 0.0 
0.0 0.0 0.0 
0.0 0.0 0.0 
0.0 0.0 0.0 
0.0 0.0 0.0 
0.0 0.0 0.0 
0.0 0.0 0.0 
0.0 0.0 0.0 
0.0 0.0 0.0 
0.0 0.0 0.0 
0.0 0.0 0.0 
0.0 0.0 0.0 
0.0 0.0 0.0 
0.0 0.0 0.0 
0.0 0.0 0.0 
0.0 0.0 0.0 
0.0 0.0 0.0 
0.0 0.0 0.0 
0.0 0.0 0.0 
0.0 0.0 0.0 
0.0 0.0 0.0 
0.0 0.0 0.0 
0.0 0.0 0.0 
0.0 0.0 0.0 
0.0 0.0 0.0 
0.0 0.0 0.0 
0.0 0.0 0.0 
0.0 0.0 0.0 
0.0 0.0 0.0 
0.0 0.0 0.0 
0.0 0.0 0.0 
0.0 0.0 0.0 
0.0 0.0 0.0 
0.0 0.0 0.0 
0.0 0.0 0.0 
0.0 0.0 0.0 
0.0 0.0 0.0 
0.0 0.0 0.0 
0.0 0.0 0.0 
0.0 0.0 0.0 
0.0 0.0 0.0 
0.0 0.0 0.0 
0.0 0.0 0.0 
0.0 0.0 0.0 
0.0 0.0 0.0 
0.0 0.0 0.0 
0.0 0.0 0.0 
0.0 0.0 0.0 
0.0 0.0 0.0 
0.0 0.0 0.0 
0.0 0.0 0.0 
0.0 0.0 0.0 
0.0 0.0 0.0 
0.0 0.0 0.0 
0.0 0.0 0.0 
0.0 0.0 0.0 
0.0 0.0 0.0 
0.0 0.0 0.0 
0.0 0.0 0.0 
0.0 0.0 0.0 
0.0 0.0 0.0 
0.0 0.0 0.0 
0.0 0.0 0.0 
0.0 0.0 0.0 
0.0 0.0 0.0 
0.0 0.0 0.0 
0.0 0.0 0.0 
0.0 0.0 0.0 
0.0 0.0 0.0 
0.0 0.0 0.0 
0.0 0.0 0.0 
0.0 0.0 0.0 
0.0 0.0 0.0 
0.0 0.0 0.0 
0.0 0.0 0.0 
0.0 0.0 0.0 
0.0 0.0 0.0 
0.0 0.0 0.0 
0.0 0.0 0.0 
0.0 0.0 0.0 
0.0 0.0 0.0 
0.0 0.0 0.0 
0.0 0.0 0.0 
0.0 0.0 0.0 
0.0 0.0 0.0 
0.0 0.0 0.0 
0.0 0.0 0.0 
0.0 0.0 0.0 
0.0 0.0 0.0 
0.0 0.0 0.0 
0.0 0.0 0.0 
0.0 0.0 0.0 
0.0 0.0 0.0 
0.0 0.0 0.0 
0.0 0.0 0.0 
0.0 0.0 0.0 
0.0 0.0 0.0 
0.0 0.0 0.0 
0.0 0.0 0.0 
0.0 0.0 0.0 
0.0 0.0 0.0 
0.0 0.0 0.0 
0.0 0.0 0.0 
0.0 0.0 0.0 
0.0 0.0 0.0 
0.0 0.0 0.0 
0.0 0.0 0.0 
0.0 0.0 0.0 
0.0 0.0 0.0 
0.0 0.0 0.0 
0.0 0.0 0.0 
0.0 0.0 0.0 
0.0 0.0 0.0 
0.0 0.0 0.0 
0.0 0.0 0.0 
0.0 0.0 0.0 
0.0 0.0 0.0 
0.0 0.0 0.0 
0.0 0.0 0.0 
0.0 0.0 0.0 
0.0 0.0 0.0 
0.0 0.0 0.0 
0.0 0.0 0.0 
0.0 0.0 0.0 
0.0 0.0 0.0 
0.0 0.0 0.0 
0.0 0.0 0.0 
0.0 0.0 0.0 
0.0 0.0 0.0 
0.0 0.0 0.0 
0.0 0.0 0.0 
0.0 0.0 0.0 
0.0 0.0 0.0 
0.0 0.0 0.0 
0.0 0.0 0.0 
0.0 0.0 0.0 
0.0 0.0 0.0 
0.0 0.0 0.0 
0.0 0.0 0.0 
0.0 0.0 0.0 
0.0 0.0 0.0 
0.0 0.0 0.0 
0.0 0.0 0.0 
0.0 0.0 0.0 
0.0 0.0 0.0 
0.0 0.0 0.0 
0.0 0.0 0.0 
0.0 0.0 0.0 
0.0 0.0 0.0 
0.0 0.0 0.0 
0.0 0.0 0.0 
0.0 0.0 0.0 
0.0 0.0 0.0 
0.0 0.0 0.0 
0.0 0.0 0.0 
0.0 0.0 0.0 
0.0 0.0 0.0 
0.0 0.0 0.0 
0.0 0.0 0.0 
0.0 0.0 0.0 
0.0 0.0 0.0 
0.0 0.0 0.0 
0.0 0.0 0.0 
0.0 0.0 0.0 
0.0 0.0 0.0 
0.0 0.0 0.0 
0.0 0.0 0.0 
0.0 0.0 0.0 
0.0 0.0 0.0 
0.0 0.0 0.0 
0.0 0.0 0.0 
0.0 0.0 0.0 
0.0 0.0 0.0 
0.0 0.0 0.0 
0.0 0.0 0.0 
0.0 0.0 0.0 
0.0 0.0 0.0 
0.0 0.0 0.0 
0.0 0.0 0.0 
0.0 0.0 0.0 
0.0 0.0 0.0 
0.0 0.0 0.0 
0.0 0.0 0.0 
0.0 0.0 0.0 
0.0 0.0 0.0 
0.0 0.0 0.0 
0.0 0.0 0.0 
0.0 0.0 0.0 
0.0 0.0 0.0 
0.0 0.0 0.0 
0.0 0.0 0.0 
0.0 0.0 0.0 
0.0 0.0 0.0 
0.0 0.0 0.0 
0.0 0.0 0.0 
0.0 0.0 0.0 
0.0 0.0 0.0 
0.0 0.0 0.0 
0.0 0.0 0.0 
0.0 0.0 0.0 
0.0 0.0 0.0 
0.0 0.0 0.0 
0.0 0.0 0.0 
0.0 0.0 0.0 
0.0 0.0 0.0 
0.0 0.0 0.0 
0.0 0.0 0.0 
0.0 0.0 0.0 
0.0 0.0 0.0 
0.0 0.0 0.0 
0.0 0.0 0.0 
0.0 0.0 0.0 
0.0 0.0 0.0 
0.0 0.0 0.0 
0.0 0.0 0.0 
0.0 0.0 0.0 
0.0 0.0 0.0 
0.0 0.0 0.0 
0.0 0.0 0.0 
0.0 0.0 0.0 
0.0 0.0 0.0 
0.0 0.0 0.0 
0.0 0.0 0.0 
0.0 0.0 0.0 
0.0 0.0 0.0 
0.0 0.0 0.0 
0.0 0.0 0.0 
0.0 0.0 0.0 
0.0 0.0 0.0 
0.0 0.0 0.0 
0.0 0.0 0.0 
0.0 0.0 0.0 
0.0 0.0 0.0 
0.0 0.0 0.0 
0.0 0.0 0.0 
0.0 0.0 0.0 
0.0 0.0 0.0 
0.0 0.0 0.0 
0.0 0.0 0.0 
0.0 0.0 0.0 
0.0 0.0 0.0 
0.0 0.0 0.0 
0.0 0.0 0.0 
0.0 0.0 0.0 
0.0 0.0 0.0 
0.0 0.0 0.0 
0.0 0.0 0.0 
0.0 0.0 0.0 
0.0 0.0 0.0 
0.0 0.0 0.0 
0.0 0.0 0.0 
0.0 0.0 0.0 
0.0 0.0 0.0 
0.0 0.0 0.0 
0.0 0.0 0.0 
0.0 0.0 0.0 
0.0 0.0 0.0 
0.0 0.0 0.0 
0.0 0.0 0.0 
0.0 0.0 0.0 
0.0 0.0 0.0 
0.0 0.0 0.0 
0.0 0.0 0.0 
0.0 0.0 0.0 
0.0 0.0 0.0 
0.0 0.0 0.0 
0.0 0.0 0.0 
0.0 0.0 0.0 
0.0 0.0 0.0 
0.0 0.0 0.0 
0.0 0.0 0.0 
0.0 0.0 0.0 
0.0 0.0 0.0 
0.0 0.0 0.0 
0.0 0.0 0.0 
0.0 0.0 0.0 
0.0 0.0 0.0 
0.0 0.0 0.0 
0.0 0.0 0.0 
0.0 0.0 0.0 
0.0 0.0 0.0 
0.0 0.0 0.0 
0.0 0.0 0.0 
0.0 0.0 0.0 
0.0 0.0 0.0 
0.0 0.0 0.0 
0.0 0.0 0.0 
0.0 0.0 0.0 
0.0 0.0 0.0 
0.0 0.0 0.0 
0.0 0.0 0.0 
0.0 0.0 0.0 
0.0 0.0 0.0 
0.0 0.0 0.0 
0.0 0.0 0.0 
0.0 0.0 0.0 
0.0 0.0 0.0 
0.0 0.0 0.0 
0.0 0.0 0.0 
0.0 0.0 0.0 
0.0 0.0 0.0 
0.0 0.0 0.0 
0.0 0.0 0.0 
0.0 0.0 0.0 
0.0 0.0 0.0 
0.0 0.0 0.0 
0.0 0.0 0.0 
0.0 0.0 0.0 
0.0 0.0 0.0 
0.0 0.0 0.0 
0.0 0.0 0.0 
0.0 0.0 0.0 
0.0 0.0 0.0 
0.0 0.0 0.0 
0.0 0.0 0.0 
0.0 0.0 0.0 
0.0 0.0 0.0 
0.0 0.0 0.0 
0.0 0.0 0.0 
0.0 0.0 0.0 
0.0 0.0 0.0 
0.0 0.0 0.0 
0.0 0.0 0.0 
0.0 0.0 0.0 
0.0 0.0 0.0 
0.0 0.0 0.0 
0.0 0.0 0.0 
0.0 0.0 0.0 
0.0 0.0 0.0 
0.0 0.0 0.0 
0.0 0.0 0.0 
0.0 0.0 0.0 
0.0 0.0 0.0 
0.0 0.0 0.0 
0.0 0.0 0.0 
0.0 0.0 0.0 
0.0 0.0 0.0 
0.0 0.0 0.0 
0.0 0.0 0.0 
0.0 0.0 0.0 
0.0 0.0 0.0 
0.0 0.0 0.0 
0.0 0.0 0.0 
0.0 0.0 0.0 
0.0 0.0 0.0 
0.0 0.0 0.0 
0.0 0.0 0.0 
0.0 0.0 0.0 
0.0 0.0 0.0 
0.0 0.0 0.0 
0.0 0.0 0.0 
0.0 0.0 0.0 
0.0 0.0 0.0 
0.0 0.0 0.0 
0.0 0.0 0.0 
0.0 0.0 0.0 
0.0 0.0 0.0 
0.0 0.0 0.0 
0.0 0.0 0.0 
0.0 0.0 0.0 
0.0 0.0 0.0 
0.0 0.0 0.0 
0.0 0.0 0.0 
0.0 0.0 0.0 
0.0 0.0 0.0 
0.0 0.0 0.0 
0.0 0.0 0.0 
0.0 0.0 0.0 
0.0 0.0 0.0 
0.0 0.0 0.0 
0.0 0.0 0.0 
0.0 0.0 0.0 
0.0 0.0 0.0 
0.0 0.0 0.0 
0.0 0.0 0.0 
0.0 0.0 0.0 
0.0 0.0 0.0 
0.0 0.0 0.0 
0.0 0.0 0.0 
0.0 0.0 0.0 
0.0 0.0 0.0 
0.0 0.0 0.0 
0.0 0.0 0.0 
0.0 0.0 0.0 
0.0 0.0 0.0 
0.0 0.0 0.0 
0.0 0.0 0.0 
0.0 0.0 0.0 
0.0 0.0 0.0 
0.0 0.0 0.0 
0.0 0.0 0.0 
0.0 0.0 0.0 
0.0 0.0 0.0 
0.0 0.0 0.0 
0.0 0.0 0.0 
0.0 0.0 0.0 
0.0 0.0 0.0 
0.0 0.0 0.0 
0.0 0.0 0.0 
0.0 0.0 0.0 
0.0 0.0 0.0 
0.0 0.0 0.0 
0.0 0.0 0.0 
0.0 0.0 0.0 
0.0 0.0 0.0 
0.0 0.0 0.0 
0.0 0.0 0.0 
0.0 0.0 0.0 
0.0 0.0 0.0 
0.0 0.0 0.0 
0.0 0.0 0.0 
0.0 0.0 0.0 
0.0 0.0 0.0 
0.0 0.0 0.0 
0.0 0.0 0.0 
0.0 0.0 0.0 
0.0 0.0 0.0 
0.0 0.0 0.0 
0.0 0.0 0.0 
0.0 0.0 0.0 
0.0 0.0 0.0 
0.0 0.0 0.0 
0.0 0.0 0.0 
0.0 0.0 0.0 
0.0 0.0 0.0 
0.0 0.0 0.0 
0.0 0.0 0.0 
0.0 0.0 0.0 
0.0 0.0 0.0 
0.0 0.0 0.0 
0.0 0.0 0.0 
0.0 0.0 0.0 
0.0 0.0 0.0 
0.0 0.0 0.0 
0.0 0.0 0.0 
0.0 0.0 0.0 
0.0 0.0 0.0 
0.0 0.0 0.0 
0.0 0.0 0.0 
0.0 0.0 0.0 
0.0 0.0 0.0 
0.0 0.0 0.0 
0.0 0.0 0.0 
0.0 0.0 0.0 
0.0 0.0 0.0 
0.0 0.0 0.0 
0.0 0.0 0.0 
0.0 0.0 0.0 
0.0 0.0 0.0 
0.0 0.0 0.0 
0.0 0.0 0.0 
0.0 0.0 0.0 
0.0 0.0 0.0 
0.0 0.0 0.0 
0.0 0.0 0.0 
0.0 0.0 0.0 
0.0 0.0 0.0 
0.0 0.0 0.0 
0.0 0.0 0.0 
0.0 0.0 0.0 
0.0 0.0 0.0 
0.0 0.0 0.0 
0.0 0.0 0.0 
0.0 0.0 0.0 
0.0 0.0 0.0 
0.0 0.0 0.0 
0.0 0.0 0.0 
0.0 0.0 0.0 
0.0 0.0 0.0 
0.0 0.0 0.0 
0.0 0.0 0.0 
0.0 0.0 0.0 
0.0 0.0 0.0 
0.0 0.0 0.0 
0.0 0.0 0.0 
0.0 0.0 0.0 
0.0 0.0 0.0 
0.0 0.0 0.0 
0.0 0.0 0.0 
0.0 0.0 0.0 
0.0 0.0 0.0 
0.0 0.0 0.0 
0.0 0.0 0.0 
0.0 0.0 0.0 
0.0 0.0 0.0 
0.0 0.0 0.0 
0.0 0.0 0.0 
0.0 0.0 0.0 
0.0 0.0 0.0 
0.0 0.0 0.0 
0.0 0.0 0.0 
0.0 0.0 0.0 
0.0 0.0 0.0 
0.0 0.0 0.0 
0.0 0.0 0.0 
0.0 0.0 0.0 
0.0 0.0 0.0 
0.0 0.0 0.0 
0.0 0.0 0.0 
0.0 0.0 0.0 
0.0 0.0 0.0 
0.0 0.0 0.0 
0.0 0.0 0.0 
0.0 0.0 0.0 
0.0 0.0 0.0 
0.0 0.0 0.0 
0.0 0.0 0.0 
0.0 0.0 0.0 
0.0 0.0 0.0 
0.0 0.0 0.0 
0.0 0.0 0.0 
0.0 0.0 0.0 
0.0 0.0 0.0 
0.0 0.0 0.0 
0.0 0.0 0.0 
0.0 0.0 0.0 
0.0 0.0 0.0 
0.0 0.0 0.0 
0.0 0.0 0.0 
0.0 0.0 0.0 
0.0 0.0 0.0 
0.0 0.0 0.0 
0.0 0.0 0.0 
0.0 0.0 0.0 
0.0 0.0 0.0 
0.0 0.0 0.0 
0.0 0.0 0.0 
0.0 0.0 0.0 
0.0 0.0 0.0 
0.0 0.0 0.0 
0.0 0.0 0.0 
0.0 0.0 0.0 
0.0 0.0 0.0 
0.0 0.0 0.0 
0.0 0.0 0.0 
0.0 0.0 0.0 
0.0 0.0 0.0 
0.0 0.0 0.0 
0.0 0.0 0.0 
0.0 0.0 0.0 
0.0 0.0 0.0 
0.0 0.0 0.0 
0.0 0.0 0.0 
0.0 0.0 0.0 
0.0 0.0 0.0 
0.0 0.0 0.0 
0.0 0.0 0.0 
0.0 0.0 0.0 
0.0 0.0 0.0 
0.0 0.0 0.0 
0.0 0.0 0.0 
0.0 0.0 0.0 
0.0 0.0 0.0 
0.0 0.0 0.0 
0.0 0.0 0.0 
0.0 0.0 0.0 
0.0 0.0 0.0 
0.0 0.0 0.0 
0.0 0.0 0.0 
0.0 0.0 0.0 
0.0 0.0 0.0 
0.0 0.0 0.0 
0.0 0.0 0.0 
0.0 0.0 0.0 
0.0 0.0 0.0 
0.0 0.0 0.0 
0.0 0.0 0.0 
0.0 0.0 0.0 
0.0 0.0 0.0 
0.0 0.0 0.0 
0.0 0.0 0.0 
0.0 0.0 0.0 
0.0 0.0 0.0 
0.0 0.0 0.0 
0.0 0.0 0.0 
0.0 0.0 0.0 
0.0 0.0 0.0 
0.0 0.0 0.0 
0.0 0.0 0.0 
0.0 0.0 0.0 
0.0 0.0 0.0 
0.0 0.0 0.0 
0.0 0.0 0.0 
0.0 0.0 0.0 
0.0 0.0 0.0 
0.0 0.0 0.0 
0.0 0.0 0.0 
0.0 0.0 0.0 
0.0 0.0 0.0 
0.0 0.0 0.0 
0.0 0.0 0.0 
0.0 0.0 0.0 
0.0 0.0 0.0 
0.0 0.0 0.0 
0.0 0.0 0.0 
0.0 0.0 0.0 
0.0 0.0 0.0 
0.0 0.0 0.0 
0.0 0.0 0.0 
0.0 0.0 0.0 
0.0 0.0 0.0 
0.0 0.0 0.0 
0.0 0.0 0.0 
0.0 0.0 0.0 
0.0 0.0 0.0 
0.0 0.0 0.0 
0.0 0.0 0.0 
0.0 0.0 0.0 
0.0 0.0 0.0 
0.0 0.0 0.0 
0.0 0.0 0.0 
0.0 0.0 0.0 
0.0 0.0 0.0 
0.0 0.0 0.0 
0.0 0.0 0.0 
0.0 0.0 0.0 
0.0 0.0 0.0 
0.0 0.0 0.0 
0.0 0.0 0.0 
0.0 0.0 0.0 
0.0 0.0 0.0 
0.0 0.0 0.0 
0.0 0.0 0.0 
0.0 0.0 0.0 
0.0 0.0 0.0 
0.0 0.0 0.0 
0.0 0.0 0.0 
0.0 0.0 0.0 
0.0 0.0 0.0 
0.0 0.0 0.0 
0.0 0.0 0.0 
0.0 0.0 0.0 
0.0 0.0 0.0 
0.0 0.0 0.0 
0.0 0.0 0.0 
0.0 0.0 0.0 
0.0 0.0 0.0 
0.0 0.0 0.0 
0.0 0.0 0.0 
0.0 0.0 0.0 
0.0 0.0 0.0 
0.0 0.0 0.0 
0.0 0.0 0.0 
0.0 0.0 0.0 
0.0 0.0 0.0 
0.0 0.0 0.0 
0.0 0.0 0.0 
0.0 0.0 0.0 
0.0 0.0 0.0 
0.0 0.0 0.0 
0.0 0.0 0.0 
0.0 0.0 0.0 
0.0 0.0 0.0 
0.0 0.0 0.0 
0.0 0.0 0.0 
0.0 0.0 0.0 
0.0 0.0 0.0 
0.0 0.0 0.0 
0.0 0.0 0.0 
0.0 0.0 0.0 
0.0 0.0 0.0 
0.0 0.0 0.0 
0.0 0.0 0.0 
0.0 0.0 0.0 
0.0 0.0 0.0 
0.0 0.0 0.0 
0.0 0.0 0.0 
0.0 0.0 0.0 
0.0 0.0 0.0 
0.0 0.0 0.0 
0.0 0.0 0.0 
0.0 0.0 0.0 
0.0 0.0 0.0 
0.0 0.0 0.0 
0.0 0.0 0.0 
0.0 0.0 0.0 
0.0 0.0 0.0 
0.0 0.0 0.0 
0.0 0.0 0.0 
0.0 0.0 0.0 
0.0 0.0 0.0 
0.0 0.0 0.0 
0.0 0.0 0.0 
0.0 0.0 0.0 
0.0 0.0 0.0 
0.0 0.0 0.0 
0.0 0.0 0.0 
0.0 0.0 0.0 
0.0 0.0 0.0 
0.0 0.0 0.0 
0.0 0.0 0.0 
0.0 0.0 0.0 
0.0 0.0 0.0 
0.0 0.0 0.0 
0.0 0.0 0.0 
0.0 0.0 0.0 
0.0 0.0 0.0 
0.0 0.0 0.0 
0.0 0.0 0.0 
0.0 0.0 0.0 
0.0 0.0 0.0 
0.0 0.0 0.0 
0.0 0.0 0.0 
0.0 0.0 0.0 
0.0 0.0 0.0 
0.0 0.0 0.0 
0.0 0.0 0.0 
0.0 0.0 0.0 
0.0 0.0 0.0 
0.0 0.0 0.0 
0.0 0.0 0.0 
0.0 0.0 0.0 
0.0 0.0 0.0 
0.0 0.0 0.0 
0.0 0.0 0.0 
0.0 0.0 0.0 
0.0 0.0 0.0 
0.0 0.0 0.0 
0.0 0.0 0.0 
0.0 0.0 0.0 
0.0 0.0 0.0 
0.0 0.0 0.0 
0.0 0.0 0.0 
0.0 0.0 0.0 
0.0 0.0 0.0 
0.0 0.0 0.0 
0.0 0.0 0.0 
0.0 0.0 0.0 
0.0 0.0 0.0 
0.0 0.0 0.0 
0.0 0.0 0.0 
0.0 0.0 0.0 
0.0 0.0 0.0 
0.0 0.0 0.0 
0.0 0.0 0.0 
0.0 0.0 0.0 
0.0 0.0 0.0 
0.0 0.0 0.0 
0.0 0.0 0.0 
0.0 0.0 0.0 
0.0 0.0 0.0 
0.0 0.0 0.0 
0.0 0.0 0.0 
0.0 0.0 0.0 
0.0 0.0 0.0 
0.0 0.0 0.0 
0.0 0.0 0.0 
0.0 0.0 0.0 
0.0 0.0 0.0 
0.0 0.0 0.0 
0.0 0.0 0.0 
0.0 0.0 0.0 
0.0 0.0 0.0 
0.0 0.0 0.0 
0.0 0.0 0.0 
0.0 0.0 0.0 
0.0 0.0 0.0 
0.0 0.0 0.0 
0.0 0.0 0.0 
0.0 0.0 0.0 
0.0 0.0 0.0 
0.0 0.0 0.0 
0.0 0.0 0.0 
0.0 0.0 0.0 
0.0 0.0 0.0 
0.0 0.0 0.0 
0.0 0.0 0.0 
0.0 0.0 0.0 
0.0 0.0 0.0 
0.0 0.0 0.0 
0.0 0.0 0.0 
0.0 0.0 0.0 
0.0 0.0 0.0 
0.0 0.0 0.0 
0.0 0.0 0.0 
0.0 0.0 0.0 
0.0 0.0 0.0 
0.0 0.0 0.0 
0.0 0.0 0.0 
0.0 0.0 0.0 
0.0 0.0 0.0 
0.0 0.0 0.0 
0.0 0.0 0.0 
0.0 0.0 0.0 
0.0 0.0 0.0 
0.0 0.0 0.0 
0.0 0.0 0.0 
0.0 0.0 0.0 
0.0 0.0 0.0 
0.0 0.0 0.0 
0.0 0.0 0.0 
0.0 0.0 0.0 
0.0 0.0 0.0 
0.0 0.0 0.0 
0.0 0.0 0.0 
0.0 0.0 0.0 
0.0 0.0 0.0 
0.0 0.0 0.0 
0.0 0.0 0.0 
0.0 0.0 0.0 
0.0 0.0 0.0 
0.0 0.0 0.0 
0.0 0.0 0.0 
0.0 0.0 0.0 
0.0 0.0 0.0 
0.0 0.0 0.0 
0.0 0.0 0.0 
0.0 0.0 0.0 
0.0 0.0 0.0 
0.0 0.0 0.0 
0.0 0.0 0.0 
0.0 0.0 0.0 
0.0 0.0 0.0 
0.0 0.0 0.0 
0.0 0.0 0.0 
0.0 0.0 0.0 
0.0 0.0 0.0 
0.0 0.0 0.0 
0.0 0.0 0.0 
0.0 0.0 0.0 
0.0 0.0 0.0 
0.0 0.0 0.0 
0.0 0.0 0.0 
0.0 0.0 0.0 
0.0 0.0 0.0 
0.0 0.0 0.0 
0.0 0.0 0.0 
0.0 0.0 0.0 
0.0 0.0 0.0 
0.0 0.0 0.0 
0.0 0.0 0.0 
0.0 0.0 0.0 
0.0 0.0 0.0 
0.0 0.0 0.0 
0.0 0.0 0.0 
0.0 0.0 0.0 
0.0 0.0 0.0 
0.0 0.0 0.0 
0.0 0.0 0.0 
0.0 0.0 0.0 
0.0 0.0 0.0 
0.0 0.0 0.0 
0.0 0.0 0.0 
0.0 0.0 0.0 
0.0 0.0 0.0 
0.0 0.0 0.0 
0.0 0.0 0.0 
0.0 0.0 0.0 
0.0 0.0 0.0 
0.0 0.0 0.0 
0.0 0.0 0.0 
0.0 0.0 0.0 
0.0 0.0 0.0 
0.0 0.0 0.0 
0.0 0.0 0.0 
0.0 0.0 0.0 
0.0 0.0 0.0 
0.0 0.0 0.0 
0.0 0.0 0.0 
0.0 0.0 0.0 
0.0 0.0 0.0 
0.0 0.0 0.0 
0.0 0.0 0.0 
0.0 0.0 0.0 
0.0 0.0 0.0 
0.0 0.0 0.0 
0.0 0.0 0.0 
0.0 0.0 0.0 
0.0 0.0 0.0 
0.0 0.0 0.0 
0.0 0.0 0.0 
0.0 0.0 0.0 
0.0 0.0 0.0 
0.0 0.0 0.0 
0.0 0.0 0.0 
0.0 0.0 0.0 
0.0 0.0 0.0 
0.0 0.0 0.0 
0.0 0.0 0.0 
0.0 0.0 0.0 
0.0 0.0 0.0 
0.0 0.0 0.0 
0.0 0.0 0.0 
0.0 0.0 0.0 
0.0 0.0 0.0 
0.0 0.0 0.0 
0.0 0.0 0.0 
0.0 0.0 0.0 
0.0 0.0 0.0 
0.0 0.0 0.0 
0.0 0.0 0.0 
0.0 0.0 0.0 
0.0 0.0 0.0 
0.0 0.0 0.0 
0.0 0.0 0.0 
0.0 0.0 0.0 
0.0 0.0 0.0 
0.0 0.0 0.0 
0.0 0.0 0.0 
0.0 0.0 0.0 
0.0 0.0 0.0 
0.0 0.0 0.0 
0.0 0.0 0.0 
0.0 0.0 0.0 
0.0 0.0 0.0 
0.0 0.0 0.0 
0.0 0.0 0.0 
0.0 0.0 0.0 
0.0 0.0 0.0 
0.0 0.0 0.0 
0.0 0.0 0.0 
0.0 0.0 0.0 
0.0 0.0 0.0 
0.0 0.0 0.0 
0.0 0.0 0.0 
0.0 0.0 0.0 
0.0 0.0 0.0 
0.0 0.0 0.0 
0.0 0.0 0.0 
0.0 0.0 0.0 
0.0 0.0 0.0 
0.0 0.0 0.0 
0.0 0.0 0.0 
0.0 0.0 0.0 
0.0 0.0 0.0 
0.0 0.0 0.0 
0.0 0.0 0.0 
0.0 0.0 0.0 
0.0 0.0 0.0 
0.0 0.0 0.0 
0.0 0.0 0.0 
0.0 0.0 0.0 
0.0 0.0 0.0 
0.0 0.0 0.0 
0.0 0.0 0.0 
0.0 0.0 0.0 
0.0 0.0 0.0 
0.0 0.0 0.0 
0.0 0.0 0.0 
0.0 0.0 0.0 
0.0 0.0 0.0 
0.0 0.0 0.0 
0.0 0.0 0.0 
0.0 0.0 0.0 
0.0 0.0 0.0 
0.0 0.0 0.0 
0.0 0.0 0.0 
0.0 0.0 0.0 
0.0 0.0 0.0 
0.0 0.0 0.0 
0.0 0.0 0.0 
0.0 0.0 0.0 
0.0 0.0 0.0 
0.0 0.0 0.0 
0.0 0.0 0.0 
0.0 0.0 0.0 
0.0 0.0 0.0 
0.0 0.0 0.0 
0.0 0.0 0.0 
0.0 0.0 0.0 
0.0 0.0 0.0 
0.0 0.0 0.0 
0.0 0.0 0.0 
0.0 0.0 0.0 
0.0 0.0 0.0 
0.0 0.0 0.0 
0.0 0.0 0.0 
0.0 0.0 0.0 
0.0 0.0 0.0 
0.0 0.0 0.0 
0.0 0.0 0.0 
0.0 0.0 0.0 
0.0 0.0 0.0 
0.0 0.0 0.0 
0.0 0.0 0.0 
0.0 0.0 0.0 
0.0 0.0 0.0 
0.0 0.0 0.0 
0.0 0.0 0.0 
0.0 0.0 0.0 
0.0 0.0 0.0 
0.0 0.0 0.0 
0.0 0.0 0.0 
0.0 0.0 0.0 
0.0 0.0 0.0 
0.0 0.0 0.0 
0.0 0.0 0.0 
0.0 0.0 0.0 
0.0 0.0 0.0 
0.0 0.0 0.0 
0.0 0.0 0.0 
0.0 0.0 0.0 
0.0 0.0 0.0 
0.0 0.0 0.0 
0.0 0.0 0.0 
0.0 0.0 0.0 
0.0 0.0 0.0 
0.0 0.0 0.0 
0.0 0.0 0.0 
0.0 0.0 0.0 
0.0 0.0 0.0 
0.0 0.0 0.0 
0.0 0.0 0.0 
0.0 0.0 0.0 
0.0 0.0 0.0 
0.0 0.0 0.0 
0.0 0.0 0.0 
0.0 0.0 0.0 
0.0 0.0 0.0 
0.0 0.0 0.0 
0.0 0.0 0.0 
0.0 0.0 0.0 
0.0 0.0 0.0 
0.0 0.0 0.0 
0.0 0.0 0.0 
0.0 0.0 0.0 
0.0 0.0 0.0 
0.0 0.0 0.0 
0.0 0.0 0.0 
0.0 0.0 0.0 
0.0 0.0 0.0 
0.0 0.0 0.0 
0.0 0.0 0.0 
0.0 0.0 0.0 
0.0 0.0 0.0 
0.0 0.0 0.0 
0.0 0.0 0.0 
0.0 0.0 0.0 
0.0 0.0 0.0 
0.0 0.0 0.0 
0.0 0.0 0.0 
0.0 0.0 0.0 
0.0 0.0 0.0 
0.0 0.0 0.0 
0.0 0.0 0.0 
0.0 0.0 0.0 
0.0 0.0 0.0 
0.0 0.0 0.0 
0.0 0.0 0.0 
0.0 0.0 0.0 

VECTORS node_bounda_dof_materi_velocity_y float
0.0 0.0 0.0 
0.0 0.0 0.0 
0.0 1.000000000000e+00 0.0 
0.0 1.000000000000e+00 0.0 
0.0 0.0 0.0 
0.0 0.0 0.0 
0.0 0.0 0.0 
0.0 0.0 0.0 
0.0 0.0 0.0 
0.0 0.0 0.0 
0.0 0.0 0.0 
0.0 0.0 0.0 
0.0 0.0 0.0 
0.0 0.0 0.0 
0.0 0.0 0.0 
0.0 0.0 0.0 
0.0 0.0 0.0 
0.0 0.0 0.0 
0.0 0.0 0.0 
0.0 0.0 0.0 
0.0 0.0 0.0 
0.0 0.0 0.0 
0.0 0.0 0.0 
0.0 1.000000000000e+00 0.0 
0.0 1.000000000000e+00 0.0 
0.0 1.000000000000e+00 0.0 
0.0 1.000000000000e+00 0.0 
0.0 1.000000000000e+00 0.0 
0.0 1.000000000000e+00 0.0 
0.0 1.000000000000e+00 0.0 
0.0 1.000000000000e+00 0.0 
0.0 1.000000000000e+00 0.0 
0.0 1.000000000000e+00 0.0 
0.0 1.000000000000e+00 0.0 
0.0 1.000000000000e+00 0.0 
0.0 1.000000000000e+00 0.0 
0.0 1.000000000000e+00 0.0 
0.0 1.000000000000e+00 0.0 
0.0 1.000000000000e+00 0.0 
0.0 1.000000000000e+00 0.0 
0.0 1.000000000000e+00 0.0 
0.0 1.000000000000e+00 0.0 
0.0 1.000000000000e+00 0.0 
0.0 1.000000000000e+00 0.0 
0.0 1.000000000000e+00 0.0 
0.0 1.000000000000e+00 0.0 
0.0 1.000000000000e+00 0.0 
0.0 1.000000000000e+00 0.0 
0.0 1.000000000000e+00 0.0 
0.0 1.000000000000e+00 0.0 
0.0 1.000000000000e+00 0.0 
0.0 1.000000000000e+00 0.0 
0.0 1.000000000000e+00 0.0 
0.0 1.000000000000e+00 0.0 
0.0 1.000000000000e+00 0.0 
0.0 1.000000000000e+00 0.0 
0.0 1.000000000000e+00 0.0 
0.0 1.000000000000e+00 0.0 
0.0 1.000000000000e+00 0.0 
0.0 1.000000000000e+00 0.0 
0.0 1.000000000000e+00 0.0 
0.0 1.000000000000e+00 0.0 
0.0 1.000000000000e+00 0.0 
0.0 1.000000000000e+00 0.0 
0.0 1.000000000000e+00 0.0 
0.0 1.000000000000e+00 0.0 
0.0 1.000000000000e+00 0.0 
0.0 1.000000000000e+00 0.0 
0.0 1.000000000000e+00 0.0 
0.0 1.000000000000e+00 0.0 
0.0 1.000000000000e+00 0.0 
0.0 1.000000000000e+00 0.0 
0.0 0.0 0.0 
0.0 0.0 0.0 
0.0 0.0 0.0 
0.0 0.0 0.0 
0.0 0.0 0.0 
0.0 0.0 0.0 
0.0 0.0 0.0 
0.0 0.0 0.0 
0.0 0.0 0.0 
0.0 0.0 0.0 
0.0 0.0 0.0 
0.0 0.0 0.0 
0.0 0.0 0.0 
0.0 0.0 0.0 
0.0 0.0 0.0 
0.0 0.0 0.0 
0.0 0.0 0.0 
0.0 0.0 0.0 
0.0 0.0 0.0 
0.0 0.0 0.0 
0.0 0.0 0.0 
0.0 0.0 0.0 
0.0 0.0 0.0 
0.0 0.0 0.0 
0.0 0.0 0.0 
0.0 0.0 0.0 
0.0 0.0 0.0 
0.0 0.0 0.0 
0.0 0.0 0.0 
0.0 0.0 0.0 
0.0 0.0 0.0 
0.0 0.0 0.0 
0.0 0.0 0.0 
0.0 0.0 0.0 
0.0 0.0 0.0 
0.0 0.0 0.0 
0.0 0.0 0.0 
0.0 0.0 0.0 
0.0 0.0 0.0 
0.0 0.0 0.0 
0.0 0.0 0.0 
0.0 0.0 0.0 
0.0 0.0 0.0 
0.0 0.0 0.0 
0.0 0.0 0.0 
0.0 0.0 0.0 
0.0 0.0 0.0 
0.0 0.0 0.0 
0.0 0.0 0.0 
0.0 0.0 0.0 
0.0 0.0 0.0 
0.0 0.0 0.0 
0.0 0.0 0.0 
0.0 0.0 0.0 
0.0 0.0 0.0 
0.0 0.0 0.0 
0.0 0.0 0.0 
0.0 0.0 0.0 
0.0 0.0 0.0 
0.0 0.0 0.0 
0.0 0.0 0.0 
0.0 0.0 0.0 
0.0 0.0 0.0 
0.0 0.0 0.0 
0.0 0.0 0.0 
0.0 0.0 0.0 
0.0 0.0 0.0 
0.0 0.0 0.0 
0.0 0.0 0.0 
0.0 0.0 0.0 
0.0 0.0 0.0 
0.0 0.0 0.0 
0.0 0.0 0.0 
0.0 0.0 0.0 
0.0 0.0 0.0 
0.0 0.0 0.0 
0.0 0.0 0.0 
0.0 0.0 0.0 
0.0 0.0 0.0 
0.0 0.0 0.0 
0.0 0.0 0.0 
0.0 0.0 0.0 
0.0 0.0 0.0 
0.0 0.0 0.0 
0.0 0.0 0.0 
0.0 0.0 0.0 
0.0 0.0 0.0 
0.0 0.0 0.0 
0.0 0.0 0.0 
0.0 0.0 0.0 
0.0 0.0 0.0 
0.0 0.0 0.0 
0.0 0.0 0.0 
0.0 0.0 0.0 
0.0 0.0 0.0 
0.0 0.0 0.0 
0.0 0.0 0.0 
0.0 0.0 0.0 
0.0 0.0 0.0 
0.0 0.0 0.0 
0.0 0.0 0.0 
0.0 0.0 0.0 
0.0 0.0 0.0 
0.0 0.0 0.0 
0.0 0.0 0.0 
0.0 0.0 0.0 
0.0 0.0 0.0 
0.0 0.0 0.0 
0.0 0.0 0.0 
0.0 0.0 0.0 
0.0 0.0 0.0 
0.0 0.0 0.0 
0.0 0.0 0.0 
0.0 0.0 0.0 
0.0 0.0 0.0 
0.0 0.0 0.0 
0.0 0.0 0.0 
0.0 0.0 0.0 
0.0 0.0 0.0 
0.0 0.0 0.0 
0.0 0.0 0.0 
0.0 0.0 0.0 
0.0 0.0 0.0 
0.0 0.0 0.0 
0.0 0.0 0.0 
0.0 0.0 0.0 
0.0 0.0 0.0 
0.0 0.0 0.0 
0.0 0.0 0.0 
0.0 0.0 0.0 
0.0 0.0 0.0 
0.0 0.0 0.0 
0.0 0.0 0.0 
0.0 0.0 0.0 
0.0 0.0 0.0 
0.0 0.0 0.0 
0.0 0.0 0.0 
0.0 0.0 0.0 
0.0 0.0 0.0 
0.0 0.0 0.0 
0.0 0.0 0.0 
0.0 0.0 0.0 
0.0 0.0 0.0 
0.0 0.0 0.0 
0.0 0.0 0.0 
0.0 0.0 0.0 
0.0 0.0 0.0 
0.0 0.0 0.0 
0.0 0.0 0.0 
0.0 0.0 0.0 
0.0 0.0 0.0 
0.0 0.0 0.0 
0.0 0.0 0.0 
0.0 0.0 0.0 
0.0 0.0 0.0 
0.0 0.0 0.0 
0.0 0.0 0.0 
0.0 0.0 0.0 
0.0 0.0 0.0 
0.0 0.0 0.0 
0.0 0.0 0.0 
0.0 0.0 0.0 
0.0 0.0 0.0 
0.0 0.0 0.0 
0.0 0.0 0.0 
0.0 0.0 0.0 
0.0 0.0 0.0 
0.0 0.0 0.0 
0.0 0.0 0.0 
0.0 0.0 0.0 
0.0 0.0 0.0 
0.0 0.0 0.0 
0.0 0.0 0.0 
0.0 0.0 0.0 
0.0 0.0 0.0 
0.0 0.0 0.0 
0.0 0.0 0.0 
0.0 0.0 0.0 
0.0 0.0 0.0 
0.0 0.0 0.0 
0.0 0.0 0.0 
0.0 0.0 0.0 
0.0 0.0 0.0 
0.0 0.0 0.0 
0.0 0.0 0.0 
0.0 0.0 0.0 
0.0 0.0 0.0 
0.0 0.0 0.0 
0.0 0.0 0.0 
0.0 0.0 0.0 
0.0 0.0 0.0 
0.0 0.0 0.0 
0.0 0.0 0.0 
0.0 0.0 0.0 
0.0 0.0 0.0 
0.0 0.0 0.0 
0.0 0.0 0.0 
0.0 0.0 0.0 
0.0 0.0 0.0 
0.0 0.0 0.0 
0.0 0.0 0.0 
0.0 0.0 0.0 
0.0 0.0 0.0 
0.0 0.0 0.0 
0.0 0.0 0.0 
0.0 0.0 0.0 
0.0 0.0 0.0 
0.0 0.0 0.0 
0.0 0.0 0.0 
0.0 0.0 0.0 
0.0 0.0 0.0 
0.0 0.0 0.0 
0.0 0.0 0.0 
0.0 0.0 0.0 
0.0 0.0 0.0 
0.0 0.0 0.0 
0.0 0.0 0.0 
0.0 0.0 0.0 
0.0 0.0 0.0 
0.0 0.0 0.0 
0.0 0.0 0.0 
0.0 0.0 0.0 
0.0 0.0 0.0 
0.0 0.0 0.0 
0.0 0.0 0.0 
0.0 0.0 0.0 
0.0 0.0 0.0 
0.0 0.0 0.0 
0.0 0.0 0.0 
0.0 0.0 0.0 
0.0 0.0 0.0 
0.0 0.0 0.0 
0.0 0.0 0.0 
0.0 0.0 0.0 
0.0 0.0 0.0 
0.0 0.0 0.0 
0.0 0.0 0.0 
0.0 0.0 0.0 
0.0 0.0 0.0 
0.0 0.0 0.0 
0.0 0.0 0.0 
0.0 0.0 0.0 
0.0 0.0 0.0 
0.0 0.0 0.0 
0.0 0.0 0.0 
0.0 0.0 0.0 
0.0 0.0 0.0 
0.0 0.0 0.0 
0.0 0.0 0.0 
0.0 0.0 0.0 
0.0 0.0 0.0 
0.0 0.0 0.0 
0.0 0.0 0.0 
0.0 0.0 0.0 
0.0 0.0 0.0 
0.0 0.0 0.0 
0.0 0.0 0.0 
0.0 0.0 0.0 
0.0 0.0 0.0 
0.0 0.0 0.0 
0.0 0.0 0.0 
0.0 0.0 0.0 
0.0 0.0 0.0 
0.0 0.0 0.0 
0.0 0.0 0.0 
0.0 0.0 0.0 
0.0 0.0 0.0 
0.0 0.0 0.0 
0.0 0.0 0.0 
0.0 0.0 0.0 
0.0 0.0 0.0 
0.0 0.0 0.0 
0.0 0.0 0.0 
0.0 0.0 0.0 
0.0 0.0 0.0 
0.0 0.0 0.0 
0.0 0.0 0.0 
0.0 0.0 0.0 
0.0 0.0 0.0 
0.0 0.0 0.0 
0.0 0.0 0.0 
0.0 0.0 0.0 
0.0 0.0 0.0 
0.0 0.0 0.0 
0.0 0.0 0.0 
0.0 0.0 0.0 
0.0 0.0 0.0 
0.0 0.0 0.0 
0.0 0.0 0.0 
0.0 0.0 0.0 
0.0 0.0 0.0 
0.0 0.0 0.0 
0.0 0.0 0.0 
0.0 0.0 0.0 
0.0 0.0 0.0 
0.0 0.0 0.0 
0.0 0.0 0.0 
0.0 0.0 0.0 
0.0 0.0 0.0 
0.0 0.0 0.0 
0.0 0.0 0.0 
0.0 0.0 0.0 
0.0 0.0 0.0 
0.0 0.0 0.0 
0.0 0.0 0.0 
0.0 0.0 0.0 
0.0 0.0 0.0 
0.0 0.0 0.0 
0.0 0.0 0.0 
0.0 0.0 0.0 
0.0 0.0 0.0 
0.0 0.0 0.0 
0.0 0.0 0.0 
0.0 0.0 0.0 
0.0 0.0 0.0 
0.0 0.0 0.0 
0.0 0.0 0.0 
0.0 0.0 0.0 
0.0 0.0 0.0 
0.0 0.0 0.0 
0.0 0.0 0.0 
0.0 0.0 0.0 
0.0 0.0 0.0 
0.0 0.0 0.0 
0.0 0.0 0.0 
0.0 0.0 0.0 
0.0 0.0 0.0 
0.0 0.0 0.0 
0.0 0.0 0.0 
0.0 0.0 0.0 
0.0 0.0 0.0 
0.0 0.0 0.0 
0.0 0.0 0.0 
0.0 0.0 0.0 
0.0 0.0 0.0 
0.0 0.0 0.0 
0.0 0.0 0.0 
0.0 0.0 0.0 
0.0 0.0 0.0 
0.0 0.0 0.0 
0.0 0.0 0.0 
0.0 0.0 0.0 
0.0 0.0 0.0 
0.0 0.0 0.0 
0.0 0.0 0.0 
0.0 0.0 0.0 
0.0 0.0 0.0 
0.0 0.0 0.0 
0.0 0.0 0.0 
0.0 0.0 0.0 
0.0 0.0 0.0 
0.0 0.0 0.0 
0.0 0.0 0.0 
0.0 0.0 0.0 
0.0 0.0 0.0 
0.0 0.0 0.0 
0.0 0.0 0.0 
0.0 0.0 0.0 
0.0 0.0 0.0 
0.0 0.0 0.0 
0.0 0.0 0.0 
0.0 0.0 0.0 
0.0 0.0 0.0 
0.0 0.0 0.0 
0.0 0.0 0.0 
0.0 0.0 0.0 
0.0 0.0 0.0 
0.0 0.0 0.0 
0.0 0.0 0.0 
0.0 0.0 0.0 
0.0 0.0 0.0 
0.0 0.0 0.0 
0.0 0.0 0.0 
0.0 0.0 0.0 
0.0 0.0 0.0 
0.0 0.0 0.0 
0.0 0.0 0.0 
0.0 0.0 0.0 
0.0 0.0 0.0 
0.0 0.0 0.0 
0.0 0.0 0.0 
0.0 0.0 0.0 
0.0 0.0 0.0 
0.0 0.0 0.0 
0.0 0.0 0.0 
0.0 0.0 0.0 
0.0 0.0 0.0 
0.0 0.0 0.0 
0.0 0.0 0.0 
0.0 0.0 0.0 
0.0 0.0 0.0 
0.0 0.0 0.0 
0.0 0.0 0.0 
0.0 0.0 0.0 
0.0 0.0 0.0 
0.0 0.0 0.0 
0.0 0.0 0.0 
0.0 0.0 0.0 
0.0 0.0 0.0 
0.0 0.0 0.0 
0.0 0.0 0.0 
0.0 0.0 0.0 
0.0 0.0 0.0 
0.0 0.0 0.0 
0.0 0.0 0.0 
0.0 0.0 0.0 
0.0 0.0 0.0 
0.0 0.0 0.0 
0.0 0.0 0.0 
0.0 0.0 0.0 
0.0 0.0 0.0 
0.0 0.0 0.0 
0.0 0.0 0.0 
0.0 0.0 0.0 
0.0 0.0 0.0 
0.0 0.0 0.0 
0.0 0.0 0.0 
0.0 0.0 0.0 
0.0 0.0 0.0 
0.0 0.0 0.0 
0.0 0.0 0.0 
0.0 0.0 0.0 
0.0 0.0 0.0 
0.0 0.0 0.0 
0.0 0.0 0.0 
0.0 0.0 0.0 
0.0 0.0 0.0 
0.0 0.0 0.0 
0.0 0.0 0.0 
0.0 0.0 0.0 
0.0 0.0 0.0 
0.0 0.0 0.0 
0.0 0.0 0.0 
0.0 0.0 0.0 
0.0 0.0 0.0 
0.0 0.0 0.0 
0.0 0.0 0.0 
0.0 0.0 0.0 
0.0 0.0 0.0 
0.0 0.0 0.0 
0.0 0.0 0.0 
0.0 0.0 0.0 
0.0 0.0 0.0 
0.0 0.0 0.0 
0.0 0.0 0.0 
0.0 0.0 0.0 
0.0 0.0 0.0 
0.0 0.0 0.0 
0.0 0.0 0.0 
0.0 0.0 0.0 
0.0 0.0 0.0 
0.0 0.0 0.0 
0.0 0.0 0.0 
0.0 0.0 0.0 
0.0 0.0 0.0 
0.0 0.0 0.0 
0.0 0.0 0.0 
0.0 0.0 0.0 
0.0 0.0 0.0 
0.0 0.0 0.0 
0.0 0.0 0.0 
0.0 0.0 0.0 
0.0 0.0 0.0 
0.0 0.0 0.0 
0.0 0.0 0.0 
0.0 0.0 0.0 
0.0 0.0 0.0 
0.0 0.0 0.0 
0.0 0.0 0.0 
0.0 0.0 0.0 
0.0 0.0 0.0 
0.0 0.0 0.0 
0.0 0.0 0.0 
0.0 0.0 0.0 
0.0 0.0 0.0 
0.0 0.0 0.0 
0.0 0.0 0.0 
0.0 0.0 0.0 
0.0 0.0 0.0 
0.0 0.0 0.0 
0.0 0.0 0.0 
0.0 0.0 0.0 
0.0 0.0 0.0 
0.0 0.0 0.0 
0.0 0.0 0.0 
0.0 0.0 0.0 
0.0 0.0 0.0 
0.0 0.0 0.0 
0.0 0.0 0.0 
0.0 0.0 0.0 
0.0 0.0 0.0 
0.0 0.0 0.0 
0.0 0.0 0.0 
0.0 0.0 0.0 
0.0 0.0 0.0 
0.0 0.0 0.0 
0.0 0.0 0.0 
0.0 0.0 0.0 
0.0 0.0 0.0 
0.0 0.0 0.0 
0.0 0.0 0.0 
0.0 0.0 0.0 
0.0 0.0 0.0 
0.0 0.0 0.0 
0.0 0.0 0.0 
0.0 0.0 0.0 
0.0 0.0 0.0 
0.0 0.0 0.0 
0.0 0.0 0.0 
0.0 0.0 0.0 
0.0 0.0 0.0 
0.0 0.0 0.0 
0.0 0.0 0.0 
0.0 0.0 0.0 
0.0 0.0 0.0 
0.0 0.0 0.0 
0.0 0.0 0.0 
0.0 0.0 0.0 
0.0 0.0 0.0 
0.0 0.0 0.0 
0.0 0.0 0.0 
0.0 0.0 0.0 
0.0 0.0 0.0 
0.0 0.0 0.0 
0.0 0.0 0.0 
0.0 0.0 0.0 
0.0 0.0 0.0 
0.0 0.0 0.0 
0.0 0.0 0.0 
0.0 0.0 0.0 
0.0 0.0 0.0 
0.0 0.0 0.0 
0.0 0.0 0.0 
0.0 0.0 0.0 
0.0 0.0 0.0 
0.0 0.0 0.0 
0.0 0.0 0.0 
0.0 0.0 0.0 
0.0 0.0 0.0 
0.0 0.0 0.0 
0.0 0.0 0.0 
0.0 0.0 0.0 
0.0 0.0 0.0 
0.0 0.0 0.0 
0.0 0.0 0.0 
0.0 0.0 0.0 
0.0 0.0 0.0 
0.0 0.0 0.0 
0.0 0.0 0.0 
0.0 0.0 0.0 
0.0 0.0 0.0 
0.0 0.0 0.0 
0.0 0.0 0.0 
0.0 0.0 0.0 
0.0 0.0 0.0 
0.0 0.0 0.0 
0.0 0.0 0.0 
0.0 0.0 0.0 
0.0 0.0 0.0 
0.0 0.0 0.0 
0.0 0.0 0.0 
0.0 0.0 0.0 
0.0 0.0 0.0 
0.0 0.0 0.0 
0.0 0.0 0.0 
0.0 0.0 0.0 
0.0 0.0 0.0 
0.0 0.0 0.0 
0.0 0.0 0.0 
0.0 0.0 0.0 
0.0 0.0 0.0 
0.0 0.0 0.0 
0.0 0.0 0.0 
0.0 0.0 0.0 
0.0 0.0 0.0 
0.0 0.0 0.0 
0.0 0.0 0.0 
0.0 0.0 0.0 
0.0 0.0 0.0 
0.0 0.0 0.0 
0.0 0.0 0.0 
0.0 0.0 0.0 
0.0 0.0 0.0 
0.0 0.0 0.0 
0.0 0.0 0.0 
0.0 0.0 0.0 
0.0 0.0 0.0 
0.0 0.0 0.0 
0.0 0.0 0.0 
0.0 0.0 0.0 
0.0 0.0 0.0 
0.0 0.0 0.0 
0.0 0.0 0.0 
0.0 0.0 0.0 
0.0 0.0 0.0 
0.0 0.0 0.0 
0.0 0.0 0.0 
0.0 0.0 0.0 
0.0 0.0 0.0 
0.0 0.0 0.0 
0.0 0.0 0.0 
0.0 0.0 0.0 
0.0 0.0 0.0 
0.0 0.0 0.0 
0.0 0.0 0.0 
0.0 0.0 0.0 
0.0 0.0 0.0 
0.0 0.0 0.0 
0.0 0.0 0.0 
0.0 0.0 0.0 
0.0 0.0 0.0 
0.0 0.0 0.0 
0.0 0.0 0.0 
0.0 0.0 0.0 
0.0 0.0 0.0 
0.0 0.0 0.0 
0.0 0.0 0.0 
0.0 0.0 0.0 
0.0 0.0 0.0 
0.0 0.0 0.0 
0.0 0.0 0.0 
0.0 0.0 0.0 
0.0 0.0 0.0 
0.0 0.0 0.0 
0.0 0.0 0.0 
0.0 0.0 0.0 
0.0 0.0 0.0 
0.0 0.0 0.0 
0.0 0.0 0.0 
0.0 0.0 0.0 
0.0 0.0 0.0 
0.0 0.0 0.0 
0.0 0.0 0.0 
0.0 0.0 0.0 
0.0 0.0 0.0 
0.0 0.0 0.0 
0.0 0.0 0.0 
0.0 0.0 0.0 
0.0 0.0 0.0 
0.0 0.0 0.0 
0.0 0.0 0.0 
0.0 0.0 0.0 
0.0 0.0 0.0 
0.0 0.0 0.0 
0.0 0.0 0.0 
0.0 0.0 0.0 
0.0 0.0 0.0 
0.0 0.0 0.0 
0.0 0.0 0.0 
0.0 0.0 0.0 
0.0 0.0 0.0 
0.0 0.0 0.0 
0.0 0.0 0.0 
0.0 0.0 0.0 
0.0 0.0 0.0 
0.0 0.0 0.0 
0.0 0.0 0.0 
0.0 0.0 0.0 
0.0 0.0 0.0 
0.0 0.0 0.0 
0.0 0.0 0.0 
0.0 0.0 0.0 
0.0 0.0 0.0 
0.0 0.0 0.0 
0.0 0.0 0.0 
0.0 0.0 0.0 
0.0 0.0 0.0 
0.0 0.0 0.0 
0.0 0.0 0.0 
0.0 0.0 0.0 
0.0 0.0 0.0 
0.0 0.0 0.0 
0.0 0.0 0.0 
0.0 0.0 0.0 
0.0 0.0 0.0 
0.0 0.0 0.0 
0.0 0.0 0.0 
0.0 0.0 0.0 
0.0 0.0 0.0 
0.0 0.0 0.0 
0.0 0.0 0.0 
0.0 0.0 0.0 
0.0 0.0 0.0 
0.0 0.0 0.0 
0.0 0.0 0.0 
0.0 0.0 0.0 
0.0 0.0 0.0 
0.0 0.0 0.0 
0.0 0.0 0.0 
0.0 0.0 0.0 
0.0 0.0 0.0 
0.0 0.0 0.0 
0.0 0.0 0.0 
0.0 0.0 0.0 
0.0 0.0 0.0 
0.0 0.0 0.0 
0.0 0.0 0.0 
0.0 0.0 0.0 
0.0 0.0 0.0 
0.0 0.0 0.0 
0.0 0.0 0.0 
0.0 0.0 0.0 
0.0 0.0 0.0 
0.0 0.0 0.0 
0.0 0.0 0.0 
0.0 0.0 0.0 
0.0 0.0 0.0 
0.0 0.0 0.0 
0.0 0.0 0.0 
0.0 0.0 0.0 
0.0 0.0 0.0 
0.0 0.0 0.0 
0.0 0.0 0.0 
0.0 0.0 0.0 
0.0 0.0 0.0 
0.0 0.0 0.0 
0.0 0.0 0.0 
0.0 0.0 0.0 
0.0 0.0 0.0 
0.0 0.0 0.0 
0.0 0.0 0.0 
0.0 0.0 0.0 
0.0 0.0 0.0 
0.0 0.0 0.0 
0.0 0.0 0.0 
0.0 0.0 0.0 
0.0 0.0 0.0 
0.0 0.0 0.0 
0.0 0.0 0.0 
0.0 0.0 0.0 
0.0 0.0 0.0 
0.0 0.0 0.0 
0.0 0.0 0.0 
0.0 0.0 0.0 
0.0 0.0 0.0 
0.0 0.0 0.0 
0.0 0.0 0.0 
0.0 0.0 0.0 
0.0 0.0 0.0 
0.0 0.0 0.0 
0.0 0.0 0.0 
0.0 0.0 0.0 
0.0 0.0 0.0 
0.0 0.0 0.0 
0.0 0.0 0.0 
0.0 0.0 0.0 
0.0 0.0 0.0 
0.0 0.0 0.0 
0.0 0.0 0.0 
0.0 0.0 0.0 
0.0 0.0 0.0 
0.0 0.0 0.0 
0.0 0.0 0.0 
0.0 0.0 0.0 
0.0 0.0 0.0 
0.0 0.0 0.0 
0.0 0.0 0.0 
0.0 0.0 0.0 
0.0 0.0 0.0 
0.0 0.0 0.0 
0.0 0.0 0.0 
0.0 0.0 0.0 
0.0 0.0 0.0 
0.0 0.0 0.0 
0.0 0.0 0.0 
0.0 0.0 0.0 
0.0 0.0 0.0 
0.0 0.0 0.0 
0.0 0.0 0.0 
0.0 0.0 0.0 
0.0 0.0 0.0 
0.0 0.0 0.0 
0.0 0.0 0.0 
0.0 0.0 0.0 
0.0 0.0 0.0 
0.0 0.0 0.0 
0.0 0.0 0.0 
0.0 0.0 0.0 
0.0 0.0 0.0 
0.0 0.0 0.0 
0.0 0.0 0.0 
0.0 0.0 0.0 
0.0 0.0 0.0 
0.0 0.0 0.0 
0.0 0.0 0.0 
0.0 0.0 0.0 
0.0 0.0 0.0 
0.0 0.0 0.0 
0.0 0.0 0.0 
0.0 0.0 0.0 
0.0 0.0 0.0 
0.0 0.0 0.0 
0.0 0.0 0.0 
0.0 0.0 0.0 
0.0 0.0 0.0 
0.0 0.0 0.0 
0.0 0.0 0.0 
0.0 0.0 0.0 
0.0 0.0 0.0 
0.0 0.0 0.0 
0.0 0.0 0.0 
0.0 0.0 0.0 
0.0 0.0 0.0 
0.0 0.0 0.0 
0.0 0.0 0.0 
0.0 0.0 0.0 
0.0 0.0 0.0 
0.0 0.0 0.0 
0.0 0.0 0.0 
0.0 0.0 0.0 
0.0 0.0 0.0 
0.0 0.0 0.0 
0.0 0.0 0.0 
0.0 0.0 0.0 
0.0 0.0 0.0 
0.0 0.0 0.0 
0.0 0.0 0.0 
0.0 0.0 0.0 
0.0 0.0 0.0 
0.0 0.0 0.0 
0.0 0.0 0.0 
0.0 0.0 0.0 
0.0 0.0 0.0 
0.0 0.0 0.0 
0.0 0.0 0.0 
0.0 0.0 0.0 
0.0 0.0 0.0 
0.0 0.0 0.0 
0.0 0.0 0.0 
0.0 0.0 0.0 
0.0 0.0 0.0 
0.0 0.0 0.0 
0.0 0.0 0.0 
0.0 0.0 0.0 
0.0 0.0 0.0 
0.0 0.0 0.0 
0.0 0.0 0.0 
0.0 0.0 0.0 
0.0 0.0 0.0 
0.0 0.0 0.0 
0.0 0.0 0.0 
0.0 0.0 0.0 
0.0 0.0 0.0 
0.0 0.0 0.0 
0.0 0.0 0.0 
0.0 0.0 0.0 
0.0 0.0 0.0 
0.0 0.0 0.0 
0.0 0.0 0.0 
0.0 0.0 0.0 
0.0 0.0 0.0 
0.0 0.0 0.0 
0.0 0.0 0.0 
0.0 0.0 0.0 
0.0 0.0 0.0 
0.0 0.0 0.0 
0.0 0.0 0.0 
0.0 0.0 0.0 
0.0 0.0 0.0 
0.0 0.0 0.0 
0.0 0.0 0.0 
0.0 0.0 0.0 
0.0 0.0 0.0 
0.0 0.0 0.0 
0.0 0.0 0.0 
0.0 0.0 0.0 
0.0 0.0 0.0 
0.0 0.0 0.0 
0.0 0.0 0.0 
0.0 0.0 0.0 
0.0 0.0 0.0 
0.0 0.0 0.0 
0.0 0.0 0.0 
0.0 0.0 0.0 
0.0 0.0 0.0 
0.0 0.0 0.0 
0.0 0.0 0.0 
0.0 0.0 0.0 
0.0 0.0 0.0 
0.0 0.0 0.0 
0.0 0.0 0.0 
0.0 0.0 0.0 
0.0 0.0 0.0 
0.0 0.0 0.0 
0.0 0.0 0.0 
0.0 0.0 0.0 
0.0 0.0 0.0 
0.0 0.0 0.0 
0.0 0.0 0.0 
0.0 0.0 0.0 
0.0 0.0 0.0 
0.0 0.0 0.0 
0.0 0.0 0.0 
0.0 0.0 0.0 
0.0 0.0 0.0 
0.0 0.0 0.0 
0.0 0.0 0.0 
0.0 0.0 0.0 
0.0 0.0 0.0 
0.0 0.0 0.0 
0.0 0.0 0.0 
0.0 0.0 0.0 
0.0 0.0 0.0 
0.0 0.0 0.0 
0.0 0.0 0.0 
0.0 0.0 0.0 
0.0 0.0 0.0 
0.0 0.0 0.0 
0.0 0.0 0.0 
0.0 0.0 0.0 
0.0 0.0 0.0 
0.0 0.0 0.0 
0.0 0.0 0.0 
0.0 0.0 0.0 
0.0 0.0 0.0 
0.0 0.0 0.0 
0.0 0.0 0.0 
0.0 0.0 0.0 
0.0 0.0 0.0 
0.0 0.0 0.0 
0.0 0.0 0.0 
0.0 0.0 0.0 
0.0 0.0 0.0 
0.0 0.0 0.0 
0.0 0.0 0.0 
0.0 0.0 0.0 
0.0 0.0 0.0 
0.0 0.0 0.0 
0.0 0.0 0.0 
0.0 0.0 0.0 
0.0 0.0 0.0 
0.0 0.0 0.0 
0.0 0.0 0.0 
0.0 0.0 0.0 
0.0 0.0 0.0 
0.0 0.0 0.0 
0.0 0.0 0.0 
0.0 0.0 0.0 
0.0 0.0 0.0 
0.0 0.0 0.0 
0.0 0.0 0.0 
0.0 0.0 0.0 
0.0 0.0 0.0 
0.0 0.0 0.0 
0.0 0.0 0.0 
0.0 0.0 0.0 
0.0 0.0 0.0 
0.0 0.0 0.0 
0.0 0.0 0.0 
0.0 0.0 0.0 
0.0 0.0 0.0 
0.0 0.0 0.0 
0.0 0.0 0.0 
0.0 0.0 0.0 
0.0 0.0 0.0 
0.0 0.0 0.0 
0.0 0.0 0.0 
0.0 0.0 0.0 
0.0 0.0 0.0 
0.0 0.0 0.0 
0.0 0.0 0.0 
0.0 0.0 0.0 
0.0 0.0 0.0 
0.0 0.0 0.0 
0.0 0.0 0.0 
0.0 0.0 0.0 
0.0 0.0 0.0 
0.0 0.0 0.0 
0.0 0.0 0.0 
0.0 0.0 0.0 
0.0 0.0 0.0 
0.0 0.0 0.0 
0.0 0.0 0.0 
0.0 0.0 0.0 
0.0 0.0 0.0 
0.0 0.0 0.0 
0.0 0.0 0.0 
0.0 0.0 0.0 
0.0 0.0 0.0 
0.0 0.0 0.0 
0.0 0.0 0.0 
0.0 0.0 0.0 
0.0 0.0 0.0 
0.0 0.0 0.0 
0.0 0.0 0.0 
0.0 0.0 0.0 
0.0 0.0 0.0 
0.0 0.0 0.0 
0.0 0.0 0.0 
0.0 0.0 0.0 
0.0 0.0 0.0 
0.0 0.0 0.0 
0.0 0.0 0.0 
0.0 0.0 0.0 
0.0 0.0 0.0 
0.0 0.0 0.0 
0.0 0.0 0.0 
0.0 0.0 0.0 
0.0 0.0 0.0 
0.0 0.0 0.0 
0.0 0.0 0.0 
0.0 0.0 0.0 
0.0 0.0 0.0 
0.0 0.0 0.0 
0.0 0.0 0.0 
0.0 0.0 0.0 
0.0 0.0 0.0 
0.0 0.0 0.0 
0.0 0.0 0.0 
0.0 0.0 0.0 
0.0 0.0 0.0 
0.0 0.0 0.0 
0.0 0.0 0.0 
0.0 0.0 0.0 
0.0 0.0 0.0 
0.0 0.0 0.0 
0.0 0.0 0.0 
0.0 0.0 0.0 
0.0 0.0 0.0 
0.0 0.0 0.0 
0.0 0.0 0.0 
0.0 0.0 0.0 
0.0 0.0 0.0 
0.0 0.0 0.0 
0.0 0.0 0.0 
0.0 0.0 0.0 
0.0 0.0 0.0 
0.0 0.0 0.0 
0.0 0.0 0.0 
0.0 0.0 0.0 
0.0 0.0 0.0 
0.0 0.0 0.0 
0.0 0.0 0.0 
0.0 0.0 0.0 
0.0 0.0 0.0 
0.0 0.0 0.0 
0.0 0.0 0.0 
0.0 0.0 0.0 
0.0 0.0 0.0 
0.0 0.0 0.0 
0.0 0.0 0.0 
0.0 0.0 0.0 
0.0 0.0 0.0 
0.0 0.0 0.0 
0.0 0.0 0.0 
0.0 0.0 0.0 
0.0 0.0 0.0 
0.0 0.0 0.0 
0.0 0.0 0.0 
0.0 0.0 0.0 
0.0 0.0 0.0 
0.0 0.0 0.0 
0.0 0.0 0.0 
0.0 0.0 0.0 
0.0 0.0 0.0 
0.0 0.0 0.0 
0.0 0.0 0.0 
0.0 0.0 0.0 
0.0 0.0 0.0 
0.0 0.0 0.0 
0.0 0.0 0.0 
0.0 0.0 0.0 
0.0 0.0 0.0 
0.0 0.0 0.0 
0.0 0.0 0.0 
0.0 0.0 0.0 
0.0 0.0 0.0 
0.0 0.0 0.0 
0.0 0.0 0.0 
0.0 0.0 0.0 
0.0 0.0 0.0 
0.0 0.0 0.0 
0.0 0.0 0.0 
0.0 0.0 0.0 
0.0 0.0 0.0 
0.0 0.0 0.0 
0.0 0.0 0.0 
0.0 0.0 0.0 
0.0 0.0 0.0 
0.0 0.0 0.0 
0.0 0.0 0.0 
0.0 0.0 0.0 
0.0 0.0 0.0 
0.0 0.0 0.0 
0.0 0.0 0.0 
0.0 0.0 0.0 
0.0 0.0 0.0 
0.0 0.0 0.0 
0.0 0.0 0.0 
0.0 0.0 0.0 
0.0 0.0 0.0 
0.0 0.0 0.0 
0.0 0.0 0.0 
0.0 0.0 0.0 
0.0 0.0 0.0 
0.0 0.0 0.0 
0.0 0.0 0.0 
0.0 0.0 0.0 
0.0 0.0 0.0 
0.0 0.0 0.0 
0.0 0.0 0.0 
0.0 0.0 0.0 
0.0 0.0 0.0 
0.0 0.0 0.0 
0.0 0.0 0.0 
0.0 0.0 0.0 
0.0 0.0 0.0 
0.0 0.0 0.0 
0.0 0.0 0.0 
0.0 0.0 0.0 
0.0 0.0 0.0 
0.0 0.0 0.0 
0.0 0.0 0.0 
0.0 0.0 0.0 
0.0 0.0 0.0 
0.0 0.0 0.0 
0.0 0.0 0.0 
0.0 0.0 0.0 
0.0 0.0 0.0 

SCALARS node_boundary float
LOOKUP_TABLE default
1.000000000000e+00 
1.000000000000e+00 
1.000000000000e+00 
1.000000000000e+00 
1.000000000000e+00 
1.000000000000e+00 
1.000000000000e+00 
1.000000000000e+00 
1.000000000000e+00 
1.000000000000e+00 
1.000000000000e+00 
1.000000000000e+00 
1.000000000000e+00 
1.000000000000e+00 
1.000000000000e+00 
1.000000000000e+00 
1.000000000000e+00 
1.000000000000e+00 
1.000000000000e+00 
1.000000000000e+00 
1.000000000000e+00 
1.000000000000e+00 
1.000000000000e+00 
1.000000000000e+00 
1.000000000000e+00 
1.000000000000e+00 
1.000000000000e+00 
1.000000000000e+00 
1.000000000000e+00 
1.000000000000e+00 
1.000000000000e+00 
1.000000000000e+00 
1.000000000000e+00 
1.000000000000e+00 
1.000000000000e+00 
1.000000000000e+00 
1.000000000000e+00 
1.000000000000e+00 
1.000000000000e+00 
1.000000000000e+00 
1.000000000000e+00 
1.000000000000e+00 
1.000000000000e+00 
1.000000000000e+00 
1.000000000000e+00 
1.000000000000e+00 
1.000000000000e+00 
1.000000000000e+00 
1.000000000000e+00 
1.000000000000e+00 
1.000000000000e+00 
1.000000000000e+00 
1.000000000000e+00 
1.000000000000e+00 
1.000000000000e+00 
1.000000000000e+00 
1.000000000000e+00 
1.000000000000e+00 
1.000000000000e+00 
1.000000000000e+00 
1.000000000000e+00 
1.000000000000e+00 
1.000000000000e+00 
1.000000000000e+00 
1.000000000000e+00 
1.000000000000e+00 
1.000000000000e+00 
1.000000000000e+00 
1.000000000000e+00 
1.000000000000e+00 
1.000000000000e+00 
1.000000000000e+00 
1.000000000000e+00 
1.000000000000e+00 
1.000000000000e+00 
1.000000000000e+00 
1.000000000000e+00 
1.000000000000e+00 
1.000000000000e+00 
1.000000000000e+00 
1.000000000000e+00 
1.000000000000e+00 
0.0
1.000000000000e+00 
1.000000000000e+00 
1.000000000000e+00 
0.0
0.0
0.0
0.0
0.0
0.0
1.000000000000e+00 
1.000000000000e+00 
1.000000000000e+00 
1.000000000000e+00 
1.000000000000e+00 
1.000000000000e+00 
1.000000000000e+00 
0.0
0.0
0.0
0.0
0.0
0.0
0.0
0.0
0.0
0.0
0.0
0.0
0.0
0.0
1.000000000000e+00 
1.000000000000e+00 
1.000000000000e+00 
1.000000000000e+00 
1.000000000000e+00 
1.000000000000e+00 
1.000000000000e+00 
1.000000000000e+00 
1.000000000000e+00 
1.000000000000e+00 
1.000000000000e+00 
1.000000000000e+00 
1.000000000000e+00 
1.000000000000e+00 
1.000000000000e+00 
1.000000000000e+00 
1.000000000000e+00 
1.000000000000e+00 
1.000000000000e+00 
1.000000000000e+00 
1.000000000000e+00 
1.000000000000e+00 
1.000000000000e+00 
1.000000000000e+00 
1.000000000000e+00 
1.000000000000e+00 
1.000000000000e+00 
1.000000000000e+00 
1.000000000000e+00 
1.000000000000e+00 
1.000000000000e+00 
1.000000000000e+00 
1.000000000000e+00 
1.000000000000e+00 
1.000000000000e+00 
1.000000000000e+00 
1.000000000000e+00 
1.000000000000e+00 
1.000000000000e+00 
1.000000000000e+00 
1.000000000000e+00 
1.000000000000e+00 
1.000000000000e+00 
1.000000000000e+00 
0.0
0.0
0.0
0.0
0.0
0.0
0.0
0.0
0.0
0.0
0.0
0.0
0.0
0.0
0.0
0.0
0.0
0.0
0.0
0.0
0.0
0.0
0.0
0.0
0.0
0.0
0.0
0.0
0.0
0.0
0.0
0.0
0.0
0.0
0.0
0.0
0.0
0.0
0.0
0.0
0.0
0.0
0.0
0.0
0.0
0.0
0.0
0.0
0.0
0.0
0.0
0.0
0.0
0.0
0.0
0.0
0.0
0.0
0.0
0.0
0.0
0.0
0.0
0.0
0.0
0.0
0.0
0.0
0.0
0.0
0.0
0.0
0.0
0.0
0.0
0.0
0.0
0.0
0.0
0.0
0.0
0.0
0.0
0.0
0.0
0.0
0.0
0.0
0.0
0.0
0.0
0.0
0.0
0.0
0.0
0.0
0.0
0.0
0.0
0.0
0.0
0.0
0.0
0.0
0.0
0.0
0.0
0.0
0.0
0.0
0.0
0.0
0.0
0.0
0.0
0.0
0.0
1.000000000000e+00 
1.000000000000e+00 
1.000000000000e+00 
0.0
0.0
0.0
0.0
0.0
0.0
0.0
0.0
0.0
0.0
0.0
0.0
0.0
0.0
0.0
0.0
0.0
0.0
0.0
0.0
0.0
0.0
0.0
0.0
0.0
0.0
0.0
0.0
0.0
0.0
0.0
0.0
0.0
0.0
0.0
0.0
0.0
0.0
0.0
0.0
0.0
0.0
0.0
0.0
0.0
0.0
0.0
0.0
0.0
0.0
0.0
0.0
0.0
0.0
0.0
0.0
0.0
0.0
0.0
0.0
0.0
0.0
0.0
0.0
0.0
0.0
0.0
0.0
0.0
0.0
0.0
0.0
0.0
0.0
0.0
0.0
0.0
0.0
0.0
0.0
0.0
0.0
0.0
0.0
0.0
0.0
0.0
0.0
0.0
0.0
0.0
0.0
0.0
0.0
0.0
0.0
0.0
0.0
0.0
0.0
0.0
0.0
0.0
0.0
0.0
0.0
0.0
0.0
0.0
0.0
0.0
0.0
0.0
0.0
0.0
0.0
0.0
0.0
0.0
0.0
0.0
0.0
0.0
0.0
0.0
0.0
0.0
0.0
0.0
0.0
0.0
0.0
0.0
0.0
0.0
0.0
0.0
0.0
0.0
0.0
0.0
0.0
0.0
0.0
0.0
0.0
0.0
0.0
0.0
0.0
0.0
0.0
0.0
0.0
0.0
0.0
0.0
0.0
0.0
0.0
0.0
0.0
0.0
0.0
0.0
0.0
0.0
0.0
0.0
0.0
0.0
0.0
0.0
0.0
0.0
0.0
0.0
0.0
0.0
0.0
0.0
0.0
0.0
0.0
0.0
0.0
0.0
0.0
0.0
0.0
0.0
0.0
0.0
0.0
0.0
0.0
0.0
0.0
0.0
0.0
0.0
0.0
0.0
0.0
0.0
0.0
0.0
0.0
0.0
0.0
0.0
0.0
0.0
0.0
0.0
0.0
0.0
0.0
0.0
0.0
0.0
0.0
0.0
0.0
0.0
0.0
0.0
0.0
0.0
0.0
0.0
0.0
0.0
0.0
0.0
0.0
0.0
0.0
0.0
0.0
0.0
0.0
0.0
0.0
0.0
0.0
0.0
0.0
0.0
0.0
0.0
0.0
0.0
0.0
0.0
0.0
0.0
0.0
0.0
0.0
0.0
0.0
0.0
0.0
0.0
0.0
0.0
0.0
0.0
0.0
0.0
0.0
0.0
0.0
0.0
0.0
0.0
0.0
0.0
0.0
0.0
0.0
0.0
0.0
0.0
0.0
0.0
0.0
0.0
0.0
0.0
0.0
0.0
0.0
0.0
0.0
0.0
0.0
0.0
0.0
0.0
0.0
0.0
0.0
0.0
0.0
0.0
0.0
0.0
0.0
0.0
0.0
0.0
0.0
0.0
0.0
0.0
0.0
0.0
0.0
0.0
0.0
0.0
0.0
0.0
0.0
0.0
0.0
0.0
0.0
0.0
0.0
0.0
0.0
0.0
0.0
0.0
0.0
0.0
0.0
0.0
0.0
0.0
0.0
0.0
0.0
0.0
0.0
0.0
0.0
0.0
0.0
0.0
0.0
0.0
0.0
0.0
0.0
0.0
0.0
0.0
0.0
0.0
0.0
0.0
0.0
0.0
0.0
0.0
0.0
0.0
0.0
0.0
0.0
0.0
0.0
0.0
0.0
0.0
0.0
0.0
0.0
0.0
0.0
0.0
0.0
0.0
0.0
0.0
0.0
0.0
0.0
0.0
0.0
0.0
0.0
0.0
0.0
0.0
0.0
0.0
0.0
0.0
0.0
0.0
0.0
0.0
0.0
0.0
0.0
0.0
0.0
0.0
0.0
0.0
0.0
0.0
0.0
0.0
0.0
0.0
0.0
0.0
0.0
0.0
0.0
0.0
0.0
0.0
0.0
0.0
0.0
0.0
0.0
0.0
0.0
0.0
0.0
0.0
0.0
0.0
0.0
0.0
0.0
0.0
0.0
0.0
0.0
0.0
0.0
0.0
0.0
0.0
0.0
0.0
0.0
0.0
0.0
0.0
0.0
0.0
0.0
0.0
0.0
0.0
0.0
0.0
0.0
0.0
0.0
0.0
0.0
0.0
0.0
0.0
0.0
0.0
0.0
0.0
0.0
0.0
0.0
0.0
0.0
0.0
0.0
0.0
0.0
0.0
0.0
0.0
0.0
0.0
0.0
0.0
0.0
0.0
0.0
0.0
0.0
0.0
0.0
0.0
0.0
0.0
0.0
0.0
0.0
0.0
0.0
0.0
0.0
0.0
0.0
0.0
0.0
0.0
0.0
0.0
0.0
0.0
0.0
0.0
0.0
0.0
0.0
0.0
0.0
0.0
0.0
0.0
0.0
0.0
0.0
0.0
0.0
0.0
0.0
0.0
0.0
0.0
0.0
0.0
0.0
0.0
0.0
0.0
0.0
0.0
0.0
0.0
0.0
0.0
0.0
0.0
0.0
0.0
0.0
0.0
0.0
0.0
0.0
0.0
0.0
0.0
0.0
0.0
0.0
0.0
0.0
0.0
0.0
0.0
0.0
0.0
0.0
0.0
0.0
0.0
0.0
0.0
0.0
0.0
0.0
0.0
0.0
0.0
0.0
0.0
0.0
0.0
0.0
0.0
0.0
0.0
0.0
0.0
0.0
0.0
0.0
0.0
0.0
0.0
0.0
0.0
0.0
0.0
0.0
0.0
0.0
0.0
0.0
0.0
0.0
0.0
0.0
0.0
0.0
0.0
0.0
0.0
0.0
0.0
0.0
0.0
0.0
0.0
0.0
0.0
0.0
0.0
0.0
0.0
0.0
0.0
0.0
0.0
0.0
0.0
0.0
0.0
0.0
0.0
0.0
0.0
0.0
0.0
0.0
0.0
0.0
0.0
0.0
0.0
0.0
0.0
0.0
0.0
0.0
0.0
0.0
0.0
0.0
0.0
0.0
0.0
0.0
0.0
0.0
0.0
0.0
0.0
0.0
0.0
0.0
0.0
0.0
0.0
0.0
0.0
0.0
0.0
0.0
0.0
0.0
0.0
0.0
0.0
0.0
0.0
0.0
0.0
0.0
0.0
0.0
0.0
0.0
0.0
0.0
0.0
0.0
0.0
0.0
0.0
0.0
0.0
0.0
0.0
0.0
0.0
0.0
0.0
0.0
0.0
0.0
0.0
0.0
0.0
0.0
0.0
0.0
0.0
0.0
0.0
0.0
0.0
0.0
0.0
0.0
0.0
0.0
0.0
0.0
0.0
0.0
0.0
0.0
0.0
0.0
0.0
0.0
0.0
0.0
0.0
0.0
0.0
0.0
0.0
0.0
0.0
0.0
0.0
0.0
0.0
0.0
0.0
0.0
0.0
0.0
0.0
0.0
0.0
0.0
0.0
0.0
0.0
0.0
0.0
0.0
0.0
0.0
0.0
0.0
0.0
0.0
0.0
0.0
0.0
0.0
0.0
0.0
0.0
0.0
0.0
0.0
0.0
0.0
0.0
0.0
0.0
0.0
0.0
0.0
0.0
0.0
0.0
0.0
0.0
0.0
0.0
0.0
0.0
0.0
0.0
0.0
0.0
0.0
0.0
0.0
0.0
0.0
0.0
0.0
0.0
0.0
0.0
0.0
0.0
0.0
0.0
0.0
0.0
0.0
0.0
0.0
0.0
0.0
0.0
0.0
0.0
0.0
0.0
0.0
0.0
0.0
0.0
0.0
0.0
0.0
0.0
0.0
0.0
0.0
0.0
0.0
0.0
0.0
0.0
0.0
0.0
0.0
0.0
0.0
0.0
0.0
0.0
0.0
0.0
0.0
0.0
0.0
0.0
0.0
0.0
0.0
0.0
0.0
0.0
0.0
0.0
0.0
0.0
0.0
0.0
0.0
0.0
0.0
0.0
0.0
0.0
0.0
0.0
0.0
0.0
0.0
0.0
0.0
0.0
0.0
0.0
0.0
0.0
0.0
0.0
0.0
0.0
0.0
0.0
0.0
0.0
0.0
0.0
0.0
0.0
0.0
0.0
0.0
0.0
0.0
0.0
0.0
0.0
0.0
0.0
0.0

VECTORS node_force_edge float
0.0 0.0 0.0 
0.0 0.0 0.0 
0.0 0.0 0.0 
0.0 0.0 0.0 
0.0 0.0 0.0 
0.0 0.0 0.0 
0.0 0.0 0.0 
0.0 0.0 0.0 
0.0 0.0 0.0 
0.0 0.0 0.0 
0.0 0.0 0.0 
0.0 0.0 0.0 
0.0 0.0 0.0 
0.0 0.0 0.0 
0.0 0.0 0.0 
0.0 0.0 0.0 
0.0 0.0 0.0 
0.0 0.0 0.0 
0.0 0.0 0.0 
0.0 0.0 0.0 
0.0 0.0 0.0 
0.0 0.0 0.0 
0.0 0.0 0.0 
0.0 0.0 0.0 
0.0 0.0 0.0 
0.0 0.0 0.0 
0.0 0.0 0.0 
0.0 0.0 0.0 
0.0 0.0 0.0 
0.0 0.0 0.0 
0.0 0.0 0.0 
0.0 0.0 0.0 
0.0 0.0 0.0 
0.0 0.0 0.0 
0.0 0.0 0.0 
0.0 0.0 0.0 
0.0 0.0 0.0 
0.0 0.0 0.0 
0.0 0.0 0.0 
0.0 0.0 0.0 
0.0 0.0 0.0 
0.0 0.0 0.0 
0.0 0.0 0.0 
0.0 0.0 0.0 
0.0 0.0 0.0 
0.0 0.0 0.0 
0.0 0.0 0.0 
0.0 0.0 0.0 
0.0 0.0 0.0 
0.0 0.0 0.0 
0.0 0.0 0.0 
0.0 0.0 0.0 
0.0 0.0 0.0 
0.0 0.0 0.0 
0.0 0.0 0.0 
0.0 0.0 0.0 
0.0 0.0 0.0 
0.0 0.0 0.0 
0.0 0.0 0.0 
0.0 0.0 0.0 
0.0 0.0 0.0 
0.0 0.0 0.0 
0.0 0.0 0.0 
0.0 0.0 0.0 
0.0 0.0 0.0 
0.0 0.0 0.0 
0.0 0.0 0.0 
0.0 0.0 0.0 
0.0 0.0 0.0 
0.0 0.0 0.0 
0.0 0.0 0.0 
0.0 0.0 0.0 
0.0 0.0 0.0 
0.0 0.0 0.0 
0.0 0.0 0.0 
0.0 0.0 0.0 
0.0 0.0 0.0 
0.0 0.0 0.0 
0.0 0.0 0.0 
0.0 0.0 0.0 
0.0 0.0 0.0 
0.0 -1.000000000000e+02 0.0 
0.0 0.0 0.0 
0.0 0.0 0.0 
0.0 0.0 0.0 
0.0 0.0 0.0 
0.0 0.0 0.0 
0.0 0.0 0.0 
0.0 0.0 0.0 
0.0 0.0 0.0 
0.0 0.0 0.0 
0.0 0.0 0.0 
0.0 0.0 0.0 
0.0 0.0 0.0 
0.0 0.0 0.0 
0.0 0.0 0.0 
0.0 0.0 0.0 
0.0 0.0 0.0 
0.0 0.0 0.0 
0.0 0.0 0.0 
0.0 0.0 0.0 
0.0 0.0 0.0 
0.0 0.0 0.0 
0.0 0.0 0.0 
0.0 0.0 0.0 
0.0 0.0 0.0 
0.0 0.0 0.0 
0.0 0.0 0.0 
0.0 0.0 0.0 
0.0 0.0 0.0 
0.0 0.0 0.0 
0.0 0.0 0.0 
0.0 0.0 0.0 
0.0 -1.000000000000e+02 0.0 
0.0 -1.000000000000e+02 0.0 
0.0 -1.000000000000e+02 0.0 
0.0 -1.000000000000e+02 0.0 
0.0 -1.000000000000e+02 0.0 
0.0 0.0 0.0 
0.0 0.0 0.0 
0.0 0.0 0.0 
0.0 0.0 0.0 
0.0 0.0 0.0 
0.0 0.0 0.0 
0.0 0.0 0.0 
0.0 0.0 0.0 
0.0 0.0 0.0 
0.0 0.0 0.0 
0.0 0.0 0.0 
0.0 0.0 0.0 
0.0 0.0 0.0 
0.0 0.0 0.0 
0.0 0.0 0.0 
0.0 0.0 0.0 
0.0 0.0 0.0 
0.0 0.0 0.0 
0.0 0.0 0.0 
0.0 0.0 0.0 
0.0 0.0 0.0 
0.0 0.0 0.0 
0.0 0.0 0.0 
0.0 0.0 0.0 
0.0 0.0 0.0 
0.0 0.0 0.0 
0.0 0.0 0.0 
0.0 0.0 0.0 
0.0 0.0 0.0 
0.0 0.0 0.0 
0.0 0.0 0.0 
0.0 0.0 0.0 
0.0 0.0 0.0 
0.0 0.0 0.0 
0.0 0.0 0.0 
0.0 0.0 0.0 
0.0 0.0 0.0 
0.0 0.0 0.0 
0.0 0.0 0.0 
0.0 0.0 0.0 
0.0 0.0 0.0 
0.0 0.0 0.0 
0.0 0.0 0.0 
0.0 0.0 0.0 
0.0 0.0 0.0 
0.0 0.0 0.0 
0.0 0.0 0.0 
0.0 0.0 0.0 
0.0 0.0 0.0 
0.0 0.0 0.0 
0.0 0.0 0.0 
0.0 0.0 0.0 
0.0 0.0 0.0 
0.0 0.0 0.0 
0.0 0.0 0.0 
0.0 0.0 0.0 
0.0 0.0 0.0 
0.0 0.0 0.0 
0.0 0.0 0.0 
0.0 0.0 0.0 
0.0 0.0 0.0 
0.0 0.0 0.0 
0.0 0.0 0.0 
0.0 0.0 0.0 
0.0 0.0 0.0 
0.0 0.0 0.0 
0.0 0.0 0.0 
0.0 0.0 0.0 
0.0 0.0 0.0 
0.0 0.0 0.0 
0.0 0.0 0.0 
0.0 0.0 0.0 
0.0 0.0 0.0 
0.0 0.0 0.0 
0.0 0.0 0.0 
0.0 0.0 0.0 
0.0 0.0 0.0 
0.0 0.0 0.0 
0.0 0.0 0.0 
0.0 0.0 0.0 
0.0 0.0 0.0 
0.0 0.0 0.0 
0.0 0.0 0.0 
0.0 0.0 0.0 
0.0 0.0 0.0 
0.0 0.0 0.0 
0.0 0.0 0.0 
0.0 0.0 0.0 
0.0 0.0 0.0 
0.0 0.0 0.0 
0.0 0.0 0.0 
0.0 0.0 0.0 
0.0 0.0 0.0 
0.0 0.0 0.0 
0.0 0.0 0.0 
0.0 0.0 0.0 
0.0 0.0 0.0 
0.0 0.0 0.0 
0.0 0.0 0.0 
0.0 0.0 0.0 
0.0 0.0 0.0 
0.0 0.0 0.0 
0.0 0.0 0.0 
0.0 0.0 0.0 
0.0 0.0 0.0 
0.0 0.0 0.0 
0.0 0.0 0.0 
0.0 0.0 0.0 
0.0 0.0 0.0 
0.0 0.0 0.0 
0.0 0.0 0.0 
0.0 0.0 0.0 
0.0 0.0 0.0 
0.0 0.0 0.0 
0.0 0.0 0.0 
0.0 0.0 0.0 
0.0 0.0 0.0 
0.0 0.0 0.0 
0.0 0.0 0.0 
0.0 0.0 0.0 
0.0 0.0 0.0 
0.0 0.0 0.0 
0.0 0.0 0.0 
0.0 0.0 0.0 
0.0 0.0 0.0 
0.0 0.0 0.0 
0.0 0.0 0.0 
0.0 0.0 0.0 
0.0 0.0 0.0 
0.0 0.0 0.0 
0.0 0.0 0.0 
0.0 0.0 0.0 
0.0 0.0 0.0 
0.0 0.0 0.0 
0.0 0.0 0.0 
0.0 0.0 0.0 
0.0 0.0 0.0 
0.0 0.0 0.0 
0.0 0.0 0.0 
0.0 0.0 0.0 
0.0 0.0 0.0 
0.0 0.0 0.0 
0.0 0.0 0.0 
0.0 0.0 0.0 
0.0 0.0 0.0 
0.0 0.0 0.0 
0.0 0.0 0.0 
0.0 0.0 0.0 
0.0 0.0 0.0 
0.0 0.0 0.0 
0.0 0.0 0.0 
0.0 0.0 0.0 
0.0 0.0 0.0 
0.0 0.0 0.0 
0.0 0.0 0.0 
0.0 0.0 0.0 
0.0 0.0 0.0 
0.0 0.0 0.0 
0.0 0.0 0.0 
0.0 0.0 0.0 
0.0 0.0 0.0 
0.0 0.0 0.0 
0.0 0.0 0.0 
0.0 0.0 0.0 
0.0 0.0 0.0 
0.0 0.0 0.0 
0.0 0.0 0.0 
0.0 0.0 0.0 
0.0 0.0 0.0 
0.0 0.0 0.0 
0.0 0.0 0.0 
0.0 0.0 0.0 
0.0 0.0 0.0 
0.0 0.0 0.0 
0.0 0.0 0.0 
0.0 0.0 0.0 
0.0 0.0 0.0 
0.0 0.0 0.0 
0.0 0.0 0.0 
0.0 0.0 0.0 
0.0 0.0 0.0 
0.0 0.0 0.0 
0.0 0.0 0.0 
0.0 0.0 0.0 
0.0 0.0 0.0 
0.0 0.0 0.0 
0.0 0.0 0.0 
0.0 0.0 0.0 
0.0 0.0 0.0 
0.0 0.0 0.0 
0.0 0.0 0.0 
0.0 0.0 0.0 
0.0 0.0 0.0 
0.0 0.0 0.0 
0.0 0.0 0.0 
0.0 0.0 0.0 
0.0 0.0 0.0 
0.0 0.0 0.0 
0.0 0.0 0.0 
0.0 0.0 0.0 
0.0 0.0 0.0 
0.0 0.0 0.0 
0.0 0.0 0.0 
0.0 0.0 0.0 
0.0 0.0 0.0 
0.0 0.0 0.0 
0.0 0.0 0.0 
0.0 0.0 0.0 
0.0 0.0 0.0 
0.0 0.0 0.0 
0.0 0.0 0.0 
0.0 0.0 0.0 
0.0 0.0 0.0 
0.0 0.0 0.0 
0.0 0.0 0.0 
0.0 0.0 0.0 
0.0 0.0 0.0 
0.0 0.0 0.0 
0.0 0.0 0.0 
0.0 0.0 0.0 
0.0 0.0 0.0 
0.0 0.0 0.0 
0.0 0.0 0.0 
0.0 0.0 0.0 
0.0 0.0 0.0 
0.0 0.0 0.0 
0.0 0.0 0.0 
0.0 0.0 0.0 
0.0 0.0 0.0 
0.0 0.0 0.0 
0.0 0.0 0.0 
0.0 0.0 0.0 
0.0 0.0 0.0 
0.0 0.0 0.0 
0.0 0.0 0.0 
0.0 0.0 0.0 
0.0 0.0 0.0 
0.0 0.0 0.0 
0.0 0.0 0.0 
0.0 0.0 0.0 
0.0 0.0 0.0 
0.0 0.0 0.0 
0.0 0.0 0.0 
0.0 0.0 0.0 
0.0 0.0 0.0 
0.0 0.0 0.0 
0.0 0.0 0.0 
0.0 0.0 0.0 
0.0 0.0 0.0 
0.0 0.0 0.0 
0.0 0.0 0.0 
0.0 0.0 0.0 
0.0 0.0 0.0 
0.0 0.0 0.0 
0.0 0.0 0.0 
0.0 0.0 0.0 
0.0 0.0 0.0 
0.0 0.0 0.0 
0.0 0.0 0.0 
0.0 0.0 0.0 
0.0 0.0 0.0 
0.0 0.0 0.0 
0.0 0.0 0.0 
0.0 0.0 0.0 
0.0 0.0 0.0 
0.0 0.0 0.0 
0.0 0.0 0.0 
0.0 0.0 0.0 
0.0 0.0 0.0 
0.0 0.0 0.0 
0.0 0.0 0.0 
0.0 0.0 0.0 
0.0 0.0 0.0 
0.0 0.0 0.0 
0.0 0.0 0.0 
0.0 0.0 0.0 
0.0 0.0 0.0 
0.0 0.0 0.0 
0.0 0.0 0.0 
0.0 0.0 0.0 
0.0 0.0 0.0 
0.0 0.0 0.0 
0.0 0.0 0.0 
0.0 0.0 0.0 
0.0 0.0 0.0 
0.0 0.0 0.0 
0.0 0.0 0.0 
0.0 0.0 0.0 
0.0 0.0 0.0 
0.0 0.0 0.0 
0.0 0.0 0.0 
0.0 0.0 0.0 
0.0 0.0 0.0 
0.0 0.0 0.0 
0.0 0.0 0.0 
0.0 0.0 0.0 
0.0 0.0 0.0 
0.0 0.0 0.0 
0.0 0.0 0.0 
0.0 0.0 0.0 
0.0 0.0 0.0 
0.0 0.0 0.0 
0.0 0.0 0.0 
0.0 0.0 0.0 
0.0 0.0 0.0 
0.0 0.0 0.0 
0.0 0.0 0.0 
0.0 0.0 0.0 
0.0 0.0 0.0 
0.0 0.0 0.0 
0.0 0.0 0.0 
0.0 0.0 0.0 
0.0 0.0 0.0 
0.0 0.0 0.0 
0.0 0.0 0.0 
0.0 0.0 0.0 
0.0 0.0 0.0 
0.0 0.0 0.0 
0.0 0.0 0.0 
0.0 0.0 0.0 
0.0 0.0 0.0 
0.0 0.0 0.0 
0.0 0.0 0.0 
0.0 0.0 0.0 
0.0 0.0 0.0 
0.0 0.0 0.0 
0.0 0.0 0.0 
0.0 0.0 0.0 
0.0 0.0 0.0 
0.0 0.0 0.0 
0.0 0.0 0.0 
0.0 0.0 0.0 
0.0 0.0 0.0 
0.0 0.0 0.0 
0.0 0.0 0.0 
0.0 0.0 0.0 
0.0 0.0 0.0 
0.0 0.0 0.0 
0.0 0.0 0.0 
0.0 0.0 0.0 
0.0 0.0 0.0 
0.0 0.0 0.0 
0.0 0.0 0.0 
0.0 0.0 0.0 
0.0 0.0 0.0 
0.0 0.0 0.0 
0.0 0.0 0.0 
0.0 0.0 0.0 
0.0 0.0 0.0 
0.0 0.0 0.0 
0.0 0.0 0.0 
0.0 0.0 0.0 
0.0 0.0 0.0 
0.0 0.0 0.0 
0.0 0.0 0.0 
0.0 0.0 0.0 
0.0 0.0 0.0 
0.0 0.0 0.0 
0.0 0.0 0.0 
0.0 0.0 0.0 
0.0 0.0 0.0 
0.0 0.0 0.0 
0.0 0.0 0.0 
0.0 0.0 0.0 
0.0 0.0 0.0 
0.0 0.0 0.0 
0.0 0.0 0.0 
0.0 0.0 0.0 
0.0 0.0 0.0 
0.0 0.0 0.0 
0.0 0.0 0.0 
0.0 0.0 0.0 
0.0 0.0 0.0 
0.0 0.0 0.0 
0.0 0.0 0.0 
0.0 0.0 0.0 
0.0 0.0 0.0 
0.0 0.0 0.0 
0.0 0.0 0.0 
0.0 0.0 0.0 
0.0 0.0 0.0 
0.0 0.0 0.0 
0.0 0.0 0.0 
0.0 0.0 0.0 
0.0 0.0 0.0 
0.0 0.0 0.0 
0.0 0.0 0.0 
0.0 0.0 0.0 
0.0 0.0 0.0 
0.0 0.0 0.0 
0.0 0.0 0.0 
0.0 0.0 0.0 
0.0 0.0 0.0 
0.0 0.0 0.0 
0.0 0.0 0.0 
0.0 0.0 0.0 
0.0 0.0 0.0 
0.0 0.0 0.0 
0.0 0.0 0.0 
0.0 0.0 0.0 
0.0 0.0 0.0 
0.0 0.0 0.0 
0.0 0.0 0.0 
0.0 0.0 0.0 
0.0 0.0 0.0 
0.0 0.0 0.0 
0.0 0.0 0.0 
0.0 0.0 0.0 
0.0 0.0 0.0 
0.0 0.0 0.0 
0.0 0.0 0.0 
0.0 0.0 0.0 
0.0 0.0 0.0 
0.0 0.0 0.0 
0.0 0.0 0.0 
0.0 0.0 0.0 
0.0 0.0 0.0 
0.0 0.0 0.0 
0.0 0.0 0.0 
0.0 0.0 0.0 
0.0 0.0 0.0 
0.0 0.0 0.0 
0.0 0.0 0.0 
0.0 0.0 0.0 
0.0 0.0 0.0 
0.0 0.0 0.0 
0.0 0.0 0.0 
0.0 0.0 0.0 
0.0 0.0 0.0 
0.0 0.0 0.0 
0.0 0.0 0.0 
0.0 0.0 0.0 
0.0 0.0 0.0 
0.0 0.0 0.0 
0.0 0.0 0.0 
0.0 0.0 0.0 
0.0 0.0 0.0 
0.0 0.0 0.0 
0.0 0.0 0.0 
0.0 0.0 0.0 
0.0 0.0 0.0 
0.0 0.0 0.0 
0.0 0.0 0.0 
0.0 0.0 0.0 
0.0 0.0 0.0 
0.0 0.0 0.0 
0.0 0.0 0.0 
0.0 0.0 0.0 
0.0 0.0 0.0 
0.0 0.0 0.0 
0.0 0.0 0.0 
0.0 0.0 0.0 
0.0 0.0 0.0 
0.0 0.0 0.0 
0.0 0.0 0.0 
0.0 0.0 0.0 
0.0 0.0 0.0 
0.0 0.0 0.0 
0.0 0.0 0.0 
0.0 0.0 0.0 
0.0 0.0 0.0 
0.0 0.0 0.0 
0.0 0.0 0.0 
0.0 0.0 0.0 
0.0 0.0 0.0 
0.0 0.0 0.0 
0.0 0.0 0.0 
0.0 0.0 0.0 
0.0 0.0 0.0 
0.0 0.0 0.0 
0.0 0.0 0.0 
0.0 0.0 0.0 
0.0 0.0 0.0 
0.0 0.0 0.0 
0.0 0.0 0.0 
0.0 0.0 0.0 
0.0 0.0 0.0 
0.0 0.0 0.0 
0.0 0.0 0.0 
0.0 0.0 0.0 
0.0 0.0 0.0 
0.0 0.0 0.0 
0.0 0.0 0.0 
0.0 0.0 0.0 
0.0 0.0 0.0 
0.0 0.0 0.0 
0.0 0.0 0.0 
0.0 0.0 0.0 
0.0 0.0 0.0 
0.0 0.0 0.0 
0.0 0.0 0.0 
0.0 0.0 0.0 
0.0 0.0 0.0 
0.0 0.0 0.0 
0.0 0.0 0.0 
0.0 0.0 0.0 
0.0 0.0 0.0 
0.0 0.0 0.0 
0.0 0.0 0.0 
0.0 0.0 0.0 
0.0 0.0 0.0 
0.0 0.0 0.0 
0.0 0.0 0.0 
0.0 0.0 0.0 
0.0 0.0 0.0 
0.0 0.0 0.0 
0.0 0.0 0.0 
0.0 0.0 0.0 
0.0 0.0 0.0 
0.0 0.0 0.0 
0.0 0.0 0.0 
0.0 0.0 0.0 
0.0 0.0 0.0 
0.0 0.0 0.0 
0.0 0.0 0.0 
0.0 0.0 0.0 
0.0 0.0 0.0 
0.0 0.0 0.0 
0.0 0.0 0.0 
0.0 0.0 0.0 
0.0 0.0 0.0 
0.0 0.0 0.0 
0.0 0.0 0.0 
0.0 0.0 0.0 
0.0 0.0 0.0 
0.0 0.0 0.0 
0.0 0.0 0.0 
0.0 0.0 0.0 
0.0 0.0 0.0 
0.0 0.0 0.0 
0.0 0.0 0.0 
0.0 0.0 0.0 
0.0 0.0 0.0 
0.0 0.0 0.0 
0.0 0.0 0.0 
0.0 0.0 0.0 
0.0 0.0 0.0 
0.0 0.0 0.0 
0.0 0.0 0.0 
0.0 0.0 0.0 
0.0 0.0 0.0 
0.0 0.0 0.0 
0.0 0.0 0.0 
0.0 0.0 0.0 
0.0 0.0 0.0 
0.0 0.0 0.0 
0.0 0.0 0.0 
0.0 0.0 0.0 
0.0 0.0 0.0 
0.0 0.0 0.0 
0.0 0.0 0.0 
0.0 0.0 0.0 
0.0 0.0 0.0 
0.0 0.0 0.0 
0.0 0.0 0.0 
0.0 0.0 0.0 
0.0 0.0 0.0 
0.0 0.0 0.0 
0.0 0.0 0.0 
0.0 0.0 0.0 
0.0 0.0 0.0 
0.0 0.0 0.0 
0.0 0.0 0.0 
0.0 0.0 0.0 
0.0 0.0 0.0 
0.0 0.0 0.0 
0.0 0.0 0.0 
0.0 0.0 0.0 
0.0 0.0 0.0 
0.0 0.0 0.0 
0.0 0.0 0.0 
0.0 0.0 0.0 
0.0 0.0 0.0 
0.0 0.0 0.0 
0.0 0.0 0.0 
0.0 0.0 0.0 
0.0 0.0 0.0 
0.0 0.0 0.0 
0.0 0.0 0.0 
0.0 0.0 0.0 
0.0 0.0 0.0 
0.0 0.0 0.0 
0.0 0.0 0.0 
0.0 0.0 0.0 
0.0 0.0 0.0 
0.0 0.0 0.0 
0.0 0.0 0.0 
0.0 0.0 0.0 
0.0 0.0 0.0 
0.0 0.0 0.0 
0.0 0.0 0.0 
0.0 0.0 0.0 
0.0 0.0 0.0 
0.0 0.0 0.0 
0.0 0.0 0.0 
0.0 0.0 0.0 
0.0 0.0 0.0 
0.0 0.0 0.0 
0.0 0.0 0.0 
0.0 0.0 0.0 
0.0 0.0 0.0 
0.0 0.0 0.0 
0.0 0.0 0.0 
0.0 0.0 0.0 
0.0 0.0 0.0 
0.0 0.0 0.0 
0.0 0.0 0.0 
0.0 0.0 0.0 
0.0 0.0 0.0 
0.0 0.0 0.0 
0.0 0.0 0.0 
0.0 0.0 0.0 
0.0 0.0 0.0 
0.0 0.0 0.0 
0.0 0.0 0.0 
0.0 0.0 0.0 
0.0 0.0 0.0 
0.0 0.0 0.0 
0.0 0.0 0.0 
0.0 0.0 0.0 
0.0 0.0 0.0 
0.0 0.0 0.0 
0.0 0.0 0.0 
0.0 0.0 0.0 
0.0 0.0 0.0 
0.0 0.0 0.0 
0.0 0.0 0.0 
0.0 0.0 0.0 
0.0 0.0 0.0 
0.0 0.0 0.0 
0.0 0.0 0.0 
0.0 0.0 0.0 
0.0 0.0 0.0 
0.0 0.0 0.0 
0.0 0.0 0.0 
0.0 0.0 0.0 
0.0 0.0 0.0 
0.0 0.0 0.0 
0.0 0.0 0.0 
0.0 0.0 0.0 
0.0 0.0 0.0 
0.0 0.0 0.0 
0.0 0.0 0.0 
0.0 0.0 0.0 
0.0 0.0 0.0 
0.0 0.0 0.0 
0.0 0.0 0.0 
0.0 0.0 0.0 
0.0 0.0 0.0 
0.0 0.0 0.0 
0.0 0.0 0.0 
0.0 0.0 0.0 
0.0 0.0 0.0 
0.0 0.0 0.0 
0.0 0.0 0.0 
0.0 0.0 0.0 
0.0 0.0 0.0 
0.0 0.0 0.0 
0.0 0.0 0.0 
0.0 0.0 0.0 
0.0 0.0 0.0 
0.0 0.0 0.0 
0.0 0.0 0.0 
0.0 0.0 0.0 
0.0 0.0 0.0 
0.0 0.0 0.0 
0.0 0.0 0.0 
0.0 0.0 0.0 
0.0 0.0 0.0 
0.0 0.0 0.0 
0.0 0.0 0.0 
0.0 0.0 0.0 
0.0 0.0 0.0 
0.0 0.0 0.0 
0.0 0.0 0.0 
0.0 0.0 0.0 
0.0 0.0 0.0 
0.0 0.0 0.0 
0.0 0.0 0.0 
0.0 0.0 0.0 
0.0 0.0 0.0 
0.0 0.0 0.0 
0.0 0.0 0.0 
0.0 0.0 0.0 
0.0 0.0 0.0 
0.0 0.0 0.0 
0.0 0.0 0.0 
0.0 0.0 0.0 
0.0 0.0 0.0 
0.0 0.0 0.0 
0.0 0.0 0.0 
0.0 0.0 0.0 
0.0 0.0 0.0 
0.0 0.0 0.0 
0.0 0.0 0.0 
0.0 0.0 0.0 
0.0 0.0 0.0 
0.0 0.0 0.0 
0.0 0.0 0.0 
0.0 0.0 0.0 
0.0 0.0 0.0 
0.0 0.0 0.0 
0.0 0.0 0.0 
0.0 0.0 0.0 
0.0 0.0 0.0 
0.0 0.0 0.0 
0.0 0.0 0.0 
0.0 0.0 0.0 
0.0 0.0 0.0 
0.0 0.0 0.0 
0.0 0.0 0.0 
0.0 0.0 0.0 
0.0 0.0 0.0 
0.0 0.0 0.0 
0.0 0.0 0.0 
0.0 0.0 0.0 
0.0 0.0 0.0 
0.0 0.0 0.0 
0.0 0.0 0.0 
0.0 0.0 0.0 
0.0 0.0 0.0 
0.0 0.0 0.0 
0.0 0.0 0.0 
0.0 0.0 0.0 
0.0 0.0 0.0 
0.0 0.0 0.0 
0.0 0.0 0.0 
0.0 0.0 0.0 
0.0 0.0 0.0 
0.0 0.0 0.0 
0.0 0.0 0.0 
0.0 0.0 0.0 
0.0 0.0 0.0 
0.0 0.0 0.0 
0.0 0.0 0.0 
0.0 0.0 0.0 
0.0 0.0 0.0 
0.0 0.0 0.0 
0.0 0.0 0.0 
0.0 0.0 0.0 
0.0 0.0 0.0 
0.0 0.0 0.0 
0.0 0.0 0.0 
0.0 0.0 0.0 
0.0 0.0 0.0 
0.0 0.0 0.0 
0.0 0.0 0.0 
0.0 0.0 0.0 
0.0 0.0 0.0 
0.0 0.0 0.0 
0.0 0.0 0.0 
0.0 0.0 0.0 
0.0 0.0 0.0 
0.0 0.0 0.0 
0.0 0.0 0.0 
0.0 0.0 0.0 
0.0 0.0 0.0 
0.0 0.0 0.0 
0.0 0.0 0.0 
0.0 0.0 0.0 
0.0 0.0 0.0 
0.0 0.0 0.0 
0.0 0.0 0.0 
0.0 0.0 0.0 
0.0 0.0 0.0 
0.0 0.0 0.0 
0.0 0.0 0.0 
0.0 0.0 0.0 
0.0 0.0 0.0 
0.0 0.0 0.0 
0.0 0.0 0.0 
0.0 0.0 0.0 
0.0 0.0 0.0 
0.0 0.0 0.0 
0.0 0.0 0.0 
0.0 0.0 0.0 
0.0 0.0 0.0 
0.0 0.0 0.0 
0.0 0.0 0.0 
0.0 0.0 0.0 
0.0 0.0 0.0 
0.0 0.0 0.0 
0.0 0.0 0.0 
0.0 0.0 0.0 
0.0 0.0 0.0 
0.0 0.0 0.0 
0.0 0.0 0.0 
0.0 0.0 0.0 
0.0 0.0 0.0 
0.0 0.0 0.0 
0.0 0.0 0.0 
0.0 0.0 0.0 
0.0 0.0 0.0 
0.0 0.0 0.0 
0.0 0.0 0.0 
0.0 0.0 0.0 
0.0 0.0 0.0 
0.0 0.0 0.0 
0.0 0.0 0.0 
0.0 0.0 0.0 
0.0 0.0 0.0 
0.0 0.0 0.0 
0.0 0.0 0.0 
0.0 0.0 0.0 
0.0 0.0 0.0 
0.0 0.0 0.0 
0.0 0.0 0.0 
0.0 0.0 0.0 
0.0 0.0 0.0 
0.0 0.0 0.0 
0.0 0.0 0.0 
0.0 0.0 0.0 
0.0 0.0 0.0 
0.0 0.0 0.0 
0.0 0.0 0.0 
0.0 0.0 0.0 
0.0 0.0 0.0 
0.0 0.0 0.0 
0.0 0.0 0.0 
0.0 0.0 0.0 
0.0 0.0 0.0 
0.0 0.0 0.0 
0.0 0.0 0.0 
0.0 0.0 0.0 
0.0 0.0 0.0 
0.0 0.0 0.0 
0.0 0.0 0.0 
0.0 0.0 0.0 
0.0 0.0 0.0 
0.0 0.0 0.0 
0.0 0.0 0.0 
0.0 0.0 0.0 
0.0 0.0 0.0 
0.0 0.0 0.0 
0.0 0.0 0.0 
0.0 0.0 0.0 
0.0 0.0 0.0 
0.0 0.0 0.0 
0.0 0.0 0.0 
0.0 0.0 0.0 
0.0 0.0 0.0 
0.0 0.0 0.0 
0.0 0.0 0.0 
0.0 0.0 0.0 
0.0 0.0 0.0 
0.0 0.0 0.0 
0.0 0.0 0.0 
0.0 0.0 0.0 
0.0 0.0 0.0 
0.0 0.0 0.0 
0.0 0.0 0.0 
0.0 0.0 0.0 
0.0 0.0 0.0 
0.0 0.0 0.0 
0.0 0.0 0.0 
0.0 0.0 0.0 
0.0 0.0 0.0 
0.0 0.0 0.0 
0.0 0.0 0.0 
0.0 0.0 0.0 
0.0 0.0 0.0 
0.0 0.0 0.0 
0.0 0.0 0.0 
0.0 0.0 0.0 
0.0 0.0 0.0 
0.0 0.0 0.0 
0.0 0.0 0.0 
0.0 0.0 0.0 
0.0 0.0 0.0 
0.0 0.0 0.0 
0.0 0.0 0.0 
0.0 0.0 0.0 
0.0 0.0 0.0 
0.0 0.0 0.0 
0.0 0.0 0.0 
0.0 0.0 0.0 
0.0 0.0 0.0 
0.0 0.0 0.0 
0.0 0.0 0.0 
0.0 0.0 0.0 
0.0 0.0 0.0 
0.0 0.0 0.0 
0.0 0.0 0.0 
0.0 0.0 0.0 
0.0 0.0 0.0 
0.0 0.0 0.0 
0.0 0.0 0.0 
0.0 0.0 0.0 
0.0 0.0 0.0 
0.0 0.0 0.0 
0.0 0.0 0.0 
0.0 0.0 0.0 
0.0 0.0 0.0 
0.0 0.0 0.0 
0.0 0.0 0.0 
0.0 0.0 0.0 
0.0 0.0 0.0 
0.0 0.0 0.0 
0.0 0.0 0.0 
0.0 0.0 0.0 
0.0 0.0 0.0 
0.0 0.0 0.0 
0.0 0.0 0.0 
0.0 0.0 0.0 
0.0 0.0 0.0 
0.0 0.0 0.0 
0.0 0.0 0.0 
0.0 0.0 0.0 
0.0 0.0 0.0 
0.0 0.0 0.0 
0.0 0.0 0.0 
0.0 0.0 0.0 
0.0 0.0 0.0 
0.0 0.0 0.0 
0.0 0.0 0.0 
0.0 0.0 0.0 
0.0 0.0 0.0 
0.0 0.0 0.0 
0.0 0.0 0.0 
0.0 0.0 0.0 
0.0 0.0 0.0 
0.0 0.0 0.0 
0.0 0.0 0.0 
0.0 0.0 0.0 
0.0 0.0 0.0 
0.0 0.0 0.0 
0.0 0.0 0.0 
0.0 0.0 0.0 
0.0 0.0 0.0 
0.0 0.0 0.0 
0.0 0.0 0.0 
0.0 0.0 0.0 
0.0 0.0 0.0 
0.0 0.0 0.0 
0.0 0.0 0.0 
0.0 0.0 0.0 
0.0 0.0 0.0 
0.0 0.0 0.0 
0.0 0.0 0.0 
0.0 0.0 0.0 
0.0 0.0 0.0 
0.0 0.0 0.0 
0.0 0.0 0.0 
0.0 0.0 0.0 
0.0 0.0 0.0 
0.0 0.0 0.0 
0.0 0.0 0.0 
0.0 0.0 0.0 
0.0 0.0 0.0 
0.0 0.0 0.0 
0.0 0.0 0.0 
0.0 0.0 0.0 
0.0 0.0 0.0 
0.0 0.0 0.0 
0.0 0.0 0.0 
0.0 0.0 0.0 
0.0 0.0 0.0 
0.0 0.0 0.0 
0.0 0.0 0.0 
0.0 0.0 0.0 
0.0 0.0 0.0 
0.0 0.0 0.0 
0.0 0.0 0.0 
0.0 0.0 0.0 
0.0 0.0 0.0 
0.0 0.0 0.0 
0.0 0.0 0.0 
0.0 0.0 0.0 
0.0 0.0 0.0 
0.0 0.0 0.0 
0.0 0.0 0.0 
0.0 0.0 0.0 
0.0 0.0 0.0 
0.0 0.0 0.0 
0.0 0.0 0.0 
0.0 0.0 0.0 
0.0 0.0 0.0 
0.0 0.0 0.0 
0.0 0.0 0.0 
0.0 0.0 0.0 
0.0 0.0 0.0 
0.0 0.0 0.0 
0.0 0.0 0.0 
0.0 0.0 0.0 
0.0 0.0 0.0 
0.0 0.0 0.0 
0.0 0.0 0.0 
0.0 0.0 0.0 
0.0 0.0 0.0 
0.0 0.0 0.0 
0.0 0.0 0.0 
0.0 0.0 0.0 
0.0 0.0 0.0 
0.0 0.0 0.0 
0.0 0.0 0.0 
0.0 0.0 0.0 
0.0 0.0 0.0 
0.0 0.0 0.0 
0.0 0.0 0.0 
0.0 0.0 0.0 
0.0 0.0 0.0 
0.0 0.0 0.0 
0.0 0.0 0.0 
0.0 0.0 0.0 
0.0 0.0 0.0 
0.0 0.0 0.0 
0.0 0.0 0.0 
0.0 0.0 0.0 
0.0 0.0 0.0 
0.0 0.0 0.0 
0.0 0.0 0.0 
0.0 0.0 0.0 
0.0 0.0 0.0 
0.0 0.0 0.0 
0.0 0.0 0.0 
0.0 0.0 0.0 
0.0 0.0 0.0 
0.0 0.0 0.0 
0.0 0.0 0.0 
0.0 0.0 0.0 
0.0 0.0 0.0 
0.0 0.0 0.0 
0.0 0.0 0.0 
0.0 0.0 0.0 
0.0 0.0 0.0 
0.0 0.0 0.0 
0.0 0.0 0.0 
0.0 0.0 0.0 
0.0 0.0 0.0 
0.0 0.0 0.0 
0.0 0.0 0.0 
0.0 0.0 0.0 
0.0 0.0 0.0 
0.0 0.0 0.0 
0.0 0.0 0.0 
0.0 0.0 0.0 
0.0 0.0 0.0 
0.0 0.0 0.0 
0.0 0.0 0.0 
0.0 0.0 0.0 
0.0 0.0 0.0 
0.0 0.0 0.0 
0.0 0.0 0.0 
0.0 0.0 0.0 
0.0 0.0 0.0 
0.0 0.0 0.0 
0.0 0.0 0.0 
0.0 0.0 0.0 
0.0 0.0 0.0 
0.0 0.0 0.0 
0.0 0.0 0.0 
0.0 0.0 0.0 
0.0 0.0 0.0 
0.0 0.0 0.0 
0.0 0.0 0.0 
0.0 0.0 0.0 
0.0 0.0 0.0 
0.0 0.0 0.0 
0.0 0.0 0.0 
0.0 0.0 0.0 
0.0 0.0 0.0 
0.0 0.0 0.0 
0.0 0.0 0.0 
0.0 0.0 0.0 
0.0 0.0 0.0 
0.0 0.0 0.0 
0.0 0.0 0.0 
0.0 0.0 0.0 
0.0 0.0 0.0 
0.0 0.0 0.0 
0.0 0.0 0.0 
0.0 0.0 0.0 
0.0 0.0 0.0 

VECTORS node_force_gravity float
0.0 -1.962000000000e+01 0.0 
0.0 -1.962000000000e+01 0.0 
0.0 -1.962000000000e+01 0.0 
0.0 -1.962000000000e+01 0.0 
0.0 -1.962000000000e+01 0.0 
0.0 -1.962000000000e+01 0.0 
0.0 -1.962000000000e+01 0.0 
0.0 -1.962000000000e+01 0.0 
0.0 -1.962000000000e+01 0.0 
0.0 -1.962000000000e+01 0.0 
0.0 -1.962000000000e+01 0.0 
0.0 -1.962000000000e+01 0.0 
0.0 -1.962000000000e+01 0.0 
0.0 -1.962000000000e+01 0.0 
0.0 -1.962000000000e+01 0.0 
0.0 -1.962000000000e+01 0.0 
0.0 -1.962000000000e+01 0.0 
0.0 -1.962000000000e+01 0.0 
0.0 -1.962000000000e+01 0.0 
0.0 -1.962000000000e+01 0.0 
0.0 -1.962000000000e+01 0.0 
0.0 -1.962000000000e+01 0.0 
0.0 -1.962000000000e+01 0.0 
0.0 -1.962000000000e+01 0.0 
0.0 -1.962000000000e+01 0.0 
0.0 -1.962000000000e+01 0.0 
0.0 -1.962000000000e+01 0.0 
0.0 -1.962000000000e+01 0.0 
0.0 -1.962000000000e+01 0.0 
0.0 -1.962000000000e+01 0.0 
0.0 -1.962000000000e+01 0.0 
0.0 -1.962000000000e+01 0.0 
0.0 -1.962000000000e+01 0.0 
0.0 -1.962000000000e+01 0.0 
0.0 -1.962000000000e+01 0.0 
0.0 -1.962000000000e+01 0.0 
0.0 -1.962000000000e+01 0.0 
0.0 -1.962000000000e+01 0.0 
0.0 -1.962000000000e+01 0.0 
0.0 -1.962000000000e+01 0.0 
0.0 -1.962000000000e+01 0.0 
0.0 -1.962000000000e+01 0.0 
0.0 -1.962000000000e+01 0.0 
0.0 -1.962000000000e+01 0.0 
0.0 -1.962000000000e+01 0.0 
0.0 -1.962000000000e+01 0.0 
0.0 -1.962000000000e+01 0.0 
0.0 -1.962000000000e+01 0.0 
0.0 -1.962000000000e+01 0.0 
0.0 -1.962000000000e+01 0.0 
0.0 -1.962000000000e+01 0.0 
0.0 -1.962000000000e+01 0.0 
0.0 -1.962000000000e+01 0.0 
0.0 -1.962000000000e+01 0.0 
0.0 -1.962000000000e+01 0.0 
0.0 -1.962000000000e+01 0.0 
0.0 -1.962000000000e+01 0.0 
0.0 -1.962000000000e+01 0.0 
0.0 -1.962000000000e+01 0.0 
0.0 -1.962000000000e+01 0.0 
0.0 -1.962000000000e+01 0.0 
0.0 -1.962000000000e+01 0.0 
0.0 -1.962000000000e+01 0.0 
0.0 -1.962000000000e+01 0.0 
0.0 -1.962000000000e+01 0.0 
0.0 -1.962000000000e+01 0.0 
0.0 -1.962000000000e+01 0.0 
0.0 -1.962000000000e+01 0.0 
0.0 -1.962000000000e+01 0.0 
0.0 -1.962000000000e+01 0.0 
0.0 -1.962000000000e+01 0.0 
0.0 -1.962000000000e+01 0.0 
0.0 -1.962000000000e+01 0.0 
0.0 -1.962000000000e+01 0.0 
0.0 -1.962000000000e+01 0.0 
0.0 -1.962000000000e+01 0.0 
0.0 -1.962000000000e+01 0.0 
0.0 -1.962000000000e+01 0.0 
0.0 -1.962000000000e+01 0.0 
0.0 -1.962000000000e+01 0.0 
0.0 -1.962000000000e+01 0.0 
0.0 -1.962000000000e+01 0.0 
0.0 -1.962000000000e+01 0.0 
0.0 -1.962000000000e+01 0.0 
0.0 -1.962000000000e+01 0.0 
0.0 -1.962000000000e+01 0.0 
0.0 -1.962000000000e+01 0.0 
0.0 -1.962000000000e+01 0.0 
0.0 -1.962000000000e+01 0.0 
0.0 -1.962000000000e+01 0.0 
0.0 -1.962000000000e+01 0.0 
0.0 -1.962000000000e+01 0.0 
0.0 -1.962000000000e+01 0.0 
0.0 -1.962000000000e+01 0.0 
0.0 -1.962000000000e+01 0.0 
0.0 -1.962000000000e+01 0.0 
0.0 -1.962000000000e+01 0.0 
0.0 -1.962000000000e+01 0.0 
0.0 -1.962000000000e+01 0.0 
0.0 -1.962000000000e+01 0.0 
0.0 -1.962000000000e+01 0.0 
0.0 -1.962000000000e+01 0.0 
0.0 -1.962000000000e+01 0.0 
0.0 -1.962000000000e+01 0.0 
0.0 -1.962000000000e+01 0.0 
0.0 -1.962000000000e+01 0.0 
0.0 -1.962000000000e+01 0.0 
0.0 -1.962000000000e+01 0.0 
0.0 -1.962000000000e+01 0.0 
0.0 -1.962000000000e+01 0.0 
0.0 -1.962000000000e+01 0.0 
0.0 -1.962000000000e+01 0.0 
0.0 -1.962000000000e+01 0.0 
0.0 -1.962000000000e+01 0.0 
0.0 -1.962000000000e+01 0.0 
0.0 -1.962000000000e+01 0.0 
0.0 -1.962000000000e+01 0.0 
0.0 -1.962000000000e+01 0.0 
0.0 -1.962000000000e+01 0.0 
0.0 -1.962000000000e+01 0.0 
0.0 -1.962000000000e+01 0.0 
0.0 -1.962000000000e+01 0.0 
0.0 -1.962000000000e+01 0.0 
0.0 -1.962000000000e+01 0.0 
0.0 -1.962000000000e+01 0.0 
0.0 -1.962000000000e+01 0.0 
0.0 -1.962000000000e+01 0.0 
0.0 -1.962000000000e+01 0.0 
0.0 -1.962000000000e+01 0.0 
0.0 -1.962000000000e+01 0.0 
0.0 -1.962000000000e+01 0.0 
0.0 -1.962000000000e+01 0.0 
0.0 -1.962000000000e+01 0.0 
0.0 -1.962000000000e+01 0.0 
0.0 -1.962000000000e+01 0.0 
0.0 -1.962000000000e+01 0.0 
0.0 -1.962000000000e+01 0.0 
0.0 -1.962000000000e+01 0.0 
0.0 -1.962000000000e+01 0.0 
0.0 -1.962000000000e+01 0.0 
0.0 -1.962000000000e+01 0.0 
0.0 -1.962000000000e+01 0.0 
0.0 -1.962000000000e+01 0.0 
0.0 -1.962000000000e+01 0.0 
0.0 -1.962000000000e+01 0.0 
0.0 -1.962000000000e+01 0.0 
0.0 -1.962000000000e+01 0.0 
0.0 -1.962000000000e+01 0.0 
0.0 -1.962000000000e+01 0.0 
0.0 -1.962000000000e+01 0.0 
0.0 -1.962000000000e+01 0.0 
0.0 -1.962000000000e+01 0.0 
0.0 -1.962000000000e+01 0.0 
0.0 -1.962000000000e+01 0.0 
0.0 -1.962000000000e+01 0.0 
0.0 -1.962000000000e+01 0.0 
0.0 -1.962000000000e+01 0.0 
0.0 -1.962000000000e+01 0.0 
0.0 -1.962000000000e+01 0.0 
0.0 -1.962000000000e+01 0.0 
0.0 -1.962000000000e+01 0.0 
0.0 -1.962000000000e+01 0.0 
0.0 -1.962000000000e+01 0.0 
0.0 -1.962000000000e+01 0.0 
0.0 -1.962000000000e+01 0.0 
0.0 -1.962000000000e+01 0.0 
0.0 -1.962000000000e+01 0.0 
0.0 -1.962000000000e+01 0.0 
0.0 -1.962000000000e+01 0.0 
0.0 -1.962000000000e+01 0.0 
0.0 -1.962000000000e+01 0.0 
0.0 -1.962000000000e+01 0.0 
0.0 -1.962000000000e+01 0.0 
0.0 -1.962000000000e+01 0.0 
0.0 -1.962000000000e+01 0.0 
0.0 -1.962000000000e+01 0.0 
0.0 -1.962000000000e+01 0.0 
0.0 -1.962000000000e+01 0.0 
0.0 -1.962000000000e+01 0.0 
0.0 -1.962000000000e+01 0.0 
0.0 -1.962000000000e+01 0.0 
0.0 -1.962000000000e+01 0.0 
0.0 -1.962000000000e+01 0.0 
0.0 -1.962000000000e+01 0.0 
0.0 -1.962000000000e+01 0.0 
0.0 -1.962000000000e+01 0.0 
0.0 -1.962000000000e+01 0.0 
0.0 -1.962000000000e+01 0.0 
0.0 -1.962000000000e+01 0.0 
0.0 -1.962000000000e+01 0.0 
0.0 -1.962000000000e+01 0.0 
0.0 -1.962000000000e+01 0.0 
0.0 -1.962000000000e+01 0.0 
0.0 -1.962000000000e+01 0.0 
0.0 -1.962000000000e+01 0.0 
0.0 -1.962000000000e+01 0.0 
0.0 -1.962000000000e+01 0.0 
0.0 -1.962000000000e+01 0.0 
0.0 -1.962000000000e+01 0.0 
0.0 -1.962000000000e+01 0.0 
0.0 -1.962000000000e+01 0.0 
0.0 -1.962000000000e+01 0.0 
0.0 -1.962000000000e+01 0.0 
0.0 -1.962000000000e+01 0.0 
0.0 -1.962000000000e+01 0.0 
0.0 -1.962000000000e+01 0.0 
0.0 -1.962000000000e+01 0.0 
0.0 -1.962000000000e+01 0.0 
0.0 -1.962000000000e+01 0.0 
0.0 -1.962000000000e+01 0.0 
0.0 -1.962000000000e+01 0.0 
0.0 -1.962000000000e+01 0.0 
0.0 -1.962000000000e+01 0.0 
0.0 -1.962000000000e+01 0.0 
0.0 -1.962000000000e+01 0.0 
0.0 -1.962000000000e+01 0.0 
0.0 -1.962000000000e+01 0.0 
0.0 -1.962000000000e+01 0.0 
0.0 -1.962000000000e+01 0.0 
0.0 -1.962000000000e+01 0.0 
0.0 -1.962000000000e+01 0.0 
0.0 -1.962000000000e+01 0.0 
0.0 -1.962000000000e+01 0.0 
0.0 -1.962000000000e+01 0.0 
0.0 -1.962000000000e+01 0.0 
0.0 -1.962000000000e+01 0.0 
0.0 -1.962000000000e+01 0.0 
0.0 -1.962000000000e+01 0.0 
0.0 -1.962000000000e+01 0.0 
0.0 -1.962000000000e+01 0.0 
0.0 -1.962000000000e+01 0.0 
0.0 -1.962000000000e+01 0.0 
0.0 -1.962000000000e+01 0.0 
0.0 -1.962000000000e+01 0.0 
0.0 -1.962000000000e+01 0.0 
0.0 -1.962000000000e+01 0.0 
0.0 -1.962000000000e+01 0.0 
0.0 -1.962000000000e+01 0.0 
0.0 -1.962000000000e+01 0.0 
0.0 -1.962000000000e+01 0.0 
0.0 -1.962000000000e+01 0.0 
0.0 -1.962000000000e+01 0.0 
0.0 -1.962000000000e+01 0.0 
0.0 -1.962000000000e+01 0.0 
0.0 -1.962000000000e+01 0.0 
0.0 -1.962000000000e+01 0.0 
0.0 -1.962000000000e+01 0.0 
0.0 -1.962000000000e+01 0.0 
0.0 -1.962000000000e+01 0.0 
0.0 -1.962000000000e+01 0.0 
0.0 -1.962000000000e+01 0.0 
0.0 -1.962000000000e+01 0.0 
0.0 -1.962000000000e+01 0.0 
0.0 -1.962000000000e+01 0.0 
0.0 -1.962000000000e+01 0.0 
0.0 -1.962000000000e+01 0.0 
0.0 -1.962000000000e+01 0.0 
0.0 -1.962000000000e+01 0.0 
0.0 -1.962000000000e+01 0.0 
0.0 -1.962000000000e+01 0.0 
0.0 -1.962000000000e+01 0.0 
0.0 -1.962000000000e+01 0.0 
0.0 -1.962000000000e+01 0.0 
0.0 -1.962000000000e+01 0.0 
0.0 -1.962000000000e+01 0.0 
0.0 -1.962000000000e+01 0.0 
0.0 -1.962000000000e+01 0.0 
0.0 -1.962000000000e+01 0.0 
0.0 -1.962000000000e+01 0.0 
0.0 -1.962000000000e+01 0.0 
0.0 -1.962000000000e+01 0.0 
0.0 -1.962000000000e+01 0.0 
0.0 -1.962000000000e+01 0.0 
0.0 -1.962000000000e+01 0.0 
0.0 -1.962000000000e+01 0.0 
0.0 -1.962000000000e+01 0.0 
0.0 -1.962000000000e+01 0.0 
0.0 -1.962000000000e+01 0.0 
0.0 -1.962000000000e+01 0.0 
0.0 -1.962000000000e+01 0.0 
0.0 -1.962000000000e+01 0.0 
0.0 -1.962000000000e+01 0.0 
0.0 -1.962000000000e+01 0.0 
0.0 -1.962000000000e+01 0.0 
0.0 -1.962000000000e+01 0.0 
0.0 -1.962000000000e+01 0.0 
0.0 -1.962000000000e+01 0.0 
0.0 -1.962000000000e+01 0.0 
0.0 -1.962000000000e+01 0.0 
0.0 -1.962000000000e+01 0.0 
0.0 -1.962000000000e+01 0.0 
0.0 -1.962000000000e+01 0.0 
0.0 -1.962000000000e+01 0.0 
0.0 -1.962000000000e+01 0.0 
0.0 -1.962000000000e+01 0.0 
0.0 -1.962000000000e+01 0.0 
0.0 -1.962000000000e+01 0.0 
0.0 -1.962000000000e+01 0.0 
0.0 -1.962000000000e+01 0.0 
0.0 -1.962000000000e+01 0.0 
0.0 -1.962000000000e+01 0.0 
0.0 -1.962000000000e+01 0.0 
0.0 -1.962000000000e+01 0.0 
0.0 -1.962000000000e+01 0.0 
0.0 -1.962000000000e+01 0.0 
0.0 -1.962000000000e+01 0.0 
0.0 -1.962000000000e+01 0.0 
0.0 -1.962000000000e+01 0.0 
0.0 -1.962000000000e+01 0.0 
0.0 -1.962000000000e+01 0.0 
0.0 -1.962000000000e+01 0.0 
0.0 -1.962000000000e+01 0.0 
0.0 -1.962000000000e+01 0.0 
0.0 -1.962000000000e+01 0.0 
0.0 -1.962000000000e+01 0.0 
0.0 -1.962000000000e+01 0.0 
0.0 -1.962000000000e+01 0.0 
0.0 -1.962000000000e+01 0.0 
0.0 -1.962000000000e+01 0.0 
0.0 -1.962000000000e+01 0.0 
0.0 -1.962000000000e+01 0.0 
0.0 -1.962000000000e+01 0.0 
0.0 -1.962000000000e+01 0.0 
0.0 -1.962000000000e+01 0.0 
0.0 -1.962000000000e+01 0.0 
0.0 -1.962000000000e+01 0.0 
0.0 -1.962000000000e+01 0.0 
0.0 -1.962000000000e+01 0.0 
0.0 -1.962000000000e+01 0.0 
0.0 -1.962000000000e+01 0.0 
0.0 -1.962000000000e+01 0.0 
0.0 -1.962000000000e+01 0.0 
0.0 -1.962000000000e+01 0.0 
0.0 -1.962000000000e+01 0.0 
0.0 -1.962000000000e+01 0.0 
0.0 -1.962000000000e+01 0.0 
0.0 -1.962000000000e+01 0.0 
0.0 -1.962000000000e+01 0.0 
0.0 -1.962000000000e+01 0.0 
0.0 -1.962000000000e+01 0.0 
0.0 -1.962000000000e+01 0.0 
0.0 -1.962000000000e+01 0.0 
0.0 -1.962000000000e+01 0.0 
0.0 -1.962000000000e+01 0.0 
0.0 -1.962000000000e+01 0.0 
0.0 -1.962000000000e+01 0.0 
0.0 -1.962000000000e+01 0.0 
0.0 -1.962000000000e+01 0.0 
0.0 -1.962000000000e+01 0.0 
0.0 -1.962000000000e+01 0.0 
0.0 -1.962000000000e+01 0.0 
0.0 -1.962000000000e+01 0.0 
0.0 -1.962000000000e+01 0.0 
0.0 -1.962000000000e+01 0.0 
0.0 -1.962000000000e+01 0.0 
0.0 -1.962000000000e+01 0.0 
0.0 -1.962000000000e+01 0.0 
0.0 -1.962000000000e+01 0.0 
0.0 -1.962000000000e+01 0.0 
0.0 -1.962000000000e+01 0.0 
0.0 -1.962000000000e+01 0.0 
0.0 -1.962000000000e+01 0.0 
0.0 -1.962000000000e+01 0.0 
0.0 -1.962000000000e+01 0.0 
0.0 -1.962000000000e+01 0.0 
0.0 -1.962000000000e+01 0.0 
0.0 -1.962000000000e+01 0.0 
0.0 -1.962000000000e+01 0.0 
0.0 -1.962000000000e+01 0.0 
0.0 -1.962000000000e+01 0.0 
0.0 -1.962000000000e+01 0.0 
0.0 -1.962000000000e+01 0.0 
0.0 -1.962000000000e+01 0.0 
0.0 -1.962000000000e+01 0.0 
0.0 -1.962000000000e+01 0.0 
0.0 -1.962000000000e+01 0.0 
0.0 -1.962000000000e+01 0.0 
0.0 -1.962000000000e+01 0.0 
0.0 -1.962000000000e+01 0.0 
0.0 -1.962000000000e+01 0.0 
0.0 -1.962000000000e+01 0.0 
0.0 -1.962000000000e+01 0.0 
0.0 -1.962000000000e+01 0.0 
0.0 -1.962000000000e+01 0.0 
0.0 -1.962000000000e+01 0.0 
0.0 -1.962000000000e+01 0.0 
0.0 -1.962000000000e+01 0.0 
0.0 -1.962000000000e+01 0.0 
0.0 -1.962000000000e+01 0.0 
0.0 -1.962000000000e+01 0.0 
0.0 -1.962000000000e+01 0.0 
0.0 -1.962000000000e+01 0.0 
0.0 -1.962000000000e+01 0.0 
0.0 -1.962000000000e+01 0.0 
0.0 -1.962000000000e+01 0.0 
0.0 -1.962000000000e+01 0.0 
0.0 -1.962000000000e+01 0.0 
0.0 -1.962000000000e+01 0.0 
0.0 -1.962000000000e+01 0.0 
0.0 -1.962000000000e+01 0.0 
0.0 -1.962000000000e+01 0.0 
0.0 -1.962000000000e+01 0.0 
0.0 -1.962000000000e+01 0.0 
0.0 -1.962000000000e+01 0.0 
0.0 -1.962000000000e+01 0.0 
0.0 -1.962000000000e+01 0.0 
0.0 -1.962000000000e+01 0.0 
0.0 -1.962000000000e+01 0.0 
0.0 -1.962000000000e+01 0.0 
0.0 -1.962000000000e+01 0.0 
0.0 -1.962000000000e+01 0.0 
0.0 -1.962000000000e+01 0.0 
0.0 -1.962000000000e+01 0.0 
0.0 -1.962000000000e+01 0.0 
0.0 -1.962000000000e+01 0.0 
0.0 -1.962000000000e+01 0.0 
0.0 -1.962000000000e+01 0.0 
0.0 -1.962000000000e+01 0.0 
0.0 -1.962000000000e+01 0.0 
0.0 -1.962000000000e+01 0.0 
0.0 -1.962000000000e+01 0.0 
0.0 -1.962000000000e+01 0.0 
0.0 -1.962000000000e+01 0.0 
0.0 -1.962000000000e+01 0.0 
0.0 -1.962000000000e+01 0.0 
0.0 -1.962000000000e+01 0.0 
0.0 -1.962000000000e+01 0.0 
0.0 -1.962000000000e+01 0.0 
0.0 -1.962000000000e+01 0.0 
0.0 -1.962000000000e+01 0.0 
0.0 -1.962000000000e+01 0.0 
0.0 -1.962000000000e+01 0.0 
0.0 -1.962000000000e+01 0.0 
0.0 -1.962000000000e+01 0.0 
0.0 -1.962000000000e+01 0.0 
0.0 -1.962000000000e+01 0.0 
0.0 -1.962000000000e+01 0.0 
0.0 -1.962000000000e+01 0.0 
0.0 -1.962000000000e+01 0.0 
0.0 -1.962000000000e+01 0.0 
0.0 -1.962000000000e+01 0.0 
0.0 -1.962000000000e+01 0.0 
0.0 -1.962000000000e+01 0.0 
0.0 -1.962000000000e+01 0.0 
0.0 -1.962000000000e+01 0.0 
0.0 -1.962000000000e+01 0.0 
0.0 -1.962000000000e+01 0.0 
0.0 -1.962000000000e+01 0.0 
0.0 -1.962000000000e+01 0.0 
0.0 -1.962000000000e+01 0.0 
0.0 -1.962000000000e+01 0.0 
0.0 -1.962000000000e+01 0.0 
0.0 -1.962000000000e+01 0.0 
0.0 -1.962000000000e+01 0.0 
0.0 -1.962000000000e+01 0.0 
0.0 -1.962000000000e+01 0.0 
0.0 -1.962000000000e+01 0.0 
0.0 -1.962000000000e+01 0.0 
0.0 -1.962000000000e+01 0.0 
0.0 -1.962000000000e+01 0.0 
0.0 -1.962000000000e+01 0.0 
0.0 -1.962000000000e+01 0.0 
0.0 -1.962000000000e+01 0.0 
0.0 -1.962000000000e+01 0.0 
0.0 -1.962000000000e+01 0.0 
0.0 -1.962000000000e+01 0.0 
0.0 -1.962000000000e+01 0.0 
0.0 -1.962000000000e+01 0.0 
0.0 -1.962000000000e+01 0.0 
0.0 -1.962000000000e+01 0.0 
0.0 -1.962000000000e+01 0.0 
0.0 -1.962000000000e+01 0.0 
0.0 -1.962000000000e+01 0.0 
0.0 -1.962000000000e+01 0.0 
0.0 -1.962000000000e+01 0.0 
0.0 -1.962000000000e+01 0.0 
0.0 -1.962000000000e+01 0.0 
0.0 -1.962000000000e+01 0.0 
0.0 -1.962000000000e+01 0.0 
0.0 -1.962000000000e+01 0.0 
0.0 -1.962000000000e+01 0.0 
0.0 -1.962000000000e+01 0.0 
0.0 -1.962000000000e+01 0.0 
0.0 -1.962000000000e+01 0.0 
0.0 -1.962000000000e+01 0.0 
0.0 -1.962000000000e+01 0.0 
0.0 -1.962000000000e+01 0.0 
0.0 -1.962000000000e+01 0.0 
0.0 -1.962000000000e+01 0.0 
0.0 -1.962000000000e+01 0.0 
0.0 -1.962000000000e+01 0.0 
0.0 -1.962000000000e+01 0.0 
0.0 -1.962000000000e+01 0.0 
0.0 -1.962000000000e+01 0.0 
0.0 -1.962000000000e+01 0.0 
0.0 -1.962000000000e+01 0.0 
0.0 -1.962000000000e+01 0.0 
0.0 -1.962000000000e+01 0.0 
0.0 -1.962000000000e+01 0.0 
0.0 -1.962000000000e+01 0.0 
0.0 -1.962000000000e+01 0.0 
0.0 -1.962000000000e+01 0.0 
0.0 -1.962000000000e+01 0.0 
0.0 -1.962000000000e+01 0.0 
0.0 -1.962000000000e+01 0.0 
0.0 -1.962000000000e+01 0.0 
0.0 -1.962000000000e+01 0.0 
0.0 -1.962000000000e+01 0.0 
0.0 -1.962000000000e+01 0.0 
0.0 -1.962000000000e+01 0.0 
0.0 -1.962000000000e+01 0.0 
0.0 -1.962000000000e+01 0.0 
0.0 -1.962000000000e+01 0.0 
0.0 -1.962000000000e+01 0.0 
0.0 -1.962000000000e+01 0.0 
0.0 -1.962000000000e+01 0.0 
0.0 -1.962000000000e+01 0.0 
0.0 -1.962000000000e+01 0.0 
0.0 -1.962000000000e+01 0.0 
0.0 -1.962000000000e+01 0.0 
0.0 -1.962000000000e+01 0.0 
0.0 -1.962000000000e+01 0.0 
0.0 -1.962000000000e+01 0.0 
0.0 -1.962000000000e+01 0.0 
0.0 -1.962000000000e+01 0.0 
0.0 -1.962000000000e+01 0.0 
0.0 -1.962000000000e+01 0.0 
0.0 -1.962000000000e+01 0.0 
0.0 -1.962000000000e+01 0.0 
0.0 -1.962000000000e+01 0.0 
0.0 -1.962000000000e+01 0.0 
0.0 -1.962000000000e+01 0.0 
0.0 -1.962000000000e+01 0.0 
0.0 -1.962000000000e+01 0.0 
0.0 -1.962000000000e+01 0.0 
0.0 -1.962000000000e+01 0.0 
0.0 -1.962000000000e+01 0.0 
0.0 -1.962000000000e+01 0.0 
0.0 -1.962000000000e+01 0.0 
0.0 -1.962000000000e+01 0.0 
0.0 -1.962000000000e+01 0.0 
0.0 -1.962000000000e+01 0.0 
0.0 -1.962000000000e+01 0.0 
0.0 -1.962000000000e+01 0.0 
0.0 -1.962000000000e+01 0.0 
0.0 -1.962000000000e+01 0.0 
0.0 -1.962000000000e+01 0.0 
0.0 -1.962000000000e+01 0.0 
0.0 -1.962000000000e+01 0.0 
0.0 -1.962000000000e+01 0.0 
0.0 -1.962000000000e+01 0.0 
0.0 -1.962000000000e+01 0.0 
0.0 -1.962000000000e+01 0.0 
0.0 -1.962000000000e+01 0.0 
0.0 -1.962000000000e+01 0.0 
0.0 -1.962000000000e+01 0.0 
0.0 -1.962000000000e+01 0.0 
0.0 -1.962000000000e+01 0.0 
0.0 -1.962000000000e+01 0.0 
0.0 -1.962000000000e+01 0.0 
0.0 -1.962000000000e+01 0.0 
0.0 -1.962000000000e+01 0.0 
0.0 -1.962000000000e+01 0.0 
0.0 -1.962000000000e+01 0.0 
0.0 -1.962000000000e+01 0.0 
0.0 -1.962000000000e+01 0.0 
0.0 -1.962000000000e+01 0.0 
0.0 -1.962000000000e+01 0.0 
0.0 -1.962000000000e+01 0.0 
0.0 -1.962000000000e+01 0.0 
0.0 -1.962000000000e+01 0.0 
0.0 -1.962000000000e+01 0.0 
0.0 -1.962000000000e+01 0.0 
0.0 -1.962000000000e+01 0.0 
0.0 -1.962000000000e+01 0.0 
0.0 -1.962000000000e+01 0.0 
0.0 -1.962000000000e+01 0.0 
0.0 -1.962000000000e+01 0.0 
0.0 -1.962000000000e+01 0.0 
0.0 -1.962000000000e+01 0.0 
0.0 -1.962000000000e+01 0.0 
0.0 -1.962000000000e+01 0.0 
0.0 -1.962000000000e+01 0.0 
0.0 -1.962000000000e+01 0.0 
0.0 -1.962000000000e+01 0.0 
0.0 -1.962000000000e+01 0.0 
0.0 -1.962000000000e+01 0.0 
0.0 -1.962000000000e+01 0.0 
0.0 -1.962000000000e+01 0.0 
0.0 -1.962000000000e+01 0.0 
0.0 -1.962000000000e+01 0.0 
0.0 -1.962000000000e+01 0.0 
0.0 -1.962000000000e+01 0.0 
0.0 -1.962000000000e+01 0.0 
0.0 -1.962000000000e+01 0.0 
0.0 -1.962000000000e+01 0.0 
0.0 -1.962000000000e+01 0.0 
0.0 -1.962000000000e+01 0.0 
0.0 -1.962000000000e+01 0.0 
0.0 -1.962000000000e+01 0.0 
0.0 -1.962000000000e+01 0.0 
0.0 -1.962000000000e+01 0.0 
0.0 -1.962000000000e+01 0.0 
0.0 -1.962000000000e+01 0.0 
0.0 -1.962000000000e+01 0.0 
0.0 -1.962000000000e+01 0.0 
0.0 -1.962000000000e+01 0.0 
0.0 -1.962000000000e+01 0.0 
0.0 -1.962000000000e+01 0.0 
0.0 -1.962000000000e+01 0.0 
0.0 -1.962000000000e+01 0.0 
0.0 -1.962000000000e+01 0.0 
0.0 -1.962000000000e+01 0.0 
0.0 -1.962000000000e+01 0.0 
0.0 -1.962000000000e+01 0.0 
0.0 -1.962000000000e+01 0.0 
0.0 -1.962000000000e+01 0.0 
0.0 -1.962000000000e+01 0.0 
0.0 -1.962000000000e+01 0.0 
0.0 -1.962000000000e+01 0.0 
0.0 -1.962000000000e+01 0.0 
0.0 -1.962000000000e+01 0.0 
0.0 -1.962000000000e+01 0.0 
0.0 -1.962000000000e+01 0.0 
0.0 -1.962000000000e+01 0.0 
0.0 -1.962000000000e+01 0.0 
0.0 -1.962000000000e+01 0.0 
0.0 -1.962000000000e+01 0.0 
0.0 -1.962000000000e+01 0.0 
0.0 -1.962000000000e+01 0.0 
0.0 -1.962000000000e+01 0.0 
0.0 -1.962000000000e+01 0.0 
0.0 -1.962000000000e+01 0.0 
0.0 -1.962000000000e+01 0.0 
0.0 -1.962000000000e+01 0.0 
0.0 -1.962000000000e+01 0.0 
0.0 -1.962000000000e+01 0.0 
0.0 -1.962000000000e+01 0.0 
0.0 -1.962000000000e+01 0.0 
0.0 -1.962000000000e+01 0.0 
0.0 -1.962000000000e+01 0.0 
0.0 -1.962000000000e+01 0.0 
0.0 -1.962000000000e+01 0.0 
0.0 -1.962000000000e+01 0.0 
0.0 -1.962000000000e+01 0.0 
0.0 -1.962000000000e+01 0.0 
0.0 -1.962000000000e+01 0.0 
0.0 -1.962000000000e+01 0.0 
0.0 -1.962000000000e+01 0.0 
0.0 -1.962000000000e+01 0.0 
0.0 -1.962000000000e+01 0.0 
0.0 -1.962000000000e+01 0.0 
0.0 -1.962000000000e+01 0.0 
0.0 -1.962000000000e+01 0.0 
0.0 -1.962000000000e+01 0.0 
0.0 -1.962000000000e+01 0.0 
0.0 -1.962000000000e+01 0.0 
0.0 -1.962000000000e+01 0.0 
0.0 -1.962000000000e+01 0.0 
0.0 -1.962000000000e+01 0.0 
0.0 -1.962000000000e+01 0.0 
0.0 -1.962000000000e+01 0.0 
0.0 -1.962000000000e+01 0.0 
0.0 -1.962000000000e+01 0.0 
0.0 -1.962000000000e+01 0.0 
0.0 -1.962000000000e+01 0.0 
0.0 -1.962000000000e+01 0.0 
0.0 -1.962000000000e+01 0.0 
0.0 -1.962000000000e+01 0.0 
0.0 -1.962000000000e+01 0.0 
0.0 -1.962000000000e+01 0.0 
0.0 -1.962000000000e+01 0.0 
0.0 -1.962000000000e+01 0.0 
0.0 -1.962000000000e+01 0.0 
0.0 -1.962000000000e+01 0.0 
0.0 -1.962000000000e+01 0.0 
0.0 -1.962000000000e+01 0.0 
0.0 -1.962000000000e+01 0.0 
0.0 -1.962000000000e+01 0.0 
0.0 -1.962000000000e+01 0.0 
0.0 -1.962000000000e+01 0.0 
0.0 -1.962000000000e+01 0.0 
0.0 -1.962000000000e+01 0.0 
0.0 -1.962000000000e+01 0.0 
0.0 -1.962000000000e+01 0.0 
0.0 -1.962000000000e+01 0.0 
0.0 -1.962000000000e+01 0.0 
0.0 -1.962000000000e+01 0.0 
0.0 -1.962000000000e+01 0.0 
0.0 -1.962000000000e+01 0.0 
0.0 -1.962000000000e+01 0.0 
0.0 -1.962000000000e+01 0.0 
0.0 -1.962000000000e+01 0.0 
0.0 -1.962000000000e+01 0.0 
0.0 -1.962000000000e+01 0.0 
0.0 -1.962000000000e+01 0.0 
0.0 -1.962000000000e+01 0.0 
0.0 -1.962000000000e+01 0.0 
0.0 -1.962000000000e+01 0.0 
0.0 -1.962000000000e+01 0.0 
0.0 -1.962000000000e+01 0.0 
0.0 -1.962000000000e+01 0.0 
0.0 -1.962000000000e+01 0.0 
0.0 -1.962000000000e+01 0.0 
0.0 -1.962000000000e+01 0.0 
0.0 -1.962000000000e+01 0.0 
0.0 -1.962000000000e+01 0.0 
0.0 -1.962000000000e+01 0.0 
0.0 -1.962000000000e+01 0.0 
0.0 -1.962000000000e+01 0.0 
0.0 -1.962000000000e+01 0.0 
0.0 -1.962000000000e+01 0.0 
0.0 -1.962000000000e+01 0.0 
0.0 -1.962000000000e+01 0.0 
0.0 -1.962000000000e+01 0.0 
0.0 -1.962000000000e+01 0.0 
0.0 -1.962000000000e+01 0.0 
0.0 -1.962000000000e+01 0.0 
0.0 -1.962000000000e+01 0.0 
0.0 -1.962000000000e+01 0.0 
0.0 -1.962000000000e+01 0.0 
0.0 -1.962000000000e+01 0.0 
0.0 -1.962000000000e+01 0.0 
0.0 -1.962000000000e+01 0.0 
0.0 -1.962000000000e+01 0.0 
0.0 -1.962000000000e+01 0.0 
0.0 -1.962000000000e+01 0.0 
0.0 -1.962000000000e+01 0.0 
0.0 -1.962000000000e+01 0.0 
0.0 -1.962000000000e+01 0.0 
0.0 -1.962000000000e+01 0.0 
0.0 -1.962000000000e+01 0.0 
0.0 -1.962000000000e+01 0.0 
0.0 -1.962000000000e+01 0.0 
0.0 -1.962000000000e+01 0.0 
0.0 -1.962000000000e+01 0.0 
0.0 -1.962000000000e+01 0.0 
0.0 -1.962000000000e+01 0.0 
0.0 -1.962000000000e+01 0.0 
0.0 -1.962000000000e+01 0.0 
0.0 -1.962000000000e+01 0.0 
0.0 -1.962000000000e+01 0.0 
0.0 -1.962000000000e+01 0.0 
0.0 -1.962000000000e+01 0.0 
0.0 -1.962000000000e+01 0.0 
0.0 -1.962000000000e+01 0.0 
0.0 -1.962000000000e+01 0.0 
0.0 -1.962000000000e+01 0.0 
0.0 -1.962000000000e+01 0.0 
0.0 -1.962000000000e+01 0.0 
0.0 -1.962000000000e+01 0.0 
0.0 -1.962000000000e+01 0.0 
0.0 -1.962000000000e+01 0.0 
0.0 -1.962000000000e+01 0.0 
0.0 -1.962000000000e+01 0.0 
0.0 -1.962000000000e+01 0.0 
0.0 -1.962000000000e+01 0.0 
0.0 -1.962000000000e+01 0.0 
0.0 -1.962000000000e+01 0.0 
0.0 -1.962000000000e+01 0.0 
0.0 -1.962000000000e+01 0.0 
0.0 -1.962000000000e+01 0.0 
0.0 -1.962000000000e+01 0.0 
0.0 -1.962000000000e+01 0.0 
0.0 -1.962000000000e+01 0.0 
0.0 -1.962000000000e+01 0.0 
0.0 -1.962000000000e+01 0.0 
0.0 -1.962000000000e+01 0.0 
0.0 -1.962000000000e+01 0.0 
0.0 -1.962000000000e+01 0.0 
0.0 -1.962000000000e+01 0.0 
0.0 -1.962000000000e+01 0.0 
0.0 -1.962000000000e+01 0.0 
0.0 -1.962000000000e+01 0.0 
0.0 -1.962000000000e+01 0.0 
0.0 -1.962000000000e+01 0.0 
0.0 -1.962000000000e+01 0.0 
0.0 -1.962000000000e+01 0.0 
0.0 -1.962000000000e+01 0.0 
0.0 -1.962000000000e+01 0.0 
0.0 -1.962000000000e+01 0.0 
0.0 -1.962000000000e+01 0.0 
0.0 -1.962000000000e+01 0.0 
0.0 -1.962000000000e+01 0.0 
0.0 -1.962000000000e+01 0.0 
0.0 -1.962000000000e+01 0.0 
0.0 -1.962000000000e+01 0.0 
0.0 -1.962000000000e+01 0.0 
0.0 -1.962000000000e+01 0.0 
0.0 -1.962000000000e+01 0.0 
0.0 -1.962000000000e+01 0.0 
0.0 -1.962000000000e+01 0.0 
0.0 -1.962000000000e+01 0.0 
0.0 -1.962000000000e+01 0.0 
0.0 -1.962000000000e+01 0.0 
0.0 -1.962000000000e+01 0.0 
0.0 -1.962000000000e+01 0.0 
0.0 -1.962000000000e+01 0.0 
0.0 -1.962000000000e+01 0.0 
0.0 -1.962000000000e+01 0.0 
0.0 -1.962000000000e+01 0.0 
0.0 -1.962000000000e+01 0.0 
0.0 -1.962000000000e+01 0.0 
0.0 -1.962000000000e+01 0.0 
0.0 -1.962000000000e+01 0.0 
0.0 -1.962000000000e+01 0.0 
0.0 -1.962000000000e+01 0.0 
0.0 -1.962000000000e+01 0.0 
0.0 -1.962000000000e+01 0.0 
0.0 -1.962000000000e+01 0.0 
0.0 -1.962000000000e+01 0.0 
0.0 -1.962000000000e+01 0.0 
0.0 -1.962000000000e+01 0.0 
0.0 -1.962000000000e+01 0.0 
0.0 -1.962000000000e+01 0.0 
0.0 -1.962000000000e+01 0.0 
0.0 -1.962000000000e+01 0.0 
0.0 -1.962000000000e+01 0.0 
0.0 -1.962000000000e+01 0.0 
0.0 -1.962000000000e+01 0.0 
0.0 -1.962000000000e+01 0.0 
0.0 -1.962000000000e+01 0.0 
0.0 -1.962000000000e+01 0.0 
0.0 -1.962000000000e+01 0.0 
0.0 -1.962000000000e+01 0.0 
0.0 -1.962000000000e+01 0.0 
0.0 -1.962000000000e+01 0.0 
0.0 -1.962000000000e+01 0.0 
0.0 -1.962000000000e+01 0.0 
0.0 -1.962000000000e+01 0.0 
0.0 -1.962000000000e+01 0.0 
0.0 -1.962000000000e+01 0.0 
0.0 -1.962000000000e+01 0.0 
0.0 -1.962000000000e+01 0.0 
0.0 -1.962000000000e+01 0.0 
0.0 -1.962000000000e+01 0.0 
0.0 -1.962000000000e+01 0.0 
0.0 -1.962000000000e+01 0.0 
0.0 -1.962000000000e+01 0.0 
0.0 -1.962000000000e+01 0.0 
0.0 -1.962000000000e+01 0.0 
0.0 -1.962000000000e+01 0.0 
0.0 -1.962000000000e+01 0.0 
0.0 -1.962000000000e+01 0.0 
0.0 -1.962000000000e+01 0.0 
0.0 -1.962000000000e+01 0.0 
0.0 -1.962000000000e+01 0.0 
0.0 -1.962000000000e+01 0.0 
0.0 -1.962000000000e+01 0.0 
0.0 -1.962000000000e+01 0.0 
0.0 -1.962000000000e+01 0.0 
0.0 -1.962000000000e+01 0.0 
0.0 -1.962000000000e+01 0.0 
0.0 -1.962000000000e+01 0.0 
0.0 -1.962000000000e+01 0.0 
0.0 -1.962000000000e+01 0.0 
0.0 -1.962000000000e+01 0.0 
0.0 -1.962000000000e+01 0.0 
0.0 -1.962000000000e+01 0.0 
0.0 -1.962000000000e+01 0.0 
0.0 -1.962000000000e+01 0.0 
0.0 -1.962000000000e+01 0.0 
0.0 -1.962000000000e+01 0.0 
0.0 -1.962000000000e+01 0.0 
0.0 -1.962000000000e+01 0.0 
0.0 -1.962000000000e+01 0.0 
0.0 -1.962000000000e+01 0.0 
0.0 -1.962000000000e+01 0.0 
0.0 -1.962000000000e+01 0.0 
0.0 -1.962000000000e+01 0.0 
0.0 -1.962000000000e+01 0.0 
0.0 -1.962000000000e+01 0.0 
0.0 -1.962000000000e+01 0.0 
0.0 -1.962000000000e+01 0.0 
0.0 -1.962000000000e+01 0.0 
0.0 -1.962000000000e+01 0.0 
0.0 -1.962000000000e+01 0.0 
0.0 -1.962000000000e+01 0.0 
0.0 -1.962000000000e+01 0.0 
0.0 -1.962000000000e+01 0.0 
0.0 -1.962000000000e+01 0.0 
0.0 -1.962000000000e+01 0.0 
0.0 -1.962000000000e+01 0.0 
0.0 -1.962000000000e+01 0.0 
0.0 -1.962000000000e+01 0.0 
0.0 -1.962000000000e+01 0.0 
0.0 -1.962000000000e+01 0.0 
0.0 -1.962000000000e+01 0.0 
0.0 -1.962000000000e+01 0.0 
0.0 -1.962000000000e+01 0.0 
0.0 -1.962000000000e+01 0.0 
0.0 -1.962000000000e+01 0.0 
0.0 -1.962000000000e+01 0.0 
0.0 -1.962000000000e+01 0.0 
0.0 -1.962000000000e+01 0.0 
0.0 -1.962000000000e+01 0.0 
0.0 -1.962000000000e+01 0.0 
0.0 -1.962000000000e+01 0.0 
0.0 -1.962000000000e+01 0.0 
0.0 -1.962000000000e+01 0.0 
0.0 -1.962000000000e+01 0.0 
0.0 -1.962000000000e+01 0.0 
0.0 -1.962000000000e+01 0.0 
0.0 -1.962000000000e+01 0.0 
0.0 -1.962000000000e+01 0.0 
0.0 -1.962000000000e+01 0.0 
0.0 -1.962000000000e+01 0.0 
0.0 -1.962000000000e+01 0.0 
0.0 -1.962000000000e+01 0.0 
0.0 -1.962000000000e+01 0.0 
0.0 -1.962000000000e+01 0.0 
0.0 -1.962000000000e+01 0.0 
0.0 -1.962000000000e+01 0.0 
0.0 -1.962000000000e+01 0.0 
0.0 -1.962000000000e+01 0.0 
0.0 -1.962000000000e+01 0.0 
0.0 -1.962000000000e+01 0.0 
0.0 -1.962000000000e+01 0.0 
0.0 -1.962000000000e+01 0.0 
0.0 -1.962000000000e+01 0.0 
0.0 -1.962000000000e+01 0.0 
0.0 -1.962000000000e+01 0.0 
0.0 -1.962000000000e+01 0.0 
0.0 -1.962000000000e+01 0.0 
0.0 -1.962000000000e+01 0.0 
0.0 -1.962000000000e+01 0.0 
0.0 -1.962000000000e+01 0.0 
0.0 -1.962000000000e+01 0.0 
0.0 -1.962000000000e+01 0.0 
0.0 -1.962000000000e+01 0.0 
0.0 -1.962000000000e+01 0.0 
0.0 -1.962000000000e+01 0.0 
0.0 -1.962000000000e+01 0.0 
0.0 -1.962000000000e+01 0.0 
0.0 -1.962000000000e+01 0.0 
0.0 -1.962000000000e+01 0.0 
0.0 -1.962000000000e+01 0.0 
0.0 -1.962000000000e+01 0.0 
0.0 -1.962000000000e+01 0.0 
0.0 -1.962000000000e+01 0.0 
0.0 -1.962000000000e+01 0.0 
0.0 -1.962000000000e+01 0.0 
0.0 -1.962000000000e+01 0.0 
0.0 -1.962000000000e+01 0.0 
0.0 -1.962000000000e+01 0.0 
0.0 -1.962000000000e+01 0.0 
0.0 -1.962000000000e+01 0.0 
0.0 -1.962000000000e+01 0.0 
0.0 -1.962000000000e+01 0.0 
0.0 -1.962000000000e+01 0.0 
0.0 -1.962000000000e+01 0.0 
0.0 -1.962000000000e+01 0.0 
0.0 -1.962000000000e+01 0.0 
0.0 -1.962000000000e+01 0.0 
0.0 -1.962000000000e+01 0.0 
0.0 -1.962000000000e+01 0.0 
0.0 -1.962000000000e+01 0.0 
0.0 -1.962000000000e+01 0.0 
0.0 -1.962000000000e+01 0.0 
0.0 -1.962000000000e+01 0.0 
0.0 -1.962000000000e+01 0.0 
0.0 -1.962000000000e+01 0.0 
0.0 -1.962000000000e+01 0.0 
0.0 -1.962000000000e+01 0.0 
0.0 -1.962000000000e+01 0.0 
0.0 -1.962000000000e+01 0.0 
0.0 -1.962000000000e+01 0.0 
0.0 -1.962000000000e+01 0.0 
0.0 -1.962000000000e+01 0.0 
0.0 -1.962000000000e+01 0.0 
0.0 -1.962000000000e+01 0.0 
0.0 -1.962000000000e+01 0.0 
0.0 -1.962000000000e+01 0.0 
0.0 -1.962000000000e+01 0.0 
0.0 -1.962000000000e+01 0.0 
0.0 -1.962000000000e+01 0.0 
0.0 -1.962000000000e+01 0.0 
0.0 -1.962000000000e+01 0.0 
0.0 -1.962000000000e+01 0.0 
0.0 -1.962000000000e+01 0.0 
0.0 -1.962000000000e+01 0.0 
0.0 -1.962000000000e+01 0.0 
0.0 -1.962000000000e+01 0.0 
0.0 -1.962000000000e+01 0.0 
0.0 -1.962000000000e+01 0.0 
0.0 -1.962000000000e+01 0.0 
0.0 -1.962000000000e+01 0.0 
0.0 -1.962000000000e+01 0.0 
0.0 -1.962000000000e+01 0.0 
0.0 -1.962000000000e+01 0.0 
0.0 -1.962000000000e+01 0.0 
0.0 -1.962000000000e+01 0.0 
0.0 -1.962000000000e+01 0.0 
0.0 -1.962000000000e+01 0.0 
0.0 -1.962000000000e+01 0.0 
0.0 -1.962000000000e+01 0.0 
0.0 -1.962000000000e+01 0.0 
0.0 -1.962000000000e+01 0.0 
0.0 -1.962000000000e+01 0.0 
0.0 -1.962000000000e+01 0.0 
0.0 -1.962000000000e+01 0.0 
0.0 -1.962000000000e+01 0.0 
0.0 -1.962000000000e+01 0.0 
0.0 -1.962000000000e+01 0.0 
0.0 -1.962000000000e+01 0.0 
0.0 -1.962000000000e+01 0.0 
0.0 -1.962000000000e+01 0.0 
0.0 -1.962000000000e+01 0.0 
0.0 -1.962000000000e+01 0.0 
0.0 -1.962000000000e+01 0.0 
0.0 -1.962000000000e+01 0.0 
0.0 -1.962000000000e+01 0.0 
0.0 -1.962000000000e+01 0.0 
0.0 -1.962000000000e+01 0.0 
0.0 -1.962000000000e+01 0.0 
0.0 -1.962000000000e+01 0.0 
0.0 -1.962000000000e+01 0.0 
0.0 -1.962000000000e+01 0.0 
0.0 -1.962000000000e+01 0.0 
0.0 -1.962000000000e+01 0.0 
0.0 -1.962000000000e+01 0.0 
0.0 -1.962000000000e+01 0.0 
0.0 -1.962000000000e+01 0.0 
0.0 -1.962000000000e+01 0.0 
0.0 -1.962000000000e+01 0.0 
0.0 -1.962000000000e+01 0.0 
0.0 -1.962000000000e+01 0.0 
0.0 -1.962000000000e+01 0.0 
0.0 -1.962000000000e+01 0.0 
0.0 -1.962000000000e+01 0.0 
0.0 -1.962000000000e+01 0.0 
0.0 -1.962000000000e+01 0.0 
0.0 -1.962000000000e+01 0.0 
0.0 -1.962000000000e+01 0.0 
0.0 -1.962000000000e+01 0.0 
0.0 -1.962000000000e+01 0.0 
0.0 -1.962000000000e+01 0.0 
0.0 -1.962000000000e+01 0.0 
0.0 -1.962000000000e+01 0.0 
0.0 -1.962000000000e+01 0.0 
0.0 -1.962000000000e+01 0.0 
0.0 -1.962000000000e+01 0.0 
0.0 -1.962000000000e+01 0.0 
0.0 -1.962000000000e+01 0.0 
0.0 -1.962000000000e+01 0.0 
0.0 -1.962000000000e+01 0.0 
0.0 -1.962000000000e+01 0.0 
0.0 -1.962000000000e+01 0.0 
0.0 -1.962000000000e+01 0.0 
0.0 -1.962000000000e+01 0.0 
0.0 -1.962000000000e+01 0.0 
0.0 -1.962000000000e+01 0.0 
0.0 -1.962000000000e+01 0.0 
0.0 -1.962000000000e+01 0.0 
0.0 -1.962000000000e+01 0.0 
0.0 -1.962000000000e+01 0.0 
0.0 -1.962000000000e+01 0.0 
0.0 -1.962000000000e+01 0.0 
0.0 -1.962000000000e+01 0.0 
0.0 -1.962000000000e+01 0.0 
0.0 -1.962000000000e+01 0.0 
0.0 -1.962000000000e+01 0.0 
0.0 -1.962000000000e+01 0.0 
0.0 -1.962000000000e+01 0.0 
0.0 -1.962000000000e+01 0.0 
0.0 -1.962000000000e+01 0.0 
0.0 -1.962000000000e+01 0.0 
0.0 -1.962000000000e+01 0.0 
0.0 -1.962000000000e+01 0.0 
0.0 -1.962000000000e+01 0.0 
0.0 -1.962000000000e+01 0.0 
0.0 -1.962000000000e+01 0.0 
0.0 -1.962000000000e+01 0.0 
0.0 -1.962000000000e+01 0.0 
0.0 -1.962000000000e+01 0.0 
0.0 -1.962000000000e+01 0.0 
0.0 -1.962000000000e+01 0.0 
0.0 -1.962000000000e+01 0.0 
0.0 -1.962000000000e+01 0.0 
0.0 -1.962000000000e+01 0.0 
0.0 -1.962000000000e+01 0.0 
0.0 -1.962000000000e+01 0.0 
0.0 -1.962000000000e+01 0.0 
0.0 -1.962000000000e+01 0.0 
0.0 -1.962000000000e+01 0.0 
0.0 -1.962000000000e+01 0.0 
0.0 -1.962000000000e+01 0.0 
0.0 -1.962000000000e+01 0.0 
0.0 -1.962000000000e+01 0.0 
0.0 -1.962000000000e+01 0.0 
0.0 -1.962000000000e+01 0.0 
0.0 -1.962000000000e+01 0.0 
0.0 -1.962000000000e+01 0.0 
0.0 -1.962000000000e+01 0.0 
0.0 -1.962000000000e+01 0.0 
0.0 -1.962000000000e+01 0.0 
0.0 -1.962000000000e+01 0.0 
0.0 -1.962000000000e+01 0.0 
0.0 -1.962000000000e+01 0.0 
0.0 -1.962000000000e+01 0.0 
0.0 -1.962000000000e+01 0.0 
0.0 -1.962000000000e+01 0.0 
0.0 -1.962000000000e+01 0.0 
0.0 -1.962000000000e+01 0.0 
0.0 -1.962000000000e+01 0.0 
0.0 -1.962000000000e+01 0.0 
0.0 -1.962000000000e+01 0.0 
0.0 -1.962000000000e+01 0.0 
0.0 -1.962000000000e+01 0.0 
0.0 -1.962000000000e+01 0.0 
0.0 -1.962000000000e+01 0.0 
0.0 -1.962000000000e+01 0.0 
0.0 -1.962000000000e+01 0.0 
0.0 -1.962000000000e+01 0.0 
0.0 -1.962000000000e+01 0.0 
0.0 -1.962000000000e+01 0.0 
0.0 -1.962000000000e+01 0.0 
0.0 -1.962000000000e+01 0.0 
0.0 -1.962000000000e+01 0.0 
0.0 -1.962000000000e+01 0.0 
0.0 -1.962000000000e+01 0.0 
0.0 -1.962000000000e+01 0.0 
0.0 -1.962000000000e+01 0.0 
0.0 -1.962000000000e+01 0.0 
0.0 -1.962000000000e+01 0.0 
0.0 -1.962000000000e+01 0.0 
0.0 -1.962000000000e+01 0.0 
0.0 -1.962000000000e+01 0.0 
0.0 -1.962000000000e+01 0.0 
0.0 -1.962000000000e+01 0.0 
0.0 -1.962000000000e+01 0.0 
0.0 -1.962000000000e+01 0.0 
0.0 -1.962000000000e+01 0.0 
0.0 -1.962000000000e+01 0.0 
0.0 -1.962000000000e+01 0.0 
0.0 -1.962000000000e+01 0.0 
0.0 -1.962000000000e+01 0.0 
0.0 -1.962000000000e+01 0.0 
0.0 -1.962000000000e+01 0.0 
0.0 -1.962000000000e+01 0.0 
0.0 -1.962000000000e+01 0.0 
0.0 -1.962000000000e+01 0.0 
0.0 -1.962000000000e+01 0.0 
0.0 -1.962000000000e+01 0.0 
0.0 -1.962000000000e+01 0.0 
0.0 -1.962000000000e+01 0.0 
0.0 -1.962000000000e+01 0.0 
0.0 -1.962000000000e+01 0.0 
0.0 -1.962000000000e+01 0.0 
0.0 -1.962000000000e+01 0.0 
0.0 -1.962000000000e+01 0.0 
0.0 -1.962000000000e+01 0.0 
0.0 -1.962000000000e+01 0.0 
0.0 -1.962000000000e+01 0.0 
0.0 -1.962000000000e+01 0.0 
0.0 -1.962000000000e+01 0.0 
0.0 -1.962000000000e+01 0.0 
0.0 -1.962000000000e+01 0.0 
0.0 -1.962000000000e+01 0.0 
0.0 -1.962000000000e+01 0.0 
0.0 -1.962000000000e+01 0.0 
0.0 -1.962000000000e+01 0.0 
0.0 -1.962000000000e+01 0.0 
0.0 -1.962000000000e+01 0.0 
0.0 -1.962000000000e+01 0.0 
0.0 -1.962000000000e+01 0.0 
0.0 -1.962000000000e+01 0.0 
0.0 -1.962000000000e+01 0.0 
0.0 -1.962000000000e+01 0.0 
0.0 -1.962000000000e+01 0.0 
0.0 -1.962000000000e+01 0.0 
0.0 -1.962000000000e+01 0.0 
0.0 -1.962000000000e+01 0.0 
0.0 -1.962000000000e+01 0.0 
0.0 -1.962000000000e+01 0.0 
0.0 -1.962000000000e+01 0.0 
0.0 -1.962000000000e+01 0.0 
0.0 -1.962000000000e+01 0.0 
0.0 -1.962000000000e+01 0.0 
0.0 -1.962000000000e+01 0.0 
0.0 -1.962000000000e+01 0.0 
0.0 -1.962000000000e+01 0.0 
0.0 -1.962000000000e+01 0.0 
0.0 -1.962000000000e+01 0.0 
0.0 -1.962000000000e+01 0.0 
0.0 -1.962000000000e+01 0.0 
0.0 -1.962000000000e+01 0.0 
0.0 -1.962000000000e+01 0.0 
0.0 -1.962000000000e+01 0.0 
0.0 -1.962000000000e+01 0.0 
0.0 -1.962000000000e+01 0.0 

VECTORS node_rhside_materi_fixed float
-4.581726074545e-01 0.0 0.0 
6.492150325576e+01 0.0 0.0 
-8.377706050760e+01 -1.997929062974e+02 0.0 
7.031269386963e+01 -1.680936189850e+02 0.0 
-3.841299977989e+00 0.0 0.0 
-1.260841582872e+01 0.0 0.0 
-2.173518079254e+01 0.0 0.0 
-3.221640151851e+01 0.0 0.0 
-4.150660026161e+01 0.0 0.0 
-5.073478402553e+01 0.0 0.0 
-5.970579875339e+01 0.0 0.0 
-6.844530355455e+01 0.0 0.0 
-7.696724154805e+01 0.0 0.0 
-8.530499294233e+01 0.0 0.0 
-9.404211811651e+01 0.0 0.0 
-1.026031392908e+02 0.0 0.0 
-1.105927361375e+02 0.0 0.0 
-1.192592923550e+02 0.0 0.0 
-1.277793435586e+02 0.0 0.0 
-1.363240170316e+02 0.0 0.0 
-1.448954190792e+02 0.0 0.0 
-1.534347774057e+02 0.0 0.0 
-1.624529547899e+02 0.0 0.0 
3.510061377302e-01 -3.350976223226e+02 0.0 
5.347084700647e-01 -3.362744589225e+02 0.0 
2.339827857566e+00 -3.355333183357e+02 0.0 
1.221430397226e+00 -3.357449083005e+02 0.0 
2.782486539464e+00 -3.365378805884e+02 0.0 
3.202622149725e+00 -3.361066576808e+02 0.0 
3.551599000765e+00 -3.368692796287e+02 0.0 
4.259207431875e+00 -3.375941304087e+02 0.0 
5.753694936459e+00 -3.373782944539e+02 0.0 
4.988224279983e+00 -3.380971461354e+02 0.0 
6.777128284093e+00 -3.395309621097e+02 0.0 
7.553973243449e+00 -3.396174665622e+02 0.0 
8.194502082515e+00 -3.412554563914e+02 0.0 
8.995300437683e+00 -3.421379087011e+02 0.0 
1.008203223150e+01 -3.434520657582e+02 0.0 
1.068416029115e+01 -3.454775831714e+02 0.0 
1.239483923948e+01 -3.472263437122e+02 0.0 
1.322960480638e+01 -3.494437876864e+02 0.0 
1.421490523664e+01 -3.517557447581e+02 0.0 
1.506112734111e+01 -3.540687671097e+02 0.0 
1.543450867749e+01 -3.569619495597e+02 0.0 
1.652747951313e+01 -3.603707800755e+02 0.0 
1.692441426401e+01 -3.634523803631e+02 0.0 
1.739450487436e+01 -3.668513135466e+02 0.0 
1.761553548838e+01 -3.706452319425e+02 0.0 
1.748785577539e+01 -3.740406320737e+02 0.0 
1.720480749415e+01 -3.774720075139e+02 0.0 
1.661445430048e+01 -3.810850655169e+02 0.0 
1.596281277805e+01 -3.846034694569e+02 0.0 
1.511292275183e+01 -3.875068285407e+02 0.0 
1.372615303534e+01 -3.901493645008e+02 0.0 
1.256113069514e+01 -3.932259604732e+02 0.0 
1.132796638327e+01 -3.950136058723e+02 0.0 
1.001273722639e+01 -3.969770723792e+02 0.0 
8.511699846198e+00 -3.983752338025e+02 0.0 
7.281267319334e+00 -3.994047797747e+02 0.0 
5.998689021460e+00 -4.002754617601e+02 0.0 
4.786743280826e+00 -4.007330754206e+02 0.0 
3.812317314398e+00 -4.009491007069e+02 0.0 
2.876279164902e+00 -4.013899069616e+02 0.0 
2.304649099594e+00 -4.010159656794e+02 0.0 
1.601405852219e+00 -4.007532103290e+02 0.0 
1.168531476631e+00 -4.002880973568e+02 0.0 
6.552141959863e-01 -4.007458989926e+02 0.0 
2.825256833562e-01 -3.996424780785e+02 0.0 
3.686319417825e-02 -4.000980616051e+02 0.0 
5.991565579797e-01 -3.992012740805e+02 0.0 
-1.318667069226e-01 -3.993028510930e+02 0.0 
7.522048204752e-02 -3.990176345239e+02 0.0 
7.294905199638e+01 0.0 0.0 
8.161108600897e+01 0.0 0.0 
8.973943681711e+01 0.0 0.0 
9.762572917971e+01 0.0 0.0 
1.055076121918e+02 0.0 0.0 
1.136178270420e+02 0.0 0.0 
1.211759705379e+02 0.0 0.0 
1.283013754507e+02 0.0 0.0 
1.366086723069e+02 0.0 0.0 
0.0 0.0 0.0 
0.0 0.0 0.0 
0.0 0.0 0.0 
0.0 0.0 0.0 
0.0 0.0 0.0 
0.0 0.0 0.0 
0.0 0.0 0.0 
0.0 0.0 0.0 
0.0 0.0 0.0 
0.0 0.0 0.0 
0.0 0.0 0.0 
4.194017352817e+00 0.0 0.0 
1.431514126820e+01 0.0 0.0 
2.254446219023e+01 0.0 0.0 
3.101668960627e+01 0.0 0.0 
3.956148122325e+01 0.0 0.0 
4.811872761406e+01 0.0 0.0 
5.662521273692e+01 0.0 0.0 
0.0 0.0 0.0 
0.0 0.0 0.0 
0.0 0.0 0.0 
0.0 0.0 0.0 
0.0 0.0 0.0 
0.0 0.0 0.0 
0.0 0.0 0.0 
0.0 0.0 0.0 
0.0 0.0 0.0 
0.0 0.0 0.0 
0.0 0.0 0.0 
0.0 0.0 0.0 
0.0 0.0 0.0 
0.0 0.0 0.0 
0.0 0.0 0.0 
0.0 0.0 0.0 
0.0 0.0 0.0 
0.0 0.0 0.0 
0.0 0.0 0.0 
0.0 0.0 0.0 
0.0 0.0 0.0 
0.0 0.0 0.0 
0.0 0.0 0.0 
0.0 0.0 0.0 
0.0 0.0 0.0 
0.0 0.0 0.0 
0.0 0.0 0.0 
0.0 0.0 0.0 
0.0 0.0 0.0 
0.0 0.0 0.0 
0.0 0.0 0.0 
0.0 0.0 0.0 
0.0 0.0 0.0 
0.0 0.0 0.0 
0.0 0.0 0.0 
0.0 0.0 0.0 
0.0 0.0 0.0 
0.0 0.0 0.0 
0.0 0.0 0.0 
0.0 0.0 0.0 
0.0 0.0 0.0 
0.0 0.0 0.0 
0.0 0.0 0.0 
0.0 0.0 0.0 
0.0 0.0 0.0 
0.0 0.0 0.0 
0.0 0.0 0.0 
0.0 0.0 0.0 
0.0 0.0 0.0 
0.0 0.0 0.0 
0.0 0.0 0.0 
0.0 0.0 0.0 
0.0 0.0 0.0 
0.0 0.0 0.0 
0.0 0.0 0.0 
0.0 0.0 0.0 
0.0 0.0 0.0 
0.0 0.0 0.0 
0.0 0.0 0.0 
0.0 0.0 0.0 
0.0 0.0 0.0 
0.0 0.0 0.0 
0.0 0.0 0.0 
0.0 0.0 0.0 
0.0 0.0 0.0 
0.0 0.0 0.0 
0.0 0.0 0.0 
0.0 0.0 0.0 
0.0 0.0 0.0 
0.0 0.0 0.0 
0.0 0.0 0.0 
0.0 0.0 0.0 
0.0 0.0 0.0 
0.0 0.0 0.0 
0.0 0.0 0.0 
0.0 0.0 0.0 
0.0 0.0 0.0 
0.0 0.0 0.0 
0.0 0.0 0.0 
0.0 0.0 0.0 
0.0 0.0 0.0 
0.0 0.0 0.0 
0.0 0.0 0.0 
0.0 0.0 0.0 
0.0 0.0 0.0 
0.0 0.0 0.0 
0.0 0.0 0.0 
0.0 0.0 0.0 
0.0 0.0 0.0 
0.0 0.0 0.0 
0.0 0.0 0.0 
0.0 0.0 0.0 
0.0 0.0 0.0 
0.0 0.0 0.0 
0.0 0.0 0.0 
0.0 0.0 0.0 
0.0 0.0 0.0 
0.0 0.0 0.0 
0.0 0.0 0.0 
0.0 0.0 0.0 
0.0 0.0 0.0 
0.0 0.0 0.0 
0.0 0.0 0.0 
0.0 0.0 0.0 
0.0 0.0 0.0 
0.0 0.0 0.0 
0.0 0.0 0.0 
0.0 0.0 0.0 
0.0 0.0 0.0 
0.0 0.0 0.0 
0.0 0.0 0.0 
0.0 0.0 0.0 
0.0 0.0 0.0 
0.0 0.0 0.0 
0.0 0.0 0.0 
0.0 0.0 0.0 
0.0 0.0 0.0 
0.0 0.0 0.0 
0.0 0.0 0.0 
0.0 0.0 0.0 
0.0 0.0 0.0 
0.0 0.0 0.0 
0.0 0.0 0.0 
0.0 0.0 0.0 
0.0 0.0 0.0 
0.0 0.0 0.0 
0.0 0.0 0.0 
0.0 0.0 0.0 
0.0 0.0 0.0 
0.0 0.0 0.0 
0.0 0.0 0.0 
0.0 0.0 0.0 
0.0 0.0 0.0 
0.0 0.0 0.0 
0.0 0.0 0.0 
0.0 0.0 0.0 
0.0 0.0 0.0 
0.0 0.0 0.0 
0.0 0.0 0.0 
0.0 0.0 0.0 
0.0 0.0 0.0 
0.0 0.0 0.0 
0.0 0.0 0.0 
0.0 0.0 0.0 
0.0 0.0 0.0 
0.0 0.0 0.0 
0.0 0.0 0.0 
0.0 0.0 0.0 
0.0 0.0 0.0 
0.0 0.0 0.0 
0.0 0.0 0.0 
0.0 0.0 0.0 
0.0 0.0 0.0 
0.0 0.0 0.0 
0.0 0.0 0.0 
0.0 0.0 0.0 
0.0 0.0 0.0 
0.0 0.0 0.0 
0.0 0.0 0.0 
0.0 0.0 0.0 
0.0 0.0 0.0 
0.0 0.0 0.0 
0.0 0.0 0.0 
0.0 0.0 0.0 
0.0 0.0 0.0 
0.0 0.0 0.0 
0.0 0.0 0.0 
0.0 0.0 0.0 
0.0 0.0 0.0 
0.0 0.0 0.0 
0.0 0.0 0.0 
0.0 0.0 0.0 
0.0 0.0 0.0 
0.0 0.0 0.0 
0.0 0.0 0.0 
0.0 0.0 0.0 
0.0 0.0 0.0 
0.0 0.0 0.0 
0.0 0.0 0.0 
0.0 0.0 0.0 
0.0 0.0 0.0 
0.0 0.0 0.0 
0.0 0.0 0.0 
0.0 0.0 0.0 
0.0 0.0 0.0 
0.0 0.0 0.0 
0.0 0.0 0.0 
0.0 0.0 0.0 
0.0 0.0 0.0 
0.0 0.0 0.0 
0.0 0.0 0.0 
0.0 0.0 0.0 
0.0 0.0 0.0 
0.0 0.0 0.0 
0.0 0.0 0.0 
0.0 0.0 0.0 
0.0 0.0 0.0 
0.0 0.0 0.0 
0.0 0.0 0.0 
0.0 0.0 0.0 
0.0 0.0 0.0 
0.0 0.0 0.0 
0.0 0.0 0.0 
0.0 0.0 0.0 
0.0 0.0 0.0 
0.0 0.0 0.0 
0.0 0.0 0.0 
0.0 0.0 0.0 
0.0 0.0 0.0 
0.0 0.0 0.0 
0.0 0.0 0.0 
0.0 0.0 0.0 
0.0 0.0 0.0 
0.0 0.0 0.0 
0.0 0.0 0.0 
0.0 0.0 0.0 
0.0 0.0 0.0 
0.0 0.0 0.0 
0.0 0.0 0.0 
0.0 0.0 0.0 
0.0 0.0 0.0 
0.0 0.0 0.0 
0.0 0.0 0.0 
0.0 0.0 0.0 
0.0 0.0 0.0 
0.0 0.0 0.0 
0.0 0.0 0.0 
0.0 0.0 0.0 
0.0 0.0 0.0 
0.0 0.0 0.0 
0.0 0.0 0.0 
0.0 0.0 0.0 
0.0 0.0 0.0 
0.0 0.0 0.0 
0.0 0.0 0.0 
0.0 0.0 0.0 
0.0 0.0 0.0 
0.0 0.0 0.0 
0.0 0.0 0.0 
0.0 0.0 0.0 
0.0 0.0 0.0 
0.0 0.0 0.0 
0.0 0.0 0.0 
0.0 0.0 0.0 
0.0 0.0 0.0 
0.0 0.0 0.0 
0.0 0.0 0.0 
0.0 0.0 0.0 
0.0 0.0 0.0 
0.0 0.0 0.0 
0.0 0.0 0.0 
0.0 0.0 0.0 
0.0 0.0 0.0 
0.0 0.0 0.0 
0.0 0.0 0.0 
0.0 0.0 0.0 
0.0 0.0 0.0 
0.0 0.0 0.0 
0.0 0.0 0.0 
0.0 0.0 0.0 
0.0 0.0 0.0 
0.0 0.0 0.0 
0.0 0.0 0.0 
0.0 0.0 0.0 
0.0 0.0 0.0 
0.0 0.0 0.0 
0.0 0.0 0.0 
0.0 0.0 0.0 
0.0 0.0 0.0 
0.0 0.0 0.0 
0.0 0.0 0.0 
0.0 0.0 0.0 
0.0 0.0 0.0 
0.0 0.0 0.0 
0.0 0.0 0.0 
0.0 0.0 0.0 
0.0 0.0 0.0 
0.0 0.0 0.0 
0.0 0.0 0.0 
0.0 0.0 0.0 
0.0 0.0 0.0 
0.0 0.0 0.0 
0.0 0.0 0.0 
0.0 0.0 0.0 
0.0 0.0 0.0 
0.0 0.0 0.0 
0.0 0.0 0.0 
0.0 0.0 0.0 
0.0 0.0 0.0 
0.0 0.0 0.0 
0.0 0.0 0.0 
0.0 0.0 0.0 
0.0 0.0 0.0 
0.0 0.0 0.0 
0.0 0.0 0.0 
0.0 0.0 0.0 
0.0 0.0 0.0 
0.0 0.0 0.0 
0.0 0.0 0.0 
0.0 0.0 0.0 
0.0 0.0 0.0 
0.0 0.0 0.0 
0.0 0.0 0.0 
0.0 0.0 0.0 
0.0 0.0 0.0 
0.0 0.0 0.0 
0.0 0.0 0.0 
0.0 0.0 0.0 
0.0 0.0 0.0 
0.0 0.0 0.0 
0.0 0.0 0.0 
0.0 0.0 0.0 
0.0 0.0 0.0 
0.0 0.0 0.0 
0.0 0.0 0.0 
0.0 0.0 0.0 
0.0 0.0 0.0 
0.0 0.0 0.0 
0.0 0.0 0.0 
0.0 0.0 0.0 
0.0 0.0 0.0 
0.0 0.0 0.0 
0.0 0.0 0.0 
0.0 0.0 0.0 
0.0 0.0 0.0 
0.0 0.0 0.0 
0.0 0.0 0.0 
0.0 0.0 0.0 
0.0 0.0 0.0 
0.0 0.0 0.0 
0.0 0.0 0.0 
0.0 0.0 0.0 
0.0 0.0 0.0 
0.0 0.0 0.0 
0.0 0.0 0.0 
0.0 0.0 0.0 
0.0 0.0 0.0 
0.0 0.0 0.0 
0.0 0.0 0.0 
0.0 0.0 0.0 
0.0 0.0 0.0 
0.0 0.0 0.0 
0.0 0.0 0.0 
0.0 0.0 0.0 
0.0 0.0 0.0 
0.0 0.0 0.0 
0.0 0.0 0.0 
0.0 0.0 0.0 
0.0 0.0 0.0 
0.0 0.0 0.0 
0.0 0.0 0.0 
0.0 0.0 0.0 
0.0 0.0 0.0 
0.0 0.0 0.0 
0.0 0.0 0.0 
0.0 0.0 0.0 
0.0 0.0 0.0 
0.0 0.0 0.0 
0.0 0.0 0.0 
0.0 0.0 0.0 
0.0 0.0 0.0 
0.0 0.0 0.0 
0.0 0.0 0.0 
0.0 0.0 0.0 
0.0 0.0 0.0 
0.0 0.0 0.0 
0.0 0.0 0.0 
0.0 0.0 0.0 
0.0 0.0 0.0 
0.0 0.0 0.0 
0.0 0.0 0.0 
0.0 0.0 0.0 
0.0 0.0 0.0 
0.0 0.0 0.0 
0.0 0.0 0.0 
0.0 0.0 0.0 
0.0 0.0 0.0 
0.0 0.0 0.0 
0.0 0.0 0.0 
0.0 0.0 0.0 
0.0 0.0 0.0 
0.0 0.0 0.0 
0.0 0.0 0.0 
0.0 0.0 0.0 
0.0 0.0 0.0 
0.0 0.0 0.0 
0.0 0.0 0.0 
0.0 0.0 0.0 
0.0 0.0 0.0 
0.0 0.0 0.0 
0.0 0.0 0.0 
0.0 0.0 0.0 
0.0 0.0 0.0 
0.0 0.0 0.0 
0.0 0.0 0.0 
0.0 0.0 0.0 
0.0 0.0 0.0 
0.0 0.0 0.0 
0.0 0.0 0.0 
0.0 0.0 0.0 
0.0 0.0 0.0 
0.0 0.0 0.0 
0.0 0.0 0.0 
0.0 0.0 0.0 
0.0 0.0 0.0 
0.0 0.0 0.0 
0.0 0.0 0.0 
0.0 0.0 0.0 
0.0 0.0 0.0 
0.0 0.0 0.0 
0.0 0.0 0.0 
0.0 0.0 0.0 
0.0 0.0 0.0 
0.0 0.0 0.0 
0.0 0.0 0.0 
0.0 0.0 0.0 
0.0 0.0 0.0 
0.0 0.0 0.0 
0.0 0.0 0.0 
0.0 0.0 0.0 
0.0 0.0 0.0 
0.0 0.0 0.0 
0.0 0.0 0.0 
0.0 0.0 0.0 
0.0 0.0 0.0 
0.0 0.0 0.0 
0.0 0.0 0.0 
0.0 0.0 0.0 
0.0 0.0 0.0 
0.0 0.0 0.0 
0.0 0.0 0.0 
0.0 0.0 0.0 
0.0 0.0 0.0 
0.0 0.0 0.0 
0.0 0.0 0.0 
0.0 0.0 0.0 
0.0 0.0 0.0 
0.0 0.0 0.0 
0.0 0.0 0.0 
0.0 0.0 0.0 
0.0 0.0 0.0 
0.0 0.0 0.0 
0.0 0.0 0.0 
0.0 0.0 0.0 
0.0 0.0 0.0 
0.0 0.0 0.0 
0.0 0.0 0.0 
0.0 0.0 0.0 
0.0 0.0 0.0 
0.0 0.0 0.0 
0.0 0.0 0.0 
0.0 0.0 0.0 
0.0 0.0 0.0 
0.0 0.0 0.0 
0.0 0.0 0.0 
0.0 0.0 0.0 
0.0 0.0 0.0 
0.0 0.0 0.0 
0.0 0.0 0.0 
0.0 0.0 0.0 
0.0 0.0 0.0 
0.0 0.0 0.0 
0.0 0.0 0.0 
0.0 0.0 0.0 
0.0 0.0 0.0 
0.0 0.0 0.0 
0.0 0.0 0.0 
0.0 0.0 0.0 
0.0 0.0 0.0 
0.0 0.0 0.0 
0.0 0.0 0.0 
0.0 0.0 0.0 
0.0 0.0 0.0 
0.0 0.0 0.0 
0.0 0.0 0.0 
0.0 0.0 0.0 
0.0 0.0 0.0 
0.0 0.0 0.0 
0.0 0.0 0.0 
0.0 0.0 0.0 
0.0 0.0 0.0 
0.0 0.0 0.0 
0.0 0.0 0.0 
0.0 0.0 0.0 
0.0 0.0 0.0 
0.0 0.0 0.0 
0.0 0.0 0.0 
0.0 0.0 0.0 
0.0 0.0 0.0 
0.0 0.0 0.0 
0.0 0.0 0.0 
0.0 0.0 0.0 
0.0 0.0 0.0 
0.0 0.0 0.0 
0.0 0.0 0.0 
0.0 0.0 0.0 
0.0 0.0 0.0 
0.0 0.0 0.0 
0.0 0.0 0.0 
0.0 0.0 0.0 
0.0 0.0 0.0 
0.0 0.0 0.0 
0.0 0.0 0.0 
0.0 0.0 0.0 
0.0 0.0 0.0 
0.0 0.0 0.0 
0.0 0.0 0.0 
0.0 0.0 0.0 
0.0 0.0 0.0 
0.0 0.0 0.0 
0.0 0.0 0.0 
0.0 0.0 0.0 
0.0 0.0 0.0 
0.0 0.0 0.0 
0.0 0.0 0.0 
0.0 0.0 0.0 
0.0 0.0 0.0 
0.0 0.0 0.0 
0.0 0.0 0.0 
0.0 0.0 0.0 
0.0 0.0 0.0 
0.0 0.0 0.0 
0.0 0.0 0.0 
0.0 0.0 0.0 
0.0 0.0 0.0 
0.0 0.0 0.0 
0.0 0.0 0.0 
0.0 0.0 0.0 
0.0 0.0 0.0 
0.0 0.0 0.0 
0.0 0.0 0.0 
0.0 0.0 0.0 
0.0 0.0 0.0 
0.0 0.0 0.0 
0.0 0.0 0.0 
0.0 0.0 0.0 
0.0 0.0 0.0 
0.0 0.0 0.0 
0.0 0.0 0.0 
0.0 0.0 0.0 
0.0 0.0 0.0 
0.0 0.0 0.0 
0.0 0.0 0.0 
0.0 0.0 0.0 
0.0 0.0 0.0 
0.0 0.0 0.0 
0.0 0.0 0.0 
0.0 0.0 0.0 
0.0 0.0 0.0 
0.0 0.0 0.0 
0.0 0.0 0.0 
0.0 0.0 0.0 
0.0 0.0 0.0 
0.0 0.0 0.0 
0.0 0.0 0.0 
0.0 0.0 0.0 
0.0 0.0 0.0 
0.0 0.0 0.0 
0.0 0.0 0.0 
0.0 0.0 0.0 
0.0 0.0 0.0 
0.0 0.0 0.0 
0.0 0.0 0.0 
0.0 0.0 0.0 
0.0 0.0 0.0 
0.0 0.0 0.0 
0.0 0.0 0.0 
0.0 0.0 0.0 
0.0 0.0 0.0 
0.0 0.0 0.0 
0.0 0.0 0.0 
0.0 0.0 0.0 
0.0 0.0 0.0 
0.0 0.0 0.0 
0.0 0.0 0.0 
0.0 0.0 0.0 
0.0 0.0 0.0 
0.0 0.0 0.0 
0.0 0.0 0.0 
0.0 0.0 0.0 
0.0 0.0 0.0 
0.0 0.0 0.0 
0.0 0.0 0.0 
0.0 0.0 0.0 
0.0 0.0 0.0 
0.0 0.0 0.0 
0.0 0.0 0.0 
0.0 0.0 0.0 
0.0 0.0 0.0 
0.0 0.0 0.0 
0.0 0.0 0.0 
0.0 0.0 0.0 
0.0 0.0 0.0 
0.0 0.0 0.0 
0.0 0.0 0.0 
0.0 0.0 0.0 
0.0 0.0 0.0 
0.0 0.0 0.0 
0.0 0.0 0.0 
0.0 0.0 0.0 
0.0 0.0 0.0 
0.0 0.0 0.0 
0.0 0.0 0.0 
0.0 0.0 0.0 
0.0 0.0 0.0 
0.0 0.0 0.0 
0.0 0.0 0.0 
0.0 0.0 0.0 
0.0 0.0 0.0 
0.0 0.0 0.0 
0.0 0.0 0.0 
0.0 0.0 0.0 
0.0 0.0 0.0 
0.0 0.0 0.0 
0.0 0.0 0.0 
0.0 0.0 0.0 
0.0 0.0 0.0 
0.0 0.0 0.0 
0.0 0.0 0.0 
0.0 0.0 0.0 
0.0 0.0 0.0 
0.0 0.0 0.0 
0.0 0.0 0.0 
0.0 0.0 0.0 
0.0 0.0 0.0 
0.0 0.0 0.0 
0.0 0.0 0.0 
0.0 0.0 0.0 
0.0 0.0 0.0 
0.0 0.0 0.0 
0.0 0.0 0.0 
0.0 0.0 0.0 
0.0 0.0 0.0 
0.0 0.0 0.0 
0.0 0.0 0.0 
0.0 0.0 0.0 
0.0 0.0 0.0 
0.0 0.0 0.0 
0.0 0.0 0.0 
0.0 0.0 0.0 
0.0 0.0 0.0 
0.0 0.0 0.0 
0.0 0.0 0.0 
0.0 0.0 0.0 
0.0 0.0 0.0 
0.0 0.0 0.0 
0.0 0.0 0.0 
0.0 0.0 0.0 
0.0 0.0 0.0 
0.0 0.0 0.0 
0.0 0.0 0.0 
0.0 0.0 0.0 
0.0 0.0 0.0 
0.0 0.0 0.0 
0.0 0.0 0.0 
0.0 0.0 0.0 
0.0 0.0 0.0 
0.0 0.0 0.0 
0.0 0.0 0.0 
0.0 0.0 0.0 
0.0 0.0 0.0 
0.0 0.0 0.0 
0.0 0.0 0.0 
0.0 0.0 0.0 
0.0 0.0 0.0 
0.0 0.0 0.0 
0.0 0.0 0.0 
0.0 0.0 0.0 
0.0 0.0 0.0 
0.0 0.0 0.0 
0.0 0.0 0.0 
0.0 0.0 0.0 
0.0 0.0 0.0 
0.0 0.0 0.0 
0.0 0.0 0.0 
0.0 0.0 0.0 
0.0 0.0 0.0 
0.0 0.0 0.0 
0.0 0.0 0.0 
0.0 0.0 0.0 
0.0 0.0 0.0 
0.0 0.0 0.0 
0.0 0.0 0.0 
0.0 0.0 0.0 
0.0 0.0 0.0 
0.0 0.0 0.0 
0.0 0.0 0.0 
0.0 0.0 0.0 
0.0 0.0 0.0 
0.0 0.0 0.0 
0.0 0.0 0.0 
0.0 0.0 0.0 
0.0 0.0 0.0 
0.0 0.0 0.0 
0.0 0.0 0.0 
0.0 0.0 0.0 
0.0 0.0 0.0 
0.0 0.0 0.0 
0.0 0.0 0.0 
0.0 0.0 0.0 
0.0 0.0 0.0 
0.0 0.0 0.0 
0.0 0.0 0.0 
0.0 0.0 0.0 
0.0 0.0 0.0 
0.0 0.0 0.0 
0.0 0.0 0.0 
0.0 0.0 0.0 
0.0 0.0 0.0 
0.0 0.0 0.0 
0.0 0.0 0.0 
0.0 0.0 0.0 
0.0 0.0 0.0 
0.0 0.0 0.0 
0.0 0.0 0.0 
0.0 0.0 0.0 
0.0 0.0 0.0 
0.0 0.0 0.0 
0.0 0.0 0.0 
0.0 0.0 0.0 
0.0 0.0 0.0 
0.0 0.0 0.0 
0.0 0.0 0.0 
0.0 0.0 0.0 
0.0 0.0 0.0 
0.0 0.0 0.0 
0.0 0.0 0.0 
0.0 0.0 0.0 
0.0 0.0 0.0 
0.0 0.0 0.0 
0.0 0.0 0.0 
0.0 0.0 0.0 
0.0 0.0 0.0 
0.0 0.0 0.0 
0.0 0.0 0.0 
0.0 0.0 0.0 
0.0 0.0 0.0 
0.0 0.0 0.0 
0.0 0.0 0.0 
0.0 0.0 0.0 
0.0 0.0 0.0 
0.0 0.0 0.0 
0.0 0.0 0.0 
0.0 0.0 0.0 
0.0 0.0 0.0 
0.0 0.0 0.0 
0.0 0.0 0.0 
0.0 0.0 0.0 
0.0 0.0 0.0 
0.0 0.0 0.0 
0.0 0.0 0.0 
0.0 0.0 0.0 
0.0 0.0 0.0 
0.0 0.0 0.0 
0.0 0.0 0.0 
0.0 0.0 0.0 
0.0 0.0 0.0 
0.0 0.0 0.0 
0.0 0.0 0.0 
0.0 0.0 0.0 
0.0 0.0 0.0 
0.0 0.0 0.0 
0.0 0.0 0.0 
0.0 0.0 0.0 
0.0 0.0 0.0 
0.0 0.0 0.0 
0.0 0.0 0.0 
0.0 0.0 0.0 
0.0 0.0 0.0 
0.0 0.0 0.0 
0.0 0.0 0.0 
0.0 0.0 0.0 
0.0 0.0 0.0 
0.0 0.0 0.0 
0.0 0.0 0.0 
0.0 0.0 0.0 
0.0 0.0 0.0 
0.0 0.0 0.0 
0.0 0.0 0.0 
0.0 0.0 0.0 
0.0 0.0 0.0 
0.0 0.0 0.0 
0.0 0.0 0.0 
0.0 0.0 0.0 
0.0 0.0 0.0 
0.0 0.0 0.0 
0.0 0.0 0.0 
0.0 0.0 0.0 
0.0 0.0 0.0 
0.0 0.0 0.0 
0.0 0.0 0.0 
0.0 0.0 0.0 
0.0 0.0 0.0 
0.0 0.0 0.0 
0.0 0.0 0.0 
0.0 0.0 0.0 
0.0 0.0 0.0 
0.0 0.0 0.0 
0.0 0.0 0.0 
0.0 0.0 0.0 
0.0 0.0 0.0 
0.0 0.0 0.0 
0.0 0.0 0.0 
0.0 0.0 0.0 
0.0 0.0 0.0 
0.0 0.0 0.0 
0.0 0.0 0.0 
0.0 0.0 0.0 
0.0 0.0 0.0 
0.0 0.0 0.0 
0.0 0.0 0.0 
0.0 0.0 0.0 
0.0 0.0 0.0 
0.0 0.0 0.0 
0.0 0.0 0.0 
0.0 0.0 0.0 
0.0 0.0 0.0 
0.0 0.0 0.0 
0.0 0.0 0.0 
0.0 0.0 0.0 
0.0 0.0 0.0 
0.0 0.0 0.0 
0.0 0.0 0.0 
0.0 0.0 0.0 
0.0 0.0 0.0 
0.0 0.0 0.0 
0.0 0.0 0.0 
0.0 0.0 0.0 
0.0 0.0 0.0 
0.0 0.0 0.0 
0.0 0.0 0.0 
0.0 0.0 0.0 
0.0 0.0 0.0 
0.0 0.0 0.0 
0.0 0.0 0.0 
0.0 0.0 0.0 
0.0 0.0 0.0 
0.0 0.0 0.0 
0.0 0.0 0.0 
0.0 0.0 0.0 
0.0 0.0 0.0 
0.0 0.0 0.0 
0.0 0.0 0.0 
0.0 0.0 0.0 
0.0 0.0 0.0 
0.0 0.0 0.0 
0.0 0.0 0.0 
0.0 0.0 0.0 
0.0 0.0 0.0 
0.0 0.0 0.0 
0.0 0.0 0.0 
0.0 0.0 0.0 
0.0 0.0 0.0 
0.0 0.0 0.0 
0.0 0.0 0.0 
0.0 0.0 0.0 
0.0 0.0 0.0 
0.0 0.0 0.0 
0.0 0.0 0.0 
0.0 0.0 0.0 
0.0 0.0 0.0 
0.0 0.0 0.0 
0.0 0.0 0.0 
0.0 0.0 0.0 
0.0 0.0 0.0 
0.0 0.0 0.0 
0.0 0.0 0.0 
0.0 0.0 0.0 
0.0 0.0 0.0 
0.0 0.0 0.0 
0.0 0.0 0.0 
0.0 0.0 0.0 
0.0 0.0 0.0 
0.0 0.0 0.0 
0.0 0.0 0.0 
0.0 0.0 0.0 
0.0 0.0 0.0 
0.0 0.0 0.0 
0.0 0.0 0.0 
0.0 0.0 0.0 
0.0 0.0 0.0 
0.0 0.0 0.0 
0.0 0.0 0.0 
0.0 0.0 0.0 
0.0 0.0 0.0 
0.0 0.0 0.0 
0.0 0.0 0.0 
0.0 0.0 0.0 
0.0 0.0 0.0 
0.0 0.0 0.0 
0.0 0.0 0.0 
0.0 0.0 0.0 
0.0 0.0 0.0 
0.0 0.0 0.0 
0.0 0.0 0.0 
0.0 0.0 0.0 
0.0 0.0 0.0 
0.0 0.0 0.0 
0.0 0.0 0.0 
0.0 0.0 0.0 
0.0 0.0 0.0 
0.0 0.0 0.0 
0.0 0.0 0.0 
0.0 0.0 0.0 
0.0 0.0 0.0 
0.0 0.0 0.0 
0.0 0.0 0.0 
0.0 0.0 0.0 
0.0 0.0 0.0 
0.0 0.0 0.0 
0.0 0.0 0.0 
0.0 0.0 0.0 
0.0 0.0 0.0 
0.0 0.0 0.0 
0.0 0.0 0.0 
0.0 0.0 0.0 
0.0 0.0 0.0 
0.0 0.0 0.0 
0.0 0.0 0.0 
0.0 0.0 0.0 
0.0 0.0 0.0 
0.0 0.0 0.0 
0.0 0.0 0.0 
0.0 0.0 0.0 
0.0 0.0 0.0 
0.0 0.0 0.0 
0.0 0.0 0.0 
0.0 0.0 0.0 
0.0 0.0 0.0 
0.0 0.0 0.0 
0.0 0.0 0.0 
0.0 0.0 0.0 
0.0 0.0 0.0 
0.0 0.0 0.0 
0.0 0.0 0.0 
0.0 0.0 0.0 
0.0 0.0 0.0 
0.0 0.0 0.0 
0.0 0.0 0.0 
0.0 0.0 0.0 
0.0 0.0 0.0 
0.0 0.0 0.0 
0.0 0.0 0.0 
0.0 0.0 0.0 
0.0 0.0 0.0 
0.0 0.0 0.0 
0.0 0.0 0.0 
0.0 0.0 0.0 
0.0 0.0 0.0 
0.0 0.0 0.0 
0.0 0.0 0.0 
0.0 0.0 0.0 
0.0 0.0 0.0 
0.0 0.0 0.0 
0.0 0.0 0.0 
0.0 0.0 0.0 
0.0 0.0 0.0 
0.0 0.0 0.0 
0.0 0.0 0.0 
0.0 0.0 0.0 
0.0 0.0 0.0 
0.0 0.0 0.0 
0.0 0.0 0.0 
0.0 0.0 0.0 
0.0 0.0 0.0 
0.0 0.0 0.0 
0.0 0.0 0.0 
0.0 0.0 0.0 
0.0 0.0 0.0 
0.0 0.0 0.0 
0.0 0.0 0.0 
0.0 0.0 0.0 
0.0 0.0 0.0 
0.0 0.0 0.0 
0.0 0.0 0.0 
0.0 0.0 0.0 
0.0 0.0 0.0 
0.0 0.0 0.0 
0.0 0.0 0.0 
0.0 0.0 0.0 
0.0 0.0 0.0 
0.0 0.0 0.0 
0.0 0.0 0.0 
0.0 0.0 0.0 
0.0 0.0 0.0 
0.0 0.0 0.0 
0.0 0.0 0.0 
0.0 0.0 0.0 
0.0 0.0 0.0 
0.0 0.0 0.0 
0.0 0.0 0.0 
0.0 0.0 0.0 
0.0 0.0 0.0 
0.0 0.0 0.0 
0.0 0.0 0.0 
0.0 0.0 0.0 
0.0 0.0 0.0 
0.0 0.0 0.0 
0.0 0.0 0.0 
0.0 0.0 0.0 
0.0 0.0 0.0 
0.0 0.0 0.0 
0.0 0.0 0.0 
0.0 0.0 0.0 
0.0 0.0 0.0 
0.0 0.0 0.0 
0.0 0.0 0.0 
0.0 0.0 0.0 
0.0 0.0 0.0 
0.0 0.0 0.0 
0.0 0.0 0.0 
0.0 0.0 0.0 
0.0 0.0 0.0 
0.0 0.0 0.0 
0.0 0.0 0.0 
0.0 0.0 0.0 
0.0 0.0 0.0 
0.0 0.0 0.0 
0.0 0.0 0.0 
0.0 0.0 0.0 
0.0 0.0 0.0 
0.0 0.0 0.0 
0.0 0.0 0.0 
0.0 0.0 0.0 
0.0 0.0 0.0 
0.0 0.0 0.0 
0.0 0.0 0.0 
0.0 0.0 0.0 
0.0 0.0 0.0 
0.0 0.0 0.0 
0.0 0.0 0.0 
0.0 0.0 0.0 
0.0 0.0 0.0 
0.0 0.0 0.0 
0.0 0.0 0.0 
0.0 0.0 0.0 
0.0 0.0 0.0 
0.0 0.0 0.0 
0.0 0.0 0.0 
0.0 0.0 0.0 
0.0 0.0 0.0 
0.0 0.0 0.0 
0.0 0.0 0.0 
0.0 0.0 0.0 
0.0 0.0 0.0 
0.0 0.0 0.0 
0.0 0.0 0.0 
0.0 0.0 0.0 
0.0 0.0 0.0 
0.0 0.0 0.0 
0.0 0.0 0.0 
0.0 0.0 0.0 
0.0 0.0 0.0 
0.0 0.0 0.0 
0.0 0.0 0.0 
0.0 0.0 0.0 
0.0 0.0 0.0 
0.0 0.0 0.0 
0.0 0.0 0.0 
0.0 0.0 0.0 
0.0 0.0 0.0 
0.0 0.0 0.0 
0.0 0.0 0.0 
0.0 0.0 0.0 
0.0 0.0 0.0 
0.0 0.0 0.0 
0.0 0.0 0.0 
0.0 0.0 0.0 
0.0 0.0 0.0 
0.0 0.0 0.0 
0.0 0.0 0.0 
0.0 0.0 0.0 
0.0 0.0 0.0 
0.0 0.0 0.0 
0.0 0.0 0.0 
0.0 0.0 0.0 
0.0 0.0 0.0 
0.0 0.0 0.0 
0.0 0.0 0.0 
0.0 0.0 0.0 
0.0 0.0 0.0 
0.0 0.0 0.0 
0.0 0.0 0.0 
0.0 0.0 0.0 
0.0 0.0 0.0 
0.0 0.0 0.0 
0.0 0.0 0.0 
0.0 0.0 0.0 
0.0 0.0 0.0 
0.0 0.0 0.0 
0.0 0.0 0.0 
0.0 0.0 0.0 

VECTORS node_materi_velocity float
0.0 -7.756769855833e-04 0.0 
0.0 9.874810174841e-03 0.0 
0.0 0.0 0.0 
0.0 0.0 0.0 
0.0 -7.725468007273e-04 0.0 
0.0 -7.647565387112e-04 0.0 
0.0 -7.508187503344e-04 0.0 
0.0 -7.295329505088e-04 0.0 
0.0 -6.989495046544e-04 0.0 
0.0 -6.599669682539e-04 0.0 
0.0 -6.130638513938e-04 0.0 
0.0 -5.587421688896e-04 0.0 
0.0 -4.983284719171e-04 0.0 
0.0 -4.332441291298e-04 0.0 
0.0 -3.653249815309e-04 0.0 
0.0 -2.970545821553e-04 0.0 
0.0 -2.305004642622e-04 0.0 
0.0 -1.669324227817e-04 0.0 
0.0 -1.098137837541e-04 0.0 
0.0 -6.138560569178e-05 0.0 
0.0 -2.375169313738e-05 0.0 
0.0 1.054475174547e-07 0.0 
0.0 7.457805696174e-06 0.0 
0.0 0.0 0.0 
0.0 0.0 0.0 
0.0 0.0 0.0 
0.0 0.0 0.0 
0.0 0.0 0.0 
0.0 0.0 0.0 
0.0 0.0 0.0 
0.0 0.0 0.0 
0.0 0.0 0.0 
0.0 0.0 0.0 
0.0 0.0 0.0 
0.0 0.0 0.0 
0.0 0.0 0.0 
0.0 0.0 0.0 
0.0 0.0 0.0 
0.0 0.0 0.0 
0.0 0.0 0.0 
0.0 0.0 0.0 
0.0 0.0 0.0 
0.0 0.0 0.0 
0.0 0.0 0.0 
0.0 0.0 0.0 
0.0 0.0 0.0 
0.0 0.0 0.0 
0.0 0.0 0.0 
0.0 0.0 0.0 
0.0 0.0 0.0 
0.0 0.0 0.0 
0.0 0.0 0.0 
0.0 0.0 0.0 
0.0 0.0 0.0 
0.0 0.0 0.0 
0.0 0.0 0.0 
0.0 0.0 0.0 
0.0 0.0 0.0 
0.0 0.0 0.0 
0.0 0.0 0.0 
0.0 0.0 0.0 
0.0 0.0 0.0 
0.0 0.0 0.0 
0.0 0.0 0.0 
0.0 0.0 0.0 
0.0 0.0 0.0 
0.0 0.0 0.0 
0.0 0.0 0.0 
0.0 0.0 0.0 
0.0 0.0 0.0 
0.0 0.0 0.0 
0.0 0.0 0.0 
0.0 8.866761183141e-03 0.0 
0.0 7.859815251133e-03 0.0 
0.0 6.855401229719e-03 0.0 
0.0 5.854386092664e-03 0.0 
0.0 4.858543705968e-03 0.0 
0.0 3.868946279654e-03 0.0 
0.0 2.887087207528e-03 0.0 
0.0 1.914299568900e-03 0.0 
0.0 9.519505633499e-04 0.0 
-1.669190608771e-03 3.099380316217e-03 0.0 
1.685923240712e-03 9.695583405321e-03 0.0 
-1.274573630142e-03 4.246826958624e-03 0.0 
-5.684158494856e-04 5.948352487677e-03 0.0 
-4.439453889639e-04 9.471058889875e-03 0.0 
5.677178361372e-04 1.133482604590e-02 0.0 
1.311918293989e-03 1.195202576894e-02 0.0 
1.718577496101e-03 1.202999220894e-02 0.0 
1.894931991977e-03 1.174804459303e-02 0.0 
1.919708608173e-03 1.121841046085e-02 0.0 
1.839223813894e-03 1.051636052572e-02 0.0 
0.0 1.696244983894e-02 0.0 
0.0 1.592709783170e-02 0.0 
0.0 1.491466030989e-02 0.0 
0.0 1.390717651123e-02 0.0 
0.0 1.289948355111e-02 0.0 
0.0 1.189169910757e-02 0.0 
0.0 1.088330659363e-02 0.0 
9.209994503650e-05 9.876321525545e-03 0.0 
1.851389541676e-04 9.880984949253e-03 0.0 
2.792791000354e-04 9.888165959929e-03 0.0 
3.750207541038e-04 9.897485315854e-03 0.0 
4.728279770452e-04 9.907581633018e-03 0.0 
5.726586612040e-04 9.917554079791e-03 0.0 
6.755548407168e-04 9.926936385346e-03 0.0 
7.817228365860e-04 9.933222986465e-03 0.0 
8.920070501701e-04 9.935916957897e-03 0.0 
1.007331740827e-03 9.932341183843e-03 0.0 
1.128083759642e-03 9.919313954783e-03 0.0 
1.255531470970e-03 9.893435805503e-03 0.0 
1.390313056656e-03 9.851170635326e-03 0.0 
1.533336233073e-03 9.786936598184e-03 0.0 
-1.538175853379e-03 2.447308319324e-03 0.0 
-1.363620225498e-03 1.862889906160e-03 0.0 
-1.176563233245e-03 1.364909227064e-03 0.0 
-9.874349547015e-04 9.479281487171e-04 0.0 
-8.183616820815e-04 6.019184989995e-04 0.0 
-6.665748039906e-04 3.168766828154e-04 0.0 
-5.314932568735e-04 8.292717270382e-05 0.0 
-4.142582594065e-04 -1.084534837627e-04 0.0 
-3.141003973540e-04 -2.631497060301e-04 0.0 
-2.306981304547e-04 -3.868931406369e-04 0.0 
-1.630203441498e-04 -4.867615316449e-04 0.0 
-1.087520190146e-04 -5.637304353517e-04 0.0 
-6.848398739173e-05 -6.247143888966e-04 0.0 
-3.766542544178e-05 -6.719101940377e-04 0.0 
-1.665206232101e-05 -7.081894304394e-04 0.0 
-3.909115841982e-06 -7.345687624547e-04 0.0 
2.265468288051e-06 -7.533939277919e-04 0.0 
3.763552245526e-06 -7.663732119750e-04 0.0 
2.646136865022e-06 -7.731567186604e-04 0.0 
-1.020952752179e-03 1.172071854552e-02 0.0 
-7.744132675102e-04 1.290703306126e-02 0.0 
-5.324859838742e-04 1.384125198343e-02 0.0 
-2.552063698844e-04 1.456764405869e-02 0.0 
1.337049000750e-05 1.515424866990e-02 0.0 
2.582507311051e-04 1.561508040402e-02 0.0 
4.683468139186e-04 1.596964034692e-02 0.0 
6.402318337101e-04 1.624239053112e-02 0.0 
7.751598038928e-04 1.645311767408e-02 0.0 
8.755194474323e-04 1.661376330454e-02 0.0 
9.444060665512e-04 1.673489567644e-02 0.0 
9.850212608098e-04 1.682433345742e-02 0.0 
1.000584787452e-03 1.688877783187e-02 0.0 
9.942077548414e-04 1.693356264821e-02 0.0 
9.687816524549e-04 1.696307962001e-02 0.0 
9.269230184747e-04 1.698087947922e-02 0.0 
8.709964869784e-04 1.698989926791e-02 0.0 
8.031655236376e-04 1.699255795872e-02 0.0 
7.254629589391e-04 1.699083602380e-02 0.0 
6.398987490633e-04 1.698634631484e-02 0.0 
5.486678165427e-04 1.698038247270e-02 0.0 
4.545379585405e-04 1.697386099903e-02 0.0 
3.615595240374e-04 1.696675281902e-02 0.0 
2.754735355598e-04 1.695589228423e-02 0.0 
1.614802726576e-04 1.695730097851e-02 0.0 
1.188052813651e-04 1.593355094885e-02 0.0 
2.294425039288e-04 1.594565752724e-02 0.0 
3.320443034958e-04 1.595504354112e-02 0.0 
4.300275745516e-04 1.596313308867e-02 0.0 
5.241600978028e-04 1.597136212806e-02 0.0 
6.138394901936e-04 1.597956763977e-02 0.0 
6.979140542533e-04 1.598679555822e-02 0.0 
7.750264972749e-04 1.599166891528e-02 0.0 
8.437279581363e-04 1.599245034755e-02 0.0 
9.025057487252e-04 1.598699848928e-02 0.0 
9.497898187116e-04 1.597268939345e-02 0.0 
9.839688797453e-04 1.594631163935e-02 0.0 
1.003438906305e-03 1.590391119791e-02 0.0 
1.006676920551e-03 1.584057253604e-02 0.0 
9.923948640768e-04 1.575017546395e-02 0.0 
9.597212716886e-04 1.562511747037e-02 0.0 
9.086456755071e-04 1.545586415093e-02 0.0 
8.403797914836e-04 1.523025494255e-02 0.0 
7.584800403986e-04 1.493192953734e-02 0.0 
6.692980661414e-04 1.453869092247e-02 0.0 
5.819155019182e-04 1.402287489578e-02 0.0 
5.157857893323e-04 1.336398371861e-02 0.0 
4.863393679234e-04 1.250819295007e-02 0.0 
1.224379367425e-03 1.271540073418e-02 0.0 
1.182476289253e-03 1.330073743499e-02 0.0 
1.154777751299e-03 1.375123139099e-02 0.0 
1.141548008275e-03 1.409736799329e-02 0.0 
1.134258988759e-03 1.435917523375e-02 0.0 
1.127282677319e-03 1.455614661445e-02 0.0 
1.116221573123e-03 1.470211208927e-02 0.0 
1.098499449421e-03 1.480829417887e-02 0.0 
1.072644056621e-03 1.488336475523e-02 0.0 
1.038042908087e-03 1.493431923440e-02 0.0 
9.946344795155e-04 1.496674048854e-02 0.0 
9.427430517346e-04 1.498512992536e-02 0.0 
8.829297133180e-04 1.499310249887e-02 0.0 
8.158972529069e-04 1.499358654937e-02 0.0 
7.424192344536e-04 1.498896091415e-02 0.0 
6.632848876521e-04 1.498114902253e-02 0.0 
5.792405340767e-04 1.497166814203e-02 0.0 
4.909068238787e-04 1.496161834803e-02 0.0 
3.986784822939e-04 1.495157490429e-02 0.0 
3.027023867973e-04 1.494137100810e-02 0.0 
2.033004507285e-04 1.493030915934e-02 0.0 
1.016465910468e-04 1.492064816224e-02 0.0 
9.831794198641e-05 1.391017866815e-02 0.0 
1.979074898795e-04 1.391955169599e-02 0.0 
2.965730634947e-04 1.393069742953e-02 0.0 
3.932545381914e-04 1.394224575888e-02 0.0 
4.874291441502e-04 1.395403868212e-02 0.0 
5.788219087190e-04 1.396586421351e-02 0.0 
6.671791500272e-04 1.397702381390e-02 0.0 
7.522073889169e-04 1.398632703960e-02 0.0 
8.335931736213e-04 1.399210239668e-02 0.0 
9.110577723818e-04 1.399218630609e-02 0.0 
9.844269672856e-04 1.398385650736e-02 0.0 
1.053698460329e-03 1.396371503383e-02 0.0 
1.119123732212e-03 1.392752487110e-02 0.0 
1.181302307421e-03 1.386994052823e-02 0.0 
1.241404637119e-03 1.378432228305e-02 0.0 
1.301197869829e-03 1.366225596709e-02 0.0 
1.363522085734e-03 1.349344615443e-02 0.0 
1.431838154585e-03 1.326414724845e-02 0.0 
1.511432984632e-03 1.295955043931e-02 0.0 
1.602238269932e-03 1.255803014263e-02 0.0 
1.761797016029e-03 1.209566779718e-02 0.0 
1.645743941990e-03 1.235960247260e-02 0.0 
1.537874529515e-03 1.255824651206e-02 0.0 
1.439087821718e-03 1.270567921973e-02 0.0 
1.346299298141e-03 1.281170036563e-02 0.0 
1.257553261140e-03 1.288573536941e-02 0.0 
1.171046661001e-03 1.293478139633e-02 0.0 
1.085596266353e-03 1.296486816309e-02 0.0 
1.000299297809e-03 1.298067143004e-02 0.0 
9.145289532861e-04 1.298597467634e-02 0.0 
8.278609548156e-04 1.298383025570e-02 0.0 
7.400602257535e-04 1.297670069703e-02 0.0 
6.510181254596e-04 1.296652386573e-02 0.0 
5.606594876230e-04 1.295476406235e-02 0.0 
4.689772478571e-04 1.294248142306e-02 0.0 
3.760382621973e-04 1.293039022493e-02 0.0 
2.821071138094e-04 1.291901339579e-02 0.0 
1.877965105978e-04 1.290908016106e-02 0.0 
9.382916589684e-05 1.290218598692e-02 0.0 
9.461407900449e-05 1.189376086416e-02 0.0 
1.899662248582e-04 1.190016524178e-02 0.0 
2.858300102707e-04 1.190956323374e-02 0.0 
3.819638873469e-04 1.192087744468e-02 0.0 
4.782093060155e-04 1.193314407016e-02 0.0 
5.746020338390e-04 1.194556731086e-02 0.0 
6.712035254251e-04 1.195725570996e-02 0.0 
7.683406432707e-04 1.196685321557e-02 0.0 
8.663239762695e-04 1.197273573787e-02 0.0 
9.655605010942e-04 1.197262905786e-02 0.0 
1.066703873935e-03 1.196360814261e-02 0.0 
1.170571073392e-03 1.194217326415e-02 0.0 
1.278171566870e-03 1.190394536075e-02 0.0 
1.390753103227e-03 1.184362921028e-02 0.0 
1.509547171395e-03 1.175396763582e-02 0.0 
1.636538377589e-03 1.162763430601e-02 0.0 
1.771261521016e-03 1.145376548528e-02 0.0 
1.689870409925e-03 1.066407236336e-02 0.0 
1.552043715540e-03 1.077049651572e-02 0.0 
1.420340693423e-03 1.084579959642e-02 0.0 
1.296383497180e-03 1.089731446427e-02 0.0 
1.178799530693e-03 1.092995257662e-02 0.0 
1.066628614323e-03 1.094817965891e-02 0.0 
9.588720187941e-04 1.095561020342e-02 0.0 
8.546617791999e-04 1.095517620393e-02 0.0 
7.533608533078e-04 1.094963418750e-02 0.0 
6.545407205750e-04 1.094093979211e-02 0.0 
5.575158447803e-04 1.093018258406e-02 0.0 
4.620498394459e-04 1.091901710201e-02 0.0 
3.678094849669e-04 1.090800090047e-02 0.0 
2.746162591343e-04 1.089804877627e-02 0.0 
1.824532647685e-04 1.089018493692e-02 0.0 
9.114368608934e-05 1.088520729964e-02 0.0 
-1.458816124813e-03 3.633596208583e-03 0.0 
-1.019271238868e-03 5.003087729375e-03 0.0 
-5.430302243409e-04 7.692283388470e-03 0.0 
9.799894493861e-05 1.059412195682e-02 0.0 
1.012437686876e-03 1.172437858007e-02 0.0 
1.557876080860e-03 1.204079633126e-02 0.0 
1.833098706295e-03 1.192417884366e-02 0.0 
1.924553147852e-03 1.150794336465e-02 0.0 
1.891720329655e-03 1.088435203821e-02 0.0 
1.770516926611e-03 1.011766056940e-02 0.0 
-3.254523794705e-04 5.077941456115e-03 0.0 
4.626621419977e-04 1.707332241197e-04 0.0 
-1.506824620929e-04 -3.540234030748e-04 0.0 
-6.089253486598e-04 7.253418360261e-04 0.0 
2.977841127674e-04 7.297400611534e-05 0.0 
1.223494572387e-03 9.798538756878e-03 0.0 
9.577576044908e-05 -3.969228919485e-04 0.0 
5.750155886885e-04 2.978890473189e-04 0.0 
2.034931242048e-03 1.109106284363e-02 0.0 
5.942220989006e-04 4.408601069158e-04 0.0 
2.136725289538e-03 1.056719980070e-02 0.0 
1.647477422883e-04 3.100310877746e-05 0.0 
-1.365067715341e-06 -6.625077238113e-04 0.0 
5.397657760560e-04 5.994520514548e-04 0.0 
1.840520331870e-03 9.180343170614e-03 0.0 
6.391257774418e-05 -6.348517667283e-04 0.0 
1.003102804768e-04 -2.092119948660e-04 0.0 
4.672937125144e-04 7.163488715325e-04 0.0 
3.076328786151e-04 7.578010107948e-04 0.0 
8.315897159950e-05 8.113164528877e-04 0.0 
1.561780676669e-04 8.734799199908e-04 0.0 
2.122245740067e-04 7.684466377529e-04 0.0 
1.478534081737e-03 8.911032174412e-03 0.0 
9.514640221170e-04 9.012689926104e-03 0.0 
6.182018482891e-04 8.979416446122e-03 0.0 
5.705164007451e-05 5.340661823762e-03 0.0 
9.986775799516e-05 1.705476469392e-05 0.0 
-1.005569855075e-03 2.123282217215e-03 0.0 
2.136172941085e-05 -7.454534398961e-04 0.0 
6.974250431420e-05 -4.283841856484e-05 0.0 
3.158567567564e-04 9.020664166518e-03 0.0 
3.454022678639e-05 -7.406838744972e-04 0.0 
4.319622100106e-04 8.428843092724e-04 0.0 
5.504015872611e-04 3.393431336037e-04 0.0 
5.708879839495e-04 5.162463388426e-04 0.0 
5.588355341018e-04 2.458723663877e-04 0.0 
3.768293356500e-04 1.174143125918e-04 0.0 
-3.780327487410e-04 1.513319072563e-04 0.0 
1.200931003799e-03 9.043564922829e-03 0.0 
2.678954691305e-04 5.562062767672e-05 0.0 
4.269652124583e-05 3.419033420368e-03 0.0 
-5.561767430473e-05 -5.443621913715e-04 0.0 
8.448320811433e-05 -5.279869362129e-04 0.0 
4.173561985147e-05 6.591783099283e-04 0.0 
1.756505751733e-03 1.072770431121e-02 0.0 
3.895640311027e-04 7.460287713879e-03 0.0 
2.151333000341e-03 1.097763585596e-02 0.0 
2.023418281050e-03 9.947228004421e-03 0.0 
-9.877827794544e-04 3.602392187928e-03 0.0 
7.035130390590e-05 7.237555533308e-03 0.0 
4.507356296903e-05 9.242144395779e-06 0.0 
1.184849271716e-05 -7.688072395119e-04 0.0 
2.306795995846e-05 1.502867125573e-03 0.0 
1.755843203086e-03 8.735205500696e-03 0.0 
1.881000714743e-03 8.228644791647e-03 0.0 
1.719877088525e-03 7.872622124531e-03 0.0 
1.866107497974e-03 7.290640029844e-03 0.0 
1.708446940606e-03 6.845333581253e-03 0.0 
1.816552116873e-03 6.332720102560e-03 0.0 
1.993547818501e-03 6.744927384477e-03 0.0 
1.915081334586e-03 5.809836963700e-03 0.0 
2.108159486685e-03 6.196713976189e-03 0.0 
1.634967504856e-03 5.883671675455e-03 0.0 
1.996864767504e-03 5.280700390045e-03 0.0 
2.204967583618e-03 5.639836571093e-03 0.0 
2.058149174171e-03 4.751194325787e-03 0.0 
2.278373782952e-03 5.079620907192e-03 0.0 
2.405062949714e-03 5.958995669418e-03 0.0 
2.489395554479e-03 5.367429696871e-03 0.0 
2.593024058076e-03 6.228671816624e-03 0.0 
2.686321730490e-03 5.600334485551e-03 0.0 
2.543725422970e-03 4.782892987135e-03 0.0 
2.746249972799e-03 4.981887781467e-03 0.0 
2.865117606877e-03 5.771944043832e-03 0.0 
2.926935670139e-03 5.116471405311e-03 0.0 
3.020797700563e-03 5.872688731255e-03 0.0 
3.080428184034e-03 5.176837200600e-03 0.0 
3.149216720852e-03 5.893902045719e-03 0.0 
3.201918482363e-03 5.159326586213e-03 0.0 
3.096719083403e-03 4.511270226312e-03 0.0 
3.208584439622e-03 4.466141158355e-03 0.0 
3.284158138242e-03 5.058926585290e-03 0.0 
3.277551063975e-03 4.343403762896e-03 0.0 
3.320056280142e-03 4.873326882763e-03 0.0 
3.297412638171e-03 4.144186941727e-03 0.0 
3.227062421490e-03 3.689440958052e-03 0.0 
3.233055032223e-03 3.490242553459e-03 0.0 
3.262895534667e-03 3.874755005788e-03 0.0 
3.186137227780e-03 3.234709289796e-03 0.0 
3.170847972185e-03 3.547357071981e-03 0.0 
3.086082575468e-03 2.934566471672e-03 0.0 
3.022220570806e-03 3.177181811082e-03 0.0 
2.934792461662e-03 2.601573313413e-03 0.0 
2.975871740589e-03 2.405456075827e-03 0.0 
2.826517289260e-03 2.108813241882e-03 0.0 
2.737954647408e-03 2.251677995054e-03 0.0 
2.638181143514e-03 1.802198117848e-03 0.0 
2.700642418902e-03 1.692744154805e-03 0.0 
2.522753868975e-03 1.425765146683e-03 0.0 
2.560054036386e-03 1.344063472499e-03 0.0 
2.394080567606e-03 1.112523250136e-03 0.0 
2.320517125097e-03 1.162495135813e-03 0.0 
2.206392678659e-03 8.843717567615e-04 0.0 
2.254692656664e-03 8.543809848752e-04 0.0 
2.080979000860e-03 6.567564844925e-04 0.0 
2.002613100329e-03 6.643088036721e-04 0.0 
1.894559579006e-03 4.675223914638e-04 0.0 
1.947895151606e-03 4.736095522434e-04 0.0 
1.776520068475e-03 3.097154222918e-04 0.0 
1.700719380063e-03 2.896556085761e-04 0.0 
1.598968215221e-03 1.562652576900e-04 0.0 
1.652552391392e-03 1.865527252026e-04 0.0 
1.488890236313e-03 5.274832123401e-05 0.0 
1.418850883517e-03 1.436109947664e-05 0.0 
1.323932558446e-03 -7.007657402901e-05 0.0 
1.373423106154e-03 -2.466227499058e-05 0.0 
1.221358662464e-03 -1.324588394730e-04 0.0 
1.252692296952e-03 -8.122915192037e-05 0.0 
1.157904036775e-03 -1.834146174470e-04 0.0 
1.069453000490e-03 -2.311103923724e-04 0.0 
9.958830370211e-04 -2.852943739840e-04 0.0 
9.208818839535e-04 -3.200553228339e-04 0.0 
3.138082667484e-03 3.101807093474e-03 0.0 
8.433888589065e-04 -3.740747460034e-04 0.0 
8.995494733328e-04 -3.336511004455e-04 0.0 
7.789257040387e-04 -3.989079381377e-04 0.0 
8.375204963806e-04 -3.411481181422e-04 0.0 
7.004893210756e-04 -4.515741752190e-04 0.0 
6.453429038068e-04 -4.680797034377e-04 0.0 
5.691445053317e-04 -5.181920814499e-04 0.0 
3.077675257539e-03 3.856420362067e-03 0.0 
2.563590442669e-03 4.212543227504e-03 0.0 
5.219350438141e-04 -5.279947614681e-04 0.0 
4.508702763472e-04 -5.746144867631e-04 0.0 
4.796776562912e-04 -5.603495102127e-04 0.0 
3.700917407753e-04 -6.126094203599e-04 0.0 
1.539517131249e-03 6.388827996343e-03 0.0 
1.449816337303e-03 5.414879584281e-03 0.0 
1.370362066174e-03 5.911596287958e-03 0.0 
1.263838426825e-03 4.934341403172e-03 0.0 
1.199891971792e-03 5.414598262896e-03 0.0 
3.463946627877e-04 -6.218480262241e-04 0.0 
1.831624379470e-03 4.361418629301e-03 0.0 
1.315305155825e-03 4.445373777505e-03 0.0 
2.919689278867e-03 6.587666109613e-03 0.0 
3.294295031890e-03 5.670913986322e-03 0.0 
2.695758591290e-03 1.570503210703e-03 0.0 
5.805414075343e-04 -4.741372746899e-04 0.0 
4.643973550960e-04 -5.288385681525e-04 0.0 
5.073451058594e-04 -4.717225090806e-04 0.0 
1.387561056747e-03 1.977466142157e-05 0.0 
1.250438243335e-03 -3.209989783866e-05 0.0 
1.364065609699e-03 6.021264476379e-05 0.0 
1.213652560747e-03 1.256884624310e-05 0.0 
1.302188878145e-03 9.423998940024e-05 0.0 
1.142020757745e-03 5.044572080703e-05 0.0 
1.065242145745e-03 -2.036430804499e-05 0.0 
9.866980978372e-04 2.011847446500e-05 0.0 
9.204125741707e-04 -4.143340101965e-05 0.0 
1.201935110593e-03 1.194839466295e-04 0.0 
1.373976976067e-03 1.747024146968e-04 0.0 
8.377710893184e-04 4.214502166462e-07 0.0 
7.806478974935e-04 -5.318728651037e-05 0.0 
6.967006661723e-04 -1.116775760758e-05 0.0 
6.474529824670e-04 -5.773355401574e-05 0.0 
7.095336054343e-04 -1.080595789365e-04 0.0 
5.836711184392e-04 -1.060831762430e-04 0.0 
6.276082978065e-04 -1.628265092800e-04 0.0 
2.533098961068e-03 1.249883298563e-03 0.0 
2.625610195366e-03 1.435255724935e-03 0.0 
2.443251487650e-03 1.143279023381e-03 0.0 
2.490868189682e-03 1.286684605941e-03 0.0 
2.291212915854e-03 1.024076412763e-03 0.0 
2.292387278834e-03 1.125456821180e-03 0.0 
2.077165909940e-03 8.924102398499e-04 0.0 
2.083997279933e-03 8.076856420180e-04 0.0 
2.096786174448e-03 4.218400797177e-03 0.0 
2.505147830718e-03 1.898460414578e-03 0.0 
2.573543502134e-03 2.378877896394e-03 0.0 
2.297952537146e-03 1.982391655300e-03 0.0 
2.327859361293e-03 2.488511565487e-03 0.0 
2.013405770512e-03 2.053832963715e-03 0.0 
1.995384268903e-03 2.583057029563e-03 0.0 
1.648894822659e-03 2.117936596403e-03 0.0 
1.696051007568e-03 1.652304944395e-03 0.0 
1.314836039587e-03 1.698198441701e-03 0.0 
1.388084487288e-03 1.289005181959e-03 0.0 
1.004986910993e-03 1.323713470017e-03 0.0 
1.097896462626e-03 9.656497953993e-04 0.0 
3.070028922493e-03 3.887146250111e-03 0.0 
2.497891986285e-03 1.406471135888e-03 0.0 
2.251478610564e-03 1.199538967951e-03 0.0 
2.460591616151e-03 1.494166739967e-03 0.0 
3.802600534533e-04 -5.932606177322e-04 0.0 
5.220541409792e-04 -5.673350502660e-05 0.0 
1.240768848833e-03 1.841334143033e-04 0.0 
1.425176882476e-03 2.507804177532e-04 0.0 
1.856568325376e-03 7.007847390623e-04 0.0 
2.761929778774e-04 -6.552335211342e-04 0.0 
1.573190013137e-03 2.668819204115e-03 0.0 
1.948306343494e-03 3.209626043668e-03 0.0 
1.081474056609e-03 4.434770491601e-03 0.0 
1.032847159377e-03 4.904502970468e-03 0.0 
1.254173684912e-03 2.412794210835e-04 0.0 
2.560504681729e-04 -6.610260594276e-04 0.0 
8.773128642422e-04 5.091602491016e-05 0.0 
8.742496766624e-04 1.752013468487e-03 0.0 
4.641412421625e-04 -9.926807830573e-05 0.0 
4.056059075351e-04 -5.155719113579e-05 0.0 
9.756172396827e-04 -9.074152932863e-05 0.0 
2.165667375681e-03 1.239815670519e-03 0.0 
2.382225613961e-03 1.547299257513e-03 0.0 
1.433155938666e-03 9.473177355584e-04 0.0 
1.160735138159e-03 6.679138450970e-04 0.0 
8.318065113025e-04 6.810649370872e-04 0.0 
9.184546426960e-04 4.151763752807e-04 0.0 
1.198592007982e-03 4.210466308086e-04 0.0 
9.644901387270e-04 2.094322818559e-04 0.0 
6.943289411761e-04 2.026846560356e-04 0.0 
7.528283142489e-04 2.622844666478e-05 0.0 
9.902582538682e-04 4.097555635598e-05 0.0 
7.911767287493e-04 -1.159133315582e-04 0.0 
5.649746886550e-04 -1.286900973381e-04 0.0 
6.141035871425e-04 -2.488165885063e-04 0.0 
4.435135230606e-04 -1.717183840920e-05 0.0 
5.767334827161e-04 1.370025995345e-03 0.0 
2.471272479809e-03 6.855619150080e-03 0.0 
1.066503734609e-03 1.809806803135e-04 0.0 
1.805631340179e-03 7.513055532881e-04 0.0 
9.054195744260e-04 3.924213934859e-03 0.0 
8.713657637524e-04 4.384850448299e-03 0.0 
9.739299094431e-04 5.376290519569e-03 0.0 
8.259802247133e-04 4.845753860896e-03 0.0 
7.178016485293e-04 3.858209251564e-03 0.0 
6.854968059584e-04 4.312234739523e-03 0.0 
7.719676227450e-04 5.306532196759e-03 0.0 
6.432607146586e-04 4.765931486682e-03 0.0 
7.112442425324e-04 5.765218078949e-03 0.0 
5.930786763905e-04 5.218285029055e-03 0.0 
5.227576956252e-04 4.223668494420e-03 0.0 
4.823685860374e-04 4.672001050397e-03 0.0 
5.367052799591e-04 5.669824208634e-03 0.0 
4.346126563111e-04 5.119924361595e-03 0.0 
4.754623574446e-04 6.119768935854e-03 0.0 
3.807217417685e-04 5.567194558981e-03 0.0 
3.404763233387e-04 4.571882796816e-03 0.0 
2.009394094286e-04 -6.885657731918e-04 0.0 
1.873051016405e-03 6.316339993836e-04 0.0 
1.634133246475e-03 5.454695950158e-04 0.0 
4.008676509868e-04 -5.217118251398e-04 0.0 
4.304818944372e-04 -4.614880926137e-04 0.0 
5.377548169320e-04 -4.094014040060e-04 0.0 
4.454908936831e-04 -3.982150174692e-04 0.0 
2.920449536830e-04 5.021300122742e-03 0.0 
2.555719532759e-04 4.027295990627e-03 0.0 
1.466421552617e-03 3.319620689470e-03 0.0 
1.870262067287e-03 3.953656155998e-03 0.0 
9.251329262244e-04 3.464506525591e-03 0.0 
3.520476059300e-04 -8.906066255597e-05 0.0 
3.941425238886e-04 -1.430829387164e-04 0.0 
3.295822456878e-03 5.414325549262e-03 0.0 
3.234802206851e-03 6.298132086966e-03 0.0 
3.199681525157e-03 5.968020104195e-03 0.0 
3.094598829110e-03 6.957129919516e-03 0.0 
3.114179098705e-03 7.238794959647e-03 0.0 
3.016339531326e-03 6.541326556469e-03 0.0 
1.551110842842e-03 2.478521561610e-04 0.0 
4.120831646052e-04 3.682326907229e-03 0.0 
4.949930753089e-04 -5.343712122255e-04 0.0 
3.749704954536e-04 -5.620544717534e-04 0.0 
2.992519947797e-04 -4.400191439056e-05 0.0 
2.053972971654e-03 7.042186195873e-04 0.0 
2.927917907062e-03 3.880184441923e-03 0.0 
2.867809550417e-03 3.317745370991e-03 0.0 
2.694104694726e-03 3.261726604103e-03 0.0 
2.600270665217e-03 2.757876094211e-03 0.0 
2.393596264673e-03 2.655021363131e-03 0.0 
2.264045184158e-03 2.208132594436e-03 0.0 
2.470346987771e-03 2.299350485958e-03 0.0 
2.032022921971e-03 1.238745360202e-03 0.0 
2.099782901872e-03 1.803512465609e-03 0.0 
3.269370827888e-04 6.023395478864e-03 0.0 
2.690871357559e-03 1.740926107830e-03 0.0 
9.953281061478e-04 -9.245773923073e-05 0.0 
2.069553964370e-04 -6.770042754795e-04 0.0 
3.980449166636e-04 -2.581972622844e-04 0.0 
1.805126433522e-04 -6.920341441061e-04 0.0 
2.238806589689e-04 -6.589494420386e-04 0.0 
1.039624278027e-03 2.177508086046e-04 0.0 
2.022824493852e-03 2.059571937463e-03 0.0 
2.155547133929e-03 2.493193969092e-03 0.0 
2.922117017124e-03 8.008760632628e-03 0.0 
2.933975940537e-03 8.209091397306e-03 0.0 
1.801642849814e-03 9.755396414055e-04 0.0 
1.281337564811e-03 6.412669474806e-03 0.0 
8.351507640260e-04 6.311241313812e-03 0.0 
7.590675919763e-04 6.772553471977e-03 0.0 
1.361003596667e-04 -7.161532515291e-04 0.0 
3.296721753998e-04 -1.277694008510e-04 0.0 
5.748111285280e-04 3.328788675174e-03 0.0 
2.308809122763e-03 3.798563363022e-03 0.0 
2.255923788840e-03 4.641420884617e-03 0.0 
3.879205019221e-04 1.817591552201e-03 0.0 
1.153901293031e-04 1.430804288632e-03 0.0 
2.156343803949e-04 4.463624293419e-03 0.0 
1.825205521752e-04 3.484243532906e-03 0.0 
5.530458548213e-04 -3.444863423513e-04 0.0 
4.509735997942e-04 -3.319745305719e-04 0.0 
1.237620673106e-03 2.876009551888e-04 0.0 
4.605511874733e-04 -3.604273518096e-04 0.0 
2.087467757071e-04 3.043793180872e-03 0.0 
1.853431460785e-03 5.444699706466e-04 0.0 
1.991196213478e-03 5.871843828872e-04 0.0 
3.401873626131e-04 -4.480944165161e-04 0.0 
1.316095670735e-03 4.085767082875e-03 0.0 
8.994658677816e-04 3.427116385607e-03 0.0 
1.199672909076e-03 6.404333744800e-05 0.0 
6.412171877904e-04 -3.417378823875e-04 0.0 
1.504868571554e-04 -6.887670510985e-04 0.0 
9.783566775895e-04 2.399328005548e-04 0.0 
5.821566418933e-04 2.882595944835e-03 0.0 
2.307122153737e-03 1.892554357724e-03 0.0 
2.637399816113e-03 2.338457167049e-03 0.0 
1.905438574816e-03 1.446003115208e-03 0.0 
2.716803583547e-04 -3.666826372053e-04 0.0 
8.518661751638e-04 1.630426540426e-04 0.0 
2.486655539892e-04 -7.642970706409e-05 0.0 
1.769003849468e-03 1.888537865742e-03 0.0 
1.889999647460e-03 2.279211267691e-03 0.0 
2.628555026476e-03 4.409056957282e-03 0.0 
2.593679821620e-03 5.349402944287e-03 0.0 
2.167679573246e-03 5.662882964405e-03 0.0 
2.496271565303e-03 6.458171286794e-03 0.0 
2.163964437119e-03 7.130639682878e-03 0.0 
2.890864520454e-03 5.006327204595e-03 0.0 
2.634477225486e-03 7.109754543411e-03 0.0 
2.479700208696e-03 7.766859389848e-03 0.0 
2.613921486583e-03 8.008852434060e-03 0.0 
3.082881070565e-03 7.405095118144e-03 0.0 
2.898478206546e-03 8.300239697793e-03 0.0 
2.620231497933e-03 2.948717711667e-03 0.0 
2.795471931655e-03 1.784920958841e-03 0.0 
6.523557180582e-04 -3.511694784824e-04 0.0 
7.507913382564e-04 -1.647558824638e-04 0.0 
1.514822592843e-03 1.260883358721e-04 0.0 
4.337528982027e-04 3.238563821251e-03 0.0 
3.257337244208e-04 2.702507745407e-03 0.0 
5.760446172763e-04 6.674150940068e-03 0.0 
5.039215738549e-04 7.125125892835e-03 0.0 
2.752764705849e-04 -6.159954687223e-04 0.0 
2.511542234734e-04 -5.780195371281e-04 0.0 
1.128630026998e-03 -1.204996257683e-04 0.0 
8.884427570340e-04 1.354464883466e-04 0.0 
7.432092211436e-04 2.955653432730e-03 0.0 
7.298674277631e-04 2.507566475656e-03 0.0 
9.270753152052e-04 3.005767915742e-03 0.0 
1.186123627009e-03 3.193170733275e-04 0.0 
2.249467140846e-03 1.557774525745e-03 0.0 
2.359849172746e-03 9.840799039639e-04 0.0 
3.160299084319e-04 1.042100867492e-03 0.0 
3.093749609167e-03 3.238340650354e-03 0.0 
1.696846191599e-04 -6.275502853352e-04 0.0 
2.339689037399e-03 3.989383991375e-03 0.0 
2.045563530779e-04 -3.453401000214e-05 0.0 
2.366323626370e-04 -1.026877100253e-05 0.0 
1.618080340468e-03 9.301347375304e-04 0.0 
2.006503554869e-03 8.635789318848e-03 0.0 
2.979932314414e-03 2.712364452162e-03 0.0 
3.017033509267e-03 2.584020694738e-03 0.0 
2.430695975548e-03 8.686679805822e-03 0.0 
2.532207943341e-03 8.919840085113e-03 0.0 
2.729099395965e-03 8.187780517605e-03 0.0 
2.611338812567e-03 9.095075187451e-03 0.0 
1.171376738796e-03 -6.054779767652e-05 0.0 
9.809217695303e-04 -1.954844998439e-04 0.0 
1.561587557651e-03 1.460584703786e-03 0.0 
1.670296729338e-03 1.327110073163e-03 0.0 
1.486780041972e-03 1.653781192386e-03 0.0 
1.603016687180e-03 2.010197040763e-03 0.0 
1.367762314296e-03 7.031306951421e-04 0.0 
1.559067818959e-03 7.531520143420e-04 0.0 
1.805236886356e-04 -6.511697161040e-04 0.0 
2.705677672482e-03 9.158593342134e-03 0.0 
4.395910995830e-04 2.356807975830e-03 0.0 
2.311840288081e-03 8.405594021417e-03 0.0 
6.819122570259e-04 1.218456407194e-04 0.0 
7.226093607857e-04 9.998203089150e-05 0.0 
-1.172525639819e-04 1.102071456518e-03 0.0 
9.526477602897e-05 7.178591665909e-04 0.0 
1.417774391472e-04 2.527296568859e-03 0.0 
2.022024563113e-03 6.889469171982e-03 0.0 
2.311163257407e-03 7.723521780753e-03 0.0 
1.615136873259e-03 5.922846459416e-03 0.0 
3.116874356084e-05 7.823080759542e-06 0.0 
1.361740272670e-04 9.022229871321e-03 0.0 
1.533669626347e-04 -4.880578971905e-06 0.0 
3.009176067792e-03 7.467201857472e-03 0.0 
1.524173605503e-04 2.053268698552e-03 0.0 
2.837444467121e-03 2.255286231335e-03 0.0 
3.235984884544e-03 5.070221645520e-03 0.0 
1.444105863385e-03 3.780100034311e-04 0.0 
1.160421977594e-04 3.044974975794e-03 0.0 
8.482759320712e-05 1.973018584277e-03 0.0 
8.739831127430e-04 7.306147352998e-03 0.0 
7.887187505122e-04 7.785294960333e-03 0.0 
9.631053864152e-04 6.853729170950e-03 0.0 
7.119308062415e-04 2.260132342105e-03 0.0 
1.036655408337e-04 2.416560911305e-03 0.0 
3.127195854986e-04 3.142645728101e-03 0.0 
3.587007577664e-04 -5.762857107843e-04 0.0 
2.960451739052e-04 -5.620244573361e-04 0.0 
4.887136212817e-04 -4.367067158914e-04 0.0 
6.447413880865e-04 -4.114827808144e-04 0.0 
6.625676943976e-04 -2.866503307749e-04 0.0 
7.701030362495e-04 -2.874944553329e-04 0.0 
2.316479997552e-03 3.462192267708e-03 0.0 
2.071088014331e-03 3.217657445785e-03 0.0 
2.750594629310e-03 3.808570766183e-03 0.0 
1.802162512579e-03 4.453180986648e-04 0.0 
1.900812536673e-03 4.625698454151e-04 0.0 
2.075958566366e-03 6.203453547704e-04 0.0 
3.302719564814e-04 2.295264957043e-03 0.0 
2.186304657324e-04 1.685823970310e-03 0.0 
1.372630601051e-03 9.474072665288e-05 0.0 
1.416915070232e-03 2.441291316371e-04 0.0 
1.124656868391e-03 -1.573189574366e-04 0.0 
4.220902829302e-04 1.936596962076e-03 0.0 
1.692054492329e-04 9.489527776776e-06 0.0 
2.521288299381e-04 9.787839703236e-06 0.0 
1.316063281461e-04 -5.835799109453e-04 0.0 
2.122660017599e-04 -5.231159085639e-04 0.0 
6.801263257413e-04 4.198034886584e-03 0.0 
2.796938661938e-04 3.539971562212e-03 0.0 
7.049834126134e-04 2.099907244148e-03 0.0 
9.099411494936e-04 2.558771694628e-03 0.0 
4.967003761210e-04 1.569340660111e-03 0.0 
1.075856761776e-04 -6.822157374803e-04 0.0 
2.467952254087e-03 1.929270001810e-03 0.0 
9.021419208693e-04 2.547060223422e-04 0.0 
1.121035436286e-03 3.418749468990e-04 0.0 
6.586457372348e-04 1.736280233973e-04 0.0 
1.867028992810e-03 1.205920783592e-03 0.0 
1.411570838755e-03 8.524465564397e-04 0.0 
1.425249218131e-03 1.005234566921e-03 0.0 
-3.533810667812e-04 1.494324982431e-03 0.0 
6.392443863977e-05 2.372633146391e-03 0.0 
6.017228696183e-04 7.684284560803e-03 0.0 
-4.960363912000e-04 1.210824731149e-03 0.0 
5.202927167487e-04 8.171169258986e-03 0.0 
4.317978571931e-04 7.582021970035e-03 0.0 
4.510785042151e-04 8.653227666761e-03 0.0 
9.022073339287e-05 -7.128025098459e-04 0.0 
1.000575518767e-03 8.021293199936e-03 0.0 
1.102367668628e-03 7.432451043337e-03 0.0 
4.945544957475e-05 -5.198122019258e-04 0.0 
2.834006786575e-04 1.426647566739e-03 0.0 
7.720229991104e-05 -6.260833979237e-04 0.0 
1.125818313339e-04 -6.636330871655e-04 0.0 
5.218367541188e-04 8.738643087741e-05 0.0 
5.698642702176e-04 7.419913504642e-05 0.0 
3.800517735340e-04 6.390497056867e-05 0.0 
4.420601632750e-04 5.710044908736e-05 0.0 
5.938603109224e-04 5.143012604878e-05 0.0 
4.616865266376e-04 3.789837081456e-05 0.0 
7.093947685802e-04 8.332096911694e-03 0.0 
3.027135699065e-04 4.188276010385e-05 0.0 
3.417488480340e-04 2.927955429809e-05 0.0 
1.997930017269e-04 2.770104457855e-05 0.0 
2.381950643898e-03 9.847817129164e-03 0.0 
2.703400505206e-03 7.144205044100e-03 0.0 
2.485086495593e-03 8.400941555988e-03 0.0 
1.990059056925e-03 9.192011921993e-03 0.0 
1.083352631735e-03 1.232404220402e-03 0.0 
1.324257454228e-03 1.733072951087e-03 0.0 
1.548598856677e-04 -6.160643724489e-05 0.0 
1.770991842248e-04 -1.101613995093e-04 0.0 
3.577919893790e-04 8.112419945708e-03 0.0 
2.613221474069e-04 8.148912338582e-03 0.0 
2.825153002410e-04 7.231083782425e-03 0.0 
2.040435011380e-04 7.338026289208e-03 0.0 
2.181236988393e-04 6.439585066996e-03 0.0 
1.405506216174e-04 6.551396838396e-03 0.0 
1.646909280273e-04 5.655057312667e-03 0.0 
1.145651750143e-03 8.576215436424e-04 0.0 
1.349803293750e-03 7.195019609073e-03 0.0 
2.235772404128e-03 9.345886113292e-03 0.0 
1.107534628594e-03 5.127105052833e-04 0.0 
1.346237798736e-03 5.905717707548e-04 0.0 
2.677162337307e-03 9.170358462747e-03 0.0 
2.439377683627e-03 1.009132392010e-02 0.0 
5.653582232770e-04 1.220274514095e-04 0.0 
2.894772021075e-03 4.149027448629e-03 0.0 
2.131995834093e-04 8.986863626387e-04 0.0 
-1.130226345097e-03 2.686925522236e-03 0.0 
-5.489839022538e-04 2.392574961508e-03 0.0 
3.095460948194e-03 4.647424354521e-03 0.0 
2.825159901070e-03 8.291909568831e-03 0.0 
2.843444088329e-03 7.668691300682e-03 0.0 
2.629019087172e-03 8.813429790495e-03 0.0 
1.652182374922e-03 4.181121015154e-04 0.0 
1.497327862674e-04 -4.495065810424e-04 0.0 
1.135973900768e-03 4.992829953586e-03 0.0 
2.401391675687e-04 5.558576877749e-03 0.0 
3.944715873032e-04 5.049154935439e-03 0.0 
8.111855674554e-05 -8.622323472661e-05 0.0 
2.873506387588e-03 3.411470721353e-03 0.0 
3.151368694129e-03 6.637313456497e-03 0.0 
1.760572016519e-03 4.838132456274e-03 0.0 
2.861132007471e-03 6.008675375570e-03 0.0 
2.295679575994e-03 6.550229129118e-03 0.0 
2.022942497206e-03 7.692472834313e-03 0.0 
2.166678316137e-03 8.079691825507e-03 0.0 
2.818890512845e-03 2.785522002996e-03 0.0 
2.694957846320e-03 9.051974923797e-03 0.0 
2.328641620230e-03 1.000335518104e-02 0.0 
2.766987492329e-03 6.441756256138e-03 0.0 
1.134973792849e-03 3.492280325521e-03 0.0 
1.131439438413e-03 3.024688688839e-03 0.0 
8.752109929014e-04 2.143865569981e-03 0.0 
1.104565894893e-03 2.574191623852e-03 0.0 
1.362425573719e-03 3.480384760746e-03 0.0 
1.350618432815e-03 3.009003692105e-03 0.0 
1.051367128338e-03 2.144703659211e-03 0.0 
1.312462507262e-03 2.551864672072e-03 0.0 
8.878160806944e-04 1.557923691013e-03 0.0 
1.232327668008e-03 2.092850112458e-03 0.0 
1.579828836859e-03 2.956839997013e-03 0.0 
1.528053927069e-03 2.513995314497e-03 0.0 
1.175664439332e-03 1.774068305890e-03 0.0 
1.853726343577e-03 3.379000540505e-03 0.0 
8.749263490134e-04 4.294380059386e-04 0.0 
3.222206728892e-03 4.260878926700e-03 0.0 
-1.295941709272e-04 1.902318460960e-03 0.0 
-3.091543050544e-04 2.895530858729e-03 0.0 
3.048980950844e-03 6.656598901735e-03 0.0 
4.316448886050e-04 7.464317970342e-04 0.0 
3.503540471989e-04 7.680606956229e-04 0.0 
2.330721966654e-03 3.088427665745e-03 0.0 
5.573900628390e-04 5.560974262675e-04 0.0 
2.325365457718e-03 7.475384832177e-03 0.0 
1.207178523612e-03 2.185771237735e-03 0.0 
5.921359523423e-04 4.850373126871e-04 0.0 
1.349617905403e-03 3.958579249101e-03 0.0 
1.567729770448e-03 4.425508349705e-03 0.0 
1.516627725885e-03 4.921391723388e-03 0.0 
2.659404715410e-04 7.357575710517e-04 0.0 
1.049099832345e-03 6.386993177673e-03 0.0 
5.466767583623e-04 3.088926190375e-04 0.0 
2.679309325817e-03 1.601701652787e-03 0.0 
2.854062828141e-03 1.977424582037e-03 0.0 
2.948274433552e-03 2.197623299506e-03 0.0 
1.603579574070e-03 3.447632375937e-03 0.0 
4.877520281779e-04 1.947742319466e-04 0.0 
8.740143359958e-04 3.373234026054e-04 0.0 
8.158843105291e-04 2.871653129781e-04 0.0 
1.215175119972e-03 4.486399246729e-04 0.0 
4.222500367037e-04 1.440108564560e-04 0.0 
4.559119303165e-04 6.243626725554e-04 0.0 
4.621462251364e-04 5.668988378555e-04 0.0 
1.209067787863e-03 2.230586127863e-04 0.0 
1.444877050396e-03 4.313374105462e-04 0.0 
1.644001384391e-03 4.466085305383e-04 0.0 
1.690114658824e-03 6.665557981451e-04 0.0 
1.451042351608e-03 6.641790824038e-04 0.0 
1.714942163927e-03 9.347057760899e-04 0.0 
1.937920174166e-03 9.250938284193e-04 0.0 
1.716450319869e-03 1.261044811401e-03 0.0 
1.723223001787e-03 2.453334565782e-03 0.0 
3.446216658443e-04 9.978205997514e-05 0.0 
1.465559705964e-03 1.545033434348e-04 0.0 
1.630011748476e-03 2.346212638366e-04 0.0 
1.663220509543e-03 2.132993660333e-04 0.0 
7.477406829362e-04 -3.506277584233e-04 0.0 
8.744364979377e-04 -2.802088411367e-04 0.0 
8.879399569154e-04 -2.185380134246e-04 0.0 
6.246396269176e-04 -4.145656704957e-04 0.0 
2.769761750470e-03 2.803185321816e-03 0.0 
3.140390943707e-04 8.358935363284e-05 0.0 
2.178452908545e-03 7.655283417537e-04 0.0 
9.745828970301e-04 -2.623639345143e-04 0.0 
1.337171974418e-03 8.984785638030e-03 0.0 
1.407683372418e-03 8.084235854852e-03 0.0 
1.549495122416e-03 8.005865384732e-03 0.0 
1.447911390973e-03 7.049480778416e-03 0.0 
1.247780968666e-03 8.011038129487e-03 0.0 
5.534748914097e-04 -2.788918119632e-04 0.0 
4.442433697280e-04 -2.657304360241e-04 0.0 
3.469840615835e-04 -3.147981418483e-04 0.0 
3.359658871210e-04 -2.484114045233e-04 0.0 
2.428608117420e-04 -2.936875699322e-04 0.0 
2.508496571377e-04 -3.596278264226e-04 0.0 
2.276578112661e-04 -2.278707622620e-04 0.0 
1.410989731936e-04 -2.767941826576e-04 0.0 
1.071626494155e-03 9.039789780666e-03 0.0 
-4.797324257378e-04 4.132712776245e-04 0.0 
-1.632510442980e-04 2.484781487280e-04 0.0 
-1.145965794263e-04 1.846850069326e-05 0.0 
9.356819358908e-05 1.103283586906e-04 0.0 
9.390419001016e-05 3.512522253587e-04 0.0 
3.850882153029e-04 2.069844975557e-04 0.0 
3.572840779223e-04 4.755263706840e-04 0.0 
-2.240436111138e-04 5.415590881240e-04 0.0 
-2.894898913811e-04 -5.413846910125e-05 0.0 
-6.573499724248e-05 -1.639611652105e-04 0.0 
-2.136227193823e-04 -2.213008973688e-04 0.0 
-3.281386910180e-05 -3.067319241472e-04 0.0 
1.592021287500e-04 -2.541515646021e-04 0.0 
3.583244753868e-04 -5.148563360111e-04 0.0 
8.791582594216e-05 1.507529817320e-05 0.0 
9.128423491105e-05 -4.647711385299e-04 0.0 
1.728399461439e-04 -4.936767469201e-04 0.0 
1.592390887875e-04 -5.521357964475e-04 0.0 
2.562622520970e-04 -5.148675844750e-04 0.0 
1.762767816520e-04 -4.350545541269e-04 0.0 
7.519645544798e-05 -5.849427493381e-04 0.0 
1.413788120611e-04 -6.004252760456e-04 0.0 
1.813203244516e-05 -7.595679761295e-04 0.0 
3.169522933565e-05 -7.600101538278e-04 0.0 
1.378113375897e-05 -7.675929490703e-04 0.0 
3.877777933021e-05 -7.545580276412e-04 0.0 
6.175993817504e-05 -7.465653942541e-04 0.0 
4.498035260245e-05 -7.492061900083e-04 0.0 
5.526671189785e-05 -7.339734326237e-04 0.0 
2.006063743060e-05 -7.253882401648e-04 0.0 
6.205240530784e-05 -7.128840744519e-04 0.0 
1.052862341019e-04 -7.181550975670e-04 0.0 
1.263680551175e-05 -6.987477530262e-04 0.0 
5.240016555245e-05 4.356358066440e-03 0.0 
9.916366085413e-05 3.868312084640e-03 0.0 
2.701406214052e-04 6.096694148063e-05 0.0 
8.259147155632e-04 8.964278852136e-03 0.0 
-9.537087822562e-05 -4.610788020833e-04 0.0 
7.867052931925e-05 9.758362488227e-04 0.0 
1.216886508083e-04 8.068078357327e-04 0.0 
9.712073003792e-05 7.821609874618e-04 0.0 
5.122893646135e-05 -9.927773192235e-06 0.0 
8.313126360329e-05 1.973943986590e-06 0.0 
4.295585112629e-05 9.491300914034e-04 0.0 
6.039844019093e-04 -4.977234864161e-04 0.0 
8.161326243974e-04 1.749099686662e-03 0.0 
2.256720150526e-04 2.603364247611e-03 0.0 
1.075494767849e-03 2.755200520257e-03 0.0 
8.048900816194e-04 -3.120026080269e-04 0.0 
2.812243894221e-04 -1.278839202633e-04 0.0 
8.406312519794e-04 -1.033861836881e-04 0.0 
3.340869211210e-04 -1.449821686552e-05 0.0 
5.084031560443e-04 -1.550098979237e-04 0.0 
5.648333921388e-04 -1.648054615470e-05 0.0 
7.753774046864e-04 2.458185944251e-04 0.0 
1.211321064863e-04 -7.161371739592e-04 0.0 
6.454051301729e-04 6.221003934944e-03 0.0 
4.140600670598e-04 6.572847976361e-03 0.0 
3.805453114495e-04 4.127143779614e-03 0.0 
4.100196350537e-04 -5.793447799441e-04 0.0 
3.523302404913e-04 -3.780732503907e-04 0.0 
2.838564647461e-04 -6.405451294566e-04 0.0 
1.060889444513e-03 9.737316447794e-04 0.0 
2.778320939657e-03 7.309142218043e-03 0.0 
1.522042303209e-03 9.110863693630e-05 0.0 
7.055489068855e-04 -4.116419270777e-04 0.0 
7.451468436159e-04 -4.221038594232e-04 0.0 
8.084542294534e-04 -2.271402113288e-04 0.0 
3.302124720577e-03 4.604457231306e-03 0.0 
1.113955177584e-03 -1.755610604548e-04 0.0 
1.035885977718e-03 7.924805815566e-05 0.0 
2.889017872295e-04 3.584587528738e-03 0.0 
-1.280505826689e-05 -6.154582500528e-04 0.0 
1.063897042827e-03 1.339511273665e-04 0.0 
1.112731880067e-03 -6.786874191574e-05 0.0 
9.075566987321e-04 5.846674865055e-03 0.0 
2.030806579941e-03 9.529883439099e-04 0.0 
5.024528799436e-04 1.744748525765e-05 0.0 
5.544565919926e-04 3.777211292659e-03 0.0 
5.566512869810e-04 2.058275820598e-03 0.0 
1.190387658838e-03 6.917054455290e-03 0.0 
1.938843868761e-04 -6.594114851408e-04 0.0 
6.827983176019e-04 7.244856001954e-03 0.0 
7.810203252886e-04 1.784231451413e-04 0.0 
1.116570496440e-03 3.961756156530e-03 0.0 
3.105167114588e-04 -6.228779520908e-04 0.0 
2.407766258365e-03 1.054494290424e-03 0.0 
3.242921459039e-03 5.826835226377e-03 0.0 
1.943437184329e-03 9.575595473220e-03 0.0 
2.332832228499e-04 2.200893772664e-03 0.0 
3.134306762648e-03 2.914954417640e-03 0.0 
1.571119617736e-03 5.831195601039e-04 0.0 
2.251674657678e-03 9.017760324791e-04 0.0 
2.651820244557e-04 -6.158763382538e-04 0.0 
7.380266694515e-04 6.970428726192e-05 0.0 
2.844280790865e-03 1.952223343399e-03 0.0 
4.446023450094e-04 2.802702426371e-03 0.0 
2.487388838067e-03 3.142773119915e-03 0.0 
2.420600590345e-03 1.497772563821e-03 0.0 
7.379677031172e-04 3.406098541436e-03 0.0 
1.807772674344e-03 3.272881712324e-04 0.0 
1.939272599404e-03 9.818594822912e-04 0.0 
2.905632493182e-03 7.428365742315e-03 0.0 
2.947941515438e-03 4.482644507147e-03 0.0 
2.327024943675e-03 4.532335616186e-03 0.0 
3.171177665548e-03 3.823036087952e-03 0.0 
1.916606609749e-04 -1.678464482137e-04 0.0 
8.957162162192e-04 9.660459659727e-05 0.0 
7.259955816108e-04 1.002873928031e-03 0.0 
3.091344532282e-03 5.538624103652e-03 0.0 
1.126647583211e-03 5.898830198506e-03 0.0 
1.870287540078e-03 1.682147933885e-03 0.0 
3.119116032616e-04 1.833271117229e-03 0.0 
3.215872808679e-03 6.519223591658e-03 0.0 
7.283113419201e-04 3.203447208129e-05 0.0 
5.779701931439e-04 2.468434315789e-03 0.0 
1.002395698182e-03 -2.033312347415e-04 0.0 
4.408392390999e-05 -7.131397361392e-04 0.0 
5.268872542398e-04 2.856967543420e-03 0.0 
2.008084285863e-03 1.607879986219e-03 0.0 
3.079790925591e-03 2.679281615336e-03 0.0 
1.003080717478e-03 -1.453482237230e-04 0.0 
6.233309161145e-04 1.578662227965e-03 0.0 
5.898683777862e-04 1.987449171486e-05 0.0 
1.449043848327e-03 3.192820548038e-04 0.0 
-6.843573038395e-04 4.243279809327e-03 0.0 
2.133512268170e-03 9.000153654310e-03 0.0 
4.633357237144e-04 1.293805342545e-05 0.0 
2.245961142265e-03 8.160050767168e-04 0.0 
1.707356804454e-03 7.703380352842e-04 0.0 
1.520204200459e-04 -3.376059163617e-04 0.0 
1.093095782092e-03 9.062028810077e-04 0.0 
2.437449062553e-03 9.980078046563e-03 0.0 
3.496840214513e-04 9.883059702971e-06 0.0 
1.660638596618e-03 4.897286522086e-04 0.0 
2.638482860096e-03 3.616412105475e-03 0.0 
2.261589925186e-04 9.026884062594e-03 0.0 
2.213445468417e-04 2.389261069450e-05 0.0 
1.401663063636e-03 4.189361574798e-04 0.0 
3.002458040271e-03 3.311328381187e-03 0.0 
2.105800929029e-03 6.430814451192e-04 0.0 
2.094612241227e-03 1.027941088880e-02 0.0 
8.765991460583e-04 -1.591969904230e-04 0.0 
2.769342493732e-03 4.383897806170e-03 0.0 
2.280777405707e-04 7.252913167292e-04 0.0 
1.346157559807e-03 4.513263554910e-04 0.0 
1.718745979729e-03 5.397235029291e-03 0.0 
7.714967445852e-04 -2.248146691712e-04 0.0 
2.663878227703e-03 1.850771040472e-03 0.0 
8.317170843169e-05 -7.351020353804e-04 0.0 
2.317684580453e-03 9.616400592465e-03 0.0 
6.543027513920e-04 -2.231605603742e-04 0.0 
1.982393135789e-03 1.234641472063e-03 0.0 
1.950379721526e-03 4.728261308505e-04 0.0 
1.160409057287e-03 6.297969794319e-04 0.0 
5.385881212613e-04 -2.150935581431e-04 0.0 
2.184194438961e-03 1.202574758015e-03 0.0 
4.251412316982e-04 -2.022518791241e-04 0.0 
2.164980752538e-03 1.079435065407e-02 0.0 
1.783796443595e-03 4.865939924902e-03 0.0 
3.109273830837e-04 -1.861416066697e-04 0.0 
2.545625267428e-03 3.664695707028e-03 0.0 
1.270706741799e-04 -6.940772597959e-04 0.0 
2.898322038689e-03 2.789697640608e-03 0.0 
1.201934457442e-04 -2.253355645456e-05 0.0 
1.064234351780e-03 -2.321455465354e-04 0.0 
1.792321600523e-03 3.389289252569e-04 0.0 
1.597161985877e-03 3.930986403034e-03 0.0 
2.106237213070e-03 1.109248343563e-02 0.0 
1.728155048317e-03 3.425488598855e-04 0.0 
2.255219032122e-03 2.965744750942e-03 0.0 
2.760704143359e-03 2.326880165855e-03 0.0 
3.006516309735e-03 2.412041131083e-03 0.0 
1.613674041713e-03 3.364064975592e-04 0.0 
2.423208470647e-03 1.004403754416e-02 0.0 
6.233123877582e-04 -4.657061279790e-04 0.0 
4.981756288629e-04 -4.946310442397e-04 0.0 
2.101274735808e-03 9.080496683093e-04 0.0 
1.996894646399e-03 2.731860633794e-03 0.0 
7.419948499196e-05 -7.361401167718e-04 0.0 
1.854194116235e-03 3.852238777354e-03 0.0 
3.228197748707e-04 -4.502418080024e-04 0.0 
1.874015872014e-03 6.690915363399e-04 0.0 
2.246918897727e-03 1.546902210789e-03 0.0 
6.358555279668e-05 6.299345199633e-03 0.0 
1.794220289003e-03 4.591890897518e-04 0.0 
5.289419884551e-05 -6.779137319371e-04 0.0 
1.582111151672e-03 2.691279350320e-04 0.0 
2.866950868819e-03 2.133668771563e-03 0.0 
1.507209247579e-03 1.267960473905e-04 0.0 
1.313153756566e-03 -2.303201516026e-05 0.0 
1.556425003491e-04 1.674182243605e-03 0.0 
1.241153763244e-03 -1.143609520053e-04 0.0 
2.149665244615e-05 7.851841224225e-04 0.0 
3.627223209525e-05 1.111486747240e-05 0.0 
8.444240538592e-05 8.265008646865e-03 0.0 
1.827156736136e-03 1.118782659193e-02 0.0 
-8.668947954849e-04 1.573604431663e-03 0.0 
2.278991233630e-03 9.450170759541e-03 0.0 
9.474038203682e-04 -2.741085272998e-04 0.0 
2.105032644628e-03 3.714220422865e-03 0.0 
1.755108933173e-04 8.221708599410e-03 0.0 
7.797390626938e-04 -3.769636158170e-04 0.0 
8.522907607906e-04 1.305939648434e-03 0.0 
5.593419132893e-04 3.774680456336e-04 0.0 
1.128371847390e-04 4.792398218426e-03 0.0 
1.490306771591e-03 6.068698839456e-04 0.0 
2.583332865503e-03 1.907978543111e-03 0.0 
3.179134118186e-05 2.469611184572e-03 0.0 
5.279869688756e-04 9.125883880188e-03 0.0 
-2.515537674944e-06 -4.222858467955e-04 0.0 
9.211749153001e-05 -1.406936424837e-04 0.0 
1.372344825368e-03 1.058870463866e-02 0.0 
1.703339188753e-03 8.281947363997e-03 0.0 
8.354946739615e-04 6.025788847348e-03 0.0 
2.065099732124e-04 -6.081538354164e-04 0.0 
1.055004666086e-04 -8.724093542743e-05 0.0 
8.653656976117e-04 8.807937757746e-03 0.0 
9.493222514243e-04 3.999228233401e-04 0.0 
8.891434079771e-04 8.233856387117e-03 0.0 
2.116145328857e-03 1.545554678360e-03 0.0 
5.105309294158e-06 6.066983644669e-03 0.0 
3.977086832942e-04 1.583763264554e-03 0.0 
1.113755861092e-03 6.981933047922e-04 0.0 
1.863819714188e-04 3.604468431432e-05 0.0 
1.663780079117e-03 1.124448195182e-03 0.0 
-1.223222512800e-05 4.231327146876e-03 0.0 
1.319649445081e-03 7.298837873717e-03 0.0 
1.025584486246e-03 1.037760931137e-03 0.0 
1.517708051220e-04 4.008364251025e-03 0.0 
1.347956663449e-04 2.431109515820e-05 0.0 
1.127499278337e-03 8.306079138801e-03 0.0 
9.391399345983e-05 1.560573736452e-03 0.0 
4.887497126225e-04 7.366864309368e-04 0.0 
4.783728041301e-05 1.514775220706e-03 0.0 
1.805679942328e-03 2.896232868366e-03 0.0 
3.562884399167e-04 7.025774680937e-03 0.0 
1.598278561489e-03 7.234939025603e-03 0.0 
1.001061691161e-04 1.100721231188e-05 0.0 
7.332321662538e-04 1.405232381049e-03 0.0 
-3.715972278086e-04 3.479913878818e-03 0.0 
1.773728173248e-04 4.894646197179e-03 0.0 
3.460153163105e-04 -5.031635443235e-04 0.0 
-3.623365428388e-04 8.806803316505e-04 0.0 
4.671806428805e-04 9.260038134846e-05 0.0 
1.451005544274e-03 2.127014569391e-03 0.0 
1.678040290875e-04 1.768314194119e-05 0.0 
1.668640595665e-05 -7.580003831271e-04 0.0 
3.360579484287e-05 -5.818244047493e-04 0.0 
5.297266405319e-04 1.282417901534e-04 0.0 
8.892970802757e-04 1.102136425775e-03 0.0 
6.445769061394e-04 4.000747121828e-04 0.0 
1.308033927747e-04 6.269745343812e-04 0.0 
-7.805153956317e-04 2.991578467404e-03 0.0 
7.240267241425e-04 9.244283829846e-03 0.0 
5.848080118164e-05 -6.871369057397e-04 0.0 
1.066563854615e-04 1.893294925392e-05 0.0 
2.292800072017e-04 1.488287147640e-03 0.0 
2.460936277510e-04 -4.598182687020e-04 0.0 
1.611214981041e-03 8.765893088194e-03 0.0 
1.220775396940e-04 -6.461881499532e-04 0.0 
1.472867763227e-03 1.229769127824e-03 0.0 
1.149822125255e-04 -3.654147853834e-04 0.0 
1.550687192657e-04 1.406959673515e-03 0.0 
6.213230751131e-04 1.820109560842e-04 0.0 
4.895485241990e-04 1.348561322734e-03 0.0 
3.978477314557e-04 1.882199167639e-04 0.0 
-5.834648279842e-04 1.881669840470e-03 0.0 
9.725971760285e-04 6.551812651466e-04 0.0 
1.058545431817e-03 3.544456679936e-04 0.0 
3.952854988679e-04 9.157740790434e-03 0.0 
6.270101702139e-04 1.412137598920e-03 0.0 
2.189555421053e-04 -5.656062515146e-04 0.0 
1.567787913110e-04 -7.017928444458e-04 0.0 
9.059211473565e-06 6.953836572114e-04 0.0 
5.207886149713e-06 -7.723478947711e-04 0.0 
6.642128028952e-05 9.137664709171e-03 0.0 
1.408059901155e-05 8.035195767800e-06 0.0 
9.562243377860e-05 -7.317799050890e-04 0.0 
1.382740100751e-04 7.533887869567e-03 0.0 
8.098623518927e-04 1.107884499546e-03 0.0 
6.704270495322e-05 -3.285747004281e-04 0.0 
7.382218496413e-05 3.101015799684e-03 0.0 
2.827806970238e-04 5.125405614026e-06 0.0 
-7.950743944517e-04 1.099414430317e-03 0.0 
1.088695248264e-04 5.803158548001e-03 0.0 
9.855711576927e-04 5.637952686997e-04 0.0 
3.727298855749e-04 1.311575924729e-03 0.0 
2.838039418579e-04 6.478873038421e-03 0.0 
8.844882859438e-05 3.034313779457e-03 0.0 
1.139356305799e-03 1.567067603999e-03 0.0 
2.650104968955e-04 -4.090035733719e-04 0.0 
1.393468078374e-03 1.407937223668e-03 0.0 
1.199212875606e-03 4.836469360721e-04 0.0 
-1.190083576802e-03 3.185339253978e-03 0.0 
5.898510734222e-05 -2.626185517452e-04 0.0 
4.805936581278e-05 -6.556649029589e-04 0.0 
3.085613428779e-04 4.937999515701e-05 0.0 
1.768713170552e-04 -3.842627072518e-04 0.0 
-2.290546962540e-04 1.170719303431e-02 0.0 
7.100623823633e-05 1.643872413833e-02 0.0 
8.697894076154e-04 1.236893310966e-02 0.0 
5.445665784557e-05 1.542189541665e-02 0.0 
1.441510975214e-03 1.250188985547e-02 0.0 
4.901811529586e-05 1.441237976914e-02 0.0 
1.725686493812e-03 1.225989923916e-02 0.0 
4.739649839696e-05 1.340444970257e-02 0.0 
1.819971711900e-03 1.176410965889e-02 0.0 
4.641849788701e-05 1.239654629270e-02 0.0 
1.790765437758e-03 1.107782874926e-02 0.0 
4.573194653093e-05 1.138838052733e-02 0.0 
1.675028107924e-03 1.027701431918e-02 0.0 
4.506741630259e-05 1.037965174232e-02 0.0 

VECTORS node_materi_displacement float
0.0 7.697278289935e-02 0.0 
0.0 9.292071344459e-02 0.0 
0.0 0.0 0.0 
0.0 0.0 0.0 
0.0 7.713936803296e-02 0.0 
0.0 7.680847052032e-02 0.0 
0.0 7.600183403868e-02 0.0 
0.0 7.472874717728e-02 0.0 
0.0 7.298311018196e-02 0.0 
0.0 7.080807384051e-02 0.0 
0.0 6.822601986944e-02 0.0 
0.0 6.525016986959e-02 0.0 
0.0 6.189619658970e-02 0.0 
0.0 5.817038655277e-02 0.0 
0.0 5.406906302664e-02 0.0 
0.0 4.959349325037e-02 0.0 
0.0 4.474790847997e-02 0.0 
0.0 3.954274151616e-02 0.0 
0.0 3.394261889961e-02 0.0 
0.0 2.795001892864e-02 0.0 
0.0 2.156266430256e-02 0.0 
0.0 1.477218408197e-02 0.0 
0.0 7.578542215968e-03 0.0 
0.0 0.0 0.0 
0.0 0.0 0.0 
0.0 0.0 0.0 
0.0 0.0 0.0 
0.0 0.0 0.0 
0.0 0.0 0.0 
0.0 0.0 0.0 
0.0 0.0 0.0 
0.0 0.0 0.0 
0.0 0.0 0.0 
0.0 0.0 0.0 
0.0 0.0 0.0 
0.0 0.0 0.0 
0.0 0.0 0.0 
0.0 0.0 0.0 
0.0 0.0 0.0 
0.0 0.0 0.0 
0.0 0.0 0.0 
0.0 0.0 0.0 
0.0 0.0 0.0 
0.0 0.0 0.0 
0.0 0.0 0.0 
0.0 0.0 0.0 
0.0 0.0 0.0 
0.0 0.0 0.0 
0.0 0.0 0.0 
0.0 0.0 0.0 
0.0 0.0 0.0 
0.0 0.0 0.0 
0.0 0.0 0.0 
0.0 0.0 0.0 
0.0 0.0 0.0 
0.0 0.0 0.0 
0.0 0.0 0.0 
0.0 0.0 0.0 
0.0 0.0 0.0 
0.0 0.0 0.0 
0.0 0.0 0.0 
0.0 0.0 0.0 
0.0 0.0 0.0 
0.0 0.0 0.0 
0.0 0.0 0.0 
0.0 0.0 0.0 
0.0 0.0 0.0 
0.0 0.0 0.0 
0.0 0.0 0.0 
0.0 0.0 0.0 
0.0 0.0 0.0 
0.0 0.0 0.0 
0.0 8.542271769137e-02 0.0 
0.0 7.750609016857e-02 0.0 
0.0 6.917239911633e-02 0.0 
0.0 6.043994065991e-02 0.0 
0.0 5.130681625261e-02 0.0 
0.0 4.178850990184e-02 0.0 
0.0 3.189098919794e-02 0.0 
0.0 2.162149121941e-02 0.0 
0.0 1.099024627016e-02 0.0 
-1.123164825711e-02 4.348397526560e-02 0.0 
9.467836838298e-03 9.028287704107e-02 0.0 
-4.281785516104e-03 6.642656579245e-02 0.0 
1.237238360490e-03 8.346416969551e-02 0.0 
5.244624998985e-03 9.605475839942e-02 0.0 
8.354955142849e-03 1.026434497675e-01 0.0 
1.022760283459e-02 1.053691954186e-01 0.0 
1.112776554883e-02 1.055558004554e-01 0.0 
1.134068717670e-02 1.037964784933e-01 0.0 
1.105860346183e-02 1.004885496591e-01 0.0 
1.040111330303e-02 9.590994863284e-02 0.0 
0.0 1.332401595007e-01 0.0 
0.0 1.287616600709e-01 0.0 
0.0 1.239006850248e-01 0.0 
0.0 1.185678561560e-01 0.0 
0.0 1.128275415277e-01 0.0 
0.0 1.066122445838e-01 0.0 
0.0 9.999582462532e-02 0.0 
5.271172819078e-04 9.292174935081e-02 0.0 
1.044292082305e-03 9.292304205354e-02 0.0 
1.573740203106e-03 9.292174669353e-02 0.0 
2.113014894226e-03 9.290946283636e-02 0.0 
2.662071051505e-03 9.289742312675e-02 0.0 
3.225128338322e-03 9.285850259062e-02 0.0 
3.808769222112e-03 9.280749736526e-02 0.0 
4.406037893357e-03 9.271995144769e-02 0.0 
5.036993211899e-03 9.260815432886e-02 0.0 
5.696186672462e-03 9.243543469696e-02 0.0 
6.381938259711e-03 9.220077464316e-02 0.0 
7.101031927592e-03 9.189164630580e-02 0.0 
7.852341565009e-03 9.148334841665e-02 0.0 
8.639242251807e-03 9.095089724867e-02 0.0 
-8.751436992512e-03 3.050556002766e-02 0.0 
-5.012267332938e-03 2.398607554800e-02 0.0 
-9.691120781000e-04 2.180313953656e-02 0.0 
3.307059757041e-03 2.412943324484e-02 0.0 
6.225531715122e-03 3.314613259008e-02 0.0 
7.654697197837e-03 4.375336162463e-02 0.0 
8.068462724092e-03 5.088263937277e-02 0.0 
7.976834693220e-03 5.643444678382e-02 0.0 
7.349532381072e-03 6.088446655237e-02 0.0 
6.727643302228e-03 6.445439522500e-02 0.0 
6.129632893665e-03 6.735835833436e-02 0.0 
5.475250508219e-03 6.967001793228e-02 0.0 
4.864496529738e-03 7.157662161329e-02 0.0 
4.141780716778e-03 7.312595144504e-02 0.0 
3.438290199316e-03 7.436840832229e-02 0.0 
2.770174398487e-03 7.532732101749e-02 0.0 
2.110863411741e-03 7.606604482598e-02 0.0 
1.447884617445e-03 7.660106608070e-02 0.0 
7.331827602754e-04 7.689452314264e-02 0.0 
3.863730675214e-03 1.039113633756e-01 0.0 
3.616669203055e-03 1.096545941316e-01 0.0 
3.518260615774e-03 1.142714692920e-01 0.0 
3.583087242835e-03 1.180159993630e-01 0.0 
3.718766118321e-03 1.210681721686e-01 0.0 
3.875688179244e-03 1.235610851092e-01 0.0 
4.022353256631e-03 1.255961724578e-01 0.0 
4.140842558113e-03 1.272526565205e-01 0.0 
4.220787872766e-03 1.285959597438e-01 0.0 
4.256656440661e-03 1.296786027139e-01 0.0 
4.245931059214e-03 1.305446973790e-01 0.0 
4.188344496759e-03 1.312310225371e-01 0.0 
4.085120325874e-03 1.317689128525e-01 0.0 
3.938545503991e-03 1.321848967027e-01 0.0 
3.751563178729e-03 1.325015052798e-01 0.0 
3.527512554198e-03 1.327378431145e-01 0.0 
3.269963491673e-03 1.329101302471e-01 0.0 
2.982644078293e-03 1.330321106740e-01 0.0 
2.669432510302e-03 1.331153885386e-01 0.0 
2.334413974330e-03 1.331697186541e-01 0.0 
1.982034701607e-03 1.332032465038e-01 0.0 
1.617385872628e-03 1.332226017427e-01 0.0 
1.246584727588e-03 1.332322836659e-01 0.0 
8.757473668311e-04 1.332304291473e-01 0.0 
4.637314788462e-04 1.332103955594e-01 0.0 
4.403350280246e-04 1.288002245545e-01 0.0 
8.718849401516e-04 1.287947721956e-01 0.0 
1.290068127598e-03 1.287965017097e-01 0.0 
1.698480260149e-03 1.287902991141e-01 0.0 
2.097739156157e-03 1.287745164428e-01 0.0 
2.486573909787e-03 1.287445167486e-01 0.0 
2.862915826458e-03 1.286934080387e-01 0.0 
3.224463142539e-03 1.286124573179e-01 0.0 
3.568981506020e-03 1.284910419831e-01 0.0 
3.894453898308e-03 1.283164420755e-01 0.0 
4.199201310311e-03 1.280735190034e-01 0.0 
4.482015864917e-03 1.277443131304e-01 0.0 
4.742362166866e-03 1.273075019023e-01 0.0 
4.980769754782e-03 1.267378593419e-01 0.0 
5.199059487244e-03 1.260054778355e-01 0.0 
5.401103726561e-03 1.250750669923e-01 0.0 
5.592948665081e-03 1.239042030817e-01 0.0 
5.785125595445e-03 1.224429945142e-01 0.0 
5.991190375256e-03 1.206283355443e-01 0.0 
6.235051568428e-03 1.183872673417e-01 0.0 
6.543193765373e-03 1.156134984842e-01 0.0 
6.971343846617e-03 1.122096926388e-01 0.0 
7.519377244220e-03 1.079838921968e-01 0.0 
9.422637611450e-03 1.091109723689e-01 0.0 
8.775303934747e-03 1.121564759876e-01 0.0 
8.189814344603e-03 1.146180653066e-01 0.0 
7.685748224619e-03 1.166325975986e-01 0.0 
7.232810320156e-03 1.182587943941e-01 0.0 
6.818504712414e-03 1.195733234566e-01 0.0 
6.427305418548e-03 1.206241606076e-01 0.0 
6.050175339505e-03 1.214591530454e-01 0.0 
5.679315217849e-03 1.221147026458e-01 0.0 
5.309519516181e-03 1.226232836937e-01 0.0 
4.936989852524e-03 1.230116518000e-01 0.0 
4.559513077586e-03 1.233029742817e-01 0.0 
4.175774270674e-03 1.235165894266e-01 0.0 
3.785122914112e-03 1.236688313563e-01 0.0 
3.387439783913e-03 1.237734936080e-01 0.0 
2.982988516778e-03 1.238421406681e-01 0.0 
2.572284745427e-03 1.238843728548e-01 0.0 
2.155788060456e-03 1.239078260194e-01 0.0 
1.733695961461e-03 1.239182102005e-01 0.0 
1.305862701245e-03 1.239190361535e-01 0.0 
8.725369300479e-04 1.239107814193e-01 0.0 
4.362289438161e-04 1.238771970709e-01 0.0 
4.633980649776e-04 1.186016243004e-01 0.0 
9.286043783568e-04 1.185917157063e-01 0.0 
1.393403252454e-03 1.185978388003e-01 0.0 
1.857027122263e-03 1.185981084823e-01 0.0 
2.319646604239e-03 1.185884250267e-01 0.0 
2.781853598229e-03 1.185644264963e-01 0.0 
3.244374000232e-03 1.185198856019e-01 0.0 
3.707830317078e-03 1.184466375234e-01 0.0 
4.173007161910e-03 1.183340582525e-01 0.0 
4.641126402560e-03 1.181693242369e-01 0.0 
5.113953445177e-03 1.179370438138e-01 0.0 
5.593738681471e-03 1.176190592266e-01 0.0 
6.083368496402e-03 1.171937927331e-01 0.0 
6.586513718561e-03 1.166346646141e-01 0.0 
7.109536440992e-03 1.159116858847e-01 0.0 
7.658202240318e-03 1.149877384022e-01 0.0 
8.243707439820e-03 1.138236244767e-01 0.0 
8.870837096022e-03 1.123610898594e-01 0.0 
9.561397679249e-03 1.105580078525e-01 0.0 
1.029393977557e-02 1.083150259966e-01 0.0 
1.051664818907e-02 1.057381781490e-01 0.0 
9.761494208706e-03 1.073293365899e-01 0.0 
9.029656220410e-03 1.085998993277e-01 0.0 
8.347711121817e-03 1.096324062897e-01 0.0 
7.701674094303e-03 1.104470619792e-01 0.0 
7.089659487210e-03 1.110895828589e-01 0.0 
6.503474966592e-03 1.115848822585e-01 0.0 
5.939808919687e-03 1.119632227614e-01 0.0 
5.394995382701e-03 1.122468143972e-01 0.0 
4.866086667327e-03 1.124543288050e-01 0.0 
4.350251464410e-03 1.126015434233e-01 0.0 
3.844724830257e-03 1.127021267958e-01 0.0 
3.347942004566e-03 1.127678033888e-01 0.0 
2.858360312978e-03 1.128079517489e-01 0.0 
2.374421028027e-03 1.128293680819e-01 0.0 
1.894626288201e-03 1.128376548440e-01 0.0 
1.417993214508e-03 1.128369986128e-01 0.0 
9.437365911294e-04 1.128298775814e-01 0.0 
4.715185485917e-04 1.128002011722e-01 0.0 
5.012264464025e-04 1.066430172854e-01 0.0 
1.004153785364e-03 1.066297712624e-01 0.0 
1.509905002780e-03 1.066334868674e-01 0.0 
2.021358473780e-03 1.066314572137e-01 0.0 
2.539329142212e-03 1.066199630864e-01 0.0 
3.066651715695e-03 1.065933387105e-01 0.0 
3.604839184967e-03 1.065459678651e-01 0.0 
4.157426764782e-03 1.064701124413e-01 0.0 
4.724975052980e-03 1.063565892226e-01 0.0 
5.311255025795e-03 1.061901191818e-01 0.0 
5.920031197909e-03 1.059563792044e-01 0.0 
6.553787005276e-03 1.056390030769e-01 0.0 
7.216241920934e-03 1.052167641863e-01 0.0 
7.911660693271e-03 1.046666058534e-01 0.0 
8.639148007208e-03 1.039486269382e-01 0.0 
9.413735450647e-03 1.030475122035e-01 0.0 
1.020898889551e-02 1.019005945411e-01 0.0 
9.583053270043e-03 9.687178927558e-02 0.0 
8.810758917380e-03 9.765986455758e-02 0.0 
8.051164600097e-03 9.826000207296e-02 0.0 
7.331612485115e-03 9.873680188573e-02 0.0 
6.645783779906e-03 9.910355171509e-02 0.0 
5.989691245008e-03 9.938088014178e-02 0.0 
5.361486597517e-03 9.958852427466e-02 0.0 
4.758929375028e-03 9.973654759012e-02 0.0 
4.176539874900e-03 9.983610086077e-02 0.0 
3.615464863701e-03 9.990853695106e-02 0.0 
3.069326468753e-03 9.995229903545e-02 0.0 
2.538653748143e-03 9.997999316202e-02 0.0 
2.017349439892e-03 9.999109560795e-02 0.0 
1.506345692130e-03 9.999605127796e-02 0.0 
1.002739338170e-03 9.999125805648e-02 0.0 
4.987397137245e-04 9.996252216737e-02 0.0 
-7.392045246491e-03 5.639029111114e-02 0.0 
-1.399322575021e-03 7.545722455783e-02 0.0 
3.505922866666e-03 9.036357379158e-02 0.0 
7.033207031273e-03 9.993010405722e-02 0.0 
9.489485974288e-03 1.043691348734e-01 0.0 
1.079747705664e-02 1.057208009358e-01 0.0 
1.131875087029e-02 1.048848216435e-01 0.0 
1.126214124964e-02 1.023150971435e-01 0.0 
1.077946343680e-02 9.834190183033e-02 0.0 
9.970242988005e-03 9.321505885770e-02 0.0 
4.942461537534e-03 7.421746095837e-02 0.0 
1.504153114106e-03 6.345750323991e-03 0.0 
4.073792910920e-03 6.276697147644e-02 0.0 
4.237217887240e-04 3.027115310818e-02 0.0 
4.023881504014e-04 6.249370788729e-03 0.0 
1.085278427926e-02 9.617717132107e-02 0.0 
-2.165845366917e-04 5.602742212292e-02 0.0 
2.425060094823e-03 6.843411432321e-03 0.0 
1.262218408150e-02 1.007110065821e-01 0.0 
2.801341382742e-03 7.368722736942e-03 0.0 
1.213626541974e-02 9.656873100511e-02 0.0 
-4.446103445030e-05 5.896374171791e-03 0.0 
3.180534484214e-03 7.264675478720e-02 0.0 
2.692130979052e-03 8.223052937294e-03 0.0 
1.025027414675e-02 8.666358780757e-02 0.0 
-1.773333063081e-04 6.940705607800e-02 0.0 
-1.692761896512e-04 4.321227558082e-02 0.0 
2.411338619511e-03 9.046033377157e-03 0.0 
1.667107233848e-03 9.031487118372e-03 0.0 
5.051830232495e-04 9.396282101904e-03 0.0 
9.119991995029e-04 1.014263435820e-02 0.0 
1.198304297831e-03 8.991479820426e-03 0.0 
8.307594662234e-03 8.464042593816e-02 0.0 
5.405994611184e-03 8.576161844902e-02 0.0 
3.529561508660e-03 8.589353764633e-02 0.0 
3.458143974312e-04 5.578393566205e-02 0.0 
-1.327639598433e-04 6.514154258161e-03 0.0 
-2.324069449158e-03 3.024534964214e-02 0.0 
1.810593289725e-03 7.583252357099e-02 0.0 
-1.041064315988e-04 2.527751396196e-02 0.0 
1.805190317890e-03 8.648542664223e-02 0.0 
7.151791873983e-05 7.535855988742e-02 0.0 
2.284247607945e-03 1.023363114479e-02 0.0 
2.485091986997e-03 6.538433879603e-03 0.0 
2.774418252447e-03 7.698254150791e-03 0.0 
2.144092048346e-03 6.949678106991e-03 0.0 
9.554832111533e-04 5.941491893200e-03 0.0 
2.649634646825e-03 4.731978984642e-02 0.0 
6.793490321699e-03 8.575985997302e-02 0.0 
1.330614187214e-04 7.209125825643e-03 0.0 
2.562228662788e-04 3.731083145227e-02 0.0 
3.838211234912e-03 6.861774470781e-02 0.0 
-2.267305247453e-04 6.354758639545e-02 0.0 
2.511583596196e-04 7.658741448525e-03 0.0 
1.217272108946e-02 9.953776139024e-02 0.0 
8.570510034060e-03 8.780246031054e-02 0.0 
1.259776726549e-02 9.950792495334e-02 0.0 
1.132596487721e-02 9.220838930026e-02 0.0 
-5.554884273435e-04 5.620536400217e-02 0.0 
4.181111959841e-04 7.239563727113e-02 0.0 
-7.222113304142e-05 5.201707683652e-03 0.0 
8.345145378035e-04 7.690735725794e-02 0.0 
1.392950870514e-04 1.715331261693e-02 0.0 
9.758422337999e-03 8.335849298757e-02 0.0 
1.035213695562e-02 7.967710192753e-02 0.0 
9.503184237680e-03 7.681776868698e-02 0.0 
1.018920403630e-02 7.240936953918e-02 0.0 
9.351853087031e-03 6.865486285605e-02 0.0 
9.839674996885e-03 6.459686264970e-02 0.0 
1.075836662765e-02 6.826600887947e-02 0.0 
1.025603724468e-02 6.043935642096e-02 0.0 
1.124230213806e-02 6.408999366363e-02 0.0 
8.900094393956e-03 6.057799238072e-02 0.0 
1.057155004336e-02 5.619796353079e-02 0.0 
1.161929175902e-02 5.981811949882e-02 0.0 
1.077097547002e-02 5.190751682408e-02 0.0 
1.186507478647e-02 5.547207240693e-02 0.0 
1.262633749420e-02 6.312069202418e-02 0.0 
1.291305558168e-02 5.873226465859e-02 0.0 
1.357617486929e-02 6.605456777001e-02 0.0 
1.389356786187e-02 6.159454318083e-02 0.0 
1.304037663729e-02 5.432702967982e-02 0.0 
1.403396352793e-02 5.713043085552e-02 0.0 
1.479295898342e-02 6.403868568343e-02 0.0 
1.492822405460e-02 5.949589328267e-02 0.0 
1.559421694954e-02 6.601774079815e-02 0.0 
1.570364395254e-02 6.136650329904e-02 0.0 
1.628719106092e-02 6.750230160664e-02 0.0 
1.634675966947e-02 6.273749101913e-02 0.0 
1.557796030393e-02 5.678736991722e-02 0.0 
1.614908486909e-02 5.809710222025e-02 0.0 
1.683205127313e-02 6.356913095567e-02 0.0 
1.653622787289e-02 5.887754171321e-02 0.0 
1.713434587281e-02 6.383489203127e-02 0.0 
1.671130718616e-02 5.911145398164e-02 0.0 
1.596927327738e-02 5.440894864006e-02 0.0 
1.600634076966e-02 5.469415611214e-02 0.0 
1.664459965940e-02 5.880285009797e-02 0.0 
1.578055228645e-02 5.449816663321e-02 0.0 
1.630355427204e-02 5.796747933031e-02 0.0 
1.526554392471e-02 5.385431109883e-02 0.0 
1.565849076820e-02 5.663651359582e-02 0.0 
1.443115523328e-02 5.281291051233e-02 0.0 
1.400611157521e-02 5.022337951864e-02 0.0 
1.301491845819e-02 4.955007125680e-02 0.0 
1.325967112905e-02 5.146574489713e-02 0.0 
1.170954882737e-02 4.869949514266e-02 0.0 
1.149726889508e-02 4.683879764814e-02 0.0 
1.011722352682e-02 4.652791373056e-02 0.0 
9.951618039209e-03 4.460754961341e-02 0.0 
8.556143236578e-03 4.483966049662e-02 0.0 
8.500297262034e-03 4.626226469341e-02 0.0 
6.977683608536e-03 4.517682078229e-02 0.0 
7.083630748254e-03 4.351205013798e-02 0.0 
5.589833562034e-03 4.441078289111e-02 0.0 
5.272164338316e-03 4.575439855204e-02 0.0 
4.042521377262e-03 4.553821364835e-02 0.0 
4.368761645703e-03 4.381416806849e-02 0.0 
2.989885711931e-03 4.541563879517e-02 0.0 
2.518579113869e-03 4.698134052844e-02 0.0 
1.679914305059e-03 4.727401835424e-02 0.0 
2.120955186715e-03 4.524462119335e-02 0.0 
1.006835229292e-03 4.745620895571e-02 0.0 
5.029852871683e-04 4.942202586900e-02 0.0 
4.635407654363e-05 4.985390786238e-02 0.0 
4.840709878129e-04 4.743537085021e-02 0.0 
-2.927774450341e-04 5.005110923339e-02 0.0 
8.068493911878e-05 4.720424324471e-02 0.0 
-7.334426634037e-04 5.248201841815e-02 0.0 
-8.936077752518e-04 5.278609292209e-02 0.0 
-1.288787262061e-03 5.526464237950e-02 0.0 
-1.299590532140e-03 5.559534182091e-02 0.0 
1.515646324567e-02 5.021044119039e-02 0.0 
-1.598174065742e-03 5.808371511489e-02 0.0 
-1.658815009035e-03 5.735206155207e-02 0.0 
-1.506555626249e-03 5.841124074860e-02 0.0 
-1.268033618499e-03 5.559887342885e-02 0.0 
-1.683004319656e-03 6.089442154829e-02 0.0 
-1.532315289514e-03 6.117179545123e-02 0.0 
-1.574356631416e-03 6.361933027563e-02 0.0 
1.661926091207e-02 6.114464521206e-02 0.0 
1.298860773929e-02 4.992962573914e-02 0.0 
-1.407881830583e-03 6.381504196295e-02 0.0 
-1.320384662303e-03 6.618655084220e-02 0.0 
-1.459076569443e-03 6.575393891671e-02 0.0 
-1.057166413336e-03 6.822463579901e-02 0.0 
8.472753146646e-03 6.473553169128e-02 0.0 
7.937676792370e-03 5.631596521906e-02 0.0 
7.582400760721e-03 6.055969015876e-02 0.0 
6.965163987565e-03 5.186704177724e-02 0.0 
6.679995940094e-03 5.611706694812e-02 0.0 
-9.800051915352e-04 6.853757052601e-02 0.0 
9.636198067466e-03 4.782559504201e-02 0.0 
7.170328673223e-03 4.748722699485e-02 0.0 
1.526305439200e-02 7.069631612569e-02 0.0 
1.724927002341e-02 6.879923583858e-02 0.0 
1.110866602831e-02 4.436836716804e-02 0.0 
-1.370025678756e-03 6.111142869240e-02 0.0 
-1.232873778082e-03 6.368620008578e-02 0.0 
-1.192676473580e-03 6.073788918568e-02 0.0 
8.246361933936e-04 4.454735048948e-02 0.0 
3.683744971164e-04 4.392602811293e-02 0.0 
1.052476297842e-03 4.118613737679e-02 0.0 
5.608592836925e-04 4.019840552144e-02 0.0 
1.164205049815e-03 3.734462239492e-02 0.0 
6.569677389272e-04 3.600670547711e-02 0.0 
1.827980177806e-04 3.901756876200e-02 0.0 
2.672841388301e-04 3.448493009983e-02 0.0 
-9.321570255650e-05 3.763064336387e-02 0.0 
1.165214132005e-03 3.301633994922e-02 0.0 
1.797119372581e-03 3.453478651282e-02 0.0 
-1.638836707003e-05 3.277414632597e-02 0.0 
-2.785762262067e-04 3.603113837256e-02 0.0 
-2.059265049610e-04 3.086641005321e-02 0.0 
-3.848762942533e-04 3.422221881394e-02 0.0 
-4.869119500126e-04 3.925895593905e-02 0.0 
-5.144186931280e-04 3.752906236615e-02 0.0 
-6.295103655674e-04 4.243706198527e-02 0.0 
9.604914710902e-03 4.206019277180e-02 0.0 
1.054284769548e-02 4.130106274555e-02 0.0 
9.077052262251e-03 3.890792292964e-02 0.0 
9.791677806103e-03 3.765296477599e-02 0.0 
8.366260091625e-03 3.516667621701e-02 0.0 
8.852986627331e-03 3.344005637270e-02 0.0 
7.471675273373e-03 3.084949954355e-02 0.0 
6.989441747929e-03 3.287476304720e-02 0.0 
1.084505199225e-02 4.753358206214e-02 0.0 
1.173907234703e-02 4.992762031734e-02 0.0 
1.331437822928e-02 5.279070439494e-02 0.0 
1.158044226989e-02 5.049742965769e-02 0.0 
1.316151115810e-02 5.350281080015e-02 0.0 
1.121911919302e-02 5.036567630697e-02 0.0 
1.278359488378e-02 5.359704576583e-02 0.0 
1.064770127321e-02 4.950113317423e-02 0.0 
8.893965067720e-03 4.729141122302e-02 0.0 
8.084123002131e-03 4.548052250966e-02 0.0 
6.238873395267e-03 4.461963612065e-02 0.0 
5.183778299980e-03 4.201566079739e-02 0.0 
3.410850575473e-03 4.273920633133e-02 0.0 
1.521537364113e-02 5.233777246105e-02 0.0 
1.025513756479e-02 3.622466855357e-02 0.0 
9.089584102992e-03 3.151630257685e-02 0.0 
1.044935466425e-02 3.455251734369e-02 0.0 
-1.119593865466e-03 6.757597831386e-02 0.0 
-4.246378355879e-04 3.220823363411e-02 0.0 
1.674129465900e-03 3.003822322034e-02 0.0 
2.417713762732e-03 3.179860058207e-02 0.0 
6.149557887179e-03 2.840079430475e-02 0.0 
-6.096642264878e-04 7.042597135989e-02 0.0 
1.214923326040e-02 5.309127548743e-02 0.0 
1.399371718968e-02 5.801608474701e-02 0.0 
6.003120137908e-03 4.715048982147e-02 0.0 
5.789591581506e-03 5.145101776149e-02 0.0 
2.145402769905e-03 2.706589939435e-02 0.0 
-6.120675422868e-04 7.063362942267e-02 0.0 
2.811064798924e-04 2.949694042428e-02 0.0 
7.036521553133e-03 4.274225321948e-02 0.0 
-4.902121887554e-04 3.559078629443e-02 0.0 
-4.106825211471e-04 3.000370963071e-02 0.0 
-2.289578466286e-04 4.203075326770e-02 0.0 
9.060676025997e-03 2.933740522055e-02 0.0 
1.039262166351e-02 3.266484815291e-02 0.0 
4.550445251354e-03 4.487355322993e-02 0.0 
1.968499385836e-03 4.434138743306e-02 0.0 
6.569790999657e-04 4.203527602278e-02 0.0 
-3.353601281280e-04 4.507375826964e-02 0.0 
8.894398198868e-04 4.639634885434e-02 0.0 
-9.763741648919e-04 4.789578853429e-02 0.0 
-2.031205559873e-03 4.688712253416e-02 0.0 
-2.264667545307e-03 5.032768219837e-02 0.0 
-1.354159102478e-03 5.055672906839e-02 0.0 
-2.265643607092e-03 5.330434057148e-02 0.0 
-2.773861556105e-03 5.349701989941e-02 0.0 
-2.554288116661e-03 5.650748370601e-02 0.0 
-3.542279024703e-04 2.646141825739e-02 0.0 
3.927071532696e-03 3.850667243371e-02 0.0 
1.310286153591e-02 7.045448253266e-02 0.0 
1.445706545312e-03 2.502292573803e-02 0.0 
6.412651016770e-03 2.603465345560e-02 0.0 
5.065955859262e-03 4.222364734790e-02 0.0 
4.921763447254e-03 4.658194925449e-02 0.0 
5.509008690141e-03 5.571636381645e-02 0.0 
4.705254966452e-03 5.088199933778e-02 0.0 
4.088224603210e-03 4.151782104100e-02 0.0 
3.934784406467e-03 4.588278893928e-02 0.0 
4.429181832236e-03 5.512172979256e-02 0.0 
3.716804284390e-03 5.017914040886e-02 0.0 
4.104171845433e-03 5.927930062473e-02 0.0 
3.445264320014e-03 5.439549569402e-02 0.0 
3.043776090817e-03 4.507698924106e-02 0.0 
2.822147376371e-03 4.936937565515e-02 0.0 
3.130052438976e-03 5.853441503047e-02 0.0 
2.550952628402e-03 5.358310639034e-02 0.0 
2.778466465848e-03 6.258437408727e-02 0.0 
2.237952175027e-03 5.771185630830e-02 0.0 
2.012849101852e-03 4.849762814049e-02 0.0 
-2.039252528505e-04 7.224995971580e-02 0.0 
5.696528000985e-03 3.071848695182e-02 0.0 
4.917439948460e-03 2.603984743834e-02 0.0 
-1.050911341866e-03 6.322198750233e-02 0.0 
-1.004358337228e-03 6.003985057990e-02 0.0 
-1.095363967288e-03 5.743120526170e-02 0.0 
-9.195160442714e-04 5.653143898211e-02 0.0 
1.730627506354e-03 5.275240533919e-02 0.0 
1.519658408362e-03 4.329149189077e-02 0.0 
1.314574213483e-02 5.814206045879e-02 0.0 
1.465827300291e-02 6.362341943824e-02 0.0 
5.123869058070e-03 3.780884172146e-02 0.0 
-4.257641402708e-04 3.345724448716e-02 0.0 
-5.046397623788e-04 3.888629705173e-02 0.0 
1.747224890562e-02 6.852725552771e-02 0.0 
1.737285498095e-02 7.378226245936e-02 0.0 
1.751635141533e-02 7.299570101253e-02 0.0 
1.715575804130e-02 7.865222401663e-02 0.0 
1.693351417437e-02 7.917211284206e-02 0.0 
1.720293797878e-02 7.734505431723e-02 0.0 
2.563449531155e-03 3.599500437838e-02 0.0 
2.419515189316e-03 3.983278088280e-02 0.0 
-1.600652198103e-03 6.495730278467e-02 0.0 
-1.168502994906e-03 6.657436783913e-02 0.0 
-3.559503412113e-04 2.762173508316e-02 0.0 
6.304116068118e-03 3.481153647881e-02 0.0 
1.454563536195e-02 5.054597240926e-02 0.0 
1.402884370422e-02 4.623808547373e-02 0.0 
1.324423905043e-02 4.396457749725e-02 0.0 
1.258219616167e-02 3.978130880538e-02 0.0 
1.166549004384e-02 3.702792279372e-02 0.0 
1.085982611848e-02 3.295106927011e-02 0.0 
1.173619858906e-02 3.575282991014e-02 0.0 
8.752192928994e-03 2.682668060791e-02 0.0 
9.889590512559e-03 2.899877091891e-02 0.0 
1.921750860920e-03 6.183175126816e-02 0.0 
1.163713086944e-02 3.929117253104e-02 0.0 
-1.553442675371e-03 5.285304877106e-02 0.0 
-6.585756063688e-05 7.182809570792e-02 0.0 
-2.407543871724e-03 5.713965077735e-02 0.0 
-2.768653879511e-04 7.242296547905e-02 0.0 
-5.712389826903e-04 7.053946227437e-02 0.0 
1.763415408032e-03 2.182000963217e-02 0.0 
9.790103012021e-03 2.972009796879e-02 0.0 
1.058074227880e-02 3.384876361735e-02 0.0 
1.642070588029e-02 8.439234464591e-02 0.0 
1.618109640233e-02 8.456272946836e-02 0.0 
7.443353896274e-03 2.359623456433e-02 0.0 
7.161717378249e-03 6.479845196568e-02 0.0 
4.789457749645e-03 6.401181392221e-02 0.0 
4.373636287943e-03 6.801276110675e-02 0.0 
1.790249405802e-04 7.389351779775e-02 0.0 
-2.543358161141e-03 5.355512258960e-02 0.0 
3.302810844142e-03 3.628881950075e-02 0.0 
1.540164915696e-02 6.247027021899e-02 0.0 
1.577600335267e-02 6.836260463526e-02 0.0 
5.472581954668e-03 3.939604766157e-02 0.0 
2.520956846794e-03 3.457093233987e-02 0.0 
1.282303216439e-03 4.752688963913e-02 0.0 
1.092477751263e-03 3.795092623302e-02 0.0 
-9.667868540228e-04 5.378050777704e-02 0.0 
-8.096240807371e-04 5.263296985957e-02 0.0 
2.542139755542e-03 2.405270329189e-02 0.0 
-2.206916754148e-03 5.989226465519e-02 0.0 
1.250010750450e-03 3.347687251282e-02 0.0 
5.064489389758e-03 3.295295574745e-02 0.0 
5.450961992955e-03 3.671613510957e-02 0.0 
-7.953709326303e-04 5.915134877056e-02 0.0 
1.339511748156e-02 6.452317880664e-02 0.0 
1.167976558177e-02 5.797813986185e-02 0.0 
-4.375081249445e-04 5.040208153353e-02 0.0 
-2.306382607740e-03 5.885785642460e-02 0.0 
-2.950225170738e-04 7.226153781175e-02 0.0 
1.977917447992e-03 1.855236171255e-02 0.0 
3.317087179518e-03 3.180015210563e-02 0.0 
1.073183596767e-02 3.190232666111e-02 0.0 
1.240694656974e-02 3.815960642851e-02 0.0 
8.786990294910e-03 2.521281369416e-02 0.0 
-1.424078368177e-03 6.075886057529e-02 0.0 
1.130861656601e-03 1.947589974395e-02 0.0 
-3.321939060033e-04 3.114581272503e-02 0.0 
8.640706658114e-03 2.644851508524e-02 0.0 
9.345288719822e-03 3.027123401190e-02 0.0 
1.640827830600e-02 6.629157273217e-02 0.0 
1.655476843551e-02 7.230591245731e-02 0.0 
1.552612610487e-02 7.506026555925e-02 0.0 
1.611241525788e-02 7.884208653411e-02 0.0 
1.164393794779e-02 7.168753161609e-02 0.0 
1.706789654224e-02 6.939143537057e-02 0.0 
1.395042800526e-02 7.308107759457e-02 0.0 
1.330554604134e-02 7.747106545487e-02 0.0 
1.403469876212e-02 7.981006719745e-02 0.0 
1.656142648437e-02 7.907980225003e-02 0.0 
1.579547032682e-02 8.417727236295e-02 0.0 
1.470215097623e-02 5.647157255891e-02 0.0 
1.200571915351e-02 4.401628230275e-02 0.0 
-1.096919051072e-03 5.466384615752e-02 0.0 
-6.239534001203e-04 4.386089767134e-02 0.0 
1.669696245307e-03 4.199867942727e-02 0.0 
2.532778926256e-03 3.539500480498e-02 0.0 
1.920705871841e-03 2.993106385708e-02 0.0 
3.347951185234e-03 6.732109958706e-02 0.0 
2.931037609323e-03 7.119966444458e-02 0.0 
-4.842470607816e-04 6.907006509400e-02 0.0 
-3.602546779919e-04 6.785589731620e-02 0.0 
-2.187927213369e-04 4.673536937244e-02 0.0 
8.852734180085e-04 2.285988834141e-02 0.0 
4.153841184291e-03 3.263604634569e-02 0.0 
4.036764747748e-03 2.810776950193e-02 0.0 
5.079658253470e-03 3.333076606765e-02 0.0 
2.819712284753e-03 2.097136786188e-02 0.0 
9.904407821317e-03 4.838466784808e-02 0.0 
8.138153231968e-03 4.007265175117e-02 0.0 
1.154726482201e-03 3.588073081468e-02 0.0 
1.500732840232e-02 4.937468744612e-02 0.0 
5.069729843835e-04 7.019195115190e-02 0.0 
1.190736936491e-02 4.680004158980e-02 0.0 
-2.735044269369e-04 2.507654167423e-02 0.0 
-2.887317903230e-04 2.137056903599e-02 0.0 
6.905517349804e-03 2.062713038209e-02 0.0 
1.104602671687e-02 8.286246665434e-02 0.0 
1.410115512574e-02 4.534753324888e-02 0.0 
1.414023103113e-02 4.633272448823e-02 0.0 
1.323610276428e-02 8.414261168637e-02 0.0 
1.383365754064e-02 8.621719424769e-02 0.0 
1.468799980183e-02 8.173302520522e-02 0.0 
1.434698536657e-02 8.792351906275e-02 0.0 
-8.030407468370e-04 5.206882208843e-02 0.0 
-1.643830769944e-03 5.471976032956e-02 0.0 
7.519387460236e-03 2.179531729345e-02 0.0 
7.818827932755e-03 2.206093584122e-02 0.0 
7.313559424536e-03 2.265863320155e-02 0.0 
7.982414097852e-03 2.626650030649e-02 0.0 
5.596937743734e-03 1.735026877217e-02 0.0 
6.125502364891e-03 2.048851544551e-02 0.0 
-4.844605159760e-04 7.016652743245e-02 0.0 
1.518361623709e-02 8.973098793457e-02 0.0 
2.531224058729e-03 2.633332816310e-02 0.0 
1.257152976027e-02 8.174062571133e-02 0.0 
6.499552573774e-04 1.716975837206e-02 0.0 
4.610070673843e-04 2.056674631958e-02 0.0 
2.294364399912e-04 3.167581057110e-02 0.0 
-1.074553022321e-03 3.568598928419e-02 0.0 
8.594031649666e-04 2.814975846423e-02 0.0 
1.463990942994e-02 8.217296949602e-02 0.0 
1.511052895519e-02 8.558182888509e-02 0.0 
1.390199240024e-02 7.759517662877e-02 0.0 
-5.452563849151e-05 1.125382653720e-02 0.0 
7.791200453234e-04 8.659536289618e-02 0.0 
-2.129524890646e-04 1.860361728934e-02 0.0 
1.603999957857e-02 7.836565981636e-02 0.0 
9.167148327805e-04 2.311783768975e-02 0.0 
1.303527263161e-02 4.162594368394e-02 0.0 
1.748359684144e-02 6.767565558394e-02 0.0 
3.468518103549e-03 2.621180465124e-02 0.0 
7.006926501527e-04 3.353274728047e-02 0.0 
5.172747385153e-04 2.226836421751e-02 0.0 
5.009420659055e-03 7.239139653501e-02 0.0 
4.535478782411e-03 7.636470406509e-02 0.0 
5.491657992695e-03 6.857230186857e-02 0.0 
8.541881726215e-03 4.565547169921e-02 0.0 
6.297905279114e-03 4.337494424019e-02 0.0 
1.852111924803e-03 3.445210535239e-02 0.0 
-1.011473830636e-03 6.607551125520e-02 0.0 
-8.230797398914e-04 6.530693007227e-02 0.0 
-1.959671104686e-03 6.205710935901e-02 0.0 
-2.094771594195e-03 6.070222688616e-02 0.0 
-9.284608252052e-04 5.093070513819e-02 0.0 
-9.904336821945e-04 5.181038651217e-02 0.0 
1.165345716400e-02 4.241896597842e-02 0.0 
1.047819386739e-02 3.897995517242e-02 0.0 
1.371296315041e-02 4.830472021865e-02 0.0 
4.293144572596e-03 3.516465116239e-02 0.0 
4.476341839862e-03 3.864789619151e-02 0.0 
5.679984628685e-03 3.987895547948e-02 0.0 
1.937326510693e-03 2.567732999926e-02 0.0 
1.296878422877e-03 1.915025790529e-02 0.0 
4.020840189512e-04 4.979308478236e-02 0.0 
1.077228208729e-03 4.849031141338e-02 0.0 
-1.054806986882e-03 5.344804469008e-02 0.0 
2.403872239650e-03 2.190374492223e-02 0.0 
-2.154352411985e-04 1.489650843507e-02 0.0 
-2.726519048523e-04 1.781386027842e-02 0.0 
8.712919336206e-04 6.881527088752e-02 0.0 
-2.430346145510e-04 6.620739797600e-02 0.0 
1.118067357129e-02 6.530268614321e-02 0.0 
9.035898196378e-03 5.781435860329e-02 0.0 
3.857625329134e-03 2.392104650210e-02 0.0 
4.929585813031e-03 2.888273854275e-02 0.0 
2.744532045295e-03 1.808764189271e-02 0.0 
-2.398988656647e-04 7.194706050920e-02 0.0 
1.133267388670e-02 3.432553834184e-02 0.0 
2.143234461663e-03 1.548434156535e-02 0.0 
3.040543999066e-03 1.811063372045e-02 0.0 
1.319056847478e-03 1.209602623812e-02 0.0 
8.245518925568e-03 2.421539717446e-02 0.0 
6.179103031856e-03 1.765399485316e-02 0.0 
6.528111130176e-03 1.808440387563e-02 0.0 
8.166682523981e-04 3.036439086522e-02 0.0 
3.919649800593e-04 2.653070093978e-02 0.0 
3.476675161757e-03 7.572822910295e-02 0.0 
-2.496494554269e-04 2.790024127675e-02 0.0 
3.003113251797e-03 7.970914362422e-02 0.0 
2.514531085775e-03 7.503902791069e-02 0.0 
2.591897240619e-03 8.354711120968e-02 0.0 
-8.971774695558e-05 7.370294434908e-02 0.0 
5.701912234706e-03 7.807864235795e-02 0.0 
6.252029285477e-03 7.328294156211e-02 0.0 
1.646776743279e-03 6.708693134586e-02 0.0 
1.636653394621e-03 1.633891265457e-02 0.0 
1.701800190664e-03 7.076515746975e-02 0.0 
1.182827963052e-03 7.194590066266e-02 0.0 
3.097014696462e-04 1.450305912744e-02 0.0 
1.624331378340e-04 1.809437724559e-02 0.0 
7.412728937738e-05 1.181875748577e-02 0.0 
-2.723290497662e-05 1.580615147354e-02 0.0 
-1.364599646381e-06 2.176417276386e-02 0.0 
-1.500894011596e-04 1.928035145165e-02 0.0 
4.071010865817e-03 8.079233291336e-02 0.0 
-1.174816315979e-04 1.211575232727e-02 0.0 
-2.194310789431e-04 1.649374688095e-02 0.0 
-1.525465102128e-04 9.426608552810e-03 0.0 
1.330428128067e-02 9.232671354480e-02 0.0 
1.638127574044e-02 8.170964184163e-02 0.0 
1.530362985659e-02 8.816601519863e-02 0.0 
1.352493762951e-02 9.269091859788e-02 0.0 
5.373868634466e-03 1.671749772791e-02 0.0 
6.651458101469e-03 2.236127951634e-02 0.0 
-2.211960139323e-04 2.854347956096e-02 0.0 
-2.589688439020e-04 3.443703472570e-02 0.0 
2.073923853538e-03 7.939122225206e-02 0.0 
1.513174789826e-03 7.974635409102e-02 0.0 
1.657288845071e-03 7.225659879345e-02 0.0 
1.195887659754e-03 7.319879623611e-02 0.0 
1.283900803329e-03 6.556116513452e-02 0.0 
8.265963753961e-04 6.656196301297e-02 0.0 
9.806681461320e-04 5.863382294121e-02 0.0 
5.343247501777e-03 1.452736232373e-02 0.0 
1.235019713220e-02 8.496782963705e-02 0.0 
1.235029929983e-02 8.836644557595e-02 0.0 
4.302448503387e-03 1.415166080371e-02 0.0 
4.999233337386e-03 1.799516798645e-02 0.0 
1.483423709392e-02 8.907883036684e-02 0.0 
1.399657170967e-02 9.478654709770e-02 0.0 
7.031673270725e-04 1.268184128063e-02 0.0 
1.666085175276e-02 6.394503322057e-02 0.0 
1.217733659531e-03 1.047384775507e-02 0.0 
-2.960925372283e-03 3.841115601326e-02 0.0 
2.105754669762e-03 3.828408169315e-02 0.0 
1.722274939591e-02 6.624736634944e-02 0.0 
1.527610052316e-02 8.321672297282e-02 0.0 
1.647960937441e-02 8.355144444048e-02 0.0 
1.545000624389e-02 8.940330409378e-02 0.0 
3.959969209650e-03 3.105946081896e-02 0.0 
1.193269975823e-05 6.409439251710e-02 0.0 
1.277361537014e-02 7.193016891150e-02 0.0 
1.423581865805e-03 5.771982661847e-02 0.0 
9.655448208460e-03 7.309022442968e-02 0.0 
-1.216167913270e-04 3.135357620647e-02 0.0 
1.584185335004e-02 5.906148143332e-02 0.0 
1.658094944444e-02 7.341237610112e-02 0.0 
1.464886681885e-02 7.021836026953e-02 0.0 
1.703571049427e-02 7.529532127482e-02 0.0 
1.220054405092e-02 6.746128424320e-02 0.0 
1.101499463802e-02 7.577477394104e-02 0.0 
1.178769037493e-02 7.898558719334e-02 0.0 
1.467699371845e-02 5.491222239668e-02 0.0 
1.540048554781e-02 8.987511554046e-02 0.0 
1.408341373343e-02 9.536691595707e-02 0.0 
1.446458675517e-02 6.860119359899e-02 0.0 
6.165876107246e-03 3.833674857841e-02 0.0 
6.077858181656e-03 3.385074877710e-02 0.0 
4.690065352580e-03 2.467581645240e-02 0.0 
5.868487469795e-03 2.942869596648e-02 0.0 
7.261200266796e-03 3.864979725074e-02 0.0 
7.118241098052e-03 3.421291481183e-02 0.0 
5.526380341678e-03 2.512392481991e-02 0.0 
6.837443343424e-03 2.980313499739e-02 0.0 
4.614340253782e-03 1.887915207848e-02 0.0 
6.346209588240e-03 2.522195527299e-02 0.0 
8.172248935499e-03 3.447320164128e-02 0.0 
7.818418373234e-03 3.027169856638e-02 0.0 
5.993634371722e-03 2.202042120044e-02 0.0 
9.533269987804e-03 3.930389887753e-02 0.0 
3.553138521139e-03 1.079125483595e-02 0.0 
1.706594754316e-02 6.263886545118e-02 0.0 
3.322959078580e-03 3.579540106343e-02 0.0 
4.766235758347e-03 4.737668084315e-02 0.0 
1.596917937577e-02 7.230774658022e-02 0.0 
2.261087359044e-03 9.224022379366e-03 0.0 
1.871235379815e-03 9.238747404854e-03 0.0 
1.448375368302e-02 5.748682771319e-02 0.0 
2.742890168648e-03 7.939047648683e-03 0.0 
1.248991457784e-02 7.477343083355e-02 0.0 
9.841520853660e-03 4.789510852179e-02 0.0 
2.837527581349e-03 7.626429728054e-03 0.0 
7.274505436868e-03 4.306705181780e-02 0.0 
8.392898467390e-03 4.773023226360e-02 0.0 
8.212514638994e-03 5.205843150712e-02 0.0 
1.456157583887e-03 8.720014297221e-03 0.0 
5.945486839090e-03 6.457553132123e-02 0.0 
2.388286679482e-03 6.466673313505e-03 0.0 
1.122440994863e-02 4.039664516681e-02 0.0 
1.262590170984e-02 4.350438274263e-02 0.0 
1.340677298121e-02 4.713272011321e-02 0.0 
8.392624606144e-03 3.899795771703e-02 0.0 
1.734038744931e-03 6.329112841241e-03 0.0 
2.983826019520e-03 1.191512906973e-02 0.0 
2.524752529630e-03 1.178764961044e-02 0.0 
3.970218189659e-03 1.746647739691e-02 0.0 
1.232867361155e-03 6.173491356546e-03 0.0 
2.324902091490e-03 8.070511498056e-03 0.0 
2.330021298594e-03 7.543765150173e-03 0.0 
1.053718696639e-04 4.846433073724e-02 0.0 
1.972220501057e-03 4.711561245078e-02 0.0 
2.867906032784e-03 4.718062737602e-02 0.0 
4.065007515952e-03 4.648700125380e-02 0.0 
3.122946773210e-03 4.581622427930e-02 0.0 
5.484231221004e-03 4.609694014764e-02 0.0 
6.204671326228e-03 4.650657326636e-02 0.0 
7.117205063396e-03 4.625786729576e-02 0.0 
8.680221204602e-03 3.067418307790e-02 0.0 
7.524111706945e-04 5.902462945069e-03 0.0 
1.798656130537e-03 3.852953717078e-02 0.0 
2.564535835716e-03 3.962138911067e-02 0.0 
2.416085088310e-03 4.269987165960e-02 0.0 
-1.198473818756e-03 5.527372677551e-02 0.0 
-1.010306834796e-03 5.243186419583e-02 0.0 
-7.660011415688e-04 4.890074058331e-02 0.0 
-1.253929441486e-03 5.806352218420e-02 0.0 
1.330881279553e-02 4.210325488593e-02 0.0 
5.443565423633e-04 5.954318605284e-03 0.0 
6.745219194879e-03 3.831474636986e-02 0.0 
-9.816466516828e-04 5.276734727904e-02 0.0 
7.545139006673e-03 8.524315506250e-02 0.0 
7.887419245631e-03 7.836984216378e-02 0.0 
8.632568514546e-03 7.776590207984e-02 0.0 
8.052989964364e-03 7.014572897549e-02 0.0 
7.036249509023e-03 7.784446308143e-02 0.0 
-8.283469352644e-04 4.978003110160e-02 0.0 
-6.981861806566e-04 4.838383749283e-02 0.0 
-6.330047588005e-04 5.124355233972e-02 0.0 
-5.460858634224e-04 4.675819029086e-02 0.0 
-4.462813264031e-04 4.961332192742e-02 0.0 
-5.124146442710e-04 5.385056595809e-02 0.0 
-3.778637737289e-04 4.492370064928e-02 0.0 
-2.625106058336e-04 4.830687570700e-02 0.0 
6.080878953361e-03 8.584314744142e-02 0.0 
1.188140799242e-03 3.880919825251e-02 0.0 
-1.075019728514e-03 4.332179946559e-02 0.0 
-1.062055471156e-04 5.033176681967e-02 0.0 
-2.207966795530e-03 4.716157672364e-02 0.0 
-2.243521606309e-03 4.132062191683e-02 0.0 
-2.690969810364e-03 4.546550701295e-02 0.0 
-1.785911904371e-03 4.082608014574e-02 0.0 
-1.494552686462e-03 3.605431429274e-02 0.0 
3.481616008077e-03 5.364609206403e-02 0.0 
6.663807442136e-04 5.593226608739e-02 0.0 
3.911351240988e-03 5.874481608864e-02 0.0 
1.344101147020e-03 6.042041256219e-02 0.0 
-1.215842239738e-03 5.771460657975e-02 0.0 
-1.248650376052e-03 6.510826830950e-02 0.0 
-1.310924845386e-04 7.452530915042e-03 0.0 
-2.241608945563e-04 6.000048020182e-02 0.0 
-4.397348920274e-04 6.162731877802e-02 0.0 
-4.413071552701e-04 6.484540597887e-02 0.0 
-6.741483047740e-04 6.277992302452e-02 0.0 
-4.156290188541e-04 5.829435034671e-02 0.0 
-2.138420433994e-04 6.667601956404e-02 0.0 
-4.008911736019e-04 6.747671750544e-02 0.0 
1.321680940350e-03 7.646776221139e-02 0.0 
7.105183850422e-04 7.652985381210e-02 0.0 
3.583086886181e-04 7.692363054091e-02 0.0 
3.014420799242e-04 7.617297489866e-02 0.0 
5.025525527687e-04 7.576186137914e-02 0.0 
1.047301574855e-03 7.598203541650e-02 0.0 
1.364910505557e-03 7.523827745527e-02 0.0 
2.291996340730e-03 7.498583834883e-02 0.0 
1.629027394210e-03 7.429449477804e-02 0.0 
7.775828412032e-04 7.426180522823e-02 0.0 
2.745807095762e-03 7.395900771020e-02 0.0 
3.126745005559e-04 4.653589526152e-02 0.0 
5.957135719861e-04 4.178818265315e-02 0.0 
2.418881444784e-04 6.385681226312e-03 0.0 
4.704456495326e-03 8.554048406737e-02 0.0 
3.974028972648e-03 6.602574315158e-02 0.0 
4.770667543565e-04 1.128930223094e-02 0.0 
7.149488119138e-04 9.360926816588e-03 0.0 
5.848047952028e-04 9.074593916535e-03 0.0 
-8.119605348167e-05 1.844871990206e-02 0.0 
-1.307410937092e-04 1.509111361391e-02 0.0 
2.564395879047e-04 1.098019292944e-02 0.0 
-1.737557287570e-03 6.308446844006e-02 0.0 
4.322435606390e-03 2.054919645857e-02 0.0 
1.347840320677e-03 2.892267498167e-02 0.0 
1.114270026333e-02 5.207269238228e-02 0.0 
-2.073256089846e-03 5.763747142987e-02 0.0 
-3.910863034801e-04 3.677034548096e-02 0.0 
-3.950815003387e-04 4.074926073258e-02 0.0 
-3.419741285980e-04 2.404831060035e-02 0.0 
-5.859660501335e-04 4.076617554143e-02 0.0 
-3.139508643234e-04 2.875599120397e-02 0.0 
2.110915356190e-03 1.209303654758e-02 0.0 
-1.974294051140e-05 7.385134050654e-02 0.0 
3.740874310923e-03 6.334496705658e-02 0.0 
2.420890431536e-03 6.657708038052e-02 0.0 
2.243414759241e-03 4.420497057640e-02 0.0 
-1.173445680636e-03 6.628629462700e-02 0.0 
-7.215042011323e-04 5.515026266761e-02 0.0 
-5.741788874150e-04 6.989724014898e-02 0.0 
5.131093717334e-03 1.453143996715e-02 0.0 
1.471617318018e-02 7.533012450211e-02 0.0 
1.402829845489e-03 4.498010082660e-02 0.0 
-1.391404776292e-03 5.839617102001e-02 0.0 
-1.824188736987e-03 6.024083414667e-02 0.0 
-2.183177565243e-03 5.573092731107e-02 0.0 
1.722526451449e-02 6.352583804639e-02 0.0 
-5.288818785561e-04 4.995513687834e-02 0.0 
6.631833478080e-04 3.134290210784e-02 0.0 
1.716152225463e-03 3.890972316071e-02 0.0 
3.310919492734e-03 7.094434525544e-02 0.0 
1.067127490116e-03 2.819148767562e-02 0.0 
2.181709474226e-05 4.309054721044e-02 0.0 
5.173648654074e-03 5.991834531808e-02 0.0 
7.726231555397e-03 2.868033515597e-02 0.0 
-2.840835897102e-03 4.993880095968e-02 0.0 
3.208577890040e-03 4.072797390735e-02 0.0 
3.111268630390e-03 2.329666849368e-02 0.0 
6.712976386452e-03 6.901844780794e-02 0.0 
1.970888289138e-04 7.123751389308e-02 0.0 
3.945586951268e-03 7.203820771203e-02 0.0 
1.291794564378e-03 1.601879149902e-02 0.0 
6.133130453045e-03 4.276039678814e-02 0.0 
-8.784632836320e-04 6.854091438835e-02 0.0 
8.442036052850e-03 4.276605169360e-02 0.0 
1.684646861145e-02 6.843054117263e-02 0.0 
1.084055815704e-02 8.955064514430e-02 0.0 
1.389808021537e-03 2.467836595021e-02 0.0 
1.506123549776e-02 5.063750405052e-02 0.0 
5.152264456628e-03 2.333961445125e-02 0.0 
7.652358465768e-03 3.676757891285e-02 0.0 
-7.541248500592e-04 6.819301535034e-02 0.0 
2.391598538521e-04 2.404076787243e-02 0.0 
1.259412132329e-02 4.706469619259e-02 0.0 
2.579241194064e-03 3.095213092762e-02 0.0 
1.229445311795e-02 4.124460730559e-02 0.0 
1.010881899770e-02 4.780101477516e-02 0.0 
4.165787858530e-03 3.710621564423e-02 0.0 
3.310014635145e-03 4.328305127048e-02 0.0 
7.718741114047e-03 2.627251212652e-02 0.0 
1.541943098092e-02 7.707852481642e-02 0.0 
1.484677533216e-02 5.498168942595e-02 0.0 
1.197896308010e-02 5.117669953439e-02 0.0 
1.569658502191e-02 5.362325824648e-02 0.0 
-2.989351577285e-04 3.999487402708e-02 0.0 
5.911011515675e-04 2.619867258978e-02 0.0 
2.237253545123e-03 3.962771247264e-02 0.0 
1.743691934546e-02 7.158584252224e-02 0.0 
6.332000221250e-03 6.035230519847e-02 0.0 
8.911636371128e-03 2.595861435838e-02 0.0 
1.821091043240e-03 2.074591111895e-02 0.0 
1.705398564660e-02 7.390216087596e-02 0.0 
8.629834151159e-06 2.748519510970e-02 0.0 
3.261708907273e-03 2.756986220146e-02 0.0 
-6.824351659795e-04 4.957398861453e-02 0.0 
-5.573120508129e-05 7.377472511615e-02 0.0 
9.448381885106e-03 5.083959531234e-02 0.0 
9.498446201584e-03 4.823324131626e-02 0.0 
1.468481735731e-02 5.062023407156e-02 0.0 
-4.265437005188e-04 4.600195381784e-02 0.0 
3.369149853836e-03 1.840077812851e-02 0.0 
-1.686513133686e-04 2.529024779321e-02 0.0 
2.983062823734e-03 2.902880951205e-02 0.0 
2.490474728726e-03 6.566486278283e-02 0.0 
1.175298086514e-02 8.570606435182e-02 0.0 
-2.645248900388e-04 2.291047166015e-02 0.0 
7.010979509207e-03 4.122187800136e-02 0.0 
6.410941397915e-03 2.341472254143e-02 0.0 
-3.094585846058e-04 5.236684533582e-02 0.0 
5.195297909313e-03 1.433169443766e-02 0.0 
1.375171643160e-02 9.362005203137e-02 0.0 
-2.945447640762e-04 2.035572814704e-02 0.0 
4.518669697464e-03 2.856857630760e-02 0.0 
1.576467970892e-02 6.096631895286e-02 0.0 
1.292556738716e-03 8.658235280229e-02 0.0 
-2.171030569967e-04 1.274668003189e-02 0.0 
3.797814379876e-03 2.334436474426e-02 0.0 
1.462412570910e-02 4.805261143125e-02 0.0 
5.727404620280e-03 4.244138680434e-02 0.0 
1.179367897741e-02 9.455809361916e-02 0.0 
-5.583116826718e-04 4.503084236047e-02 0.0 
1.398203872004e-02 5.271332598517e-02 0.0 
1.274082552366e-03 8.541621081937e-03 0.0 
4.034090450212e-03 2.080404789707e-02 0.0 
9.253506294879e-03 5.655139873726e-02 0.0 
-7.934782651638e-04 4.801209699722e-02 0.0 
1.180955214465e-02 3.804015788281e-02 0.0 
6.782182537079e-04 7.512774708805e-02 0.0 
1.285740039038e-02 9.047622529484e-02 0.0 
-7.680735350091e-04 4.685762975202e-02 0.0 
7.789279852994e-03 4.702561378860e-02 0.0 
4.514156196354e-03 4.151229532828e-02 0.0 
4.917004311254e-03 1.432235201294e-02 0.0 
-6.986066757233e-04 4.545074764106e-02 0.0 
8.249074052806e-03 4.700508964759e-02 0.0 
-5.947333096492e-04 4.381647854691e-02 0.0 
1.245741909794e-02 9.819155283511e-02 0.0 
9.492839284500e-03 5.209624220299e-02 0.0 
-4.615240829801e-04 4.197807065092e-02 0.0 
1.274380377457e-02 4.557273952697e-02 0.0 
7.955237244415e-04 7.309462345260e-02 0.0 
1.382661435343e-02 4.398482922481e-02 0.0 
-1.754079778507e-04 2.195550625084e-02 0.0 
-1.214099784959e-03 5.453951563594e-02 0.0 
3.465870024786e-03 4.062478867789e-02 0.0 
8.454078032908e-03 4.335152735594e-02 0.0 
1.265434663133e-02 1.004362010333e-01 0.0 
3.458633067045e-03 3.737095918326e-02 0.0 
1.121201985798e-02 3.812711087643e-02 0.0 
1.285069766058e-02 4.013093962723e-02 0.0 
1.391731082752e-02 4.691185428849e-02 0.0 
3.293493744786e-03 3.350359071995e-02 0.0 
1.417321224152e-02 9.502690777348e-02 0.0 
-1.902628963957e-03 6.222947218638e-02 0.0 
-1.757273970261e-03 6.374731910018e-02 0.0 
6.692173357529e-03 4.618469175638e-02 0.0 
9.990675758882e-03 3.456131462713e-02 0.0 
1.559032527563e-04 7.509894581981e-02 0.0 
9.642140313255e-03 4.344165742587e-02 0.0 
-1.346201308364e-03 6.321472976720e-02 0.0 
4.784507948251e-03 4.644500219279e-02 0.0 
1.001943527739e-02 3.024232182471e-02 0.0 
3.743258043042e-04 6.437136647521e-02 0.0 
3.556141361484e-03 4.665358295343e-02 0.0 
-1.275085639496e-04 7.179185345336e-02 0.0 
1.894966927388e-03 4.798289615847e-02 0.0 
1.295534211958e-02 4.269936669449e-02 0.0 
1.119599586245e-03 4.875521301481e-02 0.0 
-1.040161306977e-04 5.092544619501e-02 0.0 
9.300912417279e-04 1.902093028180e-02 0.0 
-4.711974525164e-04 5.182855458592e-02 0.0 
1.241257870821e-04 9.112002150087e-03 0.0 
-6.294781338784e-05 6.829483762129e-03 0.0 
4.901169064106e-04 8.074162315074e-02 0.0 
1.208258451673e-02 1.015018589968e-01 0.0 
-1.224816885541e-03 2.559477971947e-02 0.0 
1.424060662388e-02 9.320591006614e-02 0.0 
-1.675208534189e-03 5.620077410451e-02 0.0 
1.076598923079e-02 4.330685541720e-02 0.0 
1.018780938155e-03 8.036520847607e-02 0.0 
-1.955664106976e-03 5.916513890728e-02 0.0 
4.373548512838e-03 1.628632948721e-02 0.0 
2.579874025263e-03 6.744438982193e-03 0.0 
6.757731655470e-04 5.069909845432e-02 0.0 
5.241703013746e-03 2.091926972548e-02 0.0 
1.167231038656e-02 3.627344243945e-02 0.0 
1.931975494331e-04 2.754130394603e-02 0.0 
3.008831373923e-03 8.706921266006e-02 0.0 
1.824088595395e-03 6.409035823435e-02 0.0 
-1.430273759468e-04 3.720925576649e-02 0.0 
1.105039203198e-02 9.924792141259e-02 0.0 
1.300240276698e-02 8.927101656977e-02 0.0 
1.109542423461e-02 7.957822853447e-02 0.0 
-5.871307711390e-04 6.782900232183e-02 0.0 
-1.552580947555e-03 5.285022120628e-02 0.0 
9.962323018015e-03 9.261043411325e-02 0.0 
3.470038256480e-03 1.244943918490e-02 0.0 
5.082997717799e-03 7.983206485797e-02 0.0 
9.621762404848e-03 2.825479812177e-02 0.0 
7.012391495525e-03 8.150726556056e-02 0.0 
2.241844288069e-03 1.812641161976e-02 0.0 
4.979297675465e-03 1.364438588187e-02 0.0 
2.319204568910e-05 5.733715016881e-03 0.0 
7.490803594451e-03 2.128957581744e-02 0.0 
7.534264390910e-03 6.538614901895e-02 0.0 
7.403312254625e-03 7.213520140736e-02 0.0 
5.023030201701e-03 1.476485625002e-02 0.0 
9.127258167912e-04 4.315591490981e-02 0.0 
-8.358802755866e-05 5.587919405942e-03 0.0 
6.390964781367e-03 8.019685453207e-02 0.0 
5.705884981298e-04 1.778364659648e-02 0.0 
-9.220396894403e-05 3.891625237761e-02 0.0 
2.866235889438e-04 1.726986417273e-02 0.0 
9.187373371309e-03 3.489552746583e-02 0.0 
2.084596848611e-03 7.047473496324e-02 0.0 
8.828693830805e-03 7.170446495897e-02 0.0 
-1.505665305988e-04 1.181627333354e-02 0.0 
3.844357872110e-03 1.686278244349e-02 0.0 
5.083183623926e-03 5.568986072008e-02 0.0 
1.058436926458e-03 5.161807162538e-02 0.0 
-8.823952596396e-04 6.220150790503e-02 0.0 
-7.574852395264e-04 3.033307891927e-02 0.0 
4.088330799495e-04 1.167645096397e-02 0.0 
7.355350200498e-03 2.646741100299e-02 0.0 
-1.993844590844e-04 1.195810355344e-02 0.0 
1.442772685064e-04 7.641630543588e-02 0.0 
2.281104005607e-03 6.944349504833e-02 0.0 
8.549306013175e-04 1.067218340368e-02 0.0 
4.458526756861e-03 1.453077089777e-02 0.0 
-1.448047731553e-03 4.363772662547e-02 0.0 
7.544235571349e-04 7.321645794340e-03 0.0 
1.136414587521e-03 4.636596637706e-02 0.0 
4.116591097375e-03 8.774262721832e-02 0.0 
1.923269316922e-03 7.327239820851e-02 0.0 
-1.069596947289e-04 5.709724688770e-03 0.0 
1.351982749584e-03 1.698044153731e-02 0.0 
-5.942918185954e-04 5.973754961124e-02 0.0 
9.005360408305e-03 8.356034965563e-02 0.0 
-3.313566865812e-04 6.996048121892e-02 0.0 
6.976197910360e-03 1.961897677315e-02 0.0 
-8.360655839526e-05 6.153574641943e-02 0.0 
9.263720395620e-04 1.606877116676e-02 0.0 
1.489320598962e-03 1.036085721635e-02 0.0 
2.669603913976e-03 1.571393029567e-02 0.0 
1.599422329958e-03 4.811586216651e-03 0.0 
5.608395319037e-04 3.136124508400e-02 0.0 
4.444819545652e-03 1.197223673620e-02 0.0 
3.144181747200e-03 1.604582756912e-02 0.0 
2.256445605301e-03 8.744042165557e-02 0.0 
3.352166702308e-03 1.666619757661e-02 0.0 
-6.082408140112e-04 6.557023757082e-02 0.0 
2.584370990524e-04 7.318641505235e-02 0.0 
5.420676043336e-05 8.077420948982e-03 0.0 
4.329960796099e-04 7.705141722443e-02 0.0 
3.782350156436e-04 8.746973452825e-02 0.0 
-2.279720220004e-05 5.582236565316e-03 0.0 
2.843080171964e-04 7.485056494392e-02 0.0 
8.097691922467e-04 7.482608695421e-02 0.0 
4.107797394236e-03 1.421657072082e-02 0.0 
-1.393744823188e-04 5.173212477804e-02 0.0 
4.524129170338e-04 3.408197185501e-02 0.0 
-2.607478193265e-03 5.000397410576e-02 0.0 
4.475991628433e-05 2.482298425064e-02 0.0 
6.482746738817e-04 5.997214445820e-02 0.0 
4.285477311843e-03 1.199825491763e-02 0.0 
2.083362112952e-03 1.514653339140e-02 0.0 
1.671071465991e-03 6.584657119519e-02 0.0 
7.452286040406e-03 5.114217060249e-02 0.0 
5.760067455477e-03 1.996574082923e-02 0.0 
-5.916467262809e-04 5.681848487458e-02 0.0 
6.786631507692e-03 2.013942495548e-02 0.0 
4.206509689685e-03 1.644524390631e-02 0.0 
-3.380391525964e-03 4.786678046735e-02 0.0 
-1.069207433210e-04 4.720069159117e-02 0.0 
2.206758767588e-03 7.207963746466e-02 0.0 
-2.173003449176e-05 1.062788984320e-02 0.0 
-3.876389110977e-04 5.528348915052e-02 0.0 
5.910287651764e-03 1.041203415402e-01 0.0 
2.335498568058e-04 1.310534060814e-01 0.0 
8.695240139254e-03 1.073724317178e-01 0.0 
2.078644258469e-04 1.263904425637e-01 0.0 
1.011257573698e-02 1.080354698853e-01 0.0 
2.306447897304e-04 1.212940132569e-01 0.0 
1.070087377048e-02 1.066897917846e-01 0.0 
2.219868595846e-04 1.157567729165e-01 0.0 
1.068627779630e-02 1.037954692190e-01 0.0 
2.484849757176e-04 1.097778814221e-01 0.0 
1.023783311562e-02 9.954301769301e-02 0.0 
2.369957309733e-04 1.033597323378e-01 0.0 
9.467729833514e-03 9.428834223570e-02 0.0 
2.578680835661e-04 9.650686707374e-02 0.0 

TENSORS node_materi_stress float
-1.289323159904e+00 -1.487994597592e-01 0.0 
-1.487994597592e-01 -8.521122977635e+00 0.0 
0.0 0.0 -1.688363715332e+00 
-6.502365909176e+01 4.441856696026e-01 0.0 
4.441856696026e-01 -1.374570952163e+02 0.0 
0.0 0.0 -6.034422629241e+01 
-1.667680926865e+02 -3.794039282663e-01 0.0 
-3.794039282663e-01 -3.903899724526e+02 0.0 
0.0 0.0 -1.667474195417e+02 
-1.399635424410e+02 5.947914522286e-01 0.0 
5.947914522286e-01 -3.266363631505e+02 0.0 
0.0 0.0 -1.395799716774e+02 
-4.716106541116e+00 -3.225190034333e-01 0.0 
-3.225190034333e-01 -2.081295867560e+01 0.0 
0.0 0.0 -6.685119773673e+00 
-1.267674008270e+01 -6.109634021302e-01 0.0 
-6.109634021302e-01 -4.029211984449e+01 0.0 
0.0 0.0 -1.549065797816e+01 
-2.206919598373e+01 -5.743361738808e-01 0.0 
-5.743361738808e-01 -5.856988846310e+01 0.0 
0.0 0.0 -2.379172533405e+01 
-3.210443942389e+01 -5.792162546263e-01 0.0 
-5.792162546263e-01 -7.935711385448e+01 0.0 
0.0 0.0 -3.303846598351e+01 
-4.157331241032e+01 -5.225510795670e-01 0.0 
-5.225510795670e-01 -9.954711429387e+01 0.0 
0.0 0.0 -4.193612801126e+01 
-5.086327707011e+01 -5.304108511186e-01 0.0 
-5.304108511186e-01 -1.195771597952e+02 0.0 
0.0 0.0 -5.073213105960e+01 
-5.978998854196e+01 -5.818471222626e-01 0.0 
-5.818471222626e-01 -1.396820292337e+02 0.0 
0.0 0.0 -5.944160533271e+01 
-6.844672153920e+01 -5.618748618804e-01 0.0 
-5.618748618804e-01 -1.598546692117e+02 0.0 
0.0 0.0 -6.809041722528e+01 
-7.698221529711e+01 -5.588021296690e-01 0.0 
-5.588021296690e-01 -1.800493561161e+02 0.0 
0.0 0.0 -7.670947142398e+01 
-8.539335168770e+01 -6.149727416200e-01 0.0 
-6.149727416200e-01 -2.004521843097e+02 0.0 
0.0 0.0 -8.535366079923e+01 
-9.389731401758e+01 -7.397364379542e-01 0.0 
-7.397364379542e-01 -2.213498235939e+02 0.0 
0.0 0.0 -9.417414128344e+01 
-1.025215255177e+02 -6.994196852886e-01 0.0 
-6.994196852886e-01 -2.414981477408e+02 0.0 
0.0 0.0 -1.028059019776e+02 
-1.103799245308e+02 -8.612041081727e-01 0.0 
-8.612041081727e-01 -2.597514049285e+02 0.0 
0.0 0.0 -1.106393988378e+02 
-1.187794667065e+02 -4.159774787646e-01 0.0 
-4.159774787646e-01 -2.798516494347e+02 0.0 
0.0 0.0 -1.191893348424e+02 
-1.275381283128e+02 -3.617254355857e-01 0.0 
-3.617254355857e-01 -3.003477960797e+02 0.0 
0.0 0.0 -1.279657773178e+02 
-1.360967502555e+02 -3.315032717358e-01 0.0 
-3.315032717358e-01 -3.201438096339e+02 0.0 
0.0 0.0 -1.364721679668e+02 
-1.447139939290e+02 -2.797590439019e-01 0.0 
-2.797590439019e-01 -3.400310498136e+02 0.0 
0.0 0.0 -1.450235131228e+02 
-1.534036130439e+02 -3.126815721499e-01 0.0 
-3.126815721499e-01 -3.600224700876e+02 0.0 
0.0 0.0 -1.536278249394e+02 
-1.618289019398e+02 -3.886414715629e-01 0.0 
-3.886414715629e-01 -3.791112143727e+02 0.0 
0.0 0.0 -1.618820348938e+02 
-1.403809587095e+02 5.592634332693e-01 0.0 
5.592634332693e-01 -3.277807743963e+02 0.0 
0.0 0.0 -1.400485199317e+02 
-1.398340891475e+02 9.852140076978e-01 0.0 
9.852140076978e-01 -3.267744956143e+02 0.0 
0.0 0.0 -1.395825754285e+02 
-1.399918754023e+02 1.701087597385e+00 0.0 
1.701087597385e+00 -3.271022940618e+02 0.0 
0.0 0.0 -1.397282508392e+02 
-1.399792665945e+02 1.816332086568e+00 0.0 
1.816332086568e+00 -3.272005636102e+02 0.0 
0.0 0.0 -1.397539490614e+02 
-1.398628096499e+02 2.460142322990e+00 0.0 
2.460142322990e+00 -3.267206195827e+02 0.0 
0.0 0.0 -1.395750287698e+02 
-1.402466443338e+02 2.984925423470e+00 0.0 
2.984925423470e+00 -3.275566858453e+02 0.0 
0.0 0.0 -1.399409990537e+02 
-1.406733637089e+02 3.578591631893e+00 0.0 
3.578591631893e+00 -3.281062451783e+02 0.0 
0.0 0.0 -1.402338826662e+02 
-1.405267645521e+02 4.282324077615e+00 0.0 
4.282324077615e+00 -3.281375692079e+02 0.0 
0.0 0.0 -1.401993001280e+02 
-1.411371424998e+02 5.071605377335e+00 0.0 
5.071605377335e+00 -3.293458506181e+02 0.0 
0.0 0.0 -1.407448979354e+02 
-1.412711219266e+02 5.491035805566e+00 0.0 
5.491035805566e+00 -3.298470020129e+02 0.0 
0.0 0.0 -1.409354371818e+02 
-1.414306832148e+02 6.350208049342e+00 0.0 
6.350208049342e+00 -3.298785539656e+02 0.0 
0.0 0.0 -1.409927711541e+02 
-1.419863998488e+02 7.162415540669e+00 0.0 
7.162415540669e+00 -3.312607505856e+02 0.0 
0.0 0.0 -1.415741451303e+02 
-1.428420639881e+02 8.005778476041e+00 0.0 
8.005778476041e+00 -3.327518610464e+02 0.0 
0.0 0.0 -1.422781775103e+02 
-1.429735193293e+02 8.883273106794e+00 0.0 
8.883273106794e+00 -3.334912563549e+02 0.0 
0.0 0.0 -1.425394327053e+02 
-1.436502379361e+02 9.806151355321e+00 0.0 
9.806151355321e+00 -3.345811983668e+02 0.0 
0.0 0.0 -1.430694308909e+02 
-1.438400546478e+02 1.060754394697e+01 0.0 
1.060754394697e+01 -3.354190760888e+02 0.0 
0.0 0.0 -1.433777392210e+02 
-1.446149083420e+02 1.158480592444e+01 0.0 
1.158480592444e+01 -3.371030974507e+02 0.0 
0.0 0.0 -1.441154017378e+02 
-1.460607351386e+02 1.254647095012e+01 0.0 
1.254647095012e+01 -3.400448025293e+02 0.0 
0.0 0.0 -1.454316613004e+02 
-1.470829192432e+02 1.347819091629e+01 0.0 
1.347819091629e+01 -3.428302209174e+02 0.0 
0.0 0.0 -1.465739420482e+02 
-1.482378460165e+02 1.434211014076e+01 0.0 
1.434211014076e+01 -3.458207738962e+02 0.0 
0.0 0.0 -1.478175859738e+02 
-1.493028075815e+02 1.499352111949e+01 0.0 
1.499352111949e+01 -3.486199695621e+02 0.0 
0.0 0.0 -1.489768331431e+02 
-1.506503563344e+02 1.571828828580e+01 0.0 
1.571828828580e+01 -3.516265750771e+02 0.0 
0.0 0.0 -1.502830794235e+02 
-1.518556026058e+02 1.620244759819e+01 0.0 
1.620244759819e+01 -3.549404806119e+02 0.0 
0.0 0.0 -1.516388249653e+02 
-1.532064417198e+02 1.654906444387e+01 0.0 
1.654906444387e+01 -3.584117608652e+02 0.0 
0.0 0.0 -1.530854607755e+02 
-1.547192133306e+02 1.669169825932e+01 0.0 
1.669169825932e+01 -3.622701722487e+02 0.0 
0.0 0.0 -1.546968156738e+02 
-1.563251381466e+02 1.667759530009e+01 0.0 
1.667759530009e+01 -3.662068956771e+02 0.0 
0.0 0.0 -1.563596101471e+02 
-1.576599636240e+02 1.640144092507e+01 0.0 
1.640144092507e+01 -3.699864779840e+02 0.0 
0.0 0.0 -1.578939324824e+02 
-1.591752164167e+02 1.590309056284e+01 0.0 
1.590309056284e+01 -3.736567555597e+02 0.0 
0.0 0.0 -1.594495915929e+02 
-1.603039872448e+02 1.520340223856e+01 0.0 
1.520340223856e+01 -3.768519627938e+02 0.0 
0.0 0.0 -1.607467850116e+02 
-1.619749371908e+02 1.449009182480e+01 0.0 
1.449009182480e+01 -3.806274753605e+02 0.0 
0.0 0.0 -1.623807237654e+02 
-1.628624208258e+02 1.316516156434e+01 0.0 
1.316516156434e+01 -3.833811825420e+02 0.0 
0.0 0.0 -1.634730810104e+02 
-1.634395447691e+02 1.212291969665e+01 0.0 
1.212291969665e+01 -3.850145996156e+02 0.0 
0.0 0.0 -1.641362433154e+02 
-1.644288206872e+02 1.083667097491e+01 0.0 
1.083667097491e+01 -3.873262906208e+02 0.0 
0.0 0.0 -1.651265333924e+02 
-1.652924626965e+02 9.598312873557e+00 0.0 
9.598312873557e+00 -3.893591402646e+02 0.0 
0.0 0.0 -1.659954808883e+02 
-1.659961497070e+02 8.297948516100e+00 0.0 
8.297948516100e+00 -3.909515275114e+02 0.0 
0.0 0.0 -1.666843031655e+02 
-1.665336980391e+02 7.067419508575e+00 0.0 
7.067419508575e+00 -3.920862951666e+02 0.0 
0.0 0.0 -1.671859979617e+02 
-1.669488239642e+02 5.876477145666e+00 0.0 
5.876477145666e+00 -3.928912217142e+02 0.0 
0.0 0.0 -1.675520137035e+02 
-1.670689193919e+02 4.760053187105e+00 0.0 
4.760053187105e+00 -3.930865745814e+02 0.0 
0.0 0.0 -1.676466481920e+02 
-1.671310901630e+02 3.824467546981e+00 0.0 
3.824467546981e+00 -3.930087003177e+02 0.0 
0.0 0.0 -1.676419371442e+02 
-1.669643461410e+02 2.913642406983e+00 0.0 
2.913642406983e+00 -3.925946109165e+02 0.0 
0.0 0.0 -1.674676871172e+02 
-1.671600292314e+02 2.286081337210e+00 0.0 
2.286081337210e+00 -3.927484175828e+02 0.0 
0.0 0.0 -1.675725340443e+02 
-1.676462546520e+02 1.586606300652e+00 0.0 
1.586606300652e+00 -3.933546594431e+02 0.0 
0.0 0.0 -1.679002742285e+02 
-1.677880971436e+02 1.213963709393e+00 0.0 
1.213963709393e+00 -3.933546313079e+02 0.0 
0.0 0.0 -1.679428185355e+02 
-1.663544131799e+02 8.014930402920e-01 0.0 
8.014930402920e-01 -3.904525990881e+02 0.0 
0.0 0.0 -1.666421036804e+02 
-1.674061890416e+02 4.526604538223e-01 0.0 
4.526604538223e-01 -3.921657651924e+02 0.0 
0.0 0.0 -1.674715862702e+02 
-1.668031444097e+02 2.768829317051e-01 0.0 
2.768829317051e-01 -3.910078302340e+02 0.0 
0.0 0.0 -1.669432923931e+02 
-1.669819220071e+02 3.257971091446e-01 0.0 
3.257971091446e-01 -3.912411182824e+02 0.0 
0.0 0.0 -1.670669120868e+02 
-1.672585672631e+02 1.306438357032e-02 0.0 
1.306438357032e-02 -3.917153237387e+02 0.0 
0.0 0.0 -1.672921673006e+02 
-1.671476543669e+02 3.891876122659e-02 0.0 
3.891876122659e-02 -3.914952118032e+02 0.0 
0.0 0.0 -1.671928598510e+02 
-7.371221090671e+01 3.253592352618e-01 0.0 
3.253592352618e-01 -1.572824098508e+02 0.0 
0.0 0.0 -6.889838622725e+01 
-8.182338408275e+01 3.864705856768e-01 0.0 
3.864705856768e-01 -1.770316166670e+02 0.0 
0.0 0.0 -7.725650022492e+01 
-8.995076274838e+01 3.931530669241e-01 0.0 
3.931530669241e-01 -1.966370149962e+02 0.0 
0.0 0.0 -8.557633332336e+01 
-9.774638075983e+01 4.393447295556e-01 0.0 
4.393447295556e-01 -2.158879219200e+02 0.0 
0.0 0.0 -9.369029080395e+01 
-1.055801723161e+02 4.136990534631e-01 0.0 
4.136990534631e-01 -2.356137775691e+02 0.0 
0.0 0.0 -1.019581849656e+02 
-1.135323793844e+02 4.696727924158e-01 0.0 
4.696727924158e-01 -2.554821381888e+02 0.0 
0.0 0.0 -1.103043552720e+02 
-1.210216503063e+02 4.417448946291e-01 0.0 
4.417448946291e-01 -2.751460607073e+02 0.0 
0.0 0.0 -1.184503133041e+02 
-1.283409731427e+02 5.221043155854e-01 0.0 
5.221043155854e-01 -2.946892201488e+02 0.0 
0.0 0.0 -1.265090579874e+02 
-1.359381611205e+02 5.723355876424e-01 0.0 
5.723355876424e-01 -3.148643613614e+02 0.0 
0.0 0.0 -1.348407567446e+02 
-5.719274424645e+01 2.745313216661e+01 0.0 
2.745313216661e+01 -6.962046126881e+01 0.0 
0.0 0.0 -3.846734581049e+01 
-7.092790602702e+01 2.301605780351e+00 0.0 
2.301605780351e+00 -1.399311425317e+02 0.0 
0.0 0.0 -6.285771456763e+01 
-3.775571911924e+01 2.792582427963e+01 0.0 
2.792582427963e+01 -2.840640574930e+01 0.0 
0.0 0.0 -1.952896564964e+01 
-3.236733562321e+01 2.296617447636e+01 0.0 
2.296617447636e+01 -2.562012600000e+01 0.0 
0.0 0.0 -1.568825010583e+01 
-2.789165274411e+01 1.474212430120e+01 0.0 
1.474212430120e+01 -1.933295616133e+01 0.0 
0.0 0.0 -1.317943241059e+01 
-2.156270846668e+01 7.514534005315e+00 0.0 
7.514534005315e+00 -2.212193663950e+01 0.0 
0.0 0.0 -1.270539353186e+01 
-2.904564403189e+01 6.078679369260e+00 0.0 
6.078679369260e+00 -4.190656506828e+01 0.0 
0.0 0.0 -2.088566273005e+01 
-3.774147589894e+01 4.909270062584e+00 0.0 
4.909270062584e+00 -6.174370888556e+01 0.0 
0.0 0.0 -2.944555543535e+01 
-4.613491850411e+01 3.781954362902e+00 0.0 
3.781954362902e+00 -8.107123132163e+01 0.0 
0.0 0.0 -3.776184494772e+01 
-5.449036100686e+01 2.967147368834e+00 0.0 
2.967147368834e+00 -1.003458142711e+02 0.0 
0.0 0.0 -4.605085258338e+01 
-6.266558940168e+01 2.508315966296e+00 0.0 
2.508315966296e+00 -1.196005297848e+02 0.0 
0.0 0.0 -5.427983575594e+01 
-9.092047335336e+00 7.178167989043e-01 0.0 
7.178167989043e-01 -7.271891638090e+00 0.0 
0.0 0.0 -4.509181692028e+00 
-1.426693294392e+01 8.150075155433e-01 0.0 
8.150075155433e-01 -1.971779442255e+01 0.0 
0.0 0.0 -9.795418209940e+00 
-2.254006273460e+01 6.152127191310e-01 0.0 
6.152127191310e-01 -3.927830612950e+01 0.0 
0.0 0.0 -1.814551065923e+01 
-3.101669236493e+01 7.684504131283e-01 0.0 
7.684504131283e-01 -5.877509915307e+01 0.0 
0.0 0.0 -2.653753745540e+01 
-3.956675755828e+01 6.256512239431e-01 0.0 
6.256512239431e-01 -7.827449608826e+01 0.0 
0.0 0.0 -3.495237609396e+01 
-4.810111262115e+01 7.659154971126e-01 0.0 
7.659154971126e-01 -9.777047004797e+01 0.0 
0.0 0.0 -4.336147480074e+01 
-5.659193809430e+01 5.475663608623e-01 0.0 
5.475663608623e-01 -1.171796138874e+02 0.0 
0.0 0.0 -5.173146559450e+01 
-6.414524226671e+01 -2.332316803929e-01 0.0 
-2.332316803929e-01 -1.348494119651e+02 0.0 
0.0 0.0 -5.929839626955e+01 
-6.481636913564e+01 -3.903791200315e-02 0.0 
-3.903791200315e-02 -1.360427513077e+02 0.0 
0.0 0.0 -5.985773613300e+01 
-6.486716671020e+01 -4.341726121911e-02 0.0 
-4.341726121911e-02 -1.360863551186e+02 0.0 
0.0 0.0 -5.988605654864e+01 
-6.494741406369e+01 6.135530170893e-03 0.0 
6.135530170893e-03 -1.358688245510e+02 0.0 
0.0 0.0 -5.984487158442e+01 
-6.636100563980e+01 8.777375572599e-03 0.0 
8.777375572599e-03 -1.385332045013e+02 0.0 
0.0 0.0 -6.106826304232e+01 
-6.551639329470e+01 3.297862526672e-03 0.0 
3.297862526672e-03 -1.362157877366e+02 0.0 
0.0 0.0 -6.011965430937e+01 
-6.584440247626e+01 9.102630407068e-02 0.0 
9.102630407068e-02 -1.360843037709e+02 0.0 
0.0 0.0 -6.017861187415e+01 
-6.617594910402e+01 8.385100102855e-02 0.0 
8.385100102855e-02 -1.363297914347e+02 0.0 
0.0 0.0 -6.035172216162e+01 
-6.665497381419e+01 2.275427403625e-01 0.0 
2.275427403625e-01 -1.368505047286e+02 0.0 
0.0 0.0 -6.065164356285e+01 
-6.703847604710e+01 3.231548830025e-01 0.0 
3.231548830025e-01 -1.369006052993e+02 0.0 
0.0 0.0 -6.078172440392e+01 
-6.761005092700e+01 5.448473693313e-01 0.0 
5.448473693313e-01 -1.370263062702e+02 0.0 
0.0 0.0 -6.099090715916e+01 
-6.810131770512e+01 8.191206163195e-01 0.0 
8.191206163195e-01 -1.371960326973e+02 0.0 
0.0 0.0 -6.118920512072e+01 
-6.884139670915e+01 1.123414505142e+00 0.0 
1.123414505142e+00 -1.376200148165e+02 0.0 
0.0 0.0 -6.153842345769e+01 
-6.964944434492e+01 1.561986835887e+00 0.0 
1.561986835887e+00 -1.383714973702e+02 0.0 
0.0 0.0 -6.200628251454e+01 
-7.933939544596e+01 1.318556436750e+01 0.0 
1.318556436750e+01 -9.686734834353e+01 0.0 
0.0 0.0 -5.322315615342e+01 
-9.397525692776e+01 2.194582494532e+00 0.0 
2.194582494532e+00 -1.046675003232e+02 0.0 
0.0 0.0 -5.995990196381e+01 
-9.788125831454e+01 -2.696144436016e+00 0.0 
-2.696144436016e+00 -1.042155469789e+02 0.0 
0.0 0.0 -6.096321193687e+01 
-8.684825562697e+01 -1.028690302262e+01 0.0 
-1.028690302262e+01 -9.593290754653e+01 0.0 
0.0 0.0 -5.516796651685e+01 
-5.517994354589e+01 -1.934427683698e+01 0.0 
-1.934427683698e+01 -5.784712396045e+01 0.0 
0.0 0.0 -3.418533277643e+01 
-2.665980711912e+01 -1.241624952174e+01 0.0 
-1.241624952174e+01 -1.946709352528e+01 0.0 
0.0 0.0 -1.368912287871e+01 
-1.253276559390e+01 -2.887103326984e+00 0.0 
-2.887103326984e+00 -1.012894331141e+01 0.0 
0.0 0.0 -6.518987279695e+00 
-7.469900344568e+00 -6.673842808699e-01 0.0 
-6.673842808699e-01 -8.493219222953e+00 0.0 
0.0 0.0 -3.960044344545e+00 
-5.076454871912e+00 -3.275356032160e-01 0.0 
-3.275356032160e-01 -8.069171072921e+00 0.0 
0.0 0.0 -2.554050889495e+00 
-3.543976456509e+00 -2.042828589803e-01 0.0 
-2.042828589803e-01 -8.235778800539e+00 0.0 
0.0 0.0 -2.631277888874e+00 
-2.858399685073e+00 3.593047568916e-02 0.0 
3.593047568916e-02 -8.296517482949e+00 0.0 
0.0 0.0 -2.700013846843e+00 
-2.645224508932e+00 -8.314833729145e-02 0.0 
-8.314833729145e-02 -8.741510589938e+00 0.0 
0.0 0.0 -2.495679416602e+00 
-2.373323758156e+00 -9.752075258066e-02 0.0 
-9.752075258066e-02 -8.488662766881e+00 0.0 
0.0 0.0 -2.300450973960e+00 
-1.909843787043e+00 -1.662806715041e-01 0.0 
-1.662806715041e-01 -7.767023486624e+00 0.0 
0.0 0.0 -2.011748560481e+00 
-1.532487690005e+00 -1.768541367503e-01 0.0 
-1.768541367503e-01 -7.953632031413e+00 0.0 
0.0 0.0 -1.949444757341e+00 
-1.235578691532e+00 -1.731978111563e-01 0.0 
-1.731978111563e-01 -8.224739066787e+00 0.0 
0.0 0.0 -1.871424553741e+00 
-9.595036530813e-01 -1.061398698257e-01 0.0 
-1.061398698257e-01 -8.270238763453e+00 0.0 
0.0 0.0 -1.793544120068e+00 
-7.562447249544e-01 -1.207381063514e-01 0.0 
-1.207381063514e-01 -7.877891092244e+00 0.0 
0.0 0.0 -1.635535377681e+00 
-7.571705947210e-01 -2.070627803398e-03 0.0 
-2.070627803398e-03 -7.271410811699e+00 0.0 
0.0 0.0 -1.450992499466e+00 
-1.394853364579e+01 4.435469834052e+00 0.0 
4.435469834052e+00 -5.333599151669e+00 0.0 
0.0 0.0 -5.291946639926e+00 
-8.182272149433e+00 2.964829712957e+00 0.0 
2.964829712957e+00 -1.005878965063e+01 0.0 
0.0 0.0 -5.072318540018e+00 
-4.530980943486e+00 1.303404671216e+00 0.0 
1.303404671216e+00 -1.036683272926e+01 0.0 
0.0 0.0 -4.069344101825e+00 
-2.614446567120e+00 4.985297165559e-01 0.0 
4.985297165559e-01 -9.873690120459e+00 0.0 
0.0 0.0 -3.346441006274e+00 
-1.905510876270e+00 6.618791796177e-02 0.0 
6.618791796177e-02 -9.789226945431e+00 0.0 
0.0 0.0 -3.108421346510e+00 
-1.743633733509e+00 -1.427960607739e-01 0.0 
-1.427960607739e-01 -9.717937657242e+00 0.0 
0.0 0.0 -3.038471417225e+00 
-2.015465436271e+00 -2.672673890558e-01 0.0 
-2.672673890558e-01 -9.714414980434e+00 0.0 
0.0 0.0 -3.118964125012e+00 
-2.481764927888e+00 -3.278829542132e-01 0.0 
-3.278829542132e-01 -9.707449831677e+00 0.0 
0.0 0.0 -3.256764427869e+00 
-3.088452570933e+00 -3.577473111786e-01 0.0 
-3.577473111786e-01 -9.716055240025e+00 0.0 
0.0 0.0 -3.441352343287e+00 
-3.749973458116e+00 -3.649647556341e-01 0.0 
-3.649647556341e-01 -9.723513898646e+00 0.0 
0.0 0.0 -3.642046207028e+00 
-4.435801592098e+00 -3.587841790736e-01 0.0 
-3.587841790736e-01 -9.734199083759e+00 0.0 
0.0 0.0 -3.851000202757e+00 
-5.110160818271e+00 -3.425626543610e-01 0.0 
-3.425626543610e-01 -9.744834160561e+00 0.0 
0.0 0.0 -4.056498493650e+00 
-5.755377571676e+00 -3.201712994328e-01 0.0 
-3.201712994328e-01 -9.756579483158e+00 0.0 
0.0 0.0 -4.253587116450e+00 
-6.358139659975e+00 -2.945369260491e-01 0.0 
-2.945369260491e-01 -9.768459624116e+00 0.0 
0.0 0.0 -4.437979785227e+00 
-6.912859015113e+00 -2.677804103671e-01 0.0 
-2.677804103671e-01 -9.780067285475e+00 0.0 
0.0 0.0 -4.607877890176e+00 
-7.415802933836e+00 -2.405758047981e-01 0.0 
-2.405758047981e-01 -9.790932581244e+00 0.0 
0.0 0.0 -4.762020654524e+00 
-7.864950256092e+00 -2.130145239194e-01 0.0 
-2.130145239194e-01 -9.800859929524e+00 0.0 
0.0 0.0 -4.899743055685e+00 
-8.259198870177e+00 -1.847295927705e-01 0.0 
-1.847295927705e-01 -9.809343131199e+00 0.0 
0.0 0.0 -5.020562600413e+00 
-8.597389121182e+00 -1.545814166367e-01 0.0 
-1.545814166367e-01 -9.815297129806e+00 0.0 
0.0 0.0 -5.123805875296e+00 
-8.877302637741e+00 -1.199224952643e-01 0.0 
-1.199224952643e-01 -9.816569334251e+00 0.0 
0.0 0.0 -5.208161591598e+00 
-9.093967013568e+00 -7.564791280048e-02 0.0 
-7.564791280048e-02 -9.809216611033e+00 0.0 
0.0 0.0 -5.270955087380e+00 
-9.239093366542e+00 -1.358145822992e-02 0.0 
-1.358145822992e-02 -9.786995846282e+00 0.0 
0.0 0.0 -5.307826763847e+00 
-9.303900028947e+00 7.528528059978e-02 0.0 
7.528528059978e-02 -9.733542867477e+00 0.0 
0.0 0.0 -5.311232868927e+00 
-9.324157292553e+00 1.821465539852e-01 0.0 
1.821465539852e-01 -9.149424719438e+00 0.0 
0.0 0.0 -5.142074603597e+00 
-9.168078236764e+00 -2.982158915262e-01 0.0 
-2.982158915262e-01 -6.885877547943e+00 0.0 
0.0 0.0 -4.416186735412e+00 
-1.415788014096e+01 -2.744900966983e-01 0.0 
-2.744900966983e-01 -1.967180260303e+01 0.0 
0.0 0.0 -9.748904823195e+00 
-1.385629748773e+01 -7.804085562265e-02 0.0 
-7.804085562265e-02 -1.956006131417e+01 0.0 
0.0 0.0 -9.624907640569e+00 
-1.371552715687e+01 -8.172718527843e-02 0.0 
-8.172718527843e-02 -1.954021103000e+01 0.0 
0.0 0.0 -9.576721456061e+00 
-1.358197285176e+01 -1.501300781429e-01 0.0 
-1.501300781429e-01 -1.955645073244e+01 0.0 
0.0 0.0 -9.541527075260e+00 
-1.342353305401e+01 -2.174131824361e-01 0.0 
-2.174131824361e-01 -1.957133327256e+01 0.0 
0.0 0.0 -9.498459897971e+00 
-1.322993334579e+01 -2.795209862056e-01 0.0 
-2.795209862056e-01 -1.958092464828e+01 0.0 
0.0 0.0 -9.443257398222e+00 
-1.299860752213e+01 -3.378757398753e-01 0.0 
-3.378757398753e-01 -1.958645023081e+01 0.0 
0.0 0.0 -9.375517325882e+00 
-1.272988782683e+01 -3.942587083589e-01 0.0 
-3.942587083589e-01 -1.958975370649e+01 0.0 
0.0 0.0 -9.295892459996e+00 
-1.242473979332e+01 -4.493336746558e-01 0.0 
-4.493336746558e-01 -1.959232830008e+01 0.0 
0.0 0.0 -9.205120428020e+00 
-1.208555086700e+01 -5.027691613810e-01 0.0 
-5.027691613810e-01 -1.959504785622e+01 0.0 
0.0 0.0 -9.104179616965e+00 
-1.171651995002e+01 -5.533283572518e-01 0.0 
-5.533283572518e-01 -1.959858008896e+01 0.0 
0.0 0.0 -8.994530011694e+00 
-1.132455920422e+01 -5.991502943158e-01 0.0 
-5.991502943158e-01 -1.960337679868e+01 0.0 
0.0 0.0 -8.878380800870e+00 
-1.091910322133e+01 -6.374330336940e-01 0.0 
-6.374330336940e-01 -1.961207400391e+01 0.0 
0.0 0.0 -8.759353167571e+00 
-1.051238152764e+01 -6.614263820434e-01 0.0 
-6.614263820434e-01 -1.962594015240e+01 0.0 
0.0 0.0 -8.641496504014e+00 
-1.012658296409e+01 -6.634154436984e-01 0.0 
-6.634154436984e-01 -1.964880040694e+01 0.0 
0.0 0.0 -8.532615011308e+00 
-9.792530082510e+00 -6.301819317835e-01 0.0 
-6.301819317835e-01 -1.967679840951e+01 0.0 
0.0 0.0 -8.440798547606e+00 
-9.561050328468e+00 -5.531060143904e-01 0.0 
-5.531060143904e-01 -1.972580594465e+01 0.0 
0.0 0.0 -8.386056881935e+00 
-9.482216649441e+00 -4.006886148154e-01 0.0 
-4.006886148154e-01 -1.978239898942e+01 0.0 
0.0 0.0 -8.379384691659e+00 
-9.667637950923e+00 -1.548089789417e-01 0.0 
-1.548089789417e-01 -1.990788837841e+01 0.0 
0.0 0.0 -8.472657898801e+00 
-1.019230552297e+01 2.775466333132e-01 0.0 
2.775466333132e-01 -2.003829989363e+01 0.0 
0.0 0.0 -8.669181624982e+00 
-1.133610930260e+01 9.428891727873e-01 0.0 
9.428891727873e-01 -2.041482061536e+01 0.0 
0.0 0.0 -9.125278975389e+00 
-1.425556347053e+01 2.457853086940e+00 0.0 
2.457853086940e+00 -2.200669596289e+01 0.0 
0.0 0.0 -1.047867783003e+01 
-1.518903240827e+01 3.618313485778e+00 0.0 
3.618313485778e+00 -1.858464643393e+01 0.0 
0.0 0.0 -9.732103652660e+00 
-2.548289461674e+01 3.488642920722e+00 0.0 
3.488642920722e+00 -3.861888829875e+01 0.0 
0.0 0.0 -1.883053487465e+01 
-2.540328679962e+01 2.463890578021e+00 0.0 
2.463890578021e+00 -4.194822005574e+01 0.0 
0.0 0.0 -1.980545205661e+01 
-2.319369777999e+01 1.072955968896e+00 0.0 
1.072955968896e+00 -4.031505864609e+01 0.0 
0.0 0.0 -1.865262692782e+01 
-2.217045081235e+01 3.670350667061e-01 0.0 
3.670350667061e-01 -3.985075032764e+01 0.0 
0.0 0.0 -1.820636034200e+01 
-2.158631018711e+01 -1.285177027895e-01 0.0 
-1.285177027895e-01 -3.966042636783e+01 0.0 
0.0 0.0 -1.797402096648e+01 
-2.119949123535e+01 -4.379922252387e-01 0.0 
-4.379922252387e-01 -3.947098469568e+01 0.0 
0.0 0.0 -1.780114277931e+01 
-2.103030121029e+01 -6.365906810939e-01 0.0 
-6.365906810939e-01 -3.936716419529e+01 0.0 
0.0 0.0 -1.771923962168e+01 
-2.097691027134e+01 -7.431344758103e-01 0.0 
-7.431344758103e-01 -3.927569224788e+01 0.0 
0.0 0.0 -1.767578075577e+01 
-2.101606735193e+01 -7.871299348852e-01 0.0 
-7.871299348852e-01 -3.921995095246e+01 0.0 
0.0 0.0 -1.767080549132e+01 
-2.110500027681e+01 -7.881650761784e-01 0.0 
-7.881650761784e-01 -3.918240014386e+01 0.0 
0.0 0.0 -1.768622012620e+01 
-2.123109896055e+01 -7.639723445952e-01 0.0 
-7.639723445952e-01 -3.916087254886e+01 0.0 
0.0 0.0 -1.771759145282e+01 
-2.137855782292e+01 -7.217424184090e-01 0.0 
-7.217424184090e-01 -3.914536998973e+01 0.0 
0.0 0.0 -1.775717834379e+01 
-2.153408251423e+01 -6.659082598214e-01 0.0 
-6.659082598214e-01 -3.913533027393e+01 0.0 
0.0 0.0 -1.780082383645e+01 
-2.168743852389e+01 -6.012507165606e-01 0.0 
-6.012507165606e-01 -3.912934906495e+01 0.0 
0.0 0.0 -1.784503627665e+01 
-2.183267887404e+01 -5.311070645546e-01 0.0 
-5.311070645546e-01 -3.912495222620e+01 0.0 
0.0 0.0 -1.788728933007e+01 
-2.196756639371e+01 -4.575927470599e-01 0.0 
-4.575927470599e-01 -3.911961729517e+01 0.0 
0.0 0.0 -1.792615510667e+01 
-2.209061601075e+01 -3.806529408070e-01 0.0 
-3.806529408070e-01 -3.911102100726e+01 0.0 
0.0 0.0 -1.796049110540e+01 
-2.220115812027e+01 -3.016484726239e-01 0.0 
-3.016484726239e-01 -3.909925523166e+01 0.0 
0.0 0.0 -1.799012400558e+01 
-2.230273117530e+01 -2.252419501898e-01 0.0 
-2.252419501898e-01 -3.908808099069e+01 0.0 
0.0 0.0 -1.801724364980e+01 
-2.239992230609e+01 -1.592897507658e-01 0.0 
-1.592897507658e-01 -3.909407287207e+01 0.0 
0.0 0.0 -1.804819855345e+01 
-2.249379310199e+01 -9.123480635212e-02 0.0 
-9.123480635212e-02 -3.915525008537e+01 0.0 
0.0 0.0 -1.809471295621e+01 
-2.253138324188e+01 -4.991360053031e-01 0.0 
-4.991360053031e-01 -3.924115541622e+01 0.0 
0.0 0.0 -1.813176159743e+01 
-3.102761895237e+01 -4.038251674020e-01 0.0 
-4.038251674020e-01 -5.873606186015e+01 0.0 
0.0 0.0 -2.652910424376e+01 
-3.102479268906e+01 -2.674878965149e-01 0.0 
-2.674878965149e-01 -5.866772935306e+01 0.0 
0.0 0.0 -2.650775661264e+01 
-3.100002230753e+01 -2.748239517390e-01 0.0 
-2.748239517390e-01 -5.863981157652e+01 0.0 
0.0 0.0 -2.649195016522e+01 
-3.096572685485e+01 -3.527803079957e-01 0.0 
-3.527803079957e-01 -5.863993097185e+01 0.0 
0.0 0.0 -2.648169734801e+01 
-3.093196232302e+01 -4.385753353571e-01 0.0 
-4.385753353571e-01 -5.865092297367e+01 0.0 
0.0 0.0 -2.647486558900e+01 
-3.089966990130e+01 -5.258455051990e-01 0.0 
-5.258455051990e-01 -5.866450641898e+01 0.0 
0.0 0.0 -2.646925289608e+01 
-3.087103920189e+01 -6.083654021430e-01 0.0 
-6.083654021430e-01 -5.867664391360e+01 0.0 
0.0 0.0 -2.646430493465e+01 
-3.085205861821e+01 -6.854220140013e-01 0.0 
-6.854220140013e-01 -5.868547450411e+01 0.0 
0.0 0.0 -2.646125993670e+01 
-3.084658282524e+01 -7.559909845180e-01 0.0 
-7.559909845180e-01 -5.869856565028e+01 0.0 
0.0 0.0 -2.646354454265e+01 
-3.085375593077e+01 -8.133675904129e-01 0.0 
-8.133675904129e-01 -5.872034572074e+01 0.0 
0.0 0.0 -2.647223049545e+01 
-3.088720200452e+01 -8.475158098285e-01 0.0 
-8.475158098285e-01 -5.875321906713e+01 0.0 
0.0 0.0 -2.649212632150e+01 
-3.096256780467e+01 -8.500607058166e-01 0.0 
-8.500607058166e-01 -5.879713054982e+01 0.0 
0.0 0.0 -2.652790950635e+01 
-3.109463331814e+01 -8.149357937193e-01 0.0 
-8.149357937193e-01 -5.885346527769e+01 0.0 
0.0 0.0 -2.658442957875e+01 
-3.130211407786e+01 -7.322187108019e-01 0.0 
-7.322187108019e-01 -5.895730737451e+01 0.0 
0.0 0.0 -2.667782643571e+01 
-3.158774944209e+01 -5.570588140206e-01 0.0 
-5.570588140206e-01 -5.910044833228e+01 0.0 
0.0 0.0 -2.680645933231e+01 
-3.201753729101e+01 -2.721258833295e-01 0.0 
-2.721258833295e-01 -5.933259445256e+01 0.0 
0.0 0.0 -2.700503952307e+01 
-3.258716649462e+01 1.999703442398e-01 0.0 
1.999703442398e-01 -5.956526456664e+01 0.0 
0.0 0.0 -2.724572931838e+01 
-3.348480964772e+01 8.147689793928e-01 0.0 
8.147689793928e-01 -6.002486315604e+01 0.0 
0.0 0.0 -2.765290184113e+01 
-3.527531576843e+01 1.992797743736e+00 0.0 
1.992797743736e+00 -6.167452366904e+01 0.0 
0.0 0.0 -2.868495183124e+01 
-3.509736081822e+01 2.910147629634e+00 0.0 
2.910147629634e+00 -5.844355397690e+01 0.0 
0.0 0.0 -2.766227443854e+01 
-4.413264201994e+01 2.303325433478e+00 0.0 
2.303325433478e+00 -7.799224941966e+01 0.0 
0.0 0.0 -3.623746743188e+01 
-4.451553580044e+01 1.662321830983e+00 0.0 
1.662321830983e+00 -8.122910396891e+01 0.0 
0.0 0.0 -3.732339193081e+01 
-4.296752708506e+01 7.011861702583e-01 0.0 
7.011861702583e-01 -7.968945874509e+01 0.0 
0.0 0.0 -3.639709574905e+01 
-4.216480414733e+01 1.886055292615e-01 0.0 
1.886055292615e-01 -7.916811300055e+01 0.0 
0.0 0.0 -3.599987514436e+01 
-4.164322360570e+01 -1.785812823087e-01 0.0 
-1.785812823087e-01 -7.889288024164e+01 0.0 
0.0 0.0 -3.576083115420e+01 
-4.115923674248e+01 -3.894194020837e-01 0.0 
-3.894194020837e-01 -7.864870185928e+01 0.0 
0.0 0.0 -3.554238158053e+01 
-4.079170228434e+01 -5.310824191893e-01 0.0 
-5.310824191893e-01 -7.853158422634e+01 0.0 
0.0 0.0 -3.539698595320e+01 
-4.050089541691e+01 -6.182406667624e-01 0.0 
-6.182406667624e-01 -7.843416213956e+01 0.0 
0.0 0.0 -3.528051726694e+01 
-4.027349459193e+01 -6.570394387152e-01 0.0 
-6.570394387152e-01 -7.835580789355e+01 0.0 
0.0 0.0 -3.518879074565e+01 
-4.010554121730e+01 -6.532574998954e-01 0.0 
-6.532574998954e-01 -7.829546278924e+01 0.0 
0.0 0.0 -3.512030120196e+01 
-3.997115262170e+01 -6.152738358749e-01 0.0 
-6.152738358749e-01 -7.826312460464e+01 0.0 
0.0 0.0 -3.507028316790e+01 
-3.985625441987e+01 -5.686569413370e-01 0.0 
-5.686569413370e-01 -7.824618692534e+01 0.0 
0.0 0.0 -3.503073240356e+01 
-3.978063925238e+01 -5.146044890161e-01 0.0 
-5.146044890161e-01 -7.822538313799e+01 0.0 
0.0 0.0 -3.500180671711e+01 
-3.972174161956e+01 -4.462706535771e-01 0.0 
-4.462706535771e-01 -7.820310629003e+01 0.0 
0.0 0.0 -3.497745437288e+01 
-3.967885130954e+01 -3.717860414830e-01 0.0 
-3.717860414830e-01 -7.819074255493e+01 0.0 
0.0 0.0 -3.496087815934e+01 
-3.964566119496e+01 -2.975230488933e-01 0.0 
-2.975230488933e-01 -7.818492844976e+01 0.0 
0.0 0.0 -3.494917689342e+01 
-3.962389050191e+01 -2.143968913560e-01 0.0 
-2.143968913560e-01 -7.820039781462e+01 0.0 
0.0 0.0 -3.494728649496e+01 
-3.959084291964e+01 -1.104262445229e-01 0.0 
-1.104262445229e-01 -7.824199213227e+01 0.0 
0.0 0.0 -3.494985051557e+01 
-3.957331656552e+01 -4.987713300553e-01 0.0 
-4.987713300553e-01 -7.827210882394e+01 0.0 
0.0 0.0 -3.495362761684e+01 
-4.808493834466e+01 -3.713161231758e-01 0.0 
-3.713161231758e-01 -9.780268588003e+01 0.0 
0.0 0.0 -4.336628726741e+01 
-4.816151245175e+01 -1.977571415998e-01 0.0 
-1.977571415998e-01 -9.773680001293e+01 0.0 
0.0 0.0 -4.336949373940e+01 
-4.822766354093e+01 -2.234895831778e-01 0.0 
-2.234895831778e-01 -9.771387907296e+01 0.0 
0.0 0.0 -4.338246278417e+01 
-4.830123282101e+01 -2.849978883274e-01 0.0 
-2.849978883274e-01 -9.772844918342e+01 0.0 
0.0 0.0 -4.340890460133e+01 
-4.841550401060e+01 -3.475774261464e-01 0.0 
-3.475774261464e-01 -9.773651309310e+01 0.0 
0.0 0.0 -4.344560513111e+01 
-4.853253759591e+01 -4.053166148074e-01 0.0 
-4.053166148074e-01 -9.776186453177e+01 0.0 
0.0 0.0 -4.348832063830e+01 
-4.868836555562e+01 -4.493776118167e-01 0.0 
-4.493776118167e-01 -9.780717489570e+01 0.0 
0.0 0.0 -4.354866213540e+01 
-4.886775353373e+01 -4.560788264867e-01 0.0 
-4.560788264867e-01 -9.783296600898e+01 0.0 
0.0 0.0 -4.361021586281e+01 
-4.910321967949e+01 -4.762649670924e-01 0.0 
-4.762649670924e-01 -9.785482391871e+01 0.0 
0.0 0.0 -4.368741307946e+01 
-4.936156828816e+01 -4.653148120347e-01 0.0 
-4.653148120347e-01 -9.795347147606e+01 0.0 
0.0 0.0 -4.379451192927e+01 
-4.968522855139e+01 -3.854280691826e-01 0.0 
-3.854280691826e-01 -9.807239136925e+01 0.0 
0.0 0.0 -4.392728597619e+01 
-5.008935300673e+01 -2.573382728882e-01 0.0 
-2.573382728882e-01 -9.820508104579e+01 0.0 
0.0 0.0 -4.408833021576e+01 
-5.055059426114e+01 -6.054819317681e-02 0.0 
-6.054819317681e-02 -9.839428847258e+01 0.0 
0.0 0.0 -4.428346482012e+01 
-5.109443692674e+01 2.209323060851e-01 0.0 
2.209323060851e-01 -9.858160533913e+01 0.0 
0.0 0.0 -4.450281267976e+01 
-5.182358553030e+01 5.543192865275e-01 0.0 
5.543192865275e-01 -9.908747202894e+01 0.0 
0.0 0.0 -4.487331726777e+01 
-5.323930019277e+01 1.351011336234e+00 0.0 
1.351011336234e+00 -1.007115095472e+02 0.0 
0.0 0.0 -4.578524292199e+01 
-5.279774001321e+01 1.869543040645e+00 0.0 
1.869543040645e+00 -9.750391665284e+01 0.0 
0.0 0.0 -4.469049699981e+01 
-6.109156870901e+01 1.607616867728e+00 0.0 
1.607616867728e+00 -1.168264413348e+02 0.0 
0.0 0.0 -5.297540301315e+01 
-6.148146376327e+01 1.267597937125e+00 0.0 
1.267597937125e+00 -1.199303813641e+02 0.0 
0.0 0.0 -5.402355353822e+01 
-6.024206022435e+01 6.930438845343e-01 0.0 
6.930438845343e-01 -1.184865641439e+02 0.0 
0.0 0.0 -5.321858731048e+01 
-5.967085734663e+01 3.774292222618e-01 0.0 
3.774292222618e-01 -1.181385002165e+02 0.0 
0.0 0.0 -5.294280726895e+01 
-5.913144415715e+01 1.757205471935e-01 0.0 
1.757205471935e-01 -1.179329933454e+02 0.0 
0.0 0.0 -5.271933125076e+01 
-5.866244417779e+01 -9.594822699695e-03 0.0 
-9.594822699695e-03 -1.177809437862e+02 0.0 
0.0 0.0 -5.253301638919e+01 
-5.824821736530e+01 -1.312993156746e-01 0.0 
-1.312993156746e-01 -1.175794830051e+02 0.0 
0.0 0.0 -5.234831011112e+01 
-5.790088086240e+01 -1.517183157368e-01 0.0 
-1.517183157368e-01 -1.174751788473e+02 0.0 
0.0 0.0 -5.221281791292e+01 
-5.769939609306e+01 -2.046845219015e-01 0.0 
-2.046845219015e-01 -1.174909348210e+02 0.0 
0.0 0.0 -5.215709927422e+01 
-5.740011371107e+01 -2.032057374452e-01 0.0 
-2.032057374452e-01 -1.174008321963e+02 0.0 
0.0 0.0 -5.204028377222e+01 
-5.719259615870e+01 -2.047456571580e-01 0.0 
-2.047456571580e-01 -1.173490157635e+02 0.0 
0.0 0.0 -5.196248357665e+01 
-5.702748859803e+01 -1.497828131916e-01 0.0 
-1.497828131916e-01 -1.173243097629e+02 0.0 
0.0 0.0 -5.190553950828e+01 
-5.686143148200e+01 -1.451460694307e-01 0.0 
-1.451460694307e-01 -1.173296331594e+02 0.0 
0.0 0.0 -5.185731939242e+01 
-5.674044832671e+01 -8.370739044405e-02 0.0 
-8.370739044405e-02 -1.172586716299e+02 0.0 
0.0 0.0 -5.179973598698e+01 
-5.667683535499e+01 5.336054749542e-02 0.0 
5.336054749542e-02 -1.173868770394e+02 0.0 
0.0 0.0 -5.181911371833e+01 
-5.657060031371e+01 -4.894696184659e-01 0.0 
-4.894696184659e-01 -1.174577985149e+02 0.0 
0.0 0.0 -5.180851964860e+01 
-4.223989604629e+01 3.319987142916e+01 0.0 
3.319987142916e+01 -3.885643383950e+01 0.0 
0.0 0.0 -2.483468922537e+01 
-3.445565377516e+01 2.519310879017e+01 0.0 
2.519310879017e+01 -2.694509522317e+01 0.0 
0.0 0.0 -1.742936960041e+01 
-3.197689198992e+01 2.078701567863e+01 0.0 
2.078701567863e+01 -2.423847347859e+01 0.0 
0.0 0.0 -1.495357037724e+01 
-2.327403846446e+01 9.372120425886e+00 0.0 
9.372120425886e+00 -1.635583139777e+01 0.0 
0.0 0.0 -1.138919896699e+01 
-2.692554147054e+01 7.346944984972e+00 0.0 
7.346944984972e+00 -3.458074717247e+01 0.0 
0.0 0.0 -1.805188659290e+01 
-3.488802022955e+01 5.632481822924e+00 0.0 
5.632481822924e+00 -5.400043733806e+01 0.0 
0.0 0.0 -2.626653727028e+01 
-4.319771952013e+01 4.382801661502e+00 0.0 
4.382801661502e+00 -7.335253540122e+01 0.0 
0.0 0.0 -3.456507647641e+01 
-5.155987323781e+01 3.341937573295e+00 0.0 
3.341937573295e+00 -9.265425866091e+01 0.0 
0.0 0.0 -4.286423956962e+01 
-5.978615835706e+01 2.710735964392e+00 0.0 
2.710735964392e+00 -1.118923903044e+02 0.0 
0.0 0.0 -5.110356459843e+01 
-6.784626928773e+01 2.340148749211e+00 0.0 
2.340148749211e+00 -1.312678625233e+02 0.0 
0.0 0.0 -5.933423954329e+01 
-3.503329103781e+01 2.621353957044e+01 0.0 
2.621353957044e+01 -3.815810046242e+01 0.0 
0.0 0.0 -2.046150991249e+01 
-1.595446657205e+02 1.000755594287e+01 0.0 
1.000755594287e+01 -3.804518838849e+02 0.0 
0.0 0.0 -1.615989648816e+02 
-9.024709206004e+00 -1.396117969279e+00 0.0 
-1.396117969279e+00 -1.725810315637e+01 0.0 
0.0 0.0 -7.580798134147e+00 
-5.544968511774e+01 -1.912149250595e+01 0.0 
-1.912149250595e+01 -8.728004973778e+01 0.0 
0.0 0.0 -4.351350520022e+01 
-1.621680382886e+02 4.061202625662e+00 0.0 
4.061202625662e+00 -3.850670806995e+02 0.0 
0.0 0.0 -1.637705356964e+02 
-3.212067434068e+01 1.435688266570e+01 0.0 
1.435688266570e+01 -4.008804044054e+01 0.0 
0.0 0.0 -2.124989429953e+01 
-8.996937819927e+01 -5.002565994527e-01 0.0 
-5.002565994527e-01 -2.117262788192e+02 0.0 
0.0 0.0 -9.010869710554e+01 
-1.556750204611e+02 1.436495777828e+01 0.0 
1.436495777828e+01 -3.695240945763e+02 0.0 
0.0 0.0 -1.571597345112e+02 
-4.348314489408e+01 7.989124913647e+00 0.0 
7.989124913647e+00 -7.194857308533e+01 0.0 
0.0 0.0 -3.422951539382e+01 
-1.518588727598e+02 1.635577506750e+01 0.0 
1.635577506750e+01 -3.560379915757e+02 0.0 
0.0 0.0 -1.519690593006e+02 
-5.940790587546e+01 4.560301463775e+00 0.0 
4.560301463775e+00 -1.102436531329e+02 0.0 
0.0 0.0 -5.049546770250e+01 
-1.637797446407e+02 1.237059318518e+00 0.0 
1.237059318518e+00 -3.856923322893e+02 0.0 
0.0 0.0 -1.644416230790e+02 
-4.398280466987e+00 -2.437675633130e-01 0.0 
-2.437675633130e-01 -1.613928368885e+01 0.0 
0.0 0.0 -5.587759172985e+00 
-1.473563376847e+02 1.507771927435e+01 0.0 
1.507771927435e+01 -3.418498784684e+02 0.0 
0.0 0.0 -1.463618648459e+02 
-7.518408565502e+01 3.182043118863e+00 0.0 
3.182043118863e+00 -1.487292213610e+02 0.0 
0.0 0.0 -6.677399210480e+01 
-5.581703783454e+01 -5.453942207086e-01 0.0 
-5.453942207086e-01 -1.306027521543e+02 0.0 
0.0 0.0 -5.552593699666e+01 
-1.131164460463e+02 -4.185602305206e-01 0.0 
-4.185602305206e-01 -2.667969072633e+02 0.0 
0.0 0.0 -1.135740059929e+02 
-1.442772973871e+02 1.277050957478e+01 0.0 
1.277050957478e+01 -3.326730245668e+02 0.0 
0.0 0.0 -1.426850965862e+02 
-1.411333031499e+02 8.994283959675e+00 0.0 
8.994283959675e+00 -3.258565598118e+02 0.0 
0.0 0.0 -1.396969588885e+02 
-1.375176758643e+02 2.739608188854e+00 0.0 
2.739608188854e+00 -3.193044202401e+02 0.0 
0.0 0.0 -1.366466288313e+02 
-1.377513920315e+02 4.406614363147e+00 0.0 
4.406614363147e+00 -3.187100961507e+02 0.0 
0.0 0.0 -1.365384464547e+02 
-1.395880376945e+02 6.700220624585e+00 0.0 
6.700220624585e+00 -3.229498310809e+02 0.0 
0.0 0.0 -1.383613606326e+02 
-7.728116102801e+01 2.013356846618e+00 0.0 
2.013356846618e+00 -1.562516204696e+02 0.0 
0.0 0.0 -6.965983444928e+01 
-7.476414511635e+01 7.162863956200e-01 0.0 
7.162863956200e-01 -1.548799139559e+02 0.0 
0.0 0.0 -6.849321772167e+01 
-7.415710885384e+01 4.257910163412e-01 0.0 
4.257910163412e-01 -1.558504045784e+02 0.0 
0.0 0.0 -6.860225402969e+01 
-1.017943062403e+02 3.382782003079e-01 0.0 
3.382782003079e-01 -2.258701262347e+02 0.0 
0.0 0.0 -9.789932974250e+01 
-1.633133320984e+02 3.958127634016e-01 0.0 
3.958127634016e-01 -3.834898485527e+02 0.0 
0.0 0.0 -1.636409541953e+02 
-6.459902092593e+01 1.026900217196e+01 0.0 
1.026900217196e+01 -1.071192329832e+02 0.0 
0.0 0.0 -5.233500480988e+01 
-3.713730608427e+00 -1.992024424114e-01 0.0 
-1.992024424114e-01 -1.718091265667e+01 0.0 
0.0 0.0 -5.525962432864e+00 
-1.400628686870e+02 -8.334891975292e-02 0.0 
-8.334891975292e-02 -3.294414285762e+02 0.0 
0.0 0.0 -1.404512891790e+02 
-7.224339631576e+01 3.529822515399e-02 0.0 
3.529822515399e-02 -1.534061235860e+02 0.0 
0.0 0.0 -6.729485597054e+01 
-2.702769202666e+01 -3.128369298178e-01 0.0 
-3.128369298178e-01 -6.888302246116e+01 0.0 
0.0 0.0 -2.837321434634e+01 
-1.413313857784e+02 1.070202990455e+01 0.0 
1.070202990455e+01 -3.254328519245e+02 0.0 
0.0 0.0 -1.396292713109e+02 
-1.544669950303e+02 1.582180642285e+01 0.0 
1.582180642285e+01 -3.643074453703e+02 0.0 
0.0 0.0 -1.552323321202e+02 
-1.495270682320e+02 1.606105485388e+01 0.0 
1.606105485388e+01 -3.485825474908e+02 0.0 
0.0 0.0 -1.490328847168e+02 
-1.569046756592e+02 1.247671079003e+01 0.0 
1.247671079003e+01 -3.742796478179e+02 0.0 
0.0 0.0 -1.589552970431e+02 
-1.611911391188e+02 7.519396937869e+00 0.0 
7.519396937869e+00 -3.839062394281e+02 0.0 
0.0 0.0 -1.631292135641e+02 
-2.709123327214e+01 -1.151277633823e+01 0.0 
-1.151277633823e+01 -2.437252317020e+01 0.0 
0.0 0.0 -1.507209059824e+01 
-7.562453166276e+01 1.187692715013e+00 0.0 
1.187692715013e+00 -1.547271672452e+02 0.0 
0.0 0.0 -6.870550967238e+01 
-1.612012696039e+02 2.350966527188e+00 0.0 
2.350966527188e+00 -3.821195897468e+02 0.0 
0.0 0.0 -1.625962578052e+02 
-1.169877980226e+02 4.210862835348e-01 0.0 
4.210862835348e-01 -2.648439637732e+02 0.0 
0.0 0.0 -1.141495285388e+02 
-6.113260990284e+00 -3.713197700625e-01 0.0 
-3.713197700625e-01 -1.721529719332e+01 0.0 
0.0 0.0 -6.711292864889e+00 
-7.275734886072e+01 -5.618321138971e-01 0.0 
-5.618321138971e-01 -1.701213544388e+02 0.0 
0.0 0.0 -7.246361098987e+01 
-1.382963858096e+02 1.700675609706e+00 0.0 
1.700675609706e+00 -3.218179527680e+02 0.0 
0.0 0.0 -1.376343015733e+02 
-3.767969916265e+01 1.117917756314e+01 0.0 
1.117917756314e+01 -5.679300714420e+01 0.0 
0.0 0.0 -2.794181189206e+01 
-3.360541487253e+01 2.167897990754e+01 0.0 
2.167897990754e+01 -3.519192381054e+01 0.0 
0.0 0.0 -1.915890682309e+01 
-5.135956317667e+01 6.012179176385e+00 0.0 
6.012179176385e+00 -9.096564637490e+01 0.0 
0.0 0.0 -4.229756286547e+01 
-6.730114089005e+01 3.772754921080e+00 0.0 
3.772754921080e+00 -1.292043023934e+02 0.0 
0.0 0.0 -5.855163298503e+01 
-4.024091216016e+01 3.231963950721e+01 0.0 
3.231963950721e+01 -4.501057279920e+01 0.0 
0.0 0.0 -2.579014289750e+01 
-8.667561961925e+01 1.396972487520e-01 0.0 
1.396972487520e-01 -1.883947567139e+02 0.0 
0.0 0.0 -8.212111289994e+01 
-1.646895777371e+02 1.512769245200e-01 0.0 
1.512769245200e-01 -3.861295100472e+02 0.0 
0.0 0.0 -1.648457263353e+02 
-3.211037919799e+00 -1.693825668088e-01 0.0 
-1.693825668088e-01 -1.638462395862e+01 0.0 
0.0 0.0 -5.073765655213e+00 
-1.316989835849e+02 4.172379880283e-01 0.0 
4.172379880283e-01 -3.036238783484e+02 0.0 
0.0 0.0 -1.301968585800e+02 
-7.897072045670e+01 3.104552340737e+00 0.0 
3.104552340737e+00 -1.577412960628e+02 0.0 
0.0 0.0 -7.061360495585e+01 
-8.298115046885e+01 4.069042157146e+00 0.0 
4.069042157146e+00 -1.667447329384e+02 0.0 
0.0 0.0 -7.451776502218e+01 
-8.633600836277e+01 3.697096016228e+00 0.0 
3.697096016228e+00 -1.755163397467e+02 0.0 
0.0 0.0 -7.815570443284e+01 
-9.094930316466e+01 5.004130209694e+00 0.0 
5.004130209694e+00 -1.862331458511e+02 0.0 
0.0 0.0 -8.275473470473e+01 
-9.466594388949e+01 4.749348878021e+00 0.0 
4.749348878021e+00 -1.958846779654e+02 0.0 
0.0 0.0 -8.676518655648e+01 
-9.874783140832e+01 5.849039063657e+00 0.0 
5.849039063657e+00 -2.056752345250e+02 0.0 
0.0 0.0 -9.092691978000e+01 
-9.519402608122e+01 6.160163003078e+00 0.0 
6.160163003078e+00 -1.962095799685e+02 0.0 
0.0 0.0 -8.702108181491e+01 
-1.028810264371e+02 7.001364748496e+00 0.0 
7.001364748496e+00 -2.158133122598e+02 0.0 
0.0 0.0 -9.520830160907e+01 
-9.924873742413e+01 7.376824046064e+00 0.0 
7.376824046064e+00 -2.064089762753e+02 0.0 
0.0 0.0 -9.129731410983e+01 
-1.025658608157e+02 5.636764131516e+00 0.0 
5.636764131516e+00 -2.155796555234e+02 0.0 
0.0 0.0 -9.504365490173e+01 
-1.068553925931e+02 8.182453589747e+00 0.0 
8.182453589747e+00 -2.262010902669e+02 0.0 
0.0 0.0 -9.951694485801e+01 
-1.032007086705e+02 8.624422988305e+00 0.0 
8.624422988305e+00 -2.169550917656e+02 0.0 
0.0 0.0 -9.564674013082e+01 
-1.107089768936e+02 9.348133473798e+00 0.0 
9.348133473798e+00 -2.368598681100e+02 0.0 
0.0 0.0 -1.038706535011e+02 
-1.070233174367e+02 9.856171567953e+00 0.0 
9.856171567953e+00 -2.278553842895e+02 0.0 
0.0 0.0 -1.000636105178e+02 
-9.950923411403e+01 9.203804432977e+00 0.0 
9.203804432977e+00 -2.079927255170e+02 0.0 
0.0 0.0 -9.185058788930e+01 
-1.032574522022e+02 1.047991207213e+01 0.0 
1.047991207213e+01 -2.191443226042e+02 0.0 
0.0 0.0 -9.632053244191e+01 
-9.574001093358e+01 9.924128714580e+00 0.0 
9.924128714580e+00 -1.992162090280e+02 0.0 
0.0 0.0 -8.808686598847e+01 
-9.939924460526e+01 1.125484458869e+01 0.0 
1.125484458869e+01 -2.106956311872e+02 0.0 
0.0 0.0 -9.262846273773e+01 
-1.068637577590e+02 1.164693942273e+01 0.0 
1.164693942273e+01 -2.306329803334e+02 0.0 
0.0 0.0 -1.008490214277e+02 
-1.028894727462e+02 1.243356303583e+01 0.0 
1.243356303583e+01 -2.225153663594e+02 0.0 
0.0 0.0 -9.722145173167e+01 
-9.538553413884e+01 1.218452983821e+01 0.0 
1.218452983821e+01 -2.024953846325e+02 0.0 
0.0 0.0 -8.896427563141e+01 
-9.872723339423e+01 1.334318464728e+01 0.0 
1.334318464728e+01 -2.146787631863e+02 0.0 
0.0 0.0 -9.362179897415e+01 
-9.124159995840e+01 1.326502744906e+01 0.0 
1.326502744906e+01 -1.946384091197e+02 0.0 
0.0 0.0 -8.536400272343e+01 
-9.441572106437e+01 1.436627875693e+01 0.0 
1.436627875693e+01 -2.072484946277e+02 0.0 
0.0 0.0 -9.009926470763e+01 
-8.693187135952e+01 1.449981723636e+01 0.0 
1.449981723636e+01 -1.871474333336e+02 0.0 
0.0 0.0 -8.182379140792e+01 
-8.991446086046e+01 1.548438399650e+01 0.0 
1.548438399650e+01 -2.002476625465e+02 0.0 
0.0 0.0 -8.664863702208e+01 
-9.744461533135e+01 1.511720619729e+01 0.0 
1.511720619729e+01 -2.200747244924e+02 0.0 
0.0 0.0 -9.485580194712e+01 
-9.273011154255e+01 1.603681642379e+01 0.0 
1.603681642379e+01 -2.134445806878e+02 0.0 
0.0 0.0 -9.145240766910e+01 
-8.519999292329e+01 1.664795203133e+01 0.0 
1.664795203133e+01 -1.937480490463e+02 0.0 
0.0 0.0 -8.328441259088e+01 
-8.780632669791e+01 1.691853552747e+01 0.0 
1.691853552747e+01 -2.073087679086e+02 0.0 
0.0 0.0 -8.813452838195e+01 
-8.027346836708e+01 1.778059253017e+01 0.0 
1.778059253017e+01 -1.878421077128e+02 0.0 
0.0 0.0 -8.003467282397e+01 
-8.267291987787e+01 1.766444603923e+01 0.0 
1.766444603923e+01 -2.016855144897e+02 0.0 
0.0 0.0 -8.490753031028e+01 
-9.041804607104e+01 1.669650783246e+01 0.0 
1.669650783246e+01 -2.206747112209e+02 0.0 
0.0 0.0 -9.292782718757e+01 
-8.516632004403e+01 1.701351630585e+01 0.0 
1.701351630585e+01 -2.151871935250e+02 0.0 
0.0 0.0 -8.970605407071e+01 
-7.733461393651e+01 1.816069253783e+01 0.0 
1.816069253783e+01 -1.965602661039e+02 0.0 
0.0 0.0 -8.176846401214e+01 
-7.977181761906e+01 1.698934584118e+01 0.0 
1.698934584118e+01 -2.101001237076e+02 0.0 
0.0 0.0 -8.656158239800e+01 
-7.186411772259e+01 1.827285603738e+01 0.0 
1.827285603738e+01 -1.919511431017e+02 0.0 
0.0 0.0 -7.874457824727e+01 
-7.431655824806e+01 1.650050699810e+01 0.0 
1.650050699810e+01 -2.053785040264e+02 0.0 
0.0 0.0 -8.350851868233e+01 
-6.631494114206e+01 1.783247951220e+01 0.0 
1.783247951220e+01 -1.878111548467e+02 0.0 
0.0 0.0 -7.583782879664e+01 
-6.884836245253e+01 1.541684231208e+01 0.0 
1.541684231208e+01 -2.008310870031e+02 0.0 
0.0 0.0 -8.050383483669e+01 
-7.712847174812e+01 1.439669320379e+01 0.0 
1.439669320379e+01 -2.178417458457e+02 0.0 
0.0 0.0 -8.809106527814e+01 
-7.185510837778e+01 1.279859299838e+01 0.0 
1.279859299838e+01 -2.127296040781e+02 0.0 
0.0 0.0 -8.497541373676e+01 
-6.351906230295e+01 1.363230841497e+01 0.0 
1.363230841497e+01 -1.963368145956e+02 0.0 
0.0 0.0 -7.755676306956e+01 
-6.679159566061e+01 1.053512626437e+01 0.0 
1.053512626437e+01 -2.073430311218e+02 0.0 
0.0 0.0 -8.184038803474e+01 
-7.533750818321e+01 1.017370071293e+01 0.0 
1.017370071293e+01 -2.235707937571e+02 0.0 
0.0 0.0 -8.927249058208e+01 
-7.057455332445e+01 7.634536029036e+00 0.0 
7.634536029036e+00 -2.171921606874e+02 0.0 
0.0 0.0 -8.593001420354e+01 
-7.925431190871e+01 7.728223792569e+00 0.0 
7.728223792569e+00 -2.334593279230e+02 0.0 
0.0 0.0 -9.341409194952e+01 
-7.478931034328e+01 5.090968269770e+00 0.0 
5.090968269770e+00 -2.261052249593e+02 0.0 
0.0 0.0 -8.986836059078e+01 
-6.629168892471e+01 4.580419724673e+00 0.0 
4.580419724673e+00 -2.101856912871e+02 0.0 
0.0 0.0 -8.254321406355e+01 
-7.080919423311e+01 2.109334458116e+00 0.0 
2.109334458116e+00 -2.179987179580e+02 0.0 
0.0 0.0 -8.624237365732e+01 
-7.932570216188e+01 2.992263975132e+00 0.0 
2.992263975132e+00 -2.342971256903e+02 0.0 
0.0 0.0 -9.368684835565e+01 
-7.556689022294e+01 2.247054974050e-01 0.0 
2.247054974050e-01 -2.252223648331e+02 0.0 
0.0 0.0 -8.983677651680e+01 
-6.738441744786e+01 -1.060957669291e+00 0.0 
-1.060957669291e+00 -2.089303321678e+02 0.0 
0.0 0.0 -8.249442488468e+01 
-7.231626948240e+01 -2.556150479923e+00 0.0 
-2.556150479923e+00 -2.152840342355e+02 0.0 
0.0 0.0 -8.588009111537e+01 
-8.047123211471e+01 -1.105996906543e+00 0.0 
-1.105996906543e+00 -2.321662044905e+02 0.0 
0.0 0.0 -9.339123098157e+01 
-7.728784580296e+01 -3.462208974647e+00 0.0 
-3.462208974647e+00 -2.215688007071e+02 0.0 
0.0 0.0 -8.925699395301e+01 
-6.951823717909e+01 -5.144542682203e+00 0.0 
-5.144542682203e+00 -2.043916066676e+02 0.0 
0.0 0.0 -8.177295315400e+01 
-7.444082547583e+01 -5.539865581466e+00 0.0 
-5.539865581466e+00 -2.101940372711e+02 0.0 
0.0 0.0 -8.499045882407e+01 
-8.226244425880e+01 -3.896175865764e+00 0.0 
-3.896175865764e+00 -2.280277260301e+02 0.0 
0.0 0.0 -9.268705108667e+01 
-7.926304556840e+01 -5.525161350753e+00 0.0 
-5.525161350753e+00 -2.162733076047e+02 0.0 
0.0 0.0 -8.826090595193e+01 
-7.180269866108e+01 -7.182375910947e+00 0.0 
-7.182375910947e+00 -1.980455712409e+02 0.0 
0.0 0.0 -8.055448097059e+01 
-7.639399371583e+01 -6.742355540799e+00 0.0 
-6.742355540799e+00 -2.039761010927e+02 0.0 
0.0 0.0 -8.371102844256e+01 
-8.400174097979e+01 -5.246452812736e+00 0.0 
-5.246452812736e+00 -2.227296395221e+02 0.0 
0.0 0.0 -9.161941415056e+01 
-8.086476351618e+01 -6.125441927111e+00 0.0 
-6.125441927111e+00 -2.103231965469e+02 0.0 
0.0 0.0 -8.695638801891e+01 
-8.863491433376e+01 -4.795731919737e+00 0.0 
-4.795731919737e+00 -2.294669535198e+02 0.0 
0.0 0.0 -9.503056035606e+01 
-7.345195758269e+01 -7.467673685934e+00 0.0 
-7.467673685934e+00 -1.911004894857e+02 0.0 
0.0 0.0 -7.896573412052e+01 
-7.763559903289e+01 -6.576288244299e+00 0.0 
-6.576288244299e+00 -1.975839563024e+02 0.0 
0.0 0.0 -8.216586660060e+01 
-7.031586629973e+01 -7.680076322547e+00 0.0 
-7.680076322547e+00 -1.778752882501e+02 0.0 
0.0 0.0 -7.405734636496e+01 
-7.423416883590e+01 -6.603850666990e+00 0.0 
-6.603850666990e+00 -1.846940488950e+02 0.0 
0.0 0.0 -7.727846531926e+01 
-9.314669223144e+01 1.605010329787e+01 0.0 
1.605010329787e+01 -2.337044945796e+02 0.0 
0.0 0.0 -9.765535604331e+01 
-6.689619350356e+01 -7.391837311624e+00 0.0 
-7.391837311624e+00 -1.646215368616e+02 0.0 
0.0 0.0 -6.905531910954e+01 
-6.334672184604e+01 -8.627939732950e+00 0.0 
-8.627939732950e+00 -1.580954525079e+02 0.0 
0.0 0.0 -6.603265230618e+01 
-7.056231616849e+01 -6.249351824313e+00 0.0 
-6.249351824313e+00 -1.718273431827e+02 0.0 
0.0 0.0 -7.231689780536e+01 
-7.818051399498e+01 -5.592641710939e+00 0.0 
-5.592641710939e+00 -1.919980491566e+02 0.0 
0.0 0.0 -8.065356894547e+01 
-6.307172370814e+01 -6.699215711034e+00 0.0 
-6.699215711034e+00 -1.514874943848e+02 0.0 
0.0 0.0 -6.396776542788e+01 
-6.655212854378e+01 -5.607493122641e+00 0.0 
-5.607493122641e+00 -1.590823334996e+02 0.0 
0.0 0.0 -6.729033861301e+01 
-5.880117906708e+01 -5.756752669717e+00 0.0 
-5.756752669717e+00 -1.386087920378e+02 0.0 
0.0 0.0 -5.882299133146e+01 
-6.401664764568e+01 1.979620093485e+01 0.0 
1.979620093485e+01 -1.733708632969e+02 0.0 
0.0 0.0 -7.081625328278e+01 
-1.103598211339e+02 1.267239406770e+01 0.0 
1.267239406770e+01 -2.424185804082e+02 0.0 
0.0 0.0 -1.054335204626e+02 
-6.217454699111e+01 -4.781512813910e+00 0.0 
-4.781512813910e+00 -1.465573857264e+02 0.0 
0.0 0.0 -6.221957981524e+01 
-5.408218031840e+01 -4.656729331916e+00 0.0 
-4.656729331916e+00 -1.260555013970e+02 0.0 
0.0 0.0 -5.364130451462e+01 
-5.094555225819e+01 -5.568435634071e+00 0.0 
-5.568435634071e+00 -1.179797194151e+02 0.0 
0.0 0.0 -5.027758150199e+01 
-4.580982108087e+01 -4.248218395829e+00 0.0 
-4.248218395829e+00 -1.055219736241e+02 0.0 
0.0 0.0 -4.499953841148e+01 
-9.854285677538e+01 4.697546961979e+00 0.0 
4.697546961979e+00 -2.058985609563e+02 0.0 
0.0 0.0 -9.093242531952e+01 
-1.061090588563e+02 5.407594278303e+00 0.0 
5.407594278303e+00 -2.255709529979e+02 0.0 
0.0 0.0 -9.910400355625e+01 
-1.018245031407e+02 4.469151535477e+00 0.0 
4.469151535477e+00 -2.153411818991e+02 0.0 
0.0 0.0 -9.474970551191e+01 
-1.095995175937e+02 5.266842368199e+00 0.0 
5.266842368199e+00 -2.355858945014e+02 0.0 
0.0 0.0 -1.031556236285e+02 
-1.055437741290e+02 4.377018744092e+00 0.0 
4.377018744092e+00 -2.258389434961e+02 0.0 
0.0 0.0 -9.901481528752e+01 
-4.900220469541e+01 -3.538425158485e+00 0.0 
-3.538425158485e+00 -1.138214777622e+02 0.0 
0.0 0.0 -4.844710473729e+01 
-1.143786344816e+02 8.941508550289e+00 0.0 
8.941508550289e+00 -2.462677178032e+02 0.0 
0.0 0.0 -1.077939056854e+02 
-1.136236535041e+02 6.217864382419e+00 0.0 
6.217864382419e+00 -2.454809666609e+02 0.0 
0.0 0.0 -1.073313860495e+02 
-8.785400900256e+01 1.186435972946e+01 0.0 
1.186435972946e+01 -1.823763898209e+02 0.0 
0.0 0.0 -8.066911964704e+01 
-7.779579623355e+01 1.728540582868e+01 0.0 
1.728540582868e+01 -1.737975284763e+02 0.0 
0.0 0.0 -7.507799741294e+01 
-8.409912674626e+01 9.935177561661e+00 0.0 
9.935177561661e+00 -2.402632343302e+02 0.0 
0.0 0.0 -9.690870832293e+01 
-7.013589840223e+01 -4.614290563617e+00 0.0 
-4.614290563617e+00 -1.669268593180e+02 0.0 
0.0 0.0 -7.071882731606e+01 
-6.569408014313e+01 -3.912764850901e+00 0.0 
-3.912764850901e+00 -1.547029796792e+02 0.0 
0.0 0.0 -6.571911794670e+01 
-7.376226389681e+01 -3.706272239888e+00 0.0 
-3.706272239888e+00 -1.750133947704e+02 0.0 
0.0 0.0 -7.423269760015e+01 
-9.200030875678e+01 -3.818391307491e+00 0.0 
-3.818391307491e+00 -2.415310337397e+02 0.0 
0.0 0.0 -9.965940274895e+01 
-9.672816996716e+01 -3.512538539685e+00 0.0 
-3.512538539685e+00 -2.485473350019e+02 0.0 
0.0 0.0 -1.031826514907e+02 
-1.003327020357e+02 -2.486928581468e+00 0.0 
-2.486928581468e+00 -2.603288084280e+02 0.0 
0.0 0.0 -1.077984531391e+02 
-1.051143129247e+02 -2.303525372934e+00 0.0 
-2.303525372934e+00 -2.675615749415e+02 0.0 
0.0 0.0 -1.114027663598e+02 
-1.089614632747e+02 -1.264603038397e+00 0.0 
-1.264603038397e+00 -2.791143151366e+02 0.0 
0.0 0.0 -1.160227335234e+02 
-1.137693326321e+02 -1.193019051390e+00 0.0 
-1.193019051390e+00 -2.865288628070e+02 0.0 
0.0 0.0 -1.196894586317e+02 
-1.097956125544e+02 -2.034164064624e+00 0.0 
-2.034164064624e+00 -2.749035061913e+02 0.0 
0.0 0.0 -1.150097356237e+02 
-1.184762407998e+02 -1.042580453422e+00 0.0 
-1.042580453422e+00 -2.940123282121e+02 0.0 
0.0 0.0 -1.233465707036e+02 
-1.143770591735e+02 -1.721900354951e+00 0.0 
-1.721900354951e+00 -2.823627081284e+02 0.0 
0.0 0.0 -1.186219301906e+02 
-1.178583054215e+02 -1.665837855373e-01 0.0 
-1.665837855373e-01 -2.978882015997e+02 0.0 
0.0 0.0 -1.243239521063e+02 
-1.129286777707e+02 -3.667753776361e-02 0.0 
-3.667753776361e-02 -2.902957802278e+02 0.0 
0.0 0.0 -1.205673373995e+02 
-1.230781681998e+02 -8.551160402588e-01 0.0 
-8.551160402588e-01 -3.015715777621e+02 0.0 
0.0 0.0 -1.269949237886e+02 
-1.188583967736e+02 -1.402801134157e+00 0.0 
-1.402801134157e+00 -2.899342421109e+02 0.0 
0.0 0.0 -1.222377916653e+02 
-1.275784022311e+02 -6.626660325262e-01 0.0 
-6.626660325262e-01 -3.092212746410e+02 0.0 
0.0 0.0 -1.306399030616e+02 
-1.232402569157e+02 -1.094334134201e+00 0.0 
-1.094334134201e+00 -2.976163614907e+02 0.0 
0.0 0.0 -1.258569855219e+02 
-1.146528130616e+02 -1.783319515681e+00 0.0 
-1.783319515681e+00 -2.781526032533e+02 0.0 
0.0 0.0 -1.174416248945e+02 
-1.189024976614e+02 -1.382909090535e+00 0.0 
-1.382909090535e+00 -2.858971722656e+02 0.0 
0.0 0.0 -1.210399009781e+02 
-1.104532672587e+02 -1.985049947793e+00 0.0 
-1.985049947793e+00 -2.663689096605e+02 0.0 
0.0 0.0 -1.126466530758e+02 
-8.813645276364e+01 7.871816825710e+00 0.0 
7.871816825710e+00 -2.501986556312e+02 0.0 
0.0 0.0 -1.011005325185e+02 
-9.304386017428e+01 9.804088710689e+00 0.0 
9.804088710689e+00 -2.573628612336e+02 0.0 
0.0 0.0 -1.047220164224e+02 
-9.719854707274e+01 8.059397587545e+00 0.0 
8.059397587545e+00 -2.673375127890e+02 0.0 
0.0 0.0 -1.089608179585e+02 
-1.021597462109e+02 9.771421403440e+00 0.0 
9.771421403440e+00 -2.748093958538e+02 0.0 
0.0 0.0 -1.126907426194e+02 
-1.064476625479e+02 8.300591703942e+00 0.0 
8.300591703942e+00 -2.848158731702e+02 0.0 
0.0 0.0 -1.169790607154e+02 
-1.114472872945e+02 9.840154045808e+00 0.0 
9.840154045808e+00 -2.925301085567e+02 0.0 
0.0 0.0 -1.207932187553e+02 
-1.158771170795e+02 8.600913819071e+00 0.0 
8.600913819071e+00 -3.025324186024e+02 0.0 
0.0 0.0 -1.251228607046e+02 
-1.109852404753e+02 6.990340073019e+00 0.0 
6.990340073019e+00 -2.943039625103e+02 0.0 
0.0 0.0 -1.211867608957e+02 
-1.144124124128e+02 1.048176268326e+01 0.0 
1.048176268326e+01 -2.477574808436e+02 0.0 
0.0 0.0 -1.082509679769e+02 
-5.848842449738e+01 1.102935530964e+01 0.0 
1.102935530964e+01 -1.916329843070e+02 0.0 
0.0 0.0 -7.463642264132e+01 
-5.547348364556e+01 1.466976102816e+01 0.0 
1.466976102816e+01 -1.803583370067e+02 0.0 
0.0 0.0 -7.034954619567e+01 
-5.051272834057e+01 1.169101967889e+01 0.0 
1.169101967889e+01 -1.765297696310e+02 0.0 
0.0 0.0 -6.771274939148e+01 
-4.786757181159e+01 1.595848004337e+01 0.0 
1.595848004337e+01 -1.648770625445e+02 0.0 
0.0 0.0 -6.342339030683e+01 
-4.301747730727e+01 1.259884442432e+01 0.0 
1.259884442432e+01 -1.621190375931e+02 0.0 
0.0 0.0 -6.114095447010e+01 
-4.092988849964e+01 1.755815657971e+01 0.0 
1.755815657971e+01 -1.498806597634e+02 0.0 
0.0 0.0 -5.684316447890e+01 
-3.639475940807e+01 1.383126016869e+01 0.0 
1.383126016869e+01 -1.484250987592e+02 0.0 
0.0 0.0 -5.499100044032e+01 
-3.882601699875e+01 7.928730292823e+00 0.0 
7.928730292823e+00 -1.586842927591e+02 0.0 
0.0 0.0 -5.882905731935e+01 
-3.302159795488e+01 8.399903424833e+00 0.0 
8.399903424833e+00 -1.463351664795e+02 0.0 
0.0 0.0 -5.351034349280e+01 
-3.592720822657e+01 1.951603674579e+00 0.0 
1.951603674579e+00 -1.536157903790e+02 0.0 
0.0 0.0 -5.633827326250e+01 
-3.084305823881e+01 1.398774866914e+00 0.0 
1.398774866914e+00 -1.422278151133e+02 0.0 
0.0 0.0 -5.208247936902e+01 
-3.439696165527e+01 -4.810259825201e+00 0.0 
-4.810259825201e+00 -1.459020427697e+02 0.0 
0.0 0.0 -5.380531519962e+01 
-1.003874230039e+02 1.550632367370e+01 0.0 
1.550632367370e+01 -2.329558193500e+02 0.0 
0.0 0.0 -9.960297270617e+01 
-1.072750969889e+02 1.117473791683e+01 0.0 
1.117473791683e+01 -2.819808995389e+02 0.0 
0.0 0.0 -1.163767989583e+02 
-1.165793785459e+02 1.112964271514e+01 0.0 
1.112964271514e+01 -2.999888382013e+02 0.0 
0.0 0.0 -1.245704650241e+02 
-1.124322724497e+02 1.228311152947e+01 0.0 
1.228311152947e+01 -2.888945408448e+02 0.0 
0.0 0.0 -1.199980439884e+02 
-4.279027034885e+01 -4.972909699735e+00 0.0 
-4.972909699735e+00 -9.729455951146e+01 0.0 
0.0 0.0 -4.162544895809e+01 
-1.275294212448e+02 -8.146772455066e-01 0.0 
-8.146772455066e-01 -3.054209175514e+02 0.0 
0.0 0.0 -1.294851016389e+02 
-1.220948144474e+02 1.017197803446e+00 0.0 
1.017197803446e+00 -3.089224160125e+02 0.0 
0.0 0.0 -1.289051691380e+02 
-1.170552939216e+02 1.330034029294e+00 0.0 
1.330034029294e+00 -3.010384777233e+02 0.0 
0.0 0.0 -1.250281314935e+02 
-1.205527626463e+02 7.479449520132e+00 0.0 
7.479449520132e+00 -3.121173266566e+02 0.0 
0.0 0.0 -1.294010267909e+02 
-4.038302038346e+01 -3.050699725803e+00 0.0 
-3.050699725803e+00 -9.364061552171e+01 0.0 
0.0 0.0 -3.980709077155e+01 
-3.538381767043e+01 1.954700530328e+01 0.0 
1.954700530328e+01 -1.353898501365e+02 0.0 
0.0 0.0 -5.079756129155e+01 
-3.971765642073e+01 2.195153122039e+01 0.0 
2.195153122039e+01 -1.351230313087e+02 0.0 
0.0 0.0 -5.205220631882e+01 
-1.130980109803e+02 5.134135888260e+00 0.0 
5.134135888260e+00 -2.457328539831e+02 0.0 
0.0 0.0 -1.072492594890e+02 
-1.091101051678e+02 4.280932565851e+00 0.0 
4.280932565851e+00 -2.360653721649e+02 0.0 
0.0 0.0 -1.031526431998e+02 
-1.265313376338e+02 2.306494395189e+00 0.0 
2.306494395189e+00 -3.196231779866e+02 0.0 
0.0 0.0 -1.334463546861e+02 
-4.369227746251e+01 -2.553459835743e+00 0.0 
-2.553459835743e+00 -1.020433742459e+02 0.0 
0.0 0.0 -4.332069551251e+01 
-1.273742777924e+02 -1.532115528833e-01 0.0 
-1.532115528833e-01 -3.130560812242e+02 0.0 
0.0 0.0 -1.317291077050e+02 
-2.884105810116e+01 9.367217214245e+00 0.0 
9.367217214245e+00 -1.354510852047e+02 0.0 
0.0 0.0 -4.996066642429e+01 
-1.230811719090e+02 -1.032432960619e+00 0.0 
-1.032432960619e+00 -2.937821155753e+02 0.0 
0.0 0.0 -1.246589862453e+02 
-1.317025018942e+02 -5.746128756136e-01 0.0 
-5.746128756136e-01 -3.133338042963e+02 0.0 
0.0 0.0 -1.331108918572e+02 
-1.058956697150e+02 -2.664974064837e+00 0.0 
-2.664974064837e+00 -2.630988476768e+02 0.0 
0.0 0.0 -1.102983552175e+02 
-1.217665348679e+02 1.219476004873e+01 0.0 
1.219476004873e+01 -3.072703156289e+02 0.0 
0.0 0.0 -1.283110551490e+02 
-1.175836110881e+02 1.312604519178e+01 0.0 
1.312604519178e+01 -2.956911832860e+02 0.0 
0.0 0.0 -1.235824383122e+02 
-4.011457290907e+01 -3.096064294208e+00 0.0 
-3.096064294208e+00 -1.587245042781e+02 0.0 
0.0 0.0 -5.922656148619e+01 
-3.902332396549e+01 -8.997742935670e+00 0.0 
-8.997742935670e+00 -1.482873101382e+02 0.0 
0.0 0.0 -5.572409156553e+01 
-3.471194873866e+01 -1.167576076628e+01 0.0 
-1.167576076628e+01 -1.347508373134e+02 0.0 
0.0 0.0 -5.077218011616e+01 
-3.977199961756e+01 -1.411112178940e+01 0.0 
-1.411112178940e+01 -1.352135675660e+02 0.0 
0.0 0.0 -5.192032280157e+01 
-4.417324594809e+01 -1.108222115858e+01 0.0 
-1.108222115858e+01 -1.505581041688e+02 0.0 
0.0 0.0 -5.801254125384e+01 
-4.408659719809e+01 -1.454986396113e+01 0.0 
-1.454986396113e+01 -1.360828961831e+02 0.0 
0.0 0.0 -5.355246826168e+01 
-4.125662319022e+01 -1.756068979639e+01 0.0 
-1.756068979639e+01 -1.187589258118e+02 0.0 
0.0 0.0 -4.701707467938e+01 
-4.426996867733e+01 -1.626264919172e+01 0.0 
-1.626264919172e+01 -1.196036250850e+02 0.0 
0.0 0.0 -4.841707701837e+01 
-4.833952658107e+01 -1.387266802743e+01 0.0 
-1.387266802743e+01 -1.384890875873e+02 0.0 
0.0 0.0 -5.564858425052e+01 
-4.732228867215e+01 -1.442533681816e+01 0.0 
-1.442533681816e+01 -1.225408436971e+02 0.0 
0.0 0.0 -5.050655950949e+01 
-4.408522855153e+01 -1.554496246045e+01 0.0 
-1.554496246045e+01 -1.018699347221e+02 0.0 
0.0 0.0 -4.266289315435e+01 
-4.555200805913e+01 -1.321245346485e+01 0.0 
-1.321245346485e+01 -1.061098045019e+02 0.0 
0.0 0.0 -4.492444632243e+01 
-1.362304114673e+02 -3.225258677411e-01 0.0 
-3.225258677411e-01 -3.248031593181e+02 0.0 
0.0 0.0 -1.379100712356e+02 
-2.703304098753e+01 9.764188073427e-01 0.0 
9.764188073427e-01 -1.323039102291e+02 0.0 
0.0 0.0 -4.901051045782e+01 
-9.187167738305e+01 8.510215151259e+00 0.0 
8.510215151259e+00 -1.881317200782e+02 0.0 
0.0 0.0 -8.360101923838e+01 
-1.315045422283e+02 1.928924694526e+00 0.0 
1.928924694526e+00 -3.275407001333e+02 0.0 
0.0 0.0 -1.373135727085e+02 
-1.254423805591e+02 8.963891913108e+00 0.0 
8.963891913108e+00 -3.202668320363e+02 0.0 
0.0 0.0 -1.333127637786e+02 
-1.166056578315e+02 4.987458419644e+00 0.0 
4.987458419644e+00 -2.560112918159e+02 0.0 
0.0 0.0 -1.113850848942e+02 
-1.126850979798e+02 4.170204415043e+00 0.0 
4.170204415043e+00 -2.464499717176e+02 0.0 
0.0 0.0 -1.073405209092e+02 
-1.050230232605e+02 3.462356200332e+00 0.0 
3.462356200332e+00 -2.264837965002e+02 0.0 
0.0 0.0 -9.905204592821e+01 
-1.087081069417e+02 3.404140136971e+00 0.0 
3.404140136971e+00 -2.370474565649e+02 0.0 
0.0 0.0 -1.033266690520e+02 
-1.162676601136e+02 4.054107690340e+00 0.0 
4.054107690340e+00 -2.570083120037e+02 0.0 
0.0 0.0 -1.115827916352e+02 
-1.123908732183e+02 3.322534889446e+00 0.0 
3.322534889446e+00 -2.476532257727e+02 0.0 
0.0 0.0 -1.076132296973e+02 
-1.046951621005e+02 2.734130591471e+00 0.0 
2.734130591471e+00 -2.277305548299e+02 0.0 
0.0 0.0 -9.932771507911e+01 
-1.084954574411e+02 2.674162595011e+00 0.0 
2.674162595011e+00 -2.383543169150e+02 0.0 
0.0 0.0 -1.036549323069e+02 
-1.006981605713e+02 2.145553473957e+00 0.0 
2.145553473957e+00 -2.184609774821e+02 0.0 
0.0 0.0 -9.534774141600e+01 
-1.045871446490e+02 2.102687306016e+00 0.0 
2.102687306016e+00 -2.291379594981e+02 0.0 
0.0 0.0 -9.971753124411e+01 
-1.123059653640e+02 2.584547166593e+00 0.0 
2.584547166593e+00 -2.490338282175e+02 0.0 
0.0 0.0 -1.080019380745e+02 
-1.084891815032e+02 2.049910252010e+00 0.0 
2.049910252010e+00 -2.398922481913e+02 0.0 
0.0 0.0 -1.041144289083e+02 
-1.006573946485e+02 1.604850996329e+00 0.0 
1.604850996329e+00 -2.200409494177e+02 0.0 
0.0 0.0 -9.580950321987e+01 
-1.046547777830e+02 1.587325265520e+00 0.0 
1.587325265520e+00 -2.307975104783e+02 0.0 
0.0 0.0 -1.002356864784e+02 
-9.672140158233e+01 1.203584377512e+00 0.0 
1.203584377512e+00 -2.109605976966e+02 0.0 
0.0 0.0 -9.190459978368e+01 
-1.008273477359e+02 1.209430995449e+00 0.0 
1.209430995449e+00 -2.216570208355e+02 0.0 
0.0 0.0 -9.634531057144e+01 
-1.086761075926e+02 1.487643348232e+00 0.0 
1.487643348232e+00 -2.416083214172e+02 0.0 
0.0 0.0 -1.046853287029e+02 
-3.501861321309e+01 -2.104588989741e+00 0.0 
-2.104588989741e+00 -8.260034468460e+01 0.0 
0.0 0.0 -3.488568736931e+01 
-1.157318685652e+02 5.862201466900e+00 0.0 
5.862201466900e+00 -3.033899319788e+02 0.0 
0.0 0.0 -1.253365401632e+02 
-1.254836532280e+02 6.492212079886e+00 0.0 
6.492212079886e+00 -3.214638861173e+02 0.0 
0.0 0.0 -1.336842618036e+02 
-6.943949036626e+01 -3.022249739733e+00 0.0 
-3.022249739733e+00 -1.636019165183e+02 0.0 
0.0 0.0 -6.951242206537e+01 
-7.733920500981e+01 -2.849347393961e+00 0.0 
-2.849347393961e+00 -1.829856549884e+02 0.0 
0.0 0.0 -7.769745799947e+01 
-8.179248625214e+01 -3.461677550649e+00 0.0 
-3.461677550649e+00 -1.951466383340e+02 0.0 
0.0 0.0 -8.268173737583e+01 
-8.571823850267e+01 -2.670616246924e+00 0.0 
-2.670616246924e+00 -2.034455816780e+02 0.0 
0.0 0.0 -8.634914605421e+01 
-1.048860918697e+02 1.116036701723e+00 0.0 
1.116036701723e+00 -2.323719640831e+02 0.0 
0.0 0.0 -1.007774167859e+02 
-1.126282944208e+02 1.326837530159e+00 0.0 
1.326837530159e+00 -2.524438285332e+02 0.0 
0.0 0.0 -1.091216368862e+02 
-3.546348955943e+01 2.430276494585e+01 0.0 
2.430276494585e+01 -1.193224764600e+02 0.0 
0.0 0.0 -4.588682446951e+01 
-3.917543976599e+01 2.518679612988e+01 0.0 
2.518679612988e+01 -1.180508838264e+02 0.0 
0.0 0.0 -4.669996862745e+01 
-1.204604470703e+02 5.866356434873e+00 0.0 
5.866356434873e+00 -2.657170652920e+02 0.0 
0.0 0.0 -1.154532537087e+02 
-1.271822820750e+02 -7.124425053721e-01 0.0 
-7.124425053721e-01 -3.018667159075e+02 0.0 
0.0 0.0 -1.283146993948e+02 
-1.186465081512e+02 -1.114770917382e+00 0.0 
-1.114770917382e+00 -2.822121850708e+02 0.0 
0.0 0.0 -1.198576079666e+02 
-7.291968262664e+01 1.869720094035e+01 0.0 
1.869720094035e+01 -1.681123152709e+02 0.0 
0.0 0.0 -7.190959936927e+01 
-7.047826237469e+01 1.786433883144e+01 0.0 
1.786433883144e+01 -1.534629399798e+02 0.0 
0.0 0.0 -6.678236070635e+01 
-6.571226984438e+01 1.961191335900e+01 0.0 
1.961191335900e+01 -1.479234225895e+02 0.0 
0.0 0.0 -6.369070773015e+01 
-6.308686145229e+01 1.830095736144e+01 0.0 
1.830095736144e+01 -1.322791280629e+02 0.0 
0.0 0.0 -5.820979685456e+01 
-6.762464311197e+01 1.630889758745e+01 0.0 
1.630889758745e+01 -1.389789542688e+02 0.0 
0.0 0.0 -6.158107921423e+01 
-5.848183279729e+01 2.049298611421e+01 0.0 
2.049298611421e+01 -1.266736877449e+02 0.0 
0.0 0.0 -5.514665616265e+01 
-1.078451136516e+02 2.139812436946e-01 0.0 
2.139812436946e-01 -2.825047511668e+02 0.0 
0.0 0.0 -1.167049594455e+02 
-1.161308816039e+02 2.475554240018e+00 0.0 
2.475554240018e+00 -2.598168227872e+02 0.0 
0.0 0.0 -1.123843113173e+02 
-4.804249834779e+01 -6.586608244924e+00 0.0 
-6.586608244924e+00 -1.101549868149e+02 0.0 
0.0 0.0 -4.705924554881e+01 
-4.015172774137e+01 -5.766933087497e+00 0.0 
-5.766933087497e+00 -8.932823428651e+01 0.0 
0.0 0.0 -3.844398860836e+01 
-1.357529708166e+02 -3.718960423492e-01 0.0 
-3.718960423492e-01 -3.214424480308e+02 0.0 
0.0 0.0 -1.367586256542e+02 
-1.062675974978e+02 5.202623952343e+00 0.0 
5.202623952343e+00 -2.856163933263e+02 0.0 
0.0 0.0 -1.171651972472e+02 
-1.050722798317e+02 1.481166200970e+01 0.0 
1.481166200970e+01 -2.397333066529e+02 0.0 
0.0 0.0 -1.030416759454e+02 
-1.081796318621e+02 1.509191048354e+01 0.0 
1.509191048354e+01 -2.523791670557e+02 0.0 
0.0 0.0 -1.077676396754e+02 
-1.128189012032e+02 1.460791434584e+01 0.0 
1.460791434584e+01 -2.593514818641e+02 0.0 
0.0 0.0 -1.112511149202e+02 
-1.161149976329e+02 1.482254540312e+01 0.0 
1.482254540312e+01 -2.717954810541e+02 0.0 
0.0 0.0 -1.159731436061e+02 
-1.206565809469e+02 1.454380053072e+01 0.0 
1.454380053072e+01 -2.789309515892e+02 0.0 
0.0 0.0 -1.194762597608e+02 
-1.241226723871e+02 1.474633916212e+01 0.0 
1.474633916212e+01 -2.911179745558e+02 0.0 
0.0 0.0 -1.241721940829e+02 
-1.195116224156e+02 1.480949140141e+01 0.0 
1.480949140141e+01 -2.841692128247e+02 0.0 
0.0 0.0 -1.207042505721e+02 
-1.269078150622e+02 1.306179468115e+01 0.0 
1.306179468115e+01 -3.144126756347e+02 0.0 
0.0 0.0 -1.319961472090e+02 
-1.277495630248e+02 1.478718203871e+01 0.0 
1.478718203871e+01 -3.032775509841e+02 0.0 
0.0 0.0 -1.289081342026e+02 
-9.697040363624e+01 8.065125857082e-01 0.0 
8.065125857082e-01 -2.122459100377e+02 0.0 
0.0 0.0 -9.236489410217e+01 
-1.032730585943e+02 1.253305017566e+01 0.0 
1.253305017566e+01 -2.706753582735e+02 0.0 
0.0 0.0 -1.117845250604e+02 
-5.248469261148e+01 -1.265480991259e+01 0.0 
-1.265480991259e+01 -1.423439434215e+02 0.0 
0.0 0.0 -5.804859080990e+01 
-3.140090501426e+01 -2.287668701117e+00 0.0 
-2.287668701117e+00 -7.381005627458e+01 0.0 
0.0 0.0 -3.116328838665e+01 
-4.098886121633e+01 -1.258945288554e+01 0.0 
-1.258945288554e+01 -8.371633626389e+01 0.0 
0.0 0.0 -3.613890084786e+01 
-3.810142272232e+01 -1.763438211551e+00 0.0 
-1.763438211551e+00 -9.029881785805e+01 0.0 
0.0 0.0 -3.812007217411e+01 
-4.716891288347e+01 -2.100245008451e+00 0.0 
-2.100245008451e+00 -1.104814947005e+02 0.0 
0.0 0.0 -4.689512227519e+01 
-1.362378323704e+02 3.149722068869e+00 0.0 
3.149722068869e+00 -3.381810645678e+02 0.0 
0.0 0.0 -1.419256690815e+02 
-1.285211322946e+02 1.465803938677e+01 0.0 
1.465803938677e+01 -2.983794711904e+02 0.0 
0.0 0.0 -1.276701810455e+02 
-1.248779761264e+02 1.424852327740e+01 0.0 
1.424852327740e+01 -2.861830472777e+02 0.0 
0.0 0.0 -1.229183070212e+02 
-6.009458992550e+01 1.612871430689e+01 0.0 
1.612871430689e+01 -1.175520907558e+02 0.0 
0.0 0.0 -5.289400420440e+01 
-6.433161918995e+01 1.412773134876e+01 0.0 
1.412773134876e+01 -1.251289474504e+02 0.0 
0.0 0.0 -5.643816999209e+01 
-1.313127795814e+02 1.231108692551e+01 0.0 
1.231108692551e+01 -3.256894013269e+02 0.0 
0.0 0.0 -1.367006542725e+02 
-9.781251564925e+01 3.581446927635e+00 0.0 
3.581446927635e+00 -2.059463183099e+02 0.0 
0.0 0.0 -9.072765018775e+01 
-9.683960525028e+01 2.144811780533e+00 0.0 
2.144811780533e+00 -2.079049697821e+02 0.0 
0.0 0.0 -9.102337250972e+01 
-9.267458768229e+01 1.604598387570e+00 0.0 
1.604598387570e+00 -1.985830165485e+02 0.0 
0.0 0.0 -8.697728126922e+01 
-2.809529616226e+01 -1.235005626754e+00 0.0 
-1.235005626754e+00 -6.878759113674e+01 0.0 
0.0 0.0 -2.866486618970e+01 
-4.063152761683e+01 -1.539841263399e+01 0.0 
-1.539841263399e+01 -7.984066793215e+01 0.0 
0.0 0.0 -3.421058299985e+01 
-1.198839492279e+02 3.897151564280e+00 0.0 
3.897151564280e+00 -2.676428486592e+02 0.0 
0.0 0.0 -1.158580393661e+02 
-4.460407784870e+01 2.313087013860e+01 0.0 
2.313087013860e+01 -1.353712427060e+02 0.0 
0.0 0.0 -5.359259616642e+01 
-4.359057621627e+01 2.508181172973e+01 0.0 
2.508181172973e+01 -1.179407271337e+02 0.0 
0.0 0.0 -4.805939100499e+01 
-2.654511277767e+01 1.149016214407e+01 0.0 
1.149016214407e+01 -1.256381651763e+02 0.0 
0.0 0.0 -4.700496863527e+01 
-2.633609645798e+01 9.820565004667e-01 0.0 
9.820565004667e-01 -1.250469568409e+02 0.0 
0.0 0.0 -4.727971640473e+01 
-1.089358304103e+02 8.826961118291e-01 0.0 
8.826961118291e-01 -2.429286154165e+02 0.0 
0.0 0.0 -1.051593337480e+02 
-1.166001991944e+02 1.105991518436e+00 0.0 
1.105991518436e+00 -2.628725770318e+02 0.0 
0.0 0.0 -1.134418328679e+02 
-9.000547534606e+01 -3.026557558002e+00 0.0 
-3.026557558002e+00 -2.152640625499e+02 0.0 
0.0 0.0 -9.118086136879e+01 
-9.389341698627e+01 -2.272305267134e+00 0.0 
-2.272305267134e+00 -2.234341104211e+02 0.0 
0.0 0.0 -9.479825822222e+01 
-1.312086107327e+02 3.666132958175e+00 0.0 
3.666132958175e+00 -3.300060742055e+02 0.0 
0.0 0.0 -1.379644054814e+02 
-4.208574996761e+01 -1.064915146037e+01 0.0 
-1.064915146037e+01 -9.030920211071e+01 0.0 
0.0 0.0 -3.913079354303e+01 
-1.203254481766e+02 1.592314226650e+00 0.0 
1.592314226650e+00 -2.724490881969e+02 0.0 
0.0 0.0 -1.174323609121e+02 
-1.111069974369e+02 4.140984303059e+00 0.0 
4.140984303059e+00 -2.942228767451e+02 0.0 
0.0 0.0 -1.211989622546e+02 
-1.018102075243e+02 3.288742618675e+00 0.0 
3.288742618675e+00 -2.764402451094e+02 0.0 
0.0 0.0 -1.130751357901e+02 
-8.126477546672e+01 -2.242605516167e+00 0.0 
-2.242605516167e+00 -1.913108790222e+02 0.0 
0.0 0.0 -8.137269634669e+01 
-3.627138458404e+01 2.717254048300e+01 0.0 
2.717254048300e+01 -1.004269760584e+02 0.0 
0.0 0.0 -4.007547144621e+01 
-3.410911190400e+01 2.687353440247e+01 0.0 
2.687353440247e+01 -1.031826075911e+02 0.0 
0.0 0.0 -4.052274993482e+01 
-5.398049382899e+01 -1.152093311785e+01 0.0 
-1.152093311785e+01 -1.569969087291e+02 0.0 
0.0 0.0 -6.289322076742e+01 
-4.784477186919e+01 -1.124701407998e+01 0.0 
-1.124701407998e+01 -1.118870049108e+02 0.0 
0.0 0.0 -4.751953303399e+01 
-4.173120832412e+01 -1.378461208057e+00 0.0 
-1.378461208057e+00 -9.882404431442e+01 0.0 
0.0 0.0 -4.176657579156e+01 
-1.411406465402e+02 4.414984526496e+00 0.0 
4.414984526496e+00 -3.484543785003e+02 0.0 
0.0 0.0 -1.464785075122e+02 
-1.236091546885e+02 4.642623577634e+00 0.0 
4.642623577634e+00 -2.769351589922e+02 0.0 
0.0 0.0 -1.197632941042e+02 
-1.231284241874e+02 1.465049281838e+01 0.0 
1.465049281838e+01 -2.963981833626e+02 0.0 
0.0 0.0 -1.254579822650e+02 
-1.146290099278e+02 1.482913462098e+01 0.0 
1.482913462098e+01 -2.773450460676e+02 0.0 
0.0 0.0 -1.171922167986e+02 
-1.318292906633e+02 1.465911380050e+01 0.0 
1.465911380050e+01 -3.154639734587e+02 0.0 
0.0 0.0 -1.337879792366e+02 
-3.572503627616e+01 -8.892131784263e+00 0.0 
-8.892131784263e+00 -6.849448210793e+01 0.0 
0.0 0.0 -3.026683210959e+01 
-1.412714806504e+02 2.709001763952e+00 0.0 
2.709001763952e+00 -3.464192121178e+02 0.0 
0.0 0.0 -1.459072078305e+02 
-1.311625426171e+02 -4.434450672591e-01 0.0 
-4.434450672591e-01 -3.101467561021e+02 0.0 
0.0 0.0 -1.319927896158e+02 
-1.322121362493e+02 1.447717681711e+01 0.0 
1.447717681711e+01 -3.049623175610e+02 0.0 
0.0 0.0 -1.307523361431e+02 
-1.288656236124e+02 1.396381581924e+01 0.0 
1.396381581924e+01 -2.937345336625e+02 0.0 
0.0 0.0 -1.263800471825e+02 
-4.965734538601e+01 2.328114749826e+01 0.0 
2.328114749826e+01 -1.363922873336e+02 0.0 
0.0 0.0 -5.541488981589e+01 
-4.846339730997e+01 2.413605529674e+01 0.0 
2.413605529674e+01 -1.192641187376e+02 0.0 
0.0 0.0 -4.991825481428e+01 
-4.257749945747e+01 2.545088688292e+01 0.0 
2.545088688292e+01 -9.934287954197e+01 0.0 
0.0 0.0 -4.217611369983e+01 
-4.686187592322e+01 2.351254834702e+01 0.0 
2.351254834702e+01 -1.012952009175e+02 0.0 
0.0 0.0 -4.404712305220e+01 
-9.146098399515e+01 6.552795843973e+00 0.0 
6.552795843973e+00 -1.867289729636e+02 0.0 
0.0 0.0 -8.305698708763e+01 
-5.494694657834e+01 2.260652280511e+01 0.0 
2.260652280511e+01 -1.387447014049e+02 0.0 
0.0 0.0 -5.770749439496e+01 
-8.806898264175e+01 9.301722824324e+00 0.0 
9.301722824324e+00 -1.792108170986e+02 0.0 
0.0 0.0 -7.978393992211e+01 
-8.405384952378e+01 7.745837567494e+00 0.0 
7.745837567494e+00 -1.682607869475e+02 0.0 
0.0 0.0 -7.529439094139e+01 
-8.027134937280e+01 8.556307059600e+00 0.0 
8.556307059600e+00 -1.592985675161e+02 0.0 
0.0 0.0 -7.147097506666e+01 
-7.193818660516e+01 1.449117803735e+01 0.0 
1.449117803735e+01 -1.460863832445e+02 0.0 
0.0 0.0 -6.500737095489e+01 
-6.843671117490e+01 1.234586866953e+01 0.0 
1.234586866953e+01 -1.331831706106e+02 0.0 
0.0 0.0 -6.008596453565e+01 
-5.306890324010e+01 1.818531791072e+01 0.0 
1.818531791072e+01 -1.673744625024e+02 0.0 
0.0 0.0 -6.573300972274e+01 
-8.917885531383e+01 1.168305584579e+01 0.0 
1.168305584579e+01 -2.466567822802e+02 0.0 
0.0 0.0 -1.003506912782e+02 
-8.603814569193e+01 -3.818226781436e+00 0.0 
-3.818226781436e+00 -2.073354964972e+02 0.0 
0.0 0.0 -8.761209265675e+01 
-1.062719889664e+02 -2.509007997316e+00 0.0 
-2.509007997316e+00 -2.586887566413e+02 0.0 
0.0 0.0 -1.090882236823e+02 
-9.544388687433e+01 -2.537637714595e+00 0.0 
-2.537637714595e+00 -2.531606344692e+02 0.0 
0.0 0.0 -1.041813564031e+02 
-1.197815900451e+02 3.053043498016e+00 0.0 
3.053043498016e+00 -2.688810217234e+02 0.0 
0.0 0.0 -1.161987835305e+02 
-1.235650839156e+02 2.885958491777e+00 0.0 
2.885958491777e+00 -2.797992191198e+02 0.0 
0.0 0.0 -1.206092909106e+02 
-9.265265462580e+01 1.167503545482e+00 0.0 
1.167503545482e+00 -2.002277359778e+02 0.0 
0.0 0.0 -8.746411718109e+01 
-8.873241089390e+01 8.434743109241e-01 0.0 
8.434743109241e-01 -1.910952603359e+02 0.0 
0.0 0.0 -8.354830136895e+01 
-3.417603653512e+01 -3.970271310153e+00 0.0 
-3.970271310153e+00 -7.666555973129e+01 0.0 
0.0 0.0 -3.285247887992e+01 
-3.157871743074e+01 -4.450029095707e+00 0.0 
-4.450029095707e+00 -6.853925120095e+01 0.0 
0.0 0.0 -2.963329562360e+01 
-9.317813268226e+01 -4.248630618787e+00 0.0 
-4.248630618787e+00 -2.364894864376e+02 0.0 
0.0 0.0 -9.850028573597e+01 
-1.363457613185e+02 1.623553921397e+00 0.0 
1.623553921397e+00 -3.353248927106e+02 0.0 
0.0 0.0 -1.411011962087e+02 
-1.237580629506e+02 5.632304371340e+00 0.0 
5.632304371340e+00 -2.757976774635e+02 0.0 
0.0 0.0 -1.194667221242e+02 
-1.274802185018e+02 6.567676174162e+00 0.0 
6.567676174162e+00 -2.855739648914e+02 0.0 
0.0 0.0 -1.235162550180e+02 
-1.242295015205e+02 6.815117066189e+00 0.0 
6.815117066189e+00 -2.754579415597e+02 0.0 
0.0 0.0 -1.195062329241e+02 
-1.359911130474e+02 5.056923798663e+00 0.0 
5.056923798663e+00 -3.398096443560e+02 0.0 
0.0 0.0 -1.423402272210e+02 
-5.395581082466e+01 7.595226517111e+00 0.0 
7.595226517111e+00 -1.864065060003e+02 0.0 
0.0 0.0 -7.170869504748e+01 
-9.247670578854e+01 6.052640795815e+00 0.0 
6.052640795815e+00 -2.594480168174e+02 0.0 
0.0 0.0 -1.051774167818e+02 
-2.779405547394e+01 -9.391307233114e+00 0.0 
-9.391307233114e+00 -1.255470781116e+02 0.0 
0.0 0.0 -4.725639079870e+01 
-9.831763534604e+01 1.588882510820e+01 0.0 
1.588882510820e+01 -2.395523716097e+02 0.0 
0.0 0.0 -1.009610020867e+02 
-2.491556062793e+01 -2.714696376501e+00 0.0 
-2.714696376501e+00 -5.644159627917e+01 0.0 
0.0 0.0 -2.400714707213e+01 
-1.142441928601e+02 1.203248044214e+01 0.0 
1.203248044214e+01 -2.504560382577e+02 0.0 
0.0 0.0 -1.090100693353e+02 
-1.398073242874e+02 -2.192069567352e-01 0.0 
-2.192069567352e-01 -3.297707166017e+02 0.0 
0.0 0.0 -1.404734122668e+02 
-1.443894765399e+02 -1.104468481245e-01 0.0 
-1.104468481245e-01 -3.408275833933e+02 0.0 
0.0 0.0 -1.451651179800e+02 
-1.362552183419e+02 1.325781408469e+01 0.0 
1.325781408469e+01 -3.328637913454e+02 0.0 
0.0 0.0 -1.403357029062e+02 
-7.940656318490e+01 4.336695536847e+00 0.0 
4.336695536847e+00 -1.577111189138e+02 0.0 
0.0 0.0 -7.073530462962e+01 
-1.012929747295e+02 1.528314746453e+01 0.0 
1.528314746453e+01 -2.522045890436e+02 0.0 
0.0 0.0 -1.056492691319e+02 
-9.610727445298e+01 1.505650544094e+01 0.0 
1.505650544094e+01 -2.463057930540e+02 0.0 
0.0 0.0 -1.023239202521e+02 
-7.609927614348e+01 6.849765234825e+00 0.0 
6.849765234825e+00 -1.486163904066e+02 0.0 
0.0 0.0 -6.701469996504e+01 
-7.229385141016e+01 7.656463465566e+00 0.0 
7.656463465566e+00 -1.395266260419e+02 0.0 
0.0 0.0 -6.314614323562e+01 
-7.641613453403e+01 9.542989132845e+00 0.0 
9.542989132845e+00 -1.504714217244e+02 0.0 
0.0 0.0 -6.766626687753e+01 
-6.845709949103e+01 8.688299330617e+00 0.0 
8.688299330617e+00 -1.305371615080e+02 0.0 
0.0 0.0 -5.929827829970e+01 
-5.840608792041e+01 -1.077707905818e+01 0.0 
-1.077707905818e+01 -1.614194700722e+02 0.0 
0.0 0.0 -6.554766739777e+01 
-5.630133588805e+01 -1.126126985145e+01 0.0 
-1.126126985145e+01 -1.471028850165e+02 0.0 
0.0 0.0 -6.062126627138e+01 
-1.370166709589e+02 1.504927444397e+01 0.0 
1.504927444397e+01 -3.191282891554e+02 0.0 
0.0 0.0 -1.364434880343e+02 
-1.360437818778e+02 1.493559671686e+01 0.0 
1.493559671686e+01 -3.221224651451e+02 0.0 
0.0 0.0 -1.370498741069e+02 
-1.361310334622e+02 1.449972959583e+01 0.0 
1.449972959583e+01 -3.128560173158e+02 0.0 
0.0 0.0 -1.342961152334e+02 
-1.329909202205e+02 1.376652108056e+01 0.0 
1.376652108056e+01 -3.020951858448e+02 0.0 
0.0 0.0 -1.301258318196e+02 
-1.410502406623e+02 1.264449859668e+01 0.0 
1.264449859668e+01 -3.440039326431e+02 0.0 
0.0 0.0 -1.451162519916e+02 
-1.358385254522e+02 1.152751919183e+01 0.0 
1.152751919183e+01 -3.363041157071e+02 0.0 
0.0 0.0 -1.412427923478e+02 
-5.041775366402e+01 -1.559650582816e+00 0.0 
-1.559650582816e+00 -1.184035467956e+02 0.0 
0.0 0.0 -5.024639013788e+01 
-6.052776577298e+01 1.148881367244e+01 0.0 
1.148881367244e+01 -1.124474176808e+02 0.0 
0.0 0.0 -5.149255503613e+01 
-1.272509479315e+02 4.435760363232e+00 0.0 
4.435760363232e+00 -2.875666788778e+02 0.0 
0.0 0.0 -1.240452880428e+02 
-7.983827149653e+01 6.188201549040e+00 0.0 
6.188201549040e+00 -1.577586548237e+02 0.0 
0.0 0.0 -7.087907789608e+01 
-1.458975421511e+02 2.304123499519e+00 0.0 
2.304123499519e+00 -3.538021353063e+02 0.0 
0.0 0.0 -1.495099032372e+02 
-1.411318006197e+02 1.391029585062e+00 0.0 
1.391029585062e+00 -3.431370830018e+02 0.0 
0.0 0.0 -1.448806650865e+02 
-3.165278618445e+01 -1.022785586396e+01 0.0 
-1.022785586396e+01 -1.202315719755e+02 0.0 
0.0 0.0 -4.741994795105e+01 
-3.235146214571e+01 -2.031124995280e+01 0.0 
-2.031124995280e+01 -1.104507575060e+02 0.0 
0.0 0.0 -4.362073073863e+01 
-1.242559321217e+02 1.346342599082e+00 0.0 
1.346342599082e+00 -2.831715725610e+02 0.0 
0.0 0.0 -1.218282514048e+02 
-4.090405747777e+01 2.404017622455e+01 0.0 
2.404017622455e+01 -7.977094074349e+01 0.0 
0.0 0.0 -3.580249946638e+01 
-4.423371737845e+01 2.120948284478e+01 0.0 
2.120948284478e+01 -8.230898683712e+01 0.0 
0.0 0.0 -3.756281126467e+01 
-3.807207258354e+01 2.604397902427e+01 0.0 
2.604397902427e+01 -7.893107559072e+01 0.0 
0.0 0.0 -3.440017023954e+01 
-1.574530028646e+02 -8.818673500304e-03 0.0 
-8.818673500304e-03 -3.692201844921e+02 0.0 
0.0 0.0 -1.576019562070e+02 
-7.190537148319e+01 5.513516500523e-02 0.0 
5.513516500523e-02 -1.528999608256e+02 0.0 
0.0 0.0 -6.704159969265e+01 
-1.485271269088e+02 -4.993048493175e-02 0.0 
-4.993048493175e-02 -3.493120014865e+02 0.0 
0.0 0.0 -1.489517385186e+02 
-7.616723293759e+01 1.283299091981e+01 0.0 
1.283299091981e+01 -1.539159898199e+02 0.0 
0.0 0.0 -6.862496682724e+01 
-1.280277394885e+02 1.818497985415e+00 0.0 
1.818497985415e+00 -2.928441632662e+02 0.0 
0.0 0.0 -1.258615708264e+02 
-1.046049237845e+02 1.441395627509e+01 0.0 
1.441395627509e+01 -2.646286392092e+02 0.0 
0.0 0.0 -1.103700688981e+02 
-6.763908798063e+01 1.999007835086e+01 0.0 
1.999007835086e+01 -1.628623633197e+02 0.0 
0.0 0.0 -6.875043539011e+01 
-1.260723074867e+02 4.287253334351e+00 0.0 
4.287253334351e+00 -3.215225156082e+02 0.0 
0.0 0.0 -1.338784469285e+02 
-1.201650648144e+02 9.538662860145e-01 0.0 
9.538662860145e-01 -2.724593984016e+02 0.0 
0.0 0.0 -1.173873389648e+02 
-1.282238892216e+02 1.008863198896e+00 0.0 
1.008863198896e+00 -2.943615453703e+02 0.0 
0.0 0.0 -1.263756303776e+02 
-8.879942807401e+01 1.533964120014e+00 0.0 
1.533964120014e+00 -1.880581041460e+02 0.0 
0.0 0.0 -8.265725966601e+01 
-8.424193731690e+01 1.177413581684e+00 0.0 
1.177413581684e+00 -1.782249312912e+02 0.0 
0.0 0.0 -7.834006058243e+01 
-9.273468794422e+01 2.097221714818e+00 0.0 
2.097221714818e+00 -1.968406957332e+02 0.0 
0.0 0.0 -8.647261510324e+01 
-2.876735182113e+01 1.815902843521e+01 0.0 
1.815902843521e+01 -1.238398395515e+02 0.0 
0.0 0.0 -4.632259402863e+01 
-2.900661052872e+01 2.298042763791e+01 0.0 
2.298042763791e+01 -1.099728620647e+02 0.0 
0.0 0.0 -4.269675300414e+01 
-1.199053645544e+02 2.297550294125e+00 0.0 
2.297550294125e+00 -2.705528288294e+02 0.0 
0.0 0.0 -1.167374580151e+02 
-6.092205683929e+01 -3.086152082426e+00 0.0 
-3.086152082426e+00 -1.427309931574e+02 0.0 
0.0 0.0 -6.069591499901e+01 
-6.521753514584e+01 -2.426144598501e+00 0.0 
-2.426144598501e+00 -1.532080358054e+02 0.0 
0.0 0.0 -6.512767128537e+01 
-4.366390863290e+01 -9.070858081642e+00 0.0 
-9.070858081642e+00 -9.658309353949e+01 0.0 
0.0 0.0 -4.166602204980e+01 
-5.020658256148e+01 -9.523059575786e+00 0.0 
-9.523059575786e+00 -1.176681757852e+02 0.0 
0.0 0.0 -4.996242750400e+01 
-9.411930691859e+01 -3.232120859167e+00 0.0 
-3.232120859167e+00 -2.272422539361e+02 0.0 
0.0 0.0 -9.600846825641e+01 
-9.005368168192e+01 -3.989554097469e+00 0.0 
-3.989554097469e+00 -2.195315489336e+02 0.0 
0.0 0.0 -9.247556918465e+01 
-1.178259823338e+02 1.293838398439e+01 0.0 
1.293838398439e+01 -2.622631416349e+02 0.0 
0.0 0.0 -1.136267371906e+02 
-1.216308174385e+02 1.245000278875e+01 0.0 
1.245000278875e+01 -2.703208098456e+02 0.0 
0.0 0.0 -1.171854881852e+02 
-1.095365125662e+02 1.413394972020e+01 0.0 
1.413394972020e+01 -2.468920335050e+02 0.0 
0.0 0.0 -1.065285638214e+02 
-1.067582434719e+02 2.376701508152e+00 0.0 
2.376701508152e+00 -2.846047877397e+02 0.0 
0.0 0.0 -1.170089093635e+02 
-9.767463860997e+01 1.328488175814e+00 0.0 
1.328488175814e+00 -2.667695640350e+02 0.0 
0.0 0.0 -1.089332607935e+02 
-9.280673202713e+01 2.379130623558e+00 0.0 
2.379130623558e+00 -2.590261568762e+02 0.0 
0.0 0.0 -1.051498666710e+02 
-1.268309437651e+02 3.495086897182e+00 0.0 
3.495086897182e+00 -2.883999761701e+02 0.0 
0.0 0.0 -1.241692759806e+02 
-1.314419873602e+02 3.229112270762e+00 0.0 
3.229112270762e+00 -3.015659646529e+02 0.0 
0.0 0.0 -1.295023856039e+02 
-6.026651512569e+01 -9.319599175135e+00 0.0 
-9.319599175135e+00 -1.749870636748e+02 0.0 
0.0 0.0 -7.017607364016e+01 
-5.543204114277e+01 -9.237460994356e+00 0.0 
-9.237460994356e+00 -1.705266532048e+02 0.0 
0.0 0.0 -6.738760830426e+01 
-6.252532370689e+01 -9.808742695388e+00 0.0 
-9.808742695388e+00 -1.663495550750e+02 0.0 
0.0 0.0 -6.826246363457e+01 
-1.307996320357e+02 5.190840267457e+00 0.0 
5.190840267457e+00 -2.969256194315e+02 0.0 
0.0 0.0 -1.279175754401e+02 
-1.529700231918e+02 4.492461339030e-03 0.0 
4.492461339030e-03 -3.600018869607e+02 0.0 
0.0 0.0 -1.534915730457e+02 
-1.488820404272e+02 1.245791683399e-01 0.0 
1.245791683399e-01 -3.517845580829e+02 0.0 
0.0 0.0 -1.497999795530e+02 
-2.202071895790e+01 -2.751028125920e+00 0.0 
-2.751028125920e+00 -4.838753478204e+01 0.0 
0.0 0.0 -2.072038115608e+01 
-2.918309414887e+01 -4.789128481590e+00 0.0 
-4.789128481590e+00 -6.035665617434e+01 0.0 
0.0 0.0 -2.636638810762e+01 
-3.533367974735e+01 2.854697917381e+01 0.0 
2.854697917381e+01 -8.165355651912e+01 0.0 
0.0 0.0 -3.370611524607e+01 
-3.383296529430e+01 2.946333670908e+01 0.0 
2.946333670908e+01 -8.584145955834e+01 0.0 
0.0 0.0 -3.539705602852e+01 
-1.308968327238e+02 7.512397829543e+00 0.0 
7.512397829543e+00 -2.949728932182e+02 0.0 
0.0 0.0 -1.273609177826e+02 
-1.280295879861e+02 7.827574824845e+00 0.0 
7.827574824845e+00 -2.856180087339e+02 0.0 
0.0 0.0 -1.236942790160e+02 
-1.347878081304e+02 7.265542483845e+00 0.0 
7.265542483845e+00 -3.068433623892e+02 0.0 
0.0 0.0 -1.320893511559e+02 
-4.454266491897e+01 -9.840453812266e-01 0.0 
-9.840453812266e-01 -1.055253600270e+02 0.0 
0.0 0.0 -4.462040748380e+01 
-1.182952084646e+02 1.434125923462e+01 0.0 
1.434125923462e+01 -2.896898152457e+02 0.0 
0.0 0.0 -1.219955071131e+02 
-1.457891960458e+02 5.767853357252e+00 0.0 
5.767853357252e+00 -3.573741484975e+02 0.0 
0.0 0.0 -1.505490033630e+02 
-1.404673689175e+02 6.464399389000e+00 0.0 
6.464399389000e+00 -3.485708444478e+02 0.0 
0.0 0.0 -1.463114640096e+02 
-1.522190652484e+02 5.159909915326e+00 0.0 
5.159909915326e+00 -3.683622487592e+02 0.0 
0.0 0.0 -1.557743942023e+02 
-1.317304694034e+02 1.383071130206e+01 0.0 
1.383071130206e+01 -3.211876268794e+02 0.0 
0.0 0.0 -1.354754288848e+02 
-1.406943238182e+02 1.406276878113e+01 0.0 
1.406276878113e+01 -3.393895232375e+02 0.0 
0.0 0.0 -1.436251541167e+02 
-1.404874295947e+02 1.487934355276e+01 0.0 
1.487934355276e+01 -3.341236783861e+02 0.0 
0.0 0.0 -1.419833323943e+02 
-3.726885888386e+01 1.152603504937e+00 0.0 
1.152603504937e+00 -1.221247364264e+02 0.0 
0.0 0.0 -4.965533820285e+01 
-1.255862720215e+02 7.411374409361e-01 0.0 
7.411374409361e-01 -2.873337430679e+02 0.0 
0.0 0.0 -1.234760045268e+02 
-8.411719783274e+01 7.933294878715e-01 0.0 
7.933294878715e-01 -1.794868200809e+02 0.0 
0.0 0.0 -7.868120537408e+01 
-4.721843799807e+01 -6.877239621953e+00 0.0 
-6.877239621953e+00 -1.171997736427e+02 0.0 
0.0 0.0 -5.076776202612e+01 
-8.019407105600e+01 5.141901244504e-01 0.0 
5.141901244504e-01 -1.705511879353e+02 0.0 
0.0 0.0 -7.482357769739e+01 
-8.463739907992e+01 5.754475941661e-01 0.0 
5.754475941661e-01 -1.818618122790e+02 0.0 
0.0 0.0 -7.954976340768e+01 
-7.567335951450e+01 3.107518999749e-01 0.0 
3.107518999749e-01 -1.604313671190e+02 0.0 
0.0 0.0 -7.043141799005e+01 
-3.551898692626e+01 -8.310095341481e-01 0.0 
-8.310095341481e-01 -8.595831672131e+01 0.0 
0.0 0.0 -3.604319109427e+01 
-8.331063419021e+01 1.475757170526e+00 0.0 
1.475757170526e+00 -1.740209453808e+02 0.0 
0.0 0.0 -7.679947387132e+01 
-8.886014672848e+01 2.176460796053e+00 0.0 
2.176460796053e+00 -1.862828358439e+02 0.0 
0.0 0.0 -8.214289477171e+01 
-1.769265107925e+01 -2.436761854671e+00 0.0 
-2.436761854671e+00 -3.685209266099e+01 0.0 
0.0 0.0 -1.599942888308e+01 
-1.340408425468e+02 4.816025919274e+00 0.0 
4.816025919274e+00 -3.071607655661e+02 0.0 
0.0 0.0 -1.319604824339e+02 
-1.536696386674e+01 -1.390366568859e+00 0.0 
-1.390366568859e+00 -3.768175905117e+01 0.0 
0.0 0.0 -1.551461687537e+01 
-1.849894229653e+01 -1.500327984498e+00 0.0 
-1.500327984498e+00 -4.550892152409e+01 0.0 
0.0 0.0 -1.880235914619e+01 
-1.507080312318e+02 1.898975082386e+00 0.0 
1.898975082386e+00 -3.618554210659e+02 0.0 
0.0 0.0 -1.533690356893e+02 
-1.457082216878e+02 1.182950473449e+00 0.0 
1.182950473449e+00 -3.507891416256e+02 0.0 
0.0 0.0 -1.485492089940e+02 
-1.548381176350e+02 1.625548808871e+00 0.0 
1.625548808871e+00 -3.690438020041e+02 0.0 
0.0 0.0 -1.567645758917e+02 
-1.498025428977e+02 9.425469421761e-01 0.0 
9.425469421761e-01 -3.578679137631e+02 0.0 
0.0 0.0 -1.519011369982e+02 
-1.409576915453e+02 5.393640869145e-01 0.0 
5.393640869145e-01 -3.395439603671e+02 0.0 
0.0 0.0 -1.437504955737e+02 
-1.455058677053e+02 4.511575788594e-01 0.0 
4.511575788594e-01 -3.476221366047e+02 0.0 
0.0 0.0 -1.475384012930e+02 
-7.972797660356e+01 7.840723291183e-01 0.0 
7.840723291183e-01 -1.683870026641e+02 0.0 
0.0 0.0 -7.403449378029e+01 
-1.555979956240e+02 8.200647093072e-01 0.0 
8.200647093072e-01 -3.686720879194e+02 0.0 
0.0 0.0 -1.568810250630e+02 
-1.500613817299e+02 3.932293722529e-01 0.0 
3.932293722529e-01 -3.559812644590e+02 0.0 
0.0 0.0 -1.514127938567e+02 
-1.598773864384e+02 6.088095285933e-01 0.0 
6.088095285933e-01 -3.771526043493e+02 0.0 
0.0 0.0 -1.607089972363e+02 
-6.415444674874e+01 6.555305006531e+00 0.0 
6.555305006531e+00 -1.201282862390e+02 0.0 
0.0 0.0 -5.488481989633e+01 
-5.112658945293e+01 2.118321675147e+01 0.0 
2.118321675147e+01 -1.045947642638e+02 0.0 
0.0 0.0 -4.631640611502e+01 
-4.809020847859e+01 1.815011799335e+01 0.0 
1.815011799335e+01 -8.737945758987e+01 0.0 
0.0 0.0 -4.024089982054e+01 
-3.996757681316e+01 1.619733143520e+01 0.0 
1.619733143520e+01 -6.348141581868e+01 0.0 
0.0 0.0 -3.063469778955e+01 
-1.409635929151e+02 1.449517469934e+01 0.0 
1.449517469934e+01 -3.240588145126e+02 0.0 
0.0 0.0 -1.391067222283e+02 
-1.359527057150e+02 1.342845798111e+01 0.0 
1.342845798111e+01 -3.091599038122e+02 0.0 
0.0 0.0 -1.331337828582e+02 
-1.353914887102e+02 -2.446162362524e-01 0.0 
-2.446162362524e-01 -3.191504261496e+02 0.0 
0.0 0.0 -1.359625744579e+02 
-1.267660523279e+02 -4.250479222331e-01 0.0 
-4.250479222331e-01 -2.992939665614e+02 0.0 
0.0 0.0 -1.274180056668e+02 
-8.006460219233e+01 3.000947050652e-01 0.0 
3.000947050652e-01 -1.715978945363e+02 0.0 
0.0 0.0 -7.509874901858e+01 
-7.945378856428e+01 2.575769273257e-01 0.0 
2.575769273257e-01 -1.705293664228e+02 0.0 
0.0 0.0 -7.459494649613e+01 
-8.692021277268e+01 2.835358373443e-01 0.0 
2.835358373443e-01 -1.884016317870e+02 0.0 
0.0 0.0 -8.219655336792e+01 
-8.576711727167e+01 3.096567391370e-01 0.0 
3.096567391370e-01 -1.859693947818e+02 0.0 
0.0 0.0 -8.112095361603e+01 
-9.315999078352e+01 3.367426830125e-01 0.0 
3.367426830125e-01 -2.039659548868e+02 0.0 
0.0 0.0 -8.873778370110e+01 
-9.202515475004e+01 3.445383236497e-01 0.0 
3.445383236497e-01 -2.012099918704e+02 0.0 
0.0 0.0 -8.757054398613e+01 
-9.950103360544e+01 5.959028270292e-01 0.0 
5.959028270292e-01 -2.195895881626e+02 0.0 
0.0 0.0 -9.532718653042e+01 
-1.446978892056e+02 1.543445061031e+01 0.0 
1.543445061031e+01 -3.411807381261e+02 0.0 
0.0 0.0 -1.453635881995e+02 
-3.593198374588e+01 2.342271652515e+01 0.0 
2.342271652515e+01 -5.787337055766e+01 0.0 
0.0 0.0 -2.740691664457e+01 
-7.176857683539e+01 5.213772000295e+00 0.0 
5.213772000295e+00 -1.385650820215e+02 0.0 
0.0 0.0 -6.270009765708e+01 
-1.457160088139e+02 1.196454122407e+01 0.0 
1.196454122407e+01 -3.543828006951e+02 0.0 
0.0 0.0 -1.496296428527e+02 
-1.397884096058e+02 1.069102849672e+01 0.0 
1.069102849672e+01 -3.451597453309e+02 0.0 
0.0 0.0 -1.450844464810e+02 
-6.442065201318e+01 9.961680785643e+00 0.0 
9.961680785643e+00 -1.211951178306e+02 0.0 
0.0 0.0 -5.528473095313e+01 
-5.615206816163e+01 8.650551373315e+00 0.0 
8.650551373315e+00 -1.011798382028e+02 0.0 
0.0 0.0 -4.679957190934e+01 
-1.523300488635e+02 3.278434950462e+00 0.0 
3.278434950462e+00 -3.671388726507e+02 0.0 
0.0 0.0 -1.554406764543e+02 
-5.649091945634e+01 2.150289266523e+01 0.0 
2.150289266523e+01 -1.547299659466e+02 0.0 
0.0 0.0 -6.296626562089e+01 
-1.382636067830e+02 5.732067592812e+00 0.0 
5.732067592812e+00 -3.192539559407e+02 0.0 
0.0 0.0 -1.368552688171e+02 
-5.348365571805e+01 2.390983246524e+01 0.0 
2.390983246524e+01 -8.703717378082e+01 0.0 
0.0 0.0 -4.295623270908e+01 
-3.753465713217e+01 2.326027247356e+01 0.0 
2.326027247356e+01 -1.031485722752e+02 0.0 
0.0 0.0 -4.358092931663e+01 
-6.200016624015e+01 2.101986397542e+01 0.0 
2.101986397542e+01 -1.580601290507e+02 0.0 
0.0 0.0 -6.561808858725e+01 
-7.250086428231e+01 1.080431641538e+01 0.0 
1.080431641538e+01 -1.417732216978e+02 0.0 
0.0 0.0 -6.388222579403e+01 
-5.562160337758e+01 1.849970410160e+01 0.0 
1.849970410160e+01 -1.100392991416e+02 0.0 
0.0 0.0 -4.929827075574e+01 
-5.274564652960e+01 1.568254921842e+01 0.0 
1.568254921842e+01 -9.610003783011e+01 0.0 
0.0 0.0 -4.425370530791e+01 
-1.162042569406e+02 3.358510665552e+00 0.0 
3.358510665552e+00 -3.028806098459e+02 0.0 
0.0 0.0 -1.253254600360e+02 
-2.773072678956e+01 -5.438945126770e+00 0.0 
-5.438945126770e+00 -5.318542077258e+01 0.0 
0.0 0.0 -2.355626745800e+01 
-3.663607359399e+01 2.747165693412e+01 0.0 
2.747165693412e+01 -7.975817912778e+01 0.0 
0.0 0.0 -3.358397902084e+01 
-1.006256498048e+02 6.087073122552e-01 0.0 
6.087073122552e-01 -2.218739848601e+02 0.0 
0.0 0.0 -9.634989039948e+01 
-3.549415480832e+01 2.741212014089e+01 0.0 
2.741212014089e+01 -5.944046251164e+01 0.0 
0.0 0.0 -2.660324203898e+01 
-1.314112233314e+02 -1.773177062628e-01 0.0 
-1.773177062628e-01 -3.095130240252e+02 0.0 
0.0 0.0 -1.318772742070e+02 
-5.850061042573e+01 1.942403737533e+01 0.0 
1.942403737533e+01 -1.701129163645e+02 0.0 
0.0 0.0 -6.818405803708e+01 
-7.945595275347e+01 1.457229884884e+01 0.0 
1.457229884884e+01 -1.667589960994e+02 0.0 
0.0 0.0 -7.346448465587e+01 
-3.889160559365e+01 2.668335243114e+01 0.0 
2.668335243114e+01 -9.915540444876e+01 0.0 
0.0 0.0 -4.083170303040e+01 
-5.356572723939e+01 2.256483536585e+01 0.0 
2.256483536585e+01 -1.223773481774e+02 0.0 
0.0 0.0 -5.238292262503e+01 
-9.556297247881e+01 7.873073772035e+00 0.0 
7.873073772035e+00 -1.971678176966e+02 0.0 
0.0 0.0 -8.741923705264e+01 
-8.724734229770e+01 5.305407959613e+00 0.0 
5.305407959613e+00 -1.767165671688e+02 0.0 
0.0 0.0 -7.878917283994e+01 
-8.359250722044e+01 5.656546099167e+00 0.0 
5.656546099167e+00 -1.672994012034e+02 0.0 
0.0 0.0 -7.486757252714e+01 
-6.079115193474e+01 1.668714376578e+01 0.0 
1.668714376578e+01 -1.839850575134e+02 0.0 
0.0 0.0 -7.303286283444e+01 
-5.647406987592e+01 1.332475860924e+01 0.0 
1.332475860924e+01 -1.037427265417e+02 0.0 
0.0 0.0 -4.766503892527e+01 
-4.715727001571e+01 1.163915380560e+01 0.0 
1.163915380560e+01 -8.010014892408e+01 0.0 
0.0 0.0 -3.777722568194e+01 
-9.184038720838e+01 1.080575390309e+01 0.0 
1.080575390309e+01 -1.906378163461e+02 0.0 
0.0 0.0 -8.434346106634e+01 
-1.209300069071e+02 7.006382909035e+00 0.0 
7.006382909035e+00 -2.654988148201e+02 0.0 
0.0 0.0 -1.155286465182e+02 
-1.246713065964e+02 8.025760210242e+00 0.0 
8.025760210242e+00 -2.755824204399e+02 0.0 
0.0 0.0 -1.196761181109e+02 
-1.314015688389e+02 8.832509025032e+00 0.0 
8.832509025032e+00 -2.950555947520e+02 0.0 
0.0 0.0 -1.275371490773e+02 
-1.284119290804e+02 9.103100205276e+00 0.0 
9.103100205276e+00 -2.858622056046e+02 0.0 
0.0 0.0 -1.238822404055e+02 
-1.214314587351e+02 8.312848081426e+00 0.0 
8.312848081426e+00 -2.659158753170e+02 0.0 
0.0 0.0 -1.158042002156e+02 
-1.252341250523e+02 9.431999858430e+00 0.0 
9.431999858430e+00 -2.763305390353e+02 0.0 
0.0 0.0 -1.200693992263e+02 
-1.319790200898e+02 1.013266745808e+01 0.0 
1.013266745808e+01 -2.962394300386e+02 0.0 
0.0 0.0 -1.280655350385e+02 
-1.292341046897e+02 1.051893286247e+01 0.0 
1.051893286247e+01 -2.875929645447e+02 0.0 
0.0 0.0 -1.246481207703e+02 
-1.370522282639e+02 1.149779760277e+01 0.0 
1.149779760277e+01 -3.109128309072e+02 0.0 
0.0 0.0 -1.339895177513e+02 
-1.327873730848e+02 1.167719546345e+01 0.0 
1.167719546345e+01 -2.983953411048e+02 0.0 
0.0 0.0 -1.289548142569e+02 
-1.255167435351e+02 1.079539936015e+01 0.0 
1.079539936015e+01 -2.776518055697e+02 0.0 
0.0 0.0 -1.205505647314e+02 
-1.289102715214e+02 1.180298250796e+01 0.0 
1.180298250796e+01 -2.881717343147e+02 0.0 
0.0 0.0 -1.247246017508e+02 
-1.356943543078e+02 1.262351743987e+01 0.0 
1.262351743987e+01 -3.073708565097e+02 0.0 
0.0 0.0 -1.325195632453e+02 
-1.217826278082e+02 1.113620053741e+01 0.0 
1.113620053741e+01 -2.679744029703e+02 0.0 
0.0 0.0 -1.165271092335e+02 
-1.508389528019e+02 1.312451898864e+01 0.0 
1.312451898864e+01 -3.619089618818e+02 0.0 
0.0 0.0 -1.534243744051e+02 
-6.957432583020e+01 1.949309906348e+01 0.0 
1.949309906348e+01 -1.775025100492e+02 0.0 
0.0 0.0 -7.372305076382e+01 
-3.005145277010e+01 1.273844424227e+01 0.0 
1.273844424227e+01 -1.190996963486e+02 0.0 
0.0 0.0 -4.667903770906e+01 
-3.362512022077e+01 3.068909068966e+01 0.0 
3.068909068966e+01 -9.159370605164e+01 0.0 
0.0 0.0 -3.832170695941e+01 
-8.373212293361e+01 1.311293923699e+01 0.0 
1.311293923699e+01 -1.743999896650e+02 0.0 
0.0 0.0 -7.703963377959e+01 
-1.430155794836e+02 1.183133775128e+01 0.0 
1.183133775128e+01 -3.299509180599e+02 0.0 
0.0 0.0 -1.414899492631e+02 
-1.416756454922e+02 9.874012611971e+00 0.0 
9.874012611971e+00 -3.266709512044e+02 0.0 
0.0 0.0 -1.401039790090e+02 
-4.594196234926e+01 1.994615081431e+01 0.0 
1.994615081431e+01 -1.511350656510e+02 0.0 
0.0 0.0 -5.872310840007e+01 
-1.484040368206e+02 1.566236672755e+01 0.0 
1.566236672755e+01 -3.448388690847e+02 0.0 
0.0 0.0 -1.475728717716e+02 
-8.779181289328e+01 7.072741309519e+00 0.0 
7.072741309519e+00 -1.774384679143e+02 0.0 
0.0 0.0 -7.916908424228e+01 
-3.172632575457e+01 1.552025352805e+01 0.0 
1.552025352805e+01 -1.357040875591e+02 0.0 
0.0 0.0 -5.026184168443e+01 
-1.507415198147e+02 1.635672464311e+01 0.0 
1.635672464311e+01 -3.522404634005e+02 0.0 
0.0 0.0 -1.504945949646e+02 
-1.175798574371e+02 7.226979183373e+00 0.0 
7.226979183373e+00 -2.555803004412e+02 0.0 
0.0 0.0 -1.115480473635e+02 
-1.140831174066e+02 7.499183518259e+00 0.0 
7.499183518259e+00 -2.456062192175e+02 0.0 
0.0 0.0 -1.075068009872e+02 
-1.101424545013e+02 6.417623944979e+00 0.0 
6.417623944979e+00 -2.354548830811e+02 0.0 
0.0 0.0 -1.032792012747e+02 
-1.408746394194e+02 8.280711720153e+00 0.0 
8.280711720153e+00 -3.251521167763e+02 0.0 
0.0 0.0 -1.394080268587e+02 
-9.698485908293e+01 2.760695042539e+00 0.0 
2.760695042539e+00 -2.064076722864e+02 0.0 
0.0 0.0 -9.061775941080e+01 
-1.554148531814e+02 1.536104320942e+01 0.0 
1.536104320942e+01 -3.673825480559e+02 0.0 
0.0 0.0 -1.564392203712e+02 
-9.813965026940e+01 1.135974372737e+01 0.0 
1.135974372737e+01 -2.641771492410e+02 0.0 
0.0 0.0 -1.082950398531e+02 
-9.434038594216e+01 1.297318304443e+01 0.0 
1.297318304443e+01 -2.527354051697e+02 0.0 
0.0 0.0 -1.037227373336e+02 
-8.561647608056e+01 1.358883121920e+01 0.0 
1.358883121920e+01 -2.351120670402e+02 0.0 
0.0 0.0 -9.581856293624e+01 
-1.217939729290e+02 9.716628765959e+00 0.0 
9.716628765959e+00 -2.666889359112e+02 0.0 
0.0 0.0 -1.161448726521e+02 
-1.586192255174e+02 1.119666116242e+01 0.0 
1.119666116242e+01 -3.782908347966e+02 0.0 
0.0 0.0 -1.606730180942e+02 
-1.501301746858e+02 9.948565302661e+00 0.0 
9.948565302661e+00 -3.645758962863e+02 0.0 
0.0 0.0 -1.540118212916e+02 
-1.508729494443e+02 8.822967740760e+00 0.0 
8.822967740760e+00 -3.662995948439e+02 0.0 
0.0 0.0 -1.547517632865e+02 
-1.410188163792e+02 8.734109252724e+00 0.0 
8.734109252724e+00 -3.492237146460e+02 0.0 
0.0 0.0 -1.466727593076e+02 
-1.602624598251e+02 8.682712020575e+00 0.0 
8.682712020575e+00 -3.821668220679e+02 0.0 
0.0 0.0 -1.623287845679e+02 
-1.455740291143e+02 1.364830013433e+01 0.0 
1.364830013433e+01 -3.366209452500e+02 0.0 
0.0 0.0 -1.442584923093e+02 
-1.466782225082e+02 1.446524821147e+01 0.0 
1.446524821147e+01 -3.398833040418e+02 0.0 
0.0 0.0 -1.455684579650e+02 
-4.922334257108e+01 -1.174546936365e+01 0.0 
-1.174546936365e+01 -1.533503160665e+02 0.0 
0.0 0.0 -6.037209759128e+01 
-5.038088798772e+01 -8.401737428806e+00 0.0 
-8.401737428806e+00 -1.665573129294e+02 0.0 
0.0 0.0 -6.468146027512e+01 
-5.723960589962e+01 -6.115793369452e+00 0.0 
-6.115793369452e+00 -1.826503395179e+02 0.0 
0.0 0.0 -7.156698362524e+01 
-5.217057160869e+01 -4.322867195561e+00 0.0 
-4.322867195561e+00 -1.778192127141e+02 0.0 
0.0 0.0 -6.859693529685e+01 
-4.517640788081e+01 -6.478938220814e+00 0.0 
-6.478938220814e+00 -1.627830732497e+02 0.0 
0.0 0.0 -6.198784433914e+01 
-4.716950413584e+01 -1.450883321361e+00 0.0 
-1.450883321361e+00 -1.725763265099e+02 0.0 
0.0 0.0 -6.552374919373e+01 
-5.471445129562e+01 -4.075963652720e-02 0.0 
-4.075963652720e-02 -1.871320884443e+02 0.0 
0.0 0.0 -7.215396192198e+01 
-4.252355812917e+01 2.651779118530e+00 0.0 
2.651779118530e+00 -1.664152279712e+02 0.0 
0.0 0.0 -6.228163583010e+01 
-1.290205128700e+02 1.293857984844e+01 0.0 
1.293857984844e+01 -2.901281867626e+02 0.0 
0.0 0.0 -1.253446098898e+02 
-1.617386032038e+02 6.224023289796e+00 0.0 
6.224023289796e+00 -3.848847150813e+02 0.0 
0.0 0.0 -1.635869954855e+02 
-1.040348311215e+02 -1.224095294115e+00 0.0 
-1.224095294115e+00 -2.716959679958e+02 0.0 
0.0 0.0 -1.123192397352e+02 
-9.897388742115e+01 -1.024114535600e+00 0.0 
-1.024114535600e+00 -2.641561753278e+02 0.0 
0.0 0.0 -1.085390188247e+02 
-9.045164109897e+01 -2.395283568534e+00 0.0 
-2.395283568534e+00 -2.460225687312e+02 0.0 
0.0 0.0 -1.005422629490e+02 
-8.212046432967e+01 -4.656211125794e+00 0.0 
-4.656211125794e+00 -1.995968308983e+02 0.0 
0.0 0.0 -8.411518856840e+01 
-8.595964816588e+01 -4.803825494021e+00 0.0 
-4.803825494021e+00 -2.119722432725e+02 0.0 
0.0 0.0 -8.897956743152e+01 
-9.390855105494e+01 -3.948046749665e+00 0.0 
-3.948046749665e+00 -2.317037536037e+02 0.0 
0.0 0.0 -9.728369139760e+01 
-7.804864260275e+01 -4.275204672949e+00 0.0 
-4.275204672949e+00 -1.872513141447e+02 0.0 
0.0 0.0 -7.918998702424e+01 
-1.113284930828e+02 1.507814363595e+01 0.0 
1.507814363595e+01 -2.649363248258e+02 0.0 
0.0 0.0 -1.124794453726e+02 
-1.621140808358e+02 5.202103477612e+00 0.0 
5.202103477612e+00 -3.852782842422e+02 0.0 
0.0 0.0 -1.638177095234e+02 
-9.705517214115e+01 4.520867686015e+00 0.0 
4.520867686015e+00 -2.681465456147e+02 0.0 
0.0 0.0 -1.091605153268e+02 
-8.181167437939e+01 -5.675699926031e+00 0.0 
-5.675699926031e+00 -2.045970661560e+02 0.0 
0.0 0.0 -8.552262216062e+01 
-7.643671708314e+01 1.633938028254e+00 0.0 
1.633938028254e+00 -1.554994991640e+02 0.0 
0.0 0.0 -6.918086487414e+01 
-8.429693984600e+01 2.439170102109e+00 0.0 
2.439170102109e+00 -1.731521933227e+02 0.0 
0.0 0.0 -7.683473995062e+01 
-8.526169971215e+01 3.137230670518e+00 0.0 
3.137230670518e+00 -1.740835789783e+02 0.0 
0.0 0.0 -7.740358360712e+01 
-9.285050034686e+01 3.624511818359e+00 0.0 
3.624511818359e+00 -1.926843590099e+02 0.0 
0.0 0.0 -8.526045780703e+01 
-8.437848043070e+01 2.202071351897e+00 0.0 
2.202071351897e+00 -1.744164274008e+02 0.0 
0.0 0.0 -7.723847234944e+01 
-9.811824869560e+01 -2.530977660282e+00 0.0 
-2.530977660282e+00 -2.351389674516e+02 0.0 
0.0 0.0 -9.957716484414e+01 
-1.020664555003e+02 -1.901470914706e+00 0.0 
-1.901470914706e+00 -2.431794391324e+02 0.0 
0.0 0.0 -1.031737683898e+02 
-9.779045479055e+01 -1.670957500913e+00 0.0 
-1.670957500913e+00 -2.317382994416e+02 0.0 
0.0 0.0 -9.845862626966e+01 
-1.059887885176e+02 -1.337385626575e+00 0.0 
-1.337385626575e+00 -2.513334450381e+02 0.0 
0.0 0.0 -1.067966700667e+02 
-1.014652122498e+02 -1.050018598054e+00 0.0 
-1.050018598054e+00 -2.396093405111e+02 0.0 
0.0 0.0 -1.019223658282e+02 
-9.390516390689e+01 -1.275248049220e+00 0.0 
-1.275248049220e+00 -2.213675644536e+02 0.0 
0.0 0.0 -9.418181850814e+01 
-1.097480767357e+02 -8.072171562858e-01 0.0 
-8.072171562858e-01 -2.592234689430e+02 0.0 
0.0 0.0 -1.102914637036e+02 
-1.045165605289e+02 -6.447719110547e-01 0.0 
-6.447719110547e-01 -2.463540949547e+02 0.0 
0.0 0.0 -1.048611966451e+02 
-7.518231109193e+01 1.029062353066e+00 0.0 
1.029062353066e+00 -1.546056229474e+02 0.0 
0.0 0.0 -6.853638021180e+01 
-3.987954191193e+01 -2.117396014924e+01 0.0 
-2.117396014924e+01 -4.796223886266e+01 0.0 
0.0 0.0 -2.670125216018e+01 
-3.809853221465e+01 -2.287579972612e+01 0.0 
-2.287579972612e+01 -5.731324296507e+01 0.0 
0.0 0.0 -2.830977521931e+01 
-3.228069874960e+01 -1.467561544075e+01 0.0 
-1.467561544075e+01 -4.289073303483e+01 0.0 
0.0 0.0 -2.156039662678e+01 
-3.896849699071e+01 -2.091262381993e+01 0.0 
-2.091262381993e+01 -7.033212528358e+01 0.0 
0.0 0.0 -3.165974414640e+01 
-3.710323835110e+01 -2.404053204165e+01 0.0 
-2.404053204165e+01 -8.799371742609e+01 0.0 
0.0 0.0 -3.727589154474e+01 
-3.964917733848e+01 -2.065647443077e+01 0.0 
-2.065647443077e+01 -9.844497075621e+01 0.0 
0.0 0.0 -4.034420727247e+01 
-3.539419854369e+01 -2.077950709172e+01 0.0 
-2.077950709172e+01 -1.096344086112e+02 0.0 
0.0 0.0 -4.331297962921e+01 
-3.893479874752e+01 -2.624911146136e+01 0.0 
-2.624911146136e+01 -8.440333662812e+01 0.0 
0.0 0.0 -3.758482604516e+01 
-1.796259405248e+01 -5.267631966298e+00 0.0 
-5.267631966298e+00 -1.964646729303e+01 0.0 
0.0 0.0 -1.098624330023e+01 
-2.631414647903e+01 -8.876059696417e+00 0.0 
-8.876059696417e+00 -3.777764616474e+01 0.0 
0.0 0.0 -1.818262594382e+01 
-1.231850944337e+01 -2.603855210048e+00 0.0 
-2.603855210048e+00 -1.768398288125e+01 0.0 
0.0 0.0 -8.483566137755e+00 
-2.129936552011e+01 -5.230542754984e+00 0.0 
-5.230542754984e+00 -3.497183238202e+01 0.0 
0.0 0.0 -1.618386253873e+01 
-3.370341061875e+01 -1.040078119086e+01 0.0 
-1.040078119086e+01 -5.817600073439e+01 0.0 
0.0 0.0 -2.592495670171e+01 
-3.803149943741e+01 -6.628027302794e+00 0.0 
-6.628027302794e+00 -8.191936948309e+01 0.0 
0.0 0.0 -3.557132963429e+01 
-1.621220759609e+02 1.095416830479e-01 0.0 
1.095416830479e-01 -3.806578798477e+02 0.0 
0.0 0.0 -1.624339867426e+02 
-8.109745778122e+01 -5.963724659353e-01 0.0 
-5.963724659353e-01 -1.901635040799e+02 0.0 
0.0 0.0 -8.097828855834e+01 
-7.694378107317e+01 -1.246221065883e+00 0.0 
-1.246221065883e+00 -1.805765562136e+02 0.0 
0.0 0.0 -7.685610118603e+01 
-6.892346528437e+01 -1.248946184748e+00 0.0 
-1.248946184748e+00 -1.610980048186e+02 0.0 
0.0 0.0 -6.860644103089e+01 
-7.324809852698e+01 -1.812443029590e+00 0.0 
-1.812443029590e+00 -1.719179990139e+02 0.0 
0.0 0.0 -7.314982926227e+01 
-8.428001171501e+01 -1.167410091358e+00 0.0 
-1.167410091358e+00 -1.982803518634e+02 0.0 
0.0 0.0 -8.436810907354e+01 
-6.432504072321e+01 -6.289188345825e-01 0.0 
-6.289188345825e-01 -1.502610395846e+02 0.0 
0.0 0.0 -6.397582409235e+01 
-6.126573676585e+01 -1.219273560321e+00 0.0 
-1.219273560321e+00 -1.431689156006e+02 0.0 
0.0 0.0 -6.093039570994e+01 
-3.498798680051e+00 -1.077460130214e-01 0.0 
-1.077460130214e-01 -1.714915501290e+01 0.0 
0.0 0.0 -5.433479397524e+00 
-9.943494701023e+00 -1.724623126690e-01 0.0 
-1.724623126690e-01 -3.370410272068e+01 0.0 
0.0 0.0 -1.261195537139e+01 
-9.224070671951e+00 -1.470181392070e-01 0.0 
-1.470181392070e-01 -3.206331030136e+01 0.0 
0.0 0.0 -1.181032221663e+01 
-1.800121993927e+01 -3.615365259443e-01 0.0 
-3.615365259443e-01 -5.046886853155e+01 0.0 
0.0 0.0 -2.014102654125e+01 
-1.821563932458e+01 -4.910459651085e-01 0.0 
-4.910459651085e-01 -5.014072801696e+01 0.0 
0.0 0.0 -2.010691020246e+01 
-1.039117806765e+01 -3.445395334960e-01 0.0 
-3.445395334960e-01 -3.401652279080e+01 0.0 
0.0 0.0 -1.286692626820e+01 
-1.071140245200e+01 -4.807439783290e-01 0.0 
-4.807439783290e-01 -3.402338151166e+01 0.0 
0.0 0.0 -1.299782313875e+01 
-3.884257881334e+00 -2.143884851190e-01 0.0 
-2.143884851190e-01 -1.700827854609e+01 0.0 
0.0 0.0 -5.589919994046e+00 
-1.108737988108e+01 -5.415348926169e-01 0.0 
-5.415348926169e-01 -3.385813298239e+01 0.0 
0.0 0.0 -1.314289525872e+01 
-1.955069996726e+01 -1.054963694992e+00 0.0 
-1.054963694992e+00 -5.099345278415e+01 0.0 
0.0 0.0 -2.076324582542e+01 
-4.012059743222e+00 -2.255248010611e-01 0.0 
-2.255248010611e-01 -1.643792023012e+01 0.0 
0.0 0.0 -5.547881850097e+00 
-1.096643676161e+02 3.707750854635e-01 0.0 
3.707750854635e-01 -2.457372464101e+02 0.0 
0.0 0.0 -1.062204842078e+02 
-1.138008800985e+02 6.484423839992e-01 0.0 
6.484423839992e-01 -2.565364925306e+02 0.0 
0.0 0.0 -1.107012117887e+02 
-1.621382961443e+02 3.292867493490e+00 0.0 
3.292867493490e+00 -3.846093041858e+02 0.0 
0.0 0.0 -1.636242800990e+02 
-7.505811492937e+01 7.253472230705e-01 0.0 
7.253472230705e-01 -1.563699429726e+02 0.0 
0.0 0.0 -6.902841737059e+01 
-7.459663719673e+00 -8.761259346503e-01 0.0 
-8.761259346503e-01 -1.743657651965e+01 0.0 
0.0 0.0 -7.318980241379e+00 
-1.362409509426e+02 2.080517396129e+00 0.0 
2.080517396129e+00 -3.158924426332e+02 0.0 
0.0 0.0 -1.352400180727e+02 
-1.381059587595e+02 3.828762969275e+00 0.0 
3.828762969275e+00 -3.199693568292e+02 0.0 
0.0 0.0 -1.370225946766e+02 
-1.380156382444e+02 3.177285474712e+00 0.0 
3.177285474712e+00 -3.199912852322e+02 0.0 
0.0 0.0 -1.370020770430e+02 
-1.488311646391e+02 -6.335406039522e-02 0.0 
-6.335406039522e-02 -3.495436581876e+02 0.0 
0.0 0.0 -1.491124468480e+02 
-1.531400822231e+02 -1.814390574054e-02 0.0 
-1.814390574054e-02 -3.594350765917e+02 0.0 
0.0 0.0 -1.533725476444e+02 
-1.361683314938e+02 1.147264826904e+00 0.0 
1.147264826904e+00 -3.161930146336e+02 0.0 
0.0 0.0 -1.353084038382e+02 
-5.558533419531e+01 -6.840911976124e+00 0.0 
-6.840911976124e+00 -1.308588611619e+02 0.0 
0.0 0.0 -5.553325860716e+01 
-1.352261905219e+02 9.878727849223e+00 0.0 
9.878727849223e+00 -3.053198517791e+02 0.0 
0.0 0.0 -1.317638126903e+02 
-1.237286271921e+02 2.065874438159e+00 0.0 
2.065874438159e+00 -2.813722382190e+02 0.0 
0.0 0.0 -1.211302596233e+02 
-3.212074822796e+01 2.214171721465e+01 0.0 
2.214171721465e+01 -1.215142050316e+02 0.0 
0.0 0.0 -4.596110112528e+01 
-5.369692173324e+01 -1.080076640561e+01 0.0 
-1.080076640561e+01 -1.324815470683e+02 0.0 
0.0 0.0 -5.545354064047e+01 
-1.226844569772e+02 -7.288325852052e-01 0.0 
-7.288325852052e-01 -2.904954181772e+02 0.0 
0.0 0.0 -1.235539625463e+02 
-1.103296942866e+02 -2.216459167131e+00 0.0 
-2.216459167131e+00 -2.705760049943e+02 0.0 
0.0 0.0 -1.138717097842e+02 
-1.402911198257e+02 -2.013083889502e-01 0.0 
-2.013083889502e-01 -3.326710371045e+02 0.0 
0.0 0.0 -1.414886470791e+02 
-1.145748813495e+02 -1.518238331418e+00 0.0 
-1.518238331418e+00 -2.742274593608e+02 0.0 
0.0 0.0 -1.162407022131e+02 
-1.319713720918e+02 -4.796507380798e-01 0.0 
-4.796507380798e-01 -3.169721604622e+02 0.0 
0.0 0.0 -1.342830597662e+02 
-1.508668374753e+02 7.279090814747e+00 0.0 
7.279090814747e+00 -3.666536682098e+02 0.0 
0.0 0.0 -1.548561517055e+02 
-3.277146927481e+01 -1.103453366645e+00 0.0 
-1.103453366645e+00 -7.941707873843e+01 0.0 
0.0 0.0 -3.325656440397e+01 
-9.665633918498e+01 1.604655834964e+00 0.0 
1.604655834964e+00 -2.092283603988e+02 0.0 
0.0 0.0 -9.136540987513e+01 
-9.284771195238e+01 8.394351183069e-01 0.0 
8.394351183069e-01 -2.018250107952e+02 0.0 
0.0 0.0 -8.800181682429e+01 
-1.124024926901e+02 1.948543092563e+00 0.0 
1.948543092563e+00 -2.506916464376e+02 0.0 
0.0 0.0 -1.085282417383e+02 
-5.737271415952e+01 -3.832633554244e+00 0.0 
-3.832633554244e+00 -1.342572656247e+02 0.0 
0.0 0.0 -5.708899393527e+01 
-8.986982713443e+01 -1.907016447918e+00 0.0 
-1.907016447918e+00 -2.125448776260e+02 0.0 
0.0 0.0 -9.032441142813e+01 
-3.709085183431e+01 -3.498306767276e+00 0.0 
-3.498306767276e+00 -8.512426579823e+01 0.0 
0.0 0.0 -3.626453528976e+01 
-1.439302242870e+02 1.546884693232e+01 0.0 
1.546884693232e+01 -3.348079917733e+02 0.0 
0.0 0.0 -1.432214648181e+02 
-8.419974173338e+01 1.025638192388e+01 0.0 
1.025638192388e+01 -1.705465408978e+02 0.0 
0.0 0.0 -7.602388478935e+01 
-8.717064541806e+01 -3.976217754111e+00 0.0 
-3.976217754111e+00 -2.346768873472e+02 0.0 
0.0 0.0 -9.615425982957e+01 
-7.429913426526e+01 -5.214804122151e+00 0.0 
-5.214804122151e+00 -1.794175206911e+02 0.0 
0.0 0.0 -7.571499648692e+01 
-5.973413041321e+01 -7.919648730107e+00 0.0 
-7.919648730107e+00 -1.443125639493e+02 0.0 
0.0 0.0 -6.081400830875e+01 
-5.054057888302e+01 -1.253432850462e+01 0.0 
-1.253432850462e+01 -1.271123781000e+02 0.0 
0.0 0.0 -5.289588709492e+01 
-7.507228631652e+01 1.877215472824e+01 0.0 
1.877215472824e+01 -1.824617101228e+02 0.0 
0.0 0.0 -7.686019893179e+01 
-8.526628324102e+01 -5.415069141459e+00 0.0 
-5.415069141459e+00 -2.171166283417e+02 0.0 
0.0 0.0 -9.031487347481e+01 
-1.226676806334e+02 -1.943015785174e-01 0.0 
-1.943015785174e-01 -3.054546860499e+02 0.0 
0.0 0.0 -1.280367100050e+02 
-1.162990571935e+02 1.801339829257e+00 0.0 
1.801339829257e+00 -2.615280048261e+02 0.0 
0.0 0.0 -1.129481186059e+02 
-6.102358862953e+00 -4.545464373597e-01 0.0 
-4.545464373597e-01 -1.908432562079e+01 0.0 
0.0 0.0 -7.023803154267e+00 
-1.270008080746e+02 8.003483581328e-01 0.0 
8.003483581328e-01 -3.166418442064e+02 0.0 
0.0 0.0 -1.326927956843e+02 
-1.013581690921e+02 -3.110114920400e+00 0.0 
-3.110114920400e+00 -2.557396505653e+02 0.0 
0.0 0.0 -1.067293458972e+02 
-1.008897778571e+02 2.744038511932e+00 0.0 
2.744038511932e+00 -2.171301528893e+02 0.0 
0.0 0.0 -9.500597922391e+01 
-1.209091864759e+02 1.001510471163e+01 0.0 
1.001510471163e+01 -3.104274864225e+02 0.0 
0.0 0.0 -1.290010018695e+02 
-4.286154939311e+01 -1.810434524106e+01 0.0 
-1.810434524106e+01 -1.001414484348e+02 0.0 
0.0 0.0 -4.126581800053e+01 
-1.161003300580e+02 3.189338514506e+00 0.0 
3.189338514506e+00 -2.582897884151e+02 0.0 
0.0 0.0 -1.119170355419e+02 
-1.303202975783e+02 6.195404804596e+00 0.0 
6.195404804596e+00 -2.948440358143e+02 0.0 
0.0 0.0 -1.271493000178e+02 
-9.318909001827e+01 2.892641019913e+00 0.0 
2.892641019913e+00 -1.958656705838e+02 0.0 
0.0 0.0 -8.631642818063e+01 
-2.790214265466e+01 -2.536350840868e+00 0.0 
-2.536350840868e+00 -6.491068054468e+01 0.0 
0.0 0.0 -2.744384695980e+01 
-8.834971140879e+01 1.135639903131e+00 0.0 
1.135639903131e+00 -1.891116414106e+02 0.0 
0.0 0.0 -8.283840584581e+01 
-1.462273009817e+02 3.827464213384e+00 0.0 
3.827464213384e+00 -3.566431564769e+02 0.0 
0.0 0.0 -1.504611372376e+02 
-1.170383648140e+02 6.040639002397e+00 0.0 
6.040639002397e+00 -2.555260202821e+02 0.0 
0.0 0.0 -1.113693155288e+02 
-5.240322150500e+01 -2.881402997059e+00 0.0 
-2.881402997059e+00 -1.222428812364e+02 0.0 
0.0 0.0 -5.199383082241e+01 
-8.353254036125e+01 5.582152530537e+00 0.0 
5.582152530537e+00 -2.425588998905e+02 0.0 
0.0 0.0 -9.742743207552e+01 
-8.245964267380e+01 1.586206676491e+01 0.0 
1.586206676491e+01 -1.801608433754e+02 0.0 
0.0 0.0 -7.838614581475e+01 
-7.134559577646e+01 3.486713419653e+00 0.0 
3.486713419653e+00 -1.388190450368e+02 0.0 
0.0 0.0 -6.264939224397e+01 
-1.269713794034e+02 2.544685502445e+00 0.0 
2.544685502445e+00 -2.899659460386e+02 0.0 
0.0 0.0 -1.246811976326e+02 
-8.784232073229e+01 1.592510630441e+01 0.0 
1.592510630441e+01 -2.281534773876e+02 0.0 
0.0 0.0 -9.439873943596e+01 
-1.303433909121e+02 8.016549448766e+00 0.0 
8.016549448766e+00 -3.301033167285e+02 0.0 
0.0 0.0 -1.377340122922e+02 
-1.016253322953e+02 6.515517881994e+00 0.0 
6.515517881994e+00 -2.767176535754e+02 0.0 
0.0 0.0 -1.131028957612e+02 
-5.598189275481e+01 -2.300163124128e+00 0.0 
-2.300163124128e+00 -1.308921346117e+02 0.0 
0.0 0.0 -5.566220820996e+01 
-1.364738044255e+02 6.102351695588e-01 0.0 
6.102351695588e-01 -3.320285382666e+02 0.0 
0.0 0.0 -1.401507028076e+02 
-8.040943014318e+01 1.215322209327e+01 0.0 
1.215322209327e+01 -2.295023844502e+02 0.0 
0.0 0.0 -9.257354437802e+01 
-1.235179964286e+02 3.694163518686e+00 0.0 
3.694163518686e+00 -2.782578264698e+02 0.0 
0.0 0.0 -1.201327468695e+02 
-1.172129264698e+02 1.412837416246e+01 0.0 
1.412837416246e+01 -2.666254940493e+02 0.0 
0.0 0.0 -1.147515261557e+02 
-6.213351563878e+01 7.591888018097e+00 0.0 
7.591888018097e+00 -2.014831875984e+02 0.0 
0.0 0.0 -7.868501097117e+01 
-1.200481147466e+02 4.821950634859e+00 0.0 
4.821950634859e+00 -2.663273455930e+02 0.0 
0.0 0.0 -1.155126381019e+02 
-8.543661483600e+01 -1.949846227311e+00 0.0 
-1.949846227311e+00 -2.390161323243e+02 0.0 
0.0 0.0 -9.693582414808e+01 
-1.260845390219e+02 1.123536097463e+01 0.0 
1.123536097463e+01 -3.181447646665e+02 0.0 
0.0 0.0 -1.328687911065e+02 
-8.024445888617e+01 1.141260521848e+01 0.0 
1.141260521848e+01 -1.621313312489e+02 0.0 
0.0 0.0 -7.231273704052e+01 
-1.019345567854e+02 1.422516987858e+01 0.0 
1.422516987858e+01 -2.271216011935e+02 0.0 
0.0 0.0 -9.831684739368e+01 
-1.106738210200e+02 1.100106510507e+01 0.0 
1.100106510507e+01 -2.389972955451e+02 0.0 
0.0 0.0 -1.045013349695e+02 
-9.549814471451e+01 1.615989414227e+01 0.0 
1.615989414227e+01 -2.265937935074e+02 0.0 
0.0 0.0 -9.622758146658e+01 
-1.182244114187e+02 -6.721521190581e-01 0.0 
-6.721521190581e-01 -2.792892455224e+02 0.0 
0.0 0.0 -1.188540970823e+02 
-1.317921252780e+02 6.775322639602e-01 0.0 
6.775322639602e-01 -3.243441916204e+02 0.0 
0.0 0.0 -1.364408950695e+02 
-3.037561927759e+01 -6.762532682151e+00 0.0 
-6.762532682151e+00 -1.348477061272e+02 0.0 
0.0 0.0 -5.031610345893e+01 
-6.051287167327e+01 2.129743705050e+01 0.0 
2.129743705050e+01 -1.429413333553e+02 0.0 
0.0 0.0 -6.063626150858e+01 
-1.013331187652e+02 3.530262440115e+00 0.0 
3.530262440115e+00 -2.160669541664e+02 0.0 
0.0 0.0 -9.482002187951e+01 
-1.319394883736e+02 1.489488055164e+01 0.0 
1.489488055164e+01 -3.099099006214e+02 0.0 
0.0 0.0 -1.321548166985e+02 
-1.307187572430e+02 4.091244998319e+00 0.0 
4.091244998319e+00 -2.980522572660e+02 0.0 
0.0 0.0 -1.282313043527e+02 
-7.505030129496e+01 1.617573598708e+01 0.0 
1.617573598708e+01 -1.597837557465e+02 0.0 
0.0 0.0 -7.005021711244e+01 
-1.319645694089e+02 -8.757659999030e-02 0.0 
-8.757659999030e-02 -3.206703789909e+02 0.0 
0.0 0.0 -1.353904845199e+02 
-1.269733521706e+02 5.389098677560e+00 0.0 
5.389098677560e+00 -2.858342239383e+02 0.0 
0.0 0.0 -1.234422728327e+02 
-8.961868967304e+01 -4.678696296094e+00 0.0 
-4.678696296094e+00 -2.242819554326e+02 0.0 
0.0 0.0 -9.377019353168e+01 
-3.772205309974e+01 -4.011685462708e-01 0.0 
-4.011685462708e-01 -9.101528172202e+01 0.0 
0.0 0.0 -3.822120044653e+01 
-3.166853124206e+01 2.573051357388e+01 0.0 
2.573051357388e+01 -1.072609550154e+02 0.0 
0.0 0.0 -4.167104746868e+01 
-4.612097292689e+01 7.685078441778e+00 0.0 
7.685078441778e+00 -1.720866530136e+02 0.0 
0.0 0.0 -6.506228778215e+01 
-8.248201407378e+01 1.541013522447e+01 0.0 
1.541013522447e+01 -2.229128454515e+02 0.0 
0.0 0.0 -9.121845785758e+01 
-9.764614221720e+01 -3.659434310007e+00 0.0 
-3.659434310007e+00 -2.437656513374e+02 0.0 
0.0 0.0 -1.020235380664e+02 
-1.353643891308e+02 8.669524043614e+00 0.0 
8.669524043614e+00 -3.075177703944e+02 0.0 
0.0 0.0 -1.324646478575e+02 
-1.364473079602e+02 -2.545797267322e-02 0.0 
-2.545797267322e-02 -3.283629798997e+02 0.0 
0.0 0.0 -1.390430863580e+02 
-1.214365511647e+02 2.788940751005e+00 0.0 
2.788940751005e+00 -3.114499483732e+02 0.0 
0.0 0.0 -1.294659498614e+02 
-3.718061536180e+01 2.867955386245e+01 0.0 
2.867955386245e+01 -4.065855133920e+01 0.0 
0.0 0.0 -2.264918368599e+01 
-7.562305133112e+01 4.719833360632e+00 0.0 
4.719833360632e+00 -1.480376951342e+02 0.0 
0.0 0.0 -6.669822393961e+01 
-1.408230937414e+02 3.586551643084e-02 0.0 
3.586551643084e-02 -3.362116638616e+02 0.0 
0.0 0.0 -1.427104272809e+02 
-8.807790754587e+01 3.793524073814e+00 0.0 
3.793524073814e+00 -2.510304742693e+02 0.0 
0.0 0.0 -1.013325145446e+02 
-1.304543420338e+02 1.028489216292e+01 0.0 
1.028489216292e+01 -3.281804764203e+02 0.0 
0.0 0.0 -1.371904455362e+02 
-9.669065148141e+01 -7.939069483236e-01 0.0 
-7.939069483236e-01 -2.274682281708e+02 0.0 
0.0 0.0 -9.684766389567e+01 
-1.445671136046e+02 1.565915224573e+01 0.0 
1.565915224573e+01 -3.381356650938e+02 0.0 
0.0 0.0 -1.444108336095e+02 
-6.019074701289e+01 7.514236284731e+00 0.0 
7.514236284731e+00 -1.106235326352e+02 0.0 
0.0 0.0 -5.084428389442e+01 
-1.451296495208e+02 6.794700597945e-02 0.0 
6.794700597945e-02 -3.444548954615e+02 0.0 
0.0 0.0 -1.464753634947e+02 
-1.207798023055e+02 4.954295584751e+00 0.0 
4.954295584751e+00 -3.124930339898e+02 0.0 
0.0 0.0 -1.295818508886e+02 
-5.116343001694e+01 2.119507689857e+01 0.0 
2.119507689857e+01 -1.526292352524e+02 0.0 
0.0 0.0 -6.073779958080e+01 
-7.226166434240e+01 6.279799785194e-02 0.0 
6.279799785194e-02 -1.535194650995e+02 0.0 
0.0 0.0 -6.733433883257e+01 
-1.552489512508e+02 3.034103498806e-01 0.0 
3.034103498806e-01 -3.663808536916e+02 0.0 
0.0 0.0 -1.560889414827e+02 
-1.307509056723e+02 5.743737266848e+00 0.0 
5.743737266848e+00 -3.308925661290e+02 0.0 
0.0 0.0 -1.380930415404e+02 
-1.033358624751e+02 1.554106594795e+01 0.0 
1.554106594795e+01 -2.457692892693e+02 0.0 
0.0 0.0 -1.043315455233e+02 
-8.406443729196e+01 1.365276802968e+00 0.0 
1.365276802968e+00 -2.419617606024e+02 0.0 
0.0 0.0 -9.740785936831e+01 
-6.341955946077e+01 4.139435131039e+00 0.0 
4.139435131039e+00 -1.196208921245e+02 0.0 
0.0 0.0 -5.451213547558e+01 
-1.020221481188e+02 -3.072255929190e+00 0.0 
-3.072255929190e+00 -2.511957614158e+02 0.0 
0.0 0.0 -1.055653728604e+02 
-1.062350503185e+02 1.340893629276e+01 0.0 
1.340893629276e+01 -2.345782042798e+02 0.0 
0.0 0.0 -1.018439763795e+02 
-1.403549039839e+02 7.411770501782e+00 0.0 
7.411770501782e+00 -3.243406111483e+02 0.0 
0.0 0.0 -1.390086545397e+02 
-1.352890850261e+02 7.191981644590e+00 0.0 
7.191981644590e+00 -3.391943929256e+02 0.0 
0.0 0.0 -1.419450433855e+02 
-1.065201114129e+02 6.688252685339e+00 0.0 
6.688252685339e+00 -2.254175520074e+02 0.0 
0.0 0.0 -9.918129902609e+01 
-9.810054595728e+01 -3.255911451454e+00 0.0 
-3.255911451454e+00 -2.392109121691e+02 0.0 
0.0 0.0 -1.007934374379e+02 
-1.083593314728e+02 1.339017760486e+01 0.0 
1.339017760486e+01 -2.769420117810e+02 0.0 
0.0 0.0 -1.151904029761e+02 
-1.871167898332e+01 -6.879848678808e-01 0.0 
-6.879848678808e-01 -5.030840200342e+01 0.0 
0.0 0.0 -2.030602429602e+01 
-6.800471877160e+01 5.796878954671e+00 0.0 
5.796878954671e+00 -1.293389089770e+02 0.0 
0.0 0.0 -5.880308832458e+01 
-1.022192330000e+02 -2.609164594322e+00 0.0 
-2.609164594322e+00 -2.468856056645e+02 0.0 
0.0 0.0 -1.043314515993e+02 
-5.012336620106e+01 3.373486019507e+00 0.0 
3.373486019507e+00 -1.802371112038e+02 0.0 
0.0 0.0 -6.870814322147e+01 
-8.893036765006e+01 1.839616585279e-01 0.0 
1.839616585279e-01 -2.493281162323e+02 0.0 
0.0 0.0 -1.010775451647e+02 
-1.455667343038e+02 1.364235903914e+01 0.0 
1.364235903914e+01 -3.508620133204e+02 0.0 
0.0 0.0 -1.485286242873e+02 
-1.062862810418e+02 -2.023890023260e+00 0.0 
-2.023890023260e+00 -2.547503739343e+02 0.0 
0.0 0.0 -1.079109964928e+02 
-5.806488736783e+01 4.016404037691e+00 0.0 
4.016404037691e+00 -1.948807165158e+02 0.0 
0.0 0.0 -7.548368116509e+01 
-1.102897323895e+02 -1.502565577815e+00 0.0 
-1.502565577815e+00 -2.627365124450e+02 0.0 
0.0 0.0 -1.115078734504e+02 
-5.545248320304e+01 5.223174412863e+00 0.0 
5.223174412863e+00 -1.005344140633e+02 0.0 
0.0 0.0 -4.639606917991e+01 
-1.105078998371e+02 7.823838368606e+00 0.0 
7.823838368606e+00 -2.357732271527e+02 0.0 
0.0 0.0 -1.034843380969e+02 
-1.142587268582e+02 -1.022803817403e+00 0.0 
-1.022803817403e+00 -2.707917872975e+02 0.0 
0.0 0.0 -1.151151542467e+02 
-1.137843051835e+02 1.350642718268e+01 0.0 
1.350642718268e+01 -2.544114893033e+02 0.0 
0.0 0.0 -1.100587383460e+02 
-2.104748813782e+01 -1.362577902164e+00 0.0 
-1.362577902164e+00 -5.264326195574e+01 0.0 
0.0 0.0 -2.170722502807e+01 
-1.063731950447e+02 1.527184908058e+01 0.0 
1.527184908058e+01 -2.583899319461e+02 0.0 
0.0 0.0 -1.090289380972e+02 
-1.441853723996e+02 -1.364612125353e-01 0.0 
-1.364612125353e-01 -3.391299899520e+02 0.0 
0.0 0.0 -1.445946087055e+02 
-6.643714414233e+01 -8.754972767400e+00 0.0 
-8.754972767400e+00 -1.717710404624e+02 0.0 
0.0 0.0 -7.106245538142e+01 
-9.389165605922e+01 -5.949529676937e-01 0.0 
-5.949529676937e-01 -2.566417944989e+02 0.0 
0.0 0.0 -1.047600351674e+02 
-1.179743381357e+02 8.623399108822e+00 0.0 
8.623399108822e+00 -2.560688636843e+02 0.0 
0.0 0.0 -1.118129605460e+02 
-4.738479831380e+01 6.927331966304e+00 0.0 
6.927331966304e+00 -8.128601997900e+01 0.0 
0.0 0.0 -3.820124548784e+01 
-1.027054288406e+02 6.344971019094e-01 0.0 
6.344971019094e-01 -2.745793647307e+02 0.0 
0.0 0.0 -1.127854380714e+02 
-1.213654940256e+02 1.368267304784e+01 0.0 
1.368267304784e+01 -2.742022829341e+02 0.0 
0.0 0.0 -1.182703330879e+02 
-1.096530990256e+02 1.471354311217e+01 0.0 
1.471354311217e+01 -2.708199942453e+02 0.0 
0.0 0.0 -1.137419279813e+02 
-9.086952762965e+01 1.453082960632e+01 0.0 
1.453082960632e+01 -2.406596354166e+02 0.0 
0.0 0.0 -9.905874891386e+01 
-1.118919209724e+02 1.758596319619e+00 0.0 
1.758596319619e+00 -2.928840597272e+02 0.0 
0.0 0.0 -1.210327942099e+02 
-5.237966756679e+01 9.978516386459e+00 0.0 
9.978516386459e+00 -9.226202516062e+01 0.0 
0.0 0.0 -4.299250781822e+01 
-5.267913972814e+01 -8.091663587604e+00 0.0 
-8.091663587604e+00 -1.237398748171e+02 0.0 
0.0 0.0 -5.252570436358e+01 
-4.559039195009e+01 -7.697179269988e+00 0.0 
-7.697179269988e+00 -1.030416552716e+02 0.0 
0.0 0.0 -4.418961416651e+01 
-6.259956984262e+01 1.119788203370e+00 0.0 
1.119788203370e+00 -2.022712546040e+02 0.0 
0.0 0.0 -7.906124733400e+01 
-1.253387909132e+02 1.327320972913e+01 0.0 
1.327320972913e+01 -2.821125806739e+02 0.0 
0.0 0.0 -1.218354114761e+02 
-2.629441305936e+01 -5.393718565270e-01 0.0 
-5.393718565270e-01 -6.682008739631e+01 0.0 
0.0 0.0 -2.753435013670e+01 
-1.181732113325e+02 1.008137025354e+01 0.0 
1.008137025354e+01 -2.570902584230e+02 0.0 
0.0 0.0 -1.121790409267e+02 
-3.631670569587e+01 -7.550031892305e+00 0.0 
-7.550031892305e+00 -7.483073122236e+01 0.0 
0.0 0.0 -3.282414741154e+01 
-5.958750021616e+01 -2.542119197539e+00 0.0 
-2.542119197539e+00 -1.931754967875e+02 0.0 
0.0 0.0 -7.542889910111e+01 
-1.226001539422e+02 1.376337266029e+01 0.0 
1.376337266029e+01 -3.024293364204e+02 0.0 
0.0 0.0 -1.271088471088e+02 
-9.447338118223e+01 3.474173302258e-01 0.0 
3.474173302258e-01 -2.074478387313e+02 0.0 
0.0 0.0 -9.017636597406e+01 
-6.455815190828e+01 -4.199324947798e+00 0.0 
-4.199324947798e+00 -1.988173306698e+02 0.0 
0.0 0.0 -7.861264477344e+01 
-4.692148313011e+01 -4.950097740623e-01 0.0 
-4.950097740623e-01 -1.108790577467e+02 0.0 
0.0 0.0 -4.694016226303e+01 
-6.222372549850e+01 -7.044241849415e+00 0.0 
-7.044241849415e+00 -1.874816286201e+02 0.0 
0.0 0.0 -7.451160623558e+01 
-9.947755825982e+01 1.384814183796e+01 0.0 
1.384814183796e+01 -2.586300008933e+02 0.0 
0.0 0.0 -1.070322677459e+02 
-6.709032571691e+01 -7.334518329798e+00 0.0 
-7.334518329798e+00 -1.926018018015e+02 0.0 
0.0 0.0 -7.750763825551e+01 
-6.484970061957e+01 -8.935528617330e+00 0.0 
-8.935528617330e+00 -1.798742856443e+02 0.0 
0.0 0.0 -7.301719587915e+01 
-1.309573746108e+02 2.363764457445e+00 0.0 
2.363764457445e+00 -3.011033441172e+02 0.0 
0.0 0.0 -1.292182156184e+02 
-6.922700595848e+01 -8.280800764721e+00 0.0 
-8.280800764721e+00 -1.852295279655e+02 0.0 
0.0 0.0 -7.593696017720e+01 
-1.376326826028e+02 7.353101051128e-01 0.0 
7.353101051128e-01 -3.195612762502e+02 0.0 
0.0 0.0 -1.367581876559e+02 
-1.627462011542e+02 6.667300424967e-02 0.0 
6.667300424967e-02 -3.814463338123e+02 0.0 
0.0 0.0 -1.628577604899e+02 
-7.840986996310e+01 2.077919000125e-01 0.0 
2.077919000125e-01 -1.684620059846e+02 0.0 
0.0 0.0 -7.366156278430e+01 
-3.846084743543e+01 8.198274614221e+00 0.0 
8.198274614221e+00 -6.105098408614e+01 0.0 
0.0 0.0 -2.945354945647e+01 
-6.737697857134e+01 1.235379214402e+00 0.0 
1.235379214402e+00 -1.117309913737e+02 0.0 
0.0 0.0 -5.461213954669e+01 
-4.592812091275e+01 1.488771567885e+01 0.0 
1.488771567885e+01 -7.651760174301e+01 0.0 
0.0 0.0 -3.633371679673e+01 
-5.987673582886e+01 -9.913069503616e+00 0.0 
-9.913069503616e+00 -1.523374832433e+02 0.0 
0.0 0.0 -6.326426572165e+01 
-1.180099331950e+02 1.151962667324e+01 0.0 
1.151962667324e+01 -2.588713464133e+02 0.0 
0.0 0.0 -1.126643838825e+02 
-7.884059569372e+01 1.113354122399e-01 0.0 
1.113354122399e-01 -1.692248917791e+02 0.0 
0.0 0.0 -7.401964624186e+01 
-5.670533080620e+01 -9.313321349515e+00 0.0 
-9.313321349515e+00 -1.380990884141e+02 0.0 
0.0 0.0 -5.804132576608e+01 
-1.396334180493e+02 1.256108008155e+01 0.0 
1.256108008155e+01 -3.184896369707e+02 0.0 
0.0 0.0 -1.370369165060e+02 
-1.532709859372e+02 1.631419009679e+01 0.0 
1.631419009679e+01 -3.603611554107e+02 0.0 
0.0 0.0 -1.536896424044e+02 
-1.059213673249e+02 5.089329827025e-01 0.0 
5.089329827025e-01 -2.360847214021e+02 0.0 
0.0 0.0 -1.022018266181e+02 
-1.348622424811e+02 9.367631586055e+00 0.0 
9.367631586055e+00 -3.373210542649e+02 0.0 
0.0 0.0 -1.412549890238e+02 
-1.134701107347e+02 1.397304955480e+01 0.0 
1.397304955480e+01 -2.834456862657e+02 0.0 
0.0 0.0 -1.186747391001e+02 
-1.238194536784e+02 4.164026591461e-01 0.0 
4.164026591461e-01 -2.830226906780e+02 0.0 
0.0 0.0 -1.216526433069e+02 
-7.236389090909e+01 4.659341933392e-01 0.0 
4.659341933392e-01 -1.522047270001e+02 0.0 
0.0 0.0 -6.697058537275e+01 
-1.854893307379e+01 -3.313336454768e+00 0.0 
-3.313336454768e+00 -3.412839714675e+01 0.0 
0.0 0.0 -1.536381519229e+01 
-1.226806431891e+02 -2.961166986191e-01 0.0 
-2.961166986191e-01 -2.892452296620e+02 0.0 
0.0 0.0 -1.231777618553e+02 
-3.190019352884e+01 1.139616805271e+01 0.0 
1.139616805271e+01 -4.247304784187e+01 0.0 
0.0 0.0 -2.191197241121e+01 
-3.767802252596e+01 2.044887355681e+01 0.0 
2.044887355681e+01 -5.949311237737e+01 0.0 
0.0 0.0 -2.875134047100e+01 
-3.569337710614e+01 2.552220172582e+01 0.0 
2.552220172582e+01 -5.809553231307e+01 0.0 
0.0 0.0 -2.659481575773e+01 
-5.870579625121e+01 -1.717856817664e+00 0.0 
-1.717856817664e+00 -1.376890460371e+02 0.0 
0.0 0.0 -5.851845268649e+01 
-3.631468718146e+01 -1.503122491473e+01 0.0 
-1.503122491473e+01 -5.976113139946e+01 0.0 
0.0 0.0 -2.706724470514e+01 
-3.138123141658e+01 1.768157196454e+01 0.0 
1.768157196454e+01 -3.534041404342e+01 0.0 
0.0 0.0 -1.933455059126e+01 
-1.489007310805e+02 1.107083236849e+01 0.0 
1.107083236849e+01 -3.614034816389e+02 0.0 
0.0 0.0 -1.526912638158e+02 
-8.136614955205e+01 1.288268491141e+00 0.0 
1.288268491141e+00 -1.702669446488e+02 0.0 
0.0 0.0 -7.508992826024e+01 
-1.271880533115e+02 1.429148564224e+01 0.0 
1.429148564224e+01 -3.086343000689e+02 0.0 
0.0 0.0 -1.303467060141e+02 
-3.385366437641e+01 2.399245793864e+01 0.0 
2.399245793864e+01 -3.628860623225e+01 0.0 
0.0 0.0 -1.906688863562e+01 
-1.336318017810e+02 6.024760941023e+00 0.0 
6.024760941023e+00 -3.051054169929e+02 0.0 
0.0 0.0 -1.312211656322e+02 
-1.462598640755e+02 1.488515650095e+01 0.0 
1.488515650095e+01 -3.485697074792e+02 0.0 
0.0 0.0 -1.480488714664e+02 
-1.633294566750e+02 1.831072940724e+00 0.0 
1.831072940724e+00 -3.856437350687e+02 0.0 
0.0 0.0 -1.642919575231e+02 
-1.362767938833e+02 1.440347740684e+01 0.0 
1.440347740684e+01 -3.278384964813e+02 0.0 
0.0 0.0 -1.388345871094e+02 
-3.569824930192e+01 2.959864283755e+01 0.0 
2.959864283755e+01 -6.213919395437e+01 0.0 
0.0 0.0 -2.806619077381e+01 
-9.061387513550e+01 3.076851665081e+00 0.0 
3.076851665081e+00 -1.882291257062e+02 0.0 
0.0 0.0 -8.325290025252e+01 
-1.429080179821e+02 1.519633368085e+01 0.0 
1.519633368085e+01 -3.309846254475e+02 0.0 
0.0 0.0 -1.417677930289e+02 
-1.122751651943e+02 7.900116730474e-01 0.0 
7.900116730474e-01 -2.517780754459e+02 0.0 
0.0 0.0 -1.088159721921e+02 
-1.642092649231e+02 7.441193564587e-01 0.0 
7.441193564587e-01 -3.861474273531e+02 0.0 
0.0 0.0 -1.647070076829e+02 
-8.149234079868e+01 1.553418653457e+00 0.0 
1.553418653457e+00 -1.683822811207e+02 0.0 
0.0 0.0 -7.456238657580e+01 
-1.316289272679e+02 1.478233944776e+00 0.0 
1.478233944776e+00 -3.034628032763e+02 0.0 
0.0 0.0 -1.301275191632e+02 
-3.195385082404e+01 -1.539937254581e+01 0.0 
-1.539937254581e+01 -1.237294146107e+02 0.0 
0.0 0.0 -4.727498754027e+01 
-1.315729856053e+02 7.092077677760e-01 0.0 
7.092077677760e-01 -3.035578782231e+02 0.0 
0.0 0.0 -1.301392591485e+02 
-1.253479325294e+02 1.210939918398e+01 0.0 
1.210939918398e+01 -2.789693646464e+02 0.0 
0.0 0.0 -1.208951891527e+02 
-8.923994707187e+01 4.777333117447e-01 0.0 
4.777333117447e-01 -1.933203716558e+02 0.0 
0.0 0.0 -8.436809561829e+01 
-9.156312388759e+01 3.882857016600e+00 0.0 
3.882857016600e+00 -1.885625824499e+02 0.0 
0.0 0.0 -8.363771190126e+01 
-1.571359340473e+02 3.455003090228e-02 0.0 
3.455003090228e-02 -3.688203248478e+02 0.0 
0.0 0.0 -1.573868776685e+02 
-1.377105836822e+02 1.093452881605e+01 0.0 
1.093452881605e+01 -3.135973020262e+02 0.0 
0.0 0.0 -1.349923657125e+02 
-3.573691941967e+01 3.210295262465e+01 0.0 
3.210295262465e+01 -7.009184238265e+01 0.0 
0.0 0.0 -3.160293153679e+01 
-1.057824428377e+02 5.280076564180e-01 0.0 
5.280076564180e-01 -2.350377031100e+02 0.0 
0.0 0.0 -1.018460437843e+02 
-7.327641180271e+01 -2.427879669866e+00 0.0 
-2.427879669866e+00 -1.725564339396e+02 0.0 
0.0 0.0 -7.334985372271e+01 
-3.998231527337e+01 -1.836245570707e+01 0.0 
-1.836245570707e+01 -1.076163326284e+02 0.0 
0.0 0.0 -4.556577933248e+01 
-1.543557955213e+02 2.530762789793e+00 0.0 
2.530762789793e+00 -3.698707007656e+02 0.0 
0.0 0.0 -1.568679488861e+02 
-1.320703252708e+02 1.268448927201e+01 0.0 
1.268448927201e+01 -2.979590064423e+02 0.0 
0.0 0.0 -1.286087995139e+02 
-1.563066716513e+02 6.826102817492e-02 0.0 
6.826102817492e-02 -3.681270533413e+02 0.0 
0.0 0.0 -1.569301174978e+02 
-1.756593703623e+01 -2.104210842455e-01 0.0 
-2.104210842455e-01 -4.977026333928e+01 0.0 
0.0 0.0 -1.980086011265e+01 
-1.308767199524e+01 -1.347693535986e+00 0.0 
-1.347693535986e+00 -3.138145820136e+01 0.0 
0.0 0.0 -1.299409868109e+01 
-1.548993205687e+02 4.300594328860e+00 0.0 
4.300594328860e+00 -3.726406369865e+02 0.0 
0.0 0.0 -1.578619872665e+02 
-1.419242405654e+02 1.403142407299e+01 0.0 
1.403142407299e+01 -3.258584246381e+02 0.0 
0.0 0.0 -1.399347995610e+02 
-3.713148383735e+01 -1.739891877553e+01 0.0 
-1.739891877553e+01 -1.202324901253e+02 0.0 
0.0 0.0 -4.653597365582e+01 
-1.399521222170e+02 5.192437419733e+00 0.0 
5.192437419733e+00 -3.246329616563e+02 0.0 
0.0 0.0 -1.389755251620e+02 
-3.898935668306e+01 3.277589229132e+01 0.0 
3.277589229132e+01 -7.666937302057e+01 0.0 
0.0 0.0 -3.563387089266e+01 
-7.215519858740e+01 3.457611422187e-01 0.0 
3.457611422187e-01 -1.502444460327e+02 0.0 
0.0 0.0 -6.631989338604e+01 
-1.104198839871e+01 -6.064579538957e-01 0.0 
-6.064579538957e-01 -3.222777746716e+01 0.0 
0.0 0.0 -1.265781955420e+01 
-1.640199363930e+02 7.212356461619e-01 0.0 
7.212356461619e-01 -3.852072076261e+02 0.0 
0.0 0.0 -1.643681432057e+02 
-1.328834978437e+02 3.700096430642e+00 0.0 
3.700096430642e+00 -3.053641502032e+02 0.0 
0.0 0.0 -1.310742944141e+02 
-8.068474281243e+01 -1.739708412513e+00 0.0 
-1.739708412513e+00 -1.895862224050e+02 0.0 
0.0 0.0 -8.068128956524e+01 
-7.836896690616e+01 2.499968188582e+00 0.0 
2.499968188582e+00 -1.574823973391e+02 0.0 
0.0 0.0 -7.035540927357e+01 
-5.303026794720e+01 -1.111920384652e+00 0.0 
-1.111920384652e+00 -1.245159568278e+02 0.0 
0.0 0.0 -5.286386743249e+01 
-1.388508231650e+02 1.505900571691e+01 0.0 
1.505900571691e+01 -3.263757478017e+02 0.0 
0.0 0.0 -1.391679712900e+02 
-2.807309959425e+01 -6.620565765573e+00 0.0 
-6.620565765573e+00 -4.915207519447e+01 0.0 
0.0 0.0 -2.213587564276e+01 
-1.330967418019e+02 2.860461759617e+00 0.0 
2.860461759617e+00 -3.067663292439e+02 0.0 
0.0 0.0 -1.315589213137e+02 
-1.542397826931e+02 6.467500618221e+00 0.0 
6.467500618221e+00 -3.724482851815e+02 0.0 
0.0 0.0 -1.576064203624e+02 
-1.366500986877e+02 8.124820055709e+00 0.0 
8.124820055709e+00 -3.120651744328e+02 0.0 
0.0 0.0 -1.342145819362e+02 
-1.592278869538e+02 1.377427483897e+01 0.0 
1.377427483897e+01 -3.773073321219e+02 0.0 
0.0 0.0 -1.605605657227e+02 
-4.491721825113e+01 1.072535051436e+01 0.0 
1.072535051436e+01 -1.166137601030e+02 0.0 
0.0 0.0 -4.992687245483e+01 
-1.479137438093e+02 1.556385888773e+01 0.0 
1.556385888773e+01 -3.500829828153e+02 0.0 
0.0 0.0 -1.489990179874e+02 
-1.436809503492e+02 7.620828238980e+00 0.0 
7.620828238980e+00 -3.542599582097e+02 0.0 
0.0 0.0 -1.489822725677e+02 
-7.187645173698e+01 -4.347634325934e-02 0.0 
-4.347634325934e-02 -1.519601992003e+02 0.0 
0.0 0.0 -6.675099528118e+01 
-1.369417404957e+02 9.392495387533e+00 0.0 
9.392495387533e+00 -3.117970896392e+02 0.0 
0.0 0.0 -1.342216490405e+02 
-6.571016281103e+01 -1.801444605461e+00 0.0 
-1.801444605461e+00 -1.537943354133e+02 0.0 
0.0 0.0 -6.545134946730e+01 
-2.725176586753e+01 -1.446637617671e+00 0.0 
-1.446637617671e+00 -6.599854163404e+01 0.0 
0.0 0.0 -2.757509225047e+01 
-1.383534243619e+02 4.533106232144e-01 0.0 
4.533106232144e-01 -3.215942871980e+02 0.0 
0.0 0.0 -1.375843134680e+02 
-2.729191823539e+00 -4.438969261356e-02 0.0 
-4.438969261356e-02 -1.415030320738e+01 0.0 
0.0 0.0 -4.005777759758e+00 
-7.091887021044e+01 1.062265541848e-01 0.0 
1.062265541848e-01 -1.508216859493e+02 0.0 
0.0 0.0 -6.612216684792e+01 
-1.646076003103e+02 -1.485353119319e-01 0.0 
-1.485353119319e-01 -3.855702487480e+02 0.0 
0.0 0.0 -1.646533547175e+02 
-2.494917490839e+01 -8.476113528170e-01 0.0 
-8.476113528170e-01 -6.299419366679e+01 0.0 
0.0 0.0 -2.598301057255e+01 
-8.451263182987e+01 2.832983108396e-01 0.0 
2.832983108396e-01 -1.828485966713e+02 0.0 
0.0 0.0 -7.980836855034e+01 
-1.414995029968e+02 1.346171264768e+01 0.0 
1.346171264768e+01 -3.240521532952e+02 0.0 
0.0 0.0 -1.392654968876e+02 
-9.876457439951e+01 -3.904343393830e-01 0.0 
-3.904343393830e-01 -2.325106128054e+02 0.0 
0.0 0.0 -9.898255616147e+01 
-1.195835718097e+02 8.173972107089e-01 0.0 
8.173972107089e-01 -2.716677393473e+02 0.0 
0.0 0.0 -1.169753933471e+02 
-4.078173063920e+01 -1.857286236840e+01 0.0 
-1.857286236840e+01 -8.035927900093e+01 0.0 
0.0 0.0 -3.452980553657e+01 
-6.920289867449e+01 -7.141520534600e+00 0.0 
-7.141520534600e+00 -1.085413004356e+02 0.0 
0.0 0.0 -5.406878265074e+01 
-9.870461298235e+01 4.881165225344e-01 0.0 
4.881165225344e-01 -2.178031419850e+02 0.0 
0.0 0.0 -9.455232649022e+01 
-1.485908645957e+02 1.432495315741e+01 0.0 
1.432495315741e+01 -3.553111847322e+02 0.0 
0.0 0.0 -1.507706147984e+02 
-1.358907157279e+02 6.769554428354e+00 0.0 
6.769554428354e+00 -3.111697457590e+02 0.0 
0.0 0.0 -1.337181384461e+02 
-9.351561212635e+01 4.372186172607e-01 0.0 
4.372186172607e-01 -2.041324445123e+02 0.0 
0.0 0.0 -8.889441699161e+01 
-3.207353639141e+01 2.915729863644e+01 0.0 
2.915729863644e+01 -9.189896858571e+01 0.0 
0.0 0.0 -3.738101818869e+01 
-1.376528117263e+02 1.323290088234e+01 0.0 
1.323290088234e+01 -3.134960042148e+02 0.0 
0.0 0.0 -1.349446447823e+02 
-8.721372442546e+01 -1.516482046594e+00 0.0 
-1.516482046594e+00 -2.049503560684e+02 0.0 
0.0 0.0 -8.724922414816e+01 
-1.384995543868e+02 1.503901346296e+01 0.0 
1.503901346296e+01 -3.206740753639e+02 0.0 
0.0 0.0 -1.373520889252e+02 
-1.427156800753e+02 9.978162029086e+00 0.0 
9.978162029086e+00 -3.514412909977e+02 0.0 
0.0 0.0 -1.478470913219e+02 
-4.582918970200e+01 3.248719827202e+01 0.0 
3.248719827202e+01 -5.935439563974e+01 0.0 
0.0 0.0 -3.229324150202e+01 
-1.060427203550e+02 -3.377589921548e-01 0.0 
-3.377589921548e-01 -2.499419514610e+02 0.0 
0.0 0.0 -1.063954015448e+02 
-1.055874210864e+01 -6.087791214828e-01 0.0 
-6.087791214828e-01 -3.015908190727e+01 0.0 
0.0 0.0 -1.183962828018e+01 
-1.573119852422e+02 1.382280828422e+00 0.0 
1.382280828422e+00 -3.733051586643e+02 0.0 
0.0 0.0 -1.587851431719e+02 
-9.070771514860e+01 -9.679799844401e-01 0.0 
-9.679799844401e-01 -2.134137833529e+02 0.0 
0.0 0.0 -9.083644955045e+01 
-1.323660553321e+01 4.452440412556e+00 0.0 
4.452440412556e+00 -7.760038026299e+00 0.0 
0.0 0.0 -5.856998134236e+00 
-1.009039735520e+01 8.899659365574e-02 0.0 
8.899659365574e-02 -9.363961771679e+00 0.0 
0.0 0.0 -5.436307738064e+00 
-2.259692119822e+01 5.091421706387e+00 0.0 
5.091421706387e+00 -2.968417055607e+01 0.0 
0.0 0.0 -1.528432752629e+01 
-1.859527142995e+01 -3.238815513614e-02 0.0 
-3.238815513614e-02 -3.005508159643e+01 0.0 
0.0 0.0 -1.419510590792e+01 
-3.190949611159e+01 4.304856491801e+00 0.0 
4.304856491801e+00 -4.990790930919e+01 0.0 
0.0 0.0 -2.414522162623e+01 
-2.652826303584e+01 -4.332628164940e-02 0.0 
-4.332628164940e-02 -4.847185300398e+01 0.0 
0.0 0.0 -2.210003481195e+01 
-4.067649134516e+01 3.464209663597e+00 0.0 
3.464209663597e+00 -6.948178526227e+01 0.0 
0.0 0.0 -3.264748298223e+01 
-3.552453969842e+01 -4.048178780995e-02 0.0 
-4.048178780995e-02 -6.905623022246e+01 0.0 
0.0 0.0 -3.097423097626e+01 
-4.940736254734e+01 2.779312061717e+00 0.0 
2.779312061717e+00 -8.905401919485e+01 0.0 
0.0 0.0 -4.113841452266e+01 
-4.359628368279e+01 -2.662434314598e-02 0.0 
-2.662434314598e-02 -8.748967949884e+01 0.0 
0.0 0.0 -3.892578895449e+01 
-5.781655130596e+01 2.314821692158e+00 0.0 
2.314821692158e+00 -1.083723399706e+02 0.0 
0.0 0.0 -4.945666738297e+01 
-5.260272888652e+01 -6.829703538608e-02 0.0 
-6.829703538608e-02 -1.081000828840e+02 0.0 
0.0 0.0 -4.781084353116e+01 
-6.598910943043e+01 2.080470401130e+00 0.0 
2.080470401130e+00 -1.278000544581e+02 0.0 
0.0 0.0 -5.773674916656e+01 
-6.043961756698e+01 -1.613607792162e-01 0.0 
-1.613607792162e-01 -1.264949556650e+02 0.0 
0.0 0.0 -5.568037196959e+01 

TENSORS node_materi_strain_total float
6.623332023807e-04 1.067677784381e-06 0.0 
1.067677784381e-06 -1.761306879932e-04 0.0 
0.0 0.0 0.0 
-5.255694349018e-04 -1.743404088603e-05 0.0 
-1.743404088603e-05 7.297905083821e-03 0.0 
0.0 0.0 0.0 
-1.557077867020e-05 3.948296214236e-06 0.0 
3.948296214236e-06 7.602009587055e-03 0.0 
0.0 0.0 0.0 
-3.702390590443e-05 7.582967155279e-06 0.0 
7.582967155279e-06 1.101210424176e-02 0.0 
0.0 0.0 0.0 
5.004204740004e-04 -5.723391412748e-06 0.0 
-5.723391412748e-06 9.102752143993e-05 0.0 
0.0 0.0 0.0 
3.108242154201e-04 5.880957477296e-06 0.0 
5.880957477296e-06 5.852141773124e-04 0.0 
0.0 0.0 0.0 
1.415803963343e-04 -5.064801706567e-06 0.0 
-5.064801706567e-06 1.034005205127e-03 0.0 
0.0 0.0 0.0 
7.417946815876e-06 -1.200654607256e-05 0.0 
-1.200654607256e-05 1.519174466642e-03 0.0 
0.0 0.0 0.0 
-1.077632992973e-04 -2.186954554490e-05 0.0 
-2.186954554490e-05 1.966770607745e-03 0.0 
0.0 0.0 0.0 
-1.821371944310e-04 -2.566496265414e-05 0.0 
-2.566496265414e-05 2.383339917055e-03 0.0 
0.0 0.0 0.0 
-2.303036273515e-04 -2.783064211258e-05 0.0 
-2.783064211258e-05 2.782014375092e-03 0.0 
0.0 0.0 0.0 
-2.556953645122e-04 -3.109543427324e-05 0.0 
-3.109543427324e-05 3.165081108442e-03 0.0 
0.0 0.0 0.0 
-2.603500155463e-04 -3.140233221786e-05 0.0 
-3.140233221786e-05 3.538356453046e-03 0.0 
0.0 0.0 0.0 
-2.546582978063e-04 -2.720377182107e-05 0.0 
-2.720377182107e-05 3.910648937483e-03 0.0 
0.0 0.0 0.0 
-2.429205730536e-04 -1.560813874732e-05 0.0 
-1.560813874732e-05 4.291660824032e-03 0.0 
0.0 0.0 0.0 
-2.193226512995e-04 -5.201634326565e-06 0.0 
-5.201634326565e-06 4.663097828580e-03 0.0 
0.0 0.0 0.0 
-1.923879939476e-04 -6.470018314054e-07 0.0 
-6.470018314054e-07 5.006868740783e-03 0.0 
0.0 0.0 0.0 
-1.699867109629e-04 -1.462302998452e-05 0.0 
-1.462302998452e-05 5.386015870340e-03 0.0 
0.0 0.0 0.0 
-1.463978642013e-04 -1.048523891373e-05 0.0 
-1.048523891373e-05 5.784659620184e-03 0.0 
0.0 0.0 0.0 
-1.248347254493e-04 -6.039011238408e-06 0.0 
-6.039011238408e-06 6.178116529014e-03 0.0 
0.0 0.0 0.0 
-1.033658725668e-04 -3.346892371785e-06 0.0 
-3.346892371785e-06 6.579678137951e-03 0.0 
0.0 0.0 0.0 
-7.843961051457e-05 1.091802637424e-06 0.0 
1.091802637424e-06 6.987001994255e-03 0.0 
0.0 0.0 0.0 
-4.644444346151e-05 5.400480641948e-06 0.0 
5.400480641948e-06 7.374155943639e-03 0.0 
0.0 0.0 0.0 
-2.582190336468e-05 5.724972875830e-05 0.0 
5.724972875830e-05 1.102634060449e-02 0.0 
0.0 0.0 0.0 
-3.038393010172e-05 1.057009661705e-04 0.0 
1.057009661705e-04 1.100363654466e-02 0.0 
0.0 0.0 0.0 
-3.013141581376e-05 1.477881142432e-04 0.0 
1.477881142432e-04 1.100407105073e-02 0.0 
0.0 0.0 0.0 
-3.000658167059e-05 2.156367581368e-04 0.0 
2.156367581368e-04 1.099383250014e-02 0.0 
0.0 0.0 0.0 
-3.708590689877e-05 2.627851716101e-04 0.0 
2.627851716101e-04 1.097132302406e-02 0.0 
0.0 0.0 0.0 
-3.331031554317e-05 3.250281728003e-04 0.0 
3.250281728003e-04 1.096800670438e-02 0.0 
0.0 0.0 0.0 
-3.595539122573e-05 3.899933091559e-04 0.0 
3.899933091559e-04 1.094898650791e-02 0.0 
0.0 0.0 0.0 
-3.940693800789e-05 4.580940490688e-04 0.0 
4.580940490688e-04 1.091684738349e-02 0.0 
0.0 0.0 0.0 
-3.998851214534e-05 5.228925793883e-04 0.0 
5.228925793883e-04 1.089837209604e-02 0.0 
0.0 0.0 0.0 
-3.783251238591e-05 6.080518324655e-04 0.0 
6.080518324655e-04 1.085851420822e-02 0.0 
0.0 0.0 0.0 
-4.937839311954e-05 6.789859634545e-04 0.0 
6.789859634545e-04 1.080499207492e-02 0.0 
0.0 0.0 0.0 
-4.581528477184e-05 7.655438104421e-04 0.0 
7.655438104421e-04 1.076110016664e-02 0.0 
0.0 0.0 0.0 
-4.868184001909e-05 8.563119389567e-04 0.0 
8.563119389567e-04 1.069892142586e-02 0.0 
0.0 0.0 0.0 
-4.868281394802e-05 9.458131258783e-04 0.0 
9.458131258783e-04 1.061922532248e-02 0.0 
0.0 0.0 0.0 
-5.411552536050e-05 1.036634728818e-03 0.0 
1.036634728818e-03 1.052883320292e-02 0.0 
0.0 0.0 0.0 
-5.377538315291e-05 1.130062482275e-03 0.0 
1.130062482275e-03 1.041693531771e-02 0.0 
0.0 0.0 0.0 
-5.842190241819e-05 1.222298278042e-03 0.0 
1.222298278042e-03 1.030021927603e-02 0.0 
0.0 0.0 0.0 
-5.593354397793e-05 1.321364891532e-03 0.0 
1.321364891532e-03 1.017308175936e-02 0.0 
0.0 0.0 0.0 
-5.003163464886e-05 1.410597034813e-03 0.0 
1.410597034813e-03 1.003139049720e-02 0.0 
0.0 0.0 0.0 
-4.090640649105e-05 1.494545608956e-03 0.0 
1.494545608956e-03 9.874373555636e-03 0.0 
0.0 0.0 0.0 
-3.160380327312e-05 1.568242260290e-03 0.0 
1.568242260290e-03 9.691157202710e-03 0.0 
0.0 0.0 0.0 
-2.980246578033e-05 1.625241302141e-03 0.0 
1.625241302141e-03 9.494776582313e-03 0.0 
0.0 0.0 0.0 
-1.739817582806e-05 1.668656575442e-03 0.0 
1.668656575442e-03 9.286161515617e-03 0.0 
0.0 0.0 0.0 
-6.983818079842e-06 1.690955448721e-03 0.0 
1.690955448721e-03 9.067602960782e-03 0.0 
0.0 0.0 0.0 
3.173661099032e-06 1.693668650344e-03 0.0 
1.693668650344e-03 8.848518525339e-03 0.0 
0.0 0.0 0.0 
1.778367235687e-05 1.676164662211e-03 0.0 
1.676164662211e-03 8.629929992242e-03 0.0 
0.0 0.0 0.0 
2.685991360877e-05 1.631851523014e-03 0.0 
1.631851523014e-03 8.411469299671e-03 0.0 
0.0 0.0 0.0 
4.501796769385e-05 1.564309500790e-03 0.0 
1.564309500790e-03 8.201019981829e-03 0.0 
0.0 0.0 0.0 
5.130667516151e-05 1.473418699982e-03 0.0 
1.473418699982e-03 7.998932639816e-03 0.0 
0.0 0.0 0.0 
5.294433986328e-05 1.364586711482e-03 0.0 
1.364586711482e-03 7.840467852955e-03 0.0 
0.0 0.0 0.0 
6.654589572956e-05 1.249435799940e-03 0.0 
1.249435799940e-03 7.665291365488e-03 0.0 
0.0 0.0 0.0 
8.122835905544e-05 1.111546794519e-03 0.0 
1.111546794519e-03 7.498072331638e-03 0.0 
0.0 0.0 0.0 
8.261974017517e-05 9.542517804841e-04 0.0 
9.542517804841e-04 7.377732295677e-03 0.0 
0.0 0.0 0.0 
8.123721407978e-05 8.062888334253e-04 0.0 
8.062888334253e-04 7.307461445246e-03 0.0 
0.0 0.0 0.0 
8.163552574395e-05 6.624670448399e-04 0.0 
6.624670448399e-04 7.249146421494e-03 0.0 
0.0 0.0 0.0 
6.565899100871e-05 5.204129493294e-04 0.0 
5.204129493294e-04 7.218278887049e-03 0.0 
0.0 0.0 0.0 
7.152080791665e-05 3.961563203894e-04 0.0 
3.961563203894e-04 7.212781273292e-03 0.0 
0.0 0.0 0.0 
5.489585906086e-05 2.793419092173e-04 0.0 
2.793419092173e-04 7.211910332575e-03 0.0 
0.0 0.0 0.0 
5.726468071954e-05 1.806732526348e-04 0.0 
1.806732526348e-04 7.227530013151e-03 0.0 
0.0 0.0 0.0 
4.050371838408e-05 9.721376766009e-05 0.0 
9.721376766009e-05 7.253849247906e-03 0.0 
0.0 0.0 0.0 
2.971866395018e-05 3.125130342226e-05 0.0 
3.125130342226e-05 7.306502491647e-03 0.0 
0.0 0.0 0.0 
2.299174537438e-05 -1.376430500638e-05 0.0 
-1.376430500638e-05 7.378603819634e-03 0.0 
0.0 0.0 0.0 
1.811236937055e-05 -4.896853201426e-05 0.0 
-4.896853201426e-05 7.429386690217e-03 0.0 
0.0 0.0 0.0 
8.279375025788e-06 -7.021907618072e-05 0.0 
-7.021907618072e-05 7.420531258542e-03 0.0 
0.0 0.0 0.0 
4.255023570302e-06 -7.602287302085e-05 0.0 
-7.602287302085e-05 7.513355764929e-03 0.0 
0.0 0.0 0.0 
-6.102668271724e-06 -7.383840770097e-05 0.0 
-7.383840770097e-05 7.530094682030e-03 0.0 
0.0 0.0 0.0 
-7.838252796266e-06 -6.954518791125e-05 0.0 
-6.954518791125e-05 7.568858618976e-03 0.0 
0.0 0.0 0.0 
-9.620184634684e-06 -4.369358920066e-05 0.0 
-4.369358920066e-05 7.606077643490e-03 0.0 
0.0 0.0 0.0 
-1.271189594336e-05 -2.727030526650e-05 0.0 
-2.727030526650e-05 7.617491182790e-03 0.0 
0.0 0.0 0.0 
-5.144726442139e-04 -1.054519936609e-05 0.0 
-1.054519936609e-05 7.723250984850e-03 0.0 
0.0 0.0 0.0 
-5.054063186693e-04 -1.002598260053e-05 0.0 
-1.002598260053e-05 8.142575342872e-03 0.0 
0.0 0.0 0.0 
-4.809603245810e-04 -7.911817617715e-06 0.0 
-7.911817617715e-06 8.547901351060e-03 0.0 
0.0 0.0 0.0 
-4.461632319297e-04 -6.361931165911e-06 0.0 
-6.361931165911e-06 8.937430615544e-03 0.0 
0.0 0.0 0.0 
-4.003359221108e-04 -2.698260989804e-06 0.0 
-2.698260989804e-06 9.326663943611e-03 0.0 
0.0 0.0 0.0 
-3.403094577318e-04 -1.270943567934e-06 0.0 
-1.270943567934e-06 9.707342787877e-03 0.0 
0.0 0.0 0.0 
-2.735618744284e-04 1.468508528310e-06 0.0 
1.468508528310e-06 1.007735304658e-02 0.0 
0.0 0.0 0.0 
-1.924241618234e-04 3.093279543707e-06 0.0 
3.093279543707e-06 1.043759700580e-02 0.0 
0.0 0.0 0.0 
-1.094231526342e-04 2.944869704196e-06 0.0 
2.944869704196e-06 1.079808004767e-02 0.0 
0.0 0.0 0.0 
-1.622867864451e-03 2.379271454439e-03 0.0 
2.379271454439e-03 -2.333003737936e-03 0.0 
0.0 0.0 0.0 
-8.518648034544e-04 2.704154563678e-04 0.0 
2.704154563678e-04 7.252525596446e-03 0.0 
0.0 0.0 0.0 
-1.455277130835e-03 2.621483687217e-03 0.0 
2.621483687217e-03 6.637006510358e-04 0.0 
0.0 0.0 0.0 
-1.313771584037e-03 2.360946882734e-03 0.0 
2.360946882734e-03 2.155834534273e-03 0.0 
0.0 0.0 0.0 
-1.390537676198e-03 1.671580531137e-03 0.0 
1.671580531137e-03 3.913513937268e-03 0.0 
0.0 0.0 0.0 
-9.921875408459e-04 9.401158818798e-04 0.0 
9.401158818798e-04 4.595358484510e-03 0.0 
0.0 0.0 0.0 
-8.950455302475e-04 7.550038843985e-04 0.0 
7.550038843985e-04 4.985432773369e-03 0.0 
0.0 0.0 0.0 
-8.765513174115e-04 5.977128291168e-04 0.0 
5.977128291168e-04 5.414434775552e-03 0.0 
0.0 0.0 0.0 
-8.764120766987e-04 4.645773572872e-04 0.0 
4.645773572872e-04 5.866894776937e-03 0.0 
0.0 0.0 0.0 
-8.765757287861e-04 3.648900867159e-04 0.0 
3.648900867159e-04 6.323979892787e-03 0.0 
0.0 0.0 0.0 
-8.671005826032e-04 3.032040804822e-04 0.0 
3.032040804822e-04 6.779761426318e-03 0.0 
0.0 0.0 0.0 
-4.745413922288e-04 -2.001798911421e-05 0.0 
-2.001798911421e-05 4.411121163534e-03 0.0 
0.0 0.0 0.0 
-4.454739645477e-04 -3.188601862494e-05 0.0 
-3.188601862494e-05 4.666326194421e-03 0.0 
0.0 0.0 0.0 
-4.470883925789e-04 -3.010696604799e-05 0.0 
-3.010696604799e-05 5.096665632096e-03 0.0 
0.0 0.0 0.0 
-4.634235624147e-04 -3.688120762190e-05 0.0 
-3.688120762190e-05 5.536878516110e-03 0.0 
0.0 0.0 0.0 
-4.830719917398e-04 -2.963019198512e-05 0.0 
-2.963019198512e-05 5.978348640241e-03 0.0 
0.0 0.0 0.0 
-5.001301257695e-04 -3.431247357763e-05 0.0 
-3.431247357763e-05 6.416969827274e-03 0.0 
0.0 0.0 0.0 
-5.118563630339e-04 -2.350424480063e-05 0.0 
-2.350424480063e-05 6.849315416830e-03 0.0 
0.0 0.0 0.0 
-5.199374068987e-04 7.300799917504e-06 0.0 
7.300799917504e-06 7.238804695536e-03 0.0 
0.0 0.0 0.0 
-5.225860871221e-04 -9.690310513876e-07 0.0 
-9.690310513876e-07 7.266219423273e-03 0.0 
0.0 0.0 0.0 
-5.326486514794e-04 -9.089366836342e-07 0.0 
-9.089366836342e-07 7.270926572509e-03 0.0 
0.0 0.0 0.0 
-5.436034848309e-04 -1.638911809473e-06 0.0 
-1.638911809473e-06 7.268391073800e-03 0.0 
0.0 0.0 0.0 
-5.551215193088e-04 6.386565430851e-06 0.0 
6.386565430851e-06 7.328152600511e-03 0.0 
0.0 0.0 0.0 
-5.724090668961e-04 7.203041783496e-06 0.0 
7.203041783496e-06 7.282077112910e-03 0.0 
0.0 0.0 0.0 
-5.909595924207e-04 1.127383787827e-05 0.0 
1.127383787827e-05 7.279922510234e-03 0.0 
0.0 0.0 0.0 
-6.115561300578e-04 2.263439845348e-05 0.0 
2.263439845348e-05 7.285996946032e-03 0.0 
0.0 0.0 0.0 
-6.418765499671e-04 3.469588645217e-05 0.0 
3.469588645217e-05 7.298296894857e-03 0.0 
0.0 0.0 0.0 
-6.713531750258e-04 5.333497055466e-05 0.0 
5.333497055466e-05 7.295612636961e-03 0.0 
0.0 0.0 0.0 
-6.999779429296e-04 7.663111525600e-05 0.0 
7.663111525600e-05 7.289565612087e-03 0.0 
0.0 0.0 0.0 
-7.336489360364e-04 1.070259352923e-04 0.0 
1.070259352923e-04 7.281398494498e-03 0.0 
0.0 0.0 0.0 
-7.671168985665e-04 1.499714767061e-04 0.0 
1.499714767061e-04 7.269493267541e-03 0.0 
0.0 0.0 0.0 
-8.032977742540e-04 2.037243740728e-04 0.0 
2.037243740728e-04 7.258667396696e-03 0.0 
0.0 0.0 0.0 
-2.263407405354e-03 1.142748911850e-03 0.0 
1.142748911850e-03 -3.469514708784e-03 0.0 
0.0 0.0 0.0 
-2.947997430209e-03 1.901971495261e-04 0.0 
1.901971495261e-04 -3.556527041092e-03 0.0 
0.0 0.0 0.0 
-3.199564019398e-03 -2.336658511214e-04 0.0 
-2.336658511214e-04 -3.458921401328e-03 0.0 
0.0 0.0 0.0 
-2.745625056210e-03 -8.915315952940e-04 0.0 
-8.915315952940e-04 -3.243826333075e-03 0.0 
0.0 0.0 0.0 
-1.807919649312e-03 -1.690865314145e-03 0.0 
-1.690865314145e-03 -1.704556745772e-03 0.0 
0.0 0.0 0.0 
-1.062162892672e-03 -1.146763287663e-03 0.0 
-1.146763287663e-03 -7.187461277462e-05 0.0 
0.0 0.0 0.0 
-3.803548685921e-04 -3.259286208810e-04 0.0 
-3.259286208810e-04 1.488908800433e-04 0.0 
0.0 0.0 0.0 
1.035086689151e-04 -8.294589797185e-05 0.0 
-8.294589797185e-05 5.483848712629e-05 0.0 
0.0 0.0 0.0 
3.738112091197e-04 -4.316142841991e-05 0.0 
-4.316142841991e-05 -2.429950986149e-05 0.0 
0.0 0.0 0.0 
4.244470301050e-04 -4.043390990492e-05 0.0 
-4.043390990492e-05 -5.296074589915e-05 0.0 
0.0 0.0 0.0 
4.621523299303e-04 -2.526817938084e-05 0.0 
-2.526817938084e-05 -6.288219993963e-05 0.0 
0.0 0.0 0.0 
5.201482274232e-04 -2.278358676191e-05 0.0 
-2.278358676191e-05 -8.497664303727e-05 0.0 
0.0 0.0 0.0 
5.710824756563e-04 -2.617433289074e-06 0.0 
-2.617433289074e-06 -1.164429595955e-04 0.0 
0.0 0.0 0.0 
6.189822903317e-04 -1.298805924010e-05 0.0 
-1.298805924010e-05 -1.415837223286e-04 0.0 
0.0 0.0 0.0 
6.077481153875e-04 -1.422233675901e-05 0.0 
-1.422233675901e-05 -1.399709091057e-04 0.0 
0.0 0.0 0.0 
6.028365391397e-04 -8.157065407021e-06 0.0 
-8.157065407021e-06 -1.367432462421e-04 0.0 
0.0 0.0 0.0 
6.056013562431e-04 -3.086851123622e-06 0.0 
-3.086851123622e-06 -1.386620477189e-04 0.0 
0.0 0.0 0.0 
6.299034324102e-04 5.665824699557e-06 0.0 
5.665824699557e-06 -1.585434370814e-04 0.0 
0.0 0.0 0.0 
6.585593619268e-04 2.080895560027e-05 0.0 
2.080895560027e-05 -1.766735614178e-04 0.0 
0.0 0.0 0.0 
-9.332105719055e-04 6.719054031980e-04 0.0 
6.719054031980e-04 4.400800527407e-03 0.0 
0.0 0.0 0.0 
-4.710617264857e-04 4.668394010193e-04 0.0 
4.668394010193e-04 4.312422264392e-03 0.0 
0.0 0.0 0.0 
-1.940912758771e-04 2.699133730520e-04 0.0 
2.699133730520e-04 4.271649740368e-03 0.0 
0.0 0.0 0.0 
-7.457103275118e-05 1.383574617865e-04 0.0 
1.383574617865e-04 4.251716970004e-03 0.0 
0.0 0.0 0.0 
-3.267995757709e-06 7.106654959100e-05 0.0 
7.106654959100e-05 4.242866432079e-03 0.0 
0.0 0.0 0.0 
2.189287804218e-05 2.465061449477e-05 0.0 
2.465061449477e-05 4.239246808533e-03 0.0 
0.0 0.0 0.0 
2.142956817597e-05 -4.084987366616e-06 0.0 
-4.084987366616e-06 4.246492044409e-03 0.0 
0.0 0.0 0.0 
3.382853533370e-06 -2.380951048318e-05 0.0 
-2.380951048318e-05 4.257622844782e-03 0.0 
0.0 0.0 0.0 
-2.458673184288e-05 -3.659566311535e-05 0.0 
-3.659566311535e-05 4.272282058742e-03 0.0 
0.0 0.0 0.0 
-5.880268307101e-05 -4.509914690657e-05 0.0 
-4.509914690657e-05 4.288541435345e-03 0.0 
0.0 0.0 0.0 
-9.598037541514e-05 -5.025173135581e-05 0.0 
-5.025173135581e-05 4.305733892236e-03 0.0 
0.0 0.0 0.0 
-1.341238242979e-04 -5.298722004752e-05 0.0 
-5.298722004752e-05 4.322953251822e-03 0.0 
0.0 0.0 0.0 
-1.716811047279e-04 -5.377973697575e-05 0.0 
-5.377973697575e-05 4.339738272230e-03 0.0 
0.0 0.0 0.0 
-2.076373459890e-04 -5.305556402414e-05 0.0 
-5.305556402414e-05 4.355672052497e-03 0.0 
0.0 0.0 0.0 
-2.412799437983e-04 -5.112987035936e-05 0.0 
-5.112987035936e-05 4.370452380800e-03 0.0 
0.0 0.0 0.0 
-2.721717368189e-04 -4.828189987603e-05 0.0 
-4.828189987603e-05 4.383856357694e-03 0.0 
0.0 0.0 0.0 
-3.000235116623e-04 -4.470908695906e-05 0.0 
-4.470908695906e-05 4.395759298438e-03 0.0 
0.0 0.0 0.0 
-3.246178049096e-04 -4.053426018568e-05 0.0 
-4.053426018568e-05 4.406089591786e-03 0.0 
0.0 0.0 0.0 
-3.457608049410e-04 -3.577441695715e-05 0.0 
-3.577441695715e-05 4.414820271102e-03 0.0 
0.0 0.0 0.0 
-3.632369835746e-04 -3.026957990752e-05 0.0 
-3.026957990752e-05 4.421997848837e-03 0.0 
0.0 0.0 0.0 
-3.767821240816e-04 -2.354390655675e-05 0.0 
-2.354390655675e-05 4.427813361347e-03 0.0 
0.0 0.0 0.0 
-3.860942314294e-04 -1.467250053563e-05 0.0 
-1.467250053563e-05 4.432607502557e-03 0.0 
0.0 0.0 0.0 
-3.914545415743e-04 -2.728762935248e-06 0.0 
-2.728762935248e-06 4.435607948291e-03 0.0 
0.0 0.0 0.0 
-4.099177415208e-04 8.912639352531e-06 0.0 
8.912639352531e-06 4.427246914578e-03 0.0 
0.0 0.0 0.0 
-4.432952256927e-04 2.766996847237e-05 0.0 
2.766996847237e-05 4.387542625154e-03 0.0 
0.0 0.0 0.0 
-4.384587679814e-04 1.135994854313e-05 0.0 
1.135994854313e-05 4.663993526983e-03 0.0 
0.0 0.0 0.0 
-4.200883522465e-04 -5.480714677672e-06 0.0 
-5.480714677672e-06 4.658710525934e-03 0.0 
0.0 0.0 0.0 
-4.114338436197e-04 -1.909656918270e-05 0.0 
-1.909656918270e-05 4.655070220699e-03 0.0 
0.0 0.0 0.0 
-4.031021310912e-04 -2.917315886434e-05 0.0 
-2.917315886434e-05 4.650644787627e-03 0.0 
0.0 0.0 0.0 
-3.935380227263e-04 -3.818691924159e-05 0.0 
-3.818691924159e-05 4.646025845818e-03 0.0 
0.0 0.0 0.0 
-3.819618982163e-04 -4.636010371037e-05 0.0 
-4.636010371037e-05 4.640754590523e-03 0.0 
0.0 0.0 0.0 
-3.680950849765e-04 -5.387445848385e-05 0.0 
-5.387445848385e-05 4.634480461047e-03 0.0 
0.0 0.0 0.0 
-3.519341699304e-04 -6.077672274220e-05 0.0 
-6.077672274220e-05 4.627061811929e-03 0.0 
0.0 0.0 0.0 
-3.336521755826e-04 -6.699014414864e-05 0.0 
-6.699014414864e-05 4.618502803627e-03 0.0 
0.0 0.0 0.0 
-3.135249530942e-04 -7.233414296189e-05 0.0 
-7.233414296189e-05 4.608874996232e-03 0.0 
0.0 0.0 0.0 
-2.919396210494e-04 -7.652811064632e-05 0.0 
-7.652811064632e-05 4.598307145083e-03 0.0 
0.0 0.0 0.0 
-2.694297752890e-04 -7.916418305032e-05 0.0 
-7.916418305032e-05 4.586993048491e-03 0.0 
0.0 0.0 0.0 
-2.467948896491e-04 -7.966008694303e-05 0.0 
-7.966008694303e-05 4.575273390249e-03 0.0 
0.0 0.0 0.0 
-2.252019681980e-04 -7.736614576509e-05 0.0 
-7.736614576509e-05 4.563548371164e-03 0.0 
0.0 0.0 0.0 
-2.061857290113e-04 -7.131713702899e-05 0.0 
-7.131713702899e-05 4.552337487498e-03 0.0 
0.0 0.0 0.0 
-1.918498490058e-04 -6.042003170357e-05 0.0 
-6.042003170357e-05 4.542127972904e-03 0.0 
0.0 0.0 0.0 
-1.850072111583e-04 -4.249121809414e-05 0.0 
-4.249121809414e-05 4.533978211871e-03 0.0 
0.0 0.0 0.0 
-1.897789984099e-04 -1.548244883283e-05 0.0 
-1.548244883283e-05 4.528265879882e-03 0.0 
0.0 0.0 0.0 
-2.109297786771e-04 2.627553680738e-05 0.0 
2.627553680738e-05 4.526915463238e-03 0.0 
0.0 0.0 0.0 
-2.570847143466e-04 8.772898291311e-05 0.0 
8.772898291311e-05 4.528783439097e-03 0.0 
0.0 0.0 0.0 
-3.326606967173e-04 1.858257341012e-04 0.0 
1.858257341012e-04 4.537803779722e-03 0.0 
0.0 0.0 0.0 
-4.928117130070e-04 3.597953106223e-04 0.0 
3.597953106223e-04 4.572671443321e-03 0.0 
0.0 0.0 0.0 
-6.317460015010e-04 5.183182357378e-04 0.0 
5.183182357378e-04 4.537376407834e-03 0.0 
0.0 0.0 0.0 
-7.116142403261e-04 4.742989096867e-04 0.0 
4.742989096867e-04 4.978374290229e-03 0.0 
0.0 0.0 0.0 
-6.350716635063e-04 3.339648358544e-04 0.0 
3.339648358544e-04 5.042969966078e-03 0.0 
0.0 0.0 0.0 
-5.339899013284e-04 1.799765215293e-04 0.0 
1.799765215293e-04 5.035663059801e-03 0.0 
0.0 0.0 0.0 
-4.755278206882e-04 8.625008806694e-05 0.0 
8.625008806694e-05 5.037890304589e-03 0.0 
0.0 0.0 0.0 
-4.320562945104e-04 2.365924538675e-05 0.0 
2.365924538675e-05 5.040644837582e-03 0.0 
0.0 0.0 0.0 
-4.040266931795e-04 -2.019127275837e-05 0.0 
-2.019127275837e-05 5.041830059971e-03 0.0 
0.0 0.0 0.0 
-3.869194594299e-04 -4.952315072455e-05 0.0 
-4.952315072455e-05 5.045116209441e-03 0.0 
0.0 0.0 0.0 
-3.784228108665e-04 -6.871981609900e-05 0.0 
-6.871981609900e-05 5.048974125422e-03 0.0 
0.0 0.0 0.0 
-3.759637488844e-04 -8.026256815219e-05 0.0 
-8.026256815219e-05 5.053883112069e-03 0.0 
0.0 0.0 0.0 
-3.779365143300e-04 -8.609146035000e-05 0.0 
-8.609146035000e-05 5.059322480807e-03 0.0 
0.0 0.0 0.0 
-3.826577145956e-04 -8.750283378876e-05 0.0 
-8.750283378876e-05 5.064985048223e-03 0.0 
0.0 0.0 0.0 
-3.889729036593e-04 -8.570528318972e-05 0.0 
-8.570528318972e-05 5.070435533216e-03 0.0 
0.0 0.0 0.0 
-3.961315500818e-04 -8.158767444514e-05 0.0 
-8.158767444514e-05 5.075560694516e-03 0.0 
0.0 0.0 0.0 
-4.035668783568e-04 -7.571587168110e-05 0.0 
-7.571587168110e-05 5.080252675148e-03 0.0 
0.0 0.0 0.0 
-4.108204742104e-04 -6.849576328681e-05 0.0 
-6.849576328681e-05 5.084416935944e-03 0.0 
0.0 0.0 0.0 
-4.175669180791e-04 -6.022882118841e-05 0.0 
-6.022882118841e-05 5.088022429323e-03 0.0 
0.0 0.0 0.0 
-4.237011874994e-04 -5.121735473878e-05 0.0 
-5.121735473878e-05 5.091175780209e-03 0.0 
0.0 0.0 0.0 
-4.293877597571e-04 -4.173583647890e-05 0.0 
-4.173583647890e-05 5.094172737060e-03 0.0 
0.0 0.0 0.0 
-4.349435301999e-04 -3.223136820424e-05 0.0 
-3.223136820424e-05 5.097267829970e-03 0.0 
0.0 0.0 0.0 
-4.405956431844e-04 -2.361582275912e-05 0.0 
-2.361582275912e-05 5.100111474342e-03 0.0 
0.0 0.0 0.0 
-4.457790215982e-04 -1.710127655028e-05 0.0 
-1.710127655028e-05 5.100753247258e-03 0.0 
0.0 0.0 0.0 
-4.471709714492e-04 8.320937074072e-06 0.0 
8.320937074072e-06 5.098322383925e-03 0.0 
0.0 0.0 0.0 
-4.646023746525e-04 -1.607910783168e-06 0.0 
-1.607910783168e-06 5.538716899178e-03 0.0 
0.0 0.0 0.0 
-4.648971095629e-04 -2.294528824885e-05 0.0 
-2.294528824885e-05 5.540641938989e-03 0.0 
0.0 0.0 0.0 
-4.638400980658e-04 -3.471181117814e-05 0.0 
-3.471181117814e-05 5.540743579615e-03 0.0 
0.0 0.0 0.0 
-4.626759660110e-04 -4.398602382152e-05 0.0 
-4.398602382152e-05 5.539941650218e-03 0.0 
0.0 0.0 0.0 
-4.619588505637e-04 -5.353247440145e-05 0.0 
-5.353247440145e-05 5.539017362709e-03 0.0 
0.0 0.0 0.0 
-4.619033970221e-04 -6.298647975521e-05 0.0 
-6.298647975521e-05 5.538201905760e-03 0.0 
0.0 0.0 0.0 
-4.624855596096e-04 -7.191500999421e-05 0.0 
-7.191500999421e-05 5.537346426590e-03 0.0 
0.0 0.0 0.0 
-4.637126186695e-04 -7.971950608739e-05 0.0 
-7.971950608739e-05 5.536210366290e-03 0.0 
0.0 0.0 0.0 
-4.658310692318e-04 -8.576281641697e-05 0.0 
-8.576281641697e-05 5.534839404009e-03 0.0 
0.0 0.0 0.0 
-4.694382299674e-04 -8.945399749545e-05 0.0 
-8.945399749545e-05 5.533353912870e-03 0.0 
0.0 0.0 0.0 
-4.749788033952e-04 -9.014347395964e-05 0.0 
-9.014347395964e-05 5.531716450455e-03 0.0 
0.0 0.0 0.0 
-4.829595375845e-04 -8.680634063868e-05 0.0 
-8.680634063868e-05 5.529762937161e-03 0.0 
0.0 0.0 0.0 
-4.941297251683e-04 -7.782286686427e-05 0.0 
-7.782286686427e-05 5.527275343133e-03 0.0 
0.0 0.0 0.0 
-5.098574393596e-04 -6.097763387896e-05 0.0 
-6.097763387896e-05 5.524986483411e-03 0.0 
0.0 0.0 0.0 
-5.319149784063e-04 -3.478609126224e-05 0.0 
-3.478609126224e-05 5.522417299111e-03 0.0 
0.0 0.0 0.0 
-5.612775799120e-04 4.630652288823e-06 0.0 
4.630652288823e-06 5.519938789225e-03 0.0 
0.0 0.0 0.0 
-5.998975292174e-04 5.978619013148e-05 0.0 
5.978619013148e-05 5.513986343162e-03 0.0 
0.0 0.0 0.0 
-6.454834288348e-04 1.408587853234e-04 0.0 
1.408587853234e-04 5.505799045233e-03 0.0 
0.0 0.0 0.0 
-7.179020275178e-04 2.661575496256e-04 0.0 
2.661575496256e-04 5.505762008163e-03 0.0 
0.0 0.0 0.0 
-7.671324862712e-04 3.813507620065e-04 0.0 
3.813507620065e-04 5.423076004562e-03 0.0 
0.0 0.0 0.0 
-7.992106549893e-04 3.049315088550e-04 0.0 
3.049315088550e-04 5.869314496099e-03 0.0 
0.0 0.0 0.0 
-7.677869665304e-04 2.167144299588e-04 0.0 
2.167144299588e-04 5.961189527882e-03 0.0 
0.0 0.0 0.0 
-7.134710858155e-04 1.198603340367e-04 0.0 
1.198603340367e-04 5.965599080273e-03 0.0 
0.0 0.0 0.0 
-6.745531904096e-04 5.531704007348e-05 0.0 
5.531704007348e-05 5.975440740476e-03 0.0 
0.0 0.0 0.0 
-6.385214623347e-04 1.019515844271e-05 0.0 
1.019515844271e-05 5.982675263963e-03 0.0 
0.0 0.0 0.0 
-6.094013931698e-04 -2.271623857526e-05 0.0 
-2.271623857526e-05 5.986047582189e-03 0.0 
0.0 0.0 0.0 
-5.851254268989e-04 -4.416998161078e-05 0.0 
-4.416998161078e-05 5.989182869012e-03 0.0 
0.0 0.0 0.0 
-5.645575530497e-04 -5.723441657905e-05 0.0 
-5.723441657905e-05 5.990159907749e-03 0.0 
0.0 0.0 0.0 
-5.473517331756e-04 -6.429005874890e-05 0.0 
-6.429005874890e-05 5.990022149382e-03 0.0 
0.0 0.0 0.0 
-5.329106102075e-04 -6.698596779062e-05 0.0 
-6.698596779062e-05 5.989240855625e-03 0.0 
0.0 0.0 0.0 
-5.213043895469e-04 -6.634104952172e-05 0.0 
-6.634104952172e-05 5.988541792268e-03 0.0 
0.0 0.0 0.0 
-5.120105502451e-04 -6.264018684680e-05 0.0 
-6.264018684680e-05 5.987741071994e-03 0.0 
0.0 0.0 0.0 
-5.040032835990e-04 -5.695818194940e-05 0.0 
-5.695818194940e-05 5.986404669677e-03 0.0 
0.0 0.0 0.0 
-4.977492788665e-04 -5.021683162316e-05 0.0 
-5.021683162316e-05 5.985040605838e-03 0.0 
0.0 0.0 0.0 
-4.929134096080e-04 -4.288921002597e-05 0.0 
-4.288921002597e-05 5.983891469188e-03 0.0 
0.0 0.0 0.0 
-4.894967580052e-04 -3.524742920487e-05 0.0 
-3.524742920487e-05 5.982904089438e-03 0.0 
0.0 0.0 0.0 
-4.868488433114e-04 -2.760612833522e-05 0.0 
-2.760612833522e-05 5.981744624668e-03 0.0 
0.0 0.0 0.0 
-4.849366910888e-04 -1.994737137151e-05 0.0 
-1.994737137151e-05 5.980388171861e-03 0.0 
0.0 0.0 0.0 
-4.837646447475e-04 7.536720881657e-06 0.0 
7.536720881657e-06 5.979162736336e-03 0.0 
0.0 0.0 0.0 
-5.017069812836e-04 1.719795729276e-06 0.0 
1.719795729276e-06 6.418835512399e-03 0.0 
0.0 0.0 0.0 
-5.037735524879e-04 -1.807261108974e-05 0.0 
-1.807261108974e-05 6.419721461182e-03 0.0 
0.0 0.0 0.0 
-5.082920868651e-04 -2.698978702762e-05 0.0 
-2.698978702762e-05 6.421490256798e-03 0.0 
0.0 0.0 0.0 
-5.146744760678e-04 -3.309362431304e-05 0.0 
-3.309362431304e-05 6.423879763849e-03 0.0 
0.0 0.0 0.0 
-5.222813634213e-04 -3.803679992018e-05 0.0 
-3.803679992018e-05 6.426135209860e-03 0.0 
0.0 0.0 0.0 
-5.326405328454e-04 -4.247961485166e-05 0.0 
-4.247961485166e-05 6.429086603749e-03 0.0 
0.0 0.0 0.0 
-5.448580382144e-04 -4.536582021037e-05 0.0 
-4.536582021037e-05 6.432046018114e-03 0.0 
0.0 0.0 0.0 
-5.597997097276e-04 -4.727865864033e-05 0.0 
-4.727865864033e-05 6.434622355441e-03 0.0 
0.0 0.0 0.0 
-5.762558001470e-04 -4.524718357632e-05 0.0 
-4.524718357632e-05 6.435674232279e-03 0.0 
0.0 0.0 0.0 
-5.966373198561e-04 -3.903835705099e-05 0.0 
-3.903835705099e-05 6.437657414677e-03 0.0 
0.0 0.0 0.0 
-6.199702001165e-04 -2.872219358564e-05 0.0 
-2.872219358564e-05 6.438690085113e-03 0.0 
0.0 0.0 0.0 
-6.461919769628e-04 -1.187118883337e-05 0.0 
-1.187118883337e-05 6.437565414178e-03 0.0 
0.0 0.0 0.0 
-6.763864989124e-04 1.310423464889e-05 0.0 
1.310423464889e-05 6.434444828440e-03 0.0 
0.0 0.0 0.0 
-7.093552981315e-04 4.898743833313e-05 0.0 
4.898743833313e-05 6.425301324176e-03 0.0 
0.0 0.0 0.0 
-7.437414676839e-04 1.022324785268e-04 0.0 
1.022324785268e-04 6.415170032123e-03 0.0 
0.0 0.0 0.0 
-7.911809806724e-04 1.780544070798e-04 0.0 
1.780544070798e-04 6.415045781913e-03 0.0 
0.0 0.0 0.0 
-8.172513636063e-04 2.450532518897e-04 0.0 
2.450532518897e-04 6.322290004371e-03 0.0 
0.0 0.0 0.0 
-8.154454431195e-04 2.137220277141e-04 0.0 
2.137220277141e-04 6.767790821497e-03 0.0 
0.0 0.0 0.0 
-7.948232948844e-04 1.622426217620e-04 0.0 
1.622426217620e-04 6.859961641619e-03 0.0 
0.0 0.0 0.0 
-7.550429270083e-04 1.040132790492e-04 0.0 
1.040132790492e-04 6.862020694109e-03 0.0 
0.0 0.0 0.0 
-7.182834647803e-04 6.527416154813e-05 0.0 
6.527416154813e-05 6.869919782222e-03 0.0 
0.0 0.0 0.0 
-6.863367525879e-04 3.561819677128e-05 0.0 
3.561819677128e-05 6.875538181383e-03 0.0 
0.0 0.0 0.0 
-6.568263861786e-04 1.532462226268e-05 0.0 
1.532462226268e-05 6.877599322591e-03 0.0 
0.0 0.0 0.0 
-6.302648003123e-04 9.703219559515e-07 0.0 
9.703219559515e-07 6.875994291382e-03 0.0 
0.0 0.0 0.0 
-6.067020008146e-04 -1.003209009330e-05 0.0 
-1.003209009330e-05 6.874581281636e-03 0.0 
0.0 0.0 0.0 
-5.843476921940e-04 -1.440295295369e-05 0.0 
-1.440295295369e-05 6.872673630444e-03 0.0 
0.0 0.0 0.0 
-5.672265013502e-04 -1.826365893964e-05 0.0 
-1.826365893964e-05 6.868504810809e-03 0.0 
0.0 0.0 0.0 
-5.515438951831e-04 -1.838341793502e-05 0.0 
-1.838341793502e-05 6.865007048134e-03 0.0 
0.0 0.0 0.0 
-5.391228444926e-04 -1.909087952846e-05 0.0 
-1.909087952846e-05 6.861165677330e-03 0.0 
0.0 0.0 0.0 
-5.296513997845e-04 -1.637266621555e-05 0.0 
-1.637266621555e-05 6.859087091936e-03 0.0 
0.0 0.0 0.0 
-5.209851771551e-04 -1.398360807299e-05 0.0 
-1.398360807299e-05 6.854961235442e-03 0.0 
0.0 0.0 0.0 
-5.160635208533e-04 -1.353885930204e-05 0.0 
-1.353885930204e-05 6.855930261926e-03 0.0 
0.0 0.0 0.0 
-5.170577140130e-04 1.323375708208e-05 0.0 
1.323375708208e-05 6.857968235800e-03 0.0 
0.0 0.0 0.0 
-1.493904226755e-03 3.001977740726e-03 0.0 
3.001977740726e-03 -4.972983872000e-04 0.0 
0.0 0.0 0.0 
-1.335332322264e-03 2.484975476594e-03 0.0 
2.484975476594e-03 1.385688017582e-03 0.0 
0.0 0.0 0.0 
-1.409392980538e-03 2.216908300896e-03 0.0 
2.216908300896e-03 2.988350741385e-03 0.0 
0.0 0.0 0.0 
-1.243625298899e-03 1.166224178203e-03 0.0 
1.166224178203e-03 4.457986869532e-03 0.0 
0.0 0.0 0.0 
-9.542393544465e-04 9.054682605828e-04 0.0 
9.054682605828e-04 4.810730340479e-03 0.0 
0.0 0.0 0.0 
-8.944167462969e-04 7.059549381102e-04 0.0 
7.059549381102e-04 5.239724605781e-03 0.0 
0.0 0.0 0.0 
-8.897811795003e-04 5.480594370559e-04 0.0 
5.480594370559e-04 5.685427040545e-03 0.0 
0.0 0.0 0.0 
-8.843948443605e-04 4.277687746522e-04 0.0 
4.277687746522e-04 6.138406966304e-03 0.0 
0.0 0.0 0.0 
-8.779189369389e-04 3.450638195455e-04 0.0 
3.450638195455e-04 6.593422828280e-03 0.0 
0.0 0.0 0.0 
-8.566942761491e-04 2.970027000122e-04 0.0 
2.970027000122e-04 7.045661792018e-03 0.0 
0.0 0.0 0.0 
-1.068079804479e-03 2.688299714473e-03 0.0 
2.688299714473e-03 1.483233198626e-03 0.0 
0.0 0.0 0.0 
2.431563915086e-04 8.557044601430e-04 0.0 
8.557044601430e-04 7.076893608054e-03 0.0 
0.0 0.0 0.0 
1.145763285807e-05 -1.791733783662e-04 0.0 
-1.791733783662e-04 2.202562315818e-04 0.0 
0.0 0.0 0.0 
-1.013330630601e-03 -1.675235589470e-03 0.0 
-1.675235589470e-03 -3.066131796551e-03 0.0 
0.0 0.0 0.0 
1.633425177994e-04 2.228261818405e-04 0.0 
2.228261818405e-04 6.986234578799e-03 0.0 
0.0 0.0 0.0 
-1.185556641756e-03 1.648303396032e-03 0.0 
1.648303396032e-03 4.379651015736e-03 0.0 
0.0 0.0 0.0 
-2.440645709133e-04 -7.693481019288e-05 0.0 
-7.693481019288e-05 4.107526973921e-03 0.0 
0.0 0.0 0.0 
1.847461810330e-04 1.392226800072e-03 0.0 
1.392226800072e-03 7.627198505894e-03 0.0 
0.0 0.0 0.0 
-9.869910641876e-04 9.135968648552e-04 0.0 
9.135968648552e-04 5.442576939808e-03 0.0 
0.0 0.0 0.0 
3.643527662711e-05 1.656385810793e-03 0.0 
1.656385810793e-03 8.539593568404e-03 0.0 
0.0 0.0 0.0 
-9.380952460081e-04 5.401097037155e-04 0.0 
5.401097037155e-04 6.418491758870e-03 0.0 
0.0 0.0 0.0 
5.743656699727e-05 -3.818142357199e-05 0.0 
-3.818142357199e-05 7.221073553622e-03 0.0 
0.0 0.0 0.0 
4.160021261372e-04 -3.448085204236e-05 0.0 
-3.448085204236e-05 6.628237979389e-05 0.0 
0.0 0.0 0.0 
-9.084454230113e-05 1.567358171695e-03 0.0 
1.567358171695e-03 9.448730537179e-03 0.0 
0.0 0.0 0.0 
-8.832090248407e-04 3.791968419199e-04 0.0 
3.791968419199e-04 7.363994651292e-03 0.0 
0.0 0.0 0.0 
-2.117462202362e-04 -6.538884003976e-05 0.0 
-6.538884003976e-05 2.600650963901e-03 0.0 
0.0 0.0 0.0 
-1.791662626764e-04 -5.873404546936e-05 0.0 
-5.873404546936e-05 5.125898129842e-03 0.0 
0.0 0.0 0.0 
-1.514742089272e-04 1.336241252421e-03 0.0 
1.336241252421e-03 9.965919372933e-03 0.0 
0.0 0.0 0.0 
-1.483887578668e-04 9.682137214012e-04 0.0 
9.682137214012e-04 1.045428088855e-02 0.0 
0.0 0.0 0.0 
-1.004831402246e-04 2.875485708427e-04 0.0 
2.875485708427e-04 1.083123499794e-02 0.0 
0.0 0.0 0.0 
-1.287558032987e-04 4.829439070734e-04 0.0 
4.829439070734e-04 1.073976125719e-02 0.0 
0.0 0.0 0.0 
-1.346812111245e-04 7.069453363982e-04 0.0 
7.069453363982e-04 1.065985809078e-02 0.0 
0.0 0.0 0.0 
-7.990862488968e-04 2.431198964763e-04 0.0 
2.431198964763e-04 7.630267336325e-03 0.0 
0.0 0.0 0.0 
-6.655533596545e-04 9.385990782996e-05 0.0 
9.385990782996e-05 7.680720011595e-03 0.0 
0.0 0.0 0.0 
-5.885859869553e-04 4.350795395176e-05 0.0 
4.350795395176e-05 7.706696129347e-03 0.0 
0.0 0.0 0.0 
-4.238387381429e-04 1.662979688363e-05 0.0 
1.662979688363e-05 9.136295378897e-03 0.0 
0.0 0.0 0.0 
-1.293084011977e-06 -8.048662159200e-05 0.0 
-8.048662159200e-05 7.342003294254e-03 0.0 
0.0 0.0 0.0 
-1.062881396724e-03 8.899801882363e-04 0.0 
8.899801882363e-04 -4.037708289510e-03 0.0 
0.0 0.0 0.0 
4.876143122685e-04 -1.462975034412e-05 0.0 
-1.462975034412e-05 5.015444061596e-05 0.0 
0.0 0.0 0.0 
-1.100656519285e-04 -3.076803128998e-05 0.0 
-3.076803128998e-05 6.357583728384e-03 0.0 
0.0 0.0 0.0 
-5.379086195844e-04 1.714826979794e-05 0.0 
1.714826979794e-05 7.647556364223e-03 0.0 
0.0 0.0 0.0 
6.830794741346e-05 -3.687603963410e-05 0.0 
-3.687603963410e-05 1.279554112359e-03 0.0 
0.0 0.0 0.0 
-1.785431549410e-04 1.135894175350e-03 0.0 
1.135894175350e-03 1.020252187421e-02 0.0 
0.0 0.0 0.0 
1.048470696709e-04 1.577042167095e-03 0.0 
1.577042167095e-03 8.103643398308e-03 0.0 
0.0 0.0 0.0 
-3.622280122854e-05 1.650864207996e-03 0.0 
1.650864207996e-03 9.016188340470e-03 0.0 
0.0 0.0 0.0 
2.422861168210e-04 1.163037884093e-03 0.0 
1.163037884093e-03 7.284648773464e-03 0.0 
0.0 0.0 0.0 
2.116670342509e-04 5.718284292928e-04 0.0 
5.718284292928e-04 6.986358414048e-03 0.0 
0.0 0.0 0.0 
-9.320482610343e-04 -1.156231109515e-03 0.0 
-1.156231109515e-03 1.923798305692e-04 0.0 
0.0 0.0 0.0 
-7.290558442665e-04 1.507297413140e-04 0.0 
1.507297413140e-04 7.653656674379e-03 0.0 
0.0 0.0 0.0 
1.225080493161e-04 5.282760522534e-05 0.0 
5.282760522534e-05 6.999828186929e-03 0.0 
0.0 0.0 0.0 
-3.140731482592e-04 2.809637666619e-05 0.0 
2.809637666619e-05 9.885571397653e-03 0.0 
0.0 0.0 0.0 
2.460687080778e-04 -5.999438853073e-05 0.0 
-5.999438853073e-05 1.490130604868e-04 0.0 
0.0 0.0 0.0 
-2.591717429504e-04 -7.955166044896e-05 0.0 
-7.955166044896e-05 3.350587333168e-03 0.0 
0.0 0.0 0.0 
-8.116417195581e-05 1.792484883339e-04 0.0 
1.792484883339e-04 1.090303793858e-02 0.0 
0.0 0.0 0.0 
-1.057173049077e-03 1.274965994144e-03 0.0 
1.274965994144e-03 4.960134574149e-03 0.0 
0.0 0.0 0.0 
-1.267235093402e-03 2.348318450581e-03 0.0 
2.348318450581e-03 3.203060638518e-03 0.0 
0.0 0.0 0.0 
-9.607398904172e-04 7.017025733872e-04 0.0 
7.017025733872e-04 5.938993840307e-03 0.0 
0.0 0.0 0.0 
-9.157931544011e-04 4.386706755197e-04 0.0 
4.386706755197e-04 6.891597884798e-03 0.0 
0.0 0.0 0.0 
-1.130469837747e-03 2.997368927886e-03 0.0 
2.997368927886e-03 -3.161824288712e-04 0.0 
0.0 0.0 0.0 
-4.910026674734e-04 1.072121032867e-05 0.0 
1.072121032867e-05 8.378416591751e-03 0.0 
0.0 0.0 0.0 
-2.344861732202e-05 -5.856387896827e-05 0.0 
-5.856387896827e-05 7.479092930786e-03 0.0 
0.0 0.0 0.0 
5.240971960997e-04 2.590003690760e-06 0.0 
2.590003690760e-06 1.415985669669e-05 0.0 
0.0 0.0 0.0 
-1.518472489068e-04 4.542996116178e-05 0.0 
4.542996116178e-05 1.059684906402e-02 0.0 
0.0 0.0 0.0 
-8.664009760044e-04 3.641474023936e-04 0.0 
3.641474023936e-04 7.576957753906e-03 0.0 
0.0 0.0 0.0 
-8.767714311190e-04 4.635688120258e-04 0.0 
4.635688120258e-04 7.687464483111e-03 0.0 
0.0 0.0 0.0 
-8.443045137902e-04 4.296593263211e-04 0.0 
4.296593263211e-04 7.914070605452e-03 0.0 
0.0 0.0 0.0 
-8.521150762865e-04 5.511051607721e-04 0.0 
5.511051607721e-04 8.020441978491e-03 0.0 
0.0 0.0 0.0 
-8.194912512244e-04 5.251080083467e-04 0.0 
5.251080083467e-04 8.267941813469e-03 0.0 
0.0 0.0 0.0 
-8.101572874672e-04 6.364372759963e-04 0.0 
6.364372759963e-04 8.347531545258e-03 0.0 
0.0 0.0 0.0 
-8.413704901122e-04 6.729550030880e-04 0.0 
6.729550030880e-04 8.090017336942e-03 0.0 
0.0 0.0 0.0 
-7.854107157942e-04 7.554569170654e-04 0.0 
7.554569170654e-04 8.405028753649e-03 0.0 
0.0 0.0 0.0 
-8.110513341487e-04 8.003723870364e-04 0.0 
8.003723870364e-04 8.129298437413e-03 0.0 
0.0 0.0 0.0 
-7.710919899658e-04 6.097316951215e-04 0.0 
6.097316951215e-04 8.599608611547e-03 0.0 
0.0 0.0 0.0 
-7.436049419000e-04 8.762832692531e-04 0.0 
8.762832692531e-04 8.436159526100e-03 0.0 
0.0 0.0 0.0 
-7.611794380109e-04 9.285112970061e-04 0.0 
9.285112970061e-04 8.140249838820e-03 0.0 
0.0 0.0 0.0 
-6.840663556932e-04 9.964626652605e-04 0.0 
9.964626652605e-04 8.440460504368e-03 0.0 
0.0 0.0 0.0 
-6.913576309584e-04 1.053768578737e-03 0.0 
1.053768578737e-03 8.123168279934e-03 0.0 
0.0 0.0 0.0 
-7.667006923507e-04 9.948193530310e-04 0.0 
9.948193530310e-04 7.830025696389e-03 0.0 
0.0 0.0 0.0 
-6.828537109248e-04 1.124897732446e-03 0.0 
1.124897732446e-03 7.787844286193e-03 0.0 
0.0 0.0 0.0 
-7.592089323963e-04 1.076488786212e-03 0.0 
1.076488786212e-03 7.503176120220e-03 0.0 
0.0 0.0 0.0 
-6.578312526496e-04 1.211155035043e-03 0.0 
1.211155035043e-03 7.431676716989e-03 0.0 
0.0 0.0 0.0 
-5.780276321600e-04 1.242368443106e-03 0.0 
1.242368443106e-03 7.718660584702e-03 0.0 
0.0 0.0 0.0 
-5.328554504142e-04 1.327826805404e-03 0.0 
1.327826805404e-03 7.330879511946e-03 0.0 
0.0 0.0 0.0 
-6.137950770043e-04 1.313499289094e-03 0.0 
1.313499289094e-03 7.050339872184e-03 0.0 
0.0 0.0 0.0 
-4.649669680281e-04 1.428129226268e-03 0.0 
1.428129226268e-03 6.914683157850e-03 0.0 
0.0 0.0 0.0 
-5.491333748823e-04 1.433020374973e-03 0.0 
1.433020374973e-03 6.640965834236e-03 0.0 
0.0 0.0 0.0 
-3.730917456928e-04 1.540819311771e-03 0.0 
1.540819311771e-03 6.466698602931e-03 0.0 
0.0 0.0 0.0 
-4.613928424765e-04 1.568513296747e-03 0.0 
1.568513296747e-03 6.196673497911e-03 0.0 
0.0 0.0 0.0 
-2.541948801444e-04 1.663780179770e-03 0.0 
1.663780179770e-03 5.980756715322e-03 0.0 
0.0 0.0 0.0 
-1.797255729392e-04 1.610033031855e-03 0.0 
1.610033031855e-03 6.276132675430e-03 0.0 
0.0 0.0 0.0 
-3.239454806425e-05 1.712129185980e-03 0.0 
1.712129185980e-03 5.753875157979e-03 0.0 
0.0 0.0 0.0 
-1.037588007458e-04 1.793263580206e-03 0.0 
1.793263580206e-03 5.451033662882e-03 0.0 
0.0 0.0 0.0 
1.466043710877e-04 1.810771608639e-03 0.0 
1.810771608639e-03 5.188383505277e-03 0.0 
0.0 0.0 0.0 
8.130912199233e-05 1.920733855363e-03 0.0 
1.920733855363e-03 4.870251610708e-03 0.0 
0.0 0.0 0.0 
3.588635320909e-04 1.896086204313e-03 0.0 
1.896086204313e-03 4.573891031810e-03 0.0 
0.0 0.0 0.0 
3.895366200615e-04 1.773175031300e-03 0.0 
1.773175031300e-03 4.942892224129e-03 0.0 
0.0 0.0 0.0 
6.166236425610e-04 1.809247788416e-03 0.0 
1.809247788416e-03 4.312796028847e-03 0.0 
0.0 0.0 0.0 
6.038744489723e-04 1.954051487063e-03 0.0 
1.954051487063e-03 3.905705722172e-03 0.0 
0.0 0.0 0.0 
8.686861337954e-04 1.807882265908e-03 0.0 
1.807882265908e-03 3.643364645218e-03 0.0 
0.0 0.0 0.0 
8.774643210762e-04 1.970159699066e-03 0.0 
1.970159699066e-03 3.188265453951e-03 0.0 
0.0 0.0 0.0 
1.140376014101e-03 1.755887830782e-03 0.0 
1.755887830782e-03 2.941167535415e-03 0.0 
0.0 0.0 0.0 
1.178115377473e-03 1.928041489067e-03 0.0 
1.928041489067e-03 2.425453858247e-03 0.0 
0.0 0.0 0.0 
1.423180458813e-03 1.635694063488e-03 0.0 
1.635694063488e-03 2.211727949471e-03 0.0 
0.0 0.0 0.0 
1.338978346988e-03 1.498514688035e-03 0.0 
1.498514688035e-03 2.783776127995e-03 0.0 
0.0 0.0 0.0 
1.586713070415e-03 1.313585696955e-03 0.0 
1.313585696955e-03 2.109230033797e-03 0.0 
0.0 0.0 0.0 
1.701157518787e-03 1.431223646768e-03 0.0 
1.431223646768e-03 1.473525223973e-03 0.0 
0.0 0.0 0.0 
1.811036732530e-03 1.048134676905e-03 0.0 
1.048134676905e-03 1.453125960277e-03 0.0 
0.0 0.0 0.0 
1.670451020745e-03 9.897813657304e-04 0.0 
9.897813657304e-04 2.116884281792e-03 0.0 
0.0 0.0 0.0 
1.832006771740e-03 6.883917701890e-04 0.0 
6.883917701890e-04 1.553884016656e-03 0.0 
0.0 0.0 0.0 
1.680477835571e-03 6.882370914161e-04 0.0 
6.882370914161e-04 2.223580089362e-03 0.0 
0.0 0.0 0.0 
1.778983188910e-03 3.739871312267e-04 0.0 
3.739871312267e-04 1.754685743664e-03 0.0 
0.0 0.0 0.0 
1.931369418354e-03 3.219196487270e-04 0.0 
3.219196487270e-04 1.066227388799e-03 0.0 
0.0 0.0 0.0 
1.809148592755e-03 1.607251619432e-05 0.0 
1.607251619432e-05 1.370992671719e-03 0.0 
0.0 0.0 0.0 
1.670585158873e-03 1.166458358431e-04 0.0 
1.166458358431e-04 2.028940778498e-03 0.0 
0.0 0.0 0.0 
1.643463569158e-03 -2.146391591374e-04 0.0 
-2.146391591374e-04 1.731915279382e-03 0.0 
0.0 0.0 0.0 
1.755829163523e-03 -3.674391311878e-04 0.0 
-3.674391311878e-04 1.092099597716e-03 0.0 
0.0 0.0 0.0 
1.540894260761e-03 -5.470169644448e-04 0.0 
-5.470169644448e-04 1.535082088883e-03 0.0 
0.0 0.0 0.0 
1.455467509065e-03 -3.727120783014e-04 0.0 
-3.727120783014e-04 2.125227329496e-03 0.0 
0.0 0.0 0.0 
1.321738717546e-03 -6.502392138270e-04 0.0 
-6.502392138270e-04 1.983750700011e-03 0.0 
0.0 0.0 0.0 
1.363774009228e-03 -8.554207643279e-04 0.0 
-8.554207643279e-04 1.439686954986e-03 0.0 
0.0 0.0 0.0 
1.130282089353e-03 -8.921724985963e-04 0.0 
-8.921724985963e-04 1.925537587561e-03 0.0 
0.0 0.0 0.0 
1.111731193064e-03 -6.924501188882e-04 0.0 
-6.924501188882e-04 2.424620723131e-03 0.0 
0.0 0.0 0.0 
9.197986160434e-04 -8.769356654255e-04 0.0 
-8.769356654255e-04 2.380357225783e-03 0.0 
0.0 0.0 0.0 
8.934457018476e-04 -1.078042237448e-03 0.0 
-1.078042237448e-03 1.936246959729e-03 0.0 
0.0 0.0 0.0 
6.988897579223e-04 -1.006585781039e-03 0.0 
-1.006585781039e-03 2.385467194646e-03 0.0 
0.0 0.0 0.0 
7.347577753176e-04 -8.272121344053e-04 0.0 
-8.272121344053e-04 2.803525817908e-03 0.0 
0.0 0.0 0.0 
5.348183670179e-04 -9.139405898402e-04 0.0 
-9.139405898402e-04 2.792862255909e-03 0.0 
0.0 0.0 0.0 
5.731885892588e-04 -7.563251046651e-04 0.0 
-7.563251046651e-04 3.195072343473e-03 0.0 
0.0 0.0 0.0 
4.661469478430e-04 -1.072962427660e-03 0.0 
-1.072962427660e-03 2.418115412866e-03 0.0 
0.0 0.0 0.0 
3.342133148770e-04 -9.465740461652e-04 0.0 
-9.465740461652e-04 2.796977767188e-03 0.0 
0.0 0.0 0.0 
2.419717398856e-04 -1.073543217095e-03 0.0 
-1.073543217095e-03 2.458483421161e-03 0.0 
0.0 0.0 0.0 
1.479669127558e-04 -9.260186839605e-04 0.0 
-9.260186839605e-04 2.799835047779e-03 0.0 
0.0 0.0 0.0 
6.104826133552e-04 1.686945544386e-03 0.0 
1.686945544386e-03 4.732743873645e-03 0.0 
0.0 0.0 0.0 
4.780104593581e-05 -1.011921672552e-03 0.0 
-1.011921672552e-03 2.485044232375e-03 0.0 
0.0 0.0 0.0 
1.206643040745e-04 -1.180795503206e-03 0.0 
-1.180795503206e-03 2.155292707821e-03 0.0 
0.0 0.0 0.0 
-8.759884296235e-06 -8.590259559301e-04 0.0 
-8.590259559301e-04 2.784345406040e-03 0.0 
0.0 0.0 0.0 
7.092359047743e-05 -7.883099322074e-04 0.0 
-7.883099322074e-04 3.111542475528e-03 0.0 
0.0 0.0 0.0 
-1.016234881716e-04 -9.020315445081e-04 0.0 
-9.020315445081e-04 2.477793663565e-03 0.0 
0.0 0.0 0.0 
-1.266446664608e-04 -7.575736704582e-04 0.0 
-7.575736704582e-04 2.738216488340e-03 0.0 
0.0 0.0 0.0 
-1.984914585343e-04 -7.618621101321e-04 0.0 
-7.618621101321e-04 2.427140286625e-03 0.0 
0.0 0.0 0.0 
8.622426239846e-04 2.164591075631e-03 0.0 
2.164591075631e-03 2.736536697282e-03 0.0 
0.0 0.0 0.0 
-4.557967683541e-04 1.341649099836e-03 0.0 
1.341649099836e-03 7.627198469016e-03 0.0 
0.0 0.0 0.0 
-2.011206557744e-04 -6.342026479919e-04 0.0 
-6.342026479919e-04 2.654343548304e-03 0.0 
0.0 0.0 0.0 
-2.413947682231e-04 -6.085103750951e-04 0.0 
-6.085103750951e-04 2.326527267803e-03 0.0 
0.0 0.0 0.0 
-2.611638788315e-04 -7.253245215621e-04 0.0 
-7.253245215621e-04 2.120494453767e-03 0.0 
0.0 0.0 0.0 
-2.571029596210e-04 -5.458494209186e-04 0.0 
-5.458494209186e-04 1.990294241507e-03 0.0 
0.0 0.0 0.0 
-7.792322779116e-04 5.054427800233e-04 0.0 
5.054427800233e-04 8.505391185164e-03 0.0 
0.0 0.0 0.0 
-7.225234187242e-04 5.889058535081e-04 0.0 
5.889058535081e-04 8.846263220262e-03 0.0 
0.0 0.0 0.0 
-7.319500154088e-04 4.849677653493e-04 0.0 
4.849677653493e-04 8.734245854947e-03 0.0 
0.0 0.0 0.0 
-6.700046589767e-04 5.700931599354e-04 0.0 
5.700931599354e-04 9.086505242775e-03 0.0 
0.0 0.0 0.0 
-6.803902844682e-04 4.725831295905e-04 0.0 
4.725831295905e-04 8.972461099601e-03 0.0 
0.0 0.0 0.0 
-2.348898589733e-04 -4.599284351093e-04 0.0 
-4.599284351093e-04 2.176244822558e-03 0.0 
0.0 0.0 0.0 
-6.611648405794e-04 9.519517779602e-04 0.0 
9.519517779602e-04 8.743716144503e-03 0.0 
0.0 0.0 0.0 
-6.495253608879e-04 6.727360862899e-04 0.0 
6.727360862899e-04 9.181006203285e-03 0.0 
0.0 0.0 0.0 
-6.984843144873e-04 1.291696859025e-03 0.0 
1.291696859025e-03 6.787857206878e-03 0.0 
0.0 0.0 0.0 
-1.965329042825e-04 1.877067514256e-03 0.0 
1.877067514256e-03 5.178352721292e-03 0.0 
0.0 0.0 0.0 
1.530615534792e-03 9.486007701578e-04 0.0 
9.486007701578e-04 2.753194673342e-03 0.0 
0.0 0.0 0.0 
-1.503587686212e-04 -6.280680905967e-04 0.0 
-6.280680905967e-04 2.983174630160e-03 0.0 
0.0 0.0 0.0 
-2.085099608427e-04 -5.201545671581e-04 0.0 
-5.201545671581e-04 2.873478657537e-03 0.0 
0.0 0.0 0.0 
-1.733592983535e-04 -5.118684162355e-04 0.0 
-5.118684162355e-04 3.214941345776e-03 0.0 
0.0 0.0 0.0 
7.425784492027e-04 -6.568981772882e-04 0.0 
-6.568981772882e-04 3.244850265991e-03 0.0 
0.0 0.0 0.0 
5.851344059979e-04 -6.045091721419e-04 0.0 
-6.045091721419e-04 3.619651426354e-03 0.0 
0.0 0.0 0.0 
7.253587286310e-04 -4.985012533238e-04 0.0 
-4.985012533238e-04 3.703934229593e-03 0.0 
0.0 0.0 0.0 
5.735509835638e-04 -4.620564163853e-04 0.0 
-4.620564163853e-04 4.062371769048e-03 0.0 
0.0 0.0 0.0 
6.861747564824e-04 -3.543367088148e-04 0.0 
-3.543367088148e-04 4.176818823109e-03 0.0 
0.0 0.0 0.0 
5.413232386044e-04 -3.319163332413e-04 0.0 
-3.319163332413e-04 4.520009934338e-03 0.0 
0.0 0.0 0.0 
4.375845945274e-04 -4.153403327511e-04 0.0 
-4.153403327511e-04 4.402714538042e-03 0.0 
0.0 0.0 0.0 
4.106567069958e-04 -3.007082208050e-04 0.0 
-3.007082208050e-04 4.848810820959e-03 0.0 
0.0 0.0 0.0 
3.175205509728e-04 -3.635276009720e-04 0.0 
-3.635276009720e-04 4.724927747850e-03 0.0 
0.0 0.0 0.0 
6.277111558642e-04 -2.258940259470e-04 0.0 
-2.258940259470e-04 4.660848684326e-03 0.0 
0.0 0.0 0.0 
7.760791656144e-04 -2.233439082039e-04 0.0 
-2.233439082039e-04 4.321898738636e-03 0.0 
0.0 0.0 0.0 
2.953138679643e-04 -2.648960912520e-04 0.0 
-2.648960912520e-04 5.161879474536e-03 0.0 
0.0 0.0 0.0 
2.132571998236e-04 -3.101041112998e-04 0.0 
-3.101041112998e-04 5.029551248119e-03 0.0 
0.0 0.0 0.0 
1.960024721062e-04 -2.269879786181e-04 0.0 
-2.269879786181e-04 5.459422570453e-03 0.0 
0.0 0.0 0.0 
1.248933863907e-04 -2.579360217249e-04 0.0 
-2.579360217249e-04 5.317079048248e-03 0.0 
0.0 0.0 0.0 
1.264622776353e-04 -3.354232178817e-04 0.0 
-3.354232178817e-04 4.903549999146e-03 0.0 
0.0 0.0 0.0 
5.123445881761e-05 -2.715991356389e-04 0.0 
-2.715991356389e-04 5.177228984933e-03 0.0 
0.0 0.0 0.0 
4.081539838191e-05 -3.407307195927e-04 0.0 
-3.407307195927e-04 4.779632985361e-03 0.0 
0.0 0.0 0.0 
1.531665714685e-03 6.954881123644e-04 0.0 
6.954881123644e-04 2.863611205744e-03 0.0 
0.0 0.0 0.0 
1.391216128262e-03 9.227107210356e-04 0.0 
9.227107210356e-04 3.367246809857e-03 0.0 
0.0 0.0 0.0 
1.384332029498e-03 7.096090657905e-04 0.0 
7.096090657905e-04 3.479339562884e-03 0.0 
0.0 0.0 0.0 
1.250886330991e-03 9.094424684540e-04 0.0 
9.094424684540e-04 3.961401322922e-03 0.0 
0.0 0.0 0.0 
1.235384987033e-03 7.298148879112e-04 0.0 
7.298148879112e-04 4.076478965157e-03 0.0 
0.0 0.0 0.0 
1.106456685898e-03 9.079030523037e-04 0.0 
9.079030523037e-04 4.541081369347e-03 0.0 
0.0 0.0 0.0 
1.080734298583e-03 7.564967048793e-04 0.0 
7.564967048793e-04 4.659123494019e-03 0.0 
0.0 0.0 0.0 
1.181010006643e-03 5.716974787287e-04 0.0 
5.716974787287e-04 4.243361693887e-03 0.0 
0.0 0.0 0.0 
-6.081975969943e-04 1.112786181023e-03 0.0 
1.112786181023e-03 8.417581289674e-03 0.0 
0.0 0.0 0.0 
1.952293652653e-03 1.127159318789e-03 0.0 
1.127159318789e-03 7.563251353716e-04 0.0 
0.0 0.0 0.0 
1.806747478784e-03 1.578939455818e-03 0.0 
1.578939455818e-03 8.140800696453e-04 0.0 
0.0 0.0 0.0 
2.090533150457e-03 1.233195398699e-03 0.0 
1.233195398699e-03 2.063059846084e-05 0.0 
0.0 0.0 0.0 
1.894254837781e-03 1.765288037406e-03 0.0 
1.765288037406e-03 1.324569640604e-04 0.0 
0.0 0.0 0.0 
2.217407889485e-03 1.377184969077e-03 0.0 
1.377184969077e-03 -7.579257821090e-04 0.0 
0.0 0.0 0.0 
1.945927307657e-03 1.999821552664e-03 0.0 
1.999821552664e-03 -5.629887888204e-04 0.0 
0.0 0.0 0.0 
2.317076376861e-03 1.572906894750e-03 0.0 
1.572906894750e-03 -1.580266989965e-03 0.0 
0.0 0.0 0.0 
2.473164583654e-03 8.181982998461e-04 0.0 
8.181982998461e-04 -1.582575986605e-03 0.0 
0.0 0.0 0.0 
2.615324943920e-03 9.216992796260e-04 0.0 
9.216992796260e-04 -2.535742542629e-03 0.0 
0.0 0.0 0.0 
2.591730233865e-03 8.123454472549e-05 0.0 
8.123454472549e-05 -2.240277341561e-03 0.0 
0.0 0.0 0.0 
2.726171943481e-03 4.072066486689e-05 0.0 
4.072066486689e-05 -3.230255264635e-03 0.0 
0.0 0.0 0.0 
2.495498549371e-03 -7.745093207505e-04 0.0 
-7.745093207505e-04 -2.623927284320e-03 0.0 
0.0 0.0 0.0 
2.035173687383e-05 1.639906518114e-03 0.0 
1.639906518114e-03 6.081433896811e-03 0.0 
0.0 0.0 0.0 
1.092815171223e-03 1.072890839647e-03 0.0 
1.072890839647e-03 4.473068412660e-03 0.0 
0.0 0.0 0.0 
9.569724063708e-04 1.058737993706e-03 0.0 
1.058737993706e-03 5.033199894896e-03 0.0 
0.0 0.0 0.0 
9.226185961203e-04 1.202542097112e-03 0.0 
1.202542097112e-03 4.997874798145e-03 0.0 
0.0 0.0 0.0 
-2.938211653624e-04 -6.403419935673e-04 0.0 
-6.403419935673e-04 1.804561919280e-03 0.0 
0.0 0.0 0.0 
5.237703967124e-05 -2.087757399103e-04 0.0 
-2.087757399103e-04 5.587910675340e-03 0.0 
0.0 0.0 0.0 
6.904687028801e-04 -1.021295575516e-04 0.0 
-1.021295575516e-04 4.831699175406e-03 0.0 
0.0 0.0 0.0 
8.368245584937e-04 -7.544577534085e-05 0.0 
-7.544577534085e-05 4.502250511175e-03 0.0 
0.0 0.0 0.0 
1.020725385710e-03 6.230650392687e-04 0.0 
6.230650392687e-04 4.826530493356e-03 0.0 
0.0 0.0 0.0 
-2.048074934201e-04 -3.879055402004e-04 0.0 
-3.879055402004e-04 1.809201057083e-03 0.0 
0.0 0.0 0.0 
1.925696194949e-03 2.280345682909e-03 0.0 
2.280345682909e-03 -1.249863253502e-03 0.0 
0.0 0.0 0.0 
1.500280575700e-03 2.541384870469e-03 0.0 
2.541384870469e-03 -1.138054945148e-04 0.0 
0.0 0.0 0.0 
-6.107092826523e-04 5.522883267127e-04 0.0 
5.522883267127e-04 9.318954184944e-03 0.0 
0.0 0.0 0.0 
-6.228347834225e-04 4.610279670729e-04 0.0 
4.610279670729e-04 9.198841925741e-03 0.0 
0.0 0.0 0.0 
7.246304229731e-04 3.512668755342e-05 0.0 
3.512668755342e-05 5.036603791971e-03 0.0 
0.0 0.0 0.0 
-1.886583941719e-04 -3.264332989742e-04 0.0 
-3.264332989742e-04 1.987395518442e-03 0.0 
0.0 0.0 0.0 
3.666247903680e-04 -2.003879655004e-04 0.0 
-2.003879655004e-04 5.307715566623e-03 0.0 
0.0 0.0 0.0 
2.630780471619e-03 1.018193158175e-03 0.0 
1.018193158175e-03 -3.388020263234e-03 0.0 
0.0 0.0 0.0 
-9.143161409875e-06 -2.123948284514e-04 0.0 
-2.123948284514e-04 5.434063974509e-03 0.0 
0.0 0.0 0.0 
-4.748141794482e-06 -1.631345033217e-04 0.0 
-1.631345033217e-04 5.841232021560e-03 0.0 
0.0 0.0 0.0 
3.235979064315e-04 -4.724769718107e-04 0.0 
-4.724769718107e-04 4.302267900118e-03 0.0 
0.0 0.0 0.0 
7.972079864889e-04 1.183565754058e-03 0.0 
1.183565754058e-03 5.539621651046e-03 0.0 
0.0 0.0 0.0 
7.490200554656e-04 1.300953526903e-03 0.0 
1.300953526903e-03 5.525574173746e-03 0.0 
0.0 0.0 0.0 
2.358949703257e-03 -5.743718424844e-04 0.0 
-5.743718424844e-04 -1.681955187212e-03 0.0 
0.0 0.0 0.0 
2.079016957638e-03 -1.327218047328e-03 0.0 
-1.327218047328e-03 -1.783095338916e-03 0.0 
0.0 0.0 0.0 
2.069936590017e-03 -1.589491544882e-03 0.0 
-1.589491544882e-03 -2.526828073823e-03 0.0 
0.0 0.0 0.0 
1.546359946715e-03 -1.950466858134e-03 0.0 
-1.950466858134e-03 -1.503718215783e-03 0.0 
0.0 0.0 0.0 
1.653874637849e-03 -1.591811378259e-03 0.0 
-1.591811378259e-03 -9.140911407792e-04 0.0 
0.0 0.0 0.0 
1.128874578856e-03 -2.006372624252e-03 0.0 
-2.006372624252e-03 -6.163481757421e-04 0.0 
0.0 0.0 0.0 
8.892618460638e-04 -2.278965630936e-03 0.0 
-2.278965630936e-03 -9.941352908143e-04 0.0 
0.0 0.0 0.0 
5.265461453009e-04 -2.188726245694e-03 0.0 
-2.188726245694e-03 -1.320200355329e-04 0.0 
0.0 0.0 0.0 
7.861701764528e-04 -1.922569493612e-03 0.0 
-1.922569493612e-03 1.721116245578e-04 0.0 
0.0 0.0 0.0 
2.754702764387e-04 -1.966361766299e-03 0.0 
-1.966361766299e-03 5.635105070603e-04 0.0 
0.0 0.0 0.0 
-5.479824521136e-05 -2.046443750903e-03 0.0 
-2.046443750903e-03 4.160808290459e-04 0.0 
0.0 0.0 0.0 
-1.640302269161e-04 -1.774743730903e-03 0.0 
-1.774743730903e-03 9.454428278695e-04 0.0 
0.0 0.0 0.0 
4.555660941256e-05 -1.551478207912e-04 0.0 
-1.551478207912e-04 6.007126785175e-03 0.0 
0.0 0.0 0.0 
2.617795054811e-03 4.269635205942e-05 0.0 
4.269635205942e-05 -3.905969903092e-03 0.0 
0.0 0.0 0.0 
-8.342998315164e-04 9.305533434389e-04 0.0 
9.305533434389e-04 7.541988072443e-03 0.0 
0.0 0.0 0.0 
5.880986021517e-04 1.095683550573e-06 0.0 
1.095683550573e-06 5.347489281744e-03 0.0 
0.0 0.0 0.0 
9.158557810780e-04 7.922655607857e-04 0.0 
7.922655607857e-04 5.230225475149e-03 0.0 
0.0 0.0 0.0 
-5.459836790029e-04 5.355887133859e-04 0.0 
5.355887133859e-04 9.546020826041e-03 0.0 
0.0 0.0 0.0 
-5.612513913666e-04 4.491753356229e-04 0.0 
4.491753356229e-04 9.420546477372e-03 0.0 
0.0 0.0 0.0 
-6.264249382112e-04 3.783080788521e-04 0.0 
3.783080788521e-04 9.061519397499e-03 0.0 
0.0 0.0 0.0 
-5.695029796497e-04 3.701995862888e-04 0.0 
3.701995862888e-04 9.281466232765e-03 0.0 
0.0 0.0 0.0 
-4.959044504645e-04 4.352638388014e-04 0.0 
4.352638388014e-04 9.638002643069e-03 0.0 
0.0 0.0 0.0 
-5.092773337034e-04 3.596722070782e-04 0.0 
3.596722070782e-04 9.496863940324e-03 0.0 
0.0 0.0 0.0 
-5.722582095729e-04 2.988934614246e-04 0.0 
2.988934614246e-04 9.130666893100e-03 0.0 
0.0 0.0 0.0 
-5.170048143386e-04 2.914761640459e-04 0.0 
2.914761640459e-04 9.344742296833e-03 0.0 
0.0 0.0 0.0 
-5.698977333611e-04 2.356537631194e-04 0.0 
2.356537631194e-04 8.969473946919e-03 0.0 
0.0 0.0 0.0 
-5.205002492434e-04 2.313107284032e-04 0.0 
2.313107284032e-04 9.183631439399e-03 0.0 
0.0 0.0 0.0 
-4.597703477925e-04 2.810759090754e-04 0.0 
2.810759090754e-04 9.556115833989e-03 0.0 
0.0 0.0 0.0 
-4.691225512455e-04 2.230047761313e-04 0.0 
2.230047761313e-04 9.395353268232e-03 0.0 
0.0 0.0 0.0 
-5.216059196146e-04 1.791053853854e-04 0.0 
1.791053853854e-04 9.015477062057e-03 0.0 
0.0 0.0 0.0 
-4.759190927212e-04 1.720447006774e-04 0.0 
1.720447006774e-04 9.227946314572e-03 0.0 
0.0 0.0 0.0 
-5.210263237539e-04 1.340493404460e-04 0.0 
1.340493404460e-04 8.840821315341e-03 0.0 
0.0 0.0 0.0 
-4.803796109882e-04 1.279624544734e-04 0.0 
1.279624544734e-04 9.052968241189e-03 0.0 
0.0 0.0 0.0 
-4.285578803815e-04 1.619177313200e-04 0.0 
1.619177313200e-04 9.438320274798e-03 0.0 
0.0 0.0 0.0 
-1.152663566679e-04 -2.627664330562e-04 0.0 
-2.627664330562e-04 1.597011991101e-03 0.0 
0.0 0.0 0.0 
1.094654853872e-03 4.389706761254e-04 0.0 
4.389706761254e-04 4.453088286042e-03 0.0 
0.0 0.0 0.0 
9.295215151736e-04 5.104813089448e-04 0.0 
5.104813089448e-04 5.036503364008e-03 0.0 
0.0 0.0 0.0 
-2.193703354348e-04 -4.207268028498e-04 0.0 
-4.207268028498e-04 3.091245047874e-03 0.0 
0.0 0.0 0.0 
-1.930479059782e-04 -4.078345364300e-04 0.0 
-4.078345364300e-04 3.432846496805e-03 0.0 
0.0 0.0 0.0 
-1.338574436977e-04 -4.813721672751e-04 0.0 
-4.813721672751e-04 3.562479814252e-03 0.0 
0.0 0.0 0.0 
-1.643923298987e-04 -3.776803288369e-04 0.0 
-3.776803288369e-04 3.794305891374e-03 0.0 
0.0 0.0 0.0 
-4.397428712837e-04 1.185129172006e-04 0.0 
1.185129172006e-04 9.262832990594e-03 0.0 
0.0 0.0 0.0 
-3.816072082324e-04 1.477129791701e-04 0.0 
1.477129791701e-04 9.647112328748e-03 0.0 
0.0 0.0 0.0 
1.346740342682e-03 2.831156483668e-03 0.0 
2.831156483668e-03 -6.067246586841e-04 0.0 
0.0 0.0 0.0 
9.241145260845e-04 2.916213143712e-03 0.0 
2.916213143712e-03 5.596336176271e-04 0.0 
0.0 0.0 0.0 
-5.219995489781e-04 6.290976191607e-04 0.0 
6.290976191607e-04 9.655630720206e-03 0.0 
0.0 0.0 0.0 
-5.566222393523e-05 -1.585452575780e-04 0.0 
-1.585452575780e-04 5.675222786944e-03 0.0 
0.0 0.0 0.0 
-6.836479473521e-05 -2.008234430585e-04 0.0 
-2.008234430585e-04 5.279602343830e-03 0.0 
0.0 0.0 0.0 
-1.060524781393e-05 2.036227510738e-03 0.0 
2.036227510738e-03 4.584911787861e-03 0.0 
0.0 0.0 0.0 
-3.123576141134e-04 1.954328879482e-03 0.0 
1.954328879482e-03 4.940465693736e-03 0.0 
0.0 0.0 0.0 
-1.324549164845e-04 2.149291866897e-03 0.0 
2.149291866897e-03 4.336817045758e-03 0.0 
0.0 0.0 0.0 
-4.536972877249e-04 2.015310479055e-03 0.0 
2.015310479055e-03 4.738726332323e-03 0.0 
0.0 0.0 0.0 
-5.781437716174e-04 1.797014717280e-03 0.0 
1.797014717280e-03 5.268972951870e-03 0.0 
0.0 0.0 0.0 
-2.917200038658e-04 2.254427024373e-03 0.0 
2.254427024373e-03 4.130322576032e-03 0.0 
0.0 0.0 0.0 
9.331316968311e-04 -2.039322417096e-04 0.0 
-2.039322417096e-04 3.972212402009e-03 0.0 
0.0 0.0 0.0 
-4.012011640811e-04 2.665982965415e-04 0.0 
2.665982965415e-04 9.764774672034e-03 0.0 
0.0 0.0 0.0 
-2.928156353614e-04 -8.565150683450e-04 0.0 
-8.565150683450e-04 1.909383347656e-03 0.0 
0.0 0.0 0.0 
-3.484287434489e-04 -7.438964947729e-04 0.0 
-7.438964947729e-04 1.620779520710e-03 0.0 
0.0 0.0 0.0 
-4.741678486122e-05 -1.218242881730e-04 0.0 
-1.218242881730e-04 6.079645442612e-03 0.0 
0.0 0.0 0.0 
1.246760632570e-03 3.664411278999e-04 0.0 
3.664411278999e-04 3.867387899483e-03 0.0 
0.0 0.0 0.0 
-1.210301939341e-04 1.562893335463e-03 0.0 
1.562893335463e-03 6.595505550471e-03 0.0 
0.0 0.0 0.0 
5.695630931988e-05 1.580707296235e-03 0.0 
1.580707296235e-03 6.430307151682e-03 0.0 
0.0 0.0 0.0 
-7.614783010840e-05 1.527334004616e-03 0.0 
1.527334004616e-03 6.935357202407e-03 0.0 
0.0 0.0 0.0 
7.936065474717e-05 1.538624800527e-03 0.0 
1.538624800527e-03 6.796712944113e-03 0.0 
0.0 0.0 0.0 
-4.329110989794e-05 1.507456800245e-03 0.0 
1.507456800245e-03 7.292994750496e-03 0.0 
0.0 0.0 0.0 
8.772684733170e-05 1.516892520977e-03 0.0 
1.516892520977e-03 7.178539212871e-03 0.0 
0.0 0.0 0.0 
2.215385632170e-04 1.523956192937e-03 0.0 
1.523956192937e-03 6.674972623442e-03 0.0 
0.0 0.0 0.0 
6.387491155349e-04 1.286476932049e-03 0.0 
1.286476932049e-03 6.048550244706e-03 0.0 
0.0 0.0 0.0 
2.023455590156e-04 1.506108458124e-03 0.0 
1.506108458124e-03 7.086535918699e-03 0.0 
0.0 0.0 0.0 
-4.837249678905e-04 9.420041478892e-05 0.0 
9.420041478892e-05 8.867088351134e-03 0.0 
0.0 0.0 0.0 
1.038782573451e-03 1.243643491537e-03 0.0 
1.243643491537e-03 4.452468061217e-03 0.0 
0.0 0.0 0.0 
5.337943693891e-04 -1.750220895611e-03 0.0 
-1.750220895611e-03 8.224181452015e-04 0.0 
0.0 0.0 0.0 
-1.320831656925e-04 -2.952328420200e-04 0.0 
-2.952328420200e-04 1.423251805447e-03 0.0 
0.0 0.0 0.0 
-4.400043638714e-04 -1.641039348130e-03 0.0 
-1.641039348130e-03 8.501721935800e-04 0.0 
0.0 0.0 0.0 
-1.170934562331e-04 -2.155125587216e-04 0.0 
-2.155125587216e-04 1.760484918676e-03 0.0 
0.0 0.0 0.0 
-1.872754159260e-04 -2.645580775499e-04 0.0 
-2.645580775499e-04 2.167893655334e-03 0.0 
0.0 0.0 0.0 
5.958622320012e-04 1.286194866531e-04 0.0 
1.286194866531e-04 5.573608284833e-03 0.0 
0.0 0.0 0.0 
-2.230005582682e-05 1.508218678966e-03 0.0 
1.508218678966e-03 7.666618323522e-03 0.0 
0.0 0.0 0.0 
-1.394180924467e-04 1.477339472421e-03 0.0 
1.477339472421e-03 7.759887245090e-03 0.0 
0.0 0.0 0.0 
-7.166520213320e-04 1.794977853861e-03 0.0 
1.794977853861e-03 5.096727029733e-03 0.0 
0.0 0.0 0.0 
-7.885447065239e-04 1.567022741140e-03 0.0 
1.567022741140e-03 5.550859444537e-03 0.0 
0.0 0.0 0.0 
6.622729400036e-04 1.185115963997e-03 0.0 
1.185115963997e-03 6.075708269133e-03 0.0 
0.0 0.0 0.0 
-7.275673635000e-04 3.949483669197e-04 0.0 
3.949483669197e-04 8.612947818862e-03 0.0 
0.0 0.0 0.0 
-6.173123126338e-04 2.372139563964e-04 0.0 
2.372139563964e-04 8.753630275978e-03 0.0 
0.0 0.0 0.0 
-6.045680158451e-04 1.803992795162e-04 0.0 
1.803992795162e-04 8.581525471115e-03 0.0 
0.0 0.0 0.0 
4.806570179015e-06 -1.594827498252e-04 0.0 
-1.594827498252e-04 1.289173378080e-03 0.0 
0.0 0.0 0.0 
-3.686661770628e-04 -1.923019902721e-03 0.0 
-1.923019902721e-03 4.035163830703e-04 0.0 
0.0 0.0 0.0 
-4.284431972648e-04 4.183941835500e-04 0.0 
4.183941835500e-04 9.851543637793e-03 0.0 
0.0 0.0 0.0 
1.090977740740e-03 2.638264503816e-03 0.0 
2.638264503816e-03 9.530059251093e-04 0.0 
0.0 0.0 0.0 
5.438131166280e-04 2.856117282146e-03 0.0 
2.856117282146e-03 1.618411883483e-03 0.0 
0.0 0.0 0.0 
2.310773485133e-03 1.118085619737e-03 0.0 
1.118085619737e-03 -3.857165726972e-03 0.0 
0.0 0.0 0.0 
2.083651589187e-03 7.530305813368e-05 0.0 
7.530305813368e-05 -4.293269693706e-03 0.0 
0.0 0.0 0.0 
-3.969648776175e-04 1.079785169524e-04 0.0 
1.079785169524e-04 9.467848303879e-03 0.0 
0.0 0.0 0.0 
-3.333604951605e-04 1.287644091431e-04 0.0 
1.287644091431e-04 9.845258874933e-03 0.0 
0.0 0.0 0.0 
-9.583011289862e-05 -4.377913048643e-04 0.0 
-4.377913048643e-04 3.918246404926e-03 0.0 
0.0 0.0 0.0 
-1.353362209331e-04 -3.399821479208e-04 0.0 
-3.399821479208e-04 4.155866516768e-03 0.0 
0.0 0.0 0.0 
7.276181812548e-04 1.820046281299e-04 0.0 
1.820046281299e-04 5.281413423175e-03 0.0 
0.0 0.0 0.0 
-4.402936601384e-04 -1.417045742140e-03 0.0 
-1.417045742140e-03 1.197962131837e-03 0.0 
0.0 0.0 0.0 
-3.089137417900e-04 1.740985341769e-04 0.0 
1.740985341769e-04 1.001783892611e-02 0.0 
0.0 0.0 0.0 
1.133307018252e-03 2.428981365176e-04 0.0 
2.428981365176e-04 4.125083222131e-03 0.0 
0.0 0.0 0.0 
1.271589694670e-03 1.448514152660e-04 0.0 
1.448514152660e-04 3.542683763697e-03 0.0 
0.0 0.0 0.0 
-2.152025121096e-04 -2.997248954206e-04 0.0 
-2.997248954206e-04 3.649050227000e-03 0.0 
0.0 0.0 0.0 
6.306214664842e-04 3.116346638747e-03 0.0 
3.116346638747e-03 2.996436333160e-04 0.0 
0.0 0.0 0.0 
1.025022059130e-03 3.005684189457e-03 0.0 
3.005684189457e-03 -8.996026969701e-04 0.0 
0.0 0.0 0.0 
9.630911478940e-04 -1.627305990746e-03 0.0 
-1.627305990746e-03 5.567481011991e-04 0.0 
0.0 0.0 0.0 
-2.046522738671e-04 -1.508464199652e-03 0.0 
-1.508464199652e-03 1.348467291033e-03 0.0 
0.0 0.0 0.0 
-1.273993415308e-04 -1.720668055418e-04 0.0 
-1.720668055418e-04 1.941495296261e-03 0.0 
0.0 0.0 0.0 
5.741719127772e-04 2.676917504893e-04 0.0 
2.676917504893e-04 5.834029143697e-03 0.0 
0.0 0.0 0.0 
-4.036093843842e-04 4.970111775466e-04 0.0 
4.970111775466e-04 9.981030146653e-03 0.0 
0.0 0.0 0.0 
3.396776002632e-04 1.484929037070e-03 0.0 
1.484929037070e-03 6.581841837131e-03 0.0 
0.0 0.0 0.0 
3.765538386240e-04 1.524017140984e-03 0.0 
1.524017140984e-03 6.147500344391e-03 0.0 
0.0 0.0 0.0 
2.925929772170e-04 1.473971454602e-03 0.0 
1.473971454602e-03 7.020879848632e-03 0.0 
0.0 0.0 0.0 
-5.766808604255e-04 -1.168558554976e-03 0.0 
-1.168558554976e-03 1.038149685551e-03 0.0 
0.0 0.0 0.0 
4.653429067048e-04 8.342264880068e-05 0.0 
8.342264880068e-05 5.878817105986e-03 0.0 
0.0 0.0 0.0 
-8.880377825512e-05 -1.105156750307e-04 0.0 
-1.105156750307e-04 5.902135860032e-03 0.0 
0.0 0.0 0.0 
-1.078593792962e-04 1.500403142799e-03 0.0 
1.500403142799e-03 8.113162109892e-03 0.0 
0.0 0.0 0.0 
-2.079617010214e-04 1.451174777411e-03 0.0 
1.451174777411e-03 8.196221528668e-03 0.0 
0.0 0.0 0.0 
7.148425653048e-04 2.619367344022e-03 0.0 
2.619367344022e-03 1.931734811143e-03 0.0 
0.0 0.0 0.0 
2.089205226940e-04 2.702772652901e-03 0.0 
2.702772652901e-03 2.570181461362e-03 0.0 
0.0 0.0 0.0 
-3.057609861336e-05 2.873981876816e-03 0.0 
2.873981876816e-03 2.386032638947e-03 0.0 
0.0 0.0 0.0 
-2.818286731944e-04 2.626034455251e-03 0.0 
2.626034455251e-03 3.248528815781e-03 0.0 
0.0 0.0 0.0 
-8.654147185906e-04 7.200059425119e-04 0.0 
7.200059425119e-04 7.823032811980e-03 0.0 
0.0 0.0 0.0 
3.800953018687e-04 2.511493875549e-03 0.0 
2.511493875549e-03 2.827339008143e-03 0.0 
0.0 0.0 0.0 
-8.298509998338e-04 1.019210573611e-03 0.0 
1.019210573611e-03 7.228662947851e-03 0.0 
0.0 0.0 0.0 
-8.901542459250e-04 8.573072010372e-04 0.0 
8.573072010372e-04 7.258238520109e-03 0.0 
0.0 0.0 0.0 
-8.907637595832e-04 9.496268054154e-04 0.0 
9.496268054154e-04 6.960405281842e-03 0.0 
0.0 0.0 0.0 
-6.732349426739e-04 1.592293554702e-03 0.0 
1.592293554702e-03 5.738022632805e-03 0.0 
0.0 0.0 0.0 
-8.361142065074e-04 1.367410104290e-03 0.0 
1.367410104290e-03 5.947369763984e-03 0.0 
0.0 0.0 0.0 
1.542886664779e-03 2.010445698984e-03 0.0 
2.010445698984e-03 1.032971164087e-03 0.0 
0.0 0.0 0.0 
1.346970065220e-03 1.153843766883e-03 0.0 
1.153843766883e-03 3.321005330739e-03 0.0 
0.0 0.0 0.0 
-4.915489427104e-05 -5.444678663346e-04 0.0 
-5.444678663346e-04 3.667296862903e-03 0.0 
0.0 0.0 0.0 
1.163218088447e-04 -4.191127489510e-04 0.0 
-4.191127489510e-04 4.504592467331e-03 0.0 
0.0 0.0 0.0 
8.919541908952e-04 -5.178650727377e-04 0.0 
-5.178650727377e-04 3.327225712520e-03 0.0 
0.0 0.0 0.0 
-3.827416877688e-04 3.293813828051e-04 0.0 
3.293813828051e-04 9.915925220492e-03 0.0 
0.0 0.0 0.0 
-3.183775197697e-04 3.080569095615e-04 0.0 
3.080569095615e-04 1.012401291422e-02 0.0 
0.0 0.0 0.0 
-5.589944497435e-04 1.358346111823e-04 0.0 
1.358346111823e-04 8.624535149357e-03 0.0 
0.0 0.0 0.0 
-5.496753683040e-04 9.544087576429e-05 0.0 
9.544087576429e-05 8.440901553507e-03 0.0 
0.0 0.0 0.0 
-2.726074052049e-04 -5.070739001538e-04 0.0 
-5.070739001538e-04 1.459960995844e-03 0.0 
0.0 0.0 0.0 
-3.399163955460e-04 -5.679065523103e-04 0.0 
-5.679065523103e-04 1.298994201052e-03 0.0 
0.0 0.0 0.0 
4.329723936342e-04 -6.743061387539e-04 0.0 
-6.743061387539e-04 3.558114339715e-03 0.0 
0.0 0.0 0.0 
4.573065105985e-04 -2.252511729052e-05 0.0 
-2.252511729052e-05 5.654400428413e-03 0.0 
0.0 0.0 0.0 
-4.495687422808e-04 6.061845616153e-04 0.0 
6.061845616153e-04 9.878975576711e-03 0.0 
0.0 0.0 0.0 
-4.140588163768e-04 7.027703093684e-04 0.0 
7.027703093684e-04 9.978958935626e-03 0.0 
0.0 0.0 0.0 
-4.889543963656e-04 7.287142006829e-04 0.0 
7.287142006829e-04 9.747863951057e-03 0.0 
0.0 0.0 0.0 
7.010253627378e-04 3.368487608056e-04 0.0 
3.368487608056e-04 5.555112294207e-03 0.0 
0.0 0.0 0.0 
2.146910008789e-03 7.181354587368e-04 0.0 
7.181354587368e-04 9.988784764318e-05 0.0 
0.0 0.0 0.0 
1.481628744896e-03 4.739495663290e-04 0.0 
4.739495663290e-04 3.041006917063e-03 0.0 
0.0 0.0 0.0 
2.199884692184e-03 -9.640236095185e-04 0.0 
-9.640236095185e-04 -3.922606057045e-03 0.0 
0.0 0.0 0.0 
4.013924204565e-04 1.669101658433e-03 0.0 
1.669101658433e-03 5.329341690976e-03 0.0 
0.0 0.0 0.0 
-1.739835729514e-04 -3.466724763408e-04 0.0 
-3.466724763408e-04 1.071975896077e-03 0.0 
0.0 0.0 0.0 
-4.983579121376e-04 1.274151759688e-03 0.0 
1.274151759688e-03 8.015483390887e-03 0.0 
0.0 0.0 0.0 
-7.503291689389e-05 -8.476581380547e-05 0.0 
-8.476581380547e-05 6.305048293094e-03 0.0 
0.0 0.0 0.0 
-4.141448571693e-05 -9.330326696976e-05 0.0 
-9.330326696976e-05 6.488358440412e-03 0.0 
0.0 0.0 0.0 
5.148992590359e-04 1.291524545407e-03 0.0 
1.291524545407e-03 6.558993442829e-03 0.0 
0.0 0.0 0.0 
-9.007522021444e-04 5.002915123293e-04 0.0 
5.002915123293e-04 7.450425480590e-03 0.0 
0.0 0.0 0.0 
5.880169906801e-04 1.588101643399e-03 0.0 
1.588101643399e-03 5.164863954318e-03 0.0 
0.0 0.0 0.0 
7.968405649140e-04 1.560906746715e-03 0.0 
1.560906746715e-03 4.574299613621e-03 0.0 
0.0 0.0 0.0 
-9.301978530269e-04 7.725178803593e-04 0.0 
7.725178803593e-04 6.974496654872e-03 0.0 
0.0 0.0 0.0 
-9.353123312944e-04 8.637961667154e-04 0.0 
8.637961667154e-04 6.696727587265e-03 0.0 
0.0 0.0 0.0 
-8.819743065098e-04 1.061175524204e-03 0.0 
1.061175524204e-03 6.647783500848e-03 0.0 
0.0 0.0 0.0 
-9.360319355950e-04 9.791522143654e-04 0.0 
9.791522143654e-04 6.399158251697e-03 0.0 
0.0 0.0 0.0 
7.134682278249e-04 -1.518349797809e-03 0.0 
-1.518349797809e-03 1.148018781616e-03 0.0 
0.0 0.0 0.0 
3.531744786531e-04 -1.554563997790e-03 0.0 
-1.554563997790e-03 1.349702604517e-03 0.0 
0.0 0.0 0.0 
-1.165521566380e-05 1.543409240443e-03 0.0 
1.543409240443e-03 8.083055771778e-03 0.0 
0.0 0.0 0.0 
1.713902942496e-04 1.525339034741e-03 0.0 
1.525339034741e-03 7.501046274355e-03 0.0 
0.0 0.0 0.0 
-1.535900733977e-04 1.497194211768e-03 0.0 
1.497194211768e-03 8.536514670314e-03 0.0 
0.0 0.0 0.0 
-2.434063698251e-04 1.432391703023e-03 0.0 
1.432391703023e-03 8.615239891126e-03 0.0 
0.0 0.0 0.0 
5.162151257257e-04 1.205060156850e-03 0.0 
1.205060156850e-03 6.604058736664e-03 0.0 
0.0 0.0 0.0 
6.571832018135e-04 1.081071142025e-03 0.0 
1.081071142025e-03 6.136600168879e-03 0.0 
0.0 0.0 0.0 
-1.949724627353e-04 -2.031786341592e-04 0.0 
-2.031786341592e-04 2.340358006694e-03 0.0 
0.0 0.0 0.0 
-9.231458959202e-04 1.288094917996e-03 0.0 
1.288094917996e-03 5.752144201652e-03 0.0 
0.0 0.0 0.0 
-3.287997471171e-04 4.733250737031e-04 0.0 
4.733250737031e-04 1.019334739632e-02 0.0 
0.0 0.0 0.0 
-9.191638153676e-04 6.967501018024e-04 0.0 
6.967501018024e-04 7.245364410381e-03 0.0 
0.0 0.0 0.0 
3.409698842811e-04 4.400094190880e-05 0.0 
4.400094190880e-05 6.163595482425e-03 0.0 
0.0 0.0 0.0 
3.388188850213e-04 -3.965599770151e-05 0.0 
-3.965599770151e-05 5.960991444220e-03 0.0 
0.0 0.0 0.0 
1.475268252401e-03 -9.145768221730e-04 0.0 
-9.145768221730e-04 -4.337857223035e-03 0.0 
0.0 0.0 0.0 
1.373693039328e-03 -1.986309064807e-03 0.0 
-1.986309064807e-03 -3.349280311170e-03 0.0 
0.0 0.0 0.0 
-2.573773196279e-04 1.477422000780e-04 0.0 
1.477422000780e-04 1.021819175333e-02 0.0 
0.0 0.0 0.0 
-5.610020341599e-04 2.685822207272e-03 0.0 
2.685822207272e-03 3.170895950560e-03 0.0 
0.0 0.0 0.0 
-7.112697716348e-04 2.359547684869e-03 0.0 
2.359547684869e-03 3.898331954290e-03 0.0 
0.0 0.0 0.0 
-3.364802806956e-04 2.930483898201e-03 0.0 
2.930483898201e-03 2.290894432975e-03 0.0 
0.0 0.0 0.0 
-5.930762493831e-05 -2.003039335095e-05 0.0 
-2.003039335095e-05 7.168894122518e-03 0.0 
0.0 0.0 0.0 
-5.201768642690e-04 5.064740864690e-06 0.0 
5.064740864690e-06 7.630427054405e-03 0.0 
0.0 0.0 0.0 
-5.921649810608e-05 -6.613568288482e-05 0.0 
-6.613568288482e-05 6.711260603431e-03 0.0 
0.0 0.0 0.0 
-7.396016692388e-04 1.409731105999e-03 0.0 
1.409731105999e-03 6.159141133343e-03 0.0 
0.0 0.0 0.0 
-2.235889600922e-04 2.000930010679e-04 0.0 
2.000930010679e-04 1.038611121974e-02 0.0 
0.0 0.0 0.0 
7.395892234341e-04 1.475432993406e-03 0.0 
1.475432993406e-03 5.052687400659e-03 0.0 
0.0 0.0 0.0 
2.207832245029e-04 2.190126786771e-03 0.0 
2.190126786771e-03 3.911514609978e-03 0.0 
0.0 0.0 0.0 
8.573251738804e-04 2.491211223656e-04 0.0 
2.491211223656e-04 4.991873949926e-03 0.0 
0.0 0.0 0.0 
-2.921414531396e-04 9.418118167896e-05 0.0 
9.418118167896e-05 1.002485668464e-02 0.0 
0.0 0.0 0.0 
-2.062415109416e-04 1.175188757934e-04 0.0 
1.175188757934e-04 1.042539244555e-02 0.0 
0.0 0.0 0.0 
-6.419161063379e-04 1.788900937519e-04 0.0 
1.788900937519e-04 8.362411178112e-03 0.0 
0.0 0.0 0.0 
-6.268146375855e-04 1.235497626935e-04 0.0 
1.235497626935e-04 8.171583658187e-03 0.0 
0.0 0.0 0.0 
-6.615348994733e-04 2.363714795824e-04 0.0 
2.363714795824e-04 8.523458484627e-03 0.0 
0.0 0.0 0.0 
2.193849637539e-03 1.958250373095e-03 0.0 
1.958250373095e-03 -3.004679208007e-03 0.0 
0.0 0.0 0.0 
1.595660002639e-03 2.211154565366e-03 0.0 
2.211154565366e-03 -3.202193633994e-03 0.0 
0.0 0.0 0.0 
-3.425459042217e-04 2.476926645109e-04 0.0 
2.476926645109e-04 9.970531224929e-03 0.0 
0.0 0.0 0.0 
-2.331129992319e-04 -4.075792814247e-04 0.0 
-4.075792814247e-04 2.733367816406e-03 0.0 
0.0 0.0 0.0 
-2.412999692300e-04 -3.107337909800e-04 0.0 
-3.107337909800e-04 2.970486589167e-03 0.0 
0.0 0.0 0.0 
-3.949560507368e-04 -1.201799640556e-03 0.0 
-1.201799640556e-03 1.472198356467e-03 0.0 
0.0 0.0 0.0 
-2.081280858403e-04 -1.269838531910e-03 0.0 
-1.269838531910e-03 1.669920198761e-03 0.0 
0.0 0.0 0.0 
-8.844788264425e-06 -4.816897982783e-04 0.0 
-4.816897982783e-04 4.026393250900e-03 0.0 
0.0 0.0 0.0 
5.698312139045e-05 -5.867982794826e-04 0.0 
-5.867982794826e-04 3.753189642116e-03 0.0 
0.0 0.0 0.0 
-3.828275147022e-04 1.360214412640e-03 0.0 
1.360214412640e-03 7.938438997584e-03 0.0 
0.0 0.0 0.0 
-4.197585243110e-04 1.310624771141e-03 0.0 
1.310624771141e-03 8.327908426411e-03 0.0 
0.0 0.0 0.0 
-2.349510451006e-04 1.488545723626e-03 0.0 
1.488545723626e-03 7.075406666044e-03 0.0 
0.0 0.0 0.0 
1.133307629590e-03 3.903423830608e-05 0.0 
3.903423830608e-05 3.844728580088e-03 0.0 
0.0 0.0 0.0 
1.251284235017e-03 -8.358571116385e-05 0.0 
-8.358571116385e-05 3.276034755037e-03 0.0 
0.0 0.0 0.0 
1.401708066223e-03 3.815460627454e-05 0.0 
3.815460627454e-05 2.953065669326e-03 0.0 
0.0 0.0 0.0 
-2.906073046253e-04 3.727860053545e-04 0.0 
3.727860053545e-04 1.025716020187e-02 0.0 
0.0 0.0 0.0 
-2.127682064985e-04 3.492205732946e-04 0.0 
3.492205732946e-04 1.049863631494e-02 0.0 
0.0 0.0 0.0 
1.069699695839e-03 -1.356471248127e-03 0.0 
-1.356471248127e-03 9.835112192822e-04 0.0 
0.0 0.0 0.0 
1.353861638709e-03 -1.356592522423e-03 0.0 
-1.356592522423e-03 3.771537015090e-04 0.0 
0.0 0.0 0.0 
5.168182862594e-04 -1.377920537163e-03 0.0 
-1.377920537163e-03 1.648149964294e-03 0.0 
0.0 0.0 0.0 
-2.944298092454e-04 5.557834680212e-04 0.0 
5.557834680212e-04 1.031413255086e-02 0.0 
0.0 0.0 0.0 
-3.355990825023e-05 -7.383378506357e-05 0.0 
-7.383378506357e-05 6.896761130582e-03 0.0 
0.0 0.0 0.0 
-1.192548546325e-05 -9.605225622721e-05 0.0 
-9.605225622721e-05 6.670320423046e-03 0.0 
0.0 0.0 0.0 
-2.077311767137e-04 -3.631519897507e-04 0.0 
-3.631519897507e-04 9.129464923086e-04 0.0 
0.0 0.0 0.0 
-4.100068593608e-04 -6.306553886725e-04 0.0 
-6.306553886725e-04 1.131563317666e-03 0.0 
0.0 0.0 0.0 
2.206101090174e-04 3.147988511587e-03 0.0 
3.147988511587e-03 2.342392543169e-04 0.0 
0.0 0.0 0.0 
5.656482985982e-04 3.070206963313e-03 0.0 
3.070206963313e-03 -9.458457533938e-04 0.0 
0.0 0.0 0.0 
-3.677794053956e-04 8.031140489177e-04 0.0 
8.031140489177e-04 1.005207780285e-02 0.0 
0.0 0.0 0.0 
-4.469079389893e-04 8.358808295275e-04 0.0 
8.358808295275e-04 9.824391314156e-03 0.0 
0.0 0.0 0.0 
-2.787157898885e-04 7.776536566771e-04 0.0 
7.776536566771e-04 1.030652698318e-02 0.0 
0.0 0.0 0.0 
-1.354099314069e-04 -1.151139640402e-04 0.0 
-1.151139640402e-04 2.085842267262e-03 0.0 
0.0 0.0 0.0 
4.977775959111e-04 1.458731433606e-03 0.0 
1.458731433606e-03 6.069827209341e-03 0.0 
0.0 0.0 0.0 
5.250886980671e-04 4.150152891971e-04 0.0 
4.150152891971e-04 6.105814238461e-03 0.0 
0.0 0.0 0.0 
6.519275047688e-04 4.992759868826e-04 0.0 
4.992759868826e-04 5.857843313467e-03 0.0 
0.0 0.0 0.0 
3.836063364866e-04 3.411065055641e-04 0.0 
3.411065055641e-04 6.452737716046e-03 0.0 
0.0 0.0 0.0 
4.869653180131e-04 1.367937198793e-03 0.0 
1.367937198793e-03 6.537806870485e-03 0.0 
0.0 0.0 0.0 
3.696561932196e-04 1.377811593876e-03 0.0 
1.377811593876e-03 7.016505322311e-03 0.0 
0.0 0.0 0.0 
2.200378405837e-04 1.494686449298e-03 0.0 
1.494686449298e-03 7.471958358579e-03 0.0 
0.0 0.0 0.0 
1.083491744747e-03 9.846070380344e-05 0.0 
9.846070380344e-05 -4.657349247124e-03 0.0 
0.0 0.0 0.0 
-2.264782657676e-04 7.090183735922e-05 0.0 
7.090183735922e-05 1.030263234084e-02 0.0 
0.0 0.0 0.0 
-5.806849492456e-04 8.954163510074e-05 0.0 
8.954163510074e-05 8.202179221472e-03 0.0 
0.0 0.0 0.0 
3.076080824307e-04 -5.960274339026e-04 0.0 
-5.960274339026e-04 -4.507448944059e-03 0.0 
0.0 0.0 0.0 
-5.636646152151e-04 5.919549747363e-05 0.0 
5.919549747363e-05 8.014887529914e-03 0.0 
0.0 0.0 0.0 
-5.422477143953e-04 6.432565974359e-05 0.0 
6.432565974359e-05 8.249973644652e-03 0.0 
0.0 0.0 0.0 
-5.540958926996e-04 3.398800927423e-05 0.0 
3.398800927423e-05 7.799851895094e-03 0.0 
0.0 0.0 0.0 
-4.336187023363e-05 -9.695881738164e-05 0.0 
-9.695881738164e-05 1.664633307310e-03 0.0 
0.0 0.0 0.0 
-6.811522436172e-04 1.628815660569e-04 0.0 
1.628815660569e-04 8.070516630281e-03 0.0 
0.0 0.0 0.0 
-7.049072190877e-04 2.362183977692e-04 0.0 
2.362183977692e-04 8.297459513222e-03 0.0 
0.0 0.0 0.0 
-1.889211543454e-04 -3.152002422281e-04 0.0 
-3.152002422281e-04 6.546237832567e-04 0.0 
0.0 0.0 0.0 
-2.094082149327e-04 5.218136073860e-04 0.0 
5.218136073860e-04 1.051821162593e-02 0.0 
0.0 0.0 0.0 
-7.333923020140e-06 -1.882929572549e-04 0.0 
-1.882929572549e-04 6.515217167834e-04 0.0 
0.0 0.0 0.0 
9.294560953184e-06 -2.009694997671e-04 0.0 
-2.009694997671e-04 8.086588575732e-04 0.0 
0.0 0.0 0.0 
2.507883986348e-04 1.683740638862e-05 0.0 
1.683740638862e-05 6.457131755268e-03 0.0 
0.0 0.0 0.0 
2.407799161802e-04 -5.486416189332e-05 0.0 
-5.486416189332e-05 6.250952715645e-03 0.0 
0.0 0.0 0.0 
1.594847842608e-04 -1.602297283236e-05 0.0 
-1.602297283236e-05 6.719770393017e-03 0.0 
0.0 0.0 0.0 
1.527652154592e-04 -6.104168371023e-05 0.0 
-6.104168371023e-05 6.512272014626e-03 0.0 
0.0 0.0 0.0 
2.110437449488e-04 -1.121037913982e-04 0.0 
-1.121037913982e-04 6.063777899999e-03 0.0 
0.0 0.0 0.0 
1.302462422282e-04 -1.016650536121e-04 0.0 
-1.016650536121e-04 6.349227393442e-03 0.0 
0.0 0.0 0.0 
-6.112075530246e-04 8.216663448290e-05 0.0 
8.216663448290e-05 7.971062826628e-03 0.0 
0.0 0.0 0.0 
8.563925699675e-05 -6.312525123648e-05 0.0 
-6.312525123648e-05 6.844642747327e-03 0.0 
0.0 0.0 0.0 
6.571277919028e-05 -9.327007512807e-05 0.0 
-9.327007512807e-05 6.626469624015e-03 0.0 
0.0 0.0 0.0 
3.468307884654e-05 -7.601706731376e-05 0.0 
-7.601706731376e-05 7.116086609869e-03 0.0 
0.0 0.0 0.0 
-9.594099853043e-04 7.537515361972e-04 0.0 
7.537515361972e-04 6.435015366297e-03 0.0 
0.0 0.0 0.0 
-4.852889025721e-04 2.347174663622e-03 0.0 
2.347174663622e-03 3.973429385566e-03 0.0 
0.0 0.0 0.0 
-8.197939454425e-04 2.017372366768e-03 0.0 
2.017372366768e-03 4.502543147522e-03 0.0 
0.0 0.0 0.0 
-1.002084469203e-03 1.838737059200e-03 0.0 
1.838737059200e-03 4.473217181446e-03 0.0 
0.0 0.0 0.0 
-1.591605820381e-04 1.505496282620e-03 0.0 
1.505496282620e-03 9.000674750675e-03 0.0 
0.0 0.0 0.0 
-2.580541790503e-04 1.412581714043e-03 0.0 
1.412581714043e-03 8.978498325578e-03 0.0 
0.0 0.0 0.0 
-1.066552986793e-04 -6.748446376482e-05 0.0 
-6.748446376482e-05 6.125644000393e-03 0.0 
0.0 0.0 0.0 
-1.254929887365e-04 -8.484671134445e-05 0.0 
-8.484671134445e-05 5.727851670405e-03 0.0 
0.0 0.0 0.0 
-5.381140866165e-04 3.907490107331e-05 0.0 
3.907490107331e-05 8.033752593680e-03 0.0 
0.0 0.0 0.0 
-5.236940989702e-04 2.470677265012e-05 0.0 
2.470677265012e-05 8.009001294579e-03 0.0 
0.0 0.0 0.0 
-5.120007677572e-04 5.123407458251e-05 0.0 
5.123407458251e-05 8.382440836826e-03 0.0 
0.0 0.0 0.0 
-5.036387404967e-04 3.068171356244e-05 0.0 
3.068171356244e-05 8.331595439942e-03 0.0 
0.0 0.0 0.0 
-4.832226939899e-04 5.566371575443e-05 0.0 
5.566371575443e-05 8.700224476820e-03 0.0 
0.0 0.0 0.0 
-4.766080553266e-04 2.985025337534e-05 0.0 
2.985025337534e-05 8.641978233044e-03 0.0 
0.0 0.0 0.0 
-4.468569048945e-04 4.828267044126e-05 0.0 
4.828267044126e-05 9.011917981778e-03 0.0 
0.0 0.0 0.0 
1.124197610591e-04 1.571499090462e-03 0.0 
1.571499090462e-03 7.980380382218e-03 0.0 
0.0 0.0 0.0 
-8.566101968929e-04 2.605123287374e-03 0.0 
2.605123287374e-03 3.132552733039e-03 0.0 
0.0 0.0 0.0 
-9.369833915152e-04 5.994864586584e-04 0.0 
5.994864586584e-04 6.948036803366e-03 0.0 
0.0 0.0 0.0 
4.815968157721e-04 1.109842299662e-03 0.0 
1.109842299662e-03 6.676669502558e-03 0.0 
0.0 0.0 0.0 
6.219256647279e-04 9.743748971252e-04 0.0 
9.743748971252e-04 6.203781348334e-03 0.0 
0.0 0.0 0.0 
-9.322157516400e-04 1.119594330273e-03 0.0 
1.119594330273e-03 6.083954852034e-03 0.0 
0.0 0.0 0.0 
-9.735196198514e-04 9.935576961058e-04 0.0 
9.935576961058e-04 5.869118057349e-03 0.0 
0.0 0.0 0.0 
3.053322486269e-04 1.477208528670e-04 0.0 
1.477208528670e-04 6.482935015276e-03 0.0 
0.0 0.0 0.0 
8.136365003893e-04 2.386518364321e-03 0.0 
2.386518364321e-03 2.307897723332e-03 0.0 
0.0 0.0 0.0 
-1.484170249692e-04 6.156072035434e-04 0.0 
6.156072035434e-04 1.066590552382e-02 0.0 
0.0 0.0 0.0 
-9.098848340202e-04 2.074364629706e-03 0.0 
2.074364629706e-03 -3.111930572551e-03 0.0 
0.0 0.0 0.0 
6.054746258420e-04 2.059850306424e-03 0.0 
2.059850306424e-03 -3.627984201788e-03 0.0 
0.0 0.0 0.0 
4.950033591238e-04 2.314460116938e-03 0.0 
2.314460116938e-03 3.143785349473e-03 0.0 
0.0 0.0 0.0 
-8.651616415219e-04 1.199347220455e-03 0.0 
1.199347220455e-03 6.310328199744e-03 0.0 
0.0 0.0 0.0 
-6.252940132041e-04 2.050411379736e-03 0.0 
2.050411379736e-03 4.581343200268e-03 0.0 
0.0 0.0 0.0 
-8.648499734898e-04 1.746588866204e-03 0.0 
1.746588866204e-03 4.962954226672e-03 0.0 
0.0 0.0 0.0 
1.004375725667e-03 1.513449707114e-04 0.0 
1.513449707114e-04 4.415983136196e-03 0.0 
0.0 0.0 0.0 
-4.615012281846e-04 -7.134479616829e-04 0.0 
-7.134479616829e-04 9.656727394052e-04 0.0 
0.0 0.0 0.0 
-8.921879298298e-05 3.090443250220e-03 0.0 
3.090443250220e-03 1.309300300385e-03 0.0 
0.0 0.0 0.0 
-4.530984697843e-04 8.416700869893e-05 0.0 
8.416700869893e-05 9.056773647253e-03 0.0 
0.0 0.0 0.0 
-5.205505516546e-04 2.972428537768e-03 0.0 
2.972428537768e-03 1.334189233093e-03 0.0 
0.0 0.0 0.0 
-1.308040525607e-04 -3.796489966196e-05 0.0 
-3.796489966196e-05 5.957558777157e-03 0.0 
0.0 0.0 0.0 
1.192247897810e-03 2.136013452113e-03 0.0 
2.136013452113e-03 1.907748959657e-03 0.0 
0.0 0.0 0.0 
-5.627605059390e-04 1.588600413136e-03 0.0 
1.588600413136e-03 5.953588343961e-03 0.0 
0.0 0.0 0.0 
2.793404119294e-04 3.055269634417e-03 0.0 
3.055269634417e-03 1.398539056434e-03 0.0 
0.0 0.0 0.0 
-7.189647167270e-05 2.497284688687e-03 0.0 
2.497284688687e-03 3.414596469556e-03 0.0 
0.0 0.0 0.0 
-8.276393186239e-04 8.580622068828e-04 0.0 
8.580622068828e-04 7.841787613354e-03 0.0 
0.0 0.0 0.0 
-8.810608812173e-04 5.876352394858e-04 0.0 
5.876352394858e-04 7.772290992960e-03 0.0 
0.0 0.0 0.0 
-9.027346644665e-04 6.359430689205e-04 0.0 
6.359430689205e-04 7.512747417832e-03 0.0 
0.0 0.0 0.0 
1.493560529649e-03 1.804692859267e-03 0.0 
1.804692859267e-03 1.626305997280e-03 0.0 
0.0 0.0 0.0 
-9.006766256751e-04 1.493587973046e-03 0.0 
1.493587973046e-03 5.398154918850e-03 0.0 
0.0 0.0 0.0 
-9.841670716128e-04 1.321848580232e-03 0.0 
1.321848580232e-03 5.233056113511e-03 0.0 
0.0 0.0 0.0 
-7.368429072630e-04 1.174829099654e-03 0.0 
1.174829099654e-03 7.157075659536e-03 0.0 
0.0 0.0 0.0 
-5.572789853159e-04 7.541059746724e-04 0.0 
7.541059746724e-04 9.507385349642e-03 0.0 
0.0 0.0 0.0 
-5.147182562342e-04 8.616771768820e-04 0.0 
8.616771768820e-04 9.573307735790e-03 0.0 
0.0 0.0 0.0 
-3.959030243974e-04 9.396765253668e-04 0.0 
9.396765253668e-04 9.868351634346e-03 0.0 
0.0 0.0 0.0 
-4.643734707760e-04 9.700496996366e-04 0.0 
9.700496996366e-04 9.618105978990e-03 0.0 
0.0 0.0 0.0 
-5.748020763510e-04 8.889362359657e-04 0.0 
8.889362359657e-04 9.311975941949e-03 0.0 
0.0 0.0 0.0 
-5.204617369269e-04 9.985514274584e-04 0.0 
9.985514274584e-04 9.346696943528e-03 0.0 
0.0 0.0 0.0 
-3.973240742420e-04 1.078842448117e-03 0.0 
1.078842448117e-03 9.649770204452e-03 0.0 
0.0 0.0 0.0 
-4.511573365910e-04 1.112312056705e-03 0.0 
1.112312056705e-03 9.368677535013e-03 0.0 
0.0 0.0 0.0 
-3.068968223769e-04 1.205015008585e-03 0.0 
1.205015008585e-03 9.723812486017e-03 0.0 
0.0 0.0 0.0 
-3.765098784547e-04 1.220568159997e-03 0.0 
1.220568159997e-03 9.358162503398e-03 0.0 
0.0 0.0 0.0 
-4.897047618978e-04 1.142907814156e-03 0.0 
1.142907814156e-03 9.049276440788e-03 0.0 
0.0 0.0 0.0 
-4.145191884907e-04 1.242641625846e-03 0.0 
1.242641625846e-03 9.026198707775e-03 0.0 
0.0 0.0 0.0 
-3.134951256107e-04 1.319680753261e-03 0.0 
1.319680753261e-03 9.305309271792e-03 0.0 
0.0 0.0 0.0 
-5.157040477433e-04 1.176648714531e-03 0.0 
1.176648714531e-03 8.719102505004e-03 0.0 
0.0 0.0 0.0 
3.275191455821e-04 1.243501702531e-03 0.0 
1.243501702531e-03 7.132401869975e-03 0.0 
0.0 0.0 0.0 
5.663819518154e-04 2.123005974442e-03 0.0 
2.123005974442e-03 3.512726127685e-03 0.0 
0.0 0.0 0.0 
1.560292576673e-03 1.131442023346e-03 0.0 
1.131442023346e-03 -4.208277469995e-03 0.0 
0.0 0.0 0.0 
6.984452515094e-04 2.855116699451e-03 0.0 
2.855116699451e-03 -2.525789722497e-03 0.0 
0.0 0.0 0.0 
-6.413542864771e-04 1.429361107681e-03 0.0 
1.429361107681e-03 6.389237647871e-03 0.0 
0.0 0.0 0.0 
-1.587098596025e-04 1.249158873475e-03 0.0 
1.249158873475e-03 1.009842820548e-02 0.0 
0.0 0.0 0.0 
-1.638304031119e-04 1.048953805705e-03 0.0 
1.048953805705e-03 1.036000202171e-02 0.0 
0.0 0.0 0.0 
1.555051117117e-03 2.256145317830e-03 0.0 
2.256145317830e-03 4.456685746954e-04 0.0 
0.0 0.0 0.0 
-6.944088421273e-05 1.615869828408e-03 0.0 
1.615869828408e-03 9.236263325164e-03 0.0 
0.0 0.0 0.0 
-8.820205567004e-04 7.806252322957e-04 0.0 
7.806252322957e-04 7.544898523371e-03 0.0 
0.0 0.0 0.0 
2.337781777569e-03 1.796420321815e-03 0.0 
1.796420321815e-03 -2.402776426025e-03 0.0 
0.0 0.0 0.0 
-3.705825105042e-06 1.661956375367e-03 0.0 
1.661956375367e-03 8.783407330564e-03 0.0 
0.0 0.0 0.0 
-6.181323671286e-04 7.797029850120e-04 0.0 
7.797029850120e-04 9.256873111176e-03 0.0 
0.0 0.0 0.0 
-6.704090359389e-04 8.050615323335e-04 0.0 
8.050615323335e-04 8.993023332663e-03 0.0 
0.0 0.0 0.0 
-7.030391863929e-04 6.953567190445e-04 0.0 
6.953567190445e-04 8.930107438349e-03 0.0 
0.0 0.0 0.0 
-1.457245368205e-04 8.765829600280e-04 0.0 
8.765829600280e-04 1.054136745595e-02 0.0 
0.0 0.0 0.0 
-6.746636558591e-04 3.061654737789e-04 0.0 
3.061654737789e-04 8.687306416391e-03 0.0 
0.0 0.0 0.0 
1.335784224943e-04 1.501208935283e-03 0.0 
1.501208935283e-03 7.896214547580e-03 0.0 
0.0 0.0 0.0 
1.221988922217e-03 1.104641826905e-03 0.0 
1.104641826905e-03 3.903491874188e-03 0.0 
0.0 0.0 0.0 
1.145718252006e-03 1.305655625023e-03 0.0 
1.305655625023e-03 3.902507710773e-03 0.0 
0.0 0.0 0.0 
1.246093788678e-03 1.389975117310e-03 0.0 
1.389975117310e-03 3.346927190351e-03 0.0 
0.0 0.0 0.0 
-5.635271698852e-04 1.029407864289e-03 0.0 
1.029407864289e-03 9.052219331856e-03 0.0 
0.0 0.0 0.0 
2.372911481581e-04 1.006074022655e-03 0.0 
1.006074022655e-03 7.172642303816e-03 0.0 
0.0 0.0 0.0 
4.456464636787e-04 8.717052945384e-04 0.0 
8.717052945384e-04 6.620868186356e-03 0.0 
0.0 0.0 0.0 
4.454107104919e-04 7.354930138252e-04 0.0 
7.354930138252e-04 6.539995163738e-03 0.0 
0.0 0.0 0.0 
6.369514288071e-04 7.466180343983e-04 0.0 
7.466180343983e-04 6.046975649629e-03 0.0 
0.0 0.0 0.0 
2.374342216007e-04 7.127270233849e-04 0.0 
7.127270233849e-04 7.010302142299e-03 0.0 
0.0 0.0 0.0 
-1.263718026658e-04 1.426850053090e-03 0.0 
1.426850053090e-03 9.829134340840e-03 0.0 
0.0 0.0 0.0 
-1.063086659088e-04 1.505266506600e-03 0.0 
1.505266506600e-03 9.662836888953e-03 0.0 
0.0 0.0 0.0 
1.276905903122e-03 -1.666753021845e-03 0.0 
-1.666753021845e-03 -1.351534211644e-04 0.0 
0.0 0.0 0.0 
1.679219170319e-03 -1.258525247442e-03 0.0 
-1.258525247442e-03 -2.875962943023e-04 0.0 
0.0 0.0 0.0 
1.661187007453e-03 -9.796213940938e-04 0.0 
-9.796213940938e-04 3.299912551373e-04 0.0 
0.0 0.0 0.0 
1.953157425166e-03 -7.561635397490e-04 0.0 
-7.561635397490e-04 -2.611887584893e-04 0.0 
0.0 0.0 0.0 
2.028315370167e-03 -1.015487584930e-03 0.0 
-1.015487584930e-03 -9.975817331300e-04 0.0 
0.0 0.0 0.0 
2.222314038574e-03 -3.876443186349e-04 0.0 
-3.876443186349e-04 -8.263070895004e-04 0.0 
0.0 0.0 0.0 
2.085270508223e-03 -2.296884396754e-04 0.0 
-2.296884396754e-04 -4.460657723859e-05 0.0 
0.0 0.0 0.0 
2.418892686976e-03 1.409171129362e-04 0.0 
1.409171129362e-04 -1.298590945895e-03 0.0 
0.0 0.0 0.0 
-3.400333873664e-04 1.354046492325e-03 0.0 
1.354046492325e-03 8.655015242251e-03 0.0 
0.0 0.0 0.0 
2.010184694077e-04 4.441671506647e-04 0.0 
4.441671506647e-04 6.976440329517e-03 0.0 
0.0 0.0 0.0 
8.440051499176e-04 -3.621765443889e-04 0.0 
-3.621765443889e-04 3.819713853713e-03 0.0 
0.0 0.0 0.0 
1.011396022796e-03 -3.492135691085e-04 0.0 
-3.492135691085e-04 3.448867289006e-03 0.0 
0.0 0.0 0.0 
1.071451711899e-03 -5.115341576995e-04 0.0 
-5.115341576995e-04 2.933221938463e-03 0.0 
0.0 0.0 0.0 
6.072447326015e-06 -6.612277195840e-04 0.0 
-6.612277195840e-04 3.399656489304e-03 0.0 
0.0 0.0 0.0 
1.342447210545e-04 -7.000337258651e-04 0.0 
-7.000337258651e-04 3.459716610516e-03 0.0 
0.0 0.0 0.0 
1.795118090253e-04 -6.025539683228e-04 0.0 
-6.025539683228e-04 3.826908078868e-03 0.0 
0.0 0.0 0.0 
-9.807367065564e-05 -5.955859078844e-04 0.0 
-5.955859078844e-04 3.320205948118e-03 0.0 
0.0 0.0 0.0 
2.264894979729e-04 1.565971727946e-03 0.0 
1.565971727946e-03 6.276282036305e-03 0.0 
0.0 0.0 0.0 
1.820119540646e-04 3.245548152101e-04 0.0 
3.245548152101e-04 6.975749951573e-03 0.0 
0.0 0.0 0.0 
1.391383950761e-03 2.898915187815e-04 0.0 
2.898915187815e-04 3.271476376987e-03 0.0 
0.0 0.0 0.0 
2.253965971533e-04 -8.206581417079e-04 0.0 
-8.206581417079e-04 3.142144884960e-03 0.0 
0.0 0.0 0.0 
-7.679970230196e-04 1.901223007708e-04 0.0 
1.901223007708e-04 7.649396295362e-03 0.0 
0.0 0.0 0.0 
-7.800596046272e-04 2.869393386345e-04 0.0 
2.869393386345e-04 7.980327495642e-03 0.0 
0.0 0.0 0.0 
-8.201984958628e-04 3.439905408019e-04 0.0 
3.439905408019e-04 7.957600778050e-03 0.0 
0.0 0.0 0.0 
-7.773286276661e-04 3.924007770430e-04 0.0 
3.924007770430e-04 8.326919297769e-03 0.0 
0.0 0.0 0.0 
-7.452751860311e-04 2.342084503722e-04 0.0 
2.342084503722e-04 8.039877975767e-03 0.0 
0.0 0.0 0.0 
-6.412285867071e-05 -3.843288473350e-04 0.0 
-3.843288473350e-04 4.282307869037e-03 0.0 
0.0 0.0 0.0 
-1.081473294698e-04 -2.944632637921e-04 0.0 
-2.944632637921e-04 4.521004380548e-03 0.0 
0.0 0.0 0.0 
-1.650306773617e-04 -2.474633660531e-04 0.0 
-2.474633660531e-04 4.377314521129e-03 0.0 
0.0 0.0 0.0 
-1.406657340767e-04 -2.124664212201e-04 0.0 
-2.124664212201e-04 4.743442014980e-03 0.0 
0.0 0.0 0.0 
-1.842721756874e-04 -1.672337819534e-04 0.0 
-1.672337819534e-04 4.574181424934e-03 0.0 
0.0 0.0 0.0 
-2.042550288459e-04 -1.935970685171e-04 0.0 
-1.935970685171e-04 4.235570369764e-03 0.0 
0.0 0.0 0.0 
-1.636229053678e-04 -1.371579023303e-04 0.0 
-1.371579023303e-04 4.945803800421e-03 0.0 
0.0 0.0 0.0 
-1.986595782551e-04 -9.320848223934e-05 0.0 
-9.320848223934e-05 4.733889556341e-03 0.0 
0.0 0.0 0.0 
-6.999879649823e-04 1.152391727451e-04 0.0 
1.152391727451e-04 7.665890988849e-03 0.0 
0.0 0.0 0.0 
-1.077970179811e-03 -1.908486232807e-03 0.0 
-1.908486232807e-03 -1.000725141104e-03 0.0 
0.0 0.0 0.0 
-6.227900416471e-04 -2.263126431648e-03 0.0 
-2.263126431648e-03 -6.459839683140e-04 0.0 
0.0 0.0 0.0 
-7.654470311493e-04 -1.582744862616e-03 0.0 
-1.582744862616e-03 2.450268226605e-04 0.0 
0.0 0.0 0.0 
-3.190032372494e-04 -2.284541376055e-03 0.0 
-2.284541376055e-03 -4.136178866107e-04 0.0 
0.0 0.0 0.0 
4.237544442851e-04 -2.480325918491e-03 0.0 
-2.480325918491e-03 -1.732386685071e-03 0.0 
0.0 0.0 0.0 
5.040332446955e-04 -2.401039957446e-03 0.0 
-2.401039957446e-03 -1.144718555350e-03 0.0 
0.0 0.0 0.0 
1.253663303102e-03 -2.294262983394e-03 0.0 
-2.294262983394e-03 -2.396730814408e-03 0.0 
0.0 0.0 0.0 
8.805723273112e-05 -2.428409358933e-03 0.0 
-2.428409358933e-03 -2.426248132975e-03 0.0 
0.0 0.0 0.0 
-5.203157916928e-04 -5.747135853984e-04 0.0 
-5.747135853984e-04 2.910369546059e-04 0.0 
0.0 0.0 0.0 
-6.362103290267e-04 -1.021205118818e-03 0.0 
-1.021205118818e-03 5.345388315734e-04 0.0 
0.0 0.0 0.0 
-1.721374088412e-04 -3.049230107125e-04 0.0 
-3.049230107125e-04 2.652934010277e-04 0.0 
0.0 0.0 0.0 
-4.519571015908e-04 -6.419390068410e-04 0.0 
-6.419390068410e-04 6.134641649464e-04 0.0 
0.0 0.0 0.0 
-6.113563239819e-04 -1.293169551053e-03 0.0 
-1.293169551053e-03 7.651691927636e-04 0.0 
0.0 0.0 0.0 
-4.277731342051e-04 -8.667650453709e-04 0.0 
-8.667650453709e-04 1.446196487870e-03 0.0 
0.0 0.0 0.0 
-2.101718656757e-05 -6.752287872008e-05 0.0 
-6.752287872008e-05 7.332822606969e-03 0.0 
0.0 0.0 0.0 
-2.569381347379e-04 -7.845295440524e-05 0.0 
-7.845295440524e-05 3.716996896645e-03 0.0 
0.0 0.0 0.0 
-2.559545320196e-04 -1.556841999541e-04 0.0 
-1.556841999541e-04 3.525396025730e-03 0.0 
0.0 0.0 0.0 
-2.527024303301e-04 -1.531833697809e-04 0.0 
-1.531833697809e-04 3.171463379130e-03 0.0 
0.0 0.0 0.0 
-2.452844554823e-04 -2.468941816174e-04 0.0 
-2.468941816174e-04 3.334352958758e-03 0.0 
0.0 0.0 0.0 
-2.457529281427e-04 -1.470885048489e-04 0.0 
-1.470885048489e-04 3.852034815609e-03 0.0 
0.0 0.0 0.0 
-2.466142567981e-04 -7.282665854237e-05 0.0 
-7.282665854237e-05 2.980675736444e-03 0.0 
0.0 0.0 0.0 
-2.357339843139e-04 -1.432211882573e-04 0.0 
-1.432211882573e-04 2.832546333810e-03 0.0 
0.0 0.0 0.0 
5.028184736468e-04 -1.167763656076e-05 0.0 
-1.167763656076e-05 4.290035233984e-05 0.0 
0.0 0.0 0.0 
3.475824394000e-04 -2.708782048812e-05 0.0 
-2.708782048812e-05 4.261452522457e-04 0.0 
0.0 0.0 0.0 
3.823259009220e-04 -2.877237671664e-07 0.0 
-2.877237671664e-07 3.782070446674e-04 0.0 
0.0 0.0 0.0 
1.991525144225e-04 -3.818491843101e-05 0.0 
-3.818491843101e-05 8.426534753384e-04 0.0 
0.0 0.0 0.0 
1.934293116316e-04 -6.294851074493e-05 0.0 
-6.294851074493e-05 8.337886374682e-04 0.0 
0.0 0.0 0.0 
3.323187891386e-04 -3.823775737460e-05 0.0 
-3.823775737460e-05 4.347230818539e-04 0.0 
0.0 0.0 0.0 
2.984938855208e-04 -4.864761603625e-05 0.0 
-4.864761603625e-05 4.490343624911e-04 0.0 
0.0 0.0 0.0 
4.683282003480e-04 -2.091531621416e-05 0.0 
-2.091531621416e-05 5.746005002349e-05 0.0 
0.0 0.0 0.0 
2.538153991282e-04 -6.753946281837e-05 0.0 
-6.753946281837e-05 4.699922561570e-04 0.0 
0.0 0.0 0.0 
1.086957782583e-04 -1.206772424908e-04 0.0 
-1.206772424908e-04 8.820222019994e-04 0.0 
0.0 0.0 0.0 
4.478230293239e-04 -2.931321857442e-05 0.0 
-2.931321857442e-05 5.694267536197e-05 0.0 
0.0 0.0 0.0 
-3.724484392140e-04 2.370776762487e-05 0.0 
2.370776762487e-05 9.522034902949e-03 0.0 
0.0 0.0 0.0 
-3.406519746580e-04 5.748014835299e-05 0.0 
5.748014835299e-05 9.728652456512e-03 0.0 
0.0 0.0 0.0 
1.420261050689e-04 1.325036567385e-04 0.0 
1.325036567385e-04 7.008962184382e-03 0.0 
0.0 0.0 0.0 
-6.350830055094e-04 7.103670578513e-05 0.0 
7.103670578513e-05 7.714909671943e-03 0.0 
0.0 0.0 0.0 
1.164465431832e-04 -1.135778397261e-04 0.0 
-1.135778397261e-04 1.920932032706e-04 0.0 
0.0 0.0 0.0 
-1.129618759950e-04 2.259076444907e-04 0.0 
2.259076444907e-04 1.078886020130e-02 0.0 
0.0 0.0 0.0 
-1.126103779732e-04 4.079978569048e-04 0.0 
4.079978569048e-04 1.079615569698e-02 0.0 
0.0 0.0 0.0 
-1.004051476582e-04 3.505019815160e-04 0.0 
3.505019815160e-04 1.082238582642e-02 0.0 
0.0 0.0 0.0 
-8.786385276277e-05 -2.308228952835e-05 0.0 
-2.308228952835e-05 6.767256406750e-03 0.0 
0.0 0.0 0.0 
-6.544565152513e-05 -4.184779246103e-05 0.0 
-4.184779246103e-05 6.951767097232e-03 0.0 
0.0 0.0 0.0 
-1.017611464722e-04 1.286162958275e-04 0.0 
1.286162958275e-04 1.081392080085e-02 0.0 
0.0 0.0 0.0 
-2.014178314969e-04 -9.051791970199e-04 0.0 
-9.051791970199e-04 2.189954626997e-03 0.0 
0.0 0.0 0.0 
-3.440651978504e-04 1.053628956073e-03 0.0 
1.053628956073e-03 9.906261277329e-03 0.0 
0.0 0.0 0.0 
-2.834804639254e-04 2.263209742776e-04 0.0 
2.263209742776e-04 1.017437531307e-02 0.0 
0.0 0.0 0.0 
1.794644508048e-03 2.531683563745e-03 0.0 
2.531683563745e-03 -1.835804340854e-03 0.0 
0.0 0.0 0.0 
3.231340939569e-05 -1.465182663938e-03 0.0 
-1.465182663938e-03 1.540217260527e-03 0.0 
0.0 0.0 0.0 
-1.040200068029e-04 -1.395338921421e-04 0.0 
-1.395338921421e-04 5.507871340920e-03 0.0 
0.0 0.0 0.0 
2.172159850857e-04 -4.029760163577e-04 0.0 
-4.029760163577e-04 4.612682432948e-03 0.0 
0.0 0.0 0.0 
-6.186475298986e-06 -1.228226657374e-04 0.0 
-1.228226657374e-04 6.254092312524e-03 0.0 
0.0 0.0 0.0 
-2.043539048926e-05 -2.679717696580e-04 0.0 
-2.679717696580e-04 5.037612035220e-03 0.0 
0.0 0.0 0.0 
1.126529105208e-04 -1.898942854023e-04 0.0 
-1.898942854023e-04 5.741597571069e-03 0.0 
0.0 0.0 0.0 
4.436816694086e-04 5.827588118110e-04 0.0 
5.827588118110e-04 6.450036049471e-03 0.0 
0.0 0.0 0.0 
-2.518774522396e-05 -1.394231108034e-04 0.0 
-1.394231108034e-04 1.519213136554e-03 0.0 
0.0 0.0 0.0 
-5.645890677172e-04 1.817827674566e-04 0.0 
1.817827674566e-04 8.798611824328e-03 0.0 
0.0 0.0 0.0 
-5.185889703973e-04 9.750130802890e-05 0.0 
9.750130802890e-05 8.659332495013e-03 0.0 
0.0 0.0 0.0 
-4.163213992953e-04 2.108210704436e-04 0.0 
2.108210704436e-04 9.604983559095e-03 0.0 
0.0 0.0 0.0 
-2.333545035603e-04 -5.044379237714e-04 0.0 
-5.044379237714e-04 2.529431692924e-03 0.0 
0.0 0.0 0.0 
-1.881125689794e-04 -2.817344127247e-04 0.0 
-2.817344127247e-04 4.027040216375e-03 0.0 
0.0 0.0 0.0 
-2.310903371133e-04 -4.464208560211e-04 0.0 
-4.464208560211e-04 1.635607256470e-03 0.0 
0.0 0.0 0.0 
-3.568471476260e-05 1.586771626988e-03 0.0 
1.586771626988e-03 8.573923529286e-03 0.0 
0.0 0.0 0.0 
-8.137490130962e-04 1.125721775799e-03 0.0 
1.125721775799e-03 6.898186285379e-03 0.0 
0.0 0.0 0.0 
9.181024890171e-04 -6.898679394594e-04 0.0 
-6.898679394594e-04 2.846340127889e-03 0.0 
0.0 0.0 0.0 
-5.647577649287e-05 -7.209502883172e-04 0.0 
-7.209502883172e-04 3.061543962117e-03 0.0 
0.0 0.0 0.0 
-7.211871590194e-05 -1.065170300353e-03 0.0 
-1.065170300353e-03 2.198541217973e-03 0.0 
0.0 0.0 0.0 
1.251399729789e-04 -1.707174330390e-03 0.0 
-1.707174330390e-03 1.110071868933e-03 0.0 
0.0 0.0 0.0 
3.050957218957e-04 2.036676982100e-03 0.0 
2.036676982100e-03 4.227961416445e-03 0.0 
0.0 0.0 0.0 
3.967239375523e-04 -8.110649907892e-04 0.0 
-8.110649907892e-04 3.165430862813e-03 0.0 
0.0 0.0 0.0 
4.906393557116e-04 -2.163108466549e-04 0.0 
-2.163108466549e-04 4.989835416657e-03 0.0 
0.0 0.0 0.0 
-3.631795904050e-04 1.948284942282e-04 0.0 
1.948284942282e-04 9.812593855723e-03 0.0 
0.0 0.0 0.0 
2.992249298508e-04 -5.513893360510e-05 0.0 
-5.513893360510e-05 1.589712891584e-04 0.0 
0.0 0.0 0.0 
5.516375040994e-04 -1.143872497437e-04 0.0 
-1.143872497437e-04 5.153830918709e-03 0.0 
0.0 0.0 0.0 
4.458102067343e-04 -5.410154914080e-04 0.0 
-5.410154914080e-04 3.971522337982e-03 0.0 
0.0 0.0 0.0 
-6.250786483916e-04 3.042979684659e-04 0.0 
3.042979684659e-04 8.912844522370e-03 0.0 
0.0 0.0 0.0 
9.541237738116e-04 9.184325782475e-04 0.0 
9.184325782475e-04 5.110140900841e-03 0.0 
0.0 0.0 0.0 
1.567278749662e-04 -2.288011664392e-03 0.0 
-2.288011664392e-03 -2.579665218425e-04 0.0 
0.0 0.0 0.0 
-4.468509437215e-04 3.460977349562e-04 0.0 
3.460977349562e-04 9.708228495458e-03 0.0 
0.0 0.0 0.0 
-3.375266027356e-04 6.692620969738e-04 0.0 
6.692620969738e-04 1.018707194751e-02 0.0 
0.0 0.0 0.0 
-7.187292313804e-04 3.074353777064e-04 0.0 
3.074353777064e-04 8.460675959836e-03 0.0 
0.0 0.0 0.0 
-1.386998010633e-04 -3.209823595804e-04 0.0 
-3.209823595804e-04 1.238798525999e-03 0.0 
0.0 0.0 0.0 
-5.955350229815e-04 1.311417725778e-04 0.0 
1.311417725778e-04 8.397591951903e-03 0.0 
0.0 0.0 0.0 
4.397047090637e-04 2.022300990041e-04 0.0 
2.022300990041e-04 6.117570934568e-03 0.0 
0.0 0.0 0.0 
-5.890817057928e-04 6.505155499176e-04 0.0 
6.505155499176e-04 9.422561021749e-03 0.0 
0.0 0.0 0.0 
-2.256912380198e-04 -3.786429545270e-04 0.0 
-3.786429545270e-04 2.365320791009e-03 0.0 
0.0 0.0 0.0 
1.629265089081e-03 4.245416216296e-04 0.0 
4.245416216296e-04 2.411706007495e-03 0.0 
0.0 0.0 0.0 
-3.457088657914e-04 1.718855837909e-03 0.0 
1.718855837909e-03 5.712331033451e-03 0.0 
0.0 0.0 0.0 
-8.971148149596e-04 4.020557783756e-04 0.0 
4.020557783756e-04 7.127180923292e-03 0.0 
0.0 0.0 0.0 
-2.555868660452e-04 2.811871928110e-04 0.0 
2.811871928110e-04 1.031623206901e-02 0.0 
0.0 0.0 0.0 
8.402344492370e-04 1.671839239754e-03 0.0 
1.671839239754e-03 4.105303428086e-03 0.0 
0.0 0.0 0.0 
8.467032256186e-04 6.807201933163e-04 0.0 
6.807201933163e-04 5.410495213779e-03 0.0 
0.0 0.0 0.0 
1.333287745943e-03 5.226315906563e-04 0.0 
5.226315906563e-04 3.649717474360e-03 0.0 
0.0 0.0 0.0 
-2.262887067780e-04 -3.005811671452e-04 0.0 
-3.005811671452e-04 2.556780190500e-03 0.0 
0.0 0.0 0.0 
3.075024328257e-04 -1.178815608647e-04 0.0 
-1.178815608647e-04 5.777815802196e-03 0.0 
0.0 0.0 0.0 
1.468867640332e-03 1.222327722679e-03 0.0 
1.222327722679e-03 2.723475087412e-03 0.0 
0.0 0.0 0.0 
-3.606529239439e-04 3.983521166474e-04 0.0 
3.983521166474e-04 1.006021840807e-02 0.0 
0.0 0.0 0.0 
-1.821558187799e-04 1.475607144631e-03 0.0 
1.475607144631e-03 7.409405811293e-03 0.0 
0.0 0.0 0.0 
1.987016278473e-03 6.977097033653e-04 0.0 
6.977097033653e-04 8.495867858155e-04 0.0 
0.0 0.0 0.0 
-4.761061755369e-04 5.177973429405e-04 0.0 
5.177973429405e-04 9.765433195301e-03 0.0 
0.0 0.0 0.0 
1.260856423373e-03 -4.678369172628e-04 0.0 
-4.678369172628e-04 2.529129826329e-03 0.0 
0.0 0.0 0.0 
8.110310747501e-04 1.061885295735e-03 0.0 
1.061885295735e-03 5.587680696716e-03 0.0 
0.0 0.0 0.0 
-7.839386593717e-04 1.254365847456e-03 0.0 
1.254365847456e-03 6.544307705979e-03 0.0 
0.0 0.0 0.0 
-2.978507226963e-04 1.512272281723e-03 0.0 
1.512272281723e-03 6.760021607219e-03 0.0 
0.0 0.0 0.0 
-6.028481721970e-04 1.171054755486e-03 0.0 
1.171054755486e-03 8.078536173591e-03 0.0 
0.0 0.0 0.0 
1.902396115910e-04 1.712690846457e-03 0.0 
1.712690846457e-03 5.531951209958e-03 0.0 
0.0 0.0 0.0 
-1.455616045994e-04 -1.047618081231e-04 0.0 
-1.047618081231e-04 5.335395686957e-03 0.0 
0.0 0.0 0.0 
4.223546748253e-04 -1.175354804489e-04 0.0 
-1.175354804489e-04 5.470935957933e-03 0.0 
0.0 0.0 0.0 
2.501354693239e-03 -8.922879075269e-04 0.0 
-8.922879075269e-04 -3.454236227538e-03 0.0 
0.0 0.0 0.0 
9.655376213996e-05 2.346540327008e-03 0.0 
2.346540327008e-03 3.637653595775e-03 0.0 
0.0 0.0 0.0 
-6.784063679949e-04 3.851328326926e-04 0.0 
3.851328326926e-04 8.837956210181e-03 0.0 
0.0 0.0 0.0 
8.363868166030e-05 1.519240574518e-03 0.0 
1.519240574518e-03 7.562852049364e-03 0.0 
0.0 0.0 0.0 
-2.589121672597e-04 4.464485477595e-04 0.0 
4.464485477595e-04 1.039770772923e-02 0.0 
0.0 0.0 0.0 
-4.538804792379e-04 1.767186246531e-03 0.0 
1.767186246531e-03 5.474504826526e-03 0.0 
0.0 0.0 0.0 
2.588371751673e-04 -1.803979915444e-04 0.0 
-1.803979915444e-04 5.609961813287e-03 0.0 
0.0 0.0 0.0 
-3.737135625017e-04 5.817249011178e-04 0.0 
5.817249011178e-04 1.009200997696e-02 0.0 
0.0 0.0 0.0 
2.794318313718e-04 -7.056142512336e-04 0.0 
-7.056142512336e-04 3.508756982597e-03 0.0 
0.0 0.0 0.0 
-6.673760584408e-05 -4.760096587921e-05 0.0 
-4.760096587921e-05 1.781052810356e-03 0.0 
0.0 0.0 0.0 
1.426739072465e-03 2.728767914822e-03 0.0 
2.728767914822e-03 -2.102571679043e-03 0.0 
0.0 0.0 0.0 
2.309992315586e-03 7.550044342199e-04 0.0 
7.550044342199e-04 -7.059119716119e-04 0.0 
0.0 0.0 0.0 
1.085796684810e-03 1.614071634002e-03 0.0 
1.614071634002e-03 3.453631711417e-03 0.0 
0.0 0.0 0.0 
3.116363266082e-04 -5.880097393001e-04 0.0 
-5.880097393001e-04 3.896159466967e-03 0.0 
0.0 0.0 0.0 
-3.025892050874e-04 9.283115621435e-04 0.0 
9.283115621435e-04 1.014414550610e-02 0.0 
0.0 0.0 0.0 
1.675851544418e-04 -1.572085202275e-04 0.0 
-1.572085202275e-04 5.898369460087e-03 0.0 
0.0 0.0 0.0 
8.647112104028e-04 8.392464773848e-05 0.0 
8.392464773848e-05 4.724953263680e-03 0.0 
0.0 0.0 0.0 
-1.056382595169e-03 2.807480483469e-03 0.0 
2.807480483469e-03 6.104954422075e-04 0.0 
0.0 0.0 0.0 
-9.191011513866e-04 5.446650668068e-04 0.0 
5.446650668068e-04 7.200532851948e-03 0.0 
0.0 0.0 0.0 
9.229676425341e-05 -1.343890788588e-04 0.0 
-1.343890788588e-04 6.174423157547e-03 0.0 
0.0 0.0 0.0 
1.531874827125e-03 2.074126709526e-04 0.0 
2.074126709526e-04 2.660877539971e-03 0.0 
0.0 0.0 0.0 
7.914255449797e-04 9.431726211289e-04 0.0 
9.431726211289e-04 5.667248313717e-03 0.0 
0.0 0.0 0.0 
-2.168724917264e-04 -1.170488027937e-04 0.0 
-1.170488027937e-04 4.384597657432e-03 0.0 
0.0 0.0 0.0 
2.639690198978e-05 1.587998903108e-03 0.0 
1.587998903108e-03 8.311818667804e-03 0.0 
0.0 0.0 0.0 
-9.662007510815e-04 8.658640024754e-04 0.0 
8.658640024754e-04 6.159495093896e-03 0.0 
0.0 0.0 0.0 
3.215611534594e-05 -1.139977386514e-04 0.0 
-1.139977386514e-04 6.442076488319e-03 0.0 
0.0 0.0 0.0 
9.846189258619e-04 3.352759430161e-04 0.0 
3.352759430161e-04 4.709686046457e-03 0.0 
0.0 0.0 0.0 
1.171258453434e-03 2.375173585372e-03 0.0 
2.375173585372e-03 1.409499267347e-03 0.0 
0.0 0.0 0.0 
-5.261716164299e-04 1.030561641640e-05 0.0 
1.030561641640e-05 7.645784152425e-03 0.0 
0.0 0.0 0.0 
1.466840023475e-05 -8.560897762352e-05 0.0 
-8.560897762352e-05 6.935585565725e-03 0.0 
0.0 0.0 0.0 
8.168275468963e-04 4.172848938764e-04 0.0 
4.172848938764e-04 5.291912963863e-03 0.0 
0.0 0.0 0.0 
2.161909433184e-04 1.630102976033e-03 0.0 
1.630102976033e-03 5.895469024381e-03 0.0 
0.0 0.0 0.0 
1.525275495562e-03 -8.038300678255e-05 0.0 
-8.038300678255e-05 2.351560166077e-03 0.0 
0.0 0.0 0.0 
-9.267538032301e-04 4.819907112671e-04 0.0 
4.819907112671e-04 6.656015146629e-03 0.0 
0.0 0.0 0.0 
2.065696603484e-04 -5.020473725886e-04 0.0 
-5.020473725886e-04 4.211386312396e-03 0.0 
0.0 0.0 0.0 
-3.895958156846e-04 1.421777464717e-03 0.0 
1.421777464717e-03 7.208697755210e-03 0.0 
0.0 0.0 0.0 
-1.347063304444e-04 7.950407812351e-04 0.0 
7.950407812351e-04 1.061092162669e-02 0.0 
0.0 0.0 0.0 
7.446773813361e-04 5.753660703942e-04 0.0 
5.753660703942e-04 5.609823303437e-03 0.0 
0.0 0.0 0.0 
-7.493038229393e-04 7.206415905993e-04 0.0 
7.206415905993e-04 8.670154995269e-03 0.0 
0.0 0.0 0.0 
9.375015232542e-05 -5.043899440482e-04 0.0 
-5.043899440482e-04 4.121421489745e-03 0.0 
0.0 0.0 0.0 
8.509790523420e-04 1.343203688053e-03 0.0 
1.343203688053e-03 4.999520767423e-03 0.0 
0.0 0.0 0.0 
1.675218655277e-04 -8.433170257126e-05 0.0 
-8.433170257126e-05 8.444513318860e-04 0.0 
0.0 0.0 0.0 
-9.489309769778e-04 6.675650511079e-04 0.0 
6.675650511079e-04 6.698090958014e-03 0.0 
0.0 0.0 0.0 
2.101835544978e-05 -4.121176286164e-04 0.0 
-4.121176286164e-04 4.396716831597e-03 0.0 
0.0 0.0 0.0 
2.249876240043e-03 2.055577539745e-04 0.0 
2.055577539745e-04 -4.449446378362e-04 0.0 
0.0 0.0 0.0 
1.358479586188e-03 -2.195330867803e-04 0.0 
-2.195330867803e-04 2.704740615207e-03 0.0 
0.0 0.0 0.0 
3.769184347179e-04 1.326731939930e-03 0.0 
1.326731939930e-03 7.062274627153e-03 0.0 
0.0 0.0 0.0 
-3.860230713674e-05 -3.263020560121e-04 0.0 
-3.263020560121e-04 4.654445812599e-03 0.0 
0.0 0.0 0.0 
2.087883371965e-03 2.662105340928e-04 0.0 
2.662105340928e-04 3.369598043043e-04 0.0 
0.0 0.0 0.0 
-8.556320189492e-05 -2.472379853391e-04 0.0 
-2.472379853391e-04 4.895104606594e-03 0.0 
0.0 0.0 0.0 
-9.462445433262e-04 6.122711203214e-04 0.0 
6.122711203214e-04 6.182014026937e-03 0.0 
0.0 0.0 0.0 
-7.131155772191e-04 8.362706270884e-04 0.0 
8.362706270884e-04 8.720099461837e-03 0.0 
0.0 0.0 0.0 
-1.207409686403e-04 -1.743609452204e-04 0.0 
-1.743609452204e-04 5.121190935985e-03 0.0 
0.0 0.0 0.0 
-3.216392044241e-04 1.419804160122e-03 0.0 
1.419804160122e-03 7.521306814157e-03 0.0 
0.0 0.0 0.0 
3.329957063035e-05 -1.806803235532e-04 0.0 
-1.806803235532e-04 9.482642381347e-04 0.0 
0.0 0.0 0.0 
3.964063795826e-04 1.585459143480e-03 0.0 
1.585459143480e-03 5.731007935114e-03 0.0 
0.0 0.0 0.0 
-8.741473834885e-05 -5.127351954122e-05 0.0 
-5.127351954122e-05 6.533630149187e-03 0.0 
0.0 0.0 0.0 
3.623560241722e-04 -1.226406028617e-03 0.0 
-1.226406028617e-03 2.078711814328e-03 0.0 
0.0 0.0 0.0 
1.184320402247e-03 -3.054965212953e-04 0.0 
-3.054965212953e-04 3.073395623992e-03 0.0 
0.0 0.0 0.0 
-6.239546211773e-04 9.178335044970e-04 0.0 
9.178335044970e-04 9.035062162054e-03 0.0 
0.0 0.0 0.0 
-9.707339415009e-04 7.988435982431e-04 0.0 
7.988435982431e-04 5.697766069637e-03 0.0 
0.0 0.0 0.0 
1.092987456067e-03 -1.606383778863e-04 0.0 
-1.606383778863e-04 3.619119471252e-03 0.0 
0.0 0.0 0.0 
-2.610120062905e-04 1.428076095322e-03 0.0 
1.428076095322e-03 7.852021523518e-03 0.0 
0.0 0.0 0.0 
5.507931949839e-04 1.512360732393e-03 0.0 
1.512360732393e-03 5.609486403291e-03 0.0 
0.0 0.0 0.0 
1.018814647986e-03 1.499515848024e-03 0.0 
1.499515848024e-03 3.967249502487e-03 0.0 
0.0 0.0 0.0 
9.875300446393e-04 -3.053125382177e-05 0.0 
-3.053125382177e-05 4.169654702296e-03 0.0 
0.0 0.0 0.0 
-9.793625032396e-04 1.144988168808e-03 0.0 
1.144988168808e-03 5.579787016512e-03 0.0 
0.0 0.0 0.0 
-2.068767745883e-04 -1.070403498530e-03 0.0 
-1.070403498530e-03 1.940239101048e-03 0.0 
0.0 0.0 0.0 
-3.353821942038e-04 -1.011375396709e-03 0.0 
-1.011375396709e-03 1.696850307641e-03 0.0 
0.0 0.0 0.0 
1.947344999303e-03 -9.767682610352e-05 0.0 
-9.767682610352e-05 6.819217265553e-04 0.0 
0.0 0.0 0.0 
-3.145335547770e-04 1.386873859766e-03 0.0 
1.386873859766e-03 8.270392619689e-03 0.0 
0.0 0.0 0.0 
6.863327161967e-05 -8.038462621168e-05 0.0 
-8.038462621168e-05 1.234829414733e-03 0.0 
0.0 0.0 0.0 
-5.948199327799e-04 1.067453538517e-03 0.0 
1.067453538517e-03 8.742650395359e-03 0.0 
0.0 0.0 0.0 
-5.034555215310e-04 -1.004701942230e-03 0.0 
-1.004701942230e-03 1.255434090220e-03 0.0 
0.0 0.0 0.0 
1.860588791528e-03 -5.441617848670e-04 0.0 
-5.441617848670e-04 4.306157377942e-04 0.0 
0.0 0.0 0.0 
5.845675197070e-04 1.378437438188e-03 0.0 
1.378437438188e-03 6.046467784656e-03 0.0 
0.0 0.0 0.0 
-4.638704399248e-04 9.780264720192e-06 0.0 
9.780264720192e-06 8.767291689256e-03 0.0 
0.0 0.0 0.0 
1.612021197117e-03 -7.463953724114e-04 0.0 
-7.463953724114e-04 9.362673568974e-04 0.0 
0.0 0.0 0.0 
-1.533232304843e-04 -5.642758230231e-05 0.0 
-5.642758230231e-05 2.201522409980e-03 0.0 
0.0 0.0 0.0 
1.378850981046e-03 -1.088256853598e-03 0.0 
-1.088256853598e-03 9.022342701805e-04 0.0 
0.0 0.0 0.0 
9.404453393179e-04 1.409202364013e-03 0.0 
1.409202364013e-03 4.480891043135e-03 0.0 
0.0 0.0 0.0 
1.121035853906e-03 -1.112567854581e-03 0.0 
-1.112567854581e-03 1.441977772558e-03 0.0 
0.0 0.0 0.0 
8.288710266691e-04 -1.292701650665e-03 0.0 
-1.292701650665e-03 1.521877449336e-03 0.0 
0.0 0.0 0.0 
-1.942948811680e-04 2.537592113659e-04 0.0 
2.537592113659e-04 1.052066361073e-02 0.0 
0.0 0.0 0.0 
6.289058517938e-04 -1.192043135195e-03 0.0 
-1.192043135195e-03 1.997162815045e-03 0.0 
0.0 0.0 0.0 
-8.337623557506e-05 7.253954898387e-05 0.0 
7.253954898387e-05 1.087711556098e-02 0.0 
0.0 0.0 0.0 
-3.481600050107e-05 -3.866090067289e-05 0.0 
-3.866090067289e-05 7.404455185943e-03 0.0 
0.0 0.0 0.0 
-5.118743411290e-04 2.432629502062e-06 0.0 
2.432629502062e-06 7.961591820580e-03 0.0 
0.0 0.0 0.0 
-9.804491292206e-04 9.765013060728e-04 0.0 
9.765013060728e-04 5.209317809196e-03 0.0 
0.0 0.0 0.0 
-1.106286048803e-03 1.070661985815e-04 0.0 
1.070661985815e-04 -4.187851736912e-03 0.0 
0.0 0.0 0.0 
-9.959123749121e-04 1.657948244811e-03 0.0 
1.657948244811e-03 4.857941701328e-03 0.0 
0.0 0.0 0.0 
2.193585886675e-04 -1.362378789103e-03 0.0 
-1.362378789103e-03 1.783771405839e-03 0.0 
0.0 0.0 0.0 
-5.186053362085e-04 1.219744802894e-03 0.0 
1.219744802894e-03 8.376339879015e-03 0.0 
0.0 0.0 0.0 
-5.149689995954e-04 1.810120092557e-05 0.0 
1.810120092557e-05 7.979439268667e-03 0.0 
0.0 0.0 0.0 
-3.225638118472e-05 -1.252769883864e-03 0.0 
-1.252769883864e-03 1.893436741116e-03 0.0 
0.0 0.0 0.0 
-2.508534393446e-04 1.318531302825e-03 0.0 
1.318531302825e-03 9.626670532050e-03 0.0 
0.0 0.0 0.0 
6.586529912874e-05 1.626255276850e-03 0.0 
1.626255276850e-03 8.326344944185e-03 0.0 
0.0 0.0 0.0 
-4.018113770261e-04 4.879600087070e-05 0.0 
4.879600087070e-05 9.337120328928e-03 0.0 
0.0 0.0 0.0 
7.332235545386e-04 8.376502795491e-04 0.0 
8.376502795491e-04 5.785841436018e-03 0.0 
0.0 0.0 0.0 
6.695432285161e-04 1.414932547957e-03 0.0 
1.414932547957e-03 5.545406293317e-03 0.0 
0.0 0.0 0.0 
-2.439307116889e-04 3.393844537957e-05 0.0 
3.393844537957e-05 1.022658997153e-02 0.0 
0.0 0.0 0.0 
-5.698334157990e-04 2.147431802279e-05 0.0 
2.147431802279e-05 7.626107746456e-03 0.0 
0.0 0.0 0.0 
-3.010677251774e-04 -4.234504514614e-04 0.0 
-4.234504514614e-04 6.051527686403e-04 0.0 
0.0 0.0 0.0 
-1.527580999281e-04 -4.652641576291e-05 0.0 
-4.652641576291e-05 5.559392372668e-03 0.0 
0.0 0.0 0.0 
-1.092809885372e-03 1.324731104357e-03 0.0 
1.324731104357e-03 4.708480529190e-03 0.0 
0.0 0.0 0.0 
-9.707852530812e-04 2.277926295589e-03 0.0 
2.277926295589e-03 3.867756506575e-03 0.0 
0.0 0.0 0.0 
-7.145610861655e-04 2.814780219567e-03 0.0 
2.814780219567e-03 2.269361112077e-03 0.0 
0.0 0.0 0.0 
-2.325998258061e-04 -2.209030705782e-04 0.0 
-2.209030705782e-04 2.710898537477e-03 0.0 
0.0 0.0 0.0 
-6.046188128444e-04 -1.756951964796e-03 0.0 
-1.756951964796e-03 3.874156546309e-04 0.0 
0.0 0.0 0.0 
-1.225748272164e-03 1.980854051113e-03 0.0 
1.980854051113e-03 3.918836513492e-03 0.0 
0.0 0.0 0.0 
4.366105315247e-04 9.952328218306e-04 0.0 
9.952328218306e-04 6.694240921520e-03 0.0 
0.0 0.0 0.0 
-6.528884798484e-04 1.198558549409e-04 0.0 
1.198558549409e-04 8.001859976849e-03 0.0 
0.0 0.0 0.0 
4.301246293713e-04 1.430692166659e-03 0.0 
1.430692166659e-03 6.538022023564e-03 0.0 
0.0 0.0 0.0 
-1.145601330221e-03 2.546338627384e-03 0.0 
2.546338627384e-03 2.355207257748e-03 0.0 
0.0 0.0 0.0 
-2.583845064207e-04 6.392190282444e-04 0.0 
6.392190282444e-04 1.039753295661e-02 0.0 
0.0 0.0 0.0 
2.330109467636e-04 1.476826333091e-03 0.0 
1.476826333091e-03 7.544558241199e-03 0.0 
0.0 0.0 0.0 
7.469863211625e-05 -7.219859290943e-06 0.0 
-7.219859290943e-06 7.160484833675e-03 0.0 
0.0 0.0 0.0 
3.478452859004e-04 1.433123953219e-03 0.0 
1.433123953219e-03 7.011069788161e-03 0.0 
0.0 0.0 0.0 
-3.282362173579e-04 3.086607793706e-03 0.0 
3.086607793706e-03 3.158580968991e-04 0.0 
0.0 0.0 0.0 
-7.542109645568e-04 3.187420241902e-04 0.0 
3.187420241902e-04 8.285451922963e-03 0.0 
0.0 0.0 0.0 
-9.471666539851e-05 1.560363644480e-03 0.0 
1.560363644480e-03 8.811757936834e-03 0.0 
0.0 0.0 0.0 
-3.655372106545e-04 8.464685699851e-05 0.0 
8.464685699851e-05 9.637777770105e-03 0.0 
0.0 0.0 0.0 
3.452582387262e-05 -5.065980823132e-05 0.0 
-5.065980823132e-05 7.279602170697e-03 0.0 
0.0 0.0 0.0 
-7.131502448147e-04 1.785873012360e-04 0.0 
1.785873012360e-04 7.942423823602e-03 0.0 
0.0 0.0 0.0 
-1.644489234219e-04 1.677622830873e-04 0.0 
1.677622830873e-04 1.058237782785e-02 0.0 
0.0 0.0 0.0 
1.955665099190e-03 -1.728934505639e-03 0.0 
-1.728934505639e-03 -3.136399993242e-03 0.0 
0.0 0.0 0.0 
-1.552872439290e-04 8.802689872336e-05 0.0 
8.802689872336e-05 1.059449148793e-02 0.0 
0.0 0.0 0.0 
-4.310236915550e-04 1.272583471108e-03 0.0 
1.272583471108e-03 8.688165890297e-03 0.0 
0.0 0.0 0.0 
-5.167364173212e-04 7.143490245404e-05 0.0 
7.143490245404e-05 8.484370952378e-03 0.0 
0.0 0.0 0.0 
-8.112420798715e-04 4.404193618276e-04 0.0 
4.404193618276e-04 8.197699162720e-03 0.0 
0.0 0.0 0.0 
-4.150462217926e-05 -5.542436220844e-05 0.0 
-5.542436220844e-05 7.118686491289e-03 0.0 
0.0 0.0 0.0 
-2.850004970932e-04 1.141281986033e-03 0.0 
1.141281986033e-03 9.924294968136e-03 0.0 
0.0 0.0 0.0 
-3.941415189363e-05 3.119205929853e-03 0.0 
3.119205929853e-03 -1.007788720443e-03 0.0 
0.0 0.0 0.0 
-4.128910142423e-04 8.003652773500e-05 0.0 
8.003652773500e-05 9.315702677704e-03 0.0 
0.0 0.0 0.0 
-2.279462070236e-04 -3.413075198196e-04 0.0 
-3.413075198196e-04 3.299244375449e-03 0.0 
0.0 0.0 0.0 
5.508409777034e-04 -1.631496428049e-03 0.0 
-1.631496428049e-03 -3.966191729731e-03 0.0 
0.0 0.0 0.0 
2.313789705083e-04 8.805424443004e-05 0.0 
8.805424443004e-05 6.620772938698e-03 0.0 
0.0 0.0 0.0 
-3.393452138384e-04 1.327600894417e-03 0.0 
1.327600894417e-03 8.990817561895e-03 0.0 
0.0 0.0 0.0 
-1.546599597742e-05 -7.400675117760e-05 0.0 
-7.400675117760e-05 7.033493668893e-03 0.0 
0.0 0.0 0.0 
2.185511679440e-04 -6.735852645786e-06 0.0 
-6.735852645786e-06 8.212553619394e-04 0.0 
0.0 0.0 0.0 
9.307444310447e-06 -1.642111566206e-04 0.0 
-1.642111566206e-04 4.967053750766e-04 0.0 
0.0 0.0 0.0 
3.011858890685e-04 2.484084454913e-04 0.0 
2.484084454913e-04 6.603532657273e-03 0.0 
0.0 0.0 0.0 
-1.865307302371e-04 1.464641428339e-03 0.0 
1.464641428339e-03 9.317287970241e-03 0.0 
0.0 0.0 0.0 
1.396191672725e-03 -2.177832230128e-03 0.0 
-2.177832230128e-03 -1.952346710131e-03 0.0 
0.0 0.0 0.0 
-1.042736199718e-04 5.579007522295e-04 0.0 
5.579007522295e-04 1.079615569128e-02 0.0 
0.0 0.0 0.0 
-1.939280279506e-04 2.922075707674e-03 0.0 
2.922075707674e-03 -2.160831771209e-03 0.0 
0.0 0.0 0.0 
-6.083344749429e-04 4.701275563126e-05 0.0 
4.701275563126e-05 7.587792771437e-03 0.0 
0.0 0.0 0.0 
2.150517680113e-04 -9.210096723652e-05 0.0 
-9.210096723652e-05 4.577526161179e-04 0.0 
0.0 0.0 0.0 
1.428205541534e-05 -8.672077444183e-05 0.0 
-8.672077444183e-05 7.339057123255e-03 0.0 
0.0 0.0 0.0 
-2.026283131446e-04 4.150088421839e-04 0.0 
4.150088421839e-04 1.054162972318e-02 0.0 
0.0 0.0 0.0 
-2.422499090870e-04 -2.126346357461e-04 0.0 
-2.126346357461e-04 3.670683273443e-03 0.0 
0.0 0.0 0.0 
-8.291675753464e-04 3.073033639133e-04 0.0 
3.073033639133e-04 7.612694210080e-03 0.0 
0.0 0.0 0.0 
-1.993886676793e-04 -1.299453463649e-04 0.0 
-1.299453463649e-04 2.472549614316e-03 0.0 
0.0 0.0 0.0 
7.916874430642e-05 1.554456780435e-03 0.0 
1.554456780435e-03 7.877927794467e-03 0.0 
0.0 0.0 0.0 
-5.555860013151e-04 -8.437885359836e-04 0.0 
-8.437885359836e-04 8.646490278462e-04 0.0 
0.0 0.0 0.0 
-1.768219936029e-04 3.022008300220e-04 0.0 
3.022008300220e-04 1.060520534247e-02 0.0 
0.0 0.0 0.0 
3.615045409219e-04 4.708880746433e-04 0.0 
4.708880746433e-04 6.595951697297e-03 0.0 
0.0 0.0 0.0 
-2.586748868812e-04 8.726447582751e-04 0.0 
8.726447582751e-04 1.030212112500e-02 0.0 
0.0 0.0 0.0 
1.578535257765e-04 1.303935339429e-03 0.0 
1.303935339429e-03 7.611684071555e-03 0.0 
0.0 0.0 0.0 
4.506396573441e-04 9.351710147222e-04 0.0 
9.351710147222e-04 -4.450492243883e-03 0.0 
0.0 0.0 0.0 
1.453292776162e-04 1.549168488448e-03 0.0 
1.549168488448e-03 7.892734078097e-03 0.0 
0.0 0.0 0.0 
5.885337793054e-04 6.352478789980e-04 0.0 
6.352478789980e-04 6.098450905827e-03 0.0 
0.0 0.0 0.0 
-5.485287251906e-04 2.501488241521e-05 0.0 
2.501488241521e-05 7.618251312513e-03 0.0 
0.0 0.0 0.0 
-2.779566850250e-04 1.020447906930e-03 0.0 
1.020447906930e-03 1.010094207157e-02 0.0 
0.0 0.0 0.0 
-2.472653734776e-04 -2.185059783689e-04 0.0 
-2.185059783689e-04 3.016001484497e-03 0.0 
0.0 0.0 0.0 
-2.308580144343e-05 -2.061496570616e-04 0.0 
-2.061496570616e-04 1.242338242678e-03 0.0 
0.0 0.0 0.0 
-6.679588028478e-05 3.313618876532e-05 0.0 
3.313618876532e-05 1.091720704190e-02 0.0 
0.0 0.0 0.0 
5.795750074476e-04 8.635511379914e-06 0.0 
8.635511379914e-06 -5.545365502730e-05 0.0 
0.0 0.0 0.0 
-5.201878201571e-04 -1.024110693393e-06 0.0 
-1.024110693393e-06 7.585545807860e-03 0.0 
0.0 0.0 0.0 
-3.062761965722e-05 -1.160760123500e-05 0.0 
-1.160760123500e-05 7.502567322647e-03 0.0 
0.0 0.0 0.0 
8.006720242038e-05 -1.044074462514e-04 0.0 
-1.044074462514e-04 1.145779257899e-03 0.0 
0.0 0.0 0.0 
-5.009301617497e-04 1.624417030828e-05 0.0 
1.624417030828e-05 8.264376352576e-03 0.0 
0.0 0.0 0.0 
-2.096824387480e-04 1.401503405073e-03 0.0 
1.401503405073e-03 9.513138234500e-03 0.0 
0.0 0.0 0.0 
-2.245765680610e-04 -5.060736725199e-05 0.0 
-5.060736725199e-05 4.493228412576e-03 0.0 
0.0 0.0 0.0 
-2.863059118649e-04 5.327689016047e-05 0.0 
5.327689016047e-05 1.001502196619e-02 0.0 
0.0 0.0 0.0 
-2.233674750438e-04 -2.200828717704e-03 0.0 
-2.200828717704e-03 -1.049795324880e-04 0.0 
0.0 0.0 0.0 
-1.311623388725e-03 -6.189317796654e-04 0.0 
-6.189317796654e-04 -4.074831679347e-03 0.0 
0.0 0.0 0.0 
-4.453449956847e-04 2.953875762748e-05 0.0 
2.953875762748e-05 8.976933698325e-03 0.0 
0.0 0.0 0.0 
2.654953695616e-04 1.419675643273e-03 0.0 
1.419675643273e-03 7.419314058325e-03 0.0 
0.0 0.0 0.0 
-2.359163304396e-04 7.166673273631e-04 0.0 
7.166673273631e-04 1.044178121941e-02 0.0 
0.0 0.0 0.0 
-4.927219329245e-04 7.250444225969e-05 0.0 
7.250444225969e-05 8.703640534110e-03 0.0 
0.0 0.0 0.0 
9.019069727867e-04 2.899729704295e-03 0.0 
2.899729704295e-03 -1.931695628319e-03 0.0 
0.0 0.0 0.0 
-2.641477223649e-04 1.388067412868e-03 0.0 
1.388067412868e-03 9.232412569806e-03 0.0 
0.0 0.0 0.0 
-2.229112828087e-04 -2.148160418760e-04 0.0 
-2.148160418760e-04 3.934617163948e-03 0.0 
0.0 0.0 0.0 
-9.116467660140e-05 1.539463425271e-03 0.0 
1.539463425271e-03 8.442536272238e-03 0.0 
0.0 0.0 0.0 
5.778749027140e-04 8.834741947085e-04 0.0 
8.834741947085e-04 6.262859905021e-03 0.0 
0.0 0.0 0.0 
-1.167851988665e-03 2.881888812560e-03 0.0 
2.881888812560e-03 -1.599516857434e-03 0.0 
0.0 0.0 0.0 
-2.053919219635e-04 -3.802494218257e-05 0.0 
-3.802494218257e-05 4.815669183455e-03 0.0 
0.0 0.0 0.0 
1.813768974024e-04 -1.083609139731e-04 0.0 
-1.083609139731e-04 4.297730361547e-04 0.0 
0.0 0.0 0.0 
1.052515980171e-04 -4.049782251072e-05 0.0 
-4.049782251072e-05 6.887287834978e-03 0.0 
0.0 0.0 0.0 
-2.305528988872e-04 -1.472852391195e-04 0.0 
-1.472852391195e-04 4.116337392988e-03 0.0 
0.0 0.0 0.0 
-8.516417640179e-04 6.419598643317e-04 0.0 
6.419598643317e-04 4.523002850178e-03 0.0 
0.0 0.0 0.0 
-4.565961514353e-04 5.573491750354e-06 0.0 
5.573491750354e-06 4.444058161760e-03 0.0 
0.0 0.0 0.0 
-8.015484821069e-04 6.359965579578e-04 0.0 
6.359965579578e-04 4.811305067569e-03 0.0 
0.0 0.0 0.0 
-4.430150847843e-04 -5.455476871502e-06 0.0 
-5.455476871502e-06 4.892353976906e-03 0.0 
0.0 0.0 0.0 
-8.091809573332e-04 5.302269002425e-04 0.0 
5.302269002425e-04 5.219291530158e-03 0.0 
0.0 0.0 0.0 
-4.547997184183e-04 -7.178619117802e-06 0.0 
-7.178619117802e-06 5.303790835985e-03 0.0 
0.0 0.0 0.0 
-8.312063594131e-04 4.132022729811e-04 0.0 
4.132022729811e-04 5.660640653067e-03 0.0 
0.0 0.0 0.0 
-4.733268469657e-04 -6.910434241474e-06 0.0 
-6.910434241474e-06 5.771356079584e-03 0.0 
0.0 0.0 0.0 
-8.447294906979e-04 3.272708433363e-04 0.0 
3.272708433363e-04 6.106412369030e-03 0.0 
0.0 0.0 0.0 
-4.925807571123e-04 -5.516022277091e-06 0.0 
-5.516022277091e-06 6.185729342283e-03 0.0 
0.0 0.0 0.0 
-8.494465450695e-04 2.648949659825e-04 0.0 
2.648949659825e-04 6.558745011572e-03 0.0 
0.0 0.0 0.0 
-5.073522556313e-04 -2.818159394486e-06 0.0 
-2.818159394486e-06 6.649068953875e-03 0.0 
0.0 0.0 0.0 
-8.368045066947e-04 2.328285650795e-04 0.0 
2.328285650795e-04 7.002729695571e-03 0.0 
0.0 0.0 0.0 
-5.206139211503e-04 4.543600001048e-06 0.0 
4.543600001048e-06 7.056997684503e-03 0.0 
0.0 0.0 0.0 

TENSORS node_materi_strain_plasti float
5.167194390135e-04 2.792726192703e-05 0.0 
2.792726192703e-05 -5.091425601016e-05 0.0 
0.0 0.0 -1.110302485635e-04 
-8.159302679306e-04 -1.118602645032e-04 0.0 
-1.118602645032e-04 4.584923598267e-03 0.0 
0.0 0.0 -6.959116756397e-04 
-1.346400199288e-03 7.365993999463e-05 0.0 
7.365993999463e-05 8.674335535019e-03 0.0 
0.0 0.0 -1.332621093165e-03 
-1.336402199564e-03 -8.793125074240e-05 0.0 
-8.793125074240e-05 8.913629531779e-03 0.0 
0.0 0.0 -1.332621093165e-03 
1.928535311059e-04 4.445651110295e-05 0.0 
4.445651110295e-05 2.423589004168e-04 0.0 
0.0 0.0 -1.369191294062e-04 
-9.495668909469e-05 1.176622379905e-04 0.0 
1.176622379905e-04 8.146285890130e-04 0.0 
0.0 0.0 -1.619080202416e-04 
-2.343145573296e-04 8.942200005953e-05 0.0 
8.942200005953e-05 1.222252270070e-03 0.0 
0.0 0.0 -2.266090766362e-04 
-3.672954214302e-04 7.638439199011e-05 0.0 
7.638439199011e-05 1.767422352355e-03 0.0 
0.0 0.0 -2.937643997455e-04 
-5.002542736311e-04 4.683642936848e-05 0.0 
4.683642936848e-05 2.251732040701e-03 0.0 
0.0 0.0 -3.610469555860e-04 
-5.984940266315e-04 4.060795555227e-05 0.0 
4.060795555227e-05 2.708456263927e-03 0.0 
0.0 0.0 -4.277228197774e-04 
-6.941224007828e-04 4.519221696703e-05 0.0 
4.519221696703e-05 3.166683324582e-03 0.0 
0.0 0.0 -4.940119848999e-04 
-7.849981096782e-04 3.520077417946e-05 0.0 
3.520077417946e-05 3.622095280725e-03 0.0 
0.0 0.0 -5.601824523721e-04 
-8.634318271181e-04 3.405437137357e-05 0.0 
3.405437137357e-05 4.067071864957e-03 0.0 
0.0 0.0 -6.267196139102e-04 
-9.449136089268e-04 5.218773157199e-05 0.0 
5.218773157199e-05 4.520788341368e-03 0.0 
0.0 0.0 -6.936951881209e-04 
-1.027632022584e-03 9.700470508409e-05 0.0 
9.700470508409e-05 5.010143413423e-03 0.0 
0.0 0.0 -7.607197531558e-04 
-1.071044468659e-03 1.108294767969e-04 0.0 
1.108294767969e-04 5.450697122990e-03 0.0 
0.0 0.0 -8.270758575053e-04 
-1.105211944346e-03 1.479813750871e-04 0.0 
1.479813750871e-04 5.811869455564e-03 0.0 
0.0 0.0 -8.903361771248e-04 
-1.161317049125e-03 4.285670301683e-05 0.0 
4.285670301683e-05 6.275431738875e-03 0.0 
0.0 0.0 -9.558084330571e-04 
-1.207984253662e-03 4.172859767407e-05 0.0 
4.172859767407e-05 6.727772586467e-03 0.0 
0.0 0.0 -1.024523475697e-03 
-1.248615658251e-03 4.538254462405e-05 0.0 
4.538254462405e-05 7.165565903975e-03 0.0 
0.0 0.0 -1.091244731156e-03 
-1.288520992697e-03 4.179778286610e-05 0.0 
4.179778286610e-05 7.610376257827e-03 0.0 
0.0 0.0 -1.158330123333e-03 
-1.323945144233e-03 5.638174444750e-05 0.0 
5.638174444750e-05 8.056170868355e-03 0.0 
0.0 0.0 -1.226073836101e-03 
-1.340882067222e-03 7.816548302147e-05 0.0 
7.816548302147e-05 8.489692749980e-03 0.0 
0.0 0.0 -1.289832767750e-03 
-1.333912568024e-03 1.756046241659e-05 0.0 
1.756046241659e-05 8.926507635803e-03 0.0 
0.0 0.0 -1.336902025401e-03 
-1.341531841891e-03 4.063150434003e-05 0.0 
4.063150434003e-05 8.912362216672e-03 0.0 
0.0 0.0 -1.332945767435e-03 
-1.342187123766e-03 7.210449397359e-07 0.0 
7.210449397359e-07 8.901177082135e-03 0.0 
0.0 0.0 -1.334903170087e-03 
-1.344938961940e-03 1.164426212685e-04 0.0 
1.164426212685e-04 8.903433830404e-03 0.0 
0.0 0.0 -1.334459899807e-03 
-1.344212628933e-03 9.914567390186e-05 0.0 
9.914567390186e-05 8.888325984844e-03 0.0 
0.0 0.0 -1.332067731643e-03 
-1.341871993109e-03 1.326692721992e-04 0.0 
1.326692721992e-04 8.883986467254e-03 0.0 
0.0 0.0 -1.335050935171e-03 
-1.332922157688e-03 1.596974021170e-04 0.0 
1.596974021170e-04 8.887152863323e-03 0.0 
0.0 0.0 -1.335055123498e-03 
-1.344556942280e-03 1.739185913509e-04 0.0 
1.739185913509e-04 8.882073809328e-03 0.0 
0.0 0.0 -1.333530254363e-03 
-1.342253888820e-03 1.667068933720e-04 0.0 
1.667068933720e-04 8.882815983630e-03 0.0 
0.0 0.0 -1.336259905589e-03 
-1.344452318304e-03 2.643241252995e-04 0.0 
2.643241252995e-04 8.877541720491e-03 0.0 
0.0 0.0 -1.335712483792e-03 
-1.344739962132e-03 2.572691983564e-04 0.0 
2.572691983564e-04 8.855364652133e-03 0.0 
0.0 0.0 -1.333313947604e-03 
-1.345949101879e-03 2.896022605016e-04 0.0 
2.896022605016e-04 8.845196808155e-03 0.0 
0.0 0.0 -1.335862559377e-03 
-1.335909137164e-03 3.249556087329e-04 0.0 
3.249556087329e-04 8.847942912603e-03 0.0 
0.0 0.0 -1.336097458551e-03 
-1.346297016590e-03 3.518589132456e-04 0.0 
3.518589132456e-04 8.821759431274e-03 0.0 
0.0 0.0 -1.335235043394e-03 
-1.338076461259e-03 3.735365560477e-04 0.0 
3.735365560477e-04 8.793020733369e-03 0.0 
0.0 0.0 -1.334297546486e-03 
-1.346016481544e-03 4.214840137430e-04 0.0 
4.214840137430e-04 8.754866417549e-03 0.0 
0.0 0.0 -1.332308435384e-03 
-1.347150914510e-03 4.365635291823e-04 0.0 
4.365635291823e-04 8.724212055446e-03 0.0 
0.0 0.0 -1.332019584455e-03 
-1.334805935481e-03 4.680081517091e-04 0.0 
4.680081517091e-04 8.718730927757e-03 0.0 
0.0 0.0 -1.333392124151e-03 
-1.340647727227e-03 4.849743108024e-04 0.0 
4.849743108024e-04 8.700750373122e-03 0.0 
0.0 0.0 -1.334727449481e-03 
-1.341060759155e-03 5.031254601797e-04 0.0 
5.031254601797e-04 8.669240053120e-03 0.0 
0.0 0.0 -1.336576889699e-03 
-1.339241076831e-03 5.376075265351e-04 0.0 
5.376075265351e-04 8.637791543921e-03 0.0 
0.0 0.0 -1.335888391555e-03 
-1.332755026613e-03 5.259793014087e-04 0.0 
5.259793014087e-04 8.604247702023e-03 0.0 
0.0 0.0 -1.334783226448e-03 
-1.333664649469e-03 5.288889005307e-04 0.0 
5.288889005307e-04 8.561550836847e-03 0.0 
0.0 0.0 -1.335053869153e-03 
-1.331458992258e-03 5.134063938371e-04 0.0 
5.134063938371e-04 8.519772984337e-03 0.0 
0.0 0.0 -1.334960189349e-03 
-1.329775199773e-03 4.941096024064e-04 0.0 
4.941096024064e-04 8.496416219376e-03 0.0 
0.0 0.0 -1.334889991128e-03 
-1.320977987653e-03 4.615461390730e-04 0.0 
4.615461390730e-04 8.462524191980e-03 0.0 
0.0 0.0 -1.335774086633e-03 
-1.330023044346e-03 4.207866190154e-04 0.0 
4.207866190154e-04 8.427010713301e-03 0.0 
0.0 0.0 -1.336605656894e-03 
-1.315269658186e-03 3.720833040210e-04 0.0 
3.720833040210e-04 8.401189310414e-03 0.0 
0.0 0.0 -1.336508443943e-03 
-1.322412415585e-03 3.115810119469e-04 0.0 
3.115810119469e-04 8.379908734224e-03 0.0 
0.0 0.0 -1.335343284290e-03 
-1.320222320207e-03 2.175575066663e-04 0.0 
2.175575066663e-04 8.369874127435e-03 0.0 
0.0 0.0 -1.337998490269e-03 
-1.323625080933e-03 2.169102620600e-04 0.0 
2.169102620600e-04 8.349200848827e-03 0.0 
0.0 0.0 -1.337247094005e-03 
-1.312935671626e-03 1.217875082846e-04 0.0 
1.217875082846e-04 8.314561017664e-03 0.0 
0.0 0.0 -1.333783489999e-03 
-1.312397425891e-03 3.014725865093e-05 0.0 
3.014725865093e-05 8.298029012834e-03 0.0 
0.0 0.0 -1.334548731617e-03 
-1.314310776006e-03 -5.112989789944e-05 0.0 
-5.112989789944e-05 8.327635469408e-03 0.0 
0.0 0.0 -1.334619746794e-03 
-1.313246555764e-03 -1.133769864441e-04 0.0 
-1.133769864441e-04 8.338916253329e-03 0.0 
0.0 0.0 -1.335242115105e-03 
-1.326565106495e-03 -1.841934828275e-04 0.0 
-1.841934828275e-04 8.356624519228e-03 0.0 
0.0 0.0 -1.335691437541e-03 
-1.316402114403e-03 -2.262767311367e-04 0.0 
-2.262767311367e-04 8.389795272091e-03 0.0 
0.0 0.0 -1.335646478247e-03 
-1.330105212687e-03 -2.663920673302e-04 0.0 
-2.663920673302e-04 8.407666559300e-03 0.0 
0.0 0.0 -1.334931242407e-03 
-1.321109516020e-03 -3.015612028738e-04 0.0 
-3.015612028738e-04 8.428571737695e-03 0.0 
0.0 0.0 -1.334100791702e-03 
-1.335356464641e-03 -3.106038152236e-04 0.0 
-3.106038152236e-04 8.460193799364e-03 0.0 
0.0 0.0 -1.332237298415e-03 
-1.339781698762e-03 -3.337514916052e-04 0.0 
-3.337514916052e-04 8.495913159923e-03 0.0 
0.0 0.0 -1.333749945600e-03 
-1.335675790289e-03 -3.025403687924e-04 0.0 
-3.025403687924e-04 8.551515458499e-03 0.0 
0.0 0.0 -1.336652505695e-03 
-1.332391445612e-03 -3.083574403233e-04 0.0 
-3.083574403233e-04 8.592419009515e-03 0.0 
0.0 0.0 -1.337094627689e-03 
-1.345644529791e-03 -2.793636126787e-04 0.0 
-2.793636126787e-04 8.558237333725e-03 0.0 
0.0 0.0 -1.328990728106e-03 
-1.337312800610e-03 -2.305068913709e-04 0.0 
-2.305068913709e-04 8.630917037025e-03 0.0 
0.0 0.0 -1.335900064369e-03 
-1.350772327614e-03 -1.956698568975e-04 0.0 
-1.956698568975e-04 8.640358950647e-03 0.0 
0.0 0.0 -1.332523500780e-03 
-1.350423109387e-03 -1.955618747409e-04 0.0 
-1.955618747409e-04 8.650889793805e-03 0.0 
0.0 0.0 -1.335219049675e-03 
-1.349098610006e-03 -8.965167155351e-05 0.0 
-8.965167155351e-05 8.690821291703e-03 0.0 
0.0 0.0 -1.336566422126e-03 
-1.352485386629e-03 -6.128652914560e-05 0.0 
-6.128652914560e-05 8.701715469751e-03 0.0 
0.0 0.0 -1.335855682064e-03 
-8.621699259071e-04 -7.748599951090e-05 0.0 
-7.748599951090e-05 5.021330477437e-03 0.0 
0.0 0.0 -7.648954205800e-04 
-9.395078499560e-04 -8.704020005170e-05 0.0 
-8.704020005170e-05 5.517844915676e-03 0.0 
0.0 0.0 -8.298981322982e-04 
-9.977708429922e-04 -8.397016683561e-05 0.0 
-8.397016683561e-05 5.976838802593e-03 0.0 
0.0 0.0 -8.959277352460e-04 
-1.055682188809e-03 -8.887694878813e-05 0.0 
-8.887694878813e-05 6.419904102828e-03 0.0 
0.0 0.0 -9.610467530554e-04 
-1.113418161777e-03 -7.710435791321e-05 0.0 
-7.710435791321e-05 6.878985961880e-03 0.0 
0.0 0.0 -1.026987810050e-03 
-1.153337564853e-03 -8.395183782127e-05 0.0 
-8.395183782127e-05 7.337021217867e-03 0.0 
0.0 0.0 -1.092790196867e-03 
-1.209003093049e-03 -7.363209801243e-05 0.0 
-7.363209801243e-05 7.788251864833e-03 0.0 
0.0 0.0 -1.158290425478e-03 
-1.258139886954e-03 -8.431152228072e-05 0.0 
-8.431152228072e-05 8.217133852926e-03 0.0 
0.0 0.0 -1.224481705251e-03 
-1.303096836171e-03 -9.331509578295e-05 0.0 
-9.331509578295e-05 8.703843568816e-03 0.0 
0.0 0.0 -1.288782062784e-03 
0.0 0.0 0.0 
0.0 0.0 0.0 
0.0 0.0 0.0 
-8.469977810266e-04 1.418859108081e-04 0.0 
1.418859108081e-04 4.555195363259e-03 0.0 
0.0 0.0 -6.945495707198e-04 
1.853815197246e-05 4.024911659637e-04 0.0 
4.024911659637e-04 2.284141119962e-04 0.0 
0.0 0.0 -1.058366845580e-04 
-1.350079007602e-04 7.410901895652e-04 0.0 
7.410901895652e-04 7.622548468714e-04 0.0 
0.0 0.0 -2.667570615628e-04 
-3.990705948000e-04 7.878595167335e-04 0.0 
7.878595167335e-04 1.332754690140e-03 0.0 
0.0 0.0 -2.835920141735e-04 
-5.153511105879e-04 5.777125361718e-04 0.0 
5.777125361718e-04 1.686960123191e-03 0.0 
0.0 0.0 -2.907975307606e-04 
-5.454556268170e-04 4.563700114584e-04 0.0 
4.563700114584e-04 2.147392311147e-03 0.0 
0.0 0.0 -3.576084760620e-04 
-5.822307317594e-04 3.444855140525e-04 0.0 
3.444855140525e-04 2.615046111209e-03 0.0 
0.0 0.0 -4.246591878591e-04 
-6.421093914524e-04 2.736159583380e-04 0.0 
2.736159583380e-04 3.087949941038e-03 0.0 
0.0 0.0 -4.913636896408e-04 
-7.032270316906e-04 2.154746295006e-04 0.0 
2.154746295006e-04 3.563154777891e-03 0.0 
0.0 0.0 -5.580753662734e-04 
-7.652026803153e-04 1.716333934731e-04 0.0 
1.716333934731e-04 4.039411117358e-03 0.0 
0.0 0.0 -6.248674136757e-04 
-3.262485920310e-04 -1.644575567052e-04 0.0 
-1.644575567052e-04 1.512778247749e-03 0.0 
0.0 0.0 -2.488888888889e-04 
-3.512760209361e-04 -2.050400066107e-04 0.0 
-2.050400066107e-04 1.766265466180e-03 0.0 
0.0 0.0 -2.933333333333e-04 
-4.262272127133e-04 -1.668508034120e-04 0.0 
-1.668508034120e-04 2.234841239519e-03 0.0 
0.0 0.0 -3.600000000000e-04 
-5.018968035888e-04 -2.069604868527e-04 0.0 
-2.069604868527e-04 2.704133863242e-03 0.0 
0.0 0.0 -4.266666666667e-04 
-5.764922648323e-04 -1.677065961204e-04 0.0 
-1.677065961204e-04 3.172932373080e-03 0.0 
0.0 0.0 -4.933333333333e-04 
-6.493615146667e-04 -2.013836333214e-04 0.0 
-2.013836333214e-04 3.639082748701e-03 0.0 
0.0 0.0 -5.600000000000e-04 
-7.172820797178e-04 -1.419199921507e-04 0.0 
-1.419199921507e-04 4.094821602212e-03 0.0 
0.0 0.0 -6.266666666667e-04 
-7.873736608755e-04 5.502842443645e-05 0.0 
5.502842443645e-05 4.508278690252e-03 0.0 
0.0 0.0 -6.874962403976e-04 
-7.839311141629e-04 4.828509311105e-06 0.0 
4.828509311105e-06 4.540282316640e-03 0.0 
0.0 0.0 -6.910932206029e-04 
-7.921436345257e-04 5.707785244044e-06 0.0 
5.707785244044e-06 4.544942356556e-03 0.0 
0.0 0.0 -6.911911970487e-04 
-7.917187874242e-04 -4.341315515235e-06 0.0 
-4.341315515235e-06 4.539101219755e-03 0.0 
0.0 0.0 -6.903356507966e-04 
-7.944928086677e-04 1.125171909579e-05 0.0 
1.125171909579e-05 4.615388457654e-03 0.0 
0.0 0.0 -6.980756478071e-04 
-7.958365436315e-04 1.383445406237e-05 0.0 
1.383445406237e-05 4.547714033445e-03 0.0 
0.0 0.0 -6.911448554634e-04 
-7.903078046097e-04 6.769783050965e-06 0.0 
6.769783050965e-06 4.539714906749e-03 0.0 
0.0 0.0 -6.903833977050e-04 
-7.973486280958e-04 3.073462339535e-05 0.0 
3.073462339535e-05 4.549605953727e-03 0.0 
0.0 0.0 -6.905588330458e-04 
-8.138323735647e-04 2.995103124151e-05 0.0 
2.995103124151e-05 4.557442627231e-03 0.0 
0.0 0.0 -6.922444453805e-04 
-8.207112189752e-04 5.065642805556e-05 0.0 
5.065642805556e-05 4.556711038870e-03 0.0 
0.0 0.0 -6.916098530255e-04 
-8.174854078797e-04 5.882201982790e-05 0.0 
5.882201982790e-05 4.549634587438e-03 0.0 
0.0 0.0 -6.911665914957e-04 
-8.257607627907e-04 7.207096375596e-05 0.0 
7.207096375596e-05 4.539061374169e-03 0.0 
0.0 0.0 -6.911615840689e-04 
-8.256917502379e-04 1.052177725209e-04 0.0 
1.052177725209e-04 4.528909050130e-03 0.0 
0.0 0.0 -6.914992001314e-04 
-8.331385651634e-04 1.367043632585e-04 0.0 
1.367043632585e-04 4.532178590594e-03 0.0 
0.0 0.0 -6.922481495424e-04 
0.0 0.0 0.0 
0.0 0.0 0.0 
0.0 0.0 0.0 
0.0 0.0 0.0 
0.0 0.0 0.0 
0.0 0.0 0.0 
0.0 0.0 0.0 
0.0 0.0 0.0 
0.0 0.0 0.0 
0.0 0.0 0.0 
0.0 0.0 0.0 
0.0 0.0 0.0 
4.834769447441e-06 -2.872264321309e-05 0.0 
-2.872264321309e-05 1.098176460521e-05 0.0 
0.0 0.0 -6.778514593994e-06 
2.621325204595e-05 -1.413766582246e-04 0.0 
-1.413766582246e-04 5.747299694100e-05 0.0 
0.0 0.0 -3.574982278410e-05 
9.658306216209e-05 -1.514259984182e-04 0.0 
-1.514259984182e-04 8.442241842910e-05 0.0 
0.0 0.0 -4.425618980996e-05 
3.269147103475e-04 -5.021185392625e-05 0.0 
-5.021185392625e-05 3.514559889707e-05 0.0 
0.0 0.0 -8.078147856959e-05 
4.744476216527e-04 -2.955001894905e-05 0.0 
-2.955001894905e-05 6.422490925947e-06 0.0 
0.0 0.0 -1.179719326098e-04 
4.179559190719e-04 -4.545879091992e-05 0.0 
-4.545879091992e-05 1.677504639263e-05 0.0 
0.0 0.0 -8.559165356152e-05 
4.071360169644e-04 -5.676430788113e-05 0.0 
-5.676430788113e-05 2.001137970326e-05 0.0 
0.0 0.0 -6.874308561246e-05 
4.446412730432e-04 -3.115479505997e-05 0.0 
-3.115479505997e-05 1.541228328890e-05 0.0 
0.0 0.0 -8.846752904866e-05 
4.870475968622e-04 1.166873053583e-05 0.0 
1.166873053583e-05 -1.464623307350e-05 0.0 
0.0 0.0 -9.035052009108e-05 
5.260775556971e-04 2.845864580513e-06 0.0 
2.845864580513e-06 -4.734498310635e-05 0.0 
0.0 0.0 -8.407298760335e-05 
4.865685389177e-04 2.210043518698e-06 0.0 
2.210043518698e-06 -3.334183635663e-05 0.0 
0.0 0.0 -8.504329730078e-05 
4.576294102847e-04 1.370682311972e-05 0.0 
1.370682311972e-05 -9.748142346333e-06 0.0 
0.0 0.0 -9.010048746351e-05 
4.426858646735e-04 1.222387518921e-05 0.0 
1.222387518921e-05 -8.681697480964e-07 0.0 
0.0 0.0 -9.063198443064e-05 
4.647766352677e-04 3.225958783335e-05 0.0 
3.225958783335e-05 -3.503045802417e-05 0.0 
0.0 0.0 -8.892160723951e-05 
5.112449432108e-04 4.197682001980e-05 0.0 
4.197682001980e-05 -6.289759249197e-05 0.0 
0.0 0.0 -8.718318697143e-05 
-4.293937343098e-04 5.749960351604e-04 0.0 
5.749960351604e-04 1.381521343722e-03 0.0 
0.0 0.0 -2.464207029123e-04 
-4.550466142217e-04 4.197749851261e-04 0.0 
4.197749851261e-04 1.542050952916e-03 0.0 
0.0 0.0 -2.535142005520e-04 
-4.103790458962e-04 3.139032697599e-04 0.0 
3.139032697599e-04 1.575950606598e-03 0.0 
0.0 0.0 -2.562962962963e-04 
-3.943068471075e-04 1.903031060366e-04 0.0 
1.903031060366e-04 1.575930411752e-03 0.0 
0.0 0.0 -2.562962962963e-04 
-3.638165328082e-04 1.306605267353e-04 0.0 
1.306605267353e-04 1.580388102504e-03 0.0 
0.0 0.0 -2.562962962963e-04 
-3.466226841762e-04 7.405254619034e-05 0.0 
7.405254619034e-05 1.576652401187e-03 0.0 
0.0 0.0 -2.562962962963e-04 
-3.305032811445e-04 3.815637270311e-05 0.0 
3.815637270311e-05 1.576616303731e-03 0.0 
0.0 0.0 -2.562962962963e-04 
-3.200800660947e-04 9.214024430597e-06 0.0 
9.214024430597e-06 1.575200764964e-03 0.0 
0.0 0.0 -2.562962962963e-04 
-3.114676750766e-04 -1.118179229308e-05 0.0 
-1.118179229308e-05 1.574608161644e-03 0.0 
0.0 0.0 -2.562962962963e-04 
-3.057452842731e-04 -2.693773616989e-05 0.0 
-2.693773616989e-05 1.574120487137e-03 0.0 
0.0 0.0 -2.562962962963e-04 
-3.015938846352e-04 -3.831420500551e-05 0.0 
-3.831420500551e-05 1.574129647108e-03 0.0 
0.0 0.0 -2.562962962963e-04 
-2.991027191270e-04 -4.659691333912e-05 0.0 
-4.659691333912e-05 1.574460861473e-03 0.0 
0.0 0.0 -2.562962962963e-04 
-2.978222282379e-04 -5.206311538315e-05 0.0 
-5.206311538315e-05 1.575182795863e-03 0.0 
0.0 0.0 -2.562962962963e-04 
-2.975197864739e-04 -5.505806086643e-05 0.0 
-5.505806086643e-05 1.576165490386e-03 0.0 
0.0 0.0 -2.562962962963e-04 
-2.978112092668e-04 -5.584446958843e-05 0.0 
-5.584446958843e-05 1.577227313578e-03 0.0 
0.0 0.0 -2.562962962963e-04 
-2.984735689081e-04 -5.486399358705e-05 0.0 
-5.486399358705e-05 1.578213909861e-03 0.0 
0.0 0.0 -2.562962962963e-04 
-2.993351839233e-04 -5.249565643874e-05 0.0 
-5.249565643874e-05 1.579041279356e-03 0.0 
0.0 0.0 -2.562962962963e-04 
-3.002322911597e-04 -4.904872429113e-05 0.0 
-4.904872429113e-05 1.579635756306e-03 0.0 
0.0 0.0 -2.562962962963e-04 
-3.010132199272e-04 -4.475472169727e-05 0.0 
-4.475472169727e-05 1.579934698345e-03 0.0 
0.0 0.0 -2.562962962963e-04 
-3.015410558718e-04 -3.975259396924e-05 0.0 
-3.975259396924e-05 1.579911705052e-03 0.0 
0.0 0.0 -2.562962962963e-04 
-3.017507201082e-04 -3.397550822808e-05 0.0 
-3.397550822808e-05 1.579647878582e-03 0.0 
0.0 0.0 -2.562962962963e-04 
-3.016807554922e-04 -2.699088164474e-05 0.0 
-2.699088164474e-05 1.579320674886e-03 0.0 
0.0 0.0 -2.562962962963e-04 
-3.017196840022e-04 -1.850697450779e-05 0.0 
-1.850697450779e-05 1.577393333351e-03 0.0 
0.0 0.0 -2.562962962963e-04 
-3.037668714409e-04 -1.374679065237e-05 0.0 
-1.374679065237e-05 1.533069109803e-03 0.0 
0.0 0.0 -2.562962962963e-04 
-2.803535177978e-04 1.070306914759e-04 0.0 
1.070306914759e-04 1.463804717796e-03 0.0 
0.0 0.0 -2.488888888889e-04 
-3.496809071087e-04 7.029818051395e-05 0.0 
7.029818051395e-05 1.763978001235e-03 0.0 
0.0 0.0 -2.933333333333e-04 
-3.467012321594e-04 2.565652285915e-06 0.0 
2.565652285915e-06 1.759757177646e-03 0.0 
0.0 0.0 -2.933333333333e-04 
-3.460706828833e-04 -2.402709291714e-05 0.0 
-2.402709291714e-05 1.758572650440e-03 0.0 
0.0 0.0 -2.933333333333e-04 
-3.462634971279e-04 -3.232377085059e-05 0.0 
-3.232377085059e-05 1.758604837916e-03 0.0 
0.0 0.0 -2.933333333333e-04 
-3.466983492028e-04 -3.868888686092e-05 0.0 
-3.868888686092e-05 1.759008204949e-03 0.0 
0.0 0.0 -2.933333333333e-04 
-3.471166494268e-04 -4.426990314512e-05 0.0 
-4.426990314512e-05 1.759352418861e-03 0.0 
0.0 0.0 -2.933333333333e-04 
-3.474272679685e-04 -4.918378872263e-05 0.0 
-4.918378872263e-05 1.759427979474e-03 0.0 
0.0 0.0 -2.933333333333e-04 
-3.476545714717e-04 -5.321526936886e-05 0.0 
-5.321526936886e-05 1.759196453292e-03 0.0 
0.0 0.0 -2.933333333333e-04 
-3.479518305898e-04 -5.609578469028e-05 0.0 
-5.609578469028e-05 1.758727485872e-03 0.0 
0.0 0.0 -2.933333333333e-04 
-3.484727780912e-04 -5.752163128441e-05 0.0 
-5.752163128441e-05 1.758083576967e-03 0.0 
0.0 0.0 -2.933333333333e-04 
-3.493671597279e-04 -5.714597270233e-05 0.0 
-5.714597270233e-05 1.757324818446e-03 0.0 
0.0 0.0 -2.933333333333e-04 
-3.507609803320e-04 -5.447564841924e-05 0.0 
-5.447564841924e-05 1.756492701634e-03 0.0 
0.0 0.0 -2.933333333333e-04 
-3.529498849902e-04 -4.883178137910e-05 0.0 
-4.883178137910e-05 1.755842529399e-03 0.0 
0.0 0.0 -2.933333333333e-04 
-3.563919328167e-04 -4.008505197600e-05 0.0 
-4.008505197600e-05 1.755533487358e-03 0.0 
0.0 0.0 -2.933333333333e-04 
-3.613751731038e-04 -2.764226381693e-05 0.0 
-2.764226381693e-05 1.755740221786e-03 0.0 
0.0 0.0 -2.933333333333e-04 
-3.680331159808e-04 -1.160852856466e-05 0.0 
-1.160852856466e-05 1.755914627603e-03 0.0 
0.0 0.0 -2.933333333333e-04 
-3.765077791255e-04 1.088927297272e-05 0.0 
1.088927297272e-05 1.756756463973e-03 0.0 
0.0 0.0 -2.933333333333e-04 
-3.875335620688e-04 3.848779556901e-05 0.0 
3.848779556901e-05 1.756527119021e-03 0.0 
0.0 0.0 -2.933333333333e-04 
-4.006981741599e-04 7.938462996467e-05 0.0 
7.938462996467e-05 1.757968771471e-03 0.0 
0.0 0.0 -2.933333333333e-04 
-4.184139765209e-04 1.273498827186e-04 0.0 
1.273498827186e-04 1.754107022380e-03 0.0 
0.0 0.0 -2.933333333333e-04 
-4.343887350254e-04 2.082173449192e-04 0.0 
2.082173449192e-04 1.756230721853e-03 0.0 
0.0 0.0 -2.933333333333e-04 
-4.614874550674e-04 2.935627528416e-04 0.0 
2.935627528416e-04 1.774351382184e-03 0.0 
0.0 0.0 -2.960058309038e-04 
-4.441523120693e-04 4.094621339406e-04 0.0 
4.094621339406e-04 1.656501544115e-03 0.0 
0.0 0.0 -2.853401360544e-04 
-4.870440913019e-04 3.438997131150e-04 0.0 
3.438997131150e-04 2.112483852915e-03 0.0 
0.0 0.0 -3.519676952907e-04 
-5.125649626942e-04 2.408553048519e-04 0.0 
2.408553048519e-04 2.231730849181e-03 0.0 
0.0 0.0 -3.626389769158e-04 
-5.004304274742e-04 1.739740084501e-04 0.0 
1.739740084501e-04 2.219740475384e-03 0.0 
0.0 0.0 -3.600000000000e-04 
-4.919733132572e-04 1.088807645715e-04 0.0 
1.088807645715e-04 2.220404103345e-03 0.0 
0.0 0.0 -3.600000000000e-04 
-4.789912287228e-04 6.959489259035e-05 0.0 
6.959489259035e-05 2.226799972365e-03 0.0 
0.0 0.0 -3.600000000000e-04 
-4.695031603226e-04 3.553610685796e-05 0.0 
3.553610685796e-05 2.226549692723e-03 0.0 
0.0 0.0 -3.600000000000e-04 
-4.599607884164e-04 1.129608327385e-05 0.0 
1.129608327385e-05 2.227936339154e-03 0.0 
0.0 0.0 -3.600000000000e-04 
-4.523249195166e-04 -8.629656390873e-06 0.0 
-8.629656390873e-06 2.227633121405e-03 0.0 
0.0 0.0 -3.600000000000e-04 
-4.460410542978e-04 -2.408928092428e-05 0.0 
-2.408928092428e-05 2.228142385368e-03 0.0 
0.0 0.0 -3.600000000000e-04 
-4.416422346106e-04 -3.556764082908e-05 0.0 
-3.556764082908e-05 2.228991415671e-03 0.0 
0.0 0.0 -3.600000000000e-04 
-4.381537305926e-04 -4.258379451435e-05 0.0 
-4.258379451435e-05 2.230069409879e-03 0.0 
0.0 0.0 -3.600000000000e-04 
-4.351200154686e-04 -4.630854718854e-05 0.0 
-4.630854718854e-05 2.230745475863e-03 0.0 
0.0 0.0 -3.600000000000e-04 
-4.325824646744e-04 -4.775125052124e-05 0.0 
-4.775125052124e-05 2.231217919098e-03 0.0 
0.0 0.0 -3.600000000000e-04 
-4.305586835962e-04 -4.721495249169e-05 0.0 
-4.721495249169e-05 2.231559783467e-03 0.0 
0.0 0.0 -3.600000000000e-04 
-4.288867137335e-04 -4.493296871748e-05 0.0 
-4.493296871748e-05 2.231681053608e-03 0.0 
0.0 0.0 -3.600000000000e-04 
-4.273112732016e-04 -4.114156621977e-05 0.0 
-4.114156621977e-05 2.231455818993e-03 0.0 
0.0 0.0 -3.600000000000e-04 
-4.257570290361e-04 -3.645486640434e-05 0.0 
-3.645486640434e-05 2.230888371703e-03 0.0 
0.0 0.0 -3.600000000000e-04 
-4.244314698173e-04 -3.118593770298e-05 0.0 
-3.118593770298e-05 2.230297443320e-03 0.0 
0.0 0.0 -3.600000000000e-04 
-4.235346113232e-04 -2.542079837558e-05 0.0 
-2.542079837558e-05 2.230073732848e-03 0.0 
0.0 0.0 -3.600000000000e-04 
-4.234462512888e-04 -1.962142205216e-05 0.0 
-1.962142205216e-05 2.230753915289e-03 0.0 
0.0 0.0 -3.600000000000e-04 
-4.245254089640e-04 -1.838851999952e-05 0.0 
-1.838851999952e-05 2.232666465119e-03 0.0 
0.0 0.0 -3.600000000000e-04 
-4.258704289300e-04 1.031587817340e-04 0.0 
1.031587817340e-04 2.234469848219e-03 0.0 
0.0 0.0 -3.600000000000e-04 
-5.013977665724e-04 6.678054078335e-05 0.0 
6.678054078335e-05 2.703319892598e-03 0.0 
0.0 0.0 -4.266666666667e-04 
-5.000873162729e-04 4.739922315480e-07 0.0 
4.739922315480e-07 2.701172909826e-03 0.0 
0.0 0.0 -4.266666666667e-04 
-4.998071790653e-04 -2.178747072151e-05 0.0 
-2.178747072151e-05 2.700224901928e-03 0.0 
0.0 0.0 -4.266666666667e-04 
-5.007267420848e-04 -2.682346092380e-05 0.0 
-2.682346092380e-05 2.700321897617e-03 0.0 
0.0 0.0 -4.266666666667e-04 
-5.023438002827e-04 -3.104522400768e-05 0.0 
-3.104522400768e-05 2.700942336046e-03 0.0 
0.0 0.0 -4.266666666667e-04 
-5.046005899036e-04 -3.482640527593e-05 0.0 
-3.482640527593e-05 2.701790544412e-03 0.0 
0.0 0.0 -4.266666666667e-04 
-5.072352564482e-04 -3.838001695029e-05 0.0 
-3.838001695029e-05 2.702415804766e-03 0.0 
0.0 0.0 -4.266666666667e-04 
-5.098433996047e-04 -4.063252974789e-05 0.0 
-4.063252974789e-05 2.702308962132e-03 0.0 
0.0 0.0 -4.266666666667e-04 
-5.126344180745e-04 -4.048719551750e-05 0.0 
-4.048719551750e-05 2.701874566670e-03 0.0 
0.0 0.0 -4.266666666667e-04 
-5.163726922397e-04 -3.792427931932e-05 0.0 
-3.792427931932e-05 2.701523899062e-03 0.0 
0.0 0.0 -4.266666666667e-04 
-5.207389108666e-04 -3.338420754901e-05 0.0 
-3.338420754901e-05 2.701011155077e-03 0.0 
0.0 0.0 -4.266666666667e-04 
-5.252891517300e-04 -2.626882560247e-05 0.0 
-2.626882560247e-05 2.699762094262e-03 0.0 
0.0 0.0 -4.266666666667e-04 
-5.299120677543e-04 -1.439019615054e-05 0.0 
-1.439019615054e-05 2.697258437041e-03 0.0 
0.0 0.0 -4.266666666667e-04 
-5.357525103733e-04 4.962642114391e-06 0.0 
4.962642114391e-06 2.695874831440e-03 0.0 
0.0 0.0 -4.266666666667e-04 
-5.442031688919e-04 2.698467857241e-05 0.0 
2.698467857241e-05 2.694563012441e-03 0.0 
0.0 0.0 -4.266666666667e-04 
-5.535277733574e-04 5.642979102142e-05 0.0 
5.642979102142e-05 2.694993549781e-03 0.0 
0.0 0.0 -4.266666666667e-04 
-5.636396406095e-04 8.491085392806e-05 0.0 
8.491085392806e-05 2.688346064678e-03 0.0 
0.0 0.0 -4.266666666667e-04 
-5.667180855967e-04 1.404909475521e-04 0.0 
1.404909475521e-04 2.684702359192e-03 0.0 
0.0 0.0 -4.266666666667e-04 
-5.760763171982e-04 1.868968236703e-04 0.0 
1.868968236703e-04 2.700776601453e-03 0.0 
0.0 0.0 -4.293391642371e-04 
-5.414318027528e-04 2.582759348764e-04 0.0 
2.582759348764e-04 2.576024993124e-03 0.0 
0.0 0.0 -4.186734693878e-04 
-6.002569752709e-04 2.106199425740e-04 0.0 
2.106199425740e-04 3.040601950913e-03 0.0 
0.0 0.0 -4.852947845805e-04 
-6.404347893740e-04 1.452930758805e-04 0.0 
1.452930758805e-04 3.169480489552e-03 0.0 
0.0 0.0 -4.959669582118e-04 
-6.373670366941e-04 1.181817318953e-04 0.0 
1.181817318953e-04 3.157603873263e-03 0.0 
0.0 0.0 -4.933333333333e-04 
-6.335926768194e-04 7.794245507497e-05 0.0 
7.794245507497e-05 3.156688021345e-03 0.0 
0.0 0.0 -4.933333333333e-04 
-6.220474498716e-04 5.134440581893e-05 0.0 
5.134440581893e-05 3.160786184874e-03 0.0 
0.0 0.0 -4.933333333333e-04 
-6.159406124673e-04 2.206688587732e-05 0.0 
2.206688587732e-05 3.161928673014e-03 0.0 
0.0 0.0 -4.933333333333e-04 
-6.109166782003e-04 3.714322771242e-06 0.0 
3.714322771242e-06 3.167514719351e-03 0.0 
0.0 0.0 -4.933333333333e-04 
-6.054581133856e-04 -7.307117585949e-06 0.0 
-7.307117585949e-06 3.170142463375e-03 0.0 
0.0 0.0 -4.933333333333e-04 
-6.000107331639e-04 -1.469328145384e-05 0.0 
-1.469328145384e-05 3.171163635534e-03 0.0 
0.0 0.0 -4.933333333333e-04 
-5.941898088781e-04 -2.074063559937e-05 0.0 
-2.074063559937e-05 3.171088193189e-03 0.0 
0.0 0.0 -4.933333333333e-04 
-5.898957035509e-04 -2.603463415847e-05 0.0 
-2.603463415847e-05 3.171921383452e-03 0.0 
0.0 0.0 -4.933333333333e-04 
-5.871319754984e-04 -2.671317052851e-05 0.0 
-2.671317052851e-05 3.173080463882e-03 0.0 
0.0 0.0 -4.933333333333e-04 
-5.831711305422e-04 -2.471825246934e-05 0.0 
-2.471825246934e-05 3.172447959486e-03 0.0 
0.0 0.0 -4.933333333333e-04 
-5.799110508209e-04 -2.308008329295e-05 0.0 
-2.308008329295e-05 3.171263771991e-03 0.0 
0.0 0.0 -4.933333333333e-04 
-5.773557365906e-04 -2.133550619489e-05 0.0 
-2.133550619489e-05 3.170479716806e-03 0.0 
0.0 0.0 -4.933333333333e-04 
-5.758014518713e-04 -1.892419660156e-05 0.0 
-1.892419660156e-05 3.170002557654e-03 0.0 
0.0 0.0 -4.933333333333e-04 
-5.748764960425e-04 -1.805012883539e-05 0.0 
-1.805012883539e-05 3.170347605706e-03 0.0 
0.0 0.0 -4.933333333333e-04 
-5.760506827362e-04 -2.075419369238e-05 0.0 
-2.075419369238e-05 3.172373778641e-03 0.0 
0.0 0.0 -4.933333333333e-04 
-5.767249358615e-04 1.015271389729e-04 0.0 
1.015271389729e-04 3.173431107618e-03 0.0 
0.0 0.0 -4.933333333333e-04 
-6.527572212549e-04 6.780105280902e-05 0.0 
6.780105280902e-05 3.643323392159e-03 0.0 
0.0 0.0 -5.600000000000e-04 
-6.484652640847e-04 -1.867317635502e-06 0.0 
-1.867317635502e-06 3.638221338221e-03 0.0 
0.0 0.0 -5.600000000000e-04 
-6.483746879456e-04 -1.524137963776e-05 0.0 
-1.524137963776e-05 3.636879668493e-03 0.0 
0.0 0.0 -5.600000000000e-04 
-6.506726970290e-04 -1.678761464932e-05 0.0 
-1.678761464932e-05 3.638240294297e-03 0.0 
0.0 0.0 -5.600000000000e-04 
-6.515567938656e-04 -1.582684597498e-05 0.0 
-1.582684597498e-05 3.638013899900e-03 0.0 
0.0 0.0 -5.600000000000e-04 
-6.554750631859e-04 -1.470434980338e-05 0.0 
-1.470434980338e-05 3.639460407849e-03 0.0 
0.0 0.0 -5.600000000000e-04 
-6.594170751284e-04 -1.283952103919e-05 0.0 
-1.283952103919e-05 3.641117124007e-03 0.0 
0.0 0.0 -5.600000000000e-04 
-6.641464449147e-04 -1.550365402295e-05 0.0 
-1.550365402295e-05 3.640594034775e-03 0.0 
0.0 0.0 -5.600000000000e-04 
-6.668858948113e-04 -7.941772856611e-06 0.0 
-7.941772856611e-06 3.636849838348e-03 0.0 
0.0 0.0 -5.600000000000e-04 
-6.741591020856e-04 2.577853317367e-06 0.0 
2.577853317367e-06 3.638100575400e-03 0.0 
0.0 0.0 -5.600000000000e-04 
-6.809485102659e-04 9.363144820372e-06 0.0 
9.363144820372e-06 3.637932552511e-03 0.0 
0.0 0.0 -5.600000000000e-04 
-6.861033350786e-04 2.086292296722e-05 0.0 
2.086292296722e-05 3.634350486115e-03 0.0 
0.0 0.0 -5.600000000000e-04 
-6.932352806905e-04 3.670348944842e-05 0.0 
3.670348944842e-05 3.630716211654e-03 0.0 
0.0 0.0 -5.600000000000e-04 
-6.980811967268e-04 5.967994361152e-05 0.0 
5.967994361152e-05 3.618796687988e-03 0.0 
0.0 0.0 -5.600000000000e-04 
-7.013848849314e-04 1.083829473888e-04 0.0 
1.083829473888e-04 3.620396778090e-03 0.0 
0.0 0.0 -5.600000000000e-04 
-7.078351814424e-04 1.219335158790e-04 0.0 
1.219335158790e-04 3.644573923445e-03 0.0 
0.0 0.0 -5.626724975705e-04 
-6.666304385001e-04 1.660523767343e-04 0.0 
1.660523767343e-04 3.518024469538e-03 0.0 
0.0 0.0 -5.520068027211e-04 
-7.306639245541e-04 1.487904650220e-04 0.0 
1.487904650220e-04 3.987541024977e-03 0.0 
0.0 0.0 -6.186195084094e-04 
-7.777639873500e-04 1.047682677556e-04 0.0 
1.047682677556e-04 4.108452618951e-03 0.0 
0.0 0.0 -6.292929119699e-04 
-7.730086078056e-04 8.789895144587e-05 0.0 
8.789895144587e-05 4.091912019672e-03 0.0 
0.0 0.0 -6.266666666667e-04 
-7.618524580481e-04 6.512725790421e-05 0.0 
6.512725790421e-05 4.093546504346e-03 0.0 
0.0 0.0 -6.266666666667e-04 
-7.572869673676e-04 4.077816536235e-05 0.0 
4.077816536235e-05 4.100722229585e-03 0.0 
0.0 0.0 -6.266666666667e-04 
-7.522759778333e-04 3.231234712664e-05 0.0 
3.231234712664e-05 4.105753030330e-03 0.0 
0.0 0.0 -6.266666666667e-04 
-7.456061716167e-04 2.469919196216e-05 0.0 
2.469919196216e-05 4.102695942195e-03 0.0 
0.0 0.0 -6.266666666667e-04 
-7.404032118594e-04 6.233661207773e-06 0.0 
6.233661207773e-06 4.103985895951e-03 0.0 
0.0 0.0 -6.266666666667e-04 
-7.306819678944e-04 6.672744555550e-06 0.0 
6.672744555550e-06 4.108272711165e-03 0.0 
0.0 0.0 -6.266666666667e-04 
-7.293745733164e-04 -1.304990055444e-06 0.0 
-1.304990055444e-06 4.106419007565e-03 0.0 
0.0 0.0 -6.266666666667e-04 
-7.249341380716e-04 -1.277588629320e-06 0.0 
-1.277588629320e-06 4.105173170991e-03 0.0 
0.0 0.0 -6.266666666667e-04 
-7.218872567136e-04 -1.221940477039e-05 0.0 
-1.221940477039e-05 4.104125766063e-03 0.0 
0.0 0.0 -6.266666666667e-04 
-7.226283520212e-04 -7.586680396462e-06 0.0 
-7.586680396462e-06 4.106687618408e-03 0.0 
0.0 0.0 -6.266666666667e-04 
-7.194567743785e-04 -1.345793513568e-05 0.0 
-1.345793513568e-05 4.101402324494e-03 0.0 
0.0 0.0 -6.266666666667e-04 
-7.217276456755e-04 -3.632688016994e-05 0.0 
-3.632688016994e-05 4.111803083088e-03 0.0 
0.0 0.0 -6.266666666667e-04 
-7.310107230365e-04 1.113089146982e-04 0.0 
1.113089146982e-04 4.120905737550e-03 0.0 
0.0 0.0 -6.266666666667e-04 
-2.421139253698e-06 2.493111003967e-04 0.0 
2.493111003967e-04 4.201353664804e-05 0.0 
0.0 0.0 -1.696817031186e-05 
-4.487896732987e-05 6.031454295583e-04 0.0 
6.031454295583e-04 4.769141611533e-04 0.0 
0.0 0.0 -1.851579402100e-04 
-2.477886944410e-04 8.307338841621e-04 0.0 
8.307338841621e-04 1.056772820351e-03 0.0 
0.0 0.0 -3.137502536684e-04 
-4.860194064364e-04 7.079474825863e-04 0.0 
7.079474825863e-04 1.507765977197e-03 0.0 
0.0 0.0 -2.724135306520e-04 
-5.162796584260e-04 5.374660571038e-04 0.0 
5.374660571038e-04 1.954632750136e-03 0.0 
0.0 0.0 -3.310903933743e-04 
-5.449792335688e-04 4.356130269135e-04 0.0 
4.356130269135e-04 2.421388465933e-03 0.0 
0.0 0.0 -3.977576770754e-04 
-6.066455436428e-04 3.364332527846e-04 0.0 
3.364332527846e-04 2.883298822982e-03 0.0 
0.0 0.0 -4.650267612653e-04 
-6.625430485052e-04 2.762683699332e-04 0.0 
2.762683699332e-04 3.355431578782e-03 0.0 
0.0 0.0 -5.317697887215e-04 
-7.239877336263e-04 2.202667385963e-04 0.0 
2.202667385963e-04 3.828610808697e-03 0.0 
0.0 0.0 -5.985602557689e-04 
-7.842817421153e-04 1.883796168278e-04 0.0 
1.883796168278e-04 4.312421836845e-03 0.0 
0.0 0.0 -6.652967104836e-04 
-6.528049956140e-05 8.329192367362e-04 0.0 
8.329192367362e-04 6.721534156509e-04 0.0 
0.0 0.0 -2.600883926098e-04 
-1.238271811776e-03 -2.323410981101e-05 0.0 
-2.323410981101e-05 8.143368057859e-03 0.0 
0.0 0.0 -1.303388942653e-03 
5.998510431380e-05 -1.163529753908e-04 0.0 
-1.163529753908e-04 2.499013313257e-04 0.0 
0.0 0.0 -7.661148810519e-05 
1.270751205327e-05 -3.607914457565e-05 0.0 
-3.607914457565e-05 6.964316184805e-06 0.0 
0.0 0.0 -8.430783530605e-06 
-1.278901467981e-03 -2.582894247670e-04 0.0 
-2.582894247670e-04 8.264882866352e-03 0.0 
0.0 0.0 -1.303360877099e-03 
-5.655990039998e-04 8.080804633426e-04 0.0 
8.080804633426e-04 1.859508276799e-03 0.0 
0.0 0.0 -3.221766324775e-04 
-9.861956324832e-04 -6.715847648061e-05 0.0 
-6.715847648061e-05 4.773589466734e-03 0.0 
0.0 0.0 -7.300567563597e-04 
-1.244927303710e-03 2.945275852412e-04 0.0 
2.945275852412e-04 8.164800639293e-03 0.0 
0.0 0.0 -1.300998267065e-03 
-6.348034790759e-04 4.424120780115e-04 0.0 
4.424120780115e-04 2.761117670990e-03 0.0 
0.0 0.0 -4.497936382440e-04 
-1.277128875373e-03 4.777706098865e-04 0.0 
4.777706098865e-04 8.316029240451e-03 0.0 
0.0 0.0 -1.304014651794e-03 
-7.514819667783e-04 2.897671537100e-04 0.0 
2.897671537100e-04 3.742162088854e-03 0.0 
0.0 0.0 -5.857980290939e-04 
-1.307584739855e-03 -2.907864623538e-04 0.0 
-2.907864623538e-04 8.435582561033e-03 0.0 
0.0 0.0 -1.307658508868e-03 
2.194594038095e-04 -2.670865977714e-05 0.0 
-2.670865977714e-05 1.694259524564e-04 0.0 
0.0 0.0 -9.345456780789e-05 
-1.309138496400e-03 5.212450025025e-04 0.0 
5.212450025025e-04 8.474949316046e-03 0.0 
0.0 0.0 -1.304481600125e-03 
-8.746417822978e-04 2.068395432367e-04 0.0 
2.068395432367e-04 4.729142408164e-03 0.0 
0.0 0.0 -7.203075318094e-04 
-6.505648739721e-04 -3.624268182337e-05 0.0 
-3.624268182337e-05 2.957311441966e-03 0.0 
0.0 0.0 -4.640473930190e-04 
-1.131372666701e-03 -4.491765098181e-05 0.0 
-4.491765098181e-05 5.976165985442e-03 0.0 
0.0 0.0 -9.125512086551e-04 
-1.314763544022e-03 4.589275118802e-04 0.0 
4.589275118802e-04 8.560285468091e-03 0.0 
0.0 0.0 -1.301280071178e-03 
-1.328200349095e-03 3.774182231255e-04 0.0 
3.774182231255e-04 8.674652987533e-03 0.0 
0.0 0.0 -1.304294760550e-03 
-1.328231009146e-03 1.002317222840e-04 0.0 
1.002317222840e-04 8.762903021805e-03 0.0 
0.0 0.0 -1.303238611779e-03 
-1.321361255880e-03 2.020746578681e-04 0.0 
2.020746578681e-04 8.706453928135e-03 0.0 
0.0 0.0 -1.297727402575e-03 
-1.333675382953e-03 2.525190978684e-04 0.0 
2.525190978684e-04 8.729905622316e-03 0.0 
0.0 0.0 -1.305306183856e-03 
-8.907724214169e-04 1.372579395388e-04 0.0 
1.372579395388e-04 4.950739460616e-03 0.0 
0.0 0.0 -7.522011426764e-04 
-8.750579348879e-04 6.356350708577e-05 0.0 
6.356350708577e-05 4.972444393085e-03 0.0 
0.0 0.0 -7.529849494387e-04 
-8.651922808025e-04 1.321213173771e-05 0.0 
1.321213173771e-05 5.002490543075e-03 0.0 
0.0 0.0 -7.580270452736e-04 
-1.081282276580e-03 -2.537529428612e-05 0.0 
-2.537529428612e-05 6.643650052824e-03 0.0 
0.0 0.0 -9.950081682429e-04 
-1.332561184719e-03 -2.295807888403e-04 0.0 
-2.295807888403e-04 8.502002206283e-03 0.0 
0.0 0.0 -1.302874185639e-03 
0.0 0.0 0.0 
0.0 0.0 0.0 
0.0 0.0 0.0 
2.233748649996e-04 5.268922663070e-06 0.0 
5.268922663070e-06 2.031789523429e-04 0.0 
0.0 0.0 -1.071793558177e-04 
-1.266615157062e-03 -4.708891648946e-05 0.0 
-4.708891648946e-05 7.362986267811e-03 0.0 
0.0 0.0 -1.122886395833e-03 
-8.590690058330e-04 2.817818056919e-05 0.0 
2.817818056919e-05 4.956725197885e-03 0.0 
0.0 0.0 -7.500338828344e-04 
-3.077541790528e-04 -1.952701143312e-05 0.0 
-1.952701143312e-05 1.504768126338e-03 0.0 
0.0 0.0 -2.594501920933e-04 
-1.324226706230e-03 4.167698339106e-04 0.0 
4.167698339106e-04 8.547363588762e-03 0.0 
0.0 0.0 -1.293200138473e-03 
-1.268789998251e-03 4.116378875631e-04 0.0 
4.116378875631e-04 8.267843264786e-03 0.0 
0.0 0.0 -1.307307853467e-03 
-1.298127013523e-03 5.178122413189e-04 0.0 
5.178122413189e-04 8.390890810401e-03 0.0 
0.0 0.0 -1.304733450272e-03 
-1.233362636415e-03 1.634458979136e-04 0.0 
1.634458979136e-04 8.121763907804e-03 0.0 
0.0 0.0 -1.297928233296e-03 
-1.261877986510e-03 -1.597052773119e-04 0.0 
-1.597052773119e-04 8.188934025231e-03 0.0 
0.0 0.0 -1.305578568836e-03 
2.734204477330e-05 -3.169143204034e-04 0.0 
-3.169143204034e-04 1.647533136443e-04 0.0 
0.0 0.0 -8.226872593096e-05 
-8.795053511419e-04 9.559274535899e-05 0.0 
9.559274535899e-05 4.954160552764e-03 0.0 
0.0 0.0 -7.500980793755e-04 
-1.291571793349e-03 -3.018456542619e-04 0.0 
-3.018456542619e-04 8.267318175430e-03 0.0 
0.0 0.0 -1.293180865222e-03 
-1.191688283040e-03 -1.679553581366e-05 0.0 
-1.679553581366e-05 7.562043590583e-03 0.0 
0.0 0.0 -1.123598490052e-03 
1.170418686809e-04 -5.562668358397e-05 0.0 
-5.562668358397e-05 2.275676700802e-04 0.0 
0.0 0.0 -7.719741026454e-05 
-8.274582342161e-04 -6.171908782243e-05 0.0 
-6.171908782243e-05 3.848512271059e-03 0.0 
0.0 0.0 -5.937437734062e-04 
-1.335764842081e-03 6.371320431880e-05 0.0 
6.371320431880e-05 8.844549453637e-03 0.0 
0.0 0.0 -1.311981303940e-03 
-6.029700723185e-04 6.122078773443e-04 0.0 
6.122078773443e-04 2.350776615634e-03 0.0 
0.0 0.0 -3.897472533596e-04 
-3.421036135192e-04 9.389470505226e-04 0.0 
9.389470505226e-04 1.298921873387e-03 0.0 
0.0 0.0 -3.268992177355e-04 
-6.932234286341e-04 3.612940895342e-04 0.0 
3.612940895342e-04 3.253564498504e-03 0.0 
0.0 0.0 -5.178568985205e-04 
-8.102727904185e-04 2.233971647189e-04 0.0 
2.233971647189e-04 4.222711404521e-03 0.0 
0.0 0.0 -6.527703211191e-04 
4.776974736884e-05 3.926670078550e-04 0.0 
3.926670078550e-04 1.252712271427e-04 0.0 
0.0 0.0 -7.416041764780e-05 
-9.647575502476e-04 -2.771769126341e-06 0.0 
-2.771769126341e-06 5.776762544034e-03 0.0 
0.0 0.0 -8.684787984471e-04 
-1.350888138525e-03 -1.433490915200e-04 0.0 
-1.433490915200e-04 8.608994521473e-03 0.0 
0.0 0.0 -1.313906642692e-03 
2.535763956766e-04 3.453965229505e-05 0.0 
3.453965229505e-05 1.648612099088e-04 0.0 
0.0 0.0 -1.090843966873e-04 
-1.275593957644e-03 1.853867106533e-05 0.0 
1.853867106533e-05 8.418825182379e-03 0.0 
0.0 0.0 -1.253930875827e-03 
-8.953448143456e-04 1.901723990594e-04 0.0 
1.901723990594e-04 4.929510438704e-03 0.0 
0.0 0.0 -7.532271817479e-04 
-9.242130448013e-04 2.218369834796e-04 0.0 
2.218369834796e-04 5.094044769017e-03 0.0 
0.0 0.0 -7.809350190597e-04 
-9.469027331401e-04 2.184886764960e-04 0.0 
2.184886764960e-04 5.336848493436e-03 0.0 
0.0 0.0 -8.115578932774e-04 
-9.847582339447e-04 2.348277518639e-04 0.0 
2.348277518639e-04 5.535490339246e-03 0.0 
0.0 0.0 -8.428390908522e-04 
-1.013224796440e-03 2.269955445031e-04 0.0 
2.269955445031e-04 5.773109205172e-03 0.0 
0.0 0.0 -8.784658474099e-04 
-1.038385862696e-03 2.590411142921e-04 0.0 
2.590411142921e-04 5.954479327597e-03 0.0 
0.0 0.0 -9.060409163497e-04 
-1.004174411440e-03 2.781484189758e-04 0.0 
2.781484189758e-04 5.703926568537e-03 0.0 
0.0 0.0 -8.711257577415e-04 
-1.054585459025e-03 2.973439443916e-04 0.0 
2.973439443916e-04 6.126110480118e-03 0.0 
0.0 0.0 -9.341442283280e-04 
-1.020905393351e-03 3.220952727550e-04 0.0 
3.220952727550e-04 5.866625374892e-03 0.0 
0.0 0.0 -8.989774131092e-04 
-1.060675836449e-03 2.424242741137e-04 0.0 
2.424242741137e-04 6.211611638975e-03 0.0 
0.0 0.0 -9.415083590319e-04 
-1.069903741450e-03 3.342745829502e-04 0.0 
3.342745829502e-04 6.289952349254e-03 0.0 
0.0 0.0 -9.622976032585e-04 
-1.033366094007e-03 3.621226093725e-04 0.0 
3.621226093725e-04 6.024211968433e-03 0.0 
0.0 0.0 -9.268639294333e-04 
-1.081748877589e-03 3.725821950626e-04 0.0 
3.725821950626e-04 6.448138080981e-03 0.0 
0.0 0.0 -9.903372159162e-04 
-1.042953915019e-03 3.991340856965e-04 0.0 
3.991340856965e-04 6.178329635147e-03 0.0 
0.0 0.0 -9.547708836903e-04 
-9.946320659626e-04 3.943126043460e-04 0.0 
3.943126043460e-04 5.758814307551e-03 0.0 
0.0 0.0 -8.916807130883e-04 
-1.001107217771e-03 4.332773723891e-04 0.0 
4.332773723891e-04 5.906894361937e-03 0.0 
0.0 0.0 -9.194532194038e-04 
-9.524385169357e-04 4.327952618966e-04 0.0 
4.327952618966e-04 5.490022466699e-03 0.0 
0.0 0.0 -8.565021464485e-04 
-9.551941416785e-04 4.714703413802e-04 0.0 
4.714703413802e-04 5.632535536945e-03 0.0 
0.0 0.0 -8.841639842141e-04 
-1.003948910985e-03 4.659340529388e-04 0.0 
4.659340529388e-04 6.052492370979e-03 0.0 
0.0 0.0 -9.471984275390e-04 
-9.534464918986e-04 5.005026845975e-04 0.0 
5.005026845975e-04 5.770878701320e-03 0.0 
0.0 0.0 -9.118195294070e-04 
-9.061256584098e-04 5.150134062317e-04 0.0 
5.150134062317e-04 5.352614190247e-03 0.0 
0.0 0.0 -8.488396520500e-04 
-8.989049191365e-04 5.434397803423e-04 0.0 
5.434397803423e-04 5.483228311018e-03 0.0 
0.0 0.0 -8.764089341820e-04 
-8.533039374695e-04 5.667693254413e-04 0.0 
5.667693254413e-04 5.068208533921e-03 0.0 
0.0 0.0 -8.135623229517e-04 
-8.400733524865e-04 5.914836390070e-04 0.0 
5.914836390070e-04 5.191255654721e-03 0.0 
0.0 0.0 -8.410744910442e-04 
-7.968543408339e-04 6.237249391908e-04 0.0 
6.237249391908e-04 4.777124479860e-03 0.0 
0.0 0.0 -7.781617608290e-04 
-7.768533972698e-04 6.436004668132e-04 0.0 
6.436004668132e-04 4.892920097115e-03 0.0 
0.0 0.0 -8.056965831182e-04 
-8.240566969273e-04 5.997503228454e-04 0.0 
5.997503228454e-04 5.313376653990e-03 0.0 
0.0 0.0 -8.686949506212e-04 
-7.549029941076e-04 6.445435251704e-04 0.0 
6.445435251704e-04 5.007797875212e-03 0.0 
0.0 0.0 -8.332427817419e-04 
-7.080731455591e-04 7.008821416478e-04 0.0 
7.008821416478e-04 4.586577191639e-03 0.0 
0.0 0.0 -7.703313069557e-04 
-6.796342790660e-04 6.889970591832e-04 0.0 
6.889970591832e-04 4.694361205396e-03 0.0 
0.0 0.0 -7.977945042040e-04 
-6.329025767040e-04 7.594983388287e-04 0.0 
7.594983388287e-04 4.271526927018e-03 0.0 
0.0 0.0 -7.349073124327e-04 
-5.970419350956e-04 7.303350951608e-04 0.0 
7.303350951608e-04 4.369967111415e-03 0.0 
0.0 0.0 -7.622392297106e-04 
-6.532929672579e-04 6.522887049741e-04 0.0 
6.522887049741e-04 4.806542372592e-03 0.0 
0.0 0.0 -8.253152238873e-04 
-5.665194748989e-04 6.694860838181e-04 0.0 
6.694860838181e-04 4.478701756150e-03 0.0 
0.0 0.0 -7.896995018144e-04 
-5.068058502527e-04 7.602496009026e-04 0.0 
7.602496009026e-04 4.031209139410e-03 0.0 
0.0 0.0 -7.264132926703e-04 
-4.737449794266e-04 6.709445860115e-04 0.0 
6.709445860115e-04 4.140917238724e-03 0.0 
0.0 0.0 -7.539848323805e-04 
-4.092281239023e-04 7.730243516518e-04 0.0 
7.730243516518e-04 3.680765614921e-03 0.0 
0.0 0.0 -6.903858661722e-04 
-3.744957372966e-04 6.516877818939e-04 0.0 
6.516877818939e-04 3.794607072583e-03 0.0 
0.0 0.0 -7.182351804274e-04 
-3.014418119782e-04 7.651198626849e-04 0.0 
7.651198626849e-04 3.317111817818e-03 0.0 
0.0 0.0 -6.542402593883e-04 
-2.691367924077e-04 5.991354595496e-04 0.0 
5.991354595496e-04 3.436288112929e-03 0.0 
0.0 0.0 -6.821763112594e-04 
-3.572033048063e-04 5.016025540799e-04 0.0 
5.016025540799e-04 3.930238801817e-03 0.0 
0.0 0.0 -7.460902125261e-04 
-2.604633093040e-04 4.087486075233e-04 0.0 
4.087486075233e-04 3.586761049540e-03 0.0 
0.0 0.0 -7.100832486075e-04 
-1.613056217724e-04 4.995138349428e-04 0.0 
4.995138349428e-04 3.072389318551e-03 0.0 
0.0 0.0 -6.458624074531e-04 
-1.669705829229e-04 2.701808013183e-04 0.0 
2.701808013183e-04 3.243787358763e-03 0.0 
0.0 0.0 -6.737786430284e-04 
-2.753947664968e-04 2.161212745525e-04 0.0 
2.161212745525e-04 3.768674846201e-03 0.0 
0.0 0.0 -7.381473126730e-04 
-2.005498486414e-04 5.346396201185e-05 0.0 
5.346396201185e-05 3.452103226554e-03 0.0 
0.0 0.0 -7.017500108595e-04 
-3.129525029214e-04 3.691539212023e-05 0.0 
3.691539212023e-05 3.980008917697e-03 0.0 
0.0 0.0 -7.662494016216e-04 
-2.576506604218e-04 -1.344602376400e-04 0.0 
-1.344602376400e-04 3.691587731914e-03 0.0 
0.0 0.0 -7.297828278826e-04 
-1.426325829897e-04 -1.501001214894e-04 0.0 
-1.501001214894e-04 3.157731231159e-03 0.0 
0.0 0.0 -6.655364893108e-04 
-2.218003623758e-04 -3.334729403515e-04 0.0 
-3.334729403515e-04 3.428848173996e-03 0.0 
0.0 0.0 -6.934067383651e-04 
-3.318343911700e-04 -2.853674173367e-04 0.0 
-2.853674173367e-04 3.952815162001e-03 0.0 
0.0 0.0 -7.577868799165e-04 
-3.144801710965e-04 -4.682272711583e-04 0.0 
-4.682272711583e-04 3.714915939774e-03 0.0 
0.0 0.0 -7.212202614536e-04 
-2.108184981842e-04 -5.509789330318e-04 0.0 
-5.509789330318e-04 3.196953321697e-03 0.0 
0.0 0.0 -6.571136838490e-04 
-3.194748950850e-04 -6.509678457029e-04 0.0 
-6.509678457029e-04 3.509025892108e-03 0.0 
0.0 0.0 -6.848379476561e-04 
-4.134303053585e-04 -5.537180261355e-04 0.0 
-5.537180261355e-04 4.010754256809e-03 0.0 
0.0 0.0 -7.491645792950e-04 
-4.282972412297e-04 -7.003622053819e-04 0.0 
-7.003622053819e-04 3.819503617895e-03 0.0 
0.0 0.0 -7.127097857715e-04 
-3.469063150971e-04 -8.191207970740e-04 0.0 
-8.191207970740e-04 3.332834435183e-03 0.0 
0.0 0.0 -6.486049398320e-04 
-4.603200915782e-04 -8.241016297384e-04 0.0 
-8.241016297384e-04 3.654972315785e-03 0.0 
0.0 0.0 -6.763006240845e-04 
-5.326763552168e-04 -7.095630877107e-04 0.0 
-7.095630877107e-04 4.127629826769e-03 0.0 
0.0 0.0 -7.409416231994e-04 
-5.642434690968e-04 -7.961766967206e-04 0.0 
-7.961766967206e-04 3.962246775740e-03 0.0 
0.0 0.0 -7.042275185679e-04 
-5.048810542407e-04 -9.111393169982e-04 0.0 
-9.111393169982e-04 3.507729400124e-03 0.0 
0.0 0.0 -6.398389559308e-04 
-6.027165900428e-04 -8.444966016725e-04 0.0 
-8.444966016725e-04 3.810620087909e-03 0.0 
0.0 0.0 -6.674633383154e-04 
-6.579291994771e-04 -7.450391146030e-04 0.0 
-7.450391146030e-04 4.258237816838e-03 0.0 
0.0 0.0 -7.324886333286e-04 
-6.885251553241e-04 -7.661379123145e-04 0.0 
-7.661379123145e-04 4.095680745521e-03 0.0 
0.0 0.0 -6.954027321055e-04 
-7.420005201256e-04 -6.813900099092e-04 0.0 
-6.813900099092e-04 4.540296059999e-03 0.0 
0.0 0.0 -7.608997874520e-04 
-6.419229239274e-04 -8.515280830913e-04 0.0 
-8.515280830913e-04 3.660198205629e-03 0.0 
0.0 0.0 -6.302092384919e-04 
-7.165087956100e-04 -7.532581299851e-04 0.0 
-7.532581299851e-04 3.933160643348e-03 0.0 
0.0 0.0 -6.580989212857e-04 
-6.748415764425e-04 -8.158732049488e-04 0.0 
-8.158732049488e-04 3.506981101763e-03 0.0 
0.0 0.0 -5.925517106747e-04 
-7.365832294088e-04 -7.073699189760e-04 0.0 
-7.073699189760e-04 3.765896700508e-03 0.0 
0.0 0.0 -6.207111136070e-04 
-6.332000182986e-04 5.918731838089e-04 0.0 
5.918731838089e-04 4.929291128701e-03 0.0 
0.0 0.0 -8.529317679587e-04 
-6.943116331248e-04 -7.425915444218e-04 0.0 
-7.425915444218e-04 3.344277999279e-03 0.0 
0.0 0.0 -5.549884598765e-04 
-6.397413698948e-04 -8.660814527003e-04 0.0 
-8.660814527003e-04 3.093984914707e-03 0.0 
0.0 0.0 -5.276250340903e-04 
-7.441497249529e-04 -6.348309289793e-04 0.0 
-6.348309289793e-04 3.588685288948e-03 0.0 
0.0 0.0 -5.833260987948e-04 
-7.927694967591e-04 -6.072286345187e-04 0.0 
-6.072286345187e-04 4.017000879105e-03 0.0 
0.0 0.0 -6.493616581942e-04 
-6.966675025981e-04 -6.428656991036e-04 0.0 
-6.428656991036e-04 3.166084591150e-03 0.0 
0.0 0.0 -5.173870653820e-04 
-7.365323002863e-04 -5.431818663254e-04 0.0 
-5.431818663254e-04 3.397457388952e-03 0.0 
0.0 0.0 -5.459094278256e-04 
-6.801980278813e-04 -5.258870908465e-04 0.0 
-5.258870908465e-04 2.971149924429e-03 0.0 
0.0 0.0 -4.798161731008e-04 
-3.522724475006e-04 8.978406558880e-04 0.0 
8.978406558880e-04 3.218246737404e-03 0.0 
0.0 0.0 -6.252159162693e-04 
-1.003922379852e-03 4.867498946042e-04 0.0 
4.867498946042e-04 6.194900288835e-03 0.0 
0.0 0.0 -9.750716696758e-04 
-7.134730581966e-04 -4.396097415729e-04 0.0 
-4.396097415729e-04 3.191992919970e-03 0.0 
0.0 0.0 -5.084495576641e-04 
-6.454975030147e-04 -4.098543326581e-04 0.0 
-4.098543326581e-04 2.756723401947e-03 0.0 
0.0 0.0 -4.423119711188e-04 
-6.169555617155e-04 -4.854535332185e-04 0.0 
-4.854535332185e-04 2.543124995000e-03 0.0 
0.0 0.0 -4.136824817550e-04 
-5.630688119643e-04 -3.553409865602e-04 0.0 
-3.553409865602e-04 2.315573721592e-03 0.0 
0.0 0.0 -3.761903503575e-04 
-1.032297422083e-03 1.966440866369e-04 0.0 
1.966440866369e-04 6.038887422175e-03 0.0 
0.0 0.0 -9.126358703463e-04 
-1.092679819842e-03 2.404953654437e-04 0.0 
2.404953654437e-04 6.471742125457e-03 0.0 
0.0 0.0 -9.772611937912e-04 
-1.065662184042e-03 1.952825978825e-04 0.0 
1.952825978825e-04 6.276115658093e-03 0.0 
0.0 0.0 -9.468612964576e-04 
-1.124488971150e-03 2.272669760496e-04 0.0 
2.272669760496e-04 6.729090336894e-03 0.0 
0.0 0.0 -1.012955122490e-03 
-1.098065280761e-03 1.864830102051e-04 0.0 
1.864830102051e-04 6.541298868571e-03 0.0 
0.0 0.0 -9.835180958883e-04 
-5.915603593799e-04 -3.065298427479e-04 0.0 
-3.065298427479e-04 2.521782196510e-03 0.0 
0.0 0.0 -4.047791634435e-04 
-1.117175513921e-03 3.540420738705e-04 0.0 
3.540420738705e-04 6.717826161917e-03 0.0 
0.0 0.0 -1.026687169009e-03 
-1.146459728684e-03 2.677090129604e-04 0.0 
2.677090129604e-04 6.908937528882e-03 0.0 
0.0 0.0 -1.042264213861e-03 
-8.619810308033e-04 5.269046982762e-04 0.0 
5.269046982762e-04 4.942534175484e-03 0.0 
0.0 0.0 -7.861871271282e-04 
-6.685992335526e-04 7.579980182072e-04 0.0 
7.579980182072e-04 4.174187567995e-03 0.0 
0.0 0.0 -7.076088937226e-04 
-3.823000922578e-04 1.751040962943e-04 0.0 
1.751040962943e-04 4.285393794973e-03 0.0 
0.0 0.0 -8.027518904046e-04 
-7.754697783619e-04 -4.563258168331e-04 0.0 
-4.563258168331e-04 3.623603682734e-03 0.0 
0.0 0.0 -5.745905038755e-04 
-7.478137892348e-04 -3.620965601600e-04 0.0 
-3.620965601600e-04 3.412205611854e-03 0.0 
0.0 0.0 -5.371338854166e-04 
-8.174754817651e-04 -3.813163108904e-04 0.0 
-3.813163108904e-04 3.849101426160e-03 0.0 
0.0 0.0 -6.033452624549e-04 
-7.192525572030e-04 -6.519418612780e-04 0.0 
-6.519418612780e-04 4.714458239345e-03 0.0 
0.0 0.0 -7.980428604176e-04 
-8.008672232585e-04 -6.001783307384e-04 0.0 
-6.001783307384e-04 4.992005436326e-03 0.0 
0.0 0.0 -8.266132305475e-04 
-7.854918836627e-04 -5.659348858598e-04 0.0 
-5.659348858598e-04 5.176434454621e-03 0.0 
0.0 0.0 -8.638188500004e-04 
-8.639017049063e-04 -5.248351014622e-04 0.0 
-5.248351014622e-04 5.448454375514e-03 0.0 
0.0 0.0 -8.924533907576e-04 
-8.555184497349e-04 -4.894755576408e-04 0.0 
-4.894755576408e-04 5.642058910946e-03 0.0 
0.0 0.0 -9.297164513315e-04 
-9.301291339826e-04 -4.570426975750e-04 0.0 
-4.570426975750e-04 5.908844626244e-03 0.0 
0.0 0.0 -9.583747859490e-04 
-9.353789003032e-04 -4.780922276340e-04 0.0 
-4.780922276340e-04 5.711821717037e-03 0.0 
0.0 0.0 -9.210728288235e-04 
-9.984662583326e-04 -4.207024963502e-04 0.0 
-4.207024963502e-04 6.168121907027e-03 0.0 
0.0 0.0 -9.870277070005e-04 
-1.000069004232e-03 -4.285924737525e-04 0.0 
-4.285924737525e-04 5.966651563586e-03 0.0 
0.0 0.0 -9.497007337289e-04 
-9.283284515458e-04 -4.229135290675e-04 0.0 
-4.229135290675e-04 6.110180447664e-03 0.0 
0.0 0.0 -9.956835613869e-04 
-8.527578693464e-04 -4.403303765288e-04 0.0 
-4.403303765288e-04 5.842885643991e-03 0.0 
0.0 0.0 -9.668198671257e-04 
-1.059819806392e-03 -3.815720688592e-04 0.0 
-3.815720688592e-04 6.418981492352e-03 0.0 
0.0 0.0 -1.015681523326e-03 
-1.057949721367e-03 -3.770560260125e-04 0.0 
-3.770560260125e-04 6.213345858748e-03 0.0 
0.0 0.0 -9.783260305704e-04 
-1.113690001508e-03 -3.391138449317e-04 0.0 
-3.391138449317e-04 6.662067817752e-03 0.0 
0.0 0.0 -1.044362401637e-03 
-1.108897527401e-03 -3.261874601882e-04 0.0 
-3.261874601882e-04 6.451449547970e-03 0.0 
0.0 0.0 -1.007007767922e-03 
-1.056102434059e-03 -3.617377197121e-04 0.0 
-3.617377197121e-04 6.006353850389e-03 0.0 
0.0 0.0 -9.408676861799e-04 
-1.103510128039e-03 -3.034940289184e-04 0.0 
-3.034940289184e-04 6.238484304806e-03 0.0 
0.0 0.0 -9.695029660748e-04 
-1.052845247082e-03 -3.373861149014e-04 0.0 
-3.373861149014e-04 5.798954310895e-03 0.0 
0.0 0.0 -9.035672079865e-04 
-4.228503435162e-04 2.652797493901e-05 0.0 
2.652797493901e-05 4.498640496550e-03 0.0 
0.0 0.0 -8.309624794500e-04 
-4.884683166150e-04 1.460460655517e-04 0.0 
1.460460655517e-04 4.796700712876e-03 0.0 
0.0 0.0 -8.675775700443e-04 
-5.309148746778e-04 2.225588307319e-05 0.0 
2.225588307319e-05 5.010085131158e-03 0.0 
0.0 0.0 -8.958500940740e-04 
-5.943549435448e-04 1.251718936452e-04 0.0 
1.251718936452e-04 5.302582402065e-03 0.0 
0.0 0.0 -9.325549191312e-04 
-6.382538609797e-04 2.086054713912e-05 0.0 
2.086054713912e-05 5.516155282354e-03 0.0 
0.0 0.0 -9.609176734917e-04 
-7.011603817707e-04 1.101794033340e-04 0.0 
1.101794033340e-04 5.804703043974e-03 0.0 
0.0 0.0 -9.976363410588e-04 
-7.465959866999e-04 2.216834778625e-05 0.0 
2.216834778625e-05 6.016830116331e-03 0.0 
0.0 0.0 -1.026032504441e-03 
-6.923978724816e-04 -6.826398853254e-05 0.0 
-6.826398853254e-05 5.743653636097e-03 0.0 
0.0 0.0 -9.892761093610e-04 
-1.092308246197e-03 4.087334969491e-04 0.0 
4.087334969491e-04 6.601377400440e-03 0.0 
0.0 0.0 -1.018102500310e-03 
-5.675897396992e-05 3.425637172408e-04 0.0 
3.425637172408e-04 2.708861454988e-03 0.0 
0.0 0.0 -6.095594541484e-04 
-6.420114659775e-05 6.151203334216e-04 0.0 
6.151203334216e-04 2.551183745386e-03 0.0 
0.0 0.0 -5.816898710390e-04 
5.441246620249e-05 4.399473863901e-04 0.0 
4.399473863901e-04 2.161774981432e-03 0.0 
0.0 0.0 -5.454521931755e-04 
2.844502818309e-05 7.644395339616e-04 0.0 
7.644395339616e-04 2.024830997844e-03 0.0 
0.0 0.0 -5.176388733440e-04 
1.652901373793e-04 5.705702379394e-04 0.0 
5.705702379394e-04 1.600345183292e-03 0.0 
0.0 0.0 -4.814163979944e-04 
1.130601457631e-04 9.562292981796e-04 0.0 
9.562292981796e-04 1.494895390825e-03 0.0 
0.0 0.0 -4.537165770244e-04 
2.845119300012e-04 7.483953602617e-04 0.0 
7.483953602617e-04 1.019187802654e-03 0.0 
0.0 0.0 -4.208902240644e-04 
2.929325993539e-04 2.620833489363e-04 0.0 
2.620833489363e-04 1.186149753907e-03 0.0 
0.0 0.0 -4.466351565148e-04 
4.659960569609e-04 3.874152989476e-04 0.0 
3.874152989476e-04 5.352766773023e-04 0.0 
0.0 0.0 -3.736376070058e-04 
4.059265982279e-04 -1.758088808093e-04 0.0 
-1.758088808093e-04 8.092916298160e-04 0.0 
0.0 0.0 -4.168446658567e-04 
5.790431118009e-04 -1.610129805314e-04 0.0 
-1.610129805314e-04 1.533127793959e-04 0.0 
0.0 0.0 -3.063790003961e-04 
4.494391646470e-04 -7.152402717994e-04 0.0 
-7.152402717994e-04 5.082279969168e-04 0.0 
0.0 0.0 -3.640020775467e-04 
-8.080190775198e-04 5.920502661192e-04 0.0 
5.920502661192e-04 5.436356176569e-03 0.0 
0.0 0.0 -8.963565068603e-04 
-6.651558879210e-04 2.088271070434e-04 0.0 
2.088271070434e-04 5.603894024499e-03 0.0 
0.0 0.0 -9.691568884624e-04 
-7.699005087498e-04 1.883379167874e-04 0.0 
1.883379167874e-04 6.102423018858e-03 0.0 
0.0 0.0 -1.034312087004e-03 
-7.384024095732e-04 2.760115291154e-04 0.0 
2.760115291154e-04 5.907746579569e-03 0.0 
0.0 0.0 -1.005320805676e-03 
-5.404221803057e-04 -4.187129725138e-04 0.0 
-4.187129725138e-04 2.110154003912e-03 0.0 
0.0 0.0 -3.475522021424e-04 
-1.152888887005e-03 -2.763407572661e-04 0.0 
-2.763407572661e-04 6.681517292358e-03 0.0 
0.0 0.0 -1.035773625862e-03 
-9.326850124499e-04 -3.805734010338e-04 0.0 
-3.805734010338e-04 6.318938914437e-03 0.0 
0.0 0.0 -1.032922975483e-03 
-8.578946226242e-04 -3.814307824260e-04 0.0 
-3.814307824260e-04 6.050788235921e-03 0.0 
0.0 0.0 -1.003739924893e-03 
-8.007230077279e-04 -5.030783828559e-05 0.0 
-5.030783828559e-05 6.244226135644e-03 0.0 
0.0 0.0 -1.054598834243e-03 
-4.941523760955e-04 -2.470231279283e-04 0.0 
-2.470231279283e-04 2.071816915527e-03 0.0 
0.0 0.0 -3.392587823741e-04 
1.975953042673e-04 1.172543779916e-03 0.0 
1.172543779916e-03 9.666654142640e-04 0.0 
0.0 0.0 -3.922431101850e-04 
5.175793587872e-06 1.277837662737e-03 0.0 
1.277837662737e-03 1.466786264722e-03 0.0 
0.0 0.0 -4.261104576107e-04 
-1.152692083578e-03 2.146597661269e-04 0.0 
2.146597661269e-04 6.983288018661e-03 0.0 
0.0 0.0 -1.048874596840e-03 
-1.125979627456e-03 1.800276227316e-04 0.0 
1.800276227316e-04 6.792196765101e-03 0.0 
0.0 0.0 -1.019458214591e-03 
-9.448287362971e-04 -3.295389867260e-04 0.0 
-3.295389867260e-04 6.536387605041e-03 0.0 
0.0 0.0 -1.070157681403e-03 
-5.240293716215e-04 -2.102668930863e-04 0.0 
-2.102668930863e-04 2.277314558376e-03 0.0 
0.0 0.0 -3.675747464493e-04 
-1.063791247498e-03 -3.742192618344e-04 0.0 
-3.742192618344e-04 6.627422368744e-03 0.0 
0.0 0.0 -1.052997445444e-03 
5.558984473440e-04 4.127353325470e-04 0.0 
4.127353325470e-04 1.463881506699e-05 0.0 
0.0 0.0 -2.445159696047e-04 
-1.144117684349e-03 -2.458346103954e-04 0.0 
-2.458346103954e-04 6.462839923362e-03 0.0 
0.0 0.0 -9.982306137915e-04 
-1.191309827109e-03 -2.266694415371e-04 0.0 
-2.266694415371e-04 6.904200660223e-03 0.0 
0.0 0.0 -1.064501221861e-03 
-9.418341400068e-04 -4.830251057162e-04 0.0 
-4.830251057162e-04 5.517520339527e-03 0.0 
0.0 0.0 -8.838659695519e-04 
-8.408929706273e-04 2.533730996691e-04 0.0 
2.533730996691e-04 6.403362100756e-03 0.0 
0.0 0.0 -1.070909199420e-03 
-8.123210735737e-04 3.267258872306e-04 0.0 
3.267258872306e-04 6.208133296915e-03 0.0 
0.0 0.0 -1.041442769611e-03 
2.640974401389e-04 -6.120925406395e-04 0.0 
-6.120925406395e-04 1.170954425306e-03 0.0 
0.0 0.0 -4.384799197683e-04 
2.270076462303e-04 -1.094827319140e-03 0.0 
-1.094827319140e-03 9.810701092341e-04 0.0 
0.0 0.0 -4.046094527367e-04 
3.640551099348e-04 -1.155184556941e-03 0.0 
-1.155184556941e-03 4.131638396833e-04 0.0 
0.0 0.0 -3.139947606995e-04 
1.171979887630e-04 -1.455005939438e-03 0.0 
-1.455005939438e-03 9.453620887615e-04 0.0 
0.0 0.0 -3.763072820036e-04 
2.556371078841e-05 -1.262704422364e-03 0.0 
-1.262704422364e-03 1.454464914390e-03 0.0 
0.0 0.0 -4.289053338950e-04 
-8.947678599683e-05 -1.490768828574e-03 0.0 
-1.490768828574e-03 1.396555812330e-03 0.0 
0.0 0.0 -3.979758726750e-04 
2.329510608106e-05 -1.514078363831e-03 0.0 
-1.514078363831e-03 9.452166061342e-04 0.0 
0.0 0.0 -3.667276109228e-04 
-2.100553572376e-04 -1.558593298157e-03 0.0 
-1.558593298157e-03 1.402552177449e-03 0.0 
0.0 0.0 -3.771854463149e-04 
-2.665534885264e-04 -1.440543195804e-03 0.0 
-1.440543195804e-03 1.828480576306e-03 0.0 
0.0 0.0 -4.192720002935e-04 
-3.858828221178e-04 -1.432331817451e-03 0.0 
-1.432331817451e-03 1.803183213938e-03 0.0 
0.0 0.0 -3.853829593207e-04 
-2.961455271275e-04 -1.398427341996e-03 0.0 
-1.398427341996e-03 1.416563920223e-03 0.0 
0.0 0.0 -3.646163496721e-04 
-4.654616132702e-04 -1.259328861233e-03 0.0 
-1.259328861233e-03 1.764244007017e-03 0.0 
0.0 0.0 -3.558200702016e-04 
-1.201889062818e-03 -2.543911578407e-04 0.0 
-2.543911578407e-04 7.124942193322e-03 0.0 
0.0 0.0 -1.101875158976e-03 
5.412904168970e-04 -8.385322248721e-05 0.0 
-8.385322248721e-05 -1.404456435363e-04 0.0 
0.0 0.0 -1.717906171546e-04 
-9.463800631761e-04 3.860027273263e-04 0.0 
3.860027273263e-04 5.343793686453e-03 0.0 
0.0 0.0 -8.288706041983e-04 
-1.014362980206e-03 -3.321555799501e-04 0.0 
-3.321555799501e-04 6.794335154877e-03 0.0 
0.0 0.0 -1.099012274073e-03 
-8.569045148225e-04 3.078985663283e-05 0.0 
3.078985663283e-05 6.510332221214e-03 0.0 
0.0 0.0 -1.090660416876e-03 
-1.178566600954e-03 2.066846340334e-04 0.0 
2.066846340334e-04 7.236502688045e-03 0.0 
0.0 0.0 -1.085032576515e-03 
-1.153658343620e-03 1.755152393049e-04 0.0 
1.755152393049e-04 7.044914703598e-03 0.0 
0.0 0.0 -1.055603631703e-03 
-1.098678134952e-03 1.564744163133e-04 0.0 
1.564744163133e-04 6.595940529562e-03 0.0 
0.0 0.0 -9.897378988699e-04 
-1.129113373444e-03 1.503482155027e-04 0.0 
1.503482155027e-04 6.853244331223e-03 0.0 
0.0 0.0 -1.026001677571e-03 
-1.181824965340e-03 1.678156779438e-04 0.0 
1.678156779438e-04 7.301020112961e-03 0.0 
0.0 0.0 -1.091942449670e-03 
-1.157557793781e-03 1.434383666525e-04 0.0 
1.434383666525e-04 7.107529686986e-03 0.0 
0.0 0.0 -1.062342898562e-03 
-1.103342207633e-03 1.238709536611e-04 0.0 
1.238709536611e-04 6.657901312686e-03 0.0 
0.0 0.0 -9.962627399151e-04 
-1.130139591936e-03 1.194308116232e-04 0.0 
1.194308116232e-04 6.908298246914e-03 0.0 
0.0 0.0 -1.032646955902e-03 
-1.072650473166e-03 9.941159075289e-05 0.0 
9.941159075289e-05 6.455574140328e-03 0.0 
0.0 0.0 -9.664557332607e-04 
-1.101356119743e-03 9.815565709695e-05 0.0 
9.815565709695e-05 6.706288769856e-03 0.0 
0.0 0.0 -1.002889032254e-03 
-1.155889062888e-03 1.141636426079e-04 0.0 
1.141636426079e-04 7.157664523701e-03 0.0 
0.0 0.0 -1.069134413525e-03 
-1.129364737971e-03 9.069177524751e-05 0.0 
9.069177524751e-05 6.958007176896e-03 0.0 
0.0 0.0 -1.039387411609e-03 
-1.074512864600e-03 8.003659807365e-05 0.0 
8.003659807365e-05 6.506063569350e-03 0.0 
0.0 0.0 -9.730575354659e-04 
-1.102505706781e-03 6.895302199807e-05 0.0 
6.895302199807e-05 6.755927681467e-03 0.0 
0.0 0.0 -1.009574527126e-03 
-1.046730538131e-03 5.947738879001e-05 0.0 
5.947738879001e-05 6.301429284161e-03 0.0 
0.0 0.0 -9.431603702596e-04 
-1.071542509842e-03 4.629020306893e-05 0.0 
4.629020306893e-05 6.545497453892e-03 0.0 
0.0 0.0 -9.796061197752e-04 
-1.128792209327e-03 6.597728227981e-05 0.0 
6.597728227981e-05 7.006220652052e-03 0.0 
0.0 0.0 -1.046101832713e-03 
-4.073418969283e-04 -1.607374412238e-04 0.0 
-1.607374412238e-04 1.828608037656e-03 0.0 
0.0 0.0 -3.035957800550e-04 
-7.554826328512e-04 -1.381735686785e-04 0.0 
-1.381735686785e-04 5.982792301535e-03 0.0 
0.0 0.0 -1.017732614895e-03 
-8.650297313857e-04 -1.043541426240e-04 0.0 
-1.043541426240e-04 6.483758424389e-03 0.0 
0.0 0.0 -1.083831836677e-03 
-7.928232165852e-04 -3.175969841458e-04 0.0 
-3.175969841458e-04 3.652484692606e-03 0.0 
0.0 0.0 -5.671321338944e-04 
-8.566347672055e-04 -3.217821912401e-04 0.0 
-3.217821912401e-04 4.048954472777e-03 0.0 
0.0 0.0 -6.325382687906e-04 
-8.804918361104e-04 -3.627202257711e-04 0.0 
-3.627202257711e-04 4.282181100263e-03 0.0 
0.0 0.0 -6.695659616924e-04 
-9.177573047803e-04 -2.924538415403e-04 0.0 
-2.924538415403e-04 4.507721826303e-03 0.0 
0.0 0.0 -6.986863204145e-04 
-1.099135465243e-03 4.357947276918e-05 0.0 
4.357947276918e-05 6.797671672464e-03 0.0 
0.0 0.0 -1.015477767897e-03 
-1.160436245727e-03 6.544078644588e-05 0.0 
6.544078644588e-05 7.256684604588e-03 0.0 
0.0 0.0 -1.082739357160e-03 
7.036319334209e-05 1.449833710054e-03 0.0 
1.449833710054e-03 1.011168072104e-03 0.0 
0.0 0.0 -3.730214571323e-04 
-1.313033917885e-04 1.466714958247e-03 0.0 
1.466714958247e-03 1.502828426790e-03 0.0 
0.0 0.0 -4.032920832132e-04 
-1.202425520628e-03 2.413601229435e-04 0.0 
2.413601229435e-04 7.423802842249e-03 0.0 
0.0 0.0 -1.114382729655e-03 
-1.180850422310e-03 -1.936004808914e-04 0.0 
-1.936004808914e-04 6.684429122052e-03 0.0 
0.0 0.0 -1.027045364000e-03 
-1.134320678585e-03 -2.084199271041e-04 0.0 
-2.084199271041e-04 6.243084428302e-03 0.0 
0.0 0.0 -9.609938998495e-04 
-5.952582294012e-04 8.316068584819e-04 0.0 
8.316068584819e-04 3.858437738170e-03 0.0 
0.0 0.0 -6.721935305596e-04 
-6.370100935664e-04 8.121723615139e-04 0.0 
8.121723615139e-04 3.769953827514e-03 0.0 
0.0 0.0 -6.449639573754e-04 
-5.665659749616e-04 8.991854182347e-04 0.0 
8.991854182347e-04 3.453268816289e-03 0.0 
0.0 0.0 -6.093131083769e-04 
-6.122481697245e-04 8.584550154617e-04 0.0 
8.584550154617e-04 3.367517643807e-03 0.0 
0.0 0.0 -5.812298138028e-04 
-6.717347223774e-04 7.671538527367e-04 0.0 
7.671538527367e-04 3.680324616707e-03 0.0 
0.0 0.0 -6.173664885638e-04 
-5.474862438506e-04 9.567364556164e-04 0.0 
9.567364556164e-04 3.048590303343e-03 0.0 
0.0 0.0 -5.448148816535e-04 
-7.720267330795e-04 -4.449545656596e-04 0.0 
-4.449545656596e-04 5.565922562376e-03 0.0 
0.0 0.0 -9.373051277721e-04 
-1.182206612194e-03 1.041005248131e-04 0.0 
1.041005248131e-04 7.409010778114e-03 0.0 
0.0 0.0 -1.105708206284e-03 
-5.928875136439e-04 -5.713513742364e-04 0.0 
-5.713513742364e-04 2.330327898660e-03 0.0 
0.0 0.0 -3.852871208612e-04 
-5.197872744909e-04 -4.881912543796e-04 0.0 
-4.881912543796e-04 1.906337896852e-03 0.0 
0.0 0.0 -3.193625892355e-04 
-1.227873719132e-03 -1.791865956722e-04 0.0 
-1.791865956722e-04 7.126040838435e-03 0.0 
0.0 0.0 -1.093300181677e-03 
-6.499802166189e-04 -1.689058959396e-04 0.0 
-1.689058959396e-04 5.481207367019e-03 0.0 
0.0 0.0 -9.522822042369e-04 
-8.770180670307e-04 5.584319225786e-04 0.0 
5.584319225786e-04 5.741150606381e-03 0.0 
0.0 0.0 -9.319735432435e-04 
-8.671724403427e-04 5.454834419887e-04 0.0 
5.454834419887e-04 5.872286509418e-03 0.0 
0.0 0.0 -9.598347391831e-04 
-9.359860302395e-04 5.226295226197e-04 0.0 
5.226295226197e-04 6.177406845640e-03 0.0 
0.0 0.0 -9.957130113267e-04 
-9.320971335610e-04 5.080083978468e-04 0.0 
5.080083978468e-04 6.315456934145e-03 0.0 
0.0 0.0 -1.023751803962e-03 
-1.000869956237e-03 4.939881751637e-04 0.0 
4.939881751637e-04 6.620841154437e-03 0.0 
0.0 0.0 -1.059873349132e-03 
-1.004419613008e-03 4.777529205192e-04 0.0 
4.777529205192e-04 6.763876066662e-03 0.0 
0.0 0.0 -1.087854580038e-03 
-9.336137141730e-04 4.809338762962e-04 0.0 
4.809338762962e-04 6.463526298401e-03 0.0 
0.0 0.0 -1.051791170495e-03 
-9.097029887622e-04 3.089094526998e-04 0.0 
3.089094526998e-04 6.700162919637e-03 0.0 
0.0 0.0 -1.107463318235e-03 
-1.013980886497e-03 4.491053628713e-04 0.0 
4.491053628713e-04 6.922381498406e-03 0.0 
0.0 0.0 -1.115916943430e-03 
-1.033295848304e-03 4.860531472176e-05 0.0 
4.860531472176e-05 6.321432505072e-03 0.0 
0.0 0.0 -9.487150400336e-04 
-6.387227248277e-04 3.148916192941e-04 0.0 
3.148916192941e-04 5.411845409225e-03 0.0 
0.0 0.0 -9.398448712237e-04 
-3.958753706079e-04 -1.306941406373e-03 0.0 
-1.306941406373e-03 2.210168825673e-03 0.0 
0.0 0.0 -4.474652294669e-04 
-3.867396229061e-04 -1.939364425131e-04 0.0 
-1.939364425131e-04 1.612473113241e-03 0.0 
0.0 0.0 -2.752498982733e-04 
-3.548792531294e-04 -1.099906862766e-03 0.0 
-1.099906862766e-03 1.383653509656e-03 0.0 
0.0 0.0 -3.352047878591e-04 
-4.486846026636e-04 -1.253624941077e-04 0.0 
-1.253624941077e-04 2.009661496099e-03 0.0 
0.0 0.0 -3.299748606085e-04 
-5.597023421830e-04 -1.650736869684e-04 0.0 
-1.650736869684e-04 2.479203026553e-03 0.0 
0.0 0.0 -3.961554456411e-04 
-1.033444219732e-03 -2.887128519644e-04 0.0 
-2.887128519644e-04 7.020027445513e-03 0.0 
0.0 0.0 -1.136360603439e-03 
-1.072616243485e-03 4.757105308921e-04 0.0 
4.757105308921e-04 7.071175993343e-03 0.0 
0.0 0.0 -1.124065295910e-03 
-1.065195527322e-03 4.849349100928e-04 0.0 
4.849349100928e-04 6.917548798149e-03 0.0 
0.0 0.0 -1.095615423988e-03 
-6.465811726499e-04 7.943118945265e-04 0.0 
7.943118945265e-04 3.291375737462e-03 0.0 
0.0 0.0 -5.539799138139e-04 
-6.949762395585e-04 6.852387151617e-04 0.0 
6.852387151617e-04 3.583300335040e-03 0.0 
0.0 0.0 -5.905304635153e-04 
-9.409548518096e-04 2.363101942403e-04 0.0 
2.363101942403e-04 6.893498553700e-03 0.0 
0.0 0.0 -1.136278651916e-03 
-1.031330535355e-03 1.691125997159e-04 0.0 
1.691125997159e-04 6.096244556870e-03 0.0 
0.0 0.0 -9.177848451843e-04 
-1.043451867895e-03 1.026605375003e-04 0.0 
1.026605375003e-04 6.207052540714e-03 0.0 
0.0 0.0 -9.302130594432e-04 
-1.010991519056e-03 8.266817185374e-05 0.0 
8.266817185374e-05 5.998028369178e-03 0.0 
0.0 0.0 -9.001900590098e-04 
-3.040782914078e-04 -1.048978576797e-04 0.0 
-1.048978576797e-04 1.479833111238e-03 0.0 
0.0 0.0 -2.595221258752e-04 
-1.668157979825e-04 -1.176981615551e-03 0.0 
-1.176981615551e-03 1.066881825257e-03 0.0 
0.0 0.0 -3.546314877250e-04 
-1.207894844135e-03 1.612820959581e-04 0.0 
1.612820959581e-04 7.555800088084e-03 0.0 
0.0 0.0 -1.128363834889e-03 
-1.496144498695e-04 1.267178183608e-03 0.0 
1.267178183608e-03 1.924933515505e-03 0.0 
0.0 0.0 -4.615872697407e-04 
-2.777481430259e-04 1.364720531140e-03 0.0 
1.364720531140e-03 1.941765323137e-03 0.0 
0.0 0.0 -4.342639779644e-04 
4.034334735409e-04 2.445431345025e-04 0.0 
2.445431345025e-04 -9.041096436294e-05 0.0 
0.0 0.0 -1.341525039334e-04 
2.051377463425e-04 -1.961701048020e-05 0.0 
-1.961701048020e-05 -5.720414671563e-05 0.0 
0.0 0.0 -6.340011412580e-05 
-1.121483383227e-03 6.295637452115e-05 0.0 
6.295637452115e-05 7.029111019756e-03 0.0 
0.0 0.0 -1.051814883004e-03 
-1.177494848702e-03 6.582362175726e-05 0.0 
6.582362175726e-05 7.492557943411e-03 0.0 
0.0 0.0 -1.117859435171e-03 
-9.333898311745e-04 -3.509792996749e-04 0.0 
-3.509792996749e-04 4.719089492349e-03 0.0 
0.0 0.0 -7.356929296387e-04 
-9.785857666390e-04 -2.860980495383e-04 0.0 
-2.860980495383e-04 4.943354100410e-03 0.0 
0.0 0.0 -7.648299719236e-04 
-9.654424262213e-04 -2.714537898239e-04 0.0 
-2.714537898239e-04 6.765873836397e-03 0.0 
0.0 0.0 -1.107558395918e-03 
-5.027897087658e-04 -9.882385644824e-04 0.0 
-9.882385644824e-04 1.682465534830e-03 0.0 
0.0 0.0 -3.185922720913e-04 
-1.207361177183e-03 7.219593573452e-05 0.0 
7.219593573452e-05 7.710745314262e-03 0.0 
0.0 0.0 -1.149181664990e-03 
-7.221207359935e-04 -2.319743394949e-04 0.0 
-2.319743394949e-04 5.736084564024e-03 0.0 
0.0 0.0 -9.807908033776e-04 
-6.199444920269e-04 -2.803458900383e-04 0.0 
-2.803458900383e-04 5.234294253432e-03 0.0 
0.0 0.0 -9.152404036620e-04 
-8.850179884087e-04 -2.107315013722e-04 0.0 
-2.107315013722e-04 4.277220058387e-03 0.0 
0.0 0.0 -6.604623333687e-04 
-7.131176054971e-05 1.522786260440e-03 0.0 
1.522786260440e-03 1.128166094303e-03 0.0 
0.0 0.0 -3.722456989795e-04 
1.506124378874e-04 1.353289082485e-03 0.0 
1.353289082485e-03 6.471948717885e-04 0.0 
0.0 0.0 -3.185609919049e-04 
-2.939037762269e-04 -1.257650241065e-03 0.0 
-1.257650241065e-03 2.275247472139e-03 0.0 
0.0 0.0 -4.845585894574e-04 
-5.488065046231e-04 -1.067445958774e-03 0.0 
-1.067445958774e-03 2.060865836395e-03 0.0 
0.0 0.0 -3.723415964733e-04 
-4.888098213751e-04 -1.052003350203e-04 0.0 
-1.052003350203e-04 2.216308377581e-03 0.0 
0.0 0.0 -3.583452993329e-04 
-1.062272686561e-03 -2.298804836140e-04 0.0 
-2.298804836140e-04 7.251651551201e-03 0.0 
0.0 0.0 -1.173829981771e-03 
-1.227876715994e-03 1.893009349700e-04 0.0 
1.893009349700e-04 7.743204952100e-03 0.0 
0.0 0.0 -1.157575248917e-03 
-9.423902529627e-04 4.304393189543e-04 0.0 
4.304393189543e-04 6.620906454591e-03 0.0 
0.0 0.0 -1.080172819833e-03 
-8.612685947681e-04 4.776509476654e-04 0.0 
4.776509476654e-04 6.154589150170e-03 0.0 
0.0 0.0 -1.015677837919e-03 
-1.022115058251e-03 4.070298504517e-04 0.0 
4.070298504517e-04 7.083428986968e-03 0.0 
0.0 0.0 -1.144955025780e-03 
-3.834899570330e-04 -7.958142673473e-04 0.0 
-7.958142673473e-04 1.299084562353e-03 0.0 
0.0 0.0 -2.798534577099e-04 
-1.102214544351e-03 -3.027150081502e-04 0.0 
-3.027150081502e-04 7.282068807861e-03 0.0 
0.0 0.0 -1.165794428787e-03 
-1.216895343866e-03 -1.441675384032e-04 0.0 
-1.441675384032e-04 6.902897395280e-03 0.0 
0.0 0.0 -1.056136825731e-03 
-1.138941837453e-03 4.914289706325e-04 0.0 
4.914289706325e-04 7.351648623001e-03 0.0 
0.0 0.0 -1.157598467365e-03 
-1.123764904198e-03 4.819548128218e-04 0.0 
4.819548128218e-04 7.209866110785e-03 0.0 
0.0 0.0 -1.131219827106e-03 
-2.809946016527e-04 1.203335788346e-03 0.0 
1.203335788346e-03 2.340542833527e-03 0.0 
0.0 0.0 -4.968499830348e-04 
-3.877477755505e-04 1.221962387701e-03 0.0 
1.221962387701e-03 2.338693931197e-03 0.0 
0.0 0.0 -4.705806478706e-04 
-4.036150361409e-04 1.336476693924e-03 0.0 
1.336476693924e-03 1.977592500610e-03 0.0 
0.0 0.0 -4.078257031896e-04 
-4.816859073884e-04 1.176560530353e-03 0.0 
1.176560530353e-03 2.343460801890e-03 0.0 
0.0 0.0 -4.438024830152e-04 
-9.732353814622e-04 3.041939387352e-04 0.0 
3.041939387352e-04 5.448266059909e-03 0.0 
0.0 0.0 -8.361670615232e-04 
-3.925437291381e-04 1.104523798212e-03 0.0 
1.104523798212e-03 2.729748532404e-03 0.0 
0.0 0.0 -5.333915535664e-04 
-9.057439282626e-04 4.261225243385e-04 0.0 
4.261225243385e-04 5.077306138642e-03 0.0 
0.0 0.0 -7.939299641313e-04 
-8.975208378586e-04 3.720025570421e-04 0.0 
3.720025570421e-04 4.930717473606e-03 0.0 
0.0 0.0 -7.665196690739e-04 
-8.600171473097e-04 4.161603871668e-04 0.0 
4.161603871668e-04 4.671461707836e-03 0.0 
0.0 0.0 -7.319524942586e-04 
-7.253516315596e-04 6.727829162625e-04 0.0 
6.727829162625e-04 3.972513731187e-03 0.0 
0.0 0.0 -6.527873785750e-04 
-7.385699352999e-04 5.948696391935e-04 0.0 
5.948696391935e-04 3.862508165088e-03 0.0 
0.0 0.0 -6.261871041946e-04 
-1.081656769382e-04 8.687696267767e-04 0.0 
8.687696267767e-04 2.439613486548e-03 0.0 
0.0 0.0 -5.534964465553e-04 
-4.602867709727e-04 2.826245204948e-04 0.0 
2.826245204948e-04 4.601098480980e-03 0.0 
0.0 0.0 -8.390310526140e-04 
-8.925257354332e-04 -4.271097572203e-04 0.0 
-4.271097572203e-04 4.492522403458e-03 0.0 
0.0 0.0 -7.069621042110e-04 
-1.002856146604e-03 -4.033307783673e-04 0.0 
-4.033307783673e-04 5.565178736137e-03 0.0 
0.0 0.0 -8.751042800696e-04 
-7.003078251289e-04 -5.958729416123e-04 0.0 
-5.958729416123e-04 4.895224615458e-03 0.0 
0.0 0.0 -8.350146568664e-04 
-1.207341521713e-03 1.295685592876e-04 0.0 
1.295685592876e-04 7.603516284320e-03 0.0 
0.0 0.0 -1.135109731873e-03 
-1.234147304705e-03 1.158810138817e-04 0.0 
1.158810138817e-04 7.860000857238e-03 0.0 
0.0 0.0 -1.171938512032e-03 
-1.015895156183e-03 6.930194114772e-05 0.0 
6.930194114772e-05 6.052013455342e-03 0.0 
0.0 0.0 -9.065739516476e-04 
-9.767996699331e-04 4.467953763507e-05 0.0 
4.467953763507e-05 5.838511550894e-03 0.0 
0.0 0.0 -8.764137937918e-04 
-4.392150575772e-04 -3.259674398810e-04 0.0 
-3.259674398810e-04 1.665337581441e-03 0.0 
0.0 0.0 -2.813159824896e-04 
-4.247097810398e-04 -3.644747280315e-04 0.0 
-3.644747280315e-04 1.471773465299e-03 0.0 
0.0 0.0 -2.533966087790e-04 
-8.177306416292e-04 -6.121829702514e-04 0.0 
-6.121829702514e-04 4.811548278672e-03 0.0 
0.0 0.0 -7.894497706086e-04 
-1.082360538362e-03 -3.264662476232e-04 0.0 
-3.264662476232e-04 7.048376439915e-03 0.0 
0.0 0.0 -1.127529358476e-03 
-1.227748397910e-03 2.361030321983e-04 0.0 
2.361030321983e-04 7.672982991330e-03 0.0 
0.0 0.0 -1.150095860580e-03 
-1.249888144017e-03 2.671434152154e-04 0.0 
2.671434152154e-04 7.859407510661e-03 0.0 
0.0 0.0 -1.179372829571e-03 
-1.222973776595e-03 2.761414432265e-04 0.0 
2.761414432265e-04 7.603174812567e-03 0.0 
0.0 0.0 -1.143369325255e-03 
-9.935045909858e-04 -2.028359368237e-04 0.0 
-2.028359368237e-04 6.995967624477e-03 0.0 
0.0 0.0 -1.144273392007e-03 
3.495269992969e-05 1.197649878409e-04 0.0 
1.197649878409e-04 2.359795329880e-03 0.0 
0.0 0.0 -5.733740095480e-04 
-4.781962153862e-04 -1.012252719499e-04 0.0 
-1.012252719499e-04 4.730438814657e-03 0.0 
0.0 0.0 -8.590966742019e-04 
3.810975112987e-04 -3.002206319640e-04 0.0 
-3.002206319640e-04 -7.297745490903e-05 0.0 
0.0 0.0 -1.320514527384e-04 
-7.161621287090e-04 5.841402981115e-04 0.0 
5.841402981115e-04 5.248781673340e-03 0.0 
0.0 0.0 -8.884627649733e-04 
-3.115080858313e-04 -2.227975807547e-04 0.0 
-2.227975807547e-04 1.202076532669e-03 0.0 
0.0 0.0 -2.162536877156e-04 
-1.055053453560e-03 4.626735760724e-04 0.0 
4.626735760724e-04 6.476326574185e-03 0.0 
0.0 0.0 -1.010319580236e-03 
-1.255576380871e-03 -1.315357551102e-04 0.0 
-1.315357551102e-04 7.338059588025e-03 0.0 
0.0 0.0 -1.122815839103e-03 
-1.267850494462e-03 -1.674624135979e-04 0.0 
-1.674624135979e-04 7.563446267715e-03 0.0 
0.0 0.0 -1.159213750608e-03 
-1.010702044889e-03 2.850279828007e-04 0.0 
2.850279828007e-04 7.183997457293e-03 0.0 
0.0 0.0 -1.171959308352e-03 
-8.963384137737e-04 2.488891316052e-04 0.0 
2.488891316052e-04 4.875662042004e-03 0.0 
0.0 0.0 -7.470952864203e-04 
-7.058007902936e-04 5.271243929450e-04 0.0 
5.271243929450e-04 5.385179954600e-03 0.0 
0.0 0.0 -9.162722660995e-04 
-6.228080214073e-04 5.120192170004e-04 0.0 
5.120192170004e-04 5.067178617559e-03 0.0 
0.0 0.0 -8.808726170640e-04 
-8.477370711112e-04 3.577431200157e-04 0.0 
3.577431200157e-04 4.525141676784e-03 0.0 
0.0 0.0 -7.048691535495e-04 
-8.132640120407e-04 4.004719993994e-04 0.0 
4.004719993994e-04 4.272493314920e-03 0.0 
0.0 0.0 -6.707530558731e-04 
-8.209482996094e-04 4.682329320479e-04 0.0 
4.682329320479e-04 4.408754927634e-03 0.0 
0.0 0.0 -6.972958566626e-04 
-7.782280701881e-04 4.523325447572e-04 0.0 
4.523325447572e-04 4.016412533301e-03 0.0 
0.0 0.0 -6.359606378414e-04 
-4.177281549139e-04 -1.168672558867e-03 0.0 
-1.168672558867e-03 2.631942087578e-03 0.0 
0.0 0.0 -5.122594947013e-04 
-4.962383683680e-04 -1.157174554661e-03 0.0 
-1.157174554661e-03 2.541178569243e-03 0.0 
0.0 0.0 -4.750188804659e-04 
-1.154021499096e-03 4.782775772644e-04 0.0 
4.782775772644e-04 7.573815285751e-03 0.0 
0.0 0.0 -1.192042136895e-03 
-1.094464537807e-03 4.618413052259e-04 0.0 
4.618413052259e-04 7.386095086857e-03 0.0 
0.0 0.0 -1.178660172201e-03 
-1.187593002781e-03 4.811019602591e-04 0.0 
4.811019602591e-04 7.655964388501e-03 0.0 
0.0 0.0 -1.193029175878e-03 
-1.163263876641e-03 4.785864187479e-04 0.0 
4.785864187479e-04 7.511604884733e-03 0.0 
0.0 0.0 -1.168165168231e-03 
-1.037083014282e-03 2.184072236099e-04 0.0 
2.184072236099e-04 7.374910845912e-03 0.0 
0.0 0.0 -1.200910491468e-03 
-9.753553652922e-04 1.640389574658e-04 0.0 
1.640389574658e-04 7.090218753853e-03 0.0 
0.0 0.0 -1.164168769488e-03 
-6.028560444752e-04 -1.360178339637e-04 0.0 
-1.360178339637e-04 2.675687027615e-03 0.0 
0.0 0.0 -4.227350873389e-04 
-7.047203305141e-04 5.847954661015e-04 0.0 
5.847954661015e-04 3.476801185836e-03 0.0 
0.0 0.0 -5.646260317871e-04 
-1.245127779796e-03 1.777850177793e-04 0.0 
1.777850177793e-04 7.993741479566e-03 0.0 
0.0 0.0 -1.194151889699e-03 
-8.817872830960e-04 3.208786017712e-04 0.0 
3.208786017712e-04 4.774377627364e-03 0.0 
0.0 0.0 -7.390869131010e-04 
-1.164936831278e-03 -3.113795227657e-04 0.0 
-3.113795227657e-04 7.515893028419e-03 0.0 
0.0 0.0 -1.192835421428e-03 
-1.142129895980e-03 -3.204237901470e-04 0.0 
-3.204237901470e-04 7.305220282504e-03 0.0 
0.0 0.0 -1.156047193884e-03 
8.143997684988e-05 -5.632529459351e-05 0.0 
-5.632529459351e-05 -1.764449114255e-05 0.0 
0.0 0.0 -2.734092244600e-05 
2.721987346519e-04 -4.520014711284e-04 0.0 
-4.520014711284e-04 1.905810524669e-05 0.0 
0.0 0.0 -1.248243599565e-04 
-1.231567197499e-03 6.211834964842e-05 0.0 
6.211834964842e-05 7.963702026826e-03 0.0 
0.0 0.0 -1.184588873336e-03 
-5.000595373901e-04 1.204680535621e-03 0.0 
1.204680535621e-03 1.991465428866e-03 0.0 
0.0 0.0 -3.811925308841e-04 
-5.489936022904e-04 1.042785009975e-03 0.0 
1.042785009975e-03 2.300834123338e-03 0.0 
0.0 0.0 -4.158690271831e-04 
-3.842703009259e-04 1.346678098862e-03 0.0 
1.346678098862e-03 1.633275420512e-03 0.0 
0.0 0.0 -3.660215567096e-04 
-1.330527207980e-03 -3.853221662851e-05 0.0 
-3.853221662851e-05 8.239463133450e-03 0.0 
0.0 0.0 -1.258310293365e-03 
-8.465756460554e-04 5.727197951410e-07 0.0 
5.727197951410e-07 4.947192301730e-03 0.0 
0.0 0.0 -7.479256703001e-04 
-1.285435156603e-03 -1.236167483815e-04 0.0 
-1.236167483815e-04 7.770617594905e-03 0.0 
0.0 0.0 -1.189418985649e-03 
-7.744068399611e-04 5.950771192320e-04 0.0 
5.950771192320e-04 4.259141188703e-03 0.0 
0.0 0.0 -6.884682336192e-04 
-1.252365039908e-03 8.497968466371e-05 0.0 
8.497968466371e-05 8.173452803744e-03 0.0 
0.0 0.0 -1.216510697198e-03 
-7.049683277386e-04 4.524468991294e-04 0.0 
4.524468991294e-04 5.539667182357e-03 0.0 
0.0 0.0 -9.449116413281e-04 
-5.109301527551e-04 9.153066593930e-04 0.0 
9.153066593930e-04 3.518995939107e-03 0.0 
0.0 0.0 -6.353966017694e-04 
-8.973844045661e-04 -2.448816665564e-04 0.0 
-2.448816665564e-04 6.506541659943e-03 0.0 
0.0 0.0 -1.078177493492e-03 
-1.200545941931e-03 2.302554044874e-05 0.0 
2.302554044874e-05 7.723131628604e-03 0.0 
0.0 0.0 -1.149140729088e-03 
-1.267685038875e-03 6.016813044477e-05 0.0 
6.016813044477e-05 8.228074956414e-03 0.0 
0.0 0.0 -1.221625961084e-03 
-9.734656256454e-04 9.189307336811e-05 0.0 
9.189307336811e-05 5.749626761027e-03 0.0 
0.0 0.0 -8.638707813346e-04 
-9.480895872449e-04 4.301450456172e-05 0.0 
4.301450456172e-05 5.516146053233e-03 0.0 
0.0 0.0 -8.327709333130e-04 
-1.011335939965e-03 1.092245285963e-04 0.0 
1.092245285963e-04 5.940162525294e-03 0.0 
0.0 0.0 -8.925140200429e-04 
4.463857562194e-04 7.689358174209e-04 0.0 
7.689358174209e-04 8.096987600889e-05 0.0 
0.0 0.0 -2.260095566693e-04 
2.840813490605e-04 4.390350068277e-04 0.0 
4.390350068277e-04 7.817808705328e-06 0.0 
0.0 0.0 -1.250996390425e-04 
-1.210084270230e-03 9.714327804011e-05 0.0 
9.714327804011e-05 7.658599637129e-03 0.0 
0.0 0.0 -1.142090266074e-03 
-7.141279186037e-04 -2.802255352289e-04 0.0 
-2.802255352289e-04 3.181146952729e-03 0.0 
0.0 0.0 -5.006138788623e-04 
-7.694336124780e-04 -2.009358515531e-04 0.0 
-2.009358515531e-04 3.447879024720e-03 0.0 
0.0 0.0 -5.359218444892e-04 
-5.552155606093e-04 -8.313172136283e-04 0.0 
-8.313172136283e-04 1.917610481523e-03 0.0 
0.0 0.0 -3.334096804080e-04 
-5.855222745600e-04 -8.890134040167e-04 0.0 
-8.890134040167e-04 2.304658271308e-03 0.0 
0.0 0.0 -3.985542937016e-04 
-9.453814008689e-04 -4.031453143009e-04 0.0 
-4.031453143009e-04 4.927324523234e-03 0.0 
0.0 0.0 -7.728092966600e-04 
-8.970888917955e-04 -4.820738487373e-04 0.0 
-4.820738487373e-04 4.692923205728e-03 0.0 
0.0 0.0 -7.441750962829e-04 
-1.057585005233e-03 4.777756013197e-04 0.0 
4.777756013197e-04 6.625238408207e-03 0.0 
0.0 0.0 -1.038692069610e-03 
-1.108626014693e-03 4.632490588969e-04 0.0 
4.632490588969e-04 6.908491944325e-03 0.0 
0.0 0.0 -1.074129358999e-03 
-9.418242035971e-04 5.272068290834e-04 0.0 
5.272068290834e-04 6.041038675917e-03 0.0 
0.0 0.0 -9.675620497173e-04 
-6.990392591995e-04 -3.338931181341e-04 0.0 
-3.338931181341e-04 5.500989544803e-03 0.0 
0.0 0.0 -9.439558448496e-04 
-6.028432506679e-04 -3.974427061355e-04 0.0 
-3.974427061355e-04 5.004524485729e-03 0.0 
0.0 0.0 -8.783802297791e-04 
-5.183067816985e-04 -3.360734288677e-04 0.0 
-3.360734288677e-04 4.731806317453e-03 0.0 
0.0 0.0 -8.502765121185e-04 
-1.259796436841e-03 1.397569485309e-04 0.0 
1.397569485309e-04 8.039016122005e-03 0.0 
0.0 0.0 -1.199867006878e-03 
-1.287397602500e-03 1.387283529904e-04 0.0 
1.387283529904e-04 8.359284824254e-03 0.0 
0.0 0.0 -1.242728214876e-03 
-3.379919536494e-04 -1.097545305898e-03 0.0 
-1.097545305898e-03 2.729711593676e-03 0.0 
0.0 0.0 -5.488632449009e-04 
-2.035001513821e-04 -1.112025139158e-03 0.0 
-1.112025139158e-03 2.365560687545e-03 0.0 
0.0 0.0 -5.212126360957e-04 
-5.194133645792e-04 -1.055659007126e-03 0.0 
-1.055659007126e-03 2.949517889644e-03 0.0 
0.0 0.0 -5.390128571062e-04 
-1.267707936259e-03 2.118212896833e-04 0.0 
2.118212896833e-04 8.185373915988e-03 0.0 
0.0 0.0 -1.223056365294e-03 
-1.302765377273e-03 -1.484462634259e-04 0.0 
-1.484462634259e-04 8.004925592989e-03 0.0 
0.0 0.0 -1.224004481682e-03 
-1.287300987604e-03 -2.136982349667e-04 0.0 
-2.136982349667e-04 7.780826338296e-03 0.0 
0.0 0.0 -1.195820777905e-03 
-2.832529258607e-04 -2.494591043419e-04 0.0 
-2.494591043419e-04 1.024201089409e-03 0.0 
0.0 0.0 -1.882176919714e-04 
-3.969707252897e-04 -4.311951738694e-04 0.0 
-4.311951738694e-04 1.271754487823e-03 0.0 
0.0 0.0 -2.310783895037e-04 
2.054226679739e-05 1.347833966380e-03 0.0 
1.347833966380e-03 8.186709947017e-04 0.0 
0.0 0.0 -3.411234323309e-04 
1.823631015032e-04 1.033435563719e-03 0.0 
1.033435563719e-03 3.956751210192e-04 0.0 
0.0 0.0 -2.477306667953e-04 
-1.268592166038e-03 3.040791407146e-04 0.0 
3.040791407146e-04 8.023493563003e-03 0.0 
0.0 0.0 -1.207258722210e-03 
-1.243812686443e-03 3.149820227485e-04 0.0 
3.149820227485e-04 7.787606541598e-03 0.0 
0.0 0.0 -1.172631524865e-03 
-1.292321070540e-03 2.959466161544e-04 0.0 
2.959466161544e-04 8.333939565192e-03 0.0 
0.0 0.0 -1.247471551777e-03 
-5.223015362984e-04 -5.966006200107e-05 0.0 
-5.966006200107e-05 2.388783331191e-03 0.0 
0.0 0.0 -3.801539159394e-04 
-8.682373190693e-04 4.316445998786e-04 0.0 
4.316445998786e-04 6.315487464641e-03 0.0 
0.0 0.0 -1.045322365442e-03 
-1.095327153402e-03 -1.697306701960e-04 0.0 
-1.697306701960e-04 7.466737774382e-03 0.0 
0.0 0.0 -1.207899217314e-03 
-1.032573115176e-03 -1.219439203281e-04 0.0 
-1.219439203281e-04 7.241482983967e-03 0.0 
0.0 0.0 -1.178012378629e-03 
-1.169146255923e-03 -2.121713741949e-04 0.0 
-2.121713741949e-04 7.798947947966e-03 0.0 
0.0 0.0 -1.244624083072e-03 
-9.796999613362e-04 3.385511052295e-04 0.0 
3.385511052295e-04 6.990100956638e-03 0.0 
0.0 0.0 -1.142102124289e-03 
-1.089777783011e-03 3.180765990224e-04 0.0 
3.180765990224e-04 7.453415741070e-03 0.0 
0.0 0.0 -1.205428683694e-03 
-1.118930099946e-03 4.102866827850e-04 0.0 
4.102866827850e-04 7.540265907261e-03 0.0 
0.0 0.0 -1.209323031234e-03 
7.629343076430e-06 -2.863199915616e-06 0.0 
-2.863199915616e-06 -2.105112574008e-06 0.0 
0.0 0.0 -2.367527358181e-06 
-1.243581183883e-03 1.333985162286e-05 0.0 
1.333985162286e-05 8.050404267198e-03 0.0 
0.0 0.0 -1.199992767657e-03 
-9.467227888159e-04 4.157282563709e-05 0.0 
4.157282563709e-05 5.565131892238e-03 0.0 
0.0 0.0 -8.371571859873e-04 
0.0 0.0 0.0 
0.0 0.0 0.0 
0.0 0.0 0.0 
-9.052370495583e-04 2.926470670919e-05 0.0 
2.926470670919e-05 5.359734394624e-03 0.0 
0.0 0.0 -8.070151920887e-04 
-9.464808288455e-04 2.890706983172e-05 0.0 
2.890706983172e-05 5.631422995547e-03 0.0 
0.0 0.0 -8.451615393777e-04 
-8.746039380960e-04 1.411235588614e-05 0.0 
1.411235588614e-05 5.099179134377e-03 0.0 
0.0 0.0 -7.748096441827e-04 
-4.043228169997e-04 -4.987598217760e-05 0.0 
-4.987598217760e-05 1.919858664121e-03 0.0 
0.0 0.0 -3.155299188714e-04 
-9.342623020306e-04 6.996522255594e-05 0.0 
6.996522255594e-05 5.399295489727e-03 0.0 
0.0 0.0 -8.174106193842e-04 
-9.784066260017e-04 9.518359088927e-05 0.0 
9.518359088927e-05 5.690330335138e-03 0.0 
0.0 0.0 -8.556612431672e-04 
-1.892819975809e-04 -2.080284296464e-04 0.0 
-2.080284296464e-04 7.178215811464e-04 0.0 
0.0 0.0 -1.471067669042e-04 
-1.288411893385e-03 2.088493887645e-04 0.0 
2.088493887645e-04 8.418681062039e-03 0.0 
0.0 0.0 -1.259301554906e-03 
-1.756794603790e-04 -1.355890425743e-04 0.0 
-1.355890425743e-04 7.416554994657e-04 0.0 
0.0 0.0 -1.555489432776e-04 
-1.976593762146e-04 -1.418821488879e-04 0.0 
-1.418821488879e-04 9.406849208869e-04 0.0 
0.0 0.0 -1.806578101979e-04 
-1.201046689643e-03 -2.954808681697e-04 0.0 
-2.954808681697e-04 7.775612660441e-03 0.0 
0.0 0.0 -1.221214701962e-03 
-1.189783866574e-03 -3.147730725178e-04 0.0 
-3.147730725178e-04 7.544251850061e-03 0.0 
0.0 0.0 -1.184344882880e-03 
-1.255201532556e-03 -3.138077392023e-04 0.0 
-3.138077392023e-04 7.995797572139e-03 0.0 
0.0 0.0 -1.247726601234e-03 
-1.240131757912e-03 -2.854581707310e-04 0.0 
-2.854581707310e-04 7.755129215709e-03 0.0 
0.0 0.0 -1.211018817991e-03 
-1.178065560448e-03 -3.176973578615e-04 0.0 
-3.176973578615e-04 7.320283461016e-03 0.0 
0.0 0.0 -1.147066289601e-03 
-1.222397278732e-03 -2.815307542264e-04 0.0 
-2.815307542264e-04 7.565615913449e-03 0.0 
0.0 0.0 -1.176490610025e-03 
-9.163713044728e-04 2.842739858528e-05 0.0 
2.842739858528e-05 5.314561917383e-03 0.0 
0.0 0.0 -7.985989294648e-04 
-1.274574997316e-03 -2.683950520862e-04 0.0 
-2.683950520862e-04 8.060277687178e-03 0.0 
0.0 0.0 -1.249018369598e-03 
-1.258852476870e-03 -2.546999081133e-04 0.0 
-2.546999081133e-04 7.798203538470e-03 0.0 
0.0 0.0 -1.207442871744e-03 
-1.315317272271e-03 -2.575611195837e-04 0.0 
-2.575611195837e-04 8.330215412111e-03 0.0 
0.0 0.0 -1.277927415301e-03 
-7.668426714387e-04 3.712502045957e-04 0.0 
3.712502045957e-04 3.884910929190e-03 0.0 
0.0 0.0 -6.108003466767e-04 
-5.473421814769e-04 1.022591756988e-03 0.0 
1.022591756988e-03 2.665785403795e-03 0.0 
0.0 0.0 -4.789358348571e-04 
-5.922456647504e-04 8.887242813561e-04 0.0 
8.887242813561e-04 2.596399578783e-03 0.0 
0.0 0.0 -4.527251363391e-04 
-5.808013297698e-04 8.699366696317e-04 0.0 
8.699366696317e-04 2.240670147384e-03 0.0 
0.0 0.0 -3.875663759467e-04 
-1.238412356123e-03 4.984956173527e-04 0.0 
4.984956173527e-04 8.013994811476e-03 0.0 
0.0 0.0 -1.240180566941e-03 
-1.214337546906e-03 4.975640446935e-04 0.0 
4.975640446935e-04 7.772501925276e-03 0.0 
0.0 0.0 -1.200590015451e-03 
-1.243705293709e-03 -9.256877991256e-05 0.0 
-9.256877991256e-05 7.122808590461e-03 0.0 
0.0 0.0 -1.087555896896e-03 
-1.202734584511e-03 -9.601844950182e-05 0.0 
-9.601844950182e-05 6.680089324953e-03 0.0 
0.0 0.0 -1.020738973070e-03 
-9.185583597048e-04 2.613338660199e-05 0.0 
2.613338660199e-05 5.392223531156e-03 0.0 
0.0 0.0 -8.108182148135e-04 
-9.103297472006e-04 4.766877897124e-06 0.0 
4.766877897124e-06 5.361690236980e-03 0.0 
0.0 0.0 -8.077352941366e-04 
-9.704696328324e-04 5.332193735867e-05 0.0 
5.332193735867e-05 5.783610110985e-03 0.0 
0.0 0.0 -8.678526801547e-04 
-9.618865758326e-04 7.689592341134e-06 0.0 
7.689592341134e-06 5.712312077429e-03 0.0 
0.0 0.0 -8.609153521579e-04 
-1.020016484653e-03 5.295869978670e-05 0.0 
5.295869978670e-05 6.152608316973e-03 0.0 
0.0 0.0 -9.200517378055e-04 
-1.001436562516e-03 -1.946934861065e-08 0.0 
-1.946934861065e-08 6.084870222159e-03 0.0 
0.0 0.0 -9.108947733944e-04 
-1.057814937538e-03 -6.724482469216e-06 0.0 
-6.724482469216e-06 6.510312548520e-03 0.0 
0.0 0.0 -9.726914458129e-04 
-1.190361938599e-03 4.676934084708e-04 0.0 
4.676934084708e-04 7.866637693242e-03 0.0 
0.0 0.0 -1.245087786853e-03 
-4.581667400111e-04 1.150309043721e-03 0.0 
1.150309043721e-03 1.644170079222e-03 0.0 
0.0 0.0 -3.403956918982e-04 
-8.293555136529e-04 2.952524372658e-04 0.0 
2.952524372658e-04 4.373371002006e-03 0.0 
0.0 0.0 -6.783069842581e-04 
-1.085846180975e-03 1.458307871503e-04 0.0 
1.458307871503e-04 7.572950528203e-03 0.0 
0.0 0.0 -1.228261380050e-03 
-1.024461005777e-03 9.563818815218e-05 0.0 
9.563818815218e-05 7.266751936821e-03 0.0 
0.0 0.0 -1.187396807988e-03 
-7.405303751490e-04 5.124973243675e-04 0.0 
5.124973243675e-04 3.741532766096e-03 0.0 
0.0 0.0 -6.000944487132e-04 
-7.031319460548e-04 4.876864875037e-04 0.0 
4.876864875037e-04 3.366473116495e-03 0.0 
0.0 0.0 -5.401620014017e-04 
-1.203049851257e-03 -2.728203523462e-04 0.0 
-2.728203523462e-04 7.833657430654e-03 0.0 
0.0 0.0 -1.238794375355e-03 
-3.075916606640e-04 1.045868666668e-03 0.0 
1.045868666668e-03 2.766977509803e-03 0.0 
0.0 0.0 -5.600314934590e-04 
-1.321820784768e-03 2.376560243328e-04 0.0 
2.376560243328e-04 8.684022372100e-03 0.0 
0.0 0.0 -1.295459716840e-03 
1.477011241759e-06 4.358298770145e-06 0.0 
4.358298770145e-06 8.908916257877e-07 0.0 
0.0 0.0 -1.014815514663e-06 
5.703109316316e-05 8.792005076422e-05 0.0 
8.792005076422e-05 -2.011421539907e-08 0.0 
0.0 0.0 -2.443327669190e-05 
-4.154706477079e-04 9.854771448034e-04 0.0 
9.854771448034e-04 3.145205208474e-03 0.0 
0.0 0.0 -5.969207367497e-04 
-7.802351733359e-04 5.259462622456e-04 0.0 
5.259462622456e-04 4.139237033551e-03 0.0 
0.0 0.0 -6.620222007989e-04 
-5.930037626935e-04 8.942073818617e-04 0.0 
8.942073818617e-04 2.971985586365e-03 0.0 
0.0 0.0 -5.157319100482e-04 
-6.206001126179e-04 7.748692012147e-04 0.0 
7.748692012147e-04 2.918912415158e-03 0.0 
0.0 0.0 -4.917183783407e-04 
-7.966812031951e-04 -2.794519072728e-04 0.0 
-2.794519072728e-04 6.003025537970e-03 0.0 
0.0 0.0 -1.010552660601e-03 
-3.204615651146e-04 -4.841454347256e-04 0.0 
-4.841454347256e-04 1.065843889916e-03 0.0 
0.0 0.0 -2.207468123314e-04 
-1.976838392314e-04 1.419132631860e-03 0.0 
1.419132631860e-03 1.245736136353e-03 0.0 
0.0 0.0 -3.729799092550e-04 
-1.062224956052e-03 6.282474994029e-05 0.0 
6.282474994029e-05 6.566502947635e-03 0.0 
0.0 0.0 -9.796923013958e-04 
-9.725104983260e-05 1.193422917781e-03 0.0 
1.193422917781e-03 9.454912755048e-04 0.0 
0.0 0.0 -3.472462715210e-04 
-1.226995326804e-03 -4.519473023836e-05 0.0 
-4.519473023836e-05 6.918120984331e-03 0.0 
0.0 0.0 -1.055800198362e-03 
-2.361841982036e-04 9.051937591691e-04 0.0 
9.051937591691e-04 2.839450438954e-03 0.0 
0.0 0.0 -5.891999696964e-04 
-7.588500349801e-04 6.513356924725e-04 0.0 
6.513356924725e-04 4.370877970735e-03 0.0 
0.0 0.0 -7.153500975001e-04 
-2.731612567135e-04 1.485424847436e-03 0.0 
1.485424847436e-03 1.576968026293e-03 0.0 
0.0 0.0 -3.843598907912e-04 
-4.773970402082e-04 1.083331247294e-03 0.0 
1.083331247294e-03 2.715302459171e-03 0.0 
0.0 0.0 -5.080103017801e-04 
-9.857070044825e-04 3.514582932795e-04 0.0 
3.514582932795e-04 5.605984683384e-03 0.0 
0.0 0.0 -8.638580894607e-04 
-9.566672598969e-04 2.556664326387e-04 0.0 
2.556664326387e-04 5.284930257865e-03 0.0 
0.0 0.0 -8.086477316853e-04 
-9.204142732436e-04 2.914181473186e-04 0.0 
2.914181473186e-04 5.036403952363e-03 0.0 
0.0 0.0 -7.738406155293e-04 
-1.852699916538e-04 7.169474657993e-04 0.0 
7.169474657993e-04 2.938478129515e-03 0.0 
0.0 0.0 -6.178822433291e-04 
-6.660603751627e-04 6.775511204911e-04 0.0 
6.775511204911e-04 3.201224465995e-03 0.0 
0.0 0.0 -5.288330985435e-04 
-6.329538447596e-04 6.262438341605e-04 0.0 
6.262438341605e-04 2.783574178796e-03 0.0 
0.0 0.0 -4.617239487405e-04 
-9.084122990405e-04 4.766608561051e-04 0.0 
4.766608561051e-04 5.217677913222e-03 0.0 
0.0 0.0 -8.213029907542e-04 
-1.196636206004e-03 2.937722451120e-04 0.0 
2.937722451120e-04 7.346814907567e-03 0.0 
0.0 0.0 -1.107475121065e-03 
-1.218143538823e-03 3.322225839887e-04 0.0 
3.322225839887e-04 7.523071285648e-03 0.0 
0.0 0.0 -1.136341617999e-03 
-1.260255205402e-03 3.483848197279e-04 0.0 
3.483848197279e-04 7.943523748013e-03 0.0 
0.0 0.0 -1.199268560344e-03 
-1.236398534658e-03 3.622286970254e-04 0.0 
3.622286970254e-04 7.698663143048e-03 0.0 
0.0 0.0 -1.164598082371e-03 
-1.187519623503e-03 3.369788044843e-04 0.0 
3.369788044843e-04 7.262535120341e-03 0.0 
0.0 0.0 -1.100413285504e-03 
-1.201927894883e-03 3.622228794556e-04 0.0 
3.622228794556e-04 7.428935513365e-03 0.0 
0.0 0.0 -1.129075729544e-03 
-1.251749756802e-03 4.013558701664e-04 0.0 
4.013558701664e-04 7.861186353057e-03 0.0 
0.0 0.0 -1.193594387005e-03 
-1.212961772203e-03 4.013424172495e-04 0.0 
4.013424172495e-04 7.607641408015e-03 0.0 
0.0 0.0 -1.159256375294e-03 
-1.275748773412e-03 4.170784326894e-04 0.0 
4.170784326894e-04 8.123816889762e-03 0.0 
0.0 0.0 -1.234286862126e-03 
-1.231663961214e-03 4.170891063283e-04 0.0 
4.170891063283e-04 7.767346293695e-03 0.0 
0.0 0.0 -1.187309181180e-03 
-1.180167111311e-03 4.146130725523e-04 0.0 
4.146130725523e-04 7.319280806481e-03 0.0 
0.0 0.0 -1.120864512401e-03 
-1.199520853126e-03 4.394329503130e-04 0.0 
4.394329503130e-04 7.469647570104e-03 0.0 
0.0 0.0 -1.147759711419e-03 
-1.246114513889e-03 4.512851502766e-04 0.0 
4.512851502766e-04 7.897003429628e-03 0.0 
0.0 0.0 -1.207767947030e-03 
-1.142819753357e-03 4.230226692438e-04 0.0 
4.230226692438e-04 7.034885546341e-03 0.0 
0.0 0.0 -1.082593982084e-03 
-1.161095070267e-03 2.120867803638e-04 0.0 
2.120867803638e-04 7.844111974654e-03 0.0 
0.0 0.0 -1.264544343569e-03 
-4.552882566461e-04 8.672081112126e-04 0.0 
8.672081112126e-04 3.584015933420e-03 0.0 
0.0 0.0 -6.621140475474e-04 
8.972285469528e-05 5.488704469766e-05 0.0 
5.488704469766e-05 -2.086067995893e-05 0.0 
0.0 0.0 -2.951236060129e-05 
1.917573457574e-04 3.907910126935e-04 0.0 
3.907910126935e-04 4.076022718459e-05 0.0 
0.0 0.0 -9.965038840371e-05 
-8.122559684108e-04 5.858127476170e-04 0.0 
5.858127476170e-04 4.660958103986e-03 0.0 
0.0 0.0 -7.509174086159e-04 
-1.326294875917e-03 4.475525367279e-04 0.0 
4.475525367279e-04 8.581090605175e-03 0.0 
0.0 0.0 -1.299806302097e-03 
-1.329372981724e-03 3.864120920022e-04 0.0 
3.864120920022e-04 8.651254845127e-03 0.0 
0.0 0.0 -1.301753673823e-03 
-4.221749795590e-05 1.054957827846e-03 0.0 
1.054957827846e-03 1.947401467081e-03 0.0 
0.0 0.0 -4.895692906686e-04 
-1.300820539860e-03 5.169294240401e-04 0.0 
5.169294240401e-04 8.431520987084e-03 0.0 
0.0 0.0 -1.303413959896e-03 
-9.359328158380e-04 3.353086376080e-04 0.0 
3.353086376080e-04 5.191229383814e-03 0.0 
0.0 0.0 -8.012154088905e-04 
4.071496828873e-04 9.026633654341e-04 0.0 
9.026633654341e-04 4.347728874957e-04 0.0 
0.0 0.0 -3.242207140944e-04 
-1.286592464162e-03 4.887471459282e-04 0.0 
4.887471459282e-04 8.354700830031e-03 0.0 
0.0 0.0 -1.304286792737e-03 
-1.166816141077e-03 3.067295782393e-04 0.0 
3.067295782393e-04 7.086165986606e-03 0.0 
0.0 0.0 -1.071440646998e-03 
-1.135318690764e-03 3.102645881689e-04 0.0 
3.102645881689e-04 6.820307156207e-03 0.0 
0.0 0.0 -1.034857077839e-03 
-1.114281868751e-03 2.783252876259e-04 0.0 
2.783252876259e-04 6.647188393663e-03 0.0 
0.0 0.0 -1.006057961993e-03 
-1.324485485700e-03 3.178425552296e-04 0.0 
3.178425552296e-04 8.703712057522e-03 0.0 
0.0 0.0 -1.305867370806e-03 
-1.046143216171e-03 1.338104735178e-04 0.0 
1.338104735178e-04 6.142970752386e-03 0.0 
0.0 0.0 -9.232948652302e-04 
-1.261216399776e-03 3.398370476000e-04 0.0 
3.398370476000e-04 8.240407625413e-03 0.0 
0.0 0.0 -1.306016332489e-03 
-5.621352130883e-04 2.402614077322e-04 0.0 
2.402614077322e-04 5.104076155106e-03 0.0 
0.0 0.0 -9.039903713831e-04 
-5.421821752565e-04 3.626261890118e-04 0.0 
3.626261890118e-04 4.916919296443e-03 0.0 
0.0 0.0 -8.747633066757e-04 
-4.482553543368e-04 4.245528232913e-04 0.0 
4.245528232913e-04 4.423341595392e-03 0.0 
0.0 0.0 -8.101682821885e-04 
-1.166183845535e-03 3.746000758126e-04 0.0 
3.746000758126e-04 7.154603019155e-03 0.0 
0.0 0.0 -1.092245366321e-03 
-1.243382207926e-03 7.139344382452e-05 0.0 
7.139344382452e-05 8.142027759390e-03 0.0 
0.0 0.0 -1.302677999426e-03 
-1.139163622892e-03 1.899260328228e-05 0.0 
1.899260328228e-05 7.738811355617e-03 0.0 
0.0 0.0 -1.248400714067e-03 
-1.139179700515e-03 -5.832838074802e-05 0.0 
-5.832838074802e-05 7.742835606473e-03 0.0 
0.0 0.0 -1.248426544684e-03 
-1.042171814045e-03 -2.067620167567e-05 0.0 
-2.067620167567e-05 7.300450465494e-03 0.0 
0.0 0.0 -1.189114855724e-03 
-1.245046049368e-03 -7.954937012982e-05 0.0 
-7.954937012982e-05 8.162015620032e-03 0.0 
0.0 0.0 -1.303398793257e-03 
-1.319024606982e-03 4.879947495646e-04 0.0 
4.879947495646e-04 8.553889678550e-03 0.0 
0.0 0.0 -1.306665994082e-03 
-1.318629781647e-03 5.032233232110e-04 0.0 
5.032233232110e-04 8.531113616169e-03 0.0 
0.0 0.0 -1.308500709484e-03 
-1.457969009565e-04 -1.297624687323e-03 0.0 
-1.297624687323e-03 1.878942347425e-03 0.0 
0.0 0.0 -4.564773689951e-04 
-5.360535394488e-05 -1.060749340558e-03 0.0 
-1.060749340558e-03 1.980128638088e-03 0.0 
0.0 0.0 -4.934415926888e-04 
-1.381226460422e-04 -8.991719374826e-04 0.0 
-8.991719374826e-04 2.497431923997e-03 0.0 
0.0 0.0 -5.576035839405e-04 
-3.423707423496e-07 -7.630300989339e-04 0.0 
-7.630300989339e-04 2.133066083266e-03 0.0 
0.0 0.0 -5.298816096007e-04 
1.060874476646e-04 -9.079592115861e-04 0.0 
-9.079592115861e-04 1.571356760192e-03 0.0 
0.0 0.0 -4.652367627802e-04 
1.299766153745e-04 -5.238021949006e-04 0.0 
-5.238021949006e-04 1.775343023360e-03 0.0 
0.0 0.0 -5.016361848483e-04 
8.113068861589e-06 -4.523118756860e-04 0.0 
-4.523118756860e-04 2.346566463626e-03 0.0 
0.0 0.0 -5.657331850765e-04 
2.333464364560e-04 -1.778074880060e-04 0.0 
-1.778074880060e-04 1.448473809503e-03 0.0 
0.0 0.0 -4.731795164401e-04 
-1.159968055748e-03 4.654058109210e-04 0.0 
4.654058109210e-04 7.343744264572e-03 0.0 
0.0 0.0 -1.138512926666e-03 
-1.264954689887e-03 -1.904964022353e-04 0.0 
-1.904964022353e-04 8.221334432808e-03 0.0 
0.0 0.0 -1.305779161548e-03 
-7.747711705181e-04 -5.121765711313e-04 0.0 
-5.121765711313e-04 5.367910934867e-03 0.0 
0.0 0.0 -9.007942405787e-04 
-6.889420890608e-04 -5.209139520464e-04 0.0 
-5.209139520464e-04 5.083313389568e-03 0.0 
0.0 0.0 -8.713600568839e-04 
-6.090575816933e-04 -6.078858301865e-04 0.0 
-6.078858301865e-04 4.604339507385e-03 0.0 
0.0 0.0 -8.059887332522e-04 
-8.449920134059e-04 -5.153788440303e-04 0.0 
-5.153788440303e-04 4.260095117302e-03 0.0 
0.0 0.0 -6.781883600425e-04 
-8.428803748540e-04 -5.674043660998e-04 0.0 
-5.674043660998e-04 4.450165882994e-03 0.0 
0.0 0.0 -7.153987595530e-04 
-8.942422948913e-04 -5.207798333702e-04 0.0 
-5.207798333702e-04 4.885926297656e-03 0.0 
0.0 0.0 -7.812419408864e-04 
-8.377845004557e-04 -4.501363391243e-04 0.0 
-4.501363391243e-04 4.061067246097e-03 0.0 
0.0 0.0 -6.407943132712e-04 
-8.608991234260e-04 5.183985589951e-04 0.0 
5.183985589951e-04 6.008926334250e-03 0.0 
0.0 0.0 -9.876394229526e-04 
-1.270638922106e-03 -2.525883056993e-04 0.0 
-2.525883056993e-04 8.245623635122e-03 0.0 
0.0 0.0 -1.305003056577e-03 
-5.449120924268e-04 -2.038340280130e-04 0.0 
-2.038340280130e-04 4.976604129178e-03 0.0 
0.0 0.0 -8.871663004355e-04 
-7.828155216857e-04 -6.575282962370e-04 0.0 
-6.575282962370e-04 4.196243675374e-03 0.0 
0.0 0.0 -6.865966444657e-04 
-8.908351355140e-04 9.702867664421e-05 0.0 
9.702867664421e-05 4.953510345307e-03 0.0 
0.0 0.0 -7.516786372745e-04 
-9.428178873818e-04 1.510891929034e-04 0.0 
1.510891929034e-04 5.341754956276e-03 0.0 
0.0 0.0 -8.094822736869e-04 
-9.489012184647e-04 1.441944320473e-04 0.0 
1.441944320473e-04 5.346848053026e-03 0.0 
0.0 0.0 -8.097394517040e-04 
-9.928370876702e-04 1.565528389037e-04 0.0 
1.565528389037e-04 5.757287346966e-03 0.0 
0.0 0.0 -8.733121467894e-04 
-9.420662265250e-04 8.672453308222e-05 0.0 
8.672453308222e-05 5.390349708032e-03 0.0 
0.0 0.0 -8.155917408702e-04 
-9.920889169566e-04 -3.299549002211e-04 0.0 
-3.299549002211e-04 5.156290872581e-03 0.0 
0.0 0.0 -8.015266587451e-04 
-1.034393455446e-03 -2.593382357018e-04 0.0 
-2.593382357018e-04 5.377589720533e-03 0.0 
0.0 0.0 -8.302790088839e-04 
-1.016724768056e-03 -2.052940986145e-04 0.0 
-2.052940986145e-04 5.161883654298e-03 0.0 
0.0 0.0 -7.937858958383e-04 
-1.069749204098e-03 -1.931193338339e-04 0.0 
-1.931193338339e-04 5.589690211797e-03 0.0 
0.0 0.0 -8.590670690980e-04 
-1.045250008444e-03 -1.524643402440e-04 0.0 
-1.524643402440e-04 5.354709247412e-03 0.0 
0.0 0.0 -8.213578559547e-04 
-9.891061891856e-04 -1.661511418362e-04 0.0 
-1.661511418362e-04 4.952759689804e-03 0.0 
0.0 0.0 -7.608744282309e-04 
-1.097326614700e-03 -1.343981642378e-04 0.0 
-1.343981642378e-04 5.787368511626e-03 0.0 
0.0 0.0 -8.866101721103e-04 
-1.072266853954e-03 -7.465649989587e-05 0.0 
-7.465649989587e-05 5.530930704335e-03 0.0 
0.0 0.0 -8.437388122980e-04 
-8.749604405334e-04 5.210753762548e-05 0.0 
5.210753762548e-05 4.958547900325e-03 0.0 
0.0 0.0 -7.509531518293e-04 
2.931250951271e-05 -1.468193730782e-04 0.0 
-1.468193730782e-04 5.197092075325e-05 0.0 
0.0 0.0 -3.483575582827e-05 
8.911840808784e-05 -5.611142441010e-04 0.0 
-5.611142441010e-04 2.292660682549e-04 0.0 
0.0 0.0 -1.364504898612e-04 
-1.613477578931e-05 -6.217163821683e-04 0.0 
-6.217163821683e-04 4.356228314527e-04 0.0 
0.0 0.0 -1.797805952843e-04 
7.026081585524e-05 -9.442279566568e-04 0.0 
-9.442279566568e-04 4.994486354165e-04 0.0 
0.0 0.0 -2.441611934022e-04 
2.189035585349e-04 -7.936262830972e-04 0.0 
-7.936262830972e-04 2.241675290565e-04 0.0 
0.0 0.0 -1.898876089678e-04 
1.395294056137e-04 -1.221624346892e-03 0.0 
-1.221624346892e-03 5.704290544817e-04 0.0 
0.0 0.0 -3.042679114694e-04 
3.315217795862e-04 -9.867447375553e-04 0.0 
-9.867447375553e-04 2.187882668786e-04 0.0 
0.0 0.0 -2.358471627707e-04 
1.282773509924e-04 -3.069727312294e-04 0.0 
-3.069727312294e-04 5.087018620754e-05 0.0 
0.0 0.0 -7.677751594282e-05 
7.207324065744e-06 -2.363709633052e-04 0.0 
-2.363709633052e-04 2.192194981731e-04 0.0 
0.0 0.0 -7.709394943614e-05 
-1.151589919320e-04 -5.038932235898e-04 0.0 
-5.038932235898e-04 5.668379900610e-04 0.0 
0.0 0.0 -1.836804426236e-04 
6.886756343239e-05 -1.585111183501e-04 0.0 
-1.585111183501e-04 2.318919381609e-04 0.0 
0.0 0.0 -9.135678087991e-05 
-1.673787199121e-04 -3.772506028182e-04 0.0 
-3.772506028182e-04 6.235391984471e-04 0.0 
0.0 0.0 -1.587652100407e-04 
-2.237013217840e-04 -7.835370290226e-04 0.0 
-7.835370290226e-04 9.699234306887e-04 0.0 
0.0 0.0 -2.864776706126e-04 
-5.080022175142e-04 -5.846720249242e-04 0.0 
-5.846720249242e-04 1.713553650264e-03 0.0 
0.0 0.0 -2.934437995798e-04 
-1.342924257900e-03 -1.540329825018e-04 0.0 
-1.540329825018e-04 8.463979425849e-03 0.0 
0.0 0.0 -1.294874803588e-03 
-9.061604714287e-04 -5.353468138170e-05 0.0 
-5.353468138170e-05 4.292677537748e-03 0.0 
0.0 0.0 -6.595503360071e-04 
-8.748353904416e-04 -9.535674848835e-05 0.0 
-9.535674848835e-05 4.090451847143e-03 0.0 
0.0 0.0 -6.264797819744e-04 
-7.893986596546e-04 -8.988273420556e-05 0.0 
-8.988273420556e-05 3.635662269298e-03 0.0 
0.0 0.0 -5.641716646261e-04 
-8.342340843015e-04 -1.796315714393e-04 0.0 
-1.796315714393e-04 3.876399492582e-03 0.0 
0.0 0.0 -5.974662984275e-04 
-9.399601535283e-04 -9.182592719562e-05 0.0 
-9.182592719562e-05 4.459086163681e-03 0.0 
0.0 0.0 -6.865721209800e-04 
-7.450408717977e-04 -3.664071909045e-05 0.0 
-3.664071909045e-05 3.403705623677e-03 0.0 
0.0 0.0 -5.286920563404e-04 
-7.105002771536e-04 -7.510162605901e-05 0.0 
-7.510162605901e-05 3.252942810076e-03 0.0 
0.0 0.0 -5.038291843518e-04 
2.269617952537e-04 -4.679297531140e-06 0.0 
-4.679297531140e-06 2.031304943507e-04 0.0 
0.0 0.0 -1.081843495454e-04 
-2.992668304113e-05 -2.428217344695e-05 0.0 
-2.428217344695e-05 6.247499294921e-04 0.0 
0.0 0.0 -1.462425310096e-04 
1.120520427135e-05 2.490769659488e-05 0.0 
2.490769659488e-05 5.748679317617e-04 0.0 
0.0 0.0 -1.469788961115e-04 
-1.839676854865e-04 -1.370350569834e-05 0.0 
-1.370350569834e-05 1.050348992839e-03 0.0 
0.0 0.0 -1.976702944042e-04 
-1.665493073749e-04 -4.078238753771e-05 0.0 
-4.078238753771e-05 1.038427513794e-03 0.0 
0.0 0.0 -1.960684762570e-04 
-2.740272711721e-05 -1.675532894322e-05 0.0 
-1.675532894322e-05 6.301608269895e-04 0.0 
0.0 0.0 -1.451566722079e-04 
-4.295295916181e-05 -1.396627582879e-05 0.0 
-1.396627582879e-05 6.314478061460e-04 0.0 
0.0 0.0 -1.432903851643e-04 
2.178107760258e-04 -4.669961674357e-06 0.0 
-4.669961674357e-06 1.968060237393e-04 0.0 
0.0 0.0 -1.026933745538e-04 
-6.199861096773e-05 -4.121287758313e-05 0.0 
-4.121287758313e-05 6.332661626784e-04 0.0 
0.0 0.0 -1.376693440338e-04 
-1.958490001476e-04 -5.849411118292e-05 0.0 
-5.849411118292e-05 1.056235548644e-03 0.0 
0.0 0.0 -1.994574706984e-04 
2.194500295117e-04 -1.953547163157e-05 0.0 
-1.953547163157e-05 1.758186835889e-04 0.0 
0.0 0.0 -9.526841721624e-05 
-1.134405852345e-03 -1.685214623059e-05 0.0 
-1.685214623059e-05 7.114171974622e-03 0.0 
0.0 0.0 -1.060427308513e-03 
-1.169096287658e-03 2.563616812788e-06 0.0 
2.563616812788e-06 7.355225522955e-03 0.0 
0.0 0.0 -1.097082233180e-03 
-1.287656187300e-03 -3.057563853945e-04 0.0 
-3.057563853945e-04 8.295106043806e-03 0.0 
0.0 0.0 -1.300897016293e-03 
-8.709102074234e-04 1.634655957137e-05 0.0 
1.634655957137e-05 5.013561359335e-03 0.0 
0.0 0.0 -7.584009903415e-04 
6.085248323127e-05 -7.529385077948e-05 0.0 
-7.529385077948e-05 2.498450074273e-04 0.0 
0.0 0.0 -6.778662807071e-05 
-1.318321890589e-03 9.119227365237e-05 0.0 
9.119227365237e-05 8.702564910127e-03 0.0 
0.0 0.0 -1.292107529982e-03 
-1.321891599576e-03 1.523434658018e-04 0.0 
1.523434658018e-04 8.753789560532e-03 0.0 
0.0 0.0 -1.303172775453e-03 
-1.317386328466e-03 1.502744807486e-04 0.0 
1.502744807486e-04 8.760593080467e-03 0.0 
0.0 0.0 -1.304823151597e-03 
-1.303300137320e-03 -3.518320858820e-05 0.0 
-3.518320858820e-05 7.809809152570e-03 0.0 
0.0 0.0 -1.191058493115e-03 
-1.309915312802e-03 -8.055064126037e-05 0.0 
-8.055064126037e-05 8.016669059363e-03 0.0 
0.0 0.0 -1.224322658093e-03 
-1.321803447330e-03 5.837335499168e-05 0.0 
5.837335499168e-05 8.713282635678e-03 0.0 
0.0 0.0 -1.294569364341e-03 
-6.481855202900e-04 -6.246003181782e-04 0.0 
-6.246003181782e-04 2.746907491681e-03 0.0 
0.0 0.0 -4.512809064328e-04 
-1.269733092336e-03 3.949450849478e-04 0.0 
3.949450849478e-04 8.134082373248e-03 0.0 
0.0 0.0 -1.225740639889e-03 
-1.236917440076e-03 9.455704594097e-05 0.0 
9.455704594097e-05 7.907876475173e-03 0.0 
0.0 0.0 -1.178628832109e-03 
2.863499120991e-04 1.225469476951e-03 0.0 
1.225469476951e-03 5.011020420815e-04 0.0 
0.0 0.0 -3.087973448475e-04 
-5.572892816396e-04 -1.058232484237e-03 0.0 
-1.058232484237e-03 2.439571083886e-03 0.0 
0.0 0.0 -4.373623857420e-04 
-1.169344627949e-03 -1.527368028486e-04 0.0 
-1.527368028486e-04 6.463252890075e-03 0.0 
0.0 0.0 -9.899674718230e-04 
-1.002156622739e-03 -4.217657770794e-04 0.0 
-4.217657770794e-04 5.766816978775e-03 0.0 
0.0 0.0 -9.123979313600e-04 
-1.240362622181e-03 -2.107518773901e-04 0.0 
-2.107518773901e-04 7.344433125846e-03 0.0 
0.0 0.0 -1.130390451587e-03 
-1.097029052933e-03 -2.727822285369e-04 0.0 
-2.727822285369e-04 6.025349028311e-03 0.0 
0.0 0.0 -9.322225209316e-04 
-1.160816713283e-03 -2.966491095374e-04 0.0 
-2.966491095374e-04 6.897592609693e-03 0.0 
0.0 0.0 -1.073123358692e-03 
-1.146188823319e-03 -9.619145093431e-05 0.0 
-9.619145093431e-05 7.734668514319e-03 0.0 
0.0 0.0 -1.244129926109e-03 
-3.611510593238e-04 -8.758097138839e-05 0.0 
-8.758097138839e-05 1.751553404855e-03 0.0 
0.0 0.0 -2.939217362394e-04 
-1.042524547902e-03 8.542519018607e-05 0.0 
8.542519018607e-05 6.249309917826e-03 0.0 
0.0 0.0 -9.364826870394e-04 
-1.011646579925e-03 4.950052888461e-05 0.0 
4.950052888461e-05 6.088183350352e-03 0.0 
0.0 0.0 -9.130351872960e-04 
-1.156492778501e-03 8.389467150956e-05 0.0 
8.389467150956e-05 7.209321502601e-03 0.0 
0.0 0.0 -1.075939795031e-03 
-6.797233321873e-04 -3.445526981405e-04 0.0 
-3.445526981405e-04 2.970604433142e-03 0.0 
0.0 0.0 -4.709579147287e-04 
-9.579355913964e-04 -2.329193078104e-04 0.0 
-2.329193078104e-04 4.740187249377e-03 0.0 
0.0 0.0 -7.304257169629e-04 
-4.699094320929e-04 -2.864685390476e-04 0.0 
-2.864685390476e-04 1.870719163436e-03 0.0 
0.0 0.0 -3.104331955072e-04 
-1.225720132749e-03 4.922764523725e-04 0.0 
4.922764523725e-04 8.004298524687e-03 0.0 
0.0 0.0 -1.251461238623e-03 
-8.642142966185e-04 4.736706847914e-04 0.0 
4.736706847914e-04 4.810262753378e-03 0.0 
0.0 0.0 -7.590395520047e-04 
-6.299061308779e-04 -6.905248015396e-04 0.0 
-6.905248015396e-04 4.426299320179e-03 0.0 
0.0 0.0 -7.694287042311e-04 
-7.912081179997e-04 -5.380011954616e-04 0.0 
-5.380011954616e-04 3.827422774339e-03 0.0 
0.0 0.0 -6.120242822960e-04 
-6.551443874445e-04 -7.576014874881e-04 0.0 
-7.576014874881e-04 2.929641818478e-03 0.0 
0.0 0.0 -4.894362539292e-04 
-4.890802463817e-04 -1.241731719978e-03 0.0 
-1.241731719978e-03 2.147525315431e-03 0.0 
0.0 0.0 -4.100935076628e-04 
-5.488809187293e-04 8.195138113053e-04 0.0 
8.195138113053e-04 3.940420057434e-03 0.0 
0.0 0.0 -6.990242139688e-04 
-7.645737241242e-04 -6.835179970588e-04 0.0 
-6.835179970588e-04 4.369038504805e-03 0.0 
0.0 0.0 -7.237531747479e-04 
-9.990166317683e-04 -3.989427530334e-04 0.0 
-3.989427530334e-04 6.371965153356e-03 0.0 
0.0 0.0 -1.024340108609e-03 
-1.185317591363e-03 7.742475138516e-05 0.0 
7.742475138516e-05 7.460446495103e-03 0.0 
0.0 0.0 -1.112552678551e-03 
1.197712392318e-04 -3.148981806786e-05 0.0 
-3.148981806786e-05 2.711258731277e-04 0.0 
0.0 0.0 -9.959518537181e-05 
-1.003340353985e-03 -3.675015482303e-04 0.0 
-3.675015482303e-04 6.579336743889e-03 0.0 
0.0 0.0 -1.061672265243e-03 
-8.749171253014e-04 -5.429443966133e-04 0.0 
-5.429443966133e-04 5.259260617559e-03 0.0 
0.0 0.0 -8.552253422611e-04 
-1.075058534600e-03 1.329625948637e-04 0.0 
1.329625948637e-04 6.404878824914e-03 0.0 
0.0 0.0 -9.599091010803e-04 
-8.098069298724e-04 1.009136731454e-04 0.0 
1.009136731454e-04 6.303475721426e-03 0.0 
0.0 0.0 -1.062640036239e-03 
-7.822393088759e-05 -1.437936820334e-03 0.0 
-1.437936820334e-03 1.036179245632e-03 0.0 
0.0 0.0 -3.732485265440e-04 
-1.183046367818e-03 1.393767940647e-04 0.0 
1.393767940647e-04 7.358067127657e-03 0.0 
0.0 0.0 -1.098747615487e-03 
-1.275160361241e-03 2.646540278175e-04 0.0 
2.646540278175e-04 8.092932724066e-03 0.0 
0.0 0.0 -1.212453547082e-03 
-1.010608018996e-03 1.134796452945e-04 0.0 
1.134796452945e-04 5.876477578498e-03 0.0 
0.0 0.0 -8.875094802107e-04 
-3.432304284614e-04 -2.023305734104e-04 0.0 
-2.023305734104e-04 1.413096543350e-03 0.0 
0.0 0.0 -2.442495876194e-04 
-9.871354508553e-04 6.543929527951e-05 0.0 
6.543929527951e-05 5.785148960874e-03 0.0 
0.0 0.0 -8.692469099983e-04 
-1.129933755956e-03 -2.589669323117e-04 0.0 
-2.589669323117e-04 7.495462082173e-03 0.0 
0.0 0.0 -1.202705989510e-03 
-1.175984421816e-03 2.539870060864e-04 0.0 
2.539870060864e-04 7.167724276723e-03 0.0 
0.0 0.0 -1.078220320736e-03 
-6.238127593336e-04 -2.578427228971e-04 0.0 
-2.578427228971e-04 2.729809833616e-03 0.0 
0.0 0.0 -4.336020471383e-04 
-3.693103125981e-04 -1.184898620339e-04 0.0 
-1.184898620339e-04 4.215512874596e-03 0.0 
0.0 0.0 -7.943514531093e-04 
-7.354883692347e-04 6.882867699015e-04 0.0 
6.882867699015e-04 4.480048918178e-03 0.0 
0.0 0.0 -7.428158978947e-04 
-8.300346150545e-04 1.997478973446e-04 0.0 
1.997478973446e-04 4.462946677923e-03 0.0 
0.0 0.0 -6.865907729104e-04 
-1.263662037140e-03 1.212955651983e-04 0.0 
1.212955651983e-04 8.095770653682e-03 0.0 
0.0 0.0 -1.206557591227e-03 
-5.452830500886e-04 5.833267200760e-04 0.0 
5.833267200760e-04 4.601923753795e-03 0.0 
0.0 0.0 -8.172945450071e-04 
-9.138715469007e-04 -2.809485115349e-05 0.0 
-2.809485115349e-05 6.748408724194e-03 0.0 
0.0 0.0 -1.120054252910e-03 
-5.855153319979e-04 -8.409325156636e-05 0.0 
-8.409325156636e-05 5.239197065772e-03 0.0 
0.0 0.0 -9.240809108919e-04 
-6.615538158736e-04 -2.024673927750e-04 0.0 
-2.024673927750e-04 2.941778370234e-03 0.0 
0.0 0.0 -4.629711029823e-04 
-1.130081472427e-03 -3.415372177863e-04 0.0 
-3.415372177863e-04 7.089023572073e-03 0.0 
0.0 0.0 -1.118919378802e-03 
-3.597542210602e-04 3.380969491909e-04 0.0 
3.380969491909e-04 4.095727105777e-03 0.0 
0.0 0.0 -7.743986277066e-04 
-1.231879397795e-03 1.563825567224e-04 0.0 
1.563825567224e-04 7.806451874477e-03 0.0 
0.0 0.0 -1.164614768973e-03 
-1.000367767849e-03 5.022961011040e-04 0.0 
5.022961011040e-04 6.477016694026e-03 0.0 
0.0 0.0 -1.031533309622e-03 
-8.496720980242e-05 7.949215026050e-05 0.0 
7.949215026050e-05 2.913474260951e-03 0.0 
0.0 0.0 -6.375205594687e-04 
-1.204201749293e-03 1.997899091721e-04 0.0 
1.997899091721e-04 7.486324816343e-03 0.0 
0.0 0.0 -1.121170216299e-03 
-5.130508831761e-04 -5.977004884583e-04 0.0 
-5.977004884583e-04 4.307094875234e-03 0.0 
0.0 0.0 -7.773091661689e-04 
-8.763670238880e-04 1.763080225343e-04 0.0 
1.763080225343e-04 6.599584220336e-03 0.0 
0.0 0.0 -1.099429584637e-03 
-8.205770634544e-04 5.305467903750e-04 0.0 
5.305467903750e-04 4.538492374159e-03 0.0 
0.0 0.0 -7.240542973723e-04 
-8.884268788469e-04 5.588484511591e-04 0.0 
5.588484511591e-04 5.612213355160e-03 0.0 
0.0 0.0 -9.041109700986e-04 
-1.050324174142e-03 4.352582260935e-04 0.0 
4.352582260935e-04 6.327572321714e-03 0.0 
0.0 0.0 -9.824247929831e-04 
-7.337998657639e-04 6.243333749199e-04 0.0 
6.243333749199e-04 5.125520163039e-03 0.0 
0.0 0.0 -8.608216255090e-04 
-1.153567602020e-03 -9.301724894271e-05 0.0 
-9.301724894271e-05 6.238376526397e-03 0.0 
0.0 0.0 -9.534332399069e-04 
-1.070854558502e-03 -3.525098866510e-04 0.0 
-3.525098866510e-04 6.838133072795e-03 0.0 
0.0 0.0 -1.090315851396e-03 
5.426530316348e-04 -6.124034834809e-04 0.0 
-6.124034834809e-04 -4.758177895346e-06 0.0 
0.0 0.0 -2.305263658883e-04 
-4.860442792995e-04 1.001524898596e-03 0.0 
1.001524898596e-03 3.110766909182e-03 0.0 
0.0 0.0 -5.719042557127e-04 
-1.067589445178e-03 1.583535090986e-04 0.0 
1.583535090986e-04 6.341569706464e-03 0.0 
0.0 0.0 -9.536514739466e-04 
-1.085608803619e-03 4.567018534179e-04 0.0 
4.567018534179e-04 7.206759563006e-03 0.0 
0.0 0.0 -1.150585697120e-03 
-1.272662540904e-03 1.837479624771e-04 0.0 
1.837479624771e-04 8.251575577157e-03 0.0 
0.0 0.0 -1.229329624135e-03 
-7.006581247961e-04 7.305782553014e-04 0.0 
7.305782553014e-04 4.076422328874e-03 0.0 
0.0 0.0 -6.801182747099e-04 
-1.119652443645e-03 -3.456160390905e-04 0.0 
-3.456160390905e-04 6.872141672148e-03 0.0 
0.0 0.0 -1.081576975854e-03 
-1.253042370701e-03 2.293393647918e-04 0.0 
2.293393647918e-04 7.917666161319e-03 0.0 
0.0 0.0 -1.185355684152e-03 
-8.328019205503e-04 -6.002544778108e-04 0.0 
-6.002544778108e-04 4.632328502255e-03 0.0 
0.0 0.0 -7.524367508395e-04 
-4.433075112401e-04 -2.566605040482e-05 0.0 
-2.566605040482e-05 2.036859959460e-03 0.0 
0.0 0.0 -3.333104686742e-04 
3.205177984844e-04 9.975801435051e-04 0.0 
9.975801435051e-04 2.379341149770e-04 0.0 
0.0 0.0 -2.393365343406e-04 
1.591584715393e-04 1.779286051982e-04 0.0 
1.779286051982e-04 1.786654556165e-03 0.0 
0.0 0.0 -5.092532232582e-04 
-4.531066397313e-04 5.570531624296e-04 0.0 
5.570531624296e-04 4.269383883647e-03 0.0 
0.0 0.0 -7.817448632792e-04 
-8.859078879477e-04 -5.417175315324e-04 0.0 
-5.417175315324e-04 5.072763910333e-03 0.0 
0.0 0.0 -8.181699076276e-04 
-1.293553667002e-03 3.539056233938e-04 0.0 
3.539056233938e-04 8.270227580961e-03 0.0 
0.0 0.0 -1.242275372262e-03 
-1.167568761218e-03 -3.100043251916e-04 0.0 
-3.100043251916e-04 7.110149870389e-03 0.0 
0.0 0.0 -1.110186454522e-03 
-8.720271584818e-04 -3.155671013640e-04 0.0 
-3.155671013640e-04 6.271566388977e-03 0.0 
0.0 0.0 -1.040857148505e-03 
3.090009603171e-05 6.438382974465e-04 0.0 
6.438382974465e-04 3.706853633849e-04 0.0 
0.0 0.0 -1.721080540357e-04 
-8.582532174726e-04 2.712256844373e-04 0.0 
2.712256844373e-04 4.619700861909e-03 0.0 
0.0 0.0 -7.126371066839e-04 
-1.210346144101e-03 -2.749948472322e-04 0.0 
-2.749948472322e-04 7.344160972203e-03 0.0 
0.0 0.0 -1.139074001596e-03 
-4.392212359222e-04 -2.427188308892e-04 0.0 
-2.427188308892e-04 4.468278991880e-03 0.0 
0.0 0.0 -8.223634564932e-04 
-9.190954487653e-04 1.036306006856e-04 0.0 
1.036306006856e-04 6.792229327511e-03 0.0 
0.0 0.0 -1.126725356868e-03 
-1.012271879397e-03 -9.648706787801e-05 0.0 
-9.648706787801e-05 5.106630196528e-03 0.0 
0.0 0.0 -7.817916451012e-04 
-1.209813015887e-03 4.617447502893e-04 0.0 
4.617447502893e-04 7.951412152162e-03 0.0 
0.0 0.0 -1.249754184115e-03 
-7.319316117329e-04 4.292603822642e-04 0.0 
4.292603822642e-04 3.626422685243e-03 0.0 
0.0 0.0 -5.757576642514e-04 
-1.253262516526e-03 -2.397729583392e-04 0.0 
-2.397729583392e-04 7.583908034255e-03 0.0 
0.0 0.0 -1.168790087466e-03 
-8.256776309677e-04 -1.881926819914e-04 0.0 
-1.881926819914e-04 6.244322400387e-03 0.0 
0.0 0.0 -1.047452346298e-03 
-1.833871752581e-04 1.076533841658e-03 0.0 
1.076533841658e-03 2.371953294675e-03 0.0 
0.0 0.0 -5.248669331578e-04 
-8.489436119586e-04 9.726246538456e-06 0.0 
9.726246538456e-06 4.964532206226e-03 0.0 
0.0 0.0 -7.498068730476e-04 
-1.301937909208e-03 -2.238090825597e-04 0.0 
-2.238090825597e-04 8.094251106337e-03 0.0 
0.0 0.0 -1.243807156011e-03 
-9.340333835081e-04 -1.610113385009e-04 0.0 
-1.610113385009e-04 6.744276922541e-03 0.0 
0.0 0.0 -1.114542488500e-03 
-7.941362751269e-04 5.664211877541e-04 0.0 
5.664211877541e-04 5.563587855978e-03 0.0 
0.0 0.0 -9.240346875991e-04 
-4.168495056098e-04 -3.974139927462e-04 0.0 
-3.974139927462e-04 4.226500375937e-03 0.0 
0.0 0.0 -7.856950878877e-04 
-7.739148085239e-04 2.464793331539e-04 0.0 
2.464793331539e-04 3.977512213385e-03 0.0 
0.0 0.0 -6.191377506773e-04 
-9.472802509339e-04 -4.715703841177e-04 0.0 
-4.715703841177e-04 5.324567248990e-03 0.0 
0.0 0.0 -8.467704336814e-04 
-9.485585464614e-04 5.193393053567e-04 0.0 
5.193393053567e-04 5.905682896343e-03 0.0 
0.0 0.0 -9.395224721591e-04 
-1.324920476103e-03 3.053746754946e-04 0.0 
3.053746754946e-04 8.723243834592e-03 0.0 
0.0 0.0 -1.306889097489e-03 
-9.807951782906e-04 -9.587801094059e-05 0.0 
-9.587801094059e-05 6.970713904845e-03 0.0 
0.0 0.0 -1.148622835147e-03 
-1.082939420670e-03 2.819860490732e-04 0.0 
2.819860490732e-04 6.381972856138e-03 0.0 
0.0 0.0 -9.696660045843e-04 
-9.493777168521e-04 -4.444219031776e-04 0.0 
-4.444219031776e-04 5.127854127799e-03 0.0 
0.0 0.0 -8.097439408559e-04 
-7.160311725792e-04 3.654432579295e-04 0.0 
3.654432579295e-04 5.714883805619e-03 0.0 
0.0 0.0 -9.749840279683e-04 
-1.676636515260e-04 -4.941269470984e-05 0.0 
-4.941269470984e-05 1.033199140519e-03 0.0 
0.0 0.0 -1.970089232863e-04 
-7.962185908535e-04 3.303377500728e-04 0.0 
3.303377500728e-04 4.131190544581e-03 0.0 
0.0 0.0 -6.447622526173e-04 
-1.000272012546e-03 -3.719800608836e-04 0.0 
-3.719800608836e-04 5.362836932527e-03 0.0 
0.0 0.0 -8.382314227178e-04 
1.017392588855e-04 -1.736220687656e-04 0.0 
-1.736220687656e-04 2.043177635858e-03 0.0 
0.0 0.0 -5.374563060555e-04 
-5.079147546005e-04 -4.709528610388e-04 0.0 
-4.709528610388e-04 4.508844721117e-03 0.0 
0.0 0.0 -8.136389561866e-04 
-1.114056657132e-03 2.887883130746e-04 0.0 
2.887883130746e-04 7.664610237433e-03 0.0 
0.0 0.0 -1.234277959947e-03 
-1.046296347188e-03 -3.017965079923e-04 0.0 
-3.017965079923e-04 5.590796710732e-03 0.0 
0.0 0.0 -8.668853676281e-04 
-2.327182499333e-05 -1.637556316808e-04 0.0 
-1.637556316808e-04 2.609999917965e-03 0.0 
0.0 0.0 -6.015264011954e-04 
-1.086733608739e-03 -2.340312705235e-04 0.0 
-2.340312705235e-04 5.809878777498e-03 0.0 
0.0 0.0 -8.955981815692e-04 
-7.133441625448e-04 3.191920090799e-04 0.0 
3.191920090799e-04 3.492826899708e-03 0.0 
0.0 0.0 -5.519888345566e-04 
-1.102733663682e-03 3.164092702850e-04 0.0 
3.164092702850e-04 6.555228391521e-03 0.0 
0.0 0.0 -9.983267706061e-04 
-1.119318067822e-03 -1.714358954242e-04 0.0 
-1.714358954242e-04 6.018884976543e-03 0.0 
0.0 0.0 -9.243533921793e-04 
-1.001908002250e-03 4.984942752457e-04 0.0 
4.984942752457e-04 6.334427631463e-03 0.0 
0.0 0.0 -1.003151257071e-03 
-2.279098310875e-04 -1.251804773978e-04 0.0 
-1.251804773978e-04 1.119603241316e-03 0.0 
0.0 0.0 -2.040322045631e-04 
-7.855046317287e-04 5.237977796601e-04 0.0 
5.237977796601e-04 5.697841480735e-03 0.0 
0.0 0.0 -9.517466134248e-04 
-1.278300960589e-03 -7.889376224299e-05 0.0 
-7.889376224299e-05 7.564162797006e-03 0.0 
0.0 0.0 -1.155419075730e-03 
-6.039386638838e-04 -9.352834442183e-04 0.0 
-9.352834442183e-04 3.237374525321e-03 0.0 
0.0 0.0 -5.654343806685e-04 
-5.996382576729e-04 -5.078678615237e-04 0.0 
-5.078678615237e-04 4.794693511813e-03 0.0 
0.0 0.0 -8.420324705410e-04 
-1.153622144798e-03 3.409444967982e-04 0.0 
3.409444967982e-04 6.992756961225e-03 0.0 
0.0 0.0 -1.063653581392e-03 
-6.588103306477e-04 3.969496556601e-04 0.0 
3.969496556601e-04 3.002666315313e-03 0.0 
0.0 0.0 -4.839843007303e-04 
-6.880791710433e-04 -4.312562534369e-04 0.0 
-4.312562534369e-04 5.283404868934e-03 0.0 
0.0 0.0 -9.074658271045e-04 
-1.060052777402e-03 4.844888623504e-04 0.0 
4.844888623504e-04 6.770757776904e-03 0.0 
0.0 0.0 -1.067288052377e-03 
-7.837482685475e-04 4.743739920089e-04 0.0 
4.743739920089e-04 5.847117456295e-03 0.0 
0.0 0.0 -9.801762873724e-04 
-5.364910550697e-04 4.803545642860e-04 0.0 
4.803545642860e-04 4.747968314780e-03 0.0 
0.0 0.0 -8.455731917576e-04 
-7.785051872343e-04 -3.658858697108e-04 0.0 
-3.658858697108e-04 5.776530662371e-03 0.0 
0.0 0.0 -9.738262179588e-04 
-6.715128569437e-04 5.603668306290e-04 0.0 
5.603668306290e-04 3.116619739403e-03 0.0 
0.0 0.0 -5.057041985798e-04 
-6.174255134183e-04 -7.382519752092e-04 0.0 
-7.382519752092e-04 2.524949954393e-03 0.0 
0.0 0.0 -4.238464704258e-04 
-5.725994882734e-04 -6.885730532868e-04 0.0 
-6.885730532868e-04 2.123374709043e-03 0.0 
0.0 0.0 -3.586180353125e-04 
-1.087968519769e-04 -3.894502741245e-04 0.0 
-3.894502741245e-04 2.894305128247e-03 0.0 
0.0 0.0 -6.294631353604e-04 
-1.113989301634e-03 4.730580331504e-04 0.0 
4.730580331504e-04 7.064599777148e-03 0.0 
0.0 0.0 -1.103081964739e-03 
-2.909493422495e-04 -6.727813062534e-05 0.0 
-6.727813062534e-05 1.456560370235e-03 0.0 
0.0 0.0 -2.521214004998e-04 
-1.130223577437e-03 3.874695664211e-04 0.0 
3.874695664211e-04 6.879711460710e-03 0.0 
0.0 0.0 -1.054898413167e-03 
-4.747914815808e-04 -7.007316897934e-04 0.0 
-7.007316897934e-04 1.510403036883e-03 0.0 
0.0 0.0 -2.740243446916e-04 
-1.059034309075e-04 -6.476895754937e-04 0.0 
-6.476895754937e-04 2.671993736935e-03 0.0 
0.0 0.0 -5.935709857392e-04 
-8.832674525435e-04 3.712236152595e-04 0.0 
3.712236152595e-04 6.508434955568e-03 0.0 
0.0 0.0 -1.077081564483e-03 
-1.023005590377e-03 -4.065847446542e-05 0.0 
-4.065847446542e-05 6.235882102629e-03 0.0 
0.0 0.0 -9.315431351609e-04 
-2.271455064543e-04 -7.649077538712e-04 0.0 
-7.649077538712e-04 3.005124294304e-03 0.0 
0.0 0.0 -6.211106552582e-04 
-5.539372237771e-04 -2.705347043382e-05 0.0 
-2.705347043382e-05 2.503628127068e-03 0.0 
0.0 0.0 -3.989951351066e-04 
-2.711318037513e-04 -9.555117866304e-04 0.0 
-9.555117866304e-04 2.849172517321e-03 0.0 
0.0 0.0 -5.850331209179e-04 
-6.241921201683e-04 4.180601427792e-04 0.0 
4.180601427792e-04 5.227484326245e-03 0.0 
0.0 0.0 -9.098959706900e-04 
-3.942802621189e-04 -9.538191986641e-04 0.0 
-9.538191986641e-04 3.188718869022e-03 0.0 
0.0 0.0 -6.124823626799e-04 
-4.550624226044e-04 -1.036578340992e-03 0.0 
-1.036578340992e-03 3.064317854104e-03 0.0 
0.0 0.0 -5.760838601101e-04 
-1.286542940212e-03 9.779925010804e-05 0.0 
9.779925010804e-05 8.362389009926e-03 0.0 
0.0 0.0 -1.242975171717e-03 
-5.556616817437e-04 -9.487474711726e-04 0.0 
-9.487474711726e-04 3.373317672553e-03 0.0 
0.0 0.0 -6.030381679152e-04 
-1.312957018488e-03 1.762534641485e-05 0.0 
1.762534641485e-05 8.791531742823e-03 0.0 
0.0 0.0 -1.305370344976e-03 
-1.342889913941e-03 -8.887845541572e-05 0.0 
-8.887845541572e-05 8.517788746463e-03 0.0 
0.0 0.0 -1.298405437673e-03 
-9.001399359898e-04 -3.115200366471e-05 0.0 
-3.115200366471e-05 5.327299192951e-03 0.0 
0.0 0.0 -7.997855503562e-04 
-6.119585369169e-04 5.319683456807e-04 0.0 
5.319683456807e-04 2.524442221547e-03 0.0 
0.0 0.0 -4.121418992062e-04 
0.0 0.0 0.0 
0.0 0.0 0.0 
0.0 0.0 0.0 
-6.013216908629e-04 7.353591052882e-04 0.0 
7.353591052882e-04 2.570270979253e-03 0.0 
0.0 0.0 -4.369243393394e-04 
-5.755877201232e-04 -1.006492197580e-03 0.0 
-1.006492197580e-03 2.831071537896e-03 0.0 
0.0 0.0 -5.013603847490e-04 
-1.101076468124e-03 4.427543157598e-04 0.0 
4.427543157598e-04 6.753747619027e-03 0.0 
0.0 0.0 -1.045752072333e-03 
-9.001350944238e-04 1.690426372956e-05 0.0 
1.690426372956e-05 5.335483219367e-03 0.0 
0.0 0.0 -8.029817139903e-04 
-6.111138971153e-04 -8.912307338130e-04 0.0 
-8.912307338130e-04 2.695444832232e-03 0.0 
0.0 0.0 -4.630712860745e-04 
-1.275916597091e-03 4.598087248478e-04 0.0 
4.598087248478e-04 8.197933557976e-03 0.0 
0.0 0.0 -1.250093291501e-03 
-1.277155987315e-03 4.247176035906e-04 0.0 
4.247176035906e-04 8.290214574666e-03 0.0 
0.0 0.0 -1.306737725957e-03 
-1.108220863065e-03 9.376951406301e-06 0.0 
9.376951406301e-06 6.884195681395e-03 0.0 
0.0 0.0 -1.028769680629e-03 
-9.736500693663e-04 5.157775084853e-05 0.0 
5.157775084853e-05 6.985202160712e-03 0.0 
0.0 0.0 -1.152835590205e-03 
-7.921204258207e-04 4.078698397503e-04 0.0 
4.078698397503e-04 6.023879636983e-03 0.0 
0.0 0.0 -1.010595862668e-03 
-1.241857793517e-03 -4.299570159508e-06 0.0 
-4.299570159508e-06 7.958618347353e-03 0.0 
0.0 0.0 -1.185717314024e-03 
-8.475222208266e-04 -3.781329079989e-05 0.0 
-3.781329079989e-05 4.928212699674e-03 0.0 
0.0 0.0 -7.451086181774e-04 
-1.664286133127e-04 -2.725892507630e-04 0.0 
-2.725892507630e-04 6.325537652716e-04 0.0 
0.0 0.0 -1.414044378648e-04 
-1.183800202695e-03 -4.172593709851e-05 0.0 
-4.172593709851e-05 6.467154125527e-03 0.0 
0.0 0.0 -9.879584850274e-04 
-5.708971627680e-04 6.741264129118e-04 0.0 
6.741264129118e-04 2.024843560255e-03 0.0 
0.0 0.0 -3.437331075899e-04 
-5.495900722021e-04 1.011381174664e-03 0.0 
1.011381174664e-03 1.944401710747e-03 0.0 
0.0 0.0 -3.524505972177e-04 
-2.853835512823e-04 1.205712139992e-03 0.0 
1.205712139992e-03 1.304597058130e-03 0.0 
0.0 0.0 -3.593644486456e-04 
-7.020460695734e-04 -1.440442927613e-04 0.0 
-1.440442927613e-04 3.119459023260e-03 0.0 
0.0 0.0 -4.856826860430e-04 
-8.782495870591e-05 -9.084916110393e-04 0.0 
-9.084916110393e-04 7.572036747300e-04 0.0 
0.0 0.0 -2.846511604759e-04 
-4.893890858810e-04 8.969022950391e-04 0.0 
8.969022950391e-04 1.589417859757e-03 0.0 
0.0 0.0 -3.076864852448e-04 
-1.137014357475e-03 7.152136645661e-05 0.0 
7.152136645661e-05 7.697731072351e-03 0.0 
0.0 0.0 -1.245112051941e-03 
-9.139609418570e-04 1.641183808410e-05 0.0 
1.641183808410e-05 5.327038428336e-03 0.0 
0.0 0.0 -8.050116406322e-04 
-9.540345071131e-04 3.841934886618e-04 0.0 
3.841934886618e-04 6.790550876670e-03 0.0 
0.0 0.0 -1.110409235593e-03 
-1.902162665021e-04 9.339845454039e-04 0.0 
9.339845454039e-04 9.942126500714e-04 0.0 
0.0 0.0 -3.261355004832e-04 
-1.296828862309e-03 2.341461600450e-04 0.0 
2.341461600450e-04 8.351041898143e-03 0.0 
0.0 0.0 -1.247366155457e-03 
-1.168645139073e-03 3.735588726833e-04 0.0 
3.735588726833e-04 7.817174461527e-03 0.0 
0.0 0.0 -1.246608778627e-03 
-1.314967464086e-03 -3.318256949741e-04 0.0 
-3.318256949741e-04 8.403481236488e-03 0.0 
0.0 0.0 -1.306249356034e-03 
-1.050201848033e-03 3.696451559178e-04 0.0 
3.696451559178e-04 7.268871172990e-03 0.0 
0.0 0.0 -1.176371721005e-03 
6.114555871551e-05 1.042784162236e-03 0.0 
1.042784162236e-03 5.736687994652e-04 0.0 
0.0 0.0 -2.720632963632e-04 
-9.766098877979e-04 1.041630930997e-04 0.0 
1.041630930997e-04 5.685157012225e-03 0.0 
0.0 0.0 -8.603500797662e-04 
-1.246724541881e-03 4.866961176123e-04 0.0 
4.866961176123e-04 8.045633532487e-03 0.0 
0.0 0.0 -1.250827372426e-03 
-1.145993633532e-03 3.235835733547e-05 0.0 
3.235835733547e-05 7.250949289083e-03 0.0 
0.0 0.0 -1.080253149739e-03 
-1.318596932855e-03 -2.303003049155e-04 0.0 
-2.303003049155e-04 8.477981163117e-03 0.0 
0.0 0.0 -1.309985050881e-03 
-9.104561560587e-04 8.791536920609e-05 0.0 
8.791536920609e-05 5.249520802984e-03 0.0 
0.0 0.0 -7.979019438933e-04 
-1.287101829326e-03 7.929734908006e-05 0.0 
7.929734908006e-05 8.412586601378e-03 0.0 
0.0 0.0 -1.252774941638e-03 
4.187865149814e-04 -7.886444366699e-04 0.0 
-7.886444366699e-04 6.898920111237e-05 0.0 
0.0 0.0 -2.090467354688e-04 
-1.285197150188e-03 5.312445103222e-05 0.0 
5.312445103222e-05 8.412445019205e-03 0.0 
0.0 0.0 -1.254166199180e-03 
-1.155435508235e-03 4.462044169920e-04 0.0 
4.462044169920e-04 7.190167035892e-03 0.0 
0.0 0.0 -1.110316242656e-03 
-9.785241987209e-04 6.006269753900e-05 0.0 
6.006269753900e-05 5.897359505691e-03 0.0 
0.0 0.0 -8.840149073763e-04 
-9.814056690218e-04 2.078101741112e-04 0.0 
2.078101741112e-04 5.639397818750e-03 0.0 
0.0 0.0 -8.570326279659e-04 
-1.319590243869e-03 -1.168373964399e-04 0.0 
-1.168373964399e-04 8.200864803592e-03 0.0 
0.0 0.0 -1.256337174517e-03 
-1.298927049123e-03 3.872456439500e-04 0.0 
3.872456439500e-04 8.256979916972e-03 0.0 
0.0 0.0 -1.249505442739e-03 
1.588810044440e-04 6.739000714330e-04 0.0 
6.739000714330e-04 2.144145137498e-04 0.0 
0.0 0.0 -1.599837935116e-04 
-1.096094038579e-03 6.855172835755e-05 0.0 
6.855172835755e-05 6.864639960432e-03 0.0 
0.0 0.0 -1.024357608964e-03 
-8.327401503038e-04 -2.617825635292e-04 0.0 
-2.617825635292e-04 3.865808984588e-03 0.0 
0.0 0.0 -5.984289768806e-04 
4.595402762325e-05 -8.016720020432e-05 0.0 
-8.016720020432e-05 3.015012832340e-06 0.0 
0.0 0.0 -2.098673162382e-05 
-1.235862100260e-03 -2.625570613708e-04 0.0 
-2.625570613708e-04 7.934382526740e-03 0.0 
0.0 0.0 -1.249521112489e-03 
-1.211535382329e-03 4.565569816846e-04 0.0 
4.565569816846e-04 7.603855218494e-03 0.0 
0.0 0.0 -1.172189067419e-03 
-1.321360973485e-03 -1.598454139055e-04 0.0 
-1.598454139055e-04 8.157812717265e-03 0.0 
0.0 0.0 -1.251863004148e-03 
-1.704574328015e-04 2.300128264431e-05 0.0 
2.300128264431e-05 1.030856563870e-03 0.0 
0.0 0.0 -1.953152674555e-04 
-1.117901966883e-04 -9.482210033707e-05 0.0 
-9.482210033707e-05 5.817955991869e-04 0.0 
0.0 0.0 -1.292073282250e-04 
-1.214101423412e-03 -2.486194593532e-04 0.0 
-2.486194593532e-04 7.945028851660e-03 0.0 
0.0 0.0 -1.258522865334e-03 
-1.271219324857e-03 4.971693506933e-04 0.0 
4.971693506933e-04 8.177840067003e-03 0.0 
0.0 0.0 -1.257106814994e-03 
2.594232538172e-04 -1.339851872499e-03 0.0 
-1.339851872499e-03 5.141638941498e-04 0.0 
0.0 0.0 -3.217126346404e-04 
-1.334345376368e-03 2.157790183719e-04 0.0 
2.157790183719e-04 8.827191171129e-03 0.0 
0.0 0.0 -1.314710167832e-03 
5.758992691219e-05 1.629967515181e-04 0.0 
1.629967515181e-04 3.408863824387e-05 0.0 
0.0 0.0 -3.929081363831e-05 
-8.415723991859e-04 3.409357994461e-05 0.0 
3.409357994461e-05 4.862419417103e-03 0.0 
0.0 0.0 -7.389643750272e-04 
-5.632071603276e-05 -7.908255579780e-05 0.0 
-7.908255579780e-05 5.951715054384e-04 0.0 
0.0 0.0 -1.313337839019e-04 
-1.324427323831e-03 -2.984557275517e-04 0.0 
-2.984557275517e-04 8.505668996389e-03 0.0 
0.0 0.0 -1.308531455474e-03 
-1.300676432775e-03 1.886676363898e-04 0.0 
1.886676363898e-04 8.425576722081e-03 0.0 
0.0 0.0 -1.254845750201e-03 
-8.984019564796e-04 -1.237198133233e-04 0.0 
-1.237198133233e-04 4.265458849472e-03 0.0 
0.0 0.0 -6.564513288157e-04 
-8.888014077326e-04 1.812789084724e-04 0.0 
1.812789084724e-04 4.952376261473e-03 0.0 
0.0 0.0 -7.541421605440e-04 
-6.276097559503e-04 -6.715782605664e-05 0.0 
-6.715782605664e-05 2.832069501594e-03 0.0 
0.0 0.0 -4.426424662127e-04 
-1.151816338705e-03 4.986859032723e-04 0.0 
4.986859032723e-04 7.600283655027e-03 0.0 
0.0 0.0 -1.203498912175e-03 
-2.674740073154e-04 -5.400123392678e-04 0.0 
-5.400123392678e-04 9.299090651865e-04 0.0 
0.0 0.0 -2.264474151299e-04 
-1.303841109802e-03 1.085882883771e-04 0.0 
1.085882883771e-04 8.492357544012e-03 0.0 
0.0 0.0 -1.260296891839e-03 
-1.191687690371e-03 -1.792572912051e-04 0.0 
-1.792572912051e-04 7.902409115589e-03 0.0 
0.0 0.0 -1.261416966621e-03 
-1.308215205254e-03 3.369873735607e-04 0.0 
3.369873735607e-04 8.413847692259e-03 0.0 
0.0 0.0 -1.260618436842e-03 
-1.275370929010e-03 2.203297067690e-04 0.0 
2.203297067690e-04 8.294911698725e-03 0.0 
0.0 0.0 -1.317725628150e-03 
1.222313271004e-05 1.128127362180e-05 0.0 
1.128127362180e-05 -2.314647535048e-06 0.0 
0.0 0.0 -4.246493646427e-06 
-1.211818034300e-03 4.006014363556e-04 0.0 
4.006014363556e-04 7.983414665776e-03 0.0 
0.0 0.0 -1.263090216482e-03 
-1.073154055867e-03 -5.044780342709e-05 0.0 
-5.044780342709e-05 7.404491594172e-03 0.0 
0.0 0.0 -1.202239909569e-03 
-8.482969471247e-04 5.756566432870e-05 0.0 
5.756566432870e-05 4.934073378721e-03 0.0 
0.0 0.0 -7.439744481034e-04 
-1.294789794099e-03 4.128632800208e-04 0.0 
4.128632800208e-04 8.301439097425e-03 0.0 
0.0 0.0 -1.252574368527e-03 
-7.632240259174e-04 -1.247615584578e-04 0.0 
-1.247615584578e-04 3.481612275262e-03 0.0 
0.0 0.0 -5.383891422301e-04 
-3.003096040968e-04 -1.615487937268e-04 0.0 
-1.615487937268e-04 1.430206630076e-03 0.0 
0.0 0.0 -2.492021827984e-04 
-1.313629829914e-03 -1.230146382652e-05 0.0 
-1.230146382652e-05 8.822541585775e-03 0.0 
0.0 0.0 -1.313490227100e-03 
3.512651625883e-04 2.496523614618e-05 0.0 
2.496523614618e-05 9.331964126241e-05 0.0 
0.0 0.0 -1.176723970536e-04 
-8.447146323437e-04 -2.046082411215e-05 0.0 
-2.046082411215e-05 4.909462012842e-03 0.0 
0.0 0.0 -7.402411036050e-04 
-1.348085845692e-03 2.530918264864e-06 0.0 
2.530918264864e-06 8.606464988216e-03 0.0 
0.0 0.0 -1.313492844077e-03 
-2.497229854947e-04 -6.189559134780e-05 0.0 
-6.189559134780e-05 1.337406434444e-03 0.0 
0.0 0.0 -2.401910970207e-04 
-9.421911629794e-04 -1.661669992897e-05 0.0 
-1.661669992897e-05 5.655702660019e-03 0.0 
0.0 0.0 -8.489638187885e-04 
-1.276280445523e-03 4.696432845470e-04 0.0 
4.696432845470e-04 8.231682282445e-03 0.0 
0.0 0.0 -1.260211869575e-03 
-1.042131282941e-03 -3.353944901092e-05 0.0 
-3.353944901092e-05 5.231045184564e-03 0.0 
0.0 0.0 -7.986629621775e-04 
-1.208709146256e-03 -3.512840286861e-05 0.0 
-3.512840286861e-05 7.690123470060e-03 0.0 
0.0 0.0 -1.148445367820e-03 
-1.362273016930e-05 -1.182361291552e-03 0.0 
-1.182361291552e-03 7.884965128820e-04 0.0 
0.0 0.0 -3.320887640197e-04 
0.0 0.0 0.0 
0.0 0.0 0.0 
0.0 0.0 0.0 
-1.052359765526e-03 -2.552934865100e-05 0.0 
-2.552934865100e-05 6.469023319650e-03 0.0 
0.0 0.0 -9.668795991591e-04 
-1.182130655930e-03 3.563594059290e-04 0.0 
3.563594059290e-04 7.870829341615e-03 0.0 
0.0 0.0 -1.258714341260e-03 
-1.311624000118e-03 2.599452204782e-04 0.0 
2.599452204782e-04 8.471619375797e-03 0.0 
0.0 0.0 -1.263997700767e-03 
-1.012178473530e-03 6.922432419418e-05 0.0 
6.922432419418e-05 6.158161253950e-03 0.0 
0.0 0.0 -9.199601189493e-04 
2.647470927745e-04 7.455276449397e-04 0.0 
7.455276449397e-04 1.486685304712e-04 0.0 
0.0 0.0 -1.771781242482e-04 
-1.250478637346e-03 4.824320061321e-04 0.0 
4.824320061321e-04 7.958988352162e-03 0.0 
0.0 0.0 -1.221038716794e-03 
-9.320485300336e-04 -1.667751956757e-04 0.0 
-1.667751956757e-04 4.597200132756e-03 0.0 
0.0 0.0 -7.060606045914e-04 
-1.200656783891e-03 4.721645169611e-04 0.0 
4.721645169611e-04 7.751960834764e-03 0.0 
0.0 0.0 -1.208939113964e-03 
-1.070653970758e-03 3.740030437558e-05 0.0 
3.740030437558e-05 7.401065294209e-03 0.0 
0.0 0.0 -1.203806565432e-03 
-1.157799746014e-06 1.326632579692e-04 0.0 
1.326632579692e-04 1.614088382094e-05 0.0 
0.0 0.0 -6.421321746397e-06 
-1.092227246100e-03 -1.750499239164e-05 0.0 
-1.750499239164e-05 5.615262148534e-03 0.0 
0.0 0.0 -8.562696210230e-04 
-5.708960077967e-05 -1.112001135559e-04 0.0 
-1.112001135559e-04 5.586929987395e-04 0.0 
0.0 0.0 -1.274563633148e-04 
-1.286136249812e-03 -3.205909886145e-04 0.0 
-3.205909886145e-04 8.133690929480e-03 0.0 
0.0 0.0 -1.263714160583e-03 
-9.761535132734e-04 -1.267872809360e-04 0.0 
-1.267872809360e-04 4.804162128704e-03 0.0 
0.0 0.0 -7.344436328926e-04 
-4.674594083407e-04 5.121633904870e-04 0.0 
5.121633904870e-04 1.495624585349e-03 0.0 
0.0 0.0 -2.553836189007e-04 
-3.132417179502e-04 -4.279092732955e-06 0.0 
-4.279092732955e-06 1.491121511340e-03 0.0 
0.0 0.0 -2.600000000000e-04 
-4.871441053693e-04 3.894800201419e-04 0.0 
3.894800201419e-04 1.935005749198e-03 0.0 
0.0 0.0 -3.193537414966e-04 
-3.883340728744e-04 -5.297006852740e-06 0.0 
-5.297006852740e-06 2.040218536578e-03 0.0 
0.0 0.0 -3.266666666667e-04 
-5.221802544742e-04 3.142786752395e-04 0.0 
3.142786752395e-04 2.396081260473e-03 0.0 
0.0 0.0 -3.859030858720e-04 
-4.643532723477e-04 -6.847349416375e-06 0.0 
-6.847349416375e-06 2.429348412629e-03 0.0 
0.0 0.0 -3.933333333333e-04 
-5.880460427890e-04 2.259415376055e-04 0.0 
2.259415376055e-04 2.861994469718e-03 0.0 
0.0 0.0 -4.526870748299e-04 
-5.389667577120e-04 -6.804025262557e-06 0.0 
-6.804025262557e-06 2.978462680921e-03 0.0 
0.0 0.0 -4.600000000000e-04 
-6.473050156334e-04 1.727942626416e-04 0.0 
1.727942626416e-04 3.336717154907e-03 0.0 
0.0 0.0 -5.192176870747e-04 
-6.144712139930e-04 -6.417158408879e-06 0.0 
-6.417158408879e-06 3.367933189460e-03 0.0 
0.0 0.0 -5.266666666667e-04 
-7.109436799071e-04 1.285541719908e-04 0.0 
1.285541719908e-04 3.807150921548e-03 0.0 
0.0 0.0 -5.860204081633e-04 
-6.853888581673e-04 6.201834011282e-06 0.0 
6.201834011282e-06 3.914136364457e-03 0.0 
0.0 0.0 -5.933333333333e-04 
-7.741251423872e-04 1.050422606297e-04 0.0 
1.050422606297e-04 4.286196800977e-03 0.0 
0.0 0.0 -6.525251918948e-04 
-7.681459693767e-04 3.705640173290e-05 0.0 
3.705640173290e-05 4.300928271438e-03 0.0 
0.0 0.0 -6.600000000000e-04 

SCALARS node_materi_plasti_kappa_shear float
LOOKUP_TABLE default
4.018595016637e-04
3.089753889168e-03
5.782851735544e-03
5.918183804685e-03
3.534406101045e-04
5.777185496190e-04
8.655346567894e-04
1.225178696612e-03
1.561289241519e-03
1.871659154863e-03
2.181083715770e-03
2.488964856422e-03
2.787137593187e-03
3.091771098928e-03
3.420472284368e-03
3.710467865470e-03
3.939561491463e-03
4.240577622205e-03
4.533842638206e-03
4.816933074020e-03
5.104668969230e-03
5.391975952764e-03
5.664103688175e-03
5.924781152092e-03
5.917884078783e-03
5.912198488963e-03
5.915363934694e-03
5.905144694759e-03
5.903457440159e-03
5.903348825920e-03
5.903761712110e-03
5.904265203747e-03
5.905318048855e-03
5.891395232290e-03
5.888128140164e-03
5.888680312796e-03
5.877931512601e-03
5.860031142375e-03
5.843163873242e-03
5.826784160533e-03
5.822850206754e-03
5.815960623432e-03
5.800025919692e-03
5.784362356774e-03
5.761776212317e-03
5.737855144386e-03
5.711749137531e-03
5.696108572039e-03
5.671644922162e-03
5.650827538949e-03
5.628366488181e-03
5.614080868870e-03
5.604140386820e-03
5.593036124330e-03
5.565915778014e-03
5.555192109801e-03
5.573004876633e-03
5.580306717995e-03
5.596307166112e-03
5.614091302200e-03
5.629810666475e-03
5.640837494200e-03
5.663093814390e-03
5.686920133380e-03
5.716693701825e-03
5.739758391817e-03
5.726679333637e-03
5.759394314008e-03
5.766547388258e-03
5.773558049937e-03
5.793695355299e-03
5.800384027879e-03
3.373278433029e-03
3.702017582457e-03
4.003145076898e-03
4.293988028575e-03
4.595203178701e-03
4.888984289506e-03
5.184208240141e-03
5.464856448975e-03
5.776378587400e-03
0.0
3.081614032412e-03
4.378618974845e-04
9.313671065223e-04
1.254589739385e-03
1.349014216904e-03
1.575876928335e-03
1.839092757794e-03
2.132793436960e-03
2.435412037652e-03
2.742854806992e-03
1.070530874821e-03
1.234373397688e-03
1.540487309266e-03
1.848687914648e-03
2.157438038011e-03
2.464376355407e-03
2.763613688910e-03
3.033283060944e-03
3.047551184854e-03
3.052691208087e-03
3.048980415926e-03
3.100970999415e-03
3.055386088564e-03
3.048944342912e-03
3.057111577284e-03
3.066860764030e-03
3.068512091509e-03
3.063486917503e-03
3.060147944086e-03
3.055345893607e-03
3.060924048497e-03
0.0
0.0
0.0
0.0
3.010556392938e-05
1.524327839584e-04
1.995857095858e-04
2.767971837970e-04
3.769179784358e-04
3.253807271213e-04
3.117581124918e-04
3.606568275965e-04
3.857262083461e-04
3.906419353076e-04
3.716692121618e-04
3.690405021818e-04
3.649158742688e-04
3.750961897123e-04
3.938961504005e-04
1.153030589152e-03
1.179739842348e-03
1.149834512773e-03
1.116967539173e-03
1.100848223355e-03
1.088063282079e-03
1.081118104173e-03
1.076483040111e-03
1.073524879440e-03
1.071797285358e-03
1.070895355454e-03
1.070665881424e-03
1.070946226065e-03
1.071566067425e-03
1.072297564863e-03
1.073004514480e-03
1.073611351689e-03
1.074050511396e-03
1.074260870204e-03
1.074201935687e-03
1.073909380854e-03
1.073498920479e-03
1.072208853180e-03
1.048239867753e-03
1.020279588166e-03
1.218617488871e-03
1.201441144692e-03
1.200450054902e-03
1.200725682078e-03
1.201284400767e-03
1.201809552986e-03
1.202146721212e-03
1.202263596627e-03
1.202225086140e-03
1.202090321804e-03
1.201916536589e-03
1.201744135093e-03
1.201800021073e-03
1.202351193508e-03
1.203648568617e-03
1.205522949758e-03
1.208629005642e-03
1.212461690665e-03
1.219453852663e-03
1.226928831710e-03
1.244550525754e-03
1.281903527467e-03
1.240390523468e-03
1.503710853602e-03
1.563264015597e-03
1.541819981905e-03
1.533515452539e-03
1.530749929635e-03
1.526512742426e-03
1.523991147098e-03
1.521462715804e-03
1.520000732908e-03
1.519373259278e-03
1.519112239051e-03
1.518688350821e-03
1.518233377000e-03
1.517797439737e-03
1.517289149115e-03
1.516573233522e-03
1.515655005308e-03
1.514795103623e-03
1.514285677842e-03
1.514558152049e-03
1.516766357273e-03
1.531646280250e-03
1.838274221278e-03
1.827642067065e-03
1.826933390294e-03
1.827334425569e-03
1.828247054489e-03
1.829485851769e-03
1.830712470314e-03
1.831486639508e-03
1.832077787242e-03
1.832953756020e-03
1.833892061319e-03
1.834434545344e-03
1.834261549352e-03
1.835206308822e-03
1.837211607732e-03
1.841012575748e-03
1.841393986030e-03
1.843823439171e-03
1.861376219882e-03
1.784560400915e-03
2.080506824934e-03
2.164948252942e-03
2.154100839180e-03
2.150515564044e-03
2.148527180390e-03
2.146829621685e-03
2.148399684790e-03
2.148269732465e-03
2.147251103362e-03
2.145502430008e-03
2.144742881416e-03
2.144585681651e-03
2.143007155335e-03
2.141326361852e-03
2.140089070988e-03
2.139324946174e-03
2.139237355337e-03
2.141352669433e-03
2.151708895370e-03
2.461087216651e-03
2.449937346399e-03
2.449035342414e-03
2.450513446923e-03
2.450644149295e-03
2.452642955489e-03
2.454778138053e-03
2.455902509536e-03
2.454538383279e-03
2.457438007012e-03
2.459393424546e-03
2.458960398410e-03
2.459214310986e-03
2.454295807747e-03
2.458028484257e-03
2.475695803071e-03
2.389521690566e-03
2.696529334491e-03
2.782001887569e-03
2.769038020761e-03
2.765913210012e-03
2.768177298345e-03
2.769449690573e-03
2.765618434112e-03
2.764713207464e-03
2.764281696244e-03
2.762786239059e-03
2.760748228383e-03
2.759266427299e-03
2.760944420823e-03
2.756978941966e-03
2.764313748951e-03
2.781014989081e-03
2.533885844452e-04
6.987967846243e-04
1.138663496479e-03
1.308764664484e-03
1.480294313688e-03
1.730609436774e-03
2.006286172887e-03
2.301780023271e-03
2.604607703320e-03
2.917242865590e-03
9.738600395069e-04
5.435588587201e-03
2.909988311951e-04
3.769847250243e-05
5.523350165746e-03
1.570944169196e-03
3.259014405966e-03
5.458606763578e-03
1.964336709912e-03
5.566973844380e-03
2.569306611317e-03
5.632953359091e-03
2.974125210141e-04
5.671758588449e-03
3.203440197606e-03
2.038890301765e-03
4.045860618713e-03
5.716180375961e-03
5.780776132195e-03
5.820339983969e-03
5.787783236705e-03
5.807930197893e-03
3.336276229903e-03
3.342041558882e-03
3.361792062102e-03
4.441169448529e-03
5.674307051814e-03
0.0
3.209899088955e-04
4.945795996265e-03
3.327462179655e-03
1.042267579418e-03
5.707024864184e-03
5.532622783008e-03
5.619797893241e-03
5.423578043402e-03
5.471772884167e-03
3.436383270429e-04
3.333005330644e-03
5.529223749367e-03
5.037839075619e-03
2.638587871684e-04
2.642361659730e-03
5.873210275008e-03
1.763677943653e-03
1.340334044123e-03
2.263467496582e-03
2.874799860949e-03
4.112434856810e-04
3.869122312403e-03
5.743109238437e-03
3.285007242827e-04
5.592525333234e-03
3.331816214928e-03
3.445762685372e-03
3.598635432457e-03
3.735913935781e-03
3.890935618439e-03
4.012600674008e-03
3.849474617287e-03
4.126514031565e-03
3.959165169884e-03
4.176038116471e-03
4.235988580970e-03
4.064707878218e-03
4.341402437136e-03
4.167240197337e-03
3.894151677151e-03
3.992834958239e-03
3.721936449487e-03
3.816849981585e-03
4.088667098279e-03
3.907021233887e-03
3.638494610824e-03
3.722863223661e-03
3.459179651477e-03
3.537390187834e-03
3.278134638251e-03
3.349761859775e-03
3.611638012721e-03
3.416809574398e-03
3.159803868816e-03
3.218051688491e-03
2.967054440755e-03
3.013255720382e-03
3.274741419647e-03
3.060407839341e-03
2.799033525006e-03
2.837141687482e-03
2.575225456547e-03
2.604333461748e-03
2.339006943104e-03
2.356936139518e-03
2.652093179226e-03
2.407825459181e-03
2.096105658174e-03
2.161022888783e-03
2.499076110119e-03
2.280206439540e-03
2.629068977315e-03
2.442266900798e-03
2.092139772061e-03
2.292183785287e-03
2.630236405014e-03
2.506325631077e-03
2.190661895186e-03
2.422274426006e-03
2.721982461051e-03
2.641933182030e-03
2.372758104436e-03
2.584384885052e-03
2.850333968712e-03
2.779077813445e-03
2.534557373612e-03
2.709557774217e-03
2.962454448322e-03
2.875190167875e-03
3.136631662821e-03
2.629761375739e-03
2.778979644167e-03
2.533618166994e-03
2.669371918058e-03
3.335780224915e-03
2.417052975495e-03
2.301133563289e-03
2.544153619348e-03
2.809569658580e-03
2.280488059570e-03
2.403129281843e-03
2.126768242516e-03
2.337020972949e-03
4.180692697777e-03
2.249003779132e-03
1.959755581014e-03
1.842529391951e-03
1.658290441270e-03
4.057689887828e-03
4.345234894460e-03
4.214494829484e-03
4.512207963410e-03
4.386116896851e-03
1.781237856866e-03
4.515858041588e-03
4.632785065629e-03
3.375865563346e-03
2.914340702826e-03
2.837997481989e-03
2.532048550751e-03
2.378710134929e-03
2.668313152737e-03
3.233044162886e-03
3.411145406702e-03
3.516648249659e-03
3.695606962541e-03
3.809881520442e-03
3.987932871345e-03
3.868387923180e-03
4.160380401702e-03
4.035401995459e-03
4.109927676280e-03
3.929071965477e-03
4.326541573449e-03
4.196853341751e-03
4.486612097014e-03
4.352559495553e-03
4.065464170358e-03
4.216259007439e-03
3.932665926102e-03
2.974206145827e-03
3.176937453123e-03
3.316135238148e-03
3.514584502752e-03
3.655690360847e-03
3.851432524779e-03
3.992906615051e-03
3.810423676568e-03
4.443438443787e-03
1.828572061533e-03
1.806415762240e-03
1.513365747016e-03
1.563989916259e-03
1.243214007741e-03
1.411260727777e-03
1.087408529277e-03
9.280634857496e-04
7.696745497682e-04
7.727047061156e-04
6.380213861808e-04
9.424950275726e-04
3.683920707972e-03
3.721810168106e-03
4.055539867157e-03
3.931687734683e-03
1.545289606018e-03
4.502587431745e-03
4.237803823005e-03
4.054767645798e-03
4.147689587509e-03
1.469037962723e-03
1.381279309045e-03
1.636872751770e-03
4.676612476866e-03
4.548915297300e-03
4.373011447568e-03
1.596671411329e-03
4.457517107573e-03
6.726180917699e-04
4.361759767158e-03
4.647438517847e-03
3.749070434487e-03
4.262666346844e-03
4.139562493484e-03
1.058263721451e-03
1.328795762681e-03
1.257951778391e-03
1.615059101371e-03
1.617776829753e-03
1.784704992927e-03
1.664404533731e-03
1.851897133188e-03
1.923512677117e-03
1.920863832566e-03
1.732826179112e-03
1.789080397445e-03
4.789640175199e-03
4.933105548269e-04
3.623293427982e-03
4.549397453839e-03
4.326717748868e-03
4.840106465985e-03
4.712783082347e-03
4.418649943636e-03
4.585859736983e-03
4.878747721020e-03
4.750919794657e-03
4.456475978691e-03
4.618929314417e-03
4.321775629010e-03
4.485087669046e-03
4.780485262660e-03
4.648645754832e-03
4.352908180169e-03
4.515438133183e-03
4.218119818909e-03
4.376442562231e-03
4.677698654010e-03
1.280455175298e-03
3.975684030661e-03
4.313430537097e-03
2.531248625096e-03
2.795187276442e-03
2.950421176089e-03
3.091354176801e-03
4.540325048563e-03
4.842133621751e-03
1.627886023255e-03
1.806948227217e-03
4.964897247722e-03
4.505647349825e-03
4.219641279942e-03
2.730984817609e-03
2.680252985846e-03
2.508656173216e-03
2.453261305901e-03
2.619408054872e-03
2.295804407583e-03
3.740263927180e-03
4.943332949813e-03
1.736869985241e-03
1.441819622179e-03
4.792252417499e-03
3.639826983595e-03
3.882064491805e-03
3.960472891563e-03
4.161603615821e-03
4.245857029619e-03
4.449138486875e-03
4.538270851724e-03
4.336412104350e-03
4.467009293726e-03
4.637465802825e-03
4.227760771006e-03
3.603493058884e-03
2.015316274690e-03
1.151528373984e-03
1.494680084950e-03
1.401763515938e-03
1.725734234278e-03
4.692766413527e-03
4.744201478353e-03
4.646812231519e-03
2.391216520205e-03
2.541437442855e-03
4.590954612420e-03
4.090617543142e-03
4.159541705089e-03
4.020881279016e-03
1.028169191453e-03
1.414727337198e-03
5.043491496533e-03
1.828932906125e-03
1.917980713017e-03
4.157180774186e-04
1.730461438410e-04
4.691724722002e-03
4.992960999119e-03
3.232526540781e-03
3.376337074583e-03
4.517813292037e-03
1.573664134280e-03
5.136914764881e-03
3.818178697522e-03
3.485662865048e-03
2.929371560799e-03
1.726704283358e-03
1.445214139705e-03
2.001081890038e-03
1.816948000307e-03
1.537558582793e-03
4.841861112859e-03
5.166500773962e-03
4.432736485775e-03
4.128543821065e-03
4.737743923515e-03
1.242267063270e-03
4.872712079514e-03
4.648563616368e-03
4.934717953700e-03
4.841015803806e-03
1.998284811115e-03
2.023831337705e-03
1.929656289699e-03
2.012827717834e-03
3.685637869250e-03
2.160195855781e-03
3.453630867072e-03
3.353268669804e-03
3.189580292168e-03
2.780580474833e-03
2.697012491619e-03
1.850761695031e-03
3.058179809856e-03
3.092459470665e-03
3.782098167745e-03
3.330348654579e-03
5.071602464651e-03
5.237586080772e-03
4.054791370477e-03
3.911736450825e-03
1.227723328770e-03
1.121568548935e-03
3.305144710569e-03
4.722576138818e-03
5.125546474561e-03
5.249094215458e-03
5.084093944170e-03
4.665047890294e-03
1.576387794071e-03
3.131769936580e-03
4.332121020711e-04
3.548502236301e-03
8.886689387002e-04
4.364114879908e-03
4.929747689709e-03
5.074378233997e-03
4.790835636384e-03
3.303647652991e-03
3.622953727387e-03
3.407028331038e-03
3.087385769992e-03
2.928470296600e-03
3.025957624230e-03
2.770242371404e-03
2.146257545189e-03
2.105072283453e-03
5.074226657025e-03
4.945890381019e-03
5.132442016699e-03
5.036778597884e-03
4.913108523956e-03
4.718978319234e-03
1.854189815065e-03
2.451969709865e-03
5.326205974980e-03
3.245806195750e-03
5.032929921038e-03
4.895632072523e-03
8.703516401929e-05
5.025155932237e-04
5.299729360747e-03
1.862195518962e-03
1.925793576571e-03
1.786850721610e-03
5.508894573325e-03
3.317615670200e-03
5.206554443836e-03
2.947814730022e-03
5.436495255461e-03
3.710224019945e-03
2.542778381884e-03
4.340023150483e-03
5.139724345049e-03
5.473155703650e-03
3.856151046115e-03
3.706636097451e-03
3.986363479487e-03
8.597848081306e-04
4.948557720352e-04
5.105588847389e-03
2.215579397184e-03
2.383580716268e-03
1.610091948116e-03
1.853488942060e-03
3.371371645262e-03
3.226095624709e-03
4.460118615317e-03
4.646317835839e-03
4.077799721507e-03
3.673670130341e-03
3.349970931866e-03
3.156166832522e-03
5.356340387661e-03
5.560199060828e-03
2.148566688317e-03
1.947252295954e-03
2.277219304698e-03
5.452662980312e-03
5.357012637058e-03
5.217066698957e-03
7.819578528788e-04
1.028971749725e-03
1.479365826605e-03
1.088843442230e-03
5.358763484459e-03
5.206986646545e-03
5.554350471510e-03
1.646365469631e-03
4.227084436487e-03
4.981659535795e-03
4.824566320775e-03
5.205837116450e-03
4.665431215243e-03
4.979351549170e-03
5.045785100976e-03
6.553725280381e-06
5.354913579491e-03
3.735880701652e-03
0.0
3.596581939605e-03
3.776236102998e-03
3.431628553560e-03
1.322961065373e-03
3.627378963851e-03
3.821605526455e-03
5.613183195734e-04
5.602994573649e-03
5.605292770001e-04
6.792338181858e-04
5.201033617940e-03
5.054577875215e-03
5.350694268135e-03
5.195925285154e-03
4.911596497334e-03
5.072562886383e-03
3.571136890228e-03
5.391533904623e-03
5.225263310295e-03
5.570873285067e-03
2.672019548462e-03
2.112700823482e-03
2.016942320669e-03
1.807045388934e-03
5.367508392991e-03
5.211741918196e-03
4.791087967570e-03
4.504528282397e-03
3.617380192862e-03
3.592243224651e-03
3.871542763848e-03
3.825760515629e-03
4.113486033420e-03
4.067343757730e-03
4.345783660312e-03
5.267440361509e-03
1.658829135304e-03
2.980180790998e-03
5.045745089381e-03
4.837810433997e-03
2.604840179930e-03
2.359528337880e-03
5.236949940379e-03
2.139698474170e-03
5.776025953178e-03
4.548865527323e-06
9.778909536359e-05
2.339238525722e-03
2.860933532174e-03
2.233233218599e-03
2.157897013088e-03
4.004695448910e-03
9.235095768594e-04
1.682665914814e-03
4.384602592843e-03
1.382892764948e-03
4.658101181556e-03
2.105930324669e-03
3.025966663440e-03
1.860371278765e-03
2.156903041045e-03
3.791766830717e-03
3.575521711054e-03
3.414449332742e-03
2.082739350568e-03
2.302944948856e-03
2.030320299130e-03
3.548903922870e-03
4.919586046203e-03
5.037796762254e-03
5.310613898604e-03
5.154282845662e-03
4.869442501820e-03
4.979196796726e-03
5.263482143390e-03
5.097588445123e-03
5.433286767238e-03
5.203085790594e-03
4.911819673152e-03
5.013424306316e-03
5.289013913456e-03
4.727439554445e-03
5.236156713520e-03
2.555895745055e-03
9.111497954271e-05
4.210174297477e-04
3.201712461661e-03
5.730004135783e-03
5.767445976811e-03
1.691075707631e-03
5.643473628579e-03
3.519780408461e-03
1.047073323882e-03
5.592957634279e-03
4.751520745493e-03
4.579435651060e-03
4.463201836768e-03
5.793236110746e-03
4.123046406902e-03
5.509305537426e-03
3.389446893060e-03
3.279327038173e-03
2.961278145953e-03
4.801619878836e-03
5.436694213567e-03
5.157649565966e-03
5.160321964187e-03
4.861485784401e-03
5.448713258893e-03
5.717599457513e-03
5.706213826985e-03
1.828494135708e-03
1.709398695910e-03
1.898258451700e-03
1.622333472901e-03
1.412743391040e-03
1.316736111381e-03
1.628168335130e-03
1.039665837842e-03
4.929832743955e-03
5.492129088288e-03
3.625564248661e-03
3.432597322909e-03
3.134856267973e-03
2.952066020253e-03
3.078747520708e-03
3.351373813983e-03
2.815770384213e-03
4.041389319165e-03
5.510043080626e-03
3.303884447530e-03
2.928688293770e-03
3.336341398281e-03
3.593836274312e-03
3.598511107039e-03
3.869249033601e-03
3.623805167776e-03
3.516608453604e-03
3.658527646077e-03
3.515347475486e-03
3.794985028764e-03
3.639781273069e-03
3.373627075467e-03
3.921733030934e-03
3.752559113767e-03
3.333440693931e-03
1.541531548535e-04
5.940250931269e-04
7.027142990941e-04
1.021409890230e-03
8.359819815989e-04
1.303920167999e-03
1.039423496534e-03
3.284076278483e-04
3.019271284436e-04
6.566057884129e-04
3.288717913001e-04
5.940028616348e-04
1.062033452019e-03
1.367334253023e-03
5.652286702243e-03
2.938936405259e-03
2.805289880450e-03
2.499233211098e-03
2.662705054473e-03
3.052456379495e-03
2.341669267002e-03
2.236323217213e-03
3.229285700949e-04
4.419598349488e-04
4.410447408450e-04
7.207625795544e-04
7.074768685298e-04
4.420400412776e-04
4.449633113940e-04
3.145644272533e-04
4.504548672274e-04
7.268015370500e-04
3.062409538729e-04
4.745527215494e-03
4.902505264739e-03
5.544916367284e-03
3.368924595429e-03
2.544811655954e-04
5.780998861492e-03
5.813842834379e-03
5.817013326087e-03
5.233971751005e-03
5.365637462079e-03
5.788240472877e-03
2.014050555547e-03
5.434538857935e-03
5.267458791713e-03
1.311421764019e-03
2.008026884127e-03
4.362324178154e-03
3.910057017267e-03
4.933262515921e-03
4.079022426720e-03
4.641099795521e-03
5.158355521769e-03
1.213464950072e-03
4.185417172818e-03
4.076798602367e-03
4.811798339392e-03
2.086149546152e-03
3.238993663622e-03
1.348867022610e-03
5.359250132040e-03
3.285416912686e-03
3.046769336548e-03
2.677719312106e-03
2.168475210699e-03
1.957305737071e-03
2.768223087164e-03
3.036664388310e-03
4.286179880856e-03
4.975421168353e-03
3.166773246265e-04
4.414552831620e-03
3.582806630633e-03
4.292263749295e-03
4.187531334710e-03
1.624964030413e-03
4.913094015127e-03
5.399859365631e-03
3.948537402346e-03
1.019982226970e-03
3.882948642930e-03
5.011342776406e-03
4.799927772923e-03
1.909455734444e-03
2.789026983488e-03
3.096861197051e-03
3.026441214717e-03
5.391810110936e-03
3.115333052867e-03
4.488935570888e-03
3.471918703045e-03
2.042934957486e-03
4.758450757247e-03
2.730164700611e-03
5.205251802628e-03
4.359423513210e-03
1.928746000249e-03
5.001431347950e-03
2.931441338209e-03
4.390043822392e-03
3.117148399214e-03
3.803735016467e-03
4.266483966727e-03
3.482072113493e-03
4.216350577802e-03
4.589726999369e-03
7.822158450211e-04
2.336975079915e-03
4.252864040516e-03
4.830810690924e-03
5.492998307562e-03
2.853919931406e-03
4.620197000946e-03
5.283300374483e-03
3.195345026289e-03
1.407849422888e-03
1.052568637253e-03
1.231938885888e-03
2.888387059379e-03
3.468984859371e-03
5.520066455693e-03
4.776767016044e-03
4.191097730844e-03
7.054263323161e-04
3.137270481220e-03
4.930209733183e-03
2.967745864271e-03
4.518076980286e-03
3.471719766141e-03
5.320909655121e-03
2.513659337608e-03
5.087932046227e-03
4.157539429139e-03
1.929448282595e-03
3.328255837959e-03
5.415880323612e-03
4.493880815661e-03
3.756679585458e-03
2.829619919497e-03
2.715238429679e-03
3.628276273171e-03
3.993174405771e-03
5.804322562982e-03
4.644362204700e-03
4.291233033703e-03
3.502523749532e-03
3.813462889229e-03
7.047390220056e-04
2.825859966298e-03
3.651715310585e-03
1.384942781952e-03
3.032571676708e-03
5.114951343620e-03
3.797843583975e-03
1.739058177563e-03
3.939088055833e-03
2.408697712716e-03
4.407302233334e-03
4.073717321279e-03
4.269608694399e-03
7.894202949830e-04
3.833002126981e-03
5.075427847675e-03
2.404246341971e-03
3.233663163957e-03
4.694223929722e-03
2.107126776239e-03
3.545482769992e-03
4.553232214609e-03
3.920507140127e-03
3.187539066147e-03
3.865534957540e-03
2.217505343363e-03
1.917452006600e-03
1.657786857477e-03
1.956380160446e-03
4.746672213180e-03
1.005389459169e-03
4.623386601130e-03
1.307883538802e-03
1.891532021104e-03
4.345633367675e-03
4.169109331877e-03
2.143128441899e-03
1.729669733719e-03
2.136474112095e-03
3.495395175694e-03
2.347008504077e-03
2.321698774103e-03
5.562109209316e-03
2.479278600157e-03
5.832033053261e-03
5.683459550606e-03
3.569571471478e-03
1.841669118824e-03
0.0
1.939425135395e-03
2.198379986357e-03
4.544915456455e-03
3.572687871249e-03
2.077081277084e-03
5.482725273702e-03
5.548817509372e-03
4.594253848124e-03
4.650854355195e-03
4.026711817750e-03
5.298348689818e-03
3.310673635212e-03
5.319704039765e-04
4.366888493405e-03
1.596020396402e-03
1.727925572495e-03
1.537504339033e-03
2.155926239816e-03
1.066640011348e-03
1.470469770676e-03
5.133441966827e-03
3.576035110635e-03
4.538549050418e-03
1.190734353883e-03
5.563426082931e-03
5.226029974003e-03
5.618784336637e-03
4.858869215134e-03
1.131768423013e-03
3.817527287724e-03
5.388671225133e-03
4.831755994392e-03
5.661150035348e-03
3.527768805689e-03
5.594510040717e-03
8.645247776374e-04
5.592056671628e-03
4.830647828208e-03
3.948871847594e-03
3.795468355754e-03
5.483498521481e-03
5.518494078473e-03
7.078378622743e-04
4.578727725803e-03
2.665021533502e-03
8.704557035288e-05
5.306855478618e-03
5.101857700586e-03
5.457161495010e-03
7.154962728763e-04
4.367291898862e-04
5.308036467256e-03
5.475077044311e-03
1.415797628064e-03
5.866481278788e-03
1.720779943565e-04
3.266292359391e-03
4.330017662913e-04
5.682371966829e-03
5.607182569852e-03
2.919687531898e-03
3.339776257796e-03
1.951427265437e-03
5.094079203513e-03
8.720869757284e-04
5.646101319162e-03
5.274827266557e-03
5.610655463052e-03
5.543108792546e-03
1.443335536964e-05
5.340000167234e-03
4.934198621273e-03
3.315096198721e-03
5.545224744200e-03
2.394333441960e-03
1.003430899199e-03
5.853061777030e-03
3.539454610573e-04
3.294611847679e-03
5.738597030996e-03
9.205396441291e-04
3.785517905279e-03
5.505285211453e-03
3.560630679607e-03
5.121626185149e-03
1.319457347623e-03
0.0
4.321439572445e-03
5.262500811899e-03
5.642111831980e-03
4.116674015646e-03
7.838175614556e-04
5.331973850864e-03
3.136604846599e-03
5.194131730829e-03
4.931303994474e-03
1.346263548866e-04
3.813324024854e-03
4.130724803800e-04
5.442551602023e-03
3.274124271133e-03
1.197459272462e-03
1.058092070359e-03
1.410613407395e-03
1.408302020406e-03
1.679286936992e-03
1.670388510905e-03
1.968639986938e-03
2.024811344556e-03
2.272195221506e-03
2.288799502470e-03
2.577527492663e-03
2.642045162662e-03
2.890176481776e-03
2.907269203429e-03

SCALARS node_materi_plasti_phimob float
LOOKUP_TABLE default
1.940050606483e+01
1.401475445140e+01
2.054810285224e+01
1.992117613433e+01
-2.852521339889e+01
-3.488972969337e+00
4.428859107588e+00
8.976336432218e+00
1.163452488440e+01
1.343985535939e+01
1.488628047022e+01
1.600725942386e+01
1.688532777657e+01
1.761971472793e+01
1.829166786987e+01
1.874862203793e+01
1.908229453227e+01
1.945483197209e+01
1.974606599285e+01
1.997320597213e+01
2.017077333770e+01
2.034282811107e+01
2.047169232210e+01
1.993840050583e+01
1.993406331856e+01
1.993847832675e+01
1.994364637870e+01
1.993600405694e+01
1.994711993757e+01
1.994769371803e+01
1.996254501756e+01
1.997816192328e+01
1.999428971966e+01
1.999683351062e+01
2.002504139013e+01
2.004369679923e+01
2.007699745196e+01
2.009467279278e+01
2.012978432673e+01
2.016427085053e+01
2.020672201234e+01
2.026623093018e+01
2.032311959749e+01
2.038530410209e+01
2.042813362450e+01
2.050887571020e+01
2.057168707683e+01
2.062903501690e+01
2.067029894529e+01
2.073270243354e+01
2.074986162751e+01
2.078673633758e+01
2.078219394109e+01
2.080859638144e+01
2.081214368416e+01
2.079829543445e+01
2.078818600479e+01
2.077284181986e+01
2.075425016924e+01
2.073399852517e+01
2.071809966085e+01
2.069495391464e+01
2.068418890802e+01
2.066230979918e+01
2.062974004627e+01
2.060723612702e+01
2.061434805318e+01
2.057757393533e+01
2.058466529321e+01
2.057456956723e+01
2.056701028585e+01
2.056779920510e+01
1.521419141867e+01
1.618959395798e+01
1.695892607957e+01
1.759010296879e+01
1.814253758006e+01
1.860728039237e+01
1.902533046763e+01
1.939313060427e+01
1.972287484365e+01
1.570933845254e+01
1.365145506124e+01
2.684594624460e+01
1.791966077874e+01
-1.186893746287e-01
-1.810223773203e+01
-6.310732706350e+00
1.739922938990e+00
6.561759480927e+00
9.716174685679e+00
1.192483822035e+01
-5.511870673549e+01
-3.352025645286e+01
-9.404621849959e+00
1.211961666739e+00
6.718137352603e+00
1.008558713883e+01
1.230954350881e+01
1.379539171070e+01
1.385828994664e+01
1.385817897716e+01
1.382509068451e+01
1.397217125344e+01
1.379867172087e+01
1.374661139811e+01
1.373638533751e+01
1.373996739299e+01
1.370364759673e+01
1.365512412050e+01
1.362019260717e+01
1.358874569695e+01
1.359062431334e+01
8.918286770427e+00
6.831327983481e+00
7.250605455603e+00
8.737144572914e+00
8.580651137570e+00
-9.614642353686e+00
-4.156691751626e+01
-5.715489384054e+00
4.127783018417e+01
-9.332677012694e+00
-5.966068290322e+01
-5.810300097175e+01
-7.783060208428e+00
4.113763606440e+01
4.136972705285e+01
4.142072230536e+01
8.999999999681e+01
8.999999999681e+01
8.999999999681e+01
1.450171604330e+01
-7.942210757366e+00
-5.155739025909e+01
-6.605720003217e+00
4.087878760121e+01
4.143953464849e+01
-6.370040193516e+00
-5.480826214033e+01
-5.494204304090e+01
-5.509477045923e+01
-5.521075780578e+01
-5.526880481198e+01
-5.529268683370e+01
-5.531406270059e+01
-5.533269092573e+01
-5.534968425000e+01
-5.536568183577e+01
-5.538273001147e+01
-5.540533612426e+01
-5.544231016120e+01
-5.550720473147e+01
-5.560686790749e+01
-5.573018904920e+01
-5.614908710221e+01
-5.649958795547e+01
-3.491079973290e+01
-3.655979722587e+01
-3.658632905384e+01
-3.650812394968e+01
-3.642697197385e+01
-3.635502793225e+01
-3.628819816330e+01
-3.622136429971e+01
-3.615108210358e+01
-3.607593239015e+01
-3.599558348517e+01
-3.591071736876e+01
-3.582026458717e+01
-3.572601123036e+01
-3.561371414214e+01
-3.549463457680e+01
-3.537243407563e+01
-3.527344017773e+01
-1.099002326684e+01
-1.115044240206e+01
-1.079859591095e+01
-3.093922202857e+01
-3.140435123029e+01
-9.710072551316e+00
-8.235552893415e+00
-9.352253887116e+00
-9.518477522442e+00
-9.532340906171e+00
-9.576867953063e+00
-9.607112088721e+00
-9.659695928711e+00
-9.712148405366e+00
-9.766379564171e+00
-9.818908061951e+00
-9.872716683594e+00
-9.924851970222e+00
-9.973431579530e+00
-1.001853995823e+01
-1.006137416462e+01
-1.010372424270e+01
-1.014591498313e+01
-1.018581892776e+01
-1.019955407264e+01
-9.975955300698e+00
-9.293020697493e+00
9.462911725665e-01
9.093096627080e-01
9.103225909840e-01
9.204316789650e-01
9.356551809381e-01
9.519394121355e-01
9.669726632665e-01
9.788247813651e-01
9.897266859921e-01
1.001305180099e+00
1.011468743532e+00
1.016545534535e+00
1.014256901985e+00
1.014283713425e+00
1.012987526227e+00
1.017096736665e+00
1.000763159125e+00
1.024786773895e+00
1.477944332191e+00
4.573356932847e-01
5.926102829413e+00
6.631764324760e+00
6.426606672505e+00
6.415609387067e+00
6.429597127384e+00
6.446634661362e+00
6.478660603461e+00
6.502902596568e+00
6.520736965841e+00
6.532748716791e+00
6.545891370028e+00
6.559715963177e+00
6.565878184770e+00
6.568475108886e+00
6.571024735833e+00
6.574207412180e+00
6.583583876870e+00
6.632212746702e+00
6.746946678495e+00
1.003153339124e+01
1.000666504872e+01
9.993924793547e+00
9.986046755443e+00
9.971147623841e+00
9.959081480818e+00
9.945024828870e+00
9.923504886251e+00
9.893078534231e+00
9.873699548667e+00
9.848572984106e+00
9.814305183961e+00
9.782264376254e+00
9.740113274035e+00
9.733661905973e+00
9.866001906165e+00
9.356918306900e+00
1.168689561003e+01
1.206924661023e+01
1.200117054736e+01
1.202160467180e+01
1.205957436755e+01
1.209707853500e+01
1.212067773312e+01
1.215019266308e+01
1.217936432482e+01
1.220438887148e+01
1.222372436881e+01
1.224146310260e+01
1.226365418077e+01
1.226981367567e+01
1.230691728062e+01
1.236444591974e+01
3.126640953357e+01
2.211249915172e+01
1.358142757027e+01
-1.362732631952e+01
-9.712977595333e+00
-8.384697351821e-01
4.902516904663e+00
8.574889234641e+00
1.109289248813e+01
1.294188927479e+01
2.062600590277e+01
2.103683335881e+01
-1.397484811107e+01
1.249889808501e+01
2.087940685196e+01
5.546325518076e-02
1.799697027148e+01
2.094836702180e+01
5.079016665875e+00
2.059894542567e+01
1.093347900133e+01
2.065907734726e+01
-1.435734262412e+01
2.018041103351e+01
1.421092520625e+01
1.427685073383e+01
1.926328260669e+01
1.999176796718e+01
1.987949397256e+01
1.979973563911e+01
1.977231481744e+01
1.983930109769e+01
1.474849504311e+01
1.486323629264e+01
1.501561276475e+01
1.787597279822e+01
2.056596748046e+01
1.140878779384e+01
1.194116431550e+01
2.007991917135e+01
1.497526953538e+01
6.988509740149e+00
1.987165437330e+01
2.079383576763e+01
2.038273552806e+01
2.105582087623e+01
2.098789574291e+01
-1.074178884466e+01
1.476130130730e+01
2.080008259533e+01
1.882160176770e+01
-3.876532299109e+01
1.648416083473e+01
1.984386376157e+01
2.081938755409e+00
1.316815721326e+01
8.437997766557e+00
1.276232070415e+01
2.870175576383e+01
1.664237992115e+01
2.054934195183e+01
3.555970326704e+01
1.954436187095e+01
1.475216552256e+01
1.522619389002e+01
1.566853571687e+01
1.614461967715e+01
1.654044373937e+01
1.690058773725e+01
1.654338763613e+01
1.724694010355e+01
1.693623441600e+01
1.723529341365e+01
1.759056949282e+01
1.732355951641e+01
1.792812978392e+01
1.770563322721e+01
1.705946348560e+01
1.749325027314e+01
1.679784150770e+01
1.729390953055e+01
1.791267557081e+01
1.776839737252e+01
1.711583714843e+01
1.765148156426e+01
1.696821883300e+01
1.757068226184e+01
1.686223783343e+01
1.753546542566e+01
1.812883292666e+01
1.836941992220e+01
1.778243550580e+01
1.894707827740e+01
1.844567426263e+01
1.971292818562e+01
1.997690816366e+01
2.074069142173e+01
2.065087484878e+01
2.162715119279e+01
2.173921765656e+01
2.260664920436e+01
2.294619498537e+01
2.363766169703e+01
2.318038006818e+01
2.402175334263e+01
2.465836132998e+01
2.479595930527e+01
2.415496039826e+01
2.469517278565e+01
2.409195623874e+01
2.442201989941e+01
2.505522372175e+01
2.455748072286e+01
2.403642930713e+01
2.399205698048e+01
2.443874199774e+01
2.370956811723e+01
2.341261306426e+01
2.302152246669e+01
2.316005629828e+01
2.240733175160e+01
2.240474092192e+01
2.177047301577e+01
2.156192159124e+01
2.095679318812e+01
2.124987675330e+01
2.048959040552e+01
2.083052553386e+01
1.997601952789e+01
1.961336958100e+01
1.885746399231e+01
1.864459685296e+01
2.081591872384e+01
1.764694425758e+01
1.779521483414e+01
1.762243898265e+01
1.853397840465e+01
1.639442225641e+01
1.657840225546e+01
1.514444426005e+01
2.190063212869e+01
1.831295855741e+01
1.554371851556e+01
1.399253815542e+01
1.332108660133e+01
1.197789111896e+01
1.691528487254e+01
1.756736372322e+01
1.726191526858e+01
1.787841875045e+01
1.761377772892e+01
1.286456084051e+01
1.815935786118e+01
1.813322397191e+01
1.631893033635e+01
1.705887566847e+01
2.362566102034e+01
1.678042467113e+01
1.591473478868e+01
1.700862871217e+01
2.142040594608e+01
2.104471578699e+01
2.149845449690e+01
2.116297636930e+01
2.150722822802e+01
2.120941626387e+01
2.088349401365e+01
2.095803819975e+01
2.065576469375e+01
2.146385667846e+01
2.176679887834e+01
2.075038740274e+01
2.047474252592e+01
2.058333353186e+01
2.033590463279e+01
2.015886005470e+01
2.005734986362e+01
1.981403752921e+01
2.358693134878e+01
2.318447475891e+01
2.315819233205e+01
2.280924027870e+01
2.278381947641e+01
2.247985704741e+01
2.244617335041e+01
2.266989149180e+01
1.825955088353e+01
2.558206138108e+01
2.544158180177e+01
2.654417616004e+01
2.639059992271e+01
2.769715255542e+01
2.748007017979e+01
2.890286346107e+01
2.867526553863e+01
2.963843726274e+01
2.893109237030e+01
2.964883391399e+01
2.839958447800e+01
1.885807631616e+01
2.241543028774e+01
2.214097748672e+01
2.200603534320e+01
1.094108408131e+01
2.023528791986e+01
2.164406970108e+01
2.193811501503e+01
2.233657363070e+01
1.047926487872e+01
2.839008282513e+01
2.664752410689e+01
1.817130362149e+01
1.793029673771e+01
2.174767705535e+01
1.161406531109e+01
2.097829184214e+01
3.020810029884e+01
1.999101683188e+01
2.017256111207e+01
2.049421512412e+01
2.179153121980e+01
2.160405351604e+01
2.768933015008e+01
2.668986066820e+01
2.671975752382e+01
2.444421660523e+01
2.476935325710e+01
2.247617763652e+01
2.092622754218e+01
1.913475202854e+01
2.079000107495e+01
1.780331602196e+01
1.446693581320e+01
1.402305112393e+01
2.036610146990e+01
3.004221222236e+01
1.628898046896e+01
2.149227360242e+01
2.212851250946e+01
1.844732631499e+01
1.822861287811e+01
1.768216990979e+01
1.800597021490e+01
1.851125576042e+01
1.830482108070e+01
1.777374597347e+01
1.808750862133e+01
1.752418908387e+01
1.785897181488e+01
1.837691373127e+01
1.816746022045e+01
1.762080590422e+01
1.794590077813e+01
1.736411285636e+01
1.770333906932e+01
1.824303003121e+01
8.832587491187e+00
2.249296084857e+01
2.217096511479e+01
1.632574468587e+01
1.722759641610e+01
1.786854700612e+01
1.798353426186e+01
1.801529353553e+01
1.852101898657e+01
2.706956130979e+01
2.507842375612e+01
1.866222716207e+01
1.996318993960e+01
1.973098637981e+01
1.780713987951e+01
1.613115872712e+01
1.698364342542e+01
1.489373131628e+01
1.471374855756e+01
1.590152205920e+01
2.210521560689e+01
1.864673907622e+01
1.258106242439e+01
9.735059805817e+00
2.015373662719e+01
2.282821873906e+01
1.862758580735e+01
1.927029512567e+01
1.905346020132e+01
1.961296096561e+01
1.941746116060e+01
1.990332033053e+01
2.016151680214e+01
2.145419506308e+01
2.034693105457e+01
1.742529645120e+01
2.223949052981e+01
1.950729252720e+01
6.965573335038e+00
9.969252294054e+00
1.015917676743e+01
1.255810603821e+01
2.153746959336e+01
1.974192223621e+01
1.938581366533e+01
1.308037767887e+01
1.330455109122e+01
2.157662054935e+01
1.696424013544e+01
1.716085179023e+01
1.686885360018e+01
6.229117918914e+00
1.029266741672e+01
1.877328548857e+01
2.454445991688e+01
2.264605371383e+01
3.013995838754e+01
2.899612000409e+01
1.829249318597e+01
1.875599023695e+01
1.851212170071e+01
1.858899507152e+01
2.177647035041e+01
1.046177583247e+01
1.895230232278e+01
2.258054510527e+01
2.289493171163e+01
1.739295803911e+01
2.463254536625e+01
2.627912789889e+01
2.161233342018e+01
1.397697770357e+01
1.133868393488e+01
2.152342714833e+01
1.895610657954e+01
2.060686341124e+01
2.050464499058e+01
2.067166360081e+01
5.821487971670e+00
2.131790770808e+01
1.997891875355e+01
1.969681432558e+01
1.944076238835e+01
2.238071872888e+01
2.010774650531e+01
1.986534705165e+01
1.701705842988e+01
1.616890703313e+01
2.029398338986e+01
1.595733030993e+01
1.535395256080e+01
1.492720570904e+01
1.482850930605e+01
1.363972092761e+01
2.491701923918e+01
2.307926753585e+01
1.849269925148e+01
1.990936645587e+01
2.189221961160e+01
1.883191537137e+01
1.907317371507e+01
1.698316175773e+01
1.666383018071e+01
7.368980810667e+00
5.317757755268e+00
2.050109565050e+01
2.126510367039e+01
1.890428694748e+01
1.910032977213e+01
1.887027110896e+01
2.174015477468e+01
2.631166200382e+01
2.342890714608e+01
2.887237417692e+01
2.019072221829e+01
1.581525689916e+00
1.843521734582e+01
2.015478911485e+01
2.029489213470e+01
2.130681148859e+01
1.472486741200e+01
2.087442004996e+01
2.146352149129e+01
1.420643581856e+01
1.363854853970e+01
1.449042208311e+01
1.303906947613e+01
2.054642628475e+01
1.866009566231e+01
2.005159696198e+01
2.048725799354e+01
1.975020826535e+01
1.951875451876e+01
2.135247486243e+01
2.161587059281e+01
1.333116038357e+01
1.174535455753e+01
1.918204317578e+01
1.473531934111e+01
2.111244702320e+01
2.106327871366e+01
2.544685608199e+01
2.570574527829e+01
1.916958865793e+01
1.596950139665e+01
1.269472970936e+01
1.896853208005e+01
2.040750831116e+01
1.496303050677e+01
2.029094898543e+01
1.504506956612e+01
1.933952830314e+01
2.139354587313e+01
1.897349495836e+01
2.202643835484e+01
1.896042960739e+01
1.938702899432e+01
1.643433808324e+01
1.606488638551e+01
1.674177144694e+01
2.986173848009e+01
2.916802241201e+01
1.889640977196e+01
1.513213270361e+01
1.573244392467e+01
1.109864820569e+01
1.407887147782e+01
1.905145290098e+01
1.910962427842e+01
1.877547558555e+01
1.888480991319e+01
1.862714091858e+01
2.257534446754e+01
2.284745710839e+01
2.322819210223e+01
1.923693722961e+01
1.948551577908e+01
2.208736017936e+01
2.321453404254e+01
1.976707504677e+01
1.935244133420e+01
2.041250190280e+01
2.043304908447e+01
-2.184743018582e+00
2.706108060293e+00
2.329383210297e+01
2.573872253820e+01
1.928749798308e+01
1.908050967707e+01
1.951838271370e+01
1.214311192445e+01
2.093385827264e+01
2.145099849156e+01
2.167946682251e+01
2.122393709454e+01
2.116171464876e+01
2.108349000564e+01
2.071144753344e+01
2.166032958383e+01
1.926093583577e+01
1.617590778969e+01
1.684207691417e+01
1.579660162073e+01
1.632153924593e+01
1.531441944780e+01
9.799487791987e+00
1.579585211876e+01
1.629680553387e+01
-1.085418945919e+01
1.955728089375e+01
-8.578313904142e+00
-2.925141814619e+00
2.093954152172e+01
2.089513395229e+01
2.081938124707e+01
2.077038070915e+01
2.079000125180e+01
2.066847898809e+01
1.565075499868e+01
2.066512726598e+01
2.057507694253e+01
2.062941382121e+01
1.199538820591e+01
1.459001465937e+01
1.080234119027e+01
6.455873684299e+00
1.987605977183e+01
1.960882172036e+01
2.001360267108e+01
1.979557235032e+01
1.589250557436e+01
1.586332379680e+01
1.662089064954e+01
1.653792017880e+01
1.719248193957e+01
1.709961867897e+01
1.767950881839e+01
2.058060176238e+01
1.417018354798e+01
1.347832591395e+01
2.135664150427e+01
2.161247895271e+01
1.237186565408e+01
1.010831452839e+01
2.109257118052e+01
2.212508101710e+01
1.977136742121e+01
1.532065335455e+01
2.308806083479e+01
2.043070281936e+01
1.405401540029e+01
1.320399906764e+01
1.082862886493e+01
2.230772080473e+01
2.794663051563e-02
2.120977655892e+01
1.772839441866e+01
1.978165553278e+01
1.987194503653e+01
2.338823284561e+01
1.597239700855e+01
2.257431137678e+01
1.781118474385e+01
1.661684238010e+01
1.571871008542e+01
1.525109962762e+01
2.420854637283e+01
1.115193083047e+01
7.498785884958e+00
1.654747201076e+01
1.863312998826e+01
1.886076358226e+01
1.927442829039e+01
1.908203523245e+01
1.863534329977e+01
1.887568003532e+01
1.930165128649e+01
1.912105934307e+01
1.958351111789e+01
1.935847885366e+01
1.893403403809e+01
1.918275987492e+01
1.954652806052e+01
1.874786902292e+01
2.111809700854e+01
2.054502556049e+01
2.684485628560e+01
2.774519328116e+01
1.612182445986e+01
1.995367428548e+01
1.988845746958e+01
2.576092728780e+01
2.026011585963e+01
1.577020821624e+01
2.958668177998e+01
2.048371145575e+01
1.838413380599e+01
1.812391466205e+01
1.784589622419e+01
1.986118874476e+01
1.705422074516e+01
2.085917185288e+01
2.272262622158e+01
2.250124221821e+01
2.280973337628e+01
1.866665790629e+01
2.104919749461e+01
2.135836113819e+01
2.134366181471e+01
2.167821289092e+01
2.102524541699e+01
2.006837701907e+01
2.013552195083e+01
2.302270950964e+01
2.457414509469e+01
2.430799612584e+01
2.549108866386e+01
2.611635689716e+01
2.671493330990e+01
2.587139695347e+01
2.786518546555e+01
1.927277250067e+01
2.095621388261e+01
2.185270378745e+01
2.224233338022e+01
2.234547627673e+01
1.849256120189e+01
1.920844432026e+01
1.969958462158e+01
1.775821609032e+01
1.994248744795e+01
2.091425950824e+01
2.318761796779e+01
1.936735542785e+01
1.475608284048e+01
1.564100555383e+01
1.564082279612e+01
1.643996156700e+01
1.573600871444e+01
1.904263169800e+01
1.906805309897e+01
1.868049051239e+01
1.911373416538e+01
1.876743857335e+01
1.829974464548e+01
1.916445597669e+01
1.886299573076e+01
1.479425617658e+01
9.769511249960e+00
1.222374067160e+01
7.711662020707e-01
1.211945720274e+01
1.988811066874e+01
1.839308591481e+01
2.343403890110e+01
2.036797976967e+01
-2.796734093558e+01
-6.773086794315e+00
-1.136811900285e+01
-1.142923710847e+01
3.328095662293e+00
8.407209206130e+00
2.053934566648e+01
1.727817905652e+01
1.695159691263e+01
1.607827217797e+01
1.659811324705e+01
1.759483846468e+01
1.551388946731e+01
1.511302381450e+01
3.632793480215e+01
-9.534431059224e+00
-1.130640237826e+01
1.440929655649e+00
1.131068606371e+00
-9.534603606889e+00
-9.874944498149e+00
-1.268217449322e+01
-1.060631300937e+01
7.026633567725e-01
-1.368430702656e+01
1.838665446252e+01
1.864103555543e+01
2.084408337292e+01
1.497818639807e+01
-3.895621112417e+01
1.974414322932e+01
1.979561757730e+01
1.979840068688e+01
2.025815995008e+01
2.033939495677e+01
1.975776651865e+01
1.471981668321e+01
1.946204020192e+01
1.912764531915e+01
2.865211769966e+01
1.648100837936e+01
1.974218550207e+01
2.030270215395e+01
2.032023212313e+01
1.975839403317e+01
2.045535177187e+01
2.134517039241e+01
8.636648148939e+00
1.725905984874e+01
1.707548452402e+01
1.845104690495e+01
1.459472698596e+01
1.814809909036e+01
9.099909404609e+00
2.018542668652e+01
1.563266198389e+01
2.187174846275e+01
1.766611178875e+01
1.626510868932e+01
1.694656141822e+01
1.938636883063e+01
2.014012173199e+01
2.120164124220e+01
1.871431376138e+01
-3.443619571905e+01
2.137995923719e+01
2.073875129296e+01
1.743135743054e+01
2.217851760827e+01
1.573343191066e+01
1.857908949269e+01
1.930568934748e+01
1.664075496889e+01
4.606815879576e+00
1.655063292390e+01
2.129585922088e+01
1.840445359860e+01
1.362993559542e+01
2.388606417602e+01
1.681412336997e+01
1.350578306892e+01
1.928901526366e+01
2.153760704390e+01
2.201868330386e+01
2.302933006766e+01
1.430530533171e+01
2.095521136522e+01
2.350595701650e+01
1.901363673662e+01
1.903454192492e+01
2.542270793242e+01
1.870856658221e+01
2.285538974434e+01
2.188198652687e+01
1.532439322325e+01
1.814732545520e+01
1.807721364999e+01
1.934805866666e+01
1.951285090049e+01
2.115184210288e+01
2.873178036776e+01
1.844794778745e+01
1.733706008458e+01
2.015930382689e+01
1.939583428696e+01
1.590391740909e+01
2.079090591289e+01
1.913297922625e+01
1.988353972155e+01
1.056344083911e+01
2.804352498310e+01
2.739864588012e+01
2.233730401358e+01
2.024640117982e+01
1.952273990816e+01
2.064040315894e+01
2.202194341208e+01
2.398959762699e+01
1.412289983283e+01
2.053023111654e+01
2.358543405677e+01
2.188962970751e+01
1.840267139426e+01
2.036008506661e+01
1.109224149367e+01
2.047035169579e+01
2.227673399714e+01
2.393567024173e+01
1.498693651556e+01
2.054241033823e+01
2.196639838506e+01
1.967399161671e+01
2.359063719978e+01
1.189017575370e+01
2.005198747617e+01
1.821430056058e+01
1.985244858392e+01
2.185110032805e+01
1.754508597137e+01
1.956829461316e+01
2.176338811522e+01
8.422517400956e-01
1.277257366759e+01
1.948751185618e+01
2.673236889048e+01
2.312521693635e+01
2.115320021364e+01
1.944916629511e+01
2.581328057225e+01
1.944343588009e+01
9.758908689641e+00
1.785735894493e+01
1.945460321207e+01
1.868759501149e+01
7.283306184209e-01
2.036439884856e+01
2.018683089846e+01
1.921940215110e+01
2.267022640174e+01
1.840008150048e+01
6.844240276679e+00
2.246824919728e+01
1.909240082919e+01
2.091463648645e+01
2.211794275155e+01
2.225370196735e+01
9.098650320675e+00
1.433278448827e+01
1.183073082793e+01
2.516219694423e+01
1.917309380014e+01
6.402605749397e+00
1.845857143854e+01
6.974298004038e+00
2.493610226835e+01
2.123993621616e+01
1.731737019446e+01
2.401383689678e+01
1.267712479673e+01
2.324196553989e+01
2.192996072528e+01
2.232490336032e+01
2.118545690997e+01
1.949412138233e+01
2.048910118622e+01
1.979801871287e+01
2.050108708061e+01
1.578369437331e+01
2.392909108373e+00
1.089698552394e+01
7.890181877968e+00
1.811598699110e+01
1.857917301488e+01
1.581168416961e+01
1.627444187429e+01
1.972909706771e+01
2.070245690895e+01
1.814144003883e+01
2.181969060137e+01
2.132313129862e+01
1.918918588636e+01
1.485025974814e+01
-1.285472588380e+01
1.961654829675e+01
-2.370321974950e+00
1.003832924312e+01
1.708442901176e+01
1.479508126055e+01
5.882243765118e+00
4.982133976333e+00
2.134468906214e+01
1.566642966852e+01
2.092797762348e+01
1.714740884806e+01
1.951040948375e+01
2.089288629868e+01
2.072715288073e+01
2.091789170820e+01
2.267855276105e+01
1.630331159405e+01
2.004948862122e+01
1.851114220117e+01
2.062578250396e+01
1.548969387466e+01
1.954363596703e+01
2.689967076816e+01
1.955085501008e+01
1.902151434500e+01
1.678205738106e+01
1.625580191328e+01
2.042701061497e+01
1.964075815708e+01
2.639634187235e+01
1.809834569032e+01
1.669484824699e+01
2.015929334934e+01
2.096564269876e+01
1.939844174092e+01
2.050681552221e+01
1.448982619524e+00
-1.448459772578e+01
2.110286587946e+01
1.988025634525e+01
2.352887098348e+01
1.986855862687e+01
2.612206125752e+01
1.467006851073e+01
-1.276839009028e+01
2.058554995532e+01
1.955156922994e+01
1.729347412488e+01
1.476623968982e+01
1.383818010629e+01
2.035174969409e+01
-1.276310565882e+00
1.958950537421e+01
2.122110683681e+01
1.961634671912e+01
2.094667663141e+01
1.832159286760e+01
2.075772452679e+01
2.159439289274e+01
1.487517907419e+01
1.960184187020e+01
1.573133659396e+01
5.411162600071e+00
1.983096114388e+01
1.674944283686e+01
1.486121844819e+01
2.052173236827e+01
5.202158335857e+00
1.641331244451e+01
1.983402741329e+01
1.853669519089e+01
1.896518568489e+01
1.199838927332e+01
1.097421094412e+01
1.763555033847e+01
2.101484300882e+01
1.961554422350e+01
1.717833438740e+01
2.756746510985e+01
1.967010714203e+01
1.778053093094e+01
1.993178233691e+01
2.158555699784e+01
2.479728974477e+01
1.893504060287e+01
-1.458469250221e+01
2.074617763753e+01
1.804300996172e+01
1.315426673809e+00
-5.129919937551e+01
-1.473375555674e+01
-1.709704801232e+01
-2.609582158280e+00
-2.997634338767e+00
4.034346360258e+00
4.661100456224e+00
8.087658495494e+00
8.583876641241e+00
1.076803237146e+01
1.141748153539e+01
1.271057295403e+01
1.319787641448e+01

SCALARS node_materi_stress_average_a_sig float
LOOKUP_TABLE default
-3.832936617624e+00
-8.760832686681e+01
-2.413018282270e+02
-2.020599590896e+02
-1.073806166346e+01
-2.281983930178e+01
-3.481026992696e+01
-4.816667308729e+01
-6.101885157182e+01
-7.372418930832e+01
-8.630454103613e+01
-9.879726932541e+01
-1.112470142791e+02
-1.237330655989e+02
-1.364737596316e+02
-1.489418584120e+02
-1.602569094324e+02
-1.726068169945e+02
-1.852839005701e+02
-1.975709092854e+02
-2.099228522884e+02
-2.223513026903e+02
-2.342740504021e+02
-2.027367510125e+02
-2.020637200634e+02
-2.022741401011e+02
-2.023112597554e+02
-2.020528193341e+02
-2.025814430776e+02
-2.030044971844e+02
-2.029545446293e+02
-2.037426303511e+02
-2.040178537071e+02
-2.041006694448e+02
-2.049404318549e+02
-2.059573675149e+02
-2.063347361298e+02
-2.071002890646e+02
-2.075456233192e+02
-2.086111358435e+02
-2.105123996561e+02
-2.121623607363e+02
-2.139587352955e+02
-2.156332034289e+02
-2.175200036117e+02
-2.194783027277e+02
-2.215678877868e+02
-2.238954004177e+02
-2.262972146570e+02
-2.285134580302e+02
-2.307605211898e+02
-2.326342450167e+02
-2.349943787722e+02
-2.365722281261e+02
-2.375301292334e+02
-2.389605482335e+02
-2.402156946165e+02
-2.412106601280e+02
-2.419353303891e+02
-2.424640197940e+02
-2.426007140551e+02
-2.425939092083e+02
-2.423422147249e+02
-2.424936602861e+02
-2.429670627745e+02
-2.430285156623e+02
-2.411497053161e+02
-2.423478468347e+02
-2.415847556789e+02
-2.417633174588e+02
-2.420886861008e+02
-2.419452420071e+02
-9.996433566158e+01
-1.120371669916e+02
-1.240547036893e+02
-1.357748644946e+02
-1.477173782836e+02
-1.597729576150e+02
-1.715393414392e+02
-1.831797504263e+02
-1.952144264088e+02
-5.509351710858e+01
-9.123892104213e+01
-2.856369683939e+01
-2.455857057634e+01
-2.013468043868e+01
-1.879667954601e+01
-3.061262394341e+01
-4.297691340661e+01
-5.498933159115e+01
-6.696234262043e+01
-7.884865164747e+01
-6.957706888485e+00
-1.459338185880e+01
-2.665462650777e+01
-3.877644299113e+01
-5.093120991350e+01
-6.307768582329e+01
-7.516767252538e+01
-8.609768350046e+01
-8.690561885878e+01
-8.694652612581e+01
-8.688703673305e+01
-8.865415772780e+01
-8.728394511354e+01
-8.736910604044e+01
-8.761915423346e+01
-8.805237403523e+01
-8.824026858344e+01
-8.854242145212e+01
-8.882885184104e+01
-8.933327832777e+01
-9.000907474323e+01
-7.647663331430e+01
-8.620088640492e+01
-8.768667241011e+01
-7.931637656345e+01
-4.907080009426e+01
-1.993867450770e+01
-9.726898728333e+00
-6.641054637355e+00
-5.233225611443e+00
-4.803677715307e+00
-4.618310338289e+00
-4.627471505157e+00
-4.387479166332e+00
-3.896205278049e+00
-3.811854826253e+00
-3.777247437353e+00
-3.674428845534e+00
-3.423223731627e+00
-3.159857968629e+00
-8.191359812461e+00
-7.771126780025e+00
-6.322385924858e+00
-5.278192564618e+00
-4.934386389404e+00
-4.833347602659e+00
-4.949614847239e+00
-5.148659729145e+00
-5.415286718082e+00
-5.705177854597e+00
-6.007000292871e+00
-6.303831157494e+00
-6.588514723761e+00
-6.854859689773e+00
-7.100268063588e+00
-7.322918723201e+00
-7.521851080434e+00
-7.696368200596e+00
-7.845497375428e+00
-7.967344521197e+00
-8.058046237327e+00
-8.111305325557e+00
-8.116225255117e+00
-7.871885538529e+00
-6.823380840040e+00
-1.452619585573e+01
-1.434708881416e+01
-1.427748654764e+01
-1.422665021982e+01
-1.416444207485e+01
-1.408470513076e+01
-1.398685835961e+01
-1.387184466444e+01
-1.374072950714e+01
-1.359492611339e+01
-1.343654335023e+01
-1.326877226792e+01
-1.309684346427e+01
-1.292660606135e+01
-1.276933279411e+01
-1.263670901321e+01
-1.255763771835e+01
-1.254800011017e+01
-1.268272807605e+01
-1.296659568053e+01
-1.362540296445e+01
-1.558031242115e+01
-1.450192749829e+01
-2.764410593005e+01
-2.905231963733e+01
-2.738712778463e+01
-2.674252049400e+01
-2.640691917380e+01
-2.615720623678e+01
-2.603890167575e+01
-2.597612775833e+01
-2.596894126523e+01
-2.599120684895e+01
-2.603652098741e+01
-2.609370205215e+01
-2.615674554154e+01
-2.622060795516e+01
-2.628164014344e+01
-2.633777959852e+01
-2.638737604114e+01
-2.643017911917e+01
-2.646935193860e+01
-2.651406457720e+01
-2.658125204786e+01
-2.663476675184e+01
-3.876426168543e+01
-3.873342621825e+01
-3.871059468309e+01
-3.869578505824e+01
-3.868591696190e+01
-3.867780973879e+01
-3.867066268338e+01
-3.866626435301e+01
-3.866956433939e+01
-3.868211071565e+01
-3.871084913105e+01
-3.876253595361e+01
-3.884417605819e+01
-3.897908262936e+01
-3.916488570223e+01
-3.945172375554e+01
-3.979938679321e+01
-4.038752488163e+01
-4.187826375624e+01
-4.040106307789e+01
-5.278745295716e+01
-5.435601056672e+01
-5.301802719307e+01
-5.244426409741e+01
-5.209897833385e+01
-5.178344006076e+01
-5.157342415463e+01
-5.140519160780e+01
-5.127269774371e+01
-5.117376840283e+01
-5.110152013141e+01
-5.104439124959e+01
-5.100260970249e+01
-5.096743409416e+01
-5.094349067461e+01
-5.092658884605e+01
-5.092385827050e+01
-5.092756185583e+01
-5.093301766877e+01
-6.308463716404e+01
-6.308926873469e+01
-6.310800179935e+01
-6.314619553525e+01
-6.319920741161e+01
-6.326090758866e+01
-6.334806752891e+01
-6.343697846851e+01
-6.354848555922e+01
-6.370318389783e+01
-6.389496863228e+01
-6.412758808942e+01
-6.440944918461e+01
-6.472628498187e+01
-6.526145827567e+01
-6.657868422066e+01
-6.499738455529e+01
-7.696447101899e+01
-7.847846622187e+01
-7.731573722625e+01
-7.691738827737e+01
-7.659458958444e+01
-7.632546811772e+01
-7.605867016051e+01
-7.586295920755e+01
-7.578247672942e+01
-7.561374322654e+01
-7.550136516627e+01
-7.541911262306e+01
-7.534946134461e+01
-7.526628531452e+01
-7.529427537092e+01
-7.527897282575e+01
-3.531033970372e+01
-2.627670619958e+01
-2.372297861525e+01
-1.700635627641e+01
-2.651939174530e+01
-3.838499827930e+01
-5.037177713259e+01
-6.235945715612e+01
-7.426070441995e+01
-8.614945711809e+01
-3.121763380424e+01
-2.338651714957e+02
-1.128787016551e+01
-6.208108001858e+01
-2.370018848948e+02
-3.115286969358e+01
-1.306014513747e+02
-2.274529498495e+02
-4.988707779108e+01
-2.199553078787e+02
-7.338234223694e+01
-2.379712333364e+02
-8.708441109608e+00
-2.118560269997e+02
-9.689576637360e+01
-8.064857566184e+01
-1.644957864342e+02
-2.065451395134e+02
-2.022289406167e+02
-1.978229083119e+02
-1.976666448790e+02
-2.002997431360e+02
-1.010642053156e+02
-9.937909226463e+01
-9.953658915399e+01
-1.418545874058e+02
-2.368147116155e+02
-7.468441957301e+01
-8.806868565988e+00
-2.033185288141e+02
-9.764812529078e+01
-4.142797627805e+01
-2.021311696713e+02
-2.246689241736e+02
-2.157141668132e+02
-2.300465401734e+02
-2.360755307036e+02
-2.217861568019e+01
-9.968573619343e+01
-2.353057057187e+02
-1.653270967782e+02
-1.001328368283e+01
-1.051141047631e+02
-1.992495467170e+02
-4.080483939964e+01
-2.931874850205e+01
-6.154092413901e+01
-8.501902542282e+01
-3.701387595228e+01
-1.190638297444e+02
-2.385549380399e+02
-8.223142511212e+00
-1.885065735044e+02
-1.024418738251e+02
-1.080812161432e+02
-1.133360175141e+02
-1.199790612402e+02
-1.257719361371e+02
-1.317833285711e+02
-1.261415626215e+02
-1.379675467687e+02
-1.323183426031e+02
-1.377297237469e+02
-1.441911425727e+02
-1.386008468556e+02
-1.504798328349e+02
-1.449807707480e+02
-1.331175158401e+02
-1.395741024161e+02
-1.276810286500e+02
-1.342411128434e+02
-1.461152531734e+02
-1.408754302791e+02
-1.289483981343e+02
-1.356759318515e+02
-1.237480039338e+02
-1.305878267999e+02
-1.186343653670e+02
-1.256035868097e+02
-1.374583805903e+02
-1.325423666332e+02
-1.207441515202e+02
-1.277498743295e+02
-1.160500829680e+02
-1.230886548926e+02
-1.346735281598e+02
-1.300198558799e+02
-1.185544480175e+02
-1.254778412416e+02
-1.141866130238e+02
-1.210678603189e+02
-1.099879749285e+02
-1.167277614308e+02
-1.276870942906e+02
-1.231867087309e+02
-1.124708799894e+02
-1.186583382724e+02
-1.293935975074e+02
-1.245655760718e+02
-1.353759105938e+02
-1.302542986311e+02
-1.196735314251e+02
-1.250167619495e+02
-1.357698920693e+02
-1.302086771909e+02
-1.196030581668e+02
-1.244934649444e+02
-1.353428891956e+02
-1.293712134877e+02
-1.185609323336e+02
-1.232084405237e+02
-1.343257404585e+02
-1.279324197083e+02
-1.168009169575e+02
-1.213603744170e+02
-1.327835982175e+02
-1.260481160273e+02
-1.377108094032e+02
-1.145060603963e+02
-1.191284739786e+02
-1.074161669716e+02
-1.120688943500e+02
-1.415021809514e+02
-1.001910164916e+02
-9.582494222004e+01
-1.049021857188e+02
-1.169440440323e+02
-9.284232784028e+01
-9.764160021879e+01
-8.541098747877e+01
-1.027345880751e+02
-1.527373073349e+02
-9.031717084424e+01
-7.792632874334e+01
-7.306761772509e+01
-6.544377770547e+01
-1.317912810171e+02
-1.435946718035e+02
-1.373051301839e+02
-1.494470119079e+02
-1.434658443042e+02
-7.042359573164e+01
-1.561467526567e+02
-1.554786687382e+02
-1.169665061568e+02
-1.088904407076e+02
-1.404236897998e+02
-1.025938616787e+02
-9.537205925634e+01
-1.076694520891e+02
-1.443969150818e+02
-1.494860521533e+02
-1.561533212009e+02
-1.613595514087e+02
-1.680328373116e+02
-1.733292180236e+02
-1.665696181231e+02
-1.786117132385e+02
-1.717872324975e+02
-1.800234863758e+02
-1.745972651327e+02
-1.838815565835e+02
-1.770101435166e+02
-1.891465266446e+02
-1.822378679761e+02
-1.700823470698e+02
-1.752798569684e+02
-1.631562766650e+02
-1.464785469711e+02
-1.517095792767e+02
-1.578322926068e+02
-1.632199615614e+02
-1.694141988112e+02
-1.749235382022e+02
-1.811774654621e+02
-1.754919879604e+02
-1.568069537444e+02
-1.082526104819e+02
-1.020604556160e+02
-9.825174912102e+01
-9.205600822098e+01
-8.875915645681e+01
-8.255123758063e+01
-7.993695286920e+01
-8.544645569241e+01
-7.762236930905e+01
-8.196042395602e+01
-7.505111757372e+01
-7.803477320820e+01
-1.443154050200e+02
-1.685442651620e+02
-1.803795605904e+02
-1.737749524276e+02
-6.057009293947e+01
-1.874784801450e+02
-1.866407998660e+02
-1.810406343795e+02
-1.873570386979e+02
-5.794357555891e+01
-7.385707636616e+01
-7.563096468273e+01
-1.553600414841e+02
-1.494427068441e+02
-1.932002901022e+02
-6.301878240696e+01
-1.907198222405e+02
-7.141760324337e+01
-1.805074245765e+02
-1.927157326826e+02
-1.597642908698e+02
-1.857826352153e+02
-1.789524108954e+02
-8.602187955779e+01
-8.101157522308e+01
-7.341165538941e+01
-7.563529666170e+01
-8.424796379025e+01
-7.790732054764e+01
-6.901087456046e+01
-7.076355692689e+01
-8.082573280631e+01
-7.345656395957e+01
-6.287268547600e+01
-6.552875296114e+01
-1.996478806737e+02
-6.944915389148e+01
-1.212014722332e+02
-1.987862716900e+02
-1.930073254580e+02
-1.613340115139e+02
-1.554918635356e+02
-1.435196218963e+02
-1.496940775195e+02
-1.616195879175e+02
-1.558857762294e+02
-1.439178106698e+02
-1.501682355543e+02
-1.381689598231e+02
-1.444808784637e+02
-1.564472438853e+02
-1.508319528676e+02
-1.388359490954e+02
-1.452293249132e+02
-1.331955330209e+02
-1.396098930476e+02
-1.516565859042e+02
-5.083488175567e+01
-1.814861135691e+02
-1.935439337163e+02
-1.008512763166e+02
-1.126741059992e+02
-1.198736206540e+02
-1.251709887450e+02
-1.460118242462e+02
-1.580645866134e+02
-6.689093016297e+01
-6.797543073995e+01
-1.672102553570e+02
-1.857878991258e+02
-1.735721003962e+02
-1.043138657556e+02
-9.690785435362e+01
-9.244213338800e+01
-8.452526212325e+01
-8.939489219833e+01
-8.010072556828e+01
-1.690182747546e+02
-1.627773385695e+02
-6.841891023717e+01
-5.597465021208e+01
-1.979846815006e+02
-1.696830626904e+02
-1.492824208100e+02
-1.561088128644e+02
-1.611404993292e+02
-1.679612074310e+02
-1.730212640990e+02
-1.798042803419e+02
-1.747950286041e+02
-1.911055459686e+02
-1.866450827372e+02
-1.338604025920e+02
-1.619109806427e+02
-8.429240894764e+01
-4.545808322517e+01
-5.361469944269e+01
-5.550677091816e+01
-6.818184328639e+01
-2.054481886732e+02
-1.848569281768e+02
-1.779931101418e+02
-7.684689496191e+01
-8.196624554413e+01
-1.979009450602e+02
-1.314954947156e+02
-1.319226491807e+02
-1.260782951667e+02
-4.184925116290e+01
-5.156092618294e+01
-1.677949457511e+02
-7.785597224038e+01
-6.986356478499e+01
-6.639608219641e+01
-6.622092323454e+01
-1.523412598583e+02
-1.643048696980e+02
-1.321501330883e+02
-1.373752618765e+02
-1.997263634732e+02
-5.717524854045e+01
-1.700689657619e+02
-1.755096121455e+02
-1.637751961413e+02
-1.179827836119e+02
-5.892461069621e+01
-5.927148980997e+01
-9.129020777516e+01
-6.908376993799e+01
-6.077394281003e+01
-2.120245108509e+02
-1.734358692616e+02
-1.816615299384e+02
-1.697220909313e+02
-1.936937477862e+02
-4.482878349789e+01
-2.111993001996e+02
-1.911006961117e+02
-1.893089299845e+02
-1.829934014858e+02
-8.048817417850e+01
-7.254859028729e+01
-6.136549756642e+01
-6.406806663096e+01
-1.204156480155e+02
-8.379971412605e+01
-1.156879132208e+02
-1.092030091376e+02
-1.036802973185e+02
-9.434398026818e+01
-8.723528210704e+01
-9.539212515507e+01
-1.453954429574e+02
-1.269952449486e+02
-1.580163230967e+02
-1.509286259155e+02
-1.682871317663e+02
-1.746578646487e+02
-1.267815025949e+02
-1.211253241996e+02
-4.789802504878e+01
-4.325042141843e+01
-1.427226349520e+02
-2.042572834126e+02
-1.730074875128e+02
-1.788568128037e+02
-1.730645586681e+02
-2.060469948748e+02
-1.040236706241e+02
-1.523673797959e+02
-6.686584146141e+01
-1.462770030141e+02
-3.512143465974e+01
-1.579034334844e+02
-2.033504843853e+02
-2.101273926377e+02
-2.031515708645e+02
-1.026176622428e+02
-1.530489443017e+02
-1.482456625864e+02
-9.724345550505e+01
-9.165554022923e+01
-9.818460771199e+01
-8.609751309957e+01
-9.512440846345e+01
-8.800849572533e+01
-1.975294827162e+02
-1.984053737099e+02
-1.944277220038e+02
-1.884039792950e+02
-2.100568084323e+02
-2.044618111690e+02
-7.302256353249e+01
-7.482257949664e+01
-1.796209716173e+02
-1.028253347388e+02
-2.164031935649e+02
-2.097165162360e+02
-6.643476870367e+01
-6.214098346345e+01
-1.764185853625e+02
-5.215916589588e+01
-5.470183849341e+01
-5.046777280460e+01
-2.280917145212e+02
-9.728231066716e+01
-2.155969556380e+02
-9.956939652824e+01
-1.822444911937e+02
-1.598678772973e+02
-9.975062889683e+01
-1.938244233411e+02
-1.700039340602e+02
-1.829870216565e+02
-1.198382639620e+02
-1.136023097302e+02
-1.253493329269e+02
-6.630992846708e+01
-6.055874186586e+01
-1.690652171330e+02
-8.811632166524e+01
-9.451774741220e+01
-6.063767474073e+01
-7.261239528356e+01
-1.391233430370e+02
-1.340202666000e+02
-1.645719537198e+02
-1.697123718231e+02
-1.543190366309e+02
-1.694573135250e+02
-1.577924878128e+02
-1.523275851915e+02
-1.798000653053e+02
-1.875034458724e+02
-1.018098841469e+02
-9.778210088393e+01
-9.904578080549e+01
-1.852142756358e+02
-2.221544943994e+02
-2.168221926877e+02
-3.037621163200e+01
-3.863537947694e+01
-5.023111717085e+01
-5.169049362705e+01
-1.844102145749e+02
-1.791139585787e+02
-1.912401738918e+02
-6.489614414327e+01
-1.766601769411e+02
-2.179041159688e+02
-2.117832257916e+02
-2.254519027366e+02
-1.961311750559e+02
-2.079030003908e+02
-2.055314801250e+02
-6.968297783770e+01
-1.787986732054e+02
-1.140950744292e+02
-7.172865788895e+01
-1.085229455629e+02
-1.153496582555e+02
-1.021787148745e+02
-5.250683158061e+01
-1.113770178141e+02
-1.190952924480e+02
-2.351472420777e+01
-1.910540301823e+02
-2.285444659776e+01
-2.760340765560e+01
-2.219774959957e+02
-2.150155241024e+02
-2.268821651769e+02
-2.198571978864e+02
-2.080840491621e+02
-2.135554685343e+02
-1.073831576826e+02
-2.270503695355e+02
-2.191518133485e+02
-2.325796626747e+02
-7.972251762803e+01
-6.734591994392e+01
-5.857018862966e+01
-4.469456347379e+01
-2.013763765520e+02
-1.927487974618e+02
-1.968348297726e+02
-1.844926748520e+02
-1.089204152491e+02
-1.081927004944e+02
-1.191727993092e+02
-1.176191552232e+02
-1.286212431238e+02
-1.269352302022e+02
-1.381392694328e+02
-2.104140718438e+02
-4.040409031604e+01
-9.101125217133e+01
-2.165761507873e+02
-2.100108671392e+02
-8.030016693230e+01
-6.804382609127e+01
-2.249698659895e+02
-9.139571700795e+01
-1.981242771802e+02
-6.115902073598e+01
-6.142138624135e+01
-9.522612795936e+01
-9.271877059137e+01
-7.165305775830e+01
-6.436646322254e+01
-1.814701089408e+02
-3.482413834005e+01
-4.999274391420e+01
-1.396165083548e+02
-4.051261978631e+01
-1.909338405212e+02
-9.893252827579e+01
-1.065598111696e+02
-5.962623769094e+01
-7.610866601394e+01
-1.267166757427e+02
-1.142510274355e+02
-1.085864936503e+02
-1.059363574275e+02
-6.929394511428e+01
-5.501154820724e+01
-1.222738882069e+02
-1.673191560818e+02
-1.733099483824e+02
-1.846647708894e+02
-1.793854583635e+02
-1.677171780892e+02
-1.738780211046e+02
-1.854279950557e+02
-1.804917300016e+02
-1.939848589741e+02
-1.867125094822e+02
-1.745730379454e+02
-1.806022025290e+02
-1.918615913543e+02
-1.687613800040e+02
-2.220574296962e+02
-1.069332955477e+02
-6.527672894260e+01
-5.451351107727e+01
-1.117239154594e+02
-2.048188156022e+02
-2.028168585685e+02
-8.526671213344e+01
-2.136052592256e+02
-1.147997883500e+02
-7.256408499935e+01
-2.178255260599e+02
-1.615694017473e+02
-1.557320458705e+02
-1.496255129524e+02
-2.018115943515e+02
-1.313367635934e+02
-2.264122072028e+02
-1.568706131212e+02
-1.502661761485e+02
-1.388490353523e+02
-1.682092604974e+02
-2.325276928027e+02
-2.229059640879e+02
-2.239747691915e+02
-2.123050967776e+02
-2.349193554870e+02
-2.088178222245e+02
-2.107099948383e+02
-8.764858540962e+01
-9.387322039740e+01
-1.038189763476e+02
-9.952890653989e+01
-8.998244182321e+01
-9.508985994650e+01
-1.046668338873e+02
-9.040680731015e+01
-1.814977698408e+02
-2.367367712569e+02
-1.626833462842e+02
-1.572230271912e+02
-1.456721575931e+02
-1.219441612655e+02
-1.289704862900e+02
-1.409653320188e+02
-1.148299812572e+02
-1.629147544271e+02
-2.370700248671e+02
-1.581207443609e+02
-1.239771208987e+02
-1.003723603738e+02
-1.114279577065e+02
-1.122496207658e+02
-1.235984390546e+02
-1.120111267270e+02
-1.442781269971e+02
-1.494732210075e+02
-1.426624601673e+02
-1.547063012075e+02
-1.476656395297e+02
-1.364848489562e+02
-1.597543364608e+02
-1.519106173762e+02
-9.944143808371e+01
-3.818101097826e+01
-4.124051679967e+01
-3.224394280374e+01
-4.698678880690e+01
-5.412428244064e+01
-5.947945178905e+01
-6.278052892804e+01
-5.364098714027e+01
-1.619843488191e+01
-2.742480619586e+01
-1.282868615413e+01
-2.415168681362e+01
-3.926812268495e+01
-5.184073285160e+01
-2.350713141838e+02
-1.174130834732e+02
-1.114588128243e+02
-9.954263704462e+01
-1.061053089344e+02
-1.223094908840e+02
-9.285396813340e+01
-8.845501602546e+01
-8.693811030160e+00
-1.875318426436e+01
-1.769923439665e+01
-2.953703833735e+01
-2.948775918134e+01
-1.909154237555e+01
-1.924420236747e+01
-8.827485473825e+00
-1.936280270740e+01
-3.043579952561e+01
-8.665953941147e+00
-1.538740327447e+02
-1.603461948059e+02
-2.367906268097e+02
-1.001521584242e+02
-1.073840682690e+01
-1.957911372162e+02
-1.983659700884e+02
-1.983363335065e+02
-2.158290898916e+02
-2.219825688198e+02
-1.958899166552e+02
-8.065915132145e+01
-1.907699516638e+02
-1.754103750115e+02
-6.653201812829e+01
-8.054400314734e+01
-1.789112792336e+02
-1.649258030217e+02
-2.048169346698e+02
-1.683476809744e+02
-1.944088641067e+02
-2.241255524635e+02
-4.848170413907e+01
-1.324167031530e+02
-1.275581798573e+02
-1.572074602887e+02
-8.290632457317e+01
-1.309130387295e+02
-5.282655097410e+01
-2.073198936261e+02
-1.102567224735e+02
-1.393339308649e+02
-1.098105504811e+02
-8.828690089042e+01
-7.684961469266e+01
-1.114647317904e+02
-1.308992616858e+02
-1.853863588961e+02
-1.635917268752e+02
-1.073682921267e+01
-1.921118159884e+02
-1.546090551849e+02
-1.376753033234e+02
-1.867792249227e+02
-6.142293860947e+01
-1.621023846717e+02
-1.841045444701e+02
-1.251237295943e+02
-4.008555671971e+01
-1.200999195551e+02
-2.177771982320e+02
-1.613112335416e+02
-7.554664452125e+01
-1.411729574424e+02
-1.136688772880e+02
-9.093801101907e+01
-1.805395076915e+02
-1.367981791853e+02
-1.993935733109e+02
-1.638152938773e+02
-8.084541185884e+01
-2.028843484999e+02
-1.341617863238e+02
-1.739695232560e+02
-1.661966488916e+02
-1.141005714028e+02
-1.672960328138e+02
-1.404628571028e+02
-1.923660315983e+02
-1.048961757252e+02
-1.424576684575e+02
-1.513908171782e+02
-1.394398398962e+02
-1.721225846745e+02
-1.975257373227e+02
-7.184647628790e+01
-8.803015551239e+01
-1.374066982704e+02
-1.913347352312e+02
-1.856674396206e+02
-1.016280913846e+02
-1.960084776399e+02
-1.787499496472e+02
-1.358902795458e+02
-5.565284508943e+01
-6.020017790870e+01
-9.442330457421e+01
-1.322044391276e+02
-1.478117772070e+02
-1.917822691276e+02
-2.012844580726e+02
-1.874508164664e+02
-3.349611679567e+01
-9.678632346833e+01
-2.065817282946e+02
-1.468136321199e+02
-1.986084213301e+02
-1.403355145160e+02
-2.090378707693e+02
-7.388618784750e+01
-2.120199694923e+02
-1.876182290613e+02
-8.817682161671e+01
-9.770515609149e+01
-2.259062488084e+02
-1.999121711139e+02
-1.511455657559e+02
-1.411446857542e+02
-7.918419568694e+01
-1.529277607983e+02
-1.475524103260e+02
-2.012347232239e+02
-2.054761737791e+02
-1.437063208155e+02
-1.460349651881e+02
-1.668305820767e+02
-2.977536842759e+01
-8.538223869106e+01
-1.511454300879e+02
-9.968954020878e+01
-1.464453430157e+02
-2.149857906372e+02
-1.563158838230e+02
-1.094764283496e+02
-1.615113727616e+02
-6.746098881543e+01
-1.499218216956e+02
-1.667218894675e+02
-1.594181776109e+02
-3.179932504054e+01
-1.579306883627e+02
-2.093033236857e+02
-1.030902133287e+02
-1.517644952419e+02
-1.619520541220e+02
-5.562402126021e+01
-1.633567438809e+02
-1.712793700158e+02
-1.647383404174e+02
-1.435293039867e+02
-1.752695916365e+02
-6.254473351521e+01
-7.631490630294e+01
-6.427388712941e+01
-1.146440239269e+02
-1.764289276877e+02
-4.021628353079e+01
-1.624808368941e+02
-4.799052810992e+01
-1.093972987016e+02
-1.840461124905e+02
-1.306991952959e+02
-1.139960424505e+02
-6.824690104660e+01
-1.080723201181e+02
-1.550466089663e+02
-1.123999219246e+02
-1.059137273810e+02
-1.870929781155e+02
-1.101311647004e+02
-1.979840488363e+02
-2.356834318188e+02
-1.068444795773e+02
-4.298846032601e+01
-7.790670316390e+01
-5.292647981750e+01
-9.182616159793e+01
-1.631818878303e+02
-1.073617112382e+02
-8.428191499545e+01
-1.983866571754e+02
-2.224405945841e+02
-1.480693051150e+02
-2.044794285899e+02
-1.718635120335e+02
-1.761649292211e+02
-9.717973442730e+01
-2.268038180428e+01
-1.783678782355e+02
-3.209507126064e+01
-4.197415845811e+01
-4.012790839231e+01
-8.497109832493e+01
-4.104768776202e+01
-2.868539868375e+01
-2.209984921784e+02
-1.089076741537e+02
-1.887230197982e+02
-2.973638641476e+01
-1.899861281354e+02
-2.142928143404e+02
-2.377550497556e+02
-2.009832924913e+02
-4.196787801003e+01
-1.206986336981e+02
-2.052201454861e+02
-1.576230709441e+02
-2.383545666530e+02
-1.081456694984e+02
-1.884064165691e+02
-6.765275099168e+01
-1.884233743256e+02
-1.750708287762e+02
-1.223094714486e+02
-1.212544727463e+02
-2.277810455212e+02
-1.954334171403e+02
-4.581056444637e+01
-1.475553965774e+02
-1.063942331550e+02
-6.438814241142e+01
-2.270314817243e+02
-1.862127104090e+02
-2.271212808302e+02
-2.904568682939e+01
-1.915440962590e+01
-2.284673149406e+02
-2.025724882548e+02
-6.796664920614e+01
-2.011868696784e+02
-5.043086686543e+01
-9.623984600206e+01
-1.864252847336e+01
-2.378650957416e+02
-1.897739808203e+02
-1.169840849276e+02
-1.020689245063e+02
-7.680336406915e+01
-2.014648474189e+02
-3.312035014383e+01
-1.904739974531e+02
-2.280981627456e+02
-1.943099516856e+02
-2.323652615995e+02
-7.048595026966e+01
-2.156652482040e+02
-2.156410603755e+02
-9.686254873948e+01
-1.943201597251e+02
-9.498528256388e+01
-4.027513325068e+01
-1.991773416760e+02
-6.961757596891e+00
-9.595424100255e+01
-2.382770679253e+02
-3.797545971591e+01
-1.157231990172e+02
-2.016057177266e+02
-1.434192477888e+02
-1.694089015014e+02
-5.189027172557e+01
-7.727099392029e+01
-1.370200271525e+02
-2.182242213755e+02
-1.935928666443e+02
-1.288474912101e+02
-5.378450772194e+01
-1.953644869078e+02
-1.264711015473e+02
-1.988419062253e+02
-2.140013541316e+02
-4.582560894792e+01
-1.541266911203e+02
-1.751915076536e+01
-2.298007623595e+02
-1.316526493507e+02
-8.951213897916e+00
-8.296888954981e+00
-2.252180642686e+01
-2.094848631143e+01
-3.532087568234e+01
-3.236671695059e+01
-4.760191986322e+01
-4.518500029905e+01
-5.986659875495e+01
-5.667058404537e+01
-7.188185288651e+01
-6.950455176724e+01
-8.384197101836e+01
-8.087164840052e+01

SCALARS node_materi_stress_size_dev_sd_sig float
LOOKUP_TABLE default
5.752611255785e+00
6.114485020356e+01
1.825957289515e+02
1.525768717405e+02
1.242585483087e+01
2.150875404489e+01
2.913627442273e+01
3.821482145220e+01
4.719377585457e+01
5.616327647753e+01
6.537944743576e+01
7.478438342610e+01
8.426924158699e+01
9.396537625255e+01
1.039569722878e+02
1.133623343631e+02
1.218615975586e+02
1.313491956509e+02
1.409251688209e+02
1.501214978204e+02
1.593499891000e+02
1.686127105939e+02
1.773894292130e+02
1.531492490512e+02
1.527453411093e+02
1.529016814127e+02
1.529791843177e+02
1.527260182079e+02
1.531211390578e+02
1.533015989304e+02
1.534370055737e+02
1.539992620186e+02
1.543043134057e+02
1.543076813376e+02
1.550416710309e+02
1.557035945212e+02
1.562404885150e+02
1.567468125098e+02
1.573295163972e+02
1.582207840536e+02
1.596339275490e+02
1.611663343137e+02
1.627663245015e+02
1.642494579311e+02
1.657439452432e+02
1.674815350070e+02
1.692250536557e+02
1.711098829738e+02
1.729692551551e+02
1.748140868519e+02
1.764507152590e+02
1.779340048879e+02
1.795369212346e+02
1.807654089034e+02
1.814433150168e+02
1.823559720666e+02
1.831670096033e+02
1.837700729821e+02
1.841686127439e+02
1.844227819510e+02
1.844301342663e+02
1.842994781953e+02
1.840673223095e+02
1.840523717621e+02
1.842001920458e+02
1.841191759507e+02
1.828615796118e+02
1.834898496727e+02
1.830055899782e+02
1.830727596006e+02
1.832544595422e+02
1.831605695835e+02
7.028399970424e+01
7.966896927934e+01
8.895035034801e+01
9.816193221163e+01
1.076827154237e+02
1.172434310486e+02
1.269063614652e+02
1.365787900777e+02
1.465449340150e+02
4.471260856580e+01
5.999631175182e+01
4.154332323184e+01
3.457855747253e+01
2.332057705376e+01
1.299032173074e+01
1.727781792849e+01
2.471643040745e+01
3.292504788641e+01
4.153197379615e+01
5.038667569563e+01
3.417589611292e+00
7.121453692476e+00
1.579395289783e+01
2.472108045478e+01
3.365875941429e+01
4.263553977989e+01
5.157437910244e+01
5.980761903412e+01
6.028253268152e+01
6.028676214143e+01
6.009859692153e+01
6.120364104146e+01
6.005039759497e+01
5.979818473857e+01
5.980020181027e+01
5.991669114035e+01
5.976223625894e+01
5.956954658214e+01
5.945003652924e+01
5.938521878844e+01
5.951868992729e+01
3.622732507206e+01
3.316139797599e+01
3.325379685959e+01
3.358012447135e+01
3.292908629584e+01
1.981866322785e+01
5.915737977439e+00
3.492294175090e+00
3.931882508255e+00
4.262505026332e+00
4.506543768077e+00
5.041129391909e+00
5.025060815932e+00
4.747140320299e+00
5.087333190892e+00
5.471052698946e+00
5.661496824753e+00
5.493798626385e+00
5.059446922816e+00
9.437437606901e+00
5.501494187428e+00
5.295338203664e+00
5.695864145560e+00
6.007201820927e+00
6.055403681468e+00
5.899720235441e+00
5.629314112237e+00
5.297466396399e+00
4.949016016930e+00
4.611557735406e+00
4.307035290332e+00
4.048167250406e+00
3.840652007149e+00
3.684001559982e+00
3.574027452880e+00
3.503969070472e+00
3.465490885119e+00
3.449760530864e+00
3.448116794978e+00
3.452397981683e+00
3.455387900746e+00
3.450450066466e+00
3.355506233197e+00
3.387323517761e+00
7.041741581419e+00
7.051746889847e+00
7.079732936064e+00
7.128663224872e+00
7.186747891763e+00
7.255230169091e+00
7.336542441937e+00
7.432951477559e+00
7.546428862804e+00
7.678022682800e+00
7.827707474629e+00
7.993789988641e+00
8.174181632997e+00
8.363413836394e+00
8.552263967690e+00
8.720787560043e+00
8.853028346660e+00
8.912576092901e+00
8.891925123098e+00
8.736562149274e+00
8.565410288474e+00
9.009002403324e+00
8.128733698789e+00
1.507106419555e+01
1.665129910453e+01
1.622683659258e+01
1.630536629967e+01
1.643290995897e+01
1.649372928637e+01
1.651532417172e+01
1.648850657747e+01
1.643832175507e+01
1.637369255998e+01
1.630069264948e+01
1.622091467311e+01
1.614066201501e+01
1.606419708303e+01
1.599291082442e+01
1.592634129972e+01
1.586365251212e+01
1.580527197095e+01
1.575222694965e+01
1.571319220615e+01
1.571148435430e+01
1.576572743474e+01
2.467293395914e+01
2.462538465107e+01
2.461854875104e+01
2.463646895429e+01
2.466211162639e+01
2.468945910079e+01
2.471454628052e+01
2.473322311823e+01
2.474853323528e+01
2.476324513110e+01
2.477175408016e+01
2.476602056185e+01
2.473977955005e+01
2.470745843933e+01
2.466152839275e+01
2.460862047000e+01
2.450265981607e+01
2.442889381588e+01
2.484948276946e+01
2.308409387329e+01
3.153886735548e+01
3.338614709673e+01
3.300933958159e+01
3.302000104775e+01
3.307922039879e+01
3.314651208123e+01
3.324498715441e+01
3.332024143172e+01
3.337712976475e+01
3.341645192584e+01
3.345736870747e+01
3.349919558402e+01
3.351965611459e+01
3.353095891372e+01
3.354139513481e+01
3.355191707270e+01
3.357144111930e+01
3.361414799081e+01
3.364977216055e+01
4.265469429372e+01
4.257037788132e+01
4.252279380742e+01
4.249739152438e+01
4.244796571305e+01
4.240901638165e+01
4.236457573108e+01
4.229495011581e+01
4.219604738191e+01
4.213730405220e+01
4.205970040734e+01
4.195297215370e+01
4.185809049666e+01
4.172644787198e+01
4.172608852813e+01
4.217827160184e+01
4.030962689625e+01
4.920944983413e+01
5.107265143855e+01
5.067722061403e+01
5.071181655996e+01
5.083222196245e+01
5.095703897379e+01
5.102358063424e+01
5.112326576009e+01
5.123314877192e+01
5.131946687646e+01
5.138676552514e+01
5.145124266733e+01
5.153702496328e+01
5.154861875699e+01
5.166706007972e+01
5.177255906293e+01
4.873187574365e+01
3.761652234399e+01
3.177255708065e+01
1.571409435575e+01
1.564622170535e+01
2.159577719547e+01
2.945932856788e+01
3.790523200372e+01
4.665410560584e+01
5.568380084889e+01
3.940460420248e+01
1.800941664742e+02
7.642398400228e+00
4.189249645444e+01
1.814365565302e+02
2.431219865665e+01
9.935978391717e+01
1.751859625022e+02
3.000885577897e+01
1.682640009922e+02
4.603740693635e+01
1.809297219554e+02
9.146168990463e+00
1.606324122170e+02
6.391929456335e+01
6.118632938103e+01
1.252945890701e+02
1.555307187129e+02
1.519490314943e+02
1.488355699356e+02
1.483807526684e+02
1.505161266791e+02
6.786476042880e+01
6.812635474031e+01
6.908443756395e+01
1.029355644678e+02
1.796406432212e+02
4.317561277268e+01
1.033965071789e+01
1.544686637993e+02
6.837893007751e+01
3.364179380503e+01
1.517744140319e+02
1.724799318483e+02
1.643077811625e+02
1.775337240061e+02
1.813720992597e+02
1.856172886474e+01
6.760988358928e+01
1.798429923528e+02
1.219007495420e+02
8.846359460969e+00
7.962153111574e+01
1.501350226152e+02
2.609202000548e+01
3.310662198685e+01
3.757757229661e+01
5.472889872021e+01
4.784821106986e+01
8.497397806419e+01
1.807413605552e+02
1.008498524246e+01
1.409945643515e+02
6.812661983361e+01
7.232593558985e+01
7.655314777018e+01
8.165821272771e+01
8.631348946005e+01
9.104409093146e+01
8.644989478209e+01
9.600738709690e+01
9.151273479302e+01
9.582669683884e+01
1.012387217536e+02
9.688330148805e+01
1.067259212820e+02
1.025709966347e+02
9.278034813102e+01
9.869573168648e+01
8.889423503708e+01
9.510102449371e+01
1.049011926950e+02
1.016015204386e+02
9.182200525815e+01
9.864727528788e+01
8.892339007369e+01
9.611130430962e+01
8.645574800704e+01
9.403442009220e+01
1.034340429618e+02
1.016510087704e+02
9.246889703404e+01
1.003342108568e+02
9.145200751517e+01
9.946236251683e+01
1.079583321475e+02
1.070954582091e+02
9.897884876654e+01
1.064975221859e+02
9.880510164651e+01
1.060622764900e+02
9.882311644868e+01
1.056093609984e+02
1.125451490486e+02
1.115373225991e+02
1.049783342786e+02
1.101484133589e+02
1.166538326836e+02
1.144726763751e+02
1.210381580489e+02
1.180958293548e+02
1.116364328913e+02
1.144397497028e+02
1.211711689921e+02
1.168046106606e+02
1.099338448586e+02
1.116666810087e+02
1.189455388853e+02
1.133410634735e+02
1.057278518442e+02
1.070829989563e+02
1.151294477386e+02
1.086632609170e+02
1.002123279277e+02
1.017630859216e+02
1.105418496591e+02
1.036678822828e+02
1.126731343667e+02
9.448170731793e+01
9.659011779810e+01
8.701550515967e+01
8.946214376379e+01
1.152270611185e+02
7.961499458078e+01
7.725875016175e+01
8.245067087144e+01
9.227821417210e+01
7.245028479048e+01
7.566773416997e+01
6.566041619831e+01
9.105559580351e+01
1.113436548351e+02
6.921104968528e+01
5.931351728205e+01
5.556872646199e+01
4.945518860759e+01
9.116428378695e+01
1.008126260412e+02
9.591356036859e+01
1.058588767344e+02
1.011811318560e+02
5.338781902547e+01
1.111947076769e+02
1.106695099695e+02
8.200619917131e+01
8.319049698406e+01
1.234153968292e+02
7.906234967252e+01
7.287562657251e+01
8.264619462233e+01
1.192100943541e+02
1.215121914019e+02
1.277459844997e+02
1.301871325642e+02
1.361498119137e+02
1.387141301507e+02
1.327637606522e+02
1.413859501829e+02
1.354818920119e+02
1.444267788052e+02
1.418040790801e+02
1.441719270926e+02
1.383380783514e+02
1.470798501013e+02
1.413298054808e+02
1.323972038982e+02
1.355005342681e+02
1.264498229815e+02
1.278466115817e+02
1.304007437093e+02
1.348561202093e+02
1.375671292996e+02
1.420196271163e+02
1.448595477232e+02
1.492689864042e+02
1.460280560809e+02
1.124576096407e+02
1.039331630806e+02
9.867567958293e+01
9.804311799809e+01
9.265363913147e+01
9.248891941405e+01
8.685085226030e+01
8.712896646437e+01
9.149569119069e+01
8.621591410191e+01
8.898123739064e+01
8.365723331380e+01
8.451963505259e+01
1.107559678201e+02
1.399749086533e+02
1.474423126560e+02
1.421588884425e+02
4.553205171849e+01
1.444606090010e+02
1.498480908098e+02
1.470868609402e+02
1.532929365520e+02
4.393401163395e+01
8.100855479929e+01
7.967916285686e+01
1.109986058835e+02
1.063467332113e+02
1.549473085754e+02
4.793211348488e+01
1.498625023564e+02
8.092551305163e+01
1.387447657246e+02
1.477319563966e+02
1.266528402331e+02
1.498590152662e+02
1.442376183860e+02
9.016824687079e+01
8.420459214108e+01
7.775188199363e+01
7.613405243591e+01
8.328833276297e+01
7.446337919309e+01
6.592154395860e+01
6.415274863786e+01
7.347929453465e+01
6.352283251746e+01
5.258784467850e+01
5.309959873873e+01
1.532885655657e+02
7.854611359529e+01
8.305742911867e+01
1.577684004614e+02
1.564741103323e+02
1.162284723377e+02
1.116204713655e+02
1.018154384543e+02
1.071614460661e+02
1.170143521063e+02
1.125406087086e+02
1.027921193935e+02
1.081258297152e+02
9.845675416957e+01
1.037830969333e+02
1.134946496140e+02
1.091584985191e+02
9.954034476094e+01
1.048698000300e+02
9.531844494390e+01
1.005513129830e+02
1.102241416670e+02
3.901838511402e+01
1.496852266747e+02
1.570451971863e+02
7.697229966080e+01
8.620830943495e+01
9.232227571224e+01
9.594181180644e+01
1.058208028238e+02
1.156323106974e+02
7.320636785139e+01
7.112232538797e+01
1.209824436589e+02
1.421727607220e+02
1.330684816436e+02
8.249269071219e+01
7.377544045019e+01
7.340679685886e+01
6.404990654567e+01
6.510062542281e+01
6.402380705802e+01
1.391334269770e+02
1.189296740847e+02
5.196248975493e+01
4.167331972449e+01
1.512068532148e+02
1.423879178885e+02
1.127513922916e+02
1.198231531761e+02
1.220496085029e+02
1.288866181339e+02
1.313355766851e+02
1.379167069027e+02
1.355854767774e+02
1.521878407177e+02
1.443699817238e+02
9.606423866559e+01
1.345173296874e+02
7.342164457154e+01
3.487472796589e+01
4.108421247481e+01
4.268429919718e+01
5.189171709891e+01
1.626746500114e+02
1.405742862502e+02
1.340356472320e+02
5.505964506498e+01
5.678791341486e+01
1.575197595603e+02
9.146113318944e+01
9.319916460332e+01
8.892008241186e+01
3.304124579406e+01
4.116372405752e+01
1.224454373526e+02
7.792612233786e+01
6.881351626938e+01
7.574818213490e+01
7.356629542776e+01
1.109855519828e+02
1.207510806037e+02
1.018866957620e+02
1.054510513486e+02
1.597150775155e+02
4.333547110834e+01
1.254264330628e+02
1.456862319053e+02
1.382938930283e+02
8.986422395607e+01
6.377773080794e+01
6.600924538380e+01
8.234827245256e+01
5.478338185786e+01
4.664242996215e+01
1.672509902418e+02
1.269592757197e+02
1.420518805175e+02
1.334808682559e+02
1.505778179408e+02
3.182976512246e+01
1.656866296148e+02
1.458035820580e+02
1.431216332084e+02
1.370710140155e+02
7.608221288903e+01
6.663083020153e+01
5.881324811718e+01
5.646618959326e+01
8.195960863301e+01
7.452749492235e+01
7.912081923889e+01
7.341724413479e+01
6.946389022084e+01
6.678263983442e+01
5.921588568981e+01
9.227018319317e+01
1.253641926922e+02
9.855064887849e+01
1.233651658490e+02
1.254118266218e+02
1.233035135164e+02
1.288529491281e+02
9.004282529260e+01
8.578198142964e+01
3.568975467203e+01
3.163518956104e+01
1.150591067110e+02
1.605760139180e+02
1.261799834889e+02
1.310608677999e+02
1.258199251484e+02
1.640425864718e+02
1.022416486943e+02
1.317319899966e+02
7.437079973640e+01
1.164424527415e+02
2.640029730221e+01
1.146831991671e+02
1.548335577660e+02
1.600754041136e+02
1.599929831551e+02
6.803045399504e+01
1.233871981592e+02
1.220508248054e+02
6.398336494996e+01
5.997119669766e+01
6.573647202685e+01
5.617151074449e+01
8.276680938228e+01
7.416996403630e+01
1.504411186580e+02
1.529886540863e+02
1.464925236144e+02
1.406117855701e+02
1.650478144057e+02
1.623390290307e+02
5.562400709672e+01
4.927723478754e+01
1.323741048755e+02
6.814121906116e+01
1.683295765277e+02
1.634394945329e+02
6.837151329054e+01
6.625211965413e+01
1.307703043788e+02
4.808833806901e+01
4.544410609510e+01
5.077950894295e+01
1.728464023449e+02
6.820424276770e+01
1.637671070851e+02
6.919640528630e+01
1.354894505377e+02
1.299783388670e+02
8.230711114043e+01
1.566123658648e+02
1.255044256683e+02
1.364190985126e+02
8.369282585930e+01
7.927366212122e+01
8.772072668325e+01
7.601401118198e+01
6.937249470707e+01
1.243590699644e+02
6.703146837655e+01
7.196249940417e+01
4.587664337112e+01
5.680177962116e+01
1.080281970730e+02
1.048953524367e+02
1.210742445136e+02
1.245109325198e+02
1.151464310024e+02
1.412524220067e+02
1.337195302165e+02
1.310128803241e+02
1.331123001917e+02
1.397788347550e+02
9.085790520392e+01
9.044215832706e+01
8.368737838042e+01
1.370298480968e+02
1.688282899913e+02
1.652958331467e+02
2.241859480702e+01
2.752379355639e+01
5.578744540573e+01
5.904940576363e+01
1.358502206576e+02
1.309450585414e+02
1.419695841944e+02
4.977991048176e+01
1.399347642325e+02
1.710429744476e+02
1.678300705150e+02
1.751988014317e+02
1.544288306147e+02
1.622740778750e+02
1.588956851905e+02
6.484270576132e+01
1.329402770756e+02
8.018824321190e+01
5.658909128088e+01
7.606710300874e+01
8.154387927673e+01
7.144220985687e+01
4.098806333403e+01
7.688917878531e+01
8.248202035278e+01
1.673730005887e+01
1.423717428518e+02
1.826611428256e+01
2.203313730171e+01
1.713461513079e+02
1.663085901902e+02
1.741322397393e+02
1.690396858235e+02
1.610187693577e+02
1.642049935719e+02
7.483074946800e+01
1.734567230509e+02
1.675848156989e+02
1.770680385700e+02
5.077249495560e+01
5.468309501576e+01
4.398431943979e+01
3.313121093803e+01
1.516522833307e+02
1.438469278543e+02
1.498063430541e+02
1.406043339313e+02
7.684536145554e+01
7.642464748675e+01
8.485437015024e+01
8.377719298550e+01
9.233224320348e+01
9.102345589543e+01
9.980306774763e+01
1.616370861676e+02
3.989171983779e+01
5.905536042036e+01
1.696465970698e+02
1.662541701691e+02
5.242898252320e+01
4.289978577087e+01
1.741963660815e+02
8.344192275384e+01
1.485776010057e+02
4.693923414538e+01
6.092697543957e+01
8.253715274869e+01
6.229057497832e+01
5.398819929132e+01
4.514942822333e+01
1.489124640712e+02
2.394957916938e+01
5.331991382433e+01
1.007934559878e+02
4.560446986344e+01
1.452298372428e+02
9.165938308453e+01
7.667180336856e+01
6.139802211645e+01
6.504021469265e+01
8.719045761153e+01
7.710369967637e+01
7.261448574662e+01
9.883951970056e+01
4.662591242947e+01
3.548364760514e+01
8.527643632059e+01
1.207130242969e+02
1.258204650247e+02
1.358038817229e+02
1.310798934277e+02
1.209070556730e+02
1.262380294705e+02
1.364982079250e+02
1.320523501585e+02
1.441433825322e+02
1.378029040341e+02
1.272134476502e+02
1.328314230925e+02
1.426090163328e+02
1.225833432882e+02
1.722948774101e+02
9.076667248784e+01
6.934076682923e+01
6.290533226380e+01
7.911212595516e+01
1.541693532385e+02
1.523350967830e+02
8.593798173375e+01
1.622478209889e+02
7.760560115293e+01
8.144647996938e+01
1.662413259044e+02
1.156707544389e+02
1.106803958609e+02
1.056217074359e+02
1.515174661794e+02
9.213563290794e+01
1.740155264951e+02
1.325959749199e+02
1.270060453669e+02
1.196712616317e+02
1.214584357734e+02
1.792294055679e+02
1.741006491286e+02
1.747791352347e+02
1.681921958437e+02
1.807640408013e+02
1.577145360906e+02
1.595234099315e+02
8.254172028351e+01
9.037642130728e+01
9.746290813561e+01
9.677987980399e+01
9.041661010550e+01
9.580646132373e+01
1.017489503723e+02
9.420814561002e+01
1.343220795300e+02
1.816615124288e+02
1.336523103814e+02
1.311483539590e+02
1.231571866145e+02
9.534283254736e+01
1.019051074688e+02
1.112971772330e+02
8.890714408491e+01
1.267594746618e+02
1.816703254718e+02
1.351764090676e+02
9.909932424574e+01
6.775075903189e+01
7.585883738126e+01
7.606390082846e+01
8.493747729258e+01
7.666042279076e+01
1.113436769922e+02
1.148003799084e+02
1.091217903911e+02
1.183600900820e+02
1.126178307287e+02
1.039754964853e+02
1.218302643391e+02
1.156730155842e+02
6.774092614364e+01
3.357105100505e+01
3.849692322196e+01
2.565620839620e+01
4.145951889436e+01
5.363410487371e+01
5.595613378078e+01
6.471366500933e+01
5.290015252520e+01
9.882510775914e+00
1.874570958134e+01
7.501625054021e+00
1.560175200359e+01
2.797975071241e+01
3.805225725233e+01
1.783066033429e+02
8.910473594921e+01
8.466996902456e+01
7.541064207403e+01
8.064452858782e+01
9.305958924342e+01
7.031507543081e+01
6.703316860272e+01
1.044672082262e+01
1.840963801123e+01
1.768834622250e+01
2.568585362382e+01
2.533946304945e+01
1.836939411494e+01
1.818549679244e+01
1.009626809289e+01
1.782893691406e+01
2.523661411069e+01
9.585733547268e+00
1.125365725095e+02
1.178325294280e+02
1.811030979819e+02
6.899195484120e+01
8.297186575978e+00
1.471245845631e+02
1.490334901653e+02
1.490657400552e+02
1.637663770413e+02
1.683443361616e+02
1.473507897697e+02
6.223836285892e+01
1.410095457145e+02
1.298221326008e+02
7.490560914644e+01
6.543025804401e+01
1.366673717810e+02
1.294567344121e+02
1.565912045742e+02
1.296988387826e+02
1.501192009700e+02
1.748866012805e+02
3.792161625921e+01
9.417639216094e+01
9.103018136189e+01
1.145601943978e+02
6.312524953475e+01
1.000150610125e+02
3.986892617419e+01
1.576662436117e+02
7.547252723456e+01
1.170785732120e+02
8.557503227993e+01
6.952939753752e+01
6.408206144101e+01
9.092437682240e+01
1.059317778048e+02
1.471023233082e+02
1.199973993610e+02
1.026444344053e+01
1.525748090886e+02
1.239954288785e+02
9.747809352463e+01
1.522060519193e+02
5.390261883426e+01
1.179284473534e+02
1.359288273653e+02
8.687338376609e+01
3.061701043595e+01
8.462678790241e+01
1.701878173907e+02
1.157742923098e+02
5.733669463666e+01
1.248099308979e+02
8.451792320974e+01
5.916938775067e+01
1.340775575139e+02
1.142252034324e+02
1.605720906906e+02
1.388206952014e+02
6.138113950846e+01
1.581924056032e+02
1.183390422841e+02
1.278557739264e+02
1.246241572419e+02
1.081934930854e+02
1.215219694384e+02
1.210076104770e+02
1.549384208290e+02
7.215085420976e+01
1.056561739145e+02
1.085054802150e+02
1.091616592100e+02
1.312560155760e+02
1.553579871006e+02
7.901903310684e+01
7.368870632949e+01
9.657789347341e+01
1.467441408964e+02
1.377755099356e+02
7.489279829475e+01
1.526982916053e+02
1.313958969315e+02
1.084989881949e+02
4.331511668382e+01
6.852896421081e+01
9.666902865841e+01
1.133804644857e+02
1.176736277043e+02
1.422904948485e+02
1.556495949034e+02
1.520245673344e+02
4.275003597260e+01
6.343843135155e+01
1.587692157796e+02
1.280950788849e+02
1.594290492641e+02
1.067213080234e+02
1.596552255926e+02
4.670176049543e+01
1.622018160544e+02
1.532266408886e+02
8.470812995777e+01
6.844708021953e+01
1.720471122487e+02
1.607069703921e+02
1.179576989063e+02
1.238502131176e+02
5.026560032077e+01
1.204576882220e+02
1.083026921647e+02
1.511402141728e+02
1.641537184725e+02
1.006552655650e+02
1.142254936288e+02
1.362670756596e+02
2.519178073468e+01
5.484364964708e+01
1.173248398363e+02
9.963596024578e+01
1.262978312628e+02
1.675414460737e+02
1.205965811166e+02
1.054742093937e+02
1.239961721036e+02
4.166952850485e+01
1.058432134426e+02
1.274687194600e+02
1.179295593735e+02
2.560537878353e+01
1.249322803213e+02
1.590049241101e+02
8.508572072913e+01
1.286803816418e+02
1.159942588000e+02
3.355520741942e+01
1.364086344381e+02
1.275496377864e+02
1.316104550605e+02
1.208605544263e+02
1.442141038879e+02
3.959642782790e+01
5.920011206316e+01
4.872252042661e+01
1.079620238713e+02
1.308130146029e+02
3.260359084747e+01
1.168231443459e+02
3.465111397214e+01
1.032791334740e+02
1.463246615341e+02
9.404788658562e+01
1.045275535333e+02
5.221820967014e+01
9.815037497700e+01
1.284770699661e+02
9.904727569293e+01
9.164217151874e+01
1.396790336293e+02
9.284019233645e+01
1.489060007894e+02
1.785224089846e+02
7.554097501557e+01
2.577540045506e+01
4.243402633049e+01
3.638854218015e+01
7.546327347960e+01
1.183824301659e+02
7.584342573954e+01
6.722202453467e+01
1.481756424293e+02
1.704861134572e+02
1.078309128839e+02
1.632981473110e+02
1.381300427695e+02
1.308837884969e+02
6.750261308349e+01
1.495374427382e+01
1.357975681767e+02
2.170670794937e+01
3.655853259333e+01
4.275991972875e+01
6.461186136748e+01
3.193622551600e+01
2.764545311410e+01
1.726923632532e+02
7.530242268210e+01
1.482617765016e+02
3.640051951668e+01
1.412592548214e+02
1.658015744447e+02
1.811456975079e+02
1.567053146671e+02
4.890405356131e+01
8.298540253710e+01
1.555235152672e+02
1.153472086966e+02
1.810119493626e+02
7.396967230826e+01
1.409342245428e+02
7.285971636450e+01
1.410176042864e+02
1.284349920892e+02
8.704105840847e+01
8.280779964848e+01
1.727372320700e+02
1.455571287581e+02
5.435176859751e+01
1.071822566349e+02
8.110454435627e+01
5.910128373219e+01
1.749872244546e+02
1.380530174687e+02
1.726966863715e+02
2.543320864374e+01
1.509596002302e+01
1.766926685088e+02
1.522986336959e+02
6.890024785123e+01
1.513697662036e+02
5.645207419847e+01
6.627223952487e+01
1.669968631432e+01
1.804595464019e+02
1.416709177024e+02
8.895312656748e+01
6.819521751517e+01
5.845702558352e+01
1.544593705461e+02
2.215430902526e+01
1.424900227345e+02
1.770445170683e+02
1.446873525889e+02
1.785851478204e+02
5.860270356362e+01
1.660940919600e+02
1.701558236144e+02
6.757784815882e+01
1.445039133762e+02
7.207136007510e+01
3.157179752650e+01
1.499318831112e+02
8.850511776554e+00
6.728433340839e+01
1.803966930061e+02
3.067371628705e+01
8.227973066134e+01
1.511774625454e+02
1.091156983057e+02
1.252598996097e+02
4.387678520268e+01
4.102769149425e+01
9.898466911648e+01
1.691213691553e+02
1.443277434656e+02
9.226481633351e+01
6.239750795880e+01
1.458988330573e+02
9.614099100270e+01
1.507236489270e+02
1.689582714586e+02
4.976935958998e+01
1.173504858342e+02
1.553104464091e+01
1.757702310857e+02
1.001459275596e+02
8.306991264707e+00
3.543174066248e+00
1.247122098950e+01
1.157920303056e+01
1.965649722149e+01
1.997176676917e+01
2.782672725373e+01
2.941274144598e+01
3.643480711756e+01
3.788974986814e+01
4.519949225365e+01
4.739106397709e+01
5.423262015323e+01
5.597862567582e+01

SCALARS node_materi_strain_total_average_a_ept float
LOOKUP_TABLE default
1.620675047958e-04
2.257445216307e-03
2.528812936128e-03
3.658360111951e-03
1.971493318134e-04
2.986794642442e-04
3.918618671537e-04
5.088641378194e-04
6.196691028159e-04
7.337342408748e-04
8.505702492468e-04
9.697952479766e-04
1.092668812500e-03
1.218663546559e-03
1.349580083659e-03
1.481258392427e-03
1.604826915612e-03
1.738676386459e-03
1.879420585328e-03
2.017760601188e-03
2.158770755128e-03
2.302854127913e-03
2.442570500059e-03
3.666839567041e-03
3.657750871520e-03
3.657979878305e-03
3.654608639491e-03
3.644745705722e-03
3.644898796278e-03
3.637677038895e-03
3.625813481827e-03
3.619461194633e-03
3.606893898611e-03
3.585204560601e-03
3.571761627291e-03
3.550079861947e-03
3.523514169512e-03
3.491572559187e-03
3.454386644852e-03
3.413932457872e-03
3.372382738460e-03
3.327119620849e-03
3.277822383048e-03
3.219851133146e-03
3.154991372178e-03
3.089587779930e-03
3.020206380901e-03
2.950564062146e-03
2.882571221533e-03
2.812776404427e-03
2.748679316508e-03
2.683413104993e-03
2.631137397606e-03
2.577279087073e-03
2.526433563564e-03
2.486784011951e-03
2.462899553108e-03
2.443593982413e-03
2.427979292686e-03
2.428100693736e-03
2.422268730545e-03
2.428264897957e-03
2.431450988763e-03
2.445407051866e-03
2.467198521669e-03
2.482499686529e-03
2.476270211189e-03
2.505870262833e-03
2.507997337919e-03
2.520340122060e-03
2.532152486285e-03
2.534926428949e-03
2.402926113545e-03
2.545723008067e-03
2.688980342160e-03
2.830422461205e-03
2.975442673833e-03
3.122344443382e-03
3.267930390717e-03
3.415057614657e-03
3.562885631680e-03
-1.318623867462e-03
2.133553597664e-03
-2.638588265997e-04
2.806876500786e-04
8.409920870234e-04
1.201056981221e-03
1.363462414374e-03
1.512627819380e-03
1.663494233413e-03
1.815801388000e-03
1.970886947905e-03
1.312193257102e-03
1.406950743291e-03
1.549859079839e-03
1.691151651232e-03
1.831758882834e-03
1.972279900502e-03
2.112486351265e-03
2.239622429546e-03
2.247877778717e-03
2.246092640343e-03
2.241595862990e-03
2.257677027067e-03
2.236556015338e-03
2.229654305938e-03
2.224813605325e-03
2.218806781630e-03
2.208086487312e-03
2.196529223053e-03
2.182583186154e-03
2.167458789658e-03
2.151789874147e-03
-1.910974038046e-03
-2.168174823767e-03
-2.219495140242e-03
-1.996483796428e-03
-1.170825465028e-03
-3.780125018154e-04
-7.715466284961e-05
5.278238534713e-05
1.165038997527e-04
1.238287614019e-04
1.330900433302e-04
1.450571947953e-04
1.515465053536e-04
1.591328560010e-04
1.559257354273e-04
1.553644309658e-04
1.556464361747e-04
1.571199984429e-04
1.606286001696e-04
1.155863318500e-03
1.280453512635e-03
1.359186154830e-03
1.392381979084e-03
1.413199478774e-03
1.420379895525e-03
1.422640537528e-03
1.420335232772e-03
1.415898442300e-03
1.409912917425e-03
1.403251172274e-03
1.396276475841e-03
1.389352389167e-03
1.382678235503e-03
1.376390812334e-03
1.370561540292e-03
1.365245262258e-03
1.360490595625e-03
1.356353155387e-03
1.352920288421e-03
1.350343745755e-03
1.348837757042e-03
1.348051135572e-03
1.339109724353e-03
1.314749133154e-03
1.408511586334e-03
1.412874057896e-03
1.414545459026e-03
1.415847552178e-03
1.417495941031e-03
1.419597564102e-03
1.422128458690e-03
1.425042547333e-03
1.428283542681e-03
1.431783347713e-03
1.435455841344e-03
1.439187757734e-03
1.442826166867e-03
1.446115467655e-03
1.448717252829e-03
1.450092707966e-03
1.449657000237e-03
1.446162293824e-03
1.438661894854e-03
1.423899574917e-03
1.401714361002e-03
1.359953243438e-03
1.301876802111e-03
1.422253349968e-03
1.469299434190e-03
1.500557719491e-03
1.520787494634e-03
1.536196181024e-03
1.545934455597e-03
1.552732250004e-03
1.556850438185e-03
1.559306454395e-03
1.560461988826e-03
1.560775777876e-03
1.560487543185e-03
1.559809714811e-03
1.558895265597e-03
1.557865487244e-03
1.556818503748e-03
1.555824864237e-03
1.554928325768e-03
1.554108099923e-03
1.553171943719e-03
1.551658075220e-03
1.550383804158e-03
1.691371508175e-03
1.691914943142e-03
1.692301160516e-03
1.692421894736e-03
1.692352837382e-03
1.692099502913e-03
1.691620288994e-03
1.690832582540e-03
1.689669444926e-03
1.687971894301e-03
1.685579215687e-03
1.682267799859e-03
1.677715205988e-03
1.671709681350e-03
1.663500773568e-03
1.652887069771e-03
1.638029604648e-03
1.620105205466e-03
1.595953326882e-03
1.551981172763e-03
1.690034613703e-03
1.731134187117e-03
1.750709331486e-03
1.766962516689e-03
1.781384600543e-03
1.792215396340e-03
1.801352480704e-03
1.808534118233e-03
1.814223472069e-03
1.818776748473e-03
1.822412467574e-03
1.825243507250e-03
1.827467128693e-03
1.829097108990e-03
1.830326019860e-03
1.831135777144e-03
1.831631927119e-03
1.831817160257e-03
1.831799363863e-03
1.972376177038e-03
1.971982636232e-03
1.971066056644e-03
1.969735095927e-03
1.967951282146e-03
1.965482023635e-03
1.962395993300e-03
1.958274215238e-03
1.953139477377e-03
1.947006698274e-03
1.939573294999e-03
1.930457812405e-03
1.919352776509e-03
1.905315342015e-03
1.890476188146e-03
1.874621600413e-03
1.835012880255e-03
1.984115126126e-03
2.021712782245e-03
2.035659255700e-03
2.050545439147e-03
2.063067142932e-03
2.073590978804e-03
2.081909830357e-03
2.089293093607e-03
2.096108646083e-03
2.100426103153e-03
2.104487717650e-03
2.107347610946e-03
2.109811897384e-03
2.111325352762e-03
2.113288913691e-03
2.113636840596e-03
-6.637342046517e-04
1.678523177257e-05
5.263192536156e-04
1.071453856878e-03
1.285496995344e-03
1.448435953161e-03
1.598548620348e-03
1.751337373981e-03
1.905167963780e-03
2.062989171956e-03
1.383844647155e-04
2.440016666521e-03
7.723795481330e-05
-1.359820809051e-03
2.383192365533e-03
1.064698124660e-03
1.287820801002e-03
2.603981562309e-03
1.485195291874e-03
2.858676281677e-03
1.826798837621e-03
2.426170040206e-03
1.607615019770e-04
3.119295331626e-03
2.160261875484e-03
7.963015812214e-04
1.648910622389e-03
3.271481721335e-03
3.435297376894e-03
3.576917285906e-03
3.537001817963e-03
3.508392293220e-03
2.277060362476e-03
2.338388883980e-03
2.372703380797e-03
2.904152213585e-03
2.446903403414e-03
-1.700196562078e-03
1.792562509615e-04
2.082506025485e-03
2.369882581546e-03
4.492873532576e-04
3.341326239756e-03
2.736163489326e-03
2.993321846414e-03
2.508978296762e-03
2.399341816100e-03
-2.465561434884e-04
2.308200276704e-03
2.374112078748e-03
3.190499416464e-03
1.316939228549e-04
1.030471863406e-03
3.607291255541e-03
1.300987175024e-03
6.452751817052e-04
1.659417983297e-03
1.991934910132e-03
-4.822174222062e-04
2.629137974759e-03
2.485214771155e-03
1.794190175988e-04
3.481667271704e-03
2.236852259300e-03
2.270231017331e-03
2.356588697221e-03
2.389442300735e-03
2.482816854081e-03
2.512458085930e-03
2.416215615610e-03
2.539872679285e-03
2.439415701088e-03
2.609505540527e-03
2.564184861400e-03
2.459690133603e-03
2.585464716225e-03
2.477270216325e-03
2.354441668013e-03
2.368330191756e-03
2.247989062608e-03
2.257948488113e-03
2.380210984181e-03
2.266008020511e-03
2.145514931727e-03
2.149905396607e-03
2.030610819785e-03
2.031202285746e-03
1.911760218478e-03
1.908853945059e-03
2.032135700830e-03
1.907160203305e-03
1.782424954045e-03
1.778329292122e-03
1.650520244234e-03
1.644251521300e-03
1.777476281397e-03
1.643139890469e-03
1.503193390381e-03
1.504016926338e-03
1.355243258343e-03
1.360514516506e-03
1.201189745240e-03
1.211636136095e-03
1.374251491661e-03
1.231981034737e-03
1.058227580920e-03
1.088054230936e-03
1.262445100846e-03
1.128630262799e-03
1.301352641644e-03
1.177889644192e-03
9.991989357178e-04
1.060047088158e-03
1.233175312457e-03
1.125126282847e-03
9.493095870797e-04
1.025325449881e-03
1.193564946187e-03
1.101829805852e-03
9.344869880711e-04
1.018606558971e-03
1.178783972065e-03
1.100051947276e-03
9.432308871922e-04
1.028118984190e-03
1.179427864409e-03
1.109226874309e-03
1.256086977577e-03
9.614207869032e-04
1.043730360688e-03
9.001517203487e-04
9.826006535115e-04
1.781075495667e-03
8.442817594368e-04
7.586523372985e-04
9.251951739145e-04
1.060822022002e-03
7.920567251310e-04
8.705239406265e-04
7.428829426970e-04
1.199593107089e-03
2.390467233554e-03
8.177409641765e-04
6.950441665268e-04
6.197768583119e-04
5.777304272952e-04
2.575386302418e-03
2.707913267179e-03
2.667431946513e-03
2.805500194599e-03
2.764023605044e-03
6.471183211950e-04
2.694183767974e-03
2.843826947466e-03
2.029790964130e-03
1.660606605670e-03
1.427936736045e-03
9.442719538462e-04
8.883228988982e-04
1.013860682474e-03
1.329142905065e-03
1.401595277451e-03
1.476430986075e-03
1.545307584204e-03
1.620997859864e-03
1.687111057648e-03
1.613433044190e-03
1.753155842652e-03
1.680816099608e-03
1.762853280063e-03
1.699325968084e-03
1.819064447500e-03
1.747602815981e-03
1.885141680853e-03
1.813990811546e-03
1.676670758927e-03
1.742821147917e-03
1.606816127914e-03
1.465092306810e-03
1.586154312706e-03
1.621223864127e-03
1.737429217971e-03
1.770621317396e-03
1.882512685082e-03
1.913285930867e-03
1.808123900176e-03
2.603127897560e-03
9.028729293416e-04
8.736091828098e-04
7.037212496392e-04
6.755706006139e-04
4.864940357922e-04
4.609795062788e-04
2.456031289653e-04
2.968628656832e-04
2.652746709709e-05
1.171509641012e-04
-1.680277737181e-04
-4.280957831635e-05
2.033928544562e-03
1.855294527961e-03
1.996724100422e-03
1.973497798088e-03
5.035802513059e-04
1.880095905004e-03
1.840722626095e-03
1.779691689889e-03
1.949085293022e-03
5.347978545543e-04
2.252776471491e-04
4.621583603950e-04
2.902748300764e-03
2.858669047440e-03
1.920411404981e-03
5.995790414234e-04
1.891446785664e-03
-2.524132638715e-04
1.808306937700e-03
1.945494626588e-03
1.541955268850e-03
2.112276545845e-03
2.091531409737e-03
2.256648386819e-04
9.864053957388e-05
-1.522971612687e-04
1.421391031058e-05
2.465944990232e-04
1.708421343713e-04
-3.495781491683e-05
1.315087032560e-04
3.194272670035e-04
2.796602611663e-04
1.204275279449e-04
2.604708669845e-04
2.017561131529e-03
-4.293916160938e-04
2.235896080309e-03
1.978529294632e-03
2.048693752076e-03
3.000012382346e-03
2.953098362002e-03
2.811698153096e-03
2.903987751038e-03
3.047366064201e-03
2.995862202207e-03
2.852802894509e-03
2.942579160831e-03
2.799858737853e-03
2.887710396719e-03
3.032115162066e-03
2.975410238996e-03
2.831290380814e-03
2.917342407284e-03
2.773264997196e-03
2.857529543400e-03
3.003254131472e-03
4.939152114779e-04
1.849247713305e-03
1.988674959727e-03
9.572915708129e-04
1.079932863609e-03
1.142874123518e-03
1.209971187158e-03
2.941030039770e-03
3.088501706839e-03
2.466718946659e-04
4.945827145706e-04
3.044543723743e-03
1.873186854336e-03
1.737079183031e-03
1.524768846682e-03
1.542702693208e-03
1.401454043091e-03
1.428343014866e-03
1.563609726751e-03
1.279534190722e-03
1.635114699613e-03
3.121191169318e-03
5.388559040981e-04
4.241169257536e-04
2.010742885917e-03
1.704716177351e-03
2.158158452179e-03
2.162421153667e-03
2.286403124100e-03
2.292024532953e-03
2.416567880199e-03
2.422088686734e-03
2.298837062220e-03
2.229099786747e-03
2.429627159238e-03
2.794454461081e-03
1.830416878223e-03
4.520708381969e-04
4.303895465847e-04
1.367226099029e-04
5.477971541477e-04
6.602060798028e-04
2.056490172278e-03
2.548106089232e-03
2.540156384214e-03
1.460025002800e-03
1.587438246005e-03
2.245993736379e-03
2.628460151787e-03
2.712105987781e-03
2.658985818423e-03
4.313266494198e-04
1.161673533586e-05
3.141033480176e-03
6.813278886165e-04
7.207416667038e-04
-5.154640806131e-04
-7.365393681732e-04
3.023627808754e-03
3.170632793258e-03
1.274138764009e-03
1.340176765278e-03
2.003010534810e-03
2.525561572330e-04
3.236308394773e-03
1.752796746795e-03
1.604757819455e-03
1.144615904964e-03
3.100883666001e-04
4.180645405320e-05
5.066130830310e-04
3.812716723887e-04
6.046986515768e-04
2.136067018825e-03
3.192473587423e-03
2.307173145798e-03
2.174684727672e-03
2.437824275283e-03
1.538229417086e-04
2.114720004230e-03
1.937777360592e-03
2.668434243532e-03
2.662753275882e-03
8.821924588160e-04
9.263673280186e-04
7.851521801111e-04
9.889000475288e-04
2.319206031130e-03
1.069144770004e-03
2.132937316006e-03
2.122694758061e-03
2.023213840753e-03
1.688262563377e-03
1.703751852492e-03
8.586192762889e-04
1.555991798653e-03
1.206047322877e-03
1.540304758725e-03
1.406393301138e-03
3.177727844241e-03
3.268545131483e-03
2.688513566538e-03
2.630408728401e-03
3.957845302129e-04
3.196926018352e-04
1.330362244450e-03
2.037235646337e-03
3.143135611477e-03
3.188300039750e-03
3.086303184897e-03
2.085379218982e-03
7.489326188106e-04
1.507545220653e-03
-5.742404549539e-04
1.910244703811e-03
2.993307743753e-04
2.505708492916e-03
2.076671792067e-03
2.148981318232e-03
2.357964233955e-03
2.183224426148e-03
1.917626981666e-03
1.790380059512e-03
2.014766267282e-03
1.920471751990e-03
1.921936398113e-03
1.821042105367e-03
6.204956698137e-04
5.676256943902e-04
2.690466852038e-03
2.557478856202e-03
2.794308198972e-03
2.790611173767e-03
2.373424620797e-03
2.264594456898e-03
7.151285146528e-04
1.609666101911e-03
3.288182549735e-03
2.108733531671e-03
2.168188455569e-03
2.099936776414e-03
-9.541963235450e-04
-6.585290906140e-04
3.320271477901e-03
8.699646388000e-04
1.062354060885e-03
6.514713840931e-04
2.369862165860e-03
2.370083396712e-03
2.217348035108e-03
1.806513154701e-03
3.387507419883e-03
1.930758874698e-03
1.377432611493e-03
1.949733041269e-03
3.244238410502e-03
3.406383644871e-03
2.573498357258e-03
2.514923006867e-03
2.620641195051e-03
-2.702765234894e-04
-5.355112104515e-04
3.209328440236e-03
8.334182723912e-04
9.097288733123e-04
3.590807685767e-04
4.872640376401e-04
1.339182820879e-03
1.270057587836e-03
2.518537160961e-03
2.636049967367e-03
2.280151873648e-03
1.659345403226e-03
1.509106330018e-03
1.451591245183e-03
3.322184299081e-03
3.428622702814e-03
6.844036383737e-04
5.770051134061e-04
7.216560835176e-04
3.339900913871e-03
2.287733740777e-03
2.219464979194e-03
2.350717718650e-04
2.405188194352e-04
1.516164544448e-04
-1.267324849319e-04
3.228099465820e-03
3.125827791722e-03
3.342603731098e-03
6.501441119519e-04
2.189201601751e-03
2.210300978843e-03
2.169923606079e-03
2.278781350844e-03
2.341590729500e-03
2.462053838510e-03
2.563998733054e-03
-1.191285834126e-03
3.358718025023e-03
2.540498090742e-03
-1.399946953876e-03
2.483740971566e-03
2.569241976752e-03
2.415252000798e-03
5.404238123589e-04
2.463121462221e-03
2.530850764712e-03
1.552342096371e-04
3.436267803667e-03
2.147292645877e-04
2.726511395088e-04
2.235973384634e-03
2.163910877275e-03
2.293085059093e-03
2.221679076695e-03
2.091607214983e-03
2.159824545223e-03
2.453285091201e-03
2.310094001441e-03
2.230727467735e-03
2.383589896238e-03
1.825201793664e-03
1.162713494331e-03
1.227583067360e-03
1.157044237415e-03
2.947171389546e-03
2.906814715509e-03
2.006329567238e-03
1.867452893890e-03
2.498546169021e-03
2.495102398536e-03
2.623480023023e-03
2.609318899815e-03
2.739000594277e-03
2.721790059239e-03
2.855020358961e-03
2.697600047759e-03
7.586475120486e-04
2.003684470617e-03
2.386088772777e-03
2.275235671021e-03
1.717246366798e-03
1.631866145833e-03
2.262755754634e-03
1.040511407907e-03
3.505829499617e-03
-1.340605135524e-03
-1.007503191982e-03
1.212929569532e-03
1.815055519407e-03
1.318683062355e-03
1.366034751061e-03
1.806786287287e-03
1.680571704069e-04
4.066938358008e-04
2.867891725823e-03
2.712128938129e-04
1.942251574865e-03
1.033332285822e-03
1.796942612674e-03
5.592931561210e-04
1.114233332628e-03
2.338049431577e-03
2.297076703914e-03
2.203337584455e-03
1.039955508976e-03
1.499159431058e-03
1.416296347299e-03
2.140077584091e-03
2.983368788109e-03
3.019529826519e-03
3.157482869983e-03
3.051244169405e-03
2.912391288533e-03
2.942078402200e-03
3.084148710070e-03
2.972506732807e-03
3.138971887880e-03
2.993884208315e-03
2.853190559630e-03
2.870559839762e-03
2.997271382060e-03
2.734466152420e-03
2.486640338519e-03
1.359702693167e-03
-8.826616311075e-04
-6.091148236624e-04
1.915961120465e-03
3.313239448625e-03
3.398723872865e-03
6.669065639374e-04
3.055607480317e-03
2.220959322223e-03
-2.166488281857e-05
2.926567168486e-03
2.879580248016e-03
2.774204765575e-03
2.742356083985e-03
3.465214306376e-03
2.670880920177e-03
2.676597656692e-03
1.708493598802e-03
1.682741987593e-03
1.531006993010e-03
2.829564053990e-03
2.469977817325e-03
2.355504883345e-03
2.328468624743e-03
2.227975692812e-03
2.415912121300e-03
3.234254179391e-03
3.185509407681e-03
3.805841606527e-04
4.638742920055e-04
6.637260875299e-04
5.639895555588e-04
3.435778790122e-04
4.653356496911e-04
6.802213103281e-04
3.734339136938e-04
2.771660618295e-03
2.392486266308e-03
1.554573001210e-03
1.486754437267e-03
1.334891216787e-03
1.135242978877e-03
1.197987110524e-03
1.335473295964e-03
1.074044092488e-03
2.167590511426e-03
2.385920635212e-03
1.554286775916e-03
1.122513827371e-03
2.293799757447e-03
2.400089297005e-03
2.379134094062e-03
2.516530223368e-03
2.431534263245e-03
1.406061670122e-03
1.470952350359e-03
1.404094614589e-03
1.534258760301e-03
1.463303083082e-03
1.343771780306e-03
1.594060298351e-03
1.511743326028e-03
2.321967674622e-03
-6.928984403049e-04
-4.229246699870e-04
-1.734734028296e-04
-2.442070412867e-04
-4.362107469287e-04
-2.135617702180e-04
-3.810225037685e-04
-7.793969667480e-04
-7.642627902899e-05
-3.389049915110e-05
3.105199739553e-05
5.383568778518e-05
5.127095626058e-05
3.394744512217e-04
2.437268473467e-03
1.153352920636e-03
1.089813831237e-03
9.729203162665e-04
1.029689501092e-03
1.202093962489e-03
9.113538265487e-04
8.656041164985e-04
1.819062753289e-04
2.579092305486e-04
2.535109818631e-04
3.472686632537e-04
3.424059830333e-04
2.556806236642e-04
2.491760826706e-04
1.752627501238e-04
2.412692184284e-04
3.302393267526e-04
1.682552348953e-04
3.049862154578e-03
3.129333493951e-03
2.383662763150e-03
2.359942222145e-03
1.028465821513e-04
3.558632775103e-03
3.561181773001e-03
3.573993559588e-03
2.226464184662e-03
2.295440481902e-03
3.570719884793e-03
6.628455985002e-04
3.187398693160e-03
3.296964949715e-03
-1.371994426874e-05
5.241768899742e-04
1.801283778039e-03
1.609966139345e-03
2.082635279075e-03
1.672392214910e-03
1.951416827197e-03
2.297905906293e-03
4.980084637765e-04
2.744674252204e-03
2.713581174872e-03
3.062887386600e-03
7.653590631213e-04
1.279642549132e-03
4.681723064522e-04
2.846079604841e-03
2.028145757428e-03
1.254814205635e-03
1.001689395208e-03
7.088075006904e-04
4.117372806373e-04
1.511019046114e-03
1.187384933455e-03
1.826824924123e-03
3.149804755106e-03
1.527320730031e-04
1.901822807603e-03
1.472444181572e-03
2.762588624659e-03
2.021421558218e-03
-3.374621562545e-05
3.087125850579e-03
3.283181781592e-03
2.580648909485e-03
3.666995749784e-04
2.600685642974e-03
2.185758547877e-03
2.944493105319e-03
7.132098509965e-04
1.346990365525e-03
1.788874055886e-03
2.076688702777e-03
3.353548400988e-03
1.648512625774e-03
2.085732813133e-03
1.661001740101e-03
7.768304945739e-04
2.028439411674e-03
1.397447575915e-03
3.233188494708e-03
2.409083330838e-03
9.455343547629e-04
3.096442339921e-03
1.263328749901e-03
2.132903923822e-03
1.920123015536e-03
2.154056961508e-03
2.491896000465e-03
1.907396940516e-03
1.729944694119e-03
1.964430210919e-03
-3.176271780994e-04
1.244735785972e-03
2.719849947395e-03
2.548830243675e-03
3.379598520656e-03
1.673541449096e-03
1.956266329485e-03
3.239432138152e-03
1.262729604656e-03
5.714384015041e-04
-2.252775355260e-04
5.346934479914e-04
1.513142798742e-03
1.402598597858e-03
3.280518767004e-03
2.021984871510e-03
1.863221491361e-03
-1.486290509873e-04
2.093810566854e-03
2.088906640600e-03
1.397584122365e-03
2.152891286232e-03
1.389241721902e-03
2.779405189931e-03
1.731098114272e-03
2.158077534555e-03
1.898101657440e-03
8.602525735936e-04
2.373204178665e-03
2.316751321987e-03
2.036246836920e-03
2.037219989233e-03
1.292278553880e-03
1.909753781133e-03
1.472651990915e-03
2.273033979842e-03
3.492071765415e-03
2.118166894924e-03
2.640283724110e-03
1.405057214024e-03
1.950166606588e-03
3.373243991379e-04
1.916386660345e-03
1.472578395682e-03
6.016438674023e-04
1.354406733798e-03
2.479731020624e-03
1.538614501821e-03
8.082810587563e-04
1.603180468233e-03
1.745256494537e-03
2.668994628206e-03
1.666816655782e-03
2.399889203244e-03
3.271879362550e-04
2.042471438232e-03
2.148738470279e-03
8.136892795000e-04
1.419238675413e-03
2.803702513625e-03
1.575677376045e-03
1.570702309106e-03
2.530336505743e-03
2.053426532758e-03
1.662021383491e-03
1.719061582312e-03
1.533474837758e-03
5.777874421533e-04
4.538227044791e-04
8.764222419528e-04
2.651953021637e-03
4.344875621176e-04
2.715943487526e-03
2.506595228963e-04
7.637348431072e-04
2.210345101454e-03
2.767807083110e-03
8.494295180049e-04
6.827330598320e-04
7.603617504090e-04
1.807112127484e-03
8.543378754880e-04
7.835828253350e-04
3.442122909853e-03
8.753562222795e-04
3.597913108467e-03
2.456546395147e-03
2.483239159817e-03
1.409622893325e-03
-1.764712595238e-03
1.287343108805e-03
6.677099981688e-04
2.619244847602e-03
2.488156756357e-03
6.203934533105e-04
3.125272364235e-03
2.797403414438e-03
2.978436317301e-03
2.173021663519e-03
2.071649840611e-03
3.327553086615e-03
2.352091443552e-03
1.013616811543e-04
1.802211424246e-03
1.205223547939e-03
9.656570844981e-04
5.182666753039e-04
8.260995705569e-04
-7.240105273786e-05
8.976960804427e-04
2.376950484348e-03
2.449657165667e-03
2.322715550978e-03
4.032019758424e-04
3.379716150063e-03
2.592523062654e-03
2.411727821931e-03
2.452971691354e-03
-4.126040152924e-06
2.510413652802e-03
2.905680423812e-03
3.090746853150e-03
2.438042664857e-03
2.409757859596e-03
3.472642968143e-03
-3.935782980171e-04
3.479734747999e-03
2.752380732914e-03
2.655878178352e-03
2.462152360950e-03
2.359060623036e-03
3.213098157014e-03
-3.490676241123e-04
2.967603887820e-03
1.023766056142e-03
-1.138450250676e-03
2.284050636402e-03
2.883824116019e-03
2.339342557639e-03
3.466021766278e-04
1.686709397957e-04
2.301572848780e-03
3.043585746668e-03
-1.853850124684e-04
3.563960690435e-03
-7.849199330533e-04
2.326486098831e-03
2.242681280431e-04
2.451113059557e-03
3.446333803344e-03
1.142811121452e-03
2.261175544911e-03
7.577203155455e-04
2.652365512925e-03
1.030210088437e-04
3.476127782957e-03
2.319152079406e-03
3.347815412705e-03
2.589845865777e-03
-1.333284195513e-03
2.679354451904e-03
2.228994895044e-03
2.356574195774e-03
3.274328462182e-03
9.229120370065e-04
4.064174804114e-04
3.616803720538e-03
1.747071174734e-04
2.355119329234e-03
2.490646567663e-03
4.086154867731e-04
2.587815396942e-03
3.101151931917e-03
1.422883948172e-03
3.242905351442e-03
-1.094490025106e-04
-1.795485022691e-03
2.843862900880e-03
2.561603142629e-03
3.401954962989e-03
2.736972867062e-03
-3.432628851773e-04
2.989421615814e-03
1.237235293713e-03
2.783790531879e-03
2.280244935912e-03
-9.224562820328e-04
1.536759087164e-03
2.037166445190e-04
2.330846477665e-03
1.295261498034e-03
1.223787028720e-03
1.329154003442e-03
1.336585528487e-03
1.483112964041e-03
1.470036857608e-03
1.616330372522e-03
1.609811431218e-03
1.766009744206e-03
1.753894292777e-03
1.897716195057e-03
1.903099488834e-03
2.047238899415e-03
2.055308396292e-03
2.178794587784e-03

SCALARS node_materi_strain_total_size_dev_sd_ept float
LOOKUP_TABLE default
6.252295112743e-04
6.184502649450e-03
6.213383843859e-03
9.006504842479e-03
3.770525132834e-04
4.141596678300e-04
7.928404054415e-04
1.237500007294e-03
1.651903966717e-03
2.024772256266e-03
2.371451788791e-03
2.695096273887e-03
3.001323929688e-03
3.302133179045e-03
3.607457699642e-03
3.900033156638e-03
4.168853592734e-03
4.468725027676e-03
4.784064582219e-03
5.096146285474e-03
5.414979019943e-03
5.737154401002e-03
6.040028092198e-03
9.013893261434e-03
8.998103214813e-03
8.999539981293e-03
8.993873411135e-03
8.980918804753e-03
8.980740813836e-03
8.971494033050e-03
8.953169260198e-03
8.945470848744e-03
8.922957210672e-03
8.894451113921e-03
8.871473785213e-03
8.838926902814e-03
8.792837147132e-03
8.742725171182e-03
8.675895017602e-03
8.609364200296e-03
8.536265892830e-03
8.449952162386e-03
8.351041903882e-03
8.230186531487e-03
8.097689635929e-03
7.947658144039e-03
7.783006690060e-03
7.610245219782e-03
7.427476916024e-03
7.234934879921e-03
7.034711780401e-03
6.835595321990e-03
6.665679337278e-03
6.477360359932e-03
6.288891765350e-03
6.140575592156e-03
6.042199351098e-03
5.959954590236e-03
5.913059287107e-03
5.886950793571e-03
5.879504281486e-03
5.883565563427e-03
5.907876840585e-03
5.953802835115e-03
6.015271916021e-03
6.059083792464e-03
6.056275395646e-03
6.133835226643e-03
6.151675823933e-03
6.183931783742e-03
6.214574746901e-03
6.224971072281e-03
6.526204759094e-03
6.864040566644e-03
7.183746911844e-03
7.486182916470e-03
7.783775845501e-03
8.068532288441e-03
8.342048772445e-03
8.601896413926e-03
8.861606029017e-03
3.765921552952e-03
6.309904701835e-03
4.011710244432e-03
4.157571648167e-03
4.551455397889e-03
4.420608311496e-03
4.606367213291e-03
4.892324462160e-03
5.226717660239e-03
5.579963458791e-03
5.936977999177e-03
3.810305428722e-03
4.004566076375e-03
4.355629914593e-03
4.721707723369e-03
5.090161598173e-03
5.455302244676e-03
5.812781413558e-03
6.133759780901e-03
6.157286681607e-03
6.165654305429e-03
6.168530042365e-03
6.222438857744e-03
6.192725939085e-03
6.199409989811e-03
6.213806425572e-03
6.237807313257e-03
6.249434395689e-03
6.258215297191e-03
6.268086295292e-03
6.275774914378e-03
6.286966513647e-03
2.969314773797e-03
2.703512003795e-03
2.744461805542e-03
2.773568234432e-03
2.789200847987e-03
1.826145583410e-03
6.011977428786e-04
1.382874093430e-04
3.214523729524e-04
3.744719450914e-04
4.070344334411e-04
4.644228921136e-04
5.203929562364e-04
5.723221190564e-04
5.625083750249e-04
5.566231800049e-04
5.597515378979e-04
5.898461468982e-04
6.231976926902e-04
4.139176362765e-03
3.786301545731e-03
3.590015094010e-03
3.507814259532e-03
3.467077854445e-03
3.452603505258e-03
3.458535670889e-03
3.475117407704e-03
3.498767180769e-03
3.526407514759e-03
3.556158812365e-03
3.586469756975e-03
3.616308478205e-03
3.644890227881e-03
3.671640443531e-03
3.696162806986e-03
3.718202232788e-03
3.737577327661e-03
3.754153237656e-03
3.767845359861e-03
3.778666413951e-03
3.786742492874e-03
3.791588562727e-03
3.793291724370e-03
3.776622346700e-03
3.999203063275e-03
3.986411764254e-03
3.979556427325e-03
3.972255976411e-03
3.964273021429e-03
3.954873556457e-03
3.943648056167e-03
3.930484385709e-03
3.915467487456e-03
3.898779349902e-03
3.880691952339e-03
3.861586119775e-03
3.842067637171e-03
3.822945312986e-03
3.805274810978e-03
3.790346615044e-03
3.780248780982e-03
3.777238570616e-03
3.785444709330e-03
3.809054310341e-03
3.857068736722e-03
3.982797304800e-03
4.054570956359e-03
4.435325302346e-03
4.425088093788e-03
4.353482554760e-03
4.322378948357e-03
4.303045017226e-03
4.291196019108e-03
4.286592702737e-03
4.286424909943e-03
4.289715323244e-03
4.295262343216e-03
4.302063559583e-03
4.309285682117e-03
4.316541512214e-03
4.323521239430e-03
4.329967407577e-03
4.335728062660e-03
4.340860160337e-03
4.345692946873e-03
4.350590416066e-03
4.355381467266e-03
4.358217432121e-03
4.356824722608e-03
4.723455587864e-03
4.725268972936e-03
4.725012933065e-03
4.723983114765e-03
4.723100295045e-03
4.722644122432e-03
4.722468027615e-03
4.722353284676e-03
4.722415466183e-03
4.722989991977e-03
4.724215444562e-03
4.726153180587e-03
4.728939073841e-03
4.733817383238e-03
4.741386088801e-03
4.752756321140e-03
4.766723010422e-03
4.784969357045e-03
4.830039050498e-03
4.802412490434e-03
5.167678955664e-03
5.218115654160e-03
5.189527616859e-03
5.176926152972e-03
5.165300336791e-03
5.154518376006e-03
5.146063825780e-03
5.137597253342e-03
5.129717855145e-03
5.122511825518e-03
5.116603534387e-03
5.111604831416e-03
5.106725010085e-03
5.102618950710e-03
5.099345026191e-03
5.096867516331e-03
5.094623459913e-03
5.092576926263e-03
5.090978504676e-03
5.457321851829e-03
5.459040036224e-03
5.462604750663e-03
5.467517020391e-03
5.472877525359e-03
5.480064851386e-03
5.488096962761e-03
5.497062616442e-03
5.505434290971e-03
5.516334998662e-03
5.527830432453e-03
5.538961300346e-03
5.550511431030e-03
5.558938920884e-03
5.568371415170e-03
5.594601687141e-03
5.536924784671e-03
5.894841777634e-03
5.956634570756e-03
5.936946145662e-03
5.925035070635e-03
5.914210228320e-03
5.902027142402e-03
5.888419777111e-03
5.876454671679e-03
5.864682905113e-03
5.853494846499e-03
5.843508593143e-03
5.834743778137e-03
5.828741179828e-03
5.821445348122e-03
5.820008403532e-03
5.822116899011e-03
4.379630915155e-03
4.006570191508e-03
4.462617806413e-03
4.549326145528e-03
4.553672926453e-03
4.791402704693e-03
5.103964772507e-03
5.443033968416e-03
5.795956299075e-03
6.146862891516e-03
4.211559701546e-03
5.809041609247e-03
3.081447369994e-04
3.239366268734e-03
5.647533960000e-03
4.756043466078e-03
3.459441579188e-03
6.460860561478e-03
5.064355675153e-03
7.341466032138e-03
5.713922834092e-03
5.872922158199e-03
3.198377707263e-04
8.062876327598e-03
6.426185632524e-03
2.216863702138e-03
4.261116384413e-03
8.414618042075e-03
8.705462626286e-03
8.894273719236e-03
8.848410816198e-03
8.816110679446e-03
6.589591894951e-03
6.561238664878e-03
6.546313510557e-03
7.638703122107e-03
5.996328997020e-03
3.216353450179e-03
3.798852907215e-04
5.236638675343e-03
6.475030641036e-03
1.019346363775e-03
8.556311020855e-03
6.942217319242e-03
7.737166310735e-03
6.078257009534e-03
5.677804054084e-03
1.843120973146e-03
6.570544594707e-03
5.666476850128e-03
8.202858223444e-03
1.947395354066e-04
2.849674651443e-03
8.939207646494e-03
4.888141112231e-03
4.652476882939e-03
5.377586619049e-03
6.067474628864e-03
4.318422563304e-03
7.049970114981e-03
6.116809869902e-03
4.222774409214e-04
8.715180690197e-03
6.589053196569e-03
6.695803446363e-03
6.859595255543e-03
6.966542894752e-03
7.147640589024e-03
7.225676829294e-03
7.039014702547e-03
7.283539590631e-03
7.083236716281e-03
7.406945329266e-03
7.316580388753e-03
7.100500079048e-03
7.324022978853e-03
7.090422521896e-03
6.873592710066e-03
6.842560481420e-03
6.635611639550e-03
6.580376865781e-03
6.782520392492e-03
6.492118325551e-03
6.302768796964e-03
6.184000645664e-03
6.011732575622e-03
5.859034766755e-03
5.706805789588e-03
5.517175431999e-03
5.676075127122e-03
5.297086115603e-03
5.159942467545e-03
4.900126392564e-03
4.788710450771e-03
4.486519675430e-03
4.625360084166e-03
4.174621338975e-03
4.059195099999e-03
3.712061067347e-03
3.631526655749e-03
3.250262885465e-03
3.221319576825e-03
2.804280103807e-03
2.892691410782e-03
2.421609518466e-03
2.408833515312e-03
2.009232608857e-03
2.109416289202e-03
1.702102228755e-03
1.906593471065e-03
1.536607937117e-03
1.441907644696e-03
1.334936965100e-03
1.540293447359e-03
1.412414782675e-03
1.357230465581e-03
1.474927261499e-03
1.624504113970e-03
1.698762898246e-03
1.666214167526e-03
1.861316246957e-03
1.976135438823e-03
2.102336671157e-03
2.050022956699e-03
2.243712228136e-03
2.365382753098e-03
2.462830139013e-03
2.635872584374e-03
2.365181194073e-03
2.541391119498e-03
2.444762109905e-03
2.584468915519e-03
4.352750207672e-03
2.467238466719e-03
2.392016401445e-03
2.580803931361e-03
2.748374382074e-03
2.427972203228e-03
2.527502393133e-03
2.331448343869e-03
3.644987464981e-03
6.696189290179e-03
2.425760568268e-03
2.182272012121e-03
2.112942157496e-03
1.903144487522e-03
7.318605273092e-03
7.581137808645e-03
7.479813458820e-03
7.749258168776e-03
7.648214123838e-03
1.989471472408e-03
7.544949092627e-03
7.832997552751e-03
6.126964442167e-03
5.062399045743e-03
2.367602521648e-03
2.652532585610e-03
2.544430157902e-03
2.793954080472e-03
2.577526691680e-03
2.877796628409e-03
2.864041845288e-03
3.177245787652e-03
3.207001418598e-03
3.522048608013e-03
3.480070717762e-03
3.826197845211e-03
3.770230480213e-03
3.591188231520e-03
3.273796930718e-03
4.116498934300e-03
4.046213872640e-03
4.391523811395e-03
4.306773961187e-03
3.981474384000e-03
4.223929503707e-03
3.915760208602e-03
2.252596285549e-03
2.725613147955e-03
2.672857751808e-03
3.139364171100e-03
3.131104727078e-03
3.586457901200e-03
3.610817597979e-03
3.201037800485e-03
7.305706037164e-03
2.116344938056e-03
2.573632337630e-03
2.434466156247e-03
2.910162029606e-03
2.928241242975e-03
3.385949738610e-03
3.554320779560e-03
3.113776492283e-03
3.868702988003e-03
3.421685729226e-03
4.217247785820e-03
3.782424989235e-03
5.472864262672e-03
3.630209659778e-03
4.065713743926e-03
4.127724783136e-03
1.844470419027e-03
4.550866055266e-03
3.698397691659e-03
3.388216581613e-03
3.703632887344e-03
1.660743735451e-03
3.939310447261e-03
3.813174080193e-03
7.908734072397e-03
7.804853832500e-03
3.851103073459e-03
1.766342337440e-03
4.201649214002e-03
4.503552424621e-03
4.450779264350e-03
4.776860033604e-03
3.453666966257e-03
4.554060581551e-03
4.621087560048e-03
2.983395569299e-03
3.315956290420e-03
3.956372210481e-03
3.501490165758e-03
2.907948472452e-03
3.101248780507e-03
3.487519771243e-03
3.134300826819e-03
2.781030660829e-03
2.809262460445e-03
2.916930199154e-03
2.648898536983e-03
4.891229963113e-03
4.643271078657e-03
6.656711312494e-03
4.147019348413e-03
4.105847233016e-03
8.062139880086e-03
7.956308579607e-03
7.685885536953e-03
7.838661235608e-03
8.102876378348e-03
7.986422559125e-03
7.711016723428e-03
7.860350051200e-03
7.574277843287e-03
7.726603537414e-03
8.006720856291e-03
7.876103287309e-03
7.587255182774e-03
7.740027826920e-03
7.442750310011e-03
7.597586593908e-03
7.890461332224e-03
1.403555955777e-03
3.339835883078e-03
3.858377175712e-03
2.684905942616e-03
2.942039362947e-03
3.042060943245e-03
3.212004993110e-03
7.750649414280e-03
8.039870037125e-03
4.246195633886e-03
4.176354805062e-03
8.153985302025e-03
4.662085175997e-03
4.348241311189e-03
4.726437709023e-03
5.000477626142e-03
4.708738381649e-03
4.966269206474e-03
5.217300436402e-03
4.732644538047e-03
2.951539023297e-03
8.150363987382e-03
2.080294410192e-03
1.820842479116e-03
4.986457511495e-03
2.839275912000e-03
5.867509626415e-03
5.685171014262e-03
6.089955550137e-03
5.930953391556e-03
6.341537479297e-03
6.208180591094e-03
5.778863928037e-03
5.039479011851e-03
6.089942202419e-03
7.446480101531e-03
3.734375649945e-03
2.544553059571e-03
1.289073714321e-03
2.499267426068e-03
1.518441367335e-03
1.888703452535e-03
4.331950088695e-03
6.621815993538e-03
6.726304180288e-03
5.151610282289e-03
5.365173185934e-03
5.002836447792e-03
7.368703041603e-03
7.419777742978e-03
7.270663858930e-03
1.074584832087e-03
2.773868502366e-03
8.245502351920e-03
3.824488048465e-03
4.203735950175e-03
4.681935795784e-03
4.599743360943e-03
7.898992085194e-03
8.180139066744e-03
3.297707079720e-03
3.483173385452e-03
4.056211745684e-03
2.335306234616e-03
8.312163916230e-03
3.033447888106e-03
2.546324702164e-03
3.100179510379e-03
4.429699549782e-03
4.463517311358e-03
2.400789898071e-03
2.444395795887e-03
1.657669198335e-03
4.562953019127e-03
8.348786781658e-03
5.645963828907e-03
5.328325137920e-03
5.991209110500e-03
2.017520578587e-03
4.623292244088e-03
4.858248444912e-03
6.998273237933e-03
7.082538165136e-03
3.953476854168e-03
4.322611626831e-03
4.512675311903e-03
4.635807467564e-03
6.844665973040e-03
4.162248149934e-03
6.432070918472e-03
6.436369563856e-03
6.226082328862e-03
5.467929690715e-03
5.576881183770e-03
3.052807121073e-03
2.871024940281e-03
3.111385955515e-03
3.679480779044e-03
2.543335474406e-03
8.270138185812e-03
8.410507595965e-03
7.283382993373e-03
7.128255728627e-03
1.500037534238e-03
1.463336842848e-03
2.906446142850e-03
4.442004161994e-03
8.300197921036e-03
8.381113704478e-03
8.230806445013e-03
4.304790805008e-03
1.991968132169e-03
2.252581943733e-03
4.593011830681e-03
4.815360312732e-03
1.072832456476e-03
6.993392228181e-03
5.180341418030e-03
5.316348304224e-03
5.471891953152e-03
6.520841270980e-03
4.586266192125e-03
4.100688882670e-03
6.206818029410e-03
6.012372403619e-03
6.011786139132e-03
5.813284543522e-03
2.298415024164e-03
2.411051843629e-03
6.955883479110e-03
6.428553016429e-03
7.345364436848e-03
7.417719653292e-03
5.466715332335e-03
5.004199921970e-03
2.015843892287e-03
5.429978215275e-03
8.486700196511e-03
6.400845072695e-03
4.899685537068e-03
4.735204223306e-03
4.464846174248e-03
4.437857239863e-03
8.452735252388e-03
4.746163803691e-03
4.842730512447e-03
4.611251798014e-03
5.877807645036e-03
6.453074180870e-03
5.504850262407e-03
5.715439123785e-03
8.577630975437e-03
4.387135480879e-03
4.387486827665e-03
3.791247532975e-03
8.308164043503e-03
8.599338112253e-03
7.108959062074e-03
6.944328043011e-03
7.252271030202e-03
4.614262045567e-03
4.660286168030e-03
8.291692638055e-03
2.402940902561e-03
2.567548901281e-03
2.196630610684e-03
2.311850306023e-03
3.360913429634e-03
3.152650500478e-03
6.916404327949e-03
7.219380324343e-03
6.241060849362e-03
2.794474884434e-03
2.340915066664e-03
2.089723060348e-03
8.512402790792e-03
8.674340544729e-03
2.094362726718e-03
2.158024117666e-03
2.284396408387e-03
8.580267791419e-03
5.645898175606e-03
5.452861125460e-03
9.872213840543e-04
1.438904339290e-03
4.455809414558e-03
4.474230706375e-03
8.438461691158e-03
8.294780694595e-03
8.601899340066e-03
1.768477922944e-03
5.193127065431e-03
4.821293372608e-03
4.594799822638e-03
5.141901575768e-03
5.502128390266e-03
5.914354986343e-03
6.373733993332e-03
4.315872979507e-03
8.506622089969e-03
6.947415544868e-03
3.904185151681e-03
6.786474820402e-03
6.968598158662e-03
6.606564578597e-03
1.384020459834e-03
6.888350009602e-03
7.088068146135e-03
7.685264511003e-04
8.706170066943e-03
5.975925352275e-04
7.153859691396e-04
5.172937404600e-03
5.009079168811e-03
5.422780259046e-03
5.256700716073e-03
4.869765310319e-03
5.133789822836e-03
6.772672792513e-03
5.554712875485e-03
5.385478748937e-03
5.797149848314e-03
5.785506743427e-03
4.794413018758e-03
4.956173814434e-03
4.874371659973e-03
7.714470725475e-03
7.702083027891e-03
5.046575381471e-03
4.730358363227e-03
6.790110626954e-03
6.763354948363e-03
7.062914889496e-03
7.017505392096e-03
7.309393562479e-03
7.258670795286e-03
7.547554934283e-03
6.841578032677e-03
4.732162739901e-03
6.150420063033e-03
5.494824119558e-03
5.024183053455e-03
5.616378773294e-03
5.420298853253e-03
5.177366732200e-03
3.759168005377e-03
8.813001263663e-03
3.704903931997e-03
4.355415871664e-03
4.053180417026e-03
5.793300833660e-03
4.956944292310e-03
5.087422986588e-03
3.280557604128e-03
1.441802196464e-03
4.508625800290e-03
7.587503307312e-03
4.415996751526e-03
4.918889652194e-03
3.314021912926e-03
5.578728156300e-03
4.445768902297e-03
4.518069502191e-03
6.873989808179e-03
6.785699798402e-03
6.595533434012e-03
2.853927907839e-03
5.260272614533e-03
5.082355991074e-03
6.386495133899e-03
8.070738486567e-03
8.126835170105e-03
8.330545774784e-03
8.165496019165e-03
7.948436297856e-03
7.978618809433e-03
8.189494103847e-03
7.996421017595e-03
8.245690009086e-03
7.987897748256e-03
7.766569531670e-03
7.746745401101e-03
7.951054471287e-03
7.525010839609e-03
5.959939401914e-03
4.015964125472e-03
4.512998961731e-03
4.696568920114e-03
5.857227872352e-03
8.496562239595e-03
8.654658778473e-03
3.385689700871e-03
7.907290410221e-03
6.642606759705e-03
4.206114838757e-03
7.548381937873e-03
7.900108460970e-03
7.715667750426e-03
7.658105132302e-03
8.755302866620e-03
7.396696813184e-03
6.736674169329e-03
3.227091839091e-03
3.384796622769e-03
3.096253504357e-03
7.769189185394e-03
5.935073995443e-03
5.376711521586e-03
5.271292913534e-03
4.816105433352e-03
5.718983880210e-03
8.325770449638e-03
8.214070989921e-03
2.601990294816e-03
2.329103297626e-03
1.861761449790e-03
2.018008284521e-03
2.611039131952e-03
2.296168009341e-03
1.751500301103e-03
2.675581596142e-03
7.459590310859e-03
5.650993311657e-03
2.883541341418e-03
2.555423928745e-03
2.220209543766e-03
2.926741439026e-03
2.943167639461e-03
3.170666448945e-03
2.877867090801e-03
5.500200243784e-03
5.641545494086e-03
2.357786891044e-03
2.736919033745e-03
6.587171176428e-03
6.868588093035e-03
6.874005934473e-03
7.158980963184e-03
6.896934358436e-03
3.564640443502e-03
3.759453581329e-03
3.660074960473e-03
3.943153956902e-03
3.819588784113e-03
3.555217058250e-03
4.111239176140e-03
3.951005941607e-03
6.565655054291e-03
2.829803027154e-03
3.242229076590e-03
2.359201313395e-03
3.245333601076e-03
3.861855167188e-03
3.599665255011e-03
4.172258513453e-03
3.983264893624e-03
9.992494754241e-04
1.665163486514e-03
5.320481946672e-04
1.181558308558e-03
2.072662367849e-03
1.852379203763e-03
5.996583606558e-03
3.147018269449e-03
2.996551758381e-03
2.707258197438e-03
2.849422079218e-03
3.256800131251e-03
2.542470548576e-03
2.423242126279e-03
3.945502668236e-04
3.230004870305e-04
3.105002012015e-04
6.251849374849e-04
6.235526031767e-04
3.259239845996e-04
3.304504183049e-04
3.624317408170e-04
3.461294966838e-04
7.012345484496e-04
3.472419779168e-04
7.931205025944e-03
8.086479207495e-03
5.668799894989e-03
6.574592932014e-03
2.110146656875e-04
8.861305302960e-03
8.880120301663e-03
8.891542585838e-03
5.561754814692e-03
5.703306967459e-03
8.873229470387e-03
2.270919704929e-03
8.366249459691e-03
8.431535027056e-03
4.405587941629e-03
2.417136654703e-03
4.544506192864e-03
3.724624604093e-03
5.111924356203e-03
4.138947112463e-03
4.650448378943e-03
5.161193608673e-03
1.266287208519e-03
7.429718066491e-03
7.292559112663e-03
8.023346327843e-03
2.281243249825e-03
3.390978124508e-03
1.571509171821e-03
7.365366190900e-03
6.200123779168e-03
2.274362279797e-03
2.721329573635e-03
2.366587398495e-03
2.562854890726e-03
4.406280940220e-03
2.695059614898e-03
3.901396841808e-03
8.168904693453e-03
2.256252978894e-04
4.005203613528e-03
3.170623967277e-03
7.557713118169e-03
4.056167360415e-03
3.249259713344e-03
8.130061839757e-03
8.511658754161e-03
7.232523490887e-03
1.164694396950e-03
7.114626584901e-03
4.833961843837e-03
7.997993216066e-03
2.099146273762e-03
1.840693521373e-03
5.390636333047e-03
6.243950087699e-03
8.538690800657e-03
3.872572971745e-03
4.226852336011e-03
2.714332528151e-03
2.226798766286e-03
4.600196297397e-03
2.589300994002e-03
8.384205999397e-03
6.471186956390e-03
1.720907728433e-03
8.207479836442e-03
1.906830031786e-03
4.526291008154e-03
5.960601760422e-03
6.036609802775e-03
7.052678503664e-03
5.058735603308e-03
4.419441079580e-03
4.308154447644e-03
4.413413368818e-03
4.427894284392e-03
7.528187601396e-03
6.506174264723e-03
8.620495093782e-03
5.293380970554e-03
4.485846770105e-03
8.437023953380e-03
2.932879556165e-03
1.483748356386e-03
4.603964683650e-03
2.473206087478e-03
3.383515557829e-03
3.172828110532e-03
8.510779215018e-03
4.754262050781e-03
3.559805126232e-03
4.145632692130e-03
6.335109492255e-03
5.007748796690e-03
1.911341325766e-03
4.540747114525e-03
3.675480030428e-03
7.138293056886e-03
5.601987379581e-03
5.249331246025e-03
3.545005965490e-03
3.524390755800e-03
6.468291124089e-03
5.658198479355e-03
4.071965112963e-03
5.259940029388e-03
1.690938149416e-03
5.889360051975e-03
3.431681390576e-03
6.376516299938e-03
8.791489498739e-03
4.384844483413e-03
7.473847605742e-03
3.403111119912e-03
4.233003208865e-03
6.434454512310e-04
5.969804450731e-03
3.628468155277e-03
2.063613524170e-03
1.937582342082e-03
5.923768048522e-03
3.843995092142e-03
1.629288240839e-03
4.047352291639e-03
5.542983611685e-03
7.521753026927e-03
4.238766939900e-03
6.589900690690e-03
8.027757149263e-04
5.051126867682e-03
5.371218778776e-03
2.339704566525e-03
2.234349227949e-03
7.753983554966e-03
5.218705507906e-03
2.634945819504e-03
6.825933155577e-03
4.867699584589e-03
3.603776105884e-03
3.081814736324e-03
5.259328345112e-03
2.257728522985e-03
2.102302886733e-03
1.404244805440e-03
7.158673002714e-03
9.879773584556e-04
7.545701671772e-03
1.913097909996e-03
1.577837738579e-03
5.103410133960e-03
7.355168421507e-03
1.557186401587e-03
1.864994312532e-03
1.830140074030e-03
3.890701975000e-03
1.903143748619e-03
2.122094986665e-03
8.677918552627e-03
2.219768007000e-03
8.915951002984e-03
6.060222562784e-03
6.719340839656e-03
4.903495898801e-03
3.072826988704e-03
5.011712976377e-03
2.367403772858e-03
7.268166571896e-03
6.735319390142e-03
2.360157583688e-03
8.179901009289e-03
7.151599347616e-03
7.793252326875e-03
4.609861650306e-03
4.725324130368e-03
8.451456657961e-03
6.471950965396e-03
8.858045196334e-04
4.603325966303e-03
4.745119169790e-03
4.845862152755e-03
4.549810076433e-03
2.335240542475e-03
2.583348500336e-03
4.721199977896e-03
5.480400185731e-03
6.817792650135e-03
5.553330238389e-03
4.397654937055e-03
8.644374604567e-03
6.416631335926e-03
5.816264602857e-03
5.944120968841e-03
4.388820983303e-03
7.107334984243e-03
7.562842217984e-03
8.023500461041e-03
5.930158220612e-03
6.799534358181e-03
8.711618951405e-03
4.378966580983e-03
8.715342777904e-03
7.495475051331e-03
7.148475794068e-03
7.075432209948e-03
5.829928185260e-03
8.378896451286e-03
4.484477475411e-03
7.781104584539e-03
2.832960245975e-03
4.179647938449e-03
5.315356592438e-03
7.715288671123e-03
5.750100484330e-03
6.015949795471e-04
4.640946113373e-04
5.284794912984e-03
7.959067487399e-03
3.891505171546e-03
8.892969683288e-03
4.464925195603e-03
6.458442356319e-03
3.490864034183e-04
5.987749053589e-03
8.710902942854e-03
3.115281032440e-03
6.594752321689e-03
2.112962089666e-03
6.767241487263e-03
1.564740217524e-03
8.742648567022e-03
5.286334872255e-03
8.608137197261e-03
6.421934447979e-03
4.052913363146e-03
6.751251513673e-03
4.841415130859e-03
6.455971072664e-03
8.486768400206e-03
2.587971205485e-03
1.064615949772e-03
8.941379079348e-03
4.975577459348e-04
6.416489811742e-03
6.138384394913e-03
9.165821546964e-04
6.961394234215e-03
8.100664137476e-03
3.764420569470e-03
8.296927597448e-03
3.116451598860e-03
3.069114338779e-03
7.518161162725e-03
6.281897386184e-03
8.682959343135e-03
7.316664937893e-03
4.583476920303e-03
7.896249323090e-03
3.321285897737e-03
7.264719939934e-03
5.051718123103e-03
4.240297386242e-03
4.018813486913e-03
3.414457542697e-04
5.581268302156e-03
3.465208076084e-03
4.184986181193e-03
3.828608627640e-03
4.386426454526e-03
4.187192034387e-03
4.687753613597e-03
4.527645244659e-03
5.029985121214e-03
4.916941484269e-03
5.384014930531e-03
5.263265514898e-03
5.745752453122e-03
5.647475437299e-03
6.097048912505e-03
5.985888312966e-03


CELL_DATA 2241

SCALARS element_number int
LOOKUP_TABLE default
407
408
409
410
411
412
413
414
415
416
417
418
419
420
421
422
423
424
425
426
427
428
429
430
431
432
433
434
435
436
437
438
439
440
441
442
443
444
445
446
447
448
449
450
451
452
453
454
455
456
457
458
459
460
461
462
463
464
465
466
467
468
469
470
471
472
473
474
475
476
477
478
479
480
481
482
483
484
485
486
487
488
489
490
491
492
493
494
495
496
497
498
499
500
501
502
503
504
505
506
507
508
509
510
511
512
513
514
515
516
517
518
519
520
521
522
523
524
525
526
527
528
529
530
531
532
533
534
535
536
537
538
539
540
541
542
543
544
545
546
547
548
549
550
551
552
553
554
555
556
557
558
559
560
561
562
563
564
565
566
567
568
569
570
571
572
573
574
575
576
577
578
579
580
581
582
583
584
585
586
587
588
589
590
591
592
593
594
595
596
597
598
599
600
601
602
603
604
605
606
607
608
609
610
611
612
613
614
615
616
617
618
619
620
621
622
623
624
625
626
627
628
629
630
631
632
633
634
635
636
637
638
639
640
641
642
643
644
645
646
647
648
649
650
651
652
653
654
655
656
657
658
659
660
661
662
663
664
665
666
667
668
669
670
671
672
673
674
675
676
677
678
679
680
681
682
683
684
685
686
687
688
689
690
691
692
693
694
695
696
697
698
699
700
701
702
703
704
705
706
707
708
709
710
711
712
713
714
715
716
717
718
719
720
721
722
723
724
725
726
727
728
729
730
731
732
733
734
735
736
737
738
739
740
741
742
743
744
745
746
747
748
749
750
751
752
753
754
755
756
757
758
759
760
761
762
763
764
765
766
767
768
769
770
771
772
773
774
775
776
777
778
779
780
781
782
783
784
785
786
787
788
789
790
791
792
793
794
795
796
797
798
799
800
801
802
803
804
805
806
807
808
809
810
811
812
813
814
815
816
817
818
819
820
821
822
823
824
825
826
827
828
829
830
831
832
833
834
835
836
837
838
839
840
841
842
843
844
845
846
847
848
849
850
851
852
853
854
855
856
857
858
859
860
861
862
863
864
865
866
867
868
869
870
871
872
873
874
875
876
877
878
879
880
881
882
883
884
885
886
887
888
889
890
891
892
893
894
895
896
897
898
899
900
901
902
903
904
905
906
907
908
909
910
911
912
913
914
915
916
917
918
919
920
921
922
923
924
925
926
927
928
929
930
931
932
933
934
935
936
937
938
939
940
941
942
943
944
945
946
947
948
949
950
951
952
953
954
955
956
957
958
959
960
961
962
963
964
965
966
967
968
969
970
971
972
973
974
975
976
977
978
979
980
981
982
983
984
985
986
987
988
989
990
991
992
993
994
995
996
997
998
999
1000
1001
1002
1003
1004
1005
1006
1007
1008
1009
1010
1011
1012
1013
1014
1015
1016
1017
1018
1019
1020
1021
1022
1023
1024
1025
1026
1027
1028
1029
1030
1031
1032
1033
1034
1035
1036
1037
1038
1039
1040
1041
1042
1043
1044
1045
1046
1047
1048
1049
1050
1051
1052
1053
1054
1055
1056
1057
1058
1059
1060
1061
1062
1063
1064
1065
1066
1067
1068
1069
1070
1071
1072
1073
1074
1075
1076
1077
1078
1079
1080
1081
1082
1083
1084
1085
1086
1087
1088
1089
1090
1091
1092
1093
1094
1095
1096
1097
1098
1099
1100
1101
1102
1103
1104
1105
1106
1107
1108
1109
1110
1111
1112
1113
1114
1115
1116
1117
1118
1119
1120
1121
1122
1123
1124
1125
1126
1127
1128
1129
1130
1131
1132
1133
1134
1135
1136
1137
1138
1139
1140
1141
1142
1143
1144
1145
1146
1147
1148
1149
1150
1151
1152
1153
1154
1155
1156
1157
1158
1159
1160
1161
1162
1163
1164
1165
1166
1167
1168
1169
1170
1171
1172
1173
1174
1175
1176
1177
1178
1179
1180
1181
1182
1183
1184
1185
1186
1187
1188
1189
1190
1191
1192
1193
1194
1195
1196
1197
1198
1199
1200
1201
1202
1203
1204
1205
1206
1207
1208
1209
1210
1211
1212
1213
1214
1215
1216
1217
1218
1219
1220
1221
1222
1223
1224
1225
1226
1227
1228
1229
1230
1231
1232
1233
1234
1235
1236
1237
1238
1239
1240
1241
1242
1243
1244
1245
1246
1247
1248
1249
1250
1251
1252
1253
1254
1255
1256
1257
1258
1259
1260
1261
1262
1263
1264
1265
1266
1267
1268
1269
1270
1271
1272
1273
1274
1275
1276
1277
1278
1279
1280
1281
1282
1283
1284
1285
1286
1287
1288
1289
1290
1291
1292
1293
1294
1295
1296
1297
1298
1299
1300
1301
1302
1303
1304
1305
1306
1307
1308
1309
1310
1311
1312
1313
1314
1315
1316
1317
1318
1319
1320
1321
1322
1323
1324
1325
1326
1327
1328
1329
1330
1331
1332
1333
1334
1335
1336
1337
1338
1339
1340
1341
1342
1343
1344
1345
1346
1347
1348
1349
1350
1351
1352
1353
1354
1355
1356
1357
1358
1359
1360
1361
1362
1363
1364
1365
1366
1367
1368
1369
1370
1371
1372
1373
1374
1375
1376
1377
1378
1379
1380
1381
1382
1383
1384
1385
1386
1387
1388
1389
1390
1391
1392
1393
1394
1395
1396
1397
1398
1399
1400
1401
1402
1403
1404
1405
1406
1407
1408
1409
1410
1411
1412
1413
1414
1415
1416
1417
1418
1419
1420
1421
1422
1423
1424
1425
1426
1427
1428
1429
1430
1431
1432
1433
1434
1435
1436
1437
1438
1439
1440
1441
1442
1443
1444
1445
1446
1447
1448
1449
1450
1451
1452
1453
1454
1455
1456
1457
1458
1459
1460
1461
1462
1463
1464
1465
1466
1467
1468
1469
1470
1471
1472
1473
1474
1475
1476
1477
1478
1479
1480
1481
1482
1483
1484
1485
1486
1487
1488
1489
1490
1491
1492
1493
1494
1495
1496
1497
1498
1499
1500
1501
1502
1503
1504
1505
1506
1507
1508
1509
1510
1511
1512
1513
1514
1515
1516
1517
1518
1519
1520
1521
1522
1523
1524
1525
1526
1527
1528
1529
1530
1531
1532
1533
1534
1535
1536
1537
1538
1539
1540
1541
1542
1543
1544
1545
1546
1547
1548
1549
1550
1551
1552
1553
1554
1555
1556
1557
1558
1559
1560
1561
1562
1563
1564
1565
1566
1567
1568
1569
1570
1571
1572
1573
1574
1575
1576
1577
1578
1579
1580
1581
1582
1583
1584
1585
1586
1587
1588
1589
1590
1591
1592
1593
1594
1595
1596
1597
1598
1599
1600
1601
1602
1603
1604
1605
1606
1607
1608
1609
1610
1611
1612
1613
1614
1615
1616
1617
1618
1619
1620
1621
1622
1623
1624
1625
1626
1627
1628
1629
1630
1631
1632
1633
1634
1635
1636
1637
1638
1639
1640
1641
1642
1643
1644
1645
1646
1647
1648
1649
1650
1651
1652
1653
1654
1655
1656
1657
1658
1659
1660
1661
1662
1663
1664
1665
1666
1667
1668
1669
1670
1671
1672
1673
1674
1675
1676
1677
1678
1679
1680
1681
1682
1683
1684
1685
1686
1687
1688
1689
1690
1691
1692
1693
1694
1695
1696
1697
1698
1699
1700
1701
1702
1703
1704
1705
1706
1707
1708
1709
1710
1711
1712
1713
1714
1715
1716
1717
1718
1719
1720
1721
1722
1723
1724
1725
1726
1727
1728
1729
1730
1731
1732
1733
1734
1735
1736
1737
1738
1739
1740
1741
1742
1743
1744
1745
1746
1747
1748
1749
1750
1751
1752
1753
1754
1755
1756
1757
1758
1759
1760
1761
1762
1763
1764
1765
1766
1767
1768
1769
1770
1771
1772
1773
1774
1775
1776
1777
1778
1779
1780
1781
1782
1783
1784
1785
1786
1787
1788
1789
1790
1791
1792
1793
1794
1795
1796
1797
1798
1799
1800
1801
1802
1803
1804
1805
1806
1807
1808
1809
1810
1811
1812
1813
1814
1815
1816
1817
1818
1819
1820
1821
1822
1823
1824
1825
1826
1827
1828
1829
1830
1831
1832
1833
1834
1835
1836
1837
1838
1839
1840
1841
1842
1843
1844
1845
1846
1847
1848
1849
1850
1851
1852
1853
1854
1855
1856
1857
1858
1859
1860
1861
1862
1863
1864
1865
1866
1867
1868
1869
1870
1871
1872
1873
1874
1875
1876
1877
1878
1879
1880
1881
1882
1883
1884
1885
1886
1887
1888
1889
1890
1891
1892
1893
1894
1895
1896
1897
1898
1899
1900
1901
1902
1903
1904
1905
1906
1907
1908
1909
1910
1911
1912
1913
1914
1915
1916
1917
1918
1919
1920
1921
1922
1923
1924
1925
1926
1927
1928
1929
1930
1931
1932
1933
1934
1935
1936
1937
1938
1939
1940
1941
1942
1943
1944
1945
1946
1947
1948
1949
1950
1951
1952
1953
1954
1955
1956
1957
1958
1959
1960
1961
1962
1963
1964
1965
1966
1967
1968
1969
1970
1971
1972
1973
1974
1975
1976
1977
1978
1979
1980
1981
1982
1983
1984
1985
1986
1987
1988
1989
1990
1991
1992
1993
1994
1995
1996
1997
1998
1999
2000
2001
2002
2003
2004
2005
2006
2007
2008
2009
2010
2011
2012
2013
2014
2015
2016
2017
2018
2019
2020
2021
2022
2023
2024
2025
2026
2027
2028
2029
2030
2031
2032
2033
2034
2035
2036
2037
2038
2039
2040
2041
2042
2043
2044
2045
2046
2047
2048
2049
2050
2051
2052
2053
2054
2055
2056
2057
2058
2059
2060
2061
2062
2063
2064
2065
2066
2067
2068
2069
2070
2071
2072
2073
2074
2075
2076
2077
2078
2079
2080
2081
2082
2083
2084
2085
2086
2087
2088
2089
2090
2091
2092
2093
2094
2095
2096
2097
2098
2099
2100
2101
2102
2103
2104
2105
2106
2107
2108
2109
2110
2111
2112
2113
2114
2115
2116
2117
2118
2119
2120
2121
2122
2123
2124
2125
2126
2127
2128
2129
2130
2131
2132
2133
2134
2135
2136
2137
2138
2139
2140
2141
2142
2143
2144
2145
2146
2147
2148
2149
2150
2151
2152
2153
2154
2155
2156
2157
2158
2159
2160
2161
2162
2163
2164
2165
2166
2167
2168
2169
2170
2171
2172
2173
2174
2175
2176
2177
2178
2179
2180
2181
2182
2183
2184
2185
2186
2187
2188
2189
2190
2191
2192
2193
2194
2195
2196
2197
2198
2199
2200
2201
2202
2203
2204
2205
2206
2207
2208
2209
2210
2211
2212
2213
2214
2215
2216
2217
2218
2219
2220
2221
2222
2223
2224
2225
2226
2227
2228
2229
2230
2231
2232
2233
2234
2235
2236
2237
2238
2239
2240
2241
2242
2243
2244
2245
2246
2247
2248
2249
2250
2251
2252
2253
2254
2255
2256
2257
2258
2259
2260
2261
2262
2263
2264
2265
2266
2267
2268
2269
2270
2271
2272
2273
2274
2275
2276
2277
2278
2279
2280
2281
2282
2283
2284
2285
2286
2287
2288
2289
2290
2291
2292
2293
2294
2295
2296
2297
2298
2299
2300
2301
2302
2303
2304
2305
2306
2307
2308
2309
2310
2311
2312
2313
2314
2315
2316
2317
2318
2319
2320
2321
2322
2323
2324
2325
2509
2510
2511
2512
2513
2514
2515
2516
2517
2518
2519
2520
2521
2522
2523
2524
2525
2526
2527
2528
2529
2530
2531
2532
2533
2534
2535
2536
2537
2538
2539
2540
2541
2542
2543
2544
2545
2546
2547
2548
2549
2550
2551
2552
2553
2554
2555
2556
2557
2558
2559
2560
2561
2562
2563
2564
2565
2566
2567
2568
2569
2570
2571
2572
2573
2574
2575
2576
2577
2578
2579
2580
2581
2582
2583
2584
2585
2586
2587
2588
2589
2590
2591
2592
2593
2594
2595
2596
2597
2598
2599
2600
2601
2602
2603
2604
2605
2606
2607
2608
2609
2610
2611
2612
2613
2614
2615
2616
2617
2618
2619
2620
2621
2622
2623
2624
2625
2626
2627
2628
2629
2630
2631
2632
2633
2634
2635
2636
2637
2638
2639
2640
2641
2642
2643
2644
2645
2646
2647
2648
2649
2650
2651
2652
2653
2654
2655
2656
2657
2658
2659
2660
2661
2662
2663
2664
2665
2666
2667
2668
2669
2670
2671
2672
2673
2674
2675
2676
2677
2678
2679
2680
2681
2682
2683
2684
2685
2686
2687
2688
2689
2690
2691
2692
2693
2694
2695
2696
2697
2698
2699
2700
2701
2702
2703
2704
2705
2706
2707
2708
2709
2710
2711
2712
2713
2714
2715
2716
2717
2718
2719
2720
2721
2722
2723
2724
2725
2726
2727
2728
2729
2730
2731
2732
2733
2734
2735
2736
2737
2738
2739
2740
2741
2742
2743
2744
2745
2746
2747
2748
2749
2750
2751
2752
2753
2754
2755
2756
2757
2758
2759
2760
2761
2762
2763
2764
2765
2766
2767
2768
2769
2770
2771
2772
2773
2774
2775
2776
2777
2778
2779
2780
2781
2782
2783
2784
2785
2786
2787
2788
2789
2790
2791
2792
2793
2794
2795
2796
2797
2798
2799
2800
2801
2802
2803
2804
2805
2806
2807
2808
2809
2810
2811
2812
2813
2814
2815
2816
2817
2818
2819
2820
2821
2822
2823
2824
2825
2826
2827
2828
2829
2830

SCALARS element_group int
LOOKUP_TABLE default
0
0
0
0
0
0
0
0
0
0
0
0
0
0
0
0
0
0
0
0
0
0
0
0
0
0
0
0
0
0
0
0
0
0
0
0
0
0
0
0
0
0
0
0
0
0
0
0
0
0
0
0
0
0
0
0
0
0
0
0
0
0
0
0
0
0
0
0
0
0
0
0
0
0
0
0
0
0
0
0
0
0
0
0
0
0
0
0
0
0
0
0
0
0
0
0
0
0
0
0
0
0
0
0
0
0
0
0
0
0
0
0
0
0
0
0
0
0
0
0
0
0
0
0
0
0
0
0
0
0
0
0
0
0
0
0
0
0
0
0
0
0
0
0
0
0
0
0
0
0
0
0
0
0
0
0
0
0
0
0
0
0
0
0
0
0
0
0
0
0
0
0
0
0
0
0
0
0
0
0
0
0
0
0
0
0
0
0
0
0
0
0
0
0
0
0
0
0
0
0
0
0
0
0
0
0
0
0
0
0
0
0
0
0
0
0
0
0
0
0
0
0
0
0
0
0
0
0
0
0
0
0
0
0
0
0
0
0
0
0
0
0
0
0
0
0
0
0
0
0
0
0
0
0
0
0
0
0
0
0
0
0
0
0
0
0
0
0
0
0
0
0
0
0
0
0
0
0
0
0
0
0
0
0
0
0
0
0
0
0
0
0
0
0
0
0
0
0
0
0
0
0
0
0
0
0
0
0
0
0
0
0
0
0
0
0
0
0
0
0
0
0
0
0
0
0
0
0
0
0
0
0
0
0
0
0
0
0
0
0
0
0
0
0
0
0
0
0
0
0
0
0
0
0
0
0
0
0
0
0
0
0
0
0
0
0
0
0
0
0
0
0
0
0
0
0
0
0
0
0
0
0
0
0
0
0
0
0
0
0
0
0
0
0
0
0
0
0
0
0
0
0
0
0
0
0
0
0
0
0
0
0
0
0
0
0
0
0
0
0
0
0
0
0
0
0
0
0
0
0
0
0
0
0
0
0
0
0
0
0
0
0
0
0
0
0
0
0
0
0
0
0
0
0
0
0
0
0
0
0
0
0
0
0
0
0
0
0
0
0
0
0
0
0
0
0
0
0
0
0
0
0
0
0
0
0
0
0
0
0
0
0
0
0
0
0
0
0
0
0
0
0
0
0
0
0
0
0
0
0
0
0
0
0
0
0
0
0
0
0
0
0
0
0
0
0
0
0
0
0
0
0
0
0
0
0
0
0
0
0
0
0
0
0
0
0
0
0
0
0
0
0
0
0
0
0
0
0
0
0
0
0
0
0
0
0
0
0
0
0
0
0
0
0
0
0
0
0
0
0
0
0
0
0
0
0
0
0
0
0
0
0
0
0
0
0
0
0
0
0
0
0
0
0
0
0
0
0
0
0
0
0
0
0
0
0
0
0
0
0
0
0
0
0
0
0
0
0
0
0
0
0
0
0
0
0
0
0
0
0
0
0
0
0
0
0
0
0
0
0
0
0
0
0
0
0
0
0
0
0
0
0
0
0
0
0
0
0
0
0
0
0
0
0
0
0
0
0
0
0
0
0
0
0
0
0
0
0
0
0
0
0
0
0
0
0
0
0
0
0
0
0
0
0
0
0
0
0
0
0
0
0
0
0
0
0
0
0
0
0
0
0
0
0
0
0
0
0
0
0
0
0
0
0
0
0
0
0
0
0
0
0
0
0
0
0
0
0
0
0
0
0
0
0
0
0
0
0
0
0
0
0
0
0
0
0
0
0
0
0
0
0
0
0
0
0
0
0
0
0
0
0
0
0
0
0
0
0
0
0
0
0
0
0
0
0
0
0
0
0
0
0
0
0
0
0
0
0
0
0
0
0
0
0
0
0
0
0
0
0
0
0
0
0
0
0
0
0
0
0
0
0
0
0
0
0
0
0
0
0
0
0
0
0
0
0
0
0
0
0
0
0
0
0
0
0
0
0
0
0
0
0
0
0
0
0
0
0
0
0
0
0
0
0
0
0
0
0
0
0
0
0
0
0
0
0
0
0
0
0
0
0
0
0
0
0
0
0
0
0
0
0
0
0
0
0
0
0
0
0
0
0
0
0
0
0
0
0
0
0
0
0
0
0
0
0
0
0
0
0
0
0
0
0
0
0
0
0
0
0
0
0
0
0
0
0
0
0
0
0
0
0
0
0
0
0
0
0
0
0
0
0
0
0
0
0
0
0
0
0
0
0
0
0
0
0
0
0
0
0
0
0
0
0
0
0
0
0
0
0
0
0
0
0
0
0
0
0
0
0
0
0
0
0
0
0
0
0
0
0
0
0
0
0
0
0
0
0
0
0
0
0
0
0
0
0
0
0
0
0
0
0
0
0
0
0
0
0
0
0
0
0
0
0
0
0
0
0
0
0
0
0
0
0
0
0
0
0
0
0
0
0
0
0
0
0
0
0
0
0
0
0
0
0
0
0
0
0
0
0
0
0
0
0
0
0
0
0
0
0
0
0
0
0
0
0
0
0
0
0
0
0
0
0
0
0
0
0
0
0
0
0
0
0
0
0
0
0
0
0
0
0
0
0
0
0
0
0
0
0
0
0
0
0
0
0
0
0
0
0
0
0
0
0
0
0
0
0
0
0
0
0
0
0
0
0
0
0
0
0
0
0
0
0
0
0
0
0
0
0
0
0
0
0
0
0
0
0
0
0
0
0
0
0
0
0
0
0
0
0
0
0
0
0
0
0
0
0
0
0
0
0
0
0
0
0
0
0
0
0
0
0
0
0
0
0
0
0
0
0
0
0
0
0
0
0
0
0
0
0
0
0
0
0
0
0
0
0
0
0
0
0
0
0
0
0
0
0
0
0
0
0
0
0
0
0
0
0
0
0
0
0
0
0
0
0
0
0
0
0
0
0
0
0
0
0
0
0
0
0
0
0
0
0
0
0
0
0
0
0
0
0
0
0
0
0
0
0
0
0
0
0
0
0
0
0
0
0
0
0
0
0
0
0
0
0
0
0
0
0
0
0
0
0
0
0
0
0
0
0
0
0
0
0
0
0
0
0
0
0
0
0
0
0
0
0
0
0
0
0
0
0
0
0
0
0
0
0
0
0
0
0
0
0
0
0
0
0
0
0
0
0
0
0
0
0
0
0
0
0
0
0
0
0
0
0
0
0
0
0
0
0
0
0
0
0
0
0
0
0
0
0
0
0
0
0
0
0
0
0
0
0
0
0
0
0
0
0
0
0
0
0
0
0
0
0
0
0
0
0
0
0
0
0
0
0
0
0
0
0
0
0
0
0
0
0
0
0
0
0
0
0
0
0
0
0
0
0
0
0
0
0
0
0
0
0
0
0
0
0
0
0
0
0
0
0
0
0
0
0
0
0
0
0
0
0
0
0
0
0
0
0
0
0
0
0
0
0
0
0
0
0
0
0
0
0
0
0
0
0
0
0
0
0
0
0
0
0
0
0
0
0
0
0
0
0
0
0
0
0
0
0
0
0
0
0
0
0
0
0
0
0
0
0
0
0
0
0
0
0
0
0
0
0
0
0
0
0
0
0
0
0
0
0
0
0
0
0
0
0
0
0
0
0
0
0
0
0
0
0
0
0
0
0
0
0
0
0
0
0
0
0
0
0
0
0
0
0
0
0
0
0
0
0
0
0
0
0
0
0
0
0
0
0
0
0
0
0
0
0
0
0
0
0
0
0
0
0
0
0
0
0
0
0
0
0
0
0
0
0
0
0
0
0
0
0
0
0
0
0
0
0
0
0
0
0
0
0
0
0
0
0
0
0
0
0
0
0
0
0
0
0
0
0
0
0
0
0
0
0
0
0
0
0
0
0
0
0
0
0
0
0
0
0
0
0
0
0
0
0
0
0
0
0
0
0
0
0
0
0
0
0
0
0
0
0
0
0
0
0
0
0
0
0
0
0
0
0
0
0
0
0
0
0
0
0
0
0
0
0
0
0
0
0
0
0
0
0
0
0
0
0
0
0
0
0
0
0
0
0
0
0
0
0
0
0
0
0
0
0
0
0
0
0
0
0
0
0
0
0
0
0
0
0
0
0
0
0
0
0
0
0
0
0
0
0
0
0
0
0
0
0
0
0
0
0
0
0
0
0
0
0
0
0
0
0
0
0
0
0
0
0
0
0
0
0
0
0
0
0
0
0
0
0
0
0
0
0
0
0
0
0
0
0
0
0
0
0
0
0
0
0
0
0
0
0
0
0
0
0
0
0
0
0
0
0
0
0
0
0
0
0
0
0
0
0
0
0
0
0
0
0
0
0
0
0
0
0
0
0
0
0
0
0
0
0
0
0
0
0
0
0
0
0
0
0
0
0
0
0
0
0
0
0
0
0
0
0
0
0
0
0
0
0
0
0
0
0
0
0
0
0
0
0
0
0
0
0
0
0
0
0
0
0
0
0
0
0
0
0
0
0
0
0
0
0
0
0
0
0
0
0
0
0
0
0
0
0
0
0
0
0
0
0
0
0
0
0
0
0
0
0
0
0
0
0
0
0
0
0
0
0
0
0
0
0
0
0
0
0
0
0
0
0
0
0
0
0
0
0
0
0
0
0
0
0
0
0
0
0
0
0
0
0
0
0
0
0
0
0
0
0
0
0
0
0
0
0
0
0
0
0
0
0
0
0
0
0
0
0
0
0
0
0
0
0
0
0
0
0
0
0
0
0
0
0
0
0
0
0
0
0
0
0
0
0
0
0
0
0
0
0
0
0
0
0
0
0
0
0
0
0
0
0
0
0
0
0
0
0
0
0
0
0
0
0
0
0
0
0
0
0
0
0
0
0
0
0
0
0
0
0
0
0
0
0
0
0
0
0
0
0
0
0
0
0
0
0
0
0
0
0
0
0
0
0
0
0
0
0
0
0
0
0
0
0
0
0
0
0
0
0
0
0
0
0
0
0
0
0
0
0
0
0
0
0
0
0
0
0
0
0
0
0
0
0
0
0
0
0
0
0
0
0
0
0
0
0
0
0
0
0
0
0
0
0
0
0
0
0
0
0
0
0
0
0
0
0
0
0
0
0
0
0
0
0
0
0
0
0
0
0
0
0
0
0
0
0
0
0
0


VECTORS element_materi_velocity float
1.970768036033e-03 1.063962869472e-02 0.0 
2.121379535198e-03 1.006041008393e-02 0.0 
5.955848939379e-04 1.006901453193e-03 0.0 
7.389914593108e-05 1.494240804044e-03 0.0 
7.746760782185e-04 8.360556908055e-03 0.0 
-2.514908888248e-04 2.568222243847e-03 0.0 
5.800724782187e-04 8.278290088637e-03 0.0 
2.008518680762e-03 9.789962330915e-03 0.0 
6.431064954959e-04 8.331932639540e-03 0.0 
1.083339611098e-04 1.529892894609e-03 0.0 
1.563556883122e-04 -2.379589799286e-04 0.0 
1.706303211342e-03 1.016947362395e-02 0.0 
7.316988827153e-05 8.032007923621e-06 0.0 
1.180178765377e-03 7.453514542705e-03 0.0 
6.048398806012e-05 1.045474139335e-05 0.0 
5.953515481253e-05 1.056294045928e-03 0.0 
1.007888678346e-03 8.691257635569e-03 0.0 
-1.916375107824e-04 2.237151444591e-03 0.0 
6.632014839041e-05 -7.298755003716e-04 0.0 
5.628162802975e-05 -7.222087068274e-04 0.0 
1.289101300729e-04 1.567762396993e-03 0.0 
2.188125641921e-03 1.074252794114e-02 0.0 
2.322941122448e-03 1.040928163330e-02 0.0 
9.328515872806e-04 2.807998545554e-04 0.0 
1.366537007319e-03 6.457915513727e-03 0.0 
1.732095842393e-04 -2.016430684473e-04 0.0 
1.610158151608e-03 9.416137697233e-03 0.0 
9.443232103785e-04 7.348948438553e-04 0.0 
1.452596862799e-03 6.449968354239e-03 0.0 
7.662808002230e-04 2.275118576171e-04 0.0 
1.821510146538e-04 5.148792542112e-04 0.0 
-3.384436765187e-05 -5.084177317935e-04 0.0 
6.842310451844e-04 1.236529289699e-03 0.0 
5.028702035325e-05 -6.348241966108e-05 0.0 
3.899279989278e-04 6.897067637427e-05 0.0 
1.115295560239e-04 1.733737991225e-05 0.0 
1.021497957294e-04 1.554466461082e-05 0.0 
8.470988372364e-04 3.960069592032e-04 0.0 
4.839644833786e-04 9.228897726656e-03 0.0 
4.397306600427e-04 9.239516696738e-03 0.0 
2.328126819663e-03 1.020741527660e-02 0.0 
3.777609858166e-04 8.532279966848e-05 0.0 
1.264066486251e-03 8.962807959540e-03 0.0 
1.684327141613e-03 9.065560664737e-03 0.0 
3.959457992670e-05 2.115037152178e-03 0.0 
1.306169393372e-03 8.094968243605e-03 0.0 
-1.162488169157e-05 5.368901600246e-04 0.0 
4.494322633708e-05 1.796758497556e-03 0.0 
-2.890090270499e-04 4.011028381588e-04 0.0 
1.159215971877e-03 7.916522770542e-03 0.0 
2.342719915507e-03 1.034967927421e-02 0.0 
8.063011116016e-05 -7.027193278218e-04 0.0 
6.550443766882e-04 6.059420267356e-04 0.0 
2.251254271811e-03 1.058402151886e-02 0.0 
4.271059473095e-04 1.034841311461e-03 0.0 
1.697037338473e-04 -6.351705671579e-04 0.0 
6.818793297770e-05 -6.910897351855e-04 0.0 
1.019069822425e-04 -6.355603017878e-05 0.0 
1.081861007334e-04 -7.231367948255e-04 0.0 
7.144004754352e-05 1.065196098401e-03 0.0 
-5.887787619835e-04 9.018121993314e-04 0.0 
1.400928386113e-03 9.426253556318e-04 0.0 
2.953386644855e-03 7.544860617609e-03 0.0 
4.968702322281e-04 5.374291712678e-04 0.0 
1.190758147637e-04 1.185734608728e-05 0.0 
2.232315965679e-03 1.072048107056e-02 0.0 
-5.511491094969e-04 1.063639831039e-03 0.0 
7.358001846665e-04 1.193404070326e-03 0.0 
2.763091345895e-04 -2.930104880306e-04 0.0 
7.268361568765e-04 7.959845660414e-04 0.0 
2.612708111602e-04 -1.606239917156e-04 0.0 
7.106652780309e-05 2.995621208796e-04 0.0 
1.237205098487e-03 9.978645174914e-04 0.0 
4.593711252989e-06 -7.682987628363e-04 0.0 
1.566554416558e-04 -6.182557538051e-04 0.0 
2.504967831953e-04 1.377799534653e-03 0.0 
5.335650445091e-04 1.252953507503e-03 0.0 
4.116905235196e-04 5.713975809152e-03 0.0 
1.327217950266e-04 -7.120337311806e-04 0.0 
4.100546714528e-04 6.517686735299e-03 0.0 
2.956397402711e-04 -2.133727425792e-04 0.0 
9.470609829538e-04 8.422613171053e-03 0.0 
2.262260444308e-03 1.037948518961e-02 0.0 
2.063576532805e-03 1.076074820553e-02 0.0 
7.269706122314e-04 7.787415957994e-03 0.0 
6.646386519335e-04 7.753745824817e-03 0.0 
1.536257789099e-04 -1.395671634023e-04 0.0 
2.703951891518e-05 -8.580754139084e-05 0.0 
1.762583098890e-03 3.396026438290e-03 0.0 
8.345922913508e-04 8.327810066529e-03 0.0 
-1.614365544194e-05 -4.677256169348e-04 0.0 
1.626862397327e-03 8.214793532486e-03 0.0 
1.212572169051e-04 4.223024851364e-03 0.0 
1.473269357286e-04 4.565136222210e-03 0.0 
1.418080524720e-04 5.557110001305e-04 0.0 
6.105365381903e-04 2.878434296967e-04 0.0 
1.066567097086e-03 8.455720706468e-03 0.0 
4.342264958543e-04 9.186492474619e-05 0.0 
9.149582610666e-05 6.696099190446e-03 0.0 
2.798193397542e-03 8.163627241268e-03 0.0 
7.531120694287e-04 8.846886531225e-03 0.0 
7.769851934242e-05 1.177488496029e-05 0.0 
2.404159125730e-03 1.667393337138e-03 0.0 
1.396368926321e-03 8.916960188048e-04 0.0 
2.650361131465e-03 5.938749868884e-03 0.0 
-9.779682180054e-05 3.804298207369e-04 0.0 
8.485121526960e-05 -1.016246188674e-05 0.0 
1.223255545785e-04 3.640550437153e-03 0.0 
-4.375671285038e-04 5.600574005915e-04 0.0 
1.426228967661e-04 1.996010821411e-05 0.0 
1.934902211420e-03 3.816546705012e-03 0.0 
6.329673302893e-06 -7.708292148562e-04 0.0 
3.184550853877e-03 4.659508308914e-03 0.0 
2.027817669123e-03 9.070512815459e-03 0.0 
2.994409141042e-04 -5.266851953782e-04 0.0 
2.652516557032e-03 8.294354215722e-03 0.0 
2.984794149588e-03 7.055715925556e-03 0.0 
2.781097380278e-04 5.185676085324e-05 0.0 
1.163919785328e-04 7.107613413757e-03 0.0 
2.854394708287e-03 7.118074300417e-03 0.0 
2.282728542994e-04 -4.742880992029e-04 0.0 
1.695645090884e-03 8.457906904474e-03 0.0 
9.634268119257e-05 3.338100953373e-03 0.0 
2.860290681334e-03 6.564735658713e-03 0.0 
-3.560622522587e-04 3.984840278340e-03 0.0 
2.216023075270e-03 9.747232531519e-03 0.0 
2.570876560358e-04 -5.474994311086e-04 0.0 
2.183007370406e-03 1.015433709399e-02 0.0 
1.901273796997e-04 9.757006737036e-04 0.0 
-3.471186224760e-05 3.750404195968e-03 0.0 
2.434152851083e-04 -1.939529390485e-04 0.0 
5.854024158214e-05 1.478974632129e-03 0.0 
2.910938058469e-03 8.019783708032e-03 0.0 
2.278786837963e-03 1.001047250744e-02 0.0 
4.189709553766e-04 7.853581330086e-05 0.0 
5.019074641979e-05 6.970630739510e-06 0.0 
2.166614115406e-04 -1.352972559954e-04 0.0 
2.913322820681e-03 7.729159056206e-03 0.0 
5.415301593974e-04 1.518070131522e-04 0.0 
2.704553683648e-03 8.852447739676e-03 0.0 
1.458132821929e-04 1.091597597835e-03 0.0 
8.374718293555e-04 9.779975658774e-04 0.0 
1.252606024195e-03 7.408976819498e-03 0.0 
2.863737346801e-04 5.534424159785e-03 0.0 
2.800266814974e-03 8.587502576457e-03 0.0 
2.227885561991e-03 1.040312252798e-02 0.0 
2.987929837273e-03 7.184055500507e-03 0.0 
2.947780353402e-03 5.517875561272e-03 0.0 
5.554938446378e-04 8.758823195099e-03 0.0 
3.131780978209e-03 4.254907881096e-03 0.0 
9.147856704297e-06 -5.486662660155e-04 0.0 
1.327424362594e-04 8.006868371947e-03 0.0 
4.917249703619e-05 -7.437940063034e-04 0.0 
2.130900984449e-03 9.431089257341e-03 0.0 
4.391021658166e-04 1.189998123351e-04 0.0 
2.686934692660e-03 6.537017235488e-03 0.0 
1.167784108334e-04 -1.123594255732e-04 0.0 
1.638964272688e-03 9.090832680956e-03 0.0 
2.432734672439e-03 1.794716918570e-03 0.0 
3.116569645141e-04 8.427332150269e-03 0.0 
3.022636075603e-03 4.217624055073e-03 0.0 
1.149319452420e-04 -4.232613742143e-05 0.0 
2.480776398310e-04 -4.221436754167e-04 0.0 
1.188972239941e-04 -8.480063813293e-06 0.0 
2.267961353979e-03 7.986890226367e-03 0.0 
1.630054446414e-04 1.954350577654e-05 0.0 
1.320424419901e-04 8.502982372532e-03 0.0 
2.781892116515e-03 5.454801841484e-03 0.0 
2.033455911183e-03 9.507659043984e-03 0.0 
1.001314536709e-04 -2.495415764229e-04 0.0 
1.528632818226e-03 9.859751772509e-03 0.0 
2.948651222067e-03 3.805639510683e-03 0.0 
2.492728338822e-04 5.014500431303e-03 0.0 
3.563114150011e-04 8.763608300887e-03 0.0 
3.025890000310e-03 5.064125220923e-03 0.0 
2.117934308802e-03 9.857508335504e-03 0.0 
1.774378111789e-03 2.398464080113e-03 0.0 
3.141549770069e-04 -4.887085151049e-04 0.0 
7.664052541109e-04 5.586498987306e-04 0.0 
8.887757269398e-04 9.420875259354e-04 0.0 
2.464365605465e-03 8.888180702008e-03 0.0 
2.808477474871e-04 -4.742600898977e-04 0.0 
1.377484099172e-03 4.943619467559e-04 0.0 
2.575316737476e-03 9.415170565587e-03 0.0 
2.251378928716e-03 9.014374745841e-03 0.0 
2.102231379726e-03 8.571878266221e-03 0.0 
3.140930121673e-03 5.085423367898e-03 0.0 
1.058240004226e-04 1.153778315105e-03 0.0 
1.677455313139e-03 3.913345802757e-03 0.0 
8.038829550657e-05 -2.509991607055e-05 0.0 
8.582873329380e-04 6.893698723433e-03 0.0 
2.710740248539e-03 3.325533512832e-03 0.0 
1.679200842388e-03 3.418903716768e-03 0.0 
-1.445864269082e-03 2.744538052592e-03 0.0 
2.476912839673e-03 9.640990121059e-03 0.0 
1.502135841213e-03 4.288916043732e-04 0.0 
8.253462688980e-05 -6.980327466625e-04 0.0 
6.250350015406e-04 1.334707198285e-03 0.0 
1.533803856015e-03 5.406647661041e-03 0.0 
1.154430717266e-03 -1.766403719959e-04 0.0 
1.565478302243e-03 4.847114682348e-04 0.0 
1.622550257477e-03 7.704475511622e-03 0.0 
1.349632800288e-03 6.920329375646e-03 0.0 
7.273702444057e-04 2.034483339412e-04 0.0 
7.160660980226e-04 -4.215912010731e-04 0.0 
3.116522121941e-03 6.395938134650e-03 0.0 
2.425446048741e-03 7.365954457368e-03 0.0 
1.427249739671e-03 4.927215028391e-03 0.0 
2.218669403658e-03 7.561905446854e-03 0.0 
2.204010290796e-03 8.495146500411e-03 0.0 
2.740566818027e-03 1.908455306622e-03 0.0 
1.930401887506e-03 2.800950881787e-03 0.0 
-8.949267008083e-04 2.400927566986e-03 0.0 
2.412217313677e-03 9.422318577024e-03 0.0 
2.748697983539e-03 8.624721782307e-03 0.0 
3.069841904255e-03 6.920371405234e-03 0.0 
1.517119997587e-03 3.462540823692e-03 0.0 
4.474945337717e-04 2.511220265610e-03 0.0 
1.515110695545e-03 3.718013865835e-04 0.0 
4.013853308207e-04 8.641129467634e-03 0.0 
2.802253756253e-03 3.725636758486e-03 0.0 
1.495964924172e-03 3.021563233721e-04 0.0 
3.748553581898e-05 -6.324021836451e-04 0.0 
1.393850262371e-03 4.441781583331e-03 0.0 
1.129641327685e-05 -6.445436256077e-04 0.0 
9.813643786323e-05 -7.083721439383e-04 0.0 
8.682443408214e-04 7.821081693566e-03 0.0 
5.887431349025e-04 -4.572733176777e-04 0.0 
1.266632284692e-03 3.965411117376e-03 0.0 
5.438768794104e-04 -4.476068469818e-04 0.0 
1.503894263516e-03 5.251269623092e-03 0.0 
5.272900121409e-04 1.423722129496e-04 0.0 
2.978034173392e-04 -4.960713508591e-04 0.0 
1.517136808006e-03 5.266385035369e-04 0.0 
2.372301984832e-03 7.882612747814e-03 0.0 
1.416417680875e-04 1.408265596372e-05 0.0 
-1.224657351183e-03 2.419172019591e-03 0.0 
2.061391792868e-03 5.047478768432e-03 0.0 
2.991134071978e-03 3.481690964834e-03 0.0 
2.517996361163e-03 9.747253476469e-03 0.0 
1.585642278308e-03 4.286169190517e-04 0.0 
1.759313113433e-04 2.350886817566e-05 0.0 
1.737527602981e-03 4.386114985746e-03 0.0 
2.091470859683e-03 2.960370246325e-03 0.0 
1.460651289972e-03 4.719107026622e-04 0.0 
1.280294776606e-04 -1.725840285212e-04 0.0 
2.958100907631e-03 6.890876917888e-03 0.0 
1.601034492021e-03 4.914711700795e-03 0.0 
1.170534085084e-03 7.862030456198e-04 0.0 
2.904872490413e-03 3.124724845143e-03 0.0 
1.847796154341e-03 5.474620626698e-03 0.0 
2.189267833266e-03 6.625860929395e-03 0.0 
1.146676587280e-04 5.085536323400e-04 0.0 
3.181168958007e-03 6.119350242864e-03 0.0 
2.922808988335e-03 2.185100906244e-03 0.0 
3.005431456756e-04 7.830805355572e-03 0.0 
1.981249235862e-04 -1.563873002935e-04 0.0 
2.117861750154e-03 7.634268114232e-03 0.0 
2.195945810970e-03 3.365539024145e-03 0.0 
9.982013659007e-04 2.400368033366e-03 0.0 
3.137661888579e-04 6.433573227372e-04 0.0 
1.188949815038e-03 3.966470086519e-03 0.0 
2.364105837840e-03 6.960411037125e-03 0.0 
2.989605357026e-03 6.029542011897e-03 0.0 
1.059539868165e-03 3.486601465931e-03 0.0 
1.763132689925e-03 3.887096594197e-03 0.0 
2.821665903617e-03 6.779521527931e-03 0.0 
2.007523261799e-04 3.239898801317e-05 0.0 
2.862675718691e-03 1.978255867249e-03 0.0 
2.664829591963e-03 6.593394205391e-03 0.0 
3.253438778004e-03 4.645185934509e-03 0.0 
2.865936397783e-03 1.986656280128e-03 0.0 
1.476421119802e-03 2.324175679417e-03 0.0 
1.478570858857e-03 8.333711137999e-03 0.0 
2.830545873972e-03 2.546257770488e-03 0.0 
1.533046818067e-03 8.487341980174e-04 0.0 
1.649562733307e-03 4.407478225880e-03 0.0 
-1.302455311317e-03 2.144493480900e-03 0.0 
2.060151584275e-03 7.189346633889e-03 0.0 
2.217988532283e-03 2.719998753599e-03 0.0 
1.962252624215e-03 4.477736498963e-03 0.0 
1.390303128619e-03 2.000635425280e-03 0.0 
2.202935548766e-03 6.128926558800e-03 0.0 
6.555756605574e-05 -4.638682099212e-04 0.0 
2.778203819780e-03 8.806553221079e-03 0.0 
2.776281361871e-03 1.788015731222e-03 0.0 
2.261669823610e-03 7.052084548057e-03 0.0 
1.468363295269e-03 7.713194006000e-03 0.0 
1.206639572762e-04 2.045490308155e-03 0.0 
1.621516140821e-03 1.047689441016e-03 0.0 
1.270123165917e-03 5.843798527698e-04 0.0 
2.550872851241e-03 9.289586631776e-03 0.0 
1.690090731257e-03 4.896227767966e-03 0.0 
2.850350267994e-03 8.423275651244e-03 0.0 
2.710129554129e-03 2.472025964815e-03 0.0 
2.770876132789e-03 3.048570145338e-03 0.0 
4.011722829991e-04 2.164761601870e-03 0.0 
3.262408994712e-03 4.246697054598e-03 0.0 
7.368572712709e-04 4.746673258536e-03 0.0 
2.193289752714e-04 5.086205688059e-04 0.0 
2.878690328719e-04 5.297720354355e-04 0.0 
3.198018887418e-03 5.626687952770e-03 0.0 
1.838960208511e-03 2.820500759115e-03 0.0 
1.550926430213e-03 3.786347976114e-03 0.0 
2.682111093631e-03 6.090254186104e-03 0.0 
1.662639303082e-03 3.066021979084e-03 0.0 
1.348311142811e-03 7.598035543531e-04 0.0 
2.867880903902e-03 7.108391356657e-03 0.0 
1.898663745808e-04 1.326972984561e-03 0.0 
2.529812108228e-03 3.217852494296e-03 0.0 
2.789424521214e-03 2.079908681123e-03 0.0 
1.044065299082e-03 4.425543974348e-03 0.0 
2.663597907846e-04 8.714172301593e-05 0.0 
1.761663321133e-03 3.494300963045e-03 0.0 
2.996489310091e-03 6.372317914201e-03 0.0 
6.580336616087e-04 1.943245787598e-03 0.0 
2.161366845959e-03 7.905076646067e-04 0.0 
2.925301181771e-03 2.854759042497e-03 0.0 
1.364837136662e-03 5.055210412529e-04 0.0 
2.528483304664e-03 7.244077694446e-03 0.0 
3.060193851510e-04 3.970871701370e-04 0.0 
2.507211453787e-03 2.605369057850e-03 0.0 
2.700130484279e-03 1.607292778855e-03 0.0 
9.652292880860e-04 3.903639451689e-03 0.0 
9.768621468402e-04 5.869986187432e-03 0.0 
1.571633421654e-03 3.579335512928e-04 0.0 
2.228658567221e-03 6.336841141060e-03 0.0 
9.732539724976e-04 6.362465737893e-03 0.0 
3.760926822628e-04 3.574479217034e-04 0.0 
1.376923461606e-03 3.282976711412e-04 0.0 
3.077352142770e-04 4.469038480293e-04 0.0 
1.199457602287e-03 6.409518042868e-03 0.0 
2.018515054218e-03 3.770540586849e-03 0.0 
1.662321576707e-03 6.669111746824e-03 0.0 
2.508105890276e-03 8.154130543243e-03 0.0 
2.566257921124e-03 6.731348503372e-03 0.0 
2.489786495866e-03 6.347762212041e-03 0.0 
3.251029766536e-03 6.005657601452e-03 0.0 
3.954526837476e-04 3.086324732010e-04 0.0 
1.528569027904e-03 6.891082600121e-03 0.0 
2.065374789404e-03 8.135984659556e-03 0.0 
2.670888504304e-03 2.704372537019e-03 0.0 
4.484045751771e-04 -4.820646987141e-04 0.0 
2.326102889252e-03 8.812719980177e-03 0.0 
2.419210320056e-03 5.823485731828e-03 0.0 
2.677792988940e-04 8.732153522565e-03 0.0 
1.284178948747e-03 3.584808847137e-04 0.0 
2.426270941960e-03 2.841885647633e-03 0.0 
1.426591083190e-03 3.954824119851e-03 0.0 
2.339094394568e-03 5.217902264436e-03 0.0 
2.576032973588e-03 7.628488789106e-03 0.0 
2.598595903622e-03 1.441213994555e-03 0.0 
1.566695135198e-03 1.434987796139e-04 0.0 
3.656927818745e-04 2.160785842137e-04 0.0 
2.508499133269e-03 9.287577467243e-03 0.0 
1.600195271575e-03 1.400784979252e-03 0.0 
1.143348327805e-03 -1.679418186591e-04 0.0 
2.262102936642e-03 8.438825086245e-03 0.0 
2.276486461941e-03 7.023720746509e-03 0.0 
1.498623639397e-03 2.985445681674e-03 0.0 
2.935201528769e-03 6.077432961567e-03 0.0 
2.607405897806e-03 9.473425241660e-03 0.0 
2.525608468491e-03 8.538457441665e-03 0.0 
3.488625207599e-04 1.468821994448e-04 0.0 
8.718974713734e-04 3.861685650037e-04 0.0 
1.422220171382e-03 3.002833580038e-03 0.0 
1.477991800579e-03 4.435159774065e-03 0.0 
1.612605068048e-03 1.636535760574e-04 0.0 
3.043631648313e-03 7.401561837264e-03 0.0 
1.739156368233e-03 2.456604276694e-03 0.0 
2.112216466903e-03 2.375133852922e-03 0.0 
3.072998457420e-03 6.141063226236e-03 0.0 
2.263325579656e-03 8.837947593989e-04 0.0 
8.198992257515e-04 -3.239949059007e-04 0.0 
1.199476969008e-03 3.026421691145e-03 0.0 
1.512563581941e-03 1.165789242973e-03 0.0 
3.274973231873e-03 5.794457207517e-03 0.0 
2.726595219157e-03 6.953551005864e-03 0.0 
3.176360853706e-03 6.407760703559e-03 0.0 
2.996462003731e-04 4.875935561889e-04 0.0 
2.607720857365e-04 5.369816682985e-04 0.0 
6.604423335539e-04 1.332405458995e-03 0.0 
1.602684950287e-03 1.913363219140e-04 0.0 
9.895929126230e-04 3.477343532621e-03 0.0 
1.934947003206e-03 6.158399531934e-03 0.0 
2.399785133524e-03 2.283260372394e-03 0.0 
9.311196688386e-04 2.065972349442e-03 0.0 
2.846043939855e-03 8.555974812411e-03 0.0 
1.330878771834e-03 8.360019874123e-03 0.0 
1.122045024798e-03 6.400959277156e-03 0.0 
6.711705839731e-04 2.256649212864e-04 0.0 
1.653869702502e-03 2.949945284005e-03 0.0 
2.088557247435e-03 6.690760347848e-03 0.0 
2.495827520756e-03 5.851699060971e-03 0.0 
1.132088079954e-03 1.878661049308e-03 0.0 
2.021775413525e-05 -2.416148846533e-04 0.0 
3.156909986206e-03 3.888218786916e-03 0.0 
3.299503150091e-03 5.201055818125e-03 0.0 
3.218650078581e-03 3.894330334823e-03 0.0 
-3.406806361460e-04 4.517516137439e-03 0.0 
2.492936495953e-04 7.572674136738e-03 0.0 
3.899526238464e-04 -4.672682866349e-04 0.0 
2.144998326297e-03 4.131213467879e-03 0.0 
1.407500122346e-04 4.800361881866e-05 0.0 
2.549784986665e-03 1.547187994562e-03 0.0 
1.970148922273e-03 8.185635648269e-03 0.0 
3.000147069109e-05 -7.510807617552e-04 0.0 
3.203387653949e-03 6.327790758177e-03 0.0 
3.090247933510e-03 3.526986415044e-03 0.0 
2.301903369775e-03 6.049687123209e-03 0.0 
3.339706670641e-04 3.887836297701e-04 0.0 
2.407412157442e-03 8.286377739029e-03 0.0 
2.772808943232e-03 5.938011595173e-03 0.0 
8.955132971161e-04 -2.945736312644e-04 0.0 
1.205343712221e-03 3.491849421154e-03 0.0 
1.536798015761e-03 1.717376477145e-04 0.0 
3.657186129650e-04 3.851831592408e-04 0.0 
1.557645708381e-04 2.387829571775e-04 0.0 
1.025442928717e-04 2.526003369316e-04 0.0 
1.439874033369e-04 2.809614364241e-04 0.0 
2.296134772094e-03 5.559484382568e-03 0.0 
1.281160972511e-03 3.487884232895e-03 0.0 
1.374873004043e-03 2.533851593847e-03 0.0 
3.147860044888e-03 6.831352322043e-03 0.0 
2.990090685455e-03 7.818882329860e-03 0.0 
6.926430722464e-04 -3.922784519989e-04 0.0 
1.272536633809e-03 3.021193358901e-03 0.0 
3.876746454306e-04 3.337612171766e-04 0.0 
9.906634191825e-04 3.018939978630e-03 0.0 
2.741414503839e-03 1.773350780885e-03 0.0 
1.058784793585e-03 3.025246902996e-03 0.0 
2.745947322034e-03 2.959602262339e-03 0.0 
3.303391256303e-03 5.319522139449e-03 0.0 
2.760439405445e-03 8.876397167558e-03 0.0 
1.227327697045e-03 3.610834719317e-03 0.0 
2.743776135701e-04 1.083632088315e-03 0.0 
3.103539961864e-03 6.488825526727e-03 0.0 
1.238524261419e-03 1.113506409858e-03 0.0 
7.636033620674e-04 -3.678059345477e-04 0.0 
1.054605393486e-03 1.578221503327e-04 0.0 
5.248189256800e-04 1.690812544909e-04 0.0 
2.492719545645e-03 4.799960262062e-03 0.0 
1.519706434388e-04 2.081208908518e-04 0.0 
4.697754758078e-04 1.007694201272e-03 0.0 
2.937616992526e-03 5.587034726799e-03 0.0 
-1.040571952422e-04 -2.306646622422e-04 0.0 
1.799219253520e-04 1.998173504849e-04 0.0 
6.081428353905e-04 2.342769528906e-04 0.0 
1.124049978191e-03 2.845125084836e-04 0.0 
2.556023167261e-03 1.431619131539e-03 0.0 
3.738974490169e-04 2.022605554521e-04 0.0 
-2.261351929430e-04 -2.794913354912e-04 0.0 
3.243435396295e-03 5.893492580141e-03 0.0 
2.765896436722e-03 5.451388770283e-03 0.0 
3.083480868483e-03 5.647809325858e-03 0.0 
2.850598126024e-03 6.267122136527e-03 0.0 
1.648976584847e-03 4.292518565049e-03 0.0 
1.902959946498e-04 1.720821129475e-04 0.0 
2.605548660087e-03 2.176338768676e-03 0.0 
1.245721534327e-04 1.716904767264e-03 0.0 
2.586742183575e-04 4.075528801277e-05 0.0 
-1.323730168590e-04 -2.940187415302e-04 0.0 
2.624215383957e-03 8.734231930056e-03 0.0 
2.787588277451e-04 3.445876978661e-04 0.0 
2.227041653460e-03 8.917211263006e-03 0.0 
3.168047233919e-04 1.218358186888e-04 0.0 
1.980740329669e-04 1.469533689719e-04 0.0 
2.390671668506e-03 6.454947982872e-03 0.0 
8.073779767091e-06 2.366862442591e-04 0.0 
-1.225283694684e-04 1.609149244008e-03 0.0 
1.908535329674e-04 2.228550272017e-04 0.0 
7.854507488188e-04 8.876363825023e-05 0.0 
1.407796476191e-03 8.660017889098e-03 0.0 
1.923350236641e-03 7.737252551935e-03 0.0 
1.834671957537e-04 1.131143778679e-04 0.0 
1.261961315628e-03 8.679796230115e-03 0.0 
1.911911167187e-04 4.978528606155e-04 0.0 
2.613459801153e-03 2.620137300662e-03 0.0 
1.038190962463e-03 6.891057797320e-03 0.0 
2.499883419402e-03 7.756222793613e-03 0.0 
2.622690889887e-03 1.583032965502e-03 0.0 
7.714376094433e-04 2.624100135261e-03 0.0 
1.916718628962e-04 9.929634910629e-05 0.0 
1.438816295350e-04 2.488105990114e-04 0.0 
1.167846823996e-04 2.560202318743e-04 0.0 
1.448149302835e-03 1.136014413569e-04 0.0 
5.708420467704e-04 -4.534751514221e-04 0.0 
3.306001152532e-03 4.964036554443e-03 0.0 
1.377271397936e-03 1.029853258663e-04 0.0 
1.862785113673e-04 8.195745546258e-05 0.0 
2.042459177848e-03 3.653948520896e-03 0.0 
1.618699724786e-03 7.551468855463e-04 0.0 
1.592997697870e-03 5.148339130765e-04 0.0 
9.019376163911e-04 6.337215116606e-03 0.0 
2.404836671648e-04 7.239879085565e-05 0.0 
-6.142647671172e-05 1.257583360373e-04 0.0 
1.542207139992e-04 5.691107470656e-05 0.0 
1.356953302830e-03 2.995083849899e-04 0.0 
1.540487417121e-04 1.889662792852e-04 0.0 
1.446736810646e-03 2.521228474656e-03 0.0 
-3.139937920476e-04 -1.976346957205e-04 0.0 
3.277977353999e-03 5.029668142029e-03 0.0 
8.606918897309e-04 2.992613638996e-03 0.0 
1.857966876130e-04 1.853658087558e-04 0.0 
2.390944095715e-03 5.468682091160e-03 0.0 
2.471622985874e-03 2.176787336910e-03 0.0 
6.197620199056e-04 3.721707611468e-03 0.0 
9.683579221656e-04 3.577095467521e-04 0.0 
1.329739526786e-03 1.343043985793e-04 0.0 
1.501931168339e-03 3.740250242405e-04 0.0 
-3.403387395922e-04 2.710271112029e-04 0.0 
1.973786507808e-04 1.616791042290e-04 0.0 
1.285287768199e-03 2.536596987369e-03 0.0 
1.289283387833e-03 3.283093439825e-04 0.0 
1.022016191270e-03 7.435824471408e-03 0.0 
8.647553602010e-04 -2.448757730665e-04 0.0 
1.528678020276e-03 5.873574303650e-04 0.0 
2.589580447682e-03 5.732145333015e-03 0.0 
1.822255861208e-04 1.029642063458e-04 0.0 
5.565798499030e-04 -4.318965278608e-04 0.0 
1.450088233795e-03 2.244449962037e-04 0.0 
3.231553686742e-03 4.894798109953e-03 0.0 
1.989322438839e-03 5.566998610242e-04 0.0 
1.780992332306e-03 8.421184675514e-04 0.0 
1.548894099094e-03 2.123255878108e-04 0.0 
3.242999359881e-03 5.348362799293e-03 0.0 
2.644029387368e-03 3.404356830067e-03 0.0 
2.403320737666e-03 1.366725614602e-03 0.0 
3.293921827453e-03 4.758552410316e-03 0.0 
9.883059271578e-04 -2.711765499069e-04 0.0 
2.397762646026e-03 4.283013734974e-03 0.0 
6.369099804458e-04 -4.334482907544e-04 0.0 
2.625836184785e-03 2.480330991608e-03 0.0 
2.705613572770e-03 1.596893298160e-03 0.0 
2.949707262338e-04 1.049146935252e-04 0.0 
8.473332924374e-04 2.554815618173e-03 0.0 
7.515204996211e-04 -2.936269005810e-04 0.0 
1.625840093926e-04 6.492474398220e-05 0.0 
7.175202628409e-04 2.650739799011e-04 0.0 
3.206626911544e-03 3.552273789189e-03 0.0 
-2.186267908217e-04 1.394261855592e-04 0.0 
2.195535867384e-04 6.112380453599e-05 0.0 
1.037072108736e-03 2.580915294224e-03 0.0 
1.132999650269e-03 1.093591688634e-04 0.0 
1.256097785500e-04 3.913810419727e-05 0.0 
1.380575186725e-03 1.411485825106e-04 0.0 
2.971778405883e-03 7.971475404414e-03 0.0 
1.960865937894e-03 7.242680082878e-03 0.0 
2.778503771270e-03 1.769215837648e-03 0.0 
1.474808650933e-03 7.899054474331e-05 0.0 
2.074540697892e-03 6.856437814094e-04 0.0 
1.623447070157e-03 5.400766142711e-03 0.0 
2.819963930072e-03 7.969351942917e-03 0.0 
2.336161535265e-03 1.427093889333e-03 0.0 
2.348941667394e-04 7.002898379543e-03 0.0 
9.109950924547e-04 -3.078557918301e-04 0.0 
2.427049151600e-03 1.272870854337e-03 0.0 
1.247893416308e-03 3.274542214145e-05 0.0 
7.669853985567e-04 -1.254005483628e-04 0.0 
-4.117471358870e-04 -2.655492672003e-05 0.0 
2.704366456183e-03 4.921595702055e-03 0.0 
1.275218589057e-03 1.770770272904e-04 0.0 
7.974267390411e-04 -3.061103516310e-04 0.0 
3.264454401687e-03 3.836394833658e-03 0.0 
1.463549174958e-03 1.923526380976e-04 0.0 
8.907464210614e-04 6.823705945920e-03 0.0 
1.061753089697e-03 4.187051524417e-06 0.0 
1.148738886148e-04 3.326068665838e-05 0.0 
2.846101083272e-03 5.290101076870e-03 0.0 
6.950088162351e-04 -3.084380881967e-04 0.0 
3.009387184912e-03 5.388665779055e-03 0.0 
7.233998124146e-04 -3.297638974129e-04 0.0 
-3.057902900566e-04 -1.279642834109e-04 0.0 
1.892069144449e-03 6.789429172294e-03 0.0 
1.961137623428e-04 -5.202267092809e-04 0.0 
-8.797895881791e-06 -6.777218902917e-04 0.0 
5.810521299372e-04 -3.683524082799e-04 0.0 
1.346640902459e-03 2.032054155844e-04 0.0 
2.411068593297e-04 3.077248319074e-03 0.0 
2.166790872392e-03 7.339595910803e-04 0.0 
2.081869229463e-03 6.576860264704e-04 0.0 
1.909341533828e-03 8.681592427036e-03 0.0 
1.264544816396e-03 9.307262122121e-03 0.0 
3.302395294109e-04 1.010129849297e-03 0.0 
3.143854462416e-03 5.410021944177e-03 0.0 
-1.389356075035e-05 -6.929491258344e-04 0.0 
2.739149002067e-04 -5.386639272344e-04 0.0 
-1.566071560166e-04 -6.654371120617e-05 0.0 
6.825976128462e-04 -4.180508415368e-04 0.0 
1.829970327013e-03 2.340422980749e-03 0.0 
2.757644625936e-04 3.110199168150e-03 0.0 
8.370185833043e-04 7.240830292312e-05 0.0 
6.245394094389e-04 -4.891632476950e-04 0.0 
6.959777471657e-04 -1.452139902267e-04 0.0 
1.134033659235e-03 2.822836096904e-04 0.0 
6.129678871002e-04 1.646543672011e-03 0.0 
1.388540810152e-04 -5.245998265268e-04 0.0 
9.349594841775e-05 -6.067399307040e-04 0.0 
2.039410690461e-04 5.218778658273e-05 0.0 
1.046796981236e-04 2.786311787761e-05 0.0 
1.468003209023e-04 -4.645008131923e-04 0.0 
6.226564224257e-04 -3.274353838695e-04 0.0 
1.422149753096e-03 6.869188068581e-05 0.0 
1.069766994721e-03 3.052993475229e-04 0.0 
3.281497314379e-04 -5.516434482975e-04 0.0 
1.177139545348e-03 2.488770616256e-04 0.0 
7.420178376921e-05 -7.216708682142e-04 0.0 
6.049167206359e-04 -3.917121843280e-04 0.0 
8.441598303675e-04 -2.620804366314e-04 0.0 
4.053626463705e-05 -7.428776875094e-04 0.0 
1.162024630564e-04 -4.954782738876e-04 0.0 
7.873087185272e-04 2.537747211849e-03 0.0 
-1.668469107994e-07 -7.227154776863e-04 0.0 
1.402006370937e-03 9.248996149256e-03 0.0 
1.467394457155e-03 9.516379802640e-03 0.0 
2.129881636422e-03 8.045600980281e-04 0.0 
4.636967773072e-05 -6.109527891534e-04 0.0 
1.122125918007e-03 -2.965406648642e-05 0.0 
1.404213862674e-03 4.638909830912e-03 0.0 
5.352615814717e-04 6.090990339419e-05 0.0 
7.413044602684e-04 6.583384321030e-04 0.0 
5.036557286069e-04 3.746481202776e-03 0.0 
2.503611775972e-03 7.108632703882e-03 0.0 
1.371514125340e-04 -4.974782305107e-04 0.0 
2.625076275296e-03 8.372157678926e-03 0.0 
8.897952626168e-04 9.304295245379e-03 0.0 
8.332148674398e-04 9.611139598833e-03 0.0 
5.348460207111e-06 -7.107751412101e-04 0.0 
4.579325154543e-05 -7.240819157468e-04 0.0 
4.407764894697e-05 -7.537111919077e-04 0.0 
4.516435950178e-04 -5.626604467235e-04 0.0 
2.815803815282e-05 -7.514092020113e-04 0.0 
1.211122590040e-04 -4.322495282018e-04 0.0 
-6.356731521597e-04 5.801772042167e-04 0.0 
5.509355211774e-04 -5.254216926929e-04 0.0 
2.076512648117e-04 5.884406419137e-03 0.0 
1.194848744804e-03 9.618771561038e-03 0.0 
1.550165714398e-03 2.065534852544e-03 0.0 
1.292700321601e-03 1.294754502422e-04 0.0 
1.875726071982e-04 6.776336064867e-03 0.0 
2.506548514933e-05 -5.855829232072e-04 0.0 
4.614517337104e-05 -7.519272460301e-04 0.0 
4.056288360276e-05 2.689359452442e-04 0.0 
9.262223949172e-05 5.600959185745e-04 0.0 
9.458880059752e-04 7.393723241295e-03 0.0 
1.010140752366e-03 9.328273630204e-03 0.0 
1.252714520989e-04 -5.791679406104e-04 0.0 
6.009323387914e-05 5.311591467832e-04 0.0 
5.262183778365e-04 -5.308147362848e-04 0.0 
1.327672167348e-03 9.576464026286e-03 0.0 
1.133547085865e-03 9.334222886093e-03 0.0 
2.328050986710e-03 9.216322170526e-03 0.0 
8.864682384701e-05 2.452525236839e-04 0.0 
7.293646028207e-05 5.296562743982e-04 0.0 
3.222969291310e-05 -7.349383708949e-04 0.0 
1.250441699982e-05 -7.351368141719e-04 0.0 
1.983421844598e-04 -5.615717855458e-04 0.0 
9.215907176784e-04 -2.340260297676e-04 0.0 
5.517631454182e-05 -4.358281536760e-08 0.0 
-8.049073284809e-04 7.583961612476e-04 0.0 
6.475344921747e-05 3.881234523816e-03 0.0 
-5.081133261565e-04 2.938266225654e-04 0.0 
1.966200215306e-03 6.119576577070e-04 0.0 
-5.253669365350e-04 1.837119209252e-04 0.0 
-6.548896372700e-04 4.440221531465e-04 0.0 
1.898057087577e-03 4.983574423224e-04 0.0 
2.193222139360e-04 3.002865492494e-06 0.0 
1.744550828280e-04 6.215346406020e-03 0.0 
2.804350942934e-03 7.641762825987e-03 0.0 
3.160253812775e-05 -7.562614399885e-04 0.0 
5.732275240966e-04 -1.413065278155e-04 0.0 
1.431861704210e-05 3.163766971345e-04 0.0 
2.823049032592e-05 5.361028004439e-04 0.0 
1.069013998208e-03 9.630481639764e-03 0.0 
2.003673755998e-03 7.145127536630e-04 0.0 
3.237357667931e-05 2.607203291539e-04 0.0 
2.470824741312e-03 2.053427175528e-03 0.0 
2.808471414161e-05 -7.607203768464e-04 0.0 
2.055858483266e-05 -7.627951231564e-04 0.0 
1.910828527059e-05 -7.654701141366e-04 0.0 
2.816106937144e-05 -5.283525256732e-04 0.0 
4.432979630373e-05 8.105814189660e-06 0.0 
7.689319986154e-06 1.456372419274e-03 0.0 
1.124802580262e-05 -7.649161425388e-04 0.0 
6.235333178671e-05 -4.316460532027e-04 0.0 
1.502452098968e-05 3.080714798593e-06 0.0 
6.259452797911e-05 1.071002095571e-05 0.0 
1.893082447242e-04 4.464698253199e-05 0.0 
3.648393520899e-05 4.851854532057e-03 0.0 
1.423217374861e-05 3.391688969183e-03 0.0 
2.930527531405e-05 5.025099391067e-06 0.0 
3.328925266505e-05 5.684921564641e-06 0.0 
3.169889559943e-05 3.881445922154e-03 0.0 
6.086060609237e-06 -7.694457233824e-04 0.0 
6.221384500700e-04 9.607968970420e-03 0.0 
9.502676043714e-04 9.626982689281e-03 0.0 
1.391974338135e-05 -7.528051146058e-04 0.0 
5.491591409610e-05 1.033436959249e-05 0.0 
1.793453635119e-04 3.886252305245e-05 0.0 
8.929848971015e-05 1.854020922557e-05 0.0 
8.053684326244e-06 -7.597783719655e-04 0.0 
6.572693952306e-06 -7.444720433809e-04 0.0 
9.926137092247e-05 2.432466870511e-05 0.0 
9.004687380174e-05 2.032231382688e-05 0.0 
1.901721335817e-05 5.351197207465e-03 0.0 
3.233855369652e-04 9.602105147434e-03 0.0 
1.746672185082e-05 4.361282684021e-03 0.0 
2.345043463530e-05 7.317590671386e-03 0.0 
1.378043088237e-04 9.593178782040e-03 0.0 
-3.583816018295e-05 -6.530441022485e-04 0.0 
-1.091300124897e-04 -5.316180527893e-04 0.0 
-1.630297842767e-04 -4.449111581217e-04 0.0 
-2.318269966338e-04 -3.346887499139e-04 0.0 
3.192525348303e-05 -3.984973342031e-04 0.0 
3.042807830368e-05 -4.654479131923e-04 0.0 
-1.046696322267e-04 -4.974008416999e-04 0.0 
3.343676015895e-05 -2.022149606366e-04 0.0 
-1.589171569244e-04 -4.006651152650e-04 0.0 
7.074152466890e-05 2.561488792510e-04 0.0 
2.771965719983e-05 2.704388176292e-04 0.0 
5.205935588896e-05 2.911599733303e-04 0.0 
1.151340892880e-05 -7.403451917801e-04 0.0 
2.130419258139e-05 -6.359608621253e-04 0.0 
2.622350977308e-05 3.252787496076e-04 0.0 
2.324750143807e-05 -4.265857246467e-05 0.0 
1.391187328382e-05 2.197261033094e-04 0.0 
1.707631215378e-05 -1.119133960405e-05 0.0 
1.038958118695e-05 5.128777991057e-06 0.0 
5.858914767513e-05 -4.970288488866e-04 0.0 
5.394316697292e-05 5.957175672368e-04 0.0 
4.013538305691e-05 5.450048529170e-04 0.0 
4.032381359185e-05 -2.550596163149e-05 0.0 
2.746589334073e-05 -6.664149717459e-07 0.0 
3.424715064136e-04 -1.200091738452e-04 0.0 
-3.996719656652e-04 6.004020361963e-05 0.0 
4.918606057429e-04 -4.475373352334e-04 0.0 
3.158328275006e-05 -7.123400225476e-04 0.0 
4.992023336116e-04 4.880964865023e-05 0.0 
6.749120093040e-04 -3.721209691338e-04 0.0 
3.944021172389e-04 -2.774241547017e-05 0.0 
4.167412080720e-04 -5.632287672370e-04 0.0 
9.937776889848e-05 -6.816157509004e-04 0.0 
2.742827045654e-04 -4.993049388270e-06 0.0 
5.120971884788e-04 -3.840342546088e-04 0.0 
1.063062507833e-04 -5.550218273328e-04 0.0 
3.463149411453e-04 -3.668577413062e-05 0.0 
8.826474320211e-05 2.463542235487e-03 0.0 
5.322655452077e-05 -5.572239514802e-04 0.0 
1.306706472074e-03 2.253977510467e-04 0.0 
9.870906531994e-04 -5.084641279776e-05 0.0 
4.034437906604e-04 -1.104705598594e-04 0.0 
2.939791831137e-04 -9.779142996112e-05 0.0 
2.458881289999e-03 2.086576655424e-03 0.0 
2.721866036534e-03 8.524921757962e-03 0.0 
3.287477631138e-03 4.207799726274e-03 0.0 
6.402710072266e-04 -1.256564214865e-04 0.0 
2.468135701649e-04 -2.960156513174e-05 0.0 
1.935415412939e-04 -8.273251460610e-05 0.0 
5.915573990529e-04 -3.966424596978e-04 0.0 
1.676471918015e-04 2.541452816095e-03 0.0 
2.156130937194e-04 3.518444234802e-03 0.0 
4.135561169291e-04 8.115889860834e-03 0.0 
7.125448284649e-04 -7.299347315419e-05 0.0 
5.187385055487e-04 -1.201203841575e-04 0.0 
1.142157433713e-04 2.515096709643e-03 0.0 
1.467800630273e-04 3.018838359186e-03 0.0 
1.051197088498e-03 -5.965819309646e-05 0.0 
1.864015915015e-04 -1.886607399220e-06 0.0 
4.561979194777e-04 3.714853074300e-03 0.0 
1.376925422127e-04 -8.599702382694e-05 0.0 
3.687163148593e-04 3.635356173883e-05 0.0 
1.956120504367e-04 2.566808709012e-03 0.0 
3.852702404728e-04 5.086333905797e-03 0.0 
1.272226978498e-03 1.594399252099e-04 0.0 
2.201479234980e-04 -6.706698818574e-04 0.0 
5.719573208021e-04 -3.169939409011e-04 0.0 
1.311092598269e-04 -5.421693404783e-04 0.0 
-2.607064065161e-04 3.855397961611e-05 0.0 
1.776815890098e-04 3.018444427546e-03 0.0 
1.981852261165e-04 -1.656111999219e-05 0.0 
-1.896158693353e-04 -1.464668438935e-04 0.0 
1.238149356138e-03 2.568524007796e-03 0.0 
4.853373825989e-04 7.626105707285e-03 0.0 
4.570578571916e-04 -4.182084485720e-05 0.0 
2.508246339489e-04 -5.165521048560e-05 0.0 
1.092318458906e-03 -1.377837516524e-04 0.0 
2.026939309116e-04 -5.752338477037e-05 0.0 
4.677230260523e-04 8.135472965260e-03 0.0 
2.347252625227e-03 1.243822308340e-03 0.0 
2.814184732224e-04 3.295445299350e-05 0.0 
1.160977555753e-04 -6.945950994749e-04 0.0 
4.639920690089e-04 6.506818490082e-05 0.0 
2.960310767659e-04 4.540159636728e-03 0.0 
1.849637349200e-04 -6.662954030804e-04 0.0 
6.969495524988e-04 -3.550744237429e-04 0.0 
2.802315101544e-04 -3.227045127344e-04 0.0 
5.294040848933e-04 6.154581361519e-03 0.0 
5.826064517184e-04 -4.900705798652e-04 0.0 
2.179089619487e-04 3.991721272318e-03 0.0 
3.332345927468e-04 5.537296720196e-03 0.0 
5.896961468762e-04 -3.033428283631e-04 0.0 
2.356630425453e-04 -1.048250089456e-04 0.0 
2.999883848996e-04 -6.983076133687e-05 0.0 
2.544170957846e-04 4.504073468929e-03 0.0 
2.280292612477e-04 -6.736011899352e-04 0.0 
4.831701160995e-04 -3.582252967975e-04 0.0 
1.839044085083e-03 1.124933627108e-03 0.0 
3.366411406726e-04 4.094538035056e-03 0.0 
4.712425350174e-04 -4.230348380296e-04 0.0 
9.122203552776e-04 -7.852037134546e-05 0.0 
6.047701283740e-04 8.718919893844e-05 0.0 
3.377476729301e-04 5.053459159513e-03 0.0 
-1.184145004867e-04 1.342400242527e-03 0.0 
1.198229168016e-04 -6.390889234748e-04 0.0 
1.064690875747e-03 1.591308460069e-03 0.0 
2.899904261793e-04 -2.292296741954e-05 0.0 
4.302655851747e-04 5.602295952143e-03 0.0 
2.038725320672e-04 -2.661175049506e-04 0.0 
5.605630202498e-04 7.161187131235e-03 0.0 
1.085200542908e-03 2.484281881161e-04 0.0 
4.828972869773e-04 -2.921989261864e-04 0.0 
3.523018360816e-04 -6.153992269411e-05 0.0 
1.849600531588e-04 -6.799168790811e-04 0.0 
4.021534199397e-04 4.562719333526e-05 0.0 
5.191647820084e-04 -3.184508949621e-04 0.0 
1.461987406562e-04 -6.740508348943e-04 0.0 
4.162649113229e-04 -3.694209328106e-04 0.0 
5.174279561632e-04 -4.915661173077e-04 0.0 
4.998974793234e-04 -5.510520261419e-04 0.0 
2.688281700431e-04 -2.566565789058e-04 0.0 
-2.755137112465e-05 -6.342267875869e-04 0.0 
-5.905825052874e-05 -5.745169589253e-04 0.0 
4.555623073651e-04 -1.324536383153e-04 0.0 
2.125008403179e-04 -6.805419922418e-04 0.0 
6.468859021135e-04 -9.062543639839e-05 0.0 
7.769375849690e-04 -8.821101637831e-05 0.0 
8.457760281243e-04 -3.533704597046e-04 0.0 
9.255876962551e-04 -5.579850481097e-05 0.0 
3.905232624096e-04 3.207799491296e-03 0.0 
-3.901331187543e-05 2.782135183164e-03 0.0 
4.462315504278e-04 -4.849741422780e-04 0.0 
1.022207408489e-03 2.713186320748e-04 0.0 
1.725174708158e-04 -6.989177229423e-04 0.0 
5.184761828586e-04 6.639681922919e-03 0.0 
5.419790534073e-04 7.660193237541e-03 0.0 
3.004670631706e-04 -5.853564925346e-04 0.0 
7.643214582819e-04 1.190913866525e-04 0.0 
5.863656955581e-04 4.735961670052e-03 0.0 
2.443942851596e-04 -6.682751179179e-04 0.0 
4.028757332312e-04 2.778843734888e-03 0.0 
3.632528597016e-04 2.745445507900e-03 0.0 
2.928793696127e-04 -6.460358689286e-04 0.0 
2.677310363043e-03 7.737945966923e-03 0.0 
4.100098168400e-04 -5.887398494349e-04 0.0 
4.072649185425e-04 -7.996197733250e-05 0.0 
3.757311061442e-04 -2.763133274652e-04 0.0 
9.721971936026e-04 2.575775317816e-03 0.0 
3.501788248415e-04 3.175826793579e-03 0.0 
5.232888338603e-04 -8.736158652510e-05 0.0 
5.843927472951e-04 -7.351674509511e-05 0.0 
3.435023398306e-04 -5.904368527360e-04 0.0 
4.639337635589e-04 -6.918625815604e-05 0.0 
5.327349860177e-04 4.704651524624e-03 0.0 
3.086035868155e-04 -2.856323721013e-04 0.0 
4.822600979049e-04 5.636505835361e-03 0.0 
4.724031487560e-04 4.192665484015e-03 0.0 
2.882223273572e-03 2.155497553703e-03 0.0 
3.273888947259e-04 3.618125678818e-03 0.0 
3.793361655958e-04 -4.081275614587e-04 0.0 
4.140670103686e-04 -3.041677028148e-04 0.0 
4.079885879497e-04 -5.422787013589e-04 0.0 
9.129404564201e-04 -3.310067401443e-04 0.0 
4.845621741025e-04 5.153916540208e-03 0.0 
1.337892153284e-03 -2.870558849646e-05 0.0 
3.891188933034e-04 -6.030239777824e-04 0.0 
1.841483902598e-04 -5.963832444695e-04 0.0 
5.373841807957e-04 5.186703429362e-03 0.0 
4.335465578046e-04 -5.825244724453e-04 0.0 
4.905842659568e-04 7.516351216417e-05 0.0 
3.852114303664e-04 4.606316979342e-03 0.0 
5.101336853929e-04 -3.012862986350e-05 0.0 
5.669321630768e-04 2.006364645179e-04 0.0 
4.053867169111e-04 -4.359325088663e-04 0.0 
3.308931271468e-04 -6.298969892394e-04 0.0 
2.320384377394e-04 -6.071884303952e-04 0.0 
7.082671820443e-04 -4.069619937790e-05 0.0 
3.739062972057e-04 6.054479338069e-03 0.0 
1.261644157390e-04 -6.124045314014e-04 0.0 
5.222912688148e-04 -5.103235347702e-04 0.0 
1.206132323448e-04 -7.059022449678e-04 0.0 
5.860516758028e-04 6.188326361215e-03 0.0 
4.575367039807e-04 -5.074243007910e-04 0.0 
8.472305745479e-04 -6.600229040604e-05 0.0 
3.518711942194e-04 -5.533406644201e-04 0.0 
2.510735054042e-04 3.551892233413e-03 0.0 
5.139832751643e-04 -5.402671098937e-04 0.0 
9.005940171326e-04 2.381864986394e-05 0.0 
5.301606655151e-04 -3.796239833628e-04 0.0 
8.462771869942e-04 -3.139974577113e-05 0.0 
3.167213197375e-04 -3.508330728872e-04 0.0 
6.363290135927e-04 -2.846061925934e-05 0.0 
1.878418491294e-03 1.031480358858e-03 0.0 
1.507105356646e-04 -6.989794563879e-04 0.0 
4.499264993693e-04 7.093331946410e-03 0.0 
1.882263395614e-03 5.256574840662e-04 0.0 
3.248323349140e-03 6.162756554982e-03 0.0 
4.234147220910e-04 6.086603823732e-03 0.0 
6.879250014621e-04 -2.725648940742e-04 0.0 
7.727875431011e-04 5.794330529840e-03 0.0 
1.459150365017e-04 -7.081081898648e-04 0.0 
6.339170835305e-04 6.511118278571e-05 0.0 
1.926818482948e-03 6.267741965392e-04 0.0 
2.292579200799e-03 1.311173792812e-03 0.0 
2.915453822115e-04 2.227865557586e-03 0.0 
1.334021636594e-03 1.596246944890e-05 0.0 
2.556682796868e-04 -6.575943086901e-04 0.0 
1.140305154746e-03 1.421675300171e-05 0.0 
6.421194573101e-04 1.030713674961e-04 0.0 
1.049208871491e-03 -1.161633455837e-04 0.0 
5.781135051950e-04 -4.364920173235e-05 0.0 
4.325088512660e-04 4.639689730535e-03 0.0 
9.025255689480e-04 9.221209495890e-05 0.0 
9.907842725843e-04 -1.389307819988e-05 0.0 
8.072564850771e-04 7.287998595103e-03 0.0 
2.231954573534e-04 -6.419984987988e-04 0.0 
5.788074843175e-04 -5.047555154519e-04 0.0 
3.256764547280e-03 4.622823835514e-03 0.0 
7.717065509947e-04 -2.131119796710e-05 0.0 
3.043678703269e-03 7.617660491699e-03 0.0 
3.298339994096e-03 4.453639195795e-03 0.0 
6.491945445272e-04 5.249811531562e-03 0.0 
4.644813327864e-04 6.605914268350e-03 0.0 
8.227338229151e-04 6.796647379596e-03 0.0 
3.834293006230e-04 -3.416153076036e-04 0.0 
9.356042222688e-04 1.598232742342e-04 0.0 
1.293302349530e-03 5.567382680238e-05 0.0 
6.201886014988e-04 7.201097167608e-03 0.0 
1.144202085322e-03 2.067546158514e-03 0.0 
2.193305303871e-03 1.341953429412e-03 0.0 
9.149605871088e-04 -6.964492112668e-06 0.0 
4.249990206974e-04 4.160490579080e-03 0.0 
8.477321489662e-04 -3.643460023250e-04 0.0 
7.082526429737e-04 -4.395206055981e-04 0.0 
3.131309962615e-04 -6.166004053037e-04 0.0 
1.215381582161e-03 8.805655227893e-05 0.0 
6.438110727422e-04 -4.512863017351e-04 0.0 
6.499093496986e-04 5.734835680983e-03 0.0 
7.684875328449e-04 6.283004288246e-03 0.0 
2.652151682193e-03 1.535770279336e-03 0.0 
6.832068555336e-04 -4.571338403528e-04 0.0 
2.213072556317e-03 2.174912061501e-03 0.0 
6.383255767380e-04 -4.792819867022e-04 0.0 
7.742679613403e-04 -4.081856197867e-04 0.0 
3.447360863249e-04 -6.154717225162e-04 0.0 
1.120100565849e-03 2.133369700006e-04 0.0 
1.234398419228e-03 -1.286500103163e-04 0.0 
3.684493538511e-04 3.650705471648e-03 0.0 
1.395415300304e-03 -1.399684259519e-05 0.0 
1.219287398879e-03 5.241818548346e-05 0.0 
1.296897199011e-03 -3.118479611249e-05 0.0 
3.227362598224e-03 3.533235616348e-03 0.0 
3.100470611330e-04 -6.361293569836e-04 0.0 
8.074070630746e-04 1.401115943695e-04 0.0 
6.997122184889e-04 1.356385820572e-04 0.0 
2.790872410366e-03 3.650160604070e-03 0.0 
9.200512599604e-04 -3.264748142738e-04 0.0 
1.276052137927e-03 1.356053105608e-05 0.0 
5.917296955075e-04 5.703037724211e-03 0.0 
7.739983691016e-04 -3.838993277858e-04 0.0 
3.243829622193e-03 5.484189099659e-03 0.0 
4.609416517383e-04 -5.606513427251e-04 0.0 
8.649863547835e-04 -1.451704273725e-04 0.0 
9.954059738214e-04 -2.788200297301e-04 0.0 
4.024281913962e-04 -5.919357643105e-04 0.0 
2.634826128669e-04 -6.476178178524e-04 0.0 
1.210586855762e-03 -7.794289184244e-05 0.0 
1.064653667109e-03 1.673329574234e-05 0.0 
1.938183543619e-03 2.220314367508e-03 0.0 
-6.334702155774e-05 -6.013010247670e-04 0.0 
1.790599675848e-03 3.556311407772e-04 0.0 
1.502236445017e-03 7.445822613354e-05 0.0 
1.074413358095e-03 -2.332731279344e-04 0.0 
7.052389882272e-04 6.252925161957e-03 0.0 
1.282491355190e-03 -7.945008879466e-05 0.0 
4.654506779879e-04 -5.453927031883e-04 0.0 
1.149571899910e-03 -1.823279497641e-04 0.0 
2.949833546147e-04 4.061255438727e-03 0.0 
4.110392493054e-04 -5.614896862937e-04 0.0 
1.587169457899e-04 -6.501982858805e-04 0.0 
2.510057740691e-04 -6.386506944399e-04 0.0 
9.282347017105e-04 -1.716941501345e-04 0.0 
8.293617252851e-04 -3.766099019573e-04 0.0 
1.676013558363e-03 2.175111350614e-04 0.0 
1.306238109021e-03 -7.573256283087e-05 0.0 
4.908998970931e-04 -2.891470675334e-04 0.0 
2.282320826864e-04 -6.589869633590e-04 0.0 
1.113951719937e-03 6.912166225433e-03 0.0 
3.556436697667e-04 -6.080235860864e-04 0.0 
1.187148756118e-03 2.021311719001e-04 0.0 
2.190655964152e-03 2.402595756562e-03 0.0 
2.005596213257e-03 6.250492774789e-03 0.0 
6.249231396502e-04 3.356531290524e-03 0.0 
1.659932125537e-03 1.981063166946e-03 0.0 
2.790480166343e-03 1.917926913362e-03 0.0 
2.525029932489e-03 3.019840362383e-03 0.0 
6.567516681823e-04 -1.644733391342e-04 0.0 
1.052663691701e-03 -2.230117957805e-04 0.0 
3.093050372820e-03 3.219701784912e-03 0.0 
1.092593929613e-03 5.013789503954e-04 0.0 
4.308972602395e-04 -1.715522534912e-04 0.0 
7.099391715770e-04 -4.262098562177e-04 0.0 
1.410557892759e-03 -9.890511061187e-07 0.0 
1.580136947642e-03 1.318554347088e-04 0.0 
3.597457014263e-04 -5.928361476064e-04 0.0 
1.427675488703e-03 2.874034112243e-05 0.0 
1.692069221253e-03 2.518787628526e-04 0.0 
1.974477910491e-03 5.326294760666e-04 0.0 
7.630083411993e-04 -4.159175935485e-04 0.0 
2.150792035242e-03 9.080574315436e-04 0.0 
7.088241933120e-04 5.279227254130e-03 0.0 
2.096661593283e-03 7.351456816420e-04 0.0 
9.859980625998e-04 1.872580476536e-04 0.0 
8.447544322888e-04 -1.623644284580e-05 0.0 
8.463814452312e-04 2.227556154314e-04 0.0 
1.554494976971e-03 1.101365611243e-04 0.0 
1.336875591048e-03 1.658558070751e-03 0.0 
2.658765708753e-03 5.121705084718e-03 0.0 
7.379115151151e-04 -1.972900437977e-04 0.0 
2.103330612602e-03 5.705750312442e-03 0.0 
7.994031917104e-04 2.975908811325e-03 0.0 
1.707848525093e-03 2.423800874894e-04 0.0 
2.960365829908e-03 4.600926335915e-03 0.0 
2.180496846913e-03 5.156883934691e-03 0.0 
3.273791543057e-03 5.518891932663e-03 0.0 
5.257077308204e-04 -2.119013160429e-04 0.0 
3.062301816657e-04 1.420643630484e-03 0.0 
3.767588208305e-04 -3.284357504331e-04 0.0 
1.337613415430e-03 6.188114301267e-04 0.0 
2.572249411337e-04 2.648967916125e-03 0.0 
1.937872207238e-03 7.133681268213e-04 0.0 
6.347493550170e-04 6.713336958989e-03 0.0 
6.593698610053e-04 3.833077555421e-03 0.0 
1.872991599696e-03 4.169491219997e-04 0.0 
2.618155915908e-03 1.418547411400e-03 0.0 
4.812793414688e-04 2.392000294247e-03 0.0 
9.666323132660e-04 5.009418584361e-05 0.0 
7.611482178056e-04 4.821506932393e-03 0.0 
1.769258782762e-03 4.693000569423e-04 0.0 
7.029932438844e-04 -7.279166074384e-05 0.0 
8.050492123317e-04 4.362937853586e-03 0.0 
9.153737263159e-04 7.883239461581e-04 0.0 
7.327482412431e-04 1.544977501978e-04 0.0 
1.134922280179e-03 -1.797100974334e-04 0.0 
6.957570132504e-04 6.746137802958e-03 0.0 
7.435282200301e-04 7.267568144755e-03 0.0 
1.461451881892e-03 3.973156105991e-05 0.0 
1.126613948685e-03 8.305924186407e-05 0.0 
1.168867000751e-03 1.458561627664e-04 0.0 
2.129484922070e-04 -6.343190797328e-04 0.0 
1.885894954025e-03 2.251608863227e-03 0.0 
2.285055300977e-03 9.504253305910e-04 0.0 
1.992717226732e-03 5.961958932095e-04 0.0 
3.306531212963e-03 4.540657018598e-03 0.0 
3.816940203902e-04 1.906684168215e-03 0.0 
1.168850485349e-03 2.575966325056e-03 0.0 
2.905788442564e-04 2.682015748724e-03 0.0 
2.996845114968e-03 7.724178891136e-03 0.0 
9.706755190863e-04 3.941163650684e-03 0.0 
1.054868277767e-03 4.993741780923e-05 0.0 
3.622619682508e-04 2.310412833548e-03 0.0 
9.593809441909e-04 4.888547979445e-03 0.0 
1.196002045667e-03 -1.297496839494e-04 0.0 
2.412450520559e-03 1.233594510877e-03 0.0 
7.430928930670e-04 4.338732617328e-03 0.0 
5.321862900014e-04 2.856064198613e-03 0.0 
5.734916674255e-04 4.255603757920e-03 0.0 
7.002417144540e-04 4.794899474322e-03 0.0 
8.355894446796e-04 1.106777052784e-04 0.0 
1.576157661023e-03 8.106074502965e-04 0.0 
1.006281178156e-03 1.501260986755e-04 0.0 
1.130542195519e-03 -2.522140123921e-05 0.0 
2.410614389231e-03 9.461352602247e-03 0.0 
1.913121858498e-03 7.815001774001e-04 0.0 
1.342986639984e-03 4.931531588319e-03 0.0 
3.043206141398e-04 -6.352506792475e-04 0.0 
2.180688112061e-03 7.985030753764e-04 0.0 
2.142573545887e-03 6.931439588688e-04 0.0 
2.519909957566e-03 1.288406451419e-03 0.0 
1.306378962860e-03 1.067324237639e-03 0.0 
2.306996790454e-03 1.053130047570e-03 0.0 
2.358156128123e-03 1.145405946628e-03 0.0 
2.707113940735e-03 7.835258389903e-03 0.0 
1.165092500511e-03 -1.257632793811e-04 0.0 
1.049892441667e-03 5.887371298583e-03 0.0 
6.838744470040e-04 8.851932395887e-03 0.0 
-6.377131559414e-04 5.343127224389e-03 0.0 
1.192274228050e-03 -2.913326450377e-05 0.0 
1.787917529419e-03 6.259627778206e-04 0.0 
9.319698373973e-04 2.155718960165e-03 0.0 
2.596303862915e-03 1.388149993922e-03 0.0 
1.163933383467e-03 -7.348942184090e-05 0.0 
8.382250285010e-04 5.821482791876e-03 0.0 
-1.991371940674e-04 8.207876664074e-03 0.0 
2.005910505083e-03 8.002935403101e-04 0.0 
2.445399873821e-03 1.125747408636e-03 0.0 
2.675573217242e-03 7.475916398504e-03 0.0 
1.100572710379e-03 1.108943773839e-04 0.0 
1.027178929802e-03 3.485517626484e-04 0.0 
1.123723208756e-03 1.663550739944e-04 0.0 
9.330004269683e-04 2.120355847669e-04 0.0 
2.220255368209e-03 1.013981157931e-03 0.0 
6.277380375366e-04 4.285125839621e-03 0.0 
2.292417347794e-03 1.998472436430e-03 0.0 
8.908369261598e-04 1.864055359295e-04 0.0 
6.297371178208e-04 1.057582891986e-02 0.0 
9.024889442962e-04 5.356239748507e-03 0.0 
1.632226724011e-03 9.961673591874e-04 0.0 
6.049215088264e-04 3.806078235785e-03 0.0 
2.408444197729e-03 1.151346680695e-03 0.0 
2.492296157656e-03 1.294117289773e-03 0.0 
6.961223967916e-04 -2.448751867734e-04 0.0 
3.600147046471e-04 1.539473945393e-03 0.0 
4.776039450682e-04 3.272825846760e-03 0.0 
2.665264649611e-04 -6.325679107944e-04 0.0 
1.360287244199e-03 1.146803622007e-02 0.0 
2.444887612382e-03 2.421786391535e-03 0.0 
2.592158043344e-04 2.196408496127e-03 0.0 
8.038824647173e-04 1.461151281854e-04 0.0 
3.169074001796e-03 4.712245990293e-03 0.0 
8.904252993029e-04 4.868964942921e-03 0.0 
9.644721241917e-04 -1.890724906297e-04 0.0 
1.230595846484e-03 8.602937920182e-04 0.0 
2.804730522669e-03 4.521470536836e-03 0.0 
4.656999146661e-04 -7.967067097716e-05 0.0 
8.590912408664e-04 2.757644377241e-04 0.0 
6.498700451228e-04 8.212019598602e-05 0.0 
2.533986881361e-03 1.276139348960e-03 0.0 
1.646727373706e-04 4.870162959270e-04 0.0 
1.770461606336e-03 1.172061712794e-02 0.0 
6.768334334849e-04 8.129515106661e-05 0.0 
2.627094540547e-03 1.984112175827e-03 0.0 
1.119795571460e-03 5.405977143957e-03 0.0 
8.186566901237e-04 1.481917644617e-03 0.0 
8.060075800376e-04 1.973279896978e-04 0.0 
6.067519609492e-04 -2.833805513857e-05 0.0 
3.066426520424e-04 -5.847288354581e-04 0.0 
2.191557489779e-03 1.092661377680e-03 0.0 
1.745615044737e-03 2.745187729089e-04 0.0 
1.817248704084e-03 1.048139913046e-03 0.0 
3.102455196255e-03 6.015990254772e-03 0.0 
1.231904693030e-03 4.447157112402e-03 0.0 
1.344788253950e-03 6.563310715891e-04 0.0 
8.351681820635e-04 5.332986974237e-03 0.0 
9.906885492095e-04 2.155998323242e-03 0.0 
8.382510137652e-04 3.905054308198e-03 0.0 
8.579205739313e-04 3.448124631060e-03 0.0 
1.371702111201e-03 2.914546804614e-03 0.0 
6.867327740980e-04 5.105629513066e-05 0.0 
9.365441658519e-04 4.404522451209e-03 0.0 
3.001312366577e-03 2.427453663556e-03 0.0 
1.959787899538e-03 1.154995309755e-02 0.0 
1.116741097301e-03 5.484264021213e-04 0.0 
1.553260623271e-03 1.822813327500e-03 0.0 
3.114664978936e-04 -6.050133337097e-04 0.0 
1.999777715822e-03 1.151366890709e-03 0.0 
2.620805023213e-05 -7.277855203817e-04 0.0 
3.252510030628e-03 3.774623484413e-03 0.0 
1.971201276687e-03 8.655680456827e-04 0.0 
6.765759786292e-04 2.507165242994e-03 0.0 
6.438504054992e-04 2.058938126638e-03 0.0 
2.133453256238e-03 9.902851349801e-04 0.0 
6.793086645133e-04 3.382301245945e-03 0.0 
2.833088132777e-03 2.320688183450e-03 0.0 
2.345510745556e-03 2.763662817379e-03 0.0 
1.993662348521e-03 1.109785120873e-02 0.0 
1.312015344803e-03 2.126971244281e-03 0.0 
1.918120808200e-03 1.044931352278e-02 0.0 
1.851059308278e-03 1.006987218944e-02 0.0 
2.746893933686e-03 1.738490236303e-03 0.0 
1.765653499731e-03 9.664529048444e-03 0.0 
3.045016163722e-03 2.799397413458e-03 0.0 
3.147689258478e-03 3.238877611150e-03 0.0 
2.352179827545e-03 1.007132841812e-03 0.0 
1.030146037363e-03 7.715428591945e-04 0.0 
2.594483441421e-03 1.487524257996e-03 0.0 
4.863348577068e-04 2.829433025792e-03 0.0 
1.083881905432e-03 2.084830674099e-03 0.0 
8.144650984936e-04 2.779064906937e-05 0.0 
1.595828501526e-03 8.696016913593e-04 0.0 
1.844062631475e-03 3.702043819225e-04 0.0 
7.955321662289e-04 3.428655303008e-03 0.0 
2.453966954119e-03 1.170360337686e-03 0.0 
5.484717384487e-04 3.640099619273e-05 0.0 
7.757117051330e-04 3.883052747100e-03 0.0 
1.041059159758e-03 3.953677724574e-03 0.0 
2.208961617822e-03 9.111793624200e-04 0.0 
2.721780283892e-03 1.867918504845e-03 0.0 
1.982458492416e-03 2.147101257432e-03 0.0 
2.573147569313e-03 5.250219056519e-03 0.0 
9.703320973860e-04 5.880517191550e-04 0.0 
1.466323844815e-03 1.546502856019e-03 0.0 
3.175670313994e-03 5.525621951122e-03 0.0 
3.126355249933e-03 4.949144671042e-03 0.0 
4.222570327953e-04 2.670532617937e-05 0.0 
1.006580263471e-03 4.421162465643e-03 0.0 
2.620525810464e-03 1.640235806446e-03 0.0 
2.875484683937e-03 4.057133238418e-03 0.0 
1.744439761097e-03 6.784032841514e-04 0.0 
5.246233551767e-04 3.302900798068e-03 0.0 
1.715261179633e-03 1.940510108606e-03 0.0 
1.202625706605e-03 5.908699312069e-03 0.0 
1.343964184676e-03 3.720877447462e-04 0.0 
2.500306418606e-03 1.216147020495e-03 0.0 
1.687273729862e-03 6.097912980607e-04 0.0 
3.267342041212e-03 4.059010554225e-03 0.0 
5.274057059891e-04 2.429209074233e-03 0.0 
1.391049786962e-03 1.632127484517e-03 0.0 
2.351591772691e-03 1.009711653275e-03 0.0 
1.235969145956e-03 1.436972364559e-03 0.0 
2.104114543475e-03 1.714023312847e-03 0.0 
3.152964899380e-03 3.343196233960e-03 0.0 
2.734217693394e-03 2.054229784928e-03 0.0 
2.328713020394e-03 1.023043822874e-03 0.0 
1.313612735448e-03 2.827208103587e-04 0.0 
1.163655953636e-03 1.192789482459e-03 0.0 
2.433571464059e-03 1.096152497650e-03 0.0 
2.086660508431e-03 5.223910428975e-03 0.0 
3.849228643999e-04 1.736688914217e-05 0.0 
2.144436377190e-03 4.683072010052e-03 0.0 
2.278058357934e-03 2.103665182001e-03 0.0 
2.006701862925e-03 5.762417109978e-03 0.0 
1.797035518484e-03 6.822897904553e-03 0.0 
2.617855279480e-03 4.659107998702e-03 0.0 
1.766661089392e-03 9.035170460129e-04 0.0 
7.812169585380e-04 5.088492808446e-05 0.0 
1.104737729259e-03 4.917957241655e-03 0.0 
5.944063636217e-04 2.045060985455e-03 0.0 
1.908393756653e-03 6.295828150246e-03 0.0 
2.350855836236e-03 1.812875531874e-03 0.0 
1.891839402009e-03 1.525541884660e-03 0.0 
3.987016826180e-04 2.330927173143e-03 0.0 
3.184499674217e-03 3.213302086965e-03 0.0 
3.199400040399e-03 3.427163534995e-03 0.0 
2.521309854859e-03 1.732810365416e-03 0.0 
1.153960993291e-03 4.443622683768e-03 0.0 
3.137644325983e-03 7.054371223149e-03 0.0 
2.944803430267e-03 2.517223792745e-03 0.0 
3.188284704745e-03 6.685383546090e-03 0.0 
2.118806195216e-03 1.140404706920e-03 0.0 
1.413732565871e-03 1.063322061242e-03 0.0 
2.421290528139e-03 1.362010948772e-03 0.0 
3.360511734837e-04 1.280977050490e-03 0.0 
7.460851594072e-04 2.079113722247e-03 0.0 
3.081141944162e-03 7.169870144037e-03 0.0 
2.001358600720e-03 5.298390427377e-04 0.0 
1.666994840762e-03 1.259449251764e-03 0.0 
1.181734818409e-03 4.927903385890e-03 0.0 
9.363050193933e-04 7.558955988770e-05 0.0 
3.014365202646e-03 2.904440532056e-03 0.0 
1.047224912510e-04 1.191658870881e-03 0.0 
2.743857994104e-04 1.452117003357e-05 0.0 
3.125110815173e-03 4.288185878259e-03 0.0 
2.502231819272e-03 1.630745679317e-03 0.0 
1.784471966990e-03 1.802898168997e-03 0.0 
-3.222233406544e-04 1.269073723366e-03 0.0 
9.984997455880e-04 1.032679273731e-04 0.0 
2.426004649837e-03 3.501134378081e-03 0.0 
1.283863867592e-03 5.912954675220e-03 0.0 
9.517657010729e-04 -1.317622478249e-04 0.0 
2.527178534278e-03 1.575245276118e-03 0.0 
5.049635427127e-04 2.357030531829e-05 0.0 
3.070588197022e-03 3.017504065330e-03 0.0 
2.391738520636e-03 1.651335834715e-03 0.0 
3.031555304319e-03 4.092866972782e-03 0.0 
9.801404015965e-05 9.540104968672e-04 0.0 
2.562657208205e-03 2.891541353815e-03 0.0 
2.073852596636e-03 1.044795598051e-03 0.0 
1.098969055413e-03 1.355871199088e-03 0.0 
2.226821980894e-03 2.307575298343e-03 0.0 
1.806861871100e-03 1.507076580672e-03 0.0 
7.542610324703e-04 7.096054896785e-06 0.0 
3.449677938340e-04 1.872242219932e-03 0.0 
8.701169983297e-04 4.523746775631e-04 0.0 
1.968860941633e-03 1.065738264739e-03 0.0 
2.912393830504e-03 2.371947543707e-03 0.0 
2.829944050735e-03 3.486552139006e-03 0.0 
3.119665908368e-04 1.724227513564e-06 0.0 
2.152436296419e-04 -3.303071042388e-04 0.0 
2.419304038016e-03 2.540343350593e-03 0.0 
1.044474884010e-03 5.393207896181e-03 0.0 
6.373466768762e-04 3.444636328164e-05 0.0 
9.493520053599e-04 1.220007374368e-04 0.0 
2.737649497701e-04 9.311904729680e-03 0.0 
1.824906579844e-04 9.310032961056e-03 0.0 
1.962212773715e-03 4.797771115044e-03 0.0 
2.720728303453e-03 3.112449356435e-03 0.0 
8.226739120980e-04 -1.424463521916e-04 0.0 
2.482334967680e-03 4.328273402005e-03 0.0 
3.096474313133e-03 2.866927401950e-03 0.0 
1.206626037199e-03 4.181373160525e-04 0.0 
2.998915592573e-03 2.647198620304e-03 0.0 
1.467674381925e-04 4.979126514940e-04 0.0 
1.822328433747e-03 7.797302315341e-03 0.0 
3.168481487452e-03 3.169001354858e-03 0.0 
1.030476612409e-03 -1.013194983225e-04 0.0 
1.786117200246e-03 1.941358168171e-03 0.0 
1.081660300921e-03 -1.664639736549e-04 0.0 
2.955252126657e-03 3.695025354342e-03 0.0 
2.985101789870e-03 4.925317704353e-03 0.0 
1.278030821597e-03 5.420178651342e-03 0.0 
2.406586492540e-03 3.888039828862e-03 0.0 
2.242419016427e-03 3.556411234956e-03 0.0 
5.824573416574e-05 -7.457545128891e-04 0.0 
1.030311257599e-03 -2.137520765702e-04 0.0 
3.150040857791e-03 6.853877388766e-03 0.0 
2.364931427035e-03 4.993128740083e-03 0.0 
2.234061633692e-03 4.610119106852e-03 0.0 
1.537554140716e-03 7.046872734603e-04 0.0 
1.469464130333e-05 -7.138740637675e-04 0.0 
8.852328518465e-04 8.831962201725e-04 0.0 
3.219104389715e-03 4.210860336401e-03 0.0 
9.504716977166e-04 -2.486346701308e-04 0.0 
1.935359759758e-03 1.001306133445e-02 0.0 
1.851491480937e-03 9.624533071077e-03 0.0 
1.361338943434e-03 5.420272425137e-03 0.0 
1.147127396082e-03 3.167312531778e-03 0.0 
9.225399401505e-04 -1.743610758569e-04 0.0 
1.722607619833e-03 5.556107488694e-04 0.0 
9.429596517432e-04 1.097412397816e-03 0.0 
7.598179444450e-04 6.107001002036e-04 0.0 
6.863823724682e-04 2.943395429985e-03 0.0 
7.347224917441e-04 -2.663198184263e-04 0.0 
6.716267952929e-04 1.358040206286e-05 0.0 
8.124155147716e-05 -7.290768551904e-04 0.0 
1.722084144108e-03 4.841035747902e-04 0.0 
3.149930342554e-03 4.058774498806e-03 0.0 
6.330399973639e-05 -7.436245398809e-04 0.0 
6.326981793848e-04 2.919042934020e-03 0.0 
7.692386584398e-04 1.232204464465e-03 0.0 
2.453381973708e-03 4.894219433398e-03 0.0 
3.041696260958e-03 4.723583978020e-03 0.0 
2.044891693832e-03 5.911491606184e-04 0.0 
1.636425879878e-03 2.750074266277e-04 0.0 
6.259435670895e-04 2.494121189705e-03 0.0 
1.529987255677e-03 2.783463571578e-04 0.0 
3.163996565402e-03 3.583605898786e-03 0.0 
3.225263717004e-03 3.951960269633e-03 0.0 
-9.927340576165e-04 4.497731499109e-03 0.0 
5.395863242530e-04 1.138333596956e-03 0.0 
2.078038542036e-03 1.897930997977e-03 0.0 
1.719988854112e-03 6.353908453089e-03 0.0 
1.880122390429e-03 1.604256824219e-03 0.0 
2.525282336445e-03 3.941344141927e-03 0.0 
1.436735330804e-03 3.473458285295e-03 0.0 
1.818233197194e-03 1.734101525045e-03 0.0 
1.930153690356e-03 9.130575987561e-03 0.0 
2.052385739363e-03 1.983284155261e-03 0.0 
6.171341453658e-04 -2.591270682476e-06 0.0 
2.880009780386e-03 3.144086357998e-03 0.0 
1.044702147553e-03 -1.563930280776e-04 0.0 
1.081480874848e-03 -1.112388638024e-04 0.0 
8.028276861698e-04 2.093766497525e-03 0.0 
1.695184619514e-03 2.622831850423e-04 0.0 
2.990859501968e-03 4.291366391794e-03 0.0 
2.936284523809e-03 2.195696337542e-03 0.0 
1.376131471905e-03 2.704472978802e-04 0.0 
3.133411638673e-03 2.942981774257e-03 0.0 
1.902309247174e-03 1.367855423228e-03 0.0 
2.261421074519e-03 8.552044408115e-04 0.0 
2.185167987952e-03 1.716015389088e-03 0.0 
2.403479801348e-03 4.434870864899e-03 0.0 
2.079981520833e-03 1.466765328009e-03 0.0 
2.693060969734e-03 4.526109605047e-03 0.0 
1.735232407606e-03 8.351165106391e-04 0.0 
1.892478661266e-03 9.017286204951e-04 0.0 
3.117336909613e-03 2.949519125601e-03 0.0 
1.453231844909e-03 5.905101289527e-03 0.0 
5.393458312131e-04 5.443999661866e-06 0.0 
4.905608796379e-04 -6.904777046152e-06 0.0 
5.686823294051e-04 3.274685163746e-03 0.0 
2.626186067943e-03 4.087045580234e-03 0.0 
3.042591387757e-04 2.101840823185e-05 0.0 
2.522754608919e-03 9.764651602132e-03 0.0 
7.255302780779e-04 -2.042437040031e-04 0.0 
-6.763603073927e-04 4.774769664939e-03 0.0 
4.188444227421e-04 1.883091573073e-06 0.0 
1.905847021314e-03 1.771339298110e-03 0.0 
1.786600683272e-04 -3.026958896505e-04 0.0 
2.543145569056e-03 1.768682947032e-03 0.0 
1.541433657803e-03 5.895793085359e-03 0.0 
1.627643858904e-03 6.372611084350e-03 0.0 
3.081221542771e-03 3.673836906416e-03 0.0 
2.050348712979e-03 1.068834038345e-02 0.0 
2.003250283977e-03 1.037033031048e-02 0.0 
3.757614885443e-04 -7.262331857248e-06 0.0 
1.630979977624e-03 3.089358378686e-04 0.0 
2.044046405640e-03 5.787509769134e-04 0.0 
1.795707024603e-03 5.552775407463e-04 0.0 
2.302806685765e-03 9.082934506719e-04 0.0 
2.106480864507e-03 1.881368201744e-03 0.0 
1.968680393018e-03 1.079405779595e-02 0.0 
1.764810509035e-03 7.336198578543e-03 0.0 
2.301923489072e-04 9.598678323925e-03 0.0 
1.847931574858e-03 8.248773108274e-04 0.0 
3.047248413883e-03 2.673101387612e-03 0.0 
1.134365906866e-03 5.874552268375e-04 0.0 
1.598698948299e-04 -3.955800123386e-05 0.0 
2.337858857792e-03 9.515264237015e-04 0.0 
2.542954655342e-04 2.695773652371e-05 0.0 
2.034835916305e-03 1.120770019499e-03 0.0 
1.396686745504e-03 8.041260911340e-04 0.0 
3.089128438329e-03 3.457568373164e-03 0.0 
2.768494535091e-03 2.643780043158e-03 0.0 
1.236274042310e-03 3.600427259021e-04 0.0 
1.072673808525e-03 -2.336181793221e-04 0.0 
2.822626212827e-03 4.225037693167e-03 0.0 
2.202151575986e-03 7.711558355704e-04 0.0 
2.881406559770e-03 4.661004572876e-03 0.0 
2.720603302549e-03 4.058165503796e-03 0.0 
2.622018737853e-03 2.198202444905e-03 0.0 
2.147157528851e-03 7.180729714956e-04 0.0 
8.976158792401e-04 -1.177749011466e-04 0.0 
2.814176045557e-03 4.827418997649e-03 0.0 
-7.132984676316e-04 3.357961511383e-03 0.0 
2.803961684840e-03 1.950673153810e-03 0.0 
1.892899423490e-05 4.786141179477e-03 0.0 
1.759701524977e-04 -6.768310068054e-04 0.0 
7.996290763000e-04 -1.829225140193e-04 0.0 
2.100255271170e-03 2.579383329241e-03 0.0 
1.723421867153e-03 5.871208935769e-03 0.0 
2.070415248285e-03 1.117334370102e-02 0.0 
7.602591352357e-05 2.417637722431e-04 0.0 
-1.240390844803e-03 3.827605118378e-03 0.0 
2.075419729976e-03 1.095649793980e-02 0.0 
1.975716941522e-03 5.185804436787e-04 0.0 
6.234484457331e-04 -2.629009010374e-04 0.0 
2.426862833114e-03 9.074306827800e-03 0.0 
1.770745848469e-03 5.249630522100e-04 0.0 
1.716829465772e-03 3.053663496596e-04 0.0 
2.980098837727e-03 3.505406667429e-03 0.0 
2.605113733804e-03 1.695287962756e-03 0.0 
1.594913137891e-03 2.512414250751e-03 0.0 
8.339492966234e-04 3.013094816428e-03 0.0 
8.098465792500e-04 -2.436157126429e-04 0.0 
5.821219213543e-04 -2.390486434935e-04 0.0 
6.574812110945e-04 -4.618444912728e-04 0.0 
1.825788083233e-03 8.714731154319e-03 0.0 
1.816793143729e-03 5.846597365184e-03 0.0 
5.774534942519e-05 -1.122435536548e-04 0.0 
6.113959097733e-05 -7.394272193375e-04 0.0 
-5.721040844887e-04 1.426251381748e-03 0.0 
4.104901999011e-04 -5.238472840014e-04 0.0 
5.121021274664e-04 -2.532386020435e-04 0.0 
2.201995433288e-03 1.091039854046e-03 0.0 
1.736043971743e-03 5.940852883411e-04 0.0 
1.804595206528e-03 1.143464019851e-03 0.0 
6.775674624850e-04 -1.835809840393e-04 0.0 
1.870761863523e-03 4.836019648083e-03 0.0 
4.693242408958e-04 -2.276919577638e-04 0.0 
2.308437384801e-03 1.287614152550e-03 0.0 
2.688520796823e-03 3.952388093127e-03 0.0 
1.076814155244e-03 7.919941127358e-03 0.0 
2.220389144553e-03 1.444315609501e-03 0.0 
4.017834961824e-04 -2.387979065571e-04 0.0 
6.068330568199e-04 -2.003602092658e-04 0.0 
1.953248650406e-03 1.140451282940e-02 0.0 
2.103426838265e-03 8.189100762476e-04 0.0 
3.573448339677e-04 -2.122682967723e-04 0.0 
4.021239762373e-05 5.831464372020e-03 0.0 
4.464561890086e-05 6.797433987553e-03 0.0 
2.030222973235e-03 1.133143271175e-02 0.0 
5.581998583707e-04 -1.776433217823e-04 0.0 
1.457218940985e-03 2.026659311073e-04 0.0 
7.886467206776e-04 5.355924578791e-03 0.0 
1.382083904017e-03 7.543541373681e-04 0.0 
4.240281945419e-04 -4.157919585678e-04 0.0 
1.487317000100e-03 1.635549030251e-04 0.0 
2.909176668898e-03 2.174378161561e-03 0.0 
1.994821964123e-03 1.135011287058e-02 0.0 
2.915170271570e-04 -2.208079244850e-04 0.0 
3.893559219657e-05 -6.575774889731e-04 0.0 
1.785573668785e-03 8.278824138958e-03 0.0 
4.907108363346e-04 -1.907851117303e-04 0.0 
1.902015849158e-03 4.245746181088e-04 0.0 
8.453452825196e-04 -2.008498910062e-04 0.0 
-5.462178676466e-04 2.759894762547e-03 0.0 
4.943668246394e-05 2.996553468208e-03 0.0 
1.796499749357e-03 4.054556965972e-04 0.0 
1.425533836433e-03 5.462097895741e-04 0.0 
2.765475332720e-03 2.485011657837e-03 0.0 
4.425623038770e-04 -1.667815719214e-04 0.0 
3.767370462235e-04 -1.771588081701e-04 0.0 
2.074463116311e-03 1.011906084915e-03 0.0 
1.819548998767e-04 -3.287496623969e-04 0.0 
-4.870889761649e-04 3.122341068317e-03 0.0 
3.287647654648e-04 -1.523694885498e-04 0.0 
1.289618686576e-03 4.040458199566e-04 0.0 
1.203062454585e-03 -8.029959009114e-05 0.0 
2.594536244935e-03 3.538679864376e-03 0.0 
2.482269312399e-03 9.699789216332e-03 0.0 
2.475231902550e-03 3.779810400747e-03 0.0 
4.642896588588e-04 1.077477492261e-04 0.0 
-1.135692751409e-03 1.600467854963e-03 0.0 
7.165550815384e-06 2.617280408075e-04 0.0 
1.209074403175e-05 3.704955824133e-06 0.0 
2.814746846197e-05 8.330528360380e-03 0.0 
1.508342782106e-03 9.914080151903e-05 0.0 
2.890180609810e-03 2.968070447870e-03 0.0 
2.284754056717e-03 1.419373949194e-03 0.0 
1.445122974633e-04 -6.723739440340e-04 0.0 
-9.822379044786e-04 4.030832985293e-03 0.0 
2.048659127505e-04 2.159480087960e-03 0.0 
1.898580848562e-03 5.318825759549e-03 0.0 
1.760762258556e-03 9.203710692210e-03 0.0 
3.845213373966e-04 2.727760508498e-04 0.0 
3.232604091850e-05 -6.966676575769e-04 0.0 
3.699145001835e-04 2.389370597458e-04 0.0 
1.805874585970e-03 5.357670639298e-03 0.0 
1.240996786155e-03 -1.226173811604e-04 0.0 
2.998176562709e-03 3.113122224050e-03 0.0 
1.413071295887e-03 3.937504390230e-05 0.0 
1.266811613657e-03 6.381218305279e-03 0.0 
1.226321462734e-03 -9.823730820072e-05 0.0 
1.914655889958e-03 4.321617244147e-03 0.0 
1.593722538189e-04 -2.064938180954e-05 0.0 
1.692350273579e-03 3.393242111200e-04 0.0 
2.372441432367e-03 3.364210908559e-03 0.0 
-9.461774743938e-04 1.345976029682e-03 0.0 
1.992634569384e-03 7.471500027738e-04 0.0 
1.509105776681e-03 3.945626504495e-03 0.0 
9.865556207115e-04 -2.836970069883e-04 0.0 
1.017660819430e-03 -2.089706615268e-04 0.0 
2.990667987423e-03 2.913467581041e-03 0.0 
5.746646875395e-04 2.699146219247e-04 0.0 
1.631860260620e-03 1.128918555736e-02 0.0 
1.806654686348e-03 1.143989525560e-02 0.0 
8.755641187983e-04 -3.282410811874e-04 0.0 
1.881171286241e-03 4.247749671742e-04 0.0 
3.073537999324e-03 2.668759054686e-03 0.0 
2.429411045872e-03 3.257737859295e-03 0.0 
9.908115031645e-04 1.652237817301e-03 0.0 
1.885971138489e-03 1.168221816275e-02 0.0 
7.409633012198e-05 4.829806036209e-03 0.0 
1.198572386651e-03 1.307982114641e-03 0.0 
2.138684905198e-03 1.331663585274e-03 0.0 
2.470817237562e-05 5.398026678741e-03 0.0 
2.607947996483e-03 9.418201936698e-03 0.0 
1.754438261470e-03 2.931721541742e-04 0.0 
2.171936565453e-03 3.640420620009e-03 0.0 
1.850157998798e-03 3.796810757799e-04 0.0 
2.396672078893e-04 2.769280744727e-03 0.0 
1.810376699190e-03 4.168122679885e-04 0.0 
1.691722348539e-03 7.455478715017e-03 0.0 
3.011527222959e-03 2.429648681975e-03 0.0 
1.807096395171e-03 3.813492101858e-04 0.0 
2.879652832154e-03 2.609647419542e-03 0.0 
2.836267307384e-04 6.020281798345e-03 0.0 
8.081451265475e-04 -3.775728585619e-04 0.0 
3.541218959722e-04 4.492838989633e-03 0.0 
1.714663867536e-03 3.747578187032e-04 0.0 
2.001520501028e-03 8.399160355581e-03 0.0 
-6.012468967501e-04 1.649866418188e-03 0.0 
1.828643371344e-05 1.962259293015e-03 0.0 
2.482928747590e-05 2.925243937489e-03 0.0 
-6.200395628986e-05 -3.610137246725e-04 0.0 
1.689339643071e-03 3.999455659131e-04 0.0 
5.388270306434e-04 -4.982361281481e-04 0.0 
5.740966216588e-04 -4.992669422069e-04 0.0 
2.047371108660e-03 2.658938884142e-03 0.0 
2.859360308298e-03 2.431510283117e-03 0.0 
2.299385001373e-03 2.867237279983e-03 0.0 
1.890283087115e-03 5.975298099212e-04 0.0 
5.244912023749e-04 9.650339864332e-03 0.0 
3.350722444721e-04 6.972931683527e-05 0.0 
4.560463998751e-04 -5.303522427396e-04 0.0 
1.622352576502e-03 6.470983324459e-04 0.0 
3.052618860550e-03 2.637005414487e-03 0.0 
9.518410829036e-05 -7.216932668590e-04 0.0 
2.176281254251e-03 4.154985612076e-03 0.0 
2.209394846521e-03 9.849721869612e-04 0.0 
6.632253270540e-05 -1.684512217467e-04 0.0 
1.834016901668e-03 7.535803876348e-04 0.0 
3.070583051000e-05 -1.391466163399e-04 0.0 
2.003043154951e-03 4.273944633439e-03 0.0 
3.516837735662e-04 -3.924505990057e-04 0.0 
1.200540327309e-04 -3.143249331491e-04 0.0 
2.128154219427e-03 3.137236782429e-03 0.0 
2.048656937503e-03 1.330522784861e-03 0.0 
1.045431680180e-03 -2.211910104239e-04 0.0 
7.962810542789e-05 -6.529845495396e-04 0.0 
2.963500229273e-03 2.376576865795e-03 0.0 
2.119518426556e-05 6.336377507338e-03 0.0 
2.815736025714e-05 1.385197465213e-05 0.0 
8.857873049029e-04 8.425796382529e-04 0.0 
5.322797549565e-04 9.981828291186e-04 0.0 
9.768923978898e-05 7.678817349913e-03 0.0 
3.443328498779e-04 1.473015529756e-03 0.0 
5.918321345405e-04 8.822170641739e-04 0.0 
1.897130989446e-03 5.303400949626e-04 0.0 
1.596679926438e-03 2.285265303329e-04 0.0 
7.703628718660e-04 3.106734859640e-04 0.0 
-1.078694958686e-03 1.853258851679e-03 0.0 
1.763139961517e-05 -6.789434016151e-04 0.0 
8.904226182967e-05 -2.893291449436e-04 0.0 
9.703958818272e-04 -2.799683914269e-04 0.0 
1.547675868765e-03 3.199551990691e-04 0.0 
1.054519077964e-03 1.057402314714e-02 0.0 
1.380429421326e-03 1.101359584331e-02 0.0 
9.212340131624e-04 7.853765646684e-03 0.0 
1.971070260663e-03 8.340783443562e-04 0.0 
2.174052287679e-04 -6.250666299247e-04 0.0 
2.297073245560e-03 1.789126345965e-03 0.0 
1.170432379024e-04 2.234926436392e-05 0.0 
1.514258135164e-04 3.055510399701e-05 0.0 
1.602298947621e-03 1.909056378855e-04 0.0 
1.192070416934e-03 8.453560730372e-03 0.0 
-7.193351937122e-04 1.294614531043e-03 0.0 
2.703281132501e-04 8.579761453833e-03 0.0 
4.623163997882e-04 3.608618601408e-04 0.0 
7.289530716456e-04 9.733532823814e-03 0.0 
2.907142948402e-03 2.324325232545e-03 0.0 
1.285720365471e-03 3.720304605369e-06 0.0 
1.673444275022e-03 3.916418517740e-04 0.0 
-1.637051259746e-04 7.133661954551e-04 0.0 
5.651265492859e-05 2.647753376882e-03 0.0 
1.397664535065e-03 6.616825296105e-05 0.0 
1.779106253173e-04 2.110271729923e-03 0.0 
1.501111850189e-04 3.512527586575e-03 0.0 
2.148416785748e-05 5.781047379420e-04 0.0 
2.711526502143e-05 6.785670622726e-06 0.0 
5.159790309727e-05 7.787459810435e-03 0.0 
1.324386134442e-03 -4.101062256296e-05 0.0 
1.565650370329e-03 1.172688289737e-02 0.0 
1.327979068402e-03 -5.669214218588e-05 0.0 
4.493188878163e-05 8.103698386067e-06 0.0 
-2.962543065540e-04 5.697759196154e-03 0.0 
-4.945362798134e-05 7.073184915672e-03 0.0 
1.514633791594e-03 6.559265633282e-04 0.0 
8.888407152191e-04 8.736941721786e-03 0.0 
1.068396752714e-04 2.020296296529e-03 0.0 
2.189531225358e-03 3.053265884148e-03 0.0 
1.647459970228e-03 1.060938511738e-03 0.0 
1.729153404325e-03 2.929742907789e-03 0.0 
3.321985765123e-04 7.456426136357e-03 0.0 
8.440109882271e-04 -3.210249170479e-04 0.0 
9.110718905059e-04 -2.605318783902e-04 0.0 
9.291944987995e-05 5.312072863396e-03 0.0 
1.882318133595e-03 1.291974552378e-03 0.0 
1.541028431950e-03 9.154620620263e-03 0.0 
1.792813043676e-04 8.756940844442e-03 0.0 
2.136255139541e-04 7.902882409067e-03 0.0 
3.819594288296e-04 7.573405532226e-03 0.0 
3.000147990278e-04 8.322154883399e-04 0.0 
7.431235107999e-04 -3.668163348861e-04 0.0 
1.569399716787e-04 1.291648210429e-03 0.0 
3.657618632551e-04 6.540672712054e-03 0.0 
6.159298897192e-04 3.051823233404e-04 0.0 
1.086760956044e-03 1.724286022261e-03 0.0 
2.257248875234e-03 4.078646676809e-03 0.0 
5.107767211397e-04 2.036824466980e-03 0.0 
3.722281911203e-04 -4.709153511511e-04 0.0 
3.476427137342e-04 -5.289666089331e-04 0.0 
5.714837077278e-04 1.121578244924e-04 0.0 
-3.984351675375e-04 7.158604186002e-04 0.0 
9.418580490570e-05 -6.687725397902e-04 0.0 
1.864473044298e-04 1.258226818779e-04 0.0 
1.707554424768e-05 -7.498343359862e-04 0.0 
2.209973444143e-04 8.465835000195e-03 0.0 
1.029868287439e-03 3.634169685482e-04 0.0 
7.155585752124e-05 -5.617388392068e-04 0.0 
2.325084632602e-05 -6.827974608591e-04 0.0 
9.566048681387e-05 5.001514847907e-04 0.0 
7.772214254306e-04 9.380595222816e-03 0.0 
2.324565593767e-04 1.398346061620e-03 0.0 
1.007516487675e-03 4.069643873392e-04 0.0 
6.725944710495e-04 9.383545553771e-03 0.0 
-8.186431595145e-04 1.859518829783e-03 0.0 
3.742992799515e-05 1.083029811511e-03 0.0 
1.636016206427e-04 -6.909581265737e-04 0.0 
2.593941431385e-04 1.823125358331e-03 0.0 
3.555212848716e-05 6.310983084641e-06 0.0 
8.908051250955e-04 1.702619910424e-03 0.0 
6.821839351786e-04 8.068750986850e-04 0.0 
1.325037928722e-03 7.798037286019e-03 0.0 
2.250652753306e-04 -4.894542000324e-04 0.0 
2.277005493557e-03 1.673908963653e-03 0.0 
3.242877733814e-04 1.620363213609e-04 0.0 
8.813367038186e-05 4.339022789835e-03 0.0 
3.188944218525e-04 1.446974277172e-04 0.0 
-1.281081102639e-04 9.002036515866e-04 0.0 
2.124340793261e-04 3.129829994687e-05 0.0 
7.982793533793e-04 4.987720081836e-04 0.0 
7.719395231520e-05 -7.381618053717e-04 0.0 
5.911766051498e-04 1.817479543670e-04 0.0 
4.173964572870e-04 1.217886517966e-03 0.0 
2.091345516138e-04 9.841028212529e-04 0.0 
4.997860632798e-04 8.650093601978e-03 0.0 
1.675534196873e-03 7.317631577129e-03 0.0 
1.195535149330e-03 5.647155086783e-03 0.0 
7.060216809999e-04 1.012728940179e-03 0.0 
1.731911476513e-04 -5.727224413359e-04 0.0 
-1.151511006808e-06 3.351399740162e-03 0.0 
2.076697739798e-03 1.432792557580e-03 0.0 
4.143780766723e-04 9.654269246435e-03 0.0 
5.637441043112e-04 1.672603075665e-03 0.0 
3.019737157855e-06 5.491114068538e-04 0.0 
3.019737157855e-06 2.317945524038e-04 0.0 
2.618007671578e-06 -7.737271996716e-04 0.0 
1.735962049904e-06 -7.735238936939e-04 0.0 
2.214042676317e-05 9.293078689051e-03 0.0 
5.284040844201e-05 9.629598803186e-03 0.0 
4.693533003851e-06 2.678398589267e-06 0.0 
4.693533003851e-06 5.164333821325e-06 0.0 
1.027917087528e-05 -7.695826944511e-04 0.0 
-7.971448992710e-04 9.242281383536e-04 0.0 
2.137591352891e-04 1.712119744631e-05 0.0 
1.429605414236e-03 1.138166914876e-03 0.0 
1.646061868021e-04 -7.021706230555e-04 0.0 
3.511116920198e-04 4.945440144941e-05 0.0 
5.309846260635e-05 -2.341103369578e-04 0.0 
5.427282180077e-05 -3.636075246358e-04 0.0 
2.473556027553e-04 6.159011661055e-03 0.0 
3.901072640901e-04 7.651912947578e-05 0.0 
2.603996420983e-03 2.054709570259e-03 0.0 
1.297118998643e-04 -7.046750672696e-04 0.0 
3.191760333333e-04 -4.117237467596e-04 0.0 
9.459391840052e-04 1.395964151290e-03 0.0 
1.059711372729e-05 2.423665987000e-03 0.0 
1.049462951494e-04 -3.543678362461e-04 0.0 
1.609560442768e-04 7.141103665724e-03 0.0 
1.338648360179e-03 1.280751190745e-03 0.0 
1.659969496130e-03 2.492194001180e-03 0.0 
1.993933533762e-03 3.276036912339e-03 0.0 
5.729491594563e-04 9.340951468700e-03 0.0 
2.694885186776e-03 2.004678604973e-03 0.0 
7.085173597433e-04 1.711555132289e-03 0.0 
1.367289681691e-04 -6.598578678458e-04 0.0 
-8.285629266447e-05 -4.124626839845e-04 0.0 
1.574686495164e-03 1.585686597732e-03 0.0 
1.667764972075e-03 7.095044908393e-04 0.0 
2.538123686386e-04 1.074794206201e-04 0.0 
1.287992125309e-04 5.416871359698e-03 0.0 
1.185292043416e-04 1.660440160277e-05 0.0 
1.634914286985e-03 1.457500588498e-03 0.0 
1.375850367657e-03 1.198852237539e-03 0.0 
6.414259066895e-05 -1.722793533772e-04 0.0 
-8.199085476607e-04 2.690359650382e-03 0.0 
9.841667827939e-04 1.121596975487e-02 0.0 
2.012175669758e-03 7.631646105577e-03 0.0 
1.391748069491e-03 7.477518168995e-03 0.0 
2.727160491994e-03 2.163381646767e-03 0.0 
2.023274692827e-04 1.764559138830e-03 0.0 
6.653032712347e-04 2.801898072248e-04 0.0 
-2.494370335338e-05 -7.757786664823e-05 0.0 
2.655093524957e-05 -3.648108521087e-04 0.0 
1.731397511955e-04 9.624372868146e-03 0.0 
2.110487884294e-04 4.972282456116e-03 0.0 
2.559123905244e-04 -5.953515436688e-04 0.0 
4.753605162257e-04 1.646397468479e-03 0.0 
9.698467508561e-05 -7.280190652733e-04 0.0 
1.134364892918e-03 5.010683664594e-04 0.0 
8.506150904107e-04 7.775099566816e-03 0.0 
7.369447355717e-04 4.488096858111e-04 0.0 
2.109568685803e-03 1.628037383764e-03 0.0 
1.531895024959e-03 7.430095062917e-03 0.0 
5.008038240458e-04 1.284863890612e-04 0.0 
3.658360007556e-04 1.202069300523e-03 0.0 
3.080063093921e-05 1.267608822900e-03 0.0 
-3.687802548441e-04 6.569206506938e-03 0.0 
4.659230531228e-04 1.996264847473e-03 0.0 
7.179541776781e-04 7.033682320823e-04 0.0 
1.164924308589e-03 4.913805100557e-04 0.0 
1.895121327596e-03 1.372001996250e-03 0.0 
6.212732380626e-05 1.201489477144e-05 0.0 
1.921479643511e-03 3.329817943912e-03 0.0 
-1.329833510223e-03 2.990548364144e-03 0.0 
3.158626556024e-04 3.989777865224e-03 0.0 
1.384907970225e-03 2.138359396593e-03 0.0 
1.263791556243e-03 6.876187267938e-03 0.0 
1.122014651180e-04 2.700192442187e-06 0.0 
1.664822624021e-03 1.191895292437e-03 0.0 
2.198970188616e-04 3.880926274959e-05 0.0 
1.833085792307e-04 3.985410692450e-03 0.0 
7.024211682478e-04 3.901923116853e-04 0.0 
6.253683963658e-04 1.428974622347e-04 0.0 
6.564642343517e-04 1.600976528973e-04 0.0 
1.889481091263e-04 -5.913951209922e-04 0.0 
9.984780287773e-05 1.843806797855e-05 0.0 
1.133352258764e-03 8.796477947432e-03 0.0 
1.293695977191e-04 2.047046334621e-03 0.0 
8.045682405790e-05 -3.087660913776e-04 0.0 
8.459627378778e-05 2.839541307290e-03 0.0 
1.940676376402e-04 5.369426795865e-03 0.0 
1.015584657187e-05 -7.634499569695e-04 0.0 
5.102584008884e-04 9.272204088200e-04 0.0 
1.866663652815e-03 2.855741626645e-03 0.0 
1.690489085590e-04 1.056191634454e-03 0.0 
6.552977075330e-05 1.953475650458e-03 0.0 
9.069986012228e-04 4.971604318168e-04 0.0 
4.007154547232e-04 7.060214875777e-03 0.0 
-1.160564590958e-05 -5.805482820579e-04 0.0 
-4.206809670551e-04 2.058854420979e-03 0.0 
3.266767882901e-05 -6.077886842419e-04 0.0 
1.787984523825e-04 -3.938680012104e-04 0.0 
-1.439363436795e-03 3.306105259593e-03 0.0 
2.837638290865e-04 -4.389720861967e-04 0.0 
1.408928603279e-04 5.205387038916e-06 0.0 
8.669106396631e-04 1.766345242307e-03 0.0 
1.615414211114e-03 6.823033534400e-03 0.0 
3.924549539115e-04 -4.954544873590e-04 0.0 
5.569765513418e-04 1.006108176484e-04 0.0 
9.849860909297e-04 3.140464031059e-04 0.0 
8.789182081271e-04 5.642392345142e-04 0.0 
1.159980669711e-03 1.139809933195e-03 0.0 
1.499495333430e-03 2.104474028753e-03 0.0 
8.739982037265e-05 -4.124024044071e-04 0.0 
-3.252084993403e-04 1.064525506439e-03 0.0 
1.963794360862e-04 1.232016980707e-05 0.0 
2.308177301528e-05 -7.600504532795e-04 0.0 
5.562135318883e-06 -7.578585573909e-04 0.0 
-6.812457703675e-04 3.775195292024e-03 0.0 
8.080480763333e-05 -5.971625712061e-04 0.0 
3.805166158900e-04 9.493504996718e-05 0.0 
6.304030271560e-04 7.561624383619e-04 0.0 
1.813314808216e-04 1.760678563262e-03 0.0 
6.941135588596e-04 4.573308147946e-04 0.0 
1.175246142637e-03 3.825489901279e-04 0.0 
3.223431548545e-04 6.509347732741e-03 0.0 
4.360113092492e-05 2.089915114604e-04 0.0 
7.524534966705e-04 3.393119144997e-04 0.0 
7.271014671485e-04 9.701481067219e-03 0.0 
1.606164524072e-04 9.404276292388e-06 0.0 
4.439000400041e-05 -6.995895777393e-04 0.0 
6.884138115221e-05 1.199590464928e-05 0.0 
1.546414728398e-03 8.560930215779e-03 0.0 
8.018469346178e-05 -7.378157782412e-04 0.0 
1.984034518490e-04 -4.628498565830e-04 0.0 
7.204352191016e-04 9.256399210591e-04 0.0 
2.904878556482e-04 1.872274407304e-03 0.0 
3.543739581184e-04 9.473733015268e-04 0.0 
1.091229764997e-04 -6.271550642424e-04 0.0 
-3.554800218975e-04 1.759437761287e-03 0.0 
2.916650292769e-04 4.977655001333e-05 0.0 
1.018528797324e-05 4.935225932113e-04 0.0 
1.678427703560e-05 6.383354413399e-06 0.0 
5.028789522515e-05 8.756478179726e-03 0.0 
8.832690490108e-04 2.958098584656e-04 0.0 
1.049648339590e-04 -7.276783973328e-04 0.0 
4.423632852834e-04 1.651205003293e-03 0.0 
3.505836642636e-05 -6.684365108366e-04 0.0 
4.475913588692e-04 1.330691095504e-04 0.0 
4.735041063096e-04 1.228341520498e-03 0.0 
-7.126728617709e-04 2.132509006397e-03 0.0 
1.671150677547e-03 1.413009044957e-03 0.0 
1.815926676139e-04 4.455544913875e-03 0.0 
1.117828069677e-04 1.000145704622e-03 0.0 
1.326159104853e-04 6.273997225463e-05 0.0 
7.650223923252e-05 5.814388523799e-03 0.0 
5.759735024485e-04 7.663820033191e-04 0.0 
6.059542843090e-04 1.675710264949e-03 0.0 
1.516336433637e-04 5.114033909424e-03 0.0 
9.461719126557e-04 1.259029509774e-03 0.0 
2.114856276633e-04 -5.442032108124e-04 0.0 
3.620543365760e-04 9.358630090935e-03 0.0 
1.181166048101e-03 8.393457919032e-04 0.0 
1.070905714401e-05 1.050067115378e-03 0.0 
6.567505243966e-06 -7.714372843145e-04 0.0 
9.823175086433e-05 9.345405368679e-03 0.0 
1.508311419080e-05 7.772027407839e-06 0.0 
1.882245323922e-04 -6.891209643723e-04 0.0 
1.096134110525e-03 4.232034211168e-04 0.0 
7.727845958376e-04 1.768367618521e-03 0.0 
1.312900637381e-04 1.297486123336e-03 0.0 
1.176182999772e-04 -7.213567768591e-04 0.0 
-1.974342347562e-04 3.136586172335e-03 0.0 
2.234756831774e-05 -3.303180880381e-04 0.0 
7.189412235470e-05 3.462787101564e-03 0.0 
-9.863575274660e-04 1.137417268700e-03 0.0 
2.710107333841e-04 9.351046264036e-04 0.0 
1.380370248237e-04 6.003204233021e-03 0.0 
3.716352507891e-04 -3.506550332644e-05 0.0 
2.614809803127e-04 6.716513962614e-03 0.0 
8.925302798202e-04 6.300902848075e-04 0.0 
4.200927076514e-05 -2.960826114429e-04 0.0 
-1.212227493690e-03 3.473775883496e-03 0.0 
2.405035630743e-04 -5.785948480890e-04 0.0 
2.893967981748e-04 -3.822348833951e-04 0.0 
1.966170244741e-05 -2.633911993876e-04 0.0 
1.185850351245e-03 6.820129348571e-04 0.0 
1.496412863854e-04 -4.054133844424e-04 0.0 
1.932471314129e-04 -3.604988166787e-04 0.0 
7.928116568590e-05 -6.484604626827e-04 0.0 
3.768910932290e-04 5.679513827101e-05 0.0 
1.549750656604e-03 1.650085427265e-03 0.0 
2.983433163427e-04 3.143750961696e-03 0.0 
1.787460795939e-05 9.944783017355e-04 0.0 
2.717385822255e-05 8.991047999913e-06 0.0 
9.567923764747e-05 8.808301075786e-03 0.0 
1.043352330801e-04 6.217966862010e-03 0.0 
2.060528652009e-04 -4.094402782502e-04 0.0 
2.309104903628e-04 -3.842980356821e-04 0.0 
1.415558325167e-04 -3.729305051873e-04 0.0 
1.345252481978e-03 5.603628635908e-04 0.0 
2.393177796774e-04 -6.996164355480e-05 0.0 
1.301944202197e-03 1.366493115730e-03 0.0 
1.726094681768e-04 7.697874252728e-03 0.0 
3.275543809586e-04 1.221261942345e-03 0.0 
1.301564922390e-03 5.130522482302e-04 0.0 
3.075358940052e-04 6.911910500594e-03 0.0 
1.255342096468e-03 1.822716826427e-03 0.0 
1.170299285847e-03 7.048117099772e-04 0.0 
8.820012590489e-04 5.236270641764e-04 0.0 
-9.861272506295e-04 3.259769969770e-03 0.0 
1.304873101434e-03 1.809051708159e-03 0.0 
1.117636946768e-03 1.467425660287e-03 0.0 
7.304066610943e-05 -6.688116319547e-04 0.0 
2.291269687662e-04 -4.346254654003e-04 0.0 
-1.033608439177e-03 2.954614414539e-03 0.0 
1.041627699008e-03 1.483006803145e-03 0.0 
1.852530298608e-04 1.661558140387e-02 0.0 
2.079071069513e-04 1.627836692011e-02 0.0 
2.888251878420e-04 1.662276754350e-02 0.0 
3.076821104873e-04 1.628915129579e-02 0.0 
3.827139286912e-04 1.663188578639e-02 0.0 
4.055366121960e-04 1.629734587627e-02 0.0 
4.777444498783e-04 1.663912552013e-02 0.0 
5.009518296324e-04 1.630495922981e-02 0.0 
5.709088878029e-04 1.664603030520e-02 0.0 
5.926327790199e-04 1.631242536089e-02 0.0 
6.597337327320e-04 1.665224999281e-02 0.0 
6.790721677953e-04 1.631906640726e-02 0.0 
7.421808456100e-04 1.665672984691e-02 0.0 
7.587020250552e-04 1.632367414407e-02 0.0 
8.163961692970e-04 1.665804204730e-02 0.0 
8.299169807965e-04 1.632467284358e-02 0.0 
8.805491545298e-04 1.665440969823e-02 0.0 
8.910522417787e-04 1.632010943869e-02 0.0 
9.327368065516e-04 1.664365252950e-02 0.0 
-1.452500425424e-04 1.198301738049e-02 0.0 
9.403590732972e-04 1.630758916758e-02 0.0 
9.709264086693e-04 1.662311055389e-02 0.0 
9.759888177661e-04 1.628418789367e-02 0.0 
9.321464551679e-05 1.225001735241e-02 0.0 
9.929204740130e-04 1.658955070648e-02 0.0 
9.959975245008e-04 1.624633355638e-02 0.0 
9.963483181889e-04 1.653900749574e-02 0.0 
9.983790292218e-04 1.618960573046e-02 0.0 
9.787014159706e-04 1.646660055664e-02 0.0 
-6.748069053144e-04 1.211164821369e-02 0.0 
9.811592837262e-04 1.610854789215e-02 0.0 
9.374401260201e-04 1.636627814831e-02 0.0 
9.425451943992e-04 1.599635207962e-02 0.0 
8.701335076712e-04 1.623066614966e-02 0.0 
8.811755836962e-04 1.584469976513e-02 0.0 
7.746791043700e-04 1.605045745205e-02 0.0 
7.964191002336e-04 1.564283654153e-02 0.0 
6.496528130375e-04 1.581409527353e-02 0.0 
6.890688819336e-04 1.537727494227e-02 0.0 
4.950258618074e-04 1.550555009609e-02 0.0 
5.620096125484e-04 1.502856695461e-02 0.0 
1.455540282739e-04 1.121204701234e-02 0.0 
4.215280193557e-04 1.457193816272e-02 0.0 
3.136397624180e-04 1.510267333213e-02 0.0 
2.808316404554e-04 1.398483422436e-02 0.0 
1.133598740138e-04 1.458158920813e-02 0.0 
1.565463911272e-04 1.323780955070e-02 0.0 
-9.063552147542e-05 1.392429325358e-02 0.0 
-2.735199611537e-04 1.308549266492e-02 0.0 
-3.840028344981e-04 1.134067784555e-02 0.0 
2.366874607878e-05 1.644275726966e-02 0.0 
1.170972640863e-04 1.644319202190e-02 0.0 
6.327050653381e-05 1.609979097296e-02 0.0 
7.749550363131e-05 1.678615831860e-02 0.0 
-4.556330654014e-04 1.059529979740e-02 0.0 
1.412507743801e-04 1.526150275681e-02 0.0 
1.838494120075e-04 1.560317254515e-02 0.0 
2.451484471516e-04 1.527244589823e-02 0.0 
2.880630647406e-04 1.561402402549e-02 0.0 
3.444750575290e-04 1.528266315117e-02 0.0 
3.869167867804e-04 1.562325051136e-02 0.0 
4.398709602414e-04 1.529210878033e-02 0.0 
4.816981654110e-04 1.563203785492e-02 0.0 
5.314358185861e-04 1.530154953937e-02 0.0 
5.724133740244e-04 1.564086596996e-02 0.0 
6.187883039741e-04 1.531079493478e-02 0.0 
6.583461440330e-04 1.564917074018e-02 0.0 
7.012060587863e-04 1.531896849830e-02 0.0 
7.384532619939e-04 1.565580846255e-02 0.0 
7.777809948785e-04 1.532473879293e-02 0.0 
8.115505694394e-04 1.565923527073e-02 0.0 
8.475183081204e-04 1.532637979860e-02 0.0 
8.763878067265e-04 1.565751711190e-02 0.0 
8.991644969791e-04 1.256164753240e-02 0.0 
9.093928379259e-04 1.532174363784e-02 0.0 
9.316795397238e-04 1.564827260270e-02 0.0 
9.623891166539e-04 1.530818660245e-02 0.0 
6.239715216237e-04 1.274703659278e-02 0.0 
9.761310593241e-04 1.562858050711e-02 0.0 
1.017361150249e-03 1.267713674058e-02 0.0 
1.005548755783e-03 1.528245712076e-02 0.0 
1.008483564712e-03 1.559484735722e-02 0.0 
1.038041957004e-03 1.524053172918e-02 0.0 
1.027586627825e-03 1.554261616306e-02 0.0 
1.059273475531e-03 1.517741049005e-02 0.0 
1.032523744683e-03 1.546634739295e-02 0.0 
1.069038628874e-03 1.508686057736e-02 0.0 
1.022779236296e-03 1.535913500786e-02 0.0 
1.064715129494e-03 1.201511248622e-02 0.0 
1.067741840710e-03 1.496112539136e-02 0.0 
9.985498748384e-04 1.521237607858e-02 0.0 
1.056729113862e-03 1.479039533304e-02 0.0 
9.610948185831e-04 1.501509810908e-02 0.0 
9.134692800523e-04 1.475318415773e-02 0.0 
1.038728929506e-03 1.456226605653e-02 0.0 
8.608519526130e-04 1.440728395027e-02 0.0 
1.018268599991e-03 1.426017630721e-02 0.0 
8.112299524377e-04 1.395410108442e-02 0.0 
7.740268862253e-04 1.336741978286e-02 0.0 
1.002184035565e-03 1.386355324949e-02 0.0 
9.962570528657e-04 1.334633768832e-02 0.0 
7.895221541383e-04 1.220050154660e-02 0.0 
1.815221928186e-05 1.542121785274e-02 0.0 
9.163617675250e-05 1.542536484258e-02 0.0 
5.775397973689e-05 1.576084806573e-02 0.0 
5.203441629746e-05 1.508573462959e-02 0.0 
6.888316303122e-04 1.185579919201e-02 0.0 
1.344216612539e-04 1.458704532991e-02 0.0 
1.665086275315e-04 1.425334650783e-02 0.0 
2.346367758018e-04 1.459707728781e-02 0.0 
2.657276467238e-04 1.426387337788e-02 0.0 
3.326513108620e-04 1.460788111398e-02 0.0 
3.628353613266e-04 1.427483936423e-02 0.0 
4.276132814546e-04 1.461847967040e-02 0.0 
4.571968354068e-04 1.428596759634e-02 0.0 
5.191921673685e-04 1.462910839073e-02 0.0 
5.484971956486e-04 1.429719034589e-02 0.0 
6.071157768159e-04 1.463956045936e-02 0.0 
6.364286487994e-04 1.430801234998e-02 0.0 
6.909610907110e-04 1.464904458353e-02 0.0 
7.206019244659e-04 1.431743725588e-02 0.0 
7.701746254258e-04 1.465629150104e-02 0.0 
8.005659384817e-04 1.432400532855e-02 0.0 
8.441400466154e-04 1.465959714831e-02 0.0 
1.447521586856e-03 1.261087316647e-02 0.0 
8.758602197737e-04 1.432579706721e-02 0.0 
9.122435124781e-04 1.465680624344e-02 0.0 
1.501097351762e-03 1.262958659552e-02 0.0 
9.460759304674e-04 1.432039091294e-02 0.0 
9.739348328452e-04 1.464524230709e-02 0.0 
1.010919969043e-03 1.430477067658e-02 0.0 
1.028791949310e-03 1.462159158559e-02 0.0 
1.070288366876e-03 1.427518637978e-02 0.0 
1.282788877297e-03 1.283934267488e-02 0.0 
1.076603565640e-03 1.458173628691e-02 0.0 
1.124356698751e-03 1.422694338485e-02 0.0 
1.117481937821e-03 1.452053315411e-02 0.0 
1.173735464654e-03 1.415418566338e-02 0.0 
1.152041886554e-03 1.443157618373e-02 0.0 
1.219608026690e-03 1.404956344647e-02 0.0 
1.181567373424e-03 1.430683822360e-02 0.0 
1.264000877628e-03 1.390394957866e-02 0.0 
1.208354583937e-03 1.413625600088e-02 0.0 
1.309873076359e-03 1.370558954555e-02 0.0 
1.572654850725e-03 1.219089279856e-02 0.0 
1.361606382497e-03 1.344035522702e-02 0.0 
1.235881717206e-03 1.390689682517e-02 0.0 
1.422816335287e-03 1.308960399098e-02 0.0 
1.269252914735e-03 1.360271660786e-02 0.0 
1.313164103495e-03 1.320333298954e-02 0.0 
1.407922141166e-03 1.241936230697e-02 0.0 
1.633937176529e-05 1.441140553009e-02 0.0 
8.299421610970e-05 1.441440219984e-02 0.0 
4.911201909409e-05 1.407657831617e-02 0.0 
5.022156878089e-05 1.474922941376e-02 0.0 
1.364724580758e-03 1.223607427813e-02 0.0 
1.266478728270e-04 1.324048160538e-02 0.0 
1.613406474879e-04 1.357960350840e-02 0.0 
2.226037047622e-04 1.324921508428e-02 0.0 
2.588625557279e-04 1.358975417377e-02 0.0 
3.182394798338e-04 1.326003368342e-02 0.0 
3.552886212945e-04 1.360111113778e-02 0.0 
4.127566827486e-04 1.327170580229e-02 0.0 
4.498869767329e-04 1.361292195469e-02 0.0 
5.056886265434e-04 1.328376138918e-02 0.0 
5.423035134974e-04 1.362488898599e-02 0.0 
5.968331739338e-04 1.329571738053e-02 0.0 
6.323397280686e-04 1.363647063105e-02 0.0 
6.860858337468e-04 1.330674945889e-02 0.0 
7.198155882326e-04 1.364668385018e-02 0.0 
7.733761898287e-04 1.331561933078e-02 0.0 
8.045538391179e-04 1.365408656399e-02 0.0 
1.710683823474e-03 1.232249809050e-02 0.0 
8.586610272410e-04 1.332063577624e-02 0.0 
8.863932997631e-04 1.365675445971e-02 0.0 
1.613119249458e-03 1.259249327370e-02 0.0 
9.419620078258e-04 1.331961080416e-02 0.0 
9.652613458256e-04 1.365223808116e-02 0.0 
1.722720664213e-03 1.226775427651e-02 0.0 
1.023440843816e-03 1.330979870016e-02 0.0 
1.041240564656e-03 1.363747990143e-02 0.0 
1.103447129228e-03 1.328778819775e-02 0.0 
1.114622951181e-03 1.360867376709e-02 0.0 
1.182574551451e-03 1.324934721228e-02 0.0 
1.185993100258e-03 1.356106692291e-02 0.0 
1.817905730695e-03 1.197737422528e-02 0.0 
1.261718288900e-03 1.318912542109e-02 0.0 
1.256335414227e-03 1.348865439230e-02 0.0 
1.342263918992e-03 1.310056728947e-02 0.0 
1.327230109555e-03 1.338408582329e-02 0.0 
1.400864828359e-03 1.323798287786e-02 0.0 
1.426053407021e-03 1.297539389962e-02 0.0 
1.480368060770e-03 1.303906529183e-02 0.0 
1.515713519080e-03 1.280376504636e-02 0.0 
1.568356051749e-03 1.277312182831e-02 0.0 
1.613126370868e-03 1.257313917274e-02 0.0 
1.720341156679e-03 1.224736940849e-02 0.0 
1.579883279899e-05 1.340370325497e-02 0.0 
7.984786876007e-05 1.340560478588e-02 0.0 
4.857148012779e-05 1.374060162732e-02 0.0 
4.707522143127e-05 1.306870641354e-02 0.0 
1.717971490776e-03 1.217073373175e-02 0.0 
1.254132518331e-04 1.256834233738e-02 0.0 
1.574589381535e-04 1.223433542233e-02 0.0 
2.199566164218e-04 1.257608626621e-02 0.0 
2.526344496461e-04 1.224291395710e-02 0.0 
3.146584620925e-04 1.258632228482e-02 0.0 
3.479440532717e-04 1.225361030112e-02 0.0 
4.089931324671e-04 1.259791636422e-02 0.0 
4.430501470732e-04 1.226550097930e-02 0.0 
5.026153471652e-04 1.261012985186e-02 0.0 
5.378236091591e-04 1.227782514779e-02 0.0 
5.954265489738e-04 1.262228507965e-02 0.0 
6.322745615745e-04 1.228978229551e-02 0.0 
6.874272922127e-04 1.263349342424e-02 0.0 
7.265347981498e-04 1.230026987419e-02 0.0 
7.787539412800e-04 1.264246138944e-02 0.0 
1.795141420688e-03 1.178070753078e-02 0.0 
8.208418581186e-04 1.230780640305e-02 0.0 
1.778904690393e-03 1.167725947291e-02 0.0 
8.695712947904e-04 1.264751355664e-02 0.0 
9.154711435500e-04 1.231044649069e-02 0.0 
9.601295840632e-04 1.264642505475e-02 0.0 
1.010854557613e-03 1.230563621017e-02 0.0 
1.050866479366e-03 1.263638257858e-02 0.0 
1.107623737893e-03 1.229021652328e-02 0.0 
1.742504223307e-03 1.207312664289e-02 0.0 
1.142404666915e-03 1.261394094119e-02 0.0 
1.206596433754e-03 1.226030000708e-02 0.0 
1.235590496337e-03 1.257482070883e-02 0.0 
1.308825977079e-03 1.221110331348e-02 0.0 
1.331535220836e-03 1.251368831511e-02 0.0 
1.415533190921e-03 1.213643240391e-02 0.0 
1.431644763751e-03 1.242378240706e-02 0.0 
1.528391123567e-03 1.202909372052e-02 0.0 
1.648558142707e-03 1.187988210112e-02 0.0 
1.537833576274e-03 1.229718667927e-02 0.0 
1.888077822642e-03 1.149682116146e-02 0.0 
1.651626664174e-03 1.212387148998e-02 0.0 
1.835440625261e-03 1.178924027357e-02 0.0 
1.547283262900e-05 1.239590965046e-02 0.0 
7.828724759611e-05 1.239749771459e-02 0.0 
4.701085896383e-05 1.206066875481e-02 0.0 
4.674922126128e-05 1.273273861024e-02 0.0 
1.860427385286e-03 1.178388525162e-02 0.0 
1.227370099541e-04 1.122305103357e-02 0.0 
1.556778562104e-04 1.156137034762e-02 0.0 
2.156785829203e-04 1.122946631832e-02 0.0 
2.501374980877e-04 1.156925908393e-02 0.0 
3.094185847906e-04 1.123853763683e-02 0.0 
3.452011275282e-04 1.157948052630e-02 0.0 
4.039410705866e-04 1.124929848239e-02 0.0 
4.407410109361e-04 1.159101287228e-02 0.0 
4.992583300806e-04 1.126078125208e-02 0.0 
5.367757282116e-04 1.160296465503e-02 0.0 
5.955528663981e-04 1.127222989567e-02 0.0 
6.334487599463e-04 1.161458760431e-02 0.0 
6.930350331026e-04 1.128260989652e-02 0.0 
1.755509209747e-03 1.107394119366e-02 0.0 
7.309683406679e-04 1.162458103768e-02 0.0 
7.921210919262e-04 1.129055453567e-02 0.0 
1.732855112121e-03 1.138640951352e-02 0.0 
8.297754662467e-04 1.163158838579e-02 0.0 
8.932859247545e-04 1.129450738174e-02 0.0 
1.721877533803e-03 1.093602239836e-02 0.0 
9.302521653860e-04 1.163365833305e-02 0.0 
9.970203780706e-04 1.129213964006e-02 0.0 
1.032964329784e-03 1.162813895313e-02 0.0 
1.104044006317e-03 1.128058012605e-02 0.0 
1.138691492673e-03 1.161191132780e-02 0.0 
1.840569860436e-03 1.082618043773e-02 0.0 
1.215251367088e-03 1.125648010168e-02 0.0 
1.248375379147e-03 1.158114436306e-02 0.0 
1.363088454507e-03 1.153112472248e-02 0.0 
1.331631919158e-03 1.121568647381e-02 0.0 
1.484114663387e-03 1.145603112061e-02 0.0 
1.454379170730e-03 1.115330844081e-02 0.0 
1.611985319636e-03 1.134855810173e-02 0.0 
1.583820432287e-03 1.106284550497e-02 0.0 
1.817915762810e-03 1.113864875758e-02 0.0 
1.524398217698e-05 1.138779540951e-02 0.0 
7.716323720825e-05 1.138911623038e-02 0.0 
4.678200851181e-05 1.172461349969e-02 0.0 
4.562521087342e-05 1.105229814020e-02 0.0 
1.860896819615e-03 1.118550932811e-02 0.0 
1.218989652981e-04 1.055057125404e-02 0.0 
1.532307213242e-04 1.021583047057e-02 0.0 
2.140694926901e-04 1.055640622081e-02 0.0 
2.463447711125e-04 1.022239989515e-02 0.0 
3.072349480455e-04 1.056473854556e-02 0.0 
3.407031130353e-04 1.023121739209e-02 0.0 
4.016266928389e-04 1.057483443945e-02 0.0 
4.366328568650e-04 1.024136135029e-02 0.0 
4.974645537571e-04 1.058559377303e-02 0.0 
5.343341610098e-04 1.025177276562e-02 0.0 
5.949050755198e-04 1.059622548532e-02 0.0 
6.342514074986e-04 1.026181008575e-02 0.0 
1.637665021392e-03 1.024769808007e-02 0.0 
6.944854715332e-04 1.060583678832e-02 0.0 
1.590434396442e-03 1.008433883974e-02 0.0 
7.368795102036e-04 1.026993118644e-02 0.0 
7.965818230313e-04 1.061267779263e-02 0.0 
8.427972219853e-04 1.027477204943e-02 0.0 
9.018469493880e-04 1.061556778841e-02 0.0 
9.527369365972e-04 1.027462278172e-02 0.0 
1.010944124648e-03 1.061204368206e-02 0.0 
1.067348038264e-03 1.026661159918e-02 0.0 
1.638980744463e-03 1.057052773275e-02 0.0 
1.124503968220e-03 1.059914873011e-02 0.0 
1.187471587102e-03 1.024756744564e-02 0.0 
1.243571499614e-03 1.057356761547e-02 0.0 
1.314076008269e-03 1.021397363503e-02 0.0 
1.447996661051e-03 1.016130227664e-02 0.0 
1.369012415753e-03 1.053142823200e-02 0.0 
1.501906880679e-03 1.046774423677e-02 0.0 
1.710489425082e-03 1.003008609797e-02 0.0 
1.711805148153e-03 1.035291575065e-02 0.0 
1.502247210086e-05 1.037925617026e-02 0.0 
7.610368247614e-05 1.038039352250e-02 0.0 
4.572245377970e-05 1.004359448090e-02 0.0 
4.540370079731e-05 1.071605521186e-02 0.0 
1.766537050143e-03 1.043269781949e-02 0.0 

VECTORS element_materi_displacement float
0.0 0.0 0.0 
0.0 0.0 0.0 
0.0 0.0 0.0 
0.0 0.0 0.0 
0.0 0.0 0.0 
0.0 0.0 0.0 
0.0 0.0 0.0 
0.0 0.0 0.0 
0.0 0.0 0.0 
0.0 0.0 0.0 
0.0 0.0 0.0 
0.0 0.0 0.0 
0.0 0.0 0.0 
0.0 0.0 0.0 
0.0 0.0 0.0 
0.0 0.0 0.0 
0.0 0.0 0.0 
0.0 0.0 0.0 
0.0 0.0 0.0 
0.0 0.0 0.0 
0.0 0.0 0.0 
0.0 0.0 0.0 
0.0 0.0 0.0 
0.0 0.0 0.0 
0.0 0.0 0.0 
0.0 0.0 0.0 
0.0 0.0 0.0 
0.0 0.0 0.0 
0.0 0.0 0.0 
0.0 0.0 0.0 
0.0 0.0 0.0 
0.0 0.0 0.0 
0.0 0.0 0.0 
0.0 0.0 0.0 
0.0 0.0 0.0 
0.0 0.0 0.0 
0.0 0.0 0.0 
0.0 0.0 0.0 
0.0 0.0 0.0 
0.0 0.0 0.0 
0.0 0.0 0.0 
0.0 0.0 0.0 
0.0 0.0 0.0 
0.0 0.0 0.0 
0.0 0.0 0.0 
0.0 0.0 0.0 
0.0 0.0 0.0 
0.0 0.0 0.0 
0.0 0.0 0.0 
0.0 0.0 0.0 
0.0 0.0 0.0 
0.0 0.0 0.0 
0.0 0.0 0.0 
0.0 0.0 0.0 
0.0 0.0 0.0 
0.0 0.0 0.0 
0.0 0.0 0.0 
0.0 0.0 0.0 
0.0 0.0 0.0 
0.0 0.0 0.0 
0.0 0.0 0.0 
0.0 0.0 0.0 
0.0 0.0 0.0 
0.0 0.0 0.0 
0.0 0.0 0.0 
0.0 0.0 0.0 
0.0 0.0 0.0 
0.0 0.0 0.0 
0.0 0.0 0.0 
0.0 0.0 0.0 
0.0 0.0 0.0 
0.0 0.0 0.0 
0.0 0.0 0.0 
0.0 0.0 0.0 
0.0 0.0 0.0 
0.0 0.0 0.0 
0.0 0.0 0.0 
0.0 0.0 0.0 
0.0 0.0 0.0 
0.0 0.0 0.0 
0.0 0.0 0.0 
0.0 0.0 0.0 
0.0 0.0 0.0 
0.0 0.0 0.0 
0.0 0.0 0.0 
0.0 0.0 0.0 
0.0 0.0 0.0 
0.0 0.0 0.0 
0.0 0.0 0.0 
0.0 0.0 0.0 
0.0 0.0 0.0 
0.0 0.0 0.0 
0.0 0.0 0.0 
0.0 0.0 0.0 
0.0 0.0 0.0 
0.0 0.0 0.0 
0.0 0.0 0.0 
0.0 0.0 0.0 
0.0 0.0 0.0 
0.0 0.0 0.0 
0.0 0.0 0.0 
0.0 0.0 0.0 
0.0 0.0 0.0 
0.0 0.0 0.0 
0.0 0.0 0.0 
0.0 0.0 0.0 
0.0 0.0 0.0 
0.0 0.0 0.0 
0.0 0.0 0.0 
0.0 0.0 0.0 
0.0 0.0 0.0 
0.0 0.0 0.0 
0.0 0.0 0.0 
0.0 0.0 0.0 
0.0 0.0 0.0 
0.0 0.0 0.0 
0.0 0.0 0.0 
0.0 0.0 0.0 
0.0 0.0 0.0 
0.0 0.0 0.0 
0.0 0.0 0.0 
0.0 0.0 0.0 
0.0 0.0 0.0 
0.0 0.0 0.0 
0.0 0.0 0.0 
0.0 0.0 0.0 
0.0 0.0 0.0 
0.0 0.0 0.0 
0.0 0.0 0.0 
0.0 0.0 0.0 
0.0 0.0 0.0 
0.0 0.0 0.0 
0.0 0.0 0.0 
0.0 0.0 0.0 
0.0 0.0 0.0 
0.0 0.0 0.0 
0.0 0.0 0.0 
0.0 0.0 0.0 
0.0 0.0 0.0 
0.0 0.0 0.0 
0.0 0.0 0.0 
0.0 0.0 0.0 
0.0 0.0 0.0 
0.0 0.0 0.0 
0.0 0.0 0.0 
0.0 0.0 0.0 
0.0 0.0 0.0 
0.0 0.0 0.0 
0.0 0.0 0.0 
0.0 0.0 0.0 
0.0 0.0 0.0 
0.0 0.0 0.0 
0.0 0.0 0.0 
0.0 0.0 0.0 
0.0 0.0 0.0 
0.0 0.0 0.0 
0.0 0.0 0.0 
0.0 0.0 0.0 
0.0 0.0 0.0 
0.0 0.0 0.0 
0.0 0.0 0.0 
0.0 0.0 0.0 
0.0 0.0 0.0 
0.0 0.0 0.0 
0.0 0.0 0.0 
0.0 0.0 0.0 
0.0 0.0 0.0 
0.0 0.0 0.0 
0.0 0.0 0.0 
0.0 0.0 0.0 
0.0 0.0 0.0 
0.0 0.0 0.0 
0.0 0.0 0.0 
0.0 0.0 0.0 
0.0 0.0 0.0 
0.0 0.0 0.0 
0.0 0.0 0.0 
0.0 0.0 0.0 
0.0 0.0 0.0 
0.0 0.0 0.0 
0.0 0.0 0.0 
0.0 0.0 0.0 
0.0 0.0 0.0 
0.0 0.0 0.0 
0.0 0.0 0.0 
0.0 0.0 0.0 
0.0 0.0 0.0 
0.0 0.0 0.0 
0.0 0.0 0.0 
0.0 0.0 0.0 
0.0 0.0 0.0 
0.0 0.0 0.0 
0.0 0.0 0.0 
0.0 0.0 0.0 
0.0 0.0 0.0 
0.0 0.0 0.0 
0.0 0.0 0.0 
0.0 0.0 0.0 
0.0 0.0 0.0 
0.0 0.0 0.0 
0.0 0.0 0.0 
0.0 0.0 0.0 
0.0 0.0 0.0 
0.0 0.0 0.0 
0.0 0.0 0.0 
0.0 0.0 0.0 
0.0 0.0 0.0 
0.0 0.0 0.0 
0.0 0.0 0.0 
0.0 0.0 0.0 
0.0 0.0 0.0 
0.0 0.0 0.0 
0.0 0.0 0.0 
0.0 0.0 0.0 
0.0 0.0 0.0 
0.0 0.0 0.0 
0.0 0.0 0.0 
0.0 0.0 0.0 
0.0 0.0 0.0 
0.0 0.0 0.0 
0.0 0.0 0.0 
0.0 0.0 0.0 
0.0 0.0 0.0 
0.0 0.0 0.0 
0.0 0.0 0.0 
0.0 0.0 0.0 
0.0 0.0 0.0 
0.0 0.0 0.0 
0.0 0.0 0.0 
0.0 0.0 0.0 
0.0 0.0 0.0 
0.0 0.0 0.0 
0.0 0.0 0.0 
0.0 0.0 0.0 
0.0 0.0 0.0 
0.0 0.0 0.0 
0.0 0.0 0.0 
0.0 0.0 0.0 
0.0 0.0 0.0 
0.0 0.0 0.0 
0.0 0.0 0.0 
0.0 0.0 0.0 
0.0 0.0 0.0 
0.0 0.0 0.0 
0.0 0.0 0.0 
0.0 0.0 0.0 
0.0 0.0 0.0 
0.0 0.0 0.0 
0.0 0.0 0.0 
0.0 0.0 0.0 
0.0 0.0 0.0 
0.0 0.0 0.0 
0.0 0.0 0.0 
0.0 0.0 0.0 
0.0 0.0 0.0 
0.0 0.0 0.0 
0.0 0.0 0.0 
0.0 0.0 0.0 
0.0 0.0 0.0 
0.0 0.0 0.0 
0.0 0.0 0.0 
0.0 0.0 0.0 
0.0 0.0 0.0 
0.0 0.0 0.0 
0.0 0.0 0.0 
0.0 0.0 0.0 
0.0 0.0 0.0 
0.0 0.0 0.0 
0.0 0.0 0.0 
0.0 0.0 0.0 
0.0 0.0 0.0 
0.0 0.0 0.0 
0.0 0.0 0.0 
0.0 0.0 0.0 
0.0 0.0 0.0 
0.0 0.0 0.0 
0.0 0.0 0.0 
0.0 0.0 0.0 
0.0 0.0 0.0 
0.0 0.0 0.0 
0.0 0.0 0.0 
0.0 0.0 0.0 
0.0 0.0 0.0 
0.0 0.0 0.0 
0.0 0.0 0.0 
0.0 0.0 0.0 
0.0 0.0 0.0 
0.0 0.0 0.0 
0.0 0.0 0.0 
0.0 0.0 0.0 
0.0 0.0 0.0 
0.0 0.0 0.0 
0.0 0.0 0.0 
0.0 0.0 0.0 
0.0 0.0 0.0 
0.0 0.0 0.0 
0.0 0.0 0.0 
0.0 0.0 0.0 
0.0 0.0 0.0 
0.0 0.0 0.0 
0.0 0.0 0.0 
0.0 0.0 0.0 
0.0 0.0 0.0 
0.0 0.0 0.0 
0.0 0.0 0.0 
0.0 0.0 0.0 
0.0 0.0 0.0 
0.0 0.0 0.0 
0.0 0.0 0.0 
0.0 0.0 0.0 
0.0 0.0 0.0 
0.0 0.0 0.0 
0.0 0.0 0.0 
0.0 0.0 0.0 
0.0 0.0 0.0 
0.0 0.0 0.0 
0.0 0.0 0.0 
0.0 0.0 0.0 
0.0 0.0 0.0 
0.0 0.0 0.0 
0.0 0.0 0.0 
0.0 0.0 0.0 
0.0 0.0 0.0 
0.0 0.0 0.0 
0.0 0.0 0.0 
0.0 0.0 0.0 
0.0 0.0 0.0 
0.0 0.0 0.0 
0.0 0.0 0.0 
0.0 0.0 0.0 
0.0 0.0 0.0 
0.0 0.0 0.0 
0.0 0.0 0.0 
0.0 0.0 0.0 
0.0 0.0 0.0 
0.0 0.0 0.0 
0.0 0.0 0.0 
0.0 0.0 0.0 
0.0 0.0 0.0 
0.0 0.0 0.0 
0.0 0.0 0.0 
0.0 0.0 0.0 
0.0 0.0 0.0 
0.0 0.0 0.0 
0.0 0.0 0.0 
0.0 0.0 0.0 
0.0 0.0 0.0 
0.0 0.0 0.0 
0.0 0.0 0.0 
0.0 0.0 0.0 
0.0 0.0 0.0 
0.0 0.0 0.0 
0.0 0.0 0.0 
0.0 0.0 0.0 
0.0 0.0 0.0 
0.0 0.0 0.0 
0.0 0.0 0.0 
0.0 0.0 0.0 
0.0 0.0 0.0 
0.0 0.0 0.0 
0.0 0.0 0.0 
0.0 0.0 0.0 
0.0 0.0 0.0 
0.0 0.0 0.0 
0.0 0.0 0.0 
0.0 0.0 0.0 
0.0 0.0 0.0 
0.0 0.0 0.0 
0.0 0.0 0.0 
0.0 0.0 0.0 
0.0 0.0 0.0 
0.0 0.0 0.0 
0.0 0.0 0.0 
0.0 0.0 0.0 
0.0 0.0 0.0 
0.0 0.0 0.0 
0.0 0.0 0.0 
0.0 0.0 0.0 
0.0 0.0 0.0 
0.0 0.0 0.0 
0.0 0.0 0.0 
0.0 0.0 0.0 
0.0 0.0 0.0 
0.0 0.0 0.0 
0.0 0.0 0.0 
0.0 0.0 0.0 
0.0 0.0 0.0 
0.0 0.0 0.0 
0.0 0.0 0.0 
0.0 0.0 0.0 
0.0 0.0 0.0 
0.0 0.0 0.0 
0.0 0.0 0.0 
0.0 0.0 0.0 
0.0 0.0 0.0 
0.0 0.0 0.0 
0.0 0.0 0.0 
0.0 0.0 0.0 
0.0 0.0 0.0 
0.0 0.0 0.0 
0.0 0.0 0.0 
0.0 0.0 0.0 
0.0 0.0 0.0 
0.0 0.0 0.0 
0.0 0.0 0.0 
0.0 0.0 0.0 
0.0 0.0 0.0 
0.0 0.0 0.0 
0.0 0.0 0.0 
0.0 0.0 0.0 
0.0 0.0 0.0 
0.0 0.0 0.0 
0.0 0.0 0.0 
0.0 0.0 0.0 
0.0 0.0 0.0 
0.0 0.0 0.0 
0.0 0.0 0.0 
0.0 0.0 0.0 
0.0 0.0 0.0 
0.0 0.0 0.0 
0.0 0.0 0.0 
0.0 0.0 0.0 
0.0 0.0 0.0 
0.0 0.0 0.0 
0.0 0.0 0.0 
0.0 0.0 0.0 
0.0 0.0 0.0 
0.0 0.0 0.0 
0.0 0.0 0.0 
0.0 0.0 0.0 
0.0 0.0 0.0 
0.0 0.0 0.0 
0.0 0.0 0.0 
0.0 0.0 0.0 
0.0 0.0 0.0 
0.0 0.0 0.0 
0.0 0.0 0.0 
0.0 0.0 0.0 
0.0 0.0 0.0 
0.0 0.0 0.0 
0.0 0.0 0.0 
0.0 0.0 0.0 
0.0 0.0 0.0 
0.0 0.0 0.0 
0.0 0.0 0.0 
0.0 0.0 0.0 
0.0 0.0 0.0 
0.0 0.0 0.0 
0.0 0.0 0.0 
0.0 0.0 0.0 
0.0 0.0 0.0 
0.0 0.0 0.0 
0.0 0.0 0.0 
0.0 0.0 0.0 
0.0 0.0 0.0 
0.0 0.0 0.0 
0.0 0.0 0.0 
0.0 0.0 0.0 
0.0 0.0 0.0 
0.0 0.0 0.0 
0.0 0.0 0.0 
0.0 0.0 0.0 
0.0 0.0 0.0 
0.0 0.0 0.0 
0.0 0.0 0.0 
0.0 0.0 0.0 
0.0 0.0 0.0 
0.0 0.0 0.0 
0.0 0.0 0.0 
0.0 0.0 0.0 
0.0 0.0 0.0 
0.0 0.0 0.0 
0.0 0.0 0.0 
0.0 0.0 0.0 
0.0 0.0 0.0 
0.0 0.0 0.0 
0.0 0.0 0.0 
0.0 0.0 0.0 
0.0 0.0 0.0 
0.0 0.0 0.0 
0.0 0.0 0.0 
0.0 0.0 0.0 
0.0 0.0 0.0 
0.0 0.0 0.0 
0.0 0.0 0.0 
0.0 0.0 0.0 
0.0 0.0 0.0 
0.0 0.0 0.0 
0.0 0.0 0.0 
0.0 0.0 0.0 
0.0 0.0 0.0 
0.0 0.0 0.0 
0.0 0.0 0.0 
0.0 0.0 0.0 
0.0 0.0 0.0 
0.0 0.0 0.0 
0.0 0.0 0.0 
0.0 0.0 0.0 
0.0 0.0 0.0 
0.0 0.0 0.0 
0.0 0.0 0.0 
0.0 0.0 0.0 
0.0 0.0 0.0 
0.0 0.0 0.0 
0.0 0.0 0.0 
0.0 0.0 0.0 
0.0 0.0 0.0 
0.0 0.0 0.0 
0.0 0.0 0.0 
0.0 0.0 0.0 
0.0 0.0 0.0 
0.0 0.0 0.0 
0.0 0.0 0.0 
0.0 0.0 0.0 
0.0 0.0 0.0 
0.0 0.0 0.0 
0.0 0.0 0.0 
0.0 0.0 0.0 
0.0 0.0 0.0 
0.0 0.0 0.0 
0.0 0.0 0.0 
0.0 0.0 0.0 
0.0 0.0 0.0 
0.0 0.0 0.0 
0.0 0.0 0.0 
0.0 0.0 0.0 
0.0 0.0 0.0 
0.0 0.0 0.0 
0.0 0.0 0.0 
0.0 0.0 0.0 
0.0 0.0 0.0 
0.0 0.0 0.0 
0.0 0.0 0.0 
0.0 0.0 0.0 
0.0 0.0 0.0 
0.0 0.0 0.0 
0.0 0.0 0.0 
0.0 0.0 0.0 
0.0 0.0 0.0 
0.0 0.0 0.0 
0.0 0.0 0.0 
0.0 0.0 0.0 
0.0 0.0 0.0 
0.0 0.0 0.0 
0.0 0.0 0.0 
0.0 0.0 0.0 
0.0 0.0 0.0 
0.0 0.0 0.0 
0.0 0.0 0.0 
0.0 0.0 0.0 
0.0 0.0 0.0 
0.0 0.0 0.0 
0.0 0.0 0.0 
0.0 0.0 0.0 
0.0 0.0 0.0 
0.0 0.0 0.0 
0.0 0.0 0.0 
0.0 0.0 0.0 
0.0 0.0 0.0 
0.0 0.0 0.0 
0.0 0.0 0.0 
0.0 0.0 0.0 
0.0 0.0 0.0 
0.0 0.0 0.0 
0.0 0.0 0.0 
0.0 0.0 0.0 
0.0 0.0 0.0 
0.0 0.0 0.0 
0.0 0.0 0.0 
0.0 0.0 0.0 
0.0 0.0 0.0 
0.0 0.0 0.0 
0.0 0.0 0.0 
0.0 0.0 0.0 
0.0 0.0 0.0 
0.0 0.0 0.0 
0.0 0.0 0.0 
0.0 0.0 0.0 
0.0 0.0 0.0 
0.0 0.0 0.0 
0.0 0.0 0.0 
0.0 0.0 0.0 
0.0 0.0 0.0 
0.0 0.0 0.0 
0.0 0.0 0.0 
0.0 0.0 0.0 
0.0 0.0 0.0 
0.0 0.0 0.0 
0.0 0.0 0.0 
0.0 0.0 0.0 
0.0 0.0 0.0 
0.0 0.0 0.0 
0.0 0.0 0.0 
0.0 0.0 0.0 
0.0 0.0 0.0 
0.0 0.0 0.0 
0.0 0.0 0.0 
0.0 0.0 0.0 
0.0 0.0 0.0 
0.0 0.0 0.0 
0.0 0.0 0.0 
0.0 0.0 0.0 
0.0 0.0 0.0 
0.0 0.0 0.0 
0.0 0.0 0.0 
0.0 0.0 0.0 
0.0 0.0 0.0 
0.0 0.0 0.0 
0.0 0.0 0.0 
0.0 0.0 0.0 
0.0 0.0 0.0 
0.0 0.0 0.0 
0.0 0.0 0.0 
0.0 0.0 0.0 
0.0 0.0 0.0 
0.0 0.0 0.0 
0.0 0.0 0.0 
0.0 0.0 0.0 
0.0 0.0 0.0 
0.0 0.0 0.0 
0.0 0.0 0.0 
0.0 0.0 0.0 
0.0 0.0 0.0 
0.0 0.0 0.0 
0.0 0.0 0.0 
0.0 0.0 0.0 
0.0 0.0 0.0 
0.0 0.0 0.0 
0.0 0.0 0.0 
0.0 0.0 0.0 
0.0 0.0 0.0 
0.0 0.0 0.0 
0.0 0.0 0.0 
0.0 0.0 0.0 
0.0 0.0 0.0 
0.0 0.0 0.0 
0.0 0.0 0.0 
0.0 0.0 0.0 
0.0 0.0 0.0 
0.0 0.0 0.0 
0.0 0.0 0.0 
0.0 0.0 0.0 
0.0 0.0 0.0 
0.0 0.0 0.0 
0.0 0.0 0.0 
0.0 0.0 0.0 
0.0 0.0 0.0 
0.0 0.0 0.0 
0.0 0.0 0.0 
0.0 0.0 0.0 
0.0 0.0 0.0 
0.0 0.0 0.0 
0.0 0.0 0.0 
0.0 0.0 0.0 
0.0 0.0 0.0 
0.0 0.0 0.0 
0.0 0.0 0.0 
0.0 0.0 0.0 
0.0 0.0 0.0 
0.0 0.0 0.0 
0.0 0.0 0.0 
0.0 0.0 0.0 
0.0 0.0 0.0 
0.0 0.0 0.0 
0.0 0.0 0.0 
0.0 0.0 0.0 
0.0 0.0 0.0 
0.0 0.0 0.0 
0.0 0.0 0.0 
0.0 0.0 0.0 
0.0 0.0 0.0 
0.0 0.0 0.0 
0.0 0.0 0.0 
0.0 0.0 0.0 
0.0 0.0 0.0 
0.0 0.0 0.0 
0.0 0.0 0.0 
0.0 0.0 0.0 
0.0 0.0 0.0 
0.0 0.0 0.0 
0.0 0.0 0.0 
0.0 0.0 0.0 
0.0 0.0 0.0 
0.0 0.0 0.0 
0.0 0.0 0.0 
0.0 0.0 0.0 
0.0 0.0 0.0 
0.0 0.0 0.0 
0.0 0.0 0.0 
0.0 0.0 0.0 
0.0 0.0 0.0 
0.0 0.0 0.0 
0.0 0.0 0.0 
0.0 0.0 0.0 
0.0 0.0 0.0 
0.0 0.0 0.0 
0.0 0.0 0.0 
0.0 0.0 0.0 
0.0 0.0 0.0 
0.0 0.0 0.0 
0.0 0.0 0.0 
0.0 0.0 0.0 
0.0 0.0 0.0 
0.0 0.0 0.0 
0.0 0.0 0.0 
0.0 0.0 0.0 
0.0 0.0 0.0 
0.0 0.0 0.0 
0.0 0.0 0.0 
0.0 0.0 0.0 
0.0 0.0 0.0 
0.0 0.0 0.0 
0.0 0.0 0.0 
0.0 0.0 0.0 
0.0 0.0 0.0 
0.0 0.0 0.0 
0.0 0.0 0.0 
0.0 0.0 0.0 
0.0 0.0 0.0 
0.0 0.0 0.0 
0.0 0.0 0.0 
0.0 0.0 0.0 
0.0 0.0 0.0 
0.0 0.0 0.0 
0.0 0.0 0.0 
0.0 0.0 0.0 
0.0 0.0 0.0 
0.0 0.0 0.0 
0.0 0.0 0.0 
0.0 0.0 0.0 
0.0 0.0 0.0 
0.0 0.0 0.0 
0.0 0.0 0.0 
0.0 0.0 0.0 
0.0 0.0 0.0 
0.0 0.0 0.0 
0.0 0.0 0.0 
0.0 0.0 0.0 
0.0 0.0 0.0 
0.0 0.0 0.0 
0.0 0.0 0.0 
0.0 0.0 0.0 
0.0 0.0 0.0 
0.0 0.0 0.0 
0.0 0.0 0.0 
0.0 0.0 0.0 
0.0 0.0 0.0 
0.0 0.0 0.0 
0.0 0.0 0.0 
0.0 0.0 0.0 
0.0 0.0 0.0 
0.0 0.0 0.0 
0.0 0.0 0.0 
0.0 0.0 0.0 
0.0 0.0 0.0 
0.0 0.0 0.0 
0.0 0.0 0.0 
0.0 0.0 0.0 
0.0 0.0 0.0 
0.0 0.0 0.0 
0.0 0.0 0.0 
0.0 0.0 0.0 
0.0 0.0 0.0 
0.0 0.0 0.0 
0.0 0.0 0.0 
0.0 0.0 0.0 
0.0 0.0 0.0 
0.0 0.0 0.0 
0.0 0.0 0.0 
0.0 0.0 0.0 
0.0 0.0 0.0 
0.0 0.0 0.0 
0.0 0.0 0.0 
0.0 0.0 0.0 
0.0 0.0 0.0 
0.0 0.0 0.0 
0.0 0.0 0.0 
0.0 0.0 0.0 
0.0 0.0 0.0 
0.0 0.0 0.0 
0.0 0.0 0.0 
0.0 0.0 0.0 
0.0 0.0 0.0 
0.0 0.0 0.0 
0.0 0.0 0.0 
0.0 0.0 0.0 
0.0 0.0 0.0 
0.0 0.0 0.0 
0.0 0.0 0.0 
0.0 0.0 0.0 
0.0 0.0 0.0 
0.0 0.0 0.0 
0.0 0.0 0.0 
0.0 0.0 0.0 
0.0 0.0 0.0 
0.0 0.0 0.0 
0.0 0.0 0.0 
0.0 0.0 0.0 
0.0 0.0 0.0 
0.0 0.0 0.0 
0.0 0.0 0.0 
0.0 0.0 0.0 
0.0 0.0 0.0 
0.0 0.0 0.0 
0.0 0.0 0.0 
0.0 0.0 0.0 
0.0 0.0 0.0 
0.0 0.0 0.0 
0.0 0.0 0.0 
0.0 0.0 0.0 
0.0 0.0 0.0 
0.0 0.0 0.0 
0.0 0.0 0.0 
0.0 0.0 0.0 
0.0 0.0 0.0 
0.0 0.0 0.0 
0.0 0.0 0.0 
0.0 0.0 0.0 
0.0 0.0 0.0 
0.0 0.0 0.0 
0.0 0.0 0.0 
0.0 0.0 0.0 
0.0 0.0 0.0 
0.0 0.0 0.0 
0.0 0.0 0.0 
0.0 0.0 0.0 
0.0 0.0 0.0 
0.0 0.0 0.0 
0.0 0.0 0.0 
0.0 0.0 0.0 
0.0 0.0 0.0 
0.0 0.0 0.0 
0.0 0.0 0.0 
0.0 0.0 0.0 
0.0 0.0 0.0 
0.0 0.0 0.0 
0.0 0.0 0.0 
0.0 0.0 0.0 
0.0 0.0 0.0 
0.0 0.0 0.0 
0.0 0.0 0.0 
0.0 0.0 0.0 
0.0 0.0 0.0 
0.0 0.0 0.0 
0.0 0.0 0.0 
0.0 0.0 0.0 
0.0 0.0 0.0 
0.0 0.0 0.0 
0.0 0.0 0.0 
0.0 0.0 0.0 
0.0 0.0 0.0 
0.0 0.0 0.0 
0.0 0.0 0.0 
0.0 0.0 0.0 
0.0 0.0 0.0 
0.0 0.0 0.0 
0.0 0.0 0.0 
0.0 0.0 0.0 
0.0 0.0 0.0 
0.0 0.0 0.0 
0.0 0.0 0.0 
0.0 0.0 0.0 
0.0 0.0 0.0 
0.0 0.0 0.0 
0.0 0.0 0.0 
0.0 0.0 0.0 
0.0 0.0 0.0 
0.0 0.0 0.0 
0.0 0.0 0.0 
0.0 0.0 0.0 
0.0 0.0 0.0 
0.0 0.0 0.0 
0.0 0.0 0.0 
0.0 0.0 0.0 
0.0 0.0 0.0 
0.0 0.0 0.0 
0.0 0.0 0.0 
0.0 0.0 0.0 
0.0 0.0 0.0 
0.0 0.0 0.0 
0.0 0.0 0.0 
0.0 0.0 0.0 
0.0 0.0 0.0 
0.0 0.0 0.0 
0.0 0.0 0.0 
0.0 0.0 0.0 
0.0 0.0 0.0 
0.0 0.0 0.0 
0.0 0.0 0.0 
0.0 0.0 0.0 
0.0 0.0 0.0 
0.0 0.0 0.0 
0.0 0.0 0.0 
0.0 0.0 0.0 
0.0 0.0 0.0 
0.0 0.0 0.0 
0.0 0.0 0.0 
0.0 0.0 0.0 
0.0 0.0 0.0 
0.0 0.0 0.0 
0.0 0.0 0.0 
0.0 0.0 0.0 
0.0 0.0 0.0 
0.0 0.0 0.0 
0.0 0.0 0.0 
0.0 0.0 0.0 
0.0 0.0 0.0 
0.0 0.0 0.0 
0.0 0.0 0.0 
0.0 0.0 0.0 
0.0 0.0 0.0 
0.0 0.0 0.0 
0.0 0.0 0.0 
0.0 0.0 0.0 
0.0 0.0 0.0 
0.0 0.0 0.0 
0.0 0.0 0.0 
0.0 0.0 0.0 
0.0 0.0 0.0 
0.0 0.0 0.0 
0.0 0.0 0.0 
0.0 0.0 0.0 
0.0 0.0 0.0 
0.0 0.0 0.0 
0.0 0.0 0.0 
0.0 0.0 0.0 
0.0 0.0 0.0 
0.0 0.0 0.0 
0.0 0.0 0.0 
0.0 0.0 0.0 
0.0 0.0 0.0 
0.0 0.0 0.0 
0.0 0.0 0.0 
0.0 0.0 0.0 
0.0 0.0 0.0 
0.0 0.0 0.0 
0.0 0.0 0.0 
0.0 0.0 0.0 
0.0 0.0 0.0 
0.0 0.0 0.0 
0.0 0.0 0.0 
0.0 0.0 0.0 
0.0 0.0 0.0 
0.0 0.0 0.0 
0.0 0.0 0.0 
0.0 0.0 0.0 
0.0 0.0 0.0 
0.0 0.0 0.0 
0.0 0.0 0.0 
0.0 0.0 0.0 
0.0 0.0 0.0 
0.0 0.0 0.0 
0.0 0.0 0.0 
0.0 0.0 0.0 
0.0 0.0 0.0 
0.0 0.0 0.0 
0.0 0.0 0.0 
0.0 0.0 0.0 
0.0 0.0 0.0 
0.0 0.0 0.0 
0.0 0.0 0.0 
0.0 0.0 0.0 
0.0 0.0 0.0 
0.0 0.0 0.0 
0.0 0.0 0.0 
0.0 0.0 0.0 
0.0 0.0 0.0 
0.0 0.0 0.0 
0.0 0.0 0.0 
0.0 0.0 0.0 
0.0 0.0 0.0 
0.0 0.0 0.0 
0.0 0.0 0.0 
0.0 0.0 0.0 
0.0 0.0 0.0 
0.0 0.0 0.0 
0.0 0.0 0.0 
0.0 0.0 0.0 
0.0 0.0 0.0 
0.0 0.0 0.0 
0.0 0.0 0.0 
0.0 0.0 0.0 
0.0 0.0 0.0 
0.0 0.0 0.0 
0.0 0.0 0.0 
0.0 0.0 0.0 
0.0 0.0 0.0 
0.0 0.0 0.0 
0.0 0.0 0.0 
0.0 0.0 0.0 
0.0 0.0 0.0 
0.0 0.0 0.0 
0.0 0.0 0.0 
0.0 0.0 0.0 
0.0 0.0 0.0 
0.0 0.0 0.0 
0.0 0.0 0.0 
0.0 0.0 0.0 
0.0 0.0 0.0 
0.0 0.0 0.0 
0.0 0.0 0.0 
0.0 0.0 0.0 
0.0 0.0 0.0 
0.0 0.0 0.0 
0.0 0.0 0.0 
0.0 0.0 0.0 
0.0 0.0 0.0 
0.0 0.0 0.0 
0.0 0.0 0.0 
0.0 0.0 0.0 
0.0 0.0 0.0 
0.0 0.0 0.0 
0.0 0.0 0.0 
0.0 0.0 0.0 
0.0 0.0 0.0 
0.0 0.0 0.0 
0.0 0.0 0.0 
0.0 0.0 0.0 
0.0 0.0 0.0 
0.0 0.0 0.0 
0.0 0.0 0.0 
0.0 0.0 0.0 
0.0 0.0 0.0 
0.0 0.0 0.0 
0.0 0.0 0.0 
0.0 0.0 0.0 
0.0 0.0 0.0 
0.0 0.0 0.0 
0.0 0.0 0.0 
0.0 0.0 0.0 
0.0 0.0 0.0 
0.0 0.0 0.0 
0.0 0.0 0.0 
0.0 0.0 0.0 
0.0 0.0 0.0 
0.0 0.0 0.0 
0.0 0.0 0.0 
0.0 0.0 0.0 
0.0 0.0 0.0 
0.0 0.0 0.0 
0.0 0.0 0.0 
0.0 0.0 0.0 
0.0 0.0 0.0 
0.0 0.0 0.0 
0.0 0.0 0.0 
0.0 0.0 0.0 
0.0 0.0 0.0 
0.0 0.0 0.0 
0.0 0.0 0.0 
0.0 0.0 0.0 
0.0 0.0 0.0 
0.0 0.0 0.0 
0.0 0.0 0.0 
0.0 0.0 0.0 
0.0 0.0 0.0 
0.0 0.0 0.0 
0.0 0.0 0.0 
0.0 0.0 0.0 
0.0 0.0 0.0 
0.0 0.0 0.0 
0.0 0.0 0.0 
0.0 0.0 0.0 
0.0 0.0 0.0 
0.0 0.0 0.0 
0.0 0.0 0.0 
0.0 0.0 0.0 
0.0 0.0 0.0 
0.0 0.0 0.0 
0.0 0.0 0.0 
0.0 0.0 0.0 
0.0 0.0 0.0 
0.0 0.0 0.0 
0.0 0.0 0.0 
0.0 0.0 0.0 
0.0 0.0 0.0 
0.0 0.0 0.0 
0.0 0.0 0.0 
0.0 0.0 0.0 
0.0 0.0 0.0 
0.0 0.0 0.0 
0.0 0.0 0.0 
0.0 0.0 0.0 
0.0 0.0 0.0 
0.0 0.0 0.0 
0.0 0.0 0.0 
0.0 0.0 0.0 
0.0 0.0 0.0 
0.0 0.0 0.0 
0.0 0.0 0.0 
0.0 0.0 0.0 
0.0 0.0 0.0 
0.0 0.0 0.0 
0.0 0.0 0.0 
0.0 0.0 0.0 
0.0 0.0 0.0 
0.0 0.0 0.0 
0.0 0.0 0.0 
0.0 0.0 0.0 
0.0 0.0 0.0 
0.0 0.0 0.0 
0.0 0.0 0.0 
0.0 0.0 0.0 
0.0 0.0 0.0 
0.0 0.0 0.0 
0.0 0.0 0.0 
0.0 0.0 0.0 
0.0 0.0 0.0 
0.0 0.0 0.0 
0.0 0.0 0.0 
0.0 0.0 0.0 
0.0 0.0 0.0 
0.0 0.0 0.0 
0.0 0.0 0.0 
0.0 0.0 0.0 
0.0 0.0 0.0 
0.0 0.0 0.0 
0.0 0.0 0.0 
0.0 0.0 0.0 
0.0 0.0 0.0 
0.0 0.0 0.0 
0.0 0.0 0.0 
0.0 0.0 0.0 
0.0 0.0 0.0 
0.0 0.0 0.0 
0.0 0.0 0.0 
0.0 0.0 0.0 
0.0 0.0 0.0 
0.0 0.0 0.0 
0.0 0.0 0.0 
0.0 0.0 0.0 
0.0 0.0 0.0 
0.0 0.0 0.0 
0.0 0.0 0.0 
0.0 0.0 0.0 
0.0 0.0 0.0 
0.0 0.0 0.0 
0.0 0.0 0.0 
0.0 0.0 0.0 
0.0 0.0 0.0 
0.0 0.0 0.0 
0.0 0.0 0.0 
0.0 0.0 0.0 
0.0 0.0 0.0 
0.0 0.0 0.0 
0.0 0.0 0.0 
0.0 0.0 0.0 
0.0 0.0 0.0 
0.0 0.0 0.0 
0.0 0.0 0.0 
0.0 0.0 0.0 
0.0 0.0 0.0 
0.0 0.0 0.0 
0.0 0.0 0.0 
0.0 0.0 0.0 
0.0 0.0 0.0 
0.0 0.0 0.0 
0.0 0.0 0.0 
0.0 0.0 0.0 
0.0 0.0 0.0 
0.0 0.0 0.0 
0.0 0.0 0.0 
0.0 0.0 0.0 
0.0 0.0 0.0 
0.0 0.0 0.0 
0.0 0.0 0.0 
0.0 0.0 0.0 
0.0 0.0 0.0 
0.0 0.0 0.0 
0.0 0.0 0.0 
0.0 0.0 0.0 
0.0 0.0 0.0 
0.0 0.0 0.0 
0.0 0.0 0.0 
0.0 0.0 0.0 
0.0 0.0 0.0 
0.0 0.0 0.0 
0.0 0.0 0.0 
0.0 0.0 0.0 
0.0 0.0 0.0 
0.0 0.0 0.0 
0.0 0.0 0.0 
0.0 0.0 0.0 
0.0 0.0 0.0 
0.0 0.0 0.0 
0.0 0.0 0.0 
0.0 0.0 0.0 
0.0 0.0 0.0 
0.0 0.0 0.0 
0.0 0.0 0.0 
0.0 0.0 0.0 
0.0 0.0 0.0 
0.0 0.0 0.0 
0.0 0.0 0.0 
0.0 0.0 0.0 
0.0 0.0 0.0 
0.0 0.0 0.0 
0.0 0.0 0.0 
0.0 0.0 0.0 
0.0 0.0 0.0 
0.0 0.0 0.0 
0.0 0.0 0.0 
0.0 0.0 0.0 
0.0 0.0 0.0 
0.0 0.0 0.0 
0.0 0.0 0.0 
0.0 0.0 0.0 
0.0 0.0 0.0 
0.0 0.0 0.0 
0.0 0.0 0.0 
0.0 0.0 0.0 
0.0 0.0 0.0 
0.0 0.0 0.0 
0.0 0.0 0.0 
0.0 0.0 0.0 
0.0 0.0 0.0 
0.0 0.0 0.0 
0.0 0.0 0.0 
0.0 0.0 0.0 
0.0 0.0 0.0 
0.0 0.0 0.0 
0.0 0.0 0.0 
0.0 0.0 0.0 
0.0 0.0 0.0 
0.0 0.0 0.0 
0.0 0.0 0.0 
0.0 0.0 0.0 
0.0 0.0 0.0 
0.0 0.0 0.0 
0.0 0.0 0.0 
0.0 0.0 0.0 
0.0 0.0 0.0 
0.0 0.0 0.0 
0.0 0.0 0.0 
0.0 0.0 0.0 
0.0 0.0 0.0 
0.0 0.0 0.0 
0.0 0.0 0.0 
0.0 0.0 0.0 
0.0 0.0 0.0 
0.0 0.0 0.0 
0.0 0.0 0.0 
0.0 0.0 0.0 
0.0 0.0 0.0 
0.0 0.0 0.0 
0.0 0.0 0.0 
0.0 0.0 0.0 
0.0 0.0 0.0 
0.0 0.0 0.0 
0.0 0.0 0.0 
0.0 0.0 0.0 
0.0 0.0 0.0 
0.0 0.0 0.0 
0.0 0.0 0.0 
0.0 0.0 0.0 
0.0 0.0 0.0 
0.0 0.0 0.0 
0.0 0.0 0.0 
0.0 0.0 0.0 
0.0 0.0 0.0 
0.0 0.0 0.0 
0.0 0.0 0.0 
0.0 0.0 0.0 
0.0 0.0 0.0 
0.0 0.0 0.0 
0.0 0.0 0.0 
0.0 0.0 0.0 
0.0 0.0 0.0 
0.0 0.0 0.0 
0.0 0.0 0.0 
0.0 0.0 0.0 
0.0 0.0 0.0 
0.0 0.0 0.0 
0.0 0.0 0.0 
0.0 0.0 0.0 
0.0 0.0 0.0 
0.0 0.0 0.0 
0.0 0.0 0.0 
0.0 0.0 0.0 
0.0 0.0 0.0 
0.0 0.0 0.0 
0.0 0.0 0.0 
0.0 0.0 0.0 
0.0 0.0 0.0 
0.0 0.0 0.0 
0.0 0.0 0.0 
0.0 0.0 0.0 
0.0 0.0 0.0 
0.0 0.0 0.0 
0.0 0.0 0.0 
0.0 0.0 0.0 
0.0 0.0 0.0 
0.0 0.0 0.0 
0.0 0.0 0.0 
0.0 0.0 0.0 
0.0 0.0 0.0 
0.0 0.0 0.0 
0.0 0.0 0.0 
0.0 0.0 0.0 
0.0 0.0 0.0 
0.0 0.0 0.0 
0.0 0.0 0.0 
0.0 0.0 0.0 
0.0 0.0 0.0 
0.0 0.0 0.0 
0.0 0.0 0.0 
0.0 0.0 0.0 
0.0 0.0 0.0 
0.0 0.0 0.0 
0.0 0.0 0.0 
0.0 0.0 0.0 
0.0 0.0 0.0 
0.0 0.0 0.0 
0.0 0.0 0.0 
0.0 0.0 0.0 
0.0 0.0 0.0 
0.0 0.0 0.0 
0.0 0.0 0.0 
0.0 0.0 0.0 
0.0 0.0 0.0 
0.0 0.0 0.0 
0.0 0.0 0.0 
0.0 0.0 0.0 
0.0 0.0 0.0 
0.0 0.0 0.0 
0.0 0.0 0.0 
0.0 0.0 0.0 
0.0 0.0 0.0 
0.0 0.0 0.0 
0.0 0.0 0.0 
0.0 0.0 0.0 
0.0 0.0 0.0 
0.0 0.0 0.0 
0.0 0.0 0.0 
0.0 0.0 0.0 
0.0 0.0 0.0 
0.0 0.0 0.0 
0.0 0.0 0.0 
0.0 0.0 0.0 
0.0 0.0 0.0 
0.0 0.0 0.0 
0.0 0.0 0.0 
0.0 0.0 0.0 
0.0 0.0 0.0 
0.0 0.0 0.0 
0.0 0.0 0.0 
0.0 0.0 0.0 
0.0 0.0 0.0 
0.0 0.0 0.0 
0.0 0.0 0.0 
0.0 0.0 0.0 
0.0 0.0 0.0 
0.0 0.0 0.0 
0.0 0.0 0.0 
0.0 0.0 0.0 
0.0 0.0 0.0 
0.0 0.0 0.0 
0.0 0.0 0.0 
0.0 0.0 0.0 
0.0 0.0 0.0 
0.0 0.0 0.0 
0.0 0.0 0.0 
0.0 0.0 0.0 
0.0 0.0 0.0 
0.0 0.0 0.0 
0.0 0.0 0.0 
0.0 0.0 0.0 
0.0 0.0 0.0 
0.0 0.0 0.0 
0.0 0.0 0.0 
0.0 0.0 0.0 
0.0 0.0 0.0 
0.0 0.0 0.0 
0.0 0.0 0.0 
0.0 0.0 0.0 
0.0 0.0 0.0 
0.0 0.0 0.0 
0.0 0.0 0.0 
0.0 0.0 0.0 
0.0 0.0 0.0 
0.0 0.0 0.0 
0.0 0.0 0.0 
0.0 0.0 0.0 
0.0 0.0 0.0 
0.0 0.0 0.0 
0.0 0.0 0.0 
0.0 0.0 0.0 
0.0 0.0 0.0 
0.0 0.0 0.0 
0.0 0.0 0.0 
0.0 0.0 0.0 
0.0 0.0 0.0 
0.0 0.0 0.0 
0.0 0.0 0.0 
0.0 0.0 0.0 
0.0 0.0 0.0 
0.0 0.0 0.0 
0.0 0.0 0.0 
0.0 0.0 0.0 
0.0 0.0 0.0 
0.0 0.0 0.0 
0.0 0.0 0.0 
0.0 0.0 0.0 
0.0 0.0 0.0 
0.0 0.0 0.0 
0.0 0.0 0.0 
0.0 0.0 0.0 
0.0 0.0 0.0 
0.0 0.0 0.0 
0.0 0.0 0.0 
0.0 0.0 0.0 
0.0 0.0 0.0 
0.0 0.0 0.0 
0.0 0.0 0.0 
0.0 0.0 0.0 
0.0 0.0 0.0 
0.0 0.0 0.0 
0.0 0.0 0.0 
0.0 0.0 0.0 
0.0 0.0 0.0 
0.0 0.0 0.0 
0.0 0.0 0.0 
0.0 0.0 0.0 
0.0 0.0 0.0 
0.0 0.0 0.0 
0.0 0.0 0.0 
0.0 0.0 0.0 
0.0 0.0 0.0 
0.0 0.0 0.0 
0.0 0.0 0.0 
0.0 0.0 0.0 
0.0 0.0 0.0 
0.0 0.0 0.0 
0.0 0.0 0.0 
0.0 0.0 0.0 
0.0 0.0 0.0 
0.0 0.0 0.0 
0.0 0.0 0.0 
0.0 0.0 0.0 
0.0 0.0 0.0 
0.0 0.0 0.0 
0.0 0.0 0.0 
0.0 0.0 0.0 
0.0 0.0 0.0 
0.0 0.0 0.0 
0.0 0.0 0.0 
0.0 0.0 0.0 
0.0 0.0 0.0 
0.0 0.0 0.0 
0.0 0.0 0.0 
0.0 0.0 0.0 
0.0 0.0 0.0 
0.0 0.0 0.0 
0.0 0.0 0.0 
0.0 0.0 0.0 
0.0 0.0 0.0 
0.0 0.0 0.0 
0.0 0.0 0.0 
0.0 0.0 0.0 
0.0 0.0 0.0 
0.0 0.0 0.0 
0.0 0.0 0.0 
0.0 0.0 0.0 
0.0 0.0 0.0 
0.0 0.0 0.0 
0.0 0.0 0.0 
0.0 0.0 0.0 
0.0 0.0 0.0 
0.0 0.0 0.0 
0.0 0.0 0.0 
0.0 0.0 0.0 
0.0 0.0 0.0 
0.0 0.0 0.0 
0.0 0.0 0.0 
0.0 0.0 0.0 
0.0 0.0 0.0 
0.0 0.0 0.0 
0.0 0.0 0.0 
0.0 0.0 0.0 
0.0 0.0 0.0 
0.0 0.0 0.0 
0.0 0.0 0.0 
0.0 0.0 0.0 
0.0 0.0 0.0 
0.0 0.0 0.0 
0.0 0.0 0.0 
0.0 0.0 0.0 
0.0 0.0 0.0 
0.0 0.0 0.0 
0.0 0.0 0.0 
0.0 0.0 0.0 
0.0 0.0 0.0 
0.0 0.0 0.0 
0.0 0.0 0.0 
0.0 0.0 0.0 
0.0 0.0 0.0 
0.0 0.0 0.0 
0.0 0.0 0.0 
0.0 0.0 0.0 
0.0 0.0 0.0 
0.0 0.0 0.0 
0.0 0.0 0.0 
0.0 0.0 0.0 
0.0 0.0 0.0 
0.0 0.0 0.0 
0.0 0.0 0.0 
0.0 0.0 0.0 
0.0 0.0 0.0 
0.0 0.0 0.0 
0.0 0.0 0.0 
0.0 0.0 0.0 
0.0 0.0 0.0 
0.0 0.0 0.0 
0.0 0.0 0.0 
0.0 0.0 0.0 
0.0 0.0 0.0 
0.0 0.0 0.0 
0.0 0.0 0.0 
0.0 0.0 0.0 
0.0 0.0 0.0 
0.0 0.0 0.0 
0.0 0.0 0.0 
0.0 0.0 0.0 
0.0 0.0 0.0 
0.0 0.0 0.0 
0.0 0.0 0.0 
0.0 0.0 0.0 
0.0 0.0 0.0 
0.0 0.0 0.0 
0.0 0.0 0.0 
0.0 0.0 0.0 
0.0 0.0 0.0 
0.0 0.0 0.0 
0.0 0.0 0.0 
0.0 0.0 0.0 
0.0 0.0 0.0 
0.0 0.0 0.0 
0.0 0.0 0.0 
0.0 0.0 0.0 
0.0 0.0 0.0 
0.0 0.0 0.0 
0.0 0.0 0.0 
0.0 0.0 0.0 
0.0 0.0 0.0 
0.0 0.0 0.0 
0.0 0.0 0.0 
0.0 0.0 0.0 
0.0 0.0 0.0 
0.0 0.0 0.0 
0.0 0.0 0.0 
0.0 0.0 0.0 
0.0 0.0 0.0 
0.0 0.0 0.0 
0.0 0.0 0.0 
0.0 0.0 0.0 
0.0 0.0 0.0 
0.0 0.0 0.0 
0.0 0.0 0.0 
0.0 0.0 0.0 
0.0 0.0 0.0 
0.0 0.0 0.0 
0.0 0.0 0.0 
0.0 0.0 0.0 
0.0 0.0 0.0 
0.0 0.0 0.0 
0.0 0.0 0.0 
0.0 0.0 0.0 
0.0 0.0 0.0 
0.0 0.0 0.0 
0.0 0.0 0.0 
0.0 0.0 0.0 
0.0 0.0 0.0 
0.0 0.0 0.0 
0.0 0.0 0.0 
0.0 0.0 0.0 
0.0 0.0 0.0 
0.0 0.0 0.0 
0.0 0.0 0.0 
0.0 0.0 0.0 
0.0 0.0 0.0 
0.0 0.0 0.0 
0.0 0.0 0.0 
0.0 0.0 0.0 
0.0 0.0 0.0 
0.0 0.0 0.0 
0.0 0.0 0.0 
0.0 0.0 0.0 
0.0 0.0 0.0 
0.0 0.0 0.0 
0.0 0.0 0.0 
0.0 0.0 0.0 
0.0 0.0 0.0 
0.0 0.0 0.0 
0.0 0.0 0.0 
0.0 0.0 0.0 
0.0 0.0 0.0 
0.0 0.0 0.0 
0.0 0.0 0.0 
0.0 0.0 0.0 
0.0 0.0 0.0 
0.0 0.0 0.0 
0.0 0.0 0.0 
0.0 0.0 0.0 
0.0 0.0 0.0 
0.0 0.0 0.0 
0.0 0.0 0.0 
0.0 0.0 0.0 
0.0 0.0 0.0 
0.0 0.0 0.0 
0.0 0.0 0.0 
0.0 0.0 0.0 
0.0 0.0 0.0 
0.0 0.0 0.0 
0.0 0.0 0.0 
0.0 0.0 0.0 
0.0 0.0 0.0 
0.0 0.0 0.0 
0.0 0.0 0.0 
0.0 0.0 0.0 
0.0 0.0 0.0 
0.0 0.0 0.0 
0.0 0.0 0.0 
0.0 0.0 0.0 
0.0 0.0 0.0 
0.0 0.0 0.0 
0.0 0.0 0.0 
0.0 0.0 0.0 
0.0 0.0 0.0 
0.0 0.0 0.0 
0.0 0.0 0.0 
0.0 0.0 0.0 
0.0 0.0 0.0 
0.0 0.0 0.0 
0.0 0.0 0.0 
0.0 0.0 0.0 
0.0 0.0 0.0 
0.0 0.0 0.0 
0.0 0.0 0.0 
0.0 0.0 0.0 
0.0 0.0 0.0 
0.0 0.0 0.0 
0.0 0.0 0.0 
0.0 0.0 0.0 
0.0 0.0 0.0 
0.0 0.0 0.0 
0.0 0.0 0.0 
0.0 0.0 0.0 
0.0 0.0 0.0 
0.0 0.0 0.0 
0.0 0.0 0.0 
0.0 0.0 0.0 
0.0 0.0 0.0 
0.0 0.0 0.0 
0.0 0.0 0.0 
0.0 0.0 0.0 
0.0 0.0 0.0 
0.0 0.0 0.0 
0.0 0.0 0.0 
0.0 0.0 0.0 
0.0 0.0 0.0 
0.0 0.0 0.0 
0.0 0.0 0.0 
0.0 0.0 0.0 
0.0 0.0 0.0 
0.0 0.0 0.0 
0.0 0.0 0.0 
0.0 0.0 0.0 
0.0 0.0 0.0 
0.0 0.0 0.0 
0.0 0.0 0.0 
0.0 0.0 0.0 
0.0 0.0 0.0 
0.0 0.0 0.0 
0.0 0.0 0.0 
0.0 0.0 0.0 
0.0 0.0 0.0 
0.0 0.0 0.0 
0.0 0.0 0.0 
0.0 0.0 0.0 
0.0 0.0 0.0 
0.0 0.0 0.0 
0.0 0.0 0.0 
0.0 0.0 0.0 
0.0 0.0 0.0 
0.0 0.0 0.0 
0.0 0.0 0.0 
0.0 0.0 0.0 
0.0 0.0 0.0 
0.0 0.0 0.0 
0.0 0.0 0.0 
0.0 0.0 0.0 
0.0 0.0 0.0 
0.0 0.0 0.0 
0.0 0.0 0.0 
0.0 0.0 0.0 
0.0 0.0 0.0 
0.0 0.0 0.0 
0.0 0.0 0.0 
0.0 0.0 0.0 
0.0 0.0 0.0 
0.0 0.0 0.0 
0.0 0.0 0.0 
0.0 0.0 0.0 
0.0 0.0 0.0 
0.0 0.0 0.0 
0.0 0.0 0.0 
0.0 0.0 0.0 
0.0 0.0 0.0 
0.0 0.0 0.0 
0.0 0.0 0.0 
0.0 0.0 0.0 
0.0 0.0 0.0 
0.0 0.0 0.0 
0.0 0.0 0.0 
0.0 0.0 0.0 
0.0 0.0 0.0 
0.0 0.0 0.0 
0.0 0.0 0.0 
0.0 0.0 0.0 
0.0 0.0 0.0 
0.0 0.0 0.0 
0.0 0.0 0.0 
0.0 0.0 0.0 
0.0 0.0 0.0 
0.0 0.0 0.0 
0.0 0.0 0.0 
0.0 0.0 0.0 
0.0 0.0 0.0 
0.0 0.0 0.0 
0.0 0.0 0.0 
0.0 0.0 0.0 
0.0 0.0 0.0 
0.0 0.0 0.0 
0.0 0.0 0.0 
0.0 0.0 0.0 
0.0 0.0 0.0 
0.0 0.0 0.0 
0.0 0.0 0.0 
0.0 0.0 0.0 
0.0 0.0 0.0 
0.0 0.0 0.0 
0.0 0.0 0.0 
0.0 0.0 0.0 
0.0 0.0 0.0 
0.0 0.0 0.0 
0.0 0.0 0.0 
0.0 0.0 0.0 
0.0 0.0 0.0 
0.0 0.0 0.0 
0.0 0.0 0.0 
0.0 0.0 0.0 
0.0 0.0 0.0 
0.0 0.0 0.0 
0.0 0.0 0.0 
0.0 0.0 0.0 
0.0 0.0 0.0 
0.0 0.0 0.0 
0.0 0.0 0.0 
0.0 0.0 0.0 
0.0 0.0 0.0 
0.0 0.0 0.0 
0.0 0.0 0.0 
0.0 0.0 0.0 
0.0 0.0 0.0 
0.0 0.0 0.0 
0.0 0.0 0.0 
0.0 0.0 0.0 
0.0 0.0 0.0 
0.0 0.0 0.0 
0.0 0.0 0.0 
0.0 0.0 0.0 
0.0 0.0 0.0 
0.0 0.0 0.0 
0.0 0.0 0.0 
0.0 0.0 0.0 
0.0 0.0 0.0 
0.0 0.0 0.0 
0.0 0.0 0.0 
0.0 0.0 0.0 
0.0 0.0 0.0 
0.0 0.0 0.0 
0.0 0.0 0.0 
0.0 0.0 0.0 
0.0 0.0 0.0 
0.0 0.0 0.0 
0.0 0.0 0.0 
0.0 0.0 0.0 
0.0 0.0 0.0 
0.0 0.0 0.0 
0.0 0.0 0.0 
0.0 0.0 0.0 
0.0 0.0 0.0 
0.0 0.0 0.0 
0.0 0.0 0.0 
0.0 0.0 0.0 
0.0 0.0 0.0 
0.0 0.0 0.0 
0.0 0.0 0.0 
0.0 0.0 0.0 
0.0 0.0 0.0 
0.0 0.0 0.0 
0.0 0.0 0.0 
0.0 0.0 0.0 
0.0 0.0 0.0 
0.0 0.0 0.0 
0.0 0.0 0.0 
0.0 0.0 0.0 
0.0 0.0 0.0 
0.0 0.0 0.0 
0.0 0.0 0.0 
0.0 0.0 0.0 
0.0 0.0 0.0 
0.0 0.0 0.0 
0.0 0.0 0.0 
0.0 0.0 0.0 
0.0 0.0 0.0 
0.0 0.0 0.0 
0.0 0.0 0.0 
0.0 0.0 0.0 
0.0 0.0 0.0 
0.0 0.0 0.0 
0.0 0.0 0.0 
0.0 0.0 0.0 
0.0 0.0 0.0 
0.0 0.0 0.0 
0.0 0.0 0.0 
0.0 0.0 0.0 
0.0 0.0 0.0 
0.0 0.0 0.0 
0.0 0.0 0.0 
0.0 0.0 0.0 
0.0 0.0 0.0 
0.0 0.0 0.0 
0.0 0.0 0.0 
0.0 0.0 0.0 
0.0 0.0 0.0 
0.0 0.0 0.0 
0.0 0.0 0.0 
0.0 0.0 0.0 
0.0 0.0 0.0 
0.0 0.0 0.0 
0.0 0.0 0.0 
0.0 0.0 0.0 
0.0 0.0 0.0 
0.0 0.0 0.0 
0.0 0.0 0.0 
0.0 0.0 0.0 
0.0 0.0 0.0 
0.0 0.0 0.0 
0.0 0.0 0.0 
0.0 0.0 0.0 
0.0 0.0 0.0 
0.0 0.0 0.0 
0.0 0.0 0.0 
0.0 0.0 0.0 
0.0 0.0 0.0 
0.0 0.0 0.0 
0.0 0.0 0.0 
0.0 0.0 0.0 
0.0 0.0 0.0 
0.0 0.0 0.0 
0.0 0.0 0.0 
0.0 0.0 0.0 
0.0 0.0 0.0 
0.0 0.0 0.0 
0.0 0.0 0.0 
0.0 0.0 0.0 
0.0 0.0 0.0 
0.0 0.0 0.0 
0.0 0.0 0.0 
0.0 0.0 0.0 
0.0 0.0 0.0 
0.0 0.0 0.0 
0.0 0.0 0.0 
0.0 0.0 0.0 
0.0 0.0 0.0 
0.0 0.0 0.0 
0.0 0.0 0.0 
0.0 0.0 0.0 
0.0 0.0 0.0 
0.0 0.0 0.0 
0.0 0.0 0.0 
0.0 0.0 0.0 
0.0 0.0 0.0 
0.0 0.0 0.0 
0.0 0.0 0.0 
0.0 0.0 0.0 
0.0 0.0 0.0 
0.0 0.0 0.0 
0.0 0.0 0.0 
0.0 0.0 0.0 
0.0 0.0 0.0 
0.0 0.0 0.0 
0.0 0.0 0.0 
0.0 0.0 0.0 
0.0 0.0 0.0 
0.0 0.0 0.0 
0.0 0.0 0.0 
0.0 0.0 0.0 
0.0 0.0 0.0 
0.0 0.0 0.0 
0.0 0.0 0.0 
0.0 0.0 0.0 
0.0 0.0 0.0 
0.0 0.0 0.0 
0.0 0.0 0.0 
0.0 0.0 0.0 
0.0 0.0 0.0 
0.0 0.0 0.0 
0.0 0.0 0.0 
0.0 0.0 0.0 
0.0 0.0 0.0 
0.0 0.0 0.0 
0.0 0.0 0.0 
0.0 0.0 0.0 
0.0 0.0 0.0 
0.0 0.0 0.0 
0.0 0.0 0.0 
0.0 0.0 0.0 
0.0 0.0 0.0 
0.0 0.0 0.0 
0.0 0.0 0.0 
0.0 0.0 0.0 
0.0 0.0 0.0 
0.0 0.0 0.0 
0.0 0.0 0.0 
0.0 0.0 0.0 
0.0 0.0 0.0 
0.0 0.0 0.0 
0.0 0.0 0.0 
0.0 0.0 0.0 
0.0 0.0 0.0 
0.0 0.0 0.0 
0.0 0.0 0.0 
0.0 0.0 0.0 
0.0 0.0 0.0 
0.0 0.0 0.0 
0.0 0.0 0.0 
0.0 0.0 0.0 
0.0 0.0 0.0 
0.0 0.0 0.0 
0.0 0.0 0.0 
0.0 0.0 0.0 
0.0 0.0 0.0 
0.0 0.0 0.0 
0.0 0.0 0.0 
0.0 0.0 0.0 
0.0 0.0 0.0 
0.0 0.0 0.0 
0.0 0.0 0.0 
0.0 0.0 0.0 
0.0 0.0 0.0 
0.0 0.0 0.0 
0.0 0.0 0.0 
0.0 0.0 0.0 
0.0 0.0 0.0 
0.0 0.0 0.0 
0.0 0.0 0.0 
0.0 0.0 0.0 
0.0 0.0 0.0 
0.0 0.0 0.0 
0.0 0.0 0.0 
0.0 0.0 0.0 
0.0 0.0 0.0 
0.0 0.0 0.0 
0.0 0.0 0.0 
0.0 0.0 0.0 
0.0 0.0 0.0 
0.0 0.0 0.0 
0.0 0.0 0.0 
0.0 0.0 0.0 
0.0 0.0 0.0 
0.0 0.0 0.0 
0.0 0.0 0.0 
0.0 0.0 0.0 
0.0 0.0 0.0 
0.0 0.0 0.0 
0.0 0.0 0.0 
0.0 0.0 0.0 
0.0 0.0 0.0 
0.0 0.0 0.0 
0.0 0.0 0.0 
0.0 0.0 0.0 
0.0 0.0 0.0 
0.0 0.0 0.0 
0.0 0.0 0.0 
0.0 0.0 0.0 
0.0 0.0 0.0 
0.0 0.0 0.0 
0.0 0.0 0.0 
0.0 0.0 0.0 
0.0 0.0 0.0 
0.0 0.0 0.0 
0.0 0.0 0.0 
0.0 0.0 0.0 
0.0 0.0 0.0 
0.0 0.0 0.0 
0.0 0.0 0.0 
0.0 0.0 0.0 
0.0 0.0 0.0 
0.0 0.0 0.0 
0.0 0.0 0.0 
0.0 0.0 0.0 
0.0 0.0 0.0 
0.0 0.0 0.0 
0.0 0.0 0.0 
0.0 0.0 0.0 
0.0 0.0 0.0 
0.0 0.0 0.0 
0.0 0.0 0.0 
0.0 0.0 0.0 
0.0 0.0 0.0 
0.0 0.0 0.0 
0.0 0.0 0.0 
0.0 0.0 0.0 
0.0 0.0 0.0 
0.0 0.0 0.0 
0.0 0.0 0.0 
0.0 0.0 0.0 
0.0 0.0 0.0 
0.0 0.0 0.0 
0.0 0.0 0.0 
0.0 0.0 0.0 
0.0 0.0 0.0 
0.0 0.0 0.0 
0.0 0.0 0.0 
0.0 0.0 0.0 
0.0 0.0 0.0 
0.0 0.0 0.0 
0.0 0.0 0.0 
0.0 0.0 0.0 
0.0 0.0 0.0 
0.0 0.0 0.0 
0.0 0.0 0.0 
0.0 0.0 0.0 
0.0 0.0 0.0 
0.0 0.0 0.0 
0.0 0.0 0.0 
0.0 0.0 0.0 
0.0 0.0 0.0 
0.0 0.0 0.0 
0.0 0.0 0.0 
0.0 0.0 0.0 
0.0 0.0 0.0 
0.0 0.0 0.0 
0.0 0.0 0.0 
0.0 0.0 0.0 
0.0 0.0 0.0 
0.0 0.0 0.0 
0.0 0.0 0.0 
0.0 0.0 0.0 
0.0 0.0 0.0 
0.0 0.0 0.0 
0.0 0.0 0.0 
0.0 0.0 0.0 
0.0 0.0 0.0 
0.0 0.0 0.0 
0.0 0.0 0.0 
0.0 0.0 0.0 
0.0 0.0 0.0 
0.0 0.0 0.0 
0.0 0.0 0.0 
0.0 0.0 0.0 
0.0 0.0 0.0 
0.0 0.0 0.0 
0.0 0.0 0.0 
0.0 0.0 0.0 
0.0 0.0 0.0 
0.0 0.0 0.0 
0.0 0.0 0.0 
0.0 0.0 0.0 
0.0 0.0 0.0 
0.0 0.0 0.0 
0.0 0.0 0.0 
0.0 0.0 0.0 
0.0 0.0 0.0 
0.0 0.0 0.0 
0.0 0.0 0.0 
0.0 0.0 0.0 
0.0 0.0 0.0 
0.0 0.0 0.0 
0.0 0.0 0.0 
0.0 0.0 0.0 
0.0 0.0 0.0 
0.0 0.0 0.0 
0.0 0.0 0.0 
0.0 0.0 0.0 
0.0 0.0 0.0 
0.0 0.0 0.0 
0.0 0.0 0.0 
0.0 0.0 0.0 
0.0 0.0 0.0 
0.0 0.0 0.0 
0.0 0.0 0.0 
0.0 0.0 0.0 
0.0 0.0 0.0 
0.0 0.0 0.0 
0.0 0.0 0.0 
0.0 0.0 0.0 
0.0 0.0 0.0 
0.0 0.0 0.0 
0.0 0.0 0.0 
0.0 0.0 0.0 
0.0 0.0 0.0 
0.0 0.0 0.0 
0.0 0.0 0.0 
0.0 0.0 0.0 
0.0 0.0 0.0 
0.0 0.0 0.0 
0.0 0.0 0.0 
0.0 0.0 0.0 
0.0 0.0 0.0 
0.0 0.0 0.0 
0.0 0.0 0.0 
0.0 0.0 0.0 
0.0 0.0 0.0 
0.0 0.0 0.0 
0.0 0.0 0.0 
0.0 0.0 0.0 
0.0 0.0 0.0 
0.0 0.0 0.0 
0.0 0.0 0.0 
0.0 0.0 0.0 
0.0 0.0 0.0 
0.0 0.0 0.0 
0.0 0.0 0.0 
0.0 0.0 0.0 
0.0 0.0 0.0 
0.0 0.0 0.0 
0.0 0.0 0.0 
0.0 0.0 0.0 
0.0 0.0 0.0 
0.0 0.0 0.0 
0.0 0.0 0.0 
0.0 0.0 0.0 
0.0 0.0 0.0 
0.0 0.0 0.0 
0.0 0.0 0.0 
0.0 0.0 0.0 
0.0 0.0 0.0 
0.0 0.0 0.0 
0.0 0.0 0.0 
0.0 0.0 0.0 
0.0 0.0 0.0 
0.0 0.0 0.0 
0.0 0.0 0.0 
0.0 0.0 0.0 
0.0 0.0 0.0 
0.0 0.0 0.0 
0.0 0.0 0.0 
0.0 0.0 0.0 
0.0 0.0 0.0 
0.0 0.0 0.0 
0.0 0.0 0.0 
0.0 0.0 0.0 
0.0 0.0 0.0 
0.0 0.0 0.0 
0.0 0.0 0.0 
0.0 0.0 0.0 
0.0 0.0 0.0 
0.0 0.0 0.0 
0.0 0.0 0.0 
0.0 0.0 0.0 
0.0 0.0 0.0 
0.0 0.0 0.0 
0.0 0.0 0.0 
0.0 0.0 0.0 
0.0 0.0 0.0 
0.0 0.0 0.0 
0.0 0.0 0.0 
0.0 0.0 0.0 
0.0 0.0 0.0 
0.0 0.0 0.0 
0.0 0.0 0.0 
0.0 0.0 0.0 
0.0 0.0 0.0 
0.0 0.0 0.0 
0.0 0.0 0.0 
0.0 0.0 0.0 
0.0 0.0 0.0 
0.0 0.0 0.0 
0.0 0.0 0.0 
0.0 0.0 0.0 
0.0 0.0 0.0 
0.0 0.0 0.0 
0.0 0.0 0.0 
0.0 0.0 0.0 
0.0 0.0 0.0 
0.0 0.0 0.0 
0.0 0.0 0.0 
0.0 0.0 0.0 
0.0 0.0 0.0 
0.0 0.0 0.0 
0.0 0.0 0.0 
0.0 0.0 0.0 
0.0 0.0 0.0 
0.0 0.0 0.0 
0.0 0.0 0.0 
0.0 0.0 0.0 
0.0 0.0 0.0 
0.0 0.0 0.0 
0.0 0.0 0.0 
0.0 0.0 0.0 
0.0 0.0 0.0 
0.0 0.0 0.0 
0.0 0.0 0.0 
0.0 0.0 0.0 
0.0 0.0 0.0 
0.0 0.0 0.0 
0.0 0.0 0.0 
0.0 0.0 0.0 
0.0 0.0 0.0 
0.0 0.0 0.0 
0.0 0.0 0.0 
0.0 0.0 0.0 
0.0 0.0 0.0 
0.0 0.0 0.0 
0.0 0.0 0.0 
0.0 0.0 0.0 
0.0 0.0 0.0 
0.0 0.0 0.0 
0.0 0.0 0.0 
0.0 0.0 0.0 
0.0 0.0 0.0 
0.0 0.0 0.0 
0.0 0.0 0.0 
0.0 0.0 0.0 
0.0 0.0 0.0 
0.0 0.0 0.0 
0.0 0.0 0.0 
0.0 0.0 0.0 
0.0 0.0 0.0 
0.0 0.0 0.0 
0.0 0.0 0.0 
0.0 0.0 0.0 
0.0 0.0 0.0 
0.0 0.0 0.0 
0.0 0.0 0.0 
0.0 0.0 0.0 
0.0 0.0 0.0 
0.0 0.0 0.0 
0.0 0.0 0.0 

TENSORS element_materi_stress float
-4.087953005730e+01 9.423935532143e+00 0.0 
9.423935532143e+00 -6.992225924667e+01 0.0 
0.0 0.0 -3.284053679119e+01 
-4.395876803341e+01 1.382466516651e+01 0.0 
1.382466516651e+01 -6.645371891798e+01 0.0 
0.0 0.0 -3.272374608542e+01 
-1.397344440307e+02 1.175343540932e+01 0.0 
1.175343540932e+01 -3.211358148322e+02 0.0 
0.0 0.0 -1.378610776589e+02 
-1.322901498903e+02 1.884435772409e+00 0.0 
1.884435772409e+00 -3.049533098587e+02 0.0 
0.0 0.0 -1.307730379247e+02 
-7.948540730427e+01 -1.335065653726e-01 0.0 
-1.335065653726e-01 -1.677183800167e+02 0.0 
0.0 0.0 -7.376113619631e+01 
-3.399993883535e+01 3.122613819998e+01 0.0 
3.122613819998e+01 -1.051844176877e+02 0.0 
0.0 0.0 -4.243806477781e+01 
-7.909822839232e+01 -5.537984429492e-01 0.0 
-5.537984429492e-01 -1.678461078197e+02 0.0 
0.0 0.0 -7.368330086359e+01 
-4.375112361404e+01 1.517806684544e+01 0.0 
1.517806684544e+01 -6.999562727023e+01 0.0 
0.0 0.0 -3.372402526528e+01 
-7.973420271734e+01 1.793164152981e+00 0.0 
1.793164152981e+00 -1.684753115795e+02 0.0 
0.0 0.0 -7.406285428905e+01 
-1.316768278527e+02 9.860382189175e-01 0.0 
9.860382189175e-01 -3.033695781967e+02 0.0 
0.0 0.0 -1.301139218148e+02 
-1.084656149719e+02 -1.243245913389e+00 0.0 
-1.243245913389e+00 -2.558730779465e+02 0.0 
0.0 0.0 -1.089016078755e+02 
-3.450157044284e+01 1.207147979659e+01 0.0 
1.207147979659e+01 -4.859555420509e+01 0.0 
0.0 0.0 -2.452913739438e+01 
-1.576355932283e+02 -8.888550784021e-01 0.0 
-8.888550784021e-01 -3.697260523350e+02 0.0 
0.0 0.0 -1.578084936690e+02 
-8.850872212708e+01 1.533536842223e+00 0.0 
1.533536842223e+00 -1.855227303988e+02 0.0 
0.0 0.0 -8.180943575778e+01 
-1.612641138336e+02 8.365689266621e-01 0.0 
8.365689266621e-01 -3.780714214608e+02 0.0 
0.0 0.0 -1.614006605883e+02 
-1.347400158811e+02 7.093891265692e-01 0.0 
7.093891265692e-01 -3.130486097245e+02 0.0 
0.0 0.0 -1.339365876817e+02 
-7.866385022368e+01 1.111128870181e+00 0.0 
1.111128870181e+00 -1.638468664250e+02 0.0 
0.0 0.0 -7.235321499459e+01 
-2.669698324927e+01 1.682285586669e+01 0.0 
1.682285586669e+01 -1.093598460579e+02 0.0 
0.0 0.0 -4.315640557842e+01 
-3.029956528613e+01 2.100327960410e-02 0.0 
2.100327960410e-02 -7.688297502911e+01 0.0 
0.0 0.0 -3.175476209457e+01 
-3.288736286022e+01 -1.091815852284e+00 0.0 
-1.091815852284e+00 -7.984745623323e+01 0.0 
0.0 0.0 -3.342044572804e+01 
-1.326283450539e+02 2.959430763895e+00 0.0 
2.959430763895e+00 -3.042477082369e+02 0.0 
0.0 0.0 -1.306628159872e+02 
-4.620949323397e+01 7.179892969991e+00 0.0 
7.179892969991e+00 -7.882475733620e+01 0.0 
0.0 0.0 -3.711027517105e+01 
-5.361499712075e+01 9.599996080782e+00 0.0 
9.599996080782e+00 -9.372882018000e+01 0.0 
0.0 0.0 -4.380314519022e+01 
-1.459599263290e+02 7.305385680457e+00 0.0 
7.305385680457e+00 -3.575596224302e+02 0.0 
0.0 0.0 -1.506558646278e+02 
-9.688919210556e+01 2.873650345451e+00 0.0 
2.873650345451e+00 -2.041472300720e+02 0.0 
0.0 0.0 -8.991092665327e+01 
-1.143990806891e+02 1.838472179717e-02 0.0 
1.838472179717e-02 -2.698996562714e+02 0.0 
0.0 0.0 -1.148896210881e+02 
-7.435461145893e+01 2.471943533776e+00 0.0 
2.471943533776e+00 -1.485119027171e+02 0.0 
0.0 0.0 -6.645995425280e+01 
-1.478718879172e+02 1.631336117179e+01 0.0 
1.631336117179e+01 -3.475734131331e+02 0.0 
0.0 0.0 -1.482335903151e+02 
-9.837165127642e+01 5.281258125322e+00 0.0 
5.281258125322e+00 -2.050763356823e+02 0.0 
0.0 0.0 -9.063439608763e+01 
-1.499661500096e+02 5.710968745495e+00 0.0 
5.710968745495e+00 -3.654580597610e+02 0.0 
0.0 0.0 -1.542272629312e+02 
-3.541444893646e+01 -2.159703351766e+01 0.0 
-2.159703351766e+01 -9.925582421390e+01 0.0 
0.0 0.0 -3.948799527948e+01 
-9.346397603741e+00 -1.232145159086e+00 0.0 
-1.232145159086e+00 -2.625173075400e+01 0.0 
0.0 0.0 -1.027943850732e+01 
-1.409052930541e+02 1.155563389852e+01 0.0 
1.155563389852e+01 -3.216813689470e+02 0.0 
0.0 0.0 -1.383759986003e+02 
-1.357308893093e+02 6.997776718218e-01 0.0 
6.997776718218e-01 -3.192759949260e+02 0.0 
0.0 0.0 -1.361020652706e+02 
-1.561877613427e+02 2.931943993598e+00 0.0 
2.931943993598e+00 -3.718555146161e+02 0.0 
0.0 0.0 -1.580129827876e+02 
-1.647794029785e+02 -7.668392626620e-01 0.0 
-7.668392626620e-01 -3.879664497265e+02 0.0 
0.0 0.0 -1.654237558115e+02 
-1.648802269571e+02 2.270484577024e+00 0.0 
2.270484577024e+00 -3.877418934633e+02 0.0 
0.0 0.0 -1.653866361261e+02 
-1.509016778597e+02 1.156327894046e+01 0.0 
1.156327894046e+01 -3.639231295704e+02 0.0 
0.0 0.0 -1.540474422290e+02 
-7.111350006604e+01 1.443377865955e+00 0.0 
1.443377865955e+00 -1.490064123093e+02 0.0 
0.0 0.0 -6.563597371261e+01 
-7.093898685443e+01 -1.290234460874e+00 0.0 
-1.290234460874e+00 -1.495743314136e+02 0.0 
0.0 0.0 -6.575399548041e+01 
-6.116204061855e+01 7.497699563280e+00 0.0 
7.497699563280e+00 -1.114139940782e+02 0.0 
0.0 0.0 -5.137281040904e+01 
-1.588757999320e+02 3.562693125633e+00 0.0 
3.562693125633e+00 -3.771182807268e+02 0.0 
0.0 0.0 -1.603982241976e+02 
-3.189020290500e+01 1.639220228553e+01 0.0 
1.639220228553e+01 -4.668878993910e+01 0.0 
0.0 0.0 -2.317369785323e+01 
-7.514454628255e+01 2.180993218258e+00 0.0 
2.180993218258e+00 -1.491882413824e+02 0.0 
0.0 0.0 -6.689983629949e+01 
-1.281359499666e+02 8.193324677900e-01 0.0 
8.193324677900e-01 -2.936242806438e+02 0.0 
0.0 0.0 -1.261280691831e+02 
-3.608918014751e+01 2.271077209598e+01 0.0 
2.271077209598e+01 -4.765826730633e+01 0.0 
0.0 0.0 -2.472423423615e+01 
-3.207289814485e+01 -2.521089520233e+01 0.0 
-2.521089520233e+01 -9.749664113592e+01 0.0 
0.0 0.0 -3.995277751882e+01 
-1.281732038202e+02 3.956387023670e-01 0.0 
3.956387023670e-01 -2.951436337208e+02 0.0 
0.0 0.0 -1.265950512623e+02 
-3.227258941808e+01 -2.377768000532e+01 0.0 
-2.377768000532e+01 -5.674353429223e+01 0.0 
0.0 0.0 -2.815477240608e+01 
-8.568087591844e+01 2.713156165186e+00 0.0 
2.713156165186e+00 -1.769185473767e+02 0.0 
0.0 0.0 -7.837982698855e+01 
-5.747238025141e+01 8.472081284753e+00 0.0 
8.472081284753e+00 -1.028908749231e+02 0.0 
0.0 0.0 -4.770897655235e+01 
-4.021654347032e+01 -2.570763992088e-01 0.0 
-2.570763992088e-01 -9.675428853436e+01 0.0 
0.0 0.0 -4.069124960141e+01 
-3.676887009904e+01 -1.686463560401e+01 0.0 
-1.686463560401e+01 -1.298809609303e+02 0.0 
0.0 0.0 -5.014354595437e+01 
-5.448681194461e+01 5.148221311276e+00 0.0 
5.148221311276e+00 -9.841788452623e+01 0.0 
0.0 0.0 -4.547140894125e+01 
-1.378228470649e+02 8.930747216053e+00 0.0 
8.930747216053e+00 -3.168462292304e+02 0.0 
0.0 0.0 -1.360007228886e+02 
-5.467002732446e+01 -7.471563316422e-01 0.0 
-7.471563316422e-01 -1.284796276456e+02 0.0 
0.0 0.0 -5.454489649102e+01 
-4.232443566042e+01 -1.308765800938e+00 0.0 
-1.308765800938e+00 -1.001472230430e+02 0.0 
0.0 0.0 -4.234149761101e+01 
-1.355207876870e+02 -9.399250702855e-01 0.0 
-9.399250702855e-01 -3.192504715544e+02 0.0 
0.0 0.0 -1.360313777724e+02 
-2.270009229096e+01 -1.240361632865e+00 0.0 
-1.240361632865e+00 -5.907956038093e+01 0.0 
0.0 0.0 -2.413389580157e+01 
-1.351732515589e+02 2.484355795303e+00 0.0 
2.484355795303e+00 -3.132703646590e+02 0.0 
0.0 0.0 -1.341330848654e+02 
-5.300051715774e+01 -2.246925586718e+01 0.0 
-2.246925586718e+01 -9.809818609096e+01 0.0 
0.0 0.0 -4.635951125780e+01 
-1.406118856640e+02 1.371826618214e+01 0.0 
1.371826618214e+01 -3.374747686687e+02 0.0 
0.0 0.0 -1.430259962998e+02 
-5.930201400664e+01 1.636188350738e+01 0.0 
1.636188350738e+01 -1.206891090952e+02 0.0 
0.0 0.0 -5.359733693055e+01 
-3.136295300372e+01 -1.678947250702e+01 0.0 
-1.678947250702e+01 -1.134088393001e+02 0.0 
0.0 0.0 -4.316566220497e+01 
-1.574391564728e+02 8.736301885268e-01 0.0 
8.736301885268e-01 -3.698107227963e+02 0.0 
0.0 0.0 -1.577749637807e+02 
-5.007787224760e+01 6.031484854571e+00 0.0 
6.031484854571e+00 -8.798595164557e+01 0.0 
0.0 0.0 -4.101914716795e+01 
-4.483670121223e+01 -8.844440762946e+00 0.0 
-8.844440762946e+00 -1.207550550235e+02 0.0 
0.0 0.0 -5.091241375339e+01 
-1.422609135509e+02 1.288134712702e+01 0.0 
1.288134712702e+01 -3.234101791119e+02 0.0 
0.0 0.0 -1.393013277988e+02 
-3.618051850038e+01 -9.612639083436e+00 0.0 
-9.612639083436e+00 -7.118228025139e+01 0.0 
0.0 0.0 -3.083725623394e+01 
-1.440245727107e+02 1.453466851713e+01 0.0 
1.453466851713e+01 -3.338543847652e+02 0.0 
0.0 0.0 -1.429636872428e+02 
-1.188896479528e+02 -4.868001139274e-02 0.0 
-4.868001139274e-02 -2.809507391922e+02 0.0 
0.0 0.0 -1.195521161435e+02 
-1.404279511106e+02 5.871693172756e+00 0.0 
5.871693172756e+00 -3.289985525914e+02 0.0 
0.0 0.0 -1.404279511106e+02 
-1.417961886885e+02 1.493338471117e+01 0.0 
1.493338471117e+01 -3.326074546908e+02 0.0 
0.0 0.0 -1.419210930138e+02 
-7.626815088554e+00 -1.139259903836e+00 0.0 
-1.139259903836e+00 -2.992623987056e+01 0.0 
0.0 0.0 -1.086591648774e+01 
-5.719296532806e+01 -2.016498197146e+00 0.0 
-2.016498197146e+00 -1.339092054420e+02 0.0 
0.0 0.0 -5.693065123102e+01 
-1.345921117711e+02 5.081109708321e+00 0.0 
5.081109708321e+00 -3.081796277133e+02 0.0 
0.0 0.0 -1.324315218453e+02 
-1.399190046089e+02 9.681361178561e+00 0.0 
9.681361178561e+00 -3.185770932249e+02 0.0 
0.0 0.0 -1.371488293501e+02 
-3.578240804866e+01 2.634602131948e+01 0.0 
2.634602131948e+01 -4.745546898669e+01 0.0 
0.0 0.0 -2.293856794792e+01 
-2.432310340883e+01 -1.137758237682e+00 0.0 
-1.137758237682e+00 -5.914573092106e+01 0.0 
0.0 0.0 -2.464065029897e+01 
-3.353449048074e+01 2.339846551209e+01 0.0 
2.339846551209e+01 -4.687995432834e+01 0.0 
0.0 0.0 -2.216561798782e+01 
-3.922544190864e+01 -1.362976702382e+01 0.0 
-1.362976702382e+01 -7.104304890651e+01 0.0 
0.0 0.0 -3.118128470685e+01 
-7.858335625211e+01 8.551588404290e-01 0.0 
8.551588404290e-01 -1.633794263752e+02 0.0 
0.0 0.0 -7.218883478821e+01 
-5.024168821571e+01 1.103429862949e+01 0.0 
1.103429862949e+01 -8.562074762932e+01 0.0 
0.0 0.0 -4.035873075351e+01 
-4.158705065571e+01 8.208169410899e+00 0.0 
8.208169410899e+00 -6.767791450215e+01 0.0 
0.0 0.0 -3.237948954736e+01 
-8.432658031369e+01 1.964160986259e+00 0.0 
1.964160986259e+00 -1.788480308088e+02 0.0 
0.0 0.0 -7.855238333674e+01 
-8.355960630604e+01 -5.254404435968e-02 0.0 
-5.254404435968e-02 -1.784900437928e+02 0.0 
0.0 0.0 -7.821489502966e+01 
-1.225585167975e+02 3.687063310652e-01 0.0 
3.687063310652e-01 -2.891574731310e+02 0.0 
0.0 0.0 -1.231147969786e+02 
-1.319967543545e+02 -8.735613065580e-01 0.0 
-8.735613065580e-01 -3.107254237858e+02 0.0 
0.0 0.0 -1.324166534421e+02 
-1.228436172153e+02 1.165834887752e+01 0.0 
1.165834887752e+01 -2.682061802604e+02 0.0 
0.0 0.0 -1.169149392427e+02 
-8.001727720479e+01 2.112433579187e+00 0.0 
2.112433579187e+00 -1.672232263982e+02 0.0 
0.0 0.0 -7.377215108090e+01 
-1.581629180752e+01 -1.874633505360e+00 0.0 
-1.874633505360e+00 -2.614626916491e+01 0.0 
0.0 0.0 -1.254243263473e+01 
-8.238581373133e+01 2.864928568085e+00 0.0 
2.864928568085e+00 -1.667250900807e+02 0.0 
0.0 0.0 -7.433327114362e+01 
-1.097813809983e+02 9.579151241397e-01 0.0 
9.579151241397e-01 -2.467102307458e+02 0.0 
0.0 0.0 -1.065474835232e+02 
-1.090086456809e+02 2.370627291163e-01 0.0 
2.370627291163e-01 -2.432480714394e+02 0.0 
0.0 0.0 -1.052770151361e+02 
-1.429561800762e+02 6.515263064267e+00 0.0 
6.515263064267e+00 -3.305186329045e+02 0.0 
0.0 0.0 -1.416424438942e+02 
-1.561098947871e+02 1.392883543847e+01 0.0 
1.392883543847e+01 -3.708121218947e+02 0.0 
0.0 0.0 -1.576766050045e+02 
-7.922849396497e+01 1.671727177348e+00 0.0 
1.671727177348e+00 -1.631845707675e+02 0.0 
0.0 0.0 -7.232391941975e+01 
-1.565356125676e+02 3.171881971167e+00 0.0 
3.171881971167e+00 -3.761764262607e+02 0.0 
0.0 0.0 -1.594136116485e+02 
-9.070339091568e+01 7.656172816850e-01 0.0 
7.656172816850e-01 -1.979751702464e+02 0.0 
0.0 0.0 -8.620356834861e+01 
-5.692342999332e+01 1.801540196556e+01 0.0 
1.801540196556e+01 -1.073538471205e+02 0.0 
0.0 0.0 -4.888318313414e+01 
-7.604163024147e+01 1.342034444482e+00 0.0 
1.342034444482e+00 -1.585433120742e+02 0.0 
0.0 0.0 -6.997548269469e+01 
-1.609272980731e+02 -6.805210944911e-01 0.0 
-6.805210944911e-01 -3.777917817858e+02 0.0 
0.0 0.0 -1.612157239577e+02 
-1.178783143204e+02 1.460190746329e+01 0.0 
1.460190746329e+01 -2.932240899566e+02 0.0 
0.0 0.0 -1.229307212831e+02 
-1.413209073562e+02 1.542385293632e+01 0.0 
1.542385293632e+01 -3.381635394902e+02 0.0 
0.0 0.0 -1.434453340539e+02 
-4.903008167021e+01 2.478577954848e+01 0.0 
2.478577954848e+01 -1.116864368988e+02 0.0 
0.0 0.0 -4.781495557071e+01 
-4.485408520983e+01 -2.820442037620e+01 0.0 
-2.820442037620e+01 -7.774617882988e+01 0.0 
0.0 0.0 -3.583394076433e+01 
-1.487124440618e+02 7.875220526352e-01 0.0 
7.875220526352e-01 -3.492549221292e+02 0.0 
0.0 0.0 -1.489902098573e+02 
-1.163270174167e+02 5.166020252541e-01 0.0 
5.166020252541e-01 -2.623454208203e+02 0.0 
0.0 0.0 -1.132017314711e+02 
-4.969977944697e+01 -3.336083511266e+01 0.0 
-3.336083511266e+01 -7.561959148566e+01 0.0 
0.0 0.0 -3.799423813402e+01 
-1.604817939404e+02 8.153605622339e-01 0.0 
8.153605622339e-01 -3.764159908137e+02 0.0 
0.0 0.0 -1.606693354262e+02 
-1.172901179533e+02 9.666937800080e+00 0.0 
9.666937800080e+00 -2.569869503501e+02 0.0 
0.0 0.0 -1.118831204910e+02 
-5.167952223803e+00 7.393107050381e-01 0.0 
7.393107050381e-01 -2.181843000081e+01 0.0 
0.0 0.0 -7.065629686943e+00 
-6.715226048419e+01 1.927825019614e+01 0.0 
1.927825019614e+01 -1.680658906246e+02 0.0 
0.0 0.0 -7.016544533262e+01 
-7.627979602201e+01 5.010054319647e+00 0.0 
5.010054319647e+00 -1.487151557757e+02 0.0 
0.0 0.0 -6.709848553933e+01 
-6.945324166178e+01 -1.874592927907e+00 0.0 
-1.874592927907e+00 -1.633982256971e+02 0.0 
0.0 0.0 -6.945544020765e+01 
-5.167041417574e+01 1.605068377693e+01 0.0 
1.605068377693e+01 -9.752043872190e+01 0.0 
0.0 0.0 -4.435725586929e+01 
-5.892268330796e+01 2.051008693150e+01 0.0 
2.051008693150e+01 -1.209712795336e+02 0.0 
0.0 0.0 -5.356818885248e+01 
-1.594955108165e+02 1.372949710281e+00 0.0 
1.372949710281e+00 -3.780124819331e+02 0.0 
0.0 0.0 -1.608523978249e+02 
-8.820982244779e+01 -5.397175560232e-01 0.0 
-5.397175560232e-01 -1.913842815891e+02 0.0 
0.0 0.0 -8.347823121107e+01 
-5.533806862493e+01 1.895952668520e+01 0.0 
1.895952668520e+01 -1.155286798048e+02 0.0 
0.0 0.0 -5.086002452891e+01 
-2.945726216137e+01 -4.634960889266e+00 0.0 
-4.634960889266e+00 -6.316390373793e+01 0.0 
0.0 0.0 -2.738634976979e+01 
-8.236167304235e+01 2.767919008872e+00 0.0 
2.767919008872e+00 -1.664141083725e+02 0.0 
0.0 0.0 -7.423273442445e+01 
-1.167144726754e+02 1.008459995458e+00 0.0 
1.008459995458e+00 -2.638861289817e+02 0.0 
0.0 0.0 -1.137801804971e+02 
-5.401441490018e+01 2.284035454002e+01 0.0 
2.284035454002e+01 -1.152284212104e+02 0.0 
0.0 0.0 -5.037285083318e+01 
-3.729286914294e+01 2.978905741248e+01 0.0 
2.978905741248e+01 -5.202774924932e+01 0.0 
0.0 0.0 -2.564016055711e+01 
-6.877966602245e+01 6.001613445502e+00 0.0 
6.001613445502e+00 -1.301499126669e+02 0.0 
0.0 0.0 -5.927887360681e+01 
-6.898987128731e+01 -2.374159390814e+00 0.0 
-2.374159390814e+00 -1.620798487566e+02 0.0 
0.0 0.0 -6.892091601316e+01 
-6.269120242712e+01 3.781640454585e+00 0.0 
3.781640454585e+00 -1.183884607870e+02 0.0 
0.0 0.0 -5.392389896424e+01 
-1.366311481836e+02 4.245785585576e+00 0.0 
4.245785585576e+00 -3.163028769571e+02 0.0 
0.0 0.0 -1.354802075422e+02 
-3.611938144897e+01 3.284541597092e+01 0.0 
3.284541597092e+01 -7.719722316543e+01 0.0 
0.0 0.0 -3.346339334066e+01 
-1.134944793857e+02 -1.541710864385e+00 0.0 
-1.541710864385e+00 -2.684417486532e+02 0.0 
0.0 0.0 -1.141808684117e+02 
-1.319173617667e+02 1.429916754164e-01 0.0 
1.429916754164e-01 -3.048676393878e+02 0.0 
0.0 0.0 -1.306355003463e+02 
-7.200112925921e+01 1.091577127477e+01 0.0 
1.091577127477e+01 -1.430926857386e+02 0.0 
0.0 0.0 -6.412814449933e+01 
-6.510070959629e+01 6.641292323756e+00 0.0 
6.641292323756e+00 -1.210939562678e+02 0.0 
0.0 0.0 -5.545839975922e+01 
-1.552724140716e+02 1.300081493847e+00 0.0 
1.300081493847e+00 -3.715101497633e+02 0.0 
0.0 0.0 -1.576347691505e+02 
-1.579803524809e+02 1.086966902229e+00 0.0 
1.086966902229e+00 -3.704119973682e+02 0.0 
0.0 0.0 -1.581177049547e+02 
-1.221869630476e+02 -1.330802694622e+00 0.0 
-1.330802694622e+00 -2.890640435961e+02 0.0 
0.0 0.0 -1.229753019931e+02 
-7.687801380826e+01 1.274763510648e+01 0.0 
1.274763510648e+01 -1.524147980961e+02 0.0 
0.0 0.0 -6.838784357131e+01 
-1.558143969431e+02 5.756825567845e+00 0.0 
5.756825567845e+00 -3.767677295666e+02 0.0 
0.0 0.0 -1.593746379529e+02 
-6.791368379235e+01 8.702204489164e+00 0.0 
8.702204489164e+00 -1.310219042414e+02 0.0 
0.0 0.0 -5.928067641013e+01 
-1.346140732997e+02 3.353864776858e+00 0.0 
3.353864776858e+00 -3.109664010219e+02 0.0 
0.0 0.0 -1.332741422965e+02 
-1.447026356943e+02 1.475467365420e+01 0.0 
1.475467365420e+01 -3.336106898091e+02 0.0 
0.0 0.0 -1.430939976510e+02 
-8.921843047542e+01 3.673384723777e+00 0.0 
3.673384723777e+00 -1.852105942921e+02 0.0 
0.0 0.0 -8.192870743027e+01 
-1.008703218833e+02 1.489446817768e-01 0.0 
1.489446817768e-01 -2.223687257938e+02 0.0 
0.0 0.0 -9.657171430312e+01 
-6.912257039558e+01 1.221985503066e+01 0.0 
1.221985503066e+01 -1.317507903788e+02 0.0 
0.0 0.0 -5.986200823231e+01 
-5.863501876416e+01 4.229472755150e+00 0.0 
4.229472755150e+00 -1.089529052137e+02 0.0 
0.0 0.0 -4.987637719335e+01 
-7.972902434878e+01 1.142631679631e+01 0.0 
1.142631679631e+01 -1.636902293742e+02 0.0 
0.0 0.0 -7.262577611689e+01 
-5.556158881530e+01 2.343078356878e+01 0.0 
2.343078356878e+01 -1.326119563593e+02 0.0 
0.0 0.0 -5.605206355237e+01 
-7.642156655346e+01 1.201346787762e+00 0.0 
1.201346787762e+00 -1.612156311951e+02 0.0 
0.0 0.0 -7.089115932456e+01 
-6.406965368138e+01 2.115454872451e+01 0.0 
2.115454872451e+01 -1.670833771434e+02 0.0 
0.0 0.0 -6.894590924742e+01 
-1.159027356940e+01 -3.670601615212e-01 0.0 
-3.670601615212e-01 -2.521452436267e+01 0.0 
0.0 0.0 -1.101688125307e+01 
-8.168219773776e+01 1.993440841749e-01 0.0 
1.993440841749e-01 -1.760597236453e+02 0.0 
0.0 0.0 -7.692257641490e+01 
-2.305320010049e+01 -4.594595034938e-01 0.0 
-4.594595034938e-01 -5.998177419583e+01 0.0 
0.0 0.0 -2.451049228890e+01 
-7.253993975138e+01 5.488413290571e+00 0.0 
5.488413290571e+00 -1.395979887668e+02 0.0 
0.0 0.0 -6.324137855546e+01 
-1.587664686607e+02 5.424612110226e+00 0.0 
5.424612110226e+00 -3.777888779481e+02 0.0 
0.0 0.0 -1.605666039826e+02 
-5.112620478963e+01 2.156416438652e+01 0.0 
2.156416438652e+01 -1.122421656989e+02 0.0 
0.0 0.0 -4.861051114657e+01 
-1.269251001691e+02 -1.142084051064e+00 0.0 
-1.142084051064e+00 -2.993409539474e+02 0.0 
0.0 0.0 -1.274798162350e+02 
-3.839349410220e+01 1.931658674574e+01 0.0 
1.931658674574e+01 -5.228113164959e+01 0.0 
0.0 0.0 -2.680238772554e+01 
-1.183147490636e+02 1.309292497372e+01 0.0 
1.309292497372e+01 -2.932153380323e+02 0.0 
0.0 0.0 -1.230590261288e+02 
-7.605271737476e+01 1.584699655129e-01 0.0 
1.584699655129e-01 -1.626253973129e+02 0.0 
0.0 0.0 -7.120343440629e+01 
-6.186327961860e+01 2.012077750241e+01 0.0 
2.012077750241e+01 -1.645940141340e+02 0.0 
0.0 0.0 -6.753718812577e+01 
-1.398533133655e+02 7.590470667410e-01 0.0 
7.590470667410e-01 -3.291475340433e+02 0.0 
0.0 0.0 -1.403002542226e+02 
-3.522429499198e+01 -8.189048797810e+00 0.0 
-8.189048797810e+00 -6.396950588203e+01 0.0 
0.0 0.0 -2.879431043210e+01 
-1.484622671150e+02 -9.553815723755e-01 0.0 
-9.553815723755e-01 -3.488848447873e+02 0.0 
0.0 0.0 -1.488041335707e+02 
-8.310084063263e+01 5.357023030310e+00 0.0 
5.357023030310e+00 -1.671187483151e+02 0.0 
0.0 0.0 -7.466587668432e+01 
-1.590809799052e+02 2.324784167734e-01 0.0 
2.324784167734e-01 -3.750950684512e+02 0.0 
0.0 0.0 -1.598528145069e+02 
-7.545166287352e+01 -2.500059011533e-02 0.0 
-2.500059011533e-02 -1.615330099893e+02 0.0 
0.0 0.0 -7.069540185885e+01 
-5.322310034793e+01 2.226668937997e+01 0.0 
2.226668937997e+01 -1.293399718827e+02 0.0 
0.0 0.0 -5.436892166919e+01 
-7.071450497887e+01 3.058468693648e+00 0.0 
3.058468693648e+00 -1.375081305690e+02 0.0 
0.0 0.0 -6.206679066436e+01 
-1.088697671212e+02 1.056661358522e-01 0.0 
1.056661358522e-01 -2.573045641502e+02 0.0 
0.0 0.0 -1.094522993814e+02 
-3.491003000763e+01 1.336724880391e+01 0.0 
1.336724880391e+01 -5.323973907815e+01 0.0 
0.0 0.0 -2.604493072573e+01 
-5.833098476904e+01 2.113458996163e+01 0.0 
2.113458996163e+01 -1.632901590604e+02 0.0 
0.0 0.0 -6.608634314884e+01 
-1.051541234047e+02 1.829324805094e+00 0.0 
1.829324805094e+00 -2.331319017653e+02 0.0 
0.0 0.0 -1.010858075510e+02 
-7.563096094276e+01 -4.229786422431e-01 0.0 
-4.229786422431e-01 -1.613883071322e+02 0.0 
0.0 0.0 -7.070578042248e+01 
-5.997050979773e+01 2.082635524165e+01 0.0 
2.082635524165e+01 -1.485656189443e+02 0.0 
0.0 0.0 -6.216083862262e+01 
-6.652524649255e+01 3.388779641947e+00 0.0 
3.388779641947e+00 -1.277635953479e+02 0.0 
0.0 0.0 -5.788665255212e+01 
-1.287863330201e+02 1.240041167073e+01 0.0 
1.240041167073e+01 -2.918540644196e+02 0.0 
0.0 0.0 -1.257921192319e+02 
-7.716975343441e+01 -2.008528399650e+00 0.0 
-2.008528399650e+00 -1.813976469280e+02 0.0 
0.0 0.0 -7.717022010872e+01 
-1.490286195484e+02 1.520798576387e+01 0.0 
1.520798576387e+01 -3.500808826255e+02 0.0 
0.0 0.0 -1.493328506522e+02 
-1.457512322024e+02 1.574801555768e+01 0.0 
1.574801555768e+01 -3.362660585686e+02 0.0 
0.0 0.0 -1.442051872313e+02 
-4.984387479225e+01 1.748356540371e+01 0.0 
1.748356540371e+01 -8.596020853232e+01 0.0 
0.0 0.0 -4.034122499737e+01 
-7.752162993561e+01 -2.159351543189e+00 0.0 
-2.159351543189e+00 -1.817381990000e+02 0.0 
0.0 0.0 -7.737794868068e+01 
-1.358148173128e+02 8.837698875646e+00 0.0 
8.837698875646e+00 -3.395546059973e+02 0.0 
0.0 0.0 -1.422108269930e+02 
-6.520703728560e+01 9.841793742553e+00 0.0 
9.841793742553e+00 -1.208850545488e+02 0.0 
0.0 0.0 -5.542762755031e+01 
-4.311620496838e+01 1.449885918161e+01 0.0 
1.449885918161e+01 -7.388389156400e+01 0.0 
0.0 0.0 -3.470002895971e+01 
-7.886463889288e+01 3.993532036095e+00 0.0 
3.993532036095e+00 -1.572321564224e+02 0.0 
0.0 0.0 -7.042903859458e+01 
-6.254029197744e+01 2.198229397963e+01 0.0 
2.198229397963e+01 -1.525982019368e+02 0.0 
0.0 0.0 -6.414154817426e+01 
-1.334413738658e+02 1.878833370810e+00 0.0 
1.878833370810e+00 -3.097010955156e+02 0.0 
0.0 0.0 -1.325427408144e+02 
-1.171755145620e+02 8.186234665142e+00 0.0 
8.186234665142e+00 -2.556420475814e+02 0.0 
0.0 0.0 -1.114452686430e+02 
-1.442684503307e+02 -1.022412186227e+00 0.0 
-1.022412186227e+00 -3.391551329349e+02 0.0 
0.0 0.0 -1.446270749797e+02 
-3.624009430495e+01 2.486992923507e+01 0.0 
2.486992923507e+01 -4.745849024613e+01 0.0 
0.0 0.0 -2.399558329962e+01 
-5.276947539091e+01 2.031484947892e+01 0.0 
2.031484947892e+01 -1.605590466981e+02 0.0 
0.0 0.0 -6.359855662672e+01 
-1.210463218771e+02 9.315918723711e+00 0.0 
9.315918723711e+00 -2.665962751214e+02 0.0 
0.0 0.0 -1.158927790996e+02 
-7.521462305258e+01 2.533639438183e+01 0.0 
2.533639438183e+01 -7.921485166844e+01 0.0 
0.0 0.0 -4.659680076881e+01 
-6.357571697160e+01 6.603767143313e+00 0.0 
6.603767143313e+00 -1.200977874057e+02 0.0 
0.0 0.0 -5.470205131318e+01 
-1.265317205801e+02 5.950810939803e+00 0.0 
5.950810939803e+00 -3.222741701624e+02 0.0 
0.0 0.0 -1.342417672228e+02 
-1.448918157848e+01 -5.578056906048e-01 0.0 
-5.578056906048e-01 -4.225445761851e+01 0.0 
0.0 0.0 -1.662309175910e+01 
-1.380192942705e+02 9.218359453165e+00 0.0 
9.218359453165e+00 -3.146861249567e+02 0.0 
0.0 0.0 -1.354116257682e+02 
-1.054997343516e+02 4.947294932146e+00 0.0 
4.947294932146e+00 -2.248733641457e+02 0.0 
0.0 0.0 -9.871192954922e+01 
-6.820071224746e+01 -8.821806734662e+00 0.0 
-8.821806734662e+00 -1.805515099945e+02 0.0 
0.0 0.0 -7.422566667258e+01 
-1.250874289304e+02 4.779380920580e+00 0.0 
4.779380920580e+00 -3.215427083172e+02 0.0 
0.0 0.0 -1.335890411743e+02 
-8.915716904692e+01 3.863523656218e+00 0.0 
3.863523656218e+00 -1.823149152921e+02 0.0 
0.0 0.0 -8.104162530171e+01 
-9.508076284309e+01 4.112955073255e+00 0.0 
4.112955073255e+00 -1.972535123862e+02 0.0 
0.0 0.0 -8.730028256878e+01 
-1.511042149298e+02 6.503058275458e+00 0.0 
6.503058275458e+00 -3.656319851593e+02 0.0 
0.0 0.0 -1.546208600267e+02 
-5.555822147143e+01 -9.234498376400e+00 0.0 
-9.234498376400e+00 -1.334245870238e+02 0.0 
0.0 0.0 -5.629484254857e+01 
-8.329677422962e+01 1.307176590653e+01 0.0 
1.307176590653e+01 -1.766607199997e+02 0.0 
0.0 0.0 -7.758724826881e+01 
-8.731374956958e+01 6.823531060267e+00 0.0 
6.823531060267e+00 -1.776070718770e+02 0.0 
0.0 0.0 -7.907624643397e+01 
-1.108005948838e+02 6.853423514899e+00 0.0 
6.853423514899e+00 -2.360933111910e+02 0.0 
0.0 0.0 -1.036681718224e+02 
-8.839196230932e+01 7.335306224413e+00 0.0 
7.335306224413e+00 -1.775555835216e+02 0.0 
0.0 0.0 -7.938426374929e+01 
-8.039441504749e+01 6.403224062413e+00 0.0 
6.403224062413e+00 -1.578682176386e+02 0.0 
0.0 0.0 -7.107878980583e+01 
-1.032654864904e+02 1.406002670240e+01 0.0 
1.406002670240e+01 -2.675300642227e+02 0.0 
0.0 0.0 -1.108386652139e+02 
-1.257344666904e+02 1.376417787669e+01 0.0 
1.376417787669e+01 -2.803504411034e+02 0.0 
0.0 0.0 -1.214254723381e+02 
-5.229357350788e+01 2.378683740439e+01 0.0 
2.378683740439e+01 -9.453071046562e+01 0.0 
0.0 0.0 -4.517109229722e+01 
-4.897063315570e+01 1.345342179699e+01 0.0 
1.345342179699e+01 -8.629456243053e+01 0.0 
0.0 0.0 -4.017955867587e+01 
-5.571492052665e+01 1.381323455589e+01 0.0 
1.381323455589e+01 -1.058614652931e+02 0.0 
0.0 0.0 -4.807291574593e+01 
-8.008041239325e+01 1.458523406995e+01 0.0 
1.458523406995e+01 -1.644544802571e+02 0.0 
0.0 0.0 -7.296046779512e+01 
-1.226254231465e+02 1.014975781934e+01 0.0 
1.014975781934e+01 -2.669789321501e+02 0.0 
0.0 0.0 -1.164813065890e+02 
-3.032364620752e+01 2.414341148588e+01 0.0 
2.414341148588e+01 -1.222634864288e+02 0.0 
0.0 0.0 -4.638480753311e+01 
-1.219177185098e+02 4.366540593226e+00 0.0 
4.366540593226e+00 -3.126689131850e+02 0.0 
0.0 0.0 -1.299759895084e+02 
-7.560430123581e+01 1.172533520774e+00 0.0 
1.172533520774e+00 -1.601486119460e+02 0.0 
0.0 0.0 -7.032587395455e+01 
-5.664890588811e+01 2.026427518248e+01 0.0 
2.026427518248e+01 -1.621957323412e+02 0.0 
0.0 0.0 -6.525339146880e+01 
-1.175844439082e+02 2.785762157946e+00 0.0 
2.785762157946e+00 -3.027363785522e+02 0.0 
0.0 0.0 -1.256962467381e+02 
-9.540937668564e+00 4.174553481370e-01 0.0 
4.174553481370e-01 -2.845628534082e+01 0.0 
0.0 0.0 -1.099916690281e+01 
-1.130258779485e+02 5.771850883679e+00 0.0 
5.771850883679e+00 -2.448710069575e+02 0.0 
0.0 0.0 -1.069690654718e+02 
-7.101487500233e+00 -8.957521359527e-01 0.0 
-8.957521359527e-01 -2.383515130632e+01 0.0 
0.0 0.0 -8.642233094011e+00 
-1.657903058029e+01 -7.745960624085e-01 0.0 
-7.745960624085e-01 -4.302681369667e+01 0.0 
0.0 0.0 -1.748175328309e+01 
-3.137918965735e+01 2.025849116630e+01 0.0 
2.025849116630e+01 -4.595344494599e+01 0.0 
0.0 0.0 -2.223986864166e+01 
-4.879587263827e+01 -9.085774682721e+00 0.0 
-9.085774682721e+00 -1.127376910872e+02 0.0 
0.0 0.0 -4.806006911765e+01 
-1.181932852543e+02 7.604915521050e+00 0.0 
7.604915521050e+00 -2.560161666482e+02 0.0 
0.0 0.0 -1.118628355708e+02 
-4.714769868358e+01 -8.160754725580e+00 0.0 
-8.160754725580e+00 -1.076366835565e+02 0.0 
0.0 0.0 -4.603531467204e+01 
-3.853885265926e+01 2.664782590237e+01 0.0 
2.664782590237e+01 -8.969660238983e+01 0.0 
0.0 0.0 -3.738380732244e+01 
-4.442530921470e+01 -2.063797469844e+01 0.0 
-2.063797469844e+01 -1.109215364608e+02 0.0 
0.0 0.0 -4.487708730189e+01 
-3.564043696760e+01 -7.276021470514e+00 0.0 
-7.276021470514e+00 -7.146757245686e+01 0.0 
0.0 0.0 -3.164881657616e+01 
-1.299312015103e+02 6.321150079869e+00 0.0 
6.321150079869e+00 -3.302786045305e+02 0.0 
0.0 0.0 -1.376629418123e+02 
-8.459318961598e+01 7.978345135360e+00 0.0 
7.978345135360e+00 -1.679033093121e+02 0.0 
0.0 0.0 -7.534894967842e+01 
-1.572338344267e+02 -8.545974975344e-01 0.0 
-8.545974975344e-01 -3.698589711006e+02 0.0 
0.0 0.0 -1.577278416582e+02 
-5.717148465580e+01 1.023912819613e+01 0.0 
1.023912819613e+01 -1.096390314771e+02 0.0 
0.0 0.0 -5.058485436473e+01 
-4.264923197554e+01 2.532775003492e+01 0.0 
2.532775003492e+01 -1.092011908475e+02 0.0 
0.0 0.0 -4.515512684692e+01 
-6.402249904505e+01 1.840451134335e+01 0.0 
1.840451134335e+01 -1.797306831230e+02 0.0 
0.0 0.0 -7.272595465041e+01 
-5.924049500555e+01 7.521854663210e+00 0.0 
7.521854663210e+00 -1.100356003292e+02 0.0 
0.0 0.0 -5.038282860042e+01 
-1.202414629593e+02 3.291749641618e+00 0.0 
3.291749641618e+00 -3.118467428245e+02 0.0 
0.0 0.0 -1.292264617352e+02 
-1.598191337592e+02 -3.428577111184e-01 0.0 
-3.428577111184e-01 -3.770809511818e+02 0.0 
0.0 0.0 -1.606700254823e+02 
-1.152031048444e+02 9.350638906042e+00 0.0 
9.350638906042e+00 -2.465796496460e+02 0.0 
0.0 0.0 -1.081348263471e+02 
-4.039552048303e+01 2.030038374491e+01 0.0 
2.030038374491e+01 -1.421630200421e+02 0.0 
0.0 0.0 -5.436756215752e+01 
-1.309827283464e+02 7.317508094600e+00 0.0 
7.317508094600e+00 -3.307390419964e+02 0.0 
0.0 0.0 -1.381165311028e+02 
-1.178177806395e+02 -1.498810196812e+00 0.0 
-1.498810196812e+00 -2.782218122902e+02 0.0 
0.0 0.0 -1.184118778789e+02 
-8.439069215632e+01 1.317201882039e+01 0.0 
1.317201882039e+01 -1.726952805506e+02 0.0 
0.0 0.0 -7.672579181207e+01 
-1.093836428633e+02 5.927362477331e+00 0.0 
5.927362477331e+00 -2.346430321328e+02 0.0 
0.0 0.0 -1.028080024989e+02 
-1.449871230545e+02 1.562442567860e+01 0.0 
1.562442567860e+01 -3.428388744278e+02 0.0 
0.0 0.0 -1.459477992447e+02 
-6.069852433009e+01 1.876763251957e+01 0.0 
1.876763251957e+01 -1.783972253435e+02 0.0 
0.0 0.0 -7.132872490208e+01 
-3.858641022781e+01 2.735956722851e+01 0.0 
2.735956722851e+01 -8.878732421879e+01 0.0 
0.0 0.0 -3.781212033398e+01 
-9.619499241442e+01 8.183649853256e+00 0.0 
8.183649853256e+00 -1.971101231241e+02 0.0 
0.0 0.0 -8.759153466154e+01 
-1.424026802525e+02 5.331900831898e+00 0.0 
5.331900831898e+00 -3.302494064755e+02 0.0 
0.0 0.0 -1.413956260184e+02 
-8.295430650359e+01 1.604549260774e+01 0.0 
1.604549260774e+01 -1.770513307578e+02 0.0 
0.0 0.0 -7.760169117843e+01 
-8.036996034388e+01 1.409121612234e+01 0.0 
1.409121612234e+01 -2.261127678321e+02 0.0 
0.0 0.0 -9.154481845281e+01 
-8.347192134830e+01 5.652989984579e-01 0.0 
5.652989984579e-01 -1.798808912542e+02 0.0 
0.0 0.0 -7.860584378076e+01 
-3.805008556726e+01 -1.371018290497e+01 0.0 
-1.371018290497e+01 -6.887320832327e+01 0.0 
0.0 0.0 -2.954902679332e+01 
-8.657473010399e+01 4.862716112173e+00 0.0 
4.862716112173e+00 -1.762270276000e+02 0.0 
0.0 0.0 -7.844052731120e+01 
-4.483264840669e+01 2.151926217933e+01 0.0 
2.151926217933e+01 -1.443072885428e+02 0.0 
0.0 0.0 -5.634198108484e+01 
-3.213427551884e+01 2.040050178812e+01 0.0 
2.040050178812e+01 -1.329005536241e+02 0.0 
0.0 0.0 -5.032859953268e+01 
-3.507018497577e+01 -2.207910308411e+01 0.0 
-2.207910308411e+01 -1.231539639398e+02 0.0 
0.0 0.0 -4.810933990869e+01 
-1.164781363987e+02 5.628738309378e+00 0.0 
5.628738309378e+00 -2.549226762392e+02 0.0 
0.0 0.0 -1.110202437914e+02 
-9.248621920276e+01 8.734169962854e+00 0.0 
8.734169962854e+00 -1.878789317971e+02 0.0 
0.0 0.0 -8.370954529997e+01 
-5.843897291311e+01 2.050124077130e+01 0.0 
2.050124077130e+01 -1.331551370142e+02 0.0 
0.0 0.0 -5.707823297818e+01 
-1.215338503572e+02 7.386530717731e+00 0.0 
7.386530717731e+00 -2.660374791470e+02 0.0 
0.0 0.0 -1.158713988513e+02 
-1.190377464703e+02 1.048534880078e+01 0.0 
1.048534880078e+01 -2.570957752549e+02 0.0 
0.0 0.0 -1.124400565176e+02 
-8.850025105480e+01 1.197493093512e+01 0.0 
1.197493093512e+01 -1.810969063408e+02 0.0 
0.0 0.0 -8.047914721867e+01 
-1.607059276322e+02 7.732131731064e-01 0.0 
7.732131731064e-01 -3.779231679609e+02 0.0 
0.0 0.0 -1.611887286779e+02 
-8.545634287968e+01 1.182700501269e+01 0.0 
1.182700501269e+01 -2.384212190766e+02 0.0 
0.0 0.0 -9.676326858687e+01 
-9.248699736734e+01 1.098316353237e+01 0.0 
1.098316353237e+01 -1.896684810412e+02 0.0 
0.0 0.0 -8.424664352257e+01 
-6.989241072341e+01 2.047156132042e+01 0.0 
2.047156132042e+01 -1.723132644576e+02 0.0 
0.0 0.0 -7.226170255430e+01 
-8.919358984253e+01 1.350413061471e+01 0.0 
1.350413061471e+01 -2.436364143186e+02 0.0 
0.0 0.0 -9.944900124834e+01 
-3.511075992703e+01 1.656193535474e+01 0.0 
1.656193535474e+01 -1.434380228632e+02 0.0 
0.0 0.0 -5.316463483708e+01 
-8.065726328788e+01 2.121865306888e+00 0.0 
2.121865306888e+00 -1.646507964220e+02 0.0 
0.0 0.0 -7.319241791298e+01 
-6.336403012245e+01 1.591434035999e+01 0.0 
1.591434035999e+01 -1.918509149084e+02 0.0 
0.0 0.0 -7.616448350924e+01 
-4.546242410047e+01 -3.820558496439e+00 0.0 
-3.820558496439e+00 -1.663525536430e+02 0.0 
0.0 0.0 -6.314449332305e+01 
-1.133686569623e+02 7.082681556368e+00 0.0 
7.082681556368e+00 -2.451907288273e+02 0.0 
0.0 0.0 -1.071678157369e+02 
-1.056320786295e+02 3.981170524535e+00 0.0 
3.981170524535e+00 -1.017481618850e+02 0.0 
0.0 0.0 -6.248781332670e+01 
-9.210241518749e+01 6.951359497608e+00 0.0 
6.951359497608e+00 -1.869903877971e+02 0.0 
0.0 0.0 -8.332784089538e+01 
-4.608351843285e+01 1.768330282018e+01 0.0 
1.768330282018e+01 -1.585274974847e+02 0.0 
0.0 0.0 -6.098330477527e+01 
-3.874055772515e+01 2.660224293124e+01 0.0 
2.660224293124e+01 -1.077949704242e+02 0.0 
0.0 0.0 -4.356065844480e+01 
-3.232756264445e+01 1.254988880888e+01 0.0 
1.254988880888e+01 -1.408549585836e+02 0.0 
0.0 0.0 -5.122501430921e+01 
-9.869897961710e+01 7.040415452728e+00 0.0 
7.040415452728e+00 -2.064759214571e+02 0.0 
0.0 0.0 -9.115247032227e+01 
-1.940452997167e+01 -2.863771088625e+00 0.0 
-2.863771088625e+00 -4.253620815116e+01 0.0 
0.0 0.0 -1.818222143685e+01 
-5.985043842935e+01 1.177047555099e+01 0.0 
1.177047555099e+01 -1.136516577245e+02 0.0 
0.0 0.0 -5.165062884616e+01 
-9.417342868211e+01 1.130303970817e+01 0.0 
1.130303970817e+01 -2.556652986237e+02 0.0 
0.0 0.0 -1.045516181918e+02 
-9.086491602937e+01 6.208072443911e+00 0.0 
6.208072443911e+00 -1.865671626630e+02 0.0 
0.0 0.0 -8.282962360771e+01 
-8.833075965398e+01 3.276500238982e+00 0.0 
3.276500238982e+00 -1.824040576765e+02 0.0 
0.0 0.0 -8.082044519914e+01 
-2.868317223102e+01 2.047049860015e+01 0.0 
2.047049860015e+01 -1.255607954751e+02 0.0 
0.0 0.0 -4.762082586309e+01 
-4.194790168452e+01 -7.053948365594e-01 0.0 
-7.053948365594e-01 -1.655508804718e+02 0.0 
0.0 0.0 -6.184963464689e+01 
-4.477783790779e+01 -9.146856992861e+00 0.0 
-9.146856992861e+00 -1.566448733105e+02 0.0 
0.0 0.0 -6.002681336550e+01 
-5.335060653392e+01 1.527898781142e+01 0.0 
1.527898781142e+01 -9.360970488231e+01 0.0 
0.0 0.0 -4.368809342487e+01 
-1.111953184324e+02 8.243955510138e+00 0.0 
8.243955510138e+00 -2.360289644340e+02 0.0 
0.0 0.0 -1.037672848599e+02 
-6.100654174386e+01 1.595787402073e+01 0.0 
1.595787402073e+01 -1.150392872358e+02 0.0 
0.0 0.0 -5.241374869389e+01 
-6.071943738591e+01 1.458257069533e+01 0.0 
1.458257069533e+01 -1.890798099781e+02 0.0 
0.0 0.0 -7.453977420921e+01 
-5.853327313120e+01 1.765836576602e+01 0.0 
1.765836576602e+01 -1.765046516211e+02 0.0 
0.0 0.0 -7.011137742568e+01 
-2.527622912907e+01 1.544535959747e+01 0.0 
1.544535959747e+01 -1.138343257308e+02 0.0 
0.0 0.0 -4.281221832747e+01 
-7.486857207992e+01 1.801383259669e+01 0.0 
1.801383259669e+01 -1.875652553928e+02 0.0 
0.0 0.0 -7.833014824183e+01 
-3.548206771409e+01 2.815971773007e+01 0.0 
2.815971773007e+01 -6.962724545782e+01 0.0 
0.0 0.0 -2.986220855172e+01 
-1.457150842072e+02 1.008783600374e+01 0.0 
1.008783600374e+01 -3.355271260311e+02 0.0 
0.0 0.0 -1.439726630715e+02 
-1.463497555875e+02 1.203884673373e+01 0.0 
1.203884673373e+01 -3.378210303289e+02 0.0 
0.0 0.0 -1.448512357749e+02 
-8.660348106771e+01 1.433681719816e+01 0.0 
1.433681719816e+01 -1.901119865702e+02 0.0 
0.0 0.0 -8.261464029139e+01 
-3.989808002912e+01 1.972137235101e+01 0.0 
1.972137235101e+01 -1.439632703511e+02 0.0 
0.0 0.0 -5.475840511407e+01 
-3.461243849304e+01 2.605927176451e+01 0.0 
2.605927176451e+01 -1.084402003029e+02 0.0 
0.0 0.0 -4.251579163877e+01 
-9.523867218169e+01 9.708146598660e+00 0.0 
9.708146598660e+00 -2.001950640991e+02 0.0 
0.0 0.0 -8.823012088423e+01 
-3.458155821153e+01 2.233320605215e+01 0.0 
2.233320605215e+01 -1.261048006537e+02 0.0 
0.0 0.0 -4.780590765957e+01 
-3.921277552159e+01 -6.279568570038e+00 0.0 
-6.279568570038e+00 -1.549247903608e+02 0.0 
0.0 0.0 -5.784126976471e+01 
-8.367303341316e+01 1.018922236078e+01 0.0 
1.018922236078e+01 -1.716320934602e+02 0.0 
0.0 0.0 -7.619153806200e+01 
-1.356874925817e+02 3.822349284235e+00 0.0 
3.822349284235e+00 -3.120022554946e+02 0.0 
0.0 0.0 -1.339069244229e+02 
-5.132360878063e+01 1.946253844469e+01 0.0 
1.946253844469e+01 -1.602453596873e+02 0.0 
0.0 0.0 -6.307069054037e+01 
-1.044405279738e+02 1.310388530650e+01 0.0 
1.310388530650e+01 -2.678657463969e+02 0.0 
0.0 0.0 -1.112918823112e+02 
-3.753798316050e+01 2.828042245183e+01 0.0 
2.828042245183e+01 -9.151522320041e+01 0.0 
0.0 0.0 -3.687901137726e+01 
-1.635852260138e+02 8.491454141757e+00 0.0 
8.491454141757e+00 -3.899137286171e+02 0.0 
0.0 0.0 -1.656496863893e+02 
-3.928419751812e+01 2.372335407010e+01 0.0 
2.372335407010e+01 -1.284167531981e+02 0.0 
0.0 0.0 -4.991028521488e+01 
-8.739085164039e+01 1.176370615311e+01 0.0 
1.176370615311e+01 -1.841197964758e+02 0.0 
0.0 0.0 -8.105319443486e+01 
-2.907449728689e+01 1.581363582900e+01 0.0 
1.581363582900e+01 -1.351064422688e+02 0.0 
0.0 0.0 -5.033945787783e+01 
-1.011176746313e+02 4.684165111209e+00 0.0 
4.684165111209e+00 -2.766685841404e+02 0.0 
0.0 0.0 -1.129358776315e+02 
-6.623439176046e+01 1.607888959490e+01 0.0 
1.607888959490e+01 -1.931037152215e+02 0.0 
0.0 0.0 -7.740143209458e+01 
-4.418271190286e+01 -8.920710654034e+00 0.0 
-8.920710654034e+00 -1.576396157466e+02 0.0 
0.0 0.0 -6.014669829482e+01 
-8.868867631765e+01 9.495873610519e+00 0.0 
9.495873610519e+00 -1.786821433223e+02 0.0 
0.0 0.0 -7.981124589197e+01 
-1.496978468847e+02 1.482545439379e+01 0.0 
1.482545439379e+01 -3.464257089706e+02 0.0 
0.0 0.0 -1.484370667566e+02 
-5.312819043784e+01 1.598374473277e+01 0.0 
1.598374473277e+01 -1.735394488514e+02 0.0 
0.0 0.0 -6.760029178676e+01 
-9.317207291032e+01 1.169530691516e+01 0.0 
1.169530691516e+01 -2.553192553484e+02 0.0 
0.0 0.0 -1.041473984776e+02 
-3.337669869582e+01 2.712870557693e+01 0.0 
2.712870557693e+01 -9.019163475048e+01 0.0 
0.0 0.0 -3.605268749125e+01 
-1.003298018740e+02 2.118840360825e+00 0.0 
2.118840360825e+00 -2.159872513350e+02 0.0 
0.0 0.0 -9.449511596271e+01 
-1.156531662543e+02 1.787428726389e+00 0.0 
1.787428726389e+00 -3.017345489337e+02 0.0 
0.0 0.0 -1.248163145564e+02 
-4.288300287052e+01 2.576778356933e+01 0.0 
2.576778356933e+01 -9.038990630552e+01 0.0 
0.0 0.0 -3.958187275281e+01 
-9.756194432493e+01 3.325114676805e+00 0.0 
3.325114676805e+00 -2.076276416037e+02 0.0 
0.0 0.0 -9.115687577858e+01 
-1.526142207155e+02 1.672385548692e+01 0.0 
1.672385548692e+01 -3.552654052643e+02 0.0 
0.0 0.0 -1.519638877939e+02 
-1.255396510759e+02 2.738787316894e+00 0.0 
2.738787316894e+00 -3.204133387578e+02 0.0 
0.0 0.0 -1.333858969501e+02 
-1.488430536070e+02 1.392428620632e+01 0.0 
1.392428620632e+01 -3.435440197992e+02 0.0 
0.0 0.0 -1.473161220219e+02 
-9.814576110150e+01 4.175047838903e+00 0.0 
4.175047838903e+00 -2.064793036959e+02 0.0 
0.0 0.0 -9.098751943923e+01 
-1.187482555000e+02 1.190645663151e+01 0.0 
1.190645663151e+01 -2.582487995123e+02 0.0 
0.0 0.0 -1.126991165037e+02 
-3.809264273813e+01 2.610856259777e+01 0.0 
2.610856259777e+01 -6.880520891889e+01 0.0 
0.0 0.0 -3.166935549710e+01 
-8.091549957858e+01 8.713384886953e+00 0.0 
8.713384886953e+00 -1.589509677907e+02 0.0 
0.0 0.0 -7.155994021079e+01 
-9.135674084939e+01 8.278279169622e+00 0.0 
8.278279169622e+00 -1.886364010257e+02 0.0 
0.0 0.0 -8.359794256252e+01 
-9.636476154474e+01 1.014939823740e+01 0.0 
1.014939823740e+01 -1.985337359195e+02 0.0 
0.0 0.0 -8.806954923929e+01 
-7.826865372583e+01 1.753517023562e+01 0.0 
1.753517023562e+01 -1.700249660265e+02 0.0 
0.0 0.0 -7.408808592570e+01 
-1.547665924195e+02 1.733102122352e+01 0.0 
1.733102122352e+01 -3.622314057443e+02 0.0 
0.0 0.0 -1.546993994492e+02 
-9.443526208468e+01 3.490282007726e+00 0.0 
3.490282007726e+00 -1.966556748550e+02 0.0 
0.0 0.0 -8.692728108190e+01 
-8.422845633631e+01 5.987475129600e+00 0.0 
5.987475129600e+00 -1.677946737225e+02 0.0 
0.0 0.0 -7.520693901765e+01 
-5.519725487836e+01 1.712106365885e+01 0.0 
1.712106365885e+01 -1.749740280079e+02 0.0 
0.0 0.0 -6.865138486587e+01 
-4.251406760656e+01 -8.595824402593e+00 0.0 
-8.595824402593e+00 -9.231144753377e+01 0.0 
0.0 0.0 -4.004765454210e+01 
-7.668252202066e+01 7.093522963590e+00 0.0 
7.093522963590e+00 -1.485374451741e+02 0.0 
0.0 0.0 -6.716599015842e+01 
-4.678869496560e+01 2.361094158645e+01 0.0 
2.361094158645e+01 -1.096211708565e+02 0.0 
0.0 0.0 -4.652295974662e+01 
-7.606556867679e+01 3.199102724018e-01 0.0 
3.199102724018e-01 -1.623107103580e+02 0.0 
0.0 0.0 -7.111288371045e+01 
-5.017077763426e+01 -1.047603244317e+01 0.0 
-1.047603244317e+01 -1.598483610157e+02 0.0 
0.0 0.0 -6.260574159498e+01 
-4.746161682165e+01 1.857134538307e+01 0.0 
1.857134538307e+01 -1.584242401485e+02 0.0 
0.0 0.0 -6.136575709105e+01 
-1.169247167292e+02 6.799975120046e+00 0.0 
6.799975120046e+00 -2.551217385137e+02 0.0 
0.0 0.0 -1.112139365729e+02 
-4.367678066712e+01 2.607813493073e+01 0.0 
2.607813493073e+01 -1.087580877898e+02 0.0 
0.0 0.0 -4.533046053707e+01 
-8.349833369257e+01 7.532104370719e+00 0.0 
7.532104370719e+00 -1.686015425135e+02 0.0 
0.0 0.0 -7.522996286183e+01 
-9.783540668938e+01 9.584560896245e+00 0.0 
9.584560896245e+00 -2.662006347169e+02 0.0 
0.0 0.0 -1.088108124219e+02 
-8.974990662860e+01 -3.691675606847e+00 0.0 
-3.691675606847e+00 -2.432362040650e+02 0.0 
0.0 0.0 -9.949583320807e+01 
-1.582335086741e+02 1.643782334159e+01 0.0 
1.643782334159e+01 -3.732886053348e+02 0.0 
0.0 0.0 -1.590566342027e+02 
-6.916378450171e+01 8.724165606462e+00 0.0 
8.724165606462e+00 -1.305243175946e+02 0.0 
0.0 0.0 -5.950643062891e+01 
-3.832726096861e+01 4.258661231250e+00 0.0 
4.258661231250e+00 -1.604743921349e+02 0.0 
0.0 0.0 -5.924049593106e+01 
-6.762550201768e+01 -8.492130515019e+00 0.0 
-8.492130515019e+00 -1.767224811658e+02 0.0 
0.0 0.0 -7.290439495503e+01 
-4.467203236702e+01 2.047571302507e+01 0.0 
2.047571302507e+01 -7.577270863864e+01 0.0 
0.0 0.0 -3.573342230170e+01 
-4.430114740866e+01 2.200325266700e+01 0.0 
2.200325266700e+01 -9.040170495863e+01 0.0 
0.0 0.0 -4.001085571019e+01 
-1.262919884792e+02 1.119118774245e+01 0.0 
1.119118774245e+01 -2.776141767590e+02 0.0 
0.0 0.0 -1.207718495715e+02 
-9.183326561490e+01 1.344513757872e+01 0.0 
1.344513757872e+01 -1.927439943968e+02 0.0 
0.0 0.0 -8.497317800352e+01 
-6.121674953588e+01 1.134896043450e+01 0.0 
1.134896043450e+01 -1.113342004352e+02 0.0 
0.0 0.0 -5.136528499132e+01 
-7.551666234976e+01 6.638602360300e+00 0.0 
6.638602360300e+00 -1.486758753394e+02 0.0 
0.0 0.0 -6.685776130674e+01 
-1.610400729890e+02 1.246829885932e+01 0.0 
1.246829885932e+01 -3.840604891044e+02 0.0 
0.0 0.0 -1.631301686280e+02 
-1.506754456374e+02 1.278564299805e+01 0.0 
1.278564299805e+01 -3.644675502935e+02 0.0 
0.0 0.0 -1.541428987793e+02 
-1.245868430391e+02 8.971324844323e+00 0.0 
8.971324844323e+00 -2.762064086003e+02 0.0 
0.0 0.0 -1.198379754918e+02 
-1.148659821679e+02 7.903071474509e+00 0.0 
7.903071474509e+00 -2.461797153401e+02 0.0 
0.0 0.0 -1.079137092524e+02 
-8.788416717163e+01 -2.838451874266e+00 0.0 
-2.838451874266e+00 -2.378125903218e+02 0.0 
0.0 0.0 -9.730902724803e+01 
-6.384629383618e+01 1.821829809456e+01 0.0 
1.821829809456e+01 -1.285434944591e+02 0.0 
0.0 0.0 -5.731693648858e+01 
-3.568650026339e+01 1.722358487939e+01 0.0 
1.722358487939e+01 -1.416134813146e+02 0.0 
0.0 0.0 -5.278999447338e+01 
-4.253575879219e+01 1.571288171345e+01 0.0 
1.571288171345e+01 -1.565922267592e+02 0.0 
0.0 0.0 -5.933839566541e+01 
-8.750498283331e+01 1.465859367566e+01 0.0 
1.465859367566e+01 -1.847794313326e+02 0.0 
0.0 0.0 -8.128532424977e+01 
-9.737369607099e+01 6.386146077881e+00 0.0 
6.386146077881e+00 -2.683006709766e+02 0.0 
0.0 0.0 -1.093023101143e+02 
-8.297372965410e+01 -4.264903732698e+00 0.0 
-4.264903732698e+00 -2.025918194998e+02 0.0 
0.0 0.0 -8.526966474617e+01 
-1.241576455720e+02 7.668679347927e+00 0.0 
7.668679347927e+00 -2.754733526684e+02 0.0 
0.0 0.0 -1.194892994721e+02 
-3.983299246360e+01 2.512733976806e-01 0.0 
2.512733976806e-01 -1.602195900165e+02 0.0 
0.0 0.0 -5.961577474403e+01 
-7.334170927542e+01 1.903677902105e+01 0.0 
1.903677902105e+01 -1.635777667231e+02 0.0 
0.0 0.0 -7.067584279955e+01 
-8.750399022645e+01 9.126797090993e+00 0.0 
9.126797090993e+00 -1.798923543129e+02 0.0 
0.0 0.0 -7.981890336181e+01 
-6.617385816404e+01 1.979602243162e+01 0.0 
1.979602243162e+01 -1.429532497271e+02 0.0 
0.0 0.0 -6.233813236735e+01 
-1.482472929617e+02 1.304767643097e+01 0.0 
1.304767643097e+01 -3.409529451950e+02 0.0 
0.0 0.0 -1.463600714470e+02 
-1.454764827828e+02 1.076535383254e+01 0.0 
1.076535383254e+01 -3.361553055581e+02 0.0 
0.0 0.0 -1.440895365023e+02 
-1.395640805496e+02 1.149171497055e+01 0.0 
1.149171497055e+01 -3.158230030869e+02 0.0 
0.0 0.0 -1.362161250910e+02 
-9.606764306747e+01 -1.325477074135e+00 0.0 
-1.325477074135e+00 -2.558005366642e+02 0.0 
0.0 0.0 -1.051604539195e+02 
-1.198715217032e+02 5.463638674148e+00 0.0 
5.463638674148e+00 -2.649787855535e+02 0.0 
0.0 0.0 -1.150550921770e+02 
-4.088087603824e+01 2.456114394762e+01 0.0 
2.456114394762e+01 -8.929959723374e+01 0.0 
0.0 0.0 -3.865414198160e+01 
-5.016623071033e+01 1.454420302011e+01 0.0 
1.454420302011e+01 -1.719678237424e+02 0.0 
0.0 0.0 -6.624021633583e+01 
-2.811395609073e+01 1.315398648723e+01 0.0 
1.315398648723e+01 -1.275284961037e+02 0.0 
0.0 0.0 -4.663020345874e+01 
-6.517681723646e+01 1.387171734864e+01 0.0 
1.387171734864e+01 -1.232797999163e+02 0.0 
0.0 0.0 -5.613698514582e+01 
-8.061610874828e+01 1.947051085734e+00 0.0 
1.947051085734e+00 -1.644527576522e+02 0.0 
0.0 0.0 -7.312065992013e+01 
-9.653024930344e+01 2.100430382360e+00 0.0 
2.100430382360e+00 -2.055098654042e+02 0.0 
0.0 0.0 -9.021203441229e+01 
-1.538271901754e+02 8.536648653132e+00 0.0 
8.536648653132e+00 -3.734977194762e+02 0.0 
0.0 0.0 -1.577974728955e+02 
-1.244830811788e+02 1.025086646532e+01 0.0 
1.025086646532e+01 -2.772545511127e+02 0.0 
0.0 0.0 -1.201212896874e+02 
-9.463688792632e+01 5.775670932475e+00 0.0 
5.775670932475e+00 -1.959235530760e+02 0.0 
0.0 0.0 -8.676813230070e+01 
-9.899070059629e+01 8.933687001608e+00 0.0 
8.933687001608e+00 -2.086693237589e+02 0.0 
0.0 0.0 -9.189800730657e+01 
-3.138494023795e+01 1.167990979424e+01 0.0 
1.167990979424e+01 -1.423612335852e+02 0.0 
0.0 0.0 -5.325256526395e+01 
-2.831752968708e+01 -8.830639629654e+00 0.0 
-8.830639629654e+00 -4.713890748004e+01 0.0 
0.0 0.0 -2.095125222238e+01 
-6.951361846774e+01 1.846640134810e+01 0.0 
1.846640134810e+01 -1.833418818525e+02 0.0 
0.0 0.0 -7.545665009606e+01 
-8.065835685692e+01 1.827332837239e+01 0.0 
1.827332837239e+01 -1.836793968411e+02 0.0 
0.0 0.0 -7.890132610940e+01 
-7.194943954452e+01 1.957400019504e+01 0.0 
1.957400019504e+01 -1.866453908244e+02 0.0 
0.0 0.0 -7.717844911068e+01 
-3.476560863565e+01 2.883449637334e+01 0.0 
2.883449637334e+01 -5.122118726754e+01 0.0 
0.0 0.0 -2.490382513963e+01 
-8.272200743559e+01 -2.781298720799e-02 0.0 
-2.781298720799e-02 -1.789155809231e+02 0.0 
0.0 0.0 -7.809127650761e+01 
-3.921113867466e+01 -7.006370127326e+00 0.0 
-7.006370127326e+00 -8.552239237531e+01 0.0 
0.0 0.0 -3.702005931499e+01 
-4.373802211254e+01 2.414293389564e+01 0.0 
2.414293389564e+01 -1.276656642479e+02 0.0 
0.0 0.0 -5.102110590813e+01 
-1.669491406150e+02 8.818368857222e+00 0.0 
8.818368857222e+00 -3.908813281017e+02 0.0 
0.0 0.0 -1.669491406150e+02 
-1.074622939379e+02 1.284439117429e+01 0.0 
1.284439117429e+01 -2.798119558434e+02 0.0 
0.0 0.0 -1.157822749344e+02 
-8.226008534072e+01 3.644552347651e+00 0.0 
3.644552347651e+00 -1.665473365408e+02 0.0 
0.0 0.0 -7.424222656444e+01 
-2.162589552136e+01 -9.009751145048e-01 0.0 
-9.009751145048e-01 -5.896991332236e+01 0.0 
0.0 0.0 -2.377874265312e+01 
-7.912440979994e+01 1.456350267854e+01 0.0 
1.456350267854e+01 -1.698047535609e+02 0.0 
0.0 0.0 -7.427874900824e+01 
-6.629985029224e+01 1.949637672911e+01 0.0 
1.949637672911e+01 -1.821850644684e+02 0.0 
0.0 0.0 -7.414547442820e+01 
-1.001128107950e+02 9.492096052565e+00 0.0 
9.492096052565e+00 -2.075227306109e+02 0.0 
0.0 0.0 -9.189066242178e+01 
-1.504606785027e+02 1.537518608797e+01 0.0 
1.537518608797e+01 -3.491485054554e+02 0.0 
0.0 0.0 -1.494827551874e+02 
-7.931364836829e+01 5.931786341148e+00 0.0 
5.931786341148e+00 -1.578196868695e+02 0.0 
0.0 0.0 -7.074000057135e+01 
-9.597645228419e+01 1.240034273274e+01 0.0 
1.240034273274e+01 -2.010038245813e+02 0.0 
0.0 0.0 -8.869408305964e+01 
-8.102151652434e+01 -6.162407990875e+00 0.0 
-6.162407990875e+00 -2.013574597032e+02 0.0 
0.0 0.0 -8.431369286826e+01 
-1.203875531997e+02 6.647527390318e+00 0.0 
6.647527390318e+00 -2.651010941608e+02 0.0 
0.0 0.0 -1.152465942082e+02 
-9.835139764491e+01 -2.343660954371e+00 0.0 
-2.343660954371e+00 -2.618204120556e+02 0.0 
0.0 0.0 -1.076515429102e+02 
-1.519316633062e+02 1.630167254155e+01 0.0 
1.630167254155e+01 -3.521677786050e+02 0.0 
0.0 0.0 -1.508298325734e+02 
-1.455971404490e+02 1.281002268442e+01 0.0 
1.281002268442e+01 -3.410599943811e+02 0.0 
0.0 0.0 -1.455971404490e+02 
-1.423491458738e+02 9.207197358460e+00 0.0 
9.207197358460e+00 -3.334813403722e+02 0.0 
0.0 0.0 -1.423491458738e+02 
-1.431571974335e+02 1.093385730459e+01 0.0 
1.093385730459e+01 -3.353667940115e+02 0.0 
0.0 0.0 -1.431571974335e+02 
-1.026885695910e+02 8.306717120313e+00 0.0 
8.306717120313e+00 -2.174052831884e+02 0.0 
0.0 0.0 -9.562815583381e+01 
-1.220817293231e+02 8.634534710637e+00 0.0 
8.634534710637e+00 -2.661920810267e+02 0.0 
0.0 0.0 -1.160821431050e+02 
-1.283640482831e+02 1.009796517039e+01 0.0 
1.009796517039e+01 -2.874948981646e+02 0.0 
0.0 0.0 -1.243576839343e+02 
-6.726051476580e+01 1.644178232730e+01 0.0 
1.644178232730e+01 -1.428306232109e+02 0.0 
0.0 0.0 -6.262734139302e+01 
-6.377433944638e+01 1.440559369725e+01 0.0 
1.440559369725e+01 -1.278253413313e+02 0.0 
0.0 0.0 -5.707990423330e+01 
-7.891445536807e+01 -3.934748887821e+00 0.0 
-3.934748887821e+00 -1.900366132036e+02 0.0 
0.0 0.0 -8.028532057150e+01 
-1.259513314875e+02 9.802817603914e+00 0.0 
9.802817603914e+00 -2.766862557922e+02 0.0 
0.0 0.0 -1.203912761839e+02 
-1.536310442087e+02 1.716065044283e+01 0.0 
1.716065044283e+01 -3.585959603776e+02 0.0 
0.0 0.0 -1.532681013759e+02 
-1.236842447418e+02 6.419098562358e+00 0.0 
6.419098562358e+00 -2.749251966305e+02 0.0 
0.0 0.0 -1.191828324117e+02 
-9.823766696886e+01 1.309720804010e+01 0.0 
1.309720804010e+01 -2.615886657980e+02 0.0 
0.0 0.0 -1.075478998301e+02 
-1.253029714909e+02 8.351486953375e+00 0.0 
8.351486953375e+00 -2.759902760946e+02 0.0 
0.0 0.0 -1.199879742756e+02 
-1.117146838497e+02 1.591816355396e+01 0.0 
1.591816355396e+01 -2.621092784159e+02 0.0 
0.0 0.0 -1.117471886797e+02 
-7.757697515190e+01 1.704751733721e+01 0.0 
1.704751733721e+01 -1.781424225535e+02 0.0 
0.0 0.0 -7.631581931162e+01 
-6.382337606409e+01 1.013541635377e+01 0.0 
1.013541635377e+01 -1.221431570502e+02 0.0 
0.0 0.0 -5.538995993428e+01 
-3.726660618074e+01 2.740411461494e+01 0.0 
2.740411461494e+01 -1.129624592842e+02 0.0 
0.0 0.0 -4.392683293570e+01 
-1.354285959705e+02 5.644697135350e+00 0.0 
5.644697135350e+00 -3.131681646850e+02 0.0 
0.0 0.0 -1.341790281966e+02 
-6.301580463311e+01 1.847767087626e+01 0.0 
1.847767087626e+01 -1.376870123515e+02 0.0 
0.0 0.0 -5.981084509538e+01 
-1.410131032441e+02 1.488636337018e+01 0.0 
1.488636337018e+01 -3.281307796673e+02 0.0 
0.0 0.0 -1.403431648734e+02 
-7.740609291173e+01 -5.979719459330e+00 0.0 
-5.979719459330e+00 -1.889580680329e+02 0.0 
0.0 0.0 -7.950924828338e+01 
-4.961896714911e+01 -1.345136854113e+01 0.0 
-1.345136854113e+01 -1.460845104591e+02 0.0 
0.0 0.0 -5.831104328247e+01 
-1.575433467527e+02 7.444110916681e+00 0.0 
7.444110916681e+00 -3.759741331233e+02 0.0 
0.0 0.0 -1.596552439628e+02 
-4.839342869114e+01 2.363251765490e+01 0.0 
2.363251765490e+01 -1.278603729691e+02 0.0 
0.0 0.0 -5.247614049808e+01 
-1.468085636737e+02 1.370026385814e+01 0.0 
1.370026385814e+01 -3.438866485719e+02 0.0 
0.0 0.0 -1.468085636737e+02 
-1.382339705620e+02 9.655356737166e+00 0.0 
9.655356737166e+00 -3.181848244849e+02 0.0 
0.0 0.0 -1.365256385141e+02 
-9.494316213473e+01 1.198343680931e+01 0.0 
1.198343680931e+01 -2.043363872685e+02 0.0 
0.0 0.0 -8.938386482097e+01 
-2.046003872408e+01 -5.036260427124e+00 0.0 
-5.036260427124e+00 -2.511440171144e+01 0.0 
0.0 0.0 -1.361074973295e+01 
-1.492406167507e+02 1.510476510014e+01 0.0 
1.510476510014e+01 -3.495614390849e+02 0.0 
0.0 0.0 -1.492406167507e+02 
-1.562181590835e+02 1.010651962850e+01 0.0 
1.010651962850e+01 -3.727313714926e+02 0.0 
0.0 0.0 -1.582848591728e+02 
-4.302275978230e+01 -1.277786082963e+01 0.0 
-1.277786082963e+01 -1.434335466293e+02 0.0 
0.0 0.0 -5.553689192347e+01 
-1.023463200439e+02 1.155553893135e+01 0.0 
1.155553893135e+01 -2.730534811742e+02 0.0 
0.0 0.0 -1.122199403654e+02 
-1.587865422356e+02 1.566623746241e+01 0.0 
1.566623746241e+01 -3.762632428846e+02 0.0 
0.0 0.0 -1.601149355361e+02 
-7.003479335939e+00 -5.326249386860e-01 0.0 
-5.326249386860e-01 -9.527981168186e+00 0.0 
0.0 0.0 -5.529351294026e+00 
-7.031747133013e+01 1.781905867822e+01 0.0 
1.781905867822e+01 -1.582401408454e+02 0.0 
0.0 0.0 -6.816728365267e+01 
-9.893550570099e+01 1.101236769389e+01 0.0 
1.101236769389e+01 -2.121277657291e+02 0.0 
0.0 0.0 -9.291898142903e+01 
-9.084021611434e+01 1.308991003497e+01 0.0 
1.308991003497e+01 -1.969837528731e+02 0.0 
0.0 0.0 -8.594719069622e+01 
-9.133596013579e+01 1.064114252866e+01 0.0 
1.064114252866e+01 -1.919702677012e+02 0.0 
0.0 0.0 -8.459186835109e+01 
-3.936348887124e+01 2.648136519292e+01 0.0 
2.648136519292e+01 -1.102046597213e+02 0.0 
0.0 0.0 -4.406287387612e+01 
-1.521737981557e+02 1.613506009193e+01 0.0 
1.613506009193e+01 -3.564055290299e+02 0.0 
0.0 0.0 -1.521737981557e+02 
-5.827332087947e+01 1.363178399547e+01 0.0 
1.363178399547e+01 -1.878297040233e+02 0.0 
0.0 0.0 -7.343090747084e+01 
-2.460148246633e+01 5.005644004243e+00 0.0 
5.005644004243e+00 -1.198298056411e+02 0.0 
0.0 0.0 -4.539904138930e+01 
-1.590844795396e+02 9.054989527754e-01 0.0 
9.054989527754e-01 -3.775351253523e+02 0.0 
0.0 0.0 -1.605858814676e+02 
-1.217957221481e+01 -2.935190426802e+00 0.0 
-2.935190426802e+00 -2.638855978279e+01 0.0 
0.0 0.0 -1.117043959928e+01 
-7.166182512791e+01 7.528441710013e+00 0.0 
7.528441710013e+00 -1.396901974503e+02 0.0 
0.0 0.0 -6.300560677347e+01 
-3.449924534495e+01 -2.192689043942e+01 0.0 
-2.192689043942e+01 -9.845029071220e+01 0.0 
0.0 0.0 -4.065976468495e+01 
-7.494501329412e+01 4.365307761420e+00 0.0 
4.365307761420e+00 -1.473045216329e+02 0.0 
0.0 0.0 -6.627486047811e+01 
-1.619958638409e+02 1.116358084563e+01 0.0 
1.116358084563e+01 -3.863008093473e+02 0.0 
0.0 0.0 -1.640890019565e+02 
-1.555765647772e+02 1.639259075758e+01 0.0 
1.639259075758e+01 -3.643453178136e+02 0.0 
0.0 0.0 -1.555765647772e+02 
-9.501991681420e+01 7.580038866897e+00 0.0 
7.580038866897e+00 -1.974520365277e+02 0.0 
0.0 0.0 -8.734158600256e+01 
-3.292365514184e+01 -2.278475067743e+01 0.0 
-2.278475067743e+01 -6.708160306082e+01 0.0 
0.0 0.0 -3.010478946768e+01 
-2.719641783126e+01 9.658344736330e+00 0.0 
9.658344736330e+00 -1.246806115595e+02 0.0 
0.0 0.0 -4.790582478396e+01 
-4.285509732865e+01 -2.451920203686e+01 0.0 
-2.451920203686e+01 -8.793176660380e+01 0.0 
0.0 0.0 -3.761608155316e+01 
-1.371344092197e+02 1.751275710295e+00 0.0 
1.751275710295e+00 -3.342700527069e+02 0.0 
0.0 0.0 -1.410213385780e+02 
-8.073091487048e+01 2.081244522455e+00 0.0 
2.081244522455e+00 -1.647347805772e+02 0.0 
0.0 0.0 -7.323970863430e+01 
-8.775493012184e+01 5.790525739442e+00 0.0 
5.790525739442e+00 -1.768739060324e+02 0.0 
0.0 0.0 -7.898865084628e+01 
-1.589048941588e+02 1.588631151823e+01 0.0 
1.588631151823e+01 -3.721114197038e+02 0.0 
0.0 0.0 -1.589048941588e+02 
-7.984073339828e+01 1.949015773351e+00 0.0 
1.949015773351e+00 -1.643873643082e+02 0.0 
0.0 0.0 -7.286842931194e+01 
-1.444988958825e+02 9.004275003811e+00 0.0 
9.004275003811e+00 -3.341565574852e+02 0.0 
0.0 0.0 -1.431966360103e+02 
-1.157665569796e+02 1.399838290453e+01 0.0 
1.399838290453e+01 -2.744777837982e+02 0.0 
0.0 0.0 -1.166733022333e+02 
-9.220462908664e+01 1.450524987567e+00 0.0 
1.450524987567e+00 -1.959652781719e+02 0.0 
0.0 0.0 -8.605097217756e+01 
-4.766571441129e+01 1.929124482976e+01 0.0 
1.929124482976e+01 -9.296705750887e+01 0.0 
0.0 0.0 -4.178983157605e+01 
-1.030730063218e+02 1.092280787320e+01 0.0 
1.092280787320e+01 -2.732355597846e+02 0.0 
0.0 0.0 -1.124925698319e+02 
-2.768150669373e+01 1.999727542354e+01 0.0 
1.999727542354e+01 -1.114057331527e+02 0.0 
0.0 0.0 -4.144027744193e+01 
-1.617381730813e+02 1.455883242459e+01 0.0 
1.455883242459e+01 -3.787224038564e+02 0.0 
0.0 0.0 -1.617381730813e+02 
-1.443377720050e+02 1.178171373499e+01 0.0 
1.178171373499e+01 -3.381214680118e+02 0.0 
0.0 0.0 -1.443377720050e+02 
-1.428864837273e+02 1.012342070376e+01 0.0 
1.012342070376e+01 -3.347351286969e+02 0.0 
0.0 0.0 -1.428864837273e+02 
-1.010449899150e+02 -1.384787112870e+00 0.0 
-1.384787112870e+00 -2.631663773868e+02 0.0 
0.0 0.0 -1.088634101905e+02 
-7.459171598320e+01 -3.391252941549e+00 0.0 
-3.391252941549e+00 -1.775100219312e+02 0.0 
0.0 0.0 -7.523052137431e+01 
-7.543718943526e+01 1.944639785728e+01 0.0 
1.944639785728e+01 -1.777622279266e+02 0.0 
0.0 0.0 -7.555982520855e+01 
-1.033289533589e+02 -2.429886356794e+00 0.0 
-2.429886356794e+00 -2.690946453855e+02 0.0 
0.0 0.0 -1.113270796233e+02 
-1.640867384736e+02 1.260557866500e+01 0.0 
1.260557866500e+01 -3.842023897717e+02 0.0 
0.0 0.0 -1.640867384736e+02 
-3.931393387585e+01 2.411160892484e+01 0.0 
2.411160892484e+01 -1.257830550642e+02 0.0 
0.0 0.0 -4.912909668201e+01 
-4.643646645612e+01 -4.281943736459e+00 0.0 
-4.281943736459e+00 -1.698241988751e+02 0.0 
0.0 0.0 -6.447819959937e+01 
-5.132401526906e+01 -6.593926689719e+00 0.0 
-6.593926689719e+00 -1.738774452375e+02 0.0 
0.0 0.0 -6.716043815198e+01 
-9.628345058837e+01 1.539270169666e+00 0.0 
1.539270169666e+00 -2.067929763790e+02 0.0 
0.0 0.0 -9.052292809021e+01 
-1.642500278710e+02 7.230143517149e+00 0.0 
7.230143517149e+00 -3.911063975921e+02 0.0 
0.0 0.0 -1.662069276389e+02 
-4.366424159293e+01 -2.236171628125e+01 0.0 
-2.236171628125e+01 -6.218419908820e+01 0.0 
0.0 0.0 -3.028314960061e+01 
-1.660987753761e+02 1.005155051347e+01 0.0 
1.005155051347e+01 -3.888971425442e+02 0.0 
0.0 0.0 -1.660987753761e+02 
-4.936520290789e+01 -1.017391612951e+01 0.0 
-1.017391612951e+01 -1.609274171856e+02 0.0 
0.0 0.0 -6.268778602804e+01 
-1.482071274912e+02 1.450061217036e+01 0.0 
1.450061217036e+01 -3.471499641461e+02 0.0 
0.0 0.0 -1.482071274912e+02 
-1.300714041774e+02 1.225810918152e+01 0.0 
1.225810918152e+01 -2.887447519999e+02 0.0 
0.0 0.0 -1.252448468532e+02 
-4.571005351169e+00 -2.816188187893e-01 0.0 
-2.816188187893e-01 -7.061650069399e+00 0.0 
0.0 0.0 -8.288760697881e-01 
-7.264413216417e+01 1.829867332207e+01 0.0 
1.829867332207e+01 -1.730082868417e+02 0.0 
0.0 0.0 -7.329572570176e+01 
-1.248904063894e+02 7.184858889082e+00 0.0 
7.184858889082e+00 -2.762512591635e+02 0.0 
0.0 0.0 -1.199424996659e+02 
-1.507787889463e+02 1.574842721572e+01 0.0 
1.574842721572e+01 -3.531505075415e+02 0.0 
0.0 0.0 -1.507787889463e+02 
-1.038786453430e+02 1.076088931908e+01 0.0 
1.076088931908e+01 -2.183732430964e+02 0.0 
0.0 0.0 -9.627556653181e+01 
-1.191371370622e+02 1.381638445534e+01 0.0 
1.381638445534e+01 -2.868072327541e+02 0.0 
0.0 0.0 -1.213833109449e+02 
-3.596805759303e+01 2.972392453532e+01 0.0 
2.972392453532e+01 -9.552201438468e+01 0.0 
0.0 0.0 -3.883668846123e+01 
-1.475450725022e+02 8.851990641777e+00 0.0 
8.851990641777e+00 -3.586413000071e+02 0.0 
0.0 0.0 -1.514559117528e+02 
-5.444976062709e+01 -1.050319089015e+01 0.0 
-1.050319089015e+01 -1.650084845503e+02 0.0 
0.0 0.0 -6.543747355320e+01 
-5.625638881618e+01 -7.821847781352e+00 0.0 
-7.821847781352e+00 -1.757386308288e+02 0.0 
0.0 0.0 -6.919850589351e+01 
-4.594490182428e+01 -2.467257520033e+01 0.0 
-2.467257520033e+01 -4.873131936570e+01 0.0 
0.0 0.0 -2.751026599669e+01 
-1.538144827949e+02 1.635148279685e+01 0.0 
1.635148279685e+01 -3.602337931882e+02 0.0 
0.0 0.0 -1.538144827949e+02 
-3.128646010841e+01 1.877529893510e+01 0.0 
1.877529893510e+01 -1.271412605946e+02 0.0 
0.0 0.0 -4.697003270489e+01 
-1.317264116715e+02 5.224449004339e+00 0.0 
5.224449004339e+00 -3.313479733570e+02 0.0 
0.0 0.0 -1.385223155085e+02 
-8.895026596119e+01 2.851681017086e+00 0.0 
2.851681017086e+00 -1.864245839688e+02 0.0 
0.0 0.0 -8.221245497900e+01 
-5.502315646593e+01 -1.111447278607e+01 0.0 
-1.111447278607e+01 -1.380852125091e+02 0.0 
0.0 0.0 -5.753251069250e+01 
-5.098623139607e+01 -6.423990875051e+00 0.0 
-6.423990875051e+00 -1.713124075620e+02 0.0 
0.0 0.0 -6.628959168741e+01 
-1.000021930620e+02 1.149209774782e+01 0.0 
1.149209774782e+01 -2.095942483235e+02 0.0 
0.0 0.0 -9.247893241566e+01 
-1.603872464173e+02 1.538513682868e+01 0.0 
1.538513682868e+01 -3.755702416404e+02 0.0 
0.0 0.0 -1.603872464173e+02 
-7.731566989476e+01 -4.648750650406e+00 0.0 
-4.648750650406e+00 -1.847611306072e+02 0.0 
0.0 0.0 -7.822304015059e+01 
-1.134916292476e+02 1.283171078349e+00 0.0 
1.283171078349e+00 -2.923713075715e+02 0.0 
0.0 0.0 -1.213588810457e+02 
-8.962105856765e+01 1.515262441000e+01 0.0 
1.515262441000e+01 -2.036220207284e+02 0.0 
0.0 0.0 -8.757292378881e+01 
-9.810855162980e+01 2.981081498384e+00 0.0 
2.981081498384e+00 -2.681478687302e+02 0.0 
0.0 0.0 -1.094769261080e+02 
-5.244491595563e+01 -1.869195656698e+00 0.0 
-1.869195656698e+00 -1.804699641354e+02 0.0 
0.0 0.0 -6.947446402729e+01 
-1.046018499753e+02 4.261465483238e-02 0.0 
4.261465483238e-02 -2.739703912285e+02 0.0 
0.0 0.0 -1.131716723611e+02 
-8.564016458624e+01 1.702327537294e+01 0.0 
1.702327537294e+01 -1.902160142503e+02 0.0 
0.0 0.0 -8.235685365097e+01 
-1.132505448584e+02 1.521107524895e+01 0.0 
1.521107524895e+01 -2.568869701973e+02 0.0 
0.0 0.0 -1.106412545167e+02 
-1.121662043607e+02 1.070071060100e+01 0.0 
1.070071060100e+01 -2.910527457478e+02 0.0 
0.0 0.0 -1.205656850326e+02 
-8.495475050484e+01 1.624750045284e+01 0.0 
1.624750045284e+01 -1.977284735813e+02 0.0 
0.0 0.0 -8.440496722583e+01 
-7.678336475875e+01 -7.060680625665e+00 0.0 
-7.060680625665e+00 -1.939534114353e+02 0.0 
0.0 0.0 -8.082103285820e+01 
-4.434543612611e+01 2.470729093094e+01 0.0 
2.470729093094e+01 -1.263640765238e+02 0.0 
0.0 0.0 -5.081285379496e+01 
-7.352647158924e+01 -5.541164120464e+00 0.0 
-5.541164120464e+00 -1.765963969157e+02 0.0 
0.0 0.0 -7.463686055149e+01 
-1.149658459047e+02 1.581421233307e+01 0.0 
1.581421233307e+01 -2.745969250968e+02 0.0 
0.0 0.0 -1.164688313005e+02 
-8.891163842965e+01 9.811764930277e+00 0.0 
9.811764930277e+00 -2.490025795517e+02 0.0 
0.0 0.0 -1.009742653944e+02 
-1.628294720984e+02 9.925019249984e+00 0.0 
9.925019249984e+00 -3.882989501479e+02 0.0 
0.0 0.0 -1.649385266739e+02 
-1.286403668756e+02 8.109211618799e+00 0.0 
8.109211618799e+00 -2.858974597558e+02 0.0 
0.0 0.0 -1.239613479894e+02 
-4.955720942908e+01 -1.222163140812e+01 0.0 
-1.222163140812e+01 -1.216157563108e+02 0.0 
0.0 0.0 -5.095188972196e+01 
-1.651918228446e+02 1.129488156562e+01 0.0 
1.129488156562e+01 -3.867809199707e+02 0.0 
0.0 0.0 -1.651918228446e+02 
-1.532853406289e+02 9.917995114950e+00 0.0 
9.917995114950e+00 -3.720479568360e+02 0.0 
0.0 0.0 -1.571999892395e+02 
-7.724415557182e+01 1.709900699945e+01 0.0 
1.709900699945e+01 -2.016136180334e+02 0.0 
0.0 0.0 -8.325733208155e+01 
-2.893172010092e+01 -1.545365581621e+01 0.0 
-1.545365581621e+01 -3.139262315358e+01 0.0 
0.0 0.0 -1.797173308045e+01 
-1.648377261464e+02 5.954560070244e+00 0.0 
5.954560070244e+00 -3.919865917345e+02 0.0 
0.0 0.0 -1.666472953643e+02 
-1.289461880190e+02 9.318411546285e+00 0.0 
9.318411546285e+00 -2.859685741826e+02 0.0 
0.0 0.0 -1.240744286605e+02 
-4.813239398868e+01 -1.285824678133e+01 0.0 
-1.285824678133e+01 -1.465902435370e+02 0.0 
0.0 0.0 -5.801679125770e+01 
-1.674540824924e+02 7.584022549321e+00 0.0 
7.584022549321e+00 -3.920595258155e+02 0.0 
0.0 0.0 -1.674540824924e+02 
-1.096378952644e+02 -9.406298676132e-02 0.0 
-9.406298676132e-02 -2.816794642112e+02 0.0 
0.0 0.0 -1.169952078427e+02 
-6.788692244501e+01 1.255234921340e+01 0.0 
1.255234921340e+01 -1.350343022176e+02 0.0 
0.0 0.0 -6.047636739879e+01 
-9.056343669587e+01 4.595818931205e+00 0.0 
4.595818931205e+00 -1.858660713199e+02 0.0 
0.0 0.0 -8.252885240473e+01 
-8.416605913869e+01 1.195708789374e+01 0.0 
1.195708789374e+01 -2.378959267620e+02 0.0 
0.0 0.0 -9.621859577022e+01 
-9.275274045329e+01 -2.788427896600e+00 0.0 
-2.788427896600e+00 -2.446974319720e+02 0.0 
0.0 0.0 -1.008350517276e+02 
-1.022042660876e+02 5.035949557643e+00 0.0 
5.035949557643e+00 -2.772103918933e+02 0.0 
0.0 0.0 -1.134243973943e+02 
-1.072788947925e+02 7.102740387310e+00 0.0 
7.102740387310e+00 -2.260688687196e+02 0.0 
0.0 0.0 -9.960432905362e+01 
-7.586923917148e+01 9.511009299000e+00 0.0 
9.511009299000e+00 -1.513554439248e+02 0.0 
0.0 0.0 -6.776740492888e+01 
-1.173543974711e+02 1.167278470707e+01 0.0 
1.167278470707e+01 -2.981806543540e+02 0.0 
0.0 0.0 -1.242605155475e+02 
-8.987131511865e+01 4.817955788188e-01 0.0 
4.817955788188e-01 -1.956511137257e+02 0.0 
0.0 0.0 -8.525672865330e+01 
-7.908333611847e+01 -5.252345757073e+00 0.0 
-5.252345757073e+00 -1.953173556568e+02 0.0 
0.0 0.0 -8.192020753258e+01 
-1.069280820081e+02 9.481824293885e+00 0.0 
9.481824293885e+00 -2.837099093180e+02 0.0 
0.0 0.0 -1.167913973978e+02 
-5.953640021189e+01 -1.029792285517e+01 0.0 
-1.029792285517e+01 -1.672090113608e+02 0.0 
0.0 0.0 -6.762362347180e+01 
-1.095594415635e+02 -2.978789118167e+00 0.0 
-2.978789118167e+00 -2.678295418440e+02 0.0 
0.0 0.0 -1.128166950222e+02 
-6.171381509450e+00 -1.016169815041e+00 0.0 
-1.016169815041e+00 -8.816286880605e+00 0.0 
0.0 0.0 -4.096300517017e+00 
-4.966829751781e+01 2.444226867991e+01 0.0 
2.444226867991e+01 -1.283186720289e+02 0.0 
0.0 0.0 -5.299609086402e+01 
-5.502995396425e+01 -1.073539145713e+01 0.0 
-1.073539145713e+01 -1.632178175725e+02 0.0 
0.0 0.0 -6.507433146101e+01 
-8.519954072122e+01 -5.295218424438e+00 0.0 
-5.295218424438e+00 -2.090279576769e+02 0.0 
0.0 0.0 -8.786824951944e+01 
-8.251989771183e+01 1.683754893282e+01 0.0 
1.683754893282e+01 -2.063057035503e+02 0.0 
0.0 0.0 -8.624768037864e+01 
-1.072439005702e+02 -1.134789008726e+00 0.0 
-1.134789008726e+00 -2.804445177074e+02 0.0 
0.0 0.0 -1.159065254833e+02 
-9.361277222848e+01 2.700626182562e+00 0.0 
2.700626182562e+00 -1.985311207137e+02 0.0 
0.0 0.0 -8.724316788264e+01 
-5.377303629072e+01 -1.251029102388e+01 0.0 
-1.251029102388e+01 -1.490572387130e+02 0.0 
0.0 0.0 -6.044908250112e+01 
-1.678969837538e+02 6.388092459256e+00 0.0 
6.388092459256e+00 -3.930929620922e+02 0.0 
0.0 0.0 -1.678969837538e+02 
-9.928885896245e+01 1.362475168594e+01 0.0 
1.362475168594e+01 -2.127900681181e+02 0.0 
0.0 0.0 -9.322367812418e+01 
-8.930840631071e+01 -4.506804034155e+00 0.0 
-4.506804034155e+00 -2.167645943228e+02 0.0 
0.0 0.0 -9.142190019007e+01 
-9.493712141275e+01 1.464938044259e+01 0.0 
1.464938044259e+01 -2.048670923713e+02 0.0 
0.0 0.0 -8.954126413522e+01 
-8.686130009316e+01 -3.384661487069e+00 0.0 
-3.384661487069e+00 -2.101398275215e+02 0.0 
0.0 0.0 -8.870033828440e+01 
-1.166731417308e+01 -7.043642087792e-01 0.0 
-7.043642087792e-01 -9.601720718855e+00 0.0 
0.0 0.0 -6.954956446831e+00 
-9.578765994024e+01 6.509198155872e+00 0.0 
6.509198155872e+00 -1.965733968473e+02 0.0 
0.0 0.0 -8.730831703627e+01 
-7.283154592285e+01 -2.335874502356e+00 0.0 
-2.335874502356e+00 -1.706402462743e+02 0.0 
0.0 0.0 -7.264153765914e+01 
-7.587473017088e-01 -1.100478286618e-01 0.0 
-1.100478286618e-01 -9.070876766239e+00 0.0 
0.0 0.0 -2.548350891429e+00 
-8.528535721121e+01 -4.312153336611e+00 0.0 
-4.312153336611e+00 -2.046720124021e+02 0.0 
0.0 0.0 -8.658721088399e+01 
-1.164358314642e+02 -4.034841280252e-02 0.0 
-4.034841280252e-02 -2.991132924304e+02 0.0 
0.0 0.0 -1.242647371684e+02 
-1.197089371235e+02 1.098617465556e+00 0.0 
1.098617465556e+00 -2.711748822392e+02 0.0 
0.0 0.0 -1.168651458088e+02 
-9.318338096771e+01 4.199594429710e+00 0.0 
4.199594429710e+00 -2.599202697335e+02 0.0 
0.0 0.0 -1.055310952104e+02 
-9.648343661894e+01 2.697740024344e+00 0.0 
2.697740024344e+00 -2.673914191475e+02 0.0 
0.0 0.0 -1.087624567299e+02 
-8.009373814980e+01 4.670314286606e+00 0.0 
4.670314286606e+00 -1.584253485077e+02 0.0 
0.0 0.0 -7.115572599724e+01 
-7.195756176183e+01 1.096701765097e+00 0.0 
1.096701765097e+00 -1.461091022775e+02 0.0 
0.0 0.0 -6.501999921181e+01 
-1.371515746345e+02 7.533254117099e+00 0.0 
7.533254117099e+00 -3.155997705526e+02 0.0 
0.0 0.0 -1.354254035561e+02 
-9.039146740853e+01 1.579632399512e+01 0.0 
1.579632399512e+01 -1.972973784678e+02 0.0 
0.0 0.0 -8.590665376291e+01 
-2.278459385296e+00 -1.638660171761e-01 0.0 
-1.638660171761e-01 -7.050745986348e+00 0.0 
0.0 0.0 -1.674728711333e+00 
-3.248062666500e+01 -4.413130709881e+00 0.0 
-4.413130709881e+00 -7.095888605131e+01 0.0 
0.0 0.0 -3.063185381489e+01 
-2.482211815455e+01 -8.866794927950e+00 0.0 
-8.866794927950e+00 -2.768798484820e+01 0.0 
0.0 0.0 -1.567462525957e+01 
-5.426299878692e+01 -8.521266258012e+00 0.0 
-8.521266258012e+00 -1.284901214163e+02 0.0 
0.0 0.0 -5.442593606095e+01 
-1.294410791524e+02 1.453037523349e+01 0.0 
1.453037523349e+01 -2.922679003743e+02 0.0 
0.0 0.0 -1.261126938580e+02 
-1.204832871325e+02 2.797133650425e+00 0.0 
2.797133650425e+00 -2.717953610492e+02 0.0 
0.0 0.0 -1.172835944545e+02 
-1.311015410906e+02 -4.486238648637e-01 0.0 
-4.486238648637e-01 -3.220796303633e+02 0.0 
0.0 0.0 -1.355543514362e+02 
-5.971251208331e+01 -5.676692318460e+00 0.0 
-5.676692318460e+00 -1.415634038816e+02 0.0 
0.0 0.0 -5.998277478948e+01 
-1.112223143607e+02 -1.306193927014e+00 0.0 
-1.306193927014e+00 -2.689191435532e+02 0.0 
0.0 0.0 -1.136424373742e+02 
-1.355498890655e+02 3.508885701733e+00 0.0 
3.508885701733e+00 -3.388780998664e+02 0.0 
0.0 0.0 -1.419283966796e+02 
-2.607669938306e+01 4.981566382603e+00 0.0 
4.981566382603e+00 -1.283039622284e+02 0.0 
0.0 0.0 -4.747987521263e+01 
-7.293753803999e+01 3.201376854025e-02 0.0 
3.201376854025e-02 -1.707465058815e+02 0.0 
0.0 0.0 -7.270521317644e+01 
-6.019862766354e+01 -1.635390564277e+00 0.0 
-1.635390564277e+00 -1.401871738841e+02 0.0 
0.0 0.0 -5.971574046430e+01 
-1.650464206412e+02 4.729001814936e+00 0.0 
4.729001814936e+00 -3.922189361637e+02 0.0 
0.0 0.0 -1.667796070415e+02 
-1.681117619925e+02 5.286778907499e+00 0.0 
5.286778907499e+00 -3.935941113159e+02 0.0 
0.0 0.0 -1.681117619925e+02 
-8.086555586386e+01 -1.991575982625e-01 0.0 
-1.991575982625e-01 -1.899105571070e+02 0.0 
0.0 0.0 -8.083283389126e+01 
-9.083026775522e+01 -2.570430393327e+00 0.0 
-2.570430393327e+00 -2.178328225264e+02 0.0 
0.0 0.0 -9.219892708448e+01 
-9.469664353665e+01 -3.691797642747e+00 0.0 
-3.691797642747e+00 -2.502428446719e+02 0.0 
0.0 0.0 -1.030818464626e+02 
-1.404273696404e+02 4.955881710692e+00 0.0 
4.955881710692e+00 -3.486974745564e+02 0.0 
0.0 0.0 -1.463374532590e+02 
-3.704721082597e+01 -6.508589573972e+00 0.0 
-6.508589573972e+00 -7.880616290201e+01 0.0 
0.0 0.0 -3.435601211839e+01 
-1.306149681092e+02 2.168032283665e+00 0.0 
2.168032283665e+00 -3.285302171605e+02 0.0 
0.0 0.0 -1.373435555809e+02 
-1.440258057884e+01 -8.678697657074e-01 0.0 
-8.678697657074e-01 -4.271880483066e+01 0.0 
0.0 0.0 -1.673641562285e+01 
-8.257587555151e+01 -3.057296674045e+00 0.0 
-3.057296674045e+00 -1.977770227554e+02 0.0 
0.0 0.0 -8.370586949207e+01 
-9.088470364757e+01 -3.488545014102e+00 0.0 
-3.488545014102e+00 -2.224895954321e+02 0.0 
0.0 0.0 -9.361228972389e+01 
-6.725602247101e+00 -2.947073075274e-01 0.0 
-2.947073075274e-01 -2.568117160273e+01 0.0 
0.0 0.0 -9.467853635213e+00 
-7.713041003166e+01 -1.671705373173e+00 0.0 
-1.671705373173e+00 -1.801059700287e+02 0.0 
0.0 0.0 -7.677091401811e+01 
-1.267566190558e+02 6.327363935014e+00 0.0 
6.327363935014e+00 -2.846574691077e+02 0.0 
0.0 0.0 -1.230242264491e+02 
-1.810094680854e+00 -1.700740401757e-01 0.0 
-1.700740401757e-01 -7.563910730327e+00 0.0 
0.0 0.0 -1.632838270682e+00 
-7.294321480142e+01 1.377816880045e+00 0.0 
1.377816880045e+00 -1.466518142631e+02 0.0 
0.0 0.0 -6.547850871936e+01 
-7.338841628646e+01 1.785189567820e+00 0.0 
1.785189567820e+00 -1.474172900735e+02 0.0 
0.0 0.0 -6.584171190798e+01 
-1.066130297091e+02 6.983272865814e+00 0.0 
6.983272865814e+00 -2.857528923097e+02 0.0 
0.0 0.0 -1.173097766056e+02 
-5.990277107495e+01 5.347743478466e-01 0.0 
5.347743478466e-01 -1.399461356224e+02 0.0 
0.0 0.0 -5.955467200920e+01 
-5.296141789133e+01 -1.222055569941e+01 0.0 
-1.222055569941e+01 -1.508986566409e+02 0.0 
0.0 0.0 -6.075802235968e+01 
-3.547109210293e+01 2.768136329689e+01 0.0 
2.768136329689e+01 -8.924767909098e+01 0.0 
0.0 0.0 -3.701563135817e+01 
-1.449517128775e+02 1.349532915545e-01 0.0 
1.349532915545e-01 -3.484719003543e+02 0.0 
0.0 0.0 -1.476270839696e+02 
-1.466539657356e+02 1.539041709512e+01 0.0 
1.539041709512e+01 -3.421630692771e+02 0.0 
0.0 0.0 -1.462451105038e+02 
-1.166740654562e+02 3.679446856860e+00 0.0 
3.679446856860e+00 -2.593591315083e+02 0.0 
0.0 0.0 -1.124099590894e+02 
-4.704212383468e+01 2.334336832433e+01 0.0 
2.334336832433e+01 -9.342982078637e+01 0.0 
0.0 0.0 -4.174158338632e+01 
-2.686340384388e+01 -5.458251563166e+00 0.0 
-5.458251563166e+00 -4.931910051784e+01 0.0 
0.0 0.0 -2.197768541909e+01 
-7.710317532901e+01 9.635838511182e+00 0.0 
9.635838511182e+00 -1.499052702674e+02 0.0 
0.0 0.0 -6.770253367893e+01 
-7.111264054071e+01 4.403298707503e-01 0.0 
4.403298707503e-01 -1.464126915735e+02 0.0 
0.0 0.0 -6.485759963426e+01 
-7.042615152931e+01 5.245160368133e-01 0.0 
5.245160368133e-01 -1.461804341940e+02 0.0 
0.0 0.0 -6.458197571698e+01 
-5.089090038659e-01 -1.966223528990e-01 0.0 
-1.966223528990e-01 -9.246239377565e+00 0.0 
0.0 0.0 -2.540767290006e+00 
-7.041434918202e+00 -3.278145659769e-01 0.0 
-3.278145659769e-01 -2.554757887392e+01 0.0 
0.0 0.0 -9.663434177047e+00 
-1.459938543272e+01 -1.100895086201e-01 0.0 
-1.100895086201e-01 -4.212490366576e+01 0.0 
0.0 0.0 -1.661728672954e+01 
-4.730091155587e+01 -6.603261819699e+00 0.0 
-6.603261819699e+00 -1.074358276452e+02 0.0 
0.0 0.0 -4.602102176033e+01 
-6.646218966416e+00 -2.071006855918e-01 0.0 
-2.071006855918e-01 -2.561427585072e+01 0.0 
0.0 0.0 -8.685192753099e+00 
-8.499428291546e+01 -1.580458998606e+00 0.0 
-1.580458998606e+00 -2.002711801910e+02 0.0 
0.0 0.0 -8.517963893195e+01 
-4.442161662500e+01 -1.244298870228e+01 0.0 
-1.244298870228e+01 -6.036669883834e+01 0.0 
0.0 0.0 -3.200483000416e+01 
-5.481116065762e+01 -6.941852076647e+00 0.0 
-6.941852076647e+00 -1.279482844602e+02 0.0 
0.0 0.0 -5.442783353535e+01 
-9.667654190332e+01 2.839748295895e-01 0.0 
2.839748295895e-01 -2.126774721530e+02 0.0 
0.0 0.0 -9.240620421689e+01 
-7.186731484556e+01 9.474919555813e-01 0.0 
9.474919555813e-01 -1.463993887685e+02 0.0 
0.0 0.0 -6.508001108421e+01 
-1.332829785096e+02 1.421821073194e+01 0.0 
1.421821073194e+01 -3.000802014136e+02 0.0 
0.0 0.0 -1.296089539770e+02 
-1.122513136897e+02 -1.286127318695e+00 0.0 
-1.286127318695e+00 -2.879362803794e+02 0.0 
0.0 0.0 -1.196562782207e+02 
-8.928763896037e+01 1.936339321787e-02 0.0 
1.936339321787e-02 -1.949710312129e+02 0.0 
0.0 0.0 -8.487760105197e+01 
-6.408799786139e+01 -1.135121952014e+00 0.0 
-1.135121952014e+00 -1.496709839990e+02 0.0 
0.0 0.0 -6.372769455811e+01 
-1.356518435301e+01 -3.648149145934e-01 0.0 
-3.648149145934e-01 -4.249367755187e+01 0.0 
0.0 0.0 -1.641765857146e+01 
-1.399048910953e+02 3.966812702729e+00 0.0 
3.966812702729e+00 -3.277780792223e+02 0.0 
0.0 0.0 -1.399048910953e+02 
-1.416717466805e+02 4.311157667004e+00 0.0 
4.311157667004e+00 -3.286260980131e+02 0.0 
0.0 0.0 -1.406893534081e+02 
-8.779506547568e+01 7.161132552218e-01 0.0 
7.161132552218e-01 -1.857025735624e+02 0.0 
0.0 0.0 -8.164929171143e+01 
-7.109329504089e+01 6.079421370321e-01 0.0 
6.079421370321e-01 -1.460161428862e+02 0.0 
0.0 0.0 -6.473283137813e+01 
-6.501112329246e+01 -3.756562275824e-01 0.0 
-3.756562275824e-01 -1.518305240388e+02 0.0 
0.0 0.0 -6.465249419939e+01 
-1.413143812323e+02 3.127371220914e+00 0.0 
3.127371220914e+00 -3.280104367414e+02 0.0 
0.0 0.0 -1.403974453921e+02 
-5.183120016674e+01 -5.559094227651e+00 0.0 
-5.559094227651e+00 -1.207023216718e+02 0.0 
0.0 0.0 -5.136005655157e+01 
-7.253176891857e+01 1.351798142842e+00 0.0 
1.351798142842e+00 -1.466611759058e+02 0.0 
0.0 0.0 -6.535788344731e+01 
-7.193784587989e+01 7.767153731178e-01 0.0 
7.767153731178e-01 -1.460639603371e+02 0.0 
0.0 0.0 -6.500054186510e+01 
-7.113907343117e+01 4.944994898740e+00 0.0 
4.944994898740e+00 -1.380370285406e+02 0.0 
0.0 0.0 -6.235283059153e+01 
-1.420725162317e+02 8.438346958112e+00 0.0 
8.438346958112e+00 -3.328358712073e+02 0.0 
0.0 0.0 -1.420725162317e+02 
-1.422115609181e+02 3.587565194744e+00 0.0 
3.587565194744e+00 -3.287654983818e+02 0.0 
0.0 0.0 -1.408931177900e+02 
-6.726894030474e+00 -2.595456994735e-01 0.0 
-2.595456994735e-01 -2.542375981297e+01 0.0 
0.0 0.0 -8.676972331265e+00 
-4.866911733091e-01 -1.723116613755e-01 0.0 
-1.723116613755e-01 -9.289571398519e+00 0.0 
0.0 0.0 -2.425968765411e+00 
-2.872608730470e+01 -4.956186054367e+00 0.0 
-4.956186054367e+00 -5.868579970107e+01 0.0 
0.0 0.0 -2.581099630630e+01 
-8.887262449351e+01 -5.283149967281e+00 0.0 
-5.283149967281e+00 -2.212540754251e+02 0.0 
0.0 0.0 -9.263800997560e+01 
-1.531649327892e+02 -9.718692474480e-01 0.0 
-9.718692474480e-01 -3.595001638529e+02 0.0 
0.0 0.0 -1.533995289926e+02 
-8.172446674634e+01 -2.240612985038e+01 0.0 
-2.240612985038e+01 -7.752136149544e+01 0.0 
0.0 0.0 -4.804979030694e+01 
-1.133591142558e+02 1.177782029959e+00 0.0 
1.177782029959e+00 -2.552292795992e+02 0.0 
0.0 0.0 -1.101765181565e+02 
-2.754461689093e+01 -9.605969916561e+00 0.0 
-9.605969916561e+00 -1.065897764644e+01 0.0 
0.0 0.0 -1.204202840194e+01 
-1.057020498508e+02 3.449612426046e+00 0.0 
3.449612426046e+00 -2.849819385762e+02 0.0 
0.0 0.0 -1.168051965281e+02 
-1.304105720010e+01 -4.459066690375e+00 0.0 
-4.459066690375e+00 -1.208899138183e+01 0.0 
0.0 0.0 -6.523962216012e+00 
-3.939374726633e+01 -2.318371195829e+01 0.0 
-2.318371195829e+01 -3.565331154756e+01 0.0 
0.0 0.0 -2.250137801819e+01 
-1.011917153095e+02 1.579731800941e+00 0.0 
1.579731800941e+00 -2.751902363670e+02 0.0 
0.0 0.0 -1.125145855030e+02 
-1.484647785147e+02 -8.013395181608e-01 0.0 
-8.013395181608e-01 -3.502329283237e+02 0.0 
0.0 0.0 -1.492093120515e+02 
-9.644904851213e+01 8.168379186152e-01 0.0 
8.168379186152e-01 -2.114899968702e+02 0.0 
0.0 0.0 -9.198171361470e+01 
-8.092675041901e+01 1.142942892795e+01 0.0 
1.142942892795e+01 -1.610001420875e+02 0.0 
0.0 0.0 -7.217806775196e+01 
-6.353608149202e+00 -1.311854751699e-01 0.0 
-1.311854751699e-01 -2.567299331056e+01 0.0 
0.0 0.0 -9.322810713717e+00 
-1.153048244333e+02 -8.219446071553e-01 0.0 
-8.219446071553e-01 -2.765659768386e+02 0.0 
0.0 0.0 -1.171612403816e+02 
-1.391073065719e+02 1.314174371787e+00 0.0 
1.314174371787e+00 -3.259170486678e+02 0.0 
0.0 0.0 -1.391073065719e+02 
-1.408321526684e+02 2.016719551892e+00 0.0 
2.016719551892e+00 -3.273054439287e+02 0.0 
0.0 0.0 -1.400412789791e+02 
-7.130179701196e+01 6.803319975340e-01 0.0 
6.803319975340e-01 -1.461786364645e+02 0.0 
0.0 0.0 -6.484413004294e+01 
-1.104797627514e+02 5.232152943762e+00 0.0 
5.232152943762e+00 -2.942641264686e+02 0.0 
0.0 0.0 -1.210231667660e+02 
-1.399036391132e+02 3.181396998206e+00 0.0 
3.181396998206e+00 -3.277751579309e+02 0.0 
0.0 0.0 -1.399036391132e+02 
-1.185344310647e+02 1.555575282137e+01 0.0 
1.555575282137e+01 -2.869132108708e+02 0.0 
0.0 0.0 -1.212342925806e+02 
-1.286312377538e+01 -3.813928354423e-01 0.0 
-3.813928354423e-01 -4.141579238642e+01 0.0 
0.0 0.0 -1.588367484854e+01 
-6.414196587224e+00 -1.670014339798e-01 0.0 
-1.670014339798e-01 -2.538212204083e+01 0.0 
0.0 0.0 -8.530122181880e+00 
-5.865469908612e+00 1.197102917913e-01 0.0 
1.197102917913e-01 -2.513512736865e+01 0.0 
0.0 0.0 -8.900179183178e+00 
-7.274687341085e+01 -1.091332236372e+00 0.0 
-1.091332236372e+00 -1.699017496003e+02 0.0 
0.0 0.0 -7.239458690334e+01 
-1.666365093377e+02 6.097806608310e-01 0.0 
6.097806608310e-01 -3.910017559192e+02 0.0 
0.0 0.0 -1.668914795771e+02 
-1.325125157505e+02 1.015380162890e+00 0.0 
1.015380162890e+00 -3.055596801776e+02 0.0 
0.0 0.0 -1.310216587784e+02 
-1.102076386543e-01 2.339417249918e-05 0.0 
2.339417249918e-05 -9.235557656462e+00 0.0 
0.0 0.0 -2.237585001373e+00 
-8.539472539587e+01 4.581613270648e-01 0.0 
4.581613270648e-01 -2.004469984046e+02 0.0 
0.0 0.0 -8.535251714015e+01 
-1.675089760739e+02 1.105493160447e-01 0.0 
1.105493160447e-01 -3.921876108391e+02 0.0 
0.0 0.0 -1.675089760739e+02 
-1.663091128028e+02 7.879688575969e-02 0.0 
7.879688575969e-02 -3.907894097071e+02 0.0 
0.0 0.0 -1.667295567530e+02 
-1.653424822718e+02 3.794090261802e+00 0.0 
3.794090261802e+00 -3.922409284462e+02 0.0 
0.0 0.0 -1.668750232154e+02 
-1.055821349114e+02 -6.786509324761e-01 0.0 
-6.786509324761e-01 -2.356186304764e+02 0.0 
0.0 0.0 -1.019602296164e+02 
-1.174262846075e+02 9.192289088230e-01 0.0 
9.192289088230e-01 -2.655152071054e+02 0.0 
0.0 0.0 -1.144824475139e+02 
-1.668002806096e+02 2.570613505582e-01 0.0 
2.570613505582e-01 -3.905339880890e+02 0.0 
0.0 0.0 -1.668002806096e+02 
-1.673000398167e+02 4.947905587974e-01 0.0 
4.947905587974e-01 -3.917000929057e+02 0.0 
0.0 0.0 -1.673000398167e+02 
-1.134725566426e+02 -4.667826993154e-01 0.0 
-4.667826993154e-01 -2.553607462125e+02 0.0 
0.0 0.0 -1.102499908565e+02 
-9.769928102241e-01 -3.053674042495e-01 0.0 
-3.053674042495e-01 -6.664096605014e+00 0.0 
0.0 0.0 -1.188175883661e+00 
-6.951454463347e+01 1.934186259004e-01 0.0 
1.934186259004e-01 -1.452292886945e+02 0.0 
0.0 0.0 -6.402314999839e+01 
-7.086889072501e+01 4.081371638667e-01 0.0 
4.081371638667e-01 -1.463237888581e+02 0.0 
0.0 0.0 -6.475780387495e+01 
-2.870270128255e-01 -8.434156858222e-02 0.0 
-8.434156858222e-02 -9.255962203587e+00 0.0 
0.0 0.0 -2.344320487067e+00 
-1.680804640057e+02 1.347224481539e+00 0.0 
1.347224481539e+00 -3.935210826800e+02 0.0 
0.0 0.0 -1.680804640057e+02 
-1.651979741088e+02 2.781178252062e+00 0.0 
2.781178252062e+00 -3.918286826833e+02 0.0 
0.0 0.0 -1.667079970377e+02 
-1.676928516389e+02 2.544815428626e+00 0.0 
2.544815428626e+00 -3.926166538240e+02 0.0 
0.0 0.0 -1.676928516389e+02 
-1.181533725985e+00 -5.687030897706e-02 0.0 
-5.687030897706e-02 -7.734019015258e+00 0.0 
0.0 0.0 -1.480845248009e+00 
-1.409950220433e+00 -1.772077319178e-01 0.0 
-1.772077319178e-01 -7.820735071515e+00 0.0 
0.0 0.0 -1.555466625129e+00 
-1.680485755420e+02 4.264378838879e+00 0.0 
4.264378838879e+00 -3.934466762648e+02 0.0 
0.0 0.0 -1.680485755420e+02 
-1.680022126752e+02 3.414933540261e+00 0.0 
3.414933540261e+00 -3.933384962421e+02 0.0 
0.0 0.0 -1.680022126752e+02 
-1.014600851339e+02 9.631759251256e-01 0.0 
9.631759251256e-01 -2.256522409823e+02 0.0 
0.0 0.0 -9.773369783487e+01 
-6.866922908177e+01 -7.902481199389e-02 0.0 
-7.902481199389e-02 -1.447887670921e+02 0.0 
0.0 0.0 -6.363739885215e+01 
-1.096982969031e+02 9.565721677398e-01 0.0 
9.565721677398e-01 -2.455704612484e+02 0.0 
0.0 0.0 -1.061806274455e+02 
-8.545652304881e+01 9.148039251078e-01 0.0 
9.148039251078e-01 -1.861354196608e+02 0.0 
0.0 0.0 -8.107758281288e+01 
-6.869053988820e+01 -4.012985639359e-02 0.0 
-4.012985639359e-02 -1.448714325774e+02 0.0 
0.0 0.0 -6.366859173968e+01 
-2.692324674124e+00 -2.249281686745e-01 0.0 
-2.249281686745e-01 -7.179447707284e+00 0.0 
0.0 0.0 -1.812166078680e+00 
-2.943526219905e+00 2.578002396635e-01 0.0 
2.578002396635e-01 -7.855735478629e+00 0.0 
0.0 0.0 -1.925249097160e+00 
-3.005855246153e+00 6.813747897855e-02 0.0 
6.813747897855e-02 -7.674018942919e+00 0.0 
0.0 0.0 -2.002080287497e+00 
-3.654879928628e+00 -1.683630521727e-01 0.0 
-1.683630521727e-01 -7.617881981177e+00 0.0 
0.0 0.0 -1.303925304671e+00 
-8.956510442166e+01 -1.195855630200e+00 0.0 
-1.195855630200e+00 -2.107057169356e+02 0.0 
0.0 0.0 -8.968124640718e+01 
-8.122022524558e+01 -1.107223921725e+00 0.0 
-1.107223921725e+00 -1.902038375890e+02 0.0 
0.0 0.0 -8.102721885038e+01 
-2.625817589162e+00 -2.181462915746e-01 0.0 
-2.181462915746e-01 -9.359798027299e+00 0.0 
0.0 0.0 -4.172712155874e+00 
-1.147390723848e+02 -1.048915874037e+00 0.0 
-1.048915874037e+00 -2.703208432916e+02 0.0 
0.0 0.0 -1.151179747029e+02 
-3.971194194747e+00 -5.126230037467e-01 0.0 
-5.126230037467e-01 -9.415435477521e+00 0.0 
0.0 0.0 -4.587828074453e+00 
-1.409079184575e+02 6.663667911002e+00 0.0 
6.663667911002e+00 -3.301184764007e+02 0.0 
0.0 0.0 -1.409079184575e+02 
-1.395219126558e+02 2.646008051288e+00 0.0 
2.646008051288e+00 -3.268844628634e+02 0.0 
0.0 0.0 -1.395219126558e+02 
-1.400036558807e+02 4.569001863112e+00 0.0 
4.569001863112e+00 -3.280085303883e+02 0.0 
0.0 0.0 -1.400036558807e+02 
-2.721899638973e+01 -1.246566569476e+00 0.0 
-1.246566569476e+00 -6.888710044776e+01 0.0 
0.0 0.0 -2.843182905125e+01 
-5.537919668954e+01 -1.145193762620e+00 0.0 
-1.145193762620e+00 -1.294289680798e+02 0.0 
0.0 0.0 -5.504244943081e+01 
-1.392012908439e+02 2.156082684936e+00 0.0 
2.156082684936e+00 -3.261363453025e+02 0.0 
0.0 0.0 -1.392012908439e+02 
-1.405626071029e+02 -8.207261804711e-01 0.0 
-8.207261804711e-01 -3.304300101899e+02 0.0 
0.0 0.0 -1.408977851878e+02 
-1.400361669666e+02 1.772368868474e+00 0.0 
1.772368868474e+00 -3.280843895888e+02 0.0 
0.0 0.0 -1.400361669666e+02 
-1.491382103570e+02 -8.426961311383e-01 0.0 
-8.426961311383e-01 -3.502737114423e+02 0.0 
0.0 0.0 -1.494235765398e+02 
-1.578108428059e+02 -9.405345552149e-01 0.0 
-9.405345552149e-01 -3.701051078627e+02 0.0 
0.0 0.0 -1.579747852006e+02 
-7.697954723491e+01 5.221497690895e-01 0.0 
5.221497690895e-01 -1.800424811591e+02 0.0 
0.0 0.0 -7.670660851821e+01 
-1.408652254499e+02 2.578336232747e+00 0.0 
2.578336232747e+00 -3.271410505821e+02 0.0 
0.0 0.0 -1.400018828096e+02 
-1.407003419731e+02 1.520544706293e+00 0.0 
1.520544706293e+00 -3.273809559393e+02 0.0 
0.0 0.0 -1.400243893737e+02 
-1.444411643270e+02 8.241451799036e-01 0.0 
8.241451799036e-01 -3.393894278086e+02 0.0 
0.0 0.0 -1.447491776407e+02 
-1.532617859687e+02 8.451859699035e-01 0.0 
8.451859699035e-01 -3.596885909579e+02 0.0 
0.0 0.0 -1.534851130780e+02 
-1.233664872995e+02 -5.694365823825e-02 0.0 
-5.694365823825e-02 -2.923526562843e+02 0.0 
0.0 0.0 -1.243157430752e+02 
-1.838585807214e+01 -3.186073475535e+00 0.0 
-3.186073475535e+00 -9.481551671780e+00 0.0 
0.0 0.0 -8.936699106056e+00 
-7.797266255767e+01 -2.542267255069e+00 0.0 
-2.542267255069e+00 -1.854657283167e+02 0.0 
0.0 0.0 -7.863151726231e+01 
-6.731523481299e+00 -1.599625908135e-01 0.0 
-1.599625908135e-01 -2.497861108326e+01 0.0 
0.0 0.0 -8.599539129864e+00 
-1.458701137783e+02 1.446021533599e+00 0.0 
1.446021533599e+00 -3.490532943109e+02 0.0 
0.0 0.0 -1.480770224267e+02 
-8.136766722976e+01 -5.078014763410e+00 0.0 
-5.078014763410e+00 -1.968266994552e+02 0.0 
0.0 0.0 -8.305831000549e+01 
-1.355538189257e+02 -1.161481397179e+00 0.0 
-1.161481397179e+00 -3.226531345576e+02 0.0 
0.0 0.0 -1.370620860450e+02 
-4.358424624705e+01 -4.921344571300e+00 0.0 
-4.921344571300e+00 -9.963120868260e+01 0.0 
0.0 0.0 -4.256463647890e+01 
-1.691216211328e+01 -1.761214546408e+00 0.0 
-1.761214546408e+00 -4.148756842784e+01 0.0 
0.0 0.0 -1.711991916233e+01 
-1.449392328923e+02 7.220058521181e-01 0.0 
7.220058521181e-01 -3.425086915998e+02 0.0 
0.0 0.0 -1.458343773476e+02 
-8.658009026264e+01 -2.232958640483e+00 0.0 
-2.232958640483e+00 -2.056983140149e+02 0.0 
0.0 0.0 -8.728352128326e+01 
-6.824443110157e+01 -1.702948214212e+00 0.0 
-1.702948214212e+00 -1.599401459276e+02 0.0 
0.0 0.0 -6.805537310874e+01 
-1.364252743577e+02 4.160692005911e-01 0.0 
4.160692005911e-01 -3.233808430032e+02 0.0 
0.0 0.0 -1.375418352083e+02 
-1.240632411869e+02 1.359703337754e-01 0.0 
1.359703337754e-01 -2.833356266244e+02 0.0 
0.0 0.0 -1.218196603434e+02 
-6.850529334535e+01 5.408296027447e-01 0.0 
5.408296027447e-01 -1.599912740359e+02 0.0 
0.0 0.0 -6.814897021439e+01 
-1.226731789978e+02 2.374786125681e+00 0.0 
2.374786125681e+00 -3.108908210390e+02 0.0 
0.0 0.0 -1.296692000111e+02 
-1.090439092767e+02 -2.942868260904e+00 0.0 
-2.942868260904e+00 -2.721183635464e+02 0.0 
0.0 0.0 -1.139486818469e+02 
-1.223793060399e+02 -1.799545490780e+00 0.0 
-1.799545490780e+00 -2.915496192159e+02 0.0 
0.0 0.0 -1.237786775767e+02 
-1.265467194565e+02 -1.416026900375e+00 0.0 
-1.416026900375e+00 -3.000257004345e+02 0.0 
0.0 0.0 -1.275717259673e+02 
-5.535646758147e+01 1.215520006644e+01 0.0 
1.215520006644e+01 -1.847592074369e+02 0.0 
0.0 0.0 -7.163470250551e+01 
-7.322054926700e+01 1.072942329220e+01 0.0 
1.072942329220e+01 -1.410037078070e+02 0.0 
0.0 0.0 -6.386727712221e+01 
-7.753564887327e+01 1.916352470042e+01 0.0 
1.916352470042e+01 -1.917298253148e+02 0.0 
0.0 0.0 -8.037964225642e+01 
-1.139084386599e+02 -2.541445298645e+00 0.0 
-2.541445298645e+00 -2.755947935525e+02 0.0 
0.0 0.0 -1.164509696637e+02 
-1.404230295263e+02 6.231142734810e-01 0.0 
6.231142734810e-01 -3.315677326655e+02 0.0 
0.0 0.0 -1.411972286576e+02 
-1.307027979464e+02 -1.195753306549e+00 0.0 
-1.195753306549e+00 -3.087957380503e+02 0.0 
0.0 0.0 -1.314495607990e+02 
-4.674663669725e+01 -1.076514572179e+01 0.0 
-1.076514572179e+01 -1.068262396334e+02 0.0 
0.0 0.0 -4.567186289919e+01 
-1.240210299050e+02 7.613644569831e-01 0.0 
7.613644569831e-01 -2.823025315520e+02 0.0 
0.0 0.0 -1.214970684371e+02 
-1.161111233071e+02 5.740751335647e-01 0.0 
5.740751335647e-01 -2.621203397355e+02 0.0 
0.0 0.0 -1.130694389128e+02 
-8.007702316794e+01 -5.318915103581e-01 0.0 
-5.318915103581e-01 -1.715583101546e+02 0.0 
0.0 0.0 -7.509059999675e+01 
-1.181264371131e+02 -2.247381123048e+00 0.0 
-2.247381123048e+00 -2.873726572024e+02 0.0 
0.0 0.0 -1.212497282947e+02 
-1.181873018023e+02 -2.142086228208e+00 0.0 
-2.142086228208e+00 -2.835235709624e+02 0.0 
0.0 0.0 -1.201132618294e+02 
-1.246073192201e+02 1.897926103116e+00 0.0 
1.897926103116e+00 -2.842754685247e+02 0.0 
0.0 0.0 -1.222648363234e+02 
-1.202317145917e+02 4.770492015213e-01 0.0 
4.770492015213e-01 -2.729253878424e+02 0.0 
0.0 0.0 -1.175471307302e+02 
-1.066715977800e+02 -1.851129364482e+00 0.0 
-1.851129364482e+00 -2.659826819751e+02 0.0 
0.0 0.0 -1.113962839266e+02 
-1.489686343576e+02 7.843942333358e-01 0.0 
7.843942333358e-01 -3.506518784158e+02 0.0 
0.0 0.0 -1.494861538320e+02 
-1.155503023080e+02 1.958288931378e+00 0.0 
1.958288931378e+00 -2.585906553406e+02 0.0 
0.0 0.0 -1.118422872946e+02 
-1.311106746752e+02 4.973822311557e-01 0.0 
4.973822311557e-01 -3.089682663470e+02 0.0 
0.0 0.0 -1.316236823067e+02 
-1.505680243848e+02 1.518068376022e+00 0.0 
1.518068376022e+00 -3.577866513460e+02 0.0 
0.0 0.0 -1.521064027192e+02 
-1.244619134872e+02 2.616372625646e+00 0.0 
2.616372625646e+00 -2.829291674487e+02 0.0 
0.0 0.0 -1.218173242808e+02 
-1.051863518279e+02 2.207960600134e+00 0.0 
2.207960600134e+00 -2.319411626421e+02 0.0 
0.0 0.0 -1.007382543410e+02 
-1.185114963879e+02 1.052091422054e+00 0.0 
1.052091422054e+00 -3.002298190668e+02 0.0 
0.0 0.0 -1.252223946364e+02 
-4.298014909844e+01 -3.043108062007e+00 0.0 
-3.043108062007e+00 -1.002463261531e+02 0.0 
0.0 0.0 -4.256794257547e+01 
-4.466544412393e+01 -1.252053145999e+01 0.0 
-1.252053145999e+01 -1.008105350962e+02 0.0 
0.0 0.0 -4.324279376604e+01 
-2.193074795069e+01 -1.996220202345e+00 0.0 
-1.996220202345e+00 -4.854467458100e+01 0.0 
0.0 0.0 -2.074262675951e+01 
-2.869924554450e+01 -1.169931693037e+01 0.0 
-1.169931693037e+01 -3.388167580188e+01 0.0 
0.0 0.0 -1.744785478827e+01 
-1.207822105894e+02 2.136531077417e+00 0.0 
2.136531077417e+00 -2.733910902284e+02 0.0 
0.0 0.0 -1.178519902454e+02 
-1.438236427070e+02 -9.254541774686e-01 0.0 
-9.254541774686e-01 -3.391007255651e+02 0.0 
0.0 0.0 -1.444773104816e+02 
-1.802964686115e+01 -6.133072440107e+00 0.0 
-6.133072440107e+00 -2.840958383686e+01 0.0 
0.0 0.0 -1.280702368365e+01 
-1.297007514635e+02 1.081207387623e+01 0.0 
1.081207387623e+01 -2.868368576801e+02 0.0 
0.0 0.0 -1.245612827431e+02 
-8.431102142843e+01 -2.356705409108e-01 0.0 
-2.356705409108e-01 -1.806443347573e+02 0.0 
0.0 0.0 -7.908660685572e+01 
-1.324348014612e+02 2.559913001539e-01 0.0 
2.559913001539e-01 -3.155596096718e+02 0.0 
0.0 0.0 -1.339983233399e+02 
-1.350771403066e+02 -1.154834861647e+00 0.0 
-1.154834861647e+00 -3.195027050354e+02 0.0 
0.0 0.0 -1.359739536026e+02 
-5.734262486166e+01 -1.120449094667e+01 0.0 
-1.120449094667e+01 -1.558474110367e+02 0.0 
0.0 0.0 -6.355701076952e+01 
-1.357043736599e+02 5.294756612087e-01 0.0 
5.294756612087e-01 -3.201156305269e+02 0.0 
0.0 0.0 -1.363460012560e+02 
-8.063185172056e+01 1.554126556891e+00 0.0 
1.554126556891e+00 -1.717298702585e+02 0.0 
0.0 0.0 -7.530851659372e+01 
-1.116746752612e+02 1.154315462725e+01 0.0 
1.154315462725e+01 -2.910217453651e+02 0.0 
0.0 0.0 -1.204089261879e+02 
-1.545662504847e+02 -2.950945004679e-01 0.0 
-2.950945004679e-01 -3.657038682704e+02 0.0 
0.0 0.0 -1.556810356265e+02 
-4.074673646641e+01 -1.792120639058e+00 0.0 
-1.792120639058e+00 -9.655668237427e+01 0.0 
0.0 0.0 -4.079102565220e+01 
-1.505442358409e+02 2.002863414506e+00 0.0 
2.002863414506e+00 -3.603295724828e+02 0.0 
0.0 0.0 -1.528621424971e+02 
-1.092253010465e+02 2.016483904896e+00 0.0 
2.016483904896e+00 -2.428314783872e+02 0.0 
0.0 0.0 -1.052170338301e+02 
-4.648404634560e+01 -2.648029211582e+00 0.0 
-2.648029211582e+00 -1.087117284668e+02 0.0 
0.0 0.0 -4.615873244373e+01 
-5.172597966448e+01 -1.008094676817e+01 0.0 
-1.008094676817e+01 -1.229601861544e+02 0.0 
0.0 0.0 -5.200584974566e+01 
-9.710154286041e+01 -2.219210984728e+00 0.0 
-2.219210984728e+00 -2.296613147234e+02 0.0 
0.0 0.0 -9.762885727516e+01 
-9.617028224209e+01 5.319207340752e-01 0.0 
5.319207340752e-01 -2.097863097554e+02 0.0 
0.0 0.0 -9.138697759924e+01 
-6.577929000603e+01 -5.854086981057e+00 0.0 
-5.854086981057e+00 -1.562892977907e+02 0.0 
0.0 0.0 -6.622057633903e+01 
-1.132080770629e+02 1.929126798098e+00 0.0 
1.929126798098e+00 -2.536210373243e+02 0.0 
0.0 0.0 -1.096487343162e+02 
-1.012273690989e+02 1.903763155185e+00 0.0 
1.903763155185e+00 -2.224304273670e+02 0.0 
0.0 0.0 -9.669733893978e+01 
-9.340364070017e+01 -3.745493375400e+00 0.0 
-3.745493375400e+00 -2.247400609184e+02 0.0 
0.0 0.0 -9.504311048558e+01 
-1.271122613314e+02 2.522639566157e-01 0.0 
2.522639566157e-01 -3.004373242964e+02 0.0 
0.0 0.0 -1.278648756883e+02 
-1.318319630021e+02 3.242050471926e-01 0.0 
3.242050471926e-01 -3.120034382688e+02 0.0 
0.0 0.0 -1.327506203813e+02 
-1.083255132013e+02 2.850616623193e-01 0.0 
2.850616623193e-01 -2.420972329203e+02 0.0 
0.0 0.0 -1.047268238365e+02 
-3.552706218293e+01 -1.610760785874e+00 0.0 
-1.610760785874e+00 -8.384337639750e+01 0.0 
0.0 0.0 -3.541113157413e+01 
-8.928117837472e+01 -3.490668682581e+00 0.0 
-3.490668682581e+00 -2.129350488847e+02 0.0 
0.0 0.0 -9.026486817782e+01 
-1.315940076890e+02 1.247605193882e+01 0.0 
1.247605193882e+01 -3.236788244108e+02 0.0 
0.0 0.0 -1.361818496299e+02 
-1.129609847118e+02 2.490142051234e+00 0.0 
2.490142051234e+00 -2.518940511879e+02 0.0 
0.0 0.0 -1.090565107699e+02 
-8.102526203503e+01 -3.976638747281e+00 0.0 
-3.976638747281e+00 -1.925056219075e+02 0.0 
0.0 0.0 -8.165926518276e+01 
-1.111033443544e+02 -1.428677364492e+00 0.0 
-1.428677364492e+00 -2.733380233691e+02 0.0 
0.0 0.0 -1.149324103171e+02 
-1.463739938178e+02 2.388237024127e+00 0.0 
2.388237024127e+00 -3.528893594741e+02 0.0 
0.0 0.0 -1.493790059876e+02 
-1.045139225838e+02 5.126420010644e-01 0.0 
5.126420010644e-01 -2.313720182649e+02 0.0 
0.0 0.0 -1.003657822546e+02 
-2.973926188360e+01 -7.619786481566e+00 0.0 
-7.619786481566e+00 -1.221356775846e+02 0.0 
0.0 0.0 -4.767383672941e+01 
-1.895647157369e+01 -8.452782545219e-01 0.0 
-8.452782545219e-01 -4.670664864460e+01 0.0 
0.0 0.0 -1.929893606549e+01 
-3.025092559342e+01 5.663443205266e+00 0.0 
5.663443205266e+00 -1.403044391114e+02 0.0 
0.0 0.0 -5.046694917686e+01 
-1.397175412417e+02 -1.065401752053e+00 0.0 
-1.065401752053e+00 -3.309035437898e+02 0.0 
0.0 0.0 -1.407863255095e+02 
-1.002798530946e+02 5.576201459153e-01 0.0 
5.576201459153e-01 -2.205616156177e+02 0.0 
0.0 0.0 -9.585244061367e+01 
-1.062285862141e+02 6.941606699953e-02 0.0 
6.941606699953e-02 -2.501780901707e+02 0.0 
0.0 0.0 -1.065220029154e+02 
-8.825865000423e+01 1.842868593715e-01 0.0 
1.842868593715e-01 -1.901101812744e+02 0.0 
0.0 0.0 -8.311064938358e+01 
-1.367436600503e+02 4.597079287995e+00 0.0 
4.597079287995e+00 -3.396102999922e+02 0.0 
0.0 0.0 -1.425061880128e+02 
-9.742755697233e+01 -3.072941599287e+00 0.0 
-3.072941599287e+00 -2.328383301269e+02 0.0 
0.0 0.0 -9.867976612978e+01 
-1.310428764652e+02 -1.374528161660e+00 0.0 
-1.374528161660e+00 -3.112964254224e+02 0.0 
0.0 0.0 -1.323017905663e+02 
-4.246818259691e+01 -8.408769646297e-01 0.0 
-8.408769646297e-01 -1.005402959952e+02 0.0 
0.0 0.0 -4.250254357764e+01 
-1.499099975630e+02 -2.269372641760e-01 0.0 
-2.269372641760e-01 -3.576084456396e+02 0.0 
0.0 0.0 -1.518555329608e+02 
-9.465231777239e+01 -1.807640919610e+00 0.0 
-1.807640919610e+00 -2.257061165531e+02 0.0 
0.0 0.0 -9.570753029764e+01 
-4.603358357815e+01 -3.707038016993e-01 0.0 
-3.707038016993e-01 -1.090280629989e+02 0.0 
0.0 0.0 -4.611849397310e+01 
-9.023099997010e+01 -1.413464181510e+00 0.0 
-1.413464181510e+00 -2.138232116736e+02 0.0 
0.0 0.0 -9.081626349312e+01 
-6.937570577240e+01 -4.918050230352e+00 0.0 
-4.918050230352e+00 -1.643439719233e+02 0.0 
0.0 0.0 -6.971590330872e+01 
-5.491822497027e+01 -4.514700213098e+00 0.0 
-4.514700213098e+00 -1.285366524048e+02 0.0 
0.0 0.0 -5.463646321253e+01 
-1.052784426380e+02 -1.911304271243e+00 0.0 
-1.911304271243e+00 -2.492286804296e+02 0.0 
0.0 0.0 -1.059521369203e+02 
-1.805454406091e+00 1.830935242070e-01 0.0 
1.830935242070e-01 -9.649513076668e+00 0.0 
0.0 0.0 -3.104971146452e+00 
-2.369955112639e+00 -2.565176382634e-01 0.0 
-2.565176382634e-01 -9.731768774495e+00 0.0 
0.0 0.0 -3.577573455896e+00 
-1.193382324522e+02 -4.092462286806e-01 0.0 
-4.092462286806e-01 -2.843924263778e+02 0.0 
0.0 0.0 -1.207191976490e+02 
-3.895746651333e+01 -1.245832558435e+00 0.0 
-1.245832558435e+00 -9.229400311611e+01 0.0 
0.0 0.0 -3.897544088883e+01 
-1.196626889610e+02 -6.114783413885e-01 0.0 
-6.114783413885e-01 -2.883835290698e+02 0.0 
0.0 0.0 -1.220138654092e+02 
-1.154375577114e+02 -1.014629285825e+00 0.0 
-1.014629285825e+00 -2.808159542976e+02 0.0 
0.0 0.0 -1.184760536027e+02 
-7.341357387856e+01 -6.952468462656e+00 0.0 
-6.952468462656e+00 -1.812860849952e+02 0.0 
0.0 0.0 -7.600989766212e+01 
-4.720211468071e+01 -1.423763786080e+01 0.0 
-1.423763786080e+01 -1.312624335769e+02 0.0 
0.0 0.0 -5.313936447728e+01 
-1.204277696333e+02 3.557751565894e+00 0.0 
3.557751565894e+00 -2.701765321372e+02 0.0 
0.0 0.0 -1.167812905311e+02 
-2.816829679770e+01 2.692042365057e+01 0.0 
2.692042365057e+01 -9.695531094642e+01 0.0 
0.0 0.0 -3.886057994971e+01 
-7.304615039954e+01 -4.042210280720e+00 0.0 
-4.042210280720e+00 -1.727886934693e+02 0.0 
0.0 0.0 -7.335045316064e+01 
-1.414472901685e+02 5.920961610172e+00 0.0 
5.920961610172e+00 -3.490062944063e+02 0.0 
0.0 0.0 -1.467360753724e+02 
-3.380235349776e+01 -2.603661579871e+00 0.0 
-2.603661579871e+00 -7.958022048321e+01 0.0 
0.0 0.0 -3.361477219429e+01 
-9.316641838101e+01 1.849411675651e+00 0.0 
1.849411675651e+00 -2.014164898522e+02 0.0 
0.0 0.0 -8.797487246997e+01 
-8.502726419896e+01 1.602536958448e+00 0.0 
1.602536958448e+00 -1.813005169494e+02 0.0 
0.0 0.0 -7.949833434451e+01 
-3.492100009071e+01 -3.803705975810e+00 0.0 
-3.803705975810e+00 -7.856118715086e+01 0.0 
0.0 0.0 -3.364465617247e+01 
-1.416907482263e+02 2.606287031299e+00 0.0 
2.606287031299e+00 -3.450460526616e+02 0.0 
0.0 0.0 -1.456210402664e+02 
-1.090558149180e+02 3.224437027580e+00 0.0 
3.224437027580e+00 -2.394573616443e+02 0.0 
0.0 0.0 -1.041539529687e+02 
-3.973082263067e+01 -3.442041547312e+00 0.0 
-3.442041547312e+00 -9.198562698896e+01 0.0 
0.0 0.0 -3.911493488589e+01 
-1.240142641097e+02 4.076022427560e+00 0.0 
4.076022427560e+00 -2.790871180642e+02 0.0 
0.0 0.0 -1.205304146522e+02 
-1.227703722330e+02 2.514542274199e+00 0.0 
2.514542274199e+00 -2.782111746524e+02 0.0 
0.0 0.0 -1.198944640656e+02 
-4.434334085974e+01 -2.107810446143e+00 0.0 
-2.107810446143e+00 -1.036797113004e+02 0.0 
0.0 0.0 -4.400691564803e+01 
-5.157301015687e+01 2.110064174302e+01 0.0 
2.110064174302e+01 -9.817244057347e+01 0.0 
0.0 0.0 -4.452363521910e+01 
-4.659312156524e+01 -4.073507608015e+00 0.0 
-4.073507608015e+00 -1.077013997107e+02 0.0 
0.0 0.0 -4.588835638279e+01 
-1.279263401870e+02 4.818413162720e-02 0.0 
4.818413162720e-02 -3.039724558191e+02 0.0 
0.0 0.0 -1.291696388018e+02 
-1.013958408812e+02 -2.465973866203e+00 0.0 
-2.465973866203e+00 -2.410730573865e+02 0.0 
0.0 0.0 -1.023406694803e+02 
-1.271517519737e+02 7.533921312909e+00 0.0 
7.533921312909e+00 -2.847691445066e+02 0.0 
0.0 0.0 -1.231762689441e+02 
-1.193861295629e+02 1.806666703641e+00 0.0 
1.806666703641e+00 -2.694389503152e+02 0.0 
0.0 0.0 -1.162475239634e+02 
-1.238239510038e+02 -2.599916204595e-01 0.0 
-2.599916204595e-01 -2.961142637730e+02 0.0 
0.0 0.0 -1.255814644330e+02 
-1.225277811081e+02 -1.920508447357e+00 0.0 
-1.920508447357e+00 -2.952008993976e+02 0.0 
0.0 0.0 -1.249186041517e+02 
-3.943705136255e+01 -5.831739634664e+00 0.0 
-5.831739634664e+00 -8.698650880683e+01 0.0 
0.0 0.0 -3.752706805081e+01 
-1.268318999686e+02 -1.631912327215e+00 0.0 
-1.631912327215e+00 -3.031403573036e+02 0.0 
0.0 0.0 -1.285916771816e+02 
-1.079242724859e+02 1.472001883866e+00 0.0 
1.472001883866e+00 -2.386828110812e+02 0.0 
0.0 0.0 -1.035821250701e+02 
-1.022985217997e+02 -5.615945243872e-01 0.0 
-5.615945243872e-01 -2.418780182943e+02 0.0 
0.0 0.0 -1.028529620282e+02 
-1.011899167950e+02 2.247219376949e+00 0.0 
2.247219376949e+00 -2.212303977592e+02 0.0 
0.0 0.0 -9.632609436626e+01 
-1.128851299849e+02 3.135933002931e+00 0.0 
3.135933002931e+00 -2.502111391923e+02 0.0 
0.0 0.0 -1.085288807532e+02 
-7.698078507822e+01 1.253158170007e+01 0.0 
1.253158170007e+01 -2.215634337711e+02 0.0 
0.0 0.0 -8.916326565481e+01 
-1.157413822863e+02 1.265868126248e+00 0.0 
1.265868126248e+00 -2.603108516485e+02 0.0 
0.0 0.0 -1.124156701804e+02 
-8.527475214484e+01 -3.221667123226e+00 0.0 
-3.221667123226e+00 -2.021429945682e+02 0.0 
0.0 0.0 -8.582532401391e+01 
-9.844108966020e+01 -1.122515721881e+00 0.0 
-1.122515721881e+00 -2.337068246352e+02 0.0 
0.0 0.0 -9.924437428861e+01 
-6.503654305155e+01 -4.391829113308e+00 0.0 
-4.391829113308e+00 -1.526738890174e+02 0.0 
0.0 0.0 -6.491312962070e+01 
-6.798023823898e+01 -7.303635626907e+00 0.0 
-7.303635626907e+00 -1.686336123109e+02 0.0 
0.0 0.0 -7.058415516497e+01 
-1.040959139722e+02 9.705883284929e-01 0.0 
9.705883284929e-01 -2.295905707995e+02 0.0 
0.0 0.0 -9.970594543149e+01 
-8.947062350100e+01 -3.983143296838e+00 0.0 
-3.983143296838e+00 -2.329208010735e+02 0.0 
0.0 0.0 -9.631742737235e+01 
-4.977253413172e+01 -3.269489176755e+00 0.0 
-3.269489176755e+00 -1.159081511067e+02 0.0 
0.0 0.0 -4.930420557152e+01 
-2.543449899899e+01 -2.310182976277e+00 0.0 
-2.310182976277e+00 -5.777766286089e+01 0.0 
0.0 0.0 -2.456364855796e+01 
-1.051515728838e+02 2.691394458943e+00 0.0 
2.691394458943e+00 -2.303273801366e+02 0.0 
0.0 0.0 -1.002436859061e+02 
-5.021869463341e+01 -5.718197859319e+00 0.0 
-5.718197859319e+00 -1.155538305978e+02 0.0 
0.0 0.0 -4.933175756935e+01 
-1.502051213281e+02 7.049412792305e-01 0.0 
7.049412792305e-01 -3.599989495710e+02 0.0 
0.0 0.0 -1.526612212697e+02 
-1.081378081261e+02 9.092784507217e-01 0.0 
9.092784507217e-01 -2.403948531666e+02 0.0 
0.0 0.0 -1.041597983878e+02 
-1.313023463330e+02 -1.358012575510e+00 0.0 
-1.358012575510e+00 -3.147288247838e+02 0.0 
0.0 0.0 -1.334093513350e+02 
-1.568403832952e+02 8.880670304673e+00 0.0 
8.880670304673e+00 -3.744350729413e+02 0.0 
0.0 0.0 -1.589826368709e+02 
-8.191714822868e+01 -1.688300106461e+00 0.0 
-1.688300106461e+00 -1.935682990193e+02 0.0 
0.0 0.0 -8.224563417440e+01 
-4.510250744346e+01 -4.532428755987e+00 0.0 
-4.532428755987e+00 -1.034654019314e+02 0.0 
0.0 0.0 -4.417037281245e+01 
-3.086288069907e+01 -4.708379283936e+00 0.0 
-4.708379283936e+00 -6.644580853954e+01 0.0 
0.0 0.0 -2.879260677158e+01 
-1.239778051063e+02 -2.439785122585e-01 0.0 
-2.439785122585e-01 -3.001046101522e+02 0.0 
0.0 0.0 -1.268247245776e+02 
-9.653599463961e+01 1.730821121407e-01 0.0 
1.730821121407e-01 -2.116314500847e+02 0.0 
0.0 0.0 -9.205023341730e+01 
-2.146137824508e+01 -3.251548550497e+00 0.0 
-3.251548550497e+00 -4.690483823569e+01 0.0 
0.0 0.0 -2.010986494423e+01 
-6.654672502818e+01 -3.614498658388e+00 0.0 
-3.614498658388e+00 -1.571071127515e+02 0.0 
0.0 0.0 -6.669615133390e+01 
-3.723086598395e+01 -2.059918613352e-01 0.0 
-2.059918613352e-01 -8.941429279979e+01 0.0 
0.0 0.0 -3.759354763512e+01 
-9.723841352595e+01 2.221186833738e+00 0.0 
2.221186833738e+00 -2.105208980342e+02 0.0 
0.0 0.0 -9.192779346806e+01 
-7.027167877327e+01 -2.695102081233e+00 0.0 
-2.695102081233e+00 -1.652108223745e+02 0.0 
0.0 0.0 -7.024475034434e+01 
-1.136393805961e+02 -2.589321083138e+00 0.0 
-2.589321083138e+00 -2.796972306182e+02 0.0 
0.0 0.0 -1.176009833643e+02 
-6.505062061312e+01 -1.935670460261e+00 0.0 
-1.935670460261e+00 -1.530464106982e+02 0.0 
0.0 0.0 -6.502910939339e+01 
-1.168674746476e+02 2.366924600733e+00 0.0 
2.366924600733e+00 -2.627765179774e+02 0.0 
0.0 0.0 -1.134931977875e+02 
-5.805549065283e+01 -5.951146789326e+00 0.0 
-5.951146789326e+00 -1.359873670342e+02 0.0 
0.0 0.0 -5.781285730610e+01 
-1.237970168518e+02 1.194045509892e-01 0.0 
1.194045509892e-01 -3.041047758816e+02 0.0 
0.0 0.0 -1.279705378200e+02 
-4.520201516475e+01 -9.907459512519e+00 0.0 
-9.907459512519e+00 -1.016240659031e+02 0.0 
0.0 0.0 -4.364782432036e+01 
-1.196003382206e+02 -5.293915132079e-01 0.0 
-5.293915132079e-01 -2.925333273030e+02 0.0 
0.0 0.0 -1.232400996571e+02 
-9.417837437389e+01 -9.298494103420e-01 0.0 
-9.298494103420e-01 -2.225154509571e+02 0.0 
0.0 0.0 -9.460814759929e+01 
-1.268910816116e+02 -1.569028578506e+00 0.0 
-1.569028578506e+00 -3.068549227439e+02 0.0 
0.0 0.0 -1.297238013066e+02 
-4.960690215659e+01 4.392272316743e-01 0.0 
4.392272316743e-01 -1.797255372788e+02 0.0 
0.0 0.0 -6.839973183062e+01 
-3.742383497370e+01 -2.413044770038e+00 0.0 
-2.413044770038e+00 -8.869320325157e+01 0.0 
0.0 0.0 -3.743511146758e+01 
-8.932976754016e+01 1.526464538758e+00 0.0 
1.526464538758e+00 -1.923367170239e+02 0.0 
0.0 0.0 -8.409994536923e+01 
-1.071712256494e+02 3.988340404694e+00 0.0 
3.988340404694e+00 -2.857196159423e+02 0.0 
0.0 0.0 -1.174672524775e+02 
-7.476224203174e+01 1.615149750936e+01 0.0 
1.615149750936e+01 -1.636046096270e+02 0.0 
0.0 0.0 -7.111005549764e+01 
-9.722059517065e+01 1.901517958254e+00 0.0 
1.901517958254e+00 -2.120054510368e+02 0.0 
0.0 0.0 -9.236781386225e+01 
-4.917134613567e+01 -1.198636960928e+01 0.0 
-1.198636960928e+01 -1.174852463668e+02 0.0 
0.0 0.0 -4.959697775074e+01 
-1.001599526206e+02 1.548639656453e+00 0.0 
1.548639656453e+00 -2.173801260498e+02 0.0 
0.0 0.0 -9.486202360113e+01 
-3.297654965377e+01 -4.341053343249e-01 0.0 
-4.341053343249e-01 -8.043885814907e+01 0.0 
0.0 0.0 -3.362462234085e+01 
-1.416634180123e+02 1.632434613748e+00 0.0 
1.632434613748e+00 -3.419287532392e+02 0.0 
0.0 0.0 -1.446776513754e+02 
-1.114888019565e+02 5.830590809582e+00 0.0 
5.830590809582e+00 -2.948204265695e+02 0.0 
0.0 0.0 -1.214927685578e+02 
-1.168226240355e+02 1.272906931178e+01 0.0 
1.272906931178e+01 -2.981647740955e+02 0.0 
0.0 0.0 -1.240962194393e+02 
-1.278223413926e+02 3.960873393199e+00 0.0 
3.960873393199e+00 -2.904945826990e+02 0.0 
0.0 0.0 -1.250950772275e+02 
-9.750764748851e+01 -2.586019575378e+00 0.0 
-2.586019575378e+00 -2.516728170596e+02 0.0 
0.0 0.0 -1.043541393644e+02 
-3.654850639777e+01 -3.905741288561e+00 0.0 
-3.905741288561e+00 -8.355251469509e+01 0.0 
0.0 0.0 -3.563030632786e+01 
-1.105446608034e+02 -1.087273077808e+00 0.0 
-1.087273077808e+00 -2.776986740695e+02 0.0 
0.0 0.0 -1.160730004619e+02 
-1.453660558520e+02 9.875513011170e-01 0.0 
9.875513011170e-01 -3.521516453785e+02 0.0 
0.0 0.0 -1.488553103691e+02 
-5.758297561746e+01 -1.124091111921e+01 0.0 
-1.124091111921e+01 -1.530638804488e+02 0.0 
0.0 0.0 -6.279405681987e+01 
-1.282557475944e+02 2.637019734899e-02 0.0 
2.637019734899e-02 -3.077815503784e+02 0.0 
0.0 0.0 -1.304111893918e+02 
-1.090388228822e+02 2.631284690907e+00 0.0 
2.631284690907e+00 -2.410664628847e+02 0.0 
0.0 0.0 -1.046315857301e+02 
-4.260467575043e+01 -1.534951056480e+01 0.0 
-1.534951056480e+01 -1.276207727832e+02 0.0 
0.0 0.0 -5.066763456010e+01 
-1.151261667566e+02 -8.202293514768e-01 0.0 
-8.202293514768e-01 -2.850692661264e+02 0.0 
0.0 0.0 -1.196586298649e+02 
-8.921797446546e+01 2.225645356501e+00 0.0 
2.225645356501e+00 -1.890791893300e+02 0.0 
0.0 0.0 -8.308914913863e+01 
-5.146046658522e+01 -1.119787801624e+00 0.0 
-1.119787801624e+00 -1.207446389303e+02 0.0 
0.0 0.0 -5.126153165467e+01 
-6.304436690543e+01 -4.591923962973e+00 0.0 
-4.591923962973e+00 -1.492256581126e+02 0.0 
0.0 0.0 -6.328100750540e+01 
-8.815878666459e+01 1.752284108338e+01 0.0 
1.752284108338e+01 -2.034863797904e+02 0.0 
0.0 0.0 -8.709354993650e+01 
-1.223688618939e+02 -1.792105287463e+00 0.0 
-1.792105287463e+00 -2.990816730920e+02 0.0 
0.0 0.0 -1.260351604957e+02 
-6.829465583862e+01 1.620837826154e+01 0.0 
1.620837826154e+01 -1.359432962767e+02 0.0 
0.0 0.0 -6.087138563459e+01 
-8.295777363049e+01 1.842987258873e+01 0.0 
1.842987258873e+01 -1.973487245714e+02 0.0 
0.0 0.0 -8.369194946056e+01 
-1.040420733746e+02 1.518011378618e+00 0.0 
1.518011378618e+00 -2.279944315503e+02 0.0 
0.0 0.0 -9.921095147746e+01 
-9.230134381063e+01 1.338163742265e-01 0.0 
1.338163742265e-01 -2.007633221584e+02 0.0 
0.0 0.0 -8.751939979070e+01 
-9.220347988677e+01 9.626713811727e-01 0.0 
9.626713811727e-01 -1.976042384169e+02 0.0 
0.0 0.0 -8.654231549110e+01 
-9.332735916788e+01 -2.726600497938e+00 0.0 
-2.726600497938e+00 -2.215951306533e+02 0.0 
0.0 0.0 -9.407674694635e+01 
-1.369615067783e+02 2.919974972784e+00 0.0 
2.919974972784e+00 -3.372841670613e+02 0.0 
0.0 0.0 -1.418737021519e+02 
-1.058524286054e+02 -1.288590959993e+00 0.0 
-1.288590959993e+00 -2.704088102408e+02 0.0 
0.0 0.0 -1.124783716539e+02 
-8.902523537753e+01 1.786331443738e+00 0.0 
1.786331443738e+00 -1.906987590694e+02 0.0 
0.0 0.0 -8.351719833408e+01 
-1.341348354013e+02 1.226577213991e+01 0.0 
1.226577213991e+01 -2.991794298509e+02 0.0 
0.0 0.0 -1.295942795757e+02 
-1.220260298818e+02 1.371246754791e+01 0.0 
1.371246754791e+01 -3.051660559424e+02 0.0 
0.0 0.0 -1.277576257473e+02 
-1.177492158368e+02 -2.020914556488e+00 0.0 
-2.020914556488e+00 -2.914200378070e+02 0.0 
0.0 0.0 -1.223507760931e+02 
-1.118393768100e+02 1.398259146918e+00 0.0 
1.398259146918e+00 -2.494751250537e+02 0.0 
0.0 0.0 -1.079943505591e+02 
-7.150894013540e+01 -6.045543601107e+00 0.0 
-6.045543601107e+00 -1.752516484770e+02 0.0 
0.0 0.0 -7.362817658371e+01 
-6.746084437839e+01 -5.445559731728e+00 0.0 
-5.445559731728e+00 -1.621511198180e+02 0.0 
0.0 0.0 -6.848358925892e+01 
-3.770010543718e+01 -3.217333120778e+00 0.0 
-3.217333120778e+00 -8.682641564256e+01 0.0 
0.0 0.0 -3.695795632392e+01 
-1.144711487369e+02 -1.099103692199e-01 0.0 
-1.099103692199e-01 -2.891324632578e+02 0.0 
0.0 0.0 -1.206810835984e+02 
-7.099548203433e+01 -4.366690449893e+00 0.0 
-4.366690449893e+00 -1.697143545953e+02 0.0 
0.0 0.0 -7.181295098889e+01 
-1.012508657596e+02 2.743482841314e+00 0.0 
2.743482841314e+00 -2.195756325546e+02 0.0 
0.0 0.0 -9.584794949426e+01 
-9.735059695263e+01 2.779156104608e+00 0.0 
2.779156104608e+00 -2.089122024149e+02 0.0 
0.0 0.0 -9.147883981025e+01 
-7.933014105332e+01 9.902045393815e+00 0.0 
9.902045393815e+00 -2.317924492503e+02 0.0 
0.0 0.0 -9.293677709108e+01 
-5.886324164211e+01 -7.963894065296e+00 0.0 
-7.963894065296e+00 -1.407320788577e+02 0.0 
0.0 0.0 -5.947859614993e+01 
-4.783011567470e+01 1.325540259062e+01 0.0 
1.325540259062e+01 -1.702111382809e+02 0.0 
0.0 0.0 -6.501237618668e+01 
-6.226531913301e+01 -6.864200657801e+00 0.0 
-6.864200657801e+00 -1.483913863332e+02 0.0 
0.0 0.0 -6.279701163987e+01 
-6.603823493038e+01 -7.586037334987e+00 0.0 
-7.586037334987e+00 -1.610755144067e+02 0.0 
0.0 0.0 -6.773412480112e+01 
-4.212618592521e+01 -5.190271443955e+00 0.0 
-5.190271443955e+00 -9.518599658082e+01 0.0 
0.0 0.0 -4.079365475181e+01 
-1.320844026634e+02 3.318948374084e+00 0.0 
3.318948374084e+00 -3.293928918893e+02 0.0 
0.0 0.0 -1.380431883658e+02 
-7.548443444333e+01 -7.475523135230e+00 0.0 
-7.475523135230e+00 -1.998774137113e+02 0.0 
0.0 0.0 -8.220855444639e+01 
-1.166965813244e+02 2.996426089347e+00 0.0 
2.996426089347e+00 -2.610085346840e+02 0.0 
0.0 0.0 -1.129115348025e+02 
-7.842898045049e+01 -6.522589872560e+00 0.0 
-6.522589872560e+00 -2.125226683005e+02 0.0 
0.0 0.0 -8.688549462529e+01 
-1.082270399930e+02 -2.379040238917e+00 0.0 
-2.379040238917e+00 -2.764342273449e+02 0.0 
0.0 0.0 -1.149983802014e+02 
-9.120376970174e+01 -4.796428283120e+00 0.0 
-4.796428283120e+00 -2.382821228591e+02 0.0 
0.0 0.0 -9.844576776824e+01 
-7.988996983766e+01 1.827624180253e+01 0.0 
1.827624180253e+01 -2.055018035080e+02 0.0 
0.0 0.0 -8.521753200369e+01 
-4.104588278620e+01 -2.705415530942e+00 0.0 
-2.705415530942e+00 -9.531706181700e+01 0.0 
0.0 0.0 -4.050888338096e+01 
-1.404119865041e+02 1.370652598747e+00 0.0 
1.370652598747e+00 -3.441796389170e+02 0.0 
0.0 0.0 -1.449774876263e+02 
-1.468212066675e+02 3.710827392015e+00 0.0 
3.710827392015e+00 -3.567215578327e+02 0.0 
0.0 0.0 -1.506628293501e+02 
-1.092129502327e+02 1.362656675162e+01 0.0 
1.362656675162e+01 -2.494297452194e+02 0.0 
0.0 0.0 -1.071928086356e+02 
-6.941356174967e+01 -8.011538027362e+00 0.0 
-8.011538027362e+00 -1.739292891131e+02 0.0 
0.0 0.0 -7.260285525883e+01 
-9.956554930990e+01 -3.540489841024e+00 0.0 
-3.540489841024e+00 -2.573873558232e+02 0.0 
0.0 0.0 -1.066858715399e+02 
-1.000982684719e+02 9.667962457770e-01 0.0 
9.667962457770e-01 -2.187901400215e+02 0.0 
0.0 0.0 -9.526652254802e+01 
-7.518483488270e+01 -4.944004863004e+00 0.0 
-4.944004863004e+00 -1.824775070517e+02 0.0 
0.0 0.0 -7.689870258032e+01 
-6.820061840297e+01 2.053477942625e+01 0.0 
2.053477942625e+01 -1.579430467353e+02 0.0 
0.0 0.0 -6.744309954147e+01 
-5.816873781742e+01 -3.588720972268e+00 0.0 
-3.588720972268e+00 -1.365576871093e+02 0.0 
0.0 0.0 -5.801792747802e+01 
-5.194337846119e+01 -1.293227890113e+01 0.0 
-1.293227890113e+01 -1.335596950389e+02 0.0 
0.0 0.0 -5.525092205004e+01 
-7.520223637458e+01 -6.300527528080e+00 0.0 
-6.300527528080e+00 -1.884265036925e+02 0.0 
0.0 0.0 -7.868862202012e+01 
-5.335939970474e+01 -4.898120980730e+00 0.0 
-4.898120980730e+00 -1.237893201293e+02 0.0 
0.0 0.0 -5.274461595020e+01 
-4.782832303958e+01 -1.583313877956e+00 0.0 
-1.583313877956e+00 -1.121749995042e+02 0.0 
0.0 0.0 -4.760099676315e+01 
-9.400596997140e+01 -3.497098533176e+00 0.0 
-3.497098533176e+00 -2.397548439581e+02 0.0 
0.0 0.0 -9.972824417886e+01 
-1.130353586192e+02 -2.229576148438e+00 0.0 
-2.229576148438e+00 -2.838738319666e+02 0.0 
0.0 0.0 -1.186727571757e+02 
-1.285115825824e+02 1.343005755854e+01 0.0 
1.343005755854e+01 -2.956088396618e+02 0.0 
0.0 0.0 -1.268361266733e+02 
-2.622192194254e+00 -2.507276132745e-01 0.0 
-2.507276132745e-01 -8.637027516691e+00 0.0 
0.0 0.0 -1.984215696749e+00 
-7.156304826705e+01 -4.280952339514e+00 0.0 
-4.280952339514e+00 -2.122372373849e+02 0.0 
0.0 0.0 -8.474008569559e+01 
-7.357849567796e+01 -6.713266517632e+00 0.0 
-6.713266517632e+00 -2.062468143967e+02 0.0 
0.0 0.0 -8.354759302239e+01 
-7.250112248956e+01 -7.981766935227e+00 0.0 
-7.981766935227e+00 -1.869329249244e+02 0.0 
0.0 0.0 -7.743021422418e+01 
-9.614555655737e+01 9.761101763057e-01 0.0 
9.761101763057e-01 -2.081032322179e+02 0.0 
0.0 0.0 -9.087463663260e+01 
-8.316588058178e+01 -6.124830592679e+00 0.0 
-6.124830592679e+00 -2.191069030365e+02 0.0 
0.0 0.0 -9.028183508547e+01 
-6.145267153677e+01 -5.088699519446e+00 0.0 
-5.088699519446e+00 -1.441771915599e+02 0.0 
0.0 0.0 -6.128895892900e+01 
-7.860945205993e+01 -6.115624314326e+00 0.0 
-6.115624314326e+00 -2.015001943964e+02 0.0 
0.0 0.0 -8.363289393691e+01 
-1.120322772592e+02 7.893530813442e-01 0.0 
7.893530813442e-01 -2.512163648546e+02 0.0 
0.0 0.0 -1.085745926341e+02 
-6.148115669661e+01 -2.768409502680e+00 0.0 
-2.768409502680e+00 -1.447048904484e+02 0.0 
0.0 0.0 -6.145581414352e+01 
-2.424754864271e+01 -3.173986046259e+00 0.0 
-3.173986046259e+00 -5.474670079945e+01 0.0 
0.0 0.0 -2.329827483265e+01 
-3.360459601321e+01 -4.261666698217e+00 0.0 
-4.261666698217e+00 -7.510551965306e+01 0.0 
0.0 0.0 -3.221303469988e+01 
-5.144523272747e+01 -1.278718487111e+01 0.0 
-1.278718487111e+01 -1.362217561107e+02 0.0 
0.0 0.0 -5.590009665145e+01 
-6.234599588533e+01 -8.745359121448e+00 0.0 
-8.745359121448e+00 -1.538276938500e+02 0.0 
0.0 0.0 -6.445210692060e+01 
-7.652389724966e+01 -4.929676520162e+00 0.0 
-4.929676520162e+00 -2.183441051659e+02 0.0 
0.0 0.0 -8.806040072466e+01 
-8.177972686761e+01 -5.459163710372e+00 0.0 
-5.459163710372e+00 -2.141900357765e+02 0.0 
0.0 0.0 -8.839092879324e+01 
-4.306982425369e+01 -1.161677307103e+01 0.0 
-1.161677307103e+01 -9.507244182016e+01 0.0 
0.0 0.0 -4.066701075115e+01 
-3.151983444630e+01 -1.709412521205e+00 0.0 
-1.709412521205e+00 -7.475808640086e+01 0.0 
0.0 0.0 -3.148337625415e+01 
-9.340778725854e+01 3.483887262434e+00 0.0 
3.483887262434e+00 -1.964607754677e+02 0.0 
0.0 0.0 -8.656056881788e+01 
-5.312188339950e+01 -2.524049068687e+00 0.0 
-2.524049068687e+00 -1.242067036933e+02 0.0 
0.0 0.0 -5.279857612784e+01 
-1.258911487925e+02 9.220738761291e-01 0.0 
9.220738761291e-01 -3.177786270201e+02 0.0 
0.0 0.0 -1.327009327438e+02 
-1.245779966606e+02 1.359209325501e+01 0.0 
1.359209325501e+01 -2.884810830003e+02 0.0 
0.0 0.0 -1.235177238983e+02 
-9.988229577004e+01 7.705509205158e+00 0.0 
7.705509205158e+00 -2.065340508453e+02 0.0 
0.0 0.0 -9.152490398460e+01 
-1.192944393327e+02 3.440722725786e+00 0.0 
3.440722725786e+00 -2.665578112043e+02 0.0 
0.0 0.0 -1.153556751611e+02 
-1.322901065715e+02 1.321020697479e+01 0.0 
1.321020697479e+01 -3.029904403205e+02 0.0 
0.0 0.0 -1.301841640676e+02 
-7.532298688050e+01 1.235635013758e+01 0.0 
1.235635013758e+01 -2.208229748595e+02 0.0 
0.0 0.0 -8.844378852200e+01 
-1.168577876673e+02 1.352915981743e+01 0.0 
1.352915981743e+01 -2.689795646553e+02 0.0 
0.0 0.0 -1.153512056968e+02 
-4.719212815933e+01 -1.449098375758e+01 0.0 
-1.449098375758e+01 -1.131846108598e+02 0.0 
0.0 0.0 -4.739874049807e+01 
-8.271333574286e+01 -5.212463692837e+00 0.0 
-5.212463692837e+00 -2.080913032489e+02 0.0 
0.0 0.0 -8.684139169751e+01 
-7.183967457369e+01 1.691623978361e+01 0.0 
1.691623978361e+01 -1.973258982688e+02 0.0 
0.0 0.0 -8.034967185275e+01 
-3.788703552365e+01 -1.157419610128e+01 0.0 
-1.157419610128e+01 -1.415372211115e+02 0.0 
0.0 0.0 -5.338609430317e+01 
-4.313711214817e+01 -1.452515404603e+01 0.0 
-1.452515404603e+01 -9.111369903832e+01 0.0 
0.0 0.0 -3.851783988500e+01 
-6.976746880550e+01 -6.522496952395e+00 0.0 
-6.522496952395e+00 -1.687221843477e+02 0.0 
0.0 0.0 -7.114689594595e+01 
-7.725447654137e+01 -5.965810878012e+00 0.0 
-5.965810878012e+00 -2.079845463530e+02 0.0 
0.0 0.0 -8.517170686830e+01 
-8.004969034523e+01 -4.475080839623e+00 0.0 
-4.475080839623e+00 -2.199409036560e+02 0.0 
0.0 0.0 -8.959717820038e+01 
-5.665243580211e+01 -4.127801281653e+00 0.0 
-4.127801281653e+00 -1.321078008081e+02 0.0 
0.0 0.0 -5.622807098306e+01 
-8.637042785947e+01 -5.064531150260e+00 0.0 
-5.064531150260e+00 -2.313701848022e+02 0.0 
0.0 0.0 -9.492218379851e+01 
-7.512129413767e+01 -4.278313652493e+00 0.0 
-4.278313652493e+00 -2.137410626901e+02 0.0 
0.0 0.0 -8.625870704832e+01 
-7.489601882817e+01 -1.706394679054e+00 0.0 
-1.706394679054e+00 -2.231959116357e+02 0.0 
0.0 0.0 -8.902757913917e+01 
-6.409019008163e+01 -6.658910157935e+00 0.0 
-6.658910157935e+00 -1.550114630117e+02 0.0 
0.0 0.0 -6.533049592799e+01 
-1.112892154145e+02 8.758270123812e+00 0.0 
8.758270123812e+00 -2.938684681211e+02 0.0 
0.0 0.0 -1.211473050607e+02 
-1.052399181627e+02 3.307920686442e+00 0.0 
3.307920686442e+00 -2.288002401049e+02 0.0 
0.0 0.0 -9.981204748028e+01 
-7.020033848258e+01 -7.976415767172e-02 0.0 
-7.976415767172e-02 -2.166733016344e+02 0.0 
0.0 0.0 -8.566209203510e+01 
-1.355989156966e+02 1.742185755947e+00 0.0 
1.742185755947e+00 -3.364511354253e+02 0.0 
0.0 0.0 -1.412150153366e+02 
-4.870597162678e+01 -1.482895339261e+01 0.0 
-1.482895339261e+01 -1.303193264548e+02 0.0 
0.0 0.0 -5.330758942447e+01 
-1.458302251976e+02 4.210864121237e+00 0.0 
4.210864121237e+00 -3.578914546716e+02 0.0 
0.0 0.0 -1.507165039608e+02 
-8.147182377695e+01 -5.149761742980e+00 0.0 
-5.149761742980e+00 -2.246776687788e+02 0.0 
0.0 0.0 -9.144484776674e+01 
-1.364981398049e+02 1.301427909127e+01 0.0 
1.301427909127e+01 -3.123468124288e+02 0.0 
0.0 0.0 -1.342534856701e+02 
-1.034701667835e+02 1.271753773833e+01 0.0 
1.271753773833e+01 -2.210186534409e+02 0.0 
0.0 0.0 -9.694664606734e+01 
-4.610315007879e+01 -1.416403345203e+01 0.0 
-1.416403345203e+01 -1.157066022639e+02 0.0 
0.0 0.0 -4.814292570282e+01 
-1.038139824717e+02 8.934635487378e+00 0.0 
8.934635487378e+00 -2.167523522405e+02 0.0 
0.0 0.0 -9.576990041367e+01 
-1.232820192781e+02 5.270537500319e+00 0.0 
5.270537500319e+00 -2.752211553719e+02 0.0 
0.0 0.0 -1.191509523950e+02 
-8.475094914099e+01 -3.413773953039e+00 0.0 
-3.413773953039e+00 -2.363583177905e+02 0.0 
0.0 0.0 -9.593278007944e+01 
-5.640500188156e+01 2.275695820816e+01 0.0 
2.275695820816e+01 -1.474536715211e+02 0.0 
0.0 0.0 -6.075760202080e+01 
-1.076383593897e+02 1.015083659391e+01 0.0 
1.015083659391e+01 -2.273054202042e+02 0.0 
0.0 0.0 -1.000831338782e+02 
-8.216684035949e+01 1.566814249643e+01 0.0 
1.566814249643e+01 -1.837560090863e+02 0.0 
0.0 0.0 -7.937685483375e+01 
-4.311015560340e+01 -1.449602943917e+01 0.0 
-1.449602943917e+01 -9.439939060424e+01 0.0 
0.0 0.0 -4.049822946577e+01 
-1.339530260061e+02 4.500648894185e+00 0.0 
4.500648894185e+00 -3.071259188607e+02 0.0 
0.0 0.0 -1.319236834600e+02 
-4.121011488372e+01 -1.165635464976e+01 0.0 
-1.165635464976e+01 -7.948715696273e+01 0.0 
0.0 0.0 -3.513178404445e+01 
-1.408704079229e+02 1.238429778892e+01 0.0 
1.238429778892e+01 -3.457240321446e+02 0.0 
0.0 0.0 -1.455783320202e+02 
-1.231133727271e+02 1.623331526871e+00 0.0 
1.623331526871e+00 -2.800962179134e+02 0.0 
0.0 0.0 -1.205628771922e+02 
-1.160835786483e+02 7.582393957900e+00 0.0 
7.582393957900e+00 -3.034856244561e+02 0.0 
0.0 0.0 -1.254707609313e+02 
-9.205692822396e+01 4.318837263189e-01 0.0 
4.318837263189e-01 -1.988337778814e+02 0.0 
0.0 0.0 -8.686721183161e+01 
-1.168518729559e+02 4.527304228295e+00 0.0 
4.527304228295e+00 -2.580768688832e+02 0.0 
0.0 0.0 -1.120786225517e+02 
-7.785969103886e+01 -1.919582589954e+00 0.0 
-1.919582589954e+00 -2.244004214649e+02 0.0 
0.0 0.0 -9.027803375114e+01 
-8.827749680429e+01 9.887065951764e+00 0.0 
9.887065951764e+00 -2.487486259437e+02 0.0 
0.0 0.0 -1.007078368244e+02 
-1.267038350394e+02 3.991806062824e+00 0.0 
3.991806062824e+00 -2.865265245255e+02 0.0 
0.0 0.0 -1.235691078695e+02 
-1.219610145711e+02 -1.281922280641e+00 0.0 
-1.281922280641e+00 -3.030144837922e+02 0.0 
0.0 0.0 -1.270926495090e+02 
-1.092723003758e+02 3.934037550631e+00 0.0 
3.934037550631e+00 -2.381198024442e+02 0.0 
0.0 0.0 -1.038176308460e+02 
-1.105247348921e+02 2.473233344563e+00 0.0 
2.473233344563e+00 -2.932401082972e+02 0.0 
0.0 0.0 -1.207294529568e+02 
-4.278698902612e+01 -1.589813354480e+01 0.0 
-1.589813354480e+01 -1.112123939881e+02 0.0 
0.0 0.0 -4.579981490426e+01 
-1.132863548399e+02 4.656543953223e+00 0.0 
4.656543953223e+00 -2.474842691009e+02 0.0 
0.0 0.0 -1.078311871822e+02 
-1.478354423000e+02 1.632534022614e+01 0.0 
1.632534022614e+01 -3.442776294397e+02 0.0 
0.0 0.0 -1.472339215219e+02 
-1.460023880182e+02 2.329105192374e+00 0.0 
2.329105192374e+00 -3.559384504488e+02 0.0 
0.0 0.0 -1.501822515401e+02 
-8.000408277166e+01 -6.786666369662e+00 0.0 
-6.786666369662e+00 -2.065994001172e+02 0.0 
0.0 0.0 -8.558104486665e+01 
-9.314800257113e+01 2.288475186331e+00 0.0 
2.288475186331e+00 -1.995464816830e+02 0.0 
0.0 0.0 -8.740834527623e+01 
-8.798191566037e+01 3.955321205000e-01 0.0 
3.955321205000e-01 -1.882527552281e+02 0.0 
0.0 0.0 -8.247040126654e+01 
-8.479480661843e+01 -4.324458253710e+00 0.0 
-4.324458253710e+00 -2.262672441432e+02 0.0 
0.0 0.0 -9.291861522848e+01 
-1.171491154765e+02 -1.330069539482e+00 0.0 
-1.330069539482e+00 -2.954424065042e+02 0.0 
0.0 0.0 -1.233774565942e+02 
-1.214315195205e+02 -2.714541604405e-01 0.0 
-2.714541604405e-01 -3.067590303585e+02 0.0 
0.0 0.0 -1.280571649637e+02 
-2.853058560802e+01 -1.998803147516e+00 0.0 
-1.998803147516e+00 -6.606791859488e+01 0.0 
0.0 0.0 -2.797955126087e+01 
-4.097995299726e+01 1.470741396931e+01 0.0 
1.470741396931e+01 -1.564244626286e+02 0.0 
0.0 0.0 -5.882132468776e+01 
-7.429617092205e+01 2.871128326209e+00 0.0 
2.871128326209e+00 -2.259882238440e+02 0.0 
0.0 0.0 -8.968531842982e+01 
-7.274529500295e+01 -7.273389584028e-01 0.0 
-7.273389584028e-01 -2.175936887612e+02 0.0 
0.0 0.0 -8.670169512925e+01 
-8.005576462309e+01 1.723893857258e+01 0.0 
1.723893857258e+01 -1.923914008031e+02 0.0 
0.0 0.0 -8.133414962787e+01 
-1.314185217632e+02 5.494973896766e+00 0.0 
5.494973896766e+00 -2.976657741053e+02 0.0 
0.0 0.0 -1.283252887606e+02 
-1.278274591630e+02 8.922998271897e+00 0.0 
8.922998271897e+00 -2.857260921451e+02 0.0 
0.0 0.0 -1.236660653924e+02 
-1.240114342929e+02 3.295875668216e+00 0.0 
3.295875668216e+00 -2.806670573662e+02 0.0 
0.0 0.0 -1.210035474977e+02 
-7.260945164905e+01 1.438010279596e+01 0.0 
1.438010279596e+01 -1.437982883621e+02 0.0 
0.0 0.0 -6.452232200335e+01 
-1.160233218605e+02 4.542710956113e+00 0.0 
4.542710956113e+00 -2.551727195376e+02 0.0 
0.0 0.0 -1.109588124194e+02 
-1.191886721633e+02 -2.224493447733e-02 0.0 
-2.224493447733e-02 -2.965915736992e+02 0.0 
0.0 0.0 -1.243340737588e+02 
-1.265847327212e+02 3.003895280322e+00 0.0 
3.003895280322e+00 -2.879060515731e+02 0.0 
0.0 0.0 -1.239472352883e+02 
-1.096844108998e+02 4.766798249139e+00 0.0 
4.766798249139e+00 -2.369344191130e+02 0.0 
0.0 0.0 -1.035856490038e+02 
-8.614500437277e+01 -4.790843440398e+00 0.0 
-4.790843440398e+00 -2.206652322432e+02 0.0 
0.0 0.0 -9.164307098480e+01 
-7.018031973128e+01 5.289195301561e+00 0.0 
5.289195301561e+00 -2.181860379992e+02 0.0 
0.0 0.0 -8.610990731914e+01 
-1.118137704520e+02 2.816182885975e+00 0.0 
2.816182885975e+00 -2.465503745074e+02 0.0 
0.0 0.0 -1.071092434878e+02 
-1.242522467158e+02 5.094323715571e+00 0.0 
5.094323715571e+00 -2.781015952085e+02 0.0 
0.0 0.0 -1.203061525773e+02 
-1.117462070312e+02 2.037175296943e+00 0.0 
2.037175296943e+00 -2.479018705382e+02 0.0 
0.0 0.0 -1.074944232708e+02 
-1.079347218624e+02 2.124831657040e+00 0.0 
2.124831657040e+00 -2.372490824891e+02 0.0 
0.0 0.0 -1.031551413054e+02 
-1.357147483527e+02 3.785532260053e-01 0.0 
3.785532260053e-01 -3.333490731574e+02 0.0 
0.0 0.0 -1.403191464530e+02 
-1.362882871288e+02 1.311533785920e+01 0.0 
1.311533785920e+01 -3.351536795550e+02 0.0 
0.0 0.0 -1.410325900051e+02 
-1.308655679172e+02 6.043272181582e-01 0.0 
6.043272181582e-01 -3.255744732440e+02 0.0 
0.0 0.0 -1.365320123484e+02 
-1.043519820905e+02 -3.273908184635e+00 0.0 
-3.273908184635e+00 -2.646782194639e+02 0.0 
0.0 0.0 -1.103090604663e+02 
-6.728941004012e+01 5.635432647226e+00 0.0 
5.635432647226e+00 -1.286867568741e+02 0.0 
0.0 0.0 -5.839285007427e+01 
-1.208357150048e+02 9.176942717558e+00 0.0 
9.176942717558e+00 -3.116589512841e+02 0.0 
0.0 0.0 -1.293483998867e+02 
-1.090563906261e+02 4.815738626165e+00 0.0 
4.815738626165e+00 -2.349343589655e+02 0.0 
0.0 0.0 -1.027972248775e+02 
-4.831356263329e+01 -3.898652522606e+00 0.0 
-3.898652522606e+00 -1.118795784124e+02 0.0 
0.0 0.0 -4.765794231369e+01 
-7.590361004527e+01 2.241637378152e+00 0.0 
2.241637378152e+00 -2.265233285551e+02 0.0 
0.0 0.0 -9.032808158010e+01 
-8.750300280104e+01 1.878903688424e+00 0.0 
1.878903688424e+00 -2.501646415972e+02 0.0 
0.0 0.0 -1.009002933195e+02 
-9.739422300990e+01 9.948524184999e+00 0.0 
9.948524184999e+00 -2.660885634064e+02 0.0 
0.0 0.0 -1.086448359249e+02 
-3.526532249572e+01 -1.893844658750e+00 0.0 
-1.893844658750e+00 -1.522358788888e+02 0.0 
0.0 0.0 -5.569939039555e+01 
-7.097765788424e+01 4.370204365651e+00 0.0 
4.370204365651e+00 -2.183012445745e+02 0.0 
0.0 0.0 -8.638367073764e+01 
-1.066844213417e+02 1.008935147634e+01 0.0 
1.008935147634e+01 -2.837355715311e+02 0.0 
0.0 0.0 -1.167259978619e+02 
-7.971526788974e+01 8.423793056727e+00 0.0 
8.423793056727e+00 -1.598737688093e+02 0.0 
0.0 0.0 -7.147671100972e+01 
-8.781823787386e+01 -5.582047372212e+00 0.0 
-5.582047372212e+00 -2.260718179482e+02 0.0 
0.0 0.0 -9.376701674661e+01 
-1.018747426500e+02 4.085372585242e+00 0.0 
4.085372585242e+00 -2.168952217359e+02 0.0 
0.0 0.0 -9.523098931577e+01 
-7.522043273856e+01 -2.088749992798e-01 0.0 
-2.088749992798e-01 -1.582469377125e+02 0.0 
0.0 0.0 -6.964021113532e+01 
-3.113151325890e+01 2.325932024851e+01 0.0 
2.325932024851e+01 -2.588801674654e+01 0.0 
0.0 0.0 -1.581467090556e+01 
-1.021442167461e+02 -2.251849935224e+00 0.0 
-2.251849935224e+00 -2.587621627064e+02 0.0 
0.0 0.0 -1.078719138357e+02 
-1.200830903094e+02 5.773174670073e+00 0.0 
5.773174670073e+00 -3.121244252561e+02 0.0 
0.0 0.0 -1.292622546696e+02 
-1.311338273452e+02 8.434610173876e+00 0.0 
8.434610173876e+00 -2.951606016987e+02 0.0 
0.0 0.0 -1.274883287132e+02 
-8.374897851350e+01 7.897009507194e+00 0.0 
7.897009507194e+00 -2.419418400736e+02 0.0 
0.0 0.0 -9.730724557612e+01 
-9.594186658536e+01 -4.403345070190e+00 0.0 
-4.403345070190e+00 -2.454247076051e+02 0.0 
0.0 0.0 -1.020099722571e+02 
-1.014273792248e+02 3.338507188737e+00 0.0 
3.338507188737e+00 -2.182091547185e+02 0.0 
0.0 0.0 -9.549096018299e+01 
-3.176658948404e+01 1.876368158652e+01 0.0 
1.876368158652e+01 -2.390408999114e+01 0.0 
0.0 0.0 -1.511491839389e+01 
-1.154477684124e+02 6.879202188882e+00 0.0 
6.879202188882e+00 -3.030643889105e+02 0.0 
0.0 0.0 -1.251536471969e+02 
-9.270520660816e+01 8.009048437633e+00 0.0 
8.009048437633e+00 -2.588552906870e+02 0.0 
0.0 0.0 -1.050681491886e+02 
-8.487915739712e+01 1.039411917172e+01 0.0 
1.039411917172e+01 -1.697839803760e+02 0.0 
0.0 0.0 -7.599894133195e+01 
-1.233352387172e+02 9.459672525584e-01 0.0 
9.459672525584e-01 -3.078292100313e+02 0.0 
0.0 0.0 -1.289493346245e+02 
-4.499835293769e+01 -1.359766993053e+01 0.0 
-1.359766993053e+01 -1.442450071994e+02 0.0 
0.0 0.0 -5.637300804114e+01 
-1.276257115217e+02 2.066037970056e+00 0.0 
2.066037970056e+00 -3.187629061601e+02 0.0 
0.0 0.0 -1.335165853045e+02 
-1.405521674648e+02 2.890822039682e+00 0.0 
2.890822039682e+00 -3.471615199183e+02 0.0 
0.0 0.0 -1.459141062149e+02 
-1.110475845181e+02 8.117463151046e+00 0.0 
8.117463151046e+00 -2.936283992115e+02 0.0 
0.0 0.0 -1.210027951189e+02 
-1.129540092979e+02 3.832599523441e+00 0.0 
3.832599523441e+00 -2.487229151636e+02 0.0 
0.0 0.0 -1.081030773385e+02 
-1.234963323889e+02 1.565498099517e+01 0.0 
1.565498099517e+01 -2.938962030009e+02 0.0 
0.0 0.0 -1.248177606170e+02 
-1.418328802380e+02 4.181264671842e+00 0.0 
4.181264671842e+00 -3.479403230215e+02 0.0 
0.0 0.0 -1.465319609778e+02 
-2.324693594224e+01 8.719939427204e+00 0.0 
8.719939427204e+00 -2.621340150633e+01 0.0 
0.0 0.0 -1.443810123457e+01 
-1.055993907734e+02 3.991651866036e+00 0.0 
3.991651866036e+00 -2.275389701271e+02 0.0 
0.0 0.0 -9.954150827016e+01 
-1.364983280118e+02 1.462086872978e+01 0.0 
1.462086872978e+01 -3.308831545823e+02 0.0 
0.0 0.0 -1.398144447782e+02 
-1.155185643655e+02 2.700253491295e+00 0.0 
2.700253491295e+00 -2.572003111486e+02 0.0 
0.0 0.0 -1.114156626542e+02 
-1.017700241724e+02 7.968728637826e+00 0.0 
7.968728637826e+00 -2.760682149761e+02 0.0 
0.0 0.0 -1.129514717445e+02 
-7.489024590551e+01 7.354318941728e+00 0.0 
7.354318941728e+00 -2.253216985813e+02 0.0 
0.0 0.0 -8.966358334603e+01 
-9.736486040759e+01 -3.834913028515e+00 0.0 
-3.834913028515e+00 -2.365421579942e+02 0.0 
0.0 0.0 -9.977210552053e+01 
-2.555859616965e+01 7.224268450930e+00 0.0 
7.224268450930e+00 -1.311936597135e+02 0.0 
0.0 0.0 -4.837839314130e+01 
-1.192527665303e+02 2.532208932201e+00 0.0 
2.532208932201e+00 -2.678615186375e+02 0.0 
0.0 0.0 -1.157342855503e+02 
-5.179230963506e+01 -3.366354132906e+00 0.0 
-3.366354132906e+00 -1.204709791532e+02 0.0 
0.0 0.0 -5.127898663649e+01 
-2.945673444446e+01 6.171753253978e+00 0.0 
6.171753253978e+00 -4.335003935473e+01 0.0 
0.0 0.0 -2.144203213976e+01 
-1.199032295198e+02 1.569074617255e+01 0.0 
1.569074617255e+01 -2.815810536751e+02 0.0 
0.0 0.0 -1.200452849585e+02 
-1.269724563787e+02 2.180041345512e+00 0.0 
2.180041345512e+00 -2.898070175489e+02 0.0 
0.0 0.0 -1.246338421783e+02 
-4.594432007354e+01 -1.689111058469e+01 0.0 
-1.689111058469e+01 -1.289730451193e+02 0.0 
0.0 0.0 -5.148493104173e+01 
-9.314747297555e+01 1.652876064471e+01 0.0 
1.652876064471e+01 -2.101666715369e+02 0.0 
0.0 0.0 -9.059424335372e+01 
-1.081401248523e+02 2.875577756438e+00 0.0 
2.875577756438e+00 -2.359664000369e+02 0.0 
0.0 0.0 -1.028319574668e+02 
-9.471317268320e+01 -3.356323635836e+00 0.0 
-3.356323635836e+00 -2.346943418161e+02 0.0 
0.0 0.0 -9.842225434978e+01 
-3.896602118853e+01 -6.128292601142e+00 0.0 
-6.128292601142e+00 -1.530633322878e+02 0.0 
0.0 0.0 -5.720880604291e+01 
-5.485318110970e+01 2.191608175216e+01 0.0 
2.191608175216e+01 -1.461783176928e+02 0.0 
0.0 0.0 -5.990944964075e+01 
-4.187275065439e+01 -1.630655677447e+01 0.0 
-1.630655677447e+01 -9.025135034010e+01 0.0 
0.0 0.0 -3.818594806240e+01 
-3.833050749549e+01 -1.523166331602e+01 0.0 
-1.523166331602e+01 -1.261404949085e+02 0.0 
0.0 0.0 -4.894130072121e+01 
-3.916561986932e+01 -1.705526986278e+01 0.0 
-1.705526986278e+01 -1.084380486624e+02 0.0 
0.0 0.0 -4.366570606907e+01 
-9.267232320216e+01 7.897309385694e+00 0.0 
7.897309385694e+00 -2.588175084345e+02 0.0 
0.0 0.0 -1.050469494910e+02 
-1.448200881283e+02 8.175630104825e+00 0.0 
8.175630104825e+00 -3.336080075218e+02 0.0 
0.0 0.0 -1.431284286950e+02 
-3.726255042539e+01 4.711240471494e+00 0.0 
4.711240471494e+00 -6.195720679314e+01 0.0 
0.0 0.0 -2.936592716556e+01 
-1.405108482498e+02 2.342732175264e-01 0.0 
2.342732175264e-01 -3.411163146321e+02 0.0 
0.0 0.0 -1.440881488646e+02 
-6.334269178150e+01 1.131157267510e+01 0.0 
1.131157267510e+01 -2.000086801579e+02 0.0 
0.0 0.0 -7.860541158183e+01 
-1.060914016021e+02 4.892939154720e+00 0.0 
4.892939154720e+00 -2.265721664334e+02 0.0 
0.0 0.0 -9.939907041067e+01 
-2.814533001492e+01 4.910761587131e+00 0.0 
4.910761587131e+00 -1.391019379305e+02 0.0 
0.0 0.0 -5.159494755570e+01 
-1.467206472948e+02 5.361294398158e+00 0.0 
5.361294398158e+00 -3.581786021470e+02 0.0 
0.0 0.0 -1.510697748325e+02 
-4.641223571778e+01 -1.755291720064e+01 0.0 
-1.755291720064e+01 -1.110581635021e+02 0.0 
0.0 0.0 -4.557678611059e+01 
-6.060077035189e+01 -3.504955038108e+00 0.0 
-3.504955038108e+00 -1.412357421255e+02 0.0 
0.0 0.0 -6.015095374321e+01 
-1.162018848609e+02 9.496702798265e+00 0.0 
9.496702798265e+00 -3.014691234047e+02 0.0 
0.0 0.0 -1.249013024797e+02 
-8.289413786834e+01 -2.570310264515e+00 0.0 
-2.570310264515e+00 -2.310327704675e+02 0.0 
0.0 0.0 -9.377807250075e+01 
-1.316140353885e+02 1.380599530433e+01 0.0 
1.380599530433e+01 -3.239350588884e+02 0.0 
0.0 0.0 -1.362647282831e+02 
-6.116105240446e+01 2.166903688100e+01 0.0 
2.166903688100e+01 -1.374715965549e+02 0.0 
0.0 0.0 -5.918979468779e+01 
-1.141876359133e+02 6.632519439343e+00 0.0 
6.632519439343e+00 -2.460482799642e+02 0.0 
0.0 0.0 -1.076707747632e+02 
-1.407675800179e+02 1.109036092312e+01 0.0 
1.109036092312e+01 -3.453970231992e+02 0.0 
0.0 0.0 -1.454493809651e+02 
-1.041367003567e+02 2.150846809520e+00 0.0 
2.150846809520e+00 -2.266249231727e+02 0.0 
0.0 0.0 -9.882848705883e+01 
-1.324551228954e+02 1.047108428776e+01 0.0 
1.047108428776e+01 -2.961583571407e+02 0.0 
0.0 0.0 -1.281840440108e+02 
-1.171972096598e+02 5.436009014015e+00 0.0 
5.436009014015e+00 -2.568738323676e+02 0.0 
0.0 0.0 -1.118213126082e+02 
-1.210626670946e+02 6.276062682805e+00 0.0 
6.276062682805e+00 -2.664799130449e+02 0.0 
0.0 0.0 -1.158627740418e+02 
-3.573954748309e+01 2.266663424728e+01 0.0 
2.266663424728e+01 -1.300782650419e+02 0.0 
0.0 0.0 -4.929639296031e+01 
-1.357720015990e+02 -4.584301436927e-01 0.0 
-4.584301436927e-01 -3.297181923941e+02 0.0 
0.0 0.0 -1.392470581979e+02 
-1.121319518965e+02 3.688418043155e+00 0.0 
3.688418043155e+00 -2.455264468135e+02 0.0 
0.0 0.0 -1.068975196130e+02 
-8.235259892888e+01 1.382322131488e+01 0.0 
1.382322131488e+01 -2.269012601277e+02 0.0 
0.0 0.0 -9.237615771697e+01 
-4.545125997417e+01 3.389438040939e+00 0.0 
3.389438040939e+00 -8.091973494217e+01 0.0 
0.0 0.0 -3.751129847490e+01 
-1.463252065426e+02 1.356003574589e+01 0.0 
1.356003574589e+01 -3.535271381905e+02 0.0 
0.0 0.0 -1.495557034199e+02 
-3.610067081522e+01 1.035484217843e+01 0.0 
1.035484217843e+01 -1.536860569438e+02 0.0 
0.0 0.0 -5.653601832770e+01 
-5.671081452044e+01 -1.788247098546e+00 0.0 
-1.788247098546e+00 -1.326172258469e+02 0.0 
0.0 0.0 -5.639841211020e+01 
-1.266023225991e+02 1.159787208841e+01 0.0 
1.159787208841e+01 -3.164480553208e+02 0.0 
0.0 0.0 -1.325151133760e+02 
-3.235696701023e+01 6.665544353021e-01 0.0 
6.665544353021e-01 -7.999066027340e+01 0.0 
0.0 0.0 -3.330428818509e+01 
-8.537022862867e+01 1.804863194203e+01 0.0 
1.804863194203e+01 -2.108868639002e+02 0.0 
0.0 0.0 -8.847712775866e+01 
-1.204953433503e+02 8.361176805058e+00 0.0 
8.361176805058e+00 -3.113584015776e+02 0.0 
0.0 0.0 -1.291561234784e+02 
-1.278734322243e+02 6.800168383591e+00 0.0 
6.800168383591e+00 -2.859050920746e+02 0.0 
0.0 0.0 -1.237335572897e+02 
-1.316628174734e+02 7.776593697366e+00 0.0 
7.776593697366e+00 -2.961247824222e+02 0.0 
0.0 0.0 -1.279362799687e+02 
-1.161470757767e+02 1.031242792807e+01 0.0 
1.031242792807e+01 -3.016159025095e+02 0.0 
0.0 0.0 -1.249288934859e+02 
-1.206889873705e+02 5.286012874475e+00 0.0 
5.286012874475e+00 -2.674660854525e+02 0.0 
0.0 0.0 -1.160465218469e+02 
-6.872558486065e+01 1.343890164506e+01 0.0 
1.343890164506e+01 -2.051157105856e+02 0.0 
0.0 0.0 -8.175238863388e+01 
-1.211026803605e+02 1.521742263472e+01 0.0 
1.521742263472e+01 -2.766576926305e+02 0.0 
0.0 0.0 -1.189281118973e+02 
-5.379894439346e+01 2.449830718847e+00 0.0 
2.449830718847e+00 -1.001175468362e+02 0.0 
0.0 0.0 -4.577494736891e+01 
-1.314975070690e+02 1.115069389240e+01 0.0 
1.115069389240e+01 -2.973974943003e+02 0.0 
0.0 0.0 -1.282685004108e+02 
-6.191516960387e+01 1.939012998340e+00 0.0 
1.939012998340e+00 -1.192985892483e+02 0.0 
0.0 0.0 -5.396412765565e+01 
-6.644782049993e+01 1.900255434392e+00 0.0 
1.900255434392e+00 -1.288944291229e+02 0.0 
0.0 0.0 -5.820267488685e+01 
-8.016044653809e+01 1.015609169318e+01 0.0 
1.015609169318e+01 -2.321979843999e+02 0.0 
0.0 0.0 -9.330752928139e+01 
-6.999662935051e+01 1.582389692088e+00 0.0 
1.582389692088e+00 -1.387013453361e+02 0.0 
0.0 0.0 -6.220939240599e+01 
-9.626380887129e+01 1.633338503202e+01 0.0 
1.633338503202e+01 -2.427437680618e+02 0.0 
0.0 0.0 -1.013022730799e+02 
-7.433796788551e+01 1.808511116897e+01 0.0 
1.808511116897e+01 -2.005950051625e+02 0.0 
0.0 0.0 -8.207989191440e+01 
-7.955879414108e+01 5.096432375123e+00 0.0 
5.096432375123e+00 -2.345209173464e+02 0.0 
0.0 0.0 -9.382391344623e+01 
-3.368547832358e+01 -8.424704668019e+00 0.0 
-8.424704668019e+00 -1.407194665921e+02 0.0 
0.0 0.0 -5.156194818606e+01 
-7.501217510807e+01 7.974558245947e+00 0.0 
7.974558245947e+00 -2.255082041292e+02 0.0 
0.0 0.0 -8.975611377117e+01 
-1.229302043308e+02 3.265958238435e+00 0.0 
3.265958238435e+00 -2.772275220163e+02 0.0 
0.0 0.0 -1.196473179041e+02 
-1.323261614722e+02 9.775273401518e+00 0.0 
9.775273401518e+00 -2.982260162133e+02 0.0 
0.0 0.0 -1.287656533056e+02 
-1.266702436255e+02 -1.185385850984e+00 0.0 
-1.185385850984e+00 -3.106383629941e+02 0.0 
0.0 0.0 -1.307925819859e+02 
-1.360661026022e+02 1.179282675710e+01 0.0 
1.179282675710e+01 -3.347775502377e+02 0.0 
0.0 0.0 -1.408530958520e+02 
-7.976500625616e+01 -2.794418481241e+00 0.0 
-2.794418481241e+00 -2.296572070691e+02 0.0 
0.0 0.0 -9.242666399757e+01 
-1.195436089611e+02 4.386172812456e+00 0.0 
4.386172812456e+00 -2.655073648222e+02 0.0 
0.0 0.0 -1.151152921350e+02 
-7.883267347553e+01 5.564530308346e+00 0.0 
5.564530308346e+00 -2.343132274104e+02 0.0 
0.0 0.0 -9.354377026579e+01 
-1.403780000333e+02 -4.893013189459e-01 0.0 
-4.893013189459e-01 -3.374919716881e+02 0.0 
0.0 0.0 -1.429609915164e+02 
-1.156705357305e+02 3.597879474288e+00 0.0 
3.597879474288e+00 -2.559144628741e+02 0.0 
0.0 0.0 -1.110754995814e+02 
-1.176327460958e+02 6.460329906773e+00 0.0 
6.460329906773e+00 -2.561985590804e+02 0.0 
0.0 0.0 -1.117493915529e+02 
-1.059980879163e+02 6.506748357945e+00 0.0 
6.506748357945e+00 -2.853882747956e+02 0.0 
0.0 0.0 -1.170159088136e+02 
-7.163496616812e+01 1.065489062575e+01 0.0 
1.065489062575e+01 -2.158503819280e+02 0.0 
0.0 0.0 -8.584560442883e+01 
-1.287430579276e+02 1.526549083748e+01 0.0 
1.526549083748e+01 -2.958842190982e+02 0.0 
0.0 0.0 -1.269881831077e+02 
-1.027724776191e+02 1.019857502069e+01 0.0 
1.019857502069e+01 -2.202342309493e+02 0.0 
0.0 0.0 -9.650201257051e+01 
-3.961079532780e+01 -1.243283868068e+01 0.0 
-1.243283868068e+01 -1.428341771665e+02 0.0 
0.0 0.0 -5.431961773086e+01 
-3.532664362968e+01 5.846116481819e+00 0.0 
5.846116481819e+00 -1.521220774676e+02 0.0 
0.0 0.0 -5.569040268115e+01 
-6.540481413158e+01 1.937491186064e+01 0.0 
1.937491186064e+01 -1.532454893226e+02 0.0 
0.0 0.0 -6.519509103626e+01 
-9.408312055705e+01 1.406850235807e+01 0.0 
1.406850235807e+01 -2.100719037251e+02 0.0 
0.0 0.0 -9.084650728465e+01 
-1.448592936583e+02 -5.312529405728e-01 0.0 
-5.312529405728e-01 -3.455195812649e+02 0.0 
0.0 0.0 -1.467136624769e+02 
-1.136751875167e+02 5.595377009320e+00 0.0 
5.595377009320e+00 -2.465074743099e+02 0.0 
0.0 0.0 -1.076547985480e+02 
-7.056433335113e+01 9.998268181320e+00 0.0 
9.998268181320e+00 -2.152527679756e+02 0.0 
0.0 0.0 -8.534513039801e+01 
-1.054873934980e+02 1.532302508665e+01 0.0 
1.532302508665e+01 -2.370442799147e+02 0.0 
0.0 0.0 -1.023595020238e+02 
-1.251119823222e+02 7.302628045223e+00 0.0 
7.302628045223e+00 -3.209914449781e+02 0.0 
0.0 0.0 -1.334310281901e+02 
-1.204563676666e+02 4.354346986297e+00 0.0 
4.354346986297e+00 -2.686929834945e+02 0.0 
0.0 0.0 -1.163448053483e+02 
-1.326605137458e+02 1.500661571468e+01 0.0 
1.500661571468e+01 -3.034248085847e+02 0.0 
0.0 0.0 -1.304255966992e+02 
-1.008468894211e+02 2.991888295150e+00 0.0 
2.991888295150e+00 -2.153646510757e+02 0.0 
0.0 0.0 -9.446346214904e+01 
-1.304768801236e+02 4.151182510227e+00 0.0 
4.151182510227e+00 -3.305839553626e+02 0.0 
0.0 0.0 -1.379182506459e+02 
-8.371165739631e+01 7.676880358383e+00 0.0 
7.676880358383e+00 -2.418785480935e+02 0.0 
0.0 0.0 -9.727706164694e+01 
-1.257544411808e+02 8.162355541159e+00 0.0 
8.162355541159e+00 -3.213791250548e+02 0.0 
0.0 0.0 -1.337400698707e+02 
-8.759820579985e+01 1.626815949877e+01 0.0 
1.626815949877e+01 -2.114505687986e+02 0.0 
0.0 0.0 -8.931463237953e+01 
-1.277831926587e+02 5.770446163076e+00 0.0 
5.770446163076e+00 -2.872473787300e+02 0.0 
0.0 0.0 -1.241091714166e+02 
-1.376468842647e+02 1.522564278117e+01 0.0 
1.522564278117e+01 -3.130316961117e+02 0.0 
0.0 0.0 -1.348035741129e+02 
-9.675286351957e+01 6.169786402433e+00 0.0 
6.169786402433e+00 -2.679891888445e+02 0.0 
0.0 0.0 -1.090226157092e+02 
-3.273884480854e+01 4.305220080369e+00 0.0 
4.305220080369e+00 -1.486822331853e+02 0.0 
0.0 0.0 -5.389111119794e+01 
-1.274293854330e+02 1.376380584612e+01 0.0 
1.376380584612e+01 -3.057032822997e+02 0.0 
0.0 0.0 -1.295398003198e+02 
-9.335362306152e+01 1.711424225806e+01 0.0 
1.711424225806e+01 -2.298756662417e+02 0.0 
0.0 0.0 -9.656878679095e+01 
-6.668930878771e+01 1.291468111884e+01 0.0 
1.291468111884e+01 -2.041360679201e+02 0.0 
0.0 0.0 -8.084761301233e+01 
-1.018966419243e+02 8.362988476685e+00 0.0 
8.362988476685e+00 -2.762063103857e+02 0.0 
0.0 0.0 -1.130308856930e+02 
-1.270770844237e+02 3.759564154427e+00 0.0 
3.759564154427e+00 -3.212565160988e+02 0.0 
0.0 0.0 -1.341000801568e+02 
-3.407218499329e+01 -1.057804484896e+00 0.0 
-1.057804484896e+00 -1.479605705808e+02 0.0 
0.0 0.0 -5.389246462529e+01 
-8.770305405740e+01 5.863587313593e+00 0.0 
5.863587313593e+00 -2.509501205551e+02 0.0 
0.0 0.0 -1.011959523837e+02 
-1.062515501584e+02 7.821837222941e+00 0.0 
7.821837222941e+00 -2.262688428923e+02 0.0 
0.0 0.0 -9.935611791520e+01 
-1.457520679019e+02 1.044092428025e+00 0.0 
1.044092428025e+00 -3.462142402393e+02 0.0 
0.0 0.0 -1.471898924424e+02 
-1.101064001347e+02 9.023126823884e+00 0.0 
9.023126823884e+00 -2.371640261838e+02 0.0 
0.0 0.0 -1.037811278956e+02 
-1.238006326383e+02 1.388224154781e+01 0.0 
1.388224154781e+01 -2.936560786228e+02 0.0 
0.0 0.0 -1.248370133784e+02 
-1.022652863452e+02 6.621063345393e+00 0.0 
6.621063345393e+00 -2.156578569087e+02 0.0 
0.0 0.0 -9.497694297618e+01 
-9.374706964600e+01 4.213541695411e+00 0.0 
4.213541695411e+00 -1.951929180818e+02 0.0 
0.0 0.0 -8.628199631833e+01 
-1.064120851859e+02 1.132779478704e+01 0.0 
1.132779478704e+01 -2.321019742032e+02 0.0 
0.0 0.0 -1.011542178167e+02 
-1.309274827885e+02 1.074333849700e+01 0.0 
1.074333849700e+01 -3.272095503226e+02 0.0 
0.0 0.0 -1.370411099333e+02 
-1.326606083815e+02 9.504814843399e-01 0.0 
9.504814843399e-01 -3.230582862639e+02 0.0 
0.0 0.0 -1.363156683936e+02 
-1.085680105782e+02 3.806166554460e+00 0.0 
3.806166554460e+00 -2.352712096658e+02 0.0 
0.0 0.0 -1.027517660732e+02 
-1.304160165896e+02 6.046534639599e+00 0.0 
6.046534639599e+00 -2.952840312085e+02 0.0 
0.0 0.0 -1.273100143394e+02 
-9.819146096736e+01 5.423421296148e+00 0.0 
5.423421296148e+00 -2.053700199252e+02 0.0 
0.0 0.0 -9.066844426775e+01 
-5.370767980783e+01 1.047943399199e+01 0.0 
1.047943399199e+01 -1.836758376225e+02 0.0 
0.0 0.0 -7.081505522911e+01 
-1.320006791370e+02 1.570326925955e+01 0.0 
1.570326925955e+01 -3.130630750188e+02 0.0 
0.0 0.0 -1.331191262467e+02 
-1.278696432131e+02 4.932549247302e+00 0.0 
4.932549247302e+00 -2.887717650331e+02 0.0 
0.0 0.0 -1.245924224739e+02 
-8.499717531907e+01 1.590716645629e+01 0.0 
1.590716645629e+01 -2.195410425000e+02 0.0 
0.0 0.0 -9.096146534573e+01 
-9.022403657422e+01 1.579704803422e+01 0.0 
1.579704803422e+01 -2.247609152117e+02 0.0 
0.0 0.0 -9.409548553577e+01 
-6.201707746697e+01 1.018983439690e+01 0.0 
1.018983439690e+01 -1.991957298593e+02 0.0 
0.0 0.0 -7.796384219789e+01 
-1.125262984154e+02 4.672076967008e+00 0.0 
4.672076967008e+00 -2.449703417080e+02 0.0 
0.0 0.0 -1.068489920370e+02 
-7.155827610385e+01 1.463844012293e+01 0.0 
1.463844012293e+01 -1.491597205896e+02 0.0 
0.0 0.0 -6.581539900803e+01 
-1.010785595059e+02 1.410867205023e+01 0.0 
1.410867205023e+01 -2.556279353209e+02 0.0 
0.0 0.0 -1.066119484480e+02 
-7.101377868098e+01 1.794089302110e+01 0.0 
1.794089302110e+01 -1.495712497453e+02 0.0 
0.0 0.0 -6.577550852787e+01 
-1.214153882390e+02 1.064521559023e+01 0.0 
1.064521559023e+01 -3.090498404239e+02 0.0 
0.0 0.0 -1.287395685989e+02 
-1.404666113511e+02 1.575820262148e+01 0.0 
1.575820262148e+01 -3.314729467851e+02 0.0 
0.0 0.0 -1.411818674409e+02 
-6.629904944247e+01 7.049364915346e+00 0.0 
7.049364915346e+00 -2.092696965488e+02 0.0 
0.0 0.0 -8.227062379738e+01 
-2.660082148324e+01 -5.371104255980e+00 0.0 
-5.371104255980e+00 -1.275940147569e+02 0.0 
0.0 0.0 -4.745229334698e+01 
-1.307569801766e+02 7.251018953274e+00 0.0 
7.251018953274e+00 -2.952281328209e+02 0.0 
0.0 0.0 -1.273955338993e+02 
-7.570536616701e+01 1.294288547538e+01 0.0 
1.294288547538e+01 -1.560454570912e+02 0.0 
0.0 0.0 -6.912524697746e+01 
-8.342324372513e+01 -4.710648126786e-01 0.0 
-4.710648126786e-01 -2.402759632354e+02 0.0 
0.0 0.0 -9.670976208817e+01 
-1.361580746311e+02 1.390055414358e+01 0.0 
1.390055414358e+01 -3.248653267835e+02 0.0 
0.0 0.0 -1.379070204244e+02 
-1.101625014154e+02 5.728153935887e+00 0.0 
5.728153935887e+00 -2.362768195965e+02 0.0 
0.0 0.0 -1.035317963036e+02 
-1.280552422340e+02 9.267766438599e-01 0.0 
9.267766438599e-01 -3.154409480503e+02 0.0 
0.0 0.0 -1.326488570853e+02 
-6.879470685086e+01 1.733122710267e+01 0.0 
1.733122710267e+01 -1.961243426552e+02 0.0 
0.0 0.0 -7.907571485181e+01 
-2.431999891380e+01 -3.005027451156e+00 0.0 
-3.005027451156e+00 -1.248479717899e+02 0.0 
0.0 0.0 -4.686890903743e+01 
-1.500770896466e+02 1.105689004479e+00 0.0 
1.105689004479e+00 -3.553153516389e+02 0.0 
0.0 0.0 -1.512177323857e+02 
-9.713646776678e+01 1.465949173824e+01 0.0 
1.465949173824e+01 -2.232000256695e+02 0.0 
0.0 0.0 -9.570094803090e+01 
-1.125476474641e+02 1.381842698993e+01 0.0 
1.381842698993e+01 -2.861901108974e+02 0.0 
0.0 0.0 -1.192213275084e+02 
-1.324619676740e+02 1.391548213525e+01 0.0 
1.391548213525e+01 -3.081782526742e+02 0.0 
0.0 0.0 -1.317920661044e+02 
-3.769869379962e+01 -6.822174415012e-01 0.0 
-6.822174415012e-01 -1.242636950810e+02 0.0 
0.0 0.0 -5.044219088887e+01 
-1.263168006384e+02 -4.043166129228e-01 0.0 
-4.043166129228e-01 -3.144094942225e+02 0.0 
0.0 0.0 -1.318178884583e+02 
-4.555486117070e+01 2.214007231370e+01 0.0 
2.214007231370e+01 -1.431429880006e+02 0.0 
0.0 0.0 -5.620935475140e+01 
-1.025888985806e+02 4.945580943272e+00 0.0 
4.945580943272e+00 -2.164224583855e+02 0.0 
0.0 0.0 -9.530340708983e+01 
-1.028155088068e+02 -2.380117588265e+00 0.0 
-2.380117588265e+00 -2.540848847056e+02 0.0 
0.0 0.0 -1.066701180537e+02 
-6.650119640823e+01 8.141510588312e+00 0.0 
8.141510588312e+00 -2.096145588902e+02 0.0 
0.0 0.0 -8.243472658953e+01 
-1.414497768140e+02 9.903470872305e-01 0.0 
9.903470872305e-01 -3.382728753790e+02 0.0 
0.0 0.0 -1.435167956579e+02 
-9.810543090149e+01 1.493628367118e+01 0.0 
1.493628367118e+01 -2.432197625018e+02 0.0 
0.0 0.0 -1.019975580210e+02 
-5.823330946703e+01 8.408306731907e+00 0.0 
8.408306731907e+00 -1.943287467420e+02 0.0 
0.0 0.0 -7.536861686271e+01 
-1.007931114240e+02 1.609611691343e+01 0.0 
1.609611691343e+01 -2.299147781577e+02 0.0 
0.0 0.0 -9.881236687452e+01 
-3.081152950484e+01 -1.813990426886e+01 0.0 
-1.813990426886e+01 -1.221114067666e+02 0.0 
0.0 0.0 -4.698522751460e+01 
-1.165261593749e+02 1.556389708201e+01 0.0 
1.556389708201e+01 -2.692365261513e+02 0.0 
0.0 0.0 -1.153288056578e+02 
-1.211954945179e+02 1.166300336230e+01 0.0 
1.166300336230e+01 -3.091748001705e+02 0.0 
0.0 0.0 -1.287110884065e+02 
-1.393954230745e+02 1.434546430028e+01 0.0 
1.434546430028e+01 -3.180911575834e+02 0.0 
0.0 0.0 -1.368459741974e+02 
-1.245787701020e+02 1.554611120637e+01 0.0 
1.554611120637e+01 -2.888679275919e+02 0.0 
0.0 0.0 -1.236340093082e+02 
-4.215167447286e+01 6.098858487104e+00 0.0 
6.098858487104e+00 -1.651215597007e+02 0.0 
0.0 0.0 -6.178197025206e+01 
-1.282833327700e+02 2.776964156016e-01 0.0 
2.776964156016e-01 -3.116512894951e+02 0.0 
0.0 0.0 -1.315803866795e+02 
-1.303312365265e+02 3.834951018492e+00 0.0 
3.834951018492e+00 -2.971068923777e+02 0.0 
0.0 0.0 -1.278314386713e+02 
-1.509696230513e+02 1.459556817184e+01 0.0 
1.459556817184e+01 -3.603218623648e+02 0.0 
0.0 0.0 -1.529874456248e+02 
-1.263784469811e+02 1.281115104699e+01 0.0 
1.281115104699e+01 -3.166125136369e+02 0.0 
0.0 0.0 -1.324972881854e+02 
-7.177701849151e+01 1.489515276297e+01 0.0 
1.489515276297e+01 -2.088890554043e+02 0.0 
0.0 0.0 -8.379982216873e+01 
-1.085827005290e+02 1.576682365817e+01 0.0 
1.576682365817e+01 -2.495707561828e+02 0.0 
0.0 0.0 -1.070460370135e+02 
-1.441009375890e+02 -7.596632623474e-01 0.0 
-7.596632623474e-01 -3.417876793161e+02 0.0 
0.0 0.0 -1.453665850715e+02 
-9.768554263662e+01 -2.329718058080e-01 0.0 
-2.329718058080e-01 -2.304270793095e+02 0.0 
0.0 0.0 -9.803378658384e+01 
-1.202960915160e+02 1.381411918880e+01 0.0 
1.381411918880e+01 -2.813629155057e+02 0.0 
0.0 0.0 -1.200977021065e+02 
-1.045096685132e+02 2.935896384313e+00 0.0 
2.935896384313e+00 -2.255805166536e+02 0.0 
0.0 0.0 -9.862705555004e+01 
-1.371109029714e+02 9.705065452244e-01 0.0 
9.705065452244e-01 -3.305996502163e+02 0.0 
0.0 0.0 -1.399131659563e+02 
-1.324300101326e+02 1.861528481388e+00 0.0 
1.861528481388e+00 -3.265159512221e+02 0.0 
0.0 0.0 -1.372837884064e+02 
-6.866498923186e+01 8.161417442789e-02 0.0 
8.161417442789e-02 -1.450580358818e+02 0.0 
0.0 0.0 -6.371690753409e+01 
-6.858199269257e+01 -1.155079849255e-01 0.0 
-1.155079849255e-01 -1.450081710940e+02 0.0 
0.0 0.0 -6.367704913598e+01 
-1.114360871998e+02 9.731332882912e+00 0.0 
9.731332882912e+00 -2.367645498286e+02 0.0 
0.0 0.0 -1.040601911085e+02 
-1.124832645573e+02 1.394996351685e+01 0.0 
1.394996351685e+01 -2.620053287787e+02 0.0 
0.0 0.0 -1.119465780008e+02 
-1.070932608395e+02 -1.837853254716e+00 0.0 
-1.837853254716e+00 -2.614911783610e+02 0.0 
0.0 0.0 -1.101753317601e+02 
-1.109021602222e+02 1.302419300659e+01 0.0 
1.302419300659e+01 -2.408804679089e+02 0.0 
0.0 0.0 -1.051347884393e+02 
-9.293664178741e+01 1.490520012454e+01 0.0 
1.490520012454e+01 -2.375000229808e+02 0.0 
0.0 0.0 -9.873099943047e+01 
-1.396748001993e+02 7.092051657897e+00 0.0 
7.092051657897e+00 -3.471718224812e+02 0.0 
0.0 0.0 -1.456539868041e+02 
-7.419444262926e+01 1.484254240688e+01 0.0 
1.484254240688e+01 -2.099027832438e+02 0.0 
0.0 0.0 -8.482916776192e+01 
-1.434176934846e+02 7.420220345817e+00 0.0 
7.420220345817e+00 -3.318520709458e+02 0.0 
0.0 0.0 -1.421809293291e+02 
-8.642977445347e+01 3.565941103649e+00 0.0 
3.565941103649e+00 -1.761688109252e+02 0.0 
0.0 0.0 -7.837957561361e+01 
-8.799661219271e+01 1.721446066718e+01 0.0 
1.721446066718e+01 -2.241268324798e+02 0.0 
0.0 0.0 -9.323703340174e+01 
-1.005944774175e+02 -3.937566914435e+00 0.0 
-3.937566914435e+00 -2.527850309890e+02 0.0 
0.0 0.0 -1.056138525219e+02 
-3.816310980108e+01 1.158989582137e+01 0.0 
1.158989582137e+01 -1.545336102216e+02 0.0 
0.0 0.0 -5.740901600679e+01 
-9.045431950754e+01 -4.080820318639e+00 0.0 
-4.080820318639e+00 -2.275217014986e+02 0.0 
0.0 0.0 -9.499280630186e+01 
-1.047459497784e+02 1.424539092893e+01 0.0 
1.424539092893e+01 -2.426244051949e+02 0.0 
0.0 0.0 -1.038111064920e+02 
-9.834645515687e+01 1.305523890089e+01 0.0 
1.305523890089e+01 -2.169917477117e+02 0.0 
0.0 0.0 -9.420146086058e+01 
-1.050049431765e+02 3.897383581064e+00 0.0 
3.897383581064e+00 -2.251263558194e+02 0.0 
0.0 0.0 -9.863938969878e+01 
-1.138393204123e+02 1.164818272744e+01 0.0 
1.164818272744e+01 -2.519783746910e+02 0.0 
0.0 0.0 -1.093453085310e+02 
-1.182784514758e+02 1.334371751001e+01 0.0 
1.334371751001e+01 -2.606228390678e+02 0.0 
0.0 0.0 -1.132703871631e+02 
-2.181718732382e+01 -3.840137330867e-02 0.0 
-3.840137330867e-02 -5.901082163421e+01 0.0 
0.0 0.0 -2.384840268741e+01 
-8.446271917742e+01 -6.037573655005e+00 0.0 
-6.037573655005e+00 -2.137503149940e+02 0.0 
0.0 0.0 -8.906391025144e+01 
-7.557444742740e+01 1.622491235490e+01 0.0 
1.622491235490e+01 -1.565372349297e+02 0.0 
0.0 0.0 -6.923350470714e+01 
-1.064584690918e+02 9.547827396541e+00 0.0 
9.547827396541e+00 -2.285265832542e+02 0.0 
0.0 0.0 -1.000955157038e+02 
-1.113694610698e+02 1.134763215399e+01 0.0 
1.134763215399e+01 -2.383577498100e+02 0.0 
0.0 0.0 -1.045181632639e+02 
-1.352565687663e+02 9.916584916470e+00 0.0 
9.916584916470e+00 -3.368754564310e+02 0.0 
0.0 0.0 -1.412396075592e+02 
-3.673735487171e+01 -1.157636629705e+00 0.0 
-1.157636629705e+00 -8.919358084227e+01 0.0 
0.0 0.0 -3.737928071419e+01 
-3.406685634879e+01 -8.556997917534e+00 0.0 
-8.556997917534e+00 -1.407447904788e+02 0.0 
0.0 0.0 -5.246014734797e+01 
-9.247324295921e+01 1.550542432597e+01 0.0 
1.550542432597e+01 -2.170819488639e+02 0.0 
0.0 0.0 -9.246655754694e+01 
-8.680577395452e+01 -4.328727834733e+00 0.0 
-4.328727834733e+00 -2.151125518980e+02 0.0 
0.0 0.0 -9.017549775574e+01 
-6.797087017505e+01 4.338656769804e+00 0.0 
4.338656769804e+00 -1.302541588586e+02 0.0 
0.0 0.0 -5.906750871010e+01 
-7.194791861522e+01 3.898600198945e+00 0.0 
3.898600198945e+00 -1.399903533805e+02 0.0 
0.0 0.0 -6.318148159872e+01 
-1.066593360155e+02 5.855181659728e+00 0.0 
5.855181659728e+00 -2.261592109546e+02 0.0 
0.0 0.0 -9.944556409101e+01 
-3.129658947006e+01 2.363000892615e+01 0.0 
2.363000892615e+01 -1.099323802791e+02 0.0 
0.0 0.0 -4.186573640786e+01 
-9.690529224029e+01 -4.354125302997e+00 0.0 
-4.354125302997e+00 -2.408658028979e+02 0.0 
0.0 0.0 -1.009313285414e+02 
-1.210630290906e+02 6.599703173037e+00 0.0 
6.599703173037e+00 -3.127194115487e+02 0.0 
0.0 0.0 -1.297347321918e+02 
-3.032590658170e+01 -2.799914620862e+00 0.0 
-2.799914620862e+00 -1.406882177899e+02 0.0 
0.0 0.0 -5.200913459996e+01 
-1.477475914294e+02 1.558143607422e+01 0.0 
1.558143607422e+01 -3.459409223761e+02 0.0 
0.0 0.0 -1.477065541416e+02 
-1.242561197436e+02 5.953199709846e+00 0.0 
5.953199709846e+00 -2.764907692092e+02 0.0 
0.0 0.0 -1.198240666859e+02 
-9.492593556124e+01 -2.730015067164e+00 0.0 
-2.730015067164e+00 -2.299610690693e+02 0.0 
0.0 0.0 -9.706610138915e+01 
-1.312903271058e+02 -1.080328050431e+00 0.0 
-1.080328050431e+00 -3.183564925822e+02 0.0 
0.0 0.0 -1.344940459064e+02 
-1.551658054020e+01 -5.416883743242e-01 0.0 
-5.416883743242e-01 -4.244480453856e+01 0.0 
0.0 0.0 -1.698841552363e+01 
-1.165622236379e+02 4.948935586423e+00 0.0 
4.948935586423e+00 -3.036495935118e+02 0.0 
0.0 0.0 -1.256635451449e+02 
-9.584364032152e+01 1.685175634041e+01 0.0 
1.685175634041e+01 -2.231104375377e+02 0.0 
0.0 0.0 -9.528622335775e+01 
-1.520113229300e+01 -4.765906611289e-01 0.0 
-4.765906611289e-01 -4.231284901780e+01 0.0 
0.0 0.0 -1.685419439324e+01 
-1.229322270140e+02 4.272429924073e+00 0.0 
4.272429924073e+00 -2.757115588321e+02 0.0 
0.0 0.0 -1.191931357538e+02 
-2.952515744102e+01 -2.629056565520e+00 0.0 
-2.629056565520e+00 -1.366294920821e+02 0.0 
0.0 0.0 -5.064026905836e+01 
-1.074422275009e+02 1.194639594706e+01 0.0 
1.194639594706e+01 -2.294683062427e+02 0.0 
0.0 0.0 -1.006731601231e+02 
-9.789594573668e+01 1.553831680994e+01 0.0 
1.553831680994e+01 -2.172790926174e+02 0.0 
0.0 0.0 -9.415251150622e+01 
-8.091608814712e+01 6.710774114991e-01 0.0 
6.710774114991e-01 -2.341027784599e+02 0.0 
0.0 0.0 -9.410565998211e+01 
-1.021074339189e+02 -8.253436111344e-01 0.0 
-8.253436111344e-01 -2.727318417452e+02 0.0 
0.0 0.0 -1.120517826992e+02 
-1.265305304019e+02 5.107685139024e+00 0.0 
5.107685139024e+00 -2.851817702584e+02 0.0 
0.0 0.0 -1.231136901981e+02 
-1.112994370959e+02 2.812716694409e-01 0.0 
2.812716694409e-01 -2.912290720345e+02 0.0 
0.0 0.0 -1.203585527391e+02 
-9.526698173352e+01 1.541355004656e+01 0.0 
1.541355004656e+01 -2.303177413271e+02 0.0 
0.0 0.0 -9.727541691818e+01 
-9.069520062849e+01 1.753741521512e+01 0.0 
1.753741521512e+01 -2.167565118459e+02 0.0 
0.0 0.0 -9.183551374232e+01 
-3.394819024093e+01 2.587926319197e+01 0.0 
2.587926319197e+01 -2.701653651895e+01 0.0 
0.0 0.0 -1.775789761657e+01 
-2.629164143326e+01 -3.257922755107e+00 0.0 
-3.257922755107e+00 -1.310003946633e+02 0.0 
0.0 0.0 -4.851728443197e+01 
-1.280540808401e+02 1.564190692946e+01 0.0 
1.564190692946e+01 -3.008267279363e+02 0.0 
0.0 0.0 -1.282642426329e+02 
-9.941285490704e+01 6.372517136491e+00 0.0 
6.372517136491e+00 -2.062277058155e+02 0.0 
0.0 0.0 -9.129216821676e+01 
-1.317162677112e+02 1.407688765416e+01 0.0 
1.407688765416e+01 -3.125199390257e+02 0.0 
0.0 0.0 -1.328708620211e+02 
-4.983956540028e+01 2.216405258712e+01 0.0 
2.216405258712e+01 -1.449643838569e+02 0.0 
0.0 0.0 -5.804118477716e+01 
-1.207129420142e+02 7.933026734871e+00 0.0 
7.933026734871e+00 -2.655486878441e+02 0.0 
0.0 0.0 -1.154784889575e+02 
-1.326617716968e+02 1.572614895878e+01 0.0 
1.572614895878e+01 -3.084522007749e+02 0.0 
0.0 0.0 -1.319341917415e+02 
-7.471266436768e+01 2.714245101483e+00 0.0 
2.714245101483e+00 -1.475520425139e+02 0.0 
0.0 0.0 -6.627941206448e+01 
-1.281032297063e+02 1.390290992772e+01 0.0 
1.390290992772e+01 -3.004131440031e+02 0.0 
0.0 0.0 -1.281549121128e+02 
-1.326590048993e+02 4.317478179001e-01 0.0 
4.317478179001e-01 -3.192786597807e+02 0.0 
0.0 0.0 -1.351812994040e+02 
-1.078488526981e+02 1.435461268512e+01 0.0 
1.435461268512e+01 -2.553389937564e+02 0.0 
0.0 0.0 -1.085563539363e+02 
-9.240352822205e+01 -4.985582365073e+00 0.0 
-4.985582365073e+00 -2.333587469636e+02 0.0 
0.0 0.0 -9.732868255569e+01 
-9.844487393335e+01 -2.942890053435e+00 0.0 
-2.942890053435e+00 -2.468051006521e+02 0.0 
0.0 0.0 -1.031749923756e+02 
-1.326412126582e+02 9.300711548353e+00 0.0 
9.300711548353e+00 -2.968978425947e+02 0.0 
0.0 0.0 -1.284617165759e+02 
-9.326696988091e+01 -2.052129003014e+00 0.0 
-2.052129003014e+00 -2.544617271423e+02 0.0 
0.0 0.0 -1.039186091070e+02 
-1.016115735281e+02 1.381204871937e+01 0.0 
1.381204871937e+01 -2.298158752477e+02 0.0 
0.0 0.0 -9.902823463273e+01 
-9.072150704771e+01 1.299175916042e+01 0.0 
1.299175916042e+01 -2.441942936964e+02 0.0 
0.0 0.0 -1.000747402232e+02 
-1.208472428161e+02 1.295561557150e+00 0.0 
1.295561557150e+00 -3.098899947118e+02 0.0 
0.0 0.0 -1.288211712584e+02 
-8.252510456821e+01 1.693707200895e+01 0.0 
1.693707200895e+01 -2.187074529087e+02 0.0 
0.0 0.0 -8.996976724308e+01 
-4.576310472377e+01 4.474710865388e+00 0.0 
4.474710865388e+00 -1.735901208476e+02 0.0 
0.0 0.0 -6.540596767141e+01 
-9.196857847040e+01 4.121610915301e+00 0.0 
4.121610915301e+00 -2.593879377970e+02 0.0 
0.0 0.0 -1.050069548802e+02 
-5.030669199574e+01 8.808413509967e+00 0.0 
8.808413509967e+00 -1.797798831214e+02 0.0 
0.0 0.0 -6.862597253514e+01 
-1.101834292425e+02 1.066714003666e+01 0.0 
1.066714003666e+01 -2.400942492552e+02 0.0 
0.0 0.0 -1.046833035493e+02 
-4.990843979060e+01 6.401015337041e+00 0.0 
6.401015337041e+00 -1.790755667438e+02 0.0 
0.0 0.0 -6.829520196031e+01 
-1.067917492729e+02 1.378484891479e+01 0.0 
1.378484891479e+01 -2.327408458380e+02 0.0 
0.0 0.0 -1.014597785333e+02 
-1.309208260889e+02 1.191519516628e+01 0.0 
1.191519516628e+01 -3.274649525904e+02 0.0 
0.0 0.0 -1.371157336038e+02 
-1.256695955158e+02 9.634262184997e+00 0.0 
9.634262184997e+00 -3.193569308546e+02 0.0 
0.0 0.0 -1.331079579111e+02 
-7.963653253208e+01 1.563147661088e+01 0.0 
1.563147661088e+01 -2.146418201330e+02 0.0 
0.0 0.0 -8.788350579952e+01 
-1.014329976894e+02 3.961854558027e+00 0.0 
3.961854558027e+00 -2.151155004805e+02 0.0 
0.0 0.0 -9.456454945095e+01 
-1.357958359376e+02 -9.757199170175e-01 0.0 
-9.757199170175e-01 -3.261782297519e+02 0.0 
0.0 0.0 -1.381922197069e+02 
-1.369242161752e+02 5.667386273063e-01 0.0 
5.667386273063e-01 -3.270107753343e+02 0.0 
0.0 0.0 -1.387804974529e+02 
-3.216060939076e+01 2.597386879377e+01 0.0 
2.597386879377e+01 -9.286011935070e+01 0.0 
0.0 0.0 -3.658898660888e+01 
-1.098971115467e+02 1.227601648598e+01 0.0 
1.227601648598e+01 -2.441631608981e+02 0.0 
0.0 0.0 -1.058180817335e+02 
-1.496805160784e+02 -7.440449730622e-01 0.0 
-7.440449730622e-01 -3.545454900138e+02 0.0 
0.0 0.0 -1.508678018276e+02 
-5.528991480858e+01 8.928930922073e+00 0.0 
8.928930922073e+00 -1.011035817040e+02 0.0 
0.0 0.0 -4.651804895378e+01 
-1.029966298454e+02 -2.026505522447e+00 0.0 
-2.026505522447e+00 -2.495073953176e+02 0.0 
0.0 0.0 -1.053512075489e+02 
-3.828725782565e+01 2.644074293003e+01 0.0 
2.644074293003e+01 -2.793073240402e+01 0.0 
0.0 0.0 -1.871554027911e+01 
-1.401573719612e+02 -8.790121863862e-01 0.0 
-8.790121863862e-01 -3.340742812005e+02 0.0 
0.0 0.0 -1.418694959485e+02 
-4.288674230504e+01 9.424007556959e+00 0.0 
9.424007556959e+00 -1.661680600862e+02 0.0 
0.0 0.0 -6.231644071736e+01 
-1.001986373498e+02 -1.444446069160e+00 0.0 
-1.444446069160e+00 -2.362828601388e+02 0.0 
0.0 0.0 -1.005444492466e+02 
-1.132232382437e+02 1.258138953230e+01 0.0 
1.258138953230e+01 -2.862663397478e+02 0.0 
0.0 0.0 -1.194468733974e+02 
-1.032052995716e+02 6.012072378853e+00 0.0 
6.012072378853e+00 -2.162499722498e+02 0.0 
0.0 0.0 -9.543658154640e+01 
-9.810822698256e+01 4.197028877025e+00 0.0 
4.197028877025e+00 -2.052676554831e+02 0.0 
0.0 0.0 -9.061276473971e+01 
-1.001030289720e+02 1.486867756299e+01 0.0 
1.486867756299e+01 -2.362590295345e+02 0.0 
0.0 0.0 -1.005086175520e+02 
-6.008757410708e+01 4.989758731005e+00 0.0 
4.989758731005e+00 -1.111344533591e+02 0.0 
0.0 0.0 -5.096660823984e+01 
-6.414111433856e+01 4.423198132171e+00 0.0 
4.423198132171e+00 -1.208033515696e+02 0.0 
0.0 0.0 -5.508333977246e+01 
-1.410099139476e+02 6.406210251689e-01 0.0 
6.406210251689e-01 -3.347923303607e+02 0.0 
0.0 0.0 -1.423406732925e+02 
-1.083264311017e+02 1.636962679406e+00 0.0 
1.636962679406e+00 -2.842813767136e+02 0.0 
0.0 0.0 -1.173823423446e+02 
-8.938087830807e+01 1.894177958984e+00 0.0 
1.894177958984e+00 -2.509625898190e+02 0.0 
0.0 0.0 -1.017030404381e+02 
-1.151929486348e+02 4.155193247044e+00 0.0 
4.155193247044e+00 -3.029255775738e+02 0.0 
0.0 0.0 -1.250355578626e+02 
-8.303222709245e+01 3.525819199728e+00 0.0 
3.525819199728e+00 -2.424856938933e+02 0.0 
0.0 0.0 -9.725537629572e+01 
-4.570918427334e+01 1.090346489421e+01 0.0 
1.090346489421e+01 -1.687847275820e+02 0.0 
0.0 0.0 -6.394817355659e+01 
-5.829255337687e+01 2.251620381026e+00 0.0 
2.251620381026e+00 -1.094855790164e+02 0.0 
0.0 0.0 -4.993343971798e+01 
-9.141294813053e+01 5.349755632586e+00 0.0 
5.349755632586e+00 -1.867237719000e+02 0.0 
0.0 0.0 -8.304101600915e+01 
-6.872103910263e+01 -3.393950098722e-03 0.0 
-3.393950098722e-03 -1.452372169555e+02 0.0 
0.0 0.0 -6.378747681745e+01 
-1.257457248341e+02 1.062305519110e+01 0.0 
1.062305519110e+01 -3.195897600180e+02 0.0 
0.0 0.0 -1.332006454556e+02 
-7.709602501695e+01 1.619644491560e+01 0.0 
1.619644491560e+01 -2.136811746951e+02 0.0 
0.0 0.0 -8.683315991360e+01 
-1.456508745990e+02 1.222964459011e+01 0.0 
1.222964459011e+01 -3.528666815050e+02 0.0 
0.0 0.0 -1.491552668312e+02 
-1.394569849275e+02 -1.117923999785e+00 0.0 
-1.117923999785e+00 -3.286249163754e+02 0.0 
0.0 0.0 -1.400245703909e+02 
-8.835683600475e+01 5.765665628049e+00 0.0 
5.765665628049e+00 -2.512048920442e+02 0.0 
0.0 0.0 -1.014685184147e+02 
-1.549421378716e+02 1.367607843574e+00 0.0 
1.367607843574e+00 -3.661177556194e+02 0.0 
0.0 0.0 -1.559179680473e+02 
-5.474365227174e+01 2.651005598020e+00 0.0 
2.651005598020e+00 -1.877553716411e+02 0.0 
0.0 0.0 -7.234970717384e+01 
-1.405554432765e+02 1.277235607345e+01 0.0 
1.277235607345e+01 -3.416066367821e+02 0.0 
0.0 0.0 -1.442486240176e+02 
-9.860677367227e+01 1.678254136257e+01 0.0 
1.678254136257e+01 -2.360370919354e+02 0.0 
0.0 0.0 -9.999315968229e+01 
-1.109754622245e+02 1.417392146217e+01 0.0 
1.417392146217e+01 -2.678029416694e+02 0.0 
0.0 0.0 -1.132335211682e+02 
-1.363188376147e+02 6.580182254814e+00 0.0 
6.580182254814e+00 -3.403440685874e+02 0.0 
0.0 0.0 -1.425988718606e+02 
-7.140639831032e+01 -7.420326054841e+00 0.0 
-7.420326054841e+00 -1.822122888548e+02 0.0 
0.0 0.0 -7.568560614954e+01 
-1.058566406653e+02 1.301016710465e+01 0.0 
1.301016710465e+01 -2.368242188490e+02 0.0 
0.0 0.0 -1.024042578543e+02 
-8.442341993883e+01 3.269550581671e+00 0.0 
3.269550581671e+00 -2.430194105509e+02 0.0 
0.0 0.0 -9.783284914692e+01 
-1.024093321274e+02 1.461222264995e+01 0.0 
1.461222264995e+01 -2.247743928208e+02 0.0 
0.0 0.0 -9.775511748444e+01 
-5.084416347102e+01 2.282467338454e+01 0.0 
2.282467338454e+01 -1.446679009302e+02 0.0 
0.0 0.0 -5.825361932036e+01 
-1.142629508038e+02 1.373372349064e+01 0.0 
1.373372349064e+01 -2.801478315450e+02 0.0 
0.0 0.0 -1.179232347047e+02 
-7.873999083156e+01 9.490159899069e-01 0.0 
9.490159899069e-01 -2.332451799520e+02 0.0 
0.0 0.0 -9.319555123508e+01 
-1.051451806546e+02 -3.449484896447e+00 0.0 
-3.449484896447e+00 -2.602841014755e+02 0.0 
0.0 0.0 -1.092287846390e+02 
-1.024384705712e+02 1.213407739498e+01 0.0 
1.213407739498e+01 -2.243128908271e+02 0.0 
0.0 0.0 -9.762540841949e+01 
-4.020284600756e+01 3.492144198338e+01 0.0 
3.492144198338e+01 -5.705710075269e+01 0.0 
0.0 0.0 -2.890505444511e+01 
-9.935943041813e+01 1.234058087120e+01 0.0 
1.234058087120e+01 -2.619188998614e+02 0.0 
0.0 0.0 -1.079834990839e+02 
-3.637436526330e+01 2.813378251987e+01 0.0 
2.813378251987e+01 -4.932378272260e+01 0.0 
0.0 0.0 -2.378367001047e+01 
-2.726662736060e+01 -3.164864957640e+00 0.0 
-3.164864957640e+00 -6.373502253577e+01 0.0 
0.0 0.0 -2.690049496891e+01 
-1.012403366644e+02 -3.737898512823e+00 0.0 
-3.737898512823e+00 -2.483361445823e+02 0.0 
0.0 0.0 -1.044729443740e+02 
-1.253396596400e+02 1.485555986695e+01 0.0 
1.485555986695e+01 -2.842369454948e+02 0.0 
0.0 0.0 -1.224729815404e+02 
-1.018901542892e+02 5.188931077268e+00 0.0 
5.188931077268e+00 -2.147903667264e+02 0.0 
0.0 0.0 -9.460415630470e+01 
-5.228174462512e+01 6.204250674681e+00 0.0 
6.204250674681e+00 -9.249450701590e+01 0.0 
0.0 0.0 -4.303287549231e+01 
-1.416335876043e+02 7.403358365187e+00 0.0 
7.403358365187e+00 -3.318117044101e+02 0.0 
0.0 0.0 -1.416335876043e+02 
-3.704977429979e+01 2.886036717746e+01 0.0 
2.886036717746e+01 -2.812732641129e+01 0.0 
0.0 0.0 -1.987391044736e+01 
-5.613398596466e+01 5.269813799310e+00 0.0 
5.269813799310e+00 -1.017745963334e+02 0.0 
0.0 0.0 -4.697257468943e+01 
-9.218114183720e+01 6.232861415052e-01 0.0 
6.232861415052e-01 -2.575701522302e+02 0.0 
0.0 0.0 -1.045253882202e+02 
-9.888273077663e+01 -2.005069256442e+00 0.0 
-2.005069256442e+00 -2.376128187856e+02 0.0 
0.0 0.0 -1.005486648687e+02 
-7.302825111243e+01 7.776299958216e+00 0.0 
7.776299958216e+00 -1.396773387255e+02 0.0 
0.0 0.0 -6.341167695139e+01 
-5.886565366153e+01 -4.681514812528e+00 0.0 
-4.681514812528e+00 -1.901467906603e+02 0.0 
0.0 0.0 -7.430373329656e+01 
-9.944803003945e+01 3.593087742237e-01 0.0 
3.593087742237e-01 -2.661521431310e+02 0.0 
0.0 0.0 -1.092800519511e+02 
-1.037023397605e+02 1.631650855822e+01 0.0 
1.631650855822e+01 -2.426262400059e+02 0.0 
0.0 0.0 -1.034985739299e+02 
-1.082404674289e+02 1.193328639275e+01 0.0 
1.193328639275e+01 -2.799670041310e+02 0.0 
0.0 0.0 -1.160622414680e+02 
-1.279418963333e+02 1.127986935399e+01 0.0 
1.127986935399e+01 -2.881365004907e+02 0.0 
0.0 0.0 -1.244235190472e+02 
-3.458611009361e+01 2.738058396772e+01 0.0 
2.738058396772e+01 -1.176270374975e+02 0.0 
0.0 0.0 -4.586556770400e+01 
-9.314220375762e+01 -4.532080557884e+00 0.0 
-4.532080557884e+00 -2.288062495788e+02 0.0 
0.0 0.0 -9.618453600093e+01 
-1.015341825304e+02 -3.196014829846e+00 0.0 
-3.196014829846e+00 -2.444834765013e+02 0.0 
0.0 0.0 -1.034052977095e+02 
-5.654445539237e+01 -6.840484594352e+00 0.0 
-6.840484594352e+00 -1.341608690831e+02 0.0 
0.0 0.0 -5.681159734263e+01 
-7.835455523558e+01 2.395779423031e+00 0.0 
2.395779423031e+00 -1.570551034931e+02 0.0 
0.0 0.0 -7.022289761861e+01 
-1.034577887001e+02 7.386625020752e+00 0.0 
7.386625020752e+00 -2.158969997540e+02 0.0 
0.0 0.0 -9.540643653621e+01 
-1.271831337936e+02 6.945042873533e-01 0.0 
6.945042873533e-01 -2.995170335907e+02 0.0 
0.0 0.0 -1.276100502153e+02 
-1.385532239719e+01 -5.928381569648e-01 0.0 
-5.928381569648e-01 -4.232416941113e+01 0.0 
0.0 0.0 -1.645384754249e+01 
-4.708323337895e+01 -7.027413918116e+00 0.0 
-7.027413918116e+00 -1.187771443699e+02 0.0 
0.0 0.0 -5.113650463347e+01 
-4.129551588469e+01 -5.968227532478e+00 0.0 
-5.968227532478e+00 -9.244975557931e+01 0.0 
0.0 0.0 -3.972358143920e+01 
-1.028090634216e+02 -1.358705981109e+00 0.0 
-1.358705981109e+00 -2.454530018240e+02 0.0 
0.0 0.0 -1.040786195737e+02 
-6.271121803092e+01 3.570369275169e+00 0.0 
3.570369275169e+00 -2.027084580511e+02 0.0 
0.0 0.0 -7.922590282461e+01 
-5.775948148117e+01 -4.183101934225e+00 0.0 
-4.183101934225e+00 -1.863312568707e+02 0.0 
0.0 0.0 -7.282722150555e+01 
-4.711841446169e+01 1.532565566314e+00 0.0 
1.532565566314e+00 -1.735348246555e+02 0.0 
0.0 0.0 -6.579597173516e+01 
-1.055199505251e+02 -3.166807648727e+00 0.0 
-3.166807648727e+00 -2.560491361899e+02 0.0 
0.0 0.0 -1.080707260145e+02 
-1.097909919431e+02 7.394184615565e+00 0.0 
7.394184615565e+00 -2.354190738837e+02 0.0 
0.0 0.0 -1.031630197480e+02 
-1.056273536404e+02 -2.619148119278e+00 0.0 
-2.619148119278e+00 -2.525548082013e+02 0.0 
0.0 0.0 -1.070546485525e+02 
-6.177140096321e+01 5.030513462964e+00 0.0 
5.030513462964e+00 -2.026526378346e+02 0.0 
0.0 0.0 -7.892721163935e+01 
-1.100169977277e+02 1.463628520619e+01 0.0 
1.463628520619e+01 -2.446537164461e+02 0.0 
0.0 0.0 -1.060012142521e+02 
-8.440860001897e+01 1.025978501821e+00 0.0 
1.025978501821e+00 -1.764050996794e+02 0.0 
0.0 0.0 -7.784410990950e+01 
-1.224720391472e+02 1.236929491018e+01 0.0 
1.236929491018e+01 -3.051198488181e+02 0.0 
0.0 0.0 -1.278775663896e+02 
-1.066978284260e+02 -7.695402004815e-01 0.0 
-7.695402004815e-01 -2.534506126207e+02 0.0 
0.0 0.0 -1.076445323140e+02 
-1.070170439148e+02 -1.425677279957e+00 0.0 
-1.425677279957e+00 -2.571186491983e+02 0.0 
0.0 0.0 -1.088407079339e+02 
-4.459663509700e+01 7.882360923942e+00 0.0 
7.882360923942e+00 -7.328724551538e+01 0.0 
0.0 0.0 -3.496516418371e+01 
-6.766690056835e+01 1.079929809011e+00 0.0 
1.079929809011e+00 -2.105101364252e+02 0.0 
0.0 0.0 -8.305311109807e+01 
-1.096398408456e+02 -2.081058219644e+00 0.0 
-2.081058219644e+00 -2.606507413109e+02 0.0 
0.0 0.0 -1.106871746470e+02 
-9.793421295041e+01 -5.299933467209e-01 0.0 
-5.299933467209e-01 -2.162710849829e+02 0.0 
0.0 0.0 -9.386158938001e+01 
-9.055092100117e+01 -6.201963345977e-01 0.0 
-6.201963345977e-01 -1.980351855329e+02 0.0 
0.0 0.0 -8.617583196023e+01 
-4.838731001708e+01 6.827598892091e+00 0.0 
6.827598892091e+00 -8.308492519645e+01 0.0 
0.0 0.0 -3.904167056406e+01 
-1.097470316586e+02 -2.648230925259e+00 0.0 
-2.648230925259e+00 -2.639657586307e+02 0.0 
0.0 0.0 -1.117138370868e+02 
-6.116299995285e+01 -8.318325628092e+00 0.0 
-8.318325628092e+00 -1.801200489029e+02 0.0 
0.0 0.0 -7.198491465671e+01 
-3.626961596472e+01 2.693201981891e+01 0.0 
2.693201981891e+01 -6.978155953419e+01 0.0 
0.0 0.0 -2.958752900889e+01 
-1.412033930834e+02 1.407878570465e+01 0.0 
1.407878570465e+01 -3.423015231713e+02 0.0 
0.0 0.0 -1.446514748764e+02 
-4.116189497060e+01 -9.989594000046e+00 0.0 
-9.989594000046e+00 -8.557773223481e+01 0.0 
0.0 0.0 -3.757341655011e+01 
-6.135295867816e+01 -8.408435554409e+00 0.0 
-8.408435554409e+00 -1.829532455274e+02 0.0 
0.0 0.0 -7.289186126167e+01 
-9.435669269365e+01 1.460237987200e+01 0.0 
1.460237987200e+01 -2.494088587199e+02 0.0 
0.0 0.0 -1.027296654240e+02 
-5.001529730114e+01 2.989588373483e+00 0.0 
2.989588373483e+00 -9.015259721250e+01 0.0 
0.0 0.0 -4.165036835409e+01 
-1.106222565152e+02 -2.348426774946e-01 0.0 
-2.348426774946e-01 -2.617195601867e+02 0.0 
0.0 0.0 -1.113025450106e+02 
-5.103770688706e+01 7.057067874692e-01 0.0 
7.057067874692e-01 -1.200132306725e+02 0.0 
0.0 0.0 -5.091528126785e+01 
-8.299381951167e+01 4.347140042497e+00 0.0 
4.347140042497e+00 -1.653978921314e+02 0.0 
0.0 0.0 -7.411751349293e+01 
-1.109830110848e+02 -8.955630041146e-01 0.0 
-8.955630041146e-01 -2.649265492500e+02 0.0 
0.0 0.0 -1.123728681005e+02 
-8.596734469282e+01 -4.155982878290e-01 0.0 
-4.155982878290e-01 -2.413649450781e+02 0.0 
0.0 0.0 -9.779968693127e+01 
-9.893330950746e+01 -2.674056019891e+00 0.0 
-2.674056019891e+00 -2.421124564723e+02 0.0 
0.0 0.0 -1.019137297939e+02 
-3.529829049265e+01 2.848020972992e+01 0.0 
2.848020972992e+01 -8.270504174039e+01 0.0 
0.0 0.0 -3.659538972782e+01 
-1.203564480609e+02 1.149008259968e+00 0.0 
1.149008259968e+00 -2.741817627127e+02 0.0 
0.0 0.0 -1.179614632321e+02 
-7.013253094297e+01 -3.614218692023e+00 0.0 
-3.614218692023e+00 -2.077941853601e+02 0.0 
0.0 0.0 -8.297801489093e+01 
-1.349875140953e+02 7.856189977195e+00 0.0 
7.856189977195e+00 -3.392737169483e+02 0.0 
0.0 0.0 -1.418783693131e+02 
-1.098982325068e+02 1.588081316330e+01 0.0 
1.588081316330e+01 -2.678021344696e+02 0.0 
0.0 0.0 -1.129101100929e+02 
-1.138888866657e+02 -2.192358995090e+00 0.0 
-2.192358995090e+00 -2.719904741051e+02 0.0 
0.0 0.0 -1.153638082312e+02 
-1.149014736745e+02 -4.577249282853e-01 0.0 
-4.577249282853e-01 -2.728458891823e+02 0.0 
0.0 0.0 -1.159242088571e+02 
-5.758430905436e+01 1.372346358236e+00 0.0 
1.372346358236e+00 -1.945888297961e+02 0.0 
0.0 0.0 -7.525194165515e+01 
-3.543827939330e+01 -9.774585626943e+00 0.0 
-9.774585626943e+00 -5.927399808527e+01 0.0 
0.0 0.0 -2.687546158988e+01 
-3.308269573694e+01 3.309070444905e+01 0.0 
3.309070444905e+01 -8.555089691370e+01 0.0 
0.0 0.0 -3.699145730652e+01 
-1.180046627756e+02 -1.772806203220e+00 0.0 
-1.772806203220e+00 -2.801420452597e+02 0.0 
0.0 0.0 -1.190440124106e+02 
-1.351078384384e+02 5.683358881066e+00 0.0 
5.683358881066e+00 -3.398714523483e+02 0.0 
0.0 0.0 -1.420937872360e+02 
-6.371751243955e+01 -9.500516626141e+00 0.0 
-9.500516626141e+00 -1.717518359211e+02 0.0 
0.0 0.0 -7.024080450818e+01 
-1.133945484152e+02 1.299657892313e+01 0.0 
1.299657892313e+01 -2.565132704035e+02 0.0 
0.0 0.0 -1.105723456456e+02 
-5.111261345822e+01 1.025059829176e+01 0.0 
1.025059829176e+01 -9.112213485958e+01 0.0 
0.0 0.0 -4.227042449534e+01 
-1.143165001633e+02 1.397332848438e+01 0.0 
1.397332848438e+01 -2.526466589098e+02 0.0 
0.0 0.0 -1.096889477219e+02 
-1.563187723951e+02 3.483004703283e+00 0.0 
3.483004703283e+00 -3.764819533155e+02 0.0 
0.0 0.0 -1.594402177132e+02 
-1.111464507795e+02 -1.393934359481e+00 0.0 
-1.393934359481e+00 -1.029128437774e+02 0.0 
0.0 0.0 -6.449465937748e+01 
-1.396835094985e+02 8.730030878455e-01 0.0 
8.730030878455e-01 -3.272615221631e+02 0.0 
0.0 0.0 -1.396835094985e+02 
-1.671557343482e+02 4.863702111289e-02 0.0 
4.863702111289e-02 -3.913633801458e+02 0.0 
0.0 0.0 -1.671557343482e+02 
-7.745103270732e+01 7.930666879793e-01 0.0 
7.930666879793e-01 -1.663082083837e+02 0.0 
0.0 0.0 -7.272777232732e+01 
-7.267332390789e+01 -6.273405464798e+00 0.0 
-6.273405464798e+00 -2.023227469278e+02 0.0 
0.0 0.0 -8.209882125070e+01 
-1.066995568405e+02 1.620956887684e+01 0.0 
1.620956887684e+01 -2.552920262185e+02 0.0 
0.0 0.0 -1.081974749177e+02 
-5.797906008478e+01 6.731798013153e+00 0.0 
6.731798013153e+00 -1.938377557157e+02 0.0 
0.0 0.0 -7.514504474014e+01 
-2.224366385714e+01 -9.093716743708e-01 0.0 
-9.093716743708e-01 -5.505083528405e+01 0.0 
0.0 0.0 -2.278834974236e+01 
-4.226919281700e+01 2.903784246947e+01 0.0 
2.903784246947e+01 -3.007535431767e+01 0.0 
0.0 0.0 -2.095508888499e+01 
-1.275955663894e+02 2.903710194437e+00 0.0 
2.903710194437e+00 -2.914152603325e+02 0.0 
0.0 0.0 -1.253032480166e+02 
-1.075744574404e+02 8.591667984292e+00 0.0 
8.591667984292e+00 -2.263438658477e+02 0.0 
0.0 0.0 -9.977549698645e+01 
-7.599900821134e+01 3.830930011028e+00 0.0 
3.830930011028e+00 -1.506511349346e+02 0.0 
0.0 0.0 -6.759504294377e+01 
-1.561619804670e+02 1.730825541403e+01 0.0 
1.730825541403e+01 -3.660560077614e+02 0.0 
0.0 0.0 -1.562653964685e+02 
-4.180965472554e+01 7.417289692089e-01 0.0 
7.417289692089e-01 -1.001584814059e+02 0.0 
0.0 0.0 -4.219044083943e+01 
-1.568381275177e+02 1.698607152834e+01 0.0 
1.698607152834e+01 -3.696286527919e+02 0.0 
0.0 0.0 -1.575400340929e+02 
-1.059148693996e+02 6.279901639232e+00 0.0 
6.279901639232e+00 -2.250770802778e+02 0.0 
0.0 0.0 -9.889758490321e+01 
-7.450962594555e+01 -6.990994941320e+00 0.0 
-6.990994941320e+00 -1.955286050328e+02 0.0 
0.0 0.0 -8.061146929351e+01 
-1.030546229071e+02 1.471448664199e+01 0.0 
1.471448664199e+01 -2.490623541649e+02 0.0 
0.0 0.0 -1.052350931216e+02 
-6.616424250014e+01 -8.383113264825e+00 0.0 
-8.383113264825e+00 -1.880410520187e+02 0.0 
0.0 0.0 -7.586158835565e+01 
-3.581682387533e+01 2.445818206474e+01 0.0 
2.445818206474e+01 -6.831695568960e+01 0.0 
0.0 0.0 -3.010590979559e+01 
-6.388054220110e+01 -9.621213056913e+00 0.0 
-9.621213056913e+00 -1.748963038509e+02 0.0 
0.0 0.0 -7.123305381560e+01 
-1.136283618699e+02 8.501311431286e+00 0.0 
8.501311431286e+00 -2.461052106246e+02 0.0 
0.0 0.0 -1.075200717483e+02 
-1.443587745972e+02 7.303813637999e-01 0.0 
7.303813637999e-01 -3.397125894421e+02 0.0 
0.0 0.0 -1.448214092118e+02 
-6.374249529513e+01 -5.943258734926e+00 0.0 
-5.943258734926e+00 -1.951689549186e+02 0.0 
0.0 0.0 -7.727343506412e+01 
-1.174015553176e+02 1.247086115759e+01 0.0 
1.247086115759e+01 -2.640061665339e+02 0.0 
0.0 0.0 -1.140223165554e+02 
-7.002473171211e+01 -2.891614807644e+00 0.0 
-2.891614807644e+00 -1.125138439861e+02 0.0 
0.0 0.0 -5.526282823270e+01 
-6.198989466460e+01 -1.223890180363e+00 0.0 
-1.223890180363e+00 -2.006712064270e+02 0.0 
0.0 0.0 -7.839833032747e+01 
-1.187603872845e+02 9.038054971162e+00 0.0 
9.038054971162e+00 -2.564731360570e+02 0.0 
0.0 0.0 -1.121700570025e+02 
-6.539164063526e+01 -9.062663762866e+00 0.0 
-9.062663762866e+00 -1.671171106051e+02 0.0 
0.0 0.0 -6.935262537211e+01 
-6.118153229282e+01 -9.929420409474e+00 0.0 
-9.929420409474e+00 -1.577310010745e+02 0.0 
0.0 0.0 -6.527376001020e+01 
-1.015183798003e+02 1.637184666884e+01 0.0 
1.637184666884e+01 -2.488016134873e+02 0.0 
0.0 0.0 -1.046959979863e+02 
-3.622761304310e+01 -1.740400592380e+01 0.0 
-1.740400592380e+01 -1.076775106212e+02 0.0 
0.0 0.0 -4.226258169460e+01 
-3.621911757994e+01 9.277355480325e+00 0.0 
9.277355480325e+00 -5.214404401364e+01 0.0 
0.0 0.0 -2.610894847807e+01 
-4.100145173670e+01 8.918787076069e+00 0.0 
8.918787076069e+00 -6.432356673580e+01 0.0 
0.0 0.0 -3.119750554175e+01 
-5.876539509548e+01 -9.953008902359e+00 0.0 
-9.953008902359e+00 -1.474010516586e+02 0.0 
0.0 0.0 -6.144993402622e+01 
-9.437755698364e+01 9.277514285281e-01 0.0 
9.277514285281e-01 -2.585775298939e+02 0.0 
0.0 0.0 -1.054865260633e+02 
-8.767696595592e+01 1.457694140632e+01 0.0 
1.457694140632e+01 -2.321389176543e+02 0.0 
0.0 0.0 -9.554476508307e+01 
-1.176791179304e+02 1.468549283880e+01 0.0 
1.468549283880e+01 -2.644859626285e+02 0.0 
0.0 0.0 -1.142495241677e+02 
-1.349931770308e+02 1.114773715675e+01 0.0 
1.114773715675e+01 -3.075571043848e+02 0.0 
0.0 0.0 -1.323650844247e+02 
-4.142248216642e+01 4.042658076447e+00 0.0 
4.042658076447e+00 -7.080442000038e+01 0.0 
0.0 0.0 -3.326807065004e+01 
-1.058940880774e+02 1.257840708358e+00 0.0 
1.257840708358e+00 -2.359640779511e+02 0.0 
0.0 0.0 -1.021574498086e+02 
-1.387262626541e+02 1.384347899368e+01 0.0 
1.384347899368e+01 -3.212109023210e+02 0.0 
0.0 0.0 -1.375811494925e+02 
-5.359968380197e+01 4.742391518606e+00 0.0 
4.742391518606e+00 -1.877412460562e+02 0.0 
0.0 0.0 -7.200227895745e+01 
-3.344394520450e+01 2.584509961459e+01 0.0 
2.584509961459e+01 -4.854408061066e+01 0.0 
0.0 0.0 -2.261754992107e+01 
-5.780929856351e+01 1.287738142466e+01 0.0 
1.287738142466e+01 -1.031721092546e+02 0.0 
0.0 0.0 -4.789442234544e+01 
-9.099021070420e+01 -1.050193899901e+00 0.0 
-1.050193899901e+00 -2.484660364035e+02 0.0 
0.0 0.0 -1.014368741323e+02 
-1.174395938023e+02 1.110032107815e+01 0.0 
1.110032107815e+01 -2.598596141930e+02 0.0 
0.0 0.0 -1.127897623986e+02 
-8.825204035350e+01 -1.454782477342e+00 0.0 
-1.454782477342e+00 -2.472175171371e+02 0.0 
0.0 0.0 -1.002408672472e+02 
-2.989800725112e+01 2.583430606463e+01 0.0 
2.583430606463e+01 -9.665185212639e+01 0.0 
0.0 0.0 -3.760436899935e+01 
-1.031737375060e+02 2.158750814183e+00 0.0 
2.158750814183e+00 -2.761557837031e+02 0.0 
0.0 0.0 -1.133988563628e+02 
-3.797397175201e+01 2.213036199106e+01 0.0 
2.213036199106e+01 -6.904785623901e+01 0.0 
0.0 0.0 -3.170654839731e+01 
-8.560485744066e+01 1.529565509017e+01 0.0 
1.529565509017e+01 -2.314064471901e+02 0.0 
0.0 0.0 -9.470339138922e+01 
-9.701512839361e+01 -2.996726286570e-01 0.0 
-2.996726286570e-01 -2.649758132858e+02 0.0 
0.0 0.0 -1.081972825038e+02 
-1.060929159891e+02 1.428045767032e+01 0.0 
1.428045767032e+01 -2.615785216670e+02 0.0 
0.0 0.0 -1.099014312968e+02 
-9.677683982385e+01 1.362169167777e+00 0.0 
1.362169167777e+00 -2.115307456895e+02 0.0 
0.0 0.0 -9.209227565399e+01 
-6.100267800641e+01 -8.074746065215e+00 0.0 
-8.074746065215e+00 -1.487186918696e+02 0.0 
0.0 0.0 -6.251641096280e+01 
-3.561252665466e+01 2.905607984243e+01 0.0 
2.905607984243e+01 -7.191063775789e+01 0.0 
0.0 0.0 -3.082992679381e+01 
-1.061618120836e+02 7.769765834347e-01 0.0 
7.769765834347e-01 -2.831792298058e+02 0.0 
0.0 0.0 -1.164023125668e+02 
-4.042858219000e+01 1.847336564801e+01 0.0 
1.847336564801e+01 -7.060125832503e+01 0.0 
0.0 0.0 -3.290895215451e+01 
-4.410568302483e+01 9.543064737440e+00 0.0 
9.543064737440e+00 -1.204456823925e+02 0.0 
0.0 0.0 -5.077319795121e+01 
-1.275408415969e+02 -3.597976800942e-01 0.0 
-3.597976800942e-01 -2.929941801980e+02 0.0 
0.0 0.0 -1.257605065385e+02 
-1.206691042307e+02 -5.047246888959e-01 0.0 
-5.047246888959e-01 -2.744091749457e+02 0.0 
0.0 0.0 -1.181234837529e+02 
-1.734670368519e+01 -2.740561267153e+00 0.0 
-2.740561267153e+00 -2.482655377730e+01 0.0 
0.0 0.0 -1.256385474406e+01 
-1.123262353905e+02 3.283176101095e+00 0.0 
3.283176101095e+00 -2.941437523231e+02 0.0 
0.0 0.0 -1.215409963141e+02 
-4.916385485019e+01 -6.804503039799e+00 0.0 
-6.804503039799e+00 -1.135797712754e+02 0.0 
0.0 0.0 -4.842308783769e+01 
-5.174943522969e+01 -8.063454574339e+00 0.0 
-8.063454574339e+00 -1.200462090169e+02 0.0 
0.0 0.0 -5.113869327396e+01 
-1.249507999825e+02 1.275007956696e+01 0.0 
1.275007956696e+01 -2.838782675391e+02 0.0 
0.0 0.0 -1.222487202565e+02 
-1.046987533092e+02 1.566823969461e+01 0.0 
1.566823969461e+01 -2.612559332227e+02 0.0 
0.0 0.0 -1.093864059596e+02 
-1.209928795870e+02 1.313051551170e+01 0.0 
1.313051551170e+01 -2.762295037806e+02 0.0 
0.0 0.0 -1.187667150103e+02 
-6.500304315424e+01 -2.326266907726e+00 0.0 
-2.326266907726e+00 -2.016508989527e+02 0.0 
0.0 0.0 -7.959618263209e+01 
-6.925630120326e+01 4.896414179339e-02 0.0 
4.896414179339e-02 -1.451599040836e+02 0.0 
0.0 0.0 -6.392486158606e+01 
-1.588756953104e+02 3.032427810016e+00 0.0 
3.032427810016e+00 -3.769530107557e+02 0.0 
0.0 0.0 -1.603486118198e+02 
-4.462534203722e+01 -7.567991236759e+00 0.0 
-7.567991236759e+00 -9.953458259746e+01 0.0 
0.0 0.0 -4.284797739040e+01 
-1.304603890508e+02 9.619274173505e+00 0.0 
9.619274173505e+00 -3.291424028621e+02 0.0 
0.0 0.0 -1.374808375739e+02 
-9.092142457042e+01 1.600979716320e+01 0.0 
1.600979716320e+01 -2.369065958019e+02 0.0 
0.0 0.0 -9.794840611169e+01 
-3.173284749050e+01 -1.660055732607e+00 0.0 
-1.660055732607e+00 -7.629420535713e+01 0.0 
0.0 0.0 -3.200811585429e+01 
-1.137671372094e+02 1.008606680221e+01 0.0 
1.008606680221e+01 -2.482362002787e+02 0.0 
0.0 0.0 -1.082010012464e+02 
-6.581048749615e+01 2.172871027346e+00 0.0 
2.172871027346e+00 -2.099960727145e+02 0.0 
0.0 0.0 -8.234196806320e+01 
-3.161025127685e+01 -1.074908508540e+01 0.0 
-1.074908508540e+01 -4.649400006192e+01 0.0 
0.0 0.0 -2.228173982249e+01 
-5.407231909407e+01 -2.585044281217e+00 0.0 
-2.585044281217e+00 -1.851000036043e+02 0.0 
0.0 0.0 -7.135169680950e+01 
-1.234344967903e+02 -9.061192875523e-01 0.0 
-9.061192875523e-01 -2.908009308627e+02 0.0 
0.0 0.0 -1.238706282959e+02 
-1.151931026094e+02 1.086035588786e+01 0.0 
1.086035588786e+01 -2.475511589267e+02 0.0 
0.0 0.0 -1.084232784608e+02 
-3.720520640900e+01 -8.204196068867e+00 0.0 
-8.204196068867e+00 -7.928328064725e+01 0.0 
0.0 0.0 -3.452193182607e+01 
-1.011558818104e+02 -6.446537581797e-02 0.0 
-6.446537581797e-02 -2.371112422507e+02 0.0 
0.0 0.0 -1.010801372183e+02 
-1.212911149380e+02 1.199068468184e+01 0.0 
1.199068468184e+01 -2.719479589793e+02 0.0 
0.0 0.0 -1.175717221752e+02 
-1.271384556674e+02 1.440908629723e+01 0.0 
1.440908629723e+01 -3.121282104275e+02 0.0 
0.0 0.0 -1.313799998285e+02 
-6.140422842850e+01 -1.010468461811e+01 0.0 
-1.010468461811e+01 -1.611482974011e+02 0.0 
0.0 0.0 -6.636575774887e+01 
-5.125452798623e+01 -1.571151169773e+00 0.0 
-1.571151169773e+00 -1.201781182753e+02 0.0 
0.0 0.0 -5.102979387847e+01 
-9.593571806955e+01 1.370844494584e+01 0.0 
1.370844494584e+01 -2.499026994368e+02 0.0 
0.0 0.0 -1.033515252519e+02 
-9.384484419515e+01 8.848516102622e-01 0.0 
8.848516102622e-01 -2.057404397948e+02 0.0 
0.0 0.0 -8.947558519698e+01 
-3.292157293422e+01 -1.603170302047e+01 0.0 
-1.603170302047e+01 -5.037691626712e+01 0.0 
0.0 0.0 -2.421465208991e+01 
-1.467656375337e+02 1.603878496015e+01 0.0 
1.603878496015e+01 -3.407362412325e+02 0.0 
0.0 0.0 -1.458505636299e+02 
-1.385189192628e+02 1.081072030013e+01 0.0 
1.081072030013e+01 -3.199928810445e+02 0.0 
0.0 0.0 -1.371535400922e+02 
-8.257046380991e+01 8.661350323965e-01 0.0 
8.661350323965e-01 -1.781872612978e+02 0.0 
0.0 0.0 -7.782731753230e+01 
-1.353578030344e+02 6.521583638929e+00 0.0 
6.521583638929e+00 -3.081335126850e+02 0.0 
0.0 0.0 -1.326473947158e+02 
-1.409809397235e+02 1.220628959065e+01 0.0 
1.220628959065e+01 -3.259351940812e+02 0.0 
0.0 0.0 -1.396748401414e+02 
-6.670103281442e+01 -3.088415620591e+00 0.0 
-3.088415620591e+00 -2.064827608060e+02 0.0 
0.0 0.0 -8.155513808612e+01 
-6.785180289512e+01 -6.181062180170e+00 0.0 
-6.181062180170e+00 -1.968396088619e+02 0.0 
0.0 0.0 -7.900742352709e+01 
-1.525169959980e+02 1.132269010804e+01 0.0 
1.132269010804e+01 -3.699412434980e+02 0.0 
0.0 0.0 -1.563374718488e+02 
-6.514724137433e+01 3.996511318543e+00 0.0 
3.996511318543e+00 -1.093414953072e+02 0.0 
0.0 0.0 -5.289723318723e+01 
-4.617292763372e+01 -1.151745578204e+00 0.0 
-1.151745578204e+00 -1.092892806334e+02 0.0 
0.0 0.0 -4.623866248015e+01 
-1.021808757063e+02 -1.291556310813e+00 0.0 
-1.291556310813e+00 -2.413747350714e+02 0.0 
0.0 0.0 -1.026666832333e+02 
-6.459438321479e+01 -8.628224918903e+00 0.0 
-8.628224918903e+00 -1.628745547532e+02 0.0 
0.0 0.0 -6.784068139041e+01 
-5.632794058836e+01 -7.872094079900e+00 0.0 
-7.872094079900e+00 -1.781475201885e+02 0.0 
0.0 0.0 -6.994263823307e+01 
-3.125093713955e+01 1.235282282195e+01 0.0 
1.235282282195e+01 -3.295238924103e+01 0.0 
0.0 0.0 -1.886099791418e+01 
-3.499104996657e+01 1.230698686701e+01 0.0 
1.230698686701e+01 -4.708980700107e+01 0.0 
0.0 0.0 -2.422425709029e+01 
-8.554480743487e+01 2.098512531598e+00 0.0 
2.098512531598e+00 -1.792034968876e+02 0.0 
0.0 0.0 -7.902449129674e+01 
-5.983460924135e+01 -2.528970691787e-01 0.0 
-2.528970691787e-01 -1.951528242103e+02 0.0 
0.0 0.0 -7.609623003550e+01 
-5.485335369987e+01 -2.682452556029e+00 0.0 
-2.682452556029e+00 -1.282793319698e+02 0.0 
0.0 0.0 -5.453980570091e+01 
-1.226966921783e+02 1.352728389611e+01 0.0 
1.352728389611e+01 -2.988577509107e+02 0.0 
0.0 0.0 -1.260663329267e+02 
-1.667577438335e+02 1.592534839300e+00 0.0 
1.592534839300e+00 -3.929749313771e+02 0.0 
0.0 0.0 -1.675198025632e+02 
-1.656866799387e+02 2.493369001887e+00 0.0 
2.493369001887e+00 -3.920606346520e+02 0.0 
0.0 0.0 -1.669241943772e+02 
-6.869825153659e+01 -6.569450494089e+00 0.0 
-6.569450494089e+00 -2.005685907900e+02 0.0 
0.0 0.0 -8.038005269797e+01 
-7.927514966080e+01 1.029702859750e+00 0.0 
1.029702859750e+00 -1.630596269756e+02 0.0 
0.0 0.0 -7.230043299093e+01 
-6.853514183031e+01 -1.892325523381e-01 0.0 
-1.892325523381e-01 -1.096033563691e+02 0.0 
0.0 0.0 -5.442383341693e+01 
-3.432147639428e+01 2.005735394012e+01 0.0 
2.005735394012e+01 -2.307579113727e+01 0.0 
0.0 0.0 -1.600793607056e+01 
-4.062416045752e+01 -2.150503591040e+01 0.0 
-2.150503591040e+01 -1.139031248902e+02 0.0 
0.0 0.0 -4.514213606794e+01 
-3.303244594745e+01 1.599249590983e+01 0.0 
1.599249590983e+01 -2.915279122903e+01 0.0 
0.0 0.0 -1.817925034391e+01 
-9.950749391335e+01 1.527353332982e+01 0.0 
1.527353332982e+01 -2.551537367220e+02 0.0 
0.0 0.0 -1.059983691906e+02 
-5.929559650059e+01 -1.019807710249e+01 0.0 
-1.019807710249e+01 -1.697460250247e+02 0.0 
0.0 0.0 -6.831248645758e+01 
-6.290415558140e+01 -5.542274918990e+00 0.0 
-5.542274918990e+00 -1.916603933213e+02 0.0 
0.0 0.0 -7.596936467080e+01 
-3.720541721751e+01 -2.754278764502e+01 0.0 
-2.754278764502e+01 -9.979702147955e+01 0.0 
0.0 0.0 -4.122252699250e+01 
-1.212448161347e+02 4.838671321480e-01 0.0 
4.838671321480e-01 -2.774129454971e+02 0.0 
0.0 0.0 -1.191973284895e+02 
-6.580137478357e+01 -8.191643020497e+00 0.0 
-8.191643020497e+00 -1.848855666831e+02 0.0 
0.0 0.0 -7.480608243999e+01 
-1.270086862928e+02 1.356081166021e+00 0.0 
1.356081166021e+00 -2.908225403308e+02 0.0 
0.0 0.0 -1.249493679871e+02 
-1.162528467704e+02 1.447411567676e+00 0.0 
1.447411567676e+00 -2.619575085365e+02 0.0 
0.0 0.0 -1.130631065921e+02 
-1.407114513722e+02 7.684645634607e-01 0.0 
7.684645634607e-01 -3.271449160119e+02 0.0 
0.0 0.0 -1.399569102152e+02 
-1.671109913672e+02 -1.199931864466e-01 0.0 
-1.199931864466e-01 -3.915949802314e+02 0.0 
0.0 0.0 -1.672117914796e+02 
-8.256259649210e+01 -5.484588560566e-01 0.0 
-5.484588560566e-01 -1.786512219564e+02 0.0 
0.0 0.0 -7.796414553456e+01 
-7.023893529248e+01 -7.718608633112e+00 0.0 
-7.718608633112e+00 -1.899249303672e+02 0.0 
0.0 0.0 -7.764915969789e+01 
-3.261708714750e+01 5.163125571667e+00 0.0 
5.163125571667e+00 -5.118713593243e+01 0.0 
0.0 0.0 -2.474126692398e+01 
-7.090671804662e+01 -8.040050707303e+00 0.0 
-8.040050707303e+00 -1.937533373820e+02 0.0 
0.0 0.0 -7.899801662860e+01 
-1.680392215971e+02 1.109944913296e+00 0.0 
1.109944913296e+00 -3.934248503932e+02 0.0 
0.0 0.0 -1.680392215971e+02 
-3.619705603885e+01 2.476779573630e+01 0.0 
2.476779573630e+01 -2.604080302316e+01 0.0 
0.0 0.0 -1.693380321909e+01 
-3.439064891384e+01 2.272595800512e+01 0.0 
2.272595800512e+01 -2.387977221435e+01 0.0 
0.0 0.0 -1.542951654500e+01 
-1.351282082054e+02 1.091998097245e+01 0.0 
1.091998097245e+01 -3.369357271302e+02 0.0 
0.0 0.0 -1.412191806007e+02 
-7.826283791569e+01 8.750214914614e-01 0.0 
8.750214914614e-01 -1.633005676172e+02 0.0 
0.0 0.0 -7.206902165988e+01 
-1.275236840844e+02 5.734840744251e-01 0.0 
5.734840744251e-01 -2.927415033866e+02 0.0 
0.0 0.0 -1.256795562413e+02 
-1.218289516960e+02 1.420352934506e+01 0.0 
1.420352934506e+01 -2.723768516275e+02 0.0 
0.0 0.0 -1.178617409970e+02 
-1.360254015140e+02 1.312863853869e+01 0.0 
1.312863853869e+01 -3.301461673648e+02 0.0 
0.0 0.0 -1.394514706637e+02 
-1.263413262191e+02 1.270324467950e+01 0.0 
1.270324467950e+01 -2.788655202106e+02 0.0 
0.0 0.0 -1.211620539289e+02 
-8.453505773335e+01 -3.008287148047e-01 0.0 
-3.008287148047e-01 -1.822280060546e+02 0.0 
0.0 0.0 -7.962891913640e+01 
-5.808238257860e+01 -9.571939196663e+00 0.0 
-9.571939196663e+00 -1.432019456529e+02 0.0 
0.0 0.0 -5.998529846944e+01 
-5.523249336296e+01 -1.129113897618e+01 0.0 
-1.129113897618e+01 -1.416680489195e+02 0.0 
0.0 0.0 -5.867016268474e+01 
-1.018270582231e+02 -3.961788921737e-01 0.0 
-3.961788921737e-01 -2.254195202877e+02 0.0 
0.0 0.0 -9.777397355323e+01 
-1.317915309841e+02 1.514780212634e+01 0.0 
1.514780212634e+01 -3.183057670533e+02 0.0 
0.0 0.0 -1.346291894112e+02 
-7.383658900458e+01 1.714688042009e+00 0.0 
1.714688042009e+00 -1.475947326739e+02 0.0 
0.0 0.0 -6.602939650355e+01 
-7.574694676186e+01 5.843461686015e-02 0.0 
5.843461686015e-02 -1.617259636235e+02 0.0 
0.0 0.0 -7.084187311561e+01 
-8.262106696154e+01 4.938644563437e-01 0.0 
4.938644563437e-01 -1.776669260047e+02 0.0 
0.0 0.0 -7.768639788986e+01 
-8.508023354337e+01 1.460059318117e+00 0.0 
1.460059318117e+00 -1.833557378994e+02 0.0 
0.0 0.0 -8.013079143282e+01 
-2.647694300493e+01 -1.333171984585e+01 0.0 
-1.333171984585e+01 -1.159093817451e+02 0.0 
0.0 0.0 -4.396159185827e+01 
-5.256030889839e+01 -1.052446929844e+01 0.0 
-1.052446929844e+01 -1.273581328633e+02 0.0 
0.0 0.0 -5.357553252851e+01 
-1.353851003955e+02 2.830054261087e+00 0.0 
2.830054261087e+00 -3.119320474107e+02 0.0 
0.0 0.0 -1.337951443419e+02 
-9.330407347417e+01 1.622132523962e+00 0.0 
1.622132523962e+00 -2.026672208871e+02 0.0 
0.0 0.0 -8.839138830839e+01 
-1.550764399714e+02 1.286975104507e+01 0.0 
1.286975104507e+01 -3.700028377652e+02 0.0 
0.0 0.0 -1.571237833210e+02 
-1.376632665473e+02 1.314289523974e+01 0.0 
1.314289523974e+01 -3.099983679282e+02 0.0 
0.0 0.0 -1.338984903426e+02 
-1.148222020055e+02 1.241132829398e+01 0.0 
1.241132829398e+01 -2.493006844300e+02 0.0 
0.0 0.0 -1.088368659307e+02 
-1.307566294931e+02 6.365248180381e+00 0.0 
6.365248180381e+00 -2.955192589178e+02 0.0 
0.0 0.0 -1.274827665233e+02 
-7.652711455728e+01 -3.187590518894e+00 0.0 
-3.187590518894e+00 -1.800946135227e+02 0.0 
0.0 0.0 -7.658651842400e+01 
-6.968505707941e+01 -3.409609047539e+00 0.0 
-3.409609047539e+00 -1.644007098555e+02 0.0 
0.0 0.0 -6.982573008048e+01 
-1.502524146781e+02 2.068327271540e+00 0.0 
2.068327271540e+00 -3.619870094555e+02 0.0 
0.0 0.0 -1.532718272401e+02 
-3.750402304786e+01 -1.939805042665e+01 0.0 
-1.939805042665e+01 -9.901705254548e+01 0.0 
0.0 0.0 -4.235070045522e+01 
-4.892964588770e+01 -3.858318521368e-01 0.0 
-3.858318521368e-01 -1.154880124498e+02 0.0 
0.0 0.0 -4.892529750126e+01 
-1.572368691956e+02 1.633193972865e+01 0.0 
1.633193972865e+01 -3.682193614564e+02 0.0 
0.0 0.0 -1.572368691956e+02 
-2.175185701843e+01 8.214008161276e-01 0.0 
8.214008161276e-01 -5.762127772642e+01 0.0 
0.0 0.0 -2.341194042345e+01 
-7.578944958871e+01 3.573085844608e-02 0.0 
3.573085844608e-02 -1.617766926841e+02 0.0 
0.0 0.0 -7.086984268183e+01 
-1.451837138714e+02 8.932190039323e+00 0.0 
8.932190039323e+00 -3.583089155564e+02 0.0 
0.0 0.0 -1.506477888283e+02 
-1.889691280788e+01 -3.265251302596e+00 0.0 
-3.265251302596e+00 -3.995214109534e+01 0.0 
0.0 0.0 -1.725471617096e+01 
-6.514191137764e+00 -1.614893366260e-01 0.0 
-1.614893366260e-01 -2.365851637599e+01 0.0 
0.0 0.0 -8.170767497550e+00 
-1.424250372021e+02 5.376300856848e+00 0.0 
5.376300856848e+00 -3.297359744941e+02 0.0 
0.0 0.0 -1.412483035088e+02 
-7.006085976933e+01 -8.339829582761e-02 0.0 
-8.339829582761e-02 -1.452109889343e+02 0.0 
0.0 0.0 -6.418155461110e+01 
-1.343900565212e+02 3.332116671084e+00 0.0 
3.332116671084e+00 -3.084397566477e+02 0.0 
0.0 0.0 -1.324489439507e+02 
-1.469330658657e+02 9.800490213711e+00 0.0 
9.800490213711e+00 -3.574254879497e+02 0.0 
0.0 0.0 -1.509075661446e+02 
-6.975719426125e+01 4.358982462501e-01 0.0 
4.358982462501e-01 -1.448685342675e+02 0.0 
0.0 0.0 -6.398771855862e+01 
-6.559636789938e+01 6.610274082411e+00 0.0 
6.610274082411e+00 -1.085225734137e+02 0.0 
0.0 0.0 -5.329672002782e+01 
-1.335798823061e+02 1.194678726794e+00 0.0 
1.194678726794e+00 -3.101141348562e+02 0.0 
0.0 0.0 -1.327082051487e+02 
-2.605893907052e+01 -6.026842867538e-01 0.0 
-6.026842867538e-01 -6.340313379032e+01 0.0 
0.0 0.0 -2.643862185825e+01 
-1.292491894295e+02 3.052339943419e+00 0.0 
3.052339943419e+00 -2.967914797810e+02 0.0 
0.0 0.0 -1.274122007631e+02 
-1.677188011868e+02 5.923819335096e-01 0.0 
5.923819335096e-01 -3.926772027693e+02 0.0 
0.0 0.0 -1.677188011868e+02 
-1.350107733076e+02 1.110538408638e+01 0.0 
1.110538408638e+01 -3.051999030102e+02 0.0 
0.0 0.0 -1.316632028953e+02 
-2.978075535724e+01 -1.008913941216e+01 0.0 
-1.008913941216e+01 -1.282040428014e+02 0.0 
0.0 0.0 -4.851674671235e+01 
-8.750934268663e+01 2.568652013260e+00 0.0 
2.568652013260e+00 -1.813633708017e+02 0.0 
0.0 0.0 -8.026181404649e+01 
-7.754155557515e+01 -9.733594240694e-01 0.0 
-9.733594240694e-01 -1.827941258388e+02 0.0 
0.0 0.0 -7.770070442417e+01 
-1.224622729012e+02 1.490520213583e+01 0.0 
1.490520213583e+01 -2.989048938502e+02 0.0 
0.0 0.0 -1.260101500254e+02 
-1.604525760068e+02 1.518288168330e+01 0.0 
1.518288168330e+01 -3.797805430954e+02 0.0 
0.0 0.0 -1.616699357306e+02 
-1.099800149063e+02 -2.211076148535e-02 0.0 
-2.211076148535e-02 -2.466802829727e+02 0.0 
0.0 0.0 -1.065980893637e+02 
-1.607664615198e+02 1.316134466152e+01 0.0 
1.316134466152e+01 -3.825616787245e+02 0.0 
0.0 0.0 -1.625984420733e+02 
-2.940881323563e+01 -1.427730610579e+01 0.0 
-1.427730610579e+01 -1.154310632611e+02 0.0 
0.0 0.0 -4.562565609805e+01 
-1.602771665796e+02 1.419556225209e+00 0.0 
1.419556225209e+00 -3.783047078343e+02 0.0 
0.0 0.0 -1.611745623242e+02 
-3.435893697553e+01 -1.368624831530e+01 0.0 
-1.368624831530e+01 -1.261215859114e+02 0.0 
0.0 0.0 -4.763107476533e+01 
-2.248421061636e+01 -1.054103880516e+00 0.0 
-1.054103880516e+00 -5.762002678879e+01 0.0 
0.0 0.0 -2.363127122154e+01 
-1.554481357347e+02 7.776744488250e+00 0.0 
7.776744488250e+00 -3.758179198663e+02 0.0 
0.0 0.0 -1.589798166803e+02 
-1.392724348066e+02 8.278253329757e+00 0.0 
8.278253329757e+00 -3.172682512097e+02 0.0 
0.0 0.0 -1.365622058049e+02 
-1.373190110304e+02 5.738686412301e+00 0.0 
5.738686412301e+00 -3.165835033828e+02 0.0 
0.0 0.0 -1.357707543239e+02 
-7.567449404224e+01 -4.834005725381e-01 0.0 
-4.834005725381e-01 -1.605706666319e+02 0.0 
0.0 0.0 -7.047354820224e+01 
-8.961086062313e+01 3.120464101691e+00 0.0 
3.120464101691e+00 -1.848697895249e+02 0.0 
0.0 0.0 -8.194419504440e+01 
-3.651682996245e+01 2.712859240463e+01 0.0 
2.712859240463e+01 -6.868076509348e+01 0.0 
0.0 0.0 -3.077568650655e+01 
-1.442312012158e+02 1.383391094127e+01 0.0 
1.383391094127e+01 -3.290780806220e+02 0.0 
0.0 0.0 -1.415927845513e+02 
-6.528706147760e+01 -2.149976913736e+00 0.0 
-2.149976913736e+00 -1.520529061867e+02 0.0 
0.0 0.0 -6.480199029928e+01 
-2.936369085140e+01 2.825015034050e+01 0.0 
2.825015034050e+01 -7.555731534968e+01 0.0 
0.0 0.0 -3.157482243442e+01 
-1.273350925537e+02 1.320182018150e+01 0.0 
1.320182018150e+01 -3.119836374377e+02 0.0 
0.0 0.0 -1.313956189974e+02 
-6.883109706526e+01 1.694994732279e-01 0.0 
1.694994732279e-01 -1.444242217703e+02 0.0 
0.0 0.0 -6.357659565067e+01 
-1.330405195962e+02 7.028498915886e+00 0.0 
7.028498915886e+00 -3.032740191638e+02 0.0 
0.0 0.0 -1.304943616280e+02 
-1.400302821714e+02 8.060121409317e-01 0.0 
8.060121409317e-01 -3.255135199765e+02 0.0 
0.0 0.0 -1.392631406444e+02 
-1.398968027105e+02 3.835707635256e-01 0.0 
3.835707635256e-01 -3.277592063245e+02 0.0 
0.0 0.0 -1.398968027105e+02 
-1.225094008819e+00 2.700088919832e-01 0.0 
2.700088919832e-01 -6.348039799840e+00 0.0 
0.0 0.0 -1.252914284324e+00 
-1.353552310990e+00 -5.676078115017e-01 0.0 
-5.676078115017e-01 -1.069420615543e+01 0.0 
0.0 0.0 -2.123813146340e+00 
-6.933559927085e+01 6.744102335432e-01 0.0 
6.744102335432e-01 -1.468168024189e+02 0.0 
0.0 0.0 -6.444572050693e+01 
-6.794766435637e+01 -1.048930514878e-01 0.0 
-1.048930514878e-01 -1.443082209082e+02 0.0 
0.0 0.0 -6.327676557938e+01 
-1.672855157170e+02 -2.067314477777e-02 0.0 
-2.067314477777e-02 -3.916662033396e+02 0.0 
0.0 0.0 -1.672855157170e+02 
-1.662506696561e+02 -7.381347117548e-01 0.0 
-7.381347117548e-01 -3.891137415656e+02 0.0 
0.0 0.0 -1.662093233665e+02 
-5.829935608963e+00 -6.928068774435e-01 0.0 
-6.928068774435e-01 -2.308874405055e+01 0.0 
0.0 0.0 -7.674644350773e+00 
-6.634770768252e+01 -4.651695076569e+00 0.0 
-4.651695076569e+00 -1.130574079708e+02 0.0 
0.0 0.0 -5.432196104320e+01 
-1.526610075544e+02 -3.103606937160e-01 0.0 
-3.103606937160e-01 -3.600953681223e+02 0.0 
0.0 0.0 -1.534269127030e+02 
-1.402178788009e+02 1.442518611277e+01 0.0 
1.442518611277e+01 -3.317401010730e+02 0.0 
0.0 0.0 -1.411873939622e+02 
-3.060951382640e+01 -9.926891002888e-01 0.0 
-9.926891002888e-01 -7.433063729389e+01 0.0 
0.0 0.0 -3.108204533609e+01 
-1.540741231842e+02 1.646148002681e+00 0.0 
1.646148002681e+00 -3.658426490324e+02 0.0 
0.0 0.0 -1.555750316650e+02 
-1.093589755733e+02 2.989678764866e-02 0.0 
2.989678764866e-02 -2.575252227437e+02 0.0 
0.0 0.0 -1.096652594951e+02 
-9.436624445243e+01 5.421037987413e-01 0.0 
5.421037987413e-01 -2.223545459632e+02 0.0 
0.0 0.0 -9.461623712468e+01 
-9.677242291004e+01 2.121778963176e-01 0.0 
2.121778963176e-01 -2.125503877039e+02 0.0 
0.0 0.0 -9.239684318418e+01 
-4.095846282686e+01 -1.886712588381e+01 0.0 
-1.886712588381e+01 -8.961542733835e+01 0.0 
0.0 0.0 -3.707983696434e+01 
-1.135001547759e+02 1.523266809006e+01 0.0 
1.523266809006e+01 -2.800998662652e+02 0.0 
0.0 0.0 -1.176800063123e+02 
-2.378281240443e+01 -1.767508096964e+00 0.0 
-1.767508096964e+00 -5.954500233701e+01 0.0 
0.0 0.0 -2.459834442243e+01 
-8.622008863650e+01 -1.053877734880e+00 0.0 
-1.053877734880e+00 -2.028408339938e+02 0.0 
0.0 0.0 -8.631827678910e+01 
-1.376710102278e+02 1.215430043389e+01 0.0 
1.215430043389e+01 -3.149588956962e+02 0.0 
0.0 0.0 -1.353889717772e+02 
-1.249695620806e+02 9.107304639603e-01 0.0 
9.107304639603e-01 -2.855138000708e+02 0.0 
0.0 0.0 -1.227450086454e+02 
-9.436159350914e+01 -9.950223306729e-01 0.0 
-9.950223306729e-01 -2.211368590747e+02 0.0 
0.0 0.0 -9.424953577515e+01 
-8.834842491493e+01 9.850909459195e-01 0.0 
9.850909459195e-01 -1.920246820963e+02 0.0 
0.0 0.0 -8.371193210337e+01 
-1.407208439083e+02 1.531949113084e+01 0.0 
1.531949113084e+01 -3.273271206729e+02 0.0 
0.0 0.0 -1.400143893744e+02 
-1.297737261166e+02 1.354081671404e+01 0.0 
1.354081671404e+01 -2.893857450712e+02 0.0 
0.0 0.0 -1.253478413563e+02 
-1.222930418700e+02 1.298223846303e+01 0.0 
1.298223846303e+01 -2.692983636900e+02 0.0 
0.0 0.0 -1.170774216680e+02 
-6.935359268046e+01 1.193827437241e-01 0.0 
1.193827437241e-01 -1.450710207804e+02 0.0 
0.0 0.0 -6.392738403827e+01 
-1.084386212361e+02 1.484405070530e+01 0.0 
1.484405070530e+01 -2.738328052902e+02 0.0 
0.0 0.0 -1.142814279579e+02 
-1.329054672039e+02 8.459992183469e+00 0.0 
8.459992183469e+00 -3.027357357804e+02 0.0 
0.0 0.0 -1.302923608953e+02 
-4.900504445081e+01 -1.789773794319e+00 0.0 
-1.789773794319e+00 -1.151778907619e+02 0.0 
0.0 0.0 -4.885488056382e+01 
-9.992425876715e+00 -1.487345127113e+00 0.0 
-1.487345127113e+00 -2.577220675126e+01 0.0 
0.0 0.0 -1.032938978839e+01 
-1.357221414887e+02 1.531045826179e+01 0.0 
1.531045826179e+01 -3.133518892387e+02 0.0 
0.0 0.0 -1.343222092182e+02 
-1.300051287924e+02 8.700274546199e+00 0.0 
8.700274546199e+00 -3.288600314976e+02 0.0 
0.0 0.0 -1.372595480870e+02 
-3.795435315358e+01 -1.973508612267e+01 0.0 
-1.973508612267e+01 -8.061513866699e+01 0.0 
0.0 0.0 -3.477196264039e+01 
-1.024499910440e+02 1.058709482978e+00 0.0 
1.058709482978e+00 -2.266762058317e+02 0.0 
0.0 0.0 -9.833785906270e+01 
-1.595083400039e+02 4.826412876849e-01 0.0 
4.826412876849e-01 -3.748185295360e+02 0.0 
0.0 0.0 -1.598980608620e+02 
-1.353984006517e+02 1.427194933006e+01 0.0 
1.427194933006e+01 -3.181739898039e+02 0.0 
0.0 0.0 -1.356717171367e+02 
-1.411384680483e+02 1.591502792090e+01 0.0 
1.591502792090e+01 -3.302837912561e+02 0.0 
0.0 0.0 -1.410266777913e+02 
-1.181648309445e+02 7.071027252953e-01 0.0 
7.071027252953e-01 -2.784331741498e+02 0.0 
0.0 0.0 -1.185794015283e+02 
-3.735963689350e+01 2.807608175900e+01 0.0 
2.807608175900e+01 -9.860505283699e+01 0.0 
0.0 0.0 -4.214158277020e+01 
-2.384738008761e+01 6.882301974071e+00 0.0 
6.882301974071e+00 -3.048774968402e+01 0.0 
0.0 0.0 -1.590053893149e+01 
-4.129270405905e+01 2.366995257452e+01 0.0 
2.366995257452e+01 -7.068137080516e+01 0.0 
0.0 0.0 -3.319222245926e+01 
-8.793724982873e+01 2.639707445335e+00 0.0 
2.639707445335e+00 -1.813073968069e+02 0.0 
0.0 0.0 -8.037339399069e+01 
-1.094655867688e+02 1.348535656411e+01 0.0 
1.348535656411e+01 -2.740356783024e+02 0.0 
0.0 0.0 -1.146503795213e+02 
-1.303632580435e+02 3.404262891025e+00 0.0 
3.404262891025e+00 -2.989679686145e+02 0.0 
0.0 0.0 -1.283993679974e+02 
-1.547524383480e+02 1.082399596738e+01 0.0 
1.082399596738e+01 -3.699301753663e+02 0.0 
0.0 0.0 -1.570047841143e+02 
-3.464529417048e+01 -1.364050566827e+01 0.0 
-1.364050566827e+01 -5.182099905001e+01 0.0 
0.0 0.0 -2.377036494188e+01 
-2.239058081174e+01 -5.342035797367e+00 0.0 
-5.342035797367e+00 -4.313600950824e+01 0.0 
0.0 0.0 -1.900820339063e+01 
-2.157489344790e+01 1.067811638948e+01 0.0 
1.067811638948e+01 -1.951339970278e+01 0.0 
0.0 0.0 -1.168231640208e+01 
-1.046461684932e+02 -3.284151866351e-01 0.0 
-3.284151866351e-01 -2.323142993559e+02 0.0 
0.0 0.0 -1.006881403547e+02 
-6.047364173637e+01 -1.339182117555e+00 0.0 
-1.339182117555e+00 -1.420048896446e+02 0.0 
0.0 0.0 -6.034355941429e+01 
-1.336807301119e+02 7.158158321493e+00 0.0 
7.158158321493e+00 -3.037196573482e+02 0.0 
0.0 0.0 -1.308201162380e+02 
-2.837946753886e+01 -4.521392884072e-02 0.0 
-4.521392884072e-02 -7.113072137277e+01 0.0 
0.0 0.0 -2.945305667349e+01 
-1.447557349029e+02 1.040363094800e+01 0.0 
1.040363094800e+01 -3.532579307726e+02 0.0 
0.0 0.0 -1.490040997026e+02 
-8.442246895280e+01 5.002160130295e-01 0.0 
5.002160130295e-01 -1.782280059655e+02 0.0 
0.0 0.0 -7.839514247550e+01 
-1.517478819729e+02 1.482879727997e+01 0.0 
1.482879727997e+01 -3.580303233181e+02 0.0 
0.0 0.0 -1.525334615873e+02 
-1.274765669973e+02 1.558474889619e+01 0.0 
1.558474889619e+01 -3.062114203397e+02 0.0 
0.0 0.0 -1.297063962011e+02 
-8.890862463555e+01 3.697229492442e+00 0.0 
3.697229492442e+00 -1.819463055904e+02 0.0 
0.0 0.0 -8.085647906778e+01 
-1.565459286247e+02 5.283620953332e+00 0.0 
5.283620953332e+00 -3.771854790109e+02 0.0 
0.0 0.0 -1.597194222907e+02 
-1.382905637004e+02 7.037504365716e+00 0.0 
7.037504365716e+00 -3.166330248191e+02 0.0 
0.0 0.0 -1.360770765559e+02 
-1.352529009520e+02 3.943585000672e-01 0.0 
3.943585000672e-01 -3.116682587109e+02 0.0 
0.0 0.0 -1.336763478989e+02 
-2.977343757187e+01 2.087140744426e+01 0.0 
2.087140744426e+01 -2.493155823029e+01 0.0 
0.0 0.0 -1.431627619282e+01 
-1.295814137123e+02 4.865582948962e+00 0.0 
4.865582948962e+00 -2.948546076823e+02 0.0 
0.0 0.0 -1.269308064184e+02 
-1.453237430426e+02 1.491756104632e+01 0.0 
1.491756104632e+01 -3.383290797636e+02 0.0 
0.0 0.0 -1.446958468418e+02 
-1.437707057312e+02 1.128854397574e+01 0.0 
1.128854397574e+01 -3.533985019532e+02 0.0 
0.0 0.0 -1.487507623053e+02 
-1.313661642546e+02 1.338205661749e+01 0.0 
1.338205661749e+01 -3.175423308218e+02 0.0 
0.0 0.0 -1.342725485229e+02 
-1.681005561167e+02 1.820059581116e+00 0.0 
1.820059581116e+00 -3.935679642723e+02 0.0 
0.0 0.0 -1.681005561167e+02 
-1.209893687828e+02 1.063134877054e+01 0.0 
1.063134877054e+01 -2.682844163756e+02 0.0 
0.0 0.0 -1.163821355475e+02 
-5.148336370322e+01 1.960982842350e+01 0.0 
1.960982842350e+01 -7.223185721184e+01 0.0 
0.0 0.0 -3.766630917504e+01 
-3.402474466602e+01 2.893302490630e+01 0.0 
2.893302490630e+01 -7.115458356346e+01 0.0 
0.0 0.0 -2.977616880118e+01 
-1.331264141510e+02 1.317511147501e+01 0.0 
1.317511147501e+01 -2.986315877740e+02 0.0 
0.0 0.0 -1.291274005775e+02 
-9.332358984364e+01 2.389559069780e+00 0.0 
2.389559069780e+00 -1.960107542442e+02 0.0 
0.0 0.0 -8.640030322636e+01 
-1.528849036634e+02 8.327535089178e-01 0.0 
8.327535089178e-01 -3.588324790778e+02 0.0 
0.0 0.0 -1.531152148224e+02 
-1.365448735267e+02 1.562024804007e+01 0.0 
1.562024804007e+01 -3.253984054890e+02 0.0 
0.0 0.0 -1.381829837047e+02 
-1.608052470053e+02 1.619162731043e+00 0.0 
1.619162731043e+00 -3.790817255151e+02 0.0 
0.0 0.0 -1.615660917561e+02 
-1.130152228445e+02 7.175533234086e-02 0.0 
7.175533234086e-02 -2.532200985240e+02 0.0 
0.0 0.0 -1.094705964106e+02 
-1.528472684416e+02 1.433582862614e+01 0.0 
1.433582862614e+01 -3.617023647694e+02 0.0 
0.0 0.0 -1.539648899633e+02 
-1.515041477863e+02 4.623204997225e+00 0.0 
4.623204997225e+00 -3.655484305146e+02 0.0 
0.0 0.0 -1.547157734903e+02 
-1.507515750880e+02 3.579093981024e+00 0.0 
3.579093981024e+00 -3.650916128111e+02 0.0 
0.0 0.0 -1.543529563697e+02 
-6.277524612749e+01 -9.770084962871e-01 0.0 
-9.770084962871e-01 -1.471707976602e+02 0.0 
0.0 0.0 -6.258381313631e+01 
-1.672446058281e+02 1.184721733344e+00 0.0 
1.184721733344e+00 -3.931179608507e+02 0.0 
0.0 0.0 -1.677087700036e+02 
-7.886858443021e+01 1.326528563183e+00 0.0 
1.326528563183e+00 -1.623435608041e+02 0.0 
0.0 0.0 -7.196364357028e+01 
-1.283696343398e+02 2.231700681030e+00 0.0 
2.231700681030e+00 -2.933934538320e+02 0.0 
0.0 0.0 -1.261289264515e+02 
-2.710176799777e+01 -6.498568981804e+00 0.0 
-6.498568981804e+00 -4.322656203230e+01 0.0 
0.0 0.0 -1.979867554310e+01 
-1.229588418393e+02 1.193644775301e+00 0.0 
1.193644775301e+00 -2.784902474812e+02 0.0 
0.0 0.0 -1.200347267962e+02 
-1.034831302152e+02 7.527749918664e-01 0.0 
7.527749918664e-01 -2.285443615596e+02 0.0 
0.0 0.0 -9.920824753245e+01 
-1.316667061651e+01 6.042124657400e-01 0.0 
6.042124657400e-01 -4.174883244781e+01 0.0 
0.0 0.0 -1.607465091930e+01 
-3.226339850354e+01 -1.324216482172e+01 0.0 
-1.324216482172e+01 -1.318192989477e+02 0.0 
0.0 0.0 -4.975303860299e+01 
-1.247482358546e+02 1.151887712281e+01 0.0 
1.151887712281e+01 -2.798456420403e+02 0.0 
0.0 0.0 -1.209781633685e+02 
-1.345459879816e+02 3.930828190079e+00 0.0 
3.930828190079e+00 -3.116778088415e+02 0.0 
0.0 0.0 -1.334671390469e+02 
-1.289415791815e+02 1.418371234235e+00 0.0 
1.418371234235e+00 -2.959957244398e+02 0.0 
0.0 0.0 -1.270811910864e+02 
-1.498545204396e+02 1.334560503463e+01 0.0 
1.334560503463e+01 -3.598754072982e+02 0.0 
0.0 0.0 -1.525189783213e+02 
-8.839449707906e+01 -3.204027975000e-01 0.0 
-3.204027975000e-01 -1.915459035805e+02 0.0 
0.0 0.0 -8.358212019786e+01 
-7.803595846858e+00 -4.118496095931e-01 0.0 
-4.118496095931e-01 -2.487822576282e+01 0.0 
0.0 0.0 -9.295902720015e+00 
-3.534079745780e+01 2.142969284918e+01 0.0 
2.142969284918e+01 -1.127215117874e+02 0.0 
0.0 0.0 -4.599165440937e+01 
-1.147288931203e+01 -1.967526936778e+00 0.0 
-1.967526936778e+00 -2.840230756773e+01 0.0 
0.0 0.0 -1.156255906393e+01 
-2.909180347855e+01 -5.915966478762e+00 0.0 
-5.915966478762e+00 -5.777067081889e+01 0.0 
0.0 0.0 -2.544024853108e+01 
-4.488024598356e+01 3.741317369449e+01 0.0 
3.741317369449e+01 -5.741467492616e+01 0.0 
0.0 0.0 -3.113892748760e+01 
-8.422294132974e+01 -2.378923186869e+00 0.0 
-2.378923186869e+00 -1.973935661236e+02 0.0 
0.0 0.0 -8.408495223601e+01 
-1.526645390127e+02 -7.662762657998e-01 0.0 
-7.662762657998e-01 -3.586894916310e+02 0.0 
0.0 0.0 -1.530062091931e+02 
-1.345538522371e+02 9.709190824682e+00 0.0 
9.709190824682e+00 -3.052893540423e+02 0.0 
0.0 0.0 -1.315529618838e+02 
-9.570370304769e+01 5.242785824920e+00 0.0 
5.242785824920e+00 -1.970262269873e+02 0.0 
0.0 0.0 -8.741897901051e+01 
-7.354689228068e+01 -1.659077455339e+00 0.0 
-1.659077455339e+00 -1.734909736949e+02 0.0 
0.0 0.0 -7.371135979268e+01 
-1.508428409787e+02 3.081095402397e+00 0.0 
3.081095402397e+00 -3.627269075926e+02 0.0 
0.0 0.0 -1.536709245714e+02 
-1.447671171331e+02 6.361465528511e+00 0.0 
6.361465528511e+00 -3.574016185648e+02 0.0 
0.0 0.0 -1.502506207094e+02 
-1.500652677565e+02 1.548961596354e+01 0.0 
1.548961596354e+01 -3.567022636571e+02 0.0 
0.0 0.0 -1.516302594241e+02 
-1.405923530001e+02 1.485268481151e+01 0.0 
1.485268481151e+01 -3.262131103506e+02 0.0 
0.0 0.0 -1.396416390052e+02 
-1.317973370287e+02 1.218898497444e+01 0.0 
1.218898497444e+01 -2.992530265276e+02 0.0 
0.0 0.0 -1.289151090669e+02 
-2.634306628991e+01 -5.571671942991e+00 0.0 
-5.571671942991e+00 -4.235313552763e+01 0.0 
0.0 0.0 -1.955678915910e+01 
-3.793841976924e+01 -1.764289343487e+01 0.0 
-1.764289343487e+01 -1.125996173698e+02 0.0 
0.0 0.0 -4.692386743791e+01 
-1.530491963664e+02 7.911436276666e-01 0.0 
7.911436276666e-01 -3.607673294966e+02 0.0 
0.0 0.0 -1.537449577589e+02 
-1.404852748184e+01 -2.789008202961e-01 0.0 
-2.789008202961e-01 -4.131000598473e+01 0.0 
0.0 0.0 -1.620756003997e+01 
-1.723673454302e+01 -1.297842768294e+00 0.0 
-1.297842768294e+00 -4.920128721510e+01 0.0 
0.0 0.0 -1.953140652744e+01 
-3.652057350865e+01 3.209592079743e+01 0.0 
3.209592079743e+01 -5.567974827770e+01 0.0 
0.0 0.0 -2.792258963856e+01 
-1.567468844004e+01 -7.267796694391e-01 0.0 
-7.267796694391e-01 -3.846009221826e+01 0.0 
0.0 0.0 -1.584043419749e+01 
-1.593761789493e+02 4.534047009437e+00 0.0 
4.534047009437e+00 -3.788957092803e+02 0.0 
0.0 0.0 -1.610815664689e+02 
-1.437778591435e+02 1.439534974508e+01 0.0 
1.439534974508e+01 -3.327564730907e+02 0.0 
0.0 0.0 -1.425602996702e+02 
-1.297721885885e+02 1.860891388608e+00 0.0 
1.860891388608e+00 -2.988421544563e+02 0.0 
0.0 0.0 -1.281843029134e+02 
-1.510122901020e+02 1.530221890543e+01 0.0 
1.530221890543e+01 -3.560834074163e+02 0.0 
0.0 0.0 -1.517287092555e+02 
-1.402231243494e+02 7.900122278461e+00 0.0 
7.900122278461e+00 -3.475508301997e+02 0.0 
0.0 0.0 -1.459321863647e+02 
-9.310782289765e+01 -3.710161265930e-01 0.0 
-3.710161265930e-01 -2.028468904038e+02 0.0 
0.0 0.0 -8.838641399042e+01 
-1.409827344165e+02 5.269513412043e+00 0.0 
5.269513412043e+00 -3.302930469719e+02 0.0 
0.0 0.0 -1.409827344165e+02 
-4.344636944519e+01 -1.814411439262e+01 0.0 
-1.814411439262e+01 -1.304029190984e+02 0.0 
0.0 0.0 -5.087084124775e+01 
-6.969587592638e+01 2.431463154686e-01 0.0 
2.431463154686e-01 -1.443524571752e+02 0.0 
0.0 0.0 -6.381449993048e+01 
-4.349206179304e+01 -2.004328478088e+01 0.0 
-2.004328478088e+01 -7.380312801458e+01 0.0 
0.0 0.0 -3.296782952664e+01 
-7.280528149396e+00 -5.611606801904e-01 0.0 
-5.611606801904e-01 -2.462253179133e+01 0.0 
0.0 0.0 -9.753137580400e+00 
-1.671997261213e+02 2.708088691600e-01 0.0 
2.708088691600e-01 -3.921199999022e+02 0.0 
0.0 0.0 -1.673959178071e+02 
-8.213056791722e+01 2.999336760490e+00 0.0 
2.999336760490e+00 -1.664603088078e+02 0.0 
0.0 0.0 -7.417726301750e+01 
-2.162673592860e+01 -9.022754524840e-01 0.0 
-9.022754524840e-01 -5.728208944334e+01 0.0 
0.0 0.0 -2.327264761158e+01 
-8.035608100554e+01 -2.329243265979e+00 0.0 
-2.329243265979e+00 -1.892619321513e+02 0.0 
0.0 0.0 -8.048540394706e+01 
-1.450432534462e+02 1.429529105586e+01 0.0 
1.429529105586e+01 -3.329631531326e+02 0.0 
0.0 0.0 -1.430019219736e+02 
-1.305447627048e+02 4.362848064391e+00 0.0 
4.362848064391e+00 -2.979094502511e+02 0.0 
0.0 0.0 -1.281362638867e+02 
-1.374323268329e+02 8.254510807313e+00 0.0 
8.254510807313e+00 -3.174442426814e+02 0.0 
0.0 0.0 -1.360629708543e+02 
-5.712939670594e+01 -1.611109628966e-01 0.0 
-1.611109628966e-01 -1.338628863918e+02 0.0 
0.0 0.0 -5.689768492933e+01 
-3.778986338493e+01 3.043629397039e+00 0.0 
3.043629397039e+00 -1.224456075708e+02 0.0 
0.0 0.0 -5.000047423019e+01 
-1.591310023395e+02 2.088361780718e+00 0.0 
2.088361780718e+00 -3.781646726627e+02 0.0 
0.0 0.0 -1.607887025007e+02 
-1.415625639196e+02 4.212164484370e-01 0.0 
4.212164484370e-01 -3.283215947012e+02 0.0 
0.0 0.0 -1.405652475862e+02 
-1.670017130356e+02 8.879240734465e-02 0.0 
8.879240734465e-02 -3.914560519242e+02 0.0 
0.0 0.0 -1.671373294879e+02 
-7.435000074197e+01 -4.913992157370e-01 0.0 
-4.913992157370e-01 -1.587222187497e+02 0.0 
0.0 0.0 -6.952166584751e+01 
-1.485559961926e+02 7.818311690707e+00 0.0 
7.818311690707e+00 -3.608666042464e+02 0.0 
0.0 0.0 -1.524267801317e+02 
-2.337021044999e+01 -3.741549295185e-01 0.0 
-3.741549295185e-01 -5.840693922879e+01 0.0 
0.0 0.0 -2.413314490363e+01 
-1.326644466489e+02 5.694634163490e+00 0.0 
5.694634163490e+00 -3.034544050785e+02 0.0 
0.0 0.0 -1.304356555182e+02 
-7.517477782000e+00 -2.534814341698e-01 0.0 
-2.534814341698e-01 -2.344219690061e+01 0.0 
0.0 0.0 -9.248066329787e+00 
-1.588660158481e+02 6.589906014059e+00 0.0 
6.589906014059e+00 -3.785657315541e+02 0.0 
0.0 0.0 -1.608295242207e+02 
-1.389815190381e+02 8.481137368670e+00 0.0 
8.481137368670e+00 -3.176838630702e+02 0.0 
0.0 0.0 -1.365996146325e+02 
-4.175337948870e+01 1.300009150574e+01 0.0 
1.300009150574e+01 -1.189334253507e+02 0.0 
0.0 0.0 -4.957231565558e+01 
-1.357031796354e+02 1.574948050964e+01 0.0 
1.574948050964e+01 -3.190734021847e+02 0.0 
0.0 0.0 -1.360329745460e+02 
-1.092658774550e+02 1.509323259758e+00 0.0 
1.509323259758e+00 -2.431871226092e+02 0.0 
0.0 0.0 -1.053359000193e+02 
-1.346650745075e+02 2.983460396464e+00 0.0 
2.983460396464e+00 -3.124981699065e+02 0.0 
0.0 0.0 -1.337489733242e+02 
-1.637340624842e+02 1.372856136650e+01 0.0 
1.372856136650e+01 -3.833794791298e+02 0.0 
0.0 0.0 -1.637340624842e+02 
-9.806825814532e+01 1.413475739734e+00 0.0 
1.413475739734e+00 -2.162952027279e+02 0.0 
0.0 0.0 -9.390903826197e+01 
-1.428825695810e+02 1.339959581579e+01 0.0 
1.339959581579e+01 -3.308560194553e+02 0.0 
0.0 0.0 -1.417215767109e+02 
-1.345236931649e+02 8.581699856919e+00 0.0 
8.581699856919e+00 -3.046554960391e+02 0.0 
0.0 0.0 -1.313537567612e+02 
-1.025083923443e+02 4.692924879846e-01 0.0 
4.692924879846e-01 -2.278946605860e+02 0.0 
0.0 0.0 -9.872091587910e+01 
-1.393137749076e+02 1.324259202475e+01 0.0 
1.324259202475e+01 -3.190530027946e+02 0.0 
0.0 0.0 -1.371100333107e+02 
-6.922909187176e+01 -9.612350191427e-01 0.0 
-9.612350191427e-01 -1.613777006028e+02 0.0 
0.0 0.0 -6.878203774236e+01 
-6.837691258662e+01 1.537983928184e-01 0.0 
1.537983928184e-01 -1.442655237393e+02 0.0 
0.0 0.0 -6.339273089777e+01 
-1.441560093408e+02 1.465436465069e+01 0.0 
1.465436465069e+01 -3.426917481628e+02 0.0 
0.0 0.0 -1.456543272511e+02 
-1.352716854395e+02 -1.043855408946e-01 0.0 
-1.043855408946e-01 -3.135198839299e+02 0.0 
0.0 0.0 -1.342374708108e+02 
-6.942496512016e-02 2.914662885606e-02 0.0 
2.914662885606e-02 -8.802096030243e+00 0.0 
0.0 0.0 -1.911887330412e+00 
-6.815995130391e+01 -2.078413528403e-01 0.0 
-2.078413528403e-01 -1.444887897997e+02 0.0 
0.0 0.0 -6.339462233109e+01 
-1.614251933575e+02 5.127448522808e-01 0.0 
5.127448522808e-01 -3.781147936899e+02 0.0 
0.0 0.0 -1.614619961142e+02 
-3.148446062747e+01 -2.732548366669e+00 0.0 
-2.732548366669e+00 -7.356820382793e+01 0.0 
0.0 0.0 -3.111579933662e+01 
-1.442824140368e+02 9.691706108985e+00 0.0 
9.691706108985e+00 -3.566680179345e+02 0.0 
0.0 0.0 -1.498851295914e+02 
-1.356309658332e+02 9.947407385303e+00 0.0 
9.947407385303e+00 -3.048016697492e+02 0.0 
0.0 0.0 -1.317297906747e+02 
-1.352980874744e+02 3.223639860900e+00 0.0 
3.223639860900e+00 -3.115913058313e+02 0.0 
0.0 0.0 -1.336668179917e+02 
-2.888525000811e+01 -1.862308572725e+00 0.0 
-1.862308572725e+00 -7.053119150026e+01 0.0 
0.0 0.0 -2.942493245251e+01 
-3.757637924123e+01 3.372797741881e+01 0.0 
3.372797741881e+01 -8.757286297001e+01 0.0 
0.0 0.0 -3.672304303518e+01 
-9.776059317865e+01 -1.565457482404e+00 0.0 
-1.565457482404e+00 -2.309892078829e+02 0.0 
0.0 0.0 -9.822494031846e+01 
-1.166432803383e+02 2.520058906696e-01 0.0 
2.520058906696e-01 -2.643676120636e+02 0.0 
0.0 0.0 -1.139032677206e+02 
-1.124725924520e+02 -3.802884140923e+00 0.0 
-3.802884140923e+00 -9.721995317337e+01 0.0 
0.0 0.0 -6.313214820043e+01 
-1.368159163509e+02 6.900655712048e+00 0.0 
6.900655712048e+00 -3.165390886406e+02 0.0 
0.0 0.0 -1.356065014975e+02 
-9.543909761371e+01 1.938272511416e-01 0.0 
1.938272511416e-01 -2.102548319752e+02 0.0 
0.0 0.0 -9.130817887666e+01 
-4.433491807562e+01 -1.820622702622e+01 0.0 
-1.820622702622e+01 -9.056416430485e+01 0.0 
0.0 0.0 -3.820954349490e+01 
-8.990297729660e+01 2.063064815158e-01 0.0 
2.063064815158e-01 -1.964557276554e+02 0.0 
0.0 0.0 -8.550761148559e+01 
-1.493480287925e+02 1.674866924040e+01 0.0 
1.674866924040e+01 -3.520986204124e+02 0.0 
0.0 0.0 -1.500339947615e+02 
-1.027622577402e+02 1.031791664668e+00 0.0 
1.031791664668e+00 -2.420970865894e+02 0.0 
0.0 0.0 -1.030578032989e+02 
-4.478966785552e+01 3.332607341553e+01 0.0 
3.332607341553e+01 -3.102730018106e+01 0.0 
0.0 0.0 -2.349122974114e+01 
-6.226954329101e+01 -2.544843207326e+00 0.0 
-2.544843207326e+00 -1.462904238603e+02 0.0 
0.0 0.0 -6.216799014538e+01 
-8.998738851337e+01 -2.096639739611e+00 0.0 
-2.096639739611e+00 -2.123516439100e+02 0.0 
0.0 0.0 -9.030170972701e+01 
-1.070417256342e+02 -1.564593238130e+00 0.0 
-1.564593238130e+00 -2.514081487502e+02 0.0 
0.0 0.0 -1.071349623153e+02 
-1.451665513729e+02 1.483219466018e+01 0.0 
1.483219466018e+01 -3.481999688013e+02 0.0 
0.0 0.0 -1.476099560523e+02 
-8.772590030346e+01 -1.015768379709e-01 0.0 
-1.015768379709e-01 -2.068447850420e+02 0.0 
0.0 0.0 -8.797120560364e+01 
-9.336445718563e+01 -1.397388583957e+00 0.0 
-1.397388583957e+00 -2.195274621279e+02 0.0 
0.0 0.0 -9.346757579407e+01 
-1.509541796104e+01 -1.968521350053e+00 0.0 
-1.968521350053e+00 -3.716038229990e+01 0.0 
0.0 0.0 -1.527674007828e+01 
-1.534650741423e+02 6.522326748914e-01 0.0 
6.522326748914e-01 -3.659016207588e+02 0.0 
0.0 0.0 -1.554100084703e+02 
-1.351735540775e+02 1.393495639493e+01 0.0 
1.393495639493e+01 -3.133258961084e+02 0.0 
0.0 0.0 -1.341498350558e+02 
-3.536130781561e+01 3.105363570771e+01 0.0 
3.105363570771e+01 -1.027575015361e+02 0.0 
0.0 0.0 -4.214227652478e+01 
-1.350057875682e+02 7.601393040725e-01 0.0 
7.601393040725e-01 -3.128572310580e+02 0.0 
0.0 0.0 -1.339589055879e+02 
-1.610749097853e+02 -5.854059627527e-01 0.0 
-5.854059627527e-01 -3.775004532209e+02 0.0 
0.0 0.0 -1.611726089019e+02 
-7.480113537910e+01 6.608561574460e-01 0.0 
6.608561574460e-01 -1.597723978699e+02 0.0 
0.0 0.0 -6.997205997469e+01 
-9.573865988565e+01 1.707490309920e-01 0.0 
1.707490309920e-01 -2.103699491028e+02 0.0 
0.0 0.0 -9.143258269654e+01 
-8.795674398563e+01 -1.936359204874e+00 0.0 
-1.936359204874e+00 -2.066503677778e+02 0.0 
0.0 0.0 -8.798213352903e+01 
-9.111367787142e+01 -7.754277708725e-01 0.0 
-7.754277708725e-01 -2.137224356936e+02 0.0 
0.0 0.0 -9.105083406950e+01 
-9.337779639686e+01 -6.291475245259e-01 0.0 
-6.291475245259e-01 -2.203238661232e+02 0.0 
0.0 0.0 -9.371049875602e+01 
-1.389488321063e+02 9.233132378741e+00 0.0 
9.233132378741e+00 -3.447668235534e+02 0.0 
0.0 0.0 -1.447146966979e+02 
-3.716885734690e+01 -1.601258802840e+01 0.0 
-1.601258802840e+01 -6.719853667987e+01 0.0 
0.0 0.0 -2.961985505659e+01 
-1.402888794595e+02 1.577747671575e+01 0.0 
1.577747671575e+01 -3.231523604487e+02 0.0 
0.0 0.0 -1.386323719725e+02 
-8.175225023895e+01 -9.436095226992e-02 0.0 
-9.436095226992e-02 -1.765870347280e+02 0.0 
0.0 0.0 -7.710178549008e+01 
-1.380019218271e+02 7.056819579024e+00 0.0 
7.056819579024e+00 -3.155025529087e+02 0.0 
0.0 0.0 -1.356513424208e+02 
-1.396433826364e+02 9.876937468248e+00 0.0 
9.876937468248e+00 -3.449476235976e+02 0.0 
0.0 0.0 -1.449773018702e+02 
-9.101799770359e+01 7.764556672862e-01 0.0 
7.764556672862e-01 -1.972784711092e+02 0.0 
0.0 0.0 -8.608894064385e+01 
-1.343527192489e+02 1.227351798365e+01 0.0 
1.227351798365e+01 -3.058350252892e+02 0.0 
0.0 0.0 -1.316563233614e+02 
-1.445993113778e+02 1.359870174837e+01 0.0 
1.359870174837e+01 -3.473376724043e+02 0.0 
0.0 0.0 -1.471810951347e+02 
-1.504866713467e+02 1.551243571772e+01 0.0 
1.551243571772e+01 -3.594405103880e+02 0.0 
0.0 0.0 -1.525781545204e+02 
-4.061341847242e+01 3.567619119999e+01 0.0 
3.567619119999e+01 -6.809660685476e+01 0.0 
0.0 0.0 -3.359298422783e+01 
-1.354298587464e+02 1.364863513094e+01 0.0 
1.364863513094e+01 -3.065121535011e+02 0.0 
0.0 0.0 -1.321826036742e+02 
-1.393124971261e+02 1.315517365779e+01 0.0 
1.315517365779e+01 -3.186760714184e+02 0.0 
0.0 0.0 -1.369965705633e+02 
-1.353838963134e+01 -3.435960353749e-01 0.0 
-3.435960353749e-01 -3.790139368869e+01 0.0 
0.0 0.0 -1.503193499601e+01 
-8.378150621612e+01 -8.576646424589e-01 0.0 
-8.576646424589e-01 -1.967432889115e+02 0.0 
0.0 0.0 -8.375743853829e+01 
-4.737925249528e+01 3.641072462661e+01 0.0 
3.641072462661e+01 -6.800153902490e+01 0.0 
0.0 0.0 -3.557675687850e+01 
-1.398552086027e+02 1.384458561454e+01 0.0 
1.384458561454e+01 -3.174037680706e+02 0.0 
0.0 0.0 -1.367776930020e+02 
-9.007682801046e+00 4.736774403850e-01 0.0 
4.736774403850e-01 -7.975021885632e+00 0.0 
0.0 0.0 -4.694811406004e+00 
-9.885569896836e+00 -1.063782011601e-01 0.0 
-1.063782011601e-01 -9.893230610311e+00 0.0 
0.0 0.0 -5.533640152144e+00 
-9.079219179777e+00 1.791404227308e-01 0.0 
1.791404227308e-01 -9.580021662369e+00 0.0 
0.0 0.0 -5.197772252644e+00 
-9.703820837651e+00 -7.423674891347e-03 0.0 
-7.423674891347e-03 -9.927688613272e+00 0.0 
0.0 0.0 -5.489452835277e+00 
-9.128660069414e+00 5.413909395986e-02 0.0 
5.413909395986e-02 -9.692918326789e+00 0.0 
0.0 0.0 -5.246473518861e+00 
-9.549532405220e+00 -7.213227303672e-02 0.0 
-7.213227303672e-02 -9.936739398397e+00 0.0 
0.0 0.0 -5.445881541085e+00 
-9.039087624991e+00 -2.275119561289e-02 0.0 
-2.275119561289e-02 -9.731329813661e+00 0.0 
0.0 0.0 -5.231125231596e+00 
-9.401584060723e+00 -1.341280481625e-01 0.0 
-1.341280481625e-01 -9.957278049852e+00 0.0 
0.0 0.0 -5.407658633172e+00 
-8.841229354991e+00 -7.006449462601e-02 0.0 
-7.006449462601e-02 -9.739041969586e+00 0.0 
0.0 0.0 -5.174081397373e+00 
-9.232279186212e+00 -1.886002912580e-01 0.0 
-1.886002912580e-01 -9.981547425988e+00 0.0 
0.0 0.0 -5.364147983660e+00 
-8.558399372021e+00 -1.011026999087e-01 0.0 
-1.011026999087e-01 -9.729118607180e+00 0.0 
0.0 0.0 -5.086255393760e+00 
-9.030604072656e+00 -2.386748955113e-01 0.0 
-2.386748955113e-01 -1.000729503711e+01 0.0 
0.0 0.0 -5.311369732931e+00 
-8.203163918868e+00 -1.239666544900e-01 0.0 
-1.239666544900e-01 -9.709477745127e+00 0.0 
0.0 0.0 -4.973792499199e+00 
-8.793437121266e+00 -2.872706905221e-01 0.0 
-2.872706905221e-01 -1.003430293319e+01 0.0 
0.0 0.0 -5.248322016336e+00 
-7.780995570396e+00 -1.429514332994e-01 0.0 
-1.429514332994e-01 -9.684248715282e+00 0.0 
0.0 0.0 -4.839573285703e+00 
-8.520165874070e+00 -3.360443540497e-01 0.0 
-3.360443540497e-01 -1.006270949387e+01 0.0 
0.0 0.0 -5.174862610381e+00 
-7.293689323809e+00 -1.600477844092e-01 0.0 
-1.600477844092e-01 -9.655621579425e+00 0.0 
0.0 0.0 -4.684793270970e+00 
-8.212154951772e+00 -3.855631455020e-01 0.0 
-3.855631455020e-01 -1.009269187654e+01 0.0 
0.0 0.0 -5.091454048494e+00 
-6.741564525927e+00 -1.761164844832e-01 0.0 
-1.761164844832e-01 -9.624484287764e+00 0.0 
0.0 0.0 -4.509814644108e+00 
-1.181475400577e+01 5.118435238676e+00 0.0 
5.118435238676e+00 -1.286515724481e+01 0.0 
0.0 0.0 -7.003973375174e+00 
-7.872381968298e+00 -4.358676650448e-01 0.0 
-4.358676650448e-01 -1.012449527702e+01 0.0 
0.0 0.0 -4.999063173596e+00 
-6.124630551114e+00 -1.913570815731e-01 0.0 
-1.913570815731e-01 -9.591222291639e+00 0.0 
0.0 0.0 -4.314755852826e+00 
-7.506475824323e+00 -4.865931662030e-01 0.0 
-4.865931662030e-01 -1.015851298494e+01 0.0 
0.0 0.0 -4.899496642779e+00 
-1.503232977511e+01 3.226154997007e+00 0.0 
3.226154997007e+00 -1.088238947203e+01 0.0 
0.0 0.0 -7.374415774142e+00 
-5.443312604488e+00 -2.056605303712e-01 0.0 
-2.056605303712e-01 -9.555643595770e+00 0.0 
0.0 0.0 -4.099686860077e+00 
-7.123245814147e+00 -5.372884053654e-01 0.0 
-5.372884053654e-01 -1.019554585268e+01 0.0 
0.0 0.0 -4.795637500049e+00 
-4.699574296394e+00 -2.175649625618e-01 0.0 
-2.175649625618e-01 -9.518549001019e+00 0.0 
0.0 0.0 -3.865436989224e+00 
-6.730881270082e+00 -5.849046457825e-01 0.0 
-5.849046457825e-01 -1.023537385430e+01 0.0 
0.0 0.0 -4.689876537315e+00 
-3.900026888337e+00 -2.252183547388e-01 0.0 
-2.252183547388e-01 -9.480579626364e+00 0.0 
0.0 0.0 -3.614181954410e+00 
-3.245364328119e+00 1.318500871425e+00 0.0 
1.318500871425e+00 -5.758142726022e+00 0.0 
0.0 0.0 -2.301052116242e+00 
-6.349966331944e+00 -6.263818590978e-01 0.0 
-6.263818590978e-01 -1.027896777312e+01 0.0 
0.0 0.0 -4.588680231519e+00 
-3.057411556013e+00 -2.247523233843e-01 0.0 
-2.247523233843e-01 -9.443049851793e+00 0.0 
0.0 0.0 -3.350138422342e+00 
-5.999575478231e+00 -6.545067266981e-01 0.0 
-6.545067266981e-01 -1.032506630735e+01 0.0 
0.0 0.0 -4.497392535674e+00 
-2.192933340102e+00 -2.156352168199e-01 0.0 
-2.156352168199e-01 -9.402425536796e+00 0.0 
0.0 0.0 -3.078607663069e+00 
-5.738519991323e+00 -6.700396676060e-01 0.0 
-6.700396676060e-01 -1.037919832812e+01 0.0 
0.0 0.0 -4.435315495832e+00 
-1.333904381373e+00 -1.875670491100e-01 0.0 
-1.875670491100e-01 -9.366541855161e+00 0.0 
0.0 0.0 -2.810133870960e+00 
-5.582373342143e+00 -6.523579485844e-01 0.0 
-6.523579485844e-01 -1.043510431196e+01 0.0 
0.0 0.0 -4.405243296230e+00 
-5.290170601459e-01 -1.437238649451e-01 0.0 
-1.437238649451e-01 -9.320703327913e+00 0.0 
0.0 0.0 -2.554916116418e+00 
-5.678959430709e+00 -6.132760676786e-01 0.0 
-6.132760676786e-01 -1.051049666260e+01 0.0 
0.0 0.0 -4.456836827994e+00 
1.615801820402e-01 -4.480223454386e-02 0.0 
-4.480223454386e-02 -9.312044950784e+00 0.0 
0.0 0.0 -2.345139430623e+00 
-5.990240638955e+00 -4.732811918512e-01 0.0 
-4.732811918512e-01 -1.057762886549e+01 0.0 
0.0 0.0 -4.570360851334e+00 
-2.318971883994e+01 8.854262198069e+00 0.0 
8.854262198069e+00 -1.301274121950e+01 0.0 
0.0 0.0 -1.046073801783e+01 
-6.940907920459e+00 -2.982051217022e-01 0.0 
-2.982051217022e-01 -1.069430193699e+01 0.0 
0.0 0.0 -4.890562957235e+00 
5.977592563883e-01 8.969524407349e-02 0.0 
8.969524407349e-02 -9.264139155449e+00 0.0 
0.0 0.0 -2.199913969718e+00 
-8.228249147192e+00 2.190121824102e-01 0.0 
2.190121824102e-01 -1.075953139531e+01 0.0 
0.0 0.0 -5.296334162750e+00 
6.266160352605e-01 4.070736315140e-01 0.0 
4.070736315140e-01 -9.409239743855e+00 0.0 
0.0 0.0 -2.234787112578e+00 
-1.071459575229e+01 8.444829331859e-01 0.0 
8.444829331859e-01 -1.091872980594e+01 0.0 
0.0 0.0 -6.089997667469e+00 
-2.417065894291e-01 8.695033357435e-01 0.0 
8.695033357435e-01 -9.452299222214e+00 0.0 
0.0 0.0 -2.508201743493e+00 
-2.636640488740e+00 2.196227744719e+00 0.0 
2.196227744719e+00 -1.072946915964e+01 0.0 
0.0 0.0 -3.609832894513e+00 
-1.469658495902e+01 2.518563342053e+00 0.0 
2.518563342053e+00 5.958890851421e-01 0.0 
0.0 0.0 -3.662229027693e+00 
-9.915468777579e+00 1.501533138290e+00 0.0 
1.501533138290e+00 -1.026118378929e+01 0.0 
0.0 0.0 -5.652995770062e+00 
-1.022792601615e+01 -1.302425574482e+00 0.0 
-1.302425574482e+00 -8.400011271310e+00 0.0 
0.0 0.0 -5.188381186240e+00 
-1.194956873397e+01 2.227783512965e-01 0.0 
2.227783512965e-01 -1.451205253923e+01 0.0 
0.0 0.0 -7.538486381959e+00 
-8.268625893092e+00 -6.589954048124e-02 0.0 
-6.589954048124e-02 -4.282599486887e+00 0.0 
0.0 0.0 -3.365367613994e+00 
-2.390365165022e+01 9.469345288677e+00 0.0 
9.469345288677e+00 -1.083854381413e+01 0.0 
0.0 0.0 -9.912558775842e+00 
-1.907274497394e+01 2.184567301031e-01 0.0 
2.184567301031e-01 -3.120332848738e+01 0.0 
0.0 0.0 -1.468282203840e+01 
-1.824102549720e+01 -3.330570183059e-01 0.0 
-3.330570183059e-01 -2.938929367783e+01 0.0 
0.0 0.0 -1.388909575251e+01 
-1.826213826743e+01 -5.709345962401e-02 0.0 
-5.709345962401e-02 -2.936400041836e+01 0.0 
0.0 0.0 -1.388784160574e+01 
-1.796601124748e+01 -1.434332024854e-01 0.0 
-1.434332024854e-01 -2.920613290287e+01 0.0 
0.0 0.0 -1.375164324510e+01 
-1.813936945729e+01 -1.255915565586e-01 0.0 
-1.255915565586e-01 -2.927649566282e+01 0.0 
0.0 0.0 -1.382475953603e+01 
-1.780576892414e+01 -1.959214986584e-01 0.0 
-1.959214986584e-01 -2.920129127587e+01 0.0 
0.0 0.0 -1.370211806000e+01 
-1.804310544755e+01 -1.979672810464e-01 0.0 
-1.979672810464e-01 -2.930204710350e+01 0.0 
0.0 0.0 -1.380354576532e+01 
-1.765275864794e+01 -2.778801723403e-01 0.0 
-2.778801723403e-01 -2.921001875336e+01 0.0 
0.0 0.0 -1.365883322039e+01 
-1.793928867143e+01 -2.705374971485e-01 0.0 
-2.705374971485e-01 -2.932774783859e+01 0.0 
0.0 0.0 -1.378011095301e+01 
-1.747405840278e+01 -3.632685910812e-01 0.0 
-3.632685910812e-01 -2.921236559797e+01 0.0 
0.0 0.0 -1.360592720022e+01 
-1.782542863383e+01 -3.384805253633e-01 0.0 
-3.384805253633e-01 -2.934873140358e+01 0.0 
0.0 0.0 -1.375224801122e+01 
-1.725883040726e+01 -4.469989141109e-01 0.0 
-4.469989141109e-01 -2.920648981785e+01 0.0 
0.0 0.0 -1.353959606753e+01 
-1.770109593448e+01 -4.016064337563e-01 0.0 
-4.016064337563e-01 -2.936765428546e+01 0.0 
0.0 0.0 -1.372062506598e+01 
-1.700451367824e+01 -5.287368508614e-01 0.0 
-5.287368508614e-01 -2.919348156614e+01 0.0 
0.0 0.0 -1.345939857331e+01 
-1.756837592001e+01 -4.614660947984e-01 0.0 
-4.614660947984e-01 -2.938716654984e+01 0.0 
0.0 0.0 -1.368666274096e+01 
-1.671183879697e+01 -6.090828266223e-01 0.0 
-6.090828266223e-01 -2.917661298064e+01 0.0 
0.0 0.0 -1.336653553328e+01 
-1.742789707411e+01 -5.181284461317e-01 0.0 
-5.181284461317e-01 -2.940905382282e+01 0.0 
0.0 0.0 -1.365108526908e+01 
-1.638269273919e+01 -6.871354912198e-01 0.0 
-6.871354912198e-01 -2.915728004719e+01 0.0 
0.0 0.0 -1.326199183591e+01 
-2.212332001619e+01 5.535718882863e+00 0.0 
5.535718882863e+00 -3.372075445383e+01 0.0 
0.0 0.0 -1.635322234101e+01 
-1.728390517671e+01 -5.708666852987e-01 0.0 
-5.708666852987e-01 -2.943431800423e+01 0.0 
0.0 0.0 -1.361546695428e+01 
-1.602060584010e+01 -7.610654967374e-01 0.0 
-7.610654967374e-01 -2.913701764456e+01 0.0 
0.0 0.0 -1.314728704540e+01 
-1.714379794615e+01 -6.173289915328e-01 0.0 
-6.173289915328e-01 -2.946396527711e+01 0.0 
0.0 0.0 -1.358232896698e+01 
-1.756318392868e+01 3.557161508132e+00 0.0 
3.557161508132e+00 -2.689876888419e+01 0.0 
0.0 0.0 -1.293858584386e+01 
-1.563122757013e+01 -8.277577424197e-01 0.0 
-8.277577424197e-01 -2.911626705850e+01 0.0 
0.0 0.0 -1.302424838859e+01 
-2.391520419237e+01 3.650995391379e+00 0.0 
3.650995391379e+00 -3.106357370269e+01 0.0 
0.0 0.0 -1.609363336852e+01 
-1.701988584031e+01 -6.543779621150e-01 0.0 
-6.543779621150e-01 -2.949883467937e+01 0.0 
0.0 0.0 -1.355561615590e+01 
-1.522320757192e+01 -8.832239594202e-01 0.0 
-8.832239594202e-01 -2.909545662082e+01 0.0 
0.0 0.0 -1.289559925782e+01 
-1.692797653730e+01 -6.804948044824e-01 0.0 
-6.804948044824e-01 -2.954148884823e+01 0.0 
0.0 0.0 -1.354083961566e+01 
-1.480973383813e+01 -9.211214245514e-01 0.0 
-9.211214245514e-01 -2.908602984641e+01 0.0 
0.0 0.0 -1.276872910536e+01 
-1.687515033945e+01 -6.823929287505e-01 0.0 
-6.823929287505e-01 -2.959240565381e+01 0.0 
0.0 0.0 -1.354026679798e+01 
-1.440853049792e+01 -9.285390793391e-01 0.0 
-9.285390793391e-01 -2.908228416041e+01 0.0 
0.0 0.0 -1.264724439750e+01 
-1.689450719565e+01 -6.556170244121e-01 0.0 
-6.556170244121e-01 -2.965519513305e+01 0.0 
0.0 0.0 -1.356491069861e+01 
-1.404950672476e+01 -8.906956492588e-01 0.0 
-8.906956492588e-01 -2.910823921591e+01 0.0 
0.0 0.0 -1.254732378220e+01 
-2.807063981977e+01 6.834774083150e+00 0.0 
6.834774083150e+00 -3.447836571325e+01 0.0 
0.0 0.0 -1.836470165991e+01 
-1.700372027742e+01 -5.641845229053e-01 0.0 
-5.641845229053e-01 -2.972438512634e+01 0.0 
0.0 0.0 -1.361843162113e+01 
-1.377092468322e+01 -7.860298074130e-01 0.0 
-7.860298074130e-01 -2.912147594255e+01 0.0 
0.0 0.0 -1.246772018773e+01 
-1.730150309972e+01 -4.311301618161e-01 0.0 
-4.311301618161e-01 -2.981843694608e+01 0.0 
0.0 0.0 -1.373598201374e+01 
-1.363907647303e+01 -5.915114518127e-01 0.0 
-5.915114518127e-01 -2.923407828402e+01 0.0 
0.0 0.0 -1.246194642711e+01 
-1.372584438190e+01 -2.588683776125e-01 0.0 
-2.588683776125e-01 -2.928656154871e+01 0.0 
0.0 0.0 -1.250372177918e+01 
-1.773802920872e+01 -1.443939782590e-01 0.0 
-1.443939782590e-01 -2.990744980133e+01 0.0 
0.0 0.0 -1.389364370302e+01 
-1.417931662495e+01 2.756550055595e-01 0.0 
2.756550055595e-01 -2.968547283281e+01 0.0 
0.0 0.0 -1.275943683733e+01 
-1.859304681106e+01 1.857189924763e-01 0.0 
1.857189924763e-01 -3.007512541008e+01 0.0 
0.0 0.0 -1.420045166634e+01 
-1.514548880646e+01 1.129030218481e+00 0.0 
1.129030218481e+00 -2.983832400433e+01 0.0 
0.0 0.0 -1.309514384324e+01 
-1.700268466753e+01 2.528097374869e+00 0.0 
2.528097374869e+00 -3.123321427609e+01 0.0 
0.0 0.0 -1.407076968308e+01 
-1.949563840339e+01 9.423856453190e-01 0.0 
9.423856453190e-01 -3.016993256674e+01 0.0 
0.0 0.0 -1.449967129104e+01 
-2.132594130924e+01 1.672326751152e+00 0.0 
1.672326751152e+00 -3.055431233559e+01 0.0 
0.0 0.0 -1.516407609345e+01 
-2.263054102823e+01 4.438032351402e+00 0.0 
4.438032351402e+00 -2.363879317300e+01 0.0 
0.0 0.0 -1.348080026037e+01 
-1.877588548061e+01 1.430991107400e+00 0.0 
1.430991107400e+00 -2.913899537350e+01 0.0 
0.0 0.0 -1.397446425623e+01 
-1.845171442498e+01 -1.473699966609e+00 0.0 
-1.473699966609e+00 -3.104253636435e+01 0.0 
0.0 0.0 -1.444827523680e+01 
-1.642680878352e+01 1.047274651870e-01 0.0 
1.047274651870e-01 -2.495894598817e+01 0.0 
0.0 0.0 -1.201572643151e+01 
-2.072667703070e+01 -1.915712265218e-01 0.0 
-1.915712265218e-01 -3.507984865972e+01 0.0 
0.0 0.0 -1.634195770713e+01 
-2.255690347657e+01 7.447821380224e+00 0.0 
7.447821380224e+00 -2.843972810878e+01 0.0 
0.0 0.0 -1.489898947561e+01 
-2.593841951666e+01 1.598285087999e-01 0.0 
1.598285087999e-01 -4.722323575372e+01 0.0 
0.0 0.0 -2.154849658111e+01 
-2.683939315976e+01 -3.760446103940e-01 0.0 
-3.760446103940e-01 -4.891154425442e+01 0.0 
0.0 0.0 -2.232528122425e+01 
-2.660903719693e+01 -1.594989886918e-01 0.0 
-1.594989886918e-01 -4.884009792053e+01 0.0 
0.0 0.0 -2.223474053524e+01 
-2.688817572972e+01 -2.462635848180e-01 0.0 
-2.462635848180e-01 -4.901187221075e+01 0.0 
0.0 0.0 -2.237001438214e+01 
-2.653480193768e+01 -2.238577124169e-01 0.0 
-2.238577124169e-01 -4.886583811706e+01 0.0 
0.0 0.0 -2.222019201642e+01 
-2.687285720809e+01 -3.176710560610e-01 0.0 
-3.176710560610e-01 -4.903354987924e+01 0.0 
0.0 0.0 -2.237192212620e+01 
-2.642048407705e+01 -2.904425963977e-01 0.0 
-2.904425963977e-01 -4.884926390567e+01 0.0 
0.0 0.0 -2.218092439481e+01 
-2.684717392168e+01 -4.065080451552e-01 0.0 
-4.065080451552e-01 -4.906072428634e+01 0.0 
0.0 0.0 -2.237236946241e+01 
-2.630413795596e+01 -3.665552436556e-01 0.0 
-3.665552436556e-01 -4.884572950248e+01 0.0 
0.0 0.0 -2.214496023753e+01 
-2.682040618294e+01 -5.005218466523e-01 0.0 
-5.005218466523e-01 -4.908794260202e+01 0.0 
0.0 0.0 -2.237250463549e+01 
-2.618037621754e+01 -4.445539409413e-01 0.0 
-4.445539409413e-01 -4.884360909889e+01 0.0 
0.0 0.0 -2.210719559493e+01 
-2.679365598872e+01 -5.947270653728e-01 0.0 
-5.947270653728e-01 -4.911209597252e+01 0.0 
0.0 0.0 -2.237172558837e+01 
-2.604601118046e+01 -5.191896028146e-01 0.0 
-5.191896028146e-01 -4.883912319274e+01 0.0 
0.0 0.0 -2.206554031196e+01 
-2.677558216437e+01 -6.859051750685e-01 0.0 
-6.859051750685e-01 -4.913351150436e+01 0.0 
0.0 0.0 -2.237272810062e+01 
-2.590049436665e+01 -5.897382300285e-01 0.0 
-5.897382300285e-01 -4.882877625867e+01 0.0 
0.0 0.0 -2.201878118760e+01 
-2.676972329174e+01 -7.751953599883e-01 0.0 
-7.751953599883e-01 -4.915582017554e+01 0.0 
0.0 0.0 -2.237766304018e+01 
-2.574630169384e+01 -6.538933417943e-01 0.0 
-6.538933417943e-01 -4.881866460219e+01 0.0 
0.0 0.0 -2.196948988881e+01 
-3.176544124692e+01 4.804858789317e+00 0.0 
4.804858789317e+00 -5.357171133555e+01 0.0 
0.0 0.0 -2.520114577474e+01 
-2.677462083215e+01 -8.575203382196e-01 0.0 
-8.575203382196e-01 -4.917961158016e+01 0.0 
0.0 0.0 -2.238626972369e+01 
-2.558907756934e+01 -7.079052562643e-01 0.0 
-7.079052562643e-01 -4.881305358703e+01 0.0 
0.0 0.0 -2.192063934691e+01 
-3.317008427101e+01 2.922390815237e+00 0.0 
2.922390815237e+00 -5.121506960098e+01 0.0 
0.0 0.0 -2.491554616160e+01 
-2.679596162109e+01 -9.275479031415e-01 0.0 
-9.275479031415e-01 -4.920676485974e+01 0.0 
0.0 0.0 -2.240081794425e+01 
-2.543799878411e+01 -7.457401774794e-01 0.0 
-7.457401774794e-01 -4.881710056569e+01 0.0 
0.0 0.0 -2.187652980494e+01 
-2.684871082630e+01 -9.771688277657e-01 0.0 
-9.771688277657e-01 -4.923836346916e+01 0.0 
0.0 0.0 -2.242612228864e+01 
-2.530497279628e+01 -7.614603662583e-01 0.0 
-7.614603662583e-01 -4.883070424331e+01 0.0 
0.0 0.0 -2.184070311188e+01 
-2.694956010097e+01 -9.993936053141e-01 0.0 
-9.993936053141e-01 -4.927477564406e+01 0.0 
0.0 0.0 -2.246730072351e+01 
-2.834291615470e+01 3.329862281036e+00 0.0 
3.329862281036e+00 -4.692725364167e+01 0.0 
0.0 0.0 -2.218105093891e+01 
-2.520439881406e+01 -7.500397594801e-01 0.0 
-7.500397594801e-01 -4.885314082735e+01 0.0 
0.0 0.0 -2.181726189242e+01 
-2.712285197673e+01 -9.942614085378e-01 0.0 
-9.942614085378e-01 -4.933156959671e+01 0.0 
0.0 0.0 -2.253632647203e+01 
-2.515629260592e+01 -6.944692835088e-01 0.0 
-6.944692835088e-01 -4.891507094224e+01 0.0 
0.0 0.0 -2.182140906445e+01 
-2.733593557108e+01 -9.243461566871e-01 0.0 
-9.243461566871e-01 -4.939541327913e+01 0.0 
0.0 0.0 -2.261940465506e+01 
-2.519104541804e+01 -5.734423821644e-01 0.0 
-5.734423821644e-01 -4.901378431865e+01 0.0 
0.0 0.0 -2.186144892101e+01 
-2.769378282962e+01 -7.842626974949e-01 0.0 
-7.842626974949e-01 -4.950410566084e+01 0.0 
0.0 0.0 -2.275936654714e+01 
-2.534924481627e+01 -3.513418103282e-01 0.0 
-3.513418103282e-01 -4.919727571698e+01 0.0 
0.0 0.0 -2.196395615997e+01 
-2.808871217427e+01 -4.846402672156e-01 0.0 
-4.846402672156e-01 -4.958943921928e+01 0.0 
0.0 0.0 -2.290344541807e+01 
-2.568284236120e+01 -1.062678175391e-02 0.0 
-1.062678175391e-02 -4.937489522286e+01 0.0 
0.0 0.0 -2.211732127522e+01 
-2.888821786683e+01 -1.172341205582e-01 0.0 
-1.172341205582e-01 -4.981653470770e+01 0.0 
0.0 0.0 -2.321142577236e+01 
-3.613641069111e+01 5.251162092419e+00 0.0 
5.251162092419e+00 -5.459973873050e+01 0.0 
0.0 0.0 -2.682084482648e+01 
-2.952502131926e+01 6.265310767995e-01 0.0 
6.265310767995e-01 -4.993018668303e+01 0.0 
0.0 0.0 -2.343656240069e+01 
-2.626819211313e+01 5.237902774631e-01 0.0 
5.237902774631e-01 -4.981116324496e+01 0.0 
0.0 0.0 -2.242380660743e+01 
-3.114411639484e+01 1.318164215048e+00 0.0 
1.318164215048e+00 -5.050486888386e+01 0.0 
0.0 0.0 -2.409469558361e+01 
-2.717257104005e+01 1.269432409369e+00 0.0 
1.269432409369e+00 -5.009401527770e+01 0.0 
0.0 0.0 -2.277997589532e+01 
-2.857749740564e+01 2.446379545603e+00 0.0 
2.446379545603e+00 -5.136093690534e+01 0.0 
0.0 0.0 -2.358153029330e+01 
-3.139321635363e+01 3.833542804433e+00 0.0 
3.833542804433e+00 -4.453293352904e+01 0.0 
0.0 0.0 -2.237784496480e+01 
-2.633957108456e+01 1.432240214812e+00 0.0 
1.432240214812e+00 -4.943450443077e+01 0.0 
0.0 0.0 -2.233222265460e+01 
-2.668062616247e+01 -1.497020858424e+00 0.0 
-1.497020858424e+00 -4.743810717814e+01 0.0 
0.0 0.0 -2.183562000218e+01 
-2.877473755379e+01 1.022847361803e-01 0.0 
1.022847361803e-01 -5.355492435302e+01 0.0 
0.0 0.0 -2.429889857204e+01 
-2.431811734254e+01 -2.108092191661e-01 0.0 
-2.108092191661e-01 -4.345987605400e+01 0.0 
0.0 0.0 -1.993339801896e+01 
-3.091740502298e+01 5.917032921462e+00 0.0 
5.917032921462e+00 -4.740204230743e+01 0.0 
0.0 0.0 -2.309583419912e+01 
-3.615390895234e+01 1.795061393928e-01 0.0 
1.795061393928e-01 -7.027228857682e+01 0.0 
0.0 0.0 -3.152785925875e+01 
-3.521262230460e+01 -3.967489069823e-01 0.0 
-3.967489069823e-01 -6.844907892571e+01 0.0 
0.0 0.0 -3.069851036909e+01 
-3.545570293401e+01 -1.587919441502e-01 0.0 
-1.587919441502e-01 -6.851872941045e+01 0.0 
0.0 0.0 -3.079232970334e+01 
-3.514382480934e+01 -2.675793440528e-01 0.0 
-2.675793440528e-01 -6.827505339652e+01 0.0 
0.0 0.0 -3.062566346176e+01 
-3.545189555344e+01 -2.520164071348e-01 0.0 
-2.520164071348e-01 -6.840232271239e+01 0.0 
0.0 0.0 -3.075626547975e+01 
-3.510857860691e+01 -3.415556059506e-01 0.0 
-3.415556059506e-01 -6.825023314316e+01 0.0 
0.0 0.0 -3.060764352502e+01 
-3.547682416841e+01 -3.314322387060e-01 0.0 
-3.314322387060e-01 -6.840212880467e+01 0.0 
0.0 0.0 -3.076368589193e+01 
-3.506844314697e+01 -4.290723057033e-01 0.0 
-4.290723057033e-01 -6.824368581202e+01 0.0 
0.0 0.0 -3.059363868770e+01 
-3.552210696899e+01 -4.086571742549e-01 0.0 
-4.086571742549e-01 -6.842494735370e+01 0.0 
0.0 0.0 -3.078411629681e+01 
-3.502950576155e+01 -5.201373967210e-01 0.0 
-5.201373967210e-01 -6.824250828543e+01 0.0 
0.0 0.0 -3.058160421410e+01 
-3.557935541569e+01 -4.854989355254e-01 0.0 
-4.854989355254e-01 -6.845297092639e+01 0.0 
0.0 0.0 -3.080969790262e+01 
-3.499471984134e+01 -6.096338459811e-01 0.0 
-6.096338459811e-01 -6.824791162863e+01 0.0 
0.0 0.0 -3.057278944099e+01 
-3.565016431843e+01 -5.509839089967e-01 0.0 
-5.509839089967e-01 -6.848249738705e+01 0.0 
0.0 0.0 -3.083979851164e+01 
-3.496610171805e+01 -6.897528146243e-01 0.0 
-6.897528146243e-01 -6.824472379628e+01 0.0 
0.0 0.0 -3.056324765430e+01 
-3.575124585222e+01 -6.099616252162e-01 0.0 
-6.099616252162e-01 -6.850873939043e+01 0.0 
0.0 0.0 -3.087799557279e+01 
-3.494920431624e+01 -7.619788790821e-01 0.0 
-7.619788790821e-01 -6.824127589937e+01 0.0 
0.0 0.0 -3.055714406468e+01 
-4.068219409426e+01 3.841269709784e+00 0.0 
3.841269709784e+00 -7.304076969916e+01 0.0 
0.0 0.0 -3.371688913803e+01 
-3.588948186326e+01 -6.639877654227e-01 0.0 
-6.639877654227e-01 -6.854014044617e+01 0.0 
0.0 0.0 -3.092888669283e+01 
-3.495016495419e+01 -8.233702226008e-01 0.0 
-8.233702226008e-01 -6.825588119823e+01 0.0 
0.0 0.0 -3.056181384573e+01 
-3.793523371799e+01 2.728673254294e+00 0.0 
2.728673254294e+00 -6.635080930456e+01 0.0 
0.0 0.0 -3.088581290677e+01 
-3.603834275479e+01 -7.032720891551e-01 0.0 
-7.032720891551e-01 -6.857705036487e+01 0.0 
0.0 0.0 -3.098461793590e+01 
-3.497436785308e+01 -8.605897330964e-01 0.0 
-8.605897330964e-01 -6.828971273439e+01 0.0 
0.0 0.0 -3.057922417624e+01 
-4.195424292558e+01 2.342370144162e+00 0.0 
2.342370144162e+00 -7.089694016039e+01 0.0 
0.0 0.0 -3.345535492579e+01 
-3.623104569520e+01 -7.119028004535e-01 0.0 
-7.119028004535e-01 -6.862737098894e+01 0.0 
0.0 0.0 -3.105752500524e+01 
-3.503512724733e+01 -8.621454170343e-01 0.0 
-8.621454170343e-01 -6.834000178490e+01 0.0 
0.0 0.0 -3.061253870967e+01 
-3.648739779260e+01 -6.818058984445e-01 0.0 
-6.818058984445e-01 -6.869064726513e+01 0.0 
0.0 0.0 -3.115341351732e+01 
-3.514963806452e+01 -8.183901200826e-01 0.0 
-8.183901200826e-01 -6.840829089236e+01 0.0 
0.0 0.0 -3.066737868706e+01 
-3.680759433204e+01 -6.061326571436e-01 0.0 
-6.061326571436e-01 -6.876266760677e+01 0.0 
0.0 0.0 -3.127107858164e+01 
-3.533375662051e+01 -7.213972117573e-01 0.0 
-7.213972117573e-01 -6.849034709887e+01 0.0 
0.0 0.0 -3.074723111582e+01 
-4.416803184326e+01 3.991837011914e+00 0.0 
3.991837011914e+00 -7.407649310167e+01 0.0 
0.0 0.0 -3.507335748348e+01 
-3.724277623130e+01 -5.101308512543e-01 0.0 
-5.101308512543e-01 -6.888404630640e+01 0.0 
0.0 0.0 -3.143804676131e+01 
-3.562107146161e+01 -5.487073530658e-01 0.0 
-5.487073530658e-01 -6.872739702370e+01 0.0 
0.0 0.0 -3.090454054559e+01 
-3.766450686036e+01 -2.646644834755e-01 0.0 
-2.646644834755e-01 -6.902968345866e+01 0.0 
0.0 0.0 -3.160825709570e+01 
-3.602015451185e+01 -2.469298112357e-01 0.0 
-2.469298112357e-01 -6.893230625271e+01 0.0 
0.0 0.0 -3.108573822937e+01 
-3.661748123810e+01 2.226011806737e-01 0.0 
2.226011806737e-01 -6.948990036822e+01 0.0 
0.0 0.0 -3.143221448190e+01 
-3.833584817592e+01 1.181810562379e-02 0.0 
1.181810562379e-02 -6.928253949731e+01 0.0 
0.0 0.0 -3.188551630197e+01 
-3.738533247804e+01 8.998510794141e-01 0.0 
8.998510794141e-01 -6.964313546718e+01 0.0 
0.0 0.0 -3.170854038357e+01 
-3.886041284929e+01 6.898709748787e-01 0.0 
6.898709748787e-01 -6.947768241457e+01 0.0 
0.0 0.0 -3.210142857916e+01 
-3.851383088706e+01 1.823143396694e+00 0.0 
1.823143396694e+00 -7.090407567456e+01 0.0 
0.0 0.0 -3.242537196849e+01 
-4.032826322201e+01 1.132532166545e+00 0.0 
1.132532166545e+00 -7.004408315883e+01 0.0 
0.0 0.0 -3.271170391425e+01 
-3.992050572513e+01 3.295058678394e+00 0.0 
3.295058678394e+00 -6.445906894369e+01 0.0 
0.0 0.0 -3.091387240064e+01 
-3.571037167548e+01 1.442694181229e+00 0.0 
1.442694181229e+00 -6.813222309390e+01 0.0 
0.0 0.0 -3.075277843081e+01 
-3.537915482345e+01 -1.498988868081e+00 0.0 
-1.498988868081e+00 -7.006057110477e+01 0.0 
0.0 0.0 -3.123191777847e+01 
-3.324208914589e+01 9.658252029188e-02 0.0 
9.658252029188e-02 -6.397874473459e+01 0.0 
0.0 0.0 -2.876625016415e+01 
-3.776654314886e+01 -2.022149846797e-01 0.0 
-2.022149846797e-01 -7.405338195658e+01 0.0 
0.0 0.0 -3.314597753163e+01 
-3.983672739472e+01 4.750219269231e+00 0.0 
4.750219269231e+00 -6.677057022297e+01 0.0 
0.0 0.0 -3.158218928531e+01 
-4.301579257018e+01 1.998164214820e-01 0.0 
1.998164214820e-01 -8.628335035178e+01 0.0 
0.0 0.0 -3.838974287659e+01 
-4.392442312674e+01 -3.422190973205e-01 0.0 
-3.422190973205e-01 -8.798033182781e+01 0.0 
0.0 0.0 -3.917142648637e+01 
-4.378260762998e+01 -1.441200795595e-01 0.0 
-1.441200795595e-01 -8.794817370105e+01 0.0 
0.0 0.0 -3.911923439931e+01 
-4.406740686716e+01 -2.215128081053e-01 0.0 
-2.215128081053e-01 -8.807909573876e+01 0.0 
0.0 0.0 -3.924395078178e+01 
-4.384190521752e+01 -2.423607651334e-01 0.0 
-2.423607651334e-01 -8.797901192857e+01 0.0 
0.0 0.0 -3.914627514383e+01 
-4.412514227725e+01 -3.126930192405e-01 0.0 
-3.126930192405e-01 -8.809055189015e+01 0.0 
0.0 0.0 -3.926470825022e+01 
-4.386962134624e+01 -3.050802571943e-01 0.0 
-3.050802571943e-01 -8.798532221960e+01 0.0 
0.0 0.0 -3.915648306975e+01 
-4.423385422174e+01 -3.876234043114e-01 0.0 
-3.876234043114e-01 -8.810973803544e+01 0.0 
0.0 0.0 -3.930307767715e+01 
-4.390225800490e+01 -3.688508687281e-01 0.0 
-3.688508687281e-01 -8.797863310416e+01 0.0 
0.0 0.0 -3.916426733272e+01 
-4.434611478738e+01 -4.663140597571e-01 0.0 
-4.663140597571e-01 -8.813251596346e+01 0.0 
0.0 0.0 -3.934358922525e+01 
-4.395110877883e+01 -4.281654864759e-01 0.0 
-4.281654864759e-01 -8.798706210706e+01 0.0 
0.0 0.0 -3.918145126577e+01 
-4.448784239421e+01 -5.400014756684e-01 0.0 
-5.400014756684e-01 -8.816823834788e+01 0.0 
0.0 0.0 -3.939682422263e+01 
-4.402064476580e+01 -4.733432814493e-01 0.0 
-4.733432814493e-01 -8.801361843092e+01 0.0 
0.0 0.0 -3.921027895902e+01 
-4.462862260816e+01 -5.855717586613e-01 0.0 
-5.855717586613e-01 -8.818996654680e+01 0.0 
0.0 0.0 -3.944557674649e+01 
-4.412074725656e+01 -5.023282590743e-01 0.0 
-5.023282590743e-01 -8.803757600057e+01 0.0 
0.0 0.0 -3.924749697714e+01 
-4.950908407142e+01 3.259552795800e+00 0.0 
3.259552795800e+00 -9.240567607184e+01 0.0 
0.0 0.0 -4.217442804298e+01 
-4.487256169874e+01 -6.211720555234e-01 0.0 
-6.211720555234e-01 -8.821775872532e+01 0.0 
0.0 0.0 -3.952709612722e+01 
-5.052275846631e+01 1.806973241624e+00 0.0 
1.806973241624e+00 -9.061153039226e+01 0.0 
0.0 0.0 -4.194028665757e+01 
-4.424367474318e+01 -5.322144309307e-01 0.0 
-5.322144309307e-01 -8.803325716596e+01 0.0 
0.0 0.0 -3.928307957274e+01 
-4.510509730256e+01 -6.676792624447e-01 0.0 
-6.676792624447e-01 -8.826373035622e+01 0.0 
0.0 0.0 -3.961064829763e+01 
-4.440648568582e+01 -5.290212288183e-01 0.0 
-5.290212288183e-01 -8.810271720395e+01 0.0 
0.0 0.0 -3.935276086693e+01 
-4.536855440356e+01 -6.596014940600e-01 0.0 
-6.596014940600e-01 -8.833133233098e+01 0.0 
0.0 0.0 -3.970996602036e+01 
-4.462217115915e+01 -4.778492867076e-01 0.0 
-4.778492867076e-01 -8.820666373815e+01 0.0 
0.0 0.0 -3.944865046919e+01 
-4.572941334485e+01 -5.960184941163e-01 0.0 
-5.960184941163e-01 -8.841972969905e+01 0.0 
0.0 0.0 -3.984474291317e+01 
-4.710101311557e+01 2.230229488288e+00 0.0 
2.230229488288e+00 -8.584716624381e+01 0.0 
0.0 0.0 -3.948445380782e+01 
-4.490021726233e+01 -3.797221038183e-01 0.0 
-3.797221038183e-01 -8.832055936117e+01 0.0 
0.0 0.0 -3.956623298705e+01 
-4.614652599276e+01 -4.825529100818e-01 0.0 
-4.825529100818e-01 -8.852509878974e+01 0.0 
0.0 0.0 -4.000148743475e+01 
-4.525884026180e+01 -2.178908255648e-01 0.0 
-2.178908255648e-01 -8.848224144287e+01 0.0 
0.0 0.0 -3.972232451140e+01 
-4.660304489958e+01 -2.801461338882e-01 0.0 
-2.801461338882e-01 -8.863338801157e+01 0.0 
0.0 0.0 -4.017092987335e+01 
-4.570940810964e+01 -8.187328940746e-04 0.0 
-8.187328940746e-04 -8.863952068919e+01 0.0 
0.0 0.0 -3.990467863965e+01 
-4.733830211750e+01 -1.046653686831e-01 0.0 
-1.046653686831e-01 -8.893648719523e+01 0.0 
0.0 0.0 -4.048243679382e+01 
-4.628327685378e+01 3.574990955203e-01 0.0 
3.574990955203e-01 -8.914014677665e+01 0.0 
0.0 0.0 -4.022702708913e+01 
-4.769110197422e+01 4.142513464344e-01 0.0 
4.142513464344e-01 -8.913925641289e+01 0.0 
0.0 0.0 -4.064910751613e+01 
-4.909559733879e+01 8.059247673416e-01 0.0 
8.059247673416e-01 -8.982743055147e+01 0.0 
0.0 0.0 -4.127690836708e+01 
-4.699393650783e+01 8.596589227015e-01 0.0 
8.596589227015e-01 -8.948474560508e+01 0.0 
0.0 0.0 -4.054360463387e+01 
-5.251250979816e+01 3.050715142958e+00 0.0 
3.050715142958e+00 -9.361958030298e+01 0.0 
0.0 0.0 -4.343962703034e+01 
-4.790188640043e+01 1.617243070331e+00 0.0 
1.617243070331e+00 -9.057445403390e+01 0.0 
0.0 0.0 -4.114290213030e+01 
-4.850684320421e+01 2.576750819823e+00 0.0 
2.576750819823e+00 -8.434365416077e+01 0.0 
0.0 0.0 -3.945514920949e+01 
-4.340850969541e+01 1.452281585722e+00 0.0 
1.452281585722e+00 -8.842385136216e+01 0.0 
0.0 0.0 -3.914970831727e+01 
-4.374289418493e+01 -1.480590801948e+00 0.0 
-1.480590801948e+00 -8.647453301328e+01 0.0 
0.0 0.0 -3.866522815946e+01 
-4.585212513746e+01 1.119677301409e-01 0.0 
1.119677301409e-01 -9.257180567955e+01 0.0 
0.0 0.0 -4.112717924510e+01 
-4.138160571336e+01 -1.901558864984e-01 0.0 
-1.901558864984e-01 -8.248852794039e+01 0.0 
0.0 0.0 -3.676104009612e+01 
-4.839165876523e+01 3.714926585353e+00 0.0 
3.714926585353e+00 -8.591757711958e+01 0.0 
0.0 0.0 -3.989277076544e+01 
-5.307967324902e+01 2.682093868164e-01 0.0 
2.682093868164e-01 -1.093530411688e+02 0.0 
0.0 0.0 -4.832981432533e+01 
-5.229385349024e+01 -2.908258310526e-01 0.0 
-2.908258310526e-01 -1.075090026760e+02 0.0 
0.0 0.0 -4.754085684986e+01 
-5.259098396676e+01 -3.741591780908e-02 0.0 
-3.741591780908e-02 -1.075928506162e+02 0.0 
0.0 0.0 -4.765515037490e+01 
-5.230979962960e+01 -1.504491157520e-01 0.0 
-1.504491157520e-01 -1.073113455178e+02 0.0 
0.0 0.0 -4.748634354421e+01 
-5.263497514648e+01 -1.781032930838e-01 0.0 
-1.781032930838e-01 -1.074556278683e+02 0.0 
0.0 0.0 -4.762718090442e+01 
-5.238675210756e+01 -2.358184977517e-01 0.0 
-2.358184977517e-01 -1.073676414942e+02 0.0 
0.0 0.0 -4.752631808053e+01 
-5.272386808539e+01 -1.945272875150e-01 0.0 
-1.945272875150e-01 -1.074943258714e+02 0.0 
0.0 0.0 -4.766545818703e+01 
-5.246815888786e+01 -2.742448639518e-01 0.0 
-2.742448639518e-01 -1.073231155897e+02 0.0 
0.0 0.0 -4.753738234328e+01 
-5.295561323238e+01 -2.516818675837e-01 0.0 
-2.516818675837e-01 -1.075137695711e+02 0.0 
0.0 0.0 -4.774081484106e+01 
-5.258702492934e+01 -3.367494925465e-01 0.0 
-3.367494925465e-01 -1.073613062947e+02 0.0 
0.0 0.0 -4.758449936721e+01 
-5.310223107052e+01 -2.868802700004e-01 0.0 
-2.868802700004e-01 -1.075433499473e+02 0.0 
0.0 0.0 -4.779367430535e+01 
-5.272090361521e+01 -3.737889043960e-01 0.0 
-3.737889043960e-01 -1.073787145302e+02 0.0 
0.0 0.0 -4.762988544363e+01 
-5.337352729894e+01 -3.243792880834e-01 0.0 
-3.243792880834e-01 -1.076058082040e+02 0.0 
0.0 0.0 -4.789380065090e+01 
-5.796705666157e+01 2.742464296814e+00 0.0 
2.742464296814e+00 -1.116708450424e+02 0.0 
0.0 0.0 -5.049137051119e+01 
-5.289865265140e+01 -3.991809626418e-01 0.0 
-3.991809626418e-01 -1.074867033144e+02 0.0 
0.0 0.0 -4.771560678973e+01 
-5.358655556399e+01 -2.575128408511e-01 0.0 
-2.575128408511e-01 -1.076521200504e+02 0.0 
0.0 0.0 -4.797160268430e+01 
-5.564013857393e+01 1.827818767580e+00 0.0 
1.827818767580e+00 -1.050980267668e+02 0.0 
0.0 0.0 -4.782144960222e+01 
-5.309938142353e+01 -3.707070821686e-01 0.0 
-3.707070821686e-01 -1.074136714165e+02 0.0 
0.0 0.0 -4.775391585201e+01 
-5.393430421399e+01 -2.976878805633e-01 0.0 
-2.976878805633e-01 -1.076653255765e+02 0.0 
0.0 0.0 -4.807988893716e+01 
-5.872052103303e+01 1.548479581465e+00 0.0 
1.548479581465e+00 -1.099111623721e+02 0.0 
0.0 0.0 -5.018950502154e+01 
-5.336429869492e+01 -3.681290909240e-01 0.0 
-3.681290909240e-01 -1.075352002717e+02 0.0 
0.0 0.0 -4.786984969000e+01 
-5.424517422397e+01 -2.712931334858e-01 0.0 
-2.712931334858e-01 -1.077636113286e+02 0.0 
0.0 0.0 -4.820263566576e+01 
-5.367979941811e+01 -2.961646624754e-01 0.0 
-2.961646624754e-01 -1.077242373649e+02 0.0 
0.0 0.0 -4.802121103491e+01 
-5.465243984086e+01 -1.338322734275e-01 0.0 
-1.338322734275e-01 -1.078969691904e+02 0.0 
0.0 0.0 -4.836482270938e+01 
-5.405899314183e+01 -1.491022043087e-01 0.0 
-1.491022043087e-01 -1.078554158920e+02 0.0 
0.0 0.0 -4.817432271015e+01 
-6.074205352330e+01 2.491285877823e+00 0.0 
2.491285877823e+00 -1.128547638192e+02 0.0 
0.0 0.0 -5.167904520276e+01 
-5.517789736063e+01 1.558635298461e-02 0.0 
1.558635298461e-02 -1.080393122042e+02 0.0 
0.0 0.0 -4.856516286946e+01 
-5.452307093796e+01 4.777972201101e-02 0.0 
4.777972201101e-02 -1.080703703285e+02 0.0 
0.0 0.0 -4.837803237995e+01 
-5.508812411642e+01 3.523960541101e-01 0.0 
3.523960541101e-01 -1.084319061842e+02 0.0 
0.0 0.0 -4.865600909018e+01 
-5.568395935831e+01 2.171249343529e-01 0.0 
2.171249343529e-01 -1.082227260786e+02 0.0 
0.0 0.0 -4.877200563107e+01 
-5.571632538855e+01 7.269172786060e-01 0.0 
7.269172786060e-01 -1.084852081610e+02 0.0 
0.0 0.0 -4.886046006487e+01 
-5.611141692873e+01 6.319107392596e-01 0.0 
6.319107392596e-01 -1.083631217936e+02 0.0 
0.0 0.0 -4.894236161669e+01 
-5.656674926001e+01 1.258481671302e+00 0.0 
1.258481671302e+00 -1.098491000797e+02 0.0 
0.0 0.0 -4.952475480192e+01 
-5.734575758773e+01 6.734316959852e-01 0.0 
6.734316959852e-01 -1.089746335481e+02 0.0 
0.0 0.0 -4.949611734075e+01 
-5.691695646503e+01 2.197717826417e+00 0.0 
2.197717826417e+00 -1.038657242540e+02 0.0 
0.0 0.0 -4.783480421571e+01 
-5.281426918247e+01 1.414936307554e+00 0.0 
1.414936307554e+00 -1.070671010297e+02 0.0 
0.0 0.0 -4.756441106366e+01 
-5.244119852945e+01 -1.521363158558e+00 0.0 
-1.521363158558e+00 -1.092303002027e+02 0.0 
0.0 0.0 -4.810144961964e+01 
-5.032954646928e+01 8.447636503400e-02 0.0 
8.447636503400e-02 -1.030191221205e+02 0.0 
0.0 0.0 -4.560460057692e+01 
-5.482590136488e+01 -2.512376555739e-01 0.0 
-2.512376555739e-01 -1.130838081832e+02 0.0 
0.0 0.0 -4.997291286444e+01 
-5.670910283474e+01 2.961580570576e+00 0.0 
2.961580570576e+00 -1.050463339186e+02 0.0 
0.0 0.0 -4.812663102600e+01 
-6.012973121081e+01 4.202423297398e-01 0.0 
4.202423297398e-01 -1.258031764129e+02 0.0 
0.0 0.0 -5.537987228712e+01 
-6.105792066959e+01 -2.798992343459e-02 0.0 
-2.798992343459e-02 -1.270619877340e+02 0.0 
0.0 0.0 -5.603597252107e+01 
-6.090884954354e+01 -1.205675928734e-02 0.0 
-1.205675928734e-02 -1.270012036287e+02 0.0 
0.0 0.0 -5.597301595168e+01 
-6.093787291732e+01 -3.514899787916e-02 0.0 
-3.514899787916e-02 -1.270764958565e+02 0.0 
0.0 0.0 -5.600431063215e+01 
-6.106020875653e+01 -8.907025885291e-02 0.0 
-8.907025885291e-02 -1.271145062917e+02 0.0 
0.0 0.0 -5.605241451448e+01 
-6.114966117112e+01 -1.354797229179e-01 0.0 
-1.354797229179e-01 -1.272431086339e+02 0.0 
0.0 0.0 -5.611783094150e+01 
-6.121312362491e+01 -3.787735646271e-02 0.0 
-3.787735646271e-02 -1.273025887969e+02 0.0 
0.0 0.0 -5.615471372656e+01 
-6.144446085246e+01 -3.410279364646e-02 0.0 
-3.410279364646e-02 -1.271887372738e+02 0.0 
0.0 0.0 -5.618995943786e+01 
-6.135970690519e+01 -1.062627099896e-01 0.0 
-1.062627099896e-01 -1.271233214744e+02 0.0 
0.0 0.0 -5.614490851387e+01 
-6.158298653196e+01 -1.697998874578e-01 0.0 
-1.697998874578e-01 -1.272555031839e+02 0.0 
0.0 0.0 -5.625154691476e+01 
-6.156801428283e+01 -7.709971537007e-02 0.0 
-7.709971537007e-02 -1.272968441093e+02 0.0 
0.0 0.0 -5.625945751765e+01 
-6.182292043619e+01 -9.507873342996e-02 0.0 
-9.507873342996e-02 -1.272821655675e+02 0.0 
0.0 0.0 -5.633152580111e+01 
-6.616477167773e+01 2.597995110990e+00 0.0 
2.597995110990e+00 -1.309929408230e+02 0.0 
0.0 0.0 -5.874731375022e+01 
-6.181308556274e+01 -6.200751339128e-02 0.0 
-6.200751339128e-02 -1.272981108196e+02 0.0 
0.0 0.0 -5.633335891470e+01 
-6.606485922241e+01 1.290353854966e+00 0.0 
1.290353854966e+00 -1.291691474985e+02 0.0 
0.0 0.0 -5.817020201627e+01 
-6.246279403752e+01 -1.692191163738e-01 0.0 
-1.692191163738e-01 -1.274752661012e+02 0.0 
0.0 0.0 -5.658141804162e+01 
-6.206176144374e+01 -1.580741006786e-02 0.0 
-1.580741006786e-02 -1.274276004364e+02 0.0 
0.0 0.0 -5.644680856405e+01 
-6.234825191784e+01 3.868476158668e-03 0.0 
3.868476158668e-03 -1.273320017672e+02 0.0 
0.0 0.0 -5.650407610551e+01 
-6.237503061130e+01 2.753684307148e-02 0.0 
2.753684307148e-02 -1.273603538369e+02 0.0 
0.0 0.0 -5.652061533446e+01 
-6.279887756099e+01 -3.913194848539e-02 0.0 
-3.913194848539e-02 -1.274937581421e+02 0.0 
0.0 0.0 -5.668779071093e+01 
-6.277161888666e+01 1.609093163395e-01 0.0 
1.609093163395e-01 -1.276586488748e+02 0.0 
0.0 0.0 -5.672908032845e+01 
-6.339637705713e+01 1.207406317282e-01 0.0 
1.207406317282e-01 -1.277326565699e+02 0.0 
0.0 0.0 -5.693871008812e+01 
-6.400205309830e+01 1.662296129124e+00 0.0 
1.662296129124e+00 -1.245059897394e+02 0.0 
0.0 0.0 -5.615241285132e+01 
-6.322925564002e+01 3.620711851227e-01 0.0 
3.620711851227e-01 -1.279095393884e+02 0.0 
0.0 0.0 -5.694163850854e+01 
-6.392771512742e+01 3.817330729041e-01 0.0 
3.817330729041e-01 -1.278736560928e+02 0.0 
0.0 0.0 -5.714041136607e+01 
-6.374236383214e+01 5.778671498860e-01 0.0 
5.778671498860e-01 -1.280230673044e+02 0.0 
0.0 0.0 -5.712962934098e+01 
-6.458118174521e+01 5.591316116065e-01 0.0 
5.591316116065e-01 -1.281098058346e+02 0.0 
0.0 0.0 -5.740729627396e+01 
-6.528712765772e+01 8.194652658070e-01 0.0 
8.194652658070e-01 -1.285142832731e+02 0.0 
0.0 0.0 -5.774042327924e+01 
-6.431667084551e+01 8.470855627297e-01 0.0 
8.470855627297e-01 -1.283657195487e+02 0.0 
0.0 0.0 -5.740471711827e+01 
-6.496506243944e+01 1.290280750946e+00 0.0 
1.290280750946e+00 -1.290216279852e+02 0.0 
0.0 0.0 -5.779600712741e+01 
-6.877091598569e+01 2.156635041352e+00 0.0 
2.156635041352e+00 -1.323032850305e+02 0.0 
0.0 0.0 -5.992226030484e+01 
-6.501869696002e+01 1.904955323056e+00 0.0 
1.904955323056e+00 -1.233980022395e+02 0.0 
0.0 0.0 -5.612500975985e+01 
-6.030655243324e+01 1.292332210509e+00 0.0 
1.292332210509e+00 -1.270951060792e+02 0.0 
0.0 0.0 -5.582049755373e+01 
-6.052606813149e+01 -1.586903194180e+00 0.0 
-1.586903194180e+00 -1.258040248648e+02 0.0 
0.0 0.0 -5.549902789888e+01 
-6.250482030659e+01 -8.510671415409e-02 0.0 
-8.510671415409e-02 -1.316082514587e+02 0.0 
0.0 0.0 -5.783392152960e+01 
-5.842102939660e+01 -2.657654190398e-01 0.0 
-2.657654190398e-01 -1.214724402573e+02 0.0 
0.0 0.0 -5.356804089616e+01 
-6.489563431499e+01 2.598056805435e+00 0.0 
2.598056805435e+00 -1.243197600300e+02 0.0 
0.0 0.0 -5.636461830350e+01 

TENSORS element_materi_strain_total float
-9.212569631055e-04 1.228995616663e-03 0.0 
1.228995616663e-03 5.055970321107e-03 0.0 
0.0 0.0 0.0 
-1.128451629937e-03 1.402508057104e-03 0.0 
1.402508057104e-03 5.197456736565e-03 0.0 
0.0 0.0 0.0 
-1.662173326109e-04 1.218718123708e-03 0.0 
1.218718123708e-03 9.891214366518e-03 0.0 
0.0 0.0 0.0 
-1.717695865276e-04 1.024544654081e-04 0.0 
1.024544654081e-04 1.061626153840e-02 0.0 
0.0 0.0 0.0 
-6.117217656114e-04 1.270945696067e-04 0.0 
1.270945696067e-04 7.958612460278e-03 0.0 
0.0 0.0 0.0 
1.089528984186e-03 2.901261549045e-03 0.0 
2.901261549045e-03 -3.347042186007e-03 0.0 
0.0 0.0 0.0 
-5.625925937028e-04 1.020148000275e-04 0.0 
1.020148000275e-04 7.963587270137e-03 0.0 
0.0 0.0 0.0 
-1.075548390540e-03 1.722092370079e-03 0.0 
1.722092370079e-03 4.715221184121e-03 0.0 
0.0 0.0 0.0 
-6.116233904251e-04 3.082190240730e-05 0.0 
3.082190240730e-05 7.971321816030e-03 0.0 
0.0 0.0 0.0 
-1.638238924427e-04 2.392875026555e-04 0.0 
2.392875026555e-04 1.057773025767e-02 0.0 
0.0 0.0 0.0 
-1.741363497960e-04 -7.961043281820e-05 0.0 
-7.961043281820e-05 4.926430519686e-03 0.0 
0.0 0.0 0.0 
-1.069525531195e-03 1.385080399625e-03 0.0 
1.385080399625e-03 4.884741749133e-03 0.0 
0.0 0.0 0.0 
-5.213323087661e-05 -1.030283356203e-05 0.0 
-1.030283356203e-05 7.167213290252e-03 0.0 
0.0 0.0 0.0 
-7.004533705676e-04 2.855886247644e-04 0.0 
2.855886247644e-04 8.264618385970e-03 0.0 
0.0 0.0 0.0 
-2.938971485933e-05 -7.792988863243e-05 0.0 
-7.792988863243e-05 7.311847800266e-03 0.0 
0.0 0.0 0.0 
-1.049911868202e-04 1.974399803210e-04 0.0 
1.974399803210e-04 1.075129638410e-02 0.0 
0.0 0.0 0.0 
-6.869436898870e-04 1.338955411133e-04 0.0 
1.338955411133e-04 7.857807794575e-03 0.0 
0.0 0.0 0.0 
1.426483268526e-03 1.457980841780e-03 0.0 
1.457980841780e-03 -3.710188960135e-03 0.0 
0.0 0.0 0.0 
5.180881645583e-05 -7.034643314193e-05 0.0 
-7.034643314193e-05 1.446177111051e-03 0.0 
0.0 0.0 0.0 
-5.045341477472e-05 -6.985041022569e-05 0.0 
-6.985041022569e-05 1.546971340485e-03 0.0 
0.0 0.0 0.0 
-1.969268694364e-04 1.883309476019e-04 0.0 
1.883309476019e-04 1.058653968466e-02 0.0 
0.0 0.0 0.0 
-9.507009623626e-04 8.978625356347e-04 0.0 
8.978625356347e-04 5.658722903548e-03 0.0 
0.0 0.0 0.0 
-1.029700289209e-03 1.031709655246e-03 0.0 
1.031709655246e-03 5.689077403644e-03 0.0 
0.0 0.0 0.0 
5.307386608870e-04 4.865672873413e-04 0.0 
4.865672873413e-04 6.125028383992e-03 0.0 
0.0 0.0 0.0 
-7.139722688789e-04 4.484081098021e-04 0.0 
4.484081098021e-04 8.545658429093e-03 0.0 
0.0 0.0 0.0 
-1.721007372600e-04 -1.189536503290e-04 0.0 
-1.189536503290e-04 5.143652679196e-03 0.0 
0.0 0.0 0.0 
-8.285945864914e-04 2.802607651154e-04 0.0 
2.802607651154e-04 7.428951298545e-03 0.0 
0.0 0.0 0.0 
6.945566048588e-05 1.658685314253e-03 0.0 
1.658685314253e-03 8.333070216815e-03 0.0 
0.0 0.0 0.0 
-8.024945711325e-04 4.317563401697e-04 0.0 
4.317563401697e-04 8.547254032210e-03 0.0 
0.0 0.0 0.0 
4.519212411911e-04 4.861062218806e-04 0.0 
4.861062218806e-04 6.378036276817e-03 0.0 
0.0 0.0 0.0 
9.650259427840e-04 -2.415702859073e-03 0.0 
-2.415702859073e-03 -2.201280461904e-03 0.0 
0.0 0.0 0.0 
1.343066111159e-04 -1.435172529183e-04 0.0 
-1.435172529183e-04 3.233488708476e-04 0.0 
0.0 0.0 0.0 
-2.865614628168e-04 1.251327350811e-03 0.0 
1.251327350811e-03 9.956131832794e-03 0.0 
0.0 0.0 0.0 
-1.237668301893e-04 -4.763092873618e-05 0.0 
-4.763092873618e-05 6.154394990008e-03 0.0 
0.0 0.0 0.0 
1.905351639462e-04 -4.504484963809e-06 0.0 
-4.504484963809e-06 6.713347790235e-03 0.0 
0.0 0.0 0.0 
8.393508787563e-06 -1.454580167342e-05 0.0 
-1.454580167342e-05 7.367941001764e-03 0.0 
0.0 0.0 0.0 
2.472399131559e-05 -1.403202118053e-04 0.0 
-1.403202118053e-04 7.360169230129e-03 0.0 
0.0 0.0 0.0 
3.845845443144e-04 1.171941072694e-03 0.0 
1.171941072694e-03 6.950690153884e-03 0.0 
0.0 0.0 0.0 
-5.711526383264e-04 -2.655267697226e-05 0.0 
-2.655267697226e-05 7.554880071973e-03 0.0 
0.0 0.0 0.0 
-5.437173965112e-04 7.191719480160e-05 0.0 
7.191719480160e-05 7.570831324026e-03 0.0 
0.0 0.0 0.0 
-1.013587851816e-03 7.745689546996e-04 0.0 
7.745689546996e-04 6.292332750870e-03 0.0 
0.0 0.0 0.0 
1.721220485573e-04 1.784365524795e-04 0.0 
1.784365524795e-04 6.747326868718e-03 0.0 
0.0 0.0 0.0 
-9.626251204600e-04 1.971742837026e-03 0.0 
1.971742837026e-03 3.880330688279e-03 0.0 
0.0 0.0 0.0 
-8.468789207832e-04 2.909435550760e-04 0.0 
2.909435550760e-04 7.453210531593e-03 0.0 
0.0 0.0 0.0 
-2.326253605995e-04 3.161050984711e-05 0.0 
3.161050984711e-05 1.041944034323e-02 0.0 
0.0 0.0 0.0 
-1.242707932583e-03 2.410687195726e-03 0.0 
2.410687195726e-03 3.920895589295e-03 0.0 
0.0 0.0 0.0 
9.803022981199e-04 -2.325113437116e-03 0.0 
-2.325113437116e-03 -2.885800009471e-03 0.0 
0.0 0.0 0.0 
-1.549825955135e-04 8.026117939062e-05 0.0 
8.026117939062e-05 1.044556171425e-02 0.0 
0.0 0.0 0.0 
-3.542894372291e-04 -2.062775435665e-03 0.0 
-2.062775435665e-03 -1.206865945936e-03 0.0 
0.0 0.0 0.0 
-7.475792120271e-04 1.987438130770e-04 0.0 
1.987438130770e-04 8.108163572567e-03 0.0 
0.0 0.0 0.0 
-1.020493854814e-03 8.984378504277e-04 0.0 
8.984378504277e-04 5.988344807433e-03 0.0 
0.0 0.0 0.0 
-5.521814836706e-05 -7.228963388660e-05 0.0 
-7.228963388660e-05 1.892746071233e-03 0.0 
0.0 0.0 0.0 
1.796710666069e-03 -2.036642229686e-03 0.0 
-2.036642229686e-03 -2.770278642527e-03 0.0 
0.0 0.0 0.0 
-9.305229323918e-04 6.875100884510e-04 0.0 
6.875100884510e-04 6.124993364938e-03 0.0 
0.0 0.0 0.0 
-1.697754611505e-04 9.453391259755e-04 0.0 
9.453391259755e-04 1.029159499246e-02 0.0 
0.0 0.0 0.0 
-2.023134501682e-04 -1.886106430206e-04 0.0 
-1.886106430206e-04 2.534932724567e-03 0.0 
0.0 0.0 0.0 
-1.362101486625e-04 -7.480363034594e-05 0.0 
-7.480363034594e-05 1.982524425446e-03 0.0 
0.0 0.0 0.0 
-1.168194903624e-04 -2.125751883880e-05 0.0 
-2.125751883880e-05 6.155119680723e-03 0.0 
0.0 0.0 0.0 
1.232907670659e-04 -1.385353619069e-04 0.0 
-1.385353619069e-04 1.032949948367e-03 0.0 
0.0 0.0 0.0 
-1.204156805058e-04 1.493755987361e-04 0.0 
1.493755987361e-04 1.075198144599e-02 0.0 
0.0 0.0 0.0 
-5.755538446616e-04 -1.947335508489e-03 0.0 
-1.947335508489e-03 -3.591438240110e-03 0.0 
0.0 0.0 0.0 
3.157995447294e-04 1.491038855704e-03 0.0 
1.491038855704e-03 7.254997693112e-03 0.0 
0.0 0.0 0.0 
-5.565257945940e-04 1.944421827722e-03 0.0 
1.944421827722e-03 4.668592578370e-03 0.0 
0.0 0.0 0.0 
1.683902265936e-03 -2.030170722801e-03 0.0 
-2.030170722801e-03 -2.333832643013e-03 0.0 
0.0 0.0 0.0 
-3.278534529094e-05 -9.534842732597e-05 0.0 
-9.534842732597e-05 7.105408207262e-03 0.0 
0.0 0.0 0.0 
-9.537627834038e-04 7.746546377690e-04 0.0 
7.746546377690e-04 5.898123146471e-03 0.0 
0.0 0.0 0.0 
5.265617535668e-04 -7.665181994553e-04 0.0 
-7.665181994553e-04 -4.982793611770e-03 0.0 
0.0 0.0 0.0 
-2.974158535493e-04 1.309187316374e-03 0.0 
1.309187316374e-03 9.834520425394e-03 0.0 
0.0 0.0 0.0 
-4.634515547792e-04 -1.365384080641e-03 0.0 
-1.365384080641e-03 8.266558108421e-04 0.0 
0.0 0.0 0.0 
-8.501806086736e-05 1.501450165689e-03 0.0 
1.501450165689e-03 9.186415166424e-03 0.0 
0.0 0.0 0.0 
-1.328619883263e-04 -1.601376842141e-04 0.0 
-1.601376842141e-04 5.316427569513e-03 0.0 
0.0 0.0 0.0 
0.0 6.292986699203e-04 0.0 
6.292986699203e-04 1.082532031471e-02 0.0 
0.0 0.0 0.0 
5.110856386237e-05 1.517287198360e-03 0.0 
1.517287198360e-03 8.022693152321e-03 0.0 
0.0 0.0 0.0 
3.889782759297e-04 -4.164340261167e-06 0.0 
-4.164340261167e-06 3.308975126353e-04 0.0 
0.0 0.0 0.0 
-2.385816436409e-04 -1.630425398638e-04 0.0 
-1.630425398638e-04 2.661067456878e-03 0.0 
0.0 0.0 0.0 
-2.203252692249e-04 4.479082854850e-04 0.0 
4.479082854850e-04 1.056855202214e-02 0.0 
0.0 0.0 0.0 
-2.992318807742e-04 1.026267734362e-03 0.0 
1.026267734362e-03 1.024141333132e-02 0.0 
0.0 0.0 0.0 
-9.944156092326e-04 2.809824992318e-03 0.0 
2.809824992318e-03 2.309593516398e-03 0.0 
0.0 0.0 0.0 
-1.279423672873e-05 -1.427531231129e-04 0.0 
-1.427531231129e-04 1.110977658243e-03 0.0 
0.0 0.0 0.0 
-8.470073525639e-04 2.608563316585e-03 0.0 
2.608563316585e-03 2.300998303245e-03 0.0 
0.0 0.0 0.0 
-6.290843078971e-04 -1.618560453021e-03 0.0 
-1.618560453021e-03 8.666268894897e-04 0.0 
0.0 0.0 0.0 
-6.602520241267e-04 1.198859612453e-04 0.0 
1.198859612453e-04 7.865151628818e-03 0.0 
0.0 0.0 0.0 
-1.054964730941e-03 1.191910506304e-03 0.0 
1.191910506304e-03 5.398504276868e-03 0.0 
0.0 0.0 0.0 
-9.797965631438e-04 9.749033928469e-04 0.0 
9.749033928469e-04 5.367349427537e-03 0.0 
0.0 0.0 0.0 
-6.392685985211e-04 7.428149985871e-05 0.0 
7.428149985871e-05 8.186417914622e-03 0.0 
0.0 0.0 0.0 
-5.789401542944e-04 1.298693554132e-04 0.0 
1.298693554132e-04 8.185851028313e-03 0.0 
0.0 0.0 0.0 
-1.484887007839e-04 -1.027148097136e-04 0.0 
-1.027148097136e-04 5.529120755185e-03 0.0 
0.0 0.0 0.0 
-1.360332758488e-04 1.312898631403e-05 0.0 
1.312898631403e-05 5.992599970961e-03 0.0 
0.0 0.0 0.0 
-5.873854990293e-04 1.113889263725e-03 0.0 
1.113889263725e-03 8.898570731582e-03 0.0 
0.0 0.0 0.0 
-6.596611401585e-04 6.411642564410e-05 0.0 
6.411642564410e-05 7.945193137245e-03 0.0 
0.0 0.0 0.0 
-2.801474031066e-04 -2.017066272576e-04 0.0 
-2.017066272576e-04 5.085000468108e-04 0.0 
0.0 0.0 0.0 
-8.348167288318e-04 3.398975315063e-04 0.0 
3.398975315063e-04 7.819214003987e-03 0.0 
0.0 0.0 0.0 
-3.628999897174e-04 3.992896708251e-05 0.0 
3.992896708251e-05 9.544117746962e-03 0.0 
0.0 0.0 0.0 
-4.025284837696e-04 9.245610715072e-05 0.0 
9.245610715072e-05 9.476483530282e-03 0.0 
0.0 0.0 0.0 
-1.481351793586e-04 6.890585114187e-04 0.0 
6.890585114187e-04 1.080561084600e-02 0.0 
0.0 0.0 0.0 
1.931139663449e-04 1.237402417692e-03 0.0 
1.237402417692e-03 7.406460474149e-03 0.0 
0.0 0.0 0.0 
-7.107807291372e-04 1.270590966334e-04 0.0 
1.270590966334e-04 7.856520988153e-03 0.0 
0.0 0.0 0.0 
2.578439483119e-04 1.189906571556e-04 0.0 
1.189906571556e-04 6.788171256850e-03 0.0 
0.0 0.0 0.0 
-4.740013065878e-04 -6.970838482789e-06 0.0 
-6.970838482789e-06 8.574658660355e-03 0.0 
0.0 0.0 0.0 
-8.060728947911e-04 1.906088681731e-03 0.0 
1.906088681731e-03 5.013694598131e-03 0.0 
0.0 0.0 0.0 
-6.344484994869e-04 4.588367305673e-05 0.0 
4.588367305673e-05 7.761600079510e-03 0.0 
0.0 0.0 0.0 
-3.547805945792e-05 -2.932103658506e-05 0.0 
-2.932103658506e-05 7.308814628545e-03 0.0 
0.0 0.0 0.0 
6.554043974099e-04 1.337893787606e-03 0.0 
1.337893787606e-03 5.804436454588e-03 0.0 
0.0 0.0 0.0 
2.891468013178e-04 1.409134913630e-03 0.0 
1.409134913630e-03 7.268192649624e-03 0.0 
0.0 0.0 0.0 
-8.439341644706e-05 2.635992208377e-03 0.0 
2.635992208377e-03 3.329919913002e-03 0.0 
0.0 0.0 0.0 
-3.798584355043e-04 -2.874349903833e-03 0.0 
-2.874349903833e-03 -1.406686108526e-03 0.0 
0.0 0.0 0.0 
-8.348322627905e-05 -6.912186689957e-05 0.0 
-6.912186689957e-05 6.742708170931e-03 0.0 
0.0 0.0 0.0 
-3.511538106236e-04 9.946940148524e-05 0.0 
9.946940148524e-05 9.837876288610e-03 0.0 
0.0 0.0 0.0 
-8.876504736193e-04 -2.999509810157e-03 0.0 
-2.999509810157e-03 -2.165588969797e-03 0.0 
0.0 0.0 0.0 
1.771934335948e-05 -8.517291402124e-05 0.0 
-8.517291402124e-05 7.150831459720e-03 0.0 
0.0 0.0 0.0 
-5.345694020367e-04 1.132316802376e-03 0.0 
1.132316802376e-03 8.569699251674e-03 0.0 
0.0 0.0 0.0 
5.207995015855e-04 1.657848999011e-05 0.0 
1.657848999011e-05 1.087701852862e-04 0.0 
0.0 0.0 0.0 
4.275266803038e-04 2.236237350101e-03 0.0 
2.236237350101e-03 3.317827872311e-03 0.0 
0.0 0.0 0.0 
-9.462698308820e-04 4.827357138599e-04 0.0 
4.827357138599e-04 7.287305182662e-03 0.0 
0.0 0.0 0.0 
-2.353914188532e-04 -2.972861709957e-04 0.0 
-2.972861709957e-04 3.175277777731e-03 0.0 
0.0 0.0 0.0 
-7.280990966517e-04 1.887563189430e-03 0.0 
1.887563189430e-03 4.561907244207e-03 0.0 
0.0 0.0 0.0 
-5.069491882072e-04 2.123543691957e-03 0.0 
2.123543691957e-03 4.655101298361e-03 0.0 
0.0 0.0 0.0 
9.957062524113e-05 2.375207786535e-05 0.0 
2.375207786535e-05 6.949268282501e-03 0.0 
0.0 0.0 0.0 
-4.856949124225e-04 5.113814689222e-05 0.0 
5.113814689222e-05 8.441212245650e-03 0.0 
0.0 0.0 0.0 
-4.300196329299e-04 2.238434786908e-03 0.0 
2.238434786908e-03 4.057104952156e-03 0.0 
0.0 0.0 0.0 
-3.583729470386e-04 -7.656389816504e-04 0.0 
-7.656389816504e-04 1.120695210003e-03 0.0 
0.0 0.0 0.0 
-8.346710592154e-04 3.950633170196e-04 0.0 
3.950633170196e-04 7.728650878076e-03 0.0 
0.0 0.0 0.0 
-2.884371075547e-04 5.589159955024e-05 0.0 
5.589159955024e-05 9.866817676170e-03 0.0 
0.0 0.0 0.0 
-3.318141766481e-04 2.373743354000e-03 0.0 
2.373743354000e-03 4.050548155619e-03 0.0 
0.0 0.0 0.0 
-7.237821709817e-04 3.033669727278e-03 0.0 
3.033669727278e-03 4.251389033543e-04 0.0 
0.0 0.0 0.0 
-9.837450878264e-04 5.952960872059e-04 0.0 
5.952960872059e-04 6.787259850918e-03 0.0 
0.0 0.0 0.0 
-2.524846601686e-04 -2.680187392011e-04 0.0 
-2.680187392011e-04 3.141156284126e-03 0.0 
0.0 0.0 0.0 
-9.054025275320e-04 5.435756965518e-04 0.0 
5.435756965518e-04 6.591327844381e-03 0.0 
0.0 0.0 0.0 
-1.228713106627e-04 5.552608682102e-04 0.0 
5.552608682102e-04 1.066611881479e-02 0.0 
0.0 0.0 0.0 
1.869270877219e-04 3.315696392759e-03 0.0 
3.315696392759e-03 -8.894265647708e-04 0.0 
0.0 0.0 0.0 
-1.377409173123e-04 -1.182686742439e-04 0.0 
-1.182686742439e-04 5.141275831853e-03 0.0 
0.0 0.0 0.0 
-1.572373443550e-04 1.508537741304e-04 0.0 
1.508537741304e-04 1.061769839820e-02 0.0 
0.0 0.0 0.0 
-7.830860802079e-04 1.315173340198e-03 0.0 
1.315173340198e-03 6.065503411046e-03 0.0 
0.0 0.0 0.0 
-9.997211679286e-04 6.674190015714e-04 0.0 
6.674190015714e-04 6.543141674737e-03 0.0 
0.0 0.0 0.0 
2.278979727890e-04 8.376326363612e-05 0.0 
8.376326363612e-05 6.715117881320e-03 0.0 
0.0 0.0 0.0 
-5.513138998592e-05 -7.376338754514e-05 0.0 
-7.376338754514e-05 7.179351127256e-03 0.0 
0.0 0.0 0.0 
-1.219223383039e-04 -8.781729141282e-05 0.0 
-8.781729141282e-05 5.529519311256e-03 0.0 
0.0 0.0 0.0 
-8.417397835063e-04 1.297363473405e-03 0.0 
1.297363473405e-03 6.424494975640e-03 0.0 
0.0 0.0 0.0 
3.831160098067e-04 4.315653346207e-04 0.0 
4.315653346207e-04 6.733921238048e-03 0.0 
0.0 0.0 0.0 
-8.755996357096e-04 1.085268137404e-03 0.0 
1.085268137404e-03 6.207290443387e-03 0.0 
0.0 0.0 0.0 
-1.099300428449e-04 3.587406078928e-04 0.0 
3.587406078928e-04 1.066225999872e-02 0.0 
0.0 0.0 0.0 
-1.536341706212e-04 1.574651903407e-03 0.0 
1.574651903407e-03 9.280470242918e-03 0.0 
0.0 0.0 0.0 
-7.690953283765e-04 2.506665495832e-04 0.0 
2.506665495832e-04 8.258351882747e-03 0.0 
0.0 0.0 0.0 
-4.504427826120e-04 1.318267227791e-04 0.0 
1.318267227791e-04 9.069243088711e-03 0.0 
0.0 0.0 0.0 
-9.338330708621e-04 1.246481935446e-03 0.0 
1.246481935446e-03 6.200541047699e-03 0.0 
0.0 0.0 0.0 
-9.180581377233e-04 6.017696834361e-04 0.0 
6.017696834361e-04 6.342398449952e-03 0.0 
0.0 0.0 0.0 
-6.945377915399e-04 1.361230416327e-03 0.0 
1.361230416327e-03 6.287057076334e-03 0.0 
0.0 0.0 0.0 
1.299083602091e-04 2.488718198002e-03 0.0 
2.488718198002e-03 3.524297945794e-03 0.0 
0.0 0.0 0.0 
-5.867709538641e-04 1.918786164181e-05 0.0 
1.918786164181e-05 7.815536758239e-03 0.0 
0.0 0.0 0.0 
6.517049540344e-04 2.184961897406e-03 0.0 
2.184961897406e-03 3.323271615823e-03 0.0 
0.0 0.0 0.0 
-4.136069477156e-05 -9.029504470173e-05 0.0 
-9.029504470173e-05 4.149938231313e-04 0.0 
0.0 0.0 0.0 
-5.156404270291e-04 1.439102228909e-05 0.0 
1.439102228909e-05 8.121737892403e-03 0.0 
0.0 0.0 0.0 
5.217604192320e-05 -5.613634132167e-05 0.0 
-5.613634132167e-05 1.115207761640e-03 0.0 
0.0 0.0 0.0 
-9.649172131373e-04 5.348259117911e-04 0.0 
5.348259117911e-04 7.034682652694e-03 0.0 
0.0 0.0 0.0 
2.140872817222e-04 3.684707779306e-04 0.0 
3.684707779306e-04 6.715828670556e-03 0.0 
0.0 0.0 0.0 
-2.444796815122e-04 2.530592811304e-03 0.0 
2.530592811304e-03 3.337926600859e-03 0.0 
0.0 0.0 0.0 
-1.368503021121e-04 -3.142252185161e-05 0.0 
-3.142252185161e-05 5.760718585817e-03 0.0 
0.0 0.0 0.0 
-1.235928098518e-03 2.019133035201e-03 0.0 
2.019133035201e-03 4.436534308973e-03 0.0 
0.0 0.0 0.0 
6.073334128083e-04 1.452435949656e-03 0.0 
1.452435949656e-03 5.794178930238e-03 0.0 
0.0 0.0 0.0 
-5.326851648281e-04 2.260882587421e-05 0.0 
2.260882587421e-05 7.846194238276e-03 0.0 
0.0 0.0 0.0 
7.173543795056e-04 2.343292852120e-03 0.0 
2.343292852120e-03 2.503792162913e-03 0.0 
0.0 0.0 0.0 
-1.065578868552e-04 -8.084310827792e-05 0.0 
-8.084310827792e-05 6.328997366734e-03 0.0 
0.0 0.0 0.0 
-6.756224963598e-04 -9.551473432193e-04 0.0 
-9.551473432193e-04 1.159333975137e-03 0.0 
0.0 0.0 0.0 
-7.070454767366e-05 -2.080146273520e-05 0.0 
-2.080146273520e-05 6.737566274120e-03 0.0 
0.0 0.0 0.0 
-8.682340644527e-04 7.076155697894e-04 0.0 
7.076155697894e-04 7.400050912666e-03 0.0 
0.0 0.0 0.0 
-7.323536935444e-06 -8.633655433624e-05 0.0 
-8.633655433624e-05 7.162386499121e-03 0.0 
0.0 0.0 0.0 
-5.148260367498e-04 1.222060523417e-05 0.0 
1.222060523417e-05 7.817299844257e-03 0.0 
0.0 0.0 0.0 
1.789890084967e-04 2.580637437266e-03 0.0 
2.580637437266e-03 2.700793287132e-03 0.0 
0.0 0.0 0.0 
-8.794974500552e-04 4.539786404271e-04 0.0 
4.539786404271e-04 7.062751325500e-03 0.0 
0.0 0.0 0.0 
-2.061875042075e-04 -8.166005538735e-05 0.0 
-8.166005538735e-05 4.931046252650e-03 0.0 
0.0 0.0 0.0 
-9.826174785480e-04 1.661901596300e-03 0.0 
1.661901596300e-03 4.331741856063e-03 0.0 
0.0 0.0 0.0 
9.792688055357e-04 2.200364582598e-03 0.0 
2.200364582598e-03 2.521963712852e-03 0.0 
0.0 0.0 0.0 
-4.439486272763e-04 6.378051980375e-05 0.0 
6.378051980375e-05 9.278249393702e-03 0.0 
0.0 0.0 0.0 
-5.434489829391e-04 4.701034142974e-05 0.0 
4.701034142974e-05 7.820377712645e-03 0.0 
0.0 0.0 0.0 
3.200709863940e-04 2.406161919565e-03 0.0 
2.406161919565e-03 2.974502827183e-03 0.0 
0.0 0.0 0.0 
-9.005598005993e-04 4.899353980552e-04 0.0 
4.899353980552e-04 6.825474448310e-03 0.0 
0.0 0.0 0.0 
-2.639873757844e-04 1.412967882740e-03 0.0 
1.412967882740e-03 8.446866992130e-03 0.0 
0.0 0.0 0.0 
-2.358940487737e-04 -3.131467244552e-04 0.0 
-3.131467244552e-04 3.450022047891e-03 0.0 
0.0 0.0 0.0 
7.386138630272e-05 1.560859173269e-03 0.0 
1.560859173269e-03 8.204458759337e-03 0.0 
0.0 0.0 0.0 
-1.400888206812e-04 1.607799169183e-03 0.0 
1.607799169183e-03 9.087517711413e-03 0.0 
0.0 0.0 0.0 
-9.848145379145e-04 1.858318421110e-03 0.0 
1.858318421110e-03 4.928168552716e-03 0.0 
0.0 0.0 0.0 
-2.340950444198e-04 -2.436450232217e-04 0.0 
-2.436450232217e-04 3.536878631226e-03 0.0 
0.0 0.0 0.0 
7.342727345714e-04 6.445600765231e-04 0.0 
6.445600765231e-04 5.704564057697e-03 0.0 
0.0 0.0 0.0 
-1.002086934191e-03 1.011606946607e-03 0.0 
1.011606946607e-03 6.282694001875e-03 0.0 
0.0 0.0 0.0 
-8.974875230993e-04 1.729076382339e-03 0.0 
1.729076382339e-03 4.555383058396e-03 0.0 
0.0 0.0 0.0 
-8.751277463789e-04 5.621026629996e-04 0.0 
5.621026629996e-04 7.358770855480e-03 0.0 
0.0 0.0 0.0 
2.743313437292e-04 2.310009447308e-03 0.0 
2.310009447308e-03 3.770166452307e-03 0.0 
0.0 0.0 0.0 
-1.082892238718e-04 2.765484687041e-04 0.0 
2.765484687041e-04 1.067371947752e-02 0.0 
0.0 0.0 0.0 
-5.756420795291e-04 9.856872342563e-04 0.0 
9.856872342563e-04 8.901058779428e-03 0.0 
0.0 0.0 0.0 
-9.584518235850e-05 -2.950875081355e-06 0.0 
-2.950875081355e-06 6.558436139561e-03 0.0 
0.0 0.0 0.0 
-1.154752085006e-03 2.641703320321e-03 0.0 
2.641703320321e-03 3.143801329407e-03 0.0 
0.0 0.0 0.0 
1.337575553916e-03 2.133618255062e-03 0.0 
2.133618255062e-03 1.665568545927e-03 0.0 
0.0 0.0 0.0 
-5.074644656293e-04 1.100138433229e-03 0.0 
1.100138433229e-03 8.900782744091e-03 0.0 
0.0 0.0 0.0 
-2.480211264593e-03 2.195820846426e-03 0.0 
2.195820846426e-03 -2.594667172463e-03 0.0 
0.0 0.0 0.0 
-9.177620190768e-04 8.507294205763e-04 0.0 
8.507294205763e-04 6.285755463659e-03 0.0 
0.0 0.0 0.0 
8.637453697327e-04 3.001264319299e-04 0.0 
3.001264319299e-04 5.006082708469e-03 0.0 
0.0 0.0 0.0 
2.290127394529e-04 -1.211852398628e-04 0.0 
-1.211852398628e-04 6.721335788651e-04 0.0 
0.0 0.0 0.0 
-2.428070139232e-04 1.112777871139e-03 0.0 
1.112777871139e-03 1.005404320028e-02 0.0 
0.0 0.0 0.0 
-6.958712287403e-04 6.521247319617e-04 0.0 
6.521247319617e-04 8.767320352589e-03 0.0 
0.0 0.0 0.0 
5.288875375571e-04 -1.128913325334e-03 0.0 
-1.128913325334e-03 2.239970572059e-03 0.0 
0.0 0.0 0.0 
9.470466668133e-04 4.556422520867e-04 0.0 
4.556422520867e-04 4.995412221127e-03 0.0 
0.0 0.0 0.0 
-8.417994699078e-04 4.272846397118e-04 0.0 
4.272846397118e-04 8.062387566552e-03 0.0 
0.0 0.0 0.0 
-7.881015342851e-04 3.607777112962e-04 0.0 
3.607777112962e-04 8.442272408312e-03 0.0 
0.0 0.0 0.0 
3.929003376675e-04 4.013370099000e-04 0.0 
4.013370099000e-04 6.356894308450e-03 0.0 
0.0 0.0 0.0 
-1.155988800410e-04 -1.106051571292e-03 0.0 
-1.106051571292e-03 2.074945585342e-03 0.0 
0.0 0.0 0.0 
-5.348263856327e-04 1.532342077574e-03 0.0 
1.532342077574e-03 6.082383219331e-03 0.0 
0.0 0.0 0.0 
-8.365003871683e-04 8.589670812066e-04 0.0 
8.589670812066e-04 7.409017332364e-03 0.0 
0.0 0.0 0.0 
-7.351292954909e-04 6.291082544626e-04 0.0 
6.291082544626e-04 9.017895889260e-03 0.0 
0.0 0.0 0.0 
-9.276079474153e-04 7.035166262231e-04 0.0 
7.035166262231e-04 7.668640929346e-03 0.0 
0.0 0.0 0.0 
-9.578824757637e-04 6.226464098087e-04 0.0 
6.226464098087e-04 7.359115306772e-03 0.0 
0.0 0.0 0.0 
9.453459919579e-04 1.301591544818e-03 0.0 
1.301591544818e-03 4.742958301935e-03 0.0 
0.0 0.0 0.0 
-4.018851831517e-04 1.324538013178e-03 0.0 
1.324538013178e-03 8.494966262862e-03 0.0 
0.0 0.0 0.0 
-6.172817049245e-04 2.061525908380e-03 0.0 
2.061525908380e-03 -3.303867416787e-03 0.0 
0.0 0.0 0.0 
-8.932597930701e-04 1.577745993426e-03 0.0 
1.577745993426e-03 4.893478974840e-03 0.0 
0.0 0.0 0.0 
-7.787610989419e-04 1.651308849691e-03 0.0 
1.651308849691e-03 5.055030571352e-03 0.0 
0.0 0.0 0.0 
-6.849506773385e-04 1.484548281827e-03 0.0 
1.484548281827e-03 6.270240586974e-03 0.0 
0.0 0.0 0.0 
-6.199647089062e-04 9.589740617070e-04 0.0 
9.589740617070e-04 9.195763750725e-03 0.0 
0.0 0.0 0.0 
2.040698252798e-03 2.416872150079e-03 0.0 
2.416872150079e-03 -3.397051972218e-03 0.0 
0.0 0.0 0.0 
8.855070620473e-04 1.293250980642e-04 0.0 
1.293250980642e-04 4.704213502615e-03 0.0 
0.0 0.0 0.0 
-5.585632855264e-04 -7.715867842310e-06 0.0 
-7.715867842310e-06 7.792753960955e-03 0.0 
0.0 0.0 0.0 
1.047889252078e-03 2.371069343208e-03 0.0 
2.371069343208e-03 1.633568140939e-03 0.0 
0.0 0.0 0.0 
8.698190936192e-04 -4.100321636629e-05 0.0 
-4.100321636629e-05 4.452509721966e-03 0.0 
0.0 0.0 0.0 
1.812300147956e-04 -7.671456102311e-05 0.0 
-7.671456102311e-05 4.147025103387e-04 0.0 
0.0 0.0 0.0 
-6.203651521961e-04 7.401199520235e-04 0.0 
7.401199520235e-04 9.096865706442e-03 0.0 
0.0 0.0 0.0 
3.364080327717e-04 -1.050438691929e-04 0.0 
-1.050438691929e-04 2.249493304816e-04 0.0 
0.0 0.0 0.0 
7.612863510098e-05 -9.436038336001e-05 0.0 
-9.436038336001e-05 7.359562908587e-04 0.0 
0.0 0.0 0.0 
-8.587451878638e-04 2.351489598336e-03 0.0 
2.351489598336e-03 3.128929323120e-03 0.0 
0.0 0.0 0.0 
-2.792767391093e-04 -1.093316965114e-03 0.0 
-1.093316965114e-03 1.833587816127e-03 0.0 
0.0 0.0 0.0 
-6.519632030568e-04 7.090267221976e-04 0.0 
7.090267221976e-04 9.348635462555e-03 0.0 
0.0 0.0 0.0 
-2.951549335201e-04 -1.202841965303e-03 0.0 
-1.202841965303e-03 1.573477544240e-03 0.0 
0.0 0.0 0.0 
4.586032333243e-05 3.090696753167e-03 0.0 
3.090696753167e-03 1.348111889925e-03 0.0 
0.0 0.0 0.0 
5.327748231683e-04 -2.544098183845e-03 0.0 
-2.544098183845e-03 -1.114762648843e-03 0.0 
0.0 0.0 0.0 
-5.797321501564e-04 -8.332959497774e-04 0.0 
-8.332959497774e-04 1.331122215737e-03 0.0 
0.0 0.0 0.0 
8.716773266442e-04 6.061615366651e-04 0.0 
6.061615366651e-04 5.316471913930e-03 0.0 
0.0 0.0 0.0 
-9.432587486002e-04 7.727383637809e-04 0.0 
7.727383637809e-04 7.397550300677e-03 0.0 
0.0 0.0 0.0 
-2.442276162851e-05 -3.849925776679e-05 0.0 
-3.849925776679e-05 7.108535066484e-03 0.0 
0.0 0.0 0.0 
-5.708412918931e-04 8.873911103310e-04 0.0 
8.873911103310e-04 -4.648555761534e-03 0.0 
0.0 0.0 0.0 
2.884981292419e-04 2.997251524381e-03 0.0 
2.997251524381e-03 1.491357521919e-03 0.0 
0.0 0.0 0.0 
1.070675996968e-03 2.135741687309e-03 0.0 
2.135741687309e-03 2.147634122436e-03 0.0 
0.0 0.0 0.0 
-9.127509141996e-04 9.723307540913e-04 0.0 
9.723307540913e-04 5.982850174603e-03 0.0 
0.0 0.0 0.0 
9.878971435093e-04 2.793838136068e-04 0.0 
2.793838136068e-04 4.693798687855e-03 0.0 
0.0 0.0 0.0 
1.620187169071e-05 -5.669343527375e-05 0.0 
-5.669343527375e-05 7.166115060573e-03 0.0 
0.0 0.0 0.0 
-7.149747943612e-04 8.821892484784e-04 0.0 
8.821892484784e-04 8.880456461499e-03 0.0 
0.0 0.0 0.0 
1.720091056218e-03 2.205066178000e-03 0.0 
2.205066178000e-03 1.763983521308e-04 0.0 
0.0 0.0 0.0 
8.067316433380e-04 4.780218038853e-04 0.0 
4.780218038853e-04 5.317354323581e-03 0.0 
0.0 0.0 0.0 
-1.602549456101e-04 -4.067873882484e-05 0.0 
-4.067873882484e-05 5.352377974737e-03 0.0 
0.0 0.0 0.0 
-7.467891520638e-04 1.330136619319e-03 0.0 
1.330136619319e-03 6.660898775635e-03 0.0 
0.0 0.0 0.0 
-6.689691076580e-04 7.596906090965e-04 0.0 
7.596906090965e-04 8.832950160872e-03 0.0 
0.0 0.0 0.0 
1.501220308142e-04 1.471962012647e-03 0.0 
1.471962012647e-03 7.690672093444e-03 0.0 
0.0 0.0 0.0 
1.316412423010e-03 1.918978935825e-03 0.0 
1.918978935825e-03 2.178164574959e-03 0.0 
0.0 0.0 0.0 
-8.465529321955e-05 3.008834715316e-03 0.0 
3.008834715316e-03 2.332508498667e-03 0.0 
0.0 0.0 0.0 
-8.785961996370e-04 7.824009144296e-04 0.0 
7.824009144296e-04 7.976592766085e-03 0.0 
0.0 0.0 0.0 
-1.134975371577e-04 6.334253264253e-04 0.0 
6.334253264253e-04 1.085288871106e-02 0.0 
0.0 0.0 0.0 
-4.836069496985e-04 1.628188992636e-03 0.0 
1.628188992636e-03 6.070101177702e-03 0.0 
0.0 0.0 0.0 
1.367778302311e-03 1.332286659353e-03 0.0 
1.332286659353e-03 3.074707433264e-03 0.0 
0.0 0.0 0.0 
-5.341161333093e-04 3.289262357594e-05 0.0 
3.289262357594e-05 8.204040806750e-03 0.0 
0.0 0.0 0.0 
-5.297688624922e-04 -1.755857018090e-03 0.0 
-1.755857018090e-03 4.301270511535e-04 0.0 
0.0 0.0 0.0 
-8.497373345268e-04 6.527960056891e-04 0.0 
6.527960056891e-04 7.676161411541e-03 0.0 
0.0 0.0 0.0 
1.378799385863e-03 2.578535683492e-03 0.0 
2.578535683492e-03 1.220047739241e-04 0.0 
0.0 0.0 0.0 
2.198323792276e-03 2.278100865511e-03 0.0 
2.278100865511e-03 -2.878673747691e-03 0.0 
0.0 0.0 0.0 
1.708486427322e-03 -2.220289205199e-03 0.0 
-2.220289205199e-03 -3.523907520292e-03 0.0 
0.0 0.0 0.0 
-5.645776565915e-04 7.191485098448e-04 0.0 
7.191485098448e-04 9.346969473358e-03 0.0 
0.0 0.0 0.0 
-8.917757532245e-04 8.492280807114e-04 0.0 
8.492280807114e-04 7.692335188499e-03 0.0 
0.0 0.0 0.0 
-7.958892413462e-05 2.374024123175e-03 0.0 
2.374024123175e-03 3.544092914928e-03 0.0 
0.0 0.0 0.0 
-5.873104542642e-04 6.815114943431e-04 0.0 
6.815114943431e-04 9.591586135893e-03 0.0 
0.0 0.0 0.0 
-6.567776449333e-04 9.959402775854e-04 0.0 
9.959402775854e-04 8.899812240826e-03 0.0 
0.0 0.0 0.0 
-7.898516342447e-04 1.198859486516e-03 0.0 
1.198859486516e-03 7.021399882346e-03 0.0 
0.0 0.0 0.0 
5.224842879348e-05 -3.446600821891e-05 0.0 
-3.446600821891e-05 7.061160945240e-03 0.0 
0.0 0.0 0.0 
1.360668376863e-03 1.303108311737e-03 0.0 
1.303108311737e-03 3.003168101009e-03 0.0 
0.0 0.0 0.0 
-8.169963940360e-04 1.086920382956e-03 0.0 
1.086920382956e-03 7.363264185388e-03 0.0 
0.0 0.0 0.0 
3.746392542656e-04 2.119486617246e-03 0.0 
2.119486617246e-03 4.068755580971e-03 0.0 
0.0 0.0 0.0 
1.255136883851e-03 1.246980196587e-03 0.0 
1.246980196587e-03 3.632251196418e-03 0.0 
0.0 0.0 0.0 
2.213800249481e-03 2.054781732015e-03 0.0 
2.054781732015e-03 -2.093085156141e-03 0.0 
0.0 0.0 0.0 
-8.037322238061e-04 2.722878972062e-04 0.0 
2.722878972062e-04 7.820348806961e-03 0.0 
0.0 0.0 0.0 
1.568447499186e-03 1.580578771599e-03 0.0 
1.580578771599e-03 1.934281283348e-03 0.0 
0.0 0.0 0.0 
2.162176616054e-03 -8.025033034105e-04 0.0 
-8.025033034105e-04 -1.218737233679e-03 0.0 
0.0 0.0 0.0 
-6.294093636542e-04 8.733714777077e-04 0.0 
8.733714777077e-04 8.881359233950e-03 0.0 
0.0 0.0 0.0 
-3.739169659574e-03 3.450347787930e-04 0.0 
3.450347787930e-04 -3.165321192355e-03 0.0 
0.0 0.0 0.0 
-9.066252150499e-04 6.487255953110e-04 0.0 
6.487255953110e-04 7.932508765050e-03 0.0 
0.0 0.0 0.0 
1.797708680018e-03 2.112628664621e-03 0.0 
2.112628664621e-03 -2.656743207518e-04 0.0 
0.0 0.0 0.0 
5.866838315414e-04 2.950455699204e-03 0.0 
2.950455699204e-03 1.496420290826e-03 0.0 
0.0 0.0 0.0 
2.502786453048e-03 1.324904186448e-03 0.0 
1.324904186448e-03 -1.971307852220e-03 0.0 
0.0 0.0 0.0 
-7.659220788221e-04 8.734565728048e-04 0.0 
8.734565728048e-04 7.996327925634e-03 0.0 
0.0 0.0 0.0 
-1.943623233261e-04 -4.649616035350e-04 0.0 
-4.649616035350e-04 7.387933308451e-04 0.0 
0.0 0.0 0.0 
-8.313717908145e-04 1.426094514059e-03 0.0 
1.426094514059e-03 5.499967688508e-03 0.0 
0.0 0.0 0.0 
1.247158494748e-03 1.228745438638e-03 0.0 
1.228745438638e-03 3.595376276802e-03 0.0 
0.0 0.0 0.0 
-8.247464393411e-04 7.916856720627e-04 0.0 
7.916856720627e-04 7.701796476672e-03 0.0 
0.0 0.0 0.0 
-8.074437530602e-04 3.542218949492e-04 0.0 
3.542218949492e-04 8.125457778150e-03 0.0 
0.0 0.0 0.0 
2.042202289370e-03 1.902500494283e-03 0.0 
1.902500494283e-03 -4.216323569703e-03 0.0 
0.0 0.0 0.0 
2.418735748965e-03 -1.570621923468e-04 0.0 
-1.570621923468e-04 -1.319714990589e-03 0.0 
0.0 0.0 0.0 
1.851339909559e-03 -1.479002625106e-03 0.0 
-1.479002625106e-03 -1.366289165266e-03 0.0 
0.0 0.0 0.0 
-9.980924195697e-04 1.598508061834e-03 0.0 
1.598508061834e-03 5.325445418782e-03 0.0 
0.0 0.0 0.0 
-7.587482827817e-04 7.645543820927e-04 0.0 
7.645543820927e-04 8.832826929729e-03 0.0 
0.0 0.0 0.0 
-8.665329663885e-04 1.661457136899e-03 0.0 
1.661457136899e-03 5.464938853740e-03 0.0 
0.0 0.0 0.0 
1.667105011171e-03 1.678432605400e-03 0.0 
1.678432605400e-03 1.107580156178e-03 0.0 
0.0 0.0 0.0 
1.401665355352e-03 2.056307908678e-03 0.0 
2.056307908678e-03 1.299594660831e-03 0.0 
0.0 0.0 0.0 
2.086092917515e-03 1.579838738477e-03 0.0 
1.579838738477e-03 -3.110085102409e-03 0.0 
0.0 0.0 0.0 
4.856012533301e-04 2.069355626619e-03 0.0 
2.069355626619e-03 3.702582098042e-03 0.0 
0.0 0.0 0.0 
-2.862122942984e-04 3.111539161418e-03 0.0 
3.111539161418e-03 1.319967588763e-03 0.0 
0.0 0.0 0.0 
-1.623465760815e-04 1.071766963918e-03 0.0 
1.071766963918e-03 1.052318426831e-02 0.0 
0.0 0.0 0.0 
-1.752657072546e-04 1.255689774260e-03 0.0 
1.255689774260e-03 1.030155194148e-02 0.0 
0.0 0.0 0.0 
-3.408913250044e-04 1.659988055037e-03 0.0 
1.659988055037e-03 5.851486539068e-03 0.0 
0.0 0.0 0.0 
1.795964832137e-03 2.403706263688e-03 0.0 
2.403706263688e-03 -9.711703740939e-04 0.0 
0.0 0.0 0.0 
9.730763138713e-04 2.960385952057e-03 0.0 
2.960385952057e-03 4.075809022928e-04 0.0 
0.0 0.0 0.0 
-6.888997688984e-04 1.161524248597e-03 0.0 
1.161524248597e-03 7.300866161152e-03 0.0 
0.0 0.0 0.0 
1.639160651449e-03 2.505124561043e-03 0.0 
2.505124561043e-03 -3.544942699084e-04 0.0 
0.0 0.0 0.0 
2.268702045166e-03 -8.530016617521e-04 0.0 
-8.530016617521e-04 -1.465980245486e-03 0.0 
0.0 0.0 0.0 
-7.377540527652e-04 1.222614631674e-03 0.0 
1.222614631674e-03 6.679946275947e-03 0.0 
0.0 0.0 0.0 
-2.154589086547e-04 3.919823362424e-04 0.0 
3.919823362424e-04 1.066028986671e-02 0.0 
0.0 0.0 0.0 
1.415370117079e-03 2.300341477723e-03 0.0 
2.300341477723e-03 7.035537721993e-04 0.0 
0.0 0.0 0.0 
8.508128661167e-04 1.441161133982e-03 0.0 
1.441161133982e-03 4.726523560173e-03 0.0 
0.0 0.0 0.0 
3.564017725475e-04 3.193910685864e-03 0.0 
3.193910685864e-03 2.526168835575e-04 0.0 
0.0 0.0 0.0 
2.449065772319e-04 6.801091165546e-04 0.0 
6.801091165546e-04 7.249433821606e-03 0.0 
0.0 0.0 0.0 
1.263220218413e-03 2.889635856630e-03 0.0 
2.889635856630e-03 -4.141439651375e-04 0.0 
0.0 0.0 0.0 
-6.058972143408e-04 1.388531479679e-03 0.0 
1.388531479679e-03 6.524188281476e-03 0.0 
0.0 0.0 0.0 
2.544353381781e-03 1.627386992856e-03 0.0 
1.627386992856e-03 -3.874414659691e-03 0.0 
0.0 0.0 0.0 
1.356130296819e-03 4.286330544159e-04 0.0 
4.286330544159e-04 3.547153912530e-03 0.0 
0.0 0.0 0.0 
1.357501537180e-03 1.846690079713e-03 0.0 
1.846690079713e-03 1.893216381258e-03 0.0 
0.0 0.0 0.0 
1.897450010161e-03 -1.200351157206e-03 0.0 
-1.200351157206e-03 -6.480604471772e-04 0.0 
0.0 0.0 0.0 
-8.960338561989e-04 9.326237043841e-04 0.0 
9.326237043841e-04 7.399816324693e-03 0.0 
0.0 0.0 0.0 
-1.227192194732e-04 1.537483590033e-03 0.0 
1.537483590033e-03 9.875667303200e-03 0.0 
0.0 0.0 0.0 
1.745029003049e-03 1.872451125235e-03 0.0 
1.872451125235e-03 4.324507814557e-04 0.0 
0.0 0.0 0.0 
1.324906871601e-03 1.025216127360e-03 0.0 
1.025216127360e-03 3.623641355610e-03 0.0 
0.0 0.0 0.0 
5.274161430566e-04 3.118943624904e-03 0.0 
3.118943624904e-03 2.620590481515e-04 0.0 
0.0 0.0 0.0 
-6.164807375800e-04 3.579098920970e-04 0.0 
3.579098920970e-04 8.876381940128e-03 0.0 
0.0 0.0 0.0 
9.935247481956e-04 1.012415041988e-04 0.0 
1.012415041988e-04 4.434050787189e-03 0.0 
0.0 0.0 0.0 
-3.488317483891e-04 2.774050035123e-03 0.0 
2.774050035123e-03 3.204590632789e-03 0.0 
0.0 0.0 0.0 
-6.852415259259e-04 2.569532390914e-04 0.0 
2.569532390914e-04 8.728406516772e-03 0.0 
0.0 0.0 0.0 
-5.219452748417e-05 1.729276823312e-03 0.0 
1.729276823312e-03 9.286177580074e-03 0.0 
0.0 0.0 0.0 
8.459075359697e-04 1.981368791133e-04 0.0 
1.981368791133e-04 4.992775356535e-03 0.0 
0.0 0.0 0.0 
-1.500949039466e-04 1.451049790057e-03 0.0 
1.451049790057e-03 1.003397147074e-02 0.0 
0.0 0.0 0.0 
-7.383328824346e-04 3.368457390165e-04 0.0 
3.368457390165e-04 8.654057685735e-03 0.0 
0.0 0.0 0.0 
-5.930286540365e-04 1.153548268394e-03 0.0 
1.153548268394e-03 8.566006691549e-03 0.0 
0.0 0.0 0.0 
-7.206966484652e-04 2.813799435370e-03 0.0 
2.813799435370e-03 3.172748023776e-03 0.0 
0.0 0.0 0.0 
-9.516749513914e-04 8.599981123164e-04 0.0 
8.599981123164e-04 7.114615072090e-03 0.0 
0.0 0.0 0.0 
-7.760672440827e-04 1.013797615631e-03 0.0 
1.013797615631e-03 7.373486329031e-03 0.0 
0.0 0.0 0.0 
-8.292167037572e-04 9.926854387897e-04 0.0 
9.926854387897e-04 7.684830740137e-03 0.0 
0.0 0.0 0.0 
-3.535387209195e-04 1.793544791257e-03 0.0 
1.793544791257e-03 5.588620833868e-03 0.0 
0.0 0.0 0.0 
9.520983297095e-06 1.754120749060e-03 0.0 
1.754120749060e-03 8.852417417379e-03 0.0 
0.0 0.0 0.0 
-7.639811951122e-04 4.732948010227e-04 0.0 
4.732948010227e-04 8.345700320647e-03 0.0 
0.0 0.0 0.0 
-9.378184182617e-04 5.669811390128e-04 0.0 
5.669811390128e-04 7.613745091188e-03 0.0 
0.0 0.0 0.0 
1.650231351998e-03 1.747168854388e-03 0.0 
1.747168854388e-03 1.344998927107e-03 0.0 
0.0 0.0 0.0 
-4.647086234344e-04 -1.011277717184e-03 0.0 
-1.011277717184e-03 1.598971994962e-03 0.0 
0.0 0.0 0.0 
-9.775620995581e-04 6.893640327128e-04 0.0 
6.893640327128e-04 7.091092434916e-03 0.0 
0.0 0.0 0.0 
-7.162134838756e-06 2.760745735212e-03 0.0 
2.760745735212e-03 2.474457530142e-03 0.0 
0.0 0.0 0.0 
-5.322274996916e-04 1.221770041403e-05 0.0 
1.221770041403e-05 7.833886512387e-03 0.0 
0.0 0.0 0.0 
1.460788524123e-03 -1.635568918736e-03 0.0 
-1.635568918736e-03 -5.810549121475e-04 0.0 
0.0 0.0 0.0 
1.707448607283e-03 1.952786572819e-03 0.0 
1.952786572819e-03 7.516602970048e-04 0.0 
0.0 0.0 0.0 
-5.819935306277e-04 8.487633996799e-04 0.0 
8.487633996799e-04 9.155931442175e-03 0.0 
0.0 0.0 0.0 
2.261645105950e-04 2.831869672155e-03 0.0 
2.831869672155e-03 2.464206585779e-03 0.0 
0.0 0.0 0.0 
-8.363242204626e-04 9.430807717671e-04 0.0 
9.430807717671e-04 7.104626372153e-03 0.0 
0.0 0.0 0.0 
1.302800023532e-03 1.016183725120e-03 0.0 
1.016183725120e-03 3.644992570303e-03 0.0 
0.0 0.0 0.0 
1.012281807013e-03 -5.356004536784e-04 0.0 
-5.356004536784e-04 3.072331115981e-03 0.0 
0.0 0.0 0.0 
1.350539030816e-04 1.618993667420e-03 0.0 
1.618993667420e-03 8.198465262357e-03 0.0 
0.0 0.0 0.0 
-9.941452066096e-04 8.808523074606e-04 0.0 
8.808523074606e-04 6.557904495968e-03 0.0 
0.0 0.0 0.0 
2.560050422019e-03 4.824742382122e-04 0.0 
4.824742382122e-04 -1.851302942809e-03 0.0 
0.0 0.0 0.0 
4.561630901032e-04 -1.325218702355e-03 0.0 
-1.325218702355e-03 1.824680194180e-03 0.0 
0.0 0.0 0.0 
-9.513212422696e-04 2.176672819756e-03 0.0 
2.176672819756e-03 4.491397630109e-03 0.0 
0.0 0.0 0.0 
-4.577264063570e-04 2.567152299950e-03 0.0 
2.567152299950e-03 3.227684012834e-03 0.0 
0.0 0.0 0.0 
-5.509798680584e-04 1.069559597870e-03 0.0 
1.069559597870e-03 9.208055306570e-03 0.0 
0.0 0.0 0.0 
-6.550101808507e-04 1.343917384717e-03 0.0 
1.343917384717e-03 6.914901919094e-03 0.0 
0.0 0.0 0.0 
-1.012902318894e-03 1.159926239235e-03 0.0 
1.159926239235e-03 5.967442277651e-03 0.0 
0.0 0.0 0.0 
-8.832852055753e-04 8.573802924796e-04 0.0 
8.573802924796e-04 6.839209688094e-03 0.0 
0.0 0.0 0.0 
2.436850771663e-04 1.148644542525e-03 0.0 
1.148644542525e-03 7.492434472859e-03 0.0 
0.0 0.0 0.0 
4.147613275938e-04 1.106627641818e-03 0.0 
1.106627641818e-03 6.973154637221e-03 0.0 
0.0 0.0 0.0 
-4.703342522546e-04 1.066147581089e-03 0.0 
1.066147581089e-03 9.207843169495e-03 0.0 
0.0 0.0 0.0 
-7.113508956761e-04 7.365343745572e-04 0.0 
7.365343745572e-04 9.098178323799e-03 0.0 
0.0 0.0 0.0 
9.885076226803e-04 -6.830618453622e-04 0.0 
-6.830618453622e-04 2.687244553192e-03 0.0 
0.0 0.0 0.0 
-6.315791984551e-04 1.894222204454e-03 0.0 
1.894222204454e-03 5.177537165971e-03 0.0 
0.0 0.0 0.0 
2.123504638790e-03 1.865199361592e-03 0.0 
1.865199361592e-03 -8.879697249390e-04 0.0 
0.0 0.0 0.0 
2.068889924626e-03 1.634668190737e-03 0.0 
1.634668190737e-03 -1.941275901304e-04 0.0 
0.0 0.0 0.0 
-5.811244979466e-04 1.479377771360e-03 0.0 
1.479377771360e-03 6.510657947477e-03 0.0 
0.0 0.0 0.0 
1.388758403171e-03 3.875008121523e-04 0.0 
3.875008121523e-04 3.357502682700e-03 0.0 
0.0 0.0 0.0 
5.031109295284e-05 -7.483363659722e-04 0.0 
-7.483363659722e-04 3.285613759248e-03 0.0 
0.0 0.0 0.0 
-4.795150241553e-04 9.344932475878e-04 0.0 
9.344932475878e-04 9.470453965359e-03 0.0 
0.0 0.0 0.0 
2.451087416995e-03 -2.725678823638e-04 0.0 
-2.725678823638e-04 -1.733216847111e-03 0.0 
0.0 0.0 0.0 
-1.881480912043e-04 1.960497750645e-03 0.0 
1.960497750645e-03 5.054294470568e-03 0.0 
0.0 0.0 0.0 
-7.628229488735e-04 1.107286038064e-03 0.0 
1.107286038064e-03 7.038750684609e-03 0.0 
0.0 0.0 0.0 
-3.269502468067e-04 2.050245165469e-03 0.0 
2.050245165469e-03 4.835436385985e-03 0.0 
0.0 0.0 0.0 
-1.678006319338e-04 1.362293807816e-03 0.0 
1.362293807816e-03 1.017474037351e-02 0.0 
0.0 0.0 0.0 
-1.613261494587e-04 1.172414987266e-03 0.0 
1.172414987266e-03 1.040839872364e-02 0.0 
0.0 0.0 0.0 
-3.236868397447e-04 1.086435256606e-03 0.0 
1.086435256606e-03 1.005838445548e-02 0.0 
0.0 0.0 0.0 
9.513110750494e-04 -5.047847856430e-04 0.0 
-5.047847856430e-04 3.197084030585e-03 0.0 
0.0 0.0 0.0 
-5.001831710991e-04 6.996118172518e-04 0.0 
6.996118172518e-04 9.588915942292e-03 0.0 
0.0 0.0 0.0 
-2.574700550697e-04 2.871139578708e-03 0.0 
2.871139578708e-03 2.349075064384e-03 0.0 
0.0 0.0 0.0 
1.968679119232e-03 1.457302478506e-03 0.0 
1.457302478506e-03 4.948635116366e-04 0.0 
0.0 0.0 0.0 
2.431126913686e-03 1.496102673402e-03 0.0 
1.496102673402e-03 -2.747279019378e-03 0.0 
0.0 0.0 0.0 
-9.110179944269e-04 1.430518903613e-03 0.0 
1.430518903613e-03 5.843314200623e-03 0.0 
0.0 0.0 0.0 
-7.702658056939e-04 2.144609973970e-04 0.0 
2.144609973970e-04 7.849115038245e-03 0.0 
0.0 0.0 0.0 
-6.620575703580e-04 3.602313071853e-04 0.0 
3.602313071853e-04 8.651680413225e-03 0.0 
0.0 0.0 0.0 
4.406542008770e-04 6.961210672932e-04 0.0 
6.961210672932e-04 6.741346231857e-03 0.0 
0.0 0.0 0.0 
-4.234059697298e-04 1.204937935865e-03 0.0 
1.204937935865e-03 8.874164651085e-03 0.0 
0.0 0.0 0.0 
-8.051751755737e-04 7.409108413561e-04 0.0 
7.409108413561e-04 7.982496523186e-03 0.0 
0.0 0.0 0.0 
-7.046674975935e-04 1.074603218952e-03 0.0 
1.074603218952e-03 7.651930389325e-03 0.0 
0.0 0.0 0.0 
2.623420917850e-03 1.486108273169e-03 0.0 
1.486108273169e-03 -3.178062633731e-03 0.0 
0.0 0.0 0.0 
-6.125184893301e-04 -1.102922798556e-03 0.0 
-1.102922798556e-03 6.120679245647e-04 0.0 
0.0 0.0 0.0 
7.591304973362e-04 2.129937501833e-03 0.0 
2.129937501833e-03 2.952246373592e-03 0.0 
0.0 0.0 0.0 
-8.161632110182e-05 1.863538336976e-03 0.0 
1.863538336976e-03 5.310215442944e-03 0.0 
0.0 0.0 0.0 
6.996890716220e-04 1.998056853444e-03 0.0 
1.998056853444e-03 3.711673225370e-03 0.0 
0.0 0.0 0.0 
-5.737028617259e-04 2.929151826139e-03 0.0 
2.929151826139e-03 4.230192514929e-04 0.0 
0.0 0.0 0.0 
-5.079481723298e-04 4.495663620038e-05 0.0 
4.495663620038e-05 8.189567468496e-03 0.0 
0.0 0.0 0.0 
-3.976572535711e-04 -1.047819005815e-03 0.0 
-1.047819005815e-03 1.381046316538e-03 0.0 
0.0 0.0 0.0 
8.608754231902e-04 2.886770302247e-03 0.0 
2.886770302247e-03 7.276034293153e-04 0.0 
0.0 0.0 0.0 
0.0 7.268611534772e-04 0.0 
7.268611534772e-04 7.279406024985e-03 0.0 
0.0 0.0 0.0 
1.017069418293e-03 1.145401606326e-03 0.0 
1.145401606326e-03 4.734624123066e-03 0.0 
0.0 0.0 0.0 
-8.561517622159e-04 5.240839440874e-04 0.0 
5.240839440874e-04 7.618683353355e-03 0.0 
0.0 0.0 0.0 
2.045829376855e-04 -2.207312860079e-05 0.0 
-2.207312860079e-05 1.014343896407e-03 0.0 
0.0 0.0 0.0 
-4.388993040856e-04 1.698450175075e-03 0.0 
1.698450175075e-03 5.602070618050e-03 0.0 
0.0 0.0 0.0 
9.953211105276e-04 1.993247932522e-03 0.0 
1.993247932522e-03 2.970312196075e-03 0.0 
0.0 0.0 0.0 
-8.285903960523e-04 9.155838613770e-04 0.0 
9.155838613770e-04 7.991230803297e-03 0.0 
0.0 0.0 0.0 
-9.481140981937e-05 1.622097184159e-03 0.0 
1.622097184159e-03 9.687939640732e-03 0.0 
0.0 0.0 0.0 
-8.771333117283e-04 7.764351727685e-04 0.0 
7.764351727685e-04 7.123805718678e-03 0.0 
0.0 0.0 0.0 
-7.068830448671e-04 1.228262889545e-03 0.0 
1.228262889545e-03 7.292364936955e-03 0.0 
0.0 0.0 0.0 
1.640454562060e-04 -7.445407682537e-04 0.0 
-7.445407682537e-04 3.284408946335e-03 0.0 
0.0 0.0 0.0 
-5.274838149649e-04 8.274342153166e-04 0.0 
8.274342153166e-04 9.419903178723e-03 0.0 
0.0 0.0 0.0 
9.632535396031e-04 -3.750584502833e-04 0.0 
-3.750584502833e-04 3.560042695600e-03 0.0 
0.0 0.0 0.0 
-8.940739734098e-05 1.682291027203e-03 0.0 
1.682291027203e-03 9.495319010366e-03 0.0 
0.0 0.0 0.0 
0.0 1.346616023794e-03 0.0 
1.346616023794e-03 1.010354447848e-02 0.0 
0.0 0.0 0.0 
0.0 9.763849798585e-04 0.0 
9.763849798585e-04 1.057905357151e-02 0.0 
0.0 0.0 0.0 
0.0 1.156020216881e-03 0.0 
1.156020216881e-03 1.035814546054e-02 0.0 
0.0 0.0 0.0 
-7.065065648566e-04 1.003975173814e-03 0.0 
1.003975173814e-03 7.982522821560e-03 0.0 
0.0 0.0 0.0 
-6.156376062502e-04 8.163392462971e-04 0.0 
8.163392462971e-04 9.421724553363e-03 0.0 
0.0 0.0 0.0 
-3.897826124014e-04 1.185204865399e-03 0.0 
1.185204865399e-03 9.206590030031e-03 0.0 
0.0 0.0 0.0 
-4.262430627895e-04 1.927169960725e-03 0.0 
1.927169960725e-03 4.850807783900e-03 0.0 
0.0 0.0 0.0 
-6.604401748216e-04 1.712368422667e-03 0.0 
1.712368422667e-03 5.200568410832e-03 0.0 
0.0 0.0 0.0 
-6.228418295906e-05 -6.871123898229e-04 0.0 
-6.871123898229e-04 3.230670419803e-03 0.0 
0.0 0.0 0.0 
-5.679295164597e-04 9.272425173971e-04 0.0 
9.272425173971e-04 9.472010944076e-03 0.0 
0.0 0.0 0.0 
-2.095145423953e-05 1.752649651616e-03 0.0 
1.752649651616e-03 9.067445687384e-03 0.0 
0.0 0.0 0.0 
-4.631816700887e-04 8.004266715397e-04 0.0 
8.004266715397e-04 9.667498559377e-03 0.0 
0.0 0.0 0.0 
1.138477534795e-03 1.185255554184e-03 0.0 
1.185255554184e-03 4.186249645475e-03 0.0 
0.0 0.0 0.0 
-5.491571129290e-04 7.870882347924e-04 0.0 
7.870882347924e-04 9.669719287946e-03 0.0 
0.0 0.0 0.0 
1.093242121279e-04 1.549338286036e-03 0.0 
1.549338286036e-03 6.613240780413e-03 0.0 
0.0 0.0 0.0 
-4.009465929855e-05 1.960136765257e-03 0.0 
1.960136765257e-03 4.731108224555e-03 0.0 
0.0 0.0 0.0 
-8.561216359839e-04 1.241951968855e-03 0.0 
1.241951968855e-03 5.862911166991e-03 0.0 
0.0 0.0 0.0 
1.087179088750e-03 3.140460455224e-03 0.0 
3.140460455224e-03 -8.472311713714e-04 0.0 
0.0 0.0 0.0 
-1.370906577184e-04 6.612374048340e-04 0.0 
6.612374048340e-04 1.053273894124e-02 0.0 
0.0 0.0 0.0 
-2.739362354967e-04 2.152260024006e-03 0.0 
2.152260024006e-03 4.244882781352e-03 0.0 
0.0 0.0 0.0 
-4.120923635553e-06 1.516020842757e-03 0.0 
1.516020842757e-03 8.277486740417e-03 0.0 
0.0 0.0 0.0 
1.715816814252e-05 -7.012842931758e-04 0.0 
-7.012842931758e-04 3.232348708119e-03 0.0 
0.0 0.0 0.0 
9.838679330794e-04 -2.001242842692e-03 0.0 
-2.001242842692e-03 -3.677621286109e-04 0.0 
0.0 0.0 0.0 
2.485335393032e-04 6.142421313379e-04 0.0 
6.142421313379e-04 6.720930795283e-03 0.0 
0.0 0.0 0.0 
4.980275711242e-04 2.779827806756e-03 0.0 
2.779827806756e-03 1.759805495487e-03 0.0 
0.0 0.0 0.0 
0.0 1.434125290589e-03 0.0 
1.434125290589e-03 9.956655542365e-03 0.0 
0.0 0.0 0.0 
-1.903023512064e-04 1.016181780032e-03 0.0 
1.016181780032e-03 1.021115904556e-02 0.0 
0.0 0.0 0.0 
-5.206038307575e-04 1.399267727087e-03 0.0 
1.399267727087e-03 6.784088462125e-03 0.0 
0.0 0.0 0.0 
-5.757189157081e-04 -5.219835464583e-04 0.0 
-5.219835464583e-04 6.384382712410e-04 0.0 
0.0 0.0 0.0 
0.0 1.570601650465e-03 0.0 
1.570601650465e-03 9.594734146054e-03 0.0 
0.0 0.0 0.0 
2.455756117097e-04 8.783955613772e-04 0.0 
8.783955613772e-04 6.861613224358e-03 0.0 
0.0 0.0 0.0 
1.461541223553e-03 -1.674665869211e-03 0.0 
-1.674665869211e-03 -4.196854528480e-04 0.0 
0.0 0.0 0.0 
1.189785744788e-03 9.987444349642e-04 0.0 
9.987444349642e-04 4.197410652577e-03 0.0 
0.0 0.0 0.0 
1.539200254845e-04 1.524294575260e-03 0.0 
1.524294575260e-03 7.994181226910e-03 0.0 
0.0 0.0 0.0 
-1.277577636325e-04 -4.616082801945e-05 0.0 
-4.616082801945e-05 1.473768013223e-04 0.0 
0.0 0.0 0.0 
-1.461680939693e-04 2.058930621573e-03 0.0 
2.058930621573e-03 4.470135547966e-03 0.0 
0.0 0.0 0.0 
-5.760212914682e-04 1.292919566227e-03 0.0 
1.292919566227e-03 7.196399217526e-03 0.0 
0.0 0.0 0.0 
-4.429497324675e-04 1.522885365398e-03 0.0 
1.522885365398e-03 6.337087994410e-03 0.0 
0.0 0.0 0.0 
-6.556036526584e-04 1.266121552244e-03 0.0 
1.266121552244e-03 6.925808106769e-03 0.0 
0.0 0.0 0.0 
6.563840593725e-04 3.143790372175e-03 0.0 
3.143790372175e-03 3.817685324703e-04 0.0 
0.0 0.0 0.0 
0.0 1.653861674259e-03 0.0 
1.653861674259e-03 9.178030376258e-03 0.0 
0.0 0.0 0.0 
1.848838401853e-03 1.319421737678e-03 0.0 
1.319421737678e-03 1.162909014841e-03 0.0 
0.0 0.0 0.0 
2.030514130862e-03 4.413295038678e-04 0.0 
4.413295038678e-04 -3.971799764368e-03 0.0 
0.0 0.0 0.0 
1.000107442974e-04 -4.632824435577e-05 0.0 
-4.632824435577e-05 7.029154054469e-03 0.0 
0.0 0.0 0.0 
-1.340202206552e-04 -4.005530211696e-04 0.0 
-4.005530211696e-04 3.384492434639e-04 0.0 
0.0 0.0 0.0 
-8.805770462651e-04 9.580165022480e-04 0.0 
9.580165022480e-04 6.539763920671e-03 0.0 
0.0 0.0 0.0 
9.167382617699e-04 -2.240780404089e-03 0.0 
-2.240780404089e-03 -1.977392879341e-03 0.0 
0.0 0.0 0.0 
-8.909121921026e-04 6.117010619543e-04 0.0 
6.117010619543e-04 7.100571788579e-03 0.0 
0.0 0.0 0.0 
2.478592205255e-04 9.768034008703e-04 0.0 
9.768034008703e-04 7.376879274416e-03 0.0 
0.0 0.0 0.0 
0.0 1.660530181686e-03 0.0 
1.660530181686e-03 8.735805339932e-03 0.0 
0.0 0.0 0.0 
-7.762050446665e-04 9.360181399113e-04 0.0 
9.360181399113e-04 7.692442519935e-03 0.0 
0.0 0.0 0.0 
6.158070915929e-05 -2.282811606287e-03 0.0 
-2.282811606287e-03 -8.930188046763e-04 0.0 
0.0 0.0 0.0 
1.798880430437e-03 8.376168547500e-04 0.0 
8.376168547500e-04 -4.610956616445e-03 0.0 
0.0 0.0 0.0 
-1.262110618350e-06 -2.743197300550e-03 0.0 
-2.743197300550e-03 -1.030141846510e-03 0.0 
0.0 0.0 0.0 
3.418266178343e-04 -1.169727213685e-04 0.0 
-1.169727213685e-04 5.721489876858e-03 0.0 
0.0 0.0 0.0 
-7.889164075944e-04 2.594423475292e-04 0.0 
2.594423475292e-04 7.801749185998e-03 0.0 
0.0 0.0 0.0 
-9.115280390807e-04 5.197849499590e-04 0.0 
5.197849499590e-04 7.855611490295e-03 0.0 
0.0 0.0 0.0 
0.0 1.578082408809e-03 0.0 
1.578082408809e-03 8.304068855842e-03 0.0 
0.0 0.0 0.0 
-7.580906566228e-04 2.009707693017e-04 0.0 
2.009707693017e-04 7.828486233965e-03 0.0 
0.0 0.0 0.0 
-1.460484418441e-04 9.708959886522e-04 0.0 
9.708959886522e-04 1.061742179479e-02 0.0 
0.0 0.0 0.0 
1.900249619047e-04 1.558868310830e-03 0.0 
1.558868310830e-03 6.469957209140e-03 0.0 
0.0 0.0 0.0 
-6.539880444557e-04 2.832053395060e-04 0.0 
2.832053395060e-04 8.494233683572e-03 0.0 
0.0 0.0 0.0 
-6.329438006691e-04 2.250187287309e-03 0.0 
2.250187287309e-03 3.946743869324e-03 0.0 
0.0 0.0 0.0 
1.128804863837e-03 1.173705681163e-03 0.0 
1.173705681163e-03 4.173280744362e-03 0.0 
0.0 0.0 0.0 
1.862502567174e-03 2.351200818245e-03 0.0 
2.351200818245e-03 -2.020570746654e-03 0.0 
0.0 0.0 0.0 
0.0 1.400109098547e-03 0.0 
1.400109098547e-03 7.902090865251e-03 0.0 
0.0 0.0 0.0 
0.0 1.255184842986e-03 0.0 
1.255184842986e-03 1.024096042608e-02 0.0 
0.0 0.0 0.0 
0.0 1.061752242679e-03 0.0 
1.061752242679e-03 1.048426176894e-02 0.0 
0.0 0.0 0.0 
7.827833411094e-04 -5.000495650890e-04 0.0 
-5.000495650890e-04 3.579578300693e-03 0.0 
0.0 0.0 0.0 
-1.467665033501e-04 -6.017982299874e-04 0.0 
-6.017982299874e-04 3.151878125945e-03 0.0 
0.0 0.0 0.0 
1.251899612904e-04 1.998544728786e-03 0.0 
1.998544728786e-03 4.724250810457e-03 0.0 
0.0 0.0 0.0 
7.940386344283e-04 -3.732323550095e-04 0.0 
-3.732323550095e-04 3.928409237700e-03 0.0 
0.0 0.0 0.0 
0.0 1.169405267109e-03 0.0 
1.169405267109e-03 7.580822091378e-03 0.0 
0.0 0.0 0.0 
1.204447310119e-03 2.666240679963e-03 0.0 
2.666240679963e-03 7.585725159962e-04 0.0 
0.0 0.0 0.0 
2.162436805947e-03 -6.198338142664e-04 0.0 
-6.198338142664e-04 -6.814655939341e-04 0.0 
0.0 0.0 0.0 
1.856481516412e-03 -9.193594247481e-04 0.0 
-9.193594247481e-04 -1.562936447264e-05 0.0 
0.0 0.0 0.0 
-6.121398208829e-04 2.853739105661e-04 0.0 
2.853739105661e-04 8.724943480271e-03 0.0 
0.0 0.0 0.0 
1.969769730261e-04 5.207566565608e-04 0.0 
5.207566565608e-04 7.218279786341e-03 0.0 
0.0 0.0 0.0 
-8.722379281081e-04 -2.391254256118e-03 0.0 
-2.391254256118e-03 -3.190621112951e-04 0.0 
0.0 0.0 0.0 
0.0 8.693613666596e-04 0.0 
8.693613666596e-04 7.335357181939e-03 0.0 
0.0 0.0 0.0 
1.533609883844e-03 -1.352940803697e-03 0.0 
-1.352940803697e-03 8.670244092501e-05 0.0 
0.0 0.0 0.0 
0.0 1.512027946246e-03 0.0 
1.512027946246e-03 9.790797821343e-03 0.0 
0.0 0.0 0.0 
-4.792101565385e-04 1.183716788848e-03 0.0 
1.183716788848e-03 9.207495181370e-03 0.0 
0.0 0.0 0.0 
6.273023121479e-04 -4.156677007439e-05 0.0 
-4.156677007439e-05 -1.038045851977e-04 0.0 
0.0 0.0 0.0 
1.678651255745e-04 2.105268081829e-03 0.0 
2.105268081829e-03 4.072095548806e-03 0.0 
0.0 0.0 0.0 
-5.147445961695e-04 6.558402692436e-04 0.0 
6.558402692436e-04 9.823553892146e-03 0.0 
0.0 0.0 0.0 
0.0 1.622831228754e-03 0.0 
1.622831228754e-03 9.394276590520e-03 0.0 
0.0 0.0 0.0 
-7.550179471779e-04 1.046050285342e-03 0.0 
1.046050285342e-03 7.977196904079e-03 0.0 
0.0 0.0 0.0 
3.296146814920e-04 1.526939063394e-03 0.0 
1.526939063394e-03 6.353001422835e-03 0.0 
0.0 0.0 0.0 
7.292267447585e-04 3.179528584600e-03 0.0 
3.179528584600e-03 -9.690613792874e-04 0.0 
0.0 0.0 0.0 
4.746880713324e-04 7.644574771699e-04 0.0 
7.644574771699e-04 6.315967345071e-03 0.0 
0.0 0.0 0.0 
1.210905437949e-03 -1.389324459999e-03 0.0 
-1.389324459999e-03 7.498870078924e-04 0.0 
0.0 0.0 0.0 
1.499198253262e-03 -1.304698232426e-03 0.0 
-1.304698232426e-03 3.742223029590e-05 0.0 
0.0 0.0 0.0 
-1.377036509118e-03 -2.425383402846e-03 0.0 
-2.425383402846e-03 -4.565467075395e-04 0.0 
0.0 0.0 0.0 
0.0 1.666355020286e-03 0.0 
1.666355020286e-03 8.957332818704e-03 0.0 
0.0 0.0 0.0 
2.057232339076e-03 2.138524200344e-03 0.0 
2.138524200344e-03 -1.548250146989e-03 0.0 
0.0 0.0 0.0 
7.456581799252e-04 2.320005166398e-04 0.0 
2.320005166398e-04 5.286827254229e-03 0.0 
0.0 0.0 0.0 
-7.099257988312e-04 1.820494921331e-04 0.0 
1.820494921331e-04 8.315327587601e-03 0.0 
0.0 0.0 0.0 
1.374581718785e-04 -1.642034878225e-03 0.0 
-1.642034878225e-03 1.229717244229e-03 0.0 
0.0 0.0 0.0 
1.827786834111e-03 -1.138232947840e-03 0.0 
-1.138232947840e-03 -6.049577132375e-04 0.0 
0.0 0.0 0.0 
-7.394059860100e-04 1.129401812346e-03 0.0 
1.129401812346e-03 7.644678916289e-03 0.0 
0.0 0.0 0.0 
0.0 1.495852426139e-03 0.0 
1.495852426139e-03 8.100525827288e-03 0.0 
0.0 0.0 0.0 
-1.348127518851e-04 -5.106682772417e-04 0.0 
-5.106682772417e-04 3.393131811775e-03 0.0 
0.0 0.0 0.0 
8.185045622244e-04 -2.022502516370e-04 0.0 
-2.022502516370e-04 4.242295075097e-03 0.0 
0.0 0.0 0.0 
-1.235775677357e-04 1.736886575773e-03 0.0 
1.736886575773e-03 5.604791969186e-03 0.0 
0.0 0.0 0.0 
1.282771929935e-03 -1.080523426321e-05 0.0 
-1.080523426321e-05 3.259549830095e-03 0.0 
0.0 0.0 0.0 
2.051470818270e-03 -5.706954487792e-04 0.0 
-5.706954487792e-04 -4.106431700651e-04 0.0 
0.0 0.0 0.0 
8.940974270852e-04 -3.446759706685e-04 0.0 
-3.446759706685e-04 3.715843006355e-03 0.0 
0.0 0.0 0.0 
-2.500567377437e-04 1.724431533575e-03 0.0 
1.724431533575e-03 5.842477877255e-03 0.0 
0.0 0.0 0.0 
-1.873548842819e-04 1.483839316880e-03 0.0 
1.483839316880e-03 7.242409447987e-03 0.0 
0.0 0.0 0.0 
1.005073965941e-03 1.137990587692e-03 0.0 
1.137990587692e-03 4.738680747767e-03 0.0 
0.0 0.0 0.0 
4.241058094689e-05 1.858946856458e-03 0.0 
1.858946856458e-03 5.029652559231e-03 0.0 
0.0 0.0 0.0 
2.621388936326e-04 -8.706543778846e-04 0.0 
-8.706543778846e-04 2.968326970521e-03 0.0 
0.0 0.0 0.0 
8.026292340755e-04 2.690528688134e-03 0.0 
2.690528688134e-03 1.771077977574e-03 0.0 
0.0 0.0 0.0 
-1.008762408433e-04 -6.289994317358e-04 0.0 
-6.289994317358e-04 3.155701636096e-03 0.0 
0.0 0.0 0.0 
2.660166774744e-04 1.523690369910e-03 0.0 
1.523690369910e-03 6.475551031816e-03 0.0 
0.0 0.0 0.0 
1.435865769889e-03 1.052390389553e-03 0.0 
1.052390389553e-03 3.038976367580e-03 0.0 
0.0 0.0 0.0 
2.437116422394e-04 8.226439801390e-04 0.0 
8.226439801390e-04 7.307621128813e-03 0.0 
0.0 0.0 0.0 
-4.788672406294e-04 7.575349726993e-04 0.0 
7.575349726993e-04 9.909877744216e-03 0.0 
0.0 0.0 0.0 
-1.260954631477e-05 -1.532522354536e-03 0.0 
-1.532522354536e-03 1.451010427031e-03 0.0 
0.0 0.0 0.0 
0.0 1.016590573922e-03 0.0 
1.016590573922e-03 7.420960430677e-03 0.0 
0.0 0.0 0.0 
4.749925046243e-04 8.506377603045e-04 0.0 
8.506377603045e-04 6.816815987543e-03 0.0 
0.0 0.0 0.0 
7.734022350452e-04 1.946633335134e-03 0.0 
1.946633335134e-03 3.404792238385e-03 0.0 
0.0 0.0 0.0 
-8.148986490830e-04 -1.542183985137e-03 0.0 
-1.542183985137e-03 4.062758680892e-04 0.0 
0.0 0.0 0.0 
2.145624237500e-04 3.989501515761e-04 0.0 
3.989501515761e-04 7.212778080062e-03 0.0 
0.0 0.0 0.0 
-5.031650285632e-04 8.953088286219e-04 0.0 
8.953088286219e-04 9.730572804921e-03 0.0 
0.0 0.0 0.0 
1.095829003086e-03 -1.677105009274e-03 0.0 
-1.677105009274e-03 3.387080124420e-04 0.0 
0.0 0.0 0.0 
0.0 5.804308644880e-04 0.0 
5.804308644880e-04 7.218599417893e-03 0.0 
0.0 0.0 0.0 
7.361302631506e-04 -3.492110601709e-04 0.0 
-3.492110601709e-04 4.076354138472e-03 0.0 
0.0 0.0 0.0 
-7.352145231565e-04 1.497850006231e-03 0.0 
1.497850006231e-03 5.660577464166e-03 0.0 
0.0 0.0 0.0 
-8.245045181690e-04 6.134398028555e-04 0.0 
6.134398028555e-04 7.937035846334e-03 0.0 
0.0 0.0 0.0 
1.458083994369e-03 1.066622137420e-03 0.0 
1.066622137420e-03 3.032618687013e-03 0.0 
0.0 0.0 0.0 
8.089914343259e-04 -6.676770175600e-04 0.0 
-6.676770175600e-04 3.092510036897e-03 0.0 
0.0 0.0 0.0 
1.284935330709e-03 2.282228201819e-04 0.0 
2.282228201819e-04 3.580239019219e-03 0.0 
0.0 0.0 0.0 
-7.865494385960e-04 6.545623921653e-04 0.0 
6.545623921653e-04 8.767434197132e-03 0.0 
0.0 0.0 0.0 
-8.106905071271e-04 1.163356464384e-03 0.0 
1.163356464384e-03 6.442598136070e-03 0.0 
0.0 0.0 0.0 
8.388350334301e-04 1.254422781175e-03 0.0 
1.254422781175e-03 5.258889461783e-03 0.0 
0.0 0.0 0.0 
-5.115467312755e-04 3.935393363927e-05 0.0 
3.935393363927e-05 8.530388133426e-03 0.0 
0.0 0.0 0.0 
1.237621083325e-04 -8.810763308606e-04 0.0 
-8.810763308606e-04 2.970671948262e-03 0.0 
0.0 0.0 0.0 
1.166354814254e-03 9.938670152231e-04 0.0 
9.938670152231e-04 4.233854154485e-03 0.0 
0.0 0.0 0.0 
8.505003911312e-04 -1.587375579245e-03 0.0 
-1.587375579245e-03 7.765280488328e-04 0.0 
0.0 0.0 0.0 
1.742081478069e-04 -3.599256613440e-04 0.0 
-3.599256613440e-04 4.699433862027e-03 0.0 
0.0 0.0 0.0 
9.162803087270e-05 -1.462260257470e-04 0.0 
-1.462260257470e-04 2.643480279119e-08 0.0 
0.0 0.0 0.0 
4.418975972338e-04 2.627563057643e-03 0.0 
2.627563057643e-03 2.691905956630e-03 0.0 
0.0 0.0 0.0 
1.125798851048e-03 -1.658994687458e-03 0.0 
-1.658994687458e-03 1.321715132532e-04 0.0 
0.0 0.0 0.0 
8.245917014982e-05 -6.258050717581e-04 0.0 
-6.258050717581e-04 3.576525323948e-03 0.0 
0.0 0.0 0.0 
5.190809740943e-04 1.915205134894e-03 0.0 
1.915205134894e-03 4.102067658257e-03 0.0 
0.0 0.0 0.0 
8.937276941288e-04 -2.308318651125e-04 0.0 
-2.308318651125e-04 4.058055743455e-03 0.0 
0.0 0.0 0.0 
-6.687879217946e-04 1.899364178947e-04 0.0 
1.899364178947e-04 8.565501650633e-03 0.0 
0.0 0.0 0.0 
6.932280999956e-04 -1.868472030304e-03 0.0 
-1.868472030304e-03 3.708801209046e-04 0.0 
0.0 0.0 0.0 
0.0 4.600513269394e-04 0.0 
4.600513269394e-04 7.217957456913e-03 0.0 
0.0 0.0 0.0 
-5.686484614242e-04 1.350506614743e-03 0.0 
1.350506614743e-03 7.188476590637e-03 0.0 
0.0 0.0 0.0 
1.300083815892e-05 -5.152414416037e-04 0.0 
-5.152414416037e-04 3.847350868485e-03 0.0 
0.0 0.0 0.0 
-4.892147929307e-04 1.464142521594e-03 0.0 
1.464142521594e-03 6.774870400834e-03 0.0 
0.0 0.0 0.0 
-1.253594882844e-05 -6.257718329082e-04 0.0 
-6.257718329082e-04 3.577046525019e-03 0.0 
0.0 0.0 0.0 
-4.084043362753e-04 -6.104489809420e-05 0.0 
-6.104489809420e-05 2.682936117737e-04 0.0 
0.0 0.0 0.0 
-8.772466557611e-04 6.053087694245e-04 0.0 
6.053087694245e-04 8.186521969234e-03 0.0 
0.0 0.0 0.0 
-2.609758639600e-04 -1.718273766946e-04 0.0 
-1.718273766946e-04 3.349100963974e-03 0.0 
0.0 0.0 0.0 
4.307405405728e-04 -4.017549692975e-07 0.0 
-4.017549692975e-07 -8.425911003540e-05 0.0 
0.0 0.0 0.0 
-8.618211984290e-05 -4.669817639560e-04 0.0 
-4.669817639560e-04 3.741930553169e-03 0.0 
0.0 0.0 0.0 
8.036990281515e-04 -1.042901575328e-04 0.0 
-1.042901575328e-04 4.564923994150e-03 0.0 
0.0 0.0 0.0 
-3.052112244014e-04 2.344755551783e-04 0.0 
2.344755551783e-04 9.993916813789e-03 0.0 
0.0 0.0 0.0 
1.421067355059e-03 1.326250143452e-04 0.0 
1.326250143452e-04 2.980101922393e-03 0.0 
0.0 0.0 0.0 
1.393775738532e-03 1.959314761701e-04 0.0 
1.959314761701e-04 3.223190587949e-03 0.0 
0.0 0.0 0.0 
-9.280582833161e-04 4.404683165459e-04 0.0 
4.404683165459e-04 7.528530446540e-03 0.0 
0.0 0.0 0.0 
-7.544756123627e-04 1.292841810632e-04 0.0 
1.292841810632e-04 7.489017002355e-03 0.0 
0.0 0.0 0.0 
-1.498100879258e-04 7.923111808689e-04 0.0 
7.923111808689e-04 1.044997720601e-02 0.0 
0.0 0.0 0.0 
-3.849581641093e-04 1.588297518477e-03 0.0 
1.588297518477e-03 6.328324109478e-03 0.0 
0.0 0.0 0.0 
7.034905174625e-04 -2.275889336104e-05 0.0 
-2.275889336104e-05 -1.729427114712e-04 0.0 
0.0 0.0 0.0 
-3.331613051505e-04 -6.959488339105e-04 0.0 
-6.959488339105e-04 1.305157270612e-03 0.0 
0.0 0.0 0.0 
-7.478617031252e-04 -9.009131807673e-04 0.0 
-9.009131807673e-04 5.879532979385e-04 0.0 
0.0 0.0 0.0 
-1.606632736247e-04 -1.242170226183e-03 0.0 
-1.242170226183e-03 1.784857090033e-03 0.0 
0.0 0.0 0.0 
-2.978609216101e-04 1.397679448432e-03 0.0 
1.397679448432e-03 8.447553847372e-03 0.0 
0.0 0.0 0.0 
-3.474473149536e-04 1.876774264060e-04 0.0 
1.876774264060e-04 9.999669623497e-03 0.0 
0.0 0.0 0.0 
3.858298566426e-04 -1.182307916595e-04 0.0 
-1.182307916595e-04 5.534566621757e-03 0.0 
0.0 0.0 0.0 
-1.623934274281e-04 -8.842778153251e-04 0.0 
-8.842778153251e-04 2.332479447636e-03 0.0 
0.0 0.0 0.0 
7.439258800601e-05 -3.932082664476e-04 0.0 
-3.932082664476e-04 4.705439097179e-03 0.0 
0.0 0.0 0.0 
6.926834538412e-04 2.816535781910e-04 0.0 
2.816535781910e-04 5.545231736630e-03 0.0 
0.0 0.0 0.0 
2.623869544280e-03 4.615441039866e-04 0.0 
4.615441039866e-04 -3.682577138568e-03 0.0 
0.0 0.0 0.0 
-2.566106873204e-04 -1.470777688663e-04 0.0 
-1.470777688663e-04 3.348655478385e-03 0.0 
0.0 0.0 0.0 
-2.395015535963e-04 -8.549151583065e-05 0.0 
-8.549151583065e-05 2.787003961941e-03 0.0 
0.0 0.0 0.0 
1.646875771826e-04 2.762393380480e-04 0.0 
2.762393380480e-04 7.211970900598e-03 0.0 
0.0 0.0 0.0 
0.0 3.294674826527e-04 0.0 
3.294674826527e-04 7.207608282902e-03 0.0 
0.0 0.0 0.0 
-2.548915773510e-04 -1.440431570295e-04 0.0 
-1.440431570295e-04 3.695932321205e-03 0.0 
0.0 0.0 0.0 
-6.550979021758e-05 -5.138750410212e-04 0.0 
-5.138750410212e-04 3.847599535658e-03 0.0 
0.0 0.0 0.0 
8.331039482701e-04 -5.240201641725e-04 0.0 
-5.240201641725e-04 3.461808095362e-03 0.0 
0.0 0.0 0.0 
6.641008833761e-04 4.287307295272e-04 0.0 
4.287307295272e-04 5.829897354828e-03 0.0 
0.0 0.0 0.0 
-4.637774521536e-04 -7.181899042598e-04 0.0 
-7.181899042598e-04 1.483267033851e-03 0.0 
0.0 0.0 0.0 
7.108447153101e-04 1.387812600004e-04 0.0 
1.387812600004e-04 5.292228428137e-03 0.0 
0.0 0.0 0.0 
2.748809738569e-04 -8.340758296966e-05 0.0 
-8.340758296966e-05 6.454897998247e-04 0.0 
0.0 0.0 0.0 
-1.050287293947e-04 -5.658807546518e-04 0.0 
-5.658807546518e-04 3.494119495400e-03 0.0 
0.0 0.0 0.0 
1.007536846791e-04 -6.611629775083e-04 0.0 
-6.611629775083e-04 3.644535279564e-03 0.0 
0.0 0.0 0.0 
3.153021244902e-04 -2.270141708852e-05 0.0 
-2.270141708852e-05 2.573767165899e-04 0.0 
0.0 0.0 0.0 
-2.585345606426e-04 -9.231576886616e-05 0.0 
-9.231576886616e-05 3.535295038835e-03 0.0 
0.0 0.0 0.0 
-3.894392459429e-04 7.773599790200e-04 0.0 
7.773599790200e-04 9.905751432417e-03 0.0 
0.0 0.0 0.0 
6.681158008290e-04 -1.040280474173e-05 0.0 
-1.040280474173e-05 -1.591132663139e-04 0.0 
0.0 0.0 0.0 
-7.849240184262e-04 1.746831889306e-04 0.0 
1.746831889306e-04 7.477241218985e-03 0.0 
0.0 0.0 0.0 
-7.869006867977e-04 2.146509304292e-04 0.0 
2.146509304292e-04 7.436126257725e-03 0.0 
0.0 0.0 0.0 
1.241142640901e-03 4.522385980834e-04 0.0 
4.522385980834e-04 3.955954392743e-03 0.0 
0.0 0.0 0.0 
-2.298432846057e-04 -5.461406493223e-05 0.0 
-5.461406493223e-05 2.788139154341e-03 0.0 
0.0 0.0 0.0 
8.022851041538e-04 -1.582564178196e-03 0.0 
-1.582564178196e-03 9.723139038698e-04 0.0 
0.0 0.0 0.0 
1.832714213075e-04 3.140588742258e-03 0.0 
3.140588742258e-03 1.341067604796e-03 0.0 
0.0 0.0 0.0 
2.128050038779e-04 -5.262980185162e-05 0.0 
-5.262980185162e-05 6.283268508764e-03 0.0 
0.0 0.0 0.0 
-2.549437029176e-05 1.569591920533e-03 0.0 
1.569591920533e-03 8.739881298726e-03 0.0 
0.0 0.0 0.0 
-4.546848478377e-04 2.851397864176e-04 0.0 
2.851397864176e-04 9.742346285701e-03 0.0 
0.0 0.0 0.0 
-5.483786516224e-04 2.487673641544e-03 0.0 
2.487673641544e-03 3.916594205059e-03 0.0 
0.0 0.0 0.0 
-5.200451055951e-04 -5.572078272381e-04 0.0 
-5.572078272381e-04 9.577154539899e-04 0.0 
0.0 0.0 0.0 
-9.533534066036e-04 9.632246370178e-04 0.0 
9.632246370178e-04 6.825810685586e-03 0.0 
0.0 0.0 0.0 
-6.501452093197e-04 5.542439213610e-05 0.0 
5.542439213610e-05 7.512081291978e-03 0.0 
0.0 0.0 0.0 
-6.309553185418e-04 4.480532335358e-05 0.0 
4.480532335358e-05 7.492914637290e-03 0.0 
0.0 0.0 0.0 
4.516380278710e-04 -9.505312174248e-06 0.0 
-9.505312174248e-06 -8.785674953216e-05 0.0 
0.0 0.0 0.0 
2.750208275093e-04 -3.163676066521e-05 0.0 
-3.163676066521e-05 2.740915189372e-04 0.0 
0.0 0.0 0.0 
1.884681954831e-04 -4.445923949683e-05 0.0 
-4.445923949683e-05 6.718797936260e-04 0.0 
0.0 0.0 0.0 
-3.331123859629e-04 -7.311957845670e-04 0.0 
-7.311957845670e-04 1.978231586950e-03 0.0 
0.0 0.0 0.0 
4.943765025380e-04 -2.138953656853e-05 0.0 
-2.138953656853e-05 1.961500103791e-04 0.0 
0.0 0.0 0.0 
-2.542286892501e-04 -8.825749077105e-05 0.0 
-8.825749077105e-05 3.904844691169e-03 0.0 
0.0 0.0 0.0 
-1.076121507140e-03 -1.078392354197e-03 0.0 
-1.078392354197e-03 -1.965471315831e-03 0.0 
0.0 0.0 0.0 
-2.486730315857e-04 -7.832692095678e-04 0.0 
-7.832692095678e-04 2.284652001253e-03 0.0 
0.0 0.0 0.0 
-4.489129732824e-04 6.669198980686e-05 0.0 
6.669198980686e-05 8.877045307016e-03 0.0 
0.0 0.0 0.0 
-7.190936678805e-04 1.237192188951e-04 0.0 
1.237192188951e-04 7.469922176421e-03 0.0 
0.0 0.0 0.0 
-3.251278134314e-04 1.368603601683e-03 0.0 
1.368603601683e-03 8.823127539670e-03 0.0 
0.0 0.0 0.0 
7.334627161391e-04 -2.382384593984e-04 0.0 
-2.382384593984e-04 4.407295062590e-03 0.0 
0.0 0.0 0.0 
-4.789635221547e-04 4.898117087784e-05 0.0 
4.898117087784e-05 8.519532963153e-03 0.0 
0.0 0.0 0.0 
-2.496154495959e-04 -1.503381421507e-05 0.0 
-1.503381421507e-05 2.975849999863e-03 0.0 
0.0 0.0 0.0 
3.413939823440e-04 -5.064792902195e-05 0.0 
-5.064792902195e-05 6.142610096835e-04 0.0 
0.0 0.0 0.0 
0.0 4.175486121738e-04 0.0 
4.175486121738e-04 1.093404712560e-02 0.0 
0.0 0.0 0.0 
-1.182208140237e-04 4.667177198178e-04 0.0 
4.667177198178e-04 1.091725027517e-02 0.0 
0.0 0.0 0.0 
-6.391262849497e-04 2.207104783030e-04 0.0 
2.207104783030e-04 8.312337988914e-03 0.0 
0.0 0.0 0.0 
-6.909878025562e-04 7.164802073119e-05 0.0 
7.164802073119e-05 7.504026618821e-03 0.0 
0.0 0.0 0.0 
-2.429975083040e-04 -1.266127016190e-04 0.0 
-1.266127016190e-04 3.002747142944e-03 0.0 
0.0 0.0 0.0 
-9.993094662952e-05 3.268507859239e-04 0.0 
3.268507859239e-04 1.096804625294e-02 0.0 
0.0 0.0 0.0 
-2.330241579046e-04 -8.531871756680e-04 0.0 
-8.531871756680e-04 2.049996424115e-03 0.0 
0.0 0.0 0.0 
-7.513096374173e-04 1.618923204031e-04 0.0 
1.618923204031e-04 7.450769092623e-03 0.0 
0.0 0.0 0.0 
-7.142030204370e-04 1.007567189466e-04 0.0 
1.007567189466e-04 7.495487693791e-03 0.0 
0.0 0.0 0.0 
-9.042039558674e-04 6.757962602314e-04 0.0 
6.757962602314e-04 6.849139644779e-03 0.0 
0.0 0.0 0.0 
0.0 8.901584091241e-04 0.0 
8.901584091241e-04 1.066120060115e-02 0.0 
0.0 0.0 0.0 
-1.078661736772e-04 3.991401481192e-04 0.0 
3.991401481192e-04 1.094865935949e-02 0.0 
0.0 0.0 0.0 
4.810991423059e-04 -2.578449386522e-05 0.0 
-2.578449386522e-05 1.981545863923e-04 0.0 
0.0 0.0 0.0 
4.810828298438e-04 -8.316090790246e-06 0.0 
-8.316090790246e-06 -9.436699874854e-05 0.0 
0.0 0.0 0.0 
-4.556984134725e-04 -5.223840297355e-04 0.0 
-5.223840297355e-04 1.138518532843e-03 0.0 
0.0 0.0 0.0 
2.221506466697e-04 -6.433528982201e-04 0.0 
-6.433528982201e-04 3.641213982287e-03 0.0 
0.0 0.0 0.0 
-7.422777087962e-05 6.946132513294e-06 0.0 
6.946132513294e-06 6.973830446031e-03 0.0 
0.0 0.0 0.0 
-2.918471958082e-03 -1.941864587033e-03 0.0 
-1.941864587033e-03 -2.314966579854e-03 0.0 
0.0 0.0 0.0 
-3.478405637344e-04 2.838089120274e-06 0.0 
2.838089120274e-06 9.704451886439e-03 0.0 
0.0 0.0 0.0 
-1.343557669045e-03 -8.325173927686e-04 0.0 
-8.325173927686e-04 6.233544341143e-04 0.0 
0.0 0.0 0.0 
1.252932968018e-03 2.844993778630e-04 0.0 
2.844993778630e-04 3.813365788535e-03 0.0 
0.0 0.0 0.0 
-4.137655262550e-04 -5.554334690165e-04 0.0 
-5.554334690165e-04 -5.745930805712e-06 0.0 
0.0 0.0 0.0 
-1.429165482715e-03 -2.052339001205e-03 0.0 
-2.052339001205e-03 -8.332323416325e-04 0.0 
0.0 0.0 0.0 
1.259686065886e-03 6.774583936964e-05 0.0 
6.774583936964e-05 3.538950238674e-03 0.0 
0.0 0.0 0.0 
-2.841024234657e-05 -5.871766393119e-05 0.0 
-5.871766393119e-05 6.692308498089e-03 0.0 
0.0 0.0 0.0 
-4.800867924002e-04 3.439443854588e-05 0.0 
3.439443854588e-05 8.848468931814e-03 0.0 
0.0 0.0 0.0 
-8.721206692277e-04 1.151493479627e-03 0.0 
1.151493479627e-03 6.770850996246e-03 0.0 
0.0 0.0 0.0 
3.416679280803e-04 -2.085546022511e-05 0.0 
-2.085546022511e-05 2.458912496819e-04 0.0 
0.0 0.0 0.0 
7.269949025002e-06 -3.205630372188e-04 0.0 
-3.205630372188e-04 4.979706377714e-03 0.0 
0.0 0.0 0.0 
0.0 1.283355243261e-04 0.0 
1.283355243261e-04 1.099010358202e-02 0.0 
0.0 0.0 0.0 
-9.039424744128e-05 1.343231782531e-04 0.0 
1.343231782531e-04 1.100135136568e-02 0.0 
0.0 0.0 0.0 
-6.857515872498e-04 9.324344536721e-05 0.0 
9.324344536721e-05 7.477333752817e-03 0.0 
0.0 0.0 0.0 
1.204311532588e-03 4.884079360381e-04 0.0 
4.884079360381e-04 4.140752393709e-03 0.0 
0.0 0.0 0.0 
0.0 3.532911671747e-04 0.0 
3.532911671747e-04 1.096425303865e-02 0.0 
0.0 0.0 0.0 
3.931079522090e-04 1.469786879155e-03 0.0 
1.469786879155e-03 6.360966712352e-03 0.0 
0.0 0.0 0.0 
3.485219877193e-04 -2.096954127137e-05 0.0 
-2.096954127137e-05 5.900713968621e-04 0.0 
0.0 0.0 0.0 
5.113436835140e-04 -1.960584987633e-05 0.0 
-1.960584987633e-05 1.880533959082e-04 0.0 
0.0 0.0 0.0 
3.540988592590e-04 -5.988903037151e-06 0.0 
-5.988903037151e-06 2.467146677125e-04 0.0 
0.0 0.0 0.0 
-2.618038881746e-04 -1.456193708175e-05 0.0 
-1.456193708175e-05 3.353973279886e-03 0.0 
0.0 0.0 0.0 
-2.351475838880e-05 -8.954867384351e-05 0.0 
-8.954867384351e-05 7.564405845377e-03 0.0 
0.0 0.0 0.0 
-1.515669170130e-04 -2.633200046514e-05 0.0 
-2.633200046514e-05 1.063124494925e-02 0.0 
0.0 0.0 0.0 
5.120296457652e-04 -4.706720012793e-06 0.0 
-4.706720012793e-06 -1.134558724374e-04 0.0 
0.0 0.0 0.0 
-2.547278227196e-04 -6.645625019288e-05 0.0 
-6.645625019288e-05 3.904813249407e-03 0.0 
0.0 0.0 0.0 
0.0 -5.278737195980e-05 0.0 
-5.278737195980e-05 7.603992536800e-03 0.0 
0.0 0.0 0.0 
-1.830800481517e-05 -7.856439721878e-05 0.0 
-7.856439721878e-05 7.530209142407e-03 0.0 
0.0 0.0 0.0 
1.717940421586e-04 1.726026570607e-04 0.0 
1.726026570607e-04 7.227841519405e-03 0.0 
0.0 0.0 0.0 
-4.003128508450e-04 5.218090756303e-05 0.0 
5.218090756303e-05 9.328561072767e-03 0.0 
0.0 0.0 0.0 
-3.101921444643e-04 -2.710756948964e-05 0.0 
-2.710756948964e-05 9.897520703900e-03 0.0 
0.0 0.0 0.0 
0.0 -6.629951793045e-05 0.0 
-6.629951793045e-05 7.538177474751e-03 0.0 
0.0 0.0 0.0 
0.0 -7.665130795367e-05 0.0 
-7.665130795367e-05 7.521897428931e-03 0.0 
0.0 0.0 0.0 
-3.397310001887e-04 5.250828611728e-05 0.0 
5.250828611728e-05 9.706201308961e-03 0.0 
0.0 0.0 0.0 
7.147018571692e-04 2.137778373014e-05 0.0 
2.137778373014e-05 -2.025759665669e-04 0.0 
0.0 0.0 0.0 
-5.836408837891e-04 2.497621706429e-05 0.0 
2.497621706429e-05 7.477367649912e-03 0.0 
0.0 0.0 0.0 
-6.591934605624e-04 7.223076619298e-05 0.0 
7.223076619298e-05 7.495672581437e-03 0.0 
0.0 0.0 0.0 
4.945142876869e-04 -3.834663063104e-06 0.0 
-3.834663063104e-06 -9.963819725300e-05 0.0 
0.0 0.0 0.0 
0.0 -2.793170171517e-05 0.0 
-2.793170171517e-05 7.408543980308e-03 0.0 
0.0 0.0 0.0 
1.215111551522e-04 8.746309495060e-05 0.0 
8.746309495060e-05 7.254303717744e-03 0.0 
0.0 0.0 0.0 
0.0 6.708001413741e-05 0.0 
6.708001413741e-05 7.268647320153e-03 0.0 
0.0 0.0 0.0 
6.629787942962e-04 3.264103813263e-07 0.0 
3.264103813263e-07 -1.595984722398e-04 0.0 
0.0 0.0 0.0 
6.593109867461e-04 -5.752300689090e-06 0.0 
-5.752300689090e-06 -1.567494736640e-04 0.0 
0.0 0.0 0.0 
0.0 2.323189069513e-04 0.0 
2.323189069513e-04 7.216151814226e-03 0.0 
0.0 0.0 0.0 
0.0 1.370981938923e-04 0.0 
1.370981938923e-04 7.238596705821e-03 0.0 
0.0 0.0 0.0 
-4.296896869449e-04 -3.106214320100e-05 0.0 
-3.106214320100e-05 9.133124407296e-03 0.0 
0.0 0.0 0.0 
-5.392746911200e-04 1.210864889226e-05 0.0 
1.210864889226e-05 7.461778755624e-03 0.0 
0.0 0.0 0.0 
-3.710052285425e-04 -2.921354733144e-05 0.0 
-2.921354733144e-05 9.518306350770e-03 0.0 
0.0 0.0 0.0 
-4.976669603537e-04 -3.226686356799e-05 0.0 
-3.226686356799e-05 8.333691052233e-03 0.0 
0.0 0.0 0.0 
-5.171748003971e-04 4.277529019824e-06 0.0 
4.277529019824e-06 7.455791462101e-03 0.0 
0.0 0.0 0.0 
7.227158129597e-04 -1.580352938996e-05 0.0 
-1.580352938996e-05 -1.675493454791e-04 0.0 
0.0 0.0 0.0 
6.543823854457e-04 -2.178081064856e-05 0.0 
-2.178081064856e-05 -1.195768323137e-04 0.0 
0.0 0.0 0.0 
5.980104085634e-04 -3.511771555749e-05 0.0 
-3.511771555749e-05 -1.196128001257e-04 0.0 
0.0 0.0 0.0 
6.218890788436e-04 -4.175668716589e-05 0.0 
-4.175668716589e-05 -1.164707457091e-04 0.0 
0.0 0.0 0.0 
-2.503544891134e-04 -3.656638920851e-06 0.0 
-3.656638920851e-06 4.101323526116e-03 0.0 
0.0 0.0 0.0 
-2.588925815860e-04 -1.149842634947e-05 0.0 
-1.149842634947e-05 3.725810036927e-03 0.0 
0.0 0.0 0.0 
1.340641957817e-04 -1.890601193647e-05 0.0 
-1.890601193647e-05 5.054303262053e-05 0.0 
0.0 0.0 0.0 
-1.844236034946e-04 7.573781283157e-06 0.0 
7.573781283157e-06 5.205166963805e-03 0.0 
0.0 0.0 0.0 
5.344160290788e-05 -4.442732699138e-05 0.0 
-4.442732699138e-05 7.720130813738e-05 0.0 
0.0 0.0 0.0 
0.0 7.186007090244e-04 0.0 
7.186007090244e-04 1.078404506406e-02 0.0 
0.0 0.0 0.0 
0.0 2.949425653022e-04 0.0 
2.949425653022e-04 1.097172082155e-02 0.0 
0.0 0.0 0.0 
0.0 4.900158152147e-04 0.0 
4.900158152147e-04 1.089924474971e-02 0.0 
0.0 0.0 0.0 
7.583530637345e-05 -6.192350088113e-06 0.0 
-6.192350088113e-06 1.273086861401e-03 0.0 
0.0 0.0 0.0 
-2.114521478528e-04 -1.384404719044e-05 0.0 
-1.384404719044e-05 2.582053971072e-03 0.0 
0.0 0.0 0.0 
0.0 2.318065900509e-04 0.0 
2.318065900509e-04 1.097093700330e-02 0.0 
0.0 0.0 0.0 
-1.147040703098e-04 1.638490870693e-05 0.0 
1.638490870693e-05 6.387354626073e-03 0.0 
0.0 0.0 0.0 
0.0 1.807056401504e-04 0.0 
1.807056401504e-04 1.102075820449e-02 0.0 
0.0 0.0 0.0 
-9.269309589499e-05 2.188507969028e-05 0.0 
2.188507969028e-05 6.790480220575e-03 0.0 
0.0 0.0 0.0 
-6.439234597999e-05 2.833187010219e-05 0.0 
2.833187010219e-05 7.193641865993e-03 0.0 
0.0 0.0 0.0 
-2.603535768781e-04 -6.814663322237e-05 0.0 
-6.814663322237e-05 3.535286042326e-03 0.0 
0.0 0.0 0.0 
-1.112577206963e-04 2.616063594772e-04 0.0 
2.616063594772e-04 1.097131124735e-02 0.0 
0.0 0.0 0.0 
-9.001974501177e-05 2.343980442091e-04 0.0 
2.343980442091e-04 1.098980229264e-02 0.0 
0.0 0.0 0.0 
-1.027004514957e-04 -4.831066551256e-05 0.0 
-4.831066551256e-05 6.561199567204e-03 0.0 
0.0 0.0 0.0 
-7.823338966872e-05 -4.694154188020e-05 0.0 
-4.694154188020e-05 6.976883896197e-03 0.0 
0.0 0.0 0.0 
-8.666872872709e-05 -1.917793173366e-04 0.0 
-1.917793173366e-04 5.478578453401e-03 0.0 
0.0 0.0 0.0 
-8.189271103940e-04 -2.761263678797e-04 0.0 
-2.761263678797e-04 4.523921361328e-04 0.0 
0.0 0.0 0.0 
-1.750570203890e-04 -4.885212716636e-04 0.0 
-4.885212716636e-04 3.390205950447e-03 0.0 
0.0 0.0 0.0 
4.530125737290e-04 -3.984643504831e-05 0.0 
-3.984643504831e-05 2.138512094061e-04 0.0 
0.0 0.0 0.0 
1.563418952735e-04 -1.126575096735e-04 0.0 
-1.126575096735e-04 6.289486648987e-03 0.0 
0.0 0.0 0.0 
-3.867361550158e-05 -5.790563638668e-04 0.0 
-5.790563638668e-04 3.495734199690e-03 0.0 
0.0 0.0 0.0 
1.988835542766e-05 -1.198020477106e-04 0.0 
-1.198020477106e-04 6.044502494184e-03 0.0 
0.0 0.0 0.0 
-2.738572223284e-04 -7.603711659249e-04 0.0 
-7.603711659249e-04 1.767454728715e-03 0.0 
0.0 0.0 0.0 
1.107656783361e-05 -1.465281897608e-04 0.0 
-1.465281897608e-04 7.268679466903e-04 0.0 
0.0 0.0 0.0 
-2.520858907740e-05 -1.299343272824e-04 0.0 
-1.299343272824e-04 6.464507623267e-03 0.0 
0.0 0.0 0.0 
-1.390707736102e-04 -4.555970154378e-04 0.0 
-4.555970154378e-04 3.740443435046e-03 0.0 
0.0 0.0 0.0 
-2.620609889206e-04 -9.151730313436e-05 0.0 
-9.151730313436e-05 3.164894114000e-03 0.0 
0.0 0.0 0.0 
-2.850241494756e-05 -1.624999514984e-04 0.0 
-1.624999514984e-04 6.051585397146e-03 0.0 
0.0 0.0 0.0 
-2.314238434157e-04 1.296040402044e-04 0.0 
1.296040402044e-04 1.022632604641e-02 0.0 
0.0 0.0 0.0 
-2.556667557659e-04 -6.369055152288e-05 0.0 
-6.369055152288e-05 3.165420045577e-03 0.0 
0.0 0.0 0.0 
7.266220100479e-04 -7.782072543052e-05 0.0 
-7.782072543052e-05 4.775058596133e-03 0.0 
0.0 0.0 0.0 
3.888059727624e-04 -3.896488940580e-04 0.0 
-3.896488940580e-04 4.506567388540e-03 0.0 
0.0 0.0 0.0 
-3.492487997325e-05 -1.645692767604e-04 0.0 
-1.645692767604e-04 5.474076210342e-03 0.0 
0.0 0.0 0.0 
-7.662692581634e-05 -1.117903587049e-04 0.0 
-1.117903587049e-04 5.703374150835e-03 0.0 
0.0 0.0 0.0 
1.960601985402e-03 1.398859933702e-03 0.0 
1.398859933702e-03 3.416780266545e-04 0.0 
0.0 0.0 0.0 
-9.460207717180e-04 1.088439971897e-03 0.0 
1.088439971897e-03 6.521541184623e-03 0.0 
0.0 0.0 0.0 
4.331204373771e-04 1.954298585360e-03 0.0 
1.954298585360e-03 4.400916198060e-03 0.0 
0.0 0.0 0.0 
8.936936788873e-05 -2.901077298852e-04 0.0 
-2.901077298852e-04 4.974525577285e-03 0.0 
0.0 0.0 0.0 
-6.171125675969e-05 -1.287057759838e-04 0.0 
-1.287057759838e-04 6.290098240041e-03 0.0 
0.0 0.0 0.0 
-1.045733378632e-04 -6.265733943907e-05 0.0 
-6.265733943907e-05 5.921286728992e-03 0.0 
0.0 0.0 0.0 
-3.089476143799e-04 -1.306919886032e-03 0.0 
-1.306919886032e-03 1.591453239424e-03 0.0 
0.0 0.0 0.0 
-2.506501566906e-04 2.117133554262e-04 0.0 
2.117133554262e-04 1.019816171165e-02 0.0 
0.0 0.0 0.0 
-3.313685578581e-04 1.855828624641e-04 0.0 
1.855828624641e-04 9.831371266074e-03 0.0 
0.0 0.0 0.0 
-5.371761538033e-04 8.223422394094e-05 0.0 
8.223422394094e-05 8.036922370149e-03 0.0 
0.0 0.0 0.0 
1.740167717028e-04 -2.744953951987e-04 0.0 
-2.744953951987e-04 5.105678874425e-03 0.0 
0.0 0.0 0.0 
1.996304540008e-05 -2.248018446302e-04 0.0 
-2.248018446302e-04 5.232409280913e-03 0.0 
0.0 0.0 0.0 
-2.652068821869e-04 8.254274594665e-05 0.0 
8.254274594665e-05 1.024026187640e-02 0.0 
0.0 0.0 0.0 
-2.909099371968e-04 1.611150265755e-04 0.0 
1.611150265755e-04 1.003450312587e-02 0.0 
0.0 0.0 0.0 
3.725668732479e-04 -5.096480973931e-04 0.0 
-5.096480973931e-04 4.189965674606e-03 0.0 
0.0 0.0 0.0 
-4.880018340281e-05 -1.070727494069e-04 0.0 
-1.070727494069e-04 6.696697116228e-03 0.0 
0.0 0.0 0.0 
-3.958426333018e-04 3.266495542196e-04 0.0 
3.266495542196e-04 9.737252800724e-03 0.0 
0.0 0.0 0.0 
-1.259362951834e-04 -8.770786190854e-05 0.0 
-8.770786190854e-05 5.921263162382e-03 0.0 
0.0 0.0 0.0 
9.183928217271e-05 -1.175079918160e-04 0.0 
-1.175079918160e-04 6.585702122597e-03 0.0 
0.0 0.0 0.0 
-2.876213387966e-04 1.634541191508e-04 0.0 
1.634541191508e-04 1.020640740215e-02 0.0 
0.0 0.0 0.0 
-4.784761997803e-04 1.205003411140e-04 0.0 
1.205003411140e-04 9.250982946310e-03 0.0 
0.0 0.0 0.0 
6.709507298921e-04 -2.152416553720e-04 0.0 
-2.152416553720e-04 4.582468418053e-03 0.0 
0.0 0.0 0.0 
-1.957274193561e-04 -2.639024171140e-04 0.0 
-2.639024171140e-04 1.973843181016e-03 0.0 
0.0 0.0 0.0 
-3.375725222623e-04 -1.559717925663e-03 0.0 
-1.559717925663e-03 1.299119290217e-03 0.0 
0.0 0.0 0.0 
-2.130312347519e-04 -4.094567097230e-04 0.0 
-4.094567097230e-04 9.361712228144e-04 0.0 
0.0 0.0 0.0 
-8.241041023114e-04 -1.305742039443e-03 0.0 
-1.305742039443e-03 1.345491834241e-04 0.0 
0.0 0.0 0.0 
-3.118037474583e-04 1.130659211169e-04 0.0 
1.130659211169e-04 1.003922646512e-02 0.0 
0.0 0.0 0.0 
-5.713587721279e-05 -5.207658965817e-05 0.0 
-5.207658965817e-05 6.503491886250e-03 0.0 
0.0 0.0 0.0 
-4.142255289238e-04 -7.582290004594e-04 0.0 
-7.582290004594e-04 3.030070635632e-04 0.0 
0.0 0.0 0.0 
-5.093826290687e-04 1.033558412171e-03 0.0 
1.033558412171e-03 9.505729891264e-03 0.0 
0.0 0.0 0.0 
-5.360804895317e-04 1.026801249189e-04 0.0 
1.026801249189e-04 8.229428260160e-03 0.0 
0.0 0.0 0.0 
1.916149234171e-05 -2.033366360900e-04 0.0 
-2.033366360900e-04 5.801605030364e-03 0.0 
0.0 0.0 0.0 
-6.588858782275e-05 -7.815225470282e-05 0.0 
-7.815225470282e-05 6.098529246162e-03 0.0 
0.0 0.0 0.0 
5.788398933464e-04 -1.443555796457e-03 0.0 
-1.443555796457e-03 1.490566327858e-03 0.0 
0.0 0.0 0.0 
-9.756419264140e-05 -1.157364582348e-04 0.0 
-1.157364582348e-04 6.104097442341e-03 0.0 
0.0 0.0 0.0 
-5.641496989394e-04 1.308672446204e-05 0.0 
1.308672446204e-05 8.035390441792e-03 0.0 
0.0 0.0 0.0 
1.049802220228e-03 9.876357125133e-04 0.0 
9.876357125133e-04 4.760560053705e-03 0.0 
0.0 0.0 0.0 
6.393604694566e-05 -4.484077729616e-05 0.0 
-4.484077729616e-05 6.852753612256e-03 0.0 
0.0 0.0 0.0 
-1.310615708796e-04 -1.343392895669e-04 0.0 
-1.343392895669e-04 1.905300840218e-03 0.0 
0.0 0.0 0.0 
1.838634618285e-04 -6.572195731956e-05 0.0 
-6.572195731956e-05 6.490670475137e-03 0.0 
0.0 0.0 0.0 
-4.311457770023e-04 1.098785324714e-04 0.0 
1.098785324714e-04 9.462144569022e-03 0.0 
0.0 0.0 0.0 
-1.949185250405e-04 -2.062960337656e-04 0.0 
-2.062960337656e-04 2.154978807254e-03 0.0 
0.0 0.0 0.0 
-1.332283568827e-04 -1.469705740296e-03 0.0 
-1.469705740296e-03 1.442906417360e-03 0.0 
0.0 0.0 0.0 
-1.827744355150e-04 -1.797776326949e-04 0.0 
-1.797776326949e-04 4.398469351058e-03 0.0 
0.0 0.0 0.0 
-5.197258287152e-04 1.797269630939e-04 0.0 
1.797269630939e-04 8.820161428118e-03 0.0 
0.0 0.0 0.0 
-1.689219560733e-04 -6.566816874750e-04 0.0 
-6.566816874750e-04 2.824691618967e-03 0.0 
0.0 0.0 0.0 
-3.840475391748e-04 9.234496469593e-05 0.0 
9.234496469593e-05 9.671265830112e-03 0.0 
0.0 0.0 0.0 
-4.803993863267e-04 7.712549762633e-05 0.0 
7.712549762633e-05 9.067262779330e-03 0.0 
0.0 0.0 0.0 
-4.574764141940e-05 -4.132722057681e-04 0.0 
-4.132722057681e-04 4.101720207571e-03 0.0 
0.0 0.0 0.0 
-1.151869581728e-04 -1.367604437410e-04 0.0 
-1.367604437410e-04 5.705201478801e-03 0.0 
0.0 0.0 0.0 
-7.298266721423e-05 -1.579971953617e-04 0.0 
-1.579971953617e-04 5.880326113063e-03 0.0 
0.0 0.0 0.0 
-3.964968278435e-04 1.597056929313e-04 0.0 
1.597056929313e-04 9.454887130468e-03 0.0 
0.0 0.0 0.0 
-1.215320202064e-04 -3.147934733579e-04 0.0 
-3.147934733579e-04 1.614015270419e-03 0.0 
0.0 0.0 0.0 
-1.266658111324e-04 -3.656714439633e-04 0.0 
-3.656714439633e-04 3.975957443270e-03 0.0 
0.0 0.0 0.0 
5.716918471268e-04 1.338121888645e-03 0.0 
1.338121888645e-03 6.300236243177e-03 0.0 
0.0 0.0 0.0 
-4.200945571526e-04 1.551667990986e-04 0.0 
1.551667990986e-04 9.630677129014e-03 0.0 
0.0 0.0 0.0 
-1.629932670645e-04 -4.005839206999e-04 0.0 
-4.005839206999e-04 3.615047639672e-03 0.0 
0.0 0.0 0.0 
2.605460323781e-04 -4.436642384668e-04 0.0 
-4.436642384668e-04 4.516055257475e-03 0.0 
0.0 0.0 0.0 
2.677475492805e-04 -5.279825907054e-05 0.0 
-5.279825907054e-05 6.215489626616e-03 0.0 
0.0 0.0 0.0 
-4.360238266414e-04 1.687605375914e-04 0.0 
1.687605375914e-04 9.245210982332e-03 0.0 
0.0 0.0 0.0 
1.610245881375e-03 -6.695314057507e-04 0.0 
-6.695314057507e-04 -4.449781413996e-03 0.0 
0.0 0.0 0.0 
-7.495128607538e-06 -2.350472063688e-04 0.0 
-2.350472063688e-04 8.510052773478e-04 0.0 
0.0 0.0 0.0 
2.728317544439e-03 4.766096703257e-04 0.0 
4.766096703257e-04 -3.012158299124e-03 0.0 
0.0 0.0 0.0 
-2.722076550232e-05 -8.331249555603e-05 0.0 
-8.331249555603e-05 6.283047278598e-03 0.0 
0.0 0.0 0.0 
-4.797416962766e-04 1.761434895483e-04 0.0 
1.761434895483e-04 9.034293943293e-03 0.0 
0.0 0.0 0.0 
-1.887618398062e-04 -1.563591334616e-04 0.0 
-1.563591334616e-04 4.764906594053e-03 0.0 
0.0 0.0 0.0 
-5.485650601028e-04 1.349246490179e-04 0.0 
1.349246490179e-04 8.425116221989e-03 0.0 
0.0 0.0 0.0 
6.186656927853e-04 1.691025633060e-04 0.0 
1.691025633060e-04 5.561924697222e-03 0.0 
0.0 0.0 0.0 
-9.419953808887e-05 -3.179400548618e-04 0.0 
-3.179400548618e-04 4.339031576237e-03 0.0 
0.0 0.0 0.0 
-2.819501692075e-05 -1.202780559354e-04 0.0 
-1.202780559354e-04 5.874286380663e-03 0.0 
0.0 0.0 0.0 
-1.249488340264e-04 -2.197038080882e-04 0.0 
-2.197038080882e-04 1.966225822301e-03 0.0 
0.0 0.0 0.0 
1.278236254700e-04 -4.459847158511e-05 0.0 
-4.459847158511e-05 6.588715296607e-03 0.0 
0.0 0.0 0.0 
-1.118045411692e-04 -4.113503590394e-04 0.0 
-4.113503590394e-04 4.101827254844e-03 0.0 
0.0 0.0 0.0 
-1.433193164765e-04 -1.696181419575e-04 0.0 
-1.696181419575e-04 2.148964019641e-03 0.0 
0.0 0.0 0.0 
-1.721518493362e-04 -3.557843281085e-04 0.0 
-3.557843281085e-04 3.974645467500e-03 0.0 
0.0 0.0 0.0 
-1.849939962250e-04 -5.372917631266e-04 0.0 
-5.372917631266e-04 3.048975076230e-03 0.0 
0.0 0.0 0.0 
-2.181578174218e-04 -7.181069079567e-04 0.0 
-7.181069079567e-04 2.274287584376e-03 0.0 
0.0 0.0 0.0 
-1.577720512451e-04 -1.512120606372e-04 0.0 
-1.512120606372e-04 4.763621249228e-03 0.0 
0.0 0.0 0.0 
3.797776355285e-04 2.933385411685e-05 0.0 
2.933385411685e-05 -5.024541712739e-05 0.0 
0.0 0.0 0.0 
2.953083183432e-04 -2.518732504305e-05 0.0 
-2.518732504305e-05 -3.818980618076e-06 0.0 
0.0 0.0 0.0 
-4.603700948003e-05 -2.538060689505e-04 0.0 
-2.538060689505e-04 5.237253007069e-03 0.0 
0.0 0.0 0.0 
-1.107202824409e-04 -2.634436442726e-04 0.0 
-2.634436442726e-04 1.790921218918e-03 0.0 
0.0 0.0 0.0 
8.286214464537e-05 -3.163868588730e-04 0.0 
-3.163868588730e-04 5.112651495583e-03 0.0 
0.0 0.0 0.0 
1.639246457619e-04 -3.784153955420e-04 0.0 
-3.784153955420e-04 4.823571088373e-03 0.0 
0.0 0.0 0.0 
8.344030279406e-05 -8.338590939470e-04 0.0 
-8.338590939470e-04 2.948825620793e-03 0.0 
0.0 0.0 0.0 
5.901306941107e-04 -1.834603149388e-03 0.0 
-1.834603149388e-03 6.817395525367e-04 0.0 
0.0 0.0 0.0 
-3.890783842569e-04 2.669955314036e-04 0.0 
2.669955314036e-04 9.948888993045e-03 0.0 
0.0 0.0 0.0 
1.238260428765e-03 2.484550790538e-03 0.0 
2.484550790538e-03 -2.641979181620e-03 0.0 
0.0 0.0 0.0 
-2.017203113447e-04 -4.296987950092e-04 0.0 
-4.296987950092e-04 3.261624648359e-03 0.0 
0.0 0.0 0.0 
5.842155008238e-04 3.284567413342e-04 0.0 
3.284567413342e-04 5.820870329419e-03 0.0 
0.0 0.0 0.0 
-1.168359464317e-04 -2.047277387518e-04 0.0 
-2.047277387518e-04 1.552699474844e-03 0.0 
0.0 0.0 0.0 
-5.612777164904e-04 9.148661138767e-05 0.0 
9.148661138767e-05 8.647791613916e-03 0.0 
0.0 0.0 0.0 
-5.825777721618e-04 4.724501653614e-05 0.0 
4.724501653614e-05 8.237049247489e-03 0.0 
0.0 0.0 0.0 
-2.615007795630e-04 -6.066959752205e-04 0.0 
-6.066959752205e-04 1.463018836571e-03 0.0 
0.0 0.0 0.0 
3.719517181502e-04 -2.454589487120e-05 0.0 
-2.454589487120e-05 5.909877648939e-03 0.0 
0.0 0.0 0.0 
-5.234355181265e-04 2.356143995685e-04 0.0 
2.356143995685e-04 9.375122813518e-03 0.0 
0.0 0.0 0.0 
-2.120603308734e-04 -3.222423955608e-04 0.0 
-3.222423955608e-04 1.803764242021e-03 0.0 
0.0 0.0 0.0 
-3.701218878215e-04 3.336289274806e-04 0.0 
3.336289274806e-04 1.009460093129e-02 0.0 
0.0 0.0 0.0 
-3.105519765911e-04 3.724343120214e-04 0.0 
3.724343120214e-04 1.008818197973e-02 0.0 
0.0 0.0 0.0 
-1.823338889295e-04 -3.983996983990e-04 0.0 
-3.983996983990e-04 1.992285083828e-03 0.0 
0.0 0.0 0.0 
-7.240974720507e-04 2.202416100667e-03 0.0 
2.202416100667e-03 4.531658530382e-03 0.0 
0.0 0.0 0.0 
-2.419483292709e-04 -6.501007720937e-04 0.0 
-6.501007720937e-04 1.965022808979e-03 0.0 
0.0 0.0 0.0 
-3.457512495975e-05 -2.048573413688e-04 0.0 
-2.048573413688e-04 5.640695413359e-03 0.0 
0.0 0.0 0.0 
-1.318186750066e-04 -2.301286082746e-04 0.0 
-2.301286082746e-04 4.560056818283e-03 0.0 
0.0 0.0 0.0 
-4.133509505427e-04 9.093992886761e-04 0.0 
9.093992886761e-04 9.727472624429e-03 0.0 
0.0 0.0 0.0 
-3.377804338551e-04 3.085897267025e-04 0.0 
3.085897267025e-04 9.943829392122e-03 0.0 
0.0 0.0 0.0 
1.698114226190e-05 -2.583014516712e-04 0.0 
-2.583014516712e-04 5.385232521729e-03 0.0 
0.0 0.0 0.0 
9.096110368456e-05 -2.194338915553e-04 0.0 
-2.194338915553e-04 5.378848656377e-03 0.0 
0.0 0.0 0.0 
-3.771066611343e-04 -6.252960612507e-04 0.0 
-6.252960612507e-04 1.651313768261e-03 0.0 
0.0 0.0 0.0 
2.373385829180e-05 -1.680329873271e-04 0.0 
-1.680329873271e-04 5.634717413642e-03 0.0 
0.0 0.0 0.0 
-4.650920352942e-04 2.771616687592e-04 0.0 
2.771616687592e-04 9.370072489242e-03 0.0 
0.0 0.0 0.0 
-1.717082741228e-04 -2.302712942886e-04 0.0 
-2.302712942886e-04 4.560318235710e-03 0.0 
0.0 0.0 0.0 
-5.247807682902e-04 1.295233793779e-04 0.0 
1.295233793779e-04 9.039871226003e-03 0.0 
0.0 0.0 0.0 
-4.654734735755e-04 2.236587776415e-04 0.0 
2.236587776415e-04 9.585021143089e-03 0.0 
0.0 0.0 0.0 
1.467500666837e-03 1.397831683205e-03 0.0 
1.397831683205e-03 2.391085096067e-03 0.0 
0.0 0.0 0.0 
-3.597398984063e-04 2.528853622286e-04 0.0 
2.528853622286e-04 9.788294391226e-03 0.0 
0.0 0.0 0.0 
-1.914562311536e-04 -3.032921743503e-04 0.0 
-3.032921743503e-04 3.847587450995e-03 0.0 
0.0 0.0 0.0 
-1.477578207224e-04 -3.167741676545e-04 0.0 
-3.167741676545e-04 4.339179263685e-03 0.0 
0.0 0.0 0.0 
-2.353142783765e-04 -4.330071078889e-04 0.0 
-4.330071078889e-04 2.917088055820e-03 0.0 
0.0 0.0 0.0 
1.108698137828e-04 -1.131886360104e-03 0.0 
-1.131886360104e-03 2.305982189978e-03 0.0 
0.0 0.0 0.0 
-4.734540112641e-04 2.229229219718e-04 0.0 
2.229229219718e-04 9.205255640718e-03 0.0 
0.0 0.0 0.0 
6.416663901079e-04 -7.922657894823e-04 0.0 
-7.922657894823e-04 3.027977102552e-03 0.0 
0.0 0.0 0.0 
-2.208834975919e-04 -5.495746310129e-04 0.0 
-5.495746310129e-04 2.160044869561e-03 0.0 
0.0 0.0 0.0 
-1.736443063111e-04 -3.950373979962e-04 0.0 
-3.950373979962e-04 1.121442781389e-03 0.0 
0.0 0.0 0.0 
-5.249784819600e-04 1.791724773392e-04 0.0 
1.791724773392e-04 9.210537135638e-03 0.0 
0.0 0.0 0.0 
-2.920675508430e-04 -6.160872795195e-04 0.0 
-6.160872795195e-04 2.170776316931e-03 0.0 
0.0 0.0 0.0 
2.317066910464e-04 8.804701947353e-06 0.0 
8.804701947353e-06 6.483083010365e-03 0.0 
0.0 0.0 0.0 
-4.258497997314e-04 2.147337469125e-04 0.0 
2.147337469125e-04 9.415850743155e-03 0.0 
0.0 0.0 0.0 
8.191873906993e-05 -1.569864039192e-04 0.0 
-1.569864039192e-04 5.794209547546e-03 0.0 
0.0 0.0 0.0 
2.467993699526e-04 7.363846915076e-04 0.0 
7.363846915076e-04 6.763074851253e-03 0.0 
0.0 0.0 0.0 
-1.940160470953e-04 -3.851530904614e-04 0.0 
-3.851530904614e-04 3.612153911762e-03 0.0 
0.0 0.0 0.0 
-2.743107670183e-04 -4.558542279283e-04 0.0 
-4.558542279283e-04 2.001700445476e-03 0.0 
0.0 0.0 0.0 
-3.517161166253e-04 -4.691831727396e-04 0.0 
-4.691831727396e-04 1.282560751044e-03 0.0 
0.0 0.0 0.0 
1.593551883756e-04 -2.931915233281e-04 0.0 
-2.931915233281e-04 5.247524580338e-03 0.0 
0.0 0.0 0.0 
-4.851443529104e-04 1.386208925818e-04 0.0 
1.386208925818e-04 8.859174275083e-03 0.0 
0.0 0.0 0.0 
-2.008144930343e-04 -3.082510721476e-04 0.0 
-3.082510721476e-04 8.717590617673e-04 0.0 
0.0 0.0 0.0 
-1.834583124511e-04 -6.150686516736e-04 0.0 
-6.150686516736e-04 2.818386314132e-03 0.0 
0.0 0.0 0.0 
-4.750093045724e-05 -1.331227852413e-04 0.0 
-1.331227852413e-04 1.731584588709e-03 0.0 
0.0 0.0 0.0 
-5.681512796004e-04 1.354812978361e-04 0.0 
1.354812978361e-04 8.825445238986e-03 0.0 
0.0 0.0 0.0 
-1.968052069273e-04 -5.032321603846e-04 0.0 
-5.032321603846e-04 3.043832461904e-03 0.0 
0.0 0.0 0.0 
2.734082652882e-04 -3.321522701916e-04 0.0 
-3.321522701916e-04 4.815555797848e-03 0.0 
0.0 0.0 0.0 
-2.249107791229e-04 -3.938511519340e-04 0.0 
-3.938511519340e-04 2.912974386035e-03 0.0 
0.0 0.0 0.0 
-3.668274255350e-04 1.362993917253e-04 0.0 
1.362993917253e-04 9.837949897857e-03 0.0 
0.0 0.0 0.0 
-2.365168285823e-04 -6.541895094752e-04 0.0 
-6.541895094752e-04 2.499847301449e-03 0.0 
0.0 0.0 0.0 
3.356517561366e-04 -2.844403885790e-04 0.0 
-2.844403885790e-04 5.081885476839e-03 0.0 
0.0 0.0 0.0 
-3.347718096373e-04 -1.439857406455e-03 0.0 
-1.439857406455e-03 1.280327364848e-03 0.0 
0.0 0.0 0.0 
2.530329020247e-04 -3.421793438827e-04 0.0 
-3.421793438827e-04 4.946179199491e-03 0.0 
0.0 0.0 0.0 
-1.966870936538e-04 -2.554559595087e-04 0.0 
-2.554559595087e-04 4.201305362967e-03 0.0 
0.0 0.0 0.0 
1.606592075585e-04 -1.975453924953e-04 0.0 
-1.975453924953e-04 5.524919800382e-03 0.0 
0.0 0.0 0.0 
2.255977634425e-03 -3.958527627419e-05 0.0 
-3.958527627419e-05 -4.856611056553e-04 0.0 
0.0 0.0 0.0 
-1.226468723045e-04 -1.693207746310e-04 0.0 
-1.693207746310e-04 1.741917699444e-03 0.0 
0.0 0.0 0.0 
-5.514114427799e-04 5.551722183517e-05 0.0 
5.551722183517e-05 8.464098817558e-03 0.0 
0.0 0.0 0.0 
1.155436134939e-03 1.035142122747e-04 0.0 
1.035142122747e-04 3.840807117708e-03 0.0 
0.0 0.0 0.0 
-3.085394758742e-04 1.876155961525e-03 0.0 
1.876155961525e-03 5.066648201054e-03 0.0 
0.0 0.0 0.0 
-5.224922039937e-04 8.662396837841e-05 0.0 
8.662396837841e-05 8.860884520788e-03 0.0 
0.0 0.0 0.0 
-1.007837937258e-04 -1.742061884929e-03 0.0 
-1.742061884929e-03 1.025987007320e-03 0.0 
0.0 0.0 0.0 
-5.650272719951e-04 2.855555562679e-04 0.0 
2.855555562679e-04 8.942692626929e-03 0.0 
0.0 0.0 0.0 
-3.168138283904e-05 -1.719769694719e-04 0.0 
-1.719769694719e-04 1.537302115533e-03 0.0 
0.0 0.0 0.0 
2.416660246864e-04 -1.227799486291e-04 0.0 
-1.227799486291e-04 6.023196628134e-03 0.0 
0.0 0.0 0.0 
1.141111026385e-03 3.166449808174e-04 0.0 
3.166449808174e-04 4.166861890163e-03 0.0 
0.0 0.0 0.0 
8.884896009744e-04 1.127054761660e-03 0.0 
1.127054761660e-03 5.276332842559e-03 0.0 
0.0 0.0 0.0 
-2.981584044411e-04 3.086145545447e-04 0.0 
3.086145545447e-04 1.030899373706e-02 0.0 
0.0 0.0 0.0 
6.460010320419e-04 -6.277931019185e-04 0.0 
-6.277931019185e-04 3.478482182501e-03 0.0 
0.0 0.0 0.0 
-2.413757781907e-04 -3.725662083653e-04 0.0 
-3.725662083653e-04 1.628039505596e-03 0.0 
0.0 0.0 0.0 
4.869653951989e-04 -4.367769135859e-04 0.0 
-4.367769135859e-04 4.294820808906e-03 0.0 
0.0 0.0 0.0 
3.193174656975e-04 3.296409260119e-05 0.0 
3.296409260119e-05 6.201898528129e-03 0.0 
0.0 0.0 0.0 
4.804959099578e-04 -1.687292698904e-03 0.0 
-1.687292698904e-03 9.893092742423e-04 0.0 
0.0 0.0 0.0 
8.150590237754e-05 -2.465630688991e-04 0.0 
-2.465630688991e-04 5.532850882379e-03 0.0 
0.0 0.0 0.0 
-4.732120809846e-04 1.684443251400e-04 0.0 
1.684443251400e-04 9.421423387954e-03 0.0 
0.0 0.0 0.0 
8.970804715227e-04 -1.994565849533e-03 0.0 
-1.994565849533e-03 -9.045040694766e-06 0.0 
0.0 0.0 0.0 
3.621731005521e-04 -3.911419217305e-04 0.0 
-3.911419217305e-04 4.628914285348e-03 0.0 
0.0 0.0 0.0 
-6.433560558791e-04 1.344525463210e-04 0.0 
1.344525463210e-04 8.386406952571e-03 0.0 
0.0 0.0 0.0 
-1.887806194625e-04 -2.628939169272e-04 0.0 
-2.628939169272e-04 2.364503341825e-03 0.0 
0.0 0.0 0.0 
-1.716119746864e-04 -7.416747000143e-04 0.0 
-7.416747000143e-04 2.582124964892e-03 0.0 
0.0 0.0 0.0 
-2.452601543190e-06 1.767246698577e-03 0.0 
1.767246698577e-03 5.599834973915e-03 0.0 
0.0 0.0 0.0 
2.558054257886e-04 -2.401907396561e-04 0.0 
-2.401907396561e-04 5.238797948237e-03 0.0 
0.0 0.0 0.0 
-7.266907895355e-04 1.673847463368e-03 0.0 
1.673847463368e-03 5.635790049356e-03 0.0 
0.0 0.0 0.0 
1.978068705806e-04 1.870128191937e-03 0.0 
1.870128191937e-03 5.027114364730e-03 0.0 
0.0 0.0 0.0 
-5.161075198151e-04 2.828549265088e-04 0.0 
2.828549265088e-04 9.157750502552e-03 0.0 
0.0 0.0 0.0 
-5.181397287572e-04 1.407916308900e-04 0.0 
1.407916308900e-04 8.641925159928e-03 0.0 
0.0 0.0 0.0 
-6.014951119220e-04 2.230389977386e-04 0.0 
2.230389977386e-04 8.560845512311e-03 0.0 
0.0 0.0 0.0 
-1.594377651495e-04 -2.723725338970e-04 0.0 
-2.723725338970e-04 4.204558095072e-03 0.0 
0.0 0.0 0.0 
4.906977576431e-04 -2.991136388724e-06 0.0 
-2.991136388724e-06 5.613331412512e-03 0.0 
0.0 0.0 0.0 
6.274102294328e-04 -4.751031840509e-04 0.0 
-4.751031840509e-04 3.944560763890e-03 0.0 
0.0 0.0 0.0 
-5.998107247867e-04 9.237408720240e-05 0.0 
9.237408720240e-05 8.430149744875e-03 0.0 
0.0 0.0 0.0 
-4.385646366105e-04 1.147370663609e-03 0.0 
1.147370663609e-03 9.542573031571e-03 0.0 
0.0 0.0 0.0 
7.178763011688e-04 1.234996066310e-03 0.0 
1.234996066310e-03 5.794956213687e-03 0.0 
0.0 0.0 0.0 
3.671570328314e-04 -2.823789375025e-04 0.0 
-2.823789375025e-04 4.936294558398e-03 0.0 
0.0 0.0 0.0 
-4.125252243947e-04 2.666684859358e-04 0.0 
2.666684859358e-04 9.579809812752e-03 0.0 
0.0 0.0 0.0 
4.361359290339e-05 -9.682941218321e-04 0.0 
-9.682941218321e-04 2.641763921360e-03 0.0 
0.0 0.0 0.0 
-8.606157876945e-05 -8.698882426731e-04 0.0 
-8.698882426731e-04 2.629874787765e-03 0.0 
0.0 0.0 0.0 
-2.207269557786e-04 -5.351858002012e-04 0.0 
-5.351858002012e-04 1.636529409840e-03 0.0 
0.0 0.0 0.0 
5.889597686144e-04 -3.371263953678e-04 0.0 
-3.371263953678e-04 4.423109574716e-03 0.0 
0.0 0.0 0.0 
-1.171356027846e-04 -7.285687795816e-04 0.0 
-7.285687795816e-04 2.899415009588e-03 0.0 
0.0 0.0 0.0 
-5.748427924069e-04 1.852556255505e-04 0.0 
1.852556255505e-04 8.996713992564e-03 0.0 
0.0 0.0 0.0 
-6.227308239607e-04 1.885280142801e-04 0.0 
1.885280142801e-04 8.780967672008e-03 0.0 
0.0 0.0 0.0 
1.632652268306e-03 8.264623034495e-04 0.0 
8.264623034495e-04 2.449131684835e-03 0.0 
0.0 0.0 0.0 
-1.375171409531e-04 -9.374486236375e-04 0.0 
-9.374486236375e-04 2.339997507850e-03 0.0 
0.0 0.0 0.0 
2.077773692479e-03 1.561891192517e-03 0.0 
1.561891192517e-03 -4.244308948529e-04 0.0 
0.0 0.0 0.0 
-1.535956715017e-04 -7.896545184534e-04 0.0 
-7.896545184534e-04 2.589450420146e-03 0.0 
0.0 0.0 0.0 
-1.783482219264e-05 -9.023774415409e-04 0.0 
-9.023774415409e-04 2.634480107226e-03 0.0 
0.0 0.0 0.0 
-3.161754376995e-04 -5.399023773661e-04 0.0 
-5.399023773661e-04 1.828819212937e-03 0.0 
0.0 0.0 0.0 
6.190854144223e-04 2.965830781666e-05 0.0 
2.965830781666e-05 5.308555280643e-03 0.0 
0.0 0.0 0.0 
6.108907199414e-04 -9.641923623259e-04 0.0 
-9.641923623259e-04 2.596319528025e-03 0.0 
0.0 0.0 0.0 
-4.065068351023e-04 2.070277033458e-04 0.0 
2.070277033458e-04 9.793845890470e-03 0.0 
0.0 0.0 0.0 
8.363812507446e-04 -8.668347382465e-04 0.0 
-8.668347382465e-04 2.580869288418e-03 0.0 
0.0 0.0 0.0 
6.370469271293e-04 -3.531087988913e-04 0.0 
-3.531087988913e-04 4.281184161288e-03 0.0 
0.0 0.0 0.0 
6.769279168515e-04 -6.404290466280e-04 0.0 
-6.404290466280e-04 3.397314886450e-03 0.0 
0.0 0.0 0.0 
7.123527223649e-04 1.840759386927e-03 0.0 
1.840759386927e-03 4.112202914916e-03 0.0 
0.0 0.0 0.0 
-1.972321753023e-04 -4.635772375912e-04 0.0 
-4.635772375912e-04 1.815401795157e-03 0.0 
0.0 0.0 0.0 
4.379025368304e-04 5.453372011580e-05 0.0 
5.453372011580e-05 5.894705069247e-03 0.0 
0.0 0.0 0.0 
3.743800898013e-04 6.396721714113e-05 0.0 
6.396721714113e-05 6.172049130670e-03 0.0 
0.0 0.0 0.0 
-1.287230942204e-04 1.541291477826e-03 0.0 
1.541291477826e-03 6.765942626750e-03 0.0 
0.0 0.0 0.0 
1.632055995127e-04 -9.777806928763e-04 0.0 
-9.777806928763e-04 2.642515880459e-03 0.0 
0.0 0.0 0.0 
6.688151865035e-04 -4.908091497022e-04 0.0 
-4.908091497022e-04 3.830766797412e-03 0.0 
0.0 0.0 0.0 
-5.185451478579e-04 2.278052726932e-04 0.0 
2.278052726932e-04 8.991591702880e-03 0.0 
0.0 0.0 0.0 
-1.317558556335e-05 -8.207627410352e-04 0.0 
-8.207627410352e-04 2.947385870411e-03 0.0 
0.0 0.0 0.0 
1.772427072355e-05 2.133987116338e-03 0.0 
2.133987116338e-03 4.457586124812e-03 0.0 
0.0 0.0 0.0 
-2.139188986684e-04 -5.995407969871e-04 0.0 
-5.995407969871e-04 2.491276190425e-03 0.0 
0.0 0.0 0.0 
2.617751306770e-04 -1.896949647301e-03 0.0 
-1.896949647301e-03 6.933092054933e-04 0.0 
0.0 0.0 0.0 
2.116409793596e-04 -1.024447486362e-03 0.0 
-1.024447486362e-03 2.626905945278e-03 0.0 
0.0 0.0 0.0 
-2.668240162311e-04 -5.135631256193e-04 0.0 
-5.135631256193e-04 2.362931344080e-03 0.0 
0.0 0.0 0.0 
-1.804403046435e-04 -3.286712213596e-04 0.0 
-3.286712213596e-04 2.177553853801e-03 0.0 
0.0 0.0 0.0 
4.935053755442e-04 -7.183971301373e-04 0.0 
-7.183971301373e-04 3.410343964627e-03 0.0 
0.0 0.0 0.0 
4.945474955982e-04 -3.209802887618e-04 0.0 
-3.209802887618e-04 4.617380756877e-03 0.0 
0.0 0.0 0.0 
-1.230469469280e-04 1.491301982909e-03 0.0 
1.491301982909e-03 7.940609212009e-03 0.0 
0.0 0.0 0.0 
6.107539784805e-04 -2.138262459411e-05 0.0 
-2.138262459411e-05 -1.315341161801e-04 0.0 
0.0 0.0 0.0 
1.473640489052e-03 -6.332284774192e-04 0.0 
-6.332284774192e-04 1.681847521166e-03 0.0 
0.0 0.0 0.0 
1.040413102676e-03 -9.077578704293e-04 0.0 
-9.077578704293e-04 2.138570852188e-03 0.0 
0.0 0.0 0.0 
3.805586454180e-04 -1.000752555921e-03 0.0 
-1.000752555921e-03 2.622605663448e-03 0.0 
0.0 0.0 0.0 
-5.610715317871e-04 2.270644843213e-04 0.0 
2.270644843213e-04 8.776346314451e-03 0.0 
0.0 0.0 0.0 
6.585203711122e-04 -7.993951452404e-04 0.0 
-7.993951452404e-04 2.984127154424e-03 0.0 
0.0 0.0 0.0 
-2.322959641846e-04 -5.380605423264e-04 0.0 
-5.380605423264e-04 2.709734899957e-03 0.0 
0.0 0.0 0.0 
4.061350102813e-04 -1.024216209222e-03 0.0 
-1.024216209222e-03 2.606721740847e-03 0.0 
0.0 0.0 0.0 
-3.797571219809e-04 2.024664307323e-04 0.0 
2.024664307323e-04 9.625055278955e-03 0.0 
0.0 0.0 0.0 
-2.181920068915e-04 -4.942671775485e-04 0.0 
-4.942671775485e-04 2.702855137181e-03 0.0 
0.0 0.0 0.0 
-1.723683132037e-04 -2.907117370908e-04 0.0 
-2.907117370908e-04 1.037577793789e-03 0.0 
0.0 0.0 0.0 
-2.867308382021e-04 -4.242781198090e-04 0.0 
-4.242781198090e-04 1.458833498220e-03 0.0 
0.0 0.0 0.0 
3.748512774393e-04 -1.631443669572e-03 0.0 
-1.631443669572e-03 1.226956814163e-03 0.0 
0.0 0.0 0.0 
3.929037979300e-05 -1.062648793538e-03 0.0 
-1.062648793538e-03 2.345043584460e-03 0.0 
0.0 0.0 0.0 
1.249276899430e-03 -7.002680124689e-04 0.0 
-7.002680124689e-04 2.153589759510e-03 0.0 
0.0 0.0 0.0 
6.116375888008e-04 -9.655147311493e-04 0.0 
-9.655147311493e-04 2.598556190289e-03 0.0 
0.0 0.0 0.0 
-3.087078972803e-04 -1.673772961190e-03 0.0 
-1.673772961190e-03 9.060406254653e-04 0.0 
0.0 0.0 0.0 
-1.243008375065e-04 -3.430153927937e-04 0.0 
-3.430153927937e-04 1.446020117068e-03 0.0 
0.0 0.0 0.0 
-7.385777140320e-04 2.502370803425e-04 0.0 
2.502370803425e-04 8.494006232078e-03 0.0 
0.0 0.0 0.0 
-2.143188452809e-04 -4.602385105568e-04 0.0 
-4.602385105568e-04 2.354501661336e-03 0.0 
0.0 0.0 0.0 
6.977215754729e-04 4.293661513150e-06 0.0 
4.293661513150e-06 5.077610233138e-03 0.0 
0.0 0.0 0.0 
-4.270872916723e-05 1.513570871566e-03 0.0 
1.513570871566e-03 7.478708983855e-03 0.0 
0.0 0.0 0.0 
-8.560823115962e-04 7.278965430517e-04 0.0 
7.278965430517e-04 8.249146086435e-03 0.0 
0.0 0.0 0.0 
-4.177136809119e-04 4.833886083471e-04 0.0 
4.833886083471e-04 9.811380659242e-03 0.0 
0.0 0.0 0.0 
-1.659241148653e-04 1.469595771837e-03 0.0 
1.469595771837e-03 8.368831600964e-03 0.0 
0.0 0.0 0.0 
1.590166449658e-03 1.128595602489e-03 0.0 
1.128595602489e-03 2.430718795793e-03 0.0 
0.0 0.0 0.0 
-8.068496057967e-05 1.518969943234e-03 0.0 
1.518969943234e-03 7.113160893963e-03 0.0 
0.0 0.0 0.0 
-5.502484575759e-07 -2.054972792599e-03 0.0 
-2.054972792599e-03 4.780585068309e-04 0.0 
0.0 0.0 0.0 
2.863736816570e-04 -8.992767705247e-04 0.0 
-8.992767705247e-04 2.982139260529e-03 0.0 
0.0 0.0 0.0 
1.052863366283e-03 1.931559473955e-03 0.0 
1.931559473955e-03 2.668080461390e-03 0.0 
0.0 0.0 0.0 
1.891007788285e-03 -1.544124523512e-03 0.0 
-1.544124523512e-03 -1.266190433836e-03 0.0 
0.0 0.0 0.0 
-2.607054759916e-04 -1.965999534050e-03 0.0 
-1.965999534050e-03 4.098301270699e-04 0.0 
0.0 0.0 0.0 
-6.254121494942e-05 -7.589740945521e-04 0.0 
-7.589740945521e-04 2.903742128684e-03 0.0 
0.0 0.0 0.0 
7.877956170306e-04 -1.043786588962e-03 0.0 
-1.043786588962e-03 2.163900101128e-03 0.0 
0.0 0.0 0.0 
1.004147629346e-03 -8.795704187272e-04 0.0 
-8.795704187272e-04 2.183857343889e-03 0.0 
0.0 0.0 0.0 
-2.545772901054e-04 -4.209573895905e-04 0.0 
-4.209573895905e-04 2.555290924567e-03 0.0 
0.0 0.0 0.0 
8.487799736192e-04 -6.892039439678e-04 0.0 
-6.892039439678e-04 3.011009292185e-03 0.0 
0.0 0.0 0.0 
1.221106206529e-03 -8.662615464625e-04 0.0 
-8.662615464625e-04 1.724039386917e-03 0.0 
0.0 0.0 0.0 
1.606167392486e-03 -3.256584044219e-04 0.0 
-3.256584044219e-04 1.800441809309e-03 0.0 
0.0 0.0 0.0 
-5.233828818441e-05 -1.028542625419e-03 0.0 
-1.028542625419e-03 2.340479710764e-03 0.0 
0.0 0.0 0.0 
1.157615003265e-03 6.565647757111e-04 0.0 
6.565647757111e-04 4.375798081123e-03 0.0 
0.0 0.0 0.0 
-5.796064602015e-04 2.446639717877e-04 0.0 
2.446639717877e-04 9.162372573010e-03 0.0 
0.0 0.0 0.0 
1.792527271378e-03 -1.291069846480e-04 0.0 
-1.291069846480e-04 1.374233074899e-03 0.0 
0.0 0.0 0.0 
5.739209582898e-04 9.526940591209e-05 0.0 
9.526940591209e-05 5.597972161359e-03 0.0 
0.0 0.0 0.0 
4.568848569220e-04 -2.159428080482e-03 0.0 
-2.159428080482e-03 1.814923076937e-05 0.0 
0.0 0.0 0.0 
5.266555644570e-04 3.588937451995e-04 0.0 
3.588937451995e-04 6.124158777264e-03 0.0 
0.0 0.0 0.0 
1.038493018943e-03 -7.136059178425e-04 0.0 
-7.136059178425e-04 2.596329889495e-03 0.0 
0.0 0.0 0.0 
-1.730407475491e-04 1.484858527828e-03 0.0 
1.484858527828e-03 8.801759855207e-03 0.0 
0.0 0.0 0.0 
-6.251064953620e-04 1.251102886755e-03 0.0 
1.251102886755e-03 7.574701815155e-03 0.0 
0.0 0.0 0.0 
9.014859791900e-05 -1.798033547775e-03 0.0 
-1.798033547775e-03 1.033450515363e-03 0.0 
0.0 0.0 0.0 
-8.154503043871e-04 8.535547599898e-04 0.0 
8.535547599898e-04 8.283820368141e-03 0.0 
0.0 0.0 0.0 
-4.305352903822e-04 6.777548052580e-04 0.0 
6.777548052580e-04 9.820449751105e-03 0.0 
0.0 0.0 0.0 
1.204005145097e-03 -5.162090626946e-04 0.0 
-5.162090626946e-04 2.660337026809e-03 0.0 
0.0 0.0 0.0 
5.790318107757e-04 2.406097235128e-03 0.0 
2.406097235128e-03 2.973151166302e-03 0.0 
0.0 0.0 0.0 
-7.550971025528e-04 9.769726322554e-04 0.0 
9.769726322554e-04 8.291956858511e-03 0.0 
0.0 0.0 0.0 
-2.072601572970e-04 1.808531479874e-03 0.0 
1.808531479874e-03 5.319229154761e-03 0.0 
0.0 0.0 0.0 
-3.267154976897e-04 -1.819903273263e-03 0.0 
-1.819903273263e-03 9.300010220219e-04 0.0 
0.0 0.0 0.0 
-2.004583313467e-04 6.049349715755e-04 0.0 
6.049349715755e-04 1.048670807329e-02 0.0 
0.0 0.0 0.0 
-6.513614495903e-04 -1.402615786614e-03 0.0 
-1.402615786614e-03 1.161878686591e-03 0.0 
0.0 0.0 0.0 
5.869668912870e-04 1.048746727416e-03 0.0 
1.048746727416e-03 6.418910395793e-03 0.0 
0.0 0.0 0.0 
-2.801691687350e-04 2.872557108529e-04 0.0 
2.872557108529e-04 1.014699840478e-02 0.0 
0.0 0.0 0.0 
1.086839156127e-03 5.146963795086e-04 0.0 
5.146963795086e-04 4.542678729793e-03 0.0 
0.0 0.0 0.0 
-5.564360887654e-04 1.810140585559e-04 0.0 
1.810140585559e-04 8.598546648260e-03 0.0 
0.0 0.0 0.0 
-5.077431101318e-04 3.717090651883e-04 0.0 
3.717090651883e-04 9.679589690378e-03 0.0 
0.0 0.0 0.0 
1.396140987710e-03 -5.885820208355e-04 0.0 
-5.885820208355e-04 1.844546911139e-03 0.0 
0.0 0.0 0.0 
1.485992673469e-03 8.133031177172e-04 0.0 
8.133031177172e-04 3.072508069972e-03 0.0 
0.0 0.0 0.0 
-3.166269418136e-04 5.425908862899e-04 0.0 
5.425908862899e-04 1.014733382599e-02 0.0 
0.0 0.0 0.0 
4.494436291516e-04 -2.115973109641e-04 0.0 
-2.115973109641e-04 5.069852684711e-03 0.0 
0.0 0.0 0.0 
-5.796750320176e-04 3.121072664085e-04 0.0 
3.121072664085e-04 9.319004141876e-03 0.0 
0.0 0.0 0.0 
1.128143577678e-03 1.759874074596e-04 0.0 
1.759874074596e-04 4.112951526390e-03 0.0 
0.0 0.0 0.0 
2.544326274612e-04 -2.054183380249e-03 0.0 
-2.054183380249e-03 4.763560313690e-04 0.0 
0.0 0.0 0.0 
-5.746424838322e-04 3.874144907661e-04 0.0 
3.874144907661e-04 9.465101559288e-03 0.0 
0.0 0.0 0.0 
2.267277997570e-06 1.663624191991e-03 0.0 
1.663624191991e-03 8.607050566300e-03 0.0 
0.0 0.0 0.0 
4.228161112934e-04 1.699366187804e-04 0.0 
1.699366187804e-04 6.147930894807e-03 0.0 
0.0 0.0 0.0 
4.584326789137e-04 -8.600968770768e-04 0.0 
-8.600968770768e-04 2.975167022505e-03 0.0 
0.0 0.0 0.0 
-6.084875658853e-04 1.340758657826e-04 0.0 
1.340758657826e-04 8.603027048827e-03 0.0 
0.0 0.0 0.0 
-5.902670056362e-04 1.752357686539e-04 0.0 
1.752357686539e-04 8.381559326522e-03 0.0 
0.0 0.0 0.0 
8.115610775208e-04 -8.500584583456e-04 0.0 
-8.500584583456e-04 2.618615879582e-03 0.0 
0.0 0.0 0.0 
5.854526173807e-04 -2.297951255490e-04 0.0 
-2.297951255490e-04 4.745027140661e-03 0.0 
0.0 0.0 0.0 
6.546570410986e-04 -1.201161328925e-04 0.0 
-1.201161328925e-04 4.896098951184e-03 0.0 
0.0 0.0 0.0 
-1.378630799264e-04 -3.818042717018e-04 0.0 
-3.818042717018e-04 1.267509711125e-03 0.0 
0.0 0.0 0.0 
2.169404714151e-03 1.777660657348e-03 0.0 
1.777660657348e-03 -1.235389075138e-03 0.0 
0.0 0.0 0.0 
1.797091567889e-03 2.273527016530e-04 0.0 
2.273527016530e-04 1.666418540353e-03 0.0 
0.0 0.0 0.0 
1.608956392409e-03 -4.491942351205e-04 0.0 
-4.491942351205e-04 1.429217015035e-03 0.0 
0.0 0.0 0.0 
2.441582995365e-04 1.973108252762e-03 0.0 
1.973108252762e-03 4.399168262333e-03 0.0 
0.0 0.0 0.0 
-3.070969899467e-04 4.808158723654e-04 0.0 
4.808158723654e-04 1.036177497582e-02 0.0 
0.0 0.0 0.0 
-4.234055694947e-04 1.046061938421e-03 0.0 
1.046061938421e-03 9.503993064338e-03 0.0 
0.0 0.0 0.0 
-3.236317742781e-04 2.427200575295e-04 0.0 
2.427200575295e-04 1.015054964748e-02 0.0 
0.0 0.0 0.0 
-7.974119344072e-04 1.472484471395e-03 0.0 
1.472484471395e-03 6.051371293377e-03 0.0 
0.0 0.0 0.0 
-5.286217480626e-04 6.010674108137e-04 0.0 
6.010674108137e-04 9.489136290389e-03 0.0 
0.0 0.0 0.0 
4.549672277050e-04 -3.137104772922e-04 0.0 
-3.137104772922e-04 4.758537163583e-03 0.0 
0.0 0.0 0.0 
-2.870365945732e-04 4.424506022905e-04 0.0 
4.424506022905e-04 1.023195081292e-02 0.0 
0.0 0.0 0.0 
-6.381725012019e-04 4.000769528459e-04 0.0 
4.000769528459e-04 9.246478628238e-03 0.0 
0.0 0.0 0.0 
4.632938330580e-04 -8.702282140273e-04 0.0 
-8.702282140273e-04 2.996281899366e-03 0.0 
0.0 0.0 0.0 
1.882896911692e-03 5.255864049448e-04 0.0 
5.255864049448e-04 1.371363023812e-03 0.0 
0.0 0.0 0.0 
-5.004189967045e-04 4.191167105627e-04 0.0 
4.191167105627e-04 9.461154484617e-03 0.0 
0.0 0.0 0.0 
-4.167785231540e-04 4.280162715606e-04 0.0 
4.280162715606e-04 1.002939778831e-02 0.0 
0.0 0.0 0.0 
-4.540935786194e-04 3.382312678457e-04 0.0 
3.382312678457e-04 9.526879471660e-03 0.0 
0.0 0.0 0.0 
-5.106263337874e-04 3.471966060646e-04 0.0 
3.471966060646e-04 9.314687503522e-03 0.0 
0.0 0.0 0.0 
4.251791928040e-04 -3.252349706355e-05 0.0 
-3.252349706355e-05 5.707184939926e-03 0.0 
0.0 0.0 0.0 
5.998088756201e-04 1.143715088767e-03 0.0 
1.143715088767e-03 6.346249689281e-03 0.0 
0.0 0.0 0.0 
5.580040744646e-04 -2.005380195503e-05 0.0 
-2.005380195503e-05 5.393431743030e-03 0.0 
0.0 0.0 0.0 
5.204487298052e-04 -4.438458809771e-04 0.0 
-4.438458809771e-04 4.178638313974e-03 0.0 
0.0 0.0 0.0 
-9.131855286717e-04 7.471698494394e-04 0.0 
7.471698494394e-04 6.588559362598e-03 0.0 
0.0 0.0 0.0 
9.964875272106e-04 7.009389685372e-04 0.0 
7.009389685372e-04 4.948825445085e-03 0.0 
0.0 0.0 0.0 
-6.475986214420e-04 6.348140629222e-04 0.0 
6.348140629222e-04 9.016625927412e-03 0.0 
0.0 0.0 0.0 
-2.506681387879e-04 -3.819404171393e-04 0.0 
-3.819404171393e-04 2.186005531069e-03 0.0 
0.0 0.0 0.0 
1.682680931577e-03 -9.259607048529e-05 0.0 
-9.259607048529e-05 1.718699190246e-03 0.0 
0.0 0.0 0.0 
1.530018525960e-03 9.944988762004e-05 0.0 
9.944988762004e-05 2.625920474159e-03 0.0 
0.0 0.0 0.0 
1.340978851955e-03 8.113325832472e-04 0.0 
8.113325832472e-04 3.674328917975e-03 0.0 
0.0 0.0 0.0 
2.581761042666e-03 -2.843393307201e-04 0.0 
-2.843393307201e-04 -2.240524145159e-03 0.0 
0.0 0.0 0.0 
1.825956033728e-03 1.691127217407e-04 0.0 
1.691127217407e-04 1.431829447370e-03 0.0 
0.0 0.0 0.0 
1.194153141551e-03 8.185629662471e-04 0.0 
8.185629662471e-04 4.259694814501e-03 0.0 
0.0 0.0 0.0 
-8.290834381169e-04 1.042522090049e-03 0.0 
1.042522090049e-03 6.786136081895e-03 0.0 
0.0 0.0 0.0 
5.052176488793e-04 -7.172353024755e-04 0.0 
-7.172353024755e-04 3.354389053416e-03 0.0 
0.0 0.0 0.0 
-6.916363428028e-04 3.284559844514e-04 0.0 
3.284559844514e-04 8.879129712571e-03 0.0 
0.0 0.0 0.0 
-5.912429098084e-04 8.504880655468e-05 0.0 
8.504880655468e-05 7.762573661016e-03 0.0 
0.0 0.0 0.0 
-1.178830979809e-03 2.359098620466e-03 0.0 
2.359098620466e-03 1.625458097136e-03 0.0 
0.0 0.0 0.0 
5.006194333133e-04 -5.726945711046e-04 0.0 
-5.726945711046e-04 3.844259768816e-03 0.0 
0.0 0.0 0.0 
1.044207964296e-03 5.454616765648e-04 0.0 
5.454616765648e-04 4.723868143158e-03 0.0 
0.0 0.0 0.0 
-3.673096201521e-04 1.012696529262e-03 0.0 
1.012696529262e-03 9.764968865215e-03 0.0 
0.0 0.0 0.0 
1.602090450762e-03 8.273047309386e-04 0.0 
8.273047309386e-04 2.517380819323e-03 0.0 
0.0 0.0 0.0 
5.249374917331e-04 -5.769320333609e-04 0.0 
-5.769320333609e-04 3.756740958316e-03 0.0 
0.0 0.0 0.0 
-6.336929252477e-04 2.508508416309e-04 0.0 
2.508508416309e-04 8.946830713716e-03 0.0 
0.0 0.0 0.0 
-1.427348706656e-03 2.072437152144e-03 0.0 
2.072437152144e-03 3.262583227690e-03 0.0 
0.0 0.0 0.0 
1.119858487171e-03 6.772752527339e-04 0.0 
6.772752527339e-04 4.518000283018e-03 0.0 
0.0 0.0 0.0 
1.459613421079e-03 5.841041933686e-04 0.0 
5.841041933686e-04 3.183840478687e-03 0.0 
0.0 0.0 0.0 
-8.908613353491e-04 1.031554928862e-03 0.0 
1.031554928862e-03 7.092033791233e-03 0.0 
0.0 0.0 0.0 
5.327840620601e-04 -2.148463871021e-04 0.0 
-2.148463871021e-04 4.911092958754e-03 0.0 
0.0 0.0 0.0 
1.361120371410e-03 -2.017155175783e-03 0.0 
-2.017155175783e-03 -1.203266433400e-03 0.0 
0.0 0.0 0.0 
5.891618326175e-04 -9.960233559471e-05 0.0 
-9.960233559471e-05 5.094034859780e-03 0.0 
0.0 0.0 0.0 
5.603166248285e-04 2.190853156401e-04 0.0 
2.190853156401e-04 5.834055174310e-03 0.0 
0.0 0.0 0.0 
1.162809388537e-03 8.262953266643e-04 0.0 
8.262953266643e-04 4.350313515510e-03 0.0 
0.0 0.0 0.0 
-5.181594754815e-04 3.002958124998e-04 0.0 
3.002958124998e-04 9.531640916736e-03 0.0 
0.0 0.0 0.0 
2.387346649220e-04 1.487110311072e-03 0.0 
1.487110311072e-03 6.885312302467e-03 0.0 
0.0 0.0 0.0 
4.923399863710e-04 1.198200672434e-04 0.0 
1.198200672434e-04 5.846913967324e-03 0.0 
0.0 0.0 0.0 
-1.017602892769e-03 1.190522822771e-03 0.0 
1.190522822771e-03 4.399727891293e-03 0.0 
0.0 0.0 0.0 
-6.379956465251e-04 3.217134010220e-04 0.0 
3.217134010220e-04 9.102090683783e-03 0.0 
0.0 0.0 0.0 
4.391103465979e-04 1.333054566625e-03 0.0 
1.333054566625e-03 6.785788206282e-03 0.0 
0.0 0.0 0.0 
-4.390410540978e-04 4.076077817454e-04 0.0 
4.076077817454e-04 9.675106904814e-03 0.0 
0.0 0.0 0.0 
1.311245409864e-03 8.179640859224e-04 0.0 
8.179640859224e-04 3.758126827692e-03 0.0 
0.0 0.0 0.0 
1.761354232963e-03 5.246528271998e-04 0.0 
5.246528271998e-04 1.905897153946e-03 0.0 
0.0 0.0 0.0 
5.143416801068e-05 -4.432223343447e-04 0.0 
-4.432223343447e-04 4.210794767628e-03 0.0 
0.0 0.0 0.0 
2.537608646991e-03 6.959138849515e-04 0.0 
6.959138849515e-04 -4.287794127095e-03 0.0 
0.0 0.0 0.0 
-3.761703968034e-04 3.914401852881e-04 0.0 
3.914401852881e-04 9.884280332461e-03 0.0 
0.0 0.0 0.0 
-2.388367930269e-04 -3.058810680449e-04 0.0 
-3.058810680449e-04 2.370256925810e-03 0.0 
0.0 0.0 0.0 
-9.113368948813e-04 8.734704495497e-04 0.0 
8.734704495497e-04 4.885148852532e-03 0.0 
0.0 0.0 0.0 
1.138411283439e-04 1.513476871856e-03 0.0 
1.513476871856e-03 6.987219115711e-03 0.0 
0.0 0.0 0.0 
-2.510641451959e-04 3.489872751672e-04 0.0 
3.489872751672e-04 1.030363373586e-02 0.0 
0.0 0.0 0.0 
7.947014408445e-04 -2.350396013399e-03 0.0 
-2.350396013399e-03 -8.265452275749e-04 0.0 
0.0 0.0 0.0 
-1.687776045017e-04 1.656641170502e-03 0.0 
1.656641170502e-03 6.125706593644e-03 0.0 
0.0 0.0 0.0 
-5.593644846310e-04 4.278591225851e-04 0.0 
4.278591225851e-04 9.243032727478e-03 0.0 
0.0 0.0 0.0 
2.289224624707e-04 -6.655254063592e-04 0.0 
-6.655254063592e-04 3.703629047915e-03 0.0 
0.0 0.0 0.0 
2.271235349699e-03 -1.076756684313e-03 0.0 
-1.076756684313e-03 -2.113557661247e-03 0.0 
0.0 0.0 0.0 
6.306740481028e-04 2.559785405689e-03 0.0 
2.559785405689e-03 2.099382865819e-03 0.0 
0.0 0.0 0.0 
-1.904401582377e-04 -2.044082535980e-03 0.0 
-2.044082535980e-03 4.223682544953e-04 0.0 
0.0 0.0 0.0 
1.274936032727e-03 -2.000209994896e-03 0.0 
-2.000209994896e-03 -8.717847713239e-04 0.0 
0.0 0.0 0.0 
5.609881934081e-04 -2.234263161223e-03 0.0 
-2.234263161223e-03 -2.309062395548e-04 0.0 
0.0 0.0 0.0 
1.456752579128e-03 8.178383832154e-04 0.0 
8.178383832154e-04 3.149033577699e-03 0.0 
0.0 0.0 0.0 
-1.460455200573e-04 8.779723544641e-04 0.0 
8.779723544641e-04 1.069815374498e-02 0.0 
0.0 0.0 0.0 
-8.743786435926e-04 6.884039697639e-04 0.0 
6.884039697639e-04 5.353430294683e-03 0.0 
0.0 0.0 0.0 
3.068907663613e-04 -4.405970643648e-05 0.0 
-4.405970643648e-05 6.010008044854e-03 0.0 
0.0 0.0 0.0 
1.832239735475e-03 1.274320952828e-03 0.0 
1.274320952828e-03 1.066551305862e-03 0.0 
0.0 0.0 0.0 
-6.979544329252e-04 4.124995871920e-04 0.0 
4.124995871920e-04 9.024693143658e-03 0.0 
0.0 0.0 0.0 
2.833594527680e-03 5.614072353093e-04 0.0 
5.614072353093e-04 -3.833629828912e-03 0.0 
0.0 0.0 0.0 
4.624946399274e-04 2.489585592651e-04 0.0 
2.489585592651e-04 6.117934147336e-03 0.0 
0.0 0.0 0.0 
1.951892816472e-04 -2.339520989279e-03 0.0 
-2.339520989279e-03 -2.201289675113e-04 0.0 
0.0 0.0 0.0 
-2.503775846212e-04 -3.292237411154e-04 0.0 
-3.292237411154e-04 2.763682545358e-03 0.0 
0.0 0.0 0.0 
1.024427625509e-03 9.857613527180e-04 0.0 
9.857613527180e-04 4.810125035284e-03 0.0 
0.0 0.0 0.0 
1.185956842890e-03 -6.619854562342e-04 0.0 
-6.619854562342e-04 2.266365765893e-03 0.0 
0.0 0.0 0.0 
5.930307144539e-04 1.238298694270e-03 0.0 
1.238298694270e-03 6.313137685303e-03 0.0 
0.0 0.0 0.0 
-1.280118657787e-04 2.264556166195e-03 0.0 
2.264556166195e-03 4.230205353778e-03 0.0 
0.0 0.0 0.0 
-6.775182365499e-04 6.041990162884e-04 0.0 
6.041990162884e-04 9.259044760685e-03 0.0 
0.0 0.0 0.0 
5.778028422738e-04 1.147105021781e-03 0.0 
1.147105021781e-03 6.403920280778e-03 0.0 
0.0 0.0 0.0 
-5.649212341877e-04 3.529865263882e-04 0.0 
3.529865263882e-04 9.098413799548e-03 0.0 
0.0 0.0 0.0 
-4.449160658309e-04 1.004495136530e-03 0.0 
1.004495136530e-03 9.766636230033e-03 0.0 
0.0 0.0 0.0 
-5.633192045538e-04 4.699464687182e-04 0.0 
4.699464687182e-04 9.598975911829e-03 0.0 
0.0 0.0 0.0 
-5.439923106910e-04 5.589093170676e-04 0.0 
5.589093170676e-04 9.719817434425e-03 0.0 
0.0 0.0 0.0 
1.724514458764e-03 2.714737978770e-03 0.0 
2.714737978770e-03 -1.644209848942e-03 0.0 
0.0 0.0 0.0 
2.741673844380e-04 -1.115430682500e-04 0.0 
-1.115430682500e-04 5.830495295164e-03 0.0 
0.0 0.0 0.0 
-5.479590669500e-04 5.107393280399e-04 0.0 
5.107393280399e-04 9.374408463339e-03 0.0 
0.0 0.0 0.0 
1.221469417259e-03 1.546611259577e-03 0.0 
1.546611259577e-03 3.045602710920e-03 0.0 
0.0 0.0 0.0 
-8.749546221070e-04 5.361021937479e-04 0.0 
5.361021937479e-04 5.819449700618e-03 0.0 
0.0 0.0 0.0 
4.333418374036e-04 1.182248847615e-03 0.0 
1.182248847615e-03 6.868353107980e-03 0.0 
0.0 0.0 0.0 
2.508070390035e-03 1.264962785602e-03 0.0 
1.264962785602e-03 -2.155229164702e-03 0.0 
0.0 0.0 0.0 
-2.153060562740e-04 -3.741691204708e-04 0.0 
-3.741691204708e-04 2.548315849474e-03 0.0 
0.0 0.0 0.0 
7.169950368116e-04 1.235161817462e-03 0.0 
1.235161817462e-03 5.797296569342e-03 0.0 
0.0 0.0 0.0 
1.068036634311e-05 -1.620671948971e-05 0.0 
-1.620671948971e-05 1.538799543196e-03 0.0 
0.0 0.0 0.0 
4.639509189794e-04 1.814721122271e-03 0.0 
1.814721122271e-03 4.759133681569e-03 0.0 
0.0 0.0 0.0 
1.006442460001e-03 8.426099651728e-04 0.0 
8.426099651728e-04 4.929862996784e-03 0.0 
0.0 0.0 0.0 
-4.332695679592e-04 6.252169019629e-04 0.0 
6.252169019629e-04 1.004223068327e-02 0.0 
0.0 0.0 0.0 
-3.942248675692e-04 7.302177664097e-04 0.0 
7.302177664097e-04 1.014228034647e-02 0.0 
0.0 0.0 0.0 
1.041192925311e-03 8.352959404562e-04 0.0 
8.352959404562e-04 4.831940642597e-03 0.0 
0.0 0.0 0.0 
-4.908578241756e-04 4.509385071621e-04 0.0 
4.509385071621e-04 9.815507890825e-03 0.0 
0.0 0.0 0.0 
1.569696127558e-03 1.521983661931e-03 0.0 
1.521983661931e-03 1.761251616296e-03 0.0 
0.0 0.0 0.0 
-1.489200769933e-04 1.471592710341e-03 0.0 
1.471592710341e-03 7.586467889658e-03 0.0 
0.0 0.0 0.0 
-8.747066342835e-04 4.233061551962e-04 0.0 
4.233061551962e-04 6.280489998037e-03 0.0 
0.0 0.0 0.0 
-3.236962849074e-04 1.273911395795e-03 0.0 
1.273911395795e-03 9.177420196460e-03 0.0 
0.0 0.0 0.0 
-8.651089709107e-04 3.547266763787e-04 0.0 
3.547266763787e-04 6.739531207366e-03 0.0 
0.0 0.0 0.0 
-8.426454853704e-04 3.247512573505e-04 0.0 
3.247512573505e-04 6.967374719330e-03 0.0 
0.0 0.0 0.0 
1.569008051957e-03 1.105521941868e-03 0.0 
1.105521941868e-03 2.408552411328e-03 0.0 
0.0 0.0 0.0 
-8.379092791470e-04 3.179608660005e-04 0.0 
3.179608660005e-04 7.196323660221e-03 0.0 
0.0 0.0 0.0 
6.733149288161e-04 1.593885022346e-03 0.0 
1.593885022346e-03 4.951506236222e-03 0.0 
0.0 0.0 0.0 
9.843796456428e-04 1.821523097506e-03 0.0 
1.821523097506e-03 3.422488228898e-03 0.0 
0.0 0.0 0.0 
1.678596687928e-03 2.466469880825e-04 0.0 
2.466469880825e-04 2.099153583975e-03 0.0 
0.0 0.0 0.0 
2.361612864259e-03 -1.126381939931e-03 0.0 
-1.126381939931e-03 -2.305411784859e-03 0.0 
0.0 0.0 0.0 
1.749939386856e-03 8.476686249043e-04 0.0 
8.476686249043e-04 1.856933202862e-03 0.0 
0.0 0.0 0.0 
-3.504265058040e-04 4.657717985176e-04 0.0 
4.657717985176e-04 1.002466972264e-02 0.0 
0.0 0.0 0.0 
-3.479000211521e-04 1.172031220095e-03 0.0 
1.172031220095e-03 9.541273781144e-03 0.0 
0.0 0.0 0.0 
3.281151859706e-04 -1.885751412706e-04 0.0 
-1.885751412706e-04 5.378802960472e-03 0.0 
0.0 0.0 0.0 
5.851473108138e-04 1.238898393745e-03 0.0 
1.238898393745e-03 6.332161735392e-03 0.0 
0.0 0.0 0.0 
1.404310879667e-03 -4.511097695416e-04 0.0 
-4.511097695416e-04 2.232114855438e-03 0.0 
0.0 0.0 0.0 
-4.615604331238e-04 5.856636941129e-04 0.0 
5.856636941129e-04 9.716291968088e-03 0.0 
0.0 0.0 0.0 
1.728003699262e-03 5.505711437394e-04 0.0 
5.505711437394e-04 2.053452712530e-03 0.0 
0.0 0.0 0.0 
1.813134530555e-04 -9.708434543996e-05 0.0 
-9.708434543996e-05 6.115406307832e-03 0.0 
0.0 0.0 0.0 
-4.840506070308e-04 4.990156507819e-04 0.0 
4.990156507819e-04 9.595281574062e-03 0.0 
0.0 0.0 0.0 
-6.139201774640e-04 5.814020953298e-04 0.0 
5.814020953298e-04 9.491911010881e-03 0.0 
0.0 0.0 0.0 
1.276293219804e-03 6.410019302972e-04 0.0 
6.410019302972e-04 3.926986282934e-03 0.0 
0.0 0.0 0.0 
1.699994828311e-03 1.178594911203e-03 0.0 
1.178594911203e-03 1.753221782531e-03 0.0 
0.0 0.0 0.0 
-1.175304932596e-04 1.475679444525e-03 0.0 
1.475679444525e-03 7.941653421358e-03 0.0 
0.0 0.0 0.0 
-6.106709292922e-04 1.203718806789e-03 0.0 
1.203718806789e-03 7.581049254859e-03 0.0 
0.0 0.0 0.0 
1.830203788858e-03 -1.884040849356e-03 0.0 
-1.884040849356e-03 -2.181142742802e-03 0.0 
0.0 0.0 0.0 
2.601736887039e-03 4.531906361089e-04 0.0 
4.531906361089e-04 -2.025839166863e-03 0.0 
0.0 0.0 0.0 
6.261267242080e-05 2.235772107804e-03 0.0 
2.235772107804e-03 3.782656080658e-03 0.0 
0.0 0.0 0.0 
-2.569078817718e-04 1.616436225256e-03 0.0 
1.616436225256e-03 6.131753203302e-03 0.0 
0.0 0.0 0.0 
1.039907903266e-04 -8.032679273191e-05 0.0 
-8.032679273191e-05 6.390919282653e-03 0.0 
0.0 0.0 0.0 
-6.304493106362e-04 4.872060615629e-04 0.0 
4.872060615629e-04 9.377494888176e-03 0.0 
0.0 0.0 0.0 
1.780945139382e-03 8.518448104686e-04 0.0 
8.518448104686e-04 1.802747813402e-03 0.0 
0.0 0.0 0.0 
-2.379721986739e-04 1.510070424087e-03 0.0 
1.510070424087e-03 6.916919840994e-03 0.0 
0.0 0.0 0.0 
9.562996621286e-04 7.221776935825e-04 0.0 
7.221776935825e-04 5.106206428129e-03 0.0 
0.0 0.0 0.0 
-4.389563094894e-04 3.538715759408e-04 0.0 
3.538715759408e-04 9.889117061376e-03 0.0 
0.0 0.0 0.0 
-1.960347712053e-04 1.474055879582e-03 0.0 
1.474055879582e-03 8.368438822479e-03 0.0 
0.0 0.0 0.0 
-6.655570629223e-04 4.389312581992e-04 0.0 
4.389312581992e-04 8.796173613101e-03 0.0 
0.0 0.0 0.0 
8.152357520985e-04 3.557539948395e-04 0.0 
3.557539948395e-04 5.267546189852e-03 0.0 
0.0 0.0 0.0 
1.608826975276e-03 5.527629182649e-04 0.0 
5.527629182649e-04 2.558684962674e-03 0.0 
0.0 0.0 0.0 
9.206595173290e-04 5.778402646851e-04 0.0 
5.778402646851e-04 5.119603930950e-03 0.0 
0.0 0.0 0.0 
2.950636919776e-04 1.849055938655e-03 0.0 
1.849055938655e-03 4.754946025912e-03 0.0 
0.0 0.0 0.0 
-3.891876831814e-04 5.119903380241e-04 0.0 
5.119903380241e-04 1.015065893972e-02 0.0 
0.0 0.0 0.0 
-2.344972457101e-04 1.460644985617e-03 0.0 
1.460644985617e-03 8.803299511413e-03 0.0 
0.0 0.0 0.0 
1.427208155790e-03 6.079149063644e-04 0.0 
6.079149063644e-04 3.322753306071e-03 0.0 
0.0 0.0 0.0 
2.727617471111e-03 5.244201261025e-04 0.0 
5.244201261025e-04 -2.871858139133e-03 0.0 
0.0 0.0 0.0 
2.998306855189e-04 1.499112701150e-03 0.0 
1.499112701150e-03 6.793129926780e-03 0.0 
0.0 0.0 0.0 
4.736690220331e-04 1.696289077281e-03 0.0 
1.696289077281e-03 5.137067201333e-03 0.0 
0.0 0.0 0.0 
1.720618337478e-03 1.212604151175e-03 0.0 
1.212604151175e-03 1.808577967313e-03 0.0 
0.0 0.0 0.0 
1.310193759174e-03 6.185002426249e-04 0.0 
6.185002426249e-04 3.787954269180e-03 0.0 
0.0 0.0 0.0 
7.519495096973e-04 7.235297152897e-05 0.0 
7.235297152897e-05 5.009493066293e-03 0.0 
0.0 0.0 0.0 
2.628128163360e-03 -4.157705189867e-04 0.0 
-4.157705189867e-04 -2.718922808293e-03 0.0 
0.0 0.0 0.0 
1.576718188396e-03 5.776153306817e-04 0.0 
5.776153306817e-04 2.700219326112e-03 0.0 
0.0 0.0 0.0 
-6.955101813942e-04 9.475247817956e-04 0.0 
9.475247817956e-04 8.295640255779e-03 0.0 
0.0 0.0 0.0 
5.680524648621e-05 -1.419331416196e-04 0.0 
-1.419331416196e-04 6.399772094672e-03 0.0 
0.0 0.0 0.0 
-6.275827610077e-04 1.067769425234e-03 0.0 
1.067769425234e-03 8.277098756133e-03 0.0 
0.0 0.0 0.0 
1.909992651652e-04 1.533652230560e-03 0.0 
1.533652230560e-03 6.878794658682e-03 0.0 
0.0 0.0 0.0 
-7.450819348759e-04 8.240146905866e-04 0.0 
8.240146905866e-04 8.287406955000e-03 0.0 
0.0 0.0 0.0 
-7.941732731437e-04 5.842373909424e-04 0.0 
5.842373909424e-04 8.189318192135e-03 0.0 
0.0 0.0 0.0 
-4.960364345807e-04 1.315528376573e-03 0.0 
1.315528376573e-03 7.483080876762e-03 0.0 
0.0 0.0 0.0 
7.306896530439e-04 1.127603501663e-03 0.0 
1.127603501663e-03 5.852134754301e-03 0.0 
0.0 0.0 0.0 
2.946339469918e-04 -1.937031288447e-04 0.0 
-1.937031288447e-04 5.547138346409e-03 0.0 
0.0 0.0 0.0 
-6.075734722951e-04 5.218127526855e-04 0.0 
5.218127526855e-04 9.147973738240e-03 0.0 
0.0 0.0 0.0 
-3.221393302378e-04 7.502321343161e-04 0.0 
7.502321343161e-04 1.013948750836e-02 0.0 
0.0 0.0 0.0 
-7.785890645234e-04 7.014484665289e-04 0.0 
7.014484665289e-04 8.252394831415e-03 0.0 
0.0 0.0 0.0 
2.085229112664e-03 9.482256130616e-04 0.0 
9.482256130616e-04 4.132301031459e-04 0.0 
0.0 0.0 0.0 
1.994260039713e-04 1.479774925068e-03 0.0 
1.479774925068e-03 7.300184149076e-03 0.0 
0.0 0.0 0.0 
-3.412058491720e-04 4.029496103667e-04 0.0 
4.029496103667e-04 1.023669158773e-02 0.0 
0.0 0.0 0.0 
7.682814921650e-04 1.796091613468e-03 0.0 
1.796091613468e-03 3.861775396356e-03 0.0 
0.0 0.0 0.0 
5.348405524337e-04 1.783663146525e-03 0.0 
1.783663146525e-03 4.515281926772e-03 0.0 
0.0 0.0 0.0 
1.931871938116e-03 8.910114978078e-04 0.0 
8.910114978078e-04 1.125935271356e-03 0.0 
0.0 0.0 0.0 
-5.909805387883e-04 6.172203664475e-04 0.0 
6.172203664475e-04 9.256938807382e-03 0.0 
0.0 0.0 0.0 
-5.458126900660e-04 1.721506435513e-03 0.0 
1.721506435513e-03 5.383662528218e-03 0.0 
0.0 0.0 0.0 
7.107853169899e-04 1.569866565311e-03 0.0 
1.569866565311e-03 4.800876423819e-03 0.0 
0.0 0.0 0.0 
-4.780967140368e-04 1.852973816955e-03 0.0 
1.852973816955e-03 5.365471772945e-03 0.0 
0.0 0.0 0.0 
8.730858972699e-04 1.122740809664e-03 0.0 
1.122740809664e-03 5.296985637726e-03 0.0 
0.0 0.0 0.0 
1.382223466015e-04 1.503545533966e-03 0.0 
1.503545533966e-03 7.713391554766e-03 0.0 
0.0 0.0 0.0 
1.916354543128e-03 5.001662156716e-04 0.0 
5.001662156716e-04 1.224641284715e-03 0.0 
0.0 0.0 0.0 
2.383419703038e-03 -5.851585611013e-04 0.0 
-5.851585611013e-04 -4.079615421755e-03 0.0 
0.0 0.0 0.0 
-3.427402918403e-04 8.871934529339e-04 0.0 
8.871934529339e-04 9.982778938158e-03 0.0 
0.0 0.0 0.0 
-6.358837484328e-04 1.527586652843e-03 0.0 
1.527586652843e-03 5.856179456688e-03 0.0 
0.0 0.0 0.0 
1.498590806416e-03 -1.781083217555e-04 0.0 
-1.781083217555e-04 2.388588533703e-03 0.0 
0.0 0.0 0.0 
2.689100160183e-04 1.510357527965e-03 0.0 
1.510357527965e-03 7.230505791954e-03 0.0 
0.0 0.0 0.0 
-6.927104486678e-04 5.050212734366e-04 0.0 
5.050212734366e-04 9.150270374598e-03 0.0 
0.0 0.0 0.0 
4.060743673149e-04 -2.057810316845e-04 0.0 
-2.057810316845e-04 5.234047309551e-03 0.0 
0.0 0.0 0.0 
1.275917830870e-03 1.742030825076e-03 0.0 
1.742030825076e-03 2.695315413364e-03 0.0 
0.0 0.0 0.0 
2.141240742416e-03 -2.683519279152e-04 0.0 
-2.683519279152e-04 -4.359670818577e-03 0.0 
0.0 0.0 0.0 
6.654841551823e-06 -1.336930503566e-04 0.0 
-1.336930503566e-04 6.686472562664e-03 0.0 
0.0 0.0 0.0 
-5.628518862288e-05 1.668888457425e-03 0.0 
1.668888457425e-03 5.917942279046e-03 0.0 
0.0 0.0 0.0 
8.339543720117e-04 1.252579264711e-03 0.0 
1.252579264711e-03 5.264321622283e-03 0.0 
0.0 0.0 0.0 
-1.600834523574e-05 1.536696440160e-03 0.0 
1.536696440160e-03 7.863848130876e-03 0.0 
0.0 0.0 0.0 
1.104436414402e-03 -5.912551159677e-05 0.0 
-5.912551159677e-05 -4.791519368580e-03 0.0 
0.0 0.0 0.0 
5.151142306574e-04 -1.221347473371e-04 0.0 
-1.221347473371e-04 5.220455242681e-03 0.0 
0.0 0.0 0.0 
1.310888856240e-03 2.387513330328e-03 0.0 
2.387513330328e-03 1.186068573665e-03 0.0 
0.0 0.0 0.0 
-7.555819099653e-04 4.236844178576e-04 0.0 
4.236844178576e-04 8.798183617670e-03 0.0 
0.0 0.0 0.0 
2.530946539525e-04 -5.529729225417e-04 0.0 
-5.529729225417e-04 4.101152120749e-03 0.0 
0.0 0.0 0.0 
1.900550416416e-03 8.804317379449e-04 0.0 
8.804317379449e-04 1.161721621200e-03 0.0 
0.0 0.0 0.0 
1.201684070706e-04 -1.578152104259e-04 0.0 
-1.578152104259e-04 6.125134701976e-03 0.0 
0.0 0.0 0.0 
5.335413580814e-04 1.673896231864e-03 0.0 
1.673896231864e-03 4.940137380876e-03 0.0 
0.0 0.0 0.0 
2.054980742410e-03 9.311161776554e-04 0.0 
9.311161776554e-04 4.276470903706e-04 0.0 
0.0 0.0 0.0 
-1.067108131856e-04 1.595420817865e-03 0.0 
1.595420817865e-03 6.433573803788e-03 0.0 
0.0 0.0 0.0 
1.811487963515e-03 -1.724034794252e-03 0.0 
-1.724034794252e-03 -4.095800974673e-03 0.0 
0.0 0.0 0.0 
-3.198852026742e-05 1.510588022017e-03 0.0 
1.510588022017e-03 7.114078636696e-03 0.0 
0.0 0.0 0.0 
9.009551283026e-04 9.912447379859e-04 0.0 
9.912447379859e-04 5.316515052334e-03 0.0 
0.0 0.0 0.0 
-2.344068932758e-04 1.409273449339e-03 0.0 
1.409273449339e-03 9.137609542235e-03 0.0 
0.0 0.0 0.0 
-1.641407294117e-05 1.494588571408e-03 0.0 
1.494588571408e-03 7.481206456379e-03 0.0 
0.0 0.0 0.0 
2.420557589148e-03 4.496209856012e-04 0.0 
4.496209856012e-04 -1.111514182792e-03 0.0 
0.0 0.0 0.0 
2.321209050338e-04 -2.516119966212e-04 0.0 
-2.516119966212e-04 5.389316703782e-03 0.0 
0.0 0.0 0.0 
-2.406636728124e-04 5.198060031181e-04 0.0 
5.198060031181e-04 1.036021647745e-02 0.0 
0.0 0.0 0.0 
2.690251190163e-04 1.306386733168e-03 0.0 
1.306386733168e-03 7.326550321801e-03 0.0 
0.0 0.0 0.0 
7.479660492784e-04 1.127018288076e-03 0.0 
1.127018288076e-03 5.813269181180e-03 0.0 
0.0 0.0 0.0 
1.472302012647e-03 1.441904171724e-03 0.0 
1.441904171724e-03 2.510524944783e-03 0.0 
0.0 0.0 0.0 
-6.212796711380e-05 1.545268638218e-03 0.0 
1.545268638218e-03 6.765115328753e-03 0.0 
0.0 0.0 0.0 
8.383382024135e-06 -8.384939237808e-05 0.0 
-8.384939237808e-05 6.456294959352e-03 0.0 
0.0 0.0 0.0 
-2.087452705497e-04 -1.765587956928e-04 0.0 
-1.765587956928e-04 4.398098231092e-03 0.0 
0.0 0.0 0.0 
6.096970056113e-05 1.535430682902e-03 0.0 
1.535430682902e-03 6.984345642422e-03 0.0 
0.0 0.0 0.0 
-6.148999165265e-04 4.338331201113e-04 0.0 
4.338331201113e-04 9.022002692796e-03 0.0 
0.0 0.0 0.0 
1.999687083618e-04 -1.759280745448e-04 0.0 
-1.759280745448e-04 5.840814011115e-03 0.0 
0.0 0.0 0.0 
4.601037836984e-04 -1.095700935804e-04 0.0 
-1.095700935804e-04 5.407871756822e-03 0.0 
0.0 0.0 0.0 
-5.319575752305e-04 4.541412256899e-06 0.0 
4.541412256899e-06 7.467671053989e-03 0.0 
0.0 0.0 0.0 
-5.234035277826e-04 8.322825143624e-06 0.0 
8.322825143624e-06 7.462658587499e-03 0.0 
0.0 0.0 0.0 
-7.434855041538e-04 9.240726980896e-04 0.0 
9.240726980896e-04 8.591029751804e-03 0.0 
0.0 0.0 0.0 
3.399244581281e-05 1.564046629520e-03 0.0 
1.564046629520e-03 6.611436280295e-03 0.0 
0.0 0.0 0.0 
1.562082156863e-04 -4.708774533583e-04 0.0 
-4.708774533583e-04 4.414305564144e-03 0.0 
0.0 0.0 0.0 
-5.463671783790e-04 1.272360376627e-03 0.0 
1.272360376627e-03 7.867991432952e-03 0.0 
0.0 0.0 0.0 
7.462946234384e-04 1.668893461892e-03 0.0 
1.668893461892e-03 4.326155901458e-03 0.0 
0.0 0.0 0.0 
6.588191454080e-04 6.446892844040e-04 0.0 
6.446892844040e-04 5.862436160591e-03 0.0 
0.0 0.0 0.0 
1.295217745434e-03 1.680976870886e-03 0.0 
1.680976870886e-03 2.475778057778e-03 0.0 
0.0 0.0 0.0 
-1.374458543155e-04 7.772256690201e-04 0.0 
7.772256690201e-04 1.076184550441e-02 0.0 
0.0 0.0 0.0 
-8.249823680477e-04 4.938193574916e-04 0.0 
4.938193574916e-04 7.856695572653e-03 0.0 
0.0 0.0 0.0 
7.012351953286e-04 1.705046326409e-03 0.0 
1.705046326409e-03 4.526314595212e-03 0.0 
0.0 0.0 0.0 
3.915733026556e-04 -5.061065991609e-04 0.0 
-5.061065991609e-04 4.092693931518e-03 0.0 
0.0 0.0 0.0 
2.384891815658e-03 1.149932645497e-03 0.0 
1.149932645497e-03 -1.138620966647e-03 0.0 
0.0 0.0 0.0 
3.367146153839e-04 -7.681564513849e-04 0.0 
-7.681564513849e-04 3.363288128667e-03 0.0 
0.0 0.0 0.0 
-4.282036145997e-06 1.610025742340e-03 0.0 
1.610025742340e-03 6.254785967529e-03 0.0 
0.0 0.0 0.0 
-3.612130075888e-04 1.505625632259e-03 0.0 
1.505625632259e-03 6.617031471778e-03 0.0 
0.0 0.0 0.0 
-6.629643800338e-04 5.335494881724e-04 0.0 
5.335494881724e-04 8.917472110339e-03 0.0 
0.0 0.0 0.0 
-4.174110951257e-04 1.340061812384e-03 0.0 
1.340061812384e-03 7.784968169804e-03 0.0 
0.0 0.0 0.0 
-4.708347465344e-04 1.296741828605e-03 0.0 
1.296741828605e-03 8.170474478570e-03 0.0 
0.0 0.0 0.0 
1.900129699079e-04 -6.938480714502e-05 0.0 
-6.938480714502e-05 1.019522381844e-03 0.0 
0.0 0.0 0.0 
3.303111674222e-04 -7.513963292458e-04 0.0 
-7.513963292458e-04 3.321319812396e-03 0.0 
0.0 0.0 0.0 
-5.983959704456e-04 1.660486298859e-03 0.0 
1.660486298859e-03 5.840555005024e-03 0.0 
0.0 0.0 0.0 
-6.275790163622e-04 1.127786968743e-03 0.0 
1.127786968743e-03 7.939069659943e-03 0.0 
0.0 0.0 0.0 
-6.763623937929e-04 1.100056987037e-03 0.0 
1.100056987037e-03 8.271164679380e-03 0.0 
0.0 0.0 0.0 
7.069841475345e-04 1.007734810554e-03 0.0 
1.007734810554e-03 5.928451326771e-03 0.0 
0.0 0.0 0.0 
-6.426183226893e-05 -1.362056863986e-05 0.0 
-1.362056863986e-05 1.745636995330e-03 0.0 
0.0 0.0 0.0 
2.405413258402e-03 -1.361241369968e-03 0.0 
-1.361241369968e-03 -3.075732972786e-03 0.0 
0.0 0.0 0.0 
1.034863137541e-04 1.763326588180e-03 0.0 
1.763326588180e-03 5.359210732780e-03 0.0 
0.0 0.0 0.0 
1.857482756695e-04 -7.770042734781e-04 0.0 
-7.770042734781e-04 3.326002371717e-03 0.0 
0.0 0.0 0.0 
-9.368865189318e-04 3.761724925094e-04 0.0 
3.761724925094e-04 6.957789346008e-03 0.0 
0.0 0.0 0.0 
-9.163024327064e-04 3.493192686363e-04 0.0 
3.493192686363e-04 7.192347011937e-03 0.0 
0.0 0.0 0.0 
-7.482557283782e-04 5.257547523453e-04 0.0 
5.257547523453e-04 8.918679476233e-03 0.0 
0.0 0.0 0.0 
1.393291324844e-03 2.776594098282e-03 0.0 
2.776594098282e-03 -7.878495990381e-04 0.0 
0.0 0.0 0.0 
2.587683103055e-04 -5.383375925740e-04 0.0 
-5.383375925740e-04 4.015557768356e-03 0.0 
0.0 0.0 0.0 
9.868059726208e-04 3.997603197818e-04 0.0 
3.997603197818e-04 4.746309651300e-03 0.0 
0.0 0.0 0.0 
2.724840617842e-03 -3.825660805840e-04 0.0 
-3.825660805840e-04 -3.289414333578e-03 0.0 
0.0 0.0 0.0 
1.242261260637e-05 1.565396718716e-03 0.0 
1.565396718716e-03 8.476316194888e-03 0.0 
0.0 0.0 0.0 
-4.663573312682e-04 5.360772829718e-04 0.0 
5.360772829718e-04 9.934640051174e-03 0.0 
0.0 0.0 0.0 
2.786172439451e-05 -5.524705663699e-04 0.0 
-5.524705663699e-04 3.938084281253e-03 0.0 
0.0 0.0 0.0 
2.240169202079e-04 -1.610265397350e-04 0.0 
-1.610265397350e-04 5.673203562780e-03 0.0 
0.0 0.0 0.0 
1.290851902924e-04 -6.414745384958e-05 0.0 
-6.414745384958e-05 6.992947197257e-04 0.0 
0.0 0.0 0.0 
1.017564931278e-03 2.078900766495e-04 0.0 
2.078900766495e-04 4.418454101864e-03 0.0 
0.0 0.0 0.0 
5.323936026391e-05 1.679785625423e-03 0.0 
1.679785625423e-03 5.915764399302e-03 0.0 
0.0 0.0 0.0 
1.855971427087e-04 -4.962421356422e-05 0.0 
-4.962421356422e-05 6.748606713123e-04 0.0 
0.0 0.0 0.0 
-3.904916530689e-04 5.651424538958e-04 0.0 
5.651424538958e-04 9.931901775828e-03 0.0 
0.0 0.0 0.0 
2.714533336455e-03 -5.197764429654e-04 0.0 
-5.197764429654e-04 -3.655548178771e-03 0.0 
0.0 0.0 0.0 
-6.597808891130e-04 1.167825302505e-03 0.0 
1.167825302505e-03 7.933140592662e-03 0.0 
0.0 0.0 0.0 
-3.033068952887e-04 1.547528607641e-03 0.0 
1.547528607641e-03 6.611124437784e-03 0.0 
0.0 0.0 0.0 
1.507996442037e-03 -2.839116876140e-04 0.0 
-2.839116876140e-04 2.057044364858e-03 0.0 
0.0 0.0 0.0 
1.059035562446e-03 -2.030420721584e-04 0.0 
-2.030420721584e-04 3.694432992152e-03 0.0 
0.0 0.0 0.0 
-3.616975202602e-04 6.534853683185e-04 0.0 
6.534853683185e-04 1.004042357221e-02 0.0 
0.0 0.0 0.0 
9.607433440311e-04 -7.080495097034e-05 0.0 
-7.080495097034e-05 4.222038532218e-03 0.0 
0.0 0.0 0.0 
3.263841641348e-04 1.739395525044e-03 0.0 
1.739395525044e-03 5.131382134094e-03 0.0 
0.0 0.0 0.0 
2.433113708105e-04 1.755925378025e-03 0.0 
1.755925378025e-03 5.359542375094e-03 0.0 
0.0 0.0 0.0 
-1.258263433414e-03 2.492755477265e-03 0.0 
2.492755477265e-03 8.954304494666e-04 0.0 
0.0 0.0 0.0 
2.613744570420e-03 -3.577521078240e-04 0.0 
-3.577521078240e-04 -3.896654723452e-03 0.0 
0.0 0.0 0.0 
1.049076419533e-04 1.502544789274e-03 0.0 
1.502544789274e-03 7.371375748139e-03 0.0 
0.0 0.0 0.0 
-8.428379187034e-04 5.715628380351e-04 0.0 
5.715628380351e-04 8.436129914848e-03 0.0 
0.0 0.0 0.0 
1.801750925630e-04 1.534455791620e-03 0.0 
1.534455791620e-03 7.290418727048e-03 0.0 
0.0 0.0 0.0 
9.882262349541e-04 2.619998338731e-03 0.0 
2.619998338731e-03 1.152708280181e-03 0.0 
0.0 0.0 0.0 
-5.317537453773e-04 9.593240539653e-04 0.0 
9.593240539653e-04 9.194840841267e-03 0.0 
0.0 0.0 0.0 
-1.319611526507e-05 1.507114766277e-03 0.0 
1.507114766277e-03 7.865999292776e-03 0.0 
0.0 0.0 0.0 
-8.610871718121e-04 4.253772974701e-04 0.0 
4.253772974701e-04 7.295517954314e-03 0.0 
0.0 0.0 0.0 
7.205742090788e-05 1.521661979860e-03 0.0 
1.521661979860e-03 7.368293655890e-03 0.0 
0.0 0.0 0.0 
1.440571856726e-04 -2.183616798730e-04 0.0 
-2.183616798730e-04 5.682772827197e-03 0.0 
0.0 0.0 0.0 
1.754160645913e-04 1.609539756262e-03 0.0 
1.609539756262e-03 6.082404893141e-03 0.0 
0.0 0.0 0.0 
3.727438206145e-04 -6.282501487135e-04 0.0 
-6.282501487135e-04 3.697088552602e-03 0.0 
0.0 0.0 0.0 
3.647154096504e-04 -6.368657664515e-04 0.0 
-6.368657664515e-04 3.766835380663e-03 0.0 
0.0 0.0 0.0 
-4.341503679055e-04 8.736423565233e-04 0.0 
8.736423565233e-04 9.989000730811e-03 0.0 
0.0 0.0 0.0 
1.140732096895e-03 -3.512270531715e-04 0.0 
-3.512270531715e-04 3.173878720214e-03 0.0 
0.0 0.0 0.0 
-1.863650542646e-04 1.575282912442e-03 0.0 
1.575282912442e-03 6.436695735015e-03 0.0 
0.0 0.0 0.0 
1.140008864551e-03 1.440282588147e-03 0.0 
1.440282588147e-03 3.608443566854e-03 0.0 
0.0 0.0 0.0 
8.415593128879e-04 4.349464989184e-05 0.0 
4.349464989184e-05 4.756677147483e-03 0.0 
0.0 0.0 0.0 
9.494251486180e-04 1.674526928606e-03 0.0 
1.674526928606e-03 3.878544566853e-03 0.0 
0.0 0.0 0.0 
2.379838336950e-03 4.792234052472e-04 0.0 
4.792234052472e-04 -9.341762689902e-04 0.0 
0.0 0.0 0.0 
1.503636580278e-03 3.664359354235e-04 0.0 
3.664359354235e-04 2.940670137128e-03 0.0 
0.0 0.0 0.0 
2.211108200991e-03 1.002944554097e-03 0.0 
1.002944554097e-03 -3.595204857483e-04 0.0 
0.0 0.0 0.0 
-5.302038662328e-04 1.243674909387e-03 0.0 
1.243674909387e-03 7.871999535821e-03 0.0 
0.0 0.0 0.0 
2.244962576428e-03 4.592805320093e-04 0.0 
4.592805320093e-04 -2.752747262558e-04 0.0 
0.0 0.0 0.0 
-4.906874083044e-04 1.353924812312e-03 0.0 
1.353924812312e-03 7.477842222784e-03 0.0 
0.0 0.0 0.0 
7.408468011219e-04 1.011521701970e-03 0.0 
1.011521701970e-03 5.869934566352e-03 0.0 
0.0 0.0 0.0 
8.726429194839e-04 9.911827350538e-04 0.0 
9.911827350538e-04 5.377244988406e-03 0.0 
0.0 0.0 0.0 
1.024275558936e-03 1.767759233807e-03 0.0 
1.767759233807e-03 3.180384525902e-03 0.0 
0.0 0.0 0.0 
-7.084312340639e-04 5.466534837488e-04 0.0 
5.466534837488e-04 8.678227464137e-03 0.0 
0.0 0.0 0.0 
1.359862522825e-04 -1.330352713461e-04 0.0 
-1.330352713461e-04 5.952885349620e-03 0.0 
0.0 0.0 0.0 
7.179017616377e-05 -1.868738958811e-04 0.0 
-1.868738958811e-04 5.961947019290e-03 0.0 
0.0 0.0 0.0 
8.810164872153e-04 2.887634952409e-03 0.0 
2.887634952409e-03 -9.202611244649e-04 0.0 
0.0 0.0 0.0 
-3.646702353024e-04 1.407839572965e-03 0.0 
1.407839572965e-03 7.367143767446e-03 0.0 
0.0 0.0 0.0 
4.051232854119e-05 -6.062290640748e-05 0.0 
-6.062290640748e-05 6.669422693561e-03 0.0 
0.0 0.0 0.0 
-9.115075585888e-04 1.124287039866e-03 0.0 
1.124287039866e-03 5.688870534293e-03 0.0 
0.0 0.0 0.0 
5.649958320531e-05 -4.730337890128e-04 0.0 
-4.730337890128e-04 4.313924921855e-03 0.0 
0.0 0.0 0.0 
-1.568902553570e-03 2.603072332049e-03 0.0 
2.603072332049e-03 1.636175506143e-03 0.0 
0.0 0.0 0.0 
6.503971319072e-05 -1.063501611479e-04 0.0 
-1.063501611479e-04 6.215880497073e-03 0.0 
0.0 0.0 0.0 
2.363680398026e-03 1.109008508055e-03 0.0 
1.109008508055e-03 -1.212949495814e-03 0.0 
0.0 0.0 0.0 
-1.958711828853e-04 -1.092237749451e-04 0.0 
-1.092237749451e-04 4.559674888460e-03 0.0 
0.0 0.0 0.0 
7.732885833229e-04 1.382450345676e-03 0.0 
1.382450345676e-03 5.249030158185e-03 0.0 
0.0 0.0 0.0 
-7.998544042298e-04 5.449798356082e-04 0.0 
5.449798356082e-04 8.678830211939e-03 0.0 
0.0 0.0 0.0 
-7.587893924902e-04 5.646264985593e-04 0.0 
5.646264985593e-04 8.436676860672e-03 0.0 
0.0 0.0 0.0 
1.467339622865e-04 1.679293740600e-03 0.0 
1.679293740600e-03 5.711677271238e-03 0.0 
0.0 0.0 0.0 
-9.642535676586e-04 4.664024618686e-04 0.0 
4.664024618686e-04 6.491506813131e-03 0.0 
0.0 0.0 0.0 
-9.477889727724e-04 4.223849339567e-04 0.0 
4.223849339567e-04 6.729358328909e-03 0.0 
0.0 0.0 0.0 
1.554118028158e-05 -1.575377799987e-04 0.0 
-1.575377799987e-04 6.224616122594e-03 0.0 
0.0 0.0 0.0 
9.726815910718e-04 -1.719883397108e-04 0.0 
-1.719883397108e-04 3.900609062776e-03 0.0 
0.0 0.0 0.0 
1.399512696068e-03 -1.386721857287e-04 0.0 
-1.386721857287e-04 2.666104155334e-03 0.0 
0.0 0.0 0.0 
1.104653471217e-03 3.688527640416e-04 0.0 
3.688527640416e-04 4.398058908128e-03 0.0 
0.0 0.0 0.0 
1.649607262959e-03 2.995271290254e-04 0.0 
2.995271290254e-04 2.317669888003e-03 0.0 
0.0 0.0 0.0 
2.239806791972e-03 1.029948620309e-03 0.0 
1.029948620309e-03 -3.420366700708e-04 0.0 
0.0 0.0 0.0 
-8.587728629917e-04 3.743496899640e-04 0.0 
3.743496899640e-04 6.511163594124e-03 0.0 
0.0 0.0 0.0 
-8.802556035170e-04 4.900406939595e-04 0.0 
4.900406939595e-04 8.097468800296e-03 0.0 
0.0 0.0 0.0 
-5.294481208011e-04 5.473538378747e-06 0.0 
5.473538378747e-06 7.467877656570e-03 0.0 
0.0 0.0 0.0 
8.790815842623e-04 8.645007380983e-04 0.0 
8.645007380983e-04 5.395156689645e-03 0.0 
0.0 0.0 0.0 
1.209601937443e-03 1.591477483464e-03 0.0 
1.591477483464e-03 3.204958525160e-03 0.0 
0.0 0.0 0.0 
4.473664506546e-04 1.261529193437e-03 0.0 
1.261529193437e-03 6.852562268521e-03 0.0 
0.0 0.0 0.0 
-8.848058917021e-05 -3.670449588985e-05 0.0 
-3.670449588985e-05 6.323099621190e-03 0.0 
0.0 0.0 0.0 
1.533837720665e-03 3.201262199838e-04 0.0 
3.201262199838e-04 2.741055571680e-03 0.0 
0.0 0.0 0.0 
3.719298066929e-05 -1.143888408973e-04 0.0 
-1.143888408973e-04 6.860247938352e-03 0.0 
0.0 0.0 0.0 
2.126548762393e-03 -1.868088517534e-05 0.0 
-1.868088517534e-05 -2.633244319661e-05 0.0 
0.0 0.0 0.0 
4.465918976344e-04 1.343909333397e-03 0.0 
1.343909333397e-03 6.801531448788e-03 0.0 
0.0 0.0 0.0 
2.682824982962e-04 1.658418221468e-03 0.0 
1.658418221468e-03 5.714130347242e-03 0.0 
0.0 0.0 0.0 
3.422691373505e-04 1.574115693543e-03 0.0 
1.574115693543e-03 5.929983969637e-03 0.0 
0.0 0.0 0.0 
7.042584063617e-04 3.944970043022e-04 0.0 
3.944970043022e-04 5.580300900285e-03 0.0 
0.0 0.0 0.0 
3.186123194787e-04 -1.175160207333e-03 0.0 
-1.175160207333e-03 2.248111747034e-03 0.0 
0.0 0.0 0.0 
-2.887580762398e-04 1.488871827795e-03 0.0 
1.488871827795e-03 6.919502484832e-03 0.0 
0.0 0.0 0.0 
1.553081517825e-03 2.631183931762e-05 0.0 
2.631183931762e-05 2.359847246464e-03 0.0 
0.0 0.0 0.0 
-4.094891041218e-04 1.446254286114e-03 0.0 
1.446254286114e-03 7.058855672914e-03 0.0 
0.0 0.0 0.0 
9.276007063383e-04 2.438500767181e-03 0.0 
2.438500767181e-03 2.115528291169e-03 0.0 
0.0 0.0 0.0 
4.907717951996e-04 1.523859077720e-03 0.0 
1.523859077720e-03 5.827366972270e-03 0.0 
0.0 0.0 0.0 
1.662452985062e-03 -7.367572534718e-06 0.0 
-7.367572534718e-06 2.011856221944e-03 0.0 
0.0 0.0 0.0 
2.750006035928e-04 -4.328210792436e-04 0.0 
-4.328210792436e-04 4.407173027820e-03 0.0 
0.0 0.0 0.0 
-4.406326113455e-04 1.402978575813e-03 0.0 
1.402978575813e-03 7.064776348815e-03 0.0 
0.0 0.0 0.0 
-7.173095756783e-04 3.309096900136e-03 0.0 
3.309096900136e-03 -6.710688488490e-04 0.0 
0.0 0.0 0.0 
1.050708445753e-03 1.358102981628e-03 0.0 
1.358102981628e-03 4.163295561050e-03 0.0 
0.0 0.0 0.0 
-8.556876472015e-04 2.957119803325e-03 0.0 
2.957119803325e-03 1.396563606601e-03 0.0 
0.0 0.0 0.0 
-1.393944015963e-04 -2.661976384251e-04 0.0 
-2.661976384251e-04 1.215194701961e-03 0.0 
0.0 0.0 0.0 
1.602296883154e-04 -4.506680392865e-04 0.0 
-4.506680392865e-04 4.309212572650e-03 0.0 
0.0 0.0 0.0 
-2.369114827760e-04 1.433810835564e-03 0.0 
1.433810835564e-03 8.026169537565e-03 0.0 
0.0 0.0 0.0 
-7.426495570351e-04 6.705338743997e-04 0.0 
6.705338743997e-04 8.511260132103e-03 0.0 
0.0 0.0 0.0 
-9.856805509676e-04 6.093171035521e-04 0.0 
6.093171035521e-04 6.014148121204e-03 0.0 
0.0 0.0 0.0 
0.0 8.008050532818e-04 0.0 
8.008050532818e-04 1.073740993146e-02 0.0 
0.0 0.0 0.0 
-1.408929277832e-03 2.590103613804e-03 0.0 
2.590103613804e-03 1.986315450748e-04 0.0 
0.0 0.0 0.0 
-9.664294409225e-04 5.381852236692e-04 0.0 
5.381852236692e-04 6.262085772980e-03 0.0 
0.0 0.0 0.0 
1.383102151784e-03 -4.960132049617e-05 0.0 
-4.960132049617e-05 2.963527046022e-03 0.0 
0.0 0.0 0.0 
-3.410802851367e-05 -4.520572005620e-04 0.0 
-4.520572005620e-04 4.212809844806e-03 0.0 
0.0 0.0 0.0 
-9.873275940410e-04 7.761334116474e-04 0.0 
7.761334116474e-04 6.829117370672e-03 0.0 
0.0 0.0 0.0 
1.789670405813e-03 -6.887802941676e-04 0.0 
-6.887802941676e-04 5.939847904961e-04 0.0 
0.0 0.0 0.0 
1.059946435698e-03 -3.164930827264e-04 0.0 
-3.164930827264e-04 3.351922289131e-03 0.0 
0.0 0.0 0.0 
8.941513664706e-05 1.606024725031e-03 0.0 
1.606024725031e-03 6.254859659963e-03 0.0 
0.0 0.0 0.0 
9.522891860718e-04 1.297803581106e-03 0.0 
1.297803581106e-03 4.714399991412e-03 0.0 
0.0 0.0 0.0 
-3.472546652254e-04 1.300630430314e-03 0.0 
1.300630430314e-03 8.847549087647e-03 0.0 
0.0 0.0 0.0 
1.532002566154e-03 2.930943421320e-03 0.0 
2.930943421320e-03 -2.135271955810e-03 0.0 
0.0 0.0 0.0 
1.303592597888e-04 -5.403377867474e-04 0.0 
-5.403377867474e-04 3.935595574428e-03 0.0 
0.0 0.0 0.0 
-1.443013398628e-05 -3.517925753919e-04 0.0 
-3.517925753919e-04 4.468360822661e-03 0.0 
0.0 0.0 0.0 
-1.555500335323e-04 -1.045312945386e-03 0.0 
-1.045312945386e-03 2.069435429972e-03 0.0 
0.0 0.0 0.0 
-8.453502160929e-04 4.105814670648e-04 0.0 
4.105814670648e-04 7.533587510703e-03 0.0 
0.0 0.0 0.0 
-8.254472556364e-04 6.855323166473e-04 0.0 
6.855323166473e-04 8.509564231812e-03 0.0 
0.0 0.0 0.0 
-1.454181216684e-04 -5.289955295065e-05 0.0 
-5.289955295065e-05 5.761256273052e-03 0.0 
0.0 0.0 0.0 
3.155750546702e-04 -6.420798777928e-05 0.0 
-6.420798777928e-05 6.197988334766e-04 0.0 
0.0 0.0 0.0 
3.512835087252e-04 -6.090425395701e-04 0.0 
-6.090425395701e-04 -4.667582976194e-03 0.0 
0.0 0.0 0.0 
-3.276020207647e-04 -8.940588612786e-04 0.0 
-8.940588612786e-04 1.577614095522e-03 0.0 
0.0 0.0 0.0 
-8.444726884682e-05 -3.595606883868e-04 0.0 
-3.595606883868e-04 4.470097508105e-03 0.0 
0.0 0.0 0.0 
1.974646217292e-03 8.253346564348e-05 0.0 
8.253346564348e-05 7.273042555263e-04 0.0 
0.0 0.0 0.0 
1.775808151293e-03 -8.616321907080e-04 0.0 
-8.616321907080e-04 1.051031445920e-04 0.0 
0.0 0.0 0.0 
2.283086607781e-03 -1.361858767325e-04 0.0 
-1.361858767325e-04 -8.416204430800e-04 0.0 
0.0 0.0 0.0 
7.639263004844e-05 -3.669632842568e-04 0.0 
-3.669632842568e-04 4.585238786128e-03 0.0 
0.0 0.0 0.0 
-6.682972943842e-04 9.036591686734e-04 0.0 
9.036591686734e-04 8.594293728613e-03 0.0 
0.0 0.0 0.0 
-6.745319470680e-05 -2.673602720191e-04 0.0 
-2.673602720191e-04 4.707995639579e-03 0.0 
0.0 0.0 0.0 
2.042004132810e-03 5.055813402875e-04 0.0 
5.055813402875e-04 6.577275030661e-04 0.0 
0.0 0.0 0.0 
-3.433374587937e-04 1.430795713305e-03 0.0 
1.430795713305e-03 7.364066034466e-03 0.0 
0.0 0.0 0.0 
-6.789191746128e-04 2.174860367923e-04 0.0 
2.174860367923e-04 8.108407617546e-03 0.0 
0.0 0.0 0.0 
6.747616454503e-04 1.343378915939e-03 0.0 
1.343378915939e-03 5.781811131950e-03 0.0 
0.0 0.0 0.0 
-1.232074794476e-04 -2.750157915559e-04 0.0 
-2.750157915559e-04 4.709665477395e-03 0.0 
0.0 0.0 0.0 
-9.678086065779e-06 -3.856365881301e-04 0.0 
-3.856365881301e-04 4.589171846506e-03 0.0 
0.0 0.0 0.0 
-1.033943221954e-03 8.000906310251e-04 0.0 
8.000906310251e-04 5.554342249745e-03 0.0 
0.0 0.0 0.0 
1.810277080483e-03 -2.268650151682e-04 0.0 
-2.268650151682e-04 1.050276959136e-03 0.0 
0.0 0.0 0.0 
-1.082623878512e-04 -1.896273100725e-04 0.0 
-1.896273100725e-04 4.932054380752e-03 0.0 
0.0 0.0 0.0 
-4.469893315594e-04 4.212364002195e-05 0.0 
4.212364002195e-05 8.946708982913e-03 0.0 
0.0 0.0 0.0 
-4.834033361045e-04 3.867870103353e-05 0.0 
3.867870103353e-05 8.577554544524e-03 0.0 
0.0 0.0 0.0 
-9.990245988192e-04 7.041935663753e-04 0.0 
7.041935663753e-04 5.788903901180e-03 0.0 
0.0 0.0 0.0 
7.145941389064e-06 -2.879054116179e-04 0.0 
-2.879054116179e-04 4.843716227356e-03 0.0 
0.0 0.0 0.0 
1.203682372665e-03 -1.357589758180e-03 0.0 
-1.357589758180e-03 6.473889247955e-04 0.0 
0.0 0.0 0.0 
-2.892714594388e-04 3.030156781532e-03 0.0 
3.030156781532e-03 1.318850402315e-03 0.0 
0.0 0.0 0.0 
4.538234375886e-04 1.256864395758e-03 0.0 
1.256864395758e-03 6.821105338030e-03 0.0 
0.0 0.0 0.0 
-5.684960698782e-04 -1.202081862549e-03 0.0 
-1.202081862549e-03 1.407913678789e-03 0.0 
0.0 0.0 0.0 
1.265344523227e-03 -1.132761845468e-03 0.0 
-1.132761845468e-03 1.187932997259e-03 0.0 
0.0 0.0 0.0 
1.042819288339e-03 1.374566990956e-03 0.0 
1.374566990956e-03 4.229430018037e-03 0.0 
0.0 0.0 0.0 
-8.631883461359e-04 4.622756681207e-04 0.0 
4.622756681207e-04 6.056125701676e-03 0.0 
0.0 0.0 0.0 
-1.512255367869e-04 -1.985434624920e-04 0.0 
-1.985434624920e-04 4.934935928512e-03 0.0 
0.0 0.0 0.0 
-1.808938271515e-04 -4.999760546464e-05 0.0 
-4.999760546464e-05 2.392929438637e-03 0.0 
0.0 0.0 0.0 
-8.945579179609e-04 3.926748370059e-04 0.0 
3.926748370059e-04 7.731678525118e-03 0.0 
0.0 0.0 0.0 
-6.275110060383e-05 -3.055568005267e-04 0.0 
-3.055568005267e-04 4.847332831388e-03 0.0 
0.0 0.0 0.0 
1.319598546071e-03 -4.089022656401e-04 0.0 
-4.089022656401e-04 2.428627502528e-03 0.0 
0.0 0.0 0.0 
1.361164902378e-04 -5.666071485276e-04 0.0 
-5.666071485276e-04 4.020916820658e-03 0.0 
0.0 0.0 0.0 
2.420929884117e-04 2.552805598500e-03 0.0 
2.552805598500e-03 -2.351644413575e-03 0.0 
0.0 0.0 0.0 
-2.964469680490e-04 7.814733734271e-06 0.0 
7.814733734271e-06 1.006307441634e-02 0.0 
0.0 0.0 0.0 
1.456596122908e-03 -7.907758849804e-04 0.0 
-7.907758849804e-04 1.254992381697e-03 0.0 
0.0 0.0 0.0 
7.793696592608e-04 7.798449262656e-04 0.0 
7.798449262656e-04 5.711594771145e-03 0.0 
0.0 0.0 0.0 
4.375427880186e-04 1.525711762184e-03 0.0 
1.525711762184e-03 5.938131957436e-03 0.0 
0.0 0.0 0.0 
-4.820316866583e-05 -2.151974550038e-04 0.0 
-2.151974550038e-04 5.085254486882e-03 0.0 
0.0 0.0 0.0 
-1.035018800942e-04 -2.306702828566e-04 0.0 
-2.306702828566e-04 5.088324823566e-03 0.0 
0.0 0.0 0.0 
2.098921699054e-03 6.058340820413e-05 0.0 
6.058340820413e-05 2.698144060835e-04 0.0 
0.0 0.0 0.0 
-7.716512700875e-04 -1.159386293757e-03 0.0 
-1.159386293757e-03 9.763191433094e-04 0.0 
0.0 0.0 0.0 
4.662115920291e-04 2.943195337236e-03 0.0 
2.943195337236e-03 -2.431108432199e-03 0.0 
0.0 0.0 0.0 
-9.085310147083e-05 -1.489182574432e-04 0.0 
-1.489182574432e-04 5.314127081717e-03 0.0 
0.0 0.0 0.0 
7.639474430339e-04 5.196678762150e-04 0.0 
5.196678762150e-04 5.584781439864e-03 0.0 
0.0 0.0 0.0 
6.304622356328e-04 -1.467673031738e-03 0.0 
-1.467673031738e-03 1.338181038697e-03 0.0 
0.0 0.0 0.0 
-2.235605583939e-04 1.476405581860e-03 0.0 
1.476405581860e-03 7.243599561235e-03 0.0 
0.0 0.0 0.0 
-9.133474015225e-04 1.278368433449e-03 0.0 
1.278368433449e-03 5.393187638874e-03 0.0 
0.0 0.0 0.0 
-4.196082584323e-04 1.360179648158e-03 0.0 
1.360179648158e-03 7.782164344349e-03 0.0 
0.0 0.0 0.0 
3.069341116471e-04 2.122610533077e-04 0.0 
2.122610533077e-04 6.752758087415e-03 0.0 
0.0 0.0 0.0 
-4.043155254838e-03 -1.208076444884e-04 0.0 
-1.208076444884e-04 -3.089621105608e-03 0.0 
0.0 0.0 0.0 
0.0 7.504015138077e-05 0.0 
7.504015138077e-05 1.101730811619e-02 0.0 
0.0 0.0 0.0 
0.0 -3.506097182162e-05 0.0 
-3.506097182162e-05 7.607836550728e-03 0.0 
0.0 0.0 0.0 
-5.118457706980e-04 -2.931281104031e-05 0.0 
-2.931281104031e-05 7.916627522801e-03 0.0 
0.0 0.0 0.0 
9.935627337145e-04 -1.092849761810e-03 0.0 
-1.092849761810e-03 1.694942711846e-03 0.0 
0.0 0.0 0.0 
2.758859343885e-04 1.580277951095e-03 0.0 
1.580277951095e-03 6.086554333683e-03 0.0 
0.0 0.0 0.0 
2.076335897958e-03 4.779512508248e-04 0.0 
4.779512508248e-04 4.998479441860e-04 0.0 
0.0 0.0 0.0 
2.845866405488e-05 -2.198869976622e-04 0.0 
-2.198869976622e-04 1.007655333828e-03 0.0 
0.0 0.0 0.0 
-1.698638681259e-03 2.781591970581e-03 0.0 
2.781591970581e-03 8.970399585659e-04 0.0 
0.0 0.0 0.0 
-2.641915357148e-04 2.216889235596e-04 0.0 
2.216889235596e-04 1.035300971456e-02 0.0 
0.0 0.0 0.0 
-7.938044322048e-04 8.048735163838e-04 0.0 
8.048735163838e-04 8.564766097267e-03 0.0 
0.0 0.0 0.0 
-9.105467659698e-04 3.314738358016e-04 0.0 
3.314738358016e-04 7.437661324039e-03 0.0 
0.0 0.0 0.0 
5.335101707060e-05 1.738722727777e-03 0.0 
1.738722727777e-03 8.635493482071e-03 0.0 
0.0 0.0 0.0 
-1.049624573344e-04 -3.883483268748e-05 0.0 
-3.883483268748e-05 1.979638486448e-03 0.0 
0.0 0.0 0.0 
8.057974082631e-05 1.688231083064e-03 0.0 
1.688231083064e-03 8.411847888447e-03 0.0 
0.0 0.0 0.0 
-7.134592959286e-04 7.889759691942e-04 0.0 
7.889759691942e-04 8.566894319963e-03 0.0 
0.0 0.0 0.0 
5.517974543818e-04 -1.144539905824e-03 0.0 
-1.144539905824e-03 2.194963225784e-03 0.0 
0.0 0.0 0.0 
3.414120637009e-04 1.647063461742e-03 0.0 
1.647063461742e-03 5.523187641021e-03 0.0 
0.0 0.0 0.0 
1.013247362234e-03 -1.117820508443e-03 0.0 
-1.117820508443e-03 1.708585256394e-03 0.0 
0.0 0.0 0.0 
-4.565574894037e-04 2.822665529565e-03 0.0 
2.822665529565e-03 2.267735688142e-03 0.0 
0.0 0.0 0.0 
7.109316332901e-04 -1.247548182617e-03 0.0 
-1.247548182617e-03 1.811880061426e-03 0.0 
0.0 0.0 0.0 
-6.078117261146e-04 1.020162040678e-03 0.0 
1.020162040678e-03 8.595645904846e-03 0.0 
0.0 0.0 0.0 
-7.941699775649e-05 -9.721930836343e-05 0.0 
-9.721930836343e-05 6.510973322583e-03 0.0 
0.0 0.0 0.0 
1.526780349950e-03 -8.404220088949e-04 0.0 
-8.404220088949e-04 1.134953011003e-03 0.0 
0.0 0.0 0.0 
-2.936351087481e-04 1.418850118589e-03 0.0 
1.418850118589e-03 7.685784528624e-03 0.0 
0.0 0.0 0.0 
-1.279364968216e-03 -2.506066166625e-04 0.0 
-2.506066166625e-04 -4.527333245150e-03 0.0 
0.0 0.0 0.0 
1.920122617282e-03 -2.683255354985e-04 0.0 
-2.683255354985e-04 7.149132170587e-04 0.0 
0.0 0.0 0.0 
-6.719830352360e-04 8.474549508673e-04 0.0 
8.474549508673e-04 9.156893905453e-03 0.0 
0.0 0.0 0.0 
2.669430817619e-04 -1.131231999974e-03 0.0 
-1.131231999974e-03 2.304779100766e-03 0.0 
0.0 0.0 0.0 
3.201756582314e-04 -1.495739902826e-03 0.0 
-1.495739902826e-03 1.499060407093e-03 0.0 
0.0 0.0 0.0 
4.650654164926e-04 1.599547433201e-03 0.0 
1.599547433201e-03 5.530145441289e-03 0.0 
0.0 0.0 0.0 
9.814817876408e-04 -2.178538097219e-03 0.0 
-2.178538097219e-03 -1.162803494420e-03 0.0 
0.0 0.0 0.0 
-1.123833589237e-03 1.010427787329e-03 0.0 
1.010427787329e-03 5.163744837346e-03 0.0 
0.0 0.0 0.0 
-1.028162263131e-03 9.284101535567e-04 0.0 
9.284101535567e-04 5.323112486468e-03 0.0 
0.0 0.0 0.0 
1.186879724233e-04 -1.237864293049e-03 0.0 
-1.237864293049e-03 2.024408366850e-03 0.0 
0.0 0.0 0.0 
1.230678714936e-03 -2.514212232429e-04 0.0 
-2.514212232429e-04 3.002718830345e-03 0.0 
0.0 0.0 0.0 
9.785071593731e-04 1.633473210099e-03 0.0 
1.633473210099e-03 3.694909806025e-03 0.0 
0.0 0.0 0.0 
-2.850236068744e-04 1.424754325853e-03 0.0 
1.424754325853e-03 7.685082648822e-03 0.0 
0.0 0.0 0.0 
-2.549969900612e-04 1.247760455768e-03 0.0 
1.247760455768e-03 9.513141163187e-03 0.0 
0.0 0.0 0.0 
-8.572717932567e-04 5.845505634080e-04 0.0 
5.845505634080e-04 5.597426813233e-03 0.0 
0.0 0.0 0.0 
-4.014158214652e-04 -8.037091072517e-06 0.0 
-8.037091072517e-06 9.333177270830e-03 0.0 
0.0 0.0 0.0 
-9.343813556162e-05 1.499795777274e-03 0.0 
1.499795777274e-03 8.707651225115e-03 0.0 
0.0 0.0 0.0 
2.208843522280e-03 4.892946247725e-04 0.0 
4.892946247725e-04 -1.066028398393e-04 0.0 
0.0 0.0 0.0 
-6.666134096014e-04 2.795053209747e-03 0.0 
2.795053209747e-03 1.390621542953e-03 0.0 
0.0 0.0 0.0 
-1.015954076814e-03 1.345790842346e-03 0.0 
1.345790842346e-03 5.650359341845e-03 0.0 
0.0 0.0 0.0 
1.131872524661e-03 -4.783217456475e-04 0.0 
-4.783217456475e-04 2.808456183998e-03 0.0 
0.0 0.0 0.0 
-4.448992310285e-04 1.285838455468e-03 0.0 
1.285838455468e-03 8.171751014610e-03 0.0 
0.0 0.0 0.0 
1.319394601854e-03 -2.904932038186e-04 0.0 
-2.904932038186e-04 2.778877623308e-03 0.0 
0.0 0.0 0.0 
1.246353877315e-03 2.735077393359e-03 0.0 
2.735077393359e-03 -1.992684465864e-03 0.0 
0.0 0.0 0.0 
1.128168508121e-03 -1.124095091855e-04 0.0 
-1.124095091855e-04 3.566942488131e-03 0.0 
0.0 0.0 0.0 
-7.062018380358e-04 2.590394644925e-03 0.0 
2.590394644925e-03 3.161206444493e-03 0.0 
0.0 0.0 0.0 
1.131500887232e-03 1.470581688456e-03 0.0 
1.470581688456e-03 3.717390133644e-03 0.0 
0.0 0.0 0.0 
1.223298039441e-03 -1.450228191650e-04 0.0 
-1.450228191650e-04 3.324520096958e-03 0.0 
0.0 0.0 0.0 
5.162629375448e-04 1.586038559116e-03 0.0 
1.586038559116e-03 5.378044267615e-03 0.0 
0.0 0.0 0.0 
-4.785199957202e-04 4.930032994020e-05 0.0 
4.930032994020e-05 8.851956694471e-03 0.0 
0.0 0.0 0.0 
-1.099833249385e-05 -1.211017242849e-03 0.0 
-1.211017242849e-03 2.021345489451e-03 0.0 
0.0 0.0 0.0 
-3.110289015507e-05 3.130877278266e-03 0.0 
3.130877278266e-03 2.695387415301e-04 0.0 
0.0 0.0 0.0 
1.114794599626e-03 -1.487444437176e-05 0.0 
-1.487444437176e-05 3.876289898366e-03 0.0 
0.0 0.0 0.0 
-8.021630202478e-04 2.177202811098e-03 0.0 
2.177202811098e-03 3.897500483330e-03 0.0 
0.0 0.0 0.0 
5.778512936196e-04 8.270656105781e-04 0.0 
8.270656105781e-04 -4.818198769020e-03 0.0 
0.0 0.0 0.0 
-1.862450969453e-04 6.184059300958e-05 0.0 
6.184059300958e-05 1.041204808961e-02 0.0 
0.0 0.0 0.0 
-2.710330073090e-04 5.774184898788e-05 0.0 
5.774184898788e-05 1.006504045731e-02 0.0 
0.0 0.0 0.0 
-4.038107441520e-04 -3.043503031557e-04 0.0 
-3.043503031557e-04 5.624020209434e-04 0.0 
0.0 0.0 0.0 
1.013616891292e-03 1.424192428979e-05 0.0 
1.424192428979e-05 4.132430211261e-03 0.0 
0.0 0.0 0.0 
-2.588225236448e-04 -1.007989870672e-03 0.0 
-1.007989870672e-03 1.815441733658e-03 0.0 
0.0 0.0 0.0 
-2.713491975778e-04 -9.275794125352e-04 0.0 
-9.275794125352e-04 2.063166951158e-03 0.0 
0.0 0.0 0.0 
-2.279919687436e-04 1.440604746142e-03 0.0 
1.440604746142e-03 8.025726151617e-03 0.0 
0.0 0.0 0.0 
6.291319861558e-04 1.505376048555e-03 0.0 
1.505376048555e-03 5.388473976086e-03 0.0 
0.0 0.0 0.0 
-1.673908255563e-04 1.478080989621e-03 0.0 
1.478080989621e-03 7.585714426092e-03 0.0 
0.0 0.0 0.0 
1.699227439582e-03 -6.364802528000e-04 0.0 
-6.364802528000e-04 7.845104252167e-04 0.0 
0.0 0.0 0.0 
-5.630572868173e-04 2.119705011077e-05 0.0 
2.119705011077e-05 7.473391594880e-03 0.0 
0.0 0.0 0.0 
1.288854362336e-04 1.004307848926e-04 0.0 
1.004307848926e-04 6.797533037753e-03 0.0 
0.0 0.0 0.0 
-3.867283247496e-04 -8.587670007029e-04 0.0 
-8.587670007029e-04 1.782008661338e-03 0.0 
0.0 0.0 0.0 
8.179404537776e-04 7.537366621765e-04 0.0 
7.537366621765e-04 5.504530180823e-03 0.0 
0.0 0.0 0.0 
8.976630764990e-04 1.553003898047e-03 0.0 
1.553003898047e-03 4.344120302614e-03 0.0 
0.0 0.0 0.0 
-2.774597337896e-05 -1.018043522274e-04 0.0 
-1.018043522274e-04 1.465019892166e-03 0.0 
0.0 0.0 0.0 
-5.427315121556e-04 1.180751189589e-03 0.0 
1.180751189589e-03 8.230126860177e-03 0.0 
0.0 0.0 0.0 
1.946358671473e-03 1.485377440736e-04 0.0 
1.485377440736e-04 9.844988183076e-04 0.0 
0.0 0.0 0.0 
-7.109769506700e-04 -1.227001213529e-03 0.0 
-1.227001213529e-03 7.783213382877e-04 0.0 
0.0 0.0 0.0 
2.044960424962e-03 -4.272274121519e-04 0.0 
-4.272274121519e-04 4.046014618164e-05 0.0 
0.0 0.0 0.0 
-1.577421950867e-04 8.314849895448e-06 0.0 
8.314849895448e-06 5.600122616540e-03 0.0 
0.0 0.0 0.0 
-6.749108589362e-04 1.042274413510e-03 0.0 
1.042274413510e-03 8.591391499133e-03 0.0 
0.0 0.0 0.0 
-4.408522121820e-04 -1.224228510367e-03 0.0 
-1.224228510367e-03 1.132493145114e-03 0.0 
0.0 0.0 0.0 
-2.192176191933e-04 -9.814708671487e-05 0.0 
-9.814708671487e-05 4.557557616196e-03 0.0 
0.0 0.0 0.0 
-3.403568343275e-04 1.373097511945e-03 0.0 
1.373097511945e-03 8.103590615765e-03 0.0 
0.0 0.0 0.0 
5.581391481979e-04 1.328904209670e-03 0.0 
1.328904209670e-03 6.303863624775e-03 0.0 
0.0 0.0 0.0 
4.043372069527e-04 -1.287787606985e-03 0.0 
-1.287787606985e-03 1.924531756506e-03 0.0 
0.0 0.0 0.0 
-1.997414706326e-04 -7.658240536399e-05 0.0 
-7.658240536399e-05 2.392343417058e-03 0.0 
0.0 0.0 0.0 
9.223886119234e-04 1.525186712440e-03 0.0 
1.525186712440e-03 4.209203187746e-03 0.0 
0.0 0.0 0.0 
-4.618106772848e-04 -3.014729031869e-05 0.0 
-3.014729031869e-05 8.732458456424e-03 0.0 
0.0 0.0 0.0 
-5.776194178650e-04 -1.740194741095e-03 0.0 
-1.740194741095e-03 3.729996039612e-04 0.0 
0.0 0.0 0.0 
-6.875995645306e-05 1.648234621945e-03 0.0 
1.648234621945e-03 8.857721208190e-03 0.0 
0.0 0.0 0.0 
-1.564140229992e-04 1.151739341266e-03 0.0 
1.151739341266e-03 1.002597029248e-02 0.0 
0.0 0.0 0.0 
-4.985432644158e-04 -1.775361070970e-05 0.0 
-1.775361070970e-05 8.165975594161e-03 0.0 
0.0 0.0 0.0 
-2.747037535999e-04 5.691398970686e-04 0.0 
5.691398970686e-04 1.049217238834e-02 0.0 
0.0 0.0 0.0 
-1.273165315224e-04 1.329582452778e-03 0.0 
1.329582452778e-03 9.757525122954e-03 0.0 
0.0 0.0 0.0 
1.703864180003e-03 -4.946627638914e-04 0.0 
-4.946627638914e-04 1.199446894952e-03 0.0 
0.0 0.0 0.0 
1.231334922501e-03 -1.095509286531e-03 0.0 
-1.095509286531e-03 1.184063958114e-03 0.0 
0.0 0.0 0.0 
4.264067644080e-04 9.958871033991e-04 0.0 
9.958871033991e-04 6.937839132320e-03 0.0 
0.0 0.0 0.0 
-1.061667376215e-03 3.463643142737e-04 0.0 
3.463643142737e-04 -4.414638825312e-03 0.0 
0.0 0.0 0.0 
-1.540656082887e-04 -1.315323530734e-05 0.0 
-1.315323530734e-05 2.175036341457e-03 0.0 
0.0 0.0 0.0 
-2.077829736421e-04 -3.425041010893e-05 0.0 
-3.425041010893e-05 4.663721466998e-03 0.0 
0.0 0.0 0.0 
1.991929091796e-04 -1.310124329721e-03 0.0 
-1.310124329721e-03 1.930197515422e-03 0.0 
0.0 0.0 0.0 
1.549975033488e-03 -1.076007192779e-03 0.0 
-1.076007192779e-03 6.093500918922e-04 0.0 
0.0 0.0 0.0 
-1.350986183235e-03 1.348432399190e-03 0.0 
1.348432399190e-03 4.772887625217e-03 0.0 
0.0 0.0 0.0 
-1.170258344645e-03 1.302187278662e-03 0.0 
1.302187278662e-03 4.818658338236e-03 0.0 
0.0 0.0 0.0 
-6.821180037756e-04 1.390843561780e-04 0.0 
1.390843561780e-04 8.178062806359e-03 0.0 
0.0 0.0 0.0 
1.933743710233e-03 -3.825250238757e-04 0.0 
-3.825250238757e-04 3.447227032203e-04 0.0 
0.0 0.0 0.0 
-2.379183320447e-04 -2.372137654447e-04 0.0 
-2.372137654447e-04 2.539913250674e-03 0.0 
0.0 0.0 0.0 
4.436692685676e-04 1.482639162396e-03 0.0 
1.482639162396e-03 6.295493494847e-03 0.0 
0.0 0.0 0.0 
6.897523612315e-05 -2.822662337423e-05 0.0 
-2.822662337423e-05 7.376986602600e-03 0.0 
0.0 0.0 0.0 
8.915599185055e-05 1.180848605911e-05 0.0 
1.180848605911e-05 7.300579278795e-03 0.0 
0.0 0.0 0.0 
1.273185964427e-03 -9.063273816798e-04 0.0 
-9.063273816798e-04 1.658225471016e-03 0.0 
0.0 0.0 0.0 
-7.172111476693e-04 1.848153459984e-04 0.0 
1.848153459984e-04 7.834857854807e-03 0.0 
0.0 0.0 0.0 
-1.222980062493e-03 -1.640015453596e-05 0.0 
-1.640015453596e-05 -3.930912559681e-03 0.0 
0.0 0.0 0.0 
-1.712469390698e-03 2.074869098180e-03 0.0 
2.074869098180e-03 4.094066969434e-03 0.0 
0.0 0.0 0.0 
9.941636176984e-04 -2.564371725806e-03 0.0 
-2.564371725806e-03 -1.947240567488e-03 0.0 
0.0 0.0 0.0 
-1.563580077004e-03 1.698087685702e-03 0.0 
1.698087685702e-03 4.456683724591e-03 0.0 
0.0 0.0 0.0 
8.305968318174e-04 1.454604820253e-03 0.0 
1.454604820253e-03 4.813935629868e-03 0.0 
0.0 0.0 0.0 
9.382258327273e-04 -1.341637502316e-03 0.0 
-1.341637502316e-03 1.321214096196e-03 0.0 
0.0 0.0 0.0 
1.495988684446e-03 -1.027251029734e-03 0.0 
-1.027251029734e-03 6.497166380199e-04 0.0 
0.0 0.0 0.0 
7.497940693146e-04 -2.627543196515e-03 0.0 
-2.627543196515e-03 -3.189924656554e-03 0.0 
0.0 0.0 0.0 
-2.377733657185e-04 7.085174061193e-05 0.0 
7.085174061193e-05 1.013043854418e-02 0.0 
0.0 0.0 0.0 
9.495396173342e-04 -1.330138343555e-03 0.0 
-1.330138343555e-03 1.218116240717e-03 0.0 
0.0 0.0 0.0 
-2.162422009512e-04 2.633741105183e-04 0.0 
2.633741105183e-04 1.034624991964e-02 0.0 
0.0 0.0 0.0 
-3.281816788070e-04 7.360195261185e-05 0.0 
7.360195261185e-05 9.830572197749e-03 0.0 
0.0 0.0 0.0 
-9.115179030517e-05 1.137272228046e-04 0.0 
1.137272228046e-04 1.100349793577e-02 0.0 
0.0 0.0 0.0 
-2.886055390405e-05 -4.323242382056e-05 0.0 
-4.323242382056e-05 7.606403842942e-03 0.0 
0.0 0.0 0.0 
-5.067062249563e-04 3.150172680672e-05 0.0 
3.150172680672e-05 8.177407453581e-03 0.0 
0.0 0.0 0.0 
7.308194787961e-04 -1.251392335317e-03 0.0 
-1.251392335317e-03 1.733288002585e-03 0.0 
0.0 0.0 0.0 
-8.491962674863e-04 7.397695799686e-04 0.0 
7.397695799686e-04 5.136411973520e-03 0.0 
0.0 0.0 0.0 
7.948359166345e-04 -1.054646359725e-03 0.0 
-1.054646359725e-03 2.178194834234e-03 0.0 
0.0 0.0 0.0 
0.0 -5.570869578733e-05 0.0 
-5.570869578733e-05 7.448332287809e-03 0.0 
0.0 0.0 0.0 
-1.564741374968e-03 2.486302495111e-03 0.0 
2.486302495111e-03 2.427561187428e-03 0.0 
0.0 0.0 0.0 
-1.603087837625e-03 2.340848217921e-03 0.0 
2.340848217921e-03 3.287984678210e-03 0.0 
0.0 0.0 0.0 
7.101148183879e-04 9.144664039498e-04 0.0 
9.144664039498e-04 5.935931200701e-03 0.0 
0.0 0.0 0.0 
-6.457979714749e-04 1.100747655609e-04 0.0 
1.100747655609e-04 7.849580153940e-03 0.0 
0.0 0.0 0.0 
-1.994238919989e-04 1.836181803483e-04 0.0 
1.836181803483e-04 1.039541899826e-02 0.0 
0.0 0.0 0.0 
-3.551190450448e-04 1.372355556161e-03 0.0 
1.372355556161e-03 8.103651848390e-03 0.0 
0.0 0.0 0.0 
4.320378134255e-04 1.405346212484e-03 0.0 
1.405346212484e-03 6.767696677559e-03 0.0 
0.0 0.0 0.0 
-5.088463799420e-04 1.211945120351e-03 0.0 
1.211945120351e-03 8.873704347516e-03 0.0 
0.0 0.0 0.0 
-5.111245574311e-04 7.614373193475e-05 0.0 
7.614373193475e-05 8.257441109911e-03 0.0 
0.0 0.0 0.0 
4.653182415271e-05 -1.415439561284e-03 0.0 
-1.415439561284e-03 1.661824829642e-03 0.0 
0.0 0.0 0.0 
2.272259610652e-04 -1.427317040754e-03 0.0 
-1.427317040754e-03 1.662605559520e-03 0.0 
0.0 0.0 0.0 
-4.160471532272e-04 6.664915241050e-05 0.0 
6.664915241050e-05 9.130262102389e-03 0.0 
0.0 0.0 0.0 
3.958047470063e-04 1.382626269318e-03 0.0 
1.382626269318e-03 6.777219648192e-03 0.0 
0.0 0.0 0.0 
-8.061837720315e-04 2.287404731443e-04 0.0 
2.287404731443e-04 7.460292849170e-03 0.0 
0.0 0.0 0.0 
-5.234071637503e-04 1.306662005627e-05 0.0 
1.306662005627e-05 7.819420406457e-03 0.0 
0.0 0.0 0.0 
-5.186018123392e-04 1.735324758738e-05 0.0 
1.735324758738e-05 8.157128043913e-03 0.0 
0.0 0.0 0.0 
-5.496843284780e-04 2.035042859989e-05 0.0 
2.035042859989e-05 8.278537957071e-03 0.0 
0.0 0.0 0.0 
1.995294859497e-03 -1.354113432326e-03 0.0 
-1.354113432326e-03 -3.382313996979e-03 0.0 
0.0 0.0 0.0 
-7.149759752478e-05 -1.304076408530e-03 0.0 
-1.304076408530e-03 1.793239085379e-03 0.0 
0.0 0.0 0.0 
-1.862244455166e-04 3.591897147045e-04 0.0 
3.591897147045e-04 1.068021361269e-02 0.0 
0.0 0.0 0.0 
-5.193619211032e-04 5.136889978349e-05 0.0 
5.136889978349e-05 8.674448175539e-03 0.0 
0.0 0.0 0.0 
2.376829557589e-04 1.301501950578e-03 0.0 
1.301501950578e-03 7.389794893518e-03 0.0 
0.0 0.0 0.0 
-3.728085902094e-04 1.285444790561e-03 0.0 
1.285444790561e-03 9.501755417771e-03 0.0 
0.0 0.0 0.0 
-5.804313555254e-04 1.206233175658e-03 0.0 
1.206233175658e-03 8.225715713565e-03 0.0 
0.0 0.0 0.0 
-3.560420316473e-04 5.984251206925e-04 0.0 
5.984251206925e-04 1.024828842084e-02 0.0 
0.0 0.0 0.0 
-2.109741306541e-04 -3.315331017652e-04 0.0 
-3.315331017652e-04 3.458971316495e-03 0.0 
0.0 0.0 0.0 
-2.439447775157e-04 -3.530545629014e-04 0.0 
-3.530545629014e-04 3.152875221032e-03 0.0 
0.0 0.0 0.0 
2.747419461582e-04 1.042913922845e-04 0.0 
1.042913922845e-04 6.389188822624e-03 0.0 
0.0 0.0 0.0 
4.200453753049e-04 -1.681164370310e-03 0.0 
-1.681164370310e-03 -3.702623107567e-03 0.0 
0.0 0.0 0.0 
-1.440658708362e-04 -8.519378464446e-05 0.0 
-8.519378464446e-05 2.286662350836e-03 0.0 
0.0 0.0 0.0 
0.0 1.629241077169e-03 0.0 
1.629241077169e-03 8.518491154724e-03 0.0 
0.0 0.0 0.0 
1.335255778878e-04 -1.732689457082e-05 0.0 
-1.732689457082e-05 1.022292272336e-03 0.0 
0.0 0.0 0.0 
-5.165858113233e-04 1.821160224880e-05 0.0 
1.821160224880e-05 7.823190697650e-03 0.0 
0.0 0.0 0.0 
5.995267002987e-04 7.264024415446e-04 0.0 
7.264024415446e-04 6.322605703218e-03 0.0 
0.0 0.0 0.0 
-2.078079299821e-04 -3.392566302226e-04 0.0 
-3.392566302226e-04 7.028437343579e-04 0.0 
0.0 0.0 0.0 
4.332198711876e-04 -6.856654088938e-05 0.0 
-6.856654088938e-05 1.944322747545e-04 0.0 
0.0 0.0 0.0 
-1.199655364360e-04 5.172304218995e-04 0.0 
5.172304218995e-04 1.089853793954e-02 0.0 
0.0 0.0 0.0 
-6.128511339724e-04 4.985779113776e-05 0.0 
4.985779113776e-05 7.484385943361e-03 0.0 
0.0 0.0 0.0 
-1.957213641046e-04 4.896165217043e-04 0.0 
4.896165217043e-04 1.057419744279e-02 0.0 
0.0 0.0 0.0 
4.420261433935e-04 8.780819844759e-04 0.0 
8.780819844759e-04 6.408231288373e-03 0.0 
0.0 0.0 0.0 
-6.058611602010e-04 1.992519188850e-05 0.0 
1.992519188850e-05 7.478088644574e-03 0.0 
0.0 0.0 0.0 
-1.065969482203e-03 5.728904204756e-04 0.0 
5.728904204756e-04 -3.866674677415e-03 0.0 
0.0 0.0 0.0 
-9.678386985590e-05 7.317992554934e-05 0.0 
7.317992554934e-05 1.071723640178e-02 0.0 
0.0 0.0 0.0 
-3.376855039627e-05 -2.157442660557e-04 0.0 
-2.157442660557e-04 1.212577019762e-03 0.0 
0.0 0.0 0.0 
-2.092547106533e-04 4.036273721976e-04 0.0 
4.036273721976e-04 1.040459571787e-02 0.0 
0.0 0.0 0.0 
0.0 -7.030159545681e-05 0.0 
-7.030159545681e-05 7.505682514467e-03 0.0 
0.0 0.0 0.0 
-3.566214598375e-04 1.088709929732e-03 0.0 
1.088709929732e-03 9.787832801514e-03 0.0 
0.0 0.0 0.0 
2.295476062100e-03 -1.237660610128e-03 0.0 
-1.237660610128e-03 -3.086486749801e-03 0.0 
0.0 0.0 0.0 
-7.542307812604e-04 3.042130524838e-04 0.0 
3.042130524838e-04 8.135552862065e-03 0.0 
0.0 0.0 0.0 
-2.540638168343e-04 -2.217978347280e-04 0.0 
-2.217978347280e-04 3.525638148766e-03 0.0 
0.0 0.0 0.0 
4.867585086514e-04 1.388441720241e-03 0.0 
1.388441720241e-03 6.302479743457e-03 0.0 
0.0 0.0 0.0 
1.588330195899e-04 1.401870196164e-03 0.0 
1.401870196164e-03 7.847112985021e-03 0.0 
0.0 0.0 0.0 
-3.743851705083e-04 7.196996135261e-05 0.0 
7.196996135261e-05 9.541511527925e-03 0.0 
0.0 0.0 0.0 
1.996376871887e-04 1.287121292974e-03 0.0 
1.287121292974e-03 7.642852296494e-03 0.0 
0.0 0.0 0.0 
1.405459714743e-03 -1.237366529168e-03 0.0 
-1.237366529168e-03 -4.165934558317e-03 0.0 
0.0 0.0 0.0 
5.765007367042e-05 -8.531333693667e-05 0.0 
-8.531333693667e-05 7.089292816139e-03 0.0 
0.0 0.0 0.0 
1.730202900414e-03 -1.890982270222e-03 0.0 
-1.890982270222e-03 -1.741915550167e-03 0.0 
0.0 0.0 0.0 
7.030428603660e-05 -7.224824968015e-05 0.0 
-7.224824968015e-05 1.049637947590e-03 0.0 
0.0 0.0 0.0 
3.822169878029e-04 5.502231504544e-04 0.0 
5.502231504544e-04 6.751029917983e-03 0.0 
0.0 0.0 0.0 
-2.798075798898e-04 8.519503989293e-04 0.0 
8.519503989293e-04 1.042439656490e-02 0.0 
0.0 0.0 0.0 
-1.650337156027e-04 5.221556435616e-04 0.0 
5.221556435616e-04 1.066589939210e-02 0.0 
0.0 0.0 0.0 
-5.498161830909e-04 7.095845725536e-05 0.0 
7.095845725536e-05 7.808333201666e-03 0.0 
0.0 0.0 0.0 
-7.990484490509e-04 4.688349075529e-04 0.0 
4.688349075529e-04 8.102398891481e-03 0.0 
0.0 0.0 0.0 
-5.453625213481e-04 2.975767377082e-03 0.0 
2.975767377082e-03 2.275187432956e-03 0.0 
0.0 0.0 0.0 
-2.462324298292e-04 1.402403186924e-03 0.0 
1.402403186924e-03 9.715526009255e-03 0.0 
0.0 0.0 0.0 
-2.494831981094e-04 -1.695276663458e-04 0.0 
-1.695276663458e-04 3.000985717883e-03 0.0 
0.0 0.0 0.0 
5.709276095640e-04 2.834371362124e-03 0.0 
2.834371362124e-03 -1.017050285778e-03 0.0 
0.0 0.0 0.0 
5.250080057242e-04 1.419570046019e-03 0.0 
1.419570046019e-03 6.292036822927e-03 0.0 
0.0 0.0 0.0 
-5.490561572790e-04 9.460053766482e-06 0.0 
9.460053766482e-06 7.451863652520e-03 0.0 
0.0 0.0 0.0 
-2.621940612068e-04 8.391669570727e-04 0.0 
8.391669570727e-04 1.018263901241e-02 0.0 
0.0 0.0 0.0 
-7.404781180886e-05 -2.185797159380e-05 0.0 
-2.185797159380e-05 1.099024627016e-02 0.0 
0.0 0.0 0.0 
0.0 3.702390590436e-05 0.0 
3.702390590436e-05 1.103396221335e-02 0.0 
0.0 0.0 0.0 
7.331827602755e-04 3.171967953595e-05 0.0 
3.171967953595e-05 -1.856762423847e-04 0.0 
0.0 0.0 0.0 
5.914836444860e-04 -2.958432396719e-05 0.0 
-2.958432396719e-05 -1.665851336017e-04 0.0 
0.0 0.0 0.0 
-5.166786399700e-04 -2.591003900411e-05 0.0 
-2.591003900411e-05 7.497995753221e-03 0.0 
0.0 0.0 0.0 
-5.271172819078e-04 4.701367856743e-06 0.0 
4.701367856743e-06 7.447211581437e-03 0.0 
0.0 0.0 0.0 
0.0 -1.557077867023e-05 0.0 
-1.557077867023e-05 7.625476958154e-03 0.0 
0.0 0.0 0.0 
-3.114155734041e-05 2.346737109870e-05 0.0 
2.346737109870e-05 7.578542215956e-03 0.0 
0.0 0.0 0.0 
5.246156625553e-04 1.513430780597e-05 0.0 
1.513430780597e-05 1.079913908655e-04 0.0 
0.0 0.0 0.0 
-1.042231375408e-03 -4.031469066360e-04 0.0 
-4.031469066360e-04 -4.656702566146e-03 0.0 
0.0 0.0 0.0 
-8.279027233771e-06 -6.235514207203e-05 0.0 
-6.235514207203e-05 6.853622746082e-03 0.0 
0.0 0.0 0.0 
1.595988872449e-04 1.598351431168e-03 0.0 
1.598351431168e-03 7.731625811601e-03 0.0 
0.0 0.0 0.0 
1.677846204196e-06 -2.123112732713e-04 0.0 
-2.123112732713e-04 1.397007522532e-03 0.0 
0.0 0.0 0.0 
1.059665976275e-04 -6.882192844674e-05 0.0 
-6.882192844674e-05 6.705720383978e-03 0.0 
0.0 0.0 0.0 
-1.892663640588e-04 -3.805150107710e-05 0.0 
-3.805150107710e-05 4.969854488146e-03 0.0 
0.0 0.0 0.0 
-2.441620440579e-04 -6.372561868088e-05 0.0 
-6.372561868088e-05 4.298089169718e-03 0.0 
0.0 0.0 0.0 
-4.893392880340e-04 8.220421319085e-05 0.0 
8.220421319085e-05 8.872593380040e-03 0.0 
0.0 0.0 0.0 
9.641558603057e-06 -2.300733361050e-03 0.0 
-2.300733361050e-03 -2.045594775092e-04 0.0 
0.0 0.0 0.0 
5.650246380304e-04 1.435225812471e-03 0.0 
1.435225812471e-03 5.838477402883e-03 0.0 
0.0 0.0 0.0 
6.158333996265e-05 -2.008595497455e-04 0.0 
-2.008595497455e-04 1.067464794977e-03 0.0 
0.0 0.0 0.0 
-2.053495963453e-04 -2.807862302140e-04 0.0 
-2.807862302140e-04 3.845481065541e-03 0.0 
0.0 0.0 0.0 
-2.063502408962e-04 1.336809614547e-03 0.0 
1.336809614547e-03 9.437555053738e-03 0.0 
0.0 0.0 0.0 
-2.394604715119e-04 -2.622875391331e-05 0.0 
-2.622875391331e-05 1.026949797853e-02 0.0 
0.0 0.0 0.0 
-2.218028318636e-04 -6.337947072782e-05 0.0 
-6.337947072782e-05 4.296293507200e-03 0.0 
0.0 0.0 0.0 
-5.040194585001e-04 8.118493204730e-08 0.0 
8.118493204730e-08 8.455097303342e-03 0.0 
0.0 0.0 0.0 
-4.521108306621e-05 1.617850274567e-03 0.0 
1.617850274567e-03 8.398474704455e-03 0.0 
0.0 0.0 0.0 
-4.224775716524e-04 1.296137561861e-03 0.0 
1.296137561861e-03 8.848604363346e-03 0.0 
0.0 0.0 0.0 
-5.035528828189e-04 1.248842831778e-03 0.0 
1.248842831778e-03 8.531969637577e-03 0.0 
0.0 0.0 0.0 
-5.783700168963e-04 2.258089807826e-05 0.0 
2.258089807826e-05 7.478397105520e-03 0.0 
0.0 0.0 0.0 
7.501833145711e-04 1.383636258024e-03 0.0 
1.383636258024e-03 5.299890970549e-03 0.0 
0.0 0.0 0.0 
-2.734892318376e-04 9.698412579658e-04 0.0 
9.698412579658e-04 9.997715326148e-03 0.0 
0.0 0.0 0.0 
-2.025845332195e-04 -1.544393038396e-04 0.0 
-1.544393038396e-04 2.298855896202e-03 0.0 
0.0 0.0 0.0 
5.900384383661e-05 -2.377921036954e-04 0.0 
-2.377921036954e-04 3.125787613332e-04 0.0 
0.0 0.0 0.0 
-1.061768937703e-04 1.495086085354e-03 0.0 
1.495086085354e-03 8.280413137195e-03 0.0 
0.0 0.0 0.0 
8.388829990877e-04 8.696293371471e-04 0.0 
8.696293371471e-04 5.496771110427e-03 0.0 
0.0 0.0 0.0 
9.469477460633e-05 -2.235560629564e-03 0.0 
-2.235560629564e-03 -5.761289733364e-04 0.0 
0.0 0.0 0.0 
-4.486098451594e-04 2.179264928495e-05 0.0 
2.179264928495e-05 9.153590425055e-03 0.0 
0.0 0.0 0.0 
-1.261137639164e-05 -7.507884037002e-05 0.0 
-7.507884037002e-05 7.174207883959e-03 0.0 
0.0 0.0 0.0 
7.587863070424e-05 1.524117121415e-03 0.0 
1.524117121415e-03 7.740873260647e-03 0.0 
0.0 0.0 0.0 
2.724822062206e-05 1.606979152570e-03 0.0 
1.606979152570e-03 8.154295136082e-03 0.0 
0.0 0.0 0.0 
-1.677943343075e-04 -5.975772113215e-05 0.0 
-5.975772113215e-05 5.352758030673e-03 0.0 
0.0 0.0 0.0 
4.144353093143e-04 2.433260419113e-03 0.0 
2.433260419113e-03 -3.721615001538e-03 0.0 
0.0 0.0 0.0 
-8.906618892393e-04 9.260538480089e-04 0.0 
9.260538480089e-04 4.734373077300e-03 0.0 
0.0 0.0 0.0 
-8.750855086428e-04 2.498397249556e-03 0.0 
2.498397249556e-03 3.910071525083e-03 0.0 
0.0 0.0 0.0 
-7.557686563483e-04 3.170098422414e-04 0.0 
3.170098422414e-04 8.149741302432e-03 0.0 
0.0 0.0 0.0 
6.660250249539e-04 1.497953134312e-03 0.0 
1.497953134312e-03 5.286423843457e-03 0.0 
0.0 0.0 0.0 
-2.192867881829e-04 2.734021523129e-04 0.0 
2.734021523129e-04 1.047046753566e-02 0.0 
0.0 0.0 0.0 
2.602202151389e-04 1.020122953837e-03 0.0 
1.020122953837e-03 6.946127288266e-03 0.0 
0.0 0.0 0.0 
-7.559603864028e-04 -1.616180973137e-03 0.0 
-1.616180973137e-03 2.874450938450e-04 0.0 
0.0 0.0 0.0 
-4.236314070826e-04 -6.987493719311e-04 0.0 
-6.987493719311e-04 6.633613377669e-04 0.0 
0.0 0.0 0.0 
-1.014361924374e-03 1.378247891708e-03 0.0 
1.378247891708e-03 4.032112786233e-03 0.0 
0.0 0.0 0.0 
-4.088369704008e-04 1.296152106229e-04 0.0 
1.296152106229e-04 9.265070611964e-03 0.0 
0.0 0.0 0.0 
-2.265128552389e-04 -2.941053908684e-04 0.0 
-2.941053908684e-04 2.754009229857e-03 0.0 
0.0 0.0 0.0 
-3.006796918560e-04 6.801233029723e-04 0.0 
6.801233029723e-04 1.032491183649e-02 0.0 
0.0 0.0 0.0 
7.524348877341e-05 -1.123875737539e-04 0.0 
-1.123875737539e-04 1.313411394108e-03 0.0 
0.0 0.0 0.0 
4.921234517596e-04 1.002384486646e-03 0.0 
1.002384486646e-03 6.444988439692e-03 0.0 
0.0 0.0 0.0 
-6.166132597064e-04 1.661177660763e-04 0.0 
1.661177660763e-04 8.171312157883e-03 0.0 
0.0 0.0 0.0 
1.316158997673e-04 1.464830395906e-03 0.0 
1.464830395906e-03 7.791903266849e-03 0.0 
0.0 0.0 0.0 
3.331083488700e-04 1.443986105255e-03 0.0 
1.443986105255e-03 6.803147163506e-03 0.0 
0.0 0.0 0.0 
-8.095384148455e-04 3.613367398194e-04 0.0 
3.613367398194e-04 8.132350813539e-03 0.0 
0.0 0.0 0.0 
3.342171144824e-04 3.091025578572e-04 0.0 
3.091025578572e-04 6.744955492885e-03 0.0 
0.0 0.0 0.0 
-2.421549105341e-04 7.995738561709e-04 0.0 
7.995738561709e-04 1.048199640764e-02 0.0 
0.0 0.0 0.0 
-1.550448927551e-04 7.979956582403e-05 0.0 
7.979956582403e-05 1.073557310976e-02 0.0 
0.0 0.0 0.0 
-1.197742397334e-03 2.237439532623e-03 0.0 
2.237439532623e-03 2.414484318255e-03 0.0 
0.0 0.0 0.0 
-2.785051555843e-04 6.252288428038e-04 0.0 
6.252288428038e-04 1.024614710198e-02 0.0 
0.0 0.0 0.0 
-4.993649890273e-05 1.551570556307e-03 0.0 
1.551570556307e-03 8.967873892185e-03 0.0 
0.0 0.0 0.0 
5.841252868546e-04 9.682927608076e-04 0.0 
9.682927608076e-04 6.455104743248e-03 0.0 
0.0 0.0 0.0 
3.963988974083e-04 1.466889696723e-03 0.0 
1.466889696723e-03 6.757755268456e-03 0.0 
0.0 0.0 0.0 
0.0 1.486541007025e-05 0.0 
1.486541007025e-05 7.350280875994e-03 0.0 
0.0 0.0 0.0 
-4.469883816858e-04 1.243254896474e-03 0.0 
1.243254896474e-03 8.532469356616e-03 0.0 
0.0 0.0 0.0 
-1.197478059109e-03 1.699518463370e-03 0.0 
1.699518463370e-03 -2.517503649400e-03 0.0 
0.0 0.0 0.0 
2.793117819500e-05 3.153131734471e-03 0.0 
3.153131734471e-03 2.703146431868e-04 0.0 
0.0 0.0 0.0 
-4.047016746012e-04 1.280708083904e-03 0.0 
1.280708083904e-03 9.176858782574e-03 0.0 
0.0 0.0 0.0 
-7.038585225139e-04 3.610429653464e-04 0.0 
3.610429653464e-04 8.441341159261e-03 0.0 
0.0 0.0 0.0 
-5.699374345591e-05 -8.404333653757e-05 0.0 
-8.404333653757e-05 6.909933274801e-03 0.0 
0.0 0.0 0.0 
2.578839115153e-04 1.443707771454e-03 0.0 
1.443707771454e-03 7.240556792024e-03 0.0 
0.0 0.0 0.0 
6.904788465789e-05 -2.887076522758e-05 0.0 
-2.887076522758e-05 7.019311936578e-03 0.0 
0.0 0.0 0.0 
-3.538515104682e-04 1.468757273943e-04 0.0 
1.468757273943e-04 9.664614364673e-03 0.0 
0.0 0.0 0.0 
1.382163065482e-04 1.391753914513e-03 0.0 
1.391753914513e-03 7.602123610824e-03 0.0 
0.0 0.0 0.0 
3.284874846190e-04 1.861624789199e-04 0.0 
1.861624789199e-04 6.383120045848e-03 0.0 
0.0 0.0 0.0 
3.717734073432e-04 2.694175541756e-04 0.0 
2.694175541756e-04 6.375471377784e-03 0.0 
0.0 0.0 0.0 
-2.347949646544e-04 -2.028493044279e-04 0.0 
-2.028493044279e-04 2.882037882856e-03 0.0 
0.0 0.0 0.0 
5.433710811165e-05 -6.326519854027e-05 0.0 
-6.326519854027e-05 7.431283802534e-03 0.0 
0.0 0.0 0.0 
-7.112609606269e-04 1.648322136790e-04 0.0 
1.648322136790e-04 7.804169084938e-03 0.0 
0.0 0.0 0.0 
-2.262693022359e-04 1.343979710545e-04 0.0 
1.343979710545e-04 1.040157834268e-02 0.0 
0.0 0.0 0.0 
-5.620428326171e-04 -8.230749997758e-04 0.0 
-8.230749997758e-04 8.660661916984e-04 0.0 
0.0 0.0 0.0 
-2.896769121925e-04 5.704350537884e-05 0.0 
5.704350537884e-05 1.013763958130e-02 0.0 
0.0 0.0 0.0 
-4.516886511646e-04 6.575007474889e-05 0.0 
6.575007474889e-05 9.183257054865e-03 0.0 
0.0 0.0 0.0 
3.281140655891e-04 1.348237315382e-05 0.0 
1.348237315382e-05 6.181085376584e-04 0.0 
0.0 0.0 0.0 
2.254120314217e-03 -1.494730833692e-03 0.0 
-1.494730833692e-03 -3.721580406837e-03 0.0 
0.0 0.0 0.0 
-3.570222680053e-04 1.334689985869e-03 0.0 
1.334689985869e-03 8.494698549080e-03 0.0 
0.0 0.0 0.0 
-1.241863286389e-04 4.138577171825e-04 0.0 
4.138577171825e-04 1.065442755619e-02 0.0 
0.0 0.0 0.0 
-2.123875171657e-04 5.604004872240e-05 0.0 
5.604004872240e-05 1.045638781564e-02 0.0 
0.0 0.0 0.0 
3.355458408332e-04 1.419671132273e-03 0.0 
1.419671132273e-03 7.328535637932e-03 0.0 
0.0 0.0 0.0 
-5.149841728396e-04 1.120852347046e-04 0.0 
1.120852347046e-04 8.455464021181e-03 0.0 
0.0 0.0 0.0 
2.997114325518e-04 -6.027988593629e-05 0.0 
-6.027988593629e-05 2.285884492530e-04 0.0 
0.0 0.0 0.0 
1.005422400918e-03 1.885443230983e-03 0.0 
1.885443230983e-03 -4.134339570813e-03 0.0 
0.0 0.0 0.0 
-8.614903515780e-06 -1.266981235632e-04 0.0 
-1.266981235632e-04 4.301572479612e-04 0.0 
0.0 0.0 0.0 
-4.571461795543e-04 -9.045893152608e-04 0.0 
-9.045893152608e-04 9.722173523137e-04 0.0 
0.0 0.0 0.0 
-1.190914269650e-03 3.242475053522e-03 0.0 
3.242475053522e-03 -1.886840391947e-03 0.0 
0.0 0.0 0.0 
-2.346324863254e-04 -2.405179234762e-04 0.0 
-2.405179234762e-04 3.792257165091e-03 0.0 
0.0 0.0 0.0 
-4.224763913485e-05 -3.560065060761e-05 0.0 
-3.560065060761e-05 6.908901746606e-03 0.0 
0.0 0.0 0.0 
-3.017187000679e-04 1.128198051751e-03 0.0 
1.128198051751e-03 9.793155458419e-03 0.0 
0.0 0.0 0.0 
-8.418428704412e-04 4.713457210310e-04 0.0 
4.713457210310e-04 8.345658221381e-03 0.0 
0.0 0.0 0.0 
-2.135266593215e-04 -4.115170389806e-04 0.0 
-4.115170389806e-04 3.259075514092e-03 0.0 
0.0 0.0 0.0 
2.675255490490e-04 3.279512418140e-05 0.0 
3.279512418140e-05 6.413853694944e-03 0.0 
0.0 0.0 0.0 
6.159036399325e-04 6.070971792376e-04 0.0 
6.070971792376e-04 6.153719876879e-03 0.0 
0.0 0.0 0.0 
1.998355128703e-04 1.585895835715e-03 0.0 
1.585895835715e-03 7.883593690336e-03 0.0 
0.0 0.0 0.0 
-7.278923312659e-05 1.505307910133e-03 0.0 
1.505307910133e-03 8.562926657627e-03 0.0 
0.0 0.0 0.0 
-2.697001121732e-04 1.387341908621e-03 0.0 
1.387341908621e-03 8.821827746420e-03 0.0 
0.0 0.0 0.0 
-5.634583172339e-04 -6.331426991936e-04 0.0 
-6.331426991936e-04 8.452811141424e-04 0.0 
0.0 0.0 0.0 
7.787387979519e-04 -1.529050764355e-03 0.0 
-1.529050764355e-03 -4.164436204069e-03 0.0 
0.0 0.0 0.0 
-2.469327769772e-05 -1.077639613429e-04 0.0 
-1.077639613429e-04 6.868716148821e-03 0.0 
0.0 0.0 0.0 
2.111529538160e-04 -1.608645275038e-05 0.0 
-1.608645275038e-05 6.448956216516e-04 0.0 
0.0 0.0 0.0 
2.153803047416e-04 8.324839539234e-06 0.0 
8.324839539234e-06 8.066364816435e-04 0.0 
0.0 0.0 0.0 
-5.150058700661e-04 3.004641567502e-03 0.0 
3.004641567502e-03 -6.138314157778e-04 0.0 
0.0 0.0 0.0 
4.609317269866e-06 -2.045260986793e-04 0.0 
-2.045260986793e-04 7.069436206797e-04 0.0 
0.0 0.0 0.0 
1.645173272506e-04 2.650985831961e-04 0.0 
2.650985831961e-04 6.761358282433e-03 0.0 
0.0 0.0 0.0 
-1.221962151579e-04 1.453057099245e-03 0.0 
1.453057099245e-03 9.447505016583e-03 0.0 
0.0 0.0 0.0 
-1.951777841648e-04 3.130690374442e-04 0.0 
3.130690374442e-04 1.047273337571e-02 0.0 
0.0 0.0 0.0 
8.199736148007e-05 1.526219611659e-03 0.0 
1.526219611659e-03 8.031981426017e-03 0.0 
0.0 0.0 0.0 
6.326159950214e-04 5.590958446724e-04 0.0 
5.590958446724e-04 5.873331924957e-03 0.0 
0.0 0.0 0.0 
-4.884813686706e-04 1.169601460227e-04 0.0 
1.169601460227e-04 8.680445093668e-03 0.0 
0.0 0.0 0.0 
0.0 5.614315010508e-04 0.0 
5.614315010508e-04 1.089733359888e-02 0.0 
0.0 0.0 0.0 
1.190688798595e-03 -2.366288335036e-03 0.0 
-2.366288335036e-03 -1.758009363169e-03 0.0 
0.0 0.0 0.0 
-5.972686712459e-04 3.434831551865e-05 0.0 
3.434831551865e-05 7.452315528723e-03 0.0 
0.0 0.0 0.0 
-6.191754506706e-04 -2.314229722717e-03 0.0 
-2.314229722717e-03 -3.635518780831e-05 0.0 
0.0 0.0 0.0 
2.148366451202e-04 -3.480037500422e-05 0.0 
-3.480037500422e-05 2.784311390500e-04 0.0 
0.0 0.0 0.0 
1.276507071091e-05 -8.111571565206e-05 0.0 
-8.111571565206e-05 7.512487351388e-03 0.0 
0.0 0.0 0.0 
-8.238603847250e-04 3.089145416182e-04 0.0 
3.089145416182e-04 7.785845699108e-03 0.0 
0.0 0.0 0.0 
1.847992933093e-04 -9.132662556141e-05 0.0 
-9.132662556141e-05 9.725700207539e-04 0.0 
0.0 0.0 0.0 
-2.506506860092e-04 -1.570432935397e-04 0.0 
-1.570432935397e-04 3.697754203213e-03 0.0 
0.0 0.0 0.0 
-1.862574197792e-04 1.500477211754e-03 0.0 
1.500477211754e-03 9.539650955330e-03 0.0 
0.0 0.0 0.0 
-2.685202536714e-04 3.759602635925e-04 0.0 
3.759602635925e-04 1.041463803233e-02 0.0 
0.0 0.0 0.0 
-1.526355912058e-04 8.762094281297e-04 0.0 
8.762094281297e-04 1.039705482386e-02 0.0 
0.0 0.0 0.0 
-2.090450375786e-04 -1.118034014566e-04 0.0 
-1.118034014566e-04 2.661435840355e-03 0.0 
0.0 0.0 0.0 
1.058252939923e-03 2.637812144101e-04 0.0 
2.637812144101e-04 -4.606056338506e-03 0.0 
0.0 0.0 0.0 
1.214420548248e-04 -3.664774113857e-05 0.0 
-3.664774113857e-05 6.966482025584e-03 0.0 
0.0 0.0 0.0 
-7.746571009404e-05 5.968512898979e-05 0.0 
5.968512898979e-05 1.102775148392e-02 0.0 
0.0 0.0 0.0 
-3.813568783007e-05 -3.117916530765e-05 0.0 
-3.117916530765e-05 7.619160039489e-03 0.0 
0.0 0.0 0.0 
-5.148935219739e-04 2.358725194616e-05 0.0 
2.358725194616e-05 7.755129678529e-03 0.0 
0.0 0.0 0.0 
4.358034158662e-04 6.389546451316e-04 0.0 
6.389546451316e-04 6.280160863489e-03 0.0 
0.0 0.0 0.0 
6.678374512004e-05 -9.814857276617e-05 0.0 
-9.814857276617e-05 1.067233797681e-03 0.0 
0.0 0.0 0.0 
-2.513314744532e-04 7.080897535803e-04 0.0 
7.080897535803e-04 1.032708966391e-02 0.0 
0.0 0.0 0.0 
1.931508638027e-04 -4.640327192951e-05 0.0 
-4.640327192951e-05 2.803665461693e-04 0.0 
0.0 0.0 0.0 
1.973681281413e-04 4.852086563607e-04 0.0 
4.852086563607e-04 6.759876745186e-03 0.0 
0.0 0.0 0.0 
-2.595264769192e-04 9.686858418736e-04 0.0 
9.686858418736e-04 1.031737588035e-02 0.0 
0.0 0.0 0.0 
6.776411344624e-04 1.126674597164e-03 0.0 
1.126674597164e-03 -4.827191863658e-03 0.0 
0.0 0.0 0.0 
8.200941909853e-05 1.525548998659e-03 0.0 
1.525548998659e-03 7.740151611686e-03 0.0 
0.0 0.0 0.0 
-3.946077905412e-04 5.554898626638e-05 0.0 
5.554898626638e-05 9.473002492354e-03 0.0 
0.0 0.0 0.0 
-9.847927728079e-05 3.057994652810e-04 0.0 
3.057994652810e-04 1.071088269604e-02 0.0 
0.0 0.0 0.0 
0.0 1.291780839736e-03 0.0 
1.291780839736e-03 7.772199708593e-03 0.0 
0.0 0.0 0.0 
-4.485775848159e-04 -2.207568442021e-05 0.0 
-2.207568442021e-05 8.945938437185e-03 0.0 
0.0 0.0 0.0 
-1.118677312234e-04 1.406456008163e-03 0.0 
1.406456008163e-03 9.635460596528e-03 0.0 
0.0 0.0 0.0 
-3.392107251847e-04 8.272111653705e-04 0.0 
8.272111653705e-04 1.018913934346e-02 0.0 
0.0 0.0 0.0 
-4.067931753353e-04 5.681225988615e-05 0.0 
5.681225988615e-05 9.180699699054e-03 0.0 
0.0 0.0 0.0 
-2.012751409022e-04 1.373713632798e-03 0.0 
1.373713632798e-03 9.337131398884e-03 0.0 
0.0 0.0 0.0 
-2.440863353663e-04 -2.125374020256e-04 0.0 
-2.125374020256e-04 3.162396857592e-03 0.0 
0.0 0.0 0.0 
-5.478578036973e-04 4.402689920513e-06 0.0 
4.402689920513e-06 7.455429912417e-03 0.0 
0.0 0.0 0.0 
1.892891938238e-04 1.547506994056e-03 0.0 
1.547506994056e-03 7.701626226176e-03 0.0 
0.0 0.0 0.0 
-1.026547290808e-04 5.702458117153e-05 0.0 
5.702458117153e-05 1.077274892361e-02 0.0 
0.0 0.0 0.0 
5.277934683356e-04 9.329403534726e-06 0.0 
9.329403534726e-06 -1.417684753018e-04 0.0 
0.0 0.0 0.0 
-5.215845148541e-04 1.010664374593e-05 0.0 
1.010664374593e-05 7.450427267785e-03 0.0 
0.0 0.0 0.0 
-4.379942706412e-05 -3.559779927505e-05 0.0 
-3.559779927505e-05 7.350283748968e-03 0.0 
0.0 0.0 0.0 
-1.321274062590e-04 -2.590800731226e-04 0.0 
-2.590800731226e-04 1.423664217873e-03 0.0 
0.0 0.0 0.0 
6.101896866040e-04 8.627718805038e-04 0.0 
8.627718805038e-04 6.384742140472e-03 0.0 
0.0 0.0 0.0 
-3.839529473836e-04 9.771708911512e-04 0.0 
9.771708911512e-04 1.000037945455e-02 0.0 
0.0 0.0 0.0 
-1.849416728692e-04 2.595437803676e-04 0.0 
2.595437803676e-04 1.069172949228e-02 0.0 
0.0 0.0 0.0 
3.205198862544e-06 -1.479262094952e-04 0.0 
-1.479262094952e-04 1.326043129361e-03 0.0 
0.0 0.0 0.0 
4.561322641556e-04 3.393770221936e-03 0.0 
3.393770221936e-03 -1.857174399082e-03 0.0 
0.0 0.0 0.0 
-2.342451859895e-04 2.055784135978e-05 0.0 
2.055784135978e-05 4.475569776262e-03 0.0 
0.0 0.0 0.0 
-3.191952058099e-04 7.478287152707e-05 0.0 
7.478287152707e-05 9.877139612966e-03 0.0 
0.0 0.0 0.0 
-4.276171835141e-03 -3.295832922133e-04 0.0 
-3.295832922133e-04 -2.759809853226e-03 0.0 
0.0 0.0 0.0 
-1.327816098335e-04 7.223565736047e-04 0.0 
7.223565736047e-04 1.053614696565e-02 0.0 
0.0 0.0 0.0 
-4.450499920249e-04 4.425461037480e-05 0.0 
4.425461037480e-05 8.828446472863e-03 0.0 
0.0 0.0 0.0 
-1.677864487920e-04 -2.265371754975e-03 0.0 
-2.265371754975e-03 -1.998100521323e-04 0.0 
0.0 0.0 0.0 
-4.904868567926e-04 6.235654846588e-05 0.0 
6.235654846588e-05 8.553318145475e-03 0.0 
0.0 0.0 0.0 
1.054022890927e-04 1.614257988164e-03 0.0 
1.614257988164e-03 8.155796954512e-03 0.0 
0.0 0.0 0.0 
-2.202487536196e-04 -6.469945863920e-05 0.0 
-6.469945863920e-05 4.668138939083e-03 0.0 
0.0 0.0 0.0 
-1.881869132784e-03 3.173354554850e-03 0.0 
3.173354554850e-03 1.963136852721e-04 0.0 
0.0 0.0 0.0 
-2.554777090895e-04 -2.395967798440e-04 0.0 
-2.395967798440e-04 2.893430680028e-03 0.0 
0.0 0.0 0.0 
-2.035928782379e-04 -2.227152502698e-04 0.0 
-2.227152502698e-04 4.088663856177e-03 0.0 
0.0 0.0 0.0 
-2.034740142893e-04 2.853671429973e-05 0.0 
2.853671429973e-05 4.845584770396e-03 0.0 
0.0 0.0 0.0 
3.091578625805e-04 1.372030851545e-03 0.0 
1.372030851545e-03 7.243362747845e-03 0.0 
0.0 0.0 0.0 
-2.410812244720e-04 -1.367347633842e-04 0.0 
-1.367347633842e-04 4.005312585335e-03 0.0 
0.0 0.0 0.0 
-2.135031509495e-04 -1.386502500093e-04 0.0 
-1.386502500093e-04 4.253949613143e-03 0.0 
0.0 0.0 0.0 
-1.291834502870e-05 -1.785206817477e-04 0.0 
-1.785206817477e-04 6.345625826054e-04 0.0 
0.0 0.0 0.0 
1.297907086779e-04 -2.182043338492e-05 0.0 
-2.182043338492e-05 6.715770774282e-03 0.0 
0.0 0.0 0.0 
-8.835882537794e-05 1.529599024264e-03 0.0 
1.529599024264e-03 8.284009935436e-03 0.0 
0.0 0.0 0.0 
9.978606841345e-04 3.050878753518e-03 0.0 
3.050878753518e-03 -2.149589809248e-03 0.0 
0.0 0.0 0.0 
-7.981115044020e-05 3.380529935474e-05 0.0 
3.380529935474e-05 1.076132631844e-02 0.0 
0.0 0.0 0.0 
-4.006142605151e-05 8.423659792031e-07 0.0 
8.423659792031e-07 7.339373650666e-03 0.0 
0.0 0.0 0.0 
-5.206651420800e-04 -1.760577801168e-05 0.0 
-1.760577801168e-05 7.776964758331e-03 0.0 
0.0 0.0 0.0 
-4.684404031962e-04 3.707306048735e-05 0.0 
3.707306048735e-05 8.826431054132e-03 0.0 
0.0 0.0 0.0 
-2.358578799277e-04 -1.562832206040e-04 0.0 
-1.562832206040e-04 4.007476873814e-03 0.0 
0.0 0.0 0.0 
-2.202273441698e-04 -1.884245229274e-04 0.0 
-1.884245229274e-04 4.072935804149e-03 0.0 
0.0 0.0 0.0 
-2.420948949168e-04 -1.163334386725e-04 0.0 
-1.163334386725e-04 4.242012088499e-03 0.0 
0.0 0.0 0.0 
6.512393925437e-04 9.046241933784e-04 0.0 
9.046241933784e-04 6.039301983801e-03 0.0 
0.0 0.0 0.0 
-4.342118089660e-04 -1.888248120211e-03 0.0 
-1.888248120211e-03 4.919560283461e-04 0.0 
0.0 0.0 0.0 
-1.432873476659e-04 1.549473832036e-03 0.0 
1.549473832036e-03 8.686856926475e-03 0.0 
0.0 0.0 0.0 
-5.007527463810e-04 3.336410813773e-05 0.0 
3.336410813773e-05 8.137858727323e-03 0.0 
0.0 0.0 0.0 
-2.526339655211e-04 6.731931504874e-04 0.0 
6.731931504874e-04 1.053876122335e-02 0.0 
0.0 0.0 0.0 
6.017940041740e-04 8.036001543769e-04 0.0 
8.036001543769e-04 6.026919369209e-03 0.0 
0.0 0.0 0.0 
-5.167821554048e-04 5.170097367883e-05 0.0 
5.170097367883e-05 8.559889356898e-03 0.0 
0.0 0.0 0.0 
-2.673022931923e-04 1.352049858506e-03 0.0 
1.352049858506e-03 9.124760786942e-03 0.0 
0.0 0.0 0.0 
3.018924377616e-04 1.403393685575e-03 0.0 
1.403393685575e-03 7.232460203771e-03 0.0 
0.0 0.0 0.0 
2.426644000844e-04 1.511528632460e-03 0.0 
1.511528632460e-03 7.690088091256e-03 0.0 
0.0 0.0 0.0 
-5.610664888644e-04 3.125424960441e-03 0.0 
3.125424960441e-03 -1.904179497513e-03 0.0 
0.0 0.0 0.0 
-3.246349661861e-04 1.348737523293e-03 0.0 
1.348737523293e-03 9.125304604442e-03 0.0 
0.0 0.0 0.0 
-2.214145416863e-04 1.476675273494e-03 0.0 
1.476675273494e-03 9.161360665497e-03 0.0 
0.0 0.0 0.0 
2.090139206705e-04 -1.351221859724e-04 0.0 
-1.351221859724e-04 5.942842111784e-04 0.0 
0.0 0.0 0.0 
-2.378075118461e-04 -2.001691037648e-04 0.0 
-2.001691037648e-04 3.800888218917e-03 0.0 
0.0 0.0 0.0 
-1.007931992916e-03 3.168671030617e-03 0.0 
3.168671030617e-03 -1.885374433581e-03 0.0 
0.0 0.0 0.0 
-3.061116698577e-04 1.389160776251e-03 0.0 
1.389160776251e-03 9.413505393266e-03 0.0 
0.0 0.0 0.0 
-4.200946308824e-04 5.524395229711e-06 0.0 
5.524395229711e-06 4.410563820368e-03 0.0 
0.0 0.0 0.0 
-4.315499121270e-04 1.295642955487e-05 0.0 
1.295642955487e-05 4.435447245518e-03 0.0 
0.0 0.0 0.0 
-3.781086815529e-04 8.257093273009e-06 0.0 
8.257093273009e-06 4.435729677849e-03 0.0 
0.0 0.0 0.0 
-4.181831874467e-04 -1.054348050723e-05 0.0 
-1.054348050723e-05 4.435881735789e-03 0.0 
0.0 0.0 0.0 
-3.780717557234e-04 -5.899901571524e-06 0.0 
-5.899901571524e-06 4.435212431236e-03 0.0 
0.0 0.0 0.0 
-4.084121325512e-04 -2.173773701477e-05 0.0 
-2.173773701477e-05 4.431825505822e-03 0.0 
0.0 0.0 0.0 
-3.717988060138e-04 -1.637986302060e-05 0.0 
-1.637986302060e-05 4.430784570613e-03 0.0 
0.0 0.0 0.0 
-3.992588960070e-04 -3.076575239193e-05 0.0 
-3.076575239193e-05 4.427212496483e-03 0.0 
0.0 0.0 0.0 
-3.592886702239e-04 -2.348610425771e-05 0.0 
-2.348610425771e-05 4.425443016944e-03 0.0 
0.0 0.0 0.0 
-3.888347536303e-04 -3.864734639239e-05 0.0 
-3.864734639239e-05 4.421740402343e-03 0.0 
0.0 0.0 0.0 
-3.415875268696e-04 -2.867528907247e-05 0.0 
-2.867528907247e-05 4.418810127223e-03 0.0 
0.0 0.0 0.0 
-3.763419166714e-04 -4.585659718437e-05 0.0 
-4.585659718437e-05 4.415100481287e-03 0.0 
0.0 0.0 0.0 
-3.193529712820e-04 -3.279136461460e-05 0.0 
-3.279136461460e-05 4.410550204798e-03 0.0 
0.0 0.0 0.0 
-3.615473160813e-04 -5.262283975399e-05 0.0 
-5.262283975399e-05 4.407199399065e-03 0.0 
0.0 0.0 0.0 
-2.929531273654e-04 -3.618857618844e-05 0.0 
-3.618857618844e-05 4.400519171494e-03 0.0 
0.0 0.0 0.0 
-3.445183634808e-04 -5.898725063353e-05 0.0 
-5.898725063353e-05 4.398074071445e-03 0.0 
0.0 0.0 0.0 
-2.625990441405e-04 -3.895143405519e-05 0.0 
-3.895143405519e-05 4.388684652374e-03 0.0 
0.0 0.0 0.0 
-3.254723922876e-04 -6.487529595380e-05 0.0 
-6.487529595380e-05 4.387824133651e-03 0.0 
0.0 0.0 0.0 
-2.284437740284e-04 -4.101896961910e-05 0.0 
-4.101896961910e-05 4.375060287056e-03 0.0 
0.0 0.0 0.0 
-6.964250251381e-04 6.274412582999e-04 0.0 
6.274412582999e-04 4.393417507971e-03 0.0 
0.0 0.0 0.0 
-3.047474120031e-04 -7.012463040515e-05 0.0 
-7.012463040515e-05 4.376598703425e-03 0.0 
0.0 0.0 0.0 
-1.906486453634e-04 -4.224601105384e-05 0.0 
-4.224601105384e-05 4.359698151919e-03 0.0 
0.0 0.0 0.0 
-2.828145546064e-04 -7.449979538311e-05 0.0 
-7.449979538311e-05 4.364612986240e-03 0.0 
0.0 0.0 0.0 
-8.355778986288e-04 4.939039136816e-04 0.0 
4.939039136816e-04 4.546324781377e-03 0.0 
0.0 0.0 0.0 
-1.494488379972e-04 -4.242088563546e-05 0.0 
-4.242088563546e-05 4.342705019333e-03 0.0 
0.0 0.0 0.0 
-2.603463019483e-04 -7.767201871680e-05 0.0 
-7.767201871680e-05 4.352208143195e-03 0.0 
0.0 0.0 0.0 
-1.052481742382e-04 -4.124630657499e-05 0.0 
-4.124630657499e-05 4.324301654161e-03 0.0 
0.0 0.0 0.0 
-2.384075879162e-04 -7.929801965927e-05 0.0 
-7.929801965927e-05 4.339797890580e-03 0.0 
0.0 0.0 0.0 
-5.871571073934e-05 -3.841733390829e-05 0.0 
-3.841733390829e-05 4.304760210725e-03 0.0 
0.0 0.0 0.0 
-2.519058147522e-04 3.706795125053e-04 0.0 
3.706795125053e-04 4.104489843381e-03 0.0 
0.0 0.0 0.0 
-2.182897324619e-04 -7.888936479910e-05 0.0 
-7.888936479910e-05 4.327955647450e-03 0.0 
0.0 0.0 0.0 
-1.093568304422e-05 -3.344849536002e-05 0.0 
-3.344849536002e-05 4.284485818533e-03 0.0 
0.0 0.0 0.0 
-2.020442393171e-04 -7.593449222857e-05 0.0 
-7.593449222857e-05 4.317255462279e-03 0.0 
0.0 0.0 0.0 
3.657187314832e-05 -2.591445313111e-05 0.0 
-2.591445313111e-05 4.263883025223e-03 0.0 
0.0 0.0 0.0 
-1.918449385206e-04 -6.928917205965e-05 0.0 
-6.928917205965e-05 4.308974229893e-03 0.0 
0.0 0.0 0.0 
8.151286984370e-05 -1.458336415530e-05 0.0 
-1.458336415530e-05 4.243988921109e-03 0.0 
0.0 0.0 0.0 
-1.921769303637e-04 -5.827584311520e-05 0.0 
-5.827584311520e-05 4.303859040734e-03 0.0 
0.0 0.0 0.0 
1.208126211201e-04 1.430675820969e-06 0.0 
1.430675820969e-06 4.225020572503e-03 0.0 
0.0 0.0 0.0 
-2.060647798114e-04 -3.944262423939e-05 0.0 
-3.944262423939e-05 4.304788443743e-03 0.0 
0.0 0.0 0.0 
1.495408632193e-04 2.575698631857e-05 0.0 
2.575698631857e-05 4.209667116980e-03 0.0 
0.0 0.0 0.0 
-2.438611931711e-04 -1.225120996228e-05 0.0 
-1.225120996228e-05 4.311868458899e-03 0.0 
0.0 0.0 0.0 
-1.318480998283e-03 1.085449971950e-03 0.0 
1.085449971950e-03 4.761485076237e-03 0.0 
0.0 0.0 0.0 
-3.081421969457e-04 3.689162572413e-05 0.0 
3.689162572413e-05 4.334497799678e-03 0.0 
0.0 0.0 0.0 
1.599989640784e-04 6.044606712802e-05 0.0 
6.044606712802e-05 4.196204849721e-03 0.0 
0.0 0.0 0.0 
-4.281500812436e-04 9.834483033135e-05 0.0 
9.834483033135e-05 4.366235020485e-03 0.0 
0.0 0.0 0.0 
1.383392455943e-04 1.158619559208e-04 0.0 
1.158619559208e-04 4.197896646837e-03 0.0 
0.0 0.0 0.0 
-5.480333976036e-04 2.335416004583e-04 0.0 
2.335416004583e-04 4.418473053576e-03 0.0 
0.0 0.0 0.0 
6.609773739585e-05 2.008655991073e-04 0.0 
2.008655991073e-04 4.191019242691e-03 0.0 
0.0 0.0 0.0 
-1.003381674237e-04 3.753329195905e-04 0.0 
3.753329195905e-04 4.205456924838e-03 0.0 
0.0 0.0 0.0 
-1.139755217899e-03 4.842687145720e-04 0.0 
4.842687145720e-04 4.832618973124e-03 0.0 
0.0 0.0 0.0 
-4.762585315210e-04 -5.352563479452e-05 0.0 
-5.352563479452e-05 4.478499429803e-03 0.0 
0.0 0.0 0.0 
-4.369667932591e-04 6.399585362128e-05 0.0 
6.399585362128e-05 4.408321157829e-03 0.0 
0.0 0.0 0.0 
-4.403350280247e-04 -1.665908391449e-06 0.0 
-1.665908391449e-06 4.545669162143e-03 0.0 
0.0 0.0 0.0 
-4.728242529366e-04 1.348965656610e-05 0.0 
1.348965656610e-05 4.343742897266e-03 0.0 
0.0 0.0 0.0 
-1.407970683066e-03 1.160767982517e-03 0.0 
1.160767982517e-03 4.265292765716e-03 0.0 
0.0 0.0 0.0 
-4.460037192592e-04 -1.996015804977e-05 0.0 
-1.996015804977e-05 4.922281164771e-03 0.0 
0.0 0.0 0.0 
-4.315499121270e-04 -6.981335329334e-06 0.0 
-6.981335329334e-06 4.884227835386e-03 0.0 
0.0 0.0 0.0 
-4.429552327788e-04 -1.417454289071e-05 0.0 
-1.417454289071e-05 4.883623899228e-03 0.0 
0.0 0.0 0.0 
-4.181831874467e-04 -2.239845216664e-05 0.0 
-2.239845216664e-05 4.877352761835e-03 0.0 
0.0 0.0 0.0 
-4.373406659990e-04 -2.173624174825e-05 0.0 
-2.173624174825e-05 4.877520619766e-03 0.0 
0.0 0.0 0.0 
-4.084121325512e-04 -3.226360208779e-05 0.0 
-3.226360208779e-05 4.872628269743e-03 0.0 
0.0 0.0 0.0 
-4.314719234171e-04 -3.106002913869e-05 0.0 
-3.106002913869e-05 4.873011951926e-03 0.0 
0.0 0.0 0.0 
-3.992588960070e-04 -4.283196953227e-05 0.0 
-4.283196953227e-05 4.868405931174e-03 0.0 
0.0 0.0 0.0 
-4.257521668596e-04 -4.017598387404e-05 0.0 
-4.017598387404e-05 4.869296330594e-03 0.0 
0.0 0.0 0.0 
-3.888347536303e-04 -5.321435900120e-05 0.0 
-5.321435900120e-05 4.864056897372e-03 0.0 
0.0 0.0 0.0 
-4.198305218251e-04 -4.865032937751e-05 0.0 
-4.865032937751e-05 4.865774852007e-03 0.0 
0.0 0.0 0.0 
-3.763419166714e-04 -6.311670123432e-05 0.0 
-6.311670123432e-05 4.859044782906e-03 0.0 
0.0 0.0 0.0 
-4.134390730717e-04 -5.640739075517e-05 0.0 
-5.640739075517e-05 4.861945802099e-03 0.0 
0.0 0.0 0.0 
-3.615473160813e-04 -7.245185736063e-05 0.0 
-7.245185736063e-05 4.853042096125e-03 0.0 
0.0 0.0 0.0 
-4.065205330925e-04 -6.334389249385e-05 0.0 
-6.334389249385e-05 4.857570332434e-03 0.0 
0.0 0.0 0.0 
-3.445183634808e-04 -8.106592002276e-05 0.0 
-8.106592002276e-05 4.845965801012e-03 0.0 
0.0 0.0 0.0 
-3.993324978180e-04 -6.932329788065e-05 0.0 
-6.932329788065e-05 4.852659012739e-03 0.0 
0.0 0.0 0.0 
-3.254723922876e-04 -8.873766634592e-05 0.0 
-8.873766634592e-05 4.837809150541e-03 0.0 
0.0 0.0 0.0 
-7.405594315393e-04 6.092142133114e-04 0.0 
6.092142133114e-04 4.788293370719e-03 0.0 
0.0 0.0 0.0 
-3.922663359552e-04 -7.411675729988e-05 0.0 
-7.411675729988e-05 4.847322681113e-03 0.0 
0.0 0.0 0.0 
-3.047474120031e-04 -9.513153814750e-05 0.0 
-9.513153814750e-05 4.828635021608e-03 0.0 
0.0 0.0 0.0 
-3.858651477135e-04 -7.739377662479e-05 0.0 
-7.739377662479e-05 4.841756883934e-03 0.0 
0.0 0.0 0.0 
-5.480333976036e-04 5.126809905007e-04 0.0 
5.126809905007e-04 4.590018556923e-03 0.0 
0.0 0.0 0.0 
-2.828145546064e-04 -9.977291226354e-05 0.0 
-9.977291226354e-05 4.818541123370e-03 0.0 
0.0 0.0 0.0 
-8.228533392109e-04 4.900476154118e-04 0.0 
4.900476154118e-04 4.928033445537e-03 0.0 
0.0 0.0 0.0 
-3.808081006275e-04 -7.865836129149e-05 0.0 
-7.865836129149e-05 4.836226158767e-03 0.0 
0.0 0.0 0.0 
-2.603463019483e-04 -1.019611250115e-04 0.0 
-1.019611250115e-04 4.807664860039e-03 0.0 
0.0 0.0 0.0 
-3.780133839277e-04 -7.705218483163e-05 0.0 
-7.705218483163e-05 4.831141622473e-03 0.0 
0.0 0.0 0.0 
-2.384075879162e-04 -1.007308668640e-04 0.0 
-1.007308668640e-04 4.796526171049e-03 0.0 
0.0 0.0 0.0 
-3.791014576928e-04 -7.190339917717e-05 0.0 
-7.190339917717e-05 4.827105460679e-03 0.0 
0.0 0.0 0.0 
-2.182897324619e-04 -9.495789018274e-05 0.0 
-9.495789018274e-05 4.785144846502e-03 0.0 
0.0 0.0 0.0 
-3.855107474656e-04 -6.163902663597e-05 0.0 
-6.163902663597e-05 4.824655602679e-03 0.0 
0.0 0.0 0.0 
-2.020442393171e-04 -8.303355296754e-05 0.0 
-8.303355296754e-05 4.774527547547e-03 0.0 
0.0 0.0 0.0 
-9.946858501668e-04 8.366479970813e-04 0.0 
8.366479970813e-04 4.962216644519e-03 0.0 
0.0 0.0 0.0 
-3.998926115076e-04 -4.555284326994e-05 0.0 
-4.555284326994e-05 4.824537371723e-03 0.0 
0.0 0.0 0.0 
-1.918449385206e-04 -6.279567656459e-05 0.0 
-6.279567656459e-05 4.763590200762e-03 0.0 
0.0 0.0 0.0 
-4.235123990252e-04 -1.916533987365e-05 0.0 
-1.916533987365e-05 4.827479493140e-03 0.0 
0.0 0.0 0.0 
-1.921769303637e-04 -3.083791279646e-05 0.0 
-3.083791279646e-05 4.755977385587e-03 0.0 
0.0 0.0 0.0 
-2.060647798114e-04 1.749370353676e-05 0.0 
1.749370353676e-05 4.745270998479e-03 0.0 
0.0 0.0 0.0 
-4.630031912290e-04 1.673730779634e-05 0.0 
1.673730779634e-05 4.834678838244e-03 0.0 
0.0 0.0 0.0 
-2.438611931711e-04 9.013941037943e-05 0.0 
9.013941037943e-05 4.743579514521e-03 0.0 
0.0 0.0 0.0 
-5.152675893171e-04 7.595695481121e-05 0.0 
7.595695481121e-05 4.846318246805e-03 0.0 
0.0 0.0 0.0 
-3.081421969457e-04 2.004925382048e-04 0.0 
2.004925382048e-04 4.723308279351e-03 0.0 
0.0 0.0 0.0 
-4.281500812436e-04 3.738723252352e-04 0.0 
3.738723252352e-04 4.726627413318e-03 0.0 
0.0 0.0 0.0 
-5.985004699245e-04 1.506554660045e-04 0.0 
1.506554660045e-04 4.863241732409e-03 0.0 
0.0 0.0 0.0 
-6.617188695192e-04 2.894911291906e-04 0.0 
2.894911291906e-04 4.878257518665e-03 0.0 
0.0 0.0 0.0 
-9.229152491179e-04 5.854430309376e-04 0.0 
5.854430309376e-04 4.904691698115e-03 0.0 
0.0 0.0 0.0 
-4.249672706204e-04 -6.058712733761e-05 0.0 
-6.058712733761e-05 4.860975046076e-03 0.0 
0.0 0.0 0.0 
-4.608351201469e-04 4.877571568590e-05 0.0 
4.877571568590e-05 4.925276690189e-03 0.0 
0.0 0.0 0.0 
-4.403350280247e-04 -1.176540397619e-05 0.0 
-1.176540397619e-05 4.780161139661e-03 0.0 
0.0 0.0 0.0 
-4.459229203454e-04 1.754908141901e-06 0.0 
1.754908141901e-06 5.003003031699e-03 0.0 
0.0 0.0 0.0 
-8.355778986288e-04 9.090069592578e-04 0.0 
9.090069592578e-04 4.559293432173e-03 0.0 
0.0 0.0 0.0 
-4.460037192592e-04 -2.590202771059e-05 0.0 
-2.590202771059e-05 5.276319089389e-03 0.0 
0.0 0.0 0.0 
-4.652063133860e-04 -1.296624638211e-05 0.0 
-1.296624638211e-05 5.318634904629e-03 0.0 
0.0 0.0 0.0 
-4.429552327788e-04 -2.262334893915e-05 0.0 
-2.262334893915e-05 5.319432590143e-03 0.0 
0.0 0.0 0.0 
-4.647988741039e-04 -3.167533761843e-05 0.0 
-3.167533761843e-05 5.321596685415e-03 0.0 
0.0 0.0 0.0 
-4.373406659990e-04 -2.908701319151e-05 0.0 
-2.908701319151e-05 5.321142289662e-03 0.0 
0.0 0.0 0.0 
-4.636238698162e-04 -4.164286185099e-05 0.0 
-4.164286185099e-05 5.320125168828e-03 0.0 
0.0 0.0 0.0 
-4.314719234171e-04 -3.759846120822e-05 0.0 
-3.759846120822e-05 5.319178679897e-03 0.0 
0.0 0.0 0.0 
-4.626194819823e-04 -5.194518093009e-05 0.0 
-5.194518093009e-05 5.318348443206e-03 0.0 
0.0 0.0 0.0 
-4.257521668596e-04 -4.680339419008e-05 0.0 
-4.680339419008e-05 5.316795085561e-03 0.0 
0.0 0.0 0.0 
-4.622069939967e-04 -6.264122686017e-05 0.0 
-6.264122686017e-05 5.316816115428e-03 0.0 
0.0 0.0 0.0 
-4.198305218251e-04 -5.581883512969e-05 0.0 
-5.581883512969e-05 5.314315400292e-03 0.0 
0.0 0.0 0.0 
-4.625204020094e-04 -7.323052484504e-05 0.0 
-7.323052484504e-05 5.315477104010e-03 0.0 
0.0 0.0 0.0 
-4.134390730717e-04 -6.414914578872e-05 0.0 
-6.414914578872e-05 5.311576634623e-03 0.0 
0.0 0.0 0.0 
-4.634563168530e-04 -8.327067805620e-05 0.0 
-8.327067805620e-05 5.314117288320e-03 0.0 
0.0 0.0 0.0 
-4.065205330925e-04 -7.135161526629e-05 0.0 
-7.135161526629e-05 5.308249462061e-03 0.0 
0.0 0.0 0.0 
-4.651768448392e-04 -9.214605797577e-05 0.0 
-9.214605797577e-05 5.312746724732e-03 0.0 
0.0 0.0 0.0 
-3.993324978180e-04 -7.706444644726e-05 0.0 
-7.706444644726e-05 5.304324717908e-03 0.0 
0.0 0.0 0.0 
-7.830949954530e-04 5.028366329336e-04 0.0 
5.028366329336e-04 5.230820427713e-03 0.0 
0.0 0.0 0.0 
-4.681192406566e-04 -9.942653203343e-05 0.0 
-9.942653203343e-05 5.311453447244e-03 0.0 
0.0 0.0 0.0 
-3.922663359552e-04 -8.085734666370e-05 0.0 
-8.085734666370e-05 5.299795157552e-03 0.0 
0.0 0.0 0.0 
-8.338257732580e-04 3.937117596161e-04 0.0 
3.937117596161e-04 5.341029089462e-03 0.0 
0.0 0.0 0.0 
-4.728270426152e-04 -1.045463041330e-04 0.0 
-1.045463041330e-04 5.310385149343e-03 0.0 
0.0 0.0 0.0 
-3.858651477135e-04 -8.218597626949e-05 0.0 
-8.218597626949e-05 5.294718305744e-03 0.0 
0.0 0.0 0.0 
-4.797852362853e-04 -1.068014379396e-04 0.0 
-1.068014379396e-04 5.309640072432e-03 0.0 
0.0 0.0 0.0 
-3.808081006275e-04 -8.020453834369e-05 0.0 
-8.020453834369e-05 5.289027745088e-03 0.0 
0.0 0.0 0.0 
-4.896298149214e-04 -1.051044216884e-04 0.0 
-1.051044216884e-04 5.309306951638e-03 0.0 
0.0 0.0 0.0 
-6.617188695192e-04 4.643745908021e-04 0.0 
4.643745908021e-04 5.055133102311e-03 0.0 
0.0 0.0 0.0 
-3.780133839277e-04 -7.356813093333e-05 0.0 
-7.356813093333e-05 5.282567546839e-03 0.0 
0.0 0.0 0.0 
-5.031452221492e-04 -9.746961360697e-05 0.0 
-9.746961360697e-05 5.309868604200e-03 0.0 
0.0 0.0 0.0 
-3.791014576928e-04 -6.085121350008e-05 0.0 
-6.085121350008e-05 5.276089267175e-03 0.0 
0.0 0.0 0.0 
-5.230227224206e-04 -8.291574218463e-05 0.0 
-8.291574218463e-05 5.311713227299e-03 0.0 
0.0 0.0 0.0 
-3.855107474656e-04 -4.005162491341e-05 0.0 
-4.005162491341e-05 5.269136348199e-03 0.0 
0.0 0.0 0.0 
-5.486657993156e-04 -5.805453065331e-05 0.0 
-5.805453065331e-05 5.315049168070e-03 0.0 
0.0 0.0 0.0 
-3.998926115076e-04 -8.807325907152e-06 0.0 
-8.807325907152e-06 5.262791218426e-03 0.0 
0.0 0.0 0.0 
-5.855051994906e-04 -2.235322283257e-05 0.0 
-2.235322283257e-05 5.319482963945e-03 0.0 
0.0 0.0 0.0 
-4.235123990252e-04 3.752677189766e-05 0.0 
3.752677189766e-05 5.253099111828e-03 0.0 
0.0 0.0 0.0 
-6.271296561904e-04 3.495320129434e-05 0.0 
3.495320129434e-05 5.325408380144e-03 0.0 
0.0 0.0 0.0 
-9.195190211078e-04 6.511381278910e-04 0.0 
6.511381278910e-04 5.343198618473e-03 0.0 
0.0 0.0 0.0 
-6.905605832254e-04 1.063320487522e-04 0.0 
1.063320487522e-04 5.329838482413e-03 0.0 
0.0 0.0 0.0 
-4.630031912290e-04 1.027414440023e-04 0.0 
1.027414440023e-04 5.247225816549e-03 0.0 
0.0 0.0 0.0 
-7.325420963163e-04 2.286764942492e-04 0.0 
2.286764942492e-04 5.327829807393e-03 0.0 
0.0 0.0 0.0 
-5.152675893171e-04 1.982390695029e-04 0.0 
1.982390695029e-04 5.224009445045e-03 0.0 
0.0 0.0 0.0 
-5.985004699245e-04 3.361917342289e-04 0.0 
3.361917342289e-04 5.208999612631e-03 0.0 
0.0 0.0 0.0 
-8.723909432530e-04 5.025582493433e-04 0.0 
5.025582493433e-04 5.248013972136e-03 0.0 
0.0 0.0 0.0 
-4.715404590043e-04 -6.107028137696e-05 0.0 
-6.107028137696e-05 5.332828868807e-03 0.0 
0.0 0.0 0.0 
-4.383374293393e-04 4.578254799628e-05 0.0 
4.578254799628e-05 5.273198745697e-03 0.0 
0.0 0.0 0.0 
-4.633980649843e-04 -1.290137947125e-05 0.0 
-1.290137947125e-05 5.419280147635e-03 0.0 
0.0 0.0 0.0 
-4.459229203454e-04 -5.253636192814e-07 0.0 
-5.253636192814e-07 5.189855581803e-03 0.0 
0.0 0.0 0.0 
-8.228533392109e-04 7.254495481375e-04 0.0 
7.254495481375e-04 5.034180289408e-03 0.0 
0.0 0.0 0.0 
-4.843261974740e-04 -2.533299068381e-05 0.0 
-2.533299068381e-05 5.800662194619e-03 0.0 
0.0 0.0 0.0 
-4.652063133860e-04 -1.424196716030e-05 0.0 
-1.424196716030e-05 5.762333554534e-03 0.0 
0.0 0.0 0.0 
-4.864170496186e-04 -2.337834356928e-05 0.0 
-2.337834356928e-05 5.761472943734e-03 0.0 
0.0 0.0 0.0 
-4.647988741039e-04 -3.278648582381e-05 0.0 
-3.278648582381e-05 5.760380955480e-03 0.0 
0.0 0.0 0.0 
-4.888544345558e-04 -3.096355114570e-05 0.0 
-3.096355114570e-05 5.760789708209e-03 0.0 
0.0 0.0 0.0 
-4.636238698162e-04 -4.211561743838e-05 0.0 
-4.211561743838e-05 5.760426670095e-03 0.0 
0.0 0.0 0.0 
-4.920971690517e-04 -3.915481982897e-05 0.0 
-3.915481982897e-05 5.761303562609e-03 0.0 
0.0 0.0 0.0 
-4.626194819823e-04 -5.145920167250e-05 0.0 
-5.145920167250e-05 5.760267376671e-03 0.0 
0.0 0.0 0.0 
-4.963479845647e-04 -4.742622602323e-05 0.0 
-4.742622602323e-05 5.761802628434e-03 0.0 
0.0 0.0 0.0 
-4.622069939967e-04 -6.091961673265e-05 0.0 
-6.091961673265e-05 5.760074526953e-03 0.0 
0.0 0.0 0.0 
-5.021350682950e-04 -5.532458483335e-05 0.0 
-5.532458483335e-05 5.762651418192e-03 0.0 
0.0 0.0 0.0 
-4.625204020094e-04 -6.998409013037e-05 0.0 
-6.998409013037e-05 5.759876869688e-03 0.0 
0.0 0.0 0.0 
-5.095208468614e-04 -6.268677216088e-05 0.0 
-6.268677216088e-05 5.763870319597e-03 0.0 
0.0 0.0 0.0 
-4.634563168530e-04 -7.816884898403e-05 0.0 
-7.816884898403e-05 5.759160343304e-03 0.0 
0.0 0.0 0.0 
-5.184888555403e-04 -6.871492546136e-05 0.0 
-6.871492546136e-05 5.765143214256e-03 0.0 
0.0 0.0 0.0 
-4.651768448392e-04 -8.466491078072e-05 0.0 
-8.466491078072e-05 5.757845165067e-03 0.0 
0.0 0.0 0.0 
-8.186730517751e-04 3.863827504468e-04 0.0 
3.863827504468e-04 5.690170122900e-03 0.0 
0.0 0.0 0.0 
-5.290617465814e-04 -7.264692162159e-05 0.0 
-7.264692162159e-05 5.766487433331e-03 0.0 
0.0 0.0 0.0 
-4.681192406566e-04 -8.862802964305e-05 0.0 
-8.862802964305e-05 5.756178935772e-03 0.0 
0.0 0.0 0.0 
-7.325420963163e-04 3.661741618539e-04 0.0 
3.661741618539e-04 5.526406596683e-03 0.0 
0.0 0.0 0.0 
-5.424704773055e-04 -7.387129697202e-05 0.0 
-7.387129697202e-05 5.768204254388e-03 0.0 
0.0 0.0 0.0 
-4.728270426152e-04 -8.939447552752e-05 0.0 
-8.939447552752e-05 5.754106532923e-03 0.0 
0.0 0.0 0.0 
-8.451681924491e-04 3.173907125491e-04 0.0 
3.173907125491e-04 5.765785945967e-03 0.0 
0.0 0.0 0.0 
-5.587831148568e-04 -7.192203894102e-05 0.0 
-7.192203894102e-05 5.770216800996e-03 0.0 
0.0 0.0 0.0 
-4.797852362853e-04 -8.601061094730e-05 0.0 
-8.601061094730e-05 5.751231841292e-03 0.0 
0.0 0.0 0.0 
-5.781190224662e-04 -6.573220169691e-05 0.0 
-6.573220169691e-05 5.772248927585e-03 0.0 
0.0 0.0 0.0 
-4.896298149214e-04 -7.698483321626e-05 0.0 
-7.698483321626e-05 5.747122084935e-03 0.0 
0.0 0.0 0.0 
-6.012148929407e-04 -5.375096305245e-05 0.0 
-5.375096305245e-05 5.774010274392e-03 0.0 
0.0 0.0 0.0 
-5.031452221492e-04 -6.005923868829e-05 0.0 
-6.005923868829e-05 5.740776596796e-03 0.0 
0.0 0.0 0.0 
-9.020515810071e-04 5.001598767130e-04 0.0 
5.001598767130e-04 5.772590907039e-03 0.0 
0.0 0.0 0.0 
-6.277072893254e-04 -3.192377290902e-05 0.0 
-3.192377290902e-05 5.775730276055e-03 0.0 
0.0 0.0 0.0 
-5.230227224206e-04 -3.264622238480e-05 0.0 
-3.264622238480e-05 5.735740928940e-03 0.0 
0.0 0.0 0.0 
-6.626020795000e-04 -2.534568076003e-06 0.0 
-2.534568076003e-06 5.777953016747e-03 0.0 
0.0 0.0 0.0 
-5.486657993156e-04 7.486140638688e-06 0.0 
7.486140638688e-06 5.724911105409e-03 0.0 
0.0 0.0 0.0 
-5.855051994906e-04 6.466271753847e-05 0.0 
6.466271753847e-05 5.718473567292e-03 0.0 
0.0 0.0 0.0 
-6.994308703518e-04 4.485013494881e-05 0.0 
4.485013494881e-05 5.778924712210e-03 0.0 
0.0 0.0 0.0 
-6.271296561904e-04 1.448345796959e-04 0.0 
1.448345796959e-04 5.689893847230e-03 0.0 
0.0 0.0 0.0 
-7.506030649169e-04 9.909309319509e-05 0.0 
9.909309319509e-05 5.777560188532e-03 0.0 
0.0 0.0 0.0 
-6.905605832254e-04 2.599076100250e-04 0.0 
2.599076100250e-04 5.676293656743e-03 0.0 
0.0 0.0 0.0 
-7.745169029481e-04 1.963838281709e-04 0.0 
1.963838281709e-04 5.766134088319e-03 0.0 
0.0 0.0 0.0 
-8.715587085539e-04 4.000923029108e-04 0.0 
4.000923029108e-04 5.653394985648e-03 0.0 
0.0 0.0 0.0 
-4.553576606858e-04 -6.058879453645e-05 0.0 
-6.058879453645e-05 5.740314628279e-03 0.0 
0.0 0.0 0.0 
-4.909428944070e-04 4.566315224939e-05 0.0 
4.566315224939e-05 5.804216137199e-03 0.0 
0.0 0.0 0.0 
-4.633980649843e-04 -1.296437510296e-05 0.0 
-1.296437510296e-05 5.655090419720e-03 0.0 
0.0 0.0 0.0 
-4.836087677856e-04 2.482804241229e-07 0.0 
2.482804241229e-07 5.885803133139e-03 0.0 
0.0 0.0 0.0 
-8.338257732580e-04 5.632581191802e-04 0.0 
5.632581191802e-04 5.480795935553e-03 0.0 
0.0 0.0 0.0 
-4.843261974740e-04 -2.401854284947e-05 0.0 
-2.401854284947e-05 6.157944820315e-03 0.0 
0.0 0.0 0.0 
-5.029273389618e-04 -1.101240213835e-05 0.0 
-1.101240213835e-05 6.199444017859e-03 0.0 
0.0 0.0 0.0 
-4.864170496186e-04 -2.169998182786e-05 0.0 
-2.169998182786e-05 6.200471500105e-03 0.0 
0.0 0.0 0.0 
-5.057512174157e-04 -2.884802596930e-05 0.0 
-2.884802596930e-05 6.203790415765e-03 0.0 
0.0 0.0 0.0 
-4.888544345558e-04 -2.796038167533e-05 0.0 
-2.796038167533e-05 6.203562224717e-03 0.0 
0.0 0.0 0.0 
-5.114534709998e-04 -3.677859237933e-05 0.0 
-3.677859237933e-05 6.205994664970e-03 0.0 
0.0 0.0 0.0 
-4.920971690517e-04 -3.451161276148e-05 0.0 
-3.451161276148e-05 6.205347706026e-03 0.0 
0.0 0.0 0.0 
-5.179706684326e-04 -4.433382669696e-05 0.0 
-4.433382669696e-05 6.207968229603e-03 0.0 
0.0 0.0 0.0 
-4.963479845647e-04 -4.044957317270e-05 0.0 
-4.044957317270e-05 6.206659311786e-03 0.0 
0.0 0.0 0.0 
-5.273225734830e-04 -5.128432037805e-05 0.0 
-5.128432037805e-05 6.210619382031e-03 0.0 
0.0 0.0 0.0 
-5.021350682950e-04 -4.589666859895e-05 0.0 
-4.589666859895e-05 6.208436367631e-03 0.0 
0.0 0.0 0.0 
-5.381874692719e-04 -5.767176394910e-05 0.0 
-5.767176394910e-05 6.213545625718e-03 0.0 
0.0 0.0 0.0 
-5.095208468614e-04 -5.018521202374e-05 0.0 
-5.018521202374e-05 6.210047417233e-03 0.0 
0.0 0.0 0.0 
-5.525875798142e-04 -6.316449738919e-05 0.0 
-6.316449738919e-05 6.216843269739e-03 0.0 
0.0 0.0 0.0 
-5.184888555403e-04 -5.292086506158e-05 0.0 
-5.292086506158e-05 6.211381867837e-03 0.0 
0.0 0.0 0.0 
-8.475246074715e-04 3.051193315503e-04 0.0 
3.051193315503e-04 6.154104101505e-03 0.0 
0.0 0.0 0.0 
-5.675482881987e-04 -6.675100248772e-05 0.0 
-6.675100248772e-05 6.219411476568e-03 0.0 
0.0 0.0 0.0 
-8.496145663209e-04 2.486310918482e-04 0.0 
2.486310918482e-04 6.205366733901e-03 0.0 
0.0 0.0 0.0 
-5.290617465814e-04 -5.234767171738e-05 0.0 
-5.234767171738e-05 6.210981596552e-03 0.0 
0.0 0.0 0.0 
-5.862799728144e-04 -6.606416224730e-05 0.0 
-6.606416224730e-05 6.222592113014e-03 0.0 
0.0 0.0 0.0 
-5.424704773055e-04 -4.835772454238e-05 0.0 
-4.835772454238e-05 6.211000800693e-03 0.0 
0.0 0.0 0.0 
-6.087761721141e-04 -6.194119526521e-05 0.0 
-6.194119526521e-05 6.226156698980e-03 0.0 
0.0 0.0 0.0 
-5.587831148568e-04 -4.025362124523e-05 0.0 
-4.025362124523e-05 6.210447808315e-03 0.0 
0.0 0.0 0.0 
-6.337558073671e-04 -5.323760795537e-05 0.0 
-5.323760795537e-05 6.229006846252e-03 0.0 
0.0 0.0 0.0 
-7.745169029481e-04 3.015316367483e-04 0.0 
3.015316367483e-04 5.989797988643e-03 0.0 
0.0 0.0 0.0 
-5.781190224662e-04 -2.625041868847e-05 0.0 
-2.625041868847e-05 6.207807222052e-03 0.0 
0.0 0.0 0.0 
-6.624549156580e-04 -3.761510804657e-05 0.0 
-3.761510804657e-05 6.230890432756e-03 0.0 
0.0 0.0 0.0 
-6.012148929407e-04 -4.686364964035e-06 0.0 
-4.686364964035e-06 6.203018272354e-03 0.0 
0.0 0.0 0.0 
-6.954187723374e-04 -1.422315144860e-05 0.0 
-1.422315144860e-05 6.230421588971e-03 0.0 
0.0 0.0 0.0 
-6.277072893254e-04 2.834605961080e-05 0.0 
2.834605961080e-05 6.192328484563e-03 0.0 
0.0 0.0 0.0 
-7.274873139372e-04 2.665637251029e-05 0.0 
2.665637251029e-05 6.229192947804e-03 0.0 
0.0 0.0 0.0 
-6.626020795000e-04 7.327308190496e-05 0.0 
7.327308190496e-05 6.185105929668e-03 0.0 
0.0 0.0 0.0 
-7.745874434384e-04 7.246269163138e-05 0.0 
7.246269163138e-05 6.224448192361e-03 0.0 
0.0 0.0 0.0 
-7.952534448649e-04 1.527838506419e-04 0.0 
1.527838506419e-04 6.211864780099e-03 0.0 
0.0 0.0 0.0 
-6.994308703518e-04 1.363647593930e-04 0.0 
1.363647593930e-04 6.161301486461e-03 0.0 
0.0 0.0 0.0 
-8.915432964557e-04 3.884703352902e-04 0.0 
3.884703352902e-04 6.213865028206e-03 0.0 
0.0 0.0 0.0 
-7.506030649169e-04 2.214074485029e-04 0.0 
2.214074485029e-04 6.145469747043e-03 0.0 
0.0 0.0 0.0 
-8.653331559164e-04 3.139620697563e-04 0.0 
3.139620697563e-04 6.067882357765e-03 0.0 
0.0 0.0 0.0 
-5.097127707022e-04 -5.947524754162e-05 0.0 
-5.947524754162e-05 6.215296943884e-03 0.0 
0.0 0.0 0.0 
-4.757750435589e-04 4.736543243624e-05 0.0 
4.736543243624e-05 6.154370277080e-03 0.0 
0.0 0.0 0.0 
-5.012264464025e-04 -1.124926771646e-05 0.0 
-1.124926771646e-05 6.301270292505e-03 0.0 
0.0 0.0 0.0 
-4.836087677856e-04 1.294993713476e-06 0.0 
1.294993713476e-06 6.071979855663e-03 0.0 
0.0 0.0 0.0 
-8.451681924491e-04 4.404131958806e-04 0.0 
4.404131958806e-04 5.949992939160e-03 0.0 
0.0 0.0 0.0 
-5.192723403269e-04 -2.119632841671e-05 0.0 
-2.119632841671e-05 6.679624333546e-03 0.0 
0.0 0.0 0.0 
-5.029273389618e-04 -7.461745444400e-06 0.0 
-7.461745444400e-06 6.639292383763e-03 0.0 
0.0 0.0 0.0 
-5.188671525534e-04 -1.702281030435e-05 0.0 
-1.702281030435e-05 6.638222707668e-03 0.0 
0.0 0.0 0.0 
-5.057512174157e-04 -2.239070085416e-05 0.0 
-2.239070085416e-05 6.637107741934e-03 0.0 
0.0 0.0 0.0 
-5.264887098035e-04 -1.889486682054e-05 0.0 
-1.889486682054e-05 6.637886104887e-03 0.0 
0.0 0.0 0.0 
-5.114534709998e-04 -2.706615446705e-05 0.0 
-2.706615446705e-05 6.640600388515e-03 0.0 
0.0 0.0 0.0 
-5.371014084902e-04 -2.387024169429e-05 0.0 
-2.387024169429e-05 6.641707356744e-03 0.0 
0.0 0.0 0.0 
-5.179706684326e-04 -3.200131787912e-05 0.0 
-3.200131787912e-05 6.641660237234e-03 0.0 
0.0 0.0 0.0 
-5.467537121319e-04 -2.559811050366e-05 0.0 
-2.559811050366e-05 6.644166004187e-03 0.0 
0.0 0.0 0.0 
-5.273225734830e-04 -3.455365089058e-05 0.0 
-3.455365089058e-05 6.645738094320e-03 0.0 
0.0 0.0 0.0 
-5.626880432673e-04 -2.844221740977e-05 0.0 
-2.844221740977e-05 6.648996417649e-03 0.0 
0.0 0.0 0.0 
-5.381874692719e-04 -3.702906788353e-05 0.0 
-3.702906788353e-05 6.647183735144e-03 0.0 
0.0 0.0 0.0 
-5.780772842529e-04 -2.750523339085e-05 0.0 
-2.750523339085e-05 6.652796145305e-03 0.0 
0.0 0.0 0.0 
-8.563044867752e-04 2.446221124727e-04 0.0 
2.446221124727e-04 6.613328653662e-03 0.0 
0.0 0.0 0.0 
-5.525875798142e-04 -3.663914662582e-05 0.0 
-3.663914662582e-05 6.651859915543e-03 0.0 
0.0 0.0 0.0 
-6.000376667992e-04 -2.886420347703e-05 0.0 
-2.886420347703e-05 6.658145706748e-03 0.0 
0.0 0.0 0.0 
-7.952534448649e-04 2.439876757774e-04 0.0 
2.439876757774e-04 6.452530533948e-03 0.0 
0.0 0.0 0.0 
-5.675482881987e-04 -3.533223680061e-05 0.0 
-3.533223680061e-05 6.650091896210e-03 0.0 
0.0 0.0 0.0 
-6.208165322744e-04 -2.288961971420e-05 0.0 
-2.288961971420e-05 6.660411627539e-03 0.0 
0.0 0.0 0.0 
-8.428497309729e-04 2.125171710091e-04 0.0 
2.125171710091e-04 6.642069906175e-03 0.0 
0.0 0.0 0.0 
-5.862799728144e-04 -2.809840849069e-05 0.0 
-2.809840849069e-05 6.650556683792e-03 0.0 
0.0 0.0 0.0 
-6.472411519740e-04 -1.333011849640e-05 0.0 
-1.333011849640e-05 6.664517371595e-03 0.0 
0.0 0.0 0.0 
-6.087761721141e-04 -1.643853326396e-05 0.0 
-1.643853326396e-05 6.651120819990e-03 0.0 
0.0 0.0 0.0 
-6.759741268798e-04 -1.312620117456e-06 0.0 
-1.312620117456e-06 6.667941871503e-03 0.0 
0.0 0.0 0.0 
-6.337558073671e-04 8.504163334006e-07 0.0 
8.504163334006e-07 6.647466465636e-03 0.0 
0.0 0.0 0.0 
-8.830591542887e-04 3.154121724055e-04 0.0 
3.154121724055e-04 6.661975608047e-03 0.0 
0.0 0.0 0.0 
-7.066113932601e-04 1.823721478320e-05 0.0 
1.823721478320e-05 6.668814936132e-03 0.0 
0.0 0.0 0.0 
-6.624549156580e-04 2.678837057360e-05 0.0 
2.678837057360e-05 6.641406582241e-03 0.0 
0.0 0.0 0.0 
-6.954187723374e-04 6.215275991016e-05 0.0 
6.215275991016e-05 6.633139564535e-03 0.0 
0.0 0.0 0.0 
-7.413567245430e-04 4.620890186876e-05 0.0 
4.620890186876e-05 6.667792529782e-03 0.0 
0.0 0.0 0.0 
-7.274873139372e-04 1.127088597563e-04 0.0 
1.127088597563e-04 6.605517784358e-03 0.0 
0.0 0.0 0.0 
-7.826123269145e-04 7.828372965984e-05 0.0 
7.828372965984e-05 6.661207574822e-03 0.0 
0.0 0.0 0.0 
-7.745874434384e-04 1.836425886329e-04 0.0 
1.836425886329e-04 6.599776920681e-03 0.0 
0.0 0.0 0.0 
-7.956972118519e-04 1.446512767249e-04 0.0 
1.446512767249e-04 6.646978417864e-03 0.0 
0.0 0.0 0.0 
-8.631690943492e-04 2.555579032744e-04 0.0 
2.555579032744e-04 6.507145250630e-03 0.0 
0.0 0.0 0.0 
-4.883548395707e-04 -5.738554332015e-05 0.0 
-5.738554332015e-05 6.616419958494e-03 0.0 
0.0 0.0 0.0 
-5.259746981805e-04 5.047105569567e-05 0.0 
5.047105569567e-05 6.683845859907e-03 0.0 
0.0 0.0 0.0 
-5.012264464025e-04 -9.139835732297e-06 0.0 
-9.139835732297e-06 6.534892114213e-03 0.0 
0.0 0.0 0.0 
-5.138530383717e-04 4.781685778832e-06 0.0 
4.781685778832e-06 6.761117882886e-03 0.0 
0.0 0.0 0.0 
-8.496145663209e-04 3.479515412936e-04 0.0 
3.479515412936e-04 6.411362980603e-03 0.0 
0.0 0.0 0.0 
-5.192723403269e-04 -2.135576296627e-05 0.0 
-2.135576296627e-05 7.041643601076e-03 0.0 
0.0 0.0 0.0 
-5.171748003971e-04 -6.211699899079e-06 0.0 
-6.211699899079e-06 7.068292044283e-03 0.0 
0.0 0.0 0.0 
-5.188671525534e-04 -7.984808781407e-06 0.0 
-7.984808781407e-06 7.068506501218e-03 0.0 
0.0 0.0 0.0 
-5.294481208011e-04 -9.691570170034e-06 0.0 
-9.691570170034e-06 7.074190287965e-03 0.0 
0.0 0.0 0.0 
-5.264887098035e-04 -7.916891507440e-06 0.0 
-7.916891507440e-06 7.073854068981e-03 0.0 
0.0 0.0 0.0 
-5.392746911200e-04 -9.968757952234e-06 0.0 
-9.968757952234e-06 7.080187611922e-03 0.0 
0.0 0.0 0.0 
-5.371014084902e-04 -1.051908485177e-05 0.0 
-1.051908485177e-05 7.080287020568e-03 0.0 
0.0 0.0 0.0 
-5.490561572790e-04 -1.531702063208e-05 0.0 
-1.531702063208e-05 7.080799489749e-03 0.0 
0.0 0.0 0.0 
-5.467537121319e-04 -7.239501609844e-06 0.0 
-7.239501609844e-06 7.078373955498e-03 0.0 
0.0 0.0 0.0 
-5.630572868173e-04 -8.759141448706e-06 0.0 
-8.759141448706e-06 7.086928114930e-03 0.0 
0.0 0.0 0.0 
-5.626880432673e-04 -5.707885747574e-06 0.0 
-5.707885747574e-06 7.085839702220e-03 0.0 
0.0 0.0 0.0 
-5.836408837891e-04 -1.106888735606e-05 0.0 
-1.106888735606e-05 7.090538509998e-03 0.0 
0.0 0.0 0.0 
-8.510620862293e-04 2.128850039491e-04 0.0 
2.128850039491e-04 7.064908386511e-03 0.0 
0.0 0.0 0.0 
-5.780772842529e-04 1.713381499564e-07 0.0 
1.713381499564e-07 7.085674354536e-03 0.0 
0.0 0.0 0.0 
-8.285945864914e-04 1.882493609310e-04 0.0 
1.882493609310e-04 7.082272719068e-03 0.0 
0.0 0.0 0.0 
-5.972686712459e-04 -7.091479956877e-07 0.0 
-7.091479956877e-07 7.095550373660e-03 0.0 
0.0 0.0 0.0 
-6.000376667992e-04 7.128675617270e-06 0.0 
7.128675617270e-06 7.092015286871e-03 0.0 
0.0 0.0 0.0 
-6.309553185418e-04 3.754330893136e-07 0.0 
3.754330893136e-07 7.098799906290e-03 0.0 
0.0 0.0 0.0 
-6.208165322744e-04 1.938941072545e-05 0.0 
1.938941072545e-05 7.088023266158e-03 0.0 
0.0 0.0 0.0 
-6.591934605624e-04 1.594999321561e-05 0.0 
1.594999321561e-05 7.102289685990e-03 0.0 
0.0 0.0 0.0 
-6.472411519740e-04 3.480067449593e-05 0.0 
3.480067449593e-05 7.090167113220e-03 0.0 
0.0 0.0 0.0 
-6.857515872498e-04 3.213692332506e-05 0.0 
3.213692332506e-05 7.104186069480e-03 0.0 
0.0 0.0 0.0 
-7.956972118519e-04 2.226711295325e-04 0.0 
2.226711295325e-04 6.904345578784e-03 0.0 
0.0 0.0 0.0 
-6.759741268798e-04 5.609140763289e-05 0.0 
5.609140763289e-05 7.087662689758e-03 0.0 
0.0 0.0 0.0 
-7.190936678805e-04 5.383897736919e-05 0.0 
5.383897736919e-05 7.102801290256e-03 0.0 
0.0 0.0 0.0 
-7.066113932601e-04 8.600378462647e-05 0.0 
8.600378462647e-05 7.078541835015e-03 0.0 
0.0 0.0 0.0 
-7.513096374173e-04 8.741712939699e-05 0.0 
8.741712939699e-05 7.097339570319e-03 0.0 
0.0 0.0 0.0 
-7.869006867977e-04 1.341957230368e-04 0.0 
1.341957230368e-04 7.089860225747e-03 0.0 
0.0 0.0 0.0 
-7.413567245430e-04 1.269895680397e-04 0.0 
1.269895680397e-04 7.065623239845e-03 0.0 
0.0 0.0 0.0 
-7.826123269145e-04 1.762489917802e-04 0.0 
1.762489917802e-04 7.054501029921e-03 0.0 
0.0 0.0 0.0 
-8.594673990688e-04 2.711348077010e-04 0.0 
2.711348077010e-04 7.104351255147e-03 0.0 
0.0 0.0 0.0 
-8.409913296289e-04 2.246233191353e-04 0.0 
2.246233191353e-04 6.937313561841e-03 0.0 
0.0 0.0 0.0 
-5.313645358217e-04 -5.007070662519e-05 0.0 
-5.007070662519e-05 7.075111180727e-03 0.0 
0.0 0.0 0.0 
-5.101208285001e-04 5.804430743695e-05 0.0 
5.804430743695e-05 7.036965092170e-03 0.0 
0.0 0.0 0.0 
-5.271172819078e-04 1.543214228431e-06 0.0 
1.543214228431e-06 7.171301819901e-03 0.0 
0.0 0.0 0.0 
-5.138530383717e-04 8.657584964001e-06 0.0 
8.657584964001e-06 6.944612645214e-03 0.0 
0.0 0.0 0.0 
-8.428497309729e-04 2.942266812497e-04 0.0 
2.942266812497e-04 6.876260543633e-03 0.0 
0.0 0.0 0.0 

TENSORS element_materi_strain_plasti float
-6.466164772809e-04 8.245090744215e-04 0.0 
8.245090744215e-04 2.707374572581e-03 0.0 
0.0 0.0 -4.220722639049e-04 
-5.850828050599e-04 4.087408186800e-04 0.0 
4.087408186800e-04 2.442724633431e-03 0.0 
0.0 0.0 -4.303330772826e-04 
-1.282095494807e-03 4.001741098009e-04 0.0 
4.001741098009e-04 8.226379453025e-03 0.0 
0.0 0.0 -1.278236581085e-03 
-1.295884943363e-03 -1.217266030679e-04 0.0 
-1.217266030679e-04 8.480174258718e-03 0.0 
0.0 0.0 -1.255598393855e-03 
-9.118044046819e-04 2.773302772114e-04 0.0 
2.773302772114e-04 5.301634366726e-03 0.0 
0.0 0.0 -7.961861350945e-04 
2.510626383067e-04 3.899924767601e-04 0.0 
3.899924767601e-04 -1.017744063534e-06 0.0 
0.0 0.0 -1.071620975328e-04 
-8.944012644099e-04 3.000213301662e-04 0.0 
3.000213301662e-04 5.255597081572e-03 0.0 
0.0 0.0 -8.011023898636e-04 
-6.111001276048e-04 8.133198202813e-04 0.0 
8.133198202813e-04 2.541489709150e-03 0.0 
0.0 0.0 -4.045669272905e-04 
-9.178969371214e-04 -2.491713150355e-04 0.0 
-2.491713150355e-04 5.331335701126e-03 0.0 
0.0 0.0 -7.977904104816e-04 
-1.281432177268e-03 3.076617140319e-04 0.0 
3.076617140319e-04 8.397045163972e-03 0.0 
0.0 0.0 -1.253060141438e-03 
-1.093573439511e-03 5.627509268443e-05 0.0 
5.627509268443e-05 5.667510059544e-03 0.0 
0.0 0.0 -8.816510380685e-04 
-5.787511837025e-04 6.777709678412e-04 0.0 
6.777709678412e-04 2.088119972159e-03 0.0 
0.0 0.0 -3.735031833740e-04 
-1.326305648993e-03 1.334625464656e-04 0.0 
1.334625464656e-04 8.251440389062e-03 0.0 
0.0 0.0 -1.259187713256e-03 
-9.724653634380e-04 3.053641968768e-04 0.0 
3.053641968768e-04 5.663135226582e-03 0.0 
0.0 0.0 -8.526168115438e-04 
-1.330762641967e-03 -3.008650578863e-04 0.0 
-3.008650578863e-04 8.383102825445e-03 0.0 
0.0 0.0 -1.289538875031e-03 
-1.321345684109e-03 2.719191787034e-04 0.0 
2.719191787034e-04 8.617215783831e-03 0.0 
0.0 0.0 -1.285984941237e-03 
-9.140896497734e-04 7.519541139523e-05 0.0 
7.519541139523e-05 5.296976735505e-03 0.0 
0.0 0.0 -7.740676797406e-04 
0.0 0.0 0.0 
0.0 0.0 0.0 
0.0 0.0 0.0 
-3.519099227855e-04 -1.443334347486e-04 0.0 
-1.443334347486e-04 1.817532010240e-03 0.0 
0.0 0.0 -2.776016825098e-04 
-3.997644766498e-04 4.954726061119e-05 0.0 
4.954726061119e-05 1.673764597630e-03 0.0 
0.0 0.0 -3.031105466646e-04 
-1.276969282696e-03 -1.363061038713e-04 0.0 
-1.363061038713e-04 8.471794626493e-03 0.0 
0.0 0.0 -1.250388265701e-03 
-6.432162703731e-04 5.512102898043e-04 0.0 
5.512102898043e-04 2.885045796034e-03 0.0 
0.0 0.0 -4.811142067971e-04 
-6.884954101540e-04 3.994199898237e-04 0.0 
3.994199898237e-04 3.234457200495e-03 0.0 
0.0 0.0 -5.091556215902e-04 
-1.086615628820e-03 -2.931322765965e-04 0.0 
-2.931322765965e-04 7.458132473520e-03 0.0 
0.0 0.0 -1.210372970477e-03 
-1.022288100468e-03 3.987168263927e-04 0.0 
3.987168263927e-04 6.009421001038e-03 0.0 
0.0 0.0 -9.130988374533e-04 
-1.132573975630e-03 -2.410939857696e-04 0.0 
-2.410939857696e-04 6.073086075411e-03 0.0 
0.0 0.0 -9.179597371190e-04 
-8.591992327558e-04 1.320513177097e-04 0.0 
1.320513177097e-04 4.879471040969e-03 0.0 
0.0 0.0 -7.148082707961e-04 
-1.227939719405e-03 4.897213587292e-04 0.0 
4.897213587292e-04 8.231185118654e-03 0.0 
0.0 0.0 -1.266047838742e-03 
-1.043323281561e-03 -5.190539471628e-05 0.0 
-5.190539471628e-05 6.052750555350e-03 0.0 
0.0 0.0 -9.113908267906e-04 
-1.155289536852e-03 -1.768880545786e-05 0.0 
-1.768880545786e-05 7.700571454284e-03 0.0 
0.0 0.0 -1.237914324842e-03 
3.591818895870e-04 -1.087919908418e-03 0.0 
-1.087919908418e-03 2.306926407283e-04 0.0 
0.0 0.0 -2.528033701351e-04 
-5.253251415500e-05 -7.346267826167e-05 0.0 
-7.346267826167e-05 5.706227414438e-04 0.0 
0.0 0.0 -1.059755802940e-04 
-1.328657286874e-03 4.996781592111e-04 0.0 
4.996781592111e-04 8.531045122136e-03 0.0 
0.0 0.0 -1.261301343383e-03 
-1.246135843572e-03 -2.165566539215e-04 0.0 
-2.165566539215e-04 7.113329539199e-03 0.0 
0.0 0.0 -1.090200430068e-03 
-1.222640564805e-03 -5.172125954847e-04 0.0 
-5.172125954847e-04 8.023175699372e-03 0.0 
0.0 0.0 -1.254989870190e-03 
-1.362336754091e-03 1.038272021812e-04 0.0 
1.038272021812e-04 8.593232231463e-03 0.0 
0.0 0.0 -1.314886350686e-03 
-1.333817909252e-03 -6.741910836282e-04 0.0 
-6.741910836282e-04 8.572481383167e-03 0.0 
0.0 0.0 -1.314653105918e-03 
-1.152787385481e-03 3.395804623759e-04 0.0 
3.395804623759e-04 7.780236807800e-03 0.0 
0.0 0.0 -1.264739017786e-03 
-8.345100331917e-04 -3.032908507100e-04 0.0 
-3.032908507100e-04 4.793915913410e-03 0.0 
0.0 0.0 -7.380763454961e-04 
-8.314689275844e-04 3.674750294880e-04 0.0 
3.674750294880e-04 4.862282802739e-03 0.0 
0.0 0.0 -7.371174501546e-04 
-7.446435526587e-04 2.495366517639e-04 0.0 
2.495366517639e-04 3.730189536197e-03 0.0 
0.0 0.0 -5.794556523337e-04 
-1.240577876015e-03 -2.606603701506e-04 0.0 
-2.606603701506e-04 7.945807599574e-03 0.0 
0.0 0.0 -1.280756488215e-03 
-5.279799311040e-04 1.102170611227e-03 0.0 
1.102170611227e-03 1.773978523889e-03 0.0 
0.0 0.0 -3.207852484642e-04 
-8.673432961900e-04 2.038482856540e-04 0.0 
2.038482856540e-04 4.641456270313e-03 0.0 
0.0 0.0 -7.350059072715e-04 
-1.271467539957e-03 -7.879660805606e-05 0.0 
-7.879660805606e-05 8.302426141521e-03 0.0 
0.0 0.0 -1.212858513926e-03 
-5.775885694842e-04 8.848405614820e-04 0.0 
8.848405614820e-04 1.777381832978e-03 0.0 
0.0 0.0 -3.198426158856e-04 
2.130878448261e-04 -2.803383724960e-04 0.0 
-2.803383724960e-04 -1.640750498909e-05 0.0 
0.0 0.0 -8.429157421588e-05 
-1.252952730617e-03 9.194498370430e-05 0.0 
9.194498370430e-05 8.113365198973e-03 0.0 
0.0 0.0 -1.234743356787e-03 
1.618564024127e-06 -4.086337075162e-06 0.0 
-4.086337075162e-06 6.435399236572e-07 0.0 
0.0 0.0 -9.694731204790e-07 
-9.377652680597e-04 -7.279277581159e-05 0.0 
-7.279277581159e-05 5.473641853479e-03 0.0 
0.0 0.0 -8.229436299569e-04 
-7.184238485782e-04 3.283816114982e-04 0.0 
3.283816114982e-04 3.500159598670e-03 0.0 
0.0 0.0 -5.440916476828e-04 
-4.407403860860e-04 -1.000193585770e-04 0.0 
-1.000193585770e-04 2.276874889741e-03 0.0 
0.0 0.0 -3.443810396916e-04 
3.693556118723e-04 -1.150080954677e-03 0.0 
-1.150080954677e-03 2.564828416198e-04 0.0 
0.0 0.0 -2.682164800680e-04 
-6.981340931129e-04 4.826618162809e-04 0.0 
4.826618162809e-04 3.375109354798e-03 0.0 
0.0 0.0 -5.489460876789e-04 
-1.294047200749e-03 3.426820678350e-04 0.0 
3.426820678350e-04 8.360890520438e-03 0.0 
0.0 0.0 -1.282189168212e-03 
-6.426921289281e-04 -2.477141885566e-04 0.0 
-2.477141885566e-04 2.972149177427e-03 0.0 
0.0 0.0 -4.512233509908e-04 
-5.071100590753e-04 7.724547813732e-05 0.0 
7.724547813732e-05 2.167123717160e-03 0.0 
0.0 0.0 -3.694212080277e-04 
-1.248804674603e-03 1.204053078386e-04 0.0 
1.204053078386e-04 7.152497866114e-03 0.0 
0.0 0.0 -1.087734043503e-03 
-2.199405617637e-04 -6.207470745057e-05 0.0 
-6.207470745057e-05 1.342683867831e-03 0.0 
0.0 0.0 -2.189683579105e-04 
-1.315587936217e-03 -1.318704737137e-04 0.0 
-1.318704737137e-04 8.629398526663e-03 0.0 
0.0 0.0 -1.285320035817e-03 
0.0 0.0 0.0 
0.0 0.0 0.0 
0.0 0.0 0.0 
-1.104248090582e-03 6.042449065024e-04 0.0 
6.042449065024e-04 7.502345308807e-03 0.0 
0.0 0.0 -1.210824713543e-03 
-6.118289487359e-04 1.052783847498e-03 0.0 
1.052783847498e-03 3.133960488999e-03 0.0 
0.0 0.0 -5.497085007362e-04 
3.930006713422e-04 -1.150166211052e-03 0.0 
-1.150166211052e-03 2.323329664583e-04 0.0 
0.0 0.0 -2.680001304859e-04 
-1.319367167403e-03 -3.421260873299e-04 0.0 
-3.421260873299e-04 8.223808012733e-03 0.0 
0.0 0.0 -1.257478522087e-03 
-6.824305458781e-04 5.038519007458e-04 0.0 
5.038519007458e-04 3.122644429912e-03 0.0 
0.0 0.0 -5.137572693775e-04 
0.0 0.0 0.0 
0.0 0.0 0.0 
0.0 0.0 0.0 
-1.302579274791e-03 3.856077973971e-04 0.0 
3.856077973971e-04 8.474035595977e-03 0.0 
0.0 0.0 -1.261660853087e-03 
-3.055720632183e-04 -1.064577386819e-03 0.0 
-1.064577386819e-03 1.239084830307e-03 0.0 
0.0 0.0 -3.052032381971e-04 
-1.275451108923e-03 4.835577884085e-04 0.0 
4.835577884085e-04 8.123671911160e-03 0.0 
0.0 0.0 -1.282376455277e-03 
-1.145904955508e-03 -3.118374997867e-04 0.0 
-3.118374997867e-04 6.272168097955e-03 0.0 
0.0 0.0 -9.556290573178e-04 
-1.338499280800e-03 2.408371898962e-04 0.0 
2.408371898962e-04 8.775782511843e-03 0.0 
0.0 0.0 -1.338499280800e-03 
-1.192625588921e-03 4.461210467852e-04 0.0 
4.461210467852e-04 7.634783606740e-03 0.0 
0.0 0.0 -1.232909111256e-03 
-2.127254236185e-05 1.891430361426e-04 0.0 
1.891430361426e-04 5.160571140730e-04 0.0 
0.0 0.0 -1.295286970291e-04 
-6.935849542252e-04 2.344127444435e-05 0.0 
2.344127444435e-05 2.990888035910e-03 0.0 
0.0 0.0 -4.777371989943e-04 
-1.295701123542e-03 1.509088819434e-05 0.0 
1.509088819434e-05 8.469943460322e-03 0.0 
0.0 0.0 -1.262626981217e-03 
-1.324502073679e-03 3.744328644392e-04 0.0 
3.744328644392e-04 8.596934185840e-03 0.0 
0.0 0.0 -1.265352048664e-03 
-2.411922616665e-04 1.053006289260e-03 0.0 
1.053006289260e-03 1.157414957781e-03 0.0 
0.0 0.0 -3.599094611647e-04 
-2.769907565586e-04 -8.829481836090e-05 0.0 
-8.829481836090e-05 1.134623594574e-03 0.0 
0.0 0.0 -2.366757893512e-04 
-2.181753936334e-04 1.161392611074e-03 0.0 
1.161392611074e-03 1.149876313961e-03 0.0 
0.0 0.0 -3.564703237892e-04 
-2.758740996359e-04 -8.746279552454e-04 0.0 
-8.746279552454e-04 1.152039496951e-03 0.0 
0.0 0.0 -3.439500825601e-04 
-8.978965614641e-04 9.154439014956e-05 0.0 
9.154439014956e-05 5.029293334098e-03 0.0 
0.0 0.0 -7.918363975426e-04 
-6.733819819602e-04 4.712092501630e-04 0.0 
4.712092501630e-04 3.018715837704e-03 0.0 
0.0 0.0 -4.749402310763e-04 
-6.256408849580e-04 5.270574211380e-04 0.0 
5.270574211380e-04 2.559551606748e-03 0.0 
0.0 0.0 -4.438329512050e-04 
-9.725152992593e-04 -1.918915712341e-04 0.0 
-1.918915712341e-04 5.553894553160e-03 0.0 
0.0 0.0 -8.336771054075e-04 
-9.515395304919e-04 2.688463451821e-04 0.0 
2.688463451821e-04 5.521722972354e-03 0.0 
0.0 0.0 -8.358076868167e-04 
-1.183410575090e-03 -2.693387168119e-04 0.0 
-2.693387168119e-04 6.452199734420e-03 0.0 
0.0 0.0 -9.867109252839e-04 
-1.231001359755e-03 1.776752657648e-04 0.0 
1.776752657648e-04 6.972617785685e-03 0.0 
0.0 0.0 -1.058576829647e-03 
-1.159508113008e-03 2.069980553471e-04 0.0 
2.069980553471e-04 7.153965750682e-03 0.0 
0.0 0.0 -1.085941371602e-03 
-9.167398449037e-04 -2.379223024375e-04 0.0 
-2.379223024375e-04 5.214431434648e-03 0.0 
0.0 0.0 -7.983229688164e-04 
-9.629239381275e-05 -7.847678025284e-05 0.0 
-7.847678025284e-05 3.293444492904e-04 0.0 
0.0 0.0 -9.987945234756e-05 
-9.298280525188e-04 1.832074445445e-04 0.0 
1.832074445445e-04 5.072594773826e-03 0.0 
0.0 0.0 -7.928983479555e-04 
-1.152068192651e-03 -8.618068735251e-05 0.0 
-8.618068735251e-05 7.066072062095e-03 0.0 
0.0 0.0 -1.069439317440e-03 
-1.125567912536e-03 1.438213412546e-04 0.0 
1.438213412546e-04 7.130378012797e-03 0.0 
0.0 0.0 -1.046447409317e-03 
-1.354248964991e-03 2.488047583645e-04 0.0 
2.488047583645e-04 9.041954327214e-03 0.0 
0.0 0.0 -1.319970921405e-03 
-1.236862548615e-03 6.047335938228e-05 0.0 
6.047335938228e-05 8.106142459015e-03 0.0 
0.0 0.0 -1.294194962782e-03 
-9.013588349204e-04 -3.564785080674e-05 0.0 
-3.564785080674e-05 5.032133509131e-03 0.0 
0.0 0.0 -7.889745663688e-04 
-1.254766552398e-03 -3.118115606911e-04 0.0 
-3.118115606911e-04 8.236373731402e-03 0.0 
0.0 0.0 -1.263183913703e-03 
-9.880175404899e-04 -1.466486724576e-04 0.0 
-1.466486724576e-04 5.952185502159e-03 0.0 
0.0 0.0 -9.040008563810e-04 
-6.291314004619e-04 6.895076894316e-04 0.0 
6.895076894316e-04 3.149500208419e-03 0.0 
0.0 0.0 -5.198799001330e-04 
-8.730449846052e-04 -1.408519575968e-04 0.0 
-1.408519575968e-04 5.083535477325e-03 0.0 
0.0 0.0 -7.643292725053e-04 
-1.347992785810e-03 5.931491654167e-05 0.0 
5.931491654167e-05 8.400156878011e-03 0.0 
0.0 0.0 -1.287517816355e-03 
-8.262228282774e-04 1.447902815746e-04 0.0 
1.447902815746e-04 6.297334361413e-03 0.0 
0.0 0.0 -1.043751955586e-03 
-1.104569420112e-03 1.448019849648e-04 0.0 
1.448019849648e-04 7.556047747294e-03 0.0 
0.0 0.0 -1.209599240962e-03 
-4.538367894760e-04 9.757826283503e-04 0.0 
9.757826283503e-04 2.565554738313e-03 0.0 
0.0 0.0 -4.747543016519e-04 
2.029884590449e-04 -8.599336091252e-04 0.0 
-8.599336091252e-04 2.611091082078e-04 0.0 
0.0 0.0 -1.988989573940e-04 
-1.297459135418e-03 -2.747475562559e-04 0.0 
-2.747475562559e-04 7.787009671767e-03 0.0 
0.0 0.0 -1.189902873528e-03 
-1.189086276409e-03 1.093944519264e-04 0.0 
1.093944519264e-04 7.587261230545e-03 0.0 
0.0 0.0 -1.108790581071e-03 
7.624507231963e-05 -2.164748674539e-04 0.0 
-2.164748674539e-04 4.178589710884e-05 0.0 
0.0 0.0 -5.058470118363e-05 
-1.283662232086e-03 -3.116749921630e-04 0.0 
-3.116749921630e-04 8.203749873262e-03 0.0 
0.0 0.0 -1.285127980003e-03 
-1.117454671525e-03 5.890310527375e-04 0.0 
5.890310527375e-04 6.771147145683e-03 0.0 
0.0 0.0 -1.051491716222e-03 
2.129630744421e-04 -9.499020889305e-05 0.0 
-9.499020889305e-05 2.730652041404e-04 0.0 
0.0 0.0 -1.433710470045e-04 
-4.646091997464e-04 1.130911332871e-03 0.0 
1.130911332871e-03 3.315295093012e-03 0.0 
0.0 0.0 -6.309931931857e-04 
-8.659480951891e-04 9.706201231431e-05 0.0 
9.706201231431e-05 4.691930850523e-03 0.0 
0.0 0.0 -7.153918394734e-04 
-8.128195131981e-04 -2.696429011542e-04 0.0 
-2.696429011542e-04 3.582326768313e-03 0.0 
0.0 0.0 -5.772375537024e-04 
-5.795319369569e-04 9.930078575254e-04 0.0 
9.930078575254e-04 2.722691248666e-03 0.0 
0.0 0.0 -4.852398935310e-04 
-5.900753072712e-04 6.920056491215e-04 0.0 
6.920056491215e-04 3.182816884513e-03 0.0 
0.0 0.0 -5.471823052058e-04 
-1.301859315623e-03 -1.904737940513e-04 0.0 
-1.904737940513e-04 8.142812636608e-03 0.0 
0.0 0.0 -1.283833066805e-03 
-9.523212659311e-04 1.958273368285e-04 0.0 
1.958273368285e-04 5.865970295395e-03 0.0 
0.0 0.0 -8.766975940251e-04 
-5.541698138184e-04 1.190551615049e-03 0.0 
1.190551615049e-03 2.836925707114e-03 0.0 
0.0 0.0 -5.122473358773e-04 
-4.084206622420e-04 -7.278847424947e-04 0.0 
-7.278847424947e-04 1.354708172608e-03 0.0 
0.0 0.0 -2.295267891405e-04 
-9.046551402062e-04 3.103540058347e-04 0.0 
3.103540058347e-04 5.221480629983e-03 0.0 
0.0 0.0 -7.744920945421e-04 
-1.163420538902e-03 -6.301653344554e-05 0.0 
-6.301653344554e-05 7.412623996309e-03 0.0 
0.0 0.0 -1.129288753466e-03 
-5.271843801054e-04 7.884919210617e-04 0.0 
7.884919210617e-04 2.864417005275e-03 0.0 
0.0 0.0 -5.109724225979e-04 
5.534592465795e-05 9.039028363928e-04 0.0 
9.039028363928e-04 4.831251439840e-04 0.0 
0.0 0.0 -2.307733151323e-04 
-8.073832098114e-04 1.503125105248e-04 0.0 
1.503125105248e-04 4.217521397372e-03 0.0 
0.0 0.0 -6.470401313398e-04 
-8.043937078593e-04 -1.245165173277e-04 0.0 
-1.245165173277e-04 3.751204721582e-03 0.0 
0.0 0.0 -5.578851714504e-04 
-7.622885537649e-04 4.316670476422e-04 0.0 
4.316670476422e-04 3.890857300125e-03 0.0 
0.0 0.0 -6.167189930163e-04 
-1.313795093192e-03 3.745855682538e-04 0.0 
3.745855682538e-04 8.614675897131e-03 0.0 
0.0 0.0 -1.290671971449e-03 
1.991130479106e-04 9.381873505590e-04 0.0 
9.381873505590e-04 3.095528624407e-04 0.0 
0.0 0.0 -2.179996758648e-04 
-1.118912346163e-03 3.069253467211e-05 0.0 
3.069253467211e-05 5.953637467028e-03 0.0 
0.0 0.0 -9.216843799351e-04 
-1.302832962065e-03 2.769223245220e-04 0.0 
2.769223245220e-04 8.470819943817e-03 0.0 
0.0 0.0 -1.256690274141e-03 
-7.596340248727e-04 7.382796594352e-04 0.0 
7.382796594352e-04 4.031537584483e-03 0.0 
0.0 0.0 -6.588732905211e-04 
-7.779772953584e-04 1.836806670251e-04 0.0 
1.836806670251e-04 3.983301519145e-03 0.0 
0.0 0.0 -6.139229799761e-04 
-1.231803605678e-03 -5.782093166128e-05 0.0 
-5.782093166128e-05 8.028152931577e-03 0.0 
0.0 0.0 -1.254964138299e-03 
-1.328106245368e-03 -3.359343714767e-04 0.0 
-3.359343714767e-04 8.269862829300e-03 0.0 
0.0 0.0 -1.261070974318e-03 
-1.177616370787e-03 5.503788424212e-05 0.0 
5.503788424212e-05 6.447345049328e-03 0.0 
0.0 0.0 -9.873713238705e-04 
-7.975389004980e-04 3.851368616877e-04 0.0 
3.851368616877e-04 4.370903509068e-03 0.0 
0.0 0.0 -6.916138708610e-04 
-1.195768822005e-03 -1.347190958518e-04 0.0 
-1.347190958518e-04 8.136693957771e-03 0.0 
0.0 0.0 -1.270330610962e-03 
-7.600104695776e-04 6.621541633523e-04 0.0 
6.621541633523e-04 3.915062890853e-03 0.0 
0.0 0.0 -6.326048069937e-04 
-1.276977184880e-03 1.361446544635e-04 0.0 
1.361446544635e-04 8.444479482518e-03 0.0 
0.0 0.0 -1.283174495648e-03 
-1.281656246909e-03 5.918270400850e-04 0.0 
5.918270400850e-04 8.394460336114e-03 0.0 
0.0 0.0 -1.267437373369e-03 
-9.916900482218e-04 -1.353869196216e-04 0.0 
-1.353869196216e-04 5.594925371490e-03 0.0 
0.0 0.0 -8.543707170918e-04 
-1.059679930627e-03 2.378363673836e-04 0.0 
2.378363673836e-04 6.573353481791e-03 0.0 
0.0 0.0 -9.817831382938e-04 
-7.605699351815e-04 3.748556655775e-04 0.0 
3.748556655775e-04 3.967103975153e-03 0.0 
0.0 0.0 -6.293189184696e-04 
-7.420000060583e-04 4.704307559795e-04 0.0 
4.704307559795e-04 3.646692949105e-03 0.0 
0.0 0.0 -5.830241378053e-04 
-8.001161774359e-04 7.418992546282e-04 0.0 
7.418992546282e-04 4.429271101410e-03 0.0 
0.0 0.0 -7.211932326589e-04 
-4.509036314279e-04 9.161005774141e-04 0.0 
9.161005774141e-04 2.969896787124e-03 0.0 
0.0 0.0 -5.383041810906e-04 
-8.768683131663e-04 -1.698577199285e-04 0.0 
-1.698577199285e-04 5.218733852389e-03 0.0 
0.0 0.0 -7.693993191400e-04 
-3.984078038155e-04 7.031353492297e-04 0.0 
7.031353492297e-04 3.390130310364e-03 0.0 
0.0 0.0 -6.275039421266e-04 
-8.830553488541e-05 -1.169663280731e-04 0.0 
-1.169663280731e-04 3.137961635653e-04 0.0 
0.0 0.0 -9.663884086279e-05 
-9.202478516251e-04 -5.770930012148e-06 0.0 
-5.770930012148e-06 5.620779502953e-03 0.0 
0.0 0.0 -8.171079392438e-04 
-3.114395398576e-04 -3.263303537109e-05 0.0 
-3.263303537109e-05 1.213615237241e-03 0.0 
0.0 0.0 -2.373169254524e-04 
-8.400103073364e-04 1.183268532165e-04 0.0 
1.183268532165e-04 4.465364634510e-03 0.0 
0.0 0.0 -6.809683978454e-04 
-1.226720591274e-03 -2.033245432446e-04 0.0 
-2.033245432446e-04 7.901279716244e-03 0.0 
0.0 0.0 -1.284796145094e-03 
-5.032521871548e-04 1.323397128945e-03 0.0 
1.323397128945e-03 2.524146629484e-03 0.0 
0.0 0.0 -4.767992880414e-04 
-1.206015416419e-03 1.351161918146e-04 0.0 
1.351161918146e-04 6.706761080456e-03 0.0 
0.0 0.0 -1.021089721936e-03 
-5.854397783758e-04 6.900577011398e-04 0.0 
6.900577011398e-04 2.034319527358e-03 0.0 
0.0 0.0 -3.540742325023e-04 
-8.487428613626e-04 6.354315705334e-04 0.0 
6.354315705334e-04 6.259047629254e-03 0.0 
0.0 0.0 -1.044905595188e-03 
-9.023795236384e-04 1.774952439286e-05 0.0 
1.774952439286e-05 5.056579998417e-03 0.0 
0.0 0.0 -7.899655494116e-04 
-3.675306969511e-04 1.198984270489e-03 0.0 
1.198984270489e-03 2.958001668599e-03 0.0 
0.0 0.0 -5.931463391684e-04 
-1.266256333575e-03 -2.932543747909e-04 0.0 
-2.932543747909e-04 7.348938270472e-03 0.0 
0.0 0.0 -1.120963572432e-03 
-3.905834582402e-04 -4.908595614848e-04 0.0 
-4.908595614848e-04 1.232002034576e-03 0.0 
0.0 0.0 -2.722262904030e-04 
-1.289444217002e-03 1.239965470747e-04 0.0 
1.239965470747e-04 7.777003841897e-03 0.0 
0.0 0.0 -1.189111243166e-03 
-9.083262515729e-04 4.866804809917e-04 0.0 
4.866804809917e-04 4.963586243701e-03 0.0 
0.0 0.0 -7.711223959738e-04 
-1.340203078278e-03 -2.129693675799e-04 0.0 
-2.129693675799e-04 8.439560912258e-03 0.0 
0.0 0.0 -1.265987209193e-03 
-8.868772565119e-04 2.877464608834e-05 0.0 
2.877464608834e-05 5.056912107765e-03 0.0 
0.0 0.0 -7.842605076999e-04 
-4.245977401382e-04 1.301715382003e-03 0.0 
1.301715382003e-03 2.484999694538e-03 0.0 
0.0 0.0 -5.042822341261e-04 
-8.141088315077e-04 3.778227072886e-04 0.0 
3.778227072886e-04 4.370548075301e-03 0.0 
0.0 0.0 -6.840799553763e-04 
-1.128956121950e-03 -1.816355743224e-04 0.0 
-1.816355743224e-04 5.879621026637e-03 0.0 
0.0 0.0 -8.722824885218e-04 
-5.657686865338e-04 1.006813399921e-03 0.0 
1.006813399921e-03 2.114854539436e-03 0.0 
0.0 0.0 -3.514598124168e-04 
-2.840077947560e-04 7.374002385130e-04 0.0 
7.374002385130e-04 3.016923521918e-03 0.0 
0.0 0.0 -5.911455407098e-04 
-1.107826402130e-03 -1.895219266089e-04 0.0 
-1.895219266089e-04 6.838398808500e-03 0.0 
0.0 0.0 -1.016465148841e-03 
-8.846022414820e-04 1.673369808483e-04 0.0 
1.673369808483e-04 5.274165376609e-03 0.0 
0.0 0.0 -7.680022369673e-04 
-4.363801896578e-04 1.202422263910e-03 0.0 
1.202422263910e-03 2.876866297868e-03 0.0 
0.0 0.0 -5.666226778950e-04 
-8.017363352442e-04 3.924823248397e-04 0.0 
3.924823248397e-04 4.130177357856e-03 0.0 
0.0 0.0 -6.498546761489e-04 
-1.141214369151e-03 6.765310758862e-04 0.0 
6.765310758862e-04 7.271411604946e-03 0.0 
0.0 0.0 -1.136725521675e-03 
-8.548535662047e-04 -2.781485263044e-04 0.0 
-2.781485263044e-04 4.164865359686e-03 0.0 
0.0 0.0 -6.189190723244e-04 
-1.237707508229e-03 4.856674807990e-04 0.0 
4.856674807990e-04 7.956457412847e-03 0.0 
0.0 0.0 -1.285202198870e-03 
-1.271584492805e-03 4.859423083683e-04 0.0 
4.859423083683e-04 8.362652585957e-03 0.0 
0.0 0.0 -1.265486236287e-03 
-6.208228587870e-04 6.861521722426e-04 0.0 
6.861521722426e-04 2.794482215749e-03 0.0 
0.0 0.0 -4.595713030950e-04 
-8.601834141272e-04 -1.130024456241e-04 0.0 
-1.130024456241e-04 3.988529893684e-03 0.0 
0.0 0.0 -6.385407451345e-04 
-9.728705791535e-04 -2.427476520657e-04 0.0 
-2.427476520657e-04 7.014843591236e-03 0.0 
0.0 0.0 -1.152822474774e-03 
-7.582637832037e-04 3.173029778375e-04 0.0 
3.173029778375e-04 3.850177976745e-03 0.0 
0.0 0.0 -6.037256927378e-04 
-5.932602371824e-04 9.450171731982e-04 0.0 
9.450171731982e-04 2.345539596427e-03 0.0 
0.0 0.0 -4.251746348339e-04 
-8.883854653183e-04 4.319931064094e-04 0.0 
4.319931064094e-04 4.807571306798e-03 0.0 
0.0 0.0 -7.443430781256e-04 
-4.655628622191e-04 8.097546048135e-04 0.0 
8.097546048135e-04 3.367415080588e-03 0.0 
0.0 0.0 -6.011186688906e-04 
-1.309467600587e-03 2.274324864678e-04 0.0 
2.274324864678e-04 8.467271508597e-03 0.0 
0.0 0.0 -1.279059907835e-03 
-1.139712663312e-03 5.524271265546e-04 0.0 
5.524271265546e-04 6.895093066062e-03 0.0 
0.0 0.0 -1.060691896764e-03 
-1.282894195515e-03 1.713163621167e-04 0.0 
1.713163621167e-04 7.580646218946e-03 0.0 
0.0 0.0 -1.155968210243e-03 
-4.263760736077e-04 9.726189065638e-04 0.0 
9.726189065638e-04 1.483303861492e-03 0.0 
0.0 0.0 -3.328149423972e-04 
-1.567783780417e-04 7.459959337790e-04 0.0 
7.459959337790e-04 2.633807870816e-03 0.0 
0.0 0.0 -5.558335581882e-04 
-1.150277857659e-03 5.855176210150e-04 0.0 
5.855176210150e-04 7.056066340815e-03 0.0 
0.0 0.0 -1.089453766084e-03 
0.0 0.0 0.0 
0.0 0.0 0.0 
0.0 0.0 0.0 
-7.560981228119e-04 5.568058696449e-04 0.0 
5.568058696449e-04 3.796632807166e-03 0.0 
0.0 0.0 -6.073871274648e-04 
-8.851342185419e-04 -4.312210323728e-04 0.0 
-4.312210323728e-04 6.519433320506e-03 0.0 
0.0 0.0 -1.080675545910e-03 
-1.164869828715e-04 -1.456841600207e-04 0.0 
-1.456841600207e-04 9.923335266216e-04 0.0 
0.0 0.0 -1.605608400042e-04 
-1.274326596506e-03 6.277067703956e-04 0.0 
6.277067703956e-04 8.332587857653e-03 0.0 
0.0 0.0 -1.257517519450e-03 
-1.082557255636e-03 4.467183423513e-04 0.0 
4.467183423513e-04 6.398503814141e-03 0.0 
0.0 0.0 -9.749624431058e-04 
-5.927975267284e-04 -7.287134833264e-04 0.0 
-7.287134833264e-04 3.408230795765e-03 0.0 
0.0 0.0 -5.995223474422e-04 
-8.718953006962e-04 8.285847793953e-05 0.0 
8.285847793953e-05 6.481498684251e-03 0.0 
0.0 0.0 -1.082135573043e-03 
-9.644421873602e-04 1.848918456793e-04 0.0 
1.848918456793e-04 5.622214910538e-03 0.0 
0.0 0.0 -8.259898420369e-04 
-9.976541713563e-04 8.643209894894e-06 0.0 
8.643209894894e-06 5.944166007327e-03 0.0 
0.0 0.0 -8.838609275114e-04 
-1.149666595734e-03 -3.245227479459e-04 0.0 
-3.245227479459e-04 7.662117469895e-03 0.0 
0.0 0.0 -1.237791025003e-03 
-6.377976835771e-04 -6.114567573414e-04 0.0 
-6.114567573414e-04 2.689173763955e-03 0.0 
0.0 0.0 -4.583583101839e-04 
-7.880409547895e-04 7.989113980148e-04 0.0 
7.989113980148e-04 4.542855302031e-03 0.0 
0.0 0.0 -7.480401524272e-04 
-9.214234162491e-04 5.351887786335e-04 0.0 
5.351887786335e-04 5.111262659093e-03 0.0 
0.0 0.0 -7.988399675000e-04 
-1.125534786672e-03 7.028976634264e-05 0.0 
7.028976634264e-05 6.721724443554e-03 0.0 
0.0 0.0 -1.008548823165e-03 
-9.505406595461e-04 1.355801735478e-04 0.0 
1.355801735478e-04 5.273089753614e-03 0.0 
0.0 0.0 -8.035999206669e-04 
-8.920793708860e-04 1.354006487991e-04 0.0 
1.354006487991e-04 4.845817227354e-03 0.0 
0.0 0.0 -7.415510827328e-04 
-6.524274381720e-04 1.661117945530e-04 0.0 
1.661117945530e-04 5.489508378744e-03 0.0 
0.0 0.0 -9.414312740916e-04 
-1.133549865804e-03 2.632851943964e-04 0.0 
2.632851943964e-04 7.143578184647e-03 0.0 
0.0 0.0 -1.105110859848e-03 
0.0 0.0 0.0 
0.0 0.0 0.0 
0.0 0.0 0.0 
-5.963424256803e-04 8.235655420392e-04 0.0 
8.235655420392e-04 2.727118741511e-03 0.0 
0.0 0.0 -4.649757541953e-04 
-6.413935052421e-04 9.083237096948e-04 0.0 
9.083237096948e-04 3.060885376631e-03 0.0 
0.0 0.0 -5.249394872960e-04 
-7.860598654059e-04 4.409893248632e-04 0.0 
4.409893248632e-04 4.491993588337e-03 0.0 
0.0 0.0 -7.181710532390e-04 
-1.182550884137e-03 1.586567680609e-04 0.0 
1.586567680609e-04 7.254490089636e-03 0.0 
0.0 0.0 -1.095076276885e-03 
4.583279132942e-04 6.488863092727e-04 0.0 
6.488863092727e-04 -1.405418918228e-05 0.0 
0.0 0.0 -1.904030246194e-04 
-8.562318666799e-04 -4.982168400307e-04 0.0 
-4.982168400307e-04 6.277290697447e-03 0.0 
0.0 0.0 -1.043355442177e-03 
-8.774345447710e-04 -2.186708792855e-04 0.0 
-2.186708792855e-04 5.055368522856e-03 0.0 
0.0 0.0 -7.763349569542e-04 
-2.555112241128e-04 1.229664321452e-03 0.0 
1.229664321452e-03 2.574406854457e-03 0.0 
0.0 0.0 -5.576783925304e-04 
-8.394427967850e-04 -5.648718734432e-04 0.0 
-5.648718734432e-04 6.055308780542e-03 0.0 
0.0 0.0 -1.006238978475e-03 
-7.021339785738e-05 -2.257880490566e-04 0.0 
-2.257880490566e-04 5.234298020475e-04 0.0 
0.0 0.0 -1.250635456846e-04 
-1.135452312747e-03 4.797857508759e-04 0.0 
4.797857508759e-04 6.834881249119e-03 0.0 
0.0 0.0 -1.040010908530e-03 
8.624072222387e-05 -5.482403482058e-05 0.0 
-5.482403482058e-05 4.623552898900e-04 0.0 
0.0 0.0 -1.166360257537e-04 
-1.840491842350e-04 -5.445744923588e-05 0.0 
-5.445744923588e-05 7.493422687288e-04 0.0 
0.0 0.0 -1.819418517600e-04 
-3.913654307844e-04 1.191507394513e-03 0.0 
1.191507394513e-03 1.470311877001e-03 0.0 
0.0 0.0 -3.246947309473e-04 
-6.091026736672e-04 -6.117663185554e-04 0.0 
-6.117663185554e-04 2.275310364661e-03 0.0 
0.0 0.0 -3.935955730116e-04 
-1.177121720242e-03 9.986808741325e-05 0.0 
9.986808741325e-05 7.155425965963e-03 0.0 
0.0 0.0 -1.073797489760e-03 
-5.625078577902e-04 -9.911531115061e-04 0.0 
-9.911531115061e-04 2.166295973773e-03 0.0 
0.0 0.0 -3.637595386041e-04 
-2.431075708166e-04 1.562437016590e-03 0.0 
1.562437016590e-03 1.376800568989e-03 0.0 
0.0 0.0 -3.890718233399e-04 
1.128852675938e-04 -1.510947419960e-03 0.0 
-1.510947419960e-03 7.754974600039e-04 0.0 
0.0 0.0 -3.807354546848e-04 
-5.007957256990e-04 -4.054148446658e-04 0.0 
-4.054148446658e-04 1.463133010542e-03 0.0 
0.0 0.0 -2.670040094673e-04 
-9.159310068134e-04 1.166570594862e-04 0.0 
1.166570594862e-04 6.711157580750e-03 0.0 
0.0 0.0 -1.117524173959e-03 
-9.108885203266e-04 1.625635707661e-04 0.0 
1.625635707661e-04 5.002433540525e-03 0.0 
0.0 0.0 -7.687972329812e-04 
-1.323980336649e-03 7.113171737239e-05 0.0 
7.113171737239e-05 8.245489008711e-03 0.0 
0.0 0.0 -1.256743614961e-03 
0.0 0.0 0.0 
0.0 0.0 0.0 
0.0 0.0 0.0 
-3.330839468946e-04 1.604359709376e-03 0.0 
1.604359709376e-03 1.727019779997e-03 0.0 
0.0 0.0 -4.044045206172e-04 
-3.067142002033e-04 1.081368075103e-03 0.0 
1.081368075103e-03 3.044773964149e-03 0.0 
0.0 0.0 -6.230907113744e-04 
-7.160262700323e-04 6.408733665596e-04 0.0 
6.408733665596e-04 3.506266837881e-03 0.0 
0.0 0.0 -5.709397776106e-04 
-8.360378415299e-04 -1.180231066696e-05 0.0 
-1.180231066696e-05 6.234265106431e-03 0.0 
0.0 0.0 -1.045235091131e-03 
-1.333473067012e-03 -5.395820062031e-05 0.0 
-5.395820062031e-05 8.405361436706e-03 0.0 
0.0 0.0 -1.275930989368e-03 
-1.131889764436e-03 1.436010865761e-04 0.0 
1.436010865761e-04 6.812686989612e-03 0.0 
0.0 0.0 -1.029499106509e-03 
5.269662907404e-05 8.913991735483e-04 0.0 
8.913991735483e-04 1.741226620489e-03 0.0 
0.0 0.0 -4.564841486881e-04 
-9.276981546427e-04 -3.123244619600e-04 0.0 
-3.123244619600e-04 6.731635440410e-03 0.0 
0.0 0.0 -1.116166892424e-03 
-1.162987388940e-03 1.784362897977e-04 0.0 
1.784362897977e-04 6.231822734238e-03 0.0 
0.0 0.0 -9.512440159151e-04 
-8.362061665926e-04 3.771233097708e-04 0.0 
3.771233097708e-04 4.773003845214e-03 0.0 
0.0 0.0 -7.537083776970e-04 
-1.102280810414e-03 4.919717221224e-04 0.0 
4.919717221224e-04 6.560511914991e-03 0.0 
0.0 0.0 -1.003200534345e-03 
-1.172867451038e-03 2.356902410022e-04 0.0 
2.356902410022e-04 7.744999640819e-03 0.0 
0.0 0.0 -1.239730878702e-03 
-2.254924367538e-04 5.849015682570e-04 0.0 
5.849015682570e-04 3.115409937203e-03 0.0 
0.0 0.0 -6.206208101913e-04 
-3.928189268474e-04 1.275344444358e-03 0.0 
1.275344444358e-03 1.843263560049e-03 0.0 
0.0 0.0 -3.752687577596e-04 
-9.992253787165e-04 1.463025209614e-04 0.0 
1.463025209614e-04 5.687199852232e-03 0.0 
0.0 0.0 -8.662621843288e-04 
-1.349788229223e-03 3.426545086550e-04 0.0 
3.426545086550e-04 9.036920857709e-03 0.0 
0.0 0.0 -1.323568725688e-03 
-7.650406542385e-04 4.751592665984e-04 0.0 
4.751592665984e-04 4.601158149833e-03 0.0 
0.0 0.0 -7.453270327204e-04 
-3.775537039009e-04 2.220958575008e-04 0.0 
2.220958575008e-04 4.208109464666e-03 0.0 
0.0 0.0 -7.768443034385e-04 
-9.417507759690e-04 -3.219991258082e-05 0.0 
-3.219991258082e-05 5.716819141930e-03 0.0 
0.0 0.0 -8.293613651800e-04 
-1.509886751970e-04 -1.135282332652e-03 0.0 
-1.135282332652e-03 1.017427284165e-03 0.0 
0.0 0.0 -3.579782397794e-04 
-9.508294649731e-04 4.627212186017e-04 0.0 
4.627212186017e-04 5.212868888400e-03 0.0 
0.0 0.0 -8.060563724883e-04 
-7.773528700208e-05 1.427065922566e-03 0.0 
1.427065922566e-03 1.665502982993e-03 0.0 
0.0 0.0 -4.590591740919e-04 
3.797527258111e-04 1.020114754415e-03 0.0 
1.020114754415e-03 1.842831286956e-04 0.0 
0.0 0.0 -2.417296519314e-04 
4.052395816326e-04 -6.135338758200e-04 0.0 
-6.135338758200e-04 -1.137161459370e-06 0.0 
0.0 0.0 -1.731867515028e-04 
-1.167546277040e-03 4.626490460642e-04 0.0 
4.626490460642e-04 7.101376568989e-03 0.0 
0.0 0.0 -1.075985979751e-03 
-9.623797546726e-04 1.845333678616e-04 0.0 
1.845333678616e-04 5.429528329259e-03 0.0 
0.0 0.0 -8.312490730234e-04 
-5.046075129470e-04 1.194499845990e-03 0.0 
1.194499845990e-03 2.882799900291e-03 0.0 
0.0 0.0 -5.429493831729e-04 
-1.206327788760e-03 8.269099761283e-05 0.0 
8.269099761283e-05 7.415962584707e-03 0.0 
0.0 0.0 -1.109763131677e-03 
-1.142751356386e-03 1.744200963682e-04 0.0 
1.744200963682e-04 6.974478761757e-03 0.0 
0.0 0.0 -1.057773507355e-03 
-8.833943353455e-04 3.220642776102e-04 0.0 
3.220642776102e-04 5.046401869676e-03 0.0 
0.0 0.0 -7.887050335656e-04 
-1.278006429871e-03 -2.029556331096e-04 0.0 
-2.029556331096e-04 8.153709597249e-03 0.0 
0.0 0.0 -1.288412101370e-03 
-4.271610777015e-04 5.562024212731e-04 0.0 
5.562024212731e-04 4.316314637617e-03 0.0 
0.0 0.0 -8.078958932737e-04 
-9.266589239438e-04 2.700924202998e-04 0.0 
2.700924202998e-04 5.312918686649e-03 0.0 
0.0 0.0 -8.238265297874e-04 
-4.963470151794e-04 6.905692722870e-04 0.0 
6.905692722870e-04 3.767490595173e-03 0.0 
0.0 0.0 -6.656476441012e-04 
-4.749686160319e-04 1.532444199585e-04 0.0 
1.532444199585e-04 4.696915836540e-03 0.0 
0.0 0.0 -8.413031780454e-04 
2.625503227397e-04 1.238828002540e-03 0.0 
1.238828002540e-03 6.651443892644e-04 0.0 
0.0 0.0 -3.865807678710e-04 
-9.465847814334e-04 1.767858078852e-04 0.0 
1.767858078852e-04 5.036126749418e-03 0.0 
0.0 0.0 -7.898058234521e-04 
-1.895610884557e-04 4.026718807994e-04 0.0 
4.026718807994e-04 3.226201886936e-03 0.0 
0.0 0.0 -6.486359607860e-04 
1.616252847495e-04 -9.427764674384e-04 0.0 
-9.427764674384e-04 1.519153345857e-03 0.0 
0.0 0.0 -4.681053320140e-04 
-1.124321372716e-03 5.190781523116e-04 0.0 
5.190781523116e-04 6.737556221388e-03 0.0 
0.0 0.0 -1.032318248600e-03 
0.0 0.0 0.0 
0.0 0.0 0.0 
0.0 0.0 0.0 
-9.848011893069e-04 9.254887770331e-05 0.0 
9.254887770331e-05 5.522315715833e-03 0.0 
0.0 0.0 -8.386390795737e-04 
1.936986156422e-05 1.160151507078e-03 0.0 
1.160151507078e-03 1.716486351178e-03 0.0 
0.0 0.0 -4.870240021111e-04 
-2.325836748457e-04 1.289855956993e-03 0.0 
1.289855956993e-03 1.788704446122e-03 0.0 
0.0 0.0 -4.015254440178e-04 
4.595658441768e-04 4.744943126908e-04 0.0 
4.744943126908e-04 7.528832652438e-04 0.0 
0.0 0.0 -4.054414645912e-04 
-1.008402327414e-03 5.265744671369e-04 0.0 
5.265744671369e-04 5.786538932645e-03 0.0 
0.0 0.0 -8.965110541436e-04 
-2.494216096235e-04 -4.335362183750e-04 0.0 
-4.335362183750e-04 9.422411490062e-04 0.0 
0.0 0.0 -1.609926926485e-04 
-6.820720035477e-04 8.119732659470e-04 0.0 
8.119732659470e-04 3.361151585438e-03 0.0 
0.0 0.0 -5.613503766092e-04 
-5.249648680804e-04 4.982973278599e-04 0.0 
4.982973278599e-04 4.821038106347e-03 0.0 
0.0 0.0 -8.726802719924e-04 
-9.620382926610e-04 5.073054538474e-04 0.0 
5.073054538474e-04 5.367475776694e-03 0.0 
0.0 0.0 -8.336838631977e-04 
-9.866522304222e-04 1.405170818081e-04 0.0 
1.405170818081e-04 5.654603971252e-03 0.0 
0.0 0.0 -8.301023967811e-04 
2.987392461190e-04 2.567812312072e-04 0.0 
2.567812312072e-04 -6.027321301993e-05 0.0 
0.0 0.0 -1.021997284710e-04 
2.232246709604e-04 -1.918559463565e-04 0.0 
-1.918559463565e-04 1.424673883171e-03 0.0 
0.0 0.0 -4.706942212664e-04 
9.862482380878e-05 -1.372550038116e-03 0.0 
-1.372550038116e-03 1.318021718147e-03 0.0 
0.0 0.0 -4.311372127493e-04 
-6.563785485795e-04 5.486582363547e-04 0.0 
5.486582363547e-04 3.058796699974e-03 0.0 
0.0 0.0 -4.957039317942e-04 
-1.115649045089e-03 1.001564757614e-04 0.0 
1.001564757614e-04 6.632881085886e-03 0.0 
0.0 0.0 -1.000663671924e-03 
-6.796028561542e-04 5.568827768722e-04 0.0 
5.568827768722e-04 3.430251503350e-03 0.0 
0.0 0.0 -5.577786207633e-04 
-1.458115086374e-04 8.292196236090e-04 0.0 
8.292196236090e-04 2.768893991105e-03 0.0 
0.0 0.0 -6.151539951222e-04 
-1.886011553539e-04 1.051832417911e-03 0.0 
1.051832417911e-03 2.651380485181e-03 0.0 
0.0 0.0 -5.868308051845e-04 
4.119056616429e-04 4.824818133927e-04 0.0 
4.824818133927e-04 -5.163543584123e-05 0.0 
0.0 0.0 -1.544015253436e-04 
-5.103402652263e-04 1.016313603146e-03 0.0 
1.016313603146e-03 3.773155867782e-03 0.0 
0.0 0.0 -6.959382511914e-04 
-1.626884107157e-04 1.342060582958e-03 0.0 
1.342060582958e-03 1.124683386977e-03 0.0 
0.0 0.0 -3.635305771564e-04 
-1.332783064049e-03 3.949756871870e-04 0.0 
3.949756871870e-04 8.970989248616e-03 0.0 
0.0 0.0 -1.321446319728e-03 
-1.363423366848e-03 4.246461146743e-04 0.0 
4.246461146743e-04 8.919856195938e-03 0.0 
0.0 0.0 -1.318029376683e-03 
-7.707229978672e-04 8.349277957258e-04 0.0 
8.349277957258e-04 4.657152987880e-03 0.0 
0.0 0.0 -7.755312068111e-04 
8.477148352467e-05 1.389041319869e-03 0.0 
1.389041319869e-03 1.180405502280e-03 0.0 
0.0 0.0 -4.232985079168e-04 
-7.785189424599e-05 1.403831464932e-03 0.0 
1.403831464932e-03 1.344103223027e-03 0.0 
0.0 0.0 -3.659709354871e-04 
-9.354111606034e-04 6.403030867596e-04 0.0 
6.403030867596e-04 5.396292848320e-03 0.0 
0.0 0.0 -8.539191708180e-04 
9.999732188838e-05 1.139160073047e-03 0.0 
1.139160073047e-03 1.275333839354e-03 0.0 
0.0 0.0 -3.930530440640e-04 
2.202450365264e-04 -6.175447713642e-04 0.0 
-6.175447713642e-04 1.218766433543e-03 0.0 
0.0 0.0 -4.339875075689e-04 
-8.457389435740e-04 6.790973874792e-04 0.0 
6.790973874792e-04 4.708791579724e-03 0.0 
0.0 0.0 -7.563811545761e-04 
-1.327783261122e-03 1.214241298840e-04 0.0 
1.214241298840e-04 8.708921592335e-03 0.0 
0.0 0.0 -1.266640259566e-03 
-1.253349979010e-04 1.227176291700e-03 0.0 
1.227176291700e-03 2.155279357023e-03 0.0 
0.0 0.0 -5.226246958029e-04 
-6.857827131982e-04 6.109821481705e-04 0.0 
6.109821481705e-04 5.443563599872e-03 0.0 
0.0 0.0 -9.428115367422e-04 
1.005352414743e-05 1.485881480078e-03 0.0 
1.485881480078e-03 9.313511271754e-04 0.0 
0.0 0.0 -4.034591362812e-04 
-1.256876494634e-03 -1.116338181287e-04 0.0 
-1.116338181287e-04 8.512233064138e-03 0.0 
0.0 0.0 -1.322863172658e-03 
-5.368107279651e-05 1.667223674442e-03 0.0 
1.667223674442e-03 1.192784921883e-03 0.0 
0.0 0.0 -3.959736908235e-04 
-8.401524306230e-04 7.380205594863e-04 0.0 
7.380205594863e-04 4.834030021030e-03 0.0 
0.0 0.0 -7.835188407615e-04 
5.148731166168e-04 5.137437753511e-04 0.0 
5.137437753511e-04 -7.966675073374e-05 0.0 
0.0 0.0 -1.865170139499e-04 
-5.892765440231e-04 4.534415622219e-05 0.0 
4.534415622219e-05 5.187712345136e-03 0.0 
0.0 0.0 -9.211625808215e-04 
-2.619705547916e-04 9.063726296434e-04 0.0 
9.063726296434e-04 3.144147236726e-03 0.0 
0.0 0.0 -6.516619296807e-04 
5.136778266445e-05 -8.544458010471e-04 0.0 
-8.544458010471e-04 1.672478035934e-03 0.0 
0.0 0.0 -4.625367401933e-04 
-9.230469363571e-04 2.192959829449e-04 0.0 
2.192959829449e-04 5.165828729947e-03 0.0 
0.0 0.0 -7.963903837170e-04 
-1.338316942917e-03 5.052217518095e-04 0.0 
5.052217518095e-04 8.833234944730e-03 0.0 
0.0 0.0 -1.324865334549e-03 
-6.025361920259e-05 9.743864967892e-04 0.0 
9.743864967892e-04 2.246037318888e-03 0.0 
0.0 0.0 -5.510338386786e-04 
-4.966114613551e-04 2.324572275960e-05 0.0 
2.324572275960e-05 4.887340644677e-03 0.0 
0.0 0.0 -8.703234504572e-04 
-4.984372673971e-05 1.535578283139e-03 0.0 
1.535578283139e-03 1.001433575544e-03 0.0 
0.0 0.0 -3.453408408593e-04 
-1.068497402403e-03 3.485541216510e-04 0.0 
3.485541216510e-04 6.344714792472e-03 0.0 
0.0 0.0 -9.576894438039e-04 
-8.089599515326e-04 -1.073379708431e-04 0.0 
-1.073379708431e-04 5.996798576901e-03 0.0 
0.0 0.0 -1.008345180213e-03 
-4.736853950805e-04 1.081684251561e-03 0.0 
1.081684251561e-03 2.201297944192e-03 0.0 
0.0 0.0 -4.109515902261e-04 
-1.055848474588e-03 -6.244673246336e-05 0.0 
-6.244673246336e-05 6.209225770776e-03 0.0 
0.0 0.0 -9.257128893455e-04 
-1.318413144677e-03 5.597520288916e-04 0.0 
5.597520288916e-04 8.736177841961e-03 0.0 
0.0 0.0 -1.322580803729e-03 
-9.099621181087e-04 -7.844937670166e-05 0.0 
-7.844937670166e-05 6.486423483438e-03 0.0 
0.0 0.0 -1.075861678316e-03 
-1.339852007458e-03 4.885566376854e-04 0.0 
4.885566376854e-04 8.877779505668e-03 0.0 
0.0 0.0 -1.322091174222e-03 
-1.037601774292e-03 -4.998348071014e-05 0.0 
-4.998348071014e-05 6.134914618430e-03 0.0 
0.0 0.0 -9.196498359204e-04 
-1.117033596766e-03 2.433107206605e-04 0.0 
2.433107206605e-04 6.851288038562e-03 0.0 
0.0 0.0 -1.048263655743e-03 
-5.132028134043e-04 1.102114687126e-03 0.0 
1.102114687126e-03 1.849180492075e-03 0.0 
0.0 0.0 -3.491910591611e-04 
-8.752311967057e-04 2.096761775609e-04 0.0 
2.096761775609e-04 4.753971328354e-03 0.0 
0.0 0.0 -7.343713905235e-04 
-9.300305532746e-04 5.926935085268e-04 0.0 
5.926935085268e-04 5.253991145748e-03 0.0 
0.0 0.0 -8.263924940540e-04 
-9.692706598054e-04 2.261418497641e-04 0.0 
2.261418497641e-04 5.579447270465e-03 0.0 
0.0 0.0 -8.589723558544e-04 
-7.013973697775e-04 5.476600750058e-04 0.0 
5.476600750058e-04 4.307373761106e-03 0.0 
0.0 0.0 -7.101745248689e-04 
-1.306990612628e-03 5.041978193775e-04 0.0 
5.041978193775e-04 8.672501482610e-03 0.0 
0.0 0.0 -1.322334986692e-03 
-9.943643695485e-04 3.416073873728e-04 0.0 
3.416073873728e-04 5.867113055505e-03 0.0 
0.0 0.0 -8.810748613436e-04 
-9.323244271653e-04 9.613325556177e-05 0.0 
9.613325556177e-05 5.115490294310e-03 0.0 
0.0 0.0 -7.763708431881e-04 
-1.001832059306e-04 5.266866745758e-04 0.0 
5.266866745758e-04 2.724835239940e-03 0.0 
0.0 0.0 -5.843899590101e-04 
-5.790296725673e-04 -5.326125379184e-04 0.0 
-5.326125379184e-04 1.882091514832e-03 0.0 
0.0 0.0 -3.280768480529e-04 
-8.597084284199e-04 1.491840850699e-04 0.0 
1.491840850699e-04 4.593177939361e-03 0.0 
0.0 0.0 -7.069124235890e-04 
-4.246089693938e-04 1.428928262105e-03 0.0 
1.428928262105e-03 2.122954743528e-03 0.0 
0.0 0.0 -4.404772202000e-04 
-8.726090169173e-04 -3.101571305491e-05 0.0 
-3.101571305491e-05 5.309765821533e-03 0.0 
0.0 0.0 -7.696142143080e-04 
-7.647244692160e-05 -1.455292213990e-03 0.0 
-1.455292213990e-03 1.759408115361e-03 0.0 
0.0 0.0 -4.595640944490e-04 
-1.784270519959e-05 6.865399459054e-04 0.0 
6.865399459054e-04 2.226340647437e-03 0.0 
0.0 0.0 -5.202658224677e-04 
-1.156111700983e-03 5.188644452185e-04 0.0 
5.188644452185e-04 7.007873302369e-03 0.0 
0.0 0.0 -1.069052450572e-03 
-3.544111730508e-04 1.143529289652e-03 0.0 
1.143529289652e-03 2.186339618849e-03 0.0 
0.0 0.0 -4.372567615832e-04 
-8.838010647401e-04 5.805967859428e-04 0.0 
5.805967859428e-04 4.846530847442e-03 0.0 
0.0 0.0 -7.640689829422e-04 
-5.498264973309e-04 3.710435615581e-04 0.0 
3.710435615581e-04 5.012164832543e-03 0.0 
0.0 0.0 -9.014246907137e-04 
-6.358980608267e-04 -4.313104688366e-04 0.0 
-4.313104688366e-04 4.627036023584e-03 0.0 
0.0 0.0 -8.035328976187e-04 
-1.261046308643e-03 3.887646222973e-04 0.0 
3.887646222973e-04 8.565225437675e-03 0.0 
0.0 0.0 -1.324762665914e-03 
-7.961969453534e-04 2.495159098011e-04 0.0 
2.495159098011e-04 4.113140991581e-03 0.0 
0.0 0.0 -6.390224077203e-04 
3.053061856643e-04 2.267805296744e-04 0.0 
2.267805296744e-04 1.077273840324e-03 0.0 
0.0 0.0 -4.422638729430e-04 
-5.704666668683e-04 -1.178468115440e-03 0.0 
-1.178468115440e-03 3.201154498828e-03 0.0 
0.0 0.0 -5.691257024010e-04 
-5.951122843918e-04 8.042220484985e-04 0.0 
8.042220484985e-04 2.449547643677e-03 0.0 
0.0 0.0 -4.184705811166e-04 
-5.000320666269e-04 1.320407470952e-03 0.0 
1.320407470952e-03 2.143724443106e-03 0.0 
0.0 0.0 -4.141309408042e-04 
-1.196454144110e-03 1.993133203818e-04 0.0 
1.993133203818e-04 7.413315256709e-03 0.0 
0.0 0.0 -1.123886314723e-03 
-8.766172246535e-04 3.573442557890e-04 0.0 
3.573442557890e-04 5.175634424808e-03 0.0 
0.0 0.0 -8.161479701220e-04 
-7.263474599636e-04 3.526993364896e-04 0.0 
3.526993364896e-04 3.570072660402e-03 0.0 
0.0 0.0 -5.672387349321e-04 
-8.352265289735e-04 5.640695091739e-04 0.0 
5.640695091739e-04 4.443467777814e-03 0.0 
0.0 0.0 -7.023794137935e-04 
-1.258131779879e-03 1.361172827669e-04 0.0 
1.361172827669e-04 8.496942290822e-03 0.0 
0.0 0.0 -1.320675234999e-03 
-1.143815948478e-03 -2.922836025437e-06 0.0 
-2.922836025437e-06 7.935052382313e-03 0.0 
0.0 0.0 -1.258064670439e-03 
-1.185356167607e-03 5.772655224951e-04 0.0 
5.772655224951e-04 7.334174599953e-03 0.0 
0.0 0.0 -1.126590436115e-03 
-1.146342777142e-03 1.032030268662e-04 0.0 
1.032030268662e-04 6.902588040038e-03 0.0 
0.0 0.0 -1.037522200811e-03 
-6.004564824823e-04 -8.741253658515e-04 0.0 
-8.741253658515e-04 4.400886106663e-03 0.0 
0.0 0.0 -7.721428985420e-04 
-6.499827822082e-04 6.306060725170e-04 0.0 
6.306060725170e-04 3.517235102446e-03 0.0 
0.0 0.0 -5.842812205453e-04 
2.208852054121e-04 7.449773440899e-04 0.0 
7.449773440899e-04 1.272300042131e-03 0.0 
0.0 0.0 -4.203166018452e-04 
1.283124150736e-04 5.457702178093e-04 0.0 
5.457702178093e-04 1.800318710438e-03 0.0 
0.0 0.0 -4.843489805398e-04 
-8.229602156181e-04 4.179326389388e-04 0.0 
4.179326389388e-04 4.894594765891e-03 0.0 
0.0 0.0 -7.808727949117e-04 
-5.351512224978e-04 -3.319303625282e-04 0.0 
-3.319303625282e-04 5.022677570586e-03 0.0 
0.0 0.0 -8.900964085843e-04 
-8.296790490015e-04 -7.574227516101e-04 0.0 
-7.574227516101e-04 4.266073095582e-03 0.0 
0.0 0.0 -6.810091006415e-04 
-1.209161835961e-03 5.397487415350e-04 0.0 
5.397487415350e-04 7.456423275886e-03 0.0 
0.0 0.0 -1.134236807130e-03 
2.970140770782e-04 -5.886898203256e-04 0.0 
-5.886898203256e-04 1.178529551260e-03 0.0 
0.0 0.0 -4.395655422792e-04 
-6.321441937111e-04 6.212871376415e-04 0.0 
6.212871376415e-04 4.001931118120e-03 0.0 
0.0 0.0 -6.750378637491e-04 
-8.881105026694e-04 6.325939136900e-04 0.0 
6.325939136900e-04 4.979851951469e-03 0.0 
0.0 0.0 -7.913284153978e-04 
-6.067465934174e-04 6.691797761234e-04 0.0 
6.691797761234e-04 3.597583737962e-03 0.0 
0.0 0.0 -6.122259156574e-04 
-1.324329620218e-03 4.629903675986e-04 0.0 
4.629903675986e-04 8.904888157841e-03 0.0 
0.0 0.0 -1.320088186226e-03 
-1.359586791555e-03 4.788353102242e-04 0.0 
4.788353102242e-04 8.942288232093e-03 0.0 
0.0 0.0 -1.318462653075e-03 
-1.290025244180e-03 1.809732516489e-04 0.0 
1.809732516489e-04 8.380056929833e-03 0.0 
0.0 0.0 -1.256494544188e-03 
-6.742581298534e-04 -7.798202117693e-04 0.0 
-7.798202117693e-04 4.873866166937e-03 0.0 
0.0 0.0 -8.375255977276e-04 
-1.194824314076e-03 4.521929309845e-04 0.0 
4.521929309845e-04 7.360058874814e-03 0.0 
0.0 0.0 -1.112065035246e-03 
-4.430818055786e-04 1.485014206495e-03 0.0 
1.485014206495e-03 1.784679357047e-03 0.0 
0.0 0.0 -3.785953687517e-04 
2.729854799726e-05 3.936097668604e-04 0.0 
3.936097668604e-04 2.328364048534e-03 0.0 
0.0 0.0 -5.483018170244e-04 
5.295881833206e-04 7.121810223511e-04 0.0 
7.121810223511e-04 1.629388308909e-04 0.0 
0.0 0.0 -2.967972918049e-04 
-7.211884972610e-04 4.566068001278e-04 0.0 
4.566068001278e-04 3.698308171073e-03 0.0 
0.0 0.0 -5.936226173563e-04 
-9.121582442551e-04 9.143313993339e-05 0.0 
9.143313993339e-05 5.030258123682e-03 0.0 
0.0 0.0 -7.914980036671e-04 
-1.035929216748e-03 3.563880147614e-04 0.0 
3.563880147614e-04 6.090521981813e-03 0.0 
0.0 0.0 -9.214502702889e-04 
-1.168840555119e-03 -8.744363195648e-05 0.0 
-8.744363195648e-05 8.066384051930e-03 0.0 
0.0 0.0 -1.265403586923e-03 
-1.162609015209e-03 6.330590177409e-04 0.0 
6.330590177409e-04 7.197897661744e-03 0.0 
0.0 0.0 -1.117224974728e-03 
-9.919773035698e-04 4.807053877499e-04 0.0 
4.807053877499e-04 5.626646372679e-03 0.0 
0.0 0.0 -8.687609488834e-04 
-9.791621869581e-04 6.007006909595e-04 0.0 
6.007006909595e-04 5.670050972566e-03 0.0 
0.0 0.0 -8.891947744737e-04 
4.804557488344e-04 9.476988486698e-04 0.0 
9.476988486698e-04 9.767658471985e-05 0.0 
0.0 0.0 -2.477710000947e-04 
-2.208441256582e-04 -6.752013946383e-04 0.0 
-6.752013946383e-04 8.882775518556e-04 0.0 
0.0 0.0 -2.467363499356e-04 
-4.153429420499e-04 1.059032103328e-03 0.0 
1.059032103328e-03 3.417216683434e-03 0.0 
0.0 0.0 -6.594106982652e-04 
-6.669546155335e-04 5.596997560711e-04 0.0 
5.596997560711e-04 4.411048143991e-03 0.0 
0.0 0.0 -7.376142925499e-04 
-4.466823138591e-04 6.032870064143e-04 0.0 
6.032870064143e-04 3.840807050757e-03 0.0 
0.0 0.0 -6.931905564144e-04 
6.417191678250e-05 8.603242808997e-04 0.0 
8.603242808997e-04 4.417253736716e-04 0.0 
0.0 0.0 -2.168131244803e-04 
-9.528466809374e-04 9.473419018348e-05 0.0 
9.473419018348e-05 5.427141204722e-03 0.0 
0.0 0.0 -8.462285223656e-04 
-5.049741343807e-04 -8.812005228938e-04 0.0 
-8.812005228938e-04 1.770302560701e-03 0.0 
0.0 0.0 -2.972104253142e-04 
-2.017300964170e-04 1.588765395916e-03 0.0 
1.588765395916e-03 1.677129549565e-03 0.0 
0.0 0.0 -4.314049239902e-04 
-1.341153861134e-03 -7.479496163088e-05 0.0 
-7.479496163088e-05 8.257374884626e-03 0.0 
0.0 0.0 -1.341153861134e-03 
-6.757643640114e-04 6.444207577368e-05 0.0 
6.444207577368e-05 5.692433792017e-03 0.0 
0.0 0.0 -9.717687626070e-04 
-9.402714050330e-04 4.164454812488e-04 0.0 
4.164454812488e-04 5.059115903313e-03 0.0 
0.0 0.0 -7.790007367612e-04 
-1.996455075654e-04 1.120227626459e-04 0.0 
1.120227626459e-04 1.363834974093e-03 0.0 
0.0 0.0 -2.176483604987e-04 
-7.316139978666e-04 8.725598858698e-04 0.0 
8.725598858698e-04 4.250250205740e-03 0.0 
0.0 0.0 -7.126719623954e-04 
-3.416312472277e-04 6.071238986655e-04 0.0 
6.071238986655e-04 3.482434275960e-03 0.0 
0.0 0.0 -6.569982659716e-04 
-1.010067214733e-03 1.858710736428e-04 0.0 
1.858710736428e-04 5.842461225268e-03 0.0 
0.0 0.0 -8.940630110299e-04 
-1.333890643160e-03 5.791621130684e-04 0.0 
5.791621130684e-04 8.805315107962e-03 0.0 
0.0 0.0 -1.323832587333e-03 
-8.707338927728e-04 5.246940464045e-04 0.0 
5.246940464045e-04 4.704277736275e-03 0.0 
0.0 0.0 -7.366500567795e-04 
-9.271217876491e-04 3.071330387493e-04 0.0 
3.071330387493e-04 5.453258810761e-03 0.0 
0.0 0.0 -8.513774089097e-04 
-8.050460189817e-04 -4.209308180889e-04 0.0 
-4.209308180889e-04 4.202095383354e-03 0.0 
0.0 0.0 -6.837695253815e-04 
-1.187192617587e-03 5.026303496446e-04 0.0 
5.026303496446e-04 7.280339694805e-03 0.0 
0.0 0.0 -1.105258581891e-03 
-7.119244178252e-04 -3.438823351423e-04 0.0 
-3.438823351423e-04 5.099696206057e-03 0.0 
0.0 0.0 -8.691653677727e-04 
-1.316090240167e-03 5.389588138701e-04 0.0 
5.389588138701e-04 8.780826577697e-03 0.0 
0.0 0.0 -1.322174839672e-03 
-1.340103718614e-03 4.728281156223e-04 0.0 
4.728281156223e-04 8.628873091994e-03 0.0 
0.0 0.0 -1.340103718614e-03 
-1.341028575724e-03 3.568557509173e-04 0.0 
3.568557509173e-04 8.716110367900e-03 0.0 
0.0 0.0 -1.341028575724e-03 
-1.338044909071e-03 4.168385009661e-04 0.0 
4.168385009661e-04 8.630348436964e-03 0.0 
0.0 0.0 -1.338044909071e-03 
-1.019072052988e-03 5.681193801066e-04 0.0 
5.681193801066e-04 5.940654999783e-03 0.0 
0.0 0.0 -9.244680137507e-04 
-1.198675717763e-03 1.360258094172e-04 0.0 
1.360258094172e-04 7.335887667339e-03 0.0 
0.0 0.0 -1.103002250422e-03 
-1.198479165231e-03 6.200957679300e-04 0.0 
6.200957679300e-04 7.509008113829e-03 0.0 
0.0 0.0 -1.155914796392e-03 
-6.394343852437e-04 1.004430984718e-03 0.0 
1.004430984718e-03 3.542163334784e-03 0.0 
0.0 0.0 -6.147330147620e-04 
-6.675475430971e-04 9.277672711453e-04 0.0 
9.277672711453e-04 3.456421744926e-03 0.0 
0.0 0.0 -5.872917534094e-04 
-8.247859078912e-04 -6.922016390902e-04 0.0 
-6.922016390902e-04 4.077408079033e-03 0.0 
0.0 0.0 -6.436934073013e-04 
-1.217910302125e-03 1.553299834490e-04 0.0 
1.553299834490e-04 7.518311075799e-03 0.0 
0.0 0.0 -1.131852245309e-03 
-1.311936692750e-03 5.307865598084e-04 0.0 
5.307865598084e-04 8.695029491200e-03 0.0 
0.0 0.0 -1.322440284024e-03 
-1.214240069695e-03 4.882095922708e-04 0.0 
4.882095922708e-04 7.535305569948e-03 0.0 
0.0 0.0 -1.141180801552e-03 
-5.747438901480e-04 1.003283814169e-04 0.0 
1.003283814169e-04 5.194431951746e-03 0.0 
0.0 0.0 -9.063345769726e-04 
-1.227388762698e-03 1.265853976664e-04 0.0 
1.265853976664e-04 7.592479060989e-03 0.0 
0.0 0.0 -1.138864741757e-03 
-8.838474672112e-04 3.395282227197e-04 0.0 
3.395282227197e-04 6.126324240512e-03 0.0 
0.0 0.0 -9.903545940741e-04 
-6.357684789507e-04 9.653705253964e-04 0.0 
9.653705253964e-04 4.033111277517e-03 0.0 
0.0 0.0 -7.049739924763e-04 
-7.219643329354e-04 7.270984363887e-04 0.0 
7.270984363887e-04 3.640512255542e-03 0.0 
0.0 0.0 -5.967387615352e-04 
1.271449544166e-04 1.530874377193e-03 0.0 
1.530874377193e-03 7.660888374693e-04 0.0 
0.0 0.0 -3.828144822368e-04 
-1.311008186282e-03 3.440606395408e-04 0.0 
3.440606395408e-04 8.440809804770e-03 0.0 
0.0 0.0 -1.282213402295e-03 
-5.754210014705e-04 1.101723762793e-03 0.0 
1.101723762793e-03 3.231346314138e-03 0.0 
0.0 0.0 -5.792479259103e-04 
-1.176826657867e-03 4.517387013495e-04 0.0 
4.517387013495e-04 7.668341186852e-03 0.0 
0.0 0.0 -1.230767059693e-03 
-8.116549819174e-04 -3.660838800677e-04 0.0 
-3.660838800677e-04 4.013024169842e-03 0.0 
0.0 0.0 -6.465396845166e-04 
-1.917368362491e-04 -1.670915138255e-03 0.0 
-1.670915138255e-03 1.673857297907e-03 0.0 
0.0 0.0 -4.222915044375e-04 
-1.218810452461e-03 -6.182829621563e-05 0.0 
-6.182829621563e-05 7.834853919449e-03 0.0 
0.0 0.0 -1.284312900220e-03 
-3.227899414303e-04 1.463352553329e-03 0.0 
1.463352553329e-03 2.102017459643e-03 0.0 
0.0 0.0 -4.669824892858e-04 
-1.341987455608e-03 4.935381790995e-04 0.0 
4.935381790995e-04 8.595598521703e-03 0.0 
0.0 0.0 -1.341987455608e-03 
-1.324901016307e-03 3.587683922887e-04 0.0 
3.587683922887e-04 8.344464300183e-03 0.0 
0.0 0.0 -1.282654109251e-03 
-8.850522684098e-04 7.214064072268e-04 0.0 
7.214064072268e-04 5.245748206413e-03 0.0 
0.0 0.0 -8.462542048450e-04 
-8.057611890132e-05 -1.710152855484e-04 0.0 
-1.710152855484e-04 3.103213667799e-04 0.0 
0.0 0.0 -9.846224909082e-05 
-1.340954708392e-03 5.230440169069e-04 0.0 
5.230440169069e-04 8.529172830874e-03 0.0 
0.0 0.0 -1.340954708391e-03 
-1.218199846518e-03 4.994387147233e-06 0.0 
4.994387147233e-06 7.808383985296e-03 0.0 
0.0 0.0 -1.284661450484e-03 
-4.838292351495e-05 -1.134502527952e-03 0.0 
-1.134502527952e-03 1.589566893982e-03 0.0 
0.0 0.0 -4.253660281670e-04 
-6.012411031331e-04 -5.471211505200e-06 0.0 
-5.471211505200e-06 5.388600975266e-03 0.0 
0.0 0.0 -9.353130867196e-04 
-1.284222320321e-03 3.331079903689e-04 0.0 
3.331079903689e-04 8.551492227036e-03 0.0 
0.0 0.0 -1.323014926434e-03 
0.0 0.0 0.0 
0.0 0.0 0.0 
0.0 0.0 0.0 
-6.023691884067e-04 1.029224405588e-03 0.0 
1.029224405588e-03 3.627406800571e-03 0.0 
0.0 0.0 -6.425506931502e-04 
-9.361925531562e-04 6.770287321789e-04 0.0 
6.770287321789e-04 5.532046743254e-03 0.0 
0.0 0.0 -8.816033652580e-04 
-8.298014528126e-04 7.768529914015e-04 0.0 
7.768529914015e-04 4.954128457589e-03 0.0 
0.0 0.0 -8.109139232486e-04 
-8.897770840316e-04 6.877783995216e-04 0.0 
6.877783995216e-04 5.117343312454e-03 0.0 
0.0 0.0 -8.186613860469e-04 
-1.469792992645e-04 1.697477444243e-03 0.0 
1.697477444243e-03 1.268784698810e-03 0.0 
0.0 0.0 -3.960833248805e-04 
-1.341360672448e-03 5.109795992512e-04 0.0 
5.109795992512e-04 8.445730971081e-03 0.0 
0.0 0.0 -1.341360672448e-03 
-7.719693981544e-05 2.760009161414e-04 0.0 
2.760009161414e-04 2.850848330235e-03 0.0 
0.0 0.0 -6.123778370825e-04 
1.753729935007e-04 1.501404700023e-05 0.0 
1.501404700023e-05 -5.243892185943e-05 0.0 
0.0 0.0 -5.268603070342e-05 
-1.302465582654e-03 -2.496096405259e-04 0.0 
-2.496096405259e-04 8.365120953103e-03 0.0 
0.0 0.0 -1.272354826527e-03 
-1.485058388714e-04 -2.923397016935e-04 0.0 
-2.923397016935e-04 5.768067641683e-04 0.0 
0.0 0.0 -1.019437782286e-04 
-7.982614346128e-04 6.111031080938e-04 0.0 
6.111031080938e-04 4.181968739078e-03 0.0 
0.0 0.0 -6.678899790658e-04 
2.246133581427e-04 -6.808997986787e-04 0.0 
-6.808997986787e-04 1.445508393424e-04 0.0 
0.0 0.0 -1.582132274936e-04 
-8.489872345980e-04 4.667487785959e-04 0.0 
4.667487785959e-04 4.536973076965e-03 0.0 
0.0 0.0 -7.094882865497e-04 
-1.255369180247e-03 1.858612183136e-05 0.0 
1.858612183136e-05 8.476379217670e-03 0.0 
0.0 0.0 -1.321823097425e-03 
-1.341255375116e-03 4.796779653900e-04 0.0 
4.796779653900e-04 8.398188684786e-03 0.0 
0.0 0.0 -1.341255375116e-03 
-9.721290586981e-04 5.581628762271e-04 0.0 
5.581628762271e-04 5.522703984207e-03 0.0 
0.0 0.0 -8.613793510407e-04 
1.600321873614e-04 -6.162664284866e-04 0.0 
-6.162664284866e-04 1.802849776087e-04 0.0 
0.0 0.0 -1.458502135586e-04 
3.109225001715e-06 1.120621869490e-06 0.0 
1.120621869490e-06 -8.787071989563e-07 0.0 
0.0 0.0 -9.559362011824e-07 
1.535176122475e-04 -1.236399581379e-03 0.0 
-1.236399581379e-03 5.447751134409e-04 0.0 
0.0 0.0 -2.992683110093e-04 
-1.116873810569e-03 -5.374998991881e-04 0.0 
-5.374998991881e-04 7.110713391746e-03 0.0 
0.0 0.0 -1.121833217354e-03 
-9.101085565852e-04 1.581356444995e-04 0.0 
1.581356444995e-04 5.291968435283e-03 0.0 
0.0 0.0 -7.704300227928e-04 
-9.627171074924e-04 3.587877174801e-05 0.0 
3.587877174801e-05 5.332601127641e-03 0.0 
0.0 0.0 -8.109332722942e-04 
-1.342502730507e-03 4.025374877915e-04 0.0 
4.025374877915e-04 8.333596175980e-03 0.0 
0.0 0.0 -1.342502730507e-03 
-9.258687689408e-04 6.411213788910e-05 0.0 
6.411213788910e-05 5.298171403091e-03 0.0 
0.0 0.0 -7.720444664677e-04 
-1.356038484680e-03 3.810509766439e-04 0.0 
3.810509766439e-04 8.994012411350e-03 0.0 
0.0 0.0 -1.322852565091e-03 
-9.095582700075e-04 6.913502515422e-04 0.0 
6.913502515422e-04 6.199031272495e-03 0.0 
0.0 0.0 -1.020998643257e-03 
-1.011415993933e-03 3.149863478337e-04 0.0 
3.149863478337e-04 5.896378527379e-03 0.0 
0.0 0.0 -8.907448815977e-04 
-5.714615022677e-04 1.156558804127e-03 0.0 
1.156558804127e-03 2.460117787699e-03 0.0 
0.0 0.0 -4.477608806526e-04 
-6.254234584821e-04 4.541246643039e-04 0.0 
4.541246643039e-04 5.320880420055e-03 0.0 
0.0 0.0 -9.378661514434e-04 
3.838669366307e-04 1.236207229742e-03 0.0 
1.236207229742e-03 2.839536722242e-04 0.0 
0.0 0.0 -2.862088323664e-04 
-1.340754991027e-03 2.766872434976e-04 0.0 
2.766872434976e-04 8.283487658048e-03 0.0 
0.0 0.0 -1.340754991027e-03 
-1.339984467612e-03 4.682059719065e-04 0.0 
4.682059719065e-04 8.622431533437e-03 0.0 
0.0 0.0 -1.339984467612e-03 
-1.340417744004e-03 3.687782300389e-04 0.0 
3.687782300389e-04 8.691962583590e-03 0.0 
0.0 0.0 -1.340417744004e-03 
-7.614631425941e-04 -7.600693639472e-04 0.0 
-7.600693639472e-04 5.166067953467e-03 0.0 
0.0 0.0 -8.666500598261e-04 
-8.083534389449e-04 -6.157792834396e-04 0.0 
-6.157792834396e-04 3.875634950425e-03 0.0 
0.0 0.0 -6.062238016986e-04 
-5.875577080076e-04 6.263804956418e-04 0.0 
6.263804956418e-04 4.098789747432e-03 0.0 
0.0 0.0 -7.021192356133e-04 
-7.972896345738e-04 -3.252844081748e-04 0.0 
-3.252844081748e-04 5.374062371917e-03 0.0 
0.0 0.0 -8.981573260837e-04 
-1.339627896631e-03 1.538435656171e-04 0.0 
1.538435656171e-04 8.249387984378e-03 0.0 
0.0 0.0 -1.339627896631e-03 
-7.499431316128e-05 1.153135812952e-03 0.0 
1.153135812952e-03 1.745463721331e-03 0.0 
0.0 0.0 -4.287941800800e-04 
9.963389295363e-05 -4.974640475465e-04 0.0 
-4.974640475465e-04 1.806583108532e-03 0.0 
0.0 0.0 -4.991860405784e-04 
-4.325429609303e-05 -6.957715566116e-04 0.0 
-6.957715566116e-04 2.198402972482e-03 0.0 
0.0 0.0 -5.272458293186e-04 
-1.040852931917e-03 3.039409917234e-04 0.0 
3.039409917234e-04 6.156930146379e-03 0.0 
0.0 0.0 -9.279583942086e-04 
-1.296158163173e-03 -2.117115631842e-04 0.0 
-2.117115631842e-04 8.526713660580e-03 0.0 
0.0 0.0 -1.323537156312e-03 
5.620572206727e-05 -9.064776901539e-04 0.0 
-9.064776901539e-04 4.833799193028e-04 0.0 
0.0 0.0 -2.312509891586e-04 
-1.340775759057e-03 -3.546022348329e-06 0.0 
-3.546022348329e-06 8.220355043040e-03 0.0 
0.0 0.0 -1.340775759057e-03 
-1.115561951243e-04 -9.424028116119e-04 0.0 
-9.424028116119e-04 2.079879554815e-03 0.0 
0.0 0.0 -4.905422085546e-04 
-1.342877878941e-03 5.106164496302e-04 0.0 
5.106164496302e-04 8.578886692927e-03 0.0 
0.0 0.0 -1.342877878941e-03 
-1.213674372651e-03 2.426946528992e-04 0.0 
2.426946528992e-04 7.585431715108e-03 0.0 
0.0 0.0 -1.152765850879e-03 
7.551303923517e-04 -3.431961155864e-05 0.0 
-3.431961155864e-05 -8.356761588733e-06 0.0 
0.0 0.0 -1.964897908492e-04 
-5.576622204016e-04 1.038766121166e-03 0.0 
1.038766121166e-03 3.693734829533e-03 0.0 
0.0 0.0 -6.690559060524e-04 
-1.231945608432e-03 6.630499771306e-05 0.0 
6.630499771306e-05 7.672705385687e-03 0.0 
0.0 0.0 -1.146019594970e-03 
-1.341220131281e-03 5.159350734492e-04 0.0 
5.159350734492e-04 8.502743697499e-03 0.0 
0.0 0.0 -1.341220131281e-03 
-1.018091222593e-03 2.268797553762e-04 0.0 
2.268797553762e-04 5.997567393014e-03 0.0 
0.0 0.0 -9.220067723808e-04 
-9.140544266385e-04 6.590381545290e-04 0.0 
6.590381545290e-04 6.350398110146e-03 0.0 
0.0 0.0 -1.049000704964e-03 
1.948485511646e-04 1.206910249746e-03 0.0 
1.206910249746e-03 4.719329916516e-04 0.0 
0.0 0.0 -2.857635183498e-04 
-1.092933677572e-03 -5.430090234952e-06 0.0 
-5.430090234952e-06 7.417148133219e-03 0.0 
0.0 0.0 -1.228682347183e-03 
-2.597655749325e-04 -9.580958323714e-04 0.0 
-9.580958323714e-04 2.468405464320e-03 0.0 
0.0 0.0 -5.184025592846e-04 
-1.467448334793e-04 -1.253609516085e-03 0.0 
-1.253609516085e-03 2.277465230796e-03 0.0 
0.0 0.0 -5.242929400402e-04 
8.350711239016e-05 -5.741871043008e-04 0.0 
-5.741871043008e-04 2.364507936714e-04 0.0 
0.0 0.0 -1.371248168835e-04 
-1.341079611575e-03 4.984530224516e-04 0.0 
4.984530224516e-04 8.418558490732e-03 0.0 
0.0 0.0 -1.341079611575e-03 
3.309852724411e-04 1.022663251937e-03 0.0 
1.022663251937e-03 7.457111261596e-04 0.0 
0.0 0.0 -3.670041082731e-04 
-9.538216450079e-04 -4.415701274725e-04 0.0 
-4.415701274725e-04 6.798030040948e-03 0.0 
0.0 0.0 -1.110501492391e-03 
-9.815143922996e-04 -1.301923920288e-04 0.0 
-1.301923920288e-04 5.716261133104e-03 0.0 
0.0 0.0 -8.555322119248e-04 
-5.211778943541e-04 -1.357561140200e-03 0.0 
-1.357561140200e-03 2.381396269316e-03 0.0 
0.0 0.0 -4.411586999297e-04 
5.027865284571e-06 -1.162974144005e-03 0.0 
-1.162974144005e-03 1.893137919142e-03 0.0 
0.0 0.0 -4.964677435772e-04 
-9.740976170288e-04 2.668400150695e-04 0.0 
2.668400150695e-04 5.727433876448e-03 0.0 
0.0 0.0 -8.867075537039e-04 
-1.342259935407e-03 3.249478019742e-04 0.0 
3.249478019742e-04 8.304746317588e-03 0.0 
0.0 0.0 -1.342259935407e-03 
-8.513383339797e-04 -2.155531084130e-04 0.0 
-2.155531084130e-04 4.042684079104e-03 0.0 
0.0 0.0 -6.378868265889e-04 
-8.326579327741e-04 -6.269168235212e-04 0.0 
-6.269168235212e-04 5.839362625743e-03 0.0 
0.0 0.0 -9.693340058278e-04 
-7.491524898005e-04 8.473182538136e-04 0.0 
8.473182538136e-04 4.765927930056e-03 0.0 
0.0 0.0 -8.030799362305e-04 
-5.836032186753e-04 -5.383312615796e-04 0.0 
-5.383312615796e-04 5.022073810354e-03 0.0 
0.0 0.0 -8.811160271665e-04 
4.293152286993e-05 -8.173969837308e-04 0.0 
-8.173969837308e-04 2.098601697323e-03 0.0 
0.0 0.0 -5.326451291888e-04 
-7.517931783722e-04 -6.967384815080e-04 0.0 
-6.967384815080e-04 5.353981326588e-03 0.0 
0.0 0.0 -9.031726653527e-04 
-7.384492594484e-04 4.981620025079e-04 0.0 
4.981620025079e-04 4.715692557205e-03 0.0 
0.0 0.0 -7.729461360948e-04 
-9.594660891244e-04 3.310922572756e-04 0.0 
3.310922572756e-04 6.288208991268e-03 0.0 
0.0 0.0 -9.982497011217e-04 
-7.260155598219e-04 4.211913378779e-04 0.0 
4.211913378779e-04 5.817009197579e-03 0.0 
0.0 0.0 -1.003134534203e-03 
-6.776109950317e-04 9.016603010913e-04 0.0 
9.016603010913e-04 4.450317334473e-03 0.0 
0.0 0.0 -7.676694601592e-04 
-7.429113511032e-04 -5.174574473206e-04 0.0 
-5.174574473206e-04 3.948133648233e-03 0.0 
0.0 0.0 -6.551190094499e-04 
-2.218900255169e-04 1.098460281572e-03 0.0 
1.098460281572e-03 2.169381084645e-03 0.0 
0.0 0.0 -4.640097282922e-04 
-8.062369115313e-04 -2.975304159245e-04 0.0 
-2.975304159245e-04 3.811084005570e-03 0.0 
0.0 0.0 -6.091269606258e-04 
-8.824461864644e-04 3.062506020875e-04 0.0 
3.062506020875e-04 6.271794679198e-03 0.0 
0.0 0.0 -1.018204129641e-03 
-4.460788929649e-04 4.040748578588e-04 0.0 
4.040748578588e-04 4.503525698480e-03 0.0 
0.0 0.0 -8.365169925761e-04 
-1.261002707828e-03 -7.504870971913e-05 0.0 
-7.504870971913e-05 8.505176480558e-03 0.0 
0.0 0.0 -1.321929620191e-03 
-1.247677519614e-03 1.094732648068e-04 0.0 
1.094732648068e-04 7.850453942976e-03 0.0 
0.0 0.0 -1.174325249119e-03 
-5.404813862772e-04 -9.466285983316e-04 0.0 
-9.466285983316e-04 2.223885193950e-03 0.0 
0.0 0.0 -4.069995479128e-04 
-1.341047338368e-03 7.540167646977e-05 0.0 
7.540167646977e-05 8.197352777791e-03 0.0 
0.0 0.0 -1.341047338368e-03 
-1.130691151971e-03 -1.784363264906e-05 0.0 
-1.784363264906e-05 8.053842301100e-03 0.0 
0.0 0.0 -1.266414110344e-03 
-4.715184922734e-04 9.294387903624e-04 0.0 
9.294387903624e-04 3.876101003561e-03 0.0 
0.0 0.0 -7.237787631415e-04 
3.035840363914e-05 -4.057342954642e-04 0.0 
-4.057342954642e-04 2.137280708151e-04 0.0 
0.0 0.0 -1.046084890518e-04 
-1.265736625837e-03 -2.342234423567e-04 0.0 
-2.342234423567e-04 8.560274388960e-03 0.0 
0.0 0.0 -1.323469717371e-03 
-1.248103745975e-03 1.754263225543e-04 0.0 
1.754263225543e-04 7.767855351365e-03 0.0 
0.0 0.0 -1.167157861819e-03 
-2.143426304924e-04 -1.125447243117e-03 0.0 
-1.125447243117e-03 2.012406359622e-03 0.0 
0.0 0.0 -4.535238702637e-04 
-1.341709311524e-03 -1.537021795728e-04 0.0 
-1.537021795728e-04 8.247140811223e-03 0.0 
0.0 0.0 -1.341709311524e-03 
-8.340634901946e-04 -6.821178693031e-04 0.0 
-6.821178693031e-04 5.639816405277e-03 0.0 
0.0 0.0 -9.325599965574e-04 
-7.159156796781e-04 8.199594821406e-04 0.0 
8.199594821406e-04 3.747642167749e-03 0.0 
0.0 0.0 -6.229492605273e-04 
-9.690599654105e-04 4.302709909689e-04 0.0 
4.302709909689e-04 5.467189617691e-03 0.0 
0.0 0.0 -8.408860858065e-04 
-3.919357097026e-04 6.068237325883e-05 0.0 
6.068237325883e-05 4.381455962217e-03 0.0 
0.0 0.0 -8.054665293395e-04 
-6.923438558252e-04 -8.520265330426e-04 0.0 
-8.520265330426e-04 4.695093275442e-03 0.0 
0.0 0.0 -8.008683130455e-04 
-6.056515233478e-04 -4.164522829612e-04 0.0 
-4.164522829612e-04 5.267235237804e-03 0.0 
0.0 0.0 -9.181754741429e-04 
-1.093523269899e-03 7.798311719689e-05 0.0 
7.798311719689e-05 6.464920900132e-03 0.0 
0.0 0.0 -9.721028620036e-04 
-8.031200443167e-04 6.781379836070e-04 0.0 
6.781379836070e-04 4.309322447368e-03 0.0 
0.0 0.0 -6.945885048819e-04 
-7.991042375162e-04 4.855628797920e-04 0.0 
4.855628797920e-04 6.126908297853e-03 0.0 
0.0 0.0 -1.039409037654e-03 
-9.955657075652e-04 -4.803366383392e-06 0.0 
-4.803366383392e-06 6.069270927012e-03 0.0 
0.0 0.0 -8.839498032872e-04 
-7.742968154824e-04 -8.517460638285e-04 0.0 
-8.517460638285e-04 4.014337168077e-03 0.0 
0.0 0.0 -6.521967345917e-04 
-6.549358325978e-04 3.442178195061e-04 0.0 
3.442178195061e-04 5.516212137862e-03 0.0 
0.0 0.0 -9.664699797409e-04 
-3.659361313913e-04 -1.389777863593e-03 0.0 
-1.389777863593e-03 2.536314572587e-03 0.0 
0.0 0.0 -5.155438399970e-04 
-1.017459211522e-03 -2.035278755390e-04 0.0 
-2.035278755390e-04 5.749338419273e-03 0.0 
0.0 0.0 -9.093720595694e-04 
2.256137386907e-04 -1.163159502201e-04 0.0 
-1.163159502201e-04 1.137935582799e-04 0.0 
0.0 0.0 -4.585464485956e-05 
-3.462420398140e-04 1.018466210769e-03 0.0 
1.018466210769e-03 2.570297332312e-03 0.0 
0.0 0.0 -4.997308803768e-04 
-2.322903734365e-04 -1.457188189013e-03 0.0 
-1.457188189013e-03 2.158535862862e-03 0.0 
0.0 0.0 -4.875765080988e-04 
-8.614851687078e-04 -3.337722832802e-04 0.0 
-3.337722832802e-04 4.446512628758e-03 0.0 
0.0 0.0 -7.126562430121e-04 
-5.635163873739e-04 9.119017880977e-04 0.0 
9.119017880977e-04 4.220442908307e-03 0.0 
0.0 0.0 -7.595228636782e-04 
-7.920931595490e-04 -2.649669687123e-04 0.0 
-2.649669687123e-04 5.573841345894e-03 0.0 
0.0 0.0 -9.350600278798e-04 
-1.013052504013e-03 -8.823570252137e-05 0.0 
-8.823570252137e-05 6.008966805305e-03 0.0 
0.0 0.0 -8.962969588583e-04 
-3.359179918489e-04 -1.568493616469e-03 0.0 
-1.568493616469e-03 2.089144442065e-03 0.0 
0.0 0.0 -4.505554202764e-04 
-1.341827844788e-03 -1.871667057256e-04 0.0 
-1.871667057256e-04 8.296019085882e-03 0.0 
0.0 0.0 -1.341827844788e-03 
-9.219930325587e-04 3.393896039245e-04 0.0 
3.393896039245e-04 5.591653643792e-03 0.0 
0.0 0.0 -8.789935771182e-04 
-9.115582794458e-04 -2.493035172872e-04 0.0 
-2.493035172872e-04 4.677595953812e-03 0.0 
0.0 0.0 -7.413896480605e-04 
-8.652400327000e-04 3.890590998056e-04 0.0 
3.890590998056e-04 5.305115327796e-03 0.0 
0.0 0.0 -8.436662038215e-04 
-8.817818309206e-04 -6.648690080579e-04 0.0 
-6.648690080579e-04 4.510392914982e-03 0.0 
0.0 0.0 -7.098625721847e-04 
0.0 0.0 0.0 
0.0 0.0 0.0 
0.0 0.0 0.0 
-1.015724792628e-03 8.235652516452e-05 0.0 
8.235652516452e-05 5.775865579893e-03 0.0 
0.0 0.0 -8.733545218784e-04 
-8.401387806922e-04 6.123016035239e-05 0.0 
6.123016035239e-05 3.850164849745e-03 0.0 
0.0 0.0 -5.956302995864e-04 
2.119608216236e-04 1.827144702945e-05 0.0 
1.827144702945e-05 -6.337242555222e-05 0.0 
0.0 0.0 -6.368074117344e-05 
-9.031369501237e-04 -1.865236162329e-04 0.0 
-1.865236162329e-04 4.464828183770e-03 0.0 
0.0 0.0 -7.041275119738e-04 
-8.760607814048e-04 -2.015865901798e-04 0.0 
-2.015865901798e-04 6.047567037496e-03 0.0 
0.0 0.0 -1.001254648526e-03 
-1.205696135514e-03 2.785240829935e-04 0.0 
2.785240829935e-04 7.656838420364e-03 0.0 
0.0 0.0 -1.146946825052e-03 
-5.022948978825e-04 -4.626796724593e-04 0.0 
-4.626796724593e-04 4.761985454285e-03 0.0 
0.0 0.0 -8.532270185794e-04 
-5.545620008577e-04 -7.574531854601e-05 0.0 
-7.574531854601e-05 4.939516714005e-03 0.0 
0.0 0.0 -8.841559964380e-04 
-9.029537400273e-04 7.141549008008e-05 0.0 
7.141549008008e-05 4.945239925053e-03 0.0 
0.0 0.0 -7.495231765994e-04 
-8.844827213453e-04 6.847338950965e-05 0.0 
6.847338950965e-05 4.625730514937e-03 0.0 
0.0 0.0 -7.312625299844e-04 
-1.286320179804e-03 2.788583147739e-04 0.0 
2.788583147739e-04 8.406193484283e-03 0.0 
0.0 0.0 -1.286111585339e-03 
-8.045597696771e-04 4.385655444654e-04 0.0 
4.385655444654e-04 5.012857215938e-03 0.0 
0.0 0.0 -8.082854548548e-04 
6.621891051064e-04 -1.711434374491e-05 0.0 
-1.711434374491e-05 -4.360569155907e-05 0.0 
0.0 0.0 -9.362473743294e-05 
-4.298982998579e-04 -6.269550114416e-04 0.0 
-6.269550114416e-04 1.549337747066e-03 0.0 
0.0 0.0 -2.569639750501e-04 
-5.557804512661e-05 -2.649152406900e-04 0.0 
-2.649152406900e-04 2.900758507811e-04 0.0 
0.0 0.0 -1.004990595662e-04 
-6.031978273067e-04 -1.007320967644e-03 0.0 
-1.007320967644e-03 2.552633295107e-03 0.0 
0.0 0.0 -4.284133232656e-04 
-1.143923933864e-03 2.767605230601e-04 0.0 
2.767605230601e-04 7.311015416728e-03 0.0 
0.0 0.0 -1.134523071099e-03 
-1.214790267536e-03 -1.094816465951e-04 0.0 
-1.094816465951e-04 7.712260942966e-03 0.0 
0.0 0.0 -1.144649651339e-03 
-1.087508141976e-03 -1.587001134092e-04 0.0 
-1.587001134092e-04 6.822768700719e-03 0.0 
0.0 0.0 -1.087427768671e-03 
-6.685965332887e-04 -7.845956287838e-04 0.0 
-7.845956287838e-04 2.990542570396e-03 0.0 
0.0 0.0 -4.827803379924e-04 
-1.041668217069e-03 -5.600095855462e-04 0.0 
-5.600095855462e-04 5.820984951314e-03 0.0 
0.0 0.0 -9.063168105749e-04 
-1.002226704218e-03 -4.489969858519e-05 0.0 
-4.489969858519e-05 6.971386371707e-03 0.0 
0.0 0.0 -1.142106164842e-03 
5.911862038656e-04 5.961670165533e-05 0.0 
5.961670165533e-05 -1.764561884350e-04 0.0 
0.0 0.0 -1.777414351845e-04 
-8.306874199400e-04 -2.997045909462e-04 0.0 
-2.997045909462e-04 3.873272421704e-03 0.0 
0.0 0.0 -5.942115541274e-04 
-6.956533125248e-04 1.124846661467e-04 0.0 
1.124846661467e-04 3.135833764917e-03 0.0 
0.0 0.0 -4.980019828625e-04 
-1.307918774452e-03 -2.672149718263e-04 0.0 
-2.672149718263e-04 8.583156667318e-03 0.0 
0.0 0.0 -1.322396863610e-03 
-1.341641872583e-03 -2.574400453278e-04 0.0 
-2.574400453278e-04 8.313092341430e-03 0.0 
0.0 0.0 -1.341641872583e-03 
-9.100844780323e-04 -2.535656636935e-04 0.0 
-2.535656636935e-04 4.283598396940e-03 0.0 
0.0 0.0 -6.580288049735e-04 
-9.226849417219e-04 -5.822088138657e-04 0.0 
-5.822088138657e-04 4.742725005737e-03 0.0 
0.0 0.0 -7.385580096348e-04 
-7.259593438489e-04 -4.081287369355e-04 0.0 
-4.081287369355e-04 4.909588067259e-03 0.0 
0.0 0.0 -8.323457052078e-04 
-1.025384663725e-03 -1.558037465638e-06 0.0 
-1.558037465638e-06 7.232536331843e-03 0.0 
0.0 0.0 -1.177278300149e-03 
-5.185769804223e-04 -3.082242823645e-04 0.0 
-3.082242823645e-04 1.649765607481e-03 0.0 
0.0 0.0 -2.880367495917e-04 
-9.770068768367e-04 -9.822974250100e-05 0.0 
-9.822974250100e-05 6.742502940673e-03 0.0 
0.0 0.0 -1.104707344597e-03 
-8.864038043829e-05 -1.638440655004e-05 0.0 
-1.638440655004e-05 9.863844244366e-04 0.0 
0.0 0.0 -1.612556504808e-04 
-8.754272683905e-04 -6.018300858025e-04 0.0 
-6.018300858025e-04 4.312432546832e-03 0.0 
0.0 0.0 -6.724657308136e-04 
-8.826884309659e-04 -7.176448192389e-04 0.0 
-7.176448192389e-04 4.701849927849e-03 0.0 
0.0 0.0 -7.470513223636e-04 
-3.546308527174e-05 5.679765794383e-06 0.0 
5.679765794383e-06 2.993710717870e-04 0.0 
0.0 0.0 -1.131034227923e-04 
-8.541374211011e-04 1.051307269510e-04 0.0 
1.051307269510e-04 4.063038016891e-03 0.0 
0.0 0.0 -6.267591816330e-04 
-1.242827358992e-03 4.579768759709e-04 0.0 
4.579768759709e-04 7.784562517271e-03 0.0 
0.0 0.0 -1.176862138969e-03 
5.856171802454e-04 8.673890813667e-06 0.0 
8.673890813667e-06 6.976119991761e-06 0.0 
0.0 0.0 -9.786084279852e-05 
-8.702582028195e-04 1.105447853201e-04 0.0 
1.105447853201e-04 4.607072405037e-03 0.0 
0.0 0.0 -7.322753781719e-04 
-8.459002629386e-04 1.198690024363e-04 0.0 
1.198690024363e-04 4.870014320209e-03 0.0 
0.0 0.0 -7.130472889423e-04 
-6.411087712709e-04 -3.059567672410e-04 0.0 
-3.059567672410e-04 5.528224217795e-03 0.0 
0.0 0.0 -9.552000144736e-04 
-6.940260095912e-04 -2.019223501579e-04 0.0 
-2.019223501579e-04 3.181147651246e-03 0.0 
0.0 0.0 -4.943513106837e-04 
-3.551699552598e-04 -1.046898701828e-03 0.0 
-1.046898701828e-03 2.386678131376e-03 0.0 
0.0 0.0 -4.817493388239e-04 
-2.903941216122e-04 1.483074513055e-03 0.0 
1.483074513055e-03 1.457235103792e-03 0.0 
0.0 0.0 -3.398054741319e-04 
-1.199955943827e-03 -1.286515075727e-04 0.0 
-1.286515075727e-04 7.503949585872e-03 0.0 
0.0 0.0 -1.180895453064e-03 
-1.276254635442e-03 4.715115445783e-04 0.0 
4.715115445783e-04 8.059382999082e-03 0.0 
0.0 0.0 -1.286194385238e-03 
-1.186217889961e-03 -6.749121568718e-05 0.0 
-6.749121568718e-05 7.409362913807e-03 0.0 
0.0 0.0 -1.101088927253e-03 
-5.347000365982e-04 9.291634402025e-04 0.0 
9.291634402025e-04 2.503086312716e-03 0.0 
0.0 0.0 -4.457015571677e-04 
-3.190037393042e-04 -1.683187168607e-04 0.0 
-1.683187168607e-04 9.740026393817e-04 0.0 
0.0 0.0 -2.223875638571e-04 
-8.385442436261e-04 2.562372654306e-04 0.0 
2.562372654306e-04 4.497930936177e-03 0.0 
0.0 0.0 -6.999131133628e-04 
-8.425527780140e-04 3.452494000883e-05 0.0 
3.452494000883e-05 4.643700331840e-03 0.0 
0.0 0.0 -7.345111139194e-04 
-8.389403033821e-04 -1.305466340479e-06 0.0 
-1.305466340479e-06 4.908724598573e-03 0.0 
0.0 0.0 -7.144802219087e-04 
2.118993314013e-04 1.507058348733e-05 0.0 
1.507058348733e-05 -6.339593750257e-05 0.0 
0.0 0.0 -6.364431167088e-05 
-5.587289192583e-05 -6.452329894431e-06 0.0 
-6.452329894431e-06 2.977317204857e-04 0.0 
0.0 0.0 -1.036537836685e-04 
-1.659582098733e-04 -6.983629749951e-05 0.0 
-6.983629749951e-05 7.156238265913e-04 0.0 
0.0 0.0 -1.795416262981e-04 
-6.042827533109e-04 -3.178261870528e-04 0.0 
-3.178261870528e-04 2.298196668838e-03 0.0 
0.0 0.0 -3.820941496288e-04 
1.745656339544e-04 -6.881620967810e-06 0.0 
-6.881620967810e-06 5.205015129475e-04 0.0 
0.0 0.0 -1.430998070712e-04 
-9.621077650285e-04 9.743124488288e-05 0.0 
9.743124488288e-05 4.540703172736e-03 0.0 
0.0 0.0 -6.918148876825e-04 
0.0 0.0 0.0 
0.0 0.0 0.0 
0.0 0.0 0.0 
-6.636885702572e-04 -3.632840591834e-04 0.0 
-3.632840591834e-04 2.727769964994e-03 0.0 
0.0 0.0 -4.482372226011e-04 
-1.037073112810e-03 8.416167581821e-05 0.0 
8.416167581821e-05 6.231636848545e-03 0.0 
0.0 0.0 -9.582560723523e-04 
-8.428951159850e-04 8.320649882269e-05 0.0 
8.320649882269e-05 4.895786071823e-03 0.0 
0.0 0.0 -7.120344407548e-04 
-1.176195464104e-03 2.727173431630e-04 0.0 
2.727173431630e-04 7.571205441829e-03 0.0 
0.0 0.0 -1.169483110168e-03 
-8.724458015180e-04 -2.535481835564e-04 0.0 
-2.535481835564e-04 5.840199633402e-03 0.0 
0.0 0.0 -9.641449249716e-04 
-9.956049472303e-04 9.460602026458e-05 0.0 
9.460602026458e-05 5.823804297189e-03 0.0 
0.0 0.0 -8.988447104697e-04 
-7.453270263773e-04 1.666868432523e-04 0.0 
1.666868432523e-04 3.393805001824e-03 0.0 
0.0 0.0 -5.269378630653e-04 
-6.611997545445e-05 -3.806127284770e-05 0.0 
-3.806127284770e-05 9.766559638682e-04 0.0 
0.0 0.0 -1.602995255322e-04 
-1.340974968048e-03 1.475163558745e-04 0.0 
1.475163558745e-04 8.789407210591e-03 0.0 
0.0 0.0 -1.340974968048e-03 
-1.353375445294e-03 1.861681106883e-04 0.0 
1.861681106883e-04 9.067632799309e-03 0.0 
0.0 0.0 -1.320295381545e-03 
-9.653313430370e-04 3.172946590342e-04 0.0 
3.172946590342e-04 5.653212768820e-03 0.0 
0.0 0.0 -8.588387843224e-04 
-8.723549553050e-04 3.791940437681e-05 0.0 
3.791940437681e-05 4.638744233564e-03 0.0 
0.0 0.0 -7.326073368542e-04 
-7.433675000171e-04 -1.881116571238e-04 0.0 
-1.881116571238e-04 3.464526545461e-03 0.0 
0.0 0.0 -5.314511797787e-04 
-1.343039576571e-03 1.116238935560e-04 0.0 
1.116238935560e-04 9.058435864628e-03 0.0 
0.0 0.0 -1.322576402756e-03 
-6.088517818817e-04 -7.427980185432e-04 0.0 
-7.427980185432e-04 2.573085079122e-03 0.0 
0.0 0.0 -4.166600706249e-04 
-8.421343191380e-04 8.947296271354e-05 0.0 
8.947296271354e-05 4.867861189812e-03 0.0 
0.0 0.0 -7.125614225629e-04 
-8.442475580862e-04 6.688277321944e-05 0.0 
6.688277321944e-05 4.629764896323e-03 0.0 
0.0 0.0 -7.312775522649e-04 
-8.183075665077e-04 4.944600713478e-04 0.0 
4.944600713478e-04 4.297011605974e-03 0.0 
0.0 0.0 -6.755779900756e-04 
-1.341823989366e-03 3.176700121755e-04 0.0 
3.176700121755e-04 8.755155514573e-03 0.0 
0.0 0.0 -1.341823989366e-03 
-1.316183787817e-03 1.764356624828e-04 0.0 
1.764356624828e-04 9.061441417317e-03 0.0 
0.0 0.0 -1.322582685247e-03 
1.706419388007e-04 -6.581066488368e-06 0.0 
-6.581066488368e-06 5.083643028934e-04 0.0 
0.0 0.0 -1.414504174366e-04 
2.407344509661e-04 1.323517305793e-05 0.0 
1.323517305793e-05 -7.208659109850e-05 0.0 
0.0 0.0 -7.227765422896e-05 
-4.260081866660e-04 -1.856958100474e-04 0.0 
-1.856958100474e-04 1.223914747001e-03 0.0 
0.0 0.0 -2.229509930541e-04 
-8.539532720431e-04 -3.709598021116e-04 0.0 
-3.709598021116e-04 4.637819177533e-03 0.0 
0.0 0.0 -7.497705102653e-04 
-1.319228459702e-03 1.823496012509e-04 0.0 
1.823496012509e-04 8.037185883931e-03 0.0 
0.0 0.0 -1.224669017856e-03 
0.0 0.0 0.0 
0.0 0.0 0.0 
0.0 0.0 0.0 
-1.164534197096e-03 -1.984727069524e-04 0.0 
-1.984727069524e-04 7.327097077271e-03 0.0 
0.0 0.0 -1.092518628634e-03 
0.0 0.0 0.0 
0.0 0.0 0.0 
0.0 0.0 0.0 
-6.586480689669e-04 -2.893406478862e-05 0.0 
-2.893406478862e-05 5.445033550024e-03 0.0 
0.0 0.0 -9.493083249531e-04 
6.413544779552e-05 -3.379620450346e-04 0.0 
-3.379620450346e-04 1.394736970074e-04 0.0 
0.0 0.0 -8.691392457031e-05 
1.450430834232e-05 -8.616792963926e-05 0.0 
-8.616792963926e-05 3.294529381564e-05 0.0 
0.0 0.0 -2.033554378198e-05 
-6.338862404721e-04 -1.383285000905e-04 0.0 
-1.383285000905e-04 5.212576859225e-03 0.0 
0.0 0.0 -9.122568895951e-04 
-1.285900318348e-03 2.146352195215e-05 0.0 
2.146352195215e-05 7.759528202279e-03 0.0 
0.0 0.0 -1.192963836147e-03 
-1.029044917040e-03 -7.279636213487e-05 0.0 
-7.279636213487e-05 6.446740060124e-03 0.0 
0.0 0.0 -9.361271490834e-04 
-8.407421483093e-04 3.218859450769e-04 0.0 
3.218859450769e-04 4.639661762171e-03 0.0 
0.0 0.0 -7.268406435589e-04 
-3.072399208747e-05 -1.897210475410e-05 0.0 
-1.897210475410e-05 2.991997316549e-04 0.0 
0.0 0.0 -1.150610312432e-04 
-1.088521664505e-03 -4.986556758640e-04 0.0 
-4.986556758640e-04 6.052818965112e-03 0.0 
0.0 0.0 -9.349022313484e-04 
-1.337797817327e-03 2.888082420915e-05 0.0 
2.888082420915e-05 8.797778454419e-03 0.0 
0.0 0.0 -1.337797817327e-03 
-1.344206616167e-03 -8.091836582187e-05 0.0 
-8.091836582187e-05 9.064612422815e-03 0.0 
0.0 0.0 -1.322354755130e-03 
-8.386635614455e-04 6.856267782852e-05 0.0 
6.856267782852e-05 4.896920748213e-03 0.0 
0.0 0.0 -7.125764448434e-04 
-6.958258556128e-04 6.990936182405e-05 0.0 
6.990936182405e-05 5.692375670829e-03 0.0 
0.0 0.0 -9.863757069361e-04 
-1.341607717199e-03 1.551401879936e-04 0.0 
1.551401879936e-04 8.810609962061e-03 0.0 
0.0 0.0 -1.341607717199e-03 
-8.875903164710e-04 2.432432692731e-04 0.0 
2.432432692731e-04 6.412529175352e-03 0.0 
0.0 0.0 -1.046710270629e-03 
-7.224987108801e-05 2.416900893393e-05 0.0 
2.416900893393e-05 9.236508622773e-04 0.0 
0.0 0.0 -1.589907658001e-04 
1.844060408699e-04 -1.026478452949e-05 0.0 
-1.026478452949e-05 5.130263938471e-04 0.0 
0.0 0.0 -1.435574244405e-04 
-2.891409061342e-05 -3.272758998480e-05 0.0 
-3.272758998480e-05 3.203427987140e-04 0.0 
0.0 0.0 -1.200048127433e-04 
-8.246082063499e-04 1.600403801409e-04 0.0 
1.600403801409e-04 3.844559296729e-03 0.0 
0.0 0.0 -5.933358154923e-04 
-1.368440753648e-03 -2.847926622310e-04 0.0 
-2.847926622310e-04 8.814363085181e-03 0.0 
0.0 0.0 -1.322828574513e-03 
-1.280689091558e-03 -2.286632291646e-04 0.0 
-2.286632291646e-04 8.487923234130e-03 0.0 
0.0 0.0 -1.258329778789e-03 
2.520020944074e-04 -9.417495015486e-06 0.0 
-9.417495015486e-06 -7.547411903337e-05 0.0 
0.0 0.0 -7.565484658888e-05 
-9.449458894061e-04 -2.123271304103e-04 0.0 
-2.123271304103e-04 4.512069341782e-03 0.0 
0.0 0.0 -6.938761155152e-04 
-1.344798314369e-03 -1.247366253674e-04 0.0 
-1.247366253674e-04 8.595631148609e-03 0.0 
0.0 0.0 -1.344798314369e-03 
-1.373531731671e-03 -1.707869213026e-04 0.0 
-1.707869213026e-04 8.832402882049e-03 0.0 
0.0 0.0 -1.318785251170e-03 
-1.282177360506e-03 -3.124369979244e-04 0.0 
-3.124369979244e-04 8.610103347005e-03 0.0 
0.0 0.0 -1.321151187552e-03 
-1.113562773683e-03 2.219946434219e-04 0.0 
2.219946434219e-04 6.878878469590e-03 0.0 
0.0 0.0 -1.027148381742e-03 
-1.180769122149e-03 -2.135481498419e-04 0.0 
-2.135481498419e-04 7.573759840694e-03 0.0 
0.0 0.0 -1.125709525796e-03 
-1.338030260144e-03 -1.771563366243e-04 0.0 
-1.771563366243e-04 8.542675147626e-03 0.0 
0.0 0.0 -1.338030260144e-03 
-1.340754991027e-03 -2.390663127656e-04 0.0 
-2.390663127656e-04 8.545998822267e-03 0.0 
0.0 0.0 -1.340754991027e-03 
-1.152960594027e-03 1.859255734492e-04 0.0 
1.859255734492e-04 7.333872638941e-03 0.0 
0.0 0.0 -1.092518628634e-03 
6.040404689232e-04 9.568591753019e-05 0.0 
9.568591753019e-05 -6.408932826674e-05 0.0 
0.0 0.0 -9.235885521468e-05 
-8.216739313019e-04 1.642653897250e-05 0.0 
1.642653897250e-05 4.866544847831e-03 0.0 
0.0 0.0 -7.139539158865e-04 
-8.429301589013e-04 7.371775731573e-05 0.0 
7.371775731573e-05 4.924292125164e-03 0.0 
0.0 0.0 -7.133642253441e-04 
2.432336519054e-04 6.949879094711e-06 0.0 
6.949879094711e-06 -7.294262653964e-05 0.0 
0.0 0.0 -7.298186801390e-05 
-1.342313591240e-03 -2.893823135638e-04 0.0 
-2.893823135638e-04 8.501007321383e-03 0.0 
0.0 0.0 -1.342313591240e-03 
-1.327713446301e-03 -3.071447071229e-04 0.0 
-3.071447071229e-04 8.654446540322e-03 0.0 
0.0 0.0 -1.318355947622e-03 
-1.337959751097e-03 -3.069413126871e-04 0.0 
-3.069413126871e-04 8.377273660842e-03 0.0 
0.0 0.0 -1.337959751097e-03 
5.382873424725e-04 1.051034098534e-05 0.0 
1.051034098534e-05 3.447207322761e-05 0.0 
0.0 0.0 -9.875111991497e-05 
5.465365996427e-04 1.921140548757e-05 0.0 
1.921140548757e-05 3.586604406774e-05 0.0 
0.0 0.0 -1.001629653630e-04 
-1.340754991027e-03 -2.745211848364e-04 0.0 
-2.745211848364e-04 8.326750669152e-03 0.0 
0.0 0.0 -1.340754991027e-03 
-1.340396196526e-03 -3.177254258607e-04 0.0 
-3.177254258607e-04 8.348861196928e-03 0.0 
0.0 0.0 -1.340396196526e-03 
-1.100408733265e-03 -2.290747800904e-04 0.0 
-2.290747800904e-04 6.654648242085e-03 0.0 
0.0 0.0 -9.936726122374e-04 
-8.156679351147e-04 3.791493186346e-05 0.0 
3.791493186346e-05 4.866771241895e-03 0.0 
0.0 0.0 -7.124851972278e-04 
-1.126282978383e-03 -2.242329370711e-04 0.0 
-2.242329370711e-04 7.103431173965e-03 0.0 
0.0 0.0 -1.060142436171e-03 
-9.808195587630e-04 -2.230997408213e-04 0.0 
-2.230997408213e-04 5.708119715060e-03 0.0 
0.0 0.0 -8.626607521899e-04 
-7.941305620824e-04 1.551089981454e-05 0.0 
1.551089981454e-05 4.869359917574e-03 0.0 
0.0 0.0 -7.121912678902e-04 
7.040827403612e-04 7.380490456996e-06 0.0 
7.380490456996e-06 -3.505683220774e-05 0.0 
0.0 0.0 -9.491348420367e-05 
6.357527662839e-04 -8.824699617213e-05 0.0 
-8.824699617213e-05 3.733323429846e-05 0.0 
0.0 0.0 -1.068803031330e-04 
5.856552846093e-04 -8.204592747125e-05 0.0 
-8.204592747125e-05 2.270090481132e-05 0.0 
0.0 0.0 -9.934895370439e-05 
6.682124726064e-04 -5.433044528850e-05 0.0 
-5.433044528850e-05 2.762423436657e-05 0.0 
0.0 0.0 -1.574260069802e-04 
-9.875526380001e-04 1.999683647263e-04 0.0 
1.999683647263e-04 4.756922496595e-03 0.0 
0.0 0.0 -7.271325101417e-04 
-9.022422993743e-04 1.689219604000e-04 0.0 
1.689219604000e-04 4.293373185727e-03 0.0 
0.0 0.0 -6.600769387058e-04 
0.0 0.0 0.0 
0.0 0.0 0.0 
0.0 0.0 0.0 
-1.139432736752e-03 1.969596473993e-04 0.0 
1.969596473993e-04 6.092355855196e-03 0.0 
0.0 0.0 -9.221709323543e-04 
0.0 0.0 0.0 
0.0 0.0 0.0 
0.0 0.0 0.0 
-1.341471640605e-03 2.821656468085e-04 0.0 
2.821656468085e-04 8.748357117342e-03 0.0 
0.0 0.0 -1.341471640605e-03 
-1.340968685557e-03 1.312437350478e-04 0.0 
1.312437350478e-04 8.782913575074e-03 0.0 
0.0 0.0 -1.340968685557e-03 
-1.339320413496e-03 1.880713074898e-04 0.0 
1.880713074898e-04 8.789181418084e-03 0.0 
0.0 0.0 -1.339320413496e-03 
-2.891904725790e-04 2.036868385329e-04 0.0 
2.036868385329e-04 1.487086439737e-03 0.0 
0.0 0.0 -2.599136149544e-04 
-6.430141663801e-04 1.708121578067e-04 0.0 
1.708121578067e-04 2.925097320677e-03 0.0 
0.0 0.0 -4.607467809507e-04 
-1.337132911908e-03 8.989218137943e-05 0.0 
8.989218137943e-05 8.798780956337e-03 0.0 
0.0 0.0 -1.337132911908e-03 
-1.268709771428e-03 1.750290220288e-04 0.0 
1.750290220288e-04 7.410750387042e-03 0.0 
0.0 0.0 -1.124956933753e-03 
-1.344556937803e-03 5.420067643192e-05 0.0 
5.420067643192e-05 8.841140369170e-03 0.0 
0.0 0.0 -1.344556937803e-03 
-1.309963082983e-03 1.898374887779e-04 0.0 
1.898374887779e-04 7.848623061347e-03 0.0 
0.0 0.0 -1.192538251246e-03 
-1.338506523092e-03 2.196897297750e-04 0.0 
2.196897297750e-04 8.286254789378e-03 0.0 
0.0 0.0 -1.259905836238e-03 
-8.634449756302e-04 -2.267992264203e-04 0.0 
-2.267992264203e-04 4.063283112415e-03 0.0 
0.0 0.0 -6.267460875326e-04 
-1.354536289335e-03 7.630110527830e-05 0.0 
7.630110527830e-05 9.083283423121e-03 0.0 
0.0 0.0 -1.318101597465e-03 
-1.353127036110e-03 2.052350059942e-04 0.0 
2.052350059942e-04 9.070380165704e-03 0.0 
0.0 0.0 -1.321689849711e-03 
-1.286890123680e-03 -2.394731622084e-04 0.0 
-2.394731622084e-04 7.571755325092e-03 0.0 
0.0 0.0 -1.157495185000e-03 
-1.323365826624e-03 -2.403819852103e-04 0.0 
-2.403819852103e-04 8.033634754339e-03 0.0 
0.0 0.0 -1.225777420818e-03 
-1.161453211646e-03 -3.736884005785e-04 0.0 
-3.736884005785e-04 6.493225178424e-03 0.0 
0.0 0.0 -9.925156490314e-04 
0.0 0.0 0.0 
0.0 0.0 0.0 
0.0 0.0 0.0 
-8.671818712195e-04 -5.363828857818e-04 0.0 
-5.363828857818e-04 4.105500038503e-03 0.0 
0.0 0.0 -6.350241097613e-04 
1.538446466672e-04 -5.196602102228e-05 0.0 
-5.196602102228e-05 5.032465276658e-04 0.0 
0.0 0.0 -1.372732375194e-04 
-1.212742551210e-03 -4.759587518373e-04 0.0 
-4.759587518373e-04 7.564630454968e-03 0.0 
0.0 0.0 -1.177819030284e-03 
-8.605651419967e-04 -2.779235020759e-04 0.0 
-2.779235020759e-04 4.247159815615e-03 0.0 
0.0 0.0 -6.753691525988e-04 
-1.209845026625e-03 -3.828065324347e-05 0.0 
-3.828065324347e-05 7.089490121300e-03 0.0 
0.0 0.0 -1.099016898379e-03 
-5.359685570494e-04 -6.677092728244e-04 0.0 
-6.677092728244e-04 2.153205781578e-03 0.0 
0.0 0.0 -3.504775146279e-04 
-1.805242587165e-04 1.222080852242e-05 0.0 
1.222080852242e-05 7.550645308543e-04 0.0 
0.0 0.0 -1.735952156319e-04 
-1.264456075116e-03 -3.850163355986e-04 0.0 
-3.850163355986e-04 7.592925326403e-03 0.0 
0.0 0.0 -1.161668299909e-03 
-9.012428398998e-04 -5.241478665253e-04 0.0 
-5.241478665253e-04 4.532812848754e-03 0.0 
0.0 0.0 -7.012080445024e-04 
-8.068122859681e-04 1.121430841948e-04 0.0 
1.121430841948e-04 3.618999234990e-03 0.0 
0.0 0.0 -5.611363230934e-04 
-1.221373729773e-03 -3.971185644326e-04 0.0 
-3.971185644326e-04 7.158861497178e-03 0.0 
0.0 0.0 -1.096102707776e-03 
-1.225888037185e-03 2.356398892211e-04 0.0 
2.356398892211e-04 7.926332987898e-03 0.0 
0.0 0.0 -1.188907866872e-03 
-7.850590963076e-04 -2.211249008548e-04 0.0 
-2.211249008548e-04 3.627921543623e-03 0.0 
0.0 0.0 -5.602736785587e-04 
-9.153466014746e-04 -5.672710459790e-04 0.0 
-5.672710459790e-04 6.328544019957e-03 0.0 
0.0 0.0 -1.035646790376e-03 
-9.544485914901e-04 -2.692006228927e-04 0.0 
-2.692006228927e-04 5.706833288183e-03 0.0 
0.0 0.0 -9.181742748318e-04 
-1.151482432891e-03 -1.721733511891e-05 0.0 
-1.721733511891e-05 6.426989542900e-03 0.0 
0.0 0.0 -9.952786863929e-04 
-1.189685403522e-03 2.186394532171e-05 0.0 
2.186394532171e-05 6.656907816596e-03 0.0 
0.0 0.0 -1.024224580100e-03 
-2.906015399769e-05 6.908185225539e-04 0.0 
6.908185225539e-04 2.388123543614e-03 0.0 
0.0 0.0 -5.788817793163e-04 
-8.005376655691e-04 3.171132398136e-04 0.0 
3.171132398136e-04 4.241491794382e-03 0.0 
0.0 0.0 -6.651338130661e-04 
-5.426647513542e-04 5.869195559815e-04 0.0 
5.869195559815e-04 4.187651392435e-03 0.0 
0.0 0.0 -7.293057621918e-04 
-1.068839531754e-03 -1.396982746719e-04 0.0 
-1.396982746719e-04 5.983670003937e-03 0.0 
0.0 0.0 -9.378562126457e-04 
-1.253909417431e-03 -3.654180260376e-04 0.0 
-3.654180260376e-04 7.384129283890e-03 0.0 
0.0 0.0 -1.125100902632e-03 
-1.223048658493e-03 8.194922759041e-05 0.0 
8.194922759041e-05 6.885373196445e-03 0.0 
0.0 0.0 -1.053755873404e-03 
-5.843499511654e-04 -7.478811802874e-04 0.0 
-7.478811802874e-04 2.078474299742e-03 0.0 
0.0 0.0 -3.685493992842e-04 
-1.215420929976e-03 2.914568716421e-04 0.0 
2.914568716421e-04 7.912104441246e-03 0.0 
0.0 0.0 -1.183514100502e-03 
-1.184839979766e-03 2.716593684437e-04 0.0 
2.716593684437e-04 7.456605698874e-03 0.0 
0.0 0.0 -1.117084069417e-03 
-9.160676408920e-04 2.566629763440e-04 0.0 
2.566629763440e-04 5.389449650205e-03 0.0 
0.0 0.0 -8.110481619253e-04 
-1.072043250355e-03 -1.594447290691e-04 0.0 
-1.594447290691e-04 6.194419037886e-03 0.0 
0.0 0.0 -9.753747863247e-04 
-1.113512703567e-03 -7.830874303778e-05 0.0 
-7.830874303778e-05 6.209473753146e-03 0.0 
0.0 0.0 -9.665592132828e-04 
-1.247553885459e-03 -1.638883659802e-04 0.0 
-1.638883659802e-04 8.032779373469e-03 0.0 
0.0 0.0 -1.185362187646e-03 
-1.209218779800e-03 2.395415248872e-04 0.0 
2.395415248872e-04 7.733666527183e-03 0.0 
0.0 0.0 -1.150972777267e-03 
-9.235989750770e-04 -6.984337716094e-04 0.0 
-6.984337716094e-04 5.520417486699e-03 0.0 
0.0 0.0 -8.866930489607e-04 
-1.284523920474e-03 -3.501071659254e-04 0.0 
-3.501071659254e-04 7.805517890163e-03 0.0 
0.0 0.0 -1.190872049285e-03 
-1.177897572884e-03 3.138623603337e-04 0.0 
3.138623603337e-04 7.354283994280e-03 0.0 
0.0 0.0 -1.103416240745e-03 
-1.224145241381e-03 -2.616286438841e-04 0.0 
-2.616286438841e-04 6.885317791912e-03 0.0 
0.0 0.0 -1.053748284807e-03 
-1.251504070725e-03 -4.981478354757e-04 0.0 
-4.981478354757e-04 7.817749108824e-03 0.0 
0.0 0.0 -1.210017230578e-03 
-1.240161038229e-03 -1.265963501437e-04 0.0 
-1.265963501437e-04 7.971776447579e-03 0.0 
0.0 0.0 -1.181737430652e-03 
-1.104792332721e-03 -1.417124884619e-04 0.0 
-1.417124884619e-04 6.803117520475e-03 0.0 
0.0 0.0 -1.011817915138e-03 
-9.092260506378e-04 -6.128458239001e-04 0.0 
-6.128458239001e-04 6.116526816133e-03 0.0 
0.0 0.0 -9.985655989919e-04 
-5.244393316962e-04 -3.327701467075e-07 0.0 
-3.327701467075e-07 2.217192403788e-03 0.0 
0.0 0.0 -3.644364776638e-04 
-5.557520001356e-04 -9.492103982614e-04 0.0 
-9.492103982614e-04 1.854328414375e-03 0.0 
0.0 0.0 -3.414758422231e-04 
-2.976977379688e-04 -4.729019177062e-04 0.0 
-4.729019177062e-04 1.065430610337e-03 0.0 
0.0 0.0 -1.876370064529e-04 
-1.394869518500e-05 -5.836024776206e-04 0.0 
-5.836024776206e-04 3.988673203720e-04 0.0 
0.0 0.0 -1.649651250801e-04 
-1.208849354757e-03 -1.442002111852e-04 0.0 
-1.442002111852e-04 7.751975943977e-03 0.0 
0.0 0.0 -1.150998037120e-03 
-1.270626804187e-03 5.625887811154e-05 0.0 
5.625887811154e-05 7.521765115722e-03 0.0 
0.0 0.0 -1.156839719840e-03 
-1.128430539847e-04 -4.533921113002e-04 0.0 
-4.533921113002e-04 5.125802596057e-04 0.0 
0.0 0.0 -1.512448671109e-04 
-1.224260673069e-03 1.930240191298e-04 0.0 
1.930240191298e-04 7.672098389018e-03 0.0 
0.0 0.0 -1.160298666437e-03 
-9.269777591648e-04 2.462098102623e-04 0.0 
2.462098102623e-04 5.566246555216e-03 0.0 
0.0 0.0 -8.436798659344e-04 
-1.183821186611e-03 -4.510450975400e-04 0.0 
-4.510450975400e-04 6.938898886609e-03 0.0 
0.0 0.0 -1.067477449466e-03 
-1.234042430495e-03 4.386686661325e-05 0.0 
4.386686661325e-05 7.085000705368e-03 0.0 
0.0 0.0 -1.090430023688e-03 
-4.688031105262e-04 -9.449998288247e-04 0.0 
-9.449998288247e-04 2.708853865005e-03 0.0 
0.0 0.0 -5.090628918580e-04 
-1.241127751091e-03 -3.232486977457e-04 0.0 
-3.232486977457e-04 7.146083644213e-03 0.0 
0.0 0.0 -1.087955833448e-03 
-9.128116180444e-04 -2.432084876036e-04 0.0 
-2.432084876036e-04 5.398327604704e-03 0.0 
0.0 0.0 -8.100176300978e-04 
-7.075550094797e-04 -2.554204369628e-05 0.0 
-2.554204369628e-05 5.888227624213e-03 0.0 
0.0 0.0 -1.000388816061e-03 
-1.275643571196e-03 -3.853184117788e-05 0.0 
-3.853184117788e-05 7.999890426169e-03 0.0 
0.0 0.0 -1.242964905849e-03 
-4.891437223720e-04 4.195566496952e-05 0.0 
4.195566496952e-05 2.125578513997e-03 0.0 
0.0 0.0 -3.542437553904e-04 
-1.232067324065e-03 -4.786069064869e-04 0.0 
-4.786069064869e-04 7.807210147599e-03 0.0 
0.0 0.0 -1.215045542354e-03 
-1.132051344136e-03 -1.297668119058e-04 0.0 
-1.297668119058e-04 7.059354268222e-03 0.0 
0.0 0.0 -1.048288725887e-03 
-5.597857793191e-04 4.639966247623e-05 0.0 
4.639966247623e-05 2.420049368412e-03 0.0 
0.0 0.0 -3.930611257745e-04 
-5.609737831535e-04 -1.192047374110e-03 0.0 
-1.192047374110e-03 2.290088636828e-03 0.0 
0.0 0.0 -4.034900192350e-04 
-1.019435653485e-03 2.510797196313e-05 0.0 
2.510797196313e-05 5.114500101547e-03 0.0 
0.0 0.0 -7.909606353592e-04 
-1.046153520856e-03 2.672543322815e-04 0.0 
2.672543322815e-04 6.254372891690e-03 0.0 
0.0 0.0 -9.409807611877e-04 
-7.501439557546e-04 -2.986549649001e-04 0.0 
-2.986549649001e-04 3.375633566619e-03 0.0 
0.0 0.0 -5.429771841545e-04 
-1.160690986180e-03 -1.496920489451e-04 0.0 
-1.496920489451e-04 7.303854633305e-03 0.0 
0.0 0.0 -1.085119818393e-03 
-1.069476201499e-03 -1.757346183128e-04 0.0 
-1.757346183128e-04 6.567285104211e-03 0.0 
0.0 0.0 -9.816794289629e-04 
-9.579280571301e-04 -1.773255598002e-04 0.0 
-1.773255598002e-04 4.907486764764e-03 0.0 
0.0 0.0 -7.700930343086e-04 
-1.202171244896e-03 -3.172466399621e-04 0.0 
-3.172466399621e-04 6.703539097156e-03 0.0 
0.0 0.0 -1.021757709120e-03 
-1.211296574698e-03 -3.721899322367e-04 0.0 
-3.721899322367e-04 6.940479911899e-03 0.0 
0.0 0.0 -1.058696934625e-03 
-1.135291475184e-03 2.700006977273e-04 0.0 
2.700006977273e-04 6.997454425646e-03 0.0 
0.0 0.0 -1.050681058959e-03 
-4.173596233207e-04 -3.503884104976e-04 0.0 
-3.503884104976e-04 1.875894239502e-03 0.0 
0.0 0.0 -3.058749225436e-04 
-9.447771700352e-04 -1.262936496125e-04 0.0 
-1.262936496125e-04 4.694024374325e-03 0.0 
0.0 0.0 -7.328582426338e-04 
-9.670495794898e-04 5.137281078932e-04 0.0 
5.137281078932e-04 6.920842306521e-03 0.0 
0.0 0.0 -1.141128458404e-03 
-1.159905672637e-03 -1.212910240168e-04 0.0 
-1.212910240168e-04 7.261813298966e-03 0.0 
0.0 0.0 -1.078198857115e-03 
-8.846237530489e-04 -1.118837918711e-04 0.0 
-1.118837918711e-04 4.234828904613e-03 0.0 
0.0 0.0 -6.666835465145e-04 
-9.866099674588e-04 -6.396910670883e-04 0.0 
-6.396910670883e-04 5.776957758952e-03 0.0 
0.0 0.0 -9.153036164073e-04 
-1.180273166295e-03 -5.195576023231e-04 0.0 
-5.195576023231e-04 7.573511676705e-03 0.0 
0.0 0.0 -1.187586327529e-03 
-1.090487437882e-03 2.486631283317e-04 0.0 
2.486631283317e-04 6.750183946417e-03 0.0 
0.0 0.0 -1.013969106439e-03 
4.266683345687e-05 -1.829982136319e-05 0.0 
-1.829982136319e-05 -1.175196824510e-05 0.0 
0.0 0.0 -1.324922794790e-05 
-2.207289874608e-04 -3.235795152871e-04 0.0 
-3.235795152871e-04 1.003256593638e-03 0.0 
0.0 0.0 -1.835536028976e-04 
6.095472518787e-04 -2.844414826135e-05 0.0 
-2.844414826135e-05 2.461208838896e-04 0.0 
0.0 0.0 -3.667149153293e-04 
-1.247686431213e-03 1.804464591039e-05 0.0 
1.804464591039e-05 7.316811787833e-03 0.0 
0.0 0.0 -1.127837695838e-03 
-1.073532930030e-03 2.556328204713e-04 0.0 
2.556328204713e-04 6.504084694261e-03 0.0 
0.0 0.0 -9.775003154318e-04 
-1.065496431756e-03 -3.247503852032e-04 0.0 
-3.247503852032e-04 5.643495466523e-03 0.0 
0.0 0.0 -8.513051444990e-04 
-9.769664875946e-04 2.379062424114e-04 0.0 
2.379062424114e-04 5.801214914582e-03 0.0 
0.0 0.0 -8.745614812816e-04 
-1.019950067796e-03 -4.586219499737e-04 0.0 
-4.586219499737e-04 7.042194348422e-03 0.0 
0.0 0.0 -1.139196670502e-03 
-1.001595776578e-03 -1.032368991806e-04 0.0 
-1.032368991806e-04 5.128573561517e-03 0.0 
0.0 0.0 -7.988714448434e-04 
-1.198933731184e-03 -2.304563849883e-06 0.0 
-2.304563849883e-06 6.870961844438e-03 0.0 
0.0 0.0 -1.061632825506e-03 
-4.894390167554e-04 -2.936556089740e-04 0.0 
-2.936556089740e-04 2.281659796893e-03 0.0 
0.0 0.0 -3.615122310665e-04 
-1.252320573339e-03 -4.986115071304e-05 0.0 
-4.986115071304e-05 7.805865228042e-03 0.0 
0.0 0.0 -1.211531131004e-03 
-9.705690281363e-04 -5.093762920131e-04 0.0 
-5.093762920131e-04 4.972659776742e-03 0.0 
0.0 0.0 -7.673127347790e-04 
-5.395948498915e-04 -2.749809582872e-04 0.0 
-2.749809582872e-04 2.502960479934e-03 0.0 
0.0 0.0 -3.889166325194e-04 
-9.539878925134e-04 -4.665681980887e-04 0.0 
-4.665681980887e-04 4.746329446601e-03 0.0 
0.0 0.0 -7.311132045151e-04 
-7.861451495527e-04 -2.221214863257e-04 0.0 
-2.221214863257e-04 3.593397886981e-03 0.0 
0.0 0.0 -5.716673668464e-04 
-6.390151670991e-04 -6.536657789763e-04 0.0 
-6.536657789763e-04 2.791763486177e-03 0.0 
0.0 0.0 -4.452767020142e-04 
-1.072653987371e-03 2.886861907429e-05 0.0 
2.886861907429e-05 5.536656976787e-03 0.0 
0.0 0.0 -8.564950983273e-04 
2.053402963574e-04 2.693149737115e-05 0.0 
2.693149737115e-05 -6.111100134196e-05 0.0 
0.0 0.0 -6.181255500660e-05 
1.464512989776e-04 -5.911592787119e-06 0.0 
-5.911592787119e-06 -4.332551876097e-05 0.0 
0.0 0.0 -4.419676295000e-05 
-1.129321225881e-03 -4.366761249298e-04 0.0 
-4.366761249298e-04 6.278524906094e-03 0.0 
0.0 0.0 -9.636005660098e-04 
-4.459230001805e-04 -3.109429784165e-04 0.0 
-3.109429784165e-04 2.087500805873e-03 0.0 
0.0 0.0 -3.336449385292e-04 
-1.093345380725e-03 -5.267841385720e-04 0.0 
-5.267841385720e-04 6.263877748210e-03 0.0 
0.0 0.0 -9.724388998541e-04 
-1.043259012928e-03 -5.809617148742e-04 0.0 
-5.809617148742e-04 6.025832941714e-03 0.0 
0.0 0.0 -9.438473481109e-04 
-7.593501897991e-04 -4.626236543671e-04 0.0 
-4.626236543671e-04 3.770567817408e-03 0.0 
0.0 0.0 -6.177757646845e-04 
-3.406532554668e-04 -1.201349069570e-03 0.0 
-1.201349069570e-03 1.971960000255e-03 0.0 
0.0 0.0 -4.162223005415e-04 
-1.210770017431e-03 -8.268587528123e-05 0.0 
-8.268587528123e-05 7.661732423863e-03 0.0 
0.0 0.0 -1.137719822027e-03 
2.217423052273e-04 3.028948149786e-04 0.0 
3.028948149786e-04 -1.208394326889e-05 0.0 
0.0 0.0 -8.985358369644e-05 
-8.285748112363e-04 -1.587478080269e-04 0.0 
-1.587478080269e-04 3.819529826762e-03 0.0 
0.0 0.0 -6.004815939294e-04 
-1.049679539983e-03 -3.693865297615e-04 0.0 
-3.693865297615e-04 7.240151455212e-03 0.0 
0.0 0.0 -1.175533656463e-03 
-3.983359874590e-04 4.184586300730e-05 0.0 
4.184586300730e-05 1.714439103962e-03 0.0 
0.0 0.0 -2.977570873278e-04 
-1.020229649597e-03 -1.375914676709e-04 0.0 
-1.375914676709e-04 6.101662351483e-03 0.0 
0.0 0.0 -9.088859120638e-04 
-9.450324784717e-04 -1.832830397253e-04 0.0 
-1.832830397253e-04 5.623770961517e-03 0.0 
0.0 0.0 -8.416286270284e-04 
-4.351237697251e-04 -5.540829146340e-04 0.0 
-5.540829146340e-04 1.723099038299e-03 0.0 
0.0 0.0 -2.842394630762e-04 
-1.127395628762e-03 -5.008482085009e-04 0.0 
-5.008482085009e-04 7.317936875090e-03 0.0 
0.0 0.0 -1.158722036769e-03 
-1.133506044246e-03 -8.767361897690e-05 0.0 
-8.767361897690e-05 6.959505034578e-03 0.0 
0.0 0.0 -1.034898561726e-03 
-4.951489600236e-04 -4.786425625421e-05 0.0 
-4.786425625421e-05 2.022039619189e-03 0.0 
0.0 0.0 -3.364655670308e-04 
-1.234708714507e-03 -3.925269914934e-05 0.0 
-3.925269914934e-05 7.851562311589e-03 0.0 
0.0 0.0 -1.166520446339e-03 
-1.230308234664e-03 3.090146298482e-04 0.0 
3.090146298482e-04 7.789607374426e-03 0.0 
0.0 0.0 -1.169001632583e-03 
-5.233675107163e-04 -4.314455861334e-04 0.0 
-4.314455861334e-04 2.327927411805e-03 0.0 
0.0 0.0 -3.701904734684e-04 
-5.932851689167e-04 7.473876325445e-04 0.0 
7.473876325445e-04 2.806018980480e-03 0.0 
0.0 0.0 -4.801335248058e-04 
-5.599793527513e-04 -5.941268921315e-04 0.0 
-5.941268921315e-04 2.361270480637e-03 0.0 
0.0 0.0 -3.791106726259e-04 
-1.172251179922e-03 -4.180665988864e-04 0.0 
-4.180665988864e-04 6.718010438057e-03 0.0 
0.0 0.0 -1.029923508343e-03 
-1.041340644124e-03 -3.282174640750e-05 0.0 
-3.282174640750e-05 5.343281569417e-03 0.0 
0.0 0.0 -8.276368238623e-04 
-1.238338552957e-03 5.129188831146e-04 0.0 
5.129188831146e-04 7.705442663502e-03 0.0 
0.0 0.0 -1.169529464977e-03 
-1.205798657677e-03 3.040238914407e-04 0.0 
3.040238914407e-04 7.606656415098e-03 0.0 
0.0 0.0 -1.140030709108e-03 
-1.136504455291e-03 -4.715376891294e-04 0.0 
-4.715376891294e-04 6.495059726217e-03 0.0 
0.0 0.0 -1.001167767022e-03 
-1.120337032388e-03 -1.059796522353e-04 0.0 
-1.059796522353e-04 6.426005632212e-03 0.0 
0.0 0.0 -1.004093472296e-03 
-5.274441073591e-04 -2.397572524931e-04 0.0 
-2.397572524931e-04 1.862294635062e-03 0.0 
0.0 0.0 -3.158693332420e-04 
-1.161634108540e-03 -5.320117127017e-05 0.0 
-5.320117127017e-05 6.648981173758e-03 0.0 
0.0 0.0 -1.032853941699e-03 
-1.125917341076e-03 2.991763443149e-04 0.0 
2.991763443149e-04 6.905438798140e-03 0.0 
0.0 0.0 -1.037144748481e-03 
-1.044631038411e-03 -3.631995376833e-04 0.0 
-3.631995376833e-04 5.407625222663e-03 0.0 
0.0 0.0 -8.248712778174e-04 
-1.078523674622e-03 -1.304712665821e-04 0.0 
-1.304712665821e-04 6.557738951195e-03 0.0 
0.0 0.0 -9.752741834902e-04 
-1.159347625089e-03 -9.624416522510e-05 0.0 
-9.624416522510e-05 7.210996352120e-03 0.0 
0.0 0.0 -1.071415751597e-03 
-3.318515090644e-04 6.235225383972e-04 0.0 
6.235225383972e-04 3.802912303128e-03 0.0 
0.0 0.0 -7.435371925968e-04 
-1.181769783394e-03 2.863535825742e-04 0.0 
2.863535825742e-04 7.408927706841e-03 0.0 
0.0 0.0 -1.110258267496e-03 
-9.356896319010e-04 -4.816204734149e-05 0.0 
-4.816204734149e-05 4.523878489702e-03 0.0 
0.0 0.0 -6.965171720950e-04 
-1.013439798328e-03 -4.389789435164e-04 0.0 
-4.389789435164e-04 5.194362623047e-03 0.0 
0.0 0.0 -7.960639764766e-04 
-7.588476473929e-04 -1.047638361378e-04 0.0 
-1.047638361378e-04 3.390478407872e-03 0.0 
0.0 0.0 -5.342291996904e-04 
-6.729613587978e-04 -9.978092115441e-04 0.0 
-9.978092115441e-04 3.336051263368e-03 0.0 
0.0 0.0 -5.581583723280e-04 
-1.100329888420e-03 2.776105336716e-04 0.0 
2.776105336716e-04 6.705832396394e-03 0.0 
0.0 0.0 -1.007339817349e-03 
-7.155066052029e-04 -8.941200741794e-04 0.0 
-8.941200741794e-04 4.520636252880e-03 0.0 
0.0 0.0 -7.637833264599e-04 
-5.880444497108e-04 -5.324378047215e-04 0.0 
-5.324378047215e-04 2.570561499900e-03 0.0 
0.0 0.0 -4.077494273363e-04 
-3.167379964521e-04 -3.896430801043e-04 0.0 
-3.896430801043e-04 1.286713823890e-03 0.0 
0.0 0.0 -2.185673950299e-04 
-1.104743277708e-03 -1.081634182050e-04 0.0 
-1.081634182050e-04 6.759513962222e-03 0.0 
0.0 0.0 -1.005115000480e-03 
-6.259157449930e-04 -2.410202634238e-04 0.0 
-2.410202634238e-04 2.506664290233e-03 0.0 
0.0 0.0 -4.107160730352e-04 
-1.199872170886e-03 -1.045804178386e-04 0.0 
-1.045804178386e-04 7.736983325214e-03 0.0 
0.0 0.0 -1.218716866995e-03 
-1.124972404341e-03 2.718592290333e-04 0.0 
2.718592290333e-04 6.955187210285e-03 0.0 
0.0 0.0 -1.043883448597e-03 
-1.171061824699e-03 -7.858396141652e-05 0.0 
-7.858396141652e-05 6.870002089505e-03 0.0 
0.0 0.0 -1.070373463590e-03 
-1.223592225032e-03 -6.654680312814e-05 0.0 
-6.654680312814e-05 7.796071319491e-03 0.0 
0.0 0.0 -1.284729618418e-03 
-8.862225412837e-04 -4.776674958030e-04 0.0 
-4.776674958030e-04 4.314456893826e-03 0.0 
0.0 0.0 -6.637377122259e-04 
-5.666876201447e-04 -1.260874714856e-04 0.0 
-1.260874714856e-04 2.263003673050e-03 0.0 
0.0 0.0 -3.731618544809e-04 
-4.219134531154e-04 -1.222472695970e-04 0.0 
-1.222472695970e-04 1.397809828057e-03 0.0 
0.0 0.0 -2.496210768721e-04 
-1.097286575279e-03 -5.440934378647e-04 0.0 
-5.440934378647e-04 6.473058930747e-03 0.0 
0.0 0.0 -1.009908742814e-03 
-1.043727317765e-03 2.472408857258e-04 0.0 
2.472408857258e-04 6.306661261885e-03 0.0 
0.0 0.0 -9.473489374553e-04 
-2.695681844680e-04 -5.290039554231e-05 0.0 
-5.290039554231e-05 9.382689285882e-04 0.0 
0.0 0.0 -1.858848441742e-04 
-7.364560019706e-04 -6.036242025600e-04 0.0 
-6.036242025600e-04 3.440005901319e-03 0.0 
0.0 0.0 -5.400474096907e-04 
-4.035403746382e-04 -2.305403145177e-04 0.0 
-2.305403145177e-04 2.024884021199e-03 0.0 
0.0 0.0 -3.246070344129e-04 
-1.046680963677e-03 -1.140431221757e-04 0.0 
-1.140431221757e-04 6.307213054075e-03 0.0 
0.0 0.0 -9.387834224271e-04 
-7.632592856577e-04 -5.393132933556e-04 0.0 
-5.393132933556e-04 3.657861775186e-03 0.0 
0.0 0.0 -5.687878759048e-04 
-1.016724206552e-03 -2.154888859726e-04 0.0 
-2.154888859726e-04 5.955453979487e-03 0.0 
0.0 0.0 -9.467935652645e-04 
-7.568020148065e-04 -4.521860907560e-04 0.0 
-4.521860907560e-04 3.415229586271e-03 0.0 
0.0 0.0 -5.337555413938e-04 
-1.189199624854e-03 -1.376681473433e-04 0.0 
-1.376681473433e-04 7.515170933533e-03 0.0 
0.0 0.0 -1.114809527198e-03 
-6.923550043241e-04 -2.768469088006e-04 0.0 
-2.768469088006e-04 2.945508556802e-03 0.0 
0.0 0.0 -4.768663991247e-04 
-1.044644236131e-03 -5.895775659962e-04 0.0 
-5.895775659962e-04 6.433247658548e-03 0.0 
0.0 0.0 -1.018590841688e-03 
-5.377186267121e-04 -1.162421830740e-03 0.0 
-1.162421830740e-03 1.924594638442e-03 0.0 
0.0 0.0 -3.376433569222e-04 
-1.043635089924e-03 -5.925974921427e-04 0.0 
-5.925974921427e-04 6.227817584456e-03 0.0 
0.0 0.0 -9.812220007866e-04 
-9.943565397434e-04 -3.497380212248e-04 0.0 
-3.497380212248e-04 4.987357588882e-03 0.0 
0.0 0.0 -7.604224332210e-04 
-1.126398211161e-03 -1.231258313828e-04 0.0 
-1.231258313828e-04 6.641179692916e-03 0.0 
0.0 0.0 -1.041555045145e-03 
9.223743664251e-05 -1.553032727052e-04 0.0 
-1.553032727052e-04 2.018845935385e-03 0.0 
0.0 0.0 -5.350282927002e-04 
-4.513551852745e-04 7.961954421126e-05 0.0 
7.961954421126e-05 1.942718085049e-03 0.0 
0.0 0.0 -3.277310168338e-04 
-9.768870302484e-04 -1.535527430477e-04 0.0 
-1.535527430477e-04 5.889109902335e-03 0.0 
0.0 0.0 -8.787268422831e-04 
-6.833158998415e-04 -4.842839122641e-04 0.0 
-4.842839122641e-04 5.519329349180e-03 0.0 
0.0 0.0 -9.464297096767e-04 
-6.696248071327e-04 9.527190214272e-04 0.0 
9.527190214272e-04 3.942995259938e-03 0.0 
0.0 0.0 -6.776081642141e-04 
-1.047238839157e-03 -1.563485093405e-04 0.0 
-1.563485093405e-04 6.341652196106e-03 0.0 
0.0 0.0 -9.453210152248e-04 
-5.135632802951e-04 -1.406486370917e-03 0.0 
-1.406486370917e-03 1.993823835031e-03 0.0 
0.0 0.0 -3.758914132629e-04 
-1.070153882220e-03 3.026802387506e-04 0.0 
3.026802387506e-04 6.407668419037e-03 0.0 
0.0 0.0 -9.642804585795e-04 
-3.826150946160e-04 -2.687090143275e-04 0.0 
-2.687090143275e-04 1.814458781029e-03 0.0 
0.0 0.0 -2.947674122297e-04 
-1.169970312209e-03 -5.285152303079e-04 0.0 
-5.285152303079e-04 7.359319887074e-03 0.0 
0.0 0.0 -1.150402778756e-03 
-7.093705364921e-04 -3.773457786927e-04 0.0 
-3.773457786927e-04 5.766663180528e-03 0.0 
0.0 0.0 -9.834711240942e-04 
-7.789396793629e-04 4.773750927831e-05 0.0 
4.773750927831e-05 6.190226744614e-03 0.0 
0.0 0.0 -1.037051012011e-03 
-1.266259122541e-03 -6.932227906499e-05 0.0 
-6.932227906499e-05 8.127793637496e-03 0.0 
0.0 0.0 -1.204463612412e-03 
-7.768385389529e-04 -8.073428107716e-04 0.0 
-8.073428107716e-04 4.980090398291e-03 0.0 
0.0 0.0 -8.294769417472e-04 
-4.699473644088e-04 -6.813726004672e-05 0.0 
-6.813726004672e-05 1.813879272209e-03 0.0 
0.0 0.0 -3.081489256106e-04 
-9.161062287207e-04 -6.850931603516e-04 0.0 
-6.850931603516e-04 5.713761905663e-03 0.0 
0.0 0.0 -9.239488535170e-04 
-1.173047693050e-03 -1.052473736579e-04 0.0 
-1.052473736579e-04 7.508097487322e-03 0.0 
0.0 0.0 -1.189963100592e-03 
-4.497409859123e-04 -1.426160803811e-03 0.0 
-1.426160803811e-03 2.458822638814e-03 0.0 
0.0 0.0 -4.786098583285e-04 
-1.143974714499e-03 -4.976969720053e-04 0.0 
-4.976969720053e-04 6.710156245847e-03 0.0 
0.0 0.0 -1.038675661098e-03 
-1.132883010551e-03 -1.192006961438e-04 0.0 
-1.192006961438e-04 7.009605316192e-03 0.0 
0.0 0.0 -1.041631482750e-03 
-1.897791220570e-04 -1.328549867833e-03 0.0 
-1.328549867833e-03 1.573915984256e-03 0.0 
0.0 0.0 -3.880698300753e-04 
-9.832169528241e-04 -6.401107558717e-04 0.0 
-6.401107558717e-04 5.975097252107e-03 0.0 
0.0 0.0 -9.525765839929e-04 
-9.785039199354e-04 -1.168734358181e-04 0.0 
-1.168734358181e-04 5.790498942477e-03 0.0 
0.0 0.0 -8.663127257149e-04 
-5.996048706546e-04 -3.316912815730e-04 0.0 
-3.316912815730e-04 2.740125406625e-03 0.0 
0.0 0.0 -4.280652785065e-04 
-7.035123059792e-04 -6.874159131133e-04 0.0 
-6.874159131133e-04 3.217847307373e-03 0.0 
0.0 0.0 -5.113914792957e-04 
-7.105655773308e-04 4.972009427012e-04 0.0 
4.972009427012e-04 4.827811336805e-03 0.0 
0.0 0.0 -8.004334922225e-04 
-1.074750193164e-03 -1.697498961518e-04 0.0 
-1.697498961518e-04 6.403492678198e-03 0.0 
0.0 0.0 -1.012809740122e-03 
-7.035308576128e-04 5.382426947374e-04 0.0 
5.382426947374e-04 3.806026837703e-03 0.0 
0.0 0.0 -6.201901524263e-04 
-6.308101104936e-04 5.457451351616e-04 0.0 
5.457451351616e-04 4.514197146446e-03 0.0 
0.0 0.0 -7.649884091348e-04 
-1.098080609149e-03 3.025878807238e-04 0.0 
3.025878807238e-04 6.656267622990e-03 0.0 
0.0 0.0 -1.000670320419e-03 
-1.014704614523e-03 2.583884235807e-04 0.0 
2.583884235807e-04 6.049064620228e-03 0.0 
0.0 0.0 -9.110000341593e-04 
-1.009261189838e-03 2.792149560740e-04 0.0 
2.792149560740e-04 5.955274274962e-03 0.0 
0.0 0.0 -8.984003255416e-04 
-9.871449342436e-04 -7.213431481816e-05 0.0 
-7.213431481816e-05 4.924174820230e-03 0.0 
0.0 0.0 -7.627602282935e-04 
-1.065656897570e-03 -5.121112680600e-04 0.0 
-5.121112680600e-04 7.066736918301e-03 0.0 
0.0 0.0 -1.130631056169e-03 
-8.421677165309e-04 -7.268506017030e-04 0.0 
-7.268506017030e-04 5.443918430101e-03 0.0 
0.0 0.0 -8.953295484280e-04 
-9.945000348060e-04 -1.248826091764e-04 0.0 
-1.248826091764e-04 5.857149722276e-03 0.0 
0.0 0.0 -8.720525204519e-04 
-1.238633943108e-03 1.686741563001e-04 0.0 
1.686741563001e-04 7.876441362665e-03 0.0 
0.0 0.0 -1.193584144721e-03 
-8.522957180035e-04 9.316442431590e-05 0.0 
9.316442431590e-05 6.488948212224e-03 0.0 
0.0 0.0 -1.073433710836e-03 
-1.015779217143e-03 -2.144660185469e-04 0.0 
-2.144660185469e-04 6.157749518334e-03 0.0 
0.0 0.0 -9.841343610905e-04 
-1.152967284980e-03 2.909720530725e-04 0.0 
2.909720530725e-04 7.156656236309e-03 0.0 
0.0 0.0 -1.073677668998e-03 
-7.263162190416e-04 -8.886940194724e-04 0.0 
-8.886940194724e-04 3.588121008828e-03 0.0 
0.0 0.0 -5.862626530915e-04 
-7.235359723586e-04 -7.958794651799e-04 0.0 
-7.958794651799e-04 3.410683047674e-03 0.0 
0.0 0.0 -5.488365039436e-04 
-4.694757851361e-04 -5.127005261343e-04 0.0 
-5.127005261343e-04 1.922171349029e-03 0.0 
0.0 0.0 -3.130684191733e-04 
-9.104943950574e-04 -6.552016600707e-04 0.0 
-6.552016600707e-04 5.911258485735e-03 0.0 
0.0 0.0 -9.612598090090e-04 
-7.654832124176e-04 -7.002445478485e-04 0.0 
-7.002445478485e-04 3.645865785489e-03 0.0 
0.0 0.0 -5.775003002374e-04 
-1.075243583964e-03 -1.050257747268e-04 0.0 
-1.050257747268e-04 6.505297040680e-03 0.0 
0.0 0.0 -9.686535345556e-04 
-1.046091552134e-03 -1.046643629052e-04 0.0 
-1.046643629052e-04 6.253743570569e-03 0.0 
0.0 0.0 -9.322463471790e-04 
-3.156258732897e-04 -6.342992802895e-05 0.0 
-6.342992802895e-05 4.063447682096e-03 0.0 
0.0 0.0 -7.690363516573e-04 
-6.768678335791e-04 -4.944889426237e-04 0.0 
-4.944889426237e-04 2.924353115240e-03 0.0 
0.0 0.0 -4.860199686152e-04 
7.378566886558e-05 8.261792693270e-04 0.0 
8.261792693270e-04 1.831438910589e-03 0.0 
0.0 0.0 -5.148587792422e-04 
-7.140205863396e-04 -3.895142562213e-04 0.0 
-3.895142562213e-04 3.153467660832e-03 0.0 
0.0 0.0 -5.143448975765e-04 
-7.166082742775e-04 -4.898417450174e-04 0.0 
-4.898417450174e-04 3.345585253682e-03 0.0 
0.0 0.0 -5.517963299543e-04 
-5.453825262275e-04 -1.801577044467e-04 0.0 
-1.801577044467e-04 2.063785108327e-03 0.0 
0.0 0.0 -3.446931235564e-04 
-9.991919087570e-04 -5.159677692080e-04 0.0 
-5.159677692080e-04 6.812973713771e-03 0.0 
0.0 0.0 -1.101849228969e-03 
-6.361621297383e-04 -6.326273812119e-04 0.0 
-6.326273812119e-04 3.840813039186e-03 0.0 
0.0 0.0 -6.642957827475e-04 
-1.186458515100e-03 -1.053251154620e-04 0.0 
-1.053251154620e-04 7.463739247015e-03 0.0 
0.0 0.0 -1.107989045227e-03 
-5.978205852497e-04 -6.030872319160e-04 0.0 
-6.030872319160e-04 3.997835835114e-03 0.0 
0.0 0.0 -7.013039408444e-04 
-8.766496605348e-04 -2.938506230370e-04 0.0 
-2.938506230370e-04 5.643098139245e-03 0.0 
0.0 0.0 -9.268471029391e-04 
-7.458770769302e-04 -4.494771908485e-04 0.0 
-4.494771908485e-04 4.730820068739e-03 0.0 
0.0 0.0 -7.951651613512e-04 
-5.061128914291e-04 5.136368614140e-04 0.0 
5.136368614140e-04 4.289096613620e-03 0.0 
0.0 0.0 -7.567435594048e-04 
-4.924031779586e-04 -4.582157831525e-04 0.0 
-4.582157831525e-04 2.128157277405e-03 0.0 
0.0 0.0 -3.417109511102e-04 
-1.119466152649e-03 -1.285123435513e-04 0.0 
-1.285123435513e-04 7.241871223374e-03 0.0 
0.0 0.0 -1.161691925552e-03 
-1.157276862038e-03 -5.152756470004e-04 0.0 
-5.152756470004e-04 7.595110461611e-03 0.0 
0.0 0.0 -1.198716319349e-03 
-9.186810373389e-04 7.206447187045e-04 0.0 
7.206447187045e-04 5.929294122594e-03 0.0 
0.0 0.0 -9.650368815299e-04 
-7.024384046348e-04 -5.668947943432e-04 0.0 
-5.668947943432e-04 3.521466880882e-03 0.0 
0.0 0.0 -5.892385666867e-04 
-8.092329254756e-04 -3.679333936268e-04 0.0 
-3.679333936268e-04 5.184879506691e-03 0.0 
0.0 0.0 -8.609535187098e-04 
-1.070645862318e-03 2.880325294516e-04 0.0 
2.880325294516e-04 6.451710160525e-03 0.0 
0.0 0.0 -9.708520278613e-04 
-7.765899253724e-04 -7.845646391497e-04 0.0 
-7.845646391497e-04 3.835907640370e-03 0.0 
0.0 0.0 -6.148791393494e-04 
-5.560475869297e-04 7.086124654578e-04 0.0 
7.086124654578e-04 3.695652655845e-03 0.0 
0.0 0.0 -6.394234923164e-04 
-6.747584532598e-04 -5.770366254477e-04 0.0 
-5.770366254477e-04 3.009985049056e-03 0.0 
0.0 0.0 -4.739097840058e-04 
-4.381090568186e-04 -1.552304285074e-03 0.0 
-1.552304285074e-03 2.041510460725e-03 0.0 
0.0 0.0 -4.132304097957e-04 
-7.141863963918e-04 -9.568035345241e-04 0.0 
-9.568035345241e-04 3.752753679619e-03 0.0 
0.0 0.0 -6.236739531379e-04 
-6.528961987011e-04 -1.781186145787e-04 0.0 
-1.781186145787e-04 2.715857529516e-03 0.0 
0.0 0.0 -4.393534411964e-04 
-5.596275213697e-04 -3.829013705402e-04 0.0 
-3.829013705402e-04 2.536190508459e-03 0.0 
0.0 0.0 -3.988888273503e-04 
-7.947060353366e-04 -8.306305145241e-04 0.0 
-8.306305145241e-04 4.800715564885e-03 0.0 
0.0 0.0 -7.922809795675e-04 
-9.495117069836e-04 -2.555007117944e-04 0.0 
-2.555007117944e-04 5.904688651206e-03 0.0 
0.0 0.0 -9.554846610150e-04 
-1.106451546740e-03 6.547273223382e-04 0.0 
6.547273223382e-04 7.113693437201e-03 0.0 
0.0 0.0 -1.128610778606e-03 
5.517197538679e-04 6.942037793557e-07 0.0 
6.942037793557e-07 5.222913432921e-05 0.0 
0.0 0.0 -1.143255210630e-04 
-3.502562365249e-04 -5.244252159893e-04 0.0 
-5.244252159893e-04 3.531851922803e-03 0.0 
0.0 0.0 -6.818868151028e-04 
-4.968184483203e-04 -6.518828778024e-04 0.0 
-6.518828778024e-04 3.693766435261e-03 0.0 
0.0 0.0 -6.732431144785e-04 
-6.734388902022e-04 -6.179988430692e-04 0.0 
-6.179988430692e-04 3.684173063462e-03 0.0 
0.0 0.0 -6.268095852860e-04 
-1.038674892423e-03 2.849365380829e-04 0.0 
2.849365380829e-04 6.200994707550e-03 0.0 
0.0 0.0 -9.344164207832e-04 
-6.877399303223e-04 -5.371529877498e-04 0.0 
-5.371529877498e-04 4.282013621241e-03 0.0 
0.0 0.0 -7.295442444478e-04 
-7.236126278911e-04 -1.940798346154e-04 0.0 
-1.940798346154e-04 3.162977138653e-03 0.0 
0.0 0.0 -5.055050897130e-04 
-6.903954199582e-04 -9.883908706268e-04 0.0 
-9.883908706268e-04 3.912237901394e-03 0.0 
0.0 0.0 -6.611654675676e-04 
-1.160544064243e-03 2.681116606983e-04 0.0 
2.681116606983e-04 7.207667667947e-03 0.0 
0.0 0.0 -1.080452943103e-03 
-7.185620229440e-04 -5.086767079658e-04 0.0 
-5.086767079658e-04 3.228512561114e-03 0.0 
0.0 0.0 -5.025663706543e-04 
-3.033530584322e-04 -3.126589283008e-05 0.0 
-3.126589283008e-05 1.124202721504e-03 0.0 
0.0 0.0 -2.132551421006e-04 
-4.445863950683e-04 -1.098673452603e-04 0.0 
-1.098673452603e-04 1.624443337862e-03 0.0 
0.0 0.0 -2.784575373548e-04 
-4.556609783406e-04 -1.046441961485e-03 0.0 
-1.046441961485e-03 2.312897280805e-03 0.0 
0.0 0.0 -4.444240490352e-04 
-6.671697262521e-04 -6.094353393578e-04 0.0 
-6.094353393578e-04 3.102567689836e-03 0.0 
0.0 0.0 -5.239304829885e-04 
-4.604694554278e-04 -5.460587614430e-04 0.0 
-5.460587614430e-04 3.852686059404e-03 0.0 
0.0 0.0 -7.099160536912e-04 
-6.597409171735e-04 -9.847744191674e-04 0.0 
-9.847744191674e-04 4.070104714955e-03 0.0 
0.0 0.0 -6.984076724203e-04 
-4.347846215514e-04 -1.333971923402e-03 0.0 
-1.333971923402e-03 1.612936656771e-03 0.0 
0.0 0.0 -3.343205611582e-04 
-3.976613437580e-04 -3.897326152451e-04 0.0 
-3.897326152451e-04 1.671878635782e-03 0.0 
0.0 0.0 -2.765202162382e-04 
-1.033660003461e-03 -1.033996314703e-04 0.0 
-1.033996314703e-04 5.926247048388e-03 0.0 
0.0 0.0 -8.885078876198e-04 
-6.226964712633e-04 -4.829751825411e-04 0.0 
-4.829751825411e-04 2.780306463648e-03 0.0 
0.0 0.0 -4.363975895258e-04 
-9.598608129299e-04 -1.512388155027e-04 0.0 
-1.512388155027e-04 6.520728160314e-03 0.0 
0.0 0.0 -1.067401112627e-03 
-1.044199175907e-03 6.711789122637e-04 0.0 
6.711789122637e-04 6.814869566682e-03 0.0 
0.0 0.0 -1.093380752811e-03 
-1.033158695296e-03 1.201714905428e-04 0.0 
1.201714905428e-04 5.943900742884e-03 0.0 
0.0 0.0 -9.013836717722e-04 
-1.202438437016e-03 3.703852775580e-04 0.0 
3.703852775580e-04 7.497052002657e-03 0.0 
0.0 0.0 -1.126084317643e-03 
-1.147719962247e-03 6.494223347106e-04 0.0 
6.494223347106e-04 7.391690108111e-03 0.0 
0.0 0.0 -1.164310864388e-03 
-2.878547429469e-04 1.154238477974e-04 0.0 
1.154238477974e-04 3.877857573592e-03 0.0 
0.0 0.0 -7.408850503417e-04 
-9.791568623396e-04 6.928855181129e-04 0.0 
6.928855181129e-04 6.367692588182e-03 0.0 
0.0 0.0 -1.029042339204e-03 
-3.868820834042e-04 -1.598175067219e-03 0.0 
-1.598175067219e-03 1.640588266591e-03 0.0 
0.0 0.0 -3.684254322556e-04 
-7.608485108981e-04 -8.950598342909e-04 0.0 
-8.950598342909e-04 4.184728790858e-03 0.0 
0.0 0.0 -6.894573431515e-04 
-3.726378683448e-04 9.309707187506e-04 0.0 
9.309707187506e-04 3.521132831243e-03 0.0 
0.0 0.0 -6.879681371099e-04 
1.475700378225e-04 -1.082055056136e-03 0.0 
-1.082055056136e-03 1.153328364632e-03 0.0 
0.0 0.0 -4.001859895708e-04 
-2.322378270667e-04 -1.414305700121e-03 0.0 
-1.414305700121e-03 1.285051000812e-03 0.0 
0.0 0.0 -3.718692805502e-04 
-7.624977688682e-04 -3.873820506890e-04 0.0 
-3.873820506890e-04 3.581246965727e-03 0.0 
0.0 0.0 -5.804062017457e-04 
-5.687072458126e-04 -1.053499292402e-03 0.0 
-1.053499292402e-03 3.769545573336e-03 0.0 
0.0 0.0 -6.703429011759e-04 
-5.303660715230e-04 -9.834601585863e-04 0.0 
-9.834601585863e-04 3.928073668805e-03 0.0 
0.0 0.0 -7.070647534220e-04 
-6.858142190642e-04 -1.264292236945e-04 0.0 
-1.264292236945e-04 2.925987856864e-03 0.0 
0.0 0.0 -4.680152132766e-04 
-6.589899224581e-04 -5.005558218905e-04 0.0 
-5.005558218905e-04 4.450521373462e-03 0.0 
0.0 0.0 -7.666177146937e-04 
-4.231487579380e-04 -9.909487264928e-04 0.0 
-9.909487264928e-04 3.613001704936e-03 0.0 
0.0 0.0 -6.790125122095e-04 
-3.369199789232e-04 -3.555417311412e-04 0.0 
-3.555417311412e-04 3.718100603305e-03 0.0 
0.0 0.0 -7.183521444552e-04 
-6.803758157452e-04 -9.028741567956e-04 0.0 
-9.028741567956e-04 3.171875899076e-03 0.0 
0.0 0.0 -5.205443542100e-04 
-6.888642757158e-04 -2.049706033719e-04 0.0 
-2.049706033719e-04 5.802071078045e-03 0.0 
0.0 0.0 -9.921115096417e-04 
-1.107658319106e-03 -8.404497540785e-05 0.0 
-8.404497540785e-05 6.709473481144e-03 0.0 
0.0 0.0 -9.984673180476e-04 
-2.379293217191e-04 -2.443881819662e-04 0.0 
-2.443881819662e-04 3.409073247204e-03 0.0 
0.0 0.0 -6.904379518788e-04 
-1.046303389369e-03 -1.114400525399e-04 0.0 
-1.114400525399e-04 6.996162598283e-03 0.0 
0.0 0.0 -1.133495712197e-03 
-3.268910950442e-04 -1.748504239578e-03 0.0 
-1.748504239578e-03 1.649599373731e-03 0.0 
0.0 0.0 -3.849690761666e-04 
-1.105326955299e-03 -1.209562394880e-05 0.0 
-1.209562394880e-05 7.506917461540e-03 0.0 
0.0 0.0 -1.208505026952e-03 
-5.639712272191e-04 -5.345864669017e-04 0.0 
-5.345864669017e-04 4.155944038547e-03 0.0 
0.0 0.0 -7.381355003807e-04 
-1.181963174499e-03 7.139086798360e-04 0.0 
7.139086798360e-04 7.734753846791e-03 0.0 
0.0 0.0 -1.203459118631e-03 
-9.741416899861e-04 2.978325655321e-04 0.0 
2.978325655321e-04 5.872577927131e-03 0.0 
0.0 0.0 -9.144069900286e-04 
-4.654888822043e-04 -1.140967963864e-03 0.0 
-1.140967963864e-03 1.931638852762e-03 0.0 
0.0 0.0 -3.788569260404e-04 
-1.047582909248e-03 1.584393688340e-04 0.0 
1.584393688340e-04 6.105623494628e-03 0.0 
0.0 0.0 -9.292863832265e-04 
-1.220879085669e-03 4.419497771274e-04 0.0 
4.419497771274e-04 7.616026390278e-03 0.0 
0.0 0.0 -1.148369591821e-03 
-5.398601850951e-04 -4.406973068625e-04 0.0 
-4.406973068625e-04 4.330390544396e-03 0.0 
0.0 0.0 -7.747733155264e-04 
-3.603331338578e-04 8.676550475076e-04 0.0 
8.676550475076e-04 2.963522800416e-03 0.0 
0.0 0.0 -5.621395992319e-04 
-1.057553285601e-03 1.944669215669e-04 0.0 
1.944669215669e-04 6.263161490160e-03 0.0 
0.0 0.0 -9.572423940436e-04 
-7.057059362099e-04 9.012515937016e-04 0.0 
9.012515937016e-04 4.348665847300e-03 0.0 
0.0 0.0 -7.402445244775e-04 
-4.362988120307e-04 -1.127161443736e-03 0.0 
-1.127161443736e-03 1.552148016574e-03 0.0 
0.0 0.0 -3.359502462693e-04 
-1.283659217910e-03 4.297574681589e-04 0.0 
4.297574681589e-04 8.390487106861e-03 0.0 
0.0 0.0 -1.259077240559e-03 
-4.445080952730e-04 -7.847967672699e-04 0.0 
-7.847967672699e-04 1.460661056520e-03 0.0 
0.0 0.0 -3.199353184197e-04 
-1.015479846412e-03 -4.911816191571e-05 0.0 
-4.911816191571e-05 7.389564650234e-03 0.0 
0.0 0.0 -1.194426649262e-03 
-1.235108043989e-03 2.931339570481e-04 0.0 
2.931339570481e-04 7.856142431297e-03 0.0 
0.0 0.0 -1.175981821618e-03 
-7.472334457018e-04 -2.848888603521e-04 0.0 
-2.848888603521e-04 6.030064979728e-03 0.0 
0.0 0.0 -1.020516803968e-03 
-1.010840280569e-03 2.871682712165e-04 0.0 
2.871682712165e-04 5.990467797945e-03 0.0 
0.0 0.0 -9.041796124736e-04 
-1.188290086785e-03 -4.131460252783e-05 0.0 
-4.131460252783e-05 7.360236208895e-03 0.0 
0.0 0.0 -1.094228678348e-03 
-3.956150081579e-04 -8.444363927456e-04 0.0 
-8.444363927456e-04 3.798159061747e-03 0.0 
0.0 0.0 -7.154996274706e-04 
-4.250562518241e-04 -8.715186287138e-05 0.0 
-8.715186287138e-05 4.576837397274e-03 0.0 
0.0 0.0 -8.337527902170e-04 
-1.236732889268e-03 3.932687216903e-04 0.0 
3.932687216903e-04 7.932024372295e-03 0.0 
0.0 0.0 -1.191782302182e-03 
-1.016762164362e-03 -2.009947599505e-04 0.0 
-2.009947599505e-04 6.362580938042e-03 0.0 
0.0 0.0 -1.021464098896e-03 
-1.135162035509e-03 -5.768530929232e-05 0.0 
-5.768530929232e-05 6.910041935378e-03 0.0 
0.0 0.0 -1.028225029406e-03 
-7.343430317228e-04 -7.671896480507e-05 0.0 
-7.671896480507e-05 5.717453709460e-03 0.0 
0.0 0.0 -9.780777104595e-04 
-3.572725597686e-04 -1.352690279400e-03 0.0 
-1.352690279400e-03 1.583802329561e-03 0.0 
0.0 0.0 -3.505936111242e-04 
-1.159722748538e-03 -3.230530369319e-05 0.0 
-3.230530369319e-05 7.104974861712e-03 0.0 
0.0 0.0 -1.057861461704e-03 
-1.213686028729e-03 4.975227447854e-04 0.0 
4.975227447854e-04 8.277647080915e-03 0.0 
0.0 0.0 -1.268085107495e-03 
-1.141634375887e-03 -6.383832911746e-05 0.0 
-6.383832911746e-05 7.496062386317e-03 0.0 
0.0 0.0 -1.202195648613e-03 
-7.172722051064e-04 -5.438382500790e-04 0.0 
-5.438382500790e-04 4.116936776522e-03 0.0 
0.0 0.0 -6.923681691211e-04 
-1.013061704463e-03 -1.285173007321e-04 0.0 
-1.285173007321e-04 6.040176746182e-03 0.0 
0.0 0.0 -9.020111041354e-04 
-9.803558555424e-04 2.819126364211e-04 0.0 
2.819126364211e-04 5.747481973327e-03 0.0 
0.0 0.0 -8.677534307045e-04 
-6.277772364563e-04 -9.505441527148e-04 0.0 
-9.505441527148e-04 4.228315103377e-03 0.0 
0.0 0.0 -7.352749011056e-04 
-9.471295400473e-04 -2.290448642546e-04 0.0 
-2.290448642546e-04 6.104893151692e-03 0.0 
0.0 0.0 -9.927925938929e-04 
-9.496787292750e-04 -1.931802113086e-04 0.0 
-1.931802113086e-04 6.308676304585e-03 0.0 
0.0 0.0 -1.030113165296e-03 
-3.367468350593e-04 -4.171493311675e-04 0.0 
-4.171493311675e-04 1.462207300335e-03 0.0 
0.0 0.0 -2.466400652194e-04 
1.723252799300e-04 1.006036226683e-03 0.0 
1.006036226683e-03 1.258635118435e-03 0.0 
0.0 0.0 -4.508272210452e-04 
-2.636139264689e-04 -4.295683990350e-05 0.0 
-4.295683990350e-05 3.648292398008e-03 0.0 
0.0 0.0 -7.269793770173e-04 
-2.881552402749e-04 -7.723163841178e-04 0.0 
-7.723163841178e-04 3.494059092135e-03 0.0 
0.0 0.0 -6.875569550716e-04 
-5.987135522068e-04 9.581338196100e-04 0.0 
9.581338196100e-04 4.121697912248e-03 0.0 
0.0 0.0 -7.320784846625e-04 
-1.264443641134e-03 9.169602624825e-06 0.0 
9.169602624825e-06 8.228641212544e-03 0.0 
0.0 0.0 -1.225426844749e-03 
-1.225437596415e-03 5.454708430458e-04 0.0 
5.454708430458e-04 7.618255897701e-03 0.0 
0.0 0.0 -1.162686153705e-03 
-1.236580353686e-03 -8.584500076515e-05 0.0 
-8.584500076515e-05 7.903871079557e-03 0.0 
0.0 0.0 -1.173632101657e-03 
-7.521471418708e-04 4.524177914914e-04 0.0 
4.524177914914e-04 4.089944836528e-03 0.0 
0.0 0.0 -6.556197767577e-04 
-1.172411158405e-03 4.147315892345e-04 0.0 
4.147315892345e-04 7.176351707369e-03 0.0 
0.0 0.0 -1.082713561900e-03 
-9.808832725520e-04 -6.235651659416e-04 0.0 
-6.235651659416e-04 6.175367423925e-03 0.0 
0.0 0.0 -9.899156953211e-04 
-1.256868554146e-03 3.642260226585e-04 0.0 
3.642260226585e-04 8.010570571666e-03 0.0 
0.0 0.0 -1.198415070424e-03 
-1.131244473165e-03 -2.609112415896e-05 0.0 
-2.609112415896e-05 6.847199996424e-03 0.0 
0.0 0.0 -1.021631336281e-03 
-7.398403296460e-04 -9.100435650523e-04 0.0 
-9.100435650523e-04 4.351978419830e-03 0.0 
0.0 0.0 -7.266350563285e-04 
-1.966131980491e-04 1.343789576191e-04 0.0 
1.343789576191e-04 3.379385752975e-03 0.0 
0.0 0.0 -6.989458521267e-04 
-1.152804453403e-03 3.500950542230e-04 0.0 
3.500950542230e-04 7.051163395974e-03 0.0 
0.0 0.0 -1.060111126929e-03 
-1.235067592862e-03 -2.698356757779e-05 0.0 
-2.698356757779e-05 7.807694952398e-03 0.0 
0.0 0.0 -1.160283895044e-03 
-1.152447904070e-03 3.233521508878e-04 0.0 
3.233521508878e-04 7.106400049278e-03 0.0 
0.0 0.0 -1.066842251349e-03 
-1.126824314787e-03 3.260890582423e-04 0.0 
3.260890582423e-04 6.856832929645e-03 0.0 
0.0 0.0 -1.030428295937e-03 
-1.098624795041e-03 -1.306628866347e-04 0.0 
-1.306628866347e-04 7.036525786255e-03 0.0 
0.0 0.0 -1.124756152480e-03 
-9.788942539780e-04 1.410494860673e-05 0.0 
1.410494860673e-05 7.171321125896e-03 0.0 
0.0 0.0 -1.167530213646e-03 
-1.029227773633e-03 -1.448576550575e-04 0.0 
-1.448576550575e-04 6.777818390463e-03 0.0 
0.0 0.0 -1.096139997395e-03 
-8.853909467236e-04 -3.202143432842e-04 0.0 
-3.202143432842e-04 5.450131718365e-03 0.0 
0.0 0.0 -8.895595506238e-04 
-7.841401063913e-04 5.175313733597e-04 0.0 
5.175313733597e-04 4.039507771945e-03 0.0 
0.0 0.0 -6.419897747600e-04 
-7.984394936658e-04 -1.887921339689e-04 0.0 
-1.887921339689e-04 6.295485930606e-03 0.0 
0.0 0.0 -1.057160997780e-03 
-1.115933343197e-03 4.349000973092e-04 0.0 
4.349000973092e-04 6.664037002129e-03 0.0 
0.0 0.0 -1.010795753303e-03 
-5.956699057430e-04 -8.811439702695e-05 0.0 
-8.811439702695e-05 2.473036601140e-03 0.0 
0.0 0.0 -4.018221946533e-04 
-2.915622310354e-04 -5.737426198503e-04 0.0 
-5.737426198503e-04 3.731241780433e-03 0.0 
0.0 0.0 -7.241222962603e-04 
-4.504794563628e-04 -1.267768640868e-04 0.0 
-1.267768640868e-04 4.437238068048e-03 0.0 
0.0 0.0 -8.193994707270e-04 
-5.327307368017e-04 -1.017456922387e-04 0.0 
-1.017456922387e-04 5.084928060617e-03 0.0 
0.0 0.0 -8.986564694586e-04 
3.950181268846e-04 -2.404122539236e-04 0.0 
-2.404122539236e-04 7.824137722745e-04 0.0 
0.0 0.0 -4.157903644632e-04 
-2.054344188629e-04 -4.192766465647e-04 0.0 
-4.192766465647e-04 3.464515105753e-03 0.0 
0.0 0.0 -6.962026719631e-04 
-6.398120247413e-04 -1.116949900707e-04 0.0 
-1.116949900707e-04 5.588791715487e-03 0.0 
0.0 0.0 -9.636952012155e-04 
-8.444842612221e-04 6.249200502653e-04 0.0 
6.249200502653e-04 4.582153886631e-03 0.0 
0.0 0.0 -7.294090860402e-04 
-7.683331433156e-04 -4.669157271009e-04 0.0 
-4.669157271009e-04 4.555612432421e-03 0.0 
0.0 0.0 -7.579899565570e-04 
-1.071508205892e-03 -5.121927920590e-05 0.0 
-5.121927920590e-05 6.390736393491e-03 0.0 
0.0 0.0 -9.556638187253e-04 
-8.714266706773e-04 2.063026129845e-04 0.0 
2.063026129845e-04 5.095248433608e-03 0.0 
0.0 0.0 -7.638029664831e-04 
-6.864860403863e-05 6.865817311915e-04 0.0 
6.865817311915e-04 5.756289586921e-04 0.0 
0.0 0.0 -2.172772948515e-04 
-8.538627514522e-04 -7.550684867704e-04 0.0 
-7.550684867704e-04 5.254936553017e-03 0.0 
0.0 0.0 -8.580817703278e-04 
-8.031553766191e-04 9.023974365030e-05 0.0 
9.023974365030e-05 6.192888911591e-03 0.0 
0.0 0.0 -1.051835763028e-03 
-1.248237691654e-03 5.633939617195e-04 0.0 
5.633939617195e-04 7.887034516043e-03 0.0 
0.0 0.0 -1.196871286280e-03 
-3.729352427207e-04 2.857944806302e-04 0.0 
2.857944806302e-04 4.199383336330e-03 0.0 
0.0 0.0 -7.999758813884e-04 
-8.246860114036e-04 -3.906175878888e-04 0.0 
-3.906175878888e-04 5.000590526334e-03 0.0 
0.0 0.0 -8.237210115815e-04 
-1.081299147246e-03 -7.697289611938e-05 0.0 
-7.697289611938e-05 6.459732028031e-03 0.0 
0.0 0.0 -9.620958722924e-04 
-2.880056971411e-04 8.925028292911e-04 0.0 
8.925028292911e-04 1.145866698786e-03 0.0 
0.0 0.0 -3.038018182983e-04 
-7.446793118804e-04 1.621554593950e-04 0.0 
1.621554593950e-04 5.956534969945e-03 0.0 
0.0 0.0 -1.023361637732e-03 
-4.737891057000e-04 -2.200266757859e-04 0.0 
-2.200266757859e-04 4.791461031182e-03 0.0 
0.0 0.0 -8.619475031456e-04 
-8.828155885906e-04 2.614625346270e-04 0.0 
2.614625346270e-04 4.904715470600e-03 0.0 
0.0 0.0 -7.615729788896e-04 
-9.809961927394e-04 -5.936604313144e-04 0.0 
-5.936604313144e-04 6.379528294436e-03 0.0 
0.0 0.0 -1.027225276160e-03 
-1.932500912874e-05 -1.677380896941e-03 0.0 
-1.677380896941e-03 1.233986358287e-03 0.0 
0.0 0.0 -3.946419382404e-04 
-9.859370989770e-04 -5.573179193325e-04 0.0 
-5.573179193325e-04 6.591591148133e-03 0.0 
0.0 0.0 -1.064556537081e-03 
-1.075263487039e-03 -6.290518893134e-05 0.0 
-6.290518893134e-05 7.229861812646e-03 0.0 
0.0 0.0 -1.170878753521e-03 
-6.948674803166e-04 2.455637071473e-04 0.0 
2.455637071473e-04 5.729378568502e-03 0.0 
0.0 0.0 -9.948919501216e-04 
-1.162320360260e-03 -6.372562573002e-05 0.0 
-6.372562573002e-05 7.161310363851e-03 0.0 
0.0 0.0 -1.064574987933e-03 
-9.584753352366e-04 2.606905829813e-04 0.0 
2.606905829813e-04 6.727836890182e-03 0.0 
0.0 0.0 -1.082686220397e-03 
-1.082949588594e-03 -4.851124086325e-04 0.0 
-4.851124086325e-04 7.296469259281e-03 0.0 
0.0 0.0 -1.168035910845e-03 
-5.459113610208e-04 8.695894781593e-04 0.0 
8.695894781593e-04 1.682549247342e-03 0.0 
0.0 0.0 -2.917408095836e-04 
-1.104897704515e-03 -4.845952140229e-05 0.0 
-4.845952140229e-05 6.655011128943e-03 0.0 
0.0 0.0 -9.919185416031e-04 
-1.022193057884e-03 1.318252200891e-04 0.0 
1.318252200891e-04 7.257050403107e-03 0.0 
0.0 0.0 -1.173906618061e-03 
-1.179945511942e-03 3.471716249997e-04 0.0 
3.471716249997e-04 7.305593288174e-03 0.0 
0.0 0.0 -1.096489272820e-03 
-5.875834666640e-04 2.546818746217e-04 0.0 
2.546818746217e-04 5.224796690614e-03 0.0 
0.0 0.0 -9.297700869391e-04 
-2.515263867691e-04 -2.254429621664e-04 0.0 
-2.254429621664e-04 3.754254559254e-03 0.0 
0.0 0.0 -7.325247082200e-04 
-9.641389493889e-04 -2.217264104135e-04 0.0 
-2.217264104135e-04 5.113633075458e-03 0.0 
0.0 0.0 -8.069452076110e-04 
4.285236195004e-04 1.396212384085e-04 0.0 
1.396212384085e-04 -1.219952762883e-04 0.0 
0.0 0.0 -1.313692899480e-04 
-1.204146700831e-03 3.439641556613e-04 0.0 
3.439641556613e-04 7.554548687955e-03 0.0 
0.0 0.0 -1.132911322290e-03 
-6.253175333027e-04 -2.826075305287e-05 0.0 
-2.826075305287e-05 2.680000675139e-03 0.0 
0.0 0.0 -4.309687334850e-04 
-5.749579867921e-04 6.771703350766e-04 0.0 
6.771703350766e-04 2.115308728038e-03 0.0 
0.0 0.0 -3.582286249851e-04 
-9.529535044554e-04 3.072244071368e-04 0.0 
3.072244071368e-04 6.570888144221e-03 0.0 
0.0 0.0 -1.054483161448e-03 
-1.255167442230e-03 3.201007171124e-04 0.0 
3.201007171124e-04 8.070344212991e-03 0.0 
0.0 0.0 -1.206783194404e-03 
-8.215496895040e-05 -1.772999525451e-03 0.0 
-1.772999525451e-03 1.193950944070e-03 0.0 
0.0 0.0 -3.966701258844e-04 
-7.833558623484e-04 4.482971625863e-04 0.0 
4.482971625863e-04 5.133302818514e-03 0.0 
0.0 0.0 -8.358581584049e-04 
-1.123137751770e-03 3.572847673877e-04 0.0 
3.572847673877e-04 6.794615582447e-03 0.0 
0.0 0.0 -1.023814440555e-03 
-8.765385540671e-04 -7.492880491734e-04 0.0 
-7.492880491734e-04 4.884441485584e-03 0.0 
0.0 0.0 -7.840072721007e-04 
2.874574446344e-04 -1.091275984428e-03 0.0 
-1.091275984428e-03 9.021895657290e-04 0.0 
0.0 0.0 -4.027365510179e-04 
-3.368056399330e-04 1.320783307670e-03 0.0 
1.320783307670e-03 2.512908282168e-03 0.0 
0.0 0.0 -5.292697486782e-04 
-2.272190685037e-04 -1.261695231052e-03 0.0 
-1.261695231052e-03 1.204255834380e-03 0.0 
0.0 0.0 -3.563018015714e-04 
-5.481856080811e-06 -1.360265015014e-03 0.0 
-1.360265015014e-03 1.114057395476e-03 0.0 
0.0 0.0 -3.608158092454e-04 
-1.672715856143e-04 -1.512279546231e-03 0.0 
-1.512279546231e-03 1.180506359655e-03 0.0 
0.0 0.0 -3.382523083772e-04 
-4.805060594133e-04 2.668098062439e-04 0.0 
2.668098062439e-04 4.715407643663e-03 0.0 
0.0 0.0 -8.647910268431e-04 
-1.323581223665e-03 3.388354907586e-04 0.0 
3.388354907586e-04 9.015003947055e-03 0.0 
0.0 0.0 -1.324146187826e-03 
-6.144383844702e-04 5.601929244688e-04 0.0 
5.601929244688e-04 2.582601934857e-03 0.0 
0.0 0.0 -4.244337567297e-04 
-1.156564282164e-03 -1.287267705775e-04 0.0 
-1.287267705775e-04 7.284536477905e-03 0.0 
0.0 0.0 -1.153422328581e-03 
-1.335800596959e-04 5.879693086389e-04 0.0 
5.879693086389e-04 2.932124141139e-03 0.0 
0.0 0.0 -6.430507458085e-04 
-1.103593163525e-03 -2.311027910085e-05 0.0 
-2.311027910085e-05 6.594057391582e-03 0.0 
0.0 0.0 -9.856407671940e-04 
6.097401795475e-04 2.716157955159e-04 0.0 
2.716157955159e-04 -1.627804699296e-04 0.0 
0.0 0.0 -1.915541612648e-04 
-1.121189365028e-03 -4.313739104837e-04 0.0 
-4.313739104837e-04 7.519397857683e-03 0.0 
0.0 0.0 -1.206759618350e-03 
-1.369628119913e-04 -1.636536330447e-03 0.0 
-1.636536330447e-03 1.233538073419e-03 0.0 
0.0 0.0 -4.045577262616e-04 
-7.109907021558e-04 -5.092194229215e-05 0.0 
-5.092194229215e-05 3.143336407810e-03 0.0 
0.0 0.0 -4.995972236199e-04 
-7.610689947692e-04 3.254275537369e-04 0.0 
3.254275537369e-04 6.017676875730e-03 0.0 
0.0 0.0 -1.031547093314e-03 
-5.009347095537e-04 -8.784504666191e-04 0.0 
-8.784504666191e-04 4.097798542798e-03 0.0 
0.0 0.0 -7.436172176343e-04 
-9.490922030985e-04 8.355820245775e-05 0.0 
8.355820245775e-05 6.977686204134e-03 0.0 
0.0 0.0 -1.139062866688e-03 
-5.334594474911e-04 7.731459396832e-04 0.0 
7.731459396832e-04 3.293236008727e-03 0.0 
0.0 0.0 -5.762899171568e-04 
-1.157169932203e-03 5.876132975745e-05 0.0 
5.876132975745e-05 6.976179943537e-03 0.0 
0.0 0.0 -1.044446328659e-03 
-1.026845760321e-03 3.718808168871e-04 0.0 
3.718808168871e-04 7.294887320679e-03 0.0 
0.0 0.0 -1.198892520503e-03 
-1.098955546930e-03 3.331596057930e-04 0.0 
3.331596057930e-04 6.603659082882e-03 0.0 
0.0 0.0 -9.940794652285e-04 
-1.269540035819e-03 1.940023298487e-04 0.0 
1.940023298487e-04 7.944098741491e-03 0.0 
0.0 0.0 -1.194784139986e-03 
-1.184726223875e-03 -2.348624992813e-06 0.0 
-2.348624992813e-06 7.294407597930e-03 0.0 
0.0 0.0 -1.087318097122e-03 
-1.210012004909e-03 2.996776911562e-05 0.0 
2.996776911562e-05 7.486490191622e-03 0.0 
0.0 0.0 -1.116677092124e-03 
1.863822195981e-04 1.500592688013e-03 0.0 
1.500592688013e-03 6.610975863953e-04 0.0 
0.0 0.0 -3.632056311400e-04 
-1.142912226621e-03 -1.436249115933e-04 0.0 
-1.436249115933e-04 7.061947710655e-03 0.0 
0.0 0.0 -1.115908039155e-03 
-1.147672819159e-03 3.821528619329e-04 0.0 
3.821528619329e-04 6.988478452450e-03 0.0 
0.0 0.0 -1.053364550114e-03 
-4.264879333549e-04 6.971974912426e-04 0.0 
6.971974912426e-04 4.141626674137e-03 0.0 
0.0 0.0 -7.792489223127e-04 
-6.776919640089e-04 4.847017937331e-04 0.0 
4.847017937331e-04 3.056038122043e-03 0.0 
0.0 0.0 -4.908673385051e-04 
-1.078927379078e-03 1.409149927546e-05 0.0 
1.409149927546e-05 7.640444635147e-03 0.0 
0.0 0.0 -1.232292820449e-03 
3.227356576489e-04 7.350862602758e-04 0.0 
7.350862602758e-04 8.113095771019e-04 0.0 
0.0 0.0 -4.142712813041e-04 
-6.537509052586e-04 -4.383754105270e-04 0.0 
-4.383754105270e-04 2.983336896445e-03 0.0 
0.0 0.0 -4.655197245388e-04 
-9.005107576278e-04 4.600258062660e-04 0.0 
4.600258062660e-04 6.613923225017e-03 0.0 
0.0 0.0 -1.105063927110e-03 
-3.654007350969e-04 -1.479495410984e-04 0.0 
-1.479495410984e-04 1.815899396191e-03 0.0 
0.0 0.0 -2.939799329518e-04 
-5.977371900919e-04 5.010127079244e-04 0.0 
5.010127079244e-04 4.620714897895e-03 0.0 
0.0 0.0 -7.924235178053e-04 
-8.040024099011e-04 2.359492841355e-04 0.0 
2.359492841355e-04 6.229578808837e-03 0.0 
0.0 0.0 -1.059843925468e-03 
-1.255635553756e-03 7.173795077007e-05 0.0 
7.173795077007e-05 7.907591642771e-03 0.0 
0.0 0.0 -1.181155146799e-03 
-1.282202030770e-03 1.124926252761e-04 0.0 
1.124926252761e-04 8.112071435222e-03 0.0 
0.0 0.0 -1.210943746944e-03 
-7.487229487199e-04 -1.168956266195e-04 0.0 
-1.168956266195e-04 6.087931342050e-03 0.0 
0.0 0.0 -1.028825005900e-03 
-1.212248021085e-03 -1.436521725135e-05 0.0 
-1.436521725135e-05 7.552882477900e-03 0.0 
0.0 0.0 -1.123737208958e-03 
-2.386760142168e-04 7.145577053840e-04 0.0 
7.145577053840e-04 3.288051445445e-03 0.0 
0.0 0.0 -6.793824814286e-04 
-1.022910334669e-03 3.054988306638e-04 0.0 
3.054988306638e-04 6.728691543712e-03 0.0 
0.0 0.0 -1.062452857821e-03 
-7.369445152822e-04 4.219749857923e-04 0.0 
4.219749857923e-04 3.529735228100e-03 0.0 
0.0 0.0 -5.576509564599e-04 
-1.225600923705e-03 6.150358502408e-04 0.0 
6.150358502408e-04 7.637406645108e-03 0.0 
0.0 0.0 -1.181751882508e-03 
-8.003950005641e-04 3.733577663785e-04 0.0 
3.733577663785e-04 4.007249233080e-03 0.0 
0.0 0.0 -6.243763318321e-04 
-7.858165178840e-04 3.201249060732e-04 0.0 
3.201249060732e-04 4.232155620723e-03 0.0 
0.0 0.0 -6.577503189808e-04 
-3.421685830446e-04 4.506546569180e-04 0.0 
4.506546569180e-04 3.987712693438e-03 0.0 
0.0 0.0 -7.717627972493e-04 
-8.541855867529e-04 3.616408520390e-04 0.0 
3.616408520390e-04 4.495910448337e-03 0.0 
0.0 0.0 -6.911701761307e-04 
-6.466553023066e-04 3.566499724765e-04 0.0 
3.566499724765e-04 5.190189138744e-03 0.0 
0.0 0.0 -8.833033330409e-04 
-4.075558796588e-04 5.082935923898e-04 0.0 
5.082935923898e-04 3.946901844573e-03 0.0 
0.0 0.0 -7.209687761305e-04 
-3.183347553168e-04 -3.900876355230e-04 0.0 
-3.900876355230e-04 3.990865140146e-03 0.0 
0.0 0.0 -7.606211034647e-04 
4.197691498195e-04 -7.924817374046e-04 0.0 
-7.924817374046e-04 5.841418248199e-04 0.0 
0.0 0.0 -3.925496596906e-04 
-2.632176995851e-04 3.130804871778e-04 0.0 
3.130804871778e-04 3.673894068274e-03 0.0 
0.0 0.0 -7.353490689725e-04 
-1.228427596361e-03 3.654441690398e-04 0.0 
3.654441690398e-04 7.753036613507e-03 0.0 
0.0 0.0 -1.162517914204e-03 
-1.234586540092e-03 6.496817172604e-04 0.0 
6.496817172604e-04 7.840810725913e-03 0.0 
0.0 0.0 -1.195263893373e-03 
-1.079254607357e-03 -1.716834017040e-04 0.0 
-1.716834017040e-04 6.610697418479e-03 0.0 
0.0 0.0 -1.050100468764e-03 
-9.999924356562e-04 4.337068162590e-04 0.0 
4.337068162590e-04 7.101876474641e-03 0.0 
0.0 0.0 -1.170266998156e-03 
-4.393592797757e-04 -4.178536690016e-04 0.0 
-4.178536690016e-04 4.023524415681e-03 0.0 
0.0 0.0 -7.463264885205e-04 
-1.196792592392e-03 4.110574340668e-04 0.0 
4.110574340668e-04 7.430663622206e-03 0.0 
0.0 0.0 -1.119019617531e-03 
-3.103812770642e-04 1.366237006987e-04 0.0 
1.366237006987e-04 3.912213435347e-03 0.0 
0.0 0.0 -7.634232545038e-04 
-1.186941185396e-03 -1.093564622626e-04 0.0 
-1.093564622626e-04 7.299889317220e-03 0.0 
0.0 0.0 -1.144395376583e-03 
-1.175446045210e-03 3.743988593539e-04 0.0 
3.743988593539e-04 7.239811730626e-03 0.0 
0.0 0.0 -1.089631904438e-03 
-1.184480952279e-03 4.301367348574e-05 0.0 
4.301367348574e-05 7.231184503722e-03 0.0 
0.0 0.0 -1.080451501872e-03 
-6.366755747078e-04 1.541674785508e-04 0.0 
1.541674785508e-04 5.452650900242e-03 0.0 
0.0 0.0 -9.580909834143e-04 
-2.389238927474e-04 5.103421139426e-04 0.0 
5.103421139426e-04 3.464348160629e-03 0.0 
0.0 0.0 -7.073300717972e-04 
-1.091479932409e-03 3.053404772209e-04 0.0 
3.053404772209e-04 7.161436277653e-03 0.0 
0.0 0.0 -1.126038590206e-03 
-9.842000416471e-04 6.396846099915e-04 0.0 
6.396846099915e-04 5.813603015757e-03 0.0 
0.0 0.0 -9.169694165663e-04 
1.883793847700e-04 -1.613056327393e-03 0.0 
-1.613056327393e-03 7.099727485344e-04 0.0 
0.0 0.0 -3.670597958229e-04 
4.158840995285e-04 -1.069455846307e-04 0.0 
-1.069455846307e-04 9.093131002263e-04 0.0 
0.0 0.0 -4.209936697170e-04 
-5.253520320544e-04 1.113226159763e-03 0.0 
1.113226159763e-03 3.274387380493e-03 0.0 
0.0 0.0 -6.061407060701e-04 
-8.148800044768e-04 7.943320417803e-04 0.0 
7.943320417803e-04 5.072587073095e-03 0.0 
0.0 0.0 -8.384786063130e-04 
-1.230266496445e-03 -6.856974243120e-05 0.0 
-6.856974243120e-05 7.537797729461e-03 0.0 
0.0 0.0 -1.173545322487e-03 
-1.159784806983e-03 4.546774843699e-06 0.0 
4.546774843699e-06 7.042624556690e-03 0.0 
0.0 0.0 -1.051102540299e-03 
-2.045778073669e-04 -2.934353049160e-05 0.0 
-2.934353049160e-05 3.544788899175e-03 0.0 
0.0 0.0 -7.045205360201e-04 
-9.013823451461e-04 3.641498331546e-04 0.0 
3.641498331546e-04 5.853350218943e-03 0.0 
0.0 0.0 -9.344940742331e-04 
-8.532834150584e-04 1.785665259931e-04 0.0 
1.785665259931e-04 6.467721788847e-03 0.0 
0.0 0.0 -1.088599101970e-03 
-1.213199839846e-03 -4.701032574329e-05 0.0 
-4.701032574329e-05 7.611187462875e-03 0.0 
0.0 0.0 -1.130578931274e-03 
-1.163123546776e-03 3.469650352866e-04 0.0 
3.469650352866e-04 7.457428311297e-03 0.0 
0.0 0.0 -1.160781586281e-03 
-1.064121038643e-03 3.592685452389e-04 0.0 
3.592685452389e-04 6.295822569873e-03 0.0 
0.0 0.0 -9.517943393003e-04 
-9.431187375283e-04 -8.030312093775e-06 0.0 
-8.030312093775e-06 6.723807310886e-03 0.0 
0.0 0.0 -1.113435711030e-03 
-3.640285380992e-04 -2.251334255899e-04 0.0 
-2.251334255899e-04 4.276860424883e-03 0.0 
0.0 0.0 -7.971871449874e-04 
-8.575470034421e-04 -2.591277644309e-04 0.0 
-2.591277644309e-04 6.522660233149e-03 0.0 
0.0 0.0 -1.086118700983e-03 
-6.488096190532e-04 8.782975641900e-04 0.0 
8.782975641900e-04 4.555098411154e-03 0.0 
0.0 0.0 -7.951163407912e-04 
-1.259477151619e-03 2.377000778179e-05 0.0 
2.377000778179e-05 7.994105241717e-03 0.0 
0.0 0.0 -1.188704642750e-03 
-1.188566355983e-03 2.821785558319e-04 0.0 
2.821785558319e-04 7.789552889991e-03 0.0 
0.0 0.0 -1.200489323427e-03 
-5.291595357548e-04 1.464001696405e-04 0.0 
1.464001696405e-04 4.944674619640e-03 0.0 
0.0 0.0 -8.929891684399e-04 
5.077877396978e-04 3.026021049410e-04 0.0 
3.026021049410e-04 3.943566526323e-04 0.0 
0.0 0.0 -3.866333109986e-04 
-9.967575789130e-04 6.124990556396e-04 0.0 
6.124990556396e-04 6.815699392306e-03 0.0 
0.0 0.0 -1.113685640909e-03 
-6.605390437865e-04 4.261094964972e-04 0.0 
4.261094964972e-04 5.059149157301e-03 0.0 
0.0 0.0 -8.555605426019e-04 
-1.830081198130e-04 1.866635750844e-04 0.0 
1.866635750844e-04 3.368216116446e-03 0.0 
0.0 0.0 -6.765734244908e-04 
-5.817203437329e-04 -2.125841840423e-04 0.0 
-2.125841840423e-04 5.299242741235e-03 0.0 
0.0 0.0 -9.269463096178e-04 
-9.296871453603e-04 -5.069518437094e-04 0.0 
-5.069518437094e-04 6.554705833196e-03 0.0 
0.0 0.0 -1.072977024862e-03 
5.145493605139e-04 -6.481882605914e-04 0.0 
-6.481882605914e-04 5.138628621790e-04 0.0 
0.0 0.0 -3.958212347391e-04 
-4.207868633399e-04 1.388755270071e-04 0.0 
1.388755270071e-04 4.431893145968e-03 0.0 
0.0 0.0 -8.281205301186e-04 
-1.057518774056e-03 5.392644449481e-04 0.0 
5.392644449481e-04 6.206831668111e-03 0.0 
0.0 0.0 -9.596127204057e-04 
-1.238644968873e-03 -4.648423040969e-04 0.0 
-4.648423040969e-04 7.603472997752e-03 0.0 
0.0 0.0 -1.170838755190e-03 
-1.067041670428e-03 5.715302009941e-04 0.0 
5.715302009941e-04 6.356528225694e-03 0.0 
0.0 0.0 -9.876491701491e-04 
-9.841945622355e-04 6.610492595006e-04 0.0 
6.610492595006e-04 6.661208694162e-03 0.0 
0.0 0.0 -1.085374163265e-03 
-1.045085745863e-03 5.003784013052e-04 0.0 
5.003784013052e-04 6.049842854282e-03 0.0 
0.0 0.0 -9.316602363005e-04 
-1.022837492668e-03 4.381275546802e-04 0.0 
4.381275546802e-04 5.716010034056e-03 0.0 
0.0 0.0 -8.756372412555e-04 
-9.850681647526e-04 6.675723233926e-04 0.0 
6.675723233926e-04 5.952563133260e-03 0.0 
0.0 0.0 -9.447135688329e-04 
-9.326630633240e-04 3.930283305116e-04 0.0 
3.930283305116e-04 6.810995827980e-03 0.0 
0.0 0.0 -1.133505030480e-03 
-1.106660061021e-03 -5.521563816417e-04 0.0 
-5.521563816417e-04 6.894855264338e-03 0.0 
0.0 0.0 -1.084522140297e-03 
-1.120799229937e-03 3.838899692646e-04 0.0 
3.838899692646e-04 6.737454909863e-03 0.0 
0.0 0.0 -1.017300281410e-03 
-1.265839226480e-03 4.523982644349e-04 0.0 
4.523982644349e-04 8.063487692737e-03 0.0 
0.0 0.0 -1.212886757924e-03 
-1.030324522425e-03 4.628372417255e-04 0.0 
4.628372417255e-04 5.887641382241e-03 0.0 
0.0 0.0 -9.037302385344e-04 
2.653135269754e-05 8.001600084414e-05 0.0 
8.001600084414e-05 2.476344782206e-03 0.0 
0.0 0.0 -5.760585567884e-04 
-1.044239643313e-03 2.376498451470e-04 0.0 
2.376498451470e-04 7.187723140536e-03 0.0 
0.0 0.0 -1.146733564437e-03 
-1.253924981079e-03 -4.907598213233e-05 0.0 
-4.907598213233e-05 8.057805599269e-03 0.0 
0.0 0.0 -1.196744929305e-03 
-5.355464959753e-04 8.349410411799e-04 0.0 
8.349410411799e-04 4.335085481445e-03 0.0 
0.0 0.0 -7.869228524964e-04 
-6.233378135021e-04 8.291713004523e-04 0.0 
8.291713004523e-04 4.669146782253e-03 0.0 
0.0 0.0 -8.226527892688e-04 
-9.042297380501e-05 1.578503348626e-05 0.0 
1.578503348626e-05 3.015977975308e-03 0.0 
0.0 0.0 -6.402419685743e-04 
-1.145557266538e-03 4.246140586136e-04 0.0 
4.246140586136e-04 6.921583184568e-03 0.0 
0.0 0.0 -1.046609947212e-03 
-6.981713726155e-04 9.056832497172e-04 0.0 
9.056832497172e-04 3.852457966674e-03 0.0 
0.0 0.0 -6.500746975200e-04 
-6.825381544126e-04 6.942299752500e-04 0.0 
6.942299752500e-04 5.269578602974e-03 0.0 
0.0 0.0 -9.137630964162e-04 
-6.717413934869e-04 5.961928435860e-04 0.0 
5.961928435860e-04 3.907642713709e-03 0.0 
0.0 0.0 -6.476280927198e-04 
-8.299310340804e-04 4.003109170218e-04 0.0 
4.003109170218e-04 6.314977660297e-03 0.0 
0.0 0.0 -1.068254633495e-03 
-1.134995185088e-03 2.756692802088e-04 0.0 
2.756692802088e-04 7.594750376581e-03 0.0 
0.0 0.0 -1.211228670573e-03 
-1.360533559688e-04 -2.215574873168e-04 0.0 
-2.215574873168e-04 3.223027219763e-03 0.0 
0.0 0.0 -6.682047883386e-04 
4.373904628404e-04 -2.393257178328e-04 0.0 
-2.393257178328e-04 -1.132865459339e-04 0.0 
0.0 0.0 -1.389016786742e-04 
-1.258599255868e-03 5.175436206336e-04 0.0 
5.175436206336e-04 7.974357198458e-03 0.0 
0.0 0.0 -1.207184308065e-03 
-7.509449296831e-04 8.117398232865e-04 0.0 
8.117398232865e-04 4.141196512392e-03 0.0 
0.0 0.0 -6.853381776776e-04 
-4.357225566231e-04 -2.745654093134e-04 0.0 
-2.745654093134e-04 4.218247831069e-03 0.0 
0.0 0.0 -7.828151049093e-04 
-1.060590658414e-03 6.112856710438e-04 0.0 
6.112856710438e-04 7.289270463529e-03 0.0 
0.0 0.0 -1.177925372349e-03 
-1.133119087327e-03 1.716253131945e-05 0.0 
1.716253131945e-05 6.790529249754e-03 0.0 
0.0 0.0 -1.015069748350e-03 
-1.047918274143e-03 -5.722033483047e-04 0.0 
-5.722033483047e-04 6.640384232333e-03 0.0 
0.0 0.0 -1.055879354346e-03 
-3.002045645479e-04 4.799822856897e-04 0.0 
4.799822856897e-04 3.594772661625e-03 0.0 
0.0 0.0 -6.851017020021e-04 
1.437633437549e-04 -1.583243096343e-05 0.0 
-1.583243096343e-05 -4.287346076812e-05 0.0 
0.0 0.0 -4.323852128003e-05 
-1.294332022630e-03 -4.590388614896e-04 0.0 
-4.590388614896e-04 7.891763322768e-03 0.0 
0.0 0.0 -1.202131160132e-03 
-7.979241755136e-04 7.967983468878e-04 0.0 
7.967983468878e-04 5.189819245057e-03 0.0 
0.0 0.0 -8.660506973337e-04 
-7.515738742409e-04 1.099645178349e-04 0.0 
1.099645178349e-04 5.981619188890e-03 0.0 
0.0 0.0 -1.007142642412e-03 
-1.115772722662e-03 6.613759768766e-04 0.0 
6.613759768766e-04 7.287802445254e-03 0.0 
0.0 0.0 -1.157822513452e-03 
0.0 0.0 0.0 
0.0 0.0 0.0 
0.0 0.0 0.0 
-1.020410346766e-03 -1.741879484343e-04 0.0 
-1.741879484343e-04 6.569036879710e-03 0.0 
0.0 0.0 -1.058763633038e-03 
-1.044584882710e-04 9.374141262810e-04 0.0 
9.374141262810e-04 2.179572843365e-03 0.0 
0.0 0.0 -4.919579008500e-04 
-1.074016419554e-03 -9.865194451983e-06 0.0 
-9.865194451983e-06 6.344021920267e-03 0.0 
0.0 0.0 -9.498437721210e-04 
-9.305727240655e-04 -6.933921297842e-04 0.0 
-6.933921297842e-04 5.329347824549e-03 0.0 
0.0 0.0 -8.496012432876e-04 
-1.513106441094e-04 3.496683072490e-04 0.0 
3.496683072490e-04 3.137268859880e-03 0.0 
0.0 0.0 -6.709551114794e-04 
-1.200608795278e-03 -4.872905826385e-04 0.0 
-4.872905826385e-04 7.367763642178e-03 0.0 
0.0 0.0 -1.141635569211e-03 
-6.896908437113e-04 7.588366273899e-04 0.0 
7.588366273899e-04 5.123258515759e-03 0.0 
0.0 0.0 -8.859145181037e-04 
-3.682506920307e-05 4.047925217802e-04 0.0 
4.047925217802e-04 2.589749957424e-03 0.0 
0.0 0.0 -6.067458373204e-04 
-8.340011645670e-04 4.008480374015e-04 0.0 
4.008480374015e-04 5.557081142302e-03 0.0 
0.0 0.0 -8.989548790023e-04 
3.022096838876e-04 -3.038195152345e-04 0.0 
-3.038195152345e-04 -5.124151784209e-05 0.0 
0.0 0.0 -1.075577854481e-04 
-9.546355211556e-04 3.234338831530e-04 0.0 
3.234338831530e-04 6.429567223705e-03 0.0 
0.0 0.0 -1.026417656363e-03 
-8.158927749848e-04 -3.909777349408e-05 0.0 
-3.909777349408e-05 6.386420010715e-03 0.0 
0.0 0.0 -1.065496432940e-03 
-1.247055565640e-03 3.319997532961e-04 0.0 
3.319997532961e-04 7.921779384989e-03 0.0 
0.0 0.0 -1.233600908384e-03 
-1.025284337354e-03 2.945178670449e-04 0.0 
2.945178670449e-04 6.877652576001e-03 0.0 
0.0 0.0 -1.090749533212e-03 
2.434503745851e-04 -1.578934998957e-04 0.0 
-1.578934998957e-04 1.529841444305e-03 0.0 
0.0 0.0 -4.758149136988e-04 
-1.100855494631e-03 -5.513580386133e-04 0.0 
-5.513580386133e-04 6.680884096093e-03 0.0 
0.0 0.0 -1.047231727503e-03 
-1.252169978070e-03 3.748871630309e-04 0.0 
3.748871630309e-04 8.183246127380e-03 0.0 
0.0 0.0 -1.228155452712e-03 
-1.172998084832e-03 8.287498321717e-05 0.0 
8.287498321717e-05 7.902166307926e-03 0.0 
0.0 0.0 -1.267145247477e-03 
-8.845763971731e-04 3.343706134048e-05 0.0 
3.343706134048e-05 6.685188464531e-03 0.0 
0.0 0.0 -1.102242875413e-03 
-2.824655770355e-04 3.019818645340e-04 0.0 
3.019818645340e-04 3.719180698001e-03 0.0 
0.0 0.0 -7.127912709901e-04 
-8.914221389397e-04 3.576211756874e-04 0.0 
3.576211756874e-04 5.989320852496e-03 0.0 
0.0 0.0 -9.624716764950e-04 
-1.265622827008e-03 -3.602381928261e-05 0.0 
-3.602381928261e-05 7.525688479598e-03 0.0 
0.0 0.0 -1.164316760544e-03 
-1.026823558190e-03 -3.127358117122e-04 0.0 
-3.127358117122e-04 5.188290229651e-03 0.0 
0.0 0.0 -7.878971455476e-04 
-9.790335059978e-04 6.764140397440e-04 0.0 
6.764140397440e-04 6.506573428341e-03 0.0 
0.0 0.0 -1.057196955382e-03 
-1.092783271967e-03 3.587775336083e-04 0.0 
3.587775336083e-04 6.543365283594e-03 0.0 
0.0 0.0 -9.877098122506e-04 
-1.155871143424e-03 -5.200772835953e-04 0.0 
-5.200772835953e-04 7.131963810306e-03 0.0 
0.0 0.0 -1.112977059762e-03 
-1.053791982519e-03 -5.418051239347e-04 0.0 
-5.418051239347e-04 6.849369446006e-03 0.0 
0.0 0.0 -1.093234982489e-03 
-8.344751970142e-04 -5.063632387036e-06 0.0 
-5.063632387036e-06 4.624983012521e-03 0.0 
0.0 0.0 -7.313513689239e-04 
-8.293658591313e-04 3.666703434100e-05 0.0 
3.666703434100e-05 4.623218336322e-03 0.0 
0.0 0.0 -7.310574395863e-04 
-1.097030069405e-03 1.613810298079e-04 0.0 
1.613810298079e-04 6.539696336596e-03 0.0 
0.0 0.0 -9.927888931629e-04 
-9.125545325387e-04 7.100995827850e-04 0.0 
7.100995827850e-04 6.060357295598e-03 0.0 
0.0 0.0 -9.930598132463e-04 
-9.889474269995e-04 -6.231936758992e-04 0.0 
-6.231936758992e-04 5.582412655685e-03 0.0 
0.0 0.0 -8.780428295617e-04 
-1.024071250989e-03 2.871939654452e-04 0.0 
2.871939654452e-04 6.293682207182e-03 0.0 
0.0 0.0 -9.775429604618e-04 
-6.061110354643e-04 7.542189021973e-04 0.0 
7.542189021973e-04 4.796279324774e-03 0.0 
0.0 0.0 -8.502279965035e-04 
-1.039665177067e-03 6.008961477257e-05 0.0 
6.008961477257e-05 7.149947818513e-03 0.0 
0.0 0.0 -1.180288150054e-03 
-3.419429553988e-04 7.892463912468e-04 0.0 
7.892463912468e-04 3.645374748844e-03 0.0 
0.0 0.0 -7.154845226688e-04 
-1.354053466570e-03 2.682798114320e-04 0.0 
2.682798114320e-04 9.013564030942e-03 0.0 
0.0 0.0 -1.323793839065e-03 
-9.392924140876e-04 3.695422570173e-04 0.0 
3.695422570173e-04 5.310514062737e-03 0.0 
0.0 0.0 -8.119939454945e-04 
-5.728660710208e-04 4.262528038404e-04 0.0 
4.262528038404e-04 4.737723853376e-03 0.0 
0.0 0.0 -8.199314282332e-04 
-8.958346709753e-04 -3.297015998196e-04 0.0 
-3.297015998196e-04 5.260659561238e-03 0.0 
0.0 0.0 -8.523954645778e-04 
2.690092700999e-04 2.909500152897e-04 0.0 
2.909500152897e-04 1.354854423747e-03 0.0 
0.0 0.0 -4.479040077299e-04 
-8.117880315537e-04 -8.289707142058e-04 0.0 
-8.289707142058e-04 4.623452632362e-03 0.0 
0.0 0.0 -7.551671247638e-04 
-8.525904846397e-04 7.508503903319e-04 0.0 
7.508503903319e-04 5.621343722007e-03 0.0 
0.0 0.0 -9.293281999836e-04 
-8.758111121474e-04 7.483431883641e-04 0.0 
7.483431883641e-04 5.371889788881e-03 0.0 
0.0 0.0 -8.738309435711e-04 
-1.092742745582e-03 3.915524889603e-04 0.0 
3.915524889603e-04 6.485907170089e-03 0.0 
0.0 0.0 -9.814596669550e-04 
-1.035952161766e-03 6.611052853446e-04 0.0 
6.611052853446e-04 6.380857888035e-03 0.0 
0.0 0.0 -1.008022096355e-03 
-1.077652724168e-03 2.805726221407e-04 0.0 
2.805726221407e-04 6.715783923999e-03 0.0 
0.0 0.0 -1.040850218070e-03 
-2.023974518503e-04 -1.321133762499e-04 0.0 
-1.321133762499e-04 1.384394093772e-03 0.0 
0.0 0.0 -2.163717569139e-04 
-7.893601242255e-04 -4.562798916239e-04 0.0 
-4.562798916239e-04 4.381521976835e-03 0.0 
0.0 0.0 -7.209013985657e-04 
-7.313998078972e-04 5.086544562021e-04 0.0 
5.086544562021e-04 4.197814066076e-03 0.0 
0.0 0.0 -6.825522065409e-04 
-1.028318523239e-03 6.006171887521e-04 0.0 
6.006171887521e-04 6.085692307244e-03 0.0 
0.0 0.0 -9.521954671713e-04 
-1.067646735267e-03 2.331910673829e-04 0.0 
2.331910673829e-04 6.426373394987e-03 0.0 
0.0 0.0 -9.850634846466e-04 
-9.716546386639e-04 2.965949022534e-04 0.0 
2.965949022534e-04 6.988702290933e-03 0.0 
0.0 0.0 -1.160108757481e-03 
-4.472950566148e-04 1.734158785359e-04 0.0 
1.734158785359e-04 1.999281221139e-03 0.0 
0.0 0.0 -3.273996513303e-04 
5.013762340144e-04 -1.239269767564e-03 0.0 
-1.239269767564e-03 2.218446430556e-04 0.0 
0.0 0.0 -3.099518044586e-04 
-7.265319955109e-04 8.390462931927e-04 0.0 
8.390462931927e-04 4.877510016991e-03 0.0 
0.0 0.0 -8.305977116616e-04 
-8.244303094237e-04 -8.036957222691e-04 0.0 
-8.036957222691e-04 4.446645084886e-03 0.0 
0.0 0.0 -7.181358556540e-04 
-8.207218427826e-04 3.111449193758e-07 0.0 
3.111449193758e-07 4.297525914166e-03 0.0 
0.0 0.0 -6.554599841463e-04 
-8.454650530547e-04 2.288116945552e-05 0.0 
2.288116945552e-05 4.550895634799e-03 0.0 
0.0 0.0 -6.889204951115e-04 
-1.102411452052e-03 3.661135033764e-05 0.0 
3.661135033764e-05 6.536305471285e-03 0.0 
0.0 0.0 -9.793492904611e-04 
1.401876311920e-04 1.457319982698e-03 0.0 
1.457319982698e-03 8.276000244946e-04 0.0 
0.0 0.0 -3.371109590424e-04 
-9.056307504124e-04 -3.219601326285e-04 0.0 
-3.219601326285e-04 5.073216074597e-03 0.0 
0.0 0.0 -8.154759146177e-04 
-8.139515461008e-04 -3.444279104294e-04 0.0 
-3.444279104294e-04 6.262709696181e-03 0.0 
0.0 0.0 -1.049209916622e-03 
5.784646720155e-04 -2.798136268851e-04 0.0 
-2.798136268851e-04 4.491531344292e-05 0.0 
0.0 0.0 -2.671628509107e-04 
-1.269607203850e-03 4.300111845681e-04 0.0 
4.300111845681e-04 8.005085435650e-03 0.0 
0.0 0.0 -1.285586381397e-03 
-1.234701409080e-03 4.026661623699e-05 0.0 
4.026661623699e-05 7.724712803764e-03 0.0 
0.0 0.0 -1.152455342817e-03 
-9.332307083252e-04 -6.317385210980e-04 0.0 
-6.317385210980e-04 4.943755293323e-03 0.0 
0.0 0.0 -7.756113943005e-04 
-1.132361128818e-03 -1.347962173953e-04 0.0 
-1.347962173953e-04 6.852501733015e-03 0.0 
0.0 0.0 -1.078722419643e-03 
-1.782286125890e-04 -3.440225614963e-05 0.0 
-3.440225614963e-05 7.356149739106e-04 0.0 
0.0 0.0 -1.797547709840e-04 
-7.836878423569e-04 -4.420353483476e-04 0.0 
-4.420353483476e-04 6.015976224596e-03 0.0 
0.0 0.0 -1.012471576362e-03 
-7.618878641414e-04 4.386001518409e-04 0.0 
4.386001518409e-04 5.252415903850e-03 0.0 
0.0 0.0 -8.634366945984e-04 
-1.365202202974e-04 -1.663937919944e-05 0.0 
-1.663937919944e-05 7.240163383166e-04 0.0 
0.0 0.0 -1.788519809851e-04 
-1.221296204116e-03 3.897303876191e-04 0.0 
3.897303876191e-04 7.675470665632e-03 0.0 
0.0 0.0 -1.154859126927e-03 
6.541694671517e-04 -5.838497479074e-04 0.0 
-5.838497479074e-04 -1.165985658389e-04 0.0 
0.0 0.0 -2.303875291341e-04 
-1.022773715161e-03 2.649419741860e-04 0.0 
2.649419741860e-04 6.147018606592e-03 0.0 
0.0 0.0 -9.496453321265e-04 
-8.501477431051e-04 4.017489682252e-04 0.0 
4.017489682252e-04 5.430956065029e-03 0.0 
0.0 0.0 -8.712718144564e-04 
-3.870813166907e-04 -6.841434598879e-04 0.0 
-6.841434598879e-04 4.009053170529e-03 0.0 
0.0 0.0 -7.519815330289e-04 
-7.080628147866e-04 -2.630245850535e-04 0.0 
-2.630245850535e-04 5.293137348391e-03 0.0 
0.0 0.0 -9.052548162676e-04 
-1.248469741651e-03 4.216386458729e-04 0.0 
4.216386458729e-04 7.872413297340e-03 0.0 
0.0 0.0 -1.182898372388e-03 
-7.959805508824e-04 -1.903636579771e-04 0.0 
-1.903636579771e-04 5.775075989453e-03 0.0 
0.0 0.0 -9.716005391689e-04 
-7.058567601375e-04 8.071090420181e-04 0.0 
8.071090420181e-04 4.993912000440e-03 0.0 
0.0 0.0 -8.581765416018e-04 
-6.834773769761e-04 4.720321187624e-04 0.0 
4.720321187624e-04 4.941232986507e-03 0.0 
0.0 0.0 -8.279616112547e-04 
1.200725464498e-05 4.997720012563e-04 0.0 
4.997720012563e-04 2.980647594779e-04 0.0 
0.0 0.0 -1.328880060527e-04 
5.267325684764e-04 -1.507976047628e-04 0.0 
-1.507976047628e-04 -1.515568147922e-04 0.0 
0.0 0.0 -1.607896087218e-04 
-1.031637425544e-03 2.938257107745e-04 0.0 
2.938257107745e-04 7.016823171402e-03 0.0 
0.0 0.0 -1.118331045454e-03 
-1.047581819557e-03 3.855603907834e-05 0.0 
3.855603907834e-05 6.024362043911e-03 0.0 
0.0 0.0 -9.085367473448e-04 
-1.068580773740e-03 6.289177231850e-04 0.0 
6.289177231850e-04 7.124997701846e-03 0.0 
0.0 0.0 -1.148691026115e-03 
-2.168784888490e-04 1.398227562360e-03 0.0 
1.398227562360e-03 2.112550911132e-03 0.0 
0.0 0.0 -4.942977111402e-04 
-1.176051745943e-03 5.435901405529e-04 0.0 
5.435901405529e-04 7.176283028080e-03 0.0 
0.0 0.0 -1.097950598811e-03 
-1.105546950119e-03 2.883637130323e-04 0.0 
2.883637130323e-04 7.335184708628e-03 0.0 
0.0 0.0 -1.155407764312e-03 
-8.481473499091e-04 3.802854440166e-04 0.0 
3.802854440166e-04 4.634623972028e-03 0.0 
0.0 0.0 -7.179420443741e-04 
-1.053414342459e-03 6.334862389143e-04 0.0 
6.334862389143e-04 6.950110385841e-03 0.0 
0.0 0.0 -1.120992621467e-03 
-1.150488405997e-03 -5.115596481821e-04 0.0 
-5.115596481821e-04 6.921289775542e-03 0.0 
0.0 0.0 -1.075946734593e-03 
-8.430169137080e-04 7.309466471044e-04 0.0 
7.309466471044e-04 5.750606817071e-03 0.0 
0.0 0.0 -9.571162043194e-04 
-8.407412319889e-04 -3.923326874810e-04 0.0 
-3.923326874810e-04 4.820090656330e-03 0.0 
0.0 0.0 -7.866383436874e-04 
-8.661293961769e-04 -7.636305903076e-04 0.0 
-7.636305903076e-04 5.068827859701e-03 0.0 
0.0 0.0 -8.209012074946e-04 
-1.276631957823e-03 1.351613779989e-04 0.0 
1.351613779989e-04 8.067600813718e-03 0.0 
0.0 0.0 -1.204704583718e-03 
-6.220699559740e-04 -3.467517458205e-04 0.0 
-3.467517458205e-04 4.812375804049e-03 0.0 
0.0 0.0 -8.396599866114e-04 
-8.640312315529e-04 7.564773801915e-04 0.0 
7.564773801915e-04 5.496513579944e-03 0.0 
0.0 0.0 -9.015555482168e-04 
-5.139647083066e-04 6.286602551559e-04 0.0 
6.286602551559e-04 4.638431100819e-03 0.0 
0.0 0.0 -8.433600309793e-04 
-8.878790724241e-04 -1.375747034556e-04 0.0 
-1.375747034556e-04 6.258870962336e-03 0.0 
0.0 0.0 -1.038364586984e-03 
-4.800211114771e-04 4.132947089942e-04 0.0 
4.132947089942e-04 4.403087062058e-03 0.0 
0.0 0.0 -7.842421616061e-04 
1.708764263770e-04 1.828302604937e-04 0.0 
1.828302604937e-04 1.696323968062e-03 0.0 
0.0 0.0 -5.065804551108e-04 
-4.825363659521e-04 1.845931219475e-05 0.0 
1.845931219475e-05 4.680497453253e-03 0.0 
0.0 0.0 -8.561803240471e-04 
8.082119994225e-05 4.790974331332e-04 0.0 
4.790974331332e-04 2.023860804843e-03 0.0 
0.0 0.0 -5.426160209679e-04 
-1.033438603377e-03 6.383788790857e-04 0.0 
6.383788790857e-04 6.235509335954e-03 0.0 
0.0 0.0 -9.799122972177e-04 
1.114946380246e-04 -1.909482610686e-04 0.0 
-1.909482610686e-04 2.113077183239e-03 0.0 
0.0 0.0 -5.399485503623e-04 
-9.706412986079e-04 3.184758127263e-04 0.0 
3.184758127263e-04 6.013389094156e-03 0.0 
0.0 0.0 -9.420580210740e-04 
-9.265946290547e-04 -4.225709154864e-05 0.0 
-4.225709154864e-05 6.885841307398e-03 0.0 
0.0 0.0 -1.130549445556e-03 
-8.685442447111e-04 3.124266913747e-04 0.0 
3.124266913747e-04 6.514082051094e-03 0.0 
0.0 0.0 -1.096529089934e-03 
-4.417150057457e-04 8.260625217284e-04 0.0 
8.260625217284e-04 3.995231427087e-03 0.0 
0.0 0.0 -7.512528815036e-04 
-1.059191105034e-03 4.065855107728e-04 0.0 
4.065855107728e-04 6.228287830528e-03 0.0 
0.0 0.0 -9.460253849645e-04 
-1.179141908394e-03 -9.694575707592e-05 0.0 
-9.694575707592e-05 7.087490944073e-03 0.0 
0.0 0.0 -1.107441567342e-03 
-1.193835214950e-03 -4.719824871619e-04 0.0 
-4.719824871619e-04 7.155436910273e-03 0.0 
0.0 0.0 -1.104747680386e-03 
1.944125303692e-04 1.273132647232e-03 0.0 
1.273132647232e-03 5.121470870520e-04 0.0 
0.0 0.0 -3.028112646091e-04 
-9.836336619932e-04 6.878362883605e-04 0.0 
6.878362883605e-04 6.089006481299e-03 0.0 
0.0 0.0 -9.724793438395e-04 
-1.268204156625e-03 7.721982515826e-06 0.0 
7.721982515826e-06 7.786698253164e-03 0.0 
0.0 0.0 -1.205818386895e-03 
-6.870681417228e-04 7.008927199053e-04 0.0 
7.008927199053e-04 3.265237971609e-03 0.0 
0.0 0.0 -5.357889572170e-04 
-9.885170178391e-04 -5.948066208015e-04 0.0 
-5.948066208015e-04 5.380783060798e-03 0.0 
0.0 0.0 -8.409532000723e-04 
-7.799555259594e-05 6.230825562270e-04 0.0 
6.230825562270e-04 5.570487652900e-04 0.0 
0.0 0.0 -2.053085197260e-04 
-1.219579480668e-03 -6.033820998881e-05 0.0 
-6.033820998881e-05 7.313003609483e-03 0.0 
0.0 0.0 -1.136235114959e-03 
2.012100085966e-04 5.845223729044e-04 0.0 
5.845223729044e-04 1.434306137738e-03 0.0 
0.0 0.0 -4.785631936960e-04 
-1.042459381450e-03 3.192310209748e-05 0.0 
3.192310209748e-05 5.237687487302e-03 0.0 
0.0 0.0 -8.166178341775e-04 
-7.748148319910e-04 5.841265057534e-04 0.0 
5.841265057534e-04 5.931280080680e-03 0.0 
0.0 0.0 -1.008721701990e-03 
-1.070450976463e-03 4.786712554870e-05 0.0 
4.786712554870e-05 6.281594191104e-03 0.0 
0.0 0.0 -9.438854677472e-04 
-1.019990029507e-03 4.017679917675e-04 0.0 
4.017679917675e-04 5.968797618871e-03 0.0 
0.0 0.0 -9.108073647307e-04 
-7.821076712380e-04 7.813500369489e-04 0.0 
7.813500369489e-04 5.311710917371e-03 0.0 
0.0 0.0 -8.936906232635e-04 
-7.622603984916e-04 6.791341036292e-05 0.0 
6.791341036292e-05 3.813852506224e-03 0.0 
0.0 0.0 -5.884905393267e-04 
-7.846644250761e-04 7.808219167045e-05 0.0 
7.808219167045e-05 4.065403212213e-03 0.0 
0.0 0.0 -6.218825813656e-04 
-1.233191643352e-03 -4.261165376934e-04 0.0 
-4.261165376934e-04 7.382821542764e-03 0.0 
0.0 0.0 -1.133400347077e-03 
-7.515727621129e-04 -6.277168771854e-04 0.0 
-6.277168771854e-04 5.560136738189e-03 0.0 
0.0 0.0 -9.394087121358e-04 
-4.848945124793e-04 -6.056685510147e-04 0.0 
-6.056685510147e-04 4.517787566476e-03 0.0 
0.0 0.0 -8.164864906097e-04 
-7.633590365807e-04 1.747203192895e-05 0.0 
1.747203192895e-05 5.952051370355e-03 0.0 
0.0 0.0 -1.014986374720e-03 
-3.745762426959e-04 -1.208773656876e-05 0.0 
-1.208773656876e-05 4.169816033916e-03 0.0 
0.0 0.0 -7.915105747055e-04 
1.470981817100e-04 1.699633256222e-04 0.0 
1.699633256222e-04 1.922517798804e-03 0.0 
0.0 0.0 -5.119962057136e-04 
-7.251559287553e-04 3.584185138835e-04 0.0 
3.584185138835e-04 3.747261506519e-03 0.0 
0.0 0.0 -5.908395828668e-04 
-9.989176313813e-04 5.279041160422e-05 0.0 
5.279041160422e-05 5.610761613461e-03 0.0 
0.0 0.0 -8.442294783838e-04 
-8.140722277822e-04 1.153536144127e-05 0.0 
1.153536144127e-05 4.902728731460e-03 0.0 
0.0 0.0 -7.121995050294e-04 
-8.606102061483e-04 -1.123280902614e-04 0.0 
-1.123280902614e-04 6.585165240131e-03 0.0 
0.0 0.0 -1.093598669875e-03 
-3.829181500835e-04 3.755711815579e-04 0.0 
3.755711815579e-04 4.064228922124e-03 0.0 
0.0 0.0 -7.486350631497e-04 
-1.089919498544e-03 4.032533245885e-04 0.0 
4.032533245885e-04 7.584210826506e-03 0.0 
0.0 0.0 -1.233571955743e-03 
-1.258849103109e-03 1.203645015164e-04 0.0 
1.203645015164e-04 7.318640773608e-03 0.0 
0.0 0.0 -1.121177773779e-03 
-4.277541990728e-04 -3.591296022275e-04 0.0 
-3.591296022275e-04 4.511429067315e-03 0.0 
0.0 0.0 -8.252461108756e-04 
-1.288851597356e-03 -4.658297080141e-04 0.0 
-4.658297080141e-04 8.043612715449e-03 0.0 
0.0 0.0 -1.241472629463e-03 
3.242839641495e-05 -4.968694073408e-04 0.0 
-4.968694073408e-04 2.366486634827e-03 0.0 
0.0 0.0 -5.682622744621e-04 
-1.077966235092e-03 4.739436140623e-04 0.0 
4.739436140623e-04 7.389804662751e-03 0.0 
0.0 0.0 -1.204482468497e-03 
-7.429375265798e-04 4.078626067565e-04 0.0 
4.078626067565e-04 5.376339153074e-03 0.0 
0.0 0.0 -8.910665706739e-04 
-8.382327257171e-04 6.914183336446e-04 0.0 
6.914183336446e-04 5.885419181804e-03 0.0 
0.0 0.0 -9.848034212814e-04 
-9.867962554531e-04 -3.515709155634e-04 0.0 
-3.515709155634e-04 7.009894236266e-03 0.0 
0.0 0.0 -1.146785027167e-03 
-6.480751664788e-04 -1.064130565160e-03 0.0 
-1.064130565160e-03 3.485571623010e-03 0.0 
0.0 0.0 -5.958228065582e-04 
-9.264979844569e-04 7.226480241173e-04 0.0 
7.226480241173e-04 5.798649245259e-03 0.0 
0.0 0.0 -9.369464185080e-04 
-3.976862535672e-04 -5.140984221878e-04 0.0 
-5.140984221878e-04 4.248707874465e-03 0.0 
0.0 0.0 -7.886172400246e-04 
-9.126908566727e-04 3.597233129020e-04 0.0 
3.597233129020e-04 5.721921232905e-03 0.0 
0.0 0.0 -9.065670216064e-04 
-2.413614743732e-04 9.207248143764e-04 0.0 
9.207248143764e-04 2.576101931259e-03 0.0 
0.0 0.0 -5.268093404353e-04 
-8.396821970539e-04 6.672060837292e-04 0.0 
6.672060837292e-04 6.048287273264e-03 0.0 
0.0 0.0 -1.013229387512e-03 
-3.452329379355e-04 -1.792312499866e-04 0.0 
-1.792312499866e-04 3.927967745038e-03 0.0 
0.0 0.0 -7.548706880268e-04 
-9.599399109740e-04 -2.677314431030e-04 0.0 
-2.677314431030e-04 5.510906117541e-03 0.0 
0.0 0.0 -8.810281692460e-04 
-9.326422123301e-04 7.027170698306e-04 0.0 
7.027170698306e-04 5.663041666324e-03 0.0 
0.0 0.0 -9.091416541300e-04 
1.310354464969e-04 5.651438564875e-04 0.0 
5.651438564875e-04 1.741573510573e-04 0.0 
0.0 0.0 -1.307969132375e-04 
-6.049604556670e-04 5.771719455814e-04 0.0 
5.771719455814e-04 5.135535656328e-03 0.0 
0.0 0.0 -9.082496170556e-04 
-8.264119998562e-05 1.037717303205e-03 0.0 
1.037717303205e-03 8.249845298322e-04 0.0 
0.0 0.0 -3.181471413628e-04 
-3.486990110529e-04 1.618131580725e-05 0.0 
1.618131580725e-05 1.379681923450e-03 0.0 
0.0 0.0 -2.410360834028e-04 
-9.637368636999e-04 -2.534336696837e-04 0.0 
-2.534336696837e-04 5.310722216845e-03 0.0 
0.0 0.0 -8.438072171805e-04 
-1.086820871417e-03 2.926579608564e-04 0.0 
2.926579608564e-04 7.015412211803e-03 0.0 
0.0 0.0 -1.098354823938e-03 
-1.049951667635e-03 4.416530287396e-04 0.0 
4.416530287396e-04 6.131491265693e-03 0.0 
0.0 0.0 -9.387552692590e-04 
-7.056421761476e-04 1.432307568262e-04 0.0 
1.432307568262e-04 3.346065552913e-03 0.0 
0.0 0.0 -5.215302833573e-04 
-1.342322198460e-03 3.183613232645e-04 0.0 
3.183613232645e-04 8.773669276182e-03 0.0 
0.0 0.0 -1.342322198460e-03 
3.836307119602e-05 1.777435835148e-04 0.0 
1.777435835148e-04 5.796280456300e-05 0.0 
0.0 0.0 -4.128251818244e-05 
-7.274210317143e-04 1.629360554579e-04 0.0 
1.629360554579e-04 3.588533030425e-03 0.0 
0.0 0.0 -5.549805679787e-04 
-5.340066039334e-04 -2.072389055199e-04 0.0 
-2.072389055199e-04 4.712236291548e-03 0.0 
0.0 0.0 -8.472740691906e-04 
-9.827474692013e-04 -5.565690633406e-04 0.0 
-5.565690633406e-04 5.178751046310e-03 0.0 
0.0 0.0 -8.042584860449e-04 
-8.272148132873e-04 2.043748305373e-04 0.0 
2.043748305373e-04 4.358943672927e-03 0.0 
0.0 0.0 -6.733236465360e-04 
-1.391682779442e-04 -5.660980208305e-04 0.0 
-5.660980208305e-04 2.708178146588e-03 0.0 
0.0 0.0 -5.908717820549e-04 
-6.655440375533e-04 -6.952663529849e-04 0.0 
-6.952663529849e-04 5.066823485387e-03 0.0 
0.0 0.0 -8.733819075714e-04 
-8.196031050189e-04 3.838546333042e-04 0.0 
3.838546333042e-04 5.685766128825e-03 0.0 
0.0 0.0 -9.266779469803e-04 
-6.990167424859e-04 5.271708541357e-04 0.0 
5.271708541357e-04 5.638282256463e-03 0.0 
0.0 0.0 -9.734188451722e-04 
-1.186630910785e-03 6.460835059359e-04 0.0 
6.460835059359e-04 7.362442267771e-03 0.0 
0.0 0.0 -1.144302277022e-03 
2.969246869216e-04 1.115918954902e-03 0.0 
1.115918954902e-03 3.039667145196e-04 0.0 
0.0 0.0 -2.575248863319e-04 
-9.117889324076e-04 -2.951149434616e-04 0.0 
-2.951149434616e-04 4.877432515646e-03 0.0 
0.0 0.0 -7.784793977761e-04 
-1.012208946591e-03 -1.496092469439e-04 0.0 
-1.496092469439e-04 5.343186025449e-03 0.0 
0.0 0.0 -8.356154970834e-04 
-6.331046465697e-04 -9.049418944168e-04 0.0 
-9.049418944168e-04 2.758073297942e-03 0.0 
0.0 0.0 -4.544023106810e-04 
-8.924169308788e-04 4.058945008041e-04 0.0 
4.058945008041e-04 4.880366770900e-03 0.0 
0.0 0.0 -7.518103749233e-04 
-1.063894881261e-03 9.071629636426e-05 0.0 
9.071629636426e-05 6.191505659791e-03 0.0 
0.0 0.0 -9.362314798257e-04 
-1.205869425098e-03 -2.261798490425e-04 0.0 
-2.261798490425e-04 6.678201842620e-03 0.0 
0.0 0.0 -1.023451880212e-03 
-7.015472354662e-05 -2.565736168466e-05 0.0 
-2.565736168466e-05 9.612203433626e-04 0.0 
0.0 0.0 -1.605242656235e-04 
0.0 0.0 0.0 
0.0 0.0 0.0 
0.0 0.0 0.0 
-5.147384921578e-04 -7.536249502610e-04 0.0 
-7.536249502610e-04 1.966691460963e-03 0.0 
0.0 0.0 -3.233707900025e-04 
-1.027484224102e-03 -4.836123400480e-04 0.0 
-4.836123400480e-04 5.407088060702e-03 0.0 
0.0 0.0 -8.330087554115e-04 
-8.882847245791e-05 -4.537970764089e-04 0.0 
-4.537970764089e-04 2.924964268328e-03 0.0 
0.0 0.0 -6.322020076307e-04 
-9.059460685547e-05 -9.981933794838e-04 0.0 
-9.981933794838e-04 2.441338825064e-03 0.0 
0.0 0.0 -5.605319560360e-04 
1.602068840710e-04 -5.380164516261e-04 0.0 
-5.380164516261e-04 1.784200169895e-03 0.0 
0.0 0.0 -5.041580933422e-04 
-1.016808142495e-03 -1.850132427343e-04 0.0 
-1.850132427343e-04 5.546831112907e-03 0.0 
0.0 0.0 -8.721335634590e-04 
-1.089492890547e-03 5.256596706488e-04 0.0 
5.256596706488e-04 6.464473810732e-03 0.0 
0.0 0.0 -9.956198530692e-04 
-1.055480845035e-03 -8.073487003007e-05 0.0 
-8.073487003007e-05 5.564073531230e-03 0.0 
0.0 0.0 -8.643287579461e-04 
-7.969352206199e-05 1.392070136612e-04 0.0 
1.392070136612e-04 2.839214225501e-03 0.0 
0.0 0.0 -6.348607296063e-04 
-9.652452647080e-04 3.246353242036e-04 0.0 
3.246353242036e-04 6.148089658116e-03 0.0 
0.0 0.0 -9.699423737970e-04 
-9.336187348190e-04 2.571357999357e-04 0.0 
2.571357999357e-04 5.466318221896e-03 0.0 
0.0 0.0 -8.236220363599e-04 
-8.699149514131e-04 5.427467141130e-04 0.0 
5.427467141130e-04 6.422709640429e-03 0.0 
0.0 0.0 -1.076197569190e-03 
-1.067019444508e-03 -4.166446150284e-04 0.0 
-4.166446150284e-04 5.628158977285e-03 0.0 
0.0 0.0 -8.617642947636e-04 
-1.037211549759e-03 -5.241557810677e-04 0.0 
-5.241557810677e-04 5.613837274242e-03 0.0 
0.0 0.0 -8.694825820363e-04 
-6.540642588821e-04 2.339053685670e-04 0.0 
2.339053685670e-04 2.854376740045e-03 0.0 
0.0 0.0 -4.548485160793e-04 
-1.830897456311e-04 -6.409178638984e-04 0.0 
-6.409178638984e-04 3.204685697947e-03 0.0 
0.0 0.0 -6.598952468721e-04 
-1.092100602406e-03 -1.853786207342e-05 0.0 
-1.853786207342e-05 5.772593500168e-03 0.0 
0.0 0.0 -8.930692851043e-04 
-1.055598751707e-03 1.761127934755e-04 0.0 
1.761127934755e-04 6.440216787672e-03 0.0 
0.0 0.0 -9.615701295831e-04 
-1.001453888758e-03 1.848581000640e-04 0.0 
1.848581000640e-04 6.057549413992e-03 0.0 
0.0 0.0 -8.972249362023e-04 
-6.770179440789e-04 2.249366581215e-04 0.0 
2.249366581215e-04 3.121369932688e-03 0.0 
0.0 0.0 -4.879487645214e-04 
-1.064022376908e-03 -1.167841295241e-04 0.0 
-1.167841295241e-04 5.775583557860e-03 0.0 
0.0 0.0 -9.007118478549e-04 
-2.859853618183e-04 -1.273336407491e-03 0.0 
-1.273336407491e-03 2.641008784054e-03 0.0 
0.0 0.0 -5.517684601482e-04 
-1.131468898778e-04 1.392096794452e-03 0.0 
1.392096794452e-03 1.091258670637e-03 0.0 
0.0 0.0 -4.029896332773e-04 
-1.047918758114e-03 7.340593604256e-05 0.0 
7.340593604256e-05 7.456724692606e-03 0.0 
0.0 0.0 -1.202908440308e-03 
-5.627131210403e-04 -6.726340984242e-04 0.0 
-6.726340984242e-04 1.683903901649e-03 0.0 
0.0 0.0 -3.052185142707e-04 
-3.169146226738e-04 -8.080615281722e-04 0.0 
-8.080615281722e-04 2.922160059009e-03 0.0 
0.0 0.0 -5.822209219963e-04 
-5.594905133051e-04 2.180548040984e-04 0.0 
2.180548040984e-04 5.015163126878e-03 0.0 
0.0 0.0 -8.766521650092e-04 
-6.622241155769e-04 4.063560181712e-04 0.0 
4.063560181712e-04 3.270370974807e-03 0.0 
0.0 0.0 -5.239962781855e-04 
-1.100749507766e-03 -3.563808608849e-04 0.0 
-3.563808608849e-04 5.849825024464e-03 0.0 
0.0 0.0 -8.905656347129e-04 
-5.985345031535e-04 -2.223177207573e-04 0.0 
-2.223177207573e-04 2.732572505037e-03 0.0 
0.0 0.0 -4.282508963332e-04 
-9.076266712889e-04 3.184539997901e-05 0.0 
3.184539997901e-05 5.036430824459e-03 0.0 
0.0 0.0 -7.823486082854e-04 
-1.081370140730e-03 -4.558826803401e-04 0.0 
-4.558826803401e-04 5.841011814907e-03 0.0 
0.0 0.0 -8.981647654366e-04 
-4.858836919803e-04 -7.457674947231e-04 0.0 
-7.457674947231e-04 4.297440458521e-03 0.0 
0.0 0.0 -7.800125773855e-04 
-9.348538294518e-04 -6.697112536075e-04 0.0 
-6.697112536075e-04 5.140798604724e-03 0.0 
0.0 0.0 -8.126672281948e-04 
8.703935028516e-05 1.690415104804e-04 0.0 
1.690415104804e-04 1.245018223100e-05 0.0 
0.0 0.0 -4.263837107835e-05 
-1.241448931941e-03 -1.835319642593e-04 0.0 
-1.835319642593e-04 7.812891284508e-03 0.0 
0.0 0.0 -1.152567315725e-03 
-3.081364130084e-04 -9.550871966768e-04 0.0 
-9.550871966768e-04 3.298658843063e-03 0.0 
0.0 0.0 -6.514572604261e-04 
-9.718772757445e-04 1.979502564842e-04 0.0 
1.979502564842e-04 7.009305473662e-03 0.0 
0.0 0.0 -1.154039482800e-03 
-8.056057162638e-04 2.987492427290e-04 0.0 
2.987492427290e-04 5.959106481257e-03 0.0 
0.0 0.0 -9.821191134873e-04 
-1.105426206004e-03 -5.038601752530e-05 0.0 
-5.038601752530e-05 5.994681172748e-03 0.0 
0.0 0.0 -9.293965016571e-04 
-1.119004413752e-03 -3.820015781438e-04 0.0 
-3.820015781438e-04 6.058753668650e-03 0.0 
0.0 0.0 -9.268654845074e-04 
-3.123142997184e-05 -1.167065523526e-04 0.0 
-1.167065523526e-04 2.573595127563e-03 0.0 
0.0 0.0 -5.989583036242e-04 
-3.157644098559e-04 -6.245110788433e-04 0.0 
-6.245110788433e-04 1.110181514534e-03 0.0 
0.0 0.0 -2.862240160649e-04 
8.762727446402e-05 1.506685699699e-04 0.0 
1.506685699699e-04 5.297682451371e-06 0.0 
0.0 0.0 -3.982498153517e-05 
-1.139236581336e-03 9.449893671701e-06 0.0 
9.449893671701e-06 6.206332100994e-03 0.0 
0.0 0.0 -9.583065114985e-04 
-9.895576341864e-04 5.422021304530e-05 0.0 
5.422021304530e-05 6.999392542925e-03 0.0 
0.0 0.0 -1.148056181429e-03 
-4.775145294270e-04 -1.288589848279e-03 0.0 
-1.288589848279e-03 2.885723426917e-03 0.0 
0.0 0.0 -5.426247857783e-04 
-9.796725008080e-04 7.000708170444e-04 0.0 
7.000708170444e-04 6.228639819323e-03 0.0 
0.0 0.0 -1.000702849114e-03 
-6.472337897981e-04 7.799664963271e-04 0.0 
7.799664963271e-04 2.970737159620e-03 0.0 
0.0 0.0 -5.002094317253e-04 
-1.024167741003e-03 2.983156923563e-04 0.0 
2.983156923563e-04 6.439902929080e-03 0.0 
0.0 0.0 -1.005614027492e-03 
-1.230125729383e-03 -1.791987086205e-04 0.0 
-1.791987086205e-04 8.178224384408e-03 0.0 
0.0 0.0 -1.266534580134e-03 
0.0 0.0 0.0 
0.0 0.0 0.0 
0.0 0.0 0.0 
-1.341620833825e-03 -1.240232465015e-06 0.0 
-1.240232465015e-06 8.838044206910e-03 0.0 
0.0 0.0 -1.341620833825e-03 
-1.340051318819e-03 -7.855236063614e-05 0.0 
-7.855236063614e-05 8.625114056382e-03 0.0 
0.0 0.0 -1.340051318819e-03 
-8.980163173550e-04 -1.960905146637e-04 0.0 
-1.960905146637e-04 5.236321733421e-03 0.0 
0.0 0.0 -7.955197795907e-04 
-4.661383092836e-04 -1.098309243055e-03 0.0 
-1.098309243055e-03 3.461471777819e-03 0.0 
0.0 0.0 -6.428246066218e-04 
-8.082931774475e-04 3.508972968720e-04 0.0 
3.508972968720e-04 5.820381814417e-03 0.0 
0.0 0.0 -9.543595451430e-04 
-1.549769366622e-05 -2.109424872969e-04 0.0 
-2.109424872969e-04 2.675607327827e-03 0.0 
0.0 0.0 -6.041149214933e-04 
-2.283359273976e-04 -2.821495717667e-04 0.0 
-2.821495717667e-04 1.216165341166e-03 0.0 
0.0 0.0 -2.095884814006e-04 
5.244130076391e-06 5.299579131201e-04 0.0 
5.299579131201e-04 3.292147719476e-04 0.0 
0.0 0.0 -1.433395294388e-04 
-1.275023357737e-03 -5.993191991654e-05 0.0 
-5.993191991654e-05 8.163058981243e-03 0.0 
0.0 0.0 -1.209499414335e-03 
-1.082712059579e-03 1.205245821570e-04 0.0 
1.205245821570e-04 6.373245931173e-03 0.0 
0.0 0.0 -9.648175333861e-04 
-9.046820331639e-04 -1.080196974861e-06 0.0 
-1.080196974861e-06 4.867817697865e-03 0.0 
0.0 0.0 -7.224789237173e-04 
-1.279272833011e-03 4.773478504551e-04 0.0 
4.773478504551e-04 8.632757308161e-03 0.0 
0.0 0.0 -1.323661129950e-03 
-4.995343539176e-04 -2.062360200378e-04 0.0 
-2.062360200378e-04 2.288215934898e-03 0.0 
0.0 0.0 -3.615704333793e-04 
-1.305160647697e-03 4.322097678811e-04 0.0 
4.322097678811e-04 8.590809380930e-03 0.0 
0.0 0.0 -1.324908485340e-03 
-1.072336849723e-03 4.894356542548e-04 0.0 
4.894356542548e-04 6.310526310337e-03 0.0 
0.0 0.0 -9.670422101491e-04 
-6.106684104583e-04 -1.077307355153e-03 0.0 
-1.077307355153e-03 3.630162810958e-03 0.0 
0.0 0.0 -6.336394413500e-04 
-7.688592567693e-04 7.436159055388e-04 0.0 
7.436159055388e-04 5.436722305107e-03 0.0 
0.0 0.0 -9.212972352143e-04 
-4.366727405360e-04 -7.825680509829e-04 0.0 
-7.825680509829e-04 3.244703639757e-03 0.0 
0.0 0.0 -6.094834619596e-04 
-3.265911223950e-04 1.405912834574e-03 0.0 
1.405912834574e-03 1.452640584362e-03 0.0 
0.0 0.0 -3.649795199019e-04 
-4.990879049153e-04 -8.274194353689e-04 0.0 
-8.274194353689e-04 3.123468955199e-03 0.0 
0.0 0.0 -5.728018649490e-04 
-1.102176339442e-03 5.667634332671e-04 0.0 
5.667634332671e-04 6.620528006741e-03 0.0 
0.0 0.0 -1.023749757194e-03 
-1.274902778913e-03 -3.210380531188e-04 0.0 
-3.210380531188e-04 7.572738005346e-03 0.0 
0.0 0.0 -1.155390781228e-03 
-2.640863970045e-04 -6.506791704026e-04 0.0 
-6.506791704026e-04 3.044637194059e-03 0.0 
0.0 0.0 -6.181853003094e-04 
-1.037039327620e-03 6.760843031957e-04 0.0 
6.760843031957e-04 6.523249431128e-03 0.0 
0.0 0.0 -1.036271578259e-03 
0.0 0.0 0.0 
0.0 0.0 0.0 
0.0 0.0 0.0 
-1.285700230911e-04 -3.245101064007e-04 0.0 
-3.245101064007e-04 2.885767451406e-03 0.0 
0.0 0.0 -6.266282162577e-04 
-1.167206438241e-03 1.283137067331e-04 0.0 
1.283137067331e-04 7.080432372571e-03 0.0 
0.0 0.0 -1.066385360782e-03 
-6.379492421497e-04 -6.916022810517e-04 0.0 
-6.916022810517e-04 3.261870100237e-03 0.0 
0.0 0.0 -5.616069800515e-04 
-5.397721604140e-04 -1.270380268010e-03 0.0 
-1.270380268010e-03 2.784654802048e-03 0.0 
0.0 0.0 -5.052880831394e-04 
-7.290893412698e-04 3.613081104682e-04 0.0 
3.613081104682e-04 5.503308908361e-03 0.0 
0.0 0.0 -9.187611816440e-04 
1.265644672670e-04 -1.340381834312e-03 0.0 
-1.340381834312e-03 6.478378418571e-04 0.0 
0.0 0.0 -3.318867039103e-04 
-6.343393029067e-04 4.127806247347e-04 0.0 
4.127806247347e-04 2.352701282119e-03 0.0 
0.0 0.0 -3.867203691650e-04 
-5.980790938116e-04 3.108972139281e-04 0.0 
3.108972139281e-04 2.666414110552e-03 0.0 
0.0 0.0 -4.195921675762e-04 
-6.113097074720e-04 -7.505403763561e-04 0.0 
-7.505403763561e-04 2.857444945758e-03 0.0 
0.0 0.0 -4.973376392308e-04 
-5.765164058635e-04 -6.636526940974e-04 0.0 
-6.636526940974e-04 4.795423287764e-03 0.0 
0.0 0.0 -8.444178005646e-04 
-5.181015510014e-04 7.402765764373e-04 0.0 
7.402765764373e-04 4.473477357902e-03 0.0 
0.0 0.0 -8.147327860212e-04 
-1.021689517365e-03 3.040232263138e-04 0.0 
3.040232263138e-04 6.577677469830e-03 0.0 
0.0 0.0 -1.033897369924e-03 
-1.251489828841e-03 5.632464710330e-04 0.0 
5.632464710330e-04 7.903464121438e-03 0.0 
0.0 0.0 -1.224260864640e-03 
-6.076375545199e-04 4.683737268985e-04 0.0 
4.683737268985e-04 2.798103792701e-03 0.0 
0.0 0.0 -4.570814260163e-04 
-1.106194698900e-03 -2.340999049272e-04 0.0 
-2.340999049272e-04 6.875726326228e-03 0.0 
0.0 0.0 -1.028620860735e-03 
-1.222609548103e-03 6.000551956434e-04 0.0 
6.000551956434e-04 7.771092725331e-03 0.0 
0.0 0.0 -1.228414553209e-03 
4.319177178305e-05 1.565747196534e-04 0.0 
1.565747196534e-04 2.280131923741e-03 0.0 
0.0 0.0 -5.707601703556e-04 
-5.280303941059e-05 1.110289152965e-03 0.0 
1.110289152965e-03 8.099165551708e-04 0.0 
0.0 0.0 -3.244772210401e-04 
-6.896815476543e-04 4.595022377507e-04 0.0 
4.595022377507e-04 3.325524470954e-03 0.0 
0.0 0.0 -5.330167430730e-04 
-5.818026759286e-04 -7.746098819789e-04 0.0 
-7.746098819789e-04 4.581482398683e-03 0.0 
0.0 0.0 -8.082977034869e-04 
-1.084938189841e-03 6.476212573913e-04 0.0 
6.476212573913e-04 6.662130643566e-03 0.0 
0.0 0.0 -1.043024347135e-03 
-5.304647567233e-04 -3.288241115645e-04 0.0 
-3.288241115645e-04 4.511932891327e-03 0.0 
0.0 0.0 -8.108276944599e-04 
3.467916788336e-04 9.922084021829e-04 0.0 
9.922084021829e-04 1.937891863132e-04 0.0 
0.0 0.0 -2.316775136343e-04 
-6.676153210682e-04 -5.990024928293e-04 0.0 
-5.990024928293e-04 5.284713461811e-03 0.0 
0.0 0.0 -9.096068616062e-04 
-5.138764303910e-04 1.344859878066e-03 0.0 
1.344859878066e-03 1.832201827426e-03 0.0 
0.0 0.0 -3.508512830963e-04 
-4.693960867252e-04 2.899164946168e-04 0.0 
2.899164946168e-04 4.538651858574e-03 0.0 
0.0 0.0 -8.123573650817e-04 
-6.214317139949e-04 -2.381023826960e-04 0.0 
-2.381023826960e-04 5.000123203670e-03 0.0 
0.0 0.0 -8.756097305517e-04 
-7.629475729046e-04 6.967977887081e-04 0.0 
6.967977887081e-04 5.582110193462e-03 0.0 
0.0 0.0 -9.491391837787e-04 
-1.021932421091e-03 -1.375086625343e-04 0.0 
-1.375086625343e-04 6.258245616270e-03 0.0 
0.0 0.0 -9.494079867578e-04 
-6.355506189440e-04 -1.022411834394e-03 0.0 
-1.022411834394e-03 2.931807144820e-03 0.0 
0.0 0.0 -4.933620968966e-04 
6.896550266056e-05 1.225367383845e-03 0.0 
1.225367383845e-03 6.646895526308e-04 0.0 
0.0 0.0 -3.144235951249e-04 
-7.142483767440e-04 -1.644248298722e-04 0.0 
-1.644248298722e-04 5.495494976155e-03 0.0 
0.0 0.0 -9.415329344942e-04 
-5.361770105980e-04 1.152355576541e-03 0.0 
1.152355576541e-03 2.110820043480e-03 0.0 
0.0 0.0 -3.857152600925e-04 
0.0 0.0 0.0 
0.0 0.0 0.0 
0.0 0.0 0.0 
-1.255338616422e-03 1.860461172355e-04 0.0 
1.860461172355e-04 8.124850663151e-03 0.0 
0.0 0.0 -1.223389224544e-03 
-1.207848204117e-03 2.029693107177e-04 0.0 
2.029693107177e-04 7.752368092309e-03 0.0 
0.0 0.0 -1.157435638217e-03 
-8.808053059829e-05 -1.336699866714e-04 0.0 
-1.336699866714e-04 3.185750404010e-04 0.0 
0.0 0.0 -9.878336134402e-05 
-7.608266853487e-04 -5.406000089435e-04 0.0 
-5.406000089435e-04 5.776368912984e-03 0.0 
0.0 0.0 -9.758309632659e-04 
-5.833464932257e-04 -8.365325477788e-04 0.0 
-8.365325477788e-04 2.366888082298e-03 0.0 
0.0 0.0 -3.887237773309e-04 
-6.380037561636e-04 -4.574933655184e-04 0.0 
-4.574933655184e-04 2.507620922393e-03 0.0 
0.0 0.0 -4.195855280820e-04 
-1.094549564148e-03 6.711957006790e-04 0.0 
6.711957006790e-04 6.969957179569e-03 0.0 
0.0 0.0 -1.100737838324e-03 
-7.238835271569e-04 2.949238833770e-04 0.0 
2.949238833770e-04 5.642634368299e-03 0.0 
0.0 0.0 -9.467522836136e-04 
-1.039311302789e-03 6.802059572137e-04 0.0 
6.802059572137e-04 6.671189751840e-03 0.0 
0.0 0.0 -1.064854740548e-03 
-1.894001647684e-04 -8.697409082608e-04 0.0 
-8.697409082608e-04 2.974808611893e-03 0.0 
0.0 0.0 -6.238888496032e-04 
-8.115909482746e-04 3.390698231069e-05 0.0 
3.390698231069e-05 4.912143948729e-03 0.0 
0.0 0.0 -7.105917616147e-04 
-1.280305692054e-03 -3.247592506175e-04 0.0 
-3.247592506175e-04 7.975043847607e-03 0.0 
0.0 0.0 -1.281538364137e-03 
-5.868717402319e-04 -4.057488537009e-04 0.0 
-4.057488537009e-04 2.082970857728e-03 0.0 
0.0 0.0 -3.541816848729e-04 
-9.117200011925e-04 -1.598675323878e-04 0.0 
-1.598675323878e-04 6.764763677517e-03 0.0 
0.0 0.0 -1.121221582973e-03 
-5.590520355925e-04 3.309762878068e-04 0.0 
3.309762878068e-04 4.865889443216e-03 0.0 
0.0 0.0 -8.477100451819e-04 
-3.408380194667e-04 8.413428919704e-05 0.0 
8.413428919704e-05 1.600517951916e-03 0.0 
0.0 0.0 -2.892354545592e-04 
-1.075499676593e-03 6.132508001275e-04 0.0 
6.132508001275e-04 6.500844839128e-03 0.0 
0.0 0.0 -1.015166614560e-03 
-1.491725305372e-04 -7.955548992598e-05 0.0 
-7.955548992598e-05 3.115280814632e-03 0.0 
0.0 0.0 -6.628028861993e-04 
-1.315718485168e-04 -5.908276789213e-04 0.0 
-5.908276789213e-04 6.660589264853e-04 0.0 
0.0 0.0 -2.290658905579e-04 
-1.579860261374e-05 -4.063804822263e-04 0.0 
-4.063804822263e-04 2.360331977056e-03 0.0 
0.0 0.0 -5.632129589051e-04 
-1.187081976134e-03 1.736903763000e-04 0.0 
1.736903763000e-04 6.532498131095e-03 0.0 
0.0 0.0 -9.915417172310e-04 
-1.109173126604e-03 2.020871397918e-04 0.0 
2.020871397918e-04 6.702082758585e-03 0.0 
0.0 0.0 -1.020980360542e-03 
-4.812617878824e-04 -1.026396368797e-03 0.0 
-1.026396368797e-03 1.558368541222e-03 0.0 
0.0 0.0 -2.729600395538e-04 
-1.020281891755e-03 -1.851201749546e-04 0.0 
-1.851201749546e-04 5.386783464776e-03 0.0 
0.0 0.0 -8.076288038732e-04 
-1.089791995769e-03 6.678096790371e-04 0.0 
6.678096790371e-04 6.824575659747e-03 0.0 
0.0 0.0 -1.071782534217e-03 
-9.193547229402e-04 1.602334611530e-04 0.0 
1.602334611530e-04 6.776867929495e-03 0.0 
0.0 0.0 -1.109893377180e-03 
-5.608358153244e-04 -8.240965468318e-04 0.0 
-8.240965468318e-04 2.993251789866e-03 0.0 
0.0 0.0 -5.351738145117e-04 
-6.136579298705e-04 1.191680586993e-04 0.0 
1.191680586993e-04 2.664357051373e-03 0.0 
0.0 0.0 -4.333934152438e-04 
-5.989414354874e-04 6.742429676008e-04 0.0 
6.742429676008e-04 4.956197001293e-03 0.0 
0.0 0.0 -8.786267582723e-04 
-1.011039081455e-03 -2.136688597495e-04 0.0 
-2.136688597495e-04 6.164847278727e-03 0.0 
0.0 0.0 -9.278975173457e-04 
-2.430528072630e-05 -7.015609586409e-04 0.0 
-7.015609586409e-04 4.939718425864e-04 0.0 
0.0 0.0 -2.012856693686e-04 
-1.258632814515e-03 5.164131841311e-04 0.0 
5.164131841311e-04 8.325970250847e-03 0.0 
0.0 0.0 -1.269179263065e-03 
-1.319279019144e-03 4.296204971761e-04 0.0 
4.296204971761e-04 8.281943168671e-03 0.0 
0.0 0.0 -1.281197857596e-03 
-9.262453737932e-04 -1.856372937015e-04 0.0 
-1.856372937015e-04 5.467657039050e-03 0.0 
0.0 0.0 -8.387747867703e-04 
-1.294839307706e-03 7.871963389554e-06 0.0 
7.871963389554e-06 8.477109428305e-03 0.0 
0.0 0.0 -1.255037608383e-03 
-1.299621148244e-03 5.434080431767e-04 0.0 
5.434080431767e-04 8.249757004039e-03 0.0 
0.0 0.0 -1.285499913836e-03 
-2.377664936208e-04 -4.540001535470e-04 0.0 
-4.540001535470e-04 3.213325829595e-03 0.0 
0.0 0.0 -6.542748834104e-04 
-3.508305791302e-04 -1.119634461832e-03 0.0 
-1.119634461832e-03 3.128022697751e-03 0.0 
0.0 0.0 -6.153450468602e-04 
-1.170236808513e-03 2.917458807147e-05 0.0 
2.917458807147e-05 8.079333353292e-03 0.0 
0.0 0.0 -1.265535665854e-03 
0.0 0.0 0.0 
0.0 0.0 0.0 
0.0 0.0 0.0 
-5.539334103609e-04 1.733294296074e-04 0.0 
1.733294296074e-04 2.467698966066e-03 0.0 
0.0 0.0 -3.941707820484e-04 
-1.082833857300e-03 1.553689403231e-04 0.0 
1.553689403231e-04 5.370486721227e-03 0.0 
0.0 0.0 -8.329475646481e-04 
-6.135075657535e-04 -1.124689673499e-03 0.0 
-1.124689673499e-03 3.074168344220e-03 0.0 
0.0 0.0 -5.313546330462e-04 
-1.846585695015e-04 -7.875180783751e-04 0.0 
-7.875180783751e-04 2.568069228426e-03 0.0 
0.0 0.0 -5.546931404481e-04 
-5.968432958156e-04 5.557088425757e-04 0.0 
5.557088425757e-04 1.865682370622e-03 0.0 
0.0 0.0 -3.196518454468e-04 
-5.899426228830e-04 4.711635003752e-04 0.0 
4.711635003752e-04 2.207717411959e-03 0.0 
0.0 0.0 -3.528063275151e-04 
-9.460265979009e-04 -8.557345978762e-05 0.0 
-8.557345978762e-05 5.600872725538e-03 0.0 
0.0 0.0 -8.290026594306e-04 
-7.188891017228e-05 -7.212145557604e-04 0.0 
-7.212145557604e-04 2.661537409605e-03 0.0 
0.0 0.0 -5.962921515785e-04 
-6.690915239770e-04 -9.469087844434e-06 0.0 
-9.469087844434e-06 2.860475934858e-03 0.0 
0.0 0.0 -4.583473518421e-04 
-9.261983765854e-04 6.205491161324e-04 0.0 
6.205491161324e-04 6.527766796007e-03 0.0 
0.0 0.0 -1.077832113627e-03 
-1.322048612324e-03 -3.324926188937e-04 0.0 
-3.324926188937e-04 8.713395146875e-03 0.0 
0.0 0.0 -1.324978758543e-03 
-1.338720177887e-03 -4.085669882089e-04 0.0 
-4.085669882089e-04 8.670321911685e-03 0.0 
0.0 0.0 -1.320624918399e-03 
-3.849795069765e-04 -6.739500110508e-04 0.0 
-6.739500110508e-04 3.380834248484e-03 0.0 
0.0 0.0 -6.457427040837e-04 
-9.004898588243e-04 1.911488629734e-04 0.0 
1.911488629734e-04 5.018763151201e-03 0.0 
0.0 0.0 -7.877541558771e-04 
0.0 0.0 0.0 
0.0 0.0 0.0 
0.0 0.0 0.0 
-4.359472798887e-04 6.731301800727e-04 0.0 
6.731301800727e-04 1.407239997486e-03 0.0 
0.0 0.0 -3.106513839132e-04 
2.755733972267e-04 -1.401203893809e-03 0.0 
-1.401203893809e-03 4.875020493235e-04 0.0 
0.0 0.0 -3.270323342358e-04 
-5.716509711487e-04 6.241427470327e-04 0.0 
6.241427470327e-04 1.685665452150e-03 0.0 
0.0 0.0 -2.953478464511e-04 
-6.435501651802e-04 2.617971966709e-04 0.0 
2.617971966709e-04 5.324938194352e-03 0.0 
0.0 0.0 -9.116044729693e-04 
-3.892042169670e-04 -9.156083068677e-04 0.0 
-9.156083068677e-04 2.815259890772e-03 0.0 
0.0 0.0 -5.459662534218e-04 
-2.243152923797e-04 -1.093841073510e-03 0.0 
-1.093841073510e-03 2.791137140625e-03 0.0 
0.0 0.0 -5.879858557453e-04 
2.757241657395e-04 -4.810032012259e-04 0.0 
-4.810032012259e-04 1.809007699405e-05 0.0 
0.0 0.0 -1.259203897429e-04 
-1.236651515782e-03 5.783317831820e-05 0.0 
5.783317831820e-05 7.720546241133e-03 0.0 
0.0 0.0 -1.176327079312e-03 
-4.101458141136e-04 -1.240391896891e-03 0.0 
-1.240391896891e-03 2.995120791313e-03 0.0 
0.0 0.0 -5.792774345575e-04 
-1.250725797448e-03 2.916941522596e-04 0.0 
2.916941522596e-04 8.087181627586e-03 0.0 
0.0 0.0 -1.212957849656e-03 
-1.169197980018e-03 -1.036807665068e-04 0.0 
-1.036807665068e-04 7.436974066249e-03 0.0 
0.0 0.0 -1.117460450001e-03 
-1.345176874521e-03 9.425392127595e-05 0.0 
9.425392127595e-05 9.101263988686e-03 0.0 
0.0 0.0 -1.319418651152e-03 
-1.362446196828e-03 -6.566602865703e-05 0.0 
-6.566602865703e-05 8.851718670119e-03 0.0 
0.0 0.0 -1.324849633189e-03 
-9.396876737499e-04 1.580696553299e-04 0.0 
1.580696553299e-04 5.609093298548e-03 0.0 
0.0 0.0 -8.315138651140e-04 
-5.177493296675e-04 -1.164892507562e-03 0.0 
-1.164892507562e-03 3.321630420665e-03 0.0 
0.0 0.0 -6.063493599946e-04 
-5.551169256275e-04 5.845973941815e-04 0.0 
5.845973941815e-04 2.336169535734e-03 0.0 
0.0 0.0 -3.884917441798e-04 
-5.432002518243e-04 -7.156839301842e-04 0.0 
-7.156839301842e-04 3.555258553905e-03 0.0 
0.0 0.0 -6.367902913543e-04 
-1.343328350294e-03 -3.038078432126e-04 0.0 
-3.038078432126e-04 8.521823212692e-03 0.0 
0.0 0.0 -1.343328350294e-03 
-1.737665181201e-04 6.795203959292e-04 0.0 
6.795203959292e-04 8.236163112489e-04 0.0 
0.0 0.0 -2.785070541980e-04 
-2.927518060600e-04 7.425303816206e-04 0.0 
7.425303816206e-04 1.136932491594e-03 0.0 
0.0 0.0 -3.329621070679e-04 
-9.737974110450e-04 -6.386389399083e-05 0.0 
-6.386389399083e-05 7.060307194164e-03 0.0 
0.0 0.0 -1.156027955174e-03 
-8.805235058694e-04 6.847913926848e-05 0.0 
6.847913926848e-05 5.301659598337e-03 0.0 
0.0 0.0 -7.715229432315e-04 
-1.258879221168e-03 2.678324544629e-04 0.0 
2.678324544629e-04 8.150871359494e-03 0.0 
0.0 0.0 -1.219279742240e-03 
-1.080906081071e-03 2.827660258438e-04 0.0 
2.827660258438e-04 6.867060617251e-03 0.0 
0.0 0.0 -1.069611963270e-03 
-1.039924564934e-03 5.350617449269e-04 0.0 
5.350617449269e-04 7.190727662860e-03 0.0 
0.0 0.0 -1.175036385391e-03 
-1.173553033698e-03 2.219944962555e-04 0.0 
2.219944962555e-04 7.297927893888e-03 0.0 
0.0 0.0 -1.113576918908e-03 
-9.402009665324e-04 2.044311077690e-04 0.0 
2.044311077690e-04 5.536177417769e-03 0.0 
0.0 0.0 -8.542750875040e-04 
-5.858259911149e-04 -1.171742995146e-03 0.0 
-1.171742995146e-03 2.676462786012e-03 0.0 
0.0 0.0 -4.674384380614e-04 
-5.422750806607e-04 -8.975033256362e-04 0.0 
-8.975033256362e-04 2.600446559473e-03 0.0 
0.0 0.0 -4.715697005044e-04 
-1.061085808578e-03 2.019693127978e-04 0.0 
2.019693127978e-04 6.591258911724e-03 0.0 
0.0 0.0 -9.963059934037e-04 
-9.926320276344e-04 1.396335034036e-04 0.0 
1.396335034036e-04 7.047433757094e-03 0.0 
0.0 0.0 -1.142506377625e-03 
-8.640826483478e-04 1.602683523403e-04 0.0 
1.602683523403e-04 4.592644147598e-03 0.0 
0.0 0.0 -7.345222264051e-04 
-8.659076808803e-04 1.600457319012e-05 0.0 
1.600457319012e-05 5.296211653200e-03 0.0 
0.0 0.0 -7.676068998053e-04 
-9.151607957151e-04 -5.089667725815e-05 0.0 
-5.089667725815e-05 5.629549572959e-03 0.0 
0.0 0.0 -8.242303029217e-04 
-9.674728246486e-04 -2.123760912739e-04 0.0 
-2.123760912739e-04 5.717004610309e-03 0.0 
0.0 0.0 -8.467401457521e-04 
3.499479768906e-04 -3.973954247046e-04 0.0 
-3.973954247046e-04 -4.658979670494e-05 0.0 
0.0 0.0 -1.300106486510e-04 
-5.930015542773e-04 -7.839114719970e-04 0.0 
-7.839114719970e-04 2.465147057737e-03 0.0 
0.0 0.0 -4.335179088089e-04 
-1.317738620986e-03 2.278366908206e-04 0.0 
2.278366908206e-04 8.695066743648e-03 0.0 
0.0 0.0 -1.269310366786e-03 
-1.008653577782e-03 -1.784318379198e-04 0.0 
-1.784318379198e-04 6.114212471042e-03 0.0 
0.0 0.0 -9.150577043801e-04 
-1.235075525051e-03 3.722470533434e-04 0.0 
3.722470533434e-04 8.051470811527e-03 0.0 
0.0 0.0 -1.295322057178e-03 
-1.262105533747e-03 2.927877395666e-04 0.0 
2.927877395666e-04 8.092325804024e-03 0.0 
0.0 0.0 -1.215577547940e-03 
-1.074267791218e-03 2.611694470269e-04 0.0 
2.611694470269e-04 6.569995446378e-03 0.0 
0.0 0.0 -1.012565562176e-03 
-1.287214307820e-03 9.354055678567e-05 0.0 
9.354055678567e-05 8.149418825250e-03 0.0 
0.0 0.0 -1.214907066889e-03 
-8.465721316982e-04 -1.105505135888e-04 0.0 
-1.105505135888e-04 3.950044235392e-03 0.0 
0.0 0.0 -6.304496659280e-04 
-8.228220456719e-04 -1.151102242294e-04 0.0 
-1.151102242294e-04 3.762441621980e-03 0.0 
0.0 0.0 -5.666856080635e-04 
-1.213791714024e-03 -1.499272758312e-04 0.0 
-1.499272758312e-04 7.648587280659e-03 0.0 
0.0 0.0 -1.226851238141e-03 
0.0 0.0 0.0 
0.0 0.0 0.0 
0.0 0.0 0.0 
-5.508530862849e-04 -1.035100482519e-04 0.0 
-1.035100482519e-04 2.701800587875e-03 0.0 
0.0 0.0 -4.071640756073e-04 
-1.342405754833e-03 4.276126013738e-04 0.0 
4.276126013738e-04 8.356626582993e-03 0.0 
0.0 0.0 -1.342405754833e-03 
-2.369285988354e-04 -1.770299306038e-04 0.0 
-1.770299306038e-04 1.161644229230e-03 0.0 
0.0 0.0 -2.265802816212e-04 
-8.772316900263e-04 3.022985570029e-05 0.0 
3.022985570029e-05 5.030285682320e-03 0.0 
0.0 0.0 -7.870118106326e-04 
-1.087488399424e-03 -9.544139039346e-05 0.0 
-9.544139039346e-05 7.678102904648e-03 0.0 
0.0 0.0 -1.213461936786e-03 
-2.217204533164e-04 -1.125363679953e-04 0.0 
-1.125363679953e-04 8.293133150009e-04 0.0 
0.0 0.0 -1.562362318669e-04 
1.575931452750e-04 -1.091415967636e-04 0.0 
-1.091415967636e-04 4.514811203493e-04 0.0 
0.0 0.0 -1.320567747312e-04 
-1.342371808075e-03 1.025686952786e-04 0.0 
1.025686952786e-04 9.039344740884e-03 0.0 
0.0 0.0 -1.324389858384e-03 
-8.327656305072e-04 1.141712868856e-04 0.0 
1.141712868856e-04 4.641243707897e-03 0.0 
0.0 0.0 -7.294542769151e-04 
-1.288909957265e-03 4.016661537540e-04 0.0 
4.016661537540e-04 8.513544320093e-03 0.0 
0.0 0.0 -1.261418349269e-03 
-1.134288891980e-03 5.741233190870e-05 0.0 
5.741233190870e-05 7.407101021319e-03 0.0 
0.0 0.0 -1.231858344535e-03 
-8.347679035328e-04 -3.570531223968e-05 0.0 
-3.570531223968e-05 4.629434413509e-03 0.0 
0.0 0.0 -7.289279708929e-04 
0.0 0.0 0.0 
0.0 0.0 0.0 
0.0 0.0 0.0 
-1.305379233758e-03 -6.071779487898e-05 0.0 
-6.071779487898e-05 8.461113597457e-03 0.0 
0.0 0.0 -1.284140717546e-03 
-3.100289480378e-04 -3.270232557407e-04 0.0 
-3.270232557407e-04 1.355870936008e-03 0.0 
0.0 0.0 -2.433545560381e-04 
-1.282233343865e-03 2.781824875359e-04 0.0 
2.781824875359e-04 8.180219452641e-03 0.0 
0.0 0.0 -1.232184317627e-03 
-1.343095105526e-03 -2.432827260553e-04 0.0 
-2.432827260553e-04 8.545412507579e-03 0.0 
0.0 0.0 -1.343095105526e-03 
-1.292199045367e-03 2.524866178233e-04 0.0 
2.524866178233e-04 8.014541847179e-03 0.0 
0.0 0.0 -1.225700354592e-03 
4.686342162084e-04 -7.265370554805e-04 0.0 
-7.265370554805e-04 5.162950173448e-06 0.0 
0.0 0.0 -2.030559284494e-04 
-9.540260339352e-04 1.631930893359e-04 0.0 
1.631930893359e-04 5.653552826698e-03 0.0 
0.0 0.0 -8.279144014868e-04 
-8.950557039055e-04 -2.748800359507e-04 0.0 
-2.748800359507e-04 4.199615522516e-03 0.0 
0.0 0.0 -6.271989868224e-04 
-8.983235361331e-04 1.933150702716e-04 0.0 
1.933150702716e-04 6.546966492063e-03 0.0 
0.0 0.0 -1.077599360682e-03 
-1.273669225217e-03 1.720409005563e-04 0.0 
1.720409005563e-04 8.518730660981e-03 0.0 
0.0 0.0 -1.326997735404e-03 
-1.142899871982e-03 1.477724546960e-04 0.0 
1.477724546960e-04 7.166026161736e-03 0.0 
0.0 0.0 -1.061614915164e-03 
-1.285004601792e-03 2.929428446180e-04 0.0 
2.929428446180e-04 8.490810498827e-03 0.0 
0.0 0.0 -1.325870641008e-03 
0.0 0.0 0.0 
0.0 0.0 0.0 
0.0 0.0 0.0 
-1.297780734717e-03 -4.166830862430e-04 0.0 
-4.166830862430e-04 8.366714279713e-03 0.0 
0.0 0.0 -1.277656510522e-03 
2.368160629241e-04 -1.409681499125e-03 0.0 
-1.409681499125e-03 7.013780298968e-04 0.0 
0.0 0.0 -3.431348957073e-04 
-2.589194545670e-04 3.821483992917e-05 0.0 
3.821483992917e-05 1.124631262589e-03 0.0 
0.0 0.0 -2.298118214877e-04 
-1.194197405020e-03 -2.475227437211e-04 0.0 
-2.475227437211e-04 8.105636908586e-03 0.0 
0.0 0.0 -1.270335377537e-03 
-1.315524425911e-03 2.690035540339e-04 0.0 
2.690035540339e-04 8.643806800304e-03 0.0 
0.0 0.0 -1.270603359501e-03 
-1.320702306464e-03 4.960564232440e-05 0.0 
4.960564232440e-05 8.625092567998e-03 0.0 
0.0 0.0 -1.289850838753e-03 
-8.753308640926e-04 2.257063470840e-04 0.0 
2.257063470840e-04 5.095730312348e-03 0.0 
0.0 0.0 -7.762633204683e-04 
-9.835570351374e-04 3.967893708127e-04 0.0 
3.967893708127e-04 5.483942639045e-03 0.0 
0.0 0.0 -8.489529362435e-04 
-3.868195665134e-04 1.249245404028e-03 0.0 
1.249245404028e-03 1.493087960549e-03 0.0 
0.0 0.0 -3.390228113434e-04 
-1.290611125717e-03 4.069284773612e-04 0.0 
4.069284773612e-04 8.488337706707e-03 0.0 
0.0 0.0 -1.273041473476e-03 
-7.431920671866e-04 3.360733235591e-05 0.0 
3.360733235591e-05 3.408921231342e-03 0.0 
0.0 0.0 -5.357483711987e-04 
2.011032744506e-04 7.720499985605e-04 0.0 
7.720499985605e-04 2.146802318038e-04 0.0 
0.0 0.0 -1.781929312519e-04 
-9.370458151346e-04 5.508245939114e-04 0.0 
5.508245939114e-04 6.747683680752e-03 0.0 
0.0 0.0 -1.110141529071e-03 
-8.032989009541e-04 -1.045980115988e-05 0.0 
-1.045980115988e-05 4.870464455063e-03 0.0 
0.0 0.0 -7.096328662732e-04 
-1.279256756890e-03 4.600607687250e-04 0.0 
4.600607687250e-04 8.175326591168e-03 0.0 
0.0 0.0 -1.237729719596e-03 
-1.329072194852e-03 -1.834247142824e-04 0.0 
-1.834247142824e-04 8.977472730193e-03 0.0 
0.0 0.0 -1.321509982054e-03 
-1.343732204276e-03 7.562212797617e-06 0.0 
7.562212797617e-06 8.849786333364e-03 0.0 
0.0 0.0 -1.343732204276e-03 
6.465688167897e-04 1.663781779480e-05 0.0 
1.663781779480e-05 -3.978289505741e-05 0.0 
0.0 0.0 -8.420285294201e-05 
3.868700612373e-04 3.921670605925e-05 0.0 
3.921670605925e-05 -6.204561696291e-05 0.0 
0.0 0.0 -1.378576441850e-04 
-8.247124983758e-04 -1.687178518224e-04 0.0 
-1.687178518224e-04 4.737962601015e-03 0.0 
0.0 0.0 -7.318233512793e-04 
-8.319071836255e-04 2.758419797137e-05 0.0 
2.758419797137e-05 4.882188569804e-03 0.0 
0.0 0.0 -7.096011290571e-04 
-1.343732204276e-03 -2.755821224564e-05 0.0 
-2.755821224564e-05 8.606219025581e-03 0.0 
0.0 0.0 -1.343732204276e-03 
-1.349068194300e-03 1.748780922349e-04 0.0 
1.748780922349e-04 8.742452044457e-03 0.0 
0.0 0.0 -1.321509982054e-03 
2.267983165528e-04 1.503551410355e-04 0.0 
1.503551410355e-04 3.801820683437e-04 0.0 
0.0 0.0 -1.379425883790e-04 
0.0 0.0 0.0 
0.0 0.0 0.0 
0.0 0.0 0.0 
-1.304839210467e-03 -7.091443056662e-05 0.0 
-7.091443056662e-05 7.889011230752e-03 0.0 
0.0 0.0 -1.230181737024e-03 
-1.133789878205e-03 6.963372694564e-04 0.0 
6.963372694564e-04 7.661762773916e-03 0.0 
0.0 0.0 -1.209364118140e-03 
-3.105423637276e-04 -2.525564358258e-04 0.0 
-2.525564358258e-04 1.694140784916e-03 0.0 
0.0 0.0 -2.712674790923e-04 
-1.264304018708e-03 -4.229761773583e-04 0.0 
-4.229761773583e-04 7.912894217144e-03 0.0 
0.0 0.0 -1.240191881334e-03 
-1.104648569634e-03 -8.128511201330e-05 0.0 
-8.128511201330e-05 5.687324916732e-03 0.0 
0.0 0.0 -8.888375990210e-04 
-1.026907705388e-03 -2.214158958103e-04 0.0 
-2.214158958103e-04 5.060294452777e-03 0.0 
0.0 0.0 -7.610796297342e-04 
-1.050200639505e-03 1.276309243533e-04 0.0 
1.276309243533e-04 6.471471583772e-03 0.0 
0.0 0.0 -9.400782610458e-04 
-2.965318753647e-05 -1.331164902240e-03 0.0 
-1.331164902240e-03 9.056852696167e-04 0.0 
0.0 0.0 -3.754423208915e-04 
-8.088866268099e-04 2.301224893319e-04 0.0 
2.301224893319e-04 6.098327421906e-03 0.0 
0.0 0.0 -1.011657465016e-03 
-2.272445053013e-04 -9.535102935050e-05 0.0 
-9.535102935050e-05 1.388764162386e-03 0.0 
0.0 0.0 -2.181484037039e-04 
-9.136007493904e-04 -3.789003197154e-04 0.0 
-3.789003197154e-04 4.494388172482e-03 0.0 
0.0 0.0 -6.997415131527e-04 
-1.249092671204e-03 5.668738205519e-04 0.0 
5.668738205519e-04 7.979681115669e-03 0.0 
0.0 0.0 -1.240519096027e-03 
-1.238391952882e-03 -2.103174549131e-04 0.0 
-2.103174549131e-04 8.038627661496e-03 0.0 
0.0 0.0 -1.191726112421e-03 
-9.811853638777e-04 4.571159586099e-05 0.0 
4.571159586099e-05 4.872542694396e-03 0.0 
0.0 0.0 -7.690942022927e-04 
-9.767560317632e-04 -1.705867274286e-04 0.0 
-1.705867274286e-04 5.944945665690e-03 0.0 
0.0 0.0 -8.745659502648e-04 
-1.201104368766e-03 5.803220864547e-04 0.0 
5.803220864547e-04 7.939240582663e-03 0.0 
0.0 0.0 -1.217119345309e-03 
-1.179845702415e-03 2.452002266232e-04 0.0 
2.452002266232e-04 7.438662012216e-03 0.0 
0.0 0.0 -1.140944809983e-03 
-1.127959464392e-03 2.474309966313e-04 0.0 
2.474309966313e-04 7.001139959042e-03 0.0 
0.0 0.0 -1.076426999079e-03 
-8.393109454079e-04 2.446878724435e-05 0.0 
2.446878724435e-05 4.620539471492e-03 0.0 
0.0 0.0 -7.312123441678e-04 
-7.325714353874e-04 1.943037271299e-04 0.0 
1.943037271299e-04 5.805049329063e-03 0.0 
0.0 0.0 -9.763781674015e-04 
-1.278424948200e-03 4.732838707970e-04 0.0 
4.732838707970e-04 8.049805466019e-03 0.0 
0.0 0.0 -1.231404929774e-03 
-6.063671140810e-04 1.348850002822e-06 0.0 
1.348850002822e-06 2.558361798436e-03 0.0 
0.0 0.0 -4.167967844001e-04 
-7.171547725390e-05 -2.177777186911e-04 0.0 
-2.177777186911e-04 5.764019490181e-04 0.0 
0.0 0.0 -1.015157820784e-04 
-1.170824655935e-03 3.363594053323e-04 0.0 
3.363594053323e-04 7.539332247117e-03 0.0 
0.0 0.0 -1.185975225609e-03 
-9.133715629689e-04 2.312110862865e-04 0.0 
2.312110862865e-04 6.719277881344e-03 0.0 
0.0 0.0 -1.123538223191e-03 
1.132049243546e-04 -1.050372997865e-03 0.0 
-1.050372997865e-03 4.871548077874e-04 0.0 
0.0 0.0 -2.572970280609e-04 
-1.081558890546e-03 -1.399243451463e-04 0.0 
-1.399243451463e-04 6.772240372319e-03 0.0 
0.0 0.0 -9.893338170986e-04 
-1.329126769976e-03 -2.338155039388e-04 0.0 
-2.338155039388e-04 8.188960966632e-03 0.0 
0.0 0.0 -1.282739585886e-03 
-1.129882241773e-03 5.744296922873e-04 0.0 
5.744296922873e-04 7.355375345581e-03 0.0 
0.0 0.0 -1.182073443778e-03 
-1.178192896547e-03 4.553534655183e-04 0.0 
4.553534655183e-04 7.891430484162e-03 0.0 
0.0 0.0 -1.215129606110e-03 
-1.157436434489e-03 -2.420799146488e-04 0.0 
-2.420799146488e-04 6.201441230335e-03 0.0 
0.0 0.0 -9.537126495859e-04 
0.0 0.0 0.0 
0.0 0.0 0.0 
0.0 0.0 0.0 
-5.231800249051e-04 6.591753538455e-04 0.0 
6.591753538455e-04 1.847843507099e-03 0.0 
0.0 0.0 -3.212443691966e-04 
-5.564787132596e-04 8.940027195274e-04 0.0 
8.940027195274e-04 2.137708509351e-03 0.0 
0.0 0.0 -3.834349432650e-04 
-9.473774776597e-04 1.764703939582e-04 0.0 
1.764703939582e-04 5.384019631323e-03 0.0 
0.0 0.0 -8.471429939415e-04 
-7.614839710960e-04 6.584444641784e-04 0.0 
6.584444641784e-04 5.752238999582e-03 0.0 
0.0 0.0 -9.781602908260e-04 
-1.285624241878e-03 -4.326792981855e-05 0.0 
-4.326792981855e-05 8.288168648148e-03 0.0 
0.0 0.0 -1.236541257690e-03 
-1.217308294029e-03 1.640866066604e-04 0.0 
1.640866066604e-04 7.793774931469e-03 0.0 
0.0 0.0 -1.282325209426e-03 
-8.954075940437e-05 -8.680076304404e-04 0.0 
-8.680076304404e-04 7.337139848585e-04 0.0 
0.0 0.0 -2.760742394804e-04 
-3.009716750380e-04 -4.715458723185e-04 0.0 
-4.715458723185e-04 9.308600569539e-04 0.0 
0.0 0.0 -1.704796444516e-04 
-4.318023328758e-04 9.056222759074e-04 0.0 
9.056222759074e-04 1.421929475039e-03 0.0 
0.0 0.0 -2.747970858071e-04 
-1.085049996288e-03 3.161557202625e-04 0.0 
3.161557202625e-04 6.749947888276e-03 0.0 
0.0 0.0 -1.019242131223e-03 
-7.105673598930e-04 -3.560858813606e-04 0.0 
-3.560858813606e-04 3.243394900527e-03 0.0 
0.0 0.0 -4.953283059016e-04 
-1.294058250345e-03 1.194991635526e-04 0.0 
1.194991635526e-04 8.278027413572e-03 0.0 
0.0 0.0 -1.241298427557e-03 
-2.801916649698e-04 -2.169380665087e-04 0.0 
-2.169380665087e-04 1.598671665654e-03 0.0 
0.0 0.0 -2.623907620756e-04 
-1.097220766083e-03 2.014729423047e-04 0.0 
2.014729423047e-04 7.397517373048e-03 0.0 
0.0 0.0 -1.221152601860e-03 
-9.286181991470e-04 2.455314232276e-04 0.0 
2.455314232276e-04 5.488935049062e-03 0.0 
0.0 0.0 -8.343732341398e-04 
-1.223283272536e-03 3.593359299497e-04 0.0 
3.593359299497e-04 7.932879470025e-03 0.0 
0.0 0.0 -1.286815605725e-03 
-9.712654839318e-04 1.866157351704e-04 0.0 
1.866157351704e-04 6.891208363551e-03 0.0 
0.0 0.0 -1.111121968474e-03 
-9.581999826764e-04 8.182036761545e-05 0.0 
8.182036761545e-05 5.388937206970e-03 0.0 
0.0 0.0 -8.465141837044e-04 
-1.209961591988e-03 -2.976225161964e-04 0.0 
-2.976225161964e-04 8.170684166123e-03 0.0 
0.0 0.0 -1.269142588751e-03 
-1.323046623582e-03 3.793136222843e-04 0.0 
3.793136222843e-04 8.658663539059e-03 0.0 
0.0 0.0 -1.272727265576e-03 
-1.289749640490e-03 9.124365830308e-05 0.0 
9.124365830308e-05 8.709454540694e-03 0.0 
0.0 0.0 -1.271339345674e-03 
-1.626085801218e-04 8.571684415748e-04 0.0 
8.571684415748e-04 8.875192706734e-04 0.0 
0.0 0.0 -3.044868356389e-04 
-1.267095409920e-03 4.070899744542e-04 0.0 
4.070899744542e-04 8.089876134210e-03 0.0 
0.0 0.0 -1.218309553141e-03 
-1.282164121305e-03 5.174305312528e-04 0.0 
5.174305312528e-04 8.083053308233e-03 0.0 
0.0 0.0 -1.286645293131e-03 
-1.059215435768e-03 -2.009543418022e-05 0.0 
-2.009543418022e-05 7.573607372665e-03 0.0 
0.0 0.0 -1.211735819529e-03 
-9.987418032593e-04 6.142229130813e-04 0.0 
6.142229130813e-04 6.982246170552e-03 0.0 
0.0 0.0 -1.143254064081e-03 
-1.342665167303e-03 -2.857461739196e-04 0.0 
-2.857461739196e-04 8.440143907241e-03 0.0 
0.0 0.0 -1.342665167303e-03 
-1.126760089934e-03 6.437426727216e-04 0.0 
6.437426727216e-04 6.937086787485e-03 0.0 
0.0 0.0 -1.079065255302e-03 
0.0 0.0 0.0 
0.0 0.0 0.0 
0.0 0.0 0.0 
6.191816026709e-05 1.291205818517e-03 0.0 
1.291205818517e-03 7.179353342320e-04 0.0 
0.0 0.0 -3.342229262139e-04 
-1.235056862706e-03 2.777301788060e-04 0.0 
2.777301788060e-04 7.736779237008e-03 0.0 
0.0 0.0 -1.176936364471e-03 
-9.923017078165e-04 3.078956919309e-04 0.0 
3.078956919309e-04 5.849121224287e-03 0.0 
0.0 0.0 -8.884613587993e-04 
-1.298948170332e-03 -3.124306146209e-04 0.0 
-3.124306146209e-04 7.977511740223e-03 0.0 
0.0 0.0 -1.221994126432e-03 
-1.061095181676e-03 1.799058826279e-04 0.0 
1.799058826279e-04 7.334426391334e-03 0.0 
0.0 0.0 -1.177009544428e-03 
-1.289141827740e-03 -3.383964038360e-04 0.0 
-3.383964038360e-04 8.125835853115e-03 0.0 
0.0 0.0 -1.292249833993e-03 
-1.132172011691e-03 2.813138638496e-04 0.0 
2.813138638496e-04 7.272270790879e-03 0.0 
0.0 0.0 -1.085521458831e-03 
-1.247617681667e-03 2.986308671608e-04 0.0 
2.986308671608e-04 7.907076372021e-03 0.0 
0.0 0.0 -1.288973456333e-03 
-1.183175849056e-03 -4.290305750124e-04 0.0 
-4.290305750124e-04 7.735436170610e-03 0.0 
0.0 0.0 -1.233322439334e-03 
-1.175389870133e-03 -8.154118169286e-05 0.0 
-8.154118169286e-05 7.695545006504e-03 0.0 
0.0 0.0 -1.235043566395e-03 
-7.287005066558e-04 -2.363504694994e-04 0.0 
-2.363504694994e-04 3.412626924282e-03 0.0 
0.0 0.0 -5.104964012366e-04 
-1.311532395302e-03 -3.318821641935e-04 0.0 
-3.318821641935e-04 8.754426494470e-03 0.0 
0.0 0.0 -1.325641941534e-03 
-8.790480836699e-04 9.973280973964e-05 0.0 
9.973280973964e-05 5.256747279211e-03 0.0 
0.0 0.0 -7.662153309038e-04 
-1.249481013832e-03 -1.180321759362e-04 0.0 
-1.180321759362e-04 8.200814515591e-03 0.0 
0.0 0.0 -1.217406395242e-03 
-1.652940304057e-04 -5.197313760388e-04 0.0 
-5.197313760388e-04 7.163944105236e-04 0.0 
0.0 0.0 -2.361858771934e-04 
-1.199456095747e-03 -9.281141696113e-05 0.0 
-9.281141696113e-05 7.932283218576e-03 0.0 
0.0 0.0 -1.163202487293e-03 
-1.073812189916e-03 1.019150907597e-06 0.0 
1.019150907597e-06 6.842466406292e-03 0.0 
0.0 0.0 -9.926133712568e-04 
-8.677292434787e-05 -7.776541442063e-05 0.0 
-7.776541442063e-05 9.098025117225e-04 0.0 
0.0 0.0 -1.628620303624e-04 
5.265410319422e-04 -6.941530982861e-04 0.0 
-6.941530982861e-04 -3.231659341296e-05 0.0 
0.0 0.0 -2.118104736554e-04 
-1.137863848184e-03 6.727746037847e-04 0.0 
6.727746037847e-04 7.103743294949e-03 0.0 
0.0 0.0 -1.107581195644e-03 
-1.316054950297e-03 1.463718814179e-04 0.0 
1.463718814179e-04 8.450854861123e-03 0.0 
0.0 0.0 -1.285368862661e-03 
-1.275071184009e-03 -1.337709164893e-04 0.0 
-1.337709164893e-04 8.307471815085e-03 0.0 
0.0 0.0 -1.223917301752e-03 
-1.160153297854e-03 5.261040585439e-04 0.0 
5.261040585439e-04 7.939180437513e-03 0.0 
0.0 0.0 -1.264779455601e-03 
-9.786681000752e-04 2.797069543092e-04 0.0 
2.797069543092e-04 5.828399650514e-03 0.0 
0.0 0.0 -8.807565902733e-04 
6.088519586403e-05 -4.917250620978e-05 0.0 
-4.917250620978e-05 4.869793999348e-04 0.0 
0.0 0.0 -1.094929743475e-04 
6.111566355022e-05 5.640636810902e-05 0.0 
5.640636810902e-05 -1.157323767526e-05 0.0 
0.0 0.0 -2.123246823213e-05 
-1.420251948107e-04 8.764175524857e-05 0.0 
8.764175524857e-05 4.773240057954e-04 0.0 
0.0 0.0 -1.256389127973e-04 
-3.632499277279e-04 -7.837444408696e-04 0.0 
-7.837444408696e-04 1.194209396961e-03 0.0 
0.0 0.0 -2.225718436208e-04 
0.0 0.0 0.0 
0.0 0.0 0.0 
0.0 0.0 0.0 
-8.980038842560e-04 -6.868916122841e-05 0.0 
-6.868916122841e-05 4.504377363934e-03 0.0 
0.0 0.0 -6.753304527203e-04 
-1.294165048711e-03 6.161991819009e-05 0.0 
6.161991819009e-05 7.969168976077e-03 0.0 
0.0 0.0 -1.222305993939e-03 
-1.264474650052e-03 5.734696938905e-04 0.0 
5.734696938905e-04 8.077312517039e-03 0.0 
0.0 0.0 -1.222833113937e-03 
-1.006464770387e-03 3.394189907578e-05 0.0 
3.394189907578e-05 5.834781281692e-03 0.0 
0.0 0.0 -8.826313165011e-04 
-8.266334947460e-04 -5.354606523691e-04 0.0 
-5.354606523691e-04 3.869366937566e-03 0.0 
0.0 0.0 -5.988529843847e-04 
-1.198642937147e-03 -4.684662880526e-04 0.0 
-4.684662880526e-04 7.783754842457e-03 0.0 
0.0 0.0 -1.221067908166e-03 
-1.068035990990e-03 1.115403335333e-04 0.0 
1.115403335333e-04 7.531635864011e-03 0.0 
0.0 0.0 -1.208702654310e-03 
-1.208049507468e-03 4.869249044164e-04 0.0 
4.869249044164e-04 8.191633662499e-03 0.0 
0.0 0.0 -1.272252409145e-03 
-1.227816291176e-03 4.361504529360e-04 0.0 
4.361504529360e-04 7.755209047765e-03 0.0 
0.0 0.0 -1.237422270938e-03 
-1.191139084829e-03 6.619264216726e-04 0.0 
6.619264216726e-04 7.533865048847e-03 0.0 
0.0 0.0 -1.171232062679e-03 
-1.920899935495e-04 -3.005289282689e-04 0.0 
-3.005289282689e-04 6.978999469600e-04 0.0 
0.0 0.0 -2.167756943188e-04 
0.0 0.0 0.0 
0.0 0.0 0.0 
0.0 0.0 0.0 
-1.308655472056e-03 -3.526594848147e-04 0.0 
-3.526594848147e-04 8.026041467974e-03 0.0 
0.0 0.0 -1.223662873675e-03 
-1.521155326843e-04 1.616990335056e-05 0.0 
1.616990335056e-05 7.009749630609e-04 0.0 
0.0 0.0 -1.761523314621e-04 
-1.768246005743e-04 2.416090922495e-04 0.0 
2.416090922495e-04 1.018026141244e-03 0.0 
0.0 0.0 -1.933333333332e-04 
1.266269026244e-04 4.459901967828e-04 0.0 
4.459901967828e-04 1.149333659383e-04 0.0 
0.0 0.0 -1.035258293840e-04 
-1.677849962930e-04 -2.830770546558e-04 0.0 
-2.830770546558e-04 8.015651116380e-04 0.0 
0.0 0.0 -1.580296812506e-04 
-1.271854076500e-03 -2.557043152436e-04 0.0 
-2.557043152436e-04 7.945254530657e-03 0.0 
0.0 0.0 -1.288571152055e-03 
-1.306788030849e-03 4.109202426763e-04 0.0 
4.109202426763e-04 8.216249132470e-03 0.0 
0.0 0.0 -1.290113636706e-03 
-1.294468783320e-03 3.035835675296e-04 0.0 
3.035835675296e-04 8.293038568859e-03 0.0 
0.0 0.0 -1.236907757659e-03 
-1.272697522653e-03 4.000546130428e-04 0.0 
4.000546130428e-04 7.992915461605e-03 0.0 
0.0 0.0 -1.292605224168e-03 
-1.039048517881e-03 -2.511628389219e-04 0.0 
-2.511628389219e-04 7.217306455236e-03 0.0 
0.0 0.0 -1.176879138244e-03 
-9.963056410622e-04 2.982297539881e-04 0.0 
2.982297539881e-04 6.108837095234e-03 0.0 
0.0 0.0 -9.170130443517e-04 
-1.345069444888e-03 2.094806773474e-04 0.0 
2.094806773474e-04 8.819921791921e-03 0.0 
0.0 0.0 -1.345069444888e-03 
1.552293122710e-04 -1.587596842018e-03 0.0 
-1.587596842018e-03 7.594496357434e-04 0.0 
0.0 0.0 -3.920052634347e-04 
-7.958568066072e-04 2.655126968941e-05 0.0 
2.655126968941e-05 4.862635053177e-03 0.0 
0.0 0.0 -7.083073883397e-04 
-3.709027017310e-05 -1.154290083415e-03 0.0 
-1.154290083415e-03 8.071251517729e-04 0.0 
0.0 0.0 -3.300149492571e-04 
-8.078687300304e-05 2.766710122456e-05 0.0 
2.766710122456e-05 2.705585081320e-04 0.0 
0.0 0.0 -8.133070076957e-05 
-1.328088305276e-03 -2.091716352919e-04 0.0 
-2.091716352919e-04 8.801339781229e-03 0.0 
0.0 0.0 -1.323850096553e-03 
-9.077000763770e-04 9.794404475146e-05 0.0 
9.794404475146e-05 5.306610706151e-03 0.0 
0.0 0.0 -7.731261162940e-04 
-1.693805322071e-04 -2.625883935893e-05 0.0 
-2.625883935893e-05 1.305243597625e-03 0.0 
0.0 0.0 -2.115341463249e-04 
-9.189085389785e-04 8.964891235688e-05 0.0 
8.964891235688e-05 4.273021875062e-03 0.0 
0.0 0.0 -6.570498647039e-04 
-1.286146232063e-03 5.231039738263e-04 0.0 
5.231039738263e-04 8.474365430469e-03 0.0 
0.0 0.0 -1.276804206569e-03 
-1.288400651325e-03 -4.306470642738e-06 0.0 
-4.306470642738e-06 8.274343384212e-03 0.0 
0.0 0.0 -1.228616961883e-03 
-1.323624610775e-03 3.216369829918e-04 0.0 
3.216369829918e-04 8.408100187569e-03 0.0 
0.0 0.0 -1.289666537713e-03 
-6.585033223124e-04 -1.956809026779e-04 0.0 
-1.956809026779e-04 3.104860358543e-03 0.0 
0.0 0.0 -4.695399720401e-04 
0.0 0.0 0.0 
0.0 0.0 0.0 
0.0 0.0 0.0 
-1.295369683638e-03 -4.352781909349e-04 0.0 
-4.352781909349e-04 8.328377963407e-03 0.0 
0.0 0.0 -1.273144391159e-03 
-1.316384665971e-03 4.635940691717e-05 0.0 
4.635940691717e-05 9.091692367136e-03 0.0 
0.0 0.0 -1.325353038101e-03 
-1.373672636792e-03 -7.774901455504e-05 0.0 
-7.774901455504e-05 8.873813327292e-03 0.0 
0.0 0.0 -1.323783523096e-03 
-8.637809619907e-04 1.323503679534e-04 0.0 
1.323503679534e-04 5.089707097874e-03 0.0 
0.0 0.0 -7.673431308700e-04 
-1.131532193974e-03 -7.726473612600e-05 0.0 
-7.726473612600e-05 7.445464928451e-03 0.0 
0.0 0.0 -1.231867668451e-03 
-2.317572587520e-04 -1.314436244158e-04 0.0 
-1.314436244158e-04 1.130415722071e-03 0.0 
0.0 0.0 -2.324200178898e-04 
-1.299745087394e-03 4.291095854891e-04 0.0 
4.291095854891e-04 8.286657472724e-03 0.0 
0.0 0.0 -1.241575510934e-03 
-4.846130298420e-05 -4.886976193625e-05 0.0 
-4.886976193625e-05 2.622595636012e-04 0.0 
0.0 0.0 -9.162782597871e-05 
-1.263516092246e-03 -1.718330630488e-04 0.0 
-1.718330630488e-04 7.907025787409e-03 0.0 
0.0 0.0 -1.290713494763e-03 
-1.321680158597e-03 4.673078731777e-04 0.0 
4.673078731777e-04 8.597815189326e-03 0.0 
0.0 0.0 -1.268585396830e-03 
0.0 0.0 0.0 
0.0 0.0 0.0 
0.0 0.0 0.0 
-1.124591088079e-03 3.211880423142e-04 0.0 
3.211880423142e-04 7.458066064736e-03 0.0 
0.0 0.0 -1.178018281593e-03 
-1.107869427890e-03 -1.505180591586e-04 0.0 
-1.505180591586e-04 7.012739571933e-03 0.0 
0.0 0.0 -1.053859681778e-03 
-1.308771083341e-03 9.446579517484e-05 0.0 
9.446579517484e-05 8.493525012630e-03 0.0 
0.0 0.0 -1.289687241943e-03 
-1.346242744377e-03 2.039443759450e-04 0.0 
2.039443759450e-04 8.307404063276e-03 0.0 
0.0 0.0 -1.346242744377e-03 
-1.050842893348e-03 -2.891538303944e-04 0.0 
-2.891538303944e-04 6.421171579649e-03 0.0 
0.0 0.0 -9.627310317561e-04 
-1.303758961951e-03 4.903154082554e-04 0.0 
4.903154082554e-04 8.278630388455e-03 0.0 
0.0 0.0 -1.292510612804e-03 
-1.300990074097e-03 1.669276888751e-04 0.0 
1.669276888751e-04 8.244189692926e-03 0.0 
0.0 0.0 -1.236507170568e-03 
-1.088170666265e-03 3.228048852164e-05 0.0 
3.228048852164e-05 6.587667922864e-03 0.0 
0.0 0.0 -1.009625451247e-03 
-1.257890102395e-03 4.520446479729e-04 0.0 
4.520446479729e-04 7.985706155656e-03 0.0 
0.0 0.0 -1.247605899893e-03 
-7.721939041237e-04 -2.584607340664e-04 0.0 
-2.584607340664e-04 3.598089332548e-03 0.0 
0.0 0.0 -5.668522599723e-04 
-8.446801208318e-04 -1.785300824749e-05 0.0 
-1.785300824749e-05 4.608085736335e-03 0.0 
0.0 0.0 -7.287847301676e-04 
-1.179784032877e-03 5.549241153248e-04 0.0 
5.549241153248e-04 7.775803262496e-03 0.0 
0.0 0.0 -1.239219007812e-03 
-1.299529222104e-03 1.321426560981e-04 0.0 
1.321426560981e-04 8.646134742124e-03 0.0 
0.0 0.0 -1.286506427510e-03 
2.831255439195e-04 1.360672473440e-05 0.0 
1.360672473440e-05 -8.482055415176e-05 0.0 
0.0 0.0 -8.498785275758e-05 
-8.370484008237e-04 5.623912198418e-05 0.0 
5.623912198418e-05 4.626828224470e-03 0.0 
0.0 0.0 -7.284590636140e-04 
-1.335071484274e-03 -1.600713729454e-04 0.0 
-1.600713729454e-04 8.440371416104e-03 0.0 
0.0 0.0 -1.288082484959e-03 
-3.767414468585e-04 -4.451842935600e-05 0.0 
-4.451842935600e-05 1.577633672495e-03 0.0 
0.0 0.0 -2.765646858065e-04 
-1.088631360797e-03 4.564803545026e-05 0.0 
4.564803545026e-05 7.667059339477e-03 0.0 
0.0 0.0 -1.213252366005e-03 
-1.271794335805e-03 2.301245021833e-04 0.0 
2.301245021833e-04 8.183403677429e-03 0.0 
0.0 0.0 -1.225943235494e-03 
-1.312602819485e-03 -3.967668182090e-05 0.0 
-3.967668182090e-05 8.691988746778e-03 0.0 
0.0 0.0 -1.269037835114e-03 
-3.083660169777e-04 2.694773361529e-05 0.0 
2.694773361529e-05 1.528069924280e-03 0.0 
0.0 0.0 -2.647987373252e-04 
3.113151605038e-04 9.413576912784e-04 0.0 
9.413576912784e-04 1.991549585730e-04 0.0 
0.0 0.0 -2.187729081758e-04 
-1.068435724364e-03 3.124616463362e-04 0.0 
3.124616463362e-04 5.213213290896e-03 0.0 
0.0 0.0 -7.939471195916e-04 
-1.202568648909e-03 1.058847220047e-04 0.0 
1.058847220047e-04 7.572272609772e-03 0.0 
0.0 0.0 -1.120841203304e-03 
0.0 0.0 0.0 
0.0 0.0 0.0 
0.0 0.0 0.0 
-1.320199164535e-03 2.485994904543e-04 0.0 
2.485994904543e-04 8.472368730029e-03 0.0 
0.0 0.0 -1.292233508669e-03 
-1.037229848653e-03 5.491249721839e-05 0.0 
5.491249721839e-05 6.181123680978e-03 0.0 
0.0 0.0 -9.501928138396e-04 
-2.112219927373e-05 -1.374997492072e-03 0.0 
-1.374997492072e-03 9.175924767207e-04 0.0 
0.0 0.0 -3.842015474773e-04 
-1.012609583766e-03 8.895330680236e-05 0.0 
8.895330680236e-05 5.872726185200e-03 0.0 
0.0 0.0 -9.030544305944e-04 
-1.225691657466e-03 3.254133079920e-04 0.0 
3.254133079920e-04 8.211721301461e-03 0.0 
0.0 0.0 -1.271643562581e-03 
-1.073143154962e-03 -3.082428058209e-04 0.0 
-3.082428058209e-04 5.482950483311e-03 0.0 
0.0 0.0 -8.272804529250e-04 
-4.562648895711e-05 5.701897176753e-04 0.0 
5.701897176753e-04 6.807780538111e-05 0.0 
0.0 0.0 -9.621992753141e-06 
-7.676399437614e-04 -3.808740375144e-05 0.0 
-3.808740375144e-05 3.237219166554e-03 0.0 
0.0 0.0 -5.209635072927e-04 
-9.628338005869e-04 -8.201294567373e-05 0.0 
-8.201294567373e-05 4.764994978367e-03 0.0 
0.0 0.0 -7.319997505002e-04 
-1.071554526652e-03 3.282695898754e-04 0.0 
3.282695898754e-04 5.655927594763e-03 0.0 
0.0 0.0 -8.599999999992e-04 
-1.135384068353e-03 1.731479619930e-04 0.0 
1.731479619930e-04 7.715574497297e-03 0.0 
0.0 0.0 -1.232780192057e-03 
-9.798919804233e-04 -2.558628748534e-04 0.0 
-2.558628748534e-04 4.608642650891e-03 0.0 
0.0 0.0 -7.175509632692e-04 
-9.821029958470e-04 -3.508647879924e-05 0.0 
-3.508647879924e-05 4.890525845077e-03 0.0 
0.0 0.0 -7.596628988333e-04 
-1.837560013843e-04 -1.583099615282e-05 0.0 
-1.583099615282e-05 7.060885550868e-04 0.0 
0.0 0.0 -1.551230728613e-04 
-1.279400136320e-03 -1.566945304177e-04 0.0 
-1.566945304177e-04 7.936225660633e-03 0.0 
0.0 0.0 -1.240629869904e-03 
-1.185998620198e-03 6.438056067403e-04 0.0 
6.438056067403e-04 7.550199019485e-03 0.0 
0.0 0.0 -1.186362110037e-03 
2.427830448571e-04 7.191273176983e-04 0.0 
7.191273176983e-04 1.478022189351e-04 0.0 
0.0 0.0 -1.673936844824e-04 
-1.279430862365e-03 -6.414688066309e-05 0.0 
-6.414688066309e-05 8.547621756056e-03 0.0 
0.0 0.0 -1.290349483557e-03 
-1.338884708819e-03 1.031550988355e-04 0.0 
1.031550988355e-04 8.369469127644e-03 0.0 
0.0 0.0 -1.290356026000e-03 
-8.661241169029e-04 -1.497599566473e-04 0.0 
-1.497599566473e-04 5.210623571048e-03 0.0 
0.0 0.0 -7.639788432047e-04 
-1.031081386504e-03 4.454962226943e-05 0.0 
4.454962226943e-05 6.379322053578e-03 0.0 
0.0 0.0 -9.358343396975e-04 
-9.489099175762e-04 2.306915430345e-05 0.0 
2.306915430345e-05 4.686801294291e-03 0.0 
0.0 0.0 -7.108516105536e-04 
-9.490845872611e-04 -2.424415655702e-04 0.0 
-2.424415655702e-04 4.770889395299e-03 0.0 
0.0 0.0 -7.343037059241e-04 
-1.020778085259e-03 -1.236146397605e-04 0.0 
-1.236146397605e-04 5.063951457963e-03 0.0 
0.0 0.0 -7.498489858827e-04 
-1.029397936689e-03 2.088387744417e-04 0.0 
2.088387744417e-04 7.190812739883e-03 0.0 
0.0 0.0 -1.180929064624e-03 
-9.345291821784e-05 -1.000980982166e-03 0.0 
-1.000980982166e-03 8.249248585122e-04 0.0 
0.0 0.0 -3.134879744119e-04 
-1.217539983379e-03 3.641850333419e-04 0.0 
3.641850333419e-04 7.975823276789e-03 0.0 
0.0 0.0 -1.217816617926e-03 
-9.353852917844e-04 8.308411466891e-05 0.0 
8.308411466891e-05 5.379160797006e-03 0.0 
0.0 0.0 -8.376728236383e-04 
-1.321070874734e-03 1.232042406106e-04 0.0 
1.232042406106e-04 8.662379723599e-03 0.0 
0.0 0.0 -1.272153791098e-03 
-1.041736228558e-03 -1.048021857426e-04 0.0 
-1.048021857426e-04 7.166745997700e-03 0.0 
0.0 0.0 -1.181257232468e-03 
-9.798440822242e-04 -3.118370163861e-05 0.0 
-3.118370163861e-05 6.079525789277e-03 0.0 
0.0 0.0 -8.902468719969e-04 
-1.234647512165e-03 5.766899331800e-04 0.0 
5.766899331800e-04 7.752454878246e-03 0.0 
0.0 0.0 -1.201032862555e-03 
-1.158629351689e-03 4.496790680983e-04 0.0 
4.496790680983e-04 7.611289473110e-03 0.0 
0.0 0.0 -1.236767197193e-03 
-1.208868880085e-03 3.342350738492e-04 0.0 
3.342350738492e-04 8.181025928136e-03 0.0 
0.0 0.0 -1.270271405117e-03 
3.097542277649e-05 6.697677954973e-05 0.0 
6.697677954973e-05 7.281263968876e-06 0.0 
0.0 0.0 -1.639572289087e-05 
-1.241892221072e-03 3.317116238901e-04 0.0 
3.317116238901e-04 7.798927866879e-03 0.0 
0.0 0.0 -1.198686027802e-03 
-1.247779771289e-03 6.731204463031e-04 0.0 
6.731204463031e-04 8.074479962319e-03 0.0 
0.0 0.0 -1.227078865044e-03 
-6.925802389634e-05 -2.106877258132e-04 0.0 
-2.106877258132e-04 8.393317830722e-04 0.0 
0.0 0.0 -1.488313462956e-04 
-9.198582411310e-04 -2.516763361700e-04 0.0 
-2.516763361700e-04 4.361749592167e-03 0.0 
0.0 0.0 -6.841365946973e-04 
8.862067450553e-06 2.614979262088e-05 0.0 
2.614979262088e-05 5.345349754714e-06 0.0 
0.0 0.0 -6.088893087972e-06 
-1.270183579808e-03 3.785933793144e-04 0.0 
3.785933793144e-04 8.183372897712e-03 0.0 
0.0 0.0 -1.230789928679e-03 
-2.952013322010e-04 -7.105529920730e-05 0.0 
-7.105529920730e-05 1.557070950825e-03 0.0 
0.0 0.0 -2.488888888889e-04 
-3.254937786982e-04 4.435174731084e-05 0.0 
4.435174731084e-05 1.364389529670e-03 0.0 
0.0 0.0 -2.711111111111e-04 
-2.906055034236e-04 -1.453682006066e-05 0.0 
-1.453682006066e-05 1.677746848914e-03 0.0 
0.0 0.0 -2.488888888889e-04 
-3.240490716854e-04 -1.980019069996e-05 0.0 
-1.980019069996e-05 1.371639947660e-03 0.0 
0.0 0.0 -2.711111111111e-04 
-2.905044768976e-04 -2.118391276276e-05 0.0 
-2.118391276276e-05 1.682793203478e-03 0.0 
0.0 0.0 -2.488888888889e-04 
-3.238735021039e-04 -3.097254670317e-05 0.0 
-3.097254670317e-05 1.372144297900e-03 0.0 
0.0 0.0 -2.711111111111e-04 
-2.906642874751e-04 -2.881618546829e-05 0.0 
-2.881618546829e-05 1.683024523281e-03 0.0 
0.0 0.0 -2.488888888889e-04 
-3.242298033971e-04 -3.828264310236e-05 0.0 
-3.828264310236e-05 1.372623957039e-03 0.0 
0.0 0.0 -2.711111111111e-04 
-2.903580694526e-04 -3.482769611358e-05 0.0 
-3.482769611358e-05 1.683295155425e-03 0.0 
0.0 0.0 -2.488888888889e-04 
-3.247078271869e-04 -4.460397563338e-05 0.0 
-4.460397563338e-05 1.373026131789e-03 0.0 
0.0 0.0 -2.711111111111e-04 
-2.895572709759e-04 -3.982611016076e-05 0.0 
-3.982611016076e-05 1.683413827941e-03 0.0 
0.0 0.0 -2.488888888889e-04 
-3.251193850062e-04 -5.034287914678e-05 0.0 
-5.034287914678e-05 1.373191785427e-03 0.0 
0.0 0.0 -2.711111111111e-04 
-2.883630037996e-04 -4.409517578428e-05 0.0 
-4.409517578428e-05 1.683198481667e-03 0.0 
0.0 0.0 -2.488888888889e-04 
-3.254151180985e-04 -5.545209315080e-05 0.0 
-5.545209315080e-05 1.373095522970e-03 0.0 
0.0 0.0 -2.711111111111e-04 
-2.869187515810e-04 -4.759890393832e-05 0.0 
-4.759890393832e-05 1.682613264279e-03 0.0 
0.0 0.0 -2.488888888889e-04 
-3.257031917389e-04 -5.972681323178e-05 0.0 
-5.972681323178e-05 1.372798579125e-03 0.0 
0.0 0.0 -2.711111111111e-04 
-2.853836084500e-04 -5.016125214612e-05 0.0 
-5.016125214612e-05 1.681711994663e-03 0.0 
0.0 0.0 -2.488888888889e-04 
-3.261227584480e-04 -6.291964668725e-05 0.0 
-6.291964668725e-05 1.372375856526e-03 0.0 
0.0 0.0 -2.711111111111e-04 
-2.839143398263e-04 -5.151108192776e-05 0.0 
-5.151108192776e-05 1.680553878395e-03 0.0 
0.0 0.0 -2.488888888889e-04 
-5.376302160352e-04 3.676870752292e-04 0.0 
3.676870752292e-04 1.634100272328e-03 0.0 
0.0 0.0 -2.581395122151e-04 
-3.268375609068e-04 -6.469886553588e-05 0.0 
-6.469886553588e-05 1.371913930166e-03 0.0 
0.0 0.0 -2.711111111111e-04 
-2.826817270674e-04 -5.132346130166e-05 0.0 
-5.132346130166e-05 1.679214132172e-03 0.0 
0.0 0.0 -2.488888888889e-04 
-3.279874699837e-04 -6.465677529104e-05 0.0 
-6.465677529104e-05 1.371505513672e-03 0.0 
0.0 0.0 -2.711111111111e-04 
-4.430031296563e-04 4.286076278821e-04 0.0 
4.286076278821e-04 1.401460279639e-03 0.0 
0.0 0.0 -2.711111111111e-04 
-2.818901623705e-04 -4.919394600659e-05 0.0 
-4.919394600659e-05 1.677776825315e-03 0.0 
0.0 0.0 -2.488888888889e-04 
-3.297313591709e-04 -6.221404717026e-05 0.0 
-6.221404717026e-05 1.371311311535e-03 0.0 
0.0 0.0 -2.711111111111e-04 
-2.818451631723e-04 -4.478135297260e-05 0.0 
-4.478135297260e-05 1.676460250739e-03 0.0 
0.0 0.0 -2.488888888889e-04 
-3.326316221874e-04 -5.721256738290e-05 0.0 
-5.721256738290e-05 1.371518769163e-03 0.0 
0.0 0.0 -2.711111111111e-04 
-2.828313720213e-04 -3.779681966187e-05 0.0 
-3.779681966187e-05 1.675403564516e-03 0.0 
0.0 0.0 -2.488888888889e-04 
-4.059827130491e-04 5.128188739634e-04 0.0 
5.128188739634e-04 1.447928969661e-03 0.0 
0.0 0.0 -2.359172899929e-04 
-3.367560482028e-04 -4.920587402124e-05 0.0 
-4.920587402124e-05 1.372225012167e-03 0.0 
0.0 0.0 -2.711111111111e-04 
-2.851942336816e-04 -2.793992133343e-05 0.0 
-2.793992133343e-05 1.674760364641e-03 0.0 
0.0 0.0 -2.488888888889e-04 
-3.429661620733e-04 -3.842115182948e-05 0.0 
-3.842115182948e-05 1.373431633602e-03 0.0 
0.0 0.0 -2.711111111111e-04 
-2.890754570644e-04 -1.445213534676e-05 0.0 
-1.445213534676e-05 1.674169463168e-03 0.0 
0.0 0.0 -2.488888888889e-04 
-3.500116600226e-04 -2.243813506759e-05 0.0 
-2.243813506759e-05 1.375221853135e-03 0.0 
0.0 0.0 -2.711111111111e-04 
-2.953159081427e-04 3.344893535129e-06 0.0 
3.344893535129e-06 1.674433168629e-03 0.0 
0.0 0.0 -2.488888888889e-04 
-3.612701041623e-04 -3.476308475759e-06 0.0 
-3.476308475759e-06 1.377558106542e-03 0.0 
0.0 0.0 -2.711111111111e-04 
-3.036541859790e-04 2.777348823242e-05 0.0 
2.777348823242e-05 1.673611019722e-03 0.0 
0.0 0.0 -2.488888888889e-04 
-3.712585986873e-04 2.741593658551e-05 0.0 
2.741593658551e-05 1.380550073854e-03 0.0 
0.0 0.0 -2.711111111111e-04 
-3.165970587671e-04 5.927969329141e-05 0.0 
5.927969329141e-05 1.675687817617e-03 0.0 
0.0 0.0 -2.488888888889e-04 
-3.919160560217e-04 5.753298666299e-05 0.0 
5.753298666299e-05 1.383609464570e-03 0.0 
0.0 0.0 -2.711111111111e-04 
-4.845532836930e-04 6.361611629006e-04 0.0 
6.361611629006e-04 1.559816627148e-03 0.0 
0.0 0.0 -2.692506233262e-04 
-4.015567445774e-04 1.254721392100e-04 0.0 
1.254721392100e-04 1.388599622368e-03 0.0 
0.0 0.0 -2.711111111111e-04 
-3.313549377398e-04 1.053449586166e-04 0.0 
1.053449586166e-04 1.670659921373e-03 0.0 
0.0 0.0 -2.488888888889e-04 
-4.451618937031e-04 1.587275490449e-04 0.0 
1.587275490449e-04 1.390823225084e-03 0.0 
0.0 0.0 -2.711111111111e-04 
-3.585379161073e-04 1.611644823792e-04 0.0 
1.611644823792e-04 1.681904763770e-03 0.0 
0.0 0.0 -2.488888888889e-04 
-4.183460080304e-04 3.207061591643e-04 0.0 
3.207061591643e-04 1.388074283355e-03 0.0 
0.0 0.0 -2.711111111111e-04 
-3.792207315119e-04 2.510172866857e-04 0.0 
2.510172866857e-04 1.655063246402e-03 0.0 
0.0 0.0 -2.488888888889e-04 
-4.335703981462e-04 3.699863634296e-04 0.0 
3.699863634296e-04 1.684714290038e-03 0.0 
0.0 0.0 -2.488888888889e-04 
-4.416714205856e-04 5.319864498548e-04 0.0 
5.319864498548e-04 1.340652472257e-03 0.0 
0.0 0.0 -2.582270500687e-04 
-3.668442042028e-04 -3.673170135593e-04 0.0 
-3.673170135593e-04 1.584542391469e-03 0.0 
0.0 0.0 -2.600000000000e-04 
-2.602062413331e-04 3.537454734861e-04 0.0 
3.537454734861e-04 1.393329098535e-03 0.0 
0.0 0.0 -2.600000000000e-04 
-3.402634464058e-04 -4.194673100762e-05 0.0 
-4.194673100762e-05 1.545600451328e-03 0.0 
0.0 0.0 -2.822222222222e-04 
-2.856529798592e-04 3.840190014896e-05 0.0 
3.840190014896e-05 1.441014104028e-03 0.0 
0.0 0.0 -2.377777777778e-04 
-4.405270692946e-04 6.801827816630e-04 0.0 
6.801827816630e-04 1.355982589248e-03 0.0 
0.0 0.0 -2.451177686753e-04 
-4.033215092896e-04 -7.778614931741e-05 0.0 
-7.778614931741e-05 1.971836168127e-03 0.0 
0.0 0.0 -3.377777777778e-04 
-3.699382231426e-04 4.376721251435e-05 0.0 
4.376721251435e-05 2.156467211136e-03 0.0 
0.0 0.0 -3.155555555556e-04 
-4.016272998768e-04 -1.845288611326e-05 0.0 
-1.845288611326e-05 1.842668774100e-03 0.0 
0.0 0.0 -3.377777777778e-04 
-3.684935161298e-04 -1.993514923582e-05 0.0 
-1.993514923582e-05 2.145630754397e-03 0.0 
0.0 0.0 -3.155555555556e-04 
-4.011855839344e-04 -2.170328035969e-05 0.0 
-2.170328035969e-05 1.834448861866e-03 0.0 
0.0 0.0 -3.377777777778e-04 
-3.683179465484e-04 -3.056747774146e-05 0.0 
-3.056747774146e-05 2.144778837340e-03 0.0 
0.0 0.0 -3.155555555556e-04 
-4.018211954014e-04 -2.780572956267e-05 0.0 
-2.780572956267e-05 1.833993179013e-03 0.0 
0.0 0.0 -3.377777777778e-04 
-3.686742478415e-04 -3.749804252556e-05 0.0 
-3.749804252556e-05 2.145064232920e-03 0.0 
0.0 0.0 -3.155555555556e-04 
-4.030678757072e-04 -3.345880157567e-05 0.0 
-3.345880157567e-05 1.834535971790e-03 0.0 
0.0 0.0 -3.377777777778e-04 
-3.691522716313e-04 -4.346216221499e-05 0.0 
-4.346216221499e-05 2.145503780732e-03 0.0 
0.0 0.0 -3.155555555556e-04 
-4.045993123101e-04 -3.863070102539e-05 0.0 
-3.863070102539e-05 1.835247857122e-03 0.0 
0.0 0.0 -3.377777777778e-04 
-3.695638294507e-04 -4.875359068941e-05 0.0 
-4.875359068941e-05 2.145731130156e-03 0.0 
0.0 0.0 -3.155555555556e-04 
-4.062427089130e-04 -4.320299965925e-05 0.0 
-4.320299965925e-05 1.835799445565e-03 0.0 
0.0 0.0 -3.377777777778e-04 
-3.698595625429e-04 -5.325599390528e-05 0.0 
-5.325599390528e-05 2.145551511058e-03 0.0 
0.0 0.0 -3.155555555556e-04 
-4.078831686855e-04 -4.670032855598e-05 0.0 
-4.670032855598e-05 1.836058440315e-03 0.0 
0.0 0.0 -3.377777777778e-04 
-3.701476361833e-04 -5.655748343099e-05 0.0 
-5.655748343099e-05 2.145061402005e-03 0.0 
0.0 0.0 -3.155555555556e-04 
-4.097865858263e-04 -4.883766509846e-05 0.0 
-4.883766509846e-05 1.836127398507e-03 0.0 
0.0 0.0 -3.377777777778e-04 
-3.705672028925e-04 -5.837184754707e-05 0.0 
-5.837184754707e-05 2.144289684407e-03 0.0 
0.0 0.0 -3.155555555556e-04 
-5.653935967421e-04 2.589038202600e-04 0.0 
2.589038202600e-04 2.091415995100e-03 0.0 
0.0 0.0 -3.249092970522e-04 
-4.121128011224e-04 -4.928328914799e-05 0.0 
-4.928328914799e-05 1.836067549886e-03 0.0 
0.0 0.0 -3.377777777778e-04 
-3.712820053512e-04 -5.834505686051e-05 0.0 
-5.834505686051e-05 2.143300562424e-03 0.0 
0.0 0.0 -3.155555555556e-04 
-4.149822806298e-04 -4.778386138389e-05 0.0 
-4.778386138389e-05 1.835943141923e-03 0.0 
0.0 0.0 -3.377777777778e-04 
-4.499219717492e-04 4.087873195919e-04 0.0 
4.087873195919e-04 1.908948706133e-03 0.0 
0.0 0.0 -3.026870748299e-04 
-3.724319144282e-04 -5.606781584101e-05 0.0 
-5.606781584101e-05 2.142071630317e-03 0.0 
0.0 0.0 -3.155555555556e-04 
-4.827616455878e-04 3.472560296512e-04 0.0 
3.472560296512e-04 1.843206052276e-03 0.0 
0.0 0.0 -3.377777777778e-04 
-4.183491724233e-04 -4.389120914971e-05 0.0 
-4.389120914971e-05 1.835749541912e-03 0.0 
0.0 0.0 -3.377777777778e-04 
-3.741758036154e-04 -5.083009705685e-05 0.0 
-5.083009705685e-05 2.140541387055e-03 0.0 
0.0 0.0 -3.155555555556e-04 
-4.222392951633e-04 -3.615193688630e-05 0.0 
-3.615193688630e-05 1.835642333740e-03 0.0 
0.0 0.0 -3.377777777778e-04 
-3.770760666319e-04 -4.180068680568e-05 0.0 
-4.180068680568e-05 2.139581124162e-03 0.0 
0.0 0.0 -3.155555555556e-04 
-4.278559952098e-04 -2.552535737092e-05 0.0 
-2.552535737092e-05 1.836068605962e-03 0.0 
0.0 0.0 -3.377777777778e-04 
-3.812004926473e-04 -2.896900661336e-05 0.0 
-2.896900661336e-05 2.138403848176e-03 0.0 
0.0 0.0 -3.155555555556e-04 
-4.347234955002e-04 -9.637769040496e-06 0.0 
-9.637769040496e-06 1.836924698108e-03 0.0 
0.0 0.0 -3.377777777778e-04 
-3.874106065177e-04 -1.167986006356e-05 0.0 
-1.167986006356e-05 2.138695774024e-03 0.0 
0.0 0.0 -3.155555555556e-04 
-4.895249511417e-04 4.886018197501e-04 0.0 
4.886018197501e-04 2.001115148190e-03 0.0 
0.0 0.0 -3.360204081633e-04 
-4.442787057398e-04 6.686297430374e-06 0.0 
6.686297430374e-06 1.838164453285e-03 0.0 
0.0 0.0 -3.377777777778e-04 
-3.944561044670e-04 1.065381348907e-05 0.0 
1.065381348907e-05 2.135804588402e-03 0.0 
0.0 0.0 -3.155555555556e-04 
-4.522783493514e-04 3.639854830083e-05 0.0 
3.639854830083e-05 1.839070031720e-03 0.0 
0.0 0.0 -3.377777777778e-04 
-4.057145486068e-04 4.085282605461e-05 0.0 
4.085282605461e-05 2.138451035408e-03 0.0 
0.0 0.0 -3.155555555556e-04 
-4.157030431317e-04 7.985792585969e-05 0.0 
7.985792585969e-05 2.128672667394e-03 0.0 
0.0 0.0 -3.155555555556e-04 
-4.676008918457e-04 5.850290515757e-05 0.0 
5.850290515757e-05 1.840319811209e-03 0.0 
0.0 0.0 -3.377777777778e-04 
-4.363605004662e-04 1.324986197952e-04 0.0 
1.324986197952e-04 2.139391523019e-03 0.0 
0.0 0.0 -3.155555555556e-04 
-4.723537878857e-04 1.197226175932e-04 0.0 
1.197226175932e-04 1.839901082374e-03 0.0 
0.0 0.0 -3.377777777778e-04 
-4.460011890219e-04 2.052865052064e-04 0.0 
2.052865052064e-04 2.103272782201e-03 0.0 
0.0 0.0 -3.155555555556e-04 
-4.896063381476e-04 3.095411054930e-04 0.0 
3.095411054930e-04 2.142928166934e-03 0.0 
0.0 0.0 -3.155555555556e-04 
-5.032944312987e-04 1.379640868204e-04 0.0 
1.379640868204e-04 1.839108820748e-03 0.0 
0.0 0.0 -3.377777777778e-04 
-4.654683285949e-04 2.891122881816e-04 0.0 
2.891122881816e-04 1.829855770762e-03 0.0 
0.0 0.0 -3.377777777778e-04 
-4.437359018442e-04 4.016271209655e-04 0.0 
4.016271209655e-04 1.738543147369e-03 0.0 
0.0 0.0 -3.137981859410e-04 
-3.355107645077e-04 -3.692127132912e-04 0.0 
-3.692127132912e-04 1.948567742905e-03 0.0 
0.0 0.0 -3.266666666667e-04 
-4.405370571709e-04 3.529927589174e-04 0.0 
3.529927589174e-04 2.136779321243e-03 0.0 
0.0 0.0 -3.266666666667e-04 
-3.624856686281e-04 -4.168356858480e-05 0.0 
-4.168356858480e-05 1.986351279017e-03 0.0 
0.0 0.0 -3.044444444444e-04 
-4.148028011910e-04 3.671549554757e-05 0.0 
3.671549554757e-05 2.089175803146e-03 0.0 
0.0 0.0 -3.488888888889e-04 
-4.763364629896e-04 5.270582126101e-04 0.0 
5.270582126101e-04 1.817268558159e-03 0.0 
0.0 0.0 -3.044444444444e-04 
-4.477659537340e-04 -7.950766361317e-05 0.0 
-7.950766361317e-05 2.497018706570e-03 0.0 
0.0 0.0 -3.822222222222e-04 
-4.784277234196e-04 3.924857303742e-05 0.0 
3.924857303742e-05 2.307222145021e-03 0.0 
0.0 0.0 -4.044444444444e-04 
-4.460717443213e-04 -1.760020650506e-05 0.0 
-1.760020650506e-05 2.620785785757e-03 0.0 
0.0 0.0 -3.822222222222e-04 
-4.776693350914e-04 -2.066498720173e-05 0.0 
-2.066498720173e-05 2.315002141673e-03 0.0 
0.0 0.0 -4.044444444444e-04 
-4.456300283789e-04 -1.937202289743e-05 0.0 
-1.937202289743e-05 2.625987173940e-03 0.0 
0.0 0.0 -3.822222222222e-04 
-4.779872738303e-04 -2.822274065139e-05 0.0 
-2.822274065139e-05 2.315244018536e-03 0.0 
0.0 0.0 -4.044444444444e-04 
-4.462656398459e-04 -2.485353904084e-05 0.0 
-2.485353904084e-05 2.625990326394e-03 0.0 
0.0 0.0 -3.822222222222e-04 
-4.792475399562e-04 -3.342896736660e-05 0.0 
-3.342896736660e-05 2.315783639058e-03 0.0 
0.0 0.0 -4.044444444444e-04 
-4.475123201517e-04 -3.007054614652e-05 0.0 
-3.007054614652e-05 2.626417310746e-03 0.0 
0.0 0.0 -3.822222222222e-04 
-4.811666376616e-04 -3.852533363394e-05 0.0 
-3.852533363394e-05 2.316598516972e-03 0.0 
0.0 0.0 -4.044444444444e-04 
-4.490437567545e-04 -3.458165382954e-05 0.0 
-3.458165382954e-05 2.627026792857e-03 0.0 
0.0 0.0 -3.822222222222e-04 
-4.837308784237e-04 -4.337502502547e-05 0.0 
-4.337502502547e-05 2.317420315081e-03 0.0 
0.0 0.0 -4.044444444444e-04 
-4.506871533574e-04 -3.830542708958e-05 0.0 
-3.830542708958e-05 2.627509373180e-03 0.0 
0.0 0.0 -3.822222222222e-04 
-4.863200757723e-04 -4.765112576718e-05 0.0 
-4.765112576718e-05 2.317829627755e-03 0.0 
0.0 0.0 -4.044444444444e-04 
-4.523276131299e-04 -4.048193732763e-05 0.0 
-4.048193732763e-05 2.627337923777e-03 0.0 
0.0 0.0 -3.822222222222e-04 
-4.889760674818e-04 -4.992492022024e-05 0.0 
-4.992492022024e-05 2.317964787574e-03 0.0 
0.0 0.0 -4.044444444444e-04 
-4.542310302707e-04 -4.078738031685e-05 0.0 
-4.078738031685e-05 2.626808748623e-03 0.0 
0.0 0.0 -3.822222222222e-04 
-6.056480292920e-04 1.728310757190e-04 0.0 
1.728310757190e-04 2.555848462997e-03 0.0 
0.0 0.0 -3.914586414276e-04 
-4.922399223678e-04 -5.021620544214e-05 0.0 
-5.021620544214e-05 2.317987519249e-03 0.0 
0.0 0.0 -4.044444444444e-04 
-4.565572455669e-04 -3.901111557492e-05 0.0 
-3.901111557492e-05 2.626026613918e-03 0.0 
0.0 0.0 -3.822222222222e-04 
-5.228769148866e-04 2.808757779245e-04 0.0 
2.808757779245e-04 2.304765565320e-03 0.0 
0.0 0.0 -4.044444444444e-04 
-4.963590350670e-04 -4.831763838805e-05 0.0 
-4.831763838805e-05 2.318011659797e-03 0.0 
0.0 0.0 -4.044444444444e-04 
-4.594267250742e-04 -3.511032177588e-05 0.0 
-3.511032177588e-05 2.625123327231e-03 0.0 
0.0 0.0 -3.822222222222e-04 
-5.009386741324e-04 -4.422694573305e-05 0.0 
-4.422694573305e-05 2.317812085855e-03 0.0 
0.0 0.0 -4.044444444444e-04 
-4.627936168678e-04 -2.842261320259e-05 0.0 
-2.842261320259e-05 2.623716732034e-03 0.0 
0.0 0.0 -3.822222222222e-04 
-5.056117799861e-04 -3.698061845559e-05 0.0 
-3.698061845559e-05 2.317065889197e-03 0.0 
0.0 0.0 -4.044444444444e-04 
-4.969269700224e-04 3.515730528913e-04 0.0 
3.515730528913e-04 2.377160801008e-03 0.0 
0.0 0.0 -3.692364192054e-04 
-4.666837396077e-04 -1.712937022343e-05 0.0 
-1.712937022343e-05 2.621232610088e-03 0.0 
0.0 0.0 -3.822222222222e-04 
-5.100907895199e-04 -2.260058306738e-05 0.0 
-2.260058306738e-05 2.316567452783e-03 0.0 
0.0 0.0 -4.044444444444e-04 
-4.723004396542e-04 -1.327751191981e-06 0.0 
-1.327751191981e-06 2.619762185472e-03 0.0 
0.0 0.0 -3.822222222222e-04 
-5.187011541432e-04 -5.611483876821e-06 0.0 
-5.611483876821e-06 2.316745085829e-03 0.0 
0.0 0.0 -4.044444444444e-04 
-4.791679399447e-04 1.929342974835e-05 0.0 
1.929342974835e-05 2.617894304883e-03 0.0 
0.0 0.0 -3.822222222222e-04 
-5.254608326116e-04 1.982980625916e-05 0.0 
1.982980625916e-05 2.317371002369e-03 0.0 
0.0 0.0 -4.044444444444e-04 
-4.887231501843e-04 4.328459530924e-05 0.0 
4.328459530924e-05 2.618567802256e-03 0.0 
0.0 0.0 -3.822222222222e-04 
-5.405598583973e-04 3.929786731890e-05 0.0 
3.929786731890e-05 2.316713537828e-03 0.0 
0.0 0.0 -4.044444444444e-04 
-4.967227937958e-04 7.689551929933e-05 0.0 
7.689551929933e-05 2.610977742846e-03 0.0 
0.0 0.0 -3.822222222222e-04 
-5.395854524473e-04 9.022698348543e-05 0.0 
9.022698348543e-05 2.315628932318e-03 0.0 
0.0 0.0 -4.044444444444e-04 
-5.147397320452e-04 3.920748264294e-04 0.0 
3.920748264294e-04 2.461392887946e-03 0.0 
0.0 0.0 -4.025697525387e-04 
-5.673385880599e-04 1.040653775258e-04 0.0 
1.040653775258e-04 2.310397031327e-03 0.0 
0.0 0.0 -4.044444444444e-04 
-5.120453362902e-04 1.146925732443e-04 0.0 
1.146925732443e-04 2.616352280690e-03 0.0 
0.0 0.0 -3.822222222222e-04 
-5.260367371211e-04 2.288711912235e-04 0.0 
2.288711912235e-04 2.301155937859e-03 0.0 
0.0 0.0 -4.044444444444e-04 
-5.167982323301e-04 1.764431880484e-04 0.0 
1.764431880484e-04 2.586781747074e-03 0.0 
0.0 0.0 -3.822222222222e-04 
-5.477388757432e-04 2.483443472200e-04 0.0 
2.483443472200e-04 2.612103741230e-03 0.0 
0.0 0.0 -3.822222222222e-04 
-4.714062865373e-04 3.406357459183e-04 0.0 
3.406357459183e-04 2.189922889939e-03 0.0 
0.0 0.0 -3.803475303165e-04 
-5.175702617414e-04 -3.703955333214e-04 0.0 
-3.703955333214e-04 2.521693289409e-03 0.0 
0.0 0.0 -3.933333333333e-04 
-4.117702287809e-04 3.510487114528e-04 0.0 
3.510487114528e-04 2.332080967614e-03 0.0 
0.0 0.0 -3.933333333333e-04 
-4.910475754552e-04 -4.353211321374e-05 0.0 
-4.353211321374e-05 2.483691270875e-03 0.0 
0.0 0.0 -4.155555555556e-04 
-4.370250234133e-04 3.548953741690e-05 0.0 
3.548953741690e-05 2.379928122617e-03 0.0 
0.0 0.0 -3.711111111111e-04 
-5.160949789211e-04 4.252800565549e-04 0.0 
4.252800565549e-04 2.291829436572e-03 0.0 
0.0 0.0 -3.711111111111e-04 
-5.545130018070e-04 -8.178037886237e-05 0.0 
-8.178037886237e-05 2.909623846630e-03 0.0 
0.0 0.0 -4.711111111111e-04 
-5.228721678640e-04 4.028587622300e-05 0.0 
4.028587622300e-05 3.096271718330e-03 0.0 
0.0 0.0 -4.488888888889e-04 
-5.533691474050e-04 -1.923275015253e-05 0.0 
-1.923275015253e-05 2.782205362795e-03 0.0 
0.0 0.0 -4.711111111111e-04 
-5.221137795359e-04 -1.919255201181e-05 0.0 
-1.919255201181e-05 3.085550305381e-03 0.0 
0.0 0.0 -4.488888888889e-04 
-5.530109392803e-04 -1.824425838804e-05 0.0 
-1.824425838804e-05 2.774559112815e-03 0.0 
0.0 0.0 -4.711111111111e-04 
-5.224317182748e-04 -2.502826317864e-05 0.0 
-2.502826317864e-05 3.085006659223e-03 0.0 
0.0 0.0 -4.488888888889e-04 
-5.547362962008e-04 -2.086138494889e-05 0.0 
-2.086138494889e-05 2.774413059491e-03 0.0 
0.0 0.0 -4.711111111111e-04 
-5.236919844007e-04 -2.854587035644e-05 0.0 
-2.854587035644e-05 3.085493683001e-03 0.0 
0.0 0.0 -4.488888888889e-04 
-5.568332374197e-04 -2.401854184227e-05 0.0 
-2.401854184227e-05 2.775119097809e-03 0.0 
0.0 0.0 -4.711111111111e-04 
-5.256110821061e-04 -3.168208470033e-05 0.0 
-3.168208470033e-05 3.086241768691e-03 0.0 
0.0 0.0 -4.488888888889e-04 
-5.598758616072e-04 -2.649602084230e-05 0.0 
-2.649602084230e-05 2.776179524696e-03 0.0 
0.0 0.0 -4.711111111111e-04 
-5.281753228681e-04 -3.429831362401e-05 0.0 
-3.429831362401e-05 3.087276348172e-03 0.0 
0.0 0.0 -4.488888888889e-04 
-5.637335880510e-04 -2.986966676234e-05 0.0 
-2.986966676234e-05 2.777348666577e-03 0.0 
0.0 0.0 -4.711111111111e-04 
-5.307645202168e-04 -3.678054343318e-05 0.0 
-3.678054343318e-05 3.087110497831e-03 0.0 
0.0 0.0 -4.488888888889e-04 
-5.672516091013e-04 -3.170316921858e-05 0.0 
-3.170316921858e-05 2.777585456228e-03 0.0 
0.0 0.0 -4.711111111111e-04 
-5.334205119262e-04 -3.725348252055e-05 0.0 
-3.725348252055e-05 3.086025479628e-03 0.0 
0.0 0.0 -4.488888888889e-04 
-6.732559192872e-04 1.069454178643e-04 0.0 
1.069454178643e-04 3.029509612801e-03 0.0 
0.0 0.0 -4.582426303855e-04 
-5.702546095882e-04 -3.020263056991e-05 0.0 
-3.020263056991e-05 2.777240536398e-03 0.0 
0.0 0.0 -4.711111111111e-04 
-5.366843668123e-04 -3.453855403530e-05 0.0 
-3.453855403530e-05 3.085220328545e-03 0.0 
0.0 0.0 -4.488888888889e-04 
-5.576127008399e-04 2.593782929634e-04 0.0 
2.593782929634e-04 2.842420570206e-03 0.0 
0.0 0.0 -4.360204081633e-04 
-5.755921041128e-04 -2.584209849049e-05 0.0 
-2.584209849049e-05 2.777326176010e-03 0.0 
0.0 0.0 -4.711111111111e-04 
-5.408034795114e-04 -2.962006398500e-05 0.0 
-2.962006398500e-05 3.084571096852e-03 0.0 
0.0 0.0 -4.488888888889e-04 
-5.797090102450e-04 2.287706001101e-04 0.0 
2.287706001101e-04 2.761834444076e-03 0.0 
0.0 0.0 -4.711111111111e-04 
-5.815224328378e-04 -2.044759247011e-05 0.0 
-2.044759247011e-05 2.777381230694e-03 0.0 
0.0 0.0 -4.711111111111e-04 
-5.453831185768e-04 -2.258268294197e-05 0.0 
-2.258268294197e-05 3.083167530034e-03 0.0 
0.0 0.0 -4.488888888889e-04 
-5.869514963865e-04 -1.328471433010e-05 0.0 
-1.328471433010e-05 2.776586963506e-03 0.0 
0.0 0.0 -4.711111111111e-04 
-5.500562244305e-04 -1.211537895153e-05 0.0 
-1.211537895153e-05 3.080223364949e-03 0.0 
0.0 0.0 -4.488888888889e-04 
-5.924946390174e-04 -2.438932199996e-06 0.0 
-2.438932199996e-06 2.774392434348e-03 0.0 
0.0 0.0 -4.711111111111e-04 
-5.545352339644e-04 4.923705994678e-06 0.0 
4.923705994678e-06 3.074068870883e-03 0.0 
0.0 0.0 -4.488888888889e-04 
-5.832002113226e-04 3.084013380276e-04 0.0 
3.084013380276e-04 2.928576946329e-03 0.0 
0.0 0.0 -4.693537414966e-04 
-5.957418463706e-04 2.457513506605e-05 0.0 
2.457513506605e-05 2.772161347741e-03 0.0 
0.0 0.0 -4.711111111111e-04 
-5.631455985877e-04 2.981682976181e-05 0.0 
2.981682976181e-05 3.075944045931e-03 0.0 
0.0 0.0 -4.488888888889e-04 
-6.088382110079e-04 4.080604098374e-05 0.0 
4.080604098374e-05 2.772254412647e-03 0.0 
0.0 0.0 -4.711111111111e-04 
-5.699052770561e-04 5.777344855823e-05 0.0 
5.777344855823e-05 3.067169222988e-03 0.0 
0.0 0.0 -4.488888888889e-04 
-5.850043028418e-04 9.074123042683e-05 0.0 
9.074123042683e-05 3.079028566329e-03 0.0 
0.0 0.0 -4.488888888889e-04 
-6.115132190535e-04 8.765179825616e-05 0.0 
8.765179825616e-05 2.771111166917e-03 0.0 
0.0 0.0 -4.711111111111e-04 
-5.840298968917e-04 1.336949722933e-04 0.0 
1.336949722933e-04 3.039780976699e-03 0.0 
0.0 0.0 -4.488888888889e-04 
-6.359355392830e-04 7.860855074454e-05 0.0 
7.860855074454e-05 2.767946632045e-03 0.0 
0.0 0.0 -4.711111111111e-04 
-6.117830325044e-04 2.038036979565e-04 0.0 
2.038036979565e-04 3.073336866825e-03 0.0 
0.0 0.0 -4.488888888889e-04 
-5.855262073870e-04 1.964620808073e-04 0.0 
1.964620808073e-04 2.752718067293e-03 0.0 
0.0 0.0 -4.711111111111e-04 
-5.381153397062e-04 2.290411015667e-04 0.0 
2.290411015667e-04 2.647470749537e-03 0.0 
0.0 0.0 -4.471315192744e-04 
-4.856995794812e-04 -3.712445804859e-04 0.0 
-3.712445804859e-04 2.886533165746e-03 0.0 
0.0 0.0 -4.600000000000e-04 
-5.915156838414e-04 3.511510416328e-04 0.0 
3.511510416328e-04 3.076032758812e-03 0.0 
0.0 0.0 -4.600000000000e-04 
-5.132697976774e-04 -4.266972038985e-05 0.0 
-4.266972038985e-05 2.924617726937e-03 0.0 
0.0 0.0 -4.377777777778e-04 
-5.653819698478e-04 3.554715819272e-05 0.0 
3.554715819272e-05 3.026667072190e-03 0.0 
0.0 0.0 -4.822222222222e-04 
-5.562102482200e-04 3.031448983604e-04 0.0 
3.031448983604e-04 2.748233394595e-03 0.0 
0.0 0.0 -4.377777777778e-04 
-5.989574462514e-04 -8.267193208917e-05 0.0 
-8.267193208917e-05 3.437613023720e-03 0.0 
0.0 0.0 -5.155555555556e-04 
-6.287787412401e-04 3.729317259218e-05 0.0 
3.729317259218e-05 3.247326925229e-03 0.0 
0.0 0.0 -5.377777777778e-04 
-5.978135918495e-04 -1.841914986540e-05 0.0 
-1.841914986540e-05 3.561201795145e-03 0.0 
0.0 0.0 -5.155555555556e-04 
-6.254961344599e-04 -1.930049853369e-05 0.0 
-1.930049853369e-05 3.253947423147e-03 0.0 
0.0 0.0 -5.377777777778e-04 
-5.974553837247e-04 -1.391156406088e-05 0.0 
-1.391156406088e-05 3.564621634950e-03 0.0 
0.0 0.0 -5.155555555556e-04 
-6.279936331018e-04 -1.935706142364e-05 0.0 
-1.935706142364e-05 3.255345558208e-03 0.0 
0.0 0.0 -5.377777777778e-04 
-5.991807406452e-04 -1.614264760927e-05 0.0 
-1.614264760927e-05 3.566069321236e-03 0.0 
0.0 0.0 -5.155555555556e-04 
-6.284144790130e-04 -2.147959664663e-05 0.0 
-2.147959664663e-05 3.255656571766e-03 0.0 
0.0 0.0 -5.377777777778e-04 
-6.012776818642e-04 -1.696499576587e-05 0.0 
-1.696499576587e-05 3.566126567533e-03 0.0 
0.0 0.0 -5.155555555556e-04 
-6.315481358764e-04 -2.174087039821e-05 0.0 
-2.174087039821e-05 3.256770810453e-03 0.0 
0.0 0.0 -5.377777777778e-04 
-6.043203060517e-04 -1.757798620874e-05 0.0 
-1.757798620874e-05 3.567144862765e-03 0.0 
0.0 0.0 -5.155555555556e-04 
-6.347436721796e-04 -2.174327211569e-05 0.0 
-2.174327211569e-05 3.258179294352e-03 0.0 
0.0 0.0 -5.377777777778e-04 
-6.081780324954e-04 -1.832425526294e-05 0.0 
-1.832425526294e-05 3.568559060354e-03 0.0 
0.0 0.0 -5.155555555556e-04 
-6.411680495803e-04 -2.482988994377e-05 0.0 
-2.482988994377e-05 3.259134830210e-03 0.0 
0.0 0.0 -5.377777777778e-04 
-6.116960535458e-04 -1.877149855027e-05 0.0 
-1.877149855027e-05 3.568744272090e-03 0.0 
0.0 0.0 -5.155555555556e-04 
-7.366276609701e-04 4.524951182865e-05 0.0 
4.524951182865e-05 3.507320200516e-03 0.0 
0.0 0.0 -5.247732426303e-04 
-6.420523831112e-04 -2.583218201805e-05 0.0 
-2.583218201805e-05 3.257046679515e-03 0.0 
0.0 0.0 -5.377777777778e-04 
-6.435781206746e-04 1.840534884814e-04 0.0 
1.840534884814e-04 3.241318968686e-03 0.0 
0.0 0.0 -5.377777777778e-04 
-6.146990540326e-04 -1.244484207344e-05 0.0 
-1.244484207344e-05 3.564885876854e-03 0.0 
0.0 0.0 -5.155555555556e-04 
-6.478721701654e-04 -1.639725233752e-05 0.0 
-1.639725233752e-05 3.256970335869e-03 0.0 
0.0 0.0 -5.377777777778e-04 
-6.200365485572e-04 -5.018436089581e-06 0.0 
-5.018436089581e-06 3.564885905457e-03 0.0 
0.0 0.0 -5.155555555556e-04 
-6.561429566816e-04 -9.551464893356e-06 0.0 
-9.551464893356e-06 3.257786223678e-03 0.0 
0.0 0.0 -5.377777777778e-04 
-6.259668772823e-04 2.319967205521e-06 0.0 
2.319967205521e-06 3.565031180513e-03 0.0 
0.0 0.0 -5.155555555556e-04 
-6.615288143992e-04 -3.165343597243e-06 0.0 
-3.165343597243e-06 3.256616812139e-03 0.0 
0.0 0.0 -5.377777777778e-04 
-6.169661166839e-04 2.164901621932e-04 0.0 
2.164901621932e-04 3.318852114050e-03 0.0 
0.0 0.0 -5.025510204081e-04 
-6.313959408309e-04 1.331766061821e-05 0.0 
1.331766061821e-05 3.562071063365e-03 0.0 
0.0 0.0 -5.155555555556e-04 
-6.676626850749e-04 8.412288321031e-06 0.0 
8.412288321031e-06 3.254047861299e-03 0.0 
0.0 0.0 -5.377777777778e-04 
-6.369390834618e-04 2.839501316983e-05 0.0 
2.839501316983e-05 3.557766628637e-03 0.0 
0.0 0.0 -5.155555555556e-04 
-6.757465811746e-04 2.011236031009e-05 0.0 
2.011236031009e-05 3.248279072062e-03 0.0 
0.0 0.0 -5.377777777778e-04 
-6.401862908150e-04 5.683403292324e-05 0.0 
5.683403292324e-05 3.544903684413e-03 0.0 
0.0 0.0 -5.155555555556e-04 
-6.710900969960e-04 7.145474225899e-05 0.0 
7.145474225899e-05 3.246321760371e-03 0.0 
0.0 0.0 -5.377777777778e-04 
-6.532826554523e-04 8.457965391973e-05 0.0 
8.457965391973e-05 3.553131858142e-03 0.0 
0.0 0.0 -5.155555555556e-04 
-7.020590348485e-04 7.312181654746e-05 0.0 
7.312181654746e-05 3.244705541191e-03 0.0 
0.0 0.0 -5.377777777778e-04 
-6.554115117610e-04 1.658740749447e-04 0.0 
1.658740749447e-04 3.237354480524e-03 0.0 
0.0 0.0 -5.377777777778e-04 
-6.559576634980e-04 1.237219721845e-04 0.0 
1.237219721845e-04 3.531755926188e-03 0.0 
0.0 0.0 -5.155555555556e-04 
-6.411111436525e-04 2.481500458011e-04 0.0 
2.481500458011e-04 3.407080026122e-03 0.0 
0.0 0.0 -5.358843537414e-04 
-6.803799837275e-04 1.624927648151e-04 0.0 
1.624927648151e-04 3.558426467577e-03 0.0 
0.0 0.0 -5.155555555556e-04 
-5.945151412269e-04 1.812873307433e-04 0.0 
1.812873307433e-04 3.113616278940e-03 0.0 
0.0 0.0 -5.136621315192e-04 
-6.672833179301e-04 -3.706793032750e-04 0.0 
-3.706793032750e-04 3.459056007774e-03 0.0 
0.0 0.0 -5.266666666667e-04 
-5.623773213514e-04 3.513666038768e-04 0.0 
3.513666038768e-04 3.271176697744e-03 0.0 
0.0 0.0 -5.266666666667e-04 
-6.406200246206e-04 -4.190627532401e-05 0.0 
-4.190627532401e-05 3.422026805713e-03 0.0 
0.0 0.0 -5.488888888889e-04 
-5.876041920701e-04 3.555034108668e-05 0.0 
3.555034108668e-05 3.319473246611e-03 0.0 
0.0 0.0 -5.044444444444e-04 
-6.130423435783e-04 2.369057836334e-04 0.0 
2.369057836334e-04 3.223253934296e-03 0.0 
0.0 0.0 -5.044444444444e-04 
-7.120623447180e-04 -8.888228388160e-05 0.0 
-8.888228388160e-05 3.852748437753e-03 0.0 
0.0 0.0 -6.044444444444e-04 
-6.732231856846e-04 3.548631982699e-05 0.0 
3.548631982699e-05 4.032087244247e-03 0.0 
0.0 0.0 -5.822222222222e-04 
-6.955393523700e-04 -2.756019485512e-05 0.0 
-2.756019485512e-05 3.717267839696e-03 0.0 
0.0 0.0 -6.044444444444e-04 
-6.699405789043e-04 -1.870355497797e-05 0.0 
-1.870355497797e-05 4.017496801865e-03 0.0 
0.0 0.0 -5.822222222222e-04 
-6.969243199369e-04 -6.918496173234e-06 0.0 
-6.918496173234e-06 3.707462619531e-03 0.0 
0.0 0.0 -6.044444444444e-04 
-6.724380775462e-04 -1.325710265715e-05 0.0 
-1.325710265715e-05 4.022403973257e-03 0.0 
0.0 0.0 -5.822222222222e-04 
-7.031503284102e-04 -1.402242021930e-05 0.0 
-1.402242021930e-05 3.711320333832e-03 0.0 
0.0 0.0 -6.044444444444e-04 
-6.728589234574e-04 -1.646685933992e-05 0.0 
-1.646685933992e-05 4.018646007482e-03 0.0 
0.0 0.0 -5.822222222222e-04 
-6.992489626615e-04 -7.571363959488e-06 0.0 
-7.571363959488e-06 3.708933191906e-03 0.0 
0.0 0.0 -6.044444444444e-04 
-6.759925803209e-04 -1.073738973976e-05 0.0 
-1.073738973976e-05 4.021950250257e-03 0.0 
0.0 0.0 -5.822222222222e-04 
-7.070575680629e-04 -7.158521352799e-06 0.0 
-7.158521352799e-06 3.711746084396e-03 0.0 
0.0 0.0 -6.044444444444e-04 
-6.791881166240e-04 -9.268059005098e-06 0.0 
-9.268059005098e-06 4.020971144871e-03 0.0 
0.0 0.0 -5.822222222222e-04 
-7.076120858666e-04 1.215276486099e-06 0.0 
1.215276486099e-06 3.712281244356e-03 0.0 
0.0 0.0 -6.044444444444e-04 
-7.999876507941e-04 1.388374683100e-05 0.0 
1.388374683100e-05 3.980152954303e-03 0.0 
0.0 0.0 -5.915759637188e-04 
-6.856124940247e-04 -4.086926393719e-06 0.0 
-4.086926393719e-06 4.027577169899e-03 0.0 
0.0 0.0 -5.822222222222e-04 
-7.178528616705e-04 -1.309284787321e-05 0.0 
-1.309284787321e-05 3.714901656250e-03 0.0 
0.0 0.0 -6.044444444444e-04 
-6.869874754798e-04 1.711534318409e-04 0.0 
1.711534318409e-04 3.792214840593e-03 0.0 
0.0 0.0 -5.693537414966e-04 
-6.864968275557e-04 -6.408579358671e-06 0.0 
-6.408579358671e-06 4.016159600688e-03 0.0 
0.0 0.0 -5.822222222222e-04 
-7.178783193932e-04 5.819993202574e-06 0.0 
5.819993202574e-06 3.708927247396e-03 0.0 
0.0 0.0 -6.044444444444e-04 
-7.079394544223e-04 1.566312145644e-04 0.0 
1.566312145644e-04 3.702391321003e-03 0.0 
0.0 0.0 -6.044444444444e-04 
-6.923166146099e-04 7.612225445440e-06 0.0 
7.612225445440e-06 4.017109289765e-03 0.0 
0.0 0.0 -5.822222222222e-04 
-7.279989213735e-04 2.036390614473e-05 0.0 
2.036390614473e-05 3.710913040149e-03 0.0 
0.0 0.0 -6.044444444444e-04 
-7.005874011261e-04 1.845814163449e-05 0.0 
1.845814163449e-05 4.020938657480e-03 0.0 
0.0 0.0 -5.822222222222e-04 
-7.354917532623e-04 2.057235382585e-05 0.0 
2.057235382585e-05 3.711839010969e-03 0.0 
0.0 0.0 -6.044444444444e-04 
-7.059732588437e-04 2.754521474697e-05 0.0 
2.754521474697e-05 4.015383430286e-03 0.0 
0.0 0.0 -5.822222222222e-04 
-7.002855080047e-04 1.990014593216e-04 0.0 
1.990014593216e-04 3.872918840521e-03 0.0 
0.0 0.0 -6.026870748299e-04 
-7.379521818036e-04 3.377279504907e-05 0.0 
3.377279504907e-05 3.707685656258e-03 0.0 
0.0 0.0 -6.044444444444e-04 
-7.121071295194e-04 4.529492266530e-05 0.0 
4.529492266530e-05 4.010298093341e-03 0.0 
0.0 0.0 -5.822222222222e-04 
-7.201910256190e-04 6.322353710792e-05 0.0 
6.322353710792e-05 4.009272868238e-03 0.0 
0.0 0.0 -5.822222222222e-04 
-7.467651792935e-04 5.478281511635e-05 0.0 
5.478281511635e-05 3.704632746345e-03 0.0 
0.0 0.0 -6.044444444444e-04 
-7.155345414404e-04 9.941872455418e-05 0.0 
9.941872455418e-05 3.968551508246e-03 0.0 
0.0 0.0 -5.822222222222e-04 
-7.657386443158e-04 4.703626451468e-05 0.0 
4.703626451468e-05 3.695451234596e-03 0.0 
0.0 0.0 -6.044444444444e-04 
-7.465034792929e-04 1.491483542401e-04 0.0 
1.491483542401e-04 4.023442400313e-03 0.0 
0.0 0.0 -5.822222222222e-04 
-7.198395015582e-04 1.725743928124e-04 0.0 
1.725743928124e-04 3.686227600280e-03 0.0 
0.0 0.0 -6.044444444444e-04 
-6.565140853496e-04 1.301780499699e-04 0.0 
1.301780499699e-04 3.583317050774e-03 0.0 
0.0 0.0 -5.804648526077e-04 
-6.267004692735e-04 -3.600267132829e-04 0.0 
-3.600267132829e-04 3.813319755553e-03 0.0 
0.0 0.0 -5.933333333333e-04 
-7.431964593305e-04 3.646450588748e-04 0.0 
3.646450588748e-04 4.021679577105e-03 0.0 
0.0 0.0 -5.933333333333e-04 
-6.628422468428e-04 -3.292224140382e-05 0.0 
-3.292224140382e-05 3.861928425764e-03 0.0 
0.0 0.0 -5.711111111111e-04 
-7.088162572225e-04 5.311123185713e-05 0.0 
5.311123185713e-05 3.959617699405e-03 0.0 
0.0 0.0 -6.155555555556e-04 
-6.769114540080e-04 1.825624503540e-04 0.0 
1.825624503540e-04 3.695515009073e-03 0.0 
0.0 0.0 -5.711111111111e-04 
-7.565067891625e-04 -1.155535297541e-04 0.0 
-1.155535297541e-04 4.407218847534e-03 0.0 
0.0 0.0 -6.488888888889e-04 
-7.530504053033e-04 -7.571813069496e-06 0.0 
-7.571813069496e-06 4.174991140514e-03 0.0 
0.0 0.0 -6.711111111111e-04 
-7.399837968145e-04 -1.387977928634e-05 0.0 
-1.387977928634e-05 4.486504988785e-03 0.0 
0.0 0.0 -6.488888888889e-04 
-7.729838338639e-04 -1.329064737435e-05 0.0 
-1.329064737435e-05 4.184890785187e-03 0.0 
0.0 0.0 -6.711111111111e-04 
-7.413687643813e-04 -3.949381470416e-07 0.0 
-3.949381470416e-07 4.494790911899e-03 0.0 
0.0 0.0 -6.488888888889e-04 
-7.742938489980e-04 3.545636067961e-06 0.0 
3.545636067961e-06 4.195489456373e-03 0.0 
0.0 0.0 -6.711111111111e-04 
-7.475947728547e-04 -1.447276125001e-05 0.0 
-1.447276125001e-05 4.508658415556e-03 0.0 
0.0 0.0 -6.488888888889e-04 
-7.647771457920e-04 -2.472289036545e-05 0.0 
-2.472289036545e-05 4.185138013304e-03 0.0 
0.0 0.0 -6.711111111111e-04 
-7.436934071060e-04 3.939866511849e-06 0.0 
3.939866511849e-06 4.492058634297e-03 0.0 
0.0 0.0 -6.488888888889e-04 
-7.721102977711e-04 1.191369759528e-05 0.0 
1.191369759528e-05 4.191715436034e-03 0.0 
0.0 0.0 -6.711111111111e-04 
-7.515020125074e-04 1.948179168996e-06 0.0 
1.948179168996e-06 4.504635429055e-03 0.0 
0.0 0.0 -6.488888888889e-04 
-7.788311265265e-04 -5.657460917598e-06 0.0 
-5.657460917598e-06 4.190705067530e-03 0.0 
0.0 0.0 -6.711111111111e-04 
-8.662964799625e-04 -2.454914467333e-05 0.0 
-2.454914467333e-05 4.459732268515e-03 0.0 
0.0 0.0 -6.580807474504e-04 
-7.520565303110e-04 1.109064528774e-05 0.0 
1.109064528774e-05 4.498175075181e-03 0.0 
0.0 0.0 -6.488888888889e-04 
-8.155020730708e-04 1.528373870012e-04 0.0 
1.528373870012e-04 4.186625771973e-03 0.0 
0.0 0.0 -6.711111111111e-04 
-7.586605293786e-04 2.791301751342e-05 0.0 
2.791301751342e-05 4.190794983268e-03 0.0 
0.0 0.0 -6.711111111111e-04 
-7.622973061150e-04 1.699730231297e-05 0.0 
1.699730231297e-05 4.505906138033e-03 0.0 
0.0 0.0 -6.488888888889e-04 
-7.955711925846e-04 8.033031112466e-08 0.0 
8.033031112466e-08 4.188331241414e-03 0.0 
0.0 0.0 -6.711111111111e-04 
-7.623227638377e-04 3.400576865185e-05 0.0 
3.400576865185e-05 4.489689491926e-03 0.0 
0.0 0.0 -6.488888888889e-04 
-8.006770446683e-04 3.868285750203e-05 0.0 
3.868285750203e-05 4.189917974469e-03 0.0 
0.0 0.0 -6.711111111111e-04 
-7.724433658179e-04 4.171040082635e-05 0.0 
4.171040082635e-05 4.499618609463e-03 0.0 
0.0 0.0 -6.488888888889e-04 
-7.971982277132e-04 4.334547048389e-05 0.0 
4.334547048389e-05 4.190772542348e-03 0.0 
0.0 0.0 -6.711111111111e-04 
-7.512535823419e-04 1.572109300169e-04 0.0 
1.572109300169e-04 4.272969555894e-03 0.0 
0.0 0.0 -6.358585252281e-04 
-7.799361977067e-04 4.942380984451e-05 0.0 
4.942380984451e-05 4.500436321571e-03 0.0 
0.0 0.0 -6.488888888889e-04 
-8.019717863413e-04 4.151088876834e-05 0.0 
4.151088876834e-05 4.184126944351e-03 0.0 
0.0 0.0 -6.711111111111e-04 
-7.823966262481e-04 7.184392993936e-05 0.0 
7.184392993936e-05 4.484862014071e-03 0.0 
0.0 0.0 -6.488888888889e-04 
-8.006840076862e-04 7.791811278218e-05 0.0 
7.791811278218e-05 4.176001510022e-03 0.0 
0.0 0.0 -6.711111111111e-04 
-8.039640851074e-04 1.263508000003e-04 0.0 
1.263508000003e-04 4.174705869658e-03 0.0 
0.0 0.0 -6.711111111111e-04 
-7.912096237380e-04 1.071509718730e-04 0.0 
1.071509718730e-04 4.477799006040e-03 0.0 
0.0 0.0 -6.488888888889e-04 
-8.101830887602e-04 1.288493200629e-04 0.0 
1.288493200629e-04 4.489610393156e-03 0.0 
0.0 0.0 -6.488888888889e-04 
-7.617757652904e-04 1.684528749010e-04 0.0 
1.684528749010e-04 4.355354044839e-03 0.0 
0.0 0.0 -6.691918585615e-04 
-7.171747419539e-04 1.190543822742e-04 0.0 
1.190543822742e-04 4.056731334660e-03 0.0 
0.0 0.0 -6.469696363393e-04 
-8.025731129306e-04 -3.241456630719e-04 0.0 
-3.241456630719e-04 4.358910586267e-03 0.0 
0.0 0.0 -6.600000000000e-04 
-7.344440083408e-04 3.911518351984e-04 0.0 
3.911518351984e-04 4.236731495882e-03 0.0 
0.0 0.0 -6.600000000000e-04 
-8.045282767906e-04 1.783825891024e-05 0.0 
1.783825891024e-05 4.360632635982e-03 0.0 
0.0 0.0 -6.822222222222e-04 
-7.310384794447e-04 6.338117589491e-05 0.0 
6.338117589491e-05 4.247438367621e-03 0.0 
0.0 0.0 -6.377777777778e-04 
-7.412727877556e-04 1.381235162240e-04 0.0 
1.381235162240e-04 4.183483937710e-03 0.0 
0.0 0.0 -6.377777777778e-04 

SCALARS element_materi_plasti_kappa_shear float
LOOKUP_TABLE default
2.048251484052e-03
1.753493670412e-03
5.503175940454e-03
5.633931869583e-03
3.565227349428e-03
4.312193749307e-04
3.536826958687e-03
1.942063469917e-03
3.582504689508e-03
5.588174946624e-03
3.844209359202e-03
1.631469581520e-03
5.512057153720e-03
3.809200862045e-03
5.604521952288e-03
5.734301458091e-03
3.547028291065e-03
0.0
1.240065727301e-03
1.171297693899e-03
5.622446392520e-03
2.066758337528e-03
2.250687853245e-03
4.978061567755e-03
4.048291547957e-03
4.106723662793e-03
3.275000549148e-03
5.494131578830e-03
4.059702375831e-03
5.136982028010e-03
1.134770329222e-03
3.832632936293e-04
5.695120532744e-03
4.786861567557e-03
5.372391993924e-03
5.735141668293e-03
5.753517229623e-03
5.201200685639e-03
3.236338684528e-03
3.281036968799e-03
2.549446708275e-03
5.321786045187e-03
1.684174276636e-03
3.149604634892e-03
5.511212370387e-03
1.565690788834e-03
3.220151479937e-04
5.403179619290e-03
4.290285994568e-06
3.669652725762e-03
2.409350294786e-03
1.545192749097e-03
1.201581906209e-03
2.359715905779e-03
5.581390730100e-03
2.049040073899e-03
1.507776831990e-03
4.806180650684e-03
9.040347839122e-04
5.734539432202e-03
0.0
5.036447355686e-03
2.389363153128e-03
1.200719454992e-03
5.502622384469e-03
2.208078500699e-03
0.0
5.645939813077e-03
1.388688876148e-03
5.450080675048e-03
4.240450452081e-03
5.844447616816e-03
5.127619557211e-03
3.940968838013e-04
2.067872878458e-03
5.628694369718e-03
5.723406412390e-03
1.349407449673e-03
8.084468878613e-04
1.429030436914e-03
1.215963319167e-03
3.393097464491e-03
2.129508046084e-03
1.864830702236e-03
3.733526205207e-03
3.714125906962e-03
4.361075697200e-03
4.690746124938e-03
4.783172209268e-03
3.514212606547e-03
2.589608648574e-04
3.431550400288e-03
4.721859888672e-03
4.746077057757e-03
5.997543046696e-03
5.411150761547e-03
3.393913313148e-03
5.491004293201e-03
3.985594967259e-03
2.258571385844e-03
3.410992711845e-03
5.611034212900e-03
4.179507938013e-03
5.032886742806e-03
2.003062331599e-03
8.956760759698e-04
5.221382607798e-03
5.045193140480e-03
2.261908350144e-04
5.486842463624e-03
4.573653062054e-03
3.479980613031e-04
2.502076270832e-03
3.167763418157e-03
2.487000496226e-03
2.126059688753e-03
2.273861626040e-03
5.451016480833e-03
3.919789090778e-03
2.281181173819e-03
1.213076248653e-03
3.513689619667e-03
4.941959880695e-03
2.106608397091e-03
9.726897685994e-04
2.859921274722e-03
2.565005698292e-03
2.680460766149e-03
5.737782286007e-03
9.785758943601e-04
4.027728111069e-03
5.636355074510e-03
2.835365156538e-03
2.709046400113e-03
5.353249069116e-03
5.532349028915e-03
4.348743351020e-03
2.978900291729e-03
5.411429688504e-03
2.744221608962e-03
5.616125922486e-03
5.613692443858e-03
3.766204035722e-03
4.391065799997e-03
2.718404295077e-03
2.533253388883e-03
3.087137023846e-03
2.200470782986e-03
3.492820352654e-03
2.363376362537e-03
2.621382727248e-04
3.747049311015e-03
8.605114628174e-04
3.020514546332e-03
5.290806449770e-03
2.186313469297e-03
4.518027699077e-03
1.606142966517e-03
4.209701847448e-03
3.408465456370e-03
2.321856290079e-03
4.941287181334e-03
1.029170670083e-03
5.207270841350e-03
3.386399557435e-03
5.629077659096e-03
3.402534046100e-03
2.143777464895e-03
2.980585492464e-03
3.978529564445e-03
1.797981043136e-03
2.131947395522e-03
4.565545625096e-03
3.526561441315e-03
2.292273163024e-03
2.831954602171e-03
4.902639283245e-03
2.846109516762e-03
5.344131269156e-03
5.581762834167e-03
2.045482988632e-03
2.739998364567e-03
4.670836610536e-03
2.636378907130e-03
1.901753547338e-03
3.276383508295e-03
2.394214224877e-03
5.640432630144e-03
4.649191975422e-03
5.084010659974e-03
1.450852845402e-03
1.891185196908e-03
4.756649167095e-03
0.0
2.645910748192e-03
4.353987082835e-03
6.693198157630e-04
5.577145383260e-03
4.311674069402e-03
2.424063329831e-03
4.308254875087e-03
3.768016172911e-03
3.975429040763e-03
5.123403257528e-03
1.968551576487e-03
3.168679698929e-03
3.489417411141e-03
4.497775965736e-03
3.554143506731e-03
3.272990497602e-03
3.636148199777e-03
4.777873359821e-03
0.0
2.054332000673e-03
2.292338041600e-03
3.059823040950e-03
4.848669964181e-03
7.411939793981e-04
4.203239612195e-03
3.403528574950e-03
2.120618832016e-03
4.069098148087e-03
4.246264766717e-04
4.599464078276e-03
3.476148306084e-04
5.410341703710e-04
1.592193211171e-03
1.719248331945e-03
4.782293510667e-03
1.815734887217e-03
1.844404593867e-03
1.618505664870e-03
1.146822852731e-03
4.464359441945e-03
3.377702223347e-03
5.506088258921e-03
0.0
2.009805297429e-03
2.302243100894e-03
2.481153461484e-03
4.143768537590e-03
5.606441244158e-03
4.559795208237e-03
1.455328493326e-03
4.488396010045e-03
4.213382192652e-03
3.236971907541e-03
4.423237357451e-03
5.173514376653e-03
2.134179776736e-03
1.811135889082e-03
3.825403090103e-03
5.999008670889e-03
3.128792099484e-03
2.778892560238e-03
3.812433277429e-03
1.356034459876e-03
3.547869395678e-03
1.821956586395e-03
1.071898620409e-03
6.878759182499e-04
4.770342255613e-03
3.657761913000e-03
2.301185800403e-03
4.951131887675e-03
4.665409177490e-03
3.411799966359e-03
5.452188912108e-03
2.908585602061e-03
3.583300261965e-03
2.605219249823e-03
3.100950466365e-03
1.347698524684e-03
3.414342947476e-03
2.155049212513e-03
1.385737165103e-03
4.542488046730e-03
0.0
3.716563633638e-03
1.636449720064e-03
1.774524551335e-03
8.033729531877e-04
3.926631031118e-03
7.929613934373e-04
2.439400741018e-03
3.230296274809e-03
3.653257839111e-03
3.792551444783e-03
3.394897168044e-04
9.779464977479e-04
1.639638944485e-03
2.170597973029e-03
4.441924025952e-03
2.403845489855e-03
2.012179680430e-03
2.055407645936e-03
5.690441180566e-04
2.724975474439e-03
1.566269675286e-03
5.958720739140e-03
5.939193914372e-03
3.244445123059e-03
1.612814842720e-03
1.675996184199e-03
3.688319290740e-03
1.425607672630e-03
1.036406456605e-03
3.253099720127e-03
5.778400585500e-03
1.895871873376e-03
3.666527252036e-03
1.635469508028e-03
5.660443835014e-03
1.865154342382e-03
3.342266076335e-03
6.537557986607e-04
3.435463054255e-03
2.276354288028e-03
1.404210939028e-03
3.486331641573e-03
5.890375541845e-03
1.783256592408e-03
3.221814678744e-03
1.690872941280e-03
4.262668196764e-03
3.989554513863e-03
1.870987437432e-03
4.157903845114e-03
5.833143474624e-03
4.319705339619e-03
5.914245466119e-03
4.107732014025e-03
4.587246752330e-03
1.718940221779e-03
3.216971996294e-03
3.590070658515e-03
3.756282744682e-03
2.945710028404e-03
5.788099092437e-03
3.944002213719e-03
3.448909530710e-03
1.863265499764e-03
1.455277505311e-03
3.108638757878e-03
2.053960887931e-03
3.540174196265e-03
1.877423184664e-03
1.615583361797e-03
4.717172209803e-03
1.879339039984e-03
3.325468032698e-03
3.338062058546e-03
3.118061036030e-03
5.704944762880e-03
2.801276760200e-03
7.929235320681e-04
2.475643465383e-03
1.888885188254e-03
2.000012791094e-03
4.954048188006e-03
3.495259464146e-03
2.461309541375e-03
3.062435080318e-03
5.651875251926e-03
5.274977967438e-03
4.935750800823e-03
4.617112825186e-03
3.065607714073e-03
2.469090313365e-03
1.133689513580e-03
1.302424423879e-03
3.315397022365e-03
3.332601828915e-03
2.997347446124e-03
5.010744987465e-03
1.001431061527e-03
2.758819764694e-03
3.419306053386e-03
2.519448693487e-03
5.922741708313e-03
5.955236189705e-03
5.576307705796e-03
3.343577244616e-03
4.936203495640e-03
1.952709186338e-03
1.572206337786e-03
8.348386301078e-04
2.556685105345e-03
3.397790353165e-03
4.097341444589e-03
5.360765443340e-03
4.855340331115e-03
3.816589750238e-03
3.860243568889e-03
1.042497557085e-03
9.358115372942e-04
2.519797185523e-03
3.004979550758e-03
2.619929927174e-03
9.216036177595e-04
3.654326841485e-03
1.535889856870e-03
1.965274985910e-03
5.542217875605e-03
3.765591558978e-03
3.443419406157e-03
9.148022967595e-04
3.000502477848e-03
2.382905503139e-03
3.927650911988e-03
5.879566310260e-03
3.223720713770e-03
3.674901719203e-03
2.887355925381e-03
4.891146742092e-03
3.418978839809e-03
5.856068981647e-03
5.774980459743e-03
5.817447372982e-03
5.770330115021e-03
4.031402203216e-03
4.901935106937e-03
5.053219238746e-03
2.608302338338e-03
2.534090737438e-03
2.864377718296e-03
5.021604322951e-03
5.804877108405e-03
5.054229152364e-03
3.432032663523e-03
5.068372728808e-03
4.092526629085e-03
2.882253780088e-03
2.587573265554e-03
1.635529725768e-03
5.632439227330e-03
2.459501711046e-03
5.142282866551e-03
2.763464966763e-03
2.028101785968e-03
5.246511047736e-03
2.055425638514e-03
5.758655944435e-03
5.581996474530e-03
3.601464432629e-03
2.874317802878e-04
5.722474487266e-03
5.230794359339e-03
1.560316552400e-03
3.558601806016e-03
5.699626342238e-03
0.0
2.660857434825e-03
3.779907730678e-03
3.423227498078e-03
3.515796245568e-03
1.920364726314e-03
5.673636790495e-03
1.884624729070e-03
1.324523675438e-04
5.578498981548e-03
5.002872014388e-04
2.903489307071e-03
7.102088304152e-04
3.105385424469e-03
5.637939698663e-03
5.643493109987e-03
3.759896198982e-03
6.466604743843e-04
2.581016059886e-06
1.306561031608e-03
4.781936084338e-03
3.544667014514e-03
3.591768567502e-03
5.600982036969e-03
3.550458207037e-03
5.978204257671e-03
4.194064998041e-03
3.966369650588e-03
2.069110227023e-03
3.555873876722e-03
1.287977702152e-03
5.563443599679e-03
5.770828452205e-03
5.803925315002e-03
3.535689664887e-03
2.718540240995e-03
2.810036151372e-03
3.607200195359e-03
5.538358032675e-03
1.640374573165e-03
1.295740147429e-03
1.612091026105e-03
4.134625190794e-03
5.683102620147e-03
9.751937677048e-04
5.520122581297e-03
1.677390207142e-03
5.751046272795e-03
5.068488904679e-03
5.986160827208e-04
2.695519082935e-03
5.116907936890e-03
5.706785168037e-03
4.029434435152e-03
4.284615340903e-03
1.266337359964e-03
4.952953356985e-03
1.912176692629e-03
1.970550124934e-03
6.041211163241e-04
5.656733513692e-03
1.182133657821e-03
4.542952953280e-03
3.833323984522e-03
2.139158319596e-03
1.714726693588e-03
3.853402172132e-03
5.579172664692e-03
2.774393020232e-03
3.942313972036e-03
3.310099650091e-03
3.368941039505e-03
1.606723124076e-03
3.637032700867e-03
3.197994162511e-03
4.208731222359e-03
3.883013032915e-03
3.120071939876e-03
2.732828783826e-03
1.823514764933e-03
2.627670573605e-03
4.181475254094e-03
3.004073412555e-03
5.656674172997e-03
5.232907453581e-03
1.823811427345e-03
5.507514049442e-03
5.342333532244e-03
2.747952667688e-03
4.382088383837e-04
5.694608369003e-03
5.185125812822e-03
1.765229900576e-03
5.538258443366e-03
3.827720443377e-03
2.679180912128e-03
3.704599732640e-03
2.883358424601e-03
3.255701293151e-03
3.509234741566e-03
4.329946724555e-03
2.998532943868e-03
4.098742247155e-03
4.047052255275e-03
2.859932710936e-03
3.672333583241e-03
2.211642543694e-03
3.881327088903e-03
2.317754686702e-04
2.007422663305e-03
2.062503183499e-03
3.040900024033e-03
2.964066277893e-03
3.726763647670e-03
4.021852142269e-03
2.125448120930e-03
5.567560434823e-03
3.763638072718e-03
3.188675817690e-03
3.577463415310e-03
3.136039882304e-03
0.0
3.881554513065e-03
2.640906468370e-03
1.601175916693e-04
3.049084665278e-03
4.039018151325e-03
5.107511769800e-03
3.179382722343e-03
3.272183804054e-03
3.333812579699e-03
3.138774507407e-03
5.602858950169e-03
3.388266387592e-03
4.889835681516e-04
1.262830355438e-03
3.403732711760e-04
2.039797041705e-03
4.886593675055e-03
5.135074580473e-03
4.569733804699e-03
2.205347307067e-03
3.963428270317e-03
4.644691033612e-03
4.480010223363e-04
2.667099209261e-03
2.160248377513e-03
5.721042981994e-03
5.580105102775e-03
2.939481999310e-03
3.271315706566e-03
3.310083848978e-03
4.812160421875e-03
1.230172725071e-03
4.495251994924e-03
6.428633528680e-04
2.999374668151e-03
3.265631012540e-03
2.192679874259e-04
2.777613716051e-03
5.213183738870e-03
4.661553375830e-04
3.125223871850e-03
3.264611202798e-03
3.668691180679e-03
2.191299816666e-03
1.929490898901e-03
1.801992614561e-03
5.021357309615e-03
5.413378247578e-03
4.938730896674e-03
1.962629389648e-03
7.396549693111e-04
3.052559415623e-03
3.136955965337e-03
3.283077438816e-03
1.598687307509e-04
2.193472717883e-04
5.176799582362e-04
1.646399827615e-03
4.476010659486e-04
3.103497725519e-03
0.0
1.933359932912e-03
4.174873570305e-03
3.277162825819e-03
5.055738530347e-03
3.910516641519e-03
3.910699350519e-03
2.335203039295e-03
6.321407009922e-04
5.850638891353e-03
6.009929428425e-03
3.804106063636e-03
3.142498704503e-03
2.378074668671e-03
6.000434500276e-03
1.932646254916e-03
3.261134435714e-03
3.129035808385e-03
2.954670140417e-03
5.838142907149e-03
5.995969196951e-03
4.354125543212e-04
1.813212541407e-04
9.186762200650e-04
3.162862848184e-03
5.377931686408e-03
0.0
4.886021985717e-03
0.0
3.610910406558e-03
3.669816600871e-04
9.031669178809e-05
3.461382625694e-03
5.195804270535e-03
4.290192669085e-03
3.148248508174e-03
2.197475915269e-04
4.109795966881e-03
5.851848957563e-03
6.003781657386e-03
3.276367122740e-03
3.775548124396e-03
5.863438389457e-03
4.268339267121e-03
6.020741917649e-04
4.453789533022e-04
2.347376138707e-04
2.636386499780e-03
5.872831094669e-03
5.638106297545e-03
1.897411018069e-04
3.087998710897e-03
5.740465009782e-03
5.879140074132e-03
5.731117611362e-03
4.595061384764e-03
5.043133831470e-03
5.707378045359e-03
5.713124045283e-03
4.886059613206e-03
4.831364360602e-04
3.253485872106e-03
3.293767224568e-03
1.826916767147e-04
5.690406926254e-03
5.768685902519e-03
5.617484584069e-03
4.524110312699e-04
4.596449148217e-04
5.588283914655e-03
5.603110956582e-03
4.452788727497e-03
3.251601896083e-03
4.737759423841e-03
3.834702661819e-03
3.246459497800e-03
5.228246461019e-04
4.912700086981e-04
4.440043287774e-04
5.321378525866e-04
3.250169139528e-03
2.937145446359e-03
0.0
4.118703550062e-03
0.0
5.832195033359e-03
5.846499430745e-03
5.850716816551e-03
1.037380994288e-03
2.016748291347e-03
5.852662976723e-03
4.973191529565e-03
5.880964851940e-03
5.257570989653e-03
5.538666694917e-03
2.787880833422e-03
6.016271676808e-03
6.012463975420e-03
5.083244388473e-03
5.379690173722e-03
4.387421699504e-03
0.0
2.857162677749e-03
4.252814149356e-04
5.079913712272e-03
2.910266083999e-03
4.760106554014e-03
1.643649883448e-03
5.383120855226e-04
5.098955867833e-03
3.125495581336e-03
2.489884669676e-03
4.818967528395e-03
5.278656552725e-03
2.495305030192e-03
4.255398696545e-03
3.844899893988e-03
4.331079183945e-03
4.483284984887e-03
1.722961733981e-03
2.890176896868e-03
2.847631786202e-03
4.036906121347e-03
4.963877593991e-03
4.634026856991e-03
1.657361628813e-03
5.268660436221e-03
4.977116357189e-03
3.619668627054e-03
4.170717328187e-03
4.186883659402e-03
5.342654512253e-03
5.152017188016e-03
3.775019514809e-03
5.233037882857e-03
4.914729909785e-03
4.640974992130e-03
5.247897151359e-03
5.303240859678e-03
4.541244193091e-03
4.128098936937e-03
1.538774070067e-03
1.637170348017e-03
8.927698521496e-04
6.525183474627e-04
5.158931490191e-03
5.044076979222e-03
5.868956833529e-04
5.121589647054e-03
3.733179451095e-03
4.678226682694e-03
4.762287906690e-03
2.074136809097e-03
4.809627862755e-03
3.622602601676e-03
3.895447150765e-03
5.345962366384e-03
1.472811966339e-03
5.235843009349e-03
4.707105507548e-03
1.674998648871e-03
1.997272543898e-03
3.477442011437e-03
4.193455430159e-03
2.343630985594e-03
4.867641149368e-03
4.387482060233e-03
3.338211884839e-03
4.524321097962e-03
4.677832988922e-03
4.679006337696e-03
1.339663578638e-03
3.198638979897e-03
4.633717260275e-03
4.840387351562e-03
2.897016443790e-03
3.936845676204e-03
5.082736818756e-03
4.511744960805e-03
3.674133562232e-05
7.677090780190e-04
5.119753373391e-04
4.910516809545e-03
4.354991661180e-03
3.826914815962e-03
3.891439679492e-03
4.711856603341e-03
3.483739004670e-03
4.620031677450e-03
1.591598461033e-03
5.218249190632e-03
3.412412426767e-03
1.736686848489e-03
3.262202328444e-03
2.478917580480e-03
2.035103586398e-03
3.755154455874e-03
1.564516804578e-04
1.127981756129e-04
4.252374733298e-03
1.464746990371e-03
4.246030270520e-03
4.094375942875e-03
2.616673579752e-03
1.812766898726e-03
5.102254688752e-03
3.465488540583e-04
2.625027282395e-03
4.837002714089e-03
1.192572476611e-03
4.082383260840e-03
3.767466409166e-03
1.326156531730e-03
4.910591653427e-03
4.645125771511e-03
1.410538395916e-03
5.226535373693e-03
5.199234746316e-03
1.660825990561e-03
2.070362284012e-03
1.741360747490e-03
4.534233564243e-03
3.626195608604e-03
5.169455195403e-03
5.078103462266e-03
4.392922361779e-03
4.325015664707e-03
1.344427675979e-03
4.473065100284e-03
4.621187335039e-03
3.681381110047e-03
4.381240135388e-03
4.808400950473e-03
2.590644772933e-03
4.947620929573e-03
3.085734269788e-03
3.550246213813e-03
2.335827574008e-03
2.490782004144e-03
4.488879741826e-03
3.165999505287e-03
1.852051741298e-03
9.795830009428e-04
4.513242120104e-03
1.766306002376e-03
5.166203144739e-03
4.649805208552e-03
4.614388070238e-03
5.225667178668e-03
2.979037457551e-03
1.585841628710e-03
1.011992460365e-03
4.379665078225e-03
4.223445145250e-03
6.765581779647e-04
2.432707948999e-03
1.398956561073e-03
4.216513153533e-03
2.555838114567e-03
4.011146820245e-03
2.390150431536e-03
5.006027676207e-03
2.059652164516e-03
4.350001019912e-03
1.794811250637e-03
4.222069039724e-03
3.406036415107e-03
4.462021920913e-03
1.339917336666e-03
1.350299010952e-03
3.939048831294e-03
3.691324572909e-03
2.830557802011e-03
4.239747352825e-03
1.991260803131e-03
4.297758287115e-03
1.272590086592e-03
4.947061823839e-03
3.839114394118e-03
4.100469873386e-03
5.406352818554e-03
3.435279919526e-03
1.276251192001e-03
3.890812531652e-03
5.018055530162e-03
2.209550982896e-03
4.531906710769e-03
4.676467859059e-03
1.712191406574e-03
4.059355262125e-03
3.877866350654e-03
1.909658390552e-03
2.315039142321e-03
3.261954618660e-03
4.303145841247e-03
2.635421671348e-03
3.059028444222e-03
4.459399445595e-03
4.056901073063e-03
3.999117941319e-03
3.350783493908e-03
4.741842824469e-03
3.716486713275e-03
3.922920566098e-03
5.252343855285e-03
4.304735037625e-03
4.138095280470e-03
4.783696522489e-03
2.607621039471e-03
2.469838949813e-03
1.432823964346e-03
4.007204605408e-03
2.590823974833e-03
4.347452842024e-03
4.183394403681e-03
2.669547662572e-03
2.085784252471e-03
1.474019061621e-03
2.212107321881e-03
2.350809507915e-03
1.463075537230e-03
4.569504511566e-03
2.669001313969e-03
4.972812165115e-03
2.750604982809e-03
3.790160523716e-03
3.207941504412e-03
2.889645016640e-03
1.541106990513e-03
4.841361927258e-03
5.091339779464e-03
4.032052527629e-03
2.472525954974e-03
3.495149155929e-03
4.324118500003e-03
2.732643322525e-03
2.578422691737e-03
2.150698556139e-03
2.106845042594e-03
2.726649439388e-03
1.894721435353e-03
1.784390543315e-03
3.334917325845e-03
3.967235808941e-03
4.797201624805e-03
4.779022984785e-04
2.400918837851e-03
2.556449603619e-03
2.577694805080e-03
4.159825931864e-03
2.931072335017e-03
2.192293877224e-03
2.827325159198e-03
4.815904702500e-03
2.276675714295e-03
8.000720813987e-04
1.154840506689e-03
1.907795704095e-03
2.221538328191e-03
2.622719745119e-03
2.913483858148e-03
1.764083930753e-03
1.225103944880e-03
3.978408581491e-03
1.973233867528e-03
4.352924711069e-03
4.600918209764e-03
3.992519858041e-03
5.014455028265e-03
4.977573847805e-03
2.548565445421e-03
4.312209701199e-03
1.977881610171e-03
2.972886214248e-03
2.522487306746e-03
1.343329153242e-03
1.686644144900e-03
2.487335316614e-03
2.744769011227e-03
2.804656212940e-03
2.029273826370e-03
3.023258905964e-03
2.603498899914e-03
2.484258941744e-03
2.359041018273e-03
3.843548607210e-03
4.482822863784e-03
2.260889845850e-03
4.670023540639e-03
2.097337949930e-03
5.002347225511e-03
2.827679967364e-03
5.203491602561e-03
3.947077556837e-03
1.774963125665e-03
4.099246498151e-03
5.100371074435e-03
2.915547663855e-03
2.161634842982e-03
4.202460859535e-03
3.063723291001e-03
1.589122566935e-03
5.594818322494e-03
1.323577671794e-03
4.905374215111e-03
5.240056690777e-03
4.004250475148e-03
4.022036132739e-03
4.908739948371e-03
2.656489500895e-03
3.014023661640e-03
5.295279977407e-03
4.266560699203e-03
4.614700973159e-03
3.798037729663e-03
1.755388368310e-03
4.742604083367e-03
5.518069405150e-03
5.004957839638e-03
2.836493463261e-03
4.042556476747e-03
3.862526569830e-03
2.990307102709e-03
4.091149418794e-03
4.218450148723e-03
1.096098833511e-03
1.326857373094e-03
2.403878583947e-03
2.433427464003e-03
2.925956778214e-03
5.469614393342e-03
5.117047102826e-03
5.259865256129e-03
2.804866215072e-03
4.812380906171e-03
4.181034339560e-03
5.346185944049e-03
4.575117160927e-03
3.073764877658e-03
2.227900412936e-03
4.723026116701e-03
5.199457669429e-03
4.754736712479e-03
4.593382364392e-03
4.706207203460e-03
4.760938801400e-03
4.529156841862e-03
3.673004527565e-03
2.793183285108e-03
4.176641122849e-03
4.482872570103e-03
1.720752477746e-03
2.523073950019e-03
2.936964334964e-03
3.355527503238e-03
6.764221038374e-04
2.312131514981e-03
3.694823953479e-03
3.162738673778e-03
3.106094428709e-03
4.275586722866e-03
3.420444478414e-03
8.056313501550e-04
3.608028323111e-03
4.113825723424e-03
5.289575565493e-03
2.786040332148e-03
3.385556211389e-03
4.320502265356e-03
1.220460717409e-03
3.955179298540e-03
3.165570628649e-03
3.317308554295e-03
4.304146306300e-03
1.881742204703e-03
4.432932293431e-03
4.823215265074e-03
3.806542070162e-03
4.778108728742e-03
4.481570645652e-03
4.886746565618e-03
1.498086320626e-03
4.448193879400e-03
4.826216477314e-03
4.887560636574e-03
3.468158111994e-03
2.473653699252e-03
3.471604947544e-03
3.515654411097e-04
5.048129172683e-03
1.854985291829e-03
1.640845901064e-03
4.384273219759e-03
5.379705512614e-03
1.962931709496e-03
3.460402464098e-03
4.556944250926e-03
3.383719843055e-03
1.271639043889e-03
2.155596217494e-03
1.530379692595e-03
1.562946298421e-03
1.725992673060e-03
3.128123404018e-03
5.978757202265e-03
1.878932715142e-03
4.874265144994e-03
2.021312508689e-03
4.410645559788e-03
5.446402050903e-04
5.032053835528e-03
1.857540691758e-03
2.167450437020e-03
4.007316872521e-03
2.865792508923e-03
4.633094935503e-03
2.352487737097e-03
4.663962013380e-03
4.869204411424e-03
4.429689118342e-03
5.301599282418e-03
4.867555126114e-03
4.994292368551e-03
1.585731642834e-03
4.731482311295e-03
4.686031286375e-03
2.832067385881e-03
2.158927091379e-03
5.079003029780e-03
9.596911832810e-04
2.094098399874e-03
4.422688948064e-03
1.248071604352e-03
3.111224166074e-03
4.143397073039e-03
5.269510986050e-03
5.404504160547e-03
4.032131518505e-03
5.035214563043e-03
2.288963266599e-03
4.497236254835e-03
2.449891336582e-03
5.141368132138e-03
2.751749660152e-03
2.878729614698e-03
2.670941398415e-03
3.064327322831e-03
3.458691017845e-03
2.658280149013e-03
2.653753714281e-03
9.811593336372e-04
2.441082358799e-03
5.179437752949e-03
5.268578940823e-03
4.434728242993e-03
4.747389467129e-03
2.702179599475e-03
4.975773677779e-03
2.582283479392e-03
4.888861475009e-03
4.848446586374e-03
4.829227704648e-03
3.615324373437e-03
2.341624150185e-03
4.784583869030e-03
3.957491419921e-03
1.700601644229e-03
7.020950745825e-04
2.481218771102e-03
3.497363371298e-03
5.046415826891e-03
4.704605430921e-03
2.322695645322e-03
3.926363227239e-03
4.300034730448e-03
5.071297943610e-03
4.988482903574e-03
4.232489050894e-03
4.476485377380e-03
2.821806331728e-03
4.336206174646e-03
3.171626869689e-03
5.322298740710e-03
5.194634648291e-03
3.273686732189e-03
5.984151931342e-04
4.585743008913e-03
3.386888275758e-03
2.214504551746e-03
3.505745048799e-03
4.392421827443e-03
8.649412715447e-04
2.929672516780e-03
4.200855765301e-03
5.106738436651e-03
4.301405107969e-03
4.492473167653e-03
4.094600791655e-03
3.873742424529e-03
4.049253002460e-03
4.546913092459e-03
4.646225374320e-03
4.523702894857e-03
5.390087395958e-03
3.985020216099e-03
1.618655921058e-03
4.788488793259e-03
5.359924628782e-03
3.005660619524e-03
3.223226449347e-03
1.971525089256e-03
4.648699280585e-03
2.766011387022e-03
3.573201295524e-03
2.703531881720e-03
4.214659544868e-03
5.069771484117e-03
2.121431133426e-03
4.058193802695e-04
5.341003982022e-03
2.920796651996e-03
2.806031036896e-03
4.893352200413e-03
4.541058644014e-03
4.477853504311e-03
2.415871683082e-03
1.091173224408e-04
5.297107160487e-03
3.566992170965e-03
3.964772993216e-03
4.908749566295e-03
0.0
4.396335016970e-03
1.721264210827e-03
4.247426129010e-03
3.657351708374e-03
2.094475387503e-03
4.954039962137e-03
3.497476297263e-03
1.752352387144e-03
3.730384878291e-03
3.763523260525e-04
4.296335070821e-03
4.232332728486e-03
5.300157964833e-03
4.591233936654e-03
1.028298279476e-03
4.511210016349e-03
5.453521427974e-03
5.267588892161e-03
4.434702429965e-03
2.462650568201e-03
4.009248660887e-03
5.046804183108e-03
3.535212461732e-03
4.396897747975e-03
4.393389450935e-03
4.800902351973e-03
4.606296382435e-03
3.122680214006e-03
3.120274423476e-03
4.382256899136e-03
4.111044512030e-03
3.813633009546e-03
4.221320453715e-03
3.279774802709e-03
4.769766446077e-03
2.542727818687e-03
5.983048558159e-03
3.591210545370e-03
3.168624506568e-03
3.557292247720e-03
9.531416278352e-04
3.230009085735e-03
3.834311612934e-03
3.683361306900e-03
4.361379102542e-03
4.324884584528e-03
4.497716242812e-03
9.296305416927e-04
3.000738260246e-03
2.877206011431e-03
4.129391706327e-03
4.309346871824e-03
4.660717579237e-03
1.390083491195e-03
1.337430359801e-03
3.372007376568e-03
3.118387867984e-03
2.908488767762e-03
3.071482520293e-03
4.375276169837e-03
1.579296571718e-03
3.441254145347e-03
4.169540997438e-03
5.233780527266e-04
5.376588438414e-03
5.149299469470e-03
3.407577951504e-03
4.596633708749e-03
5.291684185247e-04
4.017860612446e-03
3.529401166009e-03
5.097626183355e-04
5.132298664917e-03
7.847782572497e-04
4.127046447011e-03
3.654659147826e-03
2.736631618381e-03
3.532903553380e-03
5.264031271081e-03
3.850209962935e-03
3.431861875086e-03
3.323620881928e-03
5.457679815637e-04
4.250590229058e-04
4.681238603658e-03
4.043631383605e-03
4.795280597812e-03
2.001212315519e-03
4.830518942522e-03
4.896214853729e-03
3.151597474926e-03
4.683508434643e-03
4.666996016599e-03
3.909137558089e-03
3.276352252530e-03
3.497938959203e-03
5.375951367089e-03
3.220959364287e-03
3.760026043850e-03
3.137860209432e-03
4.172566943858e-03
2.940253828480e-03
1.143043258969e-03
3.094440534048e-03
1.421741084883e-03
4.229813709731e-03
1.395709131982e-03
4.036588971796e-03
4.570721815773e-03
4.340933322801e-03
2.781057843546e-03
4.194893651729e-03
4.753168581798e-03
4.818117472809e-03
1.337755850323e-03
4.137746118188e-03
5.209940225679e-03
2.346590375691e-03
3.683805328026e-03
7.449910221542e-04
4.902778118811e-03
1.132231217255e-03
3.562582783365e-03
3.984078078079e-03
4.208916939956e-03
4.023939684233e-03
3.635866043279e-03
2.594201963328e-03
2.755506096816e-03
4.964224152630e-03
3.752359726194e-03
3.049378824758e-03
3.951824469440e-03
2.751998479851e-03
1.270610342763e-03
2.569385874887e-03
3.772607831583e-03
3.271605333460e-03
4.369076492911e-03
2.705575969413e-03
5.066065955323e-03
4.914430261524e-03
2.994647378897e-03
5.394625854804e-03
1.628019428153e-03
4.948546199405e-03
3.599675338089e-03
3.985333370223e-03
4.676994841526e-03
2.599416272208e-03
3.952410327413e-03
2.849041735521e-03
3.845590045576e-03
1.946537266926e-03
4.082691990806e-03
2.599671966463e-03
3.723013565829e-03
3.865662068831e-03
5.887470109934e-04
3.453775351858e-03
1.200495782290e-03
9.684342886303e-04
3.597379235346e-03
4.690298881192e-03
4.138119897075e-03
2.292437587727e-03
5.849140828973e-03
1.853697180041e-04
2.448985812848e-03
3.130150269505e-03
3.550843563428e-03
2.957877931277e-03
1.876075245636e-03
3.442132234492e-03
3.806568376354e-03
3.777536702449e-03
4.965844843458e-03
1.161492389179e-03
3.317749060185e-03
3.622478808600e-03
2.112089838123e-03
3.317999481308e-03
4.153535609678e-03
4.505816054949e-03
6.237202834362e-04
0.0
1.573012222717e-03
3.691965033318e-03
1.969230988537e-03
1.898292932230e-03
1.294352397267e-03
3.753016074333e-03
4.366198405172e-03
3.768697917664e-03
1.871438903480e-03
4.121048902823e-03
3.672677354322e-03
4.305538666813e-03
3.830322098392e-03
3.828543141580e-03
1.984443132618e-03
2.202423137923e-03
3.907189118964e-03
4.304428646692e-03
4.049985857339e-03
2.152295599124e-03
3.904305982153e-03
2.181745308855e-03
1.601820863611e-03
4.956049478681e-03
1.401476559850e-03
2.111889315513e-03
3.321047263052e-03
2.268346872781e-03
3.969667780703e-03
1.889119106673e-03
3.396365532197e-03
3.971070620537e-03
2.946304068913e-03
3.537025974587e-03
1.811375157662e-04
5.205294236013e-03
2.387586220924e-03
4.665614783562e-03
3.968807703245e-03
4.049703598051e-03
4.107544981389e-03
1.695791505847e-03
1.026663475019e-03
1.642477002779e-04
4.189723483469e-03
4.659166707092e-03
2.346343365980e-03
4.226192121581e-03
2.191228217425e-03
4.314363055978e-03
5.445403603490e-03
0.0
5.877232482387e-03
5.753927133567e-03
3.517916756623e-03
2.567108847699e-03
3.885798105456e-03
1.761253100682e-03
8.753437067106e-04
5.824479928858e-04
5.430593790634e-03
4.272773126407e-03
3.281421806576e-03
5.755399577457e-03
1.584674166795e-03
5.735458500835e-03
4.260634587508e-03
2.681067374150e-03
3.703032091483e-03
2.313425682848e-03
1.747876205062e-03
2.269306335304e-03
4.472296584069e-03
5.084185534072e-03
2.122483088170e-03
4.416764738030e-03
0.0
1.927997949303e-03
4.734679441239e-03
2.334640526172e-03
2.293466231138e-03
3.672079540127e-03
1.427206149762e-03
1.708336649171e-03
1.861547325864e-03
2.108699433633e-03
3.250126257064e-03
3.062054677212e-03
4.401537229797e-03
5.307742241174e-03
1.980497234217e-03
4.592105580898e-03
5.228738582180e-03
1.508615138678e-03
1.258398003978e-03
2.320259230208e-03
3.145384584978e-03
4.507488684930e-03
3.013439603112e-03
1.036494360999e-03
3.559288459622e-03
1.877421539577e-03
3.009312651742e-03
3.329936939808e-03
3.782961951353e-03
4.184693822016e-03
2.263846250652e-03
1.320964814853e-03
3.656275706453e-03
1.881021925859e-03
0.0
5.409655559408e-03
5.162683398980e-03
2.729094268368e-04
3.875711687704e-03
1.849949503547e-03
1.815075747793e-03
4.705943890402e-03
3.753312262213e-03
4.510634549489e-03
2.148267383418e-03
3.276008673573e-03
5.353793394855e-03
1.533498694127e-03
4.496561684191e-03
3.235629882711e-03
1.109441694527e-03
4.399839461738e-03
2.050705679004e-03
7.682699673756e-04
1.606426913977e-03
4.404965734730e-03
4.489139406804e-03
1.520865044627e-03
3.643992042794e-03
4.612769071813e-03
4.502280914076e-03
2.204419621287e-03
1.846579794431e-03
3.359329712729e-03
4.124746711535e-03
7.891390788467e-04
5.560751100390e-03
5.548964266607e-03
3.671227968295e-03
5.630388145665e-03
5.535998868057e-03
2.170965590618e-03
2.370185578734e-03
5.368043001177e-03
0.0
1.709110066567e-03
3.659126116834e-03
2.387294836944e-03
1.879148258664e-03
1.458848135816e-03
1.621284849436e-03
3.747506275773e-03
1.892131702059e-03
1.979788942566e-03
4.392042265884e-03
5.804343183406e-03
5.787944820255e-03
2.351876001022e-03
3.390799711467e-03
0.0
1.230366790518e-03
1.463542949792e-03
1.380432272447e-03
3.535543274713e-03
2.106380670562e-03
2.153393122630e-03
5.222734221172e-04
5.154439084150e-03
2.367565598648e-03
5.388275058918e-03
4.954992804617e-03
6.024570796398e-03
5.886693922548e-03
3.753433328928e-03
2.527170991278e-03
1.725379432797e-03
2.498420104998e-03
5.703744763384e-03
9.120404607056e-04
1.119100263323e-03
4.692417281221e-03
3.538901703328e-03
5.427938698995e-03
4.594213998741e-03
4.821231617115e-03
4.878843592402e-03
3.720203756123e-03
2.190074141244e-03
2.006325653896e-03
4.404135688044e-03
4.687878422867e-03
3.117837671459e-03
3.529702774384e-03
3.752961490192e-03
3.830800216791e-03
4.743220089301e-04
1.891519218784e-03
5.771465514508e-03
4.089532321688e-03
5.391930956668e-03
5.395352371543e-03
4.403465603732e-03
5.428295798469e-03
2.711349306453e-03
2.579117857356e-03
5.122665484976e-03
0.0
1.840758435860e-03
5.616042079043e-03
8.237432765106e-04
3.385098086166e-03
5.098464473505e-03
5.994795909040e-04
3.983112400915e-04
5.989580935828e-03
3.133104392698e-03
5.665785838847e-03
4.960111850706e-03
3.124857482388e-03
0.0
5.632893496604e-03
9.982363891210e-04
5.455855807356e-03
5.714313673249e-03
5.360106047106e-03
8.140468256158e-04
3.782530279231e-03
2.880362090628e-03
4.355508239889e-03
5.671711904199e-03
4.776155304540e-03
5.663484683731e-03
0.0
5.589551347142e-03
1.512890600852e-03
7.914478455334e-04
5.397054391262e-03
5.743402050252e-03
5.733536642357e-03
3.426595864351e-03
3.717007925183e-03
1.646038233533e-03
5.655472529231e-03
2.339881504149e-03
8.036133470503e-04
4.521262599813e-03
3.249064134649e-03
5.466053350077e-03
5.951132079152e-03
5.885235530218e-03
4.854921181183e-04
3.182268852090e-04
3.189601210708e-03
3.264417416490e-03
5.744673122169e-03
5.821030348919e-03
4.049503436329e-04
0.0
5.287127657436e-03
5.147388720085e-03
1.173728759617e-03
5.308389383186e-03
3.861412420017e-03
3.447396140137e-03
4.313090326591e-03
1.487039342624e-03
4.054223007771e-03
9.352616087626e-04
3.085786119638e-03
5.355845819130e-03
5.346807489972e-03
3.320434685778e-03
3.970741636665e-03
5.313594699531e-03
4.970757498224e-03
4.685070856500e-03
3.121604600955e-03
3.851714109814e-03
5.392942080287e-03
1.774965986013e-03
4.406585063081e-04
5.044417363226e-03
4.474595389771e-03
1.114377206921e-03
4.510176921097e-03
5.486912845254e-03
4.947561165270e-03
5.266766084571e-03
4.198063581823e-03
0.0
1.470518372103e-03
1.753101937548e-03
3.631135606701e-03
3.881045925371e-03
5.513487264780e-03
5.223998920856e-03
1.020852490991e-03
8.247746946980e-04
1.369961284446e-03
4.515742145024e-03
2.251628283076e-03
5.512574297706e-03
1.101239483144e-03
4.944710226892e-03
3.686457503037e-03
5.316904859013e-03
4.584108386174e-03
3.633631005452e-03
5.441228742427e-03
5.760973095862e-03
5.768457653903e-03
1.076429508706e-03
5.403578302253e-03
5.433000637951e-03
5.028809833893e-03
4.690494387880e-03
5.655330995816e-03
4.686381379503e-03
0.0
1.396280660218e-03
5.170660034106e-03
3.932337476204e-03
5.342833454285e-03
4.884276764452e-03
5.447158665414e-03
4.847067005331e-03
5.305854444718e-03
5.181492536697e-03
5.139590615884e-03
2.342515450525e-03
5.825123485814e-03
3.511800923746e-03
5.448173838807e-03
7.428025292534e-04
5.262596336557e-03
4.547206860874e-03
6.035790654862e-04
8.086025518277e-04
4.796988799160e-03
5.631992981559e-03
5.519397513834e-03
5.310091205385e-03
3.912116890080e-03
3.336829723450e-04
7.216677684813e-05
3.636648382109e-04
1.164636641950e-03
0.0
3.057585890836e-03
5.327921971227e-03
5.411971840112e-03
3.914684461503e-03
2.701530490713e-03
5.213565150943e-03
5.007366373899e-03
5.467264405238e-03
5.207424473042e-03
5.074998992932e-03
6.015575377216e-04
0.0
5.376601054342e-03
4.998770260557e-04
7.354796995695e-04
4.650576109338e-04
6.246802752465e-04
5.332466837785e-03
5.508668632613e-03
5.527152150685e-03
5.370182133116e-03
4.813648012505e-03
4.090345476850e-03
5.872497858860e-03
1.688844706779e-03
3.242062731608e-03
1.296527781915e-03
2.048831776387e-04
5.850745223492e-03
3.550974671321e-03
8.641995463890e-04
2.926275799080e-03
5.656777809006e-03
5.503877635999e-03
5.618051296971e-03
2.129346423962e-03
0.0
5.566911874099e-03
6.011875443670e-03
5.902551827901e-03
3.412317331757e-03
4.981747800379e-03
7.975484814360e-04
5.534656444521e-03
1.991551371557e-04
5.305266967479e-03
5.730842396305e-03
0.0
4.981060490428e-03
4.675346069498e-03
5.654646432844e-03
5.577265656584e-03
4.298496663279e-03
5.550848395389e-03
5.494928221657e-03
4.409266495861e-03
5.352947711999e-03
2.479552746464e-03
3.115289873894e-03
5.217348424536e-03
5.739897385503e-03
2.130598970231e-04
3.124201721815e-03
5.632614020689e-03
1.101480850632e-03
5.091661295346e-03
5.450633370530e-03
5.763755232995e-03
1.048262864143e-03
9.819337037052e-04
3.563851573438e-03
5.043841388328e-03
0.0
5.651156742465e-03
4.142985444651e-03
1.530326117569e-03
3.945008028744e-03
5.471691496627e-03
3.728983518662e-03
5.747960353315e-04
2.244711810372e-03
3.243419354848e-03
3.838568504311e-03
5.141366330764e-03
3.163902532595e-03
3.328394715870e-03
5.059368158880e-04
5.311799105867e-03
5.084872395273e-03
7.504975414656e-04
5.677168446605e-03
5.592115835300e-03
3.482521557627e-03
4.251403145156e-03
3.187364706085e-03
3.251257493807e-03
3.439701907309e-03
4.794833467625e-03
1.169016289084e-03
5.320349723071e-03
3.618781519640e-03
5.751198579347e-03
4.781103524799e-03
4.050232424031e-03
5.211038119851e-03
5.105861927613e-03
5.449330151016e-03
7.104254593753e-05
5.217846714948e-03
5.418217703554e-03
5.880291415762e-04
2.994215514378e-03
2.729319316381e-05
5.459819003965e-03
1.058681690343e-03
9.613642980480e-04
1.124673614868e-03
9.642913636796e-04
1.127661580992e-03
9.648233326171e-04
1.128011847827e-03
9.654698872071e-04
1.128246407529e-03
9.661174501393e-04
1.128241949394e-03
9.666192092129e-04
1.127921452004e-03
9.669326403947e-04
1.127297441789e-03
9.671031816598e-04
1.126433431619e-03
9.671889276695e-04
1.125391184152e-03
1.237353525443e-03
9.672563440909e-04
1.124245166346e-03
9.673661569137e-04
1.105389387161e-03
1.123086879016e-03
9.676222955820e-04
1.122129503599e-03
9.683134754468e-04
1.121554665225e-03
1.145945620184e-03
9.695365254224e-04
1.121594875715e-03
9.716448673927e-04
1.122152112965e-03
9.743449953803e-04
1.124077529975e-03
9.789309549986e-04
1.126440635360e-03
9.841542575440e-04
1.132759419617e-03
9.937341327789e-04
1.290961962115e-03
1.005880637927e-03
1.137696293842e-03
1.025859589004e-03
1.158967738296e-03
1.053157411498e-03
1.166075290220e-03
1.230270836602e-03
1.115575982107e-03
1.156949487112e-03
1.018044811625e-03
1.073261720169e-03
9.841122625308e-04
1.197570165166e-03
1.355008650809e-03
1.443841627123e-03
1.277845312024e-03
1.436630652411e-03
1.273019814809e-03
1.436273584903e-03
1.273066868925e-03
1.436708570990e-03
1.273891527970e-03
1.437272560770e-03
1.274910118152e-03
1.437696030249e-03
1.275870775207e-03
1.437840220204e-03
1.276638694493e-03
1.437769401218e-03
1.277333767015e-03
1.437521807662e-03
1.492050320424e-03
1.278020419144e-03
1.437163248107e-03
1.278761654515e-03
1.383228364698e-03
1.436706649559e-03
1.348539767128e-03
1.279533274446e-03
1.436149555039e-03
1.280413992586e-03
1.436171304189e-03
1.282119732342e-03
1.436411458420e-03
1.284501989481e-03
1.438201695272e-03
1.478819618675e-03
1.288143499654e-03
1.438650527887e-03
1.291639997313e-03
1.444130028297e-03
1.443167385266e-03
1.297946882526e-03
1.459520057261e-03
1.303387863510e-03
1.450252832353e-03
1.504413949298e-03
1.314489036099e-03
1.321928407648e-03
1.288355325782e-03
1.366973093525e-03
1.498427822904e-03
1.340309289946e-03
1.427497875249e-03
1.381941815066e-03
1.683449326718e-03
1.587854795547e-03
1.752598431419e-03
1.591766725302e-03
1.755487976330e-03
1.592117775931e-03
1.755748046157e-03
1.592908272950e-03
1.756447334746e-03
1.594070061262e-03
1.757338428947e-03
1.595439880482e-03
1.758184168094e-03
1.596577541790e-03
1.758623494902e-03
1.597525668631e-03
1.758893612162e-03
1.775142239223e-03
1.598533292336e-03
1.759097363679e-03
1.623922942480e-03
1.599734639697e-03
1.759352779785e-03
1.600889530669e-03
1.759429545330e-03
1.601695349041e-03
1.661375170989e-03
1.759017839227e-03
1.602504728646e-03
1.759776800456e-03
1.605089372780e-03
1.760876941343e-03
1.607636798844e-03
1.764585957995e-03
1.612270932848e-03
1.763785538860e-03
1.613389646122e-03
1.731789320293e-03
1.619837371080e-03
1.773607484692e-03
1.614639726010e-03
1.763145728161e-03
1.795737480388e-03
1.548841017464e-03
1.759407810678e-03
1.617423548206e-03
1.696652227122e-03
1.608070457612e-03
1.637166809082e-03
1.978075538529e-03
2.068879625806e-03
1.902590828716e-03
2.062161995598e-03
1.898060516849e-03
2.062005351751e-03
1.898519902904e-03
2.062707203719e-03
1.899593226571e-03
2.063756227685e-03
1.901151117505e-03
2.065159394734e-03
1.903035017397e-03
2.065878819387e-03
1.904260045321e-03
2.066054267018e-03
2.081255348113e-03
1.904941591621e-03
2.066518291686e-03
1.946229207625e-03
1.906538266237e-03
2.067300682488e-03
1.912400718489e-03
1.908299225307e-03
2.067775509969e-03
1.909424505434e-03
2.067392831623e-03
1.909798919589e-03
2.065159627985e-03
2.019164063614e-03
1.909657238486e-03
2.069050084578e-03
1.913990891757e-03
2.066625557090e-03
2.079233419176e-03
1.915722788534e-03
2.058653760931e-03
1.921030618245e-03
2.092125439694e-03
1.905326932506e-03
1.827911328399e-03
1.974792546786e-03
2.109959634287e-03
1.963899074007e-03
2.050594123143e-03
1.898921720586e-03
2.308296873625e-03
2.212383277902e-03
2.377889872021e-03
2.214994051217e-03
2.379726867620e-03
2.216547427580e-03
2.381089610341e-03
2.216872246426e-03
2.381752235969e-03
2.218454871060e-03
2.383250492322e-03
2.220224400099e-03
2.385222509952e-03
2.222734674364e-03
2.386383023483e-03
2.391862537500e-03
2.221806440899e-03
2.220677278307e-03
2.385011920154e-03
2.223422370937e-03
2.386582139412e-03
2.226346237541e-03
2.388440069183e-03
2.227280475162e-03
2.250484607725e-03
2.388398609737e-03
2.227668810492e-03
2.387714431866e-03
2.226868736979e-03
2.381778775207e-03
2.225381309291e-03
2.391304783019e-03
2.233950156438e-03
2.220516966315e-03
2.381499207426e-03
2.320752866227e-03
2.406602035383e-03
2.125680874572e-03
2.371949036351e-03
2.230910756870e-03
2.319921770893e-03
2.232416445766e-03
2.197022376616e-03
2.606499819159e-03
2.690961257714e-03
2.522000530317e-03
2.681395089224e-03
2.516611695707e-03
2.684936923134e-03
2.520724084807e-03
2.682910389250e-03
2.518155025397e-03
2.685720127669e-03
2.522107693972e-03
2.686100147812e-03
2.522572435250e-03
2.701698277203e-03
2.691814660839e-03
2.527183984821e-03
2.558519512118e-03
2.685492272813e-03
2.523715955889e-03
2.521830125806e-03
2.687781338981e-03
2.527976907291e-03
2.692519047907e-03
2.530769531241e-03
2.691005186238e-03
2.620190236794e-03
2.529256469091e-03
2.690152839742e-03
2.692355677766e-03
2.530525369073e-03
2.668560171641e-03
2.530830175599e-03
2.711856376190e-03
2.517118108963e-03
2.429701944538e-03
2.579121291386e-03
2.733210654048e-03
2.586513323000e-03
2.669335382215e-03
2.501112406734e-03
2.952964194819e-03
2.821859864007e-03
2.991596827692e-03
2.833511162691e-03
2.996758346163e-03
2.839990296122e-03
3.006645179008e-03
2.831291115803e-03
2.995872769527e-03
2.837184649027e-03
3.005449104704e-03
2.838583631022e-03
3.016774272030e-03
3.001904421592e-03
2.851312415787e-03
2.832771918756e-03
3.009442756207e-03
2.842210225621e-03
3.000234049433e-03
2.844919680408e-03
3.009082672670e-03
2.844437144164e-03
2.872310885887e-03
3.011912840164e-03
2.842005763748e-03
3.004113999591e-03
2.837696132236e-03
2.839675268707e-03
3.003734450339e-03
3.017107183080e-03
2.932857225621e-03
2.738763543566e-03
2.957508157439e-03
2.875589959643e-03
2.947488772035e-03
2.848489924599e-03
2.817296966531e-03

SCALARS element_materi_plasti_phimob float
LOOKUP_TABLE default
5.440007799002e+00
5.671791665004e+00
1.980951384068e+01
1.956668384478e+01
1.563161895965e+01
2.952620933945e+01
1.568126286096e+01
6.973454612710e+00
1.568149306784e+01
1.954031313633e+01
1.907633176641e+01
7.154532902406e-01
2.041846570235e+01
1.627814669928e+01
2.048081059792e+01
1.972695280556e+01
1.536273776592e+01
2.740004697550e+01
9.105232152781e+00
8.862854428469e+00
1.952342453543e+01
6.562071057925e+00
9.266085775022e+00
2.145623234002e+01
1.692166581218e+01
1.932765926796e+01
1.428449760065e+01
2.059356921075e+01
1.689138426255e+01
2.137512634841e+01
2.140553861632e+01
-1.859298668455e+01
1.976299905643e+01
1.996405221616e+01
2.082264180839e+01
2.067140849681e+01
2.064417916966e+01
2.121589287471e+01
1.467283352447e+01
1.475049181017e+01
1.115411707513e+01
2.079751940791e+01
4.422272505228e+00
1.426958199449e+01
1.936687374637e+01
1.208728945030e+01
2.535721539427e+01
1.942472269597e+01
1.608018099209e+01
1.585262110865e+01
1.029732428506e+01
1.142618966835e+01
2.558788371323e+01
9.544296344767e+00
1.973348045697e+01
1.418646185470e+01
1.153429734411e+01
2.000104275048e+01
4.601407936104e+00
1.971373468819e+01
1.318137580206e+01
2.092468239085e+01
1.362692038282e+01
2.513497271226e+01
2.045636031696e+01
8.051047610203e+00
1.732543303751e+01
1.976600298576e+01
7.172607649168e+00
2.005323982984e+01
1.954879706074e+01
2.002551007229e+01
2.035412114692e+01
-1.082203013884e+01
1.456184907085e+01
1.956909491476e+01
1.968741424572e+01
1.776749667971e+01
3.399625811640e+00
1.408081560922e+01
8.149201683895e+00
1.532615428112e+01
8.343441949918e+00
4.340529491715e+00
1.612897164871e+01
1.616342596639e+01
1.963459616209e+01
1.987671958224e+01
1.870503781365e+01
1.554508065525e+01
-2.111043835694e+01
1.527905310153e+01
1.843440910204e+01
1.830968356576e+01
1.991355650871e+01
2.095982782843e+01
1.524881662495e+01
2.109636649101e+01
1.700010969104e+01
1.245866703509e+01
1.512412634615e+01
2.051219855266e+01
2.137345003805e+01
2.092209887942e+01
1.868013846297e+01
1.740448241969e+01
2.025601107527e+01
1.875353571637e+01
2.028129678901e+01
2.047843069644e+01
1.851083195152e+01
-2.355462219069e+01
1.983387109168e+01
1.415832533207e+01
1.626589220075e+01
1.130545220500e+01
1.460171213332e+01
2.075534547443e+01
1.674247549211e+01
1.425098092074e+01
4.074975003683e+00
1.525184498399e+01
1.880037191485e+01
1.633157355648e+01
2.207815616025e+01
1.283255634967e+01
1.618566920323e+01
1.182276124881e+01
1.974844361689e+01
2.654380536642e+01
1.937005348370e+01
1.958286160733e+01
1.428365594219e+01
1.206828136474e+01
2.093617061137e+01
2.041672493757e+01
1.970355936471e+01
1.484900233899e+01
2.128126054297e+01
1.319588215506e+01
1.966337346171e+01
2.000483208177e+01
1.621033642543e+01
1.774838792045e+01
1.342097533521e+01
1.085061858477e+01
1.553159008088e+01
1.918858299583e+01
1.534073993415e+01
2.114498369364e+01
-2.204058393704e+01
1.613866253874e+01
4.869311156390e+00
1.355279790905e+01
2.088308120051e+01
1.635984293211e+01
1.977245952346e+01
7.150490470993e+00
2.120935523021e+01
1.550665092957e+01
2.133426182870e+01
2.009344537460e+01
4.492887844307e+00
2.026829015837e+01
1.529139802448e+01
2.059852759293e+01
1.546504689247e+01
1.913554924105e+01
1.343498292490e+01
1.914562737562e+01
2.837893426201e+00
2.268507555262e+01
1.804707388563e+01
1.543377477127e+01
1.950248270866e+01
1.268106346612e+01
1.935022448527e+01
1.700440631991e+01
2.055617686472e+01
2.005051222946e+01
9.995803386275e+00
1.698670512250e+01
2.181512621869e+01
1.227088602366e+01
7.642407315176e+00
1.474462850348e+01
1.953637663935e+01
1.967873614424e+01
1.843205358698e+01
2.017639353284e+01
1.527384063257e+01
2.431978781820e+01
1.870967991957e+01
1.023299373120e+01
1.210785257226e+01
2.202303705795e+01
-2.211828100755e+00
1.964778656597e+01
1.757438404621e+01
2.011765510596e+01
2.222229555424e+01
1.599074219975e+01
1.660605282873e+01
2.121064006688e+01
1.570234965656e+01
1.635119632988e+01
1.583534889074e+01
1.784685101516e+01
1.574773325578e+01
1.471778833497e+01
2.198899575151e+01
1.908859766247e+01
1.357231392585e+01
9.167452410674e+00
1.171105405435e+01
1.574006714338e+01
1.863879218995e+01
3.077462451695e+01
2.204922662722e+01
1.532190890011e+01
2.298068265208e+01
2.199474352527e+01
-1.526980325364e+01
1.814436756641e+01
-2.113210233076e+01
-3.324312015625e+00
1.006915367292e+01
1.334485501739e+01
1.837518028795e+01
1.246011051305e+01
2.095389272820e+01
1.871780896485e+01
6.271438559745e+00
2.207349234259e+01
1.529680113497e+01
2.049289162301e+01
1.122152257633e+01
2.153126248210e+01
2.261407028792e+01
1.117897266116e+01
2.230052035865e+01
2.063229624186e+01
1.813216663687e+01
2.698366475659e+01
2.193296946640e+01
1.949244006375e+01
1.594470849543e+01
1.785654963001e+01
2.067516068324e+01
2.369033460692e+01
2.132075404155e+01
1.657922297780e+01
1.992730950121e+01
1.656371163531e+01
2.322806606799e+01
1.628437933479e+01
8.237808271706e+00
1.574453293977e+01
2.545701020111e+01
3.009638513552e+01
2.698662904841e+01
1.841406707174e+01
1.623658323100e+01
1.717142127465e+01
1.862860811344e+01
1.841469386146e+01
1.618359802195e+01
2.055692332245e+01
2.312385674819e+01
1.644139419407e+01
1.980805344922e+01
2.282986971906e+01
2.919348814368e+01
1.524846126347e+01
2.430098048417e+01
2.642587097884e+01
1.815265687292e+01
5.300344003753e+00
1.615506705630e+01
2.640879808127e+01
2.407813060425e+01
2.950094865960e+01
1.698761090103e+01
-4.873690990592e+00
1.208668786945e+01
2.277098913166e+01
1.621338476045e+01
1.606408461733e+01
3.100826469948e+01
2.790108078303e+01
2.535109079232e+01
1.033334409817e+01
1.783640549537e+01
1.268143396871e+01
2.469837042940e+01
2.403944615592e+01
2.905906745191e+01
2.008899670676e+01
2.112241995425e+01
1.996320573821e+01
2.002471131354e+01
1.710155721035e+01
2.741603682221e+01
2.634671846259e+01
1.690988973123e+01
2.796186071486e+01
2.755013456505e+01
1.578619865250e+01
1.964299983320e+01
2.470164202120e+01
2.169662480114e+01
2.307673308647e+01
2.106808203971e+01
2.620649896041e+01
1.649963216622e+01
3.117122517073e+01
2.309769392719e+01
2.348954835749e+01
2.580075680285e+01
1.588138011019e+01
2.016047303531e+01
2.547667969774e+01
2.300816676821e+01
2.451090776855e+01
1.740901966722e+01
2.229680300345e+01
1.818366374217e+01
1.710271727076e+01
2.042976327238e+01
2.201114072753e+01
2.010209436491e+01
1.698866998722e+01
1.851423414696e+01
1.739112477988e+01
1.485803662245e+01
1.637692451132e+01
1.671773556205e+01
1.653959825977e+01
2.064324526590e+01
1.661031324348e+01
1.526051670721e+01
2.503259820305e+01
1.042043576538e+01
1.417110033733e+01
1.871480996189e+01
1.547624052965e+01
2.362828981425e+01
2.593196153897e+01
1.840616985932e+01
2.133446775016e+01
1.544619638406e+01
2.292872577533e+01
2.221387854914e+01
2.088976157323e+01
1.299420857267e+01
2.893680265545e+01
1.964750800263e+01
1.048758453814e+01
1.494900463026e+01
1.889566039630e+01
1.680750906152e+01
1.153521868984e+01
1.428893375282e+01
2.112154281700e+01
2.132918256228e+01
1.890906748349e+01
1.811202026297e+01
2.204182384344e+01
1.425028580836e+01
2.867130233814e+01
2.741177868595e+01
1.666375254339e+01
2.316025158562e+01
1.868890817471e+01
1.888872383405e+01
2.799302837171e+01
1.699520877471e+01
1.607010435883e+01
1.597184709730e+01
2.003959207347e+01
2.000262460181e+01
1.962802919172e+01
2.202314455223e+01
1.866782986322e+01
1.810712433202e+01
2.627258322038e+01
2.953983636585e+01
1.299559236535e+01
1.523254541241e+01
1.703692624319e+01
2.139913182470e+01
1.897759147537e+01
1.657350120870e+01
1.714700195276e+01
3.023485986870e+01
-2.542469650410e-01
2.126664481805e+01
1.778600400305e+01
2.112760360359e+01
2.195323453685e+01
1.627520466579e+01
9.281683696587e+00
2.388261534394e+01
2.063089818717e+01
2.222466837562e+01
1.528629522132e+01
5.352547846315e+00
1.626656657294e+01
2.235875659120e+01
1.699834190189e+01
2.024804001205e+01
1.480595222239e+01
1.698791013801e+01
1.914850231913e+01
1.865116082118e+01
2.214176284276e+01
2.028095910388e+01
2.032047584312e+01
2.014208737937e+01
2.020800311764e+01
1.739202400034e+01
1.861590403813e+01
1.916826552425e+01
1.517305978744e+01
1.375390482388e+01
1.794383995072e+01
1.885644235099e+01
2.054063279293e+01
1.888190318819e+01
2.250391499604e+01
1.884786044708e+01
1.961101267232e+01
1.766603015063e+01
1.262925905956e+01
2.629908447529e+01
1.970907342477e+01
1.573856268844e+01
2.010969540544e+01
1.831697416300e+01
2.167046786208e+01
2.096880175815e+01
2.148162389563e+01
2.037612258250e+01
1.976529451404e+01
1.727399953145e+01
-1.898248135624e+01
2.047510911954e+01
2.098680062365e+01
2.413303789448e+01
2.265196524093e+01
2.099649256617e+01
-5.616650944111e+01
1.682476350645e+01
1.742108257642e+01
1.716369930070e+01
1.669193562050e+01
2.409650597936e+01
2.056853120815e+01
2.532662267943e+01
2.874054657033e+01
2.078320002664e+01
-1.918409671991e+01
1.374817176118e+01
2.196090546876e+01
1.412887599251e+01
2.110454995128e+01
2.063796255536e+01
1.668591050844e+01
1.635764234873e+01
2.876285745703e+01
1.684287976468e+01
2.102977530618e+01
1.524863348531e+01
1.570991034353e+01
2.067604329087e+01
1.530255634680e+01
1.997197380576e+01
1.991956382372e+01
1.673368725338e+01
1.240253796815e+01
2.247199541731e+01
2.852929223958e+01
2.067993642811e+01
2.026009812041e+01
2.017872526075e+01
2.163089170418e+01
1.718386856176e+01
1.866810959999e+01
2.174457386977e+01
2.066407364416e+01
2.586007318616e+01
2.660868184224e+01
2.526903063225e+01
1.713923163089e+01
2.103243820113e+01
1.027903816697e+01
2.063952176076e+01
2.414743557445e+01
2.043276317467e+01
1.914796909943e+01
8.999999999681e+01
1.861086309115e+01
1.887212662214e+01
2.052833265007e+01
1.741576698811e+01
2.044840096107e+01
2.575045228270e+01
2.130171075312e+01
2.275111729367e+01
2.363775134267e+01
1.226240088742e+01
2.060589722943e+01
2.895457250653e+01
2.180948551720e+01
1.631847783515e+01
1.727278833800e+01
2.496160640166e+01
1.719410309475e+01
2.068378001844e+01
1.760169551269e+01
2.185000137558e+01
1.776663606498e+01
2.289808346380e+01
2.571212377382e+01
2.195572395571e+01
1.731309859309e+01
1.888168738017e+01
2.220530393235e+01
1.832629360909e+01
1.935168433468e+01
2.356822220690e+01
1.745984304823e+01
2.021034596465e+01
2.331445824800e+01
2.109413806645e+01
1.906287108625e+01
1.602637373408e+01
2.065081459132e+01
2.140556912494e+01
2.124002208697e+01
9.586992147281e-01
2.098935805215e+01
1.906107052418e+01
2.233936423342e+01
2.061954523270e+01
2.161540508723e+01
1.396010757878e+01
1.615593824441e+01
2.342826459997e+01
2.158675386623e+01
2.290353121126e+01
1.754120482439e+01
1.465716085830e+01
2.182387571064e+01
1.690683185619e+01
1.877212870171e+01
2.259661721690e+01
2.110242416172e+01
2.018594601918e+01
-5.727387234845e+01
2.129988972018e+01
2.221766167915e+01
1.902642865999e+01
2.028768955431e+01
2.202786526504e+01
1.680430350559e+01
2.030280031327e+01
2.061076707387e+01
1.751258596270e+01
1.895110635545e+01
1.740072039472e+01
1.866321051855e+01
-4.987259580052e+01
1.653764401374e+01
1.654544650132e+01
-5.658709180042e+01
1.833676153084e+01
2.187668511725e+01
1.893842173272e+01
2.324982983445e+01
2.321305567113e+01
1.475354563242e+01
1.426576579551e+01
1.971412327978e+01
1.732950998092e+01
8.999999999681e+01
6.186277131020e+00
-1.117701553526e+01
1.495950807276e+01
1.936257720347e+01
1.892153388259e+01
2.107883778387e+01
1.548058263831e+01
1.991938059297e+01
2.172094796266e+01
2.977858289524e+01
1.653380625396e+01
1.493193649893e+01
2.096130561631e+01
2.060187044949e+01
1.728229483677e+01
1.864506763546e+01
2.175688615504e+01
2.167151167388e+01
7.918969367214e+00
2.174431558212e+01
-1.623739340506e+00
1.804404372415e+01
1.928015064258e+01
-1.735910784410e+01
1.689401144961e+01
1.910828778054e+01
8.999999999681e+01
1.422087283341e+01
1.426054221822e+01
2.279667440984e+01
1.493239586702e+01
2.096063283986e+01
2.346532242524e+01
2.083273744327e+01
2.032463239762e+01
1.860024794410e+01
1.521489084987e+01
-1.102973743417e+00
1.439169553823e+01
1.438801297607e+01
1.443764579897e+01
-5.589081883507e+01
-1.791940797590e+01
-2.471110014482e+00
1.229061379538e+01
-1.741070358944e+01
1.770223593523e+01
3.010535480840e+00
1.437814562314e+01
1.748370592830e+01
1.430660525129e+01
1.943644535129e+01
2.167804432409e+01
1.690805438777e+01
1.550495453491e+01
-1.080359730598e+00
1.998569763292e+01
1.990641309115e+01
1.635221118588e+01
1.434710054029e+01
1.561937231101e+01
1.990032346894e+01
1.362330319560e+01
1.426612316948e+01
1.426115883057e+01
1.350356142900e+01
2.011693117075e+01
1.987968954632e+01
-1.784536958954e+01
-5.573783307755e+01
2.487319616147e+00
1.970327494240e+01
2.034213914516e+01
9.381043055950e+00
1.861306500702e+01
-6.367721525516e+00
2.285928915759e+01
-3.582658041146e+01
1.335037487592e+01
2.288844196536e+01
2.037793113790e+01
1.742750901189e+01
1.517769891339e+01
-1.700625892173e+01
1.984820673491e+01
1.994492796530e+01
1.989928442981e+01
1.434253164245e+01
2.273369950329e+01
1.997769397484e+01
2.067669751949e+01
-1.506253051821e+00
-1.761542866637e+01
-1.752717597034e+01
1.648348100539e+01
2.060968080531e+01
1.957549205041e+01
8.999999999681e+01
1.761802979320e+01
2.056344009397e+01
2.064352993985e+01
2.090987980394e+01
1.814921653104e+01
1.882896356565e+01
2.055058780241e+01
2.055987813736e+01
1.861084936139e+01
8.999999999681e+01
1.443230295130e+01
1.440473845144e+01
8.999999999681e+01
2.057554628776e+01
2.089553145512e+01
2.057317624573e+01
8.999999999681e+01
8.999999999681e+01
2.059112291676e+01
2.058385902321e+01
1.789636795910e+01
1.447677889875e+01
1.838202825005e+01
1.659408572849e+01
1.448354653605e+01
8.999999999681e+01
-6.106261373667e+01
-6.175405582334e+01
8.999999999681e+01
1.796760077375e+01
1.727351361684e+01
-5.616537914965e+01
1.930227575811e+01
-5.624397521155e+01
2.005143395085e+01
1.996334236894e+01
1.999552432860e+01
7.158652526800e+00
1.422149100872e+01
1.995159225181e+01
2.007884611801e+01
1.997122258515e+01
2.026773885911e+01
2.041980342200e+01
1.689898870747e+01
1.989307755006e+01
1.990812429916e+01
2.016573503598e+01
2.034094205210e+01
1.979096879232e+01
-3.160029978885e+01
1.744898606049e+01
-1.869961747808e+01
2.072501299356e+01
1.831600574440e+01
2.030119413347e+01
1.135570013791e+01
-4.971165100148e+00
2.034168727466e+01
1.807491307411e+01
1.606133486068e+01
2.020440857025e+01
1.919119156640e+01
1.603334273129e+01
2.171385120168e+01
2.076395173871e+01
1.991617817057e+01
1.991420768832e+01
2.584263658063e+01
1.391741577197e+01
2.003999860216e+01
2.005759032583e+01
2.020217408370e+01
1.994322862523e+01
1.301742618101e+01
1.915071615914e+01
1.875724870084e+01
1.591150319087e+01
2.037547644838e+01
1.997001204371e+01
1.919953024008e+01
1.898219361600e+01
2.062659781364e+01
2.032707743431e+01
1.863028943500e+01
1.987982227382e+01
2.063679108484e+01
1.915414674760e+01
1.798026392009e+01
2.155279210087e+01
1.147315982610e+01
1.279650773711e+01
-1.680388205421e+00
-3.877231444275e+00
1.897096060500e+01
2.024893266086e+01
-1.400303069614e+01
1.907109201767e+01
1.626816629319e+01
2.023899709547e+01
2.010638580312e+01
1.997452927916e+01
2.004439689179e+01
1.587750130364e+01
2.234203154337e+01
2.060047626085e+01
1.112320191002e+01
2.084466892722e+01
1.827643569841e+01
1.243360697710e+01
1.494400128325e+01
1.859559931549e+01
1.734049329231e+01
1.633994910861e+01
1.854678403702e+01
1.772888304960e+01
1.892262928692e+01
1.983976815260e+01
2.002552536025e+01
1.829783691952e+01
9.096921074555e+00
1.839798562925e+01
2.135124319789e+01
1.848054769513e+01
1.770488213443e+01
2.042225154136e+01
2.095511252031e+01
1.799314373955e+01
2.604802141214e+01
-1.904136450266e+00
2.973129717040e+01
2.027155021678e+01
1.768643623752e+01
1.892111619622e+01
1.664391377893e+01
2.157665124815e+01
1.893572490401e+01
2.011237572904e+01
1.158006515057e+01
2.072970617279e+01
1.869537304767e+01
1.255872696342e+01
1.823252513843e+01
1.658819383839e+01
1.423068063678e+01
1.903859835794e+01
-5.494725398143e+01
-5.484446253791e+01
1.981099104776e+01
1.048997592529e+01
2.014970294238e+01
2.026506399943e+01
1.837607347324e+01
1.982659382435e+01
1.885619298813e+01
2.927409884407e+01
1.687483336349e+01
2.152987466389e+01
8.334850739015e+00
1.703527517085e+01
1.625966137485e+01
7.933626676917e+00
2.112711896444e+01
1.811641666400e+01
1.034555815643e+01
1.902499629501e+01
1.905752299860e+01
1.186824551493e+01
1.298026172888e+01
1.229806746973e+01
2.001988389712e+01
1.898207372357e+01
1.909986182897e+01
1.888274168127e+01
2.007052858507e+01
2.024805854986e+01
9.455867979803e+00
2.015850724707e+01
1.814768858957e+01
1.884862374442e+01
1.766213689320e+01
1.840502309511e+01
2.354002582003e+01
1.869757069418e+01
1.793429085876e+01
1.877086429579e+01
1.578054505845e+01
1.801550680698e+01
1.792459183538e+01
2.102547718765e+01
1.312368356777e+01
2.364385478375e+00
1.789488224729e+01
1.310570888732e+01
2.087089040524e+01
1.822230056184e+01
2.037949654168e+01
2.099042062576e+01
1.755660873615e+01
1.180677862554e+01
5.015968261935e+00
2.042750087601e+01
1.742876743864e+01
-2.355191597675e+00
1.610072017739e+01
1.031156488531e+01
1.730823534724e+01
1.635419493619e+01
2.054627640329e+01
1.575195789195e+01
1.874231999139e+01
1.488390024483e+01
2.084595591958e+01
1.197040785765e+01
2.057689243192e+01
1.838428458110e+01
2.049854948012e+01
2.678297222673e+01
1.002493772285e+01
1.671816895268e+01
2.260718880064e+01
1.626620487426e+01
1.740254003052e+01
1.510714942835e+01
1.750553022055e+01
9.052071240783e+00
2.086754298616e+01
2.257842422521e+01
2.197667175269e+01
1.926878566972e+01
2.120181216110e+01
8.959143114349e+00
2.100436221763e+01
2.106229782731e+01
1.934736761995e+01
2.031613950001e+01
1.819967522076e+01
2.153445379301e+01
2.076754024861e+01
1.649114149424e+01
1.356144575910e+01
1.580168610631e+01
1.840237281618e+01
2.065724499652e+01
1.434957994117e+01
1.912541667856e+01
1.783929471282e+01
1.705779551375e+01
1.684813264856e+01
1.850149741397e+01
2.132482531465e+01
2.129130743593e+01
1.662568968916e+01
1.932349093283e+01
2.160428406165e+01
2.085767579862e+01
1.843290033456e+01
1.791361397520e+01
1.686237803253e+01
9.512089728178e+00
2.131588211334e+01
1.700997329239e+01
1.756105286570e+01
1.719911264836e+01
2.395616339551e+01
1.585966345800e+01
2.684179831193e+01
1.609167031095e+01
1.731652813680e+01
1.073416537684e+01
2.155144814567e+01
2.067482063043e+01
1.867328692324e+01
2.153973393233e+01
2.139815653778e+01
2.125239871304e+01
2.112093853891e+01
1.079894278654e+01
2.127488481786e+01
2.119604819450e+01
1.876509133942e+01
1.851898264219e+01
2.136525565538e+01
1.759449580989e+01
1.790128359612e+01
1.807786415412e+01
1.479051868431e+01
1.791820324381e+01
1.893509799073e+01
1.382073691154e+01
1.278145258453e+01
2.067667895622e+01
2.110350811997e+01
1.952840729216e+01
-5.840192664066e+01
2.355945929437e+01
2.216311064582e+01
1.966129584614e+01
1.723438783868e+01
2.103367710659e+01
1.534553677190e+01
1.988770917860e+01
1.850548857225e+01
1.531921794977e+01
1.303621595144e+00
7.231825365183e+00
1.868815732198e+01
1.736132302242e+01
2.285300705419e+01
2.073842033099e+01
1.150790801802e+01
7.363290056563e+00
1.668259028662e+01
1.384192056402e+01
2.169670081362e+01
1.949711739277e+01
1.691058801910e+01
1.876410756819e+01
1.958719194021e+01
2.393880073942e+01
1.915224885789e+01
1.562063650154e+01
1.959957242823e+01
2.231789162254e+01
2.622676678086e+01
1.177535933559e+01
1.736475668201e+01
2.123465916761e+01
2.199640742458e+01
1.445043103420e+01
2.169910759340e+01
2.264016880145e+01
2.393127382755e+01
1.675571096191e+01
2.260333202689e+01
1.780575621711e+01
2.454833064678e+01
2.149504816038e+01
1.906632642356e+01
2.146260585628e+01
2.222608255548e+01
1.969127815975e+01
1.765473449072e+01
1.666669644308e+01
1.727964633053e+01
1.891057578549e+01
2.273359450896e+01
2.123224095413e+01
1.764348864612e+01
1.710020794838e+01
1.243940861548e+01
1.956286081923e+01
8.771028462165e+00
2.151239714347e+01
1.911450155421e+01
2.245980214427e+01
1.694536326792e+01
1.853278302436e+01
2.318794404370e+01
2.345839701003e+01
1.917362790461e+01
2.111384513284e+01
1.803425343892e+01
2.258748128260e+01
1.772143969544e+01
1.825017658495e+01
2.033415556275e+01
2.126317256569e+01
2.024485770765e+01
1.691082396298e+01
1.652952300822e+01
2.146284436881e+01
2.137488461558e+01
2.157151769182e+01
5.064506851984e+00
2.798884039461e+01
2.449471715067e+01
2.385469713371e+01
1.910219153448e+01
1.935138139267e+01
1.911355230534e+01
1.908882389626e+01
1.454873528456e+01
1.844745105362e+01
2.105970397890e+01
1.923328801273e+01
1.794791173714e+01
2.035805747889e+01
2.484463428136e+01
1.829162326545e+01
1.897419519455e+01
1.836181665982e+01
1.807210199635e+01
2.120551623221e+01
2.148543471627e+01
2.143274789897e+01
2.103500394334e+01
1.279725106593e+01
2.227565704597e+01
1.788398442176e+01
1.272599985927e+01
2.405901998358e+01
2.360563364047e+01
2.303984788619e+01
2.895818049198e+01
2.457354374384e+01
2.267629478564e+01
1.505038965560e+01
2.063686376078e+01
1.736038374980e+01
1.517489400331e+01
1.884956074380e+01
2.088377242573e+01
2.239265946221e+01
1.929356991701e+01
2.381995474516e+01
2.088837681046e+01
1.746880008740e+01
9.003082112919e+00
2.253762953567e+01
2.335691332072e+01
1.552798230107e+01
2.129001922508e+01
2.347617745786e+01
2.145287128125e+01
2.150388722843e+01
2.261421074194e+01
1.832966547788e+01
2.034624135715e+01
2.135346719540e+01
-1.224171583802e+01
1.771234204652e+01
2.114413701789e+01
1.856849928128e+01
2.296199076721e+01
2.435817421486e+01
1.943398187012e+01
3.108206353755e+01
1.882224256741e+01
1.351890593188e+01
-4.819157448775e+00
1.987341248281e+01
1.928497505647e+01
2.060493905173e+01
1.793485253024e+01
1.799139207310e+01
1.986362250623e+01
2.730768570986e+01
2.140515471931e+01
1.271484399276e+01
2.343798975996e+01
1.935142646910e+01
2.335725286571e+01
1.993041713726e+01
2.163881399673e+00
2.099985143151e+01
2.501000805947e+01
1.762883550641e+01
3.079280032213e+01
2.134659593058e+01
1.652992673838e+01
1.502974068864e+01
2.229910746887e+01
2.257753014486e+01
2.141970723919e+01
1.731488178160e+01
1.813489346843e+01
2.146568208664e+01
1.775603388047e+01
1.927885246313e+01
1.845932068583e+01
1.866760119441e+01
2.814323642537e+01
2.088165517277e+01
1.822209742534e+01
2.273133490035e+01
6.739770796749e+00
2.123029275711e+01
2.943491814115e+01
1.446090359864e+01
2.163809685296e+01
9.241037033015e+00
2.023260342307e+01
2.229533022425e+01
1.909673293045e+01
1.929440084436e+01
2.235088052777e+01
1.872806535729e+01
2.405433222850e+01
1.924599196138e+01
9.822829336426e+00
1.939136777663e+01
1.200650071772e+01
1.281015371251e+01
2.377672812338e+01
1.363604167026e+01
2.110901244462e+01
2.212438721699e+01
2.402980634407e+01
2.799406558816e+01
2.437193110824e+01
1.900806283740e+01
1.935877970390e+01
2.089318273671e+01
2.145023518862e+01
2.331102546157e+01
1.870533097113e+01
2.423124366168e+01
2.071812760323e+01
1.850077876231e+01
1.840777845351e+01
2.288821133089e+01
2.433095614068e+01
1.955589541905e+01
1.759573715221e+01
2.570942057296e+01
2.910119428732e+01
1.797394132462e+01
1.776713817437e+01
2.060582629245e+01
1.818215655960e+01
2.455518288234e+01
1.845311701140e+01
2.221298357924e+01
1.879206502564e+01
1.961023195969e+01
1.733557483588e+01
2.196521984051e+01
2.381427030697e+01
2.214071001686e+01
1.948966932111e+01
1.914940396210e+01
1.968480997257e+01
2.327427194657e+01
2.982740544928e+01
2.058705449022e+01
2.039223161979e+01
2.455985409889e+01
2.295887720589e+01
2.179628106480e+01
2.876994296603e+01
2.371479984406e+01
1.764024531856e+01
2.051051663834e+01
1.798800338799e+01
2.017113622341e+01
1.728683705882e+01
1.657192545443e+01
1.802488402824e+01
2.172570312506e+01
2.087360551083e+01
1.792880901282e+01
1.931985466981e+01
1.692758727456e+01
2.617799598136e+01
2.047198415048e+01
1.920116568155e+01
2.123271719973e+01
2.045703377647e+01
2.528214596738e+01
1.817354462123e+01
1.519979266199e+01
2.122505119699e+01
1.555586832253e+01
2.196571276685e+01
2.052816668360e+01
2.500350554427e+01
2.927157617362e+01
1.930720806505e+01
1.531736660673e+01
2.355411211757e+01
2.066195659431e+01
1.788808202817e+01
2.106432396901e+01
2.320656844615e+01
3.007165487388e+01
2.051953979426e+01
1.837040637379e+01
2.178326156729e+01
1.985932741877e+01
2.121490657448e+01
2.130707053182e+01
2.508248712765e+01
1.728561717703e+01
2.019159849785e+01
2.503760868282e+01
2.059540978166e+01
2.059683614523e+01
2.585295901824e+01
1.844259118957e+01
2.798230539795e+01
1.930588996137e+01
2.205703745620e+01
1.975501277369e+01
1.963811285539e+01
2.792407869485e+01
2.067137253306e+01
1.938382604391e+01
2.101715485442e+01
2.174054617402e+01
2.370655102825e+01
1.891336275046e+01
2.042664853008e+01
1.853438187419e+01
1.966540593483e+01
1.767197018498e+01
2.071493131181e+01
2.122552879421e+01
1.450697567542e+01
1.451066783489e+01
1.788585626583e+01
1.930248091862e+01
2.003198229368e+01
1.821116810263e+01
2.122723231904e+01
2.171263737403e+01
2.306798963764e+01
1.993994812984e+01
1.573160814967e+01
2.111316603791e+01
2.059619848641e+01
2.862768308926e+01
2.007253541581e+01
1.888013928979e+01
1.781622969183e+01
1.761574781323e+01
1.853422354712e+01
1.868402525613e+01
5.193761014285e+00
1.992884360057e+01
1.559547376307e+01
1.778575877447e+01
1.800875756625e+01
2.171993643022e+01
1.052931973684e+01
2.778970976534e+01
1.885076322771e+01
1.940340118277e+01
1.287149303570e+01
1.361385033284e+01
1.757426014990e+01
2.745996882019e+01
2.009486862874e+01
2.226366384642e+01
2.957792234661e+01
2.045370548586e+01
1.891066422623e+01
1.919415060682e+01
2.071068821213e+01
-2.976302641823e+00
2.232137125557e+01
1.889148852031e+01
-2.825451958435e+00
1.894723949049e+01
2.919363522950e+01
1.782113367657e+01
1.794679602852e+01
2.351392261297e+01
2.240955200497e+01
1.913481657720e+01
2.220994334619e+01
1.980195682977e+01
1.948795401173e+01
2.402327775384e+01
3.013461517610e+01
2.010294889626e+01
1.690210648356e+01
2.040222120991e+01
2.341635143551e+01
1.866513386446e+01
1.993217474082e+01
1.414589307552e+01
1.996890559046e+01
2.053464509331e+01
1.962841270290e+01
2.032956068150e+01
2.040255827821e+01
1.928335344689e+01
2.258522444923e+01
1.831121326348e+01
2.245648721806e+01
2.198346552423e+01
2.193009676612e+01
2.757725203351e+01
2.350134557709e+01
2.684414437888e+01
1.816839597450e+01
2.673358532271e+01
1.809355724449e+01
2.178607005520e+01
2.201684958391e+01
2.211474534804e+01
1.728281639656e+01
2.056861695151e+01
2.043466306461e+01
2.492510297584e+01
1.842998247633e+01
2.052314722785e+01
1.032123814904e+01
1.961015354492e+01
2.346465895752e+01
2.046635397064e+01
2.802691636375e+01
1.866631195185e+01
2.158534542933e+01
1.724188630972e+01
1.691123122234e+01
1.927747010356e+01
1.106691486664e+01
1.202708617141e+01
2.037590401356e+01
2.217820769386e+01
2.319552676008e+01
2.252951591003e+01
2.396040429687e+01
2.728589848703e+01
1.091067241956e+01
1.616069185716e+01
1.452049846736e+01
2.205190038862e+01
2.280831295480e+01
2.125156730276e+01
2.011968011057e+01
2.356586060245e+01
2.057370415086e+01
2.595775373019e+01
2.124390916480e+01
1.977871930685e+01
2.027018599395e+01
2.174388898995e+01
1.921429383310e+01
1.835478286372e+01
2.362953038928e+01
1.800181387228e+01
2.311307039574e+01
2.080652382325e+01
2.404509767830e+01
2.036469266676e+01
1.790353993254e+01
2.775988880463e+01
2.222493791782e+01
2.019364097694e+01
4.543532146040e+00
1.991589064762e+01
1.929210467938e+01
1.724094759568e+01
8.744310915457e+00
2.008374208969e+01
2.977523433475e+01
9.969468606606e+00
2.320702324347e+01
1.916178165112e+01
1.361103054737e+01
2.478188107376e+01
2.233859247639e+01
1.928636241992e+01
2.202243072059e+01
1.923537589975e+01
2.872925107077e+01
1.954269888716e+01
1.937498347497e+01
1.515498072169e+01
1.475262388533e+01
1.722331560156e+01
1.973757387305e+01
-1.525739597029e+00
1.543412199317e+01
1.036445071683e+01
1.916529782333e+01
2.520610300801e+01
2.458805027175e+01
2.685887025477e+01
1.979284563687e+01
1.788961199718e+01
1.935630904159e+01
2.558252083501e+01
1.850212697412e+01
1.591531002011e+01
2.145410428929e+01
1.919804880555e+01
1.955132495910e+01
5.453754371499e+00
2.454823789425e+01
1.936208357286e+01
1.760812804472e+01
1.701687960766e+01
7.251236647103e+00
1.971487692555e+01
2.251717031202e+01
1.934612455042e+01
2.123163712315e+01
9.441825220469e+00
2.291522009717e+01
2.222125432661e+01
8.290640611115e+00
1.925297678794e+01
1.351076697694e+01
1.512318010785e+01
1.953220554611e+01
2.297740032221e+01
1.971289212234e+01
2.322773040423e+01
1.903034538915e+01
2.338601690532e+01
2.192148907103e+01
2.061571568107e+01
1.967407190100e+01
1.953789641347e+01
2.587201853854e+01
3.812487339436e+00
2.945326345715e+01
1.965581195371e+01
2.191097940131e+01
2.026274991898e+01
1.880603994262e+01
9.194933780216e+00
1.858393594563e+01
2.115635526116e+01
5.554257678173e+00
1.995865873592e+01
2.055701105429e+01
1.570557548245e+01
2.186474319055e+01
2.001540353017e+01
2.577750754678e+01
2.134119262540e+00
2.673932664521e+01
1.931508800473e+01
1.756121998601e+01
1.436359664112e+01
2.070901317139e+01
1.178694682387e+01
2.085814290062e+01
1.757209268123e+01
2.030034257313e+01
2.005758163687e+01
2.199544338788e+01
1.674412998973e+01
2.075552827998e+01
1.820176481873e+01
2.020716513909e+01
2.380805462494e+01
1.887756656998e+01
9.548086909446e+00
2.512931291646e+01
1.837968585170e+01
1.879960683474e+01
1.869076928403e+01
2.051700777122e+01
2.095327575587e+01
2.073542490878e-01
3.610421724520e+00
1.757224441104e+01
2.275964290371e+01
2.195054850812e+01
1.892591816027e+01
1.957656314897e+01
4.481246198321e+00
1.814648477517e+01
1.989273335569e+01
2.648377977495e+01
1.798602882627e+01
1.090413121193e+01
2.247519175738e+01
1.866031326854e+01
2.305759627107e+01
2.713384505671e+01
2.252644052133e+01
1.345556276246e+01
2.248878560404e+01
2.280511055269e+01
2.071049847810e+01
1.740549429981e+01
1.675662431532e+01
2.227422220909e+01
2.255159193443e+01
9.383832136631e+00
1.773137833817e+01
1.937671046630e+01
1.901983854117e+01
-2.238407577167e+01
2.229092230088e+01
1.301278899869e+01
1.382222446252e+01
1.926406125517e+01
2.108811426359e+01
1.919536524721e+01
2.421385589655e+01
1.445297307356e+01
2.078134405631e+01
1.138174395623e+01
2.194829859477e+01
2.177188143247e+01
7.967883706989e+00
1.832605798216e+01
2.512103491802e+01
-1.199280033892e-01
2.580703906144e+01
1.962390452326e+01
1.820942026629e+01
8.282977699439e+00
1.855003664666e+01
1.897371313137e+01
2.125773473748e+01
1.927136551584e+01
1.351328160631e+01
2.181869941999e+01
1.726581290255e+01
4.545325020076e+00
2.021496542511e+01
1.982513130834e+01
1.623160834460e+01
1.953318304724e+01
1.991292869514e+01
2.433801749873e+01
2.264008477061e+01
2.140431407708e+01
9.639382268516e+00
1.258730809250e+01
1.881855044779e+01
1.826598361435e+01
2.401606805326e+01
-3.899446230544e+00
3.846671205930e-01
1.604725711819e+01
2.509647439012e+01
1.416061302298e+01
2.087245997138e+01
2.073628921519e+01
2.083636851595e+01
2.292655339300e+01
1.522852996435e+01
8.959979252904e+00
1.244136087114e+01
2.168214865974e+01
2.063285197225e+00
2.162925213462e+01
2.163085388884e+01
2.355519538135e+01
2.412648452438e+01
1.911415787910e+01
2.160737532273e+01
1.932217999306e+01
1.874167969851e+01
1.989860325446e+01
2.058057970928e+01
1.626912066301e+01
2.086079066139e+01
-1.633767722460e+00
2.125278249421e+01
2.057422876861e+01
2.130891137528e+01
1.814069038078e+01
2.177611656318e+01
1.535067374102e+01
1.936774208008e+01
1.899938906311e+01
2.111076040066e+01
1.897059154432e+01
1.637339262266e+01
1.690859699059e+01
1.798696213077e+01
1.785447817797e+01
2.095114837652e+01
1.423111156806e+01
1.545338358097e+01
1.618361431592e+01
1.641592927128e+01
2.799373944601e+01
1.574732779946e+01
1.965388949824e+01
1.710766874459e+01
2.103384643383e+01
1.954321663986e+01
1.835317792598e+01
1.931156022215e+01
1.701100584918e+01
1.642367451224e+01
2.102419637741e+01
1.895821849858e+01
1.313014793668e+01
2.066392110913e+01
4.329933037270e+00
1.545385300507e+01
2.167915844951e+01
-6.578264296370e+00
-2.106934089725e+01
1.990891185575e+01
1.437014630937e+01
1.958228401640e+01
2.133039464117e+01
1.436612228472e+01
9.411692227230e+00
1.968505172332e+01
4.788667746049e+00
1.943168334916e+01
2.056757577766e+01
1.948722815663e+01
2.791444569502e+01
1.604732504419e+01
1.711136216304e+01
2.098970883982e+01
2.097799339463e+01
1.841828285046e+01
2.107306349964e+01
2.608830452070e+01
2.065441860726e+01
2.532301980820e+01
3.767763639818e+00
2.129812900073e+01
1.966329701827e+01
1.972807857503e+01
1.535227795756e+01
1.614262961812e+01
1.929416660891e+01
1.986682323313e+01
1.562236192226e+01
2.601568324877e+01
2.115526416210e+01
1.441852348175e+01
1.948543740191e+01
1.987900319679e+01
1.996334907188e+01
8.999999999681e+01
-5.119898786714e+01
1.462659773966e+01
1.450355527112e+01
2.055937073422e+01
2.053683497025e+01
-2.149917575150e+01
1.018091888360e+01
2.047122666339e+01
2.053979121174e+01
7.686333179151e+00
2.069437538703e+01
1.906032838010e+01
1.831223353293e+01
1.746806496530e+01
1.442129723420e+01
2.104840425172e+01
4.139300390845e+00
1.773785092349e+01
1.970904770338e+01
1.922718929608e+01
1.817776386277e+01
1.677827116264e+01
2.011105517584e+01
1.921198125960e+01
1.881232755994e+01
1.443247425098e+01
2.150367042149e+01
1.948511402381e+01
1.308610772414e+01
-1.987043151900e+01
1.980351799242e+01
2.198690522392e+01
1.417328555557e+01
1.788120120571e+01
2.051017062517e+01
2.023014441270e+01
2.031526358789e+01
1.943831563491e+01
2.419592315388e+01
-1.189017748124e+01
1.373052813313e+01
1.600498350028e+01
2.121856242095e+01
1.945290358508e+01
2.102716290737e+01
3.898181790177e+00
-4.069261498239e+00
-1.119055783881e+01
1.803571914929e+01
1.510022298905e+01
1.946681092150e+01
7.511682826122e+00
2.138640160142e+01
1.606298254699e+01
2.071799210929e+01
2.071032616812e+01
1.598124670443e+01
2.118968362532e+01
1.968475486029e+01
1.964747439655e+01
1.360051021712e+01
1.934419087934e+01
2.021788807216e+01
2.159067858353e+01
2.088895822293e+01
2.057738463586e+01
1.880892720570e+01
7.866892732696e+00
2.302825731675e+01
1.937366345400e+01
1.664786017162e+01
2.033473872188e+01
2.070970197883e+01
2.063057190683e+01
1.853707476430e+01
2.080596985258e+01
2.111433996597e+01
2.119369243920e+01
1.539139063887e+01
2.067193332469e+01
1.520319165526e+01
1.934638924725e+01
-3.701260339721e+00
1.905450449953e+01
1.791031478182e+01
-1.442880527864e+00
2.778035399399e+01
1.908988260069e+01
1.969553189852e+01
1.941416462722e+01
2.112717562285e+01
1.673796646391e+01
-1.988591190069e+01
2.438673028321e+01
-1.657190938825e+01
2.396938835503e+00
2.902812889371e+01
1.751983846381e+01
2.035948979808e+01
1.950040307225e+01
1.655407780060e+01
1.676926235287e+01
2.099013595771e+01
2.163279136462e+01
2.091695767312e+01
2.001805615239e+01
1.945950364470e+01
-4.820457166390e+00
2.127594371278e+01
2.046126110655e+01
-2.792679016793e+00
1.797991758693e+00
2.567893170827e+01
-7.346319106550e+00
2.086025810567e+01
2.002028605395e+01
1.947779948522e+01
2.070411705867e+01
2.166139716529e+01
1.713257725409e+01
2.003004958548e+01
2.249192525156e+01
1.431505361008e+01
1.051857236042e+01
-1.985897314535e+01
2.060526789098e+01
1.528134889021e+01
4.201808687638e+00
1.734266027109e+01
1.995974922554e+01
1.940534705241e+01
1.977039005676e+01
1.455123244508e+01
2.077069172802e+01
2.082695753613e+01
1.989319370969e+01
2.058701582678e+01
1.531040103391e+01
2.128598011022e+01
3.577788014120e+00
1.950436076374e+01
-2.240826673165e+01
2.094037822504e+01
1.969582639829e+01
1.930747176139e+01
2.031942811118e+01
1.829047036003e+01
1.971543417120e+01
2.068865200052e+01
1.760116130135e+01
1.999182020342e+01
1.946678272038e+01
1.794554059473e+01
1.977797252815e+01
1.608731121862e+01
1.445119640763e+01
2.076901686978e+01
1.971412928376e+01
8.999999999681e+01
1.450009253829e+01
2.045843857403e+01
7.041885872672e+00
2.172137760917e+01
1.942360000146e+01
1.964750013130e+01
6.951748511588e+00
2.724466436093e+01
1.859516930294e+01
1.882654874182e+01
6.649471779192e+00
1.976170600668e+01
1.742878138788e+01
1.266528806467e+01
1.696072548795e+01
2.072337034915e+01
1.876641735225e+01
3.499586537224e+01
1.536994998683e+01
1.809814562641e+01
1.888427945860e+01
2.104775721384e+01
1.790696981057e+01
1.819357583820e+01
-8.022523628473e+00
2.079578333100e+01
1.982350587141e+01
2.816903403875e+01
1.970513045726e+01
2.046700173607e+01
1.536544565798e+01
1.741212961943e+01
1.782806533049e+01
1.799248063748e+01
1.829395819188e+01
2.168934339441e+01
8.213503151716e+00
1.990277649250e+01
1.617554468448e+01
1.966008856527e+01
2.159599076091e+01
1.692480992986e+01
1.956312120316e+01
2.103227735723e+01
2.106103499759e+01
2.726128771788e+01
1.954700498429e+01
1.976368540842e+01
-6.090766566513e+00
1.750680460393e+01
2.483427400734e+01
1.969875158611e+01
-5.734205912854e+01
-5.504119520585e+01
-5.606400697224e+01
-5.523932814185e+01
-5.588723203351e+01
-5.515790262998e+01
-5.577546905898e+01
-5.502682741735e+01
-5.571931771807e+01
-5.489354484173e+01
-5.571406792378e+01
-5.476422345219e+01
-5.573771699681e+01
-5.463488633988e+01
-5.577558669772e+01
-5.450182021222e+01
-5.581963859737e+01
-5.436289087341e+01
-5.586652327923e+01
-3.507196650780e+01
-5.421669542245e+01
-5.591485407550e+01
-5.406208191835e+01
-3.699365996438e+01
-5.596525210792e+01
-5.389701825670e+01
-5.601579013649e+01
-5.372525009368e+01
-5.606537420577e+01
8.999999999681e+01
-5.354712741302e+01
-5.601977179856e+01
-5.337343656725e+01
-5.589110301188e+01
-5.318897412331e+01
-5.574605198752e+01
-5.303057128990e+01
-5.564816314357e+01
-5.284292529084e+01
8.938096785387e+01
-5.276201995668e+01
-1.390011757062e+01
-5.259044215215e+01
8.769965604828e+01
-5.254765825059e+01
8.752714890751e+01
-5.017230355659e+01
-5.479665066658e+01
-4.970321655409e+01
-3.576620922315e+01
-5.020250367452e+01
-5.212179494141e+01
-4.283758908965e+01
-6.003490979646e+01
-1.072864264376e+01
-1.563253771461e+01
-1.759600781769e+01
-1.764683904905e+01
-1.777140616852e+01
-1.772517932264e+01
-1.773692602656e+01
-1.766721053959e+01
-1.768440802563e+01
-1.760593804312e+01
-1.763179579719e+01
-1.754729359968e+01
-1.757924197893e+01
-1.748813899678e+01
-1.752498121520e+01
-1.742573832257e+01
-1.746517301066e+01
-1.735818117315e+01
-1.739878875470e+01
-1.088486667909e+01
-1.728549245202e+01
-1.732520355908e+01
-1.720870413188e+01
-1.881553831687e+01
-1.724596180377e+01
-1.486430360741e+01
-1.713041165533e+01
-1.716357847052e+01
-1.705170236032e+01
-1.706824820534e+01
-1.697601087977e+01
-1.697405658456e+01
-1.690752548833e+01
-1.686036700111e+01
-9.211808772766e+00
-1.686162293969e+01
-1.679230381754e+01
-1.683343098838e+01
-1.664327224713e+01
-1.662628041197e+01
-1.684942868294e+01
-1.624052532549e+01
-1.684935646994e+01
-1.617377339622e+01
-1.449323312287e+01
-1.683554963009e+01
-1.651361745138e+01
-2.002280845824e+01
-1.776192259095e+01
-1.543620350915e+01
-2.327901045632e+01
-1.191105549288e+01
-1.271858053156e+01
-3.556587629247e+00
-2.714219352590e+00
-2.709540241006e+00
-2.668024173970e+00
-2.676335480676e+00
-2.650089634558e+00
-2.659172562537e+00
-2.625656662684e+00
-2.633104065229e+00
-2.600208468417e+00
-2.604005482576e+00
-2.575967314513e+00
-2.573597615266e+00
-2.554843197567e+00
-2.543940401976e+00
-2.535460412774e+00
-2.512096156046e+00
-4.429225878359e-01
-2.517495447385e+00
-2.477057838025e+00
-2.403931437926e+00
-2.501591800417e+00
-2.438250320135e+00
-2.491219616891e+00
-2.398900843698e+00
-2.490608214932e+00
-3.792631195494e+00
-2.363075840229e+00
-2.496090819242e+00
-2.317762327294e+00
-2.510822422743e+00
-2.271997869569e+00
-2.535236391398e+00
-2.205922842237e+00
-2.586966853270e+00
-2.180960277264e+00
-2.638972902023e+00
-5.747038820898e-01
-2.697622981483e+00
-2.047980339289e+00
-2.661451093196e+00
-2.040196249025e+00
-1.486444554958e+00
-5.628070967698e+00
-2.222585418879e+00
-3.498815941950e+00
-5.462120971084e-01
-5.722923897129e+00
-2.968578963038e+00
4.992451329039e+00
4.540609762580e+00
4.516437389176e+00
4.490594592057e+00
4.476502102660e+00
4.489288140390e+00
4.472418441703e+00
4.495802351475e+00
4.472785629310e+00
4.504312301174e+00
4.472899513160e+00
4.514605923984e+00
4.470937571128e+00
4.520700611832e+00
4.462036003378e+00
4.524456085297e+00
5.299489220602e+00
4.447887981673e+00
4.531068065188e+00
3.397184945915e+00
4.433444114668e+00
4.539463986564e+00
4.230389394470e+00
4.414735088359e+00
4.545675123709e+00
4.387649569683e+00
4.546677189340e+00
4.350693861734e+00
4.537945235238e+00
5.044191485930e+00
4.309390724440e+00
4.563041890153e+00
4.277945540696e+00
4.554994410220e+00
4.636100505887e+00
4.239611590786e+00
4.557027022089e+00
4.218351459331e+00
4.817817088055e+00
4.158452756020e+00
2.396519788584e+00
4.364716286701e+00
5.101175413564e+00
3.251927896244e+00
5.926582228385e+00
3.502136511289e+00
8.401735159023e+00
8.663715472825e+00
8.678327367567e+00
8.663303215398e+00
8.676338594362e+00
8.657067263135e+00
8.673629930827e+00
8.644411762121e+00
8.667100299561e+00
8.632183830120e+00
8.661569079991e+00
8.618328993521e+00
8.656928026837e+00
8.601114085558e+00
8.646579480330e+00
8.890944106910e+00
8.568573928852e+00
8.264042589260e+00
8.625814740637e+00
8.542431464706e+00
8.615845933876e+00
8.515851674617e+00
8.605080996963e+00
8.477961540614e+00
7.676816963536e+00
8.586313260080e+00
8.434809765411e+00
8.565819974517e+00
8.385918040862e+00
8.530040131378e+00
8.339864640340e+00
8.557299837295e+00
8.333319779494e+00
8.278375938946e+00
8.530485163911e+00
8.693256079303e+00
8.656715376169e+00
7.089616832228e+00
8.870731047011e+00
8.349216092641e+00
9.405039576993e+00
7.710519848316e+00
7.583523942170e+00
1.157315558812e+01
1.136646380439e+01
1.133877423873e+01
1.132940619342e+01
1.130885496287e+01
1.132857853210e+01
1.130314226638e+01
1.130945077810e+01
1.127413189368e+01
1.129960717946e+01
1.125883272889e+01
1.128396707292e+01
1.123185150578e+01
1.133674521739e+01
1.127795928860e+01
1.120990309923e+01
1.048685205004e+01
1.123689943494e+01
1.116376053782e+01
1.091003099949e+01
1.122099109843e+01
1.113749983873e+01
1.120957728164e+01
1.110380935290e+01
1.117915705790e+01
1.115757173308e+01
1.105567762454e+01
1.115191185522e+01
1.113712283877e+01
1.101800378275e+01
1.106205681773e+01
1.098567717514e+01
1.118620419388e+01
1.092322616710e+01
1.009096048533e+01
1.122709938000e+01
1.165346288457e+01
1.083947855132e+01
1.194988532568e+01
1.036456340165e+01
1.314753085696e+01
1.320270044410e+01
1.321287875140e+01
1.321944764606e+01
1.320952026157e+01
1.321585291382e+01
1.321597614788e+01
1.317221625723e+01
1.317386127236e+01
1.316429935458e+01
1.317161378389e+01
1.313836691092e+01
1.313277182116e+01
1.314170122645e+01
1.288471587924e+01
1.308612140519e+01
1.312864942370e+01
1.308069547777e+01
1.308124800502e+01
1.304746364866e+01
1.307310327007e+01
1.300694802746e+01
1.249960218839e+01
1.305153343918e+01
1.296196753205e+01
1.300530119874e+01
1.291539269596e+01
1.288620239101e+01
1.298334087360e+01
1.299667622288e+01
1.298897982178e+01
1.222093798481e+01
1.330629514532e+01
1.310774667887e+01
1.362256964949e+01
1.275489418422e+01
1.238137212653e+01


