# vtk DataFile Version 2.0
Calculation C:\Users\NickSteudtner\Documents\GitHub\TOCHNOG\standsicherheit_phiC at time 2.000000000000e+00 
ASCII
DATASET UNSTRUCTURED_GRID
Field FieldData 1
Time 1 1 double
2.000000000000e+00

POINTS 1251 float
0.0 0.0 0.0 
5.000000000000e+01 -1.000000000000e+01 0.0 
0.0 -2.000000000000e+01 0.0 
5.000000000000e+01 -2.000000000000e+01 0.0 
0.0 -9.999999999991e-01 0.0 
0.0 -1.999999999998e+00 0.0 
0.0 -2.999999999997e+00 0.0 
0.0 -3.999999999994e+00 0.0 
0.0 -4.999999999991e+00 0.0 
0.0 -5.999999999988e+00 0.0 
0.0 -6.999999999985e+00 0.0 
0.0 -7.999999999982e+00 0.0 
0.0 -8.999999999983e+00 0.0 
0.0 -9.999999999985e+00 0.0 
0.0 -1.099999999999e+01 0.0 
0.0 -1.199999999999e+01 0.0 
0.0 -1.299999999999e+01 0.0 
0.0 -1.399999999999e+01 0.0 
0.0 -1.499999999999e+01 0.0 
0.0 -1.599999999999e+01 0.0 
0.0 -1.700000000000e+01 0.0 
0.0 -1.800000000000e+01 0.0 
0.0 -1.900000000000e+01 0.0 
4.900000000001e+01 -2.000000000000e+01 0.0 
4.800000000001e+01 -2.000000000000e+01 0.0 
4.700000000002e+01 -2.000000000000e+01 0.0 
4.600000000003e+01 -2.000000000000e+01 0.0 
4.500000000004e+01 -2.000000000000e+01 0.0 
4.400000000004e+01 -2.000000000000e+01 0.0 
4.300000000005e+01 -2.000000000000e+01 0.0 
4.200000000006e+01 -2.000000000000e+01 0.0 
4.100000000006e+01 -2.000000000000e+01 0.0 
4.000000000007e+01 -2.000000000000e+01 0.0 
3.900000000008e+01 -2.000000000000e+01 0.0 
3.800000000009e+01 -2.000000000000e+01 0.0 
3.700000000009e+01 -2.000000000000e+01 0.0 
3.600000000010e+01 -2.000000000000e+01 0.0 
3.500000000011e+01 -2.000000000000e+01 0.0 
3.400000000011e+01 -2.000000000000e+01 0.0 
3.300000000012e+01 -2.000000000000e+01 0.0 
3.200000000013e+01 -2.000000000000e+01 0.0 
3.100000000013e+01 -2.000000000000e+01 0.0 
3.000000000013e+01 -2.000000000000e+01 0.0 
2.900000000013e+01 -2.000000000000e+01 0.0 
2.800000000013e+01 -2.000000000000e+01 0.0 
2.700000000013e+01 -2.000000000000e+01 0.0 
2.600000000013e+01 -2.000000000000e+01 0.0 
2.500000000013e+01 -2.000000000000e+01 0.0 
2.400000000013e+01 -2.000000000000e+01 0.0 
2.300000000013e+01 -2.000000000000e+01 0.0 
2.200000000013e+01 -2.000000000000e+01 0.0 
2.100000000013e+01 -2.000000000000e+01 0.0 
2.000000000013e+01 -2.000000000000e+01 0.0 
1.900000000013e+01 -2.000000000000e+01 0.0 
1.800000000013e+01 -2.000000000000e+01 0.0 
1.700000000012e+01 -2.000000000000e+01 0.0 
1.600000000011e+01 -2.000000000000e+01 0.0 
1.500000000011e+01 -2.000000000000e+01 0.0 
1.400000000010e+01 -2.000000000000e+01 0.0 
1.300000000009e+01 -2.000000000000e+01 0.0 
1.200000000009e+01 -2.000000000000e+01 0.0 
1.100000000008e+01 -2.000000000000e+01 0.0 
1.000000000007e+01 -2.000000000000e+01 0.0 
9.000000000064e+00 -2.000000000000e+01 0.0 
8.000000000057e+00 -2.000000000000e+01 0.0 
7.000000000050e+00 -2.000000000000e+01 0.0 
6.000000000043e+00 -2.000000000000e+01 0.0 
5.000000000036e+00 -2.000000000000e+01 0.0 
4.000000000028e+00 -2.000000000000e+01 0.0 
3.000000000021e+00 -2.000000000000e+01 0.0 
2.000000000014e+00 -2.000000000000e+01 0.0 
1.000000000007e+00 -2.000000000000e+01 0.0 
5.000000000000e+01 -1.100000000000e+01 0.0 
5.000000000000e+01 -1.200000000000e+01 0.0 
5.000000000000e+01 -1.300000000000e+01 0.0 
5.000000000000e+01 -1.400000000000e+01 0.0 
5.000000000000e+01 -1.500000000000e+01 0.0 
5.000000000000e+01 -1.600000000000e+01 0.0 
5.000000000000e+01 -1.700000000000e+01 0.0 
5.000000000000e+01 -1.800000000000e+01 0.0 
5.000000000000e+01 -1.900000000000e+01 0.0 
2.000000000000e+01 0.0 0.0 
3.500000000000e+01 -1.000000000000e+01 0.0 
2.150000000000e+01 -1.000000000000e+00 0.0 
2.300000000000e+01 -2.000000000000e+00 0.0 
2.450000000000e+01 -3.000000000000e+00 0.0 
2.600000000000e+01 -4.000000000000e+00 0.0 
2.750000000000e+01 -5.000000000000e+00 0.0 
2.900000000000e+01 -6.000000000000e+00 0.0 
3.050000000000e+01 -7.000000000000e+00 0.0 
3.200000000000e+01 -8.000000000000e+00 0.0 
3.350000000000e+01 -9.000000000000e+00 0.0 
5.000000000000e+01 -1.000000000000e+00 0.0 
5.000000000000e+01 -2.000000000000e+00 0.0 
5.000000000000e+01 -3.000000000000e+00 0.0 
5.000000000000e+01 -4.000000000000e+00 0.0 
5.000000000000e+01 -5.000000000000e+00 0.0 
5.000000000000e+01 -6.000000000000e+00 0.0 
5.000000000000e+01 -7.000000000000e+00 0.0 
5.000000000000e+01 -8.000000000000e+00 0.0 
5.000000000000e+01 -9.000000000000e+00 0.0 
4.900000000000e+01 -1.000000000000e+01 0.0 
4.800000000000e+01 -1.000000000000e+01 0.0 
4.700000000000e+01 -1.000000000000e+01 0.0 
4.600000000000e+01 -1.000000000000e+01 0.0 
4.500000000000e+01 -1.000000000000e+01 0.0 
4.400000000000e+01 -1.000000000000e+01 0.0 
4.300000000000e+01 -1.000000000000e+01 0.0 
4.200000000000e+01 -1.000000000000e+01 0.0 
4.100000000000e+01 -1.000000000000e+01 0.0 
4.000000000000e+01 -1.000000000000e+01 0.0 
3.900000000000e+01 -1.000000000000e+01 0.0 
3.800000000000e+01 -1.000000000000e+01 0.0 
3.700000000000e+01 -1.000000000000e+01 0.0 
3.600000000000e+01 -1.000000000000e+01 0.0 
1.900000000000e+01 0.0 0.0 
1.800000000000e+01 0.0 0.0 
1.700000000000e+01 0.0 0.0 
1.600000000000e+01 0.0 0.0 
1.500000000000e+01 0.0 0.0 
1.400000000000e+01 0.0 0.0 
1.300000000000e+01 0.0 0.0 
1.200000000000e+01 0.0 0.0 
1.100000000000e+01 0.0 0.0 
1.000000000000e+01 0.0 0.0 
9.000000000000e+00 0.0 0.0 
8.000000000000e+00 0.0 0.0 
7.000000000000e+00 0.0 0.0 
6.000000000000e+00 0.0 0.0 
5.000000000000e+00 0.0 0.0 
4.000000000000e+00 0.0 0.0 
3.000000000000e+00 0.0 0.0 
2.000000000000e+00 0.0 0.0 
1.000000000000e+00 0.0 0.0 
4.901724137931e+01 -1.000000000000e+00 0.0 
4.803448275862e+01 -1.000000000000e+00 0.0 
4.705172413793e+01 -1.000000000000e+00 0.0 
4.606896551724e+01 -1.000000000000e+00 0.0 
4.508620689655e+01 -1.000000000000e+00 0.0 
4.410344827586e+01 -1.000000000000e+00 0.0 
4.312068965517e+01 -1.000000000000e+00 0.0 
4.213793103448e+01 -1.000000000000e+00 0.0 
4.115517241379e+01 -1.000000000000e+00 0.0 
4.017241379310e+01 -1.000000000000e+00 0.0 
3.918965517241e+01 -1.000000000000e+00 0.0 
3.820689655172e+01 -1.000000000000e+00 0.0 
3.722413793103e+01 -1.000000000000e+00 0.0 
3.624137931034e+01 -1.000000000000e+00 0.0 
3.525862068966e+01 -1.000000000000e+00 0.0 
3.427586206897e+01 -1.000000000000e+00 0.0 
3.329310344828e+01 -1.000000000000e+00 0.0 
3.231034482759e+01 -1.000000000000e+00 0.0 
3.132758620690e+01 -1.000000000000e+00 0.0 
3.034482758621e+01 -1.000000000000e+00 0.0 
2.936206896552e+01 -1.000000000000e+00 0.0 
2.837931034483e+01 -1.000000000000e+00 0.0 
2.739655172414e+01 -1.000000000000e+00 0.0 
2.641379310345e+01 -1.000000000000e+00 0.0 
2.543103448276e+01 -1.000000000000e+00 0.0 
2.444827586207e+01 -1.000000000000e+00 0.0 
2.346551724138e+01 -1.000000000000e+00 0.0 
2.248275862069e+01 -1.000000000000e+00 0.0 
2.400000000000e+01 -2.000000000000e+00 0.0 
2.500000000000e+01 -2.000000000000e+00 0.0 
2.600000000000e+01 -2.000000000000e+00 0.0 
2.700000000000e+01 -2.000000000000e+00 0.0 
2.800000000000e+01 -2.000000000000e+00 0.0 
2.900000000000e+01 -2.000000000000e+00 0.0 
3.000000000000e+01 -2.000000000000e+00 0.0 
3.100000000000e+01 -2.000000000000e+00 0.0 
3.200000000000e+01 -2.000000000000e+00 0.0 
3.300000000000e+01 -2.000000000000e+00 0.0 
3.400000000000e+01 -2.000000000000e+00 0.0 
3.500000000000e+01 -2.000000000000e+00 0.0 
3.600000000000e+01 -2.000000000000e+00 0.0 
3.700000000000e+01 -2.000000000000e+00 0.0 
3.800000000000e+01 -2.000000000000e+00 0.0 
3.900000000000e+01 -2.000000000000e+00 0.0 
4.000000000000e+01 -2.000000000000e+00 0.0 
4.100000000000e+01 -2.000000000000e+00 0.0 
4.200000000000e+01 -2.000000000000e+00 0.0 
4.300000000000e+01 -2.000000000000e+00 0.0 
4.400000000000e+01 -2.000000000000e+00 0.0 
4.500000000000e+01 -2.000000000000e+00 0.0 
4.600000000000e+01 -2.000000000000e+00 0.0 
4.700000000000e+01 -2.000000000000e+00 0.0 
4.800000000000e+01 -2.000000000000e+00 0.0 
4.900000000000e+01 -2.000000000000e+00 0.0 
2.548076923077e+01 -3.000000000000e+00 0.0 
2.646153846153e+01 -3.000000000000e+00 0.0 
2.744230769230e+01 -3.000000000000e+00 0.0 
2.842307692306e+01 -3.000000000000e+00 0.0 
2.940384615383e+01 -3.000000000000e+00 0.0 
3.038461538459e+01 -3.000000000000e+00 0.0 
3.136538461536e+01 -3.000000000000e+00 0.0 
3.234615384612e+01 -3.000000000000e+00 0.0 
3.332692307687e+01 -3.000000000000e+00 0.0 
3.430769230762e+01 -3.000000000000e+00 0.0 
3.528846153837e+01 -3.000000000000e+00 0.0 
3.626923076912e+01 -3.000000000000e+00 0.0 
3.724999999988e+01 -3.000000000000e+00 0.0 
3.823076923065e+01 -3.000000000000e+00 0.0 
3.921153846143e+01 -3.000000000000e+00 0.0 
4.019230769221e+01 -3.000000000000e+00 0.0 
4.117307692299e+01 -3.000000000000e+00 0.0 
4.215384615377e+01 -3.000000000000e+00 0.0 
4.313461538455e+01 -3.000000000000e+00 0.0 
4.411538461533e+01 -3.000000000000e+00 0.0 
4.509615384611e+01 -3.000000000000e+00 0.0 
4.607692307688e+01 -3.000000000000e+00 0.0 
4.705769230766e+01 -3.000000000000e+00 0.0 
4.803846153844e+01 -3.000000000000e+00 0.0 
4.901923076922e+01 -3.000000000000e+00 0.0 
4.900000000000e+01 -4.000000000000e+00 0.0 
4.800000000000e+01 -4.000000000000e+00 0.0 
4.700000000000e+01 -4.000000000000e+00 0.0 
4.600000000000e+01 -4.000000000000e+00 0.0 
4.500000000000e+01 -4.000000000000e+00 0.0 
4.400000000000e+01 -4.000000000000e+00 0.0 
4.300000000000e+01 -4.000000000000e+00 0.0 
4.200000000000e+01 -4.000000000000e+00 0.0 
4.100000000000e+01 -4.000000000000e+00 0.0 
4.000000000000e+01 -4.000000000000e+00 0.0 
3.900000000000e+01 -4.000000000000e+00 0.0 
3.800000000000e+01 -4.000000000000e+00 0.0 
3.700000000000e+01 -4.000000000000e+00 0.0 
3.600000000000e+01 -4.000000000000e+00 0.0 
3.500000000000e+01 -4.000000000000e+00 0.0 
3.400000000000e+01 -4.000000000000e+00 0.0 
3.300000000000e+01 -4.000000000000e+00 0.0 
3.200000000000e+01 -4.000000000000e+00 0.0 
3.100000000000e+01 -4.000000000000e+00 0.0 
3.000000000000e+01 -4.000000000000e+00 0.0 
2.900000000000e+01 -4.000000000000e+00 0.0 
2.800000000000e+01 -4.000000000000e+00 0.0 
2.700000000000e+01 -4.000000000000e+00 0.0 
2.847826086957e+01 -5.000000000000e+00 0.0 
2.945652173913e+01 -5.000000000000e+00 0.0 
3.043478260870e+01 -5.000000000000e+00 0.0 
3.141304347826e+01 -5.000000000000e+00 0.0 
3.239130434783e+01 -5.000000000000e+00 0.0 
3.336956521739e+01 -5.000000000000e+00 0.0 
3.434782608696e+01 -5.000000000000e+00 0.0 
3.532608695652e+01 -5.000000000000e+00 0.0 
3.630434782609e+01 -5.000000000000e+00 0.0 
3.728260869565e+01 -5.000000000000e+00 0.0 
3.826086956522e+01 -5.000000000000e+00 0.0 
3.923913043478e+01 -5.000000000000e+00 0.0 
4.021739130435e+01 -5.000000000000e+00 0.0 
4.119565217391e+01 -5.000000000000e+00 0.0 
4.217391304348e+01 -5.000000000000e+00 0.0 
4.315217391304e+01 -5.000000000000e+00 0.0 
4.413043478261e+01 -5.000000000000e+00 0.0 
4.510869565217e+01 -5.000000000000e+00 0.0 
4.608695652174e+01 -5.000000000000e+00 0.0 
4.706521739130e+01 -5.000000000000e+00 0.0 
4.804347826087e+01 -5.000000000000e+00 0.0 
4.902173913043e+01 -5.000000000000e+00 0.0 
4.900000000001e+01 -6.000000000000e+00 0.0 
4.800000000003e+01 -6.000000000000e+00 0.0 
4.700000000004e+01 -6.000000000000e+00 0.0 
4.600000000006e+01 -6.000000000000e+00 0.0 
4.500000000007e+01 -6.000000000000e+00 0.0 
4.400000000009e+01 -6.000000000000e+00 0.0 
4.300000000010e+01 -6.000000000000e+00 0.0 
4.200000000012e+01 -6.000000000000e+00 0.0 
4.100000000013e+01 -6.000000000000e+00 0.0 
4.000000000014e+01 -6.000000000000e+00 0.0 
3.900000000014e+01 -6.000000000000e+00 0.0 
3.800000000012e+01 -6.000000000000e+00 0.0 
3.700000000010e+01 -6.000000000000e+00 0.0 
3.600000000008e+01 -6.000000000000e+00 0.0 
3.500000000006e+01 -6.000000000000e+00 0.0 
3.400000000005e+01 -6.000000000000e+00 0.0 
3.300000000003e+01 -6.000000000000e+00 0.0 
3.200000000001e+01 -6.000000000000e+00 0.0 
3.100000000000e+01 -6.000000000000e+00 0.0 
3.000000000000e+01 -6.000000000000e+00 0.0 
3.147499999998e+01 -7.000000000000e+00 0.0 
3.244999999998e+01 -7.000000000000e+00 0.0 
3.342499999998e+01 -7.000000000000e+00 0.0 
3.439999999998e+01 -7.000000000000e+00 0.0 
3.537499999998e+01 -7.000000000000e+00 0.0 
3.634999999998e+01 -7.000000000000e+00 0.0 
3.732499999998e+01 -7.000000000000e+00 0.0 
3.829999999998e+01 -7.000000000000e+00 0.0 
3.927499999999e+01 -7.000000000000e+00 0.0 
4.024999999999e+01 -7.000000000000e+00 0.0 
4.122499999999e+01 -7.000000000000e+00 0.0 
4.219999999999e+01 -7.000000000000e+00 0.0 
4.317499999999e+01 -7.000000000000e+00 0.0 
4.414999999999e+01 -7.000000000000e+00 0.0 
4.512499999999e+01 -7.000000000000e+00 0.0 
4.609999999999e+01 -7.000000000000e+00 0.0 
4.707500000000e+01 -7.000000000000e+00 0.0 
4.805000000000e+01 -7.000000000000e+00 0.0 
4.902500000000e+01 -7.000000000000e+00 0.0 
4.900000000000e+01 -8.000000000000e+00 0.0 
4.800000000000e+01 -8.000000000000e+00 0.0 
4.700000000000e+01 -8.000000000000e+00 0.0 
4.600000000000e+01 -8.000000000000e+00 0.0 
4.500000000000e+01 -8.000000000000e+00 0.0 
4.400000000000e+01 -8.000000000000e+00 0.0 
4.300000000000e+01 -8.000000000000e+00 0.0 
4.200000000000e+01 -8.000000000000e+00 0.0 
4.100000000000e+01 -8.000000000000e+00 0.0 
4.000000000000e+01 -8.000000000000e+00 0.0 
3.900000000000e+01 -8.000000000000e+00 0.0 
3.800000000000e+01 -8.000000000000e+00 0.0 
3.700000000000e+01 -8.000000000000e+00 0.0 
3.600000000000e+01 -8.000000000000e+00 0.0 
3.500000000000e+01 -8.000000000000e+00 0.0 
3.400000000000e+01 -8.000000000000e+00 0.0 
3.300000000000e+01 -8.000000000000e+00 0.0 
3.447058823527e+01 -9.000000000000e+00 0.0 
3.544117647055e+01 -9.000000000000e+00 0.0 
3.641176470582e+01 -9.000000000000e+00 0.0 
3.738235294109e+01 -9.000000000000e+00 0.0 
3.835294117637e+01 -9.000000000000e+00 0.0 
3.932352941164e+01 -9.000000000000e+00 0.0 
4.029411764691e+01 -9.000000000000e+00 0.0 
4.126470588219e+01 -9.000000000000e+00 0.0 
4.223529411748e+01 -9.000000000000e+00 0.0 
4.320588235279e+01 -9.000000000000e+00 0.0 
4.417647058811e+01 -9.000000000000e+00 0.0 
4.514705882342e+01 -9.000000000000e+00 0.0 
4.611764705874e+01 -9.000000000000e+00 0.0 
4.708823529405e+01 -9.000000000000e+00 0.0 
4.805882352937e+01 -9.000000000000e+00 0.0 
4.902941176468e+01 -9.000000000000e+00 0.0 
2.075000000000e+01 -5.000000000006e-01 0.0 
2.225000000000e+01 -1.500000000000e+00 0.0 
2.375000000000e+01 -2.500000000000e+00 0.0 
2.525000000000e+01 -3.500000000000e+00 0.0 
2.675000000000e+01 -4.500000000000e+00 0.0 
2.825000000000e+01 -5.500000000000e+00 0.0 
2.975000000000e+01 -6.500000000000e+00 0.0 
3.125000000000e+01 -7.500000000000e+00 0.0 
3.275000000000e+01 -8.500000000000e+00 0.0 
3.425000000000e+01 -9.500000000000e+00 0.0 
2.226951693683e+01 -2.403913980114e+00 0.0 
1.650149491944e+01 -1.913490915758e+01 0.0 
1.050042386896e+01 -8.504605092970e-01 0.0 
1.553146524712e+01 -8.281255032105e-01 0.0 
1.150000000008e+01 -1.913397459621e+01 0.0 
2.530060260647e+01 -4.428336431260e+00 0.0 
8.651114563942e-01 -1.052096295641e+01 0.0 
2.050000000013e+01 -1.913397459622e+01 0.0 
2.819198729811e+01 -6.399519052838e+00 0.0 
2.445670302931e+01 -1.915649188023e+01 0.0 
3.117591465718e+01 -8.394293040695e+00 0.0 
7.465053044742e+00 -1.920411160581e+01 0.0 
6.398295709691e+00 -8.230098819370e-01 0.0 
2.849659607461e+01 -1.914296187762e+01 0.0 
3.418732642882e+01 -1.040265792588e+01 0.0 
8.386450935063e-01 -6.533605142809e+00 0.0 
9.178661865596e-01 -1.329769195597e+01 0.0 
3.149448624493e+01 -1.910466733764e+01 0.0 
3.552916747426e+01 -1.914628590759e+01 0.0 
4.449210346537e+01 -1.914359085008e+01 0.0 
4.140975975145e+01 -1.906941860733e+01 0.0 
3.847475958753e+01 -1.916622382724e+01 0.0 
3.653774794640e+01 -1.088712800241e+01 0.0 
4.047886341787e+01 -1.090139014048e+01 0.0 
4.348006339825e+01 -1.092792621489e+01 0.0 
4.919519968029e+01 -1.451526755068e+01 0.0 
4.500000000032e+00 -1.913397459621e+01 0.0 
1.856136921614e+01 -8.212235170404e-01 0.0 
3.499895312306e+00 -8.661165539723e-01 0.0 
9.076088696565e-01 -1.642306201891e+01 0.0 
4.655174095477e+01 -1.086183387525e+01 0.0 
9.430688970604e-01 -3.496112672958e+00 0.0 
3.353992337063e+01 -1.901202090820e+01 0.0 
2.249746016977e+01 -1.921262287282e+01 0.0 
2.650122741777e+01 -1.916123026018e+01 0.0 
1.863571384842e+01 -1.908325534840e+01 0.0 
1.450089971693e+01 -1.917691901860e+01 0.0 
1.350044695317e+01 -8.659695299584e-01 0.0 
3.849987469880e+01 -1.084154983397e+01 0.0 
9.454419857884e+00 -1.900818879936e+01 0.0 
4.917398660523e+01 -1.645692866081e+01 0.0 
8.500000000000e+00 -8.660254037844e-01 0.0 
8.660319230785e-01 -8.500111697188e+00 0.0 
4.649022621545e+01 -1.930506220113e+01 0.0 
2.667688107845e+01 -5.420288124331e+00 0.0 
2.379251615665e+01 -3.412225477429e+00 0.0 
2.966631491830e+01 -7.389030232731e+00 0.0 
3.267915035995e+01 -9.396934932445e+00 0.0 
2.074836922338e+01 -1.320054020319e+00 0.0 
4.915985743621e+01 -1.261973384855e+01 0.0 
2.527129768623e+00 -1.931592414663e+01 0.0 
1.538676247410e+00 -8.436956619311e-01 0.0 
4.908096641539e+01 -1.842484004551e+01 0.0 
3.478612492673e+01 -1.090889364140e+01 0.0 
3.409757055860e+01 -1.131991530427e+01 0.0 
3.501895309466e+01 -1.177687842717e+01 0.0 
3.407758073088e+01 -1.224293381580e+01 0.0 
3.484541875390e+01 -1.277051428430e+01 0.0 
3.400322025842e+01 -1.319022775640e+01 0.0 
3.321672625034e+01 -1.266779191233e+01 0.0 
3.315244139236e+01 -1.360984106532e+01 0.0 
3.236335186892e+01 -1.308463225210e+01 0.0 
3.478337442841e+01 -1.372341158982e+01 0.0 
3.230105923633e+01 -1.403023731610e+01 0.0 
3.150954055289e+01 -1.350301767700e+01 0.0 
3.144604792090e+01 -1.444931742516e+01 0.0 
3.065653897123e+01 -1.392357262981e+01 0.0 
3.071897610812e+01 -1.297447031198e+01 0.0 
2.986790411740e+01 -1.339226181535e+01 0.0 
2.993181466745e+01 -1.244703272398e+01 0.0 
2.908023061869e+01 -1.286254537734e+01 0.0 
2.901619051372e+01 -1.380881655279e+01 0.0 
2.822986160390e+01 -1.327695262116e+01 0.0 
2.829453476870e+01 -1.233265343811e+01 0.0 
2.744542905518e+01 -1.274510491105e+01 0.0 
2.751120089246e+01 -1.180368086886e+01 0.0 
2.666218649885e+01 -1.221619339205e+01 0.0 
2.672371209234e+01 -1.127125228527e+01 0.0 
2.587763216302e+01 -1.168539979114e+01 0.0 
2.581165585299e+01 -1.262994410089e+01 0.0 
2.502890882577e+01 -1.209827323619e+01 0.0 
2.509631327757e+01 -1.115492410304e+01 0.0 
2.424662989877e+01 -1.156630981079e+01 0.0 
2.431704046904e+01 -1.062389179334e+01 0.0 
2.346445438728e+01 -1.103427680694e+01 0.0 
2.339382552877e+01 -1.197964871788e+01 0.0 
2.260936050780e+01 -1.144513277642e+01 0.0 
2.268075012022e+01 -1.049911928216e+01 0.0 
2.182525737661e+01 -1.090920811464e+01 0.0 
2.189682319817e+01 -9.961716944568e+00 0.0 
2.104174127792e+01 -1.037266986667e+01 0.0 
2.111304367575e+01 -9.424179358711e+00 0.0 
2.025306185381e+01 -9.832727364719e+00 0.0 
2.018141124247e+01 -1.079140628871e+01 0.0 
1.938594498257e+01 -1.025147354112e+01 0.0 
1.946106490453e+01 -9.288010758448e+00 0.0 
1.858929958352e+01 -9.706319802516e+00 0.0 
1.851540991219e+01 -1.067205988724e+01 0.0 
1.771485303178e+01 -1.012504443115e+01 0.0 
1.764134552256e+01 -1.109360378538e+01 0.0 
1.683745148095e+01 -1.054496365337e+01 0.0 
1.691852964353e+01 -9.582555261178e+00 0.0 
1.603603813062e+01 -1.000160132379e+01 0.0 
1.595824239350e+01 -1.096750698862e+01 0.0 
1.515080624291e+01 -1.041639501931e+01 0.0 
1.523171602559e+01 -9.451711491453e+00 0.0 
1.434621060709e+01 -9.871956467464e+00 0.0 
1.426777178765e+01 -1.083749501371e+01 0.0 
1.345775282374e+01 -1.028803175500e+01 0.0 
1.354103873368e+01 -9.324918457162e+00 0.0 
1.265072018622e+01 -9.742612837270e+00 0.0 
1.257285762070e+01 -1.071557782384e+01 0.0 
1.175874815690e+01 -1.015972324288e+01 0.0 
1.184203019714e+01 -9.193604071377e+00 0.0 
1.094927709905e+01 -9.612103238656e+00 0.0 
1.086938022910e+01 -1.058685085646e+01 0.0 
1.005424098961e+01 -1.002939116380e+01 0.0 
9.977974613295e+00 -1.101324897989e+01 0.0 
1.012915646404e+01 -9.051815821181e+00 0.0 
9.237127782494e+00 -9.471239055559e+00 0.0 
9.308426593771e+00 -8.483376461131e+00 0.0 
8.418806073345e+00 -8.910712374517e+00 0.0 
2.253688464062e+01 -1.239459402279e+01 0.0 
8.495126726666e+00 -7.921646665254e+00 0.0 
9.389727383206e+00 -7.512103628377e+00 0.0 
7.601560812974e+00 -8.349460349344e+00 0.0 
7.525680547759e+00 -9.339736686940e+00 0.0 
7.677888324502e+00 -7.359727833346e+00 0.0 
6.782001206724e+00 -7.788454494773e+00 0.0 
6.858778622885e+00 -6.797338062822e+00 0.0 
2.196596590865e+01 -8.979025665442e+00 0.0 
2.816540108272e+01 -1.422634142353e+01 0.0 
5.961601194403e+00 -7.226824010712e+00 0.0 
6.038171749656e+00 -6.234825887079e+00 0.0 
6.936257279557e+00 -5.805287640737e+00 0.0 
6.115068918323e+00 -5.242109758768e+00 0.0 
3.564391741903e+01 -1.329240553876e+01 0.0 
3.558115605778e+01 -1.425902892003e+01 0.0 
3.645445282201e+01 -1.381970786460e+01 0.0 
3.639744204358e+01 -1.479198128612e+01 0.0 
3.727266909778e+01 -1.435399586226e+01 0.0 
5.216667013081e+00 -5.671788584287e+00 0.0 
3.220697293295e+01 -1.499594545107e+01 0.0 
3.551112158269e+01 -1.523479869250e+01 0.0 
2.836056961467e+01 -1.139032434851e+01 0.0 
2.516730388602e+01 -1.021382726837e+01 0.0 
1.844436907403e+01 -1.164097215196e+01 0.0 
5.885434318740e+00 -8.218694781467e+00 0.0 
5.064071066867e+00 -7.656614643901e+00 0.0 
4.988089103470e+00 -8.649722082718e+00 0.0 
1.079421050408e+01 -1.157014985435e+01 0.0 
9.902420005256e+00 -1.199903342656e+01 0.0 
1.071994252214e+01 -1.255727909771e+01 0.0 
9.826974788171e+00 -1.298659581767e+01 0.0 
1.064607883789e+01 -1.354595476388e+01 0.0 
9.751541265343e+00 -1.397556905071e+01 0.0 
8.932296185869e+00 -1.341553353988e+01 0.0 
8.856399248106e+00 -1.440570715508e+01 0.0 
8.036186803543e+00 -1.384470558472e+01 0.0 
1.057112875118e+01 -1.453516759081e+01 0.0 
1.146582585687e+01 -1.410539926903e+01 0.0 
7.959894480382e+00 -1.483563350928e+01 0.0 
7.138792279156e+00 -1.427465094140e+01 0.0 
7.062506792418e+00 -1.526615385482e+01 0.0 
6.240693558277e+00 -1.470508863040e+01 0.0 
6.316957575451e+00 -1.371212581281e+01 0.0 
5.418183007107e+00 -1.414253605022e+01 0.0 
5.494748364428e+00 -1.314886770603e+01 0.0 
1.756825565873e+01 -1.206433872514e+01 0.0 
1.837565773345e+01 -1.261356468266e+01 0.0 
1.749574831391e+01 -1.303769280014e+01 0.0 
1.830539187332e+01 -1.358828364284e+01 0.0 
1.742278925170e+01 -1.401367746928e+01 0.0 
1.823303007798e+01 -1.456432294258e+01 0.0 
1.734941694138e+01 -1.499213734361e+01 0.0 
1.653760041637e+01 -1.443920312098e+01 0.0 
3.056237977307e+01 -1.487132260174e+01 0.0 
1.866469084762e+01 -8.742953000418e+00 0.0 
1.953669694916e+01 -8.326038909849e+00 0.0 
1.874194303780e+01 -7.780688158966e+00 0.0 
1.961032016741e+01 -7.366854697285e+00 0.0 
1.881715755159e+01 -6.821102209649e+00 0.0 
1.968369797150e+01 -6.407747217358e+00 0.0 
1.889237123259e+01 -5.858375520026e+00 0.0 
1.802038875366e+01 -6.276202618170e+00 0.0 
1.809793837984e+01 -5.307629520489e+00 0.0 
1.721985207997e+01 -5.728242054488e+00 0.0 
1.729850893523e+01 -4.756990819347e+00 0.0 
1.641745664240e+01 -5.174636548624e+00 0.0 
2.495978509456e+01 -1.304406404294e+01 0.0 
1.911567814831e+01 -1.413854250293e+01 0.0 
1.904387332608e+01 -1.511463127723e+01 0.0 
1.992115934240e+01 -1.468788025898e+01 0.0 
7.013706899628e+00 -4.812582868662e+00 0.0 
5.342091874585e+00 -1.513658157269e+01 0.0 
1.139098043784e+01 -1.509488509480e+01 0.0 
1.228151810610e+01 -1.465617481983e+01 0.0 
1.646373110164e+01 -1.541993323337e+01 0.0 
5.293328636712e+00 -4.678385108584e+00 0.0 
1.975965862987e+01 -5.448124345648e+00 0.0 
2.054318374236e+01 -5.992561293251e+00 0.0 
3.721453439063e+01 -1.533216152738e+01 0.0 
3.809302733893e+01 -1.489235527381e+01 0.0 
1.220852788900e+01 -1.565304565230e+01 0.0 
4.394120899730e+00 -5.108397613210e+00 0.0 
8.779354620288e+00 -1.539524721159e+01 0.0 
1.817791047702e+01 -4.338570146253e+00 0.0 
4.518860013839e+00 -1.457343189307e+01 0.0 
4.442712140414e+00 -1.556841391069e+01 0.0 
8.115343466391e+00 -1.285760324283e+01 0.0 
1.985334703171e+01 -1.566478400426e+01 0.0 
2.071953850276e+01 -1.522074243119e+01 0.0 
1.634012953883e+01 -6.154777738301e+00 0.0 
1.553479994708e+01 -5.593730508879e+00 0.0 
1.561265946942e+01 -4.617761762647e+00 0.0 
1.470674212978e+01 -5.064576488228e+00 0.0 
1.464498299883e+01 -6.026514471420e+00 0.0 
1.383271561817e+01 -5.467796261169e+00 0.0 
1.389241253067e+01 -4.504338666645e+00 0.0 
1.301868735463e+01 -4.907185188626e+00 0.0 
1.294514184846e+01 -5.888160903592e+00 0.0 
1.212955968622e+01 -5.328262335277e+00 0.0 
1.220721122383e+01 -4.341264976687e+00 0.0 
1.131324345897e+01 -4.766773516508e+00 0.0 
5.266597955397e+00 -1.613148974258e+01 0.0 
1.737805990867e+01 -3.786677807525e+00 0.0 
3.078438094513e+01 -1.203225297748e+01 0.0 
1.131569882285e+01 -1.608511932110e+01 0.0 
1.728478341782e+01 -1.596017432313e+01 0.0 
3.803465906019e+01 -1.587509751228e+01 0.0 
3.891681276677e+01 -1.543395196905e+01 0.0 
3.897340985302e+01 -1.444710288980e+01 0.0 
3.980095968193e+01 -1.499059496613e+01 0.0 
3.974334598189e+01 -1.597921884150e+01 0.0 
4.062964983717e+01 -1.553518690417e+01 0.0 
4.068729602479e+01 -1.454434445295e+01 0.0 
4.151772679790e+01 -1.508974196007e+01 0.0 
4.157505195739e+01 -1.409694289912e+01 0.0 
4.240699932656e+01 -1.464347955968e+01 0.0 
4.234898051011e+01 -1.563721375790e+01 0.0 
4.323934606035e+01 -1.519082036405e+01 0.0 
4.329740528208e+01 -1.419587509788e+01 0.0 
4.413056841369e+01 -1.474359631875e+01 0.0 
4.418850110108e+01 -1.374786684042e+01 0.0 
4.502219770667e+01 -1.429605103525e+01 0.0 
4.496411937907e+01 -1.529215882720e+01 0.0 
4.490027319897e+00 -4.154167794594e+00 0.0 
1.565080385988e+01 -1.486411982419e+01 0.0 
1.557610691279e+01 -1.584855627870e+01 0.0 
4.195350646612e+00 -8.089117689096e+00 0.0 
4.124027797830e+00 -9.082831955007e+00 0.0 
4.917944318925e+00 -9.643530901533e+00 0.0 
4.020105689502e+00 -1.007439673661e+01 0.0 
4.587185899277e+01 -1.484039992728e+01 0.0 
4.580078661551e+01 -1.584043391042e+01 0.0 
2.061956522375e+01 -5.046701343981e+00 0.0 
2.139572955529e+01 -5.579553449826e+00 0.0 
3.715344357292e+01 -1.631485124583e+01 0.0 
3.618886196443e+00 -1.500471207167e+01 0.0 
3.695606940204e+00 -1.400939692294e+01 0.0 
2.438890661143e+01 -9.686110599723e+00 0.0 
2.523267572778e+01 -9.276766000622e+00 0.0 
2.446094171539e+01 -8.751904591412e+00 0.0 
2.529089822738e+01 -8.321495612547e+00 0.0 
2.606882688827e+01 -8.864724051119e+00 0.0 
2.452116646430e+01 -7.792756462004e+00 0.0 
1.235543269617e+01 -1.365845617339e+01 0.0 
4.318116874181e+01 -1.618567469992e+01 0.0 
7.835066111909e+00 -5.376366223896e+00 0.0 
7.905687335704e+00 -4.382539065697e+00 0.0 
3.542640009567e+00 -1.600035116542e+01 0.0 
1.572431503071e+01 -1.388358386695e+01 0.0 
2.574684696680e+01 -1.357896141127e+01 0.0 
2.488842657651e+01 -1.399674354505e+01 0.0 
2.568301775611e+01 -1.453552048595e+01 0.0 
2.481535572009e+01 -1.495542756508e+01 0.0 
2.561729699688e+01 -1.549784648532e+01 0.0 
2.474623061296e+01 -1.592058894178e+01 0.0 
2.394234041695e+01 -1.537572575827e+01 0.0 
2.065825452567e+01 -1.621899055217e+01 0.0 
2.387180528935e+01 -1.634552264687e+01 0.0 
4.585364400844e+01 -1.383912334080e+01 0.0 
1.998744432052e+01 -1.370317155541e+01 0.0 
1.205356951443e+01 -6.313580285498e+00 0.0 
5.396543905849e+00 -3.731818611283e+00 0.0 
1.139652573295e+01 -3.745819399350e+00 0.0 
3.574124306703e+00 -4.551456826011e+00 0.0 
3.494140761930e+00 -5.539787055649e+00 0.0 
1.213651452413e+01 -1.664505033022e+01 0.0 
2.555045568519e+01 -1.646529356744e+01 0.0 
2.641671114986e+01 -1.603899382371e+01 0.0 
2.612920721894e+01 -7.906435260873e+00 0.0 
2.690339829698e+01 -8.456969591431e+00 0.0 
1.978024383368e+01 -1.664410216353e+01 0.0 
3.732829979082e+01 -1.336926601859e+01 0.0 
4.074336584605e+01 -1.355133328401e+01 0.0 
4.163204691081e+01 -1.310280943992e+01 0.0 
3.773826114429e+00 -3.493444309145e+00 0.0 
1.228783001032e+01 -3.374822835872e+00 0.0 
4.057110462520e+01 -1.652588478000e+01 0.0 
2.132535497898e+01 -6.523623360525e+00 0.0 
2.216932532211e+01 -6.110044769206e+00 0.0 
1.825781152128e+01 -3.370146817147e+00 0.0 
1.745679445888e+01 -2.812942552063e+00 0.0 
4.666517057280e+01 -1.539981381543e+01 0.0 
4.660575894464e+01 -1.639014410186e+01 0.0 
4.838230979954e+00 -1.063643436446e+01 0.0 
3.938942630206e+00 -1.106778981745e+01 0.0 
1.302967218620e+01 -1.621373452436e+01 0.0 
1.049548003190e+01 -4.204825123240e+00 0.0 
4.573571907195e+01 -1.683820511148e+01 0.0 
1.483686335807e+01 -1.430849689310e+01 0.0 
1.490982658890e+01 -1.332679386284e+01 0.0 
3.190805600162e+00 -9.510968358545e+00 0.0 
2.146625721848e+01 -4.642437303115e+00 0.0 
2.069866208266e+01 -4.111852942193e+00 0.0 
1.286859345584e+01 -6.873252723348e+00 0.0 
1.041794493184e+01 -5.194814260291e+00 0.0 
2.671081808965e+00 -4.976806516331e+00 0.0 
1.295786792925e+01 -1.720506531799e+01 0.0 
3.968438206511e+01 -1.696869067241e+01 0.0 
2.308550456051e+01 -1.579963151273e+01 0.0 
2.315593682844e+01 -1.482967445235e+01 0.0 
2.299471449450e+01 -1.677069968132e+01 0.0 
1.057344714696e+01 -3.214252277840e+00 0.0 
1.124057603753e+01 -1.707713739755e+01 0.0 
2.718402535754e+00 -1.543629882103e+01 0.0 
2.638549692805e+01 -1.696744916809e+01 0.0 
2.723416349007e+01 -1.658104204545e+01 0.0 
2.210193351704e+01 -7.046769643417e+00 0.0 
2.295180925161e+01 -6.657397605239e+00 0.0 
2.301355235833e+01 -5.709111896800e+00 0.0 
2.379052718281e+01 -6.254965406962e+00 0.0 
3.243528601237e+01 -1.214181853533e+01 0.0 
2.287977995457e+01 -7.583722368300e+00 0.0 
2.999876029544e+01 -1.150837653096e+01 0.0 
3.084435366963e+01 -1.109693775882e+01 0.0 
3.006650579669e+01 -1.057778994262e+01 0.0 
2.683802665066e+01 -9.386863216633e+00 0.0 
2.768641973621e+01 -8.988883915666e+00 0.0 
2.040296980397e+01 -7.903629133404e+00 0.0 
1.925235024054e+01 -1.218872783130e+01 0.0 
5.735667000424e+00 -1.020577277283e+01 0.0 
6.396559909872e+00 -1.272326295703e+01 0.0 
1.161199420714e+01 -1.212812778229e+01 0.0 
4.229046132615e+01 -1.663084237572e+01 0.0 
4.312275399692e+01 -1.718087491556e+01 0.0 
4.335502068163e+01 -1.320039231514e+01 0.0 
4.424630298089e+01 -1.275160688731e+01 0.0 
7.090116643816e+00 -3.818998061530e+00 0.0 
7.989472176569e+00 -3.389238711200e+00 0.0 
9.085824861778e+00 -1.144036167408e+01 0.0 
1.041972423731e+01 -1.651614080893e+01 0.0 
3.797525112640e+01 -1.686052038746e+01 0.0 
3.709114253394e+01 -1.730125999865e+01 0.0 
3.626966748340e+01 -1.675477052919e+01 0.0 
1.385164591440e+01 -1.677597757552e+01 0.0 
1.787152588784e+01 -8.198993896093e+00 0.0 
1.668849729812e+01 -1.248560611628e+01 0.0 
1.659546177905e+01 -3.232482605530e+00 0.0 
2.332214717345e+01 -1.292598167641e+01 0.0 
7.168238450786e+00 -2.824711686516e+00 0.0 
2.894878403906e+01 -1.475427524446e+01 0.0 
2.646763248247e+00 -1.643270107952e+01 0.0 
3.467431944285e+00 -1.699648837348e+01 0.0 
2.059475877282e+01 -1.719473628526e+01 0.0 
3.333868355437e+01 -1.080596971682e+01 0.0 
2.246451062637e+01 -1.334557761546e+01 0.0 
2.167821896388e+01 -1.280847834858e+01 0.0 
3.089653185767e+01 -1.017198487212e+01 0.0 
3.012604365669e+01 -9.657298805968e+00 0.0 
2.929627299435e+01 -1.006100135274e+01 0.0 
2.936201435219e+01 -9.136748899251e+00 0.0 
1.198219052702e+01 -7.291887238230e+00 0.0 
1.116702076035e+01 -6.731976101053e+00 0.0 
2.551388807505e+01 -1.746927036981e+01 0.0 
2.378639090370e+01 -1.728678807149e+01 0.0 
2.718543627188e+01 -1.748668016909e+01 0.0 
2.804681050301e+01 -1.712626668293e+01 0.0 
1.970737034667e+01 -1.762317646822e+01 0.0 
1.889535776135e+01 -1.707158098231e+01 0.0 
2.593777711283e+00 -5.971157087874e+00 0.0 
2.773468281110e+01 -8.067164273938e+00 0.0 
4.051205884347e+01 -1.751819982458e+01 0.0 
3.166903145421e+01 -1.068032992414e+01 0.0 
1.033042452886e+01 -1.748285844336e+01 0.0 
9.519274604626e+00 -1.694349240233e+01 0.0 
1.668308673328e+01 -2.255861778986e+00 0.0 
1.570531902832e+01 -2.676795860126e+00 0.0 
4.655826903379e+01 -1.736656245706e+01 0.0 
2.384148070773e+01 -5.328744256413e+00 0.0 
2.460255123641e+01 -5.852182672816e+00 0.0 
2.306638135119e+01 -4.798935440613e+00 0.0 
8.467720450578e-01 -1.849576263072e+01 0.0 
4.849657322345e+01 -1.084860705506e+01 0.0 
2.565860899507e+00 -1.742859793981e+01 0.0 
2.764418872564e+01 -9.927142821799e+00 0.0 
4.565165880064e+01 -1.785336695404e+01 0.0 
2.162231831329e+01 -1.376528337468e+01 0.0 
2.360646352969e+01 -9.136041963102e+00 0.0 
1.392738739903e+01 -1.578285505772e+01 0.0 
4.756405947478e+01 -1.683706841809e+01 0.0 
4.740895034054e+01 -1.793766756892e+01 0.0 
4.080779328826e+01 -1.257387192544e+01 0.0 
4.168907939671e+01 -1.210739129181e+01 0.0 
3.991197722154e+01 -1.300815793917e+01 0.0 
1.905536506762e+01 -3.940076697685e+00 0.0 
1.923879596617e+01 -2.875000734166e+00 0.0 
4.401386745746e+01 -1.673483229438e+01 0.0 
4.247233362525e+00 -7.094581653070e+00 0.0 
3.286051630211e+00 -7.635300020553e+00 0.0 
9.609533347623e+00 -4.594311677967e+00 0.0 
9.523554636369e+00 -5.595597029530e+00 0.0 
5.660336628893e+00 -1.119290329628e+01 0.0 
6.558070063295e+00 -1.076385809362e+01 0.0 
2.809866407414e+01 -1.518037766799e+01 0.0 
2.888868674504e+01 -1.570360690070e+01 0.0 
2.654431550819e+01 -1.411217777162e+01 0.0 
1.402158265969e+01 -1.375404617952e+01 0.0 
1.409592494026e+01 -1.277071998942e+01 0.0 
1.499355196178e+01 -1.235270737023e+01 0.0 
4.221535326155e+01 -1.759335617494e+01 0.0 
4.305583287033e+01 -1.822663146802e+01 0.0 
1.280748808359e+01 -7.834332838285e+00 0.0 
1.368988389326e+01 -7.420529606172e+00 0.0 
1.110091796060e+01 -7.683966794328e+00 0.0 
3.963446145980e+01 -1.794331310122e+01 0.0 
3.423932362213e+00 -1.796415590455e+01 0.0 
4.280814572302e+00 -1.752272834860e+01 0.0 
8.050136380041e+00 -2.421582378631e+00 0.0 
8.888674091650e+00 -2.984264211327e+00 0.0 
2.152839430898e+01 -3.732609965436e+00 0.0 
2.077799585292e+01 -3.183896021866e+00 0.0 
3.618719395821e+01 -1.770276572576e+01 0.0 
3.538165138340e+01 -1.718709995539e+01 0.0 
3.702925326420e+01 -1.828844288807e+01 0.0 
1.756739438711e+00 -5.353284859169e+00 0.0 
2.233710191104e+01 -1.527265621324e+01 0.0 
1.389483555057e+01 -1.771797164730e+01 0.0 
1.475634224300e+01 -1.728357428390e+01 0.0 
1.298797563052e+01 -1.825968924755e+01 0.0 
2.145331271866e+01 -1.673705379077e+01 0.0 
2.133282821169e+01 -1.769400773673e+01 0.0 
2.292139194136e+01 -1.774915400288e+01 0.0 
1.750750053243e+01 -1.861475593469e+00 0.0 
4.830478841772e+01 -1.752611802221e+01 0.0 
4.341203507805e+01 -1.220326745522e+01 0.0 
1.685254151866e+01 -1.443085301632e+00 0.0 
4.431538535165e+01 -1.171841387375e+01 0.0 
4.511308610496e+01 -1.229557320599e+01 0.0 
4.510133242889e+01 -1.123680627466e+01 0.0 
1.846818030617e+00 -4.410877617069e+00 0.0 
3.995468694584e+01 -1.186571542989e+01 0.0 
3.901387459804e+01 -1.242507616755e+01 0.0 
8.966735877533e+00 -1.837818700423e+00 0.0 
4.049310011091e+01 -1.848269508791e+01 0.0 
7.278862053803e+00 -1.918523922691e+00 0.0 
6.429715522129e+00 -2.316676521184e+00 0.0 
9.443505505022e+00 -1.792198868094e+01 0.0 
8.620386951051e+00 -1.737590365556e+01 0.0 
8.571868171503e+00 -1.834436667826e+01 0.0 
7.758629848526e+00 -1.775677907213e+01 0.0 
7.806648388584e+00 -1.680761266021e+01 0.0 
6.908555145436e+00 -1.723746463044e+01 0.0 
4.251709122090e+01 -1.156937480156e+01 0.0 
6.931136405615e+00 -1.832465719263e+01 0.0 
6.015545461353e+00 -1.768865355295e+01 0.0 
5.960535926343e+00 -1.872011001764e+01 0.0 
3.023253444786e+01 -8.761960642196e+00 0.0 
2.454622702599e+01 -6.749421992767e+00 0.0 
2.537499741604e+01 -6.347634963783e+00 0.0 
2.544077378460e+01 -5.431358513649e+00 0.0 
2.801367161747e+01 -1.820907270221e+01 0.0 
2.884507806914e+01 -1.762032095326e+01 0.0 
1.821474531936e+00 -1.588901260460e+01 0.0 
1.821006262604e+00 -1.489370287756e+01 0.0 
4.599962488908e+01 -1.176478780598e+01 0.0 
4.705457470007e+01 -1.172182804229e+01 0.0 
4.667668314802e+01 -1.263464558483e+01 0.0 
4.759648056504e+01 -1.252380987933e+01 0.0 
4.728041618103e+01 -1.341928568376e+01 0.0 
4.825209352360e+01 -1.330491640804e+01 0.0 
4.778118233428e+01 -1.420151961695e+01 0.0 
2.388192727579e+01 -1.826934810142e+01 0.0 
2.381714684947e+01 -4.385917965223e+00 0.0 
3.172733219247e+01 -9.758744265248e+00 0.0 
1.882012070658e+01 -1.805540597212e+01 0.0 
1.805667505243e+01 -1.742221226236e+01 0.0 
2.852599958080e+01 -8.597196079481e+00 0.0 
2.856486123437e+01 -7.661382718527e+00 0.0 
1.111792842875e+01 -1.818223852980e+01 0.0 
2.203322722466e+01 -7.986646678802e+00 0.0 
3.955703676900e+01 -1.903246763601e+01 0.0 
1.944842206513e+01 -8.038750575182e-01 0.0 
1.909882767783e+01 -1.746322740933e+00 0.0 
2.281147422941e+01 -8.525912918334e+00 0.0 
2.850633001468e+01 -9.533271335986e+00 0.0 
2.532883344309e+01 -7.308951659710e+00 0.0 
2.620475466461e+01 -6.979208585400e+00 0.0 
1.396278270396e+01 -1.475095389807e+01 0.0 
9.791001166724e+00 -2.554159793552e+00 0.0 
2.229293380421e+01 -4.269762271052e+00 0.0 
4.677238984118e+01 -1.430071795514e+01 0.0 
2.228658385918e+01 -3.344747535984e+00 0.0 
8.940223674553e-01 -1.543595733415e+01 0.0 
2.118566862474e+01 -8.435876987696e+00 0.0 
2.678325936437e+01 -1.032621195706e+01 0.0 
2.223400220487e+01 -5.179046761770e+00 0.0 
2.375370625384e+01 -7.251580562134e+00 0.0 
3.156971327386e+01 -1.255534750737e+01 0.0 
3.328226391312e+01 -1.172914813316e+01 0.0 
3.250948774219e+01 -1.120157009348e+01 0.0 
2.032993445717e+01 -8.867880112202e+00 0.0 
2.697226974856e+01 -7.536633082045e+00 0.0 
2.707377810386e+01 -6.590835263295e+00 0.0 
2.914099246827e+01 -1.191678458549e+01 0.0 
3.544824072239e+01 -1.621126558525e+01 0.0 
3.456511855436e+01 -1.665054783843e+01 0.0 
3.448395810225e+01 -1.759117813016e+01 0.0 
3.368378673938e+01 -1.708037781328e+01 0.0 
3.375560452567e+01 -1.610973066913e+01 0.0 
3.288001547988e+01 -1.654324255651e+01 0.0 
3.282475929147e+01 -1.749725654692e+01 0.0 
3.199880906313e+01 -1.697294088625e+01 0.0 
3.197001272932e+01 -1.811667776864e+01 0.0 
3.111884713021e+01 -1.742166785755e+01 0.0 
3.120418962865e+01 -1.642155709385e+01 0.0 
3.034666704371e+01 -1.683123833816e+01 0.0 
3.026224379976e+01 -1.772592851714e+01 0.0 
3.046632362943e+01 -1.582232843075e+01 0.0 
1.961344017324e+01 -1.857459447985e+01 0.0 
2.274975894774e+01 -9.532738811922e+00 0.0 
1.833923246887e+01 -2.396746883672e+00 0.0 
1.988859500848e+01 -2.249244376594e+00 0.0 
2.758045562861e+01 -1.086434261689e+01 0.0 
3.247300178163e+01 -1.909930104252e+01 0.0 
3.461947482503e+01 -1.911879848019e+01 0.0 
2.047161538662e+01 -6.941478180358e+00 0.0 
2.750230940214e+01 -1.915490590764e+01 0.0 
3.165081350803e+01 -1.161860780120e+01 0.0 
1.897456727641e+01 -4.889634688522e+00 0.0 
2.549338539756e+01 -1.914858252089e+01 0.0 
3.462873135081e+01 -1.567482276144e+01 0.0 
3.384432415243e+01 -1.512280684518e+01 0.0 
3.471433767690e+01 -1.469086942990e+01 0.0 
3.651470373046e+01 -1.918207952149e+01 0.0 
3.901742690249e+01 -1.345028556517e+01 0.0 
2.153224102692e+01 -1.920169709333e+01 0.0 
1.918382939341e+01 -1.316226275662e+01 0.0 
2.005389162382e+01 -1.271962165174e+01 0.0 
2.011472087878e+01 -1.175029352900e+01 0.0 
3.210679478412e+01 -1.598038618242e+01 0.0 
1.752175226543e+01 -1.914713022656e+01 0.0 
1.696897240059e+01 -1.832772588765e+01 0.0 
1.599682523337e+01 -1.832599992024e+01 0.0 
1.644507199462e+01 -1.743697981535e+01 0.0 
1.549987712903e+01 -1.915192375101e+01 0.0 
3.050250861901e+01 -1.918943550234e+01 0.0 
2.949944061527e+01 -1.922950455235e+01 0.0 
1.375892575273e+01 -6.447160534926e+00 0.0 
1.457223670180e+01 -7.006709243857e+00 0.0 
1.450818793236e+01 -7.965943451779e+00 0.0 
1.538804712402e+01 -7.553409623699e+00 0.0 
1.545817644768e+01 -6.580929593419e+00 0.0 
1.626506893751e+01 -7.129032608911e+00 0.0 
1.619833811522e+01 -8.086588580887e+00 0.0 
1.714448609609e+01 -6.697429609777e+00 0.0 
2.887616543568e+01 -1.668015232137e+01 0.0 
1.349814589130e+01 -1.918225301544e+01 0.0 
1.153887772210e+01 -1.311384581217e+01 0.0 
1.242708159886e+01 -1.267046795531e+01 0.0 
1.249799674267e+01 -1.169005616014e+01 0.0 
6.631723893693e+00 -9.774184881867e+00 0.0 
7.451471631867e+00 -1.033148796006e+01 0.0 
7.377795355458e+00 -1.132196345268e+01 0.0 
5.810931797536e+00 -9.211654212252e+00 0.0 
2.402683899133e+01 -1.441378562320e+01 0.0 
1.249768692036e+01 -1.917388426624e+01 0.0 
1.580373499437e+01 -1.290751860664e+01 0.0 
8.344650507834e+00 -9.898403995170e+00 0.0 
3.750622115305e+01 -1.086526401533e+01 0.0 
3.699391251667e+01 -1.171695900794e+01 0.0 
3.606517829518e+01 -1.173717504500e+01 0.0 
3.650257641795e+01 -1.270047380221e+01 0.0 
3.808951488918e+01 -1.183518714175e+01 0.0 
4.760380962420e+00 -1.162484888315e+01 0.0 
3.861210370848e+00 -1.205657631736e+01 0.0 
3.038284309476e+00 -1.149851280664e+01 0.0 
2.961598794889e+00 -1.248856794980e+01 0.0 
2.138953225512e+00 -1.193212674534e+01 0.0 
2.227383593457e+00 -1.096258903918e+01 0.0 
2.043265419276e+00 -1.292158472959e+01 0.0 
1.252449446028e+00 -1.225502002753e+01 0.0 
3.949985210740e+01 -1.086594001795e+01 0.0 
1.453499444792e+01 -8.768805922472e-01 0.0 
1.403518950933e+01 -1.749965556633e+00 0.0 
1.300715031023e+01 -1.714737233040e+00 0.0 
1.350929389899e+01 -2.527443911291e+00 0.0 
1.449600910711e+01 -2.595486162864e+00 0.0 
1.395693872901e+01 -3.484211041558e+00 0.0 
1.495105865208e+01 -3.364609636216e+00 0.0 
1.508822528740e+01 -1.766586020494e+00 0.0 
1.250223858430e+01 -8.634590186802e-01 0.0 
1.200279523409e+01 -1.709044504992e+00 0.0 
1.150086239419e+01 -8.592789190668e-01 0.0 
1.101482754194e+01 -1.677730591922e+00 0.0 
1.148018564526e+01 -2.659323866909e+00 0.0 
8.800552119754e+00 -3.989875954728e+00 0.0 
3.452790439430e+00 -1.901136170646e+01 0.0 
8.658451825200e-01 -9.503462241795e+00 0.0 
1.694787786797e+00 -9.000589234502e+00 0.0 
1.703436717094e+00 -8.038819004041e+00 0.0 
2.594197971110e+00 -8.563955242845e+00 0.0 
1.630513735412e+00 -9.907244747511e+00 0.0 
8.566859292791e-01 -7.512203837972e+00 0.0 
1.685461277022e+00 -7.164280248030e+00 0.0 
2.506394468801e+00 -8.623386730818e-01 0.0 
2.007475081581e+00 -1.727729545205e+00 0.0 
9.211534699767e-01 -1.628791366312e+00 0.0 
1.500000000020e+00 -2.598063549486e+00 0.0 
2.482078929963e+00 -2.553580088725e+00 0.0 
2.999795253092e+00 -1.732169015019e+00 0.0 
3.999712607169e+00 -1.728832897453e+00 0.0 
4.499752199340e+00 -8.656478679175e-01 0.0 
4.964377774841e+00 -1.730129617941e+00 0.0 
4.425017908337e+00 -2.597541756243e+00 0.0 
5.446573195014e+00 -8.410144840023e-01 0.0 
4.915722346614e+01 -1.550640962770e+01 0.0 
4.826794919243e+01 -1.600000000000e+01 0.0 
1.053139533193e+01 -1.911782884365e+01 0.0 
4.156049861949e+01 -1.095160998589e+01 0.0 
9.494526624416e+00 -8.650570090219e-01 0.0 
4.555762166964e+01 -1.897098103585e+01 0.0 
4.250656411371e+01 -1.914387356218e+01 0.0 
4.350906466345e+01 -1.917234727395e+01 0.0 
8.759665722424e-01 -1.746422130609e+01 0.0 
1.698936011838e+00 -1.795012186674e+01 0.0 
4.742476811029e+01 -1.900090177972e+01 0.0 
7.749196752349e+00 -6.368049313489e+00 0.0 
3.361572113416e+01 -1.798765193915e+01 0.0 
4.484660149212e+01 -1.728661231383e+01 0.0 
1.984038172228e+01 -4.502575320116e+00 0.0 
1.035080352627e+01 -6.166639575753e+00 0.0 
2.753558010652e+00 -1.444909521181e+01 0.0 
7.217069543032e+00 -1.328635391078e+01 0.0 
4.364336727739e+00 -1.655585677381e+01 0.0 
4.595208426108e+00 -1.357919665443e+01 0.0 
6.164967006980e+00 -1.569873454630e+01 0.0 
1.487855768353e+01 -1.826523774028e+01 0.0 
2.791876456372e+00 -4.019632415181e+00 0.0 
4.246464893515e+01 -1.364898659620e+01 0.0 
4.503855590351e+01 -1.329552780944e+01 0.0 
4.407239109604e+01 -1.573900004093e+01 0.0 
5.141054449252e+00 -6.664290382472e+00 0.0 
3.141083947149e+00 -1.055790764912e+01 0.0 
6.196463198741e+00 -4.256497932609e+00 0.0 
2.599618716181e+01 -1.836893455464e+01 0.0 
2.923057372337e+01 -1.098461757645e+01 0.0 
1.168343877486e+01 -1.114079645041e+01 0.0 
6.706222096238e+00 -8.780364234441e+00 0.0 
8.567858614669e+00 -6.943121440850e+00 0.0 
1.123755132901e+01 -5.753525820030e+00 0.0 
2.353456234423e+01 -1.008536320953e+01 0.0 
9.162073319168e+00 -1.045593739109e+01 0.0 
9.676343469685e+00 -1.496493008366e+01 0.0 
4.490637882905e+01 -1.628778970202e+01 0.0 
7.398129387772e+00 -9.639977982323e-01 0.0 
1.049641705805e+01 -1.552503975272e+01 0.0 
9.010356286268e+00 -1.242805042052e+01 0.0 
3.985573925497e+01 -1.399863651620e+01 0.0 
1.816196318262e+01 -1.554066497931e+01 0.0 
1.306332244168e+01 -3.963646550326e+00 0.0 
4.145850903932e+01 -1.608094559275e+01 0.0 
3.794664933633e+01 -1.779020121986e+01 0.0 
3.819614412903e+01 -1.290749321016e+01 0.0 
6.270014188119e+00 -3.255093186826e+00 0.0 
4.251165370388e+01 -1.263870364997e+01 0.0 
1.207347709171e+01 -1.763942826023e+01 0.0 
3.633240829927e+01 -1.577330481104e+01 0.0 
4.319052668832e+00 -6.101812561904e+00 0.0 
1.676492415806e+01 -1.151547901392e+01 0.0 
2.594059220037e+01 -1.074225223009e+01 0.0 
3.340750911501e+01 -9.898764354137e+00 0.0 
4.397619591281e+01 -1.769773736461e+01 0.0 
2.175611595028e+01 -1.185718747128e+01 0.0 
1.641818733106e+01 -1.640685203215e+01 0.0 
1.661211421753e+01 -1.346121366338e+01 0.0 
3.428853504935e+00 -6.551993389271e+00 0.0 
8.700728832502e+00 -1.638460872825e+01 0.0 
1.931369795309e+01 -1.121629383702e+01 0.0 
4.139798872363e+01 -1.706922153459e+01 0.0 
2.647837478700e+01 -1.507353829290e+01 0.0 
1.779469616424e+01 -9.161615782908e+00 0.0 
3.885879219319e+01 -1.642026488918e+01 0.0 
1.338194936770e+01 -1.125916521471e+01 0.0 
1.897071181111e+01 -1.609204322578e+01 0.0 
2.844308548793e+01 -1.046221003096e+01 0.0 
2.659854702194e+01 -1.316109415760e+01 0.0 
2.979604503271e+01 -1.433296157755e+01 0.0 
2.417694041347e+01 -1.251231397779e+01 0.0 
1.807401327411e+00 -1.388891148480e+01 0.0 
9.599810618782e+00 -1.595439365034e+01 0.0 
1.652144692160e+01 -4.205392788472e+00 0.0 
2.367839450246e+01 -8.188385218643e+00 0.0 
3.814894930468e+01 -1.390748338767e+01 0.0 
2.466448215774e+01 -1.685878545680e+01 0.0 
4.134044524611e+01 -1.806610045954e+01 0.0 
2.600511411958e+01 -9.801774120648e+00 0.0 
7.882158050716e+00 -1.582364037353e+01 0.0 
3.881607873422e+01 -1.737970515013e+01 0.0 
8.270182347708e+00 -1.088622154920e+01 0.0 
8.672520392520e-01 -4.532984309881e+00 0.0 
1.993447205337e+01 -3.579061902667e+00 0.0 
1.794616079549e+01 -7.238038888498e+00 0.0 
2.097277068165e+01 -1.132450168636e+01 0.0 
8.194803300681e+00 -1.187214224265e+01 0.0 
3.522279404911e+01 -1.823342818178e+01 0.0 
6.984481050295e+00 -1.625271465557e+01 0.0 
1.309433007797e+01 -1.521718594215e+01 0.0 
2.150246167611e+01 -1.885399038185e+00 0.0 
3.250689370209e+01 -1.028789870535e+01 0.0 
6.085886272238e+00 -1.668342132851e+01 0.0 
1.588455661727e+01 -1.193498985921e+01 0.0 
1.809323400821e+01 -1.651110084195e+01 0.0 
1.348885082381e+00 -1.136065576512e+01 0.0 
2.497670221995e+01 -1.834631276173e+01 0.0 
2.937062818424e+01 -8.233711194470e+00 0.0 
5.185823744469e+00 -1.711566910207e+01 0.0 
1.477497877209e+01 -1.530177014512e+01 0.0 
2.125346158933e+01 -7.473003997367e+00 0.0 
4.751561118290e+01 -1.084897772632e+01 0.0 
5.056026576843e+00 -1.825750475525e+01 0.0 
1.473948554523e+01 -1.634577436309e+01 0.0 
2.410566630936e+01 -1.345970002612e+01 0.0 
1.507337507513e+01 -1.138527895328e+01 0.0 
3.189857338687e+01 -8.887781229006e+00 0.0 
7.298712468334e+00 -1.230231046246e+01 0.0 
2.738235495295e+01 -1.368931690364e+01 0.0 
3.750141041969e+01 -1.920449893070e+01 0.0 
1.557271965640e+01 -1.683317951731e+01 0.0 
3.393731848929e+01 -1.413034777044e+01 0.0 
6.482156824153e+00 -1.174575135362e+01 0.0 
2.077971718439e+01 -1.421279621836e+01 0.0 
3.455084320178e+00 -2.562590040585e+00 0.0 
3.099056096250e+01 -9.270280416035e+00 0.0 
5.580176125418e+00 -1.217387969259e+01 0.0 
1.707247630389e+01 -7.660651981710e+00 0.0 
1.418658814174e+01 -1.180390575393e+01 0.0 
2.049103025389e+01 -1.811296706038e+01 0.0 
4.680386172316e+00 -1.260396879301e+01 0.0 
1.699679896554e+01 -8.624561788199e+00 0.0 
3.779470168555e+00 -1.303424899720e+01 0.0 
3.036589870126e+01 -7.879832518349e+00 0.0 
3.306993001774e+01 -1.457671062095e+01 0.0 
2.840150110165e+00 -1.346530088269e+01 0.0 
2.732011135052e+01 -1.464591214560e+01 0.0 
5.423639259568e+00 -2.659711955016e+00 0.0 
2.324455961696e+01 -1.387269388211e+01 0.0 
1.752768355571e+00 -1.693128613594e+01 0.0 
1.020244783051e+01 -8.076834012808e+00 0.0 
1.330873875224e+01 -1.222417528206e+01 0.0 
3.297727364880e+01 -1.555480372087e+01 0.0 
2.890929955439e+01 -6.868664170731e+00 0.0 
1.323294664622e+01 -1.320754260334e+01 0.0 
2.726532861246e+01 -1.560593120806e+01 0.0 
2.240020643398e+01 -1.429299177247e+01 0.0 
2.090445823633e+01 -1.228128621332e+01 0.0 
1.315809881502e+01 -1.420739326938e+01 0.0 
2.781328038068e+01 -7.181956082300e+00 0.0 
8.614200829057e+00 -5.936933226306e+00 0.0 
8.714765730069e+00 -4.979270529687e+00 0.0 
1.611881701099e+01 -9.041973294003e+00 0.0 
2.806830314340e+01 -1.614622947108e+01 0.0 
2.084435391396e+00 -3.385085422913e+00 0.0 
3.133211811152e+01 -1.542347619750e+01 0.0 
9.693114650768e+00 -3.590281506442e+00 0.0 
1.531883592202e+01 -8.504584946143e+00 0.0 
2.151589117094e+01 -1.578915763018e+01 0.0 
4.918943882696e+01 -1.355538828056e+01 0.0 
1.443236615188e+01 -8.918701794549e+00 0.0 
8.276250966452e-01 -5.537685192197e+00 0.0 
1.362790867918e+01 -8.374718262212e+00 0.0 
2.083767477370e+01 -1.324843956035e+01 0.0 
1.273834678703e+01 -8.790890389337e+00 0.0 
1.192275845670e+01 -8.242261327467e+00 0.0 
4.477236023583e+01 -1.824312396664e+01 0.0 
1.102989384254e+01 -8.649855800911e+00 0.0 
4.849096516045e+01 -1.917293752213e+01 0.0 
1.588996752238e+00 -1.910230934687e+01 0.0 
4.904245197583e+01 -1.159839008158e+01 0.0 
2.753852929608e+01 -5.782128488093e+00 0.0 
1.756133602833e+01 -8.306130313187e-01 0.0 
2.615423700951e+01 -6.153865090092e+00 0.0 
1.028818761294e+01 -7.122020845892e+00 0.0 
2.970818901196e+01 -1.527821347593e+01 0.0 
4.801461623449e+01 -1.164472570985e+01 0.0 
9.455722100419e+00 -6.546069291118e+00 0.0 
3.089099236677e+01 -1.835339328261e+01 0.0 
2.350000000013e+01 -1.920825896750e+01 0.0 
4.830620531887e+01 -1.506626155470e+01 0.0 
1.725381944701e+01 -1.688794487850e+01 0.0 
2.156246225273e+01 -1.475893794002e+01 0.0 
4.919319648787e+01 -1.742767505896e+01 0.0 
4.437935623576e+01 -1.077662927266e+01 0.0 
1.001520521978e+01 -1.652692675208e+00 0.0 
9.067160240050e-01 -1.441937727541e+01 0.0 
2.603365149390e+01 -4.755996613848e+00 0.0 
2.458344439002e+01 -4.873645517696e+00 0.0 
2.304312390142e+01 -3.836552768096e+00 0.0 
2.546923202198e+00 -6.902480355749e+00 0.0 
1.251534969393e+01 -2.490989965776e+00 0.0 
2.454061833377e+01 -3.933354231935e+00 0.0 
1.788186558740e+01 -1.827424884923e+01 0.0 
4.090785243552e+01 -1.166553231904e+01 0.0 
2.230128851568e+01 -1.623015738726e+01 0.0 
2.302362347568e+01 -2.916239960270e+00 0.0 
3.878119254461e+01 -1.830091164002e+01 0.0 
2.210081359958e+01 -1.829238229150e+01 0.0 
8.443704882233e+00 -1.921993252862e+01 0.0 
2.218405824691e+01 -1.724557581508e+01 0.0 
2.151157503963e+01 -2.790636689331e+00 0.0 
3.741658958955e+01 -1.250400191722e+01 0.0 
2.697247663737e+01 -1.838290202309e+01 0.0 
4.743362342862e+01 -1.585850773010e+01 0.0 
6.671345075358e+00 -1.924977576322e+01 0.0 
3.900825404537e+01 -1.157220003875e+01 0.0 
4.649692961375e+01 -1.836335837481e+01 0.0 
1.578831424832e+01 -3.678284023361e+00 0.0 
4.814208768888e+01 -1.841249298770e+01 0.0 
2.964123298315e+01 -1.625739458193e+01 0.0 
4.580760351902e+01 -1.284294554687e+01 0.0 
3.561520879615e+01 -1.245548941949e+01 0.0 
2.555418095658e+00 -1.841101588290e+01 0.0 
3.288468366144e+01 -1.834258164109e+01 0.0 
2.065894391445e+01 -2.240688571739e+00 0.0 
4.739171429915e+01 -1.496536413446e+01 0.0 
3.478086729185e+00 -8.576434653209e+00 0.0 
1.606010630246e+01 -1.588421807951e+00 0.0 
1.018329200594e+01 -1.834320874317e+01 0.0 
2.957213339430e+01 -1.720496954591e+01 0.0 
4.142712790164e+00 -1.837794506222e+01 0.0 
6.698721532573e-01 -2.499999999997e+00 0.0 
8.037039123140e+00 -1.571229354954e+00 0.0 
1.203541361428e+01 -1.847784298001e+01 0.0 
2.899968332038e+01 -1.848264722179e+01 0.0 
1.469229460948e+01 -4.219485753730e+00 0.0 
4.049590781957e+01 -1.932812501995e+01 0.0 
1.996211678340e+01 -1.506329754720e+00 0.0 
4.250588298353e+01 -1.067383247529e+01 0.0 
5.831497011152e+00 -1.635396227234e+00 0.0 
5.317606125670e+00 -1.923927974868e+01 0.0 
4.208546426993e+01 -1.842830665025e+01 0.0 
2.327553405011e+00 -9.459409929662e+00 0.0 
3.568351902251e+01 -1.096637218582e+01 0.0 
1.682104374890e+00 -6.231413350963e+00 0.0 
2.451812238018e+01 -1.766524914339e+01 0.0 
1.058003429638e+01 -2.391839617098e+00 0.0 
4.399988753123e+01 -1.851998776342e+01 0.0 
1.400000000010e+01 -1.852293523028e+01 0.0 
3.604719565984e+01 -1.850662876800e+01 0.0 
1.951297136734e+01 -1.938092349694e+01 0.0 
1.821365318472e+01 -1.531276353287e+00 0.0 
2.298031859732e+01 -1.854635324722e+01 0.0 
1.552168066204e+01 -1.764280741977e+01 0.0 
4.572957713638e+01 -1.073347898229e+01 0.0 
3.429637429624e+01 -1.838861552790e+01 0.0 
2.427434426052e+00 -7.705577451869e+00 0.0 
4.662792031485e+00 -3.359424455416e+00 0.0 
4.926794919243e+01 -1.926794919243e+01 0.0 
7.320508075690e-01 -7.320508075688e-01 0.0 
4.926794919243e+01 -1.073205080757e+01 0.0 
7.320508075705e-01 -1.926794919243e+01 0.0 
2.917460242467e+00 -3.202866455310e+00 0.0 
4.838200575963e+01 -1.232674147454e+01 0.0 
2.998445708009e+01 -1.854403752148e+01 0.0 
5.949940090766e-01 -1.152762038165e+01 0.0 
4.844763495759e+01 -1.678092548787e+01 0.0 
1.301685480160e+01 -3.170056592566e+00 0.0 
1.650046335855e+01 -6.731535384067e-01 0.0 
4.854881540991e+01 -1.405224059779e+01 0.0 
2.119545114693e+01 -1.846813384545e+01 0.0 
3.797852849897e+01 -1.857978513215e+01 0.0 
4.649823708745e+01 -1.338351810816e+01 0.0 
2.012685900976e+01 -2.889659035009e+00 0.0 
2.953271913273e+01 -1.791558075192e+01 0.0 
2.408509097292e+00 -1.021949208421e+01 0.0 
2.642589566221e+01 -1.773216561448e+01 0.0 
1.730010270775e+01 -1.763165076721e+01 0.0 
2.017406551304e+01 -8.513536440582e-01 0.0 
5.254761581934e-01 -1.249999999999e+01 0.0 
6.640448215642e+00 -1.545337834885e+00 0.0 
7.843361506349e+00 -1.852719839527e+01 0.0 
1.588442191088e+00 -1.066158564320e+01 0.0 
2.280866189488e+01 -1.416779325160e+00 0.0 
4.950862068966e+01 -1.500000000000e+00 0.0 
2.431250000000e+01 -2.420918367347e+00 0.0 
4.950961538461e+01 -2.500000000000e+00 0.0 
2.580823483239e+01 -3.416278049680e+00 0.0 
4.950961538461e+01 -3.500000000000e+00 0.0 
2.731250000000e+01 -4.420918367347e+00 0.0 
4.951086956522e+01 -4.500000000000e+00 0.0 
2.880770112393e+01 -5.415638864241e+00 0.0 
4.951086956522e+01 -5.500000000000e+00 0.0 
3.031250000000e+01 -6.420918367347e+00 0.0 
4.951250000000e+01 -6.500000000000e+00 0.0 
3.180701530612e+01 -7.414795918363e+00 0.0 
4.951250000000e+01 -7.500000000000e+00 0.0 
3.331250000000e+01 -8.420918367347e+00 0.0 
4.951470588234e+01 -8.500000000000e+00 0.0 
3.480610198624e+01 -9.413633635267e+00 0.0 
4.951470588234e+01 -9.500000000000e+00 0.0 

CELLS 2360 9440 
3 384 854 1130 
3 854 384 1132 
3 864 357 875 
3 977 742 1166 
3 744 804 970 
3 834 747 873 
3 364 786 788 
3 384 811 1132 
3 786 364 804 
3 737 972 1166 
3 356 931 932 
3 811 384 1146 
3 976 1128 1172 
3 793 924 1014 
3 1128 390 1172 
3 383 977 1166 
3 792 363 933 
3 747 834 872 
3 371 791 1113 
3 791 371 1051 
3 972 737 1125 
3 1102 348 1108 
3 829 1102 1108 
3 779 778 988 
3 478 634 923 
3 931 356 1040 
3 114 82 1193 
3 823 349 1065 
3 476 478 923 
3 988 778 1198 
3 728 938 940 
3 381 794 971 
3 864 875 1173 
3 19 369 844 
3 379 798 800 
3 807 66 1164 
3 66 807 1190 
3 826 375 870 
3 790 105 1143 
3 105 790 1204 
3 1066 808 1092 
3 344 830 969 
3 1147 345 1151 
3 82 393 1193 
3 785 392 1142 
3 824 1147 1151 
3 938 728 941 
3 392 785 1168 
3 934 935 941 
3 924 793 1165 
3 386 829 1066 
3 776 791 1051 
3 554 1167 1185 
3 386 1066 1092 
3 876 358 1056 
3 1149 721 1194 
3 776 1051 1120 
3 369 814 844 
3 637 965 1083 
3 972 383 1166 
3 343 1177 1218 
3 1157 783 1159 
3 603 631 837 
3 1167 940 1185 
3 948 767 1172 
3 829 386 1102 
3 1177 787 1218 
3 357 864 1137 
3 664 625 946 
3 353 812 878 
3 1040 983 1094 
3 33 32 832 
3 823 1065 1195 
3 4 5 958 
3 955 1149 1194 
3 795 360 1046 
3 876 1056 1205 
3 843 1148 1155 
3 965 637 1207 
3 1148 385 1155 
3 625 638 946 
3 363 792 1153 
3 348 854 1108 
3 854 348 1130 
3 804 744 1016 
3 786 804 1016 
3 815 1040 1145 
3 18 19 844 
3 869 866 1114 
3 744 970 1153 
3 971 794 1144 
3 395 922 1193 
3 968 1139 1163 
3 1163 1139 1175 
3 361 33 832 
3 870 375 1200 
3 792 933 1165 
3 969 830 1178 
3 389 821 1118 
3 837 631 838 
3 970 804 1188 
3 390 948 1172 
3 551 1117 1141 
3 782 1157 1159 
3 672 670 848 
3 935 938 941 
3 975 976 1098 
3 741 968 1163 
3 343 934 941 
3 1071 366 1190 
3 516 869 1114 
3 4 958 1209 
3 739 835 871 
3 706 1022 1060 
3 750 952 1176 
3 810 837 838 
3 605 603 837 
3 379 800 1158 
3 821 389 1213 
3 809 605 837 
3 840 770 1115 
3 393 395 1193 
3 968 741 1216 
3 605 809 848 
3 1160 1059 1174 
3 825 1075 1084 
3 952 750 1206 
3 1075 350 1084 
3 360 795 1186 
3 772 1160 1174 
3 931 1040 1094 
3 742 977 1168 
3 679 736 836 
3 350 808 1084 
3 798 379 1178 
3 976 733 1128 
3 815 983 1040 
3 836 736 1036 
3 780 908 1198 
3 712 828 836 
3 762 973 974 
3 812 353 1184 
3 1014 924 1161 
3 621 593 842 
3 828 679 836 
3 808 350 1092 
3 736 874 1036 
3 848 674 1043 
3 364 788 1143 
3 835 470 871 
3 794 381 1182 
3 1129 1135 1213 
3 959 371 1113 
3 387 825 1060 
3 908 780 917 
3 809 672 848 
3 844 815 1145 
3 811 345 1147 
3 1117 777 1141 
3 370 816 817 
3 831 470 835 
3 814 369 1098 
3 664 840 1115 
3 976 735 1098 
3 851 724 879 
3 366 1071 1180 
3 1129 734 1135 
3 670 674 848 
3 1022 387 1060 
3 356 932 1229 
3 345 811 1146 
3 470 831 845 
3 593 644 842 
3 816 370 1204 
3 674 835 1043 
3 825 387 1075 
3 718 907 1112 
3 952 653 1176 
3 349 823 1138 
3 878 812 1162 
3 810 838 1132 
3 653 952 1192 
3 895 1025 1079 
3 828 712 1066 
3 811 810 1132 
3 851 706 1060 
3 835 739 1043 
3 359 972 1125 
3 482 891 1101 
3 369 975 1098 
3 824 385 1148 
3 680 845 1069 
3 866 891 1114 
3 81 115 833 
3 712 808 1066 
3 1068 740 1072 
3 964 1096 1189 
3 979 372 1205 
3 477 402 884 
3 1099 458 1126 
3 588 1068 1072 
3 922 395 1171 
3 923 634 1161 
3 778 780 1198 
3 1109 1000 1136 
3 846 417 874 
3 676 566 879 
3 483 477 884 
3 673 851 879 
3 724 851 1060 
3 622 1082 1122 
3 907 756 1112 
3 833 367 834 
3 838 854 1132 
3 838 631 853 
3 736 846 874 
3 891 861 1101 
3 747 746 1052 
3 740 839 1058 
3 790 816 1204 
3 845 831 1069 
3 536 1058 1107 
3 796 1006 1230 
3 882 483 884 
3 1006 352 1230 
3 964 965 1096 
3 385 824 1151 
3 1109 752 1110 
3 856 483 882 
3 752 751 1110 
3 732 841 847 
3 558 939 1011 
3 770 947 1115 
3 1025 588 1079 
3 724 676 879 
3 767 948 1180 
3 115 367 833 
3 641 671 847 
3 431 470 845 
3 829 828 1066 
3 839 740 1068 
3 807 1071 1190 
3 1093 482 1101 
3 540 522 877 
3 588 1072 1079 
3 1040 356 1145 
3 874 484 1036 
3 883 884 1080 
3 783 1157 1202 
3 431 845 852 
3 671 732 847 
3 401 673 849 
3 832 32 1186 
3 417 846 1021 
3 890 433 1029 
3 817 816 818 
3 946 638 1150 
3 673 850 851 
3 640 540 877 
3 746 880 981 
3 728 940 1167 
3 483 856 1018 
3 566 849 879 
3 605 848 1043 
3 856 695 1018 
3 891 482 1114 
3 484 855 997 
3 351 805 1164 
3 681 890 1029 
3 409 675 855 
3 739 871 1002 
3 681 889 890 
3 523 539 880 
3 921 362 922 
3 435 432 852 
3 552 903 904 
3 883 1093 1101 
3 115 116 367 
3 673 399 850 
3 522 520 877 
3 596 641 847 
3 525 523 880 
3 404 401 849 
3 794 840 1144 
3 632 722 853 
3 681 888 889 
3 849 673 879 
3 921 922 923 
3 642 747 872 
3 552 904 906 
3 553 556 903 
3 838 853 854 
3 883 1080 1093 
3 631 632 853 
3 518 435 852 
3 845 680 852 
3 642 746 747 
3 871 427 1002 
3 771 841 843 
3 37 358 876 
3 39 372 875 
3 418 417 1021 
3 539 522 540 
3 595 596 654 
3 410 409 855 
3 539 540 595 
3 552 553 903 
3 484 997 1036 
3 973 762 1191 
3 877 680 1069 
3 1082 738 1122 
3 771 654 841 
3 376 57 896 
3 595 540 596 
3 415 484 874 
3 642 546 746 
3 918 611 1026 
3 432 431 852 
3 556 900 903 
3 675 566 676 
3 42 897 898 
3 520 518 680 
3 681 509 888 
3 655 654 771 
3 886 571 1009 
3 1058 839 1107 
3 671 672 730 
3 745 886 1009 
3 374 45 878 
3 648 740 1058 
3 41 357 897 
3 1014 634 1044 
3 869 516 1134 
3 732 730 824 
3 677 676 709 
3 409 566 675 
3 409 407 566 
3 485 1021 1047 
3 349 47 881 
3 476 923 1171 
3 850 706 851 
3 680 518 852 
3 751 947 1110 
3 709 724 825 
3 671 670 672 
3 370 817 1070 
3 556 899 900 
3 520 680 877 
3 860 882 883 
3 641 670 671 
3 675 676 677 
3 509 511 888 
3 684 911 998 
3 50 373 887 
3 712 710 808 
3 524 526 906 
3 765 1099 1126 
3 731 810 811 
3 730 672 731 
3 866 863 891 
3 415 413 484 
3 722 828 829 
3 677 709 710 
3 54 375 892 
3 375 826 1152 
3 863 861 891 
3 883 882 884 
3 911 451 998 
3 603 604 631 
3 523 522 539 
3 521 520 522 
3 417 415 874 
3 698 918 1026 
3 466 912 913 
3 859 857 860 
3 526 552 906 
3 600 485 601 
3 855 675 997 
3 602 601 603 
3 357 40 875 
3 372 38 876 
3 372 979 1173 
3 684 910 911 
3 695 597 1018 
3 671 730 732 
3 519 518 520 
3 746 546 880 
3 632 679 722 
3 920 921 924 
3 886 1014 1044 
3 896 894 988 
3 867 866 869 
3 401 399 673 
3 408 407 409 
3 546 525 880 
3 943 945 946 
3 470 429 871 
3 423 421 485 
3 429 427 871 
3 340 1059 1160 
3 817 818 819 
3 947 751 1115 
3 596 640 641 
3 57 56 896 
3 530 532 622 
3 394 706 850 
3 371 959 1181 
3 1021 846 1047 
3 431 429 470 
3 407 404 849 
3 353 43 898 
3 709 676 724 
3 413 410 855 
3 466 913 919 
3 857 856 882 
3 684 909 910 
3 44 353 878 
3 41 40 357 
3 37 36 358 
3 39 38 372 
3 406 404 407 
3 860 857 882 
3 865 863 866 
3 603 601 604 
3 631 604 632 
3 915 912 999 
3 859 860 861 
3 46 374 881 
3 774 695 856 
3 888 622 889 
3 774 856 857 
3 615 613 916 
3 423 485 600 
3 722 679 828 
3 595 654 655 
3 361 832 1156 
3 602 603 605 
3 996 715 1065 
3 912 466 999 
3 557 560 899 
3 376 896 988 
3 641 669 670 
3 42 41 897 
3 372 876 1205 
3 414 413 415 
3 943 944 945 
3 44 43 353 
3 341 892 893 
3 556 557 899 
3 511 530 888 
3 347 51 887 
3 123 342 944 
3 600 601 602 
3 412 410 413 
3 416 415 417 
3 484 413 855 
3 654 596 847 
3 46 45 374 
3 517 435 518 
3 643 642 872 
3 805 351 1231 
3 944 342 945 
3 711 710 712 
3 938 939 940 
3 825 724 1060 
3 341 55 892 
3 48 47 349 
3 566 407 849 
3 935 937 938 
3 784 643 872 
3 938 937 939 
3 1028 726 1041 
3 920 362 921 
3 396 394 850 
3 50 49 373 
3 378 920 924 
3 358 36 885 
3 618 615 916 
3 745 793 886 
3 731 809 810 
3 530 622 888 
3 746 981 1052 
3 52 51 347 
3 40 39 875 
3 38 37 876 
3 684 492 909 
3 487 489 915 
3 423 600 1002 
3 492 494 909 
3 54 53 375 
3 596 540 640 
3 903 902 904 
3 900 901 902 
3 635 745 1009 
3 58 376 908 
3 935 936 937 
3 56 55 341 
3 899 764 900 
3 43 42 898 
3 865 866 867 
3 122 123 944 
3 600 739 1002 
3 694 597 695 
3 45 44 878 
3 406 407 408 
3 661 618 662 
3 655 771 772 
3 894 893 895 
3 656 763 764 
3 900 764 901 
3 934 377 935 
3 47 46 881 
3 880 539 981 
3 648 696 740 
3 745 792 793 
3 982 714 1001 
3 900 902 903 
3 408 409 410 
3 51 50 887 
3 489 591 915 
3 500 536 606 
3 420 418 421 
3 759 652 760 
3 904 902 905 
3 909 606 910 
3 421 418 1021 
3 757 614 1031 
3 530 531 532 
3 422 421 423 
3 459 461 919 
3 641 640 669 
3 487 915 999 
3 662 618 916 
3 486 509 681 
3 56 341 896 
3 773 695 774 
3 657 982 1001 
3 55 54 892 
3 341 893 894 
3 428 427 429 
3 935 377 936 
3 59 908 917 
3 858 857 859 
3 560 656 899 
3 58 57 376 
3 494 500 909 
3 632 678 679 
3 399 396 850 
3 486 681 1029 
3 490 684 998 
3 652 611 918 
3 884 402 1080 
3 711 836 1036 
3 532 550 551 
3 819 818 820 
3 461 466 919 
3 511 513 530 
3 656 713 763 
3 683 505 984 
3 121 122 942 
3 670 669 674 
3 656 764 899 
3 912 754 913 
3 426 424 427 
3 500 606 909 
3 635 743 745 
3 560 623 656 
3 59 58 908 
3 412 413 414 
3 682 753 754 
3 414 415 416 
3 682 754 912 
3 942 122 944 
3 398 396 399 
3 951 950 952 
3 352 128 966 
3 591 646 682 
3 500 535 536 
3 980 650 1005 
3 760 918 1062 
3 760 652 918 
3 394 354 706 
3 378 112 920 
3 775 885 1078 
3 416 417 418 
3 128 129 966 
3 770 690 947 
3 936 942 943 
3 752 1109 1136 
3 668 718 1112 
3 748 980 1005 
3 545 1028 1041 
3 469 467 978 
3 507 505 683 
3 648 659 696 
3 565 546 642 
3 382 950 951 
3 355 954 955 
3 344 60 917 
3 60 59 917 
3 950 949 953 
3 682 646 753 
3 490 492 684 
3 696 778 779 
3 690 609 947 
3 543 628 648 
3 964 962 965 
3 591 682 915 
3 913 754 914 
3 368 961 962 
3 382 949 950 
3 694 695 773 
3 129 130 963 
3 113 362 920 
3 113 114 362 
3 611 515 1026 
3 355 10 954 
3 656 623 713 
3 841 654 847 
3 801 799 802 
3 881 374 996 
3 685 579 1012 
3 731 672 809 
3 794 770 840 
3 677 710 711 
3 109 363 970 
3 108 109 970 
3 129 963 966 
3 963 962 964 
3 957 959 960 
3 533 474 608 
3 368 956 961 
3 949 346 953 
3 343 119 934 
3 474 469 978 
3 822 820 842 
3 111 112 378 
3 718 813 907 
3 494 499 500 
3 819 820 821 
3 10 11 954 
3 957 960 961 
3 30 29 973 
3 360 30 973 
3 745 743 792 
3 363 110 933 
3 954 951 955 
3 28 359 974 
3 608 474 978 
3 112 113 920 
3 111 378 933 
3 709 825 1084 
3 36 35 885 
3 973 29 974 
3 368 962 963 
3 130 368 963 
3 769 690 770 
3 913 914 1050 
3 975 733 976 
3 118 119 343 
3 380 967 968 
3 120 377 934 
3 651 611 652 
3 120 121 377 
3 119 120 934 
3 758 652 759 
3 704 767 768 
3 821 820 822 
3 997 711 1036 
3 956 957 961 
3 506 507 986 
3 25 24 977 
3 383 25 977 
3 110 111 933 
3 587 515 611 
3 29 28 974 
3 661 662 777 
3 957 958 959 
3 956 391 957 
3 957 391 958 
3 11 12 382 
3 390 69 948 
3 80 79 392 
3 132 391 956 
3 13 346 949 
3 70 69 390 
3 68 366 948 
3 61 344 969 
3 76 365 967 
3 78 77 380 
3 69 68 948 
3 68 67 366 
3 380 77 967 
3 132 133 391 
3 106 107 364 
3 109 110 363 
3 368 131 956 
3 65 64 351 
3 379 62 969 
3 63 62 379 
3 131 132 956 
3 130 131 368 
3 61 60 344 
3 62 61 969 
3 76 75 365 
3 103 104 370 
3 77 76 967 
3 74 73 389 
3 101 102 734 
3 127 128 352 
3 125 126 381 
3 124 125 971 
3 123 124 342 
3 13 14 346 
3 12 13 949 
3 125 381 971 
3 16 17 356 
3 342 124 971 
3 34 33 361 
3 28 27 359 
3 31 30 360 
3 6 7 371 
3 9 10 355 
3 27 26 972 
3 19 20 369 
3 26 25 383 
3 20 21 975 
3 21 22 733 
3 382 12 949 
3 359 27 972 
3 26 383 972 
3 369 20 975 
3 21 733 975 
3 598 599 983 
3 377 121 942 
3 489 590 591 
3 963 964 966 
3 801 802 803 
3 682 912 915 
3 564 548 985 
3 533 608 609 
3 1096 797 1189 
3 704 768 985 
3 591 592 646 
3 382 951 954 
3 548 610 985 
3 741 742 785 
3 11 382 954 
3 536 535 543 
3 498 496 549 
3 598 547 599 
3 666 598 983 
3 517 518 519 
3 711 712 836 
3 427 424 1002 
3 506 505 507 
3 610 703 704 
3 814 666 815 
3 657 751 752 
3 729 650 737 
3 645 594 650 
3 790 789 816 
3 504 502 505 
3 547 506 986 
3 741 729 742 
3 645 729 741 
3 549 496 1008 
3 704 735 767 
3 607 579 685 
3 814 815 844 
3 805 803 806 
3 737 650 980 
3 584 582 585 
3 500 499 535 
3 544 626 627 
3 563 649 657 
3 769 770 794 
3 936 377 942 
3 645 650 729 
3 704 703 735 
3 943 942 944 
3 862 861 863 
3 788 688 789 
3 534 548 564 
3 610 666 703 
3 713 714 765 
3 703 666 814 
3 788 789 790 
3 530 513 531 
3 805 806 807 
3 776 658 791 
3 800 799 801 
3 593 585 594 
3 627 658 721 
3 657 752 982 
3 929 927 930 
3 581 583 687 
3 468 472 487 
3 644 594 645 
3 584 593 621 
3 753 646 925 
3 815 666 983 
3 610 598 666 
3 593 594 644 
3 586 538 624 
3 646 592 647 
3 619 705 781 
3 585 992 1005 
3 591 590 592 
3 498 549 984 
3 798 726 799 
3 584 585 593 
3 727 643 784 
3 701 796 797 
3 527 525 546 
3 610 704 985 
3 583 582 584 
3 931 929 932 
3 687 688 786 
3 648 628 659 
3 925 647 926 
3 548 598 610 
3 627 626 658 
3 801 803 805 
3 646 647 925 
3 721 658 776 
3 647 592 994 
3 487 488 489 
3 473 469 474 
3 928 929 931 
3 127 352 1006 
3 381 126 1006 
3 599 547 986 
3 544 586 626 
3 504 505 506 
3 505 502 984 
3 461 465 466 
3 560 561 623 
3 607 685 686 
3 873 747 1223 
3 489 589 590 
3 696 659 778 
3 626 586 637 
3 687 583 688 
3 786 688 788 
3 689 609 690 
3 725 692 726 
3 578 576 579 
3 544 538 586 
3 761 685 1030 
3 686 685 761 
3 481 538 544 
3 810 809 837 
3 475 474 533 
3 548 547 598 
3 926 927 928 
3 774 857 858 
3 607 686 748 
3 534 506 547 
3 504 506 534 
3 533 609 689 
3 534 547 548 
3 578 579 580 
3 928 927 929 
3 581 582 583 
3 580 579 607 
3 433 434 1029 
3 992 748 1005 
3 592 653 994 
3 926 647 927 
3 589 488 749 
3 463 460 464 
3 581 580 582 
3 455 457 490 
3 473 475 481 
3 701 690 769 
3 578 580 581 
3 473 474 475 
3 798 799 800 
3 585 582 992 
3 534 564 987 
3 341 894 896 
3 592 590 653 
3 481 475 538 
3 689 690 701 
3 503 502 504 
3 584 621 991 
3 701 769 796 
3 487 472 488 
3 791 658 989 
3 581 687 990 
3 489 488 589 
3 502 498 984 
3 589 749 750 
3 650 594 1005 
3 472 469 473 
3 497 501 545 
3 657 649 751 
3 501 498 502 
3 930 927 994 
3 503 504 987 
3 904 905 1086 
3 658 626 989 
3 789 688 991 
3 651 652 758 
3 601 485 1047 
3 583 584 991 
3 563 657 1001 
3 575 577 635 
3 626 637 989 
3 802 799 1028 
3 587 611 651 
3 532 531 550 
3 686 761 762 
3 490 491 492 
3 624 538 995 
3 495 493 496 
3 725 726 798 
3 713 623 714 
3 504 534 987 
3 582 580 992 
3 557 559 560 
3 497 496 498 
3 743 636 744 
3 627 721 1027 
3 468 469 472 
3 420 421 422 
3 501 502 503 
3 632 604 678 
3 422 423 424 
3 577 576 578 
3 688 583 991 
3 635 636 743 
3 927 647 994 
3 665 567 692 
3 492 493 494 
3 687 786 1016 
3 864 863 865 
3 551 550 619 
3 497 498 501 
3 580 607 992 
3 461 463 465 
3 465 467 468 
3 533 689 995 
3 494 495 499 
3 468 487 999 
3 577 578 990 
3 635 577 636 
3 437 439 486 
3 978 467 1000 
3 519 520 521 
3 468 467 469 
3 465 463 467 
3 475 533 995 
3 543 567 628 
3 456 454 458 
3 607 748 992 
3 452 454 455 
3 494 493 495 
3 490 457 491 
3 426 427 428 
3 538 475 995 
3 665 692 725 
3 665 725 830 
3 612 614 757 
3 461 460 463 
3 492 491 493 
3 578 581 990 
3 466 465 999 
3 600 602 739 
3 472 473 993 
3 623 561 1001 
3 459 460 461 
3 473 481 993 
3 544 627 1019 
3 491 457 691 
3 495 496 497 
3 630 667 668 
3 126 127 1006 
3 448 446 449 
3 452 450 453 
3 459 458 460 
3 636 577 990 
3 455 456 457 
3 488 472 993 
3 456 458 459 
3 594 585 1005 
3 749 488 993 
3 701 797 1015 
3 995 689 1015 
3 714 623 1001 
3 463 464 1000 
3 448 450 451 
3 455 454 456 
3 563 625 649 
3 624 995 1015 
3 886 793 1014 
3 993 481 1019 
3 543 535 567 
3 616 629 630 
3 400 399 401 
3 639 573 660 
3 668 717 718 
3 434 437 1029 
3 614 616 1031 
3 561 562 563 
3 459 919 1003 
3 430 429 431 
3 553 555 556 
3 625 562 638 
3 465 468 999 
3 452 453 454 
3 451 450 452 
3 749 993 1019 
3 455 490 998 
3 448 449 450 
3 444 446 447 
3 467 463 1000 
3 514 512 515 
3 575 576 577 
3 444 442 445 
3 628 567 665 
3 560 559 561 
3 778 659 780 
3 451 452 998 
3 718 812 813 
3 411 410 412 
3 561 563 1001 
3 403 401 404 
3 693 597 694 
3 451 911 1034 
3 674 831 835 
3 405 404 406 
3 485 421 1021 
3 563 562 625 
3 795 766 832 
3 649 625 664 
3 826 720 827 
3 980 748 1023 
3 537 515 587 
3 990 687 1016 
3 574 573 639 
3 447 446 448 
3 486 508 509 
3 723 660 766 
3 497 545 1004 
3 572 574 575 
3 651 758 839 
3 561 559 562 
3 572 570 573 
3 881 996 1065 
3 665 830 1017 
3 456 459 1003 
3 636 990 1016 
3 744 636 1016 
3 452 455 998 
3 499 495 1004 
3 535 499 1007 
3 689 701 1015 
3 521 522 523 
3 440 442 443 
3 444 445 446 
3 424 423 1002 
3 723 766 795 
3 859 861 862 
3 748 686 1023 
3 679 678 736 
3 569 541 597 
3 495 497 1004 
3 761 1030 1046 
3 542 570 571 
3 457 456 1003 
3 440 438 441 
3 572 573 574 
3 639 660 723 
3 579 576 1012 
3 575 574 576 
3 726 692 1041 
3 719 633 720 
3 692 567 1007 
3 496 493 1008 
3 808 710 1084 
3 514 537 568 
3 479 477 483 
3 481 544 1019 
3 443 442 444 
3 760 1062 1074 
3 509 510 511 
3 526 528 552 
3 440 441 442 
3 511 512 513 
3 677 711 997 
3 691 457 1003 
3 571 886 1044 
3 804 364 1188 
3 84 331 340 
3 493 491 1008 
3 537 587 588 
3 858 859 979 
3 486 439 508 
3 491 691 1008 
3 575 635 1009 
3 85 332 385 
3 514 515 537 
3 510 508 698 
3 675 677 997 
3 499 1004 1007 
3 556 555 557 
3 567 535 1007 
3 659 628 1017 
3 513 512 514 
3 576 574 1012 
3 620 618 661 
3 628 665 1017 
3 86 333 345 
3 571 572 1009 
3 781 705 782 
3 574 639 1012 
3 511 510 512 
3 439 438 440 
3 1081 753 1085 
3 565 642 643 
3 685 1012 1030 
3 1019 627 1027 
3 87 334 384 
3 617 615 618 
3 686 762 1023 
3 557 558 559 
3 419 418 420 
3 571 570 572 
3 1050 914 1055 
3 552 528 553 
3 674 669 831 
3 638 562 1011 
3 557 555 558 
3 559 558 1011 
3 509 508 510 
3 885 35 1078 
3 88 335 348 
3 799 726 1028 
3 436 435 517 
3 480 542 1044 
3 527 546 565 
3 780 659 1017 
3 562 559 1011 
3 750 749 1027 
3 531 513 1010 
3 448 451 1034 
3 619 633 705 
3 602 605 1043 
3 479 483 1018 
3 719 720 826 
3 572 575 1009 
3 859 862 979 
3 570 569 1033 
3 569 597 693 
3 539 595 981 
3 802 1028 1048 
3 542 569 570 
3 433 890 1054 
3 89 336 386 
3 719 826 870 
3 524 523 525 
3 749 1019 1027 
3 619 550 633 
3 371 7 1051 
3 425 424 426 
3 514 568 1010 
3 693 694 1013 
3 694 773 775 
3 513 514 1010 
3 660 573 1033 
3 434 432 435 
3 616 630 1031 
3 90 337 350 
3 865 867 868 
3 91 338 387 
3 339 91 1022 
3 437 486 1029 
3 82 339 354 
3 707 462 708 
3 428 429 430 
3 440 443 1020 
3 553 528 554 
3 437 438 439 
3 639 723 1030 
3 862 863 864 
3 545 501 1048 
3 705 633 719 
3 447 448 1034 
3 569 693 1033 
3 439 440 1020 
3 803 802 1057 
3 573 570 1033 
3 597 541 1018 
3 515 512 1026 
3 434 436 437 
3 630 629 667 
3 408 410 411 
3 553 554 555 
3 524 525 526 
3 739 602 1043 
3 416 418 419 
3 806 803 1061 
3 542 541 569 
3 437 436 438 
3 612 757 1037 
3 568 537 1025 
3 1012 639 1030 
3 668 667 717 
3 634 480 1044 
3 740 696 1072 
3 508 439 1020 
3 537 588 1025 
3 422 424 425 
3 766 660 1049 
3 718 717 812 
3 510 698 1026 
3 526 525 527 
3 620 661 663 
3 425 462 700 
3 434 435 436 
3 512 510 1026 
3 543 648 1058 
3 526 527 528 
3 698 508 1020 
3 403 404 405 
3 806 1061 1067 
3 405 406 516 
3 617 618 620 
3 400 401 403 
3 397 396 398 
3 411 412 471 
3 720 633 1035 
3 1028 545 1048 
3 480 541 542 
3 694 775 1013 
3 398 399 400 
3 517 519 697 
3 620 663 716 
3 1030 723 1046 
3 426 428 1024 
3 425 426 462 
3 436 517 1032 
3 541 479 1018 
3 678 604 1047 
3 707 708 738 
3 604 601 1047 
3 550 531 1035 
3 716 783 823 
3 441 438 1032 
3 565 643 699 
3 773 774 1056 
3 736 678 846 
3 1074 447 1087 
3 716 663 783 
3 480 479 541 
3 1004 545 1041 
3 430 431 432 
3 699 643 727 
3 1067 768 1071 
3 419 420 529 
3 532 551 1082 
3 667 629 715 
3 727 784 787 
3 1007 1004 1041 
3 640 877 1069 
3 478 480 634 
3 549 1055 1076 
3 438 436 1032 
3 803 1057 1061 
3 700 462 707 
3 517 697 1032 
3 419 529 612 
3 699 727 728 
3 614 615 616 
3 531 1010 1035 
3 813 812 1184 
3 616 617 629 
3 524 906 1053 
3 501 503 1048 
3 723 795 1046 
3 870 347 1088 
3 633 550 1035 
3 433 432 434 
3 612 613 614 
3 985 768 1067 
3 929 930 1064 
3 616 615 617 
3 542 571 1044 
3 802 1048 1057 
3 692 1007 1041 
3 103 370 1070 
3 734 102 1070 
3 403 405 482 
3 614 613 615 
3 683 984 1076 
3 411 471 702 
3 708 462 1024 
3 895 1079 1203 
3 430 432 433 
3 34 361 1078 
3 395 394 396 
3 462 426 1024 
3 549 1008 1055 
3 521 523 524 
3 691 1003 1050 
3 612 529 613 
3 414 416 1037 
3 478 479 480 
3 702 471 755 
3 702 755 756 
3 960 959 1113 
3 1003 919 1050 
3 846 678 1047 
3 406 408 1038 
3 516 406 1038 
3 827 720 1063 
3 7 8 1051 
3 554 528 1042 
3 420 422 1039 
3 919 913 1050 
3 91 387 1022 
3 354 339 1022 
3 478 477 479 
3 595 655 981 
3 1055 914 1076 
3 588 587 1068 
3 528 527 1042 
3 349 881 1065 
3 1033 693 1049 
3 754 753 1081 
3 1048 503 1057 
3 965 962 1083 
3 651 839 1068 
3 529 420 1039 
3 961 960 1083 
3 660 1033 1049 
3 527 565 1042 
3 408 411 1038 
3 416 419 1037 
3 444 447 1074 
3 910 606 1103 
3 693 1013 1049 
3 606 536 1107 
3 425 700 1039 
3 422 425 1039 
3 331 83 1059 
3 565 699 1042 
3 617 620 1045 
3 397 398 402 
3 620 716 1045 
3 669 640 1069 
3 861 860 1101 
3 715 629 1045 
3 706 354 1022 
3 629 617 1045 
3 503 987 1057 
3 916 613 1073 
3 691 1050 1055 
3 1008 691 1055 
3 774 858 1056 
3 911 910 1100 
3 419 612 1037 
3 890 889 1106 
3 536 543 1058 
3 1024 428 1054 
3 1053 906 1086 
3 918 698 1062 
3 697 519 1053 
3 411 702 1038 
3 697 1053 1086 
3 471 412 1077 
3 720 1035 1063 
3 1035 1010 1063 
3 428 430 1054 
3 476 477 478 
3 1057 987 1061 
3 987 564 1061 
3 655 772 1052 
3 471 1077 1095 
3 806 1067 1071 
3 722 829 1108 
3 683 1081 1085 
3 340 331 1059 
3 1061 564 1067 
3 521 524 1053 
3 932 929 1064 
3 1082 551 1141 
3 476 402 477 
3 397 402 476 
3 529 1039 1073 
3 90 350 1075 
3 387 338 1075 
3 564 985 1067 
3 1103 606 1107 
3 760 1074 1087 
3 587 651 1068 
3 1020 443 1062 
3 519 521 1053 
3 338 90 1075 
3 395 396 397 
3 102 103 1070 
3 1010 568 1063 
3 430 433 1054 
3 719 870 1088 
3 703 814 1098 
3 698 1020 1062 
3 807 806 1071 
3 1086 905 1090 
3 782 705 1088 
3 1039 700 1073 
3 662 916 1097 
3 696 779 1072 
3 460 458 1099 
3 1037 757 1077 
3 1062 443 1074 
3 414 1037 1077 
3 831 669 1069 
3 777 662 1105 
3 443 444 1074 
3 984 549 1076 
3 412 414 1077 
3 1174 388 1187 
3 889 622 1122 
3 843 340 1160 
3 624 1015 1096 
3 683 1076 1081 
3 630 668 1104 
3 402 398 1080 
3 89 386 1092 
3 35 34 1078 
3 83 330 388 
3 350 337 1092 
3 759 760 1087 
3 753 925 1085 
3 710 709 1084 
3 1116 901 1119 
3 1100 910 1103 
3 613 529 1073 
3 622 532 1082 
3 867 1169 1179 
3 981 655 1052 
3 914 754 1081 
3 1085 925 1089 
3 978 1000 1109 
3 393 354 394 
3 398 400 1080 
3 18 844 1145 
3 962 961 1083 
3 787 784 1131 
3 947 609 1110 
3 925 926 1089 
3 441 1090 1111 
3 902 901 1116 
3 906 904 1086 
3 507 683 1085 
3 403 482 1093 
3 1089 926 1091 
3 441 1032 1090 
3 1077 757 1095 
3 793 792 1165 
3 551 619 1117 
3 926 928 1091 
3 507 1085 1089 
3 88 348 1102 
3 445 442 1111 
3 1091 928 1094 
3 365 75 1118 
3 74 389 1118 
3 386 336 1102 
3 986 507 1089 
3 764 763 1121 
3 843 841 1148 
3 705 719 1088 
3 751 649 1115 
3 1121 763 1123 
3 1106 889 1122 
3 337 89 1092 
3 928 931 1094 
3 9 355 1120 
3 393 394 395 
3 986 1089 1091 
3 447 1034 1087 
3 1076 914 1081 
3 834 873 1187 
3 1142 380 1216 
3 449 446 1119 
3 1025 895 1140 
3 662 1097 1105 
3 599 986 1091 
3 599 1091 1094 
3 1090 905 1111 
3 664 946 1196 
3 873 1174 1187 
3 983 599 1094 
3 1072 779 1079 
3 713 765 1124 
3 757 1031 1095 
3 854 853 1108 
3 755 471 1095 
3 830 344 1183 
3 116 117 1131 
3 24 23 1127 
3 71 70 1128 
3 73 72 1129 
3 453 450 1123 
3 916 1073 1097 
3 1032 697 1090 
3 1015 797 1096 
3 83 388 1059 
3 980 1023 1125 
3 400 403 1093 
3 82 354 393 
3 48 349 1138 
3 1051 8 1120 
3 373 49 1138 
3 1080 400 1093 
3 458 454 1126 
3 1073 700 1097 
3 453 1123 1124 
3 732 824 1148 
3 1124 765 1126 
3 482 405 1114 
3 735 703 1098 
3 449 1119 1121 
3 755 1095 1104 
3 1131 117 1218 
3 445 1111 1116 
3 860 883 1101 
3 464 460 1099 
3 765 714 1133 
3 700 707 1097 
3 939 558 1185 
3 87 384 1130 
3 348 335 1130 
3 464 1133 1136 
3 759 1087 1100 
3 1024 1054 1106 
3 1095 1031 1104 
3 864 865 1137 
3 336 88 1102 
3 967 365 1139 
3 812 717 1162 
3 697 1086 1090 
3 340 843 1155 
3 853 722 1108 
3 1034 911 1100 
3 702 756 1134 
3 1087 1034 1100 
3 747 1052 1223 
3 758 759 1103 
3 824 730 1147 
3 1054 890 1106 
3 759 1100 1103 
3 1097 707 1105 
3 621 842 1222 
3 1000 464 1136 
3 771 843 1160 
3 758 1103 1107 
3 731 811 1147 
3 1131 784 1201 
3 392 79 1142 
3 78 380 1142 
3 945 342 1144 
3 839 758 1107 
3 608 1109 1110 
3 608 978 1109 
3 1104 668 1112 
3 707 738 1105 
3 1031 630 1104 
3 445 1116 1119 
3 105 106 1143 
3 379 969 1178 
3 609 608 1110 
3 568 1025 1140 
3 708 1024 1106 
3 791 989 1113 
3 516 1038 1134 
3 442 441 1111 
3 943 946 1150 
3 905 902 1116 
3 17 18 1145 
3 405 516 1114 
3 649 664 1115 
3 932 1064 1215 
3 756 755 1112 
3 619 781 1117 
3 1099 765 1133 
3 1120 355 1194 
3 708 1106 1122 
3 75 74 1118 
3 937 936 1150 
3 996 374 1162 
3 875 372 1173 
3 389 1129 1213 
3 832 766 1156 
3 897 357 1137 
3 446 445 1119 
3 449 1121 1123 
3 893 892 1152 
3 367 116 1131 
3 8 9 1120 
3 932 1215 1229 
3 464 1099 1133 
3 901 764 1121 
3 86 345 1146 
3 384 334 1146 
3 792 743 1153 
3 1111 905 1116 
3 1027 721 1149 
3 661 777 1154 
3 351 64 1158 
3 63 379 1158 
3 450 449 1123 
3 378 924 1165 
3 787 1131 1218 
3 85 385 1151 
3 940 939 1185 
3 345 333 1151 
3 738 708 1122 
3 763 713 1124 
3 1119 901 1121 
3 941 728 1177 
3 785 1142 1216 
3 1123 763 1124 
3 737 980 1125 
3 645 741 1163 
3 977 24 1127 
3 70 390 1128 
3 389 73 1129 
3 453 1124 1126 
3 335 87 1130 
3 454 453 1126 
3 66 65 1164 
3 84 340 1155 
3 385 332 1155 
3 827 1063 1140 
3 970 363 1153 
3 742 729 1166 
3 755 1104 1112 
3 781 782 1159 
3 867 869 1169 
3 818 816 1170 
3 1133 982 1136 
3 714 982 1133 
3 1139 365 1219 
3 1154 781 1159 
3 362 114 1193 
3 734 1070 1135 
3 817 819 1135 
3 816 789 1170 
3 699 728 1167 
3 982 752 1136 
3 762 974 1197 
3 991 621 1170 
3 347 870 1200 
3 865 868 1137 
3 1038 702 1134 
3 1049 1013 1156 
3 653 590 1176 
3 589 750 1176 
3 830 725 1178 
3 343 941 1177 
3 776 1120 1194 
3 49 48 1138 
3 6 371 1181 
3 1070 817 1135 
3 894 895 1203 
3 769 794 1182 
3 352 966 1189 
3 31 360 1186 
3 108 970 1188 
3 1046 360 1191 
3 893 1152 1227 
3 364 107 1188 
3 367 1131 1201 
3 977 1127 1168 
3 624 1096 1207 
3 762 761 1191 
3 67 66 1190 
3 862 864 1173 
3 554 1042 1167 
3 924 921 1161 
3 952 950 1192 
3 777 1117 1154 
3 52 347 1200 
3 968 967 1139 
3 375 53 1200 
3 728 727 1177 
3 805 807 1164 
3 555 554 1185 
3 960 1113 1212 
3 376 988 1198 
3 885 775 1199 
3 795 832 1186 
3 788 790 1143 
3 395 397 1171 
3 841 732 1148 
3 897 1137 1214 
3 955 951 1206 
3 772 1174 1223 
3 1117 781 1154 
3 104 105 1204 
3 775 773 1199 
3 3 80 1208 
3 23 3 1208 
3 133 0 1209 
3 0 4 1209 
3 72 1 1210 
3 1 101 1210 
3 2 71 1211 
3 22 2 1211 
3 958 391 1209 
3 118 343 1218 
3 1071 768 1180 
3 716 823 1195 
3 637 586 1207 
3 801 805 1231 
3 16 356 1229 
3 346 14 1215 
3 842 820 1222 
3 1011 939 1217 
3 777 1105 1141 
3 1096 965 1207 
3 994 653 1225 
3 1137 868 1214 
3 79 78 1142 
3 1064 346 1215 
3 819 821 1213 
3 715 996 1226 
3 1169 907 1179 
3 1134 756 1169 
3 106 364 1143 
3 738 1082 1141 
3 1056 858 1205 
3 721 776 1194 
3 342 971 1144 
3 667 715 1226 
3 1063 568 1140 
3 939 937 1217 
3 822 1139 1219 
3 948 366 1180 
3 715 1045 1195 
3 1065 715 1195 
3 356 17 1145 
3 833 834 1187 
3 334 86 1146 
3 730 731 1147 
3 921 923 1161 
3 1105 738 1141 
3 1023 762 1197 
3 892 375 1152 
3 936 943 1150 
3 945 1144 1196 
3 333 85 1151 
3 842 644 1175 
3 750 1027 1149 
3 1013 775 1221 
3 1113 989 1212 
3 826 827 1152 
3 743 744 1153 
3 887 373 1157 
3 663 661 1154 
3 923 922 1171 
3 917 780 1183 
3 775 1078 1221 
3 1127 392 1168 
3 332 84 1155 
3 766 1049 1156 
3 374 878 1162 
3 1152 827 1227 
3 663 1154 1159 
3 64 63 1158 
3 869 1134 1169 
3 81 833 1228 
3 772 771 1160 
3 868 867 1179 
3 634 1014 1161 
3 735 976 1172 
3 783 663 1159 
3 351 1158 1231 
3 644 645 1163 
3 347 887 1220 
3 1017 830 1183 
3 780 1017 1183 
3 1149 955 1206 
3 65 351 1164 
3 933 378 1165 
3 729 737 1166 
3 946 945 1196 
3 741 785 1216 
3 822 842 1175 
3 958 5 1181 
3 1042 699 1167 
3 756 907 1169 
3 360 973 1191 
3 785 742 1168 
3 1088 347 1220 
3 789 991 1170 
3 381 1006 1182 
3 872 834 1201 
3 1006 796 1182 
3 840 664 1196 
3 330 81 1228 
3 653 1192 1225 
3 767 735 1172 
3 979 862 1173 
3 397 476 1171 
3 590 589 1176 
3 725 798 1178 
3 779 988 1203 
3 1157 373 1202 
3 996 1162 1226 
3 907 813 1179 
3 1144 840 1196 
3 727 787 1177 
3 768 767 1180 
3 959 958 1181 
3 5 6 1181 
3 1059 388 1174 
3 796 769 1182 
3 344 917 1183 
3 353 898 1184 
3 1125 1023 1197 
3 373 1138 1202 
3 1079 779 1203 
3 1170 621 1222 
3 32 31 1186 
3 558 555 1185 
3 107 108 1188 
3 937 1150 1217 
3 966 964 1189 
3 366 67 1190 
3 922 362 1193 
3 1083 960 1212 
3 950 953 1192 
3 1184 898 1214 
3 761 1046 1191 
3 358 885 1199 
3 355 955 1194 
3 784 872 1201 
3 1158 800 1231 
3 1127 23 1208 
3 71 1128 1211 
3 1129 72 1210 
3 988 894 1203 
3 637 1083 1212 
3 1156 1013 1221 
3 352 1189 1230 
3 908 376 1198 
3 1056 358 1199 
3 834 367 1201 
3 1045 716 1195 
3 644 1163 1175 
3 974 359 1197 
3 53 52 1200 
3 365 1118 1219 
3 898 897 1214 
3 773 1056 1199 
3 1139 822 1175 
3 1184 1214 1224 
3 951 952 1206 
3 370 104 1204 
3 823 783 1202 
3 80 392 1208 
3 391 133 1209 
3 101 734 1210 
3 733 22 1211 
3 586 624 1207 
3 895 893 1227 
3 858 979 1205 
3 359 1125 1197 
3 989 637 1212 
3 1174 873 1223 
3 14 15 1215 
3 380 968 1216 
3 117 118 1218 
3 1078 361 1221 
3 821 822 1219 
3 638 1011 1217 
3 820 818 1222 
3 1138 823 1202 
3 1215 15 1229 
3 388 330 1228 
3 750 1149 1206 
3 930 994 1225 
3 15 16 1229 
3 782 1088 1220 
3 953 346 1232 
3 1064 930 1232 
3 797 796 1230 
3 800 801 1231 
3 717 667 1226 
3 1052 772 1223 
3 392 1127 1208 
3 1128 733 1211 
3 734 1129 1210 
3 1118 821 1219 
3 1225 953 1232 
3 930 1225 1232 
3 346 1064 1232 
3 827 1140 1227 
3 1150 638 1217 
3 1162 717 1226 
3 1135 819 1213 
3 361 1156 1221 
3 1140 895 1227 
3 818 1170 1222 
3 868 1179 1224 
3 1157 782 1220 
3 887 1157 1220 
3 1187 388 1228 
3 1179 813 1224 
3 813 1184 1224 
3 1189 797 1230 
3 1192 953 1225 
3 833 1187 1228 
3 1214 868 1224 
3 135 187 134 
3 186 187 135 
3 136 186 135 
3 185 186 136 
3 137 185 136 
3 184 185 137 
3 138 184 137 
3 183 184 138 
3 139 183 138 
3 182 183 139 
3 140 182 139 
3 181 182 140 
3 181 140 141 
3 180 181 141 
3 142 180 141 
3 179 180 142 
3 143 179 142 
3 178 179 143 
3 144 178 143 
3 177 178 144 
3 177 144 145 
3 176 177 145 
3 84 160 1233 
3 176 145 146 
3 175 176 146 
3 175 146 147 
3 84 162 160 
3 174 175 147 
3 174 147 148 
3 173 174 148 
3 173 148 149 
3 172 173 149 
3 160 161 1233 
3 150 172 149 
3 171 172 150 
3 171 150 151 
3 170 171 151 
3 170 151 152 
3 169 170 152 
3 169 152 153 
3 168 169 153 
3 168 153 154 
3 167 168 154 
3 167 154 155 
3 166 167 155 
3 331 84 1233 
3 165 166 156 
3 166 155 156 
3 164 165 157 
3 165 156 157 
3 163 164 158 
3 164 157 158 
3 162 163 159 
3 159 163 158 
3 162 159 160 
3 161 331 1233 
3 93 92 1234 
3 134 187 1234 
3 187 93 1234 
3 92 134 1234 
3 161 83 331 
3 212 211 187 
3 211 186 187 
3 211 210 186 
3 210 185 186 
3 210 209 185 
3 209 184 185 
3 209 208 184 
3 208 183 184 
3 208 207 183 
3 207 182 183 
3 207 206 182 
3 206 181 182 
3 206 205 181 
3 205 180 181 
3 205 204 180 
3 180 204 179 
3 204 203 179 
3 203 178 179 
3 203 202 178 
3 202 177 178 
3 163 85 1235 
3 202 201 177 
3 201 176 177 
3 201 200 176 
3 162 163 1235 
3 200 175 176 
3 200 199 175 
3 188 85 163 
3 199 174 175 
3 199 198 174 
3 198 173 174 
3 198 197 173 
3 197 172 173 
3 197 196 172 
3 196 171 172 
3 196 195 171 
3 171 195 170 
3 85 332 1235 
3 195 194 170 
3 170 194 169 
3 194 193 169 
3 169 193 168 
3 192 167 168 
3 193 192 168 
3 167 191 166 
3 192 191 167 
3 166 190 165 
3 191 190 166 
3 165 189 164 
3 188 163 164 
3 190 189 165 
3 189 188 164 
3 332 162 1235 
3 93 94 1236 
3 212 187 1236 
3 187 93 1236 
3 94 212 1236 
3 162 332 84 
3 211 212 213 
3 211 213 214 
3 210 211 214 
3 215 210 214 
3 209 210 215 
3 216 209 215 
3 208 209 216 
3 217 208 216 
3 207 208 217 
3 218 207 217 
3 206 207 218 
3 219 206 218 
3 205 206 219 
3 220 205 219 
3 204 205 220 
3 221 204 220 
3 203 204 221 
3 203 221 222 
3 202 203 222 
3 189 86 1237 
3 223 202 222 
3 201 202 223 
3 201 223 224 
3 86 189 235 
3 200 201 224 
3 200 224 225 
3 199 200 225 
3 199 225 226 
3 198 199 226 
3 188 189 1237 
3 198 226 227 
3 197 198 227 
3 197 227 228 
3 196 197 228 
3 196 228 229 
3 195 196 229 
3 195 229 230 
3 194 195 230 
3 194 230 231 
3 193 194 231 
3 193 231 232 
3 86 333 1237 
3 192 232 233 
3 192 193 232 
3 191 233 234 
3 191 192 233 
3 190 234 235 
3 190 191 234 
3 189 190 235 
3 333 188 1237 
3 94 95 1238 
3 213 212 1238 
3 95 213 1238 
3 212 94 1238 
3 188 333 85 
3 213 256 257 
3 213 214 256 
3 214 255 256 
3 214 215 255 
3 215 254 255 
3 215 216 254 
3 216 253 254 
3 216 217 253 
3 217 252 253 
3 217 218 252 
3 218 251 252 
3 218 219 251 
3 219 250 251 
3 219 220 250 
3 250 220 249 
3 220 221 249 
3 221 248 249 
3 221 222 248 
3 87 234 1239 
3 222 247 248 
3 222 223 247 
3 223 246 247 
3 234 235 1239 
3 246 223 224 
3 234 87 236 
3 245 246 224 
3 225 245 224 
3 244 245 225 
3 226 244 225 
3 244 226 243 
3 226 227 243 
3 243 227 242 
3 227 228 242 
3 334 87 1239 
3 242 228 241 
3 228 229 241 
3 241 229 240 
3 229 230 240 
3 230 231 239 
3 230 239 240 
3 231 232 238 
3 239 231 238 
3 232 233 237 
3 233 234 236 
3 238 232 237 
3 237 233 236 
3 235 334 1239 
3 96 95 1240 
3 213 257 1240 
3 95 213 1240 
3 257 96 1240 
3 334 235 86 
3 256 257 258 
3 256 258 259 
3 255 256 259 
3 255 259 260 
3 254 255 260 
3 261 254 260 
3 261 253 254 
3 261 262 253 
3 262 252 253 
3 262 263 252 
3 263 251 252 
3 263 264 251 
3 264 250 251 
3 264 265 250 
3 250 265 249 
3 265 266 249 
3 266 248 249 
3 237 88 1241 
3 266 267 248 
3 267 247 248 
3 277 88 237 
3 267 268 247 
3 268 246 247 
3 268 269 246 
3 246 269 245 
3 269 270 245 
3 236 237 1241 
3 245 270 244 
3 270 271 244 
3 244 271 243 
3 271 272 243 
3 243 272 242 
3 272 273 242 
3 242 273 241 
3 273 274 241 
3 241 274 240 
3 274 275 240 
3 88 335 1241 
3 275 276 239 
3 275 239 240 
3 276 277 238 
3 239 276 238 
3 238 277 237 
3 335 236 1241 
3 96 97 1242 
3 258 257 1242 
3 97 258 1242 
3 257 96 1242 
3 335 87 236 
3 295 296 258 
3 259 295 258 
3 294 295 259 
3 260 294 259 
3 293 294 260 
3 261 293 260 
3 292 293 261 
3 262 292 261 
3 291 292 262 
3 291 262 263 
3 290 291 263 
3 264 290 263 
3 289 290 264 
3 265 289 264 
3 288 289 265 
3 266 288 265 
3 89 276 1243 
3 287 288 266 
3 287 266 267 
3 276 277 1243 
3 287 267 286 
3 286 267 268 
3 276 89 278 
3 285 286 268 
3 285 268 269 
3 284 285 269 
3 284 269 270 
3 283 284 270 
3 271 283 270 
3 336 89 1243 
3 282 283 271 
3 282 271 272 
3 281 282 272 
3 281 272 273 
3 280 273 274 
3 280 281 273 
3 274 275 279 
3 280 274 279 
3 275 276 278 
3 275 278 279 
3 277 336 1243 
3 98 97 1244 
3 258 296 1244 
3 97 258 1244 
3 296 98 1244 
3 277 88 336 
3 295 296 297 
3 298 295 297 
3 294 295 298 
3 299 294 298 
3 293 294 299 
3 300 293 299 
3 292 293 300 
3 301 292 300 
3 291 292 301 
3 302 291 301 
3 290 291 302 
3 303 290 302 
3 289 290 303 
3 289 303 304 
3 288 289 304 
3 279 90 1245 
3 305 288 304 
3 90 279 313 
3 288 305 287 
3 305 306 287 
3 287 306 286 
3 306 307 286 
3 307 285 286 
3 285 307 308 
3 278 279 1245 
3 285 308 284 
3 308 309 284 
3 309 283 284 
3 309 310 283 
3 310 282 283 
3 311 282 310 
3 282 311 281 
3 281 311 312 
3 280 312 313 
3 280 281 312 
3 90 337 1245 
3 279 280 313 
3 337 278 1245 
3 98 99 1246 
3 297 296 1246 
3 99 297 1246 
3 296 98 1246 
3 89 278 337 
3 328 329 297 
3 298 328 297 
3 327 328 298 
3 299 327 298 
3 326 327 299 
3 300 326 299 
3 325 326 300 
3 301 325 300 
3 324 325 301 
3 302 324 301 
3 323 324 302 
3 303 323 302 
3 322 323 303 
3 91 312 1247 
3 322 303 304 
3 321 322 304 
3 312 313 1247 
3 305 321 304 
3 321 305 320 
3 312 91 314 
3 305 306 320 
3 306 319 320 
3 306 307 319 
3 307 318 319 
3 307 308 318 
3 338 91 1247 
3 308 317 318 
3 308 309 317 
3 309 310 316 
3 309 316 317 
3 310 311 315 
3 310 315 316 
3 311 312 314 
3 311 314 315 
3 313 338 1247 
3 100 99 1248 
3 297 329 1248 
3 99 297 1248 
3 329 100 1248 
3 90 338 313 
3 328 329 101 
3 328 101 102 
3 327 328 102 
3 327 102 103 
3 326 327 103 
3 326 103 104 
3 325 326 104 
3 325 104 105 
3 324 325 105 
3 324 105 106 
3 323 324 106 
3 323 106 107 
3 315 82 1249 
3 322 323 107 
3 114 82 315 
3 322 107 108 
3 321 322 108 
3 109 321 108 
3 320 321 109 
3 110 320 109 
3 319 320 110 
3 319 110 111 
3 314 315 1249 
3 319 111 318 
3 111 112 318 
3 112 317 318 
3 112 113 317 
3 113 114 316 
3 317 113 316 
3 316 114 315 
3 82 339 1249 
3 339 314 1249 
3 100 1 1250 
3 101 329 1250 
3 1 101 1250 
3 329 100 1250 
3 339 91 314 

CELL_TYPES 2360
5
5
5
5
5
5
5
5
5
5
5
5
5
5
5
5
5
5
5
5
5
5
5
5
5
5
5
5
5
5
5
5
5
5
5
5
5
5
5
5
5
5
5
5
5
5
5
5
5
5
5
5
5
5
5
5
5
5
5
5
5
5
5
5
5
5
5
5
5
5
5
5
5
5
5
5
5
5
5
5
5
5
5
5
5
5
5
5
5
5
5
5
5
5
5
5
5
5
5
5
5
5
5
5
5
5
5
5
5
5
5
5
5
5
5
5
5
5
5
5
5
5
5
5
5
5
5
5
5
5
5
5
5
5
5
5
5
5
5
5
5
5
5
5
5
5
5
5
5
5
5
5
5
5
5
5
5
5
5
5
5
5
5
5
5
5
5
5
5
5
5
5
5
5
5
5
5
5
5
5
5
5
5
5
5
5
5
5
5
5
5
5
5
5
5
5
5
5
5
5
5
5
5
5
5
5
5
5
5
5
5
5
5
5
5
5
5
5
5
5
5
5
5
5
5
5
5
5
5
5
5
5
5
5
5
5
5
5
5
5
5
5
5
5
5
5
5
5
5
5
5
5
5
5
5
5
5
5
5
5
5
5
5
5
5
5
5
5
5
5
5
5
5
5
5
5
5
5
5
5
5
5
5
5
5
5
5
5
5
5
5
5
5
5
5
5
5
5
5
5
5
5
5
5
5
5
5
5
5
5
5
5
5
5
5
5
5
5
5
5
5
5
5
5
5
5
5
5
5
5
5
5
5
5
5
5
5
5
5
5
5
5
5
5
5
5
5
5
5
5
5
5
5
5
5
5
5
5
5
5
5
5
5
5
5
5
5
5
5
5
5
5
5
5
5
5
5
5
5
5
5
5
5
5
5
5
5
5
5
5
5
5
5
5
5
5
5
5
5
5
5
5
5
5
5
5
5
5
5
5
5
5
5
5
5
5
5
5
5
5
5
5
5
5
5
5
5
5
5
5
5
5
5
5
5
5
5
5
5
5
5
5
5
5
5
5
5
5
5
5
5
5
5
5
5
5
5
5
5
5
5
5
5
5
5
5
5
5
5
5
5
5
5
5
5
5
5
5
5
5
5
5
5
5
5
5
5
5
5
5
5
5
5
5
5
5
5
5
5
5
5
5
5
5
5
5
5
5
5
5
5
5
5
5
5
5
5
5
5
5
5
5
5
5
5
5
5
5
5
5
5
5
5
5
5
5
5
5
5
5
5
5
5
5
5
5
5
5
5
5
5
5
5
5
5
5
5
5
5
5
5
5
5
5
5
5
5
5
5
5
5
5
5
5
5
5
5
5
5
5
5
5
5
5
5
5
5
5
5
5
5
5
5
5
5
5
5
5
5
5
5
5
5
5
5
5
5
5
5
5
5
5
5
5
5
5
5
5
5
5
5
5
5
5
5
5
5
5
5
5
5
5
5
5
5
5
5
5
5
5
5
5
5
5
5
5
5
5
5
5
5
5
5
5
5
5
5
5
5
5
5
5
5
5
5
5
5
5
5
5
5
5
5
5
5
5
5
5
5
5
5
5
5
5
5
5
5
5
5
5
5
5
5
5
5
5
5
5
5
5
5
5
5
5
5
5
5
5
5
5
5
5
5
5
5
5
5
5
5
5
5
5
5
5
5
5
5
5
5
5
5
5
5
5
5
5
5
5
5
5
5
5
5
5
5
5
5
5
5
5
5
5
5
5
5
5
5
5
5
5
5
5
5
5
5
5
5
5
5
5
5
5
5
5
5
5
5
5
5
5
5
5
5
5
5
5
5
5
5
5
5
5
5
5
5
5
5
5
5
5
5
5
5
5
5
5
5
5
5
5
5
5
5
5
5
5
5
5
5
5
5
5
5
5
5
5
5
5
5
5
5
5
5
5
5
5
5
5
5
5
5
5
5
5
5
5
5
5
5
5
5
5
5
5
5
5
5
5
5
5
5
5
5
5
5
5
5
5
5
5
5
5
5
5
5
5
5
5
5
5
5
5
5
5
5
5
5
5
5
5
5
5
5
5
5
5
5
5
5
5
5
5
5
5
5
5
5
5
5
5
5
5
5
5
5
5
5
5
5
5
5
5
5
5
5
5
5
5
5
5
5
5
5
5
5
5
5
5
5
5
5
5
5
5
5
5
5
5
5
5
5
5
5
5
5
5
5
5
5
5
5
5
5
5
5
5
5
5
5
5
5
5
5
5
5
5
5
5
5
5
5
5
5
5
5
5
5
5
5
5
5
5
5
5
5
5
5
5
5
5
5
5
5
5
5
5
5
5
5
5
5
5
5
5
5
5
5
5
5
5
5
5
5
5
5
5
5
5
5
5
5
5
5
5
5
5
5
5
5
5
5
5
5
5
5
5
5
5
5
5
5
5
5
5
5
5
5
5
5
5
5
5
5
5
5
5
5
5
5
5
5
5
5
5
5
5
5
5
5
5
5
5
5
5
5
5
5
5
5
5
5
5
5
5
5
5
5
5
5
5
5
5
5
5
5
5
5
5
5
5
5
5
5
5
5
5
5
5
5
5
5
5
5
5
5
5
5
5
5
5
5
5
5
5
5
5
5
5
5
5
5
5
5
5
5
5
5
5
5
5
5
5
5
5
5
5
5
5
5
5
5
5
5
5
5
5
5
5
5
5
5
5
5
5
5
5
5
5
5
5
5
5
5
5
5
5
5
5
5
5
5
5
5
5
5
5
5
5
5
5
5
5
5
5
5
5
5
5
5
5
5
5
5
5
5
5
5
5
5
5
5
5
5
5
5
5
5
5
5
5
5
5
5
5
5
5
5
5
5
5
5
5
5
5
5
5
5
5
5
5
5
5
5
5
5
5
5
5
5
5
5
5
5
5
5
5
5
5
5
5
5
5
5
5
5
5
5
5
5
5
5
5
5
5
5
5
5
5
5
5
5
5
5
5
5
5
5
5
5
5
5
5
5
5
5
5
5
5
5
5
5
5
5
5
5
5
5
5
5
5
5
5
5
5
5
5
5
5
5
5
5
5
5
5
5
5
5
5
5
5
5
5
5
5
5
5
5
5
5
5
5
5
5
5
5
5
5
5
5
5
5
5
5
5
5
5
5
5
5
5
5
5
5
5
5
5
5
5
5
5
5
5
5
5
5
5
5
5
5
5
5
5
5
5
5
5
5
5
5
5
5
5
5
5
5
5
5
5
5
5
5
5
5
5
5
5
5
5
5
5
5
5
5
5
5
5
5
5
5
5
5
5
5
5
5
5
5
5
5
5
5
5
5
5
5
5
5
5
5
5
5
5
5
5
5
5
5
5
5
5
5
5
5
5
5
5
5
5
5
5
5
5
5
5
5
5
5
5
5
5
5
5
5
5
5
5
5
5
5
5
5
5
5
5
5
5
5
5
5
5
5
5
5
5
5
5
5
5
5
5
5
5
5
5
5
5
5
5
5
5
5
5
5
5
5
5
5
5
5
5
5
5
5
5
5
5
5
5
5
5
5
5
5
5
5
5
5
5
5
5
5
5
5
5
5
5
5
5
5
5
5
5
5
5
5
5
5
5
5
5
5
5
5
5
5
5
5
5
5
5
5
5
5
5
5
5
5
5
5
5
5
5
5
5
5
5
5
5
5
5
5
5
5
5
5
5
5
5
5
5
5
5
5
5
5
5
5
5
5
5
5
5
5
5
5
5
5
5
5
5
5
5
5
5
5
5
5
5
5
5
5
5
5
5
5
5
5
5
5
5
5
5
5
5
5
5
5
5
5
5
5
5
5
5
5
5
5
5
5
5
5
5
5
5
5
5
5
5
5
5
5
5
5
5
5
5
5
5
5
5
5
5
5
5
5
5
5
5
5
5
5
5
5
5
5
5
5
5
5
5
5
5
5
5
5
5
5
5
5
5
5
5
5
5
5
5
5
5
5
5
5
5
5
5
5
5
5
5
5
5
5
5
5
5
5
5
5
5
5
5
5
5
5
5
5
5
5
5
5
5
5
5
5
5
5
5
5
5
5
5
5
5
5
5
5
5
5
5
5
5
5
5
5
5
5
5
5
5
5
5
5
5
5
5
5
5
5
5
5
5
5
5
5
5
5
5
5
5
5
5
5
5
5
5
5
5
5
5
5
5
5
5
5
5
5
5
5
5
5
5
5
5
5
5
5
5
5
5
5
5
5
5
5
5
5
5
5
5
5
5
5
5
5
5
5
5
5
5
5
5
5
5
5
5
5
5
5
5
5
5
5
5
5
5
5
5
5
5
5
5
5
5
5
5
5
5
5
5
5
5
5
5
5
5
5
5
5
5
5
5
5
5
5
5
5
5
5
5
5
5
5
5
5
5
5
5
5
5
5
5
5
5
5
5
5
5
5
5
5
5
5
5
5
5
5
5
5
5
5
5
5
5
5
5
5
5
5
5
5
5
5
5
5
5
5
5
5
5
5
5
5
5
5
5
5
5
5
5
5
5
5
5
5
5
5
5
5
5
5
5
5
5
5
5
5
5
5
5
5
5
5
5
5
5
5
5
5
5
5
5
5
5
5
5
5
5
5
5
5
5
5
5
5
5
5
5
5
5
5
5
5
5
5
5
5
5
5
5
5
5
5
5
5
5
5
5
5
5
5
5
5
5
5
5
5
5
5
5
5
5
5
5
5
5
5
5
5
5
5
5
5
5
5
5
5
5
5
5
5
5
5
5
5
5
5
5
5
5
5
5
5
5
5
5
5
5
5
5
5
5
5
5
5
5
5
5
5
5
5
5
5
5
5
5
5
5
5
5
5
5
5
5
5
5
5
5
5
5
5
5
5
5
5
5
5
5
5
5
5
5
5
5
5
5
5
5
5
5
5
5
5
5
5
5
5
5
5
5
5
5
5
5
5
5
5
5
5
5
5
5
5
5
5
5
5
5
5
5
5
5
5
5
5
5
5
5
5
5
5
5
5
5
5
5
5
5
5
5
5
5
5
5
5
5
5
5
5
5
5
5
5
5
5
5
5
5
5
5
5
5
5
5
5
5
5
5
5
5
5
5
5
5
5
5
5
5
5
5
5
5
5
5
5
5
5
5
5
5
5
5
5
5
5
5
5
5
5
5
5
5
5
5
5
5
5
5
5
5
5
5
5
5
5
5
5
5
5
5
5
5
5
5
5
5
5
5
5
5
5
5
5
5
5
5
5
5
5
5
5
5
5
5
5
5
5
5
5
5
5
5
5
5
5
5
5
5
5
5
5
5
5
5
5
5
5
5
5
5
5
5
5
5
5
5
5
5
5
5
5
5
5
5
5
5
5
5
5
5
5
5
5
5
5
5
5
5
5
5
5
5
5
5
5
5
5
5
5
5
5
5

POINT_DATA 1251

VECTORS coord float
0.0 0.0 0.0 
5.000000000000e+01 -1.000000000000e+01 0.0 
0.0 -2.000000000000e+01 0.0 
5.000000000000e+01 -2.000000000000e+01 0.0 
0.0 -9.999999999991e-01 0.0 
0.0 -1.999999999998e+00 0.0 
0.0 -2.999999999997e+00 0.0 
0.0 -3.999999999994e+00 0.0 
0.0 -4.999999999991e+00 0.0 
0.0 -5.999999999988e+00 0.0 
0.0 -6.999999999985e+00 0.0 
0.0 -7.999999999982e+00 0.0 
0.0 -8.999999999983e+00 0.0 
0.0 -9.999999999985e+00 0.0 
0.0 -1.099999999999e+01 0.0 
0.0 -1.199999999999e+01 0.0 
0.0 -1.299999999999e+01 0.0 
0.0 -1.399999999999e+01 0.0 
0.0 -1.499999999999e+01 0.0 
0.0 -1.599999999999e+01 0.0 
0.0 -1.700000000000e+01 0.0 
0.0 -1.800000000000e+01 0.0 
0.0 -1.900000000000e+01 0.0 
4.900000000001e+01 -2.000000000000e+01 0.0 
4.800000000001e+01 -2.000000000000e+01 0.0 
4.700000000002e+01 -2.000000000000e+01 0.0 
4.600000000003e+01 -2.000000000000e+01 0.0 
4.500000000004e+01 -2.000000000000e+01 0.0 
4.400000000004e+01 -2.000000000000e+01 0.0 
4.300000000005e+01 -2.000000000000e+01 0.0 
4.200000000006e+01 -2.000000000000e+01 0.0 
4.100000000006e+01 -2.000000000000e+01 0.0 
4.000000000007e+01 -2.000000000000e+01 0.0 
3.900000000008e+01 -2.000000000000e+01 0.0 
3.800000000009e+01 -2.000000000000e+01 0.0 
3.700000000009e+01 -2.000000000000e+01 0.0 
3.600000000010e+01 -2.000000000000e+01 0.0 
3.500000000011e+01 -2.000000000000e+01 0.0 
3.400000000011e+01 -2.000000000000e+01 0.0 
3.300000000012e+01 -2.000000000000e+01 0.0 
3.200000000013e+01 -2.000000000000e+01 0.0 
3.100000000013e+01 -2.000000000000e+01 0.0 
3.000000000013e+01 -2.000000000000e+01 0.0 
2.900000000013e+01 -2.000000000000e+01 0.0 
2.800000000013e+01 -2.000000000000e+01 0.0 
2.700000000013e+01 -2.000000000000e+01 0.0 
2.600000000013e+01 -2.000000000000e+01 0.0 
2.500000000013e+01 -2.000000000000e+01 0.0 
2.400000000013e+01 -2.000000000000e+01 0.0 
2.300000000013e+01 -2.000000000000e+01 0.0 
2.200000000013e+01 -2.000000000000e+01 0.0 
2.100000000013e+01 -2.000000000000e+01 0.0 
2.000000000013e+01 -2.000000000000e+01 0.0 
1.900000000013e+01 -2.000000000000e+01 0.0 
1.800000000013e+01 -2.000000000000e+01 0.0 
1.700000000012e+01 -2.000000000000e+01 0.0 
1.600000000011e+01 -2.000000000000e+01 0.0 
1.500000000011e+01 -2.000000000000e+01 0.0 
1.400000000010e+01 -2.000000000000e+01 0.0 
1.300000000009e+01 -2.000000000000e+01 0.0 
1.200000000009e+01 -2.000000000000e+01 0.0 
1.100000000008e+01 -2.000000000000e+01 0.0 
1.000000000007e+01 -2.000000000000e+01 0.0 
9.000000000064e+00 -2.000000000000e+01 0.0 
8.000000000057e+00 -2.000000000000e+01 0.0 
7.000000000050e+00 -2.000000000000e+01 0.0 
6.000000000043e+00 -2.000000000000e+01 0.0 
5.000000000036e+00 -2.000000000000e+01 0.0 
4.000000000028e+00 -2.000000000000e+01 0.0 
3.000000000021e+00 -2.000000000000e+01 0.0 
2.000000000014e+00 -2.000000000000e+01 0.0 
1.000000000007e+00 -2.000000000000e+01 0.0 
5.000000000000e+01 -1.100000000000e+01 0.0 
5.000000000000e+01 -1.200000000000e+01 0.0 
5.000000000000e+01 -1.300000000000e+01 0.0 
5.000000000000e+01 -1.400000000000e+01 0.0 
5.000000000000e+01 -1.500000000000e+01 0.0 
5.000000000000e+01 -1.600000000000e+01 0.0 
5.000000000000e+01 -1.700000000000e+01 0.0 
5.000000000000e+01 -1.800000000000e+01 0.0 
5.000000000000e+01 -1.900000000000e+01 0.0 
2.000000000000e+01 0.0 0.0 
3.500000000000e+01 -1.000000000000e+01 0.0 
2.150000000000e+01 -1.000000000000e+00 0.0 
2.300000000000e+01 -2.000000000000e+00 0.0 
2.450000000000e+01 -3.000000000000e+00 0.0 
2.600000000000e+01 -4.000000000000e+00 0.0 
2.750000000000e+01 -5.000000000000e+00 0.0 
2.900000000000e+01 -6.000000000000e+00 0.0 
3.050000000000e+01 -7.000000000000e+00 0.0 
3.200000000000e+01 -8.000000000000e+00 0.0 
3.350000000000e+01 -9.000000000000e+00 0.0 
5.000000000000e+01 -1.000000000000e+00 0.0 
5.000000000000e+01 -2.000000000000e+00 0.0 
5.000000000000e+01 -3.000000000000e+00 0.0 
5.000000000000e+01 -4.000000000000e+00 0.0 
5.000000000000e+01 -5.000000000000e+00 0.0 
5.000000000000e+01 -6.000000000000e+00 0.0 
5.000000000000e+01 -7.000000000000e+00 0.0 
5.000000000000e+01 -8.000000000000e+00 0.0 
5.000000000000e+01 -9.000000000000e+00 0.0 
4.900000000000e+01 -1.000000000000e+01 0.0 
4.800000000000e+01 -1.000000000000e+01 0.0 
4.700000000000e+01 -1.000000000000e+01 0.0 
4.600000000000e+01 -1.000000000000e+01 0.0 
4.500000000000e+01 -1.000000000000e+01 0.0 
4.400000000000e+01 -1.000000000000e+01 0.0 
4.300000000000e+01 -1.000000000000e+01 0.0 
4.200000000000e+01 -1.000000000000e+01 0.0 
4.100000000000e+01 -1.000000000000e+01 0.0 
4.000000000000e+01 -1.000000000000e+01 0.0 
3.900000000000e+01 -1.000000000000e+01 0.0 
3.800000000000e+01 -1.000000000000e+01 0.0 
3.700000000000e+01 -1.000000000000e+01 0.0 
3.600000000000e+01 -1.000000000000e+01 0.0 
1.900000000000e+01 0.0 0.0 
1.800000000000e+01 0.0 0.0 
1.700000000000e+01 0.0 0.0 
1.600000000000e+01 0.0 0.0 
1.500000000000e+01 0.0 0.0 
1.400000000000e+01 0.0 0.0 
1.300000000000e+01 0.0 0.0 
1.200000000000e+01 0.0 0.0 
1.100000000000e+01 0.0 0.0 
1.000000000000e+01 0.0 0.0 
9.000000000000e+00 0.0 0.0 
8.000000000000e+00 0.0 0.0 
7.000000000000e+00 0.0 0.0 
6.000000000000e+00 0.0 0.0 
5.000000000000e+00 0.0 0.0 
4.000000000000e+00 0.0 0.0 
3.000000000000e+00 0.0 0.0 
2.000000000000e+00 0.0 0.0 
1.000000000000e+00 0.0 0.0 
4.901724137931e+01 -1.000000000000e+00 0.0 
4.803448275862e+01 -1.000000000000e+00 0.0 
4.705172413793e+01 -1.000000000000e+00 0.0 
4.606896551724e+01 -1.000000000000e+00 0.0 
4.508620689655e+01 -1.000000000000e+00 0.0 
4.410344827586e+01 -1.000000000000e+00 0.0 
4.312068965517e+01 -1.000000000000e+00 0.0 
4.213793103448e+01 -1.000000000000e+00 0.0 
4.115517241379e+01 -1.000000000000e+00 0.0 
4.017241379310e+01 -1.000000000000e+00 0.0 
3.918965517241e+01 -1.000000000000e+00 0.0 
3.820689655172e+01 -1.000000000000e+00 0.0 
3.722413793103e+01 -1.000000000000e+00 0.0 
3.624137931034e+01 -1.000000000000e+00 0.0 
3.525862068966e+01 -1.000000000000e+00 0.0 
3.427586206897e+01 -1.000000000000e+00 0.0 
3.329310344828e+01 -1.000000000000e+00 0.0 
3.231034482759e+01 -1.000000000000e+00 0.0 
3.132758620690e+01 -1.000000000000e+00 0.0 
3.034482758621e+01 -1.000000000000e+00 0.0 
2.936206896552e+01 -1.000000000000e+00 0.0 
2.837931034483e+01 -1.000000000000e+00 0.0 
2.739655172414e+01 -1.000000000000e+00 0.0 
2.641379310345e+01 -1.000000000000e+00 0.0 
2.543103448276e+01 -1.000000000000e+00 0.0 
2.444827586207e+01 -1.000000000000e+00 0.0 
2.346551724138e+01 -1.000000000000e+00 0.0 
2.248275862069e+01 -1.000000000000e+00 0.0 
2.400000000000e+01 -2.000000000000e+00 0.0 
2.500000000000e+01 -2.000000000000e+00 0.0 
2.600000000000e+01 -2.000000000000e+00 0.0 
2.700000000000e+01 -2.000000000000e+00 0.0 
2.800000000000e+01 -2.000000000000e+00 0.0 
2.900000000000e+01 -2.000000000000e+00 0.0 
3.000000000000e+01 -2.000000000000e+00 0.0 
3.100000000000e+01 -2.000000000000e+00 0.0 
3.200000000000e+01 -2.000000000000e+00 0.0 
3.300000000000e+01 -2.000000000000e+00 0.0 
3.400000000000e+01 -2.000000000000e+00 0.0 
3.500000000000e+01 -2.000000000000e+00 0.0 
3.600000000000e+01 -2.000000000000e+00 0.0 
3.700000000000e+01 -2.000000000000e+00 0.0 
3.800000000000e+01 -2.000000000000e+00 0.0 
3.900000000000e+01 -2.000000000000e+00 0.0 
4.000000000000e+01 -2.000000000000e+00 0.0 
4.100000000000e+01 -2.000000000000e+00 0.0 
4.200000000000e+01 -2.000000000000e+00 0.0 
4.300000000000e+01 -2.000000000000e+00 0.0 
4.400000000000e+01 -2.000000000000e+00 0.0 
4.500000000000e+01 -2.000000000000e+00 0.0 
4.600000000000e+01 -2.000000000000e+00 0.0 
4.700000000000e+01 -2.000000000000e+00 0.0 
4.800000000000e+01 -2.000000000000e+00 0.0 
4.900000000000e+01 -2.000000000000e+00 0.0 
2.548076923077e+01 -3.000000000000e+00 0.0 
2.646153846153e+01 -3.000000000000e+00 0.0 
2.744230769230e+01 -3.000000000000e+00 0.0 
2.842307692306e+01 -3.000000000000e+00 0.0 
2.940384615383e+01 -3.000000000000e+00 0.0 
3.038461538459e+01 -3.000000000000e+00 0.0 
3.136538461536e+01 -3.000000000000e+00 0.0 
3.234615384612e+01 -3.000000000000e+00 0.0 
3.332692307687e+01 -3.000000000000e+00 0.0 
3.430769230762e+01 -3.000000000000e+00 0.0 
3.528846153837e+01 -3.000000000000e+00 0.0 
3.626923076912e+01 -3.000000000000e+00 0.0 
3.724999999988e+01 -3.000000000000e+00 0.0 
3.823076923065e+01 -3.000000000000e+00 0.0 
3.921153846143e+01 -3.000000000000e+00 0.0 
4.019230769221e+01 -3.000000000000e+00 0.0 
4.117307692299e+01 -3.000000000000e+00 0.0 
4.215384615377e+01 -3.000000000000e+00 0.0 
4.313461538455e+01 -3.000000000000e+00 0.0 
4.411538461533e+01 -3.000000000000e+00 0.0 
4.509615384611e+01 -3.000000000000e+00 0.0 
4.607692307688e+01 -3.000000000000e+00 0.0 
4.705769230766e+01 -3.000000000000e+00 0.0 
4.803846153844e+01 -3.000000000000e+00 0.0 
4.901923076922e+01 -3.000000000000e+00 0.0 
4.900000000000e+01 -4.000000000000e+00 0.0 
4.800000000000e+01 -4.000000000000e+00 0.0 
4.700000000000e+01 -4.000000000000e+00 0.0 
4.600000000000e+01 -4.000000000000e+00 0.0 
4.500000000000e+01 -4.000000000000e+00 0.0 
4.400000000000e+01 -4.000000000000e+00 0.0 
4.300000000000e+01 -4.000000000000e+00 0.0 
4.200000000000e+01 -4.000000000000e+00 0.0 
4.100000000000e+01 -4.000000000000e+00 0.0 
4.000000000000e+01 -4.000000000000e+00 0.0 
3.900000000000e+01 -4.000000000000e+00 0.0 
3.800000000000e+01 -4.000000000000e+00 0.0 
3.700000000000e+01 -4.000000000000e+00 0.0 
3.600000000000e+01 -4.000000000000e+00 0.0 
3.500000000000e+01 -4.000000000000e+00 0.0 
3.400000000000e+01 -4.000000000000e+00 0.0 
3.300000000000e+01 -4.000000000000e+00 0.0 
3.200000000000e+01 -4.000000000000e+00 0.0 
3.100000000000e+01 -4.000000000000e+00 0.0 
3.000000000000e+01 -4.000000000000e+00 0.0 
2.900000000000e+01 -4.000000000000e+00 0.0 
2.800000000000e+01 -4.000000000000e+00 0.0 
2.700000000000e+01 -4.000000000000e+00 0.0 
2.847826086957e+01 -5.000000000000e+00 0.0 
2.945652173913e+01 -5.000000000000e+00 0.0 
3.043478260870e+01 -5.000000000000e+00 0.0 
3.141304347826e+01 -5.000000000000e+00 0.0 
3.239130434783e+01 -5.000000000000e+00 0.0 
3.336956521739e+01 -5.000000000000e+00 0.0 
3.434782608696e+01 -5.000000000000e+00 0.0 
3.532608695652e+01 -5.000000000000e+00 0.0 
3.630434782609e+01 -5.000000000000e+00 0.0 
3.728260869565e+01 -5.000000000000e+00 0.0 
3.826086956522e+01 -5.000000000000e+00 0.0 
3.923913043478e+01 -5.000000000000e+00 0.0 
4.021739130435e+01 -5.000000000000e+00 0.0 
4.119565217391e+01 -5.000000000000e+00 0.0 
4.217391304348e+01 -5.000000000000e+00 0.0 
4.315217391304e+01 -5.000000000000e+00 0.0 
4.413043478261e+01 -5.000000000000e+00 0.0 
4.510869565217e+01 -5.000000000000e+00 0.0 
4.608695652174e+01 -5.000000000000e+00 0.0 
4.706521739130e+01 -5.000000000000e+00 0.0 
4.804347826087e+01 -5.000000000000e+00 0.0 
4.902173913043e+01 -5.000000000000e+00 0.0 
4.900000000001e+01 -6.000000000000e+00 0.0 
4.800000000003e+01 -6.000000000000e+00 0.0 
4.700000000004e+01 -6.000000000000e+00 0.0 
4.600000000006e+01 -6.000000000000e+00 0.0 
4.500000000007e+01 -6.000000000000e+00 0.0 
4.400000000009e+01 -6.000000000000e+00 0.0 
4.300000000010e+01 -6.000000000000e+00 0.0 
4.200000000012e+01 -6.000000000000e+00 0.0 
4.100000000013e+01 -6.000000000000e+00 0.0 
4.000000000014e+01 -6.000000000000e+00 0.0 
3.900000000014e+01 -6.000000000000e+00 0.0 
3.800000000012e+01 -6.000000000000e+00 0.0 
3.700000000010e+01 -6.000000000000e+00 0.0 
3.600000000008e+01 -6.000000000000e+00 0.0 
3.500000000006e+01 -6.000000000000e+00 0.0 
3.400000000005e+01 -6.000000000000e+00 0.0 
3.300000000003e+01 -6.000000000000e+00 0.0 
3.200000000001e+01 -6.000000000000e+00 0.0 
3.100000000000e+01 -6.000000000000e+00 0.0 
3.000000000000e+01 -6.000000000000e+00 0.0 
3.147499999998e+01 -7.000000000000e+00 0.0 
3.244999999998e+01 -7.000000000000e+00 0.0 
3.342499999998e+01 -7.000000000000e+00 0.0 
3.439999999998e+01 -7.000000000000e+00 0.0 
3.537499999998e+01 -7.000000000000e+00 0.0 
3.634999999998e+01 -7.000000000000e+00 0.0 
3.732499999998e+01 -7.000000000000e+00 0.0 
3.829999999998e+01 -7.000000000000e+00 0.0 
3.927499999999e+01 -7.000000000000e+00 0.0 
4.024999999999e+01 -7.000000000000e+00 0.0 
4.122499999999e+01 -7.000000000000e+00 0.0 
4.219999999999e+01 -7.000000000000e+00 0.0 
4.317499999999e+01 -7.000000000000e+00 0.0 
4.414999999999e+01 -7.000000000000e+00 0.0 
4.512499999999e+01 -7.000000000000e+00 0.0 
4.609999999999e+01 -7.000000000000e+00 0.0 
4.707500000000e+01 -7.000000000000e+00 0.0 
4.805000000000e+01 -7.000000000000e+00 0.0 
4.902500000000e+01 -7.000000000000e+00 0.0 
4.900000000000e+01 -8.000000000000e+00 0.0 
4.800000000000e+01 -8.000000000000e+00 0.0 
4.700000000000e+01 -8.000000000000e+00 0.0 
4.600000000000e+01 -8.000000000000e+00 0.0 
4.500000000000e+01 -8.000000000000e+00 0.0 
4.400000000000e+01 -8.000000000000e+00 0.0 
4.300000000000e+01 -8.000000000000e+00 0.0 
4.200000000000e+01 -8.000000000000e+00 0.0 
4.100000000000e+01 -8.000000000000e+00 0.0 
4.000000000000e+01 -8.000000000000e+00 0.0 
3.900000000000e+01 -8.000000000000e+00 0.0 
3.800000000000e+01 -8.000000000000e+00 0.0 
3.700000000000e+01 -8.000000000000e+00 0.0 
3.600000000000e+01 -8.000000000000e+00 0.0 
3.500000000000e+01 -8.000000000000e+00 0.0 
3.400000000000e+01 -8.000000000000e+00 0.0 
3.300000000000e+01 -8.000000000000e+00 0.0 
3.447058823527e+01 -9.000000000000e+00 0.0 
3.544117647055e+01 -9.000000000000e+00 0.0 
3.641176470582e+01 -9.000000000000e+00 0.0 
3.738235294109e+01 -9.000000000000e+00 0.0 
3.835294117637e+01 -9.000000000000e+00 0.0 
3.932352941164e+01 -9.000000000000e+00 0.0 
4.029411764691e+01 -9.000000000000e+00 0.0 
4.126470588219e+01 -9.000000000000e+00 0.0 
4.223529411748e+01 -9.000000000000e+00 0.0 
4.320588235279e+01 -9.000000000000e+00 0.0 
4.417647058811e+01 -9.000000000000e+00 0.0 
4.514705882342e+01 -9.000000000000e+00 0.0 
4.611764705874e+01 -9.000000000000e+00 0.0 
4.708823529405e+01 -9.000000000000e+00 0.0 
4.805882352937e+01 -9.000000000000e+00 0.0 
4.902941176468e+01 -9.000000000000e+00 0.0 
2.075000000000e+01 -5.000000000006e-01 0.0 
2.225000000000e+01 -1.500000000000e+00 0.0 
2.375000000000e+01 -2.500000000000e+00 0.0 
2.525000000000e+01 -3.500000000000e+00 0.0 
2.675000000000e+01 -4.500000000000e+00 0.0 
2.825000000000e+01 -5.500000000000e+00 0.0 
2.975000000000e+01 -6.500000000000e+00 0.0 
3.125000000000e+01 -7.500000000000e+00 0.0 
3.275000000000e+01 -8.500000000000e+00 0.0 
3.425000000000e+01 -9.500000000000e+00 0.0 
2.226951693683e+01 -2.403913980114e+00 0.0 
1.650149491944e+01 -1.913490915758e+01 0.0 
1.050042386896e+01 -8.504605092970e-01 0.0 
1.553146524712e+01 -8.281255032105e-01 0.0 
1.150000000008e+01 -1.913397459621e+01 0.0 
2.530060260647e+01 -4.428336431260e+00 0.0 
8.651114563942e-01 -1.052096295641e+01 0.0 
2.050000000013e+01 -1.913397459622e+01 0.0 
2.819198729811e+01 -6.399519052838e+00 0.0 
2.445670302931e+01 -1.915649188023e+01 0.0 
3.117591465718e+01 -8.394293040695e+00 0.0 
7.465053044742e+00 -1.920411160581e+01 0.0 
6.398295709691e+00 -8.230098819370e-01 0.0 
2.849659607461e+01 -1.914296187762e+01 0.0 
3.418732642882e+01 -1.040265792588e+01 0.0 
8.386450935063e-01 -6.533605142809e+00 0.0 
9.178661865596e-01 -1.329769195597e+01 0.0 
3.149448624493e+01 -1.910466733764e+01 0.0 
3.552916747426e+01 -1.914628590759e+01 0.0 
4.449210346537e+01 -1.914359085008e+01 0.0 
4.140975975145e+01 -1.906941860733e+01 0.0 
3.847475958753e+01 -1.916622382724e+01 0.0 
3.653774794640e+01 -1.088712800241e+01 0.0 
4.047886341787e+01 -1.090139014048e+01 0.0 
4.348006339825e+01 -1.092792621489e+01 0.0 
4.919519968029e+01 -1.451526755068e+01 0.0 
4.500000000032e+00 -1.913397459621e+01 0.0 
1.856136921614e+01 -8.212235170404e-01 0.0 
3.499895312306e+00 -8.661165539723e-01 0.0 
9.076088696565e-01 -1.642306201891e+01 0.0 
4.655174095477e+01 -1.086183387525e+01 0.0 
9.430688970604e-01 -3.496112672958e+00 0.0 
3.353992337063e+01 -1.901202090820e+01 0.0 
2.249746016977e+01 -1.921262287282e+01 0.0 
2.650122741777e+01 -1.916123026018e+01 0.0 
1.863571384842e+01 -1.908325534840e+01 0.0 
1.450089971693e+01 -1.917691901860e+01 0.0 
1.350044695317e+01 -8.659695299584e-01 0.0 
3.849987469880e+01 -1.084154983397e+01 0.0 
9.454419857884e+00 -1.900818879936e+01 0.0 
4.917398660523e+01 -1.645692866081e+01 0.0 
8.500000000000e+00 -8.660254037844e-01 0.0 
8.660319230785e-01 -8.500111697188e+00 0.0 
4.649022621545e+01 -1.930506220113e+01 0.0 
2.667688107845e+01 -5.420288124331e+00 0.0 
2.379251615665e+01 -3.412225477429e+00 0.0 
2.966631491830e+01 -7.389030232731e+00 0.0 
3.267915035995e+01 -9.396934932445e+00 0.0 
2.074836922338e+01 -1.320054020319e+00 0.0 
4.915985743621e+01 -1.261973384855e+01 0.0 
2.527129768623e+00 -1.931592414663e+01 0.0 
1.538676247410e+00 -8.436956619311e-01 0.0 
4.908096641539e+01 -1.842484004551e+01 0.0 
3.478612492673e+01 -1.090889364140e+01 0.0 
3.409757055860e+01 -1.131991530427e+01 0.0 
3.501895309466e+01 -1.177687842717e+01 0.0 
3.407758073088e+01 -1.224293381580e+01 0.0 
3.484541875390e+01 -1.277051428430e+01 0.0 
3.400322025842e+01 -1.319022775640e+01 0.0 
3.321672625034e+01 -1.266779191233e+01 0.0 
3.315244139236e+01 -1.360984106532e+01 0.0 
3.236335186892e+01 -1.308463225210e+01 0.0 
3.478337442841e+01 -1.372341158982e+01 0.0 
3.230105923633e+01 -1.403023731610e+01 0.0 
3.150954055289e+01 -1.350301767700e+01 0.0 
3.144604792090e+01 -1.444931742516e+01 0.0 
3.065653897123e+01 -1.392357262981e+01 0.0 
3.071897610812e+01 -1.297447031198e+01 0.0 
2.986790411740e+01 -1.339226181535e+01 0.0 
2.993181466745e+01 -1.244703272398e+01 0.0 
2.908023061869e+01 -1.286254537734e+01 0.0 
2.901619051372e+01 -1.380881655279e+01 0.0 
2.822986160390e+01 -1.327695262116e+01 0.0 
2.829453476870e+01 -1.233265343811e+01 0.0 
2.744542905518e+01 -1.274510491105e+01 0.0 
2.751120089246e+01 -1.180368086886e+01 0.0 
2.666218649885e+01 -1.221619339205e+01 0.0 
2.672371209234e+01 -1.127125228527e+01 0.0 
2.587763216302e+01 -1.168539979114e+01 0.0 
2.581165585299e+01 -1.262994410089e+01 0.0 
2.502890882577e+01 -1.209827323619e+01 0.0 
2.509631327757e+01 -1.115492410304e+01 0.0 
2.424662989877e+01 -1.156630981079e+01 0.0 
2.431704046904e+01 -1.062389179334e+01 0.0 
2.346445438728e+01 -1.103427680694e+01 0.0 
2.339382552877e+01 -1.197964871788e+01 0.0 
2.260936050780e+01 -1.144513277642e+01 0.0 
2.268075012022e+01 -1.049911928216e+01 0.0 
2.182525737661e+01 -1.090920811464e+01 0.0 
2.189682319817e+01 -9.961716944568e+00 0.0 
2.104174127792e+01 -1.037266986667e+01 0.0 
2.111304367575e+01 -9.424179358711e+00 0.0 
2.025306185381e+01 -9.832727364719e+00 0.0 
2.018141124247e+01 -1.079140628871e+01 0.0 
1.938594498257e+01 -1.025147354112e+01 0.0 
1.946106490453e+01 -9.288010758448e+00 0.0 
1.858929958352e+01 -9.706319802516e+00 0.0 
1.851540991219e+01 -1.067205988724e+01 0.0 
1.771485303178e+01 -1.012504443115e+01 0.0 
1.764134552256e+01 -1.109360378538e+01 0.0 
1.683745148095e+01 -1.054496365337e+01 0.0 
1.691852964353e+01 -9.582555261178e+00 0.0 
1.603603813062e+01 -1.000160132379e+01 0.0 
1.595824239350e+01 -1.096750698862e+01 0.0 
1.515080624291e+01 -1.041639501931e+01 0.0 
1.523171602559e+01 -9.451711491453e+00 0.0 
1.434621060709e+01 -9.871956467464e+00 0.0 
1.426777178765e+01 -1.083749501371e+01 0.0 
1.345775282374e+01 -1.028803175500e+01 0.0 
1.354103873368e+01 -9.324918457162e+00 0.0 
1.265072018622e+01 -9.742612837270e+00 0.0 
1.257285762070e+01 -1.071557782384e+01 0.0 
1.175874815690e+01 -1.015972324288e+01 0.0 
1.184203019714e+01 -9.193604071377e+00 0.0 
1.094927709905e+01 -9.612103238656e+00 0.0 
1.086938022910e+01 -1.058685085646e+01 0.0 
1.005424098961e+01 -1.002939116380e+01 0.0 
9.977974613295e+00 -1.101324897989e+01 0.0 
1.012915646404e+01 -9.051815821181e+00 0.0 
9.237127782494e+00 -9.471239055559e+00 0.0 
9.308426593771e+00 -8.483376461131e+00 0.0 
8.418806073345e+00 -8.910712374517e+00 0.0 
2.253688464062e+01 -1.239459402279e+01 0.0 
8.495126726666e+00 -7.921646665254e+00 0.0 
9.389727383206e+00 -7.512103628377e+00 0.0 
7.601560812974e+00 -8.349460349344e+00 0.0 
7.525680547759e+00 -9.339736686940e+00 0.0 
7.677888324502e+00 -7.359727833346e+00 0.0 
6.782001206724e+00 -7.788454494773e+00 0.0 
6.858778622885e+00 -6.797338062822e+00 0.0 
2.196596590865e+01 -8.979025665442e+00 0.0 
2.816540108272e+01 -1.422634142353e+01 0.0 
5.961601194403e+00 -7.226824010712e+00 0.0 
6.038171749656e+00 -6.234825887079e+00 0.0 
6.936257279557e+00 -5.805287640737e+00 0.0 
6.115068918323e+00 -5.242109758768e+00 0.0 
3.564391741903e+01 -1.329240553876e+01 0.0 
3.558115605778e+01 -1.425902892003e+01 0.0 
3.645445282201e+01 -1.381970786460e+01 0.0 
3.639744204358e+01 -1.479198128612e+01 0.0 
3.727266909778e+01 -1.435399586226e+01 0.0 
5.216667013081e+00 -5.671788584287e+00 0.0 
3.220697293295e+01 -1.499594545107e+01 0.0 
3.551112158269e+01 -1.523479869250e+01 0.0 
2.836056961467e+01 -1.139032434851e+01 0.0 
2.516730388602e+01 -1.021382726837e+01 0.0 
1.844436907403e+01 -1.164097215196e+01 0.0 
5.885434318740e+00 -8.218694781467e+00 0.0 
5.064071066867e+00 -7.656614643901e+00 0.0 
4.988089103470e+00 -8.649722082718e+00 0.0 
1.079421050408e+01 -1.157014985435e+01 0.0 
9.902420005256e+00 -1.199903342656e+01 0.0 
1.071994252214e+01 -1.255727909771e+01 0.0 
9.826974788171e+00 -1.298659581767e+01 0.0 
1.064607883789e+01 -1.354595476388e+01 0.0 
9.751541265343e+00 -1.397556905071e+01 0.0 
8.932296185869e+00 -1.341553353988e+01 0.0 
8.856399248106e+00 -1.440570715508e+01 0.0 
8.036186803543e+00 -1.384470558472e+01 0.0 
1.057112875118e+01 -1.453516759081e+01 0.0 
1.146582585687e+01 -1.410539926903e+01 0.0 
7.959894480382e+00 -1.483563350928e+01 0.0 
7.138792279156e+00 -1.427465094140e+01 0.0 
7.062506792418e+00 -1.526615385482e+01 0.0 
6.240693558277e+00 -1.470508863040e+01 0.0 
6.316957575451e+00 -1.371212581281e+01 0.0 
5.418183007107e+00 -1.414253605022e+01 0.0 
5.494748364428e+00 -1.314886770603e+01 0.0 
1.756825565873e+01 -1.206433872514e+01 0.0 
1.837565773345e+01 -1.261356468266e+01 0.0 
1.749574831391e+01 -1.303769280014e+01 0.0 
1.830539187332e+01 -1.358828364284e+01 0.0 
1.742278925170e+01 -1.401367746928e+01 0.0 
1.823303007798e+01 -1.456432294258e+01 0.0 
1.734941694138e+01 -1.499213734361e+01 0.0 
1.653760041637e+01 -1.443920312098e+01 0.0 
3.056237977307e+01 -1.487132260174e+01 0.0 
1.866469084762e+01 -8.742953000418e+00 0.0 
1.953669694916e+01 -8.326038909849e+00 0.0 
1.874194303780e+01 -7.780688158966e+00 0.0 
1.961032016741e+01 -7.366854697285e+00 0.0 
1.881715755159e+01 -6.821102209649e+00 0.0 
1.968369797150e+01 -6.407747217358e+00 0.0 
1.889237123259e+01 -5.858375520026e+00 0.0 
1.802038875366e+01 -6.276202618170e+00 0.0 
1.809793837984e+01 -5.307629520489e+00 0.0 
1.721985207997e+01 -5.728242054488e+00 0.0 
1.729850893523e+01 -4.756990819347e+00 0.0 
1.641745664240e+01 -5.174636548624e+00 0.0 
2.495978509456e+01 -1.304406404294e+01 0.0 
1.911567814831e+01 -1.413854250293e+01 0.0 
1.904387332608e+01 -1.511463127723e+01 0.0 
1.992115934240e+01 -1.468788025898e+01 0.0 
7.013706899628e+00 -4.812582868662e+00 0.0 
5.342091874585e+00 -1.513658157269e+01 0.0 
1.139098043784e+01 -1.509488509480e+01 0.0 
1.228151810610e+01 -1.465617481983e+01 0.0 
1.646373110164e+01 -1.541993323337e+01 0.0 
5.293328636712e+00 -4.678385108584e+00 0.0 
1.975965862987e+01 -5.448124345648e+00 0.0 
2.054318374236e+01 -5.992561293251e+00 0.0 
3.721453439063e+01 -1.533216152738e+01 0.0 
3.809302733893e+01 -1.489235527381e+01 0.0 
1.220852788900e+01 -1.565304565230e+01 0.0 
4.394120899730e+00 -5.108397613210e+00 0.0 
8.779354620288e+00 -1.539524721159e+01 0.0 
1.817791047702e+01 -4.338570146253e+00 0.0 
4.518860013839e+00 -1.457343189307e+01 0.0 
4.442712140414e+00 -1.556841391069e+01 0.0 
8.115343466391e+00 -1.285760324283e+01 0.0 
1.985334703171e+01 -1.566478400426e+01 0.0 
2.071953850276e+01 -1.522074243119e+01 0.0 
1.634012953883e+01 -6.154777738301e+00 0.0 
1.553479994708e+01 -5.593730508879e+00 0.0 
1.561265946942e+01 -4.617761762647e+00 0.0 
1.470674212978e+01 -5.064576488228e+00 0.0 
1.464498299883e+01 -6.026514471420e+00 0.0 
1.383271561817e+01 -5.467796261169e+00 0.0 
1.389241253067e+01 -4.504338666645e+00 0.0 
1.301868735463e+01 -4.907185188626e+00 0.0 
1.294514184846e+01 -5.888160903592e+00 0.0 
1.212955968622e+01 -5.328262335277e+00 0.0 
1.220721122383e+01 -4.341264976687e+00 0.0 
1.131324345897e+01 -4.766773516508e+00 0.0 
5.266597955397e+00 -1.613148974258e+01 0.0 
1.737805990867e+01 -3.786677807525e+00 0.0 
3.078438094513e+01 -1.203225297748e+01 0.0 
1.131569882285e+01 -1.608511932110e+01 0.0 
1.728478341782e+01 -1.596017432313e+01 0.0 
3.803465906019e+01 -1.587509751228e+01 0.0 
3.891681276677e+01 -1.543395196905e+01 0.0 
3.897340985302e+01 -1.444710288980e+01 0.0 
3.980095968193e+01 -1.499059496613e+01 0.0 
3.974334598189e+01 -1.597921884150e+01 0.0 
4.062964983717e+01 -1.553518690417e+01 0.0 
4.068729602479e+01 -1.454434445295e+01 0.0 
4.151772679790e+01 -1.508974196007e+01 0.0 
4.157505195739e+01 -1.409694289912e+01 0.0 
4.240699932656e+01 -1.464347955968e+01 0.0 
4.234898051011e+01 -1.563721375790e+01 0.0 
4.323934606035e+01 -1.519082036405e+01 0.0 
4.329740528208e+01 -1.419587509788e+01 0.0 
4.413056841369e+01 -1.474359631875e+01 0.0 
4.418850110108e+01 -1.374786684042e+01 0.0 
4.502219770667e+01 -1.429605103525e+01 0.0 
4.496411937907e+01 -1.529215882720e+01 0.0 
4.490027319897e+00 -4.154167794594e+00 0.0 
1.565080385988e+01 -1.486411982419e+01 0.0 
1.557610691279e+01 -1.584855627870e+01 0.0 
4.195350646612e+00 -8.089117689096e+00 0.0 
4.124027797830e+00 -9.082831955007e+00 0.0 
4.917944318925e+00 -9.643530901533e+00 0.0 
4.020105689502e+00 -1.007439673661e+01 0.0 
4.587185899277e+01 -1.484039992728e+01 0.0 
4.580078661551e+01 -1.584043391042e+01 0.0 
2.061956522375e+01 -5.046701343981e+00 0.0 
2.139572955529e+01 -5.579553449826e+00 0.0 
3.715344357292e+01 -1.631485124583e+01 0.0 
3.618886196443e+00 -1.500471207167e+01 0.0 
3.695606940204e+00 -1.400939692294e+01 0.0 
2.438890661143e+01 -9.686110599723e+00 0.0 
2.523267572778e+01 -9.276766000622e+00 0.0 
2.446094171539e+01 -8.751904591412e+00 0.0 
2.529089822738e+01 -8.321495612547e+00 0.0 
2.606882688827e+01 -8.864724051119e+00 0.0 
2.452116646430e+01 -7.792756462004e+00 0.0 
1.235543269617e+01 -1.365845617339e+01 0.0 
4.318116874181e+01 -1.618567469992e+01 0.0 
7.835066111909e+00 -5.376366223896e+00 0.0 
7.905687335704e+00 -4.382539065697e+00 0.0 
3.542640009567e+00 -1.600035116542e+01 0.0 
1.572431503071e+01 -1.388358386695e+01 0.0 
2.574684696680e+01 -1.357896141127e+01 0.0 
2.488842657651e+01 -1.399674354505e+01 0.0 
2.568301775611e+01 -1.453552048595e+01 0.0 
2.481535572009e+01 -1.495542756508e+01 0.0 
2.561729699688e+01 -1.549784648532e+01 0.0 
2.474623061296e+01 -1.592058894178e+01 0.0 
2.394234041695e+01 -1.537572575827e+01 0.0 
2.065825452567e+01 -1.621899055217e+01 0.0 
2.387180528935e+01 -1.634552264687e+01 0.0 
4.585364400844e+01 -1.383912334080e+01 0.0 
1.998744432052e+01 -1.370317155541e+01 0.0 
1.205356951443e+01 -6.313580285498e+00 0.0 
5.396543905849e+00 -3.731818611283e+00 0.0 
1.139652573295e+01 -3.745819399350e+00 0.0 
3.574124306703e+00 -4.551456826011e+00 0.0 
3.494140761930e+00 -5.539787055649e+00 0.0 
1.213651452413e+01 -1.664505033022e+01 0.0 
2.555045568519e+01 -1.646529356744e+01 0.0 
2.641671114986e+01 -1.603899382371e+01 0.0 
2.612920721894e+01 -7.906435260873e+00 0.0 
2.690339829698e+01 -8.456969591431e+00 0.0 
1.978024383368e+01 -1.664410216353e+01 0.0 
3.732829979082e+01 -1.336926601859e+01 0.0 
4.074336584605e+01 -1.355133328401e+01 0.0 
4.163204691081e+01 -1.310280943992e+01 0.0 
3.773826114429e+00 -3.493444309145e+00 0.0 
1.228783001032e+01 -3.374822835872e+00 0.0 
4.057110462520e+01 -1.652588478000e+01 0.0 
2.132535497898e+01 -6.523623360525e+00 0.0 
2.216932532211e+01 -6.110044769206e+00 0.0 
1.825781152128e+01 -3.370146817147e+00 0.0 
1.745679445888e+01 -2.812942552063e+00 0.0 
4.666517057280e+01 -1.539981381543e+01 0.0 
4.660575894464e+01 -1.639014410186e+01 0.0 
4.838230979954e+00 -1.063643436446e+01 0.0 
3.938942630206e+00 -1.106778981745e+01 0.0 
1.302967218620e+01 -1.621373452436e+01 0.0 
1.049548003190e+01 -4.204825123240e+00 0.0 
4.573571907195e+01 -1.683820511148e+01 0.0 
1.483686335807e+01 -1.430849689310e+01 0.0 
1.490982658890e+01 -1.332679386284e+01 0.0 
3.190805600162e+00 -9.510968358545e+00 0.0 
2.146625721848e+01 -4.642437303115e+00 0.0 
2.069866208266e+01 -4.111852942193e+00 0.0 
1.286859345584e+01 -6.873252723348e+00 0.0 
1.041794493184e+01 -5.194814260291e+00 0.0 
2.671081808965e+00 -4.976806516331e+00 0.0 
1.295786792925e+01 -1.720506531799e+01 0.0 
3.968438206511e+01 -1.696869067241e+01 0.0 
2.308550456051e+01 -1.579963151273e+01 0.0 
2.315593682844e+01 -1.482967445235e+01 0.0 
2.299471449450e+01 -1.677069968132e+01 0.0 
1.057344714696e+01 -3.214252277840e+00 0.0 
1.124057603753e+01 -1.707713739755e+01 0.0 
2.718402535754e+00 -1.543629882103e+01 0.0 
2.638549692805e+01 -1.696744916809e+01 0.0 
2.723416349007e+01 -1.658104204545e+01 0.0 
2.210193351704e+01 -7.046769643417e+00 0.0 
2.295180925161e+01 -6.657397605239e+00 0.0 
2.301355235833e+01 -5.709111896800e+00 0.0 
2.379052718281e+01 -6.254965406962e+00 0.0 
3.243528601237e+01 -1.214181853533e+01 0.0 
2.287977995457e+01 -7.583722368300e+00 0.0 
2.999876029544e+01 -1.150837653096e+01 0.0 
3.084435366963e+01 -1.109693775882e+01 0.0 
3.006650579669e+01 -1.057778994262e+01 0.0 
2.683802665066e+01 -9.386863216633e+00 0.0 
2.768641973621e+01 -8.988883915666e+00 0.0 
2.040296980397e+01 -7.903629133404e+00 0.0 
1.925235024054e+01 -1.218872783130e+01 0.0 
5.735667000424e+00 -1.020577277283e+01 0.0 
6.396559909872e+00 -1.272326295703e+01 0.0 
1.161199420714e+01 -1.212812778229e+01 0.0 
4.229046132615e+01 -1.663084237572e+01 0.0 
4.312275399692e+01 -1.718087491556e+01 0.0 
4.335502068163e+01 -1.320039231514e+01 0.0 
4.424630298089e+01 -1.275160688731e+01 0.0 
7.090116643816e+00 -3.818998061530e+00 0.0 
7.989472176569e+00 -3.389238711200e+00 0.0 
9.085824861778e+00 -1.144036167408e+01 0.0 
1.041972423731e+01 -1.651614080893e+01 0.0 
3.797525112640e+01 -1.686052038746e+01 0.0 
3.709114253394e+01 -1.730125999865e+01 0.0 
3.626966748340e+01 -1.675477052919e+01 0.0 
1.385164591440e+01 -1.677597757552e+01 0.0 
1.787152588784e+01 -8.198993896093e+00 0.0 
1.668849729812e+01 -1.248560611628e+01 0.0 
1.659546177905e+01 -3.232482605530e+00 0.0 
2.332214717345e+01 -1.292598167641e+01 0.0 
7.168238450786e+00 -2.824711686516e+00 0.0 
2.894878403906e+01 -1.475427524446e+01 0.0 
2.646763248247e+00 -1.643270107952e+01 0.0 
3.467431944285e+00 -1.699648837348e+01 0.0 
2.059475877282e+01 -1.719473628526e+01 0.0 
3.333868355437e+01 -1.080596971682e+01 0.0 
2.246451062637e+01 -1.334557761546e+01 0.0 
2.167821896388e+01 -1.280847834858e+01 0.0 
3.089653185767e+01 -1.017198487212e+01 0.0 
3.012604365669e+01 -9.657298805968e+00 0.0 
2.929627299435e+01 -1.006100135274e+01 0.0 
2.936201435219e+01 -9.136748899251e+00 0.0 
1.198219052702e+01 -7.291887238230e+00 0.0 
1.116702076035e+01 -6.731976101053e+00 0.0 
2.551388807505e+01 -1.746927036981e+01 0.0 
2.378639090370e+01 -1.728678807149e+01 0.0 
2.718543627188e+01 -1.748668016909e+01 0.0 
2.804681050301e+01 -1.712626668293e+01 0.0 
1.970737034667e+01 -1.762317646822e+01 0.0 
1.889535776135e+01 -1.707158098231e+01 0.0 
2.593777711283e+00 -5.971157087874e+00 0.0 
2.773468281110e+01 -8.067164273938e+00 0.0 
4.051205884347e+01 -1.751819982458e+01 0.0 
3.166903145421e+01 -1.068032992414e+01 0.0 
1.033042452886e+01 -1.748285844336e+01 0.0 
9.519274604626e+00 -1.694349240233e+01 0.0 
1.668308673328e+01 -2.255861778986e+00 0.0 
1.570531902832e+01 -2.676795860126e+00 0.0 
4.655826903379e+01 -1.736656245706e+01 0.0 
2.384148070773e+01 -5.328744256413e+00 0.0 
2.460255123641e+01 -5.852182672816e+00 0.0 
2.306638135119e+01 -4.798935440613e+00 0.0 
8.467720450578e-01 -1.849576263072e+01 0.0 
4.849657322345e+01 -1.084860705506e+01 0.0 
2.565860899507e+00 -1.742859793981e+01 0.0 
2.764418872564e+01 -9.927142821799e+00 0.0 
4.565165880064e+01 -1.785336695404e+01 0.0 
2.162231831329e+01 -1.376528337468e+01 0.0 
2.360646352969e+01 -9.136041963102e+00 0.0 
1.392738739903e+01 -1.578285505772e+01 0.0 
4.756405947478e+01 -1.683706841809e+01 0.0 
4.740895034054e+01 -1.793766756892e+01 0.0 
4.080779328826e+01 -1.257387192544e+01 0.0 
4.168907939671e+01 -1.210739129181e+01 0.0 
3.991197722154e+01 -1.300815793917e+01 0.0 
1.905536506762e+01 -3.940076697685e+00 0.0 
1.923879596617e+01 -2.875000734166e+00 0.0 
4.401386745746e+01 -1.673483229438e+01 0.0 
4.247233362525e+00 -7.094581653070e+00 0.0 
3.286051630211e+00 -7.635300020553e+00 0.0 
9.609533347623e+00 -4.594311677967e+00 0.0 
9.523554636369e+00 -5.595597029530e+00 0.0 
5.660336628893e+00 -1.119290329628e+01 0.0 
6.558070063295e+00 -1.076385809362e+01 0.0 
2.809866407414e+01 -1.518037766799e+01 0.0 
2.888868674504e+01 -1.570360690070e+01 0.0 
2.654431550819e+01 -1.411217777162e+01 0.0 
1.402158265969e+01 -1.375404617952e+01 0.0 
1.409592494026e+01 -1.277071998942e+01 0.0 
1.499355196178e+01 -1.235270737023e+01 0.0 
4.221535326155e+01 -1.759335617494e+01 0.0 
4.305583287033e+01 -1.822663146802e+01 0.0 
1.280748808359e+01 -7.834332838285e+00 0.0 
1.368988389326e+01 -7.420529606172e+00 0.0 
1.110091796060e+01 -7.683966794328e+00 0.0 
3.963446145980e+01 -1.794331310122e+01 0.0 
3.423932362213e+00 -1.796415590455e+01 0.0 
4.280814572302e+00 -1.752272834860e+01 0.0 
8.050136380041e+00 -2.421582378631e+00 0.0 
8.888674091650e+00 -2.984264211327e+00 0.0 
2.152839430898e+01 -3.732609965436e+00 0.0 
2.077799585292e+01 -3.183896021866e+00 0.0 
3.618719395821e+01 -1.770276572576e+01 0.0 
3.538165138340e+01 -1.718709995539e+01 0.0 
3.702925326420e+01 -1.828844288807e+01 0.0 
1.756739438711e+00 -5.353284859169e+00 0.0 
2.233710191104e+01 -1.527265621324e+01 0.0 
1.389483555057e+01 -1.771797164730e+01 0.0 
1.475634224300e+01 -1.728357428390e+01 0.0 
1.298797563052e+01 -1.825968924755e+01 0.0 
2.145331271866e+01 -1.673705379077e+01 0.0 
2.133282821169e+01 -1.769400773673e+01 0.0 
2.292139194136e+01 -1.774915400288e+01 0.0 
1.750750053243e+01 -1.861475593469e+00 0.0 
4.830478841772e+01 -1.752611802221e+01 0.0 
4.341203507805e+01 -1.220326745522e+01 0.0 
1.685254151866e+01 -1.443085301632e+00 0.0 
4.431538535165e+01 -1.171841387375e+01 0.0 
4.511308610496e+01 -1.229557320599e+01 0.0 
4.510133242889e+01 -1.123680627466e+01 0.0 
1.846818030617e+00 -4.410877617069e+00 0.0 
3.995468694584e+01 -1.186571542989e+01 0.0 
3.901387459804e+01 -1.242507616755e+01 0.0 
8.966735877533e+00 -1.837818700423e+00 0.0 
4.049310011091e+01 -1.848269508791e+01 0.0 
7.278862053803e+00 -1.918523922691e+00 0.0 
6.429715522129e+00 -2.316676521184e+00 0.0 
9.443505505022e+00 -1.792198868094e+01 0.0 
8.620386951051e+00 -1.737590365556e+01 0.0 
8.571868171503e+00 -1.834436667826e+01 0.0 
7.758629848526e+00 -1.775677907213e+01 0.0 
7.806648388584e+00 -1.680761266021e+01 0.0 
6.908555145436e+00 -1.723746463044e+01 0.0 
4.251709122090e+01 -1.156937480156e+01 0.0 
6.931136405615e+00 -1.832465719263e+01 0.0 
6.015545461353e+00 -1.768865355295e+01 0.0 
5.960535926343e+00 -1.872011001764e+01 0.0 
3.023253444786e+01 -8.761960642196e+00 0.0 
2.454622702599e+01 -6.749421992767e+00 0.0 
2.537499741604e+01 -6.347634963783e+00 0.0 
2.544077378460e+01 -5.431358513649e+00 0.0 
2.801367161747e+01 -1.820907270221e+01 0.0 
2.884507806914e+01 -1.762032095326e+01 0.0 
1.821474531936e+00 -1.588901260460e+01 0.0 
1.821006262604e+00 -1.489370287756e+01 0.0 
4.599962488908e+01 -1.176478780598e+01 0.0 
4.705457470007e+01 -1.172182804229e+01 0.0 
4.667668314802e+01 -1.263464558483e+01 0.0 
4.759648056504e+01 -1.252380987933e+01 0.0 
4.728041618103e+01 -1.341928568376e+01 0.0 
4.825209352360e+01 -1.330491640804e+01 0.0 
4.778118233428e+01 -1.420151961695e+01 0.0 
2.388192727579e+01 -1.826934810142e+01 0.0 
2.381714684947e+01 -4.385917965223e+00 0.0 
3.172733219247e+01 -9.758744265248e+00 0.0 
1.882012070658e+01 -1.805540597212e+01 0.0 
1.805667505243e+01 -1.742221226236e+01 0.0 
2.852599958080e+01 -8.597196079481e+00 0.0 
2.856486123437e+01 -7.661382718527e+00 0.0 
1.111792842875e+01 -1.818223852980e+01 0.0 
2.203322722466e+01 -7.986646678802e+00 0.0 
3.955703676900e+01 -1.903246763601e+01 0.0 
1.944842206513e+01 -8.038750575182e-01 0.0 
1.909882767783e+01 -1.746322740933e+00 0.0 
2.281147422941e+01 -8.525912918334e+00 0.0 
2.850633001468e+01 -9.533271335986e+00 0.0 
2.532883344309e+01 -7.308951659710e+00 0.0 
2.620475466461e+01 -6.979208585400e+00 0.0 
1.396278270396e+01 -1.475095389807e+01 0.0 
9.791001166724e+00 -2.554159793552e+00 0.0 
2.229293380421e+01 -4.269762271052e+00 0.0 
4.677238984118e+01 -1.430071795514e+01 0.0 
2.228658385918e+01 -3.344747535984e+00 0.0 
8.940223674553e-01 -1.543595733415e+01 0.0 
2.118566862474e+01 -8.435876987696e+00 0.0 
2.678325936437e+01 -1.032621195706e+01 0.0 
2.223400220487e+01 -5.179046761770e+00 0.0 
2.375370625384e+01 -7.251580562134e+00 0.0 
3.156971327386e+01 -1.255534750737e+01 0.0 
3.328226391312e+01 -1.172914813316e+01 0.0 
3.250948774219e+01 -1.120157009348e+01 0.0 
2.032993445717e+01 -8.867880112202e+00 0.0 
2.697226974856e+01 -7.536633082045e+00 0.0 
2.707377810386e+01 -6.590835263295e+00 0.0 
2.914099246827e+01 -1.191678458549e+01 0.0 
3.544824072239e+01 -1.621126558525e+01 0.0 
3.456511855436e+01 -1.665054783843e+01 0.0 
3.448395810225e+01 -1.759117813016e+01 0.0 
3.368378673938e+01 -1.708037781328e+01 0.0 
3.375560452567e+01 -1.610973066913e+01 0.0 
3.288001547988e+01 -1.654324255651e+01 0.0 
3.282475929147e+01 -1.749725654692e+01 0.0 
3.199880906313e+01 -1.697294088625e+01 0.0 
3.197001272932e+01 -1.811667776864e+01 0.0 
3.111884713021e+01 -1.742166785755e+01 0.0 
3.120418962865e+01 -1.642155709385e+01 0.0 
3.034666704371e+01 -1.683123833816e+01 0.0 
3.026224379976e+01 -1.772592851714e+01 0.0 
3.046632362943e+01 -1.582232843075e+01 0.0 
1.961344017324e+01 -1.857459447985e+01 0.0 
2.274975894774e+01 -9.532738811922e+00 0.0 
1.833923246887e+01 -2.396746883672e+00 0.0 
1.988859500848e+01 -2.249244376594e+00 0.0 
2.758045562861e+01 -1.086434261689e+01 0.0 
3.247300178163e+01 -1.909930104252e+01 0.0 
3.461947482503e+01 -1.911879848019e+01 0.0 
2.047161538662e+01 -6.941478180358e+00 0.0 
2.750230940214e+01 -1.915490590764e+01 0.0 
3.165081350803e+01 -1.161860780120e+01 0.0 
1.897456727641e+01 -4.889634688522e+00 0.0 
2.549338539756e+01 -1.914858252089e+01 0.0 
3.462873135081e+01 -1.567482276144e+01 0.0 
3.384432415243e+01 -1.512280684518e+01 0.0 
3.471433767690e+01 -1.469086942990e+01 0.0 
3.651470373046e+01 -1.918207952149e+01 0.0 
3.901742690249e+01 -1.345028556517e+01 0.0 
2.153224102692e+01 -1.920169709333e+01 0.0 
1.918382939341e+01 -1.316226275662e+01 0.0 
2.005389162382e+01 -1.271962165174e+01 0.0 
2.011472087878e+01 -1.175029352900e+01 0.0 
3.210679478412e+01 -1.598038618242e+01 0.0 
1.752175226543e+01 -1.914713022656e+01 0.0 
1.696897240059e+01 -1.832772588765e+01 0.0 
1.599682523337e+01 -1.832599992024e+01 0.0 
1.644507199462e+01 -1.743697981535e+01 0.0 
1.549987712903e+01 -1.915192375101e+01 0.0 
3.050250861901e+01 -1.918943550234e+01 0.0 
2.949944061527e+01 -1.922950455235e+01 0.0 
1.375892575273e+01 -6.447160534926e+00 0.0 
1.457223670180e+01 -7.006709243857e+00 0.0 
1.450818793236e+01 -7.965943451779e+00 0.0 
1.538804712402e+01 -7.553409623699e+00 0.0 
1.545817644768e+01 -6.580929593419e+00 0.0 
1.626506893751e+01 -7.129032608911e+00 0.0 
1.619833811522e+01 -8.086588580887e+00 0.0 
1.714448609609e+01 -6.697429609777e+00 0.0 
2.887616543568e+01 -1.668015232137e+01 0.0 
1.349814589130e+01 -1.918225301544e+01 0.0 
1.153887772210e+01 -1.311384581217e+01 0.0 
1.242708159886e+01 -1.267046795531e+01 0.0 
1.249799674267e+01 -1.169005616014e+01 0.0 
6.631723893693e+00 -9.774184881867e+00 0.0 
7.451471631867e+00 -1.033148796006e+01 0.0 
7.377795355458e+00 -1.132196345268e+01 0.0 
5.810931797536e+00 -9.211654212252e+00 0.0 
2.402683899133e+01 -1.441378562320e+01 0.0 
1.249768692036e+01 -1.917388426624e+01 0.0 
1.580373499437e+01 -1.290751860664e+01 0.0 
8.344650507834e+00 -9.898403995170e+00 0.0 
3.750622115305e+01 -1.086526401533e+01 0.0 
3.699391251667e+01 -1.171695900794e+01 0.0 
3.606517829518e+01 -1.173717504500e+01 0.0 
3.650257641795e+01 -1.270047380221e+01 0.0 
3.808951488918e+01 -1.183518714175e+01 0.0 
4.760380962420e+00 -1.162484888315e+01 0.0 
3.861210370848e+00 -1.205657631736e+01 0.0 
3.038284309476e+00 -1.149851280664e+01 0.0 
2.961598794889e+00 -1.248856794980e+01 0.0 
2.138953225512e+00 -1.193212674534e+01 0.0 
2.227383593457e+00 -1.096258903918e+01 0.0 
2.043265419276e+00 -1.292158472959e+01 0.0 
1.252449446028e+00 -1.225502002753e+01 0.0 
3.949985210740e+01 -1.086594001795e+01 0.0 
1.453499444792e+01 -8.768805922472e-01 0.0 
1.403518950933e+01 -1.749965556633e+00 0.0 
1.300715031023e+01 -1.714737233040e+00 0.0 
1.350929389899e+01 -2.527443911291e+00 0.0 
1.449600910711e+01 -2.595486162864e+00 0.0 
1.395693872901e+01 -3.484211041558e+00 0.0 
1.495105865208e+01 -3.364609636216e+00 0.0 
1.508822528740e+01 -1.766586020494e+00 0.0 
1.250223858430e+01 -8.634590186802e-01 0.0 
1.200279523409e+01 -1.709044504992e+00 0.0 
1.150086239419e+01 -8.592789190668e-01 0.0 
1.101482754194e+01 -1.677730591922e+00 0.0 
1.148018564526e+01 -2.659323866909e+00 0.0 
8.800552119754e+00 -3.989875954728e+00 0.0 
3.452790439430e+00 -1.901136170646e+01 0.0 
8.658451825200e-01 -9.503462241795e+00 0.0 
1.694787786797e+00 -9.000589234502e+00 0.0 
1.703436717094e+00 -8.038819004041e+00 0.0 
2.594197971110e+00 -8.563955242845e+00 0.0 
1.630513735412e+00 -9.907244747511e+00 0.0 
8.566859292791e-01 -7.512203837972e+00 0.0 
1.685461277022e+00 -7.164280248030e+00 0.0 
2.506394468801e+00 -8.623386730818e-01 0.0 
2.007475081581e+00 -1.727729545205e+00 0.0 
9.211534699767e-01 -1.628791366312e+00 0.0 
1.500000000020e+00 -2.598063549486e+00 0.0 
2.482078929963e+00 -2.553580088725e+00 0.0 
2.999795253092e+00 -1.732169015019e+00 0.0 
3.999712607169e+00 -1.728832897453e+00 0.0 
4.499752199340e+00 -8.656478679175e-01 0.0 
4.964377774841e+00 -1.730129617941e+00 0.0 
4.425017908337e+00 -2.597541756243e+00 0.0 
5.446573195014e+00 -8.410144840023e-01 0.0 
4.915722346614e+01 -1.550640962770e+01 0.0 
4.826794919243e+01 -1.600000000000e+01 0.0 
1.053139533193e+01 -1.911782884365e+01 0.0 
4.156049861949e+01 -1.095160998589e+01 0.0 
9.494526624416e+00 -8.650570090219e-01 0.0 
4.555762166964e+01 -1.897098103585e+01 0.0 
4.250656411371e+01 -1.914387356218e+01 0.0 
4.350906466345e+01 -1.917234727395e+01 0.0 
8.759665722424e-01 -1.746422130609e+01 0.0 
1.698936011838e+00 -1.795012186674e+01 0.0 
4.742476811029e+01 -1.900090177972e+01 0.0 
7.749196752349e+00 -6.368049313489e+00 0.0 
3.361572113416e+01 -1.798765193915e+01 0.0 
4.484660149212e+01 -1.728661231383e+01 0.0 
1.984038172228e+01 -4.502575320116e+00 0.0 
1.035080352627e+01 -6.166639575753e+00 0.0 
2.753558010652e+00 -1.444909521181e+01 0.0 
7.217069543032e+00 -1.328635391078e+01 0.0 
4.364336727739e+00 -1.655585677381e+01 0.0 
4.595208426108e+00 -1.357919665443e+01 0.0 
6.164967006980e+00 -1.569873454630e+01 0.0 
1.487855768353e+01 -1.826523774028e+01 0.0 
2.791876456372e+00 -4.019632415181e+00 0.0 
4.246464893515e+01 -1.364898659620e+01 0.0 
4.503855590351e+01 -1.329552780944e+01 0.0 
4.407239109604e+01 -1.573900004093e+01 0.0 
5.141054449252e+00 -6.664290382472e+00 0.0 
3.141083947149e+00 -1.055790764912e+01 0.0 
6.196463198741e+00 -4.256497932609e+00 0.0 
2.599618716181e+01 -1.836893455464e+01 0.0 
2.923057372337e+01 -1.098461757645e+01 0.0 
1.168343877486e+01 -1.114079645041e+01 0.0 
6.706222096238e+00 -8.780364234441e+00 0.0 
8.567858614669e+00 -6.943121440850e+00 0.0 
1.123755132901e+01 -5.753525820030e+00 0.0 
2.353456234423e+01 -1.008536320953e+01 0.0 
9.162073319168e+00 -1.045593739109e+01 0.0 
9.676343469685e+00 -1.496493008366e+01 0.0 
4.490637882905e+01 -1.628778970202e+01 0.0 
7.398129387772e+00 -9.639977982323e-01 0.0 
1.049641705805e+01 -1.552503975272e+01 0.0 
9.010356286268e+00 -1.242805042052e+01 0.0 
3.985573925497e+01 -1.399863651620e+01 0.0 
1.816196318262e+01 -1.554066497931e+01 0.0 
1.306332244168e+01 -3.963646550326e+00 0.0 
4.145850903932e+01 -1.608094559275e+01 0.0 
3.794664933633e+01 -1.779020121986e+01 0.0 
3.819614412903e+01 -1.290749321016e+01 0.0 
6.270014188119e+00 -3.255093186826e+00 0.0 
4.251165370388e+01 -1.263870364997e+01 0.0 
1.207347709171e+01 -1.763942826023e+01 0.0 
3.633240829927e+01 -1.577330481104e+01 0.0 
4.319052668832e+00 -6.101812561904e+00 0.0 
1.676492415806e+01 -1.151547901392e+01 0.0 
2.594059220037e+01 -1.074225223009e+01 0.0 
3.340750911501e+01 -9.898764354137e+00 0.0 
4.397619591281e+01 -1.769773736461e+01 0.0 
2.175611595028e+01 -1.185718747128e+01 0.0 
1.641818733106e+01 -1.640685203215e+01 0.0 
1.661211421753e+01 -1.346121366338e+01 0.0 
3.428853504935e+00 -6.551993389271e+00 0.0 
8.700728832502e+00 -1.638460872825e+01 0.0 
1.931369795309e+01 -1.121629383702e+01 0.0 
4.139798872363e+01 -1.706922153459e+01 0.0 
2.647837478700e+01 -1.507353829290e+01 0.0 
1.779469616424e+01 -9.161615782908e+00 0.0 
3.885879219319e+01 -1.642026488918e+01 0.0 
1.338194936770e+01 -1.125916521471e+01 0.0 
1.897071181111e+01 -1.609204322578e+01 0.0 
2.844308548793e+01 -1.046221003096e+01 0.0 
2.659854702194e+01 -1.316109415760e+01 0.0 
2.979604503271e+01 -1.433296157755e+01 0.0 
2.417694041347e+01 -1.251231397779e+01 0.0 
1.807401327411e+00 -1.388891148480e+01 0.0 
9.599810618782e+00 -1.595439365034e+01 0.0 
1.652144692160e+01 -4.205392788472e+00 0.0 
2.367839450246e+01 -8.188385218643e+00 0.0 
3.814894930468e+01 -1.390748338767e+01 0.0 
2.466448215774e+01 -1.685878545680e+01 0.0 
4.134044524611e+01 -1.806610045954e+01 0.0 
2.600511411958e+01 -9.801774120648e+00 0.0 
7.882158050716e+00 -1.582364037353e+01 0.0 
3.881607873422e+01 -1.737970515013e+01 0.0 
8.270182347708e+00 -1.088622154920e+01 0.0 
8.672520392520e-01 -4.532984309881e+00 0.0 
1.993447205337e+01 -3.579061902667e+00 0.0 
1.794616079549e+01 -7.238038888498e+00 0.0 
2.097277068165e+01 -1.132450168636e+01 0.0 
8.194803300681e+00 -1.187214224265e+01 0.0 
3.522279404911e+01 -1.823342818178e+01 0.0 
6.984481050295e+00 -1.625271465557e+01 0.0 
1.309433007797e+01 -1.521718594215e+01 0.0 
2.150246167611e+01 -1.885399038185e+00 0.0 
3.250689370209e+01 -1.028789870535e+01 0.0 
6.085886272238e+00 -1.668342132851e+01 0.0 
1.588455661727e+01 -1.193498985921e+01 0.0 
1.809323400821e+01 -1.651110084195e+01 0.0 
1.348885082381e+00 -1.136065576512e+01 0.0 
2.497670221995e+01 -1.834631276173e+01 0.0 
2.937062818424e+01 -8.233711194470e+00 0.0 
5.185823744469e+00 -1.711566910207e+01 0.0 
1.477497877209e+01 -1.530177014512e+01 0.0 
2.125346158933e+01 -7.473003997367e+00 0.0 
4.751561118290e+01 -1.084897772632e+01 0.0 
5.056026576843e+00 -1.825750475525e+01 0.0 
1.473948554523e+01 -1.634577436309e+01 0.0 
2.410566630936e+01 -1.345970002612e+01 0.0 
1.507337507513e+01 -1.138527895328e+01 0.0 
3.189857338687e+01 -8.887781229006e+00 0.0 
7.298712468334e+00 -1.230231046246e+01 0.0 
2.738235495295e+01 -1.368931690364e+01 0.0 
3.750141041969e+01 -1.920449893070e+01 0.0 
1.557271965640e+01 -1.683317951731e+01 0.0 
3.393731848929e+01 -1.413034777044e+01 0.0 
6.482156824153e+00 -1.174575135362e+01 0.0 
2.077971718439e+01 -1.421279621836e+01 0.0 
3.455084320178e+00 -2.562590040585e+00 0.0 
3.099056096250e+01 -9.270280416035e+00 0.0 
5.580176125418e+00 -1.217387969259e+01 0.0 
1.707247630389e+01 -7.660651981710e+00 0.0 
1.418658814174e+01 -1.180390575393e+01 0.0 
2.049103025389e+01 -1.811296706038e+01 0.0 
4.680386172316e+00 -1.260396879301e+01 0.0 
1.699679896554e+01 -8.624561788199e+00 0.0 
3.779470168555e+00 -1.303424899720e+01 0.0 
3.036589870126e+01 -7.879832518349e+00 0.0 
3.306993001774e+01 -1.457671062095e+01 0.0 
2.840150110165e+00 -1.346530088269e+01 0.0 
2.732011135052e+01 -1.464591214560e+01 0.0 
5.423639259568e+00 -2.659711955016e+00 0.0 
2.324455961696e+01 -1.387269388211e+01 0.0 
1.752768355571e+00 -1.693128613594e+01 0.0 
1.020244783051e+01 -8.076834012808e+00 0.0 
1.330873875224e+01 -1.222417528206e+01 0.0 
3.297727364880e+01 -1.555480372087e+01 0.0 
2.890929955439e+01 -6.868664170731e+00 0.0 
1.323294664622e+01 -1.320754260334e+01 0.0 
2.726532861246e+01 -1.560593120806e+01 0.0 
2.240020643398e+01 -1.429299177247e+01 0.0 
2.090445823633e+01 -1.228128621332e+01 0.0 
1.315809881502e+01 -1.420739326938e+01 0.0 
2.781328038068e+01 -7.181956082300e+00 0.0 
8.614200829057e+00 -5.936933226306e+00 0.0 
8.714765730069e+00 -4.979270529687e+00 0.0 
1.611881701099e+01 -9.041973294003e+00 0.0 
2.806830314340e+01 -1.614622947108e+01 0.0 
2.084435391396e+00 -3.385085422913e+00 0.0 
3.133211811152e+01 -1.542347619750e+01 0.0 
9.693114650768e+00 -3.590281506442e+00 0.0 
1.531883592202e+01 -8.504584946143e+00 0.0 
2.151589117094e+01 -1.578915763018e+01 0.0 
4.918943882696e+01 -1.355538828056e+01 0.0 
1.443236615188e+01 -8.918701794549e+00 0.0 
8.276250966452e-01 -5.537685192197e+00 0.0 
1.362790867918e+01 -8.374718262212e+00 0.0 
2.083767477370e+01 -1.324843956035e+01 0.0 
1.273834678703e+01 -8.790890389337e+00 0.0 
1.192275845670e+01 -8.242261327467e+00 0.0 
4.477236023583e+01 -1.824312396664e+01 0.0 
1.102989384254e+01 -8.649855800911e+00 0.0 
4.849096516045e+01 -1.917293752213e+01 0.0 
1.588996752238e+00 -1.910230934687e+01 0.0 
4.904245197583e+01 -1.159839008158e+01 0.0 
2.753852929608e+01 -5.782128488093e+00 0.0 
1.756133602833e+01 -8.306130313187e-01 0.0 
2.615423700951e+01 -6.153865090092e+00 0.0 
1.028818761294e+01 -7.122020845892e+00 0.0 
2.970818901196e+01 -1.527821347593e+01 0.0 
4.801461623449e+01 -1.164472570985e+01 0.0 
9.455722100419e+00 -6.546069291118e+00 0.0 
3.089099236677e+01 -1.835339328261e+01 0.0 
2.350000000013e+01 -1.920825896750e+01 0.0 
4.830620531887e+01 -1.506626155470e+01 0.0 
1.725381944701e+01 -1.688794487850e+01 0.0 
2.156246225273e+01 -1.475893794002e+01 0.0 
4.919319648787e+01 -1.742767505896e+01 0.0 
4.437935623576e+01 -1.077662927266e+01 0.0 
1.001520521978e+01 -1.652692675208e+00 0.0 
9.067160240050e-01 -1.441937727541e+01 0.0 
2.603365149390e+01 -4.755996613848e+00 0.0 
2.458344439002e+01 -4.873645517696e+00 0.0 
2.304312390142e+01 -3.836552768096e+00 0.0 
2.546923202198e+00 -6.902480355749e+00 0.0 
1.251534969393e+01 -2.490989965776e+00 0.0 
2.454061833377e+01 -3.933354231935e+00 0.0 
1.788186558740e+01 -1.827424884923e+01 0.0 
4.090785243552e+01 -1.166553231904e+01 0.0 
2.230128851568e+01 -1.623015738726e+01 0.0 
2.302362347568e+01 -2.916239960270e+00 0.0 
3.878119254461e+01 -1.830091164002e+01 0.0 
2.210081359958e+01 -1.829238229150e+01 0.0 
8.443704882233e+00 -1.921993252862e+01 0.0 
2.218405824691e+01 -1.724557581508e+01 0.0 
2.151157503963e+01 -2.790636689331e+00 0.0 
3.741658958955e+01 -1.250400191722e+01 0.0 
2.697247663737e+01 -1.838290202309e+01 0.0 
4.743362342862e+01 -1.585850773010e+01 0.0 
6.671345075358e+00 -1.924977576322e+01 0.0 
3.900825404537e+01 -1.157220003875e+01 0.0 
4.649692961375e+01 -1.836335837481e+01 0.0 
1.578831424832e+01 -3.678284023361e+00 0.0 
4.814208768888e+01 -1.841249298770e+01 0.0 
2.964123298315e+01 -1.625739458193e+01 0.0 
4.580760351902e+01 -1.284294554687e+01 0.0 
3.561520879615e+01 -1.245548941949e+01 0.0 
2.555418095658e+00 -1.841101588290e+01 0.0 
3.288468366144e+01 -1.834258164109e+01 0.0 
2.065894391445e+01 -2.240688571739e+00 0.0 
4.739171429915e+01 -1.496536413446e+01 0.0 
3.478086729185e+00 -8.576434653209e+00 0.0 
1.606010630246e+01 -1.588421807951e+00 0.0 
1.018329200594e+01 -1.834320874317e+01 0.0 
2.957213339430e+01 -1.720496954591e+01 0.0 
4.142712790164e+00 -1.837794506222e+01 0.0 
6.698721532573e-01 -2.499999999997e+00 0.0 
8.037039123140e+00 -1.571229354954e+00 0.0 
1.203541361428e+01 -1.847784298001e+01 0.0 
2.899968332038e+01 -1.848264722179e+01 0.0 
1.469229460948e+01 -4.219485753730e+00 0.0 
4.049590781957e+01 -1.932812501995e+01 0.0 
1.996211678340e+01 -1.506329754720e+00 0.0 
4.250588298353e+01 -1.067383247529e+01 0.0 
5.831497011152e+00 -1.635396227234e+00 0.0 
5.317606125670e+00 -1.923927974868e+01 0.0 
4.208546426993e+01 -1.842830665025e+01 0.0 
2.327553405011e+00 -9.459409929662e+00 0.0 
3.568351902251e+01 -1.096637218582e+01 0.0 
1.682104374890e+00 -6.231413350963e+00 0.0 
2.451812238018e+01 -1.766524914339e+01 0.0 
1.058003429638e+01 -2.391839617098e+00 0.0 
4.399988753123e+01 -1.851998776342e+01 0.0 
1.400000000010e+01 -1.852293523028e+01 0.0 
3.604719565984e+01 -1.850662876800e+01 0.0 
1.951297136734e+01 -1.938092349694e+01 0.0 
1.821365318472e+01 -1.531276353287e+00 0.0 
2.298031859732e+01 -1.854635324722e+01 0.0 
1.552168066204e+01 -1.764280741977e+01 0.0 
4.572957713638e+01 -1.073347898229e+01 0.0 
3.429637429624e+01 -1.838861552790e+01 0.0 
2.427434426052e+00 -7.705577451869e+00 0.0 
4.662792031485e+00 -3.359424455416e+00 0.0 
4.926794919243e+01 -1.926794919243e+01 0.0 
7.320508075690e-01 -7.320508075688e-01 0.0 
4.926794919243e+01 -1.073205080757e+01 0.0 
7.320508075705e-01 -1.926794919243e+01 0.0 
2.917460242467e+00 -3.202866455310e+00 0.0 
4.838200575963e+01 -1.232674147454e+01 0.0 
2.998445708009e+01 -1.854403752148e+01 0.0 
5.949940090766e-01 -1.152762038165e+01 0.0 
4.844763495759e+01 -1.678092548787e+01 0.0 
1.301685480160e+01 -3.170056592566e+00 0.0 
1.650046335855e+01 -6.731535384067e-01 0.0 
4.854881540991e+01 -1.405224059779e+01 0.0 
2.119545114693e+01 -1.846813384545e+01 0.0 
3.797852849897e+01 -1.857978513215e+01 0.0 
4.649823708745e+01 -1.338351810816e+01 0.0 
2.012685900976e+01 -2.889659035009e+00 0.0 
2.953271913273e+01 -1.791558075192e+01 0.0 
2.408509097292e+00 -1.021949208421e+01 0.0 
2.642589566221e+01 -1.773216561448e+01 0.0 
1.730010270775e+01 -1.763165076721e+01 0.0 
2.017406551304e+01 -8.513536440582e-01 0.0 
5.254761581934e-01 -1.249999999999e+01 0.0 
6.640448215642e+00 -1.545337834885e+00 0.0 
7.843361506349e+00 -1.852719839527e+01 0.0 
1.588442191088e+00 -1.066158564320e+01 0.0 
2.280866189488e+01 -1.416779325160e+00 0.0 
4.950862068966e+01 -1.500000000000e+00 0.0 
2.431250000000e+01 -2.420918367347e+00 0.0 
4.950961538461e+01 -2.500000000000e+00 0.0 
2.580823483239e+01 -3.416278049680e+00 0.0 
4.950961538461e+01 -3.500000000000e+00 0.0 
2.731250000000e+01 -4.420918367347e+00 0.0 
4.951086956522e+01 -4.500000000000e+00 0.0 
2.880770112393e+01 -5.415638864241e+00 0.0 
4.951086956522e+01 -5.500000000000e+00 0.0 
3.031250000000e+01 -6.420918367347e+00 0.0 
4.951250000000e+01 -6.500000000000e+00 0.0 
3.180701530612e+01 -7.414795918363e+00 0.0 
4.951250000000e+01 -7.500000000000e+00 0.0 
3.331250000000e+01 -8.420918367347e+00 0.0 
4.951470588234e+01 -8.500000000000e+00 0.0 
3.480610198624e+01 -9.413633635267e+00 0.0 
4.951470588234e+01 -9.500000000000e+00 0.0 

SCALARS node_number int
LOOKUP_TABLE default
1
2
3
4
5
6
7
8
9
10
11
12
13
14
15
16
17
18
19
20
21
22
23
24
25
26
27
28
29
30
31
32
33
34
35
36
37
38
39
40
41
42
43
44
45
46
47
48
49
50
51
52
53
54
55
56
57
58
59
60
61
62
63
64
65
66
67
68
69
70
71
72
73
74
75
76
77
78
79
80
81
82
84
85
86
87
88
89
90
91
92
93
94
95
96
97
98
99
100
101
102
104
105
106
107
108
109
110
111
112
113
114
115
116
117
118
119
120
121
122
123
124
125
126
127
128
129
130
131
132
133
134
135
136
166
167
168
169
170
171
172
173
174
175
176
177
178
179
180
181
182
183
184
185
186
187
188
189
190
191
192
193
194
195
196
197
198
199
200
201
202
203
204
205
206
207
208
209
210
211
212
213
214
215
216
217
218
219
220
221
222
223
224
225
226
227
228
229
230
231
232
233
234
235
236
237
238
239
240
241
242
243
244
245
246
247
248
249
250
251
252
253
254
255
256
257
258
259
260
261
262
263
264
265
266
267
268
269
270
271
272
273
274
275
276
277
278
279
280
281
282
283
284
285
286
287
288
289
290
291
292
293
294
295
296
297
298
299
300
301
302
303
304
305
306
307
308
309
310
311
312
313
314
315
316
317
318
319
320
321
322
323
324
325
326
327
328
329
330
331
332
333
334
335
336
337
338
339
340
341
342
343
344
345
346
347
348
349
350
351
352
353
354
355
356
357
358
359
360
361
362
363
364
365
366
367
368
369
370
371
372
373
374
375
376
377
378
379
380
381
382
383
384
385
386
387
388
389
390
391
392
393
394
395
396
397
398
399
400
401
402
403
404
405
406
407
408
409
410
411
412
413
414
415
416
417
418
419
420
421
422
423
424
425
426
427
428
429
430
431
432
433
434
435
436
437
438
439
440
441
442
443
444
445
446
447
448
449
450
451
452
453
454
455
456
457
458
459
460
461
462
463
464
465
466
467
468
469
470
471
472
473
474
475
476
477
478
479
480
481
482
483
484
485
486
487
488
489
490
491
492
493
494
495
496
497
498
499
500
501
502
503
504
505
506
507
508
509
510
511
512
513
514
515
516
517
518
519
520
521
522
523
524
525
526
527
528
529
530
531
532
533
534
535
536
537
538
539
540
541
542
543
544
545
546
547
548
549
550
551
552
553
554
555
556
557
558
559
560
561
562
563
564
565
566
567
568
569
570
571
572
573
574
575
576
577
578
579
580
581
582
583
584
585
586
587
588
589
590
591
592
593
594
595
596
597
598
599
600
601
602
603
604
605
606
607
608
609
610
611
612
613
614
615
616
617
618
619
620
621
622
623
624
625
626
627
628
629
630
631
632
633
634
635
636
637
638
639
640
641
642
643
644
645
646
647
648
649
650
651
652
653
654
655
656
657
658
659
660
661
662
663
664
665
666
667
668
669
670
671
672
673
674
675
676
677
678
679
680
681
682
683
684
685
686
687
688
689
690
691
692
693
694
695
696
697
698
699
700
701
702
703
704
705
706
707
708
709
710
711
712
713
714
715
716
717
718
719
720
721
722
723
724
725
726
727
728
729
730
731
732
733
734
735
736
737
738
739
740
741
742
743
744
745
746
747
748
749
750
751
752
753
754
755
756
757
758
759
760
761
762
763
764
765
766
767
768
769
770
771
772
773
774
775
776
777
778
779
780
781
782
783
784
785
786
787
788
789
790
791
792
793
794
795
796
797
798
799
800
801
802
803
804
805
806
807
808
809
810
811
812
813
814
815
816
817
818
819
820
821
822
823
824
825
826
827
828
829
830
831
832
833
834
835
836
837
838
839
840
841
842
843
844
845
846
847
848
849
850
851
852
853
854
855
856
857
858
859
860
861
862
863
864
865
866
867
868
869
870
871
872
873
874
875
876
877
878
879
880
881
882
883
884
885
886
887
888
889
890
891
892
893
894
895
896
897
898
899
900
901
902
903
904
905
906
907
908
909
910
911
912
913
914
915
916
917
918
919
920
921
922
923
924
925
926
927
928
929
930
931
932
933
934
935
936
937
938
939
940
941
942
943
944
945
946
947
948
949
950
951
952
953
954
955
956
957
958
959
960
961
962
963
964
965
966
967
968
969
970
971
972
973
974
975
976
977
978
979
980
981
982
983
984
985
986
987
988
989
990
991
992
993
994
995
996
997
998
999
1000
1001
1002
1003
1004
1005
1006
1007
1008
1009
1010
1011
1012
1013
1014
1015
1016
1017
1018
1019
1020
1021
1022
1023
1024
1025
1026
1027
1028
1029
1030
1031
1032
1033
1034
1035
1036
1037
1038
1039
1040
1041
1042
1043
1044
1045
1046
1047
1048
1049
1050
1051
1052
1053
1054
1055
1056
1057
1058
1059
1060
1061
1062
1063
1064
1065
1066
1067
1068
1069
1070
1071
1072
1073
1074
1075
1076
1077
1078
1079
1080
1081
1082
1083
1084
1085
1086
1087
1088
1089
1090
1091
1092
1093
1094
1095
1096
1097
1098
1099
1100
1101
1102
1103
1104
1105
1106
1107
1108
1109
1110
1111
1112
1113
1114
1115
1116
1117
1118
1119
1120
1121
1122
1123
1124
1125
1126
1127
1128
1129
1130
1131
1132
1133
1134
1135
1136
1137
1138
1139
1140
1141
1142
1143
1144
1145
1146
1147
1148
1149
1150
1151
1152
1153
1154
1155
1156
1157
1158
1159
1160
1161
1162
1163
1164
1165
1166
1167
1168
1169
1170
1171
1172
1173
1174
1175
1176
1177
1178
1179
1180
1181
1182
1183
1184
1185
1186
1187
1188
1189
1190
1191
1192
1193
1194
1195
1196
1197
1198
1199
1200
1201
1202
1203
1204
1205
1206
1207
1208
1209
1210
1211
1212
1213
1214
1215
1216
1217
1218
1219
1220
1221
1222
1223
1224
1225
1226
1227
1228
1229
1230
1231
1232
1233
1234
1235
1236
1237
1238
1239
1240
1241
1242
1243
1244
1245
1246
1247
1248
1249
1250
1251
1252
1253
1254
1255
1256
1257
1258
1259
1260
1261
1262
1263
1264
1267
1268
1269
1270
1271
1272
1273
1274
1275
1276
1277
1278
1279
1280
1281
1282
1283
1284

VECTORS node_mesh_deformation float
0.0 6.817805414648e-02 0.0 
0.000000000000e+00 7.510139554996e-02 0.0 
0.0 0.000000000000e+00 0.0 
0.000000000000e+00 0.000000000000e+00 0.0 
0.0 6.904545269074e-02 0.0 
0.0 6.919469349810e-02 0.0 
0.0 6.866209920847e-02 0.0 
0.0 6.744150401167e-02 0.0 
0.0 6.555048620531e-02 0.0 
0.0 6.313899353453e-02 0.0 
0.0 6.029496774953e-02 0.0 
0.0 5.708568612830e-02 0.0 
0.0 5.357903074828e-02 0.0 
0.0 4.982016495609e-02 0.0 
0.0 4.582741890633e-02 0.0 
0.0 4.162402662990e-02 0.0 
0.0 3.720945087328e-02 0.0 
0.0 3.258100923837e-02 0.0 
0.0 2.772457986148e-02 0.0 
0.0 2.263307885103e-02 0.0 
0.0 1.730772570168e-02 0.0 
0.0 1.175067602369e-02 0.0 
0.0 5.981494042256e-03 0.0 
0.000000000000e+00 0.000000000000e+00 0.0 
0.000000000000e+00 0.000000000000e+00 0.0 
0.000000000000e+00 0.000000000000e+00 0.0 
0.000000000000e+00 0.000000000000e+00 0.0 
0.000000000000e+00 0.000000000000e+00 0.0 
0.000000000000e+00 0.000000000000e+00 0.0 
0.000000000000e+00 0.000000000000e+00 0.0 
0.000000000000e+00 0.000000000000e+00 0.0 
0.000000000000e+00 0.000000000000e+00 0.0 
0.000000000000e+00 0.000000000000e+00 0.0 
0.000000000000e+00 0.000000000000e+00 0.0 
0.000000000000e+00 0.000000000000e+00 0.0 
0.000000000000e+00 0.000000000000e+00 0.0 
0.000000000000e+00 0.000000000000e+00 0.0 
0.000000000000e+00 0.000000000000e+00 0.0 
0.000000000000e+00 0.000000000000e+00 0.0 
0.000000000000e+00 0.000000000000e+00 0.0 
0.000000000000e+00 0.000000000000e+00 0.0 
0.000000000000e+00 0.000000000000e+00 0.0 
0.000000000000e+00 0.000000000000e+00 0.0 
0.000000000000e+00 0.000000000000e+00 0.0 
0.000000000000e+00 0.000000000000e+00 0.0 
0.000000000000e+00 0.000000000000e+00 0.0 
0.000000000000e+00 0.000000000000e+00 0.0 
0.000000000000e+00 0.000000000000e+00 0.0 
0.000000000000e+00 0.000000000000e+00 0.0 
0.000000000000e+00 0.000000000000e+00 0.0 
0.000000000000e+00 0.000000000000e+00 0.0 
0.000000000000e+00 0.000000000000e+00 0.0 
0.000000000000e+00 0.000000000000e+00 0.0 
0.000000000000e+00 0.000000000000e+00 0.0 
0.000000000000e+00 0.000000000000e+00 0.0 
0.000000000000e+00 0.000000000000e+00 0.0 
0.000000000000e+00 0.000000000000e+00 0.0 
0.000000000000e+00 0.000000000000e+00 0.0 
0.000000000000e+00 0.000000000000e+00 0.0 
0.000000000000e+00 0.000000000000e+00 0.0 
0.000000000000e+00 0.000000000000e+00 0.0 
0.000000000000e+00 0.000000000000e+00 0.0 
0.000000000000e+00 0.000000000000e+00 0.0 
0.000000000000e+00 0.000000000000e+00 0.0 
0.000000000000e+00 0.000000000000e+00 0.0 
0.000000000000e+00 0.000000000000e+00 0.0 
0.000000000000e+00 0.000000000000e+00 0.0 
0.000000000000e+00 0.000000000000e+00 0.0 
0.000000000000e+00 0.000000000000e+00 0.0 
0.000000000000e+00 0.000000000000e+00 0.0 
0.000000000000e+00 0.000000000000e+00 0.0 
0.000000000000e+00 0.000000000000e+00 0.0 
0.000000000000e+00 6.922603967009e-02 0.0 
0.000000000000e+00 6.294396818699e-02 0.0 
0.000000000000e+00 5.626641257585e-02 0.0 
0.000000000000e+00 4.921824269464e-02 0.0 
0.000000000000e+00 4.181009708409e-02 0.0 
0.000000000000e+00 3.406323208081e-02 0.0 
0.000000000000e+00 2.599355353184e-02 0.0 
0.000000000000e+00 1.761606274704e-02 0.0 
0.000000000000e+00 8.950270843020e-03 0.0 
-4.694280937361e-03 -1.842260419169e-02 0.0 
1.967864237255e-02 6.662070999320e-02 0.0 
1.274873695380e-03 5.747247756160e-03 0.0 
7.692912041779e-03 2.262722208287e-02 0.0 
1.299313916450e-02 3.573252361256e-02 0.0 
1.721400881648e-02 4.657228724177e-02 0.0 
2.040413379879e-02 5.538688508863e-02 0.0 
2.242269579087e-02 6.198153771631e-02 0.0 
2.323504777260e-02 6.625739262386e-02 0.0 
2.293434609958e-02 6.830842602451e-02 0.0 
2.169336110957e-02 6.833824719144e-02 0.0 
0.000000000000e+00 1.075217436184e-01 0.0 
0.000000000000e+00 1.057963217950e-01 0.0 
0.000000000000e+00 1.036259023582e-01 0.0 
0.000000000000e+00 1.009427366582e-01 0.0 
0.000000000000e+00 9.781732847267e-02 0.0 
0.000000000000e+00 9.417686551266e-02 0.0 
0.000000000000e+00 9.011002279160e-02 0.0 
0.000000000000e+00 8.553928888208e-02 0.0 
0.000000000000e+00 8.055526626339e-02 0.0 
1.109509848888e-03 7.508826312724e-02 0.0 
2.209640899494e-03 7.504364419179e-02 0.0 
3.329239709160e-03 7.496404445274e-02 0.0 
4.469787590544e-03 7.483964709882e-02 0.0 
5.635784774341e-03 7.467377829698e-02 0.0 
6.828570819501e-03 7.443370860426e-02 0.0 
8.062529955900e-03 7.413250044166e-02 0.0 
9.335135501935e-03 7.373189316654e-02 0.0 
1.066230516927e-02 7.323944773626e-02 0.0 
1.204453940161e-02 7.260955062864e-02 0.0 
1.347895035197e-02 7.183177153694e-02 0.0 
1.497218330989e-02 7.087264819503e-02 0.0 
1.651002896850e-02 6.970562932111e-02 0.0 
1.807898536600e-02 6.829456781627e-02 0.0 
-1.558313348948e-03 -3.136342961239e-02 0.0 
2.959035702652e-03 -3.730711115941e-02 0.0 
7.855081996006e-03 -3.835172260753e-02 0.0 
1.320197879707e-02 -3.412255271539e-02 0.0 
1.711434193803e-02 -2.216036595044e-02 0.0 
1.926979117850e-02 -7.490477031594e-03 0.0 
1.985232590756e-02 3.932192703744e-03 0.0 
1.977751441111e-02 1.350588227190e-02 0.0 
1.958569082142e-02 2.194493557667e-02 0.0 
1.917316144694e-02 2.968438338827e-02 0.0 
1.845100381221e-02 3.674122699690e-02 0.0 
1.747403375580e-02 4.305351986637e-02 0.0 
1.617793096915e-02 4.879585517077e-02 0.0 
1.448046434826e-02 5.389735532817e-02 0.0 
1.248761242309e-02 5.826420884753e-02 0.0 
1.028663244976e-02 6.180384153293e-02 0.0 
7.908088826403e-03 6.460580152982e-02 0.0 
5.383713628660e-03 6.664756564526e-02 0.0 
2.704270129360e-03 6.780766958884e-02 0.0 
4.479635758159e-04 1.074488126097e-01 0.0 
9.177263189315e-04 1.073539280372e-01 0.0 
1.376445326407e-03 1.072497556314e-01 0.0 
1.814913293572e-03 1.071173330159e-01 0.0 
2.219498036560e-03 1.069384679100e-01 0.0 
2.582186444236e-03 1.066962008605e-01 0.0 
2.896168778179e-03 1.063736346612e-01 0.0 
3.153934323507e-03 1.059529467645e-01 0.0 
3.344310986336e-03 1.054142708404e-01 0.0 
3.459505570000e-03 1.047298785285e-01 0.0 
3.493477083630e-03 1.038664563094e-01 0.0 
3.427400571660e-03 1.027851523289e-01 0.0 
3.258702701501e-03 1.014433510693e-01 0.0 
2.987767906660e-03 9.979276602627e-02 0.0 
2.618980527807e-03 9.778097410044e-02 0.0 
2.162012074130e-03 9.535241548901e-02 0.0 
1.632928804071e-03 9.245096232137e-02 0.0 
1.054126822794e-03 8.902323094430e-02 0.0 
4.531494185329e-04 8.501572192776e-02 0.0 
-1.324864679546e-04 8.038716670005e-02 0.0 
-6.679894765114e-04 7.511398540876e-02 0.0 
-1.124223408880e-03 6.918235846582e-02 0.0 
-1.472206765843e-03 6.257385787698e-02 0.0 
-1.684830110765e-03 5.532003574542e-02 0.0 
-1.696446674952e-03 4.735652570316e-02 0.0 
-1.573601357855e-03 3.877700038370e-02 0.0 
-1.296421553732e-03 2.933482995823e-02 0.0 
-8.297485488171e-04 1.878778428552e-02 0.0 
6.699187852011e-03 3.294489502464e-02 0.0 
6.072112903567e-03 4.212636846337e-02 0.0 
5.609749619840e-03 5.055555310598e-02 0.0 
5.271294819611e-03 5.829170438609e-02 0.0 
5.047542670482e-03 6.533223521304e-02 0.0 
4.903044891407e-03 7.166937006190e-02 0.0 
4.871154748933e-03 7.729910217197e-02 0.0 
4.904556889116e-03 8.223988808485e-02 0.0 
4.970193722038e-03 8.651682252389e-02 0.0 
5.042462938668e-03 9.016682072595e-02 0.0 
5.102410239452e-03 9.324840731071e-02 0.0 
5.133266326204e-03 9.581754662666e-02 0.0 
5.121606745348e-03 9.793515381473e-02 0.0 
5.058480096139e-03 9.966204317720e-02 0.0 
4.938059867989e-03 1.010560994298e-01 0.0 
4.758277838967e-03 1.021708811057e-01 0.0 
4.520149476086e-03 1.030542447059e-01 0.0 
4.227641899355e-03 1.037506250124e-01 0.0 
3.885526133175e-03 1.042933330596e-01 0.0 
3.498310475202e-03 1.047121286792e-01 0.0 
3.070940813615e-03 1.050310159927e-01 0.0 
2.610533788037e-03 1.052690443510e-01 0.0 
2.124154791744e-03 1.054439054192e-01 0.0 
1.618021488866e-03 1.055733725203e-01 0.0 
1.098512195973e-03 1.056781308882e-01 0.0 
5.688310995282e-04 1.057938542792e-01 0.0 
1.224510627080e-02 4.440221577547e-02 0.0 
1.164441450032e-02 5.233276185315e-02 0.0 
1.108656133438e-02 5.961243813679e-02 0.0 
1.057371619864e-02 6.621035628591e-02 0.0 
1.011176396598e-02 7.214308762480e-02 0.0 
9.682663730256e-03 7.739112052200e-02 0.0 
9.273653305517e-03 8.197882206107e-02 0.0 
8.876360473906e-03 8.593542234470e-02 0.0 
8.502284290941e-03 8.930778161822e-02 0.0 
8.134384271898e-03 9.214836799727e-02 0.0 
7.763547859895e-03 9.451070112721e-02 0.0 
7.383408982299e-03 9.645476921636e-02 0.0 
6.986679325834e-03 9.803652050312e-02 0.0 
6.569097835722e-03 9.931176752373e-02 0.0 
6.128610353173e-03 1.003310706652e-01 0.0 
5.664758435870e-03 1.011392242208e-01 0.0 
5.177220702166e-03 1.017750085068e-01 0.0 
4.667043673841e-03 1.022698423620e-01 0.0 
4.135815936444e-03 1.026508536025e-01 0.0 
3.586021638284e-03 1.029407999954e-01 0.0 
3.021122940090e-03 1.031581262313e-01 0.0 
2.444989040654e-03 1.033190859702e-01 0.0 
1.861183615077e-03 1.034386672943e-01 0.0 
1.269874523040e-03 1.035276832000e-01 0.0 
6.426679795197e-04 1.035665285859e-01 0.0 
7.618852839144e-04 1.009637518080e-01 0.0 
1.474493136101e-03 1.008878639259e-01 0.0 
2.180423245399e-03 1.008023203261e-01 0.0 
2.883219217225e-03 1.006827801516e-01 0.0 
3.584470459053e-03 1.005183246717e-01 0.0 
4.284022004946e-03 1.002947440852e-01 0.0 
4.981339088637e-03 9.999494083004e-02 0.0 
5.676107099653e-03 9.959857577442e-02 0.0 
6.368459171391e-03 9.908077648705e-02 0.0 
7.059264768579e-03 9.841193467423e-02 0.0 
7.750301382323e-03 9.755713744461e-02 0.0 
8.443607337796e-03 9.647503869909e-02 0.0 
9.141554730071e-03 9.511722656848e-02 0.0 
9.847457421372e-03 9.342773882112e-02 0.0 
1.056717202645e-02 9.134314760359e-02 0.0 
1.130724395552e-02 8.880856606118e-02 0.0 
1.205283915893e-02 8.576603676723e-02 0.0 
1.280153487631e-02 8.215705663635e-02 0.0 
1.355316399174e-02 7.793455047876e-02 0.0 
1.430194205557e-02 7.305169085657e-02 0.0 
1.504679531176e-02 6.747966801551e-02 0.0 
1.577894265455e-02 6.121434936943e-02 0.0 
1.648094682633e-02 5.425905877039e-02 0.0 
1.955989899684e-02 6.175274510842e-02 0.0 
1.869344271172e-02 6.744147235667e-02 0.0 
1.775400365144e-02 7.247727533185e-02 0.0 
1.677681019146e-02 7.689180762781e-02 0.0 
1.577928292640e-02 8.070773121677e-02 0.0 
1.477315488761e-02 8.396859299229e-02 0.0 
1.376856328668e-02 8.672168212819e-02 0.0 
1.277088718151e-02 8.902163124237e-02 0.0 
1.178784502023e-02 9.091577846714e-02 0.0 
1.083783988128e-02 9.245278761686e-02 0.0 
9.916741498429e-03 9.369192743371e-02 0.0 
9.021032605972e-03 9.468342733366e-02 0.0 
8.147256571149e-03 9.546961484886e-02 0.0 
7.292015885028e-03 9.608668013780e-02 0.0 
6.452188984255e-03 9.656587024514e-02 0.0 
5.625517820974e-03 9.693427548995e-02 0.0 
4.810274922313e-03 9.721432644479e-02 0.0 
4.004823595629e-03 9.742409486049e-02 0.0 
3.207772477595e-03 9.757878465761e-02 0.0 
2.417515177115e-03 9.768973336176e-02 0.0 
1.631031286649e-03 9.776182594807e-02 0.0 
8.200622907850e-04 9.776795804097e-02 0.0 
9.139512433762e-04 9.420470351278e-02 0.0 
1.818443810244e-03 9.414824912668e-02 0.0 
2.725289448456e-03 9.407286239586e-02 0.0 
3.638822885023e-03 9.395722684659e-02 0.0 
4.564533717321e-03 9.379357623258e-02 0.0 
5.507109973024e-03 9.357007029926e-02 0.0 
6.470168316319e-03 9.327053217402e-02 0.0 
7.456834151178e-03 9.287642377586e-02 0.0 
8.470490982091e-03 9.236313821342e-02 0.0 
9.515066864935e-03 9.170055905016e-02 0.0 
1.059474268625e-02 9.085548752914e-02 0.0 
1.171377866678e-02 8.978959373188e-02 0.0 
1.287658671820e-02 8.845775077666e-02 0.0 
1.408753127878e-02 8.680425917655e-02 0.0 
1.531930906153e-02 8.477702105973e-02 0.0 
1.656102713178e-02 8.232564568837e-02 0.0 
1.780246739300e-02 7.939856854576e-02 0.0 
1.903082191691e-02 7.594044621010e-02 0.0 
2.022565364576e-02 7.191985540836e-02 0.0 
2.134391219230e-02 6.727773354613e-02 0.0 
2.197692770192e-02 7.032669391010e-02 0.0 
2.069318529518e-02 7.385667951741e-02 0.0 
1.934687580154e-02 7.687278427592e-02 0.0 
1.798125204761e-02 7.944447950764e-02 0.0 
1.661147440043e-02 8.160019152812e-02 0.0 
1.524774040041e-02 8.338983792513e-02 0.0 
1.391649574430e-02 8.485905060074e-02 0.0 
1.263603455129e-02 8.605378760698e-02 0.0 
1.140407465421e-02 8.701677721965e-02 0.0 
1.021745235979e-02 8.778555923858e-02 0.0 
9.071911998639e-03 8.839173382605e-02 0.0 
7.965100364999e-03 8.886461720055e-02 0.0 
6.893264772209e-03 8.923155641247e-02 0.0 
5.850780574065e-03 8.951315825736e-02 0.0 
4.837046006230e-03 8.972562504997e-02 0.0 
3.846743876551e-03 8.988170550125e-02 0.0 
2.873072068049e-03 8.999092929556e-02 0.0 
1.910085149511e-03 9.005863163060e-02 0.0 
9.542415082535e-04 9.006409820876e-02 0.0 
1.037032085975e-03 8.556044361360e-02 0.0 
2.078345268963e-03 8.550000414673e-02 0.0 
3.129301078097e-03 8.542461681113e-02 0.0 
4.196413863269e-03 8.530647558583e-02 0.0 
5.285107909877e-03 8.513717780096e-02 0.0 
6.403437209833e-03 8.490556145121e-02 0.0 
7.556824618987e-03 8.460016678776e-02 0.0 
8.753584181498e-03 8.420212139514e-02 0.0 
1.000083548283e-02 8.369087826193e-02 0.0 
1.129490331528e-02 8.303873685440e-02 0.0 
1.263761141134e-02 8.221154944408e-02 0.0 
1.403202331043e-02 8.117895145966e-02 0.0 
1.547971002203e-02 7.990117096684e-02 0.0 
1.697818742004e-02 7.834186617547e-02 0.0 
1.849712989988e-02 7.644813895328e-02 0.0 
2.000736265643e-02 7.418597209319e-02 0.0 
2.147605412963e-02 7.148335275942e-02 0.0 
2.017023551188e-02 7.062435916696e-02 0.0 
1.865742067101e-02 7.254980223684e-02 0.0 
1.712133950839e-02 7.414894319400e-02 0.0 
1.562144921303e-02 7.549397948842e-02 0.0 
1.416515165595e-02 7.660270129757e-02 0.0 
1.275744312849e-02 7.750604104692e-02 0.0 
1.139479632612e-02 7.823719657184e-02 0.0 
1.009170915848e-02 7.882146785247e-02 0.0 
8.839114209906e-03 7.928441738752e-02 0.0 
7.635764247617e-03 7.965292740634e-02 0.0 
6.471420120725e-03 7.993525947413e-02 0.0 
5.343439306202e-03 8.015421733112e-02 0.0 
4.241474449472e-03 8.031166577207e-02 0.0 
3.162979785159e-03 8.042423448676e-02 0.0 
2.102255089994e-03 8.049339783264e-02 0.0 
1.047691227811e-03 8.050493837248e-02 0.0 
-1.310197528543e-03 -4.925240747103e-03 0.0 
4.582080568330e-03 1.470117867280e-02 0.0 
1.045907112631e-02 2.945427971812e-02 0.0 
1.521366929456e-02 4.139353230214e-02 0.0 
1.895175683913e-02 5.124661175049e-02 0.0 
2.156304148510e-02 5.897129252114e-02 0.0 
2.296870280054e-02 6.440216822506e-02 0.0 
2.320378660480e-02 6.754930804333e-02 0.0 
2.241579475853e-02 6.855893224177e-02 0.0 
2.076710422835e-02 6.768181110526e-02 0.0 
1.135692774525e-02 1.364762647151e-02 0.0 
7.961005291577e-04 3.281666038376e-03 0.0 
1.295386685768e-02 2.576919240602e-02 0.0 
8.463388957480e-03 -2.701198870720e-02 0.0 
-1.142542473207e-03 3.710628804001e-03 0.0 
1.966357268844e-02 4.002283735936e-02 0.0 
-1.531179055710e-03 4.756868565118e-02 0.0 
2.664057668618e-03 3.643368049538e-03 0.0 
2.432881488490e-02 5.614484808068e-02 0.0 
3.847302103850e-03 4.333912317442e-03 0.0 
2.456607767627e-02 6.376197923310e-02 0.0 
-1.440308353283e-03 4.084158874011e-03 0.0 
1.124026397280e-02 5.234014265218e-02 0.0 
4.234507905000e-03 5.411674198736e-03 0.0 
2.097185256564e-02 6.292678481320e-02 0.0 
-1.113915853938e-03 6.140174420247e-02 0.0 
-1.380774426850e-03 3.571833835261e-02 0.0 
4.099378942254e-03 6.374392662522e-03 0.0 
3.099165226899e-03 6.802156486355e-03 0.0 
1.065757337379e-03 7.581072568154e-03 0.0 
1.871534140207e-03 8.065370192625e-03 0.0 
2.349617452218e-03 6.997320971582e-03 0.0 
1.715767709037e-02 6.413763372183e-02 0.0 
1.137436914966e-02 6.769533166484e-02 0.0 
7.472925133371e-03 6.887296054039e-02 0.0 
7.334085557389e-04 4.543739827793e-02 0.0 
-1.179830892213e-03 4.885505274007e-03 0.0 
4.661201026249e-03 -3.164665577199e-02 0.0 
6.800917035661e-03 6.394601284693e-02 0.0 
-8.867238354024e-04 2.034403310947e-02 0.0 
3.836621797866e-03 6.988297274080e-02 0.0 
1.554594551739e-04 6.782459956348e-02 0.0 
4.072440663023e-03 7.482706587702e-03 0.0 
3.115029431530e-03 3.639981335372e-03 0.0 
4.103453031625e-03 4.794065003342e-03 0.0 
1.923451866134e-03 3.600456584376e-03 0.0 
-1.284668458386e-04 3.179505139563e-03 0.0 
1.087560114615e-02 -1.720462542208e-03 0.0 
1.419694738095e-02 6.656208307306e-02 0.0 
-1.713503513457e-03 4.631558543476e-03 0.0 
5.517457420368e-04 3.040621588476e-02 0.0 
1.273272567515e-02 4.008823516272e-02 0.0 
-1.488744219741e-03 5.511575071527e-02 0.0 
5.441028665345e-04 6.210547645303e-03 0.0 
2.259222380411e-02 4.865046258208e-02 0.0 
1.584055638787e-02 2.830019717607e-02 0.0 
2.499670466210e-02 6.104540739475e-02 0.0 
2.316676523091e-02 6.429191180255e-02 0.0 
5.619142597691e-03 -5.194192960232e-03 0.0 
8.863576205655e-04 5.884728656596e-02 0.0 
-5.797134526078e-04 4.027786948637e-03 0.0 
3.164151305753e-03 6.804573288474e-02 0.0 
3.039639513105e-04 1.396203706406e-02 0.0 
1.987138673378e-02 6.131684430708e-02 0.0 
2.075877230578e-02 5.781274775567e-02 0.0 
1.904240678910e-02 5.681324432160e-02 0.0 
1.998727530655e-02 5.258283315277e-02 0.0 
1.833825104413e-02 5.067589622551e-02 0.0 
1.890811812994e-02 4.691874211738e-02 0.0 
2.065167688608e-02 4.865239975265e-02 0.0 
1.928148363017e-02 4.311638883837e-02 0.0 
2.108606858912e-02 4.474097809765e-02 0.0 
1.713869711815e-02 4.472653403150e-02 0.0 
1.941822201871e-02 3.930643641447e-02 0.0 
2.126041313162e-02 4.081875184783e-02 0.0 
1.930499752289e-02 3.553144538071e-02 0.0 
2.114998820358e-02 3.693042296052e-02 0.0 
2.305041439876e-02 4.185433971785e-02 0.0 
2.292527658328e-02 3.784753293382e-02 0.0 
2.471593860472e-02 4.235333017259e-02 0.0 
2.458191669857e-02 3.820053965566e-02 0.0 
2.248614807986e-02 3.394916914820e-02 0.0 
2.408739310808e-02 3.419012751351e-02 0.0 
2.600469307048e-02 3.795486037372e-02 0.0 
2.545788251422e-02 3.382006013742e-02 0.0 
2.716263622364e-02 3.707404540904e-02 0.0 
2.653526695012e-02 3.280504429663e-02 0.0 
2.802262913935e-02 3.552169029282e-02 0.0 
2.729196750653e-02 3.114013133354e-02 0.0 
2.548004296486e-02 2.882198813827e-02 0.0 
2.610801028321e-02 2.711308024671e-02 0.0 
2.767561578731e-02 2.884105861106e-02 0.0 
2.633853244675e-02 2.479816760277e-02 0.0 
2.765489736371e-02 2.594811166223e-02 0.0 
2.614140302371e-02 2.195606193672e-02 0.0 
2.453537608923e-02 2.127871866296e-02 0.0 
2.413742972569e-02 1.857132183521e-02 0.0 
2.546927820719e-02 1.861625280926e-02 0.0 
2.315884125838e-02 1.529771621907e-02 0.0 
2.423214740125e-02 1.463913351000e-02 0.0 
2.157684158740e-02 1.149251311372e-02 0.0 
2.242953017781e-02 1.019941650085e-02 0.0 
1.941876905108e-02 7.433646700122e-03 0.0 
1.845525778995e-02 9.239467374444e-03 0.0 
1.599231683578e-02 5.716693724803e-03 0.0 
1.677216575285e-02 3.417482575973e-03 0.0 
1.311803144732e-02 2.456545776024e-03 0.0 
1.234609036000e-02 5.053772910792e-03 0.0 
9.356848897195e-03 2.618698040436e-03 0.0 
8.670087726468e-03 5.347473224415e-03 0.0 
5.674600428112e-03 3.765734821041e-03 0.0 
6.230344834627e-03 8.764257774505e-04 0.0 
2.662173986987e-03 2.972132050122e-03 0.0 
2.288987286844e-03 5.692631925122e-03 0.0 
-5.120086855293e-04 5.728880865608e-03 0.0 
-2.109906136063e-04 3.080871084977e-03 0.0 
-3.050159641091e-03 6.653087379993e-03 0.0 
-3.062948652271e-03 8.666804026969e-03 0.0 
-5.230617923804e-03 1.014992636610e-02 0.0 
-5.229444659074e-03 8.445034237182e-03 0.0 
-7.021672100313e-03 1.240815285327e-02 0.0 
-6.890655102602e-03 1.356796193294e-02 0.0 
-8.406057435296e-03 1.631114838140e-02 0.0 
-8.426079057788e-03 1.545167964315e-02 0.0 
-9.508480220209e-03 1.970593898569e-02 0.0 
-9.372095543608e-03 2.000783873713e-02 0.0 
-1.018658076422e-02 2.364129574163e-02 0.0 
-9.884856773384e-03 2.331210956554e-02 0.0 
-1.018184191180e-02 2.374156425259e-02 0.0 
-1.057420530529e-02 2.775563692969e-02 0.0 
-1.038202711232e-02 2.827892041481e-02 0.0 
-1.052713273252e-02 3.224070441478e-02 0.0 
2.230372362223e-02 1.832850368093e-02 0.0 
-1.008992164412e-02 3.313292950347e-02 0.0 
-9.773608639597e-03 2.860413768219e-02 0.0 
-1.004720630098e-02 3.696287980376e-02 0.0 
-1.030207020131e-02 3.555045163123e-02 0.0 
-9.336398587219e-03 3.819787705696e-02 0.0 
-9.172957452305e-03 4.179609649436e-02 0.0 
-8.183443086412e-03 4.331166892215e-02 0.0 
2.489775131822e-02 1.388062160958e-02 0.0 
2.173099041059e-02 3.020793431365e-02 0.0 
-7.964498423352e-03 4.658883595657e-02 0.0 
-6.721080957305e-03 4.831211006166e-02 0.0 
-6.585442817942e-03 4.462876116815e-02 0.0 
-4.851985673240e-03 4.978288981962e-02 0.0 
1.663526804190e-02 4.848429379308e-02 0.0 
1.534209672782e-02 4.218836095363e-02 0.0 
1.492528780543e-02 4.595298770306e-02 0.0 
1.353565715178e-02 3.936149078731e-02 0.0 
1.320474534982e-02 4.306795517843e-02 0.0 
-5.065711937140e-03 5.304546769446e-02 0.0 
1.737083728161e-02 3.350817020700e-02 0.0 
1.367536675542e-02 3.558184369466e-02 0.0 
2.737294592018e-02 4.155707255539e-02 0.0 
2.866263098725e-02 3.048929142241e-02 0.0 
1.145832524443e-02 7.491225723912e-03 0.0 
-8.667720237850e-03 4.463368061904e-02 0.0 
-7.408894169559e-03 4.908126748914e-02 0.0 
-7.850391217195e-03 4.670188044458e-02 0.0 
-8.939522381931e-03 2.001739429485e-02 0.0 
-9.273446183569e-03 2.265764903680e-02 0.0 
-8.210140653272e-03 1.964916075812e-02 0.0 
-8.413440357721e-03 2.160938302326e-02 0.0 
-7.279675144593e-03 1.882712080104e-02 0.0 
-7.429681335974e-03 2.011586381494e-02 0.0 
-8.291053311311e-03 2.307400706313e-02 0.0 
-7.287734351412e-03 2.094137432289e-02 0.0 
-7.899996048600e-03 2.402249058329e-02 0.0 
-6.322272838855e-03 1.748965129331e-02 0.0 
-5.887926753083e-03 1.644754714884e-02 0.0 
-6.893530693010e-03 2.129752732351e-02 0.0 
-7.288323962518e-03 2.445275447460e-02 0.0 
-6.298437026135e-03 2.118419603481e-02 0.0 
-6.502081811295e-03 2.438377251594e-02 0.0 
-7.393029048068e-03 2.779619864268e-02 0.0 
-6.420797871263e-03 2.771930506079e-02 0.0 
-7.209112320548e-03 3.126908180942e-02 0.0 
7.965381492404e-03 7.805721575373e-03 0.0 
1.047161720337e-02 9.562319160738e-03 0.0 
7.273395220729e-03 9.759313879592e-03 0.0 
9.320749603404e-03 1.089830658523e-02 0.0 
6.537532593484e-03 1.074927286694e-02 0.0 
8.149282743339e-03 1.131139993383e-02 0.0 
5.666178902644e-03 1.092409194909e-02 0.0 
4.054542720070e-03 1.083442730672e-02 0.0 
1.893287732669e-02 3.176463778231e-02 0.0 
1.378137347722e-02 -2.716616612641e-04 0.0 
1.737342840114e-02 1.033545106832e-03 0.0 
1.424414889105e-02 -3.187858183798e-03 0.0 
1.762566329864e-02 -1.415939352502e-03 0.0 
1.442902592177e-02 -6.192658101027e-03 0.0 
1.755566998809e-02 -3.880470754371e-03 0.0 
1.441070959340e-02 -9.299094450220e-03 0.0 
1.111097990929e-02 -1.020435063692e-02 0.0 
1.111647881842e-02 -1.392942306762e-02 0.0 
7.823298783059e-03 -1.304338088437e-02 0.0 
7.990367670882e-03 -1.718408090047e-02 0.0 
4.809610004294e-03 -1.429272974381e-02 0.0 
2.400008163916e-02 2.520310719430e-02 0.0 
1.087212300740e-02 1.194596431887e-02 0.0 
9.302530682969e-03 1.174198282931e-02 0.0 
1.190021736567e-02 1.277338919475e-02 0.0 
-4.303397398927e-03 4.575157276237e-02 0.0 
-5.579108886606e-03 2.384226250597e-02 0.0 
-5.049404373066e-03 1.519337469629e-02 0.0 
-4.365847221932e-03 1.447135569014e-02 0.0 
3.462432364472e-03 1.069056782531e-02 0.0 
-3.000811757834e-03 5.456267088479e-02 0.0 
1.716057285622e-02 -6.298730368901e-03 0.0 
2.002345363657e-02 1.597526565149e-04 0.0 
1.174230001786e-02 3.618449508191e-02 0.0 
1.150613253007e-02 3.987872419040e-02 0.0 
-3.691151360172e-03 1.321100780443e-02 0.0 
-3.355594241384e-03 5.737848691909e-02 0.0 
-6.274043743593e-03 1.835024197702e-02 0.0 
1.077004325684e-02 -1.784304899615e-02 0.0 
-5.345608891655e-03 2.715218107583e-02 0.0 
-4.561150118940e-03 2.286586378841e-02 0.0 
-8.841434877658e-03 2.633028862311e-02 0.0 
9.991496254621e-03 1.194515128014e-02 0.0 
1.247191950260e-02 1.330723675659e-02 0.0 
4.403846978033e-03 -1.027305426465e-02 0.0 
1.609581511714e-03 -9.782498661022e-03 0.0 
2.231546911922e-03 -1.362719483194e-02 0.0 
-7.216120911373e-04 -7.229508051860e-03 0.0 
-1.361509418841e-03 -4.207048882192e-03 0.0 
-3.131654836674e-03 -8.349850236424e-04 0.0 
-2.104027461478e-03 -3.242333714841e-03 0.0 
-4.057618027222e-03 4.015097923562e-03 0.0 
-5.226224911089e-03 5.837489345190e-03 0.0 
-5.696583993153e-03 1.103142103986e-02 0.0 
-3.927817853478e-03 9.955237890193e-03 0.0 
-5.194420555702e-03 1.698924344092e-02 0.0 
-4.672731548695e-03 1.962149511530e-02 0.0 
7.960259793951e-03 -2.149349071337e-02 0.0 
2.451081275071e-02 4.657348257360e-02 0.0 
-4.244611808501e-03 1.333683486816e-02 0.0 
4.709441603069e-03 1.034194504311e-02 0.0 
9.983704266617e-03 3.271786649666e-02 0.0 
9.843651130794e-03 3.641271602223e-02 0.0 
1.110644618289e-02 4.356381731050e-02 0.0 
9.536409307195e-03 4.008093112894e-02 0.0 
8.235662130943e-03 3.269207532319e-02 0.0 
8.024348429615e-03 3.637303991392e-02 0.0 
9.083073566536e-03 4.370787797636e-02 0.0 
7.662109912928e-03 4.000831823156e-02 0.0 
8.502818507509e-03 4.726706114593e-02 0.0 
7.168449180490e-03 4.357910028307e-02 0.0 
6.311191520503e-03 3.610642657564e-02 0.0 
5.900549887137e-03 3.971010576157e-02 0.0 
6.563081979884e-03 4.707980455330e-02 0.0 
5.371016964411e-03 4.324482014879e-02 0.0 
5.863187686209e-03 5.049373132418e-02 0.0 
4.739350200161e-03 4.669974057493e-02 0.0 
4.255529909294e-03 3.925028385219e-02 0.0 
-1.296539721430e-03 5.870854198227e-02 0.0 
1.897497490534e-03 1.106244411686e-02 0.0 
1.572975935888e-03 1.053535775746e-02 0.0 
-6.582646744583e-03 5.069849606026e-02 0.0 
-6.820216864472e-03 4.792756926059e-02 0.0 
-7.947677443889e-03 4.405785857412e-02 0.0 
-6.721726787299e-03 4.497098802408e-02 0.0 
3.674751213445e-03 4.278981101595e-02 0.0 
3.229378243148e-03 3.511628939136e-02 0.0 
1.910981308620e-02 -1.329986108436e-03 0.0 
2.159343047164e-02 5.757799165409e-03 0.0 
9.935932933665e-03 2.901051757888e-02 0.0 
-4.209640314172e-03 2.613694502150e-02 0.0 
-4.852665864687e-03 3.048461409238e-02 0.0 
2.840663990906e-02 2.706244608281e-02 0.0 
2.904301021787e-02 3.209234746095e-02 0.0 
2.858584384515e-02 2.821840424171e-02 0.0 
2.879015010613e-02 3.373999278974e-02 0.0 
2.914378925795e-02 3.749890663301e-02 0.0 
2.810475804181e-02 2.942442960123e-02 0.0 
-5.122213675712e-03 1.507282775881e-02 0.0 
5.047943074608e-03 3.202921385596e-02 0.0 
-6.132459594742e-03 4.019661106569e-02 0.0 
-3.443113338415e-03 4.105254414952e-02 0.0 
-3.520690600184e-03 2.150512873680e-02 0.0 
2.091991181318e-03 1.081711821090e-02 0.0 
2.316244299825e-02 2.629932380110e-02 0.0 
2.147376343472e-02 2.301700530496e-02 0.0 
2.051501590635e-02 2.347848820295e-02 0.0 
1.873680029967e-02 2.046613922569e-02 0.0 
1.764422828558e-02 2.029860719300e-02 0.0 
1.579628223130e-02 1.751854836236e-02 0.0 
1.673785237248e-02 1.777652743446e-02 0.0 
1.020823753652e-02 1.183401658985e-02 0.0 
1.378204398203e-02 1.499915273878e-02 0.0 
4.086272639711e-03 5.012365099208e-02 0.0 
1.377955499709e-02 1.289273731658e-02 0.0 
-6.922261513216e-03 1.225949259635e-02 0.0 
-4.106083326851e-04 5.552824894968e-02 0.0 
-2.396421847257e-03 1.662063676839e-02 0.0 
-1.773541662332e-03 6.113725948823e-02 0.0 
-3.328752743331e-03 5.937035106351e-02 0.0 
-3.043015363330e-03 1.130740953430e-02 0.0 
1.450721888946e-02 1.672174296199e-02 0.0 
1.624929249414e-02 1.957960174598e-02 0.0 
2.843781878307e-02 3.967267975826e-02 0.0 
2.873589598887e-02 4.315522352228e-02 0.0 
7.977199573205e-03 1.042621240921e-02 0.0 
1.433491402567e-02 4.972884499889e-02 0.0 
9.887521776761e-03 5.075439048352e-02 0.0 
9.111434709915e-03 5.421673461058e-02 0.0 
4.184967915588e-04 6.214471426914e-02 0.0 
-1.221220732823e-03 9.187234681181e-03 0.0 
6.706432117142e-03 2.875244908627e-02 0.0 
2.251587019909e-02 6.571903398335e-03 0.0 
2.370238969213e-02 1.243161796518e-02 0.0 
1.022166765800e-02 -2.190056672254e-02 0.0 
7.737783365073e-03 -2.616638471708e-02 0.0 
2.735907771765e-03 3.862056989262e-02 0.0 
2.332112750963e-03 3.083445408021e-02 0.0 
-7.734019207899e-03 4.118805691862e-02 0.0 
-6.426913939269e-03 4.169710827290e-02 0.0 
-2.328816443484e-03 1.147520345477e-02 0.0 
-3.713368325222e-03 2.337136884689e-02 0.0 
2.656360342485e-03 2.714562619608e-02 0.0 
5.672853302663e-05 1.155742350240e-02 0.0 
-1.396576539268e-04 1.101857540743e-02 0.0 
-5.482893894240e-03 4.862055841285e-02 0.0 
2.002171200722e-02 5.261724166202e-03 0.0 
1.762855795266e-02 -2.536125566548e-03 0.0 
-6.079039126101e-03 7.755476471654e-03 0.0 
-6.253108446611e-03 2.336342930027e-02 0.0 
-1.887048763106e-03 6.267431418864e-02 0.0 
-1.889099684817e-03 9.448044287311e-03 0.0 
6.651881633623e-03 2.502478320782e-02 0.0 
1.460168950000e-02 1.543642119957e-02 0.0 
1.734095579302e-02 1.756229150566e-02 0.0 
1.167947869645e-02 1.276597505582e-02 0.0 
-2.163989149597e-04 2.350252524759e-02 0.0 
-3.412026634047e-03 1.086881023594e-02 0.0 
-3.061158902161e-03 2.473727737611e-02 0.0 
1.305925632649e-02 1.562696833792e-02 0.0 
1.457763924668e-02 1.834472653460e-02 0.0 
2.464258668016e-02 1.269657306825e-02 0.0 
2.553482875031e-02 1.873257474172e-02 0.0 
2.395385262420e-02 1.920760938823e-02 0.0 
2.552149047986e-02 2.529713535427e-02 0.0 
2.237732470961e-02 4.999729718574e-02 0.0 
2.639978668815e-02 1.846357291339e-02 0.0 
2.595807551420e-02 4.666640204247e-02 0.0 
2.542659124041e-02 5.107516256990e-02 0.0 
2.662451487353e-02 5.080083085270e-02 0.0 
2.915602286376e-02 4.062259587612e-02 0.0 
2.868404349317e-02 4.605349984780e-02 0.0 
2.049820223418e-02 3.713310699370e-03 0.0 
1.387970901121e-02 9.902636970887e-03 0.0 
-8.855254641407e-03 4.001173991281e-02 0.0 
-8.224256992118e-03 3.084759562297e-02 0.0 
-7.610547853631e-03 1.723838146812e-02 0.0 
5.238990795156e-03 2.833521674393e-02 0.0 
4.003008804290e-03 2.405167736471e-02 0.0 
7.041295934947e-03 5.412326382124e-02 0.0 
6.196493142276e-03 5.740239205140e-02 0.0 
-1.236007631705e-03 4.665205617678e-02 0.0 
4.808428777636e-05 4.168767495916e-02 0.0 
-9.961949860365e-03 2.608792922538e-02 0.0 
-4.470571648071e-03 1.315218830957e-02 0.0 
8.132518771198e-03 2.527673883540e-02 0.0 
7.775237067960e-03 2.156045623197e-02 0.0 
9.679186547174e-03 2.529534416843e-02 0.0 
-1.060663264068e-03 9.920120008328e-03 0.0 
1.053694153183e-02 -3.409943942279e-03 0.0 
4.773321164254e-03 8.665600799334e-03 0.0 
5.573120035322e-03 -2.323165636832e-02 0.0 
2.242443320134e-02 2.041184422172e-02 0.0 
2.629652138416e-03 4.730261036625e-02 0.0 
2.007799366771e-02 2.949115702332e-02 0.0 
-2.496219967601e-03 1.980456954400e-02 0.0 
-2.792570035533e-03 1.657218277024e-02 0.0 
7.868200010293e-03 9.742817524753e-03 0.0 
2.218648523122e-02 5.901112352703e-02 0.0 
2.001502775596e-02 1.781603259737e-02 0.0 
1.968760575236e-02 1.596589061413e-02 0.0 
2.577866291189e-02 5.533896380451e-02 0.0 
2.670478133792e-02 5.473007376355e-02 0.0 
2.757663278318e-02 4.993909769337e-02 0.0 
2.736872392357e-02 5.355897510753e-02 0.0 
-7.753652449832e-03 1.347788024617e-02 0.0 
-8.206682245847e-03 1.812089599022e-02 0.0 
1.095416023513e-02 1.261287536688e-02 0.0 
1.068387057541e-02 1.182163250275e-02 0.0 
1.124817918257e-02 1.395516636442e-02 0.0 
1.264117396590e-02 1.655039865304e-02 0.0 
5.851002813127e-03 8.236284491094e-03 0.0 
5.891824337407e-03 9.166929520212e-03 0.0 
-2.921370015690e-03 6.055824873509e-02 0.0 
2.788739446670e-02 4.885071673223e-02 0.0 
5.123879074972e-03 2.084710413472e-02 0.0 
2.463139470003e-02 5.541226530654e-02 0.0 
-3.488602644634e-03 1.022797000931e-02 0.0 
-4.401735351690e-03 1.263052367920e-02 0.0 
5.792654194849e-03 -2.824903322770e-02 0.0 
3.541239598984e-03 -2.183532446921e-02 0.0 
1.831507149681e-03 2.285916800014e-02 0.0 
2.331856252596e-02 2.640362917254e-02 0.0 
2.475593147017e-02 3.205275297734e-02 0.0 
2.162685946152e-02 1.996968568757e-02 0.0 
-4.125284804751e-04 8.882224084292e-03 0.0 
1.658209420491e-03 7.011974962445e-02 0.0 
-1.887104299007e-03 1.460259893407e-02 0.0 
2.880786190592e-02 4.320552170136e-02 0.0 
1.952812252952e-03 1.873125386753e-02 0.0 
1.741152244967e-02 1.575269978122e-02 0.0 
2.777455505906e-02 2.312137523720e-02 0.0 
-1.246715260738e-03 1.143312431204e-02 0.0 
1.500782773611e-03 2.728161660859e-02 0.0 
1.109172355626e-03 1.810428422058e-02 0.0 
1.041482242542e-02 5.738221496591e-02 0.0 
9.496144808168e-03 6.083553205149e-02 0.0 
1.130826756707e-02 5.401646767257e-02 0.0 
1.312003722789e-02 -1.573137302088e-02 0.0 
1.173335064219e-02 -1.877547576468e-02 0.0 
3.889461165983e-03 2.778904726842e-02 0.0 
-5.964641958461e-03 5.328790386167e-02 0.0 
-5.088906481255e-03 5.443571011702e-02 0.0 
-4.672524189749e-03 2.949607352445e-02 0.0 
-7.082698887565e-03 2.923411390657e-02 0.0 
-8.489046593809e-03 3.734203296534e-02 0.0 
-9.467940416442e-03 3.595665063115e-02 0.0 
1.907369359551e-02 2.596857184208e-02 0.0 
1.733630887006e-02 2.479846303516e-02 0.0 
2.203017725120e-02 2.681711355132e-02 0.0 
-1.968711491456e-03 1.231788425858e-02 0.0 
-2.504287222528e-03 1.159329087061e-02 0.0 
-4.698796619511e-04 9.705307132288e-03 0.0 
4.000920160898e-03 2.053461538624e-02 0.0 
2.702900438429e-03 1.537105948503e-02 0.0 
-6.671707228152e-03 9.488648553249e-03 0.0 
-4.550306449099e-03 4.126783955086e-03 0.0 
-8.972843107891e-03 1.868995718935e-02 0.0 
4.810175534480e-03 1.722339310361e-02 0.0 
-2.021824640385e-03 1.149147901080e-02 0.0 
-2.861278087734e-03 1.352406520367e-02 0.0 
4.289722939708e-03 4.225406777273e-02 0.0 
1.411379187466e-03 3.614947179310e-02 0.0 
1.753336792514e-02 5.174884830085e-03 0.0 
1.499149262131e-02 -3.287401939192e-03 0.0 
7.300658459116e-03 1.814570484378e-02 0.0 
9.218194101045e-03 2.165780673342e-02 0.0 
5.260583127765e-03 1.386662017284e-02 0.0 
-1.541656082654e-03 6.353075558206e-02 0.0 
1.504144430987e-02 1.541788108893e-02 0.0 
-7.793558608729e-04 7.789737456459e-03 0.0 
1.244495097339e-04 8.544064523814e-03 0.0 
-1.278731567670e-03 6.521307299881e-03 0.0 
1.006721198347e-02 1.146038013402e-02 0.0 
7.367440513239e-03 8.829878821668e-03 0.0 
8.511040131289e-03 9.574625667717e-03 0.0 
6.970761835142e-03 -3.065576501191e-02 0.0 
8.394202185329e-04 2.159489579689e-02 0.0 
7.337655655412e-03 6.083018013737e-02 0.0 
6.372200842797e-03 -3.228429773338e-02 0.0 
6.359354258016e-03 6.418570699852e-02 0.0 
5.328157562204e-03 6.061791128117e-02 0.0 
5.498788039688e-03 6.736501639064e-02 0.0 
-7.560036601633e-04 6.531783825845e-02 0.0 
1.186340546557e-02 6.146597028622e-02 0.0 
1.285765149760e-02 5.725062800122e-02 0.0 
7.001831720544e-03 3.662144789142e-02 0.0 
3.311763398074e-03 1.292126184662e-02 0.0 
6.680067769989e-03 4.732872621635e-02 0.0 
4.755403039991e-03 5.184010742756e-02 0.0 
-3.227247962529e-03 9.130127081075e-03 0.0 
-4.069190086730e-03 1.173508491077e-02 0.0 
-2.784617349535e-03 7.787359558446e-03 0.0 
-3.611816211249e-03 1.070741543324e-02 0.0 
-4.779733827060e-03 1.458107877237e-02 0.0 
-4.158938462749e-03 1.348362841877e-02 0.0 
8.581775269349e-03 6.459109926790e-02 0.0 
-2.766508334772e-03 8.509083930548e-03 0.0 
-3.401178223530e-03 1.192722334274e-02 0.0 
-2.042436642186e-03 6.837601927000e-03 0.0 
2.614472131737e-02 5.862808768490e-02 0.0 
2.670988567289e-02 3.060052631914e-02 0.0 
2.588893037298e-02 3.725412811224e-02 0.0 
2.332601935246e-02 3.932627079519e-02 0.0 
8.395528265279e-03 1.071185240508e-02 0.0 
1.070387508996e-02 1.456013572959e-02 0.0 
-1.941206620555e-03 2.289633094789e-02 0.0 
-2.268998599243e-03 2.783567351673e-02 0.0 
4.406662368822e-03 6.420921482637e-02 0.0 
3.223106719588e-03 6.460310753011e-02 0.0 
3.523711368082e-03 5.859108406185e-02 0.0 
2.548458031058e-03 5.941959351236e-02 0.0 
2.741289589814e-03 5.326034252772e-02 0.0 
1.769021540355e-03 5.412457621749e-02 0.0 
2.091095004026e-03 4.769521212018e-02 0.0 
7.227437470757e-03 8.129906559560e-03 0.0 
2.018033896616e-02 2.717761276772e-02 0.0 
2.466321570738e-02 5.982809866002e-02 0.0 
4.020126285923e-03 6.817162649519e-03 0.0 
4.198168666424e-03 8.206867919814e-03 0.0 
2.780901522732e-02 5.146781687570e-02 0.0 
2.663386831061e-02 5.456025598587e-02 0.0 
-2.377639393004e-03 7.424826957315e-03 0.0 
2.503823232615e-02 1.318938370122e-02 0.0 
2.432251689044e-03 8.219514180041e-03 0.0 
3.691733783320e-03 -2.373474742230e-02 0.0 
8.424132588505e-03 -2.402336221352e-02 0.0 
2.666392987508e-02 1.842383130275e-02 0.0 
2.827496456338e-02 4.839055639756e-02 0.0 
2.772234705064e-02 3.543884167330e-02 0.0 
2.699700072219e-02 4.196449400336e-02 0.0 
-1.565446293784e-03 1.227439476443e-02 0.0 
3.086680805906e-03 3.007074453977e-02 0.0 
1.970742937977e-02 1.287840566372e-02 0.0 
3.032213890329e-03 4.689171808444e-02 0.0 
1.625658266584e-02 1.307105324780e-02 0.0 
-1.046891786583e-03 2.544663638055e-02 0.0 
2.293514361952e-02 8.873140156835e-03 0.0 
2.890873449298e-02 3.811870786561e-02 0.0 
2.212657366105e-02 1.247515011184e-02 0.0 
2.705648636394e-02 2.455060633077e-02 0.0 
2.287050784404e-02 4.592127721974e-02 0.0 
2.165278870217e-02 5.398573761947e-02 0.0 
2.318359985690e-02 5.505724601003e-02 0.0 
2.012966914864e-02 5.589557519082e-03 0.0 
2.763550375396e-02 4.573633300884e-02 0.0 
2.571918477153e-02 4.865893023535e-02 0.0 
2.617355623998e-02 4.226138193130e-02 0.0 
1.163201207530e-02 2.873694531232e-02 0.0 
1.123971958095e-02 2.503341371908e-02 0.0 
8.597937009498e-03 1.825636964392e-02 0.0 
1.062717736445e-02 2.145198870061e-02 0.0 
1.329186173000e-02 2.813376951774e-02 0.0 
1.274398757944e-02 2.450299512977e-02 0.0 
9.794973431006e-03 1.803833171588e-02 0.0 
1.195834670188e-02 2.098067108646e-02 0.0 
7.982115138557e-03 1.336219572978e-02 0.0 
1.083507801017e-02 1.744172354822e-02 0.0 
1.413465693111e-02 2.372694064929e-02 0.0 
1.319272314584e-02 2.042309725359e-02 0.0 
9.993869715863e-03 1.493549184128e-02 0.0 
1.634910013725e-02 2.638463434972e-02 0.0 
3.628814190741e-03 5.463915951619e-03 0.0 
2.632714959761e-02 1.854862084281e-02 0.0 
9.119516170614e-03 -2.600625253434e-02 0.0 
1.092082646482e-02 -1.475863869458e-02 0.0 
2.829450094718e-02 4.019973963089e-02 0.0 
3.935558927083e-03 6.624893736639e-03 0.0 
3.414644140733e-03 6.866614620169e-03 0.0 
2.044142033256e-02 1.859931057134e-03 0.0 
4.185666542671e-03 5.089413822319e-03 0.0 
2.397870516868e-02 5.083686875689e-02 0.0 
1.400321328036e-02 -1.250351659897e-02 0.0 
4.053725329239e-03 4.616618110276e-03 0.0 
1.359899259909e-02 3.182280157641e-02 0.0 
1.557686506285e-02 3.471136179320e-02 0.0 
1.556589024957e-02 3.845284647179e-02 0.0 
2.760287482879e-03 6.645403022333e-03 0.0 
1.209557486399e-02 5.048684658601e-02 0.0 
2.817743001401e-03 3.517212290436e-03 0.0 
1.241266981233e-02 1.135945746159e-02 0.0 
1.568760273128e-02 1.221251671580e-02 0.0 
1.724192715536e-02 1.090680230311e-02 0.0 
1.488506153813e-02 2.738345519128e-02 0.0 
1.270353069351e-03 3.242471490108e-03 0.0 
1.922904167802e-03 5.806973739638e-03 0.0 
1.040090070854e-03 5.804567850472e-03 0.0 
2.148692021141e-03 8.017336451115e-03 0.0 
3.207926430022e-04 3.244430634176e-03 0.0 
3.854768490026e-03 5.571771647311e-03 0.0 
3.764195060917e-03 5.092677573128e-03 0.0 
-3.915855637288e-03 1.692145760801e-03 0.0 
-1.948637133037e-03 -1.188519707895e-03 0.0 
-2.454891306989e-03 1.595144486275e-03 0.0 
5.787491221199e-04 -2.835037651416e-03 0.0 
1.103115049043e-03 -6.167184156266e-03 0.0 
3.974522332264e-03 -6.576322796954e-03 0.0 
3.532316609373e-03 -3.166520303838e-03 0.0 
7.559650360378e-03 -9.194159664529e-03 0.0 
1.414457655393e-02 1.974958189445e-02 0.0 
-4.802615151238e-04 3.268040387258e-03 0.0 
-6.800326589847e-03 1.711007820008e-02 0.0 
-5.946201670017e-03 1.503193768443e-02 0.0 
-6.560745809907e-03 1.448618768636e-02 0.0 
-9.729424106458e-03 3.813667807629e-02 0.0 
-1.018003854267e-02 3.390964298413e-02 0.0 
-9.741199207910e-03 3.200276017538e-02 0.0 
-8.937307489720e-03 4.244182263645e-02 0.0 
1.951364857267e-02 2.010261448702e-02 0.0 
-8.424086097438e-04 3.405902960154e-03 0.0 
2.105975103195e-03 9.772131481840e-03 0.0 
-1.056662641249e-02 3.117067329557e-02 0.0 
1.567768512962e-02 6.543237927188e-02 0.0 
1.612634706299e-02 5.980814115935e-02 0.0 
1.748985782186e-02 5.855831758264e-02 0.0 
1.612579927539e-02 5.321055054564e-02 0.0 
1.447830431587e-02 6.021739809722e-02 0.0 
-7.306679002706e-03 3.806823311711e-02 0.0 
-5.986805955092e-03 3.817834684798e-02 0.0 
-4.996692650509e-03 4.158451277041e-02 0.0 
-4.585755147632e-03 3.772423354398e-02 0.0 
-3.506401821186e-03 4.089780441721e-02 0.0 
-3.817074096895e-03 4.470844932846e-02 0.0 
-3.125472308916e-03 3.677640958090e-02 0.0 
-2.035031182010e-03 4.017045735078e-02 0.0 
1.274680455681e-02 6.725225300327e-02 0.0 
9.242681985386e-03 -1.492330069584e-02 0.0 
4.550045497030e-03 -8.404137779500e-03 0.0 
5.550331361382e-03 3.103929498108e-03 0.0 
1.529292810266e-03 -2.421988359680e-03 0.0 
1.817300728161e-03 -1.213059757870e-02 0.0 
-7.412024429687e-04 -5.648665642629e-03 0.0 
1.087535306167e-03 -1.378828047839e-02 0.0 
4.170978137806e-03 -1.979901980484e-02 0.0 
1.188891126510e-02 8.691920566663e-03 0.0 
6.403438257943e-03 1.273580889685e-02 0.0 
1.253730020747e-02 1.766785824269e-02 0.0 
7.202712332235e-03 2.123767218889e-02 0.0 
1.722228781597e-03 1.656532583641e-02 0.0 
-2.493555141626e-03 3.569460695835e-02 0.0 
-1.092089076975e-03 5.695110469844e-03 0.0 
-1.535999515207e-03 5.148682678858e-02 0.0 
-2.955062187441e-03 5.266167102864e-02 0.0 
-2.812418751687e-03 5.595187119451e-02 0.0 
-4.389078639351e-03 5.292514565311e-02 0.0 
-2.874671865584e-03 4.939186425286e-02 0.0 
-1.351551744290e-03 5.842632986623e-02 0.0 
-2.512347577825e-03 5.874607044428e-02 0.0 
5.000703212503e-03 6.640142570766e-02 0.0 
2.745697016821e-03 6.759481374768e-02 0.0 
1.372513897180e-03 6.895546673110e-02 0.0 
1.155396372158e-03 6.806946199363e-02 0.0 
1.922821190933e-03 6.639737753493e-02 0.0 
4.017028790408e-03 6.548295158433e-02 0.0 
5.197446614130e-03 6.258635906158e-02 0.0 
8.479299801599e-03 6.070829929574e-02 0.0 
6.169294584476e-03 5.901516463161e-02 0.0 
3.024868549917e-03 6.072783755655e-02 0.0 
9.951536591465e-03 5.690490348316e-02 0.0 
6.724144267451e-04 3.792088368718e-02 0.0 
1.276892474898e-03 3.403071275418e-02 0.0 
-1.392912109567e-03 3.939679553532e-03 0.0 
9.920941264056e-03 6.799116466534e-02 0.0 
1.292687511578e-02 3.334899320900e-02 0.0 
1.019571367792e-03 9.131147960574e-03 0.0 
1.489712346491e-03 7.487938991083e-03 0.0 
1.223889502370e-03 7.293536080041e-03 0.0 
-6.578192438008e-04 1.471367924098e-02 0.0 
-1.062472864126e-03 1.191350510198e-02 0.0 
5.616468960881e-04 8.917535027933e-03 0.0 
-8.051813631967e-03 3.930067238860e-02 0.0 
7.761020496133e-03 1.500146054145e-02 0.0 
2.850386159984e-03 2.338778633383e-02 0.0 
1.626624451361e-02 -8.575706794084e-03 0.0 
-7.977220377720e-03 2.340918279580e-02 0.0 
-3.545221864214e-03 2.938074938183e-02 0.0 
-8.215139472962e-03 2.733229660129e-02 0.0 
-3.743479445306e-03 1.829899205288e-02 0.0 
-6.069311675287e-03 3.112622236938e-02 0.0 
-5.543683361122e-03 2.061244053228e-02 0.0 
1.396070862381e-04 6.082028228541e-03 0.0 
-5.170267767487e-04 6.413249621828e-02 0.0 
7.815317430151e-03 5.074084606378e-02 0.0 
5.132213812274e-03 5.383532311676e-02 0.0 
4.714858092214e-03 3.567284838237e-02 0.0 
-6.508837299554e-03 5.120146600795e-02 0.0 
-5.345632322136e-03 4.498584674431e-02 0.0 
-2.316354685763e-03 5.094471634386e-02 0.0 
7.520522938428e-03 8.753472378658e-03 0.0 
2.716420500208e-02 4.621612708353e-02 0.0 
-8.151599559051e-03 1.694014338737e-02 0.0 
-9.654191542604e-03 4.007840120650e-02 0.0 
-9.156176102978e-03 3.388909914532e-02 0.0 
-6.984039079757e-03 1.752626029907e-02 0.0 
2.723149766545e-02 2.253985373802e-02 0.0 
-1.042961920536e-02 2.705723700607e-02 0.0 
-6.438644681987e-03 1.813153232989e-02 0.0 
3.626875130450e-03 3.148359838038e-02 0.0 
1.148598557060e-02 4.689475297131e-02 0.0 
-5.402440752301e-03 1.560001957321e-02 0.0 
-9.215744892666e-03 2.477106450728e-02 0.0 
1.056275081279e-02 4.720482373955e-02 0.0 
6.881031206305e-03 1.095255419918e-02 0.0 
-2.583272240342e-03 2.635161494048e-03 0.0 
6.588494846604e-03 3.246043781958e-02 0.0 
6.067215024849e-03 1.803666047140e-02 0.0 
1.362594751044e-02 5.349445451680e-02 0.0 
1.066632314354e-03 5.184826712702e-02 0.0 
8.277131579888e-03 5.766891253086e-02 0.0 
-2.348416912630e-03 8.743689841246e-03 0.0 
1.178926517269e-02 3.245155306458e-02 0.0 
-4.919681917340e-03 5.550731549450e-02 0.0 
5.170828726012e-03 6.437201022536e-03 0.0 
2.853113222330e-02 3.330723061855e-02 0.0 
2.219793178998e-02 6.377149384460e-02 0.0 
2.919657598291e-03 1.989035066197e-02 0.0 
2.168253708796e-02 1.578816420805e-02 0.0 
2.813961889903e-03 9.773562260339e-03 0.0 
4.497093326314e-03 1.018482427194e-02 0.0 
-4.449351296284e-03 5.708541458564e-02 0.0 
-5.222706148929e-03 1.528792407492e-02 0.0 
1.501146229892e-02 7.917235135341e-03 0.0 
5.281352898024e-03 2.465252683636e-02 0.0 
1.927649987189e-02 2.336517313092e-02 0.0 
9.991719967434e-03 -2.659201778012e-04 0.0 
8.278503115108e-03 2.899185100549e-02 0.0 
-5.025747339570e-03 1.155767474173e-02 0.0 
7.652187464927e-03 1.081024232710e-02 0.0 
2.812938771250e-02 4.505627355433e-02 0.0 
2.450393925766e-02 2.991797443276e-02 0.0 
2.077913457562e-02 3.316487974629e-02 0.0 
2.447527378199e-02 2.351175303734e-02 0.0 
-2.536165496767e-03 3.258612784372e-02 0.0 
-5.448875859910e-03 1.563852126722e-02 0.0 
5.363293429486e-03 -1.865040239559e-02 0.0 
2.774532618359e-02 2.376659567605e-02 0.0 
1.271177093870e-02 4.678343278331e-02 0.0 
1.270788584538e-02 1.422782606630e-02 0.0 
3.718609028510e-03 1.650782067047e-02 0.0 
2.915712935364e-02 3.540905385936e-02 0.0 
-5.872134135678e-03 1.815039571818e-02 0.0 
6.454996142168e-03 2.152894029700e-02 0.0 
-1.026265860385e-02 2.986020244162e-02 0.0 
-4.308682697238e-04 6.619379218473e-02 0.0 
1.499069107608e-02 -1.056200365655e-02 0.0 
1.090882003956e-02 -6.725326727314e-03 0.0 
2.038647858778e-02 1.270911291432e-02 0.0 
-9.661424420120e-03 2.825871529505e-02 0.0 
6.241785322189e-03 1.378102971443e-02 0.0 
-5.277319576389e-03 1.753086645362e-02 0.0 
-2.795008345275e-03 1.282927175205e-02 0.0 
8.708957040547e-03 4.789996478527e-03 0.0 
2.356242214083e-02 5.959037658761e-02 0.0 
-4.537585708866e-03 1.650572924297e-02 0.0 
2.065573778143e-03 7.983123738542e-03 0.0 
5.529197434267e-03 9.867934692636e-03 0.0 
-2.311453049740e-03 4.388704470299e-02 0.0 
7.335321600277e-03 8.344010069912e-03 0.0 
2.661386586959e-02 5.675058910878e-02 0.0 
-3.706199064587e-03 1.511118432203e-02 0.0 
1.150054038543e-04 1.131481711421e-02 0.0 
2.294799290745e-02 7.627687827436e-03 0.0 
2.749648746608e-03 7.004898687770e-02 0.0 
-2.422949143734e-03 9.470669169481e-03 0.0 
1.143193864266e-04 1.023203983656e-02 0.0 
2.213386049990e-02 2.199093572407e-02 0.0 
-6.009053833456e-04 7.962457460682e-03 0.0 
2.401172576430e-02 6.422085341924e-02 0.0 
-9.059183637798e-03 2.983475342547e-02 0.0 
2.323947167133e-02 3.038740466692e-02 0.0 
2.456581405291e-03 6.583383027444e-03 0.0 
1.283198396296e-03 9.235718345888e-03 0.0 
1.746306233721e-02 4.110282233976e-02 0.0 
-8.941250446751e-03 3.353087652497e-02 0.0 
1.467425447906e-02 1.409947681032e-02 0.0 
2.593943446050e-03 6.395068858794e-02 0.0 
2.550736873930e-02 5.949497248034e-02 0.0 
-7.915630078055e-03 3.443264102506e-02 0.0 
7.194196893956e-03 -5.609050277959e-03 0.0 
-2.869851116589e-03 1.028674000961e-02 0.0 
5.479923376797e-03 7.154749095665e-03 0.0 
-6.733676699096e-03 3.472191514318e-02 0.0 
6.743952139036e-03 -2.208631223995e-03 0.0 
-5.449666442495e-03 3.445775910819e-02 0.0 
2.496133307151e-02 6.249689151746e-02 0.0 
1.751505449472e-02 3.720369152200e-02 0.0 
-4.062524744775e-03 3.372113721763e-02 0.0 
2.065795622898e-02 2.667640092687e-02 0.0 
3.202012318780e-03 5.657315132275e-02 0.0 
1.995562914018e-02 1.922157264809e-02 0.0 
-1.508170967521e-03 1.747809468106e-02 0.0 
-9.861007627958e-03 2.370709842360e-02 0.0 
-4.651115886265e-03 1.269122398315e-02 0.0 
1.534660542816e-02 3.099919393198e-02 0.0 
2.476486962846e-02 5.885089812468e-02 0.0 
-4.000455414531e-03 1.342176910041e-02 0.0 
1.779617169013e-02 2.268862971940e-02 0.0 
1.759179673597e-02 1.689666667160e-02 0.0 
1.881706069226e-02 1.366163543437e-02 0.0 
-3.341550231955e-03 1.349258305705e-02 0.0 
2.643819789055e-02 5.172323961515e-02 0.0 
-7.599154580262e-03 3.475064649092e-02 0.0 
-5.475893401266e-03 3.517779389697e-02 0.0 
3.117862946379e-03 4.339222656924e-05 0.0 
1.606310918879e-02 2.145928112970e-02 0.0 
4.180217418375e-04 6.642699570131e-02 0.0 
1.695670433555e-02 2.981275208455e-02 0.0 
-1.378927220928e-03 2.982772179416e-02 0.0 
1.466575025049e-04 2.286174814898e-04 0.0 
1.252349080422e-02 1.345032163234e-02 0.0 
8.028196873795e-04 5.238882573275e-02 0.0 
-2.804041574468e-03 4.233229184285e-03 0.0 
-8.069399589796e-04 6.403503962361e-02 0.0 
-4.998130763772e-03 6.347429449407e-03 0.0 
1.679447530858e-02 1.419691352715e-02 0.0 
-6.975437249075e-03 1.105452794283e-02 0.0 
-8.249694743386e-03 1.447646020535e-02 0.0 
1.974934991715e-03 1.536495202421e-02 0.0 
-9.398550455213e-03 1.922980379348e-02 0.0 
2.785550343418e-04 7.406231538059e-03 0.0 
-4.817061115034e-04 5.327982415249e-03 0.0 
1.043750132382e-03 6.550971906339e-02 0.0 
2.309796186816e-02 5.366307581831e-02 0.0 
6.122047793948e-03 -3.548791969659e-02 0.0 
2.510047964653e-02 4.325621806736e-02 0.0 
-9.131020741181e-03 2.349490114374e-02 0.0 
1.830206570075e-02 2.823236757190e-02 0.0 
2.168807806108e-03 6.516521473144e-02 0.0 
-8.684945058793e-03 2.892834450162e-02 0.0 
7.363009643758e-03 1.127182093866e-02 0.0 
3.391046629282e-03 3.856362358917e-03 0.0 
1.444726226751e-03 4.128055788691e-02 0.0 
3.747525683711e-03 9.100287054714e-03 0.0 
1.502864915521e-02 1.493574248485e-02 0.0 
4.160215474585e-04 2.243920119805e-02 0.0 
6.377793033089e-03 6.999852270098e-02 0.0 
7.808956894028e-03 2.909928296281e-02 0.0 
-1.214648686997e-03 3.045873543372e-02 0.0 
2.052390714617e-02 4.521237452020e-02 0.0 
2.176075167142e-02 3.325161991766e-02 0.0 
1.817201192220e-02 2.042913499050e-02 0.0 
-3.588679712478e-03 5.814969162595e-02 0.0 
2.017972955109e-03 7.487858770054e-03 0.0 
1.790746550524e-02 3.438041007691e-02 0.0 
2.779069133947e-03 6.047875135714e-03 0.0 
1.063983386730e-02 6.326094904315e-02 0.0 
1.246979305669e-02 1.345008264938e-02 0.0 
1.372415057483e-02 2.131478313971e-02 0.0 
4.429389829838e-03 1.414481816796e-02 0.0 
6.162488436800e-03 7.222134247797e-03 0.0 
-1.412118641181e-03 3.840920346960e-03 0.0 
9.467358509351e-03 1.068674913564e-02 0.0 
1.392528092799e-02 4.724457553784e-03 0.0 
1.499968973434e-02 5.538471824637e-02 0.0 
7.594905036051e-03 9.178282439347e-03 0.0 
1.947373909815e-03 3.511062877504e-02 0.0 
-1.308009403852e-03 3.968142744931e-03 0.0 
1.326748416588e-02 6.260099846250e-02 0.0 
1.222593183478e-03 1.442741462093e-02 0.0 
3.285587414863e-03 -1.809064893413e-02 0.0 
6.249874575417e-04 1.404650590276e-02 0.0 
1.535478676654e-02 2.292586980407e-02 0.0 
4.428151538285e-03 5.706709807835e-02 0.0 
1.758186395231e-02 5.362947527784e-02 0.0 
-1.260905275640e-03 9.199301955768e-03 0.0 
6.781416336302e-03 1.216186425271e-02 0.0 
1.139043922120e-02 -5.733915074755e-03 0.0 
2.258376322821e-03 4.198719649669e-02 0.0 
-5.744742089019e-03 5.106922973652e-02 0.0 
5.552303873440e-03 -2.847285446169e-02 0.0 
-2.487140047293e-03 7.164261497724e-03 0.0 
1.212371647316e-02 1.752553158947e-02 0.0 
-1.949518325246e-03 9.069127849891e-03 0.0 
5.612202196568e-04 6.882524794963e-02 0.0 
8.543212000687e-03 4.287832144649e-02 0.0 
-1.634057015238e-03 6.037504070374e-03 0.0 
7.145010637529e-03 9.609600960857e-03 0.0 
-1.974229381219e-04 -9.517742729149e-03 0.0 
1.528985331802e-03 5.787930868962e-03 0.0 
7.413838678492e-03 -1.586691271215e-02 0.0 
8.704797846534e-03 7.003694171910e-02 0.0 
7.221607079576e-03 5.518511904555e-02 0.0 
-1.168703597598e-03 4.201768138056e-03 0.0 
2.784984987692e-03 1.356221795238e-02 0.0 
-4.050474793242e-03 5.021468416039e-02 0.0 
1.846214222150e-02 6.248196999408e-02 0.0 
-2.057519849148e-03 6.143346912238e-02 0.0 
9.770624964407e-03 1.098704732866e-02 0.0 
3.559994855344e-03 2.416523538665e-02 0.0 
1.950368038237e-03 1.294645686085e-02 0.0 
-4.822161447411e-04 5.433668978792e-03 0.0 
5.021440084626e-03 1.190761532746e-02 0.0 
1.596456514953e-03 2.540385443808e-03 0.0 
7.071278737726e-03 -3.034895165676e-02 0.0 
5.749167678662e-03 6.563946909694e-03 0.0 
9.353778498351e-04 7.601055681143e-03 0.0 
4.785447647102e-03 7.052858512259e-02 0.0 
6.090890465231e-03 1.231292051451e-02 0.0 
-3.837176577239e-03 5.594804366819e-02 0.0 
8.185047597014e-04 5.907977584438e-02 0.0 
1.195301663444e-04 6.572417206282e-03 0.0 
1.586821900497e-03 6.860945873023e-02 0.0 
8.062064016983e-04 7.083003290108e-02 0.0 
-1.866246196666e-04 4.379600992351e-03 0.0 
9.281398098921e-04 6.483359356940e-02 0.0 
1.725744596257e-03 6.076661417641e-02 0.0 
6.751349627404e-03 9.643447912481e-03 0.0 
-1.007906759075e-03 4.353899817215e-02 0.0 
9.635278257107e-04 2.775812212796e-02 0.0 
-4.874576241072e-04 2.525102792594e-03 0.0 
8.066420412028e-03 -3.472580451050e-02 0.0 
1.383439011526e-03 4.881298608129e-02 0.0 
5.009869267329e-03 6.234692966352e-03 0.0 
4.057205983692e-03 1.173131480576e-02 0.0 
3.555257879277e-03 5.342525710553e-02 0.0 
1.325846788023e-02 -1.052942455317e-02 0.0 
9.412539171752e-03 1.330380089791e-02 0.0 
-4.198091954087e-03 4.732721876614e-02 0.0 
1.016383439940e-02 1.212857418048e-02 0.0 
2.993155910566e-03 7.592365998626e-03 0.0 
2.998039492681e-03 -1.412112583066e-02 0.0 
-8.539843019222e-04 3.937379111867e-02 0.0 
8.159572053430e-03 5.104274026840e-02 0.0 
-2.515075416892e-03 7.225019665256e-03 0.0 
-2.769854683436e-03 4.651035568950e-02 0.0 
2.890474326612e-03 2.163408143315e-02 0.0 
2.584209604279e-04 1.066995045610e-01 0.0 
9.360107405548e-03 3.508444584979e-02 0.0 
2.957498479148e-04 1.047598467847e-01 0.0 
1.430078530765e-02 4.623766714729e-02 0.0 
3.540554150874e-04 1.023429364083e-01 0.0 
1.811382164833e-02 5.547907855113e-02 0.0 
3.810819503300e-04 9.943831749781e-02 0.0 
2.070050980468e-02 6.254400736148e-02 0.0 
4.397300252492e-04 9.605694427359e-02 0.0 
2.207017640433e-02 6.736346713179e-02 0.0 
4.505834647404e-04 9.220256571466e-02 0.0 
2.226487760765e-02 6.994970132935e-02 0.0 
5.011625624789e-04 8.788126533466e-02 0.0 
2.145590998556e-02 7.048224995060e-02 0.0 
5.030771878154e-04 8.310048385833e-02 0.0 
1.981963910503e-02 6.924881820651e-02 0.0 
5.369320386990e-04 7.787154872214e-02 0.0 

VECTORS node_bounda_dof_materi_velocity_x float
1.000000000000e+00 0.0 0.0 
1.000000000000e+00 0.0 0.0 
1.000000000000e+00 0.0 0.0 
1.000000000000e+00 0.0 0.0 
1.000000000000e+00 0.0 0.0 
1.000000000000e+00 0.0 0.0 
1.000000000000e+00 0.0 0.0 
1.000000000000e+00 0.0 0.0 
1.000000000000e+00 0.0 0.0 
1.000000000000e+00 0.0 0.0 
1.000000000000e+00 0.0 0.0 
1.000000000000e+00 0.0 0.0 
1.000000000000e+00 0.0 0.0 
1.000000000000e+00 0.0 0.0 
1.000000000000e+00 0.0 0.0 
1.000000000000e+00 0.0 0.0 
1.000000000000e+00 0.0 0.0 
1.000000000000e+00 0.0 0.0 
1.000000000000e+00 0.0 0.0 
1.000000000000e+00 0.0 0.0 
1.000000000000e+00 0.0 0.0 
1.000000000000e+00 0.0 0.0 
1.000000000000e+00 0.0 0.0 
1.000000000000e+00 0.0 0.0 
1.000000000000e+00 0.0 0.0 
1.000000000000e+00 0.0 0.0 
1.000000000000e+00 0.0 0.0 
1.000000000000e+00 0.0 0.0 
1.000000000000e+00 0.0 0.0 
1.000000000000e+00 0.0 0.0 
1.000000000000e+00 0.0 0.0 
1.000000000000e+00 0.0 0.0 
1.000000000000e+00 0.0 0.0 
1.000000000000e+00 0.0 0.0 
1.000000000000e+00 0.0 0.0 
1.000000000000e+00 0.0 0.0 
1.000000000000e+00 0.0 0.0 
1.000000000000e+00 0.0 0.0 
1.000000000000e+00 0.0 0.0 
1.000000000000e+00 0.0 0.0 
1.000000000000e+00 0.0 0.0 
1.000000000000e+00 0.0 0.0 
1.000000000000e+00 0.0 0.0 
1.000000000000e+00 0.0 0.0 
1.000000000000e+00 0.0 0.0 
1.000000000000e+00 0.0 0.0 
1.000000000000e+00 0.0 0.0 
1.000000000000e+00 0.0 0.0 
1.000000000000e+00 0.0 0.0 
1.000000000000e+00 0.0 0.0 
1.000000000000e+00 0.0 0.0 
1.000000000000e+00 0.0 0.0 
1.000000000000e+00 0.0 0.0 
1.000000000000e+00 0.0 0.0 
1.000000000000e+00 0.0 0.0 
1.000000000000e+00 0.0 0.0 
1.000000000000e+00 0.0 0.0 
1.000000000000e+00 0.0 0.0 
1.000000000000e+00 0.0 0.0 
1.000000000000e+00 0.0 0.0 
1.000000000000e+00 0.0 0.0 
1.000000000000e+00 0.0 0.0 
1.000000000000e+00 0.0 0.0 
1.000000000000e+00 0.0 0.0 
1.000000000000e+00 0.0 0.0 
1.000000000000e+00 0.0 0.0 
1.000000000000e+00 0.0 0.0 
1.000000000000e+00 0.0 0.0 
1.000000000000e+00 0.0 0.0 
1.000000000000e+00 0.0 0.0 
1.000000000000e+00 0.0 0.0 
1.000000000000e+00 0.0 0.0 
1.000000000000e+00 0.0 0.0 
1.000000000000e+00 0.0 0.0 
1.000000000000e+00 0.0 0.0 
1.000000000000e+00 0.0 0.0 
1.000000000000e+00 0.0 0.0 
1.000000000000e+00 0.0 0.0 
1.000000000000e+00 0.0 0.0 
1.000000000000e+00 0.0 0.0 
1.000000000000e+00 0.0 0.0 
0.0 0.0 0.0 
0.0 0.0 0.0 
0.0 0.0 0.0 
0.0 0.0 0.0 
0.0 0.0 0.0 
0.0 0.0 0.0 
0.0 0.0 0.0 
0.0 0.0 0.0 
0.0 0.0 0.0 
0.0 0.0 0.0 
0.0 0.0 0.0 
1.000000000000e+00 0.0 0.0 
1.000000000000e+00 0.0 0.0 
1.000000000000e+00 0.0 0.0 
1.000000000000e+00 0.0 0.0 
1.000000000000e+00 0.0 0.0 
1.000000000000e+00 0.0 0.0 
1.000000000000e+00 0.0 0.0 
1.000000000000e+00 0.0 0.0 
1.000000000000e+00 0.0 0.0 
0.0 0.0 0.0 
0.0 0.0 0.0 
0.0 0.0 0.0 
0.0 0.0 0.0 
0.0 0.0 0.0 
0.0 0.0 0.0 
0.0 0.0 0.0 
0.0 0.0 0.0 
0.0 0.0 0.0 
0.0 0.0 0.0 
0.0 0.0 0.0 
0.0 0.0 0.0 
0.0 0.0 0.0 
0.0 0.0 0.0 
0.0 0.0 0.0 
0.0 0.0 0.0 
0.0 0.0 0.0 
0.0 0.0 0.0 
0.0 0.0 0.0 
0.0 0.0 0.0 
0.0 0.0 0.0 
0.0 0.0 0.0 
0.0 0.0 0.0 
0.0 0.0 0.0 
0.0 0.0 0.0 
0.0 0.0 0.0 
0.0 0.0 0.0 
0.0 0.0 0.0 
0.0 0.0 0.0 
0.0 0.0 0.0 
0.0 0.0 0.0 
0.0 0.0 0.0 
0.0 0.0 0.0 
0.0 0.0 0.0 
0.0 0.0 0.0 
0.0 0.0 0.0 
0.0 0.0 0.0 
0.0 0.0 0.0 
0.0 0.0 0.0 
0.0 0.0 0.0 
0.0 0.0 0.0 
0.0 0.0 0.0 
0.0 0.0 0.0 
0.0 0.0 0.0 
0.0 0.0 0.0 
0.0 0.0 0.0 
0.0 0.0 0.0 
0.0 0.0 0.0 
0.0 0.0 0.0 
0.0 0.0 0.0 
0.0 0.0 0.0 
0.0 0.0 0.0 
0.0 0.0 0.0 
0.0 0.0 0.0 
0.0 0.0 0.0 
0.0 0.0 0.0 
0.0 0.0 0.0 
0.0 0.0 0.0 
0.0 0.0 0.0 
0.0 0.0 0.0 
0.0 0.0 0.0 
0.0 0.0 0.0 
0.0 0.0 0.0 
0.0 0.0 0.0 
0.0 0.0 0.0 
0.0 0.0 0.0 
0.0 0.0 0.0 
0.0 0.0 0.0 
0.0 0.0 0.0 
0.0 0.0 0.0 
0.0 0.0 0.0 
0.0 0.0 0.0 
0.0 0.0 0.0 
0.0 0.0 0.0 
0.0 0.0 0.0 
0.0 0.0 0.0 
0.0 0.0 0.0 
0.0 0.0 0.0 
0.0 0.0 0.0 
0.0 0.0 0.0 
0.0 0.0 0.0 
0.0 0.0 0.0 
0.0 0.0 0.0 
0.0 0.0 0.0 
0.0 0.0 0.0 
0.0 0.0 0.0 
0.0 0.0 0.0 
0.0 0.0 0.0 
0.0 0.0 0.0 
0.0 0.0 0.0 
0.0 0.0 0.0 
0.0 0.0 0.0 
0.0 0.0 0.0 
0.0 0.0 0.0 
0.0 0.0 0.0 
0.0 0.0 0.0 
0.0 0.0 0.0 
0.0 0.0 0.0 
0.0 0.0 0.0 
0.0 0.0 0.0 
0.0 0.0 0.0 
0.0 0.0 0.0 
0.0 0.0 0.0 
0.0 0.0 0.0 
0.0 0.0 0.0 
0.0 0.0 0.0 
0.0 0.0 0.0 
0.0 0.0 0.0 
0.0 0.0 0.0 
0.0 0.0 0.0 
0.0 0.0 0.0 
0.0 0.0 0.0 
0.0 0.0 0.0 
0.0 0.0 0.0 
0.0 0.0 0.0 
0.0 0.0 0.0 
0.0 0.0 0.0 
0.0 0.0 0.0 
0.0 0.0 0.0 
0.0 0.0 0.0 
0.0 0.0 0.0 
0.0 0.0 0.0 
0.0 0.0 0.0 
0.0 0.0 0.0 
0.0 0.0 0.0 
0.0 0.0 0.0 
0.0 0.0 0.0 
0.0 0.0 0.0 
0.0 0.0 0.0 
0.0 0.0 0.0 
0.0 0.0 0.0 
0.0 0.0 0.0 
0.0 0.0 0.0 
0.0 0.0 0.0 
0.0 0.0 0.0 
0.0 0.0 0.0 
0.0 0.0 0.0 
0.0 0.0 0.0 
0.0 0.0 0.0 
0.0 0.0 0.0 
0.0 0.0 0.0 
0.0 0.0 0.0 
0.0 0.0 0.0 
0.0 0.0 0.0 
0.0 0.0 0.0 
0.0 0.0 0.0 
0.0 0.0 0.0 
0.0 0.0 0.0 
0.0 0.0 0.0 
0.0 0.0 0.0 
0.0 0.0 0.0 
0.0 0.0 0.0 
0.0 0.0 0.0 
0.0 0.0 0.0 
0.0 0.0 0.0 
0.0 0.0 0.0 
0.0 0.0 0.0 
0.0 0.0 0.0 
0.0 0.0 0.0 
0.0 0.0 0.0 
0.0 0.0 0.0 
0.0 0.0 0.0 
0.0 0.0 0.0 
0.0 0.0 0.0 
0.0 0.0 0.0 
0.0 0.0 0.0 
0.0 0.0 0.0 
0.0 0.0 0.0 
0.0 0.0 0.0 
0.0 0.0 0.0 
0.0 0.0 0.0 
0.0 0.0 0.0 
0.0 0.0 0.0 
0.0 0.0 0.0 
0.0 0.0 0.0 
0.0 0.0 0.0 
0.0 0.0 0.0 
0.0 0.0 0.0 
0.0 0.0 0.0 
0.0 0.0 0.0 
0.0 0.0 0.0 
0.0 0.0 0.0 
0.0 0.0 0.0 
0.0 0.0 0.0 
0.0 0.0 0.0 
0.0 0.0 0.0 
0.0 0.0 0.0 
0.0 0.0 0.0 
0.0 0.0 0.0 
0.0 0.0 0.0 
0.0 0.0 0.0 
0.0 0.0 0.0 
0.0 0.0 0.0 
0.0 0.0 0.0 
0.0 0.0 0.0 
0.0 0.0 0.0 
0.0 0.0 0.0 
0.0 0.0 0.0 
0.0 0.0 0.0 
0.0 0.0 0.0 
0.0 0.0 0.0 
0.0 0.0 0.0 
0.0 0.0 0.0 
0.0 0.0 0.0 
0.0 0.0 0.0 
0.0 0.0 0.0 
0.0 0.0 0.0 
0.0 0.0 0.0 
0.0 0.0 0.0 
0.0 0.0 0.0 
0.0 0.0 0.0 
0.0 0.0 0.0 
0.0 0.0 0.0 
0.0 0.0 0.0 
0.0 0.0 0.0 
0.0 0.0 0.0 
0.0 0.0 0.0 
0.0 0.0 0.0 
0.0 0.0 0.0 
0.0 0.0 0.0 
0.0 0.0 0.0 
0.0 0.0 0.0 
0.0 0.0 0.0 
0.0 0.0 0.0 
0.0 0.0 0.0 
0.0 0.0 0.0 
0.0 0.0 0.0 
0.0 0.0 0.0 
0.0 0.0 0.0 
0.0 0.0 0.0 
0.0 0.0 0.0 
0.0 0.0 0.0 
0.0 0.0 0.0 
0.0 0.0 0.0 
0.0 0.0 0.0 
0.0 0.0 0.0 
0.0 0.0 0.0 
0.0 0.0 0.0 
0.0 0.0 0.0 
0.0 0.0 0.0 
0.0 0.0 0.0 
0.0 0.0 0.0 
0.0 0.0 0.0 
0.0 0.0 0.0 
0.0 0.0 0.0 
0.0 0.0 0.0 
0.0 0.0 0.0 
0.0 0.0 0.0 
0.0 0.0 0.0 
0.0 0.0 0.0 
0.0 0.0 0.0 
0.0 0.0 0.0 
0.0 0.0 0.0 
0.0 0.0 0.0 
0.0 0.0 0.0 
0.0 0.0 0.0 
0.0 0.0 0.0 
0.0 0.0 0.0 
0.0 0.0 0.0 
0.0 0.0 0.0 
0.0 0.0 0.0 
0.0 0.0 0.0 
0.0 0.0 0.0 
0.0 0.0 0.0 
0.0 0.0 0.0 
0.0 0.0 0.0 
0.0 0.0 0.0 
0.0 0.0 0.0 
0.0 0.0 0.0 
0.0 0.0 0.0 
0.0 0.0 0.0 
0.0 0.0 0.0 
0.0 0.0 0.0 
0.0 0.0 0.0 
0.0 0.0 0.0 
0.0 0.0 0.0 
0.0 0.0 0.0 
0.0 0.0 0.0 
0.0 0.0 0.0 
0.0 0.0 0.0 
0.0 0.0 0.0 
0.0 0.0 0.0 
0.0 0.0 0.0 
0.0 0.0 0.0 
0.0 0.0 0.0 
0.0 0.0 0.0 
0.0 0.0 0.0 
0.0 0.0 0.0 
0.0 0.0 0.0 
0.0 0.0 0.0 
0.0 0.0 0.0 
0.0 0.0 0.0 
0.0 0.0 0.0 
0.0 0.0 0.0 
0.0 0.0 0.0 
0.0 0.0 0.0 
0.0 0.0 0.0 
0.0 0.0 0.0 
0.0 0.0 0.0 
0.0 0.0 0.0 
0.0 0.0 0.0 
0.0 0.0 0.0 
0.0 0.0 0.0 
0.0 0.0 0.0 
0.0 0.0 0.0 
0.0 0.0 0.0 
0.0 0.0 0.0 
0.0 0.0 0.0 
0.0 0.0 0.0 
0.0 0.0 0.0 
0.0 0.0 0.0 
0.0 0.0 0.0 
0.0 0.0 0.0 
0.0 0.0 0.0 
0.0 0.0 0.0 
0.0 0.0 0.0 
0.0 0.0 0.0 
0.0 0.0 0.0 
0.0 0.0 0.0 
0.0 0.0 0.0 
0.0 0.0 0.0 
0.0 0.0 0.0 
0.0 0.0 0.0 
0.0 0.0 0.0 
0.0 0.0 0.0 
0.0 0.0 0.0 
0.0 0.0 0.0 
0.0 0.0 0.0 
0.0 0.0 0.0 
0.0 0.0 0.0 
0.0 0.0 0.0 
0.0 0.0 0.0 
0.0 0.0 0.0 
0.0 0.0 0.0 
0.0 0.0 0.0 
0.0 0.0 0.0 
0.0 0.0 0.0 
0.0 0.0 0.0 
0.0 0.0 0.0 
0.0 0.0 0.0 
0.0 0.0 0.0 
0.0 0.0 0.0 
0.0 0.0 0.0 
0.0 0.0 0.0 
0.0 0.0 0.0 
0.0 0.0 0.0 
0.0 0.0 0.0 
0.0 0.0 0.0 
0.0 0.0 0.0 
0.0 0.0 0.0 
0.0 0.0 0.0 
0.0 0.0 0.0 
0.0 0.0 0.0 
0.0 0.0 0.0 
0.0 0.0 0.0 
0.0 0.0 0.0 
0.0 0.0 0.0 
0.0 0.0 0.0 
0.0 0.0 0.0 
0.0 0.0 0.0 
0.0 0.0 0.0 
0.0 0.0 0.0 
0.0 0.0 0.0 
0.0 0.0 0.0 
0.0 0.0 0.0 
0.0 0.0 0.0 
0.0 0.0 0.0 
0.0 0.0 0.0 
0.0 0.0 0.0 
0.0 0.0 0.0 
0.0 0.0 0.0 
0.0 0.0 0.0 
0.0 0.0 0.0 
0.0 0.0 0.0 
0.0 0.0 0.0 
0.0 0.0 0.0 
0.0 0.0 0.0 
0.0 0.0 0.0 
0.0 0.0 0.0 
0.0 0.0 0.0 
0.0 0.0 0.0 
0.0 0.0 0.0 
0.0 0.0 0.0 
0.0 0.0 0.0 
0.0 0.0 0.0 
0.0 0.0 0.0 
0.0 0.0 0.0 
0.0 0.0 0.0 
0.0 0.0 0.0 
0.0 0.0 0.0 
0.0 0.0 0.0 
0.0 0.0 0.0 
0.0 0.0 0.0 
0.0 0.0 0.0 
0.0 0.0 0.0 
0.0 0.0 0.0 
0.0 0.0 0.0 
0.0 0.0 0.0 
0.0 0.0 0.0 
0.0 0.0 0.0 
0.0 0.0 0.0 
0.0 0.0 0.0 
0.0 0.0 0.0 
0.0 0.0 0.0 
0.0 0.0 0.0 
0.0 0.0 0.0 
0.0 0.0 0.0 
0.0 0.0 0.0 
0.0 0.0 0.0 
0.0 0.0 0.0 
0.0 0.0 0.0 
0.0 0.0 0.0 
0.0 0.0 0.0 
0.0 0.0 0.0 
0.0 0.0 0.0 
0.0 0.0 0.0 
0.0 0.0 0.0 
0.0 0.0 0.0 
0.0 0.0 0.0 
0.0 0.0 0.0 
0.0 0.0 0.0 
0.0 0.0 0.0 
0.0 0.0 0.0 
0.0 0.0 0.0 
0.0 0.0 0.0 
0.0 0.0 0.0 
0.0 0.0 0.0 
0.0 0.0 0.0 
0.0 0.0 0.0 
0.0 0.0 0.0 
0.0 0.0 0.0 
0.0 0.0 0.0 
0.0 0.0 0.0 
0.0 0.0 0.0 
0.0 0.0 0.0 
0.0 0.0 0.0 
0.0 0.0 0.0 
0.0 0.0 0.0 
0.0 0.0 0.0 
0.0 0.0 0.0 
0.0 0.0 0.0 
0.0 0.0 0.0 
0.0 0.0 0.0 
0.0 0.0 0.0 
0.0 0.0 0.0 
0.0 0.0 0.0 
0.0 0.0 0.0 
0.0 0.0 0.0 
0.0 0.0 0.0 
0.0 0.0 0.0 
0.0 0.0 0.0 
0.0 0.0 0.0 
0.0 0.0 0.0 
0.0 0.0 0.0 
0.0 0.0 0.0 
0.0 0.0 0.0 
0.0 0.0 0.0 
0.0 0.0 0.0 
0.0 0.0 0.0 
0.0 0.0 0.0 
0.0 0.0 0.0 
0.0 0.0 0.0 
0.0 0.0 0.0 
0.0 0.0 0.0 
0.0 0.0 0.0 
0.0 0.0 0.0 
0.0 0.0 0.0 
0.0 0.0 0.0 
0.0 0.0 0.0 
0.0 0.0 0.0 
0.0 0.0 0.0 
0.0 0.0 0.0 
0.0 0.0 0.0 
0.0 0.0 0.0 
0.0 0.0 0.0 
0.0 0.0 0.0 
0.0 0.0 0.0 
0.0 0.0 0.0 
0.0 0.0 0.0 
0.0 0.0 0.0 
0.0 0.0 0.0 
0.0 0.0 0.0 
0.0 0.0 0.0 
0.0 0.0 0.0 
0.0 0.0 0.0 
0.0 0.0 0.0 
0.0 0.0 0.0 
0.0 0.0 0.0 
0.0 0.0 0.0 
0.0 0.0 0.0 
0.0 0.0 0.0 
0.0 0.0 0.0 
0.0 0.0 0.0 
0.0 0.0 0.0 
0.0 0.0 0.0 
0.0 0.0 0.0 
0.0 0.0 0.0 
0.0 0.0 0.0 
0.0 0.0 0.0 
0.0 0.0 0.0 
0.0 0.0 0.0 
0.0 0.0 0.0 
0.0 0.0 0.0 
0.0 0.0 0.0 
0.0 0.0 0.0 
0.0 0.0 0.0 
0.0 0.0 0.0 
0.0 0.0 0.0 
0.0 0.0 0.0 
0.0 0.0 0.0 
0.0 0.0 0.0 
0.0 0.0 0.0 
0.0 0.0 0.0 
0.0 0.0 0.0 
0.0 0.0 0.0 
0.0 0.0 0.0 
0.0 0.0 0.0 
0.0 0.0 0.0 
0.0 0.0 0.0 
0.0 0.0 0.0 
0.0 0.0 0.0 
0.0 0.0 0.0 
0.0 0.0 0.0 
0.0 0.0 0.0 
0.0 0.0 0.0 
0.0 0.0 0.0 
0.0 0.0 0.0 
0.0 0.0 0.0 
0.0 0.0 0.0 
0.0 0.0 0.0 
0.0 0.0 0.0 
0.0 0.0 0.0 
0.0 0.0 0.0 
0.0 0.0 0.0 
0.0 0.0 0.0 
0.0 0.0 0.0 
0.0 0.0 0.0 
0.0 0.0 0.0 
0.0 0.0 0.0 
0.0 0.0 0.0 
0.0 0.0 0.0 
0.0 0.0 0.0 
0.0 0.0 0.0 
0.0 0.0 0.0 
0.0 0.0 0.0 
0.0 0.0 0.0 
0.0 0.0 0.0 
0.0 0.0 0.0 
0.0 0.0 0.0 
0.0 0.0 0.0 
0.0 0.0 0.0 
0.0 0.0 0.0 
0.0 0.0 0.0 
0.0 0.0 0.0 
0.0 0.0 0.0 
0.0 0.0 0.0 
0.0 0.0 0.0 
0.0 0.0 0.0 
0.0 0.0 0.0 
0.0 0.0 0.0 
0.0 0.0 0.0 
0.0 0.0 0.0 
0.0 0.0 0.0 
0.0 0.0 0.0 
0.0 0.0 0.0 
0.0 0.0 0.0 
0.0 0.0 0.0 
0.0 0.0 0.0 
0.0 0.0 0.0 
0.0 0.0 0.0 
0.0 0.0 0.0 
0.0 0.0 0.0 
0.0 0.0 0.0 
0.0 0.0 0.0 
0.0 0.0 0.0 
0.0 0.0 0.0 
0.0 0.0 0.0 
0.0 0.0 0.0 
0.0 0.0 0.0 
0.0 0.0 0.0 
0.0 0.0 0.0 
0.0 0.0 0.0 
0.0 0.0 0.0 
0.0 0.0 0.0 
0.0 0.0 0.0 
0.0 0.0 0.0 
0.0 0.0 0.0 
0.0 0.0 0.0 
0.0 0.0 0.0 
0.0 0.0 0.0 
0.0 0.0 0.0 
0.0 0.0 0.0 
0.0 0.0 0.0 
0.0 0.0 0.0 
0.0 0.0 0.0 
0.0 0.0 0.0 
0.0 0.0 0.0 
0.0 0.0 0.0 
0.0 0.0 0.0 
0.0 0.0 0.0 
0.0 0.0 0.0 
0.0 0.0 0.0 
0.0 0.0 0.0 
0.0 0.0 0.0 
0.0 0.0 0.0 
0.0 0.0 0.0 
0.0 0.0 0.0 
0.0 0.0 0.0 
0.0 0.0 0.0 
0.0 0.0 0.0 
0.0 0.0 0.0 
0.0 0.0 0.0 
0.0 0.0 0.0 
0.0 0.0 0.0 
0.0 0.0 0.0 
0.0 0.0 0.0 
0.0 0.0 0.0 
0.0 0.0 0.0 
0.0 0.0 0.0 
0.0 0.0 0.0 
0.0 0.0 0.0 
0.0 0.0 0.0 
0.0 0.0 0.0 
0.0 0.0 0.0 
0.0 0.0 0.0 
0.0 0.0 0.0 
0.0 0.0 0.0 
0.0 0.0 0.0 
0.0 0.0 0.0 
0.0 0.0 0.0 
0.0 0.0 0.0 
0.0 0.0 0.0 
0.0 0.0 0.0 
0.0 0.0 0.0 
0.0 0.0 0.0 
0.0 0.0 0.0 
0.0 0.0 0.0 
0.0 0.0 0.0 
0.0 0.0 0.0 
0.0 0.0 0.0 
0.0 0.0 0.0 
0.0 0.0 0.0 
0.0 0.0 0.0 
0.0 0.0 0.0 
0.0 0.0 0.0 
0.0 0.0 0.0 
0.0 0.0 0.0 
0.0 0.0 0.0 
0.0 0.0 0.0 
0.0 0.0 0.0 
0.0 0.0 0.0 
0.0 0.0 0.0 
0.0 0.0 0.0 
0.0 0.0 0.0 
0.0 0.0 0.0 
0.0 0.0 0.0 
0.0 0.0 0.0 
0.0 0.0 0.0 
0.0 0.0 0.0 
0.0 0.0 0.0 
0.0 0.0 0.0 
0.0 0.0 0.0 
0.0 0.0 0.0 
0.0 0.0 0.0 
0.0 0.0 0.0 
0.0 0.0 0.0 
0.0 0.0 0.0 
0.0 0.0 0.0 
0.0 0.0 0.0 
0.0 0.0 0.0 
0.0 0.0 0.0 
0.0 0.0 0.0 
0.0 0.0 0.0 
0.0 0.0 0.0 
0.0 0.0 0.0 
0.0 0.0 0.0 
0.0 0.0 0.0 
0.0 0.0 0.0 
0.0 0.0 0.0 
0.0 0.0 0.0 
0.0 0.0 0.0 
0.0 0.0 0.0 
0.0 0.0 0.0 
0.0 0.0 0.0 
0.0 0.0 0.0 
0.0 0.0 0.0 
0.0 0.0 0.0 
0.0 0.0 0.0 
0.0 0.0 0.0 
0.0 0.0 0.0 
0.0 0.0 0.0 
0.0 0.0 0.0 
0.0 0.0 0.0 
0.0 0.0 0.0 
0.0 0.0 0.0 
0.0 0.0 0.0 
0.0 0.0 0.0 
0.0 0.0 0.0 
0.0 0.0 0.0 
0.0 0.0 0.0 
0.0 0.0 0.0 
0.0 0.0 0.0 
0.0 0.0 0.0 
0.0 0.0 0.0 
0.0 0.0 0.0 
0.0 0.0 0.0 
0.0 0.0 0.0 
0.0 0.0 0.0 
0.0 0.0 0.0 
0.0 0.0 0.0 
0.0 0.0 0.0 
0.0 0.0 0.0 
0.0 0.0 0.0 
0.0 0.0 0.0 
0.0 0.0 0.0 
0.0 0.0 0.0 
0.0 0.0 0.0 
0.0 0.0 0.0 
0.0 0.0 0.0 
0.0 0.0 0.0 
0.0 0.0 0.0 
0.0 0.0 0.0 
0.0 0.0 0.0 
0.0 0.0 0.0 
0.0 0.0 0.0 
0.0 0.0 0.0 
0.0 0.0 0.0 
0.0 0.0 0.0 
0.0 0.0 0.0 
0.0 0.0 0.0 
0.0 0.0 0.0 
0.0 0.0 0.0 
0.0 0.0 0.0 
0.0 0.0 0.0 
0.0 0.0 0.0 
0.0 0.0 0.0 
0.0 0.0 0.0 
0.0 0.0 0.0 
0.0 0.0 0.0 
0.0 0.0 0.0 
0.0 0.0 0.0 
0.0 0.0 0.0 
0.0 0.0 0.0 
0.0 0.0 0.0 
0.0 0.0 0.0 
0.0 0.0 0.0 
0.0 0.0 0.0 
0.0 0.0 0.0 
0.0 0.0 0.0 
0.0 0.0 0.0 
0.0 0.0 0.0 
0.0 0.0 0.0 
0.0 0.0 0.0 
0.0 0.0 0.0 
0.0 0.0 0.0 
0.0 0.0 0.0 
0.0 0.0 0.0 
0.0 0.0 0.0 
0.0 0.0 0.0 
0.0 0.0 0.0 
0.0 0.0 0.0 
0.0 0.0 0.0 
0.0 0.0 0.0 
0.0 0.0 0.0 
0.0 0.0 0.0 
0.0 0.0 0.0 
0.0 0.0 0.0 
0.0 0.0 0.0 
0.0 0.0 0.0 
0.0 0.0 0.0 
0.0 0.0 0.0 
0.0 0.0 0.0 
0.0 0.0 0.0 
0.0 0.0 0.0 
0.0 0.0 0.0 
0.0 0.0 0.0 
0.0 0.0 0.0 
0.0 0.0 0.0 
0.0 0.0 0.0 
0.0 0.0 0.0 
0.0 0.0 0.0 
0.0 0.0 0.0 
0.0 0.0 0.0 
0.0 0.0 0.0 
0.0 0.0 0.0 
0.0 0.0 0.0 
0.0 0.0 0.0 
0.0 0.0 0.0 
0.0 0.0 0.0 
0.0 0.0 0.0 
0.0 0.0 0.0 
0.0 0.0 0.0 
0.0 0.0 0.0 
0.0 0.0 0.0 
0.0 0.0 0.0 
0.0 0.0 0.0 
0.0 0.0 0.0 
0.0 0.0 0.0 
0.0 0.0 0.0 
0.0 0.0 0.0 
0.0 0.0 0.0 
0.0 0.0 0.0 
0.0 0.0 0.0 
0.0 0.0 0.0 
0.0 0.0 0.0 
0.0 0.0 0.0 
0.0 0.0 0.0 
0.0 0.0 0.0 
0.0 0.0 0.0 
0.0 0.0 0.0 
0.0 0.0 0.0 
0.0 0.0 0.0 
0.0 0.0 0.0 
0.0 0.0 0.0 
0.0 0.0 0.0 
0.0 0.0 0.0 
0.0 0.0 0.0 
0.0 0.0 0.0 
0.0 0.0 0.0 
0.0 0.0 0.0 
0.0 0.0 0.0 
0.0 0.0 0.0 
0.0 0.0 0.0 
0.0 0.0 0.0 
0.0 0.0 0.0 
0.0 0.0 0.0 
0.0 0.0 0.0 
0.0 0.0 0.0 
0.0 0.0 0.0 
0.0 0.0 0.0 
0.0 0.0 0.0 
0.0 0.0 0.0 
0.0 0.0 0.0 
0.0 0.0 0.0 
0.0 0.0 0.0 
0.0 0.0 0.0 
0.0 0.0 0.0 
0.0 0.0 0.0 
0.0 0.0 0.0 
0.0 0.0 0.0 
0.0 0.0 0.0 
0.0 0.0 0.0 
0.0 0.0 0.0 
0.0 0.0 0.0 
0.0 0.0 0.0 
0.0 0.0 0.0 
0.0 0.0 0.0 
0.0 0.0 0.0 
0.0 0.0 0.0 
0.0 0.0 0.0 
0.0 0.0 0.0 
0.0 0.0 0.0 
0.0 0.0 0.0 
0.0 0.0 0.0 
0.0 0.0 0.0 
0.0 0.0 0.0 
0.0 0.0 0.0 
0.0 0.0 0.0 
0.0 0.0 0.0 
0.0 0.0 0.0 
0.0 0.0 0.0 
0.0 0.0 0.0 
0.0 0.0 0.0 
0.0 0.0 0.0 
0.0 0.0 0.0 
0.0 0.0 0.0 
0.0 0.0 0.0 
0.0 0.0 0.0 
0.0 0.0 0.0 
0.0 0.0 0.0 
0.0 0.0 0.0 
0.0 0.0 0.0 
0.0 0.0 0.0 
0.0 0.0 0.0 
0.0 0.0 0.0 
0.0 0.0 0.0 
0.0 0.0 0.0 
0.0 0.0 0.0 
0.0 0.0 0.0 
0.0 0.0 0.0 
0.0 0.0 0.0 
0.0 0.0 0.0 
0.0 0.0 0.0 
0.0 0.0 0.0 
0.0 0.0 0.0 
0.0 0.0 0.0 
0.0 0.0 0.0 
0.0 0.0 0.0 
0.0 0.0 0.0 
0.0 0.0 0.0 
0.0 0.0 0.0 
0.0 0.0 0.0 
0.0 0.0 0.0 
0.0 0.0 0.0 
0.0 0.0 0.0 
0.0 0.0 0.0 
0.0 0.0 0.0 
0.0 0.0 0.0 
0.0 0.0 0.0 
0.0 0.0 0.0 
0.0 0.0 0.0 
0.0 0.0 0.0 
0.0 0.0 0.0 
0.0 0.0 0.0 
0.0 0.0 0.0 
0.0 0.0 0.0 
0.0 0.0 0.0 
0.0 0.0 0.0 
0.0 0.0 0.0 
0.0 0.0 0.0 
0.0 0.0 0.0 
0.0 0.0 0.0 
0.0 0.0 0.0 
0.0 0.0 0.0 
0.0 0.0 0.0 
0.0 0.0 0.0 
0.0 0.0 0.0 
0.0 0.0 0.0 
0.0 0.0 0.0 
0.0 0.0 0.0 
0.0 0.0 0.0 
0.0 0.0 0.0 
0.0 0.0 0.0 
0.0 0.0 0.0 
0.0 0.0 0.0 
0.0 0.0 0.0 
0.0 0.0 0.0 
0.0 0.0 0.0 
0.0 0.0 0.0 
0.0 0.0 0.0 
0.0 0.0 0.0 
0.0 0.0 0.0 
0.0 0.0 0.0 
0.0 0.0 0.0 
0.0 0.0 0.0 
0.0 0.0 0.0 
0.0 0.0 0.0 
0.0 0.0 0.0 
0.0 0.0 0.0 
0.0 0.0 0.0 
0.0 0.0 0.0 
0.0 0.0 0.0 
0.0 0.0 0.0 
0.0 0.0 0.0 
0.0 0.0 0.0 
0.0 0.0 0.0 
0.0 0.0 0.0 
0.0 0.0 0.0 
0.0 0.0 0.0 
0.0 0.0 0.0 
0.0 0.0 0.0 
0.0 0.0 0.0 
0.0 0.0 0.0 
0.0 0.0 0.0 
0.0 0.0 0.0 
0.0 0.0 0.0 
0.0 0.0 0.0 
0.0 0.0 0.0 
0.0 0.0 0.0 
0.0 0.0 0.0 
0.0 0.0 0.0 
0.0 0.0 0.0 
0.0 0.0 0.0 
0.0 0.0 0.0 
0.0 0.0 0.0 
0.0 0.0 0.0 
0.0 0.0 0.0 
0.0 0.0 0.0 
0.0 0.0 0.0 
0.0 0.0 0.0 
0.0 0.0 0.0 
0.0 0.0 0.0 
0.0 0.0 0.0 
0.0 0.0 0.0 
0.0 0.0 0.0 
0.0 0.0 0.0 
0.0 0.0 0.0 
0.0 0.0 0.0 
0.0 0.0 0.0 
0.0 0.0 0.0 
0.0 0.0 0.0 
0.0 0.0 0.0 
0.0 0.0 0.0 
0.0 0.0 0.0 
0.0 0.0 0.0 
0.0 0.0 0.0 
0.0 0.0 0.0 
0.0 0.0 0.0 
0.0 0.0 0.0 
0.0 0.0 0.0 
0.0 0.0 0.0 
0.0 0.0 0.0 
0.0 0.0 0.0 
0.0 0.0 0.0 
0.0 0.0 0.0 
0.0 0.0 0.0 
0.0 0.0 0.0 
0.0 0.0 0.0 
0.0 0.0 0.0 
0.0 0.0 0.0 
0.0 0.0 0.0 
0.0 0.0 0.0 
0.0 0.0 0.0 
0.0 0.0 0.0 
0.0 0.0 0.0 
0.0 0.0 0.0 
0.0 0.0 0.0 
0.0 0.0 0.0 
0.0 0.0 0.0 
0.0 0.0 0.0 
0.0 0.0 0.0 
0.0 0.0 0.0 
0.0 0.0 0.0 
0.0 0.0 0.0 
0.0 0.0 0.0 
0.0 0.0 0.0 
0.0 0.0 0.0 
0.0 0.0 0.0 
0.0 0.0 0.0 
0.0 0.0 0.0 
0.0 0.0 0.0 
0.0 0.0 0.0 
0.0 0.0 0.0 
0.0 0.0 0.0 
0.0 0.0 0.0 
0.0 0.0 0.0 
0.0 0.0 0.0 
0.0 0.0 0.0 
0.0 0.0 0.0 
0.0 0.0 0.0 
0.0 0.0 0.0 
0.0 0.0 0.0 
0.0 0.0 0.0 
0.0 0.0 0.0 
0.0 0.0 0.0 
0.0 0.0 0.0 
0.0 0.0 0.0 
0.0 0.0 0.0 
0.0 0.0 0.0 
0.0 0.0 0.0 
0.0 0.0 0.0 
0.0 0.0 0.0 
0.0 0.0 0.0 
0.0 0.0 0.0 
0.0 0.0 0.0 
0.0 0.0 0.0 
0.0 0.0 0.0 
0.0 0.0 0.0 
0.0 0.0 0.0 
0.0 0.0 0.0 
0.0 0.0 0.0 
0.0 0.0 0.0 
0.0 0.0 0.0 
0.0 0.0 0.0 
0.0 0.0 0.0 
0.0 0.0 0.0 
0.0 0.0 0.0 
0.0 0.0 0.0 
0.0 0.0 0.0 
0.0 0.0 0.0 
0.0 0.0 0.0 
0.0 0.0 0.0 
0.0 0.0 0.0 
0.0 0.0 0.0 
0.0 0.0 0.0 
0.0 0.0 0.0 
0.0 0.0 0.0 
0.0 0.0 0.0 
0.0 0.0 0.0 
0.0 0.0 0.0 
0.0 0.0 0.0 
0.0 0.0 0.0 
0.0 0.0 0.0 
0.0 0.0 0.0 
0.0 0.0 0.0 
0.0 0.0 0.0 
0.0 0.0 0.0 
0.0 0.0 0.0 
0.0 0.0 0.0 
0.0 0.0 0.0 
0.0 0.0 0.0 
0.0 0.0 0.0 
0.0 0.0 0.0 
0.0 0.0 0.0 
0.0 0.0 0.0 
0.0 0.0 0.0 
0.0 0.0 0.0 
0.0 0.0 0.0 
0.0 0.0 0.0 
0.0 0.0 0.0 
0.0 0.0 0.0 
0.0 0.0 0.0 
0.0 0.0 0.0 
0.0 0.0 0.0 
0.0 0.0 0.0 
0.0 0.0 0.0 
0.0 0.0 0.0 
0.0 0.0 0.0 
0.0 0.0 0.0 
0.0 0.0 0.0 
0.0 0.0 0.0 
0.0 0.0 0.0 
0.0 0.0 0.0 
0.0 0.0 0.0 
0.0 0.0 0.0 
0.0 0.0 0.0 
0.0 0.0 0.0 
0.0 0.0 0.0 
0.0 0.0 0.0 
0.0 0.0 0.0 
0.0 0.0 0.0 
0.0 0.0 0.0 
0.0 0.0 0.0 
0.0 0.0 0.0 
0.0 0.0 0.0 
0.0 0.0 0.0 
0.0 0.0 0.0 
0.0 0.0 0.0 
0.0 0.0 0.0 
0.0 0.0 0.0 
0.0 0.0 0.0 
0.0 0.0 0.0 
0.0 0.0 0.0 
0.0 0.0 0.0 
0.0 0.0 0.0 
0.0 0.0 0.0 
0.0 0.0 0.0 
0.0 0.0 0.0 
0.0 0.0 0.0 
0.0 0.0 0.0 
0.0 0.0 0.0 
0.0 0.0 0.0 
0.0 0.0 0.0 
0.0 0.0 0.0 
0.0 0.0 0.0 
0.0 0.0 0.0 
0.0 0.0 0.0 
0.0 0.0 0.0 
0.0 0.0 0.0 
0.0 0.0 0.0 
0.0 0.0 0.0 
0.0 0.0 0.0 
0.0 0.0 0.0 
0.0 0.0 0.0 
0.0 0.0 0.0 
0.0 0.0 0.0 
0.0 0.0 0.0 
0.0 0.0 0.0 
0.0 0.0 0.0 
0.0 0.0 0.0 

VECTORS node_bounda_dof_materi_velocity_y float
0.0 0.0 0.0 
0.0 0.0 0.0 
0.0 1.000000000000e+00 0.0 
0.0 1.000000000000e+00 0.0 
0.0 0.0 0.0 
0.0 0.0 0.0 
0.0 0.0 0.0 
0.0 0.0 0.0 
0.0 0.0 0.0 
0.0 0.0 0.0 
0.0 0.0 0.0 
0.0 0.0 0.0 
0.0 0.0 0.0 
0.0 0.0 0.0 
0.0 0.0 0.0 
0.0 0.0 0.0 
0.0 0.0 0.0 
0.0 0.0 0.0 
0.0 0.0 0.0 
0.0 0.0 0.0 
0.0 0.0 0.0 
0.0 0.0 0.0 
0.0 0.0 0.0 
0.0 1.000000000000e+00 0.0 
0.0 1.000000000000e+00 0.0 
0.0 1.000000000000e+00 0.0 
0.0 1.000000000000e+00 0.0 
0.0 1.000000000000e+00 0.0 
0.0 1.000000000000e+00 0.0 
0.0 1.000000000000e+00 0.0 
0.0 1.000000000000e+00 0.0 
0.0 1.000000000000e+00 0.0 
0.0 1.000000000000e+00 0.0 
0.0 1.000000000000e+00 0.0 
0.0 1.000000000000e+00 0.0 
0.0 1.000000000000e+00 0.0 
0.0 1.000000000000e+00 0.0 
0.0 1.000000000000e+00 0.0 
0.0 1.000000000000e+00 0.0 
0.0 1.000000000000e+00 0.0 
0.0 1.000000000000e+00 0.0 
0.0 1.000000000000e+00 0.0 
0.0 1.000000000000e+00 0.0 
0.0 1.000000000000e+00 0.0 
0.0 1.000000000000e+00 0.0 
0.0 1.000000000000e+00 0.0 
0.0 1.000000000000e+00 0.0 
0.0 1.000000000000e+00 0.0 
0.0 1.000000000000e+00 0.0 
0.0 1.000000000000e+00 0.0 
0.0 1.000000000000e+00 0.0 
0.0 1.000000000000e+00 0.0 
0.0 1.000000000000e+00 0.0 
0.0 1.000000000000e+00 0.0 
0.0 1.000000000000e+00 0.0 
0.0 1.000000000000e+00 0.0 
0.0 1.000000000000e+00 0.0 
0.0 1.000000000000e+00 0.0 
0.0 1.000000000000e+00 0.0 
0.0 1.000000000000e+00 0.0 
0.0 1.000000000000e+00 0.0 
0.0 1.000000000000e+00 0.0 
0.0 1.000000000000e+00 0.0 
0.0 1.000000000000e+00 0.0 
0.0 1.000000000000e+00 0.0 
0.0 1.000000000000e+00 0.0 
0.0 1.000000000000e+00 0.0 
0.0 1.000000000000e+00 0.0 
0.0 1.000000000000e+00 0.0 
0.0 1.000000000000e+00 0.0 
0.0 1.000000000000e+00 0.0 
0.0 1.000000000000e+00 0.0 
0.0 0.0 0.0 
0.0 0.0 0.0 
0.0 0.0 0.0 
0.0 0.0 0.0 
0.0 0.0 0.0 
0.0 0.0 0.0 
0.0 0.0 0.0 
0.0 0.0 0.0 
0.0 0.0 0.0 
0.0 0.0 0.0 
0.0 0.0 0.0 
0.0 0.0 0.0 
0.0 0.0 0.0 
0.0 0.0 0.0 
0.0 0.0 0.0 
0.0 0.0 0.0 
0.0 0.0 0.0 
0.0 0.0 0.0 
0.0 0.0 0.0 
0.0 0.0 0.0 
0.0 0.0 0.0 
0.0 0.0 0.0 
0.0 0.0 0.0 
0.0 0.0 0.0 
0.0 0.0 0.0 
0.0 0.0 0.0 
0.0 0.0 0.0 
0.0 0.0 0.0 
0.0 0.0 0.0 
0.0 0.0 0.0 
0.0 0.0 0.0 
0.0 0.0 0.0 
0.0 0.0 0.0 
0.0 0.0 0.0 
0.0 0.0 0.0 
0.0 0.0 0.0 
0.0 0.0 0.0 
0.0 0.0 0.0 
0.0 0.0 0.0 
0.0 0.0 0.0 
0.0 0.0 0.0 
0.0 0.0 0.0 
0.0 0.0 0.0 
0.0 0.0 0.0 
0.0 0.0 0.0 
0.0 0.0 0.0 
0.0 0.0 0.0 
0.0 0.0 0.0 
0.0 0.0 0.0 
0.0 0.0 0.0 
0.0 0.0 0.0 
0.0 0.0 0.0 
0.0 0.0 0.0 
0.0 0.0 0.0 
0.0 0.0 0.0 
0.0 0.0 0.0 
0.0 0.0 0.0 
0.0 0.0 0.0 
0.0 0.0 0.0 
0.0 0.0 0.0 
0.0 0.0 0.0 
0.0 0.0 0.0 
0.0 0.0 0.0 
0.0 0.0 0.0 
0.0 0.0 0.0 
0.0 0.0 0.0 
0.0 0.0 0.0 
0.0 0.0 0.0 
0.0 0.0 0.0 
0.0 0.0 0.0 
0.0 0.0 0.0 
0.0 0.0 0.0 
0.0 0.0 0.0 
0.0 0.0 0.0 
0.0 0.0 0.0 
0.0 0.0 0.0 
0.0 0.0 0.0 
0.0 0.0 0.0 
0.0 0.0 0.0 
0.0 0.0 0.0 
0.0 0.0 0.0 
0.0 0.0 0.0 
0.0 0.0 0.0 
0.0 0.0 0.0 
0.0 0.0 0.0 
0.0 0.0 0.0 
0.0 0.0 0.0 
0.0 0.0 0.0 
0.0 0.0 0.0 
0.0 0.0 0.0 
0.0 0.0 0.0 
0.0 0.0 0.0 
0.0 0.0 0.0 
0.0 0.0 0.0 
0.0 0.0 0.0 
0.0 0.0 0.0 
0.0 0.0 0.0 
0.0 0.0 0.0 
0.0 0.0 0.0 
0.0 0.0 0.0 
0.0 0.0 0.0 
0.0 0.0 0.0 
0.0 0.0 0.0 
0.0 0.0 0.0 
0.0 0.0 0.0 
0.0 0.0 0.0 
0.0 0.0 0.0 
0.0 0.0 0.0 
0.0 0.0 0.0 
0.0 0.0 0.0 
0.0 0.0 0.0 
0.0 0.0 0.0 
0.0 0.0 0.0 
0.0 0.0 0.0 
0.0 0.0 0.0 
0.0 0.0 0.0 
0.0 0.0 0.0 
0.0 0.0 0.0 
0.0 0.0 0.0 
0.0 0.0 0.0 
0.0 0.0 0.0 
0.0 0.0 0.0 
0.0 0.0 0.0 
0.0 0.0 0.0 
0.0 0.0 0.0 
0.0 0.0 0.0 
0.0 0.0 0.0 
0.0 0.0 0.0 
0.0 0.0 0.0 
0.0 0.0 0.0 
0.0 0.0 0.0 
0.0 0.0 0.0 
0.0 0.0 0.0 
0.0 0.0 0.0 
0.0 0.0 0.0 
0.0 0.0 0.0 
0.0 0.0 0.0 
0.0 0.0 0.0 
0.0 0.0 0.0 
0.0 0.0 0.0 
0.0 0.0 0.0 
0.0 0.0 0.0 
0.0 0.0 0.0 
0.0 0.0 0.0 
0.0 0.0 0.0 
0.0 0.0 0.0 
0.0 0.0 0.0 
0.0 0.0 0.0 
0.0 0.0 0.0 
0.0 0.0 0.0 
0.0 0.0 0.0 
0.0 0.0 0.0 
0.0 0.0 0.0 
0.0 0.0 0.0 
0.0 0.0 0.0 
0.0 0.0 0.0 
0.0 0.0 0.0 
0.0 0.0 0.0 
0.0 0.0 0.0 
0.0 0.0 0.0 
0.0 0.0 0.0 
0.0 0.0 0.0 
0.0 0.0 0.0 
0.0 0.0 0.0 
0.0 0.0 0.0 
0.0 0.0 0.0 
0.0 0.0 0.0 
0.0 0.0 0.0 
0.0 0.0 0.0 
0.0 0.0 0.0 
0.0 0.0 0.0 
0.0 0.0 0.0 
0.0 0.0 0.0 
0.0 0.0 0.0 
0.0 0.0 0.0 
0.0 0.0 0.0 
0.0 0.0 0.0 
0.0 0.0 0.0 
0.0 0.0 0.0 
0.0 0.0 0.0 
0.0 0.0 0.0 
0.0 0.0 0.0 
0.0 0.0 0.0 
0.0 0.0 0.0 
0.0 0.0 0.0 
0.0 0.0 0.0 
0.0 0.0 0.0 
0.0 0.0 0.0 
0.0 0.0 0.0 
0.0 0.0 0.0 
0.0 0.0 0.0 
0.0 0.0 0.0 
0.0 0.0 0.0 
0.0 0.0 0.0 
0.0 0.0 0.0 
0.0 0.0 0.0 
0.0 0.0 0.0 
0.0 0.0 0.0 
0.0 0.0 0.0 
0.0 0.0 0.0 
0.0 0.0 0.0 
0.0 0.0 0.0 
0.0 0.0 0.0 
0.0 0.0 0.0 
0.0 0.0 0.0 
0.0 0.0 0.0 
0.0 0.0 0.0 
0.0 0.0 0.0 
0.0 0.0 0.0 
0.0 0.0 0.0 
0.0 0.0 0.0 
0.0 0.0 0.0 
0.0 0.0 0.0 
0.0 0.0 0.0 
0.0 0.0 0.0 
0.0 0.0 0.0 
0.0 0.0 0.0 
0.0 0.0 0.0 
0.0 0.0 0.0 
0.0 0.0 0.0 
0.0 0.0 0.0 
0.0 0.0 0.0 
0.0 0.0 0.0 
0.0 0.0 0.0 
0.0 0.0 0.0 
0.0 0.0 0.0 
0.0 0.0 0.0 
0.0 0.0 0.0 
0.0 0.0 0.0 
0.0 0.0 0.0 
0.0 0.0 0.0 
0.0 0.0 0.0 
0.0 0.0 0.0 
0.0 0.0 0.0 
0.0 0.0 0.0 
0.0 0.0 0.0 
0.0 0.0 0.0 
0.0 0.0 0.0 
0.0 0.0 0.0 
0.0 0.0 0.0 
0.0 0.0 0.0 
0.0 0.0 0.0 
0.0 0.0 0.0 
0.0 0.0 0.0 
0.0 0.0 0.0 
0.0 0.0 0.0 
0.0 0.0 0.0 
0.0 0.0 0.0 
0.0 0.0 0.0 
0.0 0.0 0.0 
0.0 0.0 0.0 
0.0 0.0 0.0 
0.0 0.0 0.0 
0.0 0.0 0.0 
0.0 0.0 0.0 
0.0 0.0 0.0 
0.0 0.0 0.0 
0.0 0.0 0.0 
0.0 0.0 0.0 
0.0 0.0 0.0 
0.0 0.0 0.0 
0.0 0.0 0.0 
0.0 0.0 0.0 
0.0 0.0 0.0 
0.0 0.0 0.0 
0.0 0.0 0.0 
0.0 0.0 0.0 
0.0 0.0 0.0 
0.0 0.0 0.0 
0.0 0.0 0.0 
0.0 0.0 0.0 
0.0 0.0 0.0 
0.0 0.0 0.0 
0.0 0.0 0.0 
0.0 0.0 0.0 
0.0 0.0 0.0 
0.0 0.0 0.0 
0.0 0.0 0.0 
0.0 0.0 0.0 
0.0 0.0 0.0 
0.0 0.0 0.0 
0.0 0.0 0.0 
0.0 0.0 0.0 
0.0 0.0 0.0 
0.0 0.0 0.0 
0.0 0.0 0.0 
0.0 0.0 0.0 
0.0 0.0 0.0 
0.0 0.0 0.0 
0.0 0.0 0.0 
0.0 0.0 0.0 
0.0 0.0 0.0 
0.0 0.0 0.0 
0.0 0.0 0.0 
0.0 0.0 0.0 
0.0 0.0 0.0 
0.0 0.0 0.0 
0.0 0.0 0.0 
0.0 0.0 0.0 
0.0 0.0 0.0 
0.0 0.0 0.0 
0.0 0.0 0.0 
0.0 0.0 0.0 
0.0 0.0 0.0 
0.0 0.0 0.0 
0.0 0.0 0.0 
0.0 0.0 0.0 
0.0 0.0 0.0 
0.0 0.0 0.0 
0.0 0.0 0.0 
0.0 0.0 0.0 
0.0 0.0 0.0 
0.0 0.0 0.0 
0.0 0.0 0.0 
0.0 0.0 0.0 
0.0 0.0 0.0 
0.0 0.0 0.0 
0.0 0.0 0.0 
0.0 0.0 0.0 
0.0 0.0 0.0 
0.0 0.0 0.0 
0.0 0.0 0.0 
0.0 0.0 0.0 
0.0 0.0 0.0 
0.0 0.0 0.0 
0.0 0.0 0.0 
0.0 0.0 0.0 
0.0 0.0 0.0 
0.0 0.0 0.0 
0.0 0.0 0.0 
0.0 0.0 0.0 
0.0 0.0 0.0 
0.0 0.0 0.0 
0.0 0.0 0.0 
0.0 0.0 0.0 
0.0 0.0 0.0 
0.0 0.0 0.0 
0.0 0.0 0.0 
0.0 0.0 0.0 
0.0 0.0 0.0 
0.0 0.0 0.0 
0.0 0.0 0.0 
0.0 0.0 0.0 
0.0 0.0 0.0 
0.0 0.0 0.0 
0.0 0.0 0.0 
0.0 0.0 0.0 
0.0 0.0 0.0 
0.0 0.0 0.0 
0.0 0.0 0.0 
0.0 0.0 0.0 
0.0 0.0 0.0 
0.0 0.0 0.0 
0.0 0.0 0.0 
0.0 0.0 0.0 
0.0 0.0 0.0 
0.0 0.0 0.0 
0.0 0.0 0.0 
0.0 0.0 0.0 
0.0 0.0 0.0 
0.0 0.0 0.0 
0.0 0.0 0.0 
0.0 0.0 0.0 
0.0 0.0 0.0 
0.0 0.0 0.0 
0.0 0.0 0.0 
0.0 0.0 0.0 
0.0 0.0 0.0 
0.0 0.0 0.0 
0.0 0.0 0.0 
0.0 0.0 0.0 
0.0 0.0 0.0 
0.0 0.0 0.0 
0.0 0.0 0.0 
0.0 0.0 0.0 
0.0 0.0 0.0 
0.0 0.0 0.0 
0.0 0.0 0.0 
0.0 0.0 0.0 
0.0 0.0 0.0 
0.0 0.0 0.0 
0.0 0.0 0.0 
0.0 0.0 0.0 
0.0 0.0 0.0 
0.0 0.0 0.0 
0.0 0.0 0.0 
0.0 0.0 0.0 
0.0 0.0 0.0 
0.0 0.0 0.0 
0.0 0.0 0.0 
0.0 0.0 0.0 
0.0 0.0 0.0 
0.0 0.0 0.0 
0.0 0.0 0.0 
0.0 0.0 0.0 
0.0 0.0 0.0 
0.0 0.0 0.0 
0.0 0.0 0.0 
0.0 0.0 0.0 
0.0 0.0 0.0 
0.0 0.0 0.0 
0.0 0.0 0.0 
0.0 0.0 0.0 
0.0 0.0 0.0 
0.0 0.0 0.0 
0.0 0.0 0.0 
0.0 0.0 0.0 
0.0 0.0 0.0 
0.0 0.0 0.0 
0.0 0.0 0.0 
0.0 0.0 0.0 
0.0 0.0 0.0 
0.0 0.0 0.0 
0.0 0.0 0.0 
0.0 0.0 0.0 
0.0 0.0 0.0 
0.0 0.0 0.0 
0.0 0.0 0.0 
0.0 0.0 0.0 
0.0 0.0 0.0 
0.0 0.0 0.0 
0.0 0.0 0.0 
0.0 0.0 0.0 
0.0 0.0 0.0 
0.0 0.0 0.0 
0.0 0.0 0.0 
0.0 0.0 0.0 
0.0 0.0 0.0 
0.0 0.0 0.0 
0.0 0.0 0.0 
0.0 0.0 0.0 
0.0 0.0 0.0 
0.0 0.0 0.0 
0.0 0.0 0.0 
0.0 0.0 0.0 
0.0 0.0 0.0 
0.0 0.0 0.0 
0.0 0.0 0.0 
0.0 0.0 0.0 
0.0 0.0 0.0 
0.0 0.0 0.0 
0.0 0.0 0.0 
0.0 0.0 0.0 
0.0 0.0 0.0 
0.0 0.0 0.0 
0.0 0.0 0.0 
0.0 0.0 0.0 
0.0 0.0 0.0 
0.0 0.0 0.0 
0.0 0.0 0.0 
0.0 0.0 0.0 
0.0 0.0 0.0 
0.0 0.0 0.0 
0.0 0.0 0.0 
0.0 0.0 0.0 
0.0 0.0 0.0 
0.0 0.0 0.0 
0.0 0.0 0.0 
0.0 0.0 0.0 
0.0 0.0 0.0 
0.0 0.0 0.0 
0.0 0.0 0.0 
0.0 0.0 0.0 
0.0 0.0 0.0 
0.0 0.0 0.0 
0.0 0.0 0.0 
0.0 0.0 0.0 
0.0 0.0 0.0 
0.0 0.0 0.0 
0.0 0.0 0.0 
0.0 0.0 0.0 
0.0 0.0 0.0 
0.0 0.0 0.0 
0.0 0.0 0.0 
0.0 0.0 0.0 
0.0 0.0 0.0 
0.0 0.0 0.0 
0.0 0.0 0.0 
0.0 0.0 0.0 
0.0 0.0 0.0 
0.0 0.0 0.0 
0.0 0.0 0.0 
0.0 0.0 0.0 
0.0 0.0 0.0 
0.0 0.0 0.0 
0.0 0.0 0.0 
0.0 0.0 0.0 
0.0 0.0 0.0 
0.0 0.0 0.0 
0.0 0.0 0.0 
0.0 0.0 0.0 
0.0 0.0 0.0 
0.0 0.0 0.0 
0.0 0.0 0.0 
0.0 0.0 0.0 
0.0 0.0 0.0 
0.0 0.0 0.0 
0.0 0.0 0.0 
0.0 0.0 0.0 
0.0 0.0 0.0 
0.0 0.0 0.0 
0.0 0.0 0.0 
0.0 0.0 0.0 
0.0 0.0 0.0 
0.0 0.0 0.0 
0.0 0.0 0.0 
0.0 0.0 0.0 
0.0 0.0 0.0 
0.0 0.0 0.0 
0.0 0.0 0.0 
0.0 0.0 0.0 
0.0 0.0 0.0 
0.0 0.0 0.0 
0.0 0.0 0.0 
0.0 0.0 0.0 
0.0 0.0 0.0 
0.0 0.0 0.0 
0.0 0.0 0.0 
0.0 0.0 0.0 
0.0 0.0 0.0 
0.0 0.0 0.0 
0.0 0.0 0.0 
0.0 0.0 0.0 
0.0 0.0 0.0 
0.0 0.0 0.0 
0.0 0.0 0.0 
0.0 0.0 0.0 
0.0 0.0 0.0 
0.0 0.0 0.0 
0.0 0.0 0.0 
0.0 0.0 0.0 
0.0 0.0 0.0 
0.0 0.0 0.0 
0.0 0.0 0.0 
0.0 0.0 0.0 
0.0 0.0 0.0 
0.0 0.0 0.0 
0.0 0.0 0.0 
0.0 0.0 0.0 
0.0 0.0 0.0 
0.0 0.0 0.0 
0.0 0.0 0.0 
0.0 0.0 0.0 
0.0 0.0 0.0 
0.0 0.0 0.0 
0.0 0.0 0.0 
0.0 0.0 0.0 
0.0 0.0 0.0 
0.0 0.0 0.0 
0.0 0.0 0.0 
0.0 0.0 0.0 
0.0 0.0 0.0 
0.0 0.0 0.0 
0.0 0.0 0.0 
0.0 0.0 0.0 
0.0 0.0 0.0 
0.0 0.0 0.0 
0.0 0.0 0.0 
0.0 0.0 0.0 
0.0 0.0 0.0 
0.0 0.0 0.0 
0.0 0.0 0.0 
0.0 0.0 0.0 
0.0 0.0 0.0 
0.0 0.0 0.0 
0.0 0.0 0.0 
0.0 0.0 0.0 
0.0 0.0 0.0 
0.0 0.0 0.0 
0.0 0.0 0.0 
0.0 0.0 0.0 
0.0 0.0 0.0 
0.0 0.0 0.0 
0.0 0.0 0.0 
0.0 0.0 0.0 
0.0 0.0 0.0 
0.0 0.0 0.0 
0.0 0.0 0.0 
0.0 0.0 0.0 
0.0 0.0 0.0 
0.0 0.0 0.0 
0.0 0.0 0.0 
0.0 0.0 0.0 
0.0 0.0 0.0 
0.0 0.0 0.0 
0.0 0.0 0.0 
0.0 0.0 0.0 
0.0 0.0 0.0 
0.0 0.0 0.0 
0.0 0.0 0.0 
0.0 0.0 0.0 
0.0 0.0 0.0 
0.0 0.0 0.0 
0.0 0.0 0.0 
0.0 0.0 0.0 
0.0 0.0 0.0 
0.0 0.0 0.0 
0.0 0.0 0.0 
0.0 0.0 0.0 
0.0 0.0 0.0 
0.0 0.0 0.0 
0.0 0.0 0.0 
0.0 0.0 0.0 
0.0 0.0 0.0 
0.0 0.0 0.0 
0.0 0.0 0.0 
0.0 0.0 0.0 
0.0 0.0 0.0 
0.0 0.0 0.0 
0.0 0.0 0.0 
0.0 0.0 0.0 
0.0 0.0 0.0 
0.0 0.0 0.0 
0.0 0.0 0.0 
0.0 0.0 0.0 
0.0 0.0 0.0 
0.0 0.0 0.0 
0.0 0.0 0.0 
0.0 0.0 0.0 
0.0 0.0 0.0 
0.0 0.0 0.0 
0.0 0.0 0.0 
0.0 0.0 0.0 
0.0 0.0 0.0 
0.0 0.0 0.0 
0.0 0.0 0.0 
0.0 0.0 0.0 
0.0 0.0 0.0 
0.0 0.0 0.0 
0.0 0.0 0.0 
0.0 0.0 0.0 
0.0 0.0 0.0 
0.0 0.0 0.0 
0.0 0.0 0.0 
0.0 0.0 0.0 
0.0 0.0 0.0 
0.0 0.0 0.0 
0.0 0.0 0.0 
0.0 0.0 0.0 
0.0 0.0 0.0 
0.0 0.0 0.0 
0.0 0.0 0.0 
0.0 0.0 0.0 
0.0 0.0 0.0 
0.0 0.0 0.0 
0.0 0.0 0.0 
0.0 0.0 0.0 
0.0 0.0 0.0 
0.0 0.0 0.0 
0.0 0.0 0.0 
0.0 0.0 0.0 
0.0 0.0 0.0 
0.0 0.0 0.0 
0.0 0.0 0.0 
0.0 0.0 0.0 
0.0 0.0 0.0 
0.0 0.0 0.0 
0.0 0.0 0.0 
0.0 0.0 0.0 
0.0 0.0 0.0 
0.0 0.0 0.0 
0.0 0.0 0.0 
0.0 0.0 0.0 
0.0 0.0 0.0 
0.0 0.0 0.0 
0.0 0.0 0.0 
0.0 0.0 0.0 
0.0 0.0 0.0 
0.0 0.0 0.0 
0.0 0.0 0.0 
0.0 0.0 0.0 
0.0 0.0 0.0 
0.0 0.0 0.0 
0.0 0.0 0.0 
0.0 0.0 0.0 
0.0 0.0 0.0 
0.0 0.0 0.0 
0.0 0.0 0.0 
0.0 0.0 0.0 
0.0 0.0 0.0 
0.0 0.0 0.0 
0.0 0.0 0.0 
0.0 0.0 0.0 
0.0 0.0 0.0 
0.0 0.0 0.0 
0.0 0.0 0.0 
0.0 0.0 0.0 
0.0 0.0 0.0 
0.0 0.0 0.0 
0.0 0.0 0.0 
0.0 0.0 0.0 
0.0 0.0 0.0 
0.0 0.0 0.0 
0.0 0.0 0.0 
0.0 0.0 0.0 
0.0 0.0 0.0 
0.0 0.0 0.0 
0.0 0.0 0.0 
0.0 0.0 0.0 
0.0 0.0 0.0 
0.0 0.0 0.0 
0.0 0.0 0.0 
0.0 0.0 0.0 
0.0 0.0 0.0 
0.0 0.0 0.0 
0.0 0.0 0.0 
0.0 0.0 0.0 
0.0 0.0 0.0 
0.0 0.0 0.0 
0.0 0.0 0.0 
0.0 0.0 0.0 
0.0 0.0 0.0 
0.0 0.0 0.0 
0.0 0.0 0.0 
0.0 0.0 0.0 
0.0 0.0 0.0 
0.0 0.0 0.0 
0.0 0.0 0.0 
0.0 0.0 0.0 
0.0 0.0 0.0 
0.0 0.0 0.0 
0.0 0.0 0.0 
0.0 0.0 0.0 
0.0 0.0 0.0 
0.0 0.0 0.0 
0.0 0.0 0.0 
0.0 0.0 0.0 
0.0 0.0 0.0 
0.0 0.0 0.0 
0.0 0.0 0.0 
0.0 0.0 0.0 
0.0 0.0 0.0 
0.0 0.0 0.0 
0.0 0.0 0.0 
0.0 0.0 0.0 
0.0 0.0 0.0 
0.0 0.0 0.0 
0.0 0.0 0.0 
0.0 0.0 0.0 
0.0 0.0 0.0 
0.0 0.0 0.0 
0.0 0.0 0.0 
0.0 0.0 0.0 
0.0 0.0 0.0 
0.0 0.0 0.0 
0.0 0.0 0.0 
0.0 0.0 0.0 
0.0 0.0 0.0 
0.0 0.0 0.0 
0.0 0.0 0.0 
0.0 0.0 0.0 
0.0 0.0 0.0 
0.0 0.0 0.0 
0.0 0.0 0.0 
0.0 0.0 0.0 
0.0 0.0 0.0 
0.0 0.0 0.0 
0.0 0.0 0.0 
0.0 0.0 0.0 
0.0 0.0 0.0 
0.0 0.0 0.0 
0.0 0.0 0.0 
0.0 0.0 0.0 
0.0 0.0 0.0 
0.0 0.0 0.0 
0.0 0.0 0.0 
0.0 0.0 0.0 
0.0 0.0 0.0 
0.0 0.0 0.0 
0.0 0.0 0.0 
0.0 0.0 0.0 
0.0 0.0 0.0 
0.0 0.0 0.0 
0.0 0.0 0.0 
0.0 0.0 0.0 
0.0 0.0 0.0 
0.0 0.0 0.0 
0.0 0.0 0.0 
0.0 0.0 0.0 
0.0 0.0 0.0 
0.0 0.0 0.0 
0.0 0.0 0.0 
0.0 0.0 0.0 
0.0 0.0 0.0 
0.0 0.0 0.0 
0.0 0.0 0.0 
0.0 0.0 0.0 
0.0 0.0 0.0 
0.0 0.0 0.0 
0.0 0.0 0.0 
0.0 0.0 0.0 
0.0 0.0 0.0 
0.0 0.0 0.0 
0.0 0.0 0.0 
0.0 0.0 0.0 
0.0 0.0 0.0 
0.0 0.0 0.0 
0.0 0.0 0.0 
0.0 0.0 0.0 
0.0 0.0 0.0 
0.0 0.0 0.0 
0.0 0.0 0.0 
0.0 0.0 0.0 
0.0 0.0 0.0 
0.0 0.0 0.0 
0.0 0.0 0.0 
0.0 0.0 0.0 
0.0 0.0 0.0 
0.0 0.0 0.0 
0.0 0.0 0.0 
0.0 0.0 0.0 
0.0 0.0 0.0 
0.0 0.0 0.0 
0.0 0.0 0.0 
0.0 0.0 0.0 
0.0 0.0 0.0 
0.0 0.0 0.0 
0.0 0.0 0.0 
0.0 0.0 0.0 
0.0 0.0 0.0 
0.0 0.0 0.0 
0.0 0.0 0.0 
0.0 0.0 0.0 
0.0 0.0 0.0 
0.0 0.0 0.0 
0.0 0.0 0.0 
0.0 0.0 0.0 
0.0 0.0 0.0 
0.0 0.0 0.0 
0.0 0.0 0.0 
0.0 0.0 0.0 
0.0 0.0 0.0 
0.0 0.0 0.0 
0.0 0.0 0.0 
0.0 0.0 0.0 
0.0 0.0 0.0 
0.0 0.0 0.0 
0.0 0.0 0.0 
0.0 0.0 0.0 
0.0 0.0 0.0 
0.0 0.0 0.0 
0.0 0.0 0.0 
0.0 0.0 0.0 
0.0 0.0 0.0 
0.0 0.0 0.0 
0.0 0.0 0.0 
0.0 0.0 0.0 
0.0 0.0 0.0 
0.0 0.0 0.0 
0.0 0.0 0.0 
0.0 0.0 0.0 
0.0 0.0 0.0 
0.0 0.0 0.0 
0.0 0.0 0.0 
0.0 0.0 0.0 
0.0 0.0 0.0 
0.0 0.0 0.0 
0.0 0.0 0.0 
0.0 0.0 0.0 
0.0 0.0 0.0 
0.0 0.0 0.0 
0.0 0.0 0.0 
0.0 0.0 0.0 
0.0 0.0 0.0 
0.0 0.0 0.0 
0.0 0.0 0.0 
0.0 0.0 0.0 
0.0 0.0 0.0 
0.0 0.0 0.0 
0.0 0.0 0.0 
0.0 0.0 0.0 
0.0 0.0 0.0 
0.0 0.0 0.0 
0.0 0.0 0.0 
0.0 0.0 0.0 
0.0 0.0 0.0 
0.0 0.0 0.0 
0.0 0.0 0.0 
0.0 0.0 0.0 
0.0 0.0 0.0 
0.0 0.0 0.0 
0.0 0.0 0.0 
0.0 0.0 0.0 
0.0 0.0 0.0 
0.0 0.0 0.0 
0.0 0.0 0.0 
0.0 0.0 0.0 
0.0 0.0 0.0 
0.0 0.0 0.0 
0.0 0.0 0.0 
0.0 0.0 0.0 
0.0 0.0 0.0 
0.0 0.0 0.0 
0.0 0.0 0.0 
0.0 0.0 0.0 
0.0 0.0 0.0 
0.0 0.0 0.0 
0.0 0.0 0.0 
0.0 0.0 0.0 
0.0 0.0 0.0 
0.0 0.0 0.0 
0.0 0.0 0.0 
0.0 0.0 0.0 
0.0 0.0 0.0 
0.0 0.0 0.0 
0.0 0.0 0.0 
0.0 0.0 0.0 
0.0 0.0 0.0 
0.0 0.0 0.0 
0.0 0.0 0.0 
0.0 0.0 0.0 
0.0 0.0 0.0 
0.0 0.0 0.0 
0.0 0.0 0.0 
0.0 0.0 0.0 
0.0 0.0 0.0 
0.0 0.0 0.0 
0.0 0.0 0.0 
0.0 0.0 0.0 
0.0 0.0 0.0 
0.0 0.0 0.0 
0.0 0.0 0.0 
0.0 0.0 0.0 
0.0 0.0 0.0 
0.0 0.0 0.0 
0.0 0.0 0.0 
0.0 0.0 0.0 
0.0 0.0 0.0 
0.0 0.0 0.0 
0.0 0.0 0.0 
0.0 0.0 0.0 
0.0 0.0 0.0 
0.0 0.0 0.0 
0.0 0.0 0.0 
0.0 0.0 0.0 
0.0 0.0 0.0 
0.0 0.0 0.0 
0.0 0.0 0.0 
0.0 0.0 0.0 
0.0 0.0 0.0 
0.0 0.0 0.0 
0.0 0.0 0.0 
0.0 0.0 0.0 
0.0 0.0 0.0 
0.0 0.0 0.0 
0.0 0.0 0.0 
0.0 0.0 0.0 
0.0 0.0 0.0 
0.0 0.0 0.0 
0.0 0.0 0.0 
0.0 0.0 0.0 
0.0 0.0 0.0 
0.0 0.0 0.0 
0.0 0.0 0.0 
0.0 0.0 0.0 
0.0 0.0 0.0 
0.0 0.0 0.0 
0.0 0.0 0.0 
0.0 0.0 0.0 
0.0 0.0 0.0 
0.0 0.0 0.0 
0.0 0.0 0.0 
0.0 0.0 0.0 
0.0 0.0 0.0 
0.0 0.0 0.0 
0.0 0.0 0.0 
0.0 0.0 0.0 
0.0 0.0 0.0 
0.0 0.0 0.0 
0.0 0.0 0.0 
0.0 0.0 0.0 
0.0 0.0 0.0 
0.0 0.0 0.0 
0.0 0.0 0.0 
0.0 0.0 0.0 
0.0 0.0 0.0 
0.0 0.0 0.0 
0.0 0.0 0.0 
0.0 0.0 0.0 
0.0 0.0 0.0 
0.0 0.0 0.0 
0.0 0.0 0.0 
0.0 0.0 0.0 
0.0 0.0 0.0 
0.0 0.0 0.0 
0.0 0.0 0.0 
0.0 0.0 0.0 
0.0 0.0 0.0 
0.0 0.0 0.0 
0.0 0.0 0.0 
0.0 0.0 0.0 
0.0 0.0 0.0 
0.0 0.0 0.0 
0.0 0.0 0.0 
0.0 0.0 0.0 
0.0 0.0 0.0 
0.0 0.0 0.0 
0.0 0.0 0.0 
0.0 0.0 0.0 
0.0 0.0 0.0 
0.0 0.0 0.0 
0.0 0.0 0.0 
0.0 0.0 0.0 
0.0 0.0 0.0 
0.0 0.0 0.0 
0.0 0.0 0.0 
0.0 0.0 0.0 
0.0 0.0 0.0 
0.0 0.0 0.0 
0.0 0.0 0.0 
0.0 0.0 0.0 
0.0 0.0 0.0 
0.0 0.0 0.0 
0.0 0.0 0.0 
0.0 0.0 0.0 
0.0 0.0 0.0 
0.0 0.0 0.0 
0.0 0.0 0.0 
0.0 0.0 0.0 
0.0 0.0 0.0 
0.0 0.0 0.0 
0.0 0.0 0.0 
0.0 0.0 0.0 
0.0 0.0 0.0 
0.0 0.0 0.0 
0.0 0.0 0.0 
0.0 0.0 0.0 
0.0 0.0 0.0 
0.0 0.0 0.0 
0.0 0.0 0.0 
0.0 0.0 0.0 
0.0 0.0 0.0 
0.0 0.0 0.0 
0.0 0.0 0.0 
0.0 0.0 0.0 
0.0 0.0 0.0 
0.0 0.0 0.0 
0.0 0.0 0.0 
0.0 0.0 0.0 
0.0 0.0 0.0 
0.0 0.0 0.0 
0.0 0.0 0.0 
0.0 0.0 0.0 
0.0 0.0 0.0 
0.0 0.0 0.0 
0.0 0.0 0.0 
0.0 0.0 0.0 
0.0 0.0 0.0 
0.0 0.0 0.0 
0.0 0.0 0.0 
0.0 0.0 0.0 
0.0 0.0 0.0 
0.0 0.0 0.0 
0.0 0.0 0.0 
0.0 0.0 0.0 
0.0 0.0 0.0 
0.0 0.0 0.0 
0.0 0.0 0.0 
0.0 0.0 0.0 
0.0 0.0 0.0 
0.0 0.0 0.0 
0.0 0.0 0.0 
0.0 0.0 0.0 
0.0 0.0 0.0 
0.0 0.0 0.0 
0.0 0.0 0.0 
0.0 0.0 0.0 
0.0 0.0 0.0 
0.0 0.0 0.0 
0.0 0.0 0.0 
0.0 0.0 0.0 
0.0 0.0 0.0 
0.0 0.0 0.0 
0.0 0.0 0.0 
0.0 0.0 0.0 
0.0 0.0 0.0 
0.0 0.0 0.0 
0.0 0.0 0.0 
0.0 0.0 0.0 
0.0 0.0 0.0 
0.0 0.0 0.0 
0.0 0.0 0.0 
0.0 0.0 0.0 
0.0 0.0 0.0 
0.0 0.0 0.0 
0.0 0.0 0.0 
0.0 0.0 0.0 
0.0 0.0 0.0 
0.0 0.0 0.0 
0.0 0.0 0.0 
0.0 0.0 0.0 
0.0 0.0 0.0 
0.0 0.0 0.0 
0.0 0.0 0.0 
0.0 0.0 0.0 
0.0 0.0 0.0 
0.0 0.0 0.0 
0.0 0.0 0.0 
0.0 0.0 0.0 
0.0 0.0 0.0 
0.0 0.0 0.0 
0.0 0.0 0.0 
0.0 0.0 0.0 
0.0 0.0 0.0 
0.0 0.0 0.0 
0.0 0.0 0.0 
0.0 0.0 0.0 
0.0 0.0 0.0 
0.0 0.0 0.0 
0.0 0.0 0.0 
0.0 0.0 0.0 
0.0 0.0 0.0 
0.0 0.0 0.0 
0.0 0.0 0.0 
0.0 0.0 0.0 
0.0 0.0 0.0 
0.0 0.0 0.0 
0.0 0.0 0.0 
0.0 0.0 0.0 
0.0 0.0 0.0 
0.0 0.0 0.0 
0.0 0.0 0.0 
0.0 0.0 0.0 
0.0 0.0 0.0 
0.0 0.0 0.0 
0.0 0.0 0.0 
0.0 0.0 0.0 
0.0 0.0 0.0 
0.0 0.0 0.0 
0.0 0.0 0.0 
0.0 0.0 0.0 
0.0 0.0 0.0 
0.0 0.0 0.0 
0.0 0.0 0.0 
0.0 0.0 0.0 
0.0 0.0 0.0 
0.0 0.0 0.0 
0.0 0.0 0.0 
0.0 0.0 0.0 
0.0 0.0 0.0 
0.0 0.0 0.0 
0.0 0.0 0.0 
0.0 0.0 0.0 
0.0 0.0 0.0 
0.0 0.0 0.0 
0.0 0.0 0.0 
0.0 0.0 0.0 
0.0 0.0 0.0 
0.0 0.0 0.0 
0.0 0.0 0.0 
0.0 0.0 0.0 
0.0 0.0 0.0 
0.0 0.0 0.0 
0.0 0.0 0.0 
0.0 0.0 0.0 
0.0 0.0 0.0 
0.0 0.0 0.0 
0.0 0.0 0.0 
0.0 0.0 0.0 
0.0 0.0 0.0 
0.0 0.0 0.0 
0.0 0.0 0.0 
0.0 0.0 0.0 
0.0 0.0 0.0 
0.0 0.0 0.0 
0.0 0.0 0.0 
0.0 0.0 0.0 
0.0 0.0 0.0 
0.0 0.0 0.0 
0.0 0.0 0.0 
0.0 0.0 0.0 
0.0 0.0 0.0 
0.0 0.0 0.0 
0.0 0.0 0.0 
0.0 0.0 0.0 
0.0 0.0 0.0 
0.0 0.0 0.0 
0.0 0.0 0.0 
0.0 0.0 0.0 

SCALARS node_boundary float
LOOKUP_TABLE default
1.000000000000e+00 
1.000000000000e+00 
1.000000000000e+00 
1.000000000000e+00 
1.000000000000e+00 
1.000000000000e+00 
1.000000000000e+00 
1.000000000000e+00 
1.000000000000e+00 
1.000000000000e+00 
1.000000000000e+00 
1.000000000000e+00 
1.000000000000e+00 
1.000000000000e+00 
1.000000000000e+00 
1.000000000000e+00 
1.000000000000e+00 
1.000000000000e+00 
1.000000000000e+00 
1.000000000000e+00 
1.000000000000e+00 
1.000000000000e+00 
1.000000000000e+00 
1.000000000000e+00 
1.000000000000e+00 
1.000000000000e+00 
1.000000000000e+00 
1.000000000000e+00 
1.000000000000e+00 
1.000000000000e+00 
1.000000000000e+00 
1.000000000000e+00 
1.000000000000e+00 
1.000000000000e+00 
1.000000000000e+00 
1.000000000000e+00 
1.000000000000e+00 
1.000000000000e+00 
1.000000000000e+00 
1.000000000000e+00 
1.000000000000e+00 
1.000000000000e+00 
1.000000000000e+00 
1.000000000000e+00 
1.000000000000e+00 
1.000000000000e+00 
1.000000000000e+00 
1.000000000000e+00 
1.000000000000e+00 
1.000000000000e+00 
1.000000000000e+00 
1.000000000000e+00 
1.000000000000e+00 
1.000000000000e+00 
1.000000000000e+00 
1.000000000000e+00 
1.000000000000e+00 
1.000000000000e+00 
1.000000000000e+00 
1.000000000000e+00 
1.000000000000e+00 
1.000000000000e+00 
1.000000000000e+00 
1.000000000000e+00 
1.000000000000e+00 
1.000000000000e+00 
1.000000000000e+00 
1.000000000000e+00 
1.000000000000e+00 
1.000000000000e+00 
1.000000000000e+00 
1.000000000000e+00 
1.000000000000e+00 
1.000000000000e+00 
1.000000000000e+00 
1.000000000000e+00 
1.000000000000e+00 
1.000000000000e+00 
1.000000000000e+00 
1.000000000000e+00 
1.000000000000e+00 
1.000000000000e+00 
0.0
1.000000000000e+00 
0.0
0.0
0.0
0.0
0.0
0.0
0.0
0.0
1.000000000000e+00 
1.000000000000e+00 
1.000000000000e+00 
1.000000000000e+00 
1.000000000000e+00 
1.000000000000e+00 
1.000000000000e+00 
1.000000000000e+00 
1.000000000000e+00 
0.0
0.0
0.0
0.0
0.0
0.0
0.0
0.0
0.0
0.0
0.0
0.0
0.0
0.0
1.000000000000e+00 
1.000000000000e+00 
1.000000000000e+00 
1.000000000000e+00 
1.000000000000e+00 
1.000000000000e+00 
1.000000000000e+00 
1.000000000000e+00 
1.000000000000e+00 
1.000000000000e+00 
1.000000000000e+00 
1.000000000000e+00 
1.000000000000e+00 
1.000000000000e+00 
1.000000000000e+00 
1.000000000000e+00 
1.000000000000e+00 
1.000000000000e+00 
1.000000000000e+00 
1.000000000000e+00 
1.000000000000e+00 
1.000000000000e+00 
1.000000000000e+00 
1.000000000000e+00 
1.000000000000e+00 
1.000000000000e+00 
1.000000000000e+00 
1.000000000000e+00 
1.000000000000e+00 
1.000000000000e+00 
1.000000000000e+00 
1.000000000000e+00 
1.000000000000e+00 
1.000000000000e+00 
1.000000000000e+00 
1.000000000000e+00 
1.000000000000e+00 
1.000000000000e+00 
1.000000000000e+00 
1.000000000000e+00 
1.000000000000e+00 
1.000000000000e+00 
1.000000000000e+00 
1.000000000000e+00 
1.000000000000e+00 
1.000000000000e+00 
1.000000000000e+00 
0.0
0.0
0.0
0.0
0.0
0.0
0.0
0.0
0.0
0.0
0.0
0.0
0.0
0.0
0.0
0.0
0.0
0.0
0.0
0.0
0.0
0.0
0.0
0.0
0.0
0.0
0.0
0.0
0.0
0.0
0.0
0.0
0.0
0.0
0.0
0.0
0.0
0.0
0.0
0.0
0.0
0.0
0.0
0.0
0.0
0.0
0.0
0.0
0.0
0.0
0.0
0.0
0.0
0.0
0.0
0.0
0.0
0.0
0.0
0.0
0.0
0.0
0.0
0.0
0.0
0.0
0.0
0.0
0.0
0.0
0.0
0.0
0.0
0.0
0.0
0.0
0.0
0.0
0.0
0.0
0.0
0.0
0.0
0.0
0.0
0.0
0.0
0.0
0.0
0.0
0.0
0.0
0.0
0.0
0.0
0.0
0.0
0.0
0.0
0.0
0.0
0.0
0.0
0.0
0.0
0.0
0.0
0.0
0.0
0.0
0.0
0.0
0.0
0.0
0.0
0.0
0.0
0.0
0.0
0.0
0.0
0.0
0.0
0.0
0.0
0.0
0.0
0.0
0.0
0.0
0.0
0.0
0.0
0.0
0.0
0.0
0.0
0.0
0.0
0.0
0.0
0.0
0.0
0.0
0.0
0.0
0.0
0.0
0.0
0.0
0.0
0.0
0.0
0.0
0.0
0.0
0.0
0.0
0.0
0.0
0.0
0.0
0.0
0.0
0.0
0.0
0.0
0.0
1.000000000000e+00 
0.0
0.0
0.0
0.0
0.0
0.0
0.0
0.0
0.0
0.0
0.0
0.0
0.0
0.0
0.0
0.0
0.0
0.0
0.0
0.0
0.0
0.0
0.0
0.0
0.0
0.0
0.0
0.0
0.0
0.0
0.0
0.0
0.0
0.0
0.0
0.0
0.0
0.0
0.0
0.0
0.0
0.0
0.0
0.0
0.0
0.0
0.0
0.0
0.0
0.0
0.0
0.0
0.0
0.0
0.0
0.0
0.0
0.0
0.0
0.0
0.0
0.0
0.0
0.0
0.0
0.0
0.0
0.0
0.0
0.0
0.0
0.0
0.0
0.0
0.0
0.0
0.0
0.0
0.0
0.0
0.0
0.0
0.0
0.0
0.0
0.0
0.0
0.0
0.0
0.0
0.0
0.0
0.0
0.0
0.0
0.0
0.0
0.0
0.0
0.0
0.0
0.0
0.0
0.0
0.0
0.0
0.0
0.0
0.0
0.0
0.0
0.0
0.0
0.0
0.0
0.0
0.0
0.0
0.0
0.0
0.0
0.0
0.0
0.0
0.0
0.0
0.0
0.0
0.0
0.0
0.0
0.0
0.0
0.0
0.0
0.0
0.0
0.0
0.0
0.0
0.0
0.0
0.0
0.0
0.0
0.0
0.0
0.0
0.0
0.0
0.0
0.0
0.0
0.0
0.0
0.0
0.0
0.0
0.0
0.0
0.0
0.0
0.0
0.0
0.0
0.0
0.0
0.0
0.0
0.0
0.0
0.0
0.0
0.0
0.0
0.0
0.0
0.0
0.0
0.0
0.0
0.0
0.0
0.0
0.0
0.0
0.0
0.0
0.0
0.0
0.0
0.0
0.0
0.0
0.0
0.0
0.0
0.0
0.0
0.0
0.0
0.0
0.0
0.0
0.0
0.0
0.0
0.0
0.0
0.0
0.0
0.0
0.0
0.0
0.0
0.0
0.0
0.0
0.0
0.0
0.0
0.0
0.0
0.0
0.0
0.0
0.0
0.0
0.0
0.0
0.0
0.0
0.0
0.0
0.0
0.0
0.0
0.0
0.0
0.0
0.0
0.0
0.0
0.0
0.0
0.0
0.0
0.0
0.0
0.0
0.0
0.0
0.0
0.0
0.0
0.0
0.0
0.0
0.0
0.0
0.0
0.0
0.0
0.0
0.0
0.0
0.0
0.0
0.0
0.0
0.0
0.0
0.0
0.0
0.0
0.0
0.0
0.0
0.0
0.0
0.0
0.0
0.0
0.0
0.0
0.0
0.0
0.0
0.0
0.0
0.0
0.0
0.0
0.0
0.0
0.0
0.0
0.0
0.0
0.0
0.0
0.0
0.0
0.0
0.0
0.0
0.0
0.0
0.0
0.0
0.0
0.0
0.0
0.0
0.0
0.0
0.0
0.0
0.0
0.0
0.0
0.0
0.0
0.0
0.0
0.0
0.0
0.0
0.0
0.0
0.0
0.0
0.0
0.0
0.0
0.0
0.0
0.0
0.0
0.0
0.0
0.0
0.0
0.0
0.0
0.0
0.0
0.0
0.0
0.0
0.0
0.0
0.0
0.0
0.0
0.0
0.0
0.0
0.0
0.0
0.0
0.0
0.0
0.0
0.0
0.0
0.0
0.0
0.0
0.0
0.0
0.0
0.0
0.0
0.0
0.0
0.0
0.0
0.0
0.0
0.0
0.0
0.0
0.0
0.0
0.0
0.0
0.0
0.0
0.0
0.0
0.0
0.0
0.0
0.0
0.0
0.0
0.0
0.0
0.0
0.0
0.0
0.0
0.0
0.0
0.0
0.0
0.0
0.0
0.0
0.0
0.0
0.0
0.0
0.0
0.0
0.0
0.0
0.0
0.0
0.0
0.0
0.0
0.0
0.0
0.0
0.0
0.0
0.0
0.0
0.0
0.0
0.0
0.0
0.0
0.0
0.0
0.0
0.0
0.0
0.0
0.0
0.0
0.0
0.0
0.0
0.0
0.0
0.0
0.0
0.0
0.0
0.0
0.0
0.0
0.0
0.0
0.0
0.0
0.0
0.0
0.0
0.0
0.0
0.0
0.0
0.0
0.0
0.0
0.0
0.0
0.0
0.0
0.0
0.0
0.0
0.0
0.0
0.0
0.0
0.0
0.0
0.0
0.0
0.0
0.0
0.0
0.0
0.0
0.0
0.0
0.0
0.0
0.0
0.0
0.0
0.0
0.0
0.0
0.0
0.0
0.0
0.0
0.0
0.0
0.0
0.0
0.0
0.0
0.0
0.0
0.0
0.0
0.0
0.0
0.0
0.0
0.0
0.0
0.0
0.0
0.0
0.0
0.0
0.0
0.0
0.0
0.0
0.0
0.0
0.0
0.0
0.0
0.0
0.0
0.0
0.0
0.0
0.0
0.0
0.0
0.0
0.0
0.0
0.0
0.0
0.0
0.0
0.0
0.0
0.0
0.0
0.0
0.0
0.0
0.0
0.0
0.0
0.0
0.0
0.0
0.0
0.0
0.0
0.0
0.0
0.0
0.0
0.0
0.0
0.0
0.0
0.0
0.0
0.0
0.0
0.0
0.0
0.0
0.0
0.0
0.0
0.0
0.0
0.0
0.0
0.0
0.0
0.0
0.0
0.0
0.0
0.0
0.0
0.0
0.0
0.0
0.0
0.0
0.0
0.0
0.0
0.0
0.0
0.0
0.0
0.0
0.0
0.0
0.0
0.0
0.0
0.0
0.0
0.0
0.0
0.0
0.0
0.0
0.0
0.0
0.0
0.0
0.0
0.0
0.0
0.0
0.0
0.0
0.0
0.0
0.0
0.0
0.0
0.0
0.0
0.0
0.0
0.0
0.0
0.0
0.0
0.0
0.0
0.0
0.0
0.0
0.0
0.0
0.0
0.0
0.0
0.0
0.0
0.0
0.0
0.0
0.0
0.0
0.0
0.0
0.0
0.0
0.0
0.0
0.0
0.0
0.0
0.0
0.0
0.0
0.0
0.0
0.0
0.0
0.0
0.0
0.0
0.0
0.0
0.0
0.0
0.0
0.0
0.0
0.0
0.0
0.0
0.0
0.0
0.0
0.0
0.0
0.0
0.0
0.0
0.0
0.0
0.0
0.0
0.0
0.0
0.0
0.0
0.0
0.0
0.0
0.0
0.0
0.0
0.0
0.0
0.0
0.0
0.0
0.0
0.0
0.0
0.0
0.0
0.0
0.0
0.0
0.0
0.0
0.0
0.0
0.0
0.0
0.0
0.0
0.0
0.0
0.0
0.0
0.0
0.0
0.0
0.0
0.0
0.0
0.0
0.0
0.0
0.0
0.0
0.0
0.0
0.0
0.0
0.0
0.0
0.0
0.0
0.0
0.0
0.0
0.0
0.0
0.0
0.0
0.0
0.0
0.0
0.0
0.0
0.0
0.0
0.0
0.0
0.0
0.0
0.0
0.0
0.0
0.0
0.0
0.0
0.0
0.0
0.0
0.0
0.0
0.0
0.0
0.0
0.0
0.0
0.0
0.0
0.0
0.0
0.0
0.0
0.0
0.0
0.0
0.0
0.0
0.0
0.0
0.0
0.0
0.0
0.0
0.0
0.0
0.0
0.0
0.0
0.0
0.0
0.0
0.0
0.0
0.0
0.0
0.0
0.0
0.0
0.0
0.0
0.0
0.0
0.0
0.0
0.0
0.0
0.0
0.0
0.0
0.0
0.0
0.0
0.0
0.0
0.0
0.0
0.0
0.0
0.0
0.0
0.0
0.0
0.0
0.0
0.0
0.0
0.0
0.0
0.0
0.0
0.0
0.0
0.0
0.0
0.0
0.0
0.0
0.0
0.0
0.0
0.0
0.0
0.0
0.0
0.0
0.0
0.0
0.0
0.0
0.0
0.0
0.0
0.0
0.0
0.0
0.0
0.0
0.0
0.0
0.0
0.0
0.0
0.0
0.0
0.0
0.0
0.0
0.0
0.0
0.0
0.0
0.0
0.0
0.0
0.0
0.0
0.0
0.0
0.0
0.0
0.0
0.0
0.0
0.0
0.0
0.0
0.0
0.0
0.0
0.0
0.0
0.0
0.0
0.0
0.0
0.0
0.0
0.0

VECTORS node_force_edge float
0.0 0.0 0.0 
0.0 0.0 0.0 
0.0 0.0 0.0 
0.0 0.0 0.0 
0.0 0.0 0.0 
0.0 0.0 0.0 
0.0 0.0 0.0 
0.0 0.0 0.0 
0.0 0.0 0.0 
0.0 0.0 0.0 
0.0 0.0 0.0 
0.0 0.0 0.0 
0.0 0.0 0.0 
0.0 0.0 0.0 
0.0 0.0 0.0 
0.0 0.0 0.0 
0.0 0.0 0.0 
0.0 0.0 0.0 
0.0 0.0 0.0 
0.0 0.0 0.0 
0.0 0.0 0.0 
0.0 0.0 0.0 
0.0 0.0 0.0 
0.0 0.0 0.0 
0.0 0.0 0.0 
0.0 0.0 0.0 
0.0 0.0 0.0 
0.0 0.0 0.0 
0.0 0.0 0.0 
0.0 0.0 0.0 
0.0 0.0 0.0 
0.0 0.0 0.0 
0.0 0.0 0.0 
0.0 0.0 0.0 
0.0 0.0 0.0 
0.0 0.0 0.0 
0.0 0.0 0.0 
0.0 0.0 0.0 
0.0 0.0 0.0 
0.0 0.0 0.0 
0.0 0.0 0.0 
0.0 0.0 0.0 
0.0 0.0 0.0 
0.0 0.0 0.0 
0.0 0.0 0.0 
0.0 0.0 0.0 
0.0 0.0 0.0 
0.0 0.0 0.0 
0.0 0.0 0.0 
0.0 0.0 0.0 
0.0 0.0 0.0 
0.0 0.0 0.0 
0.0 0.0 0.0 
0.0 0.0 0.0 
0.0 0.0 0.0 
0.0 0.0 0.0 
0.0 0.0 0.0 
0.0 0.0 0.0 
0.0 0.0 0.0 
0.0 0.0 0.0 
0.0 0.0 0.0 
0.0 0.0 0.0 
0.0 0.0 0.0 
0.0 0.0 0.0 
0.0 0.0 0.0 
0.0 0.0 0.0 
0.0 0.0 0.0 
0.0 0.0 0.0 
0.0 0.0 0.0 
0.0 0.0 0.0 
0.0 0.0 0.0 
0.0 0.0 0.0 
0.0 0.0 0.0 
0.0 0.0 0.0 
0.0 0.0 0.0 
0.0 0.0 0.0 
0.0 0.0 0.0 
0.0 0.0 0.0 
0.0 0.0 0.0 
0.0 0.0 0.0 
0.0 0.0 0.0 
0.0 -1.000000000000e+02 0.0 
0.0 0.0 0.0 
0.0 0.0 0.0 
0.0 0.0 0.0 
0.0 0.0 0.0 
0.0 0.0 0.0 
0.0 0.0 0.0 
0.0 0.0 0.0 
0.0 0.0 0.0 
0.0 0.0 0.0 
0.0 0.0 0.0 
0.0 0.0 0.0 
0.0 0.0 0.0 
0.0 0.0 0.0 
0.0 0.0 0.0 
0.0 0.0 0.0 
0.0 0.0 0.0 
0.0 0.0 0.0 
0.0 0.0 0.0 
0.0 0.0 0.0 
0.0 0.0 0.0 
0.0 0.0 0.0 
0.0 0.0 0.0 
0.0 0.0 0.0 
0.0 0.0 0.0 
0.0 0.0 0.0 
0.0 0.0 0.0 
0.0 0.0 0.0 
0.0 0.0 0.0 
0.0 0.0 0.0 
0.0 0.0 0.0 
0.0 0.0 0.0 
0.0 0.0 0.0 
0.0 0.0 0.0 
0.0 -1.000000000000e+02 0.0 
0.0 -1.000000000000e+02 0.0 
0.0 -1.000000000000e+02 0.0 
0.0 -1.000000000000e+02 0.0 
0.0 -1.000000000000e+02 0.0 
0.0 0.0 0.0 
0.0 0.0 0.0 
0.0 0.0 0.0 
0.0 0.0 0.0 
0.0 0.0 0.0 
0.0 0.0 0.0 
0.0 0.0 0.0 
0.0 0.0 0.0 
0.0 0.0 0.0 
0.0 0.0 0.0 
0.0 0.0 0.0 
0.0 0.0 0.0 
0.0 0.0 0.0 
0.0 0.0 0.0 
0.0 0.0 0.0 
0.0 0.0 0.0 
0.0 0.0 0.0 
0.0 0.0 0.0 
0.0 0.0 0.0 
0.0 0.0 0.0 
0.0 0.0 0.0 
0.0 0.0 0.0 
0.0 0.0 0.0 
0.0 0.0 0.0 
0.0 0.0 0.0 
0.0 0.0 0.0 
0.0 0.0 0.0 
0.0 0.0 0.0 
0.0 0.0 0.0 
0.0 0.0 0.0 
0.0 0.0 0.0 
0.0 0.0 0.0 
0.0 0.0 0.0 
0.0 0.0 0.0 
0.0 0.0 0.0 
0.0 0.0 0.0 
0.0 0.0 0.0 
0.0 0.0 0.0 
0.0 0.0 0.0 
0.0 0.0 0.0 
0.0 0.0 0.0 
0.0 0.0 0.0 
0.0 0.0 0.0 
0.0 0.0 0.0 
0.0 0.0 0.0 
0.0 0.0 0.0 
0.0 0.0 0.0 
0.0 0.0 0.0 
0.0 0.0 0.0 
0.0 0.0 0.0 
0.0 0.0 0.0 
0.0 0.0 0.0 
0.0 0.0 0.0 
0.0 0.0 0.0 
0.0 0.0 0.0 
0.0 0.0 0.0 
0.0 0.0 0.0 
0.0 0.0 0.0 
0.0 0.0 0.0 
0.0 0.0 0.0 
0.0 0.0 0.0 
0.0 0.0 0.0 
0.0 0.0 0.0 
0.0 0.0 0.0 
0.0 0.0 0.0 
0.0 0.0 0.0 
0.0 0.0 0.0 
0.0 0.0 0.0 
0.0 0.0 0.0 
0.0 0.0 0.0 
0.0 0.0 0.0 
0.0 0.0 0.0 
0.0 0.0 0.0 
0.0 0.0 0.0 
0.0 0.0 0.0 
0.0 0.0 0.0 
0.0 0.0 0.0 
0.0 0.0 0.0 
0.0 0.0 0.0 
0.0 0.0 0.0 
0.0 0.0 0.0 
0.0 0.0 0.0 
0.0 0.0 0.0 
0.0 0.0 0.0 
0.0 0.0 0.0 
0.0 0.0 0.0 
0.0 0.0 0.0 
0.0 0.0 0.0 
0.0 0.0 0.0 
0.0 0.0 0.0 
0.0 0.0 0.0 
0.0 0.0 0.0 
0.0 0.0 0.0 
0.0 0.0 0.0 
0.0 0.0 0.0 
0.0 0.0 0.0 
0.0 0.0 0.0 
0.0 0.0 0.0 
0.0 0.0 0.0 
0.0 0.0 0.0 
0.0 0.0 0.0 
0.0 0.0 0.0 
0.0 0.0 0.0 
0.0 0.0 0.0 
0.0 0.0 0.0 
0.0 0.0 0.0 
0.0 0.0 0.0 
0.0 0.0 0.0 
0.0 0.0 0.0 
0.0 0.0 0.0 
0.0 0.0 0.0 
0.0 0.0 0.0 
0.0 0.0 0.0 
0.0 0.0 0.0 
0.0 0.0 0.0 
0.0 0.0 0.0 
0.0 0.0 0.0 
0.0 0.0 0.0 
0.0 0.0 0.0 
0.0 0.0 0.0 
0.0 0.0 0.0 
0.0 0.0 0.0 
0.0 0.0 0.0 
0.0 0.0 0.0 
0.0 0.0 0.0 
0.0 0.0 0.0 
0.0 0.0 0.0 
0.0 0.0 0.0 
0.0 0.0 0.0 
0.0 0.0 0.0 
0.0 0.0 0.0 
0.0 0.0 0.0 
0.0 0.0 0.0 
0.0 0.0 0.0 
0.0 0.0 0.0 
0.0 0.0 0.0 
0.0 0.0 0.0 
0.0 0.0 0.0 
0.0 0.0 0.0 
0.0 0.0 0.0 
0.0 0.0 0.0 
0.0 0.0 0.0 
0.0 0.0 0.0 
0.0 0.0 0.0 
0.0 0.0 0.0 
0.0 0.0 0.0 
0.0 0.0 0.0 
0.0 0.0 0.0 
0.0 0.0 0.0 
0.0 0.0 0.0 
0.0 0.0 0.0 
0.0 0.0 0.0 
0.0 0.0 0.0 
0.0 0.0 0.0 
0.0 0.0 0.0 
0.0 0.0 0.0 
0.0 0.0 0.0 
0.0 0.0 0.0 
0.0 0.0 0.0 
0.0 0.0 0.0 
0.0 0.0 0.0 
0.0 0.0 0.0 
0.0 0.0 0.0 
0.0 0.0 0.0 
0.0 0.0 0.0 
0.0 0.0 0.0 
0.0 0.0 0.0 
0.0 0.0 0.0 
0.0 0.0 0.0 
0.0 0.0 0.0 
0.0 0.0 0.0 
0.0 0.0 0.0 
0.0 0.0 0.0 
0.0 0.0 0.0 
0.0 0.0 0.0 
0.0 0.0 0.0 
0.0 0.0 0.0 
0.0 0.0 0.0 
0.0 0.0 0.0 
0.0 0.0 0.0 
0.0 0.0 0.0 
0.0 0.0 0.0 
0.0 0.0 0.0 
0.0 0.0 0.0 
0.0 0.0 0.0 
0.0 0.0 0.0 
0.0 0.0 0.0 
0.0 0.0 0.0 
0.0 0.0 0.0 
0.0 0.0 0.0 
0.0 0.0 0.0 
0.0 0.0 0.0 
0.0 0.0 0.0 
0.0 0.0 0.0 
0.0 0.0 0.0 
0.0 0.0 0.0 
0.0 0.0 0.0 
0.0 0.0 0.0 
0.0 0.0 0.0 
0.0 0.0 0.0 
0.0 0.0 0.0 
0.0 0.0 0.0 
0.0 0.0 0.0 
0.0 0.0 0.0 
0.0 0.0 0.0 
0.0 0.0 0.0 
0.0 0.0 0.0 
0.0 0.0 0.0 
0.0 0.0 0.0 
0.0 0.0 0.0 
0.0 0.0 0.0 
0.0 0.0 0.0 
0.0 0.0 0.0 
0.0 0.0 0.0 
0.0 0.0 0.0 
0.0 0.0 0.0 
0.0 0.0 0.0 
0.0 0.0 0.0 
0.0 0.0 0.0 
0.0 0.0 0.0 
0.0 0.0 0.0 
0.0 0.0 0.0 
0.0 0.0 0.0 
0.0 0.0 0.0 
0.0 0.0 0.0 
0.0 0.0 0.0 
0.0 0.0 0.0 
0.0 0.0 0.0 
0.0 0.0 0.0 
0.0 0.0 0.0 
0.0 0.0 0.0 
0.0 0.0 0.0 
0.0 0.0 0.0 
0.0 0.0 0.0 
0.0 0.0 0.0 
0.0 0.0 0.0 
0.0 0.0 0.0 
0.0 0.0 0.0 
0.0 0.0 0.0 
0.0 0.0 0.0 
0.0 0.0 0.0 
0.0 0.0 0.0 
0.0 0.0 0.0 
0.0 0.0 0.0 
0.0 0.0 0.0 
0.0 0.0 0.0 
0.0 0.0 0.0 
0.0 0.0 0.0 
0.0 0.0 0.0 
0.0 0.0 0.0 
0.0 0.0 0.0 
0.0 0.0 0.0 
0.0 0.0 0.0 
0.0 0.0 0.0 
0.0 0.0 0.0 
0.0 0.0 0.0 
0.0 0.0 0.0 
0.0 0.0 0.0 
0.0 0.0 0.0 
0.0 0.0 0.0 
0.0 0.0 0.0 
0.0 0.0 0.0 
0.0 0.0 0.0 
0.0 0.0 0.0 
0.0 0.0 0.0 
0.0 0.0 0.0 
0.0 0.0 0.0 
0.0 0.0 0.0 
0.0 0.0 0.0 
0.0 0.0 0.0 
0.0 0.0 0.0 
0.0 0.0 0.0 
0.0 0.0 0.0 
0.0 0.0 0.0 
0.0 0.0 0.0 
0.0 0.0 0.0 
0.0 0.0 0.0 
0.0 0.0 0.0 
0.0 0.0 0.0 
0.0 0.0 0.0 
0.0 0.0 0.0 
0.0 0.0 0.0 
0.0 0.0 0.0 
0.0 0.0 0.0 
0.0 0.0 0.0 
0.0 0.0 0.0 
0.0 0.0 0.0 
0.0 0.0 0.0 
0.0 0.0 0.0 
0.0 0.0 0.0 
0.0 0.0 0.0 
0.0 0.0 0.0 
0.0 0.0 0.0 
0.0 0.0 0.0 
0.0 0.0 0.0 
0.0 0.0 0.0 
0.0 0.0 0.0 
0.0 0.0 0.0 
0.0 0.0 0.0 
0.0 0.0 0.0 
0.0 0.0 0.0 
0.0 0.0 0.0 
0.0 0.0 0.0 
0.0 0.0 0.0 
0.0 0.0 0.0 
0.0 0.0 0.0 
0.0 0.0 0.0 
0.0 0.0 0.0 
0.0 0.0 0.0 
0.0 0.0 0.0 
0.0 0.0 0.0 
0.0 0.0 0.0 
0.0 0.0 0.0 
0.0 0.0 0.0 
0.0 0.0 0.0 
0.0 0.0 0.0 
0.0 0.0 0.0 
0.0 0.0 0.0 
0.0 0.0 0.0 
0.0 0.0 0.0 
0.0 0.0 0.0 
0.0 0.0 0.0 
0.0 0.0 0.0 
0.0 0.0 0.0 
0.0 0.0 0.0 
0.0 0.0 0.0 
0.0 0.0 0.0 
0.0 0.0 0.0 
0.0 0.0 0.0 
0.0 0.0 0.0 
0.0 0.0 0.0 
0.0 0.0 0.0 
0.0 0.0 0.0 
0.0 0.0 0.0 
0.0 0.0 0.0 
0.0 0.0 0.0 
0.0 0.0 0.0 
0.0 0.0 0.0 
0.0 0.0 0.0 
0.0 0.0 0.0 
0.0 0.0 0.0 
0.0 0.0 0.0 
0.0 0.0 0.0 
0.0 0.0 0.0 
0.0 0.0 0.0 
0.0 0.0 0.0 
0.0 0.0 0.0 
0.0 0.0 0.0 
0.0 0.0 0.0 
0.0 0.0 0.0 
0.0 0.0 0.0 
0.0 0.0 0.0 
0.0 0.0 0.0 
0.0 0.0 0.0 
0.0 0.0 0.0 
0.0 0.0 0.0 
0.0 0.0 0.0 
0.0 0.0 0.0 
0.0 0.0 0.0 
0.0 0.0 0.0 
0.0 0.0 0.0 
0.0 0.0 0.0 
0.0 0.0 0.0 
0.0 0.0 0.0 
0.0 0.0 0.0 
0.0 0.0 0.0 
0.0 0.0 0.0 
0.0 0.0 0.0 
0.0 0.0 0.0 
0.0 0.0 0.0 
0.0 0.0 0.0 
0.0 0.0 0.0 
0.0 0.0 0.0 
0.0 0.0 0.0 
0.0 0.0 0.0 
0.0 0.0 0.0 
0.0 0.0 0.0 
0.0 0.0 0.0 
0.0 0.0 0.0 
0.0 0.0 0.0 
0.0 0.0 0.0 
0.0 0.0 0.0 
0.0 0.0 0.0 
0.0 0.0 0.0 
0.0 0.0 0.0 
0.0 0.0 0.0 
0.0 0.0 0.0 
0.0 0.0 0.0 
0.0 0.0 0.0 
0.0 0.0 0.0 
0.0 0.0 0.0 
0.0 0.0 0.0 
0.0 0.0 0.0 
0.0 0.0 0.0 
0.0 0.0 0.0 
0.0 0.0 0.0 
0.0 0.0 0.0 
0.0 0.0 0.0 
0.0 0.0 0.0 
0.0 0.0 0.0 
0.0 0.0 0.0 
0.0 0.0 0.0 
0.0 0.0 0.0 
0.0 0.0 0.0 
0.0 0.0 0.0 
0.0 0.0 0.0 
0.0 0.0 0.0 
0.0 0.0 0.0 
0.0 0.0 0.0 
0.0 0.0 0.0 
0.0 0.0 0.0 
0.0 0.0 0.0 
0.0 0.0 0.0 
0.0 0.0 0.0 
0.0 0.0 0.0 
0.0 0.0 0.0 
0.0 0.0 0.0 
0.0 0.0 0.0 
0.0 0.0 0.0 
0.0 0.0 0.0 
0.0 0.0 0.0 
0.0 0.0 0.0 
0.0 0.0 0.0 
0.0 0.0 0.0 
0.0 0.0 0.0 
0.0 0.0 0.0 
0.0 0.0 0.0 
0.0 0.0 0.0 
0.0 0.0 0.0 
0.0 0.0 0.0 
0.0 0.0 0.0 
0.0 0.0 0.0 
0.0 0.0 0.0 
0.0 0.0 0.0 
0.0 0.0 0.0 
0.0 0.0 0.0 
0.0 0.0 0.0 
0.0 0.0 0.0 
0.0 0.0 0.0 
0.0 0.0 0.0 
0.0 0.0 0.0 
0.0 0.0 0.0 
0.0 0.0 0.0 
0.0 0.0 0.0 
0.0 0.0 0.0 
0.0 0.0 0.0 
0.0 0.0 0.0 
0.0 0.0 0.0 
0.0 0.0 0.0 
0.0 0.0 0.0 
0.0 0.0 0.0 
0.0 0.0 0.0 
0.0 0.0 0.0 
0.0 0.0 0.0 
0.0 0.0 0.0 
0.0 0.0 0.0 
0.0 0.0 0.0 
0.0 0.0 0.0 
0.0 0.0 0.0 
0.0 0.0 0.0 
0.0 0.0 0.0 
0.0 0.0 0.0 
0.0 0.0 0.0 
0.0 0.0 0.0 
0.0 0.0 0.0 
0.0 0.0 0.0 
0.0 0.0 0.0 
0.0 0.0 0.0 
0.0 0.0 0.0 
0.0 0.0 0.0 
0.0 0.0 0.0 
0.0 0.0 0.0 
0.0 0.0 0.0 
0.0 0.0 0.0 
0.0 0.0 0.0 
0.0 0.0 0.0 
0.0 0.0 0.0 
0.0 0.0 0.0 
0.0 0.0 0.0 
0.0 0.0 0.0 
0.0 0.0 0.0 
0.0 0.0 0.0 
0.0 0.0 0.0 
0.0 0.0 0.0 
0.0 0.0 0.0 
0.0 0.0 0.0 
0.0 0.0 0.0 
0.0 0.0 0.0 
0.0 0.0 0.0 
0.0 0.0 0.0 
0.0 0.0 0.0 
0.0 0.0 0.0 
0.0 0.0 0.0 
0.0 0.0 0.0 
0.0 0.0 0.0 
0.0 0.0 0.0 
0.0 0.0 0.0 
0.0 0.0 0.0 
0.0 0.0 0.0 
0.0 0.0 0.0 
0.0 0.0 0.0 
0.0 0.0 0.0 
0.0 0.0 0.0 
0.0 0.0 0.0 
0.0 0.0 0.0 
0.0 0.0 0.0 
0.0 0.0 0.0 
0.0 0.0 0.0 
0.0 0.0 0.0 
0.0 0.0 0.0 
0.0 0.0 0.0 
0.0 0.0 0.0 
0.0 0.0 0.0 
0.0 0.0 0.0 
0.0 0.0 0.0 
0.0 0.0 0.0 
0.0 0.0 0.0 
0.0 0.0 0.0 
0.0 0.0 0.0 
0.0 0.0 0.0 
0.0 0.0 0.0 
0.0 0.0 0.0 
0.0 0.0 0.0 
0.0 0.0 0.0 
0.0 0.0 0.0 
0.0 0.0 0.0 
0.0 0.0 0.0 
0.0 0.0 0.0 
0.0 0.0 0.0 
0.0 0.0 0.0 
0.0 0.0 0.0 
0.0 0.0 0.0 
0.0 0.0 0.0 
0.0 0.0 0.0 
0.0 0.0 0.0 
0.0 0.0 0.0 
0.0 0.0 0.0 
0.0 0.0 0.0 
0.0 0.0 0.0 
0.0 0.0 0.0 
0.0 0.0 0.0 
0.0 0.0 0.0 
0.0 0.0 0.0 
0.0 0.0 0.0 
0.0 0.0 0.0 
0.0 0.0 0.0 
0.0 0.0 0.0 
0.0 0.0 0.0 
0.0 0.0 0.0 
0.0 0.0 0.0 
0.0 0.0 0.0 
0.0 0.0 0.0 
0.0 0.0 0.0 
0.0 0.0 0.0 
0.0 0.0 0.0 
0.0 0.0 0.0 
0.0 0.0 0.0 
0.0 0.0 0.0 
0.0 0.0 0.0 
0.0 0.0 0.0 
0.0 0.0 0.0 
0.0 0.0 0.0 
0.0 0.0 0.0 
0.0 0.0 0.0 
0.0 0.0 0.0 
0.0 0.0 0.0 
0.0 0.0 0.0 
0.0 0.0 0.0 
0.0 0.0 0.0 
0.0 0.0 0.0 
0.0 0.0 0.0 
0.0 0.0 0.0 
0.0 0.0 0.0 
0.0 0.0 0.0 
0.0 0.0 0.0 
0.0 0.0 0.0 
0.0 0.0 0.0 
0.0 0.0 0.0 
0.0 0.0 0.0 
0.0 0.0 0.0 
0.0 0.0 0.0 
0.0 0.0 0.0 
0.0 0.0 0.0 
0.0 0.0 0.0 
0.0 0.0 0.0 
0.0 0.0 0.0 
0.0 0.0 0.0 
0.0 0.0 0.0 
0.0 0.0 0.0 
0.0 0.0 0.0 
0.0 0.0 0.0 
0.0 0.0 0.0 
0.0 0.0 0.0 
0.0 0.0 0.0 
0.0 0.0 0.0 
0.0 0.0 0.0 
0.0 0.0 0.0 
0.0 0.0 0.0 
0.0 0.0 0.0 
0.0 0.0 0.0 
0.0 0.0 0.0 
0.0 0.0 0.0 
0.0 0.0 0.0 
0.0 0.0 0.0 
0.0 0.0 0.0 
0.0 0.0 0.0 
0.0 0.0 0.0 
0.0 0.0 0.0 
0.0 0.0 0.0 
0.0 0.0 0.0 
0.0 0.0 0.0 
0.0 0.0 0.0 
0.0 0.0 0.0 
0.0 0.0 0.0 
0.0 0.0 0.0 
0.0 0.0 0.0 
0.0 0.0 0.0 
0.0 0.0 0.0 
0.0 0.0 0.0 
0.0 0.0 0.0 
0.0 0.0 0.0 
0.0 0.0 0.0 
0.0 0.0 0.0 
0.0 0.0 0.0 
0.0 0.0 0.0 
0.0 0.0 0.0 
0.0 0.0 0.0 
0.0 0.0 0.0 
0.0 0.0 0.0 
0.0 0.0 0.0 
0.0 0.0 0.0 
0.0 0.0 0.0 
0.0 0.0 0.0 
0.0 0.0 0.0 
0.0 0.0 0.0 
0.0 0.0 0.0 
0.0 0.0 0.0 
0.0 0.0 0.0 
0.0 0.0 0.0 
0.0 0.0 0.0 
0.0 0.0 0.0 
0.0 0.0 0.0 
0.0 0.0 0.0 
0.0 0.0 0.0 
0.0 0.0 0.0 
0.0 0.0 0.0 
0.0 0.0 0.0 
0.0 0.0 0.0 
0.0 0.0 0.0 
0.0 0.0 0.0 
0.0 0.0 0.0 
0.0 0.0 0.0 
0.0 0.0 0.0 
0.0 0.0 0.0 
0.0 0.0 0.0 
0.0 0.0 0.0 
0.0 0.0 0.0 
0.0 0.0 0.0 
0.0 0.0 0.0 
0.0 0.0 0.0 
0.0 0.0 0.0 
0.0 0.0 0.0 
0.0 0.0 0.0 
0.0 0.0 0.0 
0.0 0.0 0.0 
0.0 0.0 0.0 
0.0 0.0 0.0 
0.0 0.0 0.0 
0.0 0.0 0.0 
0.0 0.0 0.0 
0.0 0.0 0.0 
0.0 0.0 0.0 
0.0 0.0 0.0 
0.0 0.0 0.0 
0.0 0.0 0.0 
0.0 0.0 0.0 
0.0 0.0 0.0 
0.0 0.0 0.0 
0.0 0.0 0.0 
0.0 0.0 0.0 
0.0 0.0 0.0 
0.0 0.0 0.0 
0.0 0.0 0.0 
0.0 0.0 0.0 
0.0 0.0 0.0 
0.0 0.0 0.0 
0.0 0.0 0.0 
0.0 0.0 0.0 
0.0 0.0 0.0 
0.0 0.0 0.0 
0.0 0.0 0.0 
0.0 0.0 0.0 
0.0 0.0 0.0 
0.0 0.0 0.0 
0.0 0.0 0.0 
0.0 0.0 0.0 
0.0 0.0 0.0 
0.0 0.0 0.0 
0.0 0.0 0.0 
0.0 0.0 0.0 
0.0 0.0 0.0 
0.0 0.0 0.0 
0.0 0.0 0.0 
0.0 0.0 0.0 
0.0 0.0 0.0 
0.0 0.0 0.0 
0.0 0.0 0.0 
0.0 0.0 0.0 
0.0 0.0 0.0 
0.0 0.0 0.0 
0.0 0.0 0.0 
0.0 0.0 0.0 
0.0 0.0 0.0 
0.0 0.0 0.0 
0.0 0.0 0.0 
0.0 0.0 0.0 
0.0 0.0 0.0 
0.0 0.0 0.0 
0.0 0.0 0.0 
0.0 0.0 0.0 
0.0 0.0 0.0 
0.0 0.0 0.0 
0.0 0.0 0.0 
0.0 0.0 0.0 
0.0 0.0 0.0 
0.0 0.0 0.0 
0.0 0.0 0.0 
0.0 0.0 0.0 
0.0 0.0 0.0 
0.0 0.0 0.0 
0.0 0.0 0.0 
0.0 0.0 0.0 
0.0 0.0 0.0 
0.0 0.0 0.0 
0.0 0.0 0.0 
0.0 0.0 0.0 
0.0 0.0 0.0 
0.0 0.0 0.0 
0.0 0.0 0.0 
0.0 0.0 0.0 
0.0 0.0 0.0 
0.0 0.0 0.0 
0.0 0.0 0.0 
0.0 0.0 0.0 
0.0 0.0 0.0 
0.0 0.0 0.0 
0.0 0.0 0.0 
0.0 0.0 0.0 
0.0 0.0 0.0 
0.0 0.0 0.0 
0.0 0.0 0.0 
0.0 0.0 0.0 
0.0 0.0 0.0 
0.0 0.0 0.0 
0.0 0.0 0.0 
0.0 0.0 0.0 
0.0 0.0 0.0 
0.0 0.0 0.0 
0.0 0.0 0.0 
0.0 0.0 0.0 
0.0 0.0 0.0 
0.0 0.0 0.0 
0.0 0.0 0.0 
0.0 0.0 0.0 
0.0 0.0 0.0 
0.0 0.0 0.0 
0.0 0.0 0.0 
0.0 0.0 0.0 
0.0 0.0 0.0 
0.0 0.0 0.0 
0.0 0.0 0.0 
0.0 0.0 0.0 
0.0 0.0 0.0 
0.0 0.0 0.0 
0.0 0.0 0.0 
0.0 0.0 0.0 
0.0 0.0 0.0 
0.0 0.0 0.0 
0.0 0.0 0.0 
0.0 0.0 0.0 
0.0 0.0 0.0 
0.0 0.0 0.0 
0.0 0.0 0.0 
0.0 0.0 0.0 
0.0 0.0 0.0 
0.0 0.0 0.0 
0.0 0.0 0.0 
0.0 0.0 0.0 
0.0 0.0 0.0 
0.0 0.0 0.0 
0.0 0.0 0.0 
0.0 0.0 0.0 
0.0 0.0 0.0 
0.0 0.0 0.0 
0.0 0.0 0.0 
0.0 0.0 0.0 
0.0 0.0 0.0 
0.0 0.0 0.0 
0.0 0.0 0.0 
0.0 0.0 0.0 
0.0 0.0 0.0 
0.0 0.0 0.0 
0.0 0.0 0.0 
0.0 0.0 0.0 
0.0 0.0 0.0 
0.0 0.0 0.0 
0.0 0.0 0.0 
0.0 0.0 0.0 
0.0 0.0 0.0 
0.0 0.0 0.0 
0.0 0.0 0.0 
0.0 0.0 0.0 
0.0 0.0 0.0 
0.0 0.0 0.0 
0.0 0.0 0.0 
0.0 0.0 0.0 
0.0 0.0 0.0 
0.0 0.0 0.0 
0.0 0.0 0.0 
0.0 0.0 0.0 
0.0 0.0 0.0 
0.0 0.0 0.0 
0.0 0.0 0.0 
0.0 0.0 0.0 
0.0 0.0 0.0 
0.0 0.0 0.0 
0.0 0.0 0.0 
0.0 0.0 0.0 
0.0 0.0 0.0 
0.0 0.0 0.0 
0.0 0.0 0.0 
0.0 0.0 0.0 
0.0 0.0 0.0 
0.0 0.0 0.0 
0.0 0.0 0.0 
0.0 0.0 0.0 
0.0 0.0 0.0 
0.0 0.0 0.0 
0.0 0.0 0.0 
0.0 0.0 0.0 
0.0 0.0 0.0 
0.0 0.0 0.0 
0.0 0.0 0.0 
0.0 0.0 0.0 
0.0 0.0 0.0 
0.0 0.0 0.0 
0.0 0.0 0.0 
0.0 0.0 0.0 
0.0 0.0 0.0 
0.0 0.0 0.0 
0.0 0.0 0.0 
0.0 0.0 0.0 
0.0 0.0 0.0 
0.0 0.0 0.0 
0.0 0.0 0.0 
0.0 0.0 0.0 
0.0 0.0 0.0 
0.0 0.0 0.0 
0.0 0.0 0.0 
0.0 0.0 0.0 
0.0 0.0 0.0 
0.0 0.0 0.0 
0.0 0.0 0.0 
0.0 0.0 0.0 
0.0 0.0 0.0 
0.0 0.0 0.0 
0.0 0.0 0.0 
0.0 0.0 0.0 
0.0 0.0 0.0 
0.0 0.0 0.0 
0.0 0.0 0.0 
0.0 0.0 0.0 
0.0 0.0 0.0 
0.0 0.0 0.0 
0.0 0.0 0.0 
0.0 0.0 0.0 
0.0 0.0 0.0 
0.0 0.0 0.0 
0.0 0.0 0.0 
0.0 0.0 0.0 
0.0 0.0 0.0 
0.0 0.0 0.0 
0.0 0.0 0.0 
0.0 0.0 0.0 
0.0 0.0 0.0 
0.0 0.0 0.0 
0.0 0.0 0.0 
0.0 0.0 0.0 
0.0 0.0 0.0 
0.0 0.0 0.0 
0.0 0.0 0.0 
0.0 0.0 0.0 
0.0 0.0 0.0 
0.0 0.0 0.0 
0.0 0.0 0.0 
0.0 0.0 0.0 
0.0 0.0 0.0 
0.0 0.0 0.0 
0.0 0.0 0.0 
0.0 0.0 0.0 
0.0 0.0 0.0 
0.0 0.0 0.0 
0.0 0.0 0.0 
0.0 0.0 0.0 
0.0 0.0 0.0 
0.0 0.0 0.0 
0.0 0.0 0.0 
0.0 0.0 0.0 
0.0 0.0 0.0 
0.0 0.0 0.0 
0.0 0.0 0.0 
0.0 0.0 0.0 
0.0 0.0 0.0 
0.0 0.0 0.0 
0.0 0.0 0.0 
0.0 0.0 0.0 
0.0 0.0 0.0 
0.0 0.0 0.0 
0.0 0.0 0.0 
0.0 0.0 0.0 
0.0 0.0 0.0 
0.0 0.0 0.0 
0.0 0.0 0.0 
0.0 0.0 0.0 
0.0 0.0 0.0 
0.0 0.0 0.0 
0.0 0.0 0.0 
0.0 0.0 0.0 
0.0 0.0 0.0 
0.0 0.0 0.0 
0.0 0.0 0.0 
0.0 0.0 0.0 
0.0 0.0 0.0 
0.0 0.0 0.0 
0.0 0.0 0.0 
0.0 0.0 0.0 
0.0 0.0 0.0 
0.0 0.0 0.0 
0.0 0.0 0.0 
0.0 0.0 0.0 
0.0 0.0 0.0 
0.0 0.0 0.0 
0.0 0.0 0.0 
0.0 0.0 0.0 
0.0 0.0 0.0 
0.0 0.0 0.0 
0.0 0.0 0.0 
0.0 0.0 0.0 
0.0 0.0 0.0 
0.0 0.0 0.0 
0.0 0.0 0.0 
0.0 0.0 0.0 
0.0 0.0 0.0 
0.0 0.0 0.0 
0.0 0.0 0.0 
0.0 0.0 0.0 
0.0 0.0 0.0 
0.0 0.0 0.0 
0.0 0.0 0.0 
0.0 0.0 0.0 
0.0 0.0 0.0 
0.0 0.0 0.0 
0.0 0.0 0.0 
0.0 0.0 0.0 
0.0 0.0 0.0 
0.0 0.0 0.0 
0.0 0.0 0.0 
0.0 0.0 0.0 
0.0 0.0 0.0 
0.0 0.0 0.0 
0.0 0.0 0.0 
0.0 0.0 0.0 
0.0 0.0 0.0 
0.0 0.0 0.0 
0.0 0.0 0.0 
0.0 0.0 0.0 
0.0 0.0 0.0 
0.0 0.0 0.0 
0.0 0.0 0.0 
0.0 0.0 0.0 
0.0 0.0 0.0 
0.0 0.0 0.0 
0.0 0.0 0.0 
0.0 0.0 0.0 
0.0 0.0 0.0 
0.0 0.0 0.0 
0.0 0.0 0.0 
0.0 0.0 0.0 
0.0 0.0 0.0 
0.0 0.0 0.0 
0.0 0.0 0.0 
0.0 0.0 0.0 
0.0 0.0 0.0 
0.0 0.0 0.0 
0.0 0.0 0.0 
0.0 0.0 0.0 
0.0 0.0 0.0 
0.0 0.0 0.0 
0.0 0.0 0.0 
0.0 0.0 0.0 
0.0 0.0 0.0 
0.0 0.0 0.0 
0.0 0.0 0.0 
0.0 0.0 0.0 
0.0 0.0 0.0 
0.0 0.0 0.0 
0.0 0.0 0.0 
0.0 0.0 0.0 
0.0 0.0 0.0 
0.0 0.0 0.0 
0.0 0.0 0.0 
0.0 0.0 0.0 
0.0 0.0 0.0 
0.0 0.0 0.0 
0.0 0.0 0.0 
0.0 0.0 0.0 
0.0 0.0 0.0 
0.0 0.0 0.0 
0.0 0.0 0.0 
0.0 0.0 0.0 
0.0 0.0 0.0 
0.0 0.0 0.0 
0.0 0.0 0.0 
0.0 0.0 0.0 
0.0 0.0 0.0 
0.0 0.0 0.0 
0.0 0.0 0.0 
0.0 0.0 0.0 
0.0 0.0 0.0 
0.0 0.0 0.0 
0.0 0.0 0.0 
0.0 0.0 0.0 
0.0 0.0 0.0 
0.0 0.0 0.0 
0.0 0.0 0.0 
0.0 0.0 0.0 
0.0 0.0 0.0 
0.0 0.0 0.0 
0.0 0.0 0.0 
0.0 0.0 0.0 
0.0 0.0 0.0 
0.0 0.0 0.0 
0.0 0.0 0.0 
0.0 0.0 0.0 
0.0 0.0 0.0 
0.0 0.0 0.0 
0.0 0.0 0.0 
0.0 0.0 0.0 
0.0 0.0 0.0 
0.0 0.0 0.0 
0.0 0.0 0.0 
0.0 0.0 0.0 
0.0 0.0 0.0 
0.0 0.0 0.0 
0.0 0.0 0.0 
0.0 0.0 0.0 
0.0 0.0 0.0 
0.0 0.0 0.0 
0.0 0.0 0.0 
0.0 0.0 0.0 
0.0 0.0 0.0 
0.0 0.0 0.0 
0.0 0.0 0.0 
0.0 0.0 0.0 
0.0 0.0 0.0 
0.0 0.0 0.0 
0.0 0.0 0.0 
0.0 0.0 0.0 
0.0 0.0 0.0 
0.0 0.0 0.0 
0.0 0.0 0.0 
0.0 0.0 0.0 
0.0 0.0 0.0 
0.0 0.0 0.0 
0.0 0.0 0.0 
0.0 0.0 0.0 
0.0 0.0 0.0 
0.0 0.0 0.0 
0.0 0.0 0.0 
0.0 0.0 0.0 
0.0 0.0 0.0 
0.0 0.0 0.0 
0.0 0.0 0.0 
0.0 0.0 0.0 
0.0 0.0 0.0 
0.0 0.0 0.0 
0.0 0.0 0.0 
0.0 0.0 0.0 
0.0 0.0 0.0 
0.0 0.0 0.0 
0.0 0.0 0.0 
0.0 0.0 0.0 
0.0 0.0 0.0 
0.0 0.0 0.0 
0.0 0.0 0.0 
0.0 0.0 0.0 
0.0 0.0 0.0 
0.0 0.0 0.0 
0.0 0.0 0.0 
0.0 0.0 0.0 
0.0 0.0 0.0 
0.0 0.0 0.0 
0.0 0.0 0.0 
0.0 0.0 0.0 
0.0 0.0 0.0 
0.0 0.0 0.0 
0.0 0.0 0.0 
0.0 0.0 0.0 
0.0 0.0 0.0 
0.0 0.0 0.0 
0.0 0.0 0.0 
0.0 0.0 0.0 
0.0 0.0 0.0 
0.0 0.0 0.0 
0.0 0.0 0.0 
0.0 0.0 0.0 
0.0 0.0 0.0 
0.0 0.0 0.0 
0.0 0.0 0.0 
0.0 0.0 0.0 
0.0 0.0 0.0 
0.0 0.0 0.0 
0.0 0.0 0.0 
0.0 0.0 0.0 
0.0 0.0 0.0 
0.0 0.0 0.0 
0.0 0.0 0.0 
0.0 0.0 0.0 
0.0 0.0 0.0 
0.0 0.0 0.0 
0.0 0.0 0.0 

VECTORS node_force_gravity float
0.0 -1.962000000000e+01 0.0 
0.0 -1.962000000000e+01 0.0 
0.0 -1.962000000000e+01 0.0 
0.0 -1.962000000000e+01 0.0 
0.0 -1.962000000000e+01 0.0 
0.0 -1.962000000000e+01 0.0 
0.0 -1.962000000000e+01 0.0 
0.0 -1.962000000000e+01 0.0 
0.0 -1.962000000000e+01 0.0 
0.0 -1.962000000000e+01 0.0 
0.0 -1.962000000000e+01 0.0 
0.0 -1.962000000000e+01 0.0 
0.0 -1.962000000000e+01 0.0 
0.0 -1.962000000000e+01 0.0 
0.0 -1.962000000000e+01 0.0 
0.0 -1.962000000000e+01 0.0 
0.0 -1.962000000000e+01 0.0 
0.0 -1.962000000000e+01 0.0 
0.0 -1.962000000000e+01 0.0 
0.0 -1.962000000000e+01 0.0 
0.0 -1.962000000000e+01 0.0 
0.0 -1.962000000000e+01 0.0 
0.0 -1.962000000000e+01 0.0 
0.0 -1.962000000000e+01 0.0 
0.0 -1.962000000000e+01 0.0 
0.0 -1.962000000000e+01 0.0 
0.0 -1.962000000000e+01 0.0 
0.0 -1.962000000000e+01 0.0 
0.0 -1.962000000000e+01 0.0 
0.0 -1.962000000000e+01 0.0 
0.0 -1.962000000000e+01 0.0 
0.0 -1.962000000000e+01 0.0 
0.0 -1.962000000000e+01 0.0 
0.0 -1.962000000000e+01 0.0 
0.0 -1.962000000000e+01 0.0 
0.0 -1.962000000000e+01 0.0 
0.0 -1.962000000000e+01 0.0 
0.0 -1.962000000000e+01 0.0 
0.0 -1.962000000000e+01 0.0 
0.0 -1.962000000000e+01 0.0 
0.0 -1.962000000000e+01 0.0 
0.0 -1.962000000000e+01 0.0 
0.0 -1.962000000000e+01 0.0 
0.0 -1.962000000000e+01 0.0 
0.0 -1.962000000000e+01 0.0 
0.0 -1.962000000000e+01 0.0 
0.0 -1.962000000000e+01 0.0 
0.0 -1.962000000000e+01 0.0 
0.0 -1.962000000000e+01 0.0 
0.0 -1.962000000000e+01 0.0 
0.0 -1.962000000000e+01 0.0 
0.0 -1.962000000000e+01 0.0 
0.0 -1.962000000000e+01 0.0 
0.0 -1.962000000000e+01 0.0 
0.0 -1.962000000000e+01 0.0 
0.0 -1.962000000000e+01 0.0 
0.0 -1.962000000000e+01 0.0 
0.0 -1.962000000000e+01 0.0 
0.0 -1.962000000000e+01 0.0 
0.0 -1.962000000000e+01 0.0 
0.0 -1.962000000000e+01 0.0 
0.0 -1.962000000000e+01 0.0 
0.0 -1.962000000000e+01 0.0 
0.0 -1.962000000000e+01 0.0 
0.0 -1.962000000000e+01 0.0 
0.0 -1.962000000000e+01 0.0 
0.0 -1.962000000000e+01 0.0 
0.0 -1.962000000000e+01 0.0 
0.0 -1.962000000000e+01 0.0 
0.0 -1.962000000000e+01 0.0 
0.0 -1.962000000000e+01 0.0 
0.0 -1.962000000000e+01 0.0 
0.0 -1.962000000000e+01 0.0 
0.0 -1.962000000000e+01 0.0 
0.0 -1.962000000000e+01 0.0 
0.0 -1.962000000000e+01 0.0 
0.0 -1.962000000000e+01 0.0 
0.0 -1.962000000000e+01 0.0 
0.0 -1.962000000000e+01 0.0 
0.0 -1.962000000000e+01 0.0 
0.0 -1.962000000000e+01 0.0 
0.0 -1.962000000000e+01 0.0 
0.0 -1.962000000000e+01 0.0 
0.0 -1.962000000000e+01 0.0 
0.0 -1.962000000000e+01 0.0 
0.0 -1.962000000000e+01 0.0 
0.0 -1.962000000000e+01 0.0 
0.0 -1.962000000000e+01 0.0 
0.0 -1.962000000000e+01 0.0 
0.0 -1.962000000000e+01 0.0 
0.0 -1.962000000000e+01 0.0 
0.0 -1.962000000000e+01 0.0 
0.0 -1.962000000000e+01 0.0 
0.0 -1.962000000000e+01 0.0 
0.0 -1.962000000000e+01 0.0 
0.0 -1.962000000000e+01 0.0 
0.0 -1.962000000000e+01 0.0 
0.0 -1.962000000000e+01 0.0 
0.0 -1.962000000000e+01 0.0 
0.0 -1.962000000000e+01 0.0 
0.0 -1.962000000000e+01 0.0 
0.0 -1.962000000000e+01 0.0 
0.0 -1.962000000000e+01 0.0 
0.0 -1.962000000000e+01 0.0 
0.0 -1.962000000000e+01 0.0 
0.0 -1.962000000000e+01 0.0 
0.0 -1.962000000000e+01 0.0 
0.0 -1.962000000000e+01 0.0 
0.0 -1.962000000000e+01 0.0 
0.0 -1.962000000000e+01 0.0 
0.0 -1.962000000000e+01 0.0 
0.0 -1.962000000000e+01 0.0 
0.0 -1.962000000000e+01 0.0 
0.0 -1.962000000000e+01 0.0 
0.0 -1.962000000000e+01 0.0 
0.0 -1.962000000000e+01 0.0 
0.0 -1.962000000000e+01 0.0 
0.0 -1.962000000000e+01 0.0 
0.0 -1.962000000000e+01 0.0 
0.0 -1.962000000000e+01 0.0 
0.0 -1.962000000000e+01 0.0 
0.0 -1.962000000000e+01 0.0 
0.0 -1.962000000000e+01 0.0 
0.0 -1.962000000000e+01 0.0 
0.0 -1.962000000000e+01 0.0 
0.0 -1.962000000000e+01 0.0 
0.0 -1.962000000000e+01 0.0 
0.0 -1.962000000000e+01 0.0 
0.0 -1.962000000000e+01 0.0 
0.0 -1.962000000000e+01 0.0 
0.0 -1.962000000000e+01 0.0 
0.0 -1.962000000000e+01 0.0 
0.0 -1.962000000000e+01 0.0 
0.0 -1.962000000000e+01 0.0 
0.0 -1.962000000000e+01 0.0 
0.0 -1.962000000000e+01 0.0 
0.0 -1.962000000000e+01 0.0 
0.0 -1.962000000000e+01 0.0 
0.0 -1.962000000000e+01 0.0 
0.0 -1.962000000000e+01 0.0 
0.0 -1.962000000000e+01 0.0 
0.0 -1.962000000000e+01 0.0 
0.0 -1.962000000000e+01 0.0 
0.0 -1.962000000000e+01 0.0 
0.0 -1.962000000000e+01 0.0 
0.0 -1.962000000000e+01 0.0 
0.0 -1.962000000000e+01 0.0 
0.0 -1.962000000000e+01 0.0 
0.0 -1.962000000000e+01 0.0 
0.0 -1.962000000000e+01 0.0 
0.0 -1.962000000000e+01 0.0 
0.0 -1.962000000000e+01 0.0 
0.0 -1.962000000000e+01 0.0 
0.0 -1.962000000000e+01 0.0 
0.0 -1.962000000000e+01 0.0 
0.0 -1.962000000000e+01 0.0 
0.0 -1.962000000000e+01 0.0 
0.0 -1.962000000000e+01 0.0 
0.0 -1.962000000000e+01 0.0 
0.0 -1.962000000000e+01 0.0 
0.0 -1.962000000000e+01 0.0 
0.0 -1.962000000000e+01 0.0 
0.0 -1.962000000000e+01 0.0 
0.0 -1.962000000000e+01 0.0 
0.0 -1.962000000000e+01 0.0 
0.0 -1.962000000000e+01 0.0 
0.0 -1.962000000000e+01 0.0 
0.0 -1.962000000000e+01 0.0 
0.0 -1.962000000000e+01 0.0 
0.0 -1.962000000000e+01 0.0 
0.0 -1.962000000000e+01 0.0 
0.0 -1.962000000000e+01 0.0 
0.0 -1.962000000000e+01 0.0 
0.0 -1.962000000000e+01 0.0 
0.0 -1.962000000000e+01 0.0 
0.0 -1.962000000000e+01 0.0 
0.0 -1.962000000000e+01 0.0 
0.0 -1.962000000000e+01 0.0 
0.0 -1.962000000000e+01 0.0 
0.0 -1.962000000000e+01 0.0 
0.0 -1.962000000000e+01 0.0 
0.0 -1.962000000000e+01 0.0 
0.0 -1.962000000000e+01 0.0 
0.0 -1.962000000000e+01 0.0 
0.0 -1.962000000000e+01 0.0 
0.0 -1.962000000000e+01 0.0 
0.0 -1.962000000000e+01 0.0 
0.0 -1.962000000000e+01 0.0 
0.0 -1.962000000000e+01 0.0 
0.0 -1.962000000000e+01 0.0 
0.0 -1.962000000000e+01 0.0 
0.0 -1.962000000000e+01 0.0 
0.0 -1.962000000000e+01 0.0 
0.0 -1.962000000000e+01 0.0 
0.0 -1.962000000000e+01 0.0 
0.0 -1.962000000000e+01 0.0 
0.0 -1.962000000000e+01 0.0 
0.0 -1.962000000000e+01 0.0 
0.0 -1.962000000000e+01 0.0 
0.0 -1.962000000000e+01 0.0 
0.0 -1.962000000000e+01 0.0 
0.0 -1.962000000000e+01 0.0 
0.0 -1.962000000000e+01 0.0 
0.0 -1.962000000000e+01 0.0 
0.0 -1.962000000000e+01 0.0 
0.0 -1.962000000000e+01 0.0 
0.0 -1.962000000000e+01 0.0 
0.0 -1.962000000000e+01 0.0 
0.0 -1.962000000000e+01 0.0 
0.0 -1.962000000000e+01 0.0 
0.0 -1.962000000000e+01 0.0 
0.0 -1.962000000000e+01 0.0 
0.0 -1.962000000000e+01 0.0 
0.0 -1.962000000000e+01 0.0 
0.0 -1.962000000000e+01 0.0 
0.0 -1.962000000000e+01 0.0 
0.0 -1.962000000000e+01 0.0 
0.0 -1.962000000000e+01 0.0 
0.0 -1.962000000000e+01 0.0 
0.0 -1.962000000000e+01 0.0 
0.0 -1.962000000000e+01 0.0 
0.0 -1.962000000000e+01 0.0 
0.0 -1.962000000000e+01 0.0 
0.0 -1.962000000000e+01 0.0 
0.0 -1.962000000000e+01 0.0 
0.0 -1.962000000000e+01 0.0 
0.0 -1.962000000000e+01 0.0 
0.0 -1.962000000000e+01 0.0 
0.0 -1.962000000000e+01 0.0 
0.0 -1.962000000000e+01 0.0 
0.0 -1.962000000000e+01 0.0 
0.0 -1.962000000000e+01 0.0 
0.0 -1.962000000000e+01 0.0 
0.0 -1.962000000000e+01 0.0 
0.0 -1.962000000000e+01 0.0 
0.0 -1.962000000000e+01 0.0 
0.0 -1.962000000000e+01 0.0 
0.0 -1.962000000000e+01 0.0 
0.0 -1.962000000000e+01 0.0 
0.0 -1.962000000000e+01 0.0 
0.0 -1.962000000000e+01 0.0 
0.0 -1.962000000000e+01 0.0 
0.0 -1.962000000000e+01 0.0 
0.0 -1.962000000000e+01 0.0 
0.0 -1.962000000000e+01 0.0 
0.0 -1.962000000000e+01 0.0 
0.0 -1.962000000000e+01 0.0 
0.0 -1.962000000000e+01 0.0 
0.0 -1.962000000000e+01 0.0 
0.0 -1.962000000000e+01 0.0 
0.0 -1.962000000000e+01 0.0 
0.0 -1.962000000000e+01 0.0 
0.0 -1.962000000000e+01 0.0 
0.0 -1.962000000000e+01 0.0 
0.0 -1.962000000000e+01 0.0 
0.0 -1.962000000000e+01 0.0 
0.0 -1.962000000000e+01 0.0 
0.0 -1.962000000000e+01 0.0 
0.0 -1.962000000000e+01 0.0 
0.0 -1.962000000000e+01 0.0 
0.0 -1.962000000000e+01 0.0 
0.0 -1.962000000000e+01 0.0 
0.0 -1.962000000000e+01 0.0 
0.0 -1.962000000000e+01 0.0 
0.0 -1.962000000000e+01 0.0 
0.0 -1.962000000000e+01 0.0 
0.0 -1.962000000000e+01 0.0 
0.0 -1.962000000000e+01 0.0 
0.0 -1.962000000000e+01 0.0 
0.0 -1.962000000000e+01 0.0 
0.0 -1.962000000000e+01 0.0 
0.0 -1.962000000000e+01 0.0 
0.0 -1.962000000000e+01 0.0 
0.0 -1.962000000000e+01 0.0 
0.0 -1.962000000000e+01 0.0 
0.0 -1.962000000000e+01 0.0 
0.0 -1.962000000000e+01 0.0 
0.0 -1.962000000000e+01 0.0 
0.0 -1.962000000000e+01 0.0 
0.0 -1.962000000000e+01 0.0 
0.0 -1.962000000000e+01 0.0 
0.0 -1.962000000000e+01 0.0 
0.0 -1.962000000000e+01 0.0 
0.0 -1.962000000000e+01 0.0 
0.0 -1.962000000000e+01 0.0 
0.0 -1.962000000000e+01 0.0 
0.0 -1.962000000000e+01 0.0 
0.0 -1.962000000000e+01 0.0 
0.0 -1.962000000000e+01 0.0 
0.0 -1.962000000000e+01 0.0 
0.0 -1.962000000000e+01 0.0 
0.0 -1.962000000000e+01 0.0 
0.0 -1.962000000000e+01 0.0 
0.0 -1.962000000000e+01 0.0 
0.0 -1.962000000000e+01 0.0 
0.0 -1.962000000000e+01 0.0 
0.0 -1.962000000000e+01 0.0 
0.0 -1.962000000000e+01 0.0 
0.0 -1.962000000000e+01 0.0 
0.0 -1.962000000000e+01 0.0 
0.0 -1.962000000000e+01 0.0 
0.0 -1.962000000000e+01 0.0 
0.0 -1.962000000000e+01 0.0 
0.0 -1.962000000000e+01 0.0 
0.0 -1.962000000000e+01 0.0 
0.0 -1.962000000000e+01 0.0 
0.0 -1.962000000000e+01 0.0 
0.0 -1.962000000000e+01 0.0 
0.0 -1.962000000000e+01 0.0 
0.0 -1.962000000000e+01 0.0 
0.0 -1.962000000000e+01 0.0 
0.0 -1.962000000000e+01 0.0 
0.0 -1.962000000000e+01 0.0 
0.0 -1.962000000000e+01 0.0 
0.0 -1.962000000000e+01 0.0 
0.0 -1.962000000000e+01 0.0 
0.0 -1.962000000000e+01 0.0 
0.0 -1.962000000000e+01 0.0 
0.0 -1.962000000000e+01 0.0 
0.0 -1.962000000000e+01 0.0 
0.0 -1.962000000000e+01 0.0 
0.0 -1.962000000000e+01 0.0 
0.0 -1.962000000000e+01 0.0 
0.0 -1.962000000000e+01 0.0 
0.0 -1.962000000000e+01 0.0 
0.0 -1.962000000000e+01 0.0 
0.0 -1.962000000000e+01 0.0 
0.0 -1.962000000000e+01 0.0 
0.0 -1.962000000000e+01 0.0 
0.0 -1.962000000000e+01 0.0 
0.0 -1.962000000000e+01 0.0 
0.0 -1.962000000000e+01 0.0 
0.0 -1.962000000000e+01 0.0 
0.0 -1.962000000000e+01 0.0 
0.0 -1.962000000000e+01 0.0 
0.0 -1.962000000000e+01 0.0 
0.0 -1.962000000000e+01 0.0 
0.0 -1.962000000000e+01 0.0 
0.0 -1.962000000000e+01 0.0 
0.0 -1.962000000000e+01 0.0 
0.0 -1.962000000000e+01 0.0 
0.0 -1.962000000000e+01 0.0 
0.0 -1.962000000000e+01 0.0 
0.0 -1.962000000000e+01 0.0 
0.0 -1.962000000000e+01 0.0 
0.0 -1.962000000000e+01 0.0 
0.0 -1.962000000000e+01 0.0 
0.0 -1.962000000000e+01 0.0 
0.0 -1.962000000000e+01 0.0 
0.0 -1.962000000000e+01 0.0 
0.0 -1.962000000000e+01 0.0 
0.0 -1.962000000000e+01 0.0 
0.0 -1.962000000000e+01 0.0 
0.0 -1.962000000000e+01 0.0 
0.0 -1.962000000000e+01 0.0 
0.0 -1.962000000000e+01 0.0 
0.0 -1.962000000000e+01 0.0 
0.0 -1.962000000000e+01 0.0 
0.0 -1.962000000000e+01 0.0 
0.0 -1.962000000000e+01 0.0 
0.0 -1.962000000000e+01 0.0 
0.0 -1.962000000000e+01 0.0 
0.0 -1.962000000000e+01 0.0 
0.0 -1.962000000000e+01 0.0 
0.0 -1.962000000000e+01 0.0 
0.0 -1.962000000000e+01 0.0 
0.0 -1.962000000000e+01 0.0 
0.0 -1.962000000000e+01 0.0 
0.0 -1.962000000000e+01 0.0 
0.0 -1.962000000000e+01 0.0 
0.0 -1.962000000000e+01 0.0 
0.0 -1.962000000000e+01 0.0 
0.0 -1.962000000000e+01 0.0 
0.0 -1.962000000000e+01 0.0 
0.0 -1.962000000000e+01 0.0 
0.0 -1.962000000000e+01 0.0 
0.0 -1.962000000000e+01 0.0 
0.0 -1.962000000000e+01 0.0 
0.0 -1.962000000000e+01 0.0 
0.0 -1.962000000000e+01 0.0 
0.0 -1.962000000000e+01 0.0 
0.0 -1.962000000000e+01 0.0 
0.0 -1.962000000000e+01 0.0 
0.0 -1.962000000000e+01 0.0 
0.0 -1.962000000000e+01 0.0 
0.0 -1.962000000000e+01 0.0 
0.0 -1.962000000000e+01 0.0 
0.0 -1.962000000000e+01 0.0 
0.0 -1.962000000000e+01 0.0 
0.0 -1.962000000000e+01 0.0 
0.0 -1.962000000000e+01 0.0 
0.0 -1.962000000000e+01 0.0 
0.0 -1.962000000000e+01 0.0 
0.0 -1.962000000000e+01 0.0 
0.0 -1.962000000000e+01 0.0 
0.0 -1.962000000000e+01 0.0 
0.0 -1.962000000000e+01 0.0 
0.0 -1.962000000000e+01 0.0 
0.0 -1.962000000000e+01 0.0 
0.0 -1.962000000000e+01 0.0 
0.0 -1.962000000000e+01 0.0 
0.0 -1.962000000000e+01 0.0 
0.0 -1.962000000000e+01 0.0 
0.0 -1.962000000000e+01 0.0 
0.0 -1.962000000000e+01 0.0 
0.0 -1.962000000000e+01 0.0 
0.0 -1.962000000000e+01 0.0 
0.0 -1.962000000000e+01 0.0 
0.0 -1.962000000000e+01 0.0 
0.0 -1.962000000000e+01 0.0 
0.0 -1.962000000000e+01 0.0 
0.0 -1.962000000000e+01 0.0 
0.0 -1.962000000000e+01 0.0 
0.0 -1.962000000000e+01 0.0 
0.0 -1.962000000000e+01 0.0 
0.0 -1.962000000000e+01 0.0 
0.0 -1.962000000000e+01 0.0 
0.0 -1.962000000000e+01 0.0 
0.0 -1.962000000000e+01 0.0 
0.0 -1.962000000000e+01 0.0 
0.0 -1.962000000000e+01 0.0 
0.0 -1.962000000000e+01 0.0 
0.0 -1.962000000000e+01 0.0 
0.0 -1.962000000000e+01 0.0 
0.0 -1.962000000000e+01 0.0 
0.0 -1.962000000000e+01 0.0 
0.0 -1.962000000000e+01 0.0 
0.0 -1.962000000000e+01 0.0 
0.0 -1.962000000000e+01 0.0 
0.0 -1.962000000000e+01 0.0 
0.0 -1.962000000000e+01 0.0 
0.0 -1.962000000000e+01 0.0 
0.0 -1.962000000000e+01 0.0 
0.0 -1.962000000000e+01 0.0 
0.0 -1.962000000000e+01 0.0 
0.0 -1.962000000000e+01 0.0 
0.0 -1.962000000000e+01 0.0 
0.0 -1.962000000000e+01 0.0 
0.0 -1.962000000000e+01 0.0 
0.0 -1.962000000000e+01 0.0 
0.0 -1.962000000000e+01 0.0 
0.0 -1.962000000000e+01 0.0 
0.0 -1.962000000000e+01 0.0 
0.0 -1.962000000000e+01 0.0 
0.0 -1.962000000000e+01 0.0 
0.0 -1.962000000000e+01 0.0 
0.0 -1.962000000000e+01 0.0 
0.0 -1.962000000000e+01 0.0 
0.0 -1.962000000000e+01 0.0 
0.0 -1.962000000000e+01 0.0 
0.0 -1.962000000000e+01 0.0 
0.0 -1.962000000000e+01 0.0 
0.0 -1.962000000000e+01 0.0 
0.0 -1.962000000000e+01 0.0 
0.0 -1.962000000000e+01 0.0 
0.0 -1.962000000000e+01 0.0 
0.0 -1.962000000000e+01 0.0 
0.0 -1.962000000000e+01 0.0 
0.0 -1.962000000000e+01 0.0 
0.0 -1.962000000000e+01 0.0 
0.0 -1.962000000000e+01 0.0 
0.0 -1.962000000000e+01 0.0 
0.0 -1.962000000000e+01 0.0 
0.0 -1.962000000000e+01 0.0 
0.0 -1.962000000000e+01 0.0 
0.0 -1.962000000000e+01 0.0 
0.0 -1.962000000000e+01 0.0 
0.0 -1.962000000000e+01 0.0 
0.0 -1.962000000000e+01 0.0 
0.0 -1.962000000000e+01 0.0 
0.0 -1.962000000000e+01 0.0 
0.0 -1.962000000000e+01 0.0 
0.0 -1.962000000000e+01 0.0 
0.0 -1.962000000000e+01 0.0 
0.0 -1.962000000000e+01 0.0 
0.0 -1.962000000000e+01 0.0 
0.0 -1.962000000000e+01 0.0 
0.0 -1.962000000000e+01 0.0 
0.0 -1.962000000000e+01 0.0 
0.0 -1.962000000000e+01 0.0 
0.0 -1.962000000000e+01 0.0 
0.0 -1.962000000000e+01 0.0 
0.0 -1.962000000000e+01 0.0 
0.0 -1.962000000000e+01 0.0 
0.0 -1.962000000000e+01 0.0 
0.0 -1.962000000000e+01 0.0 
0.0 -1.962000000000e+01 0.0 
0.0 -1.962000000000e+01 0.0 
0.0 -1.962000000000e+01 0.0 
0.0 -1.962000000000e+01 0.0 
0.0 -1.962000000000e+01 0.0 
0.0 -1.962000000000e+01 0.0 
0.0 -1.962000000000e+01 0.0 
0.0 -1.962000000000e+01 0.0 
0.0 -1.962000000000e+01 0.0 
0.0 -1.962000000000e+01 0.0 
0.0 -1.962000000000e+01 0.0 
0.0 -1.962000000000e+01 0.0 
0.0 -1.962000000000e+01 0.0 
0.0 -1.962000000000e+01 0.0 
0.0 -1.962000000000e+01 0.0 
0.0 -1.962000000000e+01 0.0 
0.0 -1.962000000000e+01 0.0 
0.0 -1.962000000000e+01 0.0 
0.0 -1.962000000000e+01 0.0 
0.0 -1.962000000000e+01 0.0 
0.0 -1.962000000000e+01 0.0 
0.0 -1.962000000000e+01 0.0 
0.0 -1.962000000000e+01 0.0 
0.0 -1.962000000000e+01 0.0 
0.0 -1.962000000000e+01 0.0 
0.0 -1.962000000000e+01 0.0 
0.0 -1.962000000000e+01 0.0 
0.0 -1.962000000000e+01 0.0 
0.0 -1.962000000000e+01 0.0 
0.0 -1.962000000000e+01 0.0 
0.0 -1.962000000000e+01 0.0 
0.0 -1.962000000000e+01 0.0 
0.0 -1.962000000000e+01 0.0 
0.0 -1.962000000000e+01 0.0 
0.0 -1.962000000000e+01 0.0 
0.0 -1.962000000000e+01 0.0 
0.0 -1.962000000000e+01 0.0 
0.0 -1.962000000000e+01 0.0 
0.0 -1.962000000000e+01 0.0 
0.0 -1.962000000000e+01 0.0 
0.0 -1.962000000000e+01 0.0 
0.0 -1.962000000000e+01 0.0 
0.0 -1.962000000000e+01 0.0 
0.0 -1.962000000000e+01 0.0 
0.0 -1.962000000000e+01 0.0 
0.0 -1.962000000000e+01 0.0 
0.0 -1.962000000000e+01 0.0 
0.0 -1.962000000000e+01 0.0 
0.0 -1.962000000000e+01 0.0 
0.0 -1.962000000000e+01 0.0 
0.0 -1.962000000000e+01 0.0 
0.0 -1.962000000000e+01 0.0 
0.0 -1.962000000000e+01 0.0 
0.0 -1.962000000000e+01 0.0 
0.0 -1.962000000000e+01 0.0 
0.0 -1.962000000000e+01 0.0 
0.0 -1.962000000000e+01 0.0 
0.0 -1.962000000000e+01 0.0 
0.0 -1.962000000000e+01 0.0 
0.0 -1.962000000000e+01 0.0 
0.0 -1.962000000000e+01 0.0 
0.0 -1.962000000000e+01 0.0 
0.0 -1.962000000000e+01 0.0 
0.0 -1.962000000000e+01 0.0 
0.0 -1.962000000000e+01 0.0 
0.0 -1.962000000000e+01 0.0 
0.0 -1.962000000000e+01 0.0 
0.0 -1.962000000000e+01 0.0 
0.0 -1.962000000000e+01 0.0 
0.0 -1.962000000000e+01 0.0 
0.0 -1.962000000000e+01 0.0 
0.0 -1.962000000000e+01 0.0 
0.0 -1.962000000000e+01 0.0 
0.0 -1.962000000000e+01 0.0 
0.0 -1.962000000000e+01 0.0 
0.0 -1.962000000000e+01 0.0 
0.0 -1.962000000000e+01 0.0 
0.0 -1.962000000000e+01 0.0 
0.0 -1.962000000000e+01 0.0 
0.0 -1.962000000000e+01 0.0 
0.0 -1.962000000000e+01 0.0 
0.0 -1.962000000000e+01 0.0 
0.0 -1.962000000000e+01 0.0 
0.0 -1.962000000000e+01 0.0 
0.0 -1.962000000000e+01 0.0 
0.0 -1.962000000000e+01 0.0 
0.0 -1.962000000000e+01 0.0 
0.0 -1.962000000000e+01 0.0 
0.0 -1.962000000000e+01 0.0 
0.0 -1.962000000000e+01 0.0 
0.0 -1.962000000000e+01 0.0 
0.0 -1.962000000000e+01 0.0 
0.0 -1.962000000000e+01 0.0 
0.0 -1.962000000000e+01 0.0 
0.0 -1.962000000000e+01 0.0 
0.0 -1.962000000000e+01 0.0 
0.0 -1.962000000000e+01 0.0 
0.0 -1.962000000000e+01 0.0 
0.0 -1.962000000000e+01 0.0 
0.0 -1.962000000000e+01 0.0 
0.0 -1.962000000000e+01 0.0 
0.0 -1.962000000000e+01 0.0 
0.0 -1.962000000000e+01 0.0 
0.0 -1.962000000000e+01 0.0 
0.0 -1.962000000000e+01 0.0 
0.0 -1.962000000000e+01 0.0 
0.0 -1.962000000000e+01 0.0 
0.0 -1.962000000000e+01 0.0 
0.0 -1.962000000000e+01 0.0 
0.0 -1.962000000000e+01 0.0 
0.0 -1.962000000000e+01 0.0 
0.0 -1.962000000000e+01 0.0 
0.0 -1.962000000000e+01 0.0 
0.0 -1.962000000000e+01 0.0 
0.0 -1.962000000000e+01 0.0 
0.0 -1.962000000000e+01 0.0 
0.0 -1.962000000000e+01 0.0 
0.0 -1.962000000000e+01 0.0 
0.0 -1.962000000000e+01 0.0 
0.0 -1.962000000000e+01 0.0 
0.0 -1.962000000000e+01 0.0 
0.0 -1.962000000000e+01 0.0 
0.0 -1.962000000000e+01 0.0 
0.0 -1.962000000000e+01 0.0 
0.0 -1.962000000000e+01 0.0 
0.0 -1.962000000000e+01 0.0 
0.0 -1.962000000000e+01 0.0 
0.0 -1.962000000000e+01 0.0 
0.0 -1.962000000000e+01 0.0 
0.0 -1.962000000000e+01 0.0 
0.0 -1.962000000000e+01 0.0 
0.0 -1.962000000000e+01 0.0 
0.0 -1.962000000000e+01 0.0 
0.0 -1.962000000000e+01 0.0 
0.0 -1.962000000000e+01 0.0 
0.0 -1.962000000000e+01 0.0 
0.0 -1.962000000000e+01 0.0 
0.0 -1.962000000000e+01 0.0 
0.0 -1.962000000000e+01 0.0 
0.0 -1.962000000000e+01 0.0 
0.0 -1.962000000000e+01 0.0 
0.0 -1.962000000000e+01 0.0 
0.0 -1.962000000000e+01 0.0 
0.0 -1.962000000000e+01 0.0 
0.0 -1.962000000000e+01 0.0 
0.0 -1.962000000000e+01 0.0 
0.0 -1.962000000000e+01 0.0 
0.0 -1.962000000000e+01 0.0 
0.0 -1.962000000000e+01 0.0 
0.0 -1.962000000000e+01 0.0 
0.0 -1.962000000000e+01 0.0 
0.0 -1.962000000000e+01 0.0 
0.0 -1.962000000000e+01 0.0 
0.0 -1.962000000000e+01 0.0 
0.0 -1.962000000000e+01 0.0 
0.0 -1.962000000000e+01 0.0 
0.0 -1.962000000000e+01 0.0 
0.0 -1.962000000000e+01 0.0 
0.0 -1.962000000000e+01 0.0 
0.0 -1.962000000000e+01 0.0 
0.0 -1.962000000000e+01 0.0 
0.0 -1.962000000000e+01 0.0 
0.0 -1.962000000000e+01 0.0 
0.0 -1.962000000000e+01 0.0 
0.0 -1.962000000000e+01 0.0 
0.0 -1.962000000000e+01 0.0 
0.0 -1.962000000000e+01 0.0 
0.0 -1.962000000000e+01 0.0 
0.0 -1.962000000000e+01 0.0 
0.0 -1.962000000000e+01 0.0 
0.0 -1.962000000000e+01 0.0 
0.0 -1.962000000000e+01 0.0 
0.0 -1.962000000000e+01 0.0 
0.0 -1.962000000000e+01 0.0 
0.0 -1.962000000000e+01 0.0 
0.0 -1.962000000000e+01 0.0 
0.0 -1.962000000000e+01 0.0 
0.0 -1.962000000000e+01 0.0 
0.0 -1.962000000000e+01 0.0 
0.0 -1.962000000000e+01 0.0 
0.0 -1.962000000000e+01 0.0 
0.0 -1.962000000000e+01 0.0 
0.0 -1.962000000000e+01 0.0 
0.0 -1.962000000000e+01 0.0 
0.0 -1.962000000000e+01 0.0 
0.0 -1.962000000000e+01 0.0 
0.0 -1.962000000000e+01 0.0 
0.0 -1.962000000000e+01 0.0 
0.0 -1.962000000000e+01 0.0 
0.0 -1.962000000000e+01 0.0 
0.0 -1.962000000000e+01 0.0 
0.0 -1.962000000000e+01 0.0 
0.0 -1.962000000000e+01 0.0 
0.0 -1.962000000000e+01 0.0 
0.0 -1.962000000000e+01 0.0 
0.0 -1.962000000000e+01 0.0 
0.0 -1.962000000000e+01 0.0 
0.0 -1.962000000000e+01 0.0 
0.0 -1.962000000000e+01 0.0 
0.0 -1.962000000000e+01 0.0 
0.0 -1.962000000000e+01 0.0 
0.0 -1.962000000000e+01 0.0 
0.0 -1.962000000000e+01 0.0 
0.0 -1.962000000000e+01 0.0 
0.0 -1.962000000000e+01 0.0 
0.0 -1.962000000000e+01 0.0 
0.0 -1.962000000000e+01 0.0 
0.0 -1.962000000000e+01 0.0 
0.0 -1.962000000000e+01 0.0 
0.0 -1.962000000000e+01 0.0 
0.0 -1.962000000000e+01 0.0 
0.0 -1.962000000000e+01 0.0 
0.0 -1.962000000000e+01 0.0 
0.0 -1.962000000000e+01 0.0 
0.0 -1.962000000000e+01 0.0 
0.0 -1.962000000000e+01 0.0 
0.0 -1.962000000000e+01 0.0 
0.0 -1.962000000000e+01 0.0 
0.0 -1.962000000000e+01 0.0 
0.0 -1.962000000000e+01 0.0 
0.0 -1.962000000000e+01 0.0 
0.0 -1.962000000000e+01 0.0 
0.0 -1.962000000000e+01 0.0 
0.0 -1.962000000000e+01 0.0 
0.0 -1.962000000000e+01 0.0 
0.0 -1.962000000000e+01 0.0 
0.0 -1.962000000000e+01 0.0 
0.0 -1.962000000000e+01 0.0 
0.0 -1.962000000000e+01 0.0 
0.0 -1.962000000000e+01 0.0 
0.0 -1.962000000000e+01 0.0 
0.0 -1.962000000000e+01 0.0 
0.0 -1.962000000000e+01 0.0 
0.0 -1.962000000000e+01 0.0 
0.0 -1.962000000000e+01 0.0 
0.0 -1.962000000000e+01 0.0 
0.0 -1.962000000000e+01 0.0 
0.0 -1.962000000000e+01 0.0 
0.0 -1.962000000000e+01 0.0 
0.0 -1.962000000000e+01 0.0 
0.0 -1.962000000000e+01 0.0 
0.0 -1.962000000000e+01 0.0 
0.0 -1.962000000000e+01 0.0 
0.0 -1.962000000000e+01 0.0 
0.0 -1.962000000000e+01 0.0 
0.0 -1.962000000000e+01 0.0 
0.0 -1.962000000000e+01 0.0 
0.0 -1.962000000000e+01 0.0 
0.0 -1.962000000000e+01 0.0 
0.0 -1.962000000000e+01 0.0 
0.0 -1.962000000000e+01 0.0 
0.0 -1.962000000000e+01 0.0 
0.0 -1.962000000000e+01 0.0 
0.0 -1.962000000000e+01 0.0 
0.0 -1.962000000000e+01 0.0 
0.0 -1.962000000000e+01 0.0 
0.0 -1.962000000000e+01 0.0 
0.0 -1.962000000000e+01 0.0 
0.0 -1.962000000000e+01 0.0 
0.0 -1.962000000000e+01 0.0 
0.0 -1.962000000000e+01 0.0 
0.0 -1.962000000000e+01 0.0 
0.0 -1.962000000000e+01 0.0 
0.0 -1.962000000000e+01 0.0 
0.0 -1.962000000000e+01 0.0 
0.0 -1.962000000000e+01 0.0 
0.0 -1.962000000000e+01 0.0 
0.0 -1.962000000000e+01 0.0 
0.0 -1.962000000000e+01 0.0 
0.0 -1.962000000000e+01 0.0 
0.0 -1.962000000000e+01 0.0 
0.0 -1.962000000000e+01 0.0 
0.0 -1.962000000000e+01 0.0 
0.0 -1.962000000000e+01 0.0 
0.0 -1.962000000000e+01 0.0 
0.0 -1.962000000000e+01 0.0 
0.0 -1.962000000000e+01 0.0 
0.0 -1.962000000000e+01 0.0 
0.0 -1.962000000000e+01 0.0 
0.0 -1.962000000000e+01 0.0 
0.0 -1.962000000000e+01 0.0 
0.0 -1.962000000000e+01 0.0 
0.0 -1.962000000000e+01 0.0 
0.0 -1.962000000000e+01 0.0 
0.0 -1.962000000000e+01 0.0 
0.0 -1.962000000000e+01 0.0 
0.0 -1.962000000000e+01 0.0 
0.0 -1.962000000000e+01 0.0 
0.0 -1.962000000000e+01 0.0 
0.0 -1.962000000000e+01 0.0 
0.0 -1.962000000000e+01 0.0 
0.0 -1.962000000000e+01 0.0 
0.0 -1.962000000000e+01 0.0 
0.0 -1.962000000000e+01 0.0 
0.0 -1.962000000000e+01 0.0 
0.0 -1.962000000000e+01 0.0 
0.0 -1.962000000000e+01 0.0 
0.0 -1.962000000000e+01 0.0 
0.0 -1.962000000000e+01 0.0 
0.0 -1.962000000000e+01 0.0 
0.0 -1.962000000000e+01 0.0 
0.0 -1.962000000000e+01 0.0 
0.0 -1.962000000000e+01 0.0 
0.0 -1.962000000000e+01 0.0 
0.0 -1.962000000000e+01 0.0 
0.0 -1.962000000000e+01 0.0 
0.0 -1.962000000000e+01 0.0 
0.0 -1.962000000000e+01 0.0 
0.0 -1.962000000000e+01 0.0 
0.0 -1.962000000000e+01 0.0 
0.0 -1.962000000000e+01 0.0 
0.0 -1.962000000000e+01 0.0 
0.0 -1.962000000000e+01 0.0 
0.0 -1.962000000000e+01 0.0 
0.0 -1.962000000000e+01 0.0 
0.0 -1.962000000000e+01 0.0 
0.0 -1.962000000000e+01 0.0 
0.0 -1.962000000000e+01 0.0 
0.0 -1.962000000000e+01 0.0 
0.0 -1.962000000000e+01 0.0 
0.0 -1.962000000000e+01 0.0 
0.0 -1.962000000000e+01 0.0 
0.0 -1.962000000000e+01 0.0 
0.0 -1.962000000000e+01 0.0 
0.0 -1.962000000000e+01 0.0 
0.0 -1.962000000000e+01 0.0 
0.0 -1.962000000000e+01 0.0 
0.0 -1.962000000000e+01 0.0 
0.0 -1.962000000000e+01 0.0 
0.0 -1.962000000000e+01 0.0 
0.0 -1.962000000000e+01 0.0 
0.0 -1.962000000000e+01 0.0 
0.0 -1.962000000000e+01 0.0 
0.0 -1.962000000000e+01 0.0 
0.0 -1.962000000000e+01 0.0 
0.0 -1.962000000000e+01 0.0 
0.0 -1.962000000000e+01 0.0 
0.0 -1.962000000000e+01 0.0 
0.0 -1.962000000000e+01 0.0 
0.0 -1.962000000000e+01 0.0 
0.0 -1.962000000000e+01 0.0 
0.0 -1.962000000000e+01 0.0 
0.0 -1.962000000000e+01 0.0 
0.0 -1.962000000000e+01 0.0 
0.0 -1.962000000000e+01 0.0 
0.0 -1.962000000000e+01 0.0 
0.0 -1.962000000000e+01 0.0 
0.0 -1.962000000000e+01 0.0 
0.0 -1.962000000000e+01 0.0 
0.0 -1.962000000000e+01 0.0 
0.0 -1.962000000000e+01 0.0 
0.0 -1.962000000000e+01 0.0 
0.0 -1.962000000000e+01 0.0 
0.0 -1.962000000000e+01 0.0 
0.0 -1.962000000000e+01 0.0 
0.0 -1.962000000000e+01 0.0 
0.0 -1.962000000000e+01 0.0 
0.0 -1.962000000000e+01 0.0 
0.0 -1.962000000000e+01 0.0 
0.0 -1.962000000000e+01 0.0 
0.0 -1.962000000000e+01 0.0 
0.0 -1.962000000000e+01 0.0 
0.0 -1.962000000000e+01 0.0 
0.0 -1.962000000000e+01 0.0 
0.0 -1.962000000000e+01 0.0 
0.0 -1.962000000000e+01 0.0 
0.0 -1.962000000000e+01 0.0 
0.0 -1.962000000000e+01 0.0 
0.0 -1.962000000000e+01 0.0 
0.0 -1.962000000000e+01 0.0 
0.0 -1.962000000000e+01 0.0 
0.0 -1.962000000000e+01 0.0 
0.0 -1.962000000000e+01 0.0 
0.0 -1.962000000000e+01 0.0 
0.0 -1.962000000000e+01 0.0 
0.0 -1.962000000000e+01 0.0 
0.0 -1.962000000000e+01 0.0 
0.0 -1.962000000000e+01 0.0 
0.0 -1.962000000000e+01 0.0 
0.0 -1.962000000000e+01 0.0 
0.0 -1.962000000000e+01 0.0 
0.0 -1.962000000000e+01 0.0 
0.0 -1.962000000000e+01 0.0 
0.0 -1.962000000000e+01 0.0 
0.0 -1.962000000000e+01 0.0 
0.0 -1.962000000000e+01 0.0 
0.0 -1.962000000000e+01 0.0 
0.0 -1.962000000000e+01 0.0 
0.0 -1.962000000000e+01 0.0 
0.0 -1.962000000000e+01 0.0 
0.0 -1.962000000000e+01 0.0 
0.0 -1.962000000000e+01 0.0 
0.0 -1.962000000000e+01 0.0 
0.0 -1.962000000000e+01 0.0 
0.0 -1.962000000000e+01 0.0 
0.0 -1.962000000000e+01 0.0 
0.0 -1.962000000000e+01 0.0 
0.0 -1.962000000000e+01 0.0 
0.0 -1.962000000000e+01 0.0 
0.0 -1.962000000000e+01 0.0 
0.0 -1.962000000000e+01 0.0 
0.0 -1.962000000000e+01 0.0 
0.0 -1.962000000000e+01 0.0 
0.0 -1.962000000000e+01 0.0 
0.0 -1.962000000000e+01 0.0 
0.0 -1.962000000000e+01 0.0 
0.0 -1.962000000000e+01 0.0 
0.0 -1.962000000000e+01 0.0 
0.0 -1.962000000000e+01 0.0 
0.0 -1.962000000000e+01 0.0 
0.0 -1.962000000000e+01 0.0 
0.0 -1.962000000000e+01 0.0 
0.0 -1.962000000000e+01 0.0 
0.0 -1.962000000000e+01 0.0 
0.0 -1.962000000000e+01 0.0 
0.0 -1.962000000000e+01 0.0 
0.0 -1.962000000000e+01 0.0 
0.0 -1.962000000000e+01 0.0 
0.0 -1.962000000000e+01 0.0 
0.0 -1.962000000000e+01 0.0 
0.0 -1.962000000000e+01 0.0 
0.0 -1.962000000000e+01 0.0 
0.0 -1.962000000000e+01 0.0 
0.0 -1.962000000000e+01 0.0 
0.0 -1.962000000000e+01 0.0 
0.0 -1.962000000000e+01 0.0 
0.0 -1.962000000000e+01 0.0 
0.0 -1.962000000000e+01 0.0 
0.0 -1.962000000000e+01 0.0 
0.0 -1.962000000000e+01 0.0 
0.0 -1.962000000000e+01 0.0 
0.0 -1.962000000000e+01 0.0 
0.0 -1.962000000000e+01 0.0 
0.0 -1.962000000000e+01 0.0 
0.0 -1.962000000000e+01 0.0 
0.0 -1.962000000000e+01 0.0 
0.0 -1.962000000000e+01 0.0 
0.0 -1.962000000000e+01 0.0 
0.0 -1.962000000000e+01 0.0 
0.0 -1.962000000000e+01 0.0 
0.0 -1.962000000000e+01 0.0 
0.0 -1.962000000000e+01 0.0 
0.0 -1.962000000000e+01 0.0 
0.0 -1.962000000000e+01 0.0 
0.0 -1.962000000000e+01 0.0 
0.0 -1.962000000000e+01 0.0 
0.0 -1.962000000000e+01 0.0 
0.0 -1.962000000000e+01 0.0 
0.0 -1.962000000000e+01 0.0 
0.0 -1.962000000000e+01 0.0 
0.0 -1.962000000000e+01 0.0 
0.0 -1.962000000000e+01 0.0 
0.0 -1.962000000000e+01 0.0 
0.0 -1.962000000000e+01 0.0 
0.0 -1.962000000000e+01 0.0 
0.0 -1.962000000000e+01 0.0 
0.0 -1.962000000000e+01 0.0 
0.0 -1.962000000000e+01 0.0 
0.0 -1.962000000000e+01 0.0 
0.0 -1.962000000000e+01 0.0 
0.0 -1.962000000000e+01 0.0 
0.0 -1.962000000000e+01 0.0 
0.0 -1.962000000000e+01 0.0 
0.0 -1.962000000000e+01 0.0 
0.0 -1.962000000000e+01 0.0 
0.0 -1.962000000000e+01 0.0 
0.0 -1.962000000000e+01 0.0 
0.0 -1.962000000000e+01 0.0 
0.0 -1.962000000000e+01 0.0 
0.0 -1.962000000000e+01 0.0 
0.0 -1.962000000000e+01 0.0 
0.0 -1.962000000000e+01 0.0 
0.0 -1.962000000000e+01 0.0 
0.0 -1.962000000000e+01 0.0 
0.0 -1.962000000000e+01 0.0 
0.0 -1.962000000000e+01 0.0 
0.0 -1.962000000000e+01 0.0 
0.0 -1.962000000000e+01 0.0 
0.0 -1.962000000000e+01 0.0 
0.0 -1.962000000000e+01 0.0 
0.0 -1.962000000000e+01 0.0 
0.0 -1.962000000000e+01 0.0 
0.0 -1.962000000000e+01 0.0 
0.0 -1.962000000000e+01 0.0 
0.0 -1.962000000000e+01 0.0 
0.0 -1.962000000000e+01 0.0 
0.0 -1.962000000000e+01 0.0 
0.0 -1.962000000000e+01 0.0 
0.0 -1.962000000000e+01 0.0 
0.0 -1.962000000000e+01 0.0 
0.0 -1.962000000000e+01 0.0 
0.0 -1.962000000000e+01 0.0 
0.0 -1.962000000000e+01 0.0 
0.0 -1.962000000000e+01 0.0 
0.0 -1.962000000000e+01 0.0 
0.0 -1.962000000000e+01 0.0 
0.0 -1.962000000000e+01 0.0 
0.0 -1.962000000000e+01 0.0 
0.0 -1.962000000000e+01 0.0 
0.0 -1.962000000000e+01 0.0 
0.0 -1.962000000000e+01 0.0 
0.0 -1.962000000000e+01 0.0 
0.0 -1.962000000000e+01 0.0 
0.0 -1.962000000000e+01 0.0 
0.0 -1.962000000000e+01 0.0 
0.0 -1.962000000000e+01 0.0 
0.0 -1.962000000000e+01 0.0 
0.0 -1.962000000000e+01 0.0 
0.0 -1.962000000000e+01 0.0 
0.0 -1.962000000000e+01 0.0 
0.0 -1.962000000000e+01 0.0 
0.0 -1.962000000000e+01 0.0 
0.0 -1.962000000000e+01 0.0 
0.0 -1.962000000000e+01 0.0 
0.0 -1.962000000000e+01 0.0 
0.0 -1.962000000000e+01 0.0 
0.0 -1.962000000000e+01 0.0 
0.0 -1.962000000000e+01 0.0 
0.0 -1.962000000000e+01 0.0 
0.0 -1.962000000000e+01 0.0 
0.0 -1.962000000000e+01 0.0 
0.0 -1.962000000000e+01 0.0 
0.0 -1.962000000000e+01 0.0 
0.0 -1.962000000000e+01 0.0 
0.0 -1.962000000000e+01 0.0 
0.0 -1.962000000000e+01 0.0 
0.0 -1.962000000000e+01 0.0 
0.0 -1.962000000000e+01 0.0 
0.0 -1.962000000000e+01 0.0 
0.0 -1.962000000000e+01 0.0 
0.0 -1.962000000000e+01 0.0 
0.0 -1.962000000000e+01 0.0 
0.0 -1.962000000000e+01 0.0 
0.0 -1.962000000000e+01 0.0 
0.0 -1.962000000000e+01 0.0 
0.0 -1.962000000000e+01 0.0 
0.0 -1.962000000000e+01 0.0 
0.0 -1.962000000000e+01 0.0 
0.0 -1.962000000000e+01 0.0 
0.0 -1.962000000000e+01 0.0 
0.0 -1.962000000000e+01 0.0 
0.0 -1.962000000000e+01 0.0 
0.0 -1.962000000000e+01 0.0 
0.0 -1.962000000000e+01 0.0 
0.0 -1.962000000000e+01 0.0 
0.0 -1.962000000000e+01 0.0 
0.0 -1.962000000000e+01 0.0 
0.0 -1.962000000000e+01 0.0 
0.0 -1.962000000000e+01 0.0 
0.0 -1.962000000000e+01 0.0 
0.0 -1.962000000000e+01 0.0 
0.0 -1.962000000000e+01 0.0 
0.0 -1.962000000000e+01 0.0 
0.0 -1.962000000000e+01 0.0 
0.0 -1.962000000000e+01 0.0 
0.0 -1.962000000000e+01 0.0 
0.0 -1.962000000000e+01 0.0 
0.0 -1.962000000000e+01 0.0 
0.0 -1.962000000000e+01 0.0 
0.0 -1.962000000000e+01 0.0 
0.0 -1.962000000000e+01 0.0 
0.0 -1.962000000000e+01 0.0 
0.0 -1.962000000000e+01 0.0 
0.0 -1.962000000000e+01 0.0 
0.0 -1.962000000000e+01 0.0 
0.0 -1.962000000000e+01 0.0 
0.0 -1.962000000000e+01 0.0 
0.0 -1.962000000000e+01 0.0 
0.0 -1.962000000000e+01 0.0 
0.0 -1.962000000000e+01 0.0 
0.0 -1.962000000000e+01 0.0 
0.0 -1.962000000000e+01 0.0 
0.0 -1.962000000000e+01 0.0 
0.0 -1.962000000000e+01 0.0 
0.0 -1.962000000000e+01 0.0 
0.0 -1.962000000000e+01 0.0 
0.0 -1.962000000000e+01 0.0 
0.0 -1.962000000000e+01 0.0 
0.0 -1.962000000000e+01 0.0 
0.0 -1.962000000000e+01 0.0 
0.0 -1.962000000000e+01 0.0 
0.0 -1.962000000000e+01 0.0 
0.0 -1.962000000000e+01 0.0 
0.0 -1.962000000000e+01 0.0 
0.0 -1.962000000000e+01 0.0 
0.0 -1.962000000000e+01 0.0 
0.0 -1.962000000000e+01 0.0 
0.0 -1.962000000000e+01 0.0 
0.0 -1.962000000000e+01 0.0 
0.0 -1.962000000000e+01 0.0 
0.0 -1.962000000000e+01 0.0 
0.0 -1.962000000000e+01 0.0 
0.0 -1.962000000000e+01 0.0 
0.0 -1.962000000000e+01 0.0 
0.0 -1.962000000000e+01 0.0 
0.0 -1.962000000000e+01 0.0 
0.0 -1.962000000000e+01 0.0 
0.0 -1.962000000000e+01 0.0 
0.0 -1.962000000000e+01 0.0 
0.0 -1.962000000000e+01 0.0 
0.0 -1.962000000000e+01 0.0 
0.0 -1.962000000000e+01 0.0 
0.0 -1.962000000000e+01 0.0 
0.0 -1.962000000000e+01 0.0 
0.0 -1.962000000000e+01 0.0 
0.0 -1.962000000000e+01 0.0 
0.0 -1.962000000000e+01 0.0 
0.0 -1.962000000000e+01 0.0 
0.0 -1.962000000000e+01 0.0 
0.0 -1.962000000000e+01 0.0 
0.0 -1.962000000000e+01 0.0 
0.0 -1.962000000000e+01 0.0 
0.0 -1.962000000000e+01 0.0 
0.0 -1.962000000000e+01 0.0 
0.0 -1.962000000000e+01 0.0 
0.0 -1.962000000000e+01 0.0 
0.0 -1.962000000000e+01 0.0 
0.0 -1.962000000000e+01 0.0 
0.0 -1.962000000000e+01 0.0 
0.0 -1.962000000000e+01 0.0 
0.0 -1.962000000000e+01 0.0 
0.0 -1.962000000000e+01 0.0 
0.0 -1.962000000000e+01 0.0 
0.0 -1.962000000000e+01 0.0 
0.0 -1.962000000000e+01 0.0 
0.0 -1.962000000000e+01 0.0 
0.0 -1.962000000000e+01 0.0 
0.0 -1.962000000000e+01 0.0 
0.0 -1.962000000000e+01 0.0 
0.0 -1.962000000000e+01 0.0 
0.0 -1.962000000000e+01 0.0 
0.0 -1.962000000000e+01 0.0 
0.0 -1.962000000000e+01 0.0 
0.0 -1.962000000000e+01 0.0 
0.0 -1.962000000000e+01 0.0 
0.0 -1.962000000000e+01 0.0 
0.0 -1.962000000000e+01 0.0 
0.0 -1.962000000000e+01 0.0 
0.0 -1.962000000000e+01 0.0 
0.0 -1.962000000000e+01 0.0 
0.0 -1.962000000000e+01 0.0 
0.0 -1.962000000000e+01 0.0 
0.0 -1.962000000000e+01 0.0 
0.0 -1.962000000000e+01 0.0 
0.0 -1.962000000000e+01 0.0 
0.0 -1.962000000000e+01 0.0 
0.0 -1.962000000000e+01 0.0 
0.0 -1.962000000000e+01 0.0 
0.0 -1.962000000000e+01 0.0 
0.0 -1.962000000000e+01 0.0 
0.0 -1.962000000000e+01 0.0 
0.0 -1.962000000000e+01 0.0 
0.0 -1.962000000000e+01 0.0 
0.0 -1.962000000000e+01 0.0 
0.0 -1.962000000000e+01 0.0 
0.0 -1.962000000000e+01 0.0 
0.0 -1.962000000000e+01 0.0 
0.0 -1.962000000000e+01 0.0 
0.0 -1.962000000000e+01 0.0 
0.0 -1.962000000000e+01 0.0 
0.0 -1.962000000000e+01 0.0 
0.0 -1.962000000000e+01 0.0 
0.0 -1.962000000000e+01 0.0 
0.0 -1.962000000000e+01 0.0 
0.0 -1.962000000000e+01 0.0 
0.0 -1.962000000000e+01 0.0 
0.0 -1.962000000000e+01 0.0 
0.0 -1.962000000000e+01 0.0 
0.0 -1.962000000000e+01 0.0 
0.0 -1.962000000000e+01 0.0 
0.0 -1.962000000000e+01 0.0 
0.0 -1.962000000000e+01 0.0 
0.0 -1.962000000000e+01 0.0 
0.0 -1.962000000000e+01 0.0 
0.0 -1.962000000000e+01 0.0 
0.0 -1.962000000000e+01 0.0 
0.0 -1.962000000000e+01 0.0 
0.0 -1.962000000000e+01 0.0 
0.0 -1.962000000000e+01 0.0 
0.0 -1.962000000000e+01 0.0 
0.0 -1.962000000000e+01 0.0 
0.0 -1.962000000000e+01 0.0 
0.0 -1.962000000000e+01 0.0 
0.0 -1.962000000000e+01 0.0 
0.0 -1.962000000000e+01 0.0 
0.0 -1.962000000000e+01 0.0 
0.0 -1.962000000000e+01 0.0 
0.0 -1.962000000000e+01 0.0 
0.0 -1.962000000000e+01 0.0 
0.0 -1.962000000000e+01 0.0 
0.0 -1.962000000000e+01 0.0 
0.0 -1.962000000000e+01 0.0 
0.0 -1.962000000000e+01 0.0 
0.0 -1.962000000000e+01 0.0 
0.0 -1.962000000000e+01 0.0 
0.0 -1.962000000000e+01 0.0 
0.0 -1.962000000000e+01 0.0 
0.0 -1.962000000000e+01 0.0 
0.0 -1.962000000000e+01 0.0 
0.0 -1.962000000000e+01 0.0 
0.0 -1.962000000000e+01 0.0 
0.0 -1.962000000000e+01 0.0 
0.0 -1.962000000000e+01 0.0 
0.0 -1.962000000000e+01 0.0 
0.0 -1.962000000000e+01 0.0 
0.0 -1.962000000000e+01 0.0 
0.0 -1.962000000000e+01 0.0 
0.0 -1.962000000000e+01 0.0 
0.0 -1.962000000000e+01 0.0 
0.0 -1.962000000000e+01 0.0 
0.0 -1.962000000000e+01 0.0 
0.0 -1.962000000000e+01 0.0 
0.0 -1.962000000000e+01 0.0 
0.0 -1.962000000000e+01 0.0 
0.0 -1.962000000000e+01 0.0 
0.0 -1.962000000000e+01 0.0 
0.0 -1.962000000000e+01 0.0 
0.0 -1.962000000000e+01 0.0 
0.0 -1.962000000000e+01 0.0 
0.0 -1.962000000000e+01 0.0 
0.0 -1.962000000000e+01 0.0 
0.0 -1.962000000000e+01 0.0 
0.0 -1.962000000000e+01 0.0 
0.0 -1.962000000000e+01 0.0 
0.0 -1.962000000000e+01 0.0 
0.0 -1.962000000000e+01 0.0 
0.0 -1.962000000000e+01 0.0 
0.0 -1.962000000000e+01 0.0 
0.0 -1.962000000000e+01 0.0 
0.0 -1.962000000000e+01 0.0 
0.0 -1.962000000000e+01 0.0 
0.0 -1.962000000000e+01 0.0 
0.0 -1.962000000000e+01 0.0 
0.0 -1.962000000000e+01 0.0 
0.0 -1.962000000000e+01 0.0 
0.0 -1.962000000000e+01 0.0 
0.0 -1.962000000000e+01 0.0 
0.0 -1.962000000000e+01 0.0 
0.0 -1.962000000000e+01 0.0 
0.0 -1.962000000000e+01 0.0 
0.0 -1.962000000000e+01 0.0 
0.0 -1.962000000000e+01 0.0 
0.0 -1.962000000000e+01 0.0 
0.0 -1.962000000000e+01 0.0 
0.0 -1.962000000000e+01 0.0 
0.0 -1.962000000000e+01 0.0 
0.0 -1.962000000000e+01 0.0 
0.0 -1.962000000000e+01 0.0 
0.0 -1.962000000000e+01 0.0 
0.0 -1.962000000000e+01 0.0 
0.0 -1.962000000000e+01 0.0 
0.0 -1.962000000000e+01 0.0 
0.0 -1.962000000000e+01 0.0 
0.0 -1.962000000000e+01 0.0 
0.0 -1.962000000000e+01 0.0 
0.0 -1.962000000000e+01 0.0 
0.0 -1.962000000000e+01 0.0 
0.0 -1.962000000000e+01 0.0 
0.0 -1.962000000000e+01 0.0 
0.0 -1.962000000000e+01 0.0 
0.0 -1.962000000000e+01 0.0 
0.0 -1.962000000000e+01 0.0 
0.0 -1.962000000000e+01 0.0 
0.0 -1.962000000000e+01 0.0 
0.0 -1.962000000000e+01 0.0 

VECTORS node_rhside_materi_fixed float
-6.375232672336e+00 0.0 0.0 
8.157752587272e+01 0.0 0.0 
-8.446582374704e+01 -2.013573612347e+02 0.0 
7.873834290035e+01 -1.877699905222e+02 0.0 
-1.139617769652e+01 0.0 0.0 
-1.490719427326e+01 0.0 0.0 
-1.811439002527e+01 0.0 0.0 
-2.967335702025e+01 0.0 0.0 
-4.593546303741e+01 0.0 0.0 
-6.030477048275e+01 0.0 0.0 
-7.306806315823e+01 0.0 0.0 
-8.431187397845e+01 0.0 0.0 
-9.394147600704e+01 0.0 0.0 
-1.023771993499e+02 0.0 0.0 
-1.099095545278e+02 0.0 0.0 
-1.164275759616e+02 0.0 0.0 
-1.220390285055e+02 0.0 0.0 
-1.274277642847e+02 0.0 0.0 
-1.322198938060e+02 0.0 0.0 
-1.384935763194e+02 0.0 0.0 
-1.468127464676e+02 0.0 0.0 
-1.551629300432e+02 0.0 0.0 
-1.640036046364e+02 0.0 0.0 
3.214178305259e-01 -3.744630810348e+02 0.0 
4.813554883573e-01 -3.756372653815e+02 0.0 
2.208679205736e+00 -3.749140917234e+02 0.0 
1.087680489500e+00 -3.751497878473e+02 0.0 
2.535375219923e+00 -3.759383081418e+02 0.0 
2.879818541276e+00 -3.755360086971e+02 0.0 
3.116311507511e+00 -3.762756751946e+02 0.0 
3.687572252875e+00 -3.769657762874e+02 0.0 
4.902763960939e+00 -3.767146053727e+02 0.0 
4.077928013283e+00 -3.773699909972e+02 0.0 
5.448534666688e+00 -3.785832840901e+02 0.0 
5.939065832693e+00 -3.785220973937e+02 0.0 
6.208046031217e+00 -3.797773592494e+02 0.0 
6.612055068158e+00 -3.802976137787e+02 0.0 
7.187775289778e+00 -3.810625128093e+02 0.0 
7.319328460476e+00 -3.823629701931e+02 0.0 
8.293058544525e+00 -3.832678394539e+02 0.0 
8.558708209095e+00 -3.844024963340e+02 0.0 
8.867119210893e+00 -3.854581797760e+02 0.0 
9.109089685743e+00 -3.863694972720e+02 0.0 
8.972995422243e+00 -3.876595824168e+02 0.0 
9.350592210387e+00 -3.891208257091e+02 0.0 
9.244930079122e+00 -3.901969189814e+02 0.0 
9.253220983227e+00 -3.913697103524e+02 0.0 
9.125916479290e+00 -3.927864759904e+02 0.0 
8.829632223183e+00 -3.937223771510e+02 0.0 
8.522881256409e+00 -3.946657538347e+02 0.0 
8.103875522171e+00 -3.957908486717e+02 0.0 
7.711633023934e+00 -3.970116207139e+02 0.0 
7.588560537412e+00 -3.977474911307e+02 0.0 
6.496270481803e+00 -3.984559906159e+02 0.0 
6.190942435369e+00 -4.000778747247e+02 0.0 
5.752870321178e+00 -4.005611351995e+02 0.0 
5.196747220522e+00 -4.016232473081e+02 0.0 
4.369918171133e+00 -4.023375721865e+02 0.0 
3.801635292527e+00 -4.028444926868e+02 0.0 
3.023048114523e+00 -4.034980984808e+02 0.0 
2.308827839289e+00 -4.036959215371e+02 0.0 
1.765144879745e+00 -4.038419049473e+02 0.0 
1.165186179369e+00 -4.042360808817e+02 0.0 
1.032626874253e+00 -4.038180337924e+02 0.0 
5.080225288684e-01 -4.035907888583e+02 0.0 
3.143071457060e-01 -4.031424833241e+02 0.0 
-1.034300712998e-02 -4.036528045868e+02 0.0 
-2.408840063959e-01 -4.026049482156e+02 0.0 
-3.429044796403e-01 -4.031149180358e+02 0.0 
3.867350794400e-01 -4.022363873564e+02 0.0 
-3.153706049085e-01 -4.023928767208e+02 0.0 
1.180470768942e-02 -4.021220428045e+02 0.0 
8.957431300362e+01 0.0 0.0 
9.822070590834e+01 0.0 0.0 
1.063270499274e+02 0.0 0.0 
1.142032973312e+02 0.0 0.0 
1.220940767121e+02 0.0 0.0 
1.302294215832e+02 0.0 0.0 
1.378301494197e+02 0.0 0.0 
1.450220264079e+02 0.0 0.0 
1.533933521639e+02 0.0 0.0 
0.0 0.0 0.0 
0.0 0.0 0.0 
0.0 0.0 0.0 
0.0 0.0 0.0 
0.0 0.0 0.0 
0.0 0.0 0.0 
0.0 0.0 0.0 
0.0 0.0 0.0 
0.0 0.0 0.0 
0.0 0.0 0.0 
0.0 0.0 0.0 
4.326122717383e+00 0.0 0.0 
1.461775229901e+01 0.0 0.0 
2.245520858680e+01 0.0 0.0 
3.093768521879e+01 0.0 0.0 
3.903855747958e+01 0.0 0.0 
4.762176725416e+01 0.0 0.0 
5.616927987391e+01 0.0 0.0 
6.475246762820e+01 0.0 0.0 
7.327808729249e+01 0.0 0.0 
0.0 0.0 0.0 
0.0 0.0 0.0 
0.0 0.0 0.0 
0.0 0.0 0.0 
0.0 0.0 0.0 
0.0 0.0 0.0 
0.0 0.0 0.0 
0.0 0.0 0.0 
0.0 0.0 0.0 
0.0 0.0 0.0 
0.0 0.0 0.0 
0.0 0.0 0.0 
0.0 0.0 0.0 
0.0 0.0 0.0 
0.0 0.0 0.0 
0.0 0.0 0.0 
0.0 0.0 0.0 
0.0 0.0 0.0 
0.0 0.0 0.0 
0.0 0.0 0.0 
0.0 0.0 0.0 
0.0 0.0 0.0 
0.0 0.0 0.0 
0.0 0.0 0.0 
0.0 0.0 0.0 
0.0 0.0 0.0 
0.0 0.0 0.0 
0.0 0.0 0.0 
0.0 0.0 0.0 
0.0 0.0 0.0 
0.0 0.0 0.0 
0.0 0.0 0.0 
0.0 0.0 0.0 
0.0 0.0 0.0 
0.0 0.0 0.0 
0.0 0.0 0.0 
0.0 0.0 0.0 
0.0 0.0 0.0 
0.0 0.0 0.0 
0.0 0.0 0.0 
0.0 0.0 0.0 
0.0 0.0 0.0 
0.0 0.0 0.0 
0.0 0.0 0.0 
0.0 0.0 0.0 
0.0 0.0 0.0 
0.0 0.0 0.0 
0.0 0.0 0.0 
0.0 0.0 0.0 
0.0 0.0 0.0 
0.0 0.0 0.0 
0.0 0.0 0.0 
0.0 0.0 0.0 
0.0 0.0 0.0 
0.0 0.0 0.0 
0.0 0.0 0.0 
0.0 0.0 0.0 
0.0 0.0 0.0 
0.0 0.0 0.0 
0.0 0.0 0.0 
0.0 0.0 0.0 
0.0 0.0 0.0 
0.0 0.0 0.0 
0.0 0.0 0.0 
0.0 0.0 0.0 
0.0 0.0 0.0 
0.0 0.0 0.0 
0.0 0.0 0.0 
0.0 0.0 0.0 
0.0 0.0 0.0 
0.0 0.0 0.0 
0.0 0.0 0.0 
0.0 0.0 0.0 
0.0 0.0 0.0 
0.0 0.0 0.0 
0.0 0.0 0.0 
0.0 0.0 0.0 
0.0 0.0 0.0 
0.0 0.0 0.0 
0.0 0.0 0.0 
0.0 0.0 0.0 
0.0 0.0 0.0 
0.0 0.0 0.0 
0.0 0.0 0.0 
0.0 0.0 0.0 
0.0 0.0 0.0 
0.0 0.0 0.0 
0.0 0.0 0.0 
0.0 0.0 0.0 
0.0 0.0 0.0 
0.0 0.0 0.0 
0.0 0.0 0.0 
0.0 0.0 0.0 
0.0 0.0 0.0 
0.0 0.0 0.0 
0.0 0.0 0.0 
0.0 0.0 0.0 
0.0 0.0 0.0 
0.0 0.0 0.0 
0.0 0.0 0.0 
0.0 0.0 0.0 
0.0 0.0 0.0 
0.0 0.0 0.0 
0.0 0.0 0.0 
0.0 0.0 0.0 
0.0 0.0 0.0 
0.0 0.0 0.0 
0.0 0.0 0.0 
0.0 0.0 0.0 
0.0 0.0 0.0 
0.0 0.0 0.0 
0.0 0.0 0.0 
0.0 0.0 0.0 
0.0 0.0 0.0 
0.0 0.0 0.0 
0.0 0.0 0.0 
0.0 0.0 0.0 
0.0 0.0 0.0 
0.0 0.0 0.0 
0.0 0.0 0.0 
0.0 0.0 0.0 
0.0 0.0 0.0 
0.0 0.0 0.0 
0.0 0.0 0.0 
0.0 0.0 0.0 
0.0 0.0 0.0 
0.0 0.0 0.0 
0.0 0.0 0.0 
0.0 0.0 0.0 
0.0 0.0 0.0 
0.0 0.0 0.0 
0.0 0.0 0.0 
0.0 0.0 0.0 
0.0 0.0 0.0 
0.0 0.0 0.0 
0.0 0.0 0.0 
0.0 0.0 0.0 
0.0 0.0 0.0 
0.0 0.0 0.0 
0.0 0.0 0.0 
0.0 0.0 0.0 
0.0 0.0 0.0 
0.0 0.0 0.0 
0.0 0.0 0.0 
0.0 0.0 0.0 
0.0 0.0 0.0 
0.0 0.0 0.0 
0.0 0.0 0.0 
0.0 0.0 0.0 
0.0 0.0 0.0 
0.0 0.0 0.0 
0.0 0.0 0.0 
0.0 0.0 0.0 
0.0 0.0 0.0 
0.0 0.0 0.0 
0.0 0.0 0.0 
0.0 0.0 0.0 
0.0 0.0 0.0 
0.0 0.0 0.0 
0.0 0.0 0.0 
0.0 0.0 0.0 
0.0 0.0 0.0 
0.0 0.0 0.0 
0.0 0.0 0.0 
0.0 0.0 0.0 
0.0 0.0 0.0 
0.0 0.0 0.0 
0.0 0.0 0.0 
0.0 0.0 0.0 
0.0 0.0 0.0 
0.0 0.0 0.0 
0.0 0.0 0.0 
0.0 0.0 0.0 
0.0 0.0 0.0 
0.0 0.0 0.0 
0.0 0.0 0.0 
0.0 0.0 0.0 
0.0 0.0 0.0 
0.0 0.0 0.0 
0.0 0.0 0.0 
0.0 0.0 0.0 
0.0 0.0 0.0 
0.0 0.0 0.0 
0.0 0.0 0.0 
0.0 0.0 0.0 
0.0 0.0 0.0 
0.0 0.0 0.0 
0.0 0.0 0.0 
0.0 0.0 0.0 
0.0 0.0 0.0 
0.0 0.0 0.0 
0.0 0.0 0.0 
0.0 0.0 0.0 
0.0 0.0 0.0 
0.0 0.0 0.0 
0.0 0.0 0.0 
0.0 0.0 0.0 
0.0 0.0 0.0 
0.0 0.0 0.0 
0.0 0.0 0.0 
0.0 0.0 0.0 
0.0 0.0 0.0 
0.0 0.0 0.0 
0.0 0.0 0.0 
0.0 0.0 0.0 
0.0 0.0 0.0 
0.0 0.0 0.0 
0.0 0.0 0.0 
0.0 0.0 0.0 
0.0 0.0 0.0 
0.0 0.0 0.0 
0.0 0.0 0.0 
0.0 0.0 0.0 
0.0 0.0 0.0 
0.0 0.0 0.0 
0.0 0.0 0.0 
0.0 0.0 0.0 
0.0 0.0 0.0 
0.0 0.0 0.0 
0.0 0.0 0.0 
0.0 0.0 0.0 
0.0 0.0 0.0 
0.0 0.0 0.0 
0.0 0.0 0.0 
0.0 0.0 0.0 
0.0 0.0 0.0 
0.0 0.0 0.0 
0.0 0.0 0.0 
0.0 0.0 0.0 
0.0 0.0 0.0 
0.0 0.0 0.0 
0.0 0.0 0.0 
0.0 0.0 0.0 
0.0 0.0 0.0 
0.0 0.0 0.0 
0.0 0.0 0.0 
0.0 0.0 0.0 
0.0 0.0 0.0 
0.0 0.0 0.0 
0.0 0.0 0.0 
0.0 0.0 0.0 
0.0 0.0 0.0 
0.0 0.0 0.0 
0.0 0.0 0.0 
0.0 0.0 0.0 
0.0 0.0 0.0 
0.0 0.0 0.0 
0.0 0.0 0.0 
0.0 0.0 0.0 
0.0 0.0 0.0 
0.0 0.0 0.0 
0.0 0.0 0.0 
0.0 0.0 0.0 
0.0 0.0 0.0 
0.0 0.0 0.0 
0.0 0.0 0.0 
0.0 0.0 0.0 
0.0 0.0 0.0 
0.0 0.0 0.0 
0.0 0.0 0.0 
0.0 0.0 0.0 
0.0 0.0 0.0 
0.0 0.0 0.0 
0.0 0.0 0.0 
0.0 0.0 0.0 
0.0 0.0 0.0 
0.0 0.0 0.0 
0.0 0.0 0.0 
0.0 0.0 0.0 
0.0 0.0 0.0 
0.0 0.0 0.0 
0.0 0.0 0.0 
0.0 0.0 0.0 
0.0 0.0 0.0 
0.0 0.0 0.0 
0.0 0.0 0.0 
0.0 0.0 0.0 
0.0 0.0 0.0 
0.0 0.0 0.0 
0.0 0.0 0.0 
0.0 0.0 0.0 
0.0 0.0 0.0 
0.0 0.0 0.0 
0.0 0.0 0.0 
0.0 0.0 0.0 
0.0 0.0 0.0 
0.0 0.0 0.0 
0.0 0.0 0.0 
0.0 0.0 0.0 
0.0 0.0 0.0 
0.0 0.0 0.0 
0.0 0.0 0.0 
0.0 0.0 0.0 
0.0 0.0 0.0 
0.0 0.0 0.0 
0.0 0.0 0.0 
0.0 0.0 0.0 
0.0 0.0 0.0 
0.0 0.0 0.0 
0.0 0.0 0.0 
0.0 0.0 0.0 
0.0 0.0 0.0 
0.0 0.0 0.0 
0.0 0.0 0.0 
0.0 0.0 0.0 
0.0 0.0 0.0 
0.0 0.0 0.0 
0.0 0.0 0.0 
0.0 0.0 0.0 
0.0 0.0 0.0 
0.0 0.0 0.0 
0.0 0.0 0.0 
0.0 0.0 0.0 
0.0 0.0 0.0 
0.0 0.0 0.0 
0.0 0.0 0.0 
0.0 0.0 0.0 
0.0 0.0 0.0 
0.0 0.0 0.0 
0.0 0.0 0.0 
0.0 0.0 0.0 
0.0 0.0 0.0 
0.0 0.0 0.0 
0.0 0.0 0.0 
0.0 0.0 0.0 
0.0 0.0 0.0 
0.0 0.0 0.0 
0.0 0.0 0.0 
0.0 0.0 0.0 
0.0 0.0 0.0 
0.0 0.0 0.0 
0.0 0.0 0.0 
0.0 0.0 0.0 
0.0 0.0 0.0 
0.0 0.0 0.0 
0.0 0.0 0.0 
0.0 0.0 0.0 
0.0 0.0 0.0 
0.0 0.0 0.0 
0.0 0.0 0.0 
0.0 0.0 0.0 
0.0 0.0 0.0 
0.0 0.0 0.0 
0.0 0.0 0.0 
0.0 0.0 0.0 
0.0 0.0 0.0 
0.0 0.0 0.0 
0.0 0.0 0.0 
0.0 0.0 0.0 
0.0 0.0 0.0 
0.0 0.0 0.0 
0.0 0.0 0.0 
0.0 0.0 0.0 
0.0 0.0 0.0 
0.0 0.0 0.0 
0.0 0.0 0.0 
0.0 0.0 0.0 
0.0 0.0 0.0 
0.0 0.0 0.0 
0.0 0.0 0.0 
0.0 0.0 0.0 
0.0 0.0 0.0 
0.0 0.0 0.0 
0.0 0.0 0.0 
0.0 0.0 0.0 
0.0 0.0 0.0 
0.0 0.0 0.0 
0.0 0.0 0.0 
0.0 0.0 0.0 
0.0 0.0 0.0 
0.0 0.0 0.0 
0.0 0.0 0.0 
0.0 0.0 0.0 
0.0 0.0 0.0 
0.0 0.0 0.0 
0.0 0.0 0.0 
0.0 0.0 0.0 
0.0 0.0 0.0 
0.0 0.0 0.0 
0.0 0.0 0.0 
0.0 0.0 0.0 
0.0 0.0 0.0 
0.0 0.0 0.0 
0.0 0.0 0.0 
0.0 0.0 0.0 
0.0 0.0 0.0 
0.0 0.0 0.0 
0.0 0.0 0.0 
0.0 0.0 0.0 
0.0 0.0 0.0 
0.0 0.0 0.0 
0.0 0.0 0.0 
0.0 0.0 0.0 
0.0 0.0 0.0 
0.0 0.0 0.0 
0.0 0.0 0.0 
0.0 0.0 0.0 
0.0 0.0 0.0 
0.0 0.0 0.0 
0.0 0.0 0.0 
0.0 0.0 0.0 
0.0 0.0 0.0 
0.0 0.0 0.0 
0.0 0.0 0.0 
0.0 0.0 0.0 
0.0 0.0 0.0 
0.0 0.0 0.0 
0.0 0.0 0.0 
0.0 0.0 0.0 
0.0 0.0 0.0 
0.0 0.0 0.0 
0.0 0.0 0.0 
0.0 0.0 0.0 
0.0 0.0 0.0 
0.0 0.0 0.0 
0.0 0.0 0.0 
0.0 0.0 0.0 
0.0 0.0 0.0 
0.0 0.0 0.0 
0.0 0.0 0.0 
0.0 0.0 0.0 
0.0 0.0 0.0 
0.0 0.0 0.0 
0.0 0.0 0.0 
0.0 0.0 0.0 
0.0 0.0 0.0 
0.0 0.0 0.0 
0.0 0.0 0.0 
0.0 0.0 0.0 
0.0 0.0 0.0 
0.0 0.0 0.0 
0.0 0.0 0.0 
0.0 0.0 0.0 
0.0 0.0 0.0 
0.0 0.0 0.0 
0.0 0.0 0.0 
0.0 0.0 0.0 
0.0 0.0 0.0 
0.0 0.0 0.0 
0.0 0.0 0.0 
0.0 0.0 0.0 
0.0 0.0 0.0 
0.0 0.0 0.0 
0.0 0.0 0.0 
0.0 0.0 0.0 
0.0 0.0 0.0 
0.0 0.0 0.0 
0.0 0.0 0.0 
0.0 0.0 0.0 
0.0 0.0 0.0 
0.0 0.0 0.0 
0.0 0.0 0.0 
0.0 0.0 0.0 
0.0 0.0 0.0 
0.0 0.0 0.0 
0.0 0.0 0.0 
0.0 0.0 0.0 
0.0 0.0 0.0 
0.0 0.0 0.0 
0.0 0.0 0.0 
0.0 0.0 0.0 
0.0 0.0 0.0 
0.0 0.0 0.0 
0.0 0.0 0.0 
0.0 0.0 0.0 
0.0 0.0 0.0 
0.0 0.0 0.0 
0.0 0.0 0.0 
0.0 0.0 0.0 
0.0 0.0 0.0 
0.0 0.0 0.0 
0.0 0.0 0.0 
0.0 0.0 0.0 
0.0 0.0 0.0 
0.0 0.0 0.0 
0.0 0.0 0.0 
0.0 0.0 0.0 
0.0 0.0 0.0 
0.0 0.0 0.0 
0.0 0.0 0.0 
0.0 0.0 0.0 
0.0 0.0 0.0 
0.0 0.0 0.0 
0.0 0.0 0.0 
0.0 0.0 0.0 
0.0 0.0 0.0 
0.0 0.0 0.0 
0.0 0.0 0.0 
0.0 0.0 0.0 
0.0 0.0 0.0 
0.0 0.0 0.0 
0.0 0.0 0.0 
0.0 0.0 0.0 
0.0 0.0 0.0 
0.0 0.0 0.0 
0.0 0.0 0.0 
0.0 0.0 0.0 
0.0 0.0 0.0 
0.0 0.0 0.0 
0.0 0.0 0.0 
0.0 0.0 0.0 
0.0 0.0 0.0 
0.0 0.0 0.0 
0.0 0.0 0.0 
0.0 0.0 0.0 
0.0 0.0 0.0 
0.0 0.0 0.0 
0.0 0.0 0.0 
0.0 0.0 0.0 
0.0 0.0 0.0 
0.0 0.0 0.0 
0.0 0.0 0.0 
0.0 0.0 0.0 
0.0 0.0 0.0 
0.0 0.0 0.0 
0.0 0.0 0.0 
0.0 0.0 0.0 
0.0 0.0 0.0 
0.0 0.0 0.0 
0.0 0.0 0.0 
0.0 0.0 0.0 
0.0 0.0 0.0 
0.0 0.0 0.0 
0.0 0.0 0.0 
0.0 0.0 0.0 
0.0 0.0 0.0 
0.0 0.0 0.0 
0.0 0.0 0.0 
0.0 0.0 0.0 
0.0 0.0 0.0 
0.0 0.0 0.0 
0.0 0.0 0.0 
0.0 0.0 0.0 
0.0 0.0 0.0 
0.0 0.0 0.0 
0.0 0.0 0.0 
0.0 0.0 0.0 
0.0 0.0 0.0 
0.0 0.0 0.0 
0.0 0.0 0.0 
0.0 0.0 0.0 
0.0 0.0 0.0 
0.0 0.0 0.0 
0.0 0.0 0.0 
0.0 0.0 0.0 
0.0 0.0 0.0 
0.0 0.0 0.0 
0.0 0.0 0.0 
0.0 0.0 0.0 
0.0 0.0 0.0 
0.0 0.0 0.0 
0.0 0.0 0.0 
0.0 0.0 0.0 
0.0 0.0 0.0 
0.0 0.0 0.0 
0.0 0.0 0.0 
0.0 0.0 0.0 
0.0 0.0 0.0 
0.0 0.0 0.0 
0.0 0.0 0.0 
0.0 0.0 0.0 
0.0 0.0 0.0 
0.0 0.0 0.0 
0.0 0.0 0.0 
0.0 0.0 0.0 
0.0 0.0 0.0 
0.0 0.0 0.0 
0.0 0.0 0.0 
0.0 0.0 0.0 
0.0 0.0 0.0 
0.0 0.0 0.0 
0.0 0.0 0.0 
0.0 0.0 0.0 
0.0 0.0 0.0 
0.0 0.0 0.0 
0.0 0.0 0.0 
0.0 0.0 0.0 
0.0 0.0 0.0 
0.0 0.0 0.0 
0.0 0.0 0.0 
0.0 0.0 0.0 
0.0 0.0 0.0 
0.0 0.0 0.0 
0.0 0.0 0.0 
0.0 0.0 0.0 
0.0 0.0 0.0 
0.0 0.0 0.0 
0.0 0.0 0.0 
0.0 0.0 0.0 
0.0 0.0 0.0 
0.0 0.0 0.0 
0.0 0.0 0.0 
0.0 0.0 0.0 
0.0 0.0 0.0 
0.0 0.0 0.0 
0.0 0.0 0.0 
0.0 0.0 0.0 
0.0 0.0 0.0 
0.0 0.0 0.0 
0.0 0.0 0.0 
0.0 0.0 0.0 
0.0 0.0 0.0 
0.0 0.0 0.0 
0.0 0.0 0.0 
0.0 0.0 0.0 
0.0 0.0 0.0 
0.0 0.0 0.0 
0.0 0.0 0.0 
0.0 0.0 0.0 
0.0 0.0 0.0 
0.0 0.0 0.0 
0.0 0.0 0.0 
0.0 0.0 0.0 
0.0 0.0 0.0 
0.0 0.0 0.0 
0.0 0.0 0.0 
0.0 0.0 0.0 
0.0 0.0 0.0 
0.0 0.0 0.0 
0.0 0.0 0.0 
0.0 0.0 0.0 
0.0 0.0 0.0 
0.0 0.0 0.0 
0.0 0.0 0.0 
0.0 0.0 0.0 
0.0 0.0 0.0 
0.0 0.0 0.0 
0.0 0.0 0.0 
0.0 0.0 0.0 
0.0 0.0 0.0 
0.0 0.0 0.0 
0.0 0.0 0.0 
0.0 0.0 0.0 
0.0 0.0 0.0 
0.0 0.0 0.0 
0.0 0.0 0.0 
0.0 0.0 0.0 
0.0 0.0 0.0 
0.0 0.0 0.0 
0.0 0.0 0.0 
0.0 0.0 0.0 
0.0 0.0 0.0 
0.0 0.0 0.0 
0.0 0.0 0.0 
0.0 0.0 0.0 
0.0 0.0 0.0 
0.0 0.0 0.0 
0.0 0.0 0.0 
0.0 0.0 0.0 
0.0 0.0 0.0 
0.0 0.0 0.0 
0.0 0.0 0.0 
0.0 0.0 0.0 
0.0 0.0 0.0 
0.0 0.0 0.0 
0.0 0.0 0.0 
0.0 0.0 0.0 
0.0 0.0 0.0 
0.0 0.0 0.0 
0.0 0.0 0.0 
0.0 0.0 0.0 
0.0 0.0 0.0 
0.0 0.0 0.0 
0.0 0.0 0.0 
0.0 0.0 0.0 
0.0 0.0 0.0 
0.0 0.0 0.0 
0.0 0.0 0.0 
0.0 0.0 0.0 
0.0 0.0 0.0 
0.0 0.0 0.0 
0.0 0.0 0.0 
0.0 0.0 0.0 
0.0 0.0 0.0 
0.0 0.0 0.0 
0.0 0.0 0.0 
0.0 0.0 0.0 
0.0 0.0 0.0 
0.0 0.0 0.0 
0.0 0.0 0.0 
0.0 0.0 0.0 
0.0 0.0 0.0 
0.0 0.0 0.0 
0.0 0.0 0.0 
0.0 0.0 0.0 
0.0 0.0 0.0 
0.0 0.0 0.0 
0.0 0.0 0.0 
0.0 0.0 0.0 
0.0 0.0 0.0 
0.0 0.0 0.0 
0.0 0.0 0.0 
0.0 0.0 0.0 
0.0 0.0 0.0 
0.0 0.0 0.0 
0.0 0.0 0.0 
0.0 0.0 0.0 
0.0 0.0 0.0 
0.0 0.0 0.0 
0.0 0.0 0.0 
0.0 0.0 0.0 
0.0 0.0 0.0 
0.0 0.0 0.0 
0.0 0.0 0.0 
0.0 0.0 0.0 
0.0 0.0 0.0 
0.0 0.0 0.0 
0.0 0.0 0.0 
0.0 0.0 0.0 
0.0 0.0 0.0 
0.0 0.0 0.0 
0.0 0.0 0.0 
0.0 0.0 0.0 
0.0 0.0 0.0 
0.0 0.0 0.0 
0.0 0.0 0.0 
0.0 0.0 0.0 
0.0 0.0 0.0 
0.0 0.0 0.0 
0.0 0.0 0.0 
0.0 0.0 0.0 
0.0 0.0 0.0 
0.0 0.0 0.0 
0.0 0.0 0.0 
0.0 0.0 0.0 
0.0 0.0 0.0 
0.0 0.0 0.0 
0.0 0.0 0.0 
0.0 0.0 0.0 
0.0 0.0 0.0 
0.0 0.0 0.0 
0.0 0.0 0.0 
0.0 0.0 0.0 
0.0 0.0 0.0 
0.0 0.0 0.0 
0.0 0.0 0.0 
0.0 0.0 0.0 
0.0 0.0 0.0 
0.0 0.0 0.0 
0.0 0.0 0.0 
0.0 0.0 0.0 
0.0 0.0 0.0 
0.0 0.0 0.0 
0.0 0.0 0.0 
0.0 0.0 0.0 
0.0 0.0 0.0 
0.0 0.0 0.0 
0.0 0.0 0.0 
0.0 0.0 0.0 
0.0 0.0 0.0 
0.0 0.0 0.0 
0.0 0.0 0.0 
0.0 0.0 0.0 
0.0 0.0 0.0 
0.0 0.0 0.0 
0.0 0.0 0.0 
0.0 0.0 0.0 
0.0 0.0 0.0 
0.0 0.0 0.0 
0.0 0.0 0.0 
0.0 0.0 0.0 
0.0 0.0 0.0 
0.0 0.0 0.0 
0.0 0.0 0.0 
0.0 0.0 0.0 
0.0 0.0 0.0 
0.0 0.0 0.0 
0.0 0.0 0.0 
0.0 0.0 0.0 
0.0 0.0 0.0 
0.0 0.0 0.0 
0.0 0.0 0.0 
0.0 0.0 0.0 
0.0 0.0 0.0 
0.0 0.0 0.0 
0.0 0.0 0.0 
0.0 0.0 0.0 
0.0 0.0 0.0 
0.0 0.0 0.0 
0.0 0.0 0.0 
0.0 0.0 0.0 
0.0 0.0 0.0 
0.0 0.0 0.0 
0.0 0.0 0.0 
0.0 0.0 0.0 
0.0 0.0 0.0 
0.0 0.0 0.0 
0.0 0.0 0.0 
0.0 0.0 0.0 
0.0 0.0 0.0 
0.0 0.0 0.0 
0.0 0.0 0.0 
0.0 0.0 0.0 
0.0 0.0 0.0 
0.0 0.0 0.0 
0.0 0.0 0.0 
0.0 0.0 0.0 
0.0 0.0 0.0 
0.0 0.0 0.0 
0.0 0.0 0.0 
0.0 0.0 0.0 
0.0 0.0 0.0 
0.0 0.0 0.0 
0.0 0.0 0.0 
0.0 0.0 0.0 
0.0 0.0 0.0 
0.0 0.0 0.0 
0.0 0.0 0.0 
0.0 0.0 0.0 
0.0 0.0 0.0 
0.0 0.0 0.0 
0.0 0.0 0.0 
0.0 0.0 0.0 
0.0 0.0 0.0 
0.0 0.0 0.0 
0.0 0.0 0.0 
0.0 0.0 0.0 
0.0 0.0 0.0 
0.0 0.0 0.0 
0.0 0.0 0.0 
0.0 0.0 0.0 
0.0 0.0 0.0 
0.0 0.0 0.0 
0.0 0.0 0.0 
0.0 0.0 0.0 
0.0 0.0 0.0 
0.0 0.0 0.0 
0.0 0.0 0.0 
0.0 0.0 0.0 
0.0 0.0 0.0 
0.0 0.0 0.0 
0.0 0.0 0.0 
0.0 0.0 0.0 
0.0 0.0 0.0 
0.0 0.0 0.0 
0.0 0.0 0.0 
0.0 0.0 0.0 
0.0 0.0 0.0 
0.0 0.0 0.0 
0.0 0.0 0.0 
0.0 0.0 0.0 
0.0 0.0 0.0 
0.0 0.0 0.0 
0.0 0.0 0.0 
0.0 0.0 0.0 
0.0 0.0 0.0 
0.0 0.0 0.0 
0.0 0.0 0.0 
0.0 0.0 0.0 
0.0 0.0 0.0 
0.0 0.0 0.0 
0.0 0.0 0.0 
0.0 0.0 0.0 
0.0 0.0 0.0 
0.0 0.0 0.0 
0.0 0.0 0.0 
0.0 0.0 0.0 
0.0 0.0 0.0 
0.0 0.0 0.0 
0.0 0.0 0.0 
0.0 0.0 0.0 
0.0 0.0 0.0 
0.0 0.0 0.0 
0.0 0.0 0.0 
0.0 0.0 0.0 
0.0 0.0 0.0 
0.0 0.0 0.0 
0.0 0.0 0.0 
0.0 0.0 0.0 
0.0 0.0 0.0 
0.0 0.0 0.0 
0.0 0.0 0.0 
0.0 0.0 0.0 
0.0 0.0 0.0 
0.0 0.0 0.0 
0.0 0.0 0.0 
0.0 0.0 0.0 
0.0 0.0 0.0 
0.0 0.0 0.0 
0.0 0.0 0.0 
0.0 0.0 0.0 
0.0 0.0 0.0 
0.0 0.0 0.0 
0.0 0.0 0.0 
0.0 0.0 0.0 
0.0 0.0 0.0 
0.0 0.0 0.0 
0.0 0.0 0.0 
0.0 0.0 0.0 
0.0 0.0 0.0 
0.0 0.0 0.0 
0.0 0.0 0.0 
0.0 0.0 0.0 
0.0 0.0 0.0 
0.0 0.0 0.0 
0.0 0.0 0.0 
0.0 0.0 0.0 
0.0 0.0 0.0 
0.0 0.0 0.0 
0.0 0.0 0.0 
0.0 0.0 0.0 
0.0 0.0 0.0 
0.0 0.0 0.0 
0.0 0.0 0.0 
0.0 0.0 0.0 
0.0 0.0 0.0 
0.0 0.0 0.0 
0.0 0.0 0.0 
0.0 0.0 0.0 
0.0 0.0 0.0 
0.0 0.0 0.0 
0.0 0.0 0.0 
0.0 0.0 0.0 
0.0 0.0 0.0 
0.0 0.0 0.0 
0.0 0.0 0.0 
0.0 0.0 0.0 
0.0 0.0 0.0 
0.0 0.0 0.0 
0.0 0.0 0.0 
0.0 0.0 0.0 
0.0 0.0 0.0 
0.0 0.0 0.0 
0.0 0.0 0.0 
0.0 0.0 0.0 
0.0 0.0 0.0 
0.0 0.0 0.0 
0.0 0.0 0.0 
0.0 0.0 0.0 
0.0 0.0 0.0 
0.0 0.0 0.0 
0.0 0.0 0.0 
0.0 0.0 0.0 
0.0 0.0 0.0 
0.0 0.0 0.0 
0.0 0.0 0.0 
0.0 0.0 0.0 
0.0 0.0 0.0 
0.0 0.0 0.0 
0.0 0.0 0.0 
0.0 0.0 0.0 
0.0 0.0 0.0 
0.0 0.0 0.0 
0.0 0.0 0.0 
0.0 0.0 0.0 
0.0 0.0 0.0 
0.0 0.0 0.0 
0.0 0.0 0.0 
0.0 0.0 0.0 
0.0 0.0 0.0 
0.0 0.0 0.0 
0.0 0.0 0.0 
0.0 0.0 0.0 
0.0 0.0 0.0 
0.0 0.0 0.0 
0.0 0.0 0.0 
0.0 0.0 0.0 
0.0 0.0 0.0 
0.0 0.0 0.0 
0.0 0.0 0.0 
0.0 0.0 0.0 
0.0 0.0 0.0 
0.0 0.0 0.0 
0.0 0.0 0.0 
0.0 0.0 0.0 
0.0 0.0 0.0 
0.0 0.0 0.0 
0.0 0.0 0.0 
0.0 0.0 0.0 
0.0 0.0 0.0 
0.0 0.0 0.0 
0.0 0.0 0.0 
0.0 0.0 0.0 
0.0 0.0 0.0 
0.0 0.0 0.0 
0.0 0.0 0.0 
0.0 0.0 0.0 
0.0 0.0 0.0 
0.0 0.0 0.0 
0.0 0.0 0.0 
0.0 0.0 0.0 
0.0 0.0 0.0 
0.0 0.0 0.0 
0.0 0.0 0.0 
0.0 0.0 0.0 
0.0 0.0 0.0 
0.0 0.0 0.0 
0.0 0.0 0.0 
0.0 0.0 0.0 
0.0 0.0 0.0 
0.0 0.0 0.0 
0.0 0.0 0.0 
0.0 0.0 0.0 
0.0 0.0 0.0 
0.0 0.0 0.0 
0.0 0.0 0.0 
0.0 0.0 0.0 
0.0 0.0 0.0 
0.0 0.0 0.0 
0.0 0.0 0.0 
0.0 0.0 0.0 
0.0 0.0 0.0 
0.0 0.0 0.0 
0.0 0.0 0.0 
0.0 0.0 0.0 
0.0 0.0 0.0 
0.0 0.0 0.0 
0.0 0.0 0.0 
0.0 0.0 0.0 
0.0 0.0 0.0 
0.0 0.0 0.0 
0.0 0.0 0.0 
0.0 0.0 0.0 
0.0 0.0 0.0 
0.0 0.0 0.0 
0.0 0.0 0.0 
0.0 0.0 0.0 
0.0 0.0 0.0 
0.0 0.0 0.0 
0.0 0.0 0.0 
0.0 0.0 0.0 
0.0 0.0 0.0 
0.0 0.0 0.0 
0.0 0.0 0.0 
0.0 0.0 0.0 
0.0 0.0 0.0 
0.0 0.0 0.0 
0.0 0.0 0.0 
0.0 0.0 0.0 
0.0 0.0 0.0 
0.0 0.0 0.0 
0.0 0.0 0.0 
0.0 0.0 0.0 
0.0 0.0 0.0 
0.0 0.0 0.0 
0.0 0.0 0.0 
0.0 0.0 0.0 
0.0 0.0 0.0 
0.0 0.0 0.0 
0.0 0.0 0.0 
0.0 0.0 0.0 
0.0 0.0 0.0 
0.0 0.0 0.0 
0.0 0.0 0.0 
0.0 0.0 0.0 
0.0 0.0 0.0 
0.0 0.0 0.0 
0.0 0.0 0.0 
0.0 0.0 0.0 
0.0 0.0 0.0 
0.0 0.0 0.0 
0.0 0.0 0.0 
0.0 0.0 0.0 
0.0 0.0 0.0 
0.0 0.0 0.0 
0.0 0.0 0.0 
0.0 0.0 0.0 
0.0 0.0 0.0 
0.0 0.0 0.0 
0.0 0.0 0.0 
0.0 0.0 0.0 
0.0 0.0 0.0 
0.0 0.0 0.0 
0.0 0.0 0.0 
0.0 0.0 0.0 
0.0 0.0 0.0 
0.0 0.0 0.0 
0.0 0.0 0.0 
0.0 0.0 0.0 
0.0 0.0 0.0 
0.0 0.0 0.0 
0.0 0.0 0.0 
0.0 0.0 0.0 
0.0 0.0 0.0 
0.0 0.0 0.0 
0.0 0.0 0.0 
0.0 0.0 0.0 
0.0 0.0 0.0 
0.0 0.0 0.0 
0.0 0.0 0.0 
0.0 0.0 0.0 
0.0 0.0 0.0 
0.0 0.0 0.0 
0.0 0.0 0.0 
0.0 0.0 0.0 
0.0 0.0 0.0 
0.0 0.0 0.0 
0.0 0.0 0.0 
0.0 0.0 0.0 
0.0 0.0 0.0 
0.0 0.0 0.0 
0.0 0.0 0.0 
0.0 0.0 0.0 
0.0 0.0 0.0 
0.0 0.0 0.0 
0.0 0.0 0.0 
0.0 0.0 0.0 
0.0 0.0 0.0 
0.0 0.0 0.0 
0.0 0.0 0.0 
0.0 0.0 0.0 
0.0 0.0 0.0 
0.0 0.0 0.0 
0.0 0.0 0.0 
0.0 0.0 0.0 
0.0 0.0 0.0 
0.0 0.0 0.0 
0.0 0.0 0.0 
0.0 0.0 0.0 
0.0 0.0 0.0 
0.0 0.0 0.0 
0.0 0.0 0.0 
0.0 0.0 0.0 
0.0 0.0 0.0 
0.0 0.0 0.0 
0.0 0.0 0.0 
0.0 0.0 0.0 
0.0 0.0 0.0 
0.0 0.0 0.0 
0.0 0.0 0.0 
0.0 0.0 0.0 
0.0 0.0 0.0 
0.0 0.0 0.0 
0.0 0.0 0.0 
0.0 0.0 0.0 
0.0 0.0 0.0 
0.0 0.0 0.0 
0.0 0.0 0.0 
0.0 0.0 0.0 
0.0 0.0 0.0 
0.0 0.0 0.0 
0.0 0.0 0.0 
0.0 0.0 0.0 
0.0 0.0 0.0 
0.0 0.0 0.0 
0.0 0.0 0.0 
0.0 0.0 0.0 
0.0 0.0 0.0 
0.0 0.0 0.0 
0.0 0.0 0.0 
0.0 0.0 0.0 
0.0 0.0 0.0 
0.0 0.0 0.0 
0.0 0.0 0.0 
0.0 0.0 0.0 
0.0 0.0 0.0 
0.0 0.0 0.0 
0.0 0.0 0.0 
0.0 0.0 0.0 
0.0 0.0 0.0 

VECTORS node_materi_velocity float
0.0 -8.701248120678e-04 0.0 
0.0 9.896716087344e-03 0.0 
0.0 0.0 0.0 
0.0 0.0 0.0 
0.0 -8.578273058122e-04 0.0 
0.0 -8.375162243046e-04 0.0 
0.0 -8.081405030964e-04 0.0 
0.0 -7.687085267854e-04 0.0 
0.0 -7.175472598008e-04 0.0 
0.0 -6.568958443730e-04 0.0 
0.0 -5.881521314576e-04 0.0 
0.0 -5.126577693321e-04 0.0 
0.0 -4.326131674748e-04 0.0 
0.0 -3.502479600913e-04 0.0 
0.0 -2.681433940836e-04 0.0 
0.0 -1.894746899102e-04 0.0 
0.0 -1.167795309260e-04 0.0 
0.0 -5.114079798905e-05 0.0 
0.0 2.647628333671e-06 0.0 
0.0 4.207839160832e-05 0.0 
0.0 6.468148382841e-05 0.0 
0.0 6.657808510037e-05 0.0 
0.0 4.416538077396e-05 0.0 
0.0 0.0 0.0 
0.0 0.0 0.0 
0.0 0.0 0.0 
0.0 0.0 0.0 
0.0 0.0 0.0 
0.0 0.0 0.0 
0.0 0.0 0.0 
0.0 0.0 0.0 
0.0 0.0 0.0 
0.0 0.0 0.0 
0.0 0.0 0.0 
0.0 0.0 0.0 
0.0 0.0 0.0 
0.0 0.0 0.0 
0.0 0.0 0.0 
0.0 0.0 0.0 
0.0 0.0 0.0 
0.0 0.0 0.0 
0.0 0.0 0.0 
0.0 0.0 0.0 
0.0 0.0 0.0 
0.0 0.0 0.0 
0.0 0.0 0.0 
0.0 0.0 0.0 
0.0 0.0 0.0 
0.0 0.0 0.0 
0.0 0.0 0.0 
0.0 0.0 0.0 
0.0 0.0 0.0 
0.0 0.0 0.0 
0.0 0.0 0.0 
0.0 0.0 0.0 
0.0 0.0 0.0 
0.0 0.0 0.0 
0.0 0.0 0.0 
0.0 0.0 0.0 
0.0 0.0 0.0 
0.0 0.0 0.0 
0.0 0.0 0.0 
0.0 0.0 0.0 
0.0 0.0 0.0 
0.0 0.0 0.0 
0.0 0.0 0.0 
0.0 0.0 0.0 
0.0 0.0 0.0 
0.0 0.0 0.0 
0.0 0.0 0.0 
0.0 0.0 0.0 
0.0 0.0 0.0 
0.0 8.891468399344e-03 0.0 
0.0 7.886317154089e-03 0.0 
0.0 6.882707566238e-03 0.0 
0.0 5.881547158001e-03 0.0 
0.0 4.884487428665e-03 0.0 
0.0 3.892549048522e-03 0.0 
0.0 2.907070350846e-03 0.0 
0.0 1.929244211360e-03 0.0 
0.0 9.602388484667e-04 0.0 
4.751494126506e-04 6.239486479022e-03 0.0 
1.545108320735e-03 9.838648526036e-03 0.0 
-6.346257450490e-04 1.003035305385e-02 0.0 
2.219158459309e-04 1.222365204315e-02 0.0 
9.521109158079e-04 1.295250761470e-02 0.0 
1.428037476333e-03 1.314464291771e-02 0.0 
1.731572894362e-03 1.304314899246e-02 0.0 
1.885310218552e-03 1.271503762686e-02 0.0 
1.915822219651e-03 1.219421804194e-02 0.0 
1.853390082787e-03 1.151722758484e-02 0.0 
1.723086664222e-03 1.072098513068e-02 0.0 
0.0 1.893526347965e-02 0.0 
0.0 1.791780374263e-02 0.0 
0.0 1.690627153324e-02 0.0 
0.0 1.590421536202e-02 0.0 
0.0 1.490452377410e-02 0.0 
0.0 1.390585370398e-02 0.0 
0.0 1.290608200685e-02 0.0 
0.0 1.190458299011e-02 0.0 
0.0 1.090140761075e-02 0.0 
7.632143498008e-05 9.898826701731e-03 0.0 
1.536017310720e-04 9.905362298656e-03 0.0 
2.324502708955e-04 9.915716604708e-03 0.0 
3.136838293937e-04 9.929571039575e-03 0.0 
3.980739202451e-04 9.945382723382e-03 0.0 
4.858751305133e-04 9.961966903962e-03 0.0 
5.783301893899e-04 9.978569926039e-03 0.0 
6.757539479108e-04 9.992186108875e-03 0.0 
7.786714174201e-04 1.000237463113e-02 0.0 
8.880397032910e-04 1.000645487783e-02 0.0 
1.003965091547e-03 1.000171593407e-02 0.0 
1.127343667582e-03 9.985355035072e-03 0.0 
1.258355581671e-03 9.955197444882e-03 0.0 
1.397442858792e-03 9.907355130890e-03 0.0 
-2.804516301033e-04 5.456916449414e-03 0.0 
-5.446312577755e-04 4.389425668020e-03 0.0 
-5.945498180267e-04 3.454387080825e-03 0.0 
-5.442359159649e-04 2.660657776991e-03 0.0 
-4.646590959456e-04 2.008497263217e-03 0.0 
-3.752860556757e-04 1.463206693725e-03 0.0 
-2.848006023574e-04 1.007471109412e-03 0.0 
-2.015831938270e-04 6.284360867180e-04 0.0 
-1.287126407426e-04 3.143623012694e-04 0.0 
-6.816413594048e-05 5.489472611234e-05 0.0 
-2.030499960898e-05 -1.605353294592e-04 0.0 
1.600902944413e-05 -3.344538082898e-04 0.0 
3.889524788182e-05 -4.772260264001e-04 0.0 
5.427556954368e-05 -5.924874748194e-04 0.0 
5.991275646315e-05 -6.838810818829e-04 0.0 
5.713946891016e-05 -7.537126781180e-04 0.0 
4.786486467661e-05 -8.056562950992e-04 0.0 
3.394449307240e-05 -8.420241742169e-04 0.0 
1.763716242287e-05 -8.621801209118e-04 0.0 
1.095858621244e-04 1.893151739166e-02 0.0 
2.380304542732e-04 1.893460070390e-02 0.0 
3.541540901548e-04 1.894803609263e-02 0.0 
4.616451152191e-04 1.897089468103e-02 0.0 
5.546906190007e-04 1.899867069935e-02 0.0 
6.312034977489e-04 1.902670271694e-02 0.0 
6.911723110981e-04 1.905090292891e-02 0.0 
7.347477567559e-04 1.907204880590e-02 0.0 
7.597924363503e-04 1.908767893569e-02 0.0 
7.670417246448e-04 1.908864041713e-02 0.0 
7.572508161699e-04 1.907836248434e-02 0.0 
7.210317330613e-04 1.906053474042e-02 0.0 
6.616499590293e-04 1.903166777411e-02 0.0 
5.895113328450e-04 1.898786784366e-02 0.0 
4.993090312340e-04 1.892878783853e-02 0.0 
3.865257677138e-04 1.885068561969e-02 0.0 
2.487609884471e-04 1.874671340784e-02 0.0 
8.804323575052e-05 1.860443593862e-02 0.0 
-8.430377100764e-05 1.839301723727e-02 0.0 
-2.476355099633e-04 1.809853325703e-02 0.0 
-3.874232991156e-04 1.774053723480e-02 0.0 
-5.081018004174e-04 1.732274657857e-02 0.0 
-6.232159401334e-04 1.684003937396e-02 0.0 
-7.584341416763e-04 1.630163853843e-02 0.0 
-9.201126580913e-04 1.565350205027e-02 0.0 
-1.121966892390e-03 1.491622512241e-02 0.0 
-1.327436048787e-03 1.392680381390e-02 0.0 
-1.572596685181e-03 1.255475966243e-02 0.0 
3.890911739259e-05 1.351229945890e-02 0.0 
-7.915286598156e-06 1.441374639434e-02 0.0 
8.262226576007e-07 1.512127130131e-02 0.0 
3.267690195431e-05 1.571501788474e-02 0.0 
8.082134521057e-05 1.622255913084e-02 0.0 
1.369576642781e-04 1.666682022617e-02 0.0 
2.023604850349e-04 1.704888923896e-02 0.0 
2.758154124724e-04 1.736652908992e-02 0.0 
3.524735727647e-04 1.760809114288e-02 0.0 
4.306310078045e-04 1.777624372314e-02 0.0 
5.066482704586e-04 1.789210518671e-02 0.0 
5.742098890202e-04 1.797398089985e-02 0.0 
6.299107606377e-04 1.803246016000e-02 0.0 
6.724224919109e-04 1.807352824141e-02 0.0 
7.011121570767e-04 1.809959865239e-02 0.0 
7.149069786447e-04 1.811075019442e-02 0.0 
7.123783260636e-04 1.811135988337e-02 0.0 
6.933930867148e-04 1.810333746990e-02 0.0 
6.592088824900e-04 1.808395278563e-02 0.0 
6.119024569307e-04 1.805762737585e-02 0.0 
5.517783872990e-04 1.802800570726e-02 0.0 
4.793958790848e-04 1.799595312450e-02 0.0 
3.964292851424e-04 1.796470335753e-02 0.0 
3.048033913755e-04 1.793866969146e-02 0.0 
2.068705661902e-04 1.792176549579e-02 0.0 
1.046633494254e-04 1.791257544216e-02 0.0 
8.135908775156e-04 1.378504389203e-02 0.0 
7.384177059884e-04 1.444288310629e-02 0.0 
6.915854903629e-04 1.499419368022e-02 0.0 
6.688897204962e-04 1.546553759664e-02 0.0 
6.596980778975e-04 1.587015924298e-02 0.0 
6.592789420249e-04 1.621227018419e-02 0.0 
6.633188171204e-04 1.648870836646e-02 0.0 
6.718065807167e-04 1.669884136910e-02 0.0 
6.855790351082e-04 1.684975990917e-02 0.0 
7.021973539127e-04 1.695534921301e-02 0.0 
7.176640737402e-04 1.702873265973e-02 0.0 
7.285654530833e-04 1.707879931463e-02 0.0 
7.323443099362e-04 1.711084180613e-02 0.0 
7.273129523236e-04 1.712748324810e-02 0.0 
7.128493616481e-04 1.713060431458e-02 0.0 
6.880451150584e-04 1.712342284971e-02 0.0 
6.524133659534e-04 1.710769651219e-02 0.0 
6.071759171619e-04 1.708387269985e-02 0.0 
5.530726583100e-04 1.705458699343e-02 0.0 
4.905304490846e-04 1.702255222388e-02 0.0 
4.206433276354e-04 1.698976614005e-02 0.0 
3.446692865683e-04 1.695910460745e-02 0.0 
2.636782576255e-04 1.693391893007e-02 0.0 
1.783794182652e-04 1.691682163296e-02 0.0 
9.003119305445e-05 1.690923075618e-02 0.0 
8.361181536261e-05 1.590667797592e-02 0.0 
1.660713172358e-04 1.591732690184e-02 0.0 
2.464502201071e-04 1.593563409532e-02 0.0 
3.243412011140e-04 1.596124711008e-02 0.0 
3.992255810979e-04 1.599204936466e-02 0.0 
4.703299952975e-04 1.602525072044e-02 0.0 
5.368035757129e-04 1.605816359029e-02 0.0 
5.980422222497e-04 1.608833255746e-02 0.0 
6.534856788142e-04 1.611323510359e-02 0.0 
7.024958648806e-04 1.613068108426e-02 0.0 
7.451158084575e-04 1.613880695779e-02 0.0 
7.819438084854e-04 1.613514251076e-02 0.0 
8.137029416531e-04 1.611672159373e-02 0.0 
8.418116037211e-04 1.608040720696e-02 0.0 
8.685954743655e-04 1.602182806970e-02 0.0 
8.970466322055e-04 1.593417494387e-02 0.0 
9.302717624782e-04 1.580777863108e-02 0.0 
9.703580016903e-04 1.563147485890e-02 0.0 
1.017372982693e-03 1.539580233896e-02 0.0 
1.071237475177e-03 1.509565090514e-02 0.0 
1.133427807552e-03 1.472764705051e-02 0.0 
1.210017436283e-03 1.429104985121e-02 0.0 
1.301917843425e-03 1.377259140442e-02 0.0 
1.602644778869e-03 1.351035390510e-02 0.0 
1.493395066868e-03 1.390050434927e-02 0.0 
1.391071459694e-03 1.422274708590e-02 0.0 
1.298145848875e-03 1.448474052271e-02 0.0 
1.213395658202e-03 1.468997129766e-02 0.0 
1.137114533956e-03 1.484533112731e-02 0.0 
1.068592680332e-03 1.495820232084e-02 0.0 
1.006212671103e-03 1.503696378410e-02 0.0 
9.477095642628e-04 1.508887402330e-02 0.0 
8.908917061991e-04 1.511960465100e-02 0.0 
8.340299103833e-04 1.513335384980e-02 0.0 
7.759499745799e-04 1.513344190431e-02 0.0 
7.158195743395e-04 1.512267494027e-02 0.0 
6.531235022091e-04 1.510351334493e-02 0.0 
5.877770011611e-04 1.507813393796e-02 0.0 
5.199592831994e-04 1.504866626391e-02 0.0 
4.499382352809e-04 1.501736096227e-02 0.0 
3.780744621363e-04 1.498648128522e-02 0.0 
3.047226863755e-04 1.495827934730e-02 0.0 
2.300795597554e-04 1.493485918634e-02 0.0 
1.541901806476e-04 1.491782595415e-02 0.0 
7.724762039040e-05 1.490820889231e-02 0.0 
7.670699265150e-05 1.390915161699e-02 0.0 
1.535921110621e-04 1.391935548967e-02 0.0 
2.302520454512e-04 1.393622318236e-02 0.0 
3.068192397816e-04 1.395895409137e-02 0.0 
3.834123787847e-04 1.398604508459e-02 0.0 
4.600546566899e-04 1.401555470414e-02 0.0 
5.366951898367e-04 1.404531140948e-02 0.0 
6.132769399950e-04 1.407304359165e-02 0.0 
6.897966887611e-04 1.409643091276e-02 0.0 
7.664085282860e-04 1.411309419761e-02 0.0 
8.435246036627e-04 1.412046174340e-02 0.0 
9.218399288423e-04 1.411566209237e-02 0.0 
1.002348830814e-03 1.409538676043e-02 0.0 
1.086371195711e-03 1.405561201898e-02 0.0 
1.175575698430e-03 1.399137700668e-02 0.0 
1.271654554671e-03 1.389648785112e-02 0.0 
1.376118351795e-03 1.376396919110e-02 0.0 
1.489550648329e-03 1.358611570603e-02 0.0 
1.612575214173e-03 1.335723468734e-02 0.0 
1.742318862964e-03 1.306989831124e-02 0.0 
1.767607897832e-03 1.244188080895e-02 0.0 
1.630482220385e-03 1.263788860882e-02 0.0 
1.499948353516e-03 1.278994080005e-02 0.0 
1.378327774341e-03 1.290457577497e-02 0.0 
1.264751369623e-03 1.298691355001e-02 0.0 
1.158443924194e-03 1.304287622193e-02 0.0 
1.058210809708e-03 1.307724681950e-02 0.0 
9.629933725251e-04 1.309433175478e-02 0.0 
8.718164333811e-04 1.309762980757e-02 0.0 
7.838804579267e-04 1.309014599946e-02 0.0 
6.985556247633e-04 1.307453260150e-02 0.0 
6.154214097996e-04 1.305319892641e-02 0.0 
5.342093905143e-04 1.302834012113e-02 0.0 
4.546973106373e-04 1.300200952710e-02 0.0 
3.767046560743e-04 1.297615291115e-02 0.0 
3.000054147770e-04 1.295255295951e-02 0.0 
2.242969190398e-04 1.293275427781e-02 0.0 
1.492518269746e-04 1.291799011394e-02 0.0 
7.459697724169e-05 1.290904270935e-02 0.0 
7.634738129827e-05 1.190754378564e-02 0.0 
1.533686984122e-04 1.191604062672e-02 0.0 
2.313072427407e-04 1.192996525388e-02 0.0 
3.106562052868e-04 1.194845620202e-02 0.0 
3.919395587499e-04 1.197021916161e-02 0.0 
4.756736981469e-04 1.199374057169e-02 0.0 
5.621983750584e-04 1.201731198179e-02 0.0 
6.519987996988e-04 1.203886765722e-02 0.0 
7.454630476362e-04 1.205634667273e-02 0.0 
8.430023961528e-04 1.206737646177e-02 0.0 
9.452349526825e-04 1.206922464223e-02 0.0 
1.052886170923e-03 1.205899658071e-02 0.0 
1.166754628602e-03 1.203337275355e-02 0.0 
1.287683667421e-03 1.198860747084e-02 0.0 
1.416328579503e-03 1.191988775674e-02 0.0 
1.553463918704e-03 1.182277673614e-02 0.0 
1.697973934983e-03 1.169103348847e-02 0.0 
1.573462281470e-03 1.083209313310e-02 0.0 
1.433943175360e-03 1.091273469124e-02 0.0 
1.300691489458e-03 1.096979901111e-02 0.0 
1.175299178149e-03 1.100756548603e-02 0.0 
1.057084380148e-03 1.102927651761e-02 0.0 
9.455779799603e-04 1.103802450056e-02 0.0 
8.400878896615e-04 1.103649720207e-02 0.0 
7.400013803401e-04 1.102715555399e-02 0.0 
6.448165731964e-04 1.101259051248e-02 0.0 
5.542058355256e-04 1.099476832498e-02 0.0 
4.674574138580e-04 1.097508908653e-02 0.0 
3.842336129173e-04 1.095573022964e-02 0.0 
3.039316115402e-04 1.093772246817e-02 0.0 
2.259538253374e-04 1.092236479595e-02 0.0 
1.497885860800e-04 1.091085138431e-02 0.0 
7.477488512128e-05 1.090373731426e-02 0.0 
2.484270653987e-04 8.791635709477e-03 0.0 
-2.226946049747e-04 1.133404065154e-02 0.0 
6.381180583879e-04 1.267351581687e-02 0.0 
1.219930107499e-03 1.309156040101e-02 0.0 
1.605429096856e-03 1.312393611475e-02 0.0 
1.827735430435e-03 1.290351498125e-02 0.0 
1.915184545381e-03 1.247606287867e-02 0.0 
1.894915706491e-03 1.187257337833e-02 0.0 
1.795790804185e-03 1.113140401718e-02 0.0 
1.638877467722e-03 1.028847004534e-02 0.0 
9.401824036584e-04 1.052122782300e-02 0.0 
5.334231778552e-04 2.700517846199e-04 0.0 
1.349725634202e-04 1.643725453187e-04 0.0 
1.009603832387e-05 2.322929936829e-03 0.0 
3.862545724415e-04 1.433235589836e-04 0.0 
1.810204322071e-03 1.219887525410e-02 0.0 
1.508920193068e-04 -3.032265700663e-04 0.0 
5.949988292804e-04 4.064012058052e-04 0.0 
2.137802286536e-03 1.197688245913e-02 0.0 
5.580340208305e-04 5.317417574279e-04 0.0 
2.043444411598e-03 1.093652507828e-02 0.0 
2.290248350350e-04 7.656886799948e-05 0.0 
1.514384804506e-04 -5.502104742301e-04 0.0 
4.750479843692e-04 6.604057606429e-04 0.0 
1.683244336224e-03 9.346322993307e-03 0.0 
1.149660860588e-04 -6.169071120032e-04 0.0 
1.507734253404e-04 -9.178226299503e-05 0.0 
4.021031275505e-04 7.573115725249e-04 0.0 
2.624752153358e-04 7.782374336585e-04 0.0 
7.050492305086e-05 8.196665164585e-04 0.0 
1.330628532076e-04 8.846386009210e-04 0.0 
1.810696890997e-04 7.817757799555e-04 0.0 
1.332723889313e-03 9.014018077836e-03 0.0 
8.353362777904e-04 9.076494919281e-03 0.0 
5.296483990628e-04 9.024752667837e-03 0.0 
4.831105623999e-05 5.367519093557e-03 0.0 
1.437557407973e-04 5.603707449203e-05 0.0 
1.428561151014e-04 5.013941131756e-03 0.0 
1.033559104996e-04 -7.750913973106e-04 0.0 
1.022856737251e-04 5.622563159521e-05 0.0 
2.652632867887e-04 9.051356373046e-03 0.0 
7.667338991781e-05 -7.857281425630e-04 0.0 
3.694530449860e-04 8.750935067533e-04 0.0 
5.405498505489e-04 4.339594313398e-04 0.0 
5.164072822676e-04 5.921432077728e-04 0.0 
6.086531510207e-04 3.589215009550e-04 0.0 
4.574458079581e-04 2.017750838306e-04 0.0 
6.838089652432e-05 1.202423930575e-03 0.0 
1.070370853634e-03 9.123034914862e-03 0.0 
3.611695499342e-04 1.230163195495e-04 0.0 
3.615951527969e-05 3.441281395994e-03 0.0 
1.600860345015e-04 -2.593155874782e-04 0.0 
1.406466115581e-04 -4.686666106738e-04 0.0 
3.525325078351e-05 6.655285656279e-04 0.0 
2.048486464462e-03 1.217071663340e-02 0.0 
1.453184319394e-03 1.177504703899e-02 0.0 
2.134165212466e-03 1.154532535910e-02 0.0 
1.886831773742e-03 1.019271364013e-02 0.0 
1.192713735402e-04 8.150438988325e-03 0.0 
5.932224658464e-05 7.264980959666e-03 0.0 
6.565914330161e-05 3.687508050858e-05 0.0 
4.704578346695e-05 -8.450894587053e-04 0.0 
1.945654291284e-05 1.515427864679e-03 0.0 
1.593430107699e-03 8.877769667909e-03 0.0 
1.701536632485e-03 8.390976351317e-03 0.0 
1.545439286223e-03 8.001383680175e-03 0.0 
1.672005282331e-03 7.445165026437e-03 0.0 
1.521385171687e-03 6.970784946078e-03 0.0 
1.613822138079e-03 6.479221068323e-03 0.0 
1.781328797716e-03 6.928726767422e-03 0.0 
1.697897916621e-03 5.981359881616e-03 0.0 
1.879937578255e-03 6.414312977904e-03 0.0 
1.444557407398e-03 6.001179899937e-03 0.0 
1.768288502983e-03 5.479764828840e-03 0.0 
1.964667210325e-03 5.894320696736e-03 0.0 
1.822691097991e-03 4.978887158932e-03 0.0 
2.031705718240e-03 5.371660577023e-03 0.0 
2.157476691903e-03 6.283366992895e-03 0.0 
2.237044911779e-03 5.740018908814e-03 0.0 
2.343459695801e-03 6.640129910626e-03 0.0 
2.434984528614e-03 6.072167150046e-03 0.0 
2.295166949656e-03 5.200772342295e-03 0.0 
2.503451942709e-03 5.508767639336e-03 0.0 
2.622863087924e-03 6.364602337815e-03 0.0 
2.699998132778e-03 5.773816892509e-03 0.0 
2.797715887252e-03 6.610736394809e-03 0.0 
2.881697061627e-03 5.987747048362e-03 0.0 
2.958256573038e-03 6.806148933578e-03 0.0 
3.046571734131e-03 6.148256742160e-03 0.0 
2.935131569292e-03 5.375509319305e-03 0.0 
3.101897048154e-03 5.505684849852e-03 0.0 
3.190526547770e-03 6.248853894756e-03 0.0 
3.245224085909e-03 5.574279051931e-03 0.0 
3.310273200733e-03 6.283900461987e-03 0.0 
3.361212694634e-03 5.575928670171e-03 0.0 
3.261718549885e-03 4.925340218861e-03 0.0 
3.371430375599e-03 4.901723380359e-03 0.0 
3.445757483225e-03 5.507301300475e-03 0.0 
3.446173487096e-03 4.811345104602e-03 0.0 
3.493630673118e-03 5.365537685140e-03 0.0 
3.481453191391e-03 4.653498501816e-03 0.0 
3.499710366146e-03 5.149017830074e-03 0.0 
3.472948191898e-03 4.428562065386e-03 0.0 
3.428725683818e-03 3.997472518441e-03 0.0 
3.407374740035e-03 3.772236111480e-03 0.0 
3.416584868416e-03 4.142746866456e-03 0.0 
3.339372667514e-03 3.497767592853e-03 0.0 
3.308487275473e-03 3.187107813355e-03 0.0 
3.232297953893e-03 2.930404381994e-03 0.0 
3.181458659947e-03 2.671289370566e-03 0.0 
3.100341076614e-03 2.435349394570e-03 0.0 
3.113607431740e-03 2.642497643279e-03 0.0 
2.979518359237e-03 2.173518726216e-03 0.0 
2.947941844459e-03 2.007367822519e-03 0.0 
2.827416096560e-03 1.772118870366e-03 0.0 
2.822388807142e-03 1.894435962797e-03 0.0 
2.674658613187e-03 1.523952917366e-03 0.0 
2.661426578014e-03 1.432049014414e-03 0.0 
2.513558802901e-03 1.211719081794e-03 0.0 
2.494703718094e-03 1.270246066052e-03 0.0 
2.341685324976e-03 9.883429835440e-04 0.0 
2.343079790148e-03 9.522085795102e-04 0.0 
2.178848371296e-03 7.551405606658e-04 0.0 
2.150419842464e-03 7.666240718067e-04 0.0 
1.998207792679e-03 5.612790968701e-04 0.0 
2.009115290622e-03 5.654323929405e-04 0.0 
1.837904801140e-03 3.948965254229e-04 0.0 
1.833091561727e-03 4.123829804837e-04 0.0 
1.802824294928e-03 3.712093095725e-04 0.0 
1.654909383326e-03 2.295428879027e-04 0.0 
1.599748774882e-03 1.906060921966e-04 0.0 
1.465135001545e-03 7.246486514805e-05 0.0 
3.239853793235e-03 4.309945523093e-03 0.0 
1.397167217345e-03 2.428970042432e-05 0.0 
1.512092735797e-03 1.522429369328e-04 0.0 
1.274015139998e-03 -7.364552837049e-05 0.0 
1.321995881104e-03 -1.850431494300e-05 0.0 
1.197062906395e-03 -1.283501399305e-04 0.0 
1.085253358310e-03 -2.076474505782e-04 0.0 
1.003966266114e-03 -2.658408614039e-04 0.0 
3.480720428233e-03 5.953287625226e-03 0.0 
2.327937746629e-03 4.668730143364e-03 0.0 
9.028781177450e-04 -3.283882041651e-04 0.0 
8.218869791341e-04 -3.874962744940e-04 0.0 
8.994946060173e-04 -3.190707212226e-04 0.0 
7.220421787605e-04 -4.398593478625e-04 0.0 
1.363183752337e-03 6.490674213695e-03 0.0 
1.274334327629e-03 5.509262827771e-03 0.0 
1.206791995600e-03 5.994877655788e-03 0.0 
1.105525363912e-03 5.010555522165e-03 0.0 
1.051297405094e-03 5.483298905143e-03 0.0 
6.536113076350e-04 -4.934158388847e-04 0.0 
1.611871710732e-03 4.538547691400e-03 0.0 
1.148332231559e-03 4.530546209801e-03 0.0 
2.686665290864e-03 7.239428854497e-03 0.0 
3.219353295232e-03 7.015733591701e-03 0.0 
3.219830870586e-03 2.872234649966e-03 0.0 
9.631345577024e-04 -2.646933532936e-04 0.0 
7.901951963224e-04 -3.711048541186e-04 0.0 
8.319412472350e-04 -3.025667987014e-04 0.0 
1.978283184799e-03 5.627537032102e-04 0.0 
1.788586758592e-03 4.221725406619e-04 0.0 
1.904688183439e-03 5.507825419344e-04 0.0 
1.704435711235e-03 4.225367074638e-04 0.0 
1.788455490289e-03 5.280453932194e-04 0.0 
1.580884513599e-03 4.118531452415e-04 0.0 
1.504634409695e-03 3.213908241177e-04 0.0 
1.376435535209e-03 3.204086031250e-04 0.0 
1.307446919995e-03 2.432656771939e-04 0.0 
1.629812859104e-03 4.929420834682e-04 0.0 
1.844607353909e-03 6.235523737719e-04 0.0 
1.177462110668e-03 2.496684674455e-04 0.0 
1.115003667152e-03 1.843340766341e-04 0.0 
9.862366906553e-04 1.958453767054e-04 0.0 
9.295628245220e-04 1.412775314153e-04 0.0 
1.029378470622e-03 1.130788690599e-04 0.0 
8.494883093025e-04 8.087484730848e-05 0.0 
9.244178331654e-04 3.854407087441e-05 0.0 
3.073682620091e-03 2.404782749686e-03 0.0 
3.074279503451e-03 2.552937203499e-03 0.0 
2.909588000449e-03 2.131665935526e-03 0.0 
2.871605211834e-03 2.228883922286e-03 0.0 
2.688830932193e-03 1.852116730075e-03 0.0 
2.611155647433e-03 1.900644900308e-03 0.0 
2.410254840032e-03 1.566463979275e-03 0.0 
2.488028145327e-03 1.525588330651e-03 0.0 
1.860192826462e-03 4.474918741168e-03 0.0 
3.310159629080e-03 3.803035122859e-03 0.0 
3.364039744370e-03 4.511158664293e-03 0.0 
3.216957211802e-03 4.101992033464e-03 0.0 
3.245049235814e-03 4.873731240167e-03 0.0 
3.053980239336e-03 4.389291109958e-03 0.0 
3.052747545283e-03 5.229903372941e-03 0.0 
2.812387643070e-03 4.664743868876e-03 0.0 
2.811242198402e-03 3.873400027230e-03 0.0 
2.520206223040e-03 4.078731356489e-03 0.0 
2.526390871530e-03 3.348318765214e-03 0.0 
2.193227576003e-03 3.495268226795e-03 0.0 
2.212403203126e-03 2.833375323347e-03 0.0 
2.955432627986e-03 4.781717729158e-03 0.0 
2.791505725088e-03 2.283308889866e-03 0.0 
2.491822729328e-03 1.906666534129e-03 0.0 
2.670071852157e-03 2.289822276708e-03 0.0 
7.741344055053e-04 -3.652457052237e-04 0.0 
7.531066744170e-04 1.112359045987e-04 0.0 
1.647324072144e-03 5.606918056942e-04 0.0 
1.869918374495e-03 7.048947897469e-04 0.0 
2.193723506298e-03 1.277854251162e-03 0.0 
5.623578432517e-04 -5.430142089070e-04 0.0 
2.777211222236e-03 5.579286866152e-03 0.0 
3.004803735446e-03 6.189410678624e-03 0.0 
9.417465940594e-04 4.496780629918e-03 0.0 
9.006444622126e-04 4.961755454482e-03 0.0 
1.629704734081e-03 6.109362176545e-04 0.0 
5.013123620045e-04 -5.842948562961e-04 0.0 
1.212726901690e-03 3.059747253133e-04 0.0 
2.138136214413e-03 4.271579303650e-03 0.0 
6.774215295767e-04 6.072943544604e-05 0.0 
5.876027430969e-04 9.169092004817e-05 0.0 
1.405334949170e-03 2.252576834364e-04 0.0 
2.331658800213e-03 1.866719044716e-03 0.0 
2.514959011943e-03 2.253144346618e-03 0.0 
2.505672094251e-03 2.722800051035e-03 0.0 
2.204926203746e-03 2.268597594691e-03 0.0 
1.883842360729e-03 2.341088916725e-03 0.0 
1.900607877918e-03 1.823093163065e-03 0.0 
2.174573133198e-03 1.785367970689e-03 0.0 
1.881339789849e-03 1.406000372501e-03 0.0 
1.590743870120e-03 1.420163729902e-03 0.0 
1.589598064802e-03 1.054925122480e-03 0.0 
1.843367692143e-03 1.051048976878e-03 0.0 
1.569647811805e-03 7.460561022160e-04 0.0 
1.307122591685e-03 7.383315313463e-04 0.0 
1.306254747606e-03 4.714510818617e-04 0.0 
6.359973559902e-04 1.270579203455e-04 0.0 
1.773761687693e-03 3.634123737644e-03 0.0 
2.232552586775e-03 7.205902857243e-03 0.0 
1.404827092088e-03 4.834255012319e-04 0.0 
2.077368613281e-03 1.280027700636e-03 0.0 
7.851547947603e-04 3.974990269256e-03 0.0 
7.564736683859e-04 4.432924035043e-03 0.0 
8.498565149254e-04 5.429735614897e-03 0.0 
7.173606811237e-04 4.891575055909e-03 0.0 
6.205980191492e-04 3.898675726228e-03 0.0 
5.927638044859e-04 4.351674550809e-03 0.0 
6.701151065486e-04 5.350552931724e-03 0.0 
5.558688093716e-04 4.804485710880e-03 0.0 
6.164502285172e-04 5.807746854344e-03 0.0 
5.116958658415e-04 5.255993267713e-03 0.0 
4.498605781281e-04 4.257471200198e-03 0.0 
4.144708355921e-04 4.705514393188e-03 0.0 
4.619111007862e-04 5.706577099678e-03 0.0 
3.726113107027e-04 5.152965363075e-03 0.0 
4.078622615010e-04 6.155359627792e-03 0.0 
3.254934342719e-04 5.599528486177e-03 0.0 
2.909202665886e-04 4.601667315986e-03 0.0 
4.271548062297e-04 -6.272969583621e-04 0.0 
2.273783823876e-03 1.246134532187e-03 0.0 
1.965655694442e-03 1.031783919880e-03 0.0 
6.721948482165e-04 -3.947399546072e-04 0.0 
6.988216685233e-04 -3.217686708854e-04 0.0 
8.554751571776e-04 -2.317538425890e-04 0.0 
7.035361724849e-04 -2.496942864183e-04 0.0 
2.489534122966e-04 5.050856184182e-03 0.0 
2.177245087437e-04 4.054084055640e-03 0.0 
2.694396609297e-03 6.632620477627e-03 0.0 
2.896163316056e-03 7.272473477990e-03 0.0 
8.009431422340e-04 3.518306288182e-03 0.0 
5.149669832271e-04 5.000076147642e-05 0.0 
5.817700993802e-04 6.466865173037e-06 0.0 
3.315101103293e-03 7.015330435705e-03 0.0 
3.186900505936e-03 7.802953652543e-03 0.0 
3.256604871424e-03 7.771885695530e-03 0.0 
3.086670212210e-03 8.630436599231e-03 0.0 
3.022008523599e-03 8.597641809254e-03 0.0 
3.126497012289e-03 8.572418611539e-03 0.0 
2.062006839654e-03 7.852261713114e-04 0.0 
3.532651707058e-04 3.711815517823e-03 0.0 
9.617393870370e-04 -2.269098790038e-04 0.0 
8.071477405801e-04 -2.674115059071e-04 0.0 
4.351297293087e-04 7.941333058833e-05 0.0 
2.524489532245e-03 1.450091221897e-03 0.0 
2.765255198573e-03 4.620909632201e-03 0.0 
2.750035448226e-03 4.072039305664e-03 0.0 
2.535436988731e-03 3.880641636639e-03 0.0 
2.484152618919e-03 3.376552693844e-03 0.0 
2.244435712392e-03 3.154746116362e-03 0.0 
2.154515734923e-03 2.695379542416e-03 0.0 
2.399638306796e-03 2.901030349658e-03 0.0 
2.130992295933e-03 1.776642052085e-03 0.0 
2.031024057503e-03 2.264739007086e-03 0.0 
2.786647817583e-04 6.054897964437e-03 0.0 
2.949656347568e-03 2.717882242524e-03 0.0 
1.786382647564e-03 7.552549134679e-04 0.0 
4.670696238082e-04 -5.782408649041e-04 0.0 
1.036199640184e-03 4.581052794505e-04 0.0 
3.677041882683e-04 -6.590806715691e-04 0.0 
4.247524910068e-04 -6.080479530390e-04 0.0 
1.342094018624e-03 5.027806538077e-04 0.0 
1.889495489453e-03 2.443309258715e-03 0.0 
1.987876828072e-03 2.887356525174e-03 0.0 
2.878894186683e-03 9.483088001006e-03 0.0 
2.826568643466e-03 9.384216123016e-03 0.0 
1.928177644380e-03 1.443523122254e-03 0.0 
1.130007608213e-03 6.487146746759e-03 0.0 
7.274856783616e-04 6.359450355321e-03 0.0 
6.593564058875e-04 6.818842751565e-03 0.0 
3.083169842109e-04 -6.971949956830e-04 0.0 
1.009740123222e-03 7.371459279017e-04 0.0 
4.950707953112e-04 3.362737526716e-03 0.0 
3.159704161457e-03 6.728494600589e-03 0.0 
3.025742484782e-03 7.795787190397e-03 0.0 
1.657730559982e-03 4.451395055065e-03 0.0 
1.272660285262e-03 3.768422451473e-03 0.0 
1.833973238362e-04 4.490723881961e-03 0.0 
1.550887856801e-04 3.508229785422e-03 0.0 
8.577984092648e-04 -1.622156177478e-04 0.0 
6.961580541108e-04 -1.772967607601e-04 0.0 
1.573197578342e-03 6.395749585300e-04 0.0 
1.060186663764e-03 2.279084735343e-04 0.0 
1.775607600293e-04 3.066656738945e-03 0.0 
2.312084510933e-03 1.181503081212e-03 0.0 
2.520489075437e-03 1.343954476838e-03 0.0 
5.473223069053e-04 -3.313653001397e-04 0.0 
2.538894652280e-03 7.833397096289e-03 0.0 
2.285630311571e-03 7.073961897548e-03 0.0 
2.046269196784e-03 1.043536967402e-03 0.0 
1.283139332230e-03 2.521522559424e-04 0.0 
2.957571952106e-04 -6.743305388692e-04 0.0 
1.237277823161e-03 4.977465035326e-04 0.0 
5.010865697455e-04 2.916452367274e-03 0.0 
2.280387483403e-03 2.460481799576e-03 0.0 
2.619449846827e-03 3.061166912788e-03 0.0 
1.875691979872e-03 1.868370299438e-03 0.0 
8.072899671363e-04 2.120987081134e-04 0.0 
1.116601925299e-03 3.900409792039e-04 0.0 
3.643779513596e-04 4.650886230451e-05 0.0 
1.624186986725e-03 2.184081637735e-03 0.0 
1.716737463730e-03 2.581011652649e-03 0.0 
3.250438074804e-03 7.167842969224e-03 0.0 
3.100744930532e-03 8.188034234749e-03 0.0 
2.818424665494e-03 8.929825217641e-03 0.0 
2.882524186784e-03 9.243184399178e-03 0.0 
1.945521508286e-03 7.361796125237e-03 0.0 
3.290999582709e-03 7.492631377165e-03 0.0 
2.397561383845e-03 7.552499487924e-03 0.0 
2.259980247316e-03 8.136503956127e-03 0.0 
2.400706153414e-03 8.474182025402e-03 0.0 
2.934217870120e-03 8.505022520789e-03 0.0 
2.747998206752e-03 9.236374309071e-03 0.0 
3.378019570128e-03 5.310734886677e-03 0.0 
3.214777193805e-03 3.032357867996e-03 0.0 
1.017008362081e-03 -1.324460629173e-04 0.0 
1.104174419015e-03 7.410448603801e-05 0.0 
2.103190743361e-03 7.108388478600e-04 0.0 
3.721545013801e-04 3.267567577754e-03 0.0 
2.784875702313e-04 2.726815910412e-03 0.0 
4.960779445140e-04 6.713675918054e-03 0.0 
4.319394650142e-04 7.162773853473e-03 0.0 
6.315625940568e-04 -4.022205118298e-04 0.0 
6.361324312905e-04 -2.961371920383e-04 0.0 
1.652919113442e-03 2.911629877436e-04 0.0 
1.186054438511e-03 3.802545697583e-04 0.0 
6.410994660955e-04 2.998413840566e-03 0.0 
6.284468078017e-04 2.551064258483e-03 0.0 
8.011083594622e-04 3.062634274193e-03 0.0 
1.474331173918e-03 6.425452097611e-04 0.0 
3.155908759345e-03 3.426647805395e-03 0.0 
2.906028797566e-03 1.997670983855e-03 0.0 
1.410013630227e-03 3.047097781136e-03 0.0 
3.105351541735e-03 4.292196825808e-03 0.0 
4.768640986542e-04 -4.274527264296e-04 0.0 
2.102213365059e-03 4.349003915698e-03 0.0 
2.983522466995e-04 7.309431718001e-05 0.0 
3.429896493758e-04 9.201574367567e-05 0.0 
1.688114179977e-03 1.314212744516e-03 0.0 
1.828613664067e-03 8.834675101624e-03 0.0 
3.051709392820e-03 3.732088402693e-03 0.0 
3.181413904944e-03 3.737446111499e-03 0.0 
2.241144049195e-03 9.069182057613e-03 0.0 
2.355403562479e-03 9.399339663871e-03 0.0 
2.528154997880e-03 8.772075575611e-03 0.0 
2.453814971742e-03 9.696668697565e-03 0.0 
1.955970129819e-03 7.638891504106e-04 0.0 
1.711699389595e-03 5.129820377882e-04 0.0 
1.451443947056e-03 1.727380814828e-03 0.0 
1.609577373459e-03 1.659507879939e-03 0.0 
1.345077527556e-03 1.872556021852e-03 0.0 
1.436773806675e-03 2.234584618413e-03 0.0 
1.457063982388e-03 1.022079183341e-03 0.0 
1.703532943892e-03 1.148673732067e-03 0.0 
3.336617201067e-04 -6.174456611667e-04 0.0 
2.612707968567e-03 1.013504200107e-02 0.0 
3.771074466445e-04 2.383842072019e-03 0.0 
2.114823681996e-03 8.711048462108e-03 0.0 
9.075919806998e-04 3.006922792965e-04 0.0 
9.773702428242e-04 2.957215448961e-04 0.0 
8.990752825883e-04 3.150649189540e-03 0.0 
1.044885486059e-03 2.422842999528e-03 0.0 
1.202703724602e-04 2.546947566315e-03 0.0 
2.544191309819e-03 1.005958064396e-02 0.0 
2.609261877991e-03 1.028238261069e-02 0.0 
2.446230880942e-03 9.686542933342e-03 0.0 
4.564056706409e-05 6.160862962039e-05 0.0 
1.137109476332e-04 9.047870483920e-03 0.0 
2.231887395664e-04 8.154340585895e-05 0.0 
2.821173247827e-03 8.345109823946e-03 0.0 
1.293768910139e-04 2.070729376712e-03 0.0 
2.963497785586e-03 3.219140165776e-03 0.0 
3.381940002039e-03 6.949029285205e-03 0.0 
1.806956461367e-03 8.065043155506e-04 0.0 
9.836800491584e-05 3.066558834274e-03 0.0 
7.177672333327e-05 1.989007846809e-03 0.0 
7.632254210527e-04 7.358494303172e-03 0.0 
6.857756618442e-04 7.835538174208e-03 0.0 
8.436241561206e-04 6.908821821501e-03 0.0 
2.054158989314e-03 5.177259315903e-03 0.0 
1.449540224762e-03 5.530415739919e-03 0.0 
2.671394433880e-04 3.168110701429e-03 0.0 
6.267173004792e-04 -4.653358983783e-04 0.0 
5.063323489417e-04 -4.748166643738e-04 0.0 
1.045265644708e-03 4.270535642893e-05 0.0 
1.235337136205e-03 7.405439959496e-05 0.0 
1.009347327341e-03 -6.931190060845e-05 0.0 
1.176538955184e-03 -2.644216203598e-05 0.0 
2.095547792406e-03 3.844502212321e-03 0.0 
1.852905199912e-03 3.514907144182e-03 0.0 
2.555058480636e-03 4.411220015268e-03 0.0 
2.310457144088e-03 1.089659052067e-03 0.0 
2.478363126053e-03 1.213368498698e-03 0.0 
2.676403518559e-03 1.497859704837e-03 0.0 
2.825118088258e-04 2.318397953190e-03 0.0 
1.863369909743e-04 1.703067031713e-03 0.0 
2.196488322779e-03 1.035963382803e-03 0.0 
2.301090506511e-03 1.354227661753e-03 0.0 
1.848997156221e-03 5.341463149394e-04 0.0 
3.617706980546e-04 1.962172763415e-03 0.0 
2.449560410983e-04 8.573859954379e-05 0.0 
3.630641459995e-04 1.050679567482e-04 0.0 
4.564888134026e-04 -3.157106069253e-04 0.0 
6.232347399190e-04 -1.596488055750e-04 0.0 
2.078491352013e-03 8.396379363673e-03 0.0 
1.754790939476e-03 7.510650497901e-03 0.0 
6.059691010594e-04 2.144184284857e-03 0.0 
7.848378553923e-04 2.618235381259e-03 0.0 
4.254515340165e-04 1.599939946094e-03 0.0 
2.060084024657e-04 -6.791226149473e-04 0.0 
2.494378739825e-03 2.604311733105e-03 0.0 
1.114619437230e-03 4.823930437439e-04 0.0 
1.359709216297e-03 6.337606329925e-04 0.0 
8.288539361143e-04 3.339841632065e-04 0.0 
1.910361944887e-03 1.656310901873e-03 0.0 
1.439928325680e-03 1.158554152305e-03 0.0 
1.397413222700e-03 1.288584753973e-03 0.0 
7.188055676325e-04 3.876811427167e-03 0.0 
5.406713792834e-05 2.390627320367e-03 0.0 
5.177376441919e-04 7.726357719533e-03 0.0 
4.258881301277e-04 3.319343112292e-03 0.0 
4.444925999533e-04 8.210561509633e-03 0.0 
3.680411774687e-04 7.617543649870e-03 0.0 
3.828550038425e-04 8.689778861857e-03 0.0 
1.843152495603e-04 -7.277862373961e-04 0.0 
8.798511012681e-04 8.082291378604e-03 0.0 
9.720082501076e-04 7.496609140921e-03 0.0 
3.730357439560e-04 -1.715606117910e-04 0.0 
2.422266521973e-04 1.445122647411e-03 0.0 
3.324010130402e-04 -4.334377778386e-04 0.0 
3.561769365106e-04 -5.274441541306e-04 0.0 
7.040109256533e-04 2.231958600779e-04 0.0 
7.803930925738e-04 2.286141721472e-04 0.0 
5.199051783982e-04 1.647997211828e-04 0.0 
6.126614112067e-04 1.797434079204e-04 0.0 
8.246465725337e-04 2.185385173327e-04 0.0 
6.476345769252e-04 1.715360426301e-04 0.0 
6.131663029316e-04 8.380368950302e-03 0.0 
4.237775281786e-04 1.287190115164e-04 0.0 
4.840465841480e-04 1.343688213412e-04 0.0 
2.829029089481e-04 8.956058745129e-05 0.0 
2.255520749475e-03 1.032545297942e-02 0.0 
2.899773171433e-03 9.456279743531e-03 0.0 
2.634533913480e-03 1.042506200062e-02 0.0 
2.281025255808e-03 1.133655655669e-02 0.0 
9.650861353773e-04 1.370208098800e-03 0.0 
1.172870279995e-03 1.896894007359e-03 0.0 
2.271245303737e-04 4.860870219039e-05 0.0 
2.614410756656e-04 9.925923898781e-06 0.0 
3.030063379319e-04 8.145319418576e-03 0.0 
2.203368564364e-04 8.178823610552e-03 0.0 
2.394440009248e-04 7.262062425383e-03 0.0 
1.723830846623e-04 7.367281989926e-03 0.0 
1.849267391104e-04 6.469169582242e-03 0.0 
1.188703412873e-04 6.579812540885e-03 0.0 
1.396724785950e-04 5.683359603265e-03 0.0 
1.095716929641e-03 1.059663700585e-03 0.0 
2.091915948503e-03 1.087134929247e-02 0.0 
2.073771534292e-03 9.656764930964e-03 0.0 
1.205838439860e-03 7.653289690836e-04 0.0 
1.501181450092e-03 9.252943637411e-04 0.0 
2.546949416182e-03 9.941050626908e-03 0.0 
2.384889668711e-03 1.087602512117e-02 0.0 
7.399204954118e-04 2.634165911763e-04 0.0 
3.398428757330e-03 6.563946665494e-03 0.0 
1.819010138733e-04 9.125021711569e-04 0.0 
2.215640724667e-04 6.034857422283e-03 0.0 
6.806230641389e-04 5.528026891888e-03 0.0 
3.409592080202e-03 6.822560245854e-03 0.0 
2.644284016264e-03 9.029026680408e-03 0.0 
2.900378224394e-03 9.528357868146e-03 0.0 
2.660971214973e-03 1.037838423771e-02 0.0 
2.089760088154e-03 9.555331249532e-04 0.0 
5.795200898092e-04 9.465491921321e-06 0.0 
2.300352355691e-03 9.133882036342e-03 0.0 
2.041704837148e-04 5.587845040631e-03 0.0 
1.742097294904e-03 9.796382255449e-03 0.0 
1.195476468222e-04 2.453193759584e-05 0.0 
3.454505051529e-03 5.674919813430e-03 0.0 
2.976270244457e-03 7.646958762019e-03 0.0 
2.712894003106e-03 8.452152503120e-03 0.0 
3.135612503826e-03 8.431658992288e-03 0.0 
2.060026190694e-03 6.826794429462e-03 0.0 
1.824084531545e-03 7.885080546017e-03 0.0 
1.967272076555e-03 8.319832550334e-03 0.0 
3.457785843905e-03 4.869185804553e-03 0.0 
2.652478353998e-03 1.028170794238e-02 0.0 
2.394065036949e-03 1.124720682819e-02 0.0 
2.521751203124e-03 6.961666579711e-03 0.0 
9.846981746580e-04 3.565872398895e-03 0.0 
9.799536142438e-04 3.103965505204e-03 0.0 
7.538344988649e-04 2.205404708352e-03 0.0 
9.555491289619e-04 2.657897716457e-03 0.0 
1.185625594690e-03 3.584876630446e-03 0.0 
1.174565401285e-03 3.122071684358e-03 0.0 
9.091285034442e-04 2.230886451136e-03 0.0 
1.141782215092e-03 2.671214796430e-03 0.0 
7.669665023478e-04 1.635237819167e-03 0.0 
1.073593986196e-03 2.213735562101e-03 0.0 
1.383949724171e-03 3.118935035820e-03 0.0 
1.342245254503e-03 2.683464300093e-03 0.0 
1.028025002856e-03 1.898495906415e-03 0.0 
1.636536429398e-03 3.595088024815e-03 0.0 
9.297483127826e-04 6.125811454441e-04 0.0 
3.461441749822e-03 6.142996850143e-03 0.0 
1.088638070443e-03 4.634657643278e-03 0.0 
1.042268893763e-03 6.406193998754e-03 0.0 
2.838040626900e-03 7.468667014579e-03 0.0 
3.699583266820e-04 7.813668470468e-04 0.0 
2.991423304273e-04 7.925408758580e-04 0.0 
3.228513809609e-03 5.750570631064e-03 0.0 
4.968156713341e-04 6.242535373854e-04 0.0 
2.104402437698e-03 7.766825940794e-03 0.0 
2.480123185876e-03 4.932258701969e-03 0.0 
5.450480114917e-04 5.696968220821e-04 0.0 
1.176124434001e-03 4.053516354663e-03 0.0 
1.372965849176e-03 4.547355980645e-03 0.0 
1.330440443488e-03 5.028822849202e-03 0.0 
2.268447950842e-04 7.529138803608e-04 0.0 
9.202010941584e-04 6.445490489755e-03 0.0 
5.511104602832e-04 4.075714578390e-04 0.0 
3.032166267699e-03 2.658526449039e-03 0.0 
3.169091802012e-03 3.147806233741e-03 0.0 
3.327739656476e-03 3.572220575505e-03 0.0 
1.402937607017e-03 3.598047926441e-03 0.0 
5.472577599112e-04 2.973160186511e-04 0.0 
9.975259524896e-04 5.387546996319e-04 0.0 
9.557039879372e-04 4.788765909622e-04 0.0 
1.412537955534e-03 7.564620094749e-04 0.0 
4.995911281864e-04 2.363782701093e-04 0.0 
3.944194122628e-04 6.676350479586e-04 0.0 
4.027250057531e-04 6.146034772876e-04 0.0 
2.119561946247e-03 1.382149428494e-03 0.0 
2.390281400480e-03 1.734530734392e-03 0.0 
2.543417243894e-03 1.678754443303e-03 0.0 
2.644253976631e-03 2.103200116445e-03 0.0 
2.459394289097e-03 2.188890738868e-03 0.0 
2.723774829258e-03 2.602512348504e-03 0.0 
2.872052477572e-03 2.475971254841e-03 0.0 
2.779714274039e-03 3.190463114584e-03 0.0 
1.533962529256e-03 2.682456743572e-03 0.0 
4.278001122639e-04 1.776141853431e-04 0.0 
1.996889536972e-03 6.731929469685e-04 0.0 
2.203896637475e-03 8.521425676646e-04 0.0 
2.297113350082e-03 9.071098330200e-04 0.0 
1.172331957777e-03 -8.546671548556e-05 0.0 
1.340537602300e-03 3.501747147413e-05 0.0 
1.329039040061e-03 8.436984098114e-05 0.0 
1.001550268560e-03 -1.985392715114e-04 0.0 
2.701218078144e-03 3.550980287486e-03 0.0 
3.992865580910e-04 1.565519712271e-04 0.0 
2.720393037841e-03 1.645742590773e-03 0.0 
1.500427577205e-03 1.189738447947e-04 0.0 
1.199132942251e-03 9.074412451823e-03 0.0 
1.258013201253e-03 8.174098927766e-03 0.0 
1.388977740054e-03 8.110725666447e-03 0.0 
1.285883254376e-03 7.139903727556e-03 0.0 
1.108707207397e-03 8.086942233647e-03 0.0 
8.409141228717e-04 -9.584390840733e-05 0.0 
6.732206557502e-04 -1.085480988465e-04 0.0 
5.332508632368e-04 -1.797587548506e-04 0.0 
5.077903004525e-04 -1.098118154316e-04 0.0 
3.715550002577e-04 -1.714209235770e-04 0.0 
3.907105790786e-04 -2.448170513305e-04 0.0 
3.431042515209e-04 -1.018250995850e-04 0.0 
2.151446225247e-04 -1.616091821256e-04 0.0 
9.480034544999e-04 9.110731586529e-03 0.0 
5.018253603423e-05 1.720665247837e-03 0.0 
4.819129056341e-04 1.452943150260e-03 0.0 
4.370522477346e-04 9.852053325622e-04 0.0 
7.966197927640e-04 1.210445152924e-03 0.0 
9.002224050976e-04 1.698112175358e-03 0.0 
1.226324116699e-03 1.432356752395e-03 0.0 
1.286697862856e-03 1.962620096471e-03 0.0 
5.310549786915e-04 2.036636399963e-03 0.0 
9.355028691881e-05 7.893928535168e-04 0.0 
4.126768944371e-04 6.074839387380e-04 0.0 
1.169129499831e-04 4.461851287239e-04 0.0 
3.799205410233e-04 3.022022784754e-04 0.0 
7.109012506861e-04 4.512724955834e-04 0.0 
8.278581880188e-04 -1.397119979926e-04 0.0 
1.274611942823e-04 5.658057005526e-05 0.0 
1.474646035801e-04 -3.869518751735e-04 0.0 
2.831358586554e-04 -4.160572349086e-04 0.0 
2.689008287193e-04 -4.926863707645e-04 0.0 
4.247776704028e-04 -4.286427148608e-04 0.0 
2.813202809500e-04 -3.430535292775e-04 0.0 
1.296242129478e-04 -5.457802877801e-04 0.0 
2.472427470251e-04 -5.593130682035e-04 0.0 
7.634705355094e-05 -8.173404437677e-04 0.0 
9.394843702661e-05 -8.182862657541e-04 0.0 
4.122886801695e-05 -8.423406171190e-04 0.0 
9.608642287060e-05 -8.084818966178e-04 0.0 
1.561770202020e-04 -7.825861907144e-04 0.0 
1.384806594676e-04 -7.838968176332e-04 0.0 
1.808810706487e-04 -7.353688819850e-04 0.0 
1.263878686483e-04 -7.167045218692e-04 0.0 
2.198757480010e-04 -6.718797287372e-04 0.0 
2.781033329895e-04 -6.888032860721e-04 0.0 
1.417125356163e-04 -6.439820678335e-04 0.0 
4.438561245822e-05 4.381444412696e-03 0.0 
8.406424859252e-05 3.892515862841e-03 0.0 
3.575999063709e-04 1.268068755225e-04 0.0 
7.187169629873e-04 9.020819969316e-03 0.0 
1.543502030411e-04 -7.009166250250e-05 0.0 
6.658118918177e-05 9.854596274082e-04 0.0 
1.035332866818e-04 8.162878962939e-04 0.0 
8.247135223999e-05 7.907340633655e-04 0.0 
7.493772675173e-05 7.000730950229e-05 0.0 
1.213587721213e-04 7.208620175992e-05 0.0 
3.624355552819e-05 9.578861880868e-04 0.0 
1.091011426138e-03 -1.812402873216e-04 0.0 
7.023676654264e-04 1.810291614040e-03 0.0 
1.921433355202e-04 2.624903131583e-03 0.0 
2.411097003220e-03 5.916871271058e-03 0.0 
1.469965538419e-03 2.828677315074e-04 0.0 
4.152357751801e-04 4.475472035962e-06 0.0 
1.215277983636e-03 1.603451457847e-04 0.0 
4.818203956183e-04 1.071126323787e-04 0.0 
7.497620373602e-04 1.700696717439e-05 0.0 
8.049682986743e-04 1.559088215074e-04 0.0 
9.335145382984e-04 4.312054371828e-04 0.0 
2.572457394457e-04 -7.181688722319e-04 0.0 
5.578882927960e-04 6.262113188452e-03 0.0 
3.538442382581e-04 6.607117815638e-03 0.0 
3.257728173190e-04 4.156907779219e-03 0.0 
7.303545675372e-04 -4.353798231493e-04 0.0 
5.518682165894e-04 -2.493098520038e-04 0.0 
6.077525333314e-04 -4.825831549034e-04 0.0 
9.726752446340e-04 1.133022435246e-03 0.0 
2.549264931845e-03 7.864891884729e-03 0.0 
2.163711997273e-03 7.374186713971e-04 0.0 
1.141665229868e-03 -1.467912623563e-04 0.0 
1.297596273721e-03 -2.347568997925e-05 0.0 
1.529759494683e-03 4.908486686476e-04 0.0 
3.402537492523e-03 6.249595877918e-03 0.0 
1.672317712396e-03 2.634679841170e-04 0.0 
1.418407426517e-03 3.884883286283e-04 0.0 
2.464931116501e-04 3.610859385736e-03 0.0 
1.780000188973e-04 -4.279785167699e-04 0.0 
1.429151827756e-03 4.442632163582e-04 0.0 
1.597116447678e-03 3.112329279490e-04 0.0 
7.917186401885e-04 5.897205089348e-03 0.0 
2.291908004138e-03 1.569661098019e-03 0.0 
1.294678989569e-03 1.048201407935e-03 0.0 
4.775186070693e-04 3.811136242517e-03 0.0 
4.779285353696e-04 2.091404603810e-03 0.0 
1.050248281823e-03 6.985287581430e-03 0.0 
4.785907783652e-04 -5.168475698458e-04 0.0 
5.907193783922e-04 7.289299780845e-03 0.0 
1.004726017542e-03 3.788045983163e-04 0.0 
9.705606988803e-04 4.029347919825e-03 0.0 
5.702846207489e-04 -5.287146942055e-04 0.0 
3.031233645765e-03 2.221413984101e-03 0.0 
3.099962648911e-03 6.941556795260e-03 0.0 
1.793793948999e-03 9.777976000807e-03 0.0 
1.987859097371e-04 2.220897716567e-03 0.0 
3.341902338701e-03 4.271353289639e-03 0.0 
1.841126407766e-03 1.024968578089e-03 0.0 
2.724944475754e-03 1.765277456662e-03 0.0 
4.756229386628e-04 -5.458462377855e-04 0.0 
1.014037303466e-03 2.760969615804e-04 0.0 
3.339676842794e-03 3.401655507587e-03 0.0 
3.815618359161e-04 2.830879764426e-03 0.0 
2.302622042788e-03 3.640773650494e-03 0.0 
3.225182900700e-03 3.183932376508e-03 0.0 
6.374846258669e-04 3.447746833768e-03 0.0 
2.483660570646e-03 1.145315296113e-03 0.0 
2.130469434856e-03 1.528709385134e-03 0.0 
2.691845687731e-03 8.126887903841e-03 0.0 
2.748054144387e-03 5.190466443994e-03 0.0 
2.080971311689e-03 4.861221832640e-03 0.0 
3.121749609510e-03 4.884088697486e-03 0.0 
2.856025756745e-04 -4.343360470724e-05 0.0 
1.217124576981e-03 3.505178790133e-04 0.0 
1.853029564024e-03 2.951565883966e-03 0.0 
3.294687963815e-03 7.675985010033e-03 0.0 
9.881453181428e-04 5.961617763347e-03 0.0 
1.773207582626e-03 2.047502686766e-03 0.0 
2.667328078416e-04 1.854043555874e-03 0.0 
3.092822944626e-03 7.758027932311e-03 0.0 
1.015999759027e-03 2.419596575611e-04 0.0 
4.969582809487e-04 2.502209588577e-03 0.0 
1.502257144987e-03 1.613720275412e-04 0.0 
8.890162887940e-05 -7.380387103659e-04 0.0 
1.948368111386e-03 6.247076947746e-03 0.0 
3.020053499325e-03 3.656685333768e-03 0.0 
3.405883523491e-03 4.166587785051e-03 0.0 
1.470641586474e-03 1.975151692166e-04 0.0 
5.344360772088e-04 1.620364539726e-03 0.0 
8.300694147537e-04 1.922721918415e-04 0.0 
1.857364869980e-03 7.664382860934e-04 0.0 
5.672292223210e-04 9.403770423428e-03 0.0 
1.960641866317e-03 9.250010004162e-03 0.0 
6.573607608083e-04 1.543288147078e-04 0.0 
2.861980547976e-03 1.832672873990e-03 0.0 
1.913790448515e-03 1.237634048924e-03 0.0 
2.356540026983e-04 -2.297137308784e-04 0.0 
1.022046959149e-03 1.083607391647e-03 0.0 
2.339847233585e-03 1.059633373124e-02 0.0 
4.998884649231e-04 1.256298942907e-04 0.0 
2.048019621241e-03 1.008047741020e-03 0.0 
3.342538794762e-03 6.196648393827e-03 0.0 
1.892680887746e-04 9.054516201968e-03 0.0 
3.164896429018e-04 9.999370938828e-05 0.0 
1.712576835260e-03 8.160235156306e-04 0.0 
2.940956877313e-03 4.211877281325e-03 0.0 
2.778584614468e-03 1.640343331484e-03 0.0 
1.976340908022e-03 1.058187616921e-02 0.0 
1.287022141321e-03 1.264454874260e-04 0.0 
2.545528188796e-03 4.956184524910e-03 0.0 
1.945363117089e-04 7.397442554475e-04 0.0 
1.606056924391e-03 8.157497062456e-04 0.0 
1.515702797521e-03 5.532955550412e-03 0.0 
1.154047884694e-03 2.754197467659e-05 0.0 
2.836120355302e-03 2.737965303220e-03 0.0 
2.155262364615e-04 -7.433792932657e-04 0.0 
2.170268999548e-03 1.000009764185e-02 0.0 
9.782483248008e-04 -1.162383577268e-05 0.0 
2.957930974520e-03 3.021865298544e-03 0.0 
2.596000042454e-03 1.329001165324e-03 0.0 
1.206861927172e-03 8.786327599506e-04 0.0 
8.047895691316e-04 -3.540634287151e-05 0.0 
3.067651820918e-03 2.838004643190e-03 0.0 
6.348306030336e-04 -4.678097921877e-05 0.0 
2.105641437494e-03 1.125757951009e-02 0.0 
1.570544731544e-03 5.021855862562e-03 0.0 
4.638986150998e-04 -4.889411758583e-05 0.0 
2.331606315503e-03 4.148623013785e-03 0.0 
3.445901881218e-04 -6.144754171400e-04 0.0 
2.892558454349e-03 3.673536171924e-03 0.0 
1.756321048487e-04 7.074427920979e-05 0.0 
1.728014605026e-03 3.428283459768e-04 0.0 
2.405170577455e-03 1.069509484028e-03 0.0 
1.397316424159e-03 4.067500370625e-03 0.0 
2.144851003438e-03 1.180293523832e-02 0.0 
2.275287962144e-03 9.810933925046e-04 0.0 
2.057762481619e-03 3.359619655524e-03 0.0 
2.807576244340e-03 3.171477893975e-03 0.0 
3.273651659932e-03 3.685275823789e-03 0.0 
2.092640274216e-03 8.797948530335e-04 0.0 
2.415473343568e-03 1.103089143045e-02 0.0 
1.159705388340e-03 -7.471992078260e-05 0.0 
1.009606468698e-03 -1.091365013180e-04 0.0 
2.955397461789e-03 2.331001288391e-03 0.0 
1.798343650786e-03 3.035691910196e-03 0.0 
1.666035500622e-04 -7.664466798724e-04 0.0 
1.632991241394e-03 4.049760000534e-03 0.0 
8.265646375694e-04 1.912746179884e-05 0.0 
2.763844161805e-03 2.007945036702e-03 0.0 
2.310935311574e-03 2.150045269546e-03 0.0 
5.376499744475e-05 6.326894982274e-03 0.0 
2.637077435354e-03 1.608077542195e-03 0.0 
1.000337376387e-04 -6.817311898014e-04 0.0 
2.426443813615e-03 1.321005972656e-03 0.0 
3.083263455578e-03 3.206665030085e-03 0.0 
2.295273861806e-03 1.018694328835e-03 0.0 
2.077431001152e-03 7.710429313522e-04 0.0 
1.322122642252e-04 1.689770431765e-03 0.0 
1.945786625438e-03 5.513089421881e-04 0.0 
1.811240371912e-05 7.924276944088e-04 0.0 
5.307525641264e-05 4.641932901931e-05 0.0 
7.085086117180e-05 8.291356021983e-03 0.0 
2.040599863077e-03 1.227889519457e-02 0.0 
6.206211087895e-05 3.963178647743e-03 0.0 
2.419688889793e-03 1.112480080330e-02 0.0 
1.619318978744e-03 3.156790644850e-04 0.0 
1.874062306388e-03 3.995392852203e-03 0.0 
1.475327635651e-04 8.249482489465e-03 0.0 
1.387867021050e-03 1.113846448561e-04 0.0 
7.394268398942e-04 1.387654322491e-03 0.0 
5.369957465396e-04 4.683784844393e-04 0.0 
9.565584142268e-05 4.818982668979e-03 0.0 
1.703372291975e-03 1.003333421022e-03 0.0 
2.676381580209e-03 2.688586583755e-03 0.0 
2.688180204730e-05 2.487726092318e-03 0.0 
4.490186253025e-04 9.166609595127e-03 0.0 
3.538357060038e-04 4.627316310886e-05 0.0 
1.368148757968e-04 -2.376453836457e-05 0.0 
1.850165936707e-03 1.240687764210e-02 0.0 
2.191961919198e-03 1.116411854118e-02 0.0 
1.923758175011e-03 1.046159901035e-02 0.0 
3.648623926442e-04 -5.557278409843e-04 0.0 
7.182349977456e-04 8.000222002870e-04 0.0 
1.658525454104e-03 1.203570632754e-02 0.0 
1.058578642086e-03 6.159886858489e-04 0.0 
7.773735105013e-04 8.290379853209e-03 0.0 
2.126160752989e-03 2.064758619630e-03 0.0 
1.237315026001e-03 1.128747801313e-02 0.0 
3.405305295687e-04 1.608006095507e-03 0.0 
1.110494622553e-03 9.147227723903e-04 0.0 
2.553221402590e-04 8.441187731817e-05 0.0 
1.665684384800e-03 1.489722451077e-03 0.0 
1.435031062708e-03 8.889656823191e-03 0.0 
1.170560349301e-03 7.377856810062e-03 0.0 
9.260142885135e-04 1.179677010770e-03 0.0 
1.288338385322e-04 4.033547159478e-03 0.0 
1.894710416856e-04 6.441729051426e-05 0.0 
9.982639201506e-04 8.375769473317e-03 0.0 
7.949176538255e-05 1.574298067208e-03 0.0 
1.526666213267e-03 2.466996692955e-03 0.0 
4.040041280694e-05 1.527542111010e-03 0.0 
1.599823196429e-03 3.122823872131e-03 0.0 
3.032260791273e-04 7.058624442248e-03 0.0 
1.425356167217e-03 7.344145225576e-03 0.0 
1.457187209365e-04 7.059322537961e-05 0.0 
6.309421895854e-04 1.463622420617e-03 0.0 
1.058360388075e-03 7.631554771386e-03 0.0 
1.506139894313e-04 4.922023433583e-03 0.0 
5.719114287014e-04 -3.927804443221e-04 0.0 
4.775514744853e-04 2.686124422872e-03 0.0 
6.217431082532e-04 2.106750922402e-04 0.0 
1.279384866797e-03 2.298457205638e-03 0.0 
2.417268262849e-04 8.425137770612e-05 0.0 
4.176293055806e-05 -8.213084272250e-04 0.0 
2.939988575452e-04 -3.300218956719e-04 0.0 
6.798899810804e-04 2.573774852629e-04 0.0 
7.826331668023e-04 1.203207673532e-03 0.0 
1.601604217248e-03 1.816148736760e-03 0.0 
1.114810853755e-04 6.358393550196e-04 0.0 
4.896789006982e-04 6.564035202277e-03 0.0 
6.247091651787e-04 9.296398152012e-03 0.0 
2.417385948055e-04 -6.001294073596e-04 0.0 
1.521944242164e-04 5.554989332742e-05 0.0 
1.956421858456e-04 1.504928405419e-03 0.0 
3.969965765678e-04 -3.637808050729e-04 0.0 
1.456806856623e-03 8.884522851458e-03 0.0 
2.227060926766e-04 -6.252575528138e-04 0.0 
1.394713043255e-03 1.496740926078e-03 0.0 
5.780561814719e-04 1.958804084749e-04 0.0 
1.318452992567e-04 1.420904483710e-03 0.0 
7.632583997593e-04 3.291968548516e-04 0.0 
4.190740940447e-04 1.379957181940e-03 0.0 
4.227893217663e-04 2.652334697609e-04 0.0 
5.404729992876e-04 4.601495958664e-03 0.0 
9.484173734958e-04 8.318833868344e-04 0.0 
1.257881379397e-03 6.203547409185e-04 0.0 
3.330905877109e-04 9.191625722263e-03 0.0 
5.378166360311e-04 1.456906598403e-03 0.0 
3.742614949949e-04 -4.993371689832e-04 0.0 
3.666886580152e-04 -6.477795677990e-04 0.0 
7.629087268771e-06 7.017011930191e-04 0.0 
2.122930112736e-05 -8.575742272518e-04 0.0 
5.537199081483e-05 9.162027825618e-03 0.0 
2.062852665112e-05 3.616614754830e-05 0.0 
2.215245641533e-04 -7.453192732160e-04 0.0 
1.165476017814e-04 7.561825923597e-03 0.0 
7.063393507131e-04 1.191688531442e-03 0.0 
1.034734505560e-04 -2.238645993276e-04 0.0 
6.252973781455e-05 3.122284138014e-03 0.0 
1.007074178159e-03 1.011876901103e-03 0.0 
-8.943709165945e-05 3.028262372263e-03 0.0 
9.220905030349e-05 5.830899148546e-03 0.0 
1.004574260232e-03 7.609839335666e-04 0.0 
3.188740504501e-04 1.334420438579e-03 0.0 
2.411903113817e-04 6.509706553681e-03 0.0 
1.526931770058e-03 6.645816658583e-03 0.0 
1.001074251431e-03 1.695741664127e-03 0.0 
4.193626710475e-04 -3.000615211196e-04 0.0 
1.273809458007e-03 1.623381939969e-03 0.0 
1.362416134751e-03 7.797705026147e-04 0.0 
4.113091568176e-04 6.828125149505e-03 0.0 
8.984456217510e-05 -1.502438093237e-04 0.0 
2.541445017213e-04 -5.168058909102e-04 0.0 
4.264991274667e-04 1.333796089312e-04 0.0 
2.774484558913e-04 -2.820715103237e-04 0.0 
-6.541935619457e-04 1.260315350359e-02 0.0 
5.290445160466e-05 1.842336649796e-02 0.0 
4.446432370010e-04 1.337185049251e-02 0.0 
4.932471677621e-05 1.740972165111e-02 0.0 
1.075461255783e-03 1.359605936175e-02 0.0 
4.291603279034e-05 1.640545585695e-02 0.0 
1.484547852284e-03 1.352110387586e-02 0.0 
3.994930484605e-05 1.540525189634e-02 0.0 
1.715363216171e-03 1.322684547573e-02 0.0 
3.800248410595e-05 1.440660503141e-02 0.0 
1.807650943979e-03 1.273193788448e-02 0.0 
3.731153538389e-05 1.340748445759e-02 0.0 
1.791185066129e-03 1.208233883464e-02 0.0 
3.724816353780e-05 1.240677201848e-02 0.0 
1.697039647662e-03 1.129684081163e-02 0.0 
3.714100059927e-05 1.140439123434e-02 0.0 
1.547357205890e-03 1.043138368629e-02 0.0 
3.717134782410e-05 1.040005749777e-02 0.0 

VECTORS node_materi_displacement float
0.0 6.817805414648e-02 0.0 
0.0 7.510139554996e-02 0.0 
0.0 0.0 0.0 
0.0 0.0 0.0 
0.0 6.904545269074e-02 0.0 
0.0 6.919469349810e-02 0.0 
0.0 6.866209920848e-02 0.0 
0.0 6.744150401167e-02 0.0 
0.0 6.555048620531e-02 0.0 
0.0 6.313899353453e-02 0.0 
0.0 6.029496774953e-02 0.0 
0.0 5.708568612830e-02 0.0 
0.0 5.357903074828e-02 0.0 
0.0 4.982016495609e-02 0.0 
0.0 4.582741890633e-02 0.0 
0.0 4.162402662990e-02 0.0 
0.0 3.720945087327e-02 0.0 
0.0 3.258100923837e-02 0.0 
0.0 2.772457986148e-02 0.0 
0.0 2.263307885103e-02 0.0 
0.0 1.730772570168e-02 0.0 
0.0 1.175067602369e-02 0.0 
0.0 5.981494042255e-03 0.0 
0.0 0.0 0.0 
0.0 0.0 0.0 
0.0 0.0 0.0 
0.0 0.0 0.0 
0.0 0.0 0.0 
0.0 0.0 0.0 
0.0 0.0 0.0 
0.0 0.0 0.0 
0.0 0.0 0.0 
0.0 0.0 0.0 
0.0 0.0 0.0 
0.0 0.0 0.0 
0.0 0.0 0.0 
0.0 0.0 0.0 
0.0 0.0 0.0 
0.0 0.0 0.0 
0.0 0.0 0.0 
0.0 0.0 0.0 
0.0 0.0 0.0 
0.0 0.0 0.0 
0.0 0.0 0.0 
0.0 0.0 0.0 
0.0 0.0 0.0 
0.0 0.0 0.0 
0.0 0.0 0.0 
0.0 0.0 0.0 
0.0 0.0 0.0 
0.0 0.0 0.0 
0.0 0.0 0.0 
0.0 0.0 0.0 
0.0 0.0 0.0 
0.0 0.0 0.0 
0.0 0.0 0.0 
0.0 0.0 0.0 
0.0 0.0 0.0 
0.0 0.0 0.0 
0.0 0.0 0.0 
0.0 0.0 0.0 
0.0 0.0 0.0 
0.0 0.0 0.0 
0.0 0.0 0.0 
0.0 0.0 0.0 
0.0 0.0 0.0 
0.0 0.0 0.0 
0.0 0.0 0.0 
0.0 0.0 0.0 
0.0 0.0 0.0 
0.0 0.0 0.0 
0.0 0.0 0.0 
0.0 6.922603967009e-02 0.0 
0.0 6.294396818699e-02 0.0 
0.0 5.626641257585e-02 0.0 
0.0 4.921824269464e-02 0.0 
0.0 4.181009708409e-02 0.0 
0.0 3.406323208081e-02 0.0 
0.0 2.599355353184e-02 0.0 
0.0 1.761606274704e-02 0.0 
0.0 8.950270843021e-03 0.0 
-4.694280937362e-03 -1.842260419169e-02 0.0 
1.967864237255e-02 6.662070999319e-02 0.0 
1.274873695379e-03 5.747247756160e-03 0.0 
7.692912041780e-03 2.262722208287e-02 0.0 
1.299313916450e-02 3.573252361256e-02 0.0 
1.721400881648e-02 4.657228724177e-02 0.0 
2.040413379879e-02 5.538688508863e-02 0.0 
2.242269579087e-02 6.198153771631e-02 0.0 
2.323504777260e-02 6.625739262386e-02 0.0 
2.293434609958e-02 6.830842602451e-02 0.0 
2.169336110957e-02 6.833824719144e-02 0.0 
0.0 1.075217436184e-01 0.0 
0.0 1.057963217950e-01 0.0 
0.0 1.036259023582e-01 0.0 
0.0 1.009427366582e-01 0.0 
0.0 9.781732847267e-02 0.0 
0.0 9.417686551266e-02 0.0 
0.0 9.011002279160e-02 0.0 
0.0 8.553928888208e-02 0.0 
0.0 8.055526626339e-02 0.0 
1.109509848890e-03 7.508826312724e-02 0.0 
2.209640899491e-03 7.504364419179e-02 0.0 
3.329239709159e-03 7.496404445274e-02 0.0 
4.469787590544e-03 7.483964709882e-02 0.0 
5.635784774340e-03 7.467377829698e-02 0.0 
6.828570819498e-03 7.443370860426e-02 0.0 
8.062529955904e-03 7.413250044166e-02 0.0 
9.335135501932e-03 7.373189316654e-02 0.0 
1.066230516927e-02 7.323944773626e-02 0.0 
1.204453940161e-02 7.260955062864e-02 0.0 
1.347895035197e-02 7.183177153694e-02 0.0 
1.497218330989e-02 7.087264819503e-02 0.0 
1.651002896849e-02 6.970562932111e-02 0.0 
1.807898536600e-02 6.829456781627e-02 0.0 
-1.558313348947e-03 -3.136342961239e-02 0.0 
2.959035702653e-03 -3.730711115941e-02 0.0 
7.855081996005e-03 -3.835172260753e-02 0.0 
1.320197879707e-02 -3.412255271539e-02 0.0 
1.711434193803e-02 -2.216036595044e-02 0.0 
1.926979117850e-02 -7.490477031594e-03 0.0 
1.985232590755e-02 3.932192703744e-03 0.0 
1.977751441111e-02 1.350588227190e-02 0.0 
1.958569082142e-02 2.194493557667e-02 0.0 
1.917316144694e-02 2.968438338827e-02 0.0 
1.845100381221e-02 3.674122699690e-02 0.0 
1.747403375580e-02 4.305351986637e-02 0.0 
1.617793096915e-02 4.879585517077e-02 0.0 
1.448046434826e-02 5.389735532817e-02 0.0 
1.248761242309e-02 5.826420884753e-02 0.0 
1.028663244976e-02 6.180384153293e-02 0.0 
7.908088826403e-03 6.460580152982e-02 0.0 
5.383713628660e-03 6.664756564526e-02 0.0 
2.704270129360e-03 6.780766958884e-02 0.0 
4.479635758133e-04 1.074488126097e-01 0.0 
9.177263189319e-04 1.073539280372e-01 0.0 
1.376445326406e-03 1.072497556314e-01 0.0 
1.814913293570e-03 1.071173330159e-01 0.0 
2.219498036559e-03 1.069384679100e-01 0.0 
2.582186444235e-03 1.066962008605e-01 0.0 
2.896168778180e-03 1.063736346612e-01 0.0 
3.153934323509e-03 1.059529467645e-01 0.0 
3.344310986339e-03 1.054142708404e-01 0.0 
3.459505569996e-03 1.047298785285e-01 0.0 
3.493477083632e-03 1.038664563094e-01 0.0 
3.427400571659e-03 1.027851523289e-01 0.0 
3.258702701499e-03 1.014433510693e-01 0.0 
2.987767906657e-03 9.979276602627e-02 0.0 
2.618980527808e-03 9.778097410044e-02 0.0 
2.162012074133e-03 9.535241548901e-02 0.0 
1.632928804071e-03 9.245096232137e-02 0.0 
1.054126822797e-03 8.902323094430e-02 0.0 
4.531494185343e-04 8.501572192776e-02 0.0 
-1.324864679552e-04 8.038716670005e-02 0.0 
-6.679894765120e-04 7.511398540876e-02 0.0 
-1.124223408881e-03 6.918235846582e-02 0.0 
-1.472206765845e-03 6.257385787698e-02 0.0 
-1.684830110765e-03 5.532003574542e-02 0.0 
-1.696446674953e-03 4.735652570316e-02 0.0 
-1.573601357854e-03 3.877700038369e-02 0.0 
-1.296421553732e-03 2.933482995823e-02 0.0 
-8.297485488162e-04 1.878778428552e-02 0.0 
6.699187852010e-03 3.294489502464e-02 0.0 
6.072112903566e-03 4.212636846337e-02 0.0 
5.609749619841e-03 5.055555310598e-02 0.0 
5.271294819610e-03 5.829170438609e-02 0.0 
5.047542670481e-03 6.533223521304e-02 0.0 
4.903044891407e-03 7.166937006190e-02 0.0 
4.871154748933e-03 7.729910217197e-02 0.0 
4.904556889116e-03 8.223988808485e-02 0.0 
4.970193722035e-03 8.651682252389e-02 0.0 
5.042462938668e-03 9.016682072595e-02 0.0 
5.102410239451e-03 9.324840731071e-02 0.0 
5.133266326208e-03 9.581754662666e-02 0.0 
5.121606745350e-03 9.793515381473e-02 0.0 
5.058480096140e-03 9.966204317720e-02 0.0 
4.938059867986e-03 1.010560994298e-01 0.0 
4.758277838970e-03 1.021708811057e-01 0.0 
4.520149476085e-03 1.030542447059e-01 0.0 
4.227641899355e-03 1.037506250124e-01 0.0 
3.885526133176e-03 1.042933330596e-01 0.0 
3.498310475202e-03 1.047121286792e-01 0.0 
3.070940813613e-03 1.050310159927e-01 0.0 
2.610533788036e-03 1.052690443510e-01 0.0 
2.124154791742e-03 1.054439054192e-01 0.0 
1.618021488863e-03 1.055733725203e-01 0.0 
1.098512195977e-03 1.056781308882e-01 0.0 
5.688310995268e-04 1.057938542792e-01 0.0 
1.224510627080e-02 4.440221577547e-02 0.0 
1.164441450032e-02 5.233276185315e-02 0.0 
1.108656133438e-02 5.961243813679e-02 0.0 
1.057371619863e-02 6.621035628591e-02 0.0 
1.011176396598e-02 7.214308762480e-02 0.0 
9.682663730255e-03 7.739112052200e-02 0.0 
9.273653305516e-03 8.197882206107e-02 0.0 
8.876360473904e-03 8.593542234470e-02 0.0 
8.502284290944e-03 8.930778161822e-02 0.0 
8.134384271896e-03 9.214836799727e-02 0.0 
7.763547859898e-03 9.451070112721e-02 0.0 
7.383408982297e-03 9.645476921636e-02 0.0 
6.986679325831e-03 9.803652050312e-02 0.0 
6.569097835724e-03 9.931176752373e-02 0.0 
6.128610353174e-03 1.003310706652e-01 0.0 
5.664758435871e-03 1.011392242208e-01 0.0 
5.177220702165e-03 1.017750085068e-01 0.0 
4.667043673844e-03 1.022698423620e-01 0.0 
4.135815936440e-03 1.026508536025e-01 0.0 
3.586021638283e-03 1.029407999954e-01 0.0 
3.021122940088e-03 1.031581262313e-01 0.0 
2.444989040654e-03 1.033190859702e-01 0.0 
1.861183615079e-03 1.034386672943e-01 0.0 
1.269874523039e-03 1.035276832000e-01 0.0 
6.426679795173e-04 1.035665285859e-01 0.0 
7.618852839142e-04 1.009637518080e-01 0.0 
1.474493136103e-03 1.008878639259e-01 0.0 
2.180423245402e-03 1.008023203261e-01 0.0 
2.883219217228e-03 1.006827801516e-01 0.0 
3.584470459054e-03 1.005183246717e-01 0.0 
4.284022004946e-03 1.002947440852e-01 0.0 
4.981339088638e-03 9.999494083004e-02 0.0 
5.676107099654e-03 9.959857577442e-02 0.0 
6.368459171388e-03 9.908077648705e-02 0.0 
7.059264768577e-03 9.841193467423e-02 0.0 
7.750301382324e-03 9.755713744461e-02 0.0 
8.443607337798e-03 9.647503869909e-02 0.0 
9.141554730074e-03 9.511722656848e-02 0.0 
9.847457421372e-03 9.342773882112e-02 0.0 
1.056717202645e-02 9.134314760359e-02 0.0 
1.130724395552e-02 8.880856606118e-02 0.0 
1.205283915892e-02 8.576603676723e-02 0.0 
1.280153487631e-02 8.215705663635e-02 0.0 
1.355316399174e-02 7.793455047876e-02 0.0 
1.430194205558e-02 7.305169085657e-02 0.0 
1.504679531176e-02 6.747966801551e-02 0.0 
1.577894265455e-02 6.121434936943e-02 0.0 
1.648094682633e-02 5.425905877039e-02 0.0 
1.955989899684e-02 6.175274510842e-02 0.0 
1.869344271172e-02 6.744147235667e-02 0.0 
1.775400365144e-02 7.247727533185e-02 0.0 
1.677681019146e-02 7.689180762780e-02 0.0 
1.577928292640e-02 8.070773121677e-02 0.0 
1.477315488762e-02 8.396859299229e-02 0.0 
1.376856328669e-02 8.672168212819e-02 0.0 
1.277088718151e-02 8.902163124237e-02 0.0 
1.178784502023e-02 9.091577846714e-02 0.0 
1.083783988128e-02 9.245278761686e-02 0.0 
9.916741498428e-03 9.369192743371e-02 0.0 
9.021032605974e-03 9.468342733366e-02 0.0 
8.147256571149e-03 9.546961484886e-02 0.0 
7.292015885027e-03 9.608668013780e-02 0.0 
6.452188984255e-03 9.656587024514e-02 0.0 
5.625517820977e-03 9.693427548995e-02 0.0 
4.810274922315e-03 9.721432644478e-02 0.0 
4.004823595626e-03 9.742409486049e-02 0.0 
3.207772477592e-03 9.757878465761e-02 0.0 
2.417515177115e-03 9.768973336176e-02 0.0 
1.631031286648e-03 9.776182594807e-02 0.0 
8.200622907842e-04 9.776795804098e-02 0.0 
9.139512433771e-04 9.420470351278e-02 0.0 
1.818443810246e-03 9.414824912668e-02 0.0 
2.725289448453e-03 9.407286239586e-02 0.0 
3.638822885025e-03 9.395722684659e-02 0.0 
4.564533717322e-03 9.379357623258e-02 0.0 
5.507109973026e-03 9.357007029927e-02 0.0 
6.470168316319e-03 9.327053217402e-02 0.0 
7.456834151175e-03 9.287642377586e-02 0.0 
8.470490982094e-03 9.236313821342e-02 0.0 
9.515066864936e-03 9.170055905016e-02 0.0 
1.059474268625e-02 9.085548752914e-02 0.0 
1.171377866678e-02 8.978959373188e-02 0.0 
1.287658671820e-02 8.845775077666e-02 0.0 
1.408753127878e-02 8.680425917655e-02 0.0 
1.531930906153e-02 8.477702105973e-02 0.0 
1.656102713178e-02 8.232564568837e-02 0.0 
1.780246739300e-02 7.939856854576e-02 0.0 
1.903082191692e-02 7.594044621010e-02 0.0 
2.022565364576e-02 7.191985540836e-02 0.0 
2.134391219230e-02 6.727773354613e-02 0.0 
2.197692770192e-02 7.032669391010e-02 0.0 
2.069318529518e-02 7.385667951742e-02 0.0 
1.934687580154e-02 7.687278427592e-02 0.0 
1.798125204761e-02 7.944447950764e-02 0.0 
1.661147440044e-02 8.160019152812e-02 0.0 
1.524774040041e-02 8.338983792514e-02 0.0 
1.391649574430e-02 8.485905060074e-02 0.0 
1.263603455129e-02 8.605378760698e-02 0.0 
1.140407465421e-02 8.701677721965e-02 0.0 
1.021745235979e-02 8.778555923858e-02 0.0 
9.071911998642e-03 8.839173382605e-02 0.0 
7.965100364997e-03 8.886461720055e-02 0.0 
6.893264772211e-03 8.923155641247e-02 0.0 
5.850780574063e-03 8.951315825736e-02 0.0 
4.837046006230e-03 8.972562504997e-02 0.0 
3.846743876553e-03 8.988170550125e-02 0.0 
2.873072068047e-03 8.999092929556e-02 0.0 
1.910085149513e-03 9.005863163060e-02 0.0 
9.542415082553e-04 9.006409820876e-02 0.0 
1.037032085975e-03 8.556044361360e-02 0.0 
2.078345268960e-03 8.550000414673e-02 0.0 
3.129301078094e-03 8.542461681113e-02 0.0 
4.196413863272e-03 8.530647558583e-02 0.0 
5.285107909877e-03 8.513717780096e-02 0.0 
6.403437209834e-03 8.490556145121e-02 0.0 
7.556824618985e-03 8.460016678776e-02 0.0 
8.753584181501e-03 8.420212139514e-02 0.0 
1.000083548283e-02 8.369087826193e-02 0.0 
1.129490331528e-02 8.303873685440e-02 0.0 
1.263761141133e-02 8.221154944408e-02 0.0 
1.403202331043e-02 8.117895145966e-02 0.0 
1.547971002202e-02 7.990117096684e-02 0.0 
1.697818742004e-02 7.834186617547e-02 0.0 
1.849712989989e-02 7.644813895328e-02 0.0 
2.000736265643e-02 7.418597209319e-02 0.0 
2.147605412963e-02 7.148335275942e-02 0.0 
2.017023551188e-02 7.062435916696e-02 0.0 
1.865742067101e-02 7.254980223684e-02 0.0 
1.712133950839e-02 7.414894319400e-02 0.0 
1.562144921303e-02 7.549397948842e-02 0.0 
1.416515165595e-02 7.660270129757e-02 0.0 
1.275744312849e-02 7.750604104692e-02 0.0 
1.139479632612e-02 7.823719657184e-02 0.0 
1.009170915848e-02 7.882146785247e-02 0.0 
8.839114209904e-03 7.928441738752e-02 0.0 
7.635764247614e-03 7.965292740634e-02 0.0 
6.471420120723e-03 7.993525947413e-02 0.0 
5.343439306204e-03 8.015421733112e-02 0.0 
4.241474449472e-03 8.031166577207e-02 0.0 
3.162979785158e-03 8.042423448677e-02 0.0 
2.102255089994e-03 8.049339783264e-02 0.0 
1.047691227808e-03 8.050493837248e-02 0.0 
-1.310197528545e-03 -4.925240747103e-03 0.0 
4.582080568331e-03 1.470117867280e-02 0.0 
1.045907112631e-02 2.945427971812e-02 0.0 
1.521366929456e-02 4.139353230213e-02 0.0 
1.895175683913e-02 5.124661175049e-02 0.0 
2.156304148510e-02 5.897129252114e-02 0.0 
2.296870280054e-02 6.440216822506e-02 0.0 
2.320378660480e-02 6.754930804333e-02 0.0 
2.241579475853e-02 6.855893224177e-02 0.0 
2.076710422835e-02 6.768181110526e-02 0.0 
1.135692774525e-02 1.364762647151e-02 0.0 
7.961005291573e-04 3.281666038377e-03 0.0 
1.295386685768e-02 2.576919240602e-02 0.0 
8.463388957480e-03 -2.701198870720e-02 0.0 
-1.142542473207e-03 3.710628803999e-03 0.0 
1.966357268844e-02 4.002283735936e-02 0.0 
-1.531179055710e-03 4.756868565118e-02 0.0 
2.664057668617e-03 3.643368049537e-03 0.0 
2.432881488490e-02 5.614484808068e-02 0.0 
3.847302103849e-03 4.333912317443e-03 0.0 
2.456607767627e-02 6.376197923310e-02 0.0 
-1.440308353283e-03 4.084158874013e-03 0.0 
1.124026397280e-02 5.234014265218e-02 0.0 
4.234507904999e-03 5.411674198735e-03 0.0 
2.097185256564e-02 6.292678481320e-02 0.0 
-1.113915853938e-03 6.140174420247e-02 0.0 
-1.380774426850e-03 3.571833835261e-02 0.0 
4.099378942254e-03 6.374392662523e-03 0.0 
3.099165226901e-03 6.802156486355e-03 0.0 
1.065757337376e-03 7.581072568155e-03 0.0 
1.871534140206e-03 8.065370192626e-03 0.0 
2.349617452221e-03 6.997320971582e-03 0.0 
1.715767709037e-02 6.413763372183e-02 0.0 
1.137436914966e-02 6.769533166484e-02 0.0 
7.472925133369e-03 6.887296054039e-02 0.0 
7.334085557376e-04 4.543739827794e-02 0.0 
-1.179830892213e-03 4.885505274008e-03 0.0 
4.661201026248e-03 -3.164665577199e-02 0.0 
6.800917035662e-03 6.394601284693e-02 0.0 
-8.867238354024e-04 2.034403310947e-02 0.0 
3.836621797866e-03 6.988297274080e-02 0.0 
1.554594551739e-04 6.782459956348e-02 0.0 
4.072440663020e-03 7.482706587701e-03 0.0 
3.115029431529e-03 3.639981335373e-03 0.0 
4.103453031624e-03 4.794065003343e-03 0.0 
1.923451866134e-03 3.600456584377e-03 0.0 
-1.284668458380e-04 3.179505139565e-03 0.0 
1.087560114615e-02 -1.720462542208e-03 0.0 
1.419694738095e-02 6.656208307305e-02 0.0 
-1.713503513457e-03 4.631558543478e-03 0.0 
5.517457420382e-04 3.040621588476e-02 0.0 
1.273272567515e-02 4.008823516272e-02 0.0 
-1.488744219741e-03 5.511575071527e-02 0.0 
5.441028665368e-04 6.210547645304e-03 0.0 
2.259222380411e-02 4.865046258208e-02 0.0 
1.584055638787e-02 2.830019717607e-02 0.0 
2.499670466210e-02 6.104540739475e-02 0.0 
2.316676523091e-02 6.429191180255e-02 0.0 
5.619142597690e-03 -5.194192960232e-03 0.0 
8.863576205689e-04 5.884728656596e-02 0.0 
-5.797134526079e-04 4.027786948637e-03 0.0 
3.164151305753e-03 6.804573288474e-02 0.0 
3.039639513106e-04 1.396203706406e-02 0.0 
1.987138673378e-02 6.131684430708e-02 0.0 
2.075877230578e-02 5.781274775567e-02 0.0 
1.904240678910e-02 5.681324432161e-02 0.0 
1.998727530655e-02 5.258283315277e-02 0.0 
1.833825104414e-02 5.067589622551e-02 0.0 
1.890811812995e-02 4.691874211738e-02 0.0 
2.065167688607e-02 4.865239975265e-02 0.0 
1.928148363017e-02 4.311638883837e-02 0.0 
2.108606858912e-02 4.474097809765e-02 0.0 
1.713869711815e-02 4.472653403150e-02 0.0 
1.941822201871e-02 3.930643641447e-02 0.0 
2.126041313162e-02 4.081875184783e-02 0.0 
1.930499752289e-02 3.553144538070e-02 0.0 
2.114998820358e-02 3.693042296052e-02 0.0 
2.305041439876e-02 4.185433971785e-02 0.0 
2.292527658328e-02 3.784753293383e-02 0.0 
2.471593860472e-02 4.235333017259e-02 0.0 
2.458191669857e-02 3.820053965566e-02 0.0 
2.248614807986e-02 3.394916914820e-02 0.0 
2.408739310808e-02 3.419012751351e-02 0.0 
2.600469307048e-02 3.795486037372e-02 0.0 
2.545788251422e-02 3.382006013742e-02 0.0 
2.716263622364e-02 3.707404540904e-02 0.0 
2.653526695012e-02 3.280504429663e-02 0.0 
2.802262913935e-02 3.552169029282e-02 0.0 
2.729196750653e-02 3.114013133354e-02 0.0 
2.548004296486e-02 2.882198813827e-02 0.0 
2.610801028321e-02 2.711308024671e-02 0.0 
2.767561578731e-02 2.884105861106e-02 0.0 
2.633853244676e-02 2.479816760277e-02 0.0 
2.765489736371e-02 2.594811166223e-02 0.0 
2.614140302371e-02 2.195606193672e-02 0.0 
2.453537608923e-02 2.127871866296e-02 0.0 
2.413742972569e-02 1.857132183521e-02 0.0 
2.546927820720e-02 1.861625280926e-02 0.0 
2.315884125838e-02 1.529771621907e-02 0.0 
2.423214740125e-02 1.463913351000e-02 0.0 
2.157684158741e-02 1.149251311372e-02 0.0 
2.242953017781e-02 1.019941650085e-02 0.0 
1.941876905108e-02 7.433646700121e-03 0.0 
1.845525778995e-02 9.239467374445e-03 0.0 
1.599231683578e-02 5.716693724804e-03 0.0 
1.677216575285e-02 3.417482575974e-03 0.0 
1.311803144732e-02 2.456545776024e-03 0.0 
1.234609036000e-02 5.053772910792e-03 0.0 
9.356848897195e-03 2.618698040436e-03 0.0 
8.670087726469e-03 5.347473224414e-03 0.0 
5.674600428110e-03 3.765734821041e-03 0.0 
6.230344834626e-03 8.764257774507e-04 0.0 
2.662173986988e-03 2.972132050121e-03 0.0 
2.288987286844e-03 5.692631925122e-03 0.0 
-5.120086855294e-04 5.728880865607e-03 0.0 
-2.109906136067e-04 3.080871084978e-03 0.0 
-3.050159641092e-03 6.653087379994e-03 0.0 
-3.062948652271e-03 8.666804026970e-03 0.0 
-5.230617923803e-03 1.014992636610e-02 0.0 
-5.229444659074e-03 8.445034237183e-03 0.0 
-7.021672100313e-03 1.240815285327e-02 0.0 
-6.890655102602e-03 1.356796193294e-02 0.0 
-8.406057435297e-03 1.631114838140e-02 0.0 
-8.426079057789e-03 1.545167964315e-02 0.0 
-9.508480220209e-03 1.970593898569e-02 0.0 
-9.372095543608e-03 2.000783873713e-02 0.0 
-1.018658076422e-02 2.364129574163e-02 0.0 
-9.884856773385e-03 2.331210956554e-02 0.0 
-1.018184191180e-02 2.374156425259e-02 0.0 
-1.057420530529e-02 2.775563692969e-02 0.0 
-1.038202711232e-02 2.827892041481e-02 0.0 
-1.052713273252e-02 3.224070441478e-02 0.0 
2.230372362223e-02 1.832850368093e-02 0.0 
-1.008992164412e-02 3.313292950347e-02 0.0 
-9.773608639597e-03 2.860413768219e-02 0.0 
-1.004720630098e-02 3.696287980376e-02 0.0 
-1.030207020131e-02 3.555045163123e-02 0.0 
-9.336398587219e-03 3.819787705696e-02 0.0 
-9.172957452304e-03 4.179609649436e-02 0.0 
-8.183443086412e-03 4.331166892215e-02 0.0 
2.489775131822e-02 1.388062160958e-02 0.0 
2.173099041059e-02 3.020793431365e-02 0.0 
-7.964498423352e-03 4.658883595657e-02 0.0 
-6.721080957304e-03 4.831211006166e-02 0.0 
-6.585442817942e-03 4.462876116815e-02 0.0 
-4.851985673240e-03 4.978288981962e-02 0.0 
1.663526804190e-02 4.848429379308e-02 0.0 
1.534209672782e-02 4.218836095363e-02 0.0 
1.492528780543e-02 4.595298770305e-02 0.0 
1.353565715178e-02 3.936149078731e-02 0.0 
1.320474534982e-02 4.306795517843e-02 0.0 
-5.065711937140e-03 5.304546769446e-02 0.0 
1.737083728161e-02 3.350817020700e-02 0.0 
1.367536675542e-02 3.558184369466e-02 0.0 
2.737294592018e-02 4.155707255539e-02 0.0 
2.866263098725e-02 3.048929142241e-02 0.0 
1.145832524443e-02 7.491225723913e-03 0.0 
-8.667720237850e-03 4.463368061904e-02 0.0 
-7.408894169558e-03 4.908126748914e-02 0.0 
-7.850391217195e-03 4.670188044458e-02 0.0 
-8.939522381931e-03 2.001739429485e-02 0.0 
-9.273446183569e-03 2.265764903680e-02 0.0 
-8.210140653273e-03 1.964916075812e-02 0.0 
-8.413440357721e-03 2.160938302326e-02 0.0 
-7.279675144594e-03 1.882712080104e-02 0.0 
-7.429681335974e-03 2.011586381494e-02 0.0 
-8.291053311311e-03 2.307400706313e-02 0.0 
-7.287734351412e-03 2.094137432289e-02 0.0 
-7.899996048600e-03 2.402249058329e-02 0.0 
-6.322272838855e-03 1.748965129331e-02 0.0 
-5.887926753083e-03 1.644754714884e-02 0.0 
-6.893530693010e-03 2.129752732351e-02 0.0 
-7.288323962518e-03 2.445275447460e-02 0.0 
-6.298437026134e-03 2.118419603481e-02 0.0 
-6.502081811295e-03 2.438377251594e-02 0.0 
-7.393029048069e-03 2.779619864268e-02 0.0 
-6.420797871263e-03 2.771930506079e-02 0.0 
-7.209112320548e-03 3.126908180942e-02 0.0 
7.965381492405e-03 7.805721575373e-03 0.0 
1.047161720337e-02 9.562319160738e-03 0.0 
7.273395220728e-03 9.759313879591e-03 0.0 
9.320749603405e-03 1.089830658523e-02 0.0 
6.537532593484e-03 1.074927286694e-02 0.0 
8.149282743340e-03 1.131139993383e-02 0.0 
5.666178902642e-03 1.092409194909e-02 0.0 
4.054542720069e-03 1.083442730672e-02 0.0 
1.893287732669e-02 3.176463778231e-02 0.0 
1.378137347722e-02 -2.716616612640e-04 0.0 
1.737342840114e-02 1.033545106832e-03 0.0 
1.424414889105e-02 -3.187858183799e-03 0.0 
1.762566329864e-02 -1.415939352503e-03 0.0 
1.442902592177e-02 -6.192658101027e-03 0.0 
1.755566998809e-02 -3.880470754371e-03 0.0 
1.441070959340e-02 -9.299094450221e-03 0.0 
1.111097990929e-02 -1.020435063692e-02 0.0 
1.111647881842e-02 -1.392942306762e-02 0.0 
7.823298783059e-03 -1.304338088437e-02 0.0 
7.990367670881e-03 -1.718408090047e-02 0.0 
4.809610004294e-03 -1.429272974381e-02 0.0 
2.400008163916e-02 2.520310719430e-02 0.0 
1.087212300740e-02 1.194596431887e-02 0.0 
9.302530682970e-03 1.174198282931e-02 0.0 
1.190021736567e-02 1.277338919475e-02 0.0 
-4.303397398927e-03 4.575157276237e-02 0.0 
-5.579108886606e-03 2.384226250597e-02 0.0 
-5.049404373066e-03 1.519337469629e-02 0.0 
-4.365847221931e-03 1.447135569014e-02 0.0 
3.462432364474e-03 1.069056782531e-02 0.0 
-3.000811757833e-03 5.456267088479e-02 0.0 
1.716057285622e-02 -6.298730368901e-03 0.0 
2.002345363657e-02 1.597526565152e-04 0.0 
1.174230001786e-02 3.618449508191e-02 0.0 
1.150613253007e-02 3.987872419040e-02 0.0 
-3.691151360173e-03 1.321100780443e-02 0.0 
-3.355594241384e-03 5.737848691909e-02 0.0 
-6.274043743594e-03 1.835024197702e-02 0.0 
1.077004325684e-02 -1.784304899615e-02 0.0 
-5.345608891656e-03 2.715218107583e-02 0.0 
-4.561150118940e-03 2.286586378841e-02 0.0 
-8.841434877658e-03 2.633028862311e-02 0.0 
9.991496254619e-03 1.194515128015e-02 0.0 
1.247191950260e-02 1.330723675659e-02 0.0 
4.403846978032e-03 -1.027305426465e-02 0.0 
1.609581511714e-03 -9.782498661022e-03 0.0 
2.231546911922e-03 -1.362719483194e-02 0.0 
-7.216120911365e-04 -7.229508051860e-03 0.0 
-1.361509418840e-03 -4.207048882192e-03 0.0 
-3.131654836674e-03 -8.349850236428e-04 0.0 
-2.104027461477e-03 -3.242333714841e-03 0.0 
-4.057618027223e-03 4.015097923561e-03 0.0 
-5.226224911089e-03 5.837489345189e-03 0.0 
-5.696583993152e-03 1.103142103986e-02 0.0 
-3.927817853479e-03 9.955237890193e-03 0.0 
-5.194420555702e-03 1.698924344092e-02 0.0 
-4.672731548695e-03 1.962149511530e-02 0.0 
7.960259793951e-03 -2.149349071337e-02 0.0 
2.451081275070e-02 4.657348257360e-02 0.0 
-4.244611808500e-03 1.333683486816e-02 0.0 
4.709441603070e-03 1.034194504311e-02 0.0 
9.983704266617e-03 3.271786649666e-02 0.0 
9.843651130797e-03 3.641271602223e-02 0.0 
1.110644618289e-02 4.356381731050e-02 0.0 
9.536409307198e-03 4.008093112894e-02 0.0 
8.235662130945e-03 3.269207532319e-02 0.0 
8.024348429613e-03 3.637303991392e-02 0.0 
9.083073566533e-03 4.370787797636e-02 0.0 
7.662109912925e-03 4.000831823156e-02 0.0 
8.502818507507e-03 4.726706114593e-02 0.0 
7.168449180491e-03 4.357910028307e-02 0.0 
6.311191520500e-03 3.610642657564e-02 0.0 
5.900549887135e-03 3.971010576157e-02 0.0 
6.563081979887e-03 4.707980455330e-02 0.0 
5.371016964413e-03 4.324482014879e-02 0.0 
5.863187686208e-03 5.049373132418e-02 0.0 
4.739350200163e-03 4.669974057493e-02 0.0 
4.255529909297e-03 3.925028385219e-02 0.0 
-1.296539721430e-03 5.870854198227e-02 0.0 
1.897497490533e-03 1.106244411686e-02 0.0 
1.572975935889e-03 1.053535775746e-02 0.0 
-6.582646744583e-03 5.069849606026e-02 0.0 
-6.820216864472e-03 4.792756926059e-02 0.0 
-7.947677443889e-03 4.405785857411e-02 0.0 
-6.721726787299e-03 4.497098802409e-02 0.0 
3.674751213443e-03 4.278981101594e-02 0.0 
3.229378243148e-03 3.511628939136e-02 0.0 
1.910981308620e-02 -1.329986108436e-03 0.0 
2.159343047164e-02 5.757799165408e-03 0.0 
9.935932933666e-03 2.901051757888e-02 0.0 
-4.209640314172e-03 2.613694502150e-02 0.0 
-4.852665864688e-03 3.048461409238e-02 0.0 
2.840663990906e-02 2.706244608281e-02 0.0 
2.904301021787e-02 3.209234746095e-02 0.0 
2.858584384515e-02 2.821840424171e-02 0.0 
2.879015010612e-02 3.373999278974e-02 0.0 
2.914378925795e-02 3.749890663301e-02 0.0 
2.810475804181e-02 2.942442960123e-02 0.0 
-5.122213675711e-03 1.507282775881e-02 0.0 
5.047943074610e-03 3.202921385596e-02 0.0 
-6.132459594742e-03 4.019661106569e-02 0.0 
-3.443113338415e-03 4.105254414952e-02 0.0 
-3.520690600184e-03 2.150512873680e-02 0.0 
2.091991181318e-03 1.081711821090e-02 0.0 
2.316244299824e-02 2.629932380110e-02 0.0 
2.147376343472e-02 2.301700530496e-02 0.0 
2.051501590636e-02 2.347848820295e-02 0.0 
1.873680029967e-02 2.046613922569e-02 0.0 
1.764422828558e-02 2.029860719300e-02 0.0 
1.579628223130e-02 1.751854836236e-02 0.0 
1.673785237248e-02 1.777652743446e-02 0.0 
1.020823753652e-02 1.183401658985e-02 0.0 
1.378204398203e-02 1.499915273878e-02 0.0 
4.086272639711e-03 5.012365099208e-02 0.0 
1.377955499709e-02 1.289273731658e-02 0.0 
-6.922261513217e-03 1.225949259635e-02 0.0 
-4.106083326851e-04 5.552824894968e-02 0.0 
-2.396421847256e-03 1.662063676839e-02 0.0 
-1.773541662332e-03 6.113725948823e-02 0.0 
-3.328752743331e-03 5.937035106351e-02 0.0 
-3.043015363331e-03 1.130740953430e-02 0.0 
1.450721888946e-02 1.672174296199e-02 0.0 
1.624929249414e-02 1.957960174598e-02 0.0 
2.843781878307e-02 3.967267975826e-02 0.0 
2.873589598887e-02 4.315522352228e-02 0.0 
7.977199573204e-03 1.042621240921e-02 0.0 
1.433491402567e-02 4.972884499889e-02 0.0 
9.887521776759e-03 5.075439048352e-02 0.0 
9.111434709913e-03 5.421673461058e-02 0.0 
4.184967915586e-04 6.214471426914e-02 0.0 
-1.221220732823e-03 9.187234681181e-03 0.0 
6.706432117143e-03 2.875244908627e-02 0.0 
2.251587019909e-02 6.571903398335e-03 0.0 
2.370238969213e-02 1.243161796518e-02 0.0 
1.022166765800e-02 -2.190056672254e-02 0.0 
7.737783365072e-03 -2.616638471708e-02 0.0 
2.735907771764e-03 3.862056989262e-02 0.0 
2.332112750963e-03 3.083445408022e-02 0.0 
-7.734019207898e-03 4.118805691862e-02 0.0 
-6.426913939269e-03 4.169710827290e-02 0.0 
-2.328816443485e-03 1.147520345477e-02 0.0 
-3.713368325222e-03 2.337136884689e-02 0.0 
2.656360342485e-03 2.714562619608e-02 0.0 
5.672853302658e-05 1.155742350240e-02 0.0 
-1.396576539271e-04 1.101857540743e-02 0.0 
-5.482893894240e-03 4.862055841285e-02 0.0 
2.002171200722e-02 5.261724166202e-03 0.0 
1.762855795266e-02 -2.536125566548e-03 0.0 
-6.079039126101e-03 7.755476471654e-03 0.0 
-6.253108446610e-03 2.336342930027e-02 0.0 
-1.887048763106e-03 6.267431418864e-02 0.0 
-1.889099684818e-03 9.448044287310e-03 0.0 
6.651881633623e-03 2.502478320782e-02 0.0 
1.460168950000e-02 1.543642119957e-02 0.0 
1.734095579302e-02 1.756229150566e-02 0.0 
1.167947869645e-02 1.276597505582e-02 0.0 
-2.163989149594e-04 2.350252524759e-02 0.0 
-3.412026634046e-03 1.086881023594e-02 0.0 
-3.061158902161e-03 2.473727737611e-02 0.0 
1.305925632649e-02 1.562696833792e-02 0.0 
1.457763924668e-02 1.834472653460e-02 0.0 
2.464258668016e-02 1.269657306825e-02 0.0 
2.553482875031e-02 1.873257474172e-02 0.0 
2.395385262420e-02 1.920760938823e-02 0.0 
2.552149047986e-02 2.529713535427e-02 0.0 
2.237732470961e-02 4.999729718574e-02 0.0 
2.639978668815e-02 1.846357291339e-02 0.0 
2.595807551420e-02 4.666640204247e-02 0.0 
2.542659124041e-02 5.107516256990e-02 0.0 
2.662451487352e-02 5.080083085270e-02 0.0 
2.915602286376e-02 4.062259587612e-02 0.0 
2.868404349317e-02 4.605349984780e-02 0.0 
2.049820223418e-02 3.713310699370e-03 0.0 
1.387970901121e-02 9.902636970888e-03 0.0 
-8.855254641407e-03 4.001173991281e-02 0.0 
-8.224256992118e-03 3.084759562297e-02 0.0 
-7.610547853631e-03 1.723838146812e-02 0.0 
5.238990795154e-03 2.833521674393e-02 0.0 
4.003008804289e-03 2.405167736472e-02 0.0 
7.041295934944e-03 5.412326382124e-02 0.0 
6.196493142273e-03 5.740239205140e-02 0.0 
-1.236007631705e-03 4.665205617678e-02 0.0 
4.808428777626e-05 4.168767495916e-02 0.0 
-9.961949860365e-03 2.608792922538e-02 0.0 
-4.470571648070e-03 1.315218830957e-02 0.0 
8.132518771200e-03 2.527673883540e-02 0.0 
7.775237067960e-03 2.156045623197e-02 0.0 
9.679186547171e-03 2.529534416843e-02 0.0 
-1.060663264068e-03 9.920120008326e-03 0.0 
1.053694153182e-02 -3.409943942278e-03 0.0 
4.773321164253e-03 8.665600799334e-03 0.0 
5.573120035321e-03 -2.323165636832e-02 0.0 
2.242443320135e-02 2.041184422172e-02 0.0 
2.629652138416e-03 4.730261036625e-02 0.0 
2.007799366771e-02 2.949115702332e-02 0.0 
-2.496219967601e-03 1.980456954400e-02 0.0 
-2.792570035533e-03 1.657218277024e-02 0.0 
7.868200010292e-03 9.742817524753e-03 0.0 
2.218648523123e-02 5.901112352703e-02 0.0 
2.001502775596e-02 1.781603259737e-02 0.0 
1.968760575235e-02 1.596589061414e-02 0.0 
2.577866291188e-02 5.533896380451e-02 0.0 
2.670478133792e-02 5.473007376355e-02 0.0 
2.757663278318e-02 4.993909769337e-02 0.0 
2.736872392357e-02 5.355897510754e-02 0.0 
-7.753652449832e-03 1.347788024617e-02 0.0 
-8.206682245848e-03 1.812089599022e-02 0.0 
1.095416023513e-02 1.261287536688e-02 0.0 
1.068387057541e-02 1.182163250275e-02 0.0 
1.124817918257e-02 1.395516636442e-02 0.0 
1.264117396590e-02 1.655039865304e-02 0.0 
5.851002813128e-03 8.236284491094e-03 0.0 
5.891824337407e-03 9.166929520212e-03 0.0 
-2.921370015690e-03 6.055824873509e-02 0.0 
2.788739446669e-02 4.885071673223e-02 0.0 
5.123879074971e-03 2.084710413472e-02 0.0 
2.463139470003e-02 5.541226530654e-02 0.0 
-3.488602644633e-03 1.022797000931e-02 0.0 
-4.401735351690e-03 1.263052367919e-02 0.0 
5.792654194850e-03 -2.824903322770e-02 0.0 
3.541239598985e-03 -2.183532446921e-02 0.0 
1.831507149679e-03 2.285916800014e-02 0.0 
2.331856252596e-02 2.640362917254e-02 0.0 
2.475593147017e-02 3.205275297734e-02 0.0 
2.162685946152e-02 1.996968568757e-02 0.0 
-4.125284804751e-04 8.882224084294e-03 0.0 
1.658209420492e-03 7.011974962445e-02 0.0 
-1.887104299007e-03 1.460259893407e-02 0.0 
2.880786190593e-02 4.320552170136e-02 0.0 
1.952812252952e-03 1.873125386752e-02 0.0 
1.741152244968e-02 1.575269978121e-02 0.0 
2.777455505906e-02 2.312137523720e-02 0.0 
-1.246715260738e-03 1.143312431204e-02 0.0 
1.500782773612e-03 2.728161660859e-02 0.0 
1.109172355623e-03 1.810428422058e-02 0.0 
1.041482242542e-02 5.738221496591e-02 0.0 
9.496144808170e-03 6.083553205149e-02 0.0 
1.130826756707e-02 5.401646767257e-02 0.0 
1.312003722788e-02 -1.573137302088e-02 0.0 
1.173335064219e-02 -1.877547576468e-02 0.0 
3.889461165986e-03 2.778904726842e-02 0.0 
-5.964641958461e-03 5.328790386167e-02 0.0 
-5.088906481255e-03 5.443571011702e-02 0.0 
-4.672524189748e-03 2.949607352445e-02 0.0 
-7.082698887565e-03 2.923411390657e-02 0.0 
-8.489046593809e-03 3.734203296534e-02 0.0 
-9.467940416442e-03 3.595665063115e-02 0.0 
1.907369359551e-02 2.596857184208e-02 0.0 
1.733630887006e-02 2.479846303516e-02 0.0 
2.203017725120e-02 2.681711355132e-02 0.0 
-1.968711491455e-03 1.231788425858e-02 0.0 
-2.504287222529e-03 1.159329087061e-02 0.0 
-4.698796619518e-04 9.705307132287e-03 0.0 
4.000920160897e-03 2.053461538624e-02 0.0 
2.702900438432e-03 1.537105948503e-02 0.0 
-6.671707228153e-03 9.488648553248e-03 0.0 
-4.550306449099e-03 4.126783955086e-03 0.0 
-8.972843107891e-03 1.868995718935e-02 0.0 
4.810175534483e-03 1.722339310361e-02 0.0 
-2.021824640385e-03 1.149147901080e-02 0.0 
-2.861278087733e-03 1.352406520367e-02 0.0 
4.289722939708e-03 4.225406777273e-02 0.0 
1.411379187466e-03 3.614947179310e-02 0.0 
1.753336792514e-02 5.174884830085e-03 0.0 
1.499149262131e-02 -3.287401939192e-03 0.0 
7.300658459115e-03 1.814570484378e-02 0.0 
9.218194101044e-03 2.165780673342e-02 0.0 
5.260583127764e-03 1.386662017285e-02 0.0 
-1.541656082654e-03 6.353075558206e-02 0.0 
1.504144430987e-02 1.541788108893e-02 0.0 
-7.793558608735e-04 7.789737456458e-03 0.0 
1.244495097345e-04 8.544064523816e-03 0.0 
-1.278731567669e-03 6.521307299880e-03 0.0 
1.006721198347e-02 1.146038013402e-02 0.0 
7.367440513238e-03 8.829878821670e-03 0.0 
8.511040131289e-03 9.574625667718e-03 0.0 
6.970761835141e-03 -3.065576501191e-02 0.0 
8.394202185321e-04 2.159489579689e-02 0.0 
7.337655655409e-03 6.083018013737e-02 0.0 
6.372200842799e-03 -3.228429773338e-02 0.0 
6.359354258016e-03 6.418570699852e-02 0.0 
5.328157562202e-03 6.061791128117e-02 0.0 
5.498788039686e-03 6.736501639064e-02 0.0 
-7.560036601633e-04 6.531783825845e-02 0.0 
1.186340546557e-02 6.146597028623e-02 0.0 
1.285765149760e-02 5.725062800122e-02 0.0 
7.001831720544e-03 3.662144789142e-02 0.0 
3.311763398075e-03 1.292126184662e-02 0.0 
6.680067769989e-03 4.732872621635e-02 0.0 
4.755403039991e-03 5.184010742756e-02 0.0 
-3.227247962529e-03 9.130127081074e-03 0.0 
-4.069190086731e-03 1.173508491077e-02 0.0 
-2.784617349536e-03 7.787359558447e-03 0.0 
-3.611816211249e-03 1.070741543324e-02 0.0 
-4.779733827060e-03 1.458107877237e-02 0.0 
-4.158938462749e-03 1.348362841877e-02 0.0 
8.581775269350e-03 6.459109926790e-02 0.0 
-2.766508334772e-03 8.509083930547e-03 0.0 
-3.401178223530e-03 1.192722334274e-02 0.0 
-2.042436642186e-03 6.837601927001e-03 0.0 
2.614472131737e-02 5.862808768490e-02 0.0 
2.670988567289e-02 3.060052631914e-02 0.0 
2.588893037297e-02 3.725412811224e-02 0.0 
2.332601935246e-02 3.932627079519e-02 0.0 
8.395528265277e-03 1.071185240508e-02 0.0 
1.070387508996e-02 1.456013572959e-02 0.0 
-1.941206620555e-03 2.289633094789e-02 0.0 
-2.268998599243e-03 2.783567351673e-02 0.0 
4.406662368821e-03 6.420921482637e-02 0.0 
3.223106719588e-03 6.460310753011e-02 0.0 
3.523711368083e-03 5.859108406185e-02 0.0 
2.548458031060e-03 5.941959351236e-02 0.0 
2.741289589814e-03 5.326034252772e-02 0.0 
1.769021540352e-03 5.412457621749e-02 0.0 
2.091095004027e-03 4.769521212018e-02 0.0 
7.227437470756e-03 8.129906559558e-03 0.0 
2.018033896616e-02 2.717761276772e-02 0.0 
2.466321570739e-02 5.982809866002e-02 0.0 
4.020126285922e-03 6.817162649519e-03 0.0 
4.198168666424e-03 8.206867919815e-03 0.0 
2.780901522732e-02 5.146781687570e-02 0.0 
2.663386831061e-02 5.456025598587e-02 0.0 
-2.377639393003e-03 7.424826957314e-03 0.0 
2.503823232615e-02 1.318938370122e-02 0.0 
2.432251689044e-03 8.219514180041e-03 0.0 
3.691733783319e-03 -2.373474742230e-02 0.0 
8.424132588505e-03 -2.402336221352e-02 0.0 
2.666392987508e-02 1.842383130275e-02 0.0 
2.827496456338e-02 4.839055639755e-02 0.0 
2.772234705065e-02 3.543884167330e-02 0.0 
2.699700072219e-02 4.196449400336e-02 0.0 
-1.565446293783e-03 1.227439476443e-02 0.0 
3.086680805905e-03 3.007074453977e-02 0.0 
1.970742937977e-02 1.287840566372e-02 0.0 
3.032213890328e-03 4.689171808444e-02 0.0 
1.625658266584e-02 1.307105324780e-02 0.0 
-1.046891786583e-03 2.544663638055e-02 0.0 
2.293514361952e-02 8.873140156835e-03 0.0 
2.890873449298e-02 3.811870786561e-02 0.0 
2.212657366105e-02 1.247515011184e-02 0.0 
2.705648636394e-02 2.455060633077e-02 0.0 
2.287050784404e-02 4.592127721974e-02 0.0 
2.165278870217e-02 5.398573761947e-02 0.0 
2.318359985690e-02 5.505724601003e-02 0.0 
2.012966914864e-02 5.589557519082e-03 0.0 
2.763550375396e-02 4.573633300884e-02 0.0 
2.571918477153e-02 4.865893023535e-02 0.0 
2.617355623998e-02 4.226138193130e-02 0.0 
1.163201207530e-02 2.873694531232e-02 0.0 
1.123971958095e-02 2.503341371908e-02 0.0 
8.597937009497e-03 1.825636964392e-02 0.0 
1.062717736445e-02 2.145198870061e-02 0.0 
1.329186173000e-02 2.813376951774e-02 0.0 
1.274398757944e-02 2.450299512977e-02 0.0 
9.794973431008e-03 1.803833171588e-02 0.0 
1.195834670188e-02 2.098067108646e-02 0.0 
7.982115138557e-03 1.336219572978e-02 0.0 
1.083507801017e-02 1.744172354822e-02 0.0 
1.413465693111e-02 2.372694064929e-02 0.0 
1.319272314584e-02 2.042309725359e-02 0.0 
9.993869715862e-03 1.493549184128e-02 0.0 
1.634910013726e-02 2.638463434972e-02 0.0 
3.628814190742e-03 5.463915951618e-03 0.0 
2.632714959761e-02 1.854862084281e-02 0.0 
9.119516170615e-03 -2.600625253434e-02 0.0 
1.092082646482e-02 -1.475863869458e-02 0.0 
2.829450094718e-02 4.019973963089e-02 0.0 
3.935558927083e-03 6.624893736638e-03 0.0 
3.414644140730e-03 6.866614620170e-03 0.0 
2.044142033256e-02 1.859931057134e-03 0.0 
4.185666542671e-03 5.089413822317e-03 0.0 
2.397870516868e-02 5.083686875689e-02 0.0 
1.400321328036e-02 -1.250351659897e-02 0.0 
4.053725329237e-03 4.616618110276e-03 0.0 
1.359899259909e-02 3.182280157641e-02 0.0 
1.557686506285e-02 3.471136179320e-02 0.0 
1.556589024957e-02 3.845284647179e-02 0.0 
2.760287482877e-03 6.645403022334e-03 0.0 
1.209557486399e-02 5.048684658601e-02 0.0 
2.817743001402e-03 3.517212290435e-03 0.0 
1.241266981233e-02 1.135945746159e-02 0.0 
1.568760273128e-02 1.221251671580e-02 0.0 
1.724192715536e-02 1.090680230311e-02 0.0 
1.488506153813e-02 2.738345519128e-02 0.0 
1.270353069352e-03 3.242471490107e-03 0.0 
1.922904167802e-03 5.806973739637e-03 0.0 
1.040090070854e-03 5.804567850470e-03 0.0 
2.148692021142e-03 8.017336451116e-03 0.0 
3.207926430017e-04 3.244430634175e-03 0.0 
3.854768490026e-03 5.571771647311e-03 0.0 
3.764195060917e-03 5.092677573127e-03 0.0 
-3.915855637288e-03 1.692145760801e-03 0.0 
-1.948637133037e-03 -1.188519707895e-03 0.0 
-2.454891306989e-03 1.595144486275e-03 0.0 
5.787491221192e-04 -2.835037651416e-03 0.0 
1.103115049043e-03 -6.167184156266e-03 0.0 
3.974522332265e-03 -6.576322796955e-03 0.0 
3.532316609375e-03 -3.166520303837e-03 0.0 
7.559650360378e-03 -9.194159664529e-03 0.0 
1.414457655393e-02 1.974958189445e-02 0.0 
-4.802615151234e-04 3.268040387257e-03 0.0 
-6.800326589847e-03 1.711007820008e-02 0.0 
-5.946201670018e-03 1.503193768443e-02 0.0 
-6.560745809906e-03 1.448618768636e-02 0.0 
-9.729424106459e-03 3.813667807629e-02 0.0 
-1.018003854267e-02 3.390964298413e-02 0.0 
-9.741199207909e-03 3.200276017538e-02 0.0 
-8.937307489720e-03 4.244182263645e-02 0.0 
1.951364857267e-02 2.010261448702e-02 0.0 
-8.424086097441e-04 3.405902960154e-03 0.0 
2.105975103196e-03 9.772131481840e-03 0.0 
-1.056662641249e-02 3.117067329557e-02 0.0 
1.567768512962e-02 6.543237927188e-02 0.0 
1.612634706299e-02 5.980814115935e-02 0.0 
1.748985782187e-02 5.855831758264e-02 0.0 
1.612579927539e-02 5.321055054564e-02 0.0 
1.447830431587e-02 6.021739809722e-02 0.0 
-7.306679002706e-03 3.806823311711e-02 0.0 
-5.986805955092e-03 3.817834684798e-02 0.0 
-4.996692650509e-03 4.158451277042e-02 0.0 
-4.585755147632e-03 3.772423354398e-02 0.0 
-3.506401821186e-03 4.089780441721e-02 0.0 
-3.817074096895e-03 4.470844932846e-02 0.0 
-3.125472308916e-03 3.677640958090e-02 0.0 
-2.035031182010e-03 4.017045735078e-02 0.0 
1.274680455680e-02 6.725225300327e-02 0.0 
9.242681985386e-03 -1.492330069584e-02 0.0 
4.550045497030e-03 -8.404137779500e-03 0.0 
5.550331361383e-03 3.103929498108e-03 0.0 
1.529292810266e-03 -2.421988359680e-03 0.0 
1.817300728161e-03 -1.213059757870e-02 0.0 
-7.412024429691e-04 -5.648665642629e-03 0.0 
1.087535306168e-03 -1.378828047839e-02 0.0 
4.170978137805e-03 -1.979901980484e-02 0.0 
1.188891126510e-02 8.691920566663e-03 0.0 
6.403438257942e-03 1.273580889685e-02 0.0 
1.253730020747e-02 1.766785824269e-02 0.0 
7.202712332235e-03 2.123767218889e-02 0.0 
1.722228781597e-03 1.656532583641e-02 0.0 
-2.493555141626e-03 3.569460695835e-02 0.0 
-1.092089076975e-03 5.695110469844e-03 0.0 
-1.535999515207e-03 5.148682678858e-02 0.0 
-2.955062187441e-03 5.266167102864e-02 0.0 
-2.812418751687e-03 5.595187119451e-02 0.0 
-4.389078639351e-03 5.292514565311e-02 0.0 
-2.874671865584e-03 4.939186425286e-02 0.0 
-1.351551744290e-03 5.842632986623e-02 0.0 
-2.512347577825e-03 5.874607044428e-02 0.0 
5.000703212503e-03 6.640142570766e-02 0.0 
2.745697016821e-03 6.759481374768e-02 0.0 
1.372513897180e-03 6.895546673110e-02 0.0 
1.155396372157e-03 6.806946199363e-02 0.0 
1.922821190933e-03 6.639737753493e-02 0.0 
4.017028790408e-03 6.548295158433e-02 0.0 
5.197446614130e-03 6.258635906158e-02 0.0 
8.479299801599e-03 6.070829929574e-02 0.0 
6.169294584476e-03 5.901516463161e-02 0.0 
3.024868549918e-03 6.072783755655e-02 0.0 
9.951536591465e-03 5.690490348316e-02 0.0 
6.724144267440e-04 3.792088368718e-02 0.0 
1.276892474898e-03 3.403071275418e-02 0.0 
-1.392912109567e-03 3.939679553533e-03 0.0 
9.920941264053e-03 6.799116466534e-02 0.0 
1.292687511578e-02 3.334899320900e-02 0.0 
1.019571367789e-03 9.131147960573e-03 0.0 
1.489712346490e-03 7.487938991084e-03 0.0 
1.223889502369e-03 7.293536080042e-03 0.0 
-6.578192438008e-04 1.471367924098e-02 0.0 
-1.062472864126e-03 1.191350510198e-02 0.0 
5.616468960898e-04 8.917535027933e-03 0.0 
-8.051813631967e-03 3.930067238860e-02 0.0 
7.761020496132e-03 1.500146054145e-02 0.0 
2.850386159982e-03 2.338778633383e-02 0.0 
1.626624451361e-02 -8.575706794084e-03 0.0 
-7.977220377721e-03 2.340918279580e-02 0.0 
-3.545221864214e-03 2.938074938183e-02 0.0 
-8.215139472962e-03 2.733229660129e-02 0.0 
-3.743479445306e-03 1.829899205288e-02 0.0 
-6.069311675286e-03 3.112622236938e-02 0.0 
-5.543683361121e-03 2.061244053228e-02 0.0 
1.396070862381e-04 6.082028228540e-03 0.0 
-5.170267767489e-04 6.413249621828e-02 0.0 
7.815317430153e-03 5.074084606378e-02 0.0 
5.132213812273e-03 5.383532311676e-02 0.0 
4.714858092211e-03 3.567284838237e-02 0.0 
-6.508837299554e-03 5.120146600795e-02 0.0 
-5.345632322136e-03 4.498584674431e-02 0.0 
-2.316354685763e-03 5.094471634386e-02 0.0 
7.520522938427e-03 8.753472378657e-03 0.0 
2.716420500208e-02 4.621612708353e-02 0.0 
-8.151599559052e-03 1.694014338737e-02 0.0 
-9.654191542605e-03 4.007840120650e-02 0.0 
-9.156176102978e-03 3.388909914532e-02 0.0 
-6.984039079758e-03 1.752626029907e-02 0.0 
2.723149766545e-02 2.253985373802e-02 0.0 
-1.042961920536e-02 2.705723700607e-02 0.0 
-6.438644681987e-03 1.813153232989e-02 0.0 
3.626875130452e-03 3.148359838038e-02 0.0 
1.148598557060e-02 4.689475297131e-02 0.0 
-5.402440752300e-03 1.560001957321e-02 0.0 
-9.215744892666e-03 2.477106450728e-02 0.0 
1.056275081279e-02 4.720482373955e-02 0.0 
6.881031206304e-03 1.095255419918e-02 0.0 
-2.583272240342e-03 2.635161494048e-03 0.0 
6.588494846604e-03 3.246043781958e-02 0.0 
6.067215024849e-03 1.803666047140e-02 0.0 
1.362594751044e-02 5.349445451680e-02 0.0 
1.066632314353e-03 5.184826712702e-02 0.0 
8.277131579885e-03 5.766891253086e-02 0.0 
-2.348416912629e-03 8.743689841246e-03 0.0 
1.178926517270e-02 3.245155306458e-02 0.0 
-4.919681917341e-03 5.550731549450e-02 0.0 
5.170828726013e-03 6.437201022535e-03 0.0 
2.853113222330e-02 3.330723061855e-02 0.0 
2.219793178999e-02 6.377149384460e-02 0.0 
2.919657598289e-03 1.989035066198e-02 0.0 
2.168253708796e-02 1.578816420804e-02 0.0 
2.813961889904e-03 9.773562260340e-03 0.0 
4.497093326313e-03 1.018482427194e-02 0.0 
-4.449351296284e-03 5.708541458564e-02 0.0 
-5.222706148930e-03 1.528792407492e-02 0.0 
1.501146229891e-02 7.917235135341e-03 0.0 
5.281352898025e-03 2.465252683636e-02 0.0 
1.927649987189e-02 2.336517313092e-02 0.0 
9.991719967436e-03 -2.659201778009e-04 0.0 
8.278503115105e-03 2.899185100549e-02 0.0 
-5.025747339570e-03 1.155767474173e-02 0.0 
7.652187464928e-03 1.081024232710e-02 0.0 
2.812938771250e-02 4.505627355433e-02 0.0 
2.450393925766e-02 2.991797443276e-02 0.0 
2.077913457562e-02 3.316487974629e-02 0.0 
2.447527378199e-02 2.351175303734e-02 0.0 
-2.536165496767e-03 3.258612784372e-02 0.0 
-5.448875859911e-03 1.563852126722e-02 0.0 
5.363293429488e-03 -1.865040239559e-02 0.0 
2.774532618359e-02 2.376659567605e-02 0.0 
1.271177093870e-02 4.678343278331e-02 0.0 
1.270788584538e-02 1.422782606630e-02 0.0 
3.718609028512e-03 1.650782067046e-02 0.0 
2.915712935364e-02 3.540905385936e-02 0.0 
-5.872134135678e-03 1.815039571817e-02 0.0 
6.454996142170e-03 2.152894029700e-02 0.0 
-1.026265860385e-02 2.986020244162e-02 0.0 
-4.308682697239e-04 6.619379218473e-02 0.0 
1.499069107608e-02 -1.056200365655e-02 0.0 
1.090882003956e-02 -6.725326727314e-03 0.0 
2.038647858778e-02 1.270911291432e-02 0.0 
-9.661424420120e-03 2.825871529505e-02 0.0 
6.241785322188e-03 1.378102971443e-02 0.0 
-5.277319576388e-03 1.753086645362e-02 0.0 
-2.795008345275e-03 1.282927175205e-02 0.0 
8.708957040548e-03 4.789996478527e-03 0.0 
2.356242214084e-02 5.959037658761e-02 0.0 
-4.537585708866e-03 1.650572924297e-02 0.0 
2.065573778143e-03 7.983123738543e-03 0.0 
5.529197434268e-03 9.867934692635e-03 0.0 
-2.311453049740e-03 4.388704470299e-02 0.0 
7.335321600277e-03 8.344010069913e-03 0.0 
2.661386586959e-02 5.675058910878e-02 0.0 
-3.706199064588e-03 1.511118432203e-02 0.0 
1.150054038539e-04 1.131481711421e-02 0.0 
2.294799290745e-02 7.627687827436e-03 0.0 
2.749648746608e-03 7.004898687770e-02 0.0 
-2.422949143735e-03 9.470669169482e-03 0.0 
1.143193864265e-04 1.023203983656e-02 0.0 
2.213386049990e-02 2.199093572407e-02 0.0 
-6.009053833461e-04 7.962457460681e-03 0.0 
2.401172576430e-02 6.422085341924e-02 0.0 
-9.059183637798e-03 2.983475342547e-02 0.0 
2.323947167133e-02 3.038740466692e-02 0.0 
2.456581405294e-03 6.583383027444e-03 0.0 
1.283198396295e-03 9.235718345887e-03 0.0 
1.746306233721e-02 4.110282233976e-02 0.0 
-8.941250446752e-03 3.353087652497e-02 0.0 
1.467425447906e-02 1.409947681032e-02 0.0 
2.593943446050e-03 6.395068858794e-02 0.0 
2.550736873930e-02 5.949497248034e-02 0.0 
-7.915630078055e-03 3.443264102506e-02 0.0 
7.194196893954e-03 -5.609050277959e-03 0.0 
-2.869851116589e-03 1.028674000961e-02 0.0 
5.479923376798e-03 7.154749095667e-03 0.0 
-6.733676699097e-03 3.472191514318e-02 0.0 
6.743952139038e-03 -2.208631223995e-03 0.0 
-5.449666442494e-03 3.445775910819e-02 0.0 
2.496133307151e-02 6.249689151746e-02 0.0 
1.751505449472e-02 3.720369152200e-02 0.0 
-4.062524744775e-03 3.372113721763e-02 0.0 
2.065795622898e-02 2.667640092687e-02 0.0 
3.202012318780e-03 5.657315132275e-02 0.0 
1.995562914018e-02 1.922157264808e-02 0.0 
-1.508170967521e-03 1.747809468106e-02 0.0 
-9.861007627958e-03 2.370709842360e-02 0.0 
-4.651115886266e-03 1.269122398315e-02 0.0 
1.534660542816e-02 3.099919393198e-02 0.0 
2.476486962846e-02 5.885089812468e-02 0.0 
-4.000455414530e-03 1.342176910041e-02 0.0 
1.779617169013e-02 2.268862971940e-02 0.0 
1.759179673598e-02 1.689666667160e-02 0.0 
1.881706069226e-02 1.366163543437e-02 0.0 
-3.341550231956e-03 1.349258305705e-02 0.0 
2.643819789055e-02 5.172323961515e-02 0.0 
-7.599154580262e-03 3.475064649092e-02 0.0 
-5.475893401266e-03 3.517779389697e-02 0.0 
3.117862946377e-03 4.339222656928e-05 0.0 
1.606310918879e-02 2.145928112970e-02 0.0 
4.180217418375e-04 6.642699570131e-02 0.0 
1.695670433555e-02 2.981275208455e-02 0.0 
-1.378927220928e-03 2.982772179416e-02 0.0 
1.466575025046e-04 2.286174814898e-04 0.0 
1.252349080422e-02 1.345032163234e-02 0.0 
8.028196873777e-04 5.238882573275e-02 0.0 
-2.804041574468e-03 4.233229184284e-03 0.0 
-8.069399589797e-04 6.403503962361e-02 0.0 
-4.998130763771e-03 6.347429449407e-03 0.0 
1.679447530858e-02 1.419691352715e-02 0.0 
-6.975437249075e-03 1.105452794283e-02 0.0 
-8.249694743385e-03 1.447646020535e-02 0.0 
1.974934991712e-03 1.536495202421e-02 0.0 
-9.398550455213e-03 1.922980379348e-02 0.0 
2.785550343451e-04 7.406231538060e-03 0.0 
-4.817061115035e-04 5.327982415248e-03 0.0 
1.043750132383e-03 6.550971906339e-02 0.0 
2.309796186816e-02 5.366307581831e-02 0.0 
6.122047793949e-03 -3.548791969659e-02 0.0 
2.510047964653e-02 4.325621806736e-02 0.0 
-9.131020741181e-03 2.349490114374e-02 0.0 
1.830206570075e-02 2.823236757190e-02 0.0 
2.168807806104e-03 6.516521473144e-02 0.0 
-8.684945058793e-03 2.892834450162e-02 0.0 
7.363009643758e-03 1.127182093866e-02 0.0 
3.391046629281e-03 3.856362358917e-03 0.0 
1.444726226750e-03 4.128055788691e-02 0.0 
3.747525683709e-03 9.100287054713e-03 0.0 
1.502864915521e-02 1.493574248485e-02 0.0 
4.160215474567e-04 2.243920119805e-02 0.0 
6.377793033092e-03 6.999852270099e-02 0.0 
7.808956894027e-03 2.909928296282e-02 0.0 
-1.214648686997e-03 3.045873543372e-02 0.0 
2.052390714617e-02 4.521237452020e-02 0.0 
2.176075167142e-02 3.325161991766e-02 0.0 
1.817201192220e-02 2.042913499050e-02 0.0 
-3.588679712478e-03 5.814969162595e-02 0.0 
2.017972955109e-03 7.487858770053e-03 0.0 
1.790746550524e-02 3.438041007691e-02 0.0 
2.779069133949e-03 6.047875135715e-03 0.0 
1.063983386730e-02 6.326094904315e-02 0.0 
1.246979305669e-02 1.345008264939e-02 0.0 
1.372415057483e-02 2.131478313971e-02 0.0 
4.429389829840e-03 1.414481816796e-02 0.0 
6.162488436799e-03 7.222134247797e-03 0.0 
-1.412118641181e-03 3.840920346961e-03 0.0 
9.467358509351e-03 1.068674913564e-02 0.0 
1.392528092799e-02 4.724457553784e-03 0.0 
1.499968973434e-02 5.538471824637e-02 0.0 
7.594905036050e-03 9.178282439345e-03 0.0 
1.947373909817e-03 3.511062877504e-02 0.0 
-1.308009403852e-03 3.968142744932e-03 0.0 
1.326748416588e-02 6.260099846250e-02 0.0 
1.222593183480e-03 1.442741462093e-02 0.0 
3.285587414863e-03 -1.809064893413e-02 0.0 
6.249874575406e-04 1.404650590276e-02 0.0 
1.535478676654e-02 2.292586980407e-02 0.0 
4.428151538282e-03 5.706709807835e-02 0.0 
1.758186395231e-02 5.362947527784e-02 0.0 
-1.260905275640e-03 9.199301955769e-03 0.0 
6.781416336301e-03 1.216186425271e-02 0.0 
1.139043922120e-02 -5.733915074755e-03 0.0 
2.258376322819e-03 4.198719649669e-02 0.0 
-5.744742089019e-03 5.106922973652e-02 0.0 
5.552303873440e-03 -2.847285446169e-02 0.0 
-2.487140047293e-03 7.164261497724e-03 0.0 
1.212371647316e-02 1.752553158947e-02 0.0 
-1.949518325246e-03 9.069127849892e-03 0.0 
5.612202196568e-04 6.882524794963e-02 0.0 
8.543212000687e-03 4.287832144649e-02 0.0 
-1.634057015239e-03 6.037504070376e-03 0.0 
7.145010637531e-03 9.609600960858e-03 0.0 
-1.974229381218e-04 -9.517742729149e-03 0.0 
1.528985331806e-03 5.787930868962e-03 0.0 
7.413838678493e-03 -1.586691271215e-02 0.0 
8.704797846530e-03 7.003694171910e-02 0.0 
7.221607079576e-03 5.518511904555e-02 0.0 
-1.168703597598e-03 4.201768138055e-03 0.0 
2.784984987694e-03 1.356221795238e-02 0.0 
-4.050474793243e-03 5.021468416039e-02 0.0 
1.846214222150e-02 6.248196999408e-02 0.0 
-2.057519849148e-03 6.143346912238e-02 0.0 
9.770624964406e-03 1.098704732866e-02 0.0 
3.559994855345e-03 2.416523538665e-02 0.0 
1.950368038236e-03 1.294645686085e-02 0.0 
-4.822161447413e-04 5.433668978791e-03 0.0 
5.021440084624e-03 1.190761532746e-02 0.0 
1.596456514952e-03 2.540385443809e-03 0.0 
7.071278737727e-03 -3.034895165676e-02 0.0 
5.749167678662e-03 6.563946909695e-03 0.0 
9.353778498350e-04 7.601055681141e-03 0.0 
4.785447647105e-03 7.052858512259e-02 0.0 
6.090890465231e-03 1.231292051451e-02 0.0 
-3.837176577239e-03 5.594804366819e-02 0.0 
8.185047597017e-04 5.907977584438e-02 0.0 
1.195301663456e-04 6.572417206282e-03 0.0 
1.586821900497e-03 6.860945873023e-02 0.0 
8.062064016958e-04 7.083003290108e-02 0.0 
-1.866246196666e-04 4.379600992350e-03 0.0 
9.281398098923e-04 6.483359356940e-02 0.0 
1.725744596255e-03 6.076661417641e-02 0.0 
6.751349627405e-03 9.643447912481e-03 0.0 
-1.007906759075e-03 4.353899817215e-02 0.0 
9.635278257086e-04 2.775812212796e-02 0.0 
-4.874576241064e-04 2.525102792594e-03 0.0 
8.066420412030e-03 -3.472580451050e-02 0.0 
1.383439011528e-03 4.881298608129e-02 0.0 
5.009869267328e-03 6.234692966354e-03 0.0 
4.057205983690e-03 1.173131480577e-02 0.0 
3.555257879274e-03 5.342525710553e-02 0.0 
1.325846788023e-02 -1.052942455317e-02 0.0 
9.412539171752e-03 1.330380089791e-02 0.0 
-4.198091954087e-03 4.732721876614e-02 0.0 
1.016383439940e-02 1.212857418048e-02 0.0 
2.993155910566e-03 7.592365998624e-03 0.0 
2.998039492682e-03 -1.412112583066e-02 0.0 
-8.539843019222e-04 3.937379111867e-02 0.0 
8.159572053431e-03 5.104274026840e-02 0.0 
-2.515075416892e-03 7.225019665254e-03 0.0 
-2.769854683436e-03 4.651035568950e-02 0.0 
2.890474326611e-03 2.163408143315e-02 0.0 
2.584209604305e-04 1.066995045610e-01 0.0 
9.360107405548e-03 3.508444584979e-02 0.0 
2.957498479162e-04 1.047598467847e-01 0.0 
1.430078530765e-02 4.623766714729e-02 0.0 
3.540554150873e-04 1.023429364083e-01 0.0 
1.811382164834e-02 5.547907855113e-02 0.0 
3.810819503297e-04 9.943831749781e-02 0.0 
2.070050980468e-02 6.254400736148e-02 0.0 
4.397300252471e-04 9.605694427359e-02 0.0 
2.207017640433e-02 6.736346713179e-02 0.0 
4.505834647385e-04 9.220256571466e-02 0.0 
2.226487760765e-02 6.994970132935e-02 0.0 
5.011625624819e-04 8.788126533466e-02 0.0 
2.145590998557e-02 7.048224995060e-02 0.0 
5.030771878127e-04 8.310048385833e-02 0.0 
1.981963910503e-02 6.924881820651e-02 0.0 
5.369320386966e-04 7.787154872214e-02 0.0 

TENSORS node_materi_stress float
-1.189015332291e+01 4.047955119227e-02 0.0 
4.047955119227e-02 -8.465292576807e+00 0.0 
0.0 0.0 -4.872365347219e+00 
-8.167231718197e+01 4.805195824676e-01 0.0 
4.805195824676e-01 -1.765253353763e+02 0.0 
0.0 0.0 -7.705929576748e+01 
-1.681703176545e+02 -4.142014474115e-01 0.0 
-4.142014474115e-01 -3.934568879695e+02 0.0 
0.0 0.0 -1.680881616872e+02 
-1.568044518101e+02 5.809995705624e-01 0.0 
5.809995705624e-01 -3.660142770118e+02 0.0 
0.0 0.0 -1.564456186466e+02 
-1.181409584615e+01 -1.225406086914e-01 0.0 
-1.225406086914e-01 -2.070368481272e+01 0.0 
0.0 0.0 -7.534441930651e+00 
-1.491135693900e+01 -4.828465344493e-01 0.0 
-4.828465344493e-01 -4.008838306371e+01 0.0 
0.0 0.0 -1.382216399006e+01 
-1.871618629036e+01 -5.601292048708e-01 0.0 
-5.601292048708e-01 -5.819366991529e+01 0.0 
0.0 0.0 -2.188055450779e+01 
-2.989381478082e+01 -6.924092389212e-01 0.0 
-6.924092389212e-01 -7.903388237199e+01 0.0 
0.0 0.0 -3.152496182618e+01 
-4.621553016977e+01 -6.808359109039e-01 0.0 
-6.808359109039e-01 -9.943907793217e+01 0.0 
0.0 0.0 -4.086685298805e+01 
-6.057042132297e+01 -6.950432044400e-01 0.0 
-6.950432044400e-01 -1.198034770844e+02 0.0 
0.0 0.0 -5.010925189976e+01 
-7.320822340476e+01 -7.360319037351e-01 0.0 
-7.360319037351e-01 -1.402998947014e+02 0.0 
0.0 0.0 -5.927496919047e+01 
-8.429325144667e+01 -7.195610315747e-01 0.0 
-7.195610315747e-01 -1.608637452178e+02 0.0 
0.0 0.0 -6.835297127984e+01 
-9.389995105038e+01 -7.006488283854e-01 0.0 
-7.006488283854e-01 -1.814709689960e+02 0.0 
0.0 0.0 -7.736578276482e+01 
-1.023829951393e+02 -7.159072865532e-01 0.0 
-7.159072865532e-01 -2.022312587370e+02 0.0 
0.0 0.0 -8.632902399506e+01 
-1.097835764882e+02 -7.962895393017e-01 0.0 
-7.962895393017e-01 -2.234573759363e+02 0.0 
0.0 0.0 -9.537517658703e+01 
-1.163632487582e+02 -7.113824961644e-01 0.0 
-7.113824961644e-01 -2.439058643232e+02 0.0 
0.0 0.0 -1.041940223209e+02 
-1.218875532614e+02 -8.737338485482e-01 0.0 
-8.737338485482e-01 -2.623617145374e+02 0.0 
0.0 0.0 -1.121490104456e+02 
-1.270779005275e+02 -4.464226779622e-01 0.0 
-4.464226779622e-01 -2.825885857200e+02 0.0 
0.0 0.0 -1.207322407105e+02 
-1.320463452779e+02 -3.693643300419e-01 0.0 
-3.693643300419e-01 -3.031825432480e+02 0.0 
0.0 0.0 -1.295224390158e+02 
-1.382855873552e+02 -3.403406548507e-01 0.0 
-3.403406548507e-01 -3.230331680852e+02 0.0 
0.0 0.0 -1.379894711790e+02 
-1.466496201487e+02 -2.845792593491e-01 0.0 
-2.845792593491e-01 -3.429486092644e+02 0.0 
0.0 0.0 -1.464794688239e+02 
-1.551445610909e+02 -3.322255271587e-01 0.0 
-3.322255271587e-01 -3.629949990575e+02 0.0 
0.0 0.0 -1.550418680445e+02 
-1.633922810057e+02 -4.146246227146e-01 0.0 
-4.146246227146e-01 -3.821623769231e+02 0.0 
0.0 0.0 -1.632663973786e+02 
-1.572305199457e+02 5.221155684840e-01 0.0 
5.221155684840e-01 -3.671601376398e+02 0.0 
0.0 0.0 -1.569171972757e+02 
-1.566839136524e+02 9.143365315350e-01 0.0 
9.143365315350e-01 -3.661669066556e+02 0.0 
0.0 0.0 -1.564552460924e+02 
-1.568410587486e+02 1.587106049766e+00 0.0 
1.587106049766e+00 -3.665114887058e+02 0.0 
0.0 0.0 -1.566057642363e+02 
-1.568357059352e+02 1.648312560589e+00 0.0 
1.648312560589e+00 -3.666375165521e+02 0.0 
0.0 0.0 -1.566419667462e+02 
-1.567044542427e+02 2.226308192013e+00 0.0 
2.226308192013e+00 -3.661810251005e+02 0.0 
0.0 0.0 -1.564656438030e+02 
-1.570925083015e+02 2.660236558684e+00 0.0 
2.660236558684e+00 -3.670456344803e+02 0.0 
0.0 0.0 -1.568414428345e+02 
-1.574896827653e+02 3.135689980921e+00 0.0 
3.135689980921e+00 -3.675988659703e+02 0.0 
0.0 0.0 -1.571265646207e+02 
-1.573226581556e+02 3.689545701492e+00 0.0 
3.689545701492e+00 -3.676259497008e+02 0.0 
0.0 0.0 -1.570845823569e+02 
-1.578828798710e+02 4.300415889783e+00 0.0 
4.300415889783e+00 -3.687882785231e+02 0.0 
0.0 0.0 -1.576013475182e+02 
-1.579887378206e+02 4.504684706330e+00 0.0 
4.504684706330e+00 -3.692348591284e+02 0.0 
0.0 0.0 -1.577670790847e+02 
-1.580205583093e+02 5.112429691384e+00 0.0 
5.112429691384e+00 -3.691482168399e+02 0.0 
0.0 0.0 -1.577506325448e+02 
-1.584915832430e+02 5.609563760495e+00 0.0 
5.609563760495e+00 -3.703505549768e+02 0.0 
0.0 0.0 -1.582526414659e+02 
-1.591432752066e+02 6.083271049920e+00 0.0 
6.083271049920e+00 -3.715150529268e+02 0.0 
0.0 0.0 -1.587974984400e+02 
-1.591160003613e+02 6.560607046212e+00 0.0 
6.560607046212e+00 -3.718996581849e+02 0.0 
0.0 0.0 -1.589046975638e+02 
-1.594951338254e+02 7.034612864318e+00 0.0 
7.034612864318e+00 -3.724831009896e+02 0.0 
0.0 0.0 -1.591934704445e+02 
-1.594102644617e+02 7.358560873819e+00 0.0 
7.358560873819e+00 -3.726992712854e+02 0.0 
0.0 0.0 -1.592328607241e+02 
-1.597729861959e+02 7.801091101903e+00 0.0 
7.801091101903e+00 -3.735651153376e+02 0.0 
0.0 0.0 -1.596014304601e+02 
-1.606863627508e+02 8.160613391229e+00 0.0 
8.160613391229e+00 -3.753863288625e+02 0.0 
0.0 0.0 -1.604218074840e+02 
-1.612034233233e+02 8.496214282588e+00 0.0 
8.496214282588e+00 -3.769199235348e+02 0.0 
0.0 0.0 -1.610370040574e+02 
-1.617931690433e+02 8.752747183868e+00 0.0 
8.752747183868e+00 -3.784736367680e+02 0.0 
0.0 0.0 -1.616800417434e+02 
-1.621952177540e+02 8.838392217062e+00 0.0 
8.838392217062e+00 -3.796154267429e+02 0.0 
0.0 0.0 -1.621431933491e+02 
-1.626814303480e+02 9.010547526619e+00 0.0 
9.010547526619e+00 -3.807184668872e+02 0.0 
0.0 0.0 -1.626199691706e+02 
-1.630935892711e+02 9.007586025081e+00 0.0 
9.007586025081e+00 -3.819573061250e+02 0.0 
0.0 0.0 -1.631152686188e+02 
-1.635301376081e+02 8.946855710794e+00 0.0 
8.946855710794e+00 -3.831434332377e+02 0.0 
0.0 0.0 -1.636020712537e+02 
-1.640619571172e+02 8.785125544585e+00 0.0 
8.785125544585e+00 -3.845353489022e+02 0.0 
0.0 0.0 -1.641791918058e+02 
-1.646775790070e+02 8.570662740891e+00 0.0 
8.570662740891e+00 -3.859385080042e+02 0.0 
0.0 0.0 -1.647848261034e+02 
-1.650585138033e+02 8.269974383047e+00 0.0 
8.269974383047e+00 -3.871422028328e+02 0.0 
0.0 0.0 -1.652602149908e+02 
-1.655976791490e+02 7.909695702693e+00 0.0 
7.909695702693e+00 -3.882651044845e+02 0.0 
0.0 0.0 -1.657588350901e+02 
-1.658096475434e+02 7.512053461557e+00 0.0 
7.512053461557e+00 -3.890438040150e+02 0.0 
0.0 0.0 -1.660560354675e+02 
-1.665816590236e+02 7.223368946761e+00 0.0 
7.223368946761e+00 -3.906695880131e+02 0.0 
0.0 0.0 -1.667753741110e+02 
-1.667753760283e+02 6.466444147502e+00 0.0 
6.466444147502e+00 -3.914359476840e+02 0.0 
0.0 0.0 -1.670633971137e+02 
-1.667396241106e+02 6.060347553922e+00 0.0 
6.060347553922e+00 -3.914619804441e+02 0.0 
0.0 0.0 -1.670604813664e+02 
-1.671581857569e+02 5.498926134705e+00 0.0 
5.498926134705e+00 -3.924448300001e+02 0.0 
0.0 0.0 -1.674809047271e+02 
-1.676235645699e+02 4.928381625927e+00 0.0 
4.928381625927e+00 -3.936015134771e+02 0.0 
0.0 0.0 -1.679675234141e+02 
-1.680215998693e+02 4.263430476196e+00 0.0 
4.263430476196e+00 -3.945275901445e+02 0.0 
0.0 0.0 -1.683647570041e+02 
-1.682731545214e+02 3.631063112227e+00 0.0 
3.631063112227e+00 -3.952084794890e+02 0.0 
0.0 0.0 -1.686444902031e+02 
-1.686010359653e+02 2.958430566093e+00 0.0 
2.958430566093e+00 -3.957905632468e+02 0.0 
0.0 0.0 -1.689174797636e+02 
-1.685593466740e+02 2.323306457347e+00 0.0 
2.323306457347e+00 -3.957882491669e+02 0.0 
0.0 0.0 -1.689042787523e+02 
-1.685999835437e+02 1.793260144975e+00 0.0 
1.793260144975e+00 -3.956507023210e+02 0.0 
0.0 0.0 -1.688752057594e+02 
-1.683553369617e+02 1.251340852195e+00 0.0 
1.251340852195e+00 -3.951956379622e+02 0.0 
0.0 0.0 -1.686652924772e+02 
-1.685076798398e+02 9.201448143390e-01 0.0 
9.201448143390e-01 -3.953736796892e+02 0.0 
0.0 0.0 -1.687644078587e+02 
-1.689891224626e+02 4.857777556167e-01 0.0 
4.857777556167e-01 -3.960540002048e+02 0.0 
0.0 0.0 -1.691129368002e+02 
-1.691436079548e+02 3.303378910786e-01 0.0 
3.303378910786e-01 -3.961187653055e+02 0.0 
0.0 0.0 -1.691787119781e+02 
-1.677346591102e+02 1.323744136655e-01 0.0 
1.323744136655e-01 -3.932371526803e+02 0.0 
0.0 0.0 -1.678915435372e+02 
-1.687723296518e+02 -4.745796646867e-02 0.0 
-4.745796646867e-02 -3.950624368828e+02 0.0 
0.0 0.0 -1.687504299604e+02 
-1.681604168546e+02 -9.348735379760e-02 0.0 
-9.348735379760e-02 -3.939410649775e+02 0.0 
0.0 0.0 -1.682304445496e+02 
-1.683365544434e+02 5.845800004524e-02 0.0 
5.845800004524e-02 -3.942216365585e+02 0.0 
0.0 0.0 -1.683674573006e+02 
-1.686319876724e+02 -1.563629525745e-01 0.0 
-1.563629525745e-01 -3.947540803933e+02 0.0 
0.0 0.0 -1.686158204197e+02 
-1.685258710916e+02 -5.312303564847e-02 0.0 
-5.312303564847e-02 -3.945593225571e+02 0.0 
0.0 0.0 -1.685255580946e+02 
-9.033494467921e+01 3.595550796174e-01 0.0 
3.595550796174e-01 -1.964214131685e+02 0.0 
0.0 0.0 -8.562690735430e+01 
-9.842637048389e+01 4.198054249716e-01 0.0 
4.198054249716e-01 -2.162587492366e+02 0.0 
0.0 0.0 -9.400553591613e+01 
-1.065335366120e+02 4.198573211637e-01 0.0 
4.198573211637e-01 -2.359334315113e+02 0.0 
0.0 0.0 -1.023400904370e+02 
-1.143212120864e+02 4.598175413329e-01 0.0 
4.598175413329e-01 -2.552385765575e+02 0.0 
0.0 0.0 -1.104679365932e+02 
-1.221636166286e+02 4.277087208319e-01 0.0 
4.277087208319e-01 -2.750067544752e+02 0.0 
0.0 0.0 -1.187511113311e+02 
-1.301400997037e+02 4.770640016716e-01 0.0 
4.770640016716e-01 -2.949000361158e+02 0.0 
0.0 0.0 -1.271120407459e+02 
-1.376708379760e+02 4.419294912784e-01 0.0 
4.419294912784e-01 -3.145682256878e+02 0.0 
0.0 0.0 -1.352717190991e+02 
-1.450549429922e+02 5.158044714919e-01 0.0 
5.158044714919e-01 -3.341018854262e+02 0.0 
0.0 0.0 -1.433470485255e+02 
-1.527149303131e+02 5.630684908487e-01 0.0 
5.630684908487e-01 -3.542492366167e+02 0.0 
0.0 0.0 -1.516892500789e+02 
-6.566470680954e+01 3.065582576573e+01 0.0 
3.065582576573e+01 -6.906117376392e+01 0.0 
0.0 0.0 -4.084114832794e+01 
-8.780081600604e+01 3.754048322644e+00 0.0 
3.754048322644e+00 -1.804545388929e+02 0.0 
0.0 0.0 -7.957454701859e+01 
-4.482616123067e+01 2.317121470364e+01 0.0 
2.317121470364e+01 -2.585108337916e+01 0.0 
0.0 0.0 -1.931657397471e+01 
-3.161929941393e+01 1.060590063382e+01 0.0 
1.060590063382e+01 -2.476400237507e+01 0.0 
0.0 0.0 -1.355883927017e+01 
-3.526755052306e+01 8.927786043972e+00 0.0 
8.927786043972e+00 -4.320680553662e+01 0.0 
0.0 0.0 -2.017811668003e+01 
-4.055408594294e+01 8.428672659104e+00 0.0 
8.428672659104e+00 -6.124368275267e+01 0.0 
0.0 0.0 -2.746362864891e+01 
-4.817617371329e+01 7.594554697764e+00 0.0 
7.594554697764e+00 -8.110062302254e+01 0.0 
0.0 0.0 -3.528611027838e+01 
-5.721997592751e+01 6.044026695648e+00 0.0 
6.044026695648e+00 -1.018042462992e+02 0.0 
0.0 0.0 -4.289731728882e+01 
-6.609269159996e+01 4.542025750063e+00 0.0 
4.542025750063e+00 -1.220845591528e+02 0.0 
0.0 0.0 -5.159634402809e+01 
-7.408514715225e+01 3.825825833668e+00 0.0 
3.825825833668e+00 -1.414348669697e+02 0.0 
0.0 0.0 -6.137362491250e+01 
-8.113834528789e+01 3.644966981822e+00 0.0 
3.644966981822e+00 -1.604263386471e+02 0.0 
0.0 0.0 -7.048694919386e+01 
-9.090863324016e+00 4.463129399385e-01 0.0 
4.463129399385e-01 -6.994142991518e+00 0.0 
0.0 0.0 -3.445589204715e+00 
-1.473363413041e+01 6.265633912222e-01 0.0 
6.265633912222e-01 -1.959198203088e+01 0.0 
0.0 0.0 -9.298238596137e+00 
-2.244243542423e+01 6.236973699388e-01 0.0 
6.236973699388e-01 -3.903363272079e+01 0.0 
0.0 0.0 -1.772086425658e+01 
-3.099876801807e+01 7.516622226920e-01 0.0 
7.516622226920e-01 -5.854107031061e+01 0.0 
0.0 0.0 -2.626348507093e+01 
-3.903140401778e+01 6.492148108828e-01 0.0 
6.492148108828e-01 -7.805214456260e+01 0.0 
0.0 0.0 -3.472506457411e+01 
-4.762419386752e+01 7.933346083587e-01 0.0 
7.933346083587e-01 -9.760168195808e+01 0.0 
0.0 0.0 -4.316776274768e+01 
-5.617191981720e+01 6.508476034127e-01 0.0 
6.508476034127e-01 -1.171552564952e+02 0.0 
0.0 0.0 -5.159815289371e+01 
-6.473731329580e+01 7.920063883423e-01 0.0 
7.920063883423e-01 -1.367016160442e+02 0.0 
0.0 0.0 -6.003167880200e+01 
-7.324813028659e+01 5.795233940858e-01 0.0 
5.795233940858e-01 -1.561699876303e+02 0.0 
0.0 0.0 -6.842543537507e+01 
-8.079974805750e+01 -1.515577510208e-01 0.0 
-1.515577510208e-01 -1.739073576063e+02 0.0 
0.0 0.0 -7.601213169913e+01 
-8.147950003224e+01 1.344840039310e-01 0.0 
1.344840039310e-01 -1.751174999651e+02 0.0 
0.0 0.0 -7.657909999921e+01 
-8.153961521441e+01 2.227702725211e-01 0.0 
2.227702725211e-01 -1.751839408710e+02 0.0 
0.0 0.0 -7.661706682561e+01 
-8.163532183621e+01 3.688487578764e-01 0.0 
3.688487578764e-01 -1.749983686380e+02 0.0 
0.0 0.0 -7.659010714227e+01 
-8.306766773911e+01 4.807201204197e-01 0.0 
4.807201204197e-01 -1.777374032391e+02 0.0 
0.0 0.0 -7.784152129345e+01 
-8.225164118710e+01 6.005092836734e-01 0.0 
6.005092836734e-01 -1.754625828968e+02 0.0 
0.0 0.0 -7.691426722518e+01 
-8.261731024373e+01 8.179708378381e-01 0.0 
8.179708378381e-01 -1.753982713282e+02 0.0 
0.0 0.0 -7.700467447156e+01 
-8.298582341448e+01 9.634135559386e-01 0.0 
9.634135559386e-01 -1.757382067792e+02 0.0 
0.0 0.0 -7.721720905811e+01 
-8.347047198427e+01 1.268049869178e+00 0.0 
1.268049869178e+00 -1.763622384654e+02 0.0 
0.0 0.0 -7.754981313491e+01 
-8.386643961275e+01 1.537927749017e+00 0.0 
1.537927749017e+00 -1.765333083168e+02 0.0 
0.0 0.0 -7.771992437886e+01 
-8.440373629873e+01 1.930091951188e+00 0.0 
1.930091951188e+00 -1.768055378964e+02 0.0 
0.0 0.0 -7.796278225853e+01 
-8.483879562319e+01 2.347198305882e+00 0.0 
2.347198305882e+00 -1.771540535702e+02 0.0 
0.0 0.0 -7.817494967072e+01 
-8.553216469248e+01 2.725810535864e+00 0.0 
2.725810535864e+00 -1.777786566667e+02 0.0 
0.0 0.0 -7.849532549949e+01 
-8.627476055884e+01 3.136188326919e+00 0.0 
3.136188326919e+00 -1.787287521251e+02 0.0 
0.0 0.0 -7.887946605320e+01 
-8.914644295956e+01 1.420524850217e+01 0.0 
1.420524850217e+01 -9.644458206116e+01 0.0 
0.0 0.0 -5.603844052279e+01 
-1.049716794372e+02 2.758698461742e+00 0.0 
2.758698461742e+00 -1.046649436905e+02 0.0 
0.0 0.0 -6.325806172682e+01 
-1.106844329798e+02 -2.265246499087e+00 0.0 
-2.265246499087e+00 -1.041256697518e+02 0.0 
0.0 0.0 -6.477720116829e+01 
-1.001400799607e+02 -1.018931595730e+01 0.0 
-1.018931595730e+01 -9.516530713352e+01 0.0 
0.0 0.0 -5.892523369307e+01 
-6.507078809378e+01 -2.110553627208e+01 0.0 
-2.110553627208e+01 -5.670200033726e+01 0.0 
0.0 0.0 -3.691072677275e+01 
-3.300692912537e+01 -1.479026860538e+01 0.0 
-1.479026860538e+01 -1.983598583969e+01 0.0 
0.0 0.0 -1.557873354900e+01 
-1.686677790358e+01 -3.607196896270e+00 0.0 
-3.607196896270e+00 -1.078810981074e+01 0.0 
0.0 0.0 -7.728284989869e+00 
-1.141317801479e+01 -4.837095746953e-01 0.0 
-4.837095746953e-01 -9.186255509108e+00 0.0 
0.0 0.0 -5.553249756731e+00 
-9.625923300120e+00 5.361940459357e-01 0.0 
5.361940459357e-01 -8.515858132880e+00 0.0 
0.0 0.0 -5.071836381492e+00 
-9.655469357518e+00 8.199847373178e-01 0.0 
8.199847373178e-01 -7.846032312451e+00 0.0 
0.0 0.0 -4.818156253771e+00 
-9.988261205669e+00 5.728039397028e-01 0.0 
5.728039397028e-01 -7.931718574077e+00 0.0 
0.0 0.0 -4.721973694618e+00 
-1.068586931001e+01 2.510216036808e-01 0.0 
2.510216036808e-01 -8.684703903554e+00 0.0 
0.0 0.0 -4.949377971783e+00 
-1.103662971605e+01 8.842587858498e-02 0.0 
8.842587858498e-02 -8.493232731075e+00 0.0 
0.0 0.0 -4.537915258895e+00 
-1.097340457551e+01 1.037720786864e-01 0.0 
1.037720786864e-01 -7.832305263038e+00 0.0 
0.0 0.0 -4.327446437667e+00 
-1.091097232977e+01 1.108622542088e-01 0.0 
1.108622542088e-01 -7.922379005706e+00 0.0 
0.0 0.0 -4.326370981580e+00 
-1.106564606749e+01 1.053633070789e-01 0.0 
1.053633070789e-01 -8.178139785537e+00 0.0 
0.0 0.0 -4.430682226324e+00 
-1.120304416113e+01 1.286175086483e-01 0.0 
1.286175086483e-01 -8.221547732387e+00 0.0 
0.0 0.0 -4.458722417075e+00 
-1.138432298718e+01 4.957138093375e-02 0.0 
4.957138093375e-02 -7.776585933433e+00 0.0 
0.0 0.0 -4.419040685105e+00 
-1.178353417924e+01 -7.555056057248e-02 0.0 
-7.555056057248e-02 -7.111664150737e+00 0.0 
0.0 0.0 -4.421277253469e+00 
-9.002490178894e+00 -3.627289609812e-01 0.0 
-3.627289609812e-01 -6.637834487371e+00 0.0 
0.0 0.0 -3.758774386637e+00 
-9.957367723781e+00 -7.924809993868e-02 0.0 
-7.924809993868e-02 -9.156132638023e+00 0.0 
0.0 0.0 -5.287814283798e+00 
-9.638298053064e+00 -1.554106500176e-01 0.0 
-1.554106500176e-01 -9.850140999329e+00 0.0 
0.0 0.0 -5.524975207638e+00 
-9.311085996308e+00 -1.481951973708e-01 0.0 
-1.481951973708e-01 -9.882982520805e+00 0.0 
0.0 0.0 -5.453437974240e+00 
-8.938718851272e+00 -1.356490556437e-01 0.0 
-1.356490556437e-01 -9.859959162275e+00 0.0 
0.0 0.0 -5.335022532198e+00 
-8.516664705917e+00 -1.324626912407e-01 0.0 
-1.324626912407e-01 -9.834014289149e+00 0.0 
0.0 0.0 -5.200314508890e+00 
-8.031730352038e+00 -1.378042535209e-01 0.0 
-1.378042535209e-01 -9.811146659680e+00 0.0 
0.0 0.0 -5.048661970596e+00 
-7.478337332727e+00 -1.489126810583e-01 0.0 
-1.489126810583e-01 -9.789546911758e+00 0.0 
0.0 0.0 -4.877398943997e+00 
-6.862608454205e+00 -1.641910649831e-01 0.0 
-1.641910649831e-01 -9.768605307585e+00 0.0 
0.0 0.0 -4.685298018400e+00 
-6.189016184123e+00 -1.800266725575e-01 0.0 
-1.800266725575e-01 -9.749382772143e+00 0.0 
0.0 0.0 -4.475044075983e+00 
-5.469174562848e+00 -1.924721466601e-01 0.0 
-1.924721466601e-01 -9.733638056040e+00 0.0 
0.0 0.0 -4.255181677221e+00 
-4.720249196825e+00 -1.968183262891e-01 0.0 
-1.968183262891e-01 -9.723921430337e+00 0.0 
0.0 0.0 -4.028215824322e+00 
-3.978300903675e+00 -1.840154441443e-01 0.0 
-1.840154441443e-01 -9.722147788284e+00 0.0 
0.0 0.0 -3.804220023704e+00 
-3.293280273349e+00 -1.446432233067e-01 0.0 
-1.446432233067e-01 -9.730646923962e+00 0.0 
0.0 0.0 -3.599852598714e+00 
-2.727782925893e+00 -7.257168252157e-02 0.0 
-7.257168252157e-02 -9.751365476852e+00 0.0 
0.0 0.0 -3.435951091386e+00 
-2.343896840515e+00 3.657401902655e-02 0.0 
3.657401902655e-02 -9.784384785654e+00 0.0 
0.0 0.0 -3.333271145974e+00 
-2.207600025259e+00 1.787583286478e-01 0.0 
1.787583286478e-01 -9.825291781318e+00 0.0 
0.0 0.0 -3.313697153337e+00 
-2.369191316179e+00 3.463666021640e-01 0.0 
3.463666021640e-01 -9.876296681103e+00 0.0 
0.0 0.0 -3.396024621701e+00 
-2.851390289490e+00 5.171007435682e-01 0.0 
5.171007435682e-01 -9.895459731911e+00 0.0 
0.0 0.0 -3.578266744855e+00 
-3.633887423295e+00 5.827535814540e-01 0.0 
5.827535814540e-01 -9.844972170135e+00 0.0 
0.0 0.0 -3.845435879624e+00 
-4.626702727374e+00 4.694680803354e-01 0.0 
4.694680803354e-01 -9.731087660275e+00 0.0 
0.0 0.0 -4.152859575327e+00 
-5.799683676197e+00 1.998038334083e-01 0.0 
1.998038334083e-01 -9.557731464842e+00 0.0 
0.0 0.0 -4.466525467717e+00 
-6.553060474271e+00 -1.765166219655e-01 0.0 
-1.765166219655e-01 -9.390550288304e+00 0.0 
0.0 0.0 -4.591944310314e+00 
-7.330087181588e+00 -4.379489852669e-01 0.0 
-4.379489852669e-01 -9.512362146698e+00 0.0 
0.0 0.0 -4.749452527104e+00 
-8.686731652507e+00 -6.494796147996e-03 0.0 
-6.494796147996e-03 -1.001765711421e+01 0.0 
0.0 0.0 -4.503059774952e+00 
-1.124790131533e+01 1.135735036985e+00 0.0 
1.135735036985e+00 -1.041638169609e+01 0.0 
0.0 0.0 -4.108529259581e+00 
-1.658719254619e+01 3.626037043848e+00 0.0 
3.626037043848e+00 -1.020327507728e+01 0.0 
0.0 0.0 -5.234543212785e+00 
-2.585116944057e+01 6.654579513286e+00 0.0 
6.654579513286e+00 -5.993417061213e+00 0.0 
0.0 0.0 -6.279231896444e+00 
-2.263386877414e+01 5.173595038266e+00 0.0 
5.173595038266e+00 -1.940487880147e+01 0.0 
0.0 0.0 -9.656764039665e+00 
-2.024966306752e+01 3.694352011831e+00 0.0 
3.694352011831e+00 -2.224378517776e+01 0.0 
0.0 0.0 -1.031955839001e+01 
-1.564714884813e+01 2.023171783906e+00 0.0 
2.023171783906e+00 -2.025158932803e+01 0.0 
0.0 0.0 -9.181784806372e+00 
-1.313254550500e+01 1.467638199244e+00 0.0 
1.467638199244e+00 -1.954769741073e+01 0.0 
0.0 0.0 -8.862865838995e+00 
-1.130455920941e+01 1.092593260469e+00 0.0 
1.092593260469e+00 -1.941756630865e+01 0.0 
0.0 0.0 -8.826818747863e+00 
-1.000408244042e+01 9.302213580872e-01 0.0 
9.302213580872e-01 -1.943855757467e+01 0.0 
0.0 0.0 -8.615621577619e+00 
-9.164612431810e+00 7.910544612263e-01 0.0 
7.910544612263e-01 -1.960740080007e+01 0.0 
0.0 0.0 -8.374653477483e+00 
-8.659537682277e+00 5.894871040392e-01 0.0 
5.894871040392e-01 -1.976318975531e+01 0.0 
0.0 0.0 -8.197915305587e+00 
-8.412277033837e+00 3.161760366314e-01 0.0 
3.161760366314e-01 -1.985241473247e+01 0.0 
0.0 0.0 -8.086344738006e+00 
-8.321360507237e+00 3.238399604450e-02 0.0 
3.238399604450e-02 -1.984864644955e+01 0.0 
0.0 0.0 -8.014315392973e+00 
-8.448419666176e+00 -2.225646652438e-01 0.0 
-2.225646652438e-01 -1.983198568586e+01 0.0 
0.0 0.0 -8.019984773891e+00 
-8.745253209670e+00 -4.350799394234e-01 0.0 
-4.350799394234e-01 -1.979500481980e+01 0.0 
0.0 0.0 -8.101596556778e+00 
-9.171187326918e+00 -5.910194161254e-01 0.0 
-5.910194161254e-01 -1.975183948204e+01 0.0 
0.0 0.0 -8.227791475143e+00 
-9.695717605682e+00 -6.910841430683e-01 0.0 
-6.910841430683e-01 -1.970981517365e+01 0.0 
0.0 0.0 -8.378644891405e+00 
-1.027692678609e+01 -7.370495092752e-01 0.0 
-7.370495092752e-01 -1.967121139396e+01 0.0 
0.0 0.0 -8.542508631307e+00 
-1.087746371308e+01 -7.400554298986e-01 0.0 
-7.400554298986e-01 -1.964272894467e+01 0.0 
0.0 0.0 -8.710630677299e+00 
-1.146904218478e+01 -7.141150968496e-01 0.0 
-7.141150968496e-01 -1.962479824178e+01 0.0 
0.0 0.0 -8.876272841064e+00 
-1.203174820464e+01 -6.697724628207e-01 0.0 
-6.697724628207e-01 -1.961467422360e+01 0.0 
0.0 0.0 -9.036363542388e+00 
-1.255276486187e+01 -6.143908198436e-01 0.0 
-6.143908198436e-01 -1.960921062947e+01 0.0 
0.0 0.0 -9.186112317654e+00 
-1.302276831151e+01 -5.533232058902e-01 0.0 
-5.533232058902e-01 -1.960722899904e+01 0.0 
0.0 0.0 -9.320062514452e+00 
-1.343566373824e+01 -4.903504313856e-01 0.0 
-4.903504313856e-01 -1.960783278480e+01 0.0 
0.0 0.0 -9.437263842749e+00 
-1.378732927004e+01 -4.288992869325e-01 0.0 
-4.288992869325e-01 -1.961169294853e+01 0.0 
0.0 0.0 -9.538811020816e+00 
-1.407410976656e+01 -3.702973206240e-01 0.0 
-3.702973206240e-01 -1.961590852449e+01 0.0 
0.0 0.0 -9.623804441832e+00 
-1.429255837819e+01 -3.120723859249e-01 0.0 
-3.120723859249e-01 -1.960572657341e+01 0.0 
0.0 0.0 -9.686688223192e+00 
-1.446915555887e+01 -2.917696886886e-01 0.0 
-2.917696886886e-01 -1.955780500758e+01 0.0 
0.0 0.0 -9.731370170865e+00 
-1.464338049131e+01 -3.574754427900e-01 0.0 
-3.574754427900e-01 -1.955574174442e+01 0.0 
0.0 0.0 -9.541884501224e+00 
-2.976304155411e+01 6.103161406817e+00 0.0 
6.103161406817e+00 -3.890331783895e+01 0.0 
0.0 0.0 -1.762710343926e+01 
-2.827240564835e+01 5.169234792075e+00 0.0 
5.169234792075e+00 -4.159133035121e+01 0.0 
0.0 0.0 -1.827153280413e+01 
-2.458507678654e+01 3.671975091811e+00 0.0 
3.671975091811e+00 -4.000805784358e+01 0.0 
0.0 0.0 -1.721755508014e+01 
-2.261179055731e+01 2.805646768648e+00 0.0 
2.805646768648e+00 -3.953507255443e+01 0.0 
0.0 0.0 -1.697558964386e+01 
-2.135879024390e+01 2.015434206919e+00 0.0 
2.015434206919e+00 -3.958002368455e+01 0.0 
0.0 0.0 -1.692381753013e+01 
-2.053593395902e+01 1.334536674137e+00 0.0 
1.334536674137e+00 -3.969988675343e+01 0.0 
0.0 0.0 -1.690506653388e+01 
-2.007266456141e+01 7.154824962007e-01 0.0 
7.154824962007e-01 -3.985433786330e+01 0.0 
0.0 0.0 -1.691800330946e+01 
-1.989580881797e+01 1.980206743638e-01 0.0 
1.980206743638e-01 -3.981997959300e+01 0.0 
0.0 0.0 -1.685522325385e+01 
-1.992242940225e+01 -2.153239079565e-01 0.0 
-2.153239079565e-01 -3.973128918117e+01 0.0 
0.0 0.0 -1.687004750756e+01 
-2.004506590507e+01 -5.312243203793e-01 0.0 
-5.312243203793e-01 -3.963509194437e+01 0.0 
0.0 0.0 -1.692395159734e+01 
-2.016409111032e+01 -7.687302104680e-01 0.0 
-7.687302104680e-01 -3.953302035928e+01 0.0 
0.0 0.0 -1.698866185565e+01 
-2.033197903459e+01 -9.487652683317e-01 0.0 
-9.487652683317e-01 -3.942953609946e+01 0.0 
0.0 0.0 -1.705259465323e+01 
-2.054101461151e+01 -1.056641971723e+00 0.0 
-1.056641971723e+00 -3.932285914482e+01 0.0 
0.0 0.0 -1.710790579548e+01 
-2.077370614028e+01 -1.096034404628e+00 0.0 
-1.096034404628e+00 -3.923929277650e+01 0.0 
0.0 0.0 -1.716272754399e+01 
-2.101812090646e+01 -1.083912981987e+00 0.0 
-1.083912981987e+00 -3.918310266984e+01 0.0 
0.0 0.0 -1.721971189302e+01 
-2.126620366990e+01 -1.035789217072e+00 0.0 
-1.035789217072e+00 -3.914830638176e+01 0.0 
0.0 0.0 -1.727849434694e+01 
-2.150788534371e+01 -9.637094187048e-01 0.0 
-9.637094187048e-01 -3.912758071270e+01 0.0 
0.0 0.0 -1.733662505280e+01 
-2.173512044295e+01 -8.756610565323e-01 0.0 
-8.756610565323e-01 -3.911727632322e+01 0.0 
0.0 0.0 -1.739224941241e+01 
-2.193962512601e+01 -7.768725321287e-01 0.0 
-7.768725321287e-01 -3.911411211746e+01 0.0 
0.0 0.0 -1.744311056663e+01 
-2.211811053525e+01 -6.714753476803e-01 0.0 
-6.714753476803e-01 -3.911585896435e+01 0.0 
0.0 0.0 -1.748859276941e+01 
-2.226267993135e+01 -5.602786454761e-01 0.0 
-5.602786454761e-01 -3.911848326765e+01 0.0 
0.0 0.0 -1.752577679376e+01 
-2.236125783167e+01 -4.397530678196e-01 0.0 
-4.397530678196e-01 -3.910838351759e+01 0.0 
0.0 0.0 -1.754672235675e+01 
-2.240914282791e+01 -3.048047981626e-01 0.0 
-3.048047981626e-01 -3.905884205197e+01 0.0 
0.0 0.0 -1.754367146500e+01 
-2.241489513299e+01 -1.513628247127e-01 0.0 
-1.513628247127e-01 -3.901910177888e+01 0.0 
0.0 0.0 -1.758494730782e+01 
-2.242319951304e+01 -4.744752116400e-01 0.0 
-4.744752116400e-01 -3.907150967121e+01 0.0 
0.0 0.0 -1.771201846732e+01 
-3.076977074111e+01 -4.128323032581e-01 0.0 
-4.128323032581e-01 -5.855087534294e+01 0.0 
0.0 0.0 -2.620370353594e+01 
-3.075924913813e+01 -3.394944579963e-01 0.0 
-3.394944579963e-01 -5.852052706137e+01 0.0 
0.0 0.0 -2.604142391444e+01 
-3.075948697139e+01 -4.295426350112e-01 0.0 
-4.295426350112e-01 -5.858447707063e+01 0.0 
0.0 0.0 -2.605913405157e+01 
-3.077596074703e+01 -5.855578211855e-01 0.0 
-5.855578211855e-01 -5.861210658742e+01 0.0 
0.0 0.0 -2.606669890595e+01 
-3.079142052006e+01 -7.375093719329e-01 0.0 
-7.375093719329e-01 -5.862282300165e+01 0.0 
0.0 0.0 -2.606590987343e+01 
-3.080226793509e+01 -8.785164436952e-01 0.0 
-8.785164436952e-01 -5.862991462668e+01 0.0 
0.0 0.0 -2.606003294160e+01 
-3.081085673703e+01 -1.008479703315e+00 0.0 
-1.008479703315e+00 -5.864167908799e+01 0.0 
0.0 0.0 -2.605217949638e+01 
-3.082002490781e+01 -1.124956617994e+00 0.0 
-1.124956617994e+00 -5.866464160854e+01 0.0 
0.0 0.0 -2.604456241480e+01 
-3.083519999561e+01 -1.221970366107e+00 0.0 
-1.221970366107e+00 -5.870210915572e+01 0.0 
0.0 0.0 -2.603832908431e+01 
-3.086326567392e+01 -1.293198220064e+00 0.0 
-1.293198220064e+00 -5.875855930888e+01 0.0 
0.0 0.0 -2.603510785100e+01 
-3.090883946028e+01 -1.329877912789e+00 0.0 
-1.329877912789e+00 -5.884348627298e+01 0.0 
0.0 0.0 -2.603694352076e+01 
-3.097410757311e+01 -1.318734401987e+00 0.0 
-1.318734401987e+00 -5.896795310322e+01 0.0 
0.0 0.0 -2.604510612338e+01 
-3.105964962753e+01 -1.241468094693e+00 0.0 
-1.241468094693e+00 -5.913794055352e+01 0.0 
0.0 0.0 -2.605759961170e+01 
-3.116895691431e+01 -1.074950826927e+00 0.0 
-1.074950826927e+00 -5.933334320824e+01 0.0 
0.0 0.0 -2.606326478152e+01 
-3.123692389708e+01 -8.224937531304e-01 0.0 
-8.224937531304e-01 -5.952434572290e+01 0.0 
0.0 0.0 -2.602712241120e+01 
-3.134728096032e+01 -4.523256546443e-01 0.0 
-4.523256546443e-01 -5.971923590584e+01 0.0 
0.0 0.0 -2.591539513299e+01 
-3.156127531504e+01 6.233721927557e-02 0.0 
6.233721927557e-02 -5.993164254672e+01 0.0 
0.0 0.0 -2.571489636741e+01 
-3.188740381267e+01 7.591368572159e-01 0.0 
7.591368572159e-01 -6.012110767129e+01 0.0 
0.0 0.0 -2.553069364568e+01 
-3.244785756799e+01 1.634300161709e+00 0.0 
1.634300161709e+00 -6.023946777180e+01 0.0 
0.0 0.0 -2.549617598379e+01 
-3.326589877599e+01 2.702867767763e+00 0.0 
2.702867767763e+00 -6.015562931277e+01 0.0 
0.0 0.0 -2.539906257555e+01 
-3.435198497273e+01 3.843624536686e+00 0.0 
3.843624536686e+00 -6.030930660035e+01 0.0 
0.0 0.0 -2.544659738481e+01 
-3.674029448787e+01 5.423632687573e+00 0.0 
5.423632687573e+00 -6.159048836967e+01 0.0 
0.0 0.0 -2.634353289364e+01 
-3.704013305530e+01 6.494562343827e+00 0.0 
6.494562343827e+00 -5.839704210334e+01 0.0 
0.0 0.0 -2.560856388794e+01 
-4.574566805159e+01 5.772512283288e+00 0.0 
5.772512283288e+00 -7.865871154373e+01 0.0 
0.0 0.0 -3.348280154376e+01 
-4.635383131637e+01 4.586865008049e+00 0.0 
4.586865008049e+00 -8.216737407501e+01 0.0 
0.0 0.0 -3.449614567041e+01 
-4.477571098360e+01 3.004006016337e+00 0.0 
3.004006016337e+00 -8.104324710124e+01 0.0 
0.0 0.0 -3.403515000532e+01 
-4.409507602627e+01 1.933318203950e+00 0.0 
1.933318203950e+00 -8.068990699767e+01 0.0 
0.0 0.0 -3.417643106288e+01 
-4.341310324812e+01 1.043965746645e+00 0.0 
1.043965746645e+00 -8.036962654953e+01 0.0 
0.0 0.0 -3.448803897982e+01 
-4.280421441049e+01 3.465990816735e-01 0.0 
3.465990816735e-01 -7.993875372316e+01 0.0 
0.0 0.0 -3.474773822329e+01 
-4.228126623173e+01 -2.029232644700e-01 0.0 
-2.029232644700e-01 -7.960332942895e+01 0.0 
0.0 0.0 -3.493795747700e+01 
-4.189304880225e+01 -5.980119663107e-01 0.0 
-5.980119663107e-01 -7.928393537443e+01 0.0 
0.0 0.0 -3.502493991167e+01 
-4.154154906082e+01 -8.609305849214e-01 0.0 
-8.609305849214e-01 -7.901067206653e+01 0.0 
0.0 0.0 -3.502988122589e+01 
-4.115544540899e+01 -1.009707615604e+00 0.0 
-1.009707615604e+00 -7.873579567036e+01 0.0 
0.0 0.0 -3.494392948987e+01 
-4.080706965181e+01 -1.080586670990e+00 0.0 
-1.080586670990e+00 -7.852975245092e+01 0.0 
0.0 0.0 -3.487001450728e+01 
-4.049908597285e+01 -1.095766939323e+00 0.0 
-1.095766939323e+00 -7.838351123163e+01 0.0 
0.0 0.0 -3.481028561062e+01 
-4.022892332823e+01 -1.068726787592e+00 0.0 
-1.068726787592e+00 -7.828287837200e+01 0.0 
0.0 0.0 -3.476225832866e+01 
-3.999325940457e+01 -1.009173243694e+00 0.0 
-1.009173243694e+00 -7.821226431992e+01 0.0 
0.0 0.0 -3.472220657622e+01 
-3.978728078414e+01 -9.214382954856e-01 0.0 
-9.214382954856e-01 -7.816271215332e+01 0.0 
0.0 0.0 -3.468811679418e+01 
-3.960603097520e+01 -8.124063693269e-01 0.0 
-8.124063693269e-01 -7.813245304368e+01 0.0 
0.0 0.0 -3.466005246959e+01 
-3.944582261039e+01 -6.883749156482e-01 0.0 
-6.883749156482e-01 -7.811209899260e+01 0.0 
0.0 0.0 -3.463513442733e+01 
-3.930385760394e+01 -5.500772687636e-01 0.0 
-5.500772687636e-01 -7.809028935120e+01 0.0 
0.0 0.0 -3.460926335688e+01 
-3.918005297807e+01 -4.006821159598e-01 0.0 
-4.006821159598e-01 -7.805962814405e+01 0.0 
0.0 0.0 -3.458077669532e+01 
-3.907286046235e+01 -2.486033017965e-01 0.0 
-2.486033017965e-01 -7.800958163007e+01 0.0 
0.0 0.0 -3.454886495376e+01 
-3.898184107877e+01 -1.014410329200e-01 0.0 
-1.014410329200e-01 -7.799045785763e+01 0.0 
0.0 0.0 -3.458008957277e+01 
-3.902535135715e+01 -4.709572897012e-01 0.0 
-4.709572897012e-01 -7.805865953586e+01 0.0 
0.0 0.0 -3.470864267967e+01 
-4.759947288945e+01 -3.627742074575e-01 0.0 
-3.627742074575e-01 -9.757568451235e+01 0.0 
0.0 0.0 -4.313820870889e+01 
-4.752880462170e+01 -2.013004308962e-01 0.0 
-2.013004308962e-01 -9.750637195764e+01 0.0 
0.0 0.0 -4.307313703854e+01 
-4.758624449071e+01 -2.420744149447e-01 0.0 
-2.420744149447e-01 -9.753130227523e+01 0.0 
0.0 0.0 -4.309348685953e+01 
-4.770722653977e+01 -3.598417009275e-01 0.0 
-3.598417009275e-01 -9.755870480047e+01 0.0 
0.0 0.0 -4.312504453141e+01 
-4.788351532002e+01 -4.760073785308e-01 0.0 
-4.760073785308e-01 -9.758671116053e+01 0.0 
0.0 0.0 -4.316830184645e+01 
-4.811615403077e+01 -5.839725912720e-01 0.0 
-5.839725912720e-01 -9.762068300567e+01 0.0 
0.0 0.0 -4.322014727889e+01 
-4.841634089613e+01 -6.775008444528e-01 0.0 
-6.775008444528e-01 -9.766250945696e+01 0.0 
0.0 0.0 -4.327485955445e+01 
-4.876447790139e+01 -7.496739441490e-01 0.0 
-7.496739441490e-01 -9.772596871541e+01 0.0 
0.0 0.0 -4.334211695157e+01 
-4.915755999925e+01 -7.936791776280e-01 0.0 
-7.936791776280e-01 -9.781984993378e+01 0.0 
0.0 0.0 -4.342275028267e+01 
-4.959124055005e+01 -8.033944781020e-01 0.0 
-8.033944781020e-01 -9.794346137410e+01 0.0 
0.0 0.0 -4.351087000508e+01 
-5.007708923620e+01 -7.695026842741e-01 0.0 
-7.695026842741e-01 -9.811560470876e+01 0.0 
0.0 0.0 -4.361530859853e+01 
-5.062196241205e+01 -6.798533467927e-01 0.0 
-6.798533467927e-01 -9.835544682187e+01 0.0 
0.0 0.0 -4.374302332885e+01 
-5.123459308601e+01 -5.183925863078e-01 0.0 
-5.183925863078e-01 -9.868600499510e+01 0.0 
0.0 0.0 -4.390089280520e+01 
-5.185094357912e+01 -2.605452311468e-01 0.0 
-2.605452311468e-01 -9.909464489783e+01 0.0 
0.0 0.0 -4.400536290607e+01 
-5.252628693957e+01 1.349223276867e-01 0.0 
1.349223276867e-01 -9.951375777490e+01 0.0 
0.0 0.0 -4.396539849929e+01 
-5.324459821479e+01 6.512073653186e-01 0.0 
6.512073653186e-01 -1.000403308727e+02 0.0 
0.0 0.0 -4.387686110615e+01 
-5.400366079174e+01 1.344558490301e+00 0.0 
1.344558490301e+00 -1.005494924351e+02 0.0 
0.0 0.0 -4.367332413975e+01 
-5.470280903157e+01 2.137948254980e+00 0.0 
2.137948254980e+00 -1.011907364103e+02 0.0 
0.0 0.0 -4.340561590235e+01 
-5.610046030842e+01 3.356866286060e+00 0.0 
3.356866286060e+00 -1.027771094952e+02 0.0 
0.0 0.0 -4.338901736342e+01 
-5.532822586759e+01 4.358483638618e+00 0.0 
4.358483638618e+00 -9.947052049908e+01 0.0 
0.0 0.0 -4.162517627505e+01 
-6.429900884105e+01 3.351290885904e+00 0.0 
3.351290885904e+00 -1.192871821108e+02 0.0 
0.0 0.0 -5.127421392687e+01 
-6.492487716101e+01 2.773053616227e+00 0.0 
2.773053616227e+00 -1.223474943920e+02 0.0 
0.0 0.0 -5.306432458771e+01 
-6.352023003900e+01 1.832517048545e+00 0.0 
1.832517048545e+00 -1.206330117198e+02 0.0 
0.0 0.0 -5.279555616648e+01 
-6.273559831271e+01 1.236964415822e+00 0.0 
1.236964415822e+00 -1.198513856740e+02 0.0 
0.0 0.0 -5.282089336107e+01 
-6.191170985080e+01 7.426649601727e-01 0.0 
7.426649601727e-01 -1.192942694717e+02 0.0 
0.0 0.0 -5.288031930950e+01 
-6.108505057798e+01 4.073676880490e-01 0.0 
4.073676880490e-01 -1.187479855252e+02 0.0 
0.0 0.0 -5.280197862365e+01 
-6.029230175826e+01 1.423411499478e-01 0.0 
1.423411499478e-01 -1.183076490702e+02 0.0 
0.0 0.0 -5.261912166131e+01 
-5.956559852741e+01 -5.431106370947e-02 0.0 
-5.431106370947e-02 -1.179634349673e+02 0.0 
0.0 0.0 -5.243247485282e+01 
-5.890779527894e+01 -1.825013810884e-01 0.0 
-1.825013810884e-01 -1.177069475481e+02 0.0 
0.0 0.0 -5.227592244534e+01 
-5.831587674505e+01 -2.533039794803e-01 0.0 
-2.533039794803e-01 -1.175164980732e+02 0.0 
0.0 0.0 -5.214708711816e+01 
-5.778822779114e+01 -2.690718396011e-01 0.0 
-2.690718396011e-01 -1.173840229338e+02 0.0 
0.0 0.0 -5.203249328739e+01 
-5.735019528849e+01 -2.658211671797e-01 0.0 
-2.658211671797e-01 -1.172934462118e+02 0.0 
0.0 0.0 -5.192181638117e+01 
-5.699082738466e+01 -2.541638893254e-01 0.0 
-2.541638893254e-01 -1.172294732452e+02 0.0 
0.0 0.0 -5.183679501969e+01 
-5.669909706892e+01 -2.243217528202e-01 0.0 
-2.243217528202e-01 -1.171746277834e+02 0.0 
0.0 0.0 -5.175719924455e+01 
-5.648109980143e+01 -1.817170185652e-01 0.0 
-1.817170185652e-01 -1.171317869079e+02 0.0 
0.0 0.0 -5.168386601279e+01 
-5.632510781008e+01 -1.325442362205e-01 0.0 
-1.325442362205e-01 -1.170935596304e+02 0.0 
0.0 0.0 -5.162560023215e+01 
-5.622938866911e+01 -7.571940640950e-02 0.0 
-7.571940640950e-02 -1.170711342656e+02 0.0 
0.0 0.0 -5.159015688040e+01 
-5.616363257460e+01 -1.861815038872e-02 0.0 
-1.861815038872e-02 -1.170888064695e+02 0.0 
0.0 0.0 -5.157573171322e+01 
-5.617436222540e+01 -4.547242572256e-01 0.0 
-4.547242572256e-01 -1.171435004923e+02 0.0 
0.0 0.0 -5.159535881530e+01 
-6.472359744520e+01 -3.167118408701e-01 0.0 
-3.167118408701e-01 -1.367246517995e+02 0.0 
0.0 0.0 -6.003447477341e+01 
-6.482069713999e+01 -6.249399416803e-02 0.0 
-6.249399416803e-02 -1.366494229830e+02 0.0 
0.0 0.0 -6.004103603691e+01 
-6.492600470980e+01 -1.751467102077e-02 0.0 
-1.751467102077e-02 -1.366479855419e+02 0.0 
0.0 0.0 -6.007219707552e+01 
-6.506792623364e+01 -1.053406915960e-02 0.0 
-1.053406915960e-02 -1.366926917365e+02 0.0 
0.0 0.0 -6.012818539103e+01 
-6.528304813645e+01 2.508661990879e-03 0.0 
2.508661990879e-03 -1.367348679951e+02 0.0 
0.0 0.0 -6.020537483948e+01 
-6.552577426074e+01 3.222477701803e-02 0.0 
3.222477701803e-02 -1.367984330115e+02 0.0 
0.0 0.0 -6.029726218168e+01 
-6.581774879909e+01 8.554930078413e-02 0.0 
8.554930078413e-02 -1.368903163533e+02 0.0 
0.0 0.0 -6.041241954573e+01 
-6.617081903559e+01 1.822792257482e-01 0.0 
1.822792257482e-01 -1.369875510904e+02 0.0 
0.0 0.0 -6.054751103781e+01 
-6.663526341969e+01 2.612798559305e-01 0.0 
2.612798559305e-01 -1.370976903059e+02 0.0 
0.0 0.0 -6.069284451731e+01 
-6.717560285206e+01 3.649280130434e-01 0.0 
3.649280130434e-01 -1.373252663213e+02 0.0 
0.0 0.0 -6.085708735975e+01 
-6.787770749963e+01 5.363864313638e-01 0.0 
5.363864313638e-01 -1.376090332432e+02 0.0 
0.0 0.0 -6.103003052086e+01 
-6.866446627735e+01 7.661306990696e-01 0.0 
7.661306990696e-01 -1.379708874070e+02 0.0 
0.0 0.0 -6.124105673305e+01 
-6.950000751836e+01 1.060467218418e+00 0.0 
1.060467218418e+00 -1.384611063729e+02 0.0 
0.0 0.0 -6.148078414803e+01 
-7.045836706964e+01 1.412120723566e+00 0.0 
1.412120723566e+00 -1.389785803950e+02 0.0 
0.0 0.0 -6.165708560835e+01 
-7.131914074609e+01 1.786095059097e+00 0.0 
1.786095059097e+00 -1.397575859345e+02 0.0 
0.0 0.0 -6.178230219711e+01 
-7.274737278466e+01 2.563814304477e+00 0.0 
2.563814304477e+00 -1.416054465311e+02 0.0 
0.0 0.0 -6.227326683321e+01 
-7.229974348699e+01 2.970772464321e+00 0.0 
2.970772464321e+00 -1.386168813751e+02 0.0 
0.0 0.0 -6.073690516222e+01 
-7.934309375195e+01 2.929997080823e+00 0.0 
2.929997080823e+00 -1.575940048977e+02 0.0 
0.0 0.0 -6.965256168428e+01 
-7.962395288076e+01 2.698908958987e+00 0.0 
2.698908958987e+00 -1.604520608047e+02 0.0 
0.0 0.0 -7.093061531144e+01 
-7.825250671137e+01 2.129569421826e+00 0.0 
2.129569421826e+00 -1.587281670715e+02 0.0 
0.0 0.0 -7.026888469626e+01 
-7.745631666791e+01 1.769795979814e+00 0.0 
1.769795979814e+00 -1.581038500592e+02 0.0 
0.0 0.0 -7.001929645685e+01 
-7.670155150798e+01 1.480879765285e+00 0.0 
1.480879765285e+00 -1.576679155036e+02 0.0 
0.0 0.0 -6.978262379490e+01 
-7.605614307147e+01 1.175379993063e+00 0.0 
1.175379993063e+00 -1.573412210114e+02 0.0 
0.0 0.0 -6.957712936731e+01 
-7.549992293515e+01 9.133450412197e-01 0.0 
9.133450412197e-01 -1.569980603996e+02 0.0 
0.0 0.0 -6.934939500043e+01 
-7.504789467043e+01 7.414475692935e-01 0.0 
7.414475692935e-01 -1.567886313652e+02 0.0 
0.0 0.0 -6.915095781070e+01 
-7.473779369992e+01 5.362321379731e-01 0.0 
5.362321379731e-01 -1.567237233974e+02 0.0 
0.0 0.0 -6.903845512919e+01 
-7.433274166217e+01 4.067436103142e-01 0.0 
4.067436103142e-01 -1.565672408093e+02 0.0 
0.0 0.0 -6.886999474145e+01 
-7.404455134624e+01 2.913288390793e-01 0.0 
2.913288390793e-01 -1.564670746623e+02 0.0 
0.0 0.0 -6.875348780256e+01 
-7.381145882675e+01 2.452595575317e-01 0.0 
2.452595575317e-01 -1.563955042102e+02 0.0 
0.0 0.0 -6.866208891108e+01 
-7.359125744707e+01 1.582046374982e-01 0.0 
1.582046374982e-01 -1.563592429748e+02 0.0 
0.0 0.0 -6.858515012656e+01 
-7.343396954170e+01 1.330135882636e-01 0.0 
1.330135882636e-01 -1.562589461523e+02 0.0 
0.0 0.0 -6.850787470819e+01 
-7.334724894808e+01 1.861991608861e-01 0.0 
1.861991608861e-01 -1.563753766184e+02 0.0 
0.0 0.0 -6.851678766993e+01 
-7.323097323814e+01 -4.327343217808e-01 0.0 
-4.327343217808e-01 -1.564474368338e+02 0.0 
0.0 0.0 -6.850352302158e+01 
-5.228736825883e+01 3.761103257825e+01 0.0 
3.761103257825e+01 -4.086223489725e+01 0.0 
0.0 0.0 -2.853328892826e+01 
-3.565740242259e+01 1.365652202530e+01 0.0 
1.365652202530e+01 -1.975007514607e+01 0.0 
0.0 0.0 -1.329577601537e+01 
-3.454699390684e+01 9.981072299950e+00 0.0 
9.981072299950e+00 -3.630068022595e+01 0.0 
0.0 0.0 -1.750985928845e+01 
-3.923233374958e+01 9.045753998922e+00 0.0 
9.045753998922e+00 -5.474185606292e+01 0.0 
0.0 0.0 -2.488849911087e+01 
-4.557780344360e+01 8.503738279839e+00 0.0 
8.503738279839e+00 -7.342269964889e+01 0.0 
0.0 0.0 -3.247480635567e+01 
-5.379793288305e+01 6.959937027331e+00 0.0 
6.959937027331e+00 -9.364391832859e+01 0.0 
0.0 0.0 -4.002706672723e+01 
-6.289144039124e+01 5.175646095846e+00 0.0 
5.175646095846e+00 -1.142522697311e+02 0.0 
0.0 0.0 -4.768780831437e+01 
-7.124183699688e+01 4.083385599298e+00 0.0 
4.083385599298e+00 -1.338914356230e+02 0.0 
0.0 0.0 -5.756960452209e+01 
-7.868082102404e+01 3.676960754330e+00 0.0 
3.676960754330e+00 -1.529315847013e+02 0.0 
0.0 0.0 -6.693717705976e+01 
-8.526959895026e+01 3.642039679459e+00 0.0 
3.642039679459e+00 -1.720027279999e+02 0.0 
0.0 0.0 -7.589698347400e+01 
-4.185049782229e+01 2.018080677533e+01 0.0 
2.018080677533e+01 -4.585451099448e+01 0.0 
0.0 0.0 -2.267028754398e+01 
-1.630153931949e+02 5.159092251872e+00 0.0 
5.159092251872e+00 -3.849726493319e+02 0.0 
0.0 0.0 -1.639964127580e+02 
-1.370502362140e+01 -4.177952153131e-01 0.0 
-4.177952153131e-01 -1.718028812088e+01 0.0 
0.0 0.0 -8.384323250066e+00 
-5.983532397223e+01 -2.084725445701e+01 0.0 
-2.084725445701e+01 -8.577507748328e+01 0.0 
0.0 0.0 -4.450416693318e+01 
-1.642612925351e+02 1.889086729468e+00 0.0 
1.889086729468e+00 -3.876745450357e+02 0.0 
0.0 0.0 -1.651807512713e+02 
-4.752373975557e+01 1.157920446237e+01 0.0 
1.157920446237e+01 -7.385656235801e+01 0.0 
0.0 0.0 -3.321866596013e+01 
-1.064881540377e+02 -8.034547286373e-01 0.0 
-8.034547286373e-01 -2.137014109244e+02 0.0 
0.0 0.0 -9.120392092526e+01 
-1.613705967657e+02 7.107509143670e+00 0.0 
7.107509143670e+00 -3.803994614805e+02 0.0 
0.0 0.0 -1.621310174739e+02 
-6.169067074779e+01 8.167960045603e+00 0.0 
8.167960045603e+00 -1.105049433382e+02 0.0 
0.0 0.0 -4.727934648017e+01 
-1.604707780523e+02 8.556129068981e+00 0.0 
8.556129068981e+00 -3.770217971371e+02 0.0 
0.0 0.0 -1.608477725568e+02 
-7.842668718982e+01 4.964759519031e+00 0.0 
4.964759519031e+00 -1.509227034579e+02 0.0 
0.0 0.0 -6.498278100845e+01 
-1.654584552244e+02 2.931677901376e-01 0.0 
2.931677901376e-01 -3.883895138805e+02 0.0 
0.0 0.0 -1.657543907315e+02 
-1.160954768464e+01 1.105890340457e-01 0.0 
1.105890340457e-01 -1.619452597973e+01 0.0 
0.0 0.0 -6.579867746977e+00 
-1.590827833630e+02 8.848229860748e+00 0.0 
8.848229860748e+00 -3.720100913725e+02 0.0 
0.0 0.0 -1.589278624207e+02 
-9.146324578051e+01 4.461164154357e+00 0.0 
4.461164154357e+00 -1.892177867379e+02 0.0 
0.0 0.0 -8.321575029548e+01 
-6.772612540128e+01 -8.704029651342e-01 0.0 
-8.704029651342e-01 -1.311026182905e+02 0.0 
0.0 0.0 -5.512322351969e+01 
-1.235668063692e+02 -5.807371041313e-01 0.0 
-5.807371041313e-01 -2.694486686337e+02 0.0 
0.0 0.0 -1.150856355518e+02 
-1.577668435341e+02 8.267447138391e+00 0.0 
8.267447138391e+00 -3.674986050409e+02 0.0 
0.0 0.0 -1.571796345725e+02 
-1.565142474476e+02 6.589856276200e+00 0.0 
6.589856276200e+00 -3.641121959339e+02 0.0 
0.0 0.0 -1.557879330145e+02 
-1.542238208441e+02 2.479889707191e+00 0.0 
2.479889707191e+00 -3.587851489392e+02 0.0 
0.0 0.0 -1.535026909350e+02 
-1.542234458058e+02 3.777654343826e+00 0.0 
3.777654343826e+00 -3.582261785192e+02 0.0 
0.0 0.0 -1.533348872975e+02 
-1.556962382820e+02 5.370200228043e+00 0.0 
5.370200228043e+00 -3.621573501994e+02 0.0 
0.0 0.0 -1.549560765444e+02 
-9.296891364737e+01 3.570258962696e+00 0.0 
3.570258962696e+00 -1.965100721250e+02 0.0 
0.0 0.0 -8.643341251108e+01 
-9.118979164690e+01 1.797560930177e+00 0.0 
1.797560930177e+00 -1.945957935763e+02 0.0 
0.0 0.0 -8.533567556697e+01 
-9.071408955467e+01 1.070019417517e+00 0.0 
1.070019417517e+00 -1.952527382853e+02 0.0 
0.0 0.0 -8.539004835198e+01 
-1.183654252289e+02 3.717074416718e-01 0.0 
3.717074416718e-01 -2.652498878348e+02 0.0 
0.0 0.0 -1.146845939191e+02 
-1.648803187410e+02 -3.552992092478e-02 0.0 
-3.552992092478e-02 -3.863689889194e+02 0.0 
0.0 0.0 -1.649747922981e+02 
-7.075680851484e+01 1.091959856708e+01 0.0 
1.091959856708e+01 -1.065159437464e+02 0.0 
0.0 0.0 -5.400135431551e+01 
-1.148074915648e+01 9.300690295936e-02 0.0 
9.300690295936e-02 -1.720478683602e+01 0.0 
0.0 0.0 -6.513753873139e+00 
-1.420960891730e+02 -1.164243196986e-01 0.0 
-1.164243196986e-01 -3.323180354600e+02 0.0 
0.0 0.0 -1.419242373899e+02 
-8.886731439282e+01 3.389675863437e-01 0.0 
3.389675863437e-01 -1.926017291249e+02 0.0 
0.0 0.0 -8.404071305533e+01 
-2.403113498972e+01 -4.157550907453e-01 0.0 
-4.157550907453e-01 -6.854760721734e+01 0.0 
0.0 0.0 -2.661087100853e+01 
-1.557998595406e+02 7.418044719703e+00 0.0 
7.418044719703e+00 -3.624874135459e+02 0.0 
0.0 0.0 -1.550861819259e+02 
-1.615584792941e+02 7.928401666232e+00 0.0 
7.928401666232e+00 -3.801515155207e+02 0.0 
0.0 0.0 -1.621129984445e+02 
-1.597619166755e+02 8.879259081020e+00 0.0 
8.879259081020e+00 -3.745577596740e+02 0.0 
0.0 0.0 -1.598959029049e+02 
-1.615480114014e+02 6.238523173750e+00 0.0 
6.238523173750e+00 -3.815042179833e+02 0.0 
0.0 0.0 -1.625156688154e+02 
-1.638491140759e+02 3.901902313226e+00 0.0 
3.901902313226e+00 -3.871308953243e+02 0.0 
0.0 0.0 -1.648940028200e+02 
-3.036090217525e+01 -1.251927745692e+01 0.0 
-1.251927745692e+01 -2.560935020430e+01 0.0 
0.0 0.0 -1.465422206163e+01 
-9.184819435203e+01 2.579335988825e+00 0.0 
2.579335988825e+00 -1.946959115038e+02 0.0 
0.0 0.0 -8.556323175675e+01 
-1.631308360718e+02 9.123690989891e-01 0.0 
9.123690989891e-01 -3.846451308722e+02 0.0 
0.0 0.0 -1.639327900832e+02 
-1.336070319344e+02 4.258072594708e-01 0.0 
4.258072594708e-01 -3.042725210291e+02 0.0 
0.0 0.0 -1.309638658890e+02 
-1.176855710781e+01 3.766926908616e-01 0.0 
3.766926908616e-01 -1.678128505835e+01 0.0 
0.0 0.0 -7.678212136200e+00 
-8.929015216823e+01 -9.196413635973e-01 0.0 
-9.196413635973e-01 -1.713845030810e+02 0.0 
0.0 0.0 -7.289366495656e+01 
-1.550744999007e+02 1.570370682235e+00 0.0 
1.570370682235e+00 -3.612366308813e+02 0.0 
0.0 0.0 -1.544933392346e+02 
-5.453767613551e+01 1.032557038573e+01 0.0 
1.032557038573e+01 -9.334014200431e+01 0.0 
0.0 0.0 -4.089913119303e+01 
-4.326439640427e+01 1.417150652119e+01 0.0 
1.417150652119e+01 -5.761502190518e+01 0.0 
0.0 0.0 -2.648330431287e+01 
-7.053040673955e+01 6.065864194074e+00 0.0 
6.065864194074e+00 -1.312025394671e+02 0.0 
0.0 0.0 -5.493192778016e+01 
-8.522738208555e+01 4.615248777452e+00 0.0 
4.615248777452e+00 -1.698475504870e+02 0.0 
0.0 0.0 -7.421369740479e+01 
-4.776745138958e+01 3.304591197092e+01 0.0 
3.304591197092e+01 -4.716778344917e+01 0.0 
0.0 0.0 -2.825658731513e+01 
-1.032631482941e+02 1.999181387794e-01 0.0 
1.999181387794e-01 -2.276669557534e+02 0.0 
0.0 0.0 -9.887903121426e+01 
-1.661786051042e+02 -5.829793628176e-02 0.0 
-5.829793628176e-02 -3.891456423204e+02 0.0 
0.0 0.0 -1.661972742274e+02 
-1.146532546851e+01 3.578175416823e-04 0.0 
3.578175416823e-04 -1.633443748132e+01 0.0 
0.0 0.0 -6.292929298021e+00 
-1.484413586775e+02 3.951374125066e-01 0.0 
3.951374125066e-01 -3.430340457281e+02 0.0 
0.0 0.0 -1.470426213217e+02 
-9.441870769614e+01 4.478001662084e+00 0.0 
4.478001662084e+00 -1.981481256163e+02 0.0 
0.0 0.0 -8.718529788381e+01 
-9.767430625751e+01 5.220176560139e+00 0.0 
5.220176560139e+00 -2.069763261650e+02 0.0 
0.0 0.0 -9.080788678829e+01 
-1.007108742597e+02 4.872520702633e+00 0.0 
4.872520702633e+00 -2.157343864576e+02 0.0 
0.0 0.0 -9.453342565122e+01 
-1.044466347667e+02 5.818304370525e+00 0.0 
5.818304370525e+00 -2.261827965190e+02 0.0 
0.0 0.0 -9.878882938571e+01 
-1.082104365031e+02 5.414178577010e+00 0.0 
5.414178577010e+00 -2.359221977193e+02 0.0 
0.0 0.0 -1.028397902667e+02 
-1.115820648748e+02 6.078003605459e+00 0.0 
6.078003605459e+00 -2.453672906704e+02 0.0 
0.0 0.0 -1.066848066635e+02 
-1.078212108170e+02 6.489322521950e+00 0.0 
6.489322521950e+00 -2.356868265218e+02 0.0 
0.0 0.0 -1.026524112016e+02 
-1.149770145037e+02 6.669407190561e+00 0.0 
6.669407190561e+00 -2.549251855258e+02 0.0 
0.0 0.0 -1.105706600088e+02 
-1.110251333793e+02 7.114602588770e+00 0.0 
7.114602588770e+00 -2.451809712870e+02 0.0 
0.0 0.0 -1.064618313999e+02 
-1.156544311183e+02 5.737855008158e+00 0.0 
5.737855008158e+00 -2.553828752271e+02 0.0 
0.0 0.0 -1.109111919036e+02 
-1.182456827565e+02 7.208648036257e+00 0.0 
7.208648036257e+00 -2.645022032453e+02 0.0 
0.0 0.0 -1.144243658005e+02 
-1.141639867508e+02 7.671121573131e+00 0.0 
7.671121573131e+00 -2.547768352921e+02 0.0 
0.0 0.0 -1.102822466129e+02 
-1.214565716358e+02 7.666834248534e+00 0.0 
7.666834248534e+00 -2.741158525231e+02 0.0 
0.0 0.0 -1.182717272477e+02 
-1.172538692022e+02 8.137324348613e+00 0.0 
8.137324348613e+00 -2.644673901610e+02 0.0 
0.0 0.0 -1.141163778090e+02 
-1.103615612816e+02 8.155510945248e+00 0.0 
8.155510945248e+00 -2.452185384836e+02 0.0 
0.0 0.0 -1.061002491369e+02 
-1.132189613159e+02 8.650766458436e+00 0.0 
8.650766458436e+00 -2.549940544809e+02 0.0 
0.0 0.0 -1.099629495289e+02 
-1.071572213996e+02 8.508477850598e+00 0.0 
8.508477850598e+00 -2.358164710814e+02 0.0 
0.0 0.0 -1.018334719784e+02 
-1.097663928497e+02 9.094934738297e+00 0.0 
9.094934738297e+00 -2.456811423173e+02 0.0 
0.0 0.0 -1.057233700684e+02 
-1.160885221521e+02 8.987176681759e+00 0.0 
8.987176681759e+00 -2.648394708651e+02 0.0 
0.0 0.0 -1.138383216686e+02 
-1.122478808141e+02 9.492264168977e+00 0.0 
9.492264168977e+00 -2.556088755493e+02 0.0 
0.0 0.0 -1.096194871411e+02 
-1.066793447086e+02 9.470763375598e+00 0.0 
9.470763375598e+00 -2.364326938840e+02 0.0 
0.0 0.0 -1.013332118763e+02 
-1.088823311737e+02 9.905172480904e+00 0.0 
9.905172480904e+00 -2.464952028393e+02 0.0 
0.0 0.0 -1.053076187365e+02 
-1.037375034809e+02 9.992296328071e+00 0.0 
9.992296328071e+00 -2.273029450857e+02 0.0 
0.0 0.0 -9.683760636330e+01 
-1.057404692129e+02 1.038712658645e+01 0.0 
1.038712658645e+01 -2.375100011379e+02 0.0 
0.0 0.0 -1.008792526183e+02 
-1.005338153717e+02 1.070693742691e+01 0.0 
1.070693742691e+01 -2.182353138833e+02 0.0 
0.0 0.0 -9.243893171141e+01 
-1.024890599858e+02 1.106901032213e+01 0.0 
1.106901032213e+01 -2.286437063280e+02 0.0 
0.0 0.0 -9.683568603697e+01 
-1.075492019481e+02 1.052133006026e+01 0.0 
1.052133006026e+01 -2.477346861491e+02 0.0 
0.0 0.0 -1.049683745807e+02 
-1.040708461844e+02 1.107000130222e+01 0.0 
1.107000130222e+01 -2.389657946720e+02 0.0 
0.0 0.0 -1.012199410698e+02 
-9.877274562051e+01 1.197469866482e+01 0.0 
1.197469866482e+01 -2.198853070853e+02 0.0 
0.0 0.0 -9.338182419224e+01 
-1.002767447317e+02 1.183353346487e+01 0.0 
1.183353346487e+01 -2.302992237670e+02 0.0 
0.0 0.0 -9.793206932586e+01 
-9.451212901000e+01 1.308437495438e+01 0.0 
1.308437495438e+01 -2.112899123268e+02 0.0 
0.0 0.0 -9.035077930823e+01 
-9.569009434520e+01 1.278780393011e+01 0.0 
1.278780393011e+01 -2.216860507432e+02 0.0 
0.0 0.0 -9.491001164575e+01 
-1.014389903790e+02 1.128708346498e+01 0.0 
1.128708346498e+01 -2.403040335647e+02 0.0 
0.0 0.0 -1.023525832359e+02 
-9.687108004633e+01 1.201576673545e+01 0.0 
1.201576673545e+01 -2.313770235224e+02 0.0 
0.0 0.0 -9.929819204473e+01 
-9.079540254843e+01 1.360332092376e+01 0.0 
1.360332092376e+01 -2.127116598264e+02 0.0 
0.0 0.0 -9.150271750082e+01 
-9.218651165667e+01 1.251610468302e+01 0.0 
1.251610468302e+01 -2.225470266289e+02 0.0 
0.0 0.0 -9.592331298687e+01 
-8.597002328833e+01 1.421360755680e+01 0.0 
1.421360755680e+01 -2.043965029376e+02 0.0 
0.0 0.0 -8.775245072304e+01 
-8.739116408495e+01 1.258472043672e+01 0.0 
1.258472043672e+01 -2.146648371758e+02 0.0 
0.0 0.0 -9.199816471597e+01 
-8.119318305023e+01 1.410749383256e+01 0.0 
1.410749383256e+01 -1.971544541321e+02 0.0 
0.0 0.0 -8.318277072673e+01 
-8.278506880970e+01 1.185958512949e+01 0.0 
1.185958512949e+01 -2.075658466380e+02 0.0 
0.0 0.0 -8.729763585205e+01 
-8.889110109802e+01 1.051008846132e+01 0.0 
1.051008846132e+01 -2.244501325683e+02 0.0 
0.0 0.0 -9.628244675593e+01 
-8.455596707485e+01 9.298313426122e+00 0.0 
9.298313426122e+00 -2.172711344541e+02 0.0 
0.0 0.0 -9.161803814487e+01 
-7.837956899387e+01 1.038622916681e+01 0.0 
1.038622916681e+01 -2.008423299339e+02 0.0 
0.0 0.0 -8.268151212022e+01 
-8.050871753334e+01 7.312996222763e+00 0.0 
7.312996222763e+00 -2.100904415663e+02 0.0 
0.0 0.0 -8.691789398915e+01 
-8.658251544581e+01 6.614886724522e+00 0.0 
6.614886724522e+00 -2.262303431879e+02 0.0 
0.0 0.0 -9.611152266019e+01 
-8.292864192888e+01 4.263446152870e+00 0.0 
4.263446152870e+00 -2.183982756381e+02 0.0 
0.0 0.0 -9.139569588095e+01 
-8.896061290183e+01 3.964941015917e+00 0.0 
3.964941015917e+00 -2.344013546194e+02 0.0 
0.0 0.0 -1.006092343869e+02 
-8.570153298090e+01 1.412851286904e+00 0.0 
1.412851286904e+00 -2.260218276050e+02 0.0 
0.0 0.0 -9.609087207955e+01 
-7.965652101318e+01 1.298254634567e+00 0.0 
1.298254634567e+00 -2.104020718065e+02 0.0 
0.0 0.0 -8.705384147301e+01 
-8.283330945418e+01 -1.566750174641e+00 0.0 
-1.566750174641e+00 -2.171501627252e+02 0.0 
0.0 0.0 -9.170145929430e+01 
-8.897412641469e+01 -8.926184458411e-01 0.0 
-8.926184458411e-01 -2.329999476926e+02 0.0 
0.0 0.0 -1.004312562672e+02 
-8.652870059813e+01 -3.750407277581e+00 0.0 
-3.750407277581e+00 -2.236501516749e+02 0.0 
0.0 0.0 -9.602046945910e+01 
-8.026093326517e+01 -4.815150854376e+00 0.0 
-4.815150854376e+00 -2.076975448456e+02 0.0 
0.0 0.0 -8.744965487724e+01 
-8.427673117025e+01 -6.666532532064e+00 0.0 
-6.666532532064e+00 -2.138034352762e+02 0.0 
0.0 0.0 -9.147276956118e+01 
-9.092734017257e+01 -5.001166600714e+00 0.0 
-5.001166600714e+00 -2.311264701859e+02 0.0 
0.0 0.0 -9.969985158011e+01 
-8.890887229332e+01 -7.526451011643e+00 0.0 
-7.526451011643e+00 -2.206980299550e+02 0.0 
0.0 0.0 -9.489085510692e+01 
-8.199123968596e+01 -9.530647320926e+00 0.0 
-9.530647320926e+00 -2.033563164041e+02 0.0 
0.0 0.0 -8.675848483938e+01 
-8.692416810960e+01 -9.672805250040e+00 0.0 
-9.672805250040e+00 -2.093336433993e+02 0.0 
0.0 0.0 -8.976343889987e+01 
-9.449381042851e+01 -7.074697873083e+00 0.0 
-7.074697873083e+00 -2.275815870893e+02 0.0 
0.0 0.0 -9.815826081702e+01 
-9.255197535328e+01 -8.688433852094e+00 0.0 
-8.688433852094e+00 -2.159118631974e+02 0.0 
0.0 0.0 -9.288811741360e+01 
-8.494978398318e+01 -1.120780780868e+01 0.0 
-1.120780780868e+01 -1.970216475002e+02 0.0 
0.0 0.0 -8.441102341874e+01 
-9.034111830370e+01 -9.836178033183e+00 0.0 
-9.836178033183e+00 -2.037570183132e+02 0.0 
0.0 0.0 -8.741656276536e+01 
-9.789481285950e+01 -7.518757653854e+00 0.0 
-7.518757653854e+00 -2.231465862254e+02 0.0 
0.0 0.0 -9.582879122020e+01 
-9.550033496537e+01 -8.392575825707e+00 0.0 
-8.392575825707e+00 -2.109659907281e+02 0.0 
0.0 0.0 -9.029150182822e+01 
-1.027157492423e+02 -6.435109899346e+00 0.0 
-6.435109899346e+00 -2.305151163085e+02 0.0 
0.0 0.0 -9.839053677724e+01 
-8.769358610987e+01 -1.048659312075e+01 0.0 
-1.048659312075e+01 -1.911061109486e+02 0.0 
0.0 0.0 -8.175426691549e+01 
-9.267870661925e+01 -8.840189112941e+00 0.0 
-8.840189112941e+00 -1.984313926870e+02 0.0 
0.0 0.0 -8.460771030065e+01 
-8.447500368598e+01 -1.057955893735e+01 0.0 
-1.057955893735e+01 -1.781384176456e+02 0.0 
0.0 0.0 -7.592238907355e+01 
-8.935382263841e+01 -8.860557161768e+00 0.0 
-8.860557161768e+00 -1.857204238995e+02 0.0 
0.0 0.0 -7.884168324494e+01 
-1.026225480829e+02 1.054026118010e+01 0.0 
1.054026118010e+01 -2.498285499593e+02 0.0 
0.0 0.0 -1.066024461130e+02 
-8.061075465241e+01 -1.019957124291e+01 0.0 
-1.019957124291e+01 -1.651501569936e+02 0.0 
0.0 0.0 -7.006430669764e+01 
-7.587652985545e+01 -1.212235815189e+01 0.0 
-1.212235815189e+01 -1.577697647949e+02 0.0 
0.0 0.0 -6.719676201871e+01 
-8.542643157220e+01 -8.477261819544e+00 0.0 
-8.477261819544e+00 -1.730323297018e+02 0.0 
0.0 0.0 -7.304424492281e+01 
-9.397672254534e+01 -7.363394823854e+00 0.0 
-7.363394823854e+00 -1.935870329196e+02 0.0 
0.0 0.0 -8.165458998047e+01 
-7.602311076086e+01 -9.429568107416e+00 0.0 
-9.429568107416e+00 -1.522461370375e+02 0.0 
0.0 0.0 -6.418120834832e+01 
-8.082105220765e+01 -7.798151053367e+00 0.0 
-7.798151053367e+00 -1.604214580668e+02 0.0 
0.0 0.0 -6.723233024222e+01 
-7.067634721066e+01 -8.369898630499e+00 0.0 
-8.369898630499e+00 -1.395237428925e+02 0.0 
0.0 0.0 -5.826314621967e+01 
-7.954477923084e+01 1.580545076298e+01 0.0 
1.580545076298e+01 -1.857693746351e+02 0.0 
0.0 0.0 -7.897228308897e+01 
-1.189768725868e+02 9.163429962633e+00 0.0 
9.163429962633e+00 -2.747094565426e+02 0.0 
0.0 0.0 -1.177044497016e+02 
-7.549540744792e+01 -6.900991811772e+00 0.0 
-6.900991811772e+00 -1.479187360967e+02 0.0 
0.0 0.0 -6.141036244446e+01 
-6.455604003339e+01 -7.117880657329e+00 0.0 
-7.117880657329e+00 -1.269968168518e+02 0.0 
0.0 0.0 -5.235218623734e+01 
-5.994862363937e+01 -8.387202396375e+00 0.0 
-8.387202396375e+00 -1.184899605960e+02 0.0 
0.0 0.0 -4.912429494650e+01 
-5.289285581371e+01 -6.758629287173e+00 0.0 
-6.758629287173e+00 -1.060713757260e+02 0.0 
0.0 0.0 -4.315119725534e+01 
-1.122935821751e+02 5.203204629701e+00 0.0 
5.203204629701e+00 -2.459806999565e+02 0.0 
0.0 0.0 -1.070822846395e+02 
-1.195564385841e+02 5.380456730117e+00 0.0 
5.380456730117e+00 -2.654771371161e+02 0.0 
0.0 0.0 -1.151100727101e+02 
-1.158327822139e+02 4.832992686862e+00 0.0 
4.832992686862e+00 -2.554648123634e+02 0.0 
0.0 0.0 -1.109892783732e+02 
-1.234193721740e+02 5.111050617161e+00 0.0 
5.111050617161e+00 -2.755430054345e+02 0.0 
0.0 0.0 -1.192887132826e+02 
-1.198333428669e+02 4.574774676237e+00 0.0 
4.574774676237e+00 -2.659602757402e+02 0.0 
0.0 0.0 -1.153380855821e+02 
-5.760079867201e+01 -5.725422455381e+00 0.0 
-5.725422455381e+00 -1.146794950544e+02 0.0 
0.0 0.0 -4.647124634290e+01 
-1.256642531953e+02 7.273005976582e+00 0.0 
7.273005976582e+00 -2.840456713506e+02 0.0 
0.0 0.0 -1.225129773637e+02 
-1.269737596882e+02 5.629011344493e+00 0.0 
5.629011344493e+00 -2.851369764142e+02 0.0 
0.0 0.0 -1.232332208307e+02 
-1.013808493084e+02 9.352802846557e+00 0.0 
9.352802846557e+00 -2.172006187368e+02 0.0 
0.0 0.0 -9.285331937834e+01 
-9.279337490439e+01 1.290994925203e+01 0.0 
1.290994925203e+01 -2.004437903669e+02 0.0 
0.0 0.0 -8.555003461273e+01 
-9.280492846016e+01 5.856642599245e+00 0.0 
5.856642599245e+00 -2.427594822408e+02 0.0 
0.0 0.0 -1.051081048937e+02 
-8.547537369758e+01 -6.409987975155e+00 0.0 
-6.409987975155e+00 -1.686232528702e+02 0.0 
0.0 0.0 -7.025096988985e+01 
-8.023343734582e+01 -5.638539893127e+00 0.0 
-5.638539893127e+00 -1.563327000593e+02 0.0 
0.0 0.0 -6.455198634378e+01 
-8.988115910304e+01 -5.218335095531e+00 0.0 
-5.218335095531e+00 -1.769037724196e+02 0.0 
0.0 0.0 -7.361133106123e+01 
-1.047602062033e+02 -5.374649303163e+00 0.0 
-5.374649303163e+00 -2.423671794241e+02 0.0 
0.0 0.0 -1.037259881524e+02 
-1.088905260577e+02 -4.679777111827e+00 0.0 
-4.679777111827e+00 -2.498077244570e+02 0.0 
0.0 0.0 -1.059760943368e+02 
-1.103842118753e+02 -3.481692365506e+00 0.0 
-3.481692365506e+00 -2.613598504442e+02 0.0 
0.0 0.0 -1.109995096158e+02 
-1.140893078352e+02 -3.069294957138e+00 0.0 
-3.069294957138e+00 -2.689104984305e+02 0.0 
0.0 0.0 -1.135640689682e+02 
-1.157418950646e+02 -1.875993776789e+00 0.0 
-1.875993776789e+00 -2.802209997567e+02 0.0 
0.0 0.0 -1.182893332105e+02 
-1.196056912299e+02 -1.643541619361e+00 0.0 
-1.643541619361e+00 -2.879054829031e+02 0.0 
0.0 0.0 -1.214853327466e+02 
-1.176416908219e+02 -2.627454342519e+00 0.0 
-2.627454342519e+00 -2.765209769035e+02 0.0 
0.0 0.0 -1.167055211807e+02 
-1.234390482880e+02 -1.381650103083e+00 0.0 
-1.381650103083e+00 -2.956504567542e+02 0.0 
0.0 0.0 -1.250765200593e+02 
-1.211260261702e+02 -2.177331591528e+00 0.0 
-2.177331591528e+00 -2.842198500925e+02 0.0 
0.0 0.0 -1.202885041472e+02 
-1.228957472200e+02 -8.057114073344e-01 0.0 
-8.057114073344e-01 -2.991217391813e+02 0.0 
0.0 0.0 -1.261346987884e+02 
-1.186397165521e+02 -8.518231536549e-01 0.0 
-8.518231536549e-01 -2.912890596459e+02 0.0 
0.0 0.0 -1.227393216677e+02 
-1.272500409492e+02 -1.123447410803e+00 0.0 
-1.123447410803e+00 -3.034482474977e+02 0.0 
0.0 0.0 -1.286476763234e+02 
-1.245066673573e+02 -1.737818806243e+00 0.0 
-1.737818806243e+00 -2.919953029545e+02 0.0 
0.0 0.0 -1.238459258258e+02 
-1.310649211718e+02 -8.949932947506e-01 0.0 
-8.949932947506e-01 -3.113050041809e+02 0.0 
0.0 0.0 -1.322076000104e+02 
-1.278166620449e+02 -1.329967567409e+00 0.0 
-1.329967567409e+00 -2.998706257848e+02 0.0 
0.0 0.0 -1.274275353797e+02 
-1.224761822350e+02 -2.263914333210e+00 0.0 
-2.263914333210e+00 -2.803712142871e+02 0.0 
0.0 0.0 -1.190044870608e+02 
-1.255489233493e+02 -1.728740188900e+00 0.0 
-1.728740188900e+00 -2.882896690387e+02 0.0 
0.0 0.0 -1.225995367083e+02 
-1.204092557990e+02 -2.632813248793e+00 0.0 
-2.632813248793e+00 -2.687198899390e+02 0.0 
0.0 0.0 -1.141302046075e+02 
-9.546007283040e+01 3.692227744343e+00 0.0 
3.692227744343e+00 -2.510325402612e+02 0.0 
0.0 0.0 -1.092812708143e+02 
-9.963576327796e+01 5.211295023487e+00 0.0 
5.211295023487e+00 -2.601415502467e+02 0.0 
0.0 0.0 -1.129640570000e+02 
-1.028513085564e+02 3.787486310720e+00 0.0 
3.787486310720e+00 -2.686632641480e+02 0.0 
0.0 0.0 -1.162870684170e+02 
-1.075402285820e+02 5.075860302221e+00 0.0 
5.075860302221e+00 -2.777747401200e+02 0.0 
0.0 0.0 -1.189931252440e+02 
-1.120820035972e+02 4.201454423269e+00 0.0 
4.201454423269e+00 -2.867551830266e+02 0.0 
0.0 0.0 -1.221697573247e+02 
-1.174526561090e+02 5.203431855961e+00 0.0 
5.203431855961e+00 -2.960140829870e+02 0.0 
0.0 0.0 -1.251359892196e+02 
-1.220750109038e+02 4.599521778101e+00 0.0 
4.599521778101e+00 -3.051181966672e+02 0.0 
0.0 0.0 -1.285963368831e+02 
-1.170044355221e+02 3.593844683950e+00 0.0 
3.593844683950e+00 -2.957562858867e+02 0.0 
0.0 0.0 -1.252976906682e+02 
-1.245990217045e+02 8.049800762490e+00 0.0 
8.049800762490e+00 -2.837121000183e+02 0.0 
0.0 0.0 -1.220933365169e+02 
-7.415719561889e+01 8.125882269611e+00 0.0 
8.125882269611e+00 -1.943757134084e+02 0.0 
0.0 0.0 -7.859706438199e+01 
-7.190510127882e+01 1.158442127046e+01 0.0 
1.158442127046e+01 -1.847094114176e+02 0.0 
0.0 0.0 -7.450697055229e+01 
-6.752058849280e+01 8.937788408912e+00 0.0 
8.937788408912e+00 -1.792011639695e+02 0.0 
0.0 0.0 -7.083652140015e+01 
-6.535188216660e+01 1.285630256915e+01 0.0 
1.285630256915e+01 -1.689637468487e+02 0.0 
0.0 0.0 -6.665194920193e+01 
-6.074377013700e+01 1.001448380356e+01 0.0 
1.001448380356e+01 -1.644801625092e+02 0.0 
0.0 0.0 -6.357705684746e+01 
-5.886179619472e+01 1.448121952812e+01 0.0 
1.448121952812e+01 -1.534564508617e+02 0.0 
0.0 0.0 -5.928987162738e+01 
-5.401473757416e+01 1.144208715849e+01 0.0 
1.144208715849e+01 -1.502999215421e+02 0.0 
0.0 0.0 -5.722514311178e+01 
-5.650123378233e+01 5.903247136166e+00 0.0 
5.903247136166e+00 -1.598178032909e+02 0.0 
0.0 0.0 -6.116098231060e+01 
-4.961707609057e+01 6.635547794389e+00 0.0 
6.635547794389e+00 -1.470644116335e+02 0.0 
0.0 0.0 -5.605967844265e+01 
-5.293904311883e+01 5.140520630422e-01 0.0 
5.140520630422e-01 -1.540737619002e+02 0.0 
0.0 0.0 -5.892496161999e+01 
-4.576818834550e+01 2.912824849880e-01 0.0 
2.912824849880e-01 -1.423707174628e+02 0.0 
0.0 0.0 -5.472836633006e+01 
-5.006969795017e+01 -5.660315416612e+00 0.0 
-5.660315416612e+00 -1.458840218477e+02 0.0 
0.0 0.0 -5.573367758440e+01 
-1.093627032402e+02 1.037348565258e+01 0.0 
1.037348565258e+01 -2.578433991385e+02 0.0 
0.0 0.0 -1.090987346352e+02 
-1.128708303702e+02 6.038723048875e+00 0.0 
6.038723048875e+00 -2.869203528067e+02 0.0 
0.0 0.0 -1.216265958356e+02 
-1.230129808679e+02 5.891473790108e+00 0.0 
5.891473790108e+00 -3.054020590879e+02 0.0 
0.0 0.0 -1.286482212481e+02 
-1.186975753168e+02 6.562341953839e+00 0.0 
6.562341953839e+00 -2.961188201744e+02 0.0 
0.0 0.0 -1.248403240415e+02 
-4.869830200679e+01 -7.567425504284e+00 0.0 
-7.567425504284e+00 -9.751845650455e+01 0.0 
0.0 0.0 -3.989117965042e+01 
-1.311277942220e+02 -9.844650023887e-01 0.0 
-9.844650023887e-01 -3.078571104768e+02 0.0 
0.0 0.0 -1.310497457102e+02 
-1.269234134715e+02 2.262619957146e-02 0.0 
2.262619957146e-02 -3.101638053698e+02 0.0 
0.0 0.0 -1.307261656524e+02 
-1.223981250996e+02 1.728956235483e-01 0.0 
1.728956235483e-01 -3.020358135696e+02 0.0 
0.0 0.0 -1.270269465558e+02 
-1.266483653069e+02 4.043590689719e+00 0.0 
4.043590689719e+00 -3.142137116109e+02 0.0 
0.0 0.0 -1.321340886685e+02 
-4.505965379960e+01 -4.996429771499e+00 0.0 
-4.996429771499e+00 -9.402674869925e+01 0.0 
0.0 0.0 -3.745876130196e+01 
-5.248902476432e+01 1.652812473341e+01 0.0 
1.652812473341e+01 -1.381651816759e+02 0.0 
0.0 0.0 -5.263087018639e+01 
-5.763509515092e+01 1.817330129397e+01 0.0 
1.817330129397e+01 -1.406208273936e+02 0.0 
0.0 0.0 -5.482989526709e+01 
-1.273160245447e+02 4.865217066674e+00 0.0 
4.865217066674e+00 -2.857039240182e+02 0.0 
0.0 0.0 -1.235059845689e+02 
-1.237146226604e+02 4.332097114309e+00 0.0 
4.332097114309e+00 -2.761567286167e+02 0.0 
0.0 0.0 -1.195614053831e+02 
-1.313138960357e+02 8.725189086606e-01 0.0 
8.725189086606e-01 -3.209686543186e+02 0.0 
0.0 0.0 -1.352847651063e+02 
-4.968007499698e+01 -4.183877179112e+00 0.0 
-4.183877179112e+00 -1.027033709466e+02 0.0 
0.0 0.0 -4.112834504667e+01 
-1.311765771210e+02 -5.933743008150e-01 0.0 
-5.933743008150e-01 -3.147893602028e+02 0.0 
0.0 0.0 -1.333827931364e+02 
-4.267218305611e+01 7.886997394768e+00 0.0 
7.886997394768e+00 -1.356006487518e+02 0.0 
0.0 0.0 -5.215290632243e+01 
-1.284658568631e+02 -1.271171789121e+00 0.0 
-1.271171789121e+00 -2.963175153619e+02 0.0 
0.0 0.0 -1.262050241246e+02 
-1.345337910777e+02 -7.066427746621e-01 0.0 
-7.066427746621e-01 -3.158993203085e+02 0.0 
0.0 0.0 -1.346336464090e+02 
-1.159808380120e+02 -3.441521388012e+00 0.0 
-3.441521388012e+00 -2.649267913760e+02 0.0 
0.0 0.0 -1.118104738859e+02 
-1.285056175132e+02 6.348394555726e+00 0.0 
6.348394555726e+00 -3.149146103859e+02 0.0 
0.0 0.0 -1.326476727989e+02 
-1.242972878800e+02 6.894069150847e+00 0.0 
6.894069150847e+00 -3.054851367014e+02 0.0 
0.0 0.0 -1.286475533311e+02 
-5.689896784652e+01 -4.526646111675e+00 0.0 
-4.526646111675e+00 -1.588380920051e+02 0.0 
0.0 0.0 -6.125696910373e+01 
-5.473163387494e+01 -9.929076192802e+00 0.0 
-9.929076192802e+00 -1.480465740091e+02 0.0 
0.0 0.0 -5.679168098440e+01 
-4.820352685603e+01 -1.183461456125e+01 0.0 
-1.183461456125e+01 -1.342140585169e+02 0.0 
0.0 0.0 -5.058444676310e+01 
-5.365162421635e+01 -1.456226637350e+01 0.0 
-1.456226637350e+01 -1.349411319080e+02 0.0 
0.0 0.0 -5.172549979485e+01 
-5.948935894653e+01 -1.235383802593e+01 0.0 
-1.235383802593e+01 -1.504397696358e+02 0.0 
0.0 0.0 -5.892293219791e+01 
-5.808008521004e+01 -1.545351004941e+01 0.0 
-1.545351004941e+01 -1.365527309058e+02 0.0 
0.0 0.0 -5.373736810574e+01 
-5.293217475021e+01 -1.764209717835e+01 0.0 
-1.764209717835e+01 -1.194092586905e+02 0.0 
0.0 0.0 -4.605076908804e+01 
-5.660019831129e+01 -1.711351571411e+01 0.0 
-1.711351571411e+01 -1.203999987974e+02 0.0 
0.0 0.0 -4.753046331859e+01 
-6.186371225511e+01 -1.566570545976e+01 0.0 
-1.566570545976e+01 -1.388103128389e+02 0.0 
0.0 0.0 -5.619807844649e+01 
-5.958353917434e+01 -1.614435681454e+01 0.0 
-1.614435681454e+01 -1.229621714482e+02 0.0 
0.0 0.0 -5.027810237553e+01 
-5.458429753897e+01 -1.651974241559e+01 0.0 
-1.651974241559e+01 -1.028412664186e+02 0.0 
0.0 0.0 -4.174037837727e+01 
-5.613263199660e+01 -1.485310905540e+01 0.0 
-1.485310905540e+01 -1.062625098200e+02 0.0 
0.0 0.0 -4.428412988367e+01 
-1.387754477781e+02 -5.177321477147e-01 0.0 
-5.177321477147e-01 -3.272645616727e+02 0.0 
0.0 0.0 -1.394120028352e+02 
-3.837390632351e+01 1.975953485575e-01 0.0 
1.975953485575e-01 -1.323154193002e+02 0.0 
0.0 0.0 -5.159421264871e+01 
-1.044000650109e+02 7.821083561335e+00 0.0 
7.821083561335e+00 -2.260643784278e+02 0.0 
0.0 0.0 -9.795612521201e+01 
-1.357594789438e+02 6.390736621833e-01 0.0 
6.390736621833e-01 -3.290857877836e+02 0.0 
0.0 0.0 -1.390535800182e+02 
-1.316668105938e+02 4.828044881688e+00 0.0 
4.828044881688e+00 -3.234835363733e+02 0.0 
0.0 0.0 -1.361782139040e+02 
-1.312309506954e+02 4.622117614510e+00 0.0 
4.622117614510e+00 -2.959653464663e+02 0.0 
0.0 0.0 -1.277588891485e+02 
-1.276181379075e+02 4.093672579874e+00 0.0 
4.093672579874e+00 -2.864911406194e+02 0.0 
0.0 0.0 -1.238327835581e+02 
-1.200110615452e+02 3.755453654755e+00 0.0 
3.755453654755e+00 -2.665975345505e+02 0.0 
0.0 0.0 -1.155825788287e+02 
-1.239458704856e+02 3.548771664848e+00 0.0 
3.548771664848e+00 -2.770910965692e+02 0.0 
0.0 0.0 -1.199110901164e+02 
-1.315330650958e+02 3.874352757328e+00 0.0 
3.874352757328e+00 -2.969789268854e+02 0.0 
0.0 0.0 -1.281535975943e+02 
-1.278881411487e+02 3.345768618440e+00 0.0 
3.345768618440e+00 -2.876184469744e+02 0.0 
0.0 0.0 -1.242519764369e+02 
-1.202205809329e+02 3.035433332874e+00 0.0 
3.035433332874e+00 -2.677220417846e+02 0.0 
0.0 0.0 -1.159827868153e+02 
-1.242160683573e+02 2.844919742384e+00 0.0 
2.844919742384e+00 -2.782682278626e+02 0.0 
0.0 0.0 -1.203452888660e+02 
-1.164851370996e+02 2.548116909136e+00 0.0 
2.548116909136e+00 -2.583624214724e+02 0.0 
0.0 0.0 -1.120542675716e+02 
-1.205144472636e+02 2.369239875839e+00 0.0 
2.369239875839e+00 -2.689691574983e+02 0.0 
0.0 0.0 -1.164450814285e+02 
-1.282242703757e+02 2.649756291367e+00 0.0 
2.649756291367e+00 -2.888686483573e+02 0.0 
0.0 0.0 -1.247278756199e+02 
-1.245637351606e+02 2.204924972919e+00 0.0 
2.204924972919e+00 -2.796509535207e+02 0.0 
0.0 0.0 -1.208644066044e+02 
-1.167660818739e+02 1.922874725696e+00 0.0 
1.922874725696e+00 -2.597689895400e+02 0.0 
0.0 0.0 -1.125605214242e+02 
-1.208686296462e+02 1.794869759231e+00 0.0 
1.794869759231e+00 -2.704671912122e+02 0.0 
0.0 0.0 -1.170007462575e+02 
-1.129816997756e+02 1.537519601254e+00 0.0 
1.537519601254e+00 -2.505809249432e+02 0.0 
0.0 0.0 -1.086687874156e+02 
-1.171580584577e+02 1.437987984304e+00 0.0 
1.437987984304e+00 -2.612331778493e+02 0.0 
0.0 0.0 -1.131173708921e+02 
-1.249978270356e+02 1.607294942706e+00 0.0 
1.607294942706e+00 -2.812220603470e+02 0.0 
0.0 0.0 -1.214659662148e+02 
-3.603265180352e+01 -3.214342488980e+00 0.0 
-3.214342488980e+00 -8.275844206322e+01 0.0 
0.0 0.0 -3.255223506530e+01 
-1.217214322358e+02 3.055286125216e+00 0.0 
3.055286125216e+00 -3.046931455650e+02 0.0 
0.0 0.0 -1.282993100715e+02 
-1.312386165620e+02 3.489979099994e+00 0.0 
3.489979099994e+00 -3.233308784522e+02 0.0 
0.0 0.0 -1.359708485043e+02 
-8.499485231470e+01 -4.490203238664e+00 0.0 
-4.490203238664e+00 -1.653055734912e+02 0.0 
0.0 0.0 -6.867216679985e+01 
-9.405722818336e+01 -4.147430812793e+00 0.0 
-4.147430812793e+00 -1.849766396671e+02 0.0 
0.0 0.0 -7.763422083570e+01 
-9.831315967665e+01 -4.738134171709e+00 0.0 
-4.738134171709e+00 -1.972109971475e+02 0.0 
0.0 0.0 -8.267880043147e+01 
-1.021461862971e+02 -3.757341657905e+00 0.0 
-3.757341657905e+00 -2.055491731070e+02 0.0 
0.0 0.0 -8.689072278533e+01 
-1.212934290109e+02 1.259245694254e+00 0.0 
1.259245694254e+00 -2.719087105322e+02 0.0 
0.0 0.0 -1.175606418629e+02 
-1.290524086167e+02 1.381615359153e+00 0.0 
1.381615359153e+00 -2.920054792732e+02 0.0 
0.0 0.0 -1.259173663670e+02 
-5.198633049605e+01 2.048528844459e+01 0.0 
2.048528844459e+01 -1.240753727857e+02 0.0 
0.0 0.0 -4.783178088602e+01 
-5.678729560723e+01 2.064162176327e+01 0.0 
2.064162176327e+01 -1.263279792388e+02 0.0 
0.0 0.0 -5.031989435574e+01 
-1.347908429906e+02 5.141321699910e+00 0.0 
5.141321699910e+00 -3.054802100002e+02 0.0 
0.0 0.0 -1.316813158972e+02 
-1.313138147483e+02 -8.686139161645e-01 0.0 
-8.686139161645e-01 -3.045171474245e+02 0.0 
0.0 0.0 -1.298386824316e+02 
-1.262369344164e+02 -1.439108988041e+00 0.0 
-1.439108988041e+00 -2.848181157796e+02 0.0 
0.0 0.0 -1.213913736772e+02 
-8.821063987936e+01 1.433154091332e+01 0.0 
1.433154091332e+01 -1.919650628981e+02 0.0 
0.0 0.0 -8.245303854797e+01 
-8.630069384680e+01 1.379049048036e+01 0.0 
1.379049048036e+01 -1.806010429403e+02 0.0 
0.0 0.0 -7.754680277429e+01 
-8.153890884663e+01 1.544920407422e+01 0.0 
1.544920407422e+01 -1.721367487651e+02 0.0 
0.0 0.0 -7.424215676335e+01 
-7.923162814482e+01 1.447631033001e+01 0.0 
1.447631033001e+01 -1.600175522526e+02 0.0 
0.0 0.0 -6.913643426698e+01 
-8.387799003860e+01 1.269066436721e+01 0.0 
1.269066436721e+01 -1.693897012645e+02 0.0 
0.0 0.0 -7.255289183953e+01 
-7.438189327603e+01 1.644315201054e+01 0.0 
1.644315201054e+01 -1.514534921803e+02 0.0 
0.0 0.0 -6.574088489453e+01 
-1.142266350449e+02 -8.245203419335e-01 0.0 
-8.245203419335e-01 -2.832433491046e+02 0.0 
0.0 0.0 -1.199041033760e+02 
-1.322398833978e+02 2.460354071768e+00 0.0 
2.460354071768e+00 -2.995683810016e+02 0.0 
0.0 0.0 -1.291424793198e+02 
-5.594208106431e+01 -9.548365021914e+00 0.0 
-9.548365021914e+00 -1.100606599836e+02 0.0 
0.0 0.0 -4.594344057003e+01 
-4.555008231011e+01 -8.136156087479e+00 0.0 
-8.136156087479e+00 -8.909240909360e+01 0.0 
0.0 0.0 -3.676287043271e+01 
-1.380825628344e+02 -4.815823831594e-01 0.0 
-4.815823831594e-01 -3.241151331711e+02 0.0 
0.0 0.0 -1.382400712755e+02 
-1.122976940434e+02 2.337901931452e+00 0.0 
2.337901931452e+00 -2.862904657738e+02 0.0 
0.0 0.0 -1.221620295880e+02 
-1.132583128874e+02 1.000010961396e+01 0.0 
1.000010961396e+01 -2.666232978114e+02 0.0 
0.0 0.0 -1.132437917346e+02 
-1.156972673272e+02 9.594404946563e+00 0.0 
9.594404946563e+00 -2.764324741605e+02 0.0 
0.0 0.0 -1.171138178482e+02 
-1.203378036823e+02 9.317799810391e+00 0.0 
9.317799810391e+00 -2.853720414847e+02 0.0 
0.0 0.0 -1.213129535501e+02 
-1.234580570517e+02 8.932314085755e+00 0.0 
8.932314085755e+00 -2.950499073905e+02 0.0 
0.0 0.0 -1.251523893327e+02 
-1.284058705715e+02 8.879034487185e+00 0.0 
8.879034487185e+00 -3.042324259387e+02 0.0 
0.0 0.0 -1.293914889530e+02 
-1.317232173005e+02 8.552072510481e+00 0.0 
8.552072510481e+00 -3.137432135893e+02 0.0 
0.0 0.0 -1.332399292670e+02 
-1.267521992424e+02 8.457100225961e+00 0.0 
8.457100225961e+00 -3.045719744700e+02 0.0 
0.0 0.0 -1.289972521137e+02 
-1.338467295573e+02 6.714003771736e+00 0.0 
6.714003771736e+00 -3.244784957058e+02 0.0 
0.0 0.0 -1.370975675789e+02 
-1.352404718091e+02 8.184670861499e+00 0.0 
8.184670861499e+00 -3.231796604452e+02 0.0 
0.0 0.0 -1.371260396763e+02 
-1.133923116302e+02 1.033358787186e+00 0.0 
1.033358787186e+00 -2.517360581885e+02 0.0 
0.0 0.0 -1.091385109456e+02 
-1.090223553851e+02 7.080541495557e+00 0.0 
7.080541495557e+00 -2.776474028239e+02 0.0 
0.0 0.0 -1.181457032122e+02 
-6.487687628460e+01 -1.550568942565e+01 0.0 
-1.550568942565e+01 -1.418824255847e+02 0.0 
0.0 0.0 -5.921624088912e+01 
-3.185716225713e+01 -3.550750125380e+00 0.0 
-3.550750125380e+00 -7.379898822470e+01 0.0 
0.0 0.0 -2.866044215288e+01 
-4.901450113361e+01 -1.316702079056e+01 0.0 
-1.316702079056e+01 -8.421787289240e+01 0.0 
0.0 0.0 -3.479600310778e+01 
-4.081432592014e+01 -2.768892311593e+00 0.0 
-2.768892311593e+00 -9.056835312033e+01 0.0 
0.0 0.0 -3.613069409041e+01 
-5.495701843088e+01 -3.427219352107e+00 0.0 
-3.427219352107e+00 -1.111908389855e+02 0.0 
0.0 0.0 -4.515282194378e+01 
-1.404217105062e+02 1.415255947397e+00 0.0 
1.415255947397e+00 -3.398590748153e+02 0.0 
0.0 0.0 -1.436842355965e+02 
-1.365933218498e+02 8.611426480105e+00 0.0 
8.611426480105e+00 -3.230705658783e+02 0.0 
0.0 0.0 -1.374991663184e+02 
-1.331405106030e+02 8.788399089040e+00 0.0 
8.788399089040e+00 -3.133459062216e+02 0.0 
0.0 0.0 -1.335459250474e+02 
-7.647981143031e+01 1.287445156690e+01 0.0 
1.287445156690e+01 -1.487464072786e+02 0.0 
0.0 0.0 -6.412038682012e+01 
-8.098848221848e+01 1.125284963378e+01 0.0 
1.125284963378e+01 -1.586497132894e+02 0.0 
0.0 0.0 -6.767032570258e+01 
-1.380585917581e+02 6.331946007934e+00 0.0 
6.331946007934e+00 -3.337401648441e+02 0.0 
0.0 0.0 -1.411396269807e+02 
-1.123949539347e+02 4.221581743996e+00 0.0 
4.221581743996e+00 -2.461535596208e+02 0.0 
0.0 0.0 -1.071645540667e+02 
-1.125025148235e+02 2.705895184031e+00 0.0 
2.705895184031e+00 -2.478743659143e+02 0.0 
0.0 0.0 -1.077130642214e+02 
-1.086203242972e+02 2.212067840753e+00 0.0 
2.212067840753e+00 -2.384252754076e+02 0.0 
0.0 0.0 -1.037136799114e+02 
-2.584634843287e+01 -1.563471687363e+00 0.0 
-1.563471687363e+00 -6.864850288892e+01 0.0 
0.0 0.0 -2.659924177635e+01 
-4.859782867915e+01 -1.565150132470e+01 0.0 
-1.565150132470e+01 -8.126752063111e+01 0.0 
0.0 0.0 -3.284015529909e+01 
-1.354678063674e+02 3.644337460694e+00 0.0 
3.644337460694e+00 -3.075308599301e+02 0.0 
0.0 0.0 -1.324995998892e+02 
-6.238358263142e+01 1.879582785042e+01 0.0 
1.879582785042e+01 -1.441273210721e+02 0.0 
0.0 0.0 -5.804563611820e+01 
-6.126321072587e+01 2.009797969245e+01 0.0 
2.009797969245e+01 -1.305013409011e+02 0.0 
0.0 0.0 -5.378341244060e+01 
-3.585566908276e+01 1.031842818222e+01 0.0 
1.031842818222e+01 -1.255538323027e+02 0.0 
0.0 0.0 -4.957849998948e+01 
-3.132896074238e+01 2.565109266570e-01 0.0 
2.565109266570e-01 -1.250009671552e+02 0.0 
0.0 0.0 -4.918152325981e+01 
-1.254112436098e+02 9.606559470326e-01 0.0 
9.606559470326e-01 -2.824297264887e+02 0.0 
0.0 0.0 -1.219522910296e+02 
-1.331134107237e+02 1.117268584891e+00 0.0 
1.117268584891e+00 -3.023859341150e+02 0.0 
0.0 0.0 -1.302498034516e+02 
-1.058118830559e+02 -4.137918255298e+00 0.0 
-4.137918255298e+00 -2.174593799891e+02 0.0 
0.0 0.0 -9.184840091694e+01 
-1.092757653564e+02 -3.228493466741e+00 0.0 
-3.228493466741e+00 -2.256857322826e+02 0.0 
0.0 0.0 -9.579795125429e+01 
-1.359501152071e+02 1.756101347390e+00 0.0 
1.756101347390e+00 -3.315436567401e+02 0.0 
0.0 0.0 -1.398481315841e+02 
-5.028884696410e+01 -1.195187611684e+01 0.0 
-1.195187611684e+01 -8.988185144014e+01 0.0 
0.0 0.0 -3.774337006129e+01 
-1.368033913860e+02 1.560653774778e+00 0.0 
1.560653774778e+00 -3.120048143979e+02 0.0 
0.0 0.0 -1.342424617352e+02 
-1.171080184769e+02 1.876958358534e+00 0.0 
1.876958358534e+00 -2.950263307729e+02 0.0 
0.0 0.0 -1.247880080643e+02 
-1.081873461251e+02 9.676047677769e-01 0.0 
9.676047677769e-01 -2.766619714445e+02 0.0 
0.0 0.0 -1.189602961507e+02 
-9.788403005108e+01 -3.229112123339e+00 0.0 
-3.229112123339e+00 -1.932084713646e+02 0.0 
0.0 0.0 -8.180762553489e+01 
-5.201480460243e+01 2.272650545298e+01 0.0 
2.272650545298e+01 -1.080952922731e+02 0.0 
0.0 0.0 -4.329029722042e+01 
-4.759260305548e+01 2.332450658170e+01 0.0 
2.332450658170e+01 -1.073007706817e+02 0.0 
0.0 0.0 -4.201060820252e+01 
-6.737938570928e+01 -1.441533203866e+01 0.0 
-1.441533203866e+01 -1.566189844215e+02 0.0 
0.0 0.0 -6.507919649036e+01 
-5.757626526287e+01 -1.385886235251e+01 0.0 
-1.385886235251e+01 -1.109834920175e+02 0.0 
0.0 0.0 -4.697757478774e+01 
-4.630570520085e+01 -2.182050261610e+00 0.0 
-2.182050261610e+00 -9.906395154601e+01 0.0 
0.0 0.0 -4.024195771843e+01 
-1.452395471939e+02 2.178151168998e+00 0.0 
2.178151168998e+00 -3.503662835069e+02 0.0 
0.0 0.0 -1.482817492102e+02 
-1.390359634839e+02 4.156878824095e+00 0.0 
4.156878824095e+00 -3.167791638293e+02 0.0 
0.0 0.0 -1.363445381940e+02 
-1.302912750282e+02 7.998822199471e+00 0.0 
7.998822199471e+00 -3.139415301114e+02 0.0 
0.0 0.0 -1.328698415419e+02 
-1.215944495214e+02 8.347644408446e+00 0.0 
8.347644408446e+00 -2.953037386031e+02 0.0 
0.0 0.0 -1.246694564373e+02 
-1.391807333305e+02 7.816861472699e+00 0.0 
7.816861472699e+00 -3.326590588903e+02 0.0 
0.0 0.0 -1.411519376662e+02 
-4.201490282705e+01 -9.148616688692e+00 0.0 
-9.148616688692e+00 -6.838300205969e+01 0.0 
0.0 0.0 -2.848188518707e+01 
-1.448969843790e+02 1.137412244275e+00 0.0 
1.137412244275e+00 -3.482752247881e+02 0.0 
0.0 0.0 -1.475516627501e+02 
-1.342297550692e+02 -5.440738457977e-01 0.0 
-5.440738457977e-01 -3.129150059224e+02 0.0 
0.0 0.0 -1.335246867807e+02 
-1.408905464353e+02 8.588979297864e+00 0.0 
8.588979297864e+00 -3.315755042122e+02 0.0 
0.0 0.0 -1.413398151942e+02 
-1.377459375473e+02 8.669258341206e+00 0.0 
8.669258341206e+00 -3.225565086340e+02 0.0 
0.0 0.0 -1.376907338544e+02 
-6.685695974554e+01 1.870931986319e+01 0.0 
1.870931986319e+01 -1.489740020179e+02 0.0 
0.0 0.0 -6.187550932758e+01 
-6.546145240220e+01 1.927096341618e+01 0.0 
1.927096341618e+01 -1.362900300855e+02 0.0 
0.0 0.0 -5.794920038826e+01 
-5.992547464058e+01 1.996530072201e+01 0.0 
1.996530072201e+01 -1.165884872508e+02 0.0 
0.0 0.0 -4.960388461633e+01 
-6.355998235981e+01 1.848321320165e+01 0.0 
1.848321320165e+01 -1.231997104729e+02 0.0 
0.0 0.0 -5.337143472357e+01 
-1.042863639492e+02 6.833182882188e+00 0.0 
6.833182882188e+00 -2.259553898996e+02 0.0 
0.0 0.0 -9.843485282268e+01 
-7.142014373787e+01 1.813634183568e+01 0.0 
1.813634183568e+01 -1.553935098489e+02 0.0 
0.0 0.0 -6.633193192794e+01 
-1.015974274946e+02 8.116686138525e+00 0.0 
8.116686138525e+00 -2.166290407273e+02 0.0 
0.0 0.0 -9.350114394864e+01 
-9.859621636253e+01 7.275383907042e+00 0.0 
7.275383907042e+00 -2.069320453488e+02 0.0 
0.0 0.0 -8.965193273514e+01 
-9.568076355370e+01 7.597181228496e+00 0.0 
7.597181228496e+00 -1.975296023211e+02 0.0 
0.0 0.0 -8.511047259953e+01 
-8.811771981880e+01 1.119555347419e+01 0.0 
1.119555347419e+01 -1.787888922063e+02 0.0 
0.0 0.0 -7.577319371064e+01 
-8.518139673408e+01 9.884286165452e+00 0.0 
9.884286165452e+00 -1.684861318176e+02 0.0 
0.0 0.0 -7.113168129264e+01 
-7.000774233916e+01 1.468811416219e+01 0.0 
1.468811416219e+01 -1.737492208548e+02 0.0 
0.0 0.0 -7.035719617650e+01 
-9.713156111888e+01 7.097069966852e+00 0.0 
7.097069966852e+00 -2.512343382046e+02 0.0 
0.0 0.0 -1.090167688002e+02 
-1.021447388894e+02 -5.084226479115e+00 0.0 
-5.084226479115e+00 -2.094285078564e+02 0.0 
0.0 0.0 -8.785271934094e+01 
-1.173038662809e+02 -3.308568714930e+00 0.0 
-3.308568714930e+00 -2.608751952641e+02 0.0 
0.0 0.0 -1.105041681381e+02 
-1.063286023448e+02 -3.922225389788e+00 0.0 
-3.922225389788e+00 -2.537844323346e+02 0.0 
0.0 0.0 -1.088069635548e+02 
-1.357759926837e+02 2.917744981895e+00 0.0 
2.917744981895e+00 -3.086793041089e+02 0.0 
0.0 0.0 -1.329365890378e+02 
-1.397819969613e+02 2.709435899763e+00 0.0 
2.709435899763e+00 -3.195063902051e+02 0.0 
0.0 0.0 -1.373865161499e+02 
-1.088546713869e+02 1.627535831000e+00 0.0 
1.627535831000e+00 -2.398897671281e+02 0.0 
0.0 0.0 -1.042233315545e+02 
-1.050868467869e+02 1.282069178829e+00 0.0 
1.282069178829e+00 -2.306389624208e+02 0.0 
0.0 0.0 -1.003177427623e+02 
-3.740893279183e+01 -5.699305115735e+00 0.0 
-5.699305115735e+00 -7.668965146021e+01 0.0 
0.0 0.0 -3.078621354171e+01 
-3.523710998290e+01 -5.631950841038e+00 0.0 
-5.631950841038e+00 -6.834867720513e+01 0.0 
0.0 0.0 -2.772088751906e+01 
-1.069154327770e+02 -5.526959052733e+00 0.0 
-5.526959052733e+00 -2.379605600376e+02 0.0 
0.0 0.0 -1.007487352193e+02 
-1.400687588865e+02 4.584421094203e-01 0.0 
4.584421094203e-01 -3.370654508839e+02 0.0 
0.0 0.0 -1.427402629311e+02 
-1.385816758247e+02 4.875327564476e+00 0.0 
4.875327564476e+00 -3.155639402961e+02 0.0 
0.0 0.0 -1.358436848363e+02 
-1.421192552089e+02 5.418509949758e+00 0.0 
5.418509949758e+00 -3.250794218184e+02 0.0 
0.0 0.0 -1.397596031082e+02 
-1.382894308028e+02 5.661409699114e+00 0.0 
5.661409699114e+00 -3.149118363784e+02 0.0 
0.0 0.0 -1.355603801543e+02 
-1.407003215040e+02 2.607434844689e+00 0.0 
2.607434844689e+00 -3.416462355766e+02 0.0 
0.0 0.0 -1.443039671242e+02 
-7.024973747051e+01 4.951157618333e+00 0.0 
4.951157618333e+00 -1.879222717481e+02 0.0 
0.0 0.0 -7.495061259050e+01 
-9.890238358145e+01 2.161166001043e+00 0.0 
2.161166001043e+00 -2.593251002698e+02 0.0 
0.0 0.0 -1.129579878831e+02 
-3.624996690459e+01 -9.547813654083e+00 0.0 
-9.547813654083e+00 -1.244082847449e+02 0.0 
0.0 0.0 -4.911188460688e+01 
-1.070711288140e+02 1.014032186388e+01 0.0 
1.014032186388e+01 -2.588081378588e+02 0.0 
0.0 0.0 -1.097520103339e+02 
-2.643249799028e+01 -2.933622801554e+00 0.0 
-2.933622801554e+00 -5.641186835372e+01 0.0 
0.0 0.0 -2.211623999979e+01 
-1.233938487188e+02 8.711035824322e+00 0.0 
8.711035824322e+00 -2.839086527598e+02 0.0 
0.0 0.0 -1.217907504436e+02 
-1.419401237999e+02 -3.148571707616e-01 0.0 
-3.148571707616e-01 -3.325529041629e+02 0.0 
0.0 0.0 -1.419479083888e+02 
-1.464782374514e+02 -2.796108774526e-01 0.0 
-2.796108774526e-01 -3.435600275779e+02 0.0 
0.0 0.0 -1.466114795088e+02 
-1.430749177462e+02 6.758190251656e+00 0.0 
6.758190251656e+00 -3.431314813785e+02 0.0 
0.0 0.0 -1.454619197374e+02 
-9.492602929044e+01 5.314775386827e+00 0.0 
5.314775386827e+00 -1.979199284157e+02 0.0 
0.0 0.0 -8.671999720756e+01 
-1.087535685284e+02 9.262646870253e+00 0.0 
9.262646870253e+00 -2.680051200825e+02 0.0 
0.0 0.0 -1.136115290129e+02 
-1.040627181706e+02 9.506827075504e+00 0.0 
9.506827075504e+00 -2.589465588552e+02 0.0 
0.0 0.0 -1.106404679796e+02 
-9.238220735661e+01 6.602999290863e+00 0.0 
6.602999290863e+00 -1.879881609930e+02 0.0 
0.0 0.0 -8.134566914340e+01 
-8.921394698560e+01 6.967218169494e+00 0.0 
6.967218169494e+00 -1.785482853642e+02 0.0 
0.0 0.0 -7.667601528181e+01 
-9.252943967240e+01 8.061306580939e+00 0.0 
8.061306580939e+00 -1.880517434251e+02 0.0 
0.0 0.0 -8.036633371049e+01 
-8.579802897584e+01 7.547642877574e+00 0.0 
7.547642877574e+00 -1.689003155489e+02 0.0 
0.0 0.0 -7.169732107181e+01 
-7.064100493589e+01 -1.477957803215e+01 0.0 
-1.477957803215e+01 -1.603991721096e+02 0.0 
0.0 0.0 -6.784291468712e+01 
-6.783366086016e+01 -1.523648550364e+01 0.0 
-1.523648550364e+01 -1.459980496945e+02 0.0 
0.0 0.0 -6.187935701725e+01 
-1.454913191154e+02 8.511371613783e+00 0.0 
8.511371613783e+00 -3.432564192713e+02 0.0 
0.0 0.0 -1.462243215160e+02 
-1.437479130333e+02 8.011496463517e+00 0.0 
8.011496463517e+00 -3.415939867643e+02 0.0 
0.0 0.0 -1.452025699393e+02 
-1.455232968796e+02 8.665744964462e+00 0.0 
8.665744964462e+00 -3.410741954942e+02 0.0 
0.0 0.0 -1.455792477121e+02 
-1.425755281951e+02 8.581242254351e+00 0.0 
8.581242254351e+00 -3.323898166569e+02 0.0 
0.0 0.0 -1.420896034556e+02 
-1.474557443570e+02 6.446852551327e+00 0.0 
6.446852551327e+00 -3.523990205602e+02 0.0 
0.0 0.0 -1.495564294752e+02 
-1.422440061962e+02 5.968009455272e+00 0.0 
5.968009455272e+00 -3.427641151401e+02 0.0 
0.0 0.0 -1.451024364009e+02 
-5.994731390081e+01 -2.586573138123e+00 0.0 
-2.586573138123e+00 -1.190049728006e+02 0.0 
0.0 0.0 -4.910439229399e+01 
-7.773942385580e+01 9.618453076509e+00 0.0 
9.618453076509e+00 -1.486088212593e+02 0.0 
0.0 0.0 -6.302265048813e+01 
-1.430344038668e+02 3.929420136679e+00 0.0 
3.929420136679e+00 -3.273347238380e+02 0.0 
0.0 0.0 -1.407107383114e+02 
-9.534547162639e+01 6.358368850737e+00 0.0 
6.358368850737e+00 -1.973612650695e+02 0.0 
0.0 0.0 -8.584743081007e+01 
-1.489734727176e+02 8.976509780425e-01 0.0 
8.976509780425e-01 -3.558274802457e+02 0.0 
0.0 0.0 -1.510402858890e+02 
-1.443635522728e+02 3.390437235358e-01 0.0 
3.390437235358e-01 -3.451017247290e+02 0.0 
0.0 0.0 -1.464395831006e+02 
-3.278450266420e+01 -1.131247377127e+01 0.0 
-1.131247377127e+01 -1.196073535020e+02 0.0 
0.0 0.0 -4.783025319154e+01 
-3.743851345180e+01 -1.975904171262e+01 0.0 
-1.975904171262e+01 -1.082300817795e+02 0.0 
0.0 0.0 -4.320143344336e+01 
-1.408350534167e+02 1.296145504651e+00 0.0 
1.296145504651e+00 -3.226723215778e+02 0.0 
0.0 0.0 -1.386522124984e+02 
-5.731654343925e+01 1.811799932662e+01 0.0 
1.811799932662e+01 -1.021397497588e+02 0.0 
0.0 0.0 -4.460475199663e+01 
-6.026832984673e+01 1.628953759581e+01 0.0 
1.628953759581e+01 -1.089689500720e+02 0.0 
0.0 0.0 -4.790760901752e+01 
-5.421046296427e+01 2.008964676397e+01 0.0 
2.008964676397e+01 -9.593575040571e+01 0.0 
0.0 0.0 -4.126228876699e+01 
-1.590911926147e+02 -6.846060067980e-02 0.0 
-6.846060067980e-02 -3.722095111676e+02 0.0 
0.0 0.0 -1.589902111347e+02 
-8.854215977019e+01 1.823107825528e-01 0.0 
1.823107825528e-01 -1.920395433111e+02 0.0 
0.0 0.0 -8.377451092440e+01 
-1.504466645324e+02 -1.956051519559e-01 0.0 
-1.956051519559e-01 -3.521527018037e+02 0.0 
0.0 0.0 -1.503798099008e+02 
-9.205349388365e+01 9.996599952758e+00 0.0 
9.996599952758e+00 -1.883441130656e+02 0.0 
0.0 0.0 -7.955900149766e+01 
-1.445958725562e+02 1.710015435399e+00 0.0 
1.710015435399e+00 -3.323699769472e+02 0.0 
0.0 0.0 -1.426897548510e+02 
-1.111605664748e+02 8.309645854029e+00 0.0 
8.309645854029e+00 -2.770600421368e+02 0.0 
0.0 0.0 -1.172633394685e+02 
-8.290759085468e+01 1.579770629854e+01 0.0 
1.579770629854e+01 -1.834767910345e+02 0.0 
0.0 0.0 -7.886816841212e+01 
-1.313297933165e+02 2.160501842894e+00 0.0 
2.160501842894e+00 -3.229346002127e+02 0.0 
0.0 0.0 -1.358793180587e+02 
-1.367567939347e+02 9.459014933041e-01 0.0 
9.459014933041e-01 -3.119275407550e+02 0.0 
0.0 0.0 -1.342053004069e+02 
-1.448890455545e+02 9.568061024776e-01 0.0 
9.568061024776e-01 -3.338170112480e+02 0.0 
0.0 0.0 -1.432118170408e+02 
-1.047168030752e+02 2.313962638136e+00 0.0 
2.313962638136e+00 -2.279549524438e+02 0.0 
0.0 0.0 -9.940152665571e+01 
-1.003968295274e+02 1.951887839324e+00 0.0 
1.951887839324e+00 -2.179520335625e+02 0.0 
0.0 0.0 -9.510465892695e+01 
-1.083044996558e+02 2.846005546136e+00 0.0 
2.846005546136e+00 -2.368658722168e+02 0.0 
0.0 0.0 -1.031511115618e+02 
-4.112942720064e+01 1.596983345460e+01 0.0 
1.596983345460e+01 -1.237746757694e+02 0.0 
0.0 0.0 -4.723861826609e+01 
-3.600594699651e+01 2.110793953412e+01 0.0 
2.110793953412e+01 -1.089473864679e+02 0.0 
0.0 0.0 -4.362668501151e+01 
-1.361916326392e+02 2.230172312487e+00 0.0 
2.230172312487e+00 -3.102245641884e+02 0.0 
0.0 0.0 -1.335248590483e+02 
-7.450205427927e+01 -4.704319559473e+00 0.0 
-4.704319559473e+00 -1.442172378620e+02 0.0 
0.0 0.0 -5.934804024798e+01 
-8.024404960457e+01 -3.690791420092e+00 0.0 
-3.690791420092e+00 -1.546038612824e+02 0.0 
0.0 0.0 -6.449338964413e+01 
-5.134807941324e+01 -1.125238300534e+01 0.0 
-1.125238300534e+01 -9.574603601965e+01 0.0 
0.0 0.0 -4.035119775775e+01 
-5.947504989142e+01 -1.278668856616e+01 0.0 
-1.278668856616e+01 -1.166635179931e+02 0.0 
0.0 0.0 -4.946970539007e+01 
-1.090102627342e+02 -4.323811065532e+00 0.0 
-4.323811065532e+00 -2.294372281609e+02 0.0 
0.0 0.0 -9.684288878343e+01 
-1.054502204075e+02 -5.215826968622e+00 0.0 
-5.215826968622e+00 -2.215757920670e+02 0.0 
0.0 0.0 -9.311643897551e+01 
-1.265861088165e+02 8.844228290907e+00 0.0 
8.844228290907e+00 -2.938008950458e+02 0.0 
0.0 0.0 -1.257161011587e+02 
-1.310095763171e+02 8.528995522831e+00 0.0 
8.528995522831e+00 -3.030848462962e+02 0.0 
0.0 0.0 -1.298283267840e+02 
-1.174886541484e+02 9.598895126881e+00 0.0 
9.598895126881e+00 -2.755136276743e+02 0.0 
0.0 0.0 -1.174307570909e+02 
-1.129352465775e+02 6.253608125799e-01 0.0 
6.253608125799e-01 -2.851023805875e+02 0.0 
0.0 0.0 -1.213222464707e+02 
-1.050907219646e+02 -5.021478921986e-01 0.0 
-5.021478921986e-01 -2.666720401133e+02 0.0 
0.0 0.0 -1.153206128107e+02 
-1.000602339967e+02 -4.292982212077e-01 0.0 
-4.292982212077e-01 -2.584268028982e+02 0.0 
0.0 0.0 -1.123037199401e+02 
-1.429873913601e+02 3.182393727205e+00 0.0 
3.182393727205e+00 -3.281218737326e+02 0.0 
0.0 0.0 -1.409327795278e+02 
-1.478487210271e+02 2.910979692934e+00 0.0 
2.910979692934e+00 -3.411740691668e+02 0.0 
0.0 0.0 -1.463068370582e+02 
-7.317260132533e+01 -1.331644849418e+01 0.0 
-1.331644849418e+01 -1.741152520770e+02 0.0 
0.0 0.0 -7.352639071365e+01 
-6.945963493874e+01 -1.224992229399e+01 0.0 
-1.224992229399e+01 -1.700779471085e+02 0.0 
0.0 0.0 -7.044027492503e+01 
-7.475308809986e+01 -1.405969298333e+01 0.0 
-1.405969298333e+01 -1.651049436243e+02 0.0 
0.0 0.0 -7.039415397379e+01 
-1.465106214144e+02 4.430178378656e+00 0.0 
4.430178378656e+00 -3.365921179118e+02 0.0 
0.0 0.0 -1.445308217979e+02 
-1.548309294744e+02 -2.406513197263e-01 0.0 
-2.406513197263e-01 -3.628300387907e+02 0.0 
0.0 0.0 -1.548982904795e+02 
-1.508983334598e+02 -1.649258172299e-01 0.0 
-1.649258172299e-01 -3.544777341390e+02 0.0 
0.0 0.0 -1.512128202796e+02 
-2.475279188647e+01 -2.434423144155e+00 0.0 
-2.434423144155e+00 -4.841836640448e+01 0.0 
0.0 0.0 -1.919652217716e+01 
-3.343988736882e+01 -5.264362466438e+00 0.0 
-5.264362466438e+00 -6.007859382890e+01 0.0 
0.0 0.0 -2.441080958334e+01 
-4.750176264336e+01 2.445361452222e+01 0.0 
2.445361452222e+01 -8.866874792319e+01 0.0 
0.0 0.0 -3.595114331573e+01 
-4.377591117116e+01 2.611917461890e+01 0.0 
2.611917461890e+01 -8.961667646656e+01 0.0 
0.0 0.0 -3.579560710553e+01 
-1.453977649817e+02 5.923321439381e+00 0.0 
5.923321439381e+00 -3.340997723072e+02 0.0 
0.0 0.0 -1.434492611867e+02 
-1.418497022383e+02 6.173016278432e+00 0.0 
6.173016278432e+00 -3.245971969562e+02 0.0 
0.0 0.0 -1.395340697584e+02 
-1.499316733525e+02 5.722181602920e+00 0.0 
5.722181602920e+00 -3.459841007508e+02 0.0 
0.0 0.0 -1.483747322310e+02 
-5.033212492413e+01 -1.545252586228e+00 0.0 
-1.545252586228e+00 -1.056693164507e+02 0.0 
0.0 0.0 -4.347201416678e+01 
-1.252698189723e+02 7.713355352874e+00 0.0 
7.713355352874e+00 -3.047866675295e+02 0.0 
0.0 0.0 -1.286169459505e+02 
-1.497906177569e+02 2.958625775490e+00 0.0 
2.958625775490e+00 -3.596520772361e+02 0.0 
0.0 0.0 -1.524328084979e+02 
-1.452012896537e+02 3.390625423579e+00 0.0 
3.390625423579e+00 -3.509205130243e+02 0.0 
0.0 0.0 -1.484365408034e+02 
-1.554818263359e+02 2.572803486083e+00 0.0 
2.572803486083e+00 -3.707797218003e+02 0.0 
0.0 0.0 -1.574784644409e+02 
-1.387730267306e+02 7.115629780003e+00 0.0 
7.115629780003e+00 -3.336302496819e+02 0.0 
0.0 0.0 -1.413209829237e+02 
-1.475744899655e+02 7.179169021256e+00 0.0 
7.179169021256e+00 -3.518216151432e+02 0.0 
0.0 0.0 -1.494188315326e+02 
-1.479151593441e+02 7.773076988607e+00 0.0 
7.773076988607e+00 -3.511149437277e+02 0.0 
0.0 0.0 -1.493090309216e+02 
-3.679243870670e+01 7.438322357752e-01 0.0 
7.438322357752e-01 -1.220266481952e+02 0.0 
0.0 0.0 -4.951849859074e+01 
-1.422578297198e+02 7.169962511022e-01 0.0 
7.169962511022e-01 -3.267761054794e+02 0.0 
0.0 0.0 -1.403101805597e+02 
-1.004655590448e+02 1.367395402780e+00 0.0 
1.367395402780e+00 -2.190472938941e+02 0.0 
0.0 0.0 -9.545385588166e+01 
-4.705251443113e+01 -7.226971220620e+00 0.0 
-7.226971220620e+00 -1.164435777811e+02 0.0 
0.0 0.0 -5.049112619756e+01 
-9.668598744437e+01 1.026695891652e+00 0.0 
1.026695891652e+00 -2.099832654314e+02 0.0 
0.0 0.0 -9.160077586274e+01 
-1.011064095462e+02 9.737556441454e-01 0.0 
9.737556441454e-01 -2.212908248295e+02 0.0 
0.0 0.0 -9.631917031270e+01 
-9.223689581028e+01 7.555704859590e-01 0.0 
7.555704859590e-01 -1.997356998182e+02 0.0 
0.0 0.0 -8.719177868856e+01 
-3.567555325279e+01 -1.234741732192e+00 0.0 
-1.234741732192e+00 -8.582135774258e+01 0.0 
0.0 0.0 -3.447210161036e+01 
-9.925837170835e+01 2.480745467832e+00 0.0 
2.480745467832e+00 -2.139220820580e+02 0.0 
0.0 0.0 -9.355413612992e+01 
-1.043827589862e+02 3.131246369032e+00 0.0 
3.131246369032e+00 -2.263625470028e+02 0.0 
0.0 0.0 -9.882359179668e+01 
-2.106622415293e+01 -1.847675333264e+00 0.0 
-1.847675333264e+00 -3.662099443546e+01 0.0 
0.0 0.0 -1.507879179083e+01 
-1.501680660417e+02 4.108716527536e+00 0.0 
4.108716527536e+00 -3.467732397599e+02 0.0 
0.0 0.0 -1.486823917405e+02 
-1.744272565389e+01 -3.210735597667e-01 0.0 
-3.210735597667e-01 -3.768706880758e+01 0.0 
0.0 0.0 -1.480948161299e+01 
-1.939350135968e+01 -6.249367817913e-01 0.0 
-6.249367817913e-01 -4.539568783195e+01 0.0 
0.0 0.0 -1.743729502742e+01 
-1.533926686944e+02 6.352292916326e-01 0.0 
6.352292916326e-01 -3.640995437627e+02 0.0 
0.0 0.0 -1.548476637372e+02 
-1.485147765057e+02 2.469729095733e-01 0.0 
2.469729095733e-01 -3.529572128945e+02 0.0 
0.0 0.0 -1.500415968200e+02 
-1.571094298591e+02 5.257480152867e-01 0.0 
5.257480152867e-01 -3.714481366793e+02 0.0 
0.0 0.0 -1.581672699615e+02 
-1.522052148638e+02 1.073780505553e-01 0.0 
1.073780505553e-01 -3.601991473582e+02 0.0 
0.0 0.0 -1.533213086666e+02 
-1.438284034945e+02 -1.082423553534e-01 0.0 
-1.082423553534e-01 -3.416829020676e+02 0.0 
0.0 0.0 -1.452533916686e+02 
-1.480140704858e+02 -1.387542707831e-01 0.0 
-1.387542707831e-01 -3.499608806127e+02 0.0 
0.0 0.0 -1.489924853295e+02 
-9.611866761832e+01 1.512336576588e+00 0.0 
1.512336576588e+00 -2.079722422415e+02 0.0 
0.0 0.0 -9.082727295794e+01 
-1.576405866165e+02 5.843063630036e-02 0.0 
5.843063630036e-02 -3.712160040468e+02 0.0 
0.0 0.0 -1.582569771990e+02 
-1.522396756876e+02 -1.249470277381e-01 0.0 
-1.249470277381e-01 -3.585090640644e+02 0.0 
0.0 0.0 -1.528246219256e+02 
-1.616799463386e+02 -1.624244659008e-02 0.0 
-1.624244659008e-02 -3.798811549741e+02 0.0 
0.0 0.0 -1.620683303938e+02 
-8.230957498161e+01 6.251760750697e+00 0.0 
6.251760750697e+00 -1.598646597851e+02 0.0 
0.0 0.0 -6.833036463441e+01 
-6.722564400159e+01 1.676089848290e+01 0.0 
1.676089848290e+01 -1.301354911627e+02 0.0 
0.0 0.0 -5.679241092356e+01 
-6.397776496370e+01 1.460843933327e+01 0.0 
1.460843933327e+01 -1.173942389511e+02 0.0 
0.0 0.0 -5.163306192884e+01 
-5.581388562124e+01 1.316013020685e+01 0.0 
1.316013020685e+01 -9.543052431851e+01 0.0 
0.0 0.0 -4.233105968117e+01 
-1.513834400969e+02 8.652098370299e+00 0.0 
8.652098370299e+00 -3.537410808028e+02 0.0 
0.0 0.0 -1.511373562699e+02 
-1.463716930669e+02 8.402905211271e+00 0.0 
8.402905211271e+00 -3.407961953842e+02 0.0 
0.0 0.0 -1.457503665353e+02 
-1.376943341426e+02 -3.102135955875e-01 0.0 
-3.102135955875e-01 -3.219769897736e+02 0.0 
0.0 0.0 -1.374620262106e+02 
-1.314141231315e+02 -5.285239671224e-01 0.0 
-5.285239671224e-01 -3.020833056075e+02 0.0 
0.0 0.0 -1.289531862805e+02 
-9.661582362832e+01 6.351289505187e-01 0.0 
6.351289505187e-01 -2.109128739365e+02 0.0 
0.0 0.0 -9.185860926945e+01 
-9.603938697371e+01 5.015197209477e-01 0.0 
5.015197209477e-01 -2.097846366355e+02 0.0 
0.0 0.0 -9.134720708275e+01 
-1.034449505967e+02 5.236853467007e-01 0.0 
5.236853467007e-01 -2.277521796478e+02 0.0 
0.0 0.0 -9.895913907334e+01 
-1.023293319218e+02 4.857416834470e-01 0.0 
4.857416834470e-01 -2.252666928432e+02 0.0 
0.0 0.0 -9.787880742951e+01 
-1.096874233304e+02 5.039984372812e-01 0.0 
5.039984372812e-01 -2.433543489841e+02 0.0 
0.0 0.0 -1.055125316943e+02 
-1.085924198903e+02 4.539646778787e-01 0.0 
4.539646778787e-01 -2.405491194144e+02 0.0 
0.0 0.0 -1.043424617914e+02 
-1.160321553200e+02 7.025389875765e-01 0.0 
7.025389875765e-01 -2.589931730929e+02 0.0 
0.0 0.0 -1.121075985239e+02 
-1.526641038784e+02 8.101645779665e+00 0.0 
8.101645779665e+00 -3.606789506464e+02 0.0 
0.0 0.0 -1.536029163574e+02 
-5.063439121265e+01 1.683646341761e+01 0.0 
1.683646341761e+01 -8.037868852231e+01 0.0 
0.0 0.0 -3.564571291597e+01 
-8.891458534671e+01 5.587940473441e+00 0.0 
5.587940473441e+00 -1.787390683084e+02 0.0 
0.0 0.0 -7.771387510505e+01 
-1.515135976463e+02 6.130421033382e+00 0.0 
6.130421033382e+00 -3.612384308192e+02 0.0 
0.0 0.0 -1.534256085397e+02 
-1.456913943931e+02 5.581152068277e+00 0.0 
5.581152068277e+00 -3.503978771986e+02 0.0 
0.0 0.0 -1.484267814775e+02 
-8.186948718870e+01 8.415568221573e+00 0.0 
8.415568221573e+00 -1.586786809511e+02 0.0 
0.0 0.0 -6.681362950712e+01 
-7.423698936045e+01 7.821367326475e+00 0.0 
7.821367326475e+00 -1.394875405161e+02 0.0 
0.0 0.0 -5.864421678497e+01 
-1.551663833947e+02 1.450490751909e+00 0.0 
1.450490751909e+00 -3.694029879778e+02 0.0 
0.0 0.0 -1.569708114117e+02 
-7.300291556731e+01 1.729489110338e+01 0.0 
1.729489110338e+01 -1.671970361720e+02 0.0 
0.0 0.0 -7.020899039410e+01 
-1.544704613849e+02 4.726097013328e+00 0.0 
4.726097013328e+00 -3.586531150946e+02 0.0 
0.0 0.0 -1.535370729438e+02 
-5.926489909177e+01 2.580723429628e+01 0.0 
2.580723429628e+01 -8.571253013489e+01 0.0 
0.0 0.0 -4.430843486014e+01 
-3.952648049312e+01 2.400249709174e+01 0.0 
2.400249709174e+01 -1.020315884805e+02 0.0 
0.0 0.0 -4.399475222118e+01 
-7.784255812414e+01 1.676957402822e+01 0.0 
1.676957402822e+01 -1.743751118864e+02 0.0 
0.0 0.0 -7.474108542684e+01 
-8.910125274739e+01 8.811592406568e+00 0.0 
8.811592406568e+00 -1.783864817263e+02 0.0 
0.0 0.0 -7.543857076865e+01 
-7.158452646471e+01 1.483768842966e+01 0.0 
1.483768842966e+01 -1.385897549652e+02 0.0 
0.0 0.0 -6.034895151380e+01 
-6.879836793855e+01 1.286591226847e+01 0.0 
1.286591226847e+01 -1.281899214157e+02 0.0 
0.0 0.0 -5.576478099515e+01 
-1.219256880147e+02 1.473610533259e+00 0.0 
1.473610533259e+00 -3.038580659351e+02 0.0 
0.0 0.0 -1.278534187134e+02 
-3.233346844745e+01 -5.300954907361e+00 0.0 
-5.300954907361e+00 -5.317533523650e+01 0.0 
0.0 0.0 -2.180485452611e+01 
-5.118203672161e+01 2.230643104504e+01 0.0 
2.230643104504e+01 -9.133831803765e+01 0.0 
0.0 0.0 -3.837908429880e+01 
-1.171056732326e+02 7.542408750952e-01 0.0 
7.542408750952e-01 -2.613354362176e+02 0.0 
0.0 0.0 -1.131323328351e+02 
-4.665545415430e+01 2.234053073485e+01 0.0 
2.234053073485e+01 -6.980125912136e+01 0.0 
0.0 0.0 -3.052769577260e+01 
-1.345387644094e+02 -2.215365289066e-01 0.0 
-2.215365289066e-01 -3.123481063824e+02 0.0 
0.0 0.0 -1.333959538347e+02 
-7.475802533544e+01 1.560628259410e+01 0.0 
1.560628259410e+01 -1.792727688242e+02 0.0 
0.0 0.0 -7.441178506207e+01 
-9.465735793939e+01 1.098274406549e+01 0.0 
1.098274406549e+01 -1.986612077029e+02 0.0 
0.0 0.0 -8.404606261037e+01 
-5.612820124783e+01 2.145072749550e+01 0.0 
2.145072749550e+01 -1.114570208783e+02 0.0 
0.0 0.0 -4.609744265991e+01 
-6.976454322649e+01 1.823750322135e+01 0.0 
1.823750322135e+01 -1.437946386253e+02 0.0 
0.0 0.0 -6.217800784048e+01 
-1.073909847198e+02 7.536395132363e+00 0.0 
7.536395132363e+00 -2.355228063029e+02 0.0 
0.0 0.0 -1.022515656602e+02 
-1.010459687931e+02 6.087157338917e+00 0.0 
6.087157338917e+00 -2.165524668244e+02 0.0 
0.0 0.0 -9.465023552987e+01 
-9.821886803687e+01 6.195670360452e+00 0.0 
6.195670360452e+00 -2.070175034367e+02 0.0 
0.0 0.0 -9.034752995238e+01 
-7.650857181749e+01 1.323680856826e+01 0.0 
1.323680856826e+01 -1.905513568159e+02 0.0 
0.0 0.0 -7.855876964145e+01 
-7.325222328092e+01 1.106862139373e+01 0.0 
1.106862139373e+01 -1.383298537059e+02 0.0 
0.0 0.0 -5.938402546448e+01 
-6.408495759742e+01 1.054000344458e+01 0.0 
1.054000344458e+01 -1.159174701693e+02 0.0 
0.0 0.0 -5.029314129943e+01 
-1.042908491253e+02 8.859018221961e+00 0.0 
8.859018221961e+00 -2.264573399796e+02 0.0 
0.0 0.0 -9.738855345724e+01 
-1.344103482567e+02 5.874503611363e+00 0.0 
5.874503611363e+00 -3.048470053807e+02 0.0 
0.0 0.0 -1.313772060912e+02 
-1.378460040528e+02 6.359073538450e+00 0.0 
6.359073538450e+00 -3.143856772848e+02 0.0 
0.0 0.0 -1.352695044013e+02 
-1.450304404279e+02 6.650641387982e+00 0.0 
6.650641387982e+00 -3.334206337480e+02 0.0 
0.0 0.0 -1.431353222528e+02 
-1.413012614749e+02 6.849810827519e+00 0.0 
6.849810827519e+00 -3.239213202394e+02 0.0 
0.0 0.0 -1.391667745143e+02 
-1.339337496068e+02 6.635623197960e+00 0.0 
6.635623197960e+00 -3.044433339351e+02 0.0 
0.0 0.0 -1.311131250626e+02 
-1.373822034660e+02 7.123217119600e+00 0.0 
7.123217119600e+00 -3.140188233733e+02 0.0 
0.0 0.0 -1.350203080518e+02 
-1.447253658672e+02 7.258150470397e+00 0.0 
7.258150470397e+00 -3.334306095876e+02 0.0 
0.0 0.0 -1.430467926364e+02 
-1.411051248911e+02 7.521531224362e+00 0.0 
7.521531224362e+00 -3.242006668779e+02 0.0 
0.0 0.0 -1.391917375307e+02 
-1.497610458707e+02 7.823565013478e+00 0.0 
7.823565013478e+00 -3.468620995045e+02 0.0 
0.0 0.0 -1.485869436126e+02 
-1.444318217533e+02 7.966058659489e+00 0.0 
7.966058659489e+00 -3.337086736164e+02 0.0 
0.0 0.0 -1.430421486109e+02 
-1.366344019956e+02 7.735805816379e+00 0.0 
7.735805816379e+00 -3.136457595451e+02 0.0 
0.0 0.0 -1.346840484622e+02 
-1.397336380082e+02 8.057696039865e+00 0.0 
8.057696039865e+00 -3.227956644704e+02 0.0 
0.0 0.0 -1.383587907436e+02 
-1.470416105278e+02 8.249286650164e+00 0.0 
8.249286650164e+00 -3.412585873869e+02 0.0 
0.0 0.0 -1.460900593744e+02 
-1.321624901828e+02 8.023410549195e+00 0.0 
8.023410549195e+00 -3.032531074003e+02 0.0 
0.0 0.0 -1.302246792749e+02 
-1.564767904911e+02 6.612932213797e+00 0.0 
6.612932213797e+00 -3.705853335582e+02 0.0 
0.0 0.0 -1.577186372148e+02 
-8.440434321036e+01 1.520809344964e+01 0.0 
1.520809344964e+01 -1.936832796721e+02 0.0 
0.0 0.0 -8.331092136492e+01 
-3.230397655894e+01 1.250652473926e+01 0.0 
1.250652473926e+01 -1.191348674249e+02 0.0 
0.0 0.0 -4.774638653284e+01 
-3.839908117825e+01 2.925252695578e+01 0.0 
2.925252695578e+01 -9.045585545511e+01 0.0 
0.0 0.0 -3.894046126810e+01 
-9.820967034656e+01 1.002866512223e+01 0.0 
1.002866512223e+01 -2.079451251040e+02 0.0 
0.0 0.0 -8.817288430548e+01 
-1.570687523528e+02 7.892579918462e+00 0.0 
7.892579918462e+00 -3.659194062811e+02 0.0 
0.0 0.0 -1.564964475902e+02 
-1.566339925729e+02 7.054057938266e+00 0.0 
7.054057938266e+00 -3.643795120413e+02 0.0 
0.0 0.0 -1.559040513843e+02 
-6.368812419817e+01 1.628958361592e+01 0.0 
1.628958361592e+01 -1.571676640324e+02 0.0 
0.0 0.0 -6.240196578438e+01 
-1.593469447211e+02 8.933770112892e+00 0.0 
8.933770112892e+00 -3.730153551298e+02 0.0 
0.0 0.0 -1.593086899553e+02 
-1.014155203429e+02 7.047938548326e+00 0.0 
7.047938548326e+00 -2.164159034482e+02 0.0 
0.0 0.0 -9.410829621561e+01 
-4.740509901228e+01 1.323582972971e+01 0.0 
1.323582972971e+01 -1.367645486977e+02 0.0 
0.0 0.0 -5.182865933863e+01 
-1.601415891862e+02 8.811208750335e+00 0.0 
8.811208750335e+00 -3.758059031398e+02 0.0 
0.0 0.0 -1.603842476978e+02 
-1.304818974485e+02 6.128136713141e+00 0.0 
6.128136713141e+00 -2.947672307374e+02 0.0 
0.0 0.0 -1.271747384558e+02 
-1.264372542961e+02 6.449831720230e+00 0.0 
6.449831720230e+00 -2.845695881058e+02 0.0 
0.0 0.0 -1.229020527206e+02 
-1.230266719699e+02 5.918942872062e+00 0.0 
5.918942872062e+00 -2.749806629609e+02 0.0 
0.0 0.0 -1.190022004792e+02 
-1.565116493069e+02 6.271897148822e+00 0.0 
6.271897148822e+00 -3.638098140804e+02 0.0 
0.0 0.0 -1.556964390162e+02 
-1.121650838022e+02 3.405873678624e+00 0.0 
3.405873678624e+00 -2.465304561964e+02 0.0 
0.0 0.0 -1.072086619996e+02 
-1.617645136601e+02 7.661648695468e+00 0.0 
7.661648695468e+00 -3.808626844667e+02 0.0 
0.0 0.0 -1.623881594381e+02 
-1.040619025788e+02 6.427169737818e+00 0.0 
6.427169737818e+00 -2.689011977906e+02 0.0 
0.0 0.0 -1.157459376317e+02 
-1.015464746031e+02 7.897000223573e+00 0.0 
7.897000223573e+00 -2.595964841837e+02 0.0 
0.0 0.0 -1.120423539394e+02 
-9.512839494132e+01 9.095637246611e+00 0.0 
9.095637246611e+00 -2.417975513318e+02 0.0 
0.0 0.0 -1.046685568617e+02 
-1.332437386494e+02 7.374400005108e+00 0.0 
7.374400005108e+00 -3.038920941805e+02 0.0 
0.0 0.0 -1.307407498489e+02 
-1.625580918302e+02 5.675925512386e+00 0.0 
5.675925512386e+00 -3.838814468179e+02 0.0 
0.0 0.0 -1.635318615944e+02 
-1.548172707357e+02 5.162560251425e+00 0.0 
5.162560251425e+00 -3.690387346594e+02 0.0 
0.0 0.0 -1.567568016185e+02 
-1.551231016616e+02 4.632229344326e+00 0.0 
4.632229344326e+00 -3.699041433444e+02 0.0 
0.0 0.0 -1.571081735018e+02 
-1.462639057883e+02 4.637230947783e+00 0.0 
4.637230947783e+00 -3.526748816156e+02 0.0 
0.0 0.0 -1.492816362212e+02 
-1.633314499452e+02 4.476956048434e+00 0.0 
4.476956048434e+00 -3.859135157611e+02 0.0 
0.0 0.0 -1.643734897119e+02 
-1.586120215378e+02 8.533065560020e+00 0.0 
8.533065560020e+00 -3.700866937026e+02 0.0 
0.0 0.0 -1.582096145721e+02 
-1.591454023844e+02 8.758427948519e+00 0.0 
8.758427948519e+00 -3.718037742752e+02 0.0 
0.0 0.0 -1.588847529979e+02 
-6.372771566012e+01 -1.372211733115e+01 0.0 
-1.372211733115e+01 -1.534997091297e+02 0.0 
0.0 0.0 -6.197538573587e+01 
-6.553439487955e+01 -1.060730647859e+01 0.0 
-1.060730647859e+01 -1.662935955153e+02 0.0 
0.0 0.0 -6.691843515050e+01 
-7.161036591292e+01 -9.264502843815e+00 0.0 
-9.264502843815e+00 -1.819242076024e+02 0.0 
0.0 0.0 -7.510581771149e+01 
-6.766802944597e+01 -6.764851103870e+00 0.0 
-6.764851103870e+00 -1.775470187182e+02 0.0 
0.0 0.0 -7.137765077565e+01 
-6.128381617676e+01 -8.158323324407e+00 0.0 
-8.158323324407e+00 -1.626451189173e+02 0.0 
0.0 0.0 -6.376358940551e+01 
-6.363229772088e+01 -3.468589787544e+00 0.0 
-3.468589787544e+00 -1.727038207297e+02 0.0 
0.0 0.0 -6.787395193750e+01 
-7.032037826841e+01 -2.707096141962e+00 0.0 
-2.707096141962e+00 -1.870857681495e+02 0.0 
0.0 0.0 -7.530131941712e+01 
-5.976663115793e+01 7.655330386033e-01 0.0 
7.655330386033e-01 -1.670049395263e+02 0.0 
0.0 0.0 -6.454558973870e+01 
-1.388104509045e+02 8.454944052284e+00 0.0 
8.454944052284e+00 -3.222867960868e+02 0.0 
0.0 0.0 -1.379291740974e+02 
-1.641805668727e+02 3.146463145501e+00 0.0 
3.146463145501e+00 -3.878102153468e+02 0.0 
0.0 0.0 -1.651972346659e+02 
-1.118317367010e+02 -2.083437430630e+00 0.0 
-2.083437430630e+00 -2.725193479769e+02 0.0 
0.0 0.0 -1.156819284393e+02 
-1.077280479185e+02 -2.300460260876e+00 0.0 
-2.300460260876e+00 -2.646793115727e+02 0.0 
0.0 0.0 -1.134735007303e+02 
-1.016109255283e+02 -4.470389836153e+00 0.0 
-4.470389836153e+00 -2.461398819847e+02 0.0 
0.0 0.0 -1.062581463308e+02 
-9.823584427358e+01 -6.121026962945e+00 0.0 
-6.121026962945e+00 -2.015030772617e+02 0.0 
0.0 0.0 -8.449746173442e+01 
-1.016013238637e+02 -6.213983084919e+00 0.0 
-6.213983084919e+00 -2.137865742203e+02 0.0 
0.0 0.0 -8.998025806625e+01 
-1.082773477375e+02 -5.108866730894e+00 0.0 
-5.108866730894e+00 -2.336364213350e+02 0.0 
0.0 0.0 -9.835741046006e+01 
-9.433198590168e+01 -5.768976553388e+00 0.0 
-5.768976553388e+00 -1.891812952699e+02 0.0 
0.0 0.0 -7.899106725777e+01 
-1.184068517555e+02 8.969920617432e+00 0.0 
8.969920617432e+00 -2.859608125608e+02 0.0 
0.0 0.0 -1.209014058250e+02 
-1.643396105251e+02 2.598344998714e+00 0.0 
2.598344998714e+00 -3.879917835171e+02 0.0 
0.0 0.0 -1.652994182127e+02 
-1.032483885232e+02 1.334387477402e+00 0.0 
1.334387477402e+00 -2.681085715586e+02 0.0 
0.0 0.0 -1.161906457801e+02 
-9.734815089391e+01 -7.406487242187e+00 0.0 
-7.406487242187e+00 -2.060281737000e+02 0.0 
0.0 0.0 -8.730719249004e+01 
-9.240583484597e+01 3.141736016584e+00 0.0 
3.141736016584e+00 -1.956195518174e+02 0.0 
0.0 0.0 -8.600761599901e+01 
-9.953870735012e+01 3.731184832372e+00 0.0 
3.731184832372e+00 -2.133754385660e+02 0.0 
0.0 0.0 -9.347424377484e+01 
-1.000783071842e+02 4.412841965612e+00 0.0 
4.412841965612e+00 -2.143218690341e+02 0.0 
0.0 0.0 -9.392005286549e+01 
-1.073137710098e+02 4.510578605205e+00 0.0 
4.510578605205e+00 -2.328959037038e+02 0.0 
0.0 0.0 -1.016629024141e+02 
-9.989050131537e+01 3.395062367229e+00 0.0 
3.395062367229e+00 -2.145207123946e+02 0.0 
0.0 0.0 -9.392336411297e+01 
-1.123506818592e+02 -3.483014387256e+00 0.0 
-3.483014387256e+00 -2.374408652361e+02 0.0 
0.0 0.0 -1.007009117817e+02 
-1.155034353173e+02 -2.674619750259e+00 0.0 
-2.674619750259e+00 -2.455706466000e+02 0.0 
0.0 0.0 -1.044732336996e+02 
-1.125301629198e+02 -2.407987830873e+00 0.0 
-2.407987830873e+00 -2.340489714722e+02 0.0 
0.0 0.0 -9.967496809228e+01 
-1.184858173180e+02 -1.905176479153e+00 0.0 
-1.905176479153e+00 -2.538177076071e+02 0.0 
0.0 0.0 -1.082097739037e+02 
-1.154307877571e+02 -1.555206480403e+00 0.0 
-1.555206480403e+00 -2.419959228232e+02 0.0 
0.0 0.0 -1.032773353545e+02 
-1.095582771110e+02 -1.921279706721e+00 0.0 
-1.921279706721e+00 -2.235577991131e+02 0.0 
0.0 0.0 -9.533659306980e+01 
-1.212112579135e+02 -1.163355333276e+00 0.0 
-1.163355333276e+00 -2.618054611399e+02 0.0 
0.0 0.0 -1.117783820214e+02 
-1.176986459576e+02 -9.148472055534e-01 0.0 
-9.148472055534e-01 -2.488096091454e+02 0.0 
0.0 0.0 -1.062793554420e+02 
-9.150895399885e+01 2.259503339407e+00 0.0 
2.259503339407e+00 -1.944261916616e+02 0.0 
0.0 0.0 -8.538054369815e+01 
-4.315013039172e+01 -2.353798152117e+01 0.0 
-2.353798152117e+01 -4.737417385516e+01 0.0 
0.0 0.0 -2.711979336363e+01 
-4.184154954205e+01 -2.334029937426e+01 0.0 
-2.334029937426e+01 -5.915732297329e+01 0.0 
0.0 0.0 -2.649815147529e+01 
-3.690208203832e+01 -1.438602167727e+01 0.0 
-1.438602167727e+01 -4.476364982144e+01 0.0 
0.0 0.0 -1.919986013013e+01 
-4.546063518947e+01 -2.052061246701e+01 0.0 
-2.052061246701e+01 -7.259122785768e+01 0.0 
0.0 0.0 -2.891137981629e+01 
-4.319689271367e+01 -2.334846716232e+01 0.0 
-2.334846716232e+01 -8.899092488738e+01 0.0 
0.0 0.0 -3.595601901416e+01 
-4.829677387439e+01 -2.017831572864e+01 0.0 
-2.017831572864e+01 -9.981742283571e+01 0.0 
0.0 0.0 -3.879129838745e+01 
-4.381887353468e+01 -1.972914413095e+01 0.0 
-1.972914413095e+01 -1.090652781996e+02 0.0 
0.0 0.0 -4.147906973306e+01 
-4.049840930703e+01 -2.734619393043e+01 0.0 
-2.734619393043e+01 -8.257428481383e+01 0.0 
0.0 0.0 -3.696141562229e+01 
-2.190271237487e+01 -5.412943192485e+00 0.0 
-5.412943192485e+00 -2.018492284014e+01 0.0 
0.0 0.0 -1.090438463178e+01 
-3.105982116577e+01 -8.316901075956e+00 0.0 
-8.316901075956e+00 -3.907977217344e+01 0.0 
0.0 0.0 -1.701039067399e+01 
-1.656351035424e+01 -2.127531679407e+00 0.0 
-2.127531679407e+00 -1.836020727507e+01 0.0 
0.0 0.0 -9.053384315567e+00 
-2.601453877108e+01 -4.690131678600e+00 0.0 
-4.690131678600e+00 -3.600609639239e+01 0.0 
0.0 0.0 -1.528071688033e+01 
-3.954680715263e+01 -1.003681790370e+01 0.0 
-1.003681790370e+01 -5.913722966913e+01 0.0 
0.0 0.0 -2.444693967072e+01 
-4.365449622368e+01 -8.376206695724e+00 0.0 
-8.376206695724e+00 -8.136749894555e+01 0.0 
0.0 0.0 -3.377057838594e+01 
-1.636870038071e+02 -1.891455508298e-01 0.0 
-1.891455508298e-01 -3.835882642800e+02 0.0 
0.0 0.0 -1.637825804262e+02 
-9.816200722909e+01 -9.132296550279e-01 0.0 
-9.132296550279e-01 -1.917886549333e+02 0.0 
0.0 0.0 -8.176892989655e+01 
-9.379021886278e+01 -1.875558150079e+00 0.0 
-1.875558150079e+00 -1.821098633453e+02 0.0 
0.0 0.0 -7.737661784164e+01 
-8.482798113036e+01 -1.919706201667e+00 0.0 
-1.919706201667e+00 -1.623400625672e+02 0.0 
0.0 0.0 -6.874736978723e+01 
-8.961572232466e+01 -2.769177339263e+00 0.0 
-2.769177339263e+00 -1.735014642274e+02 0.0 
0.0 0.0 -7.329338600028e+01 
-1.013532617641e+02 -1.725239068671e+00 0.0 
-1.725239068671e+00 -2.001448544338e+02 0.0 
0.0 0.0 -8.525332708649e+01 
-7.921693243359e+01 -9.639824447717e-01 0.0 
-9.639824447717e-01 -1.511292280865e+02 0.0 
0.0 0.0 -6.399432999866e+01 
-7.487697948093e+01 -1.871208805837e+00 0.0 
-1.871208805837e+00 -1.440031978532e+02 0.0 
0.0 0.0 -6.063413545452e+01 
-1.148211811890e+01 1.599233965573e-01 0.0 
1.599233965573e-01 -1.715890177537e+01 0.0 
0.0 0.0 -6.523119175145e+00 
-1.391570170188e+01 9.410102800763e-02 0.0 
9.410102800763e-02 -3.352648174586e+01 0.0 
0.0 0.0 -1.154498072695e+01 
-1.366540002726e+01 -9.055016360278e-02 0.0 
-9.055016360278e-02 -3.185087789882e+01 0.0 
0.0 0.0 -1.099878381734e+01 
-1.718369257949e+01 -1.942081593723e-01 0.0 
-1.942081593723e-01 -5.015201606297e+01 0.0 
0.0 0.0 -1.814510562470e+01 
-1.747752310630e+01 -1.531373578122e-01 0.0 
-1.531373578122e-01 -4.990278891355e+01 0.0 
0.0 0.0 -1.812595804026e+01 
-1.434638744531e+01 2.925755481790e-02 0.0 
2.925755481790e-02 -3.394867691738e+01 0.0 
0.0 0.0 -1.177591601571e+01 
-1.448818045050e+01 -1.001856399487e-01 0.0 
-1.001856399487e-01 -3.398046542713e+01 0.0 
0.0 0.0 -1.190520314673e+01 
-1.142732001311e+01 7.309962911991e-02 0.0 
7.309962911991e-02 -1.700546928018e+01 0.0 
0.0 0.0 -6.454835310507e+00 
-1.473880380603e+01 -9.752015873041e-02 0.0 
-9.752015873041e-02 -3.374263313407e+01 0.0 
0.0 0.0 -1.207324807943e+01 
-1.891100451597e+01 -6.057036723436e-01 0.0 
-6.057036723436e-01 -5.083107515147e+01 0.0 
0.0 0.0 -1.885429905797e+01 
-1.132791439398e+01 6.453311824933e-02 0.0 
6.453311824933e-02 -1.641685585155e+01 0.0 
0.0 0.0 -6.327207613599e+00 
-1.262527888116e+02 3.903844773977e-01 0.0 
3.903844773977e-01 -2.851537966487e+02 0.0 
0.0 0.0 -1.230219756381e+02 
-1.303899078533e+02 6.691861122379e-01 0.0 
6.691861122379e-01 -2.959839943547e+02 0.0 
0.0 0.0 -1.275121706624e+02 
-1.641246397149e+02 1.481445775579e+00 0.0 
1.481445775579e+00 -3.871744694521e+02 0.0 
0.0 0.0 -1.649897327501e+02 
-9.153241220513e+01 1.630917079522e+00 0.0 
1.630917079522e+00 -1.959574175456e+02 0.0 
0.0 0.0 -8.584694892522e+01 
-1.243761182616e+01 1.227834619656e-01 0.0 
1.227834619656e-01 -1.687674695956e+01 0.0 
0.0 0.0 -8.110178982282e+00 
-1.529590827070e+02 1.907350419450e+00 0.0 
1.907350419450e+00 -3.553550646670e+02 0.0 
0.0 0.0 -1.520942442122e+02 
-1.546919952184e+02 3.358057627904e+00 0.0 
3.358057627904e+00 -3.594747702135e+02 0.0 
0.0 0.0 -1.538500296296e+02 
-1.546837292699e+02 2.822929685058e+00 0.0 
2.822929685058e+00 -3.594954620858e+02 0.0 
0.0 0.0 -1.538537574067e+02 
-1.506792194211e+02 -1.071650927046e-01 0.0 
-1.071650927046e-01 -3.524652509835e+02 0.0 
0.0 0.0 -1.505433411214e+02 
-1.549130396090e+02 -1.268505432472e-01 0.0 
-1.268505432472e-01 -3.623600091340e+02 0.0 
0.0 0.0 -1.547819146229e+02 
-1.529384413357e+02 1.066106840763e+00 0.0 
1.066106840763e+00 -3.556084554198e+02 0.0 
0.0 0.0 -1.521640690267e+02 
-6.609025900181e+01 -9.899913546166e+00 0.0 
-9.899913546166e+00 -1.311570643566e+02 0.0 
0.0 0.0 -5.509854549793e+01 
-1.486446118127e+02 7.093544999112e+00 0.0 
7.093544999112e+00 -3.428542056905e+02 0.0 
0.0 0.0 -1.470496452510e+02 
-1.401740439677e+02 1.969332500365e+00 0.0 
1.969332500365e+00 -3.209711162345e+02 0.0 
0.0 0.0 -1.379435480607e+02 
-4.676731226137e+01 1.922208211231e+01 0.0 
1.922208211231e+01 -1.231625445752e+02 0.0 
0.0 0.0 -4.652088344817e+01 
-6.436512739178e+01 -1.449589384011e+01 0.0 
-1.449589384011e+01 -1.313531913348e+02 0.0 
0.0 0.0 -5.578801043247e+01 
-1.289380390166e+02 -9.246464436543e-01 0.0 
-9.246464436543e-01 -2.932111494638e+02 0.0 
0.0 0.0 -1.251012356233e+02 
-1.192861201544e+02 -2.840948083501e+00 0.0 
-2.840948083501e+00 -2.726123341317e+02 0.0 
0.0 0.0 -1.154316571654e+02 
-1.425765412709e+02 -3.817817833556e-01 0.0 
-3.817817833556e-01 -3.352691993908e+02 0.0 
0.0 0.0 -1.429537221985e+02 
-1.233910525065e+02 -1.999825663454e+00 0.0 
-1.999825663454e+00 -2.767198100327e+02 0.0 
0.0 0.0 -1.177579413851e+02 
-1.349011330615e+02 -6.934920962030e-01 0.0 
-6.934920962030e-01 -3.192452043791e+02 0.0 
0.0 0.0 -1.357991507216e+02 
-1.547646407738e+02 3.754470173467e+00 0.0 
3.754470173467e+00 -3.695874289477e+02 0.0 
0.0 0.0 -1.569056209165e+02 
-3.137655414117e+01 -1.615750455475e+00 0.0 
-1.615750455475e+00 -7.937349370840e+01 0.0 
0.0 0.0 -3.144049322893e+01 
-1.126717377950e+02 2.056543503938e+00 0.0 
2.056543503938e+00 -2.490142455114e+02 0.0 
0.0 0.0 -1.081057949919e+02 
-1.092291083129e+02 1.164187984754e+00 0.0 
1.164187984754e+00 -2.413428956962e+02 0.0 
0.0 0.0 -1.047716012028e+02 
-1.286232639730e+02 2.017598239796e+00 0.0 
2.017598239796e+00 -2.903791100150e+02 0.0 
0.0 0.0 -1.253007121964e+02 
-6.944599361318e+01 -5.845405227621e+00 0.0 
-5.845405227621e+00 -1.355631925401e+02 0.0 
0.0 0.0 -5.558512546804e+01 
-1.060019985614e+02 -2.790363438917e+00 0.0 
-2.790363438917e+00 -2.146853080151e+02 0.0 
0.0 0.0 -9.124199529150e+01 
-4.058075612038e+01 -5.533270304898e+00 0.0 
-5.533270304898e+00 -8.535145028340e+01 0.0 
0.0 0.0 -3.400971381286e+01 
-1.531772347225e+02 8.631745481922e+00 0.0 
8.631745481922e+00 -3.598349981111e+02 0.0 
0.0 0.0 -1.535036698501e+02 
-9.868211365046e+01 8.526962494557e+00 0.0 
8.526962494557e+00 -2.072549185235e+02 0.0 
0.0 0.0 -8.894341837072e+01 
-9.992925944197e+01 -6.204299782212e+00 0.0 
-6.204299782212e+00 -2.349350312154e+02 0.0 
0.0 0.0 -1.011776881289e+02 
-9.003556658901e+01 -7.007877359980e+00 0.0 
-7.007877359980e+00 -1.810838647436e+02 0.0 
0.0 0.0 -7.595692329532e+01 
-7.139631797213e+01 -1.121260675433e+01 0.0 
-1.121260675433e+01 -1.443147870454e+02 0.0 
0.0 0.0 -6.115488411299e+01 
-6.177805348466e+01 -1.545294063256e+01 0.0 
-1.545294063256e+01 -1.264974701366e+02 0.0 
0.0 0.0 -5.315686814534e+01 
-8.943938281967e+01 1.429077732583e+01 0.0 
1.429077732583e+01 -2.027259737265e+02 0.0 
0.0 0.0 -8.702801635793e+01 
-1.002417647189e+02 -7.107376595805e+00 0.0 
-7.107376595805e+00 -2.183586021660e+02 0.0 
0.0 0.0 -9.289645411086e+01 
-1.270662984783e+02 -7.163822141785e-01 0.0 
-7.163822141785e-01 -3.069377008914e+02 0.0 
0.0 0.0 -1.297618576914e+02 
-1.326573510138e+02 1.808474252256e+00 0.0 
1.808474252256e+00 -3.011489213683e+02 0.0 
0.0 0.0 -1.297418817146e+02 
-1.233659490687e+01 1.663889050623e-01 0.0 
1.663889050623e-01 -1.883735375259e+01 0.0 
0.0 0.0 -8.020463099447e+00 
-1.312967527194e+02 -7.574637811947e-02 0.0 
-7.574637811947e-02 -3.181115133603e+02 0.0 
0.0 0.0 -1.344224798239e+02 
-1.125521559546e+02 -4.054671463616e+00 0.0 
-4.054671463616e+00 -2.573124134897e+02 0.0 
0.0 0.0 -1.086148620641e+02 
-1.162304052054e+02 3.202923576493e+00 0.0 
3.202923576493e+00 -2.571905709627e+02 0.0 
0.0 0.0 -1.116262928504e+02 
-1.273458401575e+02 5.343752416360e+00 0.0 
5.343752416360e+00 -3.145228537184e+02 0.0 
0.0 0.0 -1.323806776686e+02 
-5.255339295947e+01 -1.854175879930e+01 0.0 
-1.854175879930e+01 -1.015602254836e+02 0.0 
0.0 0.0 -4.013022824677e+01 
-1.318508999143e+02 3.121465328054e+00 0.0 
3.121465328054e+00 -2.981694911606e+02 0.0 
0.0 0.0 -1.286061173225e+02 
-1.455082695871e+02 5.106711465236e+00 0.0 
5.106711465236e+00 -3.343784373481e+02 0.0 
0.0 0.0 -1.435660120806e+02 
-1.082379357271e+02 3.733930278276e+00 0.0 
3.733930278276e+00 -2.360334920023e+02 0.0 
0.0 0.0 -1.028814283188e+02 
-2.846438048984e+01 -3.212493823625e+00 0.0 
-3.212493823625e+00 -6.490815291668e+01 0.0 
0.0 0.0 -2.517845478410e+01 
-1.045121999136e+02 1.745311181447e+00 0.0 
1.745311181447e+00 -2.288110359087e+02 0.0 
0.0 0.0 -9.959697074669e+01 
-1.496720658937e+02 1.806773040747e+00 0.0 
1.806773040747e+00 -3.586652235667e+02 0.0 
0.0 0.0 -1.521011868381e+02 
-1.308768681898e+02 5.376778499918e+00 0.0 
5.376778499918e+00 -2.952594044565e+02 0.0 
0.0 0.0 -1.274408817939e+02 
-6.267191577746e+01 -4.647162620530e+00 0.0 
-4.647162620530e+00 -1.233765022426e+02 0.0 
0.0 0.0 -5.018684165642e+01 
-9.189160599048e+01 1.645545183581e+00 0.0 
1.645545183581e+00 -2.421306855488e+02 0.0 
0.0 0.0 -1.048688401637e+02 
-9.691020456628e+01 1.166358032360e+01 0.0 
1.166358032360e+01 -2.092668328439e+02 0.0 
0.0 0.0 -8.872134499206e+01 
-8.841935941888e+01 4.562027283827e+00 0.0 
4.562027283827e+00 -1.794159124182e+02 0.0 
0.0 0.0 -7.876415617155e+01 
-1.433848820613e+02 2.362925133642e+00 0.0 
2.362925133642e+00 -3.295910622218e+02 0.0 
0.0 0.0 -1.414927832849e+02 
-9.814128329070e+01 1.086165453176e+01 0.0 
1.086165453176e+01 -2.406927514420e+02 0.0 
0.0 0.0 -1.036071054767e+02 
-1.361852435569e+02 4.323062118468e+00 0.0 
4.323062118468e+00 -3.328253072293e+02 0.0 
0.0 0.0 -1.403031652358e+02 
-1.073059188334e+02 2.888860320702e+00 0.0 
2.888860320702e+00 -2.774758912858e+02 0.0 
0.0 0.0 -1.193154375703e+02 
-6.786576983590e+01 -3.698094550914e+00 0.0 
-3.698094550914e+00 -1.319898030510e+02 0.0 
0.0 0.0 -5.436244002435e+01 
-1.397717926915e+02 -9.905105039791e-02 0.0 
-9.905105039791e-02 -3.339732578050e+02 0.0 
0.0 0.0 -1.417235151490e+02 
-9.067647938542e+01 8.189023482104e+00 0.0 
8.189023482104e+00 -2.339191289905e+02 0.0 
0.0 0.0 -1.007120974835e+02 
-1.393931526071e+02 3.397924739424e+00 0.0 
3.397924739424e+00 -3.180577648948e+02 0.0 
0.0 0.0 -1.368352752506e+02 
-1.251629631007e+02 9.097301988468e+00 0.0 
9.097301988468e+00 -2.944462271085e+02 0.0 
0.0 0.0 -1.254827570627e+02 
-7.674893558305e+01 4.593879943537e+00 0.0 
4.593879943537e+00 -2.028325706362e+02 0.0 
0.0 0.0 -8.272278713927e+01 
-1.350865279991e+02 4.383158314182e+00 0.0 
4.383158314182e+00 -3.062426649306e+02 0.0 
0.0 0.0 -1.319987578789e+02 
-9.608776862970e+01 -5.088330638728e+00 0.0 
-5.088330638728e+00 -2.385840821940e+02 0.0 
0.0 0.0 -1.031193348012e+02 
-1.327151227451e+02 5.878920480731e+00 0.0 
5.878920480731e+00 -3.240948991916e+02 0.0 
0.0 0.0 -1.366430065810e+02 
-9.554831938311e+01 9.116074643664e+00 0.0 
9.116074643664e+00 -1.978714346457e+02 0.0 
0.0 0.0 -8.417719650617e+01 
-1.110545776116e+02 1.011112600214e+01 0.0 
1.011112600214e+01 -2.566026148328e+02 0.0 
0.0 0.0 -1.092961026218e+02 
-1.202895087474e+02 8.478334033504e+00 0.0 
8.478334033504e+00 -2.741377241269e+02 0.0 
0.0 0.0 -1.179281698623e+02 
-1.055175342053e+02 1.074450429320e+01 0.0 
1.074450429320e+01 -2.490756232914e+02 0.0 
0.0 0.0 -1.055594925686e+02 
-1.265630426246e+02 -8.777789887929e-01 0.0 
-8.777789887929e-01 -2.820073878965e+02 0.0 
0.0 0.0 -1.203953173371e+02 
-1.355707067658e+02 -1.086158859842e-01 0.0 
-1.086158859842e-01 -3.260550959958e+02 0.0 
0.0 0.0 -1.380877408285e+02 
-4.310229984814e+01 -7.217841316120e+00 0.0 
-7.217841316120e+00 -1.345327995556e+02 0.0 
0.0 0.0 -5.185897450471e+01 
-7.630974223320e+01 1.718006244816e+01 0.0 
1.718006244816e+01 -1.638857000486e+02 0.0 
0.0 0.0 -7.063147066142e+01 
-1.160997696582e+02 3.992061937221e+00 0.0 
3.992061937221e+00 -2.562365407392e+02 0.0 
0.0 0.0 -1.113008931192e+02 
-1.398521147559e+02 8.373363260319e+00 0.0 
8.373363260319e+00 -3.319955640791e+02 0.0 
0.0 0.0 -1.411543036505e+02 
-1.468192907220e+02 3.601271807831e+00 0.0 
3.601271807831e+00 -3.377346173969e+02 0.0 
0.0 0.0 -1.449661724357e+02 
-9.067002634586e+01 1.223561364978e+01 0.0 
1.223561364978e+01 -1.895437975770e+02 0.0 
0.0 0.0 -8.064848441450e+01 
-1.352699881145e+02 -4.845194010740e-01 0.0 
-4.845194010740e-01 -3.226292733123e+02 0.0 
0.0 0.0 -1.369697784280e+02 
-1.422741770865e+02 4.624600246427e+00 0.0 
4.624600246427e+00 -3.255754706282e+02 0.0 
0.0 0.0 -1.399548943144e+02 
-1.044862576491e+02 -6.026501254955e+00 0.0 
-6.026501254955e+00 -2.259404743707e+02 0.0 
0.0 0.0 -9.540773281281e+01 
-3.976620692804e+01 -6.345459396165e-01 0.0 
-6.345459396165e-01 -9.084569959747e+01 0.0 
0.0 0.0 -3.692425587628e+01 
-4.269270440955e+01 2.297581488721e+01 0.0 
2.297581488721e+01 -1.084941301466e+02 0.0 
0.0 0.0 -4.229491411771e+01 
-6.336691939692e+01 5.344771185216e+00 0.0 
5.344771185216e+00 -1.734943998594e+02 0.0 
0.0 0.0 -6.754832476708e+01 
-9.352974882104e+01 1.098093407906e+01 0.0 
1.098093407906e+01 -2.322494451505e+02 0.0 
0.0 0.0 -1.002811286772e+02 
-1.106424675147e+02 -4.735630140664e+00 0.0 
-4.735630140664e+00 -2.455385478552e+02 0.0 
0.0 0.0 -1.035272814753e+02 
-1.497934033951e+02 6.486309031389e+00 0.0 
6.486309031389e+00 -3.459856830340e+02 0.0 
0.0 0.0 -1.483337259287e+02 
-1.393350807632e+02 -4.010889605042e-01 0.0 
-4.010889605042e-01 -3.305345057495e+02 0.0 
0.0 0.0 -1.405608759538e+02 
-1.267196897216e+02 1.164343485285e+00 0.0 
1.164343485285e+00 -3.125984972438e+02 0.0 
0.0 0.0 -1.313954560896e+02 
-4.322168413849e+01 2.506282197120e+01 0.0 
2.506282197120e+01 -4.398146380159e+01 0.0 
0.0 0.0 -2.366449575868e+01 
-9.194212078263e+01 5.411990281858e+00 0.0 
5.411990281858e+00 -1.882401699279e+02 0.0 
0.0 0.0 -8.223883068385e+01 
-1.433683236218e+02 -3.186757912472e-01 0.0 
-3.186757912472e-01 -3.385907197620e+02 0.0 
0.0 0.0 -1.441877130151e+02 
-9.558194819996e+01 1.343694110401e-01 0.0 
1.343694110401e-01 -2.499784258166e+02 0.0 
0.0 0.0 -1.087197286775e+02 
-1.367940283224e+02 5.432309907705e+00 0.0 
5.432309907705e+00 -3.328645674531e+02 0.0 
0.0 0.0 -1.404975787327e+02 
-1.118023419454e+02 -1.188245803313e+00 0.0 
-1.188245803313e+00 -2.296926659088e+02 0.0 
0.0 0.0 -9.811373815893e+01 
-1.531457399579e+02 8.522326926035e+00 0.0 
8.522326926035e+00 -3.606583592095e+02 0.0 
0.0 0.0 -1.537412297502e+02 
-7.841595993568e+01 6.876271662693e+00 0.0 
6.876271662693e+00 -1.498256525073e+02 0.0 
0.0 0.0 -6.316609620451e+01 
-1.473904019768e+02 -2.593246392020e-01 0.0 
-2.593246392020e-01 -3.470167663070e+02 0.0 
0.0 0.0 -1.479221504852e+02 
-1.264911453731e+02 2.546580945131e+00 0.0 
2.546580945131e+00 -3.138238281160e+02 0.0 
0.0 0.0 -1.318624164576e+02 
-6.835017138713e+01 1.713924435947e+01 0.0 
1.713924435947e+01 -1.616707552377e+02 0.0 
0.0 0.0 -6.609707304510e+01 
-8.889651793412e+01 2.756535146931e-01 0.0 
2.756535146931e-01 -1.926840166927e+02 0.0 
0.0 0.0 -8.407416038805e+01 
-1.571382188095e+02 -1.390762697332e-01 0.0 
-1.390762697332e-01 -3.690962673444e+02 0.0 
0.0 0.0 -1.574703458462e+02 
-1.360134540800e+02 3.049077035301e+00 0.0 
3.049077035301e+00 -3.327100626852e+02 0.0 
0.0 0.0 -1.402170550296e+02 
-1.112729585715e+02 9.857720414698e+00 0.0 
9.857720414698e+00 -2.676249643559e+02 0.0 
0.0 0.0 -1.131470648558e+02 
-9.300339591019e+01 -2.361649839140e+00 0.0 
-2.361649839140e+00 -2.407376064484e+02 0.0 
0.0 0.0 -1.042354456392e+02 
-8.196756654489e+01 4.750003324359e+00 0.0 
4.750003324359e+00 -1.603701161240e+02 0.0 
0.0 0.0 -6.969511869258e+01 
-1.140693472716e+02 -4.005724612499e+00 0.0 
-4.005724612499e+00 -2.531958494403e+02 0.0 
0.0 0.0 -1.068437735635e+02 
-1.148043981391e+02 9.679526269121e+00 0.0 
9.679526269121e+00 -2.655494117055e+02 0.0 
0.0 0.0 -1.135058607276e+02 
-1.562808389817e+02 5.758365776875e+00 0.0 
5.758365776875e+00 -3.633259834559e+02 0.0 
0.0 0.0 -1.554820467313e+02 
-1.405422986953e+02 3.874212836586e+00 0.0 
3.874212836586e+00 -3.415980095776e+02 0.0 
0.0 0.0 -1.442420924819e+02 
-1.189812131468e+02 6.284128041767e+00 0.0 
6.284128041767e+00 -2.647736307728e+02 0.0 
0.0 0.0 -1.147264531759e+02 
-1.117452040860e+02 -4.289240957568e+00 0.0 
-4.289240957568e+00 -2.413368374649e+02 0.0 
0.0 0.0 -1.018371054452e+02 
-1.144967648675e+02 7.380360149800e+00 0.0 
7.380360149800e+00 -2.864948881744e+02 0.0 
0.0 0.0 -1.209920891500e+02 
-1.797421643808e+01 -2.366000864172e-01 0.0 
-2.366000864172e-01 -5.014460999799e+01 0.0 
0.0 0.0 -1.834983247064e+01 
-8.570618358251e+01 5.828364535275e+00 0.0 
5.828364535275e+00 -1.693772960553e+02 0.0 
0.0 0.0 -7.315140521010e+01 
-1.150064821695e+02 -3.511557603177e+00 0.0 
-3.511557603177e+00 -2.491640590798e+02 0.0 
0.0 0.0 -1.055969360174e+02 
-6.668036071427e+01 1.026248298695e+00 0.0 
1.026248298695e+00 -1.808913909937e+02 0.0 
0.0 0.0 -7.139710934914e+01 
-9.787668741090e+01 -2.743030396498e+00 0.0 
-2.743030396498e+00 -2.487546762771e+02 0.0 
0.0 0.0 -1.078304220095e+02 
-1.520026663053e+02 6.854352312922e+00 0.0 
6.854352312922e+00 -3.613196832139e+02 0.0 
0.0 0.0 -1.535967048558e+02 
-1.181155691322e+02 -2.765492623803e+00 0.0 
-2.765492623803e+00 -2.571569942167e+02 0.0 
0.0 0.0 -1.093027256396e+02 
-7.335407940120e+01 1.176024900468e+00 0.0 
1.176024900468e+00 -1.954441493795e+02 0.0 
0.0 0.0 -7.901123420063e+01 
-1.210688698026e+02 -2.062458204477e+00 0.0 
-2.062458204477e+00 -2.652542698856e+02 0.0 
0.0 0.0 -1.129732208200e+02 
-7.464192384315e+01 5.414535446211e+00 0.0 
5.414535446211e+00 -1.411761714597e+02 0.0 
0.0 0.0 -6.004902415198e+01 
-1.223568529715e+02 6.817186040621e+00 0.0 
6.817186040621e+00 -2.744509850725e+02 0.0 
0.0 0.0 -1.186423514132e+02 
-1.238723540379e+02 -1.398746512598e+00 0.0 
-1.398746512598e+00 -2.734227939201e+02 0.0 
0.0 0.0 -1.166337546500e+02 
-1.219913718987e+02 9.198392467563e+00 0.0 
9.198392467563e+00 -2.845600176898e+02 0.0 
0.0 0.0 -1.215654168766e+02 
-2.064006778802e+01 -8.840948673811e-01 0.0 
-8.840948673811e-01 -5.253552192843e+01 0.0 
0.0 0.0 -1.982676185431e+01 
-1.135437594025e+02 9.086759597029e+00 0.0 
9.086759597029e+00 -2.769656540325e+02 0.0 
0.0 0.0 -1.169746117115e+02 
-1.461655196278e+02 -2.089119767036e-01 0.0 
-2.089119767036e-01 -3.419919129666e+02 0.0 
0.0 0.0 -1.460472297783e+02 
-7.951246480766e+01 -1.243588440252e+01 0.0 
-1.243588440252e+01 -1.711047837845e+02 0.0 
0.0 0.0 -7.309435692794e+01 
-1.031318390987e+02 -2.507205573338e+00 0.0 
-2.507205573338e+00 -2.567104324704e+02 0.0 
0.0 0.0 -1.109881754033e+02 
-1.298498970721e+02 6.949511753920e+00 0.0 
6.949511753920e+00 -2.942638592038e+02 0.0 
0.0 0.0 -1.268341268828e+02 
-6.624127057460e+01 7.005984956175e+00 0.0 
7.005984956175e+00 -1.209266795691e+02 0.0 
0.0 0.0 -5.089161094775e+01 
-1.097179329187e+02 -6.790066012335e-01 0.0 
-6.790066012335e-01 -2.749820594930e+02 0.0 
0.0 0.0 -1.176539039528e+02 
-1.298474567073e+02 8.869392618362e+00 0.0 
8.869392618362e+00 -3.036404056980e+02 0.0 
0.0 0.0 -1.296463587216e+02 
-1.163931976867e+02 8.220341792698e+00 0.0 
8.220341792698e+00 -2.861519205769e+02 0.0 
0.0 0.0 -1.206833295565e+02 
-9.965777352672e+01 9.503405798768e+00 0.0 
9.503405798768e+00 -2.501771658178e+02 0.0 
0.0 0.0 -1.078918050089e+02 
-1.176951534605e+02 3.597321410766e-01 0.0 
3.597321410766e-01 -2.936165164570e+02 0.0 
0.0 0.0 -1.238622012647e+02 
-6.992487766741e+01 9.050251533820e+00 0.0 
9.050251533820e+00 -1.293095169408e+02 0.0 
0.0 0.0 -5.514121981607e+01 
-6.221762291839e+01 -1.142176035487e+01 0.0 
-1.142176035487e+01 -1.232720655233e+02 0.0 
0.0 0.0 -5.208691883503e+01 
-5.298105685238e+01 -1.052511188362e+01 0.0 
-1.052511188362e+01 -1.023419260753e+02 0.0 
0.0 0.0 -4.300553474981e+01 
-7.667182820629e+01 -2.146435910389e+00 0.0 
-2.146435910389e+00 -2.018500613679e+02 0.0 
0.0 0.0 -8.309222507152e+01 
-1.344351606523e+02 8.646630491921e+00 0.0 
8.646630491921e+00 -3.130000575711e+02 0.0 
0.0 0.0 -1.338305654670e+02 
-2.280722201258e+01 -6.585367703468e-01 0.0 
-6.585367703468e-01 -6.658091193496e+01 0.0 
0.0 0.0 -2.567039616348e+01 
-1.289612643302e+02 7.695396405777e+00 0.0 
7.695396405777e+00 -2.937243729596e+02 0.0 
0.0 0.0 -1.264056911869e+02 
-4.248689469289e+01 -8.426568304713e+00 0.0 
-8.426568304713e+00 -7.444084159893e+01 0.0 
0.0 0.0 -3.092157035428e+01 
-7.404324784805e+01 -5.832137720727e+00 0.0 
-5.832137720727e+00 -1.925206398655e+02 0.0 
0.0 0.0 -7.923646340355e+01 
-1.295803474490e+02 7.174877593979e+00 0.0 
7.174877593979e+00 -3.148519089202e+02 0.0 
0.0 0.0 -1.329296769107e+02 
-1.110480540978e+02 3.955036786527e-01 0.0 
3.955036786527e-01 -2.467850272098e+02 0.0 
0.0 0.0 -1.069499243923e+02 
-7.792634063312e+01 -8.059447427341e+00 0.0 
-8.059447427341e+00 -1.975346187365e+02 0.0 
0.0 0.0 -8.327184760294e+01 
-5.462972388505e+01 -7.846876076805e-01 0.0 
-7.846876076805e-01 -1.110185572546e+02 0.0 
0.0 0.0 -4.609996081809e+01 
-7.562381659641e+01 -1.094412607531e+01 0.0 
-1.094412607531e+01 -1.863933651269e+02 0.0 
0.0 0.0 -7.871923506275e+01 
-1.061014410922e+02 8.313661067806e+00 0.0 
8.313661067806e+00 -2.681904317319e+02 0.0 
0.0 0.0 -1.145295455535e+02 
-7.980341011886e+01 -1.184374468980e+01 0.0 
-1.184374468980e+01 -1.916124937566e+02 0.0 
0.0 0.0 -8.165531044317e+01 
-7.741992870024e+01 -1.341119566803e+01 0.0 
-1.341119566803e+01 -1.787100944080e+02 0.0 
0.0 0.0 -7.614941254320e+01 
-1.475200298098e+02 2.181705655520e+00 0.0 
2.181705655520e+00 -3.406456577705e+02 0.0 
0.0 0.0 -1.460497062741e+02 
-8.256444921910e+01 -1.213995674398e+01 0.0 
-1.213995674398e+01 -1.842969588267e+02 0.0 
0.0 0.0 -7.887926438545e+01 
-1.544242270561e+02 6.905136126981e-01 0.0 
6.905136126981e-01 -3.589484939345e+02 0.0 
0.0 0.0 -1.536118162972e+02 
-1.642798359217e+02 -5.760098909438e-02 0.0 
-5.760098909438e-02 -3.844729932881e+02 0.0 
0.0 0.0 -1.642258487629e+02 
-9.502697056058e+01 2.859834762113e-01 0.0 
2.859834762113e-01 -2.076615433680e+02 0.0 
0.0 0.0 -9.040655417857e+01 
-5.650334646070e+01 8.627726037915e+00 0.0 
8.627726037915e+00 -9.925501818922e+01 0.0 
0.0 0.0 -4.279944084032e+01 
-7.311065466664e+01 1.733698185372e+00 0.0 
1.733698185372e+00 -1.118536949858e+02 0.0 
0.0 0.0 -5.636905345892e+01 
-6.173982301999e+01 1.267270208597e+01 0.0 
1.267270208597e+01 -1.096338917875e+02 0.0 
0.0 0.0 -4.834904536611e+01 
-7.161664243540e+01 -1.390322148576e+01 0.0 
-1.390322148576e+01 -1.512706939915e+02 0.0 
0.0 0.0 -6.449837009615e+01 
-1.277459704676e+02 8.331153259195e+00 0.0 
8.331153259195e+00 -2.933167755948e+02 0.0 
0.0 0.0 -1.259188238187e+02 
-9.544828718625e+01 2.726576501476e-01 0.0 
2.726576501476e-01 -2.084463754279e+02 0.0 
0.0 0.0 -9.076839878424e+01 
-6.754668811512e+01 -1.300639768674e+01 0.0 
-1.300639768674e+01 -1.372820761431e+02 0.0 
0.0 0.0 -5.839075739891e+01 
-1.519513072610e+02 8.167613803836e+00 0.0 
8.167613803836e+00 -3.529672706278e+02 0.0 
0.0 0.0 -1.510755733666e+02 
-1.610964247616e+02 8.379310230676e+00 0.0 
8.379310230676e+00 -3.788043160982e+02 0.0 
0.0 0.0 -1.615702222580e+02 
-1.224806595670e+02 5.638433616247e-01 0.0 
5.638433616247e-01 -2.755116980129e+02 0.0 
0.0 0.0 -1.189977072740e+02 
-1.407128678527e+02 4.963416781994e+00 0.0 
4.963416781994e+00 -3.411473476903e+02 0.0 
0.0 0.0 -1.441580646629e+02 
-1.201389511974e+02 7.507568870544e+00 0.0 
7.507568870544e+00 -2.958086630459e+02 0.0 
0.0 0.0 -1.246116264340e+02 
-1.404918202970e+02 4.070543252837e-01 0.0 
4.070543252837e-01 -3.224500437630e+02 0.0 
0.0 0.0 -1.384825592180e+02 
-8.898008265208e+01 1.007586236400e+00 0.0 
1.007586236400e+00 -1.915148860992e+02 0.0 
0.0 0.0 -8.374849062539e+01 
-2.260756121915e+01 -2.732407277331e+00 0.0 
-2.732407277331e+00 -3.423373061259e+01 0.0 
0.0 0.0 -1.476967520059e+01 
-1.292779065033e+02 -3.717658535890e-01 0.0 
-3.717658535890e-01 -2.920313173922e+02 0.0 
0.0 0.0 -1.247276319264e+02 
-4.878608373943e+01 1.049769775528e+01 0.0 
1.049769775528e+01 -7.907641784062e+01 0.0 
0.0 0.0 -3.519500100050e+01 
-5.307314002913e+01 1.505743395461e+01 0.0 
1.505743395461e+01 -8.742323915971e+01 0.0 
0.0 0.0 -3.894558836830e+01 
-4.843293926799e+01 1.927681305464e+01 0.0 
1.927681305464e+01 -7.399091215255e+01 0.0 
0.0 0.0 -3.263868408534e+01 
-7.182737243124e+01 -2.736933573566e+00 0.0 
-2.736933573566e+00 -1.386351029519e+02 0.0 
0.0 0.0 -5.784223274560e+01 
-4.260641679567e+01 -1.452761136266e+01 0.0 
-1.452761136266e+01 -6.128218744982e+01 0.0 
0.0 0.0 -2.472665993018e+01 
-4.520900555146e+01 1.270204254838e+01 0.0 
1.270204254838e+01 -6.559600473775e+01 0.0 
0.0 0.0 -2.981951150412e+01 
-1.540012508918e+02 5.728854242771e+00 0.0 
5.728854242771e+00 -3.669497827255e+02 0.0 
0.0 0.0 -1.558853100852e+02 
-9.754357168717e+01 2.214851884058e+00 0.0 
2.214851884058e+00 -2.100260545332e+02 0.0 
0.0 0.0 -9.187088786610e+01 
-1.343387567222e+02 7.533725496851e+00 0.0 
7.533725496851e+00 -3.235463321156e+02 0.0 
0.0 0.0 -1.369655266514e+02 
-4.200809066798e+01 1.642676662758e+01 0.0 
1.642676662758e+01 -5.030316902728e+01 0.0 
0.0 0.0 -2.371409373578e+01 
-1.492946175047e+02 4.976079035788e+00 0.0 
4.976079035788e+00 -3.445967400037e+02 0.0 
0.0 0.0 -1.477674072525e+02 
-1.532895364189e+02 7.562326460696e+00 0.0 
7.562326460696e+00 -3.632172953441e+02 0.0 
0.0 0.0 -1.545520495289e+02 
-1.650586554475e+02 6.670205935550e-01 0.0 
6.670205935550e-01 -3.882797644272e+02 0.0 
0.0 0.0 -1.656015259624e+02 
-1.434734594505e+02 7.464993240788e+00 0.0 
7.464993240788e+00 -3.425720103233e+02 0.0 
0.0 0.0 -1.454136409321e+02 
-4.464051115215e+01 2.603476872659e+01 0.0 
2.603476872659e+01 -6.803815963032e+01 0.0 
0.0 0.0 -2.939998623998e+01 
-1.055573577995e+02 4.068024164077e+00 0.0 
4.068024164077e+00 -2.284184990434e+02 0.0 
0.0 0.0 -9.979275705285e+01 
-1.527864826908e+02 8.759190463168e+00 0.0 
8.759190463168e+00 -3.583128184406e+02 0.0 
0.0 0.0 -1.529297903394e+02 
-1.288109522891e+02 8.308226258793e-01 0.0 
8.308226258793e-01 -2.912500630717e+02 0.0 
0.0 0.0 -1.256183046082e+02 
-1.658090521864e+02 -4.998986257843e-02 0.0 
-4.998986257843e-02 -3.888862594105e+02 0.0 
0.0 0.0 -1.660085934791e+02 
-9.737574483996e+01 2.730617346565e+00 0.0 
2.730617346565e+00 -2.083590966979e+02 0.0 
0.0 0.0 -9.132045246136e+01 
-1.483109967528e+02 1.377837813370e+00 0.0 
1.377837813370e+00 -3.429340953435e+02 0.0 
0.0 0.0 -1.469735276289e+02 
-4.210551980291e+01 -1.462827216874e+01 0.0 
-1.462827216874e+01 -1.222572493144e+02 0.0 
0.0 0.0 -4.626180881171e+01 
-1.483027669797e+02 6.648410248006e-01 0.0 
6.648410248006e-01 -3.429847959522e+02 0.0 
0.0 0.0 -1.469862688796e+02 
-1.353917232019e+02 8.290528664828e+00 0.0 
8.290528664828e+00 -3.127451897498e+02 0.0 
0.0 0.0 -1.340410738855e+02 
-1.057089435024e+02 7.712411263490e-01 0.0 
7.712411263490e-01 -2.327454840549e+02 0.0 
0.0 0.0 -1.011363282672e+02 
-1.057413889307e+02 4.815464764743e+00 0.0 
4.815464764743e+00 -2.287714764031e+02 0.0 
0.0 0.0 -9.995385960014e+01 
-1.588170436856e+02 -1.570174734596e-01 0.0 
-1.570174734596e-01 -3.717400783421e+02 0.0 
0.0 0.0 -1.587671366083e+02 
-1.511431305691e+02 7.610214448757e+00 0.0 
7.610214448757e+00 -3.503735977588e+02 0.0 
0.0 0.0 -1.500550184984e+02 
-4.238715611197e+01 2.985977872571e+01 0.0 
2.985977872571e+01 -7.245338446022e+01 0.0 
0.0 0.0 -3.213709644652e+01 
-1.222994880444e+02 6.104769208219e-01 0.0 
6.104769208219e-01 -2.744955705138e+02 0.0 
0.0 0.0 -1.186385175675e+02 
-8.964620742458e+01 -3.674728823615e+00 0.0 
-3.674728823615e+00 -1.742963223732e+02 0.0 
0.0 0.0 -7.319454370963e+01 
-3.947863155060e+01 -1.980316686571e+01 0.0 
-1.980316686571e+01 -1.054893069680e+02 0.0 
0.0 0.0 -4.482729678573e+01 
-1.568545146943e+02 9.680900826242e-01 0.0 
9.680900826242e-01 -3.721876417623e+02 0.0 
0.0 0.0 -1.583126469370e+02 
-1.426594452049e+02 8.307291614670e+00 0.0 
8.307291614670e+00 -3.311568103834e+02 0.0 
0.0 0.0 -1.417448766765e+02 
-1.580783366677e+02 -2.816373135374e-01 0.0 
-2.816373135374e-01 -3.709342229824e+02 0.0 
0.0 0.0 -1.583037678950e+02 
-1.667023588016e+01 -1.503384578986e-01 0.0 
-1.503384578986e-01 -4.942236650317e+01 0.0 
0.0 0.0 -1.774783921008e+01 
-1.642010136527e+01 -2.880672800769e-01 0.0 
-2.880672800769e-01 -3.115005550176e+01 0.0 
0.0 0.0 -1.277548793629e+01 
-1.577151272635e+02 2.058840461932e+00 0.0 
2.058840461932e+00 -3.750511768876e+02 0.0 
0.0 0.0 -1.594298912453e+02 
-1.532029875779e+02 8.572626023360e+00 0.0 
8.572626023360e+00 -3.573828293384e+02 0.0 
0.0 0.0 -1.527757450749e+02 
-4.835948434909e+01 -1.713759846225e+01 0.0 
-1.713759846225e+01 -1.198363693185e+02 0.0 
0.0 0.0 -4.491899430143e+01 
-1.564100710151e+02 4.352754653006e+00 0.0 
4.352754653006e+00 -3.640387074720e+02 0.0 
0.0 0.0 -1.557346335461e+02 
-4.248752751227e+01 3.381986847981e+01 0.0 
3.381986847981e+01 -7.637037677544e+01 0.0 
0.0 0.0 -3.658800391151e+01 
-8.874687207339e+01 1.130662085367e+00 0.0 
1.130662085367e+00 -1.896875420318e+02 0.0 
0.0 0.0 -8.313032423156e+01 
-1.494606778372e+01 1.602232434142e-02 0.0 
1.602232434142e-02 -3.216016406516e+01 0.0 
0.0 0.0 -1.190153210361e+01 
-1.655851221738e+02 1.846250609460e-01 0.0 
1.846250609460e-01 -3.880411946997e+02 0.0 
0.0 0.0 -1.656878950620e+02 
-1.492312781734e+02 3.256065718205e+00 0.0 
3.256065718205e+00 -3.449888301715e+02 0.0 
0.0 0.0 -1.478660325035e+02 
-9.766099310492e+01 -2.504141433517e+00 0.0 
-2.504141433517e+00 -1.913842215479e+02 0.0 
0.0 0.0 -8.130366518470e+01 
-9.377131755500e+01 4.001422680835e+00 0.0 
4.001422680835e+00 -1.978143755596e+02 0.0 
0.0 0.0 -8.701366307933e+01 
-6.344581510138e+01 -1.751742670893e+00 0.0 
-1.751742670893e+00 -1.250115712567e+02 0.0 
0.0 0.0 -5.215076574283e+01 
-1.469607490042e+02 8.166485957945e+00 0.0 
8.166485957945e+00 -3.478153481471e+02 0.0 
0.0 0.0 -1.480328291454e+02 
-3.318382077416e+01 -6.397539208609e+00 0.0 
-6.397539208609e+00 -4.969049427711e+01 0.0 
0.0 0.0 -2.073671512990e+01 
-1.496387448698e+02 2.601471080763e+00 0.0 
2.601471080763e+00 -3.463104493460e+02 0.0 
0.0 0.0 -1.483847582647e+02 
-1.575611010873e+02 3.340195224090e+00 0.0 
3.340195224090e+00 -3.752049585040e+02 0.0 
0.0 0.0 -1.594298178774e+02 
-1.516004333780e+02 6.176690944268e+00 0.0 
6.176690944268e+00 -3.508038773647e+02 0.0 
0.0 0.0 -1.503212932228e+02 
-1.641032642628e+02 6.819988715302e+00 0.0 
6.819988715302e+00 -3.863551477459e+02 0.0 
0.0 0.0 -1.647375236026e+02 
-4.588957899027e+01 1.112364466371e+01 0.0 
1.112364466371e+01 -1.165235343639e+02 0.0 
0.0 0.0 -5.025521035954e+01 
-1.553518115178e+02 8.010707432970e+00 0.0 
8.010707432970e+00 -3.671316722362e+02 0.0 
0.0 0.0 -1.563450451262e+02 
-1.484001250404e+02 3.982286970032e+00 0.0 
3.982286970032e+00 -3.571543253092e+02 0.0 
0.0 0.0 -1.512663351049e+02 
-8.850521175244e+01 3.409885480004e-01 0.0 
3.409885480004e-01 -1.911910454522e+02 0.0 
0.0 0.0 -8.350887716140e+01 
-1.511211165510e+02 6.767351822497e+00 0.0 
6.767351822497e+00 -3.497046120559e+02 0.0 
0.0 0.0 -1.498477185821e+02 
-8.070170426690e+01 -2.724255404394e+00 0.0 
-2.724255404394e+00 -1.549572425260e+02 0.0 
0.0 0.0 -6.518887472369e+01 
-2.528982509575e+01 -1.703120059310e+00 0.0 
-1.703120059310e+00 -6.589894755204e+01 0.0 
0.0 0.0 -2.536193412616e+01 
-1.551640942752e+02 4.312907676796e-01 0.0 
4.312907676796e-01 -3.609752073993e+02 0.0 
0.0 0.0 -1.544417905024e+02 
-1.178139253388e+01 -1.393925114915e-02 0.0 
-1.393925114915e-02 -1.408910095188e+01 0.0 
0.0 0.0 -5.924947066783e+00 
-8.755983981116e+01 1.657494512110e-01 0.0 
1.657494512110e-01 -1.899450215560e+02 0.0 
0.0 0.0 -8.285145841015e+01 
-1.660838419805e+02 -2.051369804336e-01 0.0 
-2.051369804336e-01 -3.886323815786e+02 0.0 
0.0 0.0 -1.660148670677e+02 
-2.122072026294e+01 -8.529091925379e-01 0.0 
-8.529091925379e-01 -6.276093535951e+01 0.0 
0.0 0.0 -2.397444212236e+01 
-1.011031095677e+02 4.031309433677e-01 0.0 
4.031309433677e-01 -2.221145127088e+02 0.0 
0.0 0.0 -9.656528668297e+01 
-1.533957718250e+02 8.473645535617e+00 0.0 
8.473645535617e+00 -3.570992280682e+02 0.0 
0.0 0.0 -1.527484999679e+02 
-1.135650094725e+02 -5.682076081370e-01 0.0 
-5.682076081370e-01 -2.348009154799e+02 0.0 
0.0 0.0 -1.003029033371e+02 
-1.362116038087e+02 8.137270701016e-01 0.0 
8.137270701016e-01 -3.111106184532e+02 0.0 
0.0 0.0 -1.337966666786e+02 
-4.860201240294e+01 -1.880094270825e+01 0.0 
-1.880094270825e+01 -8.255186829985e+01 0.0 
0.0 0.0 -3.277349361892e+01 
-7.589661282046e+01 -6.919490617926e+00 0.0 
-6.919490617926e+00 -1.076210677452e+02 0.0 
0.0 0.0 -5.580082708740e+01 
-1.152662783912e+02 5.608506458776e-01 0.0 
5.608506458776e-01 -2.571810906904e+02 0.0 
0.0 0.0 -1.113342107245e+02 
-1.551266576423e+02 7.135544170981e+00 0.0 
7.135544170981e+00 -3.675782936285e+02 0.0 
0.0 0.0 -1.564114853812e+02 
-1.514579796277e+02 5.434824780345e+00 0.0 
5.434824780345e+00 -3.504384439944e+02 0.0 
0.0 0.0 -1.501689270866e+02 
-1.099979879356e+02 6.526383894556e-01 0.0 
6.526383894556e-01 -2.435610781841e+02 0.0 
0.0 0.0 -1.056677198359e+02 
-4.069060934027e+01 2.695567353143e+01 0.0 
2.695567353143e+01 -9.383220790189e+01 0.0 
0.0 0.0 -3.813073316863e+01 
-1.487307984607e+02 8.375050398152e+00 0.0 
8.375050398152e+00 -3.461433958319e+02 0.0 
0.0 0.0 -1.480622582878e+02 
-1.037181483133e+02 -2.256627806385e+00 0.0 
-2.256627806385e+00 -2.069597989731e+02 0.0 
0.0 0.0 -8.813435321917e+01 
-1.475770650939e+02 8.707951527537e+00 0.0 
8.707951527537e+00 -3.470216625973e+02 0.0 
0.0 0.0 -1.479796183074e+02 
-1.481250812665e+02 5.247937860909e+00 0.0 
5.247937860909e+00 -3.558848204929e+02 0.0 
0.0 0.0 -1.508029705278e+02 
-5.197279935612e+01 3.554564570355e+01 0.0 
3.554564570355e+01 -5.893210749652e+01 0.0 
0.0 0.0 -3.410595778149e+01 
-1.189269787638e+02 -4.690009135722e-01 0.0 
-4.690009135722e-01 -2.524395888070e+02 0.0 
0.0 0.0 -1.078359145982e+02 
-1.480550091854e+01 2.432521859390e-01 0.0 
2.432521859390e-01 -3.012624835859e+01 0.0 
0.0 0.0 -1.165205229303e+01 
-1.593370878401e+02 4.214343842807e-01 0.0 
4.214343842807e-01 -3.758207688510e+02 0.0 
0.0 0.0 -1.601473570073e+02 
-1.069820151775e+02 -1.506893144408e+00 0.0 
-1.506893144408e+00 -2.154553861502e+02 0.0 
0.0 0.0 -9.191730691431e+01 
-2.335599534451e+01 6.115308227148e+00 0.0 
6.115308227148e+00 -8.060051596768e+00 0.0 
0.0 0.0 -6.306466662067e+00 
-1.085022474294e+01 -5.762722654096e-02 0.0 
-5.762722654096e-02 -9.214205486106e+00 0.0 
0.0 0.0 -4.880545044754e+00 
-2.955707987984e+01 6.950804829599e+00 0.0 
6.950804829599e+00 -3.043119348866e+01 0.0 
0.0 0.0 -1.455550071091e+01 
-1.841571922028e+01 -7.893542149638e-03 0.0 
-7.893542149638e-03 -2.978778266881e+01 0.0 
0.0 0.0 -1.365225753714e+01 
-3.553122903585e+01 7.316876099103e+00 0.0 
7.316876099103e+00 -4.979589402612e+01 0.0 
0.0 0.0 -2.230410561755e+01 
-2.652327783057e+01 -7.629369319015e-02 0.0 
-7.629369319015e-02 -4.831890946509e+01 0.0 
0.0 0.0 -2.180325375644e+01 
-4.281260480481e+01 7.105236400867e+00 0.0 
7.105236400867e+00 -6.961756542546e+01 0.0 
0.0 0.0 -3.026190308761e+01 
-3.495799663998e+01 -1.153998646307e-03 0.0 
-1.153998646307e-03 -6.882786127424e+01 0.0 
0.0 0.0 -3.073575737427e+01 
-5.156472047619e+01 5.975067270164e+00 0.0 
5.975067270164e+00 -9.004503794546e+01 0.0 
0.0 0.0 -3.793913387979e+01 
-4.309951866529e+01 -2.028697484529e-02 0.0 
-2.028697484529e-02 -8.730253090785e+01 0.0 
0.0 0.0 -3.872061487194e+01 
-6.077574957940e+01 4.484066933750e+00 0.0 
4.484066933750e+00 -1.107446381561e+02 0.0 
0.0 0.0 -4.639796029873e+01 
-5.213199808673e+01 -1.137811218512e-02 0.0 
-1.137811218512e-02 -1.079078871116e+02 0.0 
0.0 0.0 -4.761196555949e+01 
-6.921235973298e+01 3.697900304954e+00 0.0 
3.697900304954e+00 -1.303383354832e+02 0.0 
0.0 0.0 -5.637893643604e+01 
-6.021438851442e+01 -4.262963644325e-03 0.0 
-4.262963644325e-03 -1.263923910772e+02 0.0 
0.0 0.0 -5.558203387748e+01 
-7.674810785409e+01 3.421669386739e+00 0.0 
3.421669386739e+00 -1.494009307338e+02 0.0 
0.0 0.0 -6.564096216447e+01 
-6.925224581121e+01 -3.962488083887e-02 0.0 
-3.962488083887e-02 -1.470574595822e+02 0.0 
0.0 0.0 -6.449291161801e+01 
-8.344465526027e+01 3.477732849468e+00 0.0 
3.477732849468e+00 -1.684965901514e+02 0.0 
0.0 0.0 -7.452466070737e+01 
-7.709378228367e+01 -1.239581612736e-01 0.0 
-1.239581612736e-01 -1.655170115972e+02 0.0 
0.0 0.0 -7.238323816425e+01 

TENSORS node_materi_strain_total float
2.435954578360e-03 -2.796059479620e-05 0.0 
-2.796059479620e-05 -9.135463613106e-04 0.0 
0.0 0.0 0.0 
-1.106680884059e-03 -1.226971814704e-05 0.0 
-1.226971814704e-05 5.675984144269e-03 0.0 
0.0 0.0 0.0 
-1.274669857178e-04 -6.344544992337e-05 0.0 
-6.344544992337e-05 5.982070128117e-03 0.0 
0.0 0.0 0.0 
-8.164062187344e-05 3.386580468251e-05 0.0 
3.386580468251e-05 8.964179855529e-03 0.0 
0.0 0.0 0.0 
1.862914117731e-03 -4.220477041617e-05 0.0 
-4.220477041617e-05 -4.971454804458e-04 0.0 
0.0 0.0 0.0 
1.196376650948e-03 -2.468920581780e-05 0.0 
-2.468920581780e-05 2.124126113344e-04 0.0 
0.0 0.0 0.0 
4.819008625931e-04 -4.855069122905e-05 0.0 
-4.855069122905e-05 8.808297060239e-04 0.0 
0.0 0.0 0.0 
-1.582839195663e-04 -6.639275191396e-05 0.0 
-6.639275191396e-05 1.572487863475e-03 0.0 
0.0 0.0 0.0 
-7.284564292702e-04 -9.379478328089e-05 0.0 
-9.379478328089e-05 2.155965665174e-03 0.0 
0.0 0.0 0.0 
-1.147793084622e-03 -1.037680407235e-04 0.0 
-1.037680407235e-04 2.631755138304e-03 0.0 
0.0 0.0 0.0 
-1.451437753982e-03 -1.126089101361e-04 0.0 
-1.126089101361e-04 3.029006215370e-03 0.0 
0.0 0.0 0.0 
-1.648180164165e-03 -1.216967070879e-04 0.0 
-1.216967070879e-04 3.354602924601e-03 0.0 
0.0 0.0 0.0 
-1.746481116023e-03 -1.243708347975e-04 0.0 
-1.243708347975e-04 3.627461712129e-03 0.0 
0.0 0.0 0.0 
-1.771971449472e-03 -1.193028987952e-04 0.0 
-1.193028987952e-04 3.867522181522e-03 0.0 
0.0 0.0 0.0 
-1.734875865336e-03 -1.014922703660e-04 0.0 
-1.014922703660e-04 4.087804954510e-03 0.0 
0.0 0.0 0.0 
-1.660605941258e-03 -7.219008994213e-05 0.0 
-7.219008994213e-05 4.305101981287e-03 0.0 
0.0 0.0 0.0 
-1.554846971377e-03 -7.739535655947e-05 0.0 
-7.739535655947e-05 4.514872567527e-03 0.0 
0.0 0.0 0.0 
-1.415204670268e-03 -8.717023276077e-05 0.0 
-8.717023276077e-05 4.725196523537e-03 0.0 
0.0 0.0 0.0 
-1.251496820606e-03 -7.532509918787e-05 0.0 
-7.532509918787e-05 4.960022678277e-03 0.0 
0.0 0.0 0.0 
-1.069133206057e-03 -6.583837087705e-05 0.0 
-6.583837087705e-05 5.194852643664e-03 0.0 
0.0 0.0 0.0 
-8.605598878476e-04 -5.733734187939e-05 0.0 
-5.733734187939e-05 5.431010847628e-03 0.0 
0.0 0.0 0.0 
-6.181097233058e-04 -5.383612331174e-05 0.0 
-5.383612331174e-05 5.660514511592e-03 0.0 
0.0 0.0 0.0 
-3.618186467815e-04 -5.022482658870e-05 0.0 
-5.022482658870e-05 5.863093114026e-03 0.0 
0.0 0.0 0.0 
-5.893002757333e-05 1.252893102423e-04 0.0 
1.252893102423e-04 8.967459940091e-03 0.0 
0.0 0.0 0.0 
-6.423747878574e-05 2.291987170430e-04 0.0 
2.291987170430e-04 8.940149094183e-03 0.0 
0.0 0.0 0.0 
-6.351865039385e-05 3.297601173368e-04 0.0 
3.297601173368e-04 8.930712470017e-03 0.0 
0.0 0.0 0.0 
-6.102994389186e-05 4.569235953984e-04 0.0 
4.569235953984e-04 8.902685750773e-03 0.0 
0.0 0.0 0.0 
-7.449078983287e-05 5.610188344235e-04 0.0 
5.610188344235e-04 8.863064403138e-03 0.0 
0.0 0.0 0.0 
-6.687879038791e-05 6.861759933980e-04 0.0 
6.861759933980e-04 8.832343761188e-03 0.0 
0.0 0.0 0.0 
-7.310926957501e-05 8.146443161459e-04 0.0 
8.146443161459e-04 8.778949931902e-03 0.0 
0.0 0.0 0.0 
-7.370634877383e-05 9.477945696153e-04 0.0 
9.477945696153e-04 8.707120496231e-03 0.0 
0.0 0.0 0.0 
-7.406724639247e-05 1.073310869381e-03 0.0 
1.073310869381e-03 8.643083701055e-03 0.0 
0.0 0.0 0.0 
-6.638441229379e-05 1.218663907419e-03 0.0 
1.218663907419e-03 8.550308333518e-03 0.0 
0.0 0.0 0.0 
-8.409403721229e-05 1.346078476157e-03 0.0 
1.346078476157e-03 8.444603713540e-03 0.0 
0.0 0.0 0.0 
-7.525396508357e-05 1.491695364310e-03 0.0 
1.491695364310e-03 8.334978594689e-03 0.0 
0.0 0.0 0.0 
-7.809219104567e-05 1.637004955596e-03 0.0 
1.637004955596e-03 8.199501062433e-03 0.0 
0.0 0.0 0.0 
-7.211299160833e-05 1.774811191321e-03 0.0 
1.774811191321e-03 8.044514354517e-03 0.0 
0.0 0.0 0.0 
-7.758230257012e-05 1.907742534602e-03 0.0 
1.907742534602e-03 7.874800838526e-03 0.0 
0.0 0.0 0.0 
-7.045201984531e-05 2.034596800498e-03 0.0 
2.034596800498e-03 7.675643154309e-03 0.0 
0.0 0.0 0.0 
-7.289410034058e-05 2.154333860433e-03 0.0 
2.154333860433e-03 7.465757613962e-03 0.0 
0.0 0.0 0.0 
-6.397740636462e-05 2.272431581363e-03 0.0 
2.272431581363e-03 7.238852931483e-03 0.0 
0.0 0.0 0.0 
-5.061216780222e-05 2.367899474070e-03 0.0 
2.367899474070e-03 6.998918097450e-03 0.0 
0.0 0.0 0.0 
-3.406887900311e-05 2.444716267040e-03 0.0 
2.444716267040e-03 6.742807918580e-03 0.0 
0.0 0.0 0.0 
-1.495687553221e-05 2.496620882230e-03 0.0 
2.496620882230e-03 6.459580357687e-03 0.0 
0.0 0.0 0.0 
-3.434205754142e-06 2.515099200332e-03 0.0 
2.515099200332e-03 6.168743086550e-03 0.0 
0.0 0.0 0.0 
1.700874255898e-05 2.504275232154e-03 0.0 
2.504275232154e-03 5.868959199316e-03 0.0 
0.0 0.0 0.0 
3.663690220520e-05 2.454312353240e-03 0.0 
2.454312353240e-03 5.568827683034e-03 0.0 
0.0 0.0 0.0 
5.450562040673e-05 2.370162547220e-03 0.0 
2.370162547220e-03 5.282619299887e-03 0.0 
0.0 0.0 0.0 
7.901655569298e-05 2.250774440969e-03 0.0 
2.250774440969e-03 5.007769930502e-03 0.0 
0.0 0.0 0.0 
8.579403085052e-05 2.092481018343e-03 0.0 
2.092481018343e-03 4.747047202106e-03 0.0 
0.0 0.0 0.0 
1.167587044126e-04 1.899838626988e-03 0.0 
1.899838626988e-03 4.513028646233e-03 0.0 
0.0 0.0 0.0 
1.215041861070e-04 1.675390766535e-03 0.0 
1.675390766535e-03 4.304049601673e-03 0.0 
0.0 0.0 0.0 
1.215539701308e-04 1.432746866428e-03 0.0 
1.432746866428e-03 4.157900832206e-03 0.0 
0.0 0.0 0.0 
1.306817541157e-04 1.179073370709e-03 0.0 
1.179073370709e-03 4.005150190558e-03 0.0 
0.0 0.0 0.0 
1.617576535932e-04 9.082336810161e-04 0.0 
9.082336810161e-04 3.862421853213e-03 0.0 
0.0 0.0 0.0 
1.597222656942e-04 6.021992462194e-04 0.0 
6.021992462194e-04 3.797594015141e-03 0.0 
0.0 0.0 0.0 
1.544905993501e-04 3.204249720818e-04 0.0 
3.204249720818e-04 3.809489409328e-03 0.0 
0.0 0.0 0.0 
1.489483429260e-04 5.097795927809e-05 0.0 
5.097795927809e-05 3.844195190566e-03 0.0 
0.0 0.0 0.0 
1.176002914287e-04 -2.038926762524e-04 0.0 
-2.038926762524e-04 3.929569840495e-03 0.0 
0.0 0.0 0.0 
1.184193300238e-04 -4.190953128956e-04 0.0 
-4.190953128956e-04 4.059613031904e-03 0.0 
0.0 0.0 0.0 
8.463978963347e-05 -6.081526285440e-04 0.0 
-6.081526285440e-04 4.204302098511e-03 0.0 
0.0 0.0 0.0 
7.807971027877e-05 -7.527110115105e-04 0.0 
-7.527110115105e-04 4.376535242954e-03 0.0 
0.0 0.0 0.0 
4.300721486568e-05 -8.567036018753e-04 0.0 
-8.567036018753e-04 4.569386313374e-03 0.0 
0.0 0.0 0.0 
2.350675761043e-05 -9.191238592606e-04 0.0 
-9.191238592606e-04 4.787598651023e-03 0.0 
0.0 0.0 0.0 
-1.519240901970e-07 -9.328895414325e-04 0.0 
-9.328895414325e-04 5.024818486893e-03 0.0 
0.0 0.0 0.0 
-2.158170171714e-05 -9.132134935540e-04 0.0 
-9.132134935540e-04 5.214183626377e-03 0.0 
0.0 0.0 0.0 
-5.705571062392e-05 -8.430977924551e-04 0.0 
-8.430977924551e-04 5.372285443321e-03 0.0 
0.0 0.0 0.0 
-5.828659952771e-05 -7.467445351434e-04 0.0 
-7.467445351434e-04 5.579194836815e-03 0.0 
0.0 0.0 0.0 
-7.596410851844e-05 -6.338722483588e-04 0.0 
-6.338722483588e-04 5.701347175456e-03 0.0 
0.0 0.0 0.0 
-7.459931248899e-05 -5.108409094605e-04 0.0 
-5.108409094605e-04 5.819933895577e-03 0.0 
0.0 0.0 0.0 
-8.434550355685e-05 -3.458327672927e-04 0.0 
-3.458327672927e-04 5.913573456678e-03 0.0 
0.0 0.0 0.0 
-9.185605214868e-05 -1.989578695108e-04 0.0 
-1.989578695108e-04 5.961171876023e-03 0.0 
0.0 0.0 0.0 
-1.096152044925e-03 -3.684919397986e-06 0.0 
-3.684919397986e-06 6.095030609100e-03 0.0 
0.0 0.0 0.0 
-1.074121280904e-03 -7.840977951188e-07 0.0 
-7.840977951188e-07 6.496548298298e-03 0.0 
0.0 0.0 0.0 
-1.024928233283e-03 2.461537209013e-06 0.0 
2.461537209013e-06 6.876672351561e-03 0.0 
0.0 0.0 0.0 
-9.518887912523e-04 6.157381828369e-06 0.0 
6.157381828369e-06 7.232887549734e-03 0.0 
0.0 0.0 0.0 
-8.545520560268e-04 1.136029113128e-05 0.0 
1.136029113128e-05 7.578810641697e-03 0.0 
0.0 0.0 0.0 
-7.322913982763e-04 1.511970905217e-05 0.0 
1.511970905217e-05 7.907781306555e-03 0.0 
0.0 0.0 0.0 
-5.890790137210e-04 1.846053524356e-05 0.0 
1.846053524356e-05 8.218449509172e-03 0.0 
0.0 0.0 0.0 
-4.166930278487e-04 2.352136295745e-05 0.0 
2.352136295745e-05 8.513025764183e-03 0.0 
0.0 0.0 0.0 
-2.397013430835e-04 2.468795670801e-05 0.0 
2.468795670801e-05 8.796337543358e-03 0.0 
0.0 0.0 0.0 
-2.151375068405e-03 2.656838233030e-03 0.0 
2.656838233030e-03 -2.078802602666e-03 0.0 
0.0 0.0 0.0 
-1.609201205377e-03 8.705489702343e-04 0.0 
8.705489702343e-04 5.268588008196e-03 0.0 
0.0 0.0 0.0 
-1.929297986368e-03 2.423409003361e-03 0.0 
2.423409003361e-03 1.133025582780e-03 0.0 
0.0 0.0 0.0 
-1.083814395826e-03 1.626010431059e-03 0.0 
1.626010431059e-03 1.799175042719e-03 0.0 
0.0 0.0 0.0 
-7.724344674827e-04 1.603098442790e-03 0.0 
1.603098442790e-03 1.881710084963e-03 0.0 
0.0 0.0 0.0 
-7.159689164199e-04 1.548751151453e-03 0.0 
1.548751151453e-03 2.120662361285e-03 0.0 
0.0 0.0 0.0 
-8.216972602697e-04 1.450294894966e-03 0.0 
1.450294894966e-03 2.480515879844e-03 0.0 
0.0 0.0 0.0 
-1.021386910765e-03 1.316504167026e-03 0.0 
1.316504167026e-03 2.962900613615e-03 0.0 
0.0 0.0 0.0 
-1.237226655547e-03 1.166567296982e-03 0.0 
1.166567296982e-03 3.520751863939e-03 0.0 
0.0 0.0 0.0 
-1.419873875218e-03 1.027843335167e-03 0.0 
1.027843335167e-03 4.107032152021e-03 0.0 
0.0 0.0 0.0 
-1.545574523233e-03 9.294759916838e-04 0.0 
9.294759916838e-04 4.693681536211e-03 0.0 
0.0 0.0 0.0 
-4.908659544483e-04 -1.925790464468e-05 0.0 
-1.925790464468e-05 1.648484464764e-03 0.0 
0.0 0.0 0.0 
-5.666673127783e-04 -3.157484060526e-05 0.0 
-3.157484060526e-05 1.943790430399e-03 0.0 
0.0 0.0 0.0 
-6.589079275532e-04 -2.680603622540e-05 0.0 
-2.680603622540e-05 2.421851472377e-03 0.0 
0.0 0.0 0.0 
-7.562167000769e-04 -4.208590774428e-05 0.0 
-4.208590774428e-05 2.904439748248e-03 0.0 
0.0 0.0 0.0 
-8.386690694734e-04 -3.223447402608e-05 0.0 
-3.223447402608e-05 3.382154398501e-03 0.0 
0.0 0.0 0.0 
-9.127949669435e-04 -4.049907451103e-05 0.0 
-4.049907451103e-05 3.853993005716e-03 0.0 
0.0 0.0 0.0 
-9.774295053709e-04 -3.054387123624e-05 0.0 
-3.054387123624e-05 4.320044347643e-03 0.0 
0.0 0.0 0.0 
-1.034683460820e-03 -3.455913707878e-05 0.0 
-3.455913707878e-05 4.779056537793e-03 0.0 
0.0 0.0 0.0 
-1.075482052201e-03 -2.033697897326e-05 0.0 
-2.033697897326e-05 5.223940901126e-03 0.0 
0.0 0.0 0.0 
-1.099299980922e-03 1.680212708611e-05 0.0 
1.680212708611e-05 5.615748153122e-03 0.0 
0.0 0.0 0.0 
-1.107491413342e-03 2.032513390876e-05 0.0 
2.032513390876e-05 5.642544081436e-03 0.0 
0.0 0.0 0.0 
-1.126526289290e-03 3.278734338494e-05 0.0 
3.278734338494e-05 5.645968309122e-03 0.0 
0.0 0.0 0.0 
-1.150537822958e-03 4.646268107451e-05 0.0 
4.646268107451e-05 5.640855469373e-03 0.0 
0.0 0.0 0.0 
-1.176943516911e-03 7.729884296687e-05 0.0 
7.729884296687e-05 5.694168292628e-03 0.0 
0.0 0.0 0.0 
-1.211441292063e-03 9.657027822672e-05 0.0 
9.657027822672e-05 5.643644844910e-03 0.0 
0.0 0.0 0.0 
-1.253855902379e-03 1.271335198980e-04 0.0 
1.271335198980e-04 5.634118241046e-03 0.0 
0.0 0.0 0.0 
-1.294867506359e-03 1.716903247955e-04 0.0 
1.716903247955e-04 5.627194728050e-03 0.0 
0.0 0.0 0.0 
-1.350951037210e-03 2.256010501613e-04 0.0 
2.256010501613e-04 5.624039942461e-03 0.0 
0.0 0.0 0.0 
-1.406522383514e-03 2.932783751215e-04 0.0 
2.932783751215e-04 5.599819017422e-03 0.0 
0.0 0.0 0.0 
-1.459270332763e-03 3.754939089683e-04 0.0 
3.754939089683e-04 5.564129719154e-03 0.0 
0.0 0.0 0.0 
-1.508938032581e-03 4.724200153918e-04 0.0 
4.724200153918e-04 5.515055485012e-03 0.0 
0.0 0.0 0.0 
-1.548104802485e-03 5.881847181684e-04 0.0 
5.881847181684e-04 5.447135664067e-03 0.0 
0.0 0.0 0.0 
-1.576139418738e-03 7.191298774652e-04 0.0 
7.191298774652e-04 5.366079363617e-03 0.0 
0.0 0.0 0.0 
-2.869360211187e-03 1.231121536855e-03 0.0 
1.231121536855e-03 -3.188883652300e-03 0.0 
0.0 0.0 0.0 
-3.615180201564e-03 2.390872000177e-04 0.0 
2.390872000177e-04 -3.270464953463e-03 0.0 
0.0 0.0 0.0 
-3.978626756994e-03 -1.963213632542e-04 0.0 
-1.963213632542e-04 -3.120586308251e-03 0.0 
0.0 0.0 0.0 
-3.571953343194e-03 -8.830740496323e-04 0.0 
-8.830740496323e-04 -2.851671142009e-03 0.0 
0.0 0.0 0.0 
-2.440538647823e-03 -1.829146476913e-03 0.0 
-1.829146476913e-03 -1.386872164614e-03 0.0 
0.0 0.0 0.0 
-1.401737855461e-03 -1.359668410484e-03 0.0 
-1.359668410484e-03 4.907534340215e-05 0.0 
0.0 0.0 0.0 
-4.994069332673e-04 -4.039126728078e-04 0.0 
-4.039126728078e-04 1.443482502148e-04 0.0 
0.0 0.0 0.0 
-1.147362762162e-04 -1.166720075411e-04 0.0 
-1.166720075411e-04 1.424724581663e-04 0.0 
0.0 0.0 0.0 
8.616494119285e-05 -6.713881419960e-05 0.0 
-6.713881419960e-05 1.222891945134e-04 0.0 
0.0 0.0 0.0 
3.520251442038e-04 -1.188687655945e-04 0.0 
-1.188687655945e-04 3.502543504278e-05 0.0 
0.0 0.0 0.0 
6.293408075135e-04 -1.356897161867e-04 0.0 
-1.356897161867e-04 -9.520642371948e-05 0.0 
0.0 0.0 0.0 
9.620936465856e-04 -1.582813547176e-04 0.0 
-1.582813547176e-04 -2.517736641995e-04 0.0 
0.0 0.0 0.0 
1.327766026245e-03 -1.491237907447e-04 0.0 
-1.491237907447e-04 -4.235330903209e-04 0.0 
0.0 0.0 0.0 
1.652776452728e-03 -1.456281552999e-04 0.0 
-1.456281552999e-04 -5.681560883691e-04 0.0 
0.0 0.0 0.0 
1.883394960023e-03 -1.148743576563e-04 0.0 
-1.148743576563e-04 -6.633708522418e-04 0.0 
0.0 0.0 0.0 
2.085571345241e-03 -8.562386027732e-05 0.0 
-8.562386027732e-05 -7.456829023775e-04 0.0 
0.0 0.0 0.0 
2.241255419482e-03 -6.846489466608e-05 0.0 
-6.846489466608e-05 -8.117090587409e-04 0.0 
0.0 0.0 0.0 
2.377335226847e-03 -4.103926360124e-05 0.0 
-4.103926360124e-05 -8.856477959849e-04 0.0 
0.0 0.0 0.0 
2.481993481523e-03 2.232959713643e-05 0.0 
2.232959713643e-05 -9.271794351121e-04 0.0 
0.0 0.0 0.0 
-4.779265117156e-04 5.558313582090e-06 0.0 
5.558313582090e-06 1.625701189965e-03 0.0 
0.0 0.0 0.0 
-4.914840001874e-04 -2.026082667692e-05 0.0 
-2.026082667692e-05 1.665747450981e-03 0.0 
0.0 0.0 0.0 
-4.774787966287e-04 -4.206503123925e-05 0.0 
-4.206503123925e-05 1.670840017156e-03 0.0 
0.0 0.0 0.0 
-4.546588038185e-04 -5.457803832270e-05 0.0 
-5.457803832270e-05 1.664929330157e-03 0.0 
0.0 0.0 0.0 
-4.223710264758e-04 -6.429926431331e-05 0.0 
-6.429926431331e-05 1.654465684019e-03 0.0 
0.0 0.0 0.0 
-3.829830612391e-04 -7.387994505326e-05 0.0 
-7.387994505326e-05 1.639987946335e-03 0.0 
0.0 0.0 0.0 
-3.363827351371e-04 -8.359525354736e-05 0.0 
-8.359525354736e-05 1.621364223068e-03 0.0 
0.0 0.0 0.0 
-2.810733367117e-04 -9.309182101222e-05 0.0 
-9.309182101222e-05 1.598567138085e-03 0.0 
0.0 0.0 0.0 
-2.176826372424e-04 -1.021708226206e-04 0.0 
-1.021708226206e-04 1.573008820207e-03 0.0 
0.0 0.0 0.0 
-1.480968743665e-04 -1.097813954659e-04 0.0 
-1.097813954659e-04 1.545102792229e-03 0.0 
0.0 0.0 0.0 
-6.848670632091e-05 -1.149445051006e-04 0.0 
-1.149445051006e-04 1.513033157907e-03 0.0 
0.0 0.0 0.0 
1.970373397579e-05 -1.194654134245e-04 0.0 
-1.194654134245e-04 1.477293114509e-03 0.0 
0.0 0.0 0.0 
1.089750968733e-04 -1.235983786041e-04 0.0 
-1.235983786041e-04 1.440091367682e-03 0.0 
0.0 0.0 0.0 
1.959395735031e-04 -1.251784247555e-04 0.0 
-1.251784247555e-04 1.403041132936e-03 0.0 
0.0 0.0 0.0 
2.761943986987e-04 -1.223951045223e-04 0.0 
-1.223951045223e-04 1.367863807873e-03 0.0 
0.0 0.0 0.0 
3.447356545142e-04 -1.132839229533e-04 0.0 
-1.132839229533e-04 1.336392792457e-03 0.0 
0.0 0.0 0.0 
3.957563784919e-04 -9.606124911923e-05 0.0 
-9.606124911923e-05 1.310772957083e-03 0.0 
0.0 0.0 0.0 
4.242488287088e-04 -6.847039859127e-05 0.0 
-6.847039859127e-05 1.292121787037e-03 0.0 
0.0 0.0 0.0 
4.243559669005e-04 -2.681154659293e-05 0.0 
-2.681154659293e-05 1.282876823503e-03 0.0 
0.0 0.0 0.0 
3.914033795505e-04 2.715357821276e-05 0.0 
2.715357821276e-05 1.285050942207e-03 0.0 
0.0 0.0 0.0 
3.257485640509e-04 9.016173790635e-05 0.0 
9.016173790635e-05 1.301122882958e-03 0.0 
0.0 0.0 0.0 
2.246095285035e-04 1.558520070585e-04 0.0 
1.558520070585e-04 1.335045151822e-03 0.0 
0.0 0.0 0.0 
1.155632526834e-04 2.259845818624e-04 0.0 
2.259845818624e-04 1.381621795367e-03 0.0 
0.0 0.0 0.0 
-3.676028587629e-05 3.228594732662e-04 0.0 
3.228594732662e-04 1.443305000940e-03 0.0 
0.0 0.0 0.0 
-1.918478060888e-04 4.465054443696e-04 0.0 
4.465054443696e-04 1.491840438364e-03 0.0 
0.0 0.0 0.0 
-3.447060180826e-04 6.111027112426e-04 0.0 
6.111027112426e-04 1.569543468218e-03 0.0 
0.0 0.0 0.0 
-6.754981212361e-04 8.423246238661e-04 0.0 
8.423246238661e-04 1.691626923715e-03 0.0 
0.0 0.0 0.0 
-1.379169786831e-03 1.131325993394e-03 0.0 
1.131325993394e-03 2.044545088221e-03 0.0 
0.0 0.0 0.0 
-7.479897534794e-04 1.066986232775e-03 0.0 
1.066986232775e-03 1.804659378284e-03 0.0 
0.0 0.0 0.0 
-5.503242491200e-04 8.846477434350e-04 0.0 
8.846477434350e-04 1.728332789509e-03 0.0 
0.0 0.0 0.0 
-3.670476408079e-04 6.327643809397e-04 0.0 
6.327643809397e-04 1.682735203840e-03 0.0 
0.0 0.0 0.0 
-2.461419638313e-04 4.621922283068e-04 0.0 
4.621922283068e-04 1.659605899170e-03 0.0 
0.0 0.0 0.0 
-1.508854084990e-04 3.233594563673e-04 0.0 
3.233594563673e-04 1.633406088750e-03 0.0 
0.0 0.0 0.0 
-5.992465436940e-05 1.995899282162e-04 0.0 
1.995899282162e-04 1.613983327842e-03 0.0 
0.0 0.0 0.0 
1.840130462599e-05 9.095310635208e-05 0.0 
9.095310635208e-05 1.600430096527e-03 0.0 
0.0 0.0 0.0 
6.282631825020e-05 1.909893704081e-06 0.0 
1.909893704081e-06 1.599063698000e-03 0.0 
0.0 0.0 0.0 
8.037501324341e-05 -6.867029277888e-05 0.0 
-6.867029277888e-05 1.605966538284e-03 0.0 
0.0 0.0 0.0 
7.866307112431e-05 -1.220104999044e-04 0.0 
-1.220104999044e-04 1.618484146882e-03 0.0 
0.0 0.0 0.0 
5.747641047615e-05 -1.604110615696e-04 0.0 
-1.604110615696e-04 1.635665246259e-03 0.0 
0.0 0.0 0.0 
2.087845694826e-05 -1.864071439936e-04 0.0 
-1.864071439936e-04 1.657545073605e-03 0.0 
0.0 0.0 0.0 
-2.698461806072e-05 -2.012183413261e-04 0.0 
-2.012183413261e-04 1.682849265632e-03 0.0 
0.0 0.0 0.0 
-8.265239786949e-05 -2.070988499966e-04 0.0 
-2.070988499966e-04 1.710424965477e-03 0.0 
0.0 0.0 0.0 
-1.424193991467e-04 -2.057731502494e-04 0.0 
-2.057731502494e-04 1.738973304481e-03 0.0 
0.0 0.0 0.0 
-2.029515877971e-04 -1.994475974635e-04 0.0 
-1.994475974635e-04 1.766879469759e-03 0.0 
0.0 0.0 0.0 
-2.614644062110e-04 -1.899669246975e-04 0.0 
-1.899669246975e-04 1.792810463207e-03 0.0 
0.0 0.0 0.0 
-3.139265873654e-04 -1.773364778492e-04 0.0 
-1.773364778492e-04 1.816147483100e-03 0.0 
0.0 0.0 0.0 
-3.620933253412e-04 -1.624212050063e-04 0.0 
-1.624212050063e-04 1.837311766713e-03 0.0 
0.0 0.0 0.0 
-4.055170590913e-04 -1.461549646802e-04 0.0 
-1.461549646802e-04 1.856734112493e-03 0.0 
0.0 0.0 0.0 
-4.426031247971e-04 -1.293922708211e-04 0.0 
-1.293922708211e-04 1.873503619696e-03 0.0 
0.0 0.0 0.0 
-4.730997581983e-04 -1.122585232989e-04 0.0 
-1.122585232989e-04 1.886786623704e-03 0.0 
0.0 0.0 0.0 
-4.973563269726e-04 -9.438848254523e-05 0.0 
-9.438848254523e-05 1.896612950416e-03 0.0 
0.0 0.0 0.0 
-5.154496949912e-04 -7.440182090793e-05 0.0 
-7.440182090793e-05 1.903690626998e-03 0.0 
0.0 0.0 0.0 
-5.280084793316e-04 -4.696758865876e-05 0.0 
-4.696758865876e-05 1.910749885466e-03 0.0 
0.0 0.0 0.0 
-5.543106794291e-04 -8.663923647940e-06 0.0 
-8.663923647940e-06 1.933757366054e-03 0.0 
0.0 0.0 0.0 
-6.688292123651e-04 1.234065005371e-03 0.0 
1.234065005371e-03 1.959441601565e-03 0.0 
0.0 0.0 0.0 
-5.952385701187e-04 1.061142431935e-03 0.0 
1.061142431935e-03 2.000806445253e-03 0.0 
0.0 0.0 0.0 
-5.181901821635e-04 7.796716860103e-04 0.0 
7.796716860103e-04 2.036813247251e-03 0.0 
0.0 0.0 0.0 
-4.774112010756e-04 5.664350892466e-04 0.0 
5.664350892466e-04 2.075976251950e-03 0.0 
0.0 0.0 0.0 
-4.322985949130e-04 3.809486691621e-04 0.0 
3.809486691621e-04 2.108353512417e-03 0.0 
0.0 0.0 0.0 
-4.040773882194e-04 2.226238589758e-04 0.0 
2.226238589758e-04 2.137073263242e-03 0.0 
0.0 0.0 0.0 
-3.883697551276e-04 9.109799554220e-05 0.0 
9.109799554220e-05 2.165054726068e-03 0.0 
0.0 0.0 0.0 
-3.749023825334e-04 -1.538089443401e-05 0.0 
-1.538089443401e-05 2.189085716153e-03 0.0 
0.0 0.0 0.0 
-3.664495687705e-04 -9.738196757983e-05 0.0 
-9.738196757983e-05 2.209029649445e-03 0.0 
0.0 0.0 0.0 
-3.692764600919e-04 -1.577307147078e-04 0.0 
-1.577307147078e-04 2.227452447203e-03 0.0 
0.0 0.0 0.0 
-3.771291294197e-04 -2.004613426535e-04 0.0 
-2.004613426535e-04 2.244289479566e-03 0.0 
0.0 0.0 0.0 
-3.922053068964e-04 -2.296198007923e-04 0.0 
-2.296198007923e-04 2.261619376924e-03 0.0 
0.0 0.0 0.0 
-4.131539473394e-04 -2.457842332885e-04 0.0 
-2.457842332885e-04 2.279959163100e-03 0.0 
0.0 0.0 0.0 
-4.371459489035e-04 -2.507208213920e-04 0.0 
-2.507208213920e-04 2.297234556186e-03 0.0 
0.0 0.0 0.0 
-4.622180110850e-04 -2.468846393554e-04 0.0 
-2.468846393554e-04 2.312640039985e-03 0.0 
0.0 0.0 0.0 
-4.872336456663e-04 -2.360607723326e-04 0.0 
-2.360607723326e-04 2.326627408820e-03 0.0 
0.0 0.0 0.0 
-5.115039051744e-04 -2.204596754181e-04 0.0 
-2.204596754181e-04 2.339794244579e-03 0.0 
0.0 0.0 0.0 
-5.342721004993e-04 -2.013064222303e-04 0.0 
-2.013064222303e-04 2.351692212584e-03 0.0 
0.0 0.0 0.0 
-5.548539728973e-04 -1.796567868901e-04 0.0 
-1.796567868901e-04 2.362202768946e-03 0.0 
0.0 0.0 0.0 
-5.721763358313e-04 -1.563715173798e-04 0.0 
-1.563715173798e-04 2.370821757498e-03 0.0 
0.0 0.0 0.0 
-5.857403016220e-04 -1.312961444012e-04 0.0 
-1.312961444012e-04 2.377260860564e-03 0.0 
0.0 0.0 0.0 
-5.957159568943e-04 -1.036926414928e-04 0.0 
-1.036926414928e-04 2.382344389833e-03 0.0 
0.0 0.0 0.0 
-6.036252266084e-04 -7.286272461794e-05 0.0 
-7.286272461794e-05 2.388913315825e-03 0.0 
0.0 0.0 0.0 
-6.211841911039e-04 -4.046936630760e-05 0.0 
-4.046936630760e-05 2.402028088446e-03 0.0 
0.0 0.0 0.0 
-6.509983105709e-04 1.161977561079e-06 0.0 
1.161977561079e-06 2.415682866731e-03 0.0 
0.0 0.0 0.0 
-7.417134524554e-04 -2.059360415085e-05 0.0 
-2.059360415085e-05 2.896512142101e-03 0.0 
0.0 0.0 0.0 
-7.073234368644e-04 -6.766496272692e-05 0.0 
-6.766496272692e-05 2.880231027114e-03 0.0 
0.0 0.0 0.0 
-7.034205544744e-04 -1.050537248125e-04 0.0 
-1.050537248125e-04 2.873395780831e-03 0.0 
0.0 0.0 0.0 
-7.017147391600e-04 -1.383784581380e-04 0.0 
-1.383784581380e-04 2.869836979253e-03 0.0 
0.0 0.0 0.0 
-7.001551606249e-04 -1.694167235802e-04 0.0 
-1.694167235802e-04 2.866994149043e-03 0.0 
0.0 0.0 0.0 
-6.979452075325e-04 -1.980270370242e-04 0.0 
-1.980270370242e-04 2.863563838334e-03 0.0 
0.0 0.0 0.0 
-6.951426317556e-04 -2.240836464094e-04 0.0 
-2.240836464094e-04 2.859226346989e-03 0.0 
0.0 0.0 0.0 
-6.921517309583e-04 -2.467690422721e-04 0.0 
-2.467690422721e-04 2.853914036841e-03 0.0 
0.0 0.0 0.0 
-6.896097782760e-04 -2.648123160963e-04 0.0 
-2.648123160963e-04 2.847658059705e-03 0.0 
0.0 0.0 0.0 
-6.883041258076e-04 -2.768415371080e-04 0.0 
-2.768415371080e-04 2.840578573603e-03 0.0 
0.0 0.0 0.0 
-6.889038608263e-04 -2.808127727504e-04 0.0 
-2.808127727504e-04 2.832300129147e-03 0.0 
0.0 0.0 0.0 
-6.916405489605e-04 -2.742248058202e-04 0.0 
-2.742248058202e-04 2.821773374235e-03 0.0 
0.0 0.0 0.0 
-6.972208667927e-04 -2.540911339446e-04 0.0 
-2.540911339446e-04 2.808482700513e-03 0.0 
0.0 0.0 0.0 
-7.072857860799e-04 -2.169149407817e-04 0.0 
-2.169149407817e-04 2.793406555819e-03 0.0 
0.0 0.0 0.0 
-7.195879112989e-04 -1.609225226224e-04 0.0 
-1.609225226224e-04 2.776137905751e-03 0.0 
0.0 0.0 0.0 
-7.288939780986e-04 -8.147650647784e-05 0.0 
-8.147650647784e-05 2.751955740886e-03 0.0 
0.0 0.0 0.0 
-7.330798818845e-04 2.576383526537e-05 0.0 
2.576383526537e-05 2.717752827098e-03 0.0 
0.0 0.0 0.0 
-7.375711817334e-04 1.633714729547e-04 0.0 
1.633714729547e-04 2.672751011927e-03 0.0 
0.0 0.0 0.0 
-7.361255776197e-04 3.324804236628e-04 0.0 
3.324804236628e-04 2.614807222876e-03 0.0 
0.0 0.0 0.0 
-7.308486816193e-04 5.298331651869e-04 0.0 
5.298331651869e-04 2.541309544176e-03 0.0 
0.0 0.0 0.0 
-7.184536977912e-04 7.579647080051e-04 0.0 
7.579647080051e-04 2.451991049169e-03 0.0 
0.0 0.0 0.0 
-7.239506022533e-04 1.046387538139e-03 0.0 
1.046387538139e-03 2.350916469254e-03 0.0 
0.0 0.0 0.0 
-7.156583336323e-04 1.245093184741e-03 0.0 
1.245093184741e-03 2.240119975970e-03 0.0 
0.0 0.0 0.0 
-8.733167341238e-04 1.159024023053e-03 0.0 
1.159024023053e-03 2.642744162994e-03 0.0 
0.0 0.0 0.0 
-9.301817519624e-04 9.629508786285e-04 0.0 
9.629508786285e-04 2.806114620604e-03 0.0 
0.0 0.0 0.0 
-9.642475530750e-04 6.874900573562e-04 0.0 
6.874900573562e-04 2.944546380436e-03 0.0 
0.0 0.0 0.0 
-9.972779433215e-04 4.732168640693e-04 0.0 
4.732168640693e-04 3.054900064669e-03 0.0 
0.0 0.0 0.0 
-1.012235365969e-03 2.928906042132e-04 0.0 
2.928906042132e-04 3.143286730884e-03 0.0 
0.0 0.0 0.0 
-1.016306676889e-03 1.412502007134e-04 0.0 
1.412502007134e-04 3.210087319243e-03 0.0 
0.0 0.0 0.0 
-1.012552514557e-03 1.928292651714e-05 0.0 
1.928292651714e-05 3.260151427795e-03 0.0 
0.0 0.0 0.0 
-1.000160140610e-03 -7.424537589173e-05 0.0 
-7.424537589173e-05 3.295739138468e-03 0.0 
0.0 0.0 0.0 
-9.781425109432e-04 -1.419736144116e-04 0.0 
-1.419736144116e-04 3.319565071765e-03 0.0 
0.0 0.0 0.0 
-9.476871073009e-04 -1.869603519652e-04 0.0 
-1.869603519652e-04 3.335289277682e-03 0.0 
0.0 0.0 0.0 
-9.211172461006e-04 -2.137760363683e-04 0.0 
-2.137760363683e-04 3.346127871357e-03 0.0 
0.0 0.0 0.0 
-8.980543440275e-04 -2.264581109534e-04 0.0 
-2.264581109534e-04 3.352833528057e-03 0.0 
0.0 0.0 0.0 
-8.783766849228e-04 -2.280363370270e-04 0.0 
-2.280363370270e-04 3.356958494606e-03 0.0 
0.0 0.0 0.0 
-8.619134022752e-04 -2.208007161841e-04 0.0 
-2.208007161841e-04 3.359718611021e-03 0.0 
0.0 0.0 0.0 
-8.480827591019e-04 -2.063486191212e-04 0.0 
-2.063486191212e-04 3.361517519243e-03 0.0 
0.0 0.0 0.0 
-8.361962515309e-04 -1.862694567643e-04 0.0 
-1.862694567643e-04 3.362255240649e-03 0.0 
0.0 0.0 0.0 
-8.259245177952e-04 -1.621704423920e-04 0.0 
-1.621704423920e-04 3.362350958062e-03 0.0 
0.0 0.0 0.0 
-8.171982157432e-04 -1.348426450485e-04 0.0 
-1.348426450485e-04 3.362522944792e-03 0.0 
0.0 0.0 0.0 
-8.102488810426e-04 -1.049574716580e-04 0.0 
-1.049574716580e-04 3.363484012163e-03 0.0 
0.0 0.0 0.0 
-8.060559192786e-04 -7.378598447353e-05 0.0 
-7.378598447353e-05 3.366532177380e-03 0.0 
0.0 0.0 0.0 
-8.138340162986e-04 -4.494635125526e-05 0.0 
-4.494635125526e-05 3.373187138059e-03 0.0 
0.0 0.0 0.0 
-8.348150017368e-04 -1.754019604012e-06 0.0 
-1.754019604012e-06 3.380153905598e-03 0.0 
0.0 0.0 0.0 
-9.084762385086e-04 -1.521371309291e-05 0.0 
-1.521371309291e-05 3.852536311882e-03 0.0 
0.0 0.0 0.0 
-9.023861018771e-04 -5.300406101928e-05 0.0 
-5.300406101928e-05 3.851094360079e-03 0.0 
0.0 0.0 0.0 
-9.078690792911e-04 -8.213358051852e-05 0.0 
-8.213358051852e-05 3.849656384580e-03 0.0 
0.0 0.0 0.0 
-9.181577324778e-04 -1.075926871229e-04 0.0 
-1.075926871229e-04 3.849843779460e-03 0.0 
0.0 0.0 0.0 
-9.332753638323e-04 -1.310249151877e-04 0.0 
-1.310249151877e-04 3.851513449633e-03 0.0 
0.0 0.0 0.0 
-9.523071946285e-04 -1.516400930962e-04 0.0 
-1.516400930962e-04 3.853708151871e-03 0.0 
0.0 0.0 0.0 
-9.739680911048e-04 -1.683068096852e-04 0.0 
-1.683068096852e-04 3.855393828857e-03 0.0 
0.0 0.0 0.0 
-9.990544119199e-04 -1.791089204154e-04 0.0 
-1.791089204154e-04 3.855768278401e-03 0.0 
0.0 0.0 0.0 
-1.027604108868e-03 -1.819067833336e-04 0.0 
-1.819067833336e-04 3.854515212821e-03 0.0 
0.0 0.0 0.0 
-1.059790865912e-03 -1.749049136256e-04 0.0 
-1.749049136256e-04 3.851515797126e-03 0.0 
0.0 0.0 0.0 
-1.096097625090e-03 -1.561060250156e-04 0.0 
-1.561060250156e-04 3.845451183852e-03 0.0 
0.0 0.0 0.0 
-1.136424805149e-03 -1.225970047115e-04 0.0 
-1.225970047115e-04 3.834226369889e-03 0.0 
0.0 0.0 0.0 
-1.180666787108e-03 -7.019714856986e-05 0.0 
-7.019714856986e-05 3.815178552231e-03 0.0 
0.0 0.0 0.0 
-1.214838961282e-03 6.134429558668e-06 0.0 
6.134429558668e-06 3.783518598474e-03 0.0 
0.0 0.0 0.0 
-1.228623090357e-03 1.088412844953e-04 0.0 
1.088412844953e-04 3.734934763945e-03 0.0 
0.0 0.0 0.0 
-1.232312044865e-03 2.394199654769e-04 0.0 
2.394199654769e-04 3.669425334112e-03 0.0 
0.0 0.0 0.0 
-1.224817709950e-03 3.990119021515e-04 0.0 
3.990119021515e-04 3.581789829696e-03 0.0 
0.0 0.0 0.0 
-1.197120986971e-03 5.925926415999e-04 0.0 
5.925926415999e-04 3.470358395710e-03 0.0 
0.0 0.0 0.0 
-1.160959197715e-03 8.449313346220e-04 0.0 
8.449313346220e-04 3.329541956835e-03 0.0 
0.0 0.0 0.0 
-1.096859579904e-03 1.033528945822e-03 0.0 
1.033528945822e-03 3.147532842601e-03 0.0 
0.0 0.0 0.0 
-1.302673494878e-03 9.120658368436e-04 0.0 
9.120658368436e-04 3.692974578714e-03 0.0 
0.0 0.0 0.0 
-1.355522996400e-03 7.496316886896e-04 0.0 
7.496316886896e-04 3.879916115971e-03 0.0 
0.0 0.0 0.0 
-1.378845288234e-03 5.329102558105e-04 0.0 
5.329102558105e-04 4.010916622720e-03 0.0 
0.0 0.0 0.0 
-1.393838437316e-03 3.706418220011e-04 0.0 
3.706418220011e-04 4.113985450155e-03 0.0 
0.0 0.0 0.0 
-1.392987273571e-03 2.396164325324e-04 0.0 
2.396164325324e-04 4.195037299839e-03 0.0 
0.0 0.0 0.0 
-1.372930550748e-03 1.344863684903e-04 0.0 
1.344863684903e-04 4.252388532431e-03 0.0 
0.0 0.0 0.0 
-1.327973349087e-03 5.351916079731e-05 0.0 
5.351916079731e-05 4.290228698615e-03 0.0 
0.0 0.0 0.0 
-1.277855361161e-03 -6.012297479277e-06 0.0 
-6.012297479277e-06 4.312535228822e-03 0.0 
0.0 0.0 0.0 
-1.230596359388e-03 -4.738575235753e-05 0.0 
-4.738575235753e-05 4.325769415990e-03 0.0 
0.0 0.0 0.0 
-1.187094518555e-03 -7.437500289437e-05 0.0 
-7.437500289437e-05 4.333085630273e-03 0.0 
0.0 0.0 0.0 
-1.146852892058e-03 -8.890827918321e-05 0.0 
-8.890827918321e-05 4.336546971677e-03 0.0 
0.0 0.0 0.0 
-1.108740891506e-03 -9.360590240630e-05 0.0 
-9.360590240630e-05 4.336363791443e-03 0.0 
0.0 0.0 0.0 
-1.075585331711e-03 -9.175490310576e-05 0.0 
-9.175490310576e-05 4.334035787716e-03 0.0 
0.0 0.0 0.0 
-1.046465033972e-03 -8.485577483472e-05 0.0 
-8.485577483472e-05 4.330699927534e-03 0.0 
0.0 0.0 0.0 
-1.020874897770e-03 -7.411864300416e-05 0.0 
-7.411864300416e-05 4.327140371268e-03 0.0 
0.0 0.0 0.0 
-1.001551785057e-03 -6.048708662042e-05 0.0 
-6.048708662042e-05 4.324916256437e-03 0.0 
0.0 0.0 0.0 
-9.884057889310e-04 -4.528474959239e-05 0.0 
-4.528474959239e-05 4.324122684007e-03 0.0 
0.0 0.0 0.0 
-9.803114061022e-04 -3.075489981745e-05 0.0 
-3.075489981745e-05 4.323425100839e-03 0.0 
0.0 0.0 0.0 
-9.790162791745e-04 2.747042199266e-06 0.0 
2.747042199266e-06 4.321846513312e-03 0.0 
0.0 0.0 0.0 
-1.036385092594e-03 -2.591709651214e-06 0.0 
-2.591709651214e-06 4.780788002749e-03 0.0 
0.0 0.0 0.0 
-1.044180790460e-03 -2.499138859558e-05 0.0 
-2.499138859558e-05 4.783235545164e-03 0.0 
0.0 0.0 0.0 
-1.057658543620e-03 -3.461440351968e-05 0.0 
-3.461440351968e-05 4.784723942440e-03 0.0 
0.0 0.0 0.0 
-1.077110981116e-03 -3.946025547947e-05 0.0 
-3.946025547947e-05 4.786730490062e-03 0.0 
0.0 0.0 0.0 
-1.102656084383e-03 -4.022071936743e-05 0.0 
-4.022071936743e-05 4.789419308725e-03 0.0 
0.0 0.0 0.0 
-1.135379210441e-03 -3.721545426435e-05 0.0 
-3.721545426435e-05 4.792999773631e-03 0.0 
0.0 0.0 0.0 
-1.173237935446e-03 -2.807008161225e-05 0.0 
-2.807008161225e-05 4.795540949921e-03 0.0 
0.0 0.0 0.0 
-1.218960919678e-03 -1.297031526872e-05 0.0 
-1.297031526872e-05 4.796707015421e-03 0.0 
0.0 0.0 0.0 
-1.266687686012e-03 1.132320082396e-05 0.0 
1.132320082396e-05 4.792904197907e-03 0.0 
0.0 0.0 0.0 
-1.315756582309e-03 4.679117933235e-05 0.0 
4.679117933235e-05 4.783469009085e-03 0.0 
0.0 0.0 0.0 
-1.364692494058e-03 9.511409366239e-05 0.0 
9.511409366239e-05 4.766144886679e-03 0.0 
0.0 0.0 0.0 
-1.416319756465e-03 1.610695349237e-04 0.0 
1.610695349237e-04 4.738459222144e-03 0.0 
0.0 0.0 0.0 
-1.467174811694e-03 2.467203772441e-04 0.0 
2.467203772441e-04 4.696792775155e-03 0.0 
0.0 0.0 0.0 
-1.502695061813e-03 3.534047962588e-04 0.0 
3.534047962588e-04 4.631632534542e-03 0.0 
0.0 0.0 0.0 
-1.503651389764e-03 4.881466838419e-04 0.0 
4.881466838419e-04 4.541997143520e-03 0.0 
0.0 0.0 0.0 
-1.496664350504e-03 6.717795732625e-04 0.0 
6.717795732625e-04 4.432085700027e-03 0.0 
0.0 0.0 0.0 
-1.464344979618e-03 8.094065595493e-04 0.0 
8.094065595493e-04 4.255585069734e-03 0.0 
0.0 0.0 0.0 
-1.566027249898e-03 7.474050695971e-04 0.0 
7.474050695971e-04 4.805616277427e-03 0.0 
0.0 0.0 0.0 
-1.576540498703e-03 6.352693298316e-04 0.0 
6.352693298316e-04 4.968839283882e-03 0.0 
0.0 0.0 0.0 
-1.553895830299e-03 4.861884758788e-04 0.0 
4.861884758788e-04 5.058529952899e-03 0.0 
0.0 0.0 0.0 
-1.512845162560e-03 3.778919027070e-04 0.0 
3.778919027070e-04 5.123289431139e-03 0.0 
0.0 0.0 0.0 
-1.464872192091e-03 2.875838874473e-04 0.0 
2.875838874473e-04 5.169719443858e-03 0.0 
0.0 0.0 0.0 
-1.414288338206e-03 2.141976644313e-04 0.0 
2.141976644313e-04 5.200787847382e-03 0.0 
0.0 0.0 0.0 
-1.361554939913e-03 1.548170331649e-04 0.0 
1.548170331649e-04 5.219390903059e-03 0.0 
0.0 0.0 0.0 
-1.306779171062e-03 1.065218576137e-04 0.0 
1.065218576137e-04 5.229677523749e-03 0.0 
0.0 0.0 0.0 
-1.255016679390e-03 7.175011662884e-05 0.0 
7.175011662884e-05 5.234586667905e-03 0.0 
0.0 0.0 0.0 
-1.211038555880e-03 4.398133228849e-05 0.0 
4.398133228849e-05 5.234674577634e-03 0.0 
0.0 0.0 0.0 
-1.172449002027e-03 2.640353678234e-05 0.0 
2.640353678234e-05 5.234268905248e-03 0.0 
0.0 0.0 0.0 
-1.141621799217e-03 1.228602814175e-05 0.0 
1.228602814175e-05 5.232355292865e-03 0.0 
0.0 0.0 0.0 
-1.116788128407e-03 5.074242005878e-06 0.0 
5.074242005878e-06 5.232248886216e-03 0.0 
0.0 0.0 0.0 
-1.096440499302e-03 3.624252286336e-07 0.0 
3.624252286336e-07 5.229522164846e-03 0.0 
0.0 0.0 0.0 
-1.083370109116e-03 -5.020985923783e-06 0.0 
-5.020985923783e-06 5.230971835958e-03 0.0 
0.0 0.0 0.0 
-1.082304252792e-03 1.670359566547e-05 0.0 
1.670359566547e-05 5.233635059410e-03 0.0 
0.0 0.0 0.0 
-2.087318339064e-03 3.478035295122e-03 0.0 
3.478035295122e-03 -3.312780183365e-04 0.0 
0.0 0.0 0.0 
-1.511627310071e-03 1.824765959101e-03 0.0 
1.824765959101e-03 1.799218629430e-03 0.0 
0.0 0.0 0.0 
-8.921459304273e-04 1.713362294553e-03 0.0 
1.713362294553e-03 1.853890481447e-03 0.0 
0.0 0.0 0.0 
-7.272583472637e-04 1.651759062695e-03 0.0 
1.651759062695e-03 1.995585790921e-03 0.0 
0.0 0.0 0.0 
-7.617577982847e-04 1.569181214081e-03 0.0 
1.569181214081e-03 2.285791437894e-03 0.0 
0.0 0.0 0.0 
-9.212464158310e-04 1.431693788963e-03 0.0 
1.431693788963e-03 2.728140663324e-03 0.0 
0.0 0.0 0.0 
-1.140784098523e-03 1.273615238868e-03 0.0 
1.273615238868e-03 3.265508549668e-03 0.0 
0.0 0.0 0.0 
-1.341059890368e-03 1.124658588579e-03 0.0 
1.124658588579e-03 3.843014962330e-03 0.0 
0.0 0.0 0.0 
-1.495826815206e-03 1.000601384728e-03 0.0 
1.000601384728e-03 4.435906927463e-03 0.0 
0.0 0.0 0.0 
-1.589664771148e-03 9.225766118163e-04 0.0 
9.225766118163e-04 5.010026189480e-03 0.0 
0.0 0.0 0.0 
-9.051936760591e-04 2.604179540322e-03 0.0 
2.604179540322e-03 1.065110543900e-03 0.0 
0.0 0.0 0.0 
4.658371407649e-04 4.432288007418e-04 0.0 
4.432288007418e-04 3.460410220575e-03 0.0 
0.0 0.0 0.0 
-1.458338784281e-04 -3.476511625617e-04 0.0 
-3.476511625617e-04 3.213994444732e-04 0.0 
0.0 0.0 0.0 
-1.322348999706e-03 -1.858471698675e-03 0.0 
-1.858471698675e-03 -2.871589894366e-03 0.0 
0.0 0.0 0.0 
2.399224962804e-04 -6.793951768570e-04 0.0 
-6.793951768570e-04 4.027190710134e-03 0.0 
0.0 0.0 0.0 
-6.086041886773e-04 1.992386991417e-03 0.0 
1.992386991417e-03 1.877476707080e-03 0.0 
0.0 0.0 0.0 
-1.742417694833e-03 -2.504279307510e-04 0.0 
-2.504279307510e-04 3.962057619635e-03 0.0 
0.0 0.0 0.0 
4.189119131243e-04 1.535348584964e-03 0.0 
1.535348584964e-03 3.844702937536e-03 0.0 
0.0 0.0 0.0 
-9.008407090992e-04 1.680750832569e-03 0.0 
1.680750832569e-03 2.771650400953e-03 0.0 
0.0 0.0 0.0 
2.021857410712e-04 2.280963543950e-03 0.0 
2.280963543950e-03 4.883428201400e-03 0.0 
0.0 0.0 0.0 
-1.344538279307e-03 1.321799724968e-03 0.0 
1.321799724968e-03 4.002787298799e-03 0.0 
0.0 0.0 0.0 
-3.462220377903e-05 -9.211036175811e-04 0.0 
-9.211036175811e-04 4.980568737229e-03 0.0 
0.0 0.0 0.0 
1.130305258276e-03 -2.550771681608e-04 0.0 
-2.550771681608e-04 -2.347568472325e-04 0.0 
0.0 0.0 0.0 
-3.001350431410e-05 2.471313121902e-03 0.0 
2.471313121902e-03 6.148230213533e-03 0.0 
0.0 0.0 0.0 
-1.580479623909e-03 1.089604948710e-03 0.0 
1.089604948710e-03 5.247283275528e-03 0.0 
0.0 0.0 0.0 
-1.320646213518e-03 -1.916382831383e-04 0.0 
-1.916382831383e-04 2.842159085355e-03 0.0 
0.0 0.0 0.0 
-1.483067730708e-03 -2.302160635190e-04 0.0 
-2.302160635190e-04 4.545507246476e-03 0.0 
0.0 0.0 0.0 
-1.620489167735e-04 2.281651080037e-03 0.0 
2.281651080037e-03 6.984324576716e-03 0.0 
0.0 0.0 0.0 
-2.173742876126e-04 1.805211412490e-03 0.0 
1.805211412490e-03 7.865803374764e-03 0.0 
0.0 0.0 0.0 
-2.018856051146e-04 6.140262756591e-04 0.0 
6.140262756591e-04 8.740451161132e-03 0.0 
0.0 0.0 0.0 
-2.402053742911e-04 9.926787429155e-04 0.0 
9.926787429155e-04 8.546442300486e-03 0.0 
0.0 0.0 0.0 
-2.249128855598e-04 1.395616202745e-03 0.0 
1.395616202745e-03 8.293435415601e-03 0.0 
0.0 0.0 0.0 
-1.537027596901e-03 7.866833315783e-04 0.0 
7.866833315783e-04 5.714389474641e-03 0.0 
0.0 0.0 0.0 
-1.364005318239e-03 3.612409948767e-04 0.0 
3.612409948767e-04 5.962144639602e-03 0.0 
0.0 0.0 0.0 
-1.232604768846e-03 1.878511176826e-04 0.0 
1.878511176826e-04 6.046873256263e-03 0.0 
0.0 0.0 0.0 
-9.053033151200e-04 4.794883383620e-05 0.0 
4.794883383620e-05 7.411069964316e-03 0.0 
0.0 0.0 0.0 
-1.892504047094e-04 -7.053267850235e-04 0.0 
-7.053267850235e-04 5.519787880915e-03 0.0 
0.0 0.0 0.0 
-1.452139363941e-03 9.463652091467e-04 0.0 
9.463652091467e-04 -3.841006265167e-03 0.0 
0.0 0.0 0.0 
1.757690530585e-03 -1.294393885748e-04 0.0 
-1.294393885748e-04 -4.790076902587e-04 0.0 
0.0 0.0 0.0 
-9.567083976869e-04 -1.632573166983e-04 0.0 
-1.632573166983e-04 5.282840244373e-03 0.0 
0.0 0.0 0.0 
-1.136516957809e-03 7.565492639859e-05 0.0 
7.565492639859e-05 6.014169038634e-03 0.0 
0.0 0.0 0.0 
1.570527701899e-04 -8.963836911862e-05 0.0 
-8.963836911862e-05 1.234831862158e-03 0.0 
0.0 0.0 0.0 
-2.311326714340e-04 2.037016412233e-03 0.0 
2.037016412233e-03 7.438246255624e-03 0.0 
0.0 0.0 0.0 
2.948707364890e-04 1.980143503484e-03 0.0 
1.980143503484e-03 4.361771809688e-03 0.0 
0.0 0.0 0.0 
7.639801430751e-05 2.449313261837e-03 0.0 
2.449313261837e-03 5.517081656195e-03 0.0 
0.0 0.0 0.0 
4.966349627380e-04 1.049319272650e-03 0.0 
1.049319272650e-03 3.533767962742e-03 0.0 
0.0 0.0 0.0 
3.844007938177e-04 -8.813225030543e-05 0.0 
-8.813225030543e-05 3.577952880017e-03 0.0 
0.0 0.0 0.0 
-1.048987941554e-03 -1.566973698624e-03 0.0 
-1.566973698624e-03 3.574715440736e-04 0.0 
0.0 0.0 0.0 
-1.463129671501e-03 5.390397573649e-04 0.0 
5.390397573649e-04 5.863465327078e-03 0.0 
0.0 0.0 0.0 
1.095392919570e-04 -8.853695281122e-04 0.0 
-8.853695281122e-04 4.411210331832e-03 0.0 
0.0 0.0 0.0 
-6.709738512693e-04 6.909413518747e-05 0.0 
6.909413518747e-05 8.057076066177e-03 0.0 
0.0 0.0 0.0 
4.412454942784e-04 -2.541672806841e-04 0.0 
-2.541672806841e-04 8.300765792235e-05 0.0 
0.0 0.0 0.0 
-1.695537081376e-03 -2.425026671319e-04 0.0 
-2.425026671319e-04 3.476742857039e-03 0.0 
0.0 0.0 0.0 
-1.681919082631e-04 3.879409134222e-04 0.0 
3.879409134222e-04 8.842965773069e-03 0.0 
0.0 0.0 0.0 
-6.870360494181e-04 1.901847834556e-03 0.0 
1.901847834556e-03 2.254311058678e-03 0.0 
0.0 0.0 0.0 
-6.479776090909e-04 2.235221301475e-03 0.0 
2.235221301475e-03 1.543374914680e-03 0.0 
0.0 0.0 0.0 
-1.135188914462e-03 1.504633722907e-03 0.0 
1.504633722907e-03 3.367675706005e-03 0.0 
0.0 0.0 0.0 
-1.491301450697e-03 1.184922554051e-03 0.0 
1.184922554051e-03 4.636997391177e-03 0.0 
0.0 0.0 0.0 
-1.472292066271e-03 3.384721152643e-03 0.0 
3.384721152643e-03 -2.593715552736e-04 0.0 
0.0 0.0 0.0 
-1.048002967014e-03 3.337123821148e-05 0.0 
3.337123821148e-05 6.719171244716e-03 0.0 
0.0 0.0 0.0 
-2.119574133015e-04 -4.302657260850e-04 0.0 
-4.302657260850e-04 5.810374914819e-03 0.0 
0.0 0.0 0.0 
2.003060136915e-03 -4.584446784727e-05 0.0 
-4.584446784727e-05 -6.081016560739e-04 0.0 
0.0 0.0 0.0 
-3.305001443620e-04 9.908352020373e-05 0.0 
9.908352020373e-05 8.636403847745e-03 0.0 
0.0 0.0 0.0 
-1.579340494144e-03 1.055392671921e-03 0.0 
1.055392671921e-03 5.503583170854e-03 0.0 
0.0 0.0 0.0 
-1.521896260773e-03 1.245508341447e-03 0.0 
1.245508341447e-03 5.498308410933e-03 0.0 
0.0 0.0 0.0 
-1.491825995168e-03 1.153083987017e-03 0.0 
1.153083987017e-03 5.787145366985e-03 0.0 
0.0 0.0 0.0 
-1.412618324011e-03 1.378997482808e-03 0.0 
1.378997482808e-03 5.736171755339e-03 0.0 
0.0 0.0 0.0 
-1.363001579703e-03 1.285704243360e-03 0.0 
1.285704243360e-03 6.032645939562e-03 0.0 
0.0 0.0 0.0 
-1.271455500144e-03 1.473198676196e-03 0.0 
1.473198676196e-03 5.966454880228e-03 0.0 
0.0 0.0 0.0 
-1.306240246514e-03 1.579772710820e-03 0.0 
1.579772710820e-03 5.648770872957e-03 0.0 
0.0 0.0 0.0 
-1.153263974047e-03 1.655082944975e-03 0.0 
1.655082944975e-03 5.870155334917e-03 0.0 
0.0 0.0 0.0 
-1.165989186162e-03 1.773496931666e-03 0.0 
1.773496931666e-03 5.519082794717e-03 0.0 
0.0 0.0 0.0 
-1.229590146324e-03 1.386637567829e-03 0.0 
1.386637567829e-03 6.274486457143e-03 0.0 
0.0 0.0 0.0 
-1.008011885291e-03 1.825188951500e-03 0.0 
1.825188951500e-03 5.739425018939e-03 0.0 
0.0 0.0 0.0 
-9.955224641758e-04 1.950465130605e-03 0.0 
1.950465130605e-03 5.352046767100e-03 0.0 
0.0 0.0 0.0 
-8.389469690383e-04 1.979138669139e-03 0.0 
1.979138669139e-03 5.576025107474e-03 0.0 
0.0 0.0 0.0 
-7.992934669364e-04 2.105594455472e-03 0.0 
2.105594455472e-03 5.152669113442e-03 0.0 
0.0 0.0 0.0 
-9.469204966759e-04 2.085072558623e-03 0.0 
2.085072558623e-03 4.934900427681e-03 0.0 
0.0 0.0 0.0 
-7.260711043835e-04 2.246983212263e-03 0.0 
2.246983212263e-03 4.697263742516e-03 0.0 
0.0 0.0 0.0 
-8.576782491388e-04 2.203782862368e-03 0.0 
2.203782862368e-03 4.483129304922e-03 0.0 
0.0 0.0 0.0 
-6.083264377946e-04 2.374197297049e-03 0.0 
2.374197297049e-03 4.204397481810e-03 0.0 
0.0 0.0 0.0 
-4.829732508238e-04 2.369538423825e-03 0.0 
2.369538423825e-03 4.434902334526e-03 0.0 
0.0 0.0 0.0 
-3.323963081724e-04 2.499915396284e-03 0.0 
2.499915396284e-03 3.897664632339e-03 0.0 
0.0 0.0 0.0 
-4.458619068381e-04 2.482017829813e-03 0.0 
2.482017829813e-03 3.675939038801e-03 0.0 
0.0 0.0 0.0 
-1.411667273806e-04 2.608522030801e-03 0.0 
2.608522030801e-03 3.324397729727e-03 0.0 
0.0 0.0 0.0 
-2.512128417491e-04 2.586520138369e-03 0.0 
2.586520138369e-03 3.120725007208e-03 0.0 
0.0 0.0 0.0 
8.604864215633e-05 2.698629961312e-03 0.0 
2.698629961312e-03 2.723357736988e-03 0.0 
0.0 0.0 0.0 
-1.900909974994e-05 2.682025907488e-03 0.0 
2.682025907488e-03 2.540711756275e-03 0.0 
0.0 0.0 0.0 
3.519655876130e-04 2.769000608332e-03 0.0 
2.769000608332e-03 2.099228745399e-03 0.0 
0.0 0.0 0.0 
4.391260730962e-04 2.749884389457e-03 0.0 
2.749884389457e-03 2.317286464894e-03 0.0 
0.0 0.0 0.0 
7.365287806404e-04 2.789841293676e-03 0.0 
2.789841293676e-03 1.653663619723e-03 0.0 
0.0 0.0 0.0 
6.573163932912e-04 2.812252944066e-03 0.0 
2.812252944066e-03 1.467101298937e-03 0.0 
0.0 0.0 0.0 
1.068113387015e-03 2.784782539649e-03 0.0 
2.784782539649e-03 9.918381403488e-04 0.0 
0.0 0.0 0.0 
9.857739770741e-04 2.816660985308e-03 0.0 
2.816660985308e-03 8.498627183630e-04 0.0 
0.0 0.0 0.0 
1.438002853448e-03 2.738548500146e-03 0.0 
2.738548500146e-03 3.445424491392e-04 0.0 
0.0 0.0 0.0 
1.468585911962e-03 2.685619366314e-03 0.0 
2.685619366314e-03 5.489144494956e-04 0.0 
0.0 0.0 0.0 
1.895083823677e-03 2.604819217199e-03 0.0 
2.604819217199e-03 -1.436390951736e-04 0.0 
0.0 0.0 0.0 
1.901772021328e-03 2.710609277284e-03 0.0 
2.710609277284e-03 -3.464778595821e-04 0.0 
0.0 0.0 0.0 
2.420914312265e-03 2.528498773457e-03 0.0 
2.528498773457e-03 -8.985378294859e-04 0.0 
0.0 0.0 0.0 
2.430761705625e-03 2.684744756953e-03 0.0 
2.684744756953e-03 -1.066578775526e-03 0.0 
0.0 0.0 0.0 
2.957643846428e-03 2.384214940295e-03 0.0 
2.384214940295e-03 -1.601355308421e-03 0.0 
0.0 0.0 0.0 
2.956894892534e-03 2.541999814131e-03 0.0 
2.541999814131e-03 -1.691183902669e-03 0.0 
0.0 0.0 0.0 
3.444126860552e-03 2.114718183549e-03 0.0 
2.114718183549e-03 -2.169686497181e-03 0.0 
0.0 0.0 0.0 
3.366596584177e-03 1.969587419070e-03 0.0 
1.969587419070e-03 -2.022560081077e-03 0.0 
0.0 0.0 0.0 
3.772420468782e-03 1.594515395226e-03 0.0 
1.594515395226e-03 -2.513506345213e-03 0.0 
0.0 0.0 0.0 
3.830650743840e-03 1.735734055755e-03 0.0 
1.735734055755e-03 -2.652232637434e-03 0.0 
0.0 0.0 0.0 
4.051862167286e-03 1.118576799828e-03 0.0 
1.118576799828e-03 -2.879100104652e-03 0.0 
0.0 0.0 0.0 
3.923143391503e-03 1.030040146481e-03 0.0 
1.030040146481e-03 -2.697032590348e-03 0.0 
0.0 0.0 0.0 
4.076254643804e-03 4.988086086321e-04 0.0 
4.988086086321e-04 -2.936090424037e-03 0.0 
0.0 0.0 0.0 
3.891841157264e-03 4.602144034504e-04 0.0 
4.602144034504e-04 -2.698363058312e-03 0.0 
0.0 0.0 0.0 
3.907436899669e-03 -8.883134780791e-05 0.0 
-8.883134780791e-05 -2.823924212231e-03 0.0 
0.0 0.0 0.0 
4.060907331091e-03 -9.784966985939e-05 0.0 
-9.784966985939e-05 -3.046718753252e-03 0.0 
0.0 0.0 0.0 
3.752975415048e-03 -6.635906129334e-04 0.0 
-6.635906129334e-04 -2.792760579617e-03 0.0 
0.0 0.0 0.0 
3.542623947802e-03 -5.948422402437e-04 0.0 
-5.948422402437e-04 -2.475263197898e-03 0.0 
0.0 0.0 0.0 
3.268132586711e-03 -1.106843485691e-03 0.0 
-1.106843485691e-03 -2.324902303456e-03 0.0 
0.0 0.0 0.0 
3.449576954982e-03 -1.240458972233e-03 0.0 
-1.240458972233e-03 -2.627122109637e-03 0.0 
0.0 0.0 0.0 
2.870481334940e-03 -1.573520880845e-03 0.0 
-1.573520880845e-03 -2.032365835971e-03 0.0 
0.0 0.0 0.0 
2.679427627968e-03 -1.397173730457e-03 0.0 
-1.397173730457e-03 -1.677002213890e-03 0.0 
0.0 0.0 0.0 
2.279945819155e-03 -1.760494394011e-03 0.0 
-1.760494394011e-03 -1.353697233693e-03 0.0 
0.0 0.0 0.0 
2.396147534391e-03 -1.959358373139e-03 0.0 
-1.959358373139e-03 -1.641309047632e-03 0.0 
0.0 0.0 0.0 
1.861231552892e-03 -2.070452523012e-03 0.0 
-2.070452523012e-03 -9.735736749693e-04 0.0 
0.0 0.0 0.0 
1.828016313038e-03 -1.916343299947e-03 0.0 
-1.916343299947e-03 -7.899827608808e-04 0.0 
0.0 0.0 0.0 
1.439499250714e-03 -2.162220989623e-03 0.0 
-2.162220989623e-03 -4.288491633307e-04 0.0 
0.0 0.0 0.0 
1.436537984046e-03 -2.312807031443e-03 0.0 
-2.312807031443e-03 -5.623810096337e-04 0.0 
0.0 0.0 0.0 
1.028309883296e-03 -2.333745700867e-03 0.0 
-2.333745700867e-03 -2.263704982606e-05 0.0 
0.0 0.0 0.0 
1.003187719158e-03 -2.186216136035e-03 0.0 
-2.186216136035e-03 1.575104953153e-04 0.0 
0.0 0.0 0.0 
6.055488489511e-04 -2.283906120057e-03 0.0 
-2.283906120057e-03 5.521916296154e-04 0.0 
0.0 0.0 0.0 
5.704530303854e-04 -2.143251657438e-03 0.0 
-2.143251657438e-03 7.866812578565e-04 0.0 
0.0 0.0 0.0 
6.074426705045e-04 -2.413960730079e-03 0.0 
-2.413960730079e-03 4.068021753436e-04 0.0 
0.0 0.0 0.0 
2.129592030708e-04 -2.301887059969e-03 0.0 
-2.301887059969e-03 9.549755755839e-04 0.0 
0.0 0.0 0.0 
2.015546467246e-04 -2.393600346288e-03 0.0 
-2.393600346288e-03 8.338656009156e-04 0.0 
0.0 0.0 0.0 
-1.580571590167e-04 -2.234337819468e-03 0.0 
-2.234337819468e-03 1.344233064345e-03 0.0 
0.0 0.0 0.0 
1.851199760209e-03 2.531565152484e-03 0.0 
2.531565152484e-03 1.522237780167e-04 0.0 
0.0 0.0 0.0 
-1.661491148874e-04 -2.271092699625e-03 0.0 
-2.271092699625e-03 1.227406978797e-03 0.0 
0.0 0.0 0.0 
1.587127450748e-04 -2.425336829621e-03 0.0 
-2.425336829621e-03 7.596064569939e-04 0.0 
0.0 0.0 0.0 
-4.824678186279e-04 -2.085144478097e-03 0.0 
-2.085144478097e-03 1.690563006658e-03 0.0 
0.0 0.0 0.0 
-4.914286238031e-04 -2.041719918937e-03 0.0 
-2.041719918937e-03 1.849166968093e-03 0.0 
0.0 0.0 0.0 
-4.672191276087e-04 -2.063563621419e-03 0.0 
-2.063563621419e-03 1.556544185091e-03 0.0 
0.0 0.0 0.0 
-7.407962301380e-04 -1.869392658385e-03 0.0 
-1.869392658385e-03 1.971934817791e-03 0.0 
0.0 0.0 0.0 
-6.837454173753e-04 -1.795505869302e-03 0.0 
-1.795505869302e-03 1.805706632404e-03 0.0 
0.0 0.0 0.0 
2.353556288323e-03 2.836156479183e-03 0.0 
2.836156479183e-03 -1.104388674380e-03 0.0 
0.0 0.0 0.0 
-2.239528914316e-04 2.444852577301e-03 0.0 
2.444852577301e-03 4.157915999770e-03 0.0 
0.0 0.0 0.0 
-9.204062613519e-04 -1.603274306135e-03 0.0 
-1.603274306135e-03 2.175001156170e-03 0.0 
0.0 0.0 0.0 
-8.038284144353e-04 -1.486874641476e-03 0.0 
-1.486874641476e-03 1.958761059734e-03 0.0 
0.0 0.0 0.0 
-6.060066344986e-04 -1.652810585148e-03 0.0 
-1.652810585148e-03 1.637695568879e-03 0.0 
0.0 0.0 0.0 
-6.442030269674e-04 -1.304633628557e-03 0.0 
-1.304633628557e-03 1.716252972546e-03 0.0 
0.0 0.0 0.0 
-1.313851173984e-03 1.214510804758e-03 0.0 
1.214510804758e-03 6.310730657255e-03 0.0 
0.0 0.0 0.0 
-1.170899361998e-03 1.313350436938e-03 0.0 
1.313350436938e-03 6.569811269270e-03 0.0 
0.0 0.0 0.0 
-1.247197429866e-03 1.140144061260e-03 0.0 
1.140144061260e-03 6.582193924418e-03 0.0 
0.0 0.0 0.0 
-1.104431733162e-03 1.249319285075e-03 0.0 
1.249319285075e-03 6.855841223697e-03 0.0 
0.0 0.0 0.0 
-1.174000482993e-03 1.084651930590e-03 0.0 
1.084651930590e-03 6.853788297655e-03 0.0 
0.0 0.0 0.0 
-8.178227160853e-04 -1.163831818074e-03 0.0 
-1.163831818074e-03 2.006942084872e-03 0.0 
0.0 0.0 0.0 
-8.501129153842e-04 1.877062378235e-03 0.0 
1.877062378235e-03 5.973627194109e-03 0.0 
0.0 0.0 0.0 
-1.018128515743e-03 1.412870000223e-03 0.0 
1.412870000223e-03 6.828796313212e-03 0.0 
0.0 0.0 0.0 
-5.619560578991e-04 2.422304613236e-03 0.0 
2.422304613236e-03 3.493776135274e-03 0.0 
0.0 0.0 0.0 
5.512367355402e-04 2.817858270073e-03 0.0 
2.817858270073e-03 1.365980089293e-03 0.0 
0.0 0.0 0.0 
3.702810049676e-03 9.549736898148e-04 0.0 
9.549736898148e-04 -2.396491625930e-03 0.0 
0.0 0.0 0.0 
-9.956654126117e-04 -1.654533669862e-03 0.0 
-1.654533669862e-03 2.375122070294e-03 0.0 
0.0 0.0 0.0 
-1.142569654163e-03 -1.398234903989e-03 0.0 
-1.398234903989e-03 2.533366687437e-03 0.0 
0.0 0.0 0.0 
-1.218433487870e-03 -1.425160321789e-03 0.0 
-1.425160321789e-03 2.754218544641e-03 0.0 
0.0 0.0 0.0 
9.450438392797e-04 -2.039306798206e-03 0.0 
-2.039306798206e-03 4.393626658985e-04 0.0 
0.0 0.0 0.0 
5.337135139088e-04 -1.988920199189e-03 0.0 
-1.988920199189e-03 1.102958170560e-03 0.0 
0.0 0.0 0.0 
8.894311768468e-04 -1.873477102900e-03 0.0 
-1.873477102900e-03 8.132191384989e-04 0.0 
0.0 0.0 0.0 
5.152550625891e-04 -1.799252525381e-03 0.0 
-1.799252525381e-03 1.482993074266e-03 0.0 
0.0 0.0 0.0 
8.443867818589e-04 -1.653935838875e-03 0.0 
-1.653935838875e-03 1.262805517616e-03 0.0 
0.0 0.0 0.0 
4.982646494304e-04 -1.566943249186e-03 0.0 
-1.566943249186e-03 1.916233428968e-03 0.0 
0.0 0.0 0.0 
1.871225270738e-04 -1.673185928747e-03 0.0 
-1.673185928747e-03 2.116099584116e-03 0.0 
0.0 0.0 0.0 
1.915432026501e-04 -1.449776149799e-03 0.0 
-1.449776149799e-03 2.527208352020e-03 0.0 
0.0 0.0 0.0 
-9.573864013350e-05 -1.516357860317e-03 0.0 
-1.516357860317e-03 2.702065845187e-03 0.0 
0.0 0.0 0.0 
7.790639687474e-04 -1.396123017535e-03 0.0 
-1.396123017535e-03 1.768244730539e-03 0.0 
0.0 0.0 0.0 
1.137573585850e-03 -1.432283316892e-03 0.0 
-1.432283316892e-03 1.113105512879e-03 0.0 
0.0 0.0 0.0 
-6.954344703023e-05 -1.314238363647e-03 0.0 
-1.314238363647e-03 3.089518825847e-03 0.0 
0.0 0.0 0.0 
-3.329650691567e-04 -1.342867204370e-03 0.0 
-1.342867204370e-03 3.237059062367e-03 0.0 
0.0 0.0 0.0 
-2.829368536372e-04 -1.167927790150e-03 0.0 
-1.167927790150e-03 3.601422032746e-03 0.0 
0.0 0.0 0.0 
-5.285886214989e-04 -1.163264747298e-03 0.0 
-1.163264747298e-03 3.720403604134e-03 0.0 
0.0 0.0 0.0 
-6.083337918459e-04 -1.323170788171e-03 0.0 
-1.323170788171e-03 3.398749486773e-03 0.0 
0.0 0.0 0.0 
-7.784107762671e-04 -1.116740086294e-03 0.0 
-1.116740086294e-03 3.843200289820e-03 0.0 
0.0 0.0 0.0 
-8.695345187855e-04 -1.261216923254e-03 0.0 
-1.261216923254e-03 3.553706221252e-03 0.0 
0.0 0.0 0.0 
3.594107665354e-03 4.276371183053e-04 0.0 
4.276371183053e-04 -2.281038204538e-03 0.0 
0.0 0.0 0.0 
3.341606362696e-03 9.119991635634e-04 0.0 
9.119991635634e-04 -1.819441735264e-03 0.0 
0.0 0.0 0.0 
3.150286656827e-03 4.290777432777e-04 0.0 
4.290777432777e-04 -1.522057376620e-03 0.0 
0.0 0.0 0.0 
2.874069866894e-03 8.662698938566e-04 0.0 
8.662698938566e-04 -9.223235190386e-04 0.0 
0.0 0.0 0.0 
2.678146602707e-03 4.647015544118e-04 0.0 
4.647015544118e-04 -6.018566641531e-04 0.0 
0.0 0.0 0.0 
2.431379471024e-03 8.303181702390e-04 0.0 
8.303181702390e-04 -5.708005296832e-05 0.0 
0.0 0.0 0.0 
2.270292552705e-03 5.062875872659e-04 0.0 
5.062875872659e-04 2.097586334272e-04 0.0 
0.0 0.0 0.0 
2.444431457042e-03 1.351369867059e-04 0.0 
1.351369867059e-04 -2.380453720023e-04 0.0 
0.0 0.0 0.0 
-6.522811471420e-04 2.113533776714e-03 0.0 
2.113533776714e-03 5.384613410432e-03 0.0 
0.0 0.0 0.0 
4.107402392297e-03 1.233426753927e-03 0.0 
1.233426753927e-03 -3.086254848977e-03 0.0 
0.0 0.0 0.0 
3.799175230248e-03 1.887025061729e-03 0.0 
1.887025061729e-03 -2.788467396058e-03 0.0 
0.0 0.0 0.0 
4.071707938276e-03 1.345893464069e-03 0.0 
1.345893464069e-03 -3.264979062807e-03 0.0 
0.0 0.0 0.0 
3.685112030203e-03 2.052537787834e-03 0.0 
2.052537787834e-03 -2.876930133352e-03 0.0 
0.0 0.0 0.0 
3.937390036642e-03 1.503249639296e-03 0.0 
1.503249639296e-03 -3.401743484889e-03 0.0 
0.0 0.0 0.0 
3.477073944114e-03 2.283399627128e-03 0.0 
2.283399627128e-03 -2.926149552633e-03 0.0 
0.0 0.0 0.0 
3.713020663288e-03 1.697628789189e-03 0.0 
1.697628789189e-03 -3.556001417155e-03 0.0 
0.0 0.0 0.0 
4.007381545163e-03 7.645996995677e-04 0.0 
7.645996995677e-04 -3.823193490717e-03 0.0 
0.0 0.0 0.0 
3.726468257057e-03 8.677656754901e-04 0.0 
8.677656754901e-04 -4.070927323442e-03 0.0 
0.0 0.0 0.0 
3.865641787938e-03 -1.329479717234e-04 0.0 
-1.329479717234e-04 -4.055675780212e-03 0.0 
0.0 0.0 0.0 
3.491593874225e-03 -1.092010155925e-04 0.0 
-1.092010155925e-04 -4.318895690038e-03 0.0 
0.0 0.0 0.0 
3.564443567817e-03 -1.096806826776e-03 0.0 
-1.096806826776e-03 -4.024034270073e-03 0.0 
0.0 0.0 0.0 
7.935212182005e-04 2.731663948117e-03 0.0 
2.731663948117e-03 1.923468480376e-03 0.0 
0.0 0.0 0.0 
2.534587965791e-03 1.204243459736e-03 0.0 
1.204243459736e-03 -2.527196401104e-04 0.0 
0.0 0.0 0.0 
2.139085770674e-03 1.125144744019e-03 0.0 
1.125144744019e-03 5.340048475847e-04 0.0 
0.0 0.0 0.0 
2.181042195987e-03 1.454772381473e-03 0.0 
1.454772381473e-03 4.118481932095e-04 0.0 
0.0 0.0 0.0 
-4.964172933533e-04 -1.428354004921e-03 0.0 
-1.428354004921e-03 1.448785815329e-03 0.0 
0.0 0.0 0.0 
-6.838358822817e-04 -9.841192783519e-04 0.0 
-9.841192783519e-04 4.151926258221e-03 0.0 
0.0 0.0 0.0 
1.006605409922e-03 -1.176626826642e-03 0.0 
-1.176626826642e-03 1.686012187728e-03 0.0 
0.0 0.0 0.0 
1.361599577480e-03 -1.151664607528e-03 0.0 
-1.151664607528e-03 1.051183119242e-03 0.0 
0.0 0.0 0.0 
2.061892227820e-03 2.233972802928e-04 0.0 
2.233972802928e-04 5.519988464808e-04 0.0 
0.0 0.0 0.0 
-5.667996504667e-04 -9.599533943346e-04 0.0 
-9.599533943346e-04 1.681891462995e-03 0.0 
0.0 0.0 0.0 
3.166841087707e-03 2.528835856285e-03 0.0 
2.528835856285e-03 -2.951883968875e-03 0.0 
0.0 0.0 0.0 
2.794811203456e-03 2.892444423564e-03 0.0 
2.892444423564e-03 -2.207017835734e-03 0.0 
0.0 0.0 0.0 
-1.025952546410e-03 1.191826210151e-03 0.0 
1.191826210151e-03 7.126872643633e-03 0.0 
0.0 0.0 0.0 
-1.091260284506e-03 1.035300684930e-03 0.0 
1.035300684930e-03 7.110300375757e-03 0.0 
0.0 0.0 0.0 
1.166283590753e-03 -9.268400100046e-04 0.0 
-9.268400100046e-04 1.680243165124e-03 0.0 
0.0 0.0 0.0 
-7.178702531901e-04 -8.448670342177e-04 0.0 
-8.448670342177e-04 1.951855580657e-03 0.0 
0.0 0.0 0.0 
1.762546437006e-04 -1.238552509140e-03 0.0 
-1.238552509140e-03 2.967346695869e-03 0.0 
0.0 0.0 0.0 
3.267638721366e-03 1.006106235147e-03 0.0 
1.006106235147e-03 -4.278204012322e-03 0.0 
0.0 0.0 0.0 
-9.051603158788e-04 -9.138338886522e-04 0.0 
-9.138338886522e-04 4.234079301961e-03 0.0 
0.0 0.0 0.0 
-7.883387562585e-04 -8.058953570296e-04 0.0 
-8.058953570296e-04 4.526969369167e-03 0.0 
0.0 0.0 0.0 
-1.334873634497e-04 -1.714625309569e-03 0.0 
-1.714625309569e-03 2.347055101906e-03 0.0 
0.0 0.0 0.0 
1.831619256679e-03 1.359010137572e-03 0.0 
1.359010137572e-03 1.144469751385e-03 0.0 
0.0 0.0 0.0 
1.838862115071e-03 1.642269205676e-03 0.0 
1.642269205676e-03 1.065501194058e-03 0.0 
0.0 0.0 0.0 
3.767734179112e-03 -1.009796112032e-03 0.0 
-1.009796112032e-03 -3.737296595968e-03 0.0 
0.0 0.0 0.0 
3.339385782439e-03 -1.890239097991e-03 0.0 
-1.890239097991e-03 -3.430819084531e-03 0.0 
0.0 0.0 0.0 
3.149841659323e-03 -2.084771185295e-03 0.0 
-2.084771185295e-03 -3.629604019207e-03 0.0 
0.0 0.0 0.0 
2.685831791271e-03 -2.626442489900e-03 0.0 
-2.626442489900e-03 -2.805186932412e-03 0.0 
0.0 0.0 0.0 
2.901840901956e-03 -2.359723250011e-03 0.0 
-2.359723250011e-03 -2.746507648958e-03 0.0 
0.0 0.0 0.0 
2.194003874306e-03 -2.843068603966e-03 0.0 
-2.843068603966e-03 -2.081312332152e-03 0.0 
0.0 0.0 0.0 
1.861670948221e-03 -3.109955720789e-03 0.0 
-3.109955720789e-03 -1.967696366923e-03 0.0 
0.0 0.0 0.0 
1.410999676467e-03 -3.102804948504e-03 0.0 
-3.102804948504e-03 -1.226417873534e-03 0.0 
0.0 0.0 0.0 
1.706744633171e-03 -2.898732341284e-03 0.0 
-2.898732341284e-03 -1.395585693012e-03 0.0 
0.0 0.0 0.0 
9.645499949742e-04 -2.918754237362e-03 0.0 
-2.918754237362e-03 -6.172432071776e-04 0.0 
0.0 0.0 0.0 
5.237109559012e-04 -2.910019991875e-03 0.0 
-2.910019991875e-03 -3.254735750204e-04 0.0 
0.0 0.0 0.0 
2.755554893042e-04 -2.644987663855e-03 0.0 
-2.644987663855e-03 1.113136701851e-04 0.0 
0.0 0.0 0.0 
-5.824441378794e-04 -8.665243837741e-04 0.0 
-8.665243837741e-04 4.473934860488e-03 0.0 
0.0 0.0 0.0 
2.998200485134e-03 -6.704455195699e-05 0.0 
-6.704455195699e-05 -4.584936475474e-03 0.0 
0.0 0.0 0.0 
-1.073538685335e-03 2.001678259885e-03 0.0 
2.001678259885e-03 4.726092768102e-03 0.0 
0.0 0.0 0.0 
8.495676394123e-04 -9.726808794236e-04 0.0 
-9.726808794236e-04 2.266175305282e-03 0.0 
0.0 0.0 0.0 
1.879572807288e-03 5.431561148734e-04 0.0 
5.431561148734e-04 9.783662253667e-04 0.0 
0.0 0.0 0.0 
-9.359543041322e-04 1.140182638002e-03 0.0 
1.140182638002e-03 7.385935877074e-03 0.0 
0.0 0.0 0.0 
-9.997260097750e-04 9.893673910532e-04 0.0 
9.893673910532e-04 7.355065944830e-03 0.0 
0.0 0.0 0.0 
-1.139987170725e-03 8.840699026092e-04 0.0 
8.840699026092e-04 7.065894206167e-03 0.0 
0.0 0.0 0.0 
-1.049791027645e-03 8.440620556153e-04 0.0 
8.440620556153e-04 7.300840284012e-03 0.0 
0.0 0.0 0.0 
-8.987602636543e-04 9.440759364599e-04 0.0 
9.440759364599e-04 7.588054123276e-03 0.0 
0.0 0.0 0.0 
-9.525467452475e-04 8.036355423931e-04 0.0 
8.036355423931e-04 7.525729609320e-03 0.0 
0.0 0.0 0.0 
-1.087365368824e-03 7.069736999324e-04 0.0 
7.069736999324e-04 7.224955652660e-03 0.0 
0.0 0.0 0.0 
-9.949988805558e-04 6.719832243899e-04 0.0 
6.719832243899e-04 7.443727582609e-03 0.0 
0.0 0.0 0.0 
-1.113213891610e-03 5.800526565625e-04 0.0 
5.800526565625e-04 7.129257056655e-03 0.0 
0.0 0.0 0.0 
-1.027275467046e-03 5.508931373250e-04 0.0 
5.508931373250e-04 7.343561467456e-03 0.0 
0.0 0.0 0.0 
-8.975070211114e-04 6.345488250481e-04 0.0 
6.345488250481e-04 7.655066247996e-03 0.0 
0.0 0.0 0.0 
-9.367464839566e-04 5.177869997600e-04 0.0 
5.177869997600e-04 7.550882246216e-03 0.0 
0.0 0.0 0.0 
-1.051040189390e-03 4.412428386175e-04 0.0 
4.412428386175e-04 7.226651377950e-03 0.0 
0.0 0.0 0.0 
-9.685831888297e-04 4.118174326936e-04 0.0 
4.118174326936e-04 7.432140131909e-03 0.0 
0.0 0.0 0.0 
-1.067880747795e-03 3.435119153280e-04 0.0 
3.435119153280e-04 7.094799108813e-03 0.0 
0.0 0.0 0.0 
-9.940076033650e-04 3.174674782210e-04 0.0 
3.174674782210e-04 7.298387376303e-03 0.0 
0.0 0.0 0.0 
-8.820196925371e-04 3.771489051030e-04 0.0 
3.771489051030e-04 7.631212804360e-03 0.0 
0.0 0.0 0.0 
-3.450980068958e-04 -6.658840839467e-04 0.0 
-6.658840839467e-04 1.536173942104e-03 0.0 
0.0 0.0 0.0 
2.174588461930e-03 -1.387818873510e-04 0.0 
-1.387818873510e-04 1.883316141399e-04 0.0 
0.0 0.0 0.0 
1.809528701023e-03 -1.749906605508e-05 0.0 
-1.749906605508e-05 9.584526274528e-04 0.0 
0.0 0.0 0.0 
-1.335567756696e-03 -1.183882974274e-03 0.0 
-1.183882974274e-03 2.862597406548e-03 0.0 
0.0 0.0 0.0 
-1.401745242645e-03 -1.184738099712e-03 0.0 
-1.184738099712e-03 3.102088240187e-03 0.0 
0.0 0.0 0.0 
-1.247420638716e-03 -1.404919144620e-03 0.0 
-1.404919144620e-03 2.981121076209e-03 0.0 
0.0 0.0 0.0 
-1.420687175092e-03 -1.154517384945e-03 0.0 
-1.154517384945e-03 3.342187847884e-03 0.0 
0.0 0.0 0.0 
-9.181707097376e-04 2.846635500730e-04 0.0 
2.846635500730e-04 7.495392974340e-03 0.0 
0.0 0.0 0.0 
-7.925342551185e-04 3.359249282800e-04 0.0 
3.359249282800e-04 7.824093685422e-03 0.0 
0.0 0.0 0.0 
2.384670522381e-03 3.142428562338e-03 0.0 
3.142428562338e-03 -2.080553223094e-03 0.0 
0.0 0.0 0.0 
1.949038406802e-03 3.237256014173e-03 0.0 
3.237256014173e-03 -1.314102965862e-03 0.0 
0.0 0.0 0.0 
-8.577345034740e-04 1.295446609523e-03 0.0 
1.295446609523e-03 7.392078591021e-03 0.0 
0.0 0.0 0.0 
-9.879376808172e-04 -7.148550372252e-04 0.0 
-7.148550372252e-04 4.568230841624e-03 0.0 
0.0 0.0 0.0 
-1.116683378034e-03 -8.091216697212e-04 0.0 
-8.091216697212e-04 4.304263129116e-03 0.0 
0.0 0.0 0.0 
8.623265169613e-04 2.842684114330e-03 0.0 
2.842684114330e-03 7.988991138624e-04 0.0 
0.0 0.0 0.0 
4.091225552936e-04 2.805745255004e-03 0.0 
2.805745255004e-03 1.347066607517e-03 0.0 
0.0 0.0 0.0 
6.966204277178e-04 2.856410321884e-03 0.0 
2.856410321884e-03 8.234908914937e-04 0.0 
0.0 0.0 0.0 
2.310533900996e-04 2.756878192102e-03 0.0 
2.756878192102e-03 1.392275422743e-03 0.0 
0.0 0.0 0.0 
-1.184928418058e-05 2.674609859510e-03 0.0 
2.674609859510e-03 1.866756473385e-03 0.0 
0.0 0.0 0.0 
4.862365602743e-04 2.827943752883e-03 0.0 
2.827943752883e-03 8.982746894626e-04 0.0 
0.0 0.0 0.0 
1.527636630719e-03 -1.420820702837e-03 0.0 
-1.420820702837e-03 4.290686148468e-04 0.0 
0.0 0.0 0.0 
-7.949043452503e-04 5.926001634092e-04 0.0 
5.926001634092e-04 7.857667713260e-03 0.0 
0.0 0.0 0.0 
-4.375324034600e-04 -1.801016234765e-03 0.0 
-1.801016234765e-03 1.344600476962e-03 0.0 
0.0 0.0 0.0 
-4.035166333621e-04 -1.534529987010e-03 0.0 
-1.534529987010e-03 1.228758707887e-03 0.0 
0.0 0.0 0.0 
-8.456129378918e-04 -6.322403291712e-04 0.0 
-6.322403291712e-04 4.844680926869e-03 0.0 
0.0 0.0 0.0 
2.530917809244e-03 -2.935339562257e-04 0.0 
-2.935339562257e-04 -6.034163548574e-04 0.0 
0.0 0.0 0.0 
5.036874161813e-04 2.673573249153e-03 0.0 
2.673573249153e-03 2.609075594631e-03 0.0 
0.0 0.0 0.0 
8.128937680058e-04 2.595657219755e-03 0.0 
2.595657219755e-03 2.285188207147e-03 0.0 
0.0 0.0 0.0 
5.295204687503e-04 2.530629878424e-03 0.0 
2.530629878424e-03 2.972392058330e-03 0.0 
0.0 0.0 0.0 
7.842854767982e-04 2.427826423218e-03 0.0 
2.427826423218e-03 2.709847380946e-03 0.0 
0.0 0.0 0.0 
5.152615398041e-04 2.399051786426e-03 0.0 
2.399051786426e-03 3.378221694543e-03 0.0 
0.0 0.0 0.0 
7.107312163825e-04 2.300594868038e-03 0.0 
2.300594868038e-03 3.167427417136e-03 0.0 
0.0 0.0 0.0 
9.949067192630e-04 2.283083197942e-03 0.0 
2.283083197942e-03 2.502894123854e-03 0.0 
0.0 0.0 0.0 
1.529109550756e-03 1.551717788280e-03 0.0 
1.551717788280e-03 1.757560207510e-03 0.0 
0.0 0.0 0.0 
8.606623833088e-04 2.170722536750e-03 0.0 
2.170722536750e-03 3.018205841050e-03 0.0 
0.0 0.0 0.0 
-1.015753698842e-03 2.388815458055e-04 0.0 
2.388815458055e-04 7.146750338856e-03 0.0 
0.0 0.0 0.0 
2.548370775402e-03 1.614158669940e-03 0.0 
1.614158669940e-03 -3.723409342696e-04 0.0 
0.0 0.0 0.0 
1.217234168179e-03 -2.785615081487e-03 0.0 
-2.785615081487e-03 -7.661580268291e-04 0.0 
0.0 0.0 0.0 
-2.380572049337e-04 -7.204801125869e-04 0.0 
-7.204801125869e-04 1.303791400847e-03 0.0 
0.0 0.0 0.0 
-7.769693745955e-05 -2.413947865493e-03 0.0 
-2.413947865493e-03 3.964143100560e-04 0.0 
0.0 0.0 0.0 
-5.099499673749e-04 -5.623712067583e-04 0.0 
-5.623712067583e-04 1.783158462145e-03 0.0 
0.0 0.0 0.0 
-8.993901046968e-04 -7.184724107936e-04 0.0 
-7.184724107936e-04 2.226968273064e-03 0.0 
0.0 0.0 0.0 
9.477524248844e-04 -7.574339139740e-04 0.0 
-7.574339139740e-04 2.309836624969e-03 0.0 
0.0 0.0 0.0 
4.610871468783e-04 2.314734278866e-03 0.0 
2.314734278866e-03 3.817601801182e-03 0.0 
0.0 0.0 0.0 
2.861081293433e-04 2.370767003586e-03 0.0 
2.370767003586e-03 4.009324062475e-03 0.0 
0.0 0.0 0.0 
-1.765083960212e-04 2.569770358366e-03 0.0 
2.569770358366e-03 1.907137758470e-03 0.0 
0.0 0.0 0.0 
-3.859948499789e-04 2.459536878948e-03 0.0 
2.459536878948e-03 2.339951914168e-03 0.0 
0.0 0.0 0.0 
1.486198978174e-03 1.304449654024e-03 0.0 
1.304449654024e-03 1.854627044857e-03 0.0 
0.0 0.0 0.0 
-1.300754152474e-03 9.770742463586e-04 0.0 
9.770742463586e-04 6.571275304489e-03 0.0 
0.0 0.0 0.0 
-1.195453163618e-03 6.065308185777e-04 0.0 
6.065308185777e-04 6.909063809005e-03 0.0 
0.0 0.0 0.0 
-1.201618044364e-03 4.853424898886e-04 0.0 
4.853424898886e-04 6.796429964918e-03 0.0 
0.0 0.0 0.0 
3.433468213868e-05 -4.072033344856e-04 0.0 
-4.072033344856e-04 1.204081044488e-03 0.0 
0.0 0.0 0.0 
2.505417334540e-05 -2.750422782112e-03 0.0 
-2.750422782112e-03 9.556401105622e-05 0.0 
0.0 0.0 0.0 
-7.910009713336e-04 8.969910049562e-04 0.0 
8.969910049562e-04 7.810848474053e-03 0.0 
0.0 0.0 0.0 
2.356709200694e-03 3.049524097920e-03 0.0 
3.049524097920e-03 -1.525581143291e-03 0.0 
0.0 0.0 0.0 
1.540394055464e-03 3.195851213694e-03 0.0 
3.195851213694e-03 -6.903460972165e-04 0.0 
0.0 0.0 0.0 
2.598009655626e-03 1.199098977976e-03 0.0 
1.199098977976e-03 -4.441787742839e-03 0.0 
0.0 0.0 0.0 
2.345883250549e-03 -1.381119598763e-05 0.0 
-1.381119598763e-05 -4.775265702767e-03 0.0 
0.0 0.0 0.0 
-8.378906331883e-04 2.476995823698e-04 0.0 
2.476995823698e-04 7.684971905354e-03 0.0 
0.0 0.0 0.0 
-7.027083319025e-04 2.864309096248e-04 0.0 
2.864309096248e-04 8.004554595132e-03 0.0 
0.0 0.0 0.0 
-1.237712995966e-03 -1.349674854392e-03 0.0 
-1.349674854392e-03 3.211516636029e-03 0.0 
0.0 0.0 0.0 
-1.391403743374e-03 -1.093526714324e-03 0.0 
-1.093526714324e-03 3.575650759356e-03 0.0 
0.0 0.0 0.0 
1.248396955022e-03 -6.599671805612e-04 0.0 
-6.599671805612e-04 1.763574827219e-03 0.0 
0.0 0.0 0.0 
-1.570214373866e-04 -2.216365342517e-03 0.0 
-2.216365342517e-03 6.387205424574e-04 0.0 
0.0 0.0 0.0 
-6.420532367389e-04 3.844063564637e-04 0.0 
3.844063564637e-04 8.131923275432e-03 0.0 
0.0 0.0 0.0 
2.199129922235e-03 -5.389256827240e-04 0.0 
-5.389256827240e-04 -8.092581779155e-05 0.0 
0.0 0.0 0.0 
2.505831606252e-03 -7.544609451030e-04 0.0 
-7.544609451030e-04 -8.504099424156e-04 0.0 
0.0 0.0 0.0 
-1.563363791473e-03 -9.206997926810e-04 0.0 
-9.206997926810e-04 3.433260418344e-03 0.0 
0.0 0.0 0.0 
1.374185484802e-03 3.371339699366e-03 0.0 
3.371339699366e-03 -1.003692399489e-03 0.0 
0.0 0.0 0.0 
1.737947490950e-03 3.357438821108e-03 0.0 
3.357438821108e-03 -1.838956746067e-03 0.0 
0.0 0.0 0.0 
1.866698248735e-03 -2.667096237056e-03 0.0 
-2.667096237056e-03 -1.450167625915e-03 0.0 
0.0 0.0 0.0 
8.630117458088e-05 -2.446004420108e-03 0.0 
-2.446004420108e-03 4.768778554848e-04 0.0 
0.0 0.0 0.0 
-6.920507611320e-04 -4.635306093037e-04 0.0 
-4.635306093037e-04 2.047025191290e-03 0.0 
0.0 0.0 0.0 
9.737838517891e-04 -5.255391278763e-04 0.0 
-5.255391278763e-04 2.426068282555e-03 0.0 
0.0 0.0 0.0 
-7.223454530968e-04 1.039352898047e-03 0.0 
1.039352898047e-03 7.859410615423e-03 0.0 
0.0 0.0 0.0 
1.144795449966e-03 2.104060018065e-03 0.0 
2.104060018065e-03 2.366279212145e-03 0.0 
0.0 0.0 0.0 
1.306646751853e-03 2.253764440460e-03 0.0 
2.253764440460e-03 1.813108329279e-03 0.0 
0.0 0.0 0.0 
9.497241793789e-04 2.011384195442e-03 0.0 
2.011384195442e-03 2.929382101865e-03 0.0 
0.0 0.0 0.0 
-3.831391662449e-04 -1.861812991670e-03 0.0 
-1.861812991670e-03 7.882653206419e-04 0.0 
0.0 0.0 0.0 
6.647182234261e-04 -8.298885380586e-04 0.0 
-8.298885380586e-04 2.863837294355e-03 0.0 
0.0 0.0 0.0 
-1.029100152180e-03 -5.232403047237e-04 0.0 
-5.232403047237e-04 4.848831950069e-03 0.0 
0.0 0.0 0.0 
2.477526946454e-04 2.333979354806e-03 0.0 
2.333979354806e-03 4.418936413800e-03 0.0 
0.0 0.0 0.0 
9.824568093418e-05 2.346185066723e-03 0.0 
2.346185066723e-03 4.600209236838e-03 0.0 
0.0 0.0 0.0 
1.923532617131e-03 3.077842953766e-03 0.0 
3.077842953766e-03 -9.237473223827e-04 0.0 
0.0 0.0 0.0 
1.150549528965e-03 3.084980066134e-03 0.0 
3.084980066134e-03 -1.523925662945e-04 0.0 
0.0 0.0 0.0 
7.346381376919e-04 3.090796620680e-03 0.0 
3.090796620680e-03 1.401140508192e-04 0.0 
0.0 0.0 0.0 
4.693733042913e-04 2.916407301872e-03 0.0 
2.916407301872e-03 5.936150554705e-04 0.0 
0.0 0.0 0.0 
-1.303596672037e-03 1.686271372526e-03 0.0 
1.686271372526e-03 5.305687529969e-03 0.0 
0.0 0.0 0.0 
1.468254019903e-03 3.030870537895e-03 0.0 
3.030870537895e-03 -3.500458919802e-04 0.0 
0.0 0.0 0.0 
-9.676697920096e-04 2.104203604546e-03 0.0 
2.104203604546e-03 4.287994100136e-03 0.0 
0.0 0.0 0.0 
-1.171271129391e-03 1.874287510821e-03 0.0 
1.874287510821e-03 4.526564316287e-03 0.0 
0.0 0.0 0.0 
-1.066962768654e-03 1.977554464629e-03 0.0 
1.977554464629e-03 4.110623288867e-03 0.0 
0.0 0.0 0.0 
-2.525081143993e-04 2.566714208773e-03 0.0 
2.566714208773e-03 2.351253209297e-03 0.0 
0.0 0.0 0.0 
-5.891111111040e-04 2.334304626159e-03 0.0 
2.334304626159e-03 2.778576949602e-03 0.0 
0.0 0.0 0.0 
3.298743683598e-03 2.445571682580e-03 0.0 
2.445571682580e-03 -2.297192390369e-03 0.0 
0.0 0.0 0.0 
3.354338806141e-03 1.397305144806e-03 0.0 
1.397305144806e-03 -1.870849399960e-03 0.0 
0.0 0.0 0.0 
-1.035296754564e-03 -1.594782811790e-03 0.0 
-1.594782811790e-03 2.797168156722e-03 0.0 
0.0 0.0 0.0 
-6.814997000089e-04 -1.486052506396e-03 0.0 
-1.486052506396e-03 3.097892998864e-03 0.0 
0.0 0.0 0.0 
1.308400216585e-03 -1.872800261111e-03 0.0 
-1.872800261111e-03 1.297158249934e-04 0.0 
0.0 0.0 0.0 
-7.403371090027e-04 7.157559898227e-04 0.0 
7.157559898227e-04 7.948274013197e-03 0.0 
0.0 0.0 0.0 
-6.265407791339e-04 6.648104917716e-04 0.0 
6.648104917716e-04 8.147731225502e-03 0.0 
0.0 0.0 0.0 
-1.138225266384e-03 3.635494329521e-04 0.0 
3.635494329521e-04 6.884208409660e-03 0.0 
0.0 0.0 0.0 
-1.139373427446e-03 2.720718982149e-04 0.0 
2.720718982149e-04 6.737403109047e-03 0.0 
0.0 0.0 0.0 
-3.594386740663e-04 -1.126870692622e-03 0.0 
-1.126870692622e-03 1.227395892179e-03 0.0 
0.0 0.0 0.0 
-3.412225383333e-04 -1.193019600239e-03 0.0 
-1.193019600239e-03 1.079142617623e-03 0.0 
0.0 0.0 0.0 
1.773534912091e-04 -2.040442167177e-03 0.0 
-2.040442167177e-03 1.419254356695e-03 0.0 
0.0 0.0 0.0 
5.602019078870e-04 -9.893983351863e-04 0.0 
-9.893983351863e-04 2.831950176822e-03 0.0 
0.0 0.0 0.0 
-7.568622481381e-04 1.240290767156e-03 0.0 
1.240290767156e-03 7.648327741761e-03 0.0 
0.0 0.0 0.0 
-6.681984382935e-04 1.398428679514e-03 0.0 
1.398428679514e-03 7.645913317542e-03 0.0 
0.0 0.0 0.0 
-7.670703754687e-04 1.453530756634e-03 0.0 
1.453530756634e-03 7.375106429757e-03 0.0 
0.0 0.0 0.0 
1.255141963182e-03 -3.834048664739e-04 0.0 
-3.834048664739e-04 1.915837769895e-03 0.0 
0.0 0.0 0.0 
4.231190357633e-03 6.027472972080e-04 0.0 
6.027472972080e-04 -3.415889424815e-03 0.0 
0.0 0.0 0.0 
3.285463824462e-03 -5.935195186711e-05 0.0 
-5.935195186711e-05 -1.909600071452e-03 0.0 
0.0 0.0 0.0 
2.664761827449e-03 -1.305542633312e-03 0.0 
-1.305542633312e-03 -4.601895810145e-03 0.0 
0.0 0.0 0.0 
1.470747085431e-03 2.612131549143e-03 0.0 
2.612131549143e-03 8.558275736879e-04 0.0 
0.0 0.0 0.0 
-1.407458321262e-04 -8.281690095384e-04 0.0 
-8.281690095384e-04 9.354989223545e-04 0.0 
0.0 0.0 0.0 
-3.597142452547e-04 2.322551783798e-03 0.0 
2.322551783798e-03 4.692255878764e-03 0.0 
0.0 0.0 0.0 
-8.612964894779e-04 -4.639606193530e-04 0.0 
-4.639606193530e-04 5.113415058672e-03 0.0 
0.0 0.0 0.0 
-6.911650313532e-04 -5.719951141925e-04 0.0 
-5.719951141925e-04 5.124672514497e-03 0.0 
0.0 0.0 0.0 
1.206300030435e-03 1.500474173767e-03 0.0 
1.500474173767e-03 2.430447317983e-03 0.0 
0.0 0.0 0.0 
-1.505276061323e-03 1.314102929655e-03 0.0 
1.314102929655e-03 5.185032742109e-03 0.0 
0.0 0.0 0.0 
1.779034346383e-03 2.409985558610e-03 0.0 
2.409985558610e-03 5.731844705273e-04 0.0 
0.0 0.0 0.0 
2.193593843330e-03 2.308547058477e-03 0.0 
2.308547058477e-03 -1.724781140830e-04 0.0 
0.0 0.0 0.0 
-1.249996989272e-03 1.722876896455e-03 0.0 
1.722876896455e-03 4.333138901594e-03 0.0 
0.0 0.0 0.0 
-1.146153787966e-03 1.823826721956e-03 0.0 
1.823826721956e-03 3.948794664605e-03 0.0 
0.0 0.0 0.0 
-9.363172881396e-04 2.087360059125e-03 0.0 
2.087360059125e-03 3.680840233635e-03 0.0 
0.0 0.0 0.0 
-1.017860925998e-03 1.937182763613e-03 0.0 
1.937182763613e-03 3.544936620435e-03 0.0 
0.0 0.0 0.0 
1.350747004792e-03 -2.600710497806e-03 0.0 
-2.600710497806e-03 -7.734303493714e-04 0.0 
0.0 0.0 0.0 
8.061614287008e-04 -2.637842728418e-03 0.0 
-2.637842728418e-03 -1.852265337300e-04 0.0 
0.0 0.0 0.0 
3.634122848654e-04 2.293207848930e-03 0.0 
2.293207848930e-03 4.325473466748e-03 0.0 
0.0 0.0 0.0 
6.947337110657e-04 2.129710006654e-03 0.0 
2.129710006654e-03 3.545050475688e-03 0.0 
0.0 0.0 0.0 
9.783533527439e-05 2.351202990530e-03 0.0 
2.351202990530e-03 4.986065476936e-03 0.0 
0.0 0.0 0.0 
-3.461597902208e-05 2.332077179947e-03 0.0 
2.332077179947e-03 5.164137378928e-03 0.0 
0.0 0.0 0.0 
1.130825349687e-03 1.277727031127e-03 0.0 
1.277727031127e-03 2.549927444010e-03 0.0 
0.0 0.0 0.0 
1.400146735960e-03 1.059192591602e-03 0.0 
1.059192591602e-03 2.005495283506e-03 0.0 
0.0 0.0 0.0 
-1.072126389910e-03 -5.691622503762e-04 0.0 
-5.691622503762e-04 2.485488342170e-03 0.0 
0.0 0.0 0.0 
-6.968512535950e-04 2.179882040078e-03 0.0 
2.179882040078e-03 2.738862859277e-03 0.0 
0.0 0.0 0.0 
-6.034569532293e-04 9.862101040136e-04 0.0 
9.862101040136e-04 8.080703195088e-03 0.0 
0.0 0.0 0.0 
-1.333085555502e-03 1.629704500428e-03 0.0 
1.629704500428e-03 4.710612946694e-03 0.0 
0.0 0.0 0.0 
4.097090957712e-04 -8.782983283188e-04 0.0 
-8.782983283188e-04 3.381730552599e-03 0.0 
0.0 0.0 0.0 
3.095484460492e-04 -9.848869109938e-04 0.0 
-9.848869109938e-04 3.375776652266e-03 0.0 
0.0 0.0 0.0 
1.761923104860e-03 -1.167993672853e-03 0.0 
-1.167993672853e-03 -4.671925125508e-03 0.0 
0.0 0.0 0.0 
1.953683108472e-03 -2.671106615113e-03 0.0 
-2.671106615113e-03 -3.880818248416e-03 0.0 
0.0 0.0 0.0 
-5.422816872573e-04 3.234757819712e-04 0.0 
3.234757819712e-04 8.309701957137e-03 0.0 
0.0 0.0 0.0 
1.041657869454e-04 2.810442093634e-03 0.0 
2.810442093634e-03 8.866222954346e-04 0.0 
0.0 0.0 0.0 
-4.120800119671e-05 2.641177931033e-03 0.0 
2.641177931033e-03 1.251391874790e-03 0.0 
0.0 0.0 0.0 
2.689306478725e-04 2.997481913071e-03 0.0 
2.997481913071e-03 4.975727650821e-04 0.0 
0.0 0.0 0.0 
-4.722166153702e-04 -1.434463270551e-04 0.0 
-1.434463270551e-04 5.746377380413e-03 0.0 
0.0 0.0 0.0 
-1.105589581306e-03 2.958223456507e-05 0.0 
2.958223456507e-05 6.002767172423e-03 0.0 
0.0 0.0 0.0 
-6.683103311989e-04 -4.262427775689e-04 0.0 
-4.262427775689e-04 5.373650836984e-03 0.0 
0.0 0.0 0.0 
-4.794713535196e-04 2.448589009888e-03 0.0 
2.448589009888e-03 2.851711735743e-03 0.0 
0.0 0.0 0.0 
-4.665061058780e-04 4.326975985610e-04 0.0 
4.326975985610e-04 8.428652487819e-03 0.0 
0.0 0.0 0.0 
2.014130637663e-03 2.130545573053e-03 0.0 
2.130545573053e-03 4.053225826852e-04 0.0 
0.0 0.0 0.0 
1.232332467376e-03 2.882557510829e-03 0.0 
2.882557510829e-03 2.053313912266e-04 0.0 
0.0 0.0 0.0 
1.559210693631e-03 -5.273103624397e-04 0.0 
-5.273103624397e-04 1.216062001559e-03 0.0 
0.0 0.0 0.0 
-6.229215519065e-04 2.126458758513e-04 0.0 
2.126458758513e-04 8.164111738463e-03 0.0 
0.0 0.0 0.0 
-4.363929563369e-04 2.540285310109e-04 0.0 
2.540285310109e-04 8.486732427722e-03 0.0 
0.0 0.0 0.0 
-1.273445803666e-03 5.060606635847e-04 0.0 
5.060606635847e-04 6.574644253655e-03 0.0 
0.0 0.0 0.0 
-1.267872057245e-03 3.861930309632e-04 0.0 
3.861930309632e-04 6.436509880121e-03 0.0 
0.0 0.0 0.0 
-1.273275655353e-03 6.320619422022e-04 0.0 
6.320619422022e-04 6.672534724851e-03 0.0 
0.0 0.0 0.0 
2.918270552369e-03 2.183364026864e-03 0.0 
2.183364026864e-03 -3.834951812499e-03 0.0 
0.0 0.0 0.0 
1.951566437231e-03 2.558492121629e-03 0.0 
2.558492121629e-03 -3.665558878327e-03 0.0 
0.0 0.0 0.0 
-6.885640663865e-04 5.440131559547e-04 0.0 
5.440131559547e-04 8.052991746444e-03 0.0 
0.0 0.0 0.0 
-1.213074564287e-03 -1.116053470555e-03 0.0 
-1.116053470555e-03 2.613928179828e-03 0.0 
0.0 0.0 0.0 
-1.411055964778e-03 -8.997000559454e-04 0.0 
-8.997000559454e-04 2.954894766099e-03 0.0 
0.0 0.0 0.0 
-2.271536104723e-04 -2.074104211949e-03 0.0 
-2.074104211949e-03 8.718921677662e-04 0.0 
0.0 0.0 0.0 
-7.110743754862e-05 -2.294644772232e-03 0.0 
-2.294644772232e-03 8.006603499679e-04 0.0 
0.0 0.0 0.0 
-1.007548327037e-03 -1.510215274304e-03 0.0 
-1.510215274304e-03 3.033646419283e-03 0.0 
0.0 0.0 0.0 
-7.759662788823e-04 -1.742938395007e-03 0.0 
-1.742938395007e-03 2.566932852895e-03 0.0 
0.0 0.0 0.0 
-1.325365486870e-04 2.374534546150e-03 0.0 
2.374534546150e-03 4.454172529440e-03 0.0 
0.0 0.0 0.0 
-2.625475990892e-04 2.292907927437e-03 0.0 
2.292907927437e-03 4.986483858285e-03 0.0 
0.0 0.0 0.0 
2.491172144018e-04 2.581636011898e-03 0.0 
2.581636011898e-03 3.266548081140e-03 0.0 
0.0 0.0 0.0 
2.122071592804e-03 -9.609363365462e-04 0.0 
-9.609363365462e-04 -2.418520964687e-04 0.0 
0.0 0.0 0.0 
2.340704765526e-03 -1.172783514291e-03 0.0 
-1.172783514291e-03 -9.036071519255e-04 0.0 
0.0 0.0 0.0 
2.766507132519e-03 -8.956238382074e-04 0.0 
-8.956238382074e-04 -1.467921893317e-03 0.0 
0.0 0.0 0.0 
-5.563601552692e-04 7.907621313922e-04 0.0 
7.907621313922e-04 8.216642533571e-03 0.0 
0.0 0.0 0.0 
-4.159685181926e-04 7.381222166931e-04 0.0 
7.381222166931e-04 8.436795519311e-03 0.0 
0.0 0.0 0.0 
1.918207480284e-03 -2.438267965048e-03 0.0 
-2.438267965048e-03 -1.363183051135e-03 0.0 
0.0 0.0 0.0 
2.483522347901e-03 -2.353343209664e-03 0.0 
-2.353343209664e-03 -2.051157313579e-03 0.0 
0.0 0.0 0.0 
9.308923121386e-04 -2.546956085416e-03 0.0 
-2.546956085416e-03 -1.846605814910e-04 0.0 
0.0 0.0 0.0 
-5.230118354545e-04 1.133604411782e-03 0.0 
1.133604411782e-03 8.119158299699e-03 0.0 
0.0 0.0 0.0 
-5.117302625877e-04 -5.468394447948e-04 0.0 
-5.468394447948e-04 5.392809967583e-03 0.0 
0.0 0.0 0.0 
-5.121587836781e-04 -6.662943344856e-04 0.0 
-6.662943344856e-04 5.123321151220e-03 0.0 
0.0 0.0 0.0 
-1.632694027669e-04 -8.399469657717e-04 0.0 
-8.399469657717e-04 8.137645900647e-04 0.0 
0.0 0.0 0.0 
-3.445303370407e-04 -1.245813629097e-03 0.0 
-1.245813629097e-03 9.636977939415e-04 0.0 
0.0 0.0 0.0 
7.291672438863e-04 3.434995444264e-03 0.0 
3.434995444264e-03 -5.770019324397e-04 0.0 
0.0 0.0 0.0 
1.019706171545e-03 3.535676769130e-03 0.0 
3.535676769130e-03 -1.445958417461e-03 0.0 
0.0 0.0 0.0 
-5.655648096868e-04 1.555780275477e-03 0.0 
1.555780275477e-03 7.611041425774e-03 0.0 
0.0 0.0 0.0 
-6.658355290647e-04 1.616321003314e-03 0.0 
1.616321003314e-03 7.335670144190e-03 0.0 
0.0 0.0 0.0 
-4.435409106992e-04 1.510750627770e-03 0.0 
1.510750627770e-03 7.897183104877e-03 0.0 
0.0 0.0 0.0 
-8.270232608858e-04 -3.211062139570e-04 0.0 
-3.211062139570e-04 2.256892347029e-03 0.0 
0.0 0.0 0.0 
1.452788543302e-03 2.031417059174e-03 0.0 
2.031417059174e-03 1.711454675575e-03 0.0 
0.0 0.0 0.0 
9.328112009384e-04 -2.790340603709e-04 0.0 
-2.790340603709e-04 2.585481363553e-03 0.0 
0.0 0.0 0.0 
1.206357992148e-03 -1.044275542900e-04 0.0 
-1.044275542900e-04 2.139558028041e-03 0.0 
0.0 0.0 0.0 
6.465574511108e-04 -4.415445510404e-04 0.0 
-4.415445510404e-04 3.159317274360e-03 0.0 
0.0 0.0 0.0 
1.240567710370e-03 1.710064311104e-03 0.0 
1.710064311104e-03 2.351800585494e-03 0.0 
0.0 0.0 0.0 
9.216749720255e-04 1.667993446620e-03 0.0 
1.667993446620e-03 2.984925506341e-03 0.0 
0.0 0.0 0.0 
7.005837268998e-04 1.982539366369e-03 0.0 
1.982539366369e-03 3.515105210617e-03 0.0 
0.0 0.0 0.0 
1.192062211648e-03 6.178715539508e-05 0.0 
6.178715539508e-05 -4.750107136625e-03 0.0 
0.0 0.0 0.0 
-4.853553860015e-04 1.587162726181e-04 0.0 
1.587162726181e-04 8.398676752034e-03 0.0 
0.0 0.0 0.0 
-1.197793696657e-03 2.783729045876e-04 0.0 
2.783729045876e-04 6.504132767376e-03 0.0 
0.0 0.0 0.0 
2.980130197569e-04 -6.263375057871e-04 0.0 
-6.263375057871e-04 -4.465887074530e-03 0.0 
0.0 0.0 0.0 
-1.180771149793e-03 2.017599536355e-04 0.0 
2.017599536355e-04 6.345538279502e-03 0.0 
0.0 0.0 0.0 
-1.136091303346e-03 1.977038905861e-04 0.0 
1.977038905861e-04 6.573822334886e-03 0.0 
0.0 0.0 0.0 
-1.168287595959e-03 1.367609883500e-04 0.0 
1.367609883500e-04 6.151654584369e-03 0.0 
0.0 0.0 0.0 
-3.465153245713e-04 -2.577938794182e-04 0.0 
-2.577938794182e-04 1.735705044485e-03 0.0 
0.0 0.0 0.0 
-1.352354571028e-03 5.084278456276e-04 0.0 
5.084278456276e-04 6.288627445812e-03 0.0 
0.0 0.0 0.0 
-1.352891091017e-03 6.676071916892e-04 0.0 
6.676071916892e-04 6.434634034604e-03 0.0 
0.0 0.0 0.0 
-1.619932453734e-04 -7.241363688566e-04 0.0 
-7.241363688566e-04 6.322303440516e-04 0.0 
0.0 0.0 0.0 
-3.824613205742e-04 1.066400326639e-03 0.0 
1.066400326639e-03 8.329899106090e-03 0.0 
0.0 0.0 0.0 
1.909040742237e-04 -5.691929598453e-04 0.0 
-5.691929598453e-04 5.261547420649e-04 0.0 
0.0 0.0 0.0 
2.325169253973e-04 -5.875341594051e-04 0.0 
-5.875341594051e-04 6.571308564757e-04 0.0 
0.0 0.0 0.0 
2.246419163390e-04 -9.055675592954e-04 0.0 
-9.055675592954e-04 3.881512145982e-03 0.0 
0.0 0.0 0.0 
1.131195611042e-04 -9.669770746482e-04 0.0 
-9.669770746482e-04 3.876699425142e-03 0.0 
0.0 0.0 0.0 
6.747038040985e-05 -9.206816714509e-04 0.0 
-9.206816714509e-04 4.319664374190e-03 0.0 
0.0 0.0 0.0 
-3.818872997620e-05 -9.302839717409e-04 0.0 
-9.302839717409e-04 4.310146441717e-03 0.0 
0.0 0.0 0.0 
-4.892424277531e-05 -1.007854498806e-03 0.0 
-1.007854498806e-03 3.912240147021e-03 0.0 
0.0 0.0 0.0 
-1.958664168989e-04 -9.286630953946e-04 0.0 
-9.286630953946e-04 4.364942853205e-03 0.0 
0.0 0.0 0.0 
-1.258690462883e-03 2.866919931248e-04 0.0 
2.866919931248e-04 6.275341469323e-03 0.0 
0.0 0.0 0.0 
-1.225784516834e-04 -8.919298017627e-04 0.0 
-8.919298017627e-04 4.760836381046e-03 0.0 
0.0 0.0 0.0 
-2.866566621436e-04 -8.381548341948e-04 0.0 
-8.381548341948e-04 4.774890628891e-03 0.0 
0.0 0.0 0.0 
-1.791600160550e-04 -8.455002016896e-04 0.0 
-8.455002016896e-04 5.148847616352e-03 0.0 
0.0 0.0 0.0 
-1.209391018377e-03 1.636344097916e-03 0.0 
1.636344097916e-03 3.801721430585e-03 0.0 
0.0 0.0 0.0 
2.402146808550e-04 2.767836424008e-03 0.0 
2.767836424008e-03 1.036438972168e-03 0.0 
0.0 0.0 0.0 
-1.968665278073e-04 2.504446862525e-03 0.0 
2.504446862525e-03 1.615392845909e-03 0.0 
0.0 0.0 0.0 
-4.319371887672e-04 2.254291463161e-03 0.0 
2.254291463161e-03 1.795943030908e-03 0.0 
0.0 0.0 0.0 
-1.068852973307e-05 2.381688732007e-03 0.0 
2.381688732007e-03 5.595505088791e-03 0.0 
0.0 0.0 0.0 
-1.296197848313e-04 2.321897297402e-03 0.0 
2.321897297402e-03 5.657021039261e-03 0.0 
0.0 0.0 0.0 
-1.018551151996e-03 -3.392035381277e-04 0.0 
-3.392035381277e-04 5.084817325060e-03 0.0 
0.0 0.0 0.0 
-1.187802685787e-03 -3.766736051767e-04 0.0 
-3.766736051767e-04 4.837642994400e-03 0.0 
0.0 0.0 0.0 
-1.133943552002e-03 1.313114045784e-04 0.0 
1.313114045784e-04 6.379599077597e-03 0.0 
0.0 0.0 0.0 
-1.110232476520e-03 8.974313267734e-05 0.0 
8.974313267734e-05 6.363630372179e-03 0.0 
0.0 0.0 0.0 
-1.081406088473e-03 1.409479674405e-04 0.0 
1.409479674405e-04 6.712163519301e-03 0.0 
0.0 0.0 0.0 
-1.069323516144e-03 9.364689631419e-05 0.0 
9.364689631419e-05 6.671666686686e-03 0.0 
0.0 0.0 0.0 
-1.022302268675e-03 1.409612681472e-04 0.0 
1.409612681472e-04 7.008378181766e-03 0.0 
0.0 0.0 0.0 
-1.016838862299e-03 8.378102725391e-05 0.0 
8.378102725391e-05 6.961050451362e-03 0.0 
0.0 0.0 0.0 
-9.507002791909e-04 1.275993257341e-04 0.0 
1.275993257341e-04 7.294277264014e-03 0.0 
0.0 0.0 0.0 
4.594745535116e-04 2.146692086110e-03 0.0 
2.146692086110e-03 4.162533110070e-03 0.0 
0.0 0.0 0.0 
-2.655161026956e-04 2.605670573772e-03 0.0 
2.605670573772e-03 1.197673233809e-03 0.0 
0.0 0.0 0.0 
-1.392101898344e-03 1.455104378819e-03 0.0 
1.455104378819e-03 4.504758958947e-03 0.0 
0.0 0.0 0.0 
1.006018270222e-03 1.045109352187e-03 0.0 
1.045109352187e-03 2.716297298547e-03 0.0 
0.0 0.0 0.0 
1.276913443086e-03 8.192266274040e-04 0.0 
8.192266274040e-04 2.173485414965e-03 0.0 
0.0 0.0 0.0 
-8.624031921895e-04 2.056303957574e-03 0.0 
2.056303957574e-03 3.134998480119e-03 0.0 
0.0 0.0 0.0 
-9.403294545668e-04 1.855147762690e-03 0.0 
1.855147762690e-03 3.066200784913e-03 0.0 
0.0 0.0 0.0 
4.295321893584e-04 -7.495178066910e-04 0.0 
-7.495178066910e-04 3.546614403366e-03 0.0 
0.0 0.0 0.0 
2.187654304763e-03 2.958204818308e-03 0.0 
2.958204818308e-03 -1.055702863681e-03 0.0 
0.0 0.0 0.0 
-2.601884441502e-04 1.235957538240e-03 0.0 
1.235957538240e-03 8.378692293864e-03 0.0 
0.0 0.0 0.0 
-1.296226900074e-03 2.236626972344e-03 0.0 
2.236626972344e-03 -2.881842977286e-03 0.0 
0.0 0.0 0.0 
5.514314814262e-04 2.231319112498e-03 0.0 
2.231319112498e-03 -3.621760593009e-03 0.0 
0.0 0.0 0.0 
1.690100017635e-03 2.958665826625e-03 0.0 
2.958665826625e-03 -4.424437855188e-04 0.0 
0.0 0.0 0.0 
-7.781290457053e-04 2.207743802769e-03 0.0 
2.207743802769e-03 3.231779481239e-03 0.0 
0.0 0.0 0.0 
2.787915260063e-05 2.657693162630e-03 0.0 
2.657693162630e-03 1.475595113306e-03 0.0 
0.0 0.0 0.0 
-3.503164347046e-04 2.417361064151e-03 0.0 
2.417361064151e-03 1.967282522061e-03 0.0 
0.0 0.0 0.0 
1.854283361457e-03 -7.183331255868e-04 0.0 
-7.183331255868e-04 4.897573160388e-04 0.0 
0.0 0.0 0.0 
-3.739814449950e-04 -1.309485326143e-03 0.0 
-1.309485326143e-03 8.659760001027e-04 0.0 
0.0 0.0 0.0 
4.523070355741e-04 3.206458547014e-03 0.0 
3.206458547014e-03 3.590757529254e-05 0.0 
0.0 0.0 0.0 
-9.576569848233e-04 2.019408773202e-04 0.0 
2.019408773202e-04 7.325028630243e-03 0.0 
0.0 0.0 0.0 
-1.905583346079e-04 3.061702826483e-03 0.0 
3.061702826483e-03 5.127056591496e-04 0.0 
0.0 0.0 0.0 
-1.146855180213e-03 -1.804027701830e-04 0.0 
-1.804027701830e-04 5.042361835779e-03 0.0 
0.0 0.0 0.0 
2.853729592711e-03 2.697893860972e-03 0.0 
2.697893860972e-03 -1.701847502923e-03 0.0 
0.0 0.0 0.0 
-1.315001857259e-04 2.637996184188e-03 0.0 
2.637996184188e-03 2.417087840074e-03 0.0 
0.0 0.0 0.0 
1.030717062827e-03 3.246920775760e-03 0.0 
3.246920775760e-03 -3.682900871623e-04 0.0 
0.0 0.0 0.0 
7.848462959053e-04 2.944171927942e-03 0.0 
2.944171927942e-03 3.734291400507e-04 0.0 
0.0 0.0 0.0 
-1.141016818184e-03 1.895444652889e-03 0.0 
1.895444652889e-03 5.139088636578e-03 0.0 
0.0 0.0 0.0 
-1.429704092505e-03 1.469029891085e-03 0.0 
1.469029891085e-03 5.426477248888e-03 0.0 
0.0 0.0 0.0 
-1.397526986665e-03 1.547545520610e-03 0.0 
1.547545520610e-03 5.078910250544e-03 0.0 
0.0 0.0 0.0 
3.420469905492e-03 2.281513357569e-03 0.0 
2.281513357569e-03 -2.250635513021e-03 0.0 
0.0 0.0 0.0 
-5.249736104206e-04 2.299601021907e-03 0.0 
2.299601021907e-03 2.367037709279e-03 0.0 
0.0 0.0 0.0 
-6.532536056024e-04 2.049641540772e-03 0.0 
2.049641540772e-03 2.382594611393e-03 0.0 
0.0 0.0 0.0 
-7.235041614832e-04 2.310585895402e-03 0.0 
2.310585895402e-03 4.000671579819e-03 0.0 
0.0 0.0 0.0 
-8.497097626367e-04 1.511076707373e-03 0.0 
1.511076707373e-03 7.084910656057e-03 0.0 
0.0 0.0 0.0 
-7.412962012081e-04 1.668320035885e-03 0.0 
1.668320035885e-03 7.028311080124e-03 0.0 
0.0 0.0 0.0 
-5.560486099537e-04 1.766365098284e-03 0.0 
1.766365098284e-03 7.262928414332e-03 0.0 
0.0 0.0 0.0 
-6.269417726350e-04 1.819132902666e-03 0.0 
1.819132902666e-03 6.947874656438e-03 0.0 
0.0 0.0 0.0 
-7.986559688012e-04 1.728364776354e-03 0.0 
1.728364776354e-03 6.699600818542e-03 0.0 
0.0 0.0 0.0 
-6.711113101939e-04 1.874064279151e-03 0.0 
1.874064279151e-03 6.600885474264e-03 0.0 
0.0 0.0 0.0 
-4.982719486539e-04 1.961136358716e-03 0.0 
1.961136358716e-03 6.858584858790e-03 0.0 
0.0 0.0 0.0 
-5.312806700413e-04 2.014423269930e-03 0.0 
2.014423269930e-03 6.489472599187e-03 0.0 
0.0 0.0 0.0 
-3.509219523130e-04 2.117722385144e-03 0.0 
2.117722385144e-03 6.811462143641e-03 0.0 
0.0 0.0 0.0 
-3.924645031593e-04 2.138698907533e-03 0.0 
2.138698907533e-03 6.348560800939e-03 0.0 
0.0 0.0 0.0 
-5.354063208863e-04 2.069343338821e-03 0.0 
2.069343338821e-03 6.073239071461e-03 0.0 
0.0 0.0 0.0 
-3.877423822196e-04 2.174407318319e-03 0.0 
2.174407318319e-03 5.917012465349e-03 0.0 
0.0 0.0 0.0 
-2.764024314842e-04 2.244139890017e-03 0.0 
2.244139890017e-03 6.176403238507e-03 0.0 
0.0 0.0 0.0 
-5.149042378483e-04 2.136650798475e-03 0.0 
2.136650798475e-03 5.639289110990e-03 0.0 
0.0 0.0 0.0 
7.064570201910e-04 1.278614285351e-03 0.0 
1.278614285351e-03 3.250787649081e-03 0.0 
0.0 0.0 0.0 
1.833410048762e-03 2.841261302080e-03 0.0 
2.841261302080e-03 -4.460285823302e-04 0.0 
0.0 0.0 0.0 
1.664620373819e-03 1.188909842503e-03 0.0 
1.188909842503e-03 -4.435943353445e-03 0.0 
0.0 0.0 0.0 
9.057705214552e-04 3.366351482667e-03 0.0 
3.366351482667e-03 -2.804615490336e-03 0.0 
0.0 0.0 0.0 
-3.646934072652e-04 2.533061912175e-03 0.0 
2.533061912175e-03 2.963602612638e-03 0.0 
0.0 0.0 0.0 
-1.877006748616e-04 2.182373836264e-03 0.0 
2.182373836264e-03 7.218833114152e-03 0.0 
0.0 0.0 0.0 
-2.279035828860e-04 1.922172673592e-03 0.0 
1.922172673592e-03 7.691662607896e-03 0.0 
0.0 0.0 0.0 
3.095902502403e-03 2.649624389988e-03 0.0 
2.649624389988e-03 -2.283150843675e-03 0.0 
0.0 0.0 0.0 
1.979296992490e-05 2.476270037893e-03 0.0 
2.476270037893e-03 5.833634369018e-03 0.0 
0.0 0.0 0.0 
-1.254988231386e-03 1.778729054211e-03 0.0 
1.778729054211e-03 4.926381739195e-03 0.0 
0.0 0.0 0.0 
3.381395882124e-03 1.899211667500e-03 0.0 
1.899211667500e-03 -3.712852585896e-03 0.0 
0.0 0.0 0.0 
1.368652383752e-04 2.380582251188e-03 0.0 
2.380582251188e-03 5.200546018021e-03 0.0 
0.0 0.0 0.0 
-9.158303864738e-04 1.573489255180e-03 0.0 
1.573489255180e-03 6.777045593648e-03 0.0 
0.0 0.0 0.0 
-9.655136538202e-04 1.641986705840e-03 0.0 
1.641986705840e-03 6.448759413742e-03 0.0 
0.0 0.0 0.0 
-1.078214756149e-03 1.480423702087e-03 0.0 
1.480423702087e-03 6.523950890562e-03 0.0 
0.0 0.0 0.0 
-2.255420749517e-04 1.668908016514e-03 0.0 
1.668908016514e-03 8.033917934211e-03 0.0 
0.0 0.0 0.0 
-1.256253685693e-03 7.745781759254e-04 0.0 
7.745781759254e-04 6.759405129447e-03 0.0 
0.0 0.0 0.0 
3.423185725334e-04 1.785034508704e-03 0.0 
1.785034508704e-03 4.134176519443e-03 0.0 
0.0 0.0 0.0 
2.966222213645e-03 1.324715338944e-03 0.0 
1.324715338944e-03 -1.134364124883e-03 0.0 
0.0 0.0 0.0 
2.903011740609e-03 1.761412276516e-03 0.0 
1.761412276516e-03 -1.149786435668e-03 0.0 
0.0 0.0 0.0 
3.186394288664e-03 1.846015246954e-03 0.0 
1.846015246954e-03 -1.700732856965e-03 0.0 
0.0 0.0 0.0 
-6.908947751193e-04 1.937107734199e-03 0.0 
1.937107734199e-03 6.220640508748e-03 0.0 
0.0 0.0 0.0 
4.664978344615e-04 7.323304784248e-04 0.0 
7.323304784248e-04 3.487408343682e-03 0.0 
0.0 0.0 0.0 
8.722996598278e-04 5.436814946160e-04 0.0 
5.436814946160e-04 2.826241744980e-03 0.0 
0.0 0.0 0.0 
8.507740792093e-04 2.833289267765e-04 0.0 
2.833289267765e-04 2.827711085279e-03 0.0 
0.0 0.0 0.0 
1.247527345837e-03 3.652527962096e-04 0.0 
3.652527962096e-04 2.144880010162e-03 0.0 
0.0 0.0 0.0 
4.412307028609e-04 1.710683151125e-04 0.0 
1.710683151125e-04 3.487364474595e-03 0.0 
0.0 0.0 0.0 
-1.145231674168e-04 2.373725911008e-03 0.0 
2.373725911008e-03 6.740971594213e-03 0.0 
0.0 0.0 0.0 
-7.318426905776e-05 2.438739838589e-03 0.0 
2.438739838589e-03 6.470216909719e-03 0.0 
0.0 0.0 0.0 
2.393650890998e-03 -2.597884566047e-03 0.0 
-2.597884566047e-03 -2.105198846783e-03 0.0 
0.0 0.0 0.0 
3.015463272078e-03 -2.104639720230e-03 0.0 
-2.104639720230e-03 -2.657494838420e-03 0.0 
0.0 0.0 0.0 
3.049701430974e-03 -1.910889760389e-03 0.0 
-1.910889760389e-03 -2.525689355999e-03 0.0 
0.0 0.0 0.0 
3.539005044580e-03 -1.486454836707e-03 0.0 
-1.486454836707e-03 -3.064696790021e-03 0.0 
0.0 0.0 0.0 
3.470424377148e-03 -1.676715134740e-03 0.0 
-1.676715134740e-03 -3.236779709150e-03 0.0 
0.0 0.0 0.0 
3.889623183986e-03 -8.918555832314e-04 0.0 
-8.918555832314e-04 -3.500030426059e-03 0.0 
0.0 0.0 0.0 
3.940165843738e-03 -8.093903866854e-04 0.0 
-8.093903866854e-04 -3.297831990613e-03 0.0 
0.0 0.0 0.0 
4.059279450817e-03 -1.330532415294e-04 0.0 
-1.330532415294e-04 -3.778324868994e-03 0.0 
0.0 0.0 0.0 
-1.865154316382e-04 2.288368595355e-03 0.0 
2.288368595355e-03 5.315223171939e-03 0.0 
0.0 0.0 0.0 
3.455083007388e-04 -3.179824748700e-04 0.0 
-3.179824748700e-04 3.706952020345e-03 0.0 
0.0 0.0 0.0 
1.230599258762e-03 -1.689223565560e-03 0.0 
-1.689223565560e-03 5.758286322849e-04 0.0 
0.0 0.0 0.0 
1.651467276005e-03 -1.645038497314e-03 0.0 
-1.645038497314e-03 -1.226085966296e-04 0.0 
0.0 0.0 0.0 
1.754869505581e-03 -1.783049192203e-03 0.0 
-1.783049192203e-03 -5.253394829953e-04 0.0 
0.0 0.0 0.0 
-7.865858845310e-04 -1.826319338820e-03 0.0 
-1.826319338820e-03 2.339352149320e-03 0.0 
0.0 0.0 0.0 
-4.941247270420e-04 -1.956446517684e-03 0.0 
-1.956446517684e-03 2.055378016750e-03 0.0 
0.0 0.0 0.0 
-4.809470889509e-04 -1.842413312515e-03 0.0 
-1.842413312515e-03 2.304460208411e-03 0.0 
0.0 0.0 0.0 
-1.031955482771e-03 -1.645103213208e-03 0.0 
-1.645103213208e-03 2.577507095120e-03 0.0 
0.0 0.0 0.0 
1.087639218491e-03 2.448440339793e-03 0.0 
2.448440339793e-03 2.013348480930e-03 0.0 
0.0 0.0 0.0 
2.962883588036e-04 -5.182354335831e-04 0.0 
-5.182354335831e-04 3.850686593356e-03 0.0 
0.0 0.0 0.0 
2.888622335890e-03 -4.581609134900e-04 0.0 
-4.581609134900e-04 -1.399769974046e-03 0.0 
0.0 0.0 0.0 
-1.612791749100e-04 -2.144848424581e-03 0.0 
-2.144848424581e-03 1.511234324578e-03 0.0 
0.0 0.0 0.0 
-1.509975733968e-03 6.540473813278e-04 0.0 
6.540473813278e-04 5.804686794168e-03 0.0 
0.0 0.0 0.0 
-1.463013387479e-03 8.351739050583e-04 0.0 
8.351739050583e-04 6.036854678964e-03 0.0 
0.0 0.0 0.0 
-1.496909280467e-03 9.745774538325e-04 0.0 
9.745774538325e-04 5.940150751847e-03 0.0 
0.0 0.0 0.0 
-1.384780397452e-03 1.016453624637e-03 0.0 
1.016453624637e-03 6.270490256922e-03 0.0 
0.0 0.0 0.0 
-1.429550485719e-03 7.047635327078e-04 0.0 
7.047635327078e-04 6.165405392203e-03 0.0 
0.0 0.0 0.0 
-1.189134919068e-03 -1.263522566020e-03 0.0 
-1.263522566020e-03 3.448070599153e-03 0.0 
0.0 0.0 0.0 
-1.322827141713e-03 -1.009437926833e-03 0.0 
-1.009437926833e-03 3.805250620114e-03 0.0 
0.0 0.0 0.0 
-1.499722686996e-03 -8.315260566129e-04 0.0 
-8.315260566129e-04 3.881674221098e-03 0.0 
0.0 0.0 0.0 
-1.412318710907e-03 -7.557399608946e-04 0.0 
-7.557399608946e-04 4.106481245357e-03 0.0 
0.0 0.0 0.0 
-1.563809990387e-03 -5.751707624005e-04 0.0 
-5.751707624005e-04 4.127713682597e-03 0.0 
0.0 0.0 0.0 
-1.629699358164e-03 -6.360066892502e-04 0.0 
-6.360066892502e-04 3.920469539237e-03 0.0 
0.0 0.0 0.0 
-1.467351766851e-03 -5.011502005545e-04 0.0 
-5.011502005545e-04 4.356525116013e-03 0.0 
0.0 0.0 0.0 
-1.597143453072e-03 -3.334300573701e-04 0.0 
-3.334300573701e-04 4.303656966356e-03 0.0 
0.0 0.0 0.0 
-1.421823344260e-03 4.383319640415e-04 0.0 
4.383319640415e-04 5.918301961476e-03 0.0 
0.0 0.0 0.0 
-1.281895066444e-03 -2.330785090430e-03 0.0 
-2.330785090430e-03 -8.451650157580e-04 0.0 
0.0 0.0 0.0 
-5.210123165308e-04 -3.101500589731e-03 0.0 
-3.101500589731e-03 -5.384185052324e-04 0.0 
0.0 0.0 0.0 
-7.516522498556e-04 -2.260476094817e-03 0.0 
-2.260476094817e-03 5.040051476464e-04 0.0 
0.0 0.0 0.0 
2.019292117757e-05 -3.210885942430e-03 0.0 
-3.210885942430e-03 -4.352252780025e-04 0.0 
0.0 0.0 0.0 
8.996865334548e-04 -3.361467784221e-03 0.0 
-3.361467784221e-03 -2.055800170707e-03 0.0 
0.0 0.0 0.0 
1.198779805804e-03 -3.267586249348e-03 0.0 
-3.267586249348e-03 -1.660017867522e-03 0.0 
0.0 0.0 0.0 
2.111004343991e-03 -3.113639771957e-03 0.0 
-3.113639771957e-03 -3.042153378409e-03 0.0 
0.0 0.0 0.0 
2.863067115304e-04 -3.113771241995e-03 0.0 
-3.113771241995e-03 -2.552459074021e-03 0.0 
0.0 0.0 0.0 
-6.588732187725e-04 -7.929941395532e-04 0.0 
-7.929941395532e-04 4.394563713389e-04 0.0 
0.0 0.0 0.0 
-6.747421809926e-04 -1.494695742081e-03 0.0 
-1.494695742081e-03 6.854376827123e-04 0.0 
0.0 0.0 0.0 
-3.886875739870e-04 -4.655044720928e-04 0.0 
-4.655044720928e-04 3.949920020714e-04 0.0 
0.0 0.0 0.0 
-4.909995095430e-04 -1.068373940176e-03 0.0 
-1.068373940176e-03 6.711617494290e-04 0.0 
0.0 0.0 0.0 
-4.444523096070e-04 -1.958900142212e-03 0.0 
-1.958900142212e-03 6.912840467161e-04 0.0 
0.0 0.0 0.0 
-3.610432743710e-04 -1.640152993722e-03 0.0 
-1.640152993722e-03 1.066704205226e-03 0.0 
0.0 0.0 0.0 
-2.580250581514e-04 -5.585663760989e-04 0.0 
-5.585663760989e-04 5.645988202999e-03 0.0 
0.0 0.0 0.0 
-1.753029961426e-03 -2.494645860546e-04 0.0 
-2.494645860546e-04 3.726403851966e-03 0.0 
0.0 0.0 0.0 
-1.695758307986e-03 -4.882435587985e-04 0.0 
-4.882435587985e-04 3.545022327020e-03 0.0 
0.0 0.0 0.0 
-1.608982036245e-03 -4.665877128701e-04 0.0 
-4.665877128701e-04 3.296279046873e-03 0.0 
0.0 0.0 0.0 
-1.584650170073e-03 -7.391081689293e-04 0.0 
-7.391081689293e-04 3.307809482541e-03 0.0 
0.0 0.0 0.0 
-1.721259516158e-03 -4.749971049978e-04 0.0 
-4.749971049978e-04 3.769934386468e-03 0.0 
0.0 0.0 0.0 
-1.557497665637e-03 -2.213135085246e-04 0.0 
-2.213135085246e-04 3.188960798036e-03 0.0 
0.0 0.0 0.0 
-1.445993590972e-03 -4.273180097186e-04 0.0 
-4.273180097186e-04 3.016052314571e-03 0.0 
0.0 0.0 0.0 
1.884957884544e-03 -9.868919200488e-05 0.0 
-9.868919200488e-05 -5.322742473220e-04 0.0 
0.0 0.0 0.0 
1.325757396698e-03 -1.208218485374e-04 0.0 
-1.208218485374e-04 2.566581711152e-05 0.0 
0.0 0.0 0.0 
1.465884768353e-03 -2.164740397072e-05 0.0 
-2.164740397072e-05 -7.246414287386e-05 0.0 
0.0 0.0 0.0 
7.514131546484e-04 -1.201563637115e-04 0.0 
-1.201563637115e-04 6.179857439364e-04 0.0 
0.0 0.0 0.0 
7.301390470546e-04 -1.931291741391e-04 0.0 
-1.931291741391e-04 6.100650552563e-04 0.0 
0.0 0.0 0.0 
1.242095718136e-03 -1.894690262188e-04 0.0 
-1.894690262188e-04 5.872873569081e-05 0.0 
0.0 0.0 0.0 
1.098206965035e-03 -2.529851113218e-04 0.0 
-2.529851113218e-04 1.120534812267e-04 0.0 
0.0 0.0 0.0 
1.581418323341e-03 -1.686722618525e-04 0.0 
-1.686722618525e-04 -4.033498893775e-04 0.0 
0.0 0.0 0.0 
9.154584528434e-04 -3.289021866957e-04 0.0 
-3.289021866957e-04 1.889093599327e-04 0.0 
0.0 0.0 0.0 
4.760283113316e-04 -3.796147898836e-04 0.0 
-3.796147898836e-04 6.952057859429e-04 0.0 
0.0 0.0 0.0 
1.375917493073e-03 -2.194360093974e-04 0.0 
-2.194360093974e-04 -3.282267514139e-04 0.0 
0.0 0.0 0.0 
-7.971122165655e-04 6.079529497929e-05 0.0 
6.079529497929e-05 7.747825576703e-03 0.0 
0.0 0.0 0.0 
-7.253835500259e-04 1.352246499061e-04 0.0 
1.352246499061e-04 7.920644154449e-03 0.0 
0.0 0.0 0.0 
1.829182967591e-04 -8.036138928281e-04 0.0 
-8.036138928281e-04 4.215090181898e-03 0.0 
0.0 0.0 0.0 
-1.314194979672e-03 2.903347239025e-04 0.0 
2.903347239025e-04 6.021290389663e-03 0.0 
0.0 0.0 0.0 
1.028292128416e-04 -3.076060979829e-04 0.0 
-3.076060979829e-04 2.350822742029e-04 0.0 
0.0 0.0 0.0 
-2.326907402457e-04 4.844480780872e-04 0.0 
4.844480780872e-04 8.736735187779e-03 0.0 
0.0 0.0 0.0 
-2.182384992368e-04 8.526719416701e-04 0.0 
8.526719416701e-04 8.642963963591e-03 0.0 
0.0 0.0 0.0 
-2.011909864552e-04 7.366249693158e-04 0.0 
7.366249693158e-04 8.702125127412e-03 0.0 
0.0 0.0 0.0 
-7.369701973390e-04 -1.489191296682e-04 0.0 
-1.489191296682e-04 5.526782013177e-03 0.0 
0.0 0.0 0.0 
-5.963340838875e-04 -2.833567971292e-04 0.0 
-2.833567971292e-04 5.591659721905e-03 0.0 
0.0 0.0 0.0 
-2.141635921261e-04 2.772913798334e-04 0.0 
2.772913798334e-04 8.789995394994e-03 0.0 
0.0 0.0 0.0 
-4.529740108894e-04 -1.972704667059e-03 0.0 
-1.972704667059e-03 1.446011131519e-03 0.0 
0.0 0.0 0.0 
-4.549365981387e-04 1.924648555757e-03 0.0 
1.924648555757e-03 7.186203743945e-03 0.0 
0.0 0.0 0.0 
-5.783056181573e-04 4.920972931932e-04 0.0 
4.920972931932e-04 8.240161079284e-03 0.0 
0.0 0.0 0.0 
2.777475860743e-03 2.836770847225e-03 0.0 
2.836770847225e-03 -2.950246467064e-03 0.0 
0.0 0.0 0.0 
3.155089908654e-04 -2.537179815542e-03 0.0 
-2.537179815542e-03 3.566022675774e-04 0.0 
0.0 0.0 0.0 
-1.179070918396e-03 -5.865613814719e-04 0.0 
-5.865613814719e-04 4.596875718017e-03 0.0 
0.0 0.0 0.0 
-3.938956399687e-04 -1.525979444453e-03 0.0 
-1.525979444453e-03 2.899859147585e-03 0.0 
0.0 0.0 0.0 
-6.593801848038e-04 -7.166436781513e-04 0.0 
-7.166436781513e-04 4.827438228895e-03 0.0 
0.0 0.0 0.0 
-1.013065022107e-03 -1.033833816214e-03 0.0 
-1.033833816214e-03 3.954637582850e-03 0.0 
0.0 0.0 0.0 
-4.542506750141e-04 -1.017909929219e-03 0.0 
-1.017909929219e-03 4.064025830791e-03 0.0 
0.0 0.0 0.0 
8.151866915662e-04 -6.602384914730e-06 0.0 
-6.602384914730e-06 2.862930490035e-03 0.0 
0.0 0.0 0.0 
-1.871657924540e-04 -3.629158970179e-04 0.0 
-3.629158970179e-04 1.515253452818e-03 0.0 
0.0 0.0 0.0 
-1.129023798112e-03 4.653441941780e-04 0.0 
4.653441941780e-04 7.013518821549e-03 0.0 
0.0 0.0 0.0 
-1.079257953210e-03 2.598443018003e-04 0.0 
2.598443018003e-04 6.948565462910e-03 0.0 
0.0 0.0 0.0 
-8.419525061429e-04 4.795248966283e-04 0.0 
4.795248966283e-04 7.751779179768e-03 0.0 
0.0 0.0 0.0 
-1.010729092252e-03 -1.310659402383e-03 0.0 
-1.310659402383e-03 2.288607337908e-03 0.0 
0.0 0.0 0.0 
-1.548044291953e-03 -8.943883527240e-04 0.0 
-8.943883527240e-04 3.666266732800e-03 0.0 
0.0 0.0 0.0 
-4.315802104728e-04 -1.047383299213e-03 0.0 
-1.047383299213e-03 1.434673845477e-03 0.0 
0.0 0.0 0.0 
1.999922641531e-04 2.345253101561e-03 0.0 
2.345253101561e-03 4.950895237065e-03 0.0 
0.0 0.0 0.0 
-8.370736784252e-04 2.213787480149e-03 0.0 
2.213787480149e-03 3.830117290854e-03 0.0 
0.0 0.0 0.0 
1.390019862863e-03 -2.016081406144e-03 0.0 
-2.016081406144e-03 -2.071218399734e-04 0.0 
0.0 0.0 0.0 
-7.745199545384e-04 -1.874532604691e-03 0.0 
-1.874532604691e-03 2.143474155766e-03 0.0 
0.0 0.0 0.0 
-1.913217812970e-04 -2.240219694147e-03 0.0 
-2.240219694147e-03 1.145874685235e-03 0.0 
0.0 0.0 0.0 
5.933243319914e-04 -2.701869422385e-03 0.0 
-2.701869422385e-03 -8.983051818749e-05 0.0 
0.0 0.0 0.0 
1.364349460234e-03 2.805474751807e-03 0.0 
2.805474751807e-03 2.332772471970e-04 0.0 
0.0 0.0 0.0 
1.973690281941e-04 -2.178788046282e-03 0.0 
-2.178788046282e-03 1.150762414626e-03 0.0 
0.0 0.0 0.0 
4.577129827285e-04 -1.327468860458e-03 0.0 
-1.327468860458e-03 2.387609186135e-03 0.0 
0.0 0.0 0.0 
-7.434271223383e-04 4.359432202952e-04 0.0 
4.359432202952e-04 7.945558692404e-03 0.0 
0.0 0.0 0.0 
7.388923378951e-04 -2.956980550943e-04 0.0 
-2.956980550943e-04 -2.942525904806e-05 0.0 
0.0 0.0 0.0 
6.817987708710e-04 -1.165203351544e-03 0.0 
-1.165203351544e-03 2.295371344241e-03 0.0 
0.0 0.0 0.0 
1.741471098047e-04 -1.874860370227e-03 0.0 
-1.874860370227e-03 1.745302616458e-03 0.0 
0.0 0.0 0.0 
-1.174725750246e-03 7.413409101846e-04 0.0 
7.413409101846e-04 6.998336010808e-03 0.0 
0.0 0.0 0.0 
2.036055540524e-03 8.166649282986e-04 0.0 
8.166649282986e-04 7.229838222351e-04 0.0 
0.0 0.0 0.0 
8.457554741391e-04 -3.181666240883e-03 0.0 
-3.181666240883e-03 -9.028125022789e-04 0.0 
0.0 0.0 0.0 
-8.495020143481e-04 7.608259802727e-04 0.0 
7.608259802727e-04 7.741311067899e-03 0.0 
0.0 0.0 0.0 
-5.597305364149e-04 1.333710080312e-03 0.0 
1.333710080312e-03 7.887292105333e-03 0.0 
0.0 0.0 0.0 
-1.330655135367e-03 8.135055333934e-04 0.0 
8.135055333934e-04 6.517072076735e-03 0.0 
0.0 0.0 0.0 
-1.396205137396e-04 -7.758702916743e-04 0.0 
-7.758702916743e-04 1.087075678281e-03 0.0 
0.0 0.0 0.0 
-1.205449607984e-03 3.750222151744e-04 0.0 
3.750222151744e-04 6.660501964941e-03 0.0 
0.0 0.0 0.0 
6.929133885496e-04 -6.460058989368e-04 0.0 
-6.460058989368e-04 2.940922887418e-03 0.0 
0.0 0.0 0.0 
-9.450355265832e-04 1.351433917035e-03 0.0 
1.351433917035e-03 7.118890553427e-03 0.0 
0.0 0.0 0.0 
-1.006474669767e-03 -1.007739641805e-03 0.0 
-1.007739641805e-03 2.306484904769e-03 0.0 
0.0 0.0 0.0 
3.662105033573e-03 -7.636050661137e-05 0.0 
-7.636050661137e-05 -2.473745820815e-03 0.0 
0.0 0.0 0.0 
2.519649249459e-04 2.761789956614e-03 0.0 
2.761789956614e-03 1.950156030295e-03 0.0 
0.0 0.0 0.0 
-1.543523199169e-03 1.132017845214e-03 0.0 
1.132017845214e-03 4.947687150683e-03 0.0 
0.0 0.0 0.0 
-5.099872863888e-04 6.022366562861e-04 0.0 
6.022366562861e-04 8.327640085826e-03 0.0 
0.0 0.0 0.0 
2.331167338670e-03 2.407191872150e-03 0.0 
2.407191872150e-03 -5.993274136332e-04 0.0 
0.0 0.0 0.0 
1.678409950272e-03 2.979076932882e-04 0.0 
2.979076932882e-04 1.321836425870e-03 0.0 
0.0 0.0 0.0 
2.847205232608e-03 2.302798518332e-05 0.0 
2.302798518332e-05 -1.079586674165e-03 0.0 
0.0 0.0 0.0 
-1.191104337527e-03 -8.389328408473e-04 0.0 
-8.389328408473e-04 2.597372717670e-03 0.0 
0.0 0.0 0.0 
1.466585723051e-04 -1.074896608580e-03 0.0 
-1.074896608580e-03 3.420439367730e-03 0.0 
0.0 0.0 0.0 
3.621436247184e-03 1.479118541302e-03 0.0 
1.479118541302e-03 -2.298591298363e-03 0.0 
0.0 0.0 0.0 
-6.788413257225e-04 8.471575068791e-04 0.0 
8.471575068791e-04 8.022530647302e-03 0.0 
0.0 0.0 0.0 
2.865722813784e-04 2.458366186944e-03 0.0 
2.458366186944e-03 3.620139021876e-03 0.0 
0.0 0.0 0.0 
4.190868453066e-03 5.497004863487e-04 0.0 
5.497004863487e-04 -3.161811936146e-03 0.0 
0.0 0.0 0.0 
-8.333847004802e-04 1.090456225060e-03 0.0 
1.090456225060e-03 7.629143122931e-03 0.0 
0.0 0.0 0.0 
2.190311845234e-03 -1.613435395723e-03 0.0 
-1.613435395723e-03 -1.095187208665e-03 0.0 
0.0 0.0 0.0 
1.767227989099e-03 1.080689919432e-03 0.0 
1.080689919432e-03 1.280162516662e-03 0.0 
0.0 0.0 0.0 
-6.748452232433e-04 2.328998889626e-03 0.0 
2.328998889626e-03 3.350190401272e-03 0.0 
0.0 0.0 0.0 
1.796254726320e-04 2.677081784252e-03 0.0 
2.677081784252e-03 2.962384318547e-03 0.0 
0.0 0.0 0.0 
-5.842740043672e-04 2.232152256361e-03 0.0 
2.232152256361e-03 4.927578556862e-03 0.0 
0.0 0.0 0.0 
1.116625323867e-03 2.738049314122e-03 0.0 
2.738049314122e-03 1.229488267687e-03 0.0 
0.0 0.0 0.0 
-1.343744667159e-03 -4.247214085810e-04 0.0 
-4.247214085810e-04 4.598946269210e-03 0.0 
0.0 0.0 0.0 
3.926580528852e-04 -1.127238001032e-03 0.0 
-1.127238001032e-03 2.875929878804e-03 0.0 
0.0 0.0 0.0 
3.187481061006e-03 -1.177312364496e-03 0.0 
-1.177312364496e-03 -4.318649916150e-03 0.0 
0.0 0.0 0.0 
1.039739517375e-03 2.934415663703e-03 0.0 
2.934415663703e-03 2.491865274357e-04 0.0 
0.0 0.0 0.0 
-1.221196936861e-03 9.263164389208e-04 0.0 
9.263164389208e-04 6.821724489978e-03 0.0 
0.0 0.0 0.0 
5.994748753367e-04 2.227586084674e-03 0.0 
2.227586084674e-03 3.640746801269e-03 0.0 
0.0 0.0 0.0 
-4.854754537255e-04 9.279097062003e-04 0.0 
9.279097062003e-04 8.285730012649e-03 0.0 
0.0 0.0 0.0 
1.336113043794e-04 2.732780789931e-03 0.0 
2.732780789931e-03 1.873502813805e-03 0.0 
0.0 0.0 0.0 
-5.751265236816e-05 -1.136277660617e-03 0.0 
-1.136277660617e-03 3.498995971249e-03 0.0 
0.0 0.0 0.0 
-6.448124258525e-04 1.186342686874e-03 0.0 
1.186342686874e-03 7.884707258125e-03 0.0 
0.0 0.0 0.0 
-1.689824653824e-04 -2.028620430530e-03 0.0 
-2.028620430530e-03 1.742772611303e-03 0.0 
0.0 0.0 0.0 
-5.120541061413e-04 -1.263281542759e-04 0.0 
-1.263281542759e-04 1.918062024264e-03 0.0 
0.0 0.0 0.0 
2.068843695309e-03 3.138593604613e-03 0.0 
3.138593604613e-03 -2.816767559109e-03 0.0 
0.0 0.0 0.0 
4.162704968353e-03 6.675451245964e-04 0.0 
6.675451245964e-04 -3.603455516073e-03 0.0 
0.0 0.0 0.0 
2.866252992757e-03 2.233040312071e-03 0.0 
2.233040312071e-03 -1.366272454174e-03 0.0 
0.0 0.0 0.0 
-1.610153705202e-04 -1.887901907522e-03 0.0 
-1.887901907522e-03 2.024885052935e-03 0.0 
0.0 0.0 0.0 
-4.399438912142e-04 1.744499323701e-03 0.0 
1.744499323701e-03 7.578422368100e-03 0.0 
0.0 0.0 0.0 
-2.428004108472e-04 -1.023755922563e-03 0.0 
-1.023755922563e-03 3.981340036857e-03 0.0 
0.0 0.0 0.0 
1.504188511285e-03 -8.433638033727e-04 0.0 
-8.433638033727e-04 1.084763790979e-03 0.0 
0.0 0.0 0.0 
-1.131103707654e-03 2.834794224946e-03 0.0 
2.834794224946e-03 5.678916040707e-04 0.0 
0.0 0.0 0.0 
-1.454752970645e-03 1.380785312625e-03 0.0 
1.380785312625e-03 4.851062891606e-03 0.0 
0.0 0.0 0.0 
-3.808456442959e-04 -9.049101763204e-04 0.0 
-9.049101763204e-04 4.416555615167e-03 0.0 
0.0 0.0 0.0 
3.241606569826e-03 -5.311695870080e-04 0.0 
-5.311695870080e-04 -2.012697526677e-03 0.0 
0.0 0.0 0.0 
1.652948655963e-03 8.164122891866e-04 0.0 
8.164122891866e-04 1.465692438445e-03 0.0 
0.0 0.0 0.0 
-1.677681446383e-03 -3.963770226102e-04 0.0 
-3.963770226102e-04 4.104334596832e-03 0.0 
0.0 0.0 0.0 
3.153853957862e-04 2.266943767204e-03 0.0 
2.266943767204e-03 4.593057598729e-03 0.0 
0.0 0.0 0.0 
-1.079852290813e-03 1.747755930254e-03 0.0 
1.747755930254e-03 3.433945245931e-03 0.0 
0.0 0.0 0.0 
-4.716263065581e-04 -7.857788903749e-04 0.0 
-7.857788903749e-04 4.807052623932e-03 0.0 
0.0 0.0 0.0 
1.876031664190e-03 -3.555744028833e-04 0.0 
-3.555744028833e-04 6.832518923272e-04 0.0 
0.0 0.0 0.0 
2.655170217198e-03 2.856905475950e-03 0.0 
2.856905475950e-03 -1.657582927674e-03 0.0 
0.0 0.0 0.0 
-1.117051636499e-03 5.131572430728e-05 0.0 
5.131572430728e-05 6.015527555862e-03 0.0 
0.0 0.0 0.0 
-3.213625572699e-04 -7.466208941924e-04 0.0 
-7.466208941924e-04 5.175986784384e-03 0.0 
0.0 0.0 0.0 
1.530944576429e-03 -2.153917229956e-04 0.0 
-2.153917229956e-04 1.428637924197e-03 0.0 
0.0 0.0 0.0 
1.129227982594e-03 2.630027877575e-03 0.0 
2.630027877575e-03 1.572265308905e-03 0.0 
0.0 0.0 0.0 
3.016479901594e-03 -9.790243256855e-04 0.0 
-9.790243256855e-04 -1.904972096512e-03 0.0 
0.0 0.0 0.0 
-1.429837845908e-03 1.247860274003e-03 0.0 
1.247860274003e-03 4.323415336863e-03 0.0 
0.0 0.0 0.0 
-4.459804049630e-04 -1.698888011060e-03 0.0 
-1.698888011060e-03 2.587454247891e-03 0.0 
0.0 0.0 0.0 
-4.070049534109e-05 2.571241008199e-03 0.0 
2.571241008199e-03 3.578386001117e-03 0.0 
0.0 0.0 0.0 
-2.180337467742e-04 1.538844055342e-03 0.0 
1.538844055342e-03 8.175141807753e-03 0.0 
0.0 0.0 0.0 
1.429059008703e-03 7.395419977720e-05 0.0 
7.395419977720e-05 1.698882437704e-03 0.0 
0.0 0.0 0.0 
-1.124642555128e-03 1.558627207104e-03 0.0 
1.558627207104e-03 6.203982501326e-03 0.0 
0.0 0.0 0.0 
-7.402604015530e-04 -1.628641038962e-03 0.0 
-1.628641038962e-03 2.820509858514e-03 0.0 
0.0 0.0 0.0 
2.147824976132e-03 1.799554619289e-03 0.0 
1.799554619289e-03 3.579439261049e-04 0.0 
0.0 0.0 0.0 
6.488626762122e-04 -2.628052024223e-04 0.0 
-2.628052024223e-04 6.275177681259e-04 0.0 
0.0 0.0 0.0 
-1.311354162495e-03 1.539784542494e-03 0.0 
1.539784542494e-03 4.163466086120e-03 0.0 
0.0 0.0 0.0 
-9.492884883591e-04 -1.396537050837e-03 0.0 
-1.396537050837e-03 3.284771685681e-03 0.0 
0.0 0.0 0.0 
4.162882611761e-03 -1.209453079619e-04 0.0 
-1.209453079619e-04 -3.559528164921e-03 0.0 
0.0 0.0 0.0 
2.510838891058e-03 -1.273008971603e-03 0.0 
-1.273008971603e-03 -1.330390193807e-03 0.0 
0.0 0.0 0.0 
8.647046335456e-04 1.494694077760e-03 0.0 
1.494694077760e-03 3.095393498445e-03 0.0 
0.0 0.0 0.0 
-1.110315408595e-03 -1.155083741389e-03 0.0 
-1.155083741389e-03 3.693319290224e-03 0.0 
0.0 0.0 0.0 
4.155567334740e-03 -1.140903218132e-04 0.0 
-1.140903218132e-04 -3.321518999426e-03 0.0 
0.0 0.0 0.0 
-1.227011490119e-03 -9.116768321448e-04 0.0 
-9.116768321448e-04 4.046616997801e-03 0.0 
0.0 0.0 0.0 
-1.248214599453e-03 1.411709717654e-03 0.0 
1.411709717654e-03 3.685829157757e-03 0.0 
0.0 0.0 0.0 
-9.977008272324e-04 1.724638341426e-03 0.0 
1.724638341426e-03 6.104183628067e-03 0.0 
0.0 0.0 0.0 
-1.306116208616e-03 -6.675799876809e-04 0.0 
-6.675799876809e-04 4.352934742919e-03 0.0 
0.0 0.0 0.0 
3.814353025348e-05 2.473305396042e-03 0.0 
2.473305396042e-03 3.881284278046e-03 0.0 
0.0 0.0 0.0 
2.732423276972e-04 -5.169778734220e-04 0.0 
-5.169778734220e-04 7.875770569452e-04 0.0 
0.0 0.0 0.0 
1.420864663396e-03 2.448928514603e-03 0.0 
2.448928514603e-03 1.293772443780e-03 0.0 
0.0 0.0 0.0 
-8.241075217278e-04 -3.029731766184e-04 0.0 
-3.029731766184e-04 5.339735938916e-03 0.0 
0.0 0.0 0.0 
5.680134513567e-04 -2.498597951802e-03 0.0 
-2.498597951802e-03 3.241679018909e-04 0.0 
0.0 0.0 0.0 
2.082670986088e-03 -1.502953255815e-03 0.0 
-1.502953255815e-03 -7.749639877538e-04 0.0 
0.0 0.0 0.0 
-8.355403532266e-04 1.796593641491e-03 0.0 
1.796593641491e-03 6.347970042483e-03 0.0 
0.0 0.0 0.0 
-1.021682712194e-03 1.593506982995e-03 0.0 
1.593506982995e-03 3.067713326446e-03 0.0 
0.0 0.0 0.0 
1.931464663938e-03 -1.343547680909e-03 0.0 
-1.343547680909e-03 -2.598414508957e-04 0.0 
0.0 0.0 0.0 
8.570333718601e-05 2.390033147183e-03 0.0 
2.390033147183e-03 4.223793021390e-03 0.0 
0.0 0.0 0.0 
1.646134456485e-03 2.209069569012e-03 0.0 
2.209069569012e-03 1.116115031003e-03 0.0 
0.0 0.0 0.0 
2.682880988072e-03 2.128653615089e-03 0.0 
2.128653615089e-03 -9.559986875231e-04 0.0 
0.0 0.0 0.0 
1.739126031264e-03 -1.084026545457e-03 0.0 
-1.084026545457e-03 4.031527179698e-04 0.0 
0.0 0.0 0.0 
-8.006443963463e-04 1.965094721688e-03 0.0 
1.965094721688e-03 2.732087326317e-03 0.0 
0.0 0.0 0.0 
-2.480853605201e-04 -2.138375154778e-03 0.0 
-2.138375154778e-03 1.113602449187e-03 0.0 
0.0 0.0 0.0 
-3.104244387052e-04 -1.937387219890e-03 0.0 
-1.937387219890e-03 1.094719701921e-03 0.0 
0.0 0.0 0.0 
3.884685995910e-03 -7.404236128319e-04 0.0 
-7.404236128319e-04 -3.037982102372e-03 0.0 
0.0 0.0 0.0 
-7.486977766954e-05 2.332414136130e-03 0.0 
2.332414136130e-03 4.794630658433e-03 0.0 
0.0 0.0 0.0 
1.994199523171e-04 -1.973242061643e-04 0.0 
-1.973242061643e-04 1.163709027610e-03 0.0 
0.0 0.0 0.0 
-6.872644622490e-04 2.017144748596e-03 0.0 
2.017144748596e-03 5.815396249349e-03 0.0 
0.0 0.0 0.0 
-3.423955251745e-04 -1.736803472270e-03 0.0 
-1.736803472270e-03 9.180060250138e-04 0.0 
0.0 0.0 0.0 
3.536036465731e-03 -1.368179500378e-03 0.0 
-1.368179500378e-03 -2.865908483995e-03 0.0 
0.0 0.0 0.0 
1.522417095195e-03 1.793798258259e-03 0.0 
1.793798258259e-03 1.707404824578e-03 0.0 
0.0 0.0 0.0 
-9.910103680618e-04 3.716459810755e-05 0.0 
3.716459810755e-05 7.077918941799e-03 0.0 
0.0 0.0 0.0 
3.009534282632e-03 -1.761011248376e-03 0.0 
-1.761011248376e-03 -2.328363092273e-03 0.0 
0.0 0.0 0.0 
-9.746358517426e-04 -1.608665221947e-04 0.0 
-1.608665221947e-04 2.419020787472e-03 0.0 
0.0 0.0 0.0 
2.483970015054e-03 -2.160373396901e-03 0.0 
-2.160373396901e-03 -1.902063081950e-03 0.0 
0.0 0.0 0.0 
2.433310912403e-03 2.002667028279e-03 0.0 
2.002667028279e-03 -3.585282399631e-04 0.0 
0.0 0.0 0.0 
1.897529245251e-03 -2.250811110084e-03 0.0 
-2.250811110084e-03 -1.179115276677e-03 0.0 
0.0 0.0 0.0 
1.406041708848e-03 -2.443712472157e-03 0.0 
-2.443712472157e-03 -6.822980274862e-04 0.0 
0.0 0.0 0.0 
-3.940520701004e-04 5.448469402911e-04 0.0 
5.448469402911e-04 8.509498252764e-03 0.0 
0.0 0.0 0.0 
1.000082787851e-03 -2.460473493214e-03 0.0 
-2.460473493214e-03 -1.245806507511e-04 0.0 
0.0 0.0 0.0 
-1.829516341112e-04 1.598547438870e-04 0.0 
1.598547438870e-04 8.850026261323e-03 0.0 
0.0 0.0 0.0 
-2.922544880392e-04 -2.745183151285e-04 0.0 
-2.745183151285e-04 5.831484864337e-03 0.0 
0.0 0.0 0.0 
-1.090169339373e-03 2.249825932656e-05 0.0 
2.249825932656e-05 6.323847461821e-03 0.0 
0.0 0.0 0.0 
-8.008803600233e-04 1.708680640310e-03 0.0 
1.708680640310e-03 2.536737893605e-03 0.0 
0.0 0.0 0.0 
-1.450938771336e-03 1.502538427322e-04 0.0 
1.502538427322e-04 -4.046220177569e-03 0.0 
0.0 0.0 0.0 
-4.930683902590e-04 2.246560174322e-03 0.0 
2.246560174322e-03 2.017200585393e-03 0.0 
0.0 0.0 0.0 
4.745400934434e-04 -2.539564279972e-03 0.0 
-2.539564279972e-03 3.003393644285e-04 0.0 
0.0 0.0 0.0 
-4.569611367610e-04 2.221036893999e-03 0.0 
2.221036893999e-03 5.182302878208e-03 0.0 
0.0 0.0 0.0 
-1.096456423930e-03 6.059156373374e-05 0.0 
6.059156373374e-05 6.339529686333e-03 0.0 
0.0 0.0 0.0 
6.572582161100e-05 -2.402809568017e-03 0.0 
-2.402809568017e-03 7.512445042518e-04 0.0 
0.0 0.0 0.0 
-2.453278574446e-04 2.245519191902e-03 0.0 
2.245519191902e-03 6.579859888131e-03 0.0 
0.0 0.0 0.0 
2.423391764039e-04 2.146235221771e-03 0.0 
2.146235221771e-03 4.619841876423e-03 0.0 
0.0 0.0 0.0 
-8.564391130913e-04 1.183153766417e-04 0.0 
1.183153766417e-04 7.584824840464e-03 0.0 
0.0 0.0 0.0 
1.482526925067e-03 5.837016526263e-04 0.0 
5.837016526263e-04 1.710693894359e-03 0.0 
0.0 0.0 0.0 
1.786904656868e-03 1.931938547222e-03 0.0 
1.931938547222e-03 1.049338772572e-03 0.0 
0.0 0.0 0.0 
-5.212892533413e-04 7.841570899410e-05 0.0 
7.841570899410e-05 8.342099003482e-03 0.0 
0.0 0.0 0.0 
-1.201719933019e-03 1.322067371750e-04 0.0 
1.322067371750e-04 5.980157636200e-03 0.0 
0.0 0.0 0.0 
-3.302257729078e-04 -8.365031046491e-04 0.0 
-8.365031046491e-04 6.392026657397e-04 0.0 
0.0 0.0 0.0 
-1.317399733013e-03 -1.991472268055e-04 0.0 
-1.991472268055e-04 4.804773286029e-03 0.0 
0.0 0.0 0.0 
-6.546391561992e-04 1.865313054117e-03 0.0 
1.865313054117e-03 2.083479572144e-03 0.0 
0.0 0.0 0.0 
-3.300094398379e-04 2.434692716387e-03 0.0 
2.434692716387e-03 1.476551802385e-03 0.0 
0.0 0.0 0.0 
-2.311752410671e-04 2.813095670481e-03 0.0 
2.813095670481e-03 9.068762446692e-04 0.0 
0.0 0.0 0.0 
-1.339546862159e-03 -6.355734774534e-04 0.0 
-6.355734774534e-04 2.836268564421e-03 0.0 
0.0 0.0 0.0 
-4.031365992856e-04 -2.551102547657e-03 0.0 
-2.551102547657e-03 4.512083401535e-04 0.0 
0.0 0.0 0.0 
-6.032714849283e-04 2.103662943264e-03 0.0 
2.103662943264e-03 1.702670601355e-03 0.0 
0.0 0.0 0.0 
8.822237214291e-04 7.976146839597e-04 0.0 
7.976146839597e-04 2.825748796012e-03 0.0 
0.0 0.0 0.0 
-1.323351094375e-03 4.064572081071e-04 0.0 
4.064572081071e-04 6.263658146262e-03 0.0 
0.0 0.0 0.0 
1.225871038363e-03 1.910804382598e-03 0.0 
1.910804382598e-03 2.320193631414e-03 0.0 
0.0 0.0 0.0 
-7.578727627528e-04 2.396847751967e-03 0.0 
2.396847751967e-03 1.387454774042e-03 0.0 
0.0 0.0 0.0 
-4.396994388359e-04 1.279980237783e-03 0.0 
1.279980237783e-03 8.114781460677e-03 0.0 
0.0 0.0 0.0 
6.344366539126e-04 1.844139133930e-03 0.0 
1.844139133930e-03 3.643685880142e-03 0.0 
0.0 0.0 0.0 
2.144125536111e-05 -9.341096041101e-04 0.0 
-9.341096041101e-04 4.756967624438e-03 0.0 
0.0 0.0 0.0 
9.646807922884e-04 1.846408349106e-03 0.0 
1.846408349106e-03 2.936654392668e-03 0.0 
0.0 0.0 0.0 
-8.277225686006e-05 3.369999722474e-03 0.0 
3.369999722474e-03 -8.373333968908e-05 0.0 
0.0 0.0 0.0 
-1.392382986549e-03 8.680530620881e-04 0.0 
8.680530620881e-04 6.319445213921e-03 0.0 
0.0 0.0 0.0 
9.453769342764e-05 2.383766935041e-03 0.0 
2.383766935041e-03 5.292736081130e-03 0.0 
0.0 0.0 0.0 
-7.770292709099e-04 1.950372085583e-04 0.0 
1.950372085583e-04 7.839135720203e-03 0.0 
0.0 0.0 0.0 
-8.371821644793e-05 -8.878286472261e-04 0.0 
-8.878286472261e-04 5.159100485779e-03 0.0 
0.0 0.0 0.0 
-1.408902311422e-03 5.693876384838e-04 0.0 
5.693876384838e-04 6.137914453395e-03 0.0 
0.0 0.0 0.0 
-3.452314626794e-04 3.606902721774e-04 0.0 
3.606902721774e-04 8.597553796792e-03 0.0 
0.0 0.0 0.0 
2.863518536435e-03 -2.342959489540e-03 0.0 
-2.342959489540e-03 -3.927174999631e-03 0.0 
0.0 0.0 0.0 
-3.327124687385e-04 1.881888017592e-04 0.0 
1.881888017592e-04 8.628787139969e-03 0.0 
0.0 0.0 0.0 
-3.473768343136e-04 2.227403363177e-03 0.0 
2.227403363177e-03 5.469943041359e-03 0.0 
0.0 0.0 0.0 
-1.087312416643e-03 1.935405224971e-04 0.0 
1.935405224971e-04 6.798952417159e-03 0.0 
0.0 0.0 0.0 
-1.416304663861e-03 1.130730402707e-03 0.0 
1.130730402707e-03 6.074734141814e-03 0.0 
0.0 0.0 0.0 
-4.328954920436e-04 -4.138397350011e-04 0.0 
-4.138397350011e-04 5.615473107562e-03 0.0 
0.0 0.0 0.0 
-3.534677235848e-04 2.039987340578e-03 0.0 
2.039987340578e-03 7.112532344726e-03 0.0 
0.0 0.0 0.0 
1.046488942507e-04 3.618183184242e-03 0.0 
3.618183184242e-03 -1.213577489489e-03 0.0 
0.0 0.0 0.0 
-8.782967131541e-04 1.825734348503e-04 0.0 
1.825734348503e-04 7.560500288651e-03 0.0 
0.0 0.0 0.0 
-1.483725856273e-03 -9.991939437869e-04 0.0 
-9.991939437869e-04 3.148944136945e-03 0.0 
0.0 0.0 0.0 
6.908160597003e-04 -1.942401534532e-03 0.0 
-1.942401534532e-03 -4.020831050770e-03 0.0 
0.0 0.0 0.0 
2.677812392616e-04 -8.285846258646e-04 0.0 
-8.285846258646e-04 3.891498381699e-03 0.0 
0.0 0.0 0.0 
-2.539621895087e-04 2.252838983589e-03 0.0 
2.252838983589e-03 5.765954485048e-03 0.0 
0.0 0.0 0.0 
-3.698157338618e-04 -6.386512895776e-04 0.0 
-6.386512895776e-04 5.383907139245e-03 0.0 
0.0 0.0 0.0 
8.260432081448e-04 -1.968415930204e-05 0.0 
-1.968415930204e-05 5.708791021386e-04 0.0 
0.0 0.0 0.0 
1.559321725004e-04 -5.067660691914e-04 0.0 
-5.067660691914e-04 4.123585914570e-04 0.0 
0.0 0.0 0.0 
4.730248853729e-04 -6.067041032531e-04 0.0 
-6.067041032531e-04 3.504476106855e-03 0.0 
0.0 0.0 0.0 
-1.049421643336e-04 2.373387178987e-03 0.0 
2.373387178987e-03 6.049630664309e-03 0.0 
0.0 0.0 0.0 
2.417753612316e-03 -2.928999237817e-03 0.0 
-2.928999237817e-03 -2.809982035908e-03 0.0 
0.0 0.0 0.0 
-1.883220552920e-04 1.133747804853e-03 0.0 
1.133747804853e-03 8.535764966895e-03 0.0 
0.0 0.0 0.0 
-3.110223997274e-04 3.301091944120e-03 0.0 
3.301091944120e-03 -2.153992770499e-03 0.0 
0.0 0.0 0.0 
-1.275303535412e-03 2.125885853039e-04 0.0 
2.125885853039e-04 5.923419923172e-03 0.0 
0.0 0.0 0.0 
7.469080212279e-04 -4.050741984774e-04 0.0 
-4.050741984774e-04 2.234256820591e-04 0.0 
0.0 0.0 0.0 
-1.338465793004e-04 -7.936261306502e-04 0.0 
-7.936261306502e-04 5.414857229653e-03 0.0 
0.0 0.0 0.0 
-3.845576543400e-04 8.623851948309e-04 0.0 
8.623851948309e-04 8.430011187458e-03 0.0 
0.0 0.0 0.0 
-1.672660485042e-03 -6.722134077461e-04 0.0 
-6.722134077461e-04 3.588027702112e-03 0.0 
0.0 0.0 0.0 
-1.551351840742e-03 9.321253873060e-04 0.0 
9.321253873060e-04 5.614725079763e-03 0.0 
0.0 0.0 0.0 
-1.191151704465e-03 -3.766111679794e-04 0.0 
-3.766111679794e-04 2.677820810243e-03 0.0 
0.0 0.0 0.0 
4.934838108522e-04 2.218797275415e-03 0.0 
2.218797275415e-03 4.034318387613e-03 0.0 
0.0 0.0 0.0 
-4.882362910549e-04 -1.421402471530e-03 0.0 
-1.421402471530e-03 8.249223320593e-04 0.0 
0.0 0.0 0.0 
-3.512669511939e-04 6.447268934831e-04 0.0 
6.447268934831e-04 8.550445744479e-03 0.0 
0.0 0.0 0.0 
6.434741638516e-04 -2.268346418049e-04 0.0 
-2.268346418049e-04 3.172495944539e-03 0.0 
0.0 0.0 0.0 
-3.913211912578e-04 1.659554135756e-03 0.0 
1.659554135756e-03 7.798653442310e-03 0.0 
0.0 0.0 0.0 
3.370330626321e-04 1.308125651825e-03 0.0 
1.308125651825e-03 3.894599977391e-03 0.0 
0.0 0.0 0.0 
3.783547186699e-04 9.640492041882e-04 0.0 
9.640492041882e-04 -4.416148574196e-03 0.0 
0.0 0.0 0.0 
4.715911115919e-04 2.016152179634e-03 0.0 
2.016152179634e-03 4.067607506453e-03 0.0 
0.0 0.0 0.0 
1.114718579349e-03 1.348651641243e-04 0.0 
1.348651641243e-04 2.331548095314e-03 0.0 
0.0 0.0 0.0 
-1.158962308357e-03 9.940523069617e-05 0.0 
9.940523069617e-05 5.981910360187e-03 0.0 
0.0 0.0 0.0 
-3.807670515545e-04 1.873796605632e-03 0.0 
1.873796605632e-03 7.435889496759e-03 0.0 
0.0 0.0 0.0 
-1.504970107812e-03 -6.525672182650e-04 0.0 
-6.525672182650e-04 3.109202154909e-03 0.0 
0.0 0.0 0.0 
3.407147623595e-05 -5.129897614253e-04 0.0 
-5.129897614253e-04 1.125874180298e-03 0.0 
0.0 0.0 0.0 
-1.496060480392e-04 7.698293528541e-05 0.0 
7.698293528541e-05 8.887030048065e-03 0.0 
0.0 0.0 0.0 
2.182723027178e-03 -2.921500836616e-06 0.0 
-2.921500836616e-06 -7.300261592391e-04 0.0 
0.0 0.0 0.0 
-1.104103738155e-03 9.953786601887e-06 0.0 
9.953786601887e-06 5.959825205034e-03 0.0 
0.0 0.0 0.0 
-2.340297172121e-04 -1.218193511516e-04 0.0 
-1.218193511516e-04 5.920504952876e-03 0.0 
0.0 0.0 0.0 
2.824335228699e-04 -2.707343307188e-04 0.0 
-2.707343307188e-04 1.030918808587e-03 0.0 
0.0 0.0 0.0 
-1.069252112005e-03 5.731548838148e-05 0.0 
5.731548838148e-05 6.611518860829e-03 0.0 
0.0 0.0 0.0 
-1.680639913288e-04 2.326235511709e-03 0.0 
2.326235511709e-03 6.357545445087e-03 0.0 
0.0 0.0 0.0 
-1.687441318449e-03 -1.791286679351e-04 0.0 
-1.791286679351e-04 4.201245509433e-03 0.0 
0.0 0.0 0.0 
-6.113415691987e-04 1.299894620466e-04 0.0 
1.299894620466e-04 8.164595232888e-03 0.0 
0.0 0.0 0.0 
2.228815781870e-04 -3.099158313751e-03 0.0 
-3.099158313751e-03 -3.482769863456e-04 0.0 
0.0 0.0 0.0 
-1.741634763532e-03 -5.996891868869e-04 0.0 
-5.996891868869e-04 -3.844967661666e-03 0.0 
0.0 0.0 0.0 
-9.511557164704e-04 8.303754300288e-05 0.0 
8.303754300288e-05 7.267703765280e-03 0.0 
0.0 0.0 0.0 
6.443127919960e-04 1.672422587796e-03 0.0 
1.672422587796e-03 3.525420836273e-03 0.0 
0.0 0.0 0.0 
-3.876010902630e-04 1.411650434511e-03 0.0 
1.411650434511e-03 8.084332446775e-03 0.0 
0.0 0.0 0.0 
-1.039696816583e-03 1.835213959119e-04 0.0 
1.835213959119e-04 7.005631956244e-03 0.0 
0.0 0.0 0.0 
1.266234489539e-03 3.466344000399e-03 0.0 
3.466344000399e-03 -2.382656876087e-03 0.0 
0.0 0.0 0.0 
-1.889792103959e-04 2.306919037146e-03 0.0 
2.306919037146e-03 6.010801930600e-03 0.0 
0.0 0.0 0.0 
-1.661998025568e-03 -6.833733470857e-04 0.0 
-6.833733470857e-04 3.728450127393e-03 0.0 
0.0 0.0 0.0 
1.917388266196e-04 2.345848536522e-03 0.0 
2.345848536522e-03 4.818074600010e-03 0.0 
0.0 0.0 0.0 
1.160937954729e-03 6.214879964575e-04 0.0 
6.214879964575e-04 2.323010592339e-03 0.0 
0.0 0.0 0.0 
-1.551371966179e-03 3.298207482164e-03 0.0 
3.298207482164e-03 -1.425466316658e-03 0.0 
0.0 0.0 0.0 
-1.603487630574e-03 -1.476731926616e-04 0.0 
-1.476731926616e-04 4.383167131171e-03 0.0 
0.0 0.0 0.0 
6.095350009124e-04 -4.361397575356e-04 0.0 
-4.361397575356e-04 2.310059736776e-04 0.0 
0.0 0.0 0.0 
-1.896774516554e-05 -9.210755907097e-04 0.0 
-9.210755907097e-04 4.616303886652e-03 0.0 
0.0 0.0 0.0 
-1.705640785816e-03 -4.776503005813e-04 0.0 
-4.776503005813e-04 3.913949026203e-03 0.0 
0.0 0.0 0.0 
-1.166183997337e-03 1.084076559500e-03 0.0 
1.084076559500e-03 2.042418404596e-03 0.0 
0.0 0.0 0.0 
-5.126289407257e-04 -9.081408029789e-06 0.0 
-9.081408029789e-06 1.689505552169e-03 0.0 
0.0 0.0 0.0 
-8.505224327953e-04 1.347119488304e-03 0.0 
1.347119488304e-03 1.930684981032e-03 0.0 
0.0 0.0 0.0 
-6.117993810648e-04 -5.950035210139e-06 0.0 
-5.950035210139e-06 2.199650344965e-03 0.0 
0.0 0.0 0.0 
-7.476343656189e-04 1.415066430889e-03 0.0 
1.415066430889e-03 2.086170743023e-03 0.0 
0.0 0.0 0.0 
-7.088980964657e-04 -1.685088879221e-05 0.0 
-1.685088879221e-05 2.642324232785e-03 0.0 
0.0 0.0 0.0 
-8.158639871829e-04 1.352040114554e-03 0.0 
1.352040114554e-03 2.392175594111e-03 0.0 
0.0 0.0 0.0 
-7.997639328572e-04 -1.194010981151e-05 0.0 
-1.194010981151e-05 3.161274400212e-03 0.0 
0.0 0.0 0.0 
-9.850554490736e-04 1.240356309410e-03 0.0 
1.240356309410e-03 2.827742355858e-03 0.0 
0.0 0.0 0.0 
-8.764485578719e-04 -1.347875569758e-05 0.0 
-1.347875569758e-05 3.601242499570e-03 0.0 
0.0 0.0 0.0 
-1.203399645137e-03 1.094280699677e-03 0.0 
1.094280699677e-03 3.359904188595e-03 0.0 
0.0 0.0 0.0 
-9.459900196540e-04 -1.166076406800e-05 0.0 
-1.166076406800e-05 4.104402085715e-03 0.0 
0.0 0.0 0.0 
-1.392225354714e-03 9.692070758114e-04 0.0 
9.692070758114e-04 3.919345596927e-03 0.0 
0.0 0.0 0.0 
-1.008178890917e-03 -8.389679588576e-06 0.0 
-8.389679588576e-06 4.536464039119e-03 0.0 
0.0 0.0 0.0 
-1.536467675117e-03 8.617510852258e-04 0.0 
8.617510852258e-04 4.495702370971e-03 0.0 
0.0 0.0 0.0 
-1.057921093270e-03 -3.361882518434e-06 0.0 
-3.361882518434e-06 5.020605334312e-03 0.0 
0.0 0.0 0.0 
-1.619844685461e-03 8.027589754973e-04 0.0 
8.027589754973e-04 5.042339004374e-03 0.0 
0.0 0.0 0.0 
-1.094672927013e-03 8.335588330680e-06 0.0 
8.335588330680e-06 5.434074241337e-03 0.0 
0.0 0.0 0.0 

TENSORS node_materi_strain_plasti float
2.934499401238e-03 -6.293764513238e-05 0.0 
-6.293764513238e-05 -1.067748591947e-03 0.0 
0.0 0.0 -1.096634683480e-04 
-1.402797370443e-03 -1.078294972551e-04 0.0 
-1.078294972551e-04 4.900277451411e-03 0.0 
0.0 0.0 -6.959116756397e-04 
-1.452967895051e-03 -5.509598229541e-05 0.0 
-5.509598229541e-05 7.203997768270e-03 0.0 
0.0 0.0 -1.332621093165e-03 
-1.383162840862e-03 -3.297498286580e-05 0.0 
-3.297498286580e-05 8.816768276200e-03 0.0 
0.0 0.0 -1.332621093165e-03 
2.013745495957e-03 -6.316916865917e-05 0.0 
-6.316916865917e-05 -5.120452549012e-04 0.0 
0.0 0.0 -2.200719611176e-04 
9.770148188976e-04 3.431498766894e-05 0.0 
3.431498766894e-05 4.169221136190e-04 0.0 
0.0 0.0 -3.137585542919e-04 
-7.178028314759e-05 -1.232028049948e-08 0.0 
-1.232028049948e-08 1.149279144839e-03 0.0 
0.0 0.0 -2.794359002296e-04 
-6.436375512209e-04 -1.276790241492e-05 0.0 
-1.276790241492e-05 1.873669559697e-03 0.0 
0.0 0.0 -3.439875543896e-04 
-7.879199919424e-04 -6.957800867177e-05 0.0 
-6.957800867177e-05 2.362265819291e-03 0.0 
0.0 0.0 -5.230155850880e-04 
-9.090757292185e-04 -8.706192601079e-05 0.0 
-8.706192601079e-05 2.790274002592e-03 0.0 
0.0 0.0 -6.679173279409e-04 
-1.029732123068e-03 -9.763895695819e-05 0.0 
-9.763895695819e-05 3.189834221624e-03 0.0 
0.0 0.0 -7.858430676574e-04 
-1.146480183378e-03 -1.186695020361e-04 0.0 
-1.186695020361e-04 3.556707151380e-03 0.0 
0.0 0.0 -8.797909670055e-04 
-1.263272361791e-03 -1.272958726748e-04 0.0 
-1.272958726748e-04 3.899470374148e-03 0.0 
0.0 0.0 -9.497524971825e-04 
-1.384672616284e-03 -1.145152012545e-04 0.0 
-1.145152012545e-04 4.236966414279e-03 0.0 
0.0 0.0 -1.004045332643e-03 
-1.526674903082e-03 -6.496102058636e-05 0.0 
-6.496102058636e-05 4.605045077914e-03 0.0 
0.0 0.0 -1.040527029177e-03 
-1.665462947768e-03 -2.107388054909e-05 0.0 
-2.107388054909e-05 4.948618842847e-03 0.0 
0.0 0.0 -1.059523297737e-03 
-1.782894097401e-03 -3.343512703910e-06 0.0 
-3.343512703910e-06 5.233549116132e-03 0.0 
0.0 0.0 -1.072054170059e-03 
-1.938902930101e-03 -9.696053467476e-05 0.0 
-9.696053467476e-05 5.600248017308e-03 0.0 
0.0 0.0 -1.073655443973e-03 
-2.100363589718e-03 -8.662704783515e-05 0.0 
-8.662704783515e-05 5.970821215845e-03 0.0 
0.0 0.0 -1.067605311830e-03 
-2.135124898814e-03 -7.268436157999e-05 0.0 
-7.268436157999e-05 6.300803109141e-03 0.0 
0.0 0.0 -1.091655094700e-03 
-2.004143563035e-03 -6.534761213825e-05 0.0 
-6.534761213825e-05 6.588381292475e-03 0.0 
0.0 0.0 -1.158330123333e-03 
-1.835283495390e-03 -5.008648858264e-05 0.0 
-5.008648858264e-05 6.864752160644e-03 0.0 
0.0 0.0 -1.226073836101e-03 
-1.640741500190e-03 -2.858138524020e-05 0.0 
-2.858138524020e-05 7.123085926045e-03 0.0 
0.0 0.0 -1.289832767750e-03 
-1.368677421570e-03 1.600785886141e-04 0.0 
1.600785886141e-04 8.818553082708e-03 0.0 
0.0 0.0 -1.336902025401e-03 
-1.377365391022e-03 2.999124352866e-04 0.0 
2.999124352866e-04 8.800585598907e-03 0.0 
0.0 0.0 -1.332945767435e-03 
-1.378029629414e-03 3.844218527142e-04 0.0 
3.844218527142e-04 8.780564209488e-03 0.0 
0.0 0.0 -1.334903170087e-03 
-1.378699113984e-03 6.281396802948e-04 0.0 
6.281396802948e-04 8.766528136653e-03 0.0 
0.0 0.0 -1.334459899807e-03 
-1.385861616700e-03 7.361442488981e-04 0.0 
7.361442488981e-04 8.736115872586e-03 0.0 
0.0 0.0 -1.332067731643e-03 
-1.380170718422e-03 9.112443166240e-04 0.0 
9.112443166240e-04 8.705993944759e-03 0.0 
0.0 0.0 -1.335050935171e-03 
-1.376694153872e-03 1.085769035599e-03 0.0 
1.085769035599e-03 8.675777653225e-03 0.0 
0.0 0.0 -1.335055123498e-03 
-1.386603367251e-03 1.256067884305e-03 0.0 
1.256067884305e-03 8.631282104952e-03 0.0 
0.0 0.0 -1.333530254363e-03 
-1.385927681412e-03 1.401216317866e-03 0.0 
1.401216317866e-03 8.584979043230e-03 0.0 
0.0 0.0 -1.336259905589e-03 
-1.382886472311e-03 1.656515799073e-03 0.0 
1.656515799073e-03 8.524207830888e-03 0.0 
0.0 0.0 -1.335712483792e-03 
-1.394014418558e-03 1.806002472474e-03 0.0 
1.806002472474e-03 8.445999086005e-03 0.0 
0.0 0.0 -1.333313947604e-03 
-1.390408237112e-03 2.011066343467e-03 0.0 
2.011066343467e-03 8.361388601017e-03 0.0 
0.0 0.0 -1.335862559377e-03 
-1.384222329824e-03 2.219576262539e-03 0.0 
2.219576262539e-03 8.276324698237e-03 0.0 
0.0 0.0 -1.336097458551e-03 
-1.389035125892e-03 2.412450494632e-03 0.0 
2.412450494632e-03 8.157453667495e-03 0.0 
0.0 0.0 -1.335235043394e-03 
-1.385735689378e-03 2.596152172723e-03 0.0 
2.596152172723e-03 8.026403168300e-03 0.0 
0.0 0.0 -1.334297546486e-03 
-1.387385464636e-03 2.793709716201e-03 0.0 
2.793709716201e-03 7.870413974245e-03 0.0 
0.0 0.0 -1.332308435384e-03 
-1.390045521020e-03 2.956478596536e-03 0.0 
2.956478596536e-03 7.707669454312e-03 0.0 
0.0 0.0 -1.332019584455e-03 
-1.374441407390e-03 3.130356841580e-03 0.0 
3.130356841580e-03 7.548288379511e-03 0.0 
0.0 0.0 -1.333392124151e-03 
-1.370916614240e-03 3.263121805825e-03 0.0 
3.263121805825e-03 7.369253492750e-03 0.0 
0.0 0.0 -1.334727449481e-03 
-1.360841402714e-03 3.372289688876e-03 0.0 
3.372289688876e-03 7.166176364928e-03 0.0 
0.0 0.0 -1.336576889699e-03 
-1.346336485325e-03 3.461253780169e-03 0.0 
3.461253780169e-03 6.951403103377e-03 0.0 
0.0 0.0 -1.335888391555e-03 
-1.332890796825e-03 3.468370162717e-03 0.0 
3.468370162717e-03 6.730314385053e-03 0.0 
0.0 0.0 -1.334783226448e-03 
-1.319924003398e-03 3.447235553293e-03 0.0 
3.447235553293e-03 6.491181615044e-03 0.0 
0.0 0.0 -1.335053869153e-03 
-1.304557536433e-03 3.357836383275e-03 0.0 
3.357836383275e-03 6.252969737423e-03 0.0 
0.0 0.0 -1.334960189349e-03 
-1.290544710403e-03 3.217570000044e-03 0.0 
3.217570000044e-03 6.038359705784e-03 0.0 
0.0 0.0 -1.334889991128e-03 
-1.266052279295e-03 3.015967340183e-03 0.0 
3.015967340183e-03 5.820251815716e-03 0.0 
0.0 0.0 -1.335774086633e-03 
-1.268292395628e-03 2.751499810292e-03 0.0 
2.751499810292e-03 5.611006951901e-03 0.0 
0.0 0.0 -1.336605656894e-03 
-1.233716587758e-03 2.428663332176e-03 0.0 
2.428663332176e-03 5.432453778555e-03 0.0 
0.0 0.0 -1.336508443943e-03 
-1.235192718271e-03 2.048692266400e-03 0.0 
2.048692266400e-03 5.281516895731e-03 0.0 
0.0 0.0 -1.335343284290e-03 
-1.233233161047e-03 1.613443115418e-03 0.0 
1.613443115418e-03 5.176753839955e-03 0.0 
0.0 0.0 -1.337998490269e-03 
-1.231527167288e-03 1.237296422517e-03 0.0 
1.237296422517e-03 5.075978590578e-03 0.0 
0.0 0.0 -1.337247094005e-03 
-1.199833465241e-03 7.660071193524e-04 0.0 
7.660071193524e-04 4.984249579952e-03 0.0 
0.0 0.0 -1.333783489999e-03 
-1.202795443341e-03 2.512512957567e-04 0.0 
2.512512957567e-04 4.957451962835e-03 0.0 
0.0 0.0 -1.334548731617e-03 
-1.209938913942e-03 -2.134028709971e-04 0.0 
-2.134028709971e-04 5.026425426342e-03 0.0 
0.0 0.0 -1.334619746794e-03 
-1.216034057197e-03 -6.370386973179e-04 0.0 
-6.370386973179e-04 5.098251117921e-03 0.0 
0.0 0.0 -1.335242115105e-03 
-1.250273571860e-03 -1.037169625291e-03 0.0 
-1.037169625291e-03 5.212102119693e-03 0.0 
0.0 0.0 -1.335691437541e-03 
-1.244652277412e-03 -1.350985257247e-03 0.0 
-1.350985257247e-03 5.369562904984e-03 0.0 
0.0 0.0 -1.335646478247e-03 
-1.280185566221e-03 -1.619011709695e-03 0.0 
-1.619011709695e-03 5.525208807417e-03 0.0 
0.0 0.0 -1.334931242407e-03 
-1.279873673449e-03 -1.816253781483e-03 0.0 
-1.816253781483e-03 5.699667194469e-03 0.0 
0.0 0.0 -1.334100791702e-03 
-1.316092894892e-03 -1.930306284798e-03 0.0 
-1.930306284798e-03 5.897360744271e-03 0.0 
0.0 0.0 -1.332237298415e-03 
-1.332492949627e-03 -1.997739486340e-03 0.0 
-1.997739486340e-03 6.101236304603e-03 0.0 
0.0 0.0 -1.333749945600e-03 
-1.347535005711e-03 -1.949980560505e-03 0.0 
-1.949980560505e-03 6.326575568891e-03 0.0 
0.0 0.0 -1.336652505695e-03 
-1.361718678089e-03 -1.883685554895e-03 0.0 
-1.883685554895e-03 6.509663460433e-03 0.0 
0.0 0.0 -1.337094627689e-03 
-1.399643089063e-03 -1.709140483279e-03 0.0 
-1.709140483279e-03 6.643034708910e-03 0.0 
0.0 0.0 -1.328990728106e-03 
-1.392288690639e-03 -1.485263022766e-03 0.0 
-1.485263022766e-03 6.836967868930e-03 0.0 
0.0 0.0 -1.335900064369e-03 
-1.414556676199e-03 -1.251540022059e-03 0.0 
-1.251540022059e-03 6.954271934946e-03 0.0 
0.0 0.0 -1.332523500780e-03 
-1.412496609790e-03 -1.031814538929e-03 0.0 
-1.031814538929e-03 7.047562735813e-03 0.0 
0.0 0.0 -1.335219049675e-03 
-1.419510763784e-03 -6.645626228058e-04 0.0 
-6.645626228058e-04 7.146959411296e-03 0.0 
0.0 0.0 -1.336566422126e-03 
-1.427684607805e-03 -3.887077461759e-04 0.0 
-3.887077461759e-04 7.195451913880e-03 0.0 
0.0 0.0 -1.335855682064e-03 
-1.453017564014e-03 -6.969271926299e-05 0.0 
-6.969271926299e-05 5.335351891541e-03 0.0 
0.0 0.0 -7.648954205800e-04 
-1.520880417330e-03 -7.433446925198e-05 0.0 
-7.433446925198e-05 5.819919600560e-03 0.0 
0.0 0.0 -8.298981322982e-04 
-1.557423966696e-03 -6.785219458369e-05 0.0 
-6.785219458369e-05 6.258440284560e-03 0.0 
0.0 0.0 -8.959277352460e-04 
-1.578985001560e-03 -6.738694350763e-05 0.0 
-6.738694350763e-05 6.671688470532e-03 0.0 
0.0 0.0 -9.610467530554e-04 
-1.585789406967e-03 -5.141559601497e-05 0.0 
-5.141559601497e-05 7.089803706817e-03 0.0 
0.0 0.0 -1.026987810050e-03 
-1.562649818793e-03 -5.245167551875e-05 0.0 
-5.245167551875e-05 7.497011482479e-03 0.0 
0.0 0.0 -1.092790196867e-03 
-1.539445803207e-03 -3.968004133447e-05 0.0 
-3.968004133447e-05 7.888080790164e-03 0.0 
0.0 0.0 -1.158290425478e-03 
-1.493157212652e-03 -4.236338247705e-05 0.0 
-4.236338247705e-05 8.249034422054e-03 0.0 
0.0 0.0 -1.224481705251e-03 
-1.439591118906e-03 -4.822262499776e-05 0.0 
-4.822262499776e-05 8.655254164316e-03 0.0 
0.0 0.0 -1.288782062784e-03 
0.0 0.0 0.0 
0.0 0.0 0.0 
0.0 0.0 0.0 
-1.624278093923e-03 1.090396231210e-03 0.0 
1.090396231210e-03 4.601022683819e-03 0.0 
0.0 0.0 -7.280202007920e-04 
7.292124794969e-05 8.304741247576e-04 0.0 
8.304741247576e-04 4.138392948497e-04 0.0 
0.0 0.0 -2.086116611997e-04 
1.260189971784e-04 1.413664752255e-03 0.0 
1.413664752255e-03 7.032628037711e-04 0.0 
0.0 0.0 -3.554064861212e-04 
1.125196749487e-04 1.658713971292e-03 0.0 
1.658713971292e-03 8.740061698570e-04 0.0 
0.0 0.0 -4.227967906310e-04 
-5.064027901580e-05 1.636532375328e-03 0.0 
1.636532375328e-03 1.145388155645e-03 0.0 
0.0 0.0 -4.691776614124e-04 
-2.686288214637e-04 1.584200308986e-03 0.0 
1.584200308986e-03 1.584793069977e-03 0.0 
0.0 0.0 -5.640703922202e-04 
-4.987456418830e-04 1.585377040139e-03 0.0 
1.585377040139e-03 2.175609205872e-03 0.0 
0.0 0.0 -7.186558131380e-04 
-7.693623021415e-04 1.545850130620e-03 0.0 
1.545850130620e-03 2.800183439925e-03 0.0 
0.0 0.0 -7.884857694893e-04 
-1.068442602319e-03 1.392543525831e-03 0.0 
1.392543525831e-03 3.387126047545e-03 0.0 
0.0 0.0 -7.502339878794e-04 
-1.352818007869e-03 1.227157706519e-03 0.0 
1.227157706519e-03 3.981454431592e-03 0.0 
0.0 0.0 -7.303644794522e-04 
-1.824919323275e-04 -1.158767188787e-04 0.0 
-1.158767188787e-04 6.195871691791e-04 0.0 
0.0 0.0 -1.808830682185e-04 
-2.955627832917e-04 -1.717540023557e-04 0.0 
-1.717540023557e-04 9.026184445934e-04 0.0 
0.0 0.0 -1.999630834833e-04 
-4.978355054856e-04 -1.617196165735e-04 0.0 
-1.617196165735e-04 1.420827660146e-03 0.0 
0.0 0.0 -2.481304124614e-04 
-6.523899398366e-04 -2.144599340885e-04 0.0 
-2.144599340885e-04 1.928599373842e-03 0.0 
0.0 0.0 -3.065644285115e-04 
-8.254529843557e-04 -1.769995152719e-04 0.0 
-1.769995152719e-04 2.443834664170e-03 0.0 
0.0 0.0 -3.600000000000e-04 
-9.532376032239e-04 -2.185094811376e-04 0.0 
-2.185094811376e-04 2.944932670617e-03 0.0 
0.0 0.0 -4.266666666667e-04 
-1.074369705335e-03 -1.739013270640e-04 0.0 
-1.739013270640e-04 3.441659993103e-03 0.0 
0.0 0.0 -4.933333333333e-04 
-1.186861804691e-03 -2.063993814702e-04 0.0 
-2.063993814702e-04 3.930451098783e-03 0.0 
0.0 0.0 -5.600000000000e-04 
-1.284181826536e-03 -1.411246795881e-04 0.0 
-1.411246795881e-04 4.401802096581e-03 0.0 
0.0 0.0 -6.266666666667e-04 
-1.371869470260e-03 5.987426434916e-05 0.0 
5.987426434916e-05 4.821720366173e-03 0.0 
0.0 0.0 -6.874962403976e-04 
-1.373883297749e-03 1.733970713616e-05 0.0 
1.733970713616e-05 4.853900323376e-03 0.0 
0.0 0.0 -6.910932206029e-04 
-1.391096625977e-03 2.696117286623e-05 0.0 
2.696117286623e-05 4.858420634372e-03 0.0 
0.0 0.0 -6.911911970487e-04 
-1.403621533613e-03 2.899157745045e-05 0.0 
2.899157745045e-05 4.851539021186e-03 0.0 
0.0 0.0 -6.903356507966e-04 
-1.422086472761e-03 7.127286506100e-05 0.0 
7.127286506100e-05 4.925418991949e-03 0.0 
0.0 0.0 -6.980756478071e-04 
-1.440013737492e-03 8.905228061672e-05 0.0 
8.905228061672e-05 4.855137559965e-03 0.0 
0.0 0.0 -6.911448554634e-04 
-1.457810866496e-03 1.124854279040e-04 0.0 
1.124854279040e-04 4.842862400746e-03 0.0 
0.0 0.0 -6.903833977050e-04 
-1.485479761852e-03 1.763889665616e-04 0.0 
1.763889665616e-04 4.844524201239e-03 0.0 
0.0 0.0 -6.905588330458e-04 
-1.530071715646e-03 2.314067896651e-04 0.0 
2.314067896651e-04 4.843027902445e-03 0.0 
0.0 0.0 -6.922444453805e-04 
-1.565434249602e-03 3.199826070801e-04 0.0 
3.199826070801e-04 4.827774349685e-03 0.0 
0.0 0.0 -6.916098530255e-04 
-1.592220907441e-03 4.164385463974e-04 0.0 
4.164385463974e-04 4.800836260159e-03 0.0 
0.0 0.0 -6.911665914957e-04 
-1.624093306590e-03 5.379923244308e-04 0.0 
5.379923244308e-04 4.762121973516e-03 0.0 
0.0 0.0 -6.926885898885e-04 
-1.636272666442e-03 7.038956101205e-04 0.0 
7.038956101205e-04 4.710840836171e-03 0.0 
0.0 0.0 -6.980272606831e-04 
-1.642234561257e-03 8.946537782645e-04 0.0 
8.946537782645e-04 4.660104212790e-03 0.0 
0.0 0.0 -7.070206663417e-04 
0.0 0.0 0.0 
0.0 0.0 0.0 
0.0 0.0 0.0 
0.0 0.0 0.0 
0.0 0.0 0.0 
0.0 0.0 0.0 
0.0 0.0 0.0 
0.0 0.0 0.0 
0.0 0.0 0.0 
0.0 0.0 0.0 
0.0 0.0 0.0 
0.0 0.0 0.0 
0.0 0.0 0.0 
0.0 0.0 0.0 
0.0 0.0 0.0 
6.460969664659e-05 -1.556902627030e-04 0.0 
-1.556902627030e-04 3.828112054754e-05 0.0 
0.0 0.0 -4.409606451177e-05 
2.290958672754e-04 -1.825778835954e-04 0.0 
-1.825778835954e-04 1.295802149225e-05 0.0 
0.0 0.0 -6.349991864517e-05 
3.258301092639e-04 -1.495010221350e-04 0.0 
-1.495010221350e-04 5.825232736603e-05 0.0 
0.0 0.0 -6.729406355132e-05 
4.308097979006e-04 -2.272179296947e-04 0.0 
-2.272179296947e-04 4.144525422736e-05 0.0 
0.0 0.0 -5.004267624003e-05 
7.170242557017e-04 -3.798682189908e-04 0.0 
-3.798682189908e-04 -8.718929718944e-05 0.0 
0.0 0.0 -5.423469082676e-05 
1.016505377143e-03 -3.706654485886e-04 0.0 
-3.706654485886e-04 -2.196691987021e-04 0.0 
0.0 0.0 -6.924701466199e-05 
1.374691841568e-03 -3.600731207399e-04 0.0 
-3.600731207399e-04 -3.650587174241e-04 0.0 
0.0 0.0 -8.456438766380e-05 
1.776444192994e-03 -3.135747337774e-04 0.0 
-3.135747337774e-04 -5.394471043759e-04 0.0 
0.0 0.0 -1.145437528706e-04 
2.116489510919e-03 -3.092434709054e-04 0.0 
-3.092434709054e-04 -6.971504040322e-04 0.0 
0.0 0.0 -1.122699804219e-04 
2.340534228900e-03 -2.489648393755e-04 0.0 
-2.489648393755e-04 -7.939335318199e-04 0.0 
0.0 0.0 -1.135261812993e-04 
2.545448873624e-03 -1.895106937816e-04 0.0 
-1.895106937816e-04 -8.695809182027e-04 0.0 
0.0 0.0 -1.151526711856e-04 
2.708912883130e-03 -1.592234908312e-04 0.0 
-1.592234908312e-04 -9.353356256089e-04 0.0 
0.0 0.0 -1.168504208365e-04 
2.867102977547e-03 -9.067089989766e-05 0.0 
-9.067089989766e-05 -1.037120165575e-03 0.0 
0.0 0.0 -1.138900488129e-04 
3.013559206580e-03 5.775462477208e-05 0.0 
5.775462477208e-05 -1.103986210354e-03 0.0 
0.0 0.0 -1.064965418423e-04 
-1.745815661584e-04 7.398964706759e-05 0.0 
7.398964706759e-05 5.685537533678e-04 0.0 
0.0 0.0 -1.511104231051e-04 
-2.128347200014e-04 -2.678531603114e-05 0.0 
-2.678531603114e-05 6.231045052158e-04 0.0 
0.0 0.0 -1.260453512792e-04 
-2.387242135268e-04 -5.719221647545e-05 0.0 
-5.719221647545e-05 6.761024704161e-04 0.0 
0.0 0.0 -1.177333968350e-04 
-2.369444435952e-04 -8.346890910113e-05 0.0 
-8.346890910113e-05 6.803562039850e-04 0.0 
0.0 0.0 -1.166151350225e-04 
-2.266523665767e-04 -1.050860256484e-04 0.0 
-1.050860256484e-04 6.781733190198e-04 0.0 
0.0 0.0 -1.166016877540e-04 
-2.121882864351e-04 -1.247996902915e-04 0.0 
-1.247996902915e-04 6.731011665009e-04 0.0 
0.0 0.0 -1.166222422716e-04 
-1.944265139030e-04 -1.433044364844e-04 0.0 
-1.433044364844e-04 6.656846724455e-04 0.0 
0.0 0.0 -1.165763718243e-04 
-1.721527279413e-04 -1.603721106410e-04 0.0 
-1.603721106410e-04 6.559407251859e-04 0.0 
0.0 0.0 -1.164940515862e-04 
-1.455497697781e-04 -1.758818606442e-04 0.0 
-1.758818606442e-04 6.451428964459e-04 0.0 
0.0 0.0 -1.165673703055e-04 
-1.162806286838e-04 -1.883581676885e-04 0.0 
-1.883581676885e-04 6.336322903545e-04 0.0 
0.0 0.0 -1.167280036894e-04 
-7.994775975923e-05 -1.965271714467e-04 0.0 
-1.965271714467e-04 6.193070886933e-04 0.0 
0.0 0.0 -1.166737701927e-04 
-3.695202762538e-05 -2.048156502921e-04 0.0 
-2.048156502921e-04 6.024370946274e-04 0.0 
0.0 0.0 -1.166319872181e-04 
7.371504582255e-06 -2.153007468898e-04 0.0 
-2.153007468898e-04 5.844359868720e-04 0.0 
0.0 0.0 -1.166906018886e-04 
5.258530497651e-05 -2.252853574712e-04 0.0 
-2.252853574712e-04 5.657401222778e-04 0.0 
0.0 0.0 -1.167846669949e-04 
9.800396609718e-05 -2.322111174075e-04 0.0 
-2.322111174075e-04 5.465320111699e-04 0.0 
0.0 0.0 -1.168158582588e-04 
1.423460289531e-04 -2.329073425378e-04 0.0 
-2.329073425378e-04 5.269936036223e-04 0.0 
0.0 0.0 -1.166438524214e-04 
1.838536385198e-04 -2.231072752041e-04 0.0 
-2.231072752041e-04 5.072183174508e-04 0.0 
0.0 0.0 -1.160409888720e-04 
2.204521941017e-04 -1.969776748910e-04 0.0 
-1.969776748910e-04 4.870890988714e-04 0.0 
0.0 0.0 -1.148044147952e-04 
2.486778270349e-04 -1.432538887377e-04 0.0 
-1.432538887377e-04 4.658328501286e-04 0.0 
0.0 0.0 -1.126821804006e-04 
2.635580838120e-04 -4.670346435984e-05 0.0 
-4.670346435984e-05 4.436478060095e-04 0.0 
0.0 0.0 -1.095110961900e-04 
2.602201715342e-04 9.894900855457e-05 0.0 
9.894900855457e-05 4.261226661076e-04 0.0 
0.0 0.0 -1.065947990275e-04 
2.344736719692e-04 2.770713496596e-04 0.0 
2.770713496596e-04 4.187549184520e-04 0.0 
0.0 0.0 -1.056762346026e-04 
1.764877626995e-04 4.825653781988e-04 0.0 
4.825653781988e-04 4.366102374136e-04 0.0 
0.0 0.0 -1.090388908602e-04 
7.037960312389e-05 7.216301039786e-04 0.0 
7.216301039786e-04 4.877235350644e-04 0.0 
0.0 0.0 -1.165151143884e-04 
5.570033321041e-07 8.941366534048e-04 0.0 
8.941366534048e-04 5.477402692811e-04 0.0 
0.0 0.0 -1.701800866339e-04 
1.835955419633e-05 1.025344682741e-03 0.0 
1.025344682741e-03 6.086921549771e-04 0.0 
0.0 0.0 -2.556800058859e-04 
2.803857909564e-05 1.056136160132e-03 0.0 
1.056136160132e-03 6.261337631073e-04 0.0 
0.0 0.0 -2.803595752298e-04 
1.853994745904e-05 1.109191537818e-03 0.0 
1.109191537818e-03 6.780180425658e-04 0.0 
0.0 0.0 -2.985248528678e-04 
5.436183858624e-05 1.237215992251e-03 0.0 
1.237215992251e-03 6.977434040104e-04 0.0 
0.0 0.0 -3.223308182557e-04 
1.238058645572e-05 1.128941138153e-03 0.0 
1.128941138153e-03 6.957857395565e-04 0.0 
0.0 0.0 -2.979042364755e-04 
-4.590520028754e-05 9.148456526690e-04 0.0 
9.148456526690e-04 6.695958192856e-04 0.0 
0.0 0.0 -2.391891097651e-04 
-7.218352849248e-05 6.699938354114e-04 0.0 
6.699938354114e-04 6.562108330051e-04 0.0 
0.0 0.0 -1.960804690482e-04 
-9.546916233556e-05 4.573360809201e-04 0.0 
4.573360809201e-04 6.586162835152e-04 0.0 
0.0 0.0 -1.593212605036e-04 
-8.740274138734e-05 2.379414876973e-04 0.0 
2.379414876973e-04 6.708264191252e-04 0.0 
0.0 0.0 -1.478113617937e-04 
-6.359895213776e-05 4.479010609160e-05 0.0 
4.479010609160e-05 6.901381650126e-04 0.0 
0.0 0.0 -1.504633661387e-04 
-5.242660414935e-05 -9.835797729197e-05 0.0 
-9.835797729197e-05 7.127939552638e-04 0.0 
0.0 0.0 -1.552601950460e-04 
-5.091504057704e-05 -1.921444319072e-04 0.0 
-1.921444319072e-04 7.328217516783e-04 0.0 
0.0 0.0 -1.595375194591e-04 
-5.717213191030e-05 -2.496342257898e-04 0.0 
-2.496342257898e-04 7.483470588474e-04 0.0 
0.0 0.0 -1.624457796042e-04 
-6.966835430716e-05 -2.822442478303e-04 0.0 
-2.822442478303e-04 7.617628698482e-04 0.0 
0.0 0.0 -1.642757887814e-04 
-8.737002327193e-05 -2.974004318204e-04 0.0 
-2.974004318204e-04 7.736083995955e-04 0.0 
0.0 0.0 -1.640320568042e-04 
-1.084980820765e-04 -2.999933171904e-04 0.0 
-2.999933171904e-04 7.849923217272e-04 0.0 
0.0 0.0 -1.632744378363e-04 
-1.313737587918e-04 -2.944097818614e-04 0.0 
-2.944097818614e-04 7.962587271117e-04 0.0 
0.0 0.0 -1.628676628263e-04 
-1.548986805792e-04 -2.837910522243e-04 0.0 
-2.837910522243e-04 8.073320223973e-04 0.0 
0.0 0.0 -1.627955215139e-04 
-1.781878660315e-04 -2.706189204112e-04 0.0 
-2.706189204112e-04 8.179661782632e-04 0.0 
0.0 0.0 -1.630284746683e-04 
-2.002163488824e-04 -2.561538992744e-04 0.0 
-2.561538992744e-04 8.275573788089e-04 0.0 
0.0 0.0 -1.634586191270e-04 
-2.181641290422e-04 -2.385790621428e-04 0.0 
-2.385790621428e-04 8.357635297330e-04 0.0 
0.0 0.0 -1.638375457389e-04 
-2.344821268255e-04 -2.183480012397e-04 0.0 
-2.183480012397e-04 8.431482650870e-04 0.0 
0.0 0.0 -1.641653553167e-04 
-2.492116685935e-04 -1.964005736727e-04 0.0 
-1.964005736727e-04 8.503594292429e-04 0.0 
0.0 0.0 -1.645957785809e-04 
-2.611274747989e-04 -1.737904668688e-04 0.0 
-1.737904668688e-04 8.565672537291e-04 0.0 
0.0 0.0 -1.650523409442e-04 
-2.702878862490e-04 -1.501745035295e-04 0.0 
-1.501745035295e-04 8.610433477885e-04 0.0 
0.0 0.0 -1.653930429837e-04 
-2.772099351950e-04 -1.245920961823e-04 0.0 
-1.245920961823e-04 8.637152345476e-04 0.0 
0.0 0.0 -1.655467363655e-04 
-2.817940990438e-04 -9.471109492220e-05 0.0 
-9.471109492220e-05 8.644874665313e-04 0.0 
0.0 0.0 -1.655198174858e-04 
-2.825149456426e-04 -4.336176461150e-05 0.0 
-4.336176461150e-05 8.639263713768e-04 0.0 
0.0 0.0 -1.651145332713e-04 
-2.933711715883e-04 4.463456278771e-05 0.0 
4.463456278771e-05 8.871015158317e-04 0.0 
0.0 0.0 -1.811901446329e-04 
-7.207297653064e-06 1.410248700228e-03 0.0 
1.410248700228e-03 9.175792043273e-04 0.0 
0.0 0.0 -3.901593885747e-04 
-1.103118252382e-04 1.226284166577e-03 0.0 
1.226284166577e-03 1.005680539646e-03 0.0 
0.0 0.0 -3.818155682853e-04 
-2.236973215356e-04 9.228676894401e-04 0.0 
9.228676894401e-04 1.067964466156e-03 0.0 
0.0 0.0 -3.440256872597e-04 
-3.001717412203e-04 6.465580719275e-04 0.0 
6.465580719275e-04 1.119900151555e-03 0.0 
0.0 0.0 -3.112312859776e-04 
-3.384560696130e-04 4.125554091249e-04 0.0 
4.125554091249e-04 1.181369602573e-03 0.0 
0.0 0.0 -2.905217765605e-04 
-3.671141900312e-04 2.139280277678e-04 0.0 
2.139280277678e-04 1.234912370280e-03 0.0 
0.0 0.0 -2.777119786568e-04 
-3.856389411553e-04 5.817902507628e-05 0.0 
5.817902507628e-05 1.282197226204e-03 0.0 
0.0 0.0 -2.706731611972e-04 
-3.820191849387e-04 -6.508537242442e-05 0.0 
-6.508537242442e-05 1.308730380916e-03 0.0 
0.0 0.0 -2.706342179627e-04 
-3.703143423952e-04 -1.574411244472e-04 0.0 
-1.574411244472e-04 1.321932723327e-03 0.0 
0.0 0.0 -2.684045378307e-04 
-3.641196039215e-04 -2.233825472164e-04 0.0 
-2.233825472164e-04 1.330411560113e-03 0.0 
0.0 0.0 -2.653397171659e-04 
-3.632900330305e-04 -2.676761154925e-04 0.0 
-2.676761154925e-04 1.336769110866e-03 0.0 
0.0 0.0 -2.613647723489e-04 
-3.663826529774e-04 -2.947869550737e-04 0.0 
-2.947869550737e-04 1.342563643132e-03 0.0 
0.0 0.0 -2.583906591326e-04 
-3.723682720447e-04 -3.084171914783e-04 0.0 
-3.084171914783e-04 1.348504697948e-03 0.0 
0.0 0.0 -2.567504220945e-04 
-3.802726126276e-04 -3.114623459817e-04 0.0 
-3.114623459817e-04 1.354458734268e-03 0.0 
0.0 0.0 -2.560781420700e-04 
-3.890662419112e-04 -3.058910284997e-04 0.0 
-3.058910284997e-04 1.360090228651e-03 0.0 
0.0 0.0 -2.560436786581e-04 
-3.980227489140e-04 -2.925847470395e-04 0.0 
-2.925847470395e-04 1.365620540601e-03 0.0 
0.0 0.0 -2.563905779039e-04 
-4.069289975706e-04 -2.738763849274e-04 0.0 
-2.738763849274e-04 1.371409417496e-03 0.0 
0.0 0.0 -2.569343176084e-04 
-4.154545856821e-04 -2.508315946617e-04 0.0 
-2.508315946617e-04 1.376963237025e-03 0.0 
0.0 0.0 -2.575646411629e-04 
-4.233567515120e-04 -2.246556682113e-04 0.0 
-2.246556682113e-04 1.382155529590e-03 0.0 
0.0 0.0 -2.582007070939e-04 
-4.297246681568e-04 -1.963539744950e-04 0.0 
-1.963539744950e-04 1.386411622362e-03 0.0 
0.0 0.0 -2.587732053644e-04 
-4.344468407600e-04 -1.654773235865e-04 0.0 
-1.654773235865e-04 1.389390610572e-03 0.0 
0.0 0.0 -2.592381443959e-04 
-4.380675522698e-04 -1.311614178969e-04 0.0 
-1.311614178969e-04 1.391410353904e-03 0.0 
0.0 0.0 -2.596113365351e-04 
-4.417326417539e-04 -9.289261755435e-05 0.0 
-9.289261755435e-05 1.393779833431e-03 0.0 
0.0 0.0 -2.597815999307e-04 
-4.589388306385e-04 -5.470250966499e-05 0.0 
-5.470250966499e-05 1.403304691556e-03 0.0 
0.0 0.0 -2.563501177162e-04 
-4.917889058055e-04 8.456632513977e-05 0.0 
8.456632513977e-05 1.417745818538e-03 0.0 
0.0 0.0 -2.490929525304e-04 
-6.521536472921e-04 3.037039092969e-05 0.0 
3.037039092969e-05 1.927101012756e-03 0.0 
0.0 0.0 -3.061660192852e-04 
-6.146125138384e-04 -7.648421940114e-05 0.0 
-7.648421940114e-05 1.912252703488e-03 0.0 
0.0 0.0 -3.161672630275e-04 
-6.123269788261e-04 -1.356533928898e-04 0.0 
-1.356533928898e-04 1.909321831748e-03 0.0 
0.0 0.0 -3.162703440688e-04 
-6.102267992251e-04 -1.752602272705e-04 0.0 
-1.752602272705e-04 1.907124225355e-03 0.0 
0.0 0.0 -3.166480862921e-04 
-6.078351167893e-04 -2.109984893587e-04 0.0 
-2.109984893587e-04 1.904702407949e-03 0.0 
0.0 0.0 -3.172242122056e-04 
-6.049262965588e-04 -2.437778904745e-04 0.0 
-2.437778904745e-04 1.901645462579e-03 0.0 
0.0 0.0 -3.179747884623e-04 
-6.016293543077e-04 -2.733641442443e-04 0.0 
-2.733641442443e-04 1.898077561520e-03 0.0 
0.0 0.0 -3.189054167417e-04 
-5.983341509043e-04 -2.985456040918e-04 0.0 
-2.985456040918e-04 1.894265064291e-03 0.0 
0.0 0.0 -3.200558360071e-04 
-5.954052100357e-04 -3.178164354008e-04 0.0 
-3.178164354008e-04 1.890328088488e-03 0.0 
0.0 0.0 -3.215242440727e-04 
-5.932930907438e-04 -3.295287160715e-04 0.0 
-3.295287160715e-04 1.886515057030e-03 0.0 
0.0 0.0 -3.234293095895e-04 
-5.925898260158e-04 -3.311133739508e-04 0.0 
-3.311133739508e-04 1.882950221058e-03 0.0 
0.0 0.0 -3.259169466148e-04 
-5.936278952851e-04 -3.198689819626e-04 0.0 
-3.198689819626e-04 1.879252640520e-03 0.0 
0.0 0.0 -3.291674719681e-04 
-5.971550282615e-04 -2.929944648091e-04 0.0 
-2.929944648091e-04 1.875333752629e-03 0.0 
0.0 0.0 -3.334451628410e-04 
-6.039541515878e-04 -2.475050715629e-04 0.0 
-2.475050715629e-04 1.870985002452e-03 0.0 
0.0 0.0 -3.391616836831e-04 
-6.148223475090e-04 -1.792794613688e-04 0.0 
-1.792794613688e-04 1.865813361112e-03 0.0 
0.0 0.0 -3.467505649865e-04 
-6.184345348540e-04 -8.454989948401e-05 0.0 
-8.454989948401e-05 1.854651279409e-03 0.0 
0.0 0.0 -3.603039951237e-04 
-6.085923058314e-04 4.072255252298e-05 0.0 
4.072255252298e-05 1.834338896564e-03 0.0 
0.0 0.0 -3.821985994076e-04 
-5.914469538950e-04 1.951592239921e-04 0.0 
1.951592239921e-04 1.799129574179e-03 0.0 
0.0 0.0 -4.047906533002e-04 
-5.543146148656e-04 3.816821526295e-04 0.0 
3.816821526295e-04 1.738557736627e-03 0.0 
0.0 0.0 -4.206681078764e-04 
-4.908826009862e-04 5.911692506281e-04 0.0 
5.911692506281e-04 1.645052271329e-03 0.0 
0.0 0.0 -4.418263900718e-04 
-4.101061126456e-04 8.497011629847e-04 0.0 
8.497011629847e-04 1.543306508708e-03 0.0 
0.0 0.0 -4.634526724741e-04 
-3.026172258989e-04 1.152678743765e-03 0.0 
1.152678743765e-03 1.424524180282e-03 0.0 
0.0 0.0 -4.797192951453e-04 
-1.851017191588e-04 1.364462229885e-03 0.0 
1.364462229885e-03 1.258853605899e-03 0.0 
0.0 0.0 -4.601793800314e-04 
-3.917368210583e-04 1.317479250336e-03 0.0 
1.317479250336e-03 1.747874473266e-03 0.0 
0.0 0.0 -5.812018509462e-04 
-5.091690360286e-04 1.130845155862e-03 0.0 
1.130845155862e-03 1.963327675715e-03 0.0 
0.0 0.0 -6.066533733830e-04 
-6.141014296330e-04 8.542857385472e-04 0.0 
8.542857385472e-04 2.104545634073e-03 0.0 
0.0 0.0 -5.807024946757e-04 
-6.882663027808e-04 6.113252394538e-04 0.0 
6.113252394538e-04 2.202130389397e-03 0.0 
0.0 0.0 -5.506042562872e-04 
-7.485151266818e-04 4.048271456746e-04 0.0 
4.048271456746e-04 2.276572322960e-03 0.0 
0.0 0.0 -5.097853306316e-04 
-7.897555551191e-04 2.224232272700e-04 0.0 
2.224232272700e-04 2.321631848111e-03 0.0 
0.0 0.0 -4.716768144535e-04 
-8.179605038944e-04 7.373921887575e-05 0.0 
7.373921887575e-05 2.355988915550e-03 0.0 
0.0 0.0 -4.418280814132e-04 
-8.268010595159e-04 -4.483534428960e-05 0.0 
-4.483534428960e-05 2.376308389151e-03 0.0 
0.0 0.0 -4.218770227552e-04 
-8.228503060703e-04 -1.347192607701e-04 0.0 
-1.347192607701e-04 2.388847937133e-03 0.0 
0.0 0.0 -4.090523408212e-04 
-8.109185832396e-04 -1.989047172259e-04 0.0 
-1.989047172259e-04 2.395688157729e-03 0.0 
0.0 0.0 -4.015628555955e-04 
-8.019746084778e-04 -2.402503830985e-04 0.0 
-2.402503830985e-04 2.401236351570e-03 0.0 
0.0 0.0 -3.954021415690e-04 
-7.953245493492e-04 -2.629832857574e-04 0.0 
-2.629832857574e-04 2.405546845163e-03 0.0 
0.0 0.0 -3.902995700482e-04 
-7.906845303877e-04 -2.708266975381e-04 0.0 
-2.708266975381e-04 2.409326752935e-03 0.0 
0.0 0.0 -3.860854787602e-04 
-7.877188598931e-04 -2.666780701279e-04 0.0 
-2.666780701279e-04 2.412893579400e-03 0.0 
0.0 0.0 -3.826300360752e-04 
-7.859472857759e-04 -2.529812670249e-04 0.0 
-2.529812670249e-04 2.416190377898e-03 0.0 
0.0 0.0 -3.797920724705e-04 
-7.849776301162e-04 -2.317218095120e-04 0.0 
-2.317218095120e-04 2.419097107999e-03 0.0 
0.0 0.0 -3.774328490719e-04 
-7.844810121678e-04 -2.050225660717e-04 0.0 
-2.050225660717e-04 2.421538416815e-03 0.0 
0.0 0.0 -3.754828035711e-04 
-7.842654296420e-04 -1.743385635113e-04 0.0 
-1.743385635113e-04 2.423613148989e-03 0.0 
0.0 0.0 -3.739320486442e-04 
-7.843867792918e-04 -1.404633765496e-04 0.0 
-1.404633765496e-04 2.425575961632e-03 0.0 
0.0 0.0 -3.727418427549e-04 
-7.857008201318e-04 -1.044807299690e-04 0.0 
-1.044807299690e-04 2.428069777729e-03 0.0 
0.0 0.0 -3.717245115980e-04 
-7.997888929887e-04 -7.230959013771e-05 0.0 
-7.230959013771e-05 2.434645715537e-03 0.0 
0.0 0.0 -3.674400072102e-04 
-8.218042889041e-04 7.812455767352e-05 0.0 
7.812455767352e-05 2.442717993920e-03 0.0 
0.0 0.0 -3.611040392158e-04 
-9.494559103031e-04 3.245343644015e-05 0.0 
3.245343644015e-05 2.942828314072e-03 0.0 
0.0 0.0 -4.276225674433e-04 
-9.453893070207e-04 -7.111604734988e-05 0.0 
-7.111604734988e-05 2.939480324051e-03 0.0 
0.0 0.0 -4.291610623509e-04 
-9.479485626056e-04 -1.223075957800e-04 0.0 
-1.223075957800e-04 2.938148575924e-03 0.0 
0.0 0.0 -4.294518113500e-04 
-9.513509497972e-04 -1.528128127516e-04 0.0 
-1.528128127516e-04 2.937112011401e-03 0.0 
0.0 0.0 -4.303156580442e-04 
-9.561412693041e-04 -1.795418847633e-04 0.0 
-1.795418847633e-04 2.936257850339e-03 0.0 
0.0 0.0 -4.315177398476e-04 
-9.613801982685e-04 -2.020582703720e-04 0.0 
-2.020582703720e-04 2.935027659389e-03 0.0 
0.0 0.0 -4.333935888026e-04 
-9.649594115909e-04 -2.191801396652e-04 0.0 
-2.191801396652e-04 2.932403783643e-03 0.0 
0.0 0.0 -4.365863700986e-04 
-9.694509318337e-04 -2.282743571783e-04 0.0 
-2.282743571783e-04 2.928700962369e-03 0.0 
0.0 0.0 -4.403344688981e-04 
-9.752854465798e-04 -2.262425092116e-04 0.0 
-2.262425092116e-04 2.924232336100e-03 0.0 
0.0 0.0 -4.446981798157e-04 
-9.827947901593e-04 -2.105547843802e-04 0.0 
-2.105547843802e-04 2.919037677629e-03 0.0 
0.0 0.0 -4.499693714774e-04 
-9.922432754887e-04 -1.788315847570e-04 0.0 
-1.788315847570e-04 2.912643541075e-03 0.0 
0.0 0.0 -4.561666389974e-04 
-1.003596714027e-03 -1.273527626457e-04 0.0 
-1.273527626457e-04 2.903956443196e-03 0.0 
0.0 0.0 -4.633466294216e-04 
-1.016765204047e-03 -5.053958217971e-05 0.0 
-5.053958217971e-05 2.891535834080e-03 0.0 
0.0 0.0 -4.716857746087e-04 
-1.020109545419e-03 5.743003251611e-05 0.0 
5.743003251611e-05 2.872702128626e-03 0.0 
0.0 0.0 -4.852209091340e-04 
-9.964537532025e-04 1.942960321916e-04 0.0 
1.942960321916e-04 2.839351573495e-03 0.0 
0.0 0.0 -5.097743276704e-04 
-9.610160034558e-04 3.659639876319e-04 0.0 
3.659639876319e-04 2.796351539205e-03 0.0 
0.0 0.0 -5.405745080065e-04 
-9.090299886647e-04 5.649669993174e-04 0.0 
5.649669993174e-04 2.731549626740e-03 0.0 
0.0 0.0 -5.795081218868e-04 
-8.421940977849e-04 8.146075856698e-04 0.0 
8.146075856698e-04 2.654238991049e-03 0.0 
0.0 0.0 -6.241631820133e-04 
-7.469235452296e-04 1.108005846327e-03 0.0 
1.108005846327e-03 2.554144737090e-03 0.0 
0.0 0.0 -6.876227360811e-04 
-6.222319269350e-04 1.311587394284e-03 0.0 
1.311587394284e-03 2.351737594925e-03 0.0 
0.0 0.0 -7.129699783845e-04 
-8.859289441425e-04 1.243241253464e-03 0.0 
1.243241253464e-03 2.913195279952e-03 0.0 
0.0 0.0 -7.120710084939e-04 
-1.004734523472e-03 1.018600750567e-03 0.0 
1.018600750567e-03 3.106427625498e-03 0.0 
0.0 0.0 -6.771260834247e-04 
-1.079401310026e-03 7.481842232065e-04 0.0 
7.481842232065e-04 3.193468346598e-03 0.0 
0.0 0.0 -6.300277574108e-04 
-1.131577463836e-03 5.268764785930e-04 0.0 
5.268764785930e-04 3.259614661613e-03 0.0 
0.0 0.0 -5.970134556630e-04 
-1.175698392474e-03 3.505042719681e-04 0.0 
3.505042719681e-04 3.318814681410e-03 0.0 
0.0 0.0 -5.654316324824e-04 
-1.198259795194e-03 1.983623377187e-04 0.0 
1.983623377187e-04 3.357846983414e-03 0.0 
0.0 0.0 -5.431954804876e-04 
-1.193688646499e-03 8.236585560367e-05 0.0 
8.236585560367e-05 3.385843501569e-03 0.0 
0.0 0.0 -5.307242391481e-04 
-1.181400322402e-03 -2.610677248912e-06 0.0 
-2.610677248912e-06 3.403469425701e-03 0.0 
0.0 0.0 -5.217490130384e-04 
-1.169734073994e-03 -6.313793199308e-05 0.0 
-6.313793199308e-05 3.415891564710e-03 0.0 
0.0 0.0 -5.139000268513e-04 
-1.159307772713e-03 -1.048439826788e-04 0.0 
-1.048439826788e-04 3.424926224559e-03 0.0 
0.0 0.0 -5.068416884887e-04 
-1.149301363739e-03 -1.311774395022e-04 0.0 
-1.311774395022e-04 3.432400745694e-03 0.0 
0.0 0.0 -5.012787953396e-04 
-1.136366457465e-03 -1.411361358348e-04 0.0 
-1.411361358348e-04 3.437153305501e-03 0.0 
0.0 0.0 -4.980850712606e-04 
-1.124188871364e-03 -1.394547320618e-04 0.0 
-1.394547320618e-04 3.439448222641e-03 0.0 
0.0 0.0 -4.952863446172e-04 
-1.111828436603e-03 -1.308291125140e-04 0.0 
-1.308291125140e-04 3.439882520158e-03 0.0 
0.0 0.0 -4.936612140760e-04 
-1.098447969421e-03 -1.167396694570e-04 0.0 
-1.167396694570e-04 3.439293515508e-03 0.0 
0.0 0.0 -4.933333333333e-04 
-1.087594461636e-03 -9.799983896262e-05 0.0 
-9.799983896262e-05 3.438806070953e-03 0.0 
0.0 0.0 -4.933333333333e-04 
-1.079672367243e-03 -7.744480207381e-05 0.0 
-7.744480207381e-05 3.439140724054e-03 0.0 
0.0 0.0 -4.933333333333e-04 
-1.076026664782e-03 -5.828265356752e-05 0.0 
-5.828265356752e-05 3.441224913047e-03 0.0 
0.0 0.0 -4.933333333333e-04 
-1.075502650299e-03 8.431295565096e-05 0.0 
8.431295565096e-05 3.442685458650e-03 0.0 
0.0 0.0 -4.933333333333e-04 
-1.189994461039e-03 4.971329978173e-05 0.0 
4.971329978173e-05 3.933936678343e-03 0.0 
0.0 0.0 -5.600000000000e-04 
-1.189943494860e-03 -3.915048486870e-05 0.0 
-3.915048486870e-05 3.929295747162e-03 0.0 
0.0 0.0 -5.600000000000e-04 
-1.196995215316e-03 -6.619293072910e-05 0.0 
-6.619293072910e-05 3.927958942862e-03 0.0 
0.0 0.0 -5.600000000000e-04 
-1.209000108090e-03 -7.709460563794e-05 0.0 
-7.709460563794e-05 3.928987706667e-03 0.0 
0.0 0.0 -5.600000000000e-04 
-1.222591065312e-03 -8.087627347994e-05 0.0 
-8.087627347994e-05 3.928642048882e-03 0.0 
0.0 0.0 -5.600000000000e-04 
-1.242241496923e-03 -8.001653654516e-05 0.0 
-8.001653654516e-05 3.929767912219e-03 0.0 
0.0 0.0 -5.600000000000e-04 
-1.264776066821e-03 -7.096870869374e-05 0.0 
-7.096870869374e-05 3.930292006580e-03 0.0 
0.0 0.0 -5.600000000000e-04 
-1.291607559870e-03 -5.753569633380e-05 0.0 
-5.753569633380e-05 3.928177153315e-03 0.0 
0.0 0.0 -5.600000000000e-04 
-1.313480821163e-03 -2.264210671336e-05 0.0 
-2.264210671336e-05 3.919521392894e-03 0.0 
0.0 0.0 -5.618027733580e-04 
-1.334363465792e-03 3.032816973716e-05 0.0 
3.032816973716e-05 3.911166292933e-03 0.0 
0.0 0.0 -5.662115594836e-04 
-1.345626602697e-03 9.725453922173e-05 0.0 
9.725453922173e-05 3.895259009147e-03 0.0 
0.0 0.0 -5.743994467985e-04 
-1.356260887442e-03 1.893430820086e-04 0.0 
1.893430820086e-04 3.871741255735e-03 0.0 
0.0 0.0 -5.833032914833e-04 
-1.366012120890e-03 3.096264366290e-04 0.0 
3.096264366290e-04 3.841250700024e-03 0.0 
0.0 0.0 -5.938366679572e-04 
-1.351517243904e-03 4.620420004327e-04 0.0 
4.620420004327e-04 3.787895507316e-03 0.0 
0.0 0.0 -6.115999087365e-04 
-1.313173102658e-03 6.667035574404e-04 0.0 
6.667035574404e-04 3.730474013625e-03 0.0 
0.0 0.0 -6.360477204719e-04 
-1.260419596383e-03 8.991646670823e-04 0.0 
8.991646670823e-04 3.667954377089e-03 0.0 
0.0 0.0 -6.715110950050e-04 
-1.156777947287e-03 1.103879225283e-03 0.0 
1.103879225283e-03 3.481215616997e-03 0.0 
0.0 0.0 -6.945456224821e-04 
-1.413371839818e-03 9.869439785182e-04 0.0 
9.869439785182e-04 4.044630377487e-03 0.0 
0.0 0.0 -6.871907024512e-04 
-1.498556740945e-03 8.027277734388e-04 0.0 
8.027277734388e-04 4.217784539438e-03 0.0 
0.0 0.0 -6.754388315825e-04 
-1.517003084896e-03 6.032515853078e-04 0.0 
6.032515853078e-04 4.269979929512e-03 0.0 
0.0 0.0 -6.550211625735e-04 
-1.511553648353e-03 4.490191689128e-04 0.0 
4.490191689128e-04 4.314033839254e-03 0.0 
0.0 0.0 -6.432502374181e-04 
-1.500446210863e-03 3.184819489120e-04 0.0 
3.184819489120e-04 4.351230304708e-03 0.0 
0.0 0.0 -6.352144205724e-04 
-1.482245807683e-03 2.246627967315e-04 0.0 
2.246627967315e-04 4.377537132701e-03 0.0 
0.0 0.0 -6.294719905043e-04 
-1.455175852238e-03 1.513209258517e-04 0.0 
1.513209258517e-04 4.388941904323e-03 0.0 
0.0 0.0 -6.266666666667e-04 
-1.422377976552e-03 8.452613654984e-05 0.0 
8.452613654984e-05 4.398275898476e-03 0.0 
0.0 0.0 -6.266666666667e-04 
-1.387740669927e-03 5.055332934235e-05 0.0 
5.055332934235e-05 4.407309917814e-03 0.0 
0.0 0.0 -6.266666666667e-04 
-1.364267156085e-03 1.746043878918e-05 0.0 
1.746043878918e-05 4.408435903517e-03 0.0 
0.0 0.0 -6.266666666667e-04 
-1.340556828241e-03 2.310074790946e-06 0.0 
2.310074790946e-06 4.409446433091e-03 0.0 
0.0 0.0 -6.266666666667e-04 
-1.322009739859e-03 -1.793960035533e-05 0.0 
-1.793960035533e-05 4.409251285455e-03 0.0 
0.0 0.0 -6.266666666667e-04 
-1.309592160630e-03 -1.727365315460e-05 0.0 
-1.727365315460e-05 4.412670266398e-03 0.0 
0.0 0.0 -6.266666666667e-04 
-1.296178947065e-03 -2.233083817508e-05 0.0 
-2.233083817508e-05 4.407948356665e-03 0.0 
0.0 0.0 -6.266666666667e-04 
-1.291396798343e-03 -4.231649306782e-05 0.0 
-4.231649306782e-05 4.418716211488e-03 0.0 
0.0 0.0 -6.266666666667e-04 
-1.299258567356e-03 1.084144737729e-04 0.0 
1.084144737729e-04 4.428774256468e-03 0.0 
0.0 0.0 -6.266666666667e-04 
-4.009178593899e-05 4.368249433485e-04 0.0 
4.368249433485e-04 6.683253771961e-05 0.0 
0.0 0.0 -1.146032219169e-05 
9.938551455077e-05 1.282401433816e-03 0.0 
1.282401433816e-03 6.636023459020e-04 0.0 
0.0 0.0 -3.269947973369e-04 
1.625585485922e-04 1.696672057115e-03 0.0 
1.696672057115e-03 8.217515565251e-04 0.0 
0.0 0.0 -4.218471879074e-04 
5.652740135924e-05 1.735587432243e-03 0.0 
1.735587432243e-03 1.015281301015e-03 0.0 
0.0 0.0 -4.593465867320e-04 
-1.456114155099e-04 1.664381126323e-03 0.0 
1.664381126323e-03 1.357653711262e-03 0.0 
0.0 0.0 -5.194466981793e-04 
-3.792282684864e-04 1.656998493189e-03 0.0 
1.656998493189e-03 1.899294413969e-03 0.0 
0.0 0.0 -6.514569194927e-04 
-6.251830612815e-04 1.650118487789e-03 0.0 
1.650118487789e-03 2.533700233250e-03 0.0 
0.0 0.0 -8.020470760878e-04 
-9.259280155328e-04 1.541530339945e-03 0.0 
1.541530339945e-03 3.121438131384e-03 0.0 
0.0 0.0 -7.697949396469e-04 
-1.219707571260e-03 1.363862905373e-03 0.0 
1.363862905373e-03 3.712475698443e-03 0.0 
0.0 0.0 -7.416632329583e-04 
-1.501649114425e-03 1.213866345860e-03 0.0 
1.213866345860e-03 4.312722460883e-03 0.0 
0.0 0.0 -7.242776845527e-04 
3.539823178863e-04 1.710352572919e-03 0.0 
1.710352572919e-03 5.866051080763e-04 0.0 
0.0 0.0 -4.031088968411e-04 
-9.225734973571e-04 -7.785055507497e-06 0.0 
-7.785055507497e-06 4.710905526494e-03 0.0 
0.0 0.0 -1.303388942653e-03 
2.002003524453e-04 -6.228844878024e-04 0.0 
-6.228844878024e-04 2.361800845582e-04 0.0 
0.0 0.0 -1.150931346421e-04 
6.351277012353e-06 -1.034192914689e-04 0.0 
-1.034192914689e-04 -6.351277012352e-06 0.0 
0.0 0.0 0.0 
-1.143124804619e-03 -1.686232053488e-03 0.0 
-1.686232053488e-03 5.409600557008e-03 0.0 
0.0 0.0 -1.303360877099e-03 
1.234786051762e-04 1.977711876023e-03 0.0 
1.977711876023e-03 1.061132021132e-03 0.0 
0.0 0.0 -5.076902684178e-04 
-1.444704152341e-03 -3.615903752048e-04 0.0 
-3.615903752048e-04 4.407515592965e-03 0.0 
0.0 0.0 -1.026919993916e-03 
-9.479894819801e-04 1.838728918359e-03 0.0 
1.838728918359e-03 4.893992345869e-03 0.0 
0.0 0.0 -1.300998267065e-03 
-3.669420938573e-04 1.945721923899e-03 0.0 
1.945721923899e-03 2.035468676857e-03 0.0 
0.0 0.0 -7.150828212858e-04 
-1.134501767780e-03 3.078864715943e-03 0.0 
3.078864715943e-03 5.708971873236e-03 0.0 
0.0 0.0 -1.304014651794e-03 
-9.933335184060e-04 1.783041133304e-03 0.0 
1.783041133304e-03 3.368272424712e-03 0.0 
0.0 0.0 -8.139337748180e-04 
-1.367928456590e-03 -1.893022985453e-03 0.0 
-1.893022985453e-03 6.315060285992e-03 0.0 
0.0 0.0 -1.307658508868e-03 
1.393566666495e-03 -5.293231022229e-04 0.0 
-5.293231022229e-04 -2.919979710108e-04 0.0 
0.0 0.0 -1.726441863791e-04 
-1.321068622768e-03 3.408933067941e-03 0.0 
3.408933067941e-03 6.699280987615e-03 0.0 
0.0 0.0 -1.304481600125e-03 
-1.625241511018e-03 1.405941443998e-03 0.0 
1.405941443998e-03 4.657250357868e-03 0.0 
0.0 0.0 -7.595448291451e-04 
-9.674687493222e-04 -2.324067189866e-04 0.0 
-2.324067189866e-04 3.002016490702e-03 0.0 
0.0 0.0 -7.390740322083e-04 
-1.821851265128e-03 -3.597710289885e-04 0.0 
-3.597710289885e-04 5.333319395799e-03 0.0 
0.0 0.0 -1.073818338595e-03 
-1.412437544610e-03 3.130277989420e-03 0.0 
3.130277989420e-03 7.340714354146e-03 0.0 
0.0 0.0 -1.301280071178e-03 
-1.458721797288e-03 2.468181070438e-03 0.0 
2.468181070438e-03 8.007112846752e-03 0.0 
0.0 0.0 -1.304294760550e-03 
-1.442626291436e-03 7.982050020717e-04 0.0 
7.982050020717e-04 8.632923623264e-03 0.0 
0.0 0.0 -1.303238611779e-03 
-1.460924372811e-03 1.330564066234e-03 0.0 
1.330564066234e-03 8.482170570322e-03 0.0 
0.0 0.0 -1.297727402575e-03 
-1.466071718827e-03 1.860397699296e-03 0.0 
1.860397699296e-03 8.323259225048e-03 0.0 
0.0 0.0 -1.305306183856e-03 
-1.723504189141e-03 9.545217762893e-04 0.0 
9.545217762893e-04 5.069531762335e-03 0.0 
0.0 0.0 -7.528866907182e-04 
-1.609633540750e-03 4.109047618561e-04 0.0 
4.109047618561e-04 5.236232241604e-03 0.0 
0.0 0.0 -7.529849494387e-04 
-1.529214909887e-03 1.902322029956e-04 0.0 
1.902322029956e-04 5.302594416650e-03 0.0 
0.0 0.0 -7.580270452736e-04 
-1.581306103182e-03 3.146837778263e-05 0.0 
3.146837778263e-05 6.876614414943e-03 0.0 
0.0 0.0 -9.950081682429e-04 
-1.500312298629e-03 -1.404495050420e-03 0.0 
-1.404495050420e-03 6.813712989149e-03 0.0 
0.0 0.0 -1.302874185639e-03 
0.0 0.0 0.0 
0.0 0.0 0.0 
0.0 0.0 0.0 
1.991019007460e-03 -2.749999736625e-04 0.0 
-2.749999736625e-04 -4.994877663417e-04 0.0 
0.0 0.0 -1.971444476807e-04 
-2.064700972320e-03 -3.063344179821e-04 0.0 
-3.063344179821e-04 6.409893202118e-03 0.0 
0.0 0.0 -1.122886395833e-03 
-1.468245391393e-03 9.255547116428e-05 0.0 
9.255547116428e-05 5.268982738319e-03 0.0 
0.0 0.0 -7.500338828344e-04 
-3.768246537726e-04 -1.072125225081e-04 0.0 
-1.072125225081e-04 1.532862867376e-03 0.0 
0.0 0.0 -3.103003023327e-04 
-1.462480749969e-03 2.788238406384e-03 0.0 
2.788238406384e-03 7.654884390723e-03 0.0 
0.0 0.0 -1.293200138473e-03 
-1.060495443339e-03 2.586030718155e-03 0.0 
2.586030718155e-03 5.302800007763e-03 0.0 
0.0 0.0 -1.307307853467e-03 
-1.239947575843e-03 3.359554949631e-03 0.0 
3.359554949631e-03 6.201507605709e-03 0.0 
0.0 0.0 -1.304733450272e-03 
-8.851569131084e-04 1.017294528516e-03 0.0 
1.017294528516e-03 4.688446957818e-03 0.0 
0.0 0.0 -1.297928233296e-03 
-1.011734799512e-03 -8.525942349034e-04 0.0 
-8.525942349034e-04 4.907050266684e-03 0.0 
0.0 0.0 -1.305578568836e-03 
1.120011211769e-04 -9.639393047147e-04 0.0 
-9.639393047147e-04 3.552641554252e-04 0.0 
0.0 0.0 -2.002565471152e-04 
-1.668530992619e-03 6.309946100002e-04 0.0 
6.309946100002e-04 5.166924460567e-03 0.0 
0.0 0.0 -7.500980793755e-04 
-1.253144254253e-03 -1.928883033382e-03 0.0 
-1.928883033382e-03 5.781747753778e-03 0.0 
0.0 0.0 -1.293180865222e-03 
-1.565497950727e-03 6.438167873332e-05 0.0 
6.438167873332e-05 7.693447317596e-03 0.0 
0.0 0.0 -1.123598490052e-03 
6.785802533228e-04 -5.736279611176e-04 0.0 
-5.736279611176e-04 1.838174080769e-07 0.0 
0.0 0.0 -1.171618051616e-04 
-1.195500737651e-03 -3.256008312402e-04 0.0 
-3.256008312402e-04 3.719620558921e-03 0.0 
0.0 0.0 -9.209925479532e-04 
-1.429805954471e-03 5.036842419237e-04 0.0 
5.036842419237e-04 8.739646127293e-03 0.0 
0.0 0.0 -1.311981303940e-03 
-9.905702435701e-05 2.013930135586e-03 0.0 
2.013930135586e-03 1.485122832027e-03 0.0 
0.0 0.0 -5.940282032871e-04 
3.261360612195e-04 2.014048139277e-03 0.0 
2.014048139277e-03 7.944417754282e-04 0.0 
0.0 0.0 -4.802476442776e-04 
-6.470413752911e-04 1.957850985508e-03 0.0 
1.957850985508e-03 2.728601734132e-03 0.0 
0.0 0.0 -8.637206373099e-04 
-1.316804590616e-03 1.569868653343e-03 0.0 
1.569868653343e-03 4.005894671503e-03 0.0 
0.0 0.0 -7.800224789174e-04 
1.152436994544e-04 1.041484230325e-03 0.0 
1.041484230325e-03 1.260364711309e-04 0.0 
0.0 0.0 -1.034057873937e-04 
-1.536524951872e-03 3.208999903453e-05 0.0 
3.208999903453e-05 6.068754859848e-03 0.0 
0.0 0.0 -8.684787984471e-04 
-1.527482046669e-03 -8.504264765478e-04 0.0 
-8.504264765478e-04 7.084540485198e-03 0.0 
0.0 0.0 -1.313906642692e-03 
2.259445629762e-03 -9.175095740177e-05 0.0 
-9.175095740177e-05 -6.502150918460e-04 0.0 
0.0 0.0 -1.918888419282e-04 
-1.463207116020e-03 1.296765555730e-04 0.0 
1.296765555730e-04 8.413961701398e-03 0.0 
0.0 0.0 -1.253930875827e-03 
-1.717988966153e-03 1.334598389081e-03 0.0 
1.334598389081e-03 4.909530889206e-03 0.0 
0.0 0.0 -7.655439890770e-04 
-1.720228455065e-03 1.586186079137e-03 0.0 
1.586186079137e-03 4.967329360851e-03 0.0 
0.0 0.0 -7.934218816250e-04 
-1.768015179977e-03 1.461597718910e-03 0.0 
1.461597718910e-03 5.276074626724e-03 0.0 
0.0 0.0 -8.115680642089e-04 
-1.765114281844e-03 1.749488874724e-03 0.0 
1.749488874724e-03 5.323901634960e-03 0.0 
0.0 0.0 -8.428390908522e-04 
-1.776011419960e-03 1.632950866705e-03 0.0 
1.632950866705e-03 5.614599388379e-03 0.0 
0.0 0.0 -8.784658474099e-04 
-1.753067371520e-03 1.892876727445e-03 0.0 
1.892876727445e-03 5.647697331923e-03 0.0 
0.0 0.0 -9.060409163497e-04 
-1.729403370927e-03 2.034729517834e-03 0.0 
2.034729517834e-03 5.329326258993e-03 0.0 
0.0 0.0 -8.711257577414e-04 
-1.705524146156e-03 2.154135310252e-03 0.0 
2.154135310252e-03 5.649528349792e-03 0.0 
0.0 0.0 -9.341442283280e-04 
-1.669480427723e-03 2.313796081278e-03 0.0 
2.313796081278e-03 5.302391134739e-03 0.0 
0.0 0.0 -8.989774131092e-04 
-1.760017773414e-03 1.778713600910e-03 0.0 
1.778713600910e-03 5.960915318729e-03 0.0 
0.0 0.0 -9.415083590319e-04 
-1.639128685698e-03 2.400878910049e-03 0.0 
2.400878910049e-03 5.620671151866e-03 0.0 
0.0 0.0 -9.622976032585e-04 
-1.585968914987e-03 2.571269188534e-03 0.0 
2.571269188534e-03 5.245482773901e-03 0.0 
0.0 0.0 -9.268639294333e-04 
-1.553264337981e-03 2.629359401866e-03 0.0 
2.629359401866e-03 5.564461608518e-03 0.0 
0.0 0.0 -9.903372159162e-04 
-1.482148429882e-03 2.800719357184e-03 0.0 
2.800719357184e-03 5.162964478957e-03 0.0 
0.0 0.0 -9.547708836903e-04 
-1.480872876733e-03 2.756523220070e-03 0.0 
2.756523220070e-03 4.843370134984e-03 0.0 
0.0 0.0 -9.032660992691e-04 
-1.370066982921e-03 2.994500238396e-03 0.0 
2.994500238396e-03 4.734217419357e-03 0.0 
0.0 0.0 -9.261835667445e-04 
-1.296697830142e-03 2.932762897298e-03 0.0 
2.932762897298e-03 4.406716792506e-03 0.0 
0.0 0.0 -9.004111975071e-04 
-1.176154479742e-03 3.171939239460e-03 0.0 
3.171939239460e-03 4.268382598936e-03 0.0 
0.0 0.0 -9.182233496599e-04 
-1.237826052231e-03 3.181299556145e-03 0.0 
3.181299556145e-03 4.604885530242e-03 0.0 
0.0 0.0 -9.498701766430e-04 
-1.038924370446e-03 3.354505003279e-03 0.0 
3.354505003279e-03 4.108768898160e-03 0.0 
0.0 0.0 -9.343221806050e-04 
-9.113966935237e-04 3.322436674522e-03 0.0 
3.322436674522e-03 3.767445704006e-03 0.0 
0.0 0.0 -9.288662988139e-04 
-7.681433481646e-04 3.500147498246e-03 0.0 
3.500147498246e-03 3.577220508926e-03 0.0 
0.0 0.0 -9.367850320061e-04 
-6.050859616232e-04 3.441042246538e-03 0.0 
3.441042246538e-03 3.246213294712e-03 0.0 
0.0 0.0 -9.518642033955e-04 
-4.467796431526e-04 3.596824647640e-03 0.0 
3.596824647640e-03 3.023253834938e-03 0.0 
0.0 0.0 -9.541337235040e-04 
-2.817347476968e-04 3.508182660979e-03 0.0 
3.508182660979e-03 2.709346421897e-03 0.0 
0.0 0.0 -9.642822318347e-04 
-1.040481770833e-04 3.619372760828e-03 0.0 
3.619372760828e-03 2.449228749823e-03 0.0 
0.0 0.0 -9.459728402633e-04 
-2.870166289118e-04 3.676071568470e-03 0.0 
3.676071568470e-03 2.794184702227e-03 0.0 
0.0 0.0 -9.498144071847e-04 
6.429436302438e-05 3.660882361634e-03 0.0 
3.660882361634e-03 2.186835241716e-03 0.0 
0.0 0.0 -9.193128608805e-04 
2.331588354861e-04 3.548891452897e-03 0.0 
3.548891452897e-03 1.871725410986e-03 0.0 
0.0 0.0 -8.913707482552e-04 
4.174760030635e-04 3.518419278721e-03 0.0 
3.518419278721e-03 1.585153718146e-03 0.0 
0.0 0.0 -8.538425857873e-04 
5.455280992742e-04 3.365363645192e-03 0.0 
3.365363645192e-03 1.323229666394e-03 0.0 
0.0 0.0 -8.008961852862e-04 
7.498486656370e-04 3.260544319073e-03 0.0 
3.260544319073e-03 1.013594496255e-03 0.0 
0.0 0.0 -7.557613550964e-04 
5.794043773309e-04 3.414810932032e-03 0.0 
3.414810932032e-03 1.312272080423e-03 0.0 
0.0 0.0 -8.100034870355e-04 
9.766186802750e-04 3.126905533587e-03 0.0 
3.126905533587e-03 6.756506724320e-04 0.0 
0.0 0.0 -7.081154368744e-04 
1.170764685342e-03 3.063309594450e-03 0.0 
3.063309594450e-03 3.918842971428e-04 0.0 
0.0 0.0 -6.697067067790e-04 
1.469956798013e-03 2.887539401857e-03 0.0 
2.887539401857e-03 -6.720200421091e-06 0.0 
0.0 0.0 -6.271013989681e-04 
1.655398318796e-03 2.905797537394e-03 0.0 
2.905797537394e-03 -2.066635196578e-04 0.0 
0.0 0.0 -6.208863424878e-04 
1.958892900495e-03 2.587078338226e-03 0.0 
2.587078338226e-03 -5.601119320347e-04 0.0 
0.0 0.0 -5.994775579116e-04 
2.135455672651e-03 2.638700697284e-03 0.0 
2.638700697284e-03 -6.211030008372e-04 0.0 
0.0 0.0 -6.490082879202e-04 
2.410352153471e-03 2.173774944653e-03 0.0 
2.173774944653e-03 -9.107525055140e-04 0.0 
0.0 0.0 -6.426855634101e-04 
2.158594858366e-03 2.117426171510e-03 0.0 
2.117426171510e-03 -8.346185089651e-04 0.0 
0.0 0.0 -5.674184354577e-04 
2.548284906519e-03 1.577323129924e-03 0.0 
1.577323129924e-03 -1.120076299841e-03 0.0 
0.0 0.0 -6.120894028618e-04 
2.766282761562e-03 1.671188389262e-03 0.0 
1.671188389262e-03 -1.152705968468e-03 0.0 
0.0 0.0 -6.915329113260e-04 
2.831831315373e-03 9.695675877105e-04 0.0 
9.695675877105e-04 -1.281170566415e-03 0.0 
0.0 0.0 -6.645688924106e-04 
2.536993124922e-03 9.134999273791e-04 0.0 
9.134999273791e-04 -1.229619517363e-03 0.0 
0.0 0.0 -5.603029746683e-04 
2.733867997822e-03 2.586198841001e-04 0.0 
2.586198841001e-04 -1.313858956396e-03 0.0 
0.0 0.0 -6.085753034686e-04 
2.382754168972e-03 2.331723641419e-04 0.0 
2.331723641419e-04 -1.217161318829e-03 0.0 
0.0 0.0 -4.995397929185e-04 
2.475502276821e-03 -4.225569186791e-04 0.0 
-4.225569186791e-04 -1.235276730126e-03 0.0 
0.0 0.0 -5.315252342980e-04 
2.783353977069e-03 -4.207301430438e-04 0.0 
-4.207301430438e-04 -1.298298732893e-03 0.0 
0.0 0.0 -6.364522475042e-04 
2.431423533239e-03 -1.055611195596e-03 0.0 
-1.055611195596e-03 -1.141139443354e-03 0.0 
0.0 0.0 -5.529788956651e-04 
2.074488083004e-03 -1.034963949875e-03 0.0 
-1.034963949875e-03 -9.657239908617e-04 0.0 
0.0 0.0 -4.751846109182e-04 
1.948746609120e-03 -1.563616376602e-03 0.0 
-1.563616376602e-03 -7.896259199600e-04 0.0 
0.0 0.0 -4.967660096401e-04 
2.266914827687e-03 -1.646291796375e-03 0.0 
-1.646291796375e-03 -9.610891233280e-04 0.0 
0.0 0.0 -5.596395875825e-04 
1.725234701887e-03 -1.991509456133e-03 0.0 
-1.991509456133e-03 -5.081914327056e-04 0.0 
0.0 0.0 -5.215899725061e-04 
1.402225958191e-03 -1.927478583456e-03 0.0 
-1.927478583456e-03 -1.960854800127e-04 0.0 
0.0 0.0 -5.169173477906e-04 
1.209383151701e-03 -2.216403946003e-03 0.0 
-2.216403946003e-03 7.890654783241e-05 0.0 
0.0 0.0 -5.521241569428e-04 
1.437995882087e-03 -2.266737877318e-03 0.0 
-2.266737877318e-03 -1.663516021812e-04 0.0 
0.0 0.0 -5.449904056737e-04 
1.024600490131e-03 -2.464285469351e-03 0.0 
-2.464285469351e-03 3.533750076132e-04 0.0 
0.0 0.0 -5.905609276045e-04 
8.985317602796e-04 -2.606405635227e-03 0.0 
-2.606405635227e-03 5.292322287010e-04 0.0 
0.0 0.0 -6.118988524203e-04 
7.560704768117e-04 -2.818446778216e-03 0.0 
-2.818446778216e-03 7.706212678723e-04 0.0 
0.0 0.0 -6.542964620075e-04 
8.580312086144e-04 -2.682927376050e-03 0.0 
-2.682927376050e-03 6.007672926437e-04 0.0 
0.0 0.0 -6.251993576820e-04 
5.867828103229e-04 -2.962553875983e-03 0.0 
-2.962553875983e-03 1.034857146591e-03 0.0 
0.0 0.0 -6.949885529632e-04 
4.441790608849e-04 -3.069180945402e-03 0.0 
-3.069180945402e-03 1.277969962145e-03 0.0 
0.0 0.0 -7.380638670128e-04 
2.783519300776e-04 -3.113099096991e-03 0.0 
-3.113099096991e-03 1.538449359472e-03 0.0 
0.0 0.0 -7.786291240925e-04 
1.058234640361e-04 -3.171084265656e-03 0.0 
-3.171084265656e-03 1.852966267041e-03 0.0 
0.0 0.0 -8.394813133188e-04 
3.929316153892e-04 -3.010245319228e-03 0.0 
-3.010245319228e-03 1.308656505855e-03 0.0 
0.0 0.0 -7.292520519616e-04 
9.932532998196e-05 -3.071474673695e-03 0.0 
-3.071474673695e-03 1.797955184989e-03 0.0 
0.0 0.0 -8.131202207017e-04 
1.861203807317e-04 -2.953410476768e-03 0.0 
-2.953410476768e-03 1.579421639320e-03 0.0 
0.0 0.0 -7.566608657364e-04 
-8.642223961803e-05 -2.932845730897e-03 0.0 
-2.932845730897e-03 2.045062282812e-03 0.0 
0.0 0.0 -8.394171613687e-04 
7.378179429990e-04 3.236151700417e-03 0.0 
3.236151700417e-03 1.055249139964e-03 0.0 
0.0 0.0 -7.684573212697e-04 
-2.470987176264e-05 -2.774259717146e-03 0.0 
-2.774259717146e-03 1.827411113102e-03 0.0 
0.0 0.0 -7.725862462883e-04 
2.168591650758e-04 -2.749464912916e-03 0.0 
-2.749464912916e-03 1.402707795240e-03 0.0 
0.0 0.0 -6.941001258497e-04 
-2.655633051019e-04 -2.700896907473e-03 0.0 
-2.700896907473e-03 2.263406073752e-03 0.0 
0.0 0.0 -8.562183294215e-04 
-3.538412369767e-04 -2.807118068406e-03 0.0 
-2.807118068406e-03 2.524613030834e-03 0.0 
0.0 0.0 -9.303307687962e-04 
-2.182790499822e-04 -2.492668770886e-03 0.0 
-2.492668770886e-03 2.032114690057e-03 0.0 
0.0 0.0 -7.773581314605e-04 
-4.250446102995e-04 -2.387105800852e-03 0.0 
-2.387105800852e-03 2.436232383686e-03 0.0 
0.0 0.0 -8.619376171656e-04 
-3.808762253420e-04 -2.140229309317e-03 0.0 
-2.140229309317e-03 2.184406533220e-03 0.0 
0.0 0.0 -7.729415605190e-04 
1.763159166294e-03 2.932701492782e-03 0.0 
2.932701492782e-03 -2.697944395366e-04 0.0 
0.0 0.0 -6.400134543247e-04 
-1.088844513542e-03 3.301377294412e-03 0.0 
3.301377294412e-03 4.460583281383e-03 0.0 
0.0 0.0 -9.751682721562e-04 
-5.557439599788e-04 -2.010376698230e-03 0.0 
-2.010376698230e-03 2.553174357475e-03 0.0 
0.0 0.0 -8.560415989269e-04 
-5.027177784437e-04 -1.739983302349e-03 0.0 
-1.739983302349e-03 2.268016728775e-03 0.0 
0.0 0.0 -7.565566929991e-04 
-3.487326511453e-04 -1.851839421592e-03 0.0 
-1.851839421592e-03 1.937346492323e-03 0.0 
0.0 0.0 -6.808345033620e-04 
-4.519877827048e-04 -1.437771514004e-03 0.0 
-1.437771514004e-03 1.973465387895e-03 0.0 
0.0 0.0 -6.520618307959e-04 
-1.774841257907e-03 1.527132807035e-03 0.0 
1.527132807035e-03 5.918357799879e-03 0.0 
0.0 0.0 -9.126358703463e-04 
-1.762808846704e-03 1.694088373988e-03 0.0 
1.694088373988e-03 6.266633471383e-03 0.0 
0.0 0.0 -9.772611937912e-04 
-1.774288393461e-03 1.442569390130e-03 0.0 
1.442569390130e-03 6.194015386497e-03 0.0 
0.0 0.0 -9.468612964576e-04 
-1.759396418391e-03 1.612723129842e-03 0.0 
1.612723129842e-03 6.563174828670e-03 0.0 
0.0 0.0 -1.012955122490e-03 
-1.767929614200e-03 1.376342917300e-03 0.0 
1.376342917300e-03 6.485124768915e-03 0.0 
0.0 0.0 -9.835180958883e-04 
-5.788967960072e-04 -1.335257077215e-03 0.0 
-1.335257077215e-03 2.277225899990e-03 0.0 
0.0 0.0 -7.256352817785e-04 
-1.603689512328e-03 2.493470387195e-03 0.0 
2.493470387195e-03 5.946173640174e-03 0.0 
0.0 0.0 -1.026687169009e-03 
-1.736212695290e-03 1.850044700733e-03 0.0 
1.850044700733e-03 6.615422803056e-03 0.0 
0.0 0.0 -1.042264213861e-03 
-7.638319934371e-04 3.223456733069e-03 0.0 
3.223456733069e-03 3.455847564200e-03 0.0 
0.0 0.0 -9.409285294772e-04 
3.366430025168e-04 3.397992003127e-03 0.0 
3.397992003127e-03 1.628840077963e-03 0.0 
0.0 0.0 -8.423498916340e-04 
2.156368313925e-03 8.947959957603e-04 0.0 
8.947959957603e-04 -1.035979942615e-03 0.0 
0.0 0.0 -4.801664448473e-04 
-6.227154585167e-04 -2.198002757365e-03 0.0 
-2.198002757365e-03 2.831211668969e-03 0.0 
0.0 0.0 -9.464983759082e-04 
-7.218347779198e-04 -1.819122893170e-03 0.0 
-1.819122893170e-03 2.913297155100e-03 0.0 
0.0 0.0 -9.383242106009e-04 
-8.133368797394e-04 -1.945809227020e-03 0.0 
-1.945809227020e-03 3.204453228297e-03 0.0 
0.0 0.0 -1.004955155493e-03 
2.358180408842e-04 -3.147007717197e-03 0.0 
-3.147007717197e-03 1.628184027877e-03 0.0 
0.0 0.0 -7.988580294692e-04 
-1.225410220003e-04 -3.166679032327e-03 0.0 
-3.166679032327e-03 2.260222165472e-03 0.0 
0.0 0.0 -9.088386183890e-04 
-3.596074933625e-05 -3.143460862446e-03 0.0 
-3.143460862446e-03 2.089404171616e-03 0.0 
0.0 0.0 -8.720661220001e-04 
-3.940691537939e-04 -3.066493924859e-03 0.0 
-3.066493924859e-03 2.736277962959e-03 0.0 
0.0 0.0 -9.548449181928e-04 
-3.127433245065e-04 -2.982699423106e-03 0.0 
-2.982699423106e-03 2.620883950583e-03 0.0 
0.0 0.0 -9.363521337227e-04 
-6.475470341843e-04 -2.849005951016e-03 0.0 
-2.849005951016e-03 3.244198139691e-03 0.0 
0.0 0.0 -9.829094188347e-04 
-7.290342086422e-04 -2.890946438125e-03 0.0 
-2.890946438125e-03 3.342200867435e-03 0.0 
0.0 0.0 -9.972914379494e-04 
-9.540874880885e-04 -2.660066281729e-03 0.0 
-2.660066281729e-03 3.821872870679e-03 0.0 
0.0 0.0 -1.003716470558e-03 
-1.033871380646e-03 -2.655311578103e-03 0.0 
-2.655311578103e-03 3.899288306138e-03 0.0 
0.0 0.0 -1.010717982506e-03 
-5.020318707035e-04 -2.652589391131e-03 0.0 
-2.652589391131e-03 3.162848563043e-03 0.0 
0.0 0.0 -1.000386703517e-03 
-1.738328040713e-04 -2.716917287151e-03 0.0 
-2.716917287151e-03 2.542650585114e-03 0.0 
0.0 0.0 -9.561072799058e-04 
-1.217140716833e-03 -2.433745842754e-03 0.0 
-2.433745842754e-03 4.355239653684e-03 0.0 
0.0 0.0 -1.026468870702e-03 
-1.301004518180e-03 -2.384512482324e-03 0.0 
-2.384512482324e-03 4.413129634354e-03 0.0 
0.0 0.0 -1.025303715086e-03 
-1.433223260983e-03 -2.180723409209e-03 0.0 
-2.180723409209e-03 4.841898264917e-03 0.0 
0.0 0.0 -1.051254241329e-03 
-1.533782143048e-03 -2.096001782913e-03 0.0 
-2.096001782913e-03 4.882119290392e-03 0.0 
0.0 0.0 -1.038917832539e-03 
-1.344970022650e-03 -2.253929758585e-03 0.0 
-2.253929758585e-03 4.461736113479e-03 0.0 
0.0 0.0 -1.037516479237e-03 
-1.569102967331e-03 -1.933831873179e-03 0.0 
-1.933831873179e-03 4.899834166201e-03 0.0 
0.0 0.0 -1.046305699947e-03 
-1.376153231101e-03 -2.066079550050e-03 0.0 
-2.066079550050e-03 4.500968763913e-03 0.0 
0.0 0.0 -1.050803148915e-03 
1.947540486422e-03 2.152880942579e-04 0.0 
2.152880942579e-04 -9.005037723215e-04 0.0 
0.0 0.0 -4.487300203286e-04 
1.680967532914e-03 9.207071897223e-04 0.0 
9.207071897223e-04 -5.014207716637e-04 0.0 
0.0 0.0 -5.055200405360e-04 
1.438850481880e-03 2.016578593639e-04 0.0 
2.016578593639e-04 -1.625086232559e-04 0.0 
0.0 0.0 -5.470036536960e-04 
1.202172879279e-03 8.527240019949e-04 0.0 
8.527240019949e-04 3.828898779410e-04 0.0 
0.0 0.0 -6.793126102372e-04 
1.037530362003e-03 2.011510087903e-04 0.0 
2.011510087903e-04 7.506062236288e-04 0.0 
0.0 0.0 -7.663442509849e-04 
8.675854264309e-04 7.587081521114e-04 0.0 
7.587081521114e-04 1.231843798103e-03 0.0 
0.0 0.0 -8.979051750036e-04 
7.349701041776e-04 2.153247329944e-04 0.0 
2.153247329944e-04 1.546423059999e-03 0.0 
0.0 0.0 -9.701408636527e-04 
8.610381847209e-04 -3.526591051395e-04 0.0 
-3.526591051395e-04 1.156465632251e-03 0.0 
0.0 0.0 -8.646444929881e-04 
-1.453224264520e-03 2.831768754596e-03 0.0 
2.831768754596e-03 5.484804576212e-03 0.0 
0.0 0.0 -1.018102500310e-03 
3.008867090267e-03 1.058367247789e-03 0.0 
1.058367247789e-03 -1.343458179845e-03 0.0 
0.0 0.0 -7.137466758949e-04 
2.853497805066e-03 1.766083769912e-03 0.0 
1.766083769912e-03 -1.173072932721e-03 0.0 
0.0 0.0 -7.201820881480e-04 
3.053541270561e-03 1.142570270594e-03 0.0 
1.142570270594e-03 -1.348374367158e-03 0.0 
0.0 0.0 -7.307858157443e-04 
2.838618046953e-03 1.876649797015e-03 0.0 
1.876649797015e-03 -1.126367864291e-03 0.0 
0.0 0.0 -7.338215068551e-04 
2.971080593981e-03 1.270655419308e-03 0.0 
1.270655419308e-03 -1.289312095888e-03 0.0 
0.0 0.0 -7.207579277541e-04 
2.719217330289e-03 2.056721202716e-03 0.0 
2.056721202716e-03 -1.037451596634e-03 0.0 
0.0 0.0 -7.207567429950e-04 
2.772942118414e-03 1.411962470906e-03 0.0 
1.411962470906e-03 -1.228640855760e-03 0.0 
0.0 0.0 -6.618433982802e-04 
2.936188635973e-03 5.059698955333e-04 0.0 
5.059698955333e-04 -1.379043216914e-03 0.0 
0.0 0.0 -6.673480367399e-04 
2.617932977065e-03 5.853697332861e-04 0.0 
5.853697332861e-04 -1.334188021617e-03 0.0 
0.0 0.0 -5.501764094776e-04 
2.753067280877e-03 -3.549983010408e-04 0.0 
-3.549983010408e-04 -1.367545839080e-03 0.0 
0.0 0.0 -5.937949036274e-04 
2.283697930113e-03 -2.688909952497e-04 0.0 
-2.688909952497e-04 -1.277221164065e-03 0.0 
0.0 0.0 -4.313471854492e-04 
2.525026440165e-03 -1.212492314672e-03 0.0 
-1.212492314672e-03 -1.245102357231e-03 0.0 
0.0 0.0 -5.485388926860e-04 
-1.241644147846e-04 3.665257049786e-03 0.0 
3.665257049786e-03 2.568141902724e-03 0.0 
0.0 0.0 -9.405629120884e-04 
9.458807958305e-04 1.361774924333e-03 0.0 
1.361774924333e-03 9.904922510770e-04 0.0 
0.0 0.0 -8.298741629604e-04 
6.513001348098e-04 1.229100697752e-03 0.0 
1.229100697752e-03 1.753882193068e-03 0.0 
0.0 0.0 -9.993981362447e-04 
6.963768604448e-04 1.772072157614e-03 0.0 
1.772072157614e-03 1.581186938205e-03 0.0 
0.0 0.0 -9.522937794042e-04 
-3.189420848090e-04 -1.545020922433e-03 0.0 
-1.545020922433e-03 1.685829119162e-03 0.0 
0.0 0.0 -5.858087290083e-04 
-1.729227017080e-03 -1.797597956290e-03 0.0 
-1.797597956290e-03 5.304685395965e-03 0.0 
0.0 0.0 -1.052155339158e-03 
-3.558894212413e-04 -2.357175527876e-03 0.0 
-2.357175527876e-03 3.123019306479e-03 0.0 
0.0 0.0 -1.032922975483e-03 
-3.685387661375e-05 -2.333297789804e-03 0.0 
-2.333297789804e-03 2.519376975604e-03 0.0 
0.0 0.0 -9.972889278909e-04 
5.502284084495e-04 -2.540944922989e-04 0.0 
-2.540944922989e-04 1.932880194956e-03 0.0 
0.0 0.0 -1.036234461364e-03 
-5.051250462252e-04 -1.053858961610e-03 0.0 
-1.053858961610e-03 1.923683454344e-03 0.0 
0.0 0.0 -5.970694122200e-04 
2.486914527932e-03 2.192796758779e-03 0.0 
2.192796758779e-03 -9.291035182538e-04 0.0 
0.0 0.0 -6.676332898623e-04 
2.328692636026e-03 2.634849956172e-03 0.0 
2.634849956172e-03 -6.738088910714e-04 0.0 
0.0 0.0 -7.092358906949e-04 
-1.744623678677e-03 1.540348128746e-03 0.0 
1.540348128746e-03 6.846449706807e-03 0.0 
0.0 0.0 -1.048874596840e-03 
-1.750773001735e-03 1.319704536713e-03 0.0 
1.319704536713e-03 6.756146718387e-03 0.0 
0.0 0.0 -1.019458214591e-03 
-2.480160767706e-04 -2.004916630844e-03 0.0 
-2.004916630844e-03 3.137306023889e-03 0.0 
0.0 0.0 -1.070157681403e-03 
-6.234076530390e-04 -9.645286907226e-04 0.0 
-9.645286907226e-04 2.209865459266e-03 0.0 
0.0 0.0 -6.466873288763e-04 
-1.068414060457e-03 -2.374253472806e-03 0.0 
-2.374253472806e-03 4.293485734694e-03 0.0 
0.0 0.0 -1.053463316161e-03 
2.067995625182e-03 6.451329218673e-04 0.0 
6.451329218673e-04 -1.186041327943e-03 0.0 
0.0 0.0 -3.779804131024e-04 
-1.762784595192e-03 -1.607331333857e-03 0.0 
-1.607331333857e-03 5.293267446583e-03 0.0 
0.0 0.0 -1.053563116650e-03 
-1.867913240625e-03 -1.489305966451e-03 0.0 
-1.489305966451e-03 5.673891533939e-03 0.0 
0.0 0.0 -1.070920355653e-03 
-7.933761041048e-04 -2.832720245216e-03 0.0 
-2.832720245216e-03 3.452224715287e-03 0.0 
0.0 0.0 -1.021320298254e-03 
4.031722277788e-04 1.617631885485e-03 0.0 
1.617631885485e-03 2.296315845658e-03 0.0 
0.0 0.0 -1.069468904140e-03 
4.279180701410e-04 2.089566425205e-03 0.0 
2.089566425205e-03 2.165414708705e-03 0.0 
0.0 0.0 -1.033921039166e-03 
2.748961671600e-03 -1.234973564708e-03 0.0 
-1.234973564708e-03 -1.253110519415e-03 0.0 
0.0 0.0 -6.410790652217e-04 
2.518060065866e-03 -2.059438322562e-03 0.0 
-2.059438322562e-03 -1.018220698221e-03 0.0 
0.0 0.0 -6.427883004194e-04 
2.357888963389e-03 -2.118209179973e-03 0.0 
-2.118209179973e-03 -9.914742540871e-04 0.0 
0.0 0.0 -5.856063039867e-04 
2.191323313200e-03 -2.728758808394e-03 0.0 
-2.728758808394e-03 -6.479650369089e-04 0.0 
0.0 0.0 -6.614392612675e-04 
2.278763046571e-03 -2.578114575528e-03 0.0 
-2.578114575528e-03 -7.103706415061e-04 0.0 
0.0 0.0 -6.721681735992e-04 
1.895457018917e-03 -3.007528799367e-03 0.0 
-3.007528799367e-03 -3.206537863592e-04 0.0 
0.0 0.0 -6.749156710960e-04 
1.780393766489e-03 -3.161947930664e-03 0.0 
-3.161947930664e-03 -1.991738640969e-04 0.0 
0.0 0.0 -6.776656724536e-04 
1.498218282607e-03 -3.239267173229e-03 0.0 
-3.239267173229e-03 1.323736015907e-04 0.0 
0.0 0.0 -6.988250932278e-04 
1.538218957511e-03 -3.082075736210e-03 0.0 
-3.082075736210e-03 7.246781046874e-07 0.0 
0.0 0.0 -6.595472724067e-04 
1.116756184221e-03 -3.039153293536e-03 0.0 
-3.039153293536e-03 4.098621490744e-04 0.0 
0.0 0.0 -6.542649999838e-04 
9.813252680918e-04 -2.956617965048e-03 0.0 
-2.956617965048e-03 5.482338783846e-04 0.0 
0.0 0.0 -6.555253484899e-04 
6.892512545273e-04 -2.715436424775e-03 0.0 
-2.715436424775e-03 7.414890539001e-04 0.0 
0.0 0.0 -6.131744178975e-04 
-1.739487401810e-03 -1.643308528611e-03 0.0 
-1.643308528611e-03 5.674904400731e-03 0.0 
0.0 0.0 -1.101875158976e-03 
1.625849311047e-03 -1.683389643306e-04 0.0 
-1.683389643306e-04 -1.097136295050e-03 0.0 
0.0 0.0 -2.265912925700e-04 
-1.396148361601e-03 2.647702035806e-03 0.0 
2.647702035806e-03 4.519072400057e-03 0.0 
0.0 0.0 -8.810844588398e-04 
-5.349333944456e-04 -2.056134526959e-03 0.0 
-2.056134526959e-03 3.696128141265e-03 0.0 
0.0 0.0 -1.099012274073e-03 
4.001314244547e-04 2.494511169208e-04 0.0 
2.494511169208e-04 2.291122324032e-03 0.0 
0.0 0.0 -1.088453095952e-03 
-1.720074879915e-03 1.479198222822e-03 0.0 
1.479198222822e-03 7.120039440071e-03 0.0 
0.0 0.0 -1.085032576515e-03 
-1.727265597861e-03 1.269164868262e-03 0.0 
1.269164868262e-03 7.020339379643e-03 0.0 
0.0 0.0 -1.055603631703e-03 
-1.745923234167e-03 1.117194505061e-03 0.0 
1.117194505061e-03 6.644193117880e-03 0.0 
0.0 0.0 -9.897378988699e-04 
-1.726111739886e-03 1.073003689324e-03 0.0 
1.073003689324e-03 6.905750690588e-03 0.0 
0.0 0.0 -1.026001677571e-03 
-1.697815529865e-03 1.216597394983e-03 0.0 
1.216597394983e-03 7.279055033116e-03 0.0 
0.0 0.0 -1.091942449670e-03 
-1.699755368788e-03 1.027337857590e-03 0.0 
1.027337857590e-03 7.158023142695e-03 0.0 
0.0 0.0 -1.062342898562e-03 
-1.716352618538e-03 8.878056221667e-04 0.0 
8.878056221667e-04 6.774679391188e-03 0.0 
0.0 0.0 -9.962627399151e-04 
-1.692178280540e-03 8.508470267666e-04 0.0 
8.508470267666e-04 7.019991579685e-03 0.0 
0.0 0.0 -1.032646955902e-03 
-1.695660932446e-03 7.184317155414e-04 0.0 
7.184317155414e-04 6.625583462411e-03 0.0 
0.0 0.0 -9.664557332607e-04 
-1.677486126932e-03 6.911180295046e-04 0.0 
6.911180295046e-04 6.868534941944e-03 0.0 
0.0 0.0 -1.002889032254e-03 
-1.663620555798e-03 8.098065595925e-04 0.0 
8.098065595925e-04 7.259384762552e-03 0.0 
0.0 0.0 -1.069134413525e-03 
-1.655525420696e-03 6.533870042141e-04 0.0 
6.533870042141e-04 7.107625883104e-03 0.0 
0.0 0.0 -1.039387411609e-03 
-1.659615819212e-03 5.491873914478e-04 0.0 
5.491873914478e-04 6.708579784798e-03 0.0 
0.0 0.0 -9.730575354659e-04 
-1.642941155605e-03 5.125241071205e-04 0.0 
5.125241071205e-04 6.945188648216e-03 0.0 
0.0 0.0 -1.009574527126e-03 
-1.637255380195e-03 4.205204331053e-04 0.0 
4.205204331053e-04 6.536272510904e-03 0.0 
0.0 0.0 -9.431603702596e-04 
-1.623420800787e-03 3.856837058294e-04 0.0 
3.856837058294e-04 6.767271635738e-03 0.0 
0.0 0.0 -9.796061197752e-04 
-1.622026920778e-03 4.757000201370e-04 0.0 
4.757000201370e-04 7.177981971167e-03 0.0 
0.0 0.0 -1.046101832713e-03 
-5.260638759536e-04 -7.746154698035e-04 0.0 
-7.746154698035e-04 1.804698088172e-03 0.0 
0.0 0.0 -4.826019863697e-04 
6.384355500235e-04 -8.071467030727e-04 0.0 
-8.071467030727e-04 1.625869863801e-03 0.0 
0.0 0.0 -9.660701661439e-04 
3.155700960172e-04 -6.399278427758e-04 0.0 
-6.399278427758e-04 2.369342842803e-03 0.0 
0.0 0.0 -1.083831836677e-03 
-8.892645420983e-04 -1.589464053846e-03 0.0 
-1.589464053846e-03 3.243112049151e-03 0.0 
0.0 0.0 -9.683295300233e-04 
-9.893521759344e-04 -1.650588191873e-03 0.0 
-1.650588191873e-03 3.517832807879e-03 0.0 
0.0 0.0 -1.010934236754e-03 
-9.339052402119e-04 -1.988561699477e-03 0.0 
-1.988561699477e-03 3.508091553521e-03 0.0 
0.0 0.0 -1.041462402745e-03 
-1.131758993546e-03 -1.657762215853e-03 0.0 
-1.657762215853e-03 3.856452720899e-03 0.0 
0.0 0.0 -1.033211989474e-03 
-1.610140258144e-03 3.510578464752e-04 0.0 
3.510578464752e-04 7.002203508451e-03 0.0 
0.0 0.0 -1.015477767897e-03 
-1.603569950634e-03 4.323698609735e-04 0.0 
4.323698609735e-04 7.406712470395e-03 0.0 
0.0 0.0 -1.082739357160e-03 
2.075859047304e-03 2.734073794279e-03 0.0 
2.734073794279e-03 -5.151566843200e-04 0.0 
0.0 0.0 -6.688724412789e-04 
1.829803788864e-03 2.896630922712e-03 0.0 
2.896630922712e-03 -2.437374272620e-04 0.0 
0.0 0.0 -6.797427264007e-04 
-1.702624885041e-03 1.699730791061e-03 0.0 
1.699730791061e-03 7.199957864770e-03 0.0 
0.0 0.0 -1.114382729655e-03 
-1.921178658721e-03 -1.279150328982e-03 0.0 
-1.279150328982e-03 5.641022297000e-03 0.0 
0.0 0.0 -1.061085778683e-03 
-1.759404772593e-03 -1.368797781515e-03 0.0 
-1.368797781515e-03 5.258990087990e-03 0.0 
0.0 0.0 -1.062669991958e-03 
6.091469494368e-04 3.201234470351e-03 0.0 
3.201234470351e-03 1.145920310691e-03 0.0 
0.0 0.0 -7.521716829121e-04 
3.812479400786e-04 3.221138826746e-03 0.0 
3.221138826746e-03 1.454024134529e-03 0.0 
0.0 0.0 -7.865451748317e-04 
6.223231318809e-04 3.034958604236e-03 0.0 
3.034958604236e-03 1.026602646357e-03 0.0 
0.0 0.0 -7.066824763876e-04 
3.755190555598e-04 3.004529260336e-03 0.0 
3.004529260336e-03 1.328866931440e-03 0.0 
0.0 0.0 -7.304511372856e-04 
1.504650344152e-04 3.149504562038e-03 0.0 
3.149504562038e-03 1.760988080228e-03 0.0 
0.0 0.0 -8.191941919899e-04 
5.829936888595e-04 2.805741157272e-03 0.0 
2.805741157272e-03 9.386435949221e-04 0.0 
0.0 0.0 -6.521302644778e-04 
1.691581229929e-04 -2.698724546406e-03 0.0 
-2.698724546406e-03 1.880405331260e-03 0.0 
0.0 0.0 -8.664312523603e-04 
-1.632170864774e-03 7.587389543785e-04 0.0 
7.587389543785e-04 7.494664304375e-03 0.0 
0.0 0.0 -1.105708206284e-03 
-1.867627977739e-04 -1.946982532398e-03 0.0 
-1.946982532398e-03 1.623581017794e-03 0.0 
0.0 0.0 -6.157792371515e-04 
-1.766459924498e-04 -1.658792918857e-03 0.0 
-1.658792918857e-03 1.424250676640e-03 0.0 
0.0 0.0 -5.346877217957e-04 
-1.953846352874e-03 -1.181006378595e-03 0.0 
-1.181006378595e-03 5.993034579258e-03 0.0 
0.0 0.0 -1.094582683422e-03 
9.227653006670e-04 -9.923042472365e-04 0.0 
-9.923042472365e-04 8.348026981178e-04 0.0 
0.0 0.0 -7.532434280506e-04 
-4.484070588213e-04 3.613794165219e-03 0.0 
3.613794165219e-03 3.179623750880e-03 0.0 
0.0 0.0 -9.533529749162e-04 
-2.780489895403e-04 3.528284248772e-03 0.0 
3.528284248772e-03 2.993445099109e-03 0.0 
0.0 0.0 -9.681750457242e-04 
-5.507055311170e-04 3.446174456380e-03 0.0 
3.446174456380e-03 3.597530854088e-03 0.0 
0.0 0.0 -9.957130113267e-04 
-3.863084581791e-04 3.307385071573e-03 0.0 
3.307385071573e-03 3.448440357162e-03 0.0 
0.0 0.0 -1.023751803962e-03 
-6.300320690614e-04 3.259070928407e-03 0.0 
3.259070928407e-03 4.039542678780e-03 0.0 
0.0 0.0 -1.059873349132e-03 
-5.085717340789e-04 3.118830500926e-03 0.0 
3.118830500926e-03 3.927747937877e-03 0.0 
0.0 0.0 -1.087854580038e-03 
-2.514557000785e-04 3.100269023384e-03 0.0 
3.100269023384e-03 3.340960341130e-03 0.0 
0.0 0.0 -1.051791170495e-03 
1.399069373120e-04 1.939674922792e-03 0.0 
1.939674922792e-03 2.839420856551e-03 0.0 
0.0 0.0 -1.107463318235e-03 
-4.186704419438e-04 2.922768790841e-03 0.0 
2.922768790841e-03 3.866682433006e-03 0.0 
0.0 0.0 -1.115916943430e-03 
-1.595806012880e-03 2.986475684988e-04 0.0 
2.986475684988e-04 6.569860539438e-03 0.0 
0.0 0.0 -9.487150400336e-04 
9.874874757951e-04 2.001023480651e-03 0.0 
2.001023480651e-03 8.096298849095e-04 0.0 
0.0 0.0 -7.701931545877e-04 
1.099587361542e-03 -2.883577329194e-03 0.0 
-2.883577329194e-03 3.196281228081e-04 0.0 
0.0 0.0 -6.082352075787e-04 
-4.120182269500e-04 -8.254968701079e-04 0.0 
-8.254968701079e-04 1.533206618467e-03 0.0 
0.0 0.0 -4.510100977179e-04 
5.592980566656e-04 -2.545612127290e-03 0.0 
-2.545612127290e-03 8.296765578219e-04 0.0 
0.0 0.0 -5.952748347803e-04 
-6.262840441887e-04 -6.448010795071e-04 0.0 
-6.448010795071e-04 2.035833554771e-03 0.0 
0.0 0.0 -5.222488353909e-04 
-7.319508735308e-04 -8.428934672220e-04 0.0 
-8.428934672220e-04 2.464651158961e-03 0.0 
0.0 0.0 -6.822577977165e-04 
-4.713603530403e-04 -1.760178858830e-03 0.0 
-1.760178858830e-03 3.749274242464e-03 0.0 
0.0 0.0 -1.136360603439e-03 
-7.414846696447e-04 3.136821301181e-03 0.0 
3.136821301181e-03 4.510208953631e-03 0.0 
0.0 0.0 -1.124065295910e-03 
-8.446432131550e-04 3.218211498406e-03 0.0 
3.218211498406e-03 4.600039828402e-03 0.0 
0.0 0.0 -1.095615423988e-03 
1.374965702112e-04 2.907969111804e-03 0.0 
2.907969111804e-03 1.629175485309e-03 0.0 
0.0 0.0 -7.571451666514e-04 
-7.702727876907e-05 2.968579821374e-03 0.0 
2.968579821374e-03 2.049330152496e-03 0.0 
0.0 0.0 -8.452726601685e-04 
8.289727363508e-05 1.511362000005e-03 0.0 
1.511362000005e-03 2.985439199539e-03 0.0 
0.0 0.0 -1.136278651916e-03 
-1.765237675762e-03 1.222407657091e-03 0.0 
1.222407657091e-03 6.114667953270e-03 0.0 
0.0 0.0 -9.177848451843e-04 
-1.710580504207e-03 7.440398052567e-04 0.0 
7.440398052567e-04 6.380060456859e-03 0.0 
0.0 0.0 -9.302130594432e-04 
-1.676565589941e-03 5.872598873801e-04 0.0 
5.872598873801e-04 6.215440748447e-03 0.0 
0.0 0.0 -9.001900590098e-04 
-3.803857748505e-04 -5.434049098283e-04 0.0 
-5.434049098283e-04 1.471759670645e-03 0.0 
0.0 0.0 -3.494697005546e-04 
7.568627899495e-04 -2.787918667943e-03 0.0 
-2.787918667943e-03 7.221354992753e-04 0.0 
0.0 0.0 -6.338564096678e-04 
-1.662120244785e-03 1.162296850059e-03 0.0 
1.162296850059e-03 7.529797322482e-03 0.0 
0.0 0.0 -1.128363834889e-03 
2.037234962576e-03 2.841104701767e-03 0.0 
2.841104701767e-03 -4.145658898484e-04 0.0 
0.0 0.0 -6.954296025976e-04 
1.531315725723e-03 2.908052614029e-03 0.0 
2.908052614029e-03 2.448474694818e-06 0.0 
0.0 0.0 -6.573275144647e-04 
1.261589428094e-03 6.096704043663e-04 0.0 
6.096704043663e-04 -9.183369249884e-04 0.0 
0.0 0.0 -1.471082156167e-04 
7.631106832774e-04 -7.208428592914e-05 0.0 
-7.208428592914e-05 -6.801595576129e-04 0.0 
0.0 0.0 -3.555048242768e-05 
-1.589929625905e-03 3.288854672539e-04 0.0 
3.288854672539e-04 7.214274616426e-03 0.0 
0.0 0.0 -1.051814883004e-03 
-1.572388470156e-03 3.792019312018e-04 0.0 
3.792019312018e-04 7.619653826889e-03 0.0 
0.0 0.0 -1.117859435171e-03 
-1.078769339999e-03 -1.982110544533e-03 0.0 
-1.982110544533e-03 3.829235274235e-03 0.0 
0.0 0.0 -1.051224796075e-03 
-1.274189695606e-03 -1.627447894412e-03 0.0 
-1.627447894412e-03 4.185605639052e-03 0.0 
0.0 0.0 -1.050863174419e-03 
-1.969895269108e-04 -1.624325261337e-03 0.0 
-1.624325261337e-03 3.218036131210e-03 0.0 
0.0 0.0 -1.107558395918e-03 
3.636511301315e-04 -2.361072158115e-03 0.0 
-2.361072158115e-03 9.584204304499e-04 0.0 
0.0 0.0 -5.666020973920e-04 
-1.569287665322e-03 4.982993919659e-04 0.0 
4.982993919659e-04 7.796117196338e-03 0.0 
0.0 0.0 -1.149181664990e-03 
6.559202405712e-04 -1.403190814261e-03 0.0 
-1.403190814261e-03 1.391837788957e-03 0.0 
0.0 0.0 -8.776105840836e-04 
9.173022590222e-04 -1.676640049954e-03 0.0 
-1.676640049954e-03 6.107363237665e-04 0.0 
0.0 0.0 -6.548736783380e-04 
-1.171879392758e-03 -1.281686817317e-03 0.0 
-1.281686817317e-03 3.846852730435e-03 0.0 
0.0 0.0 -1.001803992689e-03 
1.504150752549e-03 2.803418453549e-03 0.0 
2.803418453549e-03 -4.311377337536e-05 0.0 
0.0 0.0 -6.261587053603e-04 
1.650316852641e-03 2.671963168056e-03 0.0 
2.671963168056e-03 -3.170419596538e-04 0.0 
0.0 0.0 -5.714035255658e-04 
1.466801754994e-03 -2.835534920743e-03 0.0 
-2.835534920743e-03 -6.856056088169e-05 0.0 
0.0 0.0 -5.992462260482e-04 
4.198225928608e-04 -2.489806032447e-03 0.0 
-2.489806032447e-03 9.452515050113e-04 0.0 
0.0 0.0 -5.850317562309e-04 
-7.228005656972e-04 -5.488391732617e-04 0.0 
-5.488391732617e-04 2.276834511977e-03 0.0 
0.0 0.0 -5.562745863746e-04 
-4.637036380639e-04 -1.428624458379e-03 0.0 
-1.428624458379e-03 3.853108176796e-03 0.0 
0.0 0.0 -1.173829981771e-03 
-1.646663843551e-03 1.358180133252e-03 0.0 
1.358180133252e-03 7.637691352308e-03 0.0 
0.0 0.0 -1.157575248917e-03 
-1.588531343900e-04 2.821657521555e-03 0.0 
2.821657521555e-03 3.283406077172e-03 0.0 
0.0 0.0 -1.080172819833e-03 
2.446831455111e-05 3.060603850123e-03 0.0 
3.060603850123e-03 2.728589719442e-03 0.0 
0.0 0.0 -1.015677837919e-03 
-3.660685555016e-04 2.667845735617e-03 0.0 
2.667845735617e-03 3.843962247037e-03 0.0 
0.0 0.0 -1.144955025780e-03 
2.673047132891e-04 -2.137865757300e-03 0.0 
-2.137865757300e-03 9.516698016607e-04 0.0 
0.0 0.0 -5.224176492642e-04 
-7.311483308604e-04 -1.856928531792e-03 0.0 
-1.856928531792e-03 4.285424001286e-03 0.0 
0.0 0.0 -1.165794428787e-03 
-2.038713827362e-03 -9.521744761757e-04 0.0 
-9.521744761757e-04 5.942161280998e-03 0.0 
0.0 0.0 -1.070719593515e-03 
-9.487823984943e-04 3.179202297983e-03 0.0 
3.179202297983e-03 5.046317585578e-03 0.0 
0.0 0.0 -1.157598467365e-03 
-1.028189826122e-03 3.189698687636e-03 0.0 
3.189698687636e-03 5.131498804919e-03 0.0 
0.0 0.0 -1.131219827106e-03 
1.693489723556e-03 2.912737131245e-03 0.0 
2.912737131245e-03 -1.493629984725e-04 0.0 
0.0 0.0 -6.617685964645e-04 
1.185947765099e-03 2.829659806798e-03 0.0 
2.829659806798e-03 2.506006467406e-04 0.0 
0.0 0.0 -6.156636050741e-04 
1.024663306531e-03 2.720941116212e-03 0.0 
2.720941116212e-03 3.858661710823e-04 0.0 
0.0 0.0 -6.045126332627e-04 
7.581467413336e-04 2.629057648791e-03 0.0 
2.629057648791e-03 6.283993164515e-04 0.0 
0.0 0.0 -5.942340247651e-04 
-1.648477658061e-03 2.188124378807e-03 0.0 
2.188124378807e-03 4.981950326516e-03 0.0 
0.0 0.0 -8.520119503206e-04 
1.288363213325e-03 2.918108490938e-03 0.0 
2.918108490938e-03 1.603315013667e-04 0.0 
0.0 0.0 -6.208691634391e-04 
-1.164374950017e-03 2.801514945082e-03 0.0 
2.801514945082e-03 4.086272555253e-03 0.0 
0.0 0.0 -8.983830653277e-04 
-1.269722602642e-03 2.487508477755e-03 0.0 
2.487508477755e-03 4.199128990551e-03 0.0 
0.0 0.0 -8.736227209573e-04 
-1.046332524412e-03 2.638264182984e-03 0.0 
2.638264182984e-03 3.789437134256e-03 0.0 
0.0 0.0 -8.954616384525e-04 
-9.535589006009e-05 3.192865815352e-03 0.0 
3.192865815352e-03 2.227004452414e-03 0.0 
0.0 0.0 -9.127067050351e-04 
-3.022280285659e-04 2.955332983640e-03 0.0 
2.955332983640e-03 2.491438051520e-03 0.0 
0.0 0.0 -9.307589223859e-04 
2.556968385694e-03 2.345203577048e-03 0.0 
2.345203577048e-03 -8.968266888023e-04 0.0 
0.0 0.0 -7.114892986678e-04 
1.812389688023e-03 1.564451495357e-03 0.0 
1.564451495357e-03 -6.179615212951e-04 0.0 
0.0 0.0 -5.118977857407e-04 
-8.515674767651e-04 -2.308299700533e-03 0.0 
-2.308299700533e-03 3.434983390257e-03 0.0 
0.0 0.0 -1.054912416397e-03 
-1.137266829401e-03 -2.398619768870e-03 0.0 
-2.398619768870e-03 4.055285407119e-03 0.0 
0.0 0.0 -1.045074301760e-03 
3.367977982503e-04 -3.065748121326e-03 0.0 
-3.065748121326e-03 1.429094799845e-03 0.0 
0.0 0.0 -7.568111134693e-04 
-1.629365191565e-03 9.257695161170e-04 0.0 
9.257695161170e-04 7.634439739813e-03 0.0 
0.0 0.0 -1.135109731873e-03 
-1.590870954180e-03 8.599854275843e-04 0.0 
8.599854275843e-04 7.870981141839e-03 0.0 
0.0 0.0 -1.171938512032e-03 
-1.643416432560e-03 4.449926551975e-04 0.0 
4.449926551975e-04 6.296597502974e-03 0.0 
0.0 0.0 -9.065739516476e-04 
-1.602464872442e-03 3.219184720994e-04 0.0 
3.219184720994e-04 6.108782366366e-03 0.0 
0.0 0.0 -8.764137937918e-04 
-2.696764371388e-04 -1.265861831851e-03 0.0 
-1.265861831851e-03 1.411045974668e-03 0.0 
0.0 0.0 -4.842067647502e-04 
-1.400634450087e-04 -1.409834388031e-03 0.0 
-1.409834388031e-03 1.204297259864e-03 0.0 
0.0 0.0 -4.502468535423e-04 
-2.319199994023e-04 -3.122878098546e-03 0.0 
-3.122878098546e-03 2.451044877422e-03 0.0 
0.0 0.0 -9.437206122825e-04 
-7.988578011231e-04 -2.058259969339e-03 0.0 
-2.058259969339e-03 4.234722114073e-03 0.0 
0.0 0.0 -1.127529358476e-03 
-1.669665556383e-03 1.635524756470e-03 0.0 
1.635524756470e-03 7.469407833496e-03 0.0 
0.0 0.0 -1.150095860580e-03 
-1.643068085807e-03 1.857648967737e-03 0.0 
1.857648967737e-03 7.542411325100e-03 0.0 
0.0 0.0 -1.179372829571e-03 
-1.673921977860e-03 1.925750498755e-03 0.0 
1.925750498755e-03 7.258395415596e-03 0.0 
0.0 0.0 -1.143369325255e-03 
-2.014473825755e-04 -1.218765106027e-03 0.0 
-1.218765106027e-03 3.345673547677e-03 0.0 
0.0 0.0 -1.144273392007e-03 
3.110341159347e-03 3.472939405717e-04 0.0 
3.472939405717e-04 -1.445647776500e-03 0.0 
0.0 0.0 -7.134400212203e-04 
1.600864292633e-03 -4.933060105816e-04 0.0 
-4.933060105816e-04 -5.124875882504e-04 0.0 
0.0 0.0 -4.664471590211e-04 
1.395368066446e-03 -9.561308999161e-04 0.0 
-9.561308999161e-04 -1.034414870566e-03 0.0 
0.0 0.0 -1.546942268056e-04 
3.758232775366e-04 3.466607308548e-03 0.0 
3.466607308548e-03 1.708095271688e-03 0.0 
0.0 0.0 -8.625807428358e-04 
-1.387284875597e-04 -1.147843400141e-03 0.0 
-1.147843400141e-03 1.071097091449e-03 0.0 
0.0 0.0 -3.720583479433e-04 
-1.231098641636e-03 3.135190691380e-03 0.0 
3.135190691380e-03 4.944666622865e-03 0.0 
0.0 0.0 -1.010319580236e-03 
-1.984786992954e-03 -8.733459957740e-04 0.0 
-8.733459957740e-04 6.259759611652e-03 0.0 
0.0 0.0 -1.122815839103e-03 
-1.861926426933e-03 -1.095524342960e-03 0.0 
-1.095524342960e-03 6.311220838631e-03 0.0 
0.0 0.0 -1.159213750608e-03 
-1.725327838232e-04 1.829528703914e-03 0.0 
1.829528703914e-03 3.501045676607e-03 0.0 
0.0 0.0 -1.171959308352e-03 
-1.590101240846e-03 1.706978125594e-03 0.0 
1.706978125594e-03 4.660773429978e-03 0.0 
0.0 0.0 -7.960146267056e-04 
5.073336669335e-04 3.214445659709e-03 0.0 
3.214445659709e-03 1.538412133141e-03 0.0 
0.0 0.0 -8.506774374544e-04 
8.851619009454e-04 2.969244090533e-03 0.0 
2.969244090533e-03 8.376787810317e-04 0.0 
0.0 0.0 -7.383602922759e-04 
-1.156062255108e-03 2.301233915827e-03 0.0 
2.301233915827e-03 3.896290621430e-03 0.0 
0.0 0.0 -8.625652443140e-04 
-9.471297243856e-04 2.440002294532e-03 0.0 
2.440002294532e-03 3.517004994648e-03 0.0 
0.0 0.0 -8.875966840820e-04 
-8.066787093543e-04 2.777426977554e-03 0.0 
2.777426977554e-03 3.370899001042e-03 0.0 
0.0 0.0 -9.244972712473e-04 
-7.192390311965e-04 2.566107428446e-03 0.0 
2.566107428446e-03 3.124935059627e-03 0.0 
0.0 0.0 -9.234394568817e-04 
1.009712769882e-03 -2.639627470040e-03 0.0 
-2.639627470040e-03 3.518698063256e-04 0.0 
0.0 0.0 -5.835353898034e-04 
7.225051380104e-04 -2.634694636205e-03 0.0 
-2.634694636205e-03 6.767854285005e-04 0.0 
0.0 0.0 -5.996959570761e-04 
-8.921567267479e-04 3.111111284804e-03 0.0 
3.111111284804e-03 5.059665355678e-03 0.0 
0.0 0.0 -1.192042136895e-03 
-6.099967263224e-04 2.870760626298e-03 0.0 
2.870760626298e-03 4.411064189710e-03 0.0 
0.0 0.0 -1.178660172201e-03 
-1.100042912757e-03 3.200343520554e-03 0.0 
3.200343520554e-03 5.573219155758e-03 0.0 
0.0 0.0 -1.193029175878e-03 
-1.160667669830e-03 3.176739035806e-03 0.0 
3.176739035806e-03 5.649176834465e-03 0.0 
0.0 0.0 -1.168165168231e-03 
-2.521445186915e-04 1.437999620024e-03 0.0 
1.437999620024e-03 3.663538457504e-03 0.0 
0.0 0.0 -1.200910491468e-03 
-1.175265126893e-05 1.083930210957e-03 0.0 
1.083930210957e-03 3.184478001405e-03 0.0 
0.0 0.0 -1.164168769488e-03 
-8.338945190871e-04 -6.899851568111e-04 0.0 
-6.899851568111e-04 2.693161182237e-03 0.0 
0.0 0.0 -7.014880017679e-04 
-2.848117966112e-04 2.692565546894e-03 0.0 
2.692565546894e-03 2.299445011333e-03 0.0 
0.0 0.0 -8.634142348809e-04 
-1.596224494799e-03 1.291320717670e-03 0.0 
1.291320717670e-03 7.883322151599e-03 0.0 
0.0 0.0 -1.194151889699e-03 
-1.353314944435e-03 2.157291733394e-03 0.0 
2.157291733394e-03 4.270289119183e-03 0.0 
0.0 0.0 -8.433929263471e-04 
-9.622501338421e-04 -1.912189492832e-03 0.0 
-1.912189492832e-03 4.776924830183e-03 0.0 
0.0 0.0 -1.192835421428e-03 
-1.026421419571e-03 -2.028541400734e-03 0.0 
-2.028541400734e-03 4.755168212354e-03 0.0 
0.0 0.0 -1.156047193884e-03 
4.478208592864e-04 -3.751585586859e-04 0.0 
-3.751585586859e-04 -4.241673929217e-04 0.0 
0.0 0.0 -1.013719987055e-05 
1.244125017972e-03 -1.917312666705e-03 0.0 
-1.917312666705e-03 -7.538799606522e-04 0.0 
0.0 0.0 -2.101050245656e-04 
-1.537691014338e-03 4.222863431362e-04 0.0 
4.222863431362e-04 8.020533850651e-03 0.0 
0.0 0.0 -1.184588873336e-03 
6.358527835684e-04 2.480430970654e-03 0.0 
2.480430970654e-03 6.941509382628e-04 0.0 
0.0 0.0 -5.700015950705e-04 
4.499471129459e-04 2.458836012126e-03 0.0 
2.458836012126e-03 9.036367217386e-04 0.0 
0.0 0.0 -5.801073577219e-04 
8.196974528425e-04 2.512758387053e-03 0.0 
2.512758387053e-03 5.135885621210e-04 0.0 
0.0 0.0 -5.714082921272e-04 
-1.721775180469e-03 -2.750261499923e-04 0.0 
-2.750261499923e-04 6.955705942823e-03 0.0 
0.0 0.0 -1.258310293365e-03 
-1.440319018305e-03 2.756393348766e-05 0.0 
2.756393348766e-05 5.261443928406e-03 0.0 
0.0 0.0 -7.479256703001e-04 
-1.851935248777e-03 -8.185806621322e-04 0.0 
-8.185806621322e-04 6.555435669483e-03 0.0 
0.0 0.0 -1.189418985649e-03 
-3.624356194934e-04 3.164434027964e-03 0.0 
3.164434027964e-03 2.710514095153e-03 0.0 
0.0 0.0 -9.658202727595e-04 
-1.517819935298e-03 5.689925216528e-04 0.0 
5.689925216528e-04 8.183121975380e-03 0.0 
0.0 0.0 -1.216510697198e-03 
6.201224625516e-04 2.820752531408e-03 0.0 
2.820752531408e-03 1.452084294343e-03 0.0 
0.0 0.0 -8.651011823288e-04 
9.038760669871e-04 3.026845929911e-03 0.0 
3.026845929911e-03 6.793831834175e-04 0.0 
0.0 0.0 -6.785396787449e-04 
8.674105580954e-05 -1.429107710981e-03 0.0 
-1.429107710981e-03 2.679701546003e-03 0.0 
0.0 0.0 -1.078177493492e-03 
-1.550932841916e-03 2.613354928632e-04 0.0 
2.613354928632e-04 7.825402361396e-03 0.0 
0.0 0.0 -1.149140729088e-03 
-1.512659112896e-03 3.422106709257e-04 0.0 
3.422106709257e-04 8.249752470507e-03 0.0 
0.0 0.0 -1.221625961084e-03 
-1.676659295308e-03 6.110344698925e-04 0.0 
6.110344698925e-04 5.968416883272e-03 0.0 
0.0 0.0 -8.638707813346e-04 
-1.641988205188e-03 4.340588364437e-04 0.0 
4.340588364437e-04 5.771155948817e-03 0.0 
0.0 0.0 -8.327709333130e-04 
-1.719162707249e-03 7.708162564075e-04 0.0 
7.708162564075e-04 6.112617701018e-03 0.0 
0.0 0.0 -8.925140200429e-04 
1.977927820577e-03 1.598623588264e-03 0.0 
1.598623588264e-03 -1.019208972965e-03 0.0 
0.0 0.0 -4.108795061196e-04 
1.108521086627e-03 1.458274724011e-03 0.0 
1.458274724011e-03 -6.824978449185e-04 0.0 
0.0 0.0 -1.825813893037e-04 
-1.599533954581e-03 7.014631110784e-04 0.0 
7.014631110784e-04 7.724369133548e-03 0.0 
0.0 0.0 -1.142090266074e-03 
-7.915237200633e-04 -1.416691550801e-03 0.0 
-1.416691550801e-03 2.916147842675e-03 0.0 
0.0 0.0 -8.917970384883e-04 
-9.526528541598e-04 -1.159662932408e-03 0.0 
-1.159662932408e-03 3.237497577102e-03 0.0 
0.0 0.0 -9.066540859529e-04 
1.679025679155e-04 -2.197795369639e-03 0.0 
-2.197795369639e-03 1.134113528401e-03 0.0 
0.0 0.0 -5.580068984213e-04 
1.993437938488e-04 -2.372930192997e-03 0.0 
-2.372930192997e-03 1.192906332053e-03 0.0 
0.0 0.0 -5.966786253865e-04 
-1.011942446972e-03 -2.270969963916e-03 0.0 
-2.270969963916e-03 3.766401779748e-03 0.0 
0.0 0.0 -1.058899862332e-03 
-7.573046355122e-04 -2.581800115454e-03 0.0 
-2.581800115454e-03 3.322201121737e-03 0.0 
0.0 0.0 -1.050266080739e-03 
-1.095827954621e-03 3.216069521876e-03 0.0 
3.216069521876e-03 4.826499025112e-03 0.0 
0.0 0.0 -1.038692069610e-03 
-1.234301998555e-03 3.107456630916e-03 0.0 
3.107456630916e-03 5.310904523361e-03 0.0 
0.0 0.0 -1.074129358999e-03 
-7.180889207275e-04 3.499463535137e-03 0.0 
3.499463535137e-03 3.763199671929e-03 0.0 
0.0 0.0 -9.722238801078e-04 
6.053063119579e-04 -2.030268547273e-03 0.0 
-2.030268547273e-03 1.237774920504e-03 0.0 
0.0 0.0 -7.898919567692e-04 
8.551862749054e-04 -2.258528060602e-03 0.0 
-2.258528060602e-03 5.423122765455e-04 0.0 
0.0 0.0 -5.989279506218e-04 
1.198969096751e-03 -1.716835984739e-03 0.0 
-1.716835984739e-03 -1.728528183354e-05 0.0 
0.0 0.0 -5.064359206787e-04 
-1.578160803348e-03 1.029909350069e-03 0.0 
1.029909350069e-03 7.988225935028e-03 0.0 
0.0 0.0 -1.199867006878e-03 
-1.525066789097e-03 9.716746199443e-04 0.0 
9.716746199443e-04 8.273760627129e-03 0.0 
0.0 0.0 -1.242728214876e-03 
1.321351467926e-03 -2.568351524438e-03 0.0 
-2.568351524438e-03 -2.315153931335e-07 0.0 
0.0 0.0 -5.661942653711e-04 
1.809254267051e-03 -2.583366555036e-03 0.0 
-2.583366555036e-03 -4.342692756295e-04 0.0 
0.0 0.0 -5.892792820379e-04 
6.921033763950e-04 -2.656898720389e-03 0.0 
-2.656898720389e-03 7.465441525006e-04 0.0 
0.0 0.0 -6.165632266696e-04 
-1.574485567314e-03 1.499311237931e-03 0.0 
1.499311237931e-03 7.988348182121e-03 0.0 
0.0 0.0 -1.223056365294e-03 
-1.741572698048e-03 -1.051965994170e-03 0.0 
-1.051965994170e-03 6.624165410999e-03 0.0 
0.0 0.0 -1.224004481682e-03 
-1.735235085971e-03 -1.304001527318e-03 0.0 
-1.304001527318e-03 6.344789461694e-03 0.0 
0.0 0.0 -1.195820777905e-03 
-2.679240954609e-05 -1.257927253223e-03 0.0 
-1.257927253223e-03 9.029103496679e-04 0.0 
0.0 0.0 -3.450663815859e-04 
-3.035170911774e-06 -1.579137764012e-03 0.0 
-1.579137764012e-03 1.039327180488e-03 0.0 
0.0 0.0 -4.410249086127e-04 
1.155100538592e-03 2.631364371344e-03 0.0 
2.631364371344e-03 1.868470155697e-04 0.0 
0.0 0.0 -5.751203803551e-04 
1.215808673203e-03 2.544029937651e-03 0.0 
2.544029937651e-03 -5.958635491021e-05 0.0 
0.0 0.0 -4.955238506970e-04 
-1.603953202991e-03 2.084851501461e-03 0.0 
2.084851501461e-03 7.579130278610e-03 0.0 
0.0 0.0 -1.207258722210e-03 
-1.637778905667e-03 2.162652518366e-03 0.0 
2.162652518366e-03 7.304299819900e-03 0.0 
0.0 0.0 -1.172631524865e-03 
-1.556077565275e-03 2.029656444368e-03 0.0 
2.029656444368e-03 7.905393318382e-03 0.0 
0.0 0.0 -1.247471551777e-03 
-8.078621275666e-04 -3.743686463011e-04 0.0 
-3.743686463011e-04 2.476609172107e-03 0.0 
0.0 0.0 -5.753817989848e-04 
1.173818397494e-04 2.725852523849e-03 0.0 
2.725852523849e-03 2.691650762888e-03 0.0 
0.0 0.0 -1.045322365442e-03 
-5.040778805934e-04 -1.070896588493e-03 0.0 
-1.070896588493e-03 3.980562278462e-03 0.0 
0.0 0.0 -1.207899217314e-03 
-2.520428194526e-04 -7.965635153337e-04 0.0 
-7.965635153337e-04 3.542662319704e-03 0.0 
0.0 0.0 -1.178012378629e-03 
-7.711086010594e-04 -1.329041706335e-03 0.0 
-1.329041706335e-03 4.567355749165e-03 0.0 
0.0 0.0 -1.244624083072e-03 
-1.223572839919e-04 2.186752793674e-03 0.0 
2.186752793674e-03 3.375840631155e-03 0.0 
0.0 0.0 -1.142102124289e-03 
-4.435966474857e-04 2.091597596222e-03 0.0 
2.091597596222e-03 3.997165180884e-03 0.0 
0.0 0.0 -1.205428683694e-03 
-6.295415077105e-04 2.617745388046e-03 0.0 
2.617745388046e-03 4.421095216534e-03 0.0 
0.0 0.0 -1.209323031234e-03 
8.913702169857e-05 -5.356610077544e-06 0.0 
-5.356610077544e-06 -8.913702169857e-05 0.0 
0.0 0.0 0.0 
-1.516551893121e-03 1.931531950452e-04 0.0 
1.931531950452e-04 8.105824831205e-03 0.0 
0.0 0.0 -1.199992767657e-03 
-1.600603275175e-03 3.197306060267e-04 0.0 
3.197306060267e-04 5.842030124630e-03 0.0 
0.0 0.0 -8.371571859873e-04 
0.0 0.0 0.0 
0.0 0.0 0.0 
0.0 0.0 0.0 
-1.547068004807e-03 2.255592860515e-04 0.0 
2.255592860515e-04 5.653808019545e-03 0.0 
0.0 0.0 -8.070151920887e-04 
-1.566358775821e-03 2.266234695203e-04 0.0 
2.266234695203e-04 5.919104175052e-03 0.0 
0.0 0.0 -8.451615393777e-04 
-1.505853756260e-03 1.425564258005e-04 0.0 
1.425564258005e-04 5.404792730384e-03 0.0 
0.0 0.0 -7.748096441827e-04 
-6.628775469822e-04 -3.015658585898e-04 0.0 
-3.015658585898e-04 2.010090265861e-03 0.0 
0.0 0.0 -4.206613647546e-04 
-1.675398106948e-03 5.868598101642e-04 0.0 
5.868598101642e-04 5.623434088204e-03 0.0 
0.0 0.0 -8.174106193842e-04 
-1.726757844430e-03 7.924650127462e-04 0.0 
7.924650127462e-04 5.855419414792e-03 0.0 
0.0 0.0 -8.556612431672e-04 
8.558548932515e-05 -1.128009013281e-03 0.0 
-1.128009013281e-03 6.309628739441e-04 0.0 
0.0 0.0 -2.713320700168e-04 
-1.513004436039e-03 1.420623121839e-03 0.0 
1.420623121839e-03 8.214217499082e-03 0.0 
0.0 0.0 -1.259301554906e-03 
1.749391661274e-04 -1.082733169331e-03 0.0 
-1.082733169331e-03 5.892299780132e-04 0.0 
0.0 0.0 -2.441793916413e-04 
1.147662153238e-04 -1.066745943300e-03 0.0 
-1.066745943300e-03 7.910181080930e-04 0.0 
0.0 0.0 -2.872885922025e-04 
-1.122672355991e-03 -1.921241529141e-03 0.0 
-1.921241529141e-03 5.266335920734e-03 0.0 
0.0 0.0 -1.221214701962e-03 
-1.203549749022e-03 -1.976762786956e-03 0.0 
-1.976762786956e-03 5.228557791274e-03 0.0 
0.0 0.0 -1.184344882880e-03 
-1.271935696370e-03 -1.932492998885e-03 0.0 
-1.932492998885e-03 5.682500405781e-03 0.0 
0.0 0.0 -1.247726601234e-03 
-1.345935677545e-03 -1.879180138911e-03 0.0 
-1.879180138911e-03 5.631962343118e-03 0.0 
0.0 0.0 -1.211018817991e-03 
-1.319489507466e-03 -1.996946989352e-03 0.0 
-1.996946989352e-03 5.223869660522e-03 0.0 
0.0 0.0 -1.147066289601e-03 
-1.457152980048e-03 -1.833275450520e-03 0.0 
-1.833275450520e-03 5.658001904065e-03 0.0 
0.0 0.0 -1.176490610025e-03 
-1.598701855115e-03 3.112456463076e-04 0.0 
3.112456463076e-04 5.594187128056e-03 0.0 
0.0 0.0 -7.985989294648e-04 
-1.425017338431e-03 -1.793987580484e-03 0.0 
-1.793987580484e-03 6.077694866820e-03 0.0 
0.0 0.0 -1.249018369598e-03 
-1.544794874514e-03 -1.654652183582e-03 0.0 
-1.654652183582e-03 6.043342076509e-03 0.0 
0.0 0.0 -1.207442871744e-03 
-1.490747382805e-03 -1.688185045970e-03 0.0 
-1.688185045970e-03 6.481641932430e-03 0.0 
0.0 0.0 -1.277927415301e-03 
-8.701201880038e-04 2.189049665711e-03 0.0 
2.189049665711e-03 3.268695103799e-03 0.0 
0.0 0.0 -8.722607330507e-04 
5.310970710450e-04 2.630450444314e-03 0.0 
2.630450444314e-03 9.000089298474e-04 0.0 
0.0 0.0 -6.133311432396e-04 
2.617133158352e-04 2.476764240616e-03 0.0 
2.476764240616e-03 1.164640329384e-03 0.0 
0.0 0.0 -6.112944193795e-04 
1.728571300418e-04 2.227493690469e-03 0.0 
2.227493690469e-03 1.142483149507e-03 0.0 
0.0 0.0 -5.637172626637e-04 
-1.229541831672e-03 3.263680413163e-03 0.0 
3.263680413163e-03 6.138633277811e-03 0.0 
0.0 0.0 -1.240180566941e-03 
-1.276361500880e-03 3.187291024850e-03 0.0 
3.187291024850e-03 6.099399323178e-03 0.0 
0.0 0.0 -1.200590015451e-03 
-2.088598425736e-03 -6.246367196868e-04 0.0 
-6.246367196868e-04 6.194373546362e-03 0.0 
0.0 0.0 -1.090180627845e-03 
-2.041663287848e-03 -6.617363893855e-04 0.0 
-6.617363893855e-04 5.852171557009e-03 0.0 
0.0 0.0 -1.067141795818e-03 
-1.532469855713e-03 1.525337910669e-04 0.0 
1.525337910669e-04 5.692847008020e-03 0.0 
0.0 0.0 -8.108182148135e-04 
-1.511312180107e-03 9.255618039040e-05 0.0 
9.255618039040e-05 5.666580148835e-03 0.0 
0.0 0.0 -8.077352941366e-04 
-1.560488436606e-03 1.911238081195e-04 0.0 
1.911238081195e-04 6.070956180256e-03 0.0 
0.0 0.0 -8.678526801547e-04 
-1.544526745633e-03 1.030985674976e-04 0.0 
1.030985674976e-04 6.005801825662e-03 0.0 
0.0 0.0 -8.609153521579e-04 
-1.580530064686e-03 1.945628071657e-04 0.0 
1.945628071657e-04 6.420611350931e-03 0.0 
0.0 0.0 -9.200517378055e-04 
-1.559403933791e-03 8.887484367551e-05 0.0 
8.887484367551e-05 6.359767284502e-03 0.0 
0.0 0.0 -9.108947733944e-04 
-1.583263469338e-03 1.334252269549e-04 0.0 
1.334252269549e-04 6.753346818615e-03 0.0 
0.0 0.0 -9.726914458129e-04 
-8.669769815257e-04 2.889098903744e-03 0.0 
2.889098903744e-03 5.024560399167e-03 0.0 
0.0 0.0 -1.245087786853e-03 
4.982055672495e-04 2.293020821825e-03 0.0 
2.293020821825e-03 7.508210362061e-04 0.0 
0.0 0.0 -5.352971157667e-04 
-1.245162061090e-03 1.941632408908e-03 0.0 
1.941632408908e-03 3.965163190857e-03 0.0 
0.0 0.0 -8.237883836899e-04 
-3.879507205886e-04 1.027612391922e-03 0.0 
1.027612391922e-03 3.877749242080e-03 0.0 
0.0 0.0 -1.228261380050e-03 
-1.475502455479e-04 6.710535629733e-04 0.0 
6.710535629733e-04 3.400758398957e-03 0.0 
0.0 0.0 -1.187396807988e-03 
-4.877113708209e-04 2.653909423409e-03 0.0 
2.653909423409e-03 2.711925927626e-03 0.0 
0.0 0.0 -9.301491777014e-04 
-4.673273112926e-04 2.354591855457e-03 0.0 
2.354591855457e-03 2.518811343451e-03 0.0 
0.0 0.0 -8.783714799336e-04 
-9.656459474725e-04 -1.750454010380e-03 0.0 
-1.750454010380e-03 4.960948450779e-03 0.0 
0.0 0.0 -1.238794375355e-03 
1.773029984471e-03 2.918628512030e-03 0.0 
2.918628512030e-03 -2.405794798709e-04 0.0 
0.0 0.0 -6.567645019713e-04 
-1.474754496101e-03 1.652724927503e-03 0.0 
1.652724927503e-03 8.365646577830e-03 0.0 
0.0 0.0 -1.295459716840e-03 
0.0 0.0 0.0 
0.0 0.0 0.0 
0.0 0.0 0.0 
1.498393906149e-04 3.022053957605e-04 0.0 
3.022053957605e-04 -1.163750170629e-04 0.0 
0.0 0.0 -1.434187437942e-05 
1.327025876230e-03 3.010605488358e-03 0.0 
3.010605488358e-03 1.473338213913e-04 0.0 
0.0 0.0 -6.318684418375e-04 
-5.499021132442e-04 2.888144921732e-03 0.0 
2.888144921732e-03 2.938437648155e-03 0.0 
0.0 0.0 -9.558721723632e-04 
3.323415439528e-04 2.743520330787e-03 0.0 
2.743520330787e-03 1.229329144075e-03 0.0 
0.0 0.0 -6.692874377263e-04 
9.209566797494e-05 2.604630668434e-03 0.0 
2.604630668434e-03 1.511290340994e-03 0.0 
0.0 0.0 -6.871654324154e-04 
3.645468755337e-04 -1.692092076938e-03 0.0 
-1.692092076938e-03 1.976975662064e-03 0.0 
0.0 0.0 -9.759998253719e-04 
1.091376312940e-04 -1.700138468344e-03 0.0 
-1.700138468344e-03 9.084482070208e-04 0.0 
0.0 0.0 -4.293607968937e-04 
9.860679807434e-04 2.546469046220e-03 0.0 
2.546469046220e-03 3.575313038065e-04 0.0 
0.0 0.0 -5.758282648071e-04 
-1.592993118431e-03 2.731466696240e-04 0.0 
2.731466696240e-04 6.800272037187e-03 0.0 
0.0 0.0 -9.796923013958e-04 
6.911227834126e-04 2.251046992259e-03 0.0 
2.251046992259e-03 5.130124139505e-04 0.0 
0.0 0.0 -5.160579417270e-04 
-2.121618955622e-03 -3.224058753556e-04 0.0 
-3.224058753556e-04 6.099005119318e-03 0.0 
0.0 0.0 -1.073807358551e-03 
2.201373567652e-03 2.690698738968e-03 0.0 
2.690698738968e-03 -6.091920316776e-04 0.0 
0.0 0.0 -6.823635154174e-04 
-1.638384935320e-04 3.372316730358e-03 0.0 
3.372316730358e-03 2.445531910937e-03 0.0 
0.0 0.0 -9.519839029876e-04 
1.275974649949e-03 2.775715452302e-03 0.0 
2.775715452302e-03 1.801999389927e-04 0.0 
0.0 0.0 -6.240748238320e-04 
8.350192799097e-04 2.727176630851e-03 0.0 
2.727176630851e-03 5.820764688072e-04 0.0 
0.0 0.0 -6.073267494501e-04 
-1.574296698924e-03 2.484580816168e-03 0.0 
2.484580816168e-03 4.927078130058e-03 0.0 
0.0 0.0 -8.786961992330e-04 
-1.699341285066e-03 1.882952510091e-03 0.0 
1.882952510091e-03 5.001649373791e-03 0.0 
0.0 0.0 -8.239340753773e-04 
-1.544077067517e-03 2.021174845409e-03 0.0 
2.021174845409e-03 4.648313902463e-03 0.0 
0.0 0.0 -8.287327148421e-04 
2.547623254183e-03 2.268646563305e-03 0.0 
2.268646563305e-03 -9.255766277510e-04 0.0 
0.0 0.0 -6.951628398994e-04 
-9.793607364304e-05 2.680641002234e-03 0.0 
2.680641002234e-03 1.905972935152e-03 0.0 
0.0 0.0 -7.748729406467e-04 
-1.401926105552e-04 2.272349151151e-03 0.0 
2.272349151151e-03 1.732062029039e-03 0.0 
0.0 0.0 -6.822297507788e-04 
-1.042335079289e-03 3.085608632330e-03 0.0 
3.085608632330e-03 3.939330989580e-03 0.0 
0.0 0.0 -9.170298757010e-04 
-1.694312562690e-03 2.003906122110e-03 0.0 
2.003906122110e-03 6.960974899569e-03 0.0 
0.0 0.0 -1.107475121065e-03 
-1.654341182746e-03 2.234400658440e-03 0.0 
2.234400658440e-03 6.989596744706e-03 0.0 
0.0 0.0 -1.136341617999e-03 
-1.591073595122e-03 2.379952355984e-03 0.0 
2.379952355984e-03 7.311228899108e-03 0.0 
0.0 0.0 -1.199268560344e-03 
-1.606550985090e-03 2.450965261895e-03 0.0 
2.450965261895e-03 7.002228799418e-03 0.0 
0.0 0.0 -1.164598082371e-03 
-1.654615127137e-03 2.306554865062e-03 0.0 
2.306554865062e-03 6.662432923767e-03 0.0 
0.0 0.0 -1.100413285504e-03 
-1.595489437176e-03 2.513437590904e-03 0.0 
2.513437590904e-03 6.653696588520e-03 0.0 
0.0 0.0 -1.129075729544e-03 
-1.546389988990e-03 2.664193302564e-03 0.0 
2.664193302564e-03 6.994860909819e-03 0.0 
0.0 0.0 -1.193594387005e-03 
-1.524710140769e-03 2.725114460972e-03 0.0 
2.725114460972e-03 6.640657221836e-03 0.0 
0.0 0.0 -1.159256375294e-03 
-1.483453285402e-03 2.879360167952e-03 0.0 
2.879360167952e-03 7.061959584516e-03 0.0 
0.0 0.0 -1.234286862126e-03 
-1.459335345335e-03 2.896614314087e-03 0.0 
2.896614314087e-03 6.597331098230e-03 0.0 
0.0 0.0 -1.187309181180e-03 
-1.487240193726e-03 2.797813669470e-03 0.0 
2.797813669470e-03 6.237817525026e-03 0.0 
0.0 0.0 -1.120864512401e-03 
-1.416348664038e-03 2.952147323061e-03 0.0 
2.952147323061e-03 6.179572228468e-03 0.0 
0.0 0.0 -1.147759711419e-03 
-1.401702611885e-03 3.058403427338e-03 0.0 
3.058403427338e-03 6.528924407833e-03 0.0 
0.0 0.0 -1.207767947030e-03 
-1.429554607918e-03 2.882577101757e-03 0.0 
2.882577101757e-03 5.825437132677e-03 0.0 
0.0 0.0 -1.082593982084e-03 
-6.657140394303e-04 1.410986986977e-03 0.0 
1.410986986977e-03 4.342280522210e-03 0.0 
0.0 0.0 -1.264544343569e-03 
1.285034861164e-03 3.046453072889e-03 0.0 
3.046453072889e-03 2.156214386420e-04 0.0 
0.0 0.0 -6.431384142027e-04 
3.221685064304e-04 2.100220635338e-04 0.0 
2.100220635338e-04 -3.125792772457e-04 0.0 
0.0 0.0 -4.109669650583e-06 
7.277286052914e-04 1.662264959666e-03 0.0 
1.662264959666e-03 -4.217765524128e-04 0.0 
0.0 0.0 -1.311223083766e-04 
-4.639929809661e-04 3.327821869830e-03 0.0 
3.327821869830e-03 2.959449472573e-03 0.0 
0.0 0.0 -9.691543639280e-04 
-1.437907230863e-03 2.996700486661e-03 0.0 
2.996700486661e-03 7.518201304671e-03 0.0 
0.0 0.0 -1.299806302097e-03 
-1.466395687024e-03 2.621641971218e-03 0.0 
2.621641971218e-03 7.881651097987e-03 0.0 
0.0 0.0 -1.301753673823e-03 
2.487482228611e-03 2.475720953215e-03 0.0 
2.475720953215e-03 -8.077451105291e-04 0.0 
0.0 0.0 -7.198873363210e-04 
-1.280305576935e-03 3.404019922885e-03 0.0 
3.404019922885e-03 6.453749912264e-03 0.0 
0.0 0.0 -1.303413959896e-03 
-1.478986277362e-03 2.335815426712e-03 0.0 
2.335815426712e-03 4.599949913439e-03 0.0 
0.0 0.0 -8.572908036711e-04 
2.443469762099e-03 1.504212848516e-03 0.0 
1.504212848516e-03 -1.149517681368e-03 0.0 
0.0 0.0 -5.545508917418e-04 
-1.188451958700e-03 3.233888318984e-03 0.0 
3.233888318984e-03 5.957074391346e-03 0.0 
0.0 0.0 -1.304286792737e-03 
-1.700650587437e-03 2.084768146748e-03 0.0 
2.084768146748e-03 6.648225866754e-03 0.0 
0.0 0.0 -1.071440646998e-03 
-1.693986595116e-03 2.166002580174e-03 0.0 
2.166002580174e-03 6.318613390721e-03 0.0 
0.0 0.0 -1.034857077839e-03 
-1.735485188954e-03 1.934897306350e-03 0.0 
1.934897306350e-03 6.303939504401e-03 0.0 
0.0 0.0 -1.006057961993e-03 
-1.460757887231e-03 2.250687193900e-03 0.0 
2.250687193900e-03 8.134933915156e-03 0.0 
0.0 0.0 -1.305867370806e-03 
-1.749991994699e-03 9.588049142227e-04 0.0 
9.588049142227e-04 6.254499179949e-03 0.0 
0.0 0.0 -9.232948652302e-04 
-1.017747060708e-03 2.242049910193e-03 0.0 
2.242049910193e-03 5.131073367086e-03 0.0 
0.0 0.0 -1.306016332489e-03 
1.333415972402e-03 1.535387923333e-03 0.0 
1.535387923333e-03 1.136937242501e-04 0.0 
0.0 0.0 -6.201898699939e-04 
1.391903311676e-03 2.154011180947e-03 0.0 
2.154011180947e-03 1.151631227136e-05 0.0 
0.0 0.0 -6.014655531204e-04 
1.815463505361e-03 2.115453371163e-03 0.0 
2.115453371163e-03 -5.458577548768e-04 0.0 
0.0 0.0 -5.441167502075e-04 
-1.566214445404e-03 2.595986134179e-03 0.0 
2.595986134179e-03 6.282321888988e-03 0.0 
0.0 0.0 -1.092245366321e-03 
-9.205735445318e-04 4.808338680360e-04 0.0 
4.808338680360e-04 4.693547071086e-03 0.0 
0.0 0.0 -1.302677999426e-03 
-5.441937307524e-04 1.925192123183e-04 0.0 
1.925192123183e-04 4.093065944914e-03 0.0 
0.0 0.0 -1.248400714067e-03 
-5.696920249624e-04 -2.362618994637e-04 0.0 
-2.362618994637e-04 4.138723512730e-03 0.0 
0.0 0.0 -1.248426544684e-03 
-2.031241474020e-04 -7.328110519664e-05 0.0 
-7.328110519664e-05 3.471353297543e-03 0.0 
0.0 0.0 -1.189114855724e-03 
-9.524782035086e-04 -4.338690848369e-04 0.0 
-4.338690848369e-04 4.786583626593e-03 0.0 
0.0 0.0 -1.303398793257e-03 
-1.386313891139e-03 3.268387124946e-03 0.0 
3.268387124946e-03 7.156994535034e-03 0.0 
0.0 0.0 -1.306665994082e-03 
-1.359095365040e-03 3.359352166101e-03 0.0 
3.359352166101e-03 6.950855487648e-03 0.0 
0.0 0.0 -1.308500709484e-03 
1.902852668699e-03 -2.817268794694e-03 0.0 
-2.817268794694e-03 -4.032967653229e-04 0.0 
0.0 0.0 -6.426668157327e-04 
2.253407391376e-03 -2.370679650838e-03 0.0 
-2.370679650838e-03 -7.551607023087e-04 0.0 
0.0 0.0 -6.421057238860e-04 
2.152188401618e-03 -2.215932361183e-03 0.0 
-2.215932361183e-03 -7.648493634962e-04 0.0 
0.0 0.0 -5.945738734806e-04 
2.568498674833e-03 -1.800335482077e-03 0.0 
-1.800335482077e-03 -1.054151680982e-03 0.0 
0.0 0.0 -6.490058545078e-04 
2.589267859695e-03 -1.939320893250e-03 0.0 
-1.939320893250e-03 -1.034701238564e-03 0.0 
0.0 0.0 -6.662428376277e-04 
2.845251393852e-03 -1.182488936622e-03 0.0 
-1.182488936622e-03 -1.266140625123e-03 0.0 
0.0 0.0 -6.767617580267e-04 
2.841382791890e-03 -1.149550775431e-03 0.0 
-1.149550775431e-03 -1.284812658761e-03 0.0 
0.0 0.0 -6.671014856266e-04 
2.966198092938e-03 -3.987988764167e-04 0.0 
-3.987988764167e-04 -1.382086548665e-03 0.0 
0.0 0.0 -6.789049475453e-04 
-1.248651035025e-03 3.111213554981e-03 0.0 
3.111213554981e-03 5.700369437698e-03 0.0 
0.0 0.0 -1.138512926666e-03 
-1.048382069547e-03 -1.181351894960e-03 0.0 
-1.181351894960e-03 5.065835417687e-03 0.0 
0.0 0.0 -1.305779161548e-03 
4.789526992596e-05 -3.017317976477e-03 0.0 
-3.017317976477e-03 1.955725826502e-03 0.0 
0.0 0.0 -8.490207048509e-04 
4.255875009583e-04 -2.891330549410e-03 0.0 
-2.891330549410e-03 1.272940405536e-03 0.0 
0.0 0.0 -7.279405313547e-04 
7.016485745697e-04 -2.791230812805e-03 0.0 
-2.791230812805e-03 8.160956132734e-04 0.0 
0.0 0.0 -6.504617947899e-04 
-6.090620729236e-04 -2.591660670729e-03 0.0 
-2.591660670729e-03 2.996920806010e-03 0.0 
0.0 0.0 -1.013136008453e-03 
-4.847718747428e-04 -2.835802633982e-03 0.0 
-2.835802633982e-03 2.833935359093e-03 0.0 
0.0 0.0 -9.978061834832e-04 
-6.569091499038e-04 -2.799289725008e-03 0.0 
-2.799289725008e-03 3.183472627718e-03 0.0 
0.0 0.0 -1.035689958333e-03 
-7.207313198164e-04 -2.290250490495e-03 0.0 
-2.290250490495e-03 3.125345330795e-03 0.0 
0.0 0.0 -1.018322119518e-03 
-1.167877884792e-04 3.342094439232e-03 0.0 
3.342094439232e-03 2.837618912037e-03 0.0 
0.0 0.0 -9.882323209451e-04 
-1.091898030697e-03 -1.486850666943e-03 0.0 
-1.486850666943e-03 5.227315460995e-03 0.0 
0.0 0.0 -1.305003056577e-03 
1.225364256890e-03 -1.147615656396e-03 0.0 
-1.147615656396e-03 3.835923769498e-05 0.0 
0.0 0.0 -5.415957833937e-04 
-1.980397502487e-04 -3.005905727183e-03 0.0 
-3.005905727183e-03 2.314319347710e-03 0.0 
0.0 0.0 -9.069769703405e-04 
-1.707142071172e-03 7.635271864477e-04 0.0 
7.635271864477e-04 5.127553643252e-03 0.0 
0.0 0.0 -7.516786372745e-04 
-1.746908817975e-03 1.023609105839e-03 0.0 
1.023609105839e-03 5.442206395915e-03 0.0 
0.0 0.0 -8.094822736869e-04 
-1.772933357879e-03 1.184262300292e-03 0.0 
1.184262300292e-03 5.385289162601e-03 0.0 
0.0 0.0 -8.097394517040e-04 
-1.768350599280e-03 1.251073624371e-03 0.0 
1.251073624371e-03 5.764313646979e-03 0.0 
0.0 0.0 -8.733121467894e-04 
-1.727990335715e-03 8.210495884293e-04 0.0 
8.210495884293e-04 5.545557871090e-03 0.0 
0.0 0.0 -8.155917408702e-04 
-1.236784994223e-03 -1.923322638249e-03 0.0 
-1.923322638249e-03 4.168389852977e-03 0.0 
0.0 0.0 -1.057296815204e-03 
-1.427088068768e-03 -1.555275096953e-03 0.0 
-1.555275096953e-03 4.526520888732e-03 0.0 
0.0 0.0 -1.060211733922e-03 
-1.439309846138e-03 -1.245667555875e-03 0.0 
-1.245667555875e-03 4.501167157264e-03 0.0 
0.0 0.0 -1.053704044192e-03 
-1.586214255689e-03 -1.181249332069e-03 0.0 
-1.181249332069e-03 4.840144294026e-03 0.0 
0.0 0.0 -1.064485974018e-03 
-1.568580492753e-03 -8.807724015312e-04 0.0 
-8.807724015312e-04 4.760936091880e-03 0.0 
0.0 0.0 -1.058069710598e-03 
-1.437909822652e-03 -9.389915626686e-04 0.0 
-9.389915626686e-04 4.447516747931e-03 0.0 
0.0 0.0 -1.040756414728e-03 
-1.718221607956e-03 -8.006521433412e-04 0.0 
-8.006521433412e-04 5.111220650433e-03 0.0 
0.0 0.0 -1.068385751750e-03 
-1.669418493281e-03 -5.082865991109e-04 0.0 
-5.082865991109e-04 4.972394175886e-03 0.0 
0.0 0.0 -1.061946884890e-03 
-1.641647603362e-03 4.850166825857e-04 0.0 
4.850166825857e-04 5.202247326036e-03 0.0 
0.0 0.0 -7.509531518293e-04 
4.681733094658e-05 -5.816533838581e-04 0.0 
-5.816533838581e-04 9.454411860111e-05 0.0 
0.0 0.0 -6.058347837758e-05 
4.397814964137e-04 -2.157349287924e-03 0.0 
-2.157349287924e-03 4.211423268834e-04 0.0 
0.0 0.0 -3.689673528416e-04 
3.155046189534e-04 -2.027375098909e-03 0.0 
-2.027375098909e-03 7.742453397045e-04 0.0 
0.0 0.0 -4.670356965677e-04 
8.520514226530e-04 -2.864865723911e-03 0.0 
-2.864865723911e-03 5.535726049248e-04 0.0 
0.0 0.0 -6.024102975334e-04 
1.107532573262e-03 -2.675867926973e-03 0.0 
-2.675867926973e-03 -1.282410957994e-04 0.0 
0.0 0.0 -4.196963474839e-04 
1.414391538560e-03 -3.037597772400e-03 0.0 
-3.037597772400e-03 4.732794591136e-06 0.0 
0.0 0.0 -6.081961427792e-04 
1.798568626031e-03 -2.807561227883e-03 0.0 
-2.807561227883e-03 -5.963916264621e-04 0.0 
0.0 0.0 -5.152187141009e-04 
4.798167785024e-04 -1.487535536050e-03 0.0 
-1.487535536050e-03 -2.160815451901e-04 0.0 
0.0 0.0 -1.130293857052e-04 
1.221925142391e-04 -6.477447924089e-04 0.0 
-6.477447924089e-04 3.263707583015e-04 0.0 
0.0 0.0 -1.721226713898e-04 
1.600896537738e-04 -1.547795297662e-03 0.0 
-1.547795297662e-03 7.330764534416e-04 0.0 
0.0 0.0 -3.827854745209e-04 
1.103966075786e-04 -5.622367864216e-04 0.0 
-5.622367864216e-04 3.103757836854e-04 0.0 
0.0 0.0 -1.517934084529e-04 
1.053013884946e-04 -1.323791722729e-03 0.0 
-1.323791722729e-03 6.739471651028e-04 0.0 
0.0 0.0 -3.339636658274e-04 
3.430982234410e-04 -2.178085181117e-03 0.0 
-2.178085181117e-03 8.728126235658e-04 0.0 
0.0 0.0 -5.211046487172e-04 
-1.935346954464e-05 -1.828430160185e-03 0.0 
-1.828430160185e-03 1.220825087692e-03 0.0 
0.0 0.0 -5.149164077774e-04 
-1.561183168720e-03 -1.084347523387e-03 0.0 
-1.084347523387e-03 6.914233553436e-03 0.0 
0.0 0.0 -1.294874803588e-03 
-1.312931512090e-03 -3.406360319044e-04 0.0 
-3.406360319044e-04 4.053324067572e-03 0.0 
0.0 0.0 -9.806349194848e-04 
-1.232619789514e-03 -6.513903715833e-04 0.0 
-6.513903715833e-04 3.864959534980e-03 0.0 
0.0 0.0 -9.593735700280e-04 
-1.113036939270e-03 -6.004263507847e-04 0.0 
-6.004263507847e-04 3.522372894904e-03 0.0 
0.0 0.0 -8.977078860960e-04 
-1.116965318077e-03 -9.982255990531e-04 0.0 
-9.982255990531e-04 3.625196753216e-03 0.0 
0.0 0.0 -9.469176294500e-04 
-1.332244483269e-03 -6.509527714259e-04 0.0 
-6.509527714259e-04 4.142116544653e-03 0.0 
0.0 0.0 -1.006312639172e-03 
-1.080865388107e-03 -2.755367266220e-04 0.0 
-2.755367266220e-04 3.371661966390e-03 0.0 
0.0 0.0 -8.426599334973e-04 
-1.024104142748e-03 -5.302931597588e-04 0.0 
-5.302931597588e-04 3.225767958481e-03 0.0 
0.0 0.0 -8.124903673991e-04 
2.119334771273e-03 -2.250984394130e-04 0.0 
-2.250984394130e-04 -5.528535054759e-04 0.0 
0.0 0.0 -1.954030217304e-04 
1.237953986699e-03 -2.579545419294e-04 0.0 
-2.579545419294e-04 1.543244489082e-04 0.0 
0.0 0.0 -2.932658944931e-04 
1.411332111426e-03 -2.759944625030e-05 0.0 
-2.759944625030e-05 3.743876493098e-05 0.0 
0.0 0.0 -2.856593951198e-04 
3.600465984566e-04 -2.066499797985e-04 0.0 
-2.066499797985e-04 8.608267290585e-04 0.0 
0.0 0.0 -3.080440922735e-04 
3.653305054747e-04 -3.597145395908e-04 0.0 
-3.597145395908e-04 8.532226922973e-04 0.0 
0.0 0.0 -3.086108473030e-04 
1.169231949576e-03 -3.840093619394e-04 0.0 
-3.840093619394e-04 1.923594400946e-04 0.0 
0.0 0.0 -2.956379591255e-04 
1.031256041784e-03 -4.886047117192e-04 0.0 
-4.886047117192e-04 2.379226924498e-04 0.0 
0.0 0.0 -2.908089562448e-04 
1.816529586793e-03 -3.500151260859e-04 0.0 
-3.500151260859e-04 -4.323507490206e-04 0.0 
0.0 0.0 -1.958374107737e-04 
8.667756449627e-04 -6.409008792115e-04 0.0 
-6.409008792115e-04 2.928477416533e-04 0.0 
0.0 0.0 -2.796976375194e-04 
1.702636575089e-04 -6.542409432277e-04 0.0 
-6.542409432277e-04 9.095668014512e-04 0.0 
0.0 0.0 -3.106791268491e-04 
1.620102908946e-03 -4.500577592913e-04 0.0 
-4.500577592913e-04 -3.726586433767e-04 0.0 
0.0 0.0 -1.892091717599e-04 
-1.577535716708e-03 5.392394720966e-05 0.0 
5.392394720966e-05 7.299934411769e-03 0.0 
0.0 0.0 -1.060427308513e-03 
-1.573061893325e-03 1.544570403577e-04 0.0 
1.544570403577e-04 7.509050943264e-03 0.0 
0.0 0.0 -1.097082233180e-03 
-1.192953449252e-03 -1.864011720090e-03 0.0 
-1.864011720090e-03 5.605209134645e-03 0.0 
0.0 0.0 -1.300897016293e-03 
-1.579855819088e-03 2.979771540211e-04 0.0 
2.979771540211e-04 5.293250471981e-03 0.0 
0.0 0.0 -7.584009903415e-04 
3.744709763724e-04 -6.364946627065e-04 0.0 
-6.364946627065e-04 1.401291707387e-04 0.0 
0.0 0.0 -1.034024162715e-04 
-1.449845600680e-03 6.382887501364e-04 0.0 
6.382887501364e-04 8.609834207447e-03 0.0 
0.0 0.0 -1.292107529982e-03 
-1.448440923656e-03 1.123280561170e-03 0.0 
1.123280561170e-03 8.566022624529e-03 0.0 
0.0 0.0 -1.303172775453e-03 
-1.434083243244e-03 9.839421265548e-04 0.0 
9.839421265548e-04 8.603548743914e-03 0.0 
0.0 0.0 -1.304823151597e-03 
-1.916252571144e-03 -2.792629766010e-04 0.0 
-2.792629766010e-04 6.698528630947e-03 0.0 
0.0 0.0 -1.191058493115e-03 
-1.809292576517e-03 -5.447261667623e-04 0.0 
-5.447261667623e-04 6.787910699568e-03 0.0 
0.0 0.0 -1.224322658093e-03 
-1.441620689681e-03 3.697909072679e-04 0.0 
3.697909072679e-04 8.644537781625e-03 0.0 
0.0 0.0 -1.294569364341e-03 
-1.966831809583e-04 -2.229424319449e-03 0.0 
-2.229424319449e-03 1.821439975238e-03 0.0 
0.0 0.0 -6.963243404055e-04 
-1.542446802675e-03 2.619749311667e-03 0.0 
2.619749311667e-03 7.342230023592e-03 0.0 
0.0 0.0 -1.225740639889e-03 
-1.563624804990e-03 6.428436196565e-04 0.0 
6.428436196565e-04 7.948413338163e-03 0.0 
0.0 0.0 -1.178628832109e-03 
2.201456429693e-03 2.341714128316e-03 0.0 
2.341714128316e-03 -8.075777083502e-04 0.0 
0.0 0.0 -5.973765948613e-04 
4.529977292289e-04 -2.561738032130e-03 0.0 
-2.561738032130e-03 9.606788663604e-04 0.0 
0.0 0.0 -6.058613981097e-04 
-1.912750157524e-03 -1.012850712710e-03 0.0 
-1.012850712710e-03 5.577288917285e-03 0.0 
0.0 0.0 -1.066202199875e-03 
-1.088098720313e-03 -2.559527887766e-03 0.0 
-2.559527887766e-03 3.979421504262e-03 0.0 
0.0 0.0 -1.028256539386e-03 
-1.822459650115e-03 -1.367111847188e-03 0.0 
-1.367111847188e-03 6.015979930005e-03 0.0 
0.0 0.0 -1.130390451587e-03 
-1.582105737625e-03 -1.721031184097e-03 0.0 
-1.721031184097e-03 4.901863080820e-03 0.0 
0.0 0.0 -1.057243679378e-03 
-1.608185598285e-03 -1.915614561762e-03 0.0 
-1.915614561762e-03 5.282640092044e-03 0.0 
0.0 0.0 -1.076106726067e-03 
-6.144948469041e-04 -6.639795998970e-04 0.0 
-6.639795998970e-04 4.224201553889e-03 0.0 
0.0 0.0 -1.244129926109e-03 
-5.789303246957e-04 -4.457683817534e-04 0.0 
-4.457683817534e-04 1.808907778624e-03 0.0 
0.0 0.0 -3.862231446352e-04 
-1.669791442216e-03 5.742208476735e-04 0.0 
5.742208476735e-04 6.461493581352e-03 0.0 
0.0 0.0 -9.364826870394e-04 
-1.605975857622e-03 3.178960195767e-04 0.0 
3.178960195767e-04 6.348918363535e-03 0.0 
0.0 0.0 -9.130351872960e-04 
-1.629937813867e-03 6.093327650254e-04 0.0 
6.093327650254e-04 7.342083193620e-03 0.0 
0.0 0.0 -1.075939795031e-03 
-6.482537929307e-04 -1.608115231979e-03 0.0 
-1.608115231979e-03 2.605453652753e-03 0.0 
0.0 0.0 -8.387999399238e-04 
-1.303549504287e-03 -1.305113709369e-03 0.0 
-1.305113709369e-03 4.181114019267e-03 0.0 
0.0 0.0 -1.034705495726e-03 
-3.971862798800e-04 -1.135666412244e-03 0.0 
-1.135666412244e-03 1.660229728604e-03 0.0 
0.0 0.0 -5.350964027253e-04 
-1.079760018860e-03 3.194336986256e-03 0.0 
3.194336986256e-03 5.659153012299e-03 0.0 
0.0 0.0 -1.251461238623e-03 
-9.146057249504e-04 2.949568127909e-03 0.0 
2.949568127909e-03 3.641380823932e-03 0.0 
0.0 0.0 -9.215523041033e-04 
5.869540678773e-04 -2.956750850037e-03 0.0 
-2.956750850037e-03 1.034406097070e-03 0.0 
0.0 0.0 -6.948686421203e-04 
-4.983222250127e-04 -2.534366466985e-03 0.0 
-2.534366466985e-03 2.700875388843e-03 0.0 
0.0 0.0 -9.439513559275e-04 
-3.730260252316e-06 -2.536920884211e-03 0.0 
-2.536920884211e-03 1.637062224885e-03 0.0 
0.0 0.0 -6.999994134141e-04 
7.353476243331e-04 -2.725229135126e-03 0.0 
-2.725229135126e-03 6.766599510438e-04 0.0 
0.0 0.0 -6.051461037329e-04 
8.595376325540e-04 3.133881433802e-03 0.0 
3.133881433802e-03 8.059885165152e-04 0.0 
0.0 0.0 -7.137969210297e-04 
-4.203429083409e-05 -3.125630815959e-03 0.0 
-3.125630815959e-03 2.086027069296e-03 0.0 
0.0 0.0 -8.759969050552e-04 
-8.028650656472e-04 -2.530764803792e-03 0.0 
-2.530764803792e-03 3.746131268308e-03 0.0 
0.0 0.0 -1.026962916580e-03 
-1.603305794962e-03 5.584175701992e-04 0.0 
5.584175701992e-04 7.571764629350e-03 0.0 
0.0 0.0 -1.112552678551e-03 
9.600606219979e-04 -6.202368537327e-04 0.0 
-6.202368537327e-04 -7.835338607429e-05 0.0 
0.0 0.0 -1.528964725408e-04 
-6.507698434307e-04 -2.317277330880e-03 0.0 
-2.317277330880e-03 3.698342537328e-03 0.0 
0.0 0.0 -1.061672265243e-03 
-4.694800132291e-04 -3.046911020093e-03 0.0 
-3.046911020093e-03 2.876301697078e-03 0.0 
0.0 0.0 -9.848592602066e-04 
-1.735611780566e-03 9.275084004437e-04 0.0 
9.275084004437e-04 6.521846032081e-03 0.0 
0.0 0.0 -9.599091010803e-04 
5.517342203791e-04 7.070794377615e-04 0.0 
7.070794377615e-04 1.993016539601e-03 0.0 
0.0 0.0 -1.047968735850e-03 
1.251262826807e-03 -3.149427623220e-03 0.0 
-3.149427623220e-03 3.147933255355e-04 0.0 
0.0 0.0 -6.711669224326e-04 
-1.667035138543e-03 9.805979703494e-04 0.0 
9.805979703494e-04 7.401003517057e-03 0.0 
0.0 0.0 -1.098747615487e-03 
-1.603855099599e-03 1.782256839983e-03 0.0 
1.782256839983e-03 7.796685969376e-03 0.0 
0.0 0.0 -1.212453547082e-03 
-1.753933973529e-03 9.797964852189e-04 0.0 
9.797964852189e-04 5.978451539688e-03 0.0 
0.0 0.0 -8.875094802107e-04 
-2.613102227183e-04 -9.949083205869e-04 0.0 
-9.949083205869e-04 1.295268273910e-03 0.0 
0.0 0.0 -4.064699368096e-04 
-1.648709990180e-03 4.475238255647e-04 0.0 
4.475238255647e-04 6.036264205668e-03 0.0 
0.0 0.0 -8.692469099983e-04 
-7.203164161434e-04 -1.605185791603e-03 0.0 
-1.605185791603e-03 4.351922217429e-03 0.0 
0.0 0.0 -1.202705989510e-03 
-1.725470359675e-03 1.770892894084e-03 0.0 
1.770892894084e-03 6.914744693878e-03 0.0 
0.0 0.0 -1.078220320736e-03 
-7.065492097226e-04 -1.209971096051e-03 0.0 
-1.209971096051e-03 2.577314578998e-03 0.0 
0.0 0.0 -7.821142971127e-04 
2.080536798912e-03 -4.379488450435e-04 0.0 
-4.379488450435e-04 -1.014496050842e-03 0.0 
0.0 0.0 -4.568746063161e-04 
3.673244141799e-05 3.501892657137e-03 0.0 
3.501892657137e-03 2.162557991526e-03 0.0 
0.0 0.0 -9.249336466263e-04 
-1.472424715948e-03 1.473284294565e-03 0.0 
1.473284294565e-03 4.326140179341e-03 0.0 
0.0 0.0 -7.656857982150e-04 
-1.552562983666e-03 7.948996227407e-04 0.0 
7.948996227407e-04 8.084351316505e-03 0.0 
0.0 0.0 -1.206557591227e-03 
1.197294541337e-03 2.931696958795e-03 0.0 
2.931696958795e-03 3.430979437177e-04 0.0 
0.0 0.0 -6.601682078804e-04 
2.014691518502e-04 -1.535153806247e-04 0.0 
-1.535153806247e-04 2.672995857900e-03 0.0 
0.0 0.0 -1.120054252910e-03 
1.167692333485e-03 -4.546798185550e-04 0.0 
-4.546798185550e-04 3.225795309946e-04 0.0 
0.0 0.0 -6.386879419198e-04 
-8.300689796229e-04 -1.036862626203e-03 0.0 
-1.036862626203e-03 2.843866615447e-03 0.0 
0.0 0.0 -8.092532257643e-04 
-1.141410086144e-03 -2.132624368424e-03 0.0 
-2.132624368424e-03 4.763879094691e-03 0.0 
0.0 0.0 -1.118919378802e-03 
2.226178382358e-03 1.538806345707e-03 0.0 
1.538806345707e-03 -1.000001690931e-03 0.0 
0.0 0.0 -5.255042963258e-04 
-1.621773390463e-03 1.105341392258e-03 0.0 
1.105341392258e-03 7.770539650855e-03 0.0 
0.0 0.0 -1.164614768972e-03 
-7.726765049569e-04 3.339866695887e-03 0.0 
3.339866695887e-03 4.168840091130e-03 0.0 
0.0 0.0 -1.031533309622e-03 
2.985503110291e-03 3.031284491510e-04 0.0 
3.031284491510e-04 -1.381029514076e-03 0.0 
0.0 0.0 -6.876315412354e-04 
-1.686948173027e-03 1.421165008995e-03 0.0 
1.421165008995e-03 7.380565372555e-03 0.0 
0.0 0.0 -1.121170216299e-03 
1.011452247809e-03 -2.344893480733e-03 0.0 
-2.344893480733e-03 3.172812092828e-04 0.0 
0.0 0.0 -5.694571958966e-04 
3.273818053523e-04 1.142366955538e-03 0.0 
1.142366955538e-03 2.480645691333e-03 0.0 
0.0 0.0 -1.099429584637e-03 
-6.433175181119e-04 3.077878174349e-03 0.0 
3.077878174349e-03 3.183682229986e-03 0.0 
0.0 0.0 -9.539696108702e-04 
-6.121546724542e-04 3.601568394799e-03 0.0 
3.601568394799e-03 3.377991454684e-03 0.0 
0.0 0.0 -9.441813108648e-04 
-1.362049427310e-03 2.994726613582e-03 0.0 
2.994726613582e-03 5.058459491364e-03 0.0 
0.0 0.0 -9.824247929831e-04 
2.242703281786e-04 3.613717884088e-03 0.0 
3.613717884088e-03 1.934819861174e-03 0.0 
0.0 0.0 -8.887186042024e-04 
-1.881029170096e-03 -6.972944591045e-04 0.0 
-6.972944591045e-04 5.485539571048e-03 0.0 
0.0 0.0 -1.071820694527e-03 
-9.158007506096e-04 -2.235649248494e-03 0.0 
-2.235649248494e-03 4.248678740424e-03 0.0 
0.0 0.0 -1.090315851396e-03 
2.052665481287e-03 -1.103532234197e-03 0.0 
-1.103532234197e-03 -1.175556670273e-03 0.0 
0.0 0.0 -3.759037761492e-04 
8.914746630086e-04 2.890953836391e-03 0.0 
2.890953836391e-03 6.027493594732e-04 0.0 
0.0 0.0 -6.403817239208e-04 
-1.758945777430e-03 1.160675475390e-03 0.0 
1.160675475390e-03 6.378359981790e-03 0.0 
0.0 0.0 -9.536514739466e-04 
-6.639671926482e-04 3.003789204226e-03 0.0 
3.003789204226e-03 4.418789612070e-03 0.0 
0.0 0.0 -1.150585697120e-03 
-1.554201493046e-03 1.231598965710e-03 0.0 
1.231598965710e-03 8.128380504732e-03 0.0 
0.0 0.0 -1.229329624135e-03 
1.209824795641e-04 3.344721880567e-03 0.0 
3.344721880567e-03 1.935063257791e-03 0.0 
0.0 0.0 -8.811624588665e-04 
-1.286404788732e-03 -2.188571958382e-03 0.0 
-2.188571958382e-03 4.794074532598e-03 0.0 
0.0 0.0 -1.081576975854e-03 
-1.629163603093e-03 1.571087997701e-03 0.0 
1.571087997701e-03 7.723510960528e-03 0.0 
0.0 0.0 -1.185355684152e-03 
-3.559661832873e-04 -3.012647310201e-03 0.0 
-3.012647310201e-03 2.646809915025e-03 0.0 
0.0 0.0 -9.737892037141e-04 
-7.230165557545e-04 -1.426683456850e-04 0.0 
-1.426683456850e-04 2.147619513236e-03 0.0 
0.0 0.0 -4.572648740992e-04 
1.660426463556e-03 2.294712628775e-03 0.0 
2.294712628775e-03 -6.270108860030e-04 0.0 
0.0 0.0 -4.428923903797e-04 
3.083725212360e-03 4.086632437554e-04 0.0 
4.086632437554e-04 -1.411678867675e-03 0.0 
0.0 0.0 -7.165912905795e-04 
1.695879907660e-03 2.562718717107e-03 0.0 
2.562718717107e-03 -3.302884133479e-04 0.0 
0.0 0.0 -5.852534975623e-04 
-5.576706971117e-04 -2.954961257328e-03 0.0 
-2.954961257328e-03 3.029681223364e-03 0.0 
0.0 0.0 -1.013304783341e-03 
-1.555713883054e-03 2.364705081961e-03 0.0 
2.364705081961e-03 7.663070105557e-03 0.0 
0.0 0.0 -1.242275372262e-03 
-1.459222448555e-03 -1.977989758638e-03 0.0 
-1.977989758638e-03 5.249777589170e-03 0.0 
0.0 0.0 -1.110186454522e-03 
5.809827755289e-05 -1.888547144195e-03 0.0 
-1.888547144195e-03 2.563693945277e-03 0.0 
0.0 0.0 -1.040857148505e-03 
2.721524112917e-04 1.325365974884e-03 0.0 
1.325365974884e-03 4.084814057533e-04 0.0 
0.0 0.0 -2.917002073050e-04 
-1.420828704055e-03 1.823492309729e-03 0.0 
1.823492309729e-03 4.313202363895e-03 0.0 
0.0 0.0 -8.070275419711e-04 
-1.590933393314e-03 -1.754583215491e-03 0.0 
-1.754583215491e-03 5.664446844218e-03 0.0 
0.0 0.0 -1.139074001596e-03 
1.644076570115e-03 -1.085629871930e-03 0.0 
-1.085629871930e-03 -5.732577340253e-04 0.0 
0.0 0.0 -4.589223583244e-04 
2.052489302078e-04 6.912241943710e-04 0.0 
6.912241943710e-04 2.710009798059e-03 0.0 
0.0 0.0 -1.126725356868e-03 
-1.535445043143e-03 -5.867914393128e-04 0.0 
-5.867914393128e-04 4.647107690583e-03 0.0 
0.0 0.0 -1.044109258258e-03 
-9.859779036616e-04 3.056684200562e-03 0.0 
3.056684200562e-03 5.375983574251e-03 0.0 
0.0 0.0 -1.249754184115e-03 
-6.610476002560e-04 2.303624772309e-03 0.0 
2.303624772309e-03 2.903406990762e-03 0.0 
0.0 0.0 -9.028501661438e-04 
-1.686501264746e-03 -1.526608176621e-03 0.0 
-1.526608176621e-03 6.045524770636e-03 0.0 
0.0 0.0 -1.168790087466e-03 
3.742641179637e-04 -1.152556169589e-03 0.0 
-1.152556169589e-03 2.146769681943e-03 0.0 
0.0 0.0 -1.036257385577e-03 
2.158291477526e-03 2.743008596258e-03 0.0 
2.743008596258e-03 -5.432811980168e-04 0.0 
0.0 0.0 -6.921472626470e-04 
-1.448920855555e-03 5.485150606776e-05 0.0 
5.485150606776e-05 5.277752212934e-03 0.0 
0.0 0.0 -7.498068730476e-04 
-1.593954056461e-03 -1.469135234964e-03 0.0 
-1.469135234964e-03 6.450266463409e-03 0.0 
0.0 0.0 -1.243807156011e-03 
5.209000563453e-05 -9.592901321100e-04 0.0 
-9.592901321100e-04 2.854437082012e-03 0.0 
0.0 0.0 -1.114542488500e-03 
3.461661553032e-05 3.551384216602e-03 0.0 
3.551384216602e-03 2.362376837699e-03 0.0 
0.0 0.0 -9.321888224300e-04 
1.558216832635e-03 -1.548696012587e-03 0.0 
-1.548696012587e-03 -4.269730613691e-04 0.0 
0.0 0.0 -4.848187591140e-04 
-1.159109189925e-03 1.672386638450e-03 0.0 
1.672386638450e-03 3.686907530899e-03 0.0 
0.0 0.0 -7.928834912169e-04 
-8.622534806161e-04 -2.703450422620e-03 0.0 
-2.703450422620e-03 3.567462389003e-03 0.0 
0.0 0.0 -1.042489463686e-03 
-8.810352068874e-04 3.464697463085e-03 0.0 
3.464697463085e-03 3.935493660585e-03 0.0 
0.0 0.0 -9.528746205426e-04 
-1.455694182561e-03 2.079571376027e-03 0.0 
2.079571376027e-03 8.238502292373e-03 0.0 
0.0 0.0 -1.306889097489e-03 
-4.021262128289e-05 -5.236218254538e-04 0.0 
-5.236218254538e-04 3.069008893941e-03 0.0 
0.0 0.0 -1.148622835147e-03 
-1.725562695568e-03 2.028005553636e-03 0.0 
2.028005553636e-03 5.979413828880e-03 0.0 
0.0 0.0 -9.696660045843e-04 
-9.371362615476e-04 -2.513813645279e-03 0.0 
-2.513813645279e-03 3.674904326905e-03 0.0 
0.0 0.0 -1.055577742195e-03 
6.828857261752e-04 2.319846812613e-03 0.0 
2.319846812613e-03 1.471382999158e-03 0.0 
0.0 0.0 -9.020111454724e-04 
3.069126660921e-04 -4.845997231989e-04 0.0 
-4.845997231989e-04 8.592191971431e-04 0.0 
0.0 0.0 -3.093966206321e-04 
-1.066278201586e-03 2.069319232208e-03 0.0 
2.069319232208e-03 3.624795843977e-03 0.0 
0.0 0.0 -8.430048313659e-04 
-1.188974335056e-03 -2.184404117123e-03 0.0 
-2.184404117123e-03 4.121734009211e-03 0.0 
0.0 0.0 -1.055179846540e-03 
3.051680346467e-03 -4.197736543643e-04 0.0 
-4.197736543643e-04 -1.412706451387e-03 0.0 
0.0 0.0 -7.024173836058e-04 
1.117277129867e-03 -2.070559341147e-03 0.0 
-2.070559341147e-03 1.215006496444e-04 0.0 
0.0 0.0 -5.309047626477e-04 
-5.077233341081e-04 1.801300421280e-03 0.0 
1.801300421280e-03 4.164826850224e-03 0.0 
0.0 0.0 -1.234277959947e-03 
-1.405357231203e-03 -1.830815427985e-03 0.0 
-1.830815427985e-03 4.525691195773e-03 0.0 
0.0 0.0 -1.058821591963e-03 
2.981871888689e-03 -4.320249597075e-04 0.0 
-4.320249597075e-04 -1.387251596233e-03 0.0 
0.0 0.0 -6.834086967669e-04 
-1.589234832291e-03 -1.465860908847e-03 0.0 
-1.465860908847e-03 4.884351969089e-03 0.0 
0.0 0.0 -1.063846254002e-03 
-8.219124233661e-04 1.884899957964e-03 0.0 
1.884899957964e-03 3.049244611375e-03 0.0 
0.0 0.0 -8.384157971481e-04 
-1.674104129450e-03 2.267631102477e-03 0.0 
2.267631102477e-03 5.977690423385e-03 0.0 
0.0 0.0 -9.983267706061e-04 
-1.746776969671e-03 -1.092710579845e-03 0.0 
-1.092710579845e-03 5.203384673320e-03 0.0 
0.0 0.0 -1.068006041337e-03 
-9.280916248974e-04 3.352222764373e-03 0.0 
3.352222764373e-03 4.310032082870e-03 0.0 
0.0 0.0 -1.003151257071e-03 
2.463563334715e-05 -8.807126364979e-04 0.0 
-8.807126364979e-04 9.974910621111e-04 0.0 
0.0 0.0 -3.190932086048e-04 
1.865633619246e-04 3.322818699054e-03 0.0 
3.322818699054e-03 2.196662702388e-03 0.0 
0.0 0.0 -9.369607680273e-04 
-1.969274810505e-03 -5.697349439415e-04 0.0 
-5.697349439415e-04 6.492408088354e-03 0.0 
0.0 0.0 -1.155419075730e-03 
4.460939102830e-04 -2.841642607167e-03 0.0 
-2.841642607167e-03 1.136269056788e-03 0.0 
0.0 0.0 -6.781555573162e-04 
7.887889646567e-04 -2.571324212251e-03 0.0 
-2.571324212251e-03 6.415432993246e-04 0.0 
0.0 0.0 -6.129995417062e-04 
-1.637827184878e-03 2.388605245637e-03 0.0 
2.388605245637e-03 6.314063370822e-03 0.0 
0.0 0.0 -1.063653581392e-03 
-4.992814516217e-04 1.972643240252e-03 0.0 
1.972643240252e-03 2.384387457051e-03 0.0 
0.0 0.0 -8.079025737556e-04 
5.124750958276e-04 -2.569400884271e-03 0.0 
-2.569400884271e-03 1.193670865080e-03 0.0 
0.0 0.0 -7.312054118175e-04 
-9.641562230990e-04 3.242704907183e-03 0.0 
3.242704907183e-03 4.707911026065e-03 0.0 
0.0 0.0 -1.067288052377e-03 
3.154663455590e-04 2.993279893955e-03 0.0 
2.993279893955e-03 2.102244501383e-03 0.0 
0.0 0.0 -9.588566822092e-04 
1.346446614896e-03 2.610050225058e-03 0.0 
2.610050225058e-03 1.067961116776e-04 0.0 
0.0 0.0 -6.228183113887e-04 
2.887356895726e-04 -2.230406662033e-03 0.0 
-2.230406662033e-03 1.886206335840e-03 0.0 
0.0 0.0 -9.159128653295e-04 
-3.070381522363e-04 2.361479177514e-03 0.0 
2.361479177514e-03 2.144874392585e-03 0.0 
0.0 0.0 -7.876441030066e-04 
-4.603323552835e-06 -2.296978514711e-03 0.0 
-2.296978514711e-03 1.485132063043e-03 0.0 
0.0 0.0 -6.345123169243e-04 
-1.725456702673e-05 -2.050421713285e-03 0.0 
-2.050421713285e-03 1.350463780520e-03 0.0 
0.0 0.0 -5.713753772113e-04 
2.694499012180e-03 -1.108798334530e-03 0.0 
-1.108798334530e-03 -1.215742971782e-03 0.0 
0.0 0.0 -6.337525887422e-04 
-1.125553493016e-03 3.166078986994e-03 0.0 
3.166078986994e-03 5.226172467772e-03 0.0 
0.0 0.0 -1.103081964739e-03 
-3.505794759798e-04 -2.805020388018e-04 0.0 
-2.805020388018e-04 1.476517852756e-03 0.0 
0.0 0.0 -3.018576685516e-04 
-1.520679869667e-03 2.700420786858e-03 0.0 
2.700420786858e-03 5.894437551981e-03 0.0 
0.0 0.0 -1.054898413167e-03 
1.434637815246e-04 -2.013001771722e-03 0.0 
-2.013001771722e-03 1.061630091320e-03 0.0 
0.0 0.0 -5.164688026476e-04 
2.470206604480e-03 -1.725455129164e-03 0.0 
-1.725455129164e-03 -1.033453851675e-03 0.0 
0.0 0.0 -6.157511797736e-04 
1.550603106910e-04 2.343951066894e-03 0.0 
2.343951066894e-03 2.741523029304e-03 0.0 
0.0 0.0 -1.077081564483e-03 
-1.567382262079e-03 5.775225248615e-06 0.0 
5.775225248615e-06 6.502023960398e-03 0.0 
0.0 0.0 -9.315431351609e-04 
1.994050342792e-03 -2.125051609346e-03 0.0 
-2.125051609346e-03 -7.055681148420e-04 0.0 
0.0 0.0 -5.522066691216e-04 
-8.473530892992e-04 -1.857205257249e-04 0.0 
-1.857205257249e-04 2.593065685554e-03 0.0 
0.0 0.0 -6.119633700263e-04 
1.664939330105e-03 -2.423764940749e-03 0.0 
-2.423764940749e-03 -3.798301328600e-04 0.0 
0.0 0.0 -5.507610845334e-04 
9.691114688175e-04 2.564299471471e-03 0.0 
2.564299471471e-03 7.430038862534e-04 0.0 
0.0 0.0 -7.337637236018e-04 
1.166584806499e-03 -2.448706473937e-03 0.0 
-2.448706473937e-03 1.644568183363e-04 0.0 
0.0 0.0 -5.704464106438e-04 
9.207629563978e-04 -2.562817695187e-03 0.0 
-2.562817695187e-03 4.684807333005e-04 0.0 
0.0 0.0 -5.953901527278e-04 
-1.509599202053e-03 7.115315669588e-04 0.0 
7.115315669588e-04 8.319494978420e-03 0.0 
0.0 0.0 -1.242975171717e-03 
6.644834369663e-04 -2.816687817472e-03 0.0 
-2.816687817472e-03 8.638079814567e-04 0.0 
0.0 0.0 -6.549820364670e-04 
-1.417913046649e-03 2.000204615730e-04 0.0 
2.000204615730e-04 8.717353493565e-03 0.0 
0.0 0.0 -1.305370344976e-03 
-1.585981038622e-03 -5.390524588140e-04 0.0 
-5.390524588140e-04 7.088561262435e-03 0.0 
0.0 0.0 -1.298405437673e-03 
-1.489518803289e-03 -4.573950556845e-06 0.0 
-4.573950556845e-06 5.635615486584e-03 0.0 
0.0 0.0 -7.997855503562e-04 
-2.605550091072e-04 1.921888767382e-03 0.0 
1.921888767382e-03 1.771030104647e-03 0.0 
0.0 0.0 -6.473464695169e-04 
0.0 0.0 0.0 
0.0 0.0 0.0 
0.0 0.0 0.0 
5.300339532942e-05 2.296518653744e-03 0.0 
2.296518653744e-03 1.380741919417e-03 0.0 
0.0 0.0 -6.144622777483e-04 
4.589079226346e-04 -2.669236835745e-03 0.0 
-2.669236835745e-03 1.017039993413e-03 0.0 
0.0 0.0 -6.325491068774e-04 
-1.344360499523e-03 2.998007223071e-03 0.0 
2.998007223071e-03 5.396263019476e-03 0.0 
0.0 0.0 -1.045752072333e-03 
-1.493847809746e-03 7.392246810856e-05 0.0 
7.392246810856e-05 5.643210332918e-03 0.0 
0.0 0.0 -8.029817139903e-04 
2.189770723719e-04 -2.551176870332e-03 0.0 
-2.551176870332e-03 1.274969331798e-03 0.0 
0.0 0.0 -6.402627446442e-04 
-1.419524211431e-03 3.075318657805e-03 0.0 
3.075318657805e-03 6.922500903080e-03 0.0 
0.0 0.0 -1.250093291501e-03 
-1.105460999237e-03 2.840056670224e-03 0.0 
2.840056670224e-03 5.499135179184e-03 0.0 
0.0 0.0 -1.306737725957e-03 
-1.583352928322e-03 1.388979039351e-04 0.0 
1.388979039351e-04 7.093261842357e-03 0.0 
0.0 0.0 -1.028769680629e-03 
3.110761131384e-05 3.070777297068e-04 0.0 
3.070777297068e-04 2.990066827201e-03 0.0 
0.0 0.0 -1.152835590205e-03 
4.038330844269e-04 2.562565156884e-03 0.0 
2.562565156884e-03 2.099896012322e-03 0.0 
0.0 0.0 -9.954397186036e-04 
-1.532870607185e-03 8.627533493903e-05 0.0 
8.627533493903e-05 8.032571934377e-03 0.0 
0.0 0.0 -1.185717314024e-03 
-1.493423908883e-03 8.976519337403e-05 0.0 
8.976519337403e-05 5.235057922781e-03 0.0 
0.0 0.0 -7.451086181774e-04 
8.476467916489e-05 -1.199388947894e-03 0.0 
-1.199388947894e-03 6.043361303539e-04 0.0 
0.0 0.0 -2.642930028689e-04 
-1.995343437528e-03 -3.338550389889e-04 0.0 
-3.338550389889e-04 5.735331553200e-03 0.0 
0.0 0.0 -1.072300834510e-03 
-4.728391316332e-06 1.911025163986e-03 0.0 
1.911025163986e-03 1.236688893795e-03 0.0 
0.0 0.0 -5.279830724910e-04 
3.550394143264e-04 2.259430213976e-03 0.0 
2.259430213976e-03 9.034181507030e-04 0.0 
0.0 0.0 -5.393389564412e-04 
6.085214745978e-04 2.284877078157e-03 0.0 
2.284877078157e-03 6.261355702317e-04 0.0 
0.0 0.0 -5.291387334984e-04 
-9.396181000691e-04 -7.967451354887e-04 0.0 
-7.967451354887e-04 3.058992386408e-03 0.0 
0.0 0.0 -8.121166773320e-04 
5.494964702923e-04 -2.584085792452e-03 0.0 
-2.584085792452e-03 8.433772001581e-04 0.0 
0.0 0.0 -5.969458587645e-04 
2.401282782028e-04 2.005638511475e-03 0.0 
2.005638511475e-03 9.040366262875e-04 0.0 
0.0 0.0 -4.903563876387e-04 
-5.261734606055e-04 6.022279658391e-04 0.0 
6.022279658391e-04 4.033101031005e-03 0.0 
0.0 0.0 -1.245112051941e-03 
-1.636730137181e-03 4.290067563108e-04 0.0 
4.290067563108e-04 5.580276288558e-03 0.0 
0.0 0.0 -8.050116406322e-04 
-1.121915910908e-04 2.515763012409e-03 0.0 
2.515763012409e-03 3.291467473346e-03 0.0 
0.0 0.0 -1.110409235593e-03 
3.679053624996e-04 1.946389288486e-03 0.0 
1.946389288486e-03 7.047317248665e-04 0.0 
0.0 0.0 -4.597016088712e-04 
-1.554707372438e-03 1.697440109364e-03 0.0 
1.697440109364e-03 8.056864122716e-03 0.0 
0.0 0.0 -1.247366155457e-03 
-7.215899275846e-04 2.377475014672e-03 0.0 
2.377475014672e-03 4.622150950018e-03 0.0 
0.0 0.0 -1.246608778627e-03 
-1.331856878630e-03 -1.983836111103e-03 0.0 
-1.983836111103e-03 6.114923973583e-03 0.0 
0.0 0.0 -1.306249356034e-03 
-3.798399904625e-04 2.398884536475e-03 0.0 
2.398884536475e-03 3.901175645834e-03 0.0 
0.0 0.0 -1.176371721005e-03 
7.581050863864e-04 2.227306199006e-03 0.0 
2.227306199006e-03 3.618205949459e-04 0.0 
0.0 0.0 -4.799681491424e-04 
-1.753134334940e-03 1.030981935736e-03 0.0 
1.030981935736e-03 5.768775069705e-03 0.0 
0.0 0.0 -8.603500797662e-04 
-1.168709675212e-03 3.249274189801e-03 0.0 
3.249274189801e-03 5.927681969270e-03 0.0 
0.0 0.0 -1.250827372426e-03 
-1.580586288305e-03 2.460651619642e-04 0.0 
2.460651619642e-04 7.417010690682e-03 0.0 
0.0 0.0 -1.080253149739e-03 
-1.410996846028e-03 -1.766992384939e-03 0.0 
-1.766992384939e-03 6.482040820837e-03 0.0 
0.0 0.0 -1.309985050881e-03 
-1.682012249170e-03 6.654682702296e-04 0.0 
6.654682702296e-04 5.457303072723e-03 0.0 
0.0 0.0 -7.979019438933e-04 
-1.482092413582e-03 4.825553233706e-04 0.0 
4.825553233706e-04 8.388620482460e-03 0.0 
0.0 0.0 -1.252774941638e-03 
2.053124764649e-03 -2.150351803165e-03 0.0 
-2.150351803165e-03 -1.002699963371e-03 0.0 
0.0 0.0 -4.501820576904e-04 
-1.472782165905e-03 2.611384925530e-04 0.0 
2.611384925530e-04 8.403666031078e-03 0.0 
0.0 0.0 -1.254166199180e-03 
-1.340636802885e-03 3.017781757784e-03 0.0 
3.017781757784e-03 5.759872352408e-03 0.0 
0.0 0.0 -1.110316242656e-03 
-1.575034003637e-03 2.533992497604e-04 0.0 
2.533992497604e-04 6.175537215493e-03 0.0 
0.0 0.0 -8.840149073763e-04 
-1.771751416511e-03 1.426780246192e-03 0.0 
1.426780246192e-03 5.587137473215e-03 0.0 
0.0 0.0 -8.570326279659e-04 
-1.684907386527e-03 -8.004631079360e-04 0.0 
-8.004631079360e-04 6.831074281255e-03 0.0 
0.0 0.0 -1.256337174517e-03 
-1.508670120193e-03 2.760870843371e-03 0.0 
2.760870843371e-03 7.327066348949e-03 0.0 
0.0 0.0 -1.249505442739e-03 
6.883790236625e-04 2.060671389361e-03 0.0 
2.060671389361e-03 2.237385116845e-05 0.0 
0.0 0.0 -3.046083749275e-04 
-1.585370214117e-03 2.593308700915e-04 0.0 
2.593308700915e-04 7.073771685170e-03 0.0 
0.0 0.0 -1.024357608964e-03 
-1.028891659838e-03 -1.361434891480e-03 0.0 
-1.361434891480e-03 3.507211596145e-03 0.0 
0.0 0.0 -9.709766588611e-04 
2.096603589134e-04 -4.522541456736e-04 0.0 
-4.522541456736e-04 -1.685826935135e-04 0.0 
0.0 0.0 -1.760471374282e-05 
-1.108111334259e-03 -1.824971532717e-03 0.0 
-1.824971532717e-03 5.280702358381e-03 0.0 
0.0 0.0 -1.249521112489e-03 
-1.346888651128e-03 3.065747420634e-03 0.0 
3.065747420634e-03 6.117675129117e-03 0.0 
0.0 0.0 -1.172189067419e-03 
-1.641216111045e-03 -1.228485444809e-03 0.0 
-1.228485444809e-03 6.632464522082e-03 0.0 
0.0 0.0 -1.251863004148e-03 
4.253395517685e-04 -1.330965256832e-05 0.0 
-1.330965256832e-05 8.162616228349e-04 0.0 
0.0 0.0 -3.073113677837e-04 
2.659967583917e-04 -9.636004765028e-04 0.0 
-9.636004765028e-04 4.197455964224e-04 0.0 
0.0 0.0 -2.058019112872e-04 
-9.341108583894e-04 -1.570273886574e-03 0.0 
-1.570273886574e-03 4.919000747850e-03 0.0 
0.0 0.0 -1.258522865334e-03 
-1.325021295734e-03 3.260852513925e-03 0.0 
3.260852513925e-03 6.529415890564e-03 0.0 
0.0 0.0 -1.257106814994e-03 
2.069780564081e-03 -2.887481408844e-03 0.0 
-2.887481408844e-03 -5.620999085580e-04 0.0 
0.0 0.0 -6.461488523668e-04 
-1.444494309143e-03 1.513018136519e-03 0.0 
1.513018136519e-03 8.529509024149e-03 0.0 
0.0 0.0 -1.314710167832e-03 
1.606042082751e-04 7.400733517384e-04 0.0 
7.400733517384e-04 -6.805152101560e-05 0.0 
0.0 0.0 -3.966543739692e-05 
-1.527500430813e-03 2.291957424775e-04 0.0 
2.291957424775e-04 5.159544215479e-03 0.0 
0.0 0.0 -7.389643750272e-04 
7.522855132365e-04 -8.129255998406e-04 0.0 
-8.129255998406e-04 2.933811725579e-04 0.0 
0.0 0.0 -2.584822669346e-04 
-1.451285018422e-03 -1.619253938531e-03 0.0 
-1.619253938531e-03 6.712702821616e-03 0.0 
0.0 0.0 -1.308531455474e-03 
-1.521082113150e-03 1.160385665173e-03 0.0 
1.160385665173e-03 8.292813149207e-03 0.0 
0.0 0.0 -1.254845750201e-03 
-1.245470008181e-03 -9.103756336826e-04 0.0 
-9.103756336826e-04 3.950697369425e-03 0.0 
0.0 0.0 -9.904446095582e-04 
-1.723966937065e-03 1.170670843267e-03 0.0 
1.170670843267e-03 5.001993590100e-03 0.0 
0.0 0.0 -7.582784842146e-04 
-9.206532372436e-04 -4.495869396707e-04 0.0 
-4.495869396707e-04 2.876332750162e-03 0.0 
0.0 0.0 -7.084058105195e-04 
-8.029287135569e-04 3.022070318119e-03 0.0 
3.022070318119e-03 4.846485263972e-03 0.0 
0.0 0.0 -1.203498912175e-03 
1.578052768763e-04 -1.733898146901e-03 0.0 
-1.733898146901e-03 8.518457615679e-04 0.0 
0.0 0.0 -4.327075879046e-04 
-1.502885003929e-03 8.385321329672e-04 0.0 
8.385321329672e-04 8.406515819115e-03 0.0 
0.0 0.0 -1.260296891839e-03 
-7.798982579111e-04 -1.032636455785e-03 0.0 
-1.032636455785e-03 4.559837266151e-03 0.0 
0.0 0.0 -1.261416966621e-03 
-1.541080814648e-03 2.248481841172e-03 0.0 
2.248481841172e-03 7.871819285488e-03 0.0 
0.0 0.0 -1.260618436842e-03 
-1.035661708301e-03 1.434119926330e-03 0.0 
1.434119926330e-03 4.999968609048e-03 0.0 
0.0 0.0 -1.317725628150e-03 
0.0 0.0 0.0 
0.0 0.0 0.0 
0.0 0.0 0.0 
-8.775793509473e-04 2.643781737553e-03 0.0 
2.643781737553e-03 4.999185491909e-03 0.0 
0.0 0.0 -1.263090216482e-03 
-3.359262024726e-04 -4.205327465571e-04 0.0 
-4.205327465571e-04 3.690481845722e-03 0.0 
0.0 0.0 -1.202239909569e-03 
-1.469921091904e-03 1.397057797389e-04 0.0 
1.397057797389e-04 5.245389338611e-03 0.0 
0.0 0.0 -7.439744481034e-04 
-1.522980262771e-03 2.574585562032e-03 0.0 
2.574585562032e-03 7.567445771786e-03 0.0 
0.0 0.0 -1.252574368527e-03 
-1.039501310576e-03 -8.329301664350e-04 0.0 
-8.329301664350e-04 3.357758752277e-03 0.0 
0.0 0.0 -8.789764298429e-04 
-3.276933337434e-04 -7.307720459036e-04 0.0 
-7.307720459036e-04 1.390604940151e-03 0.0 
0.0 0.0 -3.555153606766e-04 
-1.400496614823e-03 7.920880417302e-05 0.0 
7.920880417302e-05 8.744396333073e-03 0.0 
0.0 0.0 -1.313490227100e-03 
2.520733888645e-03 -3.426864807379e-06 0.0 
-3.426864807379e-06 -8.047604136628e-04 0.0 
0.0 0.0 -1.695477456824e-04 
-1.436285120339e-03 -8.822331672806e-06 0.0 
-8.822331672806e-06 5.224558560537e-03 0.0 
0.0 0.0 -7.402411036050e-04 
-1.541544735514e-03 -2.080816256948e-04 0.0 
-2.080816256948e-04 7.171789726740e-03 0.0 
0.0 0.0 -1.313492844077e-03 
-2.510837729256e-04 -3.936310680644e-04 0.0 
-3.936310680644e-04 1.321735893226e-03 0.0 
0.0 0.0 -2.948614013126e-04 
-1.524937947447e-03 4.475494657923e-05 0.0 
4.475494657923e-05 5.953624986698e-03 0.0 
0.0 0.0 -8.489638187885e-04 
-1.372178966628e-03 3.183705797245e-03 0.0 
3.183705797245e-03 6.771642373061e-03 0.0 
0.0 0.0 -1.260211869575e-03 
-1.590513358799e-03 -2.597680171264e-04 0.0 
-2.597680171264e-04 4.769333481416e-03 0.0 
0.0 0.0 -1.052454572086e-03 
-1.550492385742e-03 1.189328986090e-04 0.0 
1.189328986090e-04 7.800235903878e-03 0.0 
0.0 0.0 -1.148445367820e-03 
9.452528930191e-04 -2.939486558072e-03 0.0 
-2.939486558072e-03 5.700922820308e-04 0.0 
0.0 0.0 -6.494336464500e-04 
0.0 0.0 0.0 
0.0 0.0 0.0 
0.0 0.0 0.0 
-1.577256117848e-03 6.886097405366e-05 0.0 
6.886097405366e-05 6.718118974100e-03 0.0 
0.0 0.0 -9.668795991591e-04 
-7.257532866393e-04 2.108017519290e-03 0.0 
2.108017519290e-03 4.551210106726e-03 0.0 
0.0 0.0 -1.258714341260e-03 
-1.539880904137e-03 1.881264573762e-03 0.0 
1.881264573762e-03 8.091722768049e-03 0.0 
0.0 0.0 -1.263997700767e-03 
-1.584367033562e-03 2.539188043181e-04 0.0 
2.539188043181e-04 6.423614681133e-03 0.0 
0.0 0.0 -9.199601189493e-04 
1.149887053528e-03 2.260371255349e-03 0.0 
2.260371255349e-03 -3.607458547944e-04 0.0 
0.0 0.0 -3.382033708860e-04 
-1.352077778871e-03 3.162162671945e-03 0.0 
3.162162671945e-03 6.429958482634e-03 0.0 
0.0 0.0 -1.221038716794e-03 
-1.328731786449e-03 -9.755978743980e-04 0.0 
-9.755978743980e-04 4.177204897338e-03 0.0 
0.0 0.0 -1.017329335709e-03 
-1.052088232510e-03 3.182318808270e-03 0.0 
3.182318808270e-03 5.489904176315e-03 0.0 
0.0 0.0 -1.208939113964e-03 
-2.749523466846e-04 3.333334303576e-04 0.0 
3.333334303576e-04 3.590145673266e-03 0.0 
0.0 0.0 -1.203806565432e-03 
-2.912363044094e-06 4.351697090460e-04 0.0 
4.351697090460e-04 2.912363044094e-06 0.0 
0.0 0.0 0.0 
-1.710135402111e-03 -2.140528936374e-04 0.0 
-2.140528936374e-04 5.062773823412e-03 0.0 
0.0 0.0 -1.067873332563e-03 
6.585939474405e-04 -9.144432273007e-04 0.0 
-9.144432273007e-04 2.765533765623e-04 0.0 
0.0 0.0 -2.242399343496e-04 
-1.352905233575e-03 -1.915199808028e-03 0.0 
-1.915199808028e-03 5.962667998270e-03 0.0 
0.0 0.0 -1.263714160583e-03 
-1.428737268169e-03 -6.941057894653e-04 0.0 
-6.941057894653e-04 4.390777467220e-03 0.0 
0.0 0.0 -1.028704531826e-03 
1.095689767294e-05 1.108166359628e-03 0.0 
1.108166359628e-03 6.901745919773e-04 0.0 
0.0 0.0 -3.004849241358e-04 
-1.711756351469e-04 -8.174096792477e-06 0.0 
-8.174096792477e-06 5.891705221559e-04 0.0 
0.0 0.0 -1.759189349307e-04 
6.086193370581e-05 1.489432806145e-03 0.0 
1.489432806145e-03 8.462272208416e-04 0.0 
0.0 0.0 -3.887524948060e-04 
-4.195522371654e-04 -1.053185644767e-05 0.0 
-1.053185644767e-05 1.210809654404e-03 0.0 
0.0 0.0 -2.205862019721e-04 
-4.680304609505e-05 1.561874337933e-03 0.0 
1.561874337933e-03 1.086348258463e-03 0.0 
0.0 0.0 -4.455193767289e-04 
-5.764561721916e-04 -2.047753743147e-05 0.0 
-2.047753743147e-05 1.630387565384e-03 0.0 
0.0 0.0 -2.766268288173e-04 
-2.519667786206e-04 1.472505919625e-03 0.0 
1.472505919625e-03 1.474237417008e-03 0.0 
0.0 0.0 -5.238302735944e-04 
-7.605031964952e-04 -2.368019319099e-05 0.0 
-2.368019319099e-05 2.235923404876e-03 0.0 
0.0 0.0 -3.266666666667e-04 
-4.663272730380e-04 1.445034291992e-03 0.0 
1.445034291992e-03 2.011357929561e-03 0.0 
0.0 0.0 -6.621559956526e-04 
-8.902768957816e-04 -2.344110242198e-05 0.0 
-2.344110242198e-05 2.651675222682e-03 0.0 
0.0 0.0 -3.933333333333e-04 
-7.205553837693e-04 1.411323130837e-03 0.0 
1.411323130837e-03 2.635120153819e-03 0.0 
0.0 0.0 -7.632308096241e-04 
-1.014253867293e-03 -2.134932202391e-05 0.0 
-2.134932202391e-05 3.236715286896e-03 0.0 
0.0 0.0 -4.600000000000e-04 
-1.004964497974e-03 1.297444765431e-03 0.0 
1.297444765431e-03 3.201027753380e-03 0.0 
0.0 0.0 -7.249691623289e-04 
-1.133374822382e-03 -1.604044547880e-05 0.0 
-1.604044547880e-05 3.646694996426e-03 0.0 
0.0 0.0 -5.266666666667e-04 
-1.280118750972e-03 1.130412810083e-03 0.0 
1.130412810083e-03 3.777030638565e-03 0.0 
0.0 0.0 -7.062703689559e-04 
-1.238778796526e-03 1.445476418684e-07 0.0 
1.445476418684e-07 4.216199491205e-03 0.0 
0.0 0.0 -5.933333333333e-04 
-1.543151210513e-03 1.002710923754e-03 0.0 
1.002710923754e-03 4.354039341919e-03 0.0 
0.0 0.0 -6.963727196364e-04 
-1.346425769997e-03 3.815725794878e-05 0.0 
3.815725794878e-05 4.612334605524e-03 0.0 
0.0 0.0 -6.600000000000e-04 

SCALARS node_materi_plasti_kappa_shear float
LOOKUP_TABLE default
2.115083374134e-03
3.458023789683e-03
4.967886194112e-03
5.876066285134e-03
1.429593561868e-03
9.260891180627e-04
9.750663137551e-04
1.375519170543e-03
1.749514182145e-03
2.072909783402e-03
2.372334959694e-03
2.646556194044e-03
2.900020015941e-03
3.146970300908e-03
3.414657029732e-03
3.664527045737e-03
3.866039465253e-03
4.132559423194e-03
4.398804352871e-03
4.605615939913e-03
4.743184926543e-03
4.864835234233e-03
4.967891461667e-03
5.874817732443e-03
5.871659258458e-03
5.865996944230e-03
5.879052454379e-03
5.875406408010e-03
5.881746665879e-03
5.893121739855e-03
5.904403498293e-03
5.911667380715e-03
5.942687471040e-03
5.945547502063e-03
5.964504727329e-03
5.990682248078e-03
6.003086871528e-03
6.009687630856e-03
6.018022142948e-03
6.013722829184e-03
6.018405848819e-03
6.000999157977e-03
5.961878918865e-03
5.908140669358e-03
5.805875616932e-03
5.680054112450e-03
5.512945864727e-03
5.326235031303e-03
5.099814575695e-03
4.848871496600e-03
4.578436030419e-03
4.312126051031e-03
4.068983510437e-03
3.878948019144e-03
3.696536407386e-03
3.610414615740e-03
3.648906839705e-03
3.740049181565e-03
3.899047133921e-03
4.078094335185e-03
4.265058537564e-03
4.435125269455e-03
4.594665148187e-03
4.735181100800e-03
4.838272090162e-03
4.913247143246e-03
4.935696440883e-03
4.963163630604e-03
4.970148499816e-03
4.972729571996e-03
4.968771048834e-03
4.969260551934e-03
3.740141790492e-03
4.058111443788e-03
4.339280484927e-03
4.600412294281e-03
4.861219744615e-03
5.105119180278e-03
5.341101545075e-03
5.553418984263e-03
5.788796962491e-03
0.0
3.540835783254e-03
8.888779654799e-04
1.513636101498e-03
1.784235768949e-03
1.840933129406e-03
1.969885892913e-03
2.264787004423e-03
2.585388498505e-03
2.853460972533e-03
3.168094353423e-03
4.947924629281e-04
7.006075451316e-04
1.073162065766e-03
1.425508647058e-03
1.788727031060e-03
2.132257304510e-03
2.471218391375e-03
2.803483841189e-03
3.120103201879e-03
3.399382940078e-03
3.415840330809e-03
3.424362395235e-03
3.424497136894e-03
3.479931295206e-03
3.440294557840e-03
3.439848037433e-03
3.453307638175e-03
3.471621284897e-03
3.481974088033e-03
3.486271779339e-03
3.492543524408e-03
3.498742868845e-03
3.518045244631e-03
0.0
0.0
0.0
0.0
0.0
1.744449562148e-04
3.008916063010e-04
4.050478665291e-04
5.046139784359e-04
6.936516565606e-04
8.134086808571e-04
1.035447660179e-03
1.317664285716e-03
1.556461179225e-03
1.698703308833e-03
1.829256340020e-03
1.936274606327e-03
2.057713747761e-03
2.160946537055e-03
4.472903811047e-04
4.615682380859e-04
5.015081315545e-04
5.069135019159e-04
5.062723106811e-04
5.032054847949e-04
4.984189319710e-04
4.915235972823e-04
4.834244438410e-04
4.743288004187e-04
4.615355630800e-04
4.477350042095e-04
4.364755114521e-04
4.272693674566e-04
4.191530693013e-04
4.104787070268e-04
3.987090080257e-04
3.822075545639e-04
3.592203376168e-04
3.342069470005e-04
3.388812902069e-04
4.155458108319e-04
5.706031568529e-04
7.942275099842e-04
9.732032394116e-04
1.116913294514e-03
1.152712830164e-03
1.217051860306e-03
1.341162963010e-03
1.239637879317e-03
1.037213649238e-03
8.234381554657e-04
6.661650329679e-04
5.497446307388e-04
5.065387119101e-04
5.249937947800e-04
5.577060797673e-04
5.843089488966e-04
6.033578137451e-04
6.151691409072e-04
6.223820782987e-04
6.273397188621e-04
6.314818003347e-04
6.356986257852e-04
6.398751866702e-04
6.421201757300e-04
6.434425535180e-04
6.446771351534e-04
6.452961021515e-04
6.447590108196e-04
6.430279944283e-04
6.398152572366e-04
6.346431878843e-04
6.686432679190e-04
1.563870472058e-03
1.433586595887e-03
1.215581025695e-03
1.053934217202e-03
9.665331633179e-04
9.372721168748e-04
9.463783281201e-04
9.597821557420e-04
9.713586319383e-04
9.843440652321e-04
9.960037638130e-04
1.005780416461e-03
1.013612701808e-03
1.019402592161e-03
1.023075051701e-03
1.024793432580e-03
1.025558461645e-03
1.025467437108e-03
1.024903837299e-03
1.023642744672e-03
1.021487590643e-03
1.018892149847e-03
1.017159784258e-03
1.024600024253e-03
1.056810334543e-03
1.410851678505e-03
1.383808697431e-03
1.385640841373e-03
1.388300151033e-03
1.391340236521e-03
1.394303612492e-03
1.397058219780e-03
1.399443294630e-03
1.401100902235e-03
1.401729103204e-03
1.400842359017e-03
1.397743389106e-03
1.392458267867e-03
1.385645250372e-03
1.378903873205e-03
1.369303763539e-03
1.359280357406e-03
1.354090439141e-03
1.352799741769e-03
1.365002351761e-03
1.433161107644e-03
1.567418573326e-03
1.651544285612e-03
1.850937220206e-03
1.850833601174e-03
1.786344784286e-03
1.749796523466e-03
1.737769871441e-03
1.733448498837e-03
1.741846356920e-03
1.749852201886e-03
1.756263397866e-03
1.759477367312e-03
1.762640434647e-03
1.764403705946e-03
1.764817381730e-03
1.764122728998e-03
1.762502703657e-03
1.760185883725e-03
1.757507986054e-03
1.754840510804e-03
1.752603729670e-03
1.751629968430e-03
1.757828555964e-03
1.777885292437e-03
2.120050012342e-03
2.111449579431e-03
2.113835223347e-03
2.116675236187e-03
2.120310449716e-03
2.123984102461e-03
2.126249522508e-03
2.127631391968e-03
2.128064366183e-03
2.127554982720e-03
2.126046799571e-03
2.123459660332e-03
2.120356283497e-03
2.114885182925e-03
2.101970331483e-03
2.096356667345e-03
2.097335722453e-03
2.128284095306e-03
2.196494271365e-03
2.186295543855e-03
2.483010702437e-03
2.506754027907e-03
2.468879242947e-03
2.457348499547e-03
2.466578465204e-03
2.474302737319e-03
2.478559870350e-03
2.480374252064e-03
2.482060617048e-03
2.483166610535e-03
2.483757347614e-03
2.481626238939e-03
2.477865116003e-03
2.472879665190e-03
2.467009561395e-03
2.462065239057e-03
2.458696764635e-03
2.458241881530e-03
2.465987666585e-03
2.800073416758e-03
2.792133891103e-03
2.794251622192e-03
2.799303906405e-03
2.804006642559e-03
2.811538170580e-03
2.819615238005e-03
2.827588526175e-03
2.830423737218e-03
2.834223597871e-03
2.832548011680e-03
2.829858727631e-03
2.829414630415e-03
2.819420454677e-03
2.821018701118e-03
2.841223476047e-03
2.785918999873e-03
3.125502671646e-03
3.195441658547e-03
3.182187427784e-03
3.176497158046e-03
3.175725551500e-03
3.174775535585e-03
3.166739352413e-03
3.157972763163e-03
3.150169453340e-03
3.142150136721e-03
3.134434164911e-03
3.127916890668e-03
3.125563909718e-03
3.118279613313e-03
3.123246277339e-03
3.139058430584e-03
4.421524210136e-04
1.380116394788e-03
1.809387465819e-03
1.892591139138e-03
1.942252885145e-03
2.173629989805e-03
2.503079452047e-03
2.766578717886e-03
3.045897946307e-03
3.384322342055e-03
1.792071878644e-03
3.375143360344e-03
7.233637867985e-04
1.036141330496e-04
4.185730067683e-03
2.132887875458e-03
3.290669112102e-03
3.943090107724e-03
2.459850990970e-03
5.049081016827e-03
3.049657566422e-03
4.807738799368e-03
1.182564866658e-03
5.746835578075e-03
3.688122146157e-03
2.243660734344e-03
3.956138881533e-03
5.918594875086e-03
5.957497874511e-03
5.833020523938e-03
5.849817635203e-03
5.907569221224e-03
3.796891756948e-03
3.753148626160e-03
3.750719424971e-03
4.728883318265e-03
4.949356106529e-03
0.0
1.446675358332e-03
4.662329876841e-03
3.701848086155e-03
1.172285973879e-03
5.916122430582e-03
4.554740200655e-03
5.468890302383e-03
3.503959695460e-03
3.612570973627e-03
1.012610592318e-03
3.764133124860e-03
4.509011244357e-03
5.226961181745e-03
8.281022762432e-04
2.786147332295e-03
5.862108365073e-03
2.293034409321e-03
2.118172696952e-03
2.814022264942e-03
3.328976841209e-03
1.063868762963e-03
4.215679675405e-03
4.988678889666e-03
1.603073179023e-03
5.647207016451e-03
3.826980774528e-03
3.959485929510e-03
4.093805969592e-03
4.237157459642e-03
4.355175514086e-03
4.475551541186e-03
4.360600218784e-03
4.584917723766e-03
4.472803770017e-03
4.603457862675e-03
4.678779703983e-03
4.566901197709e-03
4.755547519284e-03
4.640471696753e-03
4.457539912409e-03
4.538567241607e-03
4.334573614265e-03
4.420847848507e-03
4.584491396975e-03
4.467742894371e-03
4.290813753397e-03
4.341561214995e-03
4.161369484108e-03
4.203844918484e-03
4.020961676830e-03
4.033609205764e-03
4.190038035743e-03
3.995998885876e-03
3.816070395907e-03
3.728966813226e-03
3.537030536043e-03
3.407128807490e-03
3.586398617854e-03
3.288807272957e-03
3.252863900070e-03
3.170185754012e-03
3.233111113295e-03
3.074120756272e-03
3.162643393987e-03
2.933378461355e-03
2.797468942969e-03
2.619962109437e-03
2.778421306725e-03
2.482787310082e-03
2.288870685994e-03
2.245276885126e-03
2.009188259652e-03
2.106063465321e-03
2.298880449605e-03
2.277186157407e-03
2.045146607384e-03
2.269833337431e-03
2.492081268530e-03
2.449252250951e-03
2.235847836527e-03
2.412279828812e-03
2.543747264894e-03
2.600115002725e-03
2.727482019444e-03
2.938942653524e-03
2.800953391654e-03
3.099410076939e-03
3.236731448007e-03
3.326718393122e-03
3.458435113975e-03
3.182252973246e-03
3.349632840797e-03
3.182734544931e-03
3.297058188961e-03
3.395874895856e-03
3.084763359842e-03
2.947638229530e-03
3.173599872694e-03
3.367971322397e-03
2.907366739478e-03
2.989778207621e-03
2.681037591212e-03
3.273090083598e-03
4.583977419968e-03
2.763122244056e-03
2.422279070482e-03
2.341976270933e-03
2.055104190934e-03
4.487857016271e-03
4.743988105410e-03
4.617567667593e-03
4.883368050274e-03
4.763228887328e-03
2.160659489003e-03
4.890919826071e-03
4.994559216402e-03
4.077898647515e-03
3.620014606063e-03
2.026865546520e-03
3.041451028518e-03
2.832922892333e-03
3.077663964185e-03
3.380542676541e-03
3.577929148800e-03
3.502531489785e-03
3.663458989421e-03
3.546277218968e-03
3.702657791091e-03
3.786178392521e-03
3.850978684801e-03
3.897450996605e-03
3.504687425170e-03
3.291824593051e-03
3.999992240266e-03
4.016767369501e-03
4.146857594668e-03
4.147424783067e-03
3.977096144328e-03
4.088166746606e-03
3.903561376438e-03
1.647610095171e-03
1.670364952503e-03
1.200482357020e-03
1.361632881091e-03
1.080278838397e-03
1.418148903541e-03
1.352867822665e-03
1.212666352797e-03
4.813044669928e-03
2.629702736151e-03
2.873791510621e-03
2.692884768804e-03
2.922961960319e-03
2.693279210870e-03
2.967619989366e-03
2.640231682294e-03
2.442231823403e-03
2.256451765602e-03
2.304389301660e-03
1.970174595809e-03
2.413972446824e-03
4.105974986965e-03
1.752978929950e-03
1.881015725757e-03
2.212471553438e-03
1.986920103444e-03
4.283844059937e-03
3.257008008793e-03
2.972866264147e-03
1.546774196166e-03
1.779410363677e-03
2.938187575973e-03
3.188246772319e-03
5.018824155785e-03
4.900262887059e-03
3.011629305590e-03
1.908912131209e-03
3.906913380700e-03
1.895281348439e-03
4.211749337744e-03
4.409990212532e-03
3.799088406628e-03
2.355436507833e-03
2.649299599465e-03
2.548634680734e-03
2.876527123569e-03
2.844168383616e-03
3.212913817799e-03
3.129285464298e-03
3.337589162415e-03
3.439166685576e-03
3.438974933722e-03
3.303340296455e-03
3.181680302338e-03
3.085186834318e-03
2.829834518630e-03
4.432489689449e-03
1.483659745450e-03
4.217722169449e-03
3.341461549786e-03
1.739764648709e-03
5.152372939050e-03
5.035369681437e-03
4.778294671962e-03
4.917428704147e-03
5.167012334313e-03
5.050565403691e-03
4.795745429522e-03
4.929418857156e-03
4.668419815856e-03
4.805864584515e-03
5.058823087727e-03
4.939281816885e-03
4.682797093272e-03
4.818002280012e-03
4.556116505805e-03
4.690388347301e-03
4.950293242362e-03
1.552403935002e-03
1.574322739071e-03
1.877343647282e-03
2.891197733424e-03
3.092514519054e-03
3.276732472821e-03
3.305456961863e-03
4.827759947093e-03
5.081593595751e-03
3.163419766099e-03
3.211991907021e-03
5.265451275810e-03
4.339993450943e-03
4.108622684801e-03
3.351327486416e-03
3.414147971325e-03
3.173366515349e-03
3.179934844101e-03
3.412464276917e-03
2.933374923412e-03
3.048978120525e-03
5.184623155997e-03
2.285735175407e-03
1.964820094476e-03
4.525309975274e-03
1.417417973454e-03
4.266164728390e-03
4.121971091758e-03
4.284403972733e-03
4.105296115865e-03
4.321717176209e-03
4.160575813867e-03
3.892235684062e-03
2.811745021311e-03
3.984494120428e-03
4.554222149543e-03
2.269911801835e-03
3.028107761873e-03
1.410044382037e-03
2.660796390279e-03
1.642549087339e-03
2.019881341573e-03
3.191265930906e-03
4.449437667659e-03
4.556738233615e-03
3.151991049237e-03
3.330144195961e-03
2.615443417616e-03
4.499456307731e-03
4.528967056282e-03
4.393751219098e-03
1.261306655149e-03
2.904934706402e-03
5.293699107592e-03
3.240583809678e-03
3.137492166912e-03
1.326987575174e-03
7.734678318549e-04
4.951662652887e-03
5.199111337285e-03
3.458302994746e-03
3.498814191065e-03
2.813032372855e-03
2.488302007795e-03
5.318301846901e-03
1.850643022250e-03
1.900800904807e-03
3.131639576739e-03
3.027700141336e-03
2.957799237182e-03
3.061527549215e-03
2.613926403272e-03
1.775348210848e-03
3.082947151770e-03
5.403046930315e-03
3.649594930354e-03
3.629629087466e-03
3.791790756931e-03
2.266631384106e-03
3.561658471125e-03
4.464949176004e-03
4.749074667132e-03
4.803902692703e-03
3.195369272568e-03
2.992485238832e-03
2.855378574955e-03
2.741778446605e-03
4.234794425954e-03
3.108532495677e-03
4.079034698662e-03
3.940552543924e-03
3.815579800974e-03
3.588995439569e-03
3.476421980838e-03
3.087431809056e-03
2.199698414150e-03
3.435465997500e-03
3.826462726601e-03
3.261674752205e-03
5.297684949133e-03
5.419151855637e-03
4.414057560104e-03
4.275097580202e-03
1.647451024479e-03
1.675335589964e-03
3.606226530559e-03
3.650868628108e-03
5.391618930748e-03
5.502109459712e-03
5.372609048885e-03
2.675369016162e-03
2.527778908692e-03
1.410070067518e-03
1.620197969852e-03
3.704561518482e-03
1.421863687494e-03
4.706685273956e-03
4.622442071867e-03
4.666940698599e-03
3.076866095470e-03
3.811195532018e-03
3.440349836705e-03
3.147617514471e-03
3.657267983904e-03
3.541815125300e-03
3.706500821150e-03
3.438152628286e-03
2.775184890772e-03
2.746720812631e-03
4.705097558488e-03
4.212391869045e-03
5.032584068110e-03
5.060540397521e-03
2.962566848859e-03
2.515241370603e-03
2.118397082965e-03
3.180431248684e-03
5.518846616804e-03
3.789817242396e-03
3.891070071717e-03
3.945571653991e-03
5.986403847300e-04
2.213189616717e-03
5.440739059520e-03
2.585939956196e-03
2.577091143894e-03
2.623503978078e-03
4.897871729883e-03
3.686454329978e-03
4.752961752010e-03
3.733356492718e-03
5.550112872523e-03
3.071330919958e-03
3.165660564610e-03
2.415063932661e-03
5.310812901883e-03
5.569340241546e-03
4.247537830652e-03
4.096212274891e-03
4.376310335557e-03
2.295285634796e-03
1.760148970824e-03
5.307204263575e-03
2.597022010623e-03
2.677083653507e-03
2.361042937549e-03
2.540509620076e-03
3.590752619766e-03
3.561980325172e-03
4.687546968051e-03
4.862462070621e-03
4.404636295064e-03
2.304172143242e-03
2.399216396593e-03
1.964677543140e-03
5.518361070662e-03
5.664420780412e-03
2.775557848670e-03
2.950132041529e-03
2.770175388850e-03
5.630497223971e-03
4.810959073252e-03
4.708255592783e-03
1.439105625328e-03
1.764440458605e-03
2.782344288704e-03
2.711314613078e-03
5.598196232205e-03
5.483018715217e-03
5.749000539319e-03
1.876891076347e-03
3.340823531716e-03
3.019076182411e-03
2.638636300015e-03
3.496239648933e-03
3.233921457243e-03
3.509435497577e-03
4.060457021751e-03
9.830298147037e-05
5.472024458089e-03
4.113394862956e-03
0.0
3.974022231900e-03
4.142147385999e-03
3.808811843470e-03
1.512139063608e-03
4.035840610883e-03
4.228908811524e-03
1.229665042051e-03
5.727754258707e-03
1.213722886229e-03
1.289130077108e-03
4.190343840825e-03
4.208177283858e-03
4.453725484854e-03
4.415818037714e-03
4.236650972425e-03
4.433395698974e-03
3.960847876624e-03
4.646929544121e-03
4.602784854752e-03
4.854292446809e-03
3.246379902709e-03
2.751258169961e-03
2.634703286177e-03
2.390161293581e-03
5.366413333148e-03
5.305369359066e-03
4.571502884887e-03
4.361148070353e-03
3.986570332512e-03
3.958169901241e-03
4.225562744729e-03
4.178369498049e-03
4.446132963819e-03
4.399693690965e-03
4.649688467265e-03
4.553994310106e-03
2.395247212063e-03
3.489844342941e-03
2.935834930029e-03
2.507685734421e-03
3.320342588166e-03
3.002197588997e-03
3.920773109245e-03
3.240450602112e-03
5.870937815019e-03
0.0
3.323452107101e-04
3.218749665586e-03
3.600131537244e-03
2.907036869022e-03
2.836905823125e-03
2.270773315379e-03
1.834790987996e-03
2.673096930044e-03
4.690114924130e-03
2.348836148975e-03
4.492676789655e-03
3.205482778443e-03
3.817317219374e-03
2.948492527326e-03
2.849084286571e-03
4.354187352303e-03
4.105094102283e-03
3.949385469094e-03
3.043885708512e-03
3.025811206364e-03
2.606730506197e-03
4.199509327046e-03
5.239720060421e-03
5.342311723545e-03
5.568723597318e-03
5.436074129988e-03
5.195127512814e-03
5.275945829576e-03
5.522846822360e-03
5.362101483362e-03
5.654790167380e-03
5.418798555265e-03
5.183358795615e-03
5.228039527145e-03
5.462723589554e-03
5.010149217662e-03
3.394314338742e-03
3.254416177728e-03
3.998143781563e-04
1.780285334436e-03
3.960367887196e-03
5.943039136803e-03
5.959345631699e-03
3.141346465330e-03
5.620347987340e-03
4.084459886071e-03
2.498622170437e-03
5.268940025093e-03
5.099701809653e-03
4.951938385870e-03
4.853275658762e-03
5.939990338712e-03
4.510478805277e-03
4.274617599746e-03
1.914060081792e-03
2.484209945367e-03
2.639018446471e-03
5.114013007791e-03
3.400229055208e-03
2.914794698409e-03
2.950236209628e-03
2.471629201444e-03
3.451405133461e-03
5.898428211788e-03
5.845499826008e-03
3.178797580669e-03
2.960279401288e-03
2.804058035340e-03
2.729987471253e-03
2.829725808593e-03
2.578048860295e-03
2.561856093753e-03
2.441038645177e-03
5.056780879738e-03
3.797514540817e-03
3.350528560521e-03
3.070190277767e-03
2.914035417259e-03
3.410817836896e-03
3.523130452731e-03
3.651707279838e-03
3.259955241283e-03
3.906281668705e-03
3.999951674760e-03
1.514180247365e-03
3.455226154399e-03
3.780489020667e-03
4.041242521720e-03
4.062468817485e-03
4.304541709678e-03
4.049230948442e-03
3.629888373411e-03
3.687995609435e-03
3.556481715217e-03
3.766062809759e-03
3.630392003192e-03
3.425625743275e-03
3.859887208052e-03
3.712754465682e-03
3.753295504860e-03
5.944650398120e-04
2.225590346816e-03
2.127823725117e-03
2.979469021594e-03
2.824219377905e-03
3.230470095965e-03
3.141720754719e-03
1.550829825203e-03
7.467435189644e-04
1.647650571366e-03
6.781160949691e-04
1.418844655901e-03
2.293180220520e-03
2.042650195457e-03
4.943618431220e-03
3.031335723016e-03
2.945155604069e-03
2.688743593994e-03
2.875725181900e-03
3.142994710358e-03
2.523324995075e-03
2.457510238830e-03
1.510421340239e-03
1.007815092101e-03
1.077602730068e-03
9.323160320548e-04
9.716390507349e-04
1.014619391924e-03
1.008787792094e-03
1.356424777816e-03
1.016122513265e-03
1.104929402575e-03
1.269761046994e-03
4.987755442147e-03
5.116267723268e-03
4.373987183766e-03
3.768398534654e-03
7.723067608076e-04
5.801414033109e-03
5.849888523554e-03
5.842497446698e-03
4.794097655678e-03
4.842845514710e-03
5.795857190057e-03
2.602280117318e-03
5.684608119029e-03
5.426766964233e-03
2.915293754372e-03
2.687040126660e-03
4.231633519162e-03
3.882386612765e-03
4.556515040671e-03
3.998756045770e-03
4.293387971553e-03
3.074535552154e-03
1.408470089399e-03
4.539066931421e-03
4.423048734156e-03
5.069081138622e-03
2.521812465648e-03
3.361884437641e-03
1.678049688451e-03
5.074061553586e-03
3.958676471230e-03
3.095099427902e-03
3.226856089264e-03
2.810734054587e-03
2.838974017310e-03
3.275246495708e-03
3.484344474013e-03
3.705978157807e-03
5.196157012198e-03
1.018518931270e-03
3.521375643282e-03
3.706077620756e-03
4.658000838490e-03
1.709680317594e-03
3.305261692782e-03
5.177694957922e-03
5.612493104205e-03
4.353675085413e-03
1.412398444283e-03
4.259060800003e-03
3.477784717748e-03
5.132413977016e-03
2.272689532028e-03
1.816489196477e-03
3.846604393139e-03
3.494167407997e-03
5.528278511331e-03
3.146089818610e-03
1.957139825605e-03
1.112448474457e-03
2.360079505855e-03
4.023485214536e-03
2.432815649017e-03
5.414327495685e-03
4.449676466395e-03
2.421354826549e-03
5.279237453520e-03
2.481134471885e-03
2.154599998102e-03
3.850201562972e-03
4.337013816297e-03
4.689567346140e-03
3.889632788579e-03
4.106706360112e-03
3.777078850776e-03
2.080073589128e-03
3.024091218619e-03
4.636084587167e-03
4.310138882828e-03
5.639613987774e-03
3.640972516567e-03
4.095996415080e-03
5.509310551577e-03
3.587895264237e-03
1.596224348258e-03
2.654907617398e-03
2.518196502036e-03
2.963465931010e-03
3.699806971781e-03
5.746687556824e-03
4.270512341206e-03
2.658558888212e-03
1.385837139963e-03
3.642720607827e-03
4.434127154033e-03
1.755325851135e-03
2.085706409627e-03
3.490851329931e-03
4.839928513279e-03
3.143753996542e-03
4.591157827227e-03
1.995758212990e-03
3.213796841356e-03
3.698867822439e-03
4.783484472751e-03
2.274372036269e-03
3.942041855717e-03
2.018129477521e-03
3.179171001688e-03
3.766024258519e-03
4.461967294443e-03
5.932012927013e-03
2.263421662545e-03
4.710985723028e-03
3.694491554536e-03
2.635139483983e-03
1.025903351167e-03
3.364049018946e-03
3.741140459926e-03
2.496086040746e-03
2.247981960543e-03
3.447314890979e-03
3.806063609485e-03
2.443637327429e-03
3.889607978100e-03
2.932212877137e-03
4.809565923031e-03
3.991122142150e-03
4.535682597544e-03
1.253579093275e-03
3.692076032167e-03
4.710605835282e-03
2.989317964917e-03
2.692080032987e-03
5.041460301469e-03
2.649271473601e-03
2.763935828314e-03
4.635607043239e-03
3.377136231024e-03
2.886852932384e-03
2.656221383019e-03
2.841982051278e-03
2.546121946089e-03
2.280710634061e-03
2.448224017802e-03
4.844932991548e-03
1.159538546380e-03
4.958406181658e-03
2.170695742773e-03
2.635116820677e-03
3.060192089563e-03
4.490482294088e-03
2.676098572190e-03
1.933023820066e-03
2.768539009112e-03
2.773761821372e-03
2.620450107336e-03
2.685714993396e-03
5.648300186419e-03
2.938653539912e-03
5.823614188444e-03
4.963188208300e-03
3.932121989893e-03
2.324149862710e-03
0.0
2.514548860694e-03
2.801591293186e-03
4.851561224056e-03
3.937231005468e-03
2.729494295403e-03
5.675085357911e-03
4.803426685540e-03
4.862248751244e-03
2.171293786245e-03
3.009255413908e-03
5.428982077181e-03
3.693412385958e-03
1.283308417236e-03
4.241990484630e-03
2.118254558368e-03
2.377043969348e-03
2.382468483149e-03
2.413239708947e-03
2.697664909012e-03
2.126804265286e-03
2.932528478253e-03
3.975655703172e-03
3.423996743188e-03
2.040734890307e-03
5.723862858495e-03
4.029709976472e-03
4.729446121623e-03
3.643538952676e-03
2.324384274866e-03
4.240145590124e-03
5.248251932663e-03
5.065638731077e-03
4.865415511008e-03
3.950525462167e-03
5.659251463191e-03
2.734727135404e-03
5.648629554702e-03
5.043134290996e-03
4.301884988432e-03
4.260018092810e-03
4.871863521837e-03
5.738997361023e-03
2.142169266280e-03
4.855264715639e-03
2.941329875457e-03
4.982839675412e-04
4.155649936064e-03
5.251942821195e-03
4.831609780295e-03
9.013000089023e-04
1.077083856090e-03
3.817677234665e-03
5.571067232882e-03
3.300048357497e-03
5.920327576545e-03
7.577862853329e-04
3.663422898644e-03
1.060195543772e-03
4.951255767581e-03
5.712619248510e-03
3.070814862917e-03
3.822820158157e-03
2.186156026243e-03
4.538463984820e-03
1.851321241038e-03
5.716697476405e-03
3.395600169627e-03
5.810236312995e-03
3.850312672381e-03
0.0
4.395921499424e-03
2.651166453379e-03
3.693193394849e-03
5.779881690989e-03
2.632058365002e-03
1.305216945228e-03
5.834411797515e-03
1.794472957361e-03
3.663155821034e-03
4.974463401011e-03
1.126337765141e-03
4.139350774126e-03
5.652422135997e-03
3.542221846802e-03
5.289169342971e-03
3.063748398770e-03
0.0
4.627165150353e-03
3.844266386451e-03
5.798941796910e-03
4.453871606854e-03
2.441774290393e-03
5.465528199286e-03
3.248665564556e-03
4.976193501889e-03
2.571640358639e-03
4.385914325616e-04
3.751244995351e-03
1.075195837059e-03
4.615840899057e-03
3.326084611542e-03
1.219292879992e-03
4.743111202536e-04
1.615523002105e-03
9.197396003492e-04
1.752819851871e-03
1.220797268804e-03
1.828874842648e-03
1.638630534890e-03
2.076700773459e-03
1.933797938159e-03
2.408370959842e-03
2.324628182171e-03
2.687439418483e-03
2.614478323154e-03
2.992334186830e-03
2.991431796678e-03
3.343927869160e-03
3.270124677663e-03

SCALARS node_materi_plasti_phimob float
LOOKUP_TABLE default
-4.814041676500e+01
1.616284802051e+01
2.056801523832e+01
2.032065116387e+01
-3.081971690157e+01
-4.539399890795e+00
6.879207119184e+00
1.103207876494e+01
1.195564265126e+01
1.377182175670e+01
1.509646188882e+01
1.611609641713e+01
1.692505704170e+01
1.760227039296e+01
1.819304559682e+01
1.864076397474e+01
1.898271371973e+01
1.933340328182e+01
1.963294167697e+01
1.988597903380e+01
2.011093122760e+01
2.030954741402e+01
2.047402307796e+01
2.033432504150e+01
2.033180168379e+01
2.033555300929e+01
2.034021315329e+01
2.033462424741e+01
2.034331519780e+01
2.034320509089e+01
2.035523076451e+01
2.036613583690e+01
2.037676638540e+01
2.037701937822e+01
2.039390031197e+01
2.040177295910e+01
2.041941784718e+01
2.042343360000e+01
2.043805856682e+01
2.045030608835e+01
2.046398170583e+01
2.048790950027e+01
2.050940394468e+01
2.053360476382e+01
2.054345046521e+01
2.057140699722e+01
2.059051928202e+01
2.060818456191e+01
2.061282046090e+01
2.063745953556e+01
2.063109838082e+01
2.064937870325e+01
2.064584444323e+01
2.066168684111e+01
2.066395353423e+01
2.066523321545e+01
2.067256691386e+01
2.067323578380e+01
2.067949395456e+01
2.066761250155e+01
2.067046935578e+01
2.065227855907e+01
2.065476519204e+01
2.064393607651e+01
2.061988115307e+01
2.060127256053e+01
2.060663217901e+01
2.058420513320e+01
2.059205142627e+01
2.058581589961e+01
2.058221686270e+01
2.058173219605e+01
1.691034349595e+01
1.755986348839e+01
1.809113375815e+01
1.854224269181e+01
1.894802766106e+01
1.929554182730e+01
1.961582672167e+01
1.990178456076e+01
2.016164273396e+01
1.799519794461e+01
1.609705854319e+01
1.765548128635e+01
-5.475607278972e+00
-1.589198317895e+00
4.040037654421e+00
8.559903007752e+00
1.197953181142e+01
1.383697964632e+01
1.459798857247e+01
1.533450966853e+01
2.017998802449e+01
-3.333961347206e+01
-9.351508415583e+00
1.246663030665e+00
6.747677815458e+00
1.012287757196e+01
1.236059762952e+01
1.396603839812e+01
1.515484971921e+01
1.602393654671e+01
1.605904119516e+01
1.605918284743e+01
1.603616494857e+01
1.612449123374e+01
1.601616478226e+01
1.597803855856e+01
1.597153285044e+01
1.597718337710e+01
1.595666999621e+01
1.593294387051e+01
1.593187676080e+01
1.594644647261e+01
1.599863118884e+01
9.596666415541e+00
8.031279160944e+00
8.707096328269e+00
9.815589232154e+00
1.081232933611e+01
-2.164801269142e+00
-3.394810968961e+01
-4.943187382119e+01
-5.422951483278e+01
-5.383880621576e+01
-5.219043946269e+01
-5.097536806985e+01
-5.088945032951e+01
-5.089539351922e+01
-5.058490958653e+01
-5.039093048746e+01
-5.005356418184e+01
-4.949709709298e+01
-4.930607122802e+01
-6.406926881126e+00
-5.370333154986e+01
-5.270065808821e+01
-5.281304741084e+01
-5.314070060520e+01
-5.353343643345e+01
-5.398157344470e+01
-5.444972775109e+01
-5.482951377796e+01
-5.506270297123e+01
-5.518182669031e+01
-5.518855033369e+01
-5.509757876276e+01
-5.496214812277e+01
-5.480227551236e+01
-5.463320728721e+01
-5.447311208201e+01
-5.432305696838e+01
-5.435289634302e+01
-5.471115407928e+01
-5.529522494660e+01
-5.583550189317e+01
-5.557782545915e+01
-5.341226866495e+01
-5.091090878668e+01
-4.671258641180e+01
-3.424482403041e+01
-1.498789729902e+01
-2.181229497371e+01
-2.506923982635e+01
-3.111651359304e+01
-3.424690891382e+01
-3.575839704805e+01
-3.594844480932e+01
-3.557871164174e+01
-3.516478944048e+01
-3.494040151383e+01
-3.492894296593e+01
-3.498260410201e+01
-3.508659844933e+01
-3.518821022376e+01
-3.529054260338e+01
-3.539380588372e+01
-3.546924797988e+01
-3.547584531004e+01
-3.539477011597e+01
-3.518512126342e+01
-3.485508573664e+01
-3.448690119982e+01
-3.415445240541e+01
-3.387813355513e+01
-3.368029331072e+01
-3.357644893846e+01
-3.373991050620e+01
-6.126442673718e+00
-5.837571947130e+00
-7.571964695997e+00
-8.373854611841e+00
-8.567087006367e+00
-8.550810060179e+00
-8.439497818096e+00
-8.436590710470e+00
-8.540308616080e+00
-8.686922374089e+00
-8.834738771354e+00
-8.973857533971e+00
-9.114611166821e+00
-9.240142695334e+00
-9.346591973410e+00
-9.437516886764e+00
-9.516609438568e+00
-9.584258847205e+00
-9.641222198546e+00
-9.687991947334e+00
-9.725061115718e+00
-9.760810200594e+00
-9.812849514695e+00
-9.705503988221e+00
-9.152616181215e+00
1.054930701926e+00
1.144554079663e+00
1.187083401698e+00
1.206329000929e+00
1.220362694190e+00
1.236261869908e+00
1.257284995321e+00
1.285689232579e+00
1.322202338879e+00
1.367885879273e+00
1.426488898678e+00
1.503034466500e+00
1.601051013943e+00
1.714054439695e+00
1.847744642522e+00
2.034792129349e+00
2.297716473191e+00
2.546003119298e+00
2.681331789069e+00
2.814318145883e+00
3.075530364596e+00
3.660964244147e+00
2.841033758292e+00
8.253037401236e+00
8.898852839152e+00
8.513234612789e+00
8.217980868461e+00
7.863110065472e+00
7.502672736206e+00
7.239871682294e+00
7.050723516679e+00
6.929380551984e+00
6.856651549287e+00
6.806077691723e+00
6.773113901172e+00
6.753155469397e+00
6.741645457837e+00
6.735915551553e+00
6.735413271402e+00
6.737837070934e+00
6.740474298962e+00
6.740891848314e+00
6.735863342319e+00
6.736016657031e+00
6.791380618208e+00
1.006774637688e+01
1.007628098374e+01
1.007734512342e+01
1.007202755273e+01
1.006117827404e+01
1.004816383400e+01
1.003643031429e+01
1.002607631121e+01
1.001949709855e+01
1.001919240640e+01
1.002733304142e+01
1.004703429786e+01
1.008267724642e+01
1.017049483372e+01
1.033470175365e+01
1.056308463699e+01
1.085067594841e+01
1.122628588263e+01
1.181899925191e+01
1.171874390448e+01
1.317050931817e+01
1.317381123951e+01
1.279774884248e+01
1.256147867114e+01
1.237685817687e+01
1.225603753547e+01
1.221073998815e+01
1.219471385007e+01
1.219050649615e+01
1.219302120118e+01
1.220536481992e+01
1.222747026472e+01
1.224624394356e+01
1.226529714171e+01
1.228506405552e+01
1.229957643332e+01
1.230898919143e+01
1.232962552151e+01
1.236941837492e+01
1.394509896395e+01
1.392480774914e+01
1.391304517615e+01
1.390186949478e+01
1.388201526899e+01
1.386144120050e+01
1.383873344869e+01
1.380987612710e+01
1.378050505266e+01
1.377140130531e+01
1.377231352461e+01
1.377767886922e+01
1.380267753365e+01
1.385996674853e+01
1.399726650460e+01
1.424916395045e+01
1.417664766751e+01
1.504628553954e+01
1.515990247288e+01
1.503378992838e+01
1.499076106735e+01
1.498138704638e+01
1.498355289927e+01
1.499095657091e+01
1.501608978081e+01
1.504152652221e+01
1.506751267723e+01
1.508742913349e+01
1.510454988326e+01
1.512355281152e+01
1.513047644133e+01
1.515507380443e+01
1.518873952870e+01
3.381993551578e+01
3.499371923439e+00
-2.306481095239e+00
2.536621905439e+00
7.076045761491e+00
1.076310999757e+01
1.346353643485e+01
1.433245214642e+01
1.505475889152e+01
1.575303425428e+01
8.443874688807e+00
2.075002995423e+01
-3.763540761237e+01
1.374030570940e+01
2.073292126162e+01
7.707624004804e+00
1.793942555140e+01
2.069167495756e+01
1.277413657622e+01
2.060310014455e+01
1.536400754352e+01
2.059762538414e+01
-3.846303460143e+01
2.044752840136e+01
1.649240528237e+01
1.457380375945e+01
1.912572406635e+01
2.034945806584e+01
2.029783683330e+01
2.022984154216e+01
2.021622689752e+01
2.027160803064e+01
1.671168006132e+01
1.670928753460e+01
1.679034046645e+01
1.875096198360e+01
2.054069937922e+01
1.107868983529e+01
-3.656734642309e+01
1.999841871756e+01
1.675946417381e+01
9.442727803110e+00
2.028803261174e+01
2.065627344141e+01
2.053451695748e+01
2.073444158478e+01
2.076849395544e+01
-5.387048213133e+00
1.666581135576e+01
2.068090344497e+01
1.946054225359e+01
-3.816304632649e+01
1.657638610760e+01
2.026138744879e+01
1.064489034985e+01
5.911417573781e+00
1.483040510530e+01
1.591346339795e+01
2.668470673967e+01
1.786886621957e+01
2.054556879541e+01
-3.746688540135e+01
2.002084625501e+01
1.677265129379e+01
1.711443854055e+01
1.737636892069e+01
1.773151902868e+01
1.799807057111e+01
1.826752063983e+01
1.802586814471e+01
1.852000465610e+01
1.830856755672e+01
1.848728100477e+01
1.876325826825e+01
1.857912736126e+01
1.899419348450e+01
1.883684732341e+01
1.841148497545e+01
1.868882996356e+01
1.826997390295e+01
1.856945184238e+01
1.894922864530e+01
1.884930705794e+01
1.848499171387e+01
1.877720363097e+01
1.844027146001e+01
1.874697697993e+01
1.838069116716e+01
1.863675633606e+01
1.907004463805e+01
1.890038330847e+01
1.838630452918e+01
1.862700782583e+01
1.804167691245e+01
1.847397663097e+01
1.919530492561e+01
1.926649861701e+01
1.853215189294e+01
1.937967758325e+01
1.876039721086e+01
1.963153320089e+01
1.908157693449e+01
1.989518366529e+01
2.036601665020e+01
2.054340801878e+01
2.012110574407e+01
2.061890450340e+01
2.103206666080e+01
2.094672698895e+01
2.134740688081e+01
2.112853792558e+01
2.074324365096e+01
2.075577763021e+01
2.112558067609e+01
2.062234848533e+01
2.025009208328e+01
2.001623701688e+01
2.043450414634e+01
1.971195811276e+01
1.934898074034e+01
1.882206253717e+01
1.912421473146e+01
1.820860305591e+01
1.780646218229e+01
1.768528384254e+01
1.812298190574e+01
1.788815809896e+01
1.840794305078e+01
1.736707070603e+01
1.763020891591e+01
1.701310339470e+01
1.732254143884e+01
1.999258320639e+01
1.658888798347e+01
1.626074863574e+01
1.696995435662e+01
1.770186537225e+01
1.609641235287e+01
1.656802246565e+01
1.554653452233e+01
1.807356177540e+01
1.919380625442e+01
1.611061213645e+01
1.491259183481e+01
1.417725762517e+01
1.326318132828e+01
1.824084622992e+01
1.870573062072e+01
1.847065995648e+01
1.891065994360e+01
1.870399031303e+01
1.416322346829e+01
1.915365924062e+01
1.910588193735e+01
1.809890939027e+01
1.778581226037e+01
2.140611345497e+01
1.703508215141e+01
1.664551074786e+01
1.738181516234e+01
1.866430438858e+01
1.894987152802e+01
1.937179506682e+01
1.952346515717e+01
2.015622139186e+01
2.017491850949e+01
1.965047487297e+01
2.015348491316e+01
1.968206377167e+01
2.054956686767e+01
2.065204987995e+01
2.013869435768e+01
1.972796131757e+01
2.012514808770e+01
1.978322140809e+01
1.947005752624e+01
1.954743078640e+01
1.925894258445e+01
2.165576204921e+01
2.169055124633e+01
2.182989941130e+01
2.173707593050e+01
2.163237112038e+01
2.141613224602e+01
2.132564685119e+01
2.145958663430e+01
1.921252982678e+01
2.030939629696e+01
1.980983450712e+01
2.015126188891e+01
1.958481671691e+01
2.014868536189e+01
1.945776687643e+01
2.033038461861e+01
2.058224577066e+01
2.103213564053e+01
2.073247432539e+01
2.152675922447e+01
2.049906171046e+01
1.944483334467e+01
2.151254664049e+01
2.118561634456e+01
2.119425018182e+01
1.219912825212e+01
1.985611088766e+01
2.079822649957e+01
2.093087316832e+01
2.125246179160e+01
1.204490459975e+01
1.951658830414e+01
1.834908099400e+01
1.910362384228e+01
1.891392906289e+01
2.094176816249e+01
1.304074265240e+01
2.040604185496e+01
2.203207021867e+01
1.963270467747e+01
1.992509605110e+01
1.935852937300e+01
2.099249529201e+01
2.095703128775e+01
2.015155389329e+01
1.937041515764e+01
1.959703212385e+01
1.798789738624e+01
1.830547768866e+01
1.722557617371e+01
1.686119415493e+01
1.631750819664e+01
1.671130757945e+01
1.559929077516e+01
1.430005289386e+01
1.374118017180e+01
2.012050600077e+01
2.307611711909e+01
1.795476304652e+01
2.083016589757e+01
2.113313292248e+01
1.928656266229e+01
1.911365576794e+01
1.871670344662e+01
1.893602891379e+01
1.930523762868e+01
1.914056377749e+01
1.875117576513e+01
1.896728950252e+01
1.855433901297e+01
1.878648539170e+01
1.916929802202e+01
1.900325520413e+01
1.860089839018e+01
1.882992765924e+01
1.840506348320e+01
1.864334296484e+01
1.904216087138e+01
1.068429192949e+01
2.133722886205e+01
2.118426925814e+01
1.691151510763e+01
1.746615465963e+01
1.791879082805e+01
1.796121802808e+01
1.886619848340e+01
1.924463653005e+01
1.812656481909e+01
1.698824564141e+01
1.945340485038e+01
1.971311872819e+01
1.942950135172e+01
1.743785027113e+01
1.706007425086e+01
1.673932687675e+01
1.617110761132e+01
1.665823723991e+01
1.582533175143e+01
2.077273202976e+01
1.936063699786e+01
1.335784701875e+01
1.091900800219e+01
1.997532825917e+01
2.151396474384e+01
1.949633509171e+01
1.992897005797e+01
1.986491626101e+01
2.017800230487e+01
2.008021038432e+01
2.031920064597e+01
2.042325980745e+01
2.084394447137e+01
2.050149276430e+01
1.843384069101e+01
2.143669592713e+01
1.616902097620e+01
8.724981966663e+00
1.122176402480e+01
1.142003457169e+01
1.365803087005e+01
2.091413658809e+01
2.025318885072e+01
2.002174783405e+01
1.561042643743e+01
1.623069156178e+01
2.086979806777e+01
1.823410303225e+01
1.830537137660e+01
1.808049632659e+01
8.228566615957e+00
1.199489817006e+01
1.948528518891e+01
1.751063649151e+01
1.632664431977e+01
2.390917495312e+01
2.562825534385e+01
1.906703540532e+01
1.941684150030e+01
1.831677731741e+01
1.839549021872e+01
2.101302462634e+01
1.136081899589e+01
1.957128875731e+01
2.134907206770e+01
2.142417033915e+01
1.752565358151e+01
1.618219380786e+01
1.784420441558e+01
1.712326436633e+01
1.365349252111e+01
1.218781381261e+01
2.094532669981e+01
1.962967666147e+01
2.059606783247e+01
2.056280608910e+01
2.060319349625e+01
7.290146709789e+00
2.082871145896e+01
1.979466122898e+01
2.022045917285e+01
1.999867058396e+01
1.692749405618e+01
1.584238422504e+01
1.486539581301e+01
1.464755160264e+01
1.780454283473e+01
1.650118243362e+01
1.782448597278e+01
1.745595168367e+01
1.731886761489e+01
1.719656078440e+01
1.683481381348e+01
1.903174131905e+01
2.134486175133e+01
1.827668766519e+01
1.918912936767e+01
1.935501495951e+01
1.950847978634e+01
1.968155371645e+01
1.814013155587e+01
1.790400961559e+01
8.913583956125e+00
6.769390211089e+00
1.876119561757e+01
2.073752730075e+01
1.961405979628e+01
1.976259331570e+01
1.961080925558e+01
2.102142582550e+01
2.040767903257e+01
2.172820101646e+01
2.326683074631e+01
1.995423345247e+01
3.038324643466e+00
1.930142830324e+01
2.002423962118e+01
2.016331395641e+01
2.077735933562e+01
1.687861522963e+01
2.054581850480e+01
2.063899669412e+01
1.688250160827e+01
1.673391278755e+01
1.722155491446e+01
1.664170175166e+01
1.678844595213e+01
1.600699635498e+01
2.040090308313e+01
2.055520190099e+01
2.021703756159e+01
2.001617912298e+01
2.077691819560e+01
2.087998849867e+01
1.403686732217e+01
1.578595147375e+01
1.978531631297e+01
1.705735022546e+01
2.074618530073e+01
2.065730626994e+01
2.481202805861e+01
2.185978517713e+01
1.973398377737e+01
1.304836471257e+01
1.309047084701e+01
1.331604274635e+01
2.039179923787e+01
1.674847092027e+01
2.021192826296e+01
1.756838613465e+01
1.986849088408e+01
2.093640383873e+01
1.723178298463e+01
2.112064559068e+01
1.956926106904e+01
1.990090974171e+01
1.778298859765e+01
1.751451077126e+01
1.802072622367e+01
2.174541359163e+01
2.347101800780e+01
1.954089829533e+01
1.602262132090e+01
1.626324670497e+01
1.185052109312e+01
1.393804472381e+01
1.863276438789e+01
1.855761779107e+01
1.950898423924e+01
1.960517852433e+01
1.948100117034e+01
2.124375917004e+01
2.105735989096e+01
2.133449934196e+01
1.981244624474e+01
1.999399553034e+01
1.785673188538e+01
1.826506603947e+01
1.665429646215e+01
1.991768783657e+01
2.033385646540e+01
2.031281944728e+01
-9.100572508395e-01
4.185434395558e+00
1.533324133804e+01
1.805536023179e+01
1.989992473583e+01
1.976443992634e+01
2.005381930210e+01
1.272187284902e+01
2.071674427680e+01
2.092399708602e+01
2.100556902657e+01
2.085333059691e+01
2.074540529956e+01
2.072158308636e+01
2.061717182242e+01
2.192228764068e+01
1.980027976563e+01
1.757265201010e+01
1.753737252844e+01
1.730380575729e+01
1.765954814288e+01
1.698052333977e+01
1.098375423128e+01
1.735253859943e+01
1.772040642800e+01
-1.042652484815e+01
2.006076464968e+01
-8.424033248816e+00
-2.369906584357e+00
2.066784630334e+01
2.059065644936e+01
2.063453645712e+01
2.055441682562e+01
2.046439563618e+01
2.043083742979e+01
1.721968318747e+01
2.053120151539e+01
2.041424535318e+01
2.055084092105e+01
1.602979211225e+01
1.467432196303e+01
1.345352215866e+01
1.115882958525e+01
2.026923911907e+01
2.008613091017e+01
1.988741884452e+01
1.963750468340e+01
1.736447104851e+01
1.734057565988e+01
1.786007206662e+01
1.779955023404e+01
1.826127901653e+01
1.819060282863e+01
1.860957386389e+01
2.059330711021e+01
1.053069432442e+01
1.641012476487e+01
2.079583905222e+01
2.090291624224e+01
1.640251730442e+01
1.537038307417e+01
2.079291692228e+01
1.744433910660e+01
2.022072201550e+01
1.565129715259e+01
2.237074286546e+01
1.711309204467e+01
1.715187816789e+01
1.500243094528e+01
1.424619400122e+01
2.120433788359e+01
1.537560915499e+00
1.397594126248e+01
1.864919438332e+01
1.186633081589e+01
1.976054219159e+01
1.850776910011e+01
1.788485521528e+01
1.538023578044e+01
1.571580559658e+01
1.811651920539e+01
1.747979928076e+01
1.726000583863e+01
1.941999830875e+01
1.501853206139e+01
1.315627239263e+01
1.816772808864e+01
1.945555706618e+01
1.962059339509e+01
1.990077746761e+01
1.977503003420e+01
1.947270410288e+01
1.963840256517e+01
1.992082974727e+01
1.979964866299e+01
2.010184619897e+01
1.995030878919e+01
1.967101939373e+01
1.982930471996e+01
2.006554925582e+01
1.954039900192e+01
2.071892369532e+01
1.781374378917e+01
2.532212512183e+01
2.351052600388e+01
1.807098654652e+01
2.033356046054e+01
2.030303209161e+01
1.865265230742e+01
2.048392003489e+01
1.761684761487e+01
2.079826750137e+01
2.056766755403e+01
1.929258372562e+01
1.912106754251e+01
1.891680257579e+01
2.028677752974e+01
1.826366420441e+01
2.067280861015e+01
2.162605484262e+01
2.124516201716e+01
2.081670522119e+01
1.949698687896e+01
2.074618923207e+01
2.084880278923e+01
2.085982244924e+01
2.097741080585e+01
2.076400712726e+01
2.038925434643e+01
2.042484455671e+01
1.766664590736e+01
1.877095418897e+01
1.924302388392e+01
1.966227315873e+01
1.942144163224e+01
2.009700564755e+01
2.017730485428e+01
2.045817580675e+01
1.986514973437e+01
2.076190310977e+01
2.017575331931e+01
2.024237760505e+01
1.958165505411e+01
1.806637455968e+01
1.832953660114e+01
1.880104914054e+01
1.776386387177e+01
2.031345978719e+01
2.074735865760e+01
2.165096833719e+01
1.797061442906e+01
1.668829150046e+01
1.730837980656e+01
1.733375871640e+01
1.788338082109e+01
1.734781324656e+01
1.869080869929e+01
1.878243878235e+01
1.850670342880e+01
1.889147637849e+01
1.862558327537e+01
1.822285246356e+01
1.900255091068e+01
1.874175885411e+01
1.667302674284e+01
1.298646704282e+01
1.304712251768e+01
3.804775937720e+00
1.289565130036e+01
1.693646088748e+01
1.587925339822e+01
1.830484204835e+01
2.050016596388e+01
-2.308346128315e+01
-4.201308370065e+00
-3.285054311248e+01
-9.338462972183e+00
5.293142191053e+00
9.613067575190e+00
2.051468502697e+01
1.729675807051e+01
1.703887864902e+01
1.627880046921e+01
1.683899478545e+01
1.759826149142e+01
1.569439646824e+01
1.542249075749e+01
-3.649042775450e+01
-1.126349467568e+01
-1.327184319988e+01
2.156568630433e+00
1.893295007324e+00
-1.098888944498e+01
-1.105972861042e+01
-3.687271742761e+01
-1.171165208952e+01
1.409834284212e+00
-3.782787642998e+01
1.913020968375e+01
1.932455203538e+01
2.071566472032e+01
1.677478423119e+01
-3.840170202039e+01
2.018434339952e+01
2.023044225750e+01
2.022979768223e+01
2.020817180442e+01
2.030161074764e+01
2.019241950860e+01
1.495699244212e+01
2.002703272842e+01
1.971078345465e+01
1.978851416628e+01
1.509850572543e+01
1.952666106935e+01
1.940550559786e+01
2.013882779119e+01
1.934175326419e+01
2.011319222326e+01
2.088600388377e+01
1.042106172845e+01
1.834886185367e+01
1.818953902794e+01
1.920541288212e+01
1.559134260729e+01
1.807976012320e+01
1.070973701546e+01
2.045224885938e+01
1.772276889756e+01
1.867918286252e+01
1.739076719657e+01
1.565045406785e+01
1.513147012189e+01
1.782243413438e+01
1.820349313530e+01
2.046816649436e+01
1.939643277830e+01
-3.463469488624e+01
2.068594981667e+01
1.921739463199e+01
1.851786930433e+01
2.116364796252e+01
1.512457170243e+01
1.933056778091e+01
1.989949195682e+01
1.798653891678e+01
6.225572157086e+00
1.784436595879e+01
2.085907075472e+01
1.928378958134e+01
1.480345709946e+01
2.148783635586e+01
1.815097603690e+01
1.618373282141e+01
1.983968247371e+01
2.001978176683e+01
2.110233877200e+01
2.172550101331e+01
1.516028768844e+01
2.052543550575e+01
2.096772274893e+01
1.965317432296e+01
1.978287771499e+01
2.059780941092e+01
1.946155969747e+01
2.004301783445e+01
2.100648096537e+01
1.767638171307e+01
1.907862135031e+01
1.907785941267e+01
1.928225508998e+01
1.934321422933e+01
2.059788177406e+01
2.149224740140e+01
1.654910225041e+01
1.848484272499e+01
2.043708996254e+01
1.993682006035e+01
1.750847391671e+01
2.034923636754e+01
1.976781211566e+01
1.855657312019e+01
1.124587063635e+01
2.035831643202e+01
2.041497800012e+01
2.015941254088e+01
1.901593200755e+01
2.006460190179e+01
2.030619639121e+01
2.106628235270e+01
1.495758055130e+01
1.663480781297e+01
2.028363407729e+01
2.146741382239e+01
2.100952766256e+01
1.832804718151e+01
2.052017743699e+01
1.586471275530e+01
2.029443159675e+01
2.123211194195e+01
1.798221015540e+01
1.676401802272e+01
2.044941762120e+01
2.111086155788e+01
1.996463398281e+01
2.103476528655e+01
1.561784896704e+01
1.914334892391e+01
1.912364314026e+01
2.028039507743e+01
2.105605807012e+01
1.871850689069e+01
1.890562999421e+01
2.115065651346e+01
1.650084663350e+00
1.619923532028e+01
1.895447968751e+01
2.037158282293e+01
2.077225918623e+01
2.073234800546e+01
1.903310918284e+01
2.047958209267e+01
1.912748307938e+01
1.510109538656e+01
1.894360181035e+01
1.922687268855e+01
1.946380913156e+01
1.635527498390e+00
2.042998099742e+01
2.010501416639e+01
1.676576397880e+01
2.041812687508e+01
1.931620498268e+01
1.397754437744e+01
2.089926604526e+01
1.974988731486e+01
2.073328392561e+01
2.069487994743e+01
2.108067587788e+01
1.445365041621e+01
1.438485377789e+01
1.253947820845e+01
2.041653886393e+01
1.978357556066e+01
9.063303957637e+00
1.935376447832e+01
8.334389497369e+00
1.993388945530e+01
2.079662129235e+01
1.834471828163e+01
1.960836265572e+01
1.308422215425e+01
1.882035668427e+01
2.113487498155e+01
1.843703213844e+01
1.739035623015e+01
1.999275363452e+01
1.719428432619e+01
2.022204303967e+01
2.049697872532e+01
1.728469960807e+01
1.147360506875e+01
1.083597746012e+01
1.256235304185e+01
1.603636474384e+01
1.941580401421e+01
1.730315142845e+01
1.529254240276e+01
2.018693496026e+01
2.063557748071e+01
1.894896683272e+01
2.100056431614e+01
2.088802192448e+01
1.974411439914e+01
1.667693158483e+01
-1.206798302383e+01
1.948292243284e+01
8.450909965885e+00
1.066309522069e+01
1.084856102741e+01
1.530617656918e+01
8.679668817524e+00
6.621429485369e+00
2.082716297555e+01
1.724512745386e+01
2.068680455253e+01
5.963009850082e+00
2.003881056040e+01
2.068049474049e+01
2.065128444469e+01
2.067387769080e+01
1.484389630053e+01
1.776107648805e+01
2.039873931877e+01
1.922757067281e+01
2.058080060914e+01
1.715395382462e+01
2.002522806827e+01
2.051048860118e+01
2.002757134992e+01
1.971248860591e+01
1.797554633871e+01
1.777488758051e+01
2.039349080972e+01
2.014323088132e+01
2.034671831786e+01
1.891819318316e+01
1.703180498022e+01
2.083263616256e+01
2.073295869848e+01
1.996145876294e+01
2.043944171509e+01
2.207107814275e+00
-1.513272628681e+01
2.081709185135e+01
2.027189313849e+01
1.781126006917e+01
2.028950648545e+01
2.526921400129e+01
1.656327008868e+01
-1.365012245020e+01
2.055750434014e+01
2.004927706179e+01
1.738357846122e+01
1.675638172985e+01
1.429003381146e+01
2.051823013960e+01
5.104833015496e-01
2.006950468071e+01
2.086094133034e+01
2.012587293769e+01
2.070420367604e+01
1.848647127958e+01
2.065650525293e+01
2.096692936105e+01
1.669251649127e+01
2.011846975159e+01
1.607871083962e+01
7.283871491262e+00
2.024777632916e+01
-4.100942699791e+01
1.668393862005e+01
2.053024414303e+01
7.946488391166e+00
1.770971022941e+01
2.024570485428e+01
1.844150236024e+01
1.957153191851e+01
1.349089283388e+01
1.093462255728e+01
1.857506047044e+01
2.071300364453e+01
2.011815745454e+01
1.825275407779e+01
2.098133744427e+01
2.013727279595e+01
1.781331846696e+01
2.035932050294e+01
2.092528324767e+01
2.651998678737e+01
1.881418671303e+01
-1.565081788041e+01
2.061311063063e+01
1.800391220989e+01
-1.834087132441e+01
-1.317161189193e+01
-8.415729400399e+00
-1.707685395277e+01
3.435006033283e-01
-2.900263355489e+00
6.344169484738e+00
4.689153892118e+00
1.048859352961e+01
8.620580233406e+00
1.301644738879e+01
1.145043964971e+01
1.394217815375e+01
1.321218611141e+01
1.477837909415e+01
1.465794268725e+01
1.555244434821e+01
1.566633188514e+01

SCALARS node_materi_stress_average_a_sig float
LOOKUP_TABLE default
-8.409270415645e+00
-1.117523161086e+02
-2.432384557704e+02
-2.264214491562e+02
-1.335074086318e+01
-2.294063466426e+01
-3.293013690448e+01
-4.681755299300e+01
-6.217382036333e+01
-7.682771676904e+01
-9.092769576553e+01
-1.045033226481e+02
-1.175789009371e+02
-1.303144259571e+02
-1.428720430038e+02
-1.548210451341e+02
-1.654660927482e+02
-1.767995756526e+02
-1.882504425139e+02
-1.997694088731e+02
-2.120258994124e+02
-2.243938093976e+02
-2.362736851025e+02
-2.271026182871e+02
-2.264353554668e+02
-2.266527705636e+02
-2.267050630778e+02
-2.264503743821e+02
-2.269931952054e+02
-2.274050377854e+02
-2.273443967378e+02
-2.280908353041e+02
-2.283302253446e+02
-2.283064692313e+02
-2.290315932286e+02
-2.298186088578e+02
-2.299734520367e+02
-2.303905684198e+02
-2.304474654904e+02
-2.309798439979e+02
-2.321648330324e+02
-2.330534503052e+02
-2.339822825182e+02
-2.346512792820e+02
-2.353399554686e+02
-2.360553880049e+02
-2.367585473665e+02
-2.375921659417e+02
-2.384669710382e+02
-2.391536438757e+02
-2.398738729079e+02
-2.403031623420e+02
-2.413422070493e+02
-2.417582402753e+02
-2.417540286404e+02
-2.423613068281e+02
-2.430642004870e+02
-2.436379823393e+02
-2.440420414045e+02
-2.444363596586e+02
-2.444172915311e+02
-2.443752972081e+02
-2.440720891337e+02
-2.442152557959e+02
-2.447186864892e+02
-2.448136950795e+02
-2.429544517759e+02
-2.441950654983e+02
-2.434439754606e+02
-2.436418827675e+02
-2.440006294952e+02
-2.438702505811e+02
-1.241277550673e+02
-1.362302185455e+02
-1.482690195201e+02
-1.600092417457e+02
-1.719738274783e+02
-1.840507255218e+02
-1.958369275876e+02
-2.075012923147e+02
-2.195511390029e+02
-5.852234296714e+01
-1.159433006392e+02
-2.999793952818e+01
-2.331404701972e+01
-3.288415757990e+01
-4.308713244817e+01
-5.485430233807e+01
-6.730717983850e+01
-7.992453159361e+01
-9.229787967815e+01
-1.040172110430e+02
-6.510198506750e+00
-1.454128491914e+01
-2.639897746720e+01
-3.860110779987e+01
-5.060287105150e+01
-6.279787952443e+01
-7.497510973537e+01
-8.715686938066e+01
-9.928118443066e+01
-1.102397457876e+02
-1.110586999989e+02
-1.111135409703e+02
-1.110745992055e+02
-1.128821974239e+02
-1.115428304364e+02
-1.116734186811e+02
-1.119804130839e+02
-1.124608411949e+02
-1.127065574361e+02
-1.130573521512e+02
-1.133892662880e+02
-1.139353822862e+02
-1.146276595791e+02
-8.054315518117e+01
-9.096489495150e+01
-9.319576796661e+01
-8.474354026242e+01
-5.289450506793e+01
-2.280721617135e+01
-1.179439090139e+01
-8.717561093542e+00
-7.737872604831e+00
-7.439885974580e+00
-7.547317824788e+00
-8.106650395116e+00
-8.022592568673e+00
-7.711052092071e+00
-7.719907439017e+00
-7.891489359785e+00
-7.961104770197e+00
-7.859983201907e+00
-7.772158527814e+00
-6.466366350968e+00
-8.133771548534e+00
-8.337804753344e+00
-8.215835497118e+00
-8.044566848582e+00
-7.850331167985e+00
-7.630512994104e+00
-7.381761062827e+00
-7.105503926730e+00
-6.804481010750e+00
-6.485998098703e+00
-6.157462150495e+00
-5.834889571888e+00
-5.541259932008e+00
-5.305033164710e+00
-5.153850924048e+00
-5.115529653305e+00
-5.213837539661e+00
-5.441705588752e+00
-5.774765157685e+00
-6.170216654326e+00
-6.607980202919e+00
-6.845185024296e+00
-7.197300618463e+00
-7.735816180556e+00
-8.590937423666e+00
-1.067500361208e+01
-1.270793946608e+01
-1.723183720509e+01
-1.760433554510e+01
-1.502684099418e+01
-1.384770291824e+01
-1.318298142197e+01
-1.268608719757e+01
-1.238222223645e+01
-1.220688091439e+01
-1.211701216811e+01
-1.206144078325e+01
-1.210013004198e+01
-1.221395152875e+01
-1.238360609470e+01
-1.259472589025e+01
-1.283021560379e+01
-1.307694111168e+01
-1.332337108921e+01
-1.356092865688e+01
-1.378269593633e+01
-1.398335327500e+01
-1.416025345526e+01
-1.431261107980e+01
-1.443794091096e+01
-1.452832439160e+01
-1.458611024577e+01
-1.458033557898e+01
-2.876448761077e+01
-2.937842293457e+01
-2.727022990342e+01
-2.637415091853e+01
-2.595421048619e+01
-2.571362908211e+01
-2.561500191139e+01
-2.552367055494e+01
-2.550792203033e+01
-2.553470314893e+01
-2.556192444175e+01
-2.560470326243e+01
-2.565725985060e+01
-2.572524215359e+01
-2.580697848977e+01
-2.589766813287e+01
-2.599069703640e+01
-2.608154872619e+01
-2.616561593670e+01
-2.624085408967e+01
-2.630231333092e+01
-2.633878790200e+01
-2.633721878163e+01
-2.633964807323e+01
-2.640224255052e+01
-3.850811654000e+01
-3.844040003798e+01
-3.846769936453e+01
-3.848492208013e+01
-3.849338446504e+01
-3.849740516779e+01
-3.850157177380e+01
-3.850974297705e+01
-3.852521274521e+01
-3.855231094460e+01
-3.859642308467e+01
-3.866238893323e+01
-3.875172993092e+01
-3.885518830136e+01
-3.892946401039e+01
-3.899397066639e+01
-3.906927140972e+01
-3.917973504321e+01
-3.939450044119e+01
-3.960686355477e+01
-4.003596298596e+01
-4.155810525039e+01
-4.034857968219e+01
-5.262906037969e+01
-5.433911702060e+01
-5.328470269672e+01
-5.298713802894e+01
-5.275692292582e+01
-5.249690211898e+01
-5.227418437923e+01
-5.206730802945e+01
-5.186070078441e+01
-5.161172352307e+01
-5.140227887000e+01
-5.123096093837e+01
-5.109135334296e+01
-5.097591010024e+01
-5.087936991055e+01
-5.079951216282e+01
-5.073101867677e+01
-5.066780343734e+01
-5.060681927248e+01
-5.054376901539e+01
-5.051746283639e+01
-5.059755119089e+01
-6.277112203690e+01
-6.270277120596e+01
-6.273701120849e+01
-6.279699195722e+01
-6.287950944233e+01
-6.298566143844e+01
-6.311790330251e+01
-6.327752118946e+01
-6.346672007190e+01
-6.368185730974e+01
-6.393600084783e+01
-6.424014418759e+01
-6.460716362877e+01
-6.498365046101e+01
-6.533514773792e+01
-6.572059673121e+01
-6.607549245553e+01
-6.643305378139e+01
-6.742219572234e+01
-6.547464088057e+01
-7.828680162625e+01
-8.011223204691e+01
-7.898293264176e+01
-7.846929244926e+01
-7.802876621065e+01
-7.754500490895e+01
-7.707302416325e+01
-7.665383611583e+01
-7.629688842412e+01
-7.599315397882e+01
-7.573491467078e+01
-7.552181929381e+01
-7.535236521651e+01
-7.521030803229e+01
-7.509891757403e+01
-7.501475589088e+01
-7.496355993835e+01
-7.494272358576e+01
-7.497107384433e+01
-8.716090800604e+01
-8.717038538665e+01
-8.721539577575e+01
-8.729626778705e+01
-8.740776365702e+01
-8.754048981799e+01
-8.770682823272e+01
-8.790196038795e+01
-8.814193274764e+01
-8.845265217769e+01
-8.883892375456e+01
-8.929213680579e+01
-8.981396601311e+01
-9.036467769100e+01
-9.095300962591e+01
-9.220869538299e+01
-9.055117667478e+01
-1.021965534447e+02
-1.036688763323e+02
-1.024165194930e+02
-1.018598210613e+02
-1.013840302688e+02
-1.009914978167e+02
-1.006157927784e+02
-1.003291612821e+02
-1.001666574088e+02
-9.992332573765e+01
-9.975503793703e+01
-9.962301731601e+01
-9.951188351615e+01
-9.940026346738e+01
-9.941313774546e+01
-9.939397769784e+01
-4.056096402811e+01
-2.290108452801e+01
-2.945251114041e+01
-3.962089630779e+01
-5.049176981605e+01
-6.248963931295e+01
-7.494383947891e+01
-8.756762571400e+01
-9.951652759503e+01
-1.110564368080e+02
-3.679176545358e+01
-2.373281517616e+02
-1.308987833078e+01
-6.337152279623e+01
-2.390388629474e+02
-5.153298935791e+01
-1.371311619624e+02
-2.346336919067e+02
-7.315832018872e+01
-2.327801159154e+02
-9.811072388538e+01
-2.398674532788e+02
-1.146131380378e+01
-2.300069123854e+02
-1.212989276046e+02
-8.465065573715e+01
-1.693670368516e+02
-2.274816943825e+02
-2.254714587987e+02
-2.221705535728e+02
-2.219281705409e+02
-2.242698883420e+02
-1.253041327611e+02
-1.237070869301e+02
-1.237856253973e+02
-1.660999689943e+02
-2.387413666529e+02
-7.709136885893e+01
-1.173309662188e+01
-2.054461206743e+02
-1.218365855244e+02
-3.972987107186e+01
-2.244578183375e+02
-2.346076644198e+02
-2.314051930848e+02
-2.351892994000e+02
-2.386246707401e+02
-2.354149148039e+01
-1.240357792042e+02
-2.372362523424e+02
-1.896144729508e+02
-1.207601810079e+01
-1.111894400686e+02
-2.236014900055e+02
-6.292564977762e+01
-4.245424087411e+01
-8.555495799561e+01
-1.097628766591e+02
-4.106394071796e+01
-1.432697117539e+02
-2.405071738840e+02
-1.136423074928e+01
-2.128393419091e+02
-1.265840437321e+02
-1.318195064036e+02
-1.369928954562e+02
-1.431394202238e+02
-1.489908081630e+02
-1.545447207362e+02
-1.487201495135e+02
-1.601576200128e+02
-1.542226453554e+02
-1.606494994163e+02
-1.657240839341e+02
-1.597410228853e+02
-1.712813838022e+02
-1.652792123907e+02
-1.538934496340e+02
-1.593919884419e+02
-1.482690548198e+02
-1.537236350785e+02
-1.649221048953e+02
-1.591587478348e+02
-1.481484168230e+02
-1.535617175832e+02
-1.426260183099e+02
-1.480432409897e+02
-1.370693536555e+02
-1.426561507836e+02
-1.534174208927e+02
-1.480855273088e+02
-1.373466256327e+02
-1.428360126082e+02
-1.320509402150e+02
-1.374287189114e+02
-1.480318690599e+02
-1.425154318712e+02
-1.316699266252e+02
-1.368856170908e+02
-1.260396589830e+02
-1.313513886589e+02
-1.205101359697e+02
-1.258828504333e+02
-1.365412268074e+02
-1.311483798913e+02
-1.206344703493e+02
-1.258390176963e+02
-1.363081270980e+02
-1.309075378160e+02
-1.413237339694e+02
-1.359380775552e+02
-1.257041447642e+02
-1.305616438245e+02
-1.408017767915e+02
-1.353997739107e+02
-1.251360443294e+02
-1.298509786692e+02
-1.405845539795e+02
-1.348325857851e+02
-1.240353469765e+02
-1.286737501363e+02
-1.400778861116e+02
-1.337839853214e+02
-1.221274849674e+02
-1.271715664608e+02
-1.389567301017e+02
-1.322526091739e+02
-1.438738007760e+02
-1.201846546580e+02
-1.252392698690e+02
-1.128452701350e+02
-1.179719765943e+02
-1.530178480517e+02
-1.052750727812e+02
-1.002810188897e+02
-1.105010020656e+02
-1.230727818151e+02
-9.748348538221e+01
-1.028249468389e+02
-8.948774544094e+01
-1.147621456517e+02
-1.704635929437e+02
-9.494150199637e+01
-8.130168104083e+01
-7.585429306062e+01
-6.737180959836e+01
-1.551188555904e+02
-1.667145494701e+02
-1.607622909835e+02
-1.727503636304e+02
-1.670439013964e+02
-7.291718002310e+01
-1.774076339699e+02
-1.784479856444e+02
-1.371449291412e+02
-1.262623999613e+02
-1.468908385316e+02
-1.081165321526e+02
-1.003727079163e+02
-1.134654208613e+02
-1.502844579266e+02
-1.548914482838e+02
-1.609145239784e+02
-1.655212917447e+02
-1.714174093439e+02
-1.763321689599e+02
-1.702893963020e+02
-1.813886750338e+02
-1.752114601366e+02
-1.827173950633e+02
-1.775560326219e+02
-1.864486549235e+02
-1.801159653792e+02
-1.915258417877e+02
-1.850382744032e+02
-1.739506278610e+02
-1.788127096988e+02
-1.677531167818e+02
-1.519246279686e+02
-1.575804568416e+02
-1.626005470405e+02
-1.681026979820e+02
-1.736689813162e+02
-1.795342427719e+02
-1.852631814847e+02
-1.793528040257e+02
-1.768014860799e+02
-1.157099911364e+02
-1.103738277496e+02
-1.058527579541e+02
-1.003225260724e+02
-9.626699649788e+01
-9.053603956128e+01
-8.717993407602e+01
-9.249333979462e+01
-8.424705538892e+01
-8.864592221302e+01
-8.095575737944e+01
-8.389579912742e+01
-1.587682790047e+02
-1.738059263375e+02
-1.856877537346e+02
-1.798855731776e+02
-6.203597938725e+01
-1.900115501363e+02
-1.892711281646e+02
-1.838202950750e+02
-1.909987218621e+02
-5.884838793360e+01
-8.109502554222e+01
-8.436193927053e+01
-1.788419777106e+02
-1.731442522201e+02
-1.958557718202e+02
-6.450393033008e+01
-1.931162434867e+02
-7.680857937677e+01
-1.836627987832e+02
-1.950222525984e+02
-1.642393677579e+02
-1.920226335660e+02
-1.861433259708e+02
-9.233134298513e+01
-8.652329628948e+01
-7.766734404535e+01
-8.010608530639e+01
-8.961735359342e+01
-8.279006140718e+01
-7.279740084293e+01
-7.484355347576e+01
-8.562403451349e+01
-7.760793766601e+01
-6.638864744496e+01
-6.889309056675e+01
-2.018173374286e+02
-7.409451275746e+01
-1.428068562169e+02
-2.012996155819e+02
-1.971095202904e+02
-1.849850621034e+02
-1.793140206950e+02
-1.673970583081e+02
-1.736493523904e+02
-1.855551965252e+02
-1.799195215200e+02
-1.679751365109e+02
-1.742765283619e+02
-1.623006087145e+02
-1.686428953968e+02
-1.806069314510e+02
-1.750263650952e+02
-1.630318642793e+02
-1.694455223719e+02
-1.574104707115e+02
-1.638362023997e+02
-1.758952845324e+02
-5.044777631068e+01
-1.849046292907e+02
-1.968467811728e+02
-1.063241975353e+02
-1.188893628954e+02
-1.260676524185e+02
-1.315286940631e+02
-1.702542604687e+02
-1.823250847523e+02
-7.463116138926e+01
-7.781172306727e+01
-1.906507896293e+02
-1.885565482015e+02
-1.774821412910e+02
-1.208762471085e+02
-1.148161798538e+02
-1.093059381250e+02
-1.027952048881e+02
-1.086068610475e+02
-9.719209011695e+01
-1.724580291752e+02
-1.869835812398e+02
-7.064872720600e+01
-5.713512061214e+01
-2.001459224270e+02
-1.735833964684e+02
-1.643751341445e+02
-1.697478531119e+02
-1.756742662391e+02
-1.812201179250e+02
-1.873432618211e+02
-1.929021200523e+02
-1.867738086087e+02
-1.984742642807e+02
-1.985153906435e+02
-1.580889602548e+02
-1.682718204737e+02
-8.865851425281e+01
-4.477219754490e+01
-5.600945904460e+01
-5.583779104363e+01
-7.043355978671e+01
-2.079883403060e+02
-1.990543513489e+02
-1.933441139573e+02
-9.644886850968e+01
-1.024361737368e+02
-2.043127945276e+02
-1.552376892074e+02
-1.560299816531e+02
-1.502530932054e+02
-4.036469769938e+01
-5.423516820312e+01
-1.918327553956e+02
-8.818551327390e+01
-8.184932135587e+01
-7.032933379164e+01
-6.850381705247e+01
-1.765977537094e+02
-1.885830494301e+02
-1.383732213206e+02
-1.435864829644e+02
-2.024473011771e+02
-5.930468948851e+01
-1.943502225064e+02
-1.789741191047e+02
-1.679365379068e+02
-1.243000423168e+02
-6.780013136530e+01
-6.563466064656e+01
-9.635918887370e+01
-7.184577735603e+01
-6.187053815510e+01
-2.146291933037e+02
-1.973865551690e+02
-1.923675488938e+02
-1.805225481873e+02
-2.043305766290e+02
-4.629326335794e+01
-2.135746239724e+02
-1.935564825907e+02
-2.046019552806e+02
-1.993310600119e+02
-9.256882369700e+01
-8.656689429199e+01
-7.537261550258e+01
-8.004370918544e+01
-1.428922022238e+02
-9.771519517157e+01
-1.372425373902e+02
-1.317267314822e+02
-1.261069461581e+02
-1.142266019119e+02
-1.082664032815e+02
-1.047047197902e+02
-1.524608893746e+02
-1.331419886956e+02
-1.628944098944e+02
-1.563066660780e+02
-1.924639619435e+02
-1.988916344387e+02
-1.509892566898e+02
-1.453478506567e+02
-4.829493259792e+01
-4.376889156903e+01
-1.485415760113e+02
-2.066248242339e+02
-1.966631003190e+02
-2.023194267118e+02
-1.962538824452e+02
-2.088835080683e+02
-1.110408739364e+02
-1.570618239114e+02
-6.992337875211e+01
-1.585437590022e+02
-3.498686878126e+01
-1.763644173074e+02
-2.054803121172e+02
-2.122165815127e+02
-2.105561062873e+02
-1.265219849712e+02
-1.634567392079e+02
-1.578832483351e+02
-1.205720124977e+02
-1.148127492105e+02
-1.203158389360e+02
-1.087985551988e+02
-9.962769724421e+01
-9.190368919064e+01
-2.116573533009e+02
-2.101814899123e+02
-2.107255800287e+02
-2.056849827692e+02
-2.164703981308e+02
-2.100368525791e+02
-7.601889299847e+01
-9.645696520108e+01
-2.036932886721e+02
-1.261847225020e+02
-2.186137462841e+02
-2.119682867008e+02
-6.674070311924e+01
-6.295667622487e+01
-2.007198624976e+02
-6.802034839824e+01
-7.238162964540e+01
-6.380283404566e+01
-2.300969716390e+02
-1.214520713352e+02
-2.176597254123e+02
-1.199855361490e+02
-2.065518681181e+02
-1.684946493600e+02
-1.150841834338e+02
-1.967145705293e+02
-1.942965450322e+02
-2.073059579478e+02
-1.440244273916e+02
-1.378178406723e+02
-1.494404944781e+02
-7.071424041203e+01
-6.286000615865e+01
-1.933136852920e+02
-9.268911079640e+01
-9.978043351037e+01
-6.248177106355e+01
-7.520275775818e+01
-1.450967932262e+02
-1.400474838167e+02
-1.820343683404e+02
-1.879742497991e+02
-1.701443463045e+02
-1.731199578786e+02
-1.623611249628e+02
-1.569302522783e+02
-2.040140148735e+02
-2.117765424174e+02
-1.069380813720e+02
-1.033259523241e+02
-1.034173952326e+02
-2.092111870413e+02
-2.241864195816e+02
-2.188629626261e+02
-3.078922682271e+01
-3.930976359369e+01
-5.737388462743e+01
-5.639606491442e+01
-2.076489328252e+02
-2.019936563176e+02
-2.147635021114e+02
-6.649115184721e+01
-1.862244774841e+02
-2.206251678303e+02
-2.148527811605e+02
-2.279133375257e+02
-2.045747531121e+02
-2.162716455471e+02
-2.161130446645e+02
-6.944586183089e+01
-2.031147052530e+02
-1.383222362735e+02
-7.132907280326e+01
-1.327566762462e+02
-1.395721348961e+02
-1.263881247724e+02
-5.198967086858e+01
-1.355781966321e+02
-1.431896325952e+02
-2.425533679308e+01
-2.152078991807e+02
-2.331309202482e+01
-2.740882807302e+01
-2.241132920648e+02
-2.171711954067e+02
-2.289082788333e+02
-2.219085569629e+02
-2.102548990769e+02
-2.156558121427e+02
-1.316393942726e+02
-2.290378559541e+02
-2.211911205592e+02
-2.345431439022e+02
-1.035015331337e+02
-8.471784869596e+01
-7.766835528121e+01
-6.452515654030e+01
-2.187539590565e+02
-2.109727516621e+02
-1.990444500423e+02
-1.874835383399e+02
-1.331291022781e+02
-1.323904102306e+02
-1.433854231059e+02
-1.418249440649e+02
-1.528514346696e+02
-1.511613336987e+02
-1.623776423123e+02
-2.223153236274e+02
-5.555293088364e+01
-1.151225095867e+02
-2.220592123351e+02
-2.148386843564e+02
-1.024539325490e+02
-9.078958222049e+01
-2.271800609281e+02
-1.034696473778e+02
-2.222202164744e+02
-6.309528802894e+01
-6.185094039827e+01
-1.089862518125e+02
-1.143087684141e+02
-9.017441098124e+01
-8.425102344979e+01
-1.845457242211e+02
-3.577121940335e+01
-6.029981301935e+01
-1.638578140951e+02
-4.899480301609e+01
-1.934276082089e+02
-1.094808597406e+02
-1.257882094176e+02
-7.122755492868e+01
-9.191239656408e+01
-1.483884522276e+02
-1.374162237158e+02
-1.318613004753e+02
-1.152062327583e+02
-9.032203415042e+01
-7.676518968870e+01
-1.427122475207e+02
-1.902115199095e+02
-1.958337285796e+02
-2.071954654762e+02
-2.014631187429e+02
-1.898300695349e+02
-1.954737782970e+02
-2.070675893638e+02
-2.014991764332e+02
-2.150700296626e+02
-2.070608813269e+02
-1.949880700010e+02
-2.002960310741e+02
-2.114634190964e+02
-1.885467589527e+02
-2.282602537547e+02
-1.204661814158e+02
-6.639507683889e+01
-5.593179930049e+01
-1.314425599187e+02
-2.264948687414e+02
-2.256391853328e+02
-9.441925133831e+01
-2.305569966020e+02
-1.373132400022e+02
-7.866610234955e+01
-2.321105800079e+02
-1.841412888805e+02
-1.779696317075e+02
-1.723365118034e+02
-2.253393008011e+02
-1.553014006660e+02
-2.350051191883e+02
-1.629030126670e+02
-1.577284375754e+02
-1.471981677116e+02
-1.892921942263e+02
-2.366571334142e+02
-2.268709356712e+02
-2.273784728359e+02
-2.160734745417e+02
-2.378728184728e+02
-2.289694432708e+02
-2.299446432192e+02
-9.306760350855e+01
-9.958214184846e+01
-1.095467970756e+02
-1.055308996466e+02
-9.589750816652e+01
-1.014033567960e+02
-1.109024886117e+02
-9.710572014099e+01
-1.996754736962e+02
-2.390626722951e+02
-1.666776710390e+02
-1.619602867405e+02
-1.513363179479e+02
-1.280787944232e+02
-1.351227187168e+02
-1.467570598442e+02
-1.208347828098e+02
-1.750896900471e+02
-2.392102707516e+02
-1.625158686206e+02
-1.302278390280e+02
-1.246776675541e+02
-1.354627965637e+02
-1.361067430279e+02
-1.472908590425e+02
-1.361115259410e+02
-1.501641529590e+02
-1.551824385390e+02
-1.487513674947e+02
-1.601710996096e+02
-1.535680153116e+02
-1.428175564313e+02
-1.649317003583e+02
-1.575958701817e+02
-1.237718964529e+02
-3.921469920350e+01
-4.249900799687e+01
-3.362186399663e+01
-4.898774762114e+01
-5.604794553840e+01
-6.230183169918e+01
-6.478774048911e+01
-5.334470324771e+01
-1.766400661560e+01
-2.904999467107e+01
-1.465903398163e+01
-2.576711734793e+01
-4.104365883083e+01
-5.293085785172e+01
-2.370192828378e+02
-1.239065306863e+02
-1.177589000166e+02
-1.053051378283e+02
-1.121368575174e+02
-1.289171477614e+02
-9.811349683958e+01
-9.317143759621e+01
-1.172137968981e+01
-1.966238805823e+01
-1.883835391448e+01
-2.849360475572e+01
-2.850209002004e+01
-2.002366012613e+01
-2.012461634146e+01
-1.162920820127e+01
-2.018489500651e+01
-2.953212624181e+01
-1.135732595304e+01
-1.781428536994e+02
-1.846286909568e+02
-2.387629473057e+02
-1.244455928920e+02
-1.247484592266e+01
-2.201361305287e+02
-2.226722650205e+02
-2.226776495875e+02
-2.178959371753e+02
-2.240183211220e+02
-2.202369885941e+02
-8.411528961877e+01
-2.128494875847e+02
-1.996962360876e+02
-7.215024676158e+01
-8.383544305303e+01
-1.824168080346e+02
-1.691100371505e+02
-2.069331542867e+02
-1.726229346414e+02
-1.966484960541e+02
-2.270858968793e+02
-4.739684702617e+01
-1.565972594328e+02
-1.517812017373e+02
-1.814343620615e+02
-8.686477054042e+01
-1.373097672893e+02
-5.331397340555e+01
-2.221719675612e+02
-1.316268168482e+02
-1.453473262621e+02
-1.156921182093e+02
-9.228866304351e+01
-8.047746392222e+01
-1.263977909680e+02
-1.371656069986e+02
-1.879219523537e+02
-1.878493846989e+02
-1.306480391964e+01
-1.946102486346e+02
-1.594931438361e+02
-1.616824230062e+02
-1.914164571815e+02
-6.474794889663e+01
-1.862088361324e+02
-2.078175730053e+02
-1.490509520161e+02
-3.951699606354e+01
-1.443067355230e+02
-2.201461587662e+02
-1.845257181467e+02
-7.874508655884e+01
-1.462970439010e+02
-1.316327941341e+02
-1.155331426695e+02
-2.048229091893e+02
-1.474803800698e+02
-2.031045720073e+02
-1.680324158965e+02
-8.473933763709e+01
-2.051561885485e+02
-1.417692352865e+02
-1.980953975842e+02
-1.816973157573e+02
-1.207680977862e+02
-1.911093169362e+02
-1.459303952083e+02
-1.978176761726e+02
-1.258656501783e+02
-1.589844316887e+02
-1.707851342455e+02
-1.533842166884e+02
-1.763219159527e+02
-1.999045145300e+02
-7.649802463616e+01
-1.036089709811e+02
-1.612124011722e+02
-2.043339941618e+02
-2.098400268515e+02
-1.202874361124e+02
-1.982896799516e+02
-2.026015140097e+02
-1.419448216109e+02
-5.584538746726e+01
-6.449391622462e+01
-1.014698813411e+02
-1.420201075496e+02
-1.532360989484e+02
-2.147042707859e+02
-2.034768208222e+02
-1.902378810184e+02
-3.695588123292e+01
-1.208070404648e+02
-2.087155854663e+02
-1.514267008980e+02
-2.033853915027e+02
-1.465362486711e+02
-2.225151096392e+02
-9.713590288250e+01
-2.141097729230e+02
-1.907257966489e+02
-9.870599988997e+01
-1.218848983383e+02
-2.279016106667e+02
-2.029801905982e+02
-1.640149959277e+02
-1.459921493326e+02
-1.040109337872e+02
-1.580363234251e+02
-1.646198901907e+02
-2.250296230563e+02
-2.087941335849e+02
-1.661604323651e+02
-1.516397156654e+02
-1.739945807306e+02
-2.882288630224e+01
-1.094116282826e+02
-1.565891590889e+02
-1.063229536857e+02
-1.514872618992e+02
-2.223063514584e+02
-1.615250963295e+02
-1.159364876604e+02
-1.664321201694e+02
-9.195570648493e+01
-1.718167298191e+02
-1.713096342027e+02
-1.760389354884e+02
-3.100078385692e+01
-1.691613417155e+02
-2.114015541242e+02
-1.079038685067e+02
-1.569434823241e+02
-1.836492943862e+02
-7.935318703050e+01
-1.674512987882e+02
-1.877114070423e+02
-1.744094826067e+02
-1.525755814511e+02
-1.783912903941e+02
-8.479187147477e+01
-7.919220242557e+01
-6.610950589248e+01
-1.205380382152e+02
-1.937552612301e+02
-3.835284337034e+01
-1.830304428256e+02
-4.928310221537e+01
-1.152667837057e+02
-1.924539777600e+02
-1.549276685666e+02
-1.195776023242e+02
-7.058274731923e+01
-1.135788055953e+02
-1.629404727925e+02
-1.176904047729e+02
-1.107598118838e+02
-2.114051312848e+02
-1.152468908104e+02
-2.223281790959e+02
-2.376595593243e+02
-1.310316893690e+02
-6.618593516341e+01
-8.044446770379e+01
-7.324092005786e+01
-9.579523550769e+01
-1.823271899604e+02
-1.315543537995e+02
-8.773984055236e+01
-2.186647170851e+02
-2.338236543726e+02
-1.723300216180e+02
-2.086727600687e+02
-1.801864135591e+02
-2.004748077594e+02
-1.214144864589e+02
-2.387032234411e+01
-1.820122852740e+02
-5.435250086018e+01
-5.981398918572e+01
-5.168751183530e+01
-8.943490270957e+01
-4.287175472522e+01
-4.687484059777e+01
-2.256121145675e+02
-1.331468380288e+02
-1.982835384964e+02
-3.867511781035e+01
-2.138862549203e+02
-2.236862937640e+02
-2.396466486124e+02
-2.104863702353e+02
-4.735955234082e+01
-1.445895379652e+02
-2.213430304903e+02
-1.818931066564e+02
-2.402346350253e+02
-1.323517646664e+02
-2.127395399084e+02
-7.020819264302e+01
-2.127579439372e+02
-1.940593289457e+02
-1.465302519415e+02
-1.448222416446e+02
-2.297747528787e+02
-2.171905822754e+02
-4.899254567290e+01
-1.718111920419e+02
-1.123790245025e+02
-6.326507843476e+01
-2.291182677979e+02
-2.051870440883e+02
-2.291054425150e+02
-2.794681386447e+01
-2.011521493444e+01
-2.307320651321e+02
-2.211205206637e+02
-7.103828265634e+01
-2.253944706777e+02
-5.181530273307e+01
-1.205215794456e+02
-1.966925465083e+01
-2.397714039785e+02
-2.140287136161e+02
-1.234496266125e+02
-1.261997853980e+02
-8.020271736698e+01
-2.142696420989e+02
-3.453701006039e+01
-2.147779841602e+02
-2.307319591563e+02
-2.175752013218e+02
-2.383986452037e+02
-7.088944123790e+01
-2.262761762934e+02
-2.189402618182e+02
-1.210683781220e+02
-2.168911490630e+02
-1.002826071722e+02
-3.885023559131e+01
-2.235270307256e+02
-1.059848018418e+01
-1.201187732591e+02
-2.402436968756e+02
-3.598536591493e+01
-1.399276363198e+02
-2.210811666204e+02
-1.495562760965e+02
-1.937062963135e+02
-5.464245810724e+01
-7.977283588436e+01
-1.612605266020e+02
-2.263721455507e+02
-2.173551169029e+02
-1.530755953185e+02
-5.755118347027e+01
-2.143121508601e+02
-1.329374335019e+02
-2.141927819995e+02
-2.182709574291e+02
-4.833695487804e+01
-1.597341607230e+02
-1.886126719005e+01
-2.317684045662e+02
-1.381182360807e+02
-1.257417120112e+01
-8.314991757933e+00
-2.484792469313e+01
-2.061858647541e+01
-3.587707622651e+01
-3.221514701736e+01
-4.756402443929e+01
-4.484053842950e+01
-5.984963076715e+01
-5.637422148169e+01
-7.263944934474e+01
-6.921728358593e+01
-8.530987721740e+01
-8.072960448969e+01
-9.726333358411e+01
-9.360087233713e+01
-1.088219687063e+02
-1.049980106817e+02

SCALARS node_materi_stress_size_dev_sd_sig float
LOOKUP_TABLE default
4.963129954759e+00
7.940036409870e+01
1.839801961055e+02
1.709677627060e+02
9.501917085913e+00
2.102682488985e+01
3.103229370901e+01
3.948578224417e+01
4.580699052961e+01
5.316068251055e+01
6.127456498471e+01
6.994875017043e+01
7.912626440872e+01
8.881405461344e+01
9.922732977198e+01
1.094495988165e+02
1.188784619376e+02
1.296437590561e+02
1.407747831828e+02
1.509675693934e+02
1.603474676413e+02
1.697517619444e+02
1.786774114213e+02
1.715364608057e+02
1.711404620873e+02
1.713060333250e+02
1.713974618803e+02
1.711634410055e+02
1.715698512393e+02
1.717591197648e+02
1.718884085318e+02
1.724258756000e+02
1.726898452937e+02
1.726467697608e+02
1.732614682557e+02
1.737552748748e+02
1.740708977443e+02
1.743113558401e+02
1.745327389065e+02
1.749787648973e+02
1.757891393638e+02
1.766089701608e+02
1.773974485297e+02
1.779835435674e+02
1.785070004108e+02
1.791461080059e+02
1.797300677648e+02
1.803962645441e+02
1.810212683452e+02
1.816252341158e+02
1.820853535326e+02
1.824789302245e+02
1.831730682686e+02
1.835450773531e+02
1.835543879877e+02
1.839785975125e+02
1.845016556786e+02
1.848997652044e+02
1.852117064024e+02
1.854176289000e+02
1.854200777107e+02
1.852912348862e+02
1.850963810015e+02
1.851351667254e+02
1.853484431851e+02
1.853106993040e+02
1.840580958258e+02
1.847740522016e+02
1.843205926132e+02
1.844218010156e+02
1.846346486064e+02
1.845556833686e+02
8.860530949048e+01
9.806616617965e+01
1.074091185626e+02
1.166652735110e+02
1.262135671552e+02
1.357806843384e+02
1.454267864318e+02
1.550598459452e+02
1.649743202846e+02
4.852076118990e+01
7.940133059266e+01
3.774883477077e+01
1.977912845931e+01
2.081085835334e+01
2.687481274561e+01
3.509608830056e+01
4.427980560282e+01
5.303332846404e+01
6.108789213568e+01
6.968703038277e+01
4.084636314073e+00
7.336295907694e+00
1.585485364264e+01
2.467275018889e+01
3.376846404375e+01
4.275681985983e+01
5.176923843519e+01
6.078115603674e+01
6.976248835920e+01
7.805032842169e+01
7.853240039509e+01
7.854768748761e+01
7.837328398224e+01
7.951990360282e+01
7.838091052745e+01
7.815608907860e+01
7.820536536895e+01
7.839531785280e+01
7.832241990805e+01
7.825560831692e+01
7.830800883002e+01
7.844465669825e+01
7.880635534813e+01
3.648192905979e+01
3.415802671151e+01
3.525895317858e+01
3.492700864460e+01
3.618186534447e+01
2.454826686119e+01
8.324582134496e+00
4.238731081686e+00
3.442782909768e+00
3.645816951296e+00
3.839888889706e+00
4.132905626280e+00
4.632983521828e+00
4.704037688072e+00
4.665250308297e+00
4.707104007737e+00
4.783071045422e+00
4.926756141116e+00
5.269459984490e+00
3.749069782753e+00
3.533094745838e+00
3.455250893497e+00
3.413754027755e+00
3.387268632922e+00
3.381816099611e+00
3.408822858982e+00
3.481801152509e+00
3.614197175812e+00
3.813441880479e+00
4.078201608111e+00
4.404131888763e+00
4.769595381704e+00
5.139579912013e+00
5.469560395362e+00
5.714444141044e+00
5.826527564698e+00
5.777103152383e+00
5.527463251821e+00
5.054844956513e+00
4.424112080949e+00
3.744335362776e+00
3.421057004896e+00
3.428221267162e+00
4.069623646485e+00
5.750084782961e+00
9.543133890193e+00
1.864737094877e+01
1.203403338678e+01
1.043487912574e+01
8.368626348380e+00
7.884028907512e+00
7.985123169171e+00
8.431388949885e+00
8.936909969907e+00
9.297754710147e+00
9.487240365473e+00
9.539921065254e+00
9.479622135703e+00
9.316345289510e+00
9.087348383469e+00
8.818122142451e+00
8.531671713551e+00
8.252714800769e+00
7.996444423413e+00
7.768855000658e+00
7.572617581776e+00
7.410082016366e+00
7.279331616340e+00
7.177274261930e+00
7.098864124850e+00
7.033620523191e+00
6.962053396862e+00
7.099310376326e+00
1.738768164169e+01
1.808821071432e+01
1.724776452607e+01
1.707165707857e+01
1.721779949777e+01
1.742345203660e+01
1.761072987525e+01
1.764306330626e+01
1.755583965658e+01
1.742603001524e+01
1.729193018301e+01
1.714253471594e+01
1.697789765222e+01
1.681863586625e+01
1.667167470120e+01
1.653679994531e+01
1.641413253820e+01
1.630518690300e+01
1.621146857840e+01
1.613278033824e+01
1.606948249818e+01
1.601781819473e+01
1.596188477813e+01
1.590166151121e+01
1.588437474182e+01
2.476557321226e+01
2.482290680617e+01
2.486851001671e+01
2.488834393352e+01
2.490069294782e+01
2.491515370852e+01
2.493576650326e+01
2.496524552381e+01
2.500304244610e+01
2.504873223724e+01
2.510617826703e+01
2.518133342148e+01
2.527823398824e+01
2.538458838003e+01
2.551759661170e+01
2.568008601397e+01
2.588350129801e+01
2.606085361095e+01
2.610122232736e+01
2.605632755221e+01
2.618611378505e+01
2.673616406741e+01
2.526498685021e+01
3.403155672604e+01
3.569312050905e+01
3.509320604538e+01
3.475385317217e+01
3.443399798416e+01
3.409217645330e+01
3.387281655191e+01
3.369596270391e+01
3.359114054137e+01
3.353957988290e+01
3.352326626877e+01
3.353317933471e+01
3.356032057518e+01
3.359549593325e+01
3.363435713177e+01
3.367767577642e+01
3.372097892023e+01
3.375816757644e+01
3.378435785815e+01
3.379220573980e+01
3.379136682471e+01
3.377764491112e+01
4.274635660447e+01
4.274275925179e+01
4.273375330891e+01
4.270037690435e+01
4.264334135315e+01
4.256811679503e+01
4.247505328461e+01
4.237768665941e+01
4.228368682455e+01
4.219671323635e+01
4.212397836627e+01
4.207570692626e+01
4.206518970548e+01
4.214560769389e+01
4.229594412710e+01
4.256162142877e+01
4.289124170068e+01
4.341773467576e+01
4.447788647433e+01
4.319096305801e+01
5.127213416958e+01
5.254942515791e+01
5.163641334479e+01
5.119499300286e+01
5.095241651892e+01
5.080516661586e+01
5.079292081805e+01
5.084457750793e+01
5.093375086447e+01
5.104348602632e+01
5.117305314135e+01
5.130475800183e+01
5.141934936035e+01
5.151522120510e+01
5.159182032856e+01
5.164316419345e+01
5.167537543388e+01
5.172004992349e+01
5.175584545227e+01
6.079507872133e+01
6.069343566917e+01
6.063952287321e+01
6.059876888367e+01
6.051971768950e+01
6.044160982008e+01
6.035848478136e+01
6.024923293927e+01
6.010650549390e+01
6.002521789851e+01
5.993167885274e+01
5.985949011866e+01
5.986835183099e+01
5.989730170658e+01
6.020536453566e+01
6.105782727300e+01
5.958161247939e+01
6.831866079564e+01
6.992031418996e+01
6.926356705789e+01
6.913034924905e+01
6.913852323989e+01
6.918590031013e+01
6.920276763565e+01
6.928198946522e+01
6.938925629903e+01
6.948418060725e+01
6.955968721888e+01
6.962794849764e+01
6.971380084890e+01
6.972469638064e+01
6.984827130613e+01
6.995852135249e+01
5.578031760245e+01
2.525699201470e+01
2.036471743610e+01
2.468783633217e+01
3.192511096777e+01
4.059043576590e+01
4.986861610795e+01
5.784164670079e+01
6.614944562168e+01
7.511409642368e+01
3.349134503831e+01
1.809753026232e+02
6.292949251429e+00
4.170871753953e+01
1.820615527352e+02
3.343630343423e+01
9.440656496801e+01
1.788094288941e+02
4.826416545626e+01
1.770733736455e+02
6.575199434557e+01
1.819022248673e+02
6.802811643754e+00
1.743672807819e+02
8.362578370966e+01
5.759868929191e+01
1.227238329366e+02
1.718836137537e+02
1.700558648442e+02
1.673555533013e+02
1.670169350129e+02
1.690484552634e+02
8.747730326607e+01
8.695637344728e+01
8.762297031762e+01
1.214623818371e+02
1.808061925695e+02
4.095798212084e+01
7.567160123830e+00
1.553858617052e+02
8.673774358086e+01
3.534637319980e+01
1.693769853696e+02
1.786068076576e+02
1.757745073708e+02
1.794168041831e+02
1.819674248044e+02
2.105299446007e+01
8.673141167189e+01
1.805437692195e+02
1.404405844858e+02
6.469819276689e+00
7.464102285952e+01
1.685830626363e+02
4.115582301165e+01
2.978656815174e+01
5.762636749842e+01
7.428663211632e+01
4.929793959769e+01
1.034119546661e+02
1.820442210570e+02
7.101497994583e+00
1.594593423229e+02
8.802495572524e+01
9.247105319925e+01
9.678273068758e+01
1.021176489747e+02
1.068112742883e+02
1.116198218902e+02
1.069690853618e+02
1.164903737414e+02
1.119007264806e+02
1.163559790387e+02
1.214368384249e+02
1.169313243976e+02
1.264318956883e+02
1.220442376162e+02
1.124833849430e+02
1.177480567712e+02
1.079619594382e+02
1.133926073373e+02
1.230418238814e+02
1.189016446016e+02
1.090176666887e+02
1.147064217515e+02
1.047796218461e+02
1.106076501331e+02
1.007169808842e+02
1.065449006770e+02
1.164832472745e+02
1.124188070639e+02
1.025683612867e+02
1.084321619227e+02
9.883967929714e+01
1.047678723386e+02
1.141334409621e+02
1.101647695182e+02
1.011038802812e+02
1.064288646047e+02
9.805781098478e+01
1.036294295073e+02
9.597681623136e+01
1.014871861519e+02
1.088126990859e+02
1.064121561161e+02
9.937279294980e+01
1.038024673845e+02
1.107335624903e+02
1.074902007371e+02
1.144309918884e+02
1.105919731063e+02
1.038813716365e+02
1.062571826331e+02
1.132165205430e+02
1.084221919665e+02
1.014732095972e+02
1.033769764105e+02
1.112890816676e+02
1.057851536965e+02
9.813640545838e+01
9.975061214815e+01
1.076669091481e+02
1.013336900935e+02
9.308640295696e+01
9.484605665138e+01
1.036681989195e+02
9.720149835700e+01
1.065469443301e+02
8.821765396096e+01
9.068902161680e+01
8.157953426398e+01
8.424398881906e+01
1.195348568887e+02
7.510802123259e+01
7.272555381574e+01
7.801049681258e+01
8.742280054641e+01
6.889391018247e+01
7.204155856493e+01
6.302821389702e+01
8.979325295049e+01
1.283337311216e+02
6.636507079583e+01
5.751402984500e+01
5.409226925523e+01
4.883945866941e+01
1.115864580953e+02
1.212388419270e+02
1.162381036275e+02
1.261359094860e+02
1.213615856261e+02
5.237967952620e+01
1.310277261734e+02
1.309357799845e+02
9.911952068325e+01
9.281101546923e+01
1.180274538836e+02
7.542984823890e+01
6.988434229486e+01
7.888886085661e+01
1.130360558022e+02
1.164546985211e+02
1.231191661454e+02
1.267003203220e+02
1.332952188036e+02
1.366750729308e+02
1.301613165079e+02
1.399599611095e+02
1.335442843721e+02
1.425885715607e+02
1.393293104141e+02
1.433068663893e+02
1.370464796430e+02
1.467066000523e+02
1.406531788585e+02
1.304004937599e+02
1.341198473960e+02
1.237942267467e+02
1.218866082339e+02
1.261796485932e+02
1.303568174933e+02
1.347555133443e+02
1.388125331233e+02
1.429510334864e+02
1.470082040025e+02
1.427756154381e+02
1.314441207236e+02
9.707914262854e+01
9.252270528416e+01
9.074827175375e+01
8.601650948009e+01
8.475935083767e+01
7.973688167755e+01
7.901389305384e+01
8.294231947128e+01
7.763919705884e+01
8.024741378014e+01
7.548515131324e+01
7.644559050662e+01
1.222254981303e+02
1.389373034132e+02
1.469100719938e+02
1.427243739028e+02
4.518654482471e+01
1.443374709713e+02
1.480871047348e+02
1.448210481914e+02
1.510650468504e+02
4.398966928200e+01
7.370123442765e+01
7.356674569601e+01
1.310870406619e+02
1.263468012169e+02
1.532620518252e+02
4.754336540668e+01
1.490290538042e+02
7.317180225147e+01
1.379942578113e+02
1.480469584992e+02
1.234476408023e+02
1.508072925555e+02
1.465203756013e+02
8.176306400408e+01
7.666136939280e+01
7.126883589424e+01
7.025879080374e+01
7.651434171072e+01
6.944557933403e+01
6.249129535906e+01
6.115520789047e+01
6.892059678707e+01
6.041594056098e+01
5.120036185157e+01
5.105030304875e+01
1.536432484690e+02
7.191646039324e+01
1.026685121313e+02
1.565254007828e+02
1.549592989338e+02
1.361017664253e+02
1.314194936724e+02
1.216516104454e+02
1.268212085776e+02
1.365964975757e+02
1.320135864154e+02
1.222766323875e+02
1.274562236658e+02
1.177480781476e+02
1.229534251870e+02
1.326689633117e+02
1.282030524557e+02
1.185468066601e+02
1.237820251036e+02
1.141714887885e+02
1.193379882392e+02
1.290426222987e+02
3.990851197010e+01
1.468476650540e+02
1.550254727930e+02
7.342848865357e+01
8.197897399041e+01
8.808620592466e+01
9.145024217010e+01
1.245414753243e+02
1.343629985537e+02
6.719389323051e+01
6.636118901036e+01
1.408417361121e+02
1.420312917853e+02
1.315195762155e+02
8.948625990626e+01
8.312726915280e+01
8.015948638226e+01
7.335992876296e+01
7.699393057917e+01
7.067204284459e+01
1.357481386934e+02
1.379489374604e+02
5.061896505219e+01
4.126625799221e+01
1.518322234126e+02
1.382530626636e+02
1.260239459385e+02
1.313678844796e+02
1.349982262328e+02
1.399887113501e+02
1.437107346749e+02
1.484967370917e+02
1.447762999944e+02
1.546319474519e+02
1.531258489122e+02
1.147425444115e+02
1.344857349133e+02
6.889159100986e+01
3.597439406538e+01
4.051414115796e+01
4.284413199110e+01
5.062890983305e+01
1.615368808162e+02
1.523770186362e+02
1.474964383213e+02
6.715973151060e+01
7.128732664226e+01
1.587831847208e+02
1.115700017289e+02
1.126019517439e+02
1.080894288970e+02
3.471502218964e+01
4.135472451000e+01
1.418098889543e+02
7.355408872887e+01
6.622959893719e+01
6.986927663892e+01
7.033761827449e+01
1.296473585914e+02
1.394031618916e+02
9.753801767051e+01
1.011044122901e+02
1.581536233515e+02
4.203371777880e+01
1.441251364284e+02
1.422628230249e+02
1.333856461208e+02
8.527975792667e+01
5.921652306249e+01
6.089122790695e+01
7.658402881787e+01
5.232536014866e+01
4.585773874663e+01
1.662857560551e+02
1.463559827004e+02
1.493373234642e+02
1.410892507529e+02
1.575641092034e+02
3.147857194542e+01
1.649923903155e+02
1.461866144050e+02
1.559841826737e+02
1.514169091822e+02
7.405944190808e+01
6.692938350863e+01
5.829765177182e+01
5.940389097249e+01
1.022728927338e+02
7.523948907388e+01
9.807069623243e+01
9.289575543297e+01
8.844825363302e+01
8.111293663586e+01
7.572132483952e+01
8.707615715668e+01
1.216784992335e+02
9.425114926455e+01
1.201888624366e+02
1.195270313055e+02
1.424080974174e+02
1.477816978276e+02
1.089539973308e+02
1.045299966436e+02
3.600395050048e+01
3.159008283448e+01
1.098805746644e+02
1.597689720395e+02
1.457991788589e+02
1.505540735983e+02
1.455588953850e+02
1.626622368191e+02
9.447857445580e+01
1.256773162525e+02
6.868728722403e+01
1.236473385039e+02
2.674085333387e+01
1.322939647938e+02
1.556321424841e+02
1.608627255694e+02
1.626608136001e+02
8.795830062164e+01
1.287592290260e+02
1.245916611105e+02
8.345961540797e+01
7.917709250118e+01
8.417938605349e+01
7.504452813811e+01
7.733398181985e+01
6.979489670181e+01
1.616249571884e+02
1.613483580885e+02
1.601135040136e+02
1.556552790446e+02
1.667339672891e+02
1.627885405235e+02
5.332794558970e+01
6.612900365064e+01
1.515400512434e+02
8.789263004572e+01
1.680629661598e+02
1.630618083277e+02
6.753854835687e+01
6.222513124118e+01
1.493798707897e+02
4.983491691423e+01
5.113745988874e+01
4.939435081491e+01
1.740516455229e+02
8.651773524615e+01
1.647198221388e+02
8.536546578283e+01
1.541199523486e+02
1.335529449720e+02
8.673878415717e+01
1.546509892113e+02
1.440854650927e+02
1.549542107020e+02
1.029142093260e+02
9.825404099757e+01
1.072113483204e+02
6.893364178206e+01
6.407962220828e+01
1.432331441542e+02
6.435685770756e+01
6.826197972679e+01
4.442369789060e+01
5.436491724588e+01
1.038334080446e+02
1.005025788394e+02
1.374570985526e+02
1.414986195812e+02
1.297625039675e+02
1.372809073744e+02
1.279608540439e+02
1.246099705061e+02
1.520740179006e+02
1.585361668578e+02
8.440306025470e+01
8.357239515147e+01
7.818491239865e+01
1.561411703822e+02
1.698034093179e+02
1.660938085263e+02
2.221415634728e+01
2.726179765152e+01
5.226585532524e+01
5.524200159193e+01
1.551025209847e+02
1.504205291924e+02
1.609191319213e+02
4.827731396279e+01
1.456368177819e+02
1.703341416960e+02
1.667329229288e+02
1.750183920363e+02
1.583903160140e+02
1.663294114697e+02
1.657108385615e+02
6.503223442968e+01
1.514633212854e+02
9.894998997696e+01
5.624364933553e+01
9.466233154271e+01
1.001512439088e+02
8.990922380141e+01
4.148069282605e+01
9.610007244206e+01
1.020375524704e+02
1.594103869930e+01
1.612421315278e+02
1.770847188151e+01
2.209038590770e+01
1.714528842990e+02
1.663070996655e+02
1.745781456739e+02
1.693725980807e+02
1.609689991385e+02
1.644910157984e+02
9.358754869710e+01
1.741325227795e+02
1.681800485115e+02
1.780021970152e+02
7.029282505930e+01
6.091325785900e+01
5.357450509382e+01
4.324331148336e+01
1.657770564556e+02
1.594446627049e+02
1.505617263305e+02
1.403682541281e+02
9.532887821594e+01
9.484888371154e+01
1.033790798919e+02
1.022456044673e+02
1.108845757445e+02
1.095203524123e+02
1.183660820384e+02
1.698483262676e+02
4.004673023939e+01
7.871326398905e+01
1.706847219400e+02
1.662241914828e+02
7.068816380112e+01
6.165347974966e+01
1.742035513270e+02
8.181625540977e+01
1.672304138959e+02
4.702322889723e+01
5.986609374144e+01
8.355118984954e+01
8.004719093064e+01
6.339953759877e+01
5.754946327282e+01
1.462021353454e+02
2.379035462771e+01
5.022145674870e+01
1.194230367121e+02
4.216175809581e+01
1.456498489311e+02
8.828101672660e+01
9.090243092096e+01
5.829399947666e+01
6.878692731197e+01
1.073098076016e+02
9.740830113976e+01
9.263063159350e+01
9.416931260546e+01
6.163049831175e+01
5.115312350057e+01
1.034439269212e+02
1.406611579465e+02
1.454855374959e+02
1.548852719146e+02
1.503001480528e+02
1.406994723394e+02
1.455460796018e+02
1.551070263421e+02
1.506600843805e+02
1.617925526930e+02
1.555229137927e+02
1.457431242105e+02
1.504660702843e+02
1.593948956291e+02
1.409501591007e+02
1.745648170399e+02
9.221868148064e+01
6.785490845613e+01
5.915600470662e+01
9.502884038639e+01
1.711243755406e+02
1.702148737820e+02
8.023448830727e+01
1.749319899281e+02
9.752892742237e+01
7.364307518265e+01
1.764307883444e+02
1.357855857115e+02
1.308998683717e+02
1.260234049894e+02
1.698238211893e+02
1.118909910092e+02
1.789671484153e+02
1.304005300353e+02
1.254808963400e+02
1.167670058303e+02
1.407536913605e+02
1.804921163387e+02
1.742776794384e+02
1.746861055818e+02
1.674439541819e+02
1.814240923218e+02
1.732536433542e+02
1.741823001492e+02
7.652573046293e+01
8.307595777791e+01
8.964098085902e+01
8.875747391248e+01
8.257757823993e+01
8.751395477986e+01
9.344998527617e+01
8.568221875189e+01
1.506441669957e+02
1.822335441493e+02
1.296911110168e+02
1.259122172093e+02
1.163285894881e+02
9.086249768233e+01
9.709147748753e+01
1.068804883780e+02
8.480036981970e+01
1.363914919009e+02
1.822577055163e+02
1.296612531250e+02
9.369449628421e+01
8.711679532006e+01
9.566505117029e+01
9.609535525085e+01
1.051141869770e+02
9.624373766963e+01
1.073217503991e+02
1.110413530636e+02
1.049178092330e+02
1.149547246229e+02
1.086643123448e+02
9.943334934712e+01
1.188443715833e+02
1.120124691826e+02
8.670082793295e+01
3.655714076190e+01
4.029265775123e+01
2.751015551919e+01
4.260066217397e+01
5.238679982789e+01
5.450353429724e+01
6.100791846760e+01
5.275828337730e+01
1.134081313218e+01
1.969592827736e+01
7.602749783751e+00
1.608903894972e+01
2.839972508265e+01
3.744504544234e+01
1.795098203471e+02
8.395241900889e+01
7.970764272012e+01
7.082469579429e+01
7.613782537488e+01
8.800929578569e+01
6.583102593928e+01
6.312078836645e+01
7.529738102627e+00
1.706304514577e+01
1.604869123432e+01
2.653615951247e+01
2.621530098489e+01
1.715122481483e+01
1.706847359984e+01
7.465237032631e+00
1.671197201804e+01
2.609986970498e+01
7.135133312648e+00
1.310821755361e+02
1.364002994792e+02
1.817793536540e+02
8.770629182292e+01
6.201498865118e+00
1.656317909349e+02
1.676165137918e+02
1.676154915749e+02
1.648131746202e+02
1.694333932318e+02
1.658032690862e+02
5.979814641812e+01
1.595423104230e+02
1.485652682458e+02
6.813507934524e+01
6.199959634365e+01
1.357282196573e+02
1.268568430754e+02
1.571800666650e+02
1.275856722957e+02
1.501542354336e+02
1.746153313810e+02
3.922986416919e+01
1.132706123979e+02
1.097478514110e+02
1.334807036259e+02
6.100576870510e+01
9.541992747016e+01
4.027931660401e+01
1.690435810977e+02
9.366031131784e+01
1.100758887172e+02
8.131079609063e+01
6.606031298891e+01
6.075780299417e+01
9.565744718564e+01
1.000822666335e+02
1.457799095441e+02
1.388019043569e+02
7.704113497728e+00
1.512737258856e+02
1.199731058875e+02
1.171060453320e+02
1.510051769861e+02
5.289117800504e+01
1.372134607468e+02
1.551789990975e+02
1.067294427520e+02
3.151357098960e+01
1.035839617732e+02
1.696784492555e+02
1.358552406827e+02
5.575908605473e+01
1.177529203397e+02
9.667560639625e+01
7.880195471490e+01
1.528515451867e+02
1.152549693057e+02
1.590190557494e+02
1.343711902008e+02
5.888490033416e+01
1.577741430979e+02
1.136744535548e+02
1.470129841528e+02
1.386868719719e+02
1.008063364740e+02
1.411620453463e+02
1.138137173053e+02
1.549055942432e+02
8.948802348191e+01
1.204158643025e+02
1.271581260062e+02
1.181784987709e+02
1.295171412574e+02
1.545126050887e+02
7.207348189159e+01
7.782259682180e+01
1.165665834436e+02
1.568033447448e+02
1.567264967295e+02
8.685793883735e+01
1.522905639799e+02
1.507625762608e+02
1.034251022005e+02
4.292291245718e+01
6.292760519669e+01
8.858426573135e+01
1.116958031321e+02
1.133568631938e+02
1.610509967110e+02
1.556166956990e+02
1.499060485493e+02
3.900730847707e+01
8.322557672239e+01
1.590655983250e+02
1.210578393779e+02
1.587865347940e+02
1.023181185554e+02
1.696194962829e+02
6.614499201872e+01
1.627780059232e+02
1.508545108778e+02
8.085101263739e+01
8.677875474745e+01
1.729277029574e+02
1.589722882755e+02
1.276661418594e+02
1.163584406762e+02
6.989254396446e+01
1.167955444535e+02
1.243719503227e+02
1.695743540075e+02
1.627641468668e+02
1.211399041273e+02
1.102462737421e+02
1.382552451557e+02
2.611716590561e+01
7.443502444031e+01
1.136842118127e+02
9.139971550184e+01
1.193985414375e+02
1.705353171029e+02
1.173555232802e+02
9.747292022603e+01
1.212023231861e+02
6.163677479711e+01
1.260973129732e+02
1.251828970961e+02
1.335460575610e+02
2.641044104995e+01
1.326788544002e+02
1.599401669955e+02
7.950743382888e+01
1.223666608267e+02
1.358473841737e+02
5.299534506477e+01
1.318207444400e+02
1.425364920468e+02
1.373823471898e+02
1.204310300010e+02
1.411897805636e+02
5.697212925761e+01
5.680475594430e+01
4.733385563618e+01
9.973611575529e+01
1.465561100295e+02
3.464393174567e+01
1.360199359708e+02
3.403322268981e+01
9.504604064363e+01
1.502679176317e+02
1.125405335211e+02
9.622962755782e+01
4.990182347332e+01
9.053882437109e+01
1.295765456331e+02
9.208135643839e+01
8.536034668870e+01
1.583201539105e+02
8.633316415316e+01
1.673288656019e+02
1.798090228032e+02
9.390974114924e+01
4.339493295362e+01
4.032321120614e+01
4.896451578823e+01
7.090996951697e+01
1.364496890456e+02
9.423202134772e+01
6.373302092477e+01
1.648925926703e+02
1.779596199522e+02
1.263977406147e+02
1.624176106558e+02
1.420404395135e+02
1.493964097585e+02
8.594657807157e+01
1.437875773797e+01
1.347846803662e+02
3.506665349893e+01
4.119044208004e+01
4.017564921743e+01
6.118629938647e+01
3.302062819290e+01
3.109380988962e+01
1.732971985980e+02
9.429486573557e+01
1.537956930405e+02
3.016338588765e+01
1.602452348022e+02
1.712265316346e+02
1.820404951168e+02
1.621211240908e+02
4.596914578544e+01
1.029109081936e+02
1.682098133892e+02
1.339585492110e+02
1.820603829911e+02
9.326798812509e+01
1.594698237390e+02
6.708402576637e+01
1.595001570200e+02
1.458351061647e+02
1.056467860531e+02
1.031229177946e+02
1.738714496553e+02
1.634716982897e+02
5.158838112963e+01
1.257917687681e+02
7.689579667815e+01
5.893185181679e+01
1.752318638875e+02
1.547288384122e+02
1.737046012691e+02
2.631396700383e+01
1.376441530027e+01
1.767822301101e+02
1.673266154860e+02
6.453830599592e+01
1.699160311695e+02
5.665153739468e+01
8.481877839871e+01
1.544892679700e+01
1.815928680172e+02
1.604617215042e+02
8.407726399291e+01
8.802175867349e+01
5.551284855909e+01
1.639684148535e+02
2.244469561323e+01
1.611381570006e+02
1.770105397153e+02
1.634072865634e+02
1.814660177591e+02
5.814383882221e+01
1.728850549630e+02
1.693827494733e+02
8.595636646757e+01
1.629463985512e+02
6.796426047450e+01
3.321525348135e+01
1.683408292459e+02
5.951975753971e+00
8.558444251322e+01
1.817385186551e+02
3.287313612728e+01
1.007106991498e+02
1.670185150748e+02
1.048263338325e+02
1.438050852710e+02
4.472834294756e+01
3.822257225254e+01
1.175137932649e+02
1.732380493854e+02
1.631767857069e+02
1.108677653729e+02
5.857441638451e+01
1.618941695600e+02
9.138149680223e+01
1.631471885919e+02
1.687158267919e+02
5.343204805550e+01
1.138129622242e+02
1.397999154006e+01
1.764293313654e+02
9.533921723377e+01
1.583360720987e+01
4.363262270062e+00
1.599719975508e+01
1.172419065304e+01
2.202616585039e+01
2.000369222280e+01
3.015405164260e+01
2.952966543595e+01
3.913917583203e+01
3.800564047978e+01
4.818280031665e+01
4.749378704330e+01
5.613412857416e+01
5.602110771385e+01
6.451816442118e+01
6.555714187694e+01
7.352253443584e+01
7.419534723898e+01

SCALARS node_materi_strain_total_average_a_ept float
LOOKUP_TABLE default
5.074694056830e-04
1.523101086737e-03
1.951534380800e-03
2.960846411219e-03
4.552562124284e-04
4.695964207608e-04
4.542435228723e-04
4.714013146363e-04
4.758364119678e-04
4.946540178939e-04
5.258561537959e-04
5.688075868120e-04
6.269935320354e-04
6.985169106831e-04
7.843096963916e-04
8.814986800099e-04
9.866751987166e-04
1.103330617756e-03
1.236175285890e-03
1.375239812536e-03
1.523483653260e-03
1.680801596096e-03
1.833758155748e-03
2.969509970839e-03
2.958637205132e-03
2.955731273208e-03
2.947218602294e-03
2.929524537768e-03
2.921821656933e-03
2.901946887442e-03
2.877804715819e-03
2.856338818221e-03
2.827974640408e-03
2.786836558776e-03
2.753241543202e-03
2.707136290462e-03
2.657467120969e-03
2.599072845319e-03
2.535063711488e-03
2.464287837874e-03
2.391625175039e-03
2.316101976549e-03
2.236246346526e-03
2.148207827385e-03
2.055102960265e-03
1.961989313958e-03
1.868488195080e-03
1.779041640098e-03
1.695595495398e-03
1.610947077652e-03
1.543262450215e-03
1.475184595927e-03
1.426484934112e-03
1.378610648225e-03
1.341393168935e-03
1.319105426945e-03
1.321326669560e-03
1.331047844497e-03
1.349056710641e-03
1.392677453976e-03
1.429647296048e-03
1.484871651078e-03
1.537464509413e-03
1.603701802878e-03
1.674888854267e-03
1.730867308220e-03
1.771743244232e-03
1.840302745762e-03
1.875127688979e-03
1.915111527696e-03
1.943075984374e-03
1.956438607958e-03
1.666292854725e-03
1.807475672465e-03
1.950581372760e-03
2.093666252827e-03
2.241419528557e-03
2.391829969426e-03
2.543123498484e-03
2.698777578778e-03
2.852212066758e-03
-1.410059223690e-03
1.219795600940e-03
-2.654241345292e-04
2.384535489644e-04
3.697585391601e-04
4.682311482883e-04
5.529395398580e-04
6.471712342834e-04
7.611750694638e-04
8.957194256010e-04
1.049369004326e-03
3.858728367718e-04
4.590410392068e-04
5.876478482745e-04
7.160743493902e-04
8.478284430093e-04
9.803993462574e-04
1.114204947424e-03
1.248124358991e-03
1.382819616308e-03
1.505482724067e-03
1.511684222698e-03
1.506480673277e-03
1.496772548805e-03
1.505741591906e-03
1.477401184283e-03
1.460087446222e-03
1.444109073897e-03
1.424362968417e-03
1.397765544636e-03
1.368286462130e-03
1.335372484143e-03
1.299676953861e-03
1.263313314960e-03
-2.019414621162e-03
-2.295215051676e-03
-2.366404355082e-03
-2.141208161734e-03
-1.275803604146e-03
-4.508875040195e-04
-1.183528943508e-04
9.245393983356e-06
6.948471190208e-05
1.290168597489e-04
1.780447945980e-04
2.367733274620e-04
3.014109786412e-04
3.615401214531e-04
4.066747025938e-04
4.466294809546e-04
4.765154535805e-04
4.972291436206e-04
5.182713488035e-04
3.825915594164e-04
3.914211502644e-04
3.977870735092e-04
4.034235087795e-04
4.106982191811e-04
4.190016283654e-04
4.283271626436e-04
4.391646004576e-04
4.517753943216e-04
4.656686392873e-04
4.815154838620e-04
4.989989494950e-04
5.163554881851e-04
5.329935688132e-04
5.480194021907e-04
5.603761489903e-04
5.688431118583e-04
5.721235385819e-04
5.690775968011e-04
5.588181072525e-04
5.422904823363e-04
5.198848934419e-04
4.990616826833e-04
4.688482383545e-04
4.333308774252e-04
4.082791500450e-04
3.387096008265e-04
2.217917671301e-04
3.522232082681e-04
3.926695134632e-04
4.385625210107e-04
4.711546451128e-04
4.941735600838e-04
5.180195578240e-04
5.396104670510e-04
5.539633387501e-04
5.621138505090e-04
5.657157393353e-04
5.643805522450e-04
5.594745101843e-04
5.519548825238e-04
5.425908558691e-04
5.321846351116e-04
5.213092939874e-04
5.104486856653e-04
5.007402985784e-04
4.917394804572e-04
4.837390178005e-04
4.769668316328e-04
4.712289551685e-04
4.664188744812e-04
4.627469773358e-04
4.609138020449e-04
4.598155622084e-04
4.302041297333e-04
4.685226250447e-04
5.062076883624e-04
5.328550169583e-04
5.586849725014e-04
5.776652916742e-04
5.922283236468e-04
6.047277778732e-04
6.141933602249e-04
6.193919957038e-04
6.223867833823e-04
6.231380233427e-04
6.222684052537e-04
6.200295357610e-04
6.168073429667e-04
6.131312543847e-04
6.094301131349e-04
6.058067040281e-04
6.024495986828e-04
5.995484738890e-04
5.971735196474e-04
5.955428109797e-04
5.950960297389e-04
5.936146324475e-04
5.882281853867e-04
7.182662298818e-04
7.243025300833e-04
7.233250754524e-04
7.227074133644e-04
7.222796628059e-04
7.218728769338e-04
7.213612384110e-04
7.205874352942e-04
7.193494271431e-04
7.174248159318e-04
7.144654227734e-04
7.100442750915e-04
7.037539445733e-04
6.953735899132e-04
6.855166648174e-04
6.743539209290e-04
6.615576484045e-04
6.450599433980e-04
6.262272150854e-04
6.034869541854e-04
5.778457837926e-04
5.423219556669e-04
5.081538807791e-04
5.898091429568e-04
6.253109562139e-04
6.600996091202e-04
6.858740404491e-04
7.103504549714e-04
7.312602141178e-04
7.491996377459e-04
7.651929992858e-04
7.804741869406e-04
7.958673901271e-04
8.083368750855e-04
8.182597280097e-04
8.261939365610e-04
8.326017362486e-04
8.378115867137e-04
8.420196630394e-04
8.454754800890e-04
8.484415763497e-04
8.510783770400e-04
8.534920860337e-04
8.531177072534e-04
8.484463012872e-04
9.813533577912e-04
9.829027527341e-04
9.805957684298e-04
9.772286823274e-04
9.727460286004e-04
9.671336524143e-04
9.604752459176e-04
9.522379554937e-04
9.423037013176e-04
9.305749770710e-04
9.164511862542e-04
8.992671882465e-04
8.781705883741e-04
8.562265457307e-04
8.354372245295e-04
8.123710964155e-04
7.856573732487e-04
7.577458029130e-04
7.228609197066e-04
6.835577542325e-04
7.967670279454e-04
8.414643731902e-04
8.773571114955e-04
9.067156709464e-04
9.340166754227e-04
9.598193272275e-04
9.874184498427e-04
1.011559955887e-03
1.031724352201e-03
1.048663703906e-03
1.063231359873e-03
1.075874299979e-03
1.086150152002e-03
1.094744964521e-03
1.102088491166e-03
1.107788157127e-03
1.111905631692e-03
1.114371231579e-03
1.114276744713e-03
1.248134303385e-03
1.246351584901e-03
1.242355132940e-03
1.236539836316e-03
1.228921074781e-03
1.219206854397e-03
1.207434338158e-03
1.192582031914e-03
1.175405503965e-03
1.155904142259e-03
1.133817464207e-03
1.107379821893e-03
1.076539321154e-03
1.042979157576e-03
1.012781917918e-03
9.784737831743e-04
9.304133633721e-04
1.079863009176e-03
1.130766261726e-03
1.168211374200e-03
1.203481422860e-03
1.234949083922e-03
1.262166503059e-03
1.285945321049e-03
1.307632784229e-03
1.326523329505e-03
1.341212007251e-03
1.353939967740e-03
1.363577831216e-03
1.371820252603e-03
1.377693888514e-03
1.382533908947e-03
1.383776935539e-03
-8.061987858001e-04
9.586377311968e-05
3.205815170064e-04
4.227758145523e-04
5.080112132032e-04
6.022980824976e-04
7.082414837150e-04
8.339850239874e-04
9.800267040858e-04
1.140120472777e-03
5.330562261359e-05
1.308749120447e-03
5.852185534836e-05
-1.397979631357e-03
1.422371068805e-03
4.229575061342e-04
7.398799749339e-04
1.421204950220e-03
6.236032306179e-04
1.695204647490e-03
8.860830064973e-04
1.648648844483e-03
2.985161370146e-04
2.039405569740e-03
1.222267883873e-03
5.071709572789e-04
1.020813171923e-03
2.274091886647e-03
2.549476362384e-03
2.846188518672e-03
2.768745642065e-03
2.689507510014e-03
1.392453959247e-03
1.532713107121e-03
1.604756162472e-03
2.168588883065e-03
1.776845825402e-03
-1.764381876369e-03
4.262276134419e-04
1.442043948895e-03
1.625884026942e-03
4.639615441159e-04
2.402371194730e-03
1.552214182059e-03
1.864493223501e-03
1.343467641826e-03
1.320784557945e-03
-2.305054658269e-04
1.466778551859e-03
1.506916541263e-03
2.462034071636e-03
1.747510507336e-04
5.937352585543e-04
2.891591288269e-03
5.224250030867e-04
2.984657685299e-04
7.441622638479e-04
1.048565313493e-03
-5.772212071815e-04
1.890389425901e-03
1.866139167172e-03
4.649861602802e-04
2.768634567794e-03
1.308080892236e-03
1.325470716720e-03
1.431773123939e-03
1.441184477109e-03
1.556548119953e-03
1.564999793361e-03
1.447510208814e-03
1.572297120290e-03
1.451031202852e-03
1.681632103606e-03
1.577137711216e-03
1.452174767641e-03
1.579026046145e-03
1.451125215502e-03
1.329326643669e-03
1.323730879377e-03
1.208483685261e-03
1.198690348005e-03
1.317309694567e-03
1.188422774722e-03
1.076692377321e-03
1.061077000782e-03
9.565040551529e-04
9.364687930481e-04
8.405675521752e-04
8.170647776708e-04
9.188041793301e-04
7.967308001212e-04
7.081392307427e-04
6.866505091213e-04
6.118788984790e-04
5.941817675289e-04
6.725001204857e-04
5.838149095012e-04
5.184313872488e-04
5.074588275931e-04
4.547276433664e-04
4.520961793358e-04
4.219036632884e-04
4.248134544567e-04
4.480121676999e-04
4.196380411895e-04
3.928060354686e-04
3.909206875449e-04
4.087036003850e-04
3.800547399222e-04
3.978260329842e-04
3.611708958129e-04
3.380628592797e-04
3.200716118106e-04
3.557869166349e-04
3.144100944183e-04
2.741516151151e-04
2.793718329897e-04
3.341418046927e-04
3.087495284873e-04
2.516128289195e-04
2.958859593077e-04
3.460111840523e-04
3.368833624609e-04
2.913856581373e-04
3.352242778234e-04
3.868994048245e-04
3.859134928555e-04
4.523780960806e-04
3.380816152827e-04
3.893115928849e-04
3.451400825468e-04
3.953919684428e-04
6.678078460754e-04
3.537526213032e-04
3.061064006896e-04
4.026983960101e-04
4.525794480968e-04
3.631083524941e-04
4.103795292176e-04
3.739870716764e-04
4.163892046479e-04
1.311321036113e-03
4.181982982727e-04
3.849775484330e-04
3.438963114601e-04
3.573499818597e-04
1.665626494424e-03
1.799637302424e-03
1.778332164851e-03
1.917136496845e-03
1.893262604888e-03
3.963731229288e-04
1.707838092908e-03
1.936889265823e-03
9.772733591249e-04
6.390722749444e-04
4.354394745820e-04
4.598188858941e-04
4.635990110912e-04
5.119283522572e-04
4.614688350594e-04
5.455572281563e-04
5.675501051153e-04
6.660827122849e-04
7.023974331584e-04
8.048326927994e-04
7.677407037300e-04
9.062505182235e-04
8.687757350178e-04
8.491028997620e-04
7.502263662430e-04
1.006658459606e-03
9.680313310700e-04
1.106161726369e-03
1.063938327545e-03
9.301385649758e-04
1.021596504518e-03
8.947239008221e-04
4.376898202719e-04
5.073882091440e-04
5.427430934025e-04
6.505821159520e-04
6.920966461845e-04
7.914331393518e-04
8.266837287108e-04
7.354620283465e-04
1.577444087763e-03
3.403825144400e-04
3.369026113966e-04
2.689096251563e-04
2.693939656170e-04
1.785488505843e-04
1.836414638270e-04
5.233974871110e-05
6.139601814872e-05
-1.148196887951e-04
-6.334466409114e-05
-2.757672719378e-04
-1.531969007520e-04
9.056632328588e-04
7.606227752270e-04
8.910302060863e-04
8.642967963988e-04
3.174561739919e-04
1.156030125313e-03
8.975391992167e-04
8.042608989075e-04
8.712970247669e-04
3.716972708429e-04
7.165237294418e-05
1.959311225740e-04
2.033640032408e-03
2.006346697084e-03
9.488422519591e-04
4.113284424889e-04
1.047867113190e-03
-3.368550969854e-04
1.109639662027e-03
1.246210204303e-03
7.378559128186e-04
9.920296693548e-04
9.681211030431e-04
1.014586104824e-05
-3.047776736413e-05
-1.599207866280e-04
-3.978504704704e-05
5.177775099947e-05
3.756384738488e-05
-3.534180623412e-05
6.152726764446e-05
1.037196467198e-04
1.157689292655e-04
6.607912696025e-05
1.289563864964e-04
1.297163574203e-03
-5.289119967798e-04
1.217518027589e-03
1.038580981565e-03
9.526463442181e-04
2.149993857647e-03
2.118446645018e-03
1.975302345148e-03
2.083683085456e-03
2.229764619874e-03
2.191060954691e-03
2.045863427946e-03
2.149576234018e-03
2.005347721682e-03
2.105428666803e-03
2.252519742295e-03
2.204711920753e-03
2.058537062853e-03
2.154518981026e-03
2.008972787006e-03
2.101459924313e-03
2.249731037274e-03
3.970253117362e-04
7.876400253567e-04
9.226604428253e-04
5.090098832842e-04
5.667809991808e-04
5.779001458309e-04
6.405002242639e-04
2.192407421534e-03
2.343853143435e-03
1.013724330955e-04
2.116451469797e-04
2.178114695849e-03
1.193431053602e-03
1.062526583694e-03
5.537418769412e-04
5.853963876037e-04
5.067037730705e-04
5.411096042807e-04
6.183023964014e-04
4.615037499123e-04
6.522350818551e-04
2.354254456003e-03
3.023560245006e-04
2.750806915083e-04
1.333022662992e-03
6.425004847956e-04
1.037587670271e-03
1.032693991717e-03
1.167304175694e-03
1.164710952581e-03
1.297827744783e-03
1.292719544506e-03
1.165933614372e-03
1.095556586089e-03
1.292956074786e-03
2.043665546671e-03
7.253432803775e-04
1.503587137833e-04
3.552447319711e-04
1.062391241988e-04
4.244028315899e-04
4.425260561224e-04
1.085863016618e-03
1.426229649353e-03
1.431810730606e-03
5.768764541498e-04
6.513190213965e-04
1.113608674344e-03
1.756840384005e-03
1.904536881796e-03
1.864937306851e-03
4.128052422089e-04
4.020606146721e-05
2.339949167573e-03
2.770426858010e-04
2.833493194158e-04
-6.145926957379e-04
-8.097941507393e-04
2.282360424055e-03
2.433948754410e-03
6.579345466878e-04
7.280823386606e-04
1.003990594080e-03
1.605663683569e-04
2.496623346231e-03
7.060680348145e-04
5.518072212788e-04
6.232988756239e-04
1.234976951044e-04
-3.366975170571e-05
1.388435409400e-04
1.877263433552e-04
4.516581433860e-04
1.133284044781e-03
2.379021720775e-03
1.170358220703e-03
1.039918360377e-03
1.293035427081e-03
1.350420514657e-04
1.176185172594e-03
1.273243932630e-03
1.555563036148e-03
1.566151639257e-03
3.332617649162e-04
3.327189875567e-04
2.915840628370e-04
3.543294532540e-04
1.334030285977e-03
3.727360426410e-04
1.106774769375e-03
1.118431062298e-03
1.014553506738e-03
6.995816982992e-04
7.298219461661e-04
3.338504310765e-04
4.944964687270e-04
5.872904673860e-04
8.054644329516e-04
4.793720138594e-04
2.402645634731e-03
2.507063482123e-03
1.915327714425e-03
1.866009893867e-03
2.893190727044e-04
2.459733597634e-04
5.322026159680e-04
1.130717361570e-03
2.297155164541e-03
2.325904959750e-03
2.202678684763e-03
1.056993244359e-03
2.717669776060e-04
4.586212510032e-04
-6.457113275651e-04
7.755248863728e-04
2.649176967428e-04
1.444180544503e-03
1.417372856398e-03
1.477835827715e-03
1.212249116139e-03
1.226585560262e-03
7.840729389702e-04
6.737052430822e-04
1.027713970774e-03
9.342136255466e-04
9.148409818318e-04
8.423585648126e-04
1.924388851403e-04
2.069782983236e-04
1.562961917204e-03
1.413261395585e-03
1.694633604070e-03
1.709840466635e-03
1.226917597899e-03
1.135214006488e-03
4.711206507535e-04
6.806705352274e-04
2.492415413953e-03
1.125842463731e-03
1.263813216123e-03
1.228441699438e-03
-9.700006735493e-04
-6.423783799813e-04
2.589140089960e-03
3.302626941267e-04
4.033946245311e-04
2.555011376516e-04
1.758053588348e-03
1.632392530372e-03
1.568446835262e-03
7.907467940745e-04
2.654048793980e-03
8.064844067827e-04
4.792212862010e-04
9.250908983965e-04
2.513730062186e-03
2.683446490462e-03
1.767066149997e-03
1.722879274292e-03
1.799753023166e-03
-3.055604200435e-04
-5.713308136985e-04
2.454809226686e-03
4.669512051804e-04
5.146129337735e-04
2.149128524313e-04
2.431843041398e-04
6.753660307488e-04
5.969888580043e-04
1.440545326918e-03
1.574645419732e-03
1.171888431847e-03
6.267398321117e-04
4.790325378669e-04
4.328617464007e-04
2.553427459434e-03
2.673609000373e-03
1.850081430497e-04
1.441216781074e-04
2.487439102159e-04
2.532048821415e-03
1.627026568332e-03
1.537054122514e-03
2.168317290992e-04
2.063891523003e-04
5.072177048218e-05
-1.420840819719e-04
2.348492205362e-03
2.223278205042e-03
2.484547398059e-03
4.766230287144e-04
1.054747739626e-03
1.172764188164e-03
1.115305340063e-03
1.268624908490e-03
1.197456098621e-03
1.302200159456e-03
1.405229645839e-03
-1.186014974992e-03
2.637773788678e-03
1.768779690239e-03
-1.389291351591e-03
1.721589043236e-03
1.812577010513e-03
1.661122329470e-03
4.630632399713e-04
1.645424291595e-03
1.693914314529e-03
1.567456995594e-04
2.649145928505e-03
2.390196054295e-04
2.965492606244e-04
1.368718020774e-03
1.329939662082e-03
1.462378251533e-03
1.423985903914e-03
1.287771968082e-03
1.389692145435e-03
1.672217002146e-03
1.546085976454e-03
1.496077988916e-03
1.656562533432e-03
8.641101374027e-04
4.255512176744e-04
4.728421060339e-04
4.546686140468e-04
1.861605519686e-03
1.842467084810e-03
1.355422057688e-03
1.216613436204e-03
1.748551841865e-03
1.751132631886e-03
1.876919143609e-03
1.867447723514e-03
1.995358637697e-03
1.981403863021e-03
2.114525661608e-03
1.540669221194e-03
3.107190437044e-04
1.037552353534e-03
1.240771856256e-03
1.150132952684e-03
7.575317626433e-04
7.086237767822e-04
1.325382197575e-03
3.773171470275e-04
2.706167949905e-03
-1.392689959120e-03
-1.023443037194e-03
4.158854107053e-04
8.178834785111e-04
5.011580886357e-04
5.389886957853e-04
7.813468924984e-04
1.639981850359e-04
1.627382036222e-04
2.122457215140e-03
1.073824415139e-04
1.298502218522e-03
3.839606965958e-04
7.618625514492e-04
2.208089918883e-04
3.860918119853e-04
1.332690606131e-03
1.332257718794e-03
1.227127754627e-03
3.899447974904e-04
6.140213662861e-04
5.764470019302e-04
1.092389139445e-03
2.078400297807e-03
2.095671626305e-03
2.235626601459e-03
2.106977627934e-03
1.966981616580e-03
1.976591388023e-03
2.120104303379e-03
1.986063976382e-03
2.153513397109e-03
1.985365432593e-03
1.845944250191e-03
1.843090027710e-03
1.966666935674e-03
1.708128291047e-03
1.319081556424e-03
4.624604888107e-04
-9.237743265421e-04
-6.329483229602e-04
8.663030684575e-04
2.343710813097e-03
2.487919675003e-03
2.709172195760e-04
1.951142446314e-03
1.223797835936e-03
-1.104855679238e-04
1.779137085465e-03
1.953738402391e-03
1.827748586641e-03
1.815245378138e-03
2.602791953086e-03
1.834383814585e-03
1.492165030659e-03
6.106193629205e-04
5.844084349805e-04
4.952204772331e-04
1.843248577876e-03
1.317968726048e-03
1.232847134936e-03
1.226161721496e-03
1.130802452000e-03
1.309531725819e-03
2.208816142265e-03
2.132344213554e-03
9.615068140472e-05
1.193228112196e-04
1.746706916583e-04
1.581027515197e-04
7.788155599938e-05
1.298642526423e-04
2.141112843750e-04
9.365152727409e-05
1.709569246767e-03
1.350820107028e-03
6.021426303490e-04
5.096195597917e-04
4.098433408618e-04
5.175887549295e-04
5.204177632359e-04
6.078377064867e-04
5.151838707832e-04
1.033662566474e-03
1.382324984053e-03
4.962841206145e-04
4.499850498892e-04
1.431570353400e-03
1.524613763828e-03
1.481080490460e-03
1.628569953156e-03
1.578618302161e-03
7.529785600286e-04
8.274744928002e-04
7.939838447004e-04
8.980541781499e-04
8.546345640701e-04
7.635900603576e-04
9.630577830540e-04
9.021711710945e-04
1.498826205739e-03
-7.090200274006e-04
-3.531436072544e-04
-8.254903406971e-05
-1.383441189416e-04
-3.853712124174e-04
-1.537460205727e-04
-3.103830114725e-04
-7.553841208300e-04
-7.313894914454e-05
3.565167239927e-06
2.101476028138e-06
6.005407996201e-05
8.227724570303e-05
2.352203102850e-04
1.795987714949e-03
6.577912968465e-04
6.164213396782e-04
5.624323368760e-04
5.743864374891e-04
6.828916234366e-04
5.438210441330e-04
5.233529078664e-04
4.508945457408e-04
4.504744046032e-04
4.644735418262e-04
4.564662995283e-04
4.467347007703e-04
4.336081512757e-04
4.034201487539e-04
3.926894779879e-04
3.681226042587e-04
3.904113657582e-04
3.492302472198e-04
2.316904453379e-03
2.398420201474e-03
1.466002826219e-03
1.569031803330e-03
1.126371623481e-04
2.834681482511e-03
2.808241821451e-03
2.833644713652e-03
1.596603938613e-03
1.665108546006e-03
2.858610600956e-03
3.310123735433e-04
2.243755715269e-03
2.553951820376e-03
-5.759020210690e-05
2.240370861476e-04
1.139268266540e-03
8.353211692054e-04
1.389352681364e-03
9.805241869144e-04
1.203258385259e-03
1.226039060534e-03
4.426958867879e-04
1.961498341146e-03
1.956435836567e-03
2.303275557875e-03
4.259594152188e-04
7.060741469489e-04
3.343645450014e-04
1.716962500406e-03
9.976812041428e-04
3.942993409632e-04
4.563180670759e-04
3.181843013127e-04
1.678312712680e-04
5.325422358102e-04
4.493771476067e-04
9.484407229545e-04
2.400710523355e-03
2.364890262823e-04
9.923900383706e-04
6.398165754207e-04
1.941203420187e-03
9.196797875865e-04
-1.901900937995e-05
2.297269684517e-03
2.442520522973e-03
1.728805647123e-03
3.158183881806e-04
1.818350785652e-03
1.211278758656e-03
2.057951675615e-03
4.333367450006e-04
3.961197375858e-04
7.340403184135e-04
1.134721317171e-03
2.605884266479e-03
5.772799750123e-04
1.000082125381e-03
5.892061861477e-04
4.687561267145e-04
1.189032646678e-03
4.409483162738e-04
2.447896440526e-03
1.302237101085e-03
3.430188389733e-04
2.265252807484e-03
3.650415455230e-04
1.015796835254e-03
8.917817260096e-04
1.047336597060e-03
1.447768184165e-03
7.820378638515e-04
1.085067200684e-03
1.089529310563e-03
-3.770562850480e-04
4.296420149370e-04
1.866842517706e-03
1.413407225535e-03
2.600084852975e-03
6.690380393948e-04
1.147161106294e-03
2.413298277424e-03
5.245967153069e-04
4.686693060409e-04
-2.493079545999e-04
1.864164840934e-04
4.999935128610e-04
6.212898941382e-04
2.379492825629e-03
1.246179875337e-03
8.629841007548e-04
-1.877373678610e-04
1.132103306987e-03
1.345236656957e-03
4.096363477163e-04
1.039547031469e-03
8.088843834831e-04
1.636147664838e-03
7.846976517061e-04
1.445142105791e-03
8.530945188392e-04
3.325290965078e-04
1.632825306454e-03
1.618208075705e-03
9.865275002087e-04
9.004977638330e-04
3.705026016943e-04
9.645258303182e-04
7.138246143092e-04
1.179228501925e-03
2.652369353660e-03
1.042647148802e-03
1.693113315399e-03
6.934164856538e-04
8.352563007455e-04
4.254601481127e-04
9.507039745417e-04
7.784943991073e-04
2.011181489467e-04
3.934828990835e-04
1.320032710663e-03
8.610012938764e-04
2.780161117714e-04
9.398685025607e-04
8.125381861014e-04
1.702160933612e-03
1.015606178101e-03
1.306475936100e-03
3.536064615475e-04
9.048790357253e-04
1.505209472396e-03
2.973937844159e-04
4.359023327780e-04
1.837476563085e-03
6.820102047508e-04
5.572077376809e-04
1.436498786192e-03
9.207498291625e-04
5.756274335164e-04
7.140929164111e-04
6.438143099904e-04
2.885056962224e-04
2.614317544054e-04
2.822346311793e-04
1.573253626921e-03
4.543763266425e-04
1.709377262367e-03
1.918701666131e-04
2.233759939121e-04
1.076607306591e-03
2.028969524579e-03
2.270570634528e-04
4.814616452431e-04
1.939689777014e-04
6.915942241466e-04
2.394713228577e-04
2.412478937873e-04
2.705148727555e-03
2.918340456999e-04
2.889024875737e-03
1.846410125433e-03
1.744559374149e-03
5.786191778606e-04
-1.832386316302e-03
5.080440650445e-04
2.582931526239e-04
1.575113913816e-03
1.747691087468e-03
2.723234419543e-04
2.111510676895e-03
1.620727017609e-03
2.242795242458e-03
1.064406939809e-03
9.454144764800e-04
2.606936583380e-03
1.592812567727e-03
1.029922976106e-04
1.162457851005e-03
4.762801386482e-04
3.821807875156e-04
2.252336678673e-04
4.989072340875e-04
1.602391362261e-05
3.664663721422e-04
1.235990839147e-03
1.646769017296e-03
1.182021556592e-03
2.098606704296e-04
2.558360673947e-03
1.426040844685e-03
1.592802959933e-03
1.300445061652e-03
-5.550186551638e-05
1.642354075791e-03
1.795757924852e-03
2.354035483098e-03
1.691794089777e-03
1.576337380658e-03
2.750774111371e-03
-3.545521543986e-04
2.765358223744e-03
1.707522069015e-03
1.903880000172e-03
1.552809825985e-03
1.727525871839e-03
2.253021540380e-03
-3.696428650793e-04
2.227401191832e-03
5.550727602238e-04
-1.110004997023e-03
1.386426540320e-03
1.837330765180e-03
1.671363801795e-03
4.656407700945e-04
1.894302546525e-04
1.325833664076e-03
1.981562833325e-03
-1.307428078640e-04
2.782480970534e-03
-8.216717234088e-04
1.549372129253e-03
3.234445677623e-04
1.760336883451e-03
2.681817844373e-03
6.384557390232e-04
1.354457746340e-03
4.955563685924e-04
1.509267399488e-03
1.122286803348e-04
2.733059597762e-03
1.271990036130e-03
2.469110750351e-03
1.410544346674e-03
-1.345931285175e-03
1.513066206015e-03
1.148755558221e-03
1.607649350610e-03
2.351707481735e-03
5.347440156991e-04
3.866485521779e-04
2.912474666675e-03
4.842322893131e-04
1.618573822293e-03
1.895491745221e-03
4.377841104857e-04
1.847422249608e-03
2.063160484586e-03
8.379347303280e-04
2.517751221230e-03
-4.179846938620e-05
-1.862200808399e-03
2.105516016270e-03
1.389911209423e-03
2.565577118837e-03
1.988645046554e-03
-3.721407955159e-04
1.940607573401e-03
6.888173672750e-04
1.669937808876e-03
1.161316182356e-03
-9.922794276122e-04
9.265598335324e-04
2.801803248633e-04
1.532445380495e-03
7.361027467955e-04
2.920781357533e-04
3.922922038146e-04
3.600541827454e-04
5.292836546335e-04
4.461787924680e-04
6.444753787732e-04
5.254372023093e-04
7.871701557848e-04
6.142289689280e-04
9.082646472328e-04
7.188348478196e-04
1.052804022021e-03
8.423734140713e-04
1.176095049401e-03
9.864115652846e-04
1.320894747014e-03
1.140831439638e-03
1.446467104775e-03

SCALARS node_materi_strain_total_size_dev_sd_ept float
LOOKUP_TABLE default
2.448965017861e-03
5.146098416845e-03
4.938016016789e-03
7.352934451387e-03
1.760508581972e-03
9.033786177351e-04
6.275286586327e-04
1.356440296018e-03
2.125363679146e-03
2.744276205740e-03
3.236871584766e-03
3.609550193566e-03
3.880753574120e-03
4.081947988657e-03
4.230262388620e-03
4.355550276489e-03
4.460159150138e-03
4.549007406843e-03
4.647045189128e-03
4.739657746914e-03
4.824936265270e-03
4.894282256473e-03
4.942045299468e-03
7.348213180567e-03
7.333133985474e-03
7.332809913858e-03
7.322622761416e-03
7.310444699533e-03
7.303787968681e-03
7.289630332409e-03
7.264346433572e-03
7.248197012476e-03
7.217350014135e-03
7.186298365486e-03
7.154496800429e-03
7.114191860431e-03
7.059244047075e-03
7.002280446467e-03
6.922426275280e-03
6.841565275654e-03
6.750804583342e-03
6.641410005987e-03
6.512871977937e-03
6.352026696717e-03
6.167212214995e-03
5.953112971636e-03
5.708479471366e-03
5.445127276664e-03
5.156630897117e-03
4.849053507440e-03
4.522704589428e-03
4.198209845387e-03
3.912015345430e-03
3.624504357650e-03
3.346078009900e-03
3.154742776852e-03
3.082808577819e-03
3.080609466270e-03
3.174686028752e-03
3.320709471886e-03
3.505901466877e-03
3.698482587110e-03
3.906101851104e-03
4.110432134289e-03
4.309710967093e-03
4.457397167972e-03
4.568272282107e-03
4.699566423424e-03
4.771415582971e-03
4.836957306543e-03
4.887743135049e-03
4.913269792853e-03
5.479176850185e-03
5.792924358921e-03
6.076578770753e-03
6.330127587184e-03
6.564830809899e-03
6.775482365674e-03
6.963345217373e-03
7.127141502102e-03
7.282093715388e-03
4.135530521691e-03
5.234458445191e-03
4.066990308940e-03
3.086895533983e-03
2.977779869822e-03
3.024790798290e-03
3.180822154444e-03
3.468700893963e-03
3.861349445762e-03
4.311581948004e-03
4.779515905063e-03
1.585086310303e-03
1.862597915486e-03
2.294552539746e-03
2.733658532877e-03
3.160375468152e-03
3.578573522429e-03
3.986936099954e-03
4.386216670082e-03
4.765551079859e-03
5.093742994391e-03
5.119580021472e-03
5.132223454895e-03
5.140653760107e-03
5.197973218883e-03
5.175792306392e-03
5.191551096727e-03
5.210048411458e-03
5.241207499195e-03
5.258046890293e-03
5.268242331143e-03
5.271568392480e-03
5.262352838266e-03
5.246469019254e-03
3.033054765409e-03
2.841787796391e-03
2.974055348982e-03
2.948932241805e-03
3.112582922824e-03
2.248282712173e-03
7.446558762551e-04
2.458273727101e-04
1.300381073586e-04
3.216706387304e-04
5.889462340711e-04
9.332391502155e-04
1.309302476451e-03
1.644613232470e-03
1.875493737113e-03
2.078913186767e-03
2.238363554586e-03
2.386996601978e-03
2.493017247445e-03
1.559567566777e-03
1.599206223244e-03
1.596410858869e-03
1.580003241938e-03
1.554960993938e-03
1.523307548778e-03
1.485112502943e-03
1.439845356616e-03
1.389358561442e-03
1.335229338909e-03
1.274681435017e-03
1.210093921366e-03
1.147354725820e-03
1.089040669597e-03
1.037458466857e-03
9.941783424272e-04
9.604462117037e-04
9.364647040676e-04
9.250625467737e-04
9.323058147574e-04
9.659473380082e-04
1.034666026609e-03
1.130125667310e-03
1.278084939074e-03
1.448378662489e-03
1.681994765693e-03
2.095888433028e-03
2.914531894050e-03
2.391865343090e-03
2.095859305865e-03
1.786082866479e-03
1.605042310937e-03
1.472169151576e-03
1.372287374706e-03
1.305649902745e-03
1.280754859400e-03
1.283395473055e-03
1.302055699056e-03
1.332137954444e-03
1.370529695053e-03
1.414116291257e-03
1.461146925576e-03
1.509746720524e-03
1.557986186050e-03
1.604068039569e-03
1.645483362273e-03
1.683497624028e-03
1.718318330544e-03
1.748400978939e-03
1.772800302384e-03
1.791558726786e-03
1.805102035398e-03
1.815721726774e-03
1.847305322219e-03
2.603334400438e-03
2.439475672740e-03
2.205485541491e-03
2.080262691811e-03
1.996470307834e-03
1.956627676818e-03
1.950048092013e-03
1.958579627416e-03
1.975186908261e-03
1.999181865721e-03
2.024187546587e-03
2.051656580976e-03
2.080402808050e-03
2.107319428015e-03
2.131314054662e-03
2.152731124897e-03
2.172386498890e-03
2.189964886345e-03
2.205352901045e-03
2.217816617843e-03
2.226901348843e-03
2.233368062309e-03
2.240417448640e-03
2.258705222160e-03
2.285013789700e-03
2.719016457653e-03
2.689117298110e-03
2.683967001589e-03
2.683234436646e-03
2.683693912901e-03
2.683701442478e-03
2.682860308352e-03
2.681035343497e-03
2.678166985425e-03
2.674291789654e-03
2.668865237641e-03
2.660579165331e-03
2.648963529640e-03
2.635686677833e-03
2.620446766714e-03
2.598762020905e-03
2.571368998481e-03
2.548074312987e-03
2.534502430128e-03
2.541899063494e-03
2.583745260024e-03
2.712642101174e-03
2.802883753380e-03
3.064282579303e-03
3.069368790007e-03
3.039443601417e-03
3.059996160805e-03
3.092353216259e-03
3.126214739074e-03
3.157640463669e-03
3.180672971072e-03
3.192047647253e-03
3.192484777971e-03
3.190016236498e-03
3.184637165561e-03
3.177566335216e-03
3.169926311002e-03
3.162027694249e-03
3.153789110984e-03
3.145737976494e-03
3.138658826709e-03
3.133457655598e-03
3.131901589543e-03
3.140275172042e-03
3.156387062342e-03
3.574725833668e-03
3.571071806064e-03
3.573914969803e-03
3.580856800810e-03
3.591766877982e-03
3.605260384981e-03
3.619639718037e-03
3.634411558120e-03
3.649058658000e-03
3.663414351223e-03
3.676685281997e-03
3.687379668121e-03
3.694031128735e-03
3.686671975706e-03
3.659109067945e-03
3.621888830901e-03
3.577156032160e-03
3.529345835191e-03
3.506267259326e-03
3.441609287364e-03
3.885129928883e-03
3.986339188287e-03
4.030804716371e-03
4.083627391185e-03
4.127520092131e-03
4.152127198412e-03
4.153350276364e-03
4.142606194928e-03
4.127683835074e-03
4.110571866019e-03
4.092106765951e-03
4.071653828372e-03
4.051965138226e-03
4.033491331674e-03
4.016655246465e-03
4.004215300833e-03
3.996258500856e-03
3.991169885874e-03
3.988985743341e-03
4.388225575724e-03
4.394397356081e-03
4.402758485891e-03
4.414632348596e-03
4.430223712594e-03
4.450315348396e-03
4.472312944283e-03
4.497537622423e-03
4.520171509767e-03
4.539694572922e-03
4.554117910129e-03
4.564205739537e-03
4.566989759124e-03
4.549339041492e-03
4.504453161460e-03
4.462480317881e-03
4.355178685443e-03
4.813034954543e-03
4.913866196792e-03
4.937805439618e-03
4.947453593098e-03
4.945903449559e-03
4.935683759281e-03
4.917605491972e-03
4.893892328347e-03
4.869011006012e-03
4.845178230731e-03
4.824328100324e-03
4.806569528348e-03
4.793539737039e-03
4.780791017444e-03
4.775207590706e-03
4.776856772913e-03
5.168194322545e-03
3.486284099588e-03
3.129814284591e-03
3.071101624314e-03
3.155241770107e-03
3.361941657396e-03
3.701933008981e-03
4.124357701663e-03
4.586482025505e-03
5.042823379408e-03
3.938123125317e-03
2.728712864187e-03
5.966685528883e-04
3.322563522181e-03
3.336100277354e-03
3.361227533990e-03
4.149347077511e-03
3.689491549247e-03
3.602327536874e-03
5.066871131098e-03
4.355337999121e-03
4.283689806073e-03
1.093386402636e-03
6.126898679459e-03
5.284369325084e-03
3.020555910946e-03
4.454317714030e-03
6.610932704215e-03
6.995441489418e-03
7.272409063070e-03
7.216116649507e-03
7.143304139563e-03
5.517033455040e-03
5.533628187569e-03
5.516234200552e-03
6.452890597122e-03
4.693325308519e-03
3.051904628677e-03
1.675536792757e-03
4.757995970684e-03
5.435333545352e-03
9.590434982866e-04
6.809231918999e-03
4.441377270493e-03
5.658029040708e-03
3.085707092178e-03
2.780580842825e-03
2.445317247594e-03
5.536044060241e-03
3.771755753461e-03
6.869599212079e-03
4.890563172458e-04
3.744681201874e-03
7.310501210664e-03
3.459653682457e-03
3.539359291924e-03
3.936547521338e-03
4.820304979028e-03
4.914065437937e-03
5.960459979658e-03
4.871161423329e-03
1.933288540007e-03
7.191684416377e-03
5.466097752230e-03
5.511762676755e-03
5.676784197536e-03
5.698367043292e-03
5.855607141193e-03
5.848772396501e-03
5.685101773814e-03
5.818160006047e-03
5.638609204005e-03
6.020210969908e-03
5.758265958242e-03
5.560365397884e-03
5.670088006036e-03
5.453313844585e-03
5.351974199387e-03
5.237608490972e-03
5.115279044197e-03
5.001006818572e-03
5.091672816232e-03
4.854316099575e-03
4.749141632529e-03
4.615481499900e-03
4.520785915333e-03
4.399814503766e-03
4.326943734545e-03
4.226415181396e-03
4.260724494655e-03
4.115721928911e-03
4.110669141964e-03
4.027427209201e-03
4.054378846019e-03
4.015806464771e-03
3.940353433255e-03
4.019903189299e-03
4.198246744372e-03
4.322298583854e-03
4.565256825743e-03
4.697636090958e-03
4.898249524568e-03
4.997220818218e-03
4.751960262634e-03
5.010542962105e-03
5.222152694480e-03
5.172115195708e-03
4.928071465748e-03
5.029987488984e-03
4.730368772576e-03
4.781951468813e-03
5.044774835257e-03
4.738955962457e-03
4.359476336192e-03
4.270773373308e-03
4.653316166635e-03
4.133759069802e-03
3.682513471549e-03
3.597686944059e-03
3.990446318165e-03
3.566921696845e-03
3.309273103154e-03
3.356485917431e-03
3.580970497461e-03
3.407865269552e-03
3.184525662412e-03
3.264547696519e-03
3.085028617391e-03
3.441800384213e-03
3.331667374871e-03
3.440528494543e-03
3.368600770896e-03
3.863917043040e-03
3.387393506713e-03
3.476435788787e-03
3.361537664540e-03
3.373970443325e-03
3.280574663939e-03
3.304743519344e-03
3.123486497832e-03
4.725074474120e-03
4.912671374002e-03
3.192817762834e-03
2.908582862757e-03
2.856232213779e-03
2.526175486115e-03
6.014870278631e-03
6.186042427056e-03
6.163865620123e-03
6.349621142027e-03
6.320783251387e-03
2.633310572408e-03
5.890968283050e-03
6.356636528289e-03
4.625169825819e-03
4.101850056449e-03
4.550725355978e-03
3.387213835678e-03
3.314930127747e-03
3.513723371024e-03
2.960545792176e-03
2.918916903722e-03
2.739690991755e-03
2.758328660477e-03
2.509698760530e-03
2.624418700838e-03
2.888549329657e-03
2.857149386488e-03
3.105590798345e-03
2.338593990308e-03
2.224281849025e-03
3.156631758119e-03
3.374129190454e-03
3.479601022020e-03
3.664871670139e-03
3.581571819092e-03
3.839186162564e-03
3.763596931822e-03
4.232230508174e-03
3.920185949106e-03
3.424247348127e-03
3.056474122707e-03
2.555308677272e-03
2.326933937616e-03
1.913285979476e-03
2.108487982475e-03
5.557750693876e-03
5.393591173910e-03
5.384282673439e-03
5.535775924740e-03
5.483145181570e-03
5.612377296439e-03
5.565882640682e-03
5.673388510290e-03
5.642147844926e-03
5.650265373937e-03
5.604909022795e-03
5.535322458787e-03
5.588709360327e-03
4.097890322539e-03
2.766363492906e-03
2.238514243210e-03
2.630259018029e-03
2.474563704448e-03
3.953971133399e-03
2.051356401118e-03
1.916010259760e-03
1.542219004954e-03
2.139758208817e-03
5.614011117633e-03
5.412873531003e-03
6.502208578031e-03
6.466423605964e-03
1.789020530623e-03
2.290219477773e-03
2.934307463098e-03
5.537560638776e-03
4.089379775247e-03
4.213637940905e-03
3.126191354951e-03
2.325099702525e-03
2.664400035680e-03
5.495659582884e-03
5.483177728924e-03
5.631282769594e-03
5.373492150583e-03
5.205048483236e-03
5.030642013725e-03
5.165031437715e-03
4.768486255662e-03
4.651200032987e-03
4.278947432593e-03
4.159752344375e-03
3.745711120187e-03
4.099897963398e-03
5.401906596385e-03
5.201424750133e-03
2.124518888783e-03
1.535391275091e-03
6.645349604943e-03
6.602324912711e-03
6.409690538812e-03
6.542477050781e-03
6.727060528698e-03
6.665835829283e-03
6.467248236739e-03
6.590917390361e-03
6.377633970568e-03
6.503204348321e-03
6.707408364533e-03
6.621726320615e-03
6.403580372415e-03
6.525962872323e-03
6.293220922634e-03
6.419320771632e-03
6.641835663163e-03
1.700834779393e-03
1.715136779247e-03
1.280519861330e-03
3.464691870053e-03
3.664877597125e-03
3.659075155158e-03
3.824090850444e-03
6.539577131550e-03
6.751984966269e-03
5.452911208030e-03
5.133311729669e-03
6.671007969243e-03
4.312070998132e-03
4.206676880996e-03
4.077212597460e-03
4.086357276406e-03
4.087949483749e-03
4.039080643227e-03
4.079840974530e-03
4.049555286159e-03
2.297608470774e-03
6.815395996317e-03
2.865736642792e-03
2.480973606702e-03
4.433351094985e-03
2.388212721364e-03
4.257604935688e-03
4.019749194102e-03
4.223255204534e-03
3.959470167901e-03
4.258603603814e-03
4.013706184589e-03
3.687960489666e-03
2.577230565975e-03
3.776131971492e-03
6.300176042663e-03
3.203978648583e-03
4.185706234106e-03
1.554390548167e-03
3.432726243005e-03
1.879327679874e-03
2.492630644272e-03
1.960534796535e-03
4.404575052697e-03
4.609486279985e-03
3.984646747589e-03
4.055904449040e-03
2.308946478220e-03
6.125643170619e-03
6.246458840713e-03
6.137791734989e-03
1.127561368325e-03
3.890316384357e-03
6.842377936560e-03
5.123515646480e-03
4.799527167310e-03
5.312404041125e-03
5.132193737163e-03
6.652522585426e-03
6.852624240455e-03
3.767012527967e-03
3.939869592287e-03
1.586131504113e-03
3.190583904277e-03
6.938051643744e-03
1.981920022729e-03
2.688370903736e-03
3.842037896232e-03
5.057854473429e-03
5.379926887388e-03
4.444830771125e-03
3.477788390369e-03
2.118249844995e-03
1.879746491688e-03
6.890093905385e-03
3.413906260726e-03
3.450986129391e-03
3.543834989374e-03
2.765166179698e-03
2.422934100550e-03
4.500480963216e-03
4.819125502199e-03
4.982193603192e-03
4.813141503114e-03
4.477620568529e-03
4.405713204953e-03
4.148120676807e-03
5.495252161721e-03
4.498206081980e-03
4.950128551620e-03
5.013472229017e-03
4.771699931860e-03
4.159321098847e-03
4.167442587750e-03
5.271249960563e-03
4.233557530773e-03
3.598322278688e-03
3.540023745514e-03
2.837975753074e-03
6.886919046968e-03
6.986123498815e-03
6.160095600243e-03
6.032647836940e-03
1.980973340266e-03
1.986470352612e-03
3.085907774334e-03
2.540870098544e-03
6.805559090354e-03
6.825553714558e-03
6.682119047668e-03
1.479226194910e-03
5.484187190763e-03
3.717107736871e-03
5.516924362687e-03
3.838969098221e-03
1.433928618016e-03
5.165092526908e-03
4.614382588765e-03
4.565340962261e-03
2.730647480445e-03
5.300058222988e-03
3.642149544899e-03
3.760152314477e-03
4.806933200826e-03
4.576141424590e-03
4.541873716470e-03
4.356520029991e-03
3.979824617938e-03
3.804223125649e-03
4.693702569745e-03
4.016147894762e-03
5.226029328500e-03
5.364328272661e-03
2.555403744470e-03
2.088077485394e-03
2.703541127265e-03
4.012580929563e-03
6.997909785993e-03
5.047405391868e-03
2.890520272347e-03
2.984038484097e-03
4.983670527371e-03
5.648831659287e-03
7.031610767919e-03
4.033224366171e-03
3.877001390392e-03
4.253687282143e-03
4.900279376621e-03
5.409544911189e-03
4.722928265636e-03
4.298544800777e-03
7.106499850725e-03
3.368709872365e-03
4.182119172549e-03
1.377925144756e-03
6.940797634161e-03
7.123304843940e-03
5.999353109466e-03
5.867666497289e-03
6.101280383102e-03
5.698878298203e-03
5.418250697987e-03
6.916533246595e-03
3.184523644446e-03
3.398076364793e-03
3.045824794140e-03
3.316547407744e-03
3.662145102472e-03
3.492527644139e-03
4.990845115184e-03
5.292474038149e-03
4.465659778653e-03
2.286934436287e-03
2.890991267740e-03
3.294014669640e-03
7.036574825295e-03
7.141263333313e-03
4.162379760197e-03
4.624852962875e-03
3.699866217936e-03
7.037796324017e-03
4.690489057945e-03
4.506774499790e-03
1.399586910595e-03
2.005923313967e-03
4.945228549807e-03
5.298306634558e-03
6.822204391103e-03
6.682176490979e-03
6.971946437720e-03
2.302659420519e-03
3.155234351354e-03
1.893262556661e-03
1.524172032300e-03
2.441519584897e-03
2.935457512857e-03
3.199452069111e-03
3.844957191683e-03
4.446602171128e-03
7.067543495838e-03
5.874324724222e-03
3.876488757354e-03
5.731481852123e-03
5.893022224611e-03
5.564815808968e-03
1.619375665961e-03
5.811233301831e-03
5.959714009357e-03
1.183636911344e-03
7.124183647348e-03
8.887369205161e-04
9.552243025248e-04
3.337145288673e-03
3.406679509354e-03
3.734127955293e-03
3.771799265691e-03
3.516317392627e-03
3.875846652959e-03
5.721858765209e-03
4.135277563440e-03
4.191898324773e-03
4.442957684737e-03
4.362441689695e-03
3.988792330953e-03
3.810776781588e-03
3.599370842421e-03
5.679608132866e-03
5.711133650231e-03
4.648808976030e-03
4.544995732874e-03
5.731256154533e-03
5.704832937255e-03
5.974431728803e-03
5.933805325642e-03
6.185292114875e-03
6.142177087496e-03
6.381944741239e-03
4.430957868845e-03
3.846338425237e-03
4.820364490485e-03
2.440554546070e-03
1.930904942701e-03
4.160187922904e-03
3.957588938772e-03
2.935406548335e-03
4.793243859782e-03
7.166263303502e-03
3.764500973879e-03
4.498498581108e-03
4.476686218144e-03
4.334898922834e-03
3.943519467371e-03
3.848202789930e-03
1.696680604170e-03
2.058784587721e-03
4.548535222142e-03
6.414065612389e-03
4.360348036678e-03
4.663416770112e-03
5.015480299241e-03
4.246922417370e-03
4.704969125014e-03
4.200539138200e-03
5.437773395729e-03
5.521057405856e-03
5.293456121452e-03
5.169082138360e-03
3.914553335175e-03
3.675416276925e-03
4.860710197633e-03
6.521152346203e-03
6.506745844529e-03
6.656225028179e-03
6.478151209189e-03
6.315848481772e-03
6.271010503433e-03
6.441742471054e-03
6.219161167873e-03
6.447929830369e-03
6.146648758536e-03
5.959255484619e-03
5.867412759578e-03
6.057503318453e-03
5.695977049173e-03
3.019351318530e-03
4.366263432894e-03
4.766077069454e-03
5.490816164949e-03
4.415575161799e-03
6.722600171768e-03
6.930647614992e-03
5.349600029517e-03
5.905475237164e-03
5.261078137421e-03
5.691792439119e-03
5.376129498230e-03
6.345671588774e-03
6.155400928328e-03
6.182430234923e-03
7.059860953533e-03
6.194576804789e-03
4.111158529828e-03
3.532198979091e-03
3.863940058134e-03
4.373261418478e-03
6.040346075981e-03
2.870736552852e-03
2.186319294710e-03
2.090430428255e-03
1.608574334787e-03
2.696350167525e-03
6.487399844317e-03
6.334294851162e-03
4.861244732460e-03
4.997159239566e-03
4.784480676337e-03
5.124551652911e-03
5.303313956283e-03
5.377694681467e-03
5.251028221625e-03
5.546402706256e-03
5.476473865700e-03
2.930691060316e-03
2.542671511710e-03
2.715795290483e-03
3.034824987622e-03
3.458102966841e-03
3.363272222978e-03
3.349988141845e-03
3.510692359903e-03
3.744446082711e-03
3.117730404709e-03
3.159813924873e-03
3.301988802150e-03
5.539114588037e-03
5.745059799836e-03
5.731049861761e-03
5.945275475234e-03
5.794231121015e-03
3.846463457072e-03
4.026610445062e-03
4.099780850892e-03
4.192924303628e-03
4.237211822539e-03
4.133497439554e-03
4.341922898978e-03
4.341997608729e-03
5.540100140419e-03
3.422652325757e-03
4.407474210353e-03
3.319346865721e-03
4.555435059523e-03
5.214321491334e-03
5.047381362710e-03
5.728134856627e-03
4.927103210058e-03
1.367065219297e-03
2.322346748276e-03
8.605069961043e-04
1.721500765845e-03
2.886118914320e-03
2.546061273798e-03
4.784457847584e-03
3.973109198395e-03
3.844426781662e-03
3.597317964085e-03
3.681782471350e-03
4.028319896889e-03
3.435986802050e-03
3.275816782682e-03
1.801650226867e-03
1.085682126420e-03
1.227924840175e-03
5.918773220465e-04
6.173851932700e-04
1.026644911663e-03
9.264847567800e-04
1.502617926197e-03
8.267777613606e-04
7.354357292483e-04
1.315789031650e-03
6.675885143584e-03
6.785432789397e-03
3.555916487049e-03
5.546715470029e-03
4.658531471022e-04
7.262768706273e-03
7.248716204643e-03
7.263887743308e-03
4.846170229874e-03
4.844078397817e-03
7.276585902962e-03
3.122587625604e-03
6.644826299819e-03
7.010777545328e-03
5.701132708386e-03
3.598707557642e-03
4.394972873242e-03
3.335907524743e-03
4.356052775752e-03
3.989837192973e-03
3.801504787844e-03
2.086018260224e-03
1.416510152530e-03
6.273340753385e-03
6.172477160465e-03
6.733766987425e-03
3.025000613706e-03
3.992767440497e-03
2.025629562642e-03
5.167969049005e-03
4.710212040242e-03
3.104481798512e-03
3.405499824327e-03
3.329125654815e-03
3.856915610863e-03
4.099565975928e-03
3.201815720350e-03
2.595362505773e-03
6.839184655532e-03
7.442588486456e-04
2.344027070673e-03
2.979683792621e-03
6.336485464597e-03
1.861364619427e-03
4.666399865517e-03
6.780480739348e-03
6.941363026774e-03
6.049805546610e-03
1.451190226757e-03
6.014771796757e-03
2.358434850315e-03
6.520655398417e-03
2.792955431874e-03
4.367076937420e-03
4.183911665850e-03
5.055909750800e-03
7.068462066166e-03
4.047582416660e-03
1.319589600160e-03
2.869085884118e-03
2.985547568082e-03
3.128949302692e-03
4.710689919206e-03
6.948423149514e-03
4.493016183596e-03
5.273688328690e-03
6.773657325350e-03
3.286865157542e-03
2.000540578672e-03
4.487966077783e-03
4.455421200932e-03
5.319710122943e-03
3.989683188665e-03
4.447990622451e-03
2.721261046006e-03
5.581790670873e-03
4.220304015260e-03
6.268019488487e-03
4.188738111985e-03
7.094344041305e-03
4.137778482610e-03
3.298575229498e-03
6.922946180985e-03
3.235862792133e-03
1.820474165263e-03
5.632882918970e-03
5.576735961115e-03
4.393752857124e-03
3.177487884212e-03
6.835688237176e-03
3.653392951965e-03
1.620986087205e-03
4.191452863762e-03
5.061351583319e-03
3.982429757245e-03
3.823590058525e-03
1.723826424941e-03
4.243998723947e-03
4.841774116683e-03
4.149712193843e-03
4.277823759064e-03
1.433835238500e-03
5.078346290020e-03
5.425982611184e-03
4.489232281336e-03
1.248148740022e-03
3.892117501297e-03
3.772695377604e-03
4.589088878572e-03
3.337307629633e-03
4.675181704335e-03
7.107135483458e-03
1.295380409033e-03
6.001079836051e-03
3.516493327725e-03
3.020779762600e-03
6.402229750947e-04
4.591781606604e-03
3.711245685963e-03
5.468797162238e-03
3.294065468775e-03
3.093531430906e-03
3.913805680047e-03
5.300507774257e-03
4.110099416072e-03
4.141083192677e-03
5.959292239143e-03
4.295455596259e-03
4.709529023720e-03
9.243152300721e-04
3.637414886888e-03
4.751689376300e-03
3.556455872074e-03
2.980904571732e-03
6.109123374737e-03
3.760028705902e-03
2.544970074599e-03
4.804342114236e-03
3.342470252525e-03
4.022446455345e-03
2.001882236628e-03
3.819036074875e-03
3.193312818348e-03
2.932008415893e-03
5.017729131083e-03
5.142860985422e-03
9.233023147167e-04
5.801982417786e-03
2.623451901158e-03
4.930631309696e-03
2.862020187138e-03
6.223475597765e-03
4.530588018284e-03
2.481515009451e-03
4.359989167251e-03
3.554713382955e-03
3.866677105141e-03
3.769793567254e-03
7.155911193542e-03
3.587205627230e-03
7.305350710741e-03
4.900475279557e-03
5.661277772945e-03
3.451264564490e-03
2.906777363600e-03
3.692147553498e-03
3.607494898160e-03
5.430297859834e-03
5.677668852357e-03
3.448651281006e-03
6.329614741162e-03
4.768023730759e-03
6.572721002209e-03
1.551415006297e-03
3.012886923838e-03
7.034650045815e-03
5.443364563043e-03
1.373055627808e-03
4.565827729610e-03
3.323807578768e-03
3.702213154172e-03
4.068253974663e-03
3.146424505888e-03
3.658085046005e-03
3.422123085635e-03
2.335066007115e-03
5.760168558930e-03
3.161784335832e-03
3.722503950807e-03
7.048693819091e-03
3.792080890412e-03
4.094295837486e-03
3.361476396043e-03
4.766384101854e-03
5.940468811414e-03
5.450912091307e-03
6.745921225897e-03
4.428691031127e-03
5.731743671263e-03
7.183107709138e-03
5.850148590841e-03
7.189984480309e-03
5.587191081106e-03
6.050507496459e-03
5.850791503274e-03
4.807330492872e-03
6.618748696058e-03
5.220757922028e-03
6.566223240275e-03
3.631769728568e-03
4.527010418547e-03
3.289686270177e-03
5.773555392241e-03
4.643123929699e-03
5.987998688319e-04
7.748075141630e-04
2.822725694983e-03
6.007928399034e-03
5.554126717752e-03
7.227649402292e-03
4.950293180450e-03
5.440774625193e-03
7.887405624649e-04
4.615400390552e-03
7.150101314494e-03
3.918239455211e-03
5.492347255095e-03
2.852456884013e-03
4.419469376917e-03
2.218525562600e-03
7.187211708298e-03
2.393286750697e-03
6.941962543438e-03
3.568610324667e-03
4.008704177844e-03
4.246111184910e-03
1.660172659474e-03
5.421494137757e-03
6.772597681479e-03
3.453390729012e-03
1.160421999664e-03
7.318880497548e-03
2.143313403785e-03
5.373957204916e-03
4.935398853750e-03
8.450986085764e-04
5.884143518941e-03
6.204794867514e-03
4.296008886888e-03
6.931878152103e-03
4.401737864567e-03
2.851832158128e-03
6.359120426571e-03
3.555582394048e-03
7.053057617485e-03
6.193793782386e-03
5.558418724314e-03
5.959138412299e-03
4.021712067775e-03
5.088274804386e-03
1.862977181859e-03
4.820912673011e-03
4.387641969155e-03
7.548704591497e-04
3.995274121293e-03
4.130250032108e-03
2.761516452357e-03
1.629632739639e-03
2.773351346777e-03
2.091030216766e-03
2.884209593079e-03
2.497786265017e-03
3.035771780068e-03
2.962204036136e-03
3.303270642657e-03
3.355985542397e-03
3.685357071778e-03
3.796853515610e-03
4.129104885065e-03
4.176897500788e-03
4.597638444074e-03
4.592538379692e-03
5.043157172301e-03
4.944775969241e-03


CELL_DATA 2360

SCALARS element_number int
LOOKUP_TABLE default
407
408
409
410
411
412
413
414
415
416
417
418
419
420
421
422
423
424
425
426
427
428
429
430
431
432
433
434
435
436
437
438
439
440
441
442
443
444
445
446
447
448
449
450
451
452
453
454
455
456
457
458
459
460
461
462
463
464
465
466
467
468
469
470
471
472
473
474
475
476
477
478
479
480
481
482
483
484
485
486
487
488
489
490
491
492
493
494
495
496
497
498
499
500
501
502
503
504
505
506
507
508
509
510
511
512
513
514
515
516
517
518
519
520
521
522
523
524
525
526
527
528
529
530
531
532
533
534
535
536
537
538
539
540
541
542
543
544
545
546
547
548
549
550
551
552
553
554
555
556
557
558
559
560
561
562
563
564
565
566
567
568
569
570
571
572
573
574
575
576
577
578
579
580
581
582
583
584
585
586
587
588
589
590
591
592
593
594
595
596
597
598
599
600
601
602
603
604
605
606
607
608
609
610
611
612
613
614
615
616
617
618
619
620
621
622
623
624
625
626
627
628
629
630
631
632
633
634
635
636
637
638
639
640
641
642
643
644
645
646
647
648
649
650
651
652
653
654
655
656
657
658
659
660
661
662
663
664
665
666
667
668
669
670
671
672
673
674
675
676
677
678
679
680
681
682
683
684
685
686
687
688
689
690
691
692
693
694
695
696
697
698
699
700
701
702
703
704
705
706
707
708
709
710
711
712
713
714
715
716
717
718
719
720
721
722
723
724
725
726
727
728
729
730
731
732
733
734
735
736
737
738
739
740
741
742
743
744
745
746
747
748
749
750
751
752
753
754
755
756
757
758
759
760
761
762
763
764
765
766
767
768
769
770
771
772
773
774
775
776
777
778
779
780
781
782
783
784
785
786
787
788
789
790
791
792
793
794
795
796
797
798
799
800
801
802
803
804
805
806
807
808
809
810
811
812
813
814
815
816
817
818
819
820
821
822
823
824
825
826
827
828
829
830
831
832
833
834
835
836
837
838
839
840
841
842
843
844
845
846
847
848
849
850
851
852
853
854
855
856
857
858
859
860
861
862
863
864
865
866
867
868
869
870
871
872
873
874
875
876
877
878
879
880
881
882
883
884
885
886
887
888
889
890
891
892
893
894
895
896
897
898
899
900
901
902
903
904
905
906
907
908
909
910
911
912
913
914
915
916
917
918
919
920
921
922
923
924
925
926
927
928
929
930
931
932
933
934
935
936
937
938
939
940
941
942
943
944
945
946
947
948
949
950
951
952
953
954
955
956
957
958
959
960
961
962
963
964
965
966
967
968
969
970
971
972
973
974
975
976
977
978
979
980
981
982
983
984
985
986
987
988
989
990
991
992
993
994
995
996
997
998
999
1000
1001
1002
1003
1004
1005
1006
1007
1008
1009
1010
1011
1012
1013
1014
1015
1016
1017
1018
1019
1020
1021
1022
1023
1024
1025
1026
1027
1028
1029
1030
1031
1032
1033
1034
1035
1036
1037
1038
1039
1040
1041
1042
1043
1044
1045
1046
1047
1048
1049
1050
1051
1052
1053
1054
1055
1056
1057
1058
1059
1060
1061
1062
1063
1064
1065
1066
1067
1068
1069
1070
1071
1072
1073
1074
1075
1076
1077
1078
1079
1080
1081
1082
1083
1084
1085
1086
1087
1088
1089
1090
1091
1092
1093
1094
1095
1096
1097
1098
1099
1100
1101
1102
1103
1104
1105
1106
1107
1108
1109
1110
1111
1112
1113
1114
1115
1116
1117
1118
1119
1120
1121
1122
1123
1124
1125
1126
1127
1128
1129
1130
1131
1132
1133
1134
1135
1136
1137
1138
1139
1140
1141
1142
1143
1144
1145
1146
1147
1148
1149
1150
1151
1152
1153
1154
1155
1156
1157
1158
1159
1160
1161
1162
1163
1164
1165
1166
1167
1168
1169
1170
1171
1172
1173
1174
1175
1176
1177
1178
1179
1180
1181
1182
1183
1184
1185
1186
1187
1188
1189
1190
1191
1192
1193
1194
1195
1196
1197
1198
1199
1200
1201
1202
1203
1204
1205
1206
1207
1208
1209
1210
1211
1212
1213
1214
1215
1216
1217
1218
1219
1220
1221
1222
1223
1224
1225
1226
1227
1228
1229
1230
1231
1232
1233
1234
1235
1236
1237
1238
1239
1240
1241
1242
1243
1244
1245
1246
1247
1248
1249
1250
1251
1252
1253
1254
1255
1256
1257
1258
1259
1260
1261
1262
1263
1264
1265
1266
1267
1268
1269
1270
1271
1272
1273
1274
1275
1276
1277
1278
1279
1280
1281
1282
1283
1284
1285
1286
1287
1288
1289
1290
1291
1292
1293
1294
1295
1296
1297
1298
1299
1300
1301
1302
1303
1304
1305
1306
1307
1308
1309
1310
1311
1312
1313
1314
1315
1316
1317
1318
1319
1320
1321
1322
1323
1324
1325
1326
1327
1328
1329
1330
1331
1332
1333
1334
1335
1336
1337
1338
1339
1340
1341
1342
1343
1344
1345
1346
1347
1348
1349
1350
1351
1352
1353
1354
1355
1356
1357
1358
1359
1360
1361
1362
1363
1364
1365
1366
1367
1368
1369
1370
1371
1372
1373
1374
1375
1376
1377
1378
1379
1380
1381
1382
1383
1384
1385
1386
1387
1388
1389
1390
1391
1392
1393
1394
1395
1396
1397
1398
1399
1400
1401
1402
1403
1404
1405
1406
1407
1408
1409
1410
1411
1412
1413
1414
1415
1416
1417
1418
1419
1420
1421
1422
1423
1424
1425
1426
1427
1428
1429
1430
1431
1432
1433
1434
1435
1436
1437
1438
1439
1440
1441
1442
1443
1444
1445
1446
1447
1448
1449
1450
1451
1452
1453
1454
1455
1456
1457
1458
1459
1460
1461
1462
1463
1464
1465
1466
1467
1468
1469
1470
1471
1472
1473
1474
1475
1476
1477
1478
1479
1480
1481
1482
1483
1484
1485
1486
1487
1488
1489
1490
1491
1492
1493
1494
1495
1496
1497
1498
1499
1500
1501
1502
1503
1504
1505
1506
1507
1508
1509
1510
1511
1512
1513
1514
1515
1516
1517
1518
1519
1520
1521
1522
1523
1524
1525
1526
1527
1528
1529
1530
1531
1532
1533
1534
1535
1536
1537
1538
1539
1540
1541
1542
1543
1544
1545
1546
1547
1548
1549
1550
1551
1552
1553
1554
1555
1556
1557
1558
1559
1560
1561
1562
1563
1564
1565
1566
1567
1568
1569
1570
1571
1572
1573
1574
1575
1576
1577
1578
1579
1580
1581
1582
1583
1584
1585
1586
1587
1588
1589
1590
1591
1592
1593
1594
1595
1596
1597
1598
1599
1600
1601
1602
1603
1604
1605
1606
1607
1608
1609
1610
1611
1612
1613
1614
1615
1616
1617
1618
1619
1620
1621
1622
1623
1624
1625
1626
1627
1628
1629
1630
1631
1632
1633
1634
1635
1636
1637
1638
1639
1640
1641
1642
1643
1644
1645
1646
1647
1648
1649
1650
1651
1652
1653
1654
1655
1656
1657
1658
1659
1660
1661
1662
1663
1664
1665
1666
1667
1668
1669
1670
1671
1672
1673
1674
1675
1676
1677
1678
1679
1680
1681
1682
1683
1684
1685
1686
1687
1688
1689
1690
1691
1692
1693
1694
1695
1696
1697
1698
1699
1700
1701
1702
1703
1704
1705
1706
1707
1708
1709
1710
1711
1712
1713
1714
1715
1716
1717
1718
1719
1720
1721
1722
1723
1724
1725
1726
1727
1728
1729
1730
1731
1732
1733
1734
1735
1736
1737
1738
1739
1740
1741
1742
1743
1744
1745
1746
1747
1748
1749
1750
1751
1752
1753
1754
1755
1756
1757
1758
1759
1760
1761
1762
1763
1764
1765
1766
1767
1768
1769
1770
1771
1772
1773
1774
1775
1776
1777
1778
1779
1780
1781
1782
1783
1784
1785
1786
1787
1788
1789
1790
1791
1792
1793
1794
1795
1796
1797
1798
1799
1800
1801
1802
1803
1804
1805
1806
1807
1808
1809
1810
1811
1812
1813
1814
1815
1816
1817
1818
1819
1820
1821
1822
1823
1824
1825
1826
1827
1828
1829
1830
1831
1832
1833
1834
1835
1836
1837
1838
1839
1840
1841
1842
1843
1844
1845
1846
1847
1848
1849
1850
1851
1852
1853
1854
1855
1856
1857
1858
1859
1860
1861
1862
1863
1864
1865
1866
1867
1868
1869
1870
1871
1872
1873
1874
1875
1876
1877
1878
1879
1880
1881
1882
1883
1884
1885
1886
1887
1888
1889
1890
1891
1892
1893
1894
1895
1896
1897
1898
1899
1900
1901
1902
1903
1904
1905
1906
1907
1908
1909
1910
1911
1912
1913
1914
1915
1916
1917
1918
1919
1920
1921
1922
1923
1924
1925
1926
1927
1928
1929
1930
1931
1932
1933
1934
1935
1936
1937
1938
1939
1940
1941
1942
1943
1944
1945
1946
1947
1948
1949
1950
1951
1952
1953
1954
1955
1956
1957
1958
1959
1960
1961
1962
1963
1964
1965
1966
1967
1968
1969
1970
1971
1972
1973
1974
1975
1976
1977
1978
1979
1980
1981
1982
1983
1984
1985
1986
1987
1988
1989
1990
1991
1992
1993
1994
1995
1996
1997
1998
1999
2000
2001
2002
2003
2004
2005
2006
2007
2008
2009
2010
2011
2012
2013
2014
2015
2016
2017
2018
2019
2020
2021
2022
2023
2024
2025
2026
2027
2028
2029
2030
2031
2032
2033
2034
2035
2036
2037
2038
2039
2040
2041
2042
2043
2044
2045
2046
2047
2048
2049
2050
2051
2052
2053
2054
2055
2056
2057
2058
2059
2060
2061
2062
2063
2064
2065
2066
2067
2068
2069
2070
2071
2072
2073
2074
2075
2076
2077
2078
2079
2080
2081
2082
2083
2084
2085
2086
2087
2088
2089
2090
2091
2092
2093
2094
2095
2096
2097
2098
2099
2100
2101
2102
2103
2104
2105
2106
2107
2108
2109
2110
2111
2112
2113
2114
2115
2116
2117
2118
2119
2120
2121
2122
2123
2124
2125
2126
2127
2128
2129
2130
2131
2132
2133
2134
2135
2136
2137
2138
2139
2140
2141
2142
2143
2144
2145
2146
2147
2148
2149
2150
2151
2152
2153
2154
2155
2156
2157
2158
2159
2160
2161
2162
2163
2164
2165
2166
2167
2168
2169
2170
2171
2172
2173
2174
2175
2176
2177
2178
2179
2180
2181
2182
2183
2184
2185
2186
2187
2188
2189
2190
2191
2192
2193
2194
2195
2196
2197
2198
2199
2200
2201
2202
2203
2204
2205
2206
2207
2208
2209
2210
2211
2212
2213
2214
2215
2216
2217
2218
2219
2220
2221
2222
2223
2224
2225
2226
2227
2228
2229
2230
2231
2232
2233
2234
2235
2236
2237
2238
2239
2240
2241
2242
2243
2244
2245
2246
2247
2248
2249
2250
2251
2252
2253
2254
2255
2256
2257
2258
2259
2260
2261
2262
2263
2264
2265
2266
2267
2268
2269
2270
2271
2272
2273
2274
2275
2276
2277
2278
2279
2280
2281
2282
2283
2284
2285
2286
2287
2288
2289
2290
2291
2292
2293
2294
2295
2296
2297
2298
2299
2300
2301
2302
2303
2304
2305
2306
2307
2308
2309
2310
2311
2312
2313
2314
2315
2316
2317
2318
2319
2320
2321
2322
2323
2324
2325
2390
2391
2392
2393
2394
2395
2396
2397
2398
2399
2400
2401
2402
2403
2404
2405
2406
2407
2408
2409
2410
2411
2412
2413
2414
2415
2416
2417
2418
2419
2420
2421
2422
2423
2424
2425
2426
2427
2428
2429
2430
2431
2432
2433
2434
2435
2436
2437
2438
2439
2440
2441
2442
2443
2444
2445
2446
2447
2448
2449
2450
2451
2452
2453
2454
2455
2456
2457
2458
2459
2460
2461
2462
2463
2464
2465
2466
2467
2468
2469
2470
2471
2472
2473
2474
2475
2476
2477
2478
2479
2480
2481
2482
2483
2484
2485
2486
2487
2488
2489
2490
2491
2492
2493
2494
2495
2496
2497
2498
2499
2500
2501
2502
2503
2504
2505
2506
2507
2508
2509
2510
2511
2512
2513
2514
2515
2516
2517
2518
2519
2520
2521
2522
2523
2524
2525
2526
2527
2528
2529
2530
2531
2532
2533
2534
2535
2536
2537
2538
2539
2540
2541
2542
2543
2544
2545
2546
2547
2548
2549
2550
2551
2552
2553
2554
2555
2556
2557
2558
2559
2560
2561
2562
2563
2564
2565
2566
2567
2568
2569
2570
2571
2572
2573
2574
2575
2576
2577
2578
2579
2580
2581
2582
2583
2584
2585
2586
2587
2588
2589
2590
2591
2592
2593
2594
2595
2596
2597
2598
2599
2600
2601
2602
2603
2604
2605
2606
2607
2608
2609
2610
2611
2612
2613
2614
2615
2616
2617
2618
2619
2620
2621
2622
2623
2624
2625
2626
2627
2628
2629
2630
2631
2632
2633
2634
2635
2636
2637
2638
2639
2640
2641
2642
2643
2644
2645
2646
2647
2648
2649
2650
2651
2652
2653
2654
2655
2656
2657
2658
2659
2660
2661
2662
2663
2664
2665
2666
2667
2668
2669
2670
2671
2672
2673
2674
2675
2676
2677
2678
2679
2680
2681
2682
2683
2684
2685
2686
2687
2688
2689
2690
2691
2692
2693
2694
2695
2696
2697
2698
2699
2700
2701
2702
2703
2704
2705
2706
2707
2708
2709
2710
2711
2712
2713
2714
2715
2716
2717
2718
2719
2720
2721
2722
2723
2724
2725
2726
2727
2728
2729
2730
2731
2732
2733
2734
2735
2736
2737
2738
2739
2740
2741
2742
2743
2744
2745
2746
2747
2748
2749
2750
2751
2752
2753
2754
2755
2756
2757
2758
2759
2760
2761
2762
2763
2764
2765
2766
2767
2768
2769
2770
2771
2772
2773
2774
2775
2776
2777
2778
2779
2780
2781
2782
2783
2784
2785
2786
2787
2788
2789
2790
2791
2792
2793
2794
2795
2796
2797
2798
2799
2800
2801
2802
2803
2804
2805
2806
2807
2808
2809
2810
2811
2812
2813
2814
2815
2816
2817
2818
2819
2820
2821
2822
2823
2824
2825
2826
2827
2828
2829
2830

SCALARS element_group int
LOOKUP_TABLE default
0
0
0
0
0
0
0
0
0
0
0
0
0
0
0
0
0
0
0
0
0
0
0
0
0
0
0
0
0
0
0
0
0
0
0
0
0
0
0
0
0
0
0
0
0
0
0
0
0
0
0
0
0
0
0
0
0
0
0
0
0
0
0
0
0
0
0
0
0
0
0
0
0
0
0
0
0
0
0
0
0
0
0
0
0
0
0
0
0
0
0
0
0
0
0
0
0
0
0
0
0
0
0
0
0
0
0
0
0
0
0
0
0
0
0
0
0
0
0
0
0
0
0
0
0
0
0
0
0
0
0
0
0
0
0
0
0
0
0
0
0
0
0
0
0
0
0
0
0
0
0
0
0
0
0
0
0
0
0
0
0
0
0
0
0
0
0
0
0
0
0
0
0
0
0
0
0
0
0
0
0
0
0
0
0
0
0
0
0
0
0
0
0
0
0
0
0
0
0
0
0
0
0
0
0
0
0
0
0
0
0
0
0
0
0
0
0
0
0
0
0
0
0
0
0
0
0
0
0
0
0
0
0
0
0
0
0
0
0
0
0
0
0
0
0
0
0
0
0
0
0
0
0
0
0
0
0
0
0
0
0
0
0
0
0
0
0
0
0
0
0
0
0
0
0
0
0
0
0
0
0
0
0
0
0
0
0
0
0
0
0
0
0
0
0
0
0
0
0
0
0
0
0
0
0
0
0
0
0
0
0
0
0
0
0
0
0
0
0
0
0
0
0
0
0
0
0
0
0
0
0
0
0
0
0
0
0
0
0
0
0
0
0
0
0
0
0
0
0
0
0
0
0
0
0
0
0
0
0
0
0
0
0
0
0
0
0
0
0
0
0
0
0
0
0
0
0
0
0
0
0
0
0
0
0
0
0
0
0
0
0
0
0
0
0
0
0
0
0
0
0
0
0
0
0
0
0
0
0
0
0
0
0
0
0
0
0
0
0
0
0
0
0
0
0
0
0
0
0
0
0
0
0
0
0
0
0
0
0
0
0
0
0
0
0
0
0
0
0
0
0
0
0
0
0
0
0
0
0
0
0
0
0
0
0
0
0
0
0
0
0
0
0
0
0
0
0
0
0
0
0
0
0
0
0
0
0
0
0
0
0
0
0
0
0
0
0
0
0
0
0
0
0
0
0
0
0
0
0
0
0
0
0
0
0
0
0
0
0
0
0
0
0
0
0
0
0
0
0
0
0
0
0
0
0
0
0
0
0
0
0
0
0
0
0
0
0
0
0
0
0
0
0
0
0
0
0
0
0
0
0
0
0
0
0
0
0
0
0
0
0
0
0
0
0
0
0
0
0
0
0
0
0
0
0
0
0
0
0
0
0
0
0
0
0
0
0
0
0
0
0
0
0
0
0
0
0
0
0
0
0
0
0
0
0
0
0
0
0
0
0
0
0
0
0
0
0
0
0
0
0
0
0
0
0
0
0
0
0
0
0
0
0
0
0
0
0
0
0
0
0
0
0
0
0
0
0
0
0
0
0
0
0
0
0
0
0
0
0
0
0
0
0
0
0
0
0
0
0
0
0
0
0
0
0
0
0
0
0
0
0
0
0
0
0
0
0
0
0
0
0
0
0
0
0
0
0
0
0
0
0
0
0
0
0
0
0
0
0
0
0
0
0
0
0
0
0
0
0
0
0
0
0
0
0
0
0
0
0
0
0
0
0
0
0
0
0
0
0
0
0
0
0
0
0
0
0
0
0
0
0
0
0
0
0
0
0
0
0
0
0
0
0
0
0
0
0
0
0
0
0
0
0
0
0
0
0
0
0
0
0
0
0
0
0
0
0
0
0
0
0
0
0
0
0
0
0
0
0
0
0
0
0
0
0
0
0
0
0
0
0
0
0
0
0
0
0
0
0
0
0
0
0
0
0
0
0
0
0
0
0
0
0
0
0
0
0
0
0
0
0
0
0
0
0
0
0
0
0
0
0
0
0
0
0
0
0
0
0
0
0
0
0
0
0
0
0
0
0
0
0
0
0
0
0
0
0
0
0
0
0
0
0
0
0
0
0
0
0
0
0
0
0
0
0
0
0
0
0
0
0
0
0
0
0
0
0
0
0
0
0
0
0
0
0
0
0
0
0
0
0
0
0
0
0
0
0
0
0
0
0
0
0
0
0
0
0
0
0
0
0
0
0
0
0
0
0
0
0
0
0
0
0
0
0
0
0
0
0
0
0
0
0
0
0
0
0
0
0
0
0
0
0
0
0
0
0
0
0
0
0
0
0
0
0
0
0
0
0
0
0
0
0
0
0
0
0
0
0
0
0
0
0
0
0
0
0
0
0
0
0
0
0
0
0
0
0
0
0
0
0
0
0
0
0
0
0
0
0
0
0
0
0
0
0
0
0
0
0
0
0
0
0
0
0
0
0
0
0
0
0
0
0
0
0
0
0
0
0
0
0
0
0
0
0
0
0
0
0
0
0
0
0
0
0
0
0
0
0
0
0
0
0
0
0
0
0
0
0
0
0
0
0
0
0
0
0
0
0
0
0
0
0
0
0
0
0
0
0
0
0
0
0
0
0
0
0
0
0
0
0
0
0
0
0
0
0
0
0
0
0
0
0
0
0
0
0
0
0
0
0
0
0
0
0
0
0
0
0
0
0
0
0
0
0
0
0
0
0
0
0
0
0
0
0
0
0
0
0
0
0
0
0
0
0
0
0
0
0
0
0
0
0
0
0
0
0
0
0
0
0
0
0
0
0
0
0
0
0
0
0
0
0
0
0
0
0
0
0
0
0
0
0
0
0
0
0
0
0
0
0
0
0
0
0
0
0
0
0
0
0
0
0
0
0
0
0
0
0
0
0
0
0
0
0
0
0
0
0
0
0
0
0
0
0
0
0
0
0
0
0
0
0
0
0
0
0
0
0
0
0
0
0
0
0
0
0
0
0
0
0
0
0
0
0
0
0
0
0
0
0
0
0
0
0
0
0
0
0
0
0
0
0
0
0
0
0
0
0
0
0
0
0
0
0
0
0
0
0
0
0
0
0
0
0
0
0
0
0
0
0
0
0
0
0
0
0
0
0
0
0
0
0
0
0
0
0
0
0
0
0
0
0
0
0
0
0
0
0
0
0
0
0
0
0
0
0
0
0
0
0
0
0
0
0
0
0
0
0
0
0
0
0
0
0
0
0
0
0
0
0
0
0
0
0
0
0
0
0
0
0
0
0
0
0
0
0
0
0
0
0
0
0
0
0
0
0
0
0
0
0
0
0
0
0
0
0
0
0
0
0
0
0
0
0
0
0
0
0
0
0
0
0
0
0
0
0
0
0
0
0
0
0
0
0
0
0
0
0
0
0
0
0
0
0
0
0
0
0
0
0
0
0
0
0
0
0
0
0
0
0
0
0
0
0
0
0
0
0
0
0
0
0
0
0
0
0
0
0
0
0
0
0
0
0
0
0
0
0
0
0
0
0
0
0
0
0
0
0
0
0
0
0
0
0
0
0
0
0
0
0
0
0
0
0
0
0
0
0
0
0
0
0
0
0
0
0
0
0
0
0
0
0
0
0
0
0
0
0
0
0
0
0
0
0
0
0
0
0
0
0
0
0
0
0
0
0
0
0
0
0
0
0
0
0
0
0
0
0
0
0
0
0
0
0
0
0
0
0
0
0
0
0
0
0
0
0
0
0
0
0
0
0
0
0
0
0
0
0
0
0
0
0
0
0
0
0
0
0
0
0
0
0
0
0
0
0
0
0
0
0
0
0
0
0
0
0
0
0
0
0
0
0
0
0
0
0
0
0
0
0
0
0
0
0
0
0
0
0
0
0
0
0
0
0
0
0
0
0
0
0
0
0
0
0
0
0
0
0
0
0
0
0
0
0
0
0
0
0
0
0
0
0
0
0
0
0
0
0
0
0
0
0
0
0
0
0
0
0
0
0
0
0
0
0
0
0
0
0
0
0
0
0
0
0
0
0
0
0
0
0
0
0
0
0
0
0
0
0
0
0
0
0
0
0
0
0
0
0
0
0
0
0
0
0
0
0
0
0
0
0
0
0
0
0
0
0
0
0
0
0
0
0
0
0
0
0
0
0
0
0
0
0
0
0
0
0
0
0
0
0
0
0
0
0
0
0
0
0
0
0
0
0
0
0
0
0
0
0
0
0
0
0
0
0
0
0
0
0
0
0
0
0
0
0
0
0
0
0
0
0
0
0
0
0
0
0
0
0
0
0
0
0
0
0
0
0
0
0
0
0
0
0
0
0
0
0
0
0
0
0
0
0
0
0
0
0
0
0
0
0
0
0
0
0
0
0
0
0
0
0
0
0
0
0
0
0
0
0
0
0
0
0
0
0
0
0
0
0
0
0
0
0
0
0
0
0
0
0
0
0
0
0
0
0
0
0
0
0
0
0
0
0
0
0
0
0
0
0
0
0
0
0
0
0
0
0
0
0
0
0
0
0
0
0
0
0
0
0
0
0
0
0
0
0
0
0
0
0
0
0
0
0
0
0
0
0
0
0
0
0
0
0
0
0
0
0
0
0
0
0
0
0
0
0
0
0
0
0
0
0
0
0
0
0
0
0
0
0
0
0
0
0
0
0
0
0
0
0
0
0
0
0
0
0
0
0
0
0
0
0
0
0
0
0
0
0
0
0
0
0
0
0
0
0
0
0
0
0
0
0
0
0
0
0
0
0
0
0
0
0
0
0
0
0
0
0
0
0
0
0
0
0
0
0
0
0
0
0
0
0
0
0
0
0
0
0
0
0
0
0
0
0
0
0
0
0
0
0
0
0
0
0
0
0
0
0
0
0
0
0
0
0
0
0
0
0
0
0
0
0
0
0
0
0
0
0
0
0
0
0
0
0
0
0
0
0
0
0
0
0
0
0
0
0
0
0
0
0
0
0
0
0
0
0
0
0
0
0
0
0
0
0
0
0
0
0
0
0
0
0
0
0
0
0
0
0
0
0
0
0
0
0
0
0
0
0
0
0
0
0
0
0
0
0
0
0
0
0
0
0
0
0
0
0
0
0
0
0
0
0
0
0
0
0
0
0
0
0
0
0
0
0
0
0
0
0
0
0
0
0
0
0
0
0
0
0
0
0
0
0
0
0
0
0
0
0
0
0
0
0
0
0
0
0
0
0
0
0
0
0
0
0
0
0
0
0
0
0
0
0
0
0
0
0
0
0
0
0
0
0
0
0
0
0
0
0
0
0
0
0
0
0
0
0
0
0
0
0
0
0
0
0
0
0
0
0
0
0
0
0
0
0
0
0
0
0
0
0
0
0
0
0
0
0
0
0
0
0
0
0
0
0
0
0
0
0
0
0
0
0
0
0
0
0
0
0
0
0
0


VECTORS element_materi_velocity float
2.161050454830e-03 1.189893955205e-02 0.0 
2.287413463735e-03 1.151424142163e-02 0.0 
5.130093188601e-04 1.057972079579e-03 0.0 
6.250401474800e-05 1.507064034035e-03 0.0 
6.725529759210e-04 8.412242364609e-03 0.0 
1.057477394221e-03 5.821545543520e-03 0.0 
4.972928810693e-04 8.320557299001e-03 0.0 
2.249733536688e-03 1.154402466446e-02 0.0 
5.535174487288e-04 8.377159779224e-03 0.0 
9.181661519275e-05 1.543495690443e-03 0.0 
2.363407664620e-04 -1.184055149019e-04 0.0 
2.059892552326e-03 1.197138361073e-02 0.0 
1.067175831568e-04 6.303291871962e-05 0.0 
1.043654579776e-03 7.522946318666e-03 0.0 
8.815104021692e-05 5.129587830250e-05 0.0 
5.032952389808e-05 1.065904273641e-03 0.0 
8.877302778528e-04 8.756505961471e-03 0.0 
1.072933786448e-03 5.231033425028e-03 0.0 
1.425307298468e-04 -7.599870199438e-04 0.0 
1.166300894525e-04 -7.505176967750e-04 0.0 
1.093901148070e-04 1.581986478629e-03 0.0 
2.232708877847e-03 1.160356970930e-02 0.0 
2.315071338572e-03 1.123661726331e-02 0.0 
1.135947730609e-03 5.157863713064e-04 0.0 
1.207560952730e-03 6.540642710034e-03 0.0 
2.598267508453e-04 -7.901365576242e-05 0.0 
1.466452678717e-03 9.543508836128e-03 0.0 
8.919326365404e-04 8.916709498867e-04 0.0 
1.285286334104e-03 6.541818532346e-03 0.0 
9.371307917627e-04 4.142651119261e-04 0.0 
1.077268584671e-03 2.027858423785e-03 0.0 
2.291573271662e-04 -1.669892872573e-04 0.0 
5.892890062051e-04 1.293409028943e-03 0.0 
7.394444018244e-05 4.094532026646e-05 0.0 
5.283618846619e-04 1.703373002701e-04 0.0 
1.574579835446e-04 5.132595932185e-05 0.0 
1.450324443881e-04 4.837016025957e-05 0.0 
9.147466345543e-04 5.789438718276e-04 0.0 
4.099825164633e-04 9.267257060122e-03 0.0 
3.713398372662e-04 9.275595769167e-03 0.0 
2.233669806851e-03 1.072645540691e-02 0.0 
4.945916580747e-04 1.778490085608e-04 0.0 
1.886897231791e-03 1.179956670761e-02 0.0 
1.531781761686e-03 9.200313681801e-03 0.0 
3.346849429616e-05 2.131260425788e-03 0.0 
1.980801107268e-03 1.135705805373e-02 0.0 
8.253876232828e-04 2.052530524949e-03 0.0 
3.797469788271e-05 1.811199098685e-03 0.0 
3.543834734533e-04 1.736748266020e-03 0.0 
1.026326459218e-03 7.986440282628e-03 0.0 
2.286300704921e-03 1.100589473717e-02 0.0 
1.597417603018e-04 -7.149825209031e-04 0.0 
1.670704263748e-03 2.208078115480e-03 0.0 
2.193217961182e-03 1.113307953348e-02 0.0 
3.653512076573e-04 1.063714283081e-03 0.0 
3.070767351425e-04 -5.994770183216e-04 0.0 
1.316479229946e-04 -6.996308383715e-04 0.0 
1.496526169737e-04 4.312209046048e-05 0.0 
2.673155178873e-04 -7.097925250069e-04 0.0 
6.044206844928e-05 1.075095420081e-03 0.0 
1.327368070499e-04 2.679105577321e-03 0.0 
1.391197410018e-03 1.231009992480e-03 0.0 
2.955314207762e-03 9.213960822794e-03 0.0 
1.471656097790e-03 2.081921842062e-03 0.0 
1.727119854390e-04 7.097079832622e-05 0.0 
2.221301961538e-03 1.140809523953e-02 0.0 
2.713341709845e-04 3.011243302476e-03 0.0 
6.361654899308e-04 1.260067904727e-03 0.0 
8.514636193355e-04 3.738254943825e-04 0.0 
6.456499303602e-04 8.849557989427e-04 0.0 
3.882456553181e-04 -2.928408341904e-05 0.0 
6.063367129109e-05 3.041673903856e-04 0.0 
1.170825644015e-03 1.213337339437e-03 0.0 
1.374295600565e-05 -8.458947157453e-04 0.0 
2.782704107819e-04 -5.800994873339e-04 0.0 
2.140074377488e-04 1.394601601402e-03 0.0 
4.571316812224e-04 1.289937337996e-03 0.0 
1.634390165305e-03 1.051515309298e-02 0.0 
3.177029917385e-04 -6.779259498513e-04 0.0 
1.538085840135e-03 1.117470802083e-02 0.0 
9.189470046973e-04 5.488412343119e-04 0.0 
8.308536298533e-04 8.483055383698e-03 0.0 
2.315780222351e-03 1.141832690592e-02 0.0 
2.190822395521e-03 1.183432816063e-02 0.0 
6.298871143893e-04 7.835068968452e-03 0.0 
5.738744418386e-04 7.798675483560e-03 0.0 
2.279528423790e-04 -1.909073972434e-05 0.0 
3.984921560740e-05 2.308598584594e-05 0.0 
1.551159131654e-03 3.587927687056e-03 0.0 
7.272887117776e-04 8.382245998911e-03 0.0 
2.937405510003e-04 -6.512637039489e-05 0.0 
1.463741294300e-03 8.332210732693e-03 0.0 
1.028513095158e-04 4.248348563766e-03 0.0 
1.250345564621e-04 4.591517754013e-03 0.0 
1.209902343243e-04 5.647593170375e-04 0.0 
6.537302618565e-04 4.122453720533e-04 0.0 
9.420394919729e-04 8.522930812816e-03 0.0 
5.730878366787e-04 2.002995196464e-04 0.0 
7.731919510555e-05 6.723896160941e-03 0.0 
2.813414542017e-03 9.796610035620e-03 0.0 
6.521974770325e-04 8.899195690543e-03 0.0 
1.129463528402e-04 5.468295864782e-05 0.0 
2.500758634575e-03 2.363925399973e-03 0.0 
1.405369111011e-03 1.187666458591e-03 0.0 
3.039627207047e-03 8.620959208738e-03 0.0 
6.377300964744e-04 1.729230575194e-03 0.0 
1.239762012406e-04 7.094593015733e-05 0.0 
1.037553640135e-04 3.664207285531e-03 0.0 
1.971111843499e-04 2.026743861543e-03 0.0 
2.041466026385e-04 7.052689240257e-05 0.0 
1.709906832418e-03 4.039922255506e-03 0.0 
2.081938971477e-05 -8.525807167277e-04 0.0 
3.417657944021e-03 6.638195460401e-03 0.0 
1.861016493128e-03 9.287553702198e-03 0.0 
5.010071493487e-04 -4.320799411856e-04 0.0 
2.731961117616e-03 1.011060136882e-02 0.0 
3.037848482964e-03 8.910404359639e-03 0.0 
3.787989561971e-04 1.240759726835e-04 0.0 
9.824672988442e-05 7.135539808049e-03 0.0 
2.975549469372e-03 9.185685407739e-03 0.0 
6.764398224325e-04 -4.368528395162e-05 0.0 
1.531892083515e-03 8.587892066514e-03 0.0 
8.165399710764e-05 3.360452945043e-03 0.0 
3.053960895849e-03 8.820119115786e-03 0.0 
1.020206891035e-03 8.641660672668e-03 0.0 
2.073460480621e-03 1.007957958067e-02 0.0 
4.351238381132e-04 -4.675988494059e-04 0.0 
2.063351439723e-03 1.050616629645e-02 0.0 
1.622568635935e-04 9.885335344506e-04 0.0 
1.416060796753e-03 8.010620697493e-03 0.0 
3.642018140984e-04 -6.471760729269e-05 0.0 
4.947356388947e-05 1.491478715302e-03 0.0 
2.737818490281e-03 8.870170271141e-03 0.0 
2.156411386874e-03 1.042069189985e-02 0.0 
5.623078612802e-04 1.856290906226e-04 0.0 
7.335819853268e-05 6.003805346654e-05 0.0 
3.207598088401e-04 -9.677402924165e-06 0.0 
2.719100983941e-03 8.500341469398e-03 0.0 
6.733041493792e-04 2.802650678004e-04 0.0 
2.548349468063e-03 9.555582001627e-03 0.0 
1.241138766320e-04 1.103362997124e-03 0.0 
7.409224288496e-04 1.077940510992e-03 0.0 
1.109838612841e-03 7.483362208380e-03 0.0 
2.439295592566e-04 5.564533063083e-03 0.0 
2.646410546399e-03 9.402150538796e-03 0.0 
2.134868866189e-03 1.083985252260e-02 0.0 
2.783686520820e-03 7.980221580788e-03 0.0 
3.240433350116e-03 7.866758459829e-03 0.0 
4.743865414395e-04 8.800641257532e-03 0.0 
3.450584752752e-03 6.306281573741e-03 0.0 
2.757068786676e-04 -2.536326983137e-04 0.0 
1.116437421727e-04 8.034221478348e-03 0.0 
1.131211209502e-04 -7.868855730177e-04 0.0 
1.973748391450e-03 9.699829525086e-03 0.0 
5.519802021564e-04 2.227167732589e-04 0.0 
2.972636620681e-03 9.043707711666e-03 0.0 
1.726011994282e-04 3.564441043350e-06 0.0 
2.094397165692e-03 1.156651678399e-02 0.0 
2.493898543869e-03 2.480981195469e-03 0.0 
2.628688270523e-04 8.458499800725e-03 0.0 
3.429580421922e-03 6.446598178858e-03 0.0 
1.683474363158e-04 5.852620433180e-05 0.0 
7.377915648383e-04 8.023055394454e-05 0.0 
1.733932055121e-04 7.479129560955e-05 0.0 
2.062166065416e-03 8.265902317745e-03 0.0 
2.339907366613e-04 8.009405386214e-05 0.0 
1.106981907900e-04 8.529569665122e-03 0.0 
3.175785672356e-03 8.037441534734e-03 0.0 
1.880422529686e-03 9.740233215033e-03 0.0 
1.519208700134e-04 -1.345450848148e-04 0.0 
1.980465171529e-03 1.198076981763e-02 0.0 
3.444551412364e-03 6.064051368050e-03 0.0 
2.121737399492e-04 5.043141702258e-03 0.0 
3.004534041438e-04 8.796100504628e-03 0.0 
3.331759875575e-03 7.330392211018e-03 0.0 
1.978981405352e-03 1.014378491343e-02 0.0 
1.589693328906e-03 2.650911090727e-03 0.0 
5.146704686698e-04 -3.842628197742e-04 0.0 
7.302488990039e-04 6.865946474840e-04 0.0 
7.959720317416e-04 1.058046215652e-03 0.0 
2.571731339415e-03 1.064274901388e-02 0.0 
4.563655179586e-04 -3.745962733578e-04 0.0 
1.619907095897e-03 8.657267646033e-04 0.0 
2.446870540503e-03 1.007801768524e-02 0.0 
2.445082686361e-03 1.096213978687e-02 0.0 
1.918842535646e-03 8.801505885373e-03 0.0 
3.362073348685e-03 7.149191513697e-03 0.0 
8.976612548594e-05 1.164965525211e-03 0.0 
1.470708580636e-03 4.068031996155e-03 0.0 
1.176185017752e-04 6.565907343576e-05 0.0 
1.822952814303e-03 1.103599844727e-02 0.0 
3.391687805473e-03 5.727434364645e-03 0.0 
1.473292857527e-03 3.588914320932e-03 0.0 
1.387539516713e-04 5.910420116907e-03 0.0 
2.349727651601e-03 1.020615180274e-02 0.0 
1.855850972623e-03 8.768585240672e-04 0.0 
2.687348436428e-04 -6.288281844123e-04 0.0 
5.365457821478e-04 1.380763906399e-03 0.0 
1.349777392838e-03 5.513088525637e-03 0.0 
1.825541841797e-03 4.217821992458e-04 0.0 
1.908750716981e-03 9.519517255101e-04 0.0 
1.453257731165e-03 7.818751524066e-03 0.0 
1.195483737297e-03 7.001635761459e-03 0.0 
9.022439243680e-04 3.818580206007e-04 0.0 
1.281722894370e-03 4.396344698076e-06 0.0 
2.924189148132e-03 7.307258236725e-03 0.0 
2.198978423930e-03 7.703077584721e-03 0.0 
1.251035667558e-03 5.022877295592e-03 0.0 
2.005732007513e-03 7.816151538788e-03 0.0 
2.014245874956e-03 8.760297005535e-03 0.0 
2.956346719483e-03 2.887504191943e-03 0.0 
1.728403793318e-03 3.077685265984e-03 0.0 
3.483477505690e-04 5.525608481976e-03 0.0 
2.491575047238e-03 1.091679728973e-02 0.0 
2.730781251885e-03 1.004772672703e-02 0.0 
2.878494706395e-03 7.820245200181e-03 0.0 
1.324939810821e-03 3.595873327141e-03 0.0 
1.817355775154e-03 5.651584001189e-03 0.0 
1.918027139834e-03 8.428252421991e-04 0.0 
3.396506431618e-04 8.675574667565e-03 0.0 
3.398490867874e-03 6.145171624250e-03 0.0 
1.939974506230e-03 7.837093096246e-04 0.0 
2.548485112196e-04 -4.594073951729e-04 0.0 
1.218299036349e-03 4.537628471222e-03 0.0 
1.945276670231e-04 -4.983316273034e-04 0.0 
2.808564230374e-04 -6.583861439831e-04 0.0 
1.734541907334e-03 1.156070088634e-02 0.0 
1.134882997748e-03 -3.660067416854e-05 0.0 
1.103051613406e-03 4.049978321120e-03 0.0 
1.096736416537e-03 2.541084901967e-06 0.0 
2.486492413246e-03 9.090859157601e-03 0.0 
1.370582325463e-03 1.300240630077e-03 0.0 
7.592191885024e-04 -9.341111392294e-05 0.0 
1.804279675533e-03 9.575007347382e-04 0.0 
2.159735455670e-03 8.204792786343e-03 0.0 
2.047146872218e-04 7.552351576839e-05 0.0 
2.798951915493e-05 5.501905001151e-03 0.0 
2.852353717794e-03 8.392588303719e-03 0.0 
3.478311948636e-03 5.592408422910e-03 0.0 
2.423895439492e-03 1.047113649310e-02 0.0 
1.981578723588e-03 9.233617271747e-04 0.0 
2.505289920221e-04 8.170139672233e-05 0.0 
1.526577622145e-03 4.542634641529e-03 0.0 
3.095355030113e-03 5.723294894210e-03 0.0 
1.761429818031e-03 8.878523805852e-04 0.0 
1.910636256039e-04 -5.299346868895e-05 0.0 
2.738850535165e-03 7.611661257639e-03 0.0 
1.406369696728e-03 5.036378126753e-03 0.0 
1.152108406250e-03 1.011730304399e-03 0.0 
3.470667087193e-03 5.231041149352e-03 0.0 
2.659183183181e-03 9.022840218034e-03 0.0 
1.961828425745e-03 6.867634510867e-03 0.0 
9.779403308293e-05 5.161138420588e-04 0.0 
3.011496488802e-03 7.131554830286e-03 0.0 
3.365380727696e-03 3.657116200511e-03 0.0 
2.542623984310e-04 7.862068484837e-03 0.0 
8.129587905511e-04 6.628135412574e-04 0.0 
1.912292705462e-03 7.855569740529e-03 0.0 
3.131007235504e-03 6.222825303425e-03 0.0 
2.315126392803e-03 5.342129762977e-03 0.0 
1.286083187394e-03 2.284153262985e-03 0.0 
1.034530368366e-03 4.041922176174e-03 0.0 
2.132327071722e-03 7.266507742500e-03 0.0 
3.185599159976e-03 8.226687537954e-03 0.0 
9.187890776668e-04 3.552618197638e-03 0.0 
1.549266853048e-03 4.062118539459e-03 0.0 
2.585893808611e-03 7.355329106312e-03 0.0 
2.807578016331e-04 8.990172334339e-05 0.0 
3.294064564358e-03 3.335411317030e-03 0.0 
2.420924094257e-03 7.051431992754e-03 0.0 
3.415306414794e-03 6.447207337755e-03 0.0 
3.237202884098e-03 3.250794892414e-03 0.0 
2.689907350394e-03 5.058763145666e-03 0.0 
1.326571610207e-03 8.432947557350e-03 0.0 
3.449106301406e-03 4.480164912132e-03 0.0 
2.562947070869e-03 2.504734379469e-03 0.0 
1.446942334960e-03 4.545570737944e-03 0.0 
-2.274089242591e-04 4.953427749730e-03 0.0 
1.850311612516e-03 7.391867812892e-03 0.0 
3.175436863569e-03 5.284735081391e-03 0.0 
2.878266601315e-03 7.840137723836e-03 0.0 
2.604239017328e-03 4.558577975778e-03 0.0 
1.968210326424e-03 6.378476034700e-03 0.0 
4.354638465897e-04 -3.860731892028e-05 0.0 
2.697251655344e-03 9.933655355489e-03 0.0 
3.138678421172e-03 2.946230183592e-03 0.0 
2.036650045559e-03 7.318472165164e-03 0.0 
1.310958065228e-03 7.808242773923e-03 0.0 
1.398636285062e-03 4.872156146087e-03 0.0 
2.669720399183e-03 2.838591838041e-03 0.0 
2.279631208680e-03 2.080952101416e-03 0.0 
2.569171535307e-03 1.063576633609e-02 0.0 
1.486404459414e-03 5.034055797873e-03 0.0 
2.785980394716e-03 9.716337355468e-03 0.0 
3.412803485564e-03 4.507697111767e-03 0.0 
3.430103488521e-03 5.284946834886e-03 0.0 
1.720476591352e-03 5.053023370296e-03 0.0 
3.436578908523e-03 5.966631342845e-03 0.0 
2.040313667536e-03 9.108881218488e-03 0.0 
1.872058485877e-04 5.235927698389e-04 0.0 
2.464704572227e-04 5.521534512667e-04 0.0 
3.034930318694e-03 6.631987490332e-03 0.0 
2.944920834322e-03 5.666200305906e-03 0.0 
2.709818192544e-03 7.246163683969e-03 0.0 
2.433398475846e-03 6.557987880127e-03 0.0 
2.825470522326e-03 6.133772674134e-03 0.0 
2.389997529031e-03 2.393429461531e-03 0.0 
2.642591970147e-03 7.743736214356e-03 0.0 
1.618374878339e-04 1.341427777808e-03 0.0 
3.316357391500e-03 5.752651303856e-03 0.0 
2.960960532155e-03 3.054590166360e-03 0.0 
2.305912786661e-03 8.454552832101e-03 0.0 
3.190123120481e-04 1.460511179800e-04 0.0 
2.865121220266e-03 6.698168211414e-03 0.0 
2.774140601672e-03 7.106277421295e-03 0.0 
1.950008587903e-03 4.633411224872e-03 0.0 
2.656609015280e-03 1.620370423110e-03 0.0 
3.476814800650e-03 4.815588566671e-03 0.0 
2.341416274258e-03 1.902929814650e-03 0.0 
2.296698072645e-03 7.631635433765e-03 0.0 
2.657148060053e-04 4.274128417487e-04 0.0 
3.329036183437e-03 4.898541597045e-03 0.0 
3.107074321652e-03 2.747940506845e-03 0.0 
2.301005438621e-03 7.767912785837e-03 0.0 
8.539254164241e-04 5.924143731333e-03 0.0 
2.013255077450e-03 8.672554213601e-04 0.0 
2.748380054032e-03 9.410863420261e-03 0.0 
8.518479634892e-04 6.417172466868e-03 0.0 
3.377409845339e-04 4.054655817194e-04 0.0 
1.745839636563e-03 7.375058533913e-04 0.0 
2.655075132711e-04 4.749822068278e-04 0.0 
1.056133736060e-03 6.478017363846e-03 0.0 
1.790263854083e-03 4.021799872729e-03 0.0 
2.360779379754e-03 1.020582428993e-02 0.0 
2.300610149975e-03 8.559956013047e-03 0.0 
2.324524555474e-03 7.132844085264e-03 0.0 
2.244496324826e-03 6.709799920255e-03 0.0 
3.137379629590e-03 7.238439439757e-03 0.0 
3.676940107741e-04 3.671461931700e-04 0.0 
1.358141057977e-03 6.991574388942e-03 0.0 
1.873323424056e-03 8.346529399325e-03 0.0 
3.399948386134e-03 4.897026451841e-03 0.0 
9.609101004750e-04 -6.871438096056e-05 0.0 
2.143246421827e-03 9.145665150228e-03 0.0 
2.933897927604e-03 8.787014617189e-03 0.0 
2.249560773332e-04 8.761565395188e-03 0.0 
2.228138826641e-03 1.634016044525e-03 0.0 
3.283860871850e-03 5.311678919302e-03 0.0 
1.244905292622e-03 4.061916321918e-03 0.0 
2.981637360270e-03 8.304548880929e-03 0.0 
2.352749261525e-03 8.054395156484e-03 0.0 
2.992683660995e-03 2.480115858275e-03 0.0 
2.188005363572e-03 7.851224507590e-04 0.0 
3.638867702774e-04 2.805102963929e-04 0.0 
2.354913094565e-03 9.807153780285e-03 0.0 
2.705782447991e-03 3.470727302343e-03 0.0 
1.840932795561e-03 4.760945343681e-04 0.0 
2.508273682426e-03 1.068133372267e-02 0.0 
2.678659124865e-03 9.861715884612e-03 0.0 
1.309556515427e-03 3.129399252897e-03 0.0 
2.702414755347e-03 6.738255862374e-03 0.0 
2.514849017820e-03 1.031737258305e-02 0.0 
2.332417921696e-03 8.980901248962e-03 0.0 
3.853036369773e-04 2.187458398687e-04 0.0 
9.576900776553e-04 5.800797186292e-04 0.0 
1.239761741132e-03 3.130444802409e-03 0.0 
1.293176908888e-03 4.543231728170e-03 0.0 
2.267968379167e-03 8.655790279758e-04 0.0 
2.995857640831e-03 8.903722136497e-03 0.0 
2.880782136863e-03 5.157978035990e-03 0.0 
3.117259006811e-03 4.830975241022e-03 0.0 
2.864671029064e-03 6.961850780988e-03 0.0 
2.783788770387e-03 1.802897010430e-03 0.0 
1.278288480394e-03 -2.298451965148e-05 0.0 
1.040376112632e-03 3.115579950703e-03 0.0 
2.603925746607e-03 3.087193976945e-03 0.0 
3.240451634820e-03 7.278005893316e-03 0.0 
2.489525839605e-03 7.459685984121e-03 0.0 
3.176725196523e-03 8.068425315768e-03 0.0 
2.573538180775e-04 5.128928065239e-04 0.0 
2.228651251378e-04 5.558781275371e-04 0.0 
5.675876333326e-04 1.383002513803e-03 0.0 
2.201400243639e-03 8.233637495149e-04 0.0 
8.575374001922e-04 3.536762827400e-03 0.0 
2.602948952085e-03 9.558649598316e-03 0.0 
3.275348730662e-03 4.495627312641e-03 0.0 
2.224139463201e-03 4.793699107174e-03 0.0 
2.729091606262e-03 9.585210811051e-03 0.0 
1.188617783634e-03 8.445151204412e-03 0.0 
9.861982313749e-04 6.464131944844e-03 0.0 
7.962698848073e-04 3.821534327514e-04 0.0 
1.454243802691e-03 3.132495786909e-03 0.0 
1.868929294752e-03 6.901611956854e-03 0.0 
2.245993766494e-03 6.221171937445e-03 0.0 
2.379488541109e-03 4.427523120703e-03 0.0 
5.011662287155e-04 4.536529042656e-04 0.0 
3.478597617057e-03 5.820607386836e-03 0.0 
3.240051014578e-03 6.516162649481e-03 0.0 
3.466943302055e-03 5.671945278586e-03 0.0 
9.808142295626e-04 9.604885023205e-03 0.0 
2.107213140078e-04 7.602722675287e-03 0.0 
8.998961567653e-04 -2.595972658829e-05 0.0 
3.027203320765e-03 7.265585089659e-03 0.0 
1.665303760621e-04 7.879275670309e-05 0.0 
2.803744641605e-03 2.430337803033e-03 0.0 
1.784744942699e-03 8.370243999652e-03 0.0 
7.150758111549e-05 -8.051728221353e-04 0.0 
3.056351945998e-03 7.448847829863e-03 0.0 
3.491353822499e-03 5.489281046814e-03 0.0 
2.060723364307e-03 6.334827373031e-03 0.0 
2.925909967074e-04 4.250030793102e-04 0.0 
2.205315992835e-03 8.638911491949e-03 0.0 
2.526532939887e-03 6.466145355857e-03 0.0 
1.387653686870e-03 4.516233377529e-05 0.0 
1.046925407634e-03 3.574451419587e-03 0.0 
2.101325639270e-03 7.453914541643e-04 0.0 
3.239545519011e-04 4.282197660094e-04 0.0 
1.340343758502e-04 2.524371908416e-04 0.0 
8.749173844526e-05 2.594124778862e-04 0.0 
1.231510149953e-04 2.916978355844e-04 0.0 
2.051283206823e-03 5.849782755551e-03 0.0 
1.113901214312e-03 3.580786163438e-03 0.0 
1.199775308486e-03 2.667961798117e-03 0.0 
3.098526413915e-03 8.343677353676e-03 0.0 
2.909157117916e-03 9.154981977758e-03 0.0 
1.105182485402e-03 -1.435990831178e-04 0.0 
1.105246708312e-03 3.121615343754e-03 0.0 
3.538184312531e-04 3.872800099516e-04 0.0 
8.568814631708e-04 3.082247351449e-03 0.0 
3.050304805760e-03 2.841404975101e-03 0.0 
9.164965480980e-04 3.096024428453e-03 0.0 
2.645135381763e-03 3.666524095665e-03 0.0 
3.281575866419e-03 6.771654829797e-03 0.0 
2.635885197167e-03 9.770822312349e-03 0.0 
2.506307191049e-03 7.179993157155e-03 0.0 
2.345004108472e-04 1.100761348873e-03 0.0 
3.156590698641e-03 8.324913635433e-03 0.0 
1.148722050280e-03 1.314670213907e-03 0.0 
1.211997689583e-03 -8.358743092829e-05 0.0 
1.948089809413e-03 1.279732925958e-03 0.0 
6.301838248143e-04 2.897862637076e-04 0.0 
3.125641830040e-03 7.717221464790e-03 0.0 
1.314731374209e-04 2.225450159862e-04 0.0 
4.021373371481e-04 1.041513660338e-03 0.0 
2.706859035985e-03 6.249718541711e-03 0.0 
3.031701284812e-04 4.519571153124e-04 0.0 
1.583493281231e-04 2.201352535476e-04 0.0 
6.927356300854e-04 3.687075009676e-04 0.0 
2.058491623098e-03 1.524505923895e-03 0.0 
2.898425734874e-03 2.390239753730e-03 0.0 
3.820364298545e-04 2.713242212147e-04 0.0 
4.105762422023e-05 3.083066584373e-04 0.0 
3.252868826884e-03 7.530056594593e-03 0.0 
2.520433186416e-03 5.981845709066e-03 0.0 
2.879223173972e-03 6.468210792249e-03 0.0 
2.610426527304e-03 6.855232590674e-03 0.0 
2.715983990480e-03 7.852674359133e-03 0.0 
1.721357607559e-04 1.973810692576e-04 0.0 
3.363594747289e-03 4.152313551202e-03 0.0 
1.339676305229e-03 4.284825049938e-03 0.0 
3.597671635601e-04 1.128891628157e-04 0.0 
2.106020181422e-04 3.042533175060e-04 0.0 
2.445791177367e-03 9.289361312349e-03 0.0 
1.137748128218e-03 1.697696341408e-03 0.0 
2.049745694201e-03 9.205941132411e-03 0.0 
3.602269792555e-04 1.891226010903e-04 0.0 
1.860113402768e-04 1.772472524760e-04 0.0 
2.150018489791e-03 6.772021426533e-03 0.0 
7.262517011652e-04 1.453833492847e-03 0.0 
1.026701307779e-03 4.093297173972e-03 0.0 
9.743887715202e-04 1.446971360225e-03 0.0 
1.069510707757e-03 3.074454618299e-04 0.0 
1.263290010939e-03 8.754176485808e-03 0.0 
1.732542148787e-03 7.907073974590e-03 0.0 
1.801832835163e-04 1.446531437799e-04 0.0 
1.126070334427e-03 8.761463200111e-03 0.0 
1.631066701400e-04 5.103837713398e-04 0.0 
2.528336334620e-03 3.276187776996e-03 0.0 
9.119445001289e-04 6.950307150726e-03 0.0 
2.714522987635e-03 1.005457478495e-02 0.0 
2.924442780119e-03 2.553239193810e-03 0.0 
2.137874701307e-03 5.780402511569e-03 0.0 
1.983329430935e-04 1.354670686017e-04 0.0 
1.233194422273e-04 2.604556156823e-04 0.0 
9.971411014243e-05 2.641802919527e-04 0.0 
2.001589487924e-03 6.449381122543e-04 0.0 
9.322086911656e-04 -2.552664745022e-04 0.0 
3.342637265516e-03 6.516275591870e-03 0.0 
1.896677736900e-03 5.840069607074e-04 0.0 
2.028843836736e-04 1.196405003183e-04 0.0 
3.020223737653e-03 6.730126252401e-03 0.0 
2.609141031662e-03 2.298201067939e-03 0.0 
2.525984207001e-03 1.838828431380e-03 0.0 
7.876094915569e-04 6.388492422057e-03 0.0 
2.950819734073e-04 1.264630897246e-04 0.0 
5.718616487109e-04 1.216197878582e-03 0.0 
1.778077259517e-04 9.001726153997e-05 0.0 
2.270311284413e-03 1.490302608213e-03 0.0 
1.342416685844e-04 2.048678257625e-04 0.0 
1.266596321623e-03 2.672044966004e-03 0.0 
-7.112762819551e-05 4.629945055704e-04 0.0 
3.366526199285e-03 6.737985199609e-03 0.0 
7.434994364993e-04 3.044001606953e-03 0.0 
1.656052237780e-04 2.080845124618e-04 0.0 
2.142075773974e-03 5.798348826244e-03 0.0 
2.433158545675e-03 2.807559687341e-03 0.0 
2.039637534353e-03 7.660330586374e-03 0.0 
1.121922631987e-03 5.913644333563e-04 0.0 
2.181282675358e-03 1.144576003986e-03 0.0 
2.411596383628e-03 1.589170946483e-03 0.0 
2.001587793976e-04 1.458677442891e-03 0.0 
1.816826704972e-04 1.898989406940e-04 0.0 
2.556143803777e-03 5.476138946393e-03 0.0 
1.618161737876e-03 6.962081612805e-04 0.0 
8.984945024988e-04 7.495907447008e-03 0.0 
1.570474807566e-03 4.288994793144e-04 0.0 
2.497976555403e-03 2.008873863235e-03 0.0 
2.338496378731e-03 6.150771989828e-03 0.0 
1.837034867611e-04 1.358571526130e-04 0.0 
8.963222243241e-04 -2.442866376006e-04 0.0 
1.925510856020e-03 7.045577782767e-04 0.0 
3.112998443352e-03 5.967598495589e-03 0.0 
2.558418573350e-03 1.351727560124e-03 0.0 
2.746693761154e-03 2.393894573263e-03 0.0 
2.087597671367e-03 7.701872286481e-04 0.0 
3.112353643604e-03 6.446222477392e-03 0.0 
2.464372504052e-03 3.977545100800e-03 0.0 
2.651133435525e-03 2.159932566901e-03 0.0 
3.248674611471e-03 6.035677802891e-03 0.0 
1.540157320692e-03 1.403271992818e-04 0.0 
3.145294907014e-03 7.230708253403e-03 0.0 
1.035450018710e-03 -2.033412957205e-04 0.0 
2.573435410589e-03 3.171059183311e-03 0.0 
3.169629189281e-03 2.819176573821e-03 0.0 
3.443381020139e-04 1.688100182431e-04 0.0 
7.306384386380e-04 2.608351313436e-03 0.0 
1.427621455111e-03 3.419562186992e-04 0.0 
1.824192533037e-04 9.910533955037e-05 0.0 
8.288843727607e-04 4.292276917380e-04 0.0 
3.461853881146e-03 5.228061363406e-03 0.0 
3.291153499644e-04 1.213524137799e-03 0.0 
2.756955567850e-04 1.113887188567e-04 0.0 
8.964457473569e-04 2.655755976671e-03 0.0 
2.003066278391e-03 1.158911790925e-03 0.0 
1.524819359860e-04 6.725836127688e-05 0.0 
1.876650793724e-03 6.082635713200e-04 0.0 
2.836261573446e-03 9.041870984292e-03 0.0 
1.759139537197e-03 7.419657446625e-03 0.0 
3.258094969062e-03 3.102082675183e-03 0.0 
2.081728641811e-03 6.703370741557e-04 0.0 
2.588457215174e-03 1.479929429836e-03 0.0 
1.430233549469e-03 5.520986099850e-03 0.0 
2.621428233958e-03 8.642663386620e-03 0.0 
2.505563221438e-03 2.136561889347e-03 0.0 
1.989179415658e-04 7.032837999184e-03 0.0 
1.429186153285e-03 5.764479833326e-05 0.0 
2.758088861452e-03 2.137612570820e-03 0.0 
2.066242549794e-03 9.477965002052e-04 0.0 
1.116276957758e-03 1.158428336276e-04 0.0 
-1.309445030885e-04 8.084333498824e-04 0.0 
3.214060862682e-03 7.616169527046e-03 0.0 
2.155640549847e-03 1.259971352550e-03 0.0 
1.229802838420e-03 -2.563046868247e-05 0.0 
3.392800184486e-03 5.328317783668e-03 0.0 
1.967834576845e-03 6.939904973506e-04 0.0 
7.781117518450e-04 6.875588826665e-03 0.0 
1.892006512164e-03 9.499469525826e-04 0.0 
1.426000374213e-04 5.920472844769e-05 0.0 
2.608771054470e-03 5.882395623220e-03 0.0 
1.067631548202e-03 -7.606670852057e-05 0.0 
2.793137027219e-03 6.124100111893e-03 0.0 
1.121959758347e-03 -8.145164681294e-05 0.0 
2.960014358290e-06 6.213380229862e-04 0.0 
1.689052072709e-03 6.951037620727e-03 0.0 
3.256047859258e-04 -4.457954401780e-04 0.0 
1.158088618702e-04 -5.955600056277e-04 0.0 
9.100939761743e-04 -1.754718410847e-04 0.0 
1.787283266849e-03 6.297129897377e-04 0.0 
2.053990690665e-04 3.100806418755e-03 0.0 
2.752925701459e-03 1.658758389867e-03 0.0 
2.639095210612e-03 1.495852257483e-03 0.0 
1.737798210925e-03 8.857324815416e-03 0.0 
1.132282487822e-03 9.394267467252e-03 0.0 
2.822775469365e-04 1.030866027301e-03 0.0 
2.962175122932e-03 6.314050908033e-03 0.0 
8.530028720771e-05 -6.401168748452e-04 0.0 
6.957417864094e-04 -1.984993318686e-04 0.0 
3.144264763635e-04 7.940273749390e-04 0.0 
1.260969848532e-03 3.690637455614e-05 0.0 
1.650618307064e-03 2.617096060419e-03 0.0 
2.352586301861e-04 3.134624406250e-03 0.0 
1.147962927379e-03 3.108631886356e-04 0.0 
1.097346866216e-03 -1.918104295520e-04 0.0 
1.019323574268e-03 7.524247532412e-05 0.0 
1.428268858474e-03 5.932888906079e-04 0.0 
1.856542820696e-03 4.119032698786e-03 0.0 
2.308944329776e-04 -4.591367387823e-04 0.0 
1.639443486772e-04 -5.740001559956e-04 0.0 
2.618470435108e-04 9.995851007024e-05 0.0 
1.330955193637e-04 5.218399040903e-05 0.0 
2.373069143951e-04 -3.820208797865e-04 0.0 
9.613846995620e-04 -1.213245270912e-04 0.0 
1.995387370533e-03 6.081250310015e-04 0.0 
1.316219942482e-03 5.862329621658e-04 0.0 
7.570461199632e-04 -2.344202319793e-04 0.0 
1.514998777016e-03 5.844306099974e-04 0.0 
2.262867172131e-04 -6.986839655981e-04 0.0 
9.580112626059e-04 -1.875797256726e-04 0.0 
1.282038532515e-03 3.098171680643e-05 0.0 
1.409058802053e-04 -7.647856989763e-04 0.0 
1.904156912645e-04 -4.238919069186e-04 0.0 
6.785080894411e-04 2.585960939178e-03 0.0 
8.114669800721e-05 -7.180994272900e-04 0.0 
1.263404137745e-03 9.347875991514e-03 0.0 
1.329507443259e-03 9.625523551203e-03 0.0 
2.579154051108e-03 1.580319003070e-03 0.0 
8.153009966886e-05 -5.836131770803e-04 0.0 
1.929540658055e-03 8.542270104268e-04 0.0 
2.517380337026e-03 8.473143878583e-03 0.0 
7.392336921047e-04 2.089653658001e-04 0.0 
6.780435127978e-04 7.649541550338e-04 0.0 
4.331778955259e-04 3.778725006823e-03 0.0 
2.797186412069e-03 9.660615584467e-03 0.0 
5.252635245614e-04 -1.072479751482e-04 0.0 
2.428088237924e-03 8.881865754961e-03 0.0 
7.775748860659e-04 9.366563173243e-03 0.0 
7.243807761061e-04 9.671793569774e-03 0.0 
1.093377202426e-04 -6.815225571952e-04 0.0 
1.757148957660e-04 -7.079843775305e-04 0.0 
1.154039600331e-04 -8.031181176954e-04 0.0 
8.784561328532e-04 -3.037421018167e-04 0.0 
1.060612078394e-04 -7.921095529038e-04 0.0 
1.932256346123e-04 -3.444106581724e-04 0.0 
-1.347935071958e-04 2.017364149294e-03 0.0 
9.981574327565e-04 -2.553839566494e-04 0.0 
1.762565671401e-04 5.913458075379e-03 0.0 
1.067226537588e-03 9.703368628002e-03 0.0 
1.381202205309e-03 2.271311789782e-03 0.0 
1.754291901101e-03 5.481799501532e-04 0.0 
1.587267216867e-04 6.805421371018e-03 0.0 
4.320807098261e-05 -5.488633961899e-04 0.0 
1.295353722321e-04 -7.949230913673e-04 0.0 
3.451109556059e-05 2.720959654313e-04 0.0 
7.886537996313e-05 5.669754990716e-04 0.0 
8.289002261471e-04 7.449869167759e-03 0.0 
8.904598118604e-04 9.397893794545e-03 0.0 
2.152559295641e-04 -5.325932422494e-04 0.0 
5.099209176362e-05 5.368001932747e-04 0.0 
9.840818063974e-04 -2.424069625160e-04 0.0 
1.194944063835e-03 9.671654977259e-03 0.0 
1.007446466560e-03 9.411827478488e-03 0.0 
2.161728194345e-03 9.575348210143e-03 0.0 
7.561493169474e-05 2.509712934536e-04 0.0 
6.200154630726e-05 5.356739865531e-04 0.0 
1.368749499322e-04 -7.423882670550e-04 0.0 
9.562774935269e-05 -7.485028657660e-04 0.0 
5.719519948707e-04 -2.571655348462e-04 0.0 
1.390611262450e-03 9.358644666551e-05 0.0 
8.064568864571e-05 6.790071362753e-05 0.0 
-3.329329911956e-04 2.330694992346e-03 0.0 
5.486979211014e-05 3.905080557177e-03 0.0 
-8.557420770570e-05 1.462098624046e-03 0.0 
2.452354372872e-03 1.325182926649e-03 0.0 
-1.972352538362e-04 1.224367244571e-03 0.0 
-2.632542051957e-04 1.730789734926e-03 0.0 
2.436436448526e-03 1.215660675868e-03 0.0 
3.170032788245e-04 9.427409998923e-05 0.0 
1.478231863309e-04 6.244113908797e-03 0.0 
2.589755205819e-03 8.254618454727e-03 0.0 
1.029253833484e-04 -8.065078423850e-04 0.0 
8.412227266093e-04 4.547529511909e-05 0.0 
1.208118517606e-05 3.192953960289e-04 0.0 
2.383226877057e-05 5.411382512382e-04 0.0 
9.466694164459e-04 9.706300799476e-03 0.0 
2.428767167149e-03 1.407271361578e-03 0.0 
2.749045074666e-05 2.635780211218e-04 0.0 
2.464738690018e-03 2.708653481823e-03 0.0 
7.708790930472e-05 -8.230362598303e-04 0.0 
7.244709134817e-05 -8.269053894090e-04 0.0 
6.074102950350e-05 -8.352387805261e-04 0.0 
4.688220385271e-05 -4.713125158269e-04 0.0 
6.437344586131e-05 3.115188352128e-05 0.0 
6.485514304280e-06 1.468303641502e-03 0.0 
5.244577669676e-05 -8.348180255633e-04 0.0 
9.945220762894e-05 -3.468088017770e-04 0.0 
2.188638110054e-05 1.229169350286e-05 0.0 
9.040564502653e-05 3.753921484910e-05 0.0 
2.479514929374e-04 9.004347816872e-05 0.0 
3.089888956607e-05 4.877816978306e-03 0.0 
1.205317175990e-05 3.413633598454e-03 0.0 
4.248706476078e-05 1.886019001842e-05 0.0 
4.791858026576e-05 1.867902483068e-05 0.0 
2.684837591264e-05 3.905091619071e-03 0.0 
3.287581298741e-05 -8.497645846113e-04 0.0 
5.312845729887e-04 9.655096499279e-03 0.0 
8.340157995005e-04 9.695108142746e-03 0.0 
7.585594290905e-05 -7.993627120592e-04 0.0 
7.634161167834e-05 2.552295599983e-05 0.0 
2.395898187683e-04 8.327439835736e-05 0.0 
1.203898499781e-04 4.100543984984e-05 0.0 
5.271880376665e-05 -8.216736376946e-04 0.0 
6.945341469546e-05 -7.781534568426e-04 0.0 
1.287515241472e-04 4.777451966120e-05 0.0 
1.191999687903e-04 4.226895850752e-05 0.0 
1.610368541333e-05 5.377851226741e-03 0.0 
2.704657956926e-04 9.632214672443e-03 0.0 
1.479520415274e-05 4.386160296628e-03 0.0 
1.977408219488e-05 7.344668559998e-03 0.0 
1.145447045618e-04 9.617353161435e-03 0.0 
8.153643262536e-05 -5.399746584832e-04 0.0 
5.193002144554e-05 -2.514349084091e-04 0.0 
2.196035583053e-05 -5.857742194978e-05 0.0 
-2.063473775430e-05 1.778765242335e-04 0.0 
5.029733976892e-05 -3.072059747470e-04 0.0 
4.915486786002e-05 -3.899376675798e-04 0.0 
9.804374597784e-05 -1.633141931466e-04 0.0 
5.025780844681e-05 -8.656753063668e-05 0.0 
7.371954350691e-05 4.972520297618e-05 0.0 
6.035656303324e-05 2.605919266518e-04 0.0 
2.350164101695e-05 2.732221721528e-04 0.0 
4.435428440254e-05 2.948795336403e-04 0.0 
2.555779663927e-05 -7.875257241483e-04 0.0 
3.832202868625e-05 -6.206516959446e-04 0.0 
2.219372972726e-05 3.284865424694e-04 0.0 
3.409522457503e-05 5.432850234398e-05 0.0 
1.175108359450e-05 2.218428552093e-04 0.0 
2.497924225058e-05 6.708895947702e-05 0.0 
1.521352235470e-05 5.745069849824e-05 0.0 
9.603707171273e-05 -4.294105511074e-04 0.0 
4.569537074421e-05 6.017087146222e-04 0.0 
3.394481332176e-05 5.503293976787e-04 0.0 
5.907446682561e-05 6.363814164197e-05 0.0 
4.019276460527e-05 6.606467474102e-05 0.0 
5.039909525958e-04 2.031436622847e-05 0.0 
-4.095647297143e-05 9.997626311681e-04 0.0 
7.954126909786e-04 -2.853631040586e-04 0.0 
1.626587174219e-04 -6.775221061466e-04 0.0 
6.949808535552e-04 1.899393226277e-04 0.0 
1.063630196139e-03 -1.388173499714e-04 0.0 
5.684734982351e-04 1.086204909241e-04 0.0 
8.476738443741e-04 -2.865223633782e-04 0.0 
3.141685731460e-04 -5.806829928767e-04 0.0 
3.959580636645e-04 1.013987776009e-04 0.0 
8.056032463091e-04 -2.145545822517e-04 0.0 
1.797238844084e-04 -5.023777564061e-04 0.0 
5.015176226746e-04 9.273896100506e-05 0.0 
7.473728872582e-05 2.482064667150e-03 0.0 
9.009027483532e-05 -5.090348892620e-04 0.0 
1.715649060240e-03 6.255076043652e-04 0.0 
1.405805426287e-03 2.633047282493e-04 0.0 
5.913862040613e-04 3.906568736516e-05 0.0 
4.315269032556e-04 3.366169860563e-05 0.0 
3.297052195084e-03 4.138728606872e-03 0.0 
2.542084661962e-03 9.165923651194e-03 0.0 
3.403169223461e-03 5.777608616188e-03 0.0 
9.344282043633e-04 7.749926241428e-05 0.0 
3.588238751280e-04 8.150779714800e-05 0.0 
2.843145191330e-04 3.501449613123e-05 0.0 
1.187914037714e-03 1.229706706554e-04 0.0 
1.424026745012e-04 2.561444560657e-03 0.0 
1.834580181510e-04 3.542990193336e-03 0.0 
3.513008397477e-04 8.150880643434e-03 0.0 
1.024648320765e-03 1.462301590365e-04 0.0 
7.588906254131e-04 5.287041664297e-05 0.0 
9.680503356979e-05 2.534171415799e-03 0.0 
1.245757210187e-04 3.040578728670e-03 0.0 
1.502361935514e-03 2.859604785010e-04 0.0 
2.703781433468e-04 8.643258302614e-05 0.0 
3.917600834047e-04 3.745618098592e-03 0.0 
2.027044176205e-04 2.768885456167e-05 0.0 
5.184862297506e-04 1.448746251626e-04 0.0 
1.663603288545e-04 2.587429749080e-03 0.0 
3.296750038544e-04 5.118053721746e-03 0.0 
1.707248095052e-03 5.590620876448e-04 0.0 
4.312563470932e-04 -6.171411603014e-04 0.0 
1.216526914533e-03 3.171706037795e-04 0.0 
4.842530990925e-04 -2.156400080971e-04 0.0 
1.996611437259e-04 9.923407055515e-04 0.0 
1.509733060565e-04 3.040611363561e-03 0.0 
2.881768785472e-04 8.221782223821e-05 0.0 
2.077133771130e-04 6.143539736596e-04 0.0 
1.075158706607e-03 2.674724310641e-03 0.0 
4.148244141454e-04 7.663626337658e-03 0.0 
6.589022578347e-04 1.099949149975e-04 0.0 
3.659533091226e-04 6.633883669095e-05 0.0 
1.838888891878e-03 6.036725010460e-04 0.0 
2.966182428109e-04 5.607062722497e-05 0.0 
3.984629270882e-04 8.172628007120e-03 0.0 
2.631494700617e-03 2.030206774768e-03 0.0 
3.969090070915e-04 1.175494734363e-04 0.0 
2.286936157455e-04 -6.937464637375e-04 0.0 
6.376532273929e-04 1.910524337501e-04 0.0 
2.525327292097e-04 4.568869185269e-03 0.0 
3.513904687747e-04 -6.332747176916e-04 0.0 
1.329480668951e-03 2.030247956816e-04 0.0 
4.318388141911e-04 -1.986655765860e-04 0.0 
4.552837689337e-04 6.191870881841e-03 0.0 
9.837553445858e-04 -2.669096693456e-04 0.0 
1.854035394200e-04 4.017679241008e-03 0.0 
2.843705427756e-04 5.568427544932e-03 0.0 
9.026866198257e-04 -1.091238089212e-04 0.0 
3.470182674018e-04 2.030341941308e-05 0.0 
4.381582212985e-04 5.864098478975e-05 0.0 
2.166917482922e-04 4.531888040594e-03 0.0 
4.855274244299e-04 -5.828506773911e-04 0.0 
7.524975452868e-04 -1.964022216421e-04 0.0 
1.909822806932e-03 1.582388566158e-03 0.0 
2.877287318526e-04 4.123144826980e-03 0.0 
7.526109993953e-04 -2.677389332975e-04 0.0 
1.309353284267e-03 2.096228354717e-04 0.0 
8.205914203505e-04 2.491771923737e-04 0.0 
2.884557043857e-04 5.084017328781e-03 0.0 
9.635137118276e-04 3.598627689393e-03 0.0 
3.884806827350e-04 -4.627782194662e-04 0.0 
2.283856671152e-03 3.948526295644e-03 0.0 
4.199799247676e-04 9.284723554756e-05 0.0 
3.686556688252e-04 5.635951159015e-03 0.0 
3.099346247678e-04 -1.449517350959e-04 0.0 
4.819183512400e-04 7.200935830353e-03 0.0 
1.384189806709e-03 5.467007052901e-04 0.0 
7.367642775775e-04 -1.272295893380e-04 0.0 
5.125664852109e-04 7.370167070431e-05 0.0 
3.627379581619e-04 -6.471530544924e-04 0.0 
5.613578387701e-04 1.599994873556e-04 0.0 
7.982901954157e-04 -1.451187623051e-04 0.0 
2.784757725943e-04 -6.569662716611e-04 0.0 
6.505208143950e-04 -2.254336330607e-04 0.0 
8.617570004199e-04 -3.127883353712e-04 0.0 
9.084492837552e-04 -3.241359523735e-04 0.0 
4.074831840771e-04 -1.276859461978e-04 0.0 
1.227779157432e-04 -4.851383391334e-04 0.0 
1.180316942810e-04 -3.405826375126e-04 0.0 
6.696512221057e-04 2.806775593116e-05 0.0 
4.320571188342e-04 -6.235574954091e-04 0.0 
9.361432014822e-04 1.117437492612e-04 0.0 
1.119886707137e-03 1.525860304929e-04 0.0 
1.353715340882e-03 -6.561659388478e-06 0.0 
1.733132717171e-03 8.507866641874e-04 0.0 
3.346357474391e-04 3.235399668663e-03 0.0 
1.339580296194e-03 6.194142132419e-03 0.0 
7.343192546583e-04 -3.396918080646e-04 0.0 
1.275409478103e-03 5.408949190125e-04 0.0 
3.677253262363e-04 -6.611908752047e-04 0.0 
4.452932236764e-04 6.677269799773e-03 0.0 
4.647232363865e-04 7.699897694213e-03 0.0 
6.916142553091e-04 -3.219230699251e-04 0.0 
1.023672220678e-03 3.255561313170e-04 0.0 
5.058084177804e-04 4.772650059597e-03 0.0 
4.969416704953e-04 -5.848686745218e-04 0.0 
3.454093820407e-04 2.805615098457e-03 0.0 
3.110512934791e-04 2.770927147119e-03 0.0 
5.724271709637e-04 -5.402416346960e-04 0.0 
2.811561769769e-03 9.803233204099e-03 0.0 
7.985570634277e-04 -3.747252581029e-04 0.0 
5.933304186336e-04 6.747370565687e-05 0.0 
5.714206064798e-04 -1.327062230429e-04 0.0 
8.395419895003e-04 2.642535198272e-03 0.0 
2.996307281084e-04 3.202247376555e-03 0.0 
7.600055044321e-04 8.428006245109e-05 0.0 
8.440526027472e-04 1.111294277742e-04 0.0 
7.376149133807e-04 -3.449592409869e-04 0.0 
6.727103156969e-04 8.788542003098e-05 0.0 
4.586757598539e-04 4.739659620366e-03 0.0 
4.708653879824e-04 -1.536638312864e-04 0.0 
4.141282243300e-04 5.671634030181e-03 0.0 
4.058655281420e-04 4.224933703736e-03 0.0 
3.391925755549e-03 3.723788045836e-03 0.0 
2.798017907857e-04 3.645292622128e-03 0.0 
6.009088986598e-04 -2.767898128539e-04 0.0 
6.342098576993e-04 -1.552012048191e-04 0.0 
6.963691150060e-04 -4.103935690347e-04 0.0 
1.503002909342e-03 1.223795765179e-04 0.0 
4.163310823603e-04 5.188352285314e-03 0.0 
1.940163345716e-03 5.135230255448e-04 0.0 
7.325134885099e-04 -4.402571537470e-04 0.0 
5.231617811158e-04 -3.464335084644e-04 0.0 
4.626926007399e-04 5.222694920193e-03 0.0 
8.144745879707e-04 -3.821421145263e-04 0.0 
6.681030655418e-04 2.055365844693e-04 0.0 
3.297681315368e-04 4.637180152760e-03 0.0 
7.313574430272e-04 1.314008821505e-04 0.0 
6.629060979929e-04 3.284355485638e-04 0.0 
6.498933826378e-04 -3.009427524811e-04 0.0 
6.460037765491e-04 -4.920964652181e-04 0.0 
5.815197080005e-04 -3.752701434326e-04 0.0 
1.010267727443e-03 1.738189949183e-04 0.0 
3.193341514294e-04 6.087181422084e-03 0.0 
4.219179750323e-04 -3.922003703978e-04 0.0 
8.854026239232e-04 -3.213954705258e-04 0.0 
2.457727280722e-04 -7.067618828324e-04 0.0 
5.052924460321e-04 6.227455402061e-03 0.0 
7.647770972580e-04 -3.561372024757e-04 0.0 
1.212576190261e-03 1.959816332042e-04 0.0 
6.017481658792e-04 -4.449641724531e-04 0.0 
2.139261268077e-04 3.577200060107e-03 0.0 
9.095771209978e-04 -3.272417800210e-04 0.0 
1.255541515855e-03 2.920172652946e-04 0.0 
1.129530546901e-03 1.742553619685e-04 0.0 
1.199970899272e-03 2.257560737578e-04 0.0 
4.919432196349e-04 -2.246285527283e-04 0.0 
9.069226046172e-04 1.643439098760e-04 0.0 
2.851252760450e-03 2.700116300630e-03 0.0 
3.069023743082e-04 -6.838600275567e-04 0.0 
3.846082935804e-04 7.129145106327e-03 0.0 
2.381010243486e-03 1.205038870039e-03 0.0 
3.166358915265e-03 7.525571725519e-03 0.0 
3.623999780103e-04 6.120668643202e-03 0.0 
1.373051191506e-03 4.048173354839e-04 0.0 
6.713503378091e-04 5.839250047130e-03 0.0 
3.110889706416e-04 -6.914815131613e-04 0.0 
8.730256561912e-04 2.410832170201e-04 0.0 
2.370119289018e-03 1.292576278432e-03 0.0 
2.497851127233e-03 2.021069285184e-03 0.0 
2.491121233438e-04 2.249426965105e-03 0.0 
1.890519375610e-03 5.119029286021e-04 0.0 
5.457266667971e-04 -5.346127429049e-04 0.0 
1.596651544843e-03 3.852602256077e-04 0.0 
8.629910497258e-04 2.732032280902e-04 0.0 
1.818017388993e-03 6.773753672222e-04 0.0 
8.292125992044e-04 1.361407525071e-04 0.0 
3.709516545379e-04 4.671795845161e-03 0.0 
1.771435182264e-03 1.170658157286e-03 0.0 
1.396172288300e-03 2.950217014789e-04 0.0 
7.027858295948e-04 7.337625076315e-03 0.0 
4.113457165921e-04 -5.904466173304e-04 0.0 
9.973659140564e-04 -2.672921720491e-04 0.0 
3.179215893945e-03 5.776272598846e-03 0.0 
1.092900822825e-03 2.099493069283e-04 0.0 
2.927598345728e-03 8.828960151019e-03 0.0 
3.305569993759e-03 5.811369394696e-03 0.0 
5.613383012434e-04 5.289408610979e-03 0.0 
3.978819882578e-04 6.641750432301e-03 0.0 
7.166891684339e-04 6.845595803353e-03 0.0 
5.937590446457e-04 -2.021217892048e-04 0.0 
1.235827818633e-03 4.179070167314e-04 0.0 
1.799193128321e-03 5.004548808726e-04 0.0 
5.348449890327e-04 7.243111139477e-03 0.0 
9.941142345454e-04 2.173396059232e-03 0.0 
2.325870036030e-03 1.965501814473e-03 0.0 
1.287114855291e-03 2.711142492548e-04 0.0 
3.645029412056e-04 4.191412563410e-03 0.0 
1.378772452963e-03 7.703012400628e-06 0.0 
1.185443801567e-03 -1.365477062930e-04 0.0 
6.711498442978e-04 -4.166831239857e-04 0.0 
1.666384287664e-03 4.776135406430e-04 0.0 
1.063351048627e-03 -2.063773554094e-04 0.0 
5.620114623849e-04 5.775284436837e-03 0.0 
6.677641042554e-04 6.328679987077e-03 0.0 
3.236592268668e-03 2.910210611296e-03 0.0 
1.195223535418e-03 -1.110220390771e-04 0.0 
3.171995562317e-03 4.455004794530e-03 0.0 
1.095427510273e-03 -2.006128173042e-04 0.0 
1.289415087912e-03 -5.923532262555e-05 0.0 
7.013097058657e-04 -4.292294026632e-04 0.0 
1.458875281598e-03 5.323807908980e-04 0.0 
1.879645629582e-03 4.424616439552e-04 0.0 
3.153924771376e-04 3.678944666157e-03 0.0 
2.062057151532e-03 6.272840168255e-04 0.0 
1.691258571708e-03 4.541450819749e-04 0.0 
1.866653835040e-03 4.657697414519e-04 0.0 
3.421120448640e-03 5.073456595145e-03 0.0 
6.307175184479e-04 -4.884855705577e-04 0.0 
1.070082781503e-03 3.569959427529e-04 0.0 
9.213714671369e-04 3.180499498923e-04 0.0 
2.618583555980e-03 4.304257094703e-03 0.0 
1.487350331257e-03 9.578688592299e-05 0.0 
1.799236884422e-03 4.651639300200e-04 0.0 
5.104984198079e-04 5.741561185281e-03 0.0 
1.245892083657e-03 -7.964703522327e-05 0.0 
3.317881992252e-03 7.245415138813e-03 0.0 
8.183732214721e-04 -3.837547672695e-04 0.0 
1.628596651351e-03 6.640532281105e-04 0.0 
1.573264386584e-03 1.642046150825e-04 0.0 
7.352842847688e-04 -4.387639788427e-04 0.0 
4.987831579200e-04 -5.736858345135e-04 0.0 
1.758199144587e-03 3.752395029631e-04 0.0 
1.487318152834e-03 3.512175241614e-04 0.0 
1.776267092843e-03 2.550816605186e-03 0.0 
7.763476540776e-05 -4.132194504866e-04 0.0 
2.560973711394e-03 1.335306021737e-03 0.0 
2.223651179578e-03 8.367025386722e-04 0.0 
1.685827484379e-03 2.637860965573e-04 0.0 
6.112316424002e-04 6.296234264787e-03 0.0 
1.893370551163e-03 4.575706329490e-04 0.0 
8.078092938682e-04 -3.782909604777e-04 0.0 
1.765212826465e-03 3.318829076327e-04 0.0 
2.517126289942e-04 4.088870252454e-03 0.0 
7.157556881129e-04 -4.239401918821e-04 0.0 
4.372106045100e-04 -4.905814834686e-04 0.0 
5.726353019178e-04 -4.672170788597e-04 0.0 
1.675947177281e-03 5.863618733012e-04 0.0 
1.402285408955e-03 5.101898245931e-05 0.0 
2.399441306008e-03 1.050756881616e-03 0.0 
1.948409294814e-03 5.072026717445e-04 0.0 
1.134213683852e-03 3.858216116155e-04 0.0 
5.178043118349e-04 -5.258905298844e-04 0.0 
9.808192086965e-04 6.975795737369e-03 0.0 
6.514168319737e-04 -4.858367854132e-04 0.0 
1.560618632771e-03 5.516845081935e-04 0.0 
2.040602676639e-03 2.828470633417e-03 0.0 
1.786388097530e-03 6.441466542314e-03 0.0 
5.389184614020e-04 3.392621873406e-03 0.0 
1.499529599320e-03 2.229384097638e-03 0.0 
3.351846286101e-03 3.453666477474e-03 0.0 
2.360831581304e-03 3.558720467831e-03 0.0 
1.394341717032e-03 6.519462384747e-04 0.0 
1.609218224309e-03 2.039949056048e-04 0.0 
3.491598076885e-03 5.056018005677e-03 0.0 
2.093369071620e-03 1.959019576149e-03 0.0 
1.117687451697e-03 6.445275795662e-04 0.0 
1.166977909392e-03 -1.426947471017e-04 0.0 
2.109158668813e-03 6.943479097809e-04 0.0 
2.287871162140e-03 8.985640412400e-04 0.0 
6.424521629217e-04 -4.764768052444e-04 0.0 
2.050370157565e-03 6.218682558493e-04 0.0 
2.449982615324e-03 1.156769377130e-03 0.0 
2.721167095920e-03 1.576040267382e-03 0.0 
1.297275465820e-03 -4.251204316180e-05 0.0 
2.529037972517e-03 1.648056346667e-03 0.0 
6.141447148124e-04 5.320928498982e-03 0.0 
2.876441087646e-03 1.946691186460e-03 0.0 
1.287841012004e-03 4.587490447478e-04 0.0 
1.667537856250e-03 9.506767338579e-04 0.0 
1.060250398835e-03 4.380412368277e-04 0.0 
2.228546719572e-03 8.149226038577e-04 0.0 
1.191576740683e-03 1.833895574857e-03 0.0 
2.411201140326e-03 5.593902377226e-03 0.0 
1.468554018031e-03 5.694519509084e-04 0.0 
1.870964430521e-03 5.929466167827e-03 0.0 
6.901631387104e-04 3.022594795744e-03 0.0 
2.374617903625e-03 1.001544569548e-03 0.0 
3.366340140080e-03 6.959712762838e-03 0.0 
1.939688008852e-03 5.414956144230e-03 0.0 
3.169947497304e-03 6.735381427239e-03 0.0 
1.216525659825e-03 5.559626308862e-04 0.0 
2.619661213751e-04 1.439932527328e-03 0.0 
9.678920903616e-04 2.993708203661e-04 0.0 
1.470184277948e-03 9.464323549638e-04 0.0 
2.193562295484e-04 2.671303849860e-03 0.0 
2.318511825167e-03 1.349859038000e-03 0.0 
5.482285385674e-04 6.755029629117e-03 0.0 
5.694775396488e-04 3.871029267917e-03 0.0 
2.616547998034e-03 1.389240337858e-03 0.0 
3.122597664709e-03 2.609984867717e-03 0.0 
4.133215714815e-04 2.420822400903e-03 0.0 
1.335856621138e-03 3.382905523555e-04 0.0 
6.600798640527e-04 4.864600846147e-03 0.0 
2.237433914392e-03 1.075565086077e-03 0.0 
1.488789489431e-03 8.464375853473e-04 0.0 
6.981441228863e-04 4.407724939060e-03 0.0 
8.465900717583e-04 9.287755496586e-04 0.0 
9.537494794177e-04 3.440873895655e-04 0.0 
1.721710632287e-03 2.959691324809e-04 0.0 
6.026546923586e-04 6.790085240288e-03 0.0 
6.452838153746e-04 7.314560235539e-03 0.0 
2.117225219730e-03 6.859972083344e-04 0.0 
1.543034933073e-03 4.310945191126e-04 0.0 
1.568762919668e-03 4.992990351735e-04 0.0 
5.290058236921e-04 -4.488402693684e-04 0.0 
2.973038475896e-03 4.761312783925e-03 0.0 
3.009267093437e-03 2.205411981102e-03 0.0 
2.774821172296e-03 1.730169250176e-03 0.0 
3.358007795963e-03 6.036475003359e-03 0.0 
3.270349322988e-04 1.930379160948e-03 0.0 
1.013081011230e-03 2.670285283984e-03 0.0 
2.481376411188e-04 2.705274776136e-03 0.0 
2.834463108233e-03 8.695502217935e-03 0.0 
8.426148436846e-04 3.996692395785e-03 0.0 
1.458575825108e-03 3.735833589982e-04 0.0 
3.102688175279e-04 2.334440424497e-03 0.0 
8.356582151746e-04 4.941471701474e-03 0.0 
1.781104691754e-03 3.569158300079e-04 0.0 
3.148748820749e-03 2.669417139948e-03 0.0 
6.435741682530e-04 4.380641777649e-03 0.0 
4.577549372337e-04 2.887677322003e-03 0.0 
4.944159981897e-04 4.291031051198e-03 0.0 
6.062492401354e-04 4.835571064471e-03 0.0 
1.126849752772e-03 3.421646645559e-04 0.0 
1.696258190220e-03 1.204758679221e-03 0.0 
1.340011119452e-03 4.359810957828e-04 0.0 
1.602062189536e-03 3.517201531769e-04 0.0 
2.260397770501e-03 9.908296761713e-03 0.0 
2.227115653204e-03 1.374781977024e-03 0.0 
1.176063974367e-03 5.016788186579e-03 0.0 
5.750694301295e-04 -5.354751297954e-04 0.0 
2.918292100085e-03 1.984335139700e-03 0.0 
2.772322893668e-03 1.656958636770e-03 0.0 
2.951824238578e-03 2.304495687104e-03 0.0 
2.414822056302e-03 2.968164713199e-03 0.0 
3.064488955864e-03 2.417121921355e-03 0.0 
2.723863930487e-03 1.993881850890e-03 0.0 
2.492708694380e-03 8.370383161914e-03 0.0 
1.719442795855e-03 3.223379841148e-04 0.0 
9.194009757422e-04 5.945614622666e-03 0.0 
5.891746223910e-04 8.900506590050e-03 0.0 
3.131345482048e-04 1.135964017256e-02 0.0 
1.696712972502e-03 3.853140586916e-04 0.0 
2.144387674872e-03 1.185257567743e-03 0.0 
8.039170977511e-04 2.224531346283e-03 0.0 
3.158324050208e-03 2.649435590073e-03 0.0 
1.679540773238e-03 3.415228187848e-04 0.0 
7.297731416995e-04 5.869069458798e-03 0.0 
1.014471097863e-03 1.246702349019e-02 0.0 
2.364002163886e-03 1.456635520363e-03 0.0 
2.963099806035e-03 2.178039889689e-03 0.0 
2.449177489702e-03 7.963857799351e-03 0.0 
1.492457371126e-03 4.418978761516e-04 0.0 
1.985506933655e-03 1.671487168752e-03 0.0 
1.493767663996e-03 4.961268410948e-04 0.0 
1.194699286442e-03 4.597772518855e-04 0.0 
2.570080473219e-03 1.773075203219e-03 0.0 
5.420504069756e-04 4.322432168068e-03 0.0 
2.237016615901e-03 2.542083718773e-03 0.0 
1.154473987155e-03 4.238754104426e-04 0.0 
1.486057301967e-03 1.281169285761e-02 0.0 
7.863119454125e-04 5.406171920052e-03 0.0 
1.679468150181e-03 1.376359266231e-03 0.0 
5.217844022888e-04 3.841849440014e-03 0.0 
2.823341381492e-03 2.070888862629e-03 0.0 
3.171365896818e-03 2.679014382377e-03 0.0 
1.047214512279e-03 -1.779792056818e-05 0.0 
1.568050844312e-03 3.951313748060e-03 0.0 
4.104116481219e-04 3.303194528232e-03 0.0 
4.902200168061e-04 -5.608696283433e-04 0.0 
1.795162818560e-03 1.277926724687e-02 0.0 
2.346102220213e-03 2.990987528639e-03 0.0 
2.212034903142e-04 2.216926886231e-03 0.0 
1.687227241590e-03 1.293696408294e-03 0.0 
3.027866783859e-03 5.676483637105e-03 0.0 
7.745636214783e-04 4.918078235283e-03 0.0 
1.433979257174e-03 1.477523459130e-04 0.0 
2.307667167041e-03 2.608257656358e-03 0.0 
3.313288804948e-03 7.074807003961e-03 0.0 
1.203847234825e-03 8.412262890610e-04 0.0 
1.790897179296e-03 1.549752421823e-03 0.0 
1.491673641497e-03 1.174430086772e-03 0.0 
3.019183374664e-03 2.363128629570e-03 0.0 
1.404603689310e-04 4.975527119361e-04 0.0 
1.950282645174e-03 1.253181168908e-02 0.0 
9.239335462880e-04 2.668108928745e-04 0.0 
3.355372388337e-03 3.814516527389e-03 0.0 
9.800290618163e-04 5.468890707658e-03 0.0 
2.035041826036e-03 3.800323756029e-03 0.0 
1.023619258939e-03 4.035117550185e-04 0.0 
1.397133215352e-03 9.471526872537e-04 0.0 
5.362241960279e-04 -4.953329335125e-04 0.0 
2.464962126966e-03 1.792324177485e-03 0.0 
2.446766387898e-03 1.103080985806e-03 0.0 
1.915761373430e-03 1.511459306285e-03 0.0 
3.225929949176e-03 8.006763105701e-03 0.0 
1.074806098117e-03 4.523483217263e-03 0.0 
1.455478455380e-03 9.786939614971e-04 0.0 
7.263981426202e-04 5.379777692327e-03 0.0 
8.556817659442e-04 2.233025260544e-03 0.0 
7.263710296710e-04 3.951887046022e-03 0.0 
7.423991343633e-04 3.497236799335e-03 0.0 
2.627568278251e-03 6.042926204945e-03 0.0 
9.515612116756e-04 2.455317121581e-04 0.0 
8.140909751196e-04 4.456556586260e-03 0.0 
3.387449621262e-03 3.912093626332e-03 0.0 
1.988390659166e-03 1.207186875990e-02 0.0 
1.197550245010e-03 7.999964326228e-04 0.0 
2.714612021504e-03 4.205625084198e-03 0.0 
5.575416199636e-04 -5.132989434564e-04 0.0 
2.130276246842e-03 1.695628073018e-03 0.0 
5.519167293240e-05 -7.641584599048e-04 0.0 
3.331453873372e-03 5.134330756464e-03 0.0 
2.259843819150e-03 1.472050925976e-03 0.0 
5.824916030889e-04 2.546960900953e-03 0.0 
5.532891476259e-04 2.098396163145e-03 0.0 
2.437772830534e-03 1.678923325867e-03 0.0 
5.863897382539e-04 3.420958309090e-03 0.0 
3.432302600116e-03 4.114515014441e-03 0.0 
2.178311527751e-03 3.227625430677e-03 0.0 
1.930583400292e-03 1.144210868048e-02 0.0 
1.147954747852e-03 2.265231922869e-03 0.0 
1.801903080716e-03 1.068170092933e-02 0.0 
1.718586026981e-03 1.026247705894e-02 0.0 
3.289331662951e-03 3.153665990303e-03 0.0 
1.622410041560e-03 9.824480521561e-03 0.0 
3.157659030333e-03 3.926493345762e-03 0.0 
3.473752450535e-03 4.943460430519e-03 0.0 
3.026505522279e-03 2.221377067063e-03 0.0 
2.100390589200e-03 2.481020611588e-03 0.0 
3.240747963104e-03 2.929600521972e-03 0.0 
4.179133592906e-04 2.859153121054e-03 0.0 
9.392924069614e-04 2.179113022244e-03 0.0 
1.135396257128e-03 2.658676167733e-04 0.0 
1.691118602249e-03 1.259938350037e-03 0.0 
2.552881983854e-03 1.263027797440e-03 0.0 
6.879129622409e-04 3.473716981196e-03 0.0 
3.104344460775e-03 2.442684249746e-03 0.0 
7.674501880708e-04 1.941155839348e-04 0.0 
6.715187711340e-04 3.926448865013e-03 0.0 
9.044168117246e-04 4.014811612642e-03 0.0 
2.633934517758e-03 1.714327505796e-03 0.0 
3.351744894341e-03 3.485703839229e-03 0.0 
1.833853101417e-03 2.504915807208e-03 0.0 
2.322398796683e-03 5.670986133718e-03 0.0 
1.996458814131e-03 2.144259891494e-03 0.0 
2.619279764324e-03 3.766816716311e-03 0.0 
3.311077612426e-03 7.465633330256e-03 0.0 
2.954466788350e-03 5.837171036609e-03 0.0 
5.963473072938e-04 1.534112262264e-04 0.0 
8.758486170108e-04 4.477842117885e-03 0.0 
3.293385965626e-03 3.205093262734e-03 0.0 
2.689455941199e-03 4.740865363821e-03 0.0 
2.037406175781e-03 1.194283509962e-03 0.0 
4.513837460989e-04 3.334917844553e-03 0.0 
1.562000659337e-03 2.212549770745e-03 0.0 
1.056483443816e-03 5.977354471750e-03 0.0 
1.664621490182e-03 7.550243469807e-04 0.0 
3.095458308601e-03 2.432495368118e-03 0.0 
2.000168536168e-03 1.111535583044e-03 0.0 
3.289385110143e-03 5.358515980321e-03 0.0 
4.532718495829e-04 2.460278239755e-03 0.0 
1.248979156536e-03 1.825782913022e-03 0.0 
2.846853757923e-03 1.964871458681e-03 0.0 
2.413274890191e-03 3.640772782833e-03 0.0 
2.062367840259e-03 2.197863702033e-03 0.0 
3.202307961618e-03 4.509160855921e-03 0.0 
3.387777425322e-03 3.804250190263e-03 0.0 
2.774454469465e-03 1.916353374087e-03 0.0 
1.686755727468e-03 6.723164874260e-04 0.0 
2.310673883553e-03 3.225654105119e-03 0.0 
3.003648354474e-03 2.207955905881e-03 0.0 
1.851882270433e-03 5.450990894836e-03 0.0 
5.470986032931e-04 1.381091767799e-04 0.0 
1.904863214231e-03 4.941822159041e-03 0.0 
2.195059366407e-03 2.620382966386e-03 0.0 
1.782041332619e-03 5.958479229453e-03 0.0 
1.602404197366e-03 6.965057013612e-03 0.0 
2.375518879665e-03 5.126090041665e-03 0.0 
1.920726674376e-03 1.373635413152e-03 0.0 
1.080921321394e-03 2.746771148183e-04 0.0 
9.645628204552e-04 4.980611663181e-03 0.0 
5.106089590626e-04 2.080802936129e-03 0.0 
1.697682950805e-03 6.463102572454e-03 0.0 
3.227675200076e-03 3.777224987239e-03 0.0 
1.838764470278e-03 1.930872395487e-03 0.0 
3.418006968008e-04 2.356255130773e-03 0.0 
3.386502067132e-03 4.661473924867e-03 0.0 
3.291000906239e-03 4.712336374104e-03 0.0 
3.291571732431e-03 3.494911697406e-03 0.0 
1.005944218951e-03 4.512228023969e-03 0.0 
3.016349779449e-03 8.286897420785e-03 0.0 
3.065540361117e-03 3.562891559989e-03 0.0 
3.100577324721e-03 8.052874464703e-03 0.0 
2.317983654799e-03 1.767364987993e-03 0.0 
1.367569175267e-03 1.335918778166e-03 0.0 
3.190362762111e-03 2.918944800594e-03 0.0 
1.485478534394e-03 3.483214656751e-03 0.0 
6.417476778869e-04 2.127594735281e-03 0.0 
2.910553787468e-03 8.165697035585e-03 0.0 
2.678670411645e-03 1.467131170408e-03 0.0 
1.627560858677e-03 1.605487644450e-03 0.0 
1.032856454355e-03 4.996878352409e-03 0.0 
1.282752968396e-03 3.483269776516e-04 0.0 
3.484703916478e-03 4.743692799092e-03 0.0 
1.193916399359e-03 3.322056474050e-03 0.0 
3.931474179415e-04 1.102305201424e-04 0.0 
2.997487081811e-03 5.220970632772e-03 0.0 
2.673717073134e-03 2.426977308849e-03 0.0 
1.655042141078e-03 2.118257237093e-03 0.0 
6.812563267828e-04 3.448934576333e-03 0.0 
1.354894610418e-03 3.944231413332e-04 0.0 
3.243585588609e-03 6.225237875160e-03 0.0 
1.129365669635e-03 5.988441102563e-03 0.0 
1.387666225655e-03 1.830727800263e-04 0.0 
3.265617840702e-03 3.204034783785e-03 0.0 
7.116882508290e-04 1.727123497265e-04 0.0 
3.132304909263e-03 4.111410250531e-03 0.0 
3.230417096375e-03 3.471205101587e-03 0.0 
2.885273131950e-03 4.926045560222e-03 0.0 
1.117991466291e-03 2.873529990068e-03 0.0 
2.421341773347e-03 3.470646815615e-03 0.0 
2.304733389441e-03 1.668345672427e-03 0.0 
9.735298607249e-04 1.490103259897e-03 0.0 
2.096148978923e-03 2.764478305831e-03 0.0 
2.870336657256e-03 3.573516158527e-03 0.0 
1.059899520117e-03 2.291578339040e-04 0.0 
2.953556355611e-04 1.894336091768e-03 0.0 
9.105363564118e-04 6.325383704000e-04 0.0 
2.130101959817e-03 1.612983850702e-03 0.0 
3.436349538583e-03 4.066090231769e-03 0.0 
2.683575878510e-03 4.191196858168e-03 0.0 
4.482576688470e-04 1.126034944725e-04 0.0 
3.326398606782e-04 -2.153172352619e-04 0.0 
2.294368022078e-03 3.075559450874e-03 0.0 
9.128820984269e-04 5.451036277576e-03 0.0 
8.902385821049e-04 2.175901222451e-04 0.0 
1.277443614416e-03 3.916785550433e-04 0.0 
2.289938821529e-04 9.340529726574e-03 0.0 
1.521935891600e-04 9.335916328181e-03 0.0 
1.734283770569e-03 4.999066559724e-03 0.0 
2.589875018625e-03 3.776411212049e-03 0.0 
1.202158181324e-03 1.202983730829e-04 0.0 
2.241772687115e-03 4.739502133786e-03 0.0 
3.254390012293e-03 4.106248308077e-03 0.0 
1.425492086441e-03 7.308554855464e-04 0.0 
3.461042355702e-03 4.359844361881e-03 0.0 
1.252020002695e-04 5.071733451343e-04 0.0 
1.639660400346e-03 7.945841685976e-03 0.0 
3.317728835845e-03 4.494340731030e-03 0.0 
1.491030994441e-03 2.446685935340e-04 0.0 
2.892536693603e-03 4.309145002021e-03 0.0 
1.609164656942e-03 2.386676664673e-04 0.0 
2.823574424928e-03 4.491555555675e-03 0.0 
2.776583112931e-03 5.650676794955e-03 0.0 
1.121204921535e-03 5.496244027698e-03 0.0 
2.175232968032e-03 4.287412090461e-03 0.0 
2.016888785793e-03 3.902804424067e-03 0.0 
1.396223310449e-04 -7.858382557349e-04 0.0 
1.558334144863e-03 1.812712854843e-04 0.0 
3.001103686401e-03 7.970003071706e-03 0.0 
2.116573980569e-03 5.324300439492e-03 0.0 
1.990956618797e-03 4.902600383610e-03 0.0 
1.706168280833e-03 1.103867381577e-03 0.0 
2.963387629313e-05 -7.414314989840e-04 0.0 
1.983091709293e-03 2.708676708013e-03 0.0 
3.156290247858e-03 5.321350866423e-03 0.0 
1.447740774831e-03 1.051211146034e-04 0.0 
1.801237462321e-03 1.023055825721e-02 0.0 
1.705305250982e-03 9.804256346485e-03 0.0 
1.195550562381e-03 5.504898668575e-03 0.0 
2.463707974696e-03 6.541151215411e-03 0.0 
1.362234255952e-03 1.361101658746e-04 0.0 
2.095819713186e-03 1.095322064362e-03 0.0 
2.086220114384e-03 3.093403144703e-03 0.0 
7.083763304904e-04 7.283486570525e-04 0.0 
5.918474576370e-04 2.982790087637e-03 0.0 
1.113311389073e-03 -2.273736265595e-05 0.0 
9.441019548121e-04 2.100257420360e-04 0.0 
2.248368800332e-04 -7.225171537743e-04 0.0 
2.149954740110e-03 1.048361315728e-03 0.0 
3.059693095217e-03 5.057163758832e-03 0.0 
1.700613053770e-04 -7.699541005378e-04 0.0 
5.451764921870e-04 2.955469596540e-03 0.0 
1.940006275907e-03 3.360319282802e-03 0.0 
2.204394391041e-03 5.267337694583e-03 0.0 
2.854960925102e-03 5.517907603887e-03 0.0 
2.755809096347e-03 1.614837072088e-03 0.0 
2.180397146424e-03 8.728207104935e-04 0.0 
5.386620941379e-04 2.530676010984e-03 0.0 
2.008188496122e-03 7.899719380306e-04 0.0 
3.162939900376e-03 4.700541914051e-03 0.0 
3.209564081768e-03 5.127902656093e-03 0.0 
-9.669704256757e-05 1.025605470960e-02 0.0 
1.678934960648e-03 3.210929134249e-03 0.0 
1.986249125017e-03 2.335873745422e-03 0.0 
1.526588239055e-03 6.483728638112e-03 0.0 
1.804603004529e-03 1.990583191264e-03 0.0 
3.250893677008e-03 6.697661987880e-03 0.0 
1.252502473378e-03 3.591482895143e-03 0.0 
1.704715673045e-03 2.072730920103e-03 0.0 
1.768550649764e-03 9.319658031913e-03 0.0 
1.939072935667e-03 2.395397162632e-03 0.0 
8.737581346944e-04 1.813421300181e-04 0.0 
2.797403467894e-03 3.944965624825e-03 0.0 
1.541939281634e-03 2.166833948338e-04 0.0 
1.573559049198e-03 2.666370283031e-04 0.0 
6.910361438220e-04 2.148001543112e-03 0.0 
2.302060188337e-03 9.429206282377e-04 0.0 
2.816146970751e-03 5.062295131834e-03 0.0 
3.256827706140e-03 3.468434211012e-03 0.0 
1.785662659519e-03 6.940897644983e-04 0.0 
3.397986449763e-03 4.416428726431e-03 0.0 
2.919232915961e-03 3.289671248965e-03 0.0 
2.829467461128e-03 1.825362149539e-03 0.0 
3.130973156824e-03 3.728441724209e-03 0.0 
2.159450542135e-03 4.803666030211e-03 0.0 
3.044631077730e-03 3.368399479236e-03 0.0 
2.458972626045e-03 5.044560769204e-03 0.0 
1.915930942421e-03 1.305005722042e-03 0.0 
2.112055962503e-03 1.445334844026e-03 0.0 
3.444503400659e-03 4.543810463823e-03 0.0 
1.281436691855e-03 5.998271565751e-03 0.0 
7.641328247454e-04 1.675032760189e-04 0.0 
6.994421384910e-04 1.457651855202e-04 0.0 
1.996263120811e-03 6.943896447732e-03 0.0 
2.401690750309e-03 4.591179227353e-03 0.0 
4.334748973243e-04 1.199974750067e-04 0.0 
2.471023660282e-03 1.068065285090e-02 0.0 
1.078823542837e-03 3.000754164731e-05 0.0 
4.282390070016e-04 1.041967963265e-02 0.0 
5.977488605739e-04 1.356722097813e-04 0.0 
2.961758645688e-03 3.973125490319e-03 0.0 
2.741178751602e-04 -1.875812788603e-04 0.0 
2.675820315818e-03 2.559898744531e-03 0.0 
1.360691829121e-03 6.000372313801e-03 0.0 
1.443042110474e-03 6.487546353236e-03 0.0 
3.006046371603e-03 4.625894569323e-03 0.0 
1.957725134135e-03 1.101187627744e-02 0.0 
1.886321161983e-03 1.063533127551e-02 0.0 
5.392354055105e-04 1.199334823383e-04 0.0 
2.143311692005e-03 8.820381389498e-04 0.0 
2.683662725160e-03 1.489068067215e-03 0.0 
2.211295985350e-03 1.145228451473e-03 0.0 
2.947052012733e-03 2.020484893537e-03 0.0 
3.096996983487e-03 4.049322825730e-03 0.0 
1.875173931665e-03 1.107683592374e-02 0.0 
1.579609913414e-03 7.472444550896e-03 0.0 
1.917733635807e-04 9.625198368444e-03 0.0 
2.094355688645e-03 1.362440949193e-03 0.0 
3.438687466233e-03 4.272519601769e-03 0.0 
1.197891407448e-03 8.377643629118e-04 0.0 
2.337029606407e-04 6.414909952673e-05 0.0 
2.933080997102e-03 2.017252613982e-03 0.0 
3.611463786660e-04 1.079743727269e-04 0.0 
2.965878424336e-03 2.778613732192e-03 0.0 
1.444968144277e-03 1.117133218924e-03 0.0 
3.056019342852e-03 4.462720934873e-03 0.0 
2.737742126440e-03 3.428561124066e-03 0.0 
1.515539075158e-03 6.974431194614e-04 0.0 
1.710195891612e-03 3.015479159153e-04 0.0 
2.616213604606e-03 4.852623661391e-03 0.0 
2.862835668967e-03 1.826794675998e-03 0.0 
2.664526821987e-03 5.306822620471e-03 0.0 
3.330468542299e-03 6.642812676182e-03 0.0 
2.640468276997e-03 2.945652179956e-03 0.0 
2.851314185162e-03 1.806610008123e-03 0.0 
1.302545024709e-03 1.706827722157e-04 0.0 
2.582992754761e-03 5.412923018918e-03 0.0 
5.557702207710e-04 7.448676320663e-03 0.0 
3.067337201720e-03 3.024117835450e-03 0.0 
1.372436920424e-03 9.735755633879e-03 0.0 
4.300835300984e-04 -5.698546172966e-04 0.0 
1.181748148344e-03 7.603064938019e-05 0.0 
1.920792257807e-03 2.942662611116e-03 0.0 
1.524694114333e-03 6.004452172891e-03 0.0 
2.051876289870e-03 1.166570763704e-02 0.0 
6.484543723630e-05 2.465814184825e-04 0.0 
-8.897576870337e-05 8.990809250550e-03 0.0 
2.014667185194e-03 1.135555932223e-02 0.0 
2.583588895689e-03 1.346743122953e-03 0.0 
9.428365916710e-04 -5.892654826282e-05 0.0 
2.255605537074e-03 9.489539787778e-03 0.0 
2.648112947018e-03 1.764925674067e-03 0.0 
2.294785059024e-03 9.675818147325e-04 0.0 
2.882141651175e-03 4.355211438716e-03 0.0 
2.818616185009e-03 2.581889940817e-03 0.0 
1.407151105910e-03 2.701581792621e-03 0.0 
2.215031808726e-03 6.412636705450e-03 0.0 
1.219875293313e-03 2.848988454058e-05 0.0 
8.746506722680e-04 -4.762469568384e-05 0.0 
1.182771029400e-03 -9.314529936116e-05 0.0 
1.659403692136e-03 8.871689670844e-03 0.0 
1.609140950740e-03 5.997845500117e-03 0.0 
8.545417420634e-05 1.138342521646e-06 0.0 
1.782959888593e-04 -7.542149976280e-04 0.0 
4.022519362130e-04 3.719777729067e-03 0.0 
8.815374657658e-04 -1.720866684059e-04 0.0 
7.729747825845e-04 -7.993278337510e-05 0.0 
3.045552238149e-03 2.603834524953e-03 0.0 
2.650505127443e-03 1.929966532150e-03 0.0 
2.820473359272e-03 2.938280253877e-03 0.0 
1.002280192327e-03 3.367490704658e-05 0.0 
1.650234981753e-03 5.013389460934e-03 0.0 
7.042802759718e-04 -6.357847364558e-05 0.0 
3.135480717786e-03 2.888144887659e-03 0.0 
2.477397661645e-03 4.505342517988e-03 0.0 
9.500410905088e-04 7.984889997614e-03 0.0 
2.318962206483e-03 2.059943889416e-03 0.0 
6.052805197454e-04 -8.838029783227e-05 0.0 
9.024852423659e-04 -2.828702589926e-06 0.0 
2.055987836175e-03 1.216495177477e-02 0.0 
2.919101542723e-03 2.132985325801e-03 0.0 
5.355065061953e-04 -6.849563741206e-05 0.0 
3.402535122825e-05 5.858653744611e-03 0.0 
3.769574800980e-05 6.824861169392e-03 0.0 
2.064733587095e-03 1.194144115870e-02 0.0 
8.263231465524e-04 6.714898392431e-06 0.0 
2.308007547635e-03 1.237065672404e-03 0.0 
1.988735941869e-03 9.797287767381e-03 0.0 
1.450680029846e-03 1.071641562603e-03 0.0 
9.773389820139e-04 9.658043058736e-05 0.0 
2.306068666067e-03 1.125221228098e-03 0.0 
3.175335639174e-03 3.346582362538e-03 0.0 
1.972126454545e-03 1.177479031012e-02 0.0 
4.382643890244e-04 -8.684367753414e-05 0.0 
7.166660789917e-05 -6.518447153926e-04 0.0 
1.613468675469e-03 8.423376566467e-03 0.0 
7.297940698418e-04 -2.172678497196e-05 0.0 
2.580362397038e-03 1.302121825284e-03 0.0 
1.256703022026e-03 7.945243436123e-05 0.0 
7.375236195334e-04 6.166085364306e-03 0.0 
4.185701838051e-05 3.017097208775e-03 0.0 
2.602146588878e-03 1.467425508538e-03 0.0 
1.652345551758e-03 9.282546695289e-04 0.0 
2.773194848506e-03 3.302060326229e-03 0.0 
6.554542465913e-04 -7.769048957113e-06 0.0 
5.601664391712e-04 -2.973607721052e-05 0.0 
2.965033920093e-03 2.548325728807e-03 0.0 
6.987491330981e-04 2.864172040573e-04 0.0 
8.634360608453e-04 6.867261324139e-03 0.0 
4.869681632200e-04 -1.265059345895e-05 0.0 
1.559447658649e-03 7.551779516229e-04 0.0 
1.960799429064e-03 6.896927989007e-04 0.0 
2.396428946309e-03 4.066872226516e-03 0.0 
2.487338911505e-03 1.085326873368e-02 0.0 
2.251697284846e-03 4.220618456490e-03 0.0 
6.020216829779e-04 2.213725451409e-04 0.0 
-3.590396549744e-04 3.935663798863e-03 0.0 
6.037467906374e-06 2.641425648029e-04 0.0 
1.769175213755e-05 1.547310967310e-05 0.0 
2.361695372393e-05 8.356380525139e-03 0.0 
2.262459676415e-03 9.245537947287e-04 0.0 
2.844911136602e-03 3.812131246912e-03 0.0 
3.149581160321e-03 3.149528275031e-03 0.0 
3.931193009992e-04 -5.529223803721e-04 0.0 
1.729161693742e-05 9.194854155200e-03 0.0 
1.743805031608e-04 2.178523759972e-03 0.0 
1.678910383716e-03 5.494326857673e-03 0.0 
1.607260921553e-03 9.354247062417e-03 0.0 
3.650099224567e-04 3.333734139557e-04 0.0 
6.297845550605e-05 -7.124390533227e-04 0.0 
3.591818656962e-04 3.007793052597e-04 0.0 
1.594715148562e-03 5.512057098197e-03 0.0 
1.915606237682e-03 4.945991162102e-04 0.0 
2.979622291132e-03 4.059203426352e-03 0.0 
2.174374901808e-03 8.521204439981e-04 0.0 
2.153968334819e-03 1.033983041206e-02 0.0 
1.957404927604e-03 6.188327294932e-04 0.0 
1.689184683372e-03 4.522398283622e-03 0.0 
2.323910303715e-04 7.512733408292e-05 0.0 
2.519408322355e-03 1.399776526967e-03 0.0 
2.161638863176e-03 3.784248293877e-03 0.0 
-2.073082662690e-04 3.481942700277e-03 0.0 
2.847210143579e-03 2.077794095964e-03 0.0 
1.318635956008e-03 4.066577660572e-03 0.0 
1.613285371902e-03 2.285591250354e-04 0.0 
1.726671841520e-03 4.542691390708e-04 0.0 
3.016539796301e-03 3.899273800141e-03 0.0 
1.472890734689e-03 1.556223073019e-03 0.0 
1.940219740634e-03 1.249758694014e-02 0.0 
2.002045860016e-03 1.238643087831e-02 0.0 
1.506426245197e-03 1.931022154246e-04 0.0 
2.493177915321e-03 1.203959716017e-03 0.0 
3.340479174042e-03 4.041072299493e-03 0.0 
2.230663613303e-03 3.716338773268e-03 0.0 
8.599957761461e-04 1.745542567920e-03 0.0 
1.981781922457e-03 1.233134524795e-02 0.0 
6.278417004029e-05 4.855982058411e-03 0.0 
1.078725983815e-03 1.474147043807e-03 0.0 
3.060497184927e-03 3.095505915710e-03 0.0 
1.306531574854e-03 1.053502936386e-02 0.0 
2.560219888711e-03 1.048254712463e-02 0.0 
2.395314832727e-03 1.040644871054e-03 0.0 
1.943060290453e-03 3.953101304028e-03 0.0 
2.494943730185e-03 1.181275315155e-03 0.0 
1.641613368735e-03 6.141103115416e-03 0.0 
2.354702744095e-03 1.094706981090e-03 0.0 
2.276023059173e-03 1.069834949254e-02 0.0 
3.335758279966e-03 3.808028061448e-03 0.0 
2.386273888550e-03 1.087990458410e-03 0.0 
2.917281363836e-03 3.525700822864e-03 0.0 
2.413418589516e-04 6.050816519583e-03 0.0 
1.399185343523e-03 8.005063060322e-05 0.0 
1.751873236542e-03 9.027472814105e-03 0.0 
2.226128460149e-03 9.835157658683e-04 0.0 
2.360749684332e-03 1.092768590286e-02 0.0 
4.404468925997e-04 4.147162011191e-03 0.0 
1.544611498671e-05 1.977466056119e-03 0.0 
2.101377244233e-05 2.945359279719e-03 0.0 
2.895762701491e-04 1.709493289676e-04 0.0 
2.164285835486e-03 9.749956766845e-04 0.0 
1.043683748025e-03 -1.369221003681e-04 0.0 
1.070818733838e-03 -1.609566957027e-04 0.0 
1.857614532045e-03 2.992107739456e-03 0.0 
2.940927807582e-03 3.374235487481e-03 0.0 
2.116087117493e-03 3.295916610397e-03 0.0 
2.741103468100e-03 1.836819513898e-03 0.0 
4.443225586869e-04 9.691319740824e-03 0.0 
4.468375215194e-04 1.534994291041e-04 0.0 
9.261645321052e-04 -2.011526287430e-04 0.0 
1.873955771007e-03 1.102776566582e-03 0.0 
3.265655967859e-03 3.898025074976e-03 0.0 
2.027215130228e-04 -7.374672631668e-04 0.0 
1.938408814846e-03 4.443844475337e-03 0.0 
3.016174417589e-03 2.382339219295e-03 0.0 
6.139377142896e-04 6.195928782028e-04 0.0 
2.760050205336e-03 2.195705469329e-03 0.0 
4.560495859894e-05 -2.408590267332e-05 0.0 
1.771958388616e-03 4.501188633545e-03 0.0 
8.980137561567e-04 1.530448811489e-04 0.0 
1.847573585930e-04 -2.050625041105e-04 0.0 
1.915598881035e-03 3.465033755567e-03 0.0 
2.117429850798e-03 1.860999407835e-03 0.0 
1.732110246664e-03 3.975512418004e-04 0.0 
1.459019721247e-04 -6.412986182062e-04 0.0 
3.179443006818e-03 3.543128988458e-03 0.0 
1.792166581492e-05 6.363716568838e-03 0.0 
6.506356794147e-04 9.985575619242e-04 0.0 
8.050322718050e-04 9.682808845963e-04 0.0 
4.567845204178e-04 1.040027591472e-03 0.0 
8.224023651260e-05 7.706054301748e-03 0.0 
2.947340804989e-04 1.494227010026e-03 0.0 
5.119831265692e-04 9.375336476582e-04 0.0 
2.711374951894e-03 1.675488807453e-03 0.0 
2.405473797839e-03 1.203315455848e-03 0.0 
8.677874514955e-04 4.840198013773e-04 0.0 
-1.132376772651e-04 4.455515149173e-03 0.0 
3.334457921291e-05 -6.853914313251e-04 0.0 
1.361542117519e-04 -1.785725302590e-04 0.0 
1.619808773189e-03 2.702501157982e-04 0.0 
2.423650521340e-03 1.451329359237e-03 0.0 
1.696135911703e-03 1.258346527130e-02 0.0 
1.834693832675e-03 1.256717679675e-02 0.0 
8.068166776074e-04 7.910388511662e-03 0.0 
2.863764700389e-03 2.271639193311e-03 0.0 
3.913823504712e-04 -5.730065799788e-04 0.0 
2.300308992072e-03 2.376517384104e-03 0.0 
1.614489917647e-04 5.366024843922e-05 0.0 
2.054972300644e-04 6.914273228923e-05 0.0 
2.377220968292e-03 1.092427792810e-03 0.0 
1.059113993727e-03 8.528582207275e-03 0.0 
1.328377164491e-04 3.436928044100e-03 0.0 
1.354606896435e-03 1.225442032708e-02 0.0 
1.371542065601e-03 1.737041861875e-03 0.0 
1.562886627891e-03 1.244204732755e-02 0.0 
3.076058382036e-03 3.387750435787e-03 0.0 
2.076629817917e-03 8.569651548553e-04 0.0 
2.535646164288e-03 1.535945986051e-03 0.0 
6.844973130787e-04 2.381867940788e-03 0.0 
4.782622593006e-05 2.666879183566e-03 0.0 
2.189731061913e-03 9.419002143302e-04 0.0 
1.512441635864e-04 2.128467646687e-03 0.0 
1.274302097094e-04 3.536111926391e-03 0.0 
1.811865308244e-05 5.834379608318e-04 0.0 
3.957813323808e-05 2.776480317597e-05 0.0 
4.339103591881e-05 7.814218045246e-03 0.0 
2.057879156351e-03 6.963253151157e-04 0.0 
1.866636062625e-03 1.274185305609e-02 0.0 
2.031471420194e-03 6.264040369550e-04 0.0 
6.315701389521e-05 2.147243017142e-05 0.0 
7.998044251966e-04 1.134411929310e-02 0.0 
1.109539134594e-03 1.191201362300e-02 0.0 
1.706114730194e-03 1.055420611229e-03 0.0 
7.771422504264e-04 8.795898247269e-03 0.0 
9.051295372536e-05 2.036751160111e-03 0.0 
1.983884641604e-03 3.413271259347e-03 0.0 
1.671991551789e-03 1.434862501752e-03 0.0 
1.526201626777e-03 3.133792065680e-03 0.0 
2.818921393280e-04 7.488668762069e-03 0.0 
1.492383846071e-03 2.366438136162e-04 0.0 
1.600327968919e-03 3.705096112602e-04 0.0 
7.872531598872e-05 5.339133637027e-03 0.0 
1.900735694225e-03 1.736930657527e-03 0.0 
1.395657868243e-03 9.268632020061e-03 0.0 
1.501705999910e-04 8.783956391784e-03 0.0 
1.800842348879e-04 7.931862696648e-03 0.0 
3.247578648426e-04 7.607162503565e-03 0.0 
1.327188443184e-03 2.645645824540e-03 0.0 
1.364389898558e-03 1.561022586528e-04 0.0 
1.335512141570e-04 1.304901859596e-03 0.0 
3.119116997146e-04 6.573546740775e-03 0.0 
6.491788212764e-04 4.280719403367e-04 0.0 
9.470152763154e-04 1.833295263669e-03 0.0 
2.019082327712e-03 4.401872866847e-03 0.0 
4.384724486290e-04 2.067206762632e-03 0.0 
6.060184680433e-04 -3.486381384491e-04 0.0 
5.834795419532e-04 -4.207790211010e-04 0.0 
7.564185281216e-04 2.582613209044e-04 0.0 
3.395674971669e-04 2.348563586555e-03 0.0 
1.762494109270e-04 -6.620371191875e-04 0.0 
1.789985821799e-04 1.561261614798e-04 0.0 
3.947877349196e-05 -8.050590242948e-04 0.0 
1.857125695920e-04 8.494274100661e-03 0.0 
1.208707774289e-03 6.185644471185e-04 0.0 
3.745078049680e-04 -2.724310381294e-04 0.0 
1.782965369574e-04 -5.981073164744e-04 0.0 
8.151464619438e-05 5.068259853135e-04 0.0 
6.730600253589e-04 9.436468076734e-03 0.0 
1.984792822983e-04 1.414536854071e-03 0.0 
1.139506909775e-03 6.448379626985e-04 0.0 
5.775625845438e-04 9.433240248629e-03 0.0 
2.484637417560e-04 4.526205246054e-03 0.0 
3.158545735142e-05 1.092618664502e-03 0.0 
3.927828233151e-04 -6.134986166143e-04 0.0 
2.214969952152e-04 1.842131130107e-03 0.0 
5.073147473879e-05 1.851663110914e-05 0.0 
7.690123984591e-04 1.776582230306e-03 0.0 
1.754512712673e-03 2.586550497882e-03 0.0 
1.179093585984e-03 7.879632657158e-03 0.0 
3.683033685420e-04 -4.028269182808e-04 0.0 
2.310491601463e-03 2.273038540761e-03 0.0 
3.392627170156e-04 2.238782251887e-04 0.0 
7.470190082447e-05 4.364314314839e-03 0.0 
3.438141575957e-04 2.080516569053e-04 0.0 
8.071707477109e-04 2.753205537313e-03 0.0 
2.987171596041e-04 9.423229649399e-05 0.0 
1.795351485298e-03 1.993443605516e-03 0.0 
1.814350448058e-04 -7.647840479343e-04 0.0 
7.180729153386e-04 3.207257919550e-04 0.0 
3.571234743818e-04 1.244270336132e-03 0.0 
1.785362504820e-04 9.978213911959e-04 0.0 
4.254554096994e-04 8.688983322206e-03 0.0 
1.497393541709e-03 7.438771283943e-03 0.0 
2.223447137215e-03 9.760674660012e-03 0.0 
6.133952009567e-04 1.082325967297e-03 0.0 
2.968016902465e-04 -5.171122026504e-04 0.0 
1.446694365870e-03 7.262673975957e-03 0.0 
2.115819336484e-03 1.957038263683e-03 0.0 
3.482827791166e-04 9.688859828407e-03 0.0 
4.834982430402e-04 1.708027137630e-03 0.0 
2.543029089590e-06 5.539800138286e-04 0.0 
2.543029089590e-06 2.339003976730e-04 0.0 
1.295548785008e-05 -8.632930534105e-04 0.0 
7.076433709121e-06 -8.618421150440e-04 0.0 
1.845733027161e-05 9.316737437435e-03 0.0 
4.389780859830e-05 9.652523538231e-03 0.0 
6.876175550373e-06 1.205538251610e-05 0.0 
6.876175550373e-06 2.677717610742e-05 0.0 
3.650131753709e-05 -8.483347676921e-04 0.0 
-2.078589897668e-04 2.670616695361e-03 0.0 
3.070935383954e-04 9.643768128088e-05 0.0 
1.366669115452e-03 1.405304168867e-03 0.0 
3.673868161519e-04 -6.574238406147e-04 0.0 
4.876460222840e-04 1.472806761227e-04 0.0 
8.020599583851e-05 -1.196018677482e-04 0.0 
8.478848995427e-05 -2.650781878258e-04 0.0 
2.100958447357e-04 6.188907058851e-03 0.0 
1.176025761475e-03 1.164145020478e-03 0.0 
2.659445521458e-03 2.821458736945e-03 0.0 
3.297940597088e-04 -6.503527570037e-04 0.0 
5.061843981807e-04 -2.935788910877e-04 0.0 
8.245970644877e-04 1.492612920116e-03 0.0 
8.960600682433e-06 2.441346884841e-03 0.0 
1.633398241870e-04 -2.522683000908e-04 0.0 
1.359336759103e-04 7.169640151469e-03 0.0 
1.232642883232e-03 1.494595063348e-03 0.0 
1.471056864161e-03 2.701245940447e-03 0.0 
1.775596900910e-03 3.544374622839e-03 0.0 
4.881807182928e-04 9.384443055642e-03 0.0 
2.825333240366e-03 2.881897350917e-03 0.0 
6.086957373683e-04 1.760891948827e-03 0.0 
2.541254050830e-04 -6.406086096426e-04 0.0 
2.143861574884e-04 4.685134864168e-05 0.0 
1.449813463930e-03 1.844948130844e-03 0.0 
1.898177117924e-03 1.173665056861e-03 0.0 
1.010006029207e-03 1.218226268807e-03 0.0 
1.091791234404e-04 5.444413806930e-03 0.0 
1.709812537882e-04 6.562300741780e-05 0.0 
1.539788190979e-03 1.757208142557e-03 0.0 
1.289401316487e-03 1.435909710851e-03 0.0 
9.586276704575e-05 -5.556253311622e-05 0.0 
4.639553457679e-04 6.042306505483e-03 0.0 
1.627877503298e-03 1.289181889152e-02 0.0 
2.448471702336e-03 1.050202726528e-02 0.0 
1.238152268310e-03 7.563953155128e-03 0.0 
2.815818536712e-03 3.026401547835e-03 0.0 
1.723227333227e-04 1.781623077330e-03 0.0 
7.381631843392e-04 4.240754018183e-04 0.0 
5.226547133058e-04 7.975704905291e-04 0.0 
4.372708094997e-04 1.814519500197e-04 0.0 
1.276855492470e-03 1.269325811442e-02 0.0 
1.793939323274e-04 5.000197452058e-03 0.0 
4.489392267496e-04 -5.254635810479e-04 0.0 
4.074180399454e-04 1.675254996161e-03 0.0 
2.151246178871e-04 -7.433116084401e-04 0.0 
1.255199510679e-03 7.688706728912e-04 0.0 
7.421248644661e-04 7.828137443529e-03 0.0 
7.340516444616e-04 5.854178871897e-04 0.0 
2.094080072088e-03 2.131203572881e-03 0.0 
1.366739053882e-03 7.531591539860e-03 0.0 
6.360101584286e-04 2.493045398988e-04 0.0 
3.129539653918e-04 1.224701546707e-03 0.0 
2.598978647963e-05 1.278465890033e-03 0.0 
6.991163101064e-04 1.206154862439e-02 0.0 
3.997531695240e-04 2.024129482500e-03 0.0 
6.464124140384e-04 7.986912519760e-04 0.0 
1.307392075643e-03 7.736845174016e-04 0.0 
1.889179039220e-03 1.807617123382e-03 0.0 
8.510738008634e-05 2.813729243939e-05 0.0 
1.703473977405e-03 3.571101583050e-03 0.0 
3.693408806450e-04 6.367489683603e-03 0.0 
1.756104451399e-03 8.265562228255e-03 0.0 
1.216551708052e-03 2.293472470715e-03 0.0 
1.116938746446e-03 6.950097046084e-03 0.0 
1.634220775414e-04 7.474094433283e-05 0.0 
1.646263195791e-03 1.548892501496e-03 0.0 
3.036153675869e-04 9.812011808294e-05 0.0 
1.557733160162e-04 4.010833608953e-03 0.0 
7.168945165985e-04 5.249855324036e-04 0.0 
8.081788313448e-04 2.998662249185e-04 0.0 
8.378233115790e-04 3.233887489286e-04 0.0 
3.287888782214e-04 -5.381260260570e-04 0.0 
1.394986255736e-04 4.699538617125e-05 0.0 
1.005546076095e-03 8.869845324903e-03 0.0 
1.097130096189e-04 2.063991670078e-03 0.0 
5.562926577271e-04 3.164517275112e-04 0.0 
7.165496021958e-05 2.859823430885e-03 0.0 
1.648189839137e-04 5.397742692493e-03 0.0 
2.766393285834e-05 -8.337217562162e-04 0.0 
1.596569802506e-03 2.821886786019e-03 0.0 
1.662230308532e-03 3.106729253295e-03 0.0 
1.440794419117e-04 1.068618300878e-03 0.0 
5.541475802285e-05 1.969059092729e-03 0.0 
9.354783388949e-04 6.820059664408e-04 0.0 
3.417038316181e-04 7.094428635919e-03 0.0 
2.106949703147e-04 -3.391053333067e-04 0.0 
7.699113779566e-04 4.921393497943e-03 0.0 
2.681332964942e-04 -3.971460634268e-04 0.0 
6.549554128058e-04 1.391482028366e-04 0.0 
3.782952116223e-04 7.286415779335e-03 0.0 
4.545605181735e-04 -3.317358754441e-04 0.0 
2.046211672004e-04 7.929174359412e-05 0.0 
7.474794528186e-04 1.834933495264e-03 0.0 
1.436641697080e-03 6.935201461783e-03 0.0 
6.476426484804e-04 -3.697630232716e-04 0.0 
7.444486715355e-04 2.448544105382e-04 0.0 
1.183701711331e-03 5.617736036980e-04 0.0 
8.664872821991e-04 7.268551968548e-04 0.0 
1.057499663718e-03 1.312027128662e-03 0.0 
1.328739225349e-03 2.292602652190e-03 0.0 
5.038039924283e-04 8.387302116836e-05 0.0 
6.008382957338e-04 3.052038908235e-03 0.0 
2.832490044609e-04 9.168597799938e-05 0.0 
5.969274048187e-05 -8.240436469873e-04 0.0 
1.392097685269e-05 -8.223217182087e-04 0.0 
5.816203279787e-04 8.395254727713e-03 0.0 
3.609628946627e-04 -3.597234268119e-04 0.0 
4.884770372043e-04 1.857510051579e-04 0.0 
5.534687189749e-04 8.260723038210e-04 0.0 
1.542811577397e-04 1.777190877347e-03 0.0 
6.753209901948e-04 5.780737675378e-04 0.0 
1.407882506695e-03 6.899550267189e-04 0.0 
2.743603907558e-04 6.541076320122e-03 0.0 
3.716036179184e-05 2.119464516732e-04 0.0 
1.697651988429e-03 1.686468543242e-03 0.0 
6.262644341598e-04 9.755718062309e-03 0.0 
8.406429895561e-04 1.007448084771e-03 0.0 
2.011089594742e-04 -6.386637346434e-04 0.0 
9.865005500455e-05 3.719565593981e-05 0.0 
1.392836161997e-03 8.669755531914e-03 0.0 
1.977426069389e-04 -7.570949190654e-04 0.0 
3.204842387244e-04 -3.742971897530e-04 0.0 
6.305658410895e-04 1.003166560754e-03 0.0 
2.482956008377e-04 1.892456638161e-03 0.0 
3.027980348216e-04 9.703694986532e-04 0.0 
1.949716419201e-04 -6.004925776735e-04 0.0 
7.826388791211e-04 4.370988343036e-03 0.0 
4.005754820413e-04 1.275304024774e-04 0.0 
8.580496995964e-06 4.980429624759e-04 0.0 
2.456792768792e-05 2.752849218921e-05 0.0 
4.207428399554e-05 8.781617415648e-03 0.0 
1.049033301877e-03 5.101455896879e-04 0.0 
2.484559282752e-04 -7.286311873882e-04 0.0 
3.791110384628e-04 1.677943712632e-03 0.0 
2.157738589925e-04 -5.557152575000e-04 0.0 
5.495014399938e-04 2.361953746751e-04 0.0 
4.053284621964e-04 1.259519718442e-03 0.0 
4.546507261760e-04 5.047821327436e-03 0.0 
1.592499333113e-03 1.734583830928e-03 0.0 
1.542817172666e-04 4.482098158340e-03 0.0 
9.494052484919e-05 1.010435021178e-03 0.0 
1.409297739221e-04 8.841115658698e-05 0.0 
6.476170132941e-05 5.841771074792e-03 0.0 
5.011612562430e-04 8.246423522294e-04 0.0 
5.198264241043e-04 1.714835335508e-03 0.0 
1.286474364830e-04 5.141455235275e-03 0.0 
8.300155896488e-04 1.363545956367e-03 0.0 
3.559799980390e-04 -4.735554182028e-04 0.0 
3.040125679644e-04 9.390851044961e-03 0.0 
1.147182508613e-03 1.060043947131e-03 0.0 
9.028543393870e-06 1.059122635388e-03 0.0 
2.863741567239e-05 -8.549479356230e-04 0.0 
8.180145780938e-05 9.369575003756e-03 0.0 
2.208969790507e-05 4.731338598088e-05 0.0 
4.203043626844e-04 -6.177724636884e-04 0.0 
1.257493347592e-03 6.916624039072e-04 0.0 
6.646729334408e-04 1.824200973599e-03 0.0 
1.115208288443e-04 1.310113810645e-03 0.0 
2.623624292700e-04 -7.202277137103e-04 0.0 
1.209187017299e-03 6.894521809574e-03 0.0 
3.449115018535e-05 -2.271608944405e-04 0.0 
6.091783389559e-05 3.485360465616e-03 0.0 
-4.094076085503e-04 3.047769076693e-03 0.0 
2.314933504196e-04 9.519801579940e-04 0.0 
1.169172900619e-04 6.031357097565e-03 0.0 
1.103831096983e-03 9.324080789798e-04 0.0 
2.218536838056e-04 6.746979520435e-03 0.0 
8.603766832256e-04 7.866418572862e-04 0.0 
6.443933757705e-05 -1.878610328538e-04 0.0 
2.596691985855e-04 7.923399949102e-03 0.0 
4.151520788603e-04 -5.099605581138e-04 0.0 
4.539804889052e-04 -2.647294748180e-04 0.0 
2.994818739170e-05 -1.521660100533e-04 0.0 
1.217121504362e-03 9.327236152739e-04 0.0 
2.365535853827e-04 -3.094505365558e-04 0.0 
3.012710125561e-04 -2.522007641775e-04 0.0 
3.142408170907e-04 -4.925626076264e-04 0.0 
5.196885723572e-04 1.593075793448e-04 0.0 
1.414357990763e-03 1.893339866519e-03 0.0 
1.743363606973e-03 6.801181368077e-03 0.0 
1.506601130024e-05 1.003185584036e-03 0.0 
3.978145004261e-05 4.806470206267e-05 0.0 
7.997793320662e-05 8.833751443840e-03 0.0 
8.828146301183e-05 6.245868890568e-03 0.0 
3.260438026296e-04 -3.083955202403e-04 0.0 
3.625072353391e-04 -2.756500275913e-04 0.0 
2.213314926321e-04 -2.716706037561e-04 0.0 
1.522323292273e-03 9.027994291261e-04 0.0 
9.116830997087e-04 8.496816764304e-04 0.0 
1.181633758025e-03 1.558538324197e-03 0.0 
1.454878166696e-04 7.726196800996e-03 0.0 
2.801580897062e-04 1.241400771347e-03 0.0 
1.492775460753e-03 8.465219777040e-04 0.0 
2.612867971446e-04 6.943464473770e-03 0.0 
1.102828040361e-03 1.964231592060e-03 0.0 
1.184999069488e-03 9.447536194204e-04 0.0 
8.887264476892e-04 6.944260545986e-04 0.0 
3.400864770187e-04 7.180866446702e-03 0.0 
1.151109799408e-03 1.963697625708e-03 0.0 
9.855258994095e-04 1.598614448339e-03 0.0 
2.840200110125e-04 -5.481264841335e-04 0.0 
3.658931761884e-04 -3.356319518233e-04 0.0 
3.741840433275e-04 6.475672591355e-03 0.0 
9.118128683333e-04 1.595308700661e-03 0.0 
1.507598886077e-04 1.859289784591e-02 0.0 
1.831881232962e-04 1.825631388062e-02 0.0 
2.663517035394e-04 1.860146743077e-02 0.0 
2.886093492402e-04 1.826949042662e-02 0.0 
3.735341989165e-04 1.861920015504e-02 0.0 
3.876259305790e-04 1.829142257667e-02 0.0 
4.709216731207e-04 1.864475624597e-02 0.0 
4.768385944093e-04 1.831977572713e-02 0.0 
5.550966652781e-04 1.867377551360e-02 0.0 
5.541259213776e-04 1.835022051623e-02 0.0 
6.247180653820e-04 1.870187045104e-02 0.0 
6.182843851093e-04 1.837884533734e-02 0.0 
6.792741749282e-04 1.872685970356e-02 0.0 
6.686196987255e-04 1.840454298913e-02 0.0 
7.179163585320e-04 1.874789350907e-02 0.0 
7.041314685183e-04 1.842498973040e-02 0.0 
7.400757492366e-04 1.875988560757e-02 0.0 
7.242710458077e-04 1.843444592347e-02 0.0 
7.455569556261e-04 1.875945426161e-02 0.0 
7.281787069594e-04 1.843349085404e-02 0.0 
7.310631759587e-04 1.874988247306e-02 0.0 
7.123502895943e-04 1.842362786241e-02 0.0 
-5.865712549339e-04 1.291786978688e-02 0.0 
6.945979497225e-04 1.873060038897e-02 0.0 
6.783948693390e-04 1.840159822264e-02 0.0 
6.411945945951e-04 1.869768795306e-02 0.0 
-3.555370284878e-04 1.322091843865e-02 0.0 
6.306148617978e-04 1.836461874835e-02 0.0 
5.729103749055e-04 1.864970528073e-02 0.0 
5.678098936306e-04 1.831174296613e-02 0.0 
4.866815626560e-04 1.858448478602e-02 0.0 
4.891279757309e-04 1.823892390208e-02 0.0 
-1.184742098638e-03 1.302823899331e-02 0.0 
3.806450088732e-04 1.849650140475e-02 0.0 
3.953467555701e-04 1.813835410590e-02 0.0 
2.558117440007e-04 1.837579768987e-02 0.0 
2.903826054399e-04 1.799625693488e-02 0.0 
1.187376791692e-04 1.820184810626e-02 0.0 
1.813284047432e-04 1.778921249002e-02 0.0 
-1.870795616621e-05 1.795269319474e-02 0.0 
7.684679584796e-05 1.750465052864e-02 0.0 
-1.442327746813e-04 1.762931991027e-02 0.0 
-1.603504993420e-05 1.715208223331e-02 0.0 
-2.528558117516e-04 1.724336801318e-02 0.0 
-9.677426364291e-05 1.673737531186e-02 0.0 
-2.183241069965e-04 1.205361539943e-02 0.0 
-1.699058976562e-04 1.625920546318e-02 0.0 
-3.501654651134e-04 1.679511502779e-02 0.0 
-2.416436723548e-04 1.571264257483e-02 0.0 
-4.496577266185e-04 1.628556526571e-02 0.0 
-3.090672406773e-04 1.506283991531e-02 0.0 
-5.592401923700e-04 1.569213729667e-02 0.0 
-3.636576871985e-04 1.428075699188e-02 0.0 
-6.833316123598e-04 1.499449118901e-02 0.0 
-8.034979412615e-04 1.411844279840e-02 0.0 
-8.164949507006e-04 1.216398460585e-02 0.0 
1.763481720155e-05 1.842547790675e-02 0.0 
8.905122105149e-05 1.842248644393e-02 0.0 
5.252260034334e-05 1.808458189425e-02 0.0 
5.416343790970e-05 1.876338245642e-02 0.0 
-8.099723450683e-04 1.130638445594e-02 0.0 
1.243579869150e-04 1.724620927710e-02 0.0 
1.633044446269e-04 1.758372085697e-02 0.0 
2.163094140270e-04 1.725750201961e-02 0.0 
2.584507383971e-04 1.759811803910e-02 0.0 
3.043836451898e-04 1.727723107633e-02 0.0 
3.486339876954e-04 1.762082588548e-02 0.0 
3.872472997820e-04 1.730452470168e-02 0.0 
4.321561639542e-04 1.765014087403e-02 0.0 
4.635232186016e-04 1.733609049615e-02 0.0 
5.072349051561e-04 1.768217035188e-02 0.0 
5.317938315645e-04 1.736838164153e-02 0.0 
5.722511675132e-04 1.771340669218e-02 0.0 
5.907170108009e-04 1.739869568971e-02 0.0 
6.260957521942e-04 1.774181762044e-02 0.0 
6.395993885351e-04 1.742517399922e-02 0.0 
6.683384450527e-04 1.776499558924e-02 0.0 
6.779505225755e-04 1.744481894393e-02 0.0 
6.979388426123e-04 1.777937340099e-02 0.0 
7.044242675900e-04 1.745512901589e-02 0.0 
7.133782221188e-04 1.778423813079e-02 0.0 
4.629462887369e-04 1.357936816719e-02 0.0 
7.183564308722e-04 1.745627925237e-02 0.0 
7.144440293484e-04 1.777927736497e-02 0.0 
7.202564731122e-04 1.744597456887e-02 0.0 
1.585456892651e-04 1.376596544858e-02 0.0 
7.019596529746e-04 1.776132289998e-02 0.0 
7.111107516435e-04 1.742105645405e-02 0.0 
5.859288355751e-04 1.371709930036e-02 0.0 
6.769662352106e-04 1.772826257201e-02 0.0 
6.920467624871e-04 1.737999737812e-02 0.0 
6.405949077994e-04 1.767839123986e-02 0.0 
6.646904388911e-04 1.731935425753e-02 0.0 
5.943518377972e-04 1.760714509986e-02 0.0 
6.314748864932e-04 1.723240476963e-02 0.0 
5.409527711238e-04 1.750603627301e-02 0.0 
5.960055412098e-04 1.710828166714e-02 0.0 
4.849703870953e-04 1.736105874504e-02 0.0 
6.782907370656e-04 1.299929130803e-02 0.0 
5.625329902006e-04 1.693188029281e-02 0.0 
4.305359341192e-04 1.715444286642e-02 0.0 
5.328043905392e-04 1.668916921352e-02 0.0 
3.791516131774e-04 1.687589617103e-02 0.0 
3.330054090702e-04 1.652862290270e-02 0.0 
5.071125016524e-04 1.637710622205e-02 0.0 
2.955562433283e-04 1.611830565122e-02 0.0 
4.885151542239e-04 1.600083902193e-02 0.0 
2.683612458426e-04 1.564392356527e-02 0.0 
4.804321853566e-04 1.556076346924e-02 0.0 
2.573069435334e-04 1.509305743078e-02 0.0 
2.688339378583e-04 1.444002052922e-02 0.0 
4.875600327685e-04 1.505069822375e-02 0.0 
5.176116020538e-04 1.444973276654e-02 0.0 
3.738901375938e-04 1.318588858942e-02 0.0 
1.644157225874e-05 1.741126564233e-02 0.0 
8.133975308534e-05 1.741050928315e-02 0.0 
5.132935540053e-05 1.774670027864e-02 0.0 
4.645196994355e-05 1.707507464684e-02 0.0 
2.996476739038e-04 1.280315577297e-02 0.0 
1.173408088941e-04 1.657757678835e-02 0.0 
1.426875169545e-04 1.624694217024e-02 0.0 
2.027096643755e-04 1.658935582162e-02 0.0 
2.253999316561e-04 1.626229330908e-02 0.0 
2.849325881003e-04 1.660955254428e-02 0.0 
3.051535692631e-04 1.628532860428e-02 0.0 
3.632179384392e-04 1.663670595253e-02 0.0 
3.814033699491e-04 1.631435420493e-02 0.0 
4.367997859393e-04 1.666812257620e-02 0.0 
4.533620084933e-04 1.634661743633e-02 0.0 
5.046443675640e-04 1.670079664592e-02 0.0 
5.200687431068e-04 1.637933376805e-02 0.0 
5.656840503949e-04 1.673220776119e-02 0.0 
5.806739050415e-04 1.641012294920e-02 0.0 
6.192105017883e-04 1.675996725650e-02 0.0 
6.346470890058e-04 1.643642139108e-02 0.0 
6.646480532754e-04 1.678145148850e-02 0.0 
6.813422195844e-04 1.645577967919e-02 0.0 
7.011301138624e-04 1.679490274951e-02 0.0 
1.080638812701e-03 1.372786179525e-02 0.0 
7.201536783287e-04 1.646669745221e-02 0.0 
7.284260408098e-04 1.679896484016e-02 0.0 
7.514575230889e-04 1.646714423888e-02 0.0 
1.156124341915e-03 1.378670580947e-02 0.0 
7.472003569151e-04 1.679115585499e-02 0.0 
7.759970200249e-04 1.645423530354e-02 0.0 
7.582042348909e-04 1.676878757150e-02 0.0 
7.946933328192e-04 1.642530937177e-02 0.0 
7.626803768482e-04 1.672931306044e-02 0.0 
8.758232797622e-04 1.394132878669e-02 0.0 
8.093570506090e-04 1.637698931213e-02 0.0 
7.628189673395e-04 1.666863664748e-02 0.0 
8.226131534946e-04 1.630378407553e-02 0.0 
7.616076737422e-04 1.657976135535e-02 0.0 
8.376324765973e-04 1.619723782804e-02 0.0 
7.625524594344e-04 1.645212663645e-02 0.0 
8.574787816284e-04 1.604603161970e-02 0.0 
7.684944665091e-04 1.627300819815e-02 0.0 
8.836832671678e-04 1.583866185477e-02 0.0 
7.799902472793e-04 1.603226029654e-02 0.0 
9.159631332982e-04 1.556790780943e-02 0.0 
1.241142946538e-03 1.327742089349e-02 0.0 
9.547877868756e-04 1.523115239955e-02 0.0 
7.967381650332e-04 1.572602677744e-02 0.0 
1.004111654777e-03 1.482807816612e-02 0.0 
8.206718686485e-04 1.535444796338e-02 0.0 
1.067840256690e-03 1.435261164528e-02 0.0 
8.568308823808e-04 1.491692704269e-02 0.0 
9.106403465921e-04 1.440322273031e-02 0.0 
1.036327413599e-03 1.349088788493e-02 0.0 
1.430534426345e-05 1.640531425074e-02 0.0 
7.218634706914e-05 1.640712152968e-02 0.0 
4.217594938432e-05 1.607211639830e-02 0.0 
4.431574194826e-05 1.674031938212e-02 0.0 
9.952106336075e-04 1.327637063591e-02 0.0 
1.050165388002e-04 1.524423760746e-02 0.0 
1.346244377487e-04 1.558061027731e-02 0.0 
1.834470192129e-04 1.525667068078e-02 0.0 
2.142003656994e-04 1.559594006117e-02 0.0 
2.604174887460e-04 1.527625754299e-02 0.0 
2.918380358655e-04 1.561838685090e-02 0.0 
3.357127832086e-04 1.530200258087e-02 0.0 
3.672137481161e-04 1.564659258666e-02 0.0 
4.090794261717e-04 1.533196387072e-02 0.0 
4.398312705588e-04 1.567822034912e-02 0.0 
4.800758379260e-04 1.536375931554e-02 0.0 
5.090309514033e-04 1.571069352488e-02 0.0 
5.481799533578e-04 1.539498793072e-02 0.0 
5.742075997079e-04 1.574154336190e-02 0.0 
6.129809085399e-04 1.542332661345e-02 0.0 
6.348838010910e-04 1.576836033532e-02 0.0 
6.741429184543e-04 1.544647446293e-02 0.0 
6.906003726781e-04 1.578886370937e-02 0.0 
1.475379394310e-03 1.361843423984e-02 0.0 
7.314218046000e-04 1.546226597628e-02 0.0 
7.411872159727e-04 1.580097664879e-02 0.0 
7.850318978069e-04 1.546853423730e-02 0.0 
1.332161043997e-03 1.386158171050e-02 0.0 
7.870298424421e-04 1.580243443945e-02 0.0 
1.514745036505e-03 1.361485091626e-02 0.0 
8.356218083559e-04 1.546270033718e-02 0.0 
8.288461521125e-04 1.579048958516e-02 0.0 
8.841014040383e-04 1.544173342268e-02 0.0 
8.677413698790e-04 1.576200094133e-02 0.0 
9.319112796958e-04 1.540208167145e-02 0.0 
9.055399163967e-04 1.571306635359e-02 0.0 
9.811336086003e-04 1.533899805821e-02 0.0 
9.447449289677e-04 1.563806844481e-02 0.0 
1.607183281167e-03 1.322939632769e-02 0.0 
1.034251282165e-03 1.524590279734e-02 0.0 
9.881443095466e-04 1.552909490075e-02 0.0 
1.093593984879e-03 1.511436035201e-02 0.0 
1.038008474123e-03 1.537640826255e-02 0.0 
1.095292277753e-03 1.517067257352e-02 0.0 
1.160633169589e-03 1.493539555976e-02 0.0 
1.159893972521e-03 1.490473344333e-02 0.0 
1.235530097087e-03 1.470109664919e-02 0.0 
1.232686783199e-03 1.457460076831e-02 0.0 
1.315363340901e-03 1.417635026894e-02 0.0 
1.318568000580e-03 1.440630078010e-02 0.0 
1.409822551096e-03 1.404616843496e-02 0.0 
1.463964930855e-03 1.347254379834e-02 0.0 
1.331643494868e-05 1.540466367749e-02 0.0 
6.693624686635e-05 1.540671292152e-02 0.0 
4.118704006955e-05 1.573871507809e-02 0.0 
3.906564174548e-05 1.507266152092e-02 0.0 
1.445128138871e-03 1.334705681229e-02 0.0 
1.027149312298e-04 1.457839548782e-02 0.0 
1.281630947871e-04 1.424877768694e-02 0.0 
1.792872838217e-04 1.459068021006e-02 0.0 
2.046412387562e-04 1.426347928613e-02 0.0 
2.550180971940e-04 1.460978723867e-02 0.0 
2.805979905361e-04 1.428448554034e-02 0.0 
3.298721294311e-04 1.463457157463e-02 0.0 
3.561020269008e-04 1.431049348706e-02 0.0 
4.038083587340e-04 1.466329577736e-02 0.0 
4.311350902518e-04 1.433965358367e-02 0.0 
4.766507250567e-04 1.469386064344e-02 0.0 
5.055697099087e-04 1.436984412584e-02 0.0 
5.481438247324e-04 1.472403720378e-02 0.0 
5.792497103309e-04 1.439882964636e-02 0.0 
6.180591477884e-04 1.475156362485e-02 0.0 
6.520657103217e-04 1.442432928311e-02 0.0 
6.862465884365e-04 1.477420639932e-02 0.0 
1.698022833864e-03 1.328079581729e-02 0.0 
7.240082637955e-04 1.444406668355e-02 0.0 
7.527260257351e-04 1.478973701406e-02 0.0 
1.707008049461e-03 1.322848009579e-02 0.0 
7.952943688429e-04 1.445566594844e-02 0.0 
8.178348295420e-04 1.479575249917e-02 0.0 
8.664648142961e-04 1.445649256186e-02 0.0 
8.822538484749e-04 1.478954019772e-02 0.0 
9.383601552853e-04 1.444355116793e-02 0.0 
1.603801020636e-03 1.354590124337e-02 0.0 
9.469833670921e-04 1.476795514491e-02 0.0 
1.012143196929e-03 1.441329093424e-02 0.0 
1.013431143692e-03 1.472714994212e-02 0.0 
1.089386521748e-03 1.436131760325e-02 0.0 
1.083460349955e-03 1.466218103721e-02 0.0 
1.171940977811e-03 1.428202239288e-02 0.0 
1.159120589653e-03 1.456667376643e-02 0.0 
1.261629146807e-03 1.416859605651e-02 0.0 
1.242209514651e-03 1.443309053869e-02 0.0 
1.359688219442e-03 1.401335206493e-02 0.0 
1.809469621720e-03 1.294846602795e-02 0.0 
1.466757237126e-03 1.380936363869e-02 0.0 
1.333697385135e-03 1.425360917546e-02 0.0 
1.581988512277e-03 1.354996002816e-02 0.0 
1.433930840914e-03 1.402157409865e-02 0.0 
1.542261796508e-03 1.373104991547e-02 0.0 
1.715247808492e-03 1.321357145403e-02 0.0 
1.266749470198e-05 1.440566083650e-02 0.0 
6.398569904928e-05 1.440798851357e-02 0.0 
3.823649225248e-05 1.407387011746e-02 0.0 
3.841670149878e-05 1.473977923261e-02 0.0 
1.720651034555e-03 1.315233929294e-02 0.0 
1.001852656226e-04 1.324539481343e-02 0.0 
1.265169768961e-04 1.358216574020e-02 0.0 
1.757136190255e-04 1.325669996048e-02 0.0 
2.027136918510e-04 1.359611098328e-02 0.0 
2.515181264227e-04 1.327384347323e-02 0.0 
2.790255666699e-04 1.361591007775e-02 0.0 
3.278431035443e-04 1.329588665401e-02 0.0 
3.556454248802e-04 1.364038402904e-02 0.0 
4.049381151654e-04 1.332140250761e-02 0.0 
4.327214487040e-04 1.366786977194e-02 0.0 
4.829871192805e-04 1.334863478412e-02 0.0 
5.103197456803e-04 1.369640207825e-02 0.0 
5.621086633835e-04 1.337561681901e-02 0.0 
5.884645132104e-04 1.372385130918e-02 0.0 
6.424179915193e-04 1.340025837319e-02 0.0 
6.672097511731e-04 1.374800236864e-02 0.0 
1.778682792601e-03 1.276113020458e-02 0.0 
7.240775904837e-04 1.342036983791e-02 0.0 
7.466952249913e-04 1.376655703661e-02 0.0 
1.720848340372e-03 1.305302362769e-02 0.0 
8.073684731979e-04 1.343362333488e-02 0.0 
8.272498551099e-04 1.377706191619e-02 0.0 
1.765335110552e-03 1.266444451274e-02 0.0 
8.927781365230e-04 1.343747443525e-02 0.0 
9.094526350100e-04 1.377681853018e-02 0.0 
9.810147036917e-04 1.342908022221e-02 0.0 
9.941331897881e-04 1.376276522410e-02 0.0 
1.073001188239e-03 1.340516993395e-02 0.0 
1.082387983573e-03 1.373129166711e-02 0.0 
1.879552569670e-03 1.246740626836e-02 0.0 
1.169855496509e-03 1.336180059697e-02 0.0 
1.175566087921e-03 1.367796752523e-02 0.0 
1.272884947465e-03 1.329428877722e-02 0.0 
1.275186009148e-03 1.359748021093e-02 0.0 
1.382573753327e-03 1.348346594742e-02 0.0 
1.383310227509e-03 1.319700147538e-02 0.0 
1.498717073503e-03 1.332932450198e-02 0.0 
1.502182975232e-03 1.306393286665e-02 0.0 
1.623244586778e-03 1.312841040077e-02 0.0 
1.629213588848e-03 1.288862837460e-02 0.0 
1.821718117441e-03 1.275929969146e-02 0.0 
1.243717846130e-05 1.340647338947e-02 0.0 
6.287183509236e-05 1.340855959465e-02 0.0 
3.800617601180e-05 1.374082992619e-02 0.0 
3.730283754186e-05 1.307420305793e-02 0.0 
1.847604542299e-03 1.275366627226e-02 0.0 
1.000653951715e-04 1.257819220298e-02 0.0 
1.263226355617e-04 1.224719150877e-02 0.0 
1.756391481422e-04 1.258892833949e-02 0.0 
2.029909533976e-04 1.225958671947e-02 0.0 
2.518698588525e-04 1.260509083040e-02 0.0 
2.806562876015e-04 1.227699147180e-02 0.0 
3.291220920460e-04 1.262572069089e-02 0.0 
3.597668067037e-04 1.229827609159e-02 0.0 
4.077805084872e-04 1.264946053329e-02 0.0 
4.407701891780e-04 1.232198975347e-02 0.0 
4.881934664328e-04 1.267469673997e-02 0.0 
5.240271545732e-04 1.234646422487e-02 0.0 
5.706097251241e-04 1.269961700978e-02 0.0 
6.098728615189e-04 1.236979285514e-02 0.0 
6.553252780872e-04 1.272219972838e-02 0.0 
1.758352456434e-03 1.207915167610e-02 0.0 
6.986724906994e-04 1.238991564382e-02 0.0 
1.727282079385e-03 1.194871656071e-02 0.0 
7.426330434421e-04 1.274034175790e-02 0.0 
7.907819672386e-04 1.240462304466e-02 0.0 
8.328997624869e-04 1.275171742294e-02 0.0 
8.866845940721e-04 1.241141030386e-02 0.0 
9.266815861962e-04 1.275372873486e-02 0.0 
9.870381653767e-04 1.240751765924e-02 0.0 
1.729758394782e-03 1.238736941747e-02 0.0 
1.024696784385e-03 1.274352505166e-02 0.0 
1.092617203078e-03 1.238987205125e-02 0.0 
1.127803120835e-03 1.271783193166e-02 0.0 
1.204294073406e-03 1.235495214878e-02 0.0 
1.236959653746e-03 1.267279908093e-02 0.0 
1.322921205516e-03 1.229846959253e-02 0.0 
1.353135907823e-03 1.260379236057e-02 0.0 
1.449373424183e-03 1.221574675595e-02 0.0 
1.583795402401e-03 1.210125034155e-02 0.0 
1.477246682187e-03 1.250576443705e-02 0.0 
1.846496951802e-03 1.182404659927e-02 0.0 
1.609468169628e-03 1.237295429911e-02 0.0 
1.817902890151e-03 1.213226434064e-02 0.0 
1.241605451260e-05 1.240581233848e-02 0.0 
6.273084069259e-05 1.240778617116e-02 0.0 
3.786518161202e-05 1.207296626474e-02 0.0 
3.728171359316e-05 1.274063224489e-02 0.0 
1.859448607991e-03 1.216955740974e-02 0.0 
1.003036174999e-04 1.124071082807e-02 0.0 
1.265015552635e-04 1.157814526556e-02 0.0 
1.763703699432e-04 1.124975226900e-02 0.0 
2.035432554968e-04 1.158945689218e-02 0.0 
2.537308932061e-04 1.126335083933e-02 0.0 
2.819650198559e-04 1.160538130802e-02 0.0 
3.329404765814e-04 1.128063629994e-02 0.0 
3.622764589847e-04 1.162480186442e-02 0.0 
4.145435285084e-04 1.130034615926e-02 0.0 
4.450235569183e-04 1.164634960661e-02 0.0 
4.991123158435e-04 1.132119932773e-02 0.0 
5.306926362436e-04 1.166860695949e-02 0.0 
5.870735945934e-04 1.134155693975e-02 0.0 
1.657863410196e-03 1.128020089282e-02 0.0 
6.196712493178e-04 1.168959005050e-02 0.0 
6.789389177451e-04 1.135953790790e-02 0.0 
1.649492500450e-03 1.160355034541e-02 0.0 
7.124877425584e-04 1.170745662798e-02 0.0 
7.751841058792e-04 1.137333314293e-02 0.0 
1.616670954799e-03 1.112528499997e-02 0.0 
8.095177778168e-04 1.172007344552e-02 0.0 
8.762227552582e-04 1.138063272147e-02 0.0 
9.112717762652e-04 1.172487520152e-02 0.0 
9.826324375971e-04 1.137884188680e-02 0.0 
1.018401834585e-03 1.171916591352e-02 0.0 
1.738639038690e-03 1.104974331983e-02 0.0 
1.095089909740e-03 1.136527952812e-02 0.0 
1.131646659225e-03 1.169997827343e-02 0.0 
1.251709928494e-03 1.166392641184e-02 0.0 
1.214248432070e-03 1.133691241690e-02 0.0 
1.379318474095e-03 1.160707663961e-02 0.0 
1.340772777413e-03 1.129038039107e-02 0.0 
1.514418259893e-03 1.152491920866e-02 0.0 
1.474578012111e-03 1.122157186036e-02 0.0 
1.730268128943e-03 1.137309277243e-02 0.0 
1.238033353309e-05 1.140346061173e-02 0.0 
6.275442233961e-05 1.140522411141e-02 0.0 
3.782946063251e-05 1.173883933669e-02 0.0 
3.730529524018e-05 1.106984538645e-02 0.0 
1.782384940652e-03 1.144655503016e-02 0.0 
1.002949687271e-04 1.057113846677e-02 0.0 
1.265705840440e-04 1.023834679490e-02 0.0 
1.764480474965e-04 1.057952615964e-02 0.0 
2.040019424350e-04 1.024781456644e-02 0.0 
2.541119025910e-04 1.059193462294e-02 0.0 
2.833552372764e-04 1.026100337082e-02 0.0 
3.339496846170e-04 1.060767457913e-02 0.0 
3.653304541854e-04 1.027689466420e-02 0.0 
4.165883156735e-04 1.062540067985e-02 0.0 
4.504688215388e-04 1.029414623796e-02 0.0 
5.025127932989e-04 1.064394143849e-02 0.0 
5.394703851429e-04 1.031176838499e-02 0.0 
1.508802900662e-03 1.039425563452e-02 0.0 
5.924508660373e-04 1.066197625450e-02 0.0 
1.458831451629e-03 1.021957944939e-02 0.0 
6.329669034990e-04 1.032778218247e-02 0.0 
6.868573004824e-04 1.067731072511e-02 0.0 
7.314755818903e-04 1.034057209800e-02 0.0 
7.862535624739e-04 1.068867579573e-02 0.0 
8.355996701242e-04 1.034844223701e-02 0.0 
8.912351909709e-04 1.069365886015e-02 0.0 
9.458609249327e-04 1.034873177082e-02 0.0 
1.518254220907e-03 1.072540383688e-02 0.0 
1.002209150552e-03 1.068967231741e-02 0.0 
1.062797713092e-03 1.033878249559e-02 0.0 
1.119909075293e-03 1.067406567957e-02 0.0 
1.186999475801e-03 1.031603932200e-02 0.0 
1.318829976640e-03 1.027745052896e-02 0.0 
1.244782083093e-03 1.064418731401e-02 0.0 
1.377359174537e-03 1.059662961108e-02 0.0 
1.577114331449e-03 1.018616741922e-02 0.0 
1.586565651694e-03 1.051731562158e-02 0.0 
1.239044927470e-05 1.039939373196e-02 0.0 
6.275588930849e-05 1.040087383792e-02 0.0 
3.783092760139e-05 1.006520009562e-02 0.0 
3.731541098179e-05 1.073506747426e-02 0.0 
1.645142137805e-03 1.061384943637e-02 0.0 

VECTORS element_materi_displacement float
0.0 0.0 0.0 
0.0 0.0 0.0 
0.0 0.0 0.0 
0.0 0.0 0.0 
0.0 0.0 0.0 
0.0 0.0 0.0 
0.0 0.0 0.0 
0.0 0.0 0.0 
0.0 0.0 0.0 
0.0 0.0 0.0 
0.0 0.0 0.0 
0.0 0.0 0.0 
0.0 0.0 0.0 
0.0 0.0 0.0 
0.0 0.0 0.0 
0.0 0.0 0.0 
0.0 0.0 0.0 
0.0 0.0 0.0 
0.0 0.0 0.0 
0.0 0.0 0.0 
0.0 0.0 0.0 
0.0 0.0 0.0 
0.0 0.0 0.0 
0.0 0.0 0.0 
0.0 0.0 0.0 
0.0 0.0 0.0 
0.0 0.0 0.0 
0.0 0.0 0.0 
0.0 0.0 0.0 
0.0 0.0 0.0 
0.0 0.0 0.0 
0.0 0.0 0.0 
0.0 0.0 0.0 
0.0 0.0 0.0 
0.0 0.0 0.0 
0.0 0.0 0.0 
0.0 0.0 0.0 
0.0 0.0 0.0 
0.0 0.0 0.0 
0.0 0.0 0.0 
0.0 0.0 0.0 
0.0 0.0 0.0 
0.0 0.0 0.0 
0.0 0.0 0.0 
0.0 0.0 0.0 
0.0 0.0 0.0 
0.0 0.0 0.0 
0.0 0.0 0.0 
0.0 0.0 0.0 
0.0 0.0 0.0 
0.0 0.0 0.0 
0.0 0.0 0.0 
0.0 0.0 0.0 
0.0 0.0 0.0 
0.0 0.0 0.0 
0.0 0.0 0.0 
0.0 0.0 0.0 
0.0 0.0 0.0 
0.0 0.0 0.0 
0.0 0.0 0.0 
0.0 0.0 0.0 
0.0 0.0 0.0 
0.0 0.0 0.0 
0.0 0.0 0.0 
0.0 0.0 0.0 
0.0 0.0 0.0 
0.0 0.0 0.0 
0.0 0.0 0.0 
0.0 0.0 0.0 
0.0 0.0 0.0 
0.0 0.0 0.0 
0.0 0.0 0.0 
0.0 0.0 0.0 
0.0 0.0 0.0 
0.0 0.0 0.0 
0.0 0.0 0.0 
0.0 0.0 0.0 
0.0 0.0 0.0 
0.0 0.0 0.0 
0.0 0.0 0.0 
0.0 0.0 0.0 
0.0 0.0 0.0 
0.0 0.0 0.0 
0.0 0.0 0.0 
0.0 0.0 0.0 
0.0 0.0 0.0 
0.0 0.0 0.0 
0.0 0.0 0.0 
0.0 0.0 0.0 
0.0 0.0 0.0 
0.0 0.0 0.0 
0.0 0.0 0.0 
0.0 0.0 0.0 
0.0 0.0 0.0 
0.0 0.0 0.0 
0.0 0.0 0.0 
0.0 0.0 0.0 
0.0 0.0 0.0 
0.0 0.0 0.0 
0.0 0.0 0.0 
0.0 0.0 0.0 
0.0 0.0 0.0 
0.0 0.0 0.0 
0.0 0.0 0.0 
0.0 0.0 0.0 
0.0 0.0 0.0 
0.0 0.0 0.0 
0.0 0.0 0.0 
0.0 0.0 0.0 
0.0 0.0 0.0 
0.0 0.0 0.0 
0.0 0.0 0.0 
0.0 0.0 0.0 
0.0 0.0 0.0 
0.0 0.0 0.0 
0.0 0.0 0.0 
0.0 0.0 0.0 
0.0 0.0 0.0 
0.0 0.0 0.0 
0.0 0.0 0.0 
0.0 0.0 0.0 
0.0 0.0 0.0 
0.0 0.0 0.0 
0.0 0.0 0.0 
0.0 0.0 0.0 
0.0 0.0 0.0 
0.0 0.0 0.0 
0.0 0.0 0.0 
0.0 0.0 0.0 
0.0 0.0 0.0 
0.0 0.0 0.0 
0.0 0.0 0.0 
0.0 0.0 0.0 
0.0 0.0 0.0 
0.0 0.0 0.0 
0.0 0.0 0.0 
0.0 0.0 0.0 
0.0 0.0 0.0 
0.0 0.0 0.0 
0.0 0.0 0.0 
0.0 0.0 0.0 
0.0 0.0 0.0 
0.0 0.0 0.0 
0.0 0.0 0.0 
0.0 0.0 0.0 
0.0 0.0 0.0 
0.0 0.0 0.0 
0.0 0.0 0.0 
0.0 0.0 0.0 
0.0 0.0 0.0 
0.0 0.0 0.0 
0.0 0.0 0.0 
0.0 0.0 0.0 
0.0 0.0 0.0 
0.0 0.0 0.0 
0.0 0.0 0.0 
0.0 0.0 0.0 
0.0 0.0 0.0 
0.0 0.0 0.0 
0.0 0.0 0.0 
0.0 0.0 0.0 
0.0 0.0 0.0 
0.0 0.0 0.0 
0.0 0.0 0.0 
0.0 0.0 0.0 
0.0 0.0 0.0 
0.0 0.0 0.0 
0.0 0.0 0.0 
0.0 0.0 0.0 
0.0 0.0 0.0 
0.0 0.0 0.0 
0.0 0.0 0.0 
0.0 0.0 0.0 
0.0 0.0 0.0 
0.0 0.0 0.0 
0.0 0.0 0.0 
0.0 0.0 0.0 
0.0 0.0 0.0 
0.0 0.0 0.0 
0.0 0.0 0.0 
0.0 0.0 0.0 
0.0 0.0 0.0 
0.0 0.0 0.0 
0.0 0.0 0.0 
0.0 0.0 0.0 
0.0 0.0 0.0 
0.0 0.0 0.0 
0.0 0.0 0.0 
0.0 0.0 0.0 
0.0 0.0 0.0 
0.0 0.0 0.0 
0.0 0.0 0.0 
0.0 0.0 0.0 
0.0 0.0 0.0 
0.0 0.0 0.0 
0.0 0.0 0.0 
0.0 0.0 0.0 
0.0 0.0 0.0 
0.0 0.0 0.0 
0.0 0.0 0.0 
0.0 0.0 0.0 
0.0 0.0 0.0 
0.0 0.0 0.0 
0.0 0.0 0.0 
0.0 0.0 0.0 
0.0 0.0 0.0 
0.0 0.0 0.0 
0.0 0.0 0.0 
0.0 0.0 0.0 
0.0 0.0 0.0 
0.0 0.0 0.0 
0.0 0.0 0.0 
0.0 0.0 0.0 
0.0 0.0 0.0 
0.0 0.0 0.0 
0.0 0.0 0.0 
0.0 0.0 0.0 
0.0 0.0 0.0 
0.0 0.0 0.0 
0.0 0.0 0.0 
0.0 0.0 0.0 
0.0 0.0 0.0 
0.0 0.0 0.0 
0.0 0.0 0.0 
0.0 0.0 0.0 
0.0 0.0 0.0 
0.0 0.0 0.0 
0.0 0.0 0.0 
0.0 0.0 0.0 
0.0 0.0 0.0 
0.0 0.0 0.0 
0.0 0.0 0.0 
0.0 0.0 0.0 
0.0 0.0 0.0 
0.0 0.0 0.0 
0.0 0.0 0.0 
0.0 0.0 0.0 
0.0 0.0 0.0 
0.0 0.0 0.0 
0.0 0.0 0.0 
0.0 0.0 0.0 
0.0 0.0 0.0 
0.0 0.0 0.0 
0.0 0.0 0.0 
0.0 0.0 0.0 
0.0 0.0 0.0 
0.0 0.0 0.0 
0.0 0.0 0.0 
0.0 0.0 0.0 
0.0 0.0 0.0 
0.0 0.0 0.0 
0.0 0.0 0.0 
0.0 0.0 0.0 
0.0 0.0 0.0 
0.0 0.0 0.0 
0.0 0.0 0.0 
0.0 0.0 0.0 
0.0 0.0 0.0 
0.0 0.0 0.0 
0.0 0.0 0.0 
0.0 0.0 0.0 
0.0 0.0 0.0 
0.0 0.0 0.0 
0.0 0.0 0.0 
0.0 0.0 0.0 
0.0 0.0 0.0 
0.0 0.0 0.0 
0.0 0.0 0.0 
0.0 0.0 0.0 
0.0 0.0 0.0 
0.0 0.0 0.0 
0.0 0.0 0.0 
0.0 0.0 0.0 
0.0 0.0 0.0 
0.0 0.0 0.0 
0.0 0.0 0.0 
0.0 0.0 0.0 
0.0 0.0 0.0 
0.0 0.0 0.0 
0.0 0.0 0.0 
0.0 0.0 0.0 
0.0 0.0 0.0 
0.0 0.0 0.0 
0.0 0.0 0.0 
0.0 0.0 0.0 
0.0 0.0 0.0 
0.0 0.0 0.0 
0.0 0.0 0.0 
0.0 0.0 0.0 
0.0 0.0 0.0 
0.0 0.0 0.0 
0.0 0.0 0.0 
0.0 0.0 0.0 
0.0 0.0 0.0 
0.0 0.0 0.0 
0.0 0.0 0.0 
0.0 0.0 0.0 
0.0 0.0 0.0 
0.0 0.0 0.0 
0.0 0.0 0.0 
0.0 0.0 0.0 
0.0 0.0 0.0 
0.0 0.0 0.0 
0.0 0.0 0.0 
0.0 0.0 0.0 
0.0 0.0 0.0 
0.0 0.0 0.0 
0.0 0.0 0.0 
0.0 0.0 0.0 
0.0 0.0 0.0 
0.0 0.0 0.0 
0.0 0.0 0.0 
0.0 0.0 0.0 
0.0 0.0 0.0 
0.0 0.0 0.0 
0.0 0.0 0.0 
0.0 0.0 0.0 
0.0 0.0 0.0 
0.0 0.0 0.0 
0.0 0.0 0.0 
0.0 0.0 0.0 
0.0 0.0 0.0 
0.0 0.0 0.0 
0.0 0.0 0.0 
0.0 0.0 0.0 
0.0 0.0 0.0 
0.0 0.0 0.0 
0.0 0.0 0.0 
0.0 0.0 0.0 
0.0 0.0 0.0 
0.0 0.0 0.0 
0.0 0.0 0.0 
0.0 0.0 0.0 
0.0 0.0 0.0 
0.0 0.0 0.0 
0.0 0.0 0.0 
0.0 0.0 0.0 
0.0 0.0 0.0 
0.0 0.0 0.0 
0.0 0.0 0.0 
0.0 0.0 0.0 
0.0 0.0 0.0 
0.0 0.0 0.0 
0.0 0.0 0.0 
0.0 0.0 0.0 
0.0 0.0 0.0 
0.0 0.0 0.0 
0.0 0.0 0.0 
0.0 0.0 0.0 
0.0 0.0 0.0 
0.0 0.0 0.0 
0.0 0.0 0.0 
0.0 0.0 0.0 
0.0 0.0 0.0 
0.0 0.0 0.0 
0.0 0.0 0.0 
0.0 0.0 0.0 
0.0 0.0 0.0 
0.0 0.0 0.0 
0.0 0.0 0.0 
0.0 0.0 0.0 
0.0 0.0 0.0 
0.0 0.0 0.0 
0.0 0.0 0.0 
0.0 0.0 0.0 
0.0 0.0 0.0 
0.0 0.0 0.0 
0.0 0.0 0.0 
0.0 0.0 0.0 
0.0 0.0 0.0 
0.0 0.0 0.0 
0.0 0.0 0.0 
0.0 0.0 0.0 
0.0 0.0 0.0 
0.0 0.0 0.0 
0.0 0.0 0.0 
0.0 0.0 0.0 
0.0 0.0 0.0 
0.0 0.0 0.0 
0.0 0.0 0.0 
0.0 0.0 0.0 
0.0 0.0 0.0 
0.0 0.0 0.0 
0.0 0.0 0.0 
0.0 0.0 0.0 
0.0 0.0 0.0 
0.0 0.0 0.0 
0.0 0.0 0.0 
0.0 0.0 0.0 
0.0 0.0 0.0 
0.0 0.0 0.0 
0.0 0.0 0.0 
0.0 0.0 0.0 
0.0 0.0 0.0 
0.0 0.0 0.0 
0.0 0.0 0.0 
0.0 0.0 0.0 
0.0 0.0 0.0 
0.0 0.0 0.0 
0.0 0.0 0.0 
0.0 0.0 0.0 
0.0 0.0 0.0 
0.0 0.0 0.0 
0.0 0.0 0.0 
0.0 0.0 0.0 
0.0 0.0 0.0 
0.0 0.0 0.0 
0.0 0.0 0.0 
0.0 0.0 0.0 
0.0 0.0 0.0 
0.0 0.0 0.0 
0.0 0.0 0.0 
0.0 0.0 0.0 
0.0 0.0 0.0 
0.0 0.0 0.0 
0.0 0.0 0.0 
0.0 0.0 0.0 
0.0 0.0 0.0 
0.0 0.0 0.0 
0.0 0.0 0.0 
0.0 0.0 0.0 
0.0 0.0 0.0 
0.0 0.0 0.0 
0.0 0.0 0.0 
0.0 0.0 0.0 
0.0 0.0 0.0 
0.0 0.0 0.0 
0.0 0.0 0.0 
0.0 0.0 0.0 
0.0 0.0 0.0 
0.0 0.0 0.0 
0.0 0.0 0.0 
0.0 0.0 0.0 
0.0 0.0 0.0 
0.0 0.0 0.0 
0.0 0.0 0.0 
0.0 0.0 0.0 
0.0 0.0 0.0 
0.0 0.0 0.0 
0.0 0.0 0.0 
0.0 0.0 0.0 
0.0 0.0 0.0 
0.0 0.0 0.0 
0.0 0.0 0.0 
0.0 0.0 0.0 
0.0 0.0 0.0 
0.0 0.0 0.0 
0.0 0.0 0.0 
0.0 0.0 0.0 
0.0 0.0 0.0 
0.0 0.0 0.0 
0.0 0.0 0.0 
0.0 0.0 0.0 
0.0 0.0 0.0 
0.0 0.0 0.0 
0.0 0.0 0.0 
0.0 0.0 0.0 
0.0 0.0 0.0 
0.0 0.0 0.0 
0.0 0.0 0.0 
0.0 0.0 0.0 
0.0 0.0 0.0 
0.0 0.0 0.0 
0.0 0.0 0.0 
0.0 0.0 0.0 
0.0 0.0 0.0 
0.0 0.0 0.0 
0.0 0.0 0.0 
0.0 0.0 0.0 
0.0 0.0 0.0 
0.0 0.0 0.0 
0.0 0.0 0.0 
0.0 0.0 0.0 
0.0 0.0 0.0 
0.0 0.0 0.0 
0.0 0.0 0.0 
0.0 0.0 0.0 
0.0 0.0 0.0 
0.0 0.0 0.0 
0.0 0.0 0.0 
0.0 0.0 0.0 
0.0 0.0 0.0 
0.0 0.0 0.0 
0.0 0.0 0.0 
0.0 0.0 0.0 
0.0 0.0 0.0 
0.0 0.0 0.0 
0.0 0.0 0.0 
0.0 0.0 0.0 
0.0 0.0 0.0 
0.0 0.0 0.0 
0.0 0.0 0.0 
0.0 0.0 0.0 
0.0 0.0 0.0 
0.0 0.0 0.0 
0.0 0.0 0.0 
0.0 0.0 0.0 
0.0 0.0 0.0 
0.0 0.0 0.0 
0.0 0.0 0.0 
0.0 0.0 0.0 
0.0 0.0 0.0 
0.0 0.0 0.0 
0.0 0.0 0.0 
0.0 0.0 0.0 
0.0 0.0 0.0 
0.0 0.0 0.0 
0.0 0.0 0.0 
0.0 0.0 0.0 
0.0 0.0 0.0 
0.0 0.0 0.0 
0.0 0.0 0.0 
0.0 0.0 0.0 
0.0 0.0 0.0 
0.0 0.0 0.0 
0.0 0.0 0.0 
0.0 0.0 0.0 
0.0 0.0 0.0 
0.0 0.0 0.0 
0.0 0.0 0.0 
0.0 0.0 0.0 
0.0 0.0 0.0 
0.0 0.0 0.0 
0.0 0.0 0.0 
0.0 0.0 0.0 
0.0 0.0 0.0 
0.0 0.0 0.0 
0.0 0.0 0.0 
0.0 0.0 0.0 
0.0 0.0 0.0 
0.0 0.0 0.0 
0.0 0.0 0.0 
0.0 0.0 0.0 
0.0 0.0 0.0 
0.0 0.0 0.0 
0.0 0.0 0.0 
0.0 0.0 0.0 
0.0 0.0 0.0 
0.0 0.0 0.0 
0.0 0.0 0.0 
0.0 0.0 0.0 
0.0 0.0 0.0 
0.0 0.0 0.0 
0.0 0.0 0.0 
0.0 0.0 0.0 
0.0 0.0 0.0 
0.0 0.0 0.0 
0.0 0.0 0.0 
0.0 0.0 0.0 
0.0 0.0 0.0 
0.0 0.0 0.0 
0.0 0.0 0.0 
0.0 0.0 0.0 
0.0 0.0 0.0 
0.0 0.0 0.0 
0.0 0.0 0.0 
0.0 0.0 0.0 
0.0 0.0 0.0 
0.0 0.0 0.0 
0.0 0.0 0.0 
0.0 0.0 0.0 
0.0 0.0 0.0 
0.0 0.0 0.0 
0.0 0.0 0.0 
0.0 0.0 0.0 
0.0 0.0 0.0 
0.0 0.0 0.0 
0.0 0.0 0.0 
0.0 0.0 0.0 
0.0 0.0 0.0 
0.0 0.0 0.0 
0.0 0.0 0.0 
0.0 0.0 0.0 
0.0 0.0 0.0 
0.0 0.0 0.0 
0.0 0.0 0.0 
0.0 0.0 0.0 
0.0 0.0 0.0 
0.0 0.0 0.0 
0.0 0.0 0.0 
0.0 0.0 0.0 
0.0 0.0 0.0 
0.0 0.0 0.0 
0.0 0.0 0.0 
0.0 0.0 0.0 
0.0 0.0 0.0 
0.0 0.0 0.0 
0.0 0.0 0.0 
0.0 0.0 0.0 
0.0 0.0 0.0 
0.0 0.0 0.0 
0.0 0.0 0.0 
0.0 0.0 0.0 
0.0 0.0 0.0 
0.0 0.0 0.0 
0.0 0.0 0.0 
0.0 0.0 0.0 
0.0 0.0 0.0 
0.0 0.0 0.0 
0.0 0.0 0.0 
0.0 0.0 0.0 
0.0 0.0 0.0 
0.0 0.0 0.0 
0.0 0.0 0.0 
0.0 0.0 0.0 
0.0 0.0 0.0 
0.0 0.0 0.0 
0.0 0.0 0.0 
0.0 0.0 0.0 
0.0 0.0 0.0 
0.0 0.0 0.0 
0.0 0.0 0.0 
0.0 0.0 0.0 
0.0 0.0 0.0 
0.0 0.0 0.0 
0.0 0.0 0.0 
0.0 0.0 0.0 
0.0 0.0 0.0 
0.0 0.0 0.0 
0.0 0.0 0.0 
0.0 0.0 0.0 
0.0 0.0 0.0 
0.0 0.0 0.0 
0.0 0.0 0.0 
0.0 0.0 0.0 
0.0 0.0 0.0 
0.0 0.0 0.0 
0.0 0.0 0.0 
0.0 0.0 0.0 
0.0 0.0 0.0 
0.0 0.0 0.0 
0.0 0.0 0.0 
0.0 0.0 0.0 
0.0 0.0 0.0 
0.0 0.0 0.0 
0.0 0.0 0.0 
0.0 0.0 0.0 
0.0 0.0 0.0 
0.0 0.0 0.0 
0.0 0.0 0.0 
0.0 0.0 0.0 
0.0 0.0 0.0 
0.0 0.0 0.0 
0.0 0.0 0.0 
0.0 0.0 0.0 
0.0 0.0 0.0 
0.0 0.0 0.0 
0.0 0.0 0.0 
0.0 0.0 0.0 
0.0 0.0 0.0 
0.0 0.0 0.0 
0.0 0.0 0.0 
0.0 0.0 0.0 
0.0 0.0 0.0 
0.0 0.0 0.0 
0.0 0.0 0.0 
0.0 0.0 0.0 
0.0 0.0 0.0 
0.0 0.0 0.0 
0.0 0.0 0.0 
0.0 0.0 0.0 
0.0 0.0 0.0 
0.0 0.0 0.0 
0.0 0.0 0.0 
0.0 0.0 0.0 
0.0 0.0 0.0 
0.0 0.0 0.0 
0.0 0.0 0.0 
0.0 0.0 0.0 
0.0 0.0 0.0 
0.0 0.0 0.0 
0.0 0.0 0.0 
0.0 0.0 0.0 
0.0 0.0 0.0 
0.0 0.0 0.0 
0.0 0.0 0.0 
0.0 0.0 0.0 
0.0 0.0 0.0 
0.0 0.0 0.0 
0.0 0.0 0.0 
0.0 0.0 0.0 
0.0 0.0 0.0 
0.0 0.0 0.0 
0.0 0.0 0.0 
0.0 0.0 0.0 
0.0 0.0 0.0 
0.0 0.0 0.0 
0.0 0.0 0.0 
0.0 0.0 0.0 
0.0 0.0 0.0 
0.0 0.0 0.0 
0.0 0.0 0.0 
0.0 0.0 0.0 
0.0 0.0 0.0 
0.0 0.0 0.0 
0.0 0.0 0.0 
0.0 0.0 0.0 
0.0 0.0 0.0 
0.0 0.0 0.0 
0.0 0.0 0.0 
0.0 0.0 0.0 
0.0 0.0 0.0 
0.0 0.0 0.0 
0.0 0.0 0.0 
0.0 0.0 0.0 
0.0 0.0 0.0 
0.0 0.0 0.0 
0.0 0.0 0.0 
0.0 0.0 0.0 
0.0 0.0 0.0 
0.0 0.0 0.0 
0.0 0.0 0.0 
0.0 0.0 0.0 
0.0 0.0 0.0 
0.0 0.0 0.0 
0.0 0.0 0.0 
0.0 0.0 0.0 
0.0 0.0 0.0 
0.0 0.0 0.0 
0.0 0.0 0.0 
0.0 0.0 0.0 
0.0 0.0 0.0 
0.0 0.0 0.0 
0.0 0.0 0.0 
0.0 0.0 0.0 
0.0 0.0 0.0 
0.0 0.0 0.0 
0.0 0.0 0.0 
0.0 0.0 0.0 
0.0 0.0 0.0 
0.0 0.0 0.0 
0.0 0.0 0.0 
0.0 0.0 0.0 
0.0 0.0 0.0 
0.0 0.0 0.0 
0.0 0.0 0.0 
0.0 0.0 0.0 
0.0 0.0 0.0 
0.0 0.0 0.0 
0.0 0.0 0.0 
0.0 0.0 0.0 
0.0 0.0 0.0 
0.0 0.0 0.0 
0.0 0.0 0.0 
0.0 0.0 0.0 
0.0 0.0 0.0 
0.0 0.0 0.0 
0.0 0.0 0.0 
0.0 0.0 0.0 
0.0 0.0 0.0 
0.0 0.0 0.0 
0.0 0.0 0.0 
0.0 0.0 0.0 
0.0 0.0 0.0 
0.0 0.0 0.0 
0.0 0.0 0.0 
0.0 0.0 0.0 
0.0 0.0 0.0 
0.0 0.0 0.0 
0.0 0.0 0.0 
0.0 0.0 0.0 
0.0 0.0 0.0 
0.0 0.0 0.0 
0.0 0.0 0.0 
0.0 0.0 0.0 
0.0 0.0 0.0 
0.0 0.0 0.0 
0.0 0.0 0.0 
0.0 0.0 0.0 
0.0 0.0 0.0 
0.0 0.0 0.0 
0.0 0.0 0.0 
0.0 0.0 0.0 
0.0 0.0 0.0 
0.0 0.0 0.0 
0.0 0.0 0.0 
0.0 0.0 0.0 
0.0 0.0 0.0 
0.0 0.0 0.0 
0.0 0.0 0.0 
0.0 0.0 0.0 
0.0 0.0 0.0 
0.0 0.0 0.0 
0.0 0.0 0.0 
0.0 0.0 0.0 
0.0 0.0 0.0 
0.0 0.0 0.0 
0.0 0.0 0.0 
0.0 0.0 0.0 
0.0 0.0 0.0 
0.0 0.0 0.0 
0.0 0.0 0.0 
0.0 0.0 0.0 
0.0 0.0 0.0 
0.0 0.0 0.0 
0.0 0.0 0.0 
0.0 0.0 0.0 
0.0 0.0 0.0 
0.0 0.0 0.0 
0.0 0.0 0.0 
0.0 0.0 0.0 
0.0 0.0 0.0 
0.0 0.0 0.0 
0.0 0.0 0.0 
0.0 0.0 0.0 
0.0 0.0 0.0 
0.0 0.0 0.0 
0.0 0.0 0.0 
0.0 0.0 0.0 
0.0 0.0 0.0 
0.0 0.0 0.0 
0.0 0.0 0.0 
0.0 0.0 0.0 
0.0 0.0 0.0 
0.0 0.0 0.0 
0.0 0.0 0.0 
0.0 0.0 0.0 
0.0 0.0 0.0 
0.0 0.0 0.0 
0.0 0.0 0.0 
0.0 0.0 0.0 
0.0 0.0 0.0 
0.0 0.0 0.0 
0.0 0.0 0.0 
0.0 0.0 0.0 
0.0 0.0 0.0 
0.0 0.0 0.0 
0.0 0.0 0.0 
0.0 0.0 0.0 
0.0 0.0 0.0 
0.0 0.0 0.0 
0.0 0.0 0.0 
0.0 0.0 0.0 
0.0 0.0 0.0 
0.0 0.0 0.0 
0.0 0.0 0.0 
0.0 0.0 0.0 
0.0 0.0 0.0 
0.0 0.0 0.0 
0.0 0.0 0.0 
0.0 0.0 0.0 
0.0 0.0 0.0 
0.0 0.0 0.0 
0.0 0.0 0.0 
0.0 0.0 0.0 
0.0 0.0 0.0 
0.0 0.0 0.0 
0.0 0.0 0.0 
0.0 0.0 0.0 
0.0 0.0 0.0 
0.0 0.0 0.0 
0.0 0.0 0.0 
0.0 0.0 0.0 
0.0 0.0 0.0 
0.0 0.0 0.0 
0.0 0.0 0.0 
0.0 0.0 0.0 
0.0 0.0 0.0 
0.0 0.0 0.0 
0.0 0.0 0.0 
0.0 0.0 0.0 
0.0 0.0 0.0 
0.0 0.0 0.0 
0.0 0.0 0.0 
0.0 0.0 0.0 
0.0 0.0 0.0 
0.0 0.0 0.0 
0.0 0.0 0.0 
0.0 0.0 0.0 
0.0 0.0 0.0 
0.0 0.0 0.0 
0.0 0.0 0.0 
0.0 0.0 0.0 
0.0 0.0 0.0 
0.0 0.0 0.0 
0.0 0.0 0.0 
0.0 0.0 0.0 
0.0 0.0 0.0 
0.0 0.0 0.0 
0.0 0.0 0.0 
0.0 0.0 0.0 
0.0 0.0 0.0 
0.0 0.0 0.0 
0.0 0.0 0.0 
0.0 0.0 0.0 
0.0 0.0 0.0 
0.0 0.0 0.0 
0.0 0.0 0.0 
0.0 0.0 0.0 
0.0 0.0 0.0 
0.0 0.0 0.0 
0.0 0.0 0.0 
0.0 0.0 0.0 
0.0 0.0 0.0 
0.0 0.0 0.0 
0.0 0.0 0.0 
0.0 0.0 0.0 
0.0 0.0 0.0 
0.0 0.0 0.0 
0.0 0.0 0.0 
0.0 0.0 0.0 
0.0 0.0 0.0 
0.0 0.0 0.0 
0.0 0.0 0.0 
0.0 0.0 0.0 
0.0 0.0 0.0 
0.0 0.0 0.0 
0.0 0.0 0.0 
0.0 0.0 0.0 
0.0 0.0 0.0 
0.0 0.0 0.0 
0.0 0.0 0.0 
0.0 0.0 0.0 
0.0 0.0 0.0 
0.0 0.0 0.0 
0.0 0.0 0.0 
0.0 0.0 0.0 
0.0 0.0 0.0 
0.0 0.0 0.0 
0.0 0.0 0.0 
0.0 0.0 0.0 
0.0 0.0 0.0 
0.0 0.0 0.0 
0.0 0.0 0.0 
0.0 0.0 0.0 
0.0 0.0 0.0 
0.0 0.0 0.0 
0.0 0.0 0.0 
0.0 0.0 0.0 
0.0 0.0 0.0 
0.0 0.0 0.0 
0.0 0.0 0.0 
0.0 0.0 0.0 
0.0 0.0 0.0 
0.0 0.0 0.0 
0.0 0.0 0.0 
0.0 0.0 0.0 
0.0 0.0 0.0 
0.0 0.0 0.0 
0.0 0.0 0.0 
0.0 0.0 0.0 
0.0 0.0 0.0 
0.0 0.0 0.0 
0.0 0.0 0.0 
0.0 0.0 0.0 
0.0 0.0 0.0 
0.0 0.0 0.0 
0.0 0.0 0.0 
0.0 0.0 0.0 
0.0 0.0 0.0 
0.0 0.0 0.0 
0.0 0.0 0.0 
0.0 0.0 0.0 
0.0 0.0 0.0 
0.0 0.0 0.0 
0.0 0.0 0.0 
0.0 0.0 0.0 
0.0 0.0 0.0 
0.0 0.0 0.0 
0.0 0.0 0.0 
0.0 0.0 0.0 
0.0 0.0 0.0 
0.0 0.0 0.0 
0.0 0.0 0.0 
0.0 0.0 0.0 
0.0 0.0 0.0 
0.0 0.0 0.0 
0.0 0.0 0.0 
0.0 0.0 0.0 
0.0 0.0 0.0 
0.0 0.0 0.0 
0.0 0.0 0.0 
0.0 0.0 0.0 
0.0 0.0 0.0 
0.0 0.0 0.0 
0.0 0.0 0.0 
0.0 0.0 0.0 
0.0 0.0 0.0 
0.0 0.0 0.0 
0.0 0.0 0.0 
0.0 0.0 0.0 
0.0 0.0 0.0 
0.0 0.0 0.0 
0.0 0.0 0.0 
0.0 0.0 0.0 
0.0 0.0 0.0 
0.0 0.0 0.0 
0.0 0.0 0.0 
0.0 0.0 0.0 
0.0 0.0 0.0 
0.0 0.0 0.0 
0.0 0.0 0.0 
0.0 0.0 0.0 
0.0 0.0 0.0 
0.0 0.0 0.0 
0.0 0.0 0.0 
0.0 0.0 0.0 
0.0 0.0 0.0 
0.0 0.0 0.0 
0.0 0.0 0.0 
0.0 0.0 0.0 
0.0 0.0 0.0 
0.0 0.0 0.0 
0.0 0.0 0.0 
0.0 0.0 0.0 
0.0 0.0 0.0 
0.0 0.0 0.0 
0.0 0.0 0.0 
0.0 0.0 0.0 
0.0 0.0 0.0 
0.0 0.0 0.0 
0.0 0.0 0.0 
0.0 0.0 0.0 
0.0 0.0 0.0 
0.0 0.0 0.0 
0.0 0.0 0.0 
0.0 0.0 0.0 
0.0 0.0 0.0 
0.0 0.0 0.0 
0.0 0.0 0.0 
0.0 0.0 0.0 
0.0 0.0 0.0 
0.0 0.0 0.0 
0.0 0.0 0.0 
0.0 0.0 0.0 
0.0 0.0 0.0 
0.0 0.0 0.0 
0.0 0.0 0.0 
0.0 0.0 0.0 
0.0 0.0 0.0 
0.0 0.0 0.0 
0.0 0.0 0.0 
0.0 0.0 0.0 
0.0 0.0 0.0 
0.0 0.0 0.0 
0.0 0.0 0.0 
0.0 0.0 0.0 
0.0 0.0 0.0 
0.0 0.0 0.0 
0.0 0.0 0.0 
0.0 0.0 0.0 
0.0 0.0 0.0 
0.0 0.0 0.0 
0.0 0.0 0.0 
0.0 0.0 0.0 
0.0 0.0 0.0 
0.0 0.0 0.0 
0.0 0.0 0.0 
0.0 0.0 0.0 
0.0 0.0 0.0 
0.0 0.0 0.0 
0.0 0.0 0.0 
0.0 0.0 0.0 
0.0 0.0 0.0 
0.0 0.0 0.0 
0.0 0.0 0.0 
0.0 0.0 0.0 
0.0 0.0 0.0 
0.0 0.0 0.0 
0.0 0.0 0.0 
0.0 0.0 0.0 
0.0 0.0 0.0 
0.0 0.0 0.0 
0.0 0.0 0.0 
0.0 0.0 0.0 
0.0 0.0 0.0 
0.0 0.0 0.0 
0.0 0.0 0.0 
0.0 0.0 0.0 
0.0 0.0 0.0 
0.0 0.0 0.0 
0.0 0.0 0.0 
0.0 0.0 0.0 
0.0 0.0 0.0 
0.0 0.0 0.0 
0.0 0.0 0.0 
0.0 0.0 0.0 
0.0 0.0 0.0 
0.0 0.0 0.0 
0.0 0.0 0.0 
0.0 0.0 0.0 
0.0 0.0 0.0 
0.0 0.0 0.0 
0.0 0.0 0.0 
0.0 0.0 0.0 
0.0 0.0 0.0 
0.0 0.0 0.0 
0.0 0.0 0.0 
0.0 0.0 0.0 
0.0 0.0 0.0 
0.0 0.0 0.0 
0.0 0.0 0.0 
0.0 0.0 0.0 
0.0 0.0 0.0 
0.0 0.0 0.0 
0.0 0.0 0.0 
0.0 0.0 0.0 
0.0 0.0 0.0 
0.0 0.0 0.0 
0.0 0.0 0.0 
0.0 0.0 0.0 
0.0 0.0 0.0 
0.0 0.0 0.0 
0.0 0.0 0.0 
0.0 0.0 0.0 
0.0 0.0 0.0 
0.0 0.0 0.0 
0.0 0.0 0.0 
0.0 0.0 0.0 
0.0 0.0 0.0 
0.0 0.0 0.0 
0.0 0.0 0.0 
0.0 0.0 0.0 
0.0 0.0 0.0 
0.0 0.0 0.0 
0.0 0.0 0.0 
0.0 0.0 0.0 
0.0 0.0 0.0 
0.0 0.0 0.0 
0.0 0.0 0.0 
0.0 0.0 0.0 
0.0 0.0 0.0 
0.0 0.0 0.0 
0.0 0.0 0.0 
0.0 0.0 0.0 
0.0 0.0 0.0 
0.0 0.0 0.0 
0.0 0.0 0.0 
0.0 0.0 0.0 
0.0 0.0 0.0 
0.0 0.0 0.0 
0.0 0.0 0.0 
0.0 0.0 0.0 
0.0 0.0 0.0 
0.0 0.0 0.0 
0.0 0.0 0.0 
0.0 0.0 0.0 
0.0 0.0 0.0 
0.0 0.0 0.0 
0.0 0.0 0.0 
0.0 0.0 0.0 
0.0 0.0 0.0 
0.0 0.0 0.0 
0.0 0.0 0.0 
0.0 0.0 0.0 
0.0 0.0 0.0 
0.0 0.0 0.0 
0.0 0.0 0.0 
0.0 0.0 0.0 
0.0 0.0 0.0 
0.0 0.0 0.0 
0.0 0.0 0.0 
0.0 0.0 0.0 
0.0 0.0 0.0 
0.0 0.0 0.0 
0.0 0.0 0.0 
0.0 0.0 0.0 
0.0 0.0 0.0 
0.0 0.0 0.0 
0.0 0.0 0.0 
0.0 0.0 0.0 
0.0 0.0 0.0 
0.0 0.0 0.0 
0.0 0.0 0.0 
0.0 0.0 0.0 
0.0 0.0 0.0 
0.0 0.0 0.0 
0.0 0.0 0.0 
0.0 0.0 0.0 
0.0 0.0 0.0 
0.0 0.0 0.0 
0.0 0.0 0.0 
0.0 0.0 0.0 
0.0 0.0 0.0 
0.0 0.0 0.0 
0.0 0.0 0.0 
0.0 0.0 0.0 
0.0 0.0 0.0 
0.0 0.0 0.0 
0.0 0.0 0.0 
0.0 0.0 0.0 
0.0 0.0 0.0 
0.0 0.0 0.0 
0.0 0.0 0.0 
0.0 0.0 0.0 
0.0 0.0 0.0 
0.0 0.0 0.0 
0.0 0.0 0.0 
0.0 0.0 0.0 
0.0 0.0 0.0 
0.0 0.0 0.0 
0.0 0.0 0.0 
0.0 0.0 0.0 
0.0 0.0 0.0 
0.0 0.0 0.0 
0.0 0.0 0.0 
0.0 0.0 0.0 
0.0 0.0 0.0 
0.0 0.0 0.0 
0.0 0.0 0.0 
0.0 0.0 0.0 
0.0 0.0 0.0 
0.0 0.0 0.0 
0.0 0.0 0.0 
0.0 0.0 0.0 
0.0 0.0 0.0 
0.0 0.0 0.0 
0.0 0.0 0.0 
0.0 0.0 0.0 
0.0 0.0 0.0 
0.0 0.0 0.0 
0.0 0.0 0.0 
0.0 0.0 0.0 
0.0 0.0 0.0 
0.0 0.0 0.0 
0.0 0.0 0.0 
0.0 0.0 0.0 
0.0 0.0 0.0 
0.0 0.0 0.0 
0.0 0.0 0.0 
0.0 0.0 0.0 
0.0 0.0 0.0 
0.0 0.0 0.0 
0.0 0.0 0.0 
0.0 0.0 0.0 
0.0 0.0 0.0 
0.0 0.0 0.0 
0.0 0.0 0.0 
0.0 0.0 0.0 
0.0 0.0 0.0 
0.0 0.0 0.0 
0.0 0.0 0.0 
0.0 0.0 0.0 
0.0 0.0 0.0 
0.0 0.0 0.0 
0.0 0.0 0.0 
0.0 0.0 0.0 
0.0 0.0 0.0 
0.0 0.0 0.0 
0.0 0.0 0.0 
0.0 0.0 0.0 
0.0 0.0 0.0 
0.0 0.0 0.0 
0.0 0.0 0.0 
0.0 0.0 0.0 
0.0 0.0 0.0 
0.0 0.0 0.0 
0.0 0.0 0.0 
0.0 0.0 0.0 
0.0 0.0 0.0 
0.0 0.0 0.0 
0.0 0.0 0.0 
0.0 0.0 0.0 
0.0 0.0 0.0 
0.0 0.0 0.0 
0.0 0.0 0.0 
0.0 0.0 0.0 
0.0 0.0 0.0 
0.0 0.0 0.0 
0.0 0.0 0.0 
0.0 0.0 0.0 
0.0 0.0 0.0 
0.0 0.0 0.0 
0.0 0.0 0.0 
0.0 0.0 0.0 
0.0 0.0 0.0 
0.0 0.0 0.0 
0.0 0.0 0.0 
0.0 0.0 0.0 
0.0 0.0 0.0 
0.0 0.0 0.0 
0.0 0.0 0.0 
0.0 0.0 0.0 
0.0 0.0 0.0 
0.0 0.0 0.0 
0.0 0.0 0.0 
0.0 0.0 0.0 
0.0 0.0 0.0 
0.0 0.0 0.0 
0.0 0.0 0.0 
0.0 0.0 0.0 
0.0 0.0 0.0 
0.0 0.0 0.0 
0.0 0.0 0.0 
0.0 0.0 0.0 
0.0 0.0 0.0 
0.0 0.0 0.0 
0.0 0.0 0.0 
0.0 0.0 0.0 
0.0 0.0 0.0 
0.0 0.0 0.0 
0.0 0.0 0.0 
0.0 0.0 0.0 
0.0 0.0 0.0 
0.0 0.0 0.0 
0.0 0.0 0.0 
0.0 0.0 0.0 
0.0 0.0 0.0 
0.0 0.0 0.0 
0.0 0.0 0.0 
0.0 0.0 0.0 
0.0 0.0 0.0 
0.0 0.0 0.0 
0.0 0.0 0.0 
0.0 0.0 0.0 
0.0 0.0 0.0 
0.0 0.0 0.0 
0.0 0.0 0.0 
0.0 0.0 0.0 
0.0 0.0 0.0 
0.0 0.0 0.0 
0.0 0.0 0.0 
0.0 0.0 0.0 
0.0 0.0 0.0 
0.0 0.0 0.0 
0.0 0.0 0.0 
0.0 0.0 0.0 
0.0 0.0 0.0 
0.0 0.0 0.0 
0.0 0.0 0.0 
0.0 0.0 0.0 
0.0 0.0 0.0 
0.0 0.0 0.0 
0.0 0.0 0.0 
0.0 0.0 0.0 
0.0 0.0 0.0 
0.0 0.0 0.0 
0.0 0.0 0.0 
0.0 0.0 0.0 
0.0 0.0 0.0 
0.0 0.0 0.0 
0.0 0.0 0.0 
0.0 0.0 0.0 
0.0 0.0 0.0 
0.0 0.0 0.0 
0.0 0.0 0.0 
0.0 0.0 0.0 
0.0 0.0 0.0 
0.0 0.0 0.0 
0.0 0.0 0.0 
0.0 0.0 0.0 
0.0 0.0 0.0 
0.0 0.0 0.0 
0.0 0.0 0.0 
0.0 0.0 0.0 
0.0 0.0 0.0 
0.0 0.0 0.0 
0.0 0.0 0.0 
0.0 0.0 0.0 
0.0 0.0 0.0 
0.0 0.0 0.0 
0.0 0.0 0.0 
0.0 0.0 0.0 
0.0 0.0 0.0 
0.0 0.0 0.0 
0.0 0.0 0.0 
0.0 0.0 0.0 
0.0 0.0 0.0 
0.0 0.0 0.0 
0.0 0.0 0.0 
0.0 0.0 0.0 
0.0 0.0 0.0 
0.0 0.0 0.0 
0.0 0.0 0.0 
0.0 0.0 0.0 
0.0 0.0 0.0 
0.0 0.0 0.0 
0.0 0.0 0.0 
0.0 0.0 0.0 
0.0 0.0 0.0 
0.0 0.0 0.0 
0.0 0.0 0.0 
0.0 0.0 0.0 
0.0 0.0 0.0 
0.0 0.0 0.0 
0.0 0.0 0.0 
0.0 0.0 0.0 
0.0 0.0 0.0 
0.0 0.0 0.0 
0.0 0.0 0.0 
0.0 0.0 0.0 
0.0 0.0 0.0 
0.0 0.0 0.0 
0.0 0.0 0.0 
0.0 0.0 0.0 
0.0 0.0 0.0 
0.0 0.0 0.0 
0.0 0.0 0.0 
0.0 0.0 0.0 
0.0 0.0 0.0 
0.0 0.0 0.0 
0.0 0.0 0.0 
0.0 0.0 0.0 
0.0 0.0 0.0 
0.0 0.0 0.0 
0.0 0.0 0.0 
0.0 0.0 0.0 
0.0 0.0 0.0 
0.0 0.0 0.0 
0.0 0.0 0.0 
0.0 0.0 0.0 
0.0 0.0 0.0 
0.0 0.0 0.0 
0.0 0.0 0.0 
0.0 0.0 0.0 
0.0 0.0 0.0 
0.0 0.0 0.0 
0.0 0.0 0.0 
0.0 0.0 0.0 
0.0 0.0 0.0 
0.0 0.0 0.0 
0.0 0.0 0.0 
0.0 0.0 0.0 
0.0 0.0 0.0 
0.0 0.0 0.0 
0.0 0.0 0.0 
0.0 0.0 0.0 
0.0 0.0 0.0 
0.0 0.0 0.0 
0.0 0.0 0.0 
0.0 0.0 0.0 
0.0 0.0 0.0 
0.0 0.0 0.0 
0.0 0.0 0.0 
0.0 0.0 0.0 
0.0 0.0 0.0 
0.0 0.0 0.0 
0.0 0.0 0.0 
0.0 0.0 0.0 
0.0 0.0 0.0 
0.0 0.0 0.0 
0.0 0.0 0.0 
0.0 0.0 0.0 
0.0 0.0 0.0 
0.0 0.0 0.0 
0.0 0.0 0.0 
0.0 0.0 0.0 
0.0 0.0 0.0 
0.0 0.0 0.0 
0.0 0.0 0.0 
0.0 0.0 0.0 
0.0 0.0 0.0 
0.0 0.0 0.0 
0.0 0.0 0.0 
0.0 0.0 0.0 
0.0 0.0 0.0 
0.0 0.0 0.0 
0.0 0.0 0.0 
0.0 0.0 0.0 
0.0 0.0 0.0 
0.0 0.0 0.0 
0.0 0.0 0.0 
0.0 0.0 0.0 
0.0 0.0 0.0 
0.0 0.0 0.0 
0.0 0.0 0.0 
0.0 0.0 0.0 
0.0 0.0 0.0 
0.0 0.0 0.0 
0.0 0.0 0.0 
0.0 0.0 0.0 
0.0 0.0 0.0 
0.0 0.0 0.0 
0.0 0.0 0.0 
0.0 0.0 0.0 
0.0 0.0 0.0 
0.0 0.0 0.0 
0.0 0.0 0.0 
0.0 0.0 0.0 
0.0 0.0 0.0 
0.0 0.0 0.0 
0.0 0.0 0.0 
0.0 0.0 0.0 
0.0 0.0 0.0 
0.0 0.0 0.0 
0.0 0.0 0.0 
0.0 0.0 0.0 
0.0 0.0 0.0 
0.0 0.0 0.0 
0.0 0.0 0.0 
0.0 0.0 0.0 
0.0 0.0 0.0 
0.0 0.0 0.0 
0.0 0.0 0.0 
0.0 0.0 0.0 
0.0 0.0 0.0 
0.0 0.0 0.0 
0.0 0.0 0.0 
0.0 0.0 0.0 
0.0 0.0 0.0 
0.0 0.0 0.0 
0.0 0.0 0.0 
0.0 0.0 0.0 
0.0 0.0 0.0 
0.0 0.0 0.0 
0.0 0.0 0.0 
0.0 0.0 0.0 
0.0 0.0 0.0 
0.0 0.0 0.0 
0.0 0.0 0.0 
0.0 0.0 0.0 
0.0 0.0 0.0 
0.0 0.0 0.0 
0.0 0.0 0.0 
0.0 0.0 0.0 
0.0 0.0 0.0 
0.0 0.0 0.0 
0.0 0.0 0.0 
0.0 0.0 0.0 
0.0 0.0 0.0 
0.0 0.0 0.0 
0.0 0.0 0.0 
0.0 0.0 0.0 
0.0 0.0 0.0 
0.0 0.0 0.0 
0.0 0.0 0.0 
0.0 0.0 0.0 
0.0 0.0 0.0 
0.0 0.0 0.0 
0.0 0.0 0.0 
0.0 0.0 0.0 
0.0 0.0 0.0 
0.0 0.0 0.0 
0.0 0.0 0.0 
0.0 0.0 0.0 
0.0 0.0 0.0 
0.0 0.0 0.0 
0.0 0.0 0.0 
0.0 0.0 0.0 
0.0 0.0 0.0 
0.0 0.0 0.0 
0.0 0.0 0.0 
0.0 0.0 0.0 
0.0 0.0 0.0 
0.0 0.0 0.0 
0.0 0.0 0.0 
0.0 0.0 0.0 
0.0 0.0 0.0 
0.0 0.0 0.0 
0.0 0.0 0.0 
0.0 0.0 0.0 
0.0 0.0 0.0 
0.0 0.0 0.0 
0.0 0.0 0.0 
0.0 0.0 0.0 
0.0 0.0 0.0 
0.0 0.0 0.0 
0.0 0.0 0.0 
0.0 0.0 0.0 
0.0 0.0 0.0 
0.0 0.0 0.0 
0.0 0.0 0.0 
0.0 0.0 0.0 
0.0 0.0 0.0 
0.0 0.0 0.0 
0.0 0.0 0.0 
0.0 0.0 0.0 
0.0 0.0 0.0 
0.0 0.0 0.0 
0.0 0.0 0.0 
0.0 0.0 0.0 
0.0 0.0 0.0 
0.0 0.0 0.0 
0.0 0.0 0.0 
0.0 0.0 0.0 
0.0 0.0 0.0 
0.0 0.0 0.0 
0.0 0.0 0.0 
0.0 0.0 0.0 
0.0 0.0 0.0 
0.0 0.0 0.0 
0.0 0.0 0.0 
0.0 0.0 0.0 
0.0 0.0 0.0 
0.0 0.0 0.0 
0.0 0.0 0.0 
0.0 0.0 0.0 
0.0 0.0 0.0 
0.0 0.0 0.0 
0.0 0.0 0.0 
0.0 0.0 0.0 
0.0 0.0 0.0 
0.0 0.0 0.0 
0.0 0.0 0.0 
0.0 0.0 0.0 
0.0 0.0 0.0 
0.0 0.0 0.0 
0.0 0.0 0.0 
0.0 0.0 0.0 
0.0 0.0 0.0 
0.0 0.0 0.0 
0.0 0.0 0.0 
0.0 0.0 0.0 
0.0 0.0 0.0 
0.0 0.0 0.0 
0.0 0.0 0.0 
0.0 0.0 0.0 
0.0 0.0 0.0 
0.0 0.0 0.0 
0.0 0.0 0.0 
0.0 0.0 0.0 
0.0 0.0 0.0 
0.0 0.0 0.0 
0.0 0.0 0.0 
0.0 0.0 0.0 
0.0 0.0 0.0 
0.0 0.0 0.0 
0.0 0.0 0.0 
0.0 0.0 0.0 
0.0 0.0 0.0 
0.0 0.0 0.0 
0.0 0.0 0.0 
0.0 0.0 0.0 
0.0 0.0 0.0 
0.0 0.0 0.0 
0.0 0.0 0.0 
0.0 0.0 0.0 
0.0 0.0 0.0 
0.0 0.0 0.0 
0.0 0.0 0.0 
0.0 0.0 0.0 
0.0 0.0 0.0 
0.0 0.0 0.0 
0.0 0.0 0.0 
0.0 0.0 0.0 
0.0 0.0 0.0 
0.0 0.0 0.0 
0.0 0.0 0.0 
0.0 0.0 0.0 
0.0 0.0 0.0 
0.0 0.0 0.0 
0.0 0.0 0.0 
0.0 0.0 0.0 
0.0 0.0 0.0 
0.0 0.0 0.0 
0.0 0.0 0.0 
0.0 0.0 0.0 
0.0 0.0 0.0 
0.0 0.0 0.0 
0.0 0.0 0.0 
0.0 0.0 0.0 
0.0 0.0 0.0 
0.0 0.0 0.0 
0.0 0.0 0.0 
0.0 0.0 0.0 
0.0 0.0 0.0 
0.0 0.0 0.0 
0.0 0.0 0.0 
0.0 0.0 0.0 
0.0 0.0 0.0 
0.0 0.0 0.0 
0.0 0.0 0.0 
0.0 0.0 0.0 
0.0 0.0 0.0 
0.0 0.0 0.0 
0.0 0.0 0.0 
0.0 0.0 0.0 
0.0 0.0 0.0 
0.0 0.0 0.0 
0.0 0.0 0.0 
0.0 0.0 0.0 
0.0 0.0 0.0 
0.0 0.0 0.0 
0.0 0.0 0.0 
0.0 0.0 0.0 
0.0 0.0 0.0 
0.0 0.0 0.0 
0.0 0.0 0.0 
0.0 0.0 0.0 
0.0 0.0 0.0 
0.0 0.0 0.0 
0.0 0.0 0.0 
0.0 0.0 0.0 
0.0 0.0 0.0 
0.0 0.0 0.0 
0.0 0.0 0.0 
0.0 0.0 0.0 
0.0 0.0 0.0 
0.0 0.0 0.0 
0.0 0.0 0.0 
0.0 0.0 0.0 
0.0 0.0 0.0 
0.0 0.0 0.0 
0.0 0.0 0.0 
0.0 0.0 0.0 
0.0 0.0 0.0 
0.0 0.0 0.0 
0.0 0.0 0.0 
0.0 0.0 0.0 
0.0 0.0 0.0 
0.0 0.0 0.0 
0.0 0.0 0.0 
0.0 0.0 0.0 
0.0 0.0 0.0 
0.0 0.0 0.0 
0.0 0.0 0.0 
0.0 0.0 0.0 
0.0 0.0 0.0 
0.0 0.0 0.0 
0.0 0.0 0.0 
0.0 0.0 0.0 
0.0 0.0 0.0 
0.0 0.0 0.0 
0.0 0.0 0.0 
0.0 0.0 0.0 
0.0 0.0 0.0 
0.0 0.0 0.0 
0.0 0.0 0.0 
0.0 0.0 0.0 
0.0 0.0 0.0 
0.0 0.0 0.0 
0.0 0.0 0.0 
0.0 0.0 0.0 
0.0 0.0 0.0 
0.0 0.0 0.0 
0.0 0.0 0.0 
0.0 0.0 0.0 
0.0 0.0 0.0 
0.0 0.0 0.0 
0.0 0.0 0.0 
0.0 0.0 0.0 
0.0 0.0 0.0 
0.0 0.0 0.0 
0.0 0.0 0.0 
0.0 0.0 0.0 
0.0 0.0 0.0 
0.0 0.0 0.0 
0.0 0.0 0.0 
0.0 0.0 0.0 
0.0 0.0 0.0 
0.0 0.0 0.0 
0.0 0.0 0.0 
0.0 0.0 0.0 
0.0 0.0 0.0 
0.0 0.0 0.0 
0.0 0.0 0.0 
0.0 0.0 0.0 
0.0 0.0 0.0 
0.0 0.0 0.0 
0.0 0.0 0.0 
0.0 0.0 0.0 
0.0 0.0 0.0 
0.0 0.0 0.0 
0.0 0.0 0.0 
0.0 0.0 0.0 
0.0 0.0 0.0 
0.0 0.0 0.0 
0.0 0.0 0.0 
0.0 0.0 0.0 
0.0 0.0 0.0 
0.0 0.0 0.0 
0.0 0.0 0.0 
0.0 0.0 0.0 
0.0 0.0 0.0 
0.0 0.0 0.0 
0.0 0.0 0.0 
0.0 0.0 0.0 
0.0 0.0 0.0 
0.0 0.0 0.0 
0.0 0.0 0.0 
0.0 0.0 0.0 
0.0 0.0 0.0 
0.0 0.0 0.0 
0.0 0.0 0.0 
0.0 0.0 0.0 
0.0 0.0 0.0 
0.0 0.0 0.0 
0.0 0.0 0.0 
0.0 0.0 0.0 
0.0 0.0 0.0 
0.0 0.0 0.0 
0.0 0.0 0.0 
0.0 0.0 0.0 
0.0 0.0 0.0 
0.0 0.0 0.0 
0.0 0.0 0.0 
0.0 0.0 0.0 
0.0 0.0 0.0 
0.0 0.0 0.0 
0.0 0.0 0.0 
0.0 0.0 0.0 
0.0 0.0 0.0 
0.0 0.0 0.0 
0.0 0.0 0.0 
0.0 0.0 0.0 
0.0 0.0 0.0 
0.0 0.0 0.0 
0.0 0.0 0.0 
0.0 0.0 0.0 
0.0 0.0 0.0 
0.0 0.0 0.0 
0.0 0.0 0.0 
0.0 0.0 0.0 
0.0 0.0 0.0 
0.0 0.0 0.0 
0.0 0.0 0.0 
0.0 0.0 0.0 
0.0 0.0 0.0 
0.0 0.0 0.0 
0.0 0.0 0.0 
0.0 0.0 0.0 
0.0 0.0 0.0 
0.0 0.0 0.0 
0.0 0.0 0.0 
0.0 0.0 0.0 
0.0 0.0 0.0 
0.0 0.0 0.0 
0.0 0.0 0.0 
0.0 0.0 0.0 
0.0 0.0 0.0 
0.0 0.0 0.0 
0.0 0.0 0.0 
0.0 0.0 0.0 
0.0 0.0 0.0 
0.0 0.0 0.0 
0.0 0.0 0.0 
0.0 0.0 0.0 
0.0 0.0 0.0 
0.0 0.0 0.0 
0.0 0.0 0.0 
0.0 0.0 0.0 
0.0 0.0 0.0 
0.0 0.0 0.0 
0.0 0.0 0.0 
0.0 0.0 0.0 
0.0 0.0 0.0 
0.0 0.0 0.0 
0.0 0.0 0.0 
0.0 0.0 0.0 
0.0 0.0 0.0 
0.0 0.0 0.0 
0.0 0.0 0.0 
0.0 0.0 0.0 
0.0 0.0 0.0 
0.0 0.0 0.0 
0.0 0.0 0.0 
0.0 0.0 0.0 
0.0 0.0 0.0 
0.0 0.0 0.0 
0.0 0.0 0.0 
0.0 0.0 0.0 
0.0 0.0 0.0 
0.0 0.0 0.0 
0.0 0.0 0.0 
0.0 0.0 0.0 
0.0 0.0 0.0 
0.0 0.0 0.0 
0.0 0.0 0.0 
0.0 0.0 0.0 
0.0 0.0 0.0 
0.0 0.0 0.0 
0.0 0.0 0.0 
0.0 0.0 0.0 
0.0 0.0 0.0 
0.0 0.0 0.0 
0.0 0.0 0.0 
0.0 0.0 0.0 
0.0 0.0 0.0 
0.0 0.0 0.0 
0.0 0.0 0.0 
0.0 0.0 0.0 
0.0 0.0 0.0 
0.0 0.0 0.0 
0.0 0.0 0.0 
0.0 0.0 0.0 
0.0 0.0 0.0 
0.0 0.0 0.0 
0.0 0.0 0.0 
0.0 0.0 0.0 
0.0 0.0 0.0 
0.0 0.0 0.0 
0.0 0.0 0.0 
0.0 0.0 0.0 
0.0 0.0 0.0 
0.0 0.0 0.0 
0.0 0.0 0.0 
0.0 0.0 0.0 
0.0 0.0 0.0 
0.0 0.0 0.0 
0.0 0.0 0.0 
0.0 0.0 0.0 
0.0 0.0 0.0 
0.0 0.0 0.0 
0.0 0.0 0.0 
0.0 0.0 0.0 
0.0 0.0 0.0 
0.0 0.0 0.0 
0.0 0.0 0.0 
0.0 0.0 0.0 
0.0 0.0 0.0 
0.0 0.0 0.0 
0.0 0.0 0.0 
0.0 0.0 0.0 
0.0 0.0 0.0 
0.0 0.0 0.0 
0.0 0.0 0.0 
0.0 0.0 0.0 
0.0 0.0 0.0 
0.0 0.0 0.0 
0.0 0.0 0.0 
0.0 0.0 0.0 
0.0 0.0 0.0 
0.0 0.0 0.0 
0.0 0.0 0.0 
0.0 0.0 0.0 
0.0 0.0 0.0 
0.0 0.0 0.0 
0.0 0.0 0.0 
0.0 0.0 0.0 
0.0 0.0 0.0 
0.0 0.0 0.0 
0.0 0.0 0.0 
0.0 0.0 0.0 
0.0 0.0 0.0 
0.0 0.0 0.0 
0.0 0.0 0.0 
0.0 0.0 0.0 
0.0 0.0 0.0 
0.0 0.0 0.0 
0.0 0.0 0.0 
0.0 0.0 0.0 
0.0 0.0 0.0 
0.0 0.0 0.0 
0.0 0.0 0.0 
0.0 0.0 0.0 
0.0 0.0 0.0 
0.0 0.0 0.0 
0.0 0.0 0.0 
0.0 0.0 0.0 
0.0 0.0 0.0 
0.0 0.0 0.0 
0.0 0.0 0.0 
0.0 0.0 0.0 
0.0 0.0 0.0 
0.0 0.0 0.0 
0.0 0.0 0.0 
0.0 0.0 0.0 
0.0 0.0 0.0 
0.0 0.0 0.0 
0.0 0.0 0.0 
0.0 0.0 0.0 
0.0 0.0 0.0 
0.0 0.0 0.0 
0.0 0.0 0.0 
0.0 0.0 0.0 
0.0 0.0 0.0 
0.0 0.0 0.0 
0.0 0.0 0.0 
0.0 0.0 0.0 
0.0 0.0 0.0 
0.0 0.0 0.0 
0.0 0.0 0.0 
0.0 0.0 0.0 
0.0 0.0 0.0 
0.0 0.0 0.0 
0.0 0.0 0.0 
0.0 0.0 0.0 
0.0 0.0 0.0 
0.0 0.0 0.0 
0.0 0.0 0.0 
0.0 0.0 0.0 
0.0 0.0 0.0 
0.0 0.0 0.0 
0.0 0.0 0.0 
0.0 0.0 0.0 
0.0 0.0 0.0 
0.0 0.0 0.0 
0.0 0.0 0.0 
0.0 0.0 0.0 
0.0 0.0 0.0 
0.0 0.0 0.0 
0.0 0.0 0.0 
0.0 0.0 0.0 
0.0 0.0 0.0 
0.0 0.0 0.0 
0.0 0.0 0.0 
0.0 0.0 0.0 
0.0 0.0 0.0 
0.0 0.0 0.0 
0.0 0.0 0.0 
0.0 0.0 0.0 
0.0 0.0 0.0 
0.0 0.0 0.0 
0.0 0.0 0.0 
0.0 0.0 0.0 
0.0 0.0 0.0 
0.0 0.0 0.0 
0.0 0.0 0.0 
0.0 0.0 0.0 
0.0 0.0 0.0 
0.0 0.0 0.0 
0.0 0.0 0.0 
0.0 0.0 0.0 
0.0 0.0 0.0 
0.0 0.0 0.0 
0.0 0.0 0.0 
0.0 0.0 0.0 
0.0 0.0 0.0 
0.0 0.0 0.0 
0.0 0.0 0.0 
0.0 0.0 0.0 
0.0 0.0 0.0 
0.0 0.0 0.0 
0.0 0.0 0.0 
0.0 0.0 0.0 
0.0 0.0 0.0 
0.0 0.0 0.0 
0.0 0.0 0.0 
0.0 0.0 0.0 
0.0 0.0 0.0 
0.0 0.0 0.0 
0.0 0.0 0.0 
0.0 0.0 0.0 
0.0 0.0 0.0 
0.0 0.0 0.0 
0.0 0.0 0.0 
0.0 0.0 0.0 
0.0 0.0 0.0 
0.0 0.0 0.0 
0.0 0.0 0.0 
0.0 0.0 0.0 
0.0 0.0 0.0 
0.0 0.0 0.0 
0.0 0.0 0.0 
0.0 0.0 0.0 
0.0 0.0 0.0 
0.0 0.0 0.0 
0.0 0.0 0.0 
0.0 0.0 0.0 
0.0 0.0 0.0 
0.0 0.0 0.0 
0.0 0.0 0.0 
0.0 0.0 0.0 
0.0 0.0 0.0 
0.0 0.0 0.0 
0.0 0.0 0.0 
0.0 0.0 0.0 
0.0 0.0 0.0 
0.0 0.0 0.0 
0.0 0.0 0.0 
0.0 0.0 0.0 
0.0 0.0 0.0 
0.0 0.0 0.0 
0.0 0.0 0.0 
0.0 0.0 0.0 
0.0 0.0 0.0 
0.0 0.0 0.0 
0.0 0.0 0.0 
0.0 0.0 0.0 
0.0 0.0 0.0 
0.0 0.0 0.0 
0.0 0.0 0.0 
0.0 0.0 0.0 
0.0 0.0 0.0 
0.0 0.0 0.0 
0.0 0.0 0.0 
0.0 0.0 0.0 
0.0 0.0 0.0 
0.0 0.0 0.0 
0.0 0.0 0.0 
0.0 0.0 0.0 
0.0 0.0 0.0 
0.0 0.0 0.0 
0.0 0.0 0.0 
0.0 0.0 0.0 
0.0 0.0 0.0 
0.0 0.0 0.0 
0.0 0.0 0.0 
0.0 0.0 0.0 
0.0 0.0 0.0 
0.0 0.0 0.0 
0.0 0.0 0.0 
0.0 0.0 0.0 
0.0 0.0 0.0 
0.0 0.0 0.0 
0.0 0.0 0.0 
0.0 0.0 0.0 
0.0 0.0 0.0 
0.0 0.0 0.0 
0.0 0.0 0.0 
0.0 0.0 0.0 
0.0 0.0 0.0 
0.0 0.0 0.0 
0.0 0.0 0.0 
0.0 0.0 0.0 
0.0 0.0 0.0 
0.0 0.0 0.0 
0.0 0.0 0.0 
0.0 0.0 0.0 
0.0 0.0 0.0 
0.0 0.0 0.0 
0.0 0.0 0.0 
0.0 0.0 0.0 
0.0 0.0 0.0 
0.0 0.0 0.0 
0.0 0.0 0.0 
0.0 0.0 0.0 
0.0 0.0 0.0 
0.0 0.0 0.0 
0.0 0.0 0.0 
0.0 0.0 0.0 
0.0 0.0 0.0 
0.0 0.0 0.0 
0.0 0.0 0.0 
0.0 0.0 0.0 
0.0 0.0 0.0 
0.0 0.0 0.0 
0.0 0.0 0.0 
0.0 0.0 0.0 
0.0 0.0 0.0 
0.0 0.0 0.0 
0.0 0.0 0.0 
0.0 0.0 0.0 
0.0 0.0 0.0 
0.0 0.0 0.0 
0.0 0.0 0.0 
0.0 0.0 0.0 
0.0 0.0 0.0 
0.0 0.0 0.0 
0.0 0.0 0.0 
0.0 0.0 0.0 
0.0 0.0 0.0 
0.0 0.0 0.0 
0.0 0.0 0.0 
0.0 0.0 0.0 
0.0 0.0 0.0 
0.0 0.0 0.0 
0.0 0.0 0.0 
0.0 0.0 0.0 
0.0 0.0 0.0 
0.0 0.0 0.0 
0.0 0.0 0.0 
0.0 0.0 0.0 
0.0 0.0 0.0 
0.0 0.0 0.0 
0.0 0.0 0.0 
0.0 0.0 0.0 
0.0 0.0 0.0 
0.0 0.0 0.0 
0.0 0.0 0.0 
0.0 0.0 0.0 
0.0 0.0 0.0 
0.0 0.0 0.0 
0.0 0.0 0.0 
0.0 0.0 0.0 
0.0 0.0 0.0 
0.0 0.0 0.0 
0.0 0.0 0.0 
0.0 0.0 0.0 
0.0 0.0 0.0 
0.0 0.0 0.0 
0.0 0.0 0.0 
0.0 0.0 0.0 
0.0 0.0 0.0 
0.0 0.0 0.0 
0.0 0.0 0.0 
0.0 0.0 0.0 
0.0 0.0 0.0 
0.0 0.0 0.0 
0.0 0.0 0.0 
0.0 0.0 0.0 
0.0 0.0 0.0 
0.0 0.0 0.0 
0.0 0.0 0.0 
0.0 0.0 0.0 
0.0 0.0 0.0 
0.0 0.0 0.0 
0.0 0.0 0.0 
0.0 0.0 0.0 
0.0 0.0 0.0 
0.0 0.0 0.0 
0.0 0.0 0.0 
0.0 0.0 0.0 
0.0 0.0 0.0 
0.0 0.0 0.0 
0.0 0.0 0.0 
0.0 0.0 0.0 
0.0 0.0 0.0 
0.0 0.0 0.0 
0.0 0.0 0.0 
0.0 0.0 0.0 
0.0 0.0 0.0 
0.0 0.0 0.0 
0.0 0.0 0.0 
0.0 0.0 0.0 
0.0 0.0 0.0 
0.0 0.0 0.0 
0.0 0.0 0.0 
0.0 0.0 0.0 
0.0 0.0 0.0 
0.0 0.0 0.0 
0.0 0.0 0.0 
0.0 0.0 0.0 
0.0 0.0 0.0 
0.0 0.0 0.0 
0.0 0.0 0.0 
0.0 0.0 0.0 
0.0 0.0 0.0 
0.0 0.0 0.0 
0.0 0.0 0.0 
0.0 0.0 0.0 
0.0 0.0 0.0 
0.0 0.0 0.0 
0.0 0.0 0.0 
0.0 0.0 0.0 
0.0 0.0 0.0 
0.0 0.0 0.0 
0.0 0.0 0.0 
0.0 0.0 0.0 
0.0 0.0 0.0 
0.0 0.0 0.0 
0.0 0.0 0.0 
0.0 0.0 0.0 
0.0 0.0 0.0 
0.0 0.0 0.0 
0.0 0.0 0.0 
0.0 0.0 0.0 
0.0 0.0 0.0 
0.0 0.0 0.0 
0.0 0.0 0.0 
0.0 0.0 0.0 
0.0 0.0 0.0 
0.0 0.0 0.0 
0.0 0.0 0.0 
0.0 0.0 0.0 
0.0 0.0 0.0 
0.0 0.0 0.0 
0.0 0.0 0.0 
0.0 0.0 0.0 
0.0 0.0 0.0 
0.0 0.0 0.0 
0.0 0.0 0.0 
0.0 0.0 0.0 
0.0 0.0 0.0 
0.0 0.0 0.0 
0.0 0.0 0.0 
0.0 0.0 0.0 
0.0 0.0 0.0 
0.0 0.0 0.0 
0.0 0.0 0.0 
0.0 0.0 0.0 
0.0 0.0 0.0 
0.0 0.0 0.0 
0.0 0.0 0.0 
0.0 0.0 0.0 
0.0 0.0 0.0 
0.0 0.0 0.0 
0.0 0.0 0.0 
0.0 0.0 0.0 
0.0 0.0 0.0 
0.0 0.0 0.0 
0.0 0.0 0.0 
0.0 0.0 0.0 
0.0 0.0 0.0 
0.0 0.0 0.0 
0.0 0.0 0.0 
0.0 0.0 0.0 
0.0 0.0 0.0 
0.0 0.0 0.0 
0.0 0.0 0.0 
0.0 0.0 0.0 
0.0 0.0 0.0 
0.0 0.0 0.0 
0.0 0.0 0.0 
0.0 0.0 0.0 
0.0 0.0 0.0 
0.0 0.0 0.0 
0.0 0.0 0.0 
0.0 0.0 0.0 
0.0 0.0 0.0 
0.0 0.0 0.0 
0.0 0.0 0.0 
0.0 0.0 0.0 
0.0 0.0 0.0 
0.0 0.0 0.0 
0.0 0.0 0.0 
0.0 0.0 0.0 
0.0 0.0 0.0 
0.0 0.0 0.0 
0.0 0.0 0.0 
0.0 0.0 0.0 
0.0 0.0 0.0 
0.0 0.0 0.0 
0.0 0.0 0.0 
0.0 0.0 0.0 
0.0 0.0 0.0 
0.0 0.0 0.0 
0.0 0.0 0.0 
0.0 0.0 0.0 
0.0 0.0 0.0 
0.0 0.0 0.0 
0.0 0.0 0.0 
0.0 0.0 0.0 
0.0 0.0 0.0 
0.0 0.0 0.0 
0.0 0.0 0.0 
0.0 0.0 0.0 
0.0 0.0 0.0 
0.0 0.0 0.0 
0.0 0.0 0.0 
0.0 0.0 0.0 
0.0 0.0 0.0 
0.0 0.0 0.0 
0.0 0.0 0.0 
0.0 0.0 0.0 
0.0 0.0 0.0 
0.0 0.0 0.0 
0.0 0.0 0.0 
0.0 0.0 0.0 
0.0 0.0 0.0 
0.0 0.0 0.0 
0.0 0.0 0.0 
0.0 0.0 0.0 
0.0 0.0 0.0 
0.0 0.0 0.0 
0.0 0.0 0.0 
0.0 0.0 0.0 
0.0 0.0 0.0 
0.0 0.0 0.0 
0.0 0.0 0.0 
0.0 0.0 0.0 
0.0 0.0 0.0 
0.0 0.0 0.0 
0.0 0.0 0.0 
0.0 0.0 0.0 
0.0 0.0 0.0 
0.0 0.0 0.0 
0.0 0.0 0.0 
0.0 0.0 0.0 
0.0 0.0 0.0 
0.0 0.0 0.0 
0.0 0.0 0.0 
0.0 0.0 0.0 
0.0 0.0 0.0 
0.0 0.0 0.0 
0.0 0.0 0.0 
0.0 0.0 0.0 
0.0 0.0 0.0 
0.0 0.0 0.0 
0.0 0.0 0.0 
0.0 0.0 0.0 
0.0 0.0 0.0 
0.0 0.0 0.0 
0.0 0.0 0.0 
0.0 0.0 0.0 
0.0 0.0 0.0 
0.0 0.0 0.0 
0.0 0.0 0.0 
0.0 0.0 0.0 
0.0 0.0 0.0 
0.0 0.0 0.0 
0.0 0.0 0.0 
0.0 0.0 0.0 
0.0 0.0 0.0 
0.0 0.0 0.0 
0.0 0.0 0.0 
0.0 0.0 0.0 
0.0 0.0 0.0 
0.0 0.0 0.0 
0.0 0.0 0.0 

TENSORS element_materi_stress float
-5.849856282426e+01 9.114668120494e+00 0.0 
9.114668120494e+00 -1.055578112070e+02 0.0 
0.0 0.0 -4.487695227425e+01 
-6.002204573329e+01 1.190199629761e+01 0.0 
1.190199629761e+01 -1.038835236689e+02 0.0 
0.0 0.0 -4.622772119609e+01 
-1.536187529924e+02 7.901384666244e+00 0.0 
7.901384666244e+00 -3.571506907776e+02 0.0 
0.0 0.0 -1.528308331310e+02 
-1.489646984847e+02 1.813773437054e+00 0.0 
1.813773437054e+00 -3.443777612290e+02 0.0 
0.0 0.0 -1.476027379141e+02 
-9.588619386759e+01 6.911364890595e-01 0.0 
6.911364890595e-01 -2.074344357054e+02 0.0 
0.0 0.0 -9.059618887190e+01 
-3.695715969703e+01 2.719992795145e+01 0.0 
2.719992795145e+01 -9.629299878964e+01 0.0 
0.0 0.0 -4.075934002006e+01 
-9.557432131027e+01 2.541282354454e-02 0.0 
2.541282354454e-02 -2.073448776063e+02 0.0 
0.0 0.0 -9.047575967497e+01 
-5.891178750828e+01 1.224931514690e+01 0.0 
1.224931514690e+01 -1.016861719663e+02 0.0 
0.0 0.0 -4.435151308012e+01 
-9.612627273484e+01 2.446587068856e+00 0.0 
2.446587068856e+00 -2.079495908817e+02 0.0 
0.0 0.0 -9.082275908497e+01 
-1.483612290887e+02 8.479297478466e-01 0.0 
8.479297478466e-01 -3.428970103243e+02 0.0 
0.0 0.0 -1.469774718239e+02 
-1.201876363168e+02 -1.411057377913e+00 0.0 
-1.411057377913e+00 -2.585277392671e+02 0.0 
0.0 0.0 -1.104346978530e+02 
-5.133499605715e+01 1.098177359312e+01 0.0 
1.098177359312e+01 -8.685679205066e+01 0.0 
0.0 0.0 -3.861832878639e+01 
-1.593289000515e+02 -1.015140502983e+00 0.0 
-1.015140502983e+00 -3.727062149551e+02 0.0 
0.0 0.0 -1.592105345020e+02 
-1.040378923314e+02 2.588532382582e+00 0.0 
2.588532382582e+00 -2.257971020577e+02 0.0 
0.0 0.0 -9.855049831672e+01 
-1.627787475125e+02 6.410354865459e-01 0.0 
6.410354865459e-01 -3.810271147195e+02 0.0 
0.0 0.0 -1.627417586696e+02 
-1.515160330747e+02 5.966887355981e-01 0.0 
5.966887355981e-01 -3.525096284109e+02 0.0 
0.0 0.0 -1.508076984457e+02 
-9.507548158850e+01 2.242697937839e+00 0.0 
2.242697937839e+00 -2.037815448567e+02 0.0 
0.0 0.0 -8.925710793356e+01 
-2.896752766805e+01 1.811647750455e+01 0.0 
1.811647750455e+01 -1.124237840064e+02 0.0 
0.0 0.0 -4.475675028858e+01 
-2.474447135007e+01 -8.254241357124e-02 0.0 
-8.254241357124e-02 -7.671802934206e+01 0.0 
0.0 0.0 -3.003875020764e+01 
-3.541875481901e+01 -1.664173014138e+00 0.0 
-1.664173014138e+00 -7.952485696518e+01 0.0 
0.0 0.0 -3.190297357065e+01 
-1.491747023475e+02 2.809060071164e+00 0.0 
2.809060071164e+00 -3.437138220635e+02 0.0 
0.0 0.0 -1.474665573233e+02 
-6.516719084287e+01 7.339996720785e+00 0.0 
7.339996720785e+00 -1.193723376438e+02 0.0 
0.0 0.0 -5.061803744179e+01 
-7.093665036046e+01 8.643934336355e+00 0.0 
8.643934336355e+00 -1.304857860775e+02 0.0 
0.0 0.0 -5.523850412184e+01 
-1.500203444222e+02 4.136035520132e+00 0.0 
4.136035520132e+00 -3.599713630504e+02 0.0 
0.0 0.0 -1.525975122418e+02 
-1.114706941844e+02 3.579896910929e+00 0.0 
3.579896910929e+00 -2.445259893242e+02 0.0 
0.0 0.0 -1.063990050526e+02 
-1.248717008572e+02 -3.266064799351e-01 0.0 
-3.266064799351e-01 -2.725147771818e+02 0.0 
0.0 0.0 -1.163846581160e+02 
-8.986552395593e+01 3.990866680828e+00 0.0 
3.990866680828e+00 -1.887892377364e+02 0.0 
0.0 0.0 -8.319642850770e+01 
-1.561344924698e+02 8.516388327755e+00 0.0 
8.516388327755e+00 -3.684603522217e+02 0.0 
0.0 0.0 -1.569784534074e+02 
-1.120984606391e+02 5.818662923047e+00 0.0 
5.818662923047e+00 -2.450693305865e+02 0.0 
0.0 0.0 -1.067503373677e+02 
-1.538330627795e+02 2.664604182760e+00 0.0 
2.664604182760e+00 -3.681019666445e+02 0.0 
0.0 0.0 -1.561805088272e+02 
-4.132266518623e+01 -2.179028420758e+01 0.0 
-2.179028420758e+01 -9.970943789223e+01 0.0 
0.0 0.0 -3.873328034583e+01 
-1.457594266984e+01 8.933688541251e-01 0.0 
8.933688541251e-01 -2.479987904216e+01 0.0 
0.0 0.0 -1.141274651360e+01 
-1.539079614606e+02 7.693670188750e+00 0.0 
7.693670188750e+00 -3.575471681016e+02 0.0 
0.0 0.0 -1.530365388687e+02 
-1.378802005524e+02 6.388436580428e-01 0.0 
6.388436580428e-01 -3.221552973252e+02 0.0 
0.0 0.0 -1.376106493633e+02 
-1.584634958173e+02 1.611366964865e+00 0.0 
1.611366964865e+00 -3.741824718706e+02 0.0 
0.0 0.0 -1.593937903064e+02 
-1.663904605383e+02 -1.465561184468e+00 0.0 
-1.465561184468e+00 -3.907985220208e+02 0.0 
0.0 0.0 -1.667566947677e+02 
-1.664295249910e+02 1.658473729791e+00 0.0 
1.658473729791e+00 -3.905399032398e+02 0.0 
0.0 0.0 -1.666908284693e+02 
-1.563946104934e+02 5.485909956610e+00 0.0 
5.485909956610e+00 -3.709231874353e+02 0.0 
0.0 0.0 -1.577953393786e+02 
-8.770394482216e+01 1.939413844563e+00 0.0 
1.939413844563e+00 -1.882316001572e+02 0.0 
0.0 0.0 -8.238066349379e+01 
-8.757518628911e+01 -8.658798884238e-01 0.0 
-8.658798884238e-01 -1.888357051164e+02 0.0 
0.0 0.0 -8.252326742166e+01 
-7.906569430632e+01 6.875172973052e+00 0.0 
6.875172973052e+00 -1.507186977210e+02 0.0 
0.0 0.0 -6.406545503985e+01 
-1.608306531209e+02 1.619421089798e+00 0.0 
1.619421089798e+00 -3.793329816152e+02 0.0 
0.0 0.0 -1.616490904208e+02 
-4.717491740111e+01 1.282555204157e+01 0.0 
1.282555204157e+01 -7.544796420645e+01 0.0 
0.0 0.0 -3.359140039540e+01 
-9.122119437418e+01 3.710608361955e+00 0.0 
3.710608361955e+00 -1.897281989721e+02 0.0 
0.0 0.0 -8.357424819730e+01 
-1.448060884089e+02 8.068383631261e-01 0.0 
8.068383631261e-01 -3.330319787702e+02 0.0 
0.0 0.0 -1.429514201537e+02 
-5.099135581781e+01 1.520112802669e+01 0.0 
1.520112802669e+01 -7.703197958446e+01 0.0 
0.0 0.0 -3.492484338946e+01 
-3.774348919600e+01 -2.392759206740e+01 0.0 
-2.392759206740e+01 -9.556882611513e+01 0.0 
0.0 0.0 -3.916224689542e+01 
-1.449205013962e+02 3.609910081417e-01 0.0 
3.609910081417e-01 -3.345956948334e+02 0.0 
0.0 0.0 -1.434548588689e+02 
-3.413067722798e+01 -2.598401825723e+01 0.0 
-2.598401825723e+01 -5.779262617521e+01 0.0 
0.0 0.0 -2.791577177145e+01 
-1.011989050205e+02 3.769360609498e+00 0.0 
3.769360609498e+00 -2.168650037706e+02 0.0 
0.0 0.0 -9.501917263732e+01 
-7.517647940608e+01 7.632789694197e+00 0.0 
7.632789694197e+00 -1.409943528425e+02 0.0 
0.0 0.0 -5.866774708637e+01 
-3.924800073597e+01 -3.012056428407e-01 0.0 
-3.012056428407e-01 -9.668648380080e+01 0.0 
0.0 0.0 -3.931968421756e+01 
-4.783455039340e+01 -1.551183604469e+01 0.0 
-1.551183604469e+01 -1.274107514221e+02 0.0 
0.0 0.0 -4.805542799292e+01 
-7.395041163360e+01 5.278748028834e+00 0.0 
5.278748028834e+00 -1.399212244176e+02 0.0 
0.0 0.0 -5.901117902984e+01 
-1.530694414079e+02 6.593639457691e+00 0.0 
6.593639457691e+00 -3.553280260357e+02 0.0 
0.0 0.0 -1.521192402331e+02 
-6.450192860620e+01 -1.478846962807e+00 0.0 
-1.478846962807e+00 -1.294176626005e+02 0.0 
0.0 0.0 -5.385116148025e+01 
-5.014390836435e+01 -1.938770066172e+00 0.0 
-1.938770066172e+00 -1.001100625665e+02 0.0 
0.0 0.0 -4.129087341745e+01 
-1.376007566633e+02 -9.740361105134e-01 0.0 
-9.740361105134e-01 -3.220990116462e+02 0.0 
0.0 0.0 -1.375099304929e+02 
-2.082256257368e+01 -1.763737025868e-01 0.0 
-1.763737025868e-01 -5.901388297099e+01 0.0 
0.0 0.0 -2.215237580342e+01 
-1.518884153708e+02 2.360413977578e+00 0.0 
2.360413977578e+00 -3.527050772064e+02 0.0 
0.0 0.0 -1.509780477732e+02 
-5.701324307762e+01 -2.452580829487e+01 0.0 
-2.452580829487e+01 -9.422305237269e+01 0.0 
0.0 0.0 -4.640078891828e+01 
-1.480408035143e+02 6.629946243317e+00 0.0 
6.629946243317e+00 -3.522554076249e+02 0.0 
0.0 0.0 -1.496888633418e+02 
-7.568288991218e+01 1.449050134565e+01 0.0 
1.449050134565e+01 -1.490136051702e+02 0.0 
0.0 0.0 -6.510221727923e+01 
-4.182909226464e+01 -1.666868839578e+01 0.0 
-1.666868839578e+01 -1.131069207462e+02 0.0 
0.0 0.0 -3.949713477191e+01 
-1.591362022875e+02 6.060884431096e-01 0.0 
6.060884431096e-01 -3.726700958425e+02 0.0 
0.0 0.0 -1.591418894390e+02 
-6.964452328256e+01 6.120889445342e+00 0.0 
6.120889445342e+00 -1.294309631843e+02 0.0 
0.0 0.0 -5.414849279521e+01 
-4.347137365810e+01 -8.274760895158e+00 0.0 
-8.274760895158e+00 -1.197109234303e+02 0.0 
0.0 0.0 -5.018957600917e+01 
-1.544589972066e+02 8.514101075715e+00 0.0 
8.514101075715e+00 -3.582698435562e+02 0.0 
0.0 0.0 -1.534186522288e+02 
-4.342541172697e+01 -9.721480864941e+00 0.0 
-9.721480864941e+00 -7.134765783079e+01 0.0 
0.0 0.0 -2.882924268717e+01 
-1.555002834816e+02 8.613396677321e+00 0.0 
8.613396677321e+00 -3.635996255502e+02 0.0 
0.0 0.0 -1.553299727095e+02 
-1.275047214179e+02 -4.148388490091e-01 0.0 
-4.148388490091e-01 -2.836108520770e+02 0.0 
0.0 0.0 -1.210683098679e+02 
-1.573387443327e+02 4.793623928438e+00 0.0 
4.793623928438e+00 -3.684570701095e+02 0.0 
0.0 0.0 -1.573387443327e+02 
-1.500951388058e+02 8.192459239933e+00 0.0 
8.192459239933e+00 -3.540807291106e+02 0.0 
0.0 0.0 -1.508527603749e+02 
-1.262238443738e+01 -6.266725797175e-01 0.0 
-6.266725797175e-01 -2.979269568693e+01 0.0 
0.0 0.0 -9.949335839097e+00 
-7.120642893681e+01 -2.980326595576e+00 0.0 
-2.980326595576e+00 -1.344470145207e+02 0.0 
0.0 0.0 -5.628705942597e+01 
-1.507134457178e+02 4.489578661402e+00 0.0 
4.489578661402e+00 -3.477427752484e+02 0.0 
0.0 0.0 -1.491368662898e+02 
-1.539610842954e+02 7.008076031469e+00 0.0 
7.008076031469e+00 -3.562955564270e+02 0.0 
0.0 0.0 -1.526769922167e+02 
-4.705260057812e+01 2.028063701673e+01 0.0 
2.028063701673e+01 -6.234003609855e+01 0.0 
0.0 0.0 -2.875818127606e+01 
-2.248181105787e+01 -2.129391391401e+00 0.0 
-2.129391391401e+00 -5.865210944472e+01 0.0 
0.0 0.0 -2.242805861538e+01 
-4.315154179634e+01 1.605217262701e+01 0.0 
1.605217262701e+01 -6.105101925763e+01 0.0 
0.0 0.0 -2.695402325877e+01 
-4.505305096063e+01 -1.312163363986e+01 0.0 
-1.312163363986e+01 -7.225694888098e+01 0.0 
0.0 0.0 -2.963245097542e+01 
-9.462113967620e+01 1.883110217190e+00 0.0 
1.883110217190e+00 -2.030728733315e+02 0.0 
0.0 0.0 -8.890820390230e+01 
-6.697511886204e+01 9.863135064962e+00 0.0 
9.863135064962e+00 -1.208690831644e+02 0.0 
0.0 0.0 -5.187395911435e+01 
-5.987504146332e+01 8.979911473363e+00 0.0 
8.979911473363e+00 -1.068036025548e+02 0.0 
0.0 0.0 -4.672236214014e+01 
-1.004532557387e+02 2.668291497400e+00 0.0 
2.668291497400e+00 -2.184411653823e+02 0.0 
0.0 0.0 -9.526832633629e+01 
-9.991604065486e+01 6.068727346693e-01 0.0 
6.068727346693e-01 -2.181809919954e+02 0.0 
0.0 0.0 -9.502910979507e+01 
-1.295994689733e+02 1.624931522466e-01 0.0 
1.624931522466e-01 -2.919165016631e+02 0.0 
0.0 0.0 -1.246474474146e+02 
-1.343728631638e+02 -8.580136096724e-01 0.0 
-8.580136096724e-01 -3.135963448873e+02 0.0 
0.0 0.0 -1.339722960559e+02 
-1.330694328872e+02 8.691075755495e+00 0.0 
8.691075755495e+00 -3.041840516767e+02 0.0 
0.0 0.0 -1.307760453692e+02 
-9.613876518636e+01 2.985724079598e+00 0.0 
2.985724079598e+00 -2.068068741811e+02 0.0 
0.0 0.0 -9.048369181024e+01 
-1.805931914821e+01 -2.399918993936e+00 0.0 
-2.399918993936e+00 -2.663245528251e+01 0.0 
0.0 0.0 -1.238540404537e+01 
-9.701444701135e+01 4.281251476088e+00 0.0 
4.281251476088e+00 -2.069841895055e+02 0.0 
0.0 0.0 -9.079959095504e+01 
-1.263252188695e+02 1.005151741641e+00 0.0 
1.005151741641e+00 -2.861416966225e+02 0.0 
0.0 0.0 -1.233400746476e+02 
-1.255683062877e+02 2.958556912066e-01 0.0 
2.958556912066e-01 -2.827294285649e+02 0.0 
0.0 0.0 -1.220893204558e+02 
-1.589589232248e+02 5.261873829576e+00 0.0 
5.261873829576e+00 -3.695382298793e+02 0.0 
0.0 0.0 -1.581491459312e+02 
-1.609376522155e+02 7.273859302896e+00 0.0 
7.273859302896e+00 -3.795254841300e+02 0.0 
0.0 0.0 -1.617389409037e+02 
-9.502838711664e+01 2.814962016154e+00 0.0 
2.814962016154e+00 -2.029538514669e+02 0.0 
0.0 0.0 -8.899467157507e+01 
-1.593116228962e+02 1.407327674388e+00 0.0 
1.407327674388e+00 -3.788111906510e+02 0.0 
0.0 0.0 -1.610368440642e+02 
-1.072637151039e+02 8.426947319154e-01 0.0 
8.426947319154e-01 -2.372721143154e+02 0.0 
0.0 0.0 -1.029607488258e+02 
-7.273069644406e+01 1.313672099314e+01 0.0 
1.313672099314e+01 -1.386728601871e+02 0.0 
0.0 0.0 -5.950525237315e+01 
-9.251869735834e+01 2.131334071498e+00 0.0 
2.131334071498e+00 -1.980364856512e+02 0.0 
0.0 0.0 -8.676655490287e+01 
-1.624914494902e+02 -8.930257134476e-01 0.0 
-8.930257134476e-01 -3.807671409611e+02 0.0 
0.0 0.0 -1.625775771354e+02 
-1.246831118657e+02 8.126549684321e+00 0.0 
8.126549684321e+00 -3.055719643396e+02 0.0 
0.0 0.0 -1.286765228616e+02 
-1.482698707583e+02 8.310663365090e+00 0.0 
8.310663365090e+00 -3.527353021754e+02 0.0 
0.0 0.0 -1.499015518801e+02 
-6.534812371466e+01 1.894915759242e+01 0.0 
1.894915759242e+01 -1.333669334678e+02 0.0 
0.0 0.0 -5.679080342753e+01 
-4.933657693575e+01 -2.876282411752e+01 0.0 
-2.876282411752e+01 -7.841796768080e+01 0.0 
0.0 0.0 -3.607892250672e+01 
-1.505550271614e+02 6.940022411106e-01 0.0 
6.940022411106e-01 -3.521322723888e+02 0.0 
0.0 0.0 -1.504061898651e+02 
-1.329073394190e+02 5.342206453473e-01 0.0 
5.342206453473e-01 -3.018311206834e+02 0.0 
0.0 0.0 -1.300215380307e+02 
-5.013139478408e+01 -3.665089940513e+01 0.0 
-3.665089940513e+01 -7.204883691287e+01 0.0 
0.0 0.0 -3.781126688107e+01 
-1.620162060606e+02 3.192773037524e-01 0.0 
3.192773037524e-01 -3.791161467539e+02 0.0 
0.0 0.0 -1.619397058444e+02 
-1.281467781955e+02 7.134482187101e+00 0.0 
7.134482187101e+00 -2.929701413528e+02 0.0 
0.0 0.0 -1.259350758645e+02 
-1.263798574142e+01 1.603136999567e-01 0.0 
1.603136999567e-01 -2.149045893448e+01 0.0 
0.0 0.0 -8.073048565915e+00 
-8.332148641937e+01 1.652268260217e+01 0.0 
1.652268260217e+01 -1.850607363266e+02 0.0 
0.0 0.0 -8.099869246075e+01 
-9.242114325489e+01 5.845531169828e+00 0.0 
5.845531169828e+00 -1.887852311809e+02 0.0 
0.0 0.0 -8.282158631870e+01 
-8.696868228400e+01 -3.067786975323e+00 0.0 
-3.067786975323e+00 -1.654310308511e+02 0.0 
0.0 0.0 -6.959648960085e+01 
-6.745421911783e+01 1.466450961022e+01 0.0 
1.466450961022e+01 -1.267649483194e+02 0.0 
0.0 0.0 -5.626737653238e+01 
-7.495823891480e+01 1.490054424737e+01 0.0 
1.490054424737e+01 -1.489118965579e+02 0.0 
0.0 0.0 -6.429360442429e+01 
-1.613505799669e+02 1.917572032011e-01 0.0 
1.917572032011e-01 -3.804788731811e+02 0.0 
0.0 0.0 -1.621488359444e+02 
-1.048113381901e+02 -4.474902137920e-01 0.0 
-4.474902137920e-01 -2.306921219415e+02 0.0 
0.0 0.0 -1.002510380395e+02 
-7.105707440513e+01 1.670820931717e+01 0.0 
1.670820931717e+01 -1.407307423557e+02 0.0 
0.0 0.0 -6.163577796256e+01 
-3.483418930291e+01 -4.301956761806e+00 0.0 
-4.301956761806e+00 -6.287293116101e+01 0.0 
0.0 0.0 -2.432793562326e+01 
-9.728177628858e+01 4.204645693693e+00 0.0 
4.204645693693e+00 -2.066405613034e+02 0.0 
0.0 0.0 -9.077670127759e+01 
-1.333212146471e+02 1.017159014016e+00 0.0 
1.017159014016e+00 -3.033305219599e+02 0.0 
0.0 0.0 -1.305955209821e+02 
-7.010116150263e+01 1.681552485325e+01 0.0 
1.681552485325e+01 -1.403157070556e+02 0.0 
0.0 0.0 -6.075045384113e+01 
-4.485274798072e+01 2.912337014510e+01 0.0 
2.912337014510e+01 -5.709569823773e+01 0.0 
0.0 0.0 -2.782811339887e+01 
-8.631280283944e+01 6.149338708389e+00 0.0 
6.149338708389e+00 -1.699935441285e+02 0.0 
0.0 0.0 -7.384797332291e+01 
-8.332103438499e+01 -3.445828110555e+00 0.0 
-3.445828110555e+00 -1.631168563215e+02 0.0 
0.0 0.0 -6.842730648598e+01 
-8.139719337139e+01 4.327870724333e+00 0.0 
4.327870724333e+00 -1.595963782352e+02 0.0 
0.0 0.0 -6.897914384391e+01 
-1.531088896495e+02 3.493738390241e+00 0.0 
3.493738390241e+00 -3.558810465123e+02 0.0 
0.0 0.0 -1.522969808485e+02 
-4.464572654496e+01 2.798618012092e+01 0.0 
2.798618012092e+01 -7.999511262827e+01 0.0 
0.0 0.0 -3.242588705071e+01 
-1.229451612371e+02 -1.738896163321e+00 0.0 
-1.738896163321e+00 -2.711643241680e+02 0.0 
0.0 0.0 -1.157520716938e+02 
-1.486521526420e+02 7.663653330508e-02 0.0 
7.663653330508e-02 -3.443177148951e+02 0.0 
0.0 0.0 -1.474909602611e+02 
-8.933084631891e+01 9.246630043702e+00 0.0 
9.246630043702e+00 -1.783427444009e+02 0.0 
0.0 0.0 -7.533212527420e+01 
-8.295447567823e+01 6.462104968521e+00 0.0 
6.462104968521e+00 -1.606711257233e+02 0.0 
0.0 0.0 -6.921078667906e+01 
-1.578533945086e+02 -1.036419362196e-01 0.0 
-1.036419362196e-01 -3.739702887206e+02 0.0 
0.0 0.0 -1.591471049687e+02 
-1.596273248371e+02 9.767079848309e-01 0.0 
9.767079848309e-01 -3.733770343810e+02 0.0 
0.0 0.0 -1.595013077654e+02 
-1.283258944274e+02 -1.400889528320e+00 0.0 
-1.400889528320e+00 -2.918589636654e+02 0.0 
0.0 0.0 -1.245500353348e+02 
-9.203769087444e+01 9.634364196204e+00 0.0 
9.634364196204e+00 -1.883374057814e+02 0.0 
0.0 0.0 -7.992399642915e+01 
-1.593563059533e+02 2.791860750243e+00 0.0 
2.791860750243e+00 -3.797484232337e+02 0.0 
0.0 0.0 -1.613314187561e+02 
-8.587864196179e+01 7.695594260114e+00 0.0 
7.695594260114e+00 -1.685243215410e+02 0.0 
0.0 0.0 -7.083062842958e+01 
-1.512590938541e+02 2.981086007589e+00 0.0 
2.981086007589e+00 -3.505819524695e+02 0.0 
0.0 0.0 -1.501523138971e+02 
-1.555422391150e+02 8.582313736533e+00 0.0 
8.582313736533e+00 -3.636591306279e+02 0.0 
0.0 0.0 -1.553604109229e+02 
-1.040921838443e+02 4.670628994578e+00 0.0 
4.670628994578e+00 -2.252258636901e+02 0.0 
0.0 0.0 -9.839541426031e+01 
-1.173591970633e+02 3.160678303493e-01 0.0 
3.160678303493e-01 -2.619146509683e+02 0.0 
0.0 0.0 -1.133821544095e+02 
-8.535080397968e+01 9.473639710479e+00 0.0 
9.473639710479e+00 -1.685187814565e+02 0.0 
0.0 0.0 -7.073242171081e+01 
-7.807923566940e+01 4.682656398118e+00 0.0 
4.682656398118e+00 -1.502006379447e+02 0.0 
0.0 0.0 -6.423180611678e+01 
-9.595475839082e+01 9.454540589938e+00 0.0 
9.454540589938e+00 -1.980034338687e+02 0.0 
0.0 0.0 -8.345885686374e+01 
-7.131262957768e+01 1.778877070971e+01 0.0 
1.778877070971e+01 -1.537126308017e+02 0.0 
0.0 0.0 -6.507099532407e+01 
-9.302000226428e+01 1.771058050187e+00 0.0 
1.771058050187e+00 -2.006079653376e+02 0.0 
0.0 0.0 -8.768839028056e+01 
-7.869150453348e+01 1.555568470323e+01 0.0 
1.555568470323e+01 -1.818739812563e+02 0.0 
0.0 0.0 -7.709473445887e+01 
-1.349706376662e+01 9.432998493192e-02 0.0 
9.432998493192e-02 -2.573567144924e+01 0.0 
0.0 0.0 -1.055513036176e+01 
-9.832570770463e+01 3.209170786665e-01 0.0 
3.209170786665e-01 -2.153379191329e+02 0.0 
0.0 0.0 -9.369908805125e+01 
-1.952359376301e+01 -7.644779659186e-01 0.0 
-7.644779659186e-01 -5.960654867414e+01 0.0 
0.0 0.0 -2.269453687521e+01 
-8.939124191681e+01 6.006399979637e+00 0.0 
6.006399979637e+00 -1.795216523807e+02 0.0 
0.0 0.0 -7.840850614268e+01 
-1.609930008365e+02 2.709248169495e+00 0.0 
2.709248169495e+00 -3.801298813656e+02 0.0 
0.0 0.0 -1.619368646606e+02 
-6.735449847232e+01 1.855929072003e+01 0.0 
1.855929072003e+01 -1.340205668605e+02 0.0 
0.0 0.0 -5.860899855344e+01 
-1.313411329689e+02 -1.143474571419e+00 0.0 
-1.143474571419e+00 -3.021637505611e+02 0.0 
0.0 0.0 -1.290316028091e+02 
-5.346484337054e+01 1.381033201718e+01 0.0 
1.381033201718e+01 -8.503517033773e+01 0.0 
0.0 0.0 -3.830599716699e+01 
-1.252441974080e+02 6.437573740437e+00 0.0 
6.437573740437e+00 -3.055931582489e+02 0.0 
0.0 0.0 -1.288512066971e+02 
-9.258740301960e+01 4.529869297763e-01 0.0 
4.529869297763e-01 -2.018232980728e+02 0.0 
0.0 0.0 -8.792321032771e+01 
-7.870995711240e+01 1.743324673980e+01 0.0 
1.743324673980e+01 -1.779375810791e+02 0.0 
0.0 0.0 -7.642034115704e+01 
-1.418865404994e+02 7.025410809277e-01 0.0 
7.025410809277e-01 -3.319672622899e+02 0.0 
0.0 0.0 -1.417561408368e+02 
-3.993652378995e+01 -8.818551288174e+00 0.0 
-8.818551288174e+00 -6.398676714928e+01 0.0 
0.0 0.0 -2.765220164640e+01 
-1.503878601411e+02 -1.049332532012e+00 0.0 
-1.049332532012e+00 -3.517975161590e+02 0.0 
0.0 0.0 -1.502556128900e+02 
-9.816745986257e+01 5.769108676253e+00 0.0 
5.769108676253e+00 -2.067007744722e+02 0.0 
0.0 0.0 -8.988316732651e+01 
-1.609556302327e+02 -1.802914624001e-01 0.0 
-1.802914624001e-01 -3.779884473214e+02 0.0 
0.0 0.0 -1.612832232662e+02 
-9.203574076647e+01 9.682021046586e-02 0.0 
9.682021046586e-02 -2.006719164395e+02 0.0 
0.0 0.0 -8.741229716178e+01 
-7.028908412543e+01 1.903990756534e+01 0.0 
1.903990756534e+01 -1.464821151293e+02 0.0 
0.0 0.0 -6.401695799950e+01 
-8.791126618667e+01 4.034686656822e+00 0.0 
4.034686656822e+00 -1.784603066975e+02 0.0 
0.0 0.0 -7.806989927320e+01 
-1.209101176647e+02 -1.684592001373e-01 0.0 
-1.684592001373e-01 -2.598058050108e+02 0.0 
0.0 0.0 -1.108684733938e+02 
-5.111283496166e+01 1.163849546600e+01 0.0 
1.163849546600e+01 -8.440247997235e+01 0.0 
0.0 0.0 -3.740870088599e+01 
-7.383074875010e+01 1.577852101731e+01 0.0 
1.577852101731e+01 -1.743971952142e+02 0.0 
0.0 0.0 -7.242267225581e+01 
-1.215578450447e+02 1.957814930640e+00 0.0 
1.957814930640e+00 -2.725928866196e+02 0.0 
0.0 0.0 -1.178452194993e+02 
-9.228921445957e+01 -7.641958516308e-02 0.0 
-7.641958516308e-02 -2.007025220146e+02 0.0 
0.0 0.0 -8.749752094226e+01 
-7.668424755617e+01 1.780402870689e+01 0.0 
1.780402870689e+01 -1.654381707096e+02 0.0 
0.0 0.0 -7.251618226596e+01 
-8.482342151445e+01 4.206792877054e+00 0.0 
4.206792877054e+00 -1.689205727401e+02 0.0 
0.0 0.0 -7.349432873326e+01 
-1.385594907654e+02 7.702003075865e+00 0.0 
7.702003075865e+00 -3.226866841400e+02 0.0 
0.0 0.0 -1.379738524716e+02 
-9.262773034415e+01 -3.111564098891e+00 0.0 
-3.111564098891e+00 -1.828817786668e+02 0.0 
0.0 0.0 -7.708413637203e+01 
-1.573436615396e+02 7.949285024645e+00 0.0 
7.949285024645e+00 -3.697533975996e+02 0.0 
0.0 0.0 -1.577291177418e+02 
-1.556480892534e+02 9.092746500056e+00 0.0 
9.092746500056e+00 -3.644691484140e+02 0.0 
0.0 0.0 -1.556351713002e+02 
-6.546281724126e+01 1.280978944787e+01 0.0 
1.280978944787e+01 -1.189019670249e+02 0.0 
0.0 0.0 -5.133031949220e+01 
-9.531959459381e+01 -3.034528923761e+00 0.0 
-3.034528923761e+00 -1.836875687471e+02 0.0 
0.0 0.0 -7.798001180946e+01 
-1.411692758590e+02 5.160167725813e+00 0.0 
5.160167725813e+00 -3.424365843898e+02 0.0 
0.0 0.0 -1.446817580747e+02 
-8.216995850078e+01 8.201755512886e+00 0.0 
8.201755512886e+00 -1.592426849437e+02 0.0 
0.0 0.0 -6.721111558982e+01 
-5.923359573188e+01 1.387091270433e+01 0.0 
1.387091270433e+01 -1.053941371951e+02 0.0 
0.0 0.0 -4.750875936613e+01 
-9.472085050662e+01 4.864479714877e+00 0.0 
4.864479714877e+00 -1.974815996410e+02 0.0 
0.0 0.0 -8.621925013690e+01 
-7.761412781928e+01 1.629775745108e+01 0.0 
1.629775745108e+01 -1.730924133283e+02 0.0 
0.0 0.0 -7.303717184600e+01 
-1.501858123943e+02 1.667140303460e+00 0.0 
1.667140303460e+00 -3.492537266181e+02 0.0 
0.0 0.0 -1.494318617037e+02 
-1.291274667279e+02 6.376723275715e+00 0.0 
6.376723275715e+00 -2.934928108202e+02 0.0 
0.0 0.0 -1.263860832644e+02 
-1.462498471131e+02 -1.049832199155e+00 0.0 
-1.049832199155e+00 -3.420670639452e+02 0.0 
0.0 0.0 -1.460950733175e+02 
-4.906765289926e+01 1.748742315604e+01 0.0 
1.748742315604e+01 -6.951616025305e+01 0.0 
0.0 0.0 -3.169099145564e+01 
-6.923157992586e+01 1.543947126088e+01 0.0 
1.543947126088e+01 -1.684858135862e+02 0.0 
0.0 0.0 -6.810255911110e+01 
-1.325743201950e+02 6.788703096256e+00 0.0 
6.788703096256e+00 -3.032769345596e+02 0.0 
0.0 0.0 -1.303553764264e+02 
-8.565629302865e+01 2.688795127129e+01 0.0 
2.688795127129e+01 -7.835735120921e+01 0.0 
0.0 0.0 -4.947205162386e+01 
-8.222877018324e+01 6.263744833908e+00 0.0 
6.263744833908e+00 -1.593988526019e+02 0.0 
0.0 0.0 -6.752263611976e+01 
-1.317922889168e+02 3.570862428536e+00 0.0 
3.570862428536e+00 -3.237327118933e+02 0.0 
0.0 0.0 -1.362575002430e+02 
-1.844923343933e+01 3.751385775218e-01 0.0 
3.751385775218e-01 -4.209442138075e+01 0.0 
0.0 0.0 -1.566524263427e+01 
-1.521639574546e+02 6.271237859943e+00 0.0 
6.271237859943e+00 -3.521730081470e+02 0.0 
0.0 0.0 -1.509010896805e+02 
-1.189922852376e+02 4.887704830312e+00 0.0 
4.887704830312e+00 -2.648181175815e+02 0.0 
0.0 0.0 -1.147431208457e+02 
-8.180296713137e+01 -1.060670542220e+01 0.0 
-1.060670542220e+01 -1.803992194717e+02 0.0 
0.0 0.0 -7.640153342865e+01 
-1.308849101495e+02 2.089423111364e+00 0.0 
2.089423111364e+00 -3.232007210927e+02 0.0 
0.0 0.0 -1.358256893726e+02 
-1.037198205111e+02 4.924659439993e+00 0.0 
4.924659439993e+00 -2.225097967629e+02 0.0 
0.0 0.0 -9.746888518223e+01 
-1.095720109032e+02 4.876461213358e+00 0.0 
4.876461213358e+00 -2.373349346526e+02 0.0 
0.0 0.0 -1.036720836667e+02 
-1.543376326304e+02 3.620209360083e+00 0.0 
3.620209360083e+00 -3.679518003107e+02 0.0 
0.0 0.0 -1.562868298823e+02 
-6.618677356876e+01 -1.190943585693e+01 0.0 
-1.190943585693e+01 -1.336571680464e+02 0.0 
0.0 0.0 -5.633925597020e+01 
-9.879291932610e+01 1.059799700543e+01 0.0 
1.059799700543e+01 -2.083979973646e+02 0.0 
0.0 0.0 -8.790226438848e+01 
-1.014904679109e+02 6.659651535689e+00 0.0 
6.659651535689e+00 -2.162218640249e+02 0.0 
0.0 0.0 -9.367101770015e+01 
-1.236226688113e+02 6.422394662028e+00 0.0 
6.422394662028e+00 -2.756474791195e+02 0.0 
0.0 0.0 -1.193810443793e+02 
-1.016351943384e+02 7.514158251903e+00 0.0 
7.514158251903e+00 -2.167674284333e+02 0.0 
0.0 0.0 -9.460509692686e+01 
-9.556880054688e+01 6.765505518259e+00 0.0 
6.765505518259e+00 -1.975766642925e+02 0.0 
0.0 0.0 -8.631690737020e+01 
-1.085204576927e+02 8.519456643078e+00 0.0 
8.519456643078e+00 -2.767719703591e+02 0.0 
0.0 0.0 -1.159436750856e+02 
-1.347848534928e+02 9.370586111536e+00 0.0 
9.370586111536e+00 -3.126268456175e+02 0.0 
0.0 0.0 -1.338235097331e+02 
-5.764167179642e+01 2.497355609794e+01 0.0 
2.497355609794e+01 -9.221383906008e+01 0.0 
0.0 0.0 -4.608046036211e+01 
-6.506886888524e+01 1.253149683314e+01 0.0 
1.253149683314e+01 -1.183036590821e+02 0.0 
0.0 0.0 -5.232691369599e+01 
-7.260375638864e+01 1.243955415891e+01 0.0 
1.243955415891e+01 -1.379661507514e+02 0.0 
0.0 0.0 -6.024148181168e+01 
-9.444802165071e+01 1.040567367231e+01 0.0 
1.040567367231e+01 -1.982702013588e+02 0.0 
0.0 0.0 -8.382443947912e+01 
-1.339669421681e+02 7.974947578318e+00 0.0 
7.974947578318e+00 -3.046312014107e+02 0.0 
0.0 0.0 -1.311794430736e+02 
-4.075856493627e+01 2.008893408234e+01 0.0 
2.008893408234e+01 -1.187599400547e+02 0.0 
0.0 0.0 -4.589900535893e+01 
-1.272137621844e+02 2.500656626283e+00 0.0 
2.500656626283e+00 -3.137738372441e+02 0.0 
0.0 0.0 -1.318962798286e+02 
-9.214616975031e+01 1.564644219903e+00 0.0 
1.564644219903e+00 -1.993845482003e+02 0.0 
0.0 0.0 -8.705921538517e+01 
-7.386192871827e+01 1.740443242252e+01 0.0 
1.740443242252e+01 -1.723437217712e+02 0.0 
0.0 0.0 -7.226031061932e+01 
-1.229451724749e+02 1.395462946680e+00 0.0 
1.395462946680e+00 -3.036152320806e+02 0.0 
0.0 0.0 -1.275681213666e+02 
-1.453871116313e+01 8.640877854724e-01 0.0 
8.640877854724e-01 -2.827585695975e+01 0.0 
0.0 0.0 -1.097854932268e+01 
-1.264253769819e+02 5.102036321563e+00 0.0 
5.102036321563e+00 -2.845223287649e+02 0.0 
0.0 0.0 -1.228843117240e+02 
-1.418487183464e+01 2.663738622574e-01 0.0 
2.663738622574e-01 -2.394226190267e+01 0.0 
0.0 0.0 -9.808242378332e+00 
-1.550466599114e+01 -6.504397716942e-01 0.0 
-6.504397716942e-01 -4.270082265181e+01 0.0 
0.0 0.0 -1.545577037977e+01 
-4.500287287272e+01 1.405949265814e+01 0.0 
1.405949265814e+01 -6.800152068598e+01 0.0 
0.0 0.0 -3.014965367643e+01 
-5.789675351177e+01 -1.166586993360e+01 0.0 
-1.166586993360e+01 -1.129623060515e+02 0.0 
0.0 0.0 -4.766294386468e+01 
-1.310295459587e+02 6.628790682337e+00 0.0 
6.628790682337e+00 -2.952962386482e+02 0.0 
0.0 0.0 -1.274977353821e+02 
-5.467695383240e+01 -1.169101907097e+01 0.0 
-1.169101907097e+01 -1.055881746941e+02 0.0 
0.0 0.0 -4.455127088790e+01 
-5.508837442669e+01 2.150488780027e+01 0.0 
2.150488780027e+01 -1.020991821971e+02 0.0 
0.0 0.0 -4.326071523411e+01 
-5.369460817641e+01 -1.992977535825e+01 0.0 
-1.992977535825e+01 -1.113227822639e+02 0.0 
0.0 0.0 -4.367350900217e+01 
-4.110684349877e+01 -8.731527900702e+00 0.0 
-8.731527900702e+00 -7.118605586710e+01 0.0 
0.0 0.0 -3.036287518771e+01 
-1.357631698736e+02 3.020826509921e+00 0.0 
3.020826509921e+00 -3.324837474643e+02 0.0 
0.0 0.0 -1.400740752014e+02 
-9.874320639742e+01 7.692101597881e+00 0.0 
7.692101597881e+00 -2.069720160094e+02 0.0 
0.0 0.0 -9.008479498189e+01 
-1.590381062962e+02 -1.142042161415e+00 0.0 
-1.142042161415e+00 -3.727657992417e+02 0.0 
0.0 0.0 -1.591411716614e+02 
-6.334171899911e+01 1.121043715151e+01 0.0 
1.121043715151e+01 -1.092699871889e+02 0.0 
0.0 0.0 -5.232521138126e+01 
-6.072755513659e+01 2.102916735723e+01 0.0 
2.102916735723e+01 -1.220713829292e+02 0.0 
0.0 0.0 -5.137291712498e+01 
-8.033136740262e+01 1.605997233319e+01 0.0 
1.605997233319e+01 -1.903402303317e+02 0.0 
0.0 0.0 -8.075532117598e+01 
-7.790444558403e+01 7.005418933279e+00 0.0 
7.005418933279e+00 -1.486781025172e+02 0.0 
0.0 0.0 -6.251844436145e+01 
-1.259764221619e+02 1.176434383098e+00 0.0 
1.176434383098e+00 -3.131148944099e+02 0.0 
0.0 0.0 -1.313273949716e+02 
-1.616849425135e+02 -8.526192396525e-01 0.0 
-8.526192396525e-01 -3.799140667099e+02 0.0 
0.0 0.0 -1.620797027670e+02 
-1.263844801949e+02 7.814912403982e+00 0.0 
7.814912403982e+00 -2.847292805945e+02 0.0 
0.0 0.0 -1.229341282368e+02 
-5.837535555458e+01 1.591239576904e+01 0.0 
1.591239576904e+01 -1.468835463157e+02 0.0 
0.0 0.0 -5.605048991235e+01 
-1.362207391100e+02 4.334823744338e+00 0.0 
4.334823744338e+00 -3.326927595075e+02 0.0 
0.0 0.0 -1.402740495853e+02 
-1.261313088348e+02 -1.547936064419e+00 0.0 
-1.547936064419e+00 -2.809789086241e+02 0.0 
0.0 0.0 -1.199693815952e+02 
-9.798223303471e+01 9.816370184942e+00 0.0 
9.816370184942e+00 -2.077821474241e+02 0.0 
0.0 0.0 -8.878097942138e+01 
-1.223343771216e+02 5.373658693161e+00 0.0 
5.373658693161e+00 -2.741289833297e+02 0.0 
0.0 0.0 -1.185390081354e+02 
-1.521138533341e+02 8.416919483039e+00 0.0 
8.416919483039e+00 -3.596848676054e+02 0.0 
0.0 0.0 -1.531396162819e+02 
-7.589473923348e+01 1.381425401699e+01 0.0 
1.381425401699e+01 -1.860031976478e+02 0.0 
0.0 0.0 -7.654490515975e+01 
-5.590966635738e+01 2.083184096334e+01 0.0 
2.083184096334e+01 -1.058589402184e+02 0.0 
0.0 0.0 -4.445118559027e+01 
-1.076394715152e+02 8.025044068934e+00 0.0 
8.025044068934e+00 -2.358045460304e+02 0.0 
0.0 0.0 -1.026332052637e+02 
-1.587201258743e+02 4.324436498906e+00 0.0 
4.324436498906e+00 -3.694637063481e+02 0.0 
0.0 0.0 -1.580551496667e+02 
-9.661011927449e+01 1.089849024837e+01 0.0 
1.089849024837e+01 -2.084305623170e+02 0.0 
0.0 0.0 -8.788547138005e+01 
-9.037120915943e+01 8.959148056961e+00 0.0 
8.959148056961e+00 -2.302391370605e+02 0.0 
0.0 0.0 -9.904864872772e+01 
-1.000700487573e+02 8.443712783850e-01 0.0 
8.443712783850e-01 -2.192315014095e+02 0.0 
0.0 0.0 -9.539046505003e+01 
-4.581406841594e+01 -1.395453846434e+01 0.0 
-1.395453846434e+01 -6.957145844927e+01 0.0 
0.0 0.0 -2.819705851129e+01 
-1.006174297294e+02 5.565801208463e+00 0.0 
5.565801208463e+00 -2.160079128911e+02 0.0 
0.0 0.0 -9.414892263797e+01 
-6.297267054176e+01 1.854078060181e+01 0.0 
1.854078060181e+01 -1.509772833900e+02 0.0 
0.0 0.0 -6.092813265072e+01 
-4.683155652762e+01 1.734315621464e+01 0.0 
1.734315621464e+01 -1.326026068163e+02 0.0 
0.0 0.0 -5.124003682470e+01 
-4.321764786113e+01 -1.894501892792e+01 0.0 
-1.894501892792e+01 -1.186282775069e+02 0.0 
0.0 0.0 -4.529569242023e+01 
-1.303615313318e+02 4.871776675144e+00 0.0 
4.871776675144e+00 -2.946883644780e+02 0.0 
0.0 0.0 -1.271149687429e+02 
-1.044798738451e+02 8.248712928863e+00 0.0 
8.248712928863e+00 -2.262934178163e+02 0.0 
0.0 0.0 -9.842231840643e+01 
-7.418176196623e+01 1.827236788733e+01 0.0 
1.827236788733e+01 -1.548698784367e+02 0.0 
0.0 0.0 -6.782983789718e+01 
-1.349574961611e+02 6.386933948640e+00 0.0 
6.386933948640e+00 -3.054319275865e+02 0.0 
0.0 0.0 -1.317168271243e+02 
-1.297009029714e+02 8.264087470644e+00 0.0 
8.264087470644e+00 -2.942848919836e+02 0.0 
0.0 0.0 -1.267957384865e+02 
-1.011565133153e+02 9.403598915373e+00 0.0 
9.403598915373e+00 -2.171425945153e+02 0.0 
0.0 0.0 -9.340650165154e+01 
-1.623160629153e+02 -5.730209198110e-02 0.0 
-5.730209198110e-02 -3.804675024512e+02 0.0 
0.0 0.0 -1.624350696099e+02 
-9.512999623106e+01 8.393559746842e+00 0.0 
8.393559746842e+00 -2.451293640213e+02 0.0 
0.0 0.0 -1.065274948194e+02 
-1.041285900973e+02 9.111563778345e+00 0.0 
9.111563778345e+00 -2.264821100941e+02 0.0 
0.0 0.0 -9.786994964943e+01 
-8.400146259936e+01 1.422947319535e+01 0.0 
1.422947319535e+01 -1.920820330709e+02 0.0 
0.0 0.0 -8.120255537837e+01 
-9.693119322875e+01 7.701103457262e+00 0.0 
7.701103457262e+00 -2.479231160492e+02 0.0 
0.0 0.0 -1.073256160907e+02 
-5.277002116623e+01 1.472132333034e+01 0.0 
1.472132333034e+01 -1.455074884114e+02 0.0 
0.0 0.0 -5.607630316587e+01 
-9.563779461700e+01 3.582620285028e+00 0.0 
3.582620285028e+00 -2.048321689921e+02 0.0 
0.0 0.0 -8.974098908274e+01 
-7.787715323028e+01 1.130976628805e+01 0.0 
1.130976628805e+01 -1.967432855042e+02 0.0 
0.0 0.0 -8.071706518848e+01 
-6.144364284063e+01 -6.249770761206e+00 0.0 
-6.249770761206e+00 -1.661914014617e+02 0.0 
0.0 0.0 -6.537221550155e+01 
-1.258000002632e+02 5.925562679375e+00 0.0 
5.925562679375e+00 -2.839697382585e+02 0.0 
0.0 0.0 -1.225309215565e+02 
-1.184413168509e+02 4.517357083726e+00 0.0 
4.517357083726e+00 -1.017064077854e+02 0.0 
0.0 0.0 -6.631805856323e+01 
-1.045679893378e+02 7.369922940702e+00 0.0 
7.369922940702e+00 -2.263760971233e+02 0.0 
0.0 0.0 -9.888322593832e+01 
-6.406818931623e+01 1.521827315837e+01 0.0 
1.521827315837e+01 -1.632490969557e+02 0.0 
0.0 0.0 -6.505447992941e+01 
-5.628558746080e+01 2.061691446370e+01 0.0 
2.061691446370e+01 -1.194579706736e+02 0.0 
0.0 0.0 -4.786183959062e+01 
-4.876332996613e+01 9.627891905923e+00 0.0 
9.627891905923e+00 -1.420853300185e+02 0.0 
0.0 0.0 -5.308831001336e+01 
-1.104986746915e+02 6.733122794318e+00 0.0 
6.733122794318e+00 -2.449116093269e+02 0.0 
0.0 0.0 -1.062230852055e+02 
-2.409160923345e+01 -1.460155566112e+00 0.0 
-1.460155566112e+00 -4.194343763829e+01 0.0 
0.0 0.0 -1.597383769541e+01 
-7.737045578299e+01 1.039567083604e+01 0.0 
1.039567083604e+01 -1.482525241154e+02 0.0 
0.0 0.0 -6.377428412080e+01 
-1.014311154046e+02 6.929957178144e+00 0.0 
6.929957178144e+00 -2.616611562364e+02 0.0 
0.0 0.0 -1.140499693842e+02 
-1.039769197028e+02 6.403898299368e+00 0.0 
6.403898299368e+00 -2.255399199331e+02 0.0 
0.0 0.0 -9.798338195184e+01 
-1.033334959695e+02 4.426974620697e+00 0.0 
4.426974620697e+00 -2.226823650022e+02 0.0 
0.0 0.0 -9.740475829153e+01 
-3.610134478345e+01 1.857236241761e+01 0.0 
1.857236241761e+01 -1.229854413146e+02 0.0 
0.0 0.0 -5.023679703919e+01 
-5.938738789588e+01 -1.675983715735e+00 0.0 
-1.675983715735e+00 -1.659487467057e+02 0.0 
0.0 0.0 -6.394768287729e+01 
-6.015845933967e+01 -1.102142210976e+01 0.0 
-1.102142210976e+01 -1.560996315126e+02 0.0 
0.0 0.0 -6.144754537233e+01 
-6.946984955425e+01 1.161340256755e+01 0.0 
1.161340256755e+01 -1.285299431292e+02 0.0 
0.0 0.0 -5.491734206547e+01 
-1.229466060994e+02 7.348682877410e+00 0.0 
7.348682877410e+00 -2.749177071277e+02 0.0 
0.0 0.0 -1.189592939681e+02 
-7.716590675581e+01 1.178711313598e+01 0.0 
1.178711313598e+01 -1.487390522685e+02 0.0 
0.0 0.0 -6.321145285869e+01 
-7.687925181720e+01 1.235847881159e+01 0.0 
1.235847881159e+01 -1.946431679174e+02 0.0 
0.0 0.0 -8.029135648965e+01 
-7.539778798229e+01 1.514104451368e+01 0.0 
1.514104451368e+01 -1.840664543940e+02 0.0 
0.0 0.0 -7.638494205047e+01 
-3.491666686480e+01 1.437007303046e+01 0.0 
1.437007303046e+01 -1.163477169222e+02 0.0 
0.0 0.0 -4.540565379871e+01 
-9.000015779957e+01 1.514752396385e+01 0.0 
1.514752396385e+01 -2.047317584994e+02 0.0 
0.0 0.0 -8.931460837035e+01 
-4.759061777408e+01 2.359375990678e+01 0.0 
2.359375990678e+01 -8.009682714208e+01 0.0 
0.0 0.0 -3.347575244301e+01 
-1.605687420425e+02 7.189105371009e+00 0.0 
7.189105371009e+00 -3.729770976235e+02 0.0 
0.0 0.0 -1.596637518998e+02 
-1.603646951838e+02 8.099493655804e+00 0.0 
8.099493655804e+00 -3.738020647368e+02 0.0 
0.0 0.0 -1.598500279762e+02 
-1.012366261285e+02 1.147736560413e+01 0.0 
1.147736560413e+01 -2.191025509460e+02 0.0 
0.0 0.0 -9.289420043833e+01 
-5.800778804635e+01 1.707405513349e+01 0.0 
1.707405513349e+01 -1.477999027809e+02 0.0 
0.0 0.0 -5.789302453585e+01 
-5.143341678679e+01 2.117422707173e+01 0.0 
2.117422707173e+01 -1.152859088565e+02 0.0 
0.0 0.0 -4.405091539336e+01 
-1.075244744916e+02 8.258333231619e+00 0.0 
8.258333231619e+00 -2.358202534568e+02 0.0 
0.0 0.0 -1.014117634347e+02 
-5.203703815769e+01 1.811360285598e+01 0.0 
1.811360285598e+01 -1.304477002744e+02 0.0 
0.0 0.0 -4.887787019728e+01 
-5.624892094028e+01 -7.019215108773e+00 0.0 
-7.019215108773e+00 -1.552098066796e+02 0.0 
0.0 0.0 -5.935585051203e+01 
-9.906660851529e+01 8.577962689072e+00 0.0 
8.577962689072e+00 -2.072496014507e+02 0.0 
0.0 0.0 -8.836125859739e+01 
-1.519901620021e+02 3.400603056295e+00 0.0 
3.400603056295e+00 -3.514905057454e+02 0.0 
0.0 0.0 -1.506442003243e+02 
-6.895218317315e+01 1.674112960451e+01 0.0 
1.674112960451e+01 -1.673918204323e+02 0.0 
0.0 0.0 -6.850703258890e+01 
-1.106398170378e+02 7.086694236121e+00 0.0 
7.086694236121e+00 -2.774276023218e+02 0.0 
0.0 0.0 -1.189710462522e+02 
-5.162070623603e+01 2.337923300781e+01 0.0 
2.337923300781e+01 -9.918857257730e+01 0.0 
0.0 0.0 -4.100575781249e+01 
-1.668193607401e+02 4.359850177829e+00 0.0 
4.359850177829e+00 -3.940100797419e+02 0.0 
0.0 0.0 -1.678488321446e+02 
-5.733931759857e+01 2.044558985927e+01 0.0 
2.044558985927e+01 -1.343792833656e+02 0.0 
0.0 0.0 -5.355703091670e+01 
-1.019667736179e+02 9.567332505936e+00 0.0 
9.567332505936e+00 -2.174552120931e+02 0.0 
0.0 0.0 -9.230024763353e+01 
-4.172198157274e+01 1.387031369936e+01 0.0 
1.387031369936e+01 -1.327233603461e+02 0.0 
0.0 0.0 -5.189301564277e+01 
-1.066633406337e+02 1.336820329690e+00 0.0 
1.336820329690e+00 -2.766600935479e+02 0.0 
0.0 0.0 -1.189641948756e+02 
-8.172218163596e+01 1.390307981060e+01 0.0 
1.390307981060e+01 -2.015240200455e+02 0.0 
0.0 0.0 -8.490414655175e+01 
-6.064657340829e+01 -9.941050551918e+00 0.0 
-9.941050551918e+00 -1.575336013891e+02 0.0 
0.0 0.0 -6.094447052447e+01 
-1.016058051052e+02 8.458844089694e+00 0.0 
8.458844089694e+00 -2.167543784034e+02 0.0 
0.0 0.0 -9.398818112890e+01 
-1.621835508070e+02 9.000758513577e+00 0.0 
9.000758513577e+00 -3.786303455510e+02 0.0 
0.0 0.0 -1.618441689074e+02 
-7.043495783387e+01 1.363651054675e+01 0.0 
1.363651054675e+01 -1.786536445049e+02 0.0 
0.0 0.0 -7.247186170783e+01 
-9.967458880816e+01 6.679028485742e+00 0.0 
6.679028485742e+00 -2.590369830226e+02 0.0 
0.0 0.0 -1.119136666736e+02 
-4.783028663468e+01 2.396293977873e+01 0.0 
2.396293977873e+01 -9.699026161613e+01 0.0 
0.0 0.0 -3.800351680503e+01 
-1.157023551288e+02 2.619934735505e+00 0.0 
2.619934735505e+00 -2.562565120088e+02 0.0 
0.0 0.0 -1.111876601413e+02 
-1.213752734053e+02 1.752967792757e-01 0.0 
1.752967792757e-01 -3.027270068272e+02 0.0 
0.0 0.0 -1.268306840698e+02 
-6.049326693368e+01 1.875759262978e+01 0.0 
1.875759262978e+01 -1.128304673140e+02 0.0 
0.0 0.0 -4.839293777520e+01 
-1.127173172626e+02 3.920980834651e+00 0.0 
3.920980834651e+00 -2.475613083918e+02 0.0 
0.0 0.0 -1.076835876963e+02 
-1.630176772418e+02 9.180234120418e+00 0.0 
9.180234120418e+00 -3.819247070417e+02 0.0 
0.0 0.0 -1.630827152851e+02 
-1.307829948762e+02 8.895526563720e-01 0.0 
8.895526563720e-01 -3.218254276878e+02 0.0 
0.0 0.0 -1.353825267692e+02 
-1.617745235011e+02 8.737681203149e+00 0.0 
8.737681203149e+00 -3.771430288438e+02 0.0 
0.0 0.0 -1.612752657035e+02 
-1.127111160566e+02 4.785957467748e+00 0.0 
4.785957467748e+00 -2.465129819727e+02 0.0 
0.0 0.0 -1.073672294088e+02 
-1.283796077217e+02 8.897823005153e+00 0.0 
8.897823005153e+00 -2.935790864992e+02 0.0 
0.0 0.0 -1.261876082663e+02 
-5.477470063022e+01 1.835830974572e+01 0.0 
1.835830974572e+01 -9.167664695140e+01 0.0 
0.0 0.0 -4.007549443006e+01 
-9.586680147013e+01 7.894242159643e+00 0.0 
7.894242159643e+00 -1.976944469604e+02 0.0 
0.0 0.0 -8.566139882269e+01 
-1.046281083693e+02 7.488102072909e+00 0.0 
7.488102072909e+00 -2.259260736752e+02 0.0 
0.0 0.0 -9.750794928360e+01 
-1.070460719457e+02 8.903688025933e+00 0.0 
8.903688025933e+00 -2.359048297055e+02 0.0 
0.0 0.0 -1.022706446522e+02 
-9.276898478599e+01 1.165013741146e+01 0.0 
1.165013741146e+01 -1.992945005401e+02 0.0 
0.0 0.0 -8.376466191553e+01 
-1.636402423081e+02 9.024051753296e+00 0.0 
9.024051753296e+00 -3.843329122720e+02 0.0 
0.0 0.0 -1.639919463740e+02 
-1.088892430998e+02 4.329967685803e+00 0.0 
4.329967685803e+00 -2.369982413787e+02 0.0 
0.0 0.0 -1.033662453435e+02 
-9.860347323734e+01 6.694968792957e+00 0.0 
6.694968792957e+00 -2.075706408901e+02 0.0 
0.0 0.0 -9.091183531583e+01 
-7.128031700569e+01 1.289422796865e+01 0.0 
1.289422796865e+01 -1.803280153862e+02 0.0 
0.0 0.0 -7.251020240859e+01 
-4.980113822432e+01 -1.076648343635e+01 0.0 
-1.076648343635e+01 -9.227216348456e+01 0.0 
0.0 0.0 -3.915347240312e+01 
-9.274604071722e+01 6.997942819140e+00 0.0 
6.997942819140e+00 -1.881158098467e+02 0.0 
0.0 0.0 -8.183939833317e+01 
-6.414043020519e+01 1.969309150164e+01 0.0 
1.969309150164e+01 -1.269342357976e+02 0.0 
0.0 0.0 -5.514521004640e+01 
-9.273860475931e+01 5.837802944536e-01 0.0 
5.837802944536e-01 -2.015826521527e+02 0.0 
0.0 0.0 -8.789637707359e+01 
-6.464308751856e+01 -1.296117977766e+01 0.0 
-1.296117977766e+01 -1.595711367747e+02 0.0 
0.0 0.0 -6.481750833211e+01 
-6.474962811408e+01 1.427630107866e+01 0.0 
1.427630107866e+01 -1.635695768252e+02 0.0 
0.0 0.0 -6.416657919212e+01 
-1.298875316310e+02 5.583833666001e+00 0.0 
5.583833666001e+00 -2.941765514866e+02 0.0 
0.0 0.0 -1.268192249353e+02 
-6.071762090003e+01 1.958873241390e+01 0.0 
1.958873241390e+01 -1.254944249407e+02 0.0 
0.0 0.0 -5.205148769900e+01 
-9.866311734127e+01 6.977248218181e+00 0.0 
6.977248218181e+00 -2.067628062733e+02 0.0 
0.0 0.0 -8.914272179001e+01 
-1.037887180397e+02 4.660163796579e+00 0.0 
4.660163796579e+00 -2.688494665336e+02 0.0 
0.0 0.0 -1.174156944518e+02 
-1.014035651517e+02 -3.739870772365e+00 0.0 
-3.739870772365e+00 -2.430794542044e+02 0.0 
0.0 0.0 -1.041576562850e+02 
-1.650386894233e+02 8.053025735497e+00 0.0 
8.053025735497e+00 -3.880351680652e+02 0.0 
0.0 0.0 -1.655221572466e+02 
-8.612143982724e+01 7.635914503437e+00 0.0 
7.635914503437e+00 -1.693950420837e+02 0.0 
0.0 0.0 -7.251819989977e+01 
-5.631190445806e+01 3.342362486125e+00 0.0 
3.342362486125e+00 -1.614595231922e+02 0.0 
0.0 0.0 -6.196427479584e+01 
-8.050626833530e+01 -1.421259843805e+01 0.0 
-1.421259843805e+01 -1.752178798761e+02 0.0 
0.0 0.0 -7.557924882215e+01 
-6.071969209876e+01 1.432566145533e+01 0.0 
1.432566145533e+01 -1.071211559378e+02 0.0 
0.0 0.0 -4.676831835892e+01 
-6.017871079604e+01 1.843754354098e+01 0.0 
1.843754354098e+01 -1.124833539224e+02 0.0 
0.0 0.0 -4.945502117805e+01 
-1.373075281921e+02 8.343269093600e+00 0.0 
8.343269093600e+00 -3.142308932562e+02 0.0 
0.0 0.0 -1.350615264345e+02 
-1.033131193140e+02 9.936274407446e+00 0.0 
9.936274407446e+00 -2.270052887885e+02 0.0 
0.0 0.0 -9.735491758068e+01 
-7.819290279425e+01 9.246716132731e+00 0.0 
9.246716132731e+00 -1.486975956863e+02 0.0 
0.0 0.0 -6.233488605679e+01 
-9.230770662126e+01 6.315692941975e+00 0.0 
6.315692941975e+00 -1.877328231208e+02 0.0 
0.0 0.0 -8.077251225382e+01 
-1.656301109326e+02 6.174579464946e+00 0.0 
6.174579464946e+00 -3.910121647338e+02 0.0 
0.0 0.0 -1.665926826999e+02 
-1.561839716761e+02 6.769320001226e+00 0.0 
6.769320001226e+00 -3.715056055354e+02 0.0 
0.0 0.0 -1.579068731634e+02 
-1.367852716417e+02 6.498669516117e+00 0.0 
6.498669516117e+00 -3.134358330526e+02 0.0 
0.0 0.0 -1.346663314083e+02 
-1.271235411487e+02 6.961697933795e+00 0.0 
6.961697933795e+00 -2.852809900353e+02 0.0 
0.0 0.0 -1.233213593552e+02 
-1.001570359914e+02 -7.214180450433e+00 0.0 
-7.214180450433e+00 -2.384522819342e+02 0.0 
0.0 0.0 -1.034794112285e+02 
-7.999256396232e+01 1.284809130250e+01 0.0 
1.284809130250e+01 -1.592354965417e+02 0.0 
0.0 0.0 -6.785893217480e+01 
-5.333721970911e+01 1.382569013320e+01 0.0 
1.382569013320e+01 -1.440139260524e+02 0.0 
0.0 0.0 -5.390896219442e+01 
-6.029720884097e+01 1.201761314310e+01 0.0 
1.201761314310e+01 -1.595429700201e+02 0.0 
0.0 0.0 -6.084504267580e+01 
-1.001133160591e+02 1.033007677481e+01 0.0 
1.033007677481e+01 -2.177617585146e+02 0.0 
0.0 0.0 -9.277051804662e+01 
-1.031227761275e+02 2.931940805537e+00 0.0 
2.931940805537e+00 -2.694408266672e+02 0.0 
0.0 0.0 -1.167453447429e+02 
-9.970092221545e+01 -6.520047002423e+00 0.0 
-6.520047002423e+00 -2.040584657732e+02 0.0 
0.0 0.0 -8.656526387716e+01 
-1.373668631848e+02 5.827882357625e+00 0.0 
5.827882357625e+00 -3.140512357046e+02 0.0 
0.0 0.0 -1.350254296668e+02 
-5.682217477344e+01 -2.099598437462e+00 0.0 
-2.099598437462e+00 -1.602651110145e+02 0.0 
0.0 0.0 -6.167983258925e+01 
-8.858567324338e+01 1.263853050003e+01 0.0 
1.263853050003e+01 -1.902104323601e+02 0.0 
0.0 0.0 -8.066621614617e+01 
-1.018506373343e+02 7.934235749543e+00 0.0 
7.934235749543e+00 -2.164747874244e+02 0.0 
0.0 0.0 -9.297042725490e+01 
-8.228367005461e+01 1.357311843511e+01 0.0 
1.357311843511e+01 -1.702699255778e+02 0.0 
0.0 0.0 -7.261762327402e+01 
-1.616034566909e+02 8.454411414528e+00 0.0 
8.454411414528e+00 -3.757625129439e+02 0.0 
0.0 0.0 -1.608097908904e+02 
-1.600301944106e+02 7.374087442765e+00 0.0 
7.374087442765e+00 -3.729630829153e+02 0.0 
0.0 0.0 -1.594979831978e+02 
-1.528237792114e+02 8.302035448098e+00 0.0 
8.302035448098e+00 -3.528831799241e+02 0.0 
0.0 0.0 -1.513120877407e+02 
-1.071253126170e+02 -4.548714304627e+00 0.0 
-4.548714304627e+00 -2.568616209824e+02 0.0 
0.0 0.0 -1.111926546269e+02 
-1.342522400510e+02 4.632809400398e+00 0.0 
4.632809400398e+00 -3.048110881951e+02 0.0 
0.0 0.0 -1.313189984738e+02 
-5.756430831059e+01 1.989137946614e+01 0.0 
1.989137946614e+01 -1.063414723051e+02 0.0 
0.0 0.0 -4.620956946214e+01 
-6.699104665220e+01 1.080155466378e+01 0.0 
1.080155466378e+01 -1.752737601972e+02 0.0 
0.0 0.0 -6.873823993796e+01 
-4.192873411183e+01 1.109002289212e+01 0.0 
1.109002289212e+01 -1.291542749183e+02 0.0 
0.0 0.0 -4.842671053394e+01 
-8.136792416634e+01 1.051901738447e+01 0.0 
1.051901738447e+01 -1.586369818115e+02 0.0 
0.0 0.0 -6.676237224819e+01 
-9.594851541403e+01 3.325079012537e+00 0.0 
3.325079012537e+00 -2.045505407026e+02 0.0 
0.0 0.0 -8.974971683500e+01 
-1.117535321352e+02 2.794535580898e+00 0.0 
2.794535580898e+00 -2.458355444456e+02 0.0 
0.0 0.0 -1.068767229742e+02 
-1.581273637418e+02 4.441496049791e+00 0.0 
4.441496049791e+00 -3.772661427854e+02 0.0 
0.0 0.0 -1.602180519582e+02 
-1.357253696809e+02 7.033349904696e+00 0.0 
7.033349904696e+00 -3.125893441989e+02 0.0 
0.0 0.0 -1.340944141640e+02 
-1.072811790715e+02 6.120272523760e+00 0.0 
6.120272523760e+00 -2.352364349864e+02 0.0 
0.0 0.0 -1.023552842174e+02 
-1.101661712773e+02 7.840572725918e+00 0.0 
7.840572725918e+00 -2.451362266165e+02 0.0 
0.0 0.0 -1.058167513036e+02 
-4.750266496767e+01 1.063973973313e+01 0.0 
1.063973973313e+01 -1.426948148411e+02 0.0 
0.0 0.0 -5.484292220652e+01 
-3.462068787173e+01 -8.438979254106e+00 0.0 
-8.438979254106e+00 -4.702591482905e+01 0.0 
0.0 0.0 -1.972994824212e+01 
-8.534109136349e+01 1.594992238762e+01 0.0 
1.594992238762e+01 -1.969326641006e+02 0.0 
0.0 0.0 -8.575015307517e+01 
-9.455620423034e+01 1.169642825447e+01 0.0 
1.169642825447e+01 -2.097512635174e+02 0.0 
0.0 0.0 -8.843045875489e+01 
-8.507035654688e+01 1.384327384564e+01 0.0 
1.384327384564e+01 -2.014185047789e+02 0.0 
0.0 0.0 -8.550478444599e+01 
-4.158593506373e+01 2.405007084544e+01 0.0 
2.405007084544e+01 -5.671818271936e+01 0.0 
0.0 0.0 -2.581717444128e+01 
-9.923962942821e+01 1.929225078048e-01 0.0 
1.929225078048e-01 -2.181693733909e+02 0.0 
0.0 0.0 -9.482270084573e+01 
-4.554967595203e+01 -8.608290715968e+00 0.0 
-8.608290715968e+00 -8.441073453140e+01 0.0 
0.0 0.0 -3.466968389178e+01 
-6.195223626459e+01 2.048025619245e+01 0.0 
2.048025619245e+01 -1.368891239514e+02 0.0 
0.0 0.0 -5.617669538769e+01 
-1.684969216046e+02 4.522982460457e+00 0.0 
4.522982460457e+00 -3.944928170774e+02 0.0 
0.0 0.0 -1.684969216046e+02 
-1.131168144505e+02 7.521547756921e+00 0.0 
7.521547756921e+00 -2.867565705591e+02 0.0 
0.0 0.0 -1.200043880886e+02 
-9.721578176103e+01 4.767203263264e+00 0.0 
4.767203263264e+00 -2.068486926338e+02 0.0 
0.0 0.0 -9.042265045675e+01 
-1.950883304223e+01 -5.957060796651e-01 0.0 
-5.957060796651e-01 -5.856381212710e+01 0.0 
0.0 0.0 -2.163195461118e+01 
-9.507581534292e+01 1.200645005462e+01 0.0 
1.200645005462e+01 -1.994955054333e+02 0.0 
0.0 0.0 -8.532132828503e+01 
-8.036400622296e+01 1.405535739675e+01 0.0 
1.405535739675e+01 -1.931345958289e+02 0.0 
0.0 0.0 -8.139047641093e+01 
-1.106009056745e+02 8.640089987774e+00 0.0 
8.640089987774e+00 -2.453016377691e+02 0.0 
0.0 0.0 -1.063707630331e+02 
-1.623821327056e+02 8.945831873690e+00 0.0 
8.945831873690e+00 -3.797047322637e+02 0.0 
0.0 0.0 -1.622260594908e+02 
-9.520789995031e+01 5.970215841163e+00 0.0 
5.970215841163e+00 -1.971867604213e+02 0.0 
0.0 0.0 -8.536348198721e+01 
-1.062850314598e+02 9.631099280311e+00 0.0 
9.631099280311e+00 -2.362554262375e+02 0.0 
0.0 0.0 -1.017566673674e+02 
-9.616460789662e+01 -6.851526095782e+00 0.0 
-6.851526095782e+00 -2.034079435817e+02 0.0 
0.0 0.0 -8.499940233899e+01 
-1.339124356038e+02 5.370820786504e+00 0.0 
5.370820786504e+00 -3.043726366005e+02 0.0 
0.0 0.0 -1.310855216613e+02 
-1.064798193042e+02 -1.765433863564e+00 0.0 
-1.765433863564e+00 -2.619558870531e+02 0.0 
0.0 0.0 -1.113163770065e+02 
-1.628947810030e+02 9.258164787446e+00 0.0 
9.258164787446e+00 -3.808065438993e+02 0.0 
0.0 0.0 -1.627103974707e+02 
-1.605944054349e+02 8.229940625188e+00 0.0 
8.229940625188e+00 -3.760536126814e+02 0.0 
0.0 0.0 -1.605944054349e+02 
-1.588090977364e+02 6.719429559184e+00 0.0 
6.719429559184e+00 -3.718878947183e+02 0.0 
0.0 0.0 -1.588090977364e+02 
-1.590930372774e+02 7.506291515933e+00 0.0 
7.506291515933e+00 -3.725504203140e+02 0.0 
0.0 0.0 -1.590930372774e+02 
-1.136744190876e+02 7.248772858747e+00 0.0 
7.248772858747e+00 -2.546943827188e+02 0.0 
0.0 0.0 -1.101106405419e+02 
-1.345129533667e+02 7.121640888646e+00 0.0 
7.121640888646e+00 -3.049546388888e+02 0.0 
0.0 0.0 -1.314402776767e+02 
-1.403533255426e+02 6.876930437397e+00 0.0 
6.876930437397e+00 -3.234865874945e+02 0.0 
0.0 0.0 -1.387519739111e+02 
-8.363339593443e+01 1.448815945984e+01 0.0 
1.448815945984e+01 -1.703760565140e+02 0.0 
0.0 0.0 -7.409862012839e+01 
-8.070305511888e+01 1.254472846520e+01 0.0 
1.254472846520e+01 -1.588512787528e+02 0.0 
0.0 0.0 -6.880298442313e+01 
-9.563514532399e+01 -5.980262720750e+00 0.0 
-5.980262720750e+00 -1.916500831785e+02 0.0 
0.0 0.0 -8.075247381468e+01 
-1.380146563803e+02 7.675457689355e+00 0.0 
7.675457689355e+00 -3.147174533920e+02 0.0 
0.0 0.0 -1.354196329317e+02 
-1.632787879090e+02 9.165391325247e+00 0.0 
9.165391325247e+00 -3.830365082441e+02 0.0 
0.0 0.0 -1.634945888459e+02 
-1.377803549259e+02 5.130420395383e+00 0.0 
5.130420395383e+00 -3.143416554141e+02 0.0 
0.0 0.0 -1.352366031020e+02 
-1.039350183018e+02 7.862869949678e+00 0.0 
7.862869949678e+00 -2.680164014381e+02 0.0 
0.0 0.0 -1.138540461211e+02 
-1.384207255591e+02 6.858279180172e+00 0.0 
6.858279180172e+00 -3.149512095567e+02 0.0 
0.0 0.0 -1.356115805348e+02 
-1.187943532505e+02 9.910418570681e+00 0.0 
9.910418570681e+00 -2.856118807413e+02 0.0 
0.0 0.0 -1.209218701975e+02 
-9.274536287292e+01 1.473273980974e+01 0.0 
1.473273980974e+01 -2.021737479212e+02 0.0 
0.0 0.0 -8.757013549844e+01 
-8.172017031163e+01 8.870284779952e+00 0.0 
8.870284779952e+00 -1.584105995619e+02 0.0 
0.0 0.0 -6.725428089427e+01 
-5.244639385155e+01 2.312107847117e+01 0.0 
2.312107847117e+01 -1.178523613369e+02 0.0 
0.0 0.0 -4.704359489217e+01 
-1.517015670070e+02 4.533289321436e+00 0.0 
4.533289321436e+00 -3.527160112467e+02 0.0 
0.0 0.0 -1.509252734761e+02 
-7.883901009059e+01 1.655744718957e+01 0.0 
1.655744718957e+01 -1.622983331540e+02 0.0 
0.0 0.0 -7.084760832117e+01 
-1.499754277234e+02 8.413809259691e+00 0.0 
8.413809259691e+00 -3.523016172311e+02 0.0 
0.0 0.0 -1.502831134864e+02 
-9.292002532059e+01 -7.000516562843e+00 0.0 
-7.000516562843e+00 -1.910356330659e+02 0.0 
0.0 0.0 -7.956961839698e+01 
-6.348586434449e+01 -1.583479985058e+01 0.0 
-1.583479985058e+01 -1.464093395005e+02 0.0 
0.0 0.0 -5.964267505953e+01 
-1.602753122549e+02 3.760722546663e+00 0.0 
3.760722546663e+00 -3.788224824863e+02 0.0 
0.0 0.0 -1.613293384224e+02 
-6.621097041771e+01 2.008855119605e+01 0.0 
2.008855119605e+01 -1.410953649255e+02 0.0 
0.0 0.0 -5.964105484496e+01 
-1.612413410339e+02 8.521021019426e+00 0.0 
8.521021019426e+00 -3.775631290791e+02 0.0 
0.0 0.0 -1.612413410339e+02 
-1.530669315839e+02 6.964135663901e+00 0.0 
6.964135663901e+00 -3.561289986192e+02 0.0 
0.0 0.0 -1.523587790609e+02 
-1.074113818797e+02 9.542815252343e+00 0.0 
9.542815252343e+00 -2.367529498964e+02 0.0 
0.0 0.0 -1.009219953564e+02 
-2.295080782743e+01 -4.418902083645e+00 0.0 
-4.418902083645e+00 -2.789574694821e+01 0.0 
0.0 0.0 -1.291166572745e+01 
-1.622489052675e+02 8.832882758894e+00 0.0 
8.832882758894e+00 -3.799141122909e+02 0.0 
0.0 0.0 -1.622489052675e+02 
-1.596620169503e+02 5.250346855630e+00 0.0 
5.250346855630e+00 -3.770677191588e+02 0.0 
0.0 0.0 -1.606189208327e+02 
-5.850489779309e+01 -1.337755675468e+01 0.0 
-1.337755675468e+01 -1.441500238200e+02 0.0 
0.0 0.0 -5.600010788610e+01 
-1.071482933678e+02 6.801584399007e+00 0.0 
6.801584399007e+00 -2.775617833140e+02 0.0 
0.0 0.0 -1.173338143021e+02 
-1.649548774023e+02 7.614251259336e+00 0.0 
7.614251259336e+00 -3.886919265130e+02 0.0 
0.0 0.0 -1.656940411746e+02 
-1.044355955420e+01 -5.447175591844e-01 0.0 
-5.447175591844e-01 -9.166358974204e+00 0.0 
0.0 0.0 -6.452888701310e+00 
-8.595918726100e+01 1.595040170440e+01 0.0 
1.595040170440e+01 -1.824810811677e+02 0.0 
0.0 0.0 -7.944715157013e+01 
-1.100810581763e+02 8.919236668099e+00 0.0 
8.919236668099e+00 -2.458137326722e+02 0.0 
0.0 0.0 -1.053319824522e+02 
-1.045237307956e+02 1.036860006272e+01 0.0 
1.036860006272e+01 -2.278508725435e+02 0.0 
0.0 0.0 -9.633535568828e+01 
-1.047998480532e+02 8.815278376574e+00 0.0 
8.815278376574e+00 -2.265688681493e+02 0.0 
0.0 0.0 -9.691601138550e+01 
-5.663481452606e+01 2.217935944827e+01 0.0 
2.217935944827e+01 -1.187183403509e+02 0.0 
0.0 0.0 -4.860006145642e+01 
-1.633624857978e+02 8.901928921309e+00 0.0 
8.901928921309e+00 -3.825124668616e+02 0.0 
0.0 0.0 -1.633624857978e+02 
-7.365405434953e+01 9.771376249960e+00 0.0 
9.771376249960e+00 -1.910445204860e+02 0.0 
0.0 0.0 -7.684517888564e+01 
-2.952906747601e+01 5.008012703888e+00 0.0 
5.008012703888e+00 -1.203318366382e+02 0.0 
0.0 0.0 -4.781821665188e+01 
-1.612382398010e+02 1.360422764236e-02 0.0 
1.360422764236e-02 -3.802446360390e+02 0.0 
0.0 0.0 -1.620448627520e+02 
-1.845030931382e+01 -1.919322366905e+00 0.0 
-1.919322366905e+00 -2.604468967305e+01 0.0 
0.0 0.0 -1.053190225326e+01 
-8.912105429101e+01 6.818647315531e+00 0.0 
6.818647315531e+00 -1.781966065706e+02 0.0 
0.0 0.0 -7.596075476976e+01 
-4.188661118769e+01 -2.040052061702e+01 0.0 
-2.040052061702e+01 -9.999121994078e+01 0.0 
0.0 0.0 -3.926552515741e+01 
-9.163942228394e+01 4.955338651727e+00 0.0 
4.955338651727e+00 -1.876155653748e+02 0.0 
0.0 0.0 -8.159683486144e+01 
-1.660333529523e+02 5.669031546722e+00 0.0 
5.669031546722e+00 -3.919716799242e+02 0.0 
0.0 0.0 -1.670015098630e+02 
-1.645964899259e+02 8.558077994634e+00 0.0 
8.558077994634e+00 -3.853918098270e+02 0.0 
0.0 0.0 -1.645964899259e+02 
-1.071500628895e+02 7.167502714924e+00 0.0 
7.167502714924e+00 -2.352857069417e+02 0.0 
0.0 0.0 -1.018766401008e+02 
-3.945305486804e+01 -2.184714221103e+01 0.0 
-2.184714221103e+01 -7.126912179005e+01 0.0 
0.0 0.0 -2.687053626887e+01 
-2.872417615203e+01 8.374928046472e+00 0.0 
8.374928046472e+00 -1.243072243882e+02 0.0 
0.0 0.0 -4.826647517181e+01 
-4.943895890828e+01 -2.336243975338e+01 0.0 
-2.336243975338e+01 -8.898897590529e+01 0.0 
0.0 0.0 -3.562560291068e+01 
-1.404365277194e+02 8.596076699963e-01 0.0 
8.596076699963e-01 -3.360240992849e+02 0.0 
0.0 0.0 -1.425381881013e+02 
-9.662600281246e+01 3.542952842310e+00 0.0 
3.542952842310e+00 -2.050472234585e+02 0.0 
0.0 0.0 -9.010196788128e+01 
-1.012242752600e+02 6.662877836793e+00 0.0 
6.662877836793e+00 -2.167379970173e+02 0.0 
0.0 0.0 -9.498868168321e+01 
-1.656757570983e+02 7.985214698828e+00 0.0 
7.985214698828e+00 -3.879100998961e+02 0.0 
0.0 0.0 -1.656757570983e+02 
-9.595315238941e+01 3.328733415981e+00 0.0 
3.328733415981e+00 -2.045434770042e+02 0.0 
0.0 0.0 -8.974898881807e+01 
-1.598583830538e+02 6.617219671604e+00 0.0 
6.617219671604e+00 -3.722231991514e+02 0.0 
0.0 0.0 -1.592244746616e+02 
-1.230052038920e+02 7.985071522229e+00 0.0 
7.985071522229e+00 -2.953022060463e+02 0.0 
0.0 0.0 -1.250922229815e+02 
-1.078134695676e+02 2.293587540715e+00 0.0 
2.293587540715e+00 -2.362078018113e+02 0.0 
0.0 0.0 -1.028063814137e+02 
-6.337222559826e+01 1.685411771752e+01 0.0 
1.685411771752e+01 -1.187387480284e+02 0.0 
0.0 0.0 -5.263411731220e+01 
-1.083936815506e+02 5.629414617757e+00 0.0 
5.629414617757e+00 -2.782813961989e+02 0.0 
0.0 0.0 -1.199084348571e+02 
-4.061905919060e+01 1.905650080869e+01 0.0 
1.905650080869e+01 -1.130601555585e+02 0.0 
0.0 0.0 -4.056728743749e+01 
-1.663954743027e+02 7.231062451581e+00 0.0 
7.231062451581e+00 -3.895894400396e+02 0.0 
0.0 0.0 -1.663954743027e+02 
-1.598612261266e+02 7.797488133973e+00 0.0 
7.797488133973e+00 -3.743428609622e+02 0.0 
0.0 0.0 -1.598612261266e+02 
-1.591075616972e+02 7.195303662760e+00 0.0 
7.195303662760e+00 -3.725843106268e+02 0.0 
0.0 0.0 -1.591075616972e+02 
-1.118057154015e+02 -3.861411171229e+00 0.0 
-3.861411171229e+00 -2.642713011650e+02 0.0 
0.0 0.0 -1.134498975610e+02 
-9.097858464972e+01 -5.241717652691e+00 0.0 
-5.241717652691e+00 -1.792833801745e+02 0.0 
0.0 0.0 -7.491204065487e+01 
-9.037672131185e+01 1.244388028854e+01 0.0 
1.244388028854e+01 -2.009062639525e+02 0.0 
0.0 0.0 -8.531074699993e+01 
-1.099760983701e+02 -1.972309715626e+00 0.0 
-1.972309715626e+00 -2.699258250611e+02 0.0 
0.0 0.0 -1.135705770293e+02 
-1.671031654688e+02 6.305045544115e+00 0.0 
6.305045544115e+00 -3.912407194271e+02 0.0 
0.0 0.0 -1.671031654688e+02 
-5.707840100657e+01 1.895338354423e+01 0.0 
1.895338354423e+01 -1.332372482350e+02 0.0 
0.0 0.0 -5.167282338965e+01 
-6.315745281975e+01 -5.547809409427e+00 0.0 
-5.547809409427e+00 -1.698175652331e+02 0.0 
0.0 0.0 -6.646436358166e+01 
-6.695924996912e+01 -8.445440453487e+00 0.0 
-8.445440453487e+00 -1.733924815358e+02 0.0 
0.0 0.0 -6.941720419158e+01 
-1.119673550797e+02 2.157800493787e+00 0.0 
2.157800493787e+00 -2.469554456104e+02 0.0 
0.0 0.0 -1.072768402070e+02 
-1.669729901235e+02 3.759080537197e+00 0.0 
3.759080537197e+00 -3.946503337719e+02 0.0 
0.0 0.0 -1.680869971686e+02 
-4.896975658886e+01 -2.367231393156e+01 0.0 
-2.367231393156e+01 -6.382888373801e+01 0.0 
0.0 0.0 -2.811256696662e+01 
-1.679556083878e+02 5.126329204686e+00 0.0 
5.126329204686e+00 -3.932297529050e+02 0.0 
0.0 0.0 -1.679556083878e+02 
-6.460817806217e+01 -1.169280783281e+01 0.0 
-1.169280783281e+01 -1.609647746333e+02 0.0 
0.0 0.0 -6.448872789574e+01 
-1.619546152889e+02 8.736462018602e+00 0.0 
8.736462018602e+00 -3.792274356740e+02 0.0 
0.0 0.0 -1.619546152889e+02 
-1.407764354759e+02 8.681506610830e+00 0.0 
8.681506610830e+00 -3.241067460849e+02 0.0 
0.0 0.0 -1.390649544682e+02 
-8.912465859954e+00 7.283979534403e-01 0.0 
7.283979534403e-01 -9.212198801777e+00 0.0 
0.0 0.0 -4.155392110506e+00 
-8.751099539329e+01 1.652688599495e+01 0.0 
1.652688599495e+01 -1.944488063118e+02 0.0 
0.0 0.0 -8.451806029366e+01 
-1.388970121206e+02 6.167507482193e+00 0.0 
6.167507482193e+00 -3.157012901255e+02 0.0 
0.0 0.0 -1.359794906738e+02 
-1.629006047735e+02 8.940595033517e+00 0.0 
8.940595033517e+00 -3.814347444716e+02 0.0 
0.0 0.0 -1.629006047735e+02 
-1.135317368151e+02 9.132439358190e+00 0.0 
9.132439358190e+00 -2.549884471501e+02 0.0 
0.0 0.0 -1.101560551896e+02 
-1.262581338225e+02 7.400267305659e+00 0.0 
7.400267305659e+00 -3.045848304812e+02 0.0 
0.0 0.0 -1.288528892911e+02 
-4.772200333805e+01 2.502476973990e+01 0.0 
2.502476973990e+01 -9.972162427977e+01 0.0 
0.0 0.0 -4.054319313413e+01 
-1.519052454788e+02 4.639834903931e+00 0.0 
4.639834903931e+00 -3.620496703027e+02 0.0 
0.0 0.0 -1.537864747344e+02 
-6.784371686918e+01 -1.260623018845e+01 0.0 
-1.260623018845e+01 -1.635703887204e+02 0.0 
0.0 0.0 -6.753497353696e+01 
-7.030143260722e+01 -1.143268825028e+01 0.0 
-1.143268825028e+01 -1.752808715314e+02 0.0 
0.0 0.0 -7.284560901813e+01 
-4.722588785227e+01 -2.640406549983e+01 0.0 
-2.640406549983e+01 -4.842151212104e+01 0.0 
0.0 0.0 -2.611830129969e+01 
-1.639491391175e+02 8.773246885825e+00 0.0 
8.773246885825e+00 -3.838813246075e+02 0.0 
0.0 0.0 -1.639491391175e+02 
-4.663428733420e+01 1.599284430209e+01 0.0 
1.599284430209e+01 -1.285427771808e+02 0.0 
0.0 0.0 -4.729767328741e+01 
-1.365023929932e+02 3.049680565693e+00 0.0 
3.049680565693e+00 -3.328872224463e+02 0.0 
0.0 0.0 -1.404168846319e+02 
-1.044694284389e+02 3.733041738017e+00 0.0 
3.733041738017e+00 -2.263221422999e+02 0.0 
0.0 0.0 -9.883747122162e+01 
-6.604711520169e+01 -1.675735681227e+01 0.0 
-1.675735681227e+01 -1.366475844807e+02 0.0 
0.0 0.0 -5.851698831145e+01 
-6.604784771191e+01 -9.170672005351e+00 0.0 
-9.170672005351e+00 -1.710187072276e+02 0.0 
0.0 0.0 -6.899709094099e+01 
-1.094499122164e+02 9.448607268862e+00 0.0 
9.448607268862e+00 -2.456293329402e+02 0.0 
0.0 0.0 -1.061237735470e+02 
-1.660785909253e+02 7.690846673755e+00 0.0 
7.690846673755e+00 -3.888500454923e+02 0.0 
0.0 0.0 -1.660785909253e+02 
-9.350036326177e+01 -5.791548505908e+00 0.0 
-5.791548505908e+00 -1.868394110981e+02 0.0 
0.0 0.0 -7.787208929845e+01 
-1.189258405701e+02 3.387248515287e-01 0.0 
3.387248515287e-01 -2.931136594883e+02 0.0 
0.0 0.0 -1.237924397477e+02 
-1.032559547498e+02 1.199066464732e+01 0.0 
1.199066464732e+01 -2.298019945087e+02 0.0 
0.0 0.0 -9.781983983996e+01 
-1.048311800190e+02 6.053584675143e-01 0.0 
6.053584675143e-01 -2.684216208514e+02 0.0 
0.0 0.0 -1.168370439570e+02 
-6.795471747949e+01 -4.943207835513e+00 0.0 
-4.943207835513e+00 -1.804590478058e+02 0.0 
0.0 0.0 -7.245040129224e+01 
-1.126609615247e+02 -1.873255119778e+00 0.0 
-1.873255119778e+00 -2.749653378011e+02 0.0 
0.0 0.0 -1.179515072033e+02 
-9.843938018628e+01 1.102622725246e+01 0.0 
1.102622725246e+01 -2.187911560273e+02 0.0 
0.0 0.0 -9.207546629417e+01 
-1.207636470571e+02 1.011442140961e+01 0.0 
1.011442140961e+01 -2.849178547784e+02 0.0 
0.0 0.0 -1.213044505507e+02 
-1.183573249221e+02 5.193492211644e+00 0.0 
5.193492211644e+00 -2.960722207744e+02 0.0 
0.0 0.0 -1.258158337672e+02 
-9.911749307282e+01 1.340763990534e+01 0.0 
1.340763990534e+01 -2.214824127826e+02 0.0 
0.0 0.0 -9.532950836721e+01 
-9.159065164253e+01 -7.836063606556e+00 0.0 
-7.836063606556e+00 -1.955780836393e+02 0.0 
0.0 0.0 -8.221229770395e+01 
-6.168529417550e+01 1.878425653138e+01 0.0 
1.878425653138e+01 -1.379997779864e+02 0.0 
0.0 0.0 -5.559647999634e+01 
-8.916467951322e+01 -6.842420590487e+00 0.0 
-6.842420590487e+00 -1.785886103353e+02 0.0 
0.0 0.0 -7.413537358225e+01 
-1.220198496048e+02 9.347798189086e+00 0.0 
9.347798189086e+00 -2.952292859396e+02 0.0 
0.0 0.0 -1.247747406633e+02 
-9.686865309334e+01 5.825492462166e+00 0.0 
5.825492462166e+00 -2.533086063775e+02 0.0 
0.0 0.0 -1.103758996982e+02 
-1.664181637173e+02 5.135833212639e+00 0.0 
5.135833212639e+00 -3.930819704490e+02 0.0 
0.0 0.0 -1.674500402499e+02 
-1.423872099618e+02 6.639435011252e+00 0.0 
6.639435011252e+00 -3.249908637955e+02 0.0 
0.0 0.0 -1.398134221272e+02 
-6.014315450656e+01 -1.395430794893e+01 0.0 
-1.395430794893e+01 -1.211633270861e+02 0.0 
0.0 0.0 -5.074797480672e+01 
-1.674855959305e+02 5.701417652706e+00 0.0 
5.701417652706e+00 -3.921330571713e+02 0.0 
0.0 0.0 -1.674855959305e+02 
-1.581716395493e+02 5.132160848330e+00 0.0 
5.132160848330e+00 -3.766771715274e+02 0.0 
0.0 0.0 -1.600546433230e+02 
-9.163878908125e+01 1.434843847937e+01 0.0 
1.434843847937e+01 -2.156460233454e+02 0.0 
0.0 0.0 -9.406485673456e+01 
-3.193334377940e+01 -1.337143222839e+01 0.0 
-1.337143222839e+01 -3.521382633461e+01 0.0 
0.0 0.0 -1.389281003837e+01 
-1.674935177463e+02 2.999759869212e+00 0.0 
2.999759869212e+00 -3.953159793914e+02 0.0 
0.0 0.0 -1.684428491413e+02 
-1.418029707193e+02 7.278111064649e+00 0.0 
7.278111064649e+00 -3.243445251007e+02 0.0 
0.0 0.0 -1.394442487460e+02 
-6.233800449126e+01 -1.411473450367e+01 0.0 
-1.411473450367e+01 -1.466344386196e+02 0.0 
0.0 0.0 -5.865812379564e+01 
-1.687485172632e+02 3.907458790303e+00 0.0 
3.907458790303e+00 -3.950798736142e+02 0.0 
0.0 0.0 -1.687485172632e+02 
-1.167206473352e+02 -1.347782800484e+00 0.0 
-1.347782800484e+00 -2.826733234376e+02 0.0 
0.0 0.0 -1.198017343514e+02 
-8.517586734231e+01 1.070793169911e+01 0.0 
1.070793169911e+01 -1.685488657283e+02 0.0 
0.0 0.0 -7.217836510932e+01 
-1.040468634332e+02 5.462169991321e+00 0.0 
5.462169991321e+00 -2.257734603905e+02 0.0 
0.0 0.0 -9.854609714712e+01 
-9.275381994737e+01 7.053278470956e+00 0.0 
7.053278470956e+00 -2.403468035209e+02 0.0 
0.0 0.0 -1.039079661348e+02 
-1.057158413040e+02 -6.207268772246e+00 0.0 
-6.207268772246e+00 -2.456152784181e+02 0.0 
0.0 0.0 -1.062752175876e+02 
-1.086344930022e+02 2.358423510380e+00 0.0 
2.358423510380e+00 -2.777323660588e+02 0.0 
0.0 0.0 -1.197961408324e+02 
-1.196617825181e+02 6.766164791514e+00 0.0 
6.766164791514e+00 -2.654860789347e+02 0.0 
0.0 0.0 -1.151443584358e+02 
-9.274122425854e+01 8.149125389341e+00 0.0 
8.149125389341e+00 -1.879512516258e+02 0.0 
0.0 0.0 -7.967166114599e+01 
-1.239762929412e+02 5.635508787113e+00 0.0 
5.635508787113e+00 -3.055094580365e+02 0.0 
0.0 0.0 -1.285753518685e+02 
-1.064325243579e+02 6.786989508772e-01 0.0 
6.786989508772e-01 -2.350293378549e+02 0.0 
0.0 0.0 -1.020385586638e+02 
-9.538715671526e+01 -8.176925273949e+00 0.0 
-8.176925273949e+00 -1.962677485805e+02 0.0 
0.0 0.0 -8.404035706378e+01 
-1.123565145930e+02 4.422241291145e+00 0.0 
4.422241291145e+00 -2.866823001289e+02 0.0 
0.0 0.0 -1.227575168797e+02 
-7.298489290388e+01 -1.528973760680e+01 0.0 
-1.528973760680e+01 -1.676976177378e+02 0.0 
0.0 0.0 -7.150191962495e+01 
-1.177412876221e+02 -3.200209404282e+00 0.0 
-3.200209404282e+00 -2.701728692372e+02 0.0 
0.0 0.0 -1.145627774666e+02 
-1.038578232173e+01 -1.133309999170e+00 0.0 
-1.133309999170e+00 -8.891717365898e+00 0.0 
0.0 0.0 -4.611270313741e+00 
-6.606248505019e+01 1.826634022770e+01 0.0 
1.826634022770e+01 -1.443671062521e+02 0.0 
0.0 0.0 -6.004968831216e+01 
-6.878626175112e+01 -1.435162526749e+01 0.0 
-1.435162526749e+01 -1.632685414299e+02 0.0 
0.0 0.0 -6.824517144611e+01 
-1.003819534996e+02 -5.995827201650e+00 0.0 
-5.995827201650e+00 -2.112999041149e+02 0.0 
0.0 0.0 -8.817592798623e+01 
-9.578681810901e+01 1.412699171083e+01 0.0 
1.412699171083e+01 -2.241873299429e+02 0.0 
0.0 0.0 -9.721436291399e+01 
-1.133471782703e+02 -1.680431913098e+00 0.0 
-1.680431913098e+00 -2.813244133434e+02 0.0 
0.0 0.0 -1.180014774841e+02 
-1.091624209298e+02 3.377637086711e+00 0.0 
3.377637086711e+00 -2.383852719598e+02 0.0 
0.0 0.0 -1.038643078669e+02 
-6.706869701383e+01 -1.607266890966e+01 0.0 
-1.607266890966e+01 -1.492157541786e+02 0.0 
0.0 0.0 -6.266731494614e+01 
-1.690979561776e+02 3.226650009179e+00 0.0 
3.226650009179e+00 -3.958952310810e+02 0.0 
0.0 0.0 -1.690979561776e+02 
-1.081856293684e+02 9.979876268813e+00 0.0 
9.979876268813e+00 -2.461998975603e+02 0.0 
0.0 0.0 -1.057176971157e+02 
-1.042511712837e+02 -5.239809735239e+00 0.0 
-5.239809735239e+00 -2.191505871991e+02 0.0 
0.0 0.0 -9.225260715155e+01 
-1.050966992187e+02 1.020867896516e+01 0.0 
1.020867896516e+01 -2.369915886780e+02 0.0 
0.0 0.0 -1.013426038743e+02 
-1.035781831053e+02 -5.206636836705e+00 0.0 
-5.206636836705e+00 -2.119023903075e+02 0.0 
0.0 0.0 -8.892451666356e+01 
-1.494128586268e+01 -1.046216678356e+00 0.0 
-1.046216678356e+00 -9.454850359650e+00 0.0 
0.0 0.0 -7.893086845947e+00 
-1.083733942568e+02 6.845804153173e+00 0.0 
6.845804153173e+00 -2.361726925864e+02 0.0 
0.0 0.0 -1.029638260530e+02 
-8.969983110599e+01 -3.085046633685e+00 0.0 
-3.085046633685e+00 -1.719451271855e+02 0.0 
0.0 0.0 -7.287181813998e+01 
-8.108169317297e+00 -2.036886043643e-01 0.0 
-2.036886043643e-01 -8.876925742212e+00 0.0 
0.0 0.0 -3.372018966806e+00 
-1.011446136773e+02 -5.206666325265e+00 0.0 
-5.206666325265e+00 -2.069877931989e+02 0.0 
0.0 0.0 -8.713513598228e+01 
-1.217738985144e+02 -9.506541496248e-01 0.0 
-9.506541496248e-01 -3.002757785036e+02 0.0 
0.0 0.0 -1.262149031054e+02 
-1.362076576445e+02 1.048306676815e+00 0.0 
1.048306676815e+00 -3.108345465213e+02 0.0 
0.0 0.0 -1.337126612498e+02 
-9.945163399976e+01 7.729423087874e-01 0.0 
7.729423087874e-01 -2.607146318917e+02 0.0 
0.0 0.0 -1.133029349336e+02 
-1.029418962318e+02 2.172459635297e-01 0.0 
2.172459635297e-01 -2.667700613174e+02 0.0 
0.0 0.0 -1.156130982137e+02 
-9.549260548564e+01 5.768947674782e+00 0.0 
5.768947674782e+00 -1.984977569531e+02 0.0 
0.0 0.0 -8.728959422965e+01 
-8.795893742219e+01 2.636390766951e+00 0.0 
2.636390766951e+00 -1.859803463969e+02 0.0 
0.0 0.0 -8.178178514573e+01 
-1.529938649525e+02 5.861710841442e+00 0.0 
5.861710841442e+00 -3.547939228517e+02 0.0 
0.0 0.0 -1.519363363413e+02 
-1.019261806461e+02 1.056909486599e+01 0.0 
1.056909486599e+01 -2.278681416142e+02 0.0 
0.0 0.0 -9.684578032668e+01 
-1.240069836386e+01 3.062149527580e-01 0.0 
3.062149527580e-01 -7.114420898511e+00 0.0 
0.0 0.0 -4.777258400923e+00 
-3.647888057700e+01 -5.009407185087e+00 0.0 
-5.009407185087e+00 -7.040268494687e+01 0.0 
0.0 0.0 -2.770371201153e+01 
-2.787436462388e+01 -7.514484235094e+00 0.0 
-7.514484235094e+00 -2.979640552772e+01 0.0 
0.0 0.0 -1.369231446071e+01 
-6.399612001647e+01 -1.302712818897e+01 0.0 
-1.302712818897e+01 -1.266694598997e+02 0.0 
0.0 0.0 -5.412805326478e+01 
-1.383150017447e+02 9.454400040988e+00 0.0 
9.454400040988e+00 -3.226918241309e+02 0.0 
0.0 0.0 -1.379020477627e+02 
-1.367579670352e+02 2.751714947839e+00 0.0 
2.751714947839e+00 -3.113605018017e+02 0.0 
0.0 0.0 -1.340355406511e+02 
-1.348812169575e+02 -1.051042628404e+00 0.0 
-1.051042628404e+00 -3.240102567439e+02 0.0 
0.0 0.0 -1.372674421104e+02 
-7.144371972090e+01 -8.926017491477e+00 0.0 
-8.926017491477e+00 -1.419113775002e+02 0.0 
0.0 0.0 -5.981755607016e+01 
-1.219874109669e+02 -2.341329915657e+00 0.0 
-2.341329915657e+00 -2.710067780040e+02 0.0 
0.0 0.0 -1.149696969966e+02 
-1.402353644033e+02 1.365915362594e+00 0.0 
1.365915362594e+00 -3.406772009011e+02 0.0 
0.0 0.0 -1.438737695913e+02 
-3.756384600778e+01 3.902600352228e+00 0.0 
3.902600352228e+00 -1.295475701016e+02 0.0 
0.0 0.0 -5.014267612751e+01 
-8.941880872577e+01 -6.085214139882e-01 0.0 
-6.085214139882e-01 -1.722624561386e+02 0.0 
0.0 0.0 -7.316590100542e+01 
-7.469741930132e+01 -2.154716879734e+00 0.0 
-2.154716879734e+00 -1.407769423160e+02 0.0 
0.0 0.0 -5.944830039787e+01 
-1.673513993761e+02 2.282578097235e+00 0.0 
2.282578097235e+00 -3.952692526601e+02 0.0 
0.0 0.0 -1.683861956109e+02 
-1.692116339719e+02 2.648881819887e+00 0.0 
2.648881819887e+00 -3.961604792679e+02 0.0 
0.0 0.0 -1.692116339719e+02 
-9.820698046736e+01 -7.713571855536e-01 0.0 
-7.713571855536e-01 -1.916789300214e+02 0.0 
0.0 0.0 -8.163248273606e+01 
-1.071813226084e+02 -4.094336126987e+00 0.0 
-4.094336126987e+00 -2.198039896002e+02 0.0 
0.0 0.0 -9.252963005191e+01 
-1.054413602902e+02 -3.410653454700e+00 0.0 
-3.410653454700e+00 -2.509230521844e+02 0.0 
0.0 0.0 -1.064499782616e+02 
-1.451683055579e+02 2.235951696340e+00 0.0 
2.235951696340e+00 -3.508734827261e+02 0.0 
0.0 0.0 -1.484125364852e+02 
-4.258025704283e+01 -8.556396827867e+00 0.0 
-8.556396827867e+00 -7.885049302668e+01 0.0 
0.0 0.0 -3.324464467710e+01 
-1.353437872962e+02 5.261246593969e-01 0.0 
5.261246593969e-01 -3.301152682096e+02 0.0 
0.0 0.0 -1.392377166518e+02 
-1.814297086403e+01 -1.506504987071e-01 0.0 
-1.506504987071e-01 -4.284281055693e+01 0.0 
0.0 0.0 -1.550440760815e+01 
-9.951430648483e+01 -4.735038397195e+00 0.0 
-4.735038397195e+00 -1.996542997029e+02 0.0 
0.0 0.0 -8.327745652848e+01 
-1.070353460199e+02 -5.440051725710e+00 0.0 
-5.440051725710e+00 -2.241125043648e+02 0.0 
0.0 0.0 -9.447536710800e+01 
-1.109181434872e+01 -6.618240052943e-02 0.0 
-6.618240052943e-02 -2.544476401588e+01 0.0 
0.0 0.0 -8.376875480193e+00 
-9.393867441386e+01 -2.065228178062e+00 0.0 
-2.065228178062e+00 -1.814696952643e+02 0.0 
0.0 0.0 -7.731923516954e+01 
-1.414622715963e+02 5.011351956821e+00 0.0 
5.011351956821e+00 -3.241941931536e+02 0.0 
0.0 0.0 -1.392969394250e+02 
-1.238747343990e+01 2.150001719895e-01 0.0 
2.150001719895e-01 -7.448449192751e+00 0.0 
0.0 0.0 -4.865326003151e+00 
-8.876633159525e+01 3.012037353766e+00 0.0 
3.012037353766e+00 -1.867701664152e+02 0.0 
0.0 0.0 -8.226094940314e+01 
-8.953838915951e+01 3.462779422624e+00 0.0 
3.462779422624e+00 -1.876668080438e+02 0.0 
0.0 0.0 -8.276155916099e+01 
-1.127807460623e+02 3.863206342642e+00 0.0 
3.863206342642e+00 -2.869943143180e+02 0.0 
0.0 0.0 -1.223645704901e+02 
-7.317774324123e+01 3.643285282857e-01 0.0 
3.643285282857e-01 -1.406519973670e+02 0.0 
0.0 0.0 -5.941987431864e+01 
-6.525474122643e+01 -1.405699575591e+01 0.0 
-1.405699575591e+01 -1.493271658425e+02 0.0 
0.0 0.0 -6.186767559235e+01 
-5.212320957945e+01 2.254219494016e+01 0.0 
2.254219494016e+01 -1.005363089006e+02 0.0 
0.0 0.0 -4.103793696303e+01 
-1.477401831021e+02 -6.345606495504e-01 0.0 
-6.345606495504e-01 -3.507514419048e+02 0.0 
0.0 0.0 -1.491474875021e+02 
-1.565780452013e+02 8.602452558439e+00 0.0 
8.602452558439e+00 -3.673496361126e+02 0.0 
0.0 0.0 -1.567783043942e+02 
-1.324027793982e+02 3.638200572220e+00 0.0 
3.638200572220e+00 -2.990940976718e+02 0.0 
0.0 0.0 -1.290490631210e+02 
-6.384486403699e+01 1.650260322505e+01 0.0 
1.650260322505e+01 -1.195627054752e+02 0.0 
0.0 0.0 -5.183563736083e+01 
-3.015872902828e+01 -6.031353709082e+00 0.0 
-6.031353709082e+00 -4.900187086538e+01 0.0 
0.0 0.0 -2.098587738338e+01 
-9.273543437649e+01 8.214011250313e+00 0.0 
8.214011250313e+00 -1.882297775449e+02 0.0 
0.0 0.0 -8.103030658957e+01 
-8.751644828664e+01 1.452829737081e+00 0.0 
1.452829737081e+00 -1.859020417752e+02 0.0 
0.0 0.0 -8.162554701854e+01 
-8.728225460445e+01 1.494260691139e+00 0.0 
1.494260691139e+00 -1.857976810189e+02 0.0 
0.0 0.0 -8.152398068701e+01 
-7.944745185544e+00 -1.886283621209e-01 0.0 
-1.886283621209e-01 -9.204266925856e+00 0.0 
0.0 0.0 -3.336528540664e+00 
-1.118674840316e+01 -1.217904106120e-01 0.0 
-1.217904106120e-01 -2.532826596424e+01 0.0 
0.0 0.0 -8.317014612928e+00 
-1.402449814414e+01 1.445177665933e-02 0.0 
1.445177665933e-02 -4.165293414575e+01 0.0 
0.0 0.0 -1.450831019309e+01 
-5.565141173116e+01 -9.335250961325e+00 0.0 
-9.335250961325e+00 -1.080277859374e+02 0.0 
0.0 0.0 -4.502001952557e+01 
-1.436232879395e+01 2.600429962847e-01 0.0 
2.600429962847e-01 -2.581858748775e+01 0.0 
0.0 0.0 -9.449272392760e+00 
-1.019048408141e+02 -1.899657565782e+00 0.0 
-1.899657565782e+00 -2.020041756674e+02 0.0 
0.0 0.0 -8.608646874319e+01 
-4.716933415322e+01 -1.383640937016e+01 0.0 
-1.383640937016e+01 -5.994411454911e+01 0.0 
0.0 0.0 -3.270236997585e+01 
-6.560977213189e+01 -9.553549508577e+00 0.0 
-9.553549508577e+00 -1.288513098654e+02 0.0 
0.0 0.0 -5.378738804699e+01 
-1.131716004709e+02 4.239406225918e-01 0.0 
4.239406225918e-01 -2.520671886010e+02 0.0 
0.0 0.0 -1.091716367216e+02 
-8.874350709214e+01 2.437929211716e+00 0.0 
2.437929211716e+00 -1.864471765416e+02 0.0 
0.0 0.0 -8.215720509012e+01 
-1.428192969516e+02 9.306147301652e+00 0.0 
9.306147301652e+00 -3.317810991309e+02 0.0 
0.0 0.0 -1.419801188247e+02 
-1.176806477045e+02 -1.737506200240e+00 0.0 
-1.737506200240e+00 -2.891225803226e+02 0.0 
0.0 0.0 -1.216409684081e+02 
-1.058197242842e+02 1.675100542224e-01 0.0 
1.675100542224e-01 -2.342879606832e+02 0.0 
0.0 0.0 -1.016323054902e+02 
-7.912566642645e+01 -1.266102684041e+00 0.0 
-1.266102684041e+00 -1.504330445831e+02 0.0 
0.0 0.0 -6.376450010834e+01 
-1.720700983759e+01 1.409370876152e-01 0.0 
1.409370876152e-01 -4.255666755123e+01 0.0 
0.0 0.0 -1.469923015075e+01 
-1.568575475102e+02 3.455395272151e+00 0.0 
3.455395272151e+00 -3.673342775238e+02 0.0 
0.0 0.0 -1.568575475102e+02 
-1.581547878886e+02 3.720038191524e+00 0.0 
3.720038191524e+00 -3.679804137531e+02 0.0 
0.0 0.0 -1.574405604925e+02 
-1.036970066561e+02 1.592985582934e+00 0.0 
1.592985582934e+00 -2.257632632275e+02 0.0 
0.0 0.0 -9.843808096509e+01 
-8.734882959068e+01 1.792816851797e+00 0.0 
1.792816851797e+00 -1.855985904976e+02 0.0 
0.0 0.0 -8.148422602648e+01 
-7.931282521426e+01 -8.385086095353e-01 0.0 
-8.385086095353e-01 -1.529525066109e+02 0.0 
0.0 0.0 -6.469879329916e+01 
-1.579691545977e+02 2.807590875854e+00 0.0 
2.807590875854e+00 -3.674173727250e+02 0.0 
0.0 0.0 -1.572159581968e+02 
-6.052291499863e+01 -8.877352289998e+00 0.0 
-8.877352289998e+00 -1.205178485605e+02 0.0 
0.0 0.0 -5.027734998092e+01 
-8.918206944245e+01 3.005222707958e+00 0.0 
3.005222707958e+00 -1.868255569269e+02 0.0 
0.0 0.0 -8.240228791081e+01 
-8.816226467161e+01 2.126775509440e+00 0.0 
2.126775509440e+00 -1.857729766912e+02 0.0 
0.0 0.0 -8.178057240884e+01 
-8.857458280842e+01 5.211829804700e+00 0.0 
5.211829804700e+00 -1.782672653794e+02 0.0 
0.0 0.0 -7.709620923684e+01 
-1.586805202936e+02 6.345171907848e+00 0.0 
6.345171907848e+00 -3.715878806850e+02 0.0 
0.0 0.0 -1.586805202936e+02 
-1.587606690070e+02 3.145223643296e+00 0.0 
3.145223643296e+00 -3.681437129033e+02 0.0 
0.0 0.0 -1.576713145731e+02 
-1.435641645662e+01 2.261978679859e-01 0.0 
2.261978679859e-01 -2.559874868437e+01 0.0 
0.0 0.0 -9.354980136730e+00 
-8.269666174239e+00 -4.845645079706e-02 0.0 
-4.845645079706e-02 -9.328644911723e+00 0.0 
0.0 0.0 -3.510988832233e+00 
-3.283584002451e+01 -6.182747973119e+00 0.0 
-6.182747973119e+00 -5.840186140844e+01 0.0 
0.0 0.0 -2.474499042706e+01 
-1.031671699346e+02 -5.716088027316e+00 0.0 
-5.716088027316e+00 -2.234328734823e+02 0.0 
0.0 0.0 -9.339021872534e+01 
-1.549369379742e+02 -1.025765708238e+00 0.0 
-1.025765708238e+00 -3.624626448582e+02 0.0 
0.0 0.0 -1.548198748497e+02 
-9.749621643822e+01 -2.323034174276e+01 0.0 
-2.323034174276e+01 -7.609552681970e+01 0.0 
0.0 0.0 -5.235356481178e+01 
-1.299416922931e+02 1.200494285953e+00 0.0 
1.200494285953e+00 -2.946450422964e+02 0.0 
0.0 0.0 -1.269760203769e+02 
-2.969667464286e+01 -1.210263889133e+01 0.0 
-1.210263889133e+01 -1.197159372976e+01 0.0 
0.0 0.0 -1.249480472309e+01 
-1.116838177548e+02 9.585711912007e-01 0.0 
9.585711912007e-01 -2.853595589936e+02 0.0 
0.0 0.0 -1.213268683940e+02 
-1.877729904337e+01 -6.018309221498e+00 0.0 
-6.018309221498e+00 -1.347000414635e+01 0.0 
0.0 0.0 -8.565150393308e+00 
-5.054681368989e+01 -2.624985770331e+01 0.0 
-2.624985770331e+01 -3.406635964295e+01 0.0 
0.0 0.0 -2.567624553060e+01 
-1.076236074121e+02 -2.800648529998e-01 0.0 
-2.800648529998e-01 -2.753868616823e+02 0.0 
0.0 0.0 -1.176178387816e+02 
-1.504987265383e+02 -1.018933186951e+00 0.0 
-1.018933186951e+00 -3.530377954697e+02 0.0 
0.0 0.0 -1.506609566024e+02 
-1.130136356621e+02 9.495791138142e-01 0.0 
9.495791138142e-01 -2.508973243130e+02 0.0 
0.0 0.0 -1.087732879925e+02 
-9.550740122486e+01 9.064084812489e+00 0.0 
9.064084812489e+00 -1.979047677234e+02 0.0 
0.0 0.0 -8.486642657936e+01 
-1.094908814740e+01 8.557898337365e-02 0.0 
8.557898337365e-02 -2.535317371552e+01 0.0 
0.0 0.0 -8.393295665279e+00 
-1.247854389071e+02 -1.577360780638e+00 0.0 
-1.577360780638e+00 -2.788667541972e+02 0.0 
0.0 0.0 -1.185799020706e+02 
-1.560027207351e+02 1.221219484242e+00 0.0 
1.221219484242e+00 -3.653396817151e+02 0.0 
0.0 0.0 -1.560027207351e+02 
-1.575815291680e+02 1.909923924988e+00 0.0 
1.909923924988e+00 -3.666706229356e+02 0.0 
0.0 0.0 -1.568756456311e+02 
-8.819396039635e+01 1.981617832871e+00 0.0 
1.981617832871e+00 -1.860557856976e+02 0.0 
0.0 0.0 -8.187492382819e+01 
-1.164514833740e+02 2.199532975201e+00 0.0 
2.199532975201e+00 -2.951413260062e+02 0.0 
0.0 0.0 -1.250483280562e+02 
-1.568508317788e+02 2.806451027314e+00 0.0 
2.806451027314e+00 -3.673186074838e+02 0.0 
0.0 0.0 -1.568508317788e+02 
-1.255163722833e+02 8.859654697399e+00 0.0 
8.859654697399e+00 -3.045735946050e+02 0.0 
0.0 0.0 -1.286269900665e+02 
-1.635843719679e+01 -4.017662127087e-02 0.0 
-4.017662127087e-02 -4.131704136564e+01 0.0 
0.0 0.0 -1.398978983899e+01 
-1.423758900131e+01 2.115112609371e-01 0.0 
2.115112609371e-01 -2.560220211134e+01 0.0 
0.0 0.0 -9.383684724184e+00 
-1.071758788407e+01 1.523036807314e-01 0.0 
1.523036807314e-01 -2.467687158568e+01 0.0 
0.0 0.0 -8.295573789374e+00 
-8.936685430105e+01 -1.185742616342e+00 0.0 
-1.185742616342e+00 -1.710817803583e+02 0.0 
0.0 0.0 -7.285448889376e+01 
-1.681785541155e+02 3.469535411631e-01 0.0 
3.469535411631e-01 -3.940589881750e+02 0.0 
0.0 0.0 -1.682712626872e+02 
-1.492556866771e+02 1.013184048743e+00 0.0 
1.013184048743e+00 -3.449545123770e+02 0.0 
0.0 0.0 -1.478630597162e+02 
-8.274368875681e+00 1.661008128479e-01 0.0 
1.661008128479e-01 -9.272129392606e+00 0.0 
0.0 0.0 -3.452026861009e+00 
-1.025885488291e+02 1.730688680451e-01 0.0 
1.730688680451e-01 -2.022480020169e+02 0.0 
0.0 0.0 -8.633253332977e+01 
-1.687838917998e+02 -1.124260584995e-01 0.0 
-1.124260584995e-01 -3.951624141994e+02 0.0 
0.0 0.0 -1.687838917998e+02 
-1.679119814975e+02 -2.809411686204e-01 0.0 
-2.809411686204e-01 -3.938282337775e+02 0.0 
0.0 0.0 -1.681220645825e+02 
-1.676357918126e+02 1.760505840877e+00 0.0 
1.760505840877e+00 -3.952357363863e+02 0.0 
0.0 0.0 -1.684614584597e+02 
-1.221699006834e+02 -6.672489176999e-01 0.0 
-6.672489176999e-01 -2.750216868621e+02 0.0 
0.0 0.0 -1.187574762637e+02 
-1.340458489940e+02 9.261583577293e-01 0.0 
9.261583577293e-01 -3.049345133266e+02 0.0 
0.0 0.0 -1.312941086962e+02 
-1.680472174148e+02 -5.915348252785e-02 0.0 
-5.915348252785e-02 -3.934435073012e+02 0.0 
0.0 0.0 -1.680472174148e+02 
-1.685220516516e+02 5.963258975542e-02 0.0 
5.963258975542e-02 -3.945514538538e+02 0.0 
0.0 0.0 -1.685220516516e+02 
-1.300856072918e+02 -4.642503574632e-01 0.0 
-4.642503574632e-01 -2.947905778222e+02 0.0 
0.0 0.0 -1.270628555342e+02 
-1.307373676785e+01 -2.167997911794e-01 0.0 
-2.167997911794e-01 -6.430961126958e+00 0.0 
0.0 0.0 -4.819334340001e+00 
-8.630182129290e+01 8.609910904218e-01 0.0 
8.609910904218e-01 -1.846319079949e+02 0.0 
0.0 0.0 -8.088011878635e+01 
-8.776804692812e+01 1.541947028326e+00 0.0 
1.541947028326e+00 -1.861015618182e+02 0.0 
0.0 0.0 -8.176088262390e+01 
-8.264470577013e+00 3.689320476781e-02 0.0 
3.689320476781e-02 -9.280650664291e+00 0.0 
0.0 0.0 -3.474674553334e+00 
-1.692169202759e+02 3.634683918024e-01 0.0 
3.634683918024e-01 -3.961728139771e+02 0.0 
0.0 0.0 -1.692169202759e+02 
-1.672659817001e+02 1.128207800108e+00 0.0 
1.128207800108e+00 -3.947201791219e+02 0.0 
0.0 0.0 -1.681958482466e+02 
-1.687508770403e+02 1.044999617349e+00 0.0 
1.044999617349e+00 -3.950853797607e+02 0.0 
0.0 0.0 -1.687508770403e+02 
-1.280486331803e+01 1.994131211327e-01 0.0 
1.994131211327e-01 -7.626667280735e+00 0.0 
0.0 0.0 -4.985760854305e+00 
-1.253979858835e+01 1.495462000443e-01 0.0 
1.495462000443e-01 -7.757325252135e+00 0.0 
0.0 0.0 -4.915731843587e+00 
-1.691150066740e+02 2.038459454919e+00 0.0 
2.038459454919e+00 -3.959350155727e+02 0.0 
0.0 0.0 -1.691150066740e+02 
-1.690491521446e+02 1.580815139129e+00 0.0 
1.580815139129e+00 -3.957813550041e+02 0.0 
0.0 0.0 -1.690491521446e+02 
-1.180321063769e+02 9.810910754470e-01 0.0 
9.810910754470e-01 -2.650235593651e+02 0.0 
0.0 0.0 -1.145166997226e+02 
-8.538007781374e+01 2.325236987476e-01 0.0 
2.325236987476e-01 -1.839838648488e+02 0.0 
0.0 0.0 -8.040918279875e+01 
-1.262888428254e+02 9.692840047487e-01 0.0 
9.692840047487e-01 -2.849750171985e+02 0.0 
0.0 0.0 -1.229791580072e+02 
-1.020386233892e+02 9.425397804080e-01 0.0 
9.425397804080e-01 -2.253893346737e+02 0.0 
0.0 0.0 -9.782838741887e+01 
-8.538305731278e+01 8.635904031914e-02 0.0 
8.635904031914e-02 -1.840143283985e+02 0.0 
0.0 0.0 -8.041921571338e+01 
-1.241134604537e+01 2.087898876656e-01 0.0 
2.087898876656e-01 -7.505569148390e+00 0.0 
0.0 0.0 -4.833061945270e+00 
-1.188697522663e+01 6.568743554073e-01 0.0 
6.568743554073e-01 -7.592427909709e+00 0.0 
0.0 0.0 -5.443820940900e+00 
-1.089812838022e+01 1.071860853725e+00 0.0 
1.071860853725e+00 -6.783884367047e+00 0.0 
0.0 0.0 -4.904603824182e+00 
-9.521744486203e+00 1.424901743551e+00 0.0 
1.424901743551e+00 -7.169016622660e+00 0.0 
0.0 0.0 -4.607228332659e+00 
-1.062560728890e+02 -1.174047808477e+00 0.0 
-1.174047808477e+00 -2.126468566475e+02 0.0 
0.0 0.0 -9.079953205735e+01 
-9.830436369966e+01 -1.146742919228e+00 0.0 
-1.146742919228e+00 -1.917989175468e+02 0.0 
0.0 0.0 -8.185500659806e+01 
-7.179680010157e+00 -1.032339002364e-02 0.0 
-1.032339002364e-02 -9.418843445476e+00 0.0 
0.0 0.0 -3.817496318771e+00 
-1.246488151148e+02 -1.015250803431e+00 0.0 
-1.015250803431e+00 -2.729728262206e+02 0.0 
0.0 0.0 -1.166372086720e+02 
-8.546535206125e+00 -3.680838532252e-02 0.0 
-3.680838532252e-02 -9.585195947646e+00 0.0 
0.0 0.0 -4.942636604473e+00 
-1.577640073704e+02 5.281791316139e+00 0.0 
5.281791316139e+00 -3.694493505310e+02 0.0 
0.0 0.0 -1.577640073704e+02 
-1.564575385280e+02 2.366667772885e+00 0.0 
2.366667772885e+00 -3.664009232320e+02 0.0 
0.0 0.0 -1.564575385280e+02 
-1.569556390681e+02 3.893203640800e+00 0.0 
3.893203640800e+00 -3.675631578256e+02 0.0 
0.0 0.0 -1.569556390681e+02 
-2.181742364520e+01 -1.485125610853e+00 0.0 
-1.485125610853e+00 -6.848895239321e+01 0.0 
0.0 0.0 -2.669191281152e+01 
-6.732126054661e+01 -1.306321555450e+00 0.0 
-1.306321555450e+00 -1.298146421540e+02 0.0 
0.0 0.0 -5.464053314444e+01 
-1.561205959155e+02 1.960110908757e+00 0.0 
1.960110908757e+00 -3.656147238029e+02 0.0 
0.0 0.0 -1.561205959155e+02 
-1.426036983495e+02 -8.018520129224e-01 0.0 
-8.018520129224e-01 -3.333478620431e+02 0.0 
0.0 0.0 -1.423854681178e+02 
-1.569389263428e+02 1.630174740067e+00 0.0 
1.630174740067e+00 -3.675241614666e+02 0.0 
0.0 0.0 -1.569389263428e+02 
-1.509896702364e+02 -8.376754305533e-01 0.0 
-8.376754305533e-01 -3.532262502398e+02 0.0 
0.0 0.0 -1.508647761428e+02 
-1.594556708549e+02 -9.494920261023e-01 0.0 
-9.494920261023e-01 -3.731271879742e+02 0.0 
0.0 0.0 -1.593748576487e+02 
-9.402863515042e+01 2.305390504141e-01 0.0 
2.305390504141e-01 -1.815322090829e+02 0.0 
0.0 0.0 -7.738785280266e+01 
-1.575352282846e+02 2.352145894399e+00 0.0 
2.352145894399e+00 -3.665274282667e+02 0.0 
0.0 0.0 -1.568187969654e+02 
-1.574475955473e+02 1.354652032943e+00 0.0 
1.354652032943e+00 -3.667736643869e+02 0.0 
0.0 0.0 -1.568663779803e+02 
-1.463554918602e+02 7.857896654283e-01 0.0 
7.857896654283e-01 -3.422717155104e+02 0.0 
0.0 0.0 -1.461881622112e+02 
-1.549883421814e+02 7.904908751796e-01 0.0 
7.904908751796e-01 -3.626315589586e+02 0.0 
0.0 0.0 -1.548859703420e+02 
-1.299896686994e+02 -3.795101285897e-01 0.0 
-3.795101285897e-01 -2.949436159679e+02 0.0 
0.0 0.0 -1.258132032223e+02 
-2.143725234563e+01 -3.669971468141e+00 0.0 
-3.669971468141e+00 -1.000260791997e+01 0.0 
0.0 0.0 -1.000843426256e+01 
-9.493352722693e+01 -4.104127536377e+00 0.0 
-4.104127536377e+00 -1.874220644786e+02 0.0 
0.0 0.0 -7.824247856408e+01 
-1.441887041921e+01 3.562749582741e-01 0.0 
3.562749582741e-01 -2.512444000216e+01 0.0 
0.0 0.0 -9.344173737337e+00 
-1.483649504742e+02 7.058274489073e-01 0.0 
7.058274489073e-01 -3.512118497256e+02 0.0 
0.0 0.0 -1.494730400599e+02 
-9.719883617655e+01 -6.022871453296e+00 0.0 
-6.022871453296e+00 -1.990719871301e+02 0.0 
0.0 0.0 -8.299696966788e+01 
-1.380824992555e+02 -1.273386642077e+00 0.0 
-1.273386642077e+00 -3.252694707154e+02 0.0 
0.0 0.0 -1.386055909913e+02 
-4.895092422914e+01 -7.830085987365e+00 0.0 
-7.830085987365e+00 -9.912022292332e+01 0.0 
0.0 0.0 -4.054794369551e+01 
-1.639447324848e+01 -1.030110357026e+00 0.0 
-1.030110357026e+00 -4.150858975891e+01 0.0 
0.0 0.0 -1.547403511878e+01 
-1.470201948801e+02 4.824304395237e-01 0.0 
4.824304395237e-01 -3.451080627426e+02 0.0 
0.0 0.0 -1.472384772868e+02 
-1.032548406007e+02 -3.629069066118e+00 0.0 
-3.629069066118e+00 -2.077262446493e+02 0.0 
0.0 0.0 -8.755914474696e+01 
-8.460070680577e+01 -2.182057229265e+00 0.0 
-2.182057229265e+00 -1.608844669299e+02 0.0 
0.0 0.0 -6.819458703058e+01 
-1.387019908105e+02 3.015155859265e-01 0.0 
3.015155859265e-01 -3.258898917338e+02 0.0 
0.0 0.0 -1.389775647633e+02 
-1.407303170571e+02 1.017963942153e-01 0.0 
1.017963942153e-01 -3.228162367274e+02 0.0 
0.0 0.0 -1.386639661354e+02 
-8.438723361252e+01 2.931622056593e-01 0.0 
2.931622056593e-01 -1.610764107119e+02 0.0 
0.0 0.0 -6.843992483741e+01 
-1.275157795506e+02 1.158366600916e+00 0.0 
1.158366600916e+00 -3.119829991404e+02 0.0 
0.0 0.0 -1.314496336073e+02 
-1.157787349064e+02 -2.864434759244e+00 0.0 
-2.864434759244e+00 -2.740367133235e+02 0.0 
0.0 0.0 -1.158791647535e+02 
-1.274062219804e+02 -1.871751849528e+00 0.0 
-1.871751849528e+00 -2.942280752261e+02 0.0 
0.0 0.0 -1.253762050174e+02 
-1.303892821524e+02 -1.466057111116e+00 0.0 
-1.466057111116e+00 -3.028335863115e+02 0.0 
0.0 0.0 -1.291772367383e+02 
-7.219098001446e+01 1.004437938200e+01 0.0 
1.004437938200e+01 -1.883133600138e+02 0.0 
0.0 0.0 -7.618498388407e+01 
-8.926830909100e+01 8.670200839571e+00 0.0 
8.670200839571e+00 -1.786443855523e+02 0.0 
0.0 0.0 -7.614059162218e+01 
-9.057284073496e+01 1.241891549156e+01 0.0 
1.241891549156e+01 -2.107834825322e+02 0.0 
0.0 0.0 -8.939357413017e+01 
-1.210797041520e+02 -2.745703093796e+00 0.0 
-2.745703093796e+00 -2.780797644880e+02 0.0 
0.0 0.0 -1.181384273284e+02 
-1.425488996833e+02 5.009244946672e-01 0.0 
5.009244946672e-01 -3.342306171036e+02 0.0 
0.0 0.0 -1.426338550361e+02 
-1.330946155282e+02 -1.238308558225e+00 0.0 
-1.238308558225e+00 -3.116763236022e+02 0.0 
0.0 0.0 -1.330312817391e+02 
-5.605294233284e+01 -1.262796939329e+01 0.0 
-1.262796939329e+01 -1.067715015374e+02 0.0 
0.0 0.0 -4.521475280634e+01 
-1.406108089887e+02 6.911278814717e-01 0.0 
6.911278814717e-01 -3.218757645630e+02 0.0 
0.0 0.0 -1.383459720655e+02 
-1.326402504335e+02 5.793197011613e-01 0.0 
5.793197011613e-01 -3.017171820560e+02 0.0 
0.0 0.0 -1.299072297468e+02 
-9.663204616591e+01 -1.391523421991e-01 0.0 
-1.391523421991e-01 -2.109417926339e+02 0.0 
0.0 0.0 -9.187215163996e+01 
-1.228465300086e+02 -2.217316342310e+00 0.0 
-2.217316342310e+00 -2.896710443388e+02 0.0 
0.0 0.0 -1.229698431085e+02 
-1.243300869776e+02 -2.287693979676e+00 0.0 
-2.287693979676e+00 -2.861227828070e+02 0.0 
0.0 0.0 -1.217527072697e+02 
-1.411815034496e+02 1.866736017493e+00 0.0 
1.866736017493e+00 -3.237189987641e+02 0.0 
0.0 0.0 -1.390701506641e+02 
-1.368304787676e+02 4.514795282229e-01 0.0 
4.514795282229e-01 -3.124561327054e+02 0.0 
0.0 0.0 -1.343859834419e+02 
-1.178422452822e+02 -3.442320130019e+00 0.0 
-3.442320130019e+00 -2.674928918763e+02 0.0 
0.0 0.0 -1.126192682573e+02 
-1.508879388683e+02 5.805618836515e-01 0.0 
5.805618836515e-01 -3.534095709065e+02 0.0 
0.0 0.0 -1.508892529324e+02 
-1.316873806252e+02 1.925320966555e+00 0.0 
1.925320966555e+00 -2.985008718790e+02 0.0 
0.0 0.0 -1.286564757513e+02 
-1.340269913334e+02 3.851218676091e-01 0.0 
3.851218676091e-01 -3.117384213087e+02 0.0 
0.0 0.0 -1.330933980072e+02 
-1.527554010686e+02 8.679544910555e-01 0.0 
8.679544910555e-01 -3.601679828044e+02 0.0 
0.0 0.0 -1.534770151619e+02 
-1.408945591795e+02 2.543759343982e+00 0.0 
2.543759343982e+00 -3.224353757346e+02 0.0 
0.0 0.0 -1.385989804742e+02 
-1.213916164423e+02 2.397358154749e+00 0.0 
2.397358154749e+00 -2.714934160229e+02 0.0 
0.0 0.0 -1.174655097396e+02 
-1.233900869183e+02 2.667112899894e-01 0.0 
2.667112899894e-01 -3.012246027797e+02 0.0 
0.0 0.0 -1.269844069094e+02 
-5.000728664528e+01 -4.581113608325e+00 0.0 
-4.581113608325e+00 -1.003511027064e+02 0.0 
0.0 0.0 -4.018955038437e+01 
-5.448541881049e+01 -1.360098532990e+01 0.0 
-1.360098532990e+01 -1.008205601929e+02 0.0 
0.0 0.0 -4.253197922250e+01 
-2.522484178147e+01 -1.329181268834e+00 0.0 
-1.329181268834e+00 -4.860615872459e+01 0.0 
0.0 0.0 -1.833946686711e+01 
-3.309495538795e+01 -1.354924743235e+01 0.0 
-1.354924743235e+01 -3.457655697408e+01 0.0 
0.0 0.0 -1.684583165279e+01 
-1.372519247966e+02 2.119308618573e+00 0.0 
2.119308618573e+00 -3.128679385439e+02 0.0 
0.0 0.0 -1.346359590022e+02 
-1.459057293147e+02 -1.033708485545e+00 0.0 
-1.033708485545e+00 -3.419382398471e+02 0.0 
0.0 0.0 -1.459531907485e+02 
-2.368263370737e+01 -5.564429341794e+00 0.0 
-5.564429341794e+00 -2.838739889355e+01 0.0 
0.0 0.0 -1.237537025493e+01 
-1.414675882008e+02 8.064762454253e+00 0.0 
8.064762454253e+00 -3.240403080306e+02 0.0 
0.0 0.0 -1.392523688694e+02 
-1.007844907663e+02 2.192573816676e-01 0.0 
2.192573816676e-01 -2.201570952435e+02 0.0 
0.0 0.0 -9.588247580294e+01 
-1.351072800116e+02 8.883513276710e-02 0.0 
8.883513276710e-02 -3.179909660461e+02 0.0 
0.0 0.0 -1.355294738173e+02 
-1.372975168717e+02 -1.229669956521e+00 0.0 
-1.229669956521e+00 -3.222666678968e+02 0.0 
0.0 0.0 -1.374692554305e+02 
-6.892911846181e+01 -1.376393988833e+01 0.0 
-1.376393988833e+01 -1.545047200996e+02 0.0 
0.0 0.0 -6.487372431987e+01 
-1.379747540782e+02 4.241613739222e-01 0.0 
4.241613739222e-01 -3.228945371130e+02 0.0 
0.0 0.0 -1.378607873574e+02 
-9.711328204901e+01 2.013548594461e+00 0.0 
2.013548594461e+00 -2.110797052698e+02 0.0 
0.0 0.0 -9.205789619566e+01 
-1.178523533371e+02 6.664058016773e+00 0.0 
6.664058016773e+00 -2.961678458646e+02 0.0 
0.0 0.0 -1.239395871188e+02 
-1.566191242176e+02 -8.986626450378e-01 0.0 
-8.986626450378e-01 -3.683504500294e+02 0.0 
0.0 0.0 -1.570908722741e+02 
-4.658199223457e+01 -2.644680976801e+00 0.0 
-2.644680976801e+00 -9.641945297076e+01 0.0 
0.0 0.0 -3.932572556286e+01 
-1.530056597603e+02 1.003327266071e+00 0.0 
1.003327266071e+00 -3.625696781134e+02 0.0 
0.0 0.0 -1.542726013621e+02 
-1.255403730277e+02 2.127056792518e+00 0.0 
2.127056792518e+00 -2.823466986091e+02 0.0 
0.0 0.0 -1.219661214910e+02 
-5.521548849042e+01 -3.892751390690e+00 0.0 
-3.892751390690e+00 -1.087975729459e+02 0.0 
0.0 0.0 -4.447146860772e+01 
-6.133693777654e+01 -1.481524039176e+01 0.0 
-1.481524039176e+01 -1.207794741657e+02 0.0 
0.0 0.0 -5.171033725973e+01 
-1.118077711279e+02 -2.711160378906e+00 0.0 
-2.711160378906e+00 -2.319854135496e+02 0.0 
0.0 0.0 -9.892965800796e+01 
-1.124437982738e+02 9.093208999698e-01 0.0 
9.093208999698e-01 -2.495372064357e+02 0.0 
0.0 0.0 -1.081943014129e+02 
-8.025736242348e+01 -7.657432450738e+00 0.0 
-7.657432450738e+00 -1.579031169907e+02 0.0 
0.0 0.0 -6.567207673813e+01 
-1.296250287934e+02 1.982590201527e+00 0.0 
1.982590201527e+00 -2.931033750435e+02 0.0 
0.0 0.0 -1.264185211511e+02 
-1.175490468791e+02 2.107272353784e+00 0.0 
2.107272353784e+00 -2.619028502024e+02 0.0 
0.0 0.0 -1.134355691245e+02 
-1.078817751558e+02 -4.474533399280e+00 0.0 
-4.474533399280e+00 -2.271680745639e+02 0.0 
0.0 0.0 -9.617869084787e+01 
-1.320966355580e+02 6.391383537379e-02 0.0 
6.391383537379e-02 -3.031458728447e+02 0.0 
0.0 0.0 -1.293653523781e+02 
-1.345257262265e+02 1.815173417790e-01 0.0 
1.815173417790e-01 -3.146730477661e+02 0.0 
0.0 0.0 -1.342442070408e+02 
-1.248200951479e+02 3.737703653615e-01 0.0 
3.737703653615e-01 -2.816841949126e+02 0.0 
0.0 0.0 -1.215512870181e+02 
-3.638947976610e+01 -3.069071096863e+00 0.0 
-3.069071096863e+00 -8.421672301771e+01 0.0 
0.0 0.0 -3.285648441416e+01 
-1.048873431808e+02 -4.319055399838e+00 0.0 
-4.319055399838e+00 -2.152413996698e+02 0.0 
0.0 0.0 -9.118529270389e+01 
-1.385522371290e+02 5.940950429893e+00 0.0 
5.940950429893e+00 -3.338276709024e+02 0.0 
0.0 0.0 -1.413139724094e+02 
-1.291703144342e+02 2.560822756307e+00 0.0 
2.560822756307e+00 -2.914647817351e+02 0.0 
0.0 0.0 -1.257905288508e+02 
-9.753130680831e+01 -4.962355199389e+00 0.0 
-4.962355199389e+00 -1.946361697574e+02 0.0 
0.0 0.0 -8.198649746857e+01 
-1.210901919026e+02 -2.616693318596e+00 0.0 
-2.616693318596e+00 -2.750853348043e+02 0.0 
0.0 0.0 -1.163074323097e+02 
-1.491857445950e+02 1.268066054742e+00 0.0 
1.268066054742e+00 -3.549413316177e+02 0.0 
0.0 0.0 -1.508381228638e+02 
-1.209340169026e+02 6.734918928722e-01 0.0 
6.734918928722e-01 -2.710109818810e+02 0.0 
0.0 0.0 -1.171834996351e+02 
-2.869890664690e+01 -8.353664993360e+00 0.0 
-8.353664993360e+00 -1.219506751476e+02 0.0 
0.0 0.0 -4.750496784654e+01 
-1.959408093738e+01 7.429058362201e-01 0.0 
7.429058362201e-01 -4.639068228138e+01 0.0 
0.0 0.0 -1.777342430822e+01 
-4.519289505373e+01 3.242638888916e+00 0.0 
3.242638888916e+00 -1.404994598217e+02 0.0 
0.0 0.0 -5.382746075656e+01 
-1.420079354239e+02 -1.188940410062e+00 0.0 
-1.188940410062e+00 -3.336358793976e+02 0.0 
0.0 0.0 -1.422931444464e+02 
-1.166248015671e+02 8.162215591336e-01 0.0 
8.162215591336e-01 -2.602574196365e+02 0.0 
0.0 0.0 -1.126646663611e+02 
-1.191836335563e+02 -4.232159318465e-01 0.0 
-4.232159318465e-01 -2.526352719257e+02 0.0 
0.0 0.0 -1.079353445492e+02 
-1.046222493483e+02 6.837426901599e-01 0.0 
6.837426901599e-01 -2.297657312766e+02 0.0 
0.0 0.0 -9.991639418746e+01 
-1.409560963095e+02 2.611795936633e+00 0.0 
2.611795936633e+00 -3.412414072081e+02 0.0 
0.0 0.0 -1.442592510553e+02 
-1.113229976546e+02 -3.734099671666e+00 0.0 
-3.734099671666e+00 -2.352752459420e+02 0.0 
0.0 0.0 -9.998325893665e+01 
-1.334133079905e+02 -1.454841354747e+00 0.0 
-1.454841354747e+00 -3.139946951285e+02 0.0 
0.0 0.0 -1.338224009357e+02 
-4.630276992727e+01 -1.743074678009e+00 0.0 
-1.743074678009e+00 -1.013582425811e+02 0.0 
0.0 0.0 -4.101061814838e+01 
-1.523473151985e+02 -9.288889072193e-01 0.0 
-9.288889072193e-01 -3.600998834181e+02 0.0 
0.0 0.0 -1.533341595850e+02 
-1.105214031123e+02 -3.103849214304e+00 0.0 
-3.103849214304e+00 -2.278287782525e+02 0.0 
0.0 0.0 -9.650251116873e+01 
-5.176807625691e+01 -1.022898731964e+00 0.0 
-1.022898731964e+00 -1.096609023152e+02 0.0 
0.0 0.0 -4.504760479236e+01 
-1.068879801073e+02 -2.624595284577e+00 0.0 
-2.624595284577e+00 -2.159485629475e+02 0.0 
0.0 0.0 -9.156622369971e+01 
-8.488897242998e+01 -6.460791616644e+00 0.0 
-6.460791616644e+00 -1.661539460885e+02 0.0 
0.0 0.0 -6.874242097120e+01 
-6.499352199325e+01 -7.338553062480e+00 0.0 
-7.338553062480e+00 -1.292387178780e+02 0.0 
0.0 0.0 -5.354503371004e+01 
-1.177119882117e+02 -2.265307920233e+00 0.0 
-2.265307920233e+00 -2.517439531127e+02 0.0 
0.0 0.0 -1.074186369788e+02 
-8.867644093480e+00 -1.438020920485e-01 0.0 
-1.438020920485e-01 -9.484233019317e+00 0.0 
0.0 0.0 -3.874019944699e+00 
-8.339733694100e+00 -1.040993845029e-01 0.0 
-1.040993845029e-01 -9.971787775435e+00 0.0 
0.0 0.0 -4.497649087734e+00 
-1.274344739746e+02 -9.190721465081e-01 0.0 
-9.190721465081e-01 -2.868638467307e+02 0.0 
0.0 0.0 -1.221907460804e+02 
-4.045416900981e+01 -2.310660245975e+00 0.0 
-2.310660245975e+00 -9.304673306001e+01 0.0 
0.0 0.0 -3.696373077358e+01 
-1.270450421731e+02 -1.202610647097e+00 0.0 
-1.202610647097e+00 -2.905307134477e+02 0.0 
0.0 0.0 -1.234746545607e+02 
-1.241571184874e+02 -1.876316596116e+00 0.0 
-1.876316596116e+00 -2.827661162070e+02 0.0 
0.0 0.0 -1.199115229038e+02 
-8.835436248157e+01 -8.070691455185e+00 0.0 
-8.070691455185e+00 -1.831093941094e+02 0.0 
0.0 0.0 -7.667529910388e+01 
-5.998917466114e+01 -1.520008007736e+01 0.0 
-1.520008007736e+01 -1.314809916089e+02 0.0 
0.0 0.0 -5.288195688730e+01 
-1.364012380269e+02 3.453893817410e+00 0.0 
3.453893817410e+00 -3.098357918974e+02 0.0 
0.0 0.0 -1.334711089773e+02 
-3.609211039412e+01 2.501504631130e+01 0.0 
2.501504631130e+01 -9.735372358767e+01 0.0 
0.0 0.0 -3.970566332759e+01 
-8.938648415986e+01 -5.367920286588e+00 0.0 
-5.367920286588e+00 -1.746356723016e+02 0.0 
0.0 0.0 -7.282480455313e+01 
-1.455296498888e+02 3.371114159736e+00 0.0 
3.371114159736e+00 -3.508788862963e+02 0.0 
0.0 0.0 -1.485225608556e+02 
-3.566787169012e+01 -3.660791766939e+00 0.0 
-3.660791766939e+00 -7.940456664106e+01 0.0 
0.0 0.0 -3.122587811484e+01 
-1.093648078004e+02 2.259754420006e+00 0.0 
2.259754420006e+00 -2.409631702501e+02 0.0 
0.0 0.0 -1.046983934151e+02 
-1.013730824912e+02 2.110050012600e+00 0.0 
2.110050012600e+00 -2.207691015994e+02 0.0 
0.0 0.0 -9.624265522720e+01 
-3.776766087697e+01 -5.648971088937e+00 0.0 
-5.648971088937e+00 -7.812103819646e+01 0.0 
0.0 0.0 -3.094161641169e+01 
-1.449351922145e+02 1.340948822745e+00 0.0 
1.340948822745e+00 -3.468410343416e+02 0.0 
0.0 0.0 -1.471328679668e+02 
-1.247566698597e+02 3.392059787679e+00 0.0 
3.392059787679e+00 -2.792100936384e+02 0.0 
0.0 0.0 -1.207900290494e+02 
-4.531063210042e+01 -5.154507595321e+00 0.0 
-5.154507595321e+00 -9.207693078996e+01 0.0 
0.0 0.0 -3.673145729349e+01 
-1.398655846776e+02 3.836105533101e+00 0.0 
3.836105533101e+00 -3.187698979637e+02 0.0 
0.0 0.0 -1.371906447924e+02 
-1.390265449322e+02 2.288129152085e+00 0.0 
2.288129152085e+00 -3.180684634901e+02 0.0 
0.0 0.0 -1.367285025267e+02 
-4.960567888967e+01 -4.016599098431e+00 0.0 
-4.016599098431e+00 -1.047707457843e+02 0.0 
0.0 0.0 -4.128937496151e+01 
-6.762403999424e+01 1.512564506437e+01 0.0 
1.512564506437e+01 -1.274444772009e+02 0.0 
0.0 0.0 -5.528948051119e+01 
-5.308839970923e+01 -6.869844771711e+00 0.0 
-6.869844771711e+00 -1.080010812801e+02 0.0 
0.0 0.0 -4.394274584579e+01 
-1.321586814405e+02 -2.210403947857e-01 0.0 
-2.210403947857e-01 -3.064298641472e+02 0.0 
0.0 0.0 -1.305988416350e+02 
-1.146084863748e+02 -2.988559031602e+00 0.0 
-2.988559031602e+00 -2.435553743030e+02 0.0 
0.0 0.0 -1.037495807345e+02 
-1.410600758828e+02 5.697706953104e+00 0.0 
5.697706953104e+00 -3.236398178578e+02 0.0 
0.0 0.0 -1.390099681222e+02 
-1.356943896334e+02 1.713324774977e+00 0.0 
1.713324774977e+00 -3.092425153937e+02 0.0 
0.0 0.0 -1.330810715081e+02 
-1.297266898482e+02 -6.465333891732e-01 0.0 
-6.465333891732e-01 -2.984394891805e+02 0.0 
0.0 0.0 -1.270436384340e+02 
-1.263265780376e+02 -1.912539243021e+00 0.0 
-1.912539243021e+00 -2.976985101119e+02 0.0 
0.0 0.0 -1.266078905865e+02 
-4.531581896734e+01 -8.112974726118e+00 0.0 
-8.112974726118e+00 -8.746752215522e+01 0.0 
0.0 0.0 -3.630319394458e+01 
-1.297389869574e+02 -1.680938975057e+00 0.0 
-1.680938975057e+00 -3.058210340799e+02 0.0 
0.0 0.0 -1.302680063112e+02 
-1.240229973836e+02 1.638120336391e+00 0.0 
1.638120336391e+00 -2.786046987060e+02 0.0 
0.0 0.0 -1.203883088269e+02 
-1.164670483735e+02 -1.327238839907e+00 0.0 
-1.327238839907e+00 -2.442447635633e+02 0.0 
0.0 0.0 -1.041485434928e+02 
-1.172897094259e+02 2.535691866145e+00 0.0 
2.535691866145e+00 -2.608267861515e+02 0.0 
0.0 0.0 -1.130349486732e+02 
-1.287837179354e+02 3.206734142426e+00 0.0 
3.206734142426e+00 -2.898957994334e+02 0.0 
0.0 0.0 -1.252038552106e+02 
-8.910736250258e+01 9.759417048228e+00 0.0 
9.759417048228e+00 -2.278107068363e+02 0.0 
0.0 0.0 -9.786343218801e+01 
-1.321194626709e+02 1.263046038227e+00 0.0 
1.263046038227e+00 -3.000522731337e+02 0.0 
0.0 0.0 -1.292515207414e+02 
-1.015441269377e+02 -4.036479447057e+00 0.0 
-4.036479447057e+00 -2.041780809880e+02 0.0 
0.0 0.0 -8.653994760089e+01 
-1.136121971706e+02 -2.162084356868e+00 0.0 
-2.162084356868e+00 -2.359435263185e+02 0.0 
0.0 0.0 -1.003358443497e+02 
-7.993880280874e+01 -5.913114037329e+00 0.0 
-5.913114037329e+00 -1.540589887679e+02 0.0 
0.0 0.0 -6.339975722447e+01 
-8.185537601319e+01 -1.150008228270e+01 0.0 
-1.150008228270e+01 -1.682763133127e+02 0.0 
0.0 0.0 -7.229629725900e+01 
-1.203284178746e+02 1.201077060358e+00 0.0 
1.201077060358e+00 -2.694032276467e+02 0.0 
0.0 0.0 -1.165194936564e+02 
-1.038736951733e+02 -7.446173837046e+00 0.0 
-7.446173837046e+00 -2.337288143437e+02 0.0 
0.0 0.0 -1.010524019371e+02 
-5.769946062726e+01 -5.701986629704e+00 0.0 
-5.701986629704e+00 -1.168549154999e+02 0.0 
0.0 0.0 -4.727443976455e+01 
-2.710502617965e+01 -2.056772088492e+00 0.0 
-2.056772088492e+00 -5.818338772057e+01 0.0 
0.0 0.0 -2.216318846551e+01 
-1.210641657664e+02 2.938718876462e+00 0.0 
2.938718876462e+00 -2.700066338911e+02 0.0 
0.0 0.0 -1.169212398972e+02 
-5.982572127205e+01 -8.348663784161e+00 0.0 
-8.348663784161e+00 -1.163030200545e+02 0.0 
0.0 0.0 -4.817323256969e+01 
-1.528774477765e+02 -3.571932660200e-01 0.0 
-3.571932660200e-01 -3.623200394823e+02 0.0 
0.0 0.0 -1.541592461776e+02 
-1.244770843823e+02 1.040185392104e+00 0.0 
1.040185392104e+00 -2.801331377841e+02 0.0 
0.0 0.0 -1.209830666499e+02 
-1.340146152442e+02 -1.502658980570e+00 0.0 
-1.502658980570e+00 -3.171819388894e+02 0.0 
0.0 0.0 -1.349589662401e+02 
-1.598515776126e+02 4.640851843226e+00 0.0 
4.640851843226e+00 -3.778076020268e+02 0.0 
0.0 0.0 -1.608977538918e+02 
-9.877152014778e+01 -2.972495550455e+00 0.0 
-2.972495550455e+00 -1.955645806300e+02 0.0 
0.0 0.0 -8.250723049199e+01 
-5.309960918982e+01 -6.952908836553e+00 0.0 
-6.952908836553e+00 -1.037596277824e+02 0.0 
0.0 0.0 -4.252798018954e+01 
-3.465499519646e+01 -6.337409882727e+00 0.0 
-6.337409882727e+00 -6.613259793175e+01 0.0 
0.0 0.0 -2.752717312145e+01 
-1.288977154927e+02 -6.979027976773e-01 0.0 
-6.979027976773e-01 -3.021112912900e+02 0.0 
0.0 0.0 -1.282824364625e+02 
-1.129760228339e+02 4.328902791765e-01 0.0 
4.328902791765e-01 -2.512194970926e+02 0.0 
0.0 0.0 -1.088586559779e+02 
-2.334190482695e+01 -3.421298825048e+00 0.0 
-3.421298825048e+00 -4.700162509919e+01 0.0 
0.0 0.0 -1.868729505962e+01 
-8.100370265836e+01 -5.597080661269e+00 0.0 
-5.597080661269e+00 -1.587330852136e+02 0.0 
0.0 0.0 -6.599348301130e+01 
-3.676283039047e+01 -4.510589367261e-01 0.0 
-4.510589367261e-01 -8.963137880149e+01 0.0 
0.0 0.0 -3.609328179569e+01 
-1.132442657142e+02 2.630095891765e+00 0.0 
2.630095891765e+00 -2.501630324874e+02 0.0 
0.0 0.0 -1.086221894605e+02 
-8.559902288997e+01 -4.343904974979e+00 0.0 
-4.343904974979e+00 -1.670881603766e+02 0.0 
0.0 0.0 -6.907415232565e+01 
-1.193295898464e+02 -2.548315587116e+00 0.0 
-2.548315587116e+00 -2.818202680960e+02 0.0 
0.0 0.0 -1.194170409481e+02 
-8.002781777520e+01 -3.404529988364e+00 0.0 
-3.404529988364e+00 -1.549849526899e+02 0.0 
0.0 0.0 -6.425343748020e+01 
-1.332151472733e+02 2.382100426666e+00 0.0 
2.382100426666e+00 -3.022980789686e+02 0.0 
0.0 0.0 -1.302539678726e+02 
-7.036154454533e+01 -8.266579902143e+00 0.0 
-8.266579902143e+00 -1.370644887726e+02 0.0 
0.0 0.0 -5.697108585503e+01 
-1.277135053223e+02 -1.839105953179e-01 0.0 
-1.839105953179e-01 -3.056528615509e+02 0.0 
0.0 0.0 -1.295679816974e+02 
-5.363380154068e+01 -1.259977148068e+01 0.0 
-1.259977148068e+01 -9.991531522276e+01 0.0 
0.0 0.0 -4.212712993810e+01 
-1.258668205676e+02 -1.205255782863e+00 0.0 
-1.205255782863e+00 -2.943170137565e+02 0.0 
0.0 0.0 -1.247262173979e+02 
-1.102628035589e+02 -1.831607504761e+00 0.0 
-1.831607504761e+00 -2.246878705330e+02 0.0 
0.0 0.0 -9.567160530169e+01 
-1.299314913245e+02 -1.696481815072e+00 0.0 
-1.696481815072e+00 -3.092014709678e+02 0.0 
0.0 0.0 -1.313398886877e+02 
-6.635224935019e+01 -1.105946094189e+00 0.0 
-1.105946094189e+00 -1.799053016590e+02 0.0 
0.0 0.0 -7.089830876888e+01 
-4.120307390544e+01 -3.337836855473e+00 0.0 
-3.337836855473e+00 -8.851615966161e+01 0.0 
0.0 0.0 -3.550304740358e+01 
-1.056822148500e+02 1.916175372379e+00 0.0 
1.916175372379e+00 -2.317926112298e+02 0.0 
0.0 0.0 -1.008424478239e+02 
-1.134090823305e+02 1.946094327036e+00 0.0 
1.946094327036e+00 -2.863013597634e+02 0.0 
0.0 0.0 -1.225707867257e+02 
-9.077372261417e+01 1.381904816593e+01 0.0 
1.381904816593e+01 -1.907460760635e+02 0.0 
0.0 0.0 -8.248179372204e+01 
-1.134728461211e+02 2.200693666107e+00 0.0 
2.200693666107e+00 -2.515149022602e+02 0.0 
0.0 0.0 -1.090963245144e+02 
-5.980533661008e+01 -1.555489957048e+01 0.0 
-1.555489957048e+01 -1.164507739000e+02 0.0 
0.0 0.0 -4.953327469306e+01 
-1.159722839751e+02 1.992355199197e+00 0.0 
1.992355199197e+00 -2.574730832364e+02 0.0 
0.0 0.0 -1.116336101635e+02 
-3.125078434293e+01 -9.798767148359e-01 0.0 
-9.798767148359e-01 -8.073331407180e+01 0.0 
0.0 0.0 -3.189133971769e+01 
-1.445512649365e+02 8.319473474383e-01 0.0 
8.319473474383e-01 -3.439242335691e+02 0.0 
0.0 0.0 -1.461426495517e+02 
-1.175722834336e+02 3.310857239600e+00 0.0 
3.310857239600e+00 -2.958551357182e+02 0.0 
0.0 0.0 -1.254720748795e+02 
-1.234489920312e+02 7.170914773633e+00 0.0 
7.170914773633e+00 -3.055906977963e+02 0.0 
0.0 0.0 -1.283119069482e+02 
-1.439663851614e+02 3.699022980902e+00 0.0 
3.699022980902e+00 -3.300987618972e+02 0.0 
0.0 0.0 -1.418195441176e+02 
-1.104090110877e+02 -5.248701233385e+00 0.0 
-5.248701233385e+00 -2.527698817910e+02 0.0 
0.0 0.0 -1.085195793484e+02 
-4.112186423738e+01 -5.818276138839e+00 0.0 
-5.818276138839e+00 -8.344495105009e+01 0.0 
0.0 0.0 -3.368311322657e+01 
-1.193386453253e+02 -2.430967194353e+00 0.0 
-2.430967194353e+00 -2.790830137764e+02 0.0 
0.0 0.0 -1.175777162799e+02 
-1.484611909669e+02 -2.166491767715e-01 0.0 
-2.166491767715e-01 -3.543050386471e+02 0.0 
0.0 0.0 -1.504298688842e+02 
-6.987558350171e+01 -1.656831685065e+01 0.0 
-1.656831685065e+01 -1.527347236997e+02 0.0 
0.0 0.0 -6.523983572237e+01 
-1.318526152332e+02 -2.529545592780e-01 0.0 
-2.529545592780e-01 -3.100107245529e+02 0.0 
0.0 0.0 -1.318904988721e+02 
-1.251001481848e+02 2.778684522895e+00 0.0 
2.778684522895e+00 -2.806891600312e+02 0.0 
0.0 0.0 -1.213367924648e+02 
-5.647468122595e+01 -1.568764397930e+01 0.0 
-1.568764397930e+01 -1.281775998076e+02 0.0 
0.0 0.0 -4.971023334134e+01 
-1.226967535775e+02 -1.774514795573e+00 0.0 
-1.774514795573e+00 -2.866471915258e+02 0.0 
0.0 0.0 -1.211791758928e+02 
-1.051239135814e+02 2.933197541539e+00 0.0 
2.933197541539e+00 -2.288126614574e+02 0.0 
0.0 0.0 -9.978097251166e+01 
-6.043849172657e+01 -2.257493603207e+00 0.0 
-2.257493603207e+00 -1.220322663173e+02 0.0 
0.0 0.0 -5.017649014594e+01 
-7.624298999376e+01 -7.110248888138e+00 0.0 
-7.110248888138e+00 -1.503807241913e+02 0.0 
0.0 0.0 -6.291143137125e+01 
-9.993713980432e+01 1.080442055875e+01 0.0 
1.080442055875e+01 -2.289982938763e+02 0.0 
0.0 0.0 -9.624873025792e+01 
-1.259422297412e+02 -1.881805731373e+00 0.0 
-1.881805731373e+00 -3.012860840390e+02 0.0 
0.0 0.0 -1.277684941341e+02 
-8.414768414457e+01 1.156263628188e+01 0.0 
1.156263628188e+01 -1.688695770601e+02 0.0 
0.0 0.0 -7.129249545535e+01 
-9.610287349309e+01 1.124757644741e+01 0.0 
1.124757644741e+01 -2.200222877949e+02 0.0 
0.0 0.0 -9.303527325379e+01 
-1.199937458862e+02 1.810159340730e+00 0.0 
1.810159340730e+00 -2.680029275459e+02 0.0 
0.0 0.0 -1.159990020296e+02 
-1.086942354651e+02 5.034351961621e-01 0.0 
5.034351961621e-01 -2.403860649254e+02 0.0 
0.0 0.0 -1.043240901172e+02 
-1.081683275220e+02 1.646494302962e+00 0.0 
1.646494302962e+00 -2.376361420436e+02 0.0 
0.0 0.0 -1.033413408697e+02 
-1.084226709131e+02 -3.427276873195e+00 0.0 
-3.427276873195e+00 -2.238768805655e+02 0.0 
0.0 0.0 -9.521457666707e+01 
-1.407108933623e+02 1.538150653819e+00 0.0 
1.538150653819e+00 -3.389003196195e+02 0.0 
0.0 0.0 -1.434833638945e+02 
-1.157618092199e+02 -3.143662605168e+00 0.0 
-3.143662605168e+00 -2.716260115482e+02 0.0 
0.0 0.0 -1.152588744873e+02 
-1.051813877292e+02 2.331707086851e+00 0.0 
2.331707086851e+00 -2.302734700051e+02 0.0 
0.0 0.0 -1.002364573203e+02 
-1.456692501279e+02 8.762073719649e+00 0.0 
8.762073719649e+00 -3.352165801283e+02 0.0 
0.0 0.0 -1.438657490769e+02 
-1.289387738888e+02 7.556095505912e+00 0.0 
7.556095505912e+00 -3.151039889056e+02 0.0 
0.0 0.0 -1.328128288383e+02 
-1.219940662204e+02 -2.054775305775e+00 0.0 
-2.054775305775e+00 -2.934125790492e+02 0.0 
0.0 0.0 -1.242219935809e+02 
-1.280829638187e+02 1.466214898983e+00 0.0 
1.466214898983e+00 -2.893062014160e+02 0.0 
0.0 0.0 -1.248167495704e+02 
-8.664558634077e+01 -9.440050107582e+00 0.0 
-9.440050107582e+00 -1.756315809420e+02 0.0 
0.0 0.0 -7.519273768078e+01 
-8.185913721616e+01 -8.333380318295e+00 0.0 
-8.333380318295e+00 -1.629632185961e+02 0.0 
0.0 0.0 -6.905761620339e+01 
-4.036997193416e+01 -5.545240741261e+00 0.0 
-5.545240741261e+00 -8.687603076319e+01 0.0 
0.0 0.0 -3.420854745506e+01 
-1.204366896343e+02 -8.989130486966e-01 0.0 
-8.989130486966e-01 -2.902283405951e+02 0.0 
0.0 0.0 -1.223762262771e+02 
-8.655894051072e+01 -6.660484879101e+00 0.0 
-6.660484879101e+00 -1.710773784188e+02 0.0 
0.0 0.0 -7.205042438136e+01 
-1.170229704970e+02 3.114037154295e+00 0.0 
3.114037154295e+00 -2.593135405807e+02 0.0 
0.0 0.0 -1.125009533233e+02 
-1.129974377801e+02 3.295165161120e+00 0.0 
3.295165161120e+00 -2.487065398506e+02 0.0 
0.0 0.0 -1.081111932892e+02 
-8.877988730891e+01 5.743723330944e+00 0.0 
5.743723330944e+00 -2.331156613522e+02 0.0 
0.0 0.0 -9.993768453057e+01 
-7.056471954756e+01 -1.047322480344e+01 0.0 
-1.047322480344e+01 -1.415521250326e+02 0.0 
0.0 0.0 -5.944341645476e+01 
-6.557026224222e+01 1.118756282423e+01 0.0 
1.118756282423e+01 -1.734934325892e+02 0.0 
0.0 0.0 -6.863549176843e+01 
-7.540653487880e+01 -9.024442930177e+00 0.0 
-9.024442930177e+00 -1.496958391473e+02 0.0 
0.0 0.0 -6.254638226454e+01 
-7.976489452916e+01 -9.455869629503e+00 0.0 
-9.455869629503e+00 -1.623383011001e+02 0.0 
0.0 0.0 -6.810616695214e+01 
-4.881328546971e+01 -7.711155837926e+00 0.0 
-7.711155837926e+00 -9.561809596814e+01 0.0 
0.0 0.0 -3.932462743599e+01 
-1.363544806754e+02 1.800462413466e+00 0.0 
1.800462413466e+00 -3.308089744451e+02 0.0 
0.0 0.0 -1.397490365362e+02 
-8.971801373078e+01 -8.255715063890e+00 0.0 
-8.255715063890e+00 -2.004594017604e+02 0.0 
0.0 0.0 -8.492091021517e+01 
-1.327896103474e+02 2.996635830258e+00 0.0 
2.996635830258e+00 -3.006291059901e+02 0.0 
0.0 0.0 -1.296256149013e+02 
-9.224665551746e+01 -7.319486092065e+00 0.0 
-7.319486092065e+00 -2.124426723695e+02 0.0 
0.0 0.0 -9.052613178811e+01 
-1.138754781240e+02 -2.155788290519e+00 0.0 
-2.155788290519e+00 -2.777499175754e+02 0.0 
0.0 0.0 -1.170876187098e+02 
-1.037126068444e+02 -4.708350728165e+00 0.0 
-4.708350728165e+00 -2.394355514263e+02 0.0 
0.0 0.0 -1.012263407945e+02 
-9.170345301890e+01 1.173478205133e+01 0.0 
1.173478205133e+01 -2.195028598598e+02 0.0 
0.0 0.0 -9.352411840989e+01 
-4.483065861418e+01 -4.967215862986e+00 0.0 
-4.967215862986e+00 -9.589151377104e+01 0.0 
0.0 0.0 -3.766415772650e+01 
-1.440031476937e+02 4.753098887502e-02 0.0 
4.753098887502e-02 -3.461054831669e+02 0.0 
0.0 0.0 -1.466325892582e+02 
-1.499883859786e+02 2.069707667631e+00 0.0 
2.069707667631e+00 -3.587219698125e+02 0.0 
0.0 0.0 -1.522131067373e+02 
-1.169491497668e+02 8.855467652977e+00 0.0 
8.855467652977e+00 -2.760851529482e+02 0.0 
0.0 0.0 -1.175102908145e+02 
-8.354229729152e+01 -9.428129081588e+00 0.0 
-9.428129081588e+00 -1.751183649315e+02 0.0 
0.0 0.0 -7.363290080566e+01 
-1.089112768822e+02 -3.253416012927e+00 0.0 
-3.253416012927e+00 -2.586430309154e+02 0.0 
0.0 0.0 -1.087481510073e+02 
-1.162261341885e+02 1.322343759475e+00 0.0 
1.322343759475e+00 -2.586770506274e+02 0.0 
0.0 0.0 -1.120709554448e+02 
-9.133326064255e+01 -7.560662552943e+00 0.0 
-7.560662552943e+00 -1.836430124071e+02 0.0 
0.0 0.0 -7.807759910199e+01 
-8.408589919372e+01 1.369680718227e+01 0.0 
1.369680718227e+01 -1.815700456757e+02 0.0 
0.0 0.0 -7.720592077947e+01 
-6.990264035396e+01 -5.785486199968e+00 0.0 
-5.785486199968e+00 -1.379586754457e+02 0.0 
0.0 0.0 -5.676037127886e+01 
-6.445015740277e+01 -1.635440450711e+01 0.0 
-1.635440450711e+01 -1.333566279032e+02 0.0 
0.0 0.0 -5.649818458299e+01 
-9.060288135882e+01 -1.021148344575e+01 0.0 
-1.021148344575e+01 -1.886173711942e+02 0.0 
0.0 0.0 -8.129650711160e+01 
-6.455335140848e+01 -7.266014365519e+00 0.0 
-7.266014365519e+00 -1.245610834599e+02 0.0 
0.0 0.0 -5.138895424590e+01 
-5.485861167557e+01 -3.047479339756e+00 0.0 
-3.047479339756e+00 -1.136543105890e+02 0.0 
0.0 0.0 -4.586257745996e+01 
-1.084854815147e+02 -6.174983172112e+00 0.0 
-6.174983172112e+00 -2.408679150174e+02 0.0 
0.0 0.0 -1.032919882377e+02 
-1.178983227895e+02 -2.148357179333e+00 0.0 
-2.148357179333e+00 -2.855497680531e+02 0.0 
0.0 0.0 -1.206344272528e+02 
-1.372978343300e+02 7.943574730007e+00 0.0 
7.943574730007e+00 -3.226758809556e+02 0.0 
0.0 0.0 -1.375921145857e+02 
-1.183089900931e+01 2.002898401378e-01 0.0 
2.002898401378e-01 -8.489896025517e+00 0.0 
0.0 0.0 -4.906663886715e+00 
-8.308605815361e+01 -7.483149567097e+00 0.0 
-7.483149567097e+00 -2.091291545274e+02 0.0 
0.0 0.0 -8.904924746513e+01 
-8.732670920635e+01 -8.237421282982e+00 0.0 
-8.237421282982e+00 -2.053166674093e+02 0.0 
0.0 0.0 -8.752431761937e+01 
-8.684541665750e+01 -8.960120966651e+00 0.0 
-8.960120966651e+00 -1.879387745244e+02 0.0 
0.0 0.0 -7.924623682686e+01 
-1.121812709958e+02 1.483148266381e+00 0.0 
1.483148266381e+00 -2.480617133385e+02 0.0 
0.0 0.0 -1.076728953003e+02 
-9.712125523092e+01 -6.406664967960e+00 0.0 
-6.406664967960e+00 -2.199957559250e+02 0.0 
0.0 0.0 -9.335430355441e+01 
-7.520420471261e+01 -6.989122768377e+00 0.0 
-6.989122768377e+00 -1.454723259665e+02 0.0 
0.0 0.0 -6.015372641217e+01 
-9.378605415960e+01 -1.035573197742e+01 0.0 
-1.035573197742e+01 -2.016611561723e+02 0.0 
0.0 0.0 -8.722995817706e+01 
-1.284735570246e+02 8.448546676846e-01 0.0 
8.448546676846e-01 -2.908833460496e+02 0.0 
0.0 0.0 -1.254070709222e+02 
-7.476591857528e+01 -4.527225300164e+00 0.0 
-4.527225300164e+00 -1.464896939429e+02 0.0 
0.0 0.0 -5.994837811786e+01 
-2.489119614652e+01 -3.903222675765e+00 0.0 
-3.903222675765e+00 -5.450128336440e+01 0.0 
0.0 0.0 -2.130594365016e+01 
-3.733736512130e+01 -5.925295081856e+00 0.0 
-5.925295081856e+00 -7.527908598962e+01 0.0 
0.0 0.0 -3.049633492369e+01 
-6.262290390173e+01 -1.478167045322e+01 0.0 
-1.478167045322e+01 -1.351792902755e+02 0.0 
0.0 0.0 -5.614247760356e+01 
-7.475671506722e+01 -1.100882288448e+01 0.0 
-1.100882288448e+01 -1.545204208274e+02 0.0 
0.0 0.0 -6.504162534334e+01 
-8.948088087179e+01 -6.748839854041e+00 0.0 
-6.748839854041e+00 -2.169292778353e+02 0.0 
0.0 0.0 -9.296241688129e+01 
-9.633130724595e+01 -9.890761978223e+00 0.0 
-9.890761978223e+00 -2.143470281187e+02 0.0 
0.0 0.0 -9.290137075549e+01 
-5.283963414383e+01 -1.320144456716e+01 0.0 
-1.320144456716e+01 -9.500319000616e+01 0.0 
0.0 0.0 -3.954182134832e+01 
-3.101139134554e+01 -3.232438166518e+00 0.0 
-3.232438166518e+00 -7.499902415831e+01 0.0 
0.0 0.0 -2.868150210936e+01 
-1.083967310328e+02 4.280378865067e+00 0.0 
4.280378865067e+00 -2.364380962143e+02 0.0 
0.0 0.0 -1.030504481741e+02 
-6.280262025568e+01 -4.422122615215e+00 0.0 
-4.422122615215e+00 -1.258101950500e+02 0.0 
0.0 0.0 -5.061334948878e+01 
-1.306683933029e+02 -2.749321249150e-01 0.0 
-2.749321249150e-01 -3.192552044934e+02 0.0 
0.0 0.0 -1.345770793389e+02 
-1.327504207673e+02 7.958114632453e+00 0.0 
7.958114632453e+00 -3.136495266699e+02 0.0 
0.0 0.0 -1.335199842312e+02 
-1.116068559148e+02 7.494803748477e+00 0.0 
7.494803748477e+00 -2.455800815483e+02 0.0 
0.0 0.0 -1.067560812390e+02 
-1.349178458056e+02 3.133205377895e+00 0.0 
3.133205377895e+00 -3.066107229710e+02 0.0 
0.0 0.0 -1.320585706330e+02 
-1.418433517461e+02 7.866736987076e+00 0.0 
7.866736987076e+00 -3.317683198431e+02 0.0 
0.0 0.0 -1.416835014768e+02 
-8.616734000377e+01 8.032679811719e+00 0.0 
8.032679811719e+00 -2.236712309794e+02 0.0 
0.0 0.0 -9.492604312866e+01 
-1.247406366675e+02 8.311463625415e+00 0.0 
8.311463625415e+00 -2.948285866296e+02 0.0 
0.0 0.0 -1.254707669891e+02 
-5.914188020153e+01 -1.666745722879e+01 0.0 
-1.666745722879e+01 -1.138741939569e+02 0.0 
0.0 0.0 -4.728917697095e+01 
-9.875221557496e+01 -8.385346583185e+00 0.0 
-8.385346583185e+00 -2.089083556443e+02 0.0 
0.0 0.0 -8.987399768905e+01 
-8.679849302005e+01 1.454903467067e+01 0.0 
1.454903467067e+01 -2.082376723588e+02 0.0 
0.0 0.0 -8.991794002892e+01 
-5.376456576472e+01 -1.197544528844e+01 0.0 
-1.197544528844e+01 -1.414223169968e+02 0.0 
0.0 0.0 -5.315348603816e+01 
-5.256494936578e+01 -1.596873037703e+01 0.0 
-1.596873037703e+01 -9.209683461285e+01 0.0 
0.0 0.0 -3.772372136051e+01 
-8.460134822300e+01 -8.002916853753e+00 0.0 
-8.002916853753e+00 -1.705084710562e+02 0.0 
0.0 0.0 -7.115605049467e+01 
-9.048952207163e+01 -1.161845918212e+01 0.0 
-1.161845918212e+01 -2.073746823563e+02 0.0 
0.0 0.0 -8.984797772023e+01 
-9.235857363961e+01 -1.011750565061e+01 0.0 
-1.011750565061e+01 -2.196044826943e+02 0.0 
0.0 0.0 -9.510884466713e+01 
-6.944722637304e+01 -6.082460116482e+00 0.0 
-6.082460116482e+00 -1.330871813754e+02 0.0 
0.0 0.0 -5.464597326468e+01 
-9.940872252011e+01 -5.226747793437e+00 0.0 
-5.226747793437e+00 -2.317304983811e+02 0.0 
0.0 0.0 -9.883241098537e+01 
-8.667256192772e+01 -1.049365872765e+01 0.0 
-1.049365872765e+01 -2.142584639555e+02 0.0 
0.0 0.0 -9.219474509022e+01 
-8.555811070293e+01 -4.997331527070e+00 0.0 
-4.997331527070e+00 -2.196289219144e+02 0.0 
0.0 0.0 -9.414509707811e+01 
-7.709965867256e+01 -1.036447347160e+01 0.0 
-1.036447347160e+01 -1.550159608483e+02 0.0 
0.0 0.0 -6.611611214491e+01 
-1.174568749061e+02 5.097093842454e+00 0.0 
5.097093842454e+00 -2.961847968312e+02 0.0 
0.0 0.0 -1.250170209160e+02 
-1.207431134633e+02 3.593836333094e+00 0.0 
3.593836333094e+00 -2.686167242825e+02 0.0 
0.0 0.0 -1.164079513237e+02 
-8.232418212863e+01 -3.301470111953e+00 0.0 
-3.301470111953e+00 -2.147405296864e+02 0.0 
0.0 0.0 -9.095658335920e+01 
-1.397748696599e+02 2.556029585983e-01 0.0 
2.556029585983e-01 -3.382253790005e+02 0.0 
0.0 0.0 -1.430000745981e+02 
-6.182585179397e+01 -1.708430543798e+01 0.0 
-1.708430543798e+01 -1.309437533180e+02 0.0 
0.0 0.0 -5.362816664899e+01 
-1.498547112629e+02 1.723839733887e+00 0.0 
1.723839733887e+00 -3.601349643886e+02 0.0 
0.0 0.0 -1.525969026955e+02 
-9.450315021538e+01 -6.015019650396e+00 0.0 
-6.015019650396e+00 -2.240979261405e+02 0.0 
0.0 0.0 -9.601530438600e+01 
-1.469216755204e+02 7.645792609699e+00 0.0 
7.645792609699e+00 -3.426082991290e+02 0.0 
0.0 0.0 -1.464589923948e+02 
-1.122286919170e+02 9.986407248161e+00 0.0 
9.986407248161e+00 -2.554207129136e+02 0.0 
0.0 0.0 -1.098948214492e+02 
-5.759965328514e+01 -1.531500450337e+01 0.0 
-1.531500450337e+01 -1.161872171744e+02 0.0 
0.0 0.0 -4.750230887427e+01 
-1.147217245055e+02 8.078696391803e+00 0.0 
8.078696391803e+00 -2.550180998898e+02 0.0 
0.0 0.0 -1.105219473186e+02 
-1.381438422896e+02 4.395159348129e+00 0.0 
4.395159348129e+00 -3.150605820499e+02 0.0 
0.0 0.0 -1.355613273019e+02 
-9.646482358880e+01 -4.350967802937e+00 0.0 
-4.350967802937e+00 -2.352853692141e+02 0.0 
0.0 0.0 -1.013034930197e+02 
-7.203402530414e+01 1.700404396618e+01 0.0 
1.700404396618e+01 -1.628477886184e+02 0.0 
0.0 0.0 -6.837939037243e+01 
-1.178098789615e+02 8.578076939494e+00 0.0 
8.578076939494e+00 -2.645713471381e+02 0.0 
0.0 0.0 -1.143143678299e+02 
-9.733030167952e+01 1.292281137056e+01 0.0 
1.292281137056e+01 -2.104867217994e+02 0.0 
0.0 0.0 -9.038694163929e+01 
-5.292386892852e+01 -1.477886313269e+01 0.0 
-1.477886313269e+01 -9.523912368947e+01 0.0 
0.0 0.0 -3.930621819290e+01 
-1.500804994041e+02 3.647954119823e+00 0.0 
3.647954119823e+00 -3.467900943643e+02 0.0 
0.0 0.0 -1.486611781305e+02 
-4.728009167593e+01 -1.220997216166e+01 0.0 
-1.220997216166e+01 -7.936348233416e+01 0.0 
0.0 0.0 -3.374256408234e+01 
-1.469993413941e+02 6.795080902433e+00 0.0 
6.795080902433e+00 -3.523838329019e+02 0.0 
0.0 0.0 -1.494149522888e+02 
-1.395779114470e+02 1.495711846213e+00 0.0 
1.495711846213e+00 -3.198032336209e+02 0.0 
0.0 0.0 -1.374143435204e+02 
-1.221786904900e+02 4.500629286383e+00 0.0 
4.500629286383e+00 -3.052600605066e+02 0.0 
0.0 0.0 -1.283461571802e+02 
-1.082715194553e+02 9.505939972496e-01 0.0 
9.505939972496e-01 -2.386359923138e+02 0.0 
0.0 0.0 -1.036722535307e+02 
-1.320841008923e+02 4.389315281498e+00 0.0 
4.389315281498e+00 -2.978889429573e+02 0.0 
0.0 0.0 -1.285919131549e+02 
-8.961777371147e+01 -7.147155364222e+00 0.0 
-7.147155364222e+00 -2.250629516999e+02 0.0 
0.0 0.0 -9.718819747880e+01 
-9.538394727878e+01 5.357289150757e+00 0.0 
5.357289150757e+00 -2.500332245661e+02 0.0 
0.0 0.0 -1.085863202003e+02 
-1.425183116625e+02 3.399973998225e+00 0.0 
3.399973998225e+00 -3.264118077061e+02 0.0 
0.0 0.0 -1.402790358106e+02 
-1.262172865820e+02 -1.600459457674e+00 0.0 
-1.600459457674e+00 -3.047439328141e+02 0.0 
0.0 0.0 -1.288883658188e+02 
-1.244818232279e+02 4.082834268100e+00 0.0 
4.082834268100e+00 -2.779869015555e+02 0.0 
0.0 0.0 -1.203406174350e+02 
-1.165064248956e+02 5.338983916194e-01 0.0 
5.338983916194e-01 -2.939818245266e+02 0.0 
0.0 0.0 -1.235097894973e+02 
-5.449451770151e+01 -1.624488913264e+01 0.0 
-1.624488913264e+01 -1.119302447276e+02 0.0 
0.0 0.0 -4.386882028866e+01 
-1.281810351025e+02 4.611242831933e+00 0.0 
4.611242831933e+00 -2.873594133051e+02 0.0 
0.0 0.0 -1.242621345223e+02 
-1.565816293971e+02 8.797664524374e+00 0.0 
8.797664524374e+00 -3.677874097325e+02 0.0 
0.0 0.0 -1.569107117389e+02 
-1.494387902432e+02 5.693230133109e-01 0.0 
5.693230133109e-01 -3.580136953804e+02 0.0 
0.0 0.0 -1.518357456871e+02 
-9.449502032211e+01 -7.292388098084e+00 0.0 
-7.292388098084e+00 -2.078846149477e+02 0.0 
0.0 0.0 -8.778726429535e+01 
-1.090842659194e+02 2.839041954462e+00 0.0 
2.839041954462e+00 -2.392341437206e+02 0.0 
0.0 0.0 -1.040955228920e+02 
-1.041667299844e+02 1.075359818053e+00 0.0 
1.075359818053e+00 -2.281004520348e+02 0.0 
0.0 0.0 -9.928015460576e+01 
-9.838724146923e+01 -8.822711254394e+00 0.0 
-8.822711254394e+00 -2.266347482142e+02 0.0 
0.0 0.0 -9.830612830073e+01 
-1.219706562704e+02 -1.699340718436e+00 0.0 
-1.699340718436e+00 -2.969254498868e+02 0.0 
0.0 0.0 -1.252688318472e+02 
-1.262537685321e+02 -1.041874899428e+00 0.0 
-1.041874899428e+00 -3.081778380961e+02 0.0 
0.0 0.0 -1.299294819885e+02 
-2.900778465475e+01 -2.625939173508e+00 0.0 
-2.625939173508e+00 -6.626163372504e+01 0.0 
0.0 0.0 -2.524041539376e+01 
-5.908501570107e+01 1.283928983152e+01 0.0 
1.283928983152e+01 -1.592492630456e+02 0.0 
0.0 0.0 -6.198723051644e+01 
-8.535531212026e+01 -5.158526824718e-01 0.0 
-5.158526824718e-01 -2.247620520548e+02 0.0 
0.0 0.0 -9.581903661816e+01 
-8.476492928022e+01 -5.430966423543e+00 0.0 
-5.430966423543e+00 -2.170801141850e+02 0.0 
0.0 0.0 -9.326114837156e+01 
-9.417411907897e+01 1.497798502075e+01 0.0 
1.497798502075e+01 -2.134034979922e+02 0.0 
0.0 0.0 -9.242855297514e+01 
-1.470915862415e+02 4.851401575222e+00 0.0 
4.851401575222e+00 -3.372644384671e+02 0.0 
0.0 0.0 -1.449068074126e+02 
-1.407697388391e+02 6.426095365066e+00 0.0 
6.426095365066e+00 -3.234715786126e+02 0.0 
0.0 0.0 -1.388723952355e+02 
-1.402104547013e+02 3.160600437405e+00 0.0 
3.160600437405e+00 -3.202597551902e+02 0.0 
0.0 0.0 -1.377410629675e+02 
-8.814276828557e+01 1.048821337500e+01 0.0 
1.048821337500e+01 -1.784588179467e+02 0.0 
0.0 0.0 -7.453052251908e+01 
-1.306945493247e+02 4.113591322678e+00 0.0 
4.113591322678e+00 -2.952567995106e+02 0.0 
0.0 0.0 -1.273854046506e+02 
-1.241143552360e+02 -5.278832848264e-01 0.0 
-5.278832848264e-01 -2.978964075319e+02 0.0 
0.0 0.0 -1.259671761130e+02 
-1.427453055517e+02 2.626350348327e+00 0.0 
2.626350348327e+00 -3.277384534112e+02 0.0 
0.0 0.0 -1.407451276889e+02 
-1.242483148319e+02 4.839553194213e+00 0.0 
4.839553194213e+00 -2.768658026820e+02 0.0 
0.0 0.0 -1.199342352542e+02 
-1.015503591028e+02 -8.154192868667e+00 0.0 
-8.154192868667e+00 -2.214479874442e+02 0.0 
0.0 0.0 -9.555520397186e+01 
-8.285465076474e+01 2.344686127629e+00 0.0 
2.344686127629e+00 -2.187602307927e+02 0.0 
0.0 0.0 -9.156863548978e+01 
-1.273477643395e+02 2.823647572491e+00 0.0 
2.823647572491e+00 -2.867065338233e+02 0.0 
0.0 0.0 -1.238162894488e+02 
-1.396444641546e+02 4.684119421125e+00 0.0 
4.684119421125e+00 -3.178198540588e+02 0.0 
0.0 0.0 -1.368392954640e+02 
-1.276920770524e+02 2.098101942930e+00 0.0 
2.098101942930e+00 -2.879063288151e+02 0.0 
0.0 0.0 -1.242795217603e+02 
-1.236862158992e+02 2.302463936189e+00 0.0 
2.302463936189e+00 -2.773517554438e+02 0.0 
0.0 0.0 -1.199113914029e+02 
-1.394342992776e+02 -5.879617342545e-01 0.0 
-5.879617342545e-01 -3.352622918033e+02 0.0 
0.0 0.0 -1.420089773243e+02 
-1.428651219443e+02 7.159219484415e+00 0.0 
7.159219484415e+00 -3.433455204301e+02 0.0 
0.0 0.0 -1.454631927123e+02 
-1.351096826519e+02 -4.629824083591e-01 0.0 
-4.629824083591e-01 -3.272584399376e+02 0.0 
0.0 0.0 -1.383104367768e+02 
-1.122954430503e+02 -3.104131996595e+00 0.0 
-3.104131996595e+00 -2.663162828659e+02 0.0 
0.0 0.0 -1.123433746481e+02 
-8.540783422525e+01 5.590970827146e+00 0.0 
5.590970827146e+00 -1.688036026362e+02 0.0 
0.0 0.0 -7.243330395124e+01 
-1.270516980448e+02 5.413862423678e+00 0.0 
5.413862423678e+00 -3.145129291981e+02 0.0 
0.0 0.0 -1.320693881729e+02 
-1.229190957800e+02 4.617953408981e+00 0.0 
4.617953408981e+00 -2.749780623783e+02 0.0 
0.0 0.0 -1.189691474475e+02 
-5.784407166115e+01 -5.992903186861e+00 0.0 
-5.992903186861e+00 -1.123204027499e+02 0.0 
0.0 0.0 -4.573337940710e+01 
-8.680241733705e+01 -2.203335792045e+00 0.0 
-2.203335792045e+00 -2.258749843613e+02 0.0 
0.0 0.0 -9.707334444918e+01 
-9.554756254076e+01 -1.136356332813e+00 0.0 
-1.136356332813e+00 -2.465991540723e+02 0.0 
0.0 0.0 -1.075037631354e+02 
-1.028037373235e+02 5.446223782449e+00 0.0 
5.446223782449e+00 -2.691015969085e+02 0.0 
0.0 0.0 -1.154578576549e+02 
-5.237637026229e+01 -2.308772177511e+00 0.0 
-2.308772177511e+00 -1.530019773563e+02 0.0 
0.0 0.0 -5.835639786589e+01 
-8.293302650880e+01 3.545001928044e-01 0.0 
3.545001928044e-01 -2.182190102173e+02 0.0 
0.0 0.0 -9.171352357740e+01 
-1.124785681521e+02 5.779486284669e+00 0.0 
5.779486284669e+00 -2.870222349762e+02 0.0 
0.0 0.0 -1.213560801952e+02 
-9.580321479252e+01 7.451769878390e+00 0.0 
7.451769878390e+00 -1.973836715337e+02 0.0 
0.0 0.0 -8.452826155608e+01 
-1.015510975875e+02 -5.720293822127e+00 0.0 
-5.720293822127e+00 -2.276146736947e+02 0.0 
0.0 0.0 -9.586298216791e+01 
-1.166070976860e+02 4.525824514906e+00 0.0 
4.525824514906e+00 -2.568834743065e+02 0.0 
0.0 0.0 -1.116471715978e+02 
-9.181154535561e+01 5.297975980450e-01 0.0 
5.297975980450e-01 -1.977907838329e+02 0.0 
0.0 0.0 -8.648069875654e+01 
-3.257089535105e+01 1.329774958695e+01 0.0 
1.329774958695e+01 -3.057880795474e+01 0.0 
0.0 0.0 -1.489601663889e+01 
-1.143531944097e+02 -4.327803643265e+00 0.0 
-4.327803643265e+00 -2.600447339018e+02 0.0 
0.0 0.0 -1.103686786767e+02 
-1.261434055555e+02 2.709934841546e+00 0.0 
2.709934841546e+00 -3.136838806942e+02 0.0 
0.0 0.0 -1.315481858749e+02 
-1.447137477143e+02 6.063090765975e+00 0.0 
6.063090765975e+00 -3.331916576535e+02 0.0 
0.0 0.0 -1.429716216103e+02 
-9.251411466426e+01 4.224014422729e+00 0.0 
4.224014422729e+00 -2.434350661034e+02 0.0 
0.0 0.0 -1.058417588957e+02 
-1.074715856076e+02 -4.365407881110e+00 0.0 
-4.365407881110e+00 -2.470852336903e+02 0.0 
0.0 0.0 -1.037018279561e+02 
-1.167472636545e+02 3.765918860412e+00 0.0 
3.765918860412e+00 -2.580897127853e+02 0.0 
0.0 0.0 -1.120510929319e+02 
-3.472940733140e+01 9.671648408000e+00 0.0 
9.671648408000e+00 -4.453310374835e+01 0.0 
0.0 0.0 -1.987246416983e+01 
-1.215950780996e+02 3.238033136701e+00 0.0 
3.238033136701e+00 -3.047402747234e+02 0.0 
0.0 0.0 -1.286388675248e+02 
-9.863872889889e+01 4.097037433139e+00 0.0 
4.097037433139e+00 -2.593843348016e+02 0.0 
0.0 0.0 -1.131445460740e+02 
-9.870830672051e+01 8.730122922476e+00 0.0 
8.730122922476e+00 -2.073740884936e+02 0.0 
0.0 0.0 -8.952763458503e+01 
-1.276426342602e+02 2.766551328048e-01 0.0 
2.766551328048e-01 -3.090516234078e+02 0.0 
0.0 0.0 -1.306082773004e+02 
-5.921856985482e+01 -1.484637367312e+01 0.0 
-1.484637367312e+01 -1.438619073215e+02 0.0 
0.0 0.0 -5.717447503428e+01 
-1.319385540104e+02 9.781404804908e-01 0.0 
9.781404804908e-01 -3.200664092057e+02 0.0 
0.0 0.0 -1.352014889648e+02 
-1.446352097604e+02 9.533915328741e-01 0.0 
9.533915328741e-01 -3.490789182799e+02 0.0 
0.0 0.0 -1.477142384121e+02 
-1.169750760764e+02 3.773417041995e+00 0.0 
3.773417041995e+00 -2.956962455210e+02 0.0 
0.0 0.0 -1.257702041943e+02 
-1.284245879831e+02 3.872897113681e+00 0.0 
3.872897113681e+00 -2.885215374495e+02 0.0 
0.0 0.0 -1.246838376298e+02 
-1.307388287390e+02 9.015451347923e+00 0.0 
9.015451347923e+00 -3.139835460775e+02 0.0 
0.0 0.0 -1.330167124449e+02 
-1.454658193362e+02 2.344158183414e+00 0.0 
2.344158183414e+00 -3.496845017486e+02 0.0 
0.0 0.0 -1.481450963254e+02 
-4.048714039479e+01 9.020537191235e+00 0.0 
9.020537191235e+00 -6.258358142621e+01 0.0 
0.0 0.0 -2.786777856831e+01 
-1.205553547289e+02 4.277715134353e+00 0.0 
4.277715134353e+00 -2.674663735762e+02 0.0 
0.0 0.0 -1.160065184915e+02 
-1.434317268207e+02 7.859623580652e+00 0.0 
7.859623580652e+00 -3.432664341339e+02 0.0 
0.0 0.0 -1.456094482864e+02 
-1.313043545503e+02 2.603453538678e+00 0.0 
2.603453538678e+00 -2.972550106170e+02 0.0 
0.0 0.0 -1.281678095502e+02 
-1.066655400155e+02 3.345462259476e+00 0.0 
3.345462259476e+00 -2.774310588591e+02 0.0 
0.0 0.0 -1.196377879804e+02 
-8.556473615411e+01 3.386323509632e+00 0.0 
3.386323509632e+00 -2.256663003604e+02 0.0 
0.0 0.0 -9.564796463186e+01 
-1.104178309995e+02 -4.417907250646e+00 0.0 
-4.417907250646e+00 -2.389896659202e+02 0.0 
0.0 0.0 -1.011436802710e+02 
-3.530110779180e+01 6.187206889794e+00 0.0 
6.187206889794e+00 -1.313870684934e+02 0.0 
0.0 0.0 -5.197464067679e+01 
-1.352724284420e+02 2.364819850000e+00 0.0 
2.364819850000e+00 -3.078067017515e+02 0.0 
0.0 0.0 -1.325237390581e+02 
-6.291946212018e+01 -5.041403492655e+00 0.0 
-5.041403492655e+00 -1.209515387732e+02 0.0 
0.0 0.0 -4.920622691629e+01 
-4.787689538680e+01 8.370090968050e+00 0.0 
8.370090968050e+00 -8.133039910397e+01 0.0 
0.0 0.0 -3.591302049862e+01 
-1.271930963972e+02 9.423873932510e+00 0.0 
9.423873932510e+00 -3.044121983351e+02 0.0 
0.0 0.0 -1.290815884197e+02 
-1.433929693125e+02 1.941644235796e+00 0.0 
1.941644235796e+00 -3.295330533617e+02 0.0 
0.0 0.0 -1.414778068023e+02 
-5.831094644808e+01 -1.768914091900e+01 0.0 
-1.768914091900e+01 -1.294832489207e+02 0.0 
0.0 0.0 -5.173423339741e+01 
-1.033963610089e+02 1.045957288183e+01 0.0 
1.045957288183e+01 -2.379919629353e+02 0.0 
0.0 0.0 -1.009449654923e+02 
-1.234164601374e+02 3.021998781956e+00 0.0 
3.021998781956e+00 -2.762132837511e+02 0.0 
0.0 0.0 -1.194889231665e+02 
-1.099681372604e+02 -5.414879280145e+00 0.0 
-5.414879280145e+00 -2.361783766309e+02 0.0 
0.0 0.0 -9.992503116827e+01 
-5.511531036659e+01 -7.806536469361e+00 0.0 
-7.806536469361e+00 -1.524115088130e+02 0.0 
0.0 0.0 -5.882983527634e+01 
-7.213839081361e+01 1.891495983828e+01 0.0 
1.891495983828e+01 -1.595132475823e+02 0.0 
0.0 0.0 -6.795837729350e+01 
-5.081757077240e+01 -1.673939340702e+01 0.0 
-1.673939340702e+01 -9.136833851939e+01 0.0 
0.0 0.0 -3.665204289870e+01 
-5.248555159380e+01 -1.528554511980e+01 0.0 
-1.528554511980e+01 -1.272342660642e+02 0.0 
0.0 0.0 -4.816248391576e+01 
-5.093219443416e+01 -1.725599360033e+01 0.0 
-1.725599360033e+01 -1.093262830048e+02 0.0 
0.0 0.0 -4.063903568319e+01 
-9.929493512423e+01 3.299572463231e+00 0.0 
3.299572463231e+00 -2.605194240718e+02 0.0 
0.0 0.0 -1.140349033213e+02 
-1.603563910367e+02 6.194127236402e+00 0.0 
6.194127236402e+00 -3.720404780863e+02 0.0 
0.0 0.0 -1.593190607369e+02 
-5.649099288563e+01 6.385939535642e+00 0.0 
6.385939535642e+00 -1.016389839837e+02 0.0 
0.0 0.0 -4.323920046362e+01 
-1.437283588637e+02 -6.297492952422e-01 0.0 
-6.297492952422e-01 -3.432365526795e+02 0.0 
0.0 0.0 -1.456894734629e+02 
-7.853880149722e+01 9.112068443054e+00 0.0 
9.112068443054e+00 -2.041791553250e+02 0.0 
0.0 0.0 -8.397834394459e+01 
-1.203352074618e+02 5.101465566705e+00 0.0 
5.101465566705e+00 -2.665409926448e+02 0.0 
0.0 0.0 -1.156628600320e+02 
-4.212297662288e+01 4.576668802853e+00 0.0 
4.576668802853e+00 -1.389844124818e+02 0.0 
0.0 0.0 -5.378465266729e+01 
-1.502262515386e+02 3.042850288263e+00 0.0 
3.042850288263e+00 -3.601863239672e+02 0.0 
0.0 0.0 -1.527237726517e+02 
-5.756299826408e+01 -1.871912121539e+01 0.0 
-1.871912121539e+01 -1.125388630057e+02 0.0 
0.0 0.0 -4.560229055192e+01 
-7.467305756423e+01 -5.001980942285e+00 0.0 
-5.001980942285e+00 -1.422472254772e+02 0.0 
0.0 0.0 -5.878115199896e+01 
-1.225471462877e+02 4.573001762883e+00 0.0 
4.573001762883e+00 -3.051170075513e+02 0.0 
0.0 0.0 -1.290210043035e+02 
-9.399839826413e+01 -8.001673830079e+00 0.0 
-8.001673830079e+00 -2.311201847171e+02 0.0 
0.0 0.0 -1.000800947194e+02 
-1.385550448315e+02 7.486984198249e+00 0.0 
7.486984198249e+00 -3.341168348737e+02 0.0 
0.0 0.0 -1.414015639116e+02 
-7.715411277681e+01 1.540481856852e+01 0.0 
1.540481856852e+01 -1.615943955219e+02 0.0 
0.0 0.0 -6.908802692087e+01 
-1.274843392655e+02 6.131116316904e+00 0.0 
6.131116316904e+00 -2.856893850965e+02 0.0 
0.0 0.0 -1.235521173086e+02 
-1.470719805379e+02 5.272387569043e+00 0.0 
5.272387569043e+00 -3.520810760765e+02 0.0 
0.0 0.0 -1.493459169843e+02 
-1.196927853776e+02 2.475191400251e+00 0.0 
2.475191400251e+00 -2.668140734038e+02 0.0 
0.0 0.0 -1.155520576344e+02 
-1.451395920113e+02 7.828227722443e+00 0.0 
7.828227722443e+00 -3.337514709733e+02 0.0 
0.0 0.0 -1.432673188954e+02 
-1.317785156107e+02 5.133278533917e+00 0.0 
5.133278533917e+00 -2.967018520656e+02 0.0 
0.0 0.0 -1.281441103029e+02 
-1.353419252271e+02 5.650697313214e+00 0.0 
5.650697313214e+00 -3.061722822529e+02 0.0 
0.0 0.0 -1.320542622440e+02 
-5.214779417235e+01 1.944123264533e+01 0.0 
1.944123264533e+01 -1.326792953558e+02 0.0 
0.0 0.0 -5.173138773751e+01 
-1.390645476528e+02 -1.007786874687e+00 0.0 
-1.007786874687e+00 -3.318426586058e+02 0.0 
0.0 0.0 -1.408721618776e+02 
-1.271059681410e+02 3.582735603238e+00 0.0 
3.582735603238e+00 -2.857414835408e+02 0.0 
0.0 0.0 -1.234542355045e+02 
-9.372582721671e+01 1.089172016901e+01 0.0 
1.089172016901e+01 -2.360494090562e+02 0.0 
0.0 0.0 -1.025622182830e+02 
-6.550345419335e+01 4.274620895326e+00 0.0 
4.274620895326e+00 -1.222536868909e+02 0.0 
0.0 0.0 -5.097597524332e+01 
-1.522846842276e+02 7.279161830272e+00 0.0 
7.279161830272e+00 -3.619599981390e+02 0.0 
0.0 0.0 -1.538734047100e+02 
-5.420635873846e+01 9.093055192749e+00 0.0 
9.093055192749e+00 -1.549885509869e+02 0.0 
0.0 0.0 -5.946904990763e+01 
-6.815950257913e+01 -3.296606972213e+00 0.0 
-3.296606972213e+00 -1.344353849184e+02 0.0 
0.0 0.0 -5.505954340169e+01 
-1.334126075905e+02 5.533312963946e+00 0.0 
5.533312963946e+00 -3.242110769288e+02 0.0 
0.0 0.0 -1.368871053558e+02 
-2.908542235566e+01 7.989582768182e-01 0.0 
7.989582768182e-01 -7.972497501713e+01 0.0 
0.0 0.0 -3.180621092583e+01 
-9.705140203460e+01 1.066078402688e+01 0.0 
1.066078402688e+01 -2.296736270697e+02 0.0 
0.0 0.0 -9.737751849145e+01 
-1.268650600882e+02 4.066337485473e+00 0.0 
4.066337485473e+00 -3.141760698492e+02 0.0 
0.0 0.0 -1.321109978644e+02 
-1.424864505016e+02 5.810901281481e+00 0.0 
5.810901281481e+00 -3.254107853433e+02 0.0 
0.0 0.0 -1.399691707535e+02 
-1.461427448251e+02 6.360551191472e+00 0.0 
6.360551191472e+00 -3.353169290482e+02 0.0 
0.0 0.0 -1.440379021620e+02 
-1.225062782075e+02 6.008386738304e+00 0.0 
6.008386738304e+00 -3.053988638799e+02 0.0 
0.0 0.0 -1.279715426262e+02 
-1.356891108136e+02 4.915478946168e+00 0.0 
4.915478946168e+00 -3.072429398836e+02 0.0 
0.0 0.0 -1.324796152091e+02 
-8.323173620961e+01 1.107255155281e+01 0.0 
1.107255155281e+01 -2.113713670578e+02 0.0 
0.0 0.0 -8.873622297759e+01 
-1.288575601904e+02 9.723899498730e+00 0.0 
9.723899498730e+00 -3.039800738566e+02 0.0 
0.0 0.0 -1.294512902141e+02 
-7.368383985804e+01 3.347525186829e+00 0.0 
3.347525186829e+00 -1.416010581217e+02 0.0 
0.0 0.0 -6.089569120242e+01 
-1.431856303318e+02 7.290925310329e+00 0.0 
7.290925310329e+00 -3.320025521892e+02 0.0 
0.0 0.0 -1.421564547563e+02 
-8.074628081213e+01 3.066833966712e+00 0.0 
3.066833966712e+00 -1.604392701093e+02 0.0 
0.0 0.0 -7.001413000927e+01 
-8.417958183016e+01 3.188568417211e+00 0.0 
3.188568417211e+00 -1.700277207110e+02 0.0 
0.0 0.0 -7.472983556039e+01 
-9.052914846829e+01 6.936057757921e+00 0.0 
6.936057757921e+00 -2.363175315249e+02 0.0 
0.0 0.0 -1.019989999024e+02 
-8.709794686154e+01 3.002584372023e+00 0.0 
3.002584372023e+00 -1.794898136050e+02 0.0 
0.0 0.0 -7.890233128281e+01 
-1.037967414647e+02 9.199589518055e+00 0.0 
9.199589518055e+00 -2.579276168839e+02 0.0 
0.0 0.0 -1.085867294907e+02 
-8.660740349539e+01 1.253561856076e+01 0.0 
1.253561856076e+01 -2.110095572129e+02 0.0 
0.0 0.0 -8.988649364269e+01 
-8.878267070101e+01 8.519516849236e-01 0.0 
8.519516849236e-01 -2.344938922347e+02 0.0 
0.0 0.0 -1.010052855608e+02 
-4.913685068246e+01 -8.494573934820e+00 0.0 
-8.494573934820e+00 -1.413378617608e+02 0.0 
0.0 0.0 -5.316564572777e+01 
-8.655435093007e+01 4.943072294112e+00 0.0 
4.943072294112e+00 -2.275850231153e+02 0.0 
0.0 0.0 -9.667453735949e+01 
-1.388469007416e+02 2.904612194154e+00 0.0 
2.904612194154e+00 -3.171773583179e+02 0.0 
0.0 0.0 -1.364072777178e+02 
-1.450477856413e+02 6.583482125156e+00 0.0 
6.583482125156e+00 -3.347937993053e+02 0.0 
0.0 0.0 -1.435524754840e+02 
-1.304422940667e+02 -1.459668552988e+00 0.0 
-1.459668552988e+00 -3.126082055332e+02 0.0 
0.0 0.0 -1.325151498800e+02 
-1.427470238517e+02 5.611455930389e+00 0.0 
5.611455930389e+00 -3.429655115458e+02 0.0 
0.0 0.0 -1.453137606192e+02 
-9.059756083121e+01 -5.284228726773e+00 0.0 
-5.284228726773e+00 -2.276881469946e+02 0.0 
0.0 0.0 -9.787042900662e+01 
-1.346180309570e+02 3.870408191821e+00 0.0 
3.870408191821e+00 -3.055570636089e+02 0.0 
0.0 0.0 -1.316525283698e+02 
-8.871880163648e+01 2.055498888904e+00 0.0 
2.055498888904e+00 -2.342294799704e+02 0.0 
0.0 0.0 -1.007907865993e+02 
-1.432521011431e+02 -1.002243211252e+00 0.0 
-1.002243211252e+00 -3.398072276095e+02 0.0 
0.0 0.0 -1.445177986258e+02 
-1.309785336213e+02 3.373226533985e+00 0.0 
3.373226533985e+00 -2.960650083718e+02 0.0 
0.0 0.0 -1.277130625980e+02 
-1.314154889304e+02 5.888165332848e+00 0.0 
5.888165332848e+00 -2.958792178673e+02 0.0 
0.0 0.0 -1.277884120393e+02 
-1.115637402005e+02 2.664572520320e+00 0.0 
2.664572520320e+00 -2.862169429347e+02 0.0 
0.0 0.0 -1.223711998421e+02 
-8.482367874126e+01 7.982670369896e+00 0.0 
7.982670369896e+00 -2.199826442328e+02 0.0 
0.0 0.0 -9.262215910983e+01 
-1.368990398480e+02 9.409780967919e+00 0.0 
9.409780967919e+00 -3.226462429901e+02 0.0 
0.0 0.0 -1.374635848514e+02 
-1.130291888371e+02 8.325924732730e+00 0.0 
8.325924732730e+00 -2.551473956834e+02 0.0 
0.0 0.0 -1.098212121600e+02 
-5.396569615592e+01 -1.325726424565e+01 0.0 
-1.325726424565e+01 -1.417983182918e+02 0.0 
0.0 0.0 -5.479772297975e+01 
-5.250420595018e+01 3.296739973537e+00 0.0 
3.296739973537e+00 -1.526273001162e+02 0.0 
0.0 0.0 -5.786404228235e+01 
-8.091157370306e+01 1.751263136544e+01 0.0 
1.751263136544e+01 -1.746067114936e+02 0.0 
0.0 0.0 -7.624660971446e+01 
-1.066798571954e+02 1.089113668105e+01 0.0 
1.089113668105e+01 -2.383064319366e+02 0.0 
0.0 0.0 -1.004338638304e+02 
-1.473729821551e+02 -9.945501570435e-01 0.0 
-9.945501570435e-01 -3.480216970648e+02 0.0 
0.0 0.0 -1.482184037660e+02 
-1.278467149120e+02 5.381994722193e+00 0.0 
5.381994722193e+00 -2.863625978191e+02 0.0 
0.0 0.0 -1.238627938193e+02 
-8.264068722255e+01 6.051116782542e+00 0.0 
6.051116782542e+00 -2.167099679229e+02 0.0 
0.0 0.0 -9.050971193017e+01 
-1.131754454041e+02 1.054956475010e+01 0.0 
1.054956475010e+01 -2.660470534318e+02 0.0 
0.0 0.0 -1.133667496508e+02 
-1.313185935323e+02 3.544654803252e+00 0.0 
3.544654803252e+00 -3.233954982532e+02 0.0 
0.0 0.0 -1.360142275356e+02 
-1.360091720597e+02 4.151318950815e+00 0.0 
4.151318950815e+00 -3.084332706584e+02 0.0 
0.0 0.0 -1.329327328154e+02 
-1.413948258309e+02 9.262615015845e+00 0.0 
9.262615015845e+00 -3.317920057881e+02 0.0 
0.0 0.0 -1.415560494857e+02 
-1.156548778513e+02 3.496892925474e+00 0.0 
3.496892925474e+00 -2.557464900868e+02 0.0 
0.0 0.0 -1.110204103815e+02 
-1.357108987663e+02 1.775824397384e+00 0.0 
1.775824397384e+00 -3.322735075944e+02 0.0 
0.0 0.0 -1.399953219082e+02 
-9.163178671714e+01 3.437013649182e+00 0.0 
3.437013649182e+00 -2.423765968147e+02 0.0 
0.0 0.0 -1.047626743046e+02 
-1.316027261194e+02 4.854429646752e+00 0.0 
4.854429646752e+00 -3.236896262897e+02 0.0 
0.0 0.0 -1.361877057227e+02 
-1.004525126206e+02 1.329457088323e+01 0.0 
1.329457088323e+01 -2.320460791276e+02 0.0 
0.0 0.0 -1.000107881099e+02 
-1.430426883094e+02 5.109275287047e+00 0.0 
5.109275287047e+00 -3.268858440893e+02 0.0 
0.0 0.0 -1.405785597196e+02 
-1.469943524423e+02 9.512373510825e+00 0.0 
9.512373510825e+00 -3.428026735674e+02 0.0 
0.0 0.0 -1.465391078029e+02 
-1.023526877437e+02 1.987927335320e+00 0.0 
1.987927335320e+00 -2.675633512099e+02 0.0 
0.0 0.0 -1.165810646508e+02 
-4.953300186725e+01 3.913221072078e+00 0.0 
3.913221072078e+00 -1.494910140167e+02 0.0 
0.0 0.0 -5.726628548949e+01 
-1.348024974375e+02 7.143562044192e+00 0.0 
7.143562044192e+00 -3.231342519325e+02 0.0 
0.0 0.0 -1.369810248110e+02 
-1.024096978382e+02 9.311265456610e+00 0.0 
9.311265456610e+00 -2.485107015712e+02 0.0 
0.0 0.0 -1.047562044377e+02 
-8.009641685935e+01 8.693133655403e+00 0.0 
8.693133655403e+00 -2.070724833127e+02 0.0 
0.0 0.0 -8.552090523540e+01 
-1.073522222325e+02 4.548694590703e+00 0.0 
4.548694590703e+00 -2.779798190371e+02 0.0 
0.0 0.0 -1.188662508205e+02 
-1.318800553639e+02 2.093538903651e+00 0.0 
2.093538903651e+00 -3.225154139876e+02 0.0 
0.0 0.0 -1.359186408055e+02 
-5.008660140178e+01 -3.059640538515e+00 0.0 
-3.059640538515e+00 -1.475976457054e+02 0.0 
0.0 0.0 -5.641893669712e+01 
-9.529692429911e+01 1.738439347019e+00 0.0 
1.738439347019e+00 -2.504465952093e+02 0.0 
0.0 0.0 -1.093174220898e+02 
-1.176783175844e+02 6.747970466651e+00 0.0 
6.747970466651e+00 -2.641639349100e+02 0.0 
0.0 0.0 -1.141526757483e+02 
-1.479996878261e+02 6.135544934964e-01 0.0 
6.135544934964e-01 -3.486099556522e+02 0.0 
0.0 0.0 -1.485828930435e+02 
-1.208830282506e+02 7.197566997702e+00 0.0 
7.197566997702e+00 -2.738159647393e+02 0.0 
0.0 0.0 -1.180096978970e+02 
-1.312980829990e+02 7.570139058358e+00 0.0 
7.570139058358e+00 -3.139197799401e+02 0.0 
0.0 0.0 -1.331653588817e+02 
-1.144028945772e+02 6.235676005329e+00 0.0 
6.235676005329e+00 -2.545350559401e+02 0.0 
0.0 0.0 -1.102813851552e+02 
-1.073735286531e+02 4.947843374266e+00 0.0 
4.947843374266e+00 -2.353224209629e+02 0.0 
0.0 0.0 -1.024087848848e+02 
-1.155710076337e+02 8.469853272346e+00 0.0 
8.469853272346e+00 -2.651146078108e+02 0.0 
0.0 0.0 -1.137969904101e+02 
-1.375692910939e+02 5.119804920758e+00 0.0 
5.119804920758e+00 -3.333492179969e+02 0.0 
0.0 0.0 -1.408755527273e+02 
-1.359688400192e+02 4.027174785120e-01 0.0 
4.027174785120e-01 -3.248017459470e+02 0.0 
0.0 0.0 -1.378311757898e+02 
-1.232147438575e+02 3.839138031906e+00 0.0 
3.839138031906e+00 -2.755297340349e+02 0.0 
0.0 0.0 -1.192233433677e+02 
-1.455832099199e+02 4.765588438455e+00 0.0 
4.765588438455e+00 -3.347927511901e+02 0.0 
0.0 0.0 -1.437127883330e+02 
-1.110509828876e+02 5.642961774271e+00 0.0 
5.642961774271e+00 -2.449821924960e+02 0.0 
0.0 0.0 -1.064099526151e+02 
-6.982552776750e+01 6.984361142009e+00 0.0 
6.984361142009e+00 -1.856729765798e+02 0.0 
0.0 0.0 -7.361509252265e+01 
-1.394720512525e+02 8.843216127865e+00 0.0 
8.843216127865e+00 -3.326662944351e+02 0.0 
0.0 0.0 -1.412415037063e+02 
-1.436195241700e+02 4.504341560149e+00 0.0 
4.504341560149e+00 -3.284209072664e+02 0.0 
0.0 0.0 -1.412121294309e+02 
-9.734588340965e+01 1.293319160404e+01 0.0 
1.293319160404e+01 -2.343394404633e+02 0.0 
0.0 0.0 -1.017517062510e+02 
-1.014513772674e+02 1.263372946263e+01 0.0 
1.263372946263e+01 -2.422400356215e+02 0.0 
0.0 0.0 -1.044633790277e+02 
-7.646118561741e+01 6.476458419856e+00 0.0 
6.476458419856e+00 -2.006753578998e+02 0.0 
0.0 0.0 -8.130679576054e+01 
-1.267901133990e+02 4.349869325572e+00 0.0 
4.349869325572e+00 -2.850564435155e+02 0.0 
0.0 0.0 -1.231539670744e+02 
-8.822272709822e+01 1.242668607697e+01 0.0 
1.242668607697e+01 -1.794831127592e+02 0.0 
0.0 0.0 -7.729490705051e+01 
-1.083679540767e+02 8.786622007842e+00 0.0 
8.786622007842e+00 -2.685879493796e+02 0.0 
0.0 0.0 -1.153667090805e+02 
-8.656851397319e+01 1.227368461687e+01 0.0 
1.227368461687e+01 -1.795226859590e+02 0.0 
0.0 0.0 -7.596941180502e+01 
-1.280545773912e+02 5.113636753909e+00 0.0 
5.113636753909e+00 -3.146196133587e+02 0.0 
0.0 0.0 -1.324022572250e+02 
-1.480708826274e+02 8.666379855369e+00 0.0 
8.666379855369e+00 -3.507482989927e+02 0.0 
0.0 0.0 -1.492457544860e+02 
-7.946589123951e+01 3.292948537478e+00 0.0 
3.292948537478e+00 -2.097450909328e+02 0.0 
0.0 0.0 -8.640387792003e+01 
-3.515962004364e+01 -5.507563141756e+00 0.0 
-5.507563141756e+00 -1.263342185648e+02 0.0 
0.0 0.0 -4.988104375344e+01 
-1.452576082707e+02 5.440626143688e+00 0.0 
5.440626143688e+00 -3.342373303236e+02 0.0 
0.0 0.0 -1.434484815783e+02 
-9.240687778147e+01 1.075017783940e+01 0.0 
1.075017783940e+01 -1.886520750370e+02 0.0 
0.0 0.0 -8.028406842068e+01 
-9.291089859342e+01 -3.152383105453e+00 0.0 
-3.152383105453e+00 -2.370130728705e+02 0.0 
0.0 0.0 -1.026369594579e+02 
-1.437249099529e+02 6.993672709942e+00 0.0 
6.993672709942e+00 -3.419335038457e+02 0.0 
0.0 0.0 -1.452975241396e+02 
-1.239345368448e+02 5.618543664844e+00 0.0 
5.618543664844e+00 -2.761387513616e+02 0.0 
0.0 0.0 -1.196219864619e+02 
-1.318363197786e+02 3.321179509826e-01 0.0 
3.321179509826e-01 -3.169191586278e+02 0.0 
0.0 0.0 -1.342266435219e+02 
-8.204831078630e+01 1.226326476716e+01 0.0 
1.226326476716e+01 -2.036870085800e+02 0.0 
0.0 0.0 -8.558383503302e+01 
-3.056088634392e+01 -4.169853945095e+00 0.0 
-4.169853945095e+00 -1.256947796990e+02 0.0 
0.0 0.0 -4.964379545840e+01 
-1.521272903130e+02 7.319374039073e-01 0.0 
7.319374039073e-01 -3.579295678745e+02 0.0 
0.0 0.0 -1.526170574563e+02 
-1.084093511564e+02 1.104137762466e+01 0.0 
1.104137762466e+01 -2.486904803070e+02 0.0 
0.0 0.0 -1.047069463314e+02 
-1.189515629822e+02 7.853400960084e+00 0.0 
7.853400960084e+00 -2.958034261352e+02 0.0 
0.0 0.0 -1.240264967352e+02 
-1.409724497673e+02 7.799658879684e+00 0.0 
7.799658879684e+00 -3.327391032751e+02 0.0 
0.0 0.0 -1.417134659127e+02 
-3.600728922827e+01 -8.275797140686e-01 0.0 
-8.275797140686e-01 -1.243173163388e+02 0.0 
0.0 0.0 -4.995085589480e+01 
-1.306165387427e+02 -1.079382907922e+00 0.0 
-1.079382907922e+00 -3.160896330803e+02 0.0 
0.0 0.0 -1.336118515469e+02 
-6.301071848924e+01 1.704862148315e+01 0.0 
1.704862148315e+01 -1.509346602753e+02 0.0 
0.0 0.0 -5.970508043276e+01 
-1.165248656505e+02 5.306733567683e+00 0.0 
5.306733567683e+00 -2.564095980552e+02 0.0 
0.0 0.0 -1.114803391117e+02 
-1.158624341359e+02 -4.069198758986e+00 0.0 
-4.069198758986e+00 -2.557098178884e+02 0.0 
0.0 0.0 -1.075882907916e+02 
-8.049153526228e+01 5.562529665826e+00 0.0 
5.562529665826e+00 -2.119230407043e+02 0.0 
0.0 0.0 -8.756944795437e+01 
-1.439916728752e+02 5.193747108535e-01 0.0 
5.193747108535e-01 -3.404566430534e+02 0.0 
0.0 0.0 -1.449344947786e+02 
-1.073345411471e+02 1.070920918534e+01 0.0 
1.070920918534e+01 -2.599765410780e+02 0.0 
0.0 0.0 -1.114454585522e+02 
-7.427262446724e+01 6.366649980787e+00 0.0 
6.366649980787e+00 -1.963689101459e+02 0.0 
0.0 0.0 -7.965199129445e+01 
-1.085248462325e+02 1.028841362265e+01 0.0 
1.028841362265e+01 -2.570641673245e+02 0.0 
0.0 0.0 -1.092767040671e+02 
-3.670107889655e+01 -1.725714170618e+01 0.0 
-1.725714170618e+01 -1.182969358206e+02 0.0 
0.0 0.0 -4.830876984168e+01 
-1.239114998861e+02 9.814228544030e+00 0.0 
9.814228544030e+00 -2.947702193337e+02 0.0 
0.0 0.0 -1.252045157659e+02 
-1.278174912380e+02 6.633739221803e+00 0.0 
6.633739221803e+00 -3.148449691819e+02 0.0 
0.0 0.0 -1.323987381260e+02 
-1.499767488668e+02 9.078480676652e+00 0.0 
9.078480676652e+00 -3.494705893927e+02 0.0 
0.0 0.0 -1.494342014778e+02 
-1.322293053560e+02 9.475230151929e+00 0.0 
9.475230151929e+00 -3.137283205881e+02 0.0 
0.0 0.0 -1.333872877833e+02 
-5.936415946036e+01 3.243654156064e+00 0.0 
3.243654156064e+00 -1.658312601181e+02 0.0 
0.0 0.0 -6.354951455824e+01 
-1.315413297770e+02 4.473150350022e-02 0.0 
4.473150350022e-02 -3.134127410577e+02 0.0 
0.0 0.0 -1.330862212504e+02 
-1.464856362304e+02 3.232072071197e+00 0.0 
3.232072071197e+00 -3.369139772116e+02 0.0 
0.0 0.0 -1.446198840326e+02 
-1.567871324672e+02 7.701540053308e+00 0.0 
7.701540053308e+00 -3.707649333148e+02 0.0 
0.0 0.0 -1.578656197346e+02 
-1.332024612366e+02 7.080898549844e+00 0.0 
7.080898549844e+00 -3.244528272895e+02 0.0 
0.0 0.0 -1.368965865578e+02 
-8.390926813255e+01 1.024942811868e+01 0.0 
1.024942811868e+01 -2.137183743055e+02 0.0 
0.0 0.0 -9.003946622971e+01 
-1.157635003937e+02 1.034219615579e+01 0.0 
1.034219615579e+01 -2.758653238855e+02 0.0 
0.0 0.0 -1.170886472838e+02 
-1.463513577659e+02 -1.001034930058e+00 0.0 
-1.001034930058e+00 -3.444581950594e+02 0.0 
0.0 0.0 -1.468428658476e+02 
-1.128988574864e+02 -8.567375544518e-01 0.0 
-8.567375544518e-01 -2.326950696584e+02 0.0 
0.0 0.0 -9.928817030138e+01 
-1.279458005617e+02 7.991270470556e+00 0.0 
7.991270470556e+00 -3.044378285540e+02 0.0 
0.0 0.0 -1.293150887347e+02 
-1.195367867581e+02 3.247695567598e+00 0.0 
3.247695567598e+00 -2.658997609786e+02 0.0 
0.0 0.0 -1.152309643210e+02 
-1.399973736585e+02 4.573618070236e-01 0.0 
4.573618070236e-01 -3.325600009909e+02 0.0 
0.0 0.0 -1.413672123948e+02 
-1.362193381191e+02 8.749663336971e-01 0.0 
8.749663336971e-01 -3.280251364347e+02 0.0 
0.0 0.0 -1.388733423661e+02 
-8.525690889490e+01 3.392209655813e-01 0.0 
3.392209655813e-01 -1.841411990268e+02 0.0 
0.0 0.0 -8.041943237650e+01 
-8.518108008800e+01 4.806809373646e-02 0.0 
4.806809373646e-02 -1.840689628031e+02 0.0 
0.0 0.0 -8.037501286733e+01 
-1.220920532866e+02 8.183361162192e+00 0.0 
8.183361162192e+00 -2.745136501663e+02 0.0 
0.0 0.0 -1.185817110359e+02 
-1.198983883228e+02 8.469021474526e+00 0.0 
8.469021474526e+00 -2.857651113328e+02 0.0 
0.0 0.0 -1.212990498967e+02 
-1.190411118133e+02 -3.173946251947e+00 0.0 
-3.173946251947e+00 -2.633579122199e+02 0.0 
0.0 0.0 -1.113569388924e+02 
-1.194663647882e+02 9.720055037552e+00 0.0 
9.720055037552e+00 -2.744515927280e+02 0.0 
0.0 0.0 -1.177753872549e+02 
-1.028553843417e+02 1.138265190096e+01 0.0 
1.138265190096e+01 -2.519975564237e+02 0.0 
0.0 0.0 -1.089048379954e+02 
-1.447706412103e+02 3.524165634663e+00 0.0 
3.524165634663e+00 -3.498297967755e+02 0.0 
0.0 0.0 -1.479801313957e+02 
-8.792176286350e+01 1.235942023965e+01 0.0 
1.235942023965e+01 -2.183510243351e+02 0.0 
0.0 0.0 -9.380507913177e+01 
-1.593178280691e+02 5.836385959839e+00 0.0 
5.836385959839e+00 -3.706855143904e+02 0.0 
0.0 0.0 -1.586010027379e+02 
-1.007577251391e+02 4.847873049215e+00 0.0 
4.847873049215e+00 -2.164258956546e+02 0.0 
0.0 0.0 -9.475508623812e+01 
-9.788754643843e+01 1.000512155700e+01 0.0 
1.000512155700e+01 -2.383188481774e+02 0.0 
0.0 0.0 -1.014580671744e+02 
-1.109540005905e+02 -4.026274018273e+00 0.0 
-4.026274018273e+00 -2.547644861376e+02 0.0 
0.0 0.0 -1.074344567312e+02 
-5.592648016395e+01 8.545272557174e+00 0.0 
8.545272557174e+00 -1.559549707378e+02 0.0 
0.0 0.0 -5.882100287298e+01 
-1.060655658080e+02 -6.663334765752e+00 0.0 
-6.663334765752e+00 -2.286968245160e+02 0.0 
0.0 0.0 -9.785754475830e+01 
-1.134562940349e+02 9.768938091886e+00 0.0 
9.768938091886e+00 -2.673566393364e+02 0.0 
0.0 0.0 -1.131466132420e+02 
-1.096121928184e+02 1.003384680278e+01 0.0 
1.003384680278e+01 -2.470093476063e+02 0.0 
0.0 0.0 -1.049438895766e+02 
-1.193358255354e+02 4.085874300808e+00 0.0 
4.085874300808e+00 -2.653960882576e+02 0.0 
0.0 0.0 -1.150195741379e+02 
-1.229777470836e+02 8.122014662538e+00 0.0 
8.122014662538e+00 -2.841840638160e+02 0.0 
0.0 0.0 -1.217485432699e+02 
-1.269918540448e+02 9.470513669303e+00 0.0 
9.470513669303e+00 -2.934923187240e+02 0.0 
0.0 0.0 -1.257452518306e+02 
-2.007557930465e+01 4.375602922688e-01 0.0 
4.375602922688e-01 -5.890226918316e+01 0.0 
0.0 0.0 -2.196571497923e+01 
-9.903632991774e+01 -6.428703437017e+00 0.0 
-6.428703437017e+00 -2.155991567492e+02 0.0 
0.0 0.0 -9.044173178269e+01 
-9.061039426066e+01 1.123767557281e+01 0.0 
1.123767557281e+01 -1.887209047067e+02 0.0 
0.0 0.0 -7.905880370888e+01 
-1.167118290615e+02 7.678009584989e+00 0.0 
7.678009584989e+00 -2.643952211230e+02 0.0 
0.0 0.0 -1.139321150553e+02 
-1.209123230367e+02 8.989080352557e+00 0.0 
8.989080352557e+00 -2.743389780967e+02 0.0 
0.0 0.0 -1.181753903400e+02 
-1.415186765987e+02 4.801039338024e+00 0.0 
4.801039338024e+00 -3.417912651648e+02 0.0 
0.0 0.0 -1.445929825291e+02 
-3.877859834159e+01 -1.391060382729e+00 0.0 
-1.391060382729e+00 -8.888771970563e+01 0.0 
0.0 0.0 -3.607676174119e+01 
-4.845799971015e+01 -9.580604070287e+00 0.0 
-9.580604070287e+00 -1.392483878136e+02 0.0 
0.0 0.0 -5.317306850486e+01 
-1.048317137617e+02 1.207723596692e+01 0.0 
1.207723596692e+01 -2.403136953000e+02 0.0 
0.0 0.0 -1.025704050346e+02 
-1.031579436163e+02 -6.760358456635e+00 0.0 
-6.760358456635e+00 -2.164077540048e+02 0.0 
0.0 0.0 -9.227536836179e+01 
-8.589012537014e+01 5.268910753143e+00 0.0 
5.268910753143e+00 -1.705845424583e+02 0.0 
0.0 0.0 -7.487582448294e+01 
-8.901171837431e+01 5.086945000705e+00 0.0 
5.086945000705e+00 -1.803020242661e+02 0.0 
0.0 0.0 -7.943272460653e+01 
-1.200523222195e+02 5.862946685857e+00 0.0 
5.862946685857e+00 -2.659993019974e+02 0.0 
0.0 0.0 -1.154154872651e+02 
-4.651402240932e+01 2.061599976409e+01 0.0 
2.061599976409e+01 -1.138076875251e+02 0.0 
0.0 0.0 -4.172988617910e+01 
-1.091513669571e+02 -4.665694111282e+00 0.0 
-4.665694111282e+00 -2.430798931672e+02 0.0 
0.0 0.0 -1.024378419649e+02 
-1.268167485639e+02 3.930436746043e+00 0.0 
3.930436746043e+00 -3.142345356647e+02 0.0 
0.0 0.0 -1.319153852686e+02 
-4.524505527773e+01 -2.711765309175e+00 0.0 
-2.711765309175e+00 -1.417067496370e+02 0.0 
0.0 0.0 -5.445818143441e+01 
-1.568216911841e+02 8.504445454827e+00 0.0 
8.504445454827e+00 -3.684476278699e+02 0.0 
0.0 0.0 -1.571807957162e+02 
-1.390516168342e+02 5.307337765087e+00 0.0 
5.307337765087e+00 -3.161853113865e+02 0.0 
0.0 0.0 -1.361710784662e+02 
-1.105492785039e+02 -4.351008756229e+00 0.0 
-4.351008756229e+00 -2.318274445459e+02 0.0 
0.0 0.0 -9.752122141568e+01 
-1.346055435126e+02 -1.344471767804e+00 0.0 
-1.344471767804e+00 -3.205502877396e+02 0.0 
0.0 0.0 -1.361467493757e+02 
-1.458801999240e+01 -5.061101874617e-01 0.0 
-5.061101874617e-01 -4.213345107488e+01 0.0 
0.0 0.0 -1.488908946457e+01 
-1.223105204492e+02 2.832003339222e+00 0.0 
2.832003339222e+00 -3.046761708355e+02 0.0 
0.0 0.0 -1.283827997201e+02 
-1.045945566255e+02 1.004673613383e+01 0.0 
1.004673613383e+01 -2.479983411046e+02 0.0 
0.0 0.0 -1.050287594629e+02 
-1.490497090613e+01 -2.622531274691e-01 0.0 
-2.622531274691e-01 -4.198411646739e+01 0.0 
0.0 0.0 -1.474797082745e+01 
-1.384033601578e+02 3.699219914113e+00 0.0 
3.699219914113e+00 -3.157038142669e+02 0.0 
0.0 0.0 -1.358321523274e+02 
-4.242859984961e+01 -4.213428006230e+00 0.0 
-4.213428006230e+00 -1.359450231139e+02 0.0 
0.0 0.0 -5.261468093548e+01 
-1.164249296882e+02 9.479045079927e+00 0.0 
9.479045079927e+00 -2.646677033721e+02 0.0 
0.0 0.0 -1.139277899181e+02 
-1.066041546032e+02 1.025140214099e+01 0.0 
1.025140214099e+01 -2.470336244489e+02 0.0 
0.0 0.0 -1.053740224138e+02 
-9.130751404991e+01 -4.122886520398e+00 0.0 
-4.122886520398e+00 -2.351488776026e+02 0.0 
0.0 0.0 -1.015488967770e+02 
-1.090608719985e+02 -1.373427204961e+00 0.0 
-1.373427204961e+00 -2.732331547682e+02 0.0 
0.0 0.0 -1.155907986153e+02 
-1.418481891388e+02 4.217461487127e+00 0.0 
4.217461487127e+00 -3.249976171351e+02 0.0 
0.0 0.0 -1.396537418822e+02 
-1.171071794625e+02 -8.360795076590e-01 0.0 
-8.360795076590e-01 -2.920931465690e+02 0.0 
0.0 0.0 -1.223600978095e+02 
-1.060502168760e+02 1.165239393297e+01 0.0 
1.165239393297e+01 -2.504211842773e+02 0.0 
0.0 0.0 -1.071098984169e+02 
-1.012187356375e+02 1.016975702756e+01 0.0 
1.016975702756e+01 -2.389325737210e+02 0.0 
0.0 0.0 -1.003977109317e+02 
-3.478829405010e+01 1.710943403856e+01 0.0 
1.710943403856e+01 -2.695490376700e+01 0.0 
0.0 0.0 -1.525596847295e+01 
-3.766728762534e+01 -3.759912805544e+00 0.0 
-3.759912805544e+00 -1.316942230455e+02 0.0 
0.0 0.0 -5.116758173174e+01 
-1.356257448092e+02 9.104743102204e+00 0.0 
9.104743102204e+00 -3.230610966590e+02 0.0 
0.0 0.0 -1.372060524405e+02 
-1.121808949959e+02 6.622924533915e+00 0.0 
6.622924533915e+00 -2.459241286207e+02 0.0 
0.0 0.0 -1.070315070850e+02 
-1.395056256174e+02 7.430913488451e+00 0.0 
7.430913488451e+00 -3.323129936268e+02 0.0 
0.0 0.0 -1.411455857733e+02 
-6.760217531089e+01 1.896766874951e+01 0.0 
1.896766874951e+01 -1.547258325944e+02 0.0 
0.0 0.0 -6.419460485205e+01 
-1.332890235657e+02 6.099370114493e+00 0.0 
6.099370114493e+00 -3.038165657416e+02 0.0 
0.0 0.0 -1.307316767922e+02 
-1.406614416802e+02 9.278595901318e+00 0.0 
9.278595901318e+00 -3.327601442870e+02 0.0 
0.0 0.0 -1.416264757901e+02 
-9.110232149711e+01 3.947521705253e+00 0.0 
3.947521705253e+00 -1.883356491953e+02 0.0 
0.0 0.0 -8.265506678755e+01 
-1.360472736801e+02 7.747178347329e+00 0.0 
7.747178347329e+00 -3.229000574598e+02 0.0 
0.0 0.0 -1.372841993420e+02 
-1.354712171827e+02 2.059708399221e-01 0.0 
2.059708399221e-01 -3.212681499915e+02 0.0 
0.0 0.0 -1.366218101523e+02 
-1.150841084001e+02 8.703830383151e+00 0.0 
8.703830383151e+00 -2.769105151081e+02 0.0 
0.0 0.0 -1.171450262331e+02 
-1.055223993573e+02 -5.175643562865e+00 0.0 
-5.175643562865e+00 -2.353278608409e+02 0.0 
0.0 0.0 -9.855650208046e+01 
-1.123964667871e+02 -5.062091112435e+00 0.0 
-5.062091112435e+00 -2.481708524664e+02 0.0 
0.0 0.0 -1.052215661153e+02 
-1.461922388296e+02 7.271629986992e+00 0.0 
7.271629986992e+00 -3.354223047898e+02 0.0 
0.0 0.0 -1.440843630858e+02 
-1.029925435572e+02 -1.919925714676e+00 0.0 
-1.919925714676e+00 -2.537943098083e+02 0.0 
0.0 0.0 -1.091791420284e+02 
-1.116806414924e+02 1.019607741037e+01 0.0 
1.019607741037e+01 -2.573214499423e+02 0.0 
0.0 0.0 -1.090737453492e+02 
-9.967904884685e+01 9.383264708997e+00 0.0 
9.383264708997e+00 -2.532025355363e+02 0.0 
0.0 0.0 -1.099930331284e+02 
-1.261208800249e+02 -6.844700055190e-02 0.0 
-6.844700055190e-02 -3.111340656355e+02 0.0 
0.0 0.0 -1.307764836981e+02 
-9.316370330368e+01 1.058501015595e+01 0.0 
1.058501015595e+01 -2.286126621405e+02 0.0 
0.0 0.0 -9.789289839903e+01 
-6.321582442049e+01 3.071584651820e+00 0.0 
3.071584651820e+00 -1.746241346147e+02 0.0 
0.0 0.0 -6.802149400822e+01 
-9.867619114398e+01 3.889519464885e-01 0.0 
3.889519464885e-01 -2.573334498684e+02 0.0 
0.0 0.0 -1.127221610827e+02 
-6.765635432960e+01 7.010106427473e+00 0.0 
7.010106427473e+00 -1.818583303687e+02 0.0 
0.0 0.0 -7.196975648322e+01 
-1.198109500485e+02 7.941774719838e+00 0.0 
7.941774719838e+00 -2.742348126829e+02 0.0 
0.0 0.0 -1.178137288194e+02 
-6.638152429728e+01 3.246117410614e+00 0.0 
3.246117410614e+00 -1.800123353925e+02 0.0 
0.0 0.0 -7.057561030167e+01 
-1.148718915437e+02 1.024580037182e+01 0.0 
1.024580037182e+01 -2.651733931623e+02 0.0 
0.0 0.0 -1.136135854118e+02 
-1.374396256084e+02 6.660524516959e+00 0.0 
6.660524516959e+00 -3.336337782706e+02 0.0 
0.0 0.0 -1.409220211637e+02 
-1.322072899025e+02 4.664918921112e+00 0.0 
4.664918921112e+00 -3.236689890519e+02 0.0 
0.0 0.0 -1.363628836863e+02 
-9.265983763115e+01 1.295958724666e+01 0.0 
1.295958724666e+01 -2.261716167516e+02 0.0 
0.0 0.0 -9.841980448406e+01 
-1.155145250547e+02 4.343841732847e+00 0.0 
4.343841732847e+00 -2.553885659595e+02 0.0 
0.0 0.0 -1.108709273043e+02 
-1.386925762071e+02 -1.242526141768e+00 0.0 
-1.242526141768e+00 -3.285647251120e+02 0.0 
0.0 0.0 -1.397771903957e+02 
-1.394442831776e+02 3.276980795473e-01 0.0 
3.276980795473e-01 -3.292442167612e+02 0.0 
0.0 0.0 -1.402065499816e+02 
-4.318575816513e+01 2.433949279732e+01 0.0 
2.433949279732e+01 -9.714994431745e+01 0.0 
0.0 0.0 -3.818442898191e+01 
-1.185017206253e+02 8.556975542010e+00 0.0 
8.556975542010e+00 -2.750142603444e+02 0.0 
0.0 0.0 -1.176547942909e+02 
-1.518600669766e+02 -1.153524326602e+00 0.0 
-1.153524326602e+00 -3.572021016322e+02 0.0 
0.0 0.0 -1.523186505826e+02 
-7.356693473530e+01 8.278455416946e+00 0.0 
8.278455416946e+00 -1.386384427885e+02 0.0 
0.0 0.0 -5.895722628818e+01 
-1.165949755109e+02 -3.409600972505e+00 0.0 
-3.409600972505e+00 -2.514860233135e+02 0.0 
0.0 0.0 -1.063633981963e+02 
-4.474831620003e+01 2.193041293798e+01 0.0 
2.193041293798e+01 -3.355117811983e+01 0.0 
0.0 0.0 -2.104961584885e+01 
-1.427087394897e+02 -1.135605732568e+00 0.0 
-1.135605732568e+00 -3.366470809281e+02 0.0 
0.0 0.0 -1.434067461253e+02 
-6.069429392295e+01 7.898398451348e+00 0.0 
7.898398451348e+00 -1.680452145943e+02 0.0 
0.0 0.0 -6.529800944655e+01 
-1.145154277871e+02 -1.747578257073e+00 0.0 
-1.747578257073e+00 -2.386710651295e+02 0.0 
0.0 0.0 -1.019436587966e+02 
-1.198649419452e+02 6.236607934080e+00 0.0 
6.236607934080e+00 -2.959159920284e+02 0.0 
0.0 0.0 -1.248816093570e+02 
-1.162377344017e+02 6.147899060679e+00 0.0 
6.147899060679e+00 -2.560312956603e+02 0.0 
0.0 0.0 -1.112807090186e+02 
-1.118287057543e+02 4.716018701427e+00 0.0 
4.716018701427e+00 -2.454190200051e+02 0.0 
0.0 0.0 -1.067743177278e+02 
-1.100042118313e+02 1.072342343914e+01 0.0 
1.072342343914e+01 -2.588653921996e+02 0.0 
0.0 0.0 -1.093516844718e+02 
-7.917979315186e+01 5.443889095114e+00 0.0 
5.443889095114e+00 -1.514799813655e+02 0.0 
0.0 0.0 -6.567991000593e+01 
-8.260195671310e+01 5.107868431343e+00 0.0 
5.107868431343e+00 -1.611589585360e+02 0.0 
0.0 0.0 -7.041949578740e+01 
-1.432952694897e+02 3.887252566121e-01 0.0 
3.887252566121e-01 -3.372536966958e+02 0.0 
0.0 0.0 -1.437646898556e+02 
-1.142577784431e+02 4.773468423658e-01 0.0 
4.773468423658e-01 -2.847303826576e+02 0.0 
0.0 0.0 -1.217282993963e+02 
-9.694250126085e+01 -2.302130798020e+00 0.0 
-2.302130798020e+00 -2.522512818417e+02 0.0 
0.0 0.0 -1.091326672593e+02 
-1.211659819976e+02 1.680325662524e+00 0.0 
1.680325662524e+00 -3.039839348000e+02 0.0 
0.0 0.0 -1.274657291695e+02 
-9.159245931365e+01 -3.233160729463e-02 0.0 
-3.233160729463e-02 -2.394555052015e+02 0.0 
0.0 0.0 -1.040994837694e+02 
-6.288935995084e+01 7.598766013977e+00 0.0 
7.598766013977e+00 -1.705951240681e+02 0.0 
0.0 0.0 -6.587556380456e+01 
-7.749023167912e+01 3.264260109919e+00 0.0 
3.264260109919e+00 -1.510712617388e+02 0.0 
0.0 0.0 -6.574986046208e+01 
-1.049040218579e+02 6.143257818382e+00 0.0 
6.143257818382e+00 -2.266643125023e+02 0.0 
0.0 0.0 -9.907050030804e+01 
-8.542473949217e+01 2.136708210606e-01 0.0 
2.136708210606e-01 -1.844118677898e+02 0.0 
0.0 0.0 -8.055098218459e+01 
-1.321317752211e+02 6.116130368586e+00 0.0 
6.116130368586e+00 -3.239312227964e+02 0.0 
0.0 0.0 -1.364188994052e+02 
-8.831117671334e+01 1.084139713540e+01 0.0 
1.084139713540e+01 -2.205321438165e+02 0.0 
0.0 0.0 -9.437583597537e+01 
-1.519479797090e+02 5.809662916033e+00 0.0 
5.809662916033e+00 -3.614021377420e+02 0.0 
0.0 0.0 -1.536050352353e+02 
-1.415823467531e+02 -1.160761227246e+00 0.0 
-1.160761227246e+00 -3.314863826815e+02 0.0 
0.0 0.0 -1.415206188304e+02 
-9.532699327551e+01 1.822699138753e+00 0.0 
1.822699138753e+00 -2.517820438621e+02 0.0 
0.0 0.0 -1.092373886581e+02 
-1.568307918816e+02 8.155459777027e-01 0.0 
8.155459777027e-01 -3.687021972033e+02 0.0 
0.0 0.0 -1.572598967255e+02 
-7.043088667236e+01 -6.462558116993e-01 0.0 
-6.462558116993e-01 -1.881265912270e+02 0.0 
0.0 0.0 -7.536207183344e+01 
-1.473457979729e+02 6.100899792942e+00 0.0 
6.100899792942e+00 -3.519725573871e+02 0.0 
0.0 0.0 -1.493955066080e+02 
-1.064057704998e+02 9.797479258810e+00 0.0 
9.797479258810e+00 -2.579225531457e+02 0.0 
0.0 0.0 -1.088984970936e+02 
-1.178924924233e+02 7.962664613502e+00 0.0 
7.962664613502e+00 -2.860829145946e+02 0.0 
0.0 0.0 -1.207926221054e+02 
-1.410553174144e+02 3.846122886386e+00 0.0 
3.846122886386e+00 -3.422871134956e+02 0.0 
0.0 0.0 -1.446027292730e+02 
-8.558428596373e+01 -1.227371881563e+01 0.0 
-1.227371881563e+01 -1.814620425873e+02 0.0 
0.0 0.0 -7.836474755299e+01 
-1.148159538399e+02 9.322458496915e+00 0.0 
9.322458496915e+00 -2.661176894492e+02 0.0 
0.0 0.0 -1.134605282516e+02 
-9.289684892612e+01 -1.009688987682e+00 0.0 
-1.009688987682e+00 -2.439857700035e+02 0.0 
0.0 0.0 -1.054526404858e+02 
-1.104390775114e+02 1.031340641170e+01 0.0 
1.031340641170e+01 -2.560865241182e+02 0.0 
0.0 0.0 -1.095576804889e+02 
-6.744244270535e+01 1.723414263623e+01 0.0 
1.723414263623e+01 -1.561426827666e+02 0.0 
0.0 0.0 -6.381285066648e+01 
-1.211844522296e+02 7.213593486370e+00 0.0 
7.213593486370e+00 -2.954178678372e+02 0.0 
0.0 0.0 -1.245806960200e+02 
-8.841505009005e+01 -2.446453290477e+00 0.0 
-2.446453290477e+00 -2.294274822996e+02 0.0 
0.0 0.0 -9.913774671952e+01 
-1.143574212545e+02 -3.630207342951e+00 0.0 
-3.630207342951e+00 -2.624715042257e+02 0.0 
0.0 0.0 -1.110342304719e+02 
-1.125490062457e+02 9.352411184626e+00 0.0 
9.352411184626e+00 -2.559309091766e+02 0.0 
0.0 0.0 -1.093618460073e+02 
-4.505987181424e+01 3.327046925073e+01 0.0 
3.327046925073e+01 -5.988431487194e+01 0.0 
0.0 0.0 -3.043965904470e+01 
-1.058336957414e+02 6.950772772271e+00 0.0 
6.950772772271e+00 -2.690775306429e+02 0.0 
0.0 0.0 -1.168557082800e+02 
-4.651169544620e+01 2.428800654796e+01 0.0 
2.428800654796e+01 -5.840476227270e+01 0.0 
0.0 0.0 -2.765010284925e+01 
-2.664062398177e+01 -3.968256646610e+00 0.0 
-3.968256646610e+00 -6.330531883242e+01 0.0 
0.0 0.0 -2.413815858940e+01 
-1.125670732483e+02 -4.140441525117e+00 0.0 
-4.140441525117e+00 -2.507030106450e+02 0.0 
0.0 0.0 -1.060783289942e+02 
-1.336017777153e+02 9.582512124216e+00 0.0 
9.582512124216e+00 -3.131920527395e+02 0.0 
0.0 0.0 -1.336381491365e+02 
-1.150251838024e+02 5.286418131102e+00 0.0 
5.286418131102e+00 -2.546186105600e+02 0.0 
0.0 0.0 -1.104931383087e+02 
-7.154212794221e+01 6.274593425096e+00 0.0 
6.274593425096e+00 -1.322421318782e+02 0.0 
0.0 0.0 -5.581130520853e+01 
-1.583929142896e+02 5.710514005509e+00 0.0 
5.710514005509e+00 -3.709168000090e+02 0.0 
0.0 0.0 -1.583929142896e+02 
-5.157124794803e+01 3.368476251706e+01 0.0 
3.368476251706e+01 -3.270338335781e+01 0.0 
0.0 0.0 -2.570669289990e+01 
-7.526558541000e+01 5.524510741271e+00 0.0 
5.524510741271e+00 -1.419870393569e+02 0.0 
0.0 0.0 -6.089934820261e+01 
-1.006466299282e+02 -7.328489362448e-01 0.0 
-7.328489362448e-01 -2.558040674146e+02 0.0 
0.0 0.0 -1.114328121415e+02 
-1.137801978537e+02 -3.365271124807e+00 0.0 
-3.365271124807e+00 -2.396836071359e+02 0.0 
0.0 0.0 -1.014315029625e+02 
-8.959021257233e+01 7.228072178559e+00 0.0 
7.228072178559e+00 -1.789318602291e+02 0.0 
0.0 0.0 -7.734101422667e+01 
-7.331210131343e+01 -7.488283190683e+00 0.0 
-7.488283190683e+00 -1.890983664828e+02 0.0 
0.0 0.0 -7.790760021000e+01 
-1.080487785092e+02 -2.322005357652e+00 0.0 
-2.322005357652e+00 -2.672655590232e+02 0.0 
0.0 0.0 -1.156105249015e+02 
-1.111869595608e+02 1.037202500334e+01 0.0 
1.037202500334e+01 -2.670853745589e+02 0.0 
0.0 0.0 -1.130817002359e+02 
-1.143344645735e+02 5.999187233636e+00 0.0 
5.999187233636e+00 -2.869805477451e+02 0.0 
0.0 0.0 -1.223079668409e+02 
-1.388881335606e+02 7.359129761620e+00 0.0 
7.359129761620e+00 -3.219690802005e+02 0.0 
0.0 0.0 -1.378571641283e+02 
-4.785715393413e+01 2.288275893899e+01 0.0 
2.288275893899e+01 -1.182827450147e+02 0.0 
0.0 0.0 -4.655902922279e+01 
-1.069053900328e+02 -5.061627556197e+00 0.0 
-5.061627556197e+00 -2.311619218696e+02 0.0 
0.0 0.0 -9.734899352804e+01 
-1.137985727665e+02 -3.760592776300e+00 0.0 
-3.760592776300e+00 -2.469906801164e+02 0.0 
0.0 0.0 -1.048749336528e+02 
-6.697450568366e+01 -1.076400104315e+01 0.0 
-1.076400104315e+01 -1.335576731048e+02 0.0 
0.0 0.0 -5.662667141530e+01 
-9.383976454579e+01 3.760389455385e+00 0.0 
3.760389455385e+00 -1.976572233329e+02 0.0 
0.0 0.0 -8.683055304421e+01 
-1.154884046528e+02 7.122069666027e+00 0.0 
7.122069666027e+00 -2.551836987961e+02 0.0 
0.0 0.0 -1.108016310347e+02 
-1.320106417749e+02 6.223395925133e-01 0.0 
6.223395925133e-01 -3.023358125659e+02 0.0 
0.0 0.0 -1.291578462800e+02 
-1.756311263809e+01 1.742178963245e-02 0.0 
1.742178963245e-02 -4.253475226649e+01 0.0 
0.0 0.0 -1.498885157783e+01 
-4.654565190531e+01 -7.698652465139e+00 0.0 
-7.698652465139e+00 -1.184517208026e+02 0.0 
0.0 0.0 -5.087760312118e+01 
-4.641018204710e+01 -8.585134108376e+00 0.0 
-8.585134108376e+00 -9.108286181668e+01 0.0 
0.0 0.0 -3.748908214439e+01 
-1.167991446122e+02 -2.459740137182e+00 0.0 
-2.459740137182e+00 -2.476988054060e+02 0.0 
0.0 0.0 -1.052345731217e+02 
-7.665730554521e+01 -2.053958529293e-01 0.0 
-2.053958529293e-01 -2.029708315235e+02 0.0 
0.0 0.0 -8.304786909264e+01 
-7.214698724914e+01 -7.834087327936e+00 0.0 
-7.834087327936e+00 -1.859282331128e+02 0.0 
0.0 0.0 -7.667215490932e+01 
-6.349833593934e+01 -1.288820909193e+00 0.0 
-1.288820909193e+00 -1.739008615128e+02 0.0 
0.0 0.0 -6.811073960336e+01 
-1.158913385237e+02 -3.585884220071e+00 0.0 
-3.585884220071e+00 -2.585245781653e+02 0.0 
0.0 0.0 -1.096938682827e+02 
-1.216970822822e+02 6.293026333696e+00 0.0 
6.293026333696e+00 -2.738191000801e+02 0.0 
0.0 0.0 -1.182548547087e+02 
-1.170513702239e+02 -3.096758549127e+00 0.0 
-3.096758549127e+00 -2.551100243580e+02 0.0 
0.0 0.0 -1.085655219759e+02 
-7.664332655640e+01 2.645792852983e+00 0.0 
2.645792852983e+00 -2.034410676886e+02 0.0 
0.0 0.0 -8.292781654445e+01 
-1.176487390688e+02 1.028610560766e+01 0.0 
1.028610560766e+01 -2.749736939821e+02 0.0 
0.0 0.0 -1.173867299153e+02 
-1.003801275258e+02 2.122577078313e+00 0.0 
2.122577078313e+00 -2.165451358630e+02 0.0 
0.0 0.0 -9.467757901666e+01 
-1.293690436568e+02 5.956252033570e+00 0.0 
5.956252033570e+00 -3.150059907632e+02 0.0 
0.0 0.0 -1.329125103260e+02 
-1.196264158677e+02 -1.606476755111e+00 0.0 
-1.606476755111e+00 -2.558409032724e+02 0.0 
0.0 0.0 -1.089706230794e+02 
-1.195559773625e+02 -2.530089274733e+00 0.0 
-2.530089274733e+00 -2.593097998273e+02 0.0 
0.0 0.0 -1.100742327392e+02 
-6.309620411475e+01 7.948591179013e+00 0.0 
7.948591179013e+00 -1.118056302241e+02 0.0 
0.0 0.0 -4.758440883362e+01 
-8.019999316587e+01 -3.091338603620e+00 0.0 
-3.091338603620e+00 -2.100282003471e+02 0.0 
0.0 0.0 -8.798494154813e+01 
-1.201335377785e+02 -2.428428201655e+00 0.0 
-2.428428201655e+00 -2.632745502070e+02 0.0 
0.0 0.0 -1.122263761993e+02 
-1.145139110675e+02 -5.085098803069e-01 0.0 
-5.085098803069e-01 -2.556317304319e+02 0.0 
0.0 0.0 -1.106436924498e+02 
-1.071443676320e+02 -5.898392457754e-01 0.0 
-5.898392457754e-01 -2.373505199849e+02 0.0 
0.0 0.0 -1.029484662851e+02 
-6.736544397953e+01 6.813543675650e+00 0.0 
6.813543675650e+00 -1.223728775893e+02 0.0 
0.0 0.0 -5.097686731772e+01 
-1.191556648819e+02 -3.016512207861e+00 0.0 
-3.016512207861e+00 -2.665316649524e+02 0.0 
0.0 0.0 -1.133251002272e+02 
-7.473134764987e+01 -1.308355143309e+01 0.0 
-1.308355143309e+01 -1.804908175982e+02 0.0 
0.0 0.0 -7.652083516729e+01 
-4.940011227350e+01 2.188918291972e+01 0.0 
2.188918291972e+01 -8.139999654383e+01 0.0 
0.0 0.0 -3.485214063618e+01 
-1.478176758713e+02 7.549227577811e+00 0.0 
7.549227577811e+00 -3.526398794280e+02 0.0 
0.0 0.0 -1.497372665898e+02 
-4.837396459717e+01 -1.122076393481e+01 0.0 
-1.122076393481e+01 -8.551832664767e+01 0.0 
0.0 0.0 -3.639087661925e+01 
-7.389275522981e+01 -1.138213123416e+01 0.0 
-1.138213123416e+01 -1.799702538403e+02 0.0 
0.0 0.0 -7.599115129191e+01 
-1.014687760951e+02 8.554033275083e+00 0.0 
8.554033275083e+00 -2.576981651995e+02 0.0 
0.0 0.0 -1.101757506318e+02 
-6.994848809737e+01 3.851531110898e+00 0.0 
3.851531110898e+00 -1.319872974397e+02 0.0 
0.0 0.0 -5.627505131426e+01 
-1.223674273018e+02 -8.150481264085e-01 0.0 
-8.150481264085e-01 -2.642467011843e+02 0.0 
0.0 0.0 -1.127448829377e+02 
-6.044456820623e+01 5.616144834748e-01 0.0 
5.616144834748e-01 -1.203063745379e+02 0.0 
0.0 0.0 -5.031245671686e+01 
-9.751568535347e+01 5.513768081392e+00 0.0 
5.513768081392e+00 -2.056903913985e+02 0.0 
0.0 0.0 -9.056075507779e+01 
-1.223326849460e+02 -1.729262797614e+00 0.0 
-1.729262797614e+00 -2.673009906400e+02 0.0 
0.0 0.0 -1.137419921211e+02 
-9.557218314648e+01 -5.303014360367e+00 0.0 
-5.303014360367e+00 -2.422168500335e+02 0.0 
0.0 0.0 -1.048095296822e+02 
-1.134366762203e+02 -4.354859684712e+00 0.0 
-4.354859684712e+00 -2.438529584954e+02 0.0 
0.0 0.0 -1.025670102658e+02 
-3.698603430817e+01 3.119314669006e+01 0.0 
3.119314669006e+01 -8.580472350804e+01 0.0 
0.0 0.0 -3.867119296894e+01 
-1.369754255470e+02 1.152811237208e+00 0.0 
1.152811237208e+00 -3.135984274341e+02 0.0 
0.0 0.0 -1.347721558943e+02 
-8.300356624600e+01 -8.834453553340e+00 0.0 
-8.834453553340e+00 -2.081619437033e+02 0.0 
0.0 0.0 -8.927798447497e+01 
-1.408959512067e+02 3.788852491865e+00 0.0 
3.788852491865e+00 -3.424218817078e+02 0.0 
0.0 0.0 -1.445953498743e+02 
-1.166953967648e+02 9.301888158658e+00 0.0 
9.301888158658e+00 -2.859339381609e+02 0.0 
0.0 0.0 -1.203888004777e+02 
-1.223079653519e+02 -2.469052068425e+00 0.0 
-2.469052068425e+00 -2.746328208687e+02 0.0 
0.0 0.0 -1.169572005413e+02 
-1.249612446477e+02 -1.044770854930e+00 0.0 
-1.044770854930e+00 -2.753663299676e+02 0.0 
0.0 0.0 -1.173776110029e+02 
-7.303056367174e+01 -8.377025346570e-01 0.0 
-8.377025346570e-01 -1.945053278360e+02 0.0 
0.0 0.0 -7.883842279220e+01 
-4.077584455281e+01 -1.007974411435e+01 0.0 
-1.007974411435e+01 -5.921148371174e+01 0.0 
0.0 0.0 -2.585661280351e+01 
-3.674254442454e+01 3.071513538417e+01 0.0 
3.071513538417e+01 -8.345276710616e+01 0.0 
0.0 0.0 -3.722007940458e+01 
-1.253220318442e+02 -1.950496880265e+00 0.0 
-1.950496880265e+00 -2.828740059165e+02 0.0 
0.0 0.0 -1.206332761985e+02 
-1.404165701230e+02 2.677405643797e+00 0.0 
2.677405643797e+00 -3.420735625275e+02 0.0 
0.0 0.0 -1.443470397951e+02 
-7.571608086178e+01 -1.588196852927e+01 0.0 
-1.588196852927e+01 -1.705546394899e+02 0.0 
0.0 0.0 -7.320682826971e+01 
-1.215789897536e+02 8.465352844029e+00 0.0 
8.465352844029e+00 -2.849403214558e+02 0.0 
0.0 0.0 -1.215557933628e+02 
-6.868521585953e+01 9.775413754967e+00 0.0 
9.775413754967e+00 -1.274746683783e+02 0.0 
0.0 0.0 -5.510673860970e+01 
-1.224725038462e+02 9.865880889535e+00 0.0 
9.865880889535e+00 -2.843188213942e+02 0.0 
0.0 0.0 -1.216373975721e+02 
-1.593212006137e+02 1.413685046586e+00 0.0 
1.413685046586e+00 -3.791528739959e+02 0.0 
0.0 0.0 -1.611422223829e+02 
-1.253588202790e+02 -1.025367074043e+00 0.0 
-1.025367074043e+00 -1.032715377950e+02 0.0 
0.0 0.0 -6.886597843264e+01 
-1.565676484536e+02 8.201218366009e-01 0.0 
8.201218366009e-01 -3.666578463918e+02 0.0 
0.0 0.0 -1.565676484536e+02 
-1.684516886145e+02 -8.263586205331e-02 0.0 
-8.263586205331e-02 -3.943872734338e+02 0.0 
0.0 0.0 -1.684516886145e+02 
-9.406042420405e+01 8.250432133705e-01 0.0 
8.250432133705e-01 -2.054874533926e+02 0.0 
0.0 0.0 -8.946436327900e+01 
-8.469740358391e+01 -1.287933985157e+01 0.0 
-1.287933985157e+01 -2.013584586344e+02 0.0 
0.0 0.0 -8.677246311263e+01 
-1.136451029621e+02 9.909740425943e+00 0.0 
9.909740425943e+00 -2.766280729349e+02 0.0 
0.0 0.0 -1.166819527691e+02 
-7.315905035548e+01 3.218900204293e+00 0.0 
3.218900204293e+00 -1.948419564457e+02 0.0 
0.0 0.0 -7.847679336178e+01 
-2.189792168918e+01 3.801888025082e-01 0.0 
3.801888025082e-01 -5.510257143026e+01 0.0 
0.0 0.0 -2.120837403824e+01 
-5.157085559309e+01 2.851646633099e+01 0.0 
2.851646633099e+01 -3.091834157581e+01 0.0 
0.0 0.0 -2.337843497381e+01 
-1.439995731739e+02 2.761498636504e+00 0.0 
2.761498636504e+00 -3.309516813490e+02 0.0 
0.0 0.0 -1.420853763569e+02 
-1.188820243033e+02 7.713157857874e+00 0.0 
7.713157857874e+00 -2.649633784854e+02 0.0 
0.0 0.0 -1.147536208366e+02 
-9.223511791867e+01 5.200596717993e+00 0.0 
5.200596717993e+00 -1.910242530748e+02 0.0 
0.0 0.0 -8.418423182213e+01 
-1.642880908865e+02 8.784525858728e+00 0.0 
8.784525858728e+00 -3.857446830325e+02 0.0 
0.0 0.0 -1.646098321757e+02 
-4.592255695167e+01 6.889751913624e-01 0.0 
6.889751913624e-01 -1.001400995295e+02 0.0 
0.0 0.0 -4.114903138499e+01 
-1.643516281031e+02 8.455324081000e+00 0.0 
8.455324081000e+00 -3.868374774492e+02 0.0 
0.0 0.0 -1.649567316657e+02 
-1.184309246862e+02 5.807774091390e+00 0.0 
5.807774091390e+00 -2.643067058887e+02 0.0 
0.0 0.0 -1.144212891725e+02 
-8.842477901622e+01 -1.246756647871e+01 0.0 
-1.246756647871e+01 -1.947160711754e+02 0.0 
0.0 0.0 -8.436221529219e+01 
-1.113115981750e+02 9.639823977801e+00 0.0 
9.639823977801e+00 -2.683378781882e+02 0.0 
0.0 0.0 -1.137235283310e+02 
-7.940434744889e+01 -1.096037425554e+01 0.0 
-1.096037425554e+01 -1.864971640546e+02 0.0 
0.0 0.0 -7.908836437990e+01 
-5.065652802086e+01 1.902213491283e+01 0.0 
1.902213491283e+01 -8.492923989717e+01 0.0 
0.0 0.0 -3.693456518141e+01 
-7.687195924343e+01 -1.200161784508e+01 0.0 
-1.200161784508e+01 -1.738656698902e+02 0.0 
0.0 0.0 -7.369957108940e+01 
-1.249835337088e+02 6.705925213265e+00 0.0 
6.705925213265e+00 -2.834342944586e+02 0.0 
0.0 0.0 -1.221253484502e+02 
-1.463314960984e+02 6.099107761521e-01 0.0 
6.099107761521e-01 -3.425009803353e+02 0.0 
0.0 0.0 -1.462497429301e+02 
-7.685657997742e+01 -8.952530220581e+00 0.0 
-8.952530220581e+00 -1.921255190053e+02 0.0 
0.0 0.0 -8.119100819870e+01 
-1.261457639300e+02 8.159877950030e+00 0.0 
8.159877950030e+00 -2.940341431495e+02 0.0 
0.0 0.0 -1.256539721239e+02 
-7.703004122467e+01 -2.451479722592e+00 0.0 
-2.451479722592e+00 -1.129529427841e+02 0.0 
0.0 0.0 -5.749615072586e+01 
-7.634625040021e+01 -4.039599436358e+00 0.0 
-4.039599436358e+00 -1.994675458414e+02 0.0 
0.0 0.0 -8.202676870454e+01 
-1.305314695126e+02 7.505554471639e+00 0.0 
7.505554471639e+00 -2.949435583973e+02 0.0 
0.0 0.0 -1.272425083730e+02 
-7.841976483110e+01 -1.110381903180e+01 0.0 
-1.110381903180e+01 -1.674176393237e+02 0.0 
0.0 0.0 -7.069764488521e+01 
-7.291260466557e+01 -1.601287651271e+01 0.0 
-1.601287651271e+01 -1.558635301717e+02 0.0 
0.0 0.0 -6.713733647444e+01 
-1.089149483477e+02 9.731759371753e+00 0.0 
9.731759371753e+00 -2.676799688921e+02 0.0 
0.0 0.0 -1.125784751719e+02 
-4.717955033400e+01 -1.779488791266e+01 0.0 
-1.779488791266e+01 -1.092800260574e+02 0.0 
0.0 0.0 -4.029285627264e+01 
-5.378992975366e+01 9.202158810787e+00 0.0 
9.202158810787e+00 -9.084197475679e+01 0.0 
0.0 0.0 -3.959412484228e+01 
-5.853947631815e+01 8.490186299855e+00 0.0 
8.490186299855e+00 -1.025400224582e+02 0.0 
0.0 0.0 -4.363811088749e+01 
-7.025278237504e+01 -1.243243422508e+01 0.0 
-1.243243422508e+01 -1.473101416625e+02 0.0 
0.0 0.0 -6.212802926389e+01 
-1.028165378524e+02 -2.426386038564e+00 0.0 
-2.426386038564e+00 -2.594150990625e+02 0.0 
0.0 0.0 -1.125546219333e+02 
-9.838485309623e+01 1.136286242673e+01 0.0 
1.136286242673e+01 -2.438890928707e+02 0.0 
0.0 0.0 -1.058816848011e+02 
-1.256005141684e+02 9.856161972111e+00 0.0 
9.856161972111e+00 -2.940788658128e+02 0.0 
0.0 0.0 -1.255038139944e+02 
-1.477578056500e+02 7.331370256281e+00 0.0 
7.331370256281e+00 -3.429676208454e+02 0.0 
0.0 0.0 -1.468176279486e+02 
-6.123761086746e+01 5.168954379905e+00 0.0 
5.168954379905e+00 -1.120924826958e+02 0.0 
0.0 0.0 -4.678335517631e+01 
-1.224553528802e+02 1.299135488281e+00 0.0 
1.299135488281e+00 -2.753590830745e+02 0.0 
0.0 0.0 -1.189443307864e+02 
-1.491006919985e+02 8.039584881006e+00 0.0 
8.039584881006e+00 -3.495780989389e+02 0.0 
0.0 0.0 -1.492036372812e+02 
-7.020334360598e+01 2.880810544818e+00 0.0 
2.880810544818e+00 -1.887791215561e+02 0.0 
0.0 0.0 -7.541443157924e+01 
-4.233759134740e+01 1.936403091029e+01 0.0 
1.936403091029e+01 -5.741995728338e+01 0.0 
0.0 0.0 -2.539310454903e+01 
-7.421815534428e+01 1.040057390891e+01 0.0 
1.040057390891e+01 -1.390167835923e+02 0.0 
0.0 0.0 -5.905285332055e+01 
-1.015222722636e+02 -5.048679971877e+00 0.0 
-5.048679971877e+00 -2.493662557649e+02 0.0 
0.0 0.0 -1.082365207964e+02 
-1.272189306983e+02 7.721509713517e+00 0.0 
7.721509713517e+00 -2.932720048169e+02 0.0 
0.0 0.0 -1.257472806546e+02 
-9.837137368405e+01 -2.541419140337e+00 0.0 
-2.541419140337e+00 -2.458276864395e+02 0.0 
0.0 0.0 -1.064159415827e+02 
-3.824825463185e+01 2.439275544114e+01 0.0 
2.439275544114e+01 -9.846810060013e+01 0.0 
0.0 0.0 -3.862358524753e+01 
-1.095868478497e+02 6.058712240267e-01 0.0 
6.058712240267e-01 -2.764109069450e+02 0.0 
0.0 0.0 -1.195490588736e+02 
-5.331323703500e+01 1.689029200621e+01 0.0 
1.689029200621e+01 -9.111658376180e+01 0.0 
0.0 0.0 -4.009872936282e+01 
-9.493309496513e+01 9.245027340596e+00 0.0 
9.245027340596e+00 -2.382417462673e+02 0.0 
0.0 0.0 -1.025543301207e+02 
-1.050395287260e+02 -7.848172169242e-01 0.0 
-7.848172169242e-01 -2.645936847238e+02 0.0 
0.0 0.0 -1.139323011772e+02 
-1.128030177420e+02 7.974681034517e+00 0.0 
7.974681034517e+00 -2.771311514244e+02 0.0 
0.0 0.0 -1.176822914137e+02 
-1.131844373093e+02 1.562888854630e+00 0.0 
1.562888854630e+00 -2.509389580328e+02 0.0 
0.0 0.0 -1.088370186026e+02 
-7.279553529301e+01 -1.275568246637e+01 0.0 
-1.275568246637e+01 -1.475853744131e+02 0.0 
0.0 0.0 -6.336222334942e+01 
-4.704010750652e+01 2.462756710762e+01 0.0 
2.462756710762e+01 -7.914597538765e+01 0.0 
0.0 0.0 -3.303689288207e+01 
-1.123137919854e+02 -6.770078942571e-01 0.0 
-6.770078942571e-01 -2.836586688402e+02 0.0 
0.0 0.0 -1.195124407529e+02 
-5.591944962039e+01 1.524442106507e+01 0.0 
1.524442106507e+01 -9.751776276952e+01 0.0 
0.0 0.0 -4.335580012364e+01 
-4.494490941628e+01 1.061871986175e+01 0.0 
1.061871986175e+01 -1.209682106644e+02 0.0 
0.0 0.0 -5.118172435023e+01 
-1.442674498501e+02 -3.789693428785e-01 0.0 
-3.789693428785e-01 -3.324233335325e+02 0.0 
0.0 0.0 -1.426072350148e+02 
-1.373249724845e+02 -5.135685925056e-01 0.0 
-5.135685925056e-01 -3.138423533678e+02 0.0 
0.0 0.0 -1.349501977557e+02 
-1.990192762565e+01 -2.649346557243e+00 0.0 
-2.649346557243e+00 -2.707624383525e+01 0.0 
0.0 0.0 -1.257309702139e+01 
-1.181717249918e+02 1.623373680054e+00 0.0 
1.623373680054e+00 -2.948746617673e+02 0.0 
0.0 0.0 -1.251735641931e+02 
-5.682566280147e+01 -1.035879096623e+01 0.0 
-1.035879096623e+01 -1.122337339615e+02 0.0 
0.0 0.0 -4.712569747578e+01 
-6.142592192823e+01 -1.080533614035e+01 0.0 
-1.080533614035e+01 -1.205520520759e+02 0.0 
0.0 0.0 -5.063889101943e+01 
-1.340228339165e+02 7.905711149102e+00 0.0 
7.905711149102e+00 -3.132189683468e+02 0.0 
0.0 0.0 -1.337725406790e+02 
-1.113042083921e+02 9.174020104014e+00 0.0 
9.174020104014e+00 -2.767274928370e+02 0.0 
0.0 0.0 -1.160095103687e+02 
-1.294364307671e+02 8.112512580915e+00 0.0 
8.112512580915e+00 -3.039316601177e+02 0.0 
0.0 0.0 -1.296104272654e+02 
-7.830029568886e+01 -6.921391793667e+00 0.0 
-6.921391793667e+00 -2.011113533868e+02 0.0 
0.0 0.0 -8.455354478150e+01 
-8.603184676332e+01 5.978747642613e-01 0.0 
5.978747642613e-01 -1.844977784780e+02 0.0 
0.0 0.0 -8.075888757240e+01 
-1.606546366149e+02 1.392397109177e+00 0.0 
1.392397109177e+00 -3.791653739343e+02 0.0 
0.0 0.0 -1.615460031647e+02 
-5.227565069726e+01 -1.008337378621e+01 0.0 
-1.008337378621e+01 -9.991231644323e+01 0.0 
0.0 0.0 -4.205074172300e+01 
-1.363617447501e+02 5.569441533205e+00 0.0 
5.569441533205e+00 -3.325245052707e+02 0.0 
0.0 0.0 -1.402658750063e+02 
-9.921032915454e+01 8.901089545885e+00 0.0 
8.901089545885e+00 -2.469989085762e+02 0.0 
0.0 0.0 -1.057534382393e+02 
-3.129726998665e+01 -2.264789409077e+00 0.0 
-2.264789409077e+00 -7.594794457518e+01 0.0 
0.0 0.0 -3.015219430777e+01 
-1.239797749995e+02 7.491747320527e+00 0.0 
7.491747320527e+00 -2.833725056956e+02 0.0 
0.0 0.0 -1.218056842085e+02 
-7.938492546444e+01 -6.430040505613e-01 0.0 
-6.430040505613e-01 -2.092761996842e+02 0.0 
0.0 0.0 -8.666132621375e+01 
-3.577314718766e+01 -9.320573915722e+00 0.0 
-9.320573915722e+00 -4.873456665030e+01 0.0 
0.0 0.0 -2.022866822943e+01 
-6.974192144640e+01 -4.647889591504e+00 0.0 
-4.647889591504e+00 -1.846660773941e+02 0.0 
0.0 0.0 -7.426468973810e+01 
-1.297555308950e+02 -8.724189729667e-01 0.0 
-8.724189729667e-01 -2.936154722907e+02 0.0 
0.0 0.0 -1.254371747114e+02 
-1.252926180232e+02 8.588104711901e+00 0.0 
8.588104711901e+00 -2.841959237263e+02 0.0 
0.0 0.0 -1.224465625248e+02 
-4.512017101653e+01 -8.878319226822e+00 0.0 
-8.878319226822e+00 -7.867023423715e+01 0.0 
0.0 0.0 -3.212584915725e+01 
-1.152190684596e+02 -4.001354864871e-01 0.0 
-4.001354864871e-01 -2.394273132940e+02 0.0 
0.0 0.0 -1.024272268070e+02 
-1.306513642482e+02 7.847502640239e+00 0.0 
7.847502640239e+00 -3.033892791695e+02 0.0 
0.0 0.0 -1.298121930253e+02 
-1.342526702470e+02 7.810427498845e+00 0.0 
7.810427498845e+00 -3.246054118611e+02 0.0 
0.0 0.0 -1.372574246324e+02 
-7.358249703130e+01 -1.248515668654e+01 0.0 
-1.248515668654e+01 -1.606232222181e+02 0.0 
0.0 0.0 -6.786821486720e+01 
-6.298381696115e+01 -2.126035591913e+00 0.0 
-2.126035591913e+00 -1.204407660162e+02 0.0 
0.0 0.0 -5.038267625495e+01 
-1.042705390025e+02 9.574157495325e+00 0.0 
9.574157495325e+00 -2.610325464567e+02 0.0 
0.0 0.0 -1.129925931321e+02 
-1.104176188148e+02 9.068714288586e-01 0.0 
9.068714288586e-01 -2.450604398754e+02 0.0 
0.0 0.0 -1.062434176071e+02 
-3.808278607332e+01 -1.356461461082e+01 0.0 
-1.356461461082e+01 -5.252762616242e+01 0.0 
0.0 0.0 -1.953126053300e+01 
-1.562142713300e+02 8.908064002113e+00 0.0 
8.908064002113e+00 -3.666658783820e+02 0.0 
0.0 0.0 -1.564640449136e+02 
-1.530564216626e+02 7.409031451474e+00 0.0 
7.409031451474e+00 -3.569111401647e+02 0.0 
0.0 0.0 -1.525902685482e+02 
-9.914078159118e+01 9.597704987844e-01 0.0 
9.597704987844e-01 -2.173981839615e+02 0.0 
0.0 0.0 -9.456168966579e+01 
-1.509650308440e+02 5.583947047783e+00 0.0 
5.583947047783e+00 -3.475595869585e+02 0.0 
0.0 0.0 -1.491573853408e+02 
-1.545509253788e+02 7.767163845520e+00 0.0 
7.767163845520e+00 -3.606119414421e+02 0.0 
0.0 0.0 -1.541488600463e+02 
-7.962994892727e+01 -6.106138757114e+00 0.0 
-6.106138757114e+00 -2.037575256272e+02 0.0 
0.0 0.0 -8.591494249852e+01 
-8.131979238277e+01 -1.186002572350e+01 0.0 
-1.186002572350e+01 -1.979283073660e+02 0.0 
0.0 0.0 -8.482007777868e+01 
-1.576713876886e+02 5.858810269107e+00 0.0 
5.858810269107e+00 -3.756763653095e+02 0.0 
0.0 0.0 -1.596043258994e+02 
-7.111490118159e+01 4.784105375543e+00 0.0 
4.784105375543e+00 -1.090168854911e+02 0.0 
0.0 0.0 -5.459014818460e+01 
-5.394543521606e+01 -1.340422541345e+00 0.0 
-1.340422541345e+00 -1.092894145613e+02 0.0 
0.0 0.0 -4.537476583797e+01 
-1.161759919610e+02 -1.338636979864e+00 0.0 
-1.338636979864e+00 -2.437904602455e+02 0.0 
0.0 0.0 -1.040667312525e+02 
-7.717900555315e+01 -1.393330802088e+01 0.0 
-1.393330802088e+01 -1.615086992301e+02 0.0 
0.0 0.0 -6.965475201141e+01 
-7.048687269287e+01 -1.033263079185e+01 0.0 
-1.033263079185e+01 -1.768922887378e+02 0.0 
0.0 0.0 -7.300633248595e+01 
-4.692184782205e+01 1.047228997947e+01 0.0 
1.047228997947e+01 -7.118151689720e+01 0.0 
0.0 0.0 -3.219903893847e+01 
-5.132951568513e+01 1.045898976312e+01 0.0 
1.045898976312e+01 -8.322432127641e+01 0.0 
0.0 0.0 -3.671225767347e+01 
-1.015370309563e+02 2.975843704380e+00 0.0 
2.975843704380e+00 -2.190157633608e+02 0.0 
0.0 0.0 -9.576583829514e+01 
-7.441193099026e+01 -4.061574984212e+00 0.0 
-4.061574984212e+00 -1.948522629751e+02 0.0 
0.0 0.0 -7.999402207786e+01 
-6.784718398256e+01 -4.056975161969e+00 0.0 
-4.056975161969e+00 -1.288070618897e+02 0.0 
0.0 0.0 -5.332139302355e+01 
-1.298397120569e+02 6.855458268904e+00 0.0 
6.855458268904e+00 -3.139050627432e+02 0.0 
0.0 0.0 -1.327234324400e+02 
-1.685551714874e+02 4.999269838230e-01 0.0 
4.999269838230e-01 -3.958668768467e+02 0.0 
0.0 0.0 -1.689266145002e+02 
-1.675768868545e+02 1.121496934443e+00 0.0 
1.121496934443e+00 -3.949133495162e+02 0.0 
0.0 0.0 -1.683470709112e+02 
-8.100887942823e+01 -9.560066133388e+00 0.0 
-9.560066133388e+00 -1.985345098671e+02 0.0 
0.0 0.0 -8.401784602860e+01 
-9.502650390754e+01 2.348037140519e+00 0.0 
2.348037140519e+00 -2.030370916293e+02 0.0 
0.0 0.0 -8.901907866105e+01 
-7.494099551856e+01 1.072711334189e+00 0.0 
1.072711334189e+00 -1.094390933033e+02 0.0 
0.0 0.0 -5.629631060369e+01 
-4.429097682881e+01 1.317708159835e+01 0.0 
1.317708159835e+01 -5.537274529708e+01 0.0 
0.0 0.0 -2.647595106092e+01 
-5.083835117370e+01 -2.084120850644e+01 0.0 
-2.084120850644e+01 -1.138905349119e+02 0.0 
0.0 0.0 -4.460371596991e+01 
-4.598085458328e+01 1.170802007877e+01 0.0 
1.170802007877e+01 -6.448866130815e+01 0.0 
0.0 0.0 -2.993907980563e+01 
-1.058753609837e+02 9.196851984958e+00 0.0 
9.196851984958e+00 -2.671347754113e+02 0.0 
0.0 0.0 -1.122384999396e+02 
-7.108561265973e+01 -1.311650956195e+01 0.0 
-1.311650956195e+01 -1.675761657883e+02 0.0 
0.0 0.0 -7.036750459348e+01 
-7.645555164573e+01 -1.005388704866e+01 0.0 
-1.005388704866e+01 -1.909530042136e+02 0.0 
0.0 0.0 -8.078600545393e+01 
-3.770614832632e+01 -2.593047523465e+01 0.0 
-2.593047523465e+01 -9.252638365825e+01 0.0 
0.0 0.0 -3.949593658804e+01 
-1.379352930422e+02 4.620155781402e-01 0.0 
4.620155781402e-01 -3.168763591046e+02 0.0 
0.0 0.0 -1.360434956440e+02 
-7.849728263953e+01 -1.442053094062e+01 0.0 
-1.442053094062e+01 -1.853862687771e+02 0.0 
0.0 0.0 -7.924196006730e+01 
-1.436065953259e+02 1.215003550837e+00 0.0 
1.215003550837e+00 -3.304413583796e+02 0.0 
0.0 0.0 -1.418143861116e+02 
-1.327692633912e+02 1.466467958594e+00 0.0 
1.466467958594e+00 -3.014162026045e+02 0.0 
0.0 0.0 -1.298556397987e+02 
-1.574813717685e+02 7.016682737616e-01 0.0 
7.016682737616e-01 -3.665031918599e+02 0.0 
0.0 0.0 -1.567953690885e+02 
-1.686603826030e+02 -2.740269371707e-01 0.0 
-2.740269371707e-01 -3.947125535468e+02 0.0 
0.0 0.0 -1.686118808449e+02 
-9.918006385843e+01 -5.081667188637e-01 0.0 
-5.081667188637e-01 -2.178994596434e+02 0.0 
0.0 0.0 -9.472385705054e+01 
-8.294428934810e+01 -1.408617287574e+01 0.0 
-1.408617287574e+01 -1.883806584476e+02 0.0 
0.0 0.0 -8.129224685938e+01 
-5.181372194409e+01 7.351705485076e+00 0.0 
7.351705485076e+00 -9.053167996932e+01 0.0 
0.0 0.0 -3.916565405741e+01 
-8.483643224017e+01 -9.465079404093e+00 0.0 
-9.465079404093e+00 -1.932022540989e+02 0.0 
0.0 0.0 -8.194077082095e+01 
-1.691942410633e+02 3.096331245347e-01 0.0 
3.096331245347e-01 -3.961198958144e+02 0.0 
0.0 0.0 -1.691942410633e+02 
-4.334855352532e+01 1.815456982337e+01 0.0 
1.815456982337e+01 -3.845417761687e+01 0.0 
0.0 0.0 -2.121571093658e+01 
-4.334392669710e+01 1.458122067961e+01 0.0 
1.458122067961e+01 -4.721558218899e+01 0.0 
0.0 0.0 -2.375674225564e+01 
-1.411948106774e+02 6.093403625616e+00 0.0 
6.093403625616e+00 -3.418011565629e+02 0.0 
0.0 0.0 -1.444987901721e+02 
-9.480880381128e+01 1.871963808831e+00 0.0 
1.871963808831e+00 -2.031181491788e+02 0.0 
0.0 0.0 -8.897808589701e+01 
-1.442082640909e+02 4.950089650494e-01 0.0 
4.950089650494e-01 -3.322585642721e+02 0.0 
0.0 0.0 -1.425400485089e+02 
-1.302774197463e+02 9.599579933795e+00 0.0 
9.599579933795e+00 -3.033867440218e+02 0.0 
0.0 0.0 -1.296992491304e+02 
-1.431603910482e+02 6.336674437222e+00 0.0 
6.336674437222e+00 -3.426020904548e+02 0.0 
0.0 0.0 -1.453287444509e+02 
-1.361974202578e+02 9.041034180073e+00 0.0 
9.041034180073e+00 -3.134706418686e+02 0.0 
0.0 0.0 -1.345004186379e+02 
-1.010323535436e+02 -1.330535034851e-02 0.0 
-1.330535034851e-02 -2.215773733102e+02 0.0 
0.0 0.0 -9.638291805615e+01 
-6.915832555892e+01 -1.502080096472e+01 0.0 
-1.502080096472e+01 -1.412601212268e+02 0.0 
0.0 0.0 -6.083610828816e+01 
-6.661463942844e+01 -1.353475250464e+01 0.0 
-1.353475250464e+01 -1.410584494399e+02 0.0 
0.0 0.0 -5.936577967179e+01 
-1.184031436219e+02 -3.480517673870e-01 0.0 
-3.480517673870e-01 -2.648208645416e+02 0.0 
0.0 0.0 -1.145672024491e+02 
-1.388768558718e+02 8.310496977652e+00 0.0 
8.310496977652e+00 -3.330868533854e+02 0.0 
0.0 0.0 -1.411891127772e+02 
-8.960309198872e+01 3.327287564432e+00 0.0 
3.327287564432e+00 -1.879674115478e+02 0.0 
0.0 0.0 -8.280945173719e+01 
-9.242353160052e+01 2.269848326575e-01 0.0 
2.269848326575e-01 -2.009675702189e+02 0.0 
0.0 0.0 -8.761733054584e+01 
-9.924639310806e+01 6.928612345978e-01 0.0 
6.928612345978e-01 -2.169691466218e+02 0.0 
0.0 0.0 -9.446466191897e+01 
-1.015535297019e+02 1.812777503278e+00 0.0 
1.812777503278e+00 -2.227290819144e+02 0.0 
0.0 0.0 -9.688478348489e+01 
-3.493697167226e+01 -1.360275193857e+01 0.0 
-1.360275193857e+01 -1.157951324877e+02 0.0 
0.0 0.0 -4.498226326341e+01 
-6.289059187852e+01 -1.289290441836e+01 0.0 
-1.289290441836e+01 -1.272101916100e+02 0.0 
0.0 0.0 -5.355087425699e+01 
-1.518701493558e+02 2.503466361332e+00 0.0 
2.503466361332e+00 -3.514421541277e+02 0.0 
0.0 0.0 -1.505936910450e+02 
-1.096764368636e+02 1.912006039412e+00 0.0 
1.912006039412e+00 -2.420996359840e+02 0.0 
0.0 0.0 -1.051328218543e+02 
-1.605086838340e+02 6.127459223661e+00 0.0 
6.127459223661e+00 -3.789362605881e+02 0.0 
0.0 0.0 -1.614334833266e+02 
-1.488484833913e+02 8.853545622446e+00 0.0 
8.853545622446e+00 -3.444719549563e+02 0.0 
0.0 0.0 -1.475961315043e+02 
-1.238972456497e+02 9.290347143185e+00 0.0 
9.290347143185e+00 -2.838171237910e+02 0.0 
0.0 0.0 -1.219143108322e+02 
-1.459335960536e+02 5.425788781356e+00 0.0 
5.425788781356e+00 -3.350393010062e+02 0.0 
0.0 0.0 -1.438918691179e+02 
-9.361763824032e+01 -4.282542899138e+00 0.0 
-4.282542899138e+00 -1.821031355366e+02 0.0 
0.0 0.0 -7.681124335960e+01 
-8.491409373749e+01 -4.716606739911e+00 0.0 
-4.716606739911e+00 -1.655674515130e+02 0.0 
0.0 0.0 -6.904777863883e+01 
-1.529381809496e+02 5.349404565776e-01 0.0 
5.349404565776e-01 -3.641132632678e+02 0.0 
0.0 0.0 -1.547154332652e+02 
-3.394216937202e+01 -2.282135450064e+01 0.0 
-2.282135450064e+01 -9.909106834070e+01 0.0 
0.0 0.0 -4.130434909103e+01 
-5.433805761082e+01 -5.534871214891e-01 0.0 
-5.534871214891e-01 -1.158246263159e+02 0.0 
0.0 0.0 -4.808996129631e+01 
-1.651481562085e+02 8.369384369312e+00 0.0 
8.369384369312e+00 -3.866790311532e+02 0.0 
0.0 0.0 -1.651481562085e+02 
-1.811944595287e+01 8.827811721100e-01 0.0 
8.827811721100e-01 -5.720607600253e+01 0.0 
0.0 0.0 -2.150975805765e+01 
-9.235424276981e+01 2.421960806689e-01 0.0 
2.421960806689e-01 -2.009318481651e+02 0.0 
0.0 0.0 -8.758582728047e+01 
-1.503290594523e+02 4.813070829280e+00 0.0 
4.813070829280e+00 -3.620213343962e+02 0.0 
0.0 0.0 -1.533051181545e+02 
-2.185606344268e+01 -2.700816633943e+00 0.0 
-2.700816633943e+00 -3.962748804605e+01 0.0 
0.0 0.0 -1.589907966920e+01 
-1.436466935866e+01 5.106795721141e-01 0.0 
5.106795721141e-01 -2.381604329204e+01 0.0 
0.0 0.0 -8.980386531754e+00 
-1.587856572900e+02 4.612050336904e+00 0.0 
4.612050336904e+00 -3.690178768161e+02 0.0 
0.0 0.0 -1.579410602318e+02 
-8.657572232127e+01 7.891706794454e-01 0.0 
7.891706794454e-01 -1.846062553086e+02 0.0 
0.0 0.0 -8.095459328896e+01 
-1.507159899784e+02 2.788971589347e+00 0.0 
2.788971589347e+00 -3.480802205931e+02 0.0 
0.0 0.0 -1.492388631714e+02 
-1.515596988811e+02 5.088441652733e+00 0.0 
5.088441652733e+00 -3.616250749927e+02 0.0 
0.0 0.0 -1.535554321622e+02 
-8.627079029932e+01 1.147553256028e+00 0.0 
1.147553256028e+00 -1.841478033521e+02 0.0 
0.0 0.0 -8.072557809543e+01 
-7.183926314108e+01 6.835849987888e+00 0.0 
6.835849987888e+00 -1.088754740601e+02 0.0 
0.0 0.0 -5.527545879424e+01 
-1.503705834771e+02 1.142837496390e+00 0.0 
1.142837496390e+00 -3.495405868930e+02 0.0 
0.0 0.0 -1.495733511110e+02 
-2.366755954952e+01 -1.273928194157e+00 0.0 
-1.273928194157e+00 -6.339355523535e+01 0.0 
0.0 0.0 -2.414965974315e+01 
-1.456846851541e+02 2.678437732253e+00 0.0 
2.678437732253e+00 -3.365442949825e+02 0.0 
0.0 0.0 -1.442686940410e+02 
-1.689244098483e+02 2.695198480430e-02 0.0 
2.695198480430e-02 -3.954902896460e+02 0.0 
0.0 0.0 -1.689244098483e+02 
-1.478667680160e+02 7.978873062553e+00 0.0 
7.978873062553e+00 -3.420889938172e+02 0.0 
0.0 0.0 -1.465867285500e+02 
-4.234089978020e+01 -1.005167931813e+01 0.0 
-1.005167931813e+01 -1.299679948721e+02 0.0 
0.0 0.0 -4.905248082921e+01 
-1.029763563004e+02 3.735065014911e+00 0.0 
3.735065014911e+00 -2.216259079074e+02 0.0 
0.0 0.0 -9.698067926236e+01 
-9.414569633556e+01 -1.821151746967e+00 0.0 
-1.821151746967e+00 -1.844104390242e+02 0.0 
0.0 0.0 -7.812976042441e+01 
-1.295687822495e+02 8.282856850950e+00 0.0 
8.282856850950e+00 -3.139418909549e+02 0.0 
0.0 0.0 -1.326532019613e+02 
-1.658470226481e+02 7.604338151562e+00 0.0 
7.604338151562e+00 -3.902468703864e+02 0.0 
0.0 0.0 -1.664281679104e+02 
-1.265753368955e+02 4.892360566506e-03 0.0 
4.892360566506e-03 -2.861313726382e+02 0.0 
0.0 0.0 -1.234120128601e+02 
-1.657204824962e+02 6.259580661252e+00 0.0 
6.259580661252e+00 -3.908946700114e+02 0.0 
0.0 0.0 -1.665845457523e+02 
-3.044159302414e+01 -1.686002790602e+01 0.0 
-1.686002790602e+01 -1.170855789754e+02 0.0 
0.0 0.0 -4.643184474888e+01 
-1.621248338899e+02 6.453686821240e-01 0.0 
6.453686821240e-01 -3.809817906414e+02 0.0 
0.0 0.0 -1.625319873594e+02 
-4.748516441403e+01 -1.411172975391e+01 0.0 
-1.411172975391e+01 -1.255210369411e+02 0.0 
0.0 0.0 -4.526233454412e+01 
-1.839160257499e+01 -1.111319855332e+00 0.0 
-1.111319855332e+00 -5.719105444903e+01 0.0 
0.0 0.0 -2.154840731235e+01 
-1.591088736743e+02 4.232122289684e+00 0.0 
4.232122289684e+00 -3.791011590940e+02 0.0 
0.0 0.0 -1.610630098305e+02 
-1.540855912084e+02 6.375746790571e+00 0.0 
6.375746790571e+00 -3.559031112266e+02 0.0 
0.0 0.0 -1.525966107305e+02 
-1.535283390072e+02 4.937554347331e+00 0.0 
4.937554347331e+00 -3.560471067557e+02 0.0 
0.0 0.0 -1.524726337289e+02 
-9.225074578515e+01 2.084848745027e-02 0.0 
2.084848745027e-02 -1.999408475319e+02 0.0 
0.0 0.0 -8.725747799511e+01 
-1.037826436562e+02 4.192189359668e+00 0.0 
4.192189359668e+00 -2.252255580761e+02 0.0 
0.0 0.0 -9.830246051969e+01 
-5.126920003988e+01 2.092932769552e+01 0.0 
2.092932769552e+01 -8.470902086509e+01 0.0 
0.0 0.0 -3.664220270398e+01 
-1.560363399416e+02 8.824599369853e+00 0.0 
8.824599369853e+00 -3.625070695599e+02 0.0 
0.0 0.0 -1.551630228505e+02 
-8.070822770628e+01 -2.985768437870e+00 0.0 
-2.985768437870e+00 -1.529583697430e+02 0.0 
0.0 0.0 -6.458894007901e+01 
-3.840768900870e+01 2.613674020800e+01 0.0 
2.613674020800e+01 -7.872025570358e+01 0.0 
0.0 0.0 -3.004223819112e+01 
-1.343642792668e+02 6.435605755751e+00 0.0 
6.435605755751e+00 -3.243930373534e+02 0.0 
0.0 0.0 -1.372271949861e+02 
-8.556381085338e+01 5.808847790199e-01 0.0 
5.808847790199e-01 -1.836556132958e+02 0.0 
0.0 0.0 -8.036582724476e+01 
-1.481957168547e+02 5.344203337682e+00 0.0 
5.344203337682e+00 -3.424265058816e+02 0.0 
0.0 0.0 -1.467866668209e+02 
-1.568300353632e+02 8.031659775494e-01 0.0 
8.031659775494e-01 -3.648778614237e+02 0.0 
0.0 0.0 -1.561123690361e+02 
-1.567788682570e+02 3.588331635754e-01 0.0 
3.588331635754e-01 -3.671506925998e+02 0.0 
0.0 0.0 -1.567788682570e+02 
-1.359838928615e+01 -1.777795130217e-02 0.0 
-1.777795130217e-02 -6.102685336851e+00 0.0 
0.0 0.0 -5.163789307496e+00 
-1.018191735967e+01 9.873705368671e-02 0.0 
9.873705368671e-02 -1.082789981676e+01 0.0 
0.0 0.0 -4.580941386941e+00 
-8.596491623900e+01 7.029056243704e-01 0.0 
7.029056243704e-01 -1.859112283499e+02 0.0 
0.0 0.0 -8.116284337666e+01 
-8.462524036887e+01 -6.050728756439e-02 0.0 
-6.050728756439e-02 -1.834338396603e+02 0.0 
0.0 0.0 -8.001772400876e+01 
-1.685862299074e+02 -8.215596729602e-02 0.0 
-8.215596729602e-02 -3.947012031172e+02 0.0 
0.0 0.0 -1.685862299074e+02 
-1.677544054016e+02 -7.462469275270e-01 0.0 
-7.462469275270e-01 -3.922125728218e+02 0.0 
0.0 0.0 -1.675900934670e+02 
-1.381019379846e+01 -3.188951188510e-01 0.0 
-3.188951188510e-01 -2.322311468292e+01 0.0 
0.0 0.0 -8.526247960651e+00 
-7.325958600822e+01 -4.018713428503e+00 0.0 
-4.018713428503e+00 -1.132478659046e+02 0.0 
0.0 0.0 -5.645266192105e+01 
-1.544926036882e+02 -6.538595448398e-01 0.0 
-6.538595448398e-01 -3.628213439156e+02 0.0 
0.0 0.0 -1.547941842812e+02 
-1.481699432995e+02 7.252027077547e+00 0.0 
7.252027077547e+00 -3.511845000916e+02 0.0 
0.0 0.0 -1.494063330173e+02 
-2.606170359219e+01 -1.148493719486e+00 0.0 
-1.148493719486e+00 -7.437134181627e+01 0.0 
0.0 0.0 -2.908212496109e+01 
-1.560831292244e+02 7.669406975188e-01 0.0 
7.669406975188e-01 -3.681997829441e+02 0.0 
0.0 0.0 -1.568848736506e+02 
-1.213887102232e+02 -1.442515455944e-01 0.0 
-1.442515455944e-01 -2.601631654830e+02 0.0 
0.0 0.0 -1.111826904843e+02 
-1.101649842712e+02 2.256698367992e-01 0.0 
2.256698367992e-01 -2.244461914877e+02 0.0 
0.0 0.0 -9.580560860114e+01 
-1.133016260437e+02 3.918510333996e-01 0.0 
3.918510333996e-01 -2.520201841153e+02 0.0 
0.0 0.0 -1.091965430477e+02 
-4.885347475629e+01 -1.920283718600e+01 0.0 
-1.920283718600e+01 -9.151503862476e+01 0.0 
0.0 0.0 -3.570349782744e+01 
-1.202653976068e+02 8.630995073186e+00 0.0 
8.630995073186e+00 -2.952884307877e+02 0.0 
0.0 0.0 -1.242661485183e+02 
-2.192599661669e+01 -2.125648221061e-02 0.0 
-2.125648221061e-02 -5.964337420952e+01 0.0 
0.0 0.0 -2.269609247656e+01 
-1.032960522442e+02 -2.028402455338e+00 0.0 
-2.028402455338e+00 -2.049425761248e+02 0.0 
0.0 0.0 -8.712593965562e+01 
-1.500552919980e+02 7.714902653203e+00 0.0 
7.714902653203e+00 -3.489751934065e+02 0.0 
0.0 0.0 -1.493091456213e+02 
-1.416416924495e+02 9.131987086115e-01 0.0 
9.131987086115e-01 -3.249278103691e+02 0.0 
0.0 0.0 -1.395708508456e+02 
-1.103654003149e+02 -1.223694727396e+00 0.0 
-1.223694727396e+00 -2.233730867911e+02 0.0 
0.0 0.0 -9.556291857975e+01 
-1.049336131847e+02 1.126290889351e+00 0.0 
1.126290889351e+00 -2.313444865191e+02 0.0 
0.0 0.0 -1.004834299112e+02 
-1.494705856442e+02 8.424247606725e+00 0.0 
8.424247606725e+00 -3.522020972158e+02 0.0 
0.0 0.0 -1.501018048580e+02 
-1.393979976210e+02 9.236448782237e+00 0.0 
9.236448782237e+00 -3.225774081745e+02 0.0 
0.0 0.0 -1.381926217386e+02 
-1.315439313827e+02 9.242794110139e+00 0.0 
9.242794110139e+00 -3.031345539604e+02 0.0 
0.0 0.0 -1.300035456029e+02 
-8.589387362549e+01 7.087360355394e-01 0.0 
7.087360355394e-01 -1.842962389914e+02 0.0 
0.0 0.0 -8.065703378507e+01 
-1.146693449736e+02 8.586813891800e+00 0.0 
8.586813891800e+00 -2.860697904568e+02 0.0 
0.0 0.0 -1.198217406291e+02 
-1.474477374315e+02 6.164093451865e+00 0.0 
6.164093451865e+00 -3.412370864278e+02 0.0 
0.0 0.0 -1.462054471578e+02 
-5.991271434217e+01 -2.810472978102e+00 0.0 
-2.810472978102e+00 -1.153143707352e+02 0.0 
0.0 0.0 -4.775823571412e+01 
-1.536606554238e+01 1.218521833226e+00 0.0 
1.218521833226e+00 -2.404022367249e+01 0.0 
0.0 0.0 -1.119818658730e+01 
-1.443647315267e+02 9.158115698753e+00 0.0 
9.158115698753e+00 -3.396987909506e+02 0.0 
0.0 0.0 -1.448190567432e+02 
-1.362719919265e+02 4.257842675936e+00 0.0 
4.257842675936e+00 -3.323609928722e+02 0.0 
0.0 0.0 -1.401898954396e+02 
-4.618586258437e+01 -1.971654076671e+01 0.0 
-1.971654076671e+01 -8.373338214594e+01 0.0 
0.0 0.0 -3.237438157187e+01 
-1.190051987836e+02 1.139308175438e+00 0.0 
1.139308175438e+00 -2.660923580482e+02 0.0 
0.0 0.0 -1.151292670495e+02 
-1.610055155483e+02 9.810168592973e-02 0.0 
9.810168592973e-02 -3.775840846612e+02 0.0 
0.0 0.0 -1.611768800629e+02 
-1.437285372985e+02 7.795979200684e+00 0.0 
7.795979200684e+00 -3.402207628480e+02 0.0 
0.0 0.0 -1.447847900440e+02 
-1.492660601674e+02 8.709194749629e+00 0.0 
8.709194749629e+00 -3.528724190912e+02 0.0 
0.0 0.0 -1.502415437776e+02 
-1.268293555727e+02 5.484017425113e-01 0.0 
5.484017425113e-01 -2.811774586485e+02 0.0 
0.0 0.0 -1.201223387481e+02 
-3.930294647961e+01 3.071996060827e+01 0.0 
3.071996060827e+01 -9.687652873431e+01 0.0 
0.0 0.0 -4.220601841523e+01 
-4.323122417115e+01 8.936939974705e+00 0.0 
8.936939974705e+00 -6.971697900649e+01 0.0 
0.0 0.0 -3.103667871817e+01 
-5.757503692994e+01 1.637287857089e+01 0.0 
1.637287857089e+01 -9.838997429831e+01 0.0 
0.0 0.0 -4.339675977150e+01 
-1.027100789873e+02 3.774417218752e+00 0.0 
3.774417218752e+00 -2.215144253331e+02 0.0 
0.0 0.0 -9.686735129612e+01 
-1.161067133850e+02 7.026872899439e+00 0.0 
7.026872899439e+00 -2.864126424141e+02 0.0 
0.0 0.0 -1.211725305406e+02 
-1.467776023497e+02 3.172597476369e+00 0.0 
3.172597476369e+00 -3.385277615838e+02 0.0 
0.0 0.0 -1.451916091800e+02 
-1.588660865269e+02 5.401367285208e+00 0.0 
5.401367285208e+00 -3.754276946101e+02 0.0 
0.0 0.0 -1.598881343411e+02 
-4.145728577653e+01 -1.464403762537e+01 0.0 
-1.464403762537e+01 -5.263860019182e+01 0.0 
0.0 0.0 -2.312437712930e+01 
-2.879806063521e+01 -5.093464737129e+00 0.0 
-5.093464737129e+00 -4.218140573700e+01 0.0 
0.0 0.0 -1.728309179164e+01 
-3.781305580503e+01 9.240980886754e+00 0.0 
9.240980886754e+00 -5.323315734437e+01 0.0 
0.0 0.0 -2.383614069686e+01 
-1.211689069054e+02 -2.334795338204e-01 0.0 
-2.334795338204e-01 -2.718159724019e+02 0.0 
0.0 0.0 -1.174954637922e+02 
-7.315692104274e+01 -2.534107133154e+00 0.0 
-2.534107133154e+00 -1.434653409303e+02 0.0 
0.0 0.0 -5.962983465964e+01 
-1.488639634978e+02 5.901736463352e+00 0.0 
5.901736463352e+00 -3.430484296486e+02 0.0 
0.0 0.0 -1.471737179439e+02 
-2.281081509609e+01 -1.656512704510e-01 0.0 
-1.656512704510e-01 -7.111962538620e+01 0.0 
0.0 0.0 -2.762277329871e+01 
-1.501469975485e+02 5.180665940711e+00 0.0 
5.180665940711e+00 -3.585768848274e+02 0.0 
0.0 0.0 -1.522171647128e+02 
-1.006121188057e+02 1.357617610293e+00 0.0 
1.357617610293e+00 -2.181166126137e+02 0.0 
0.0 0.0 -9.521861942583e+01 
-1.584742052916e+02 7.575208732665e+00 0.0 
7.575208732665e+00 -3.726782306471e+02 0.0 
0.0 0.0 -1.589457307816e+02 
-1.345921058298e+02 8.718539532750e+00 0.0 
8.718539532750e+00 -3.234678948293e+02 0.0 
0.0 0.0 -1.370180001977e+02 
-1.031224132852e+02 4.767669663850e+00 0.0 
4.767669663850e+00 -2.221460396491e+02 0.0 
0.0 0.0 -9.718053588028e+01 
-1.596744076065e+02 2.729731189061e+00 0.0 
2.729731189061e+00 -3.799536984336e+02 0.0 
0.0 0.0 -1.614884318120e+02 
-1.536566222093e+02 5.445734157464e+00 0.0 
5.445734157464e+00 -3.556070554087e+02 0.0 
0.0 0.0 -1.523791032854e+02 
-1.519732597805e+02 3.568548184165e-01 0.0 
3.568548184165e-01 -3.510571915388e+02 0.0 
0.0 0.0 -1.505091353958e+02 
-3.281433006358e+01 1.012796870847e+01 0.0 
1.012796870847e+01 -3.533824171829e+01 0.0 
0.0 0.0 -1.620680013860e+01 
-1.453656120249e+02 3.988518243834e+00 0.0 
3.988518243834e+00 -3.346409358854e+02 0.0 
0.0 0.0 -1.436019643731e+02 
-1.561202325730e+02 8.517483558596e+00 0.0 
8.517483558596e+00 -3.658573614021e+02 0.0 
0.0 0.0 -1.561932781925e+02 
-1.495793630295e+02 6.074520307643e+00 0.0 
6.074520307643e+00 -3.588870710781e+02 0.0 
0.0 0.0 -1.521399302323e+02 
-1.387908050584e+02 6.599395595099e+00 0.0 
6.599395595099e+00 -3.324832534277e+02 0.0 
0.0 0.0 -1.409822175458e+02 
-1.691952756245e+02 5.939378912247e-01 0.0 
5.939378912247e-01 -3.961223097906e+02 0.0 
0.0 0.0 -1.691952756245e+02 
-1.314563323536e+02 7.342698262649e+00 0.0 
7.342698262649e+00 -3.027253788056e+02 0.0 
0.0 0.0 -1.298545133478e+02 
-5.773937190506e+01 2.155939435444e+01 0.0 
2.155939435444e+01 -7.257328971644e+01 0.0 
0.0 0.0 -3.964554138698e+01 
-4.320685437080e+01 2.613341759247e+01 0.0 
2.613341759247e+01 -7.686922653624e+01 0.0 
0.0 0.0 -2.964174681768e+01 
-1.436288387422e+02 8.940230471641e+00 0.0 
8.940230471641e+00 -3.326356222804e+02 0.0 
0.0 0.0 -1.424793383068e+02 
-1.084361589623e+02 3.283548378784e+00 0.0 
3.283548378784e+00 -2.363913636335e+02 0.0 
0.0 0.0 -1.030482567788e+02 
-1.546421874887e+02 6.584252578085e-01 0.0 
6.584252578085e-01 -3.616843720621e+02 0.0 
0.0 0.0 -1.544979678653e+02 
-1.437020304518e+02 8.602782826348e+00 0.0 
8.602782826348e+00 -3.422691548718e+02 0.0 
0.0 0.0 -1.453913555971e+02 
-1.624046743417e+02 6.213970726405e-01 0.0 
6.213970726405e-01 -3.815216678439e+02 0.0 
0.0 0.0 -1.627779026557e+02 
-1.295635181601e+02 1.044455012668e-01 0.0 
1.044455012668e-01 -2.927547737365e+02 0.0 
0.0 0.0 -1.262954875690e+02 
-1.587475706053e+02 7.299904734518e+00 0.0 
7.299904734518e+00 -3.739493741696e+02 0.0 
0.0 0.0 -1.594090834325e+02 
-1.543358499609e+02 2.539030315071e+00 0.0 
2.539030315071e+00 -3.676749411215e+02 0.0 
0.0 0.0 -1.562032373247e+02 
-1.539304745231e+02 1.391884911551e+00 0.0 
1.391884911551e+00 -3.673529609029e+02 0.0 
0.0 0.0 -1.559850306278e+02 
-7.560503157577e+01 -1.706645536836e+00 0.0 
-1.706645536836e+00 -1.482593665765e+02 0.0 
0.0 0.0 -6.224621923972e+01 
-1.690196625253e+02 3.179121568986e-01 0.0 
3.179121568986e-01 -3.960635861248e+02 0.0 
0.0 0.0 -1.691249745950e+02 
-9.524480062928e+01 2.598149888342e+00 0.0 
2.598149888342e+00 -2.023944007598e+02 0.0 
0.0 0.0 -8.889176041672e+01 
-1.449273404067e+02 2.153212017096e+00 0.0 
2.153212017096e+00 -3.328565306185e+02 0.0 
0.0 0.0 -1.429351613075e+02 
-3.136543935266e+01 -5.620775072570e+00 0.0 
-5.620775072570e+00 -4.581257733176e+01 0.0 
0.0 0.0 -1.865459624614e+01 
-1.395574408115e+02 1.183450895240e+00 0.0 
1.183450895240e+00 -3.179235718400e+02 0.0 
0.0 0.0 -1.368443037954e+02 
-1.199960997910e+02 8.606023878764e-01 0.0 
8.606023878764e-01 -2.679982127841e+02 0.0 
0.0 0.0 -1.159982937725e+02 
-1.589999710662e+01 2.561761522393e-01 0.0 
2.561761522393e-01 -4.158647215409e+01 0.0 
0.0 0.0 -1.407716347688e+01 
-4.247395684584e+01 -1.298965838736e+01 0.0 
-1.298965838736e+01 -1.286344188516e+02 0.0 
0.0 0.0 -5.068785359260e+01 
-1.348665240356e+02 7.521066892252e+00 0.0 
7.521066892252e+00 -3.125940754892e+02 0.0 
0.0 0.0 -1.338381798574e+02 
-1.511297110486e+02 3.445999596567e+00 0.0 
3.445999596567e+00 -3.513177588859e+02 0.0 
0.0 0.0 -1.503342409804e+02 
-1.455973376028e+02 1.386885267750e+00 0.0 
1.386885267750e+00 -3.354127916007e+02 0.0 
0.0 0.0 -1.439030387610e+02 
-1.563534161004e+02 6.174008131721e+00 0.0 
6.174008131721e+00 -3.706174253518e+02 0.0 
0.0 0.0 -1.576912524356e+02 
-1.048728937440e+02 1.992735528687e-02 0.0 
1.992735528687e-02 -2.310446626853e+02 0.0 
0.0 0.0 -1.003752669288e+02 
-1.513194727951e+01 7.300057252315e-01 0.0 
7.300057252315e-01 -2.316910072809e+01 0.0 
0.0 0.0 -1.034242959443e+01 
-3.466804438270e+01 2.261812508406e+01 0.0 
2.261812508406e+01 -1.125961763720e+02 0.0 
0.0 0.0 -4.607071488572e+01 
-1.346235727396e+01 -6.481334011115e-01 0.0 
-6.481334011115e-01 -2.852833985735e+01 0.0 
0.0 0.0 -1.173568748153e+01 
-3.555137420012e+01 -5.183632476203e+00 0.0 
-5.183632476203e+00 -5.771838709503e+01 0.0 
0.0 0.0 -2.268484074576e+01 
-5.359845549491e+01 4.352013167146e+01 0.0 
4.352013167146e+01 -5.625288036612e+01 0.0 
0.0 0.0 -3.340585197299e+01 
-1.000115478496e+02 -3.137771488736e+00 0.0 
-3.137771488736e+00 -1.991015788586e+02 0.0 
0.0 0.0 -8.460486945462e+01 
-1.545247752832e+02 -9.394878117910e-01 0.0 
-9.394878117910e-01 -3.615855315120e+02 0.0 
0.0 0.0 -1.544330920385e+02 
-1.480607224949e+02 6.667462092911e+00 0.0 
6.667462092911e+00 -3.424375067865e+02 0.0 
0.0 0.0 -1.467494687844e+02 
-1.091928241012e+02 5.862837674403e+00 0.0 
5.862837674403e+00 -2.369777461486e+02 0.0 
0.0 0.0 -1.034511710749e+02 
-9.010289251696e+01 -3.195143404813e+00 0.0 
-3.195143404813e+00 -1.754982152984e+02 0.0 
0.0 0.0 -7.343307057681e+01 
-1.535147385024e+02 1.609427109199e+00 0.0 
1.609427109199e+00 -3.648780922380e+02 0.0 
0.0 0.0 -1.551178492221e+02 
-1.496338044095e+02 2.920349033837e+00 0.0 
2.920349033837e+00 -3.602459495451e+02 0.0 
0.0 0.0 -1.525639261864e+02 
-1.573597162389e+02 7.590514817815e+00 0.0 
7.590514817815e+00 -3.723637567948e+02 0.0 
0.0 0.0 -1.585170419101e+02 
-1.502434490390e+02 8.644234940191e+00 0.0 
8.644234940191e+00 -3.527033499925e+02 0.0 
0.0 0.0 -1.504840397094e+02 
-1.424345425604e+02 7.593412150161e+00 0.0 
7.593412150161e+00 -3.314546639690e+02 0.0 
0.0 0.0 -1.417667619588e+02 
-2.942838513000e+01 -6.010079642792e+00 0.0 
-6.010079642792e+00 -4.352861751000e+01 0.0 
0.0 0.0 -1.920443406244e+01 
-3.429726184542e+01 -2.040657436292e+01 0.0 
-2.040657436292e+01 -1.102988350304e+02 0.0 
0.0 0.0 -4.514128535895e+01 
-1.548998275731e+02 4.699049150382e-01 0.0 
4.699049150382e-01 -3.635114397719e+02 0.0 
0.0 0.0 -1.551233802035e+02 
-1.361121402609e+01 -2.169003583074e-01 0.0 
-2.169003583074e-01 -4.086949088202e+01 0.0 
0.0 0.0 -1.408032725048e+01 
-1.621168927300e+01 -1.078043175870e+00 0.0 
-1.078043175870e+00 -4.888598135012e+01 0.0 
0.0 0.0 -1.743999265420e+01 
-4.178395594325e+01 2.964717752911e+01 0.0 
2.964717752911e+01 -5.865047838981e+01 0.0 
0.0 0.0 -2.865766741630e+01 
-1.815307506358e+01 1.084277924506e+00 0.0 
1.084277924506e+00 -3.868967742805e+01 0.0 
0.0 0.0 -1.534511257450e+01 
-1.613137036132e+02 2.219870847392e+00 0.0 
2.219870847392e+00 -3.811214099843e+02 0.0 
0.0 0.0 -1.623305340793e+02 
-1.559283586055e+02 8.856789330605e+00 0.0 
8.856789330605e+00 -3.643764036034e+02 0.0 
0.0 0.0 -1.556914286627e+02 
-1.463507813832e+02 1.645498169567e+00 0.0 
1.645498169567e+00 -3.384708882251e+02 0.0 
0.0 0.0 -1.450465008825e+02 
-1.584508796095e+02 7.911121931589e+00 0.0 
7.911121931589e+00 -3.730843602718e+02 0.0 
0.0 0.0 -1.590605719644e+02 
-1.449133959955e+02 4.527887760982e+00 0.0 
4.527887760982e+00 -3.500716068011e+02 0.0 
0.0 0.0 -1.480955008390e+02 
-1.096087288319e+02 -1.309726342375e-01 0.0 
-1.309726342375e-01 -2.423407568511e+02 0.0 
0.0 0.0 -1.051848457049e+02 
-1.579073432547e+02 4.395993691646e+00 0.0 
4.395993691646e+00 -3.697838009277e+02 0.0 
0.0 0.0 -1.579073432547e+02 
-5.499019751478e+01 -1.789724016006e+01 0.0 
-1.789724016006e+01 -1.298089458323e+02 0.0 
0.0 0.0 -5.180249625706e+01 
-8.655760503243e+01 1.055454821819e+00 0.0 
1.055454821819e+00 -1.838563820142e+02 0.0 
0.0 0.0 -8.072419611399e+01 
-5.063339211394e+01 -2.096062352857e+01 0.0 
-2.096062352857e+01 -7.519937740435e+01 0.0 
0.0 0.0 -3.095393064669e+01 
-1.073033371930e+01 -3.936538071650e-01 0.0 
-3.936538071650e-01 -2.436503824855e+01 0.0 
0.0 0.0 -8.152879504106e+00 
-1.688705274555e+02 -2.289584739657e-01 0.0 
-2.289584739657e-01 -3.951455671486e+02 0.0 
0.0 0.0 -1.688048283813e+02 
-9.764187171126e+01 4.493876308015e+00 0.0 
4.493876308015e+00 -2.067766542925e+02 0.0 
0.0 0.0 -9.092555780113e+01 
-2.026147787030e+01 -1.382003206160e-01 0.0 
-1.382003206160e-01 -5.712969168473e+01 0.0 
0.0 0.0 -2.128611477872e+01 
-9.733132212817e+01 -2.902043742217e+00 0.0 
-2.902043742217e+00 -1.908925324380e+02 0.0 
0.0 0.0 -8.114050957441e+01 
-1.565383083351e+02 8.663556546044e+00 0.0 
8.663556546044e+00 -3.648190808195e+02 0.0 
0.0 0.0 -1.560072167464e+02 
-1.466358426837e+02 3.966316616562e+00 0.0 
3.966316616562e+00 -3.375113706508e+02 0.0 
0.0 0.0 -1.448441640004e+02 
-1.530951452961e+02 6.237406445064e+00 0.0 
6.237406445064e+00 -3.563102924813e+02 0.0 
0.0 0.0 -1.524216313332e+02 
-6.773194415115e+01 -5.612867754686e-01 0.0 
-5.612867754686e-01 -1.346249873519e+02 0.0 
0.0 0.0 -5.653550028539e+01 
-3.583369889140e+01 2.349242678993e+00 0.0 
2.349242678993e+00 -1.221647418299e+02 0.0 
0.0 0.0 -4.932936515986e+01 
-1.612693444102e+02 9.736074759981e-01 0.0 
9.736074759981e-01 -3.807755093849e+02 0.0 
0.0 0.0 -1.622134561385e+02 
-1.583450431265e+02 3.873917052755e-01 0.0 
3.873917052755e-01 -3.676718739280e+02 0.0 
0.0 0.0 -1.574050751163e+02 
-1.685396947531e+02 5.422722403924e-03 0.0 
5.422722403924e-03 -3.945894911204e+02 0.0 
0.0 0.0 -1.685387557620e+02 
-9.097949359457e+01 -4.492835988887e-01 0.0 
-4.492835988887e-01 -1.978655577629e+02 0.0 
0.0 0.0 -8.625351540725e+01 
-1.523537241346e+02 4.125961591400e+00 0.0 
4.125961591400e+00 -3.636029390282e+02 0.0 
0.0 0.0 -1.543869989488e+02 
-1.970515464788e+01 -3.540849700019e-01 0.0 
-3.540849700019e-01 -5.807176552348e+01 0.0 
0.0 0.0 -2.203459237183e+01 
-1.483342084108e+02 4.518792339645e+00 0.0 
4.518792339645e+00 -3.429817397655e+02 0.0 
0.0 0.0 -1.469947844529e+02 
-1.172058545841e+01 2.518157864974e-02 0.0 
2.518157864974e-02 -2.354212277377e+01 0.0 
0.0 0.0 -8.611476715002e+00 
-1.611696303992e+02 3.392179537680e+00 0.0 
3.392179537680e+00 -3.811214432373e+02 0.0 
0.0 0.0 -1.622873220910e+02 
-1.536846751490e+02 6.182337152647e+00 0.0 
6.182337152647e+00 -3.559466655933e+02 0.0 
0.0 0.0 -1.524894022227e+02 
-4.216197911988e+01 1.319628570585e+01 0.0 
1.319628570585e+01 -1.180130688930e+02 0.0 
0.0 0.0 -4.941878860763e+01 
-1.435440654500e+02 8.882769521930e+00 0.0 
8.882769521930e+00 -3.407183295940e+02 0.0 
0.0 0.0 -1.448787185132e+02 
-1.257320676073e+02 1.578794217220e+00 0.0 
1.578794217220e+00 -2.826271562183e+02 0.0 
0.0 0.0 -1.221077671477e+02 
-1.513924770259e+02 2.693760194963e+00 0.0 
2.693760194963e+00 -3.520689728056e+02 0.0 
0.0 0.0 -1.506384349494e+02 
-1.675024801200e+02 6.834706237140e+00 0.0 
6.834706237140e+00 -3.921724536134e+02 0.0 
0.0 0.0 -1.675024801200e+02 
-1.146181367433e+02 1.473828651697e+00 0.0 
1.473828651697e+00 -2.556424027336e+02 0.0 
0.0 0.0 -1.106781618431e+02 
-1.558854485645e+02 8.347169408594e+00 0.0 
8.347169408594e+00 -3.640646477395e+02 0.0 
0.0 0.0 -1.555850288912e+02 
-1.489410383818e+02 6.743760995373e+00 0.0 
6.743760995373e+00 -3.434328116405e+02 0.0 
0.0 0.0 -1.473121550067e+02 
-1.190320596306e+02 5.506118416268e-01 0.0 
5.506118416268e-01 -2.673070826001e+02 0.0 
0.0 0.0 -1.155017426692e+02 
-1.510446790978e+02 8.385537617936e+00 0.0 
8.385537617936e+00 -3.517882569872e+02 0.0 
0.0 0.0 -1.504498808255e+02 
-8.522748722412e+01 -1.818334885656e+00 0.0 
-1.818334885656e+00 -1.630374487955e+02 0.0 
0.0 0.0 -6.896417916925e+01 
-8.495167740980e+01 5.017132146663e-01 0.0 
5.017132146663e-01 -1.833768386340e+02 0.0 
0.0 0.0 -8.009855481315e+01 
-1.518384761844e+02 7.328760813627e+00 0.0 
7.328760813627e+00 -3.597984294257e+02 0.0 
0.0 0.0 -1.530910716830e+02 
-1.520590688990e+02 -1.271445537461e-01 0.0 
-1.271445537461e-01 -3.529153360494e+02 0.0 
0.0 0.0 -1.510923214845e+02 
-8.678476483713e+00 7.926060764093e-03 0.0 
7.926060764093e-03 -8.801345988402e+00 0.0 
0.0 0.0 -3.280708112910e+00 
-8.476296664864e+01 -1.211511318063e-01 0.0 
-1.211511318063e-01 -1.835441687636e+02 0.0 
0.0 0.0 -8.009214062367e+01 
-1.629667667605e+02 4.518650854855e-01 0.0 
4.518650854855e-01 -3.811473699734e+02 0.0 
0.0 0.0 -1.628342410202e+02 
-3.231205466245e+01 -3.942530509294e+00 0.0 
-3.942530509294e+00 -7.343435705433e+01 0.0 
0.0 0.0 -2.845373483463e+01 
-1.499336358661e+02 5.005766978821e+00 0.0 
5.005766978821e+00 -3.611364066654e+02 0.0 
0.0 0.0 -1.529210127595e+02 
-1.489658719897e+02 7.429216105305e+00 0.0 
7.429216105305e+00 -3.426884106585e+02 0.0 
0.0 0.0 -1.470962847945e+02 
-1.518027142342e+02 2.992033201587e+00 0.0 
2.992033201587e+00 -3.510424699878e+02 0.0 
0.0 0.0 -1.504535552666e+02 
-2.493455112542e+01 -2.495289546289e+00 0.0 
-2.495289546289e+00 -7.029253975412e+01 0.0 
0.0 0.0 -2.738032285016e+01 
-4.521755706737e+01 3.213937844194e+01 0.0 
3.213937844194e+01 -8.937506428405e+01 0.0 
0.0 0.0 -3.834603061932e+01 
-1.129296723042e+02 -1.440490646228e+00 0.0 
-1.440490646228e+00 -2.332790796738e+02 0.0 
0.0 0.0 -9.952038910260e+01 
-1.332686449957e+02 2.531986259031e-01 0.0 
2.531986259031e-01 -3.038242119277e+02 0.0 
0.0 0.0 -1.307278570770e+02 
-1.296644374356e+02 -3.318892700625e+00 0.0 
-3.318892700625e+00 -9.615252867626e+01 0.0 
0.0 0.0 -6.796947434637e+01 
-1.529674133329e+02 5.501722460594e+00 0.0 
5.501722460594e+00 -3.559121299896e+02 0.0 
0.0 0.0 -1.522638629968e+02 
-1.119743375819e+02 2.911917841115e-01 0.0 
2.911917841115e-01 -2.495968722111e+02 0.0 
0.0 0.0 -1.080713629379e+02 
-5.345951135351e+01 -1.940343202882e+01 0.0 
-1.940343202882e+01 -9.329004748343e+01 0.0 
0.0 0.0 -3.851099351723e+01 
-1.063854291639e+02 4.124108487821e-01 0.0 
4.124108487821e-01 -2.358240983368e+02 0.0 
0.0 0.0 -1.022628582502e+02 
-1.569961322223e+02 8.806220118780e+00 0.0 
8.806220118780e+00 -3.707269470831e+02 0.0 
0.0 0.0 -1.579169237916e+02 
-1.165349395241e+02 7.680423543534e-01 0.0 
7.680423543534e-01 -2.444893613873e+02 0.0 
0.0 0.0 -1.044345456796e+02 
-5.169240133356e+01 3.562820354623e+01 0.0 
3.562820354623e+01 -3.363044096784e+01 0.0 
0.0 0.0 -2.648732191188e+01 
-7.864674044334e+01 -3.664700051054e+00 0.0 
-3.664700051054e+00 -1.474141711936e+02 0.0 
0.0 0.0 -6.171772864448e+01 
-1.055983576073e+02 -2.793819068577e+00 0.0 
-2.793819068577e+00 -2.144778769318e+02 0.0 
0.0 0.0 -9.133367882402e+01 
-1.196251344462e+02 -1.461699196619e+00 0.0 
-1.461699196619e+00 -2.539491519086e+02 0.0 
0.0 0.0 -1.086271321806e+02 
-1.517639957112e+02 7.790775405717e+00 0.0 
7.790775405717e+00 -3.605211660600e+02 0.0 
0.0 0.0 -1.532855485314e+02 
-1.051886507012e+02 -6.785743678130e-01 0.0 
-6.785743678130e-01 -2.088796969192e+02 0.0 
0.0 0.0 -8.904762338251e+01 
-1.088667171805e+02 -1.854381458634e+00 0.0 
-1.854381458634e+00 -2.216775936392e+02 0.0 
0.0 0.0 -9.466769268570e+01 
-1.556622465835e+01 -5.482806786388e-01 0.0 
-5.482806786388e-01 -3.723623121978e+01 0.0 
0.0 0.0 -1.433682093137e+01 
-1.556900514232e+02 -2.683775523962e-01 0.0 
-2.683775523962e-01 -3.683622480432e+02 0.0 
0.0 0.0 -1.568156898399e+02 
-1.444143973088e+02 7.960130494974e+00 0.0 
7.960130494974e+00 -3.399010013136e+02 0.0 
0.0 0.0 -1.448946195867e+02 
-4.548743559933e+01 2.709444725480e+01 0.0 
2.709444725480e+01 -1.052438953340e+02 0.0 
0.0 0.0 -4.393614845760e+01 
-1.518074557304e+02 7.342075457440e-01 0.0 
7.342075457440e-01 -3.522602729957e+02 0.0 
0.0 0.0 -1.508203186179e+02 
-1.625721130801e+02 -6.545698152344e-01 0.0 
-6.545698152344e-01 -3.805112708603e+02 0.0 
0.0 0.0 -1.625250151821e+02 
-9.146658220471e+01 7.567836499442e-01 0.0 
7.567836499442e-01 -1.989703132432e+02 0.0 
0.0 0.0 -8.673106863438e+01 
-1.123305752252e+02 2.479763855283e-01 0.0 
2.479763855283e-01 -2.497529559176e+02 0.0 
0.0 0.0 -1.082250593429e+02 
-1.039909718563e+02 -2.474590284754e+00 0.0 
-2.474590284754e+00 -2.085848028850e+02 0.0 
0.0 0.0 -8.894970342216e+01 
-1.079151557052e+02 -1.479972275000e+00 0.0 
-1.479972275000e+00 -2.158229703669e+02 0.0 
0.0 0.0 -9.212875329803e+01 
-1.089485804441e+02 -1.046947335837e+00 0.0 
-1.046947335837e+00 -2.223118669409e+02 0.0 
0.0 0.0 -9.479276178314e+01 
-1.447091771107e+02 4.542202295235e+00 0.0 
4.542202295235e+00 -3.489470526563e+02 0.0 
0.0 0.0 -1.476968689301e+02 
-4.387782120662e+01 -1.472128003114e+01 0.0 
-1.472128003114e+01 -6.902149584078e+01 0.0 
0.0 0.0 -2.632466453138e+01 
-1.493921619509e+02 9.353028897044e+00 0.0 
9.353028897044e+00 -3.506030735142e+02 0.0 
0.0 0.0 -1.495985706395e+02 
-9.830410716800e+01 5.616646382874e-02 0.0 
5.616646382874e-02 -2.157998519892e+02 0.0 
0.0 0.0 -9.383118774715e+01 
-1.534676906877e+02 5.806138480671e+00 0.0 
5.806138480671e+00 -3.546428651597e+02 0.0 
0.0 0.0 -1.520331667542e+02 
-1.448435314451e+02 5.528758070111e+00 0.0 
5.528758070111e+00 -3.488284970720e+02 0.0 
0.0 0.0 -1.477016085551e+02 
-1.075097183291e+02 1.027013844704e+00 0.0 
1.027013844704e+00 -2.366813935845e+02 0.0 
0.0 0.0 -1.028573335741e+02 
-1.457168556907e+02 7.790008225293e+00 0.0 
7.790008225293e+00 -3.390250815924e+02 0.0 
0.0 0.0 -1.450225811849e+02 
-1.514751574817e+02 6.676377545911e+00 0.0 
6.676377545911e+00 -3.598321406481e+02 0.0 
0.0 0.0 -1.529921894389e+02 
-1.572931483131e+02 7.736655037037e+00 0.0 
7.736655037037e+00 -3.729713619130e+02 0.0 
0.0 0.0 -1.586793530678e+02 
-4.492637570529e+01 3.752839265144e+01 0.0 
3.752839265144e+01 -6.721974153182e+01 0.0 
0.0 0.0 -3.486974764417e+01 
-1.458903030548e+02 8.924520297071e+00 0.0 
8.924520297071e+00 -3.392790060835e+02 0.0 
0.0 0.0 -1.451507927415e+02 
-1.501875914472e+02 7.869078232390e+00 0.0 
7.869078232390e+00 -3.501835145999e+02 0.0 
0.0 0.0 -1.497113318141e+02 
-1.801711147816e+01 6.088983819540e-01 0.0 
6.088983819540e-01 -3.763476893697e+01 0.0 
0.0 0.0 -1.452517211775e+01 
-1.014968046175e+02 -1.625211265905e+00 0.0 
-1.625211265905e+00 -1.988289886715e+02 0.0 
0.0 0.0 -8.466317466060e+01 
-5.190739234177e+01 3.949210629421e+01 0.0 
3.949210629421e+01 -6.498418490040e+01 0.0 
0.0 0.0 -3.612132599141e+01 
-1.508145630129e+02 8.906107618073e+00 0.0 
8.906107618073e+00 -3.504411198964e+02 0.0 
0.0 0.0 -1.499767048728e+02 
-8.684074004526e+00 1.603058618719e-01 0.0 
1.603058618719e-01 -7.948286546287e+00 0.0 
0.0 0.0 -4.130312547185e+00 
-1.289495982723e+01 -3.152725118867e-01 0.0 
-3.152725118867e-01 -9.742248182848e+00 0.0 
0.0 0.0 -6.782887515965e+00 
-8.293069339585e+00 -8.277764980118e-02 0.0 
-8.277764980118e-02 -9.777863184936e+00 0.0 
0.0 0.0 -4.950242788245e+00 
-1.271178241247e+01 -3.358686422010e-01 0.0 
-3.358686422010e-01 -9.911794811706e+00 0.0 
0.0 0.0 -6.702149803455e+00 
-7.910042407136e+00 -4.758565805052e-02 0.0 
-4.758565805052e-02 -9.860765001346e+00 0.0 
0.0 0.0 -4.922533031213e+00 
-1.251354812647e+01 -4.075987451939e-01 0.0 
-4.075987451939e-01 -9.979745694355e+00 0.0 
0.0 0.0 -6.642349594898e+00 
-7.509667455317e+00 1.059881113196e-02 0.0 
1.059881113196e-02 -9.808436866714e+00 0.0 
0.0 0.0 -4.795431296610e+00 
-1.221939145396e+01 -4.731755684299e-01 0.0 
-4.731755684299e-01 -1.002385424716e+01 0.0 
0.0 0.0 -6.559231094738e+00 
-7.087097644537e+00 5.562959036681e-02 0.0 
5.562959036681e-02 -9.747586372951e+00 0.0 
0.0 0.0 -4.650405205247e+00 
-1.183439404228e+01 -5.389670674522e-01 0.0 
-5.389670674522e-01 -1.006047658138e+01 0.0 
0.0 0.0 -6.453793618209e+00 
-6.628502430937e+00 8.594940336333e-02 0.0 
8.594940336333e-02 -9.693979913112e+00 0.0 
0.0 0.0 -4.496744703215e+00 
-1.134298768507e+01 -6.032593364822e-01 0.0 
-6.032593364822e-01 -1.009801097981e+01 0.0 
0.0 0.0 -6.319696200706e+00 
-6.123700940109e+00 1.038971725563e-01 0.0 
1.038971725563e-01 -9.641449086114e+00 0.0 
0.0 0.0 -4.329545007867e+00 
-1.074312275101e+01 -6.628763726313e-01 0.0 
-6.628763726313e-01 -1.013793518672e+01 0.0 
0.0 0.0 -6.155418393273e+00 
-5.568188307063e+00 1.122411569001e-01 0.0 
1.122411569001e-01 -9.589256462441e+00 0.0 
0.0 0.0 -4.147233430851e+00 
-1.006014728205e+01 -7.171355312740e-01 0.0 
-7.171355312740e-01 -1.017757355119e+01 0.0 
0.0 0.0 -5.959117919559e+00 
-4.959489773508e+00 1.123211794245e-01 0.0 
1.123211794245e-01 -9.538985909122e+00 0.0 
0.0 0.0 -3.949542704789e+00 
-9.303285819601e+00 -7.591463252248e-01 0.0 
-7.591463252248e-01 -1.021591660903e+01 0.0 
0.0 0.0 -5.736333895899e+00 
-4.304272959262e+00 1.067451281278e-01 0.0 
1.067451281278e-01 -9.493245798274e+00 0.0 
0.0 0.0 -3.739255627261e+00 
-8.485456534986e+00 -7.843156263647e-01 0.0 
-7.843156263647e-01 -1.025104291267e+01 0.0 
0.0 0.0 -5.503963508959e+00 
-3.617794194296e+00 1.001540582566e-01 0.0 
1.001540582566e-01 -9.456625457179e+00 0.0 
0.0 0.0 -3.522325895443e+00 
-7.619219995223e+00 -7.907549218520e-01 0.0 
-7.907549218520e-01 -1.028272295262e+01 0.0 
0.0 0.0 -5.255476792872e+00 
-2.171768559405e+01 6.055780580764e+00 0.0 
6.055780580764e+00 -1.250559162594e+01 0.0 
0.0 0.0 -7.603207944120e+00 
-2.923733400955e+00 1.001458847282e-01 0.0 
1.001458847282e-01 -9.432415881217e+00 0.0 
0.0 0.0 -3.306844784651e+00 
-6.746693815072e+00 -7.673036862185e-01 0.0 
-7.673036862185e-01 -1.030441457403e+01 0.0 
0.0 0.0 -4.997588765079e+00 
-2.264475494998e+00 1.151114690576e-01 0.0 
1.151114690576e-01 -9.429612909604e+00 0.0 
0.0 0.0 -3.108226521381e+00 
-2.338451494300e+01 4.839415751982e+00 0.0 
4.839415751982e+00 -1.310292842372e+01 0.0 
0.0 0.0 -8.784492279613e+00 
-5.913346211494e+00 -7.006766830404e-01 0.0 
-7.006766830404e-01 -1.030888869648e+01 0.0 
0.0 0.0 -4.744693790954e+00 
-1.702019113553e+00 1.516355440626e-01 0.0 
1.516355440626e-01 -9.453439165803e+00 0.0 
0.0 0.0 -2.946637483807e+00 
-5.171797217045e+00 -5.858999639808e-01 0.0 
-5.858999639808e-01 -1.029182803750e+01 0.0 
0.0 0.0 -4.515707288049e+00 
-1.309532447082e+00 2.165493723534e-01 0.0 
2.165493723534e-01 -9.508829227254e+00 0.0 
0.0 0.0 -2.845508502301e+00 
-4.555094947471e+00 -4.195024249607e-01 0.0 
-4.195024249607e-01 -1.024738376697e+01 0.0 
0.0 0.0 -4.325103588703e+00 
-1.124363418114e+01 2.178112667473e+00 0.0 
2.178112667473e+00 -5.146758542314e+00 0.0 
0.0 0.0 -1.974803124780e+00 
-1.167063126992e+00 3.126751096869e-01 0.0 
3.126751096869e-01 -9.596941362737e+00 0.0 
0.0 0.0 -2.829201346919e+00 
-4.113105878503e+00 -2.091031163478e-01 0.0 
-2.091031163478e-01 -1.017406645314e+01 0.0 
0.0 0.0 -4.197640533587e+00 
-1.342631070283e+00 4.327029926042e-01 0.0 
4.327029926042e-01 -9.704867528070e+00 0.0 
0.0 0.0 -2.914249579506e+00 
-3.879371842447e+00 2.553112548201e-02 0.0 
2.553112548201e-02 -1.007651633079e+01 0.0 
0.0 0.0 -4.153901119521e+00 
-1.885571035806e+00 5.808656884059e-01 0.0 
5.808656884059e-01 -9.847506184446e+00 0.0 
0.0 0.0 -3.119923166076e+00 
-3.862015535508e+00 3.043299079870e-01 0.0 
3.043299079870e-01 -9.934584455683e+00 0.0 
0.0 0.0 -4.201615212663e+00 
-2.806584297156e+00 6.661066343116e-01 0.0 
6.661066343116e-01 -9.904288555603e+00 0.0 
0.0 0.0 -3.413261855828e+00 
-4.197766123082e+00 5.031652343188e-01 0.0 
5.031652343188e-01 -9.776783481824e+00 0.0 
0.0 0.0 -4.397698886255e+00 
-3.897311849647e+00 5.789888757316e-01 0.0 
5.789888757316e-01 -9.853844472978e+00 0.0 
0.0 0.0 -3.725346896788e+00 
-5.148453580847e+00 5.867755295623e-01 0.0 
5.867755295623e-01 -9.639809088029e+00 0.0 
0.0 0.0 -4.773046177760e+00 
-4.834342751627e+00 2.426398357124e-01 0.0 
2.426398357124e-01 -9.699609419820e+00 0.0 
0.0 0.0 -3.960185651434e+00 
-7.134750636130e+00 7.375312506957e-01 0.0 
7.375312506957e-01 -9.606763547790e+00 0.0 
0.0 0.0 -5.400357031393e+00 
-3.552703479377e+01 1.181590971594e+01 0.0 
1.181590971594e+01 -1.458206839354e+01 0.0 
0.0 0.0 -1.171016256699e+01 
-8.597087566476e+00 1.048414072382e+00 0.0 
1.048414072382e+00 -9.670497137212e+00 0.0 
0.0 0.0 -5.706858655732e+00 
-5.429957640833e+00 -3.807595861833e-01 0.0 
-3.807595861833e-01 -9.366821426918e+00 0.0 
0.0 0.0 -4.039033720325e+00 
-1.061455892951e+01 1.513914268273e+00 0.0 
1.513914268273e+00 -9.974600973252e+00 0.0 
0.0 0.0 -6.066901156684e+00 
-5.632136215504e+00 -1.197204352095e+00 0.0 
-1.197204352095e+00 -9.134332300781e+00 0.0 
0.0 0.0 -4.029940554885e+00 
-1.338027897939e+01 2.183094992887e+00 0.0 
2.183094992887e+00 -1.153865905372e+01 0.0 
0.0 0.0 -6.848664337779e+00 
-5.743566399751e+00 -1.630556871979e+00 0.0 
-1.630556871979e+00 -9.428153166059e+00 0.0 
0.0 0.0 -4.151515869743e+00 
-1.680441890104e+01 2.548388445133e+00 0.0 
2.548388445133e+00 -1.210516424828e+01 0.0 
0.0 0.0 -7.240919158783e+00 
-6.936349578381e+00 -5.720225093524e-01 0.0 
-5.720225093524e-01 -9.086159122855e+00 0.0 
0.0 0.0 -2.508999117333e+00 
-1.000293546656e+01 1.430839175173e+00 0.0 
1.430839175173e+00 -1.005782171713e+01 0.0 
0.0 0.0 -2.575669502626e+00 
-2.493562680910e+01 4.411429944421e+00 0.0 
4.411429944421e+00 -5.787825279802e-03 0.0 
0.0 0.0 -3.937693012378e+00 
-1.090683865522e+01 1.043826417069e+00 0.0 
1.043826417069e+00 -1.024436996247e+01 0.0 
0.0 0.0 -4.773254159298e+00 
-1.104850853935e+01 -1.097292207623e+00 0.0 
-1.097292207623e+00 -8.221300895259e+00 0.0 
0.0 0.0 -5.028086362594e+00 
-1.417066378438e+01 -2.584257841762e-02 0.0 
-2.584257841762e-02 -1.464723506613e+01 0.0 
0.0 0.0 -7.602915406991e+00 
-7.274887992810e+00 -1.512005371923e-01 0.0 
-1.512005371923e-01 -3.743916020568e+00 0.0 
0.0 0.0 -2.117924250133e+00 
-4.137424733148e+01 1.337419592796e+01 0.0 
1.337419592796e+01 -1.282770481604e+01 0.0 
0.0 0.0 -1.292519955217e+01 
-2.030851394468e+01 1.531896832748e-01 0.0 
1.531896832748e-01 -3.114146708695e+01 0.0 
0.0 0.0 -1.427232238359e+01 
-1.642250210321e+01 -4.298756475839e-01 0.0 
-4.298756475839e-01 -2.930967748400e+01 0.0 
0.0 0.0 -1.331965387616e+01 
-2.020711076697e+01 -2.991055642722e-01 0.0 
-2.991055642722e-01 -2.934516695058e+01 0.0 
0.0 0.0 -1.336961054082e+01 
-1.628550890373e+01 -2.877181163867e-01 0.0 
-2.877181163867e-01 -2.926007943141e+01 0.0 
0.0 0.0 -1.326367650054e+01 
-2.016812878119e+01 -4.188822888236e-01 0.0 
-4.188822888236e-01 -2.936276766746e+01 0.0 
0.0 0.0 -1.336175646735e+01 
-1.616633963814e+01 -3.747808648939e-01 0.0 
-3.747808648939e-01 -2.925920683416e+01 0.0 
0.0 0.0 -1.322766394169e+01 
-2.006099804508e+01 -5.152166186441e-01 0.0 
-5.152166186441e-01 -2.938967904273e+01 0.0 
0.0 0.0 -1.335537802040e+01 
-1.597471388039e+01 -4.616109377143e-01 0.0 
-4.616109377143e-01 -2.923452846180e+01 0.0 
0.0 0.0 -1.316277270266e+01 
-1.989063791874e+01 -6.065673829974e-01 0.0 
-6.065673829974e-01 -2.940091177277e+01 0.0 
0.0 0.0 -1.333050122341e+01 
-1.571774068035e+01 -5.487043553678e-01 0.0 
-5.487043553678e-01 -2.920280025511e+01 0.0 
0.0 0.0 -1.307616228064e+01 
-1.966514874289e+01 -6.973912448366e-01 0.0 
-6.973912448366e-01 -2.941647699807e+01 0.0 
0.0 0.0 -1.329704800496e+01 
-1.542520884791e+01 -6.397299875379e-01 0.0 
-6.397299875379e-01 -2.917525198131e+01 0.0 
0.0 0.0 -1.298013824877e+01 
-1.939450883256e+01 -7.868012151569e-01 0.0 
-7.868012151569e-01 -2.943621083429e+01 0.0 
0.0 0.0 -1.325709821458e+01 
-1.510708081242e+01 -7.311694960894e-01 0.0 
-7.311694960894e-01 -2.915451592599e+01 0.0 
0.0 0.0 -1.287847902152e+01 
-1.908846930550e+01 -8.693430735683e-01 0.0 
-8.693430735683e-01 -2.945713968001e+01 0.0 
0.0 0.0 -1.320989803561e+01 
-1.474958071320e+01 -8.180616023989e-01 0.0 
-8.180616023989e-01 -2.913884297049e+01 0.0 
0.0 0.0 -1.276652710511e+01 
-1.875622683800e+01 -9.402782247690e-01 0.0 
-9.402782247690e-01 -2.948443134079e+01 0.0 
0.0 0.0 -1.315844350023e+01 
-1.436175880151e+01 -8.963342726818e-01 0.0 
-8.963342726818e-01 -2.913229496097e+01 0.0 
0.0 0.0 -1.264821612874e+01 
-1.840941357455e+01 -9.942626255597e-01 0.0 
-9.942626255597e-01 -2.951721848253e+01 0.0 
0.0 0.0 -1.310312705372e+01 
-1.395006541879e+01 -9.573768593942e-01 0.0 
-9.573768593942e-01 -2.913907068722e+01 0.0 
0.0 0.0 -1.252674083180e+01 
-2.935909262670e+01 6.916537043385e+00 0.0 
6.916537043385e+00 -3.320049749065e+01 0.0 
0.0 0.0 -1.566606038578e+01 
-1.805969873782e+01 -1.021665833018e+00 0.0 
-1.021665833018e+00 -2.955540706241e+01 0.0 
0.0 0.0 -1.304406143674e+01 
-1.353254739734e+01 -9.863733970190e-01 0.0 
-9.863733970190e-01 -2.917150459592e+01 0.0 
0.0 0.0 -1.241121559798e+01 
-1.772649282787e+01 -1.012168889853e+00 0.0 
-1.012168889853e+00 -2.960092397272e+01 0.0 
0.0 0.0 -1.297947794706e+01 
-2.444700917040e+01 5.330996540666e+00 0.0 
5.330996540666e+00 -2.659332365631e+01 0.0 
0.0 0.0 -1.182827767760e+01 
-1.311287328010e+01 -9.658420454373e-01 0.0 
-9.658420454373e-01 -2.923528638725e+01 0.0 
0.0 0.0 -1.230444790020e+01 
-1.743168871988e+01 -9.498246460885e-01 0.0 
-9.498246460885e-01 -2.965444931551e+01 0.0 
0.0 0.0 -1.290747218934e+01 
-2.897532362587e+01 6.113217855470e+00 0.0 
6.113217855470e+00 -3.290618303499e+01 0.0 
0.0 0.0 -1.618424913006e+01 
-1.270522811254e+01 -8.779692666829e-01 0.0 
-8.779692666829e-01 -2.932623915903e+01 0.0 
0.0 0.0 -1.220944018147e+01 
-1.720586276620e+01 -8.205819347157e-01 0.0 
-8.205819347157e-01 -2.970735379362e+01 0.0 
0.0 0.0 -1.282462253243e+01 
-1.232887054068e+01 -7.126241923951e-01 0.0 
-7.126241923951e-01 -2.942328803982e+01 0.0 
0.0 0.0 -1.212564757415e+01 
-1.709900956158e+01 -6.349205705473e-01 0.0 
-6.349205705473e-01 -2.975403432747e+01 0.0 
0.0 0.0 -1.273204836828e+01 
-1.200721454416e+01 -4.740818570099e-01 0.0 
-4.740818570099e-01 -2.954466551977e+01 0.0 
0.0 0.0 -1.206556401918e+01 
-1.709496469895e+01 -3.783836525211e-01 0.0 
-3.783836525211e-01 -2.977817831776e+01 0.0 
0.0 0.0 -1.268127310623e+01 
-1.175307480098e+01 -1.669920503105e-01 0.0 
-1.669920503105e-01 -2.965067869479e+01 0.0 
0.0 0.0 -1.202112604873e+01 
-1.725235790508e+01 -6.344531539597e-02 0.0 
-6.344531539597e-02 -2.976141147991e+01 0.0 
0.0 0.0 -1.280538714948e+01 
-1.158762154613e+01 1.756103402350e-01 0.0 
1.756103402350e-01 -2.972433821059e+01 0.0 
0.0 0.0 -1.199358792702e+01 
-3.522996518511e+01 8.613665686981e+00 0.0 
8.613665686981e+00 -3.614711893669e+01 0.0 
0.0 0.0 -1.771192354728e+01 
-1.774141746524e+01 3.084139294762e-01 0.0 
3.084139294762e-01 -2.973975489146e+01 0.0 
0.0 0.0 -1.305620507283e+01 
-1.151766477789e+01 5.023052282021e-01 0.0 
5.023052282021e-01 -2.979178832187e+01 0.0 
0.0 0.0 -1.199283592993e+01 
-1.803872567906e+01 7.819410432134e-01 0.0 
7.819410432134e-01 -2.951819772751e+01 0.0 
0.0 0.0 -1.322569024774e+01 
-1.153446968097e+01 7.790745762023e-01 0.0 
7.790745762023e-01 -2.965349598939e+01 0.0 
0.0 0.0 -1.195638970111e+01 
-1.167222226538e+01 9.255913475184e-01 0.0 
9.255913475184e-01 -2.951560351257e+01 0.0 
0.0 0.0 -1.195634773338e+01 
-1.853745109094e+01 1.372731204024e+00 0.0 
1.372731204024e+00 -2.920486825563e+01 0.0 
0.0 0.0 -1.343909146960e+01 
-1.189542396481e+01 8.591736166643e-01 0.0 
8.591736166643e-01 -2.911119937994e+01 0.0 
0.0 0.0 -1.190198700342e+01 
-1.933930144370e+01 2.229616568370e+00 0.0 
2.229616568370e+00 -2.905836049986e+01 0.0 
0.0 0.0 -1.370180586832e+01 
-1.401095357341e+01 1.164714601009e+00 0.0 
1.164714601009e+00 -2.933234129818e+01 0.0 
0.0 0.0 -1.175201803525e+01 
-2.075918187477e+01 3.126485608244e+00 0.0 
3.126485608244e+00 -2.941777506187e+01 0.0 
0.0 0.0 -1.416065804106e+01 
-1.758846318396e+01 2.171138337052e+00 0.0 
2.171138337052e+00 -2.885337207547e+01 0.0 
0.0 0.0 -1.101365079146e+01 
-2.184516859088e+01 3.340251714626e+00 0.0 
3.340251714626e+00 -3.027650963752e+01 0.0 
0.0 0.0 -1.195973892273e+01 
-2.235207356114e+01 4.104852268842e+00 0.0 
4.104852268842e+00 -3.032104067948e+01 0.0 
0.0 0.0 -1.460782583996e+01 
-2.471085700527e+01 4.561188262574e+00 0.0 
4.561188262574e+00 -3.143824106219e+01 0.0 
0.0 0.0 -1.505023775983e+01 
-2.919225253714e+01 6.942020047363e+00 0.0 
6.942020047363e+00 -2.578383387099e+01 0.0 
0.0 0.0 -1.301574123297e+01 
-1.861843592648e+01 1.399364266581e+00 0.0 
1.399364266581e+00 -2.884626457309e+01 0.0 
0.0 0.0 -1.347517998613e+01 
-1.837922357153e+01 -1.393921601611e+00 0.0 
-1.393921601611e+00 -3.080566017205e+01 0.0 
0.0 0.0 -1.385729308517e+01 
-1.523859815554e+01 8.890545965603e-02 0.0 
8.890545965603e-02 -2.463005852185e+01 0.0 
0.0 0.0 -1.134160483213e+01 
-2.142661922755e+01 -1.259222932246e-01 0.0 
-1.259222932246e-01 -3.486914740823e+01 0.0 
0.0 0.0 -1.593495224514e+01 
-3.197208162671e+01 9.949910269275e+00 0.0 
9.949910269275e+00 -2.878620089239e+01 0.0 
0.0 0.0 -1.449548438639e+01 
-2.451530277725e+01 2.048765830287e-01 0.0 
2.048765830287e-01 -4.688414933678e+01 0.0 
0.0 0.0 -2.101983563421e+01 
-2.823758937229e+01 -4.299898008329e-01 0.0 
-4.299898008329e-01 -4.885643228829e+01 0.0 
0.0 0.0 -2.191544060406e+01 
-2.479835183355e+01 -1.072722018908e-01 0.0 
-1.072722018908e-01 -4.857771752671e+01 0.0 
0.0 0.0 -2.161282080808e+01 
-2.817007365944e+01 -4.240926070672e-01 0.0 
-4.240926070672e-01 -4.905470756898e+01 0.0 
0.0 0.0 -2.198067561645e+01 
-2.482568302256e+01 -2.917580105354e-01 0.0 
-2.917580105354e-01 -4.875261316667e+01 0.0 
0.0 0.0 -2.167348885677e+01 
-2.816121166172e+01 -5.962842518193e-01 0.0 
-5.962842518193e-01 -4.909990747641e+01 0.0 
0.0 0.0 -2.199065302647e+01 
-2.478518584131e+01 -4.415963722012e-01 0.0 
-4.415963722012e-01 -4.878612691809e+01 0.0 
0.0 0.0 -2.167139382782e+01 
-2.817643201338e+01 -7.699359372326e-01 0.0 
-7.699359372326e-01 -4.912160405430e+01 0.0 
0.0 0.0 -2.199476661466e+01 
-2.468811188922e+01 -5.667446240670e-01 0.0 
-5.667446240670e-01 -4.877804935623e+01 0.0 
0.0 0.0 -2.163984837363e+01 
-2.819586736852e+01 -9.337794737675e-01 0.0 
-9.337794737675e-01 -4.913907092155e+01 0.0 
0.0 0.0 -2.199529640559e+01 
-2.455115661178e+01 -6.756650050453e-01 0.0 
-6.756650050453e-01 -4.875784448241e+01 0.0 
0.0 0.0 -2.159270032826e+01 
-2.821455409001e+01 -1.087932504006e+00 0.0 
-1.087932504006e+00 -4.915989429592e+01 0.0 
0.0 0.0 -2.199382828013e+01 
-2.438717363089e+01 -7.737152361895e-01 0.0 
-7.737152361895e-01 -4.873899411275e+01 0.0 
0.0 0.0 -2.153785032309e+01 
-2.823255367404e+01 -1.232917158377e+00 0.0 
-1.232917158377e+00 -4.918778123991e+01 0.0 
0.0 0.0 -2.199118511504e+01 
-2.420093640228e+01 -8.600201598128e-01 0.0 
-8.600201598128e-01 -4.872901614640e+01 0.0 
0.0 0.0 -2.147898576460e+01 
-2.825570004144e+01 -1.364679271869e+00 0.0 
-1.364679271869e+00 -4.922356283212e+01 0.0 
0.0 0.0 -2.198722889076e+01 
-2.399639876182e+01 -9.298741798103e-01 0.0 
-9.298741798103e-01 -4.873249130639e+01 0.0 
0.0 0.0 -2.141866702046e+01 
-2.829547573252e+01 -1.477097581059e+00 0.0 
-1.477097581059e+00 -4.926921241873e+01 0.0 
0.0 0.0 -2.198287095083e+01 
-2.377794831097e+01 -9.768884185524e-01 0.0 
-9.768884185524e-01 -4.875418978118e+01 0.0 
0.0 0.0 -2.135964142765e+01 
-3.581906760004e+01 7.407638920417e+00 0.0 
7.407638920417e+00 -5.231886225377e+01 0.0 
0.0 0.0 -2.323037193003e+01 
-2.836198324752e+01 -1.562587482430e+00 0.0 
-1.562587482430e+00 -4.932883741617e+01 0.0 
0.0 0.0 -2.197864798662e+01 
-2.354961614913e+01 -9.906966729688e-01 0.0 
-9.906966729688e-01 -4.880389258952e+01 0.0 
0.0 0.0 -2.130605262159e+01 
-2.846504845747e+01 -1.608255174807e+00 0.0 
-1.608255174807e+00 -4.940980585654e+01 0.0 
0.0 0.0 -2.197464090435e+01 
-3.544144786004e+01 6.899501082718e+00 0.0 
6.899501082718e+00 -5.191597855177e+01 0.0 
0.0 0.0 -2.386181354938e+01 
-2.330883327208e+01 -9.570464601036e-01 0.0 
-9.570464601036e-01 -4.889422258188e+01 0.0 
0.0 0.0 -2.126091675619e+01 
-2.861349123676e+01 -1.595575041106e+00 0.0 
-1.595575041106e+00 -4.951698666418e+01 0.0 
0.0 0.0 -2.196872169618e+01 
-2.305270833236e+01 -8.593947477519e-01 0.0 
-8.593947477519e-01 -4.903528594735e+01 0.0 
0.0 0.0 -2.122639828391e+01 
-2.882003938960e+01 -1.497792622427e+00 0.0 
-1.497792622427e+00 -4.963969678650e+01 0.0 
0.0 0.0 -2.195047318769e+01 
-2.277634688697e+01 -6.870283923239e-01 0.0 
-6.870283923239e-01 -4.921419159476e+01 0.0 
0.0 0.0 -2.119716154452e+01 
-3.166792908749e+01 6.316250468083e+00 0.0 
6.316250468083e+00 -4.577381045614e+01 0.0 
0.0 0.0 -1.979808271526e+01 
-2.911681710201e+01 -1.290771302911e+00 0.0 
-1.290771302911e+00 -4.974572127229e+01 0.0 
0.0 0.0 -2.190913923484e+01 
-2.245763980446e+01 -4.664548699146e-01 0.0 
-4.664548699146e-01 -4.935353312772e+01 0.0 
0.0 0.0 -2.114335187965e+01 
-2.953938310116e+01 -1.029649713227e+00 0.0 
-1.029649713227e+00 -4.985744426979e+01 0.0 
0.0 0.0 -2.184300826357e+01 
-2.207218372011e+01 -2.038552590560e-01 0.0 
-2.038552590560e-01 -4.952269610371e+01 0.0 
0.0 0.0 -2.107846394715e+01 
-2.971701647708e+01 -6.315725766136e-01 0.0 
-6.315725766136e-01 -4.989366385089e+01 0.0 
0.0 0.0 -2.160620915843e+01 
-2.164497881130e+01 1.523054061581e-01 0.0 
1.523054061581e-01 -4.978110663994e+01 0.0 
0.0 0.0 -2.102782563537e+01 
-2.990319249374e+01 -7.511525337001e-04 0.0 
-7.511525337001e-04 -4.986174814570e+01 0.0 
0.0 0.0 -2.125929287538e+01 
-2.124528468636e+01 6.159908382434e-01 0.0 
6.159908382434e-01 -5.005151819039e+01 0.0 
0.0 0.0 -2.098904086302e+01 
-3.020394068100e+01 8.720315202790e-01 0.0 
8.720315202790e-01 -4.986489675689e+01 0.0 
0.0 0.0 -2.152413483220e+01 
-2.168895407893e+01 1.212212417790e+00 0.0 
1.212212417790e+00 -5.015987129169e+01 0.0 
0.0 0.0 -2.072011291101e+01 
-3.055697193997e+01 1.998573350175e+00 0.0 
1.998573350175e+00 -4.973605690112e+01 0.0 
0.0 0.0 -2.184584163690e+01 
-3.973398069923e+01 8.016925696632e+00 0.0 
8.016925696632e+00 -5.512057345593e+01 0.0 
0.0 0.0 -2.491768348671e+01 
-3.110609700957e+01 3.108934039542e+00 0.0 
3.108934039542e+00 -4.980659923627e+01 0.0 
0.0 0.0 -2.222922701529e+01 
-2.285903128425e+01 1.862687453418e+00 0.0 
1.862687453418e+00 -4.992683035526e+01 0.0 
0.0 0.0 -2.024327323693e+01 
-3.182349004023e+01 4.467880911677e+00 0.0 
4.467880911677e+00 -4.995281468377e+01 0.0 
0.0 0.0 -2.270673344531e+01 
-2.463863836958e+01 2.593044628642e+00 0.0 
2.593044628642e+00 -4.996788024772e+01 0.0 
0.0 0.0 -1.997315985725e+01 
-3.284654281859e+01 5.354044589634e+00 0.0 
5.354044589634e+00 -5.075677718887e+01 0.0 
0.0 0.0 -2.303688787380e+01 
-2.721470765078e+01 3.557679278292e+00 0.0 
3.557679278292e+00 -4.970240545340e+01 0.0 
0.0 0.0 -1.940919364780e+01 
-3.032700124051e+01 4.724074204843e+00 0.0 
4.724074204843e+00 -5.051800737968e+01 0.0 
0.0 0.0 -2.033874704298e+01 
-3.490393875665e+01 7.526689311279e+00 0.0 
7.526689311279e+00 -4.597032993866e+01 0.0 
0.0 0.0 -2.127028433820e+01 
-2.651730507288e+01 1.380093369246e+00 0.0 
1.380093369246e+00 -4.913676004664e+01 0.0 
0.0 0.0 -2.193264353017e+01 
-2.670215608724e+01 -1.526327778461e+00 0.0 
-1.526327778461e+00 -4.744627516806e+01 0.0 
0.0 0.0 -2.164702619091e+01 
-2.966626869217e+01 -1.945006984186e-04 0.0 
-1.945006984186e-04 -5.341024379045e+01 0.0 
0.0 0.0 -2.409266403978e+01 
-2.320738146999e+01 -1.587458628471e-01 0.0 
-1.587458628471e-01 -4.328235885519e+01 0.0 
0.0 0.0 -1.954068126489e+01 
-3.647503225847e+01 8.761370828867e+00 0.0 
8.761370828867e+00 -4.705483290419e+01 0.0 
0.0 0.0 -2.150002776947e+01 
-3.576061848555e+01 2.306054461660e-01 0.0 
2.306054461660e-01 -7.002369054177e+01 0.0 
0.0 0.0 -3.123592917877e+01 
-3.380655347116e+01 -4.639579036854e-01 0.0 
-4.639579036854e-01 -6.817177203306e+01 0.0 
0.0 0.0 -3.019349765126e+01 
-3.582675980104e+01 -2.380544531429e-01 0.0 
-2.380544531429e-01 -6.835572453731e+01 0.0 
0.0 0.0 -3.039921627521e+01 
-3.371616669131e+01 -3.735997813589e-01 0.0 
-3.735997813589e-01 -6.810680841387e+01 0.0 
0.0 0.0 -3.014689253155e+01 
-3.599165931522e+01 -3.789772587765e-01 0.0 
-3.789772587765e-01 -6.837566425828e+01 0.0 
0.0 0.0 -3.042030757290e+01 
-3.369212747807e+01 -5.125439005099e-01 0.0 
-5.125439005099e-01 -6.811716153959e+01 0.0 
0.0 0.0 -3.014278670530e+01 
-3.616106795673e+01 -5.256338996615e-01 0.0 
-5.256338996615e-01 -6.842691449515e+01 0.0 
0.0 0.0 -3.046039388989e+01 
-3.367973953099e+01 -6.673525656884e-01 0.0 
-6.673525656884e-01 -6.812092504095e+01 0.0 
0.0 0.0 -3.014019937158e+01 
-3.634770875155e+01 -6.726983103174e-01 0.0 
-6.726983103174e-01 -6.845553761272e+01 0.0 
0.0 0.0 -3.049062409784e+01 
-3.366066356669e+01 -8.145453205244e-01 0.0 
-8.145453205244e-01 -6.812175102415e+01 0.0 
0.0 0.0 -3.013472437725e+01 
-3.656018896221e+01 -8.110022651175e-01 0.0 
-8.110022651175e-01 -6.847695827125e+01 0.0 
0.0 0.0 -3.051710452550e+01 
-3.363117701134e+01 -9.481740937105e-01 0.0 
-9.481740937105e-01 -6.812396876483e+01 0.0 
0.0 0.0 -3.012654373285e+01 
-3.680625807181e+01 -9.406637696113e-01 0.0 
-9.406637696113e-01 -6.850069575996e+01 0.0 
0.0 0.0 -3.054402023757e+01 
-3.359342394411e+01 -1.067475457994e+00 0.0 
-1.067475457994e+00 -6.813874035459e+01 0.0 
0.0 0.0 -3.011964928961e+01 
-3.708872641929e+01 -1.057102109850e+00 0.0 
-1.057102109850e+00 -6.853507904737e+01 0.0 
0.0 0.0 -3.057358172981e+01 
-3.354880896572e+01 -1.167545550064e+00 0.0 
-1.167545550064e+00 -6.817367003087e+01 0.0 
0.0 0.0 -3.011674369898e+01 
-3.741706635545e+01 -1.152061356621e+00 0.0 
-1.152061356621e+00 -6.858395031702e+01 0.0 
0.0 0.0 -3.060620850105e+01 
-3.349775011673e+01 -1.240564257219e+00 0.0 
-1.240564257219e+00 -6.822976802919e+01 0.0 
0.0 0.0 -3.011825544377e+01 
-4.330957870002e+01 7.137591992722e+00 0.0 
7.137591992722e+00 -7.240643662022e+01 0.0 
0.0 0.0 -3.111827110691e+01 
-3.780560651698e+01 -1.221583081375e+00 0.0 
-1.221583081375e+00 -6.865071472538e+01 0.0 
0.0 0.0 -3.064339221668e+01 
-3.344083011879e+01 -1.280468499749e+00 0.0 
-1.280468499749e+00 -6.831863348263e+01 0.0 
0.0 0.0 -3.012783908042e+01 
-3.826184920454e+01 -1.258326859236e+00 0.0 
-1.258326859236e+00 -6.874438965328e+01 0.0 
0.0 0.0 -3.068576006436e+01 
-3.915554815396e+01 6.273820406143e+00 0.0 
6.273820406143e+00 -6.566761425249e+01 0.0 
0.0 0.0 -2.787449535103e+01 
-3.337370958423e+01 -1.278932787541e+00 0.0 
-1.278932787541e+00 -6.845535863977e+01 0.0 
0.0 0.0 -3.014872046720e+01 
-4.389128460003e+01 6.460240362814e+00 0.0 
6.460240362814e+00 -7.172560992738e+01 0.0 
0.0 0.0 -3.186160680297e+01 
-3.879602223332e+01 -1.248189084923e+00 0.0 
-1.248189084923e+00 -6.887782347640e+01 0.0 
0.0 0.0 -3.073531829975e+01 
-3.328754065478e+01 -1.224407863443e+00 0.0 
-1.224407863443e+00 -6.865352140054e+01 0.0 
0.0 0.0 -3.018231861660e+01 
-3.941841986109e+01 -1.169806037925e+00 0.0 
-1.169806037925e+00 -6.906081034628e+01 0.0 
0.0 0.0 -3.079157374577e+01 
-3.316569829060e+01 -1.101832255507e+00 0.0 
-1.101832255507e+00 -6.892134217625e+01 0.0 
0.0 0.0 -3.022611214005e+01 
-4.014176480384e+01 -9.806008510939e-01 0.0 
-9.806008510939e-01 -6.927657325084e+01 0.0 
0.0 0.0 -3.083801982752e+01 
-3.299307501283e+01 -8.916795372971e-01 0.0 
-8.916795372971e-01 -6.920253416882e+01 0.0 
0.0 0.0 -3.025868275450e+01 
-4.053945892861e+01 -7.140266776637e-01 0.0 
-7.140266776637e-01 -6.938689286119e+01 0.0 
0.0 0.0 -3.069601691332e+01 
-3.277516943339e+01 -5.423804177689e-01 0.0 
-5.423804177689e-01 -6.959994863760e+01 0.0 
0.0 0.0 -3.031253542130e+01 
-4.655892715984e+01 7.540475193529e+00 0.0 
7.540475193529e+00 -7.474062325924e+01 0.0 
0.0 0.0 -3.264744173334e+01 
-4.087337395926e+01 -2.352988930423e-01 0.0 
-2.352988930423e-01 -6.951861222185e+01 0.0 
0.0 0.0 -3.045736073112e+01 
-3.310655907093e+01 -7.119706815791e-02 0.0 
-7.119706815791e-02 -6.992305035122e+01 0.0 
0.0 0.0 -3.019479327639e+01 
-4.125018450558e+01 3.955866632073e-01 0.0 
3.955866632073e-01 -6.977365417651e+01 0.0 
0.0 0.0 -3.018556421451e+01 
-3.374572053160e+01 5.296520435934e-01 0.0 
5.296520435934e-01 -7.035663211608e+01 0.0 
0.0 0.0 -3.001569304439e+01 
-3.461101411594e+01 1.268185855391e+00 0.0 
1.268185855391e+00 -7.053417359880e+01 0.0 
0.0 0.0 -2.963702847808e+01 
-4.161527036735e+01 1.269712038323e+00 0.0 
1.269712038323e+00 -7.005767721986e+01 0.0 
0.0 0.0 -2.975897178103e+01 
-3.565283604092e+01 2.201530290193e+00 0.0 
2.201530290193e+00 -7.078943001835e+01 0.0 
0.0 0.0 -2.909262575421e+01 
-4.197342855115e+01 2.253267536424e+00 0.0 
2.253267536424e+00 -7.035237806393e+01 0.0 
0.0 0.0 -3.015731229032e+01 
-3.716218237494e+01 3.384645018396e+00 0.0 
3.384645018396e+00 -7.029353563099e+01 0.0 
0.0 0.0 -2.834569524775e+01 
-3.894090945144e+01 4.714171271729e+00 0.0 
4.714171271729e+00 -7.092176046155e+01 0.0 
0.0 0.0 -2.839754202764e+01 
-4.225827400631e+01 3.660836454857e+00 0.0 
3.660836454857e+00 -7.038132373463e+01 0.0 
0.0 0.0 -3.063771256223e+01 
-4.244059259063e+01 4.793071350128e+00 0.0 
4.793071350128e+00 -7.091324934179e+01 0.0 
0.0 0.0 -3.102722671565e+01 
-4.222636520541e+01 7.469058011072e+00 0.0 
7.469058011072e+00 -6.565558756990e+01 0.0 
0.0 0.0 -2.940740415916e+01 
-3.514665923205e+01 1.481845954531e+00 0.0 
1.481845954531e+00 -6.786450385932e+01 0.0 
0.0 0.0 -3.050334892741e+01 
-3.480483796809e+01 -1.462574539270e+00 0.0 
-1.462574539270e+00 -6.986166603910e+01 0.0 
0.0 0.0 -3.099995120216e+01 
-3.266483907516e+01 1.449040676888e-01 0.0 
1.449040676888e-01 -6.375277354602e+01 0.0 
0.0 0.0 -2.852528378636e+01 
-3.721565028462e+01 -1.687914775350e-01 0.0 
-1.687914775350e-01 -7.383250165252e+01 0.0 
0.0 0.0 -3.291444558114e+01 
-4.224389305330e+01 8.246875768554e+00 0.0 
8.246875768554e+00 -6.586828767731e+01 0.0 
0.0 0.0 -2.913203535127e+01 
-4.228352622858e+01 2.358094844237e-01 0.0 
2.358094844237e-01 -8.601625336282e+01 0.0 
0.0 0.0 -3.808993387742e+01 
-4.368116604172e+01 -3.502618267881e-01 0.0 
-3.502618267881e-01 -8.783104261825e+01 0.0 
0.0 0.0 -3.893895450479e+01 
-4.253242244456e+01 -2.278694449359e-02 0.0 
-2.278694449359e-02 -8.754426405257e+01 0.0 
0.0 0.0 -3.862300594914e+01 
-4.373397111546e+01 -2.725825648927e-01 0.0 
-2.725825648927e-01 -8.798752357314e+01 0.0 
0.0 0.0 -3.900666088820e+01 
-4.263618340652e+01 -2.056188081146e-01 0.0 
-2.056188081146e-01 -8.768750494525e+01 0.0 
0.0 0.0 -3.869710650553e+01 
-4.388202589758e+01 -4.183952832519e-01 0.0 
-4.183952832519e-01 -8.801674219830e+01 0.0 
0.0 0.0 -3.902875492565e+01 
-4.271725381432e+01 -3.629235454446e-01 0.0 
-3.629235454446e-01 -8.773378142774e+01 0.0 
0.0 0.0 -3.873531057262e+01 
-4.412715330483e+01 -5.734591482332e-01 0.0 
-5.734591482332e-01 -8.804279750755e+01 0.0 
0.0 0.0 -3.906345152285e+01 
-4.279022226522e+01 -4.983961432368e-01 0.0 
-4.983961432368e-01 -8.776178002305e+01 0.0 
0.0 0.0 -3.876560068648e+01 
-4.445766043701e+01 -7.206443471565e-01 0.0 
-7.206443471565e-01 -8.807321877180e+01 0.0 
0.0 0.0 -3.911020089722e+01 
-4.285849167968e+01 -6.129631075364e-01 0.0 
-6.129631075364e-01 -8.778334825262e+01 0.0 
0.0 0.0 -3.879255197969e+01 
-4.485498449128e+01 -8.531045350258e-01 0.0 
-8.531045350258e-01 -8.810496766604e+01 0.0 
0.0 0.0 -3.916113478723e+01 
-4.292508563489e+01 -7.085304449600e-01 0.0 
-7.085304449600e-01 -8.780477954741e+01 0.0 
0.0 0.0 -3.881895955469e+01 
-4.531660047900e+01 -9.741205347948e-01 0.0 
-9.741205347948e-01 -8.815172384560e+01 0.0 
0.0 0.0 -3.922083659718e+01 
-4.299359015574e+01 -7.807374557034e-01 0.0 
-7.807374557034e-01 -8.784525436500e+01 0.0 
0.0 0.0 -3.885165335622e+01 
-4.584757166121e+01 -1.074591181565e+00 0.0 
-1.074591181565e+00 -8.822145869797e+01 0.0 
0.0 0.0 -3.929166227186e+01 
-4.306379287004e+01 -8.230018083642e-01 0.0 
-8.230018083642e-01 -8.791417346130e+01 0.0 
0.0 0.0 -3.889338989940e+01 
-5.216763692124e+01 6.133315528310e+00 0.0 
6.133315528310e+00 -9.294138264667e+01 0.0 
0.0 0.0 -3.870182289701e+01 
-4.645552047099e+01 -1.141754457731e+00 0.0 
-1.141754457731e+00 -8.831118051366e+01 0.0 
0.0 0.0 -3.936991786369e+01 
-4.313380363917e+01 -8.333957642407e-01 0.0 
-8.333957642407e-01 -8.800748318545e+01 0.0 
0.0 0.0 -3.894238604739e+01 
-5.367993055061e+01 4.886885005565e+00 0.0 
4.886885005565e+00 -9.268183317953e+01 0.0 
0.0 0.0 -3.967637570787e+01 
-4.715088787767e+01 -1.176286533741e+00 0.0 
-1.176286533741e+00 -8.843341985266e+01 0.0 
0.0 0.0 -3.945794676377e+01 
-4.320153847995e+01 -8.045408975973e-01 0.0 
-8.045408975973e-01 -8.814642649039e+01 0.0 
0.0 0.0 -3.900438949110e+01 
-4.794694451253e+01 -1.165909388036e+00 0.0 
-1.165909388036e+00 -8.860599051928e+01 0.0 
0.0 0.0 -3.956263477448e+01 
-4.326235389626e+01 -7.276210086042e-01 0.0 
-7.276210086042e-01 -8.834852592643e+01 0.0 
0.0 0.0 -3.908326394681e+01 
-4.886195480850e+01 -1.094624274328e+00 0.0 
-1.094624274328e+00 -8.884565851608e+01 0.0 
0.0 0.0 -3.969065772339e+01 
-4.814071728174e+01 5.334782780305e+00 0.0 
5.334782780305e+00 -8.621358309573e+01 0.0 
0.0 0.0 -3.563793057437e+01 
-4.330638099997e+01 -5.935974243995e-01 0.0 
-5.935974243995e-01 -8.862843435641e+01 0.0 
0.0 0.0 -3.918044460691e+01 
-4.990437231397e+01 -9.399235464459e-01 0.0 
-9.399235464459e-01 -8.916736015934e+01 0.0 
0.0 0.0 -3.984648597342e+01 
-4.331265809544e+01 -3.798233941572e-01 0.0 
-3.798233941572e-01 -8.900951211005e+01 0.0 
0.0 0.0 -3.929665106165e+01 
-5.052782503740e+01 -5.923464336862e-01 0.0 
-5.923464336862e-01 -8.944200877706e+01 0.0 
0.0 0.0 -3.979292604455e+01 
-4.384351093535e+01 -2.959490396622e-02 0.0 
-2.959490396622e-02 -8.938609107861e+01 0.0 
0.0 0.0 -3.926734286852e+01 
-5.108719360321e+01 -1.247746350558e-01 0.0 
-1.247746350558e-01 -8.985296435256e+01 0.0 
0.0 0.0 -3.971436218772e+01 
-4.456889053055e+01 4.285359406770e-01 0.0 
4.285359406770e-01 -8.987546742189e+01 0.0 
0.0 0.0 -3.918012674005e+01 
-5.160986169357e+01 5.424663019036e-01 0.0 
5.424663019036e-01 -9.024052414554e+01 0.0 
0.0 0.0 -3.949043191003e+01 
-4.541641670305e+01 1.019501545454e+00 0.0 
1.019501545454e+00 -9.030121402195e+01 0.0 
0.0 0.0 -3.897815246765e+01 
-5.212640601267e+01 1.277831114764e+00 0.0 
1.277831114764e+00 -9.084233383718e+01 0.0 
0.0 0.0 -3.931808319470e+01 
-5.488290176471e+01 6.198982908659e+00 0.0 
6.198982908659e+00 -9.497475712438e+01 0.0 
0.0 0.0 -4.014693181293e+01 
-5.255612892280e+01 2.350171786170e+00 0.0 
2.350171786170e+00 -9.125126471384e+01 0.0 
0.0 0.0 -3.877055819361e+01 
-4.632462136845e+01 1.771511074528e+00 0.0 
1.771511074528e+00 -9.088624792558e+01 0.0 
0.0 0.0 -3.867176917663e+01 
-5.265224898215e+01 3.306821964897e+00 0.0 
3.306821964897e+00 -9.193193943075e+01 0.0 
0.0 0.0 -3.881404697958e+01 
-4.748999283194e+01 2.687060932867e+00 0.0 
2.687060932867e+00 -9.105770046403e+01 0.0 
0.0 0.0 -3.806294645758e+01 
-4.862748548912e+01 3.914518918784e+00 0.0 
3.914518918784e+00 -9.174671089577e+01 0.0 
0.0 0.0 -3.744625598798e+01 
-5.106762593707e+01 6.233187863381e+00 0.0 
6.233187863381e+00 -8.605042891508e+01 0.0 
0.0 0.0 -3.726985023484e+01 
-4.292003088463e+01 1.462642474870e+00 0.0 
1.462642474870e+00 -8.821461185391e+01 0.0 
0.0 0.0 -3.894039282156e+01 
-4.324419950624e+01 -1.481954943656e+00 0.0 
-1.481954943656e+00 -8.632088473434e+01 0.0 
0.0 0.0 -3.846952527217e+01 
-4.539056860048e+01 1.170022777401e-01 0.0 
1.170022777401e-01 -9.237766615850e+01 0.0 
0.0 0.0 -4.093047042769e+01 
-4.084327566982e+01 -1.788377083352e-01 0.0 
-1.788377083352e-01 -8.229696088465e+01 0.0 
0.0 0.0 -3.654207096634e+01 
-4.999287844862e+01 7.099620071373e+00 0.0 
7.099620071373e+00 -8.612763752083e+01 0.0 
0.0 0.0 -3.670265290709e+01 
-5.273147978238e+01 2.702747418631e-01 0.0 
2.702747418631e-01 -1.091033653976e+02 0.0 
0.0 0.0 -4.815045355400e+01 
-5.160843699914e+01 -3.512710059690e-01 0.0 
-3.512710059690e-01 -1.072201563643e+02 0.0 
0.0 0.0 -4.724857800903e+01 
-5.206315372593e+01 -3.059033306174e-02 0.0 
-3.059033306174e-02 -1.073682453117e+02 0.0 
0.0 0.0 -4.742941971130e+01 
-5.155367740337e+01 -1.803099101718e-01 0.0 
-1.803099101718e-01 -1.070869998258e+02 0.0 
0.0 0.0 -4.719220316876e+01 
-5.212297870953e+01 -1.199863129797e-01 0.0 
-1.199863129797e-01 -1.073154079216e+02 0.0 
0.0 0.0 -4.743151598934e+01 
-5.158863041181e+01 -2.555536102576e-01 0.0 
-2.555536102576e-01 -1.070936351873e+02 0.0 
0.0 0.0 -4.720467967972e+01 
-5.225515716957e+01 -2.013597546696e-01 0.0 
-2.013597546696e-01 -1.073582744540e+02 0.0 
0.0 0.0 -4.748402948707e+01 
-5.167313864054e+01 -3.473588637078e-01 0.0 
-3.473588637078e-01 -1.071069980280e+02 0.0 
0.0 0.0 -4.723404100056e+01 
-5.245826603850e+01 -2.779376589289e-01 0.0 
-2.779376589289e-01 -1.074084388726e+02 0.0 
0.0 0.0 -4.756001147334e+01 
-5.179465123401e+01 -4.382481099217e-01 0.0 
-4.382481099217e-01 -1.071270337601e+02 0.0 
0.0 0.0 -4.727650549823e+01 
-5.279016512190e+01 -3.576839980786e-01 0.0 
-3.576839980786e-01 -1.074592826213e+02 0.0 
0.0 0.0 -4.764532505611e+01 
-5.194097122074e+01 -5.211914499132e-01 0.0 
-5.211914499132e-01 -1.071762469622e+02 0.0 
0.0 0.0 -4.733516545488e+01 
-5.336075240336e+01 -4.308821609500e-01 0.0 
-4.308821609500e-01 -1.075017531096e+02 0.0 
0.0 0.0 -4.771248990517e+01 
-5.209965114750e+01 -5.771759410727e-01 0.0 
-5.771759410727e-01 -1.072355856110e+02 0.0 
0.0 0.0 -4.740057102754e+01 
-5.405131483856e+01 -4.826002438770e-01 0.0 
-4.826002438770e-01 -1.075708350026e+02 0.0 
0.0 0.0 -4.780525028761e+01 
-5.227813912631e+01 -6.088183078811e-01 0.0 
-6.088183078811e-01 -1.073309547703e+02 0.0 
0.0 0.0 -4.748272816899e+01 
-6.127686967727e+01 4.801295846820e+00 0.0 
4.801295846820e+00 -1.137147426390e+02 0.0 
0.0 0.0 -4.755690360772e+01 
-5.482963991569e+01 -5.059943246642e-01 0.0 
-5.059943246642e-01 -1.076731864305e+02 0.0 
0.0 0.0 -4.791715098802e+01 
-5.247069595129e+01 -6.079149855630e-01 0.0 
-6.079149855630e-01 -1.074681457289e+02 0.0 
0.0 0.0 -4.758165250407e+01 
-5.756854972137e+01 3.923732596425e+00 0.0 
3.923732596425e+00 -1.069638930145e+02 0.0 
0.0 0.0 -4.479341156872e+01 
-5.566828009574e+01 -4.992417459182e-01 0.0 
-4.992417459182e-01 -1.077902500923e+02 0.0 
0.0 0.0 -4.801775361049e+01 
-5.266825526544e+01 -5.617733814183e-01 0.0 
-5.617733814183e-01 -1.076502888715e+02 0.0 
0.0 0.0 -4.769556324109e+01 
-6.297449944017e+01 3.491948237866e+00 0.0 
3.491948237866e+00 -1.126817313379e+02 0.0 
0.0 0.0 -4.816041400374e+01 
-5.661656688433e+01 -4.447711659796e-01 0.0 
-4.447711659796e-01 -1.079557562246e+02 0.0 
0.0 0.0 -4.813729071329e+01 
-5.287834239728e+01 -4.637347388723e-01 0.0 
-4.637347388723e-01 -1.079017462941e+02 0.0 
0.0 0.0 -4.783402660742e+01 
-5.767560712183e+01 -3.249364493103e-01 0.0 
-3.249364493103e-01 -1.081902741221e+02 0.0 
0.0 0.0 -4.828343973429e+01 
-5.310657173590e+01 -3.022942216053e-01 0.0 
-3.022942216053e-01 -1.082404855532e+02 0.0 
0.0 0.0 -4.800411718673e+01 
-5.885757823243e+01 -1.255445507554e-01 0.0 
-1.255445507554e-01 -1.085110626163e+02 0.0 
0.0 0.0 -4.845553258238e+01 
-5.337070042531e+01 -5.437150031250e-02 0.0 
-5.437150031250e-02 -1.087230287693e+02 0.0 
0.0 0.0 -4.822811875838e+01 
-6.380099284483e+01 4.677814278157e+00 0.0 
4.677814278157e+00 -1.152958247368e+02 0.0 
0.0 0.0 -4.836968474270e+01 
-5.982114653528e+01 1.454543578052e-01 0.0 
1.454543578052e-01 -1.089319556184e+02 0.0 
0.0 0.0 -4.856737144686e+01 
-5.416895906730e+01 2.577391299160e-01 0.0 
2.577391299160e-01 -1.092940039528e+02 0.0 
0.0 0.0 -4.830062415159e+01 
-6.043056265719e+01 5.879081012200e-01 0.0 
5.879081012200e-01 -1.093483028258e+02 0.0 
0.0 0.0 -4.847318359841e+01 
-5.509967033696e+01 7.106027076926e-01 0.0 
7.106027076926e-01 -1.097591756626e+02 0.0 
0.0 0.0 -4.824395214492e+01 
-5.604703083130e+01 1.290299478059e+00 0.0 
1.290299478059e+00 -1.105528685804e+02 0.0 
0.0 0.0 -4.819144350969e+01 
-6.105494229317e+01 1.060114398635e+00 0.0 
1.060114398635e+00 -1.099609850731e+02 0.0 
0.0 0.0 -4.844085014446e+01 
-5.719444446260e+01 2.052259950689e+00 0.0 
2.052259950689e+00 -1.108311469813e+02 0.0 
0.0 0.0 -4.787440524183e+01 
-6.162780504724e+01 1.884992550936e+00 0.0 
1.884992550936e+00 -1.105288670442e+02 0.0 
0.0 0.0 -4.818742851459e+01 
-5.818493258324e+01 2.937032637374e+00 0.0 
2.937032637374e+00 -1.118384948662e+02 0.0 
0.0 0.0 -4.756484073297e+01 
-6.183032083968e+01 2.438882966356e+00 0.0 
2.438882966356e+00 -1.114949301375e+02 0.0 
0.0 0.0 -4.823403887435e+01 
-6.045658607413e+01 4.533425013599e+00 0.0 
4.533425013599e+00 -1.070040922340e+02 0.0 
0.0 0.0 -4.487184127578e+01 
-5.231727740351e+01 1.468757290968e+00 0.0 
1.468757290968e+00 -1.069873470391e+02 0.0 
0.0 0.0 -4.739138733278e+01 
-5.198750737563e+01 -1.466728777130e+00 0.0 
-1.466728777130e+00 -1.089090046821e+02 0.0 
0.0 0.0 -4.786895361733e+01 
-4.986889858147e+01 1.249363898564e-01 0.0 
1.249363898564e-01 -1.028271027808e+02 0.0 
0.0 0.0 -4.540880040869e+01 
-5.435430898633e+01 -1.724773524351e-01 0.0 
-1.724773524351e-01 -1.129080939443e+02 0.0 
0.0 0.0 -4.977872087918e+01 
-5.898455438817e+01 5.585518332441e+00 0.0 
5.585518332441e+00 -1.064946542399e+02 0.0 
0.0 0.0 -4.414912613038e+01 
-5.962011038067e+01 2.691542154141e-01 0.0 
2.691542154141e-01 -1.251768367936e+02 0.0 
0.0 0.0 -5.503908415229e+01 
-6.056014122332e+01 -2.722849376291e-01 0.0 
-2.722849376291e-01 -1.268469105472e+02 0.0 
0.0 0.0 -5.582211553117e+01 
-6.039847333616e+01 3.008417050290e-03 0.0 
3.008417050290e-03 -1.268173244023e+02 0.0 
0.0 0.0 -5.576473932152e+01 
-6.073177900436e+01 -8.561577266622e-02 0.0 
-8.561577266622e-02 -1.269624075835e+02 0.0 
0.0 0.0 -5.590825597636e+01 
-6.050626983529e+01 -4.082252662779e-02 0.0 
-4.082252662779e-02 -1.268764205484e+02 0.0 
0.0 0.0 -5.581480711510e+01 
-6.083604450690e+01 -1.188441297722e-01 0.0 
-1.188441297722e-01 -1.269910574156e+02 0.0 
0.0 0.0 -5.594813057676e+01 
-6.064156622741e+01 -5.869908301601e-02 0.0 
-5.869908301601e-02 -1.269265622556e+02 0.0 
0.0 0.0 -5.587043854491e+01 
-6.101650154977e+01 -1.343691883486e-01 0.0 
-1.343691883486e-01 -1.270200349609e+02 0.0 
0.0 0.0 -5.601096095321e+01 
-6.084196918279e+01 -7.057756272042e-02 0.0 
-7.057756272042e-02 -1.269704128760e+02 0.0 
0.0 0.0 -5.594371461764e+01 
-6.123122649854e+01 -1.417117284877e-01 0.0 
-1.417117284877e-01 -1.270549206651e+02 0.0 
0.0 0.0 -5.608584414909e+01 
-6.107830433777e+01 -5.977145878369e-02 0.0 
-5.977145878369e-02 -1.270276779052e+02 0.0 
0.0 0.0 -5.603179467290e+01 
-6.150785051537e+01 -1.350849624903e-01 0.0 
-1.350849624903e-01 -1.271254552453e+02 0.0 
0.0 0.0 -5.618999172819e+01 
-6.126692070880e+01 -2.036930573637e-02 0.0 
-2.036930573637e-02 -1.270864236276e+02 0.0 
0.0 0.0 -5.610600330091e+01 
-6.181252382304e+01 -1.082593169101e-01 0.0 
-1.082593169101e-01 -1.272042873224e+02 0.0 
0.0 0.0 -5.630504334363e+01 
-6.151000880968e+01 2.435996546780e-02 0.0 
2.435996546780e-02 -1.271617925976e+02 0.0 
0.0 0.0 -5.620154042217e+01 
-6.971292498275e+01 4.208254754855e+00 0.0 
4.208254754855e+00 -1.332784261953e+02 0.0 
0.0 0.0 -5.744393671716e+01 
-6.229369531731e+01 -9.514996609770e-02 0.0 
-9.514996609770e-02 -1.273365770634e+02 0.0 
0.0 0.0 -5.648908171422e+01 
-7.126179360914e+01 2.890115008630e+00 0.0 
2.890115008630e+00 -1.321959464879e+02 0.0 
0.0 0.0 -5.783779766876e+01 
-6.176656873928e+01 5.377183944552e-02 0.0 
5.377183944552e-02 -1.272307917385e+02 0.0 
0.0 0.0 -5.629920814334e+01 
-6.313385486937e+01 -9.526516351225e-02 0.0 
-9.526516351225e-02 -1.274922604305e+02 0.0 
0.0 0.0 -5.662558498776e+01 
-6.202622089892e+01 1.348205033304e-01 0.0 
1.348205033304e-01 -1.274443540187e+02 0.0 
0.0 0.0 -5.644117247528e+01 
-6.416471726640e+01 -6.199450673199e-06 0.0 
-6.199450673199e-06 -1.276889358991e+02 0.0 
0.0 0.0 -5.675930519835e+01 
-6.230273126282e+01 2.759637029061e-01 0.0 
2.759637029061e-01 -1.277121001822e+02 0.0 
0.0 0.0 -5.660444943351e+01 
-6.531823297335e+01 1.563454980454e-01 0.0 
1.563454980454e-01 -1.279640915730e+02 0.0 
0.0 0.0 -5.693801704872e+01 
-6.618581433780e+01 3.228976364446e+00 0.0 
3.228976364446e+00 -1.267181960646e+02 0.0 
0.0 0.0 -5.474934669007e+01 
-6.260211052486e+01 4.752667709539e-01 0.0 
4.752667709539e-01 -1.280566414076e+02 0.0 
0.0 0.0 -5.679762557972e+01 
-6.659634300599e+01 3.885439738873e-01 0.0 
3.885439738873e-01 -1.283287788661e+02 0.0 
0.0 0.0 -5.714373934944e+01 
-6.291559992854e+01 7.430113765167e-01 0.0 
7.430113765167e-01 -1.285186518558e+02 0.0 
0.0 0.0 -5.703027553530e+01 
-6.799584141230e+01 7.116715390411e-01 0.0 
7.116715390411e-01 -1.288373280904e+02 0.0 
0.0 0.0 -5.737672008461e+01 
-6.354943693401e+01 1.023984905999e+00 0.0 
1.023984905999e+00 -1.289658862012e+02 0.0 
0.0 0.0 -5.715385333436e+01 
-6.900199626062e+01 9.914829436256e-01 0.0 
9.914829436256e-01 -1.295242954132e+02 0.0 
0.0 0.0 -5.759028342132e+01 
-6.449815765039e+01 1.449420322470e+00 0.0 
1.449420322470e+00 -1.297011728186e+02 0.0 
0.0 0.0 -5.719659990447e+01 
-6.968841738516e+01 1.617086795586e+00 0.0 
1.617086795586e+00 -1.300355678116e+02 0.0 
0.0 0.0 -5.741073658014e+01 
-7.008872566100e+01 2.055147976635e+00 0.0 
2.055147976635e+00 -1.310672919355e+02 0.0 
0.0 0.0 -5.767025862893e+01 
-6.564183955340e+01 1.996654169329e+00 0.0 
1.996654169329e+00 -1.303031098523e+02 0.0 
0.0 0.0 -5.716003779402e+01 
-7.193462277046e+01 3.765841447409e+00 0.0 
3.765841447409e+00 -1.347834785609e+02 0.0 
0.0 0.0 -5.841089315323e+01 
-6.666103684786e+01 2.707893717675e+00 0.0 
2.707893717675e+00 -1.313849478333e+02 0.0 
0.0 0.0 -5.712331840719e+01 
-6.901607684092e+01 3.588528653105e+00 0.0 
3.588528653105e+00 -1.265732411119e+02 0.0 
0.0 0.0 -5.491156918369e+01 
-6.002551102388e+01 1.476036519412e+00 0.0 
1.476036519412e+00 -1.273328543593e+02 0.0 
0.0 0.0 -5.580750961495e+01 
-6.036218497231e+01 -1.459642326771e+00 0.0 
-1.459642326771e+00 -1.253709714979e+02 0.0 
0.0 0.0 -5.531994694107e+01 
-6.247927620641e+01 1.354799970759e-01 0.0 
1.354799970759e-01 -1.314730078134e+02 0.0 
0.0 0.0 -5.778568520594e+01 
-5.799058185510e+01 -1.689260442944e-01 0.0 
-1.689260442944e-01 -1.213927306381e+02 0.0 
0.0 0.0 -5.341499374795e+01 
-6.760240900452e+01 4.422376456278e+00 0.0 
4.422376456278e+00 -1.264164991470e+02 0.0 
0.0 0.0 -5.402507407637e+01 
-6.972980958237e+01 3.641924502843e-01 0.0 
3.641924502843e-01 -1.483051722751e+02 0.0 
0.0 0.0 -6.501049455724e+01 
-6.896587226709e+01 -1.913182258996e-01 0.0 
-1.913182258996e-01 -1.464602829827e+02 0.0 
0.0 0.0 -6.422784657494e+01 
-6.925701090742e+01 1.353961271661e-01 0.0 
1.353961271661e-01 -1.465292415722e+02 0.0 
0.0 0.0 -6.433587574388e+01 
-6.901090610161e+01 3.585042697037e-02 0.0 
3.585042697037e-02 -1.462803708104e+02 0.0 
0.0 0.0 -6.418738307361e+01 
-6.932906743174e+01 6.973153532030e-02 0.0 
6.973153532030e-02 -1.464061267767e+02 0.0 
0.0 0.0 -6.432055826253e+01 
-6.914196137888e+01 3.461244065086e-02 0.0 
3.461244065086e-02 -1.463715301169e+02 0.0 
0.0 0.0 -6.425404744875e+01 
-6.946001902404e+01 1.298652825047e-01 0.0 
1.298652825047e-01 -1.464720166569e+02 0.0 
0.0 0.0 -6.437961070429e+01 
-6.931146471485e+01 8.423026302356e-02 0.0 
8.423026302356e-02 -1.463749490128e+02 0.0 
0.0 0.0 -6.430592411829e+01 
-6.974674427833e+01 1.576458530478e-01 0.0 
1.576458530478e-01 -1.465226055672e+02 0.0 
0.0 0.0 -6.448080495365e+01 
-6.955038259442e+01 1.198343354305e-01 0.0 
1.198343354305e-01 -1.464662848888e+02 0.0 
0.0 0.0 -6.440500024498e+01 
-6.996060502019e+01 2.184240628141e-01 0.0 
2.184240628141e-01 -1.465811432598e+02 0.0 
0.0 0.0 -6.456252448400e+01 
-6.982627659814e+01 1.916584136251e-01 0.0 
1.916584136251e-01 -1.465351161050e+02 0.0 
0.0 0.0 -6.450841781096e+01 
-7.031606533863e+01 2.888184667444e-01 0.0 
2.888184667444e-01 -1.466695538598e+02 0.0 
0.0 0.0 -6.469568575954e+01 
-7.722920110324e+01 3.933536241517e+00 0.0 
3.933536241517e+00 -1.524240533960e+02 0.0 
0.0 0.0 -6.669395163789e+01 
-7.017685581058e+01 2.965325094720e-01 0.0 
2.965325094720e-01 -1.467210619600e+02 0.0 
0.0 0.0 -6.466937533116e+01 
-7.062041059234e+01 4.906006663527e-01 0.0 
4.906006663527e-01 -1.467569866016e+02 0.0 
0.0 0.0 -6.481321915817e+01 
-7.384959738765e+01 2.991234520359e+00 0.0 
2.991234520359e+00 -1.458935680332e+02 0.0 
0.0 0.0 -6.402760609809e+01 
-7.061141986060e+01 4.855914962044e-01 0.0 
4.855914962044e-01 -1.467446009978e+02 0.0 
0.0 0.0 -6.480680625751e+01 
-7.107509938502e+01 5.898988510178e-01 0.0 
5.898988510178e-01 -1.468346472826e+02 0.0 
0.0 0.0 -6.497292400028e+01 
-7.847623419664e+01 2.796033668255e+00 0.0 
2.796033668255e+00 -1.509795808949e+02 0.0 
0.0 0.0 -6.675089787228e+01 
-7.093094234654e+01 6.288320785252e-01 0.0 
6.288320785252e-01 -1.469472643227e+02 0.0 
0.0 0.0 -6.496346200076e+01 
-7.155523181470e+01 7.210151631812e-01 0.0 
7.210151631812e-01 -1.470885872530e+02 0.0 
0.0 0.0 -6.519314572030e+01 
-7.124264991646e+01 8.001716961867e-01 0.0 
8.001716961867e-01 -1.472901960036e+02 0.0 
0.0 0.0 -6.515985377602e+01 
-7.264344458091e+01 9.376226247950e-01 0.0 
9.376226247950e-01 -1.473605595417e+02 0.0 
0.0 0.0 -6.534872209140e+01 
-7.159446899783e+01 1.048221265700e+00 0.0 
1.048221265700e+00 -1.476383162594e+02 0.0 
0.0 0.0 -6.536983557718e+01 
-7.930914952359e+01 3.442558455378e+00 0.0 
3.442558455378e+00 -1.537604838627e+02 0.0 
0.0 0.0 -6.767712592944e+01 
-7.391270412018e+01 1.191153053488e+00 0.0 
1.191153053488e+00 -1.477254243568e+02 0.0 
0.0 0.0 -6.557461983697e+01 
-7.196293804190e+01 1.337253632342e+00 0.0 
1.337253632342e+00 -1.481120719790e+02 0.0 
0.0 0.0 -6.562250300627e+01 
-7.229856585937e+01 1.688836002683e+00 0.0 
1.688836002683e+00 -1.487712121691e+02 0.0 
0.0 0.0 -6.592093340853e+01 
-7.523075686204e+01 1.493486786039e+00 0.0 
1.493486786039e+00 -1.481985952773e+02 0.0 
0.0 0.0 -6.579053350407e+01 
-7.329304816070e+01 2.072962452156e+00 0.0 
2.072962452156e+00 -1.490739782132e+02 0.0 
0.0 0.0 -6.597123214709e+01 
-7.661131379083e+01 1.983786497893e+00 0.0 
1.983786497893e+00 -1.486987822830e+02 0.0 
0.0 0.0 -6.592949125418e+01 
-7.425759420556e+01 2.557006759659e+00 0.0 
2.557006759659e+00 -1.505349537940e+02 0.0 
0.0 0.0 -6.619937922113e+01 
-7.717563081410e+01 2.028611081086e+00 0.0 
2.028611081086e+00 -1.496755475566e+02 0.0 
0.0 0.0 -6.632558190850e+01 
-7.660448340190e+01 3.319348329703e+00 0.0 
3.319348329703e+00 -1.455256176431e+02 0.0 
0.0 0.0 -6.416516499245e+01 
-6.946381159747e+01 1.443358491000e+00 0.0 
1.443358491000e+00 -1.460243785096e+02 0.0 
0.0 0.0 -6.424645703213e+01 
-6.909073057403e+01 -1.492426445316e+00 0.0 
-1.492426445316e+00 -1.481878089916e+02 0.0 
0.0 0.0 -6.478356186970e+01 
-6.698065435544e+01 1.131505458807e-01 0.0 
1.131505458807e-01 -1.419762234944e+02 0.0 
0.0 0.0 -6.228706335497e+01 
-7.147378671790e+01 -2.225821149202e-01 0.0 
-2.225821149202e-01 -1.520414273329e+02 0.0 
0.0 0.0 -6.665456421525e+01 
-7.533282401438e+01 3.860895232923e+00 0.0 
3.860895232923e+00 -1.456339163178e+02 0.0 
0.0 0.0 -6.359728517791e+01 
-7.681549553987e+01 5.299228174265e-01 0.0 
5.299228174265e-01 -1.648384395093e+02 0.0 
0.0 0.0 -7.209618051474e+01 
-7.769127022865e+01 9.762214983658e-02 0.0 
9.762214983658e-02 -1.660668252022e+02 0.0 
0.0 0.0 -7.272742862925e+01 
-7.762403516310e+01 1.813796465028e-01 0.0 
1.813796465028e-01 -1.660522981688e+02 0.0 
0.0 0.0 -7.270289999956e+01 
-7.757281790874e+01 1.798042721304e-01 0.0 
1.798042721304e-01 -1.660907174285e+02 0.0 
0.0 0.0 -7.269906060116e+01 
-7.780997973760e+01 1.959195214915e-01 0.0 
1.959195214915e-01 -1.661949221570e+02 0.0 
0.0 0.0 -7.280147056839e+01 
-7.779316743928e+01 1.754823561151e-01 0.0 
1.754823561151e-01 -1.662810739750e+02 0.0 
0.0 0.0 -7.282227242429e+01 
-7.801334967089e+01 3.436166889069e-01 0.0 
3.436166889069e-01 -1.664297881662e+02 0.0 
0.0 0.0 -7.293294135114e+01 
-7.810984783015e+01 3.788718098025e-01 0.0 
3.788718098025e-01 -1.662630329083e+02 0.0 
0.0 0.0 -7.291186422153e+01 
-7.822732744227e+01 3.773274479048e-01 0.0 
3.773274479048e-01 -1.663106329497e+02 0.0 
0.0 0.0 -7.296138811760e+01 
-7.826171017336e+01 3.565480858100e-01 0.0 
3.565480858100e-01 -1.663674597681e+02 0.0 
0.0 0.0 -7.298875098244e+01 
-7.852053856886e+01 5.181932494684e-01 0.0 
5.181932494684e-01 -1.665543215401e+02 0.0 
0.0 0.0 -7.312245803268e+01 
-7.850005669868e+01 5.607124765398e-01 0.0 
5.607124765398e-01 -1.664277906084e+02 0.0 
0.0 0.0 -7.307835419212e+01 
-8.391973541717e+01 4.082295145742e+00 0.0 
4.082295145742e+00 -1.714891337935e+02 0.0 
0.0 0.0 -7.551888161360e+01 
-7.887290774849e+01 6.626549926932e-01 0.0 
6.626549926932e-01 -1.666355194828e+02 0.0 
0.0 0.0 -7.325252816940e+01 
-8.441856700694e+01 2.842754333242e+00 0.0 
2.842754333242e+00 -1.697691362996e+02 0.0 
0.0 0.0 -7.503857872970e+01 
-7.920068039053e+01 6.204583895273e-01 0.0 
6.204583895273e-01 -1.666902245165e+02 0.0 
0.0 0.0 -7.336727147210e+01 
-7.923984231893e+01 8.583278030490e-01 0.0 
8.583278030490e-01 -1.668689939636e+02 0.0 
0.0 0.0 -7.343265088476e+01 
-7.905883581928e+01 9.628089506516e-01 0.0 
9.628089506516e-01 -1.666097038535e+02 0.0 
0.0 0.0 -7.330056190184e+01 
-7.968176004638e+01 1.061457648485e+00 0.0 
1.061457648485e+00 -1.669168554924e+02 0.0 
0.0 0.0 -7.357958466163e+01 
-7.951548622073e+01 1.094995159382e+00 0.0 
1.094995159382e+00 -1.668455868343e+02 0.0 
0.0 0.0 -7.350832191651e+01 
-8.024101779753e+01 1.383871346726e+00 0.0 
1.383871346726e+00 -1.673554212129e+02 0.0 
0.0 0.0 -7.387893170313e+01 
-8.013129674310e+01 1.432318274999e+00 0.0 
1.432318274999e+00 -1.672429038400e+02 0.0 
0.0 0.0 -7.381226017494e+01 
-8.066838316769e+01 3.072823335849e+00 0.0 
3.072823335849e+00 -1.650691364924e+02 0.0 
0.0 0.0 -7.292963068637e+01 
-8.052321757615e+01 1.777280852493e+00 0.0 
1.777280852493e+00 -1.677096582173e+02 0.0 
0.0 0.0 -7.406986273805e+01 
-8.066817131303e+01 1.824630025607e+00 0.0 
1.824630025607e+00 -1.676047263904e+02 0.0 
0.0 0.0 -7.408186931102e+01 
-8.086730245980e+01 2.106370769624e+00 0.0 
2.106370769624e+00 -1.679688082561e+02 0.0 
0.0 0.0 -7.425083321477e+01 
-8.161278600951e+01 2.072646353436e+00 0.0 
2.072646353436e+00 -1.680977069094e+02 0.0 
0.0 0.0 -7.437571735190e+01 
-8.294199943407e+01 2.384312093440e+00 0.0 
2.384312093440e+00 -1.687912081288e+02 0.0 
0.0 0.0 -7.466986734298e+01 
-8.115141251405e+01 2.417865283957e+00 0.0 
2.417865283957e+00 -1.685204935763e+02 0.0 
0.0 0.0 -7.450157182712e+01 
-8.128099180789e+01 2.809129866944e+00 0.0 
2.809129866944e+00 -1.693887109943e+02 0.0 
0.0 0.0 -7.480091084066e+01 
-8.584762650783e+01 3.448632646727e+00 0.0 
3.448632646727e+00 -1.728919987687e+02 0.0 
0.0 0.0 -7.660712897690e+01 
-8.334287594837e+01 3.307180269552e+00 0.0 
3.307180269552e+00 -1.645360915508e+02 0.0 
0.0 0.0 -7.304300155260e+01 
-7.695963811903e+01 1.326639873561e+00 0.0 
1.326639873561e+00 -1.661225553597e+02 0.0 
0.0 0.0 -7.252465804361e+01 
-7.718073230273e+01 -1.546189964860e+00 0.0 
-1.546189964860e+00 -1.648201835747e+02 0.0 
0.0 0.0 -7.220027476323e+01 
-7.913947400098e+01 -4.695988049700e-02 0.0 
-4.695988049700e-02 -1.706337181353e+02 0.0 
0.0 0.0 -7.453195764087e+01 
-7.509528471196e+01 -2.293226732983e-01 0.0 
-2.293226732983e-01 -1.604915893191e+02 0.0 
0.0 0.0 -7.027606220930e+01 
-8.213784417932e+01 3.818327370535e+00 0.0 
3.818327370535e+00 -1.647687190977e+02 0.0 
0.0 0.0 -7.266687886480e+01 

TENSORS element_materi_strain_total float
-6.236749995914e-04 1.948482296724e-03 0.0 
1.948482296724e-03 2.291590866695e-03 0.0 
0.0 0.0 0.0 
-7.111983119008e-04 2.043683219827e-03 0.0 
2.043683219827e-03 2.366212757695e-03 0.0 
0.0 0.0 0.0 
-1.894692265181e-04 2.119458756236e-03 0.0 
2.119458756236e-03 6.967926821774e-03 0.0 
0.0 0.0 0.0 
-3.622084811279e-04 2.541000708341e-04 0.0 
2.541000708341e-04 8.640361054594e-03 0.0 
0.0 0.0 0.0 
-1.252567544322e-03 3.532191082577e-04 0.0 
3.532191082577e-04 6.244369772881e-03 0.0 
0.0 0.0 0.0 
1.405220685248e-03 3.382192495120e-03 0.0 
3.382192495120e-03 -3.468747915063e-03 0.0 
0.0 0.0 0.0 
-1.173495312471e-03 2.540527281755e-04 0.0 
2.540527281755e-04 6.288268830855e-03 0.0 
0.0 0.0 0.0 
-5.666277058365e-04 2.254918812586e-03 0.0 
2.254918812586e-03 1.991835156280e-03 0.0 
0.0 0.0 0.0 
-1.267162697230e-03 2.142279622862e-04 0.0 
2.142279622862e-04 6.292783948923e-03 0.0 
0.0 0.0 0.0 
-3.426787772680e-04 4.752200345621e-04 0.0 
4.752200345621e-04 8.582537210861e-03 0.0 
0.0 0.0 0.0 
-1.501624980465e-03 -3.454648946507e-04 0.0 
-3.454648946507e-04 4.444896829356e-03 0.0 
0.0 0.0 0.0 
-5.608856049276e-04 1.933810696569e-03 0.0 
1.933810696569e-03 2.110156123649e-03 0.0 
0.0 0.0 0.0 
-4.783653818417e-04 -2.735636774514e-04 0.0 
-2.735636774514e-04 5.724134476018e-03 0.0 
0.0 0.0 0.0 
-1.330436039491e-03 7.538429032421e-04 0.0 
7.538429032421e-04 6.353648726664e-03 0.0 
0.0 0.0 0.0 
-2.739290214596e-04 -4.141220962361e-04 0.0 
-4.141220962361e-04 5.717587481954e-03 0.0 
0.0 0.0 0.0 
-2.162228902193e-04 3.894515606240e-04 0.0 
3.894515606240e-04 8.725127277050e-03 0.0 
0.0 0.0 0.0 
-1.392807577642e-03 4.615975201339e-04 0.0 
4.615975201339e-04 6.093863068622e-03 0.0 
0.0 0.0 0.0 
1.441969758154e-03 1.602948196228e-03 0.0 
1.602948196228e-03 -3.910604171826e-03 0.0 
0.0 0.0 0.0 
1.214459617593e-04 -1.219802349105e-04 0.0 
-1.219802349105e-04 1.396380804104e-03 0.0 
0.0 0.0 0.0 
-4.061083699112e-04 -2.525702875258e-04 0.0 
-2.525702875258e-04 1.653270863096e-03 0.0 
0.0 0.0 0.0 
-4.106080817698e-04 4.456330320463e-04 0.0 
4.456330320463e-04 8.587997088211e-03 0.0 
0.0 0.0 0.0 
-8.775255904857e-04 1.700770019349e-03 0.0 
1.700770019349e-03 2.905420848362e-03 0.0 
0.0 0.0 0.0 
-9.737309086940e-04 1.862143873581e-03 0.0 
1.862143873581e-03 2.953756762178e-03 0.0 
0.0 0.0 0.0 
9.944563986473e-04 -1.288419102260e-04 0.0 
-1.288419102260e-04 2.462452039110e-03 0.0 
0.0 0.0 0.0 
-1.256351182570e-03 1.063630423909e-03 0.0 
1.063630423909e-03 6.441377647795e-03 0.0 
0.0 0.0 0.0 
-1.466169738593e-03 -4.021269769332e-04 0.0 
-4.021269769332e-04 4.466542424795e-03 0.0 
0.0 0.0 0.0 
-1.599657006547e-03 9.006228792392e-04 0.0 
9.006228792392e-04 5.466686375763e-03 0.0 
0.0 0.0 0.0 
3.838892391390e-04 2.289461557786e-03 0.0 
2.289461557786e-03 4.615845162449e-03 0.0 
0.0 0.0 0.0 
-1.373469984415e-03 1.098677439073e-03 0.0 
1.098677439073e-03 6.438580343177e-03 0.0 
0.0 0.0 0.0 
7.859339193517e-04 -1.912740983177e-04 0.0 
-1.912740983177e-04 2.911758692460e-03 0.0 
0.0 0.0 0.0 
1.551052909979e-03 -3.170026983329e-03 0.0 
-3.170026983329e-03 -2.700095925654e-03 0.0 
0.0 0.0 0.0 
1.893870906937e-04 -3.942204546904e-04 0.0 
-3.942204546904e-04 3.127086707364e-04 0.0 
0.0 0.0 0.0 
-3.384091539591e-04 2.190561648240e-03 0.0 
2.190561648240e-03 7.079745682102e-03 0.0 
0.0 0.0 0.0 
-1.059420071585e-03 -1.450460155451e-04 0.0 
-1.450460155451e-04 5.167703771207e-03 0.0 
0.0 0.0 0.0 
1.666910154847e-04 -9.280437799866e-04 0.0 
-9.280437799866e-04 4.136901284062e-03 0.0 
0.0 0.0 0.0 
-1.595566240339e-04 -8.290149289445e-04 0.0 
-8.290149289445e-04 5.340568304916e-03 0.0 
0.0 0.0 0.0 
-6.866621846180e-05 -9.034746431631e-04 0.0 
-9.034746431631e-04 5.335890117041e-03 0.0 
0.0 0.0 0.0 
7.532851055840e-04 1.105540037928e-03 0.0 
1.105540037928e-03 3.074585555998e-03 0.0 
0.0 0.0 0.0 
-1.210090282531e-03 6.854648885557e-05 0.0 
6.854648885557e-05 5.919662794567e-03 0.0 
0.0 0.0 0.0 
-1.148785826640e-03 1.496371852585e-04 0.0 
1.496371852585e-04 5.932538917969e-03 0.0 
0.0 0.0 0.0 
-1.250623651303e-03 1.650585430449e-03 0.0 
1.650585430449e-03 3.712444092210e-03 0.0 
0.0 0.0 0.0 
2.384485141400e-04 -6.872919631620e-04 0.0 
-6.872919631620e-04 3.833269733393e-03 0.0 
0.0 0.0 0.0 
-3.692712119014e-04 2.171178102505e-03 0.0 
2.171178102505e-03 1.585653695147e-03 0.0 
0.0 0.0 0.0 
-1.560438174903e-03 9.012055391564e-04 0.0 
9.012055391564e-04 5.447890249108e-03 0.0 
0.0 0.0 0.0 
-4.952094523752e-04 8.828206191899e-05 0.0 
8.828206191899e-05 8.500314009799e-03 0.0 
0.0 0.0 0.0 
-5.621417441718e-04 2.413185787065e-03 0.0 
2.413185787065e-03 1.608098516741e-03 0.0 
0.0 0.0 0.0 
1.542382412292e-03 -3.256572791797e-03 0.0 
-3.256572791797e-03 -3.356529918273e-03 0.0 
0.0 0.0 0.0 
-3.379250298132e-04 1.629609340882e-04 0.0 
1.629609340882e-04 8.511990185857e-03 0.0 
0.0 0.0 0.0 
-2.726798727509e-04 -2.655004514482e-03 0.0 
-2.655004514482e-03 -1.260857659302e-03 0.0 
0.0 0.0 0.0 
-1.452725318481e-03 6.340760158881e-04 0.0 
6.340760158881e-04 6.278580159505e-03 0.0 
0.0 0.0 0.0 
-1.108957572162e-03 1.771520433249e-03 0.0 
1.771520433249e-03 3.309976609232e-03 0.0 
0.0 0.0 0.0 
-4.410929946472e-04 -1.342069338104e-04 0.0 
-1.342069338104e-04 2.005666100892e-03 0.0 
0.0 0.0 0.0 
2.890755764472e-03 -2.725693995482e-03 0.0 
-2.725693995482e-03 -3.623030109829e-03 0.0 
0.0 0.0 0.0 
-1.118925939723e-03 1.503342378913e-03 0.0 
1.503342378913e-03 3.498953503585e-03 0.0 
0.0 0.0 0.0 
-2.452617746995e-04 1.761045822733e-03 0.0 
1.761045822733e-03 7.699382741612e-03 0.0 
0.0 0.0 0.0 
-1.168875864705e-03 -4.738567257851e-04 0.0 
-4.738567257851e-04 2.672851892352e-03 0.0 
0.0 0.0 0.0 
-8.718847692424e-04 -2.840722785091e-04 0.0 
-2.840722785091e-04 2.187180269607e-03 0.0 
0.0 0.0 0.0 
-1.050597698894e-03 -2.014412053834e-04 0.0 
-2.014412053834e-04 5.166149653808e-03 0.0 
0.0 0.0 0.0 
5.351015137534e-04 -3.866041398863e-04 0.0 
-3.866041398863e-04 8.123769287605e-04 0.0 
0.0 0.0 0.0 
-2.510908682389e-04 3.581641491090e-04 0.0 
3.581641491090e-04 8.725574474731e-03 0.0 
0.0 0.0 0.0 
-9.197460271425e-04 -2.125570052222e-03 0.0 
-2.125570052222e-03 -3.252015920618e-03 0.0 
0.0 0.0 0.0 
8.149521017347e-04 1.902836539544e-03 0.0 
1.902836539544e-03 3.252969559660e-03 0.0 
0.0 0.0 0.0 
1.037737482923e-04 2.652927747784e-03 0.0 
2.652927747784e-03 1.439361823314e-03 0.0 
0.0 0.0 0.0 
2.863685187037e-03 -2.829959759968e-03 0.0 
-2.829959759968e-03 -3.089696838516e-03 0.0 
0.0 0.0 0.0 
-4.134583296248e-04 -5.524835584256e-04 0.0 
-5.524835584256e-04 5.529410771451e-03 0.0 
0.0 0.0 0.0 
-1.012124992856e-03 1.589574398033e-03 0.0 
1.589574398033e-03 3.197869605732e-03 0.0 
0.0 0.0 0.0 
5.822442037600e-04 -7.171459442471e-04 0.0 
-7.171459442471e-04 -4.954948144854e-03 0.0 
0.0 0.0 0.0 
-3.224282064004e-04 2.258161437831e-03 0.0 
2.258161437831e-03 6.865210452450e-03 0.0 
0.0 0.0 0.0 
-1.909426709442e-04 -2.095457869942e-03 0.0 
-2.095457869942e-03 5.648121700055e-04 0.0 
0.0 0.0 0.0 
-4.374224454429e-06 2.353838147879e-03 0.0 
2.353838147879e-03 5.806912550361e-03 0.0 
0.0 0.0 0.0 
-1.309555710233e-03 -5.739079602887e-04 0.0 
-5.739079602887e-04 4.476777637864e-03 0.0 
0.0 0.0 0.0 
0.0 1.256935571130e-03 0.0 
1.256935571130e-03 8.495337712652e-03 0.0 
0.0 0.0 0.0 
3.673124431327e-04 2.157361722220e-03 0.0 
2.157361722220e-03 4.211802280228e-03 0.0 
0.0 0.0 0.0 
1.489994818361e-03 -9.978103367300e-05 0.0 
-9.978103367300e-05 -1.492408073559e-04 0.0 
0.0 0.0 0.0 
-1.396068479186e-03 -5.417590321345e-04 0.0 
-5.417590321345e-04 2.875160002414e-03 0.0 
0.0 0.0 0.0 
-4.110038571900e-04 9.525755223224e-04 0.0 
9.525755223224e-04 8.420925674177e-03 0.0 
0.0 0.0 0.0 
-4.199559074999e-04 1.895735963933e-03 0.0 
1.895735963933e-03 7.596937557740e-03 0.0 
0.0 0.0 0.0 
-6.184800350630e-04 2.825016995148e-03 0.0 
2.825016995148e-03 1.184735337579e-03 0.0 
0.0 0.0 0.0 
1.277944620592e-05 -3.521820723405e-04 0.0 
-3.521820723405e-04 1.038289893922e-03 0.0 
0.0 0.0 0.0 
-3.701117395049e-04 2.499733628693e-03 0.0 
2.499733628693e-03 1.170839027390e-03 0.0 
0.0 0.0 0.0 
-2.679379477850e-04 -2.391387268703e-03 0.0 
-2.391387268703e-03 6.108416670021e-04 0.0 
0.0 0.0 0.0 
-1.328892097787e-03 4.047782095766e-04 0.0 
4.047782095766e-04 6.136748529269e-03 0.0 
0.0 0.0 0.0 
-8.527583884226e-04 1.980836260546e-03 0.0 
1.980836260546e-03 2.628509340531e-03 0.0 
0.0 0.0 0.0 
-7.639533768264e-04 1.724109055237e-03 0.0 
1.724109055237e-03 2.595807128186e-03 0.0 
0.0 0.0 0.0 
-1.293683973935e-03 3.109980422157e-04 0.0 
3.109980422157e-04 6.471713084653e-03 0.0 
0.0 0.0 0.0 
-1.184109607709e-03 3.361326830434e-04 0.0 
3.361326830434e-04 6.471454633036e-03 0.0 
0.0 0.0 0.0 
-1.300266038693e-03 -3.513307793609e-04 0.0 
-3.513307793609e-04 4.722126081113e-03 0.0 
0.0 0.0 0.0 
-1.170990597878e-03 -3.258658602539e-05 0.0 
-3.258658602539e-05 5.091501010448e-03 0.0 
0.0 0.0 0.0 
-6.384656521209e-04 2.066011520900e-03 0.0 
2.066011520900e-03 5.940792429612e-03 0.0 
0.0 0.0 0.0 
-1.340428972671e-03 3.210770359852e-04 0.0 
3.210770359852e-04 6.238305580121e-03 0.0 
0.0 0.0 0.0 
-3.380375920222e-04 -5.016380287038e-04 0.0 
-5.016380287038e-04 5.845357616090e-04 0.0 
0.0 0.0 0.0 
-1.503569133760e-03 9.822513155277e-04 0.0 
9.822513155277e-04 5.807114881997e-03 0.0 
0.0 0.0 0.0 
-7.678032819481e-04 1.167154180439e-04 0.0 
1.167154180439e-04 7.763410363714e-03 0.0 
0.0 0.0 0.0 
-8.557415377975e-04 1.926098897449e-04 0.0 
1.926098897449e-04 7.702906436541e-03 0.0 
0.0 0.0 0.0 
-2.522821116369e-04 1.372278150452e-03 0.0 
1.372278150452e-03 8.446148005200e-03 0.0 
0.0 0.0 0.0 
4.629305768789e-04 1.241908119278e-03 0.0 
1.241908119278e-03 3.623113546148e-03 0.0 
0.0 0.0 0.0 
-1.408200970062e-03 4.682082801966e-04 0.0 
4.682082801966e-04 6.103063962270e-03 0.0 
0.0 0.0 0.0 
3.345538584554e-04 -8.344696899129e-04 0.0 
-8.344696899129e-04 3.980033562341e-03 0.0 
0.0 0.0 0.0 
-1.015506924408e-03 2.490877660353e-05 0.0 
2.490877660353e-05 6.902380742684e-03 0.0 
0.0 0.0 0.0 
-2.508181716953e-04 2.596201638205e-03 0.0 
2.596201638205e-03 1.923685055324e-03 0.0 
0.0 0.0 0.0 
-1.321903237474e-03 2.483216289950e-04 0.0 
2.483216289950e-04 6.085758897872e-03 0.0 
0.0 0.0 0.0 
-3.090235969104e-04 -4.115284487170e-04 0.0 
-4.115284487170e-04 5.717459618136e-03 0.0 
0.0 0.0 0.0 
1.744146241293e-03 1.761936479010e-03 0.0 
1.761936479010e-03 1.388911626183e-03 0.0 
0.0 0.0 0.0 
8.388918607527e-04 1.773681142501e-03 0.0 
1.773681142501e-03 3.273359683835e-03 0.0 
0.0 0.0 0.0 
7.361677039792e-04 3.017422205876e-03 0.0 
3.017422205876e-03 4.681917952503e-04 0.0 
0.0 0.0 0.0 
-3.116442756447e-04 -3.891266211450e-03 0.0 
-3.891266211450e-03 -1.503209269728e-03 0.0 
0.0 0.0 0.0 
-7.272961831918e-04 -2.857256693381e-04 0.0 
-2.857256693381e-04 5.470824446109e-03 0.0 
0.0 0.0 0.0 
-7.430205940218e-04 2.106116342526e-04 0.0 
2.106116342526e-04 8.009054043527e-03 0.0 
0.0 0.0 0.0 
-1.029636756187e-03 -3.486669156184e-03 0.0 
-3.486669156184e-03 -2.002459342444e-03 0.0 
0.0 0.0 0.0 
-1.562955846468e-04 -7.346885739873e-04 0.0 
-7.346885739873e-04 5.326689166687e-03 0.0 
0.0 0.0 0.0 
-5.766542838033e-04 2.097276166632e-03 0.0 
2.097276166632e-03 5.513803803986e-03 0.0 
0.0 0.0 0.0 
1.931108507472e-03 1.122111841989e-04 0.0 
1.122111841989e-04 -4.747970897148e-04 0.0 
0.0 0.0 0.0 
1.579444994708e-03 2.895142856403e-03 0.0 
2.895142856403e-03 -4.643007749525e-04 0.0 
0.0 0.0 0.0 
-1.572047232172e-03 1.293831917301e-03 0.0 
1.293831917301e-03 5.060981680052e-03 0.0 
0.0 0.0 0.0 
-1.528313087753e-03 -8.350621069075e-04 0.0 
-8.350621069075e-04 3.157701836972e-03 0.0 
0.0 0.0 0.0 
-1.121545137335e-04 2.480720895315e-03 0.0 
2.480720895315e-03 1.558749157862e-03 0.0 
0.0 0.0 0.0 
1.618626638262e-04 2.764431875935e-03 0.0 
2.764431875935e-03 1.430925226267e-03 0.0 
0.0 0.0 0.0 
3.116739243092e-05 -8.696313390091e-04 0.0 
-8.696313390091e-04 4.531767615692e-03 0.0 
0.0 0.0 0.0 
-1.043568829997e-03 9.012705132308e-05 0.0 
9.012705132308e-05 6.778826925662e-03 0.0 
0.0 0.0 0.0 
3.321484722507e-04 2.762672554516e-03 0.0 
2.762672554516e-03 9.622265628380e-04 0.0 
0.0 0.0 0.0 
-2.070535077976e-04 -1.420991345685e-03 0.0 
-1.420991345685e-03 9.120675142114e-04 0.0 
0.0 0.0 0.0 
-1.535584652481e-03 1.101168895327e-03 0.0 
1.101168895327e-03 5.633628533791e-03 0.0 
0.0 0.0 0.0 
-6.244145137962e-04 1.430506059054e-04 0.0 
1.430506059054e-04 8.038810388055e-03 0.0 
0.0 0.0 0.0 
4.161059120369e-04 2.839763024922e-03 0.0 
2.839763024922e-03 9.584747469076e-04 0.0 
0.0 0.0 0.0 
-7.486397232995e-04 3.311627105159e-03 0.0 
3.311627105159e-03 1.971663495135e-04 0.0 
0.0 0.0 0.0 
-1.452349492899e-03 1.447859542353e-03 0.0 
1.447859542353e-03 4.383303937886e-03 0.0 
0.0 0.0 0.0 
-1.486827068639e-03 -8.317101102848e-04 0.0 
-8.317101102848e-04 3.129681177077e-03 0.0 
0.0 0.0 0.0 
-1.311398852321e-03 1.332076144899e-03 0.0 
1.332076144899e-03 4.138709682935e-03 0.0 
0.0 0.0 0.0 
-2.219187160476e-04 1.105703129178e-03 0.0 
1.105703129178e-03 8.437862298834e-03 0.0 
0.0 0.0 0.0 
5.556643293818e-04 3.892033212510e-03 0.0 
3.892033212510e-03 -1.138274190703e-03 0.0 
0.0 0.0 0.0 
-1.364546554805e-03 -5.148062826560e-04 0.0 
-5.148062826560e-04 4.515449951929e-03 0.0 
0.0 0.0 0.0 
-3.300875044480e-04 2.859416659836e-04 0.0 
2.859416659836e-04 8.641301362266e-03 0.0 
0.0 0.0 0.0 
-5.695312112409e-04 2.309115439264e-03 0.0 
2.309115439264e-03 2.822733770811e-03 0.0 
0.0 0.0 0.0 
-1.367362371863e-03 1.538427314325e-03 0.0 
1.538427314325e-03 4.053889934352e-03 0.0 
0.0 0.0 0.0 
2.081280858295e-04 -8.462300883523e-04 0.0 
-8.462300883523e-04 4.138541260511e-03 0.0 
0.0 0.0 0.0 
-4.685801292597e-04 -2.843038355058e-04 0.0 
-2.843038355058e-04 5.726094991247e-03 0.0 
0.0 0.0 0.0 
-1.233795102105e-03 -4.379952695895e-04 0.0 
-4.379952695895e-04 4.719767010083e-03 0.0 
0.0 0.0 0.0 
-7.118448469646e-04 2.359968215275e-03 0.0 
2.359968215275e-03 3.281970118865e-03 0.0 
0.0 0.0 0.0 
6.563305308593e-04 -3.432253100942e-04 0.0 
-3.432253100942e-04 3.424634484141e-03 0.0 
0.0 0.0 0.0 
-8.365635323280e-04 2.040472128533e-03 0.0 
2.040472128533e-03 3.191564903218e-03 0.0 
0.0 0.0 0.0 
-2.237868198997e-04 7.530015458858e-04 0.0 
7.530015458858e-04 8.564823100999e-03 0.0 
0.0 0.0 0.0 
-3.739744206854e-05 2.484768219411e-03 0.0 
2.484768219411e-03 5.951153873311e-03 0.0 
0.0 0.0 0.0 
-1.424085903358e-03 7.590426722973e-04 0.0 
7.590426722973e-04 6.355608872256e-03 0.0 
0.0 0.0 0.0 
-9.494657852624e-04 2.787055536002e-04 0.0 
2.787055536002e-04 7.327467382953e-03 0.0 
0.0 0.0 0.0 
-8.180172830011e-04 2.241626447395e-03 0.0 
2.241626447395e-03 3.183103081696e-03 0.0 
0.0 0.0 0.0 
-1.222593718356e-03 1.404884179774e-03 0.0 
1.404884179774e-03 3.786095944761e-03 0.0 
0.0 0.0 0.0 
-4.613830230698e-04 2.424661863534e-03 0.0 
2.424661863534e-03 2.916805796149e-03 0.0 
0.0 0.0 0.0 
1.063385135278e-03 3.017892400027e-03 0.0 
3.017892400027e-03 2.856834328435e-04 0.0 
0.0 0.0 0.0 
-1.235179475395e-03 1.595763574961e-04 0.0 
1.595763574961e-04 6.157478912590e-03 0.0 
0.0 0.0 0.0 
1.974497616468e-03 2.918998914919e-03 0.0 
2.918998914919e-03 -4.687097126308e-04 0.0 
0.0 0.0 0.0 
3.837030733589e-05 -3.514574322466e-04 0.0 
-3.514574322466e-04 3.886207017967e-04 0.0 
0.0 0.0 0.0 
-1.097229808850e-03 5.097832677937e-05 0.0 
5.097832677937e-05 6.472778076842e-03 0.0 
0.0 0.0 0.0 
1.295448986618e-04 -1.491109245330e-04 0.0 
-1.491109245330e-04 1.098298655063e-03 0.0 
0.0 0.0 0.0 
-1.514717414775e-03 1.372779175024e-03 0.0 
1.372779175024e-03 4.716852669583e-03 0.0 
0.0 0.0 0.0 
3.563897687489e-04 -3.886074475091e-04 0.0 
-3.886074475091e-04 3.466164464983e-03 0.0 
0.0 0.0 0.0 
5.514808986824e-04 2.885085911527e-03 0.0 
2.885085911527e-03 4.782224834150e-04 0.0 
0.0 0.0 0.0 
-1.230827608565e-03 -2.293929296932e-04 0.0 
-2.293929296932e-04 4.934213542374e-03 0.0 
0.0 0.0 0.0 
-6.045398899709e-04 2.277581122632e-03 0.0 
2.277581122632e-03 1.853133580715e-03 0.0 
0.0 0.0 0.0 
1.581714654161e-03 1.946410595720e-03 0.0 
1.946410595720e-03 1.372565248704e-03 0.0 
0.0 0.0 0.0 
-1.124191019698e-03 8.829151918913e-05 0.0 
8.829151918913e-05 6.209873552409e-03 0.0 
0.0 0.0 0.0 
2.088907222514e-03 2.981604049806e-03 0.0 
2.981604049806e-03 -1.100721210630e-03 0.0 
0.0 0.0 0.0 
-9.475779098043e-04 -3.039402792274e-04 0.0 
-3.039402792274e-04 5.215279293142e-03 0.0 
0.0 0.0 0.0 
-5.422890665934e-04 -1.615193336822e-03 0.0 
-1.615193336822e-03 9.517536618788e-04 0.0 
0.0 0.0 0.0 
-7.106367276054e-04 -2.948602275837e-04 0.0 
-2.948602275837e-04 5.471743224354e-03 0.0 
0.0 0.0 0.0 
-1.275848413320e-03 1.645646380453e-03 0.0 
1.645646380453e-03 4.826459437659e-03 0.0 
0.0 0.0 0.0 
-3.615782147852e-04 -7.310031050495e-04 0.0 
-7.310031050495e-04 5.404630079888e-03 0.0 
0.0 0.0 0.0 
-1.095575504423e-03 3.901826597592e-05 0.0 
3.901826597592e-05 6.189368294685e-03 0.0 
0.0 0.0 0.0 
1.140005147092e-03 3.020568672703e-03 0.0 
3.020568672703e-03 -2.588504577387e-04 0.0 
0.0 0.0 0.0 
-1.443799065036e-03 1.206445368210e-03 0.0 
1.206445368210e-03 4.778518892430e-03 0.0 
0.0 0.0 0.0 
-1.584496389821e-03 -2.518290070223e-04 0.0 
-2.518290070223e-04 4.393336456914e-03 0.0 
0.0 0.0 0.0 
-4.890265795297e-04 2.081205940181e-03 0.0 
2.081205940181e-03 1.795991225707e-03 0.0 
0.0 0.0 0.0 
2.495984510927e-03 2.818828881023e-03 0.0 
2.818828881023e-03 -1.080526154850e-03 0.0 
0.0 0.0 0.0 
-9.294088890358e-04 2.040575596883e-04 0.0 
2.040575596883e-04 7.520742409261e-03 0.0 
0.0 0.0 0.0 
-1.143463513485e-03 1.232667550347e-04 0.0 
1.232667550347e-04 6.174307514078e-03 0.0 
0.0 0.0 0.0 
1.395953890447e-03 2.971740108963e-03 0.0 
2.971740108963e-03 -4.163640910000e-04 0.0 
0.0 0.0 0.0 
-1.391890166145e-03 1.261098571071e-03 0.0 
1.261098571071e-03 4.454405464523e-03 0.0 
0.0 0.0 0.0 
-6.621423060649e-05 2.335055581588e-03 0.0 
2.335055581588e-03 4.983060978174e-03 0.0 
0.0 0.0 0.0 
-1.531059808850e-03 -9.316715910153e-04 0.0 
-9.316715910153e-04 3.251559331589e-03 0.0 
0.0 0.0 0.0 
2.615682241192e-04 2.119084098766e-03 0.0 
2.119084098766e-03 4.446418248671e-03 0.0 
0.0 0.0 0.0 
2.841659891950e-05 2.481861927198e-03 0.0 
2.481861927198e-03 5.658896373386e-03 0.0 
0.0 0.0 0.0 
-4.338204812824e-04 2.439632080000e-03 0.0 
2.439632080000e-03 2.005997260275e-03 0.0 
0.0 0.0 0.0 
-1.652523201782e-03 -7.614060746527e-04 0.0 
-7.614060746527e-04 3.514297160613e-03 0.0 
0.0 0.0 0.0 
1.465613218540e-03 2.317192897624e-04 0.0 
2.317192897624e-04 1.699104152151e-03 0.0 
0.0 0.0 0.0 
-1.059616816425e-03 1.963636979930e-03 0.0 
1.963636979930e-03 3.488970375403e-03 0.0 
0.0 0.0 0.0 
-3.220289339444e-04 2.247970912474e-03 0.0 
2.247970912474e-03 1.739599299868e-03 0.0 
0.0 0.0 0.0 
-1.398422402632e-03 1.404336421318e-03 0.0 
1.404336421318e-03 4.968253593754e-03 0.0 
0.0 0.0 0.0 
1.297760676968e-03 2.974046896060e-03 0.0 
2.974046896060e-03 2.195563927105e-04 0.0 
0.0 0.0 0.0 
-2.178952532687e-04 5.674018038411e-04 0.0 
5.674018038411e-04 8.626432729806e-03 0.0 
0.0 0.0 0.0 
-7.411756991282e-04 1.885352366832e-03 0.0 
1.885352366832e-03 6.102434185253e-03 0.0 
0.0 0.0 0.0 
-8.519389085501e-04 -1.652928153909e-04 0.0 
-1.652928153909e-04 5.411925883177e-03 0.0 
0.0 0.0 0.0 
-5.791321606706e-04 2.619830907305e-03 0.0 
2.619830907305e-03 1.398574651418e-03 0.0 
0.0 0.0 0.0 
2.979913700140e-03 2.627645934918e-03 0.0 
2.627645934918e-03 -1.677316633273e-03 0.0 
0.0 0.0 0.0 
-5.874234675518e-04 2.022543010773e-03 0.0 
2.022543010773e-03 5.951096979116e-03 0.0 
0.0 0.0 0.0 
-3.135967588415e-03 2.330289110178e-03 0.0 
2.330289110178e-03 -2.271162058558e-03 0.0 
0.0 0.0 0.0 
-1.050485714811e-03 1.746647150414e-03 0.0 
1.746647150414e-03 3.493109159000e-03 0.0 
0.0 0.0 0.0 
1.637807820014e-03 -3.988018473702e-04 0.0 
-3.988018473702e-04 1.062384438329e-03 0.0 
0.0 0.0 0.0 
8.205487233035e-04 -4.328143367358e-04 0.0 
-4.328143367358e-04 4.220086970719e-04 0.0 
0.0 0.0 0.0 
-3.186269048915e-04 1.991339549355e-03 0.0 
1.991339549355e-03 7.313378312536e-03 0.0 
0.0 0.0 0.0 
-1.107462199619e-03 1.411668914986e-03 0.0 
1.411668914986e-03 6.404892107125e-03 0.0 
0.0 0.0 0.0 
7.478504623450e-04 -2.446827067982e-03 0.0 
-2.446827067982e-03 3.530263637874e-04 0.0 
0.0 0.0 0.0 
1.779064260518e-03 -1.594493206547e-04 0.0 
-1.594493206547e-04 1.045946538220e-03 0.0 
0.0 0.0 0.0 
-1.515109795884e-03 1.131433655884e-03 0.0 
1.131433655884e-03 5.958467508002e-03 0.0 
0.0 0.0 0.0 
-1.428530807547e-03 9.547613149719e-04 0.0 
9.547613149719e-04 6.435010706773e-03 0.0 
0.0 0.0 0.0 
7.153426379347e-04 -3.000355925965e-04 0.0 
-3.000355925965e-04 2.884545266195e-03 0.0 
0.0 0.0 0.0 
-1.646612776580e-04 -2.270365942666e-03 0.0 
-2.270365942666e-03 1.137002408733e-03 0.0 
0.0 0.0 0.0 
-1.319473805425e-04 2.614609894194e-03 0.0 
2.614609894194e-03 2.478159471056e-03 0.0 
0.0 0.0 0.0 
-1.115730447478e-03 1.878155953068e-03 0.0 
1.878155953068e-03 4.639520647971e-03 0.0 
0.0 0.0 0.0 
-1.150276255888e-03 1.380912591986e-03 0.0 
1.380912591986e-03 6.700866971315e-03 0.0 
0.0 0.0 0.0 
-1.395946279875e-03 1.680361271507e-03 0.0 
1.680361271507e-03 5.192649609362e-03 0.0 
0.0 0.0 0.0 
-1.468075369479e-03 1.534870889339e-03 0.0 
1.534870889339e-03 4.968995366214e-03 0.0 
0.0 0.0 0.0 
2.448839635175e-03 1.790214729543e-03 0.0 
1.790214729543e-03 9.144439193864e-06 0.0 
0.0 0.0 0.0 
-2.129154362291e-04 2.280428883874e-03 0.0 
2.280428883874e-03 5.153607647893e-03 0.0 
0.0 0.0 0.0 
-1.001971657640e-03 2.164374861822e-03 0.0 
2.164374861822e-03 -3.024259996015e-03 0.0 
0.0 0.0 0.0 
-4.316665183308e-04 2.246595846726e-03 0.0 
2.246595846726e-03 1.982358452846e-03 0.0 
0.0 0.0 0.0 
-2.800715747650e-04 2.401770085908e-03 0.0 
2.401770085908e-03 1.955562567434e-03 0.0 
0.0 0.0 0.0 
-3.831497380471e-04 2.569806690725e-03 0.0 
2.569806690725e-03 2.896703221592e-03 0.0 
0.0 0.0 0.0 
-7.953622951928e-04 1.849704145157e-03 0.0 
1.849704145157e-03 6.474957123503e-03 0.0 
0.0 0.0 0.0 
2.865209424751e-03 2.897705872202e-03 0.0 
2.897705872202e-03 -4.165426004042e-03 0.0 
0.0 0.0 0.0 
1.611301447950e-03 -7.304734243929e-04 0.0 
-7.304734243929e-04 8.528840336692e-04 0.0 
0.0 0.0 0.0 
-1.181785941634e-03 8.116402372635e-05 0.0 
8.116402372635e-05 6.154885935950e-03 0.0 
0.0 0.0 0.0 
2.570189509181e-03 2.917255254767e-03 0.0 
2.917255254767e-03 -1.716066599110e-03 0.0 
0.0 0.0 0.0 
1.493912407991e-03 -1.068503236179e-03 0.0 
-1.068503236179e-03 7.516941057586e-04 0.0 
0.0 0.0 0.0 
5.830877389634e-04 -3.536176782444e-04 0.0 
-3.536176782444e-04 2.537209992808e-04 0.0 
0.0 0.0 0.0 
-9.515650073303e-04 1.511251390008e-03 0.0 
1.511251390008e-03 6.656323433945e-03 0.0 
0.0 0.0 0.0 
8.892036715640e-04 -4.438210805826e-04 0.0 
-4.438210805826e-04 -3.114253757530e-05 0.0 
0.0 0.0 0.0 
3.880487591170e-04 -3.699677356328e-04 0.0 
-3.699677356328e-04 5.896751433849e-04 0.0 
0.0 0.0 0.0 
-3.480388255960e-04 2.312495353978e-03 0.0 
2.312495353978e-03 1.382877949494e-03 0.0 
0.0 0.0 0.0 
-2.751319802864e-04 -2.121818373387e-03 0.0 
-2.121818373387e-03 1.127515065903e-03 0.0 
0.0 0.0 0.0 
-9.887196049287e-04 1.473036104859e-03 0.0 
1.473036104859e-03 6.959001874342e-03 0.0 
0.0 0.0 0.0 
-1.430383399368e-04 -2.145520400322e-03 0.0 
-2.145520400322e-03 8.378345953612e-04 0.0 
0.0 0.0 0.0 
6.333307918491e-04 3.184060479499e-03 0.0 
3.184060479499e-03 -1.443266809866e-04 0.0 
0.0 0.0 0.0 
1.391854427665e-03 -3.518868372670e-03 0.0 
-3.518868372670e-03 -1.834762094260e-03 0.0 
0.0 0.0 0.0 
-5.096572341752e-04 -1.562224880918e-03 0.0 
-1.562224880918e-03 1.070317041890e-03 0.0 
0.0 0.0 0.0 
1.665038287987e-03 1.295475930799e-04 0.0 
1.295475930799e-04 1.320037163679e-03 0.0 
0.0 0.0 0.0 
-1.328697370849e-03 1.772417346421e-03 0.0 
1.772417346421e-03 4.821556498648e-03 0.0 
0.0 0.0 0.0 
-4.171267128159e-04 -5.429586609658e-04 0.0 
-5.429586609658e-04 5.529938516549e-03 0.0 
0.0 0.0 0.0 
-9.547639935473e-04 9.715712197972e-04 0.0 
9.715712197972e-04 -4.465740981791e-03 0.0 
0.0 0.0 0.0 
1.139288687555e-03 3.252693143426e-03 0.0 
3.252693143426e-03 -5.282585312987e-04 0.0 
0.0 0.0 0.0 
2.731593823044e-03 2.763661315790e-03 0.0 
2.763661315790e-03 -1.725303050667e-03 0.0 
0.0 0.0 0.0 
-8.905040504527e-04 1.850803208571e-03 0.0 
1.850803208571e-03 3.100217736159e-03 0.0 
0.0 0.0 0.0 
1.817273216668e-03 -4.927435340714e-04 0.0 
-4.927435340714e-04 8.363329198684e-04 0.0 
0.0 0.0 0.0 
-2.694112948101e-04 -7.709095138832e-04 0.0 
-7.709095138832e-04 5.315417924205e-03 0.0 
0.0 0.0 0.0 
-9.538304427532e-04 1.782980111037e-03 0.0 
1.782980111037e-03 6.224235351960e-03 0.0 
0.0 0.0 0.0 
3.200614639076e-03 2.547427130401e-03 0.0 
2.547427130401e-03 -2.227390451686e-03 0.0 
0.0 0.0 0.0 
1.571813057830e-03 -6.693879746717e-05 0.0 
-6.693879746717e-05 1.321390154178e-03 0.0 
0.0 0.0 0.0 
-1.388134858526e-03 -2.681611826574e-04 0.0 
-2.681611826574e-04 4.693014509472e-03 0.0 
0.0 0.0 0.0 
-5.960540987489e-04 2.453902166911e-03 0.0 
2.453902166911e-03 3.411061499767e-03 0.0 
0.0 0.0 0.0 
-1.002825442184e-03 1.575758663889e-03 0.0 
1.575758663889e-03 6.331610193501e-03 0.0 
0.0 0.0 0.0 
5.420430029552e-04 1.927090971717e-03 0.0 
1.927090971717e-03 3.802414843925e-03 0.0 
0.0 0.0 0.0 
3.136527036890e-03 2.484835620895e-03 0.0 
2.484835620895e-03 -1.686510923145e-03 0.0 
0.0 0.0 0.0 
5.826037742322e-04 3.132841058118e-03 0.0 
3.132841058118e-03 3.232510253917e-04 0.0 
0.0 0.0 0.0 
-1.270402316459e-03 1.794698715174e-03 0.0 
1.794698715174e-03 5.413169726645e-03 0.0 
0.0 0.0 0.0 
-1.991532368814e-04 1.261206568088e-03 0.0 
1.261206568088e-03 8.540992250387e-03 0.0 
0.0 0.0 0.0 
-1.530124473714e-05 2.715713677851e-03 0.0 
2.715713677851e-03 2.464955192254e-03 0.0 
0.0 0.0 0.0 
3.467302534088e-03 1.741598316200e-03 0.0 
1.741598316200e-03 -1.909845127468e-03 0.0 
0.0 0.0 0.0 
-1.127504452792e-03 1.222137546512e-04 0.0 
1.222137546512e-04 6.541941329858e-03 0.0 
0.0 0.0 0.0 
-3.238347751440e-04 -2.538801786834e-03 0.0 
-2.538801786834e-03 3.492643602467e-04 0.0 
0.0 0.0 0.0 
-1.324154539453e-03 1.566240040594e-03 0.0 
1.566240040594e-03 5.210214741565e-03 0.0 
0.0 0.0 0.0 
2.746818075027e-03 2.996835377305e-03 0.0 
2.996835377305e-03 -2.292598830407e-03 0.0 
0.0 0.0 0.0 
3.149353093515e-03 2.548809268686e-03 0.0 
2.548809268686e-03 -3.935024691563e-03 0.0 
0.0 0.0 0.0 
2.808128376670e-03 -3.130526527922e-03 0.0 
-3.130526527922e-03 -4.298416870974e-03 0.0 
0.0 0.0 0.0 
-8.869802743952e-04 1.451371880987e-03 0.0 
1.451371880987e-03 6.961370165080e-03 0.0 
0.0 0.0 0.0 
-1.229761526042e-03 1.904510778287e-03 0.0 
1.904510778287e-03 5.029420859650e-03 0.0 
0.0 0.0 0.0 
8.019329783626e-04 2.884299352598e-03 0.0 
2.884299352598e-03 3.088528396265e-04 0.0 
0.0 0.0 0.0 
-9.160908903486e-04 1.408670854740e-03 0.0 
1.408670854740e-03 7.252427429691e-03 0.0 
0.0 0.0 0.0 
-8.003976395681e-04 1.926056956746e-03 0.0 
1.926056956746e-03 6.094763133226e-03 0.0 
0.0 0.0 0.0 
-7.700223924081e-04 2.335983517776e-03 0.0 
2.335983517776e-03 3.902792885152e-03 0.0 
0.0 0.0 0.0 
-7.722903356200e-05 -8.466662124161e-04 0.0 
-8.466662124161e-04 4.947380458718e-03 0.0 
0.0 0.0 0.0 
3.416693789233e-03 1.611848025128e-03 0.0 
1.611848025128e-03 -2.185231040505e-03 0.0 
0.0 0.0 0.0 
-9.122573726330e-04 2.219826043907e-03 0.0 
2.219826043907e-03 4.377324056597e-03 0.0 
0.0 0.0 0.0 
1.476395819818e-03 2.848939098237e-03 0.0 
2.848939098237e-03 2.158680564364e-04 0.0 
0.0 0.0 0.0 
3.185198552827e-03 1.656914806582e-03 0.0 
1.656914806582e-03 -1.466903548304e-03 0.0 
0.0 0.0 0.0 
3.510522272603e-03 2.257872867563e-03 0.0 
2.257872867563e-03 -3.751939550895e-03 0.0 
0.0 0.0 0.0 
-1.477512235462e-03 8.241055305403e-04 0.0 
8.241055305403e-04 5.886638034367e-03 0.0 
0.0 0.0 0.0 
3.648508746648e-03 2.003684036506e-03 0.0 
2.003684036506e-03 -2.195012959248e-03 0.0 
0.0 0.0 0.0 
3.666074877724e-03 -1.386448054723e-03 0.0 
-1.386448054723e-03 -3.568594025216e-03 0.0 
0.0 0.0 0.0 
-8.805970966871e-04 1.738392150139e-03 0.0 
1.738392150139e-03 6.232025931534e-03 0.0 
0.0 0.0 0.0 
-4.517349051600e-03 3.915042805896e-04 0.0 
3.915042805896e-04 -2.829747916550e-03 0.0 
0.0 0.0 0.0 
-1.423515801367e-03 1.587453747002e-03 0.0 
1.587453747002e-03 5.541692369964e-03 0.0 
0.0 0.0 0.0 
3.435047702634e-03 2.467956154794e-03 0.0 
2.467956154794e-03 -2.972927124551e-03 0.0 
0.0 0.0 0.0 
1.494287999048e-03 3.234451666387e-03 0.0 
3.234451666387e-03 -5.274373220986e-04 0.0 
0.0 0.0 0.0 
3.640867481771e-03 1.304666972812e-03 0.0 
1.304666972812e-03 -3.591122076575e-03 0.0 
0.0 0.0 0.0 
-1.070036007785e-03 1.892556448596e-03 0.0 
1.892556448596e-03 5.256139654210e-03 0.0 
0.0 0.0 0.0 
-1.622515868064e-04 -1.013075399036e-03 0.0 
-1.013075399036e-03 7.391675546204e-04 0.0 
0.0 0.0 0.0 
-4.767827399049e-04 2.288857925612e-03 0.0 
2.288857925612e-03 2.375160880505e-03 0.0 
0.0 0.0 0.0 
3.108695499665e-03 1.547280398337e-03 0.0 
1.547280398337e-03 -1.623567247300e-03 0.0 
0.0 0.0 0.0 
-1.183945350750e-03 1.791282595528e-03 0.0 
1.791282595528e-03 5.048683381879e-03 0.0 
0.0 0.0 0.0 
-1.484291609161e-03 9.774827256185e-04 0.0 
9.774827256185e-04 6.102246592743e-03 0.0 
0.0 0.0 0.0 
2.205612729629e-03 2.116065794393e-03 0.0 
2.116065794393e-03 -4.682024012534e-03 0.0 
0.0 0.0 0.0 
4.012142895282e-03 -5.133956819188e-04 0.0 
-5.133956819188e-04 -3.705175303596e-03 0.0 
0.0 0.0 0.0 
3.210670626910e-03 -2.198376533014e-03 0.0 
-2.198376533014e-03 -3.300453071169e-03 0.0 
0.0 0.0 0.0 
-5.933673484210e-04 2.339245838753e-03 0.0 
2.339245838753e-03 2.377342638623e-03 0.0 
0.0 0.0 0.0 
-1.090548841740e-03 1.621868417454e-03 0.0 
1.621868417454e-03 6.323739339571e-03 0.0 
0.0 0.0 0.0 
-4.417084891455e-04 2.500997178493e-03 0.0 
2.500997178493e-03 2.343214474261e-03 0.0 
0.0 0.0 0.0 
3.702760834554e-03 2.089119318802e-03 0.0 
2.089119318802e-03 -2.780426113462e-03 0.0 
0.0 0.0 0.0 
3.208168976082e-03 2.575136158440e-03 0.0 
2.575136158440e-03 -2.325361656494e-03 0.0 
0.0 0.0 0.0 
2.407415921791e-03 1.676171195892e-03 0.0 
1.676171195892e-03 -3.731093983362e-03 0.0 
0.0 0.0 0.0 
1.692319532963e-03 2.781056453785e-03 0.0 
2.781056453785e-03 -4.124112573299e-04 0.0 
0.0 0.0 0.0 
2.236555036876e-04 3.271420713642e-03 0.0 
3.271420713642e-03 2.787777559985e-04 0.0 
0.0 0.0 0.0 
-2.327469077104e-04 1.970627049419e-03 0.0 
1.970627049419e-03 7.864348802429e-03 0.0 
0.0 0.0 0.0 
-2.186823010217e-04 2.217281287318e-03 0.0 
2.217281287318e-03 7.468242114600e-03 0.0 
0.0 0.0 0.0 
2.279103085303e-04 2.744765315751e-03 0.0 
2.744765315751e-03 2.017967447767e-03 0.0 
0.0 0.0 0.0 
3.192181848914e-03 2.744477786435e-03 0.0 
2.744477786435e-03 -3.007090546942e-03 0.0 
0.0 0.0 0.0 
1.947800373960e-03 3.256914135591e-03 0.0 
3.256914135591e-03 -1.156854382082e-03 0.0 
0.0 0.0 0.0 
-6.852469743237e-04 2.299236096297e-03 0.0 
2.299236096297e-03 4.109245145789e-03 0.0 
0.0 0.0 0.0 
2.824189414207e-03 2.787323612130e-03 0.0 
2.787323612130e-03 -2.121601651006e-03 0.0 
0.0 0.0 0.0 
3.630801277825e-03 -1.383558724430e-03 0.0 
-1.383558724430e-03 -3.429471650243e-03 0.0 
0.0 0.0 0.0 
-6.468191659263e-04 2.312585422043e-03 0.0 
2.312585422043e-03 3.436590869893e-03 0.0 
0.0 0.0 0.0 
-4.105810714921e-04 8.287309705550e-04 0.0 
8.287309705550e-04 8.541108663339e-03 0.0 
0.0 0.0 0.0 
3.019394503811e-03 2.756211398691e-03 0.0 
2.756211398691e-03 -2.339156875723e-03 0.0 
0.0 0.0 0.0 
2.149516122586e-03 2.020354159843e-03 0.0 
2.020354159843e-03 -1.743705264723e-05 0.0 
0.0 0.0 0.0 
8.798654156488e-04 3.377820818915e-03 0.0 
3.377820818915e-03 -7.477152365041e-04 0.0 
0.0 0.0 0.0 
4.468450287780e-04 4.184450061160e-05 0.0 
4.184450061160e-05 3.844018914390e-03 0.0 
0.0 0.0 0.0 
2.403479713157e-03 3.233819991599e-03 0.0 
3.233819991599e-03 -2.190970422590e-03 0.0 
0.0 0.0 0.0 
-3.514112377858e-04 2.512850834576e-03 0.0 
2.512850834576e-03 3.047766901445e-03 0.0 
0.0 0.0 0.0 
3.049627508436e-03 1.829637839344e-03 0.0 
1.829637839344e-03 -4.559211016960e-03 0.0 
0.0 0.0 0.0 
2.811062796633e-03 -2.127159895535e-04 0.0 
-2.127159895535e-04 -1.053440581352e-03 0.0 
0.0 0.0 0.0 
3.274884855334e-03 2.381088819893e-03 0.0 
2.381088819893e-03 -2.252779453514e-03 0.0 
0.0 0.0 0.0 
3.273537489035e-03 -1.968353979486e-03 0.0 
-1.968353979486e-03 -2.760928364068e-03 0.0 
0.0 0.0 0.0 
-1.140521892222e-03 2.008340227698e-03 0.0 
2.008340227698e-03 4.622927657526e-03 0.0 
0.0 0.0 0.0 
-1.022066370093e-04 2.513608440811e-03 0.0 
2.513608440811e-03 6.744869751270e-03 0.0 
0.0 0.0 0.0 
3.614189959330e-03 2.246468573245e-03 0.0 
2.246468573245e-03 -2.899685219584e-03 0.0 
0.0 0.0 0.0 
3.268689378288e-03 1.214753995627e-03 0.0 
1.214753995627e-03 -1.577551052649e-03 0.0 
0.0 0.0 0.0 
1.171918866296e-03 3.411424366275e-03 0.0 
3.411424366275e-03 -7.536673937019e-04 0.0 
0.0 0.0 0.0 
-1.146287065748e-03 8.265718400396e-04 0.0 
8.265718400396e-04 6.918186671184e-03 0.0 
0.0 0.0 0.0 
1.766255955469e-03 -8.395758278849e-04 0.0 
-8.395758278849e-04 7.216943283783e-04 0.0 
0.0 0.0 0.0 
3.338000092159e-04 2.978562830222e-03 0.0 
2.978562830222e-03 7.350658562357e-04 0.0 
0.0 0.0 0.0 
-1.288278049733e-03 6.941596370870e-04 0.0 
6.941596370870e-04 6.845186595128e-03 0.0 
0.0 0.0 0.0 
5.102622767694e-05 2.590261554938e-03 0.0 
2.590261554938e-03 5.868981984357e-03 0.0 
0.0 0.0 0.0 
1.475890961415e-03 -6.425376409748e-04 0.0 
-6.425376409748e-04 1.405570843348e-03 0.0 
0.0 0.0 0.0 
-1.518365034067e-04 2.436563912419e-03 0.0 
2.436563912419e-03 7.003234222411e-03 0.0 
0.0 0.0 0.0 
-1.336932125672e-03 8.825961112879e-04 0.0 
8.825961112879e-04 6.673902024460e-03 0.0 
0.0 0.0 0.0 
-5.837779618239e-04 2.144555248215e-03 0.0 
2.144555248215e-03 5.504325652145e-03 0.0 
0.0 0.0 0.0 
-9.427101097192e-05 2.845056343899e-03 0.0 
2.845056343899e-03 1.053747791179e-03 0.0 
0.0 0.0 0.0 
-1.239344000605e-03 1.877710826843e-03 0.0 
1.877710826843e-03 4.423316179747e-03 0.0 
0.0 0.0 0.0 
-9.161901226282e-04 2.100348325087e-03 0.0 
2.100348325087e-03 4.394386533042e-03 0.0 
0.0 0.0 0.0 
-1.029429826356e-03 2.111252087595e-03 0.0 
2.111252087595e-03 4.827993568632e-03 0.0 
0.0 0.0 0.0 
2.720420875955e-04 2.793324246528e-03 0.0 
2.793324246528e-03 1.895955411005e-03 0.0 
0.0 0.0 0.0 
1.635168612202e-04 2.449376733609e-03 0.0 
2.449376733609e-03 5.287623193659e-03 0.0 
0.0 0.0 0.0 
-1.341322949776e-03 1.160968491711e-03 0.0 
1.160968491711e-03 6.190215414995e-03 0.0 
0.0 0.0 0.0 
-1.522714915228e-03 1.453818120452e-03 0.0 
1.453818120452e-03 5.306888754713e-03 0.0 
0.0 0.0 0.0 
3.551968983446e-03 2.155216190876e-03 0.0 
2.155216190876e-03 -2.263721972264e-03 0.0 
0.0 0.0 0.0 
-4.144637323142e-04 -1.889597193720e-03 0.0 
-1.889597193720e-03 1.114505620871e-03 0.0 
0.0 0.0 0.0 
-1.403969814295e-03 1.620761823226e-03 0.0 
1.620761823226e-03 4.594300298852e-03 0.0 
0.0 0.0 0.0 
8.093313246200e-04 3.055652023841e-03 0.0 
3.055652023841e-03 -8.950446514611e-06 0.0 
0.0 0.0 0.0 
-1.128432223202e-03 7.162824172967e-05 0.0 
7.162824172967e-05 6.191837633121e-03 0.0 
0.0 0.0 0.0 
2.693354413147e-03 -2.493243062559e-03 0.0 
-2.493243062559e-03 -2.679822183297e-03 0.0 
0.0 0.0 0.0 
3.418825978780e-03 2.312751839313e-03 0.0 
2.312751839313e-03 -2.277911984874e-03 0.0 
0.0 0.0 0.0 
-8.390601869925e-04 1.669246211821e-03 0.0 
1.669246211821e-03 6.579540219830e-03 0.0 
0.0 0.0 0.0 
1.124398970485e-03 3.148236883263e-03 0.0 
3.148236883263e-03 -2.234257048217e-05 0.0 
0.0 0.0 0.0 
-1.012867039902e-03 1.977018252331e-03 0.0 
1.977018252331e-03 4.212473982640e-03 0.0 
0.0 0.0 0.0 
3.053945226110e-03 1.096678508231e-03 0.0 
1.096678508231e-03 -1.459508612611e-03 0.0 
0.0 0.0 0.0 
1.509841973035e-03 -1.861960276241e-03 0.0 
-1.861960276241e-03 -8.015647391379e-05 0.0 
0.0 0.0 0.0 
3.502761132379e-04 1.956577540522e-03 0.0 
1.956577540522e-03 4.510304296732e-03 0.0 
0.0 0.0 0.0 
-1.198099100286e-03 1.839383108760e-03 0.0 
1.839383108760e-03 3.858677414528e-03 0.0 
0.0 0.0 0.0 
4.076089022577e-03 3.705556479835e-04 0.0 
3.705556479835e-04 -4.032720312417e-03 0.0 
0.0 0.0 0.0 
8.222478325675e-04 -2.568406819790e-03 0.0 
-2.568406819790e-03 -1.532266326201e-04 0.0 
0.0 0.0 0.0 
-3.129003359258e-04 2.524645687270e-03 0.0 
2.524645687270e-03 1.699829176028e-03 0.0 
0.0 0.0 0.0 
2.436121851330e-04 2.775935386771e-03 0.0 
2.775935386771e-03 7.576327860104e-04 0.0 
0.0 0.0 0.0 
-6.441110014117e-04 1.983627481216e-03 0.0 
1.983627481216e-03 6.347618480701e-03 0.0 
0.0 0.0 0.0 
-4.752303160089e-04 2.511840681760e-03 0.0 
2.511840681760e-03 3.574712141396e-03 0.0 
0.0 0.0 0.0 
-9.147192230468e-04 2.076761588724e-03 0.0 
2.076761588724e-03 3.081492684197e-03 0.0 
0.0 0.0 0.0 
-1.096369391200e-03 1.824499420480e-03 0.0 
1.824499420480e-03 4.042845076889e-03 0.0 
0.0 0.0 0.0 
4.852729607796e-04 9.308826520581e-04 0.0 
9.308826520581e-04 3.857992299627e-03 0.0 
0.0 0.0 0.0 
8.839308330115e-04 9.875852979749e-04 0.0 
9.875852979749e-04 3.112704931747e-03 0.0 
0.0 0.0 0.0 
-5.768985478631e-04 1.955362444469e-03 0.0 
1.955362444469e-03 6.352973150690e-03 0.0 
0.0 0.0 0.0 
-1.050421760730e-03 1.544330761837e-03 0.0 
1.544330761837e-03 6.651315751283e-03 0.0 
0.0 0.0 0.0 
1.639798408983e-03 -1.966429835432e-03 0.0 
-1.966429835432e-03 -6.758312428845e-04 0.0 
0.0 0.0 0.0 
-5.732482879395e-05 2.706242911006e-03 0.0 
2.706242911006e-03 1.881167155825e-03 0.0 
0.0 0.0 0.0 
3.496317822850e-03 2.071990585511e-03 0.0 
2.071990585511e-03 -2.902532355556e-03 0.0 
0.0 0.0 0.0 
3.780990139259e-03 1.839647056412e-03 0.0 
1.839647056412e-03 -2.878812741328e-03 0.0 
0.0 0.0 0.0 
-2.642149653971e-04 2.622540023109e-03 0.0 
2.622540023109e-03 3.031118785819e-03 0.0 
0.0 0.0 0.0 
2.991428593744e-03 -2.394263403198e-04 0.0 
-2.394263403198e-04 -1.515886237467e-03 0.0 
0.0 0.0 0.0 
-6.026926286209e-04 -1.957256270001e-03 0.0 
-1.957256270001e-03 1.941530991712e-03 0.0 
0.0 0.0 0.0 
-6.679646965597e-04 1.763749372190e-03 0.0 
1.763749372190e-03 6.829620862084e-03 0.0 
0.0 0.0 0.0 
3.902196583814e-03 -6.514003886047e-04 0.0 
-6.514003886047e-04 -3.872730061288e-03 0.0 
0.0 0.0 0.0 
5.767896624542e-04 2.838364776349e-03 0.0 
2.838364776349e-03 1.340214998973e-03 0.0 
0.0 0.0 0.0 
-7.935192764079e-04 2.201917960856e-03 0.0 
2.201917960856e-03 3.928777285469e-03 0.0 
0.0 0.0 0.0 
3.959514442624e-04 2.828758208695e-03 0.0 
2.828758208695e-03 1.362372404357e-03 0.0 
0.0 0.0 0.0 
-1.919322190939e-04 2.343264895333e-03 0.0 
2.343264895333e-03 7.241697844292e-03 0.0 
0.0 0.0 0.0 
-2.113560595359e-04 2.105301700058e-03 0.0 
2.105301700058e-03 7.660847727922e-03 0.0 
0.0 0.0 0.0 
-4.234514381418e-04 1.982413305552e-03 0.0 
1.982413305552e-03 7.315273235307e-03 0.0 
0.0 0.0 0.0 
1.550240510162e-03 -1.837516985833e-03 0.0 
-1.837516985833e-03 -3.442813508799e-04 0.0 
0.0 0.0 0.0 
-8.052875621624e-04 1.397299041966e-03 0.0 
1.397299041966e-03 7.253428534028e-03 0.0 
0.0 0.0 0.0 
4.184060600430e-04 2.976793785210e-03 0.0 
2.976793785210e-03 3.419189715834e-04 0.0 
0.0 0.0 0.0 
3.911832345684e-03 1.671941639674e-03 0.0 
1.671941639674e-03 -2.813241910092e-03 0.0 
0.0 0.0 0.0 
3.225226343436e-03 1.452326482640e-03 0.0 
1.452326482640e-03 -3.748974822262e-03 0.0 
0.0 0.0 0.0 
-6.309121159832e-04 2.366869424780e-03 0.0 
2.366869424780e-03 2.743385579258e-03 0.0 
0.0 0.0 0.0 
-1.465926636369e-03 6.874674119873e-04 0.0 
6.874674119873e-04 5.990069989691e-03 0.0 
0.0 0.0 0.0 
-1.221111937521e-03 8.608751553378e-04 0.0 
8.608751553378e-04 6.675694300669e-03 0.0 
0.0 0.0 0.0 
8.255786061553e-04 1.484966438180e-04 0.0 
1.484966438180e-04 3.146155852882e-03 0.0 
0.0 0.0 0.0 
-4.200030591209e-04 2.134987839656e-03 0.0 
2.134987839656e-03 5.779418578320e-03 0.0 
0.0 0.0 0.0 
-1.223615744317e-03 1.697591865352e-03 0.0 
1.697591865352e-03 5.427715350397e-03 0.0 
0.0 0.0 0.0 
-8.098155353732e-04 2.199178169428e-03 0.0 
2.199178169428e-03 4.601285350110e-03 0.0 
0.0 0.0 0.0 
3.605325805012e-03 1.521368821327e-03 0.0 
1.521368821327e-03 -4.343742100924e-03 0.0 
0.0 0.0 0.0 
-6.416876962121e-04 -1.652238518055e-03 0.0 
-1.652238518055e-03 6.906503150397e-04 0.0 
0.0 0.0 0.0 
2.193178672923e-03 2.838590175334e-03 0.0 
2.838590175334e-03 -1.134522036124e-03 0.0 
0.0 0.0 0.0 
7.050402306570e-04 2.830802864402e-03 0.0 
2.830802864402e-03 1.399421161865e-03 0.0 
0.0 0.0 0.0 
2.084623655694e-03 2.764840313804e-03 0.0 
2.764840313804e-03 -4.120957693804e-04 0.0 
0.0 0.0 0.0 
-4.461722847600e-04 2.954552497562e-03 0.0 
2.954552497562e-03 1.899460885586e-04 0.0 
0.0 0.0 0.0 
-1.074195252975e-03 1.140594154658e-04 0.0 
1.140594154658e-04 6.539556593692e-03 0.0 
0.0 0.0 0.0 
-2.283169748043e-04 -1.840877725407e-03 0.0 
-1.840877725407e-03 9.114675416435e-04 0.0 
0.0 0.0 0.0 
1.956146689770e-03 3.260983606469e-03 0.0 
3.260983606469e-03 -1.432212807629e-03 0.0 
0.0 0.0 0.0 
0.0 1.891295997168e-04 0.0 
1.891295997168e-04 3.825635534585e-03 0.0 
0.0 0.0 0.0 
2.464827409193e-03 1.401894157576e-03 0.0 
1.401894157576e-03 4.976851908745e-05 0.0 
0.0 0.0 0.0 
-1.430598449657e-03 1.344618795073e-03 0.0 
1.344618795073e-03 5.319892037802e-03 0.0 
0.0 0.0 0.0 
7.894621463560e-04 -9.721194118213e-05 0.0 
-9.721194118213e-05 7.801272971422e-04 0.0 
0.0 0.0 0.0 
1.236656897983e-04 2.712532528475e-03 0.0 
2.712532528475e-03 1.907739278786e-03 0.0 
0.0 0.0 0.0 
2.637175884065e-03 2.695255538224e-03 0.0 
2.695255538224e-03 -1.116549881376e-03 0.0 
0.0 0.0 0.0 
-1.082357410783e-03 1.982157192172e-03 0.0 
1.982157192172e-03 5.244810855291e-03 0.0 
0.0 0.0 0.0 
-4.487062659664e-05 2.576720399122e-03 0.0 
2.576720399122e-03 6.454735517657e-03 0.0 
0.0 0.0 0.0 
-1.190466025293e-03 1.732082458566e-03 0.0 
1.732082458566e-03 4.439590931188e-03 0.0 
0.0 0.0 0.0 
-6.477798166098e-04 2.399886697223e-03 0.0 
2.399886697223e-03 4.096157591914e-03 0.0 
0.0 0.0 0.0 
-3.872082331232e-04 -2.054237444337e-03 0.0 
-2.054237444337e-03 1.954837958342e-03 0.0 
0.0 0.0 0.0 
-7.839575555040e-04 1.613057432798e-03 0.0 
1.613057432798e-03 6.908944822102e-03 0.0 
0.0 0.0 0.0 
1.424694590342e-03 -1.712393844440e-03 0.0 
-1.712393844440e-03 3.153904414170e-04 0.0 
0.0 0.0 0.0 
-1.030261726243e-05 2.598416118902e-03 0.0 
2.598416118902e-03 6.169533459578e-03 0.0 
0.0 0.0 0.0 
0.0 2.289304922410e-03 0.0 
2.289304922410e-03 7.119580163362e-03 0.0 
0.0 0.0 0.0 
0.0 1.815107220584e-03 0.0 
1.815107220584e-03 7.967721918637e-03 0.0 
0.0 0.0 0.0 
0.0 2.060995367632e-03 0.0 
2.060995367632e-03 7.573749940493e-03 0.0 
0.0 0.0 0.0 
-8.865117924698e-04 2.064153362079e-03 0.0 
2.064153362079e-03 5.051951453001e-03 0.0 
0.0 0.0 0.0 
-8.812582033572e-04 1.630013629755e-03 0.0 
1.630013629755e-03 6.907147460387e-03 0.0 
0.0 0.0 0.0 
-4.243671393144e-04 2.094788275259e-03 0.0 
2.094788275259e-03 6.211633737979e-03 0.0 
0.0 0.0 0.0 
2.587383452834e-04 2.754742227344e-03 0.0 
2.754742227344e-03 1.371904473532e-03 0.0 
0.0 0.0 0.0 
-1.329010600200e-04 2.560482588802e-03 0.0 
2.560482588802e-03 1.899835474665e-03 0.0 
0.0 0.0 0.0 
-8.685601717782e-04 -1.787198186422e-03 0.0 
-1.787198186422e-03 2.232293368639e-03 0.0 
0.0 0.0 0.0 
-7.613761402993e-04 1.784046368576e-03 0.0 
1.784046368576e-03 6.827128706304e-03 0.0 
0.0 0.0 0.0 
1.099107066156e-04 2.536248513746e-03 0.0 
2.536248513746e-03 5.568618658779e-03 0.0 
0.0 0.0 0.0 
-7.086833048615e-04 1.552891647760e-03 0.0 
1.552891647760e-03 7.214607255112e-03 0.0 
0.0 0.0 0.0 
2.875919501834e-03 1.562697039468e-03 0.0 
1.562697039468e-03 -7.848099416361e-04 0.0 
0.0 0.0 0.0 
-8.138269457819e-04 1.567432323096e-03 0.0 
1.567432323096e-03 7.213112390013e-03 0.0 
0.0 0.0 0.0 
9.273244280170e-04 2.479563256396e-03 0.0 
2.479563256396e-03 2.495029572707e-03 0.0 
0.0 0.0 0.0 
8.292458864136e-04 2.844439893361e-03 0.0 
2.844439893361e-03 8.088654366887e-04 0.0 
0.0 0.0 0.0 
-6.549982478831e-04 2.164523392291e-03 0.0 
2.164523392291e-03 2.764642100045e-03 0.0 
0.0 0.0 0.0 
1.910737128628e-03 3.504400568282e-03 0.0 
3.504400568282e-03 -2.030948370663e-03 0.0 
0.0 0.0 0.0 
-2.307909857086e-04 1.299314450159e-03 0.0 
1.299314450159e-03 8.219861231294e-03 0.0 
0.0 0.0 0.0 
5.233189677272e-04 2.834166181848e-03 0.0 
2.834166181848e-03 8.679214531602e-04 0.0 
0.0 0.0 0.0 
2.695558405872e-04 2.231944316411e-03 0.0 
2.231944316411e-03 4.559374616905e-03 0.0 
0.0 0.0 0.0 
-7.029732306243e-04 -1.929701591542e-03 0.0 
-1.929701591542e-03 2.252727414150e-03 0.0 
0.0 0.0 0.0 
2.053944053701e-03 -2.941277055174e-03 0.0 
-2.941277055174e-03 -2.088489316996e-03 0.0 
0.0 0.0 0.0 
4.469951287294e-04 4.702902241421e-05 0.0 
4.702902241421e-05 3.189843086373e-03 0.0 
0.0 0.0 0.0 
1.561157768747e-03 3.181138999588e-03 0.0 
3.181138999588e-03 -8.208720698771e-04 0.0 
0.0 0.0 0.0 
0.0 2.377829587381e-03 0.0 
2.377829587381e-03 6.873939906578e-03 0.0 
0.0 0.0 0.0 
-2.581008478701e-04 1.862832171605e-03 0.0 
1.862832171605e-03 7.536127023158e-03 0.0 
0.0 0.0 0.0 
-2.438974527600e-04 2.565288248689e-03 0.0 
2.565288248689e-03 3.225708797519e-03 0.0 
0.0 0.0 0.0 
-5.912921927740e-04 -8.565388166070e-04 0.0 
-8.565388166070e-04 7.347945889431e-04 0.0 
0.0 0.0 0.0 
0.0 2.470431474639e-03 0.0 
2.470431474639e-03 6.314391457512e-03 0.0 
0.0 0.0 0.0 
4.782400292482e-04 5.590320259298e-04 0.0 
5.590320259298e-04 3.129084580509e-03 0.0 
0.0 0.0 0.0 
2.595527395667e-03 -2.514582869747e-03 0.0 
-2.514582869747e-03 -2.155862040944e-03 0.0 
0.0 0.0 0.0 
2.851035862758e-03 1.111939375410e-03 0.0 
1.111939375410e-03 -6.597386789767e-04 0.0 
0.0 0.0 0.0 
3.645125583209e-04 1.723244653235e-03 0.0 
1.723244653235e-03 4.299287945312e-03 0.0 
0.0 0.0 0.0 
-3.458581405841e-04 -4.720885512931e-05 0.0 
-4.720885512931e-05 2.587573000987e-04 0.0 
0.0 0.0 0.0 
6.868311410990e-04 2.854067599168e-03 0.0 
2.854067599168e-03 8.079322476220e-04 0.0 
0.0 0.0 0.0 
-4.220098390255e-04 2.464131570738e-03 0.0 
2.464131570738e-03 3.790311183228e-03 0.0 
0.0 0.0 0.0 
-2.668145208329e-05 2.662863885552e-03 0.0 
2.662863885552e-03 2.630774770990e-03 0.0 
0.0 0.0 0.0 
-5.321991365168e-04 2.406665056351e-03 0.0 
2.406665056351e-03 3.589732513991e-03 0.0 
0.0 0.0 0.0 
1.490932134521e-03 3.392584041481e-03 0.0 
3.392584041481e-03 -1.174687749004e-03 0.0 
0.0 0.0 0.0 
0.0 2.446114134068e-03 0.0 
2.446114134068e-03 5.715591271030e-03 0.0 
0.0 0.0 0.0 
3.969686884120e-03 1.549646007472e-03 0.0 
1.549646007472e-03 -2.697247268140e-03 0.0 
0.0 0.0 0.0 
2.186083227003e-03 4.724152719884e-04 0.0 
4.724152719884e-04 -4.406918001962e-03 0.0 
0.0 0.0 0.0 
-6.841227929977e-05 -9.426284518143e-04 0.0 
-9.426284518143e-04 4.827613544038e-03 0.0 
0.0 0.0 0.0 
-3.570626776225e-04 -6.819596814766e-04 0.0 
-6.819596814766e-04 4.448461287636e-04 0.0 
0.0 0.0 0.0 
-9.750125945784e-04 1.925718455634e-03 0.0 
1.925718455634e-03 3.631529027781e-03 0.0 
0.0 0.0 0.0 
1.610748512565e-03 -2.991963750766e-03 0.0 
-2.991963750766e-03 -2.510291006954e-03 0.0 
0.0 0.0 0.0 
-1.331456339777e-03 1.472448104559e-03 0.0 
1.472448104559e-03 4.612775147602e-03 0.0 
0.0 0.0 0.0 
4.791667970827e-04 6.017202684100e-04 0.0 
6.017202684100e-04 3.797510296852e-03 0.0 
0.0 0.0 0.0 
0.0 2.280536496145e-03 0.0 
2.280536496145e-03 5.137961586709e-03 0.0 
0.0 0.0 0.0 
-1.009598297285e-03 2.007462187577e-03 0.0 
2.007462187577e-03 4.842307341793e-03 0.0 
0.0 0.0 0.0 
5.348625888617e-04 -3.192117496569e-03 0.0 
-3.192117496569e-03 -9.925647591829e-04 0.0 
0.0 0.0 0.0 
1.996200674600e-03 7.781912529433e-04 0.0 
7.781912529433e-04 -4.849952016538e-03 0.0 
0.0 0.0 0.0 
4.707170526754e-04 -3.666859471414e-03 0.0 
-3.666859471414e-03 -1.272110144450e-03 0.0 
0.0 0.0 0.0 
2.653671134225e-04 -1.094365135721e-03 0.0 
-1.094365135721e-03 3.131403264810e-03 0.0 
0.0 0.0 0.0 
-1.537151685463e-03 8.010000460905e-04 0.0 
8.010000460905e-04 5.879257273579e-03 0.0 
0.0 0.0 0.0 
-1.532741614074e-03 1.369645806102e-03 0.0 
1.369645806102e-03 5.625595206319e-03 0.0 
0.0 0.0 0.0 
0.0 1.978105106185e-03 0.0 
1.978105106185e-03 4.622919830575e-03 0.0 
0.0 0.0 0.0 
-1.498204060823e-03 6.649554665119e-04 0.0 
6.649554665119e-04 5.974666899101e-03 0.0 
0.0 0.0 0.0 
-2.163389748250e-04 1.821945027572e-03 0.0 
1.821945027572e-03 8.041066725738e-03 0.0 
0.0 0.0 0.0 
9.402345999701e-04 2.402166628346e-03 0.0 
2.402166628346e-03 2.242322323216e-03 0.0 
0.0 0.0 0.0 
-1.245373773466e-03 7.113884375886e-04 0.0 
7.113884375886e-04 6.599832517238e-03 0.0 
0.0 0.0 0.0 
6.724238137901e-05 2.644507336064e-03 0.0 
2.644507336064e-03 1.149559327190e-03 0.0 
0.0 0.0 0.0 
2.639047813213e-03 1.414942716592e-03 0.0 
1.414942716592e-03 -7.010092161273e-04 0.0 
0.0 0.0 0.0 
2.812791022283e-03 2.695533502422e-03 0.0 
2.695533502422e-03 -2.869980356805e-03 0.0 
0.0 0.0 0.0 
0.0 1.538094412113e-03 0.0 
1.538094412113e-03 4.206999048314e-03 0.0 
0.0 0.0 0.0 
0.0 2.184724926347e-03 0.0 
2.184724926347e-03 7.355280786794e-03 0.0 
0.0 0.0 0.0 
0.0 1.937493333804e-03 0.0 
1.937493333804e-03 7.792331794513e-03 0.0 
0.0 0.0 0.0 
1.107088081733e-03 -1.885766920829e-03 0.0 
-1.885766920829e-03 3.428581259806e-04 0.0 
0.0 0.0 0.0 
-1.080170062665e-03 -1.569179697642e-03 0.0 
-1.569179697642e-03 2.469324594211e-03 0.0 
0.0 0.0 0.0 
1.038053154789e-03 2.818201899921e-03 0.0 
2.818201899921e-03 8.116606091830e-04 0.0 
0.0 0.0 0.0 
1.029633525099e-03 -1.715463269154e-03 0.0 
-1.715463269154e-03 1.011721217803e-03 0.0 
0.0 0.0 0.0 
0.0 1.049066314584e-03 0.0 
1.049066314584e-03 3.927436694721e-03 0.0 
0.0 0.0 0.0 
2.401583530354e-03 3.044782643511e-03 0.0 
3.044782643511e-03 -1.402455111771e-03 0.0 
0.0 0.0 0.0 
3.741586103824e-03 -1.216402008038e-03 0.0 
-1.216402008038e-03 -3.231576747679e-03 0.0 
0.0 0.0 0.0 
3.303850225792e-03 -1.743030878568e-03 0.0 
-1.743030878568e-03 -2.648688335297e-03 0.0 
0.0 0.0 0.0 
-1.173593478246e-03 6.841841440061e-04 0.0 
6.841841440061e-04 6.845949662847e-03 0.0 
0.0 0.0 0.0 
3.528008742861e-04 -2.399885943480e-04 0.0 
-2.399885943480e-04 3.929382876720e-03 0.0 
0.0 0.0 0.0 
-8.208372969314e-04 -3.378873070984e-03 0.0 
-3.378873070984e-03 -1.196398603213e-04 0.0 
0.0 0.0 0.0 
0.0 4.601253938420e-04 0.0 
4.601253938420e-04 3.793435183279e-03 0.0 
0.0 0.0 0.0 
2.733806460665e-03 -2.279981266842e-03 0.0 
-2.279981266842e-03 -2.145327847005e-03 0.0 
0.0 0.0 0.0 
0.0 2.442710772928e-03 0.0 
2.442710772928e-03 6.609614097892e-03 0.0 
0.0 0.0 0.0 
-4.980676057982e-04 2.114101905123e-03 0.0 
2.114101905123e-03 6.208874223036e-03 0.0 
0.0 0.0 0.0 
1.918235896858e-04 -6.228057209163e-05 0.0 
-6.228057209163e-05 5.850590524359e-05 0.0 
0.0 0.0 0.0 
1.148822666990e-03 2.838075800162e-03 0.0 
2.838075800162e-03 2.193927373177e-04 0.0 
0.0 0.0 0.0 
-8.258057425738e-04 1.350631062944e-03 0.0 
1.350631062944e-03 7.523744820975e-03 0.0 
0.0 0.0 0.0 
0.0 2.476450007455e-03 0.0 
2.476450007455e-03 6.022304342561e-03 0.0 
0.0 0.0 0.0 
-8.638101177882e-04 2.146232352889e-03 0.0 
2.146232352889e-03 5.041053997261e-03 0.0 
0.0 0.0 0.0 
1.136736226184e-03 2.224859285358e-03 0.0 
2.224859285358e-03 2.067680601362e-03 0.0 
0.0 0.0 0.0 
1.232321233003e-03 3.554612736499e-03 0.0 
3.554612736499e-03 -1.669351963067e-03 0.0 
0.0 0.0 0.0 
9.095072312617e-04 3.976521721725e-04 0.0 
3.976521721725e-04 2.485524472675e-03 0.0 
0.0 0.0 0.0 
2.179945371279e-03 -2.456739320917e-03 0.0 
-2.456739320917e-03 -1.460564619062e-03 0.0 
0.0 0.0 0.0 
2.788355156262e-03 -2.236077625171e-03 0.0 
-2.236077625171e-03 -2.580547904327e-03 0.0 
0.0 0.0 0.0 
-1.512571370355e-03 -3.261486647824e-03 0.0 
-3.261486647824e-03 -1.601625924267e-04 0.0 
0.0 0.0 0.0 
0.0 2.380574411905e-03 0.0 
2.380574411905e-03 5.422273119293e-03 0.0 
0.0 0.0 0.0 
3.157080296410e-03 2.310225591970e-03 0.0 
2.310225591970e-03 -2.906312273156e-03 0.0 
0.0 0.0 0.0 
1.344530580989e-03 -5.487761016391e-04 0.0 
-5.487761016391e-04 1.585079771625e-03 0.0 
0.0 0.0 0.0 
-1.376291418933e-03 5.773776690646e-04 0.0 
5.773776690646e-04 6.497599982062e-03 0.0 
0.0 0.0 0.0 
5.565736210964e-04 -2.681192906567e-03 0.0 
-2.681192906567e-03 -1.340081383048e-04 0.0 
0.0 0.0 0.0 
3.299875887570e-03 -1.907151508751e-03 0.0 
-1.907151508751e-03 -3.129654396523e-03 0.0 
0.0 0.0 0.0 
-7.931296635184e-04 2.292856451891e-03 0.0 
2.292856451891e-03 4.588541175362e-03 0.0 
0.0 0.0 0.0 
0.0 1.764833234258e-03 0.0 
1.764833234258e-03 4.405861811392e-03 0.0 
0.0 0.0 0.0 
-1.196407692046e-03 -1.511744885211e-03 0.0 
-1.511744885211e-03 2.886766382957e-03 0.0 
0.0 0.0 0.0 
1.289602320092e-03 -1.386633941835e-03 0.0 
-1.386633941835e-03 7.450607434085e-04 0.0 
0.0 0.0 0.0 
6.077309598207e-04 2.805425522656e-03 0.0 
2.805425522656e-03 1.546473108890e-03 0.0 
0.0 0.0 0.0 
2.525382969896e-03 -1.046528029041e-03 0.0 
-1.046528029041e-03 -1.216096911822e-03 0.0 
0.0 0.0 0.0 
3.775800799345e-03 -1.216438224342e-03 0.0 
-1.216438224342e-03 -3.377553820509e-03 0.0 
0.0 0.0 0.0 
1.429711464064e-03 -1.671922410414e-03 0.0 
-1.671922410414e-03 1.331072363351e-04 0.0 
0.0 0.0 0.0 
3.836306255305e-04 2.797811305369e-03 0.0 
2.797811305369e-03 2.010191322287e-03 0.0 
0.0 0.0 0.0 
3.635373941808e-04 2.512238076885e-03 0.0 
2.512238076885e-03 3.440807180681e-03 0.0 
0.0 0.0 0.0 
2.259687475808e-03 1.277846726944e-03 0.0 
1.277846726944e-03 1.270369928374e-04 0.0 
0.0 0.0 0.0 
9.310262707265e-04 2.825487235401e-03 0.0 
2.825487235401e-03 8.971678495999e-04 0.0 
0.0 0.0 0.0 
-2.866024391490e-05 -2.232409623946e-03 0.0 
-2.232409623946e-03 1.421746450812e-03 0.0 
0.0 0.0 0.0 
1.967084217179e-03 3.097602983028e-03 0.0 
3.097602983028e-03 -8.109532819132e-04 0.0 
0.0 0.0 0.0 
-9.664497471199e-04 -1.749035902250e-03 0.0 
-1.749035902250e-03 2.495673895129e-03 0.0 
0.0 0.0 0.0 
1.165663778354e-03 2.311262777850e-03 0.0 
2.311262777850e-03 2.256553189561e-03 0.0 
0.0 0.0 0.0 
3.516196682001e-03 1.118270606841e-03 0.0 
1.118270606841e-03 -2.233339442478e-03 0.0 
0.0 0.0 0.0 
4.634717980503e-04 3.120199226867e-04 0.0 
3.120199226867e-04 3.809397510121e-03 0.0 
0.0 0.0 0.0 
-7.334461257708e-04 1.508051755701e-03 0.0 
1.508051755701e-03 7.503286866114e-03 0.0 
0.0 0.0 0.0 
3.032808240355e-04 -2.539547949843e-03 0.0 
-2.539547949843e-03 4.249453621208e-04 0.0 
0.0 0.0 0.0 
0.0 7.447520764063e-04 0.0 
7.447520764063e-04 3.801836565291e-03 0.0 
0.0 0.0 0.0 
9.096505647559e-04 4.385849921549e-04 0.0 
4.385849921549e-04 3.123897803468e-03 0.0 
0.0 0.0 0.0 
2.238754719697e-03 2.667110599754e-03 0.0 
2.667110599754e-03 -1.025195159016e-03 0.0 
0.0 0.0 0.0 
-7.432036723644e-04 -2.230255597078e-03 0.0 
-2.230255597078e-03 8.059231095667e-04 0.0 
0.0 0.0 0.0 
3.552579900714e-04 -4.537755927209e-04 0.0 
-4.537755927209e-04 4.059652031313e-03 0.0 
0.0 0.0 0.0 
-7.043520095682e-04 1.721644966077e-03 0.0 
1.721644966077e-03 7.155264555128e-03 0.0 
0.0 0.0 0.0 
2.093164559676e-03 -2.701189793210e-03 0.0 
-2.701189793210e-03 -1.472578447045e-03 0.0 
0.0 0.0 0.0 
0.0 -7.804022249412e-05 0.0 
-7.804022249412e-05 3.862931122724e-03 0.0 
0.0 0.0 0.0 
1.018583293061e-03 -1.662446057152e-03 0.0 
-1.662446057152e-03 8.398117888802e-04 0.0 
0.0 0.0 0.0 
-3.561269492949e-04 2.435874280245e-03 0.0 
2.435874280245e-03 2.351080830247e-03 0.0 
0.0 0.0 0.0 
-1.344499235251e-03 1.492402837286e-03 0.0 
1.492402837286e-03 5.554580382964e-03 0.0 
0.0 0.0 0.0 
3.630558934834e-03 1.234763036318e-03 0.0 
1.234763036318e-03 -2.138504068525e-03 0.0 
0.0 0.0 0.0 
1.192325777980e-03 -2.034507820136e-03 0.0 
-2.034507820136e-03 -5.352238420664e-05 0.0 
0.0 0.0 0.0 
2.604842995954e-03 -5.626223666052e-04 0.0 
-5.626223666052e-04 -9.951332736673e-04 0.0 
0.0 0.0 0.0 
-1.206737871141e-03 1.458619889815e-03 0.0 
1.458619889815e-03 6.398696886204e-03 0.0 
0.0 0.0 0.0 
-7.454296031399e-04 2.188041827738e-03 0.0 
2.188041827738e-03 3.305536170160e-03 0.0 
0.0 0.0 0.0 
1.930686232274e-03 1.499844640763e-03 0.0 
1.499844640763e-03 7.659186489204e-04 0.0 
0.0 0.0 0.0 
-1.080289139491e-03 1.205402357213e-04 0.0 
1.205402357213e-04 6.851672269540e-03 0.0 
0.0 0.0 0.0 
-2.813489882215e-04 -2.161612630006e-03 0.0 
-2.161612630006e-03 1.412540015996e-03 0.0 
0.0 0.0 0.0 
2.598820394297e-03 9.824436480633e-04 0.0 
9.824436480633e-04 -4.942093626610e-04 0.0 
0.0 0.0 0.0 
1.647449684228e-03 -2.632811739146e-03 0.0 
-2.632811739146e-03 -1.436022725386e-03 0.0 
0.0 0.0 0.0 
-5.361407603850e-04 -1.425312763221e-03 0.0 
-1.425312763221e-03 3.251043397463e-03 0.0 
0.0 0.0 0.0 
7.481149644861e-05 -1.970633384074e-04 0.0 
-1.970633384074e-04 6.584458427161e-06 0.0 
0.0 0.0 0.0 
1.532236258864e-03 3.086861611535e-03 0.0 
3.086861611535e-03 -2.715316484044e-04 0.0 
0.0 0.0 0.0 
2.192108463130e-03 -2.657033348748e-03 0.0 
-2.657033348748e-03 -2.089113245412e-03 0.0 
0.0 0.0 0.0 
-6.941991748795e-04 -1.847646454834e-03 0.0 
-1.847646454834e-03 2.461969167427e-03 0.0 
0.0 0.0 0.0 
1.729847033327e-03 2.680441853343e-03 0.0 
2.680441853343e-03 -2.606659996338e-04 0.0 
0.0 0.0 0.0 
1.373884598274e-03 -1.487348891371e-03 0.0 
-1.487348891371e-03 8.120829832938e-04 0.0 
0.0 0.0 0.0 
-1.300434203131e-03 5.553282926864e-04 0.0 
5.553282926864e-04 6.748651576649e-03 0.0 
0.0 0.0 0.0 
1.546558120947e-03 -2.885011339628e-03 0.0 
-2.885011339628e-03 -1.440709452154e-03 0.0 
0.0 0.0 0.0 
0.0 -2.936492119149e-04 0.0 
-2.936492119149e-04 3.996395522043e-03 0.0 
0.0 0.0 0.0 
-3.540548801074e-04 2.544294724115e-03 0.0 
2.544294724115e-03 3.779012004761e-03 0.0 
0.0 0.0 0.0 
-9.476684959216e-04 -1.620871754650e-03 0.0 
-1.620871754650e-03 2.929106325421e-03 0.0 
0.0 0.0 0.0 
-1.458416264593e-04 2.643737156526e-03 0.0 
2.643737156526e-03 3.214268646078e-03 0.0 
0.0 0.0 0.0 
-8.798542177204e-04 -1.734758369963e-03 0.0 
-1.734758369963e-03 2.446194654466e-03 0.0 
0.0 0.0 0.0 
-6.108439147832e-04 -9.067211212421e-05 0.0 
-9.067211212421e-05 3.623270108282e-04 0.0 
0.0 0.0 0.0 
-1.387787611941e-03 1.464009319579e-03 0.0 
1.464009319579e-03 5.847365946465e-03 0.0 
0.0 0.0 0.0 
-1.673704620091e-03 -6.052331444628e-04 0.0 
-6.052331444628e-04 3.433338055928e-03 0.0 
0.0 0.0 0.0 
1.268010812121e-03 -1.188022397523e-04 0.0 
-1.188022397523e-04 -4.251895254223e-04 0.0 
0.0 0.0 0.0 
-1.192038075507e-03 -1.462670131601e-03 0.0 
-1.462670131601e-03 3.115575558251e-03 0.0 
0.0 0.0 0.0 
1.230921321422e-03 -1.215636044405e-03 0.0 
-1.215636044405e-03 1.380259190621e-03 0.0 
0.0 0.0 0.0 
-6.292835468203e-04 4.790524575974e-04 0.0 
4.790524575974e-04 8.096794602403e-03 0.0 
0.0 0.0 0.0 
2.981239166108e-03 -7.015708951538e-04 0.0 
-7.015708951538e-04 -1.746976658613e-03 0.0 
0.0 0.0 0.0 
2.783368557925e-03 -6.861374482714e-04 0.0 
-6.861374482714e-04 -1.279955968801e-03 0.0 
0.0 0.0 0.0 
-1.616854224824e-03 1.225348675461e-03 0.0 
1.225348675461e-03 5.373762784494e-03 0.0 
0.0 0.0 0.0 
-1.491043176333e-03 5.180116439078e-04 0.0 
5.180116439078e-04 5.716459883099e-03 0.0 
0.0 0.0 0.0 
-2.410717330390e-04 1.527943190005e-03 0.0 
1.527943190005e-03 8.012079463968e-03 0.0 
0.0 0.0 0.0 
9.618013572998e-05 2.731662648472e-03 0.0 
2.731662648472e-03 2.621294869767e-03 0.0 
0.0 0.0 0.0 
1.992851925173e-03 -1.465830737420e-04 0.0 
-1.465830737420e-04 -7.025020081962e-04 0.0 
0.0 0.0 0.0 
-2.423013484298e-04 -1.359894702297e-03 0.0 
-1.359894702297e-03 1.032803527966e-03 0.0 
0.0 0.0 0.0 
-8.099265057607e-04 -1.309780208651e-03 0.0 
-1.309780208651e-03 8.790851262199e-04 0.0 
0.0 0.0 0.0 
-6.660763657818e-05 -2.333501642625e-03 0.0 
-2.333501642625e-03 7.754190848086e-04 0.0 
0.0 0.0 0.0 
-3.970170865919e-05 2.314183552331e-03 0.0 
2.314183552331e-03 4.983963692416e-03 0.0 
0.0 0.0 0.0 
-7.047231044290e-04 4.508595355924e-04 0.0 
4.508595355924e-04 8.100439377512e-03 0.0 
0.0 0.0 0.0 
2.670797030917e-04 -1.109070828552e-03 0.0 
-1.109070828552e-03 3.185388794728e-03 0.0 
0.0 0.0 0.0 
-4.938120975946e-04 -1.945458948413e-03 0.0 
-1.945458948413e-03 1.487531476910e-03 0.0 
0.0 0.0 0.0 
-7.577488969738e-04 -1.389623064825e-03 0.0 
-1.389623064825e-03 3.246733472781e-03 0.0 
0.0 0.0 0.0 
1.180903647287e-03 -4.994861312293e-04 0.0 
-4.994861312293e-04 2.078920767129e-03 0.0 
0.0 0.0 0.0 
2.954003864303e-03 3.864321330415e-04 0.0 
3.864321330415e-04 -4.320412897644e-03 0.0 
0.0 0.0 0.0 
-1.670662515684e-03 -3.635449768230e-04 0.0 
-3.635449768230e-04 3.428990941923e-03 0.0 
0.0 0.0 0.0 
-1.491018718023e-03 -3.342125616165e-04 0.0 
-3.342125616165e-04 3.024192034098e-03 0.0 
0.0 0.0 0.0 
2.539193689004e-04 -6.549495471195e-04 0.0 
-6.549495471195e-04 4.205449675502e-03 0.0 
0.0 0.0 0.0 
0.0 -5.098611340508e-04 0.0 
-5.098611340508e-04 4.122791542358e-03 0.0 
0.0 0.0 0.0 
-1.732618412959e-03 -3.855081509043e-04 0.0 
-3.855081509043e-04 3.663529006236e-03 0.0 
0.0 0.0 0.0 
-1.112074515216e-03 -1.496936006805e-03 0.0 
-1.496936006805e-03 2.911148072404e-03 0.0 
0.0 0.0 0.0 
1.066210366257e-03 -1.904655719190e-03 0.0 
-1.904655719190e-03 5.980065915634e-04 0.0 
0.0 0.0 0.0 
1.172568448760e-03 -2.518224187244e-04 0.0 
-2.518224187244e-04 2.249702154147e-03 0.0 
0.0 0.0 0.0 
-4.996295221257e-04 -1.476010411937e-03 0.0 
-1.476010411937e-03 1.188440907917e-03 0.0 
0.0 0.0 0.0 
1.155661672603e-03 -7.514533216462e-04 0.0 
-7.514533216462e-04 1.974522460580e-03 0.0 
0.0 0.0 0.0 
1.011473352379e-03 -3.527180982216e-04 0.0 
-3.527180982216e-04 3.271827773648e-04 0.0 
0.0 0.0 0.0 
-1.108909339453e-03 -1.552105447565e-03 0.0 
-1.552105447565e-03 2.679587030264e-03 0.0 
0.0 0.0 0.0 
-6.043990571362e-04 -1.870719164959e-03 0.0 
-1.870719164959e-03 2.173912890068e-03 0.0 
0.0 0.0 0.0 
1.172048757041e-03 -1.794157394224e-04 0.0 
-1.794157394224e-04 -1.020760711877e-04 0.0 
0.0 0.0 0.0 
-1.740662908440e-03 -3.647494655681e-04 0.0 
-3.647494655681e-04 3.616950256060e-03 0.0 
0.0 0.0 0.0 
-6.131086270952e-04 1.503640176694e-03 0.0 
1.503640176694e-03 7.503143672621e-03 0.0 
0.0 0.0 0.0 
2.200979973328e-03 -9.056699762629e-05 0.0 
-9.056699762629e-05 -7.779109810748e-04 0.0 
0.0 0.0 0.0 
-1.529683186213e-03 6.382203957404e-04 0.0 
6.382203957404e-04 5.646238342726e-03 0.0 
0.0 0.0 0.0 
-1.568956397508e-03 7.492703225133e-04 0.0 
7.492703225133e-04 5.541172759260e-03 0.0 
0.0 0.0 0.0 
2.587572900907e-03 -7.787002924221e-05 0.0 
-7.787002924221e-05 -6.329007955497e-04 0.0 
0.0 0.0 0.0 
-1.448429154923e-03 -7.564230177707e-05 0.0 
-7.564230177707e-05 3.033711239864e-03 0.0 
0.0 0.0 0.0 
1.540963293154e-03 -2.669791880687e-03 0.0 
-2.669791880687e-03 -8.020172664330e-04 0.0 
0.0 0.0 0.0 
8.438589897590e-04 3.284894265651e-03 0.0 
3.284894265651e-03 -1.582812649782e-04 0.0 
0.0 0.0 0.0 
1.338964539555e-05 -9.281752819540e-04 0.0 
-9.281752819540e-04 4.112750719794e-03 0.0 
0.0 0.0 0.0 
1.042987427664e-04 2.310030770085e-03 0.0 
2.310030770085e-03 5.150820990784e-03 0.0 
0.0 0.0 0.0 
-8.748007675218e-04 6.668466454406e-04 0.0 
6.668466454406e-04 7.809079421284e-03 0.0 
0.0 0.0 0.0 
1.418477041175e-04 2.785785452993e-03 0.0 
2.785785452993e-03 1.131527858426e-03 0.0 
0.0 0.0 0.0 
-4.834040976462e-04 -1.128135792584e-03 0.0 
-1.128135792584e-03 8.995887902008e-04 0.0 
0.0 0.0 0.0 
-1.128655546018e-03 1.988694150150e-03 0.0 
1.988694150150e-03 4.021739742120e-03 0.0 
0.0 0.0 0.0 
-1.344323766320e-03 2.658584266218e-04 0.0 
2.658584266218e-04 5.835849708319e-03 0.0 
0.0 0.0 0.0 
-1.327169667338e-03 2.449023942153e-04 0.0 
2.449023942153e-04 5.805212362921e-03 0.0 
0.0 0.0 0.0 
1.456352981569e-03 -1.074730016007e-04 0.0 
-1.074730016007e-04 -5.096995674545e-04 0.0 
0.0 0.0 0.0 
1.011768792420e-03 -2.430660511830e-04 0.0 
-2.430660511830e-04 -3.115229370032e-05 0.0 
0.0 0.0 0.0 
7.176169106728e-04 -1.573047342781e-04 0.0 
-1.573047342781e-04 4.595246520576e-04 0.0 
0.0 0.0 0.0 
-6.159718579154e-04 -1.667793075744e-03 0.0 
-1.667793075744e-03 1.574401528526e-03 0.0 
0.0 0.0 0.0 
1.820216675958e-03 -1.547085511800e-04 0.0 
-1.547085511800e-04 -3.467392424448e-04 0.0 
0.0 0.0 0.0 
-1.752491339755e-03 -3.547600362786e-04 0.0 
-3.547600362786e-04 3.851259390496e-03 0.0 
0.0 0.0 0.0 
-1.253803562038e-03 -1.199155478747e-03 0.0 
-1.199155478747e-03 -1.868393879884e-03 0.0 
0.0 0.0 0.0 
-6.533751608456e-04 -1.842084016573e-03 0.0 
-1.842084016573e-03 1.745166622723e-03 0.0 
0.0 0.0 0.0 
-9.545611169038e-04 1.556411691264e-04 0.0 
1.556411691264e-04 7.172768754842e-03 0.0 
0.0 0.0 0.0 
-1.493232957916e-03 4.966768510126e-04 0.0 
4.966768510126e-04 5.691887063950e-03 0.0 
0.0 0.0 0.0 
-1.586368185595e-04 2.284678958708e-03 0.0 
2.284678958708e-03 5.489790952487e-03 0.0 
0.0 0.0 0.0 
9.862660620277e-04 -1.462654028483e-03 0.0 
-1.462654028483e-03 1.494704569501e-03 0.0 
0.0 0.0 0.0 
-1.017534313803e-03 1.135541764822e-04 0.0 
1.135541764822e-04 6.848785917835e-03 0.0 
0.0 0.0 0.0 
-1.577651386695e-03 -1.312216718168e-04 0.0 
-1.312216718168e-04 3.209281621239e-03 0.0 
0.0 0.0 0.0 
1.288942584877e-03 -1.950274325242e-04 0.0 
-1.950274325242e-04 2.274797325135e-04 0.0 
0.0 0.0 0.0 
0.0 8.700305706501e-04 0.0 
8.700305706501e-04 8.746300383101e-03 0.0 
0.0 0.0 0.0 
-2.211190463215e-04 9.677806246289e-04 0.0 
9.677806246289e-04 8.708038257103e-03 0.0 
0.0 0.0 0.0 
-1.255683008609e-03 5.699334727803e-04 0.0 
5.699334727803e-04 6.497988015181e-03 0.0 
0.0 0.0 0.0 
-1.401904805926e-03 3.307305643149e-04 0.0 
3.307305643149e-04 5.803901730925e-03 0.0 
0.0 0.0 0.0 
-1.531444381099e-03 -3.178417192550e-04 0.0 
-3.178417192550e-04 3.175583292976e-03 0.0 
0.0 0.0 0.0 
-2.006363711637e-04 6.969297689606e-04 0.0 
6.969297689606e-04 8.832554789663e-03 0.0 
0.0 0.0 0.0 
-4.377240942447e-04 -1.810024716752e-03 0.0 
-1.810024716752e-03 1.387782653949e-03 0.0 
0.0 0.0 0.0 
-1.537845658605e-03 6.146293237287e-04 0.0 
6.146293237287e-04 5.621428376812e-03 0.0 
0.0 0.0 0.0 
-1.449967818358e-03 4.196960596380e-04 0.0 
4.196960596380e-04 5.768104564081e-03 0.0 
0.0 0.0 0.0 
-1.258228162176e-03 1.555679056679e-03 0.0 
1.555679056679e-03 4.266916235234e-03 0.0 
0.0 0.0 0.0 
0.0 1.687381325807e-03 0.0 
1.687381325807e-03 8.124754419175e-03 0.0 
0.0 0.0 0.0 
-2.193278087250e-04 8.345285656509e-04 0.0 
8.345285656509e-04 8.778234959349e-03 0.0 
0.0 0.0 0.0 
1.677296250766e-03 -2.038299183494e-04 0.0 
-2.038299183494e-04 -2.999511917778e-04 0.0 
0.0 0.0 0.0 
1.677190439038e-03 -9.089363643270e-05 0.0 
-9.089363643270e-05 -6.037124586156e-04 0.0 
0.0 0.0 0.0 
-4.713548468399e-04 -1.098139363003e-03 0.0 
-1.098139363003e-03 9.996702912705e-04 0.0 
0.0 0.0 0.0 
-3.818717138694e-04 -1.940783422156e-03 0.0 
-1.940783422156e-03 2.183105051019e-03 0.0 
0.0 0.0 0.0 
-6.217078011195e-04 -1.419520088508e-04 0.0 
-1.419520088508e-04 5.654950480860e-03 0.0 
0.0 0.0 0.0 
-3.912363140958e-03 -2.013296284373e-03 0.0 
-2.013296284373e-03 -1.818400450870e-03 0.0 
0.0 0.0 0.0 
-7.429343087086e-04 5.019554781715e-05 0.0 
5.019554781715e-05 7.905619939471e-03 0.0 
0.0 0.0 0.0 
-1.467229596860e-03 -1.107407077722e-03 0.0 
-1.107407077722e-03 6.947055425974e-04 0.0 
0.0 0.0 0.0 
2.477318953112e-03 -4.883172155968e-04 0.0 
-4.883172155968e-04 -5.048572238961e-04 0.0 
0.0 0.0 0.0 
-5.825347290509e-04 -6.966104861103e-04 0.0 
-6.966104861103e-04 -7.365734930298e-05 0.0 
0.0 0.0 0.0 
-2.155449240472e-03 -2.274987667620e-03 0.0 
-2.274987667620e-03 -4.738221630880e-04 0.0 
0.0 0.0 0.0 
2.408760025693e-03 -9.384657908618e-04 0.0 
-9.384657908618e-04 -6.499241985829e-04 0.0 
0.0 0.0 0.0 
-5.828371058305e-04 -5.554596903049e-04 0.0 
-5.554596903049e-04 5.265776198730e-03 0.0 
0.0 0.0 0.0 
-1.021474356999e-03 1.128360666232e-04 0.0 
1.128360666232e-04 7.145385895574e-03 0.0 
0.0 0.0 0.0 
-8.875406016104e-04 2.234833842254e-03 0.0 
2.234833842254e-03 3.749177952801e-03 0.0 
0.0 0.0 0.0 
1.289502716280e-03 -1.332746289511e-04 0.0 
-1.332746289511e-04 -1.516610354657e-04 0.0 
0.0 0.0 0.0 
-9.215389851605e-04 -1.165917667812e-03 0.0 
-1.165917667812e-03 3.696413515335e-03 0.0 
0.0 0.0 0.0 
0.0 2.810769175102e-04 0.0 
2.810769175102e-04 8.925583938560e-03 0.0 
0.0 0.0 0.0 
-1.905559511816e-04 3.167274869979e-04 0.0 
3.167274869979e-04 8.929713864568e-03 0.0 
0.0 0.0 0.0 
-1.434410950366e-03 3.976386846083e-04 0.0 
3.976386846083e-04 5.737456346563e-03 0.0 
0.0 0.0 0.0 
2.424451043549e-03 -6.288096030287e-05 0.0 
-6.288096030287e-05 -2.395233653739e-04 0.0 
0.0 0.0 0.0 
0.0 7.393738121366e-04 0.0 
7.393738121366e-04 8.812314453254e-03 0.0 
0.0 0.0 0.0 
1.332813120975e-03 2.109545069769e-03 0.0 
2.109545069769e-03 2.083393540944e-03 0.0 
0.0 0.0 0.0 
1.358349301369e-03 -1.006665800463e-04 0.0 
-1.006665800463e-04 1.756371168891e-04 0.0 
0.0 0.0 0.0 
1.926618296442e-03 -1.058732161104e-04 0.0 
-1.058732161104e-04 -3.950213185332e-04 0.0 
0.0 0.0 0.0 
1.373514570547e-03 -3.278449931407e-05 0.0 
-3.278449931407e-05 -1.619642447921e-04 0.0 
0.0 0.0 0.0 
-1.719040811393e-03 -1.248314488502e-04 0.0 
-1.248314488502e-04 3.506655380022e-03 0.0 
0.0 0.0 0.0 
-2.237979374670e-04 -5.564827395308e-04 0.0 
-5.564827395308e-04 5.811316963480e-03 0.0 
0.0 0.0 0.0 
-3.307430287635e-04 -1.498843151372e-05 0.0 
-1.498843151372e-05 8.665791904018e-03 0.0 
0.0 0.0 0.0 
1.928186983498e-03 -6.829501856255e-05 0.0 
-6.829501856255e-05 -7.205219787081e-04 0.0 
0.0 0.0 0.0 
-1.772004570727e-03 -1.434888080344e-04 0.0 
-1.434888080344e-04 3.850954702636e-03 0.0 
0.0 0.0 0.0 
0.0 -4.237201545338e-04 0.0 
-4.237201545338e-04 5.887924458637e-03 0.0 
0.0 0.0 0.0 
-2.278923255553e-04 -6.681212275467e-04 0.0 
-6.681212275467e-04 5.702185691644e-03 0.0 
0.0 0.0 0.0 
2.342391308363e-04 -8.090063171980e-04 0.0 
-8.090063171980e-04 4.379050415283e-03 0.0 
0.0 0.0 0.0 
-8.545074595123e-04 7.674976707153e-05 0.0 
7.674976707153e-05 7.581421311255e-03 0.0 
0.0 0.0 0.0 
-6.679622213561e-04 -1.831157744065e-05 0.0 
-1.831157744065e-05 8.069678548962e-03 0.0 
0.0 0.0 0.0 
0.0 -5.523198343169e-04 0.0 
-5.523198343169e-04 5.760560264613e-03 0.0 
0.0 0.0 0.0 
0.0 -6.811756832128e-04 0.0 
-6.811756832128e-04 5.641295570112e-03 0.0 
0.0 0.0 0.0 
-7.310558399348e-04 8.376715002275e-05 0.0 
8.376715002275e-05 7.906800367420e-03 0.0 
0.0 0.0 0.0 
2.679443499300e-03 2.783425692932e-06 0.0 
2.783425692932e-06 -1.022861410551e-03 0.0 
0.0 0.0 0.0 
-1.233959136405e-03 1.491094614968e-04 0.0 
1.491094614968e-04 5.823888611679e-03 0.0 
0.0 0.0 0.0 
-1.382234232337e-03 3.195352709130e-04 0.0 
3.195352709130e-04 5.786455177846e-03 0.0 
0.0 0.0 0.0 
1.820847437346e-03 -7.237753929117e-05 0.0 
-7.237753929117e-05 -6.661419100843e-04 0.0 
0.0 0.0 0.0 
0.0 -9.048431688370e-04 0.0 
-9.048431688370e-04 5.131572345840e-03 0.0 
0.0 0.0 0.0 
1.290216445970e-04 -9.168058427349e-04 0.0 
-9.168058427349e-04 4.572470117065e-03 0.0 
0.0 0.0 0.0 
0.0 -8.638254500193e-04 0.0 
-8.638254500193e-04 4.669798587151e-03 0.0 
0.0 0.0 0.0 
2.524375197742e-03 -5.760619793410e-05 0.0 
-5.760619793410e-05 -9.135599986961e-04 0.0 
0.0 0.0 0.0 
2.378543623358e-03 -7.541094677296e-05 0.0 
-7.541094677296e-05 -8.554252674422e-04 0.0 
0.0 0.0 0.0 
0.0 -6.596472044617e-04 0.0 
-6.596472044617e-04 4.284665077673e-03 0.0 
0.0 0.0 0.0 
0.0 -7.894795128718e-04 0.0 
-7.894795128718e-04 4.465890235906e-03 0.0 
0.0 0.0 0.0 
-9.112925750302e-04 -2.257244825209e-05 0.0 
-2.257244825209e-05 7.408145610551e-03 0.0 
0.0 0.0 0.0 
-1.140547881386e-03 6.444900370447e-05 0.0 
6.444900370447e-05 5.830949115783e-03 0.0 
0.0 0.0 0.0 
-7.978561335379e-04 -2.009644542560e-05 0.0 
-2.009644542560e-05 7.746865003283e-03 0.0 
0.0 0.0 0.0 
-1.055008588748e-03 -2.477294839349e-05 0.0 
-2.477294839349e-05 6.677555611145e-03 0.0 
0.0 0.0 0.0 
-1.100131050601e-03 2.533551903693e-05 0.0 
2.533551903693e-05 5.828435088363e-03 0.0 
0.0 0.0 0.0 
1.697466620891e-03 -1.714991524053e-04 0.0 
-1.714991524053e-04 -5.767767314887e-04 0.0 
0.0 0.0 0.0 
9.769700564115e-04 -1.367239755290e-04 0.0 
-1.367239755290e-04 -2.203881436390e-04 0.0 
0.0 0.0 0.0 
7.221576347336e-04 -1.290765516385e-04 0.0 
-1.290765516385e-04 -1.127824639114e-04 0.0 
0.0 0.0 0.0 
4.125293744768e-04 -9.192701537787e-05 0.0 
-9.192701537787e-05 4.960437819790e-05 0.0 
0.0 0.0 0.0 
-1.769921140673e-03 -9.906614767704e-05 0.0 
-9.906614767704e-05 3.992746049753e-03 0.0 
0.0 0.0 0.0 
-1.773988637018e-03 -1.153537406742e-04 0.0 
-1.153537406742e-04 3.758865792177e-03 0.0 
0.0 0.0 0.0 
1.888947313953e-04 -1.412686213927e-04 0.0 
-1.412686213927e-04 4.755133639200e-05 0.0 
0.0 0.0 0.0 
-1.504330856794e-03 -6.169890497722e-05 0.0 
-6.169890497722e-05 4.628441634893e-03 0.0 
0.0 0.0 0.0 
-7.861157659894e-05 -1.356027297672e-04 0.0 
-1.356027297672e-04 1.682543908419e-04 0.0 
0.0 0.0 0.0 
0.0 1.409021706889e-03 0.0 
1.409021706889e-03 8.392325422768e-03 0.0 
0.0 0.0 0.0 
0.0 6.222243990967e-04 0.0 
6.222243990967e-04 8.852162040646e-03 0.0 
0.0 0.0 0.0 
0.0 1.005572513567e-03 0.0 
1.005572513567e-03 8.667022848490e-03 0.0 
0.0 0.0 0.0 
1.648442183371e-04 -1.229745249957e-04 0.0 
-1.229745249957e-04 1.220595196806e-03 0.0 
0.0 0.0 0.0 
-1.328232720328e-03 -1.309627568146e-04 0.0 
-1.309627568146e-04 2.844025785008e-03 0.0 
0.0 0.0 0.0 
0.0 4.954094158153e-04 0.0 
4.954094158153e-04 8.873644003322e-03 0.0 
0.0 0.0 0.0 
-9.769889487065e-04 -1.988251106067e-05 0.0 
-1.988251106067e-05 5.325353149337e-03 0.0 
0.0 0.0 0.0 
0.0 3.914759475022e-04 0.0 
3.914759475022e-04 8.936839606922e-03 0.0 
0.0 0.0 0.0 
-7.509638662545e-04 -8.188440995338e-06 0.0 
-8.188440995338e-06 5.557049677984e-03 0.0 
0.0 0.0 0.0 
-4.871777273268e-04 -4.905159087892e-06 0.0 
-4.905159087892e-06 5.769181981427e-03 0.0 
0.0 0.0 0.0 
-1.746413899658e-03 -1.329273148680e-04 0.0 
-1.329273148680e-04 3.616863964188e-03 0.0 
0.0 0.0 0.0 
-2.234723694986e-04 5.654226883586e-04 0.0 
5.654226883586e-04 8.863387165446e-03 0.0 
0.0 0.0 0.0 
-1.830898316756e-04 4.838854228777e-04 0.0 
4.838854228777e-04 8.897573642075e-03 0.0 
0.0 0.0 0.0 
-8.537268485820e-04 -1.439410735822e-04 0.0 
-1.439410735822e-04 5.410629715563e-03 0.0 
0.0 0.0 0.0 
-6.161875763361e-04 -1.484147698520e-04 0.0 
-1.484147698520e-04 5.655311875366e-03 0.0 
0.0 0.0 0.0 
-1.126872212678e-03 -7.292955624070e-04 0.0 
-7.292955624070e-04 4.437460575412e-03 0.0 
0.0 0.0 0.0 
-9.904975671996e-04 -3.180641939056e-04 0.0 
-3.180641939056e-04 5.001176415202e-04 0.0 
0.0 0.0 0.0 
-1.286842500777e-03 -1.332153923306e-03 0.0 
-1.332153923306e-03 2.861865214233e-03 0.0 
0.0 0.0 0.0 
1.464921502925e-03 -2.762039659232e-04 0.0 
-2.762039659232e-04 -1.976728436419e-04 0.0 
0.0 0.0 0.0 
-1.048407273576e-04 -9.873346108206e-04 0.0 
-9.873346108206e-04 4.119039082368e-03 0.0 
0.0 0.0 0.0 
-9.712358835627e-04 -1.701355160156e-03 0.0 
-1.701355160156e-03 2.701397299524e-03 0.0 
0.0 0.0 0.0 
-6.652790748519e-04 -7.561494499939e-04 0.0 
-7.561494499939e-04 4.683447825733e-03 0.0 
0.0 0.0 0.0 
-3.522503939782e-04 -1.576923204345e-03 0.0 
-1.576923204345e-03 1.279431598270e-03 0.0 
0.0 0.0 0.0 
2.383695764312e-04 -5.398035862902e-04 0.0 
-5.398035862902e-04 5.995107603904e-04 0.0 
0.0 0.0 0.0 
-6.390755779049e-04 -6.901639646693e-04 0.0 
-6.901639646693e-04 4.983720527339e-03 0.0 
0.0 0.0 0.0 
-1.312757691040e-03 -1.305098122721e-03 0.0 
-1.305098122721e-03 3.091052911537e-03 0.0 
0.0 0.0 0.0 
-1.648594058673e-03 -3.599257960853e-04 0.0 
-3.599257960853e-04 3.343124827497e-03 0.0 
0.0 0.0 0.0 
-7.886289100036e-04 -7.505820768615e-04 0.0 
-7.505820768615e-04 4.683341132889e-03 0.0 
0.0 0.0 0.0 
-4.967404545833e-04 2.480674661744e-04 0.0 
2.480674661744e-04 8.328578313616e-03 0.0 
0.0 0.0 0.0 
-1.647848294406e-03 -1.090370005967e-04 0.0 
-1.090370005967e-04 3.347871772541e-03 0.0 
0.0 0.0 0.0 
1.142199993468e-03 -1.123849528625e-03 0.0 
-1.123849528625e-03 1.373199865872e-03 0.0 
0.0 0.0 0.0 
2.119223452857e-05 -1.610295676517e-03 0.0 
-1.610295676517e-03 2.519596818314e-03 0.0 
0.0 0.0 0.0 
-9.891651679661e-04 -7.860122398458e-04 0.0 
-7.860122398458e-04 4.445386027480e-03 0.0 
0.0 0.0 0.0 
-1.058460115271e-03 -5.824177716409e-04 0.0 
-5.824177716409e-04 4.729023856989e-03 0.0 
0.0 0.0 0.0 
4.044612374352e-03 1.609758640306e-03 0.0 
1.609758640306e-03 -3.276481892807e-03 0.0 
0.0 0.0 0.0 
-9.873877975574e-04 2.107238758407e-03 0.0 
2.107238758407e-03 3.605768842683e-03 0.0 
0.0 0.0 0.0 
1.563212917444e-03 2.745056234771e-03 0.0 
2.745056234771e-03 2.859406166156e-04 0.0 
0.0 0.0 0.0 
-7.287005770270e-04 -1.212335883320e-03 0.0 
-1.212335883320e-03 3.702421942078e-03 0.0 
0.0 0.0 0.0 
-8.206890015492e-04 -5.896187619357e-04 0.0 
-5.896187619357e-04 4.990598922149e-03 0.0 
0.0 0.0 0.0 
-1.082167733900e-03 -3.910297279370e-04 0.0 
-3.910297279370e-04 4.962405849013e-03 0.0 
0.0 0.0 0.0 
-1.571277444011e-04 -2.263961889289e-03 0.0 
-2.263961889289e-03 8.582792299276e-04 0.0 
0.0 0.0 0.0 
-5.294701505477e-04 4.220819613230e-04 0.0 
4.220819613230e-04 8.279816982735e-03 0.0 
0.0 0.0 0.0 
-6.916673331363e-04 3.748208293350e-04 0.0 
3.748208293350e-04 7.979974678697e-03 0.0 
0.0 0.0 0.0 
-1.128419068913e-03 1.913097006976e-04 0.0 
1.913097006976e-04 6.375204129863e-03 0.0 
0.0 0.0 0.0 
-4.624380378242e-04 -1.246016983395e-03 0.0 
-1.246016983395e-03 3.561823784454e-03 0.0 
0.0 0.0 0.0 
-8.791392660042e-04 -9.969903928923e-04 0.0 
-9.969903928923e-04 4.099491508328e-03 0.0 
0.0 0.0 0.0 
-5.575005073827e-04 2.210957630318e-04 0.0 
2.210957630318e-04 8.337387438878e-03 0.0 
0.0 0.0 0.0 
-6.144598955627e-04 3.210820675310e-04 0.0 
3.210820675310e-04 8.163055162863e-03 0.0 
0.0 0.0 0.0 
3.243529897801e-05 -1.803569791039e-03 0.0 
-1.803569791039e-03 1.929485660705e-03 0.0 
0.0 0.0 0.0 
-6.362790343373e-04 -5.535295583836e-04 0.0 
-5.535295583836e-04 5.265710662276e-03 0.0 
0.0 0.0 0.0 
-7.766634842811e-04 6.852108453934e-04 0.0 
6.852108453934e-04 7.806575928997e-03 0.0 
0.0 0.0 0.0 
-1.125408366069e-03 -3.277632086349e-04 0.0 
-3.277632086349e-04 4.962465389341e-03 0.0 
0.0 0.0 0.0 
-1.993577028087e-04 -9.239539896867e-04 0.0 
-9.239539896867e-04 4.563893456184e-03 0.0 
0.0 0.0 0.0 
-5.924854536731e-04 3.951863575978e-04 0.0 
3.951863575978e-04 8.284703225708e-03 0.0 
0.0 0.0 0.0 
-9.809473746918e-04 3.337978374342e-04 0.0 
3.337978374342e-04 7.471294740549e-03 0.0 
0.0 0.0 0.0 
9.261839202253e-04 -1.378980938108e-03 0.0 
-1.378980938108e-03 1.406713801568e-03 0.0 
0.0 0.0 0.0 
-8.157327556392e-04 -7.772399940001e-04 0.0 
-7.772399940001e-04 2.046260852159e-03 0.0 
0.0 0.0 0.0 
-4.573972601629e-05 -2.415779475443e-03 0.0 
-2.415779475443e-03 5.876256143940e-04 0.0 
0.0 0.0 0.0 
-1.534109873552e-04 -9.054956900963e-04 0.0 
-9.054956900963e-04 8.677395981107e-04 0.0 
0.0 0.0 0.0 
-9.978907134961e-04 -1.788018189103e-03 0.0 
-1.788018189103e-03 3.779029124866e-04 0.0 
0.0 0.0 0.0 
-6.530718108284e-04 2.893890820058e-04 0.0 
2.893890820058e-04 8.166229394829e-03 0.0 
0.0 0.0 0.0 
-7.399885123426e-04 -4.416584103584e-04 0.0 
-4.416584103584e-04 5.250357366079e-03 0.0 
0.0 0.0 0.0 
-6.188921078439e-04 -1.054366795128e-03 0.0 
-1.054366795128e-03 5.107210785511e-04 0.0 
0.0 0.0 0.0 
-6.336747112101e-04 1.920441491469e-03 0.0 
1.920441491469e-03 6.734979692934e-03 0.0 
0.0 0.0 0.0 
-1.124272879408e-03 2.488187455966e-04 0.0 
2.488187455966e-04 6.547682125235e-03 0.0 
0.0 0.0 0.0 
-7.206828909027e-04 -9.218077989892e-04 0.0 
-9.218077989892e-04 4.317284293915e-03 0.0 
0.0 0.0 0.0 
-9.011851291847e-04 -5.053718963294e-04 0.0 
-5.053718963294e-04 4.987082827366e-03 0.0 
0.0 0.0 0.0 
1.058073516117e-03 -2.548520162553e-03 0.0 
-2.548520162553e-03 -1.930582008741e-04 0.0 
0.0 0.0 0.0 
-9.987208925756e-04 -4.790945793240e-04 0.0 
-4.790945793240e-04 4.983808449724e-03 0.0 
0.0 0.0 0.0 
-1.185630701051e-03 1.436402340978e-04 0.0 
1.436402340978e-04 6.374152795639e-03 0.0 
0.0 0.0 0.0 
2.394108839479e-03 1.036394133829e-03 0.0 
1.036394133829e-03 1.618339051779e-04 0.0 
0.0 0.0 0.0 
-2.139420452258e-04 -8.003078948300e-04 0.0 
-8.003078948300e-04 4.950120633672e-03 0.0 
0.0 0.0 0.0 
-7.505484748239e-04 -4.412134448487e-04 0.0 
-4.412134448487e-04 2.067182870069e-03 0.0 
0.0 0.0 0.0 
5.674852918824e-05 -9.760627157547e-04 0.0 
-9.760627157547e-04 4.107484316375e-03 0.0 
0.0 0.0 0.0 
-8.930373220265e-04 2.961332387724e-04 0.0 
2.961332387724e-04 7.667330748953e-03 0.0 
0.0 0.0 0.0 
-9.876168543634e-04 -6.562233390444e-04 0.0 
-6.562233390444e-04 2.316959461635e-03 0.0 
0.0 0.0 0.0 
1.367981697762e-04 -2.493590942726e-03 0.0 
-2.493590942726e-03 4.193898580611e-04 0.0 
0.0 0.0 0.0 
-1.571732068167e-03 -6.802914782831e-04 0.0 
-6.802914782831e-04 4.038319189301e-03 0.0 
0.0 0.0 0.0 
-1.057727333227e-03 4.118604696080e-04 0.0 
4.118604696080e-04 7.059092318789e-03 0.0 
0.0 0.0 0.0 
-9.383262914395e-04 -1.743552953492e-03 0.0 
-1.743552953492e-03 2.298935282600e-03 0.0 
0.0 0.0 0.0 
-8.033028109052e-04 2.518702338874e-04 0.0 
2.518702338874e-04 7.859272181229e-03 0.0 
0.0 0.0 0.0 
-1.001327450763e-03 2.423252028429e-04 0.0 
2.423252028429e-04 7.326160900772e-03 0.0 
0.0 0.0 0.0 
-1.149759272785e-03 -1.377447440898e-03 0.0 
-1.377447440898e-03 3.346454245333e-03 0.0 
0.0 0.0 0.0 
-1.154351265390e-03 -5.225297158448e-04 0.0 
-5.225297158448e-04 4.724880094474e-03 0.0 
0.0 0.0 0.0 
-9.797157767603e-04 -6.589981372657e-04 0.0 
-6.589981372657e-04 4.705790622847e-03 0.0 
0.0 0.0 0.0 
-8.279074089315e-04 3.260945967126e-04 0.0 
3.260945967126e-04 7.662743076557e-03 0.0 
0.0 0.0 0.0 
-3.135444134535e-04 -7.130571664155e-04 0.0 
-7.130571664155e-04 1.477702870535e-03 0.0 
0.0 0.0 0.0 
-1.364616246147e-03 -1.209855691137e-03 0.0 
-1.209855691137e-03 3.478213267026e-03 0.0 
0.0 0.0 0.0 
1.328951317939e-03 1.600295212328e-03 0.0 
1.600295212328e-03 2.085338166393e-03 0.0 
0.0 0.0 0.0 
-8.563843789912e-04 3.935130373052e-04 0.0 
3.935130373052e-04 7.794623693043e-03 0.0 
0.0 0.0 0.0 
-1.387568533473e-03 -1.265742357315e-03 0.0 
-1.265742357315e-03 3.251879360011e-03 0.0 
0.0 0.0 0.0 
-2.516272985662e-04 -1.626883289729e-03 0.0 
-1.626883289729e-03 2.524011560468e-03 0.0 
0.0 0.0 0.0 
2.154798977334e-04 -9.848684182189e-04 0.0 
-9.848684182189e-04 3.635611188987e-03 0.0 
0.0 0.0 0.0 
-9.078774024065e-04 3.606651488213e-04 0.0 
3.606651488213e-04 7.467913327545e-03 0.0 
0.0 0.0 0.0 
1.862146007941e-03 -7.924182852396e-04 0.0 
-7.924182852396e-04 -4.682167802986e-03 0.0 
0.0 0.0 0.0 
1.811644186833e-04 -6.010642908680e-04 0.0 
-6.010642908680e-04 7.185165165100e-04 0.0 
0.0 0.0 0.0 
3.467108013476e-03 2.882575098102e-04 0.0 
2.882575098102e-04 -4.139274550704e-03 0.0 
0.0 0.0 0.0 
-7.281209561550e-04 -6.015402995032e-04 0.0 
-6.015402995032e-04 4.991871410410e-03 0.0 
0.0 0.0 0.0 
-9.853158672966e-04 3.894783106108e-04 0.0 
3.894783106108e-04 7.266773192785e-03 0.0 
0.0 0.0 0.0 
-1.574998002950e-03 -4.773907150437e-04 0.0 
-4.773907150437e-04 4.235138584548e-03 0.0 
0.0 0.0 0.0 
-1.130041774309e-03 3.313744171336e-04 0.0 
3.313744171336e-04 6.709048990698e-03 0.0 
0.0 0.0 0.0 
1.050582329264e-03 -6.741371629201e-04 0.0 
-6.741371629201e-04 2.104905199922e-03 0.0 
0.0 0.0 0.0 
-1.303364924549e-03 -1.122791377096e-03 0.0 
-1.122791377096e-03 3.708264348428e-03 0.0 
0.0 0.0 0.0 
-8.553378536982e-04 -6.873308031317e-04 0.0 
-6.873308031317e-04 4.709400645550e-03 0.0 
0.0 0.0 0.0 
-6.398797762034e-04 -5.098111144525e-04 0.0 
-5.098111144525e-04 2.001824187378e-03 0.0 
0.0 0.0 0.0 
-1.405877413804e-04 -8.801623847783e-04 0.0 
-8.801623847783e-04 4.565687227705e-03 0.0 
0.0 0.0 0.0 
-1.295032175099e-03 -1.246041733193e-03 0.0 
-1.246041733193e-03 3.326655761624e-03 0.0 
0.0 0.0 0.0 
-8.327042311345e-04 -3.839632476877e-04 0.0 
-3.839632476877e-04 2.273690368959e-03 0.0 
0.0 0.0 0.0 
-1.468225693485e-03 -1.046305104546e-03 0.0 
-1.046305104546e-03 3.452179794662e-03 0.0 
0.0 0.0 0.0 
-1.167266130282e-03 -1.526804302476e-03 0.0 
-1.526804302476e-03 2.670376287836e-03 0.0 
0.0 0.0 0.0 
-6.434233213893e-04 -1.629525474697e-03 0.0 
-1.629525474697e-03 1.711904483142e-03 0.0 
0.0 0.0 0.0 
-1.475914755663e-03 -6.093567709709e-04 0.0 
-6.093567709709e-04 4.259736089068e-03 0.0 
0.0 0.0 0.0 
9.897286711964e-04 -1.059358448410e-04 0.0 
-1.059358448410e-04 -2.943504241127e-04 0.0 
0.0 0.0 0.0 
6.132080966992e-04 -1.681837136363e-04 0.0 
-1.681837136363e-04 -1.354607335980e-04 0.0 
0.0 0.0 0.0 
-1.042625206072e-03 -9.458769791664e-04 0.0 
-9.458769791664e-04 4.092605454047e-03 0.0 
0.0 0.0 0.0 
-4.341180096811e-04 -6.016563307655e-04 0.0 
-6.016563307655e-04 1.736053127082e-03 0.0 
0.0 0.0 0.0 
-6.769424518476e-04 -1.232517287514e-03 0.0 
-1.232517287514e-03 3.561015456481e-03 0.0 
0.0 0.0 0.0 
-4.880320270179e-04 -1.433218746748e-03 0.0 
-1.433218746748e-03 3.069458867383e-03 0.0 
0.0 0.0 0.0 
-3.899778566098e-04 -2.135746198810e-03 0.0 
-2.135746198810e-03 1.775612103581e-03 0.0 
0.0 0.0 0.0 
1.358745111965e-03 -2.860808159406e-03 0.0 
-2.860808159406e-03 -7.172513651114e-04 0.0 
0.0 0.0 0.0 
-7.615998118252e-04 6.199334691731e-04 0.0 
6.199334691731e-04 8.007489489207e-03 0.0 
0.0 0.0 0.0 
1.667341620812e-03 3.101630364149e-03 0.0 
3.101630364149e-03 -3.168714452889e-03 0.0 
0.0 0.0 0.0 
-1.361047804463e-03 -1.292284778989e-03 0.0 
-1.292284778989e-03 2.998129843929e-03 0.0 
0.0 0.0 0.0 
1.047209375640e-03 -3.980838515775e-04 0.0 
-3.980838515775e-04 2.236553749704e-03 0.0 
0.0 0.0 0.0 
-4.115992280435e-04 -5.942625235677e-04 0.0 
-5.942625235677e-04 1.582279508545e-03 0.0 
0.0 0.0 0.0 
-1.149902981161e-03 2.971307623614e-04 0.0 
2.971307623614e-04 6.923399454100e-03 0.0 
0.0 0.0 0.0 
-1.211034775447e-03 2.182033589830e-04 0.0 
2.182033589830e-04 6.552164080464e-03 0.0 
0.0 0.0 0.0 
-2.623117588494e-04 -1.266637510996e-03 0.0 
-1.266637510996e-03 1.151431222374e-03 0.0 
0.0 0.0 0.0 
4.242377146795e-04 -9.752481598541e-04 0.0 
-9.752481598541e-04 3.107617856007e-03 0.0 
0.0 0.0 0.0 
-1.017860045685e-03 5.855687806659e-04 0.0 
5.855687806659e-04 7.505250695009e-03 0.0 
0.0 0.0 0.0 
-6.695256540781e-04 -8.823253354788e-04 0.0 
-8.823253354788e-04 1.794849306475e-03 0.0 
0.0 0.0 0.0 
-7.063606791260e-04 7.463730231220e-04 0.0 
7.463730231220e-04 8.092595327126e-03 0.0 
0.0 0.0 0.0 
-6.038313519200e-04 7.661920649193e-04 0.0 
7.661920649193e-04 8.088877919165e-03 0.0 
0.0 0.0 0.0 
-6.224388309851e-04 -9.415679047907e-04 0.0 
-9.415679047907e-04 1.836715498997e-03 0.0 
0.0 0.0 0.0 
-6.753728333675e-05 2.689204264028e-03 0.0 
2.689204264028e-03 1.538622854232e-03 0.0 
0.0 0.0 0.0 
-5.072261329533e-04 -1.441485782319e-03 0.0 
-1.441485782319e-03 1.538427160734e-03 0.0 
0.0 0.0 0.0 
-9.180749585299e-04 -8.450757090601e-04 0.0 
-8.450757090601e-04 4.382323321464e-03 0.0 
0.0 0.0 0.0 
-1.410545778531e-03 -8.630846052358e-04 0.0 
-8.630846052358e-04 4.009069804595e-03 0.0 
0.0 0.0 0.0 
-5.964177964777e-04 1.714022491395e-03 0.0 
1.714022491395e-03 7.155776391029e-03 0.0 
0.0 0.0 0.0 
-6.727471461438e-04 6.383145645938e-04 0.0 
6.383145645938e-04 8.005025556205e-03 0.0 
0.0 0.0 0.0 
-8.199284471362e-04 -1.034621706807e-03 0.0 
-1.034621706807e-03 3.998650504997e-03 0.0 
0.0 0.0 0.0 
-6.442149304270e-04 -1.058057579420e-03 0.0 
-1.058057579420e-03 4.001208811699e-03 0.0 
0.0 0.0 0.0 
-5.441147300235e-04 -1.397830374912e-03 0.0 
-1.397830374912e-03 1.361925205956e-03 0.0 
0.0 0.0 0.0 
-7.820288495647e-04 -8.744263041414e-04 0.0 
-8.744263041414e-04 4.386018995448e-03 0.0 
0.0 0.0 0.0 
-9.206593519190e-04 6.010360629785e-04 0.0 
6.010360629785e-04 7.503113257022e-03 0.0 
0.0 0.0 0.0 
-1.513508583162e-03 -7.287511462682e-04 0.0 
-7.287511462682e-04 3.988877708317e-03 0.0 
0.0 0.0 0.0 
-1.065091754301e-03 3.662295838261e-04 0.0 
3.662295838261e-04 7.269748513240e-03 0.0 
0.0 0.0 0.0 
-9.177875742126e-04 5.463147597933e-04 0.0 
5.463147597933e-04 7.709979963912e-03 0.0 
0.0 0.0 0.0 
3.603130848240e-03 1.743973155771e-03 0.0 
1.743973155771e-03 -2.486038340511e-03 0.0 
0.0 0.0 0.0 
-7.308810480779e-04 5.256036203034e-04 0.0 
5.256036203034e-04 7.906253054368e-03 0.0 
0.0 0.0 0.0 
-1.533425969397e-03 -1.018259741134e-03 0.0 
-1.018259741134e-03 3.565701439570e-03 0.0 
0.0 0.0 0.0 
-1.428830607478e-03 -9.856113849347e-04 0.0 
-9.856113849347e-04 3.687471262901e-03 0.0 
0.0 0.0 0.0 
-1.294090747364e-03 -1.276583400041e-03 0.0 
-1.276583400041e-03 2.772765838859e-03 0.0 
0.0 0.0 0.0 
6.947381727795e-05 -2.401437988048e-03 0.0 
-2.401437988048e-03 7.888102864795e-04 0.0 
0.0 0.0 0.0 
-9.563225819389e-04 4.891934836304e-04 0.0 
4.891934836304e-04 7.392161354917e-03 0.0 
0.0 0.0 0.0 
8.154809930201e-04 -2.172469883867e-03 0.0 
-2.172469883867e-03 2.840413306695e-04 0.0 
0.0 0.0 0.0 
-6.880874200094e-04 -1.285496699184e-03 0.0 
-1.285496699184e-03 1.830697787713e-03 0.0 
0.0 0.0 0.0 
-1.249227981732e-04 -8.888679100695e-04 0.0 
-8.888679100695e-04 9.720694733271e-04 0.0 
0.0 0.0 0.0 
-1.045285648929e-03 4.706083047798e-04 0.0 
4.706083047798e-04 7.394633338930e-03 0.0 
0.0 0.0 0.0 
-7.783192396432e-04 -1.525950444806e-03 0.0 
-1.525950444806e-03 1.868490964201e-03 0.0 
0.0 0.0 0.0 
1.382907194780e-04 -8.894602880418e-04 0.0 
-8.894602880418e-04 4.098602309493e-03 0.0 
0.0 0.0 0.0 
-8.709221468223e-04 4.580609482355e-04 0.0 
4.580609482355e-04 7.594893657195e-03 0.0 
0.0 0.0 0.0 
-5.507655029930e-04 -9.227291984622e-04 0.0 
-9.227291984622e-04 4.316445772600e-03 0.0 
0.0 0.0 0.0 
4.644936554525e-04 2.878902014277e-04 0.0 
2.878902014277e-04 3.109135949220e-03 0.0 
0.0 0.0 0.0 
-1.457528917011e-03 -1.081843292816e-03 0.0 
-1.081843292816e-03 3.214100314497e-03 0.0 
0.0 0.0 0.0 
-7.852233145866e-04 -1.194971096290e-03 0.0 
-1.194971096290e-03 1.876795525907e-03 0.0 
0.0 0.0 0.0 
-4.468149555816e-04 -1.068567703129e-03 0.0 
-1.068567703129e-03 1.130440282886e-03 0.0 
0.0 0.0 0.0 
-4.121546378377e-04 -1.263685297416e-03 0.0 
-1.263685297416e-03 3.416649627733e-03 0.0 
0.0 0.0 0.0 
-1.010337989684e-03 3.048160027328e-04 0.0 
3.048160027328e-04 7.128573602851e-03 0.0 
0.0 0.0 0.0 
-1.703029392028e-04 -7.931976111185e-04 0.0 
-7.931976111185e-04 7.706639202218e-04 0.0 
0.0 0.0 0.0 
-9.951343083608e-04 -1.538776623898e-03 0.0 
-1.538776623898e-03 2.267820261694e-03 0.0 
0.0 0.0 0.0 
-3.584078394824e-04 -2.561465419285e-04 0.0 
-2.561465419285e-04 1.774414567345e-03 0.0 
0.0 0.0 0.0 
-1.144735341600e-03 3.938778905944e-04 0.0 
3.938778905944e-04 7.061465321784e-03 0.0 
0.0 0.0 0.0 
-1.218866736985e-03 -1.318794343110e-03 0.0 
-1.318794343110e-03 2.638848944682e-03 0.0 
0.0 0.0 0.0 
-2.414728676348e-04 -1.434016750002e-03 0.0 
-1.434016750002e-03 3.068038537368e-03 0.0 
0.0 0.0 0.0 
-1.298791128142e-03 -1.025042535280e-03 0.0 
-1.025042535280e-03 2.746533984572e-03 0.0 
0.0 0.0 0.0 
-7.563411254274e-04 3.459074509232e-04 0.0 
3.459074509232e-04 7.984020768223e-03 0.0 
0.0 0.0 0.0 
-8.764580578196e-04 -1.667654636300e-03 0.0 
-1.667654636300e-03 2.096594610511e-03 0.0 
0.0 0.0 0.0 
5.355010544816e-05 -1.372845624359e-03 0.0 
-1.372845624359e-03 2.752214925800e-03 0.0 
0.0 0.0 0.0 
-4.680805230528e-05 -2.297127844388e-03 0.0 
-2.297127844388e-03 5.690467794432e-04 0.0 
0.0 0.0 0.0 
-2.024607244360e-04 -1.432933251367e-03 0.0 
-1.432933251367e-03 2.893558103372e-03 0.0 
0.0 0.0 0.0 
-1.585366271154e-03 -7.808627299201e-04 0.0 
-7.808627299201e-04 3.765187239979e-03 0.0 
0.0 0.0 0.0 
-3.903869983902e-04 -1.086238253753e-03 0.0 
-1.086238253753e-03 3.889774773768e-03 0.0 
0.0 0.0 0.0 
4.103450161005e-03 -4.602391543108e-04 0.0 
-4.602391543108e-04 -3.484542100828e-03 0.0 
0.0 0.0 0.0 
-5.831473907844e-04 -5.338259678606e-04 0.0 
-5.338259678606e-04 1.848079692353e-03 0.0 
0.0 0.0 0.0 
-1.149981138913e-03 2.142541065369e-04 0.0 
2.142541065369e-04 6.771951323139e-03 0.0 
0.0 0.0 0.0 
2.235316134931e-03 -8.046948202420e-04 0.0 
-8.046948202420e-04 -4.564920777245e-04 0.0 
0.0 0.0 0.0 
4.044604631630e-04 2.793625174089e-03 0.0 
2.793625174089e-03 1.347295997558e-03 0.0 
0.0 0.0 0.0 
-1.078239535348e-03 2.737223668839e-04 0.0 
2.737223668839e-04 7.129608493315e-03 0.0 
0.0 0.0 0.0 
3.274035763963e-04 -2.666018418955e-03 0.0 
-2.666018418955e-03 1.980288961922e-06 0.0 
0.0 0.0 0.0 
-1.092992971299e-03 6.587399183859e-04 0.0 
6.587399183859e-04 7.070942351161e-03 0.0 
0.0 0.0 0.0 
-1.752226438980e-04 -3.574313099030e-04 0.0 
-3.574313099030e-04 1.484453405350e-03 0.0 
0.0 0.0 0.0 
5.728604895694e-05 -1.054730363066e-03 0.0 
-1.054730363066e-03 3.660318040712e-03 0.0 
0.0 0.0 0.0 
2.280258165309e-03 -3.567971760539e-04 0.0 
-3.567971760539e-04 -1.946428893053e-04 0.0 
0.0 0.0 0.0 
2.080874698978e-03 1.299668822080e-03 0.0 
1.299668822080e-03 7.929855920703e-04 0.0 
0.0 0.0 0.0 
-5.796988246461e-04 6.930180084717e-04 0.0 
6.930180084717e-04 8.294036683920e-03 0.0 
0.0 0.0 0.0 
7.571902830577e-04 -2.026882152546e-03 0.0 
-2.026882152546e-03 6.181475380738e-04 0.0 
0.0 0.0 0.0 
-5.483447321246e-04 -9.634430070581e-04 0.0 
-9.634430070581e-04 1.535099692082e-03 0.0 
0.0 0.0 0.0 
3.530194180732e-04 -1.736167973726e-03 0.0 
-1.736167973726e-03 1.697096261296e-03 0.0 
0.0 0.0 0.0 
3.115579907826e-04 -8.895355885874e-04 0.0 
-8.895355885874e-04 3.620271051787e-03 0.0 
0.0 0.0 0.0 
1.085085582994e-03 -2.733944562309e-03 0.0 
-2.733944562309e-03 -7.902290554411e-04 0.0 
0.0 0.0 0.0 
-5.853946726666e-04 -1.093073082291e-03 0.0 
-1.093073082291e-03 3.891949170669e-03 0.0 
0.0 0.0 0.0 
-9.528994079274e-04 4.341444324244e-04 0.0 
4.341444324244e-04 7.597969332764e-03 0.0 
0.0 0.0 0.0 
1.861791829809e-03 -2.915246973426e-03 0.0 
-2.915246973426e-03 -1.341763961282e-03 0.0 
0.0 0.0 0.0 
5.075499183183e-05 -1.593386177868e-03 0.0 
-1.593386177868e-03 2.320097375134e-03 0.0 
0.0 0.0 0.0 
-1.286000549170e-03 4.357804939610e-04 0.0 
4.357804939610e-04 6.625692291847e-03 0.0 
0.0 0.0 0.0 
-1.014218675121e-03 -6.524688652573e-04 0.0 
-6.524688652573e-04 2.417176865173e-03 0.0 
0.0 0.0 0.0 
-7.497755467532e-04 -1.748585403272e-03 0.0 
-1.748585403272e-03 1.881906896090e-03 0.0 
0.0 0.0 0.0 
7.966281900547e-04 2.807398070856e-03 0.0 
2.807398070856e-03 1.545226821312e-03 0.0 
0.0 0.0 0.0 
-1.912321201897e-04 -1.247332197290e-03 0.0 
-1.247332197290e-03 3.412825453889e-03 0.0 
0.0 0.0 0.0 
-2.775377455251e-04 2.604139875753e-03 0.0 
2.604139875753e-03 2.327034246074e-03 0.0 
0.0 0.0 0.0 
1.143985650461e-03 2.779514994802e-03 0.0 
2.779514994802e-03 9.028485318825e-04 0.0 
0.0 0.0 0.0 
-1.009326725078e-03 6.308759115722e-04 0.0 
6.308759115722e-04 7.290797571164e-03 0.0 
0.0 0.0 0.0 
-1.071007015438e-03 3.226499986777e-04 0.0 
3.226499986777e-04 6.920172680650e-03 0.0 
0.0 0.0 0.0 
-1.184992089093e-03 5.538369048073e-04 0.0 
5.538369048073e-04 6.748346638966e-03 0.0 
0.0 0.0 0.0 
-1.488352813487e-03 -9.505549950356e-04 0.0 
-9.505549950356e-04 3.801120121494e-03 0.0 
0.0 0.0 0.0 
6.807435399363e-04 -9.595197522090e-04 0.0 
-9.595197522090e-04 2.565745797528e-03 0.0 
0.0 0.0 0.0 
7.054757828073e-04 -1.842713835681e-03 0.0 
-1.842713835681e-03 1.032544226964e-03 0.0 
0.0 0.0 0.0 
-1.220918012779e-03 3.162462779040e-04 0.0 
3.162462779040e-04 6.711076120279e-03 0.0 
0.0 0.0 0.0 
-5.027748742322e-04 2.061147508117e-03 0.0 
2.061147508117e-03 6.645098385696e-03 0.0 
0.0 0.0 0.0 
1.756390192613e-03 1.501143905571e-03 0.0 
1.501143905571e-03 1.424085652395e-03 0.0 
0.0 0.0 0.0 
4.918182347557e-05 -1.400632016421e-03 0.0 
-1.400632016421e-03 2.887092676467e-03 0.0 
0.0 0.0 0.0 
-8.275243388124e-04 5.654249549539e-04 0.0 
5.654249549539e-04 7.707436229749e-03 0.0 
0.0 0.0 0.0 
-2.693939733811e-04 -2.218097007610e-03 0.0 
-2.218097007610e-03 1.280119161632e-03 0.0 
0.0 0.0 0.0 
-5.462814506964e-04 -2.014996287986e-03 0.0 
-2.014996287986e-03 1.617234091105e-03 0.0 
0.0 0.0 0.0 
-3.142995482098e-04 -1.170549699440e-03 0.0 
-1.170549699440e-03 1.325608885741e-03 0.0 
0.0 0.0 0.0 
6.563965792961e-04 -1.593262204107e-03 0.0 
-1.593262204107e-03 1.516389935519e-03 0.0 
0.0 0.0 0.0 
-8.266459358032e-04 -1.799852539417e-03 0.0 
-1.799852539417e-03 2.048602100293e-03 0.0 
0.0 0.0 0.0 
-1.133442554324e-03 5.015824646870e-04 0.0 
5.015824646870e-04 7.184766522575e-03 0.0 
0.0 0.0 0.0 
-1.217517364192e-03 5.303837276417e-04 0.0 
5.303837276417e-04 6.968969923861e-03 0.0 
0.0 0.0 0.0 
3.901722337962e-03 7.697833280311e-04 0.0 
7.697833280311e-04 -2.582335788324e-03 0.0 
0.0 0.0 0.0 
-4.179406285513e-04 -2.111704282666e-03 0.0 
-2.111704282666e-03 1.511047516443e-03 0.0 
0.0 0.0 0.0 
3.949786055530e-03 1.776461463566e-03 0.0 
1.776461463566e-03 -3.419001819684e-03 0.0 
0.0 0.0 0.0 
-6.856283198493e-04 -1.939726736555e-03 0.0 
-1.939726736555e-03 1.911135705051e-03 0.0 
0.0 0.0 0.0 
-4.066629891754e-04 -2.160619965663e-03 0.0 
-2.160619965663e-03 1.638864527246e-03 0.0 
0.0 0.0 0.0 
-6.446410970398e-04 -1.315541892769e-03 0.0 
-1.315541892769e-03 1.612920512748e-03 0.0 
0.0 0.0 0.0 
9.701633399466e-04 -9.161547883781e-04 0.0 
-9.161547883781e-04 1.999412612720e-03 0.0 
0.0 0.0 0.0 
7.833517174913e-04 -2.332279907909e-03 0.0 
-2.332279907909e-03 4.558033363793e-04 0.0 
0.0 0.0 0.0 
-8.131037162264e-04 5.004023865476e-04 0.0 
5.004023865476e-04 7.909499111487e-03 0.0 
0.0 0.0 0.0 
1.200669171518e-03 -2.205177995163e-03 0.0 
-2.205177995163e-03 3.224612982500e-05 0.0 
0.0 0.0 0.0 
6.699654488627e-04 -1.647075638671e-03 0.0 
-1.647075638671e-03 1.681661367031e-03 0.0 
0.0 0.0 0.0 
6.984699545238e-04 -2.039596111171e-03 0.0 
-2.039596111171e-03 9.249045726381e-04 0.0 
0.0 0.0 0.0 
2.101874268845e-03 2.625150208249e-03 0.0 
2.625150208249e-03 -2.544395887482e-04 0.0 
0.0 0.0 0.0 
-4.617209575719e-04 -1.064355855974e-03 0.0 
-1.064355855974e-03 1.570185883976e-03 0.0 
0.0 0.0 0.0 
5.600009188000e-04 -8.697452272193e-04 0.0 
-8.697452272193e-04 3.086967906130e-03 0.0 
0.0 0.0 0.0 
5.274803308677e-04 -8.576676742839e-04 0.0 
-8.576676742839e-04 3.196436443426e-03 0.0 
0.0 0.0 0.0 
4.123335797785e-04 2.624627124766e-03 0.0 
2.624627124766e-03 2.781512449624e-03 0.0 
0.0 0.0 0.0 
-5.112486837888e-05 -2.314390537176e-03 0.0 
-2.314390537176e-03 1.293680375628e-03 0.0 
0.0 0.0 0.0 
6.709890221268e-04 -1.865380720003e-03 0.0 
-1.865380720003e-03 1.276037130609e-03 0.0 
0.0 0.0 0.0 
-1.037078476343e-03 5.156872992665e-04 0.0 
5.156872992665e-04 7.182807420037e-03 0.0 
0.0 0.0 0.0 
-5.843708056187e-04 -2.011765378927e-03 0.0 
-2.011765378927e-03 1.757753324779e-03 0.0 
0.0 0.0 0.0 
8.942165900223e-04 2.862954717022e-03 0.0 
2.862954717022e-03 8.053286533896e-04 0.0 
0.0 0.0 0.0 
-8.687301689102e-04 -1.443652788143e-03 0.0 
-1.443652788143e-03 2.061967966122e-03 0.0 
0.0 0.0 0.0 
8.827312116173e-04 -2.883162130170e-03 0.0 
-2.883162130170e-03 -7.109721047484e-04 0.0 
0.0 0.0 0.0 
7.216297640578e-05 -2.343770919263e-03 0.0 
-2.343770919263e-03 8.817002784223e-04 0.0 
0.0 0.0 0.0 
-9.679522788403e-04 -1.368967805727e-03 0.0 
-1.368967805727e-03 2.182910546718e-03 0.0 
0.0 0.0 0.0 
-8.139956022937e-04 -7.986168141350e-04 0.0 
-7.986168141350e-04 2.127894279147e-03 0.0 
0.0 0.0 0.0 
3.979456768834e-04 -2.105285263931e-03 0.0 
-2.105285263931e-03 9.367393281567e-04 0.0 
0.0 0.0 0.0 
3.408851005540e-04 -1.535706588136e-03 0.0 
-1.535706588136e-03 2.309550494074e-03 0.0 
0.0 0.0 0.0 
2.282521833215e-04 2.355929693332e-03 0.0 
2.355929693332e-03 4.214057637597e-03 0.0 
0.0 0.0 0.0 
1.296102786646e-03 -1.699363749877e-04 0.0 
-1.699363749877e-04 -3.994721153614e-04 0.0 
0.0 0.0 0.0 
2.557195629473e-03 -1.728950074353e-03 0.0 
-1.728950074353e-03 -1.490181652551e-03 0.0 
0.0 0.0 0.0 
1.627340406035e-03 -2.143507169337e-03 0.0 
-2.143507169337e-03 -5.339364577575e-04 0.0 
0.0 0.0 0.0 
3.606226499950e-04 -2.373657040150e-03 0.0 
-2.373657040150e-03 8.845116838589e-04 0.0 
0.0 0.0 0.0 
-1.113238365476e-03 5.361043051495e-04 0.0 
5.361043051495e-04 6.967971235467e-03 0.0 
0.0 0.0 0.0 
7.497232436080e-04 -2.190276550920e-03 0.0 
-2.190276550920e-03 6.458796938660e-04 0.0 
0.0 0.0 0.0 
-1.094013194828e-03 -1.477423431707e-03 0.0 
-1.477423431707e-03 2.442781920003e-03 0.0 
0.0 0.0 0.0 
4.539321906245e-04 -2.374055164235e-03 0.0 
-2.374055164235e-03 4.641407467534e-04 0.0 
0.0 0.0 0.0 
-7.829495302841e-04 4.207232200494e-04 0.0 
4.207232200494e-04 7.791220658874e-03 0.0 
0.0 0.0 0.0 
-1.086046807159e-03 -1.251027322703e-03 0.0 
-1.251027322703e-03 2.407606871547e-03 0.0 
0.0 0.0 0.0 
-1.560559991303e-04 -7.740365758411e-04 0.0 
-7.740365758411e-04 9.282360848553e-04 0.0 
0.0 0.0 0.0 
-4.615483323808e-04 -1.014358901052e-03 0.0 
-1.014358901052e-03 1.301902499792e-03 0.0 
0.0 0.0 0.0 
8.893216883954e-04 -2.680972416719e-03 0.0 
-2.680972416719e-03 -1.357689170863e-04 0.0 
0.0 0.0 0.0 
-8.619739588189e-05 -2.323135192025e-03 0.0 
-2.323135192025e-03 1.189515728007e-03 0.0 
0.0 0.0 0.0 
2.019100836428e-03 -1.857565696970e-03 0.0 
-1.857565696970e-03 -9.184351898412e-04 0.0 
0.0 0.0 0.0 
8.555516996807e-04 -2.315739570238e-03 0.0 
-2.315739570238e-03 5.268955719240e-05 0.0 
0.0 0.0 0.0 
6.832772540499e-05 -2.445022262736e-03 0.0 
-2.445022262736e-03 2.609561634783e-04 0.0 
0.0 0.0 0.0 
-1.589265955102e-04 -7.560504389865e-04 0.0 
-7.560504389865e-04 1.262325598524e-03 0.0 
0.0 0.0 0.0 
-1.375264742737e-03 7.192027511369e-04 0.0 
7.192027511369e-04 6.599888229187e-03 0.0 
0.0 0.0 0.0 
-8.918237856268e-04 -1.124191576314e-03 0.0 
-1.124191576314e-03 2.145172729815e-03 0.0 
0.0 0.0 0.0 
1.051906243618e-03 -9.904897305741e-04 0.0 
-9.904897305741e-04 1.957584616851e-03 0.0 
0.0 0.0 0.0 
4.299334360525e-04 2.372283047583e-03 0.0 
2.372283047583e-03 3.591393321732e-03 0.0 
0.0 0.0 0.0 
-1.261536181170e-03 1.656319400622e-03 0.0 
1.656319400622e-03 5.755637683572e-03 0.0 
0.0 0.0 0.0 
-7.604232774234e-04 9.952429084654e-04 0.0 
9.952429084654e-04 7.728342039534e-03 0.0 
0.0 0.0 0.0 
8.074011564352e-05 2.339784944022e-03 0.0 
2.339784944022e-03 4.792714879037e-03 0.0 
0.0 0.0 0.0 
3.836106263623e-03 1.331373083394e-03 0.0 
1.331373083394e-03 -2.425552597012e-03 0.0 
0.0 0.0 0.0 
4.404345123228e-04 2.476725280479e-03 0.0 
2.476725280479e-03 3.167758380165e-03 0.0 
0.0 0.0 0.0 
5.857847645470e-04 -2.944624515010e-03 0.0 
-2.944624515010e-03 -4.896626731861e-04 0.0 
0.0 0.0 0.0 
6.412581296766e-05 -2.237695710301e-03 0.0 
-2.237695710301e-03 1.038806179812e-03 0.0 
0.0 0.0 0.0 
2.773468066845e-03 2.594056505928e-03 0.0 
2.594056505928e-03 -1.701426760283e-03 0.0 
0.0 0.0 0.0 
3.112644169798e-03 -2.212479183252e-03 0.0 
-2.212479183252e-03 -2.828078731515e-03 0.0 
0.0 0.0 0.0 
1.583019472080e-04 -2.754932264899e-03 0.0 
-2.754932264899e-03 -1.025306746502e-04 0.0 
0.0 0.0 0.0 
-6.981198362864e-04 -1.969642029587e-03 0.0 
-1.969642029587e-03 2.073794831606e-03 0.0 
0.0 0.0 0.0 
1.273611388586e-03 -2.330962499637e-03 0.0 
-2.330962499637e-03 -4.989896380962e-04 0.0 
0.0 0.0 0.0 
1.677807181802e-03 -2.117816870872e-03 0.0 
-2.117816870872e-03 -8.745957284674e-04 0.0 
0.0 0.0 0.0 
-1.155808318147e-03 -1.198693489707e-03 0.0 
-1.198693489707e-03 2.491203993245e-03 0.0 
0.0 0.0 0.0 
1.140585660840e-03 -2.057729102325e-03 0.0 
-2.057729102325e-03 2.645983466527e-04 0.0 
0.0 0.0 0.0 
2.097544524675e-03 -1.977070810519e-03 0.0 
-1.977070810519e-03 -1.443831523468e-03 0.0 
0.0 0.0 0.0 
2.998689270419e-03 -1.328436266638e-03 0.0 
-1.328436266638e-03 -1.888463317777e-03 0.0 
0.0 0.0 0.0 
-2.529892797851e-04 -2.208875507231e-03 0.0 
-2.208875507231e-03 1.173451793791e-03 0.0 
0.0 0.0 0.0 
2.465831500591e-03 3.474665750213e-04 0.0 
3.474665750213e-04 -1.778655282030e-04 0.0 
0.0 0.0 0.0 
-1.112765369290e-03 6.226296119387e-04 0.0 
6.226296119387e-04 7.292094735702e-03 0.0 
0.0 0.0 0.0 
3.580196957752e-03 -9.454835350109e-04 0.0 
-9.454835350109e-04 -2.585366535583e-03 0.0 
0.0 0.0 0.0 
8.475905082208e-04 -8.203457210914e-04 0.0 
-8.203457210914e-04 2.543710465637e-03 0.0 
0.0 0.0 0.0 
1.326264122928e-03 -3.088860726861e-03 0.0 
-3.088860726861e-03 -1.312721615480e-03 0.0 
0.0 0.0 0.0 
8.813564252970e-04 -4.041464907834e-04 0.0 
-4.041464907834e-04 2.767876279704e-03 0.0 
0.0 0.0 0.0 
1.600451810058e-03 -1.999957689031e-03 0.0 
-1.999957689031e-03 -3.634271991740e-04 0.0 
0.0 0.0 0.0 
-1.583839789321e-07 2.374619573014e-03 0.0 
2.374619573014e-03 5.366703047141e-03 0.0 
0.0 0.0 0.0 
-5.147502518729e-04 2.431208490339e-03 0.0 
2.431208490339e-03 4.315935696746e-03 0.0 
0.0 0.0 0.0 
6.006350704078e-04 -2.760322712055e-03 0.0 
-2.760322712055e-03 1.484039993183e-05 0.0 
0.0 0.0 0.0 
-1.104130528051e-03 1.836688008175e-03 0.0 
1.836688008175e-03 5.626153556730e-03 0.0 
0.0 0.0 0.0 
-7.102230249451e-04 1.343935672305e-03 0.0 
1.343935672305e-03 7.524129502467e-03 0.0 
0.0 0.0 0.0 
1.975523991441e-03 -1.727493100005e-03 0.0 
-1.727493100005e-03 -7.145234934876e-04 0.0 
0.0 0.0 0.0 
1.804035704704e-03 3.010462133599e-03 0.0 
3.010462133599e-03 -4.241233166100e-04 0.0 
0.0 0.0 0.0 
-9.197578962209e-04 1.996739880318e-03 0.0 
1.996739880318e-03 5.462189052080e-03 0.0 
0.0 0.0 0.0 
5.198420829580e-04 2.806592665711e-03 0.0 
2.806592665711e-03 1.404127529668e-03 0.0 
0.0 0.0 0.0 
1.169215250854e-04 -2.638158598931e-03 0.0 
-2.638158598931e-03 2.921422275306e-04 0.0 
0.0 0.0 0.0 
-3.576360000364e-04 1.191786573903e-03 0.0 
1.191786573903e-03 8.254420287108e-03 0.0 
0.0 0.0 0.0 
-3.508522037264e-04 -2.158728927747e-03 0.0 
-2.158728927747e-03 7.522643069697e-04 0.0 
0.0 0.0 0.0 
1.264478129575e-03 9.783989291435e-04 0.0 
9.783989291435e-04 2.376849606412e-03 0.0 
0.0 0.0 0.0 
-5.657613145525e-04 5.877965950309e-04 0.0 
5.877965950309e-04 8.197262326885e-03 0.0 
0.0 0.0 0.0 
2.223353990662e-03 4.830538709073e-05 0.0 
4.830538709073e-05 1.722702261742e-04 0.0 
0.0 0.0 0.0 
-1.126026155228e-03 4.308067801111e-04 0.0 
4.308067801111e-04 6.841168252310e-03 0.0 
0.0 0.0 0.0 
-9.324951239961e-04 8.469931940772e-04 0.0 
8.469931940772e-04 7.673908016486e-03 0.0 
0.0 0.0 0.0 
2.544820290772e-03 -1.634835681465e-03 0.0 
-1.634835681465e-03 -1.835685123277e-03 0.0 
0.0 0.0 0.0 
3.620207738876e-03 7.262468629252e-04 0.0 
7.262468629252e-04 -2.178467487144e-03 0.0 
0.0 0.0 0.0 
-5.721002465224e-04 1.088528124331e-03 0.0 
1.088528124331e-03 7.991305935424e-03 0.0 
0.0 0.0 0.0 
3.198880236353e-04 -1.303769036797e-03 0.0 
-1.303769036797e-03 2.739843905734e-03 0.0 
0.0 0.0 0.0 
-1.081110030768e-03 7.537154161980e-04 0.0 
7.537154161980e-04 7.380751366405e-03 0.0 
0.0 0.0 0.0 
2.124045802214e-03 -6.990304230940e-04 0.0 
-6.990304230940e-04 9.483661495668e-05 0.0 
0.0 0.0 0.0 
1.033139688380e-03 -2.974747180667e-03 0.0 
-2.974747180667e-03 -4.876918844714e-04 0.0 
0.0 0.0 0.0 
-1.037589813048e-03 8.946705550376e-04 0.0 
8.946705550376e-04 7.449802068131e-03 0.0 
0.0 0.0 0.0 
2.763746647787e-04 2.390215031221e-03 0.0 
2.390215031221e-03 4.975830311399e-03 0.0 
0.0 0.0 0.0 
6.001290642681e-04 -7.094901113004e-04 0.0 
-7.094901113004e-04 3.162651183573e-03 0.0 
0.0 0.0 0.0 
3.555718323469e-04 -2.249733901920e-03 0.0 
-2.249733901920e-03 1.038948113845e-03 0.0 
0.0 0.0 0.0 
-1.219621895699e-03 4.140064252598e-04 0.0 
4.140064252598e-04 6.842934177119e-03 0.0 
0.0 0.0 0.0 
-1.188338002552e-03 4.419430825126e-04 0.0 
4.419430825126e-04 6.624665522247e-03 0.0 
0.0 0.0 0.0 
1.257115546283e-03 -2.175903713697e-03 0.0 
-2.175903713697e-03 -3.343920863139e-04 0.0 
0.0 0.0 0.0 
6.343221788410e-04 -1.397129635267e-03 0.0 
-1.397129635267e-03 2.138251780973e-03 0.0 
0.0 0.0 0.0 
8.731670955966e-04 -1.209671377712e-03 0.0 
-1.209671377712e-03 2.016458191144e-03 0.0 
0.0 0.0 0.0 
-1.275427193524e-04 -8.432799662041e-04 0.0 
-8.432799662041e-04 1.093067256327e-03 0.0 
0.0 0.0 0.0 
3.757291511952e-03 2.028899049216e-03 0.0 
2.028899049216e-03 -3.568144095736e-03 0.0 
0.0 0.0 0.0 
3.812645975835e-03 -3.962394669310e-04 0.0 
-3.962394669310e-04 -2.746314338966e-03 0.0 
0.0 0.0 0.0 
3.184956016294e-03 -1.399855683504e-03 0.0 
-1.399855683504e-03 -2.506368162433e-03 0.0 
0.0 0.0 0.0 
1.267292669397e-03 2.801519023964e-03 0.0 
2.801519023964e-03 2.792127209590e-04 0.0 
0.0 0.0 0.0 
-5.579682983022e-04 1.019844293240e-03 0.0 
1.019844293240e-03 8.214659742574e-03 0.0 
0.0 0.0 0.0 
-5.467081755873e-04 1.914022179353e-03 0.0 
1.914022179353e-03 6.735431556242e-03 0.0 
0.0 0.0 0.0 
-6.441680688891e-04 5.611022336603e-04 0.0 
5.611022336603e-04 8.199471052208e-03 0.0 
0.0 0.0 0.0 
-5.050808592210e-04 2.487818772981e-03 0.0 
2.487818772981e-03 2.806516335558e-03 0.0 
0.0 0.0 0.0 
-8.907346008954e-04 1.237801953171e-03 0.0 
1.237801953171e-03 7.264164754547e-03 0.0 
0.0 0.0 0.0 
3.349991709556e-04 -1.492317455209e-03 0.0 
-1.492317455209e-03 2.154450734914e-03 0.0 
0.0 0.0 0.0 
-5.412571370166e-04 8.964035874161e-04 0.0 
8.964035874161e-04 8.159011804900e-03 0.0 
0.0 0.0 0.0 
-1.134053220917e-03 9.405765803002e-04 0.0 
9.405765803002e-04 7.215629666049e-03 0.0 
0.0 0.0 0.0 
4.351624099550e-04 -2.241351625119e-03 0.0 
-2.241351625119e-03 6.556883296567e-04 0.0 
0.0 0.0 0.0 
4.085108683052e-03 1.841250207250e-04 0.0 
1.841250207250e-04 -3.013534013898e-03 0.0 
0.0 0.0 0.0 
-9.245793066035e-04 8.953466908838e-04 0.0 
8.953466908838e-04 7.449339459425e-03 0.0 
0.0 0.0 0.0 
-7.573917635189e-04 9.361798266891e-04 0.0 
9.361798266891e-04 7.952734192419e-03 0.0 
0.0 0.0 0.0 
-8.772709030482e-04 7.223158560166e-04 0.0 
7.223158560166e-04 7.596398221754e-03 0.0 
0.0 0.0 0.0 
-9.722087892745e-04 7.584478327052e-04 0.0 
7.584478327052e-04 7.379832104184e-03 0.0 
0.0 0.0 0.0 
4.431254338040e-04 -9.967387827274e-04 0.0 
-9.967387827274e-04 3.114326576515e-03 0.0 
0.0 0.0 0.0 
1.356333459620e-03 1.213011840032e-03 0.0 
1.213011840032e-03 2.210285014417e-03 0.0 
0.0 0.0 0.0 
7.317483195510e-04 -1.008441943862e-03 0.0 
-1.008441943862e-03 2.548740878645e-03 0.0 
0.0 0.0 0.0 
3.244481184774e-04 -1.759989365198e-03 0.0 
-1.759989365198e-03 1.920770895175e-03 0.0 
0.0 0.0 0.0 
-1.167181553646e-03 1.638137403774e-03 0.0 
1.638137403774e-03 3.906112038662e-03 0.0 
0.0 0.0 0.0 
2.077816563138e-03 4.109502064561e-04 0.0 
4.109502064561e-04 6.032176507298e-04 0.0 
0.0 0.0 0.0 
-1.048629952627e-03 1.348967952604e-03 0.0 
1.348967952604e-03 6.704928907308e-03 0.0 
0.0 0.0 0.0 
-9.514106664636e-04 -1.067795826136e-03 0.0 
-1.067795826136e-03 2.169360420079e-03 0.0 
0.0 0.0 0.0 
3.538200838490e-03 -8.817010000683e-04 0.0 
-8.817010000683e-04 -2.666334172994e-03 0.0 
0.0 0.0 0.0 
3.026166152010e-03 -7.585942512775e-04 0.0 
-7.585942512775e-04 -1.708121288385e-03 0.0 
0.0 0.0 0.0 
3.175952244207e-03 7.021386594763e-04 0.0 
7.021386594763e-04 -1.403259213711e-03 0.0 
0.0 0.0 0.0 
3.832858966784e-03 -5.476106326752e-04 0.0 
-5.476106326752e-04 -4.005908425705e-03 0.0 
0.0 0.0 0.0 
3.926151273779e-03 -3.710301463068e-04 0.0 
-3.710301463068e-04 -2.918867684252e-03 0.0 
0.0 0.0 0.0 
2.670359482928e-03 6.944560895815e-04 0.0 
6.944560895815e-04 -4.519008177472e-04 0.0 
0.0 0.0 0.0 
-8.938775859336e-04 2.079633320567e-03 0.0 
2.079633320567e-03 3.771289666266e-03 0.0 
0.0 0.0 0.0 
3.259359043217e-04 -2.110530509620e-03 0.0 
-2.110530509620e-03 1.272834292152e-03 0.0 
0.0 0.0 0.0 
-1.261206544954e-03 8.352712343625e-04 0.0 
8.352712343625e-04 6.917642463277e-03 0.0 
0.0 0.0 0.0 
-1.232715716630e-03 2.572525339505e-04 0.0 
2.572525339505e-04 6.085968478573e-03 0.0 
0.0 0.0 0.0 
-8.612980025877e-04 1.998584206010e-03 0.0 
1.998584206010e-03 1.414080724063e-03 0.0 
0.0 0.0 0.0 
3.676325851869e-04 -1.944187619009e-03 0.0 
-1.944187619009e-03 1.289848564519e-03 0.0 
0.0 0.0 0.0 
2.044389567826e-03 4.382886457244e-05 0.0 
4.382886457244e-05 5.420109280385e-04 0.0 
0.0 0.0 0.0 
-4.956254321320e-04 1.858162712362e-03 0.0 
1.858162712362e-03 7.070773873293e-03 0.0 
0.0 0.0 0.0 
3.773349491295e-03 6.696226737688e-04 0.0 
6.696226737688e-04 -2.599926352950e-03 0.0 
0.0 0.0 0.0 
3.100535616742e-04 -1.952189328472e-03 0.0 
-1.952189328472e-03 1.572071889363e-03 0.0 
0.0 0.0 0.0 
-1.203188875748e-03 6.567119239388e-04 0.0 
6.567119239388e-04 7.071522700548e-03 0.0 
0.0 0.0 0.0 
-5.718734306611e-04 1.791975156508e-03 0.0 
1.791975156508e-03 1.708357014194e-03 0.0 
0.0 0.0 0.0 
2.279495430407e-03 3.160722306968e-04 0.0 
3.160722306968e-04 1.316149318642e-04 0.0 
0.0 0.0 0.0 
3.409531570767e-03 2.200068162891e-04 0.0 
2.200068162891e-04 -2.005811284798e-03 0.0 
0.0 0.0 0.0 
-1.030663048265e-03 2.117770817400e-03 0.0 
2.117770817400e-03 4.192075085541e-03 0.0 
0.0 0.0 0.0 
5.980479764978e-04 -1.335039921530e-03 0.0 
-1.335039921530e-03 2.036950104526e-03 0.0 
0.0 0.0 0.0 
2.525311317182e-03 -2.771303872009e-03 0.0 
-2.771303872009e-03 -2.753901502754e-03 0.0 
0.0 0.0 0.0 
8.152538852011e-04 -1.141133340427e-03 0.0 
-1.141133340427e-03 1.981857460314e-03 0.0 
0.0 0.0 0.0 
8.901517208084e-04 -6.199497475607e-04 0.0 
-6.199497475607e-04 2.608957041119e-03 0.0 
0.0 0.0 0.0 
2.468631589389e-03 6.250096681466e-04 0.0 
6.250096681466e-04 -2.195058275063e-04 0.0 
0.0 0.0 0.0 
-9.805614509586e-04 7.120613534408e-04 0.0 
7.120613534408e-04 7.597992167841e-03 0.0 
0.0 0.0 0.0 
1.021975254323e-03 2.168418031565e-03 0.0 
2.168418031565e-03 2.764717009384e-03 0.0 
0.0 0.0 0.0 
7.723649784639e-04 -7.625627422478e-04 0.0 
-7.625627422478e-04 2.627511969837e-03 0.0 
0.0 0.0 0.0 
-5.484210214571e-04 1.681768959786e-03 0.0 
1.681768959786e-03 1.922762864123e-03 0.0 
0.0 0.0 0.0 
-1.175080855441e-03 7.948204196082e-04 0.0 
7.948204196082e-04 7.154579777177e-03 0.0 
0.0 0.0 0.0 
1.133422552680e-03 1.626092334040e-03 0.0 
1.626092334040e-03 2.676599565514e-03 0.0 
0.0 0.0 0.0 
-8.243257698841e-04 8.552487670537e-04 0.0 
8.552487670537e-04 7.672554541576e-03 0.0 
0.0 0.0 0.0 
2.894305991067e-03 6.099630823771e-04 0.0 
6.099630823771e-04 -1.065324428525e-03 0.0 
0.0 0.0 0.0 
4.002807172673e-03 2.239362171848e-04 0.0 
2.239362171848e-04 -2.820588143208e-03 0.0 
0.0 0.0 0.0 
-8.943104241776e-04 -1.508048672156e-03 0.0 
-1.508048672156e-03 3.170479034629e-03 0.0 
0.0 0.0 0.0 
2.785314682591e-03 7.138716331960e-04 0.0 
7.138716331960e-04 -4.951066544575e-03 0.0 
0.0 0.0 0.0 
-7.187665593424e-04 8.099798908879e-04 0.0 
8.099798908879e-04 7.885025993404e-03 0.0 
0.0 0.0 0.0 
-1.124896964560e-03 -9.164743378722e-04 0.0 
-9.164743378722e-04 2.451693992890e-03 0.0 
0.0 0.0 0.0 
-6.654437009906e-04 1.562912026614e-03 0.0 
1.562912026614e-03 2.262568609781e-03 0.0 
0.0 0.0 0.0 
8.523324170941e-04 2.326835320119e-03 0.0 
2.326835320119e-03 2.934521026519e-03 0.0 
0.0 0.0 0.0 
-4.971994713789e-04 7.103026098112e-04 0.0 
7.103026098112e-04 8.291486652309e-03 0.0 
0.0 0.0 0.0 
1.795448869601e-03 -3.204649862065e-03 0.0 
-3.204649862065e-03 -2.042333276599e-03 0.0 
0.0 0.0 0.0 
4.780429186444e-04 2.780374341773e-03 0.0 
2.780374341773e-03 2.197488441769e-03 0.0 
0.0 0.0 0.0 
-1.018459983447e-03 9.342217555365e-04 0.0 
9.342217555365e-04 7.215978374972e-03 0.0 
0.0 0.0 0.0 
-2.976877574494e-04 -1.952504935166e-03 0.0 
-1.952504935166e-03 1.878032427751e-03 0.0 
0.0 0.0 0.0 
3.562330473245e-03 -1.576363189841e-03 0.0 
-1.576363189841e-03 -3.841900109757e-03 0.0 
0.0 0.0 0.0 
1.873907983033e-03 3.077698300543e-03 0.0 
3.077698300543e-03 -1.015089270971e-03 0.0 
0.0 0.0 0.0 
3.480375014011e-04 -2.870775968129e-03 0.0 
-2.870775968129e-03 -8.452403732495e-05 0.0 
0.0 0.0 0.0 
2.331999779879e-03 -2.711350991373e-03 0.0 
-2.711350991373e-03 -2.105523894336e-03 0.0 
0.0 0.0 0.0 
1.549273239299e-03 -3.156443524388e-03 0.0 
-3.156443524388e-03 -1.093422095349e-03 0.0 
0.0 0.0 0.0 
3.414646906690e-03 6.139063482798e-04 0.0 
6.139063482798e-04 -2.064524602987e-03 0.0 
0.0 0.0 0.0 
-2.342765731370e-04 1.679586964482e-03 0.0 
1.679586964482e-03 8.197979845180e-03 0.0 
0.0 0.0 0.0 
-8.663611878676e-04 1.418891905978e-03 0.0 
1.418891905978e-03 2.764460917610e-03 0.0 
0.0 0.0 0.0 
1.975225258730e-04 -9.685653808538e-04 0.0 
-9.685653808538e-04 3.645429975490e-03 0.0 
0.0 0.0 0.0 
4.011899179394e-03 1.465902500281e-03 0.0 
1.465902500281e-03 -3.032072663422e-03 0.0 
0.0 0.0 0.0 
-1.221698563672e-03 9.905544970326e-04 0.0 
9.905544970326e-04 6.971726721477e-03 0.0 
0.0 0.0 0.0 
3.304540793531e-03 5.586146247185e-04 0.0 
5.586146247185e-04 -4.557608685436e-03 0.0 
0.0 0.0 0.0 
7.924996124384e-04 -5.574313831872e-04 0.0 
-5.574313831872e-04 2.759196657750e-03 0.0 
0.0 0.0 0.0 
9.000803087860e-04 -3.276881423615e-03 0.0 
-3.276881423615e-03 -1.080574408021e-03 0.0 
0.0 0.0 0.0 
-1.342797703400e-03 -1.004308268936e-03 0.0 
-1.004308268936e-03 2.811874377310e-03 0.0 
0.0 0.0 0.0 
2.195428231921e-03 9.414574476995e-04 0.0 
9.414574476995e-04 3.134053326679e-04 0.0 
0.0 0.0 0.0 
2.055415649513e-03 -1.828796607373e-03 0.0 
-1.828796607373e-03 -1.193083711430e-03 0.0 
0.0 0.0 0.0 
1.424751993216e-03 1.444809997652e-03 0.0 
1.444809997652e-03 2.105168599082e-03 0.0 
0.0 0.0 0.0 
6.820503674423e-04 2.882329527478e-03 0.0 
2.882329527478e-03 8.612473079759e-04 0.0 
0.0 0.0 0.0 
-1.082599999287e-03 1.311680080892e-03 0.0 
1.311680080892e-03 6.990286527280e-03 0.0 
0.0 0.0 0.0 
1.180728365002e-03 1.132491008383e-03 0.0 
1.132491008383e-03 2.353771315782e-03 0.0 
0.0 0.0 0.0 
-1.061926176562e-03 7.915974964277e-04 0.0 
7.915974964277e-04 7.154590657961e-03 0.0 
0.0 0.0 0.0 
-5.856241816634e-04 1.873171817436e-03 0.0 
1.873171817436e-03 7.069028385576e-03 0.0 
0.0 0.0 0.0 
-9.811840243465e-04 1.041714949059e-03 0.0 
1.041714949059e-03 7.498029193278e-03 0.0 
0.0 0.0 0.0 
-9.106503853850e-04 1.192941483464e-03 0.0 
1.192941483464e-03 7.523927965955e-03 0.0 
0.0 0.0 0.0 
2.820754871260e-03 3.001124694100e-03 0.0 
3.001124694100e-03 -3.021827435693e-03 0.0 
0.0 0.0 0.0 
3.092338253974e-05 -1.036532373660e-03 0.0 
-1.036532373660e-03 3.701165000283e-03 0.0 
0.0 0.0 0.0 
-9.620388070511e-04 1.083770948806e-03 0.0 
1.083770948806e-03 7.253274365619e-03 0.0 
0.0 0.0 0.0 
3.145414084511e-03 2.057925857633e-03 0.0 
2.057925857633e-03 -1.952289099352e-03 0.0 
0.0 0.0 0.0 
-1.096804275995e-03 1.259103995014e-03 0.0 
1.259103995014e-03 3.333707724616e-03 0.0 
0.0 0.0 0.0 
9.724813765901e-04 1.214330206539e-03 0.0 
1.214330206539e-03 2.895272864152e-03 0.0 
0.0 0.0 0.0 
3.932312818898e-03 1.343393532902e-03 0.0 
1.343393532902e-03 -4.085811932287e-03 0.0 
0.0 0.0 0.0 
-1.100912681510e-03 -9.406658066634e-04 0.0 
-9.406658066634e-04 2.453584013436e-03 0.0 
0.0 0.0 0.0 
1.603083357848e-03 1.410785940328e-03 0.0 
1.410785940328e-03 1.484998803920e-03 0.0 
0.0 0.0 0.0 
-1.428758483735e-04 6.206576622702e-05 0.0 
6.206576622702e-05 1.605850587253e-03 0.0 
0.0 0.0 0.0 
1.584182987040e-03 2.664554748611e-03 0.0 
2.664554748611e-03 4.364225181288e-04 0.0 
0.0 0.0 0.0 
2.069051944577e-03 6.360788091607e-04 0.0 
6.360788091607e-04 5.731941214200e-04 0.0 
0.0 0.0 0.0 
-7.142959838632e-04 1.284824420950e-03 0.0 
1.284824420950e-03 7.777668975899e-03 0.0 
0.0 0.0 0.0 
-6.237965978795e-04 1.455660879204e-03 0.0 
1.455660879204e-03 7.773359551650e-03 0.0 
0.0 0.0 0.0 
2.260928288129e-03 7.021480341142e-04 0.0 
7.021480341142e-04 3.478964522587e-04 0.0 
0.0 0.0 0.0 
-8.724438510148e-04 9.909527127164e-04 0.0 
9.909527127164e-04 7.729251155147e-03 0.0 
0.0 0.0 0.0 
3.699974396848e-03 1.888005039131e-03 0.0 
1.888005039131e-03 -2.640197151717e-03 0.0 
0.0 0.0 0.0 
3.619328713220e-04 2.397259747493e-03 0.0 
2.397259747493e-03 3.813584377216e-03 0.0 
0.0 0.0 0.0 
-1.302844339812e-03 1.109681374772e-03 0.0 
1.109681374772e-03 3.933886410874e-03 0.0 
0.0 0.0 0.0 
-2.979102161946e-04 2.188291332226e-03 0.0 
2.188291332226e-03 6.060576334910e-03 0.0 
0.0 0.0 0.0 
-1.445309428457e-03 1.005136345579e-03 0.0 
1.005136345579e-03 4.541424404533e-03 0.0 
0.0 0.0 0.0 
-1.505961174727e-03 9.722346587744e-04 0.0 
9.722346587744e-04 4.839218148168e-03 0.0 
0.0 0.0 0.0 
3.774825113088e-03 1.211155631005e-03 0.0 
1.211155631005e-03 -2.646376616157e-03 0.0 
0.0 0.0 0.0 
-1.531606084077e-03 9.419041424301e-04 0.0 
9.419041424301e-04 5.128642773185e-03 0.0 
0.0 0.0 0.0 
1.958537703970e-03 2.422119978734e-03 0.0 
2.422119978734e-03 3.420313275966e-04 0.0 
0.0 0.0 0.0 
2.657369234529e-03 2.548615408677e-03 0.0 
2.548615408677e-03 -1.009683046978e-03 0.0 
0.0 0.0 0.0 
3.735442270754e-03 -3.305831263531e-04 0.0 
-3.305831263531e-04 -2.685287253285e-03 0.0 
0.0 0.0 0.0 
3.453685350296e-03 -1.502583036255e-03 0.0 
-1.502583036255e-03 -3.670762199966e-03 0.0 
0.0 0.0 0.0 
4.010471304927e-03 7.331394159248e-04 0.0 
7.331394159248e-04 -2.897922870945e-03 0.0 
0.0 0.0 0.0 
-6.500832578460e-04 9.497779646553e-04 0.0 
9.497779646553e-04 7.950735992763e-03 0.0 
0.0 0.0 0.0 
-4.058577462163e-04 2.071172419053e-03 0.0 
2.071172419053e-03 6.644532147121e-03 0.0 
0.0 0.0 0.0 
4.743665146911e-05 -1.193194262047e-03 0.0 
-1.193194262047e-03 3.291462212641e-03 0.0 
0.0 0.0 0.0 
1.270345361126e-03 1.358956703910e-03 0.0 
1.358956703910e-03 2.189035739782e-03 0.0 
0.0 0.0 0.0 
2.405597984071e-03 -1.535747493385e-03 0.0 
-1.535747493385e-03 -1.240966201592e-03 0.0 
0.0 0.0 0.0 
-7.947102311787e-04 1.191159544146e-03 0.0 
1.191159544146e-03 7.523721437118e-03 0.0 
0.0 0.0 0.0 
3.882466021923e-03 1.568034148337e-04 0.0 
1.568034148337e-04 -2.758953839774e-03 0.0 
0.0 0.0 0.0 
-1.533176400533e-04 -9.487850744312e-04 0.0 
-9.487850744312e-04 4.169567200207e-03 0.0 
0.0 0.0 0.0 
-8.650302098397e-04 1.041249557579e-03 0.0 
1.041249557579e-03 7.497682000931e-03 0.0 
0.0 0.0 0.0 
-1.003705704883e-03 1.250070443287e-03 0.0 
1.250070443287e-03 7.263075968154e-03 0.0 
0.0 0.0 0.0 
2.685883876134e-03 2.397287169717e-04 0.0 
2.397287169717e-04 -6.818677009256e-04 0.0 
0.0 0.0 0.0 
3.948253978931e-03 1.318590729648e-03 0.0 
1.318590729648e-03 -2.853093342693e-03 0.0 
0.0 0.0 0.0 
3.255812524967e-04 2.324603307312e-03 0.0 
2.324603307312e-03 4.216053985312e-03 0.0 
0.0 0.0 0.0 
-5.870420814176e-04 2.357864475807e-03 0.0 
2.357864475807e-03 4.326194097822e-03 0.0 
0.0 0.0 0.0 
3.066182796557e-03 -2.468073921151e-03 0.0 
-2.468073921151e-03 -3.514248744534e-03 0.0 
0.0 0.0 0.0 
3.897151425399e-03 2.800309410603e-04 0.0 
2.800309410603e-04 -3.915308474000e-03 0.0 
0.0 0.0 0.0 
9.973540557535e-04 2.876185697091e-03 0.0 
2.876185697091e-03 2.361432824578e-04 0.0 
0.0 0.0 0.0 
3.182985774219e-04 2.753964515972e-03 0.0 
2.753964515972e-03 2.201957281917e-03 0.0 
0.0 0.0 0.0 
-2.875361697559e-04 -8.445939581117e-04 0.0 
-8.445939581117e-04 4.595177265360e-03 0.0 
0.0 0.0 0.0 
-1.076407775937e-03 1.093706949365e-03 0.0 
1.093706949365e-03 7.252497545927e-03 0.0 
0.0 0.0 0.0 
4.067481350489e-03 8.161986908865e-04 0.0 
8.161986908865e-04 -2.776914326960e-03 0.0 
0.0 0.0 0.0 
3.075669742361e-04 2.654412173652e-03 0.0 
2.654412173652e-03 3.104942572051e-03 0.0 
0.0 0.0 0.0 
1.893634993005e-03 3.754724749557e-04 0.0 
3.754724749557e-04 9.207951498025e-04 0.0 
0.0 0.0 0.0 
-8.212866353333e-04 7.985033687965e-04 0.0 
7.985033687965e-04 7.886816061536e-03 0.0 
0.0 0.0 0.0 
1.181428973112e-04 2.345270863185e-03 0.0 
2.345270863185e-03 4.792016269661e-03 0.0 
0.0 0.0 0.0 
-1.181397095505e-03 1.015644049696e-03 0.0 
1.015644049696e-03 6.718033145637e-03 0.0 
0.0 0.0 0.0 
1.468460134747e-03 -3.505296261897e-04 0.0 
-3.505296261897e-04 1.554120002515e-03 0.0 
0.0 0.0 0.0 
3.780230614805e-03 2.080013709594e-04 0.0 
2.080013709594e-04 -2.530451354668e-03 0.0 
0.0 0.0 0.0 
1.852662821881e-03 1.457545179852e-04 0.0 
1.457545179852e-04 9.420841922754e-04 0.0 
0.0 0.0 0.0 
1.339495863015e-03 2.760204145386e-03 0.0 
2.760204145386e-03 4.234963068832e-04 0.0 
0.0 0.0 0.0 
-6.843221129186e-04 1.083847374629e-03 0.0 
1.083847374629e-03 7.992079853701e-03 0.0 
0.0 0.0 0.0 
-2.372484797186e-05 2.344140470018e-03 0.0 
2.344140470018e-03 5.368590724312e-03 0.0 
0.0 0.0 0.0 
3.123416052102e-03 1.568663588710e-04 0.0 
1.568663588710e-04 -1.578749047686e-03 0.0 
0.0 0.0 0.0 
3.816043997782e-03 4.688762750292e-04 0.0 
4.688762750292e-04 -4.350304806162e-03 0.0 
0.0 0.0 0.0 
9.829841591553e-04 2.093993776865e-03 0.0 
2.093993776865e-03 2.631212532956e-03 0.0 
0.0 0.0 0.0 
1.582112780927e-03 2.612087985167e-03 0.0 
2.612087985167e-03 6.802196669276e-04 0.0 
0.0 0.0 0.0 
3.951074421474e-03 1.418047432338e-03 0.0 
1.418047432338e-03 -2.568439668613e-03 0.0 
0.0 0.0 0.0 
2.883867176130e-03 2.715851943728e-04 0.0 
2.715851943728e-04 -1.014675682012e-03 0.0 
0.0 0.0 0.0 
1.282812538575e-03 -8.434127249577e-04 0.0 
-8.434127249577e-04 1.432449920709e-03 0.0 
0.0 0.0 0.0 
3.669510731273e-03 -7.181396731336e-04 0.0 
-7.181396731336e-04 -4.157082601697e-03 0.0 
0.0 0.0 0.0 
3.566679669691e-03 1.280386376098e-04 0.0 
1.280386376098e-04 -2.307048144683e-03 0.0 
0.0 0.0 0.0 
-9.103411497454e-04 1.930495892289e-03 0.0 
1.930495892289e-03 5.471036031287e-03 0.0 
0.0 0.0 0.0 
-3.940301525260e-04 -8.815317381768e-04 0.0 
-8.815317381768e-04 4.600868127800e-03 0.0 
0.0 0.0 0.0 
-7.307395481423e-04 2.077161136634e-03 0.0 
2.077161136634e-03 5.277471985365e-03 0.0 
0.0 0.0 0.0 
8.524980396529e-04 2.264957144413e-03 0.0 
2.264957144413e-03 2.751570593079e-03 0.0 
0.0 0.0 0.0 
-1.066214339192e-03 1.763127152075e-03 0.0 
1.763127152075e-03 5.635680796747e-03 0.0 
0.0 0.0 0.0 
-1.295028918318e-03 1.391257306102e-03 0.0 
1.391257306102e-03 5.858216119786e-03 0.0 
0.0 0.0 0.0 
-3.418455388956e-04 2.462389331707e-03 0.0 
2.462389331707e-03 4.030201204755e-03 0.0 
0.0 0.0 0.0 
1.545934287038e-03 1.157254557664e-03 0.0 
1.157254557664e-03 1.628691831238e-03 0.0 
0.0 0.0 0.0 
6.177265994656e-05 -1.186115569625e-03 0.0 
-1.186115569625e-03 3.198931130354e-03 0.0 
0.0 0.0 0.0 
-1.048527985619e-03 1.130237548268e-03 0.0 
1.130237548268e-03 6.995325671127e-03 0.0 
0.0 0.0 0.0 
-5.219606534044e-04 1.451879864987e-03 0.0 
1.451879864987e-03 7.773433381642e-03 0.0 
0.0 0.0 0.0 
-1.196486905040e-03 1.580859095076e-03 0.0 
1.580859095076e-03 5.765633504383e-03 0.0 
0.0 0.0 0.0 
4.189637079661e-03 9.624164912668e-04 0.0 
9.624164912668e-04 -3.173477231281e-03 0.0 
0.0 0.0 0.0 
8.385077921307e-04 2.083469650041e-03 0.0 
2.083469650041e-03 3.289450276326e-03 0.0 
0.0 0.0 0.0 
-6.352936856709e-04 8.819072063969e-04 0.0 
8.819072063969e-04 8.160998704082e-03 0.0 
0.0 0.0 0.0 
2.202639124357e-03 2.518286372682e-03 0.0 
2.518286372682e-03 -7.828401811975e-04 0.0 
0.0 0.0 0.0 
1.733092738917e-03 2.622646924429e-03 0.0 
2.622646924429e-03 -7.323745906618e-06 0.0 
0.0 0.0 0.0 
4.182091545855e-03 8.852808122804e-04 0.0 
8.852808122804e-04 -2.942238267341e-03 0.0 
0.0 0.0 0.0 
-9.755487284236e-04 1.289511200338e-03 0.0 
1.289511200338e-03 6.992754696328e-03 0.0 
0.0 0.0 0.0 
5.965308472522e-06 2.657138009774e-03 0.0 
2.657138009774e-03 1.867917967149e-03 0.0 
0.0 0.0 0.0 
1.963005995012e-03 2.336602928354e-03 0.0 
2.336602928354e-03 8.206796023735e-05 0.0 
0.0 0.0 0.0 
1.319642754996e-04 2.764913544383e-03 0.0 
2.764913544383e-03 1.852679523063e-03 0.0 
0.0 0.0 0.0 
1.901935648166e-03 1.200738632135e-03 0.0 
1.200738632135e-03 8.892475303064e-04 0.0 
0.0 0.0 0.0 
6.003889250461e-04 2.068193374299e-03 0.0 
2.068193374299e-03 3.811724312006e-03 0.0 
0.0 0.0 0.0 
4.141286824106e-03 2.280116735375e-04 0.0 
2.280116735375e-04 -3.005740830329e-03 0.0 
0.0 0.0 0.0 
2.732043811400e-03 -7.814801570800e-04 0.0 
-7.814801570800e-04 -4.708895132641e-03 0.0 
0.0 0.0 0.0 
-5.098941774632e-04 1.670242725328e-03 0.0 
1.670242725328e-03 7.464486886692e-03 0.0 
0.0 0.0 0.0 
-2.458384425745e-04 2.540163077549e-03 0.0 
2.540163077549e-03 2.385541171485e-03 0.0 
0.0 0.0 0.0 
2.762489108325e-03 -1.168569955927e-03 0.0 
-1.168569955927e-03 -1.516187049480e-03 0.0 
0.0 0.0 0.0 
8.136242896293e-04 2.033577292542e-03 0.0 
2.033577292542e-03 3.194935431236e-03 0.0 
0.0 0.0 0.0 
-1.160790482700e-03 1.149629166479e-03 0.0 
1.149629166479e-03 6.993417225715e-03 0.0 
0.0 0.0 0.0 
3.078007186130e-04 -1.266319733462e-03 0.0 
-1.266319733462e-03 2.636239205955e-03 0.0 
0.0 0.0 0.0 
3.187719689028e-03 2.333101084054e-03 0.0 
2.333101084054e-03 -1.664533347029e-03 0.0 
0.0 0.0 0.0 
2.513511099758e-03 -4.734468917339e-04 0.0 
-4.734468917339e-04 -5.052594717898e-03 0.0 
0.0 0.0 0.0 
-4.511837178801e-04 -7.829790589367e-04 0.0 
-7.829790589367e-04 4.995952596420e-03 0.0 
0.0 0.0 0.0 
6.779327846154e-04 2.782986664493e-03 0.0 
2.782986664493e-03 1.771921059758e-03 0.0 
0.0 0.0 0.0 
2.091068962847e-03 1.603830011112e-03 0.0 
1.603830011112e-03 7.174817662365e-04 0.0 
0.0 0.0 0.0 
3.857335868473e-04 2.325170353461e-03 0.0 
2.325170353461e-03 4.051601790356e-03 0.0 
0.0 0.0 0.0 
1.208442444433e-03 -7.172357521928e-05 0.0 
-7.172357521928e-05 -4.838748910407e-03 0.0 
0.0 0.0 0.0 
5.512198278284e-04 -1.170237380485e-03 0.0 
-1.170237380485e-03 2.619919384708e-03 0.0 
0.0 0.0 0.0 
2.754714115092e-03 2.816564439421e-03 0.0 
2.816564439421e-03 -1.588919794811e-03 0.0 
0.0 0.0 0.0 
-1.305213640131e-03 1.040339971228e-03 0.0 
1.040339971228e-03 6.715637995096e-03 0.0 
0.0 0.0 0.0 
-2.836101031395e-04 -1.808028116627e-03 0.0 
-1.808028116627e-03 2.183199010043e-03 0.0 
0.0 0.0 0.0 
4.150372527576e-03 8.074406335339e-04 0.0 
8.074406335339e-04 -3.101842358883e-03 0.0 
0.0 0.0 0.0 
-2.895585200375e-04 -9.871485545389e-04 0.0 
-9.871485545389e-04 4.176292887406e-03 0.0 
0.0 0.0 0.0 
1.695015225826e-03 2.573788621344e-03 0.0 
2.573788621344e-03 3.204723219443e-04 0.0 
0.0 0.0 0.0 
4.246487290400e-03 9.275560719584e-04 0.0 
9.275560719584e-04 -3.396011770871e-03 0.0 
0.0 0.0 0.0 
5.690170565269e-04 2.730340431894e-03 0.0 
2.730340431894e-03 2.449392019673e-03 0.0 
0.0 0.0 0.0 
2.294459656917e-03 -2.251794852266e-03 0.0 
-2.251794852266e-03 -4.731715336982e-03 0.0 
0.0 0.0 0.0 
6.264223386963e-04 2.438522735492e-03 0.0 
2.438522735492e-03 3.172108911431e-03 0.0 
0.0 0.0 0.0 
2.002479729693e-03 9.947627014247e-04 0.0 
9.947627014247e-04 9.195197324481e-04 0.0 
0.0 0.0 0.0 
-1.296333532578e-04 2.301815432354e-03 0.0 
2.301815432354e-03 5.830519154572e-03 0.0 
0.0 0.0 0.0 
5.668128297320e-04 2.324558452203e-03 0.0 
2.324558452203e-03 3.597334553451e-03 0.0 
0.0 0.0 0.0 
4.105780339570e-03 2.510359986281e-04 0.0 
2.510359986281e-04 -3.664043517744e-03 0.0 
0.0 0.0 0.0 
-1.737364179486e-04 -1.238492830396e-03 0.0 
-1.238492830396e-03 3.299959582914e-03 0.0 
0.0 0.0 0.0 
-4.479044675156e-04 1.041023208769e-03 0.0 
1.041023208769e-03 8.213784603265e-03 0.0 
0.0 0.0 0.0 
6.555625358995e-04 1.440390548108e-03 0.0 
1.440390548108e-03 3.440162017601e-03 0.0 
0.0 0.0 0.0 
1.716745410195e-03 1.241878884555e-03 0.0 
1.241878884555e-03 1.509582280701e-03 0.0 
0.0 0.0 0.0 
3.595982903574e-03 1.867102931075e-03 0.0 
1.867102931075e-03 -2.107716970734e-03 0.0 
0.0 0.0 0.0 
6.410291612104e-04 2.596756909274e-03 0.0 
2.596756909274e-03 2.784213599546e-03 0.0 
0.0 0.0 0.0 
-5.443590634319e-04 -6.759387743188e-04 0.0 
-6.759387743188e-04 4.980556080156e-03 0.0 
0.0 0.0 0.0 
-1.636287537974e-03 -5.267927184176e-04 0.0 
-5.267927184176e-04 4.010855354644e-03 0.0 
0.0 0.0 0.0 
6.660332506991e-04 2.384961455308e-03 0.0 
2.384961455308e-03 2.927150623266e-03 0.0 
0.0 0.0 0.0 
-1.104835353841e-03 9.729575858080e-04 0.0 
9.729575858080e-04 6.973348284345e-03 0.0 
0.0 0.0 0.0 
-1.369861661331e-04 -1.091569288907e-03 0.0 
-1.091569288907e-03 3.710600838762e-03 0.0 
0.0 0.0 0.0 
5.213555205514e-04 -1.126696145246e-03 0.0 
-1.126696145246e-03 2.568302046106e-03 0.0 
0.0 0.0 0.0 
-1.127688032850e-03 4.603318876407e-05 0.0 
4.603318876407e-05 5.846627129680e-03 0.0 
0.0 0.0 0.0 
-1.112620891793e-03 3.433581264246e-05 0.0 
3.433581264246e-05 5.843245075435e-03 0.0 
0.0 0.0 0.0 
-9.521974896712e-04 1.879454269067e-03 0.0 
1.879454269067e-03 5.853532425960e-03 0.0 
0.0 0.0 0.0 
6.933658263129e-04 2.534909143649e-03 0.0 
2.534909143649e-03 2.487951828535e-03 0.0 
0.0 0.0 0.0 
-5.464112073806e-04 -1.607347437081e-03 0.0 
-1.607347437081e-03 2.742345865954e-03 0.0 
0.0 0.0 0.0 
-3.755192761503e-04 2.366388349409e-03 0.0 
2.366388349409e-03 4.561263629708e-03 0.0 
0.0 0.0 0.0 
2.119573322039e-03 2.440912209347e-03 0.0 
2.440912209347e-03 -4.290693287771e-04 0.0 
0.0 0.0 0.0 
1.235577559102e-03 1.762465200334e-04 0.0 
1.762465200334e-04 2.018980480091e-03 0.0 
0.0 0.0 0.0 
3.257690571879e-03 2.215327190638e-03 0.0 
2.215327190638e-03 -2.157879100846e-03 0.0 
0.0 0.0 0.0 
-2.257618952507e-04 1.522017809541e-03 0.0 
1.522017809541e-03 8.336841438354e-03 0.0 
0.0 0.0 0.0 
-1.432886246704e-03 1.286937632225e-03 0.0 
1.286937632225e-03 5.629130796194e-03 0.0 
0.0 0.0 0.0 
2.018866789578e-03 2.517835195881e-03 0.0 
2.517835195881e-03 7.012426315622e-06 0.0 
0.0 0.0 0.0 
-1.962463367133e-05 -1.809877303566e-03 0.0 
-1.809877303566e-03 2.181780905030e-03 0.0 
0.0 0.0 0.0 
3.940812071654e-03 1.178949727127e-03 0.0 
1.178949727127e-03 -3.436458491880e-03 0.0 
0.0 0.0 0.0 
4.362405211822e-05 -2.118317741655e-03 0.0 
-2.118317741655e-03 1.275734271717e-03 0.0 
0.0 0.0 0.0 
7.021938916096e-04 2.704247383589e-03 0.0 
2.704247383589e-03 2.084263629629e-03 0.0 
0.0 0.0 0.0 
7.285495068610e-05 2.678966650482e-03 0.0 
2.678966650482e-03 2.839020164195e-03 0.0 
0.0 0.0 0.0 
-1.126375130328e-03 1.181506350838e-03 0.0 
1.181506350838e-03 6.728589026879e-03 0.0 
0.0 0.0 0.0 
-2.225147736136e-04 2.393449987760e-03 0.0 
2.393449987760e-03 4.304681153830e-03 0.0 
0.0 0.0 0.0 
-2.749093763559e-04 2.313003541999e-03 0.0 
2.313003541999e-03 4.834233918298e-03 0.0 
0.0 0.0 0.0 
7.149432954456e-04 -1.354081675921e-04 0.0 
-1.354081675921e-04 7.958368019172e-04 0.0 
0.0 0.0 0.0 
-4.020584254472e-05 -2.115098789079e-03 0.0 
-2.115098789079e-03 1.622563300573e-03 0.0 
0.0 0.0 0.0 
-1.364299982527e-04 2.675151236335e-03 0.0 
2.675151236335e-03 2.369428705269e-03 0.0 
0.0 0.0 0.0 
-6.791182228246e-04 2.208397153167e-03 0.0 
2.208397153167e-03 4.818684974809e-03 0.0 
0.0 0.0 0.0 
-7.158232241726e-04 2.140882847744e-03 0.0 
2.140882847744e-03 5.264663218139e-03 0.0 
0.0 0.0 0.0 
1.432700213396e-03 8.962247670848e-04 0.0 
8.962247670848e-04 1.807510442637e-03 0.0 
0.0 0.0 0.0 
-4.968201286624e-04 -1.382694969732e-04 0.0 
-1.382694969732e-04 1.891017806367e-03 0.0 
0.0 0.0 0.0 
3.349949073412e-03 -1.726964446503e-03 0.0 
-1.726964446503e-03 -4.102650788147e-03 0.0 
0.0 0.0 0.0 
9.948516420100e-04 2.797472515972e-03 0.0 
2.797472515972e-03 1.087373000574e-03 0.0 
0.0 0.0 0.0 
-2.943775546231e-04 -2.068036349817e-03 0.0 
-2.068036349817e-03 1.616912041930e-03 0.0 
0.0 0.0 0.0 
-1.603282735955e-03 1.102721179165e-03 0.0 
1.102721179165e-03 4.813392349368e-03 0.0 
0.0 0.0 0.0 
-1.645029843696e-03 1.054210299506e-03 0.0 
1.054210299506e-03 5.113594232239e-03 0.0 
0.0 0.0 0.0 
-1.232646105608e-03 1.214620959300e-03 0.0 
1.214620959300e-03 6.725070958669e-03 0.0 
0.0 0.0 0.0 
2.401061633072e-03 3.070988372324e-03 0.0 
3.070988372324e-03 -1.961117076531e-03 0.0 
0.0 0.0 0.0 
-3.517314811177e-04 -1.800670930387e-03 0.0 
-1.800670930387e-03 2.448151616004e-03 0.0 
0.0 0.0 0.0 
1.944204210097e-03 -1.977372538461e-04 0.0 
-1.977372538461e-04 5.792467883257e-04 0.0 
0.0 0.0 0.0 
3.518326811894e-03 -5.091799822467e-04 0.0 
-5.091799822467e-04 -4.365901495167e-03 0.0 
0.0 0.0 0.0 
1.670904548701e-04 2.217048046561e-03 0.0 
2.217048046561e-03 4.798109834211e-03 0.0 
0.0 0.0 0.0 
-7.995484193185e-04 1.136294145405e-03 0.0 
1.136294145405e-03 7.763424434803e-03 0.0 
0.0 0.0 0.0 
-8.660482301037e-04 -1.648930074170e-03 0.0 
-1.648930074170e-03 2.689180510597e-03 0.0 
0.0 0.0 0.0 
-1.744860240827e-04 -1.071761639069e-03 0.0 
-1.071761639069e-03 3.791857062542e-03 0.0 
0.0 0.0 0.0 
5.440018383771e-04 -2.683437686299e-04 0.0 
-2.683437686299e-04 5.218483599188e-04 0.0 
0.0 0.0 0.0 
1.946966683708e-03 -5.773042757912e-04 0.0 
-5.773042757912e-04 3.049726722397e-04 0.0 
0.0 0.0 0.0 
8.639861886972e-04 2.765390646304e-03 0.0 
2.765390646304e-03 1.773499286037e-03 0.0 
0.0 0.0 0.0 
7.092107754345e-04 -2.038507131106e-04 0.0 
-2.038507131106e-04 4.688997239870e-04 0.0 
0.0 0.0 0.0 
-6.873914671827e-04 1.141366441454e-03 0.0 
1.141366441454e-03 7.762750516310e-03 0.0 
0.0 0.0 0.0 
3.174032897391e-03 -7.436348477328e-04 0.0 
-7.436348477328e-04 -4.343202001062e-03 0.0 
0.0 0.0 0.0 
-6.235110053788e-04 2.277370670393e-03 0.0 
2.277370670393e-03 4.807822859731e-03 0.0 
0.0 0.0 0.0 
2.014812676425e-04 2.720584910868e-03 0.0 
2.720584910868e-03 2.832830688981e-03 0.0 
0.0 0.0 0.0 
2.957804875948e-03 -1.230309772782e-03 0.0 
-1.230309772782e-03 -2.120219708795e-03 0.0 
0.0 0.0 0.0 
1.772962294906e-03 -1.447418712762e-03 0.0 
-1.447418712762e-03 9.874001374022e-05 0.0 
0.0 0.0 0.0 
-6.117454441379e-04 1.292589336669e-03 0.0 
1.292589336669e-03 7.777094134323e-03 0.0 
0.0 0.0 0.0 
1.618003665601e-03 -1.179684928276e-03 0.0 
-1.179684928276e-03 7.125952957789e-04 0.0 
0.0 0.0 0.0 
1.369938396048e-03 2.715604118815e-03 0.0 
2.715604118815e-03 6.657556190983e-04 0.0 
0.0 0.0 0.0 
1.202692705822e-03 2.738618275479e-03 0.0 
2.738618275479e-03 1.094916331842e-03 0.0 
0.0 0.0 0.0 
-1.190135699155e-03 2.141616806229e-03 0.0 
2.141616806229e-03 1.116414527359e-03 0.0 
0.0 0.0 0.0 
3.039266861588e-03 -5.360706978851e-04 0.0 
-5.360706978851e-04 -4.628433591483e-03 0.0 
0.0 0.0 0.0 
7.349216257080e-04 2.228271036834e-03 0.0 
2.228271036834e-03 3.400433795783e-03 0.0 
0.0 0.0 0.0 
-1.347727166992e-03 1.370771047477e-03 0.0 
1.370771047477e-03 6.152618964486e-03 0.0 
0.0 0.0 0.0 
7.330874288829e-04 2.185225580785e-03 0.0 
2.185225580785e-03 3.271850838774e-03 0.0 
0.0 0.0 0.0 
2.313908576744e-03 3.080375537787e-03 0.0 
3.080375537787e-03 -1.626347033217e-03 0.0 
0.0 0.0 0.0 
-7.126479910106e-04 1.820809045880e-03 0.0 
1.820809045880e-03 6.479842615911e-03 0.0 
0.0 0.0 0.0 
4.666726407327e-04 2.267804713287e-03 0.0 
2.267804713287e-03 4.055673245520e-03 0.0 
0.0 0.0 0.0 
-1.491019143425e-03 1.162663648327e-03 0.0 
1.162663648327e-03 5.080417601841e-03 0.0 
0.0 0.0 0.0 
5.917891354086e-04 2.273985799351e-03 0.0 
2.273985799351e-03 3.393553910720e-03 0.0 
0.0 0.0 0.0 
-3.556249233744e-04 -1.100056522974e-03 0.0 
-1.100056522974e-03 3.797465695627e-03 0.0 
0.0 0.0 0.0 
9.850786208994e-04 2.595247806584e-03 0.0 
2.595247806584e-03 1.770529615136e-03 0.0 
0.0 0.0 0.0 
-4.337597592619e-05 -1.976981345307e-03 0.0 
-1.976981345307e-03 1.880288574828e-03 0.0 
0.0 0.0 0.0 
2.993772818294e-05 -1.979348814076e-03 0.0 
-1.979348814076e-03 1.577857783953e-03 0.0 
0.0 0.0 0.0 
-6.327448240334e-04 1.685285076601e-03 0.0 
1.685285076601e-03 7.462751076179e-03 0.0 
0.0 0.0 0.0 
1.854104919282e-03 -1.612125903441e-03 0.0 
-1.612125903441e-03 -3.784771190745e-04 0.0 
0.0 0.0 0.0 
3.899838337260e-04 2.731055471742e-03 0.0 
2.731055471742e-03 2.450129297266e-03 0.0 
0.0 0.0 0.0 
2.948249342119e-03 1.948263796957e-03 0.0 
1.948263796957e-03 -1.502537077759e-03 0.0 
0.0 0.0 0.0 
1.394957756309e-03 -9.356799658467e-04 0.0 
-9.356799658467e-04 1.344289514014e-03 0.0 
0.0 0.0 0.0 
2.585291572645e-03 2.389237662007e-03 0.0 
2.389237662007e-03 -7.660512531386e-04 0.0 
0.0 0.0 0.0 
4.220783596924e-03 3.030953507905e-04 0.0 
3.030953507905e-04 -3.762539460398e-03 0.0 
0.0 0.0 0.0 
3.159791904975e-03 -3.464924410361e-04 0.0 
-3.464924410361e-04 -1.807227124379e-03 0.0 
0.0 0.0 0.0 
4.231062925851e-03 1.022874359856e-03 0.0 
1.022874359856e-03 -3.604445978245e-03 0.0 
0.0 0.0 0.0 
-4.551713512279e-04 2.322009225292e-03 0.0 
2.322009225292e-03 4.567996518391e-03 0.0 
0.0 0.0 0.0 
4.223142506319e-03 2.327244988516e-04 0.0 
2.327244988516e-04 -3.481660379344e-03 0.0 
0.0 0.0 0.0 
-2.142446161119e-04 2.513108205365e-03 0.0 
2.513108205365e-03 4.022725661743e-03 0.0 
0.0 0.0 0.0 
1.620705961126e-03 9.777744473066e-04 0.0 
9.777744473066e-04 1.655863490549e-03 0.0 
0.0 0.0 0.0 
1.815566898378e-03 9.117302935088e-04 0.0 
9.117302935088e-04 1.078070234728e-03 0.0 
0.0 0.0 0.0 
2.739556953519e-03 2.422592389373e-03 0.0 
2.422592389373e-03 -1.553017747838e-03 0.0 
0.0 0.0 0.0 
-1.189128536146e-03 1.242089223211e-03 0.0 
1.242089223211e-03 6.443907574893e-03 0.0 
0.0 0.0 0.0 
-3.468291914024e-04 -9.432144554563e-04 0.0 
-9.432144554563e-04 4.242256536598e-03 0.0 
0.0 0.0 0.0 
-4.965027612578e-04 -9.621480623746e-04 0.0 
-9.621480623746e-04 4.246263035485e-03 0.0 
0.0 0.0 0.0 
1.387831836781e-03 3.209263229423e-03 0.0 
3.209263229423e-03 -1.611438703803e-03 0.0 
0.0 0.0 0.0 
-7.242175724631e-05 2.515422532332e-03 0.0 
2.515422532332e-03 3.727943286276e-03 0.0 
0.0 0.0 0.0 
-3.787503082393e-04 -7.379119779920e-04 0.0 
-7.379119779920e-04 4.984770704024e-03 0.0 
0.0 0.0 0.0 
-7.419399801886e-04 1.980083073980e-03 0.0 
1.980083073980e-03 2.753891311982e-03 0.0 
0.0 0.0 0.0 
-8.231352981914e-04 -1.531979033649e-03 0.0 
-1.531979033649e-03 2.955393697998e-03 0.0 
0.0 0.0 0.0 
-1.638274415346e-03 2.493893362281e-03 0.0 
2.493893362281e-03 1.435831968750e-03 0.0 
0.0 0.0 0.0 
-4.706170707960e-04 -8.108242892641e-04 0.0 
-8.108242892641e-04 4.638475838352e-03 0.0 
0.0 0.0 0.0 
4.092143592883e-03 1.163632349705e-03 0.0 
1.163632349705e-03 -3.804818215976e-03 0.0 
0.0 0.0 0.0 
-1.610418994406e-03 -4.284417454195e-04 0.0 
-4.284417454195e-04 4.233355169705e-03 0.0 
0.0 0.0 0.0 
1.898197752259e-03 1.811884648811e-03 0.0 
1.811884648811e-03 6.933257787680e-04 0.0 
0.0 0.0 0.0 
-1.297253122101e-03 1.281842979539e-03 0.0 
1.281842979539e-03 6.439201096313e-03 0.0 
0.0 0.0 0.0 
-1.256487960909e-03 1.311064917415e-03 0.0 
1.311064917415e-03 6.160007238648e-03 0.0 
0.0 0.0 0.0 
1.019626707768e-03 2.743799743385e-03 0.0 
2.743799743385e-03 1.372593889833e-03 0.0 
0.0 0.0 0.0 
-1.480326970970e-03 1.230594482061e-03 0.0 
1.230594482061e-03 4.203747848315e-03 0.0 
0.0 0.0 0.0 
-1.548809893817e-03 1.161354685254e-03 0.0 
1.161354685254e-03 4.517390566622e-03 0.0 
0.0 0.0 0.0 
-5.908175264752e-04 -8.254875035608e-04 0.0 
-8.254875035608e-04 4.641692396841e-03 0.0 
0.0 0.0 0.0 
1.681655441375e-03 -1.351915332366e-03 0.0 
-1.351915332366e-03 7.282541652409e-05 0.0 
0.0 0.0 0.0 
2.728841140319e-03 -1.101460720118e-03 0.0 
-1.101460720118e-03 -1.649516853050e-03 0.0 
0.0 0.0 0.0 
2.130873794138e-03 -3.074101855661e-04 0.0 
-3.074101855661e-04 2.706279969802e-04 0.0 
0.0 0.0 0.0 
3.545876468769e-03 -3.453185941013e-04 0.0 
-3.453185941013e-04 -2.317855742781e-03 0.0 
0.0 0.0 0.0 
4.103316848575e-03 1.031908189747e-03 0.0 
1.031908189747e-03 -3.303225544732e-03 0.0 
0.0 0.0 0.0 
-1.394251699299e-03 1.054178218378e-03 0.0 
1.054178218378e-03 4.242934520897e-03 0.0 
0.0 0.0 0.0 
-1.482766317778e-03 1.269731995552e-03 0.0 
1.269731995552e-03 5.902142080305e-03 0.0 
0.0 0.0 0.0 
-1.119598809668e-03 4.116227035953e-05 0.0 
4.116227035953e-05 5.837726876650e-03 0.0 
0.0 0.0 0.0 
1.872878150448e-03 7.138122838838e-04 0.0 
7.138122838838e-04 1.105817059888e-03 0.0 
0.0 0.0 0.0 
3.130058562770e-03 2.191597063102e-03 0.0 
2.191597063102e-03 -1.521591847552e-03 0.0 
0.0 0.0 0.0 
9.289549626517e-04 1.329711159585e-03 0.0 
1.329711159585e-03 2.872914796657e-03 0.0 
0.0 0.0 0.0 
-9.068343107328e-04 -3.319522282592e-04 0.0 
-3.319522282592e-04 5.218795315329e-03 0.0 
0.0 0.0 0.0 
3.461935155493e-03 -2.751047426167e-04 0.0 
-2.751047426167e-04 -2.242878589701e-03 0.0 
0.0 0.0 0.0 
-2.463235943059e-04 -8.406294463715e-04 0.0 
-8.406294463715e-04 4.954513586309e-03 0.0 
0.0 0.0 0.0 
4.119108176952e-03 -4.871687737997e-04 0.0 
-4.871687737997e-04 -3.439957053695e-03 0.0 
0.0 0.0 0.0 
1.004220384516e-03 1.554829526359e-03 0.0 
1.554829526359e-03 2.748256903853e-03 0.0 
0.0 0.0 0.0 
1.248656302858e-03 2.667410584775e-03 0.0 
2.667410584775e-03 1.382791478741e-03 0.0 
0.0 0.0 0.0 
1.245088137493e-03 2.401228732098e-03 0.0 
2.401228732098e-03 1.531474833528e-03 0.0 
0.0 0.0 0.0 
1.317179591669e-03 -2.517310694836e-04 0.0 
-2.517310694836e-04 1.790650174250e-03 0.0 
0.0 0.0 0.0 
4.484741947561e-04 -2.491383980863e-03 0.0 
-2.491383980863e-03 3.614169572406e-04 0.0 
0.0 0.0 0.0 
1.344544421231e-04 2.642986149211e-03 0.0 
2.642986149211e-03 3.106808465778e-03 0.0 
0.0 0.0 0.0 
3.274630571603e-03 -7.599365978626e-04 0.0 
-7.599365978626e-04 -2.253125756206e-03 0.0 
0.0 0.0 0.0 
-2.858863262156e-05 2.634485349555e-03 0.0 
2.634485349555e-03 3.440574723010e-03 0.0 
0.0 0.0 0.0 
2.292900898220e-03 2.943380290113e-03 0.0 
2.943380290113e-03 -9.976906299128e-04 0.0 
0.0 0.0 0.0 
1.450461800395e-03 2.188586532965e-03 0.0 
2.188586532965e-03 1.389199912527e-03 0.0 
0.0 0.0 0.0 
3.348947561362e-03 -8.552746561458e-04 0.0 
-8.552746561458e-04 -2.182661923154e-03 0.0 
0.0 0.0 0.0 
-2.996896788277e-04 -1.629097679936e-03 0.0 
-1.629097679936e-03 2.744256656874e-03 0.0 
0.0 0.0 0.0 
-1.474727230214e-04 2.584360055441e-03 0.0 
2.584360055441e-03 3.447802042802e-03 0.0 
0.0 0.0 0.0 
-8.161935709521e-04 3.781096265734e-03 0.0 
3.781096265734e-03 -7.495169406392e-04 0.0 
0.0 0.0 0.0 
2.602481896177e-03 1.869653446099e-03 0.0 
1.869653446099e-03 -8.250370462402e-04 0.0 
0.0 0.0 0.0 
-7.247283071645e-04 3.067091489359e-03 0.0 
3.067091489359e-03 8.188164718601e-04 0.0 
0.0 0.0 0.0 
-1.499330225774e-04 -7.189615448857e-04 0.0 
-7.189615448857e-04 1.096222881684e-03 0.0 
0.0 0.0 0.0 
-6.080759327124e-04 -1.593087031376e-03 0.0 
-1.593087031376e-03 2.964446642239e-03 0.0 
0.0 0.0 0.0 
1.407280601637e-04 2.354766996009e-03 0.0 
2.354766996009e-03 4.409607456949e-03 0.0 
0.0 0.0 0.0 
-1.161872557179e-03 1.485857657741e-03 0.0 
1.485857657741e-03 6.091502450081e-03 0.0 
0.0 0.0 0.0 
-1.289215161024e-03 1.408845184533e-03 0.0 
1.408845184533e-03 3.575545108424e-03 0.0 
0.0 0.0 0.0 
0.0 1.544046576499e-03 0.0 
1.544046576499e-03 8.275768922944e-03 0.0 
0.0 0.0 0.0 
-2.183582239582e-03 2.991992461933e-03 0.0 
2.991992461933e-03 2.992740900878e-04 0.0 
0.0 0.0 0.0 
-1.382703422518e-03 1.315134853976e-03 0.0 
1.315134853976e-03 3.900393971555e-03 0.0 
0.0 0.0 0.0 
2.554044808859e-03 -1.079451685383e-03 0.0 
-1.079451685383e-03 -1.206863679233e-03 0.0 
0.0 0.0 0.0 
-1.075429024017e-03 -1.409057697147e-03 0.0 
-1.409057697147e-03 3.155510327316e-03 0.0 
0.0 0.0 0.0 
-1.311604542065e-03 1.726527792936e-03 0.0 
1.726527792936e-03 4.231864687652e-03 0.0 
0.0 0.0 0.0 
3.279315177217e-03 -1.621490814224e-03 0.0 
-1.621490814224e-03 -2.502415868087e-03 0.0 
0.0 0.0 0.0 
1.877089877273e-03 -1.588853126998e-03 0.0 
-1.588853126998e-03 -5.601308013155e-04 0.0 
0.0 0.0 0.0 
9.283706799856e-04 2.663218819036e-03 0.0 
2.663218819036e-03 2.089140997326e-03 0.0 
0.0 0.0 0.0 
2.259108396821e-03 1.645549930364e-03 0.0 
1.645549930364e-03 1.789764010485e-05 0.0 
0.0 0.0 0.0 
-2.748012122891e-04 2.228550045015e-03 0.0 
2.228550045015e-03 5.624206253287e-03 0.0 
0.0 0.0 0.0 
2.323814247921e-03 3.393943653846e-03 0.0 
3.393943653846e-03 -3.007216968637e-03 0.0 
0.0 0.0 0.0 
-6.636284975327e-04 -1.734704551469e-03 0.0 
-1.734704551469e-03 2.701233569393e-03 0.0 
0.0 0.0 0.0 
-1.075873930570e-03 -1.265938575874e-03 0.0 
-1.265938575874e-03 3.583904015101e-03 0.0 
0.0 0.0 0.0 
-2.537657547947e-04 -2.130673930057e-03 0.0 
-2.130673930057e-03 1.124323776387e-03 0.0 
0.0 0.0 0.0 
-1.515985833474e-03 1.125413141234e-03 0.0 
1.125413141234e-03 5.392354830829e-03 0.0 
0.0 0.0 0.0 
-1.239829841393e-03 1.546437631200e-03 0.0 
1.546437631200e-03 6.083392296169e-03 0.0 
0.0 0.0 0.0 
-1.243886738287e-03 -1.461866758164e-04 0.0 
-1.461866758164e-04 4.932137647498e-03 0.0 
0.0 0.0 0.0 
1.172652799228e-03 -2.705370921246e-04 0.0 
-2.705370921246e-04 2.564693067426e-04 0.0 
0.0 0.0 0.0 
3.754357720414e-04 -6.672165469787e-04 0.0 
-6.672165469787e-04 -4.661817731423e-03 0.0 
0.0 0.0 0.0 
-2.718908343770e-04 -1.712313048053e-03 0.0 
-1.712313048053e-03 1.082690591069e-03 0.0 
0.0 0.0 0.0 
-1.235350187386e-03 -1.159858571913e-03 0.0 
-1.159858571913e-03 3.567634897118e-03 0.0 
0.0 0.0 0.0 
4.031743380022e-03 -4.345204102999e-04 0.0 
-4.345204102999e-04 -3.132440120684e-03 0.0 
0.0 0.0 0.0 
3.349139483491e-03 -1.719432302513e-03 0.0 
-1.719432302513e-03 -2.955367923944e-03 0.0 
0.0 0.0 0.0 
4.038684266732e-03 -5.582103760549e-04 0.0 
-5.582103760549e-04 -3.632740558523e-03 0.0 
0.0 0.0 0.0 
-8.174861044100e-04 -1.368965708220e-03 0.0 
-1.368965708220e-03 3.427394916747e-03 0.0 
0.0 0.0 0.0 
-9.057120047248e-04 1.820834979047e-03 0.0 
1.820834979047e-03 5.864513416710e-03 0.0 
0.0 0.0 0.0 
-1.211193458807e-03 -1.017939229556e-03 0.0 
-1.017939229556e-03 3.938301343736e-03 0.0 
0.0 0.0 0.0 
4.200287149523e-03 2.231279722188e-04 0.0 
2.231279722188e-04 -3.241026637038e-03 0.0 
0.0 0.0 0.0 
8.407031483149e-05 2.537083757293e-03 0.0 
2.537083757293e-03 3.724461827092e-03 0.0 
0.0 0.0 0.0 
-1.337255252991e-03 6.097553732148e-04 0.0 
6.097553732148e-04 6.278254592967e-03 0.0 
0.0 0.0 0.0 
1.612683309140e-03 1.674975548788e-03 0.0 
1.674975548788e-03 1.403283691845e-03 0.0 
0.0 0.0 0.0 
-1.347677893528e-03 -9.073423922602e-04 0.0 
-9.073423922602e-04 3.920762063903e-03 0.0 
0.0 0.0 0.0 
-1.009496148789e-03 -1.295232617974e-03 0.0 
-1.295232617974e-03 3.415948122294e-03 0.0 
0.0 0.0 0.0 
-1.081692695207e-03 1.577207589441e-03 0.0 
1.577207589441e-03 3.004868619809e-03 0.0 
0.0 0.0 0.0 
3.679790768367e-03 -9.702774002525e-04 0.0 
-9.702774002525e-04 -2.870977512591e-03 0.0 
0.0 0.0 0.0 
-1.305408685927e-03 -7.681492875599e-04 0.0 
-7.681492875599e-04 4.243054989874e-03 0.0 
0.0 0.0 0.0 
-9.539245716031e-04 6.379679894860e-05 0.0 
6.379679894860e-05 7.242347157445e-03 0.0 
0.0 0.0 0.0 
-1.029326883976e-03 5.490976523193e-05 0.0 
5.490976523193e-05 6.904291562333e-03 0.0 
0.0 0.0 0.0 
-1.185105545009e-03 1.495415947701e-03 0.0 
1.495415947701e-03 3.290001684444e-03 0.0 
0.0 0.0 0.0 
-9.822364003531e-04 -1.135226597371e-03 0.0 
-1.135226597371e-03 3.833325358276e-03 0.0 
0.0 0.0 0.0 
2.252659134275e-03 -2.409352095315e-03 0.0 
-2.409352095315e-03 -1.993302333260e-03 0.0 
0.0 0.0 0.0 
1.071582167531e-04 3.087852680041e-03 0.0 
3.087852680041e-03 2.762629683020e-04 0.0 
0.0 0.0 0.0 
1.076108573131e-03 1.417861268313e-03 0.0 
1.417861268313e-03 2.778284933270e-03 0.0 
0.0 0.0 0.0 
-3.731668190723e-04 -2.007540218571e-03 0.0 
-2.007540218571e-03 9.402192393504e-04 0.0 
0.0 0.0 0.0 
2.146834102819e-03 -2.260838171656e-03 0.0 
-2.260838171656e-03 -1.298426715283e-03 0.0 
0.0 0.0 0.0 
2.697525651033e-03 1.983664171656e-03 0.0 
1.983664171656e-03 -6.958637527656e-04 0.0 
0.0 0.0 0.0 
-1.225225703794e-03 1.187466278275e-03 0.0 
1.187466278275e-03 3.641542326008e-03 0.0 
0.0 0.0 0.0 
-1.420856568633e-03 -6.577555630725e-04 0.0 
-6.577555630725e-04 4.217386816384e-03 0.0 
0.0 0.0 0.0 
-1.140139900401e-03 -4.814220755066e-05 0.0 
-4.814220755066e-05 2.639746959118e-03 0.0 
0.0 0.0 0.0 
-1.602311195904e-03 1.121085998588e-03 0.0 
1.121085998588e-03 5.649114809962e-03 0.0 
0.0 0.0 0.0 
-1.147742325662e-03 -1.056306855645e-03 0.0 
-1.056306855645e-03 3.820802004817e-03 0.0 
0.0 0.0 0.0 
2.407164238276e-03 -1.485143212544e-03 0.0 
-1.485143212544e-03 -1.460491882421e-03 0.0 
0.0 0.0 0.0 
-5.863640266001e-04 -1.755096870953e-03 0.0 
-1.755096870953e-03 2.442325696230e-03 0.0 
0.0 0.0 0.0 
1.460470839341e-04 2.703406046472e-03 0.0 
2.703406046472e-03 -2.495469105850e-03 0.0 
0.0 0.0 0.0 
-6.237779058702e-04 5.624219421647e-05 0.0 
5.624219421647e-05 8.206805424274e-03 0.0 
0.0 0.0 0.0 
2.715289982130e-03 -1.854461162668e-03 0.0 
-1.854461162668e-03 -2.202153451852e-03 0.0 
0.0 0.0 0.0 
1.511718507977e-03 4.318847690065e-04 0.0 
4.318847690065e-04 1.709520737074e-03 0.0 
0.0 0.0 0.0 
1.509117447717e-03 2.287104244723e-03 0.0 
2.287104244723e-03 1.550347897752e-03 0.0 
0.0 0.0 0.0 
-1.105107949390e-03 -9.026844043998e-04 0.0 
-9.026844043998e-04 4.185187656298e-03 0.0 
0.0 0.0 0.0 
-1.244938627400e-03 -8.176388234478e-04 0.0 
-8.176388234478e-04 4.171593928179e-03 0.0 
0.0 0.0 0.0 
4.085452958375e-03 -4.568930803136e-04 0.0 
-4.568930803136e-04 -3.275948995988e-03 0.0 
0.0 0.0 0.0 
-6.755217925871e-04 -1.793368141914e-03 0.0 
-1.793368141914e-03 8.713622361525e-04 0.0 
0.0 0.0 0.0 
6.627675959507e-04 3.479209623126e-03 0.0 
3.479209623126e-03 -2.654082989675e-03 0.0 
0.0 0.0 0.0 
-1.191391104700e-03 -6.732220090604e-04 0.0 
-6.732220090604e-04 4.493345133281e-03 0.0 
0.0 0.0 0.0 
1.411342593798e-03 -6.489967680817e-05 0.0 
-6.489967680817e-05 1.797336237689e-03 0.0 
0.0 0.0 0.0 
1.184175793737e-03 -2.577390342933e-03 0.0 
-2.577390342933e-03 -7.003574403013e-04 0.0 
0.0 0.0 0.0 
1.927405812605e-04 2.518468789583e-03 0.0 
2.518468789583e-03 3.440755991611e-03 0.0 
0.0 0.0 0.0 
-5.961562957237e-04 2.064538267595e-03 0.0 
2.064538267595e-03 2.436341095175e-03 0.0 
0.0 0.0 0.0 
-1.171713865717e-04 2.418357057233e-03 0.0 
2.418357057233e-03 4.300681062306e-03 0.0 
0.0 0.0 0.0 
4.506264464448e-04 -7.047002268426e-04 0.0 
-7.047002268426e-04 3.785098216064e-03 0.0 
0.0 0.0 0.0 
-4.896046293352e-03 -8.886514641706e-05 0.0 
-8.886514641706e-05 -2.741860269023e-03 0.0 
0.0 0.0 0.0 
0.0 1.684002368605e-04 0.0 
1.684002368605e-04 8.954863430744e-03 0.0 
0.0 0.0 0.0 
0.0 -2.683029559369e-04 0.0 
-2.683029559369e-04 5.935209859512e-03 0.0 
0.0 0.0 0.0 
-1.090023796237e-03 -2.235327079712e-05 0.0 
-2.235327079712e-05 6.282071483098e-03 0.0 
0.0 0.0 0.0 
1.665519608493e-03 -2.277829571660e-03 0.0 
-2.277829571660e-03 -1.012488831174e-03 0.0 
0.0 0.0 0.0 
1.262445746212e-03 2.501172837486e-03 0.0 
2.501172837486e-03 1.784181351432e-03 0.0 
0.0 0.0 0.0 
4.224685380935e-03 2.267857545633e-04 0.0 
2.267857545633e-04 -3.284011752412e-03 0.0 
0.0 0.0 0.0 
2.162835865136e-04 -5.485343230757e-04 0.0 
-5.485343230757e-04 8.406997485062e-04 0.0 
0.0 0.0 0.0 
-2.201928565272e-03 2.838733763340e-03 0.0 
2.838733763340e-03 1.120298738982e-03 0.0 
0.0 0.0 0.0 
-5.313747670330e-04 5.075181373350e-04 0.0 
5.075181373350e-04 8.383053464348e-03 0.0 
0.0 0.0 0.0 
-1.109475800361e-03 1.720533408349e-03 0.0 
1.720533408349e-03 5.985633886200e-03 0.0 
0.0 0.0 0.0 
-1.682382613961e-03 1.028089785301e-03 0.0 
1.028089785301e-03 5.394927430578e-03 0.0 
0.0 0.0 0.0 
2.370496670789e-04 2.330274330833e-03 0.0 
2.330274330833e-03 5.014611182699e-03 0.0 
0.0 0.0 0.0 
-7.135425260112e-04 -1.091569506407e-05 0.0 
-1.091569506407e-05 2.165386518368e-03 0.0 
0.0 0.0 0.0 
2.573820925516e-04 2.157825452916e-03 0.0 
2.157825452916e-03 4.747484753647e-03 0.0 
0.0 0.0 0.0 
-1.046040777128e-03 1.663220982527e-03 0.0 
1.663220982527e-03 5.994953842428e-03 0.0 
0.0 0.0 0.0 
8.504248078152e-04 -2.465561219335e-03 0.0 
-2.465561219335e-03 -7.808603595805e-05 0.0 
0.0 0.0 0.0 
1.331189837839e-03 2.609317474184e-03 0.0 
2.609317474184e-03 1.034354520965e-03 0.0 
0.0 0.0 0.0 
1.595994760554e-03 -2.285725187496e-03 0.0 
-2.285725187496e-03 -6.329368593776e-04 0.0 
0.0 0.0 0.0 
4.754097633564e-05 2.813437487364e-03 0.0 
2.813437487364e-03 7.001175734016e-04 0.0 
0.0 0.0 0.0 
1.123211883771e-03 -2.443228091648e-03 0.0 
-2.443228091648e-03 -1.732633283189e-04 0.0 
0.0 0.0 0.0 
-7.473642164597e-04 1.967695586680e-03 0.0 
1.967695586680e-03 5.702284651545e-03 0.0 
0.0 0.0 0.0 
-8.003610904828e-04 -4.360678399111e-04 0.0 
-4.360678399111e-04 5.249847471382e-03 0.0 
0.0 0.0 0.0 
2.723650501012e-03 -1.943256625645e-03 0.0 
-1.943256625645e-03 -1.852732909722e-03 0.0 
0.0 0.0 0.0 
1.107607276607e-05 2.424754242375e-03 0.0 
2.424754242375e-03 4.047182895457e-03 0.0 
0.0 0.0 0.0 
-1.692937176563e-03 -2.124615759580e-04 0.0 
-2.124615759580e-04 -4.371833858235e-03 0.0 
0.0 0.0 0.0 
3.736856993332e-03 -1.044709667779e-03 0.0 
-1.044709667779e-03 -2.816172295168e-03 0.0 
0.0 0.0 0.0 
-9.296285945878e-04 1.702324029903e-03 0.0 
1.702324029903e-03 6.574325046736e-03 0.0 
0.0 0.0 0.0 
3.097191102919e-04 -2.436961612228e-03 0.0 
-2.436961612228e-03 7.930740238649e-04 0.0 
0.0 0.0 0.0 
7.166787266448e-04 -2.640300610249e-03 0.0 
-2.640300610249e-03 -1.786663892751e-04 0.0 
0.0 0.0 0.0 
1.597569969086e-03 2.494580510576e-03 0.0 
2.494580510576e-03 1.051371834451e-03 0.0 
0.0 0.0 0.0 
1.951821304472e-03 -2.977172862039e-03 0.0 
-2.977172862039e-03 -1.905530295825e-03 0.0 
0.0 0.0 0.0 
-8.775799161304e-04 1.698999366410e-03 0.0 
1.698999366410e-03 2.543189666548e-03 0.0 
0.0 0.0 0.0 
-9.627530157853e-04 1.682690164860e-03 0.0 
1.682690164860e-03 2.730835551220e-03 0.0 
0.0 0.0 0.0 
2.328343016857e-04 -2.449805130563e-03 0.0 
-2.449805130563e-03 7.462236189324e-04 0.0 
0.0 0.0 0.0 
2.314032073049e-03 -1.392765346879e-03 0.0 
-1.392765346879e-03 -1.145990953333e-03 0.0 
0.0 0.0 0.0 
2.641689353893e-03 2.277348221088e-03 0.0 
2.277348221088e-03 -1.217093528767e-03 0.0 
0.0 0.0 0.0 
1.305673564809e-04 2.425745997436e-03 0.0 
2.425745997436e-03 4.046680605535e-03 0.0 
0.0 0.0 0.0 
-2.575704486786e-04 2.150751526869e-03 0.0 
2.150751526869e-03 6.496802686992e-03 0.0 
0.0 0.0 0.0 
-9.999165409105e-04 1.335930069862e-03 0.0 
1.335930069862e-03 3.054362438152e-03 0.0 
0.0 0.0 0.0 
-8.586706839386e-04 3.470232549369e-05 0.0 
3.470232549369e-05 7.584649570047e-03 0.0 
0.0 0.0 0.0 
9.205194468054e-05 2.330777354177e-03 0.0 
2.330777354177e-03 5.185759898453e-03 0.0 
0.0 0.0 0.0 
4.272126962633e-03 2.441266067520e-04 0.0 
2.441266067520e-04 -3.555729436737e-03 0.0 
0.0 0.0 0.0 
-4.039384857581e-04 2.750252666849e-03 0.0 
2.750252666849e-03 8.072158621013e-04 0.0 
0.0 0.0 0.0 
-7.617552145632e-04 2.202196835079e-03 0.0 
2.202196835079e-03 2.714604599675e-03 0.0 
0.0 0.0 0.0 
1.999707230583e-03 -1.692769052263e-03 0.0 
-1.692769052263e-03 -9.587672177317e-04 0.0 
0.0 0.0 0.0 
-3.315608225005e-04 2.294247967970e-03 0.0 
2.294247967970e-03 4.836835586605e-03 0.0 
0.0 0.0 0.0 
2.298461977519e-03 -1.410662908770e-03 0.0 
-1.410662908770e-03 -1.003290745327e-03 0.0 
0.0 0.0 0.0 
1.668194920233e-03 3.132730933419e-03 0.0 
3.132730933419e-03 -2.532301608572e-03 0.0 
0.0 0.0 0.0 
2.089378876839e-03 -1.258947037047e-03 0.0 
-1.258947037047e-03 -5.996400788403e-04 0.0 
0.0 0.0 0.0 
-5.705385109911e-05 2.630017563019e-03 0.0 
2.630017563019e-03 1.042622920620e-03 0.0 
0.0 0.0 0.0 
2.955507429206e-03 2.059540679225e-03 0.0 
2.059540679225e-03 -1.187591248399e-03 0.0 
0.0 0.0 0.0 
2.152629838822e-03 -1.320543196537e-03 0.0 
-1.320543196537e-03 -6.031270897413e-04 0.0 
0.0 0.0 0.0 
1.579776842027e-03 2.400167288550e-03 0.0 
2.400167288550e-03 8.109042245521e-04 0.0 
0.0 0.0 0.0 
-1.012877805565e-03 1.697252983673e-04 0.0 
1.697252983673e-04 7.144856783989e-03 0.0 
0.0 0.0 0.0 
2.762364888920e-05 -2.396563310241e-03 0.0 
-2.396563310241e-03 7.399068880514e-04 0.0 
0.0 0.0 0.0 
2.729830998978e-04 3.368582413858e-03 0.0 
3.368582413858e-03 -2.895744409439e-04 0.0 
0.0 0.0 0.0 
2.015071654415e-03 -1.093608679746e-03 0.0 
-1.093608679746e-03 3.228383425835e-05 0.0 
0.0 0.0 0.0 
-1.675512712358e-04 2.459907070417e-03 0.0 
2.459907070417e-03 1.381056654107e-03 0.0 
0.0 0.0 0.0 
5.405239609426e-04 9.202890546853e-04 0.0 
9.202890546853e-04 -4.828078931341e-03 0.0 
0.0 0.0 0.0 
-4.036943388014e-04 1.032095652024e-04 0.0 
1.032095652024e-04 8.495794603725e-03 0.0 
0.0 0.0 0.0 
-5.836331038256e-04 9.135022798770e-05 0.0 
9.135022798770e-05 8.208179193748e-03 0.0 
0.0 0.0 0.0 
-4.391852390881e-04 -5.853784919145e-04 0.0 
-5.853784919145e-04 5.967085193879e-04 0.0 
0.0 0.0 0.0 
1.859857062731e-03 -9.708712682867e-04 0.0 
-9.708712682867e-04 1.278233271205e-04 0.0 
0.0 0.0 0.0 
-2.671191844980e-04 -1.977608932038e-03 0.0 
-1.977608932038e-03 1.097139616588e-03 0.0 
0.0 0.0 0.0 
-4.612263293052e-04 -1.996282107893e-03 0.0 
-1.996282107893e-03 1.420214742704e-03 0.0 
0.0 0.0 0.0 
6.131253782438e-05 2.367174351457e-03 0.0 
2.367174351457e-03 4.408895485366e-03 0.0 
0.0 0.0 0.0 
1.880300342377e-03 2.232654024100e-03 0.0 
2.232654024100e-03 8.322591543823e-04 0.0 
0.0 0.0 0.0 
2.302209727036e-04 2.419759229787e-03 0.0 
2.419759229787e-03 3.811247596046e-03 0.0 
0.0 0.0 0.0 
3.293724173593e-03 -1.587841130409e-03 0.0 
-1.587841130409e-03 -2.712504844111e-03 0.0 
0.0 0.0 0.0 
-1.192786045158e-03 1.189319792582e-04 0.0 
1.189319792582e-04 5.828080395058e-03 0.0 
0.0 0.0 0.0 
1.612466325258e-04 -7.846300310892e-04 0.0 
-7.846300310892e-04 4.059827027401e-03 0.0 
0.0 0.0 0.0 
-4.909025608187e-04 -1.777465371818e-03 0.0 
-1.777465371818e-03 1.308632721736e-03 0.0 
0.0 0.0 0.0 
1.681791872242e-03 4.730675149396e-04 0.0 
4.730675149396e-04 1.339477160240e-03 0.0 
0.0 0.0 0.0 
2.418943869510e-03 2.299531571894e-03 0.0 
2.299531571894e-03 -4.079226162353e-04 0.0 
0.0 0.0 0.0 
-2.443802303224e-04 -3.406458334855e-04 0.0 
-3.406458334855e-04 1.517315061405e-03 0.0 
0.0 0.0 0.0 
-5.334103509194e-04 2.198042011212e-03 0.0 
2.198042011212e-03 5.057779304348e-03 0.0 
0.0 0.0 0.0 
3.980866676067e-03 -4.168121290309e-04 0.0 
-4.168121290309e-04 -2.968703233313e-03 0.0 
0.0 0.0 0.0 
-5.659865452813e-04 -1.836636048215e-03 0.0 
-1.836636048215e-03 8.705747614304e-04 0.0 
0.0 0.0 0.0 
3.763777767459e-03 -1.116274098030e-03 0.0 
-1.116274098030e-03 -3.045339516174e-03 0.0 
0.0 0.0 0.0 
-1.339613125653e-03 -4.720203572188e-05 0.0 
-4.720203572188e-05 4.856429376884e-03 0.0 
0.0 0.0 0.0 
-7.732815139905e-04 2.023285249847e-03 0.0 
2.023285249847e-03 5.689636498609e-03 0.0 
0.0 0.0 0.0 
-1.938895486044e-04 -1.973993326215e-03 0.0 
-1.973993326215e-03 7.222111511087e-04 0.0 
0.0 0.0 0.0 
-1.701267678008e-03 -2.977594297544e-04 0.0 
-2.977594297544e-04 4.206229537177e-03 0.0 
0.0 0.0 0.0 
-1.320148515241e-04 2.349644381500e-03 0.0 
2.349644381500e-03 4.619112057761e-03 0.0 
0.0 0.0 0.0 
1.448797133780e-03 1.678296125012e-03 0.0 
1.678296125012e-03 2.042486331427e-03 0.0 
0.0 0.0 0.0 
6.809661199940e-04 -2.503890485324e-03 0.0 
-2.503890485324e-03 2.906085024437e-04 0.0 
0.0 0.0 0.0 
-1.224310182751e-03 -3.057110341331e-04 0.0 
-3.057110341331e-04 2.634057192812e-03 0.0 
0.0 0.0 0.0 
2.435370282674e-03 2.203573249712e-03 0.0 
2.203573249712e-03 -7.249839012130e-04 0.0 
0.0 0.0 0.0 
-9.904492271235e-04 -2.275220521140e-05 0.0 
-2.275220521140e-05 7.048169881206e-03 0.0 
0.0 0.0 0.0 
-3.173872724974e-04 -2.597315437259e-03 0.0 
-2.597315437259e-03 6.539593718367e-04 0.0 
0.0 0.0 0.0 
1.391605741163e-04 2.456432127200e-03 0.0 
2.456432127200e-03 5.323299528351e-03 0.0 
0.0 0.0 0.0 
-1.877111485767e-04 2.038951504108e-03 0.0 
2.038951504108e-03 7.200105435351e-03 0.0 
0.0 0.0 0.0 
-1.067275117230e-03 1.028085869859e-05 0.0 
1.028085869859e-05 6.521954825820e-03 0.0 
0.0 0.0 0.0 
-4.831201904346e-04 1.182712221524e-03 0.0 
1.182712221524e-03 8.256344539826e-03 0.0 
0.0 0.0 0.0 
-1.166273452219e-04 2.243152555994e-03 0.0 
2.243152555994e-03 6.708297956006e-03 0.0 
0.0 0.0 0.0 
3.221936820553e-03 -1.494586416445e-03 0.0 
-1.494586416445e-03 -2.271343307936e-03 0.0 
0.0 0.0 0.0 
2.203127809134e-03 -2.203486546933e-03 0.0 
-2.203486546933e-03 -1.800800429094e-03 0.0 
0.0 0.0 0.0 
8.573272190937e-04 7.261116730266e-04 0.0 
7.261116730266e-04 3.181989387434e-03 0.0 
0.0 0.0 0.0 
-1.432145259740e-03 4.146224658804e-04 0.0 
4.146224658804e-04 -4.239786674816e-03 0.0 
0.0 0.0 0.0 
-9.750066331370e-04 -1.321991578054e-04 0.0 
-1.321991578054e-04 2.411492670786e-03 0.0 
0.0 0.0 0.0 
-1.610054672785e-03 -1.996945523297e-04 0.0 
-1.996945523297e-04 4.308985220437e-03 0.0 
0.0 0.0 0.0 
3.988229881859e-04 -2.544117744624e-03 0.0 
-2.544117744624e-03 3.001081966287e-04 0.0 
0.0 0.0 0.0 
2.754259501799e-03 -2.080875600991e-03 0.0 
-2.080875600991e-03 -2.038087932409e-03 0.0 
0.0 0.0 0.0 
-7.992395863473e-04 1.814851734478e-03 0.0 
1.814851734478e-03 2.156871518981e-03 0.0 
0.0 0.0 0.0 
-8.038421065493e-04 1.870128423162e-03 0.0 
1.870128423162e-03 2.214624230099e-03 0.0 
0.0 0.0 0.0 
-1.367351671171e-03 4.673443944262e-04 0.0 
4.673443944262e-04 6.412873970314e-03 0.0 
0.0 0.0 0.0 
3.793405199294e-03 -1.119328989316e-03 0.0 
-1.119328989316e-03 -3.163650456486e-03 0.0 
0.0 0.0 0.0 
-1.286364717581e-03 -7.494387057030e-04 0.0 
-7.494387057030e-04 2.700878106394e-03 0.0 
0.0 0.0 0.0 
1.270115669008e-03 2.036192075535e-03 0.0 
2.036192075535e-03 2.001499996167e-03 0.0 
0.0 0.0 0.0 
-4.557722705911e-07 -9.886994932921e-04 0.0 
-9.886994932921e-04 5.019052179857e-03 0.0 
0.0 0.0 0.0 
7.052027283128e-05 -9.884201655939e-04 0.0 
-9.884201655939e-04 4.769166430939e-03 0.0 
0.0 0.0 0.0 
2.080076759921e-03 -2.048925018716e-03 0.0 
-2.048925018716e-03 -1.058154319108e-03 0.0 
0.0 0.0 0.0 
-1.402682072365e-03 5.827778477623e-04 0.0 
5.827778477623e-04 6.026251455837e-03 0.0 
0.0 0.0 0.0 
-1.615872692622e-03 9.296831562975e-05 0.0 
9.296831562975e-05 -3.754395071133e-03 0.0 
0.0 0.0 0.0 
-9.331855002589e-04 2.058225323984e-03 0.0 
2.058225323984e-03 1.858706302752e-03 0.0 
0.0 0.0 0.0 
1.721406733706e-03 -3.445721837800e-03 0.0 
-3.445721837800e-03 -2.612266249946e-03 0.0 
0.0 0.0 0.0 
-8.411268428575e-04 1.927736088918e-03 0.0 
1.927736088918e-03 1.950447357807e-03 0.0 
0.0 0.0 0.0 
2.266131886774e-03 2.148542412819e-03 0.0 
2.148542412819e-03 1.030078738933e-04 0.0 
0.0 0.0 0.0 
1.588734158524e-03 -2.441804299210e-03 0.0 
-2.441804299210e-03 -7.188974077930e-04 0.0 
0.0 0.0 0.0 
2.823289041284e-03 -2.064431340866e-03 0.0 
-2.064431340866e-03 -2.429028171930e-03 0.0 
0.0 0.0 0.0 
1.151363185825e-03 -3.415264054671e-03 0.0 
-3.415264054671e-03 -3.391976659660e-03 0.0 
0.0 0.0 0.0 
-5.057790031938e-04 1.490672494554e-04 0.0 
1.490672494554e-04 8.264010004541e-03 0.0 
0.0 0.0 0.0 
1.693622430581e-03 -2.428062164045e-03 0.0 
-2.428062164045e-03 -1.271884506028e-03 0.0 
0.0 0.0 0.0 
-4.462055224360e-04 5.321706760059e-04 0.0 
5.321706760059e-04 8.378713478852e-03 0.0 
0.0 0.0 0.0 
-6.980582027857e-04 1.943476019293e-04 0.0 
1.943476019293e-04 8.003919397921e-03 0.0 
0.0 0.0 0.0 
-1.927124363572e-04 2.381189967583e-04 0.0 
2.381189967583e-04 8.939999913245e-03 0.0 
0.0 0.0 0.0 
-2.530365106705e-04 -3.454751914074e-04 0.0 
-3.454751914074e-04 5.917586051886e-03 0.0 
0.0 0.0 0.0 
-1.077331457728e-03 4.477392580525e-05 0.0 
4.477392580525e-05 6.530017800652e-03 0.0 
0.0 0.0 0.0 
1.250511225920e-03 -2.486064747608e-03 0.0 
-2.486064747608e-03 -5.964486230982e-04 0.0 
0.0 0.0 0.0 
-7.764404917833e-04 1.489122318320e-03 0.0 
1.489122318320e-03 2.522266255377e-03 0.0 
0.0 0.0 0.0 
1.206250514686e-03 -2.352753012923e-03 0.0 
-2.352753012923e-03 -9.948564829876e-05 0.0 
0.0 0.0 0.0 
0.0 -8.717456326505e-04 0.0 
-8.717456326505e-04 5.289275593037e-03 0.0 
0.0 0.0 0.0 
-1.356750560738e-03 2.360703019868e-03 0.0 
2.360703019868e-03 1.724772148066e-03 0.0 
0.0 0.0 0.0 
-1.085523997854e-03 2.129067438382e-03 0.0 
2.129067438382e-03 1.740894542834e-03 0.0 
0.0 0.0 0.0 
1.493577392114e-03 7.493765434914e-04 0.0 
7.493765434914e-04 1.819197192746e-03 0.0 
0.0 0.0 0.0 
-1.333869429424e-03 3.849459777004e-04 0.0 
3.849459777004e-04 6.116049622632e-03 0.0 
0.0 0.0 0.0 
-4.215991096487e-04 3.613122881044e-04 0.0 
3.613122881044e-04 8.453575822968e-03 0.0 
0.0 0.0 0.0 
-5.968497682263e-05 2.347998066032e-03 0.0 
2.347998066032e-03 4.619144088988e-03 0.0 
0.0 0.0 0.0 
1.050360682030e-03 1.737181562120e-03 0.0 
1.737181562120e-03 2.649943053461e-03 0.0 
0.0 0.0 0.0 
-4.742029173765e-04 2.166395999500e-03 0.0 
2.166395999500e-03 5.772730942246e-03 0.0 
0.0 0.0 0.0 
-1.082102036596e-03 1.730146579036e-04 0.0 
1.730146579036e-04 6.593517166587e-03 0.0 
0.0 0.0 0.0 
2.867029871927e-04 -2.557145996961e-03 0.0 
-2.557145996961e-03 3.233907592399e-04 0.0 
0.0 0.0 0.0 
5.312354369569e-04 -2.542125712109e-03 0.0 
-2.542125712109e-03 3.203714986013e-04 0.0 
0.0 0.0 0.0 
-8.954650557631e-04 1.191023669235e-04 0.0 
1.191023669235e-04 7.408083582493e-03 0.0 
0.0 0.0 0.0 
1.144799544003e-03 1.798838266563e-03 0.0 
1.798838266563e-03 2.632131280431e-03 0.0 
0.0 0.0 0.0 
-1.536980627647e-03 7.651618714870e-04 0.0 
7.651618714870e-04 5.548689495874e-03 0.0 
0.0 0.0 0.0 
-1.112633537676e-03 5.100531242921e-05 0.0 
5.100531242921e-05 6.181106359520e-03 0.0 
0.0 0.0 0.0 
-1.105735586645e-03 7.853634510947e-05 0.0 
7.853634510947e-05 6.505950863228e-03 0.0 
0.0 0.0 0.0 
-1.150138830893e-03 1.399194208463e-04 0.0 
1.399194208463e-04 6.607463914434e-03 0.0 
0.0 0.0 0.0 
2.575231168682e-03 -1.823552441262e-03 0.0 
-1.823552441262e-03 -4.080194557425e-03 0.0 
0.0 0.0 0.0 
7.846290613456e-05 -2.409475385044e-03 0.0 
-2.409475385044e-03 7.855242657457e-04 0.0 
0.0 0.0 0.0 
-3.656050227338e-04 7.447551118391e-04 0.0 
7.447551118391e-04 8.589491461960e-03 0.0 
0.0 0.0 0.0 
-1.087876838975e-03 1.953422002295e-04 0.0 
1.953422002295e-04 6.974606956501e-03 0.0 
0.0 0.0 0.0 
4.655275635421e-04 1.339805640666e-03 0.0 
1.339805640666e-03 3.598677113933e-03 0.0 
0.0 0.0 0.0 
-3.740967347375e-04 2.223112897602e-03 0.0 
2.223112897602e-03 6.468379437020e-03 0.0 
0.0 0.0 0.0 
-4.986098716800e-04 2.246211630358e-03 0.0 
2.246211630358e-03 5.048524465752e-03 0.0 
0.0 0.0 0.0 
-6.029429470442e-04 1.229050940021e-03 0.0 
1.229050940021e-03 8.006755170050e-03 0.0 
0.0 0.0 0.0 
-1.518646261543e-03 -1.038643232789e-03 0.0 
-1.038643232789e-03 3.316153688916e-03 0.0 
0.0 0.0 0.0 
-1.441772684619e-03 -1.092831775166e-03 0.0 
-1.092831775166e-03 3.048904807711e-03 0.0 
0.0 0.0 0.0 
3.272738307716e-04 -7.823261273828e-04 0.0 
-7.823261273828e-04 3.619944277189e-03 0.0 
0.0 0.0 0.0 
6.380555756476e-04 -1.977850723389e-03 0.0 
-1.977850723389e-03 -3.799721594715e-03 0.0 
0.0 0.0 0.0 
-9.229310989126e-04 -1.841587601062e-04 0.0 
-1.841587601062e-04 2.476261114140e-03 0.0 
0.0 0.0 0.0 
0.0 2.141512495929e-03 0.0 
2.141512495929e-03 4.870737022098e-03 0.0 
0.0 0.0 0.0 
4.430563844995e-04 5.431356308967e-05 0.0 
5.431356308967e-05 8.892996316419e-04 0.0 
0.0 0.0 0.0 
-1.101336323808e-03 6.372951991873e-05 0.0 
6.372951991873e-05 6.192622260767e-03 0.0 
0.0 0.0 0.0 
1.167196305246e-03 2.706658672334e-04 0.0 
2.706658672334e-04 2.548068335647e-03 0.0 
0.0 0.0 0.0 
-2.246058518135e-04 -7.749317846387e-04 0.0 
-7.749317846387e-04 6.332513312870e-04 0.0 
0.0 0.0 0.0 
1.277378149736e-03 -3.689108428883e-04 0.0 
-3.689108428883e-04 -1.577112428857e-04 0.0 
0.0 0.0 0.0 
-2.222017391774e-04 1.076510511537e-03 0.0 
1.076510511537e-03 8.647633217160e-03 0.0 
0.0 0.0 0.0 
-1.279102240157e-03 2.140184955418e-04 0.0 
2.140184955418e-04 5.823486782893e-03 0.0 
0.0 0.0 0.0 
-3.705780123190e-04 9.786495265253e-04 0.0 
9.786495265253e-04 8.424335389984e-03 0.0 
0.0 0.0 0.0 
8.720920630541e-04 6.197901354819e-04 0.0 
6.197901354819e-04 2.509335337393e-03 0.0 
0.0 0.0 0.0 
-1.270190936769e-03 1.530282175725e-04 0.0 
1.530282175725e-04 5.837640864665e-03 0.0 
0.0 0.0 0.0 
-1.435529710059e-03 5.924403322836e-04 0.0 
5.924403322836e-04 -3.725768707012e-03 0.0 
0.0 0.0 0.0 
-2.073578815491e-04 1.756229601256e-04 0.0 
1.756229601256e-04 8.727880354678e-03 0.0 
0.0 0.0 0.0 
3.461371293478e-05 -4.608906627427e-04 0.0 
-4.608906627427e-04 1.083060555272e-03 0.0 
0.0 0.0 0.0 
-4.001973762656e-04 8.256869186522e-04 0.0 
8.256869186522e-04 8.330009566826e-03 0.0 
0.0 0.0 0.0 
0.0 -7.681559650622e-04 0.0 
-7.681559650622e-04 5.523407758289e-03 0.0 
0.0 0.0 0.0 
-4.399440101865e-04 1.972803399664e-03 0.0 
1.972803399664e-03 6.980918829355e-03 0.0 
0.0 0.0 0.0 
3.209252355398e-03 -1.581113452962e-03 0.0 
-1.581113452962e-03 -4.062170096603e-03 0.0 
0.0 0.0 0.0 
-1.432793369144e-03 8.511824112659e-04 0.0 
8.511824112659e-04 6.179011642366e-03 0.0 
0.0 0.0 0.0 
-1.649238093722e-03 -6.311886169017e-04 0.0 
-6.311886169017e-04 3.436454703073e-03 0.0 
0.0 0.0 0.0 
1.410086201009e-03 1.881488434461e-03 0.0 
1.881488434461e-03 2.012876933574e-03 0.0 
0.0 0.0 0.0 
3.646619103923e-04 1.470760701637e-03 0.0 
1.470760701637e-03 4.163195349921e-03 0.0 
0.0 0.0 0.0 
-7.976488737604e-04 1.394534248962e-04 0.0 
1.394534248962e-04 7.761597268739e-03 0.0 
0.0 0.0 0.0 
3.920452623472e-04 1.198768312007e-03 0.0 
1.198768312007e-03 3.984505778573e-03 0.0 
0.0 0.0 0.0 
1.753164048940e-03 -1.650008654542e-03 0.0 
-1.650008654542e-03 -4.606798469942e-03 0.0 
0.0 0.0 0.0 
-1.170603194923e-04 -9.286647829451e-04 0.0 
-9.286647829451e-04 4.996575131970e-03 0.0 
0.0 0.0 0.0 
2.929224615801e-03 -2.504198259415e-03 0.0 
-2.504198259415e-03 -2.804762176163e-03 0.0 
0.0 0.0 0.0 
2.417951341065e-04 -2.167304238822e-04 0.0 
-2.167304238822e-04 9.818237631356e-04 0.0 
0.0 0.0 0.0 
7.074930906452e-04 -1.109895153833e-04 0.0 
-1.109895153833e-04 3.276058537027e-03 0.0 
0.0 0.0 0.0 
-4.335645579354e-04 1.638141208214e-03 0.0 
1.638141208214e-03 7.948995573819e-03 0.0 
0.0 0.0 0.0 
-2.983365843536e-04 1.087469232425e-03 0.0 
1.087469232425e-03 8.437742030582e-03 0.0 
0.0 0.0 0.0 
-1.155013754987e-03 1.862682974643e-04 0.0 
1.862682974643e-04 6.153482932227e-03 0.0 
0.0 0.0 0.0 
-1.370554623667e-03 1.178978416013e-03 0.0 
1.178978416013e-03 5.930418958641e-03 0.0 
0.0 0.0 0.0 
2.597329574705e-05 3.032702324333e-03 0.0 
3.032702324333e-03 7.107279099237e-04 0.0 
0.0 0.0 0.0 
-2.302475173824e-04 2.352475299858e-03 0.0 
2.352475299858e-03 6.631232620004e-03 0.0 
0.0 0.0 0.0 
-1.558601332250e-03 -5.754951023141e-04 0.0 
-5.754951023141e-04 3.165003050384e-03 0.0 
0.0 0.0 0.0 
9.929395654324e-04 3.429655383591e-03 0.0 
3.429655383591e-03 -1.261963617977e-03 0.0 
0.0 0.0 0.0 
1.337075031786e-03 1.819682366560e-03 0.0 
1.819682366560e-03 2.024305115737e-03 0.0 
0.0 0.0 0.0 
-1.165997183796e-03 8.269733949176e-05 0.0 
8.269733949176e-05 5.816400146204e-03 0.0 
0.0 0.0 0.0 
-4.019730653428e-04 1.593471649003e-03 0.0 
1.593471649003e-03 7.711096220783e-03 0.0 
0.0 0.0 0.0 
-1.632812437469e-04 -1.390901250819e-05 0.0 
-1.390901250819e-05 8.950270843021e-03 0.0 
0.0 0.0 0.0 
0.0 8.164062187321e-05 0.0 
8.164062187321e-05 8.978088868037e-03 0.0 
0.0 0.0 0.0 
2.704270129360e-03 8.312327218198e-05 0.0 
8.312327218198e-05 -9.596941783543e-04 0.0 
0.0 0.0 0.0 
2.167639027360e-03 -1.390444617744e-04 0.0 
-1.390444617744e-04 -8.673985442669e-04 0.0 
0.0 0.0 0.0 
-1.101298425410e-03 -2.028299636000e-05 0.0 
-2.028299636000e-05 5.875355879872e-03 0.0 
0.0 0.0 0.0 
-1.109509848890e-03 1.067192310036e-05 0.0 
1.067192310036e-05 5.821657464431e-03 0.0 
0.0 0.0 0.0 
0.0 -1.274669857181e-04 0.0 
-1.274669857181e-04 5.982646213988e-03 0.0 
0.0 0.0 0.0 
-2.549339714356e-04 5.760858713144e-07 0.0 
5.760858713144e-07 5.981494042246e-03 0.0 
0.0 0.0 0.0 
2.048330655793e-03 -5.197959232392e-05 0.0 
-5.197959232392e-05 -5.492582674284e-04 0.0 
0.0 0.0 0.0 
-1.456600087555e-03 -3.482884971369e-04 0.0 
-3.482884971369e-04 -4.488548177662e-03 0.0 
0.0 0.0 0.0 
-3.859951862221e-04 -6.282245831262e-04 0.0 
-6.282245831262e-04 5.249933433152e-03 0.0 
0.0 0.0 0.0 
6.016384576311e-04 2.210763348042e-03 0.0 
2.210763348042e-03 3.839437253841e-03 0.0 
0.0 0.0 0.0 
5.040744275275e-05 -4.935252920194e-04 0.0 
-4.935252920194e-04 1.257822033004e-03 0.0 
0.0 0.0 0.0 
-4.146004001471e-05 -9.211248958688e-04 0.0 
-9.211248958688e-04 4.474584215034e-03 0.0 
0.0 0.0 0.0 
-1.535047262400e-03 -1.296217208087e-04 0.0 
-1.296217208087e-04 4.501600311066e-03 0.0 
0.0 0.0 0.0 
-1.740728459422e-03 -1.460610767420e-04 0.0 
-1.460610767420e-04 4.067276537354e-03 0.0 
0.0 0.0 0.0 
-1.028624305561e-03 1.896469232309e-04 0.0 
1.896469232309e-04 7.158172835037e-03 0.0 
0.0 0.0 0.0 
6.248471215857e-04 -3.119001986293e-03 0.0 
-3.119001986293e-03 -6.607214068944e-04 0.0 
0.0 0.0 0.0 
1.671539814266e-03 2.026279646592e-03 0.0 
2.026279646592e-03 1.409192421531e-03 0.0 
0.0 0.0 0.0 
3.647649581577e-04 -5.478729245908e-04 0.0 
-5.478729245908e-04 8.818616123067e-04 0.0 
0.0 0.0 0.0 
-1.592084327988e-03 -8.068050116779e-04 0.0 
-8.068050116779e-04 3.545748762568e-03 0.0 
0.0 0.0 0.0 
-1.709968922465e-04 2.245461433257e-03 0.0 
2.245461433257e-03 6.309236176313e-03 0.0 
0.0 0.0 0.0 
-5.156417159814e-04 -1.765704481635e-05 0.0 
-1.765704481635e-05 8.377490784805e-03 0.0 
0.0 0.0 0.0 
-1.715942071641e-03 -2.555521228504e-04 0.0 
-2.555521228504e-04 4.124251574389e-03 0.0 
0.0 0.0 0.0 
-1.071959021772e-03 5.490959291666e-05 0.0 
5.490959291666e-05 6.788682212865e-03 0.0 
0.0 0.0 0.0 
2.762826770226e-04 2.399603040373e-03 0.0 
2.399603040373e-03 4.737201017455e-03 0.0 
0.0 0.0 0.0 
-3.150502154463e-04 2.238673329321e-03 0.0 
2.238673329321e-03 5.622943853837e-03 0.0 
0.0 0.0 0.0 
-3.980862607980e-04 2.232486490290e-03 0.0 
2.232486490290e-03 5.321689000767e-03 0.0 
0.0 0.0 0.0 
-1.215530107022e-03 1.277105628009e-04 0.0 
1.277105628009e-04 5.842083146556e-03 0.0 
0.0 0.0 0.0 
2.040218987101e-03 1.925494236063e-03 0.0 
1.925494236063e-03 7.272509849736e-04 0.0 
0.0 0.0 0.0 
-3.786828325669e-04 1.791478238758e-03 0.0 
1.791478238758e-03 7.370854474914e-03 0.0 
0.0 0.0 0.0 
-1.142977996554e-03 -4.990226187798e-04 0.0 
-4.990226187798e-04 2.531373358508e-03 0.0 
0.0 0.0 0.0 
-6.681501115191e-05 -5.438302017047e-04 0.0 
-5.438302017047e-04 4.102259495493e-04 0.0 
0.0 0.0 0.0 
2.283284684448e-04 2.299102006381e-03 0.0 
2.299102006381e-03 4.617015934948e-03 0.0 
0.0 0.0 0.0 
1.682263320316e-03 6.495553998442e-04 0.0 
6.495553998442e-04 1.327696210120e-03 0.0 
0.0 0.0 0.0 
6.200634879594e-04 -3.153515464456e-03 0.0 
-3.153515464456e-03 -8.244438743262e-04 0.0 
0.0 0.0 0.0 
-9.545253926027e-04 9.003962843031e-05 0.0 
9.003962843031e-05 7.425371224886e-03 0.0 
0.0 0.0 0.0 
-2.148765046862e-04 -6.260701631892e-04 0.0 
-6.260701631892e-04 5.471045595117e-03 0.0 
0.0 0.0 0.0 
4.892230482136e-04 2.213198583574e-03 0.0 
2.213198583574e-03 3.860064274873e-03 0.0 
0.0 0.0 0.0 
4.280897322095e-04 2.315631929025e-03 0.0 
2.315631929025e-03 4.397383387180e-03 0.0 
0.0 0.0 0.0 
-1.401670028357e-03 -1.526097575832e-04 0.0 
-1.526097575832e-04 4.690718558833e-03 0.0 
0.0 0.0 0.0 
2.515995677543e-04 2.662396586050e-03 0.0 
2.662396586050e-03 -3.566225156737e-03 0.0 
0.0 0.0 0.0 
-6.202019036421e-04 1.626568476195e-03 0.0 
1.626568476195e-03 2.139754762284e-03 0.0 
0.0 0.0 0.0 
-2.194986706482e-04 2.656286652684e-03 0.0 
2.656286652684e-03 1.388745446979e-03 0.0 
0.0 0.0 0.0 
-1.380404789276e-03 8.698053048471e-04 0.0 
8.698053048471e-04 6.183904541037e-03 0.0 
0.0 0.0 0.0 
1.785610492127e-03 2.119625677139e-03 0.0 
2.119625677139e-03 7.047865752721e-04 0.0 
0.0 0.0 0.0 
-4.347110409318e-04 6.113603516364e-04 0.0 
6.113603516364e-04 8.446612505825e-03 0.0 
0.0 0.0 0.0 
4.989800005646e-04 8.314841747181e-04 0.0 
8.314841747181e-04 3.156036932378e-03 0.0 
0.0 0.0 0.0 
-8.206680380833e-04 -2.258614065828e-03 0.0 
-2.258614065828e-03 4.268002260899e-04 0.0 
0.0 0.0 0.0 
-4.715145122655e-04 -1.229716771182e-03 0.0 
-1.229716771182e-03 6.784881273036e-04 0.0 
0.0 0.0 0.0 
-5.658647847839e-04 1.739157003132e-03 0.0 
1.739157003132e-03 1.830239786188e-03 0.0 
0.0 0.0 0.0 
-8.691726813510e-04 2.482363965512e-04 0.0 
2.482363965512e-04 7.511549685562e-03 0.0 
0.0 0.0 0.0 
-1.277435282989e-03 -7.702410606524e-04 0.0 
-7.702410606524e-04 2.749028950818e-03 0.0 
0.0 0.0 0.0 
-4.924948267815e-04 1.364886449097e-03 0.0 
1.364886449097e-03 7.993892674477e-03 0.0 
0.0 0.0 0.0 
2.331706542515e-04 -2.200696525824e-04 0.0 
-2.200696525824e-04 1.192599080038e-03 0.0 
0.0 0.0 0.0 
9.812058115684e-04 8.523106331570e-04 0.0 
8.523106331570e-04 2.484599517193e-03 0.0 
0.0 0.0 0.0 
-1.246213300819e-03 4.541404228472e-04 0.0 
4.541404228472e-04 6.414313028975e-03 0.0 
0.0 0.0 0.0 
3.471782436537e-04 1.816663496486e-03 0.0 
1.816663496486e-03 3.966803802128e-03 0.0 
0.0 0.0 0.0 
1.124148270148e-03 1.991351869300e-03 0.0 
1.991351869300e-03 2.649171592054e-03 0.0 
0.0 0.0 0.0 
-1.429091459421e-03 9.898496723259e-04 0.0 
9.898496723259e-04 6.102096551931e-03 0.0 
0.0 0.0 0.0 
5.498615077399e-04 -5.414430777404e-04 0.0 
-5.414430777404e-04 3.574450703094e-03 0.0 
0.0 0.0 0.0 
-3.899249405120e-04 1.543271153882e-03 0.0 
1.543271153882e-03 8.067424867803e-03 0.0 
0.0 0.0 0.0 
-3.379702470516e-04 1.627645166614e-04 0.0 
1.627645166614e-04 8.743573223038e-03 0.0 
0.0 0.0 0.0 
-7.124317575994e-04 1.816312762860e-03 0.0 
1.816312762860e-03 1.696271726280e-03 0.0 
0.0 0.0 0.0 
-4.829241645129e-04 1.234907883067e-03 0.0 
1.234907883067e-03 8.006139439564e-03 0.0 
0.0 0.0 0.0 
5.399183466981e-05 2.356792470986e-03 0.0 
2.356792470986e-03 5.475177503867e-03 0.0 
0.0 0.0 0.0 
1.199806401282e-03 7.684061893997e-04 0.0 
7.684061893997e-04 2.509826669926e-03 0.0 
0.0 0.0 0.0 
1.069001514223e-03 1.937273283169e-03 0.0 
1.937273283169e-03 2.601176870518e-03 0.0 
0.0 0.0 0.0 
0.0 -9.051259621685e-04 0.0 
-9.051259621685e-04 4.923830934980e-03 0.0 
0.0 0.0 0.0 
-3.963215528445e-04 2.210678015948e-03 0.0 
2.210678015948e-03 5.324663259632e-03 0.0 
0.0 0.0 0.0 
-1.568131978234e-03 1.868480844052e-03 0.0 
1.868480844052e-03 -2.375561008098e-03 0.0 
0.0 0.0 0.0 
5.942593447841e-04 3.626111616394e-03 0.0 
3.626111616394e-03 -2.804803164199e-04 0.0 
0.0 0.0 0.0 
-3.614692825381e-04 2.214116788394e-03 0.0 
2.214116788394e-03 6.056268460295e-03 0.0 
0.0 0.0 0.0 
-1.296100063421e-03 9.054736070580e-04 0.0 
9.054736070580e-04 6.443690307173e-03 0.0 
0.0 0.0 0.0 
-5.714182803070e-04 -4.197353640455e-04 0.0 
-4.197353640455e-04 5.502210712844e-03 0.0 
0.0 0.0 0.0 
8.700790509866e-04 1.928639300738e-03 0.0 
1.928639300738e-03 3.210345908101e-03 0.0 
0.0 0.0 0.0 
3.108967609577e-06 -8.807326999524e-04 0.0 
-8.807326999524e-04 4.736090954669e-03 0.0 
0.0 0.0 0.0 
-7.556899381966e-04 2.870756430600e-04 0.0 
2.870756430600e-04 7.854876755254e-03 0.0 
0.0 0.0 0.0 
3.556537358964e-04 1.638095442429e-03 0.0 
1.638095442429e-03 3.761689998778e-03 0.0 
0.0 0.0 0.0 
5.282132805611e-04 -6.706788539523e-04 0.0 
-6.706788539523e-04 3.248867407578e-03 0.0 
0.0 0.0 0.0 
5.741216747577e-04 -5.559225553722e-04 0.0 
-5.559225553722e-04 3.238353064653e-03 0.0 
0.0 0.0 0.0 
-1.407082030588e-03 -5.394408060537e-04 0.0 
-5.394408060537e-04 2.979154206321e-03 0.0 
0.0 0.0 0.0 
-6.474510515142e-05 -9.630516791745e-04 0.0 
-9.630516791745e-04 5.221702940252e-03 0.0 
0.0 0.0 0.0 
-1.443647943209e-03 5.521206753570e-04 0.0 
5.521206753570e-04 6.003422096397e-03 0.0 
0.0 0.0 0.0 
-4.775886495734e-04 3.258935298309e-04 0.0 
3.258935298309e-04 8.458146940548e-03 0.0 
0.0 0.0 0.0 
-4.452547392956e-04 -1.404411361823e-03 0.0 
-1.404411361823e-03 8.814828171360e-04 0.0 
0.0 0.0 0.0 
-6.262566952129e-04 1.502659921346e-04 0.0 
1.502659921346e-04 8.267977424383e-03 0.0 
0.0 0.0 0.0 
-9.594883100834e-04 1.675732406774e-04 0.0 
1.675732406774e-04 7.439642560056e-03 0.0 
0.0 0.0 0.0 
1.261333149540e-03 1.027045280007e-04 0.0 
1.027045280007e-04 2.538843517350e-04 0.0 
0.0 0.0 0.0 
2.834058366352e-03 -1.966910759645e-03 0.0 
-1.966910759645e-03 -4.409541524439e-03 0.0 
0.0 0.0 0.0 
-2.257988471274e-04 2.287636298988e-03 0.0 
2.287636298988e-03 5.153424938385e-03 0.0 
0.0 0.0 0.0 
-2.346162489826e-04 8.619593726502e-04 0.0 
8.619593726502e-04 8.519278417654e-03 0.0 
0.0 0.0 0.0 
-4.502216808306e-04 1.536539319372e-04 0.0 
1.536539319372e-04 8.519190574007e-03 0.0 
0.0 0.0 0.0 
7.264650878192e-04 1.597048696561e-03 0.0 
1.597048696561e-03 3.442909088891e-03 0.0 
0.0 0.0 0.0 
-1.078105200900e-03 2.482811357413e-04 0.0 
2.482811357413e-04 6.766479721005e-03 0.0 
0.0 0.0 0.0 
6.406426831351e-04 -3.331494866099e-04 0.0 
-3.331494866099e-04 1.050141158461e-04 0.0 
0.0 0.0 0.0 
9.882314435945e-04 1.960237507285e-03 0.0 
1.960237507285e-03 -4.126284490756e-03 0.0 
0.0 0.0 0.0 
1.602727170613e-04 -4.952422067580e-04 0.0 
-4.952422067580e-04 2.957138821842e-04 0.0 
0.0 0.0 0.0 
-3.453397150138e-04 -1.534136347378e-03 0.0 
-1.534136347378e-03 8.671883977365e-04 0.0 
0.0 0.0 0.0 
-1.750025638566e-03 3.771744744860e-03 0.0 
3.771744744860e-03 -1.589684741343e-03 0.0 
0.0 0.0 0.0 
-1.658278053737e-03 -8.062696046829e-04 0.0 
-8.062696046829e-04 3.625262230658e-03 0.0 
0.0 0.0 0.0 
-5.511783421183e-04 -4.116052651313e-04 0.0 
-4.116052651313e-04 5.502035584969e-03 0.0 
0.0 0.0 0.0 
-3.778228670597e-04 2.015206845325e-03 0.0 
2.015206845325e-03 6.986618541512e-03 0.0 
0.0 0.0 0.0 
-1.425444490555e-03 1.192421777602e-03 0.0 
1.192421777602e-03 6.192472275503e-03 0.0 
0.0 0.0 0.0 
-1.398837438601e-03 -1.097761013057e-03 0.0 
-1.097761013057e-03 2.970401019535e-03 0.0 
0.0 0.0 0.0 
3.077037887258e-04 -8.952671925856e-04 0.0 
-8.952671925856e-04 3.659145781054e-03 0.0 
0.0 0.0 0.0 
1.117631585051e-03 3.267947943953e-05 0.0 
3.267947943953e-05 2.500761124610e-03 0.0 
0.0 0.0 0.0 
5.554624892834e-04 1.990056254899e-03 0.0 
1.990056254899e-03 4.077581428144e-03 0.0 
0.0 0.0 0.0 
1.342810856475e-04 2.283293324076e-03 0.0 
2.283293324076e-03 4.958844957494e-03 0.0 
0.0 0.0 0.0 
-1.404770418606e-04 2.303738519651e-03 0.0 
2.303738519651e-03 5.488510660855e-03 0.0 
0.0 0.0 0.0 
-5.035506961126e-04 -1.145379735354e-03 0.0 
-1.145379735354e-03 8.260900819681e-04 0.0 
0.0 0.0 0.0 
9.398153711724e-04 -1.768569778120e-03 0.0 
-1.768569778120e-03 -4.119525514832e-03 0.0 
0.0 0.0 0.0 
-4.695020507994e-04 -6.649999355575e-04 0.0 
-6.649999355575e-04 5.263988071522e-03 0.0 
0.0 0.0 0.0 
7.985623753857e-04 -8.123583463731e-05 0.0 
-8.123583463731e-05 3.984899405500e-04 0.0 
0.0 0.0 0.0 
8.378019849427e-04 -7.699111178113e-05 0.0 
-7.699111178113e-05 5.325942896242e-04 0.0 
0.0 0.0 0.0 
-5.614715580893e-04 3.268341815103e-03 0.0 
3.268341815103e-03 -6.523080487384e-04 0.0 
0.0 0.0 0.0 
1.649810067832e-04 -5.790494357039e-04 0.0 
-5.790494357039e-04 6.391929261709e-04 0.0 
0.0 0.0 0.0 
2.623015173608e-04 -5.607758023579e-04 0.0 
-5.607758023579e-04 3.675611142888e-03 0.0 
0.0 0.0 0.0 
-8.313611550259e-05 2.343704371458e-03 0.0 
2.343704371458e-03 6.192654422780e-03 0.0 
0.0 0.0 0.0 
-3.867090555474e-04 6.353400102425e-04 0.0 
6.353400102425e-04 8.447954513381e-03 0.0 
0.0 0.0 0.0 
2.589254802077e-04 1.981633169898e-03 0.0 
1.981633169898e-03 4.245536746904e-03 0.0 
0.0 0.0 0.0 
1.224969334962e-03 3.805027006287e-05 0.0 
3.805027006287e-05 2.036446438438e-03 0.0 
0.0 0.0 0.0 
-1.032636322803e-03 2.423750170603e-04 0.0 
2.423750170603e-04 6.978836406068e-03 0.0 
0.0 0.0 0.0 
0.0 1.137849583038e-03 0.0 
1.137849583038e-03 8.614595037515e-03 0.0 
0.0 0.0 0.0 
2.149628068409e-03 -3.091248712201e-03 0.0 
-3.091248712201e-03 -2.824606545171e-03 0.0 
0.0 0.0 0.0 
-1.272605546028e-03 1.903220504596e-04 0.0 
1.903220504596e-04 5.784244591857e-03 0.0 
0.0 0.0 0.0 
-3.662610330023e-04 -3.276634713897e-03 0.0 
-3.276634713897e-03 -5.655240157110e-05 0.0 
0.0 0.0 0.0 
7.959895869158e-04 -2.986429324780e-04 0.0 
-2.986429324780e-04 2.341467911693e-05 0.0 
0.0 0.0 0.0 
-1.748597985831e-04 -7.909019571553e-04 0.0 
-7.909019571553e-04 5.572881182044e-03 0.0 
0.0 0.0 0.0 
-1.571881449115e-03 9.423418230982e-04 0.0 
9.423418230982e-04 5.784340942042e-03 0.0 
0.0 0.0 0.0 
7.083255817915e-04 -2.504535734474e-04 0.0 
-2.504535734474e-04 7.268256579271e-04 0.0 
0.0 0.0 0.0 
-1.707663297018e-03 -5.792369981309e-04 0.0 
-5.792369981309e-04 3.690870998902e-03 0.0 
0.0 0.0 0.0 
-1.226712337573e-04 2.436969377625e-03 0.0 
2.436969377625e-03 6.335172559706e-03 0.0 
0.0 0.0 0.0 
-5.068155626410e-04 8.168991857721e-04 0.0 
8.168991857721e-04 8.335323899489e-03 0.0 
0.0 0.0 0.0 
-2.280006107738e-04 1.658450383006e-03 0.0 
1.658450383006e-03 7.878631577384e-03 0.0 
0.0 0.0 0.0 
-1.291746604683e-03 -2.551588369378e-04 0.0 
-2.551588369378e-04 2.877221301230e-03 0.0 
0.0 0.0 0.0 
1.169624409933e-03 2.036010321794e-04 0.0 
2.036010321794e-04 -4.639877427056e-03 0.0 
0.0 0.0 0.0 
2.430667156550e-05 -9.720479646444e-04 0.0 
-9.720479646444e-04 4.561897630493e-03 0.0 
0.0 0.0 0.0 
-1.767900827200e-04 1.258270719933e-04 0.0 
1.258270719933e-04 8.969427521490e-03 0.0 
0.0 0.0 0.0 
-2.755681564460e-04 -2.011036668775e-04 0.0 
-2.011036668775e-04 5.965659554569e-03 0.0 
0.0 0.0 0.0 
-1.097133913129e-03 3.158150896316e-05 0.0 
3.158150896316e-05 6.127664464331e-03 0.0 
0.0 0.0 0.0 
8.282181123838e-04 1.566836838522e-04 0.0 
1.566836838522e-04 2.553484097784e-03 0.0 
0.0 0.0 0.0 
2.238835486885e-04 -1.970419273348e-04 0.0 
-1.970419273348e-04 9.786866314196e-04 0.0 
0.0 0.0 0.0 
-4.149433632585e-04 1.379029470148e-03 0.0 
1.379029470148e-03 7.994908295608e-03 0.0 
0.0 0.0 0.0 
6.600436241484e-04 -3.214938484955e-04 0.0 
-3.214938484955e-04 7.662937808983e-05 0.0 
0.0 0.0 0.0 
3.522706404673e-04 -1.886486926330e-04 0.0 
-1.886486926330e-04 3.365482742871e-03 0.0 
0.0 0.0 0.0 
-3.818974576671e-04 1.804092971623e-03 0.0 
1.804092971623e-03 7.743668482782e-03 0.0 
0.0 0.0 0.0 
6.289234889385e-04 1.143678094507e-03 0.0 
1.143678094507e-03 -4.760733314816e-03 0.0 
0.0 0.0 0.0 
5.811553730741e-04 2.197030794214e-03 0.0 
2.197030794214e-03 3.862904741944e-03 0.0 
0.0 0.0 0.0 
-8.418620707099e-04 1.688630643191e-04 0.0 
1.688630643191e-04 7.700647324263e-03 0.0 
0.0 0.0 0.0 
-1.977898962091e-04 6.511610114216e-04 0.0 
6.511610114216e-04 8.635331999244e-03 0.0 
0.0 0.0 0.0 
0.0 1.289385485534e-03 0.0 
1.289385485534e-03 4.103508098382e-03 0.0 
0.0 0.0 0.0 
-9.579595448724e-04 1.591419283195e-05 0.0 
1.591419283195e-05 7.241772554105e-03 0.0 
0.0 0.0 0.0 
-8.622100148070e-05 2.318725669587e-03 0.0 
2.318725669587e-03 6.484255109009e-03 0.0 
0.0 0.0 0.0 
-5.111702645696e-04 1.603614466931e-03 0.0 
1.603614466931e-03 7.710875356782e-03 0.0 
0.0 0.0 0.0 
-8.652189658288e-04 1.355845829591e-04 0.0 
1.355845829591e-04 7.447755436830e-03 0.0 
0.0 0.0 0.0 
-1.421414774601e-04 2.274206996426e-03 0.0 
2.274206996426e-03 6.123448209989e-03 0.0 
0.0 0.0 0.0 
-1.570885309676e-03 -5.774855382806e-04 0.0 
-5.774855382806e-04 3.231634112532e-03 0.0 
0.0 0.0 0.0 
-1.154779076231e-03 6.026084996956e-05 0.0 
6.026084996956e-05 5.831419286734e-03 0.0 
0.0 0.0 0.0 
5.624149910468e-04 2.034898719373e-03 0.0 
2.034898719373e-03 3.818241208775e-03 0.0 
0.0 0.0 0.0 
-2.250797567400e-04 1.029613141459e-04 0.0 
1.029613141459e-04 8.772949883035e-03 0.0 
0.0 0.0 0.0 
2.062266815908e-03 -1.891790646563e-05 0.0 
-1.891790646563e-05 -7.989827164314e-04 0.0 
0.0 0.0 0.0 
-1.105960725331e-03 2.459029744521e-05 0.0 
2.459029744521e-05 5.831370929214e-03 0.0 
0.0 0.0 0.0 
-3.433442415821e-04 -1.463454065495e-04 0.0 
-1.463454065495e-04 5.838603318405e-03 0.0 
0.0 0.0 0.0 
-2.922081788714e-04 -7.104778554330e-04 0.0 
-7.104778554330e-04 1.368336806984e-03 0.0 
0.0 0.0 0.0 
1.206980851553e-03 5.209179689302e-04 0.0 
5.209179689302e-04 2.527618888404e-03 0.0 
0.0 0.0 0.0 
-5.284687649439e-04 1.827597104510e-03 0.0 
1.827597104510e-03 7.362150115448e-03 0.0 
0.0 0.0 0.0 
-3.715197405474e-04 5.810179822758e-04 0.0 
5.810179822758e-04 8.632838241987e-03 0.0 
0.0 0.0 0.0 
4.992695511685e-06 -4.693760763472e-04 0.0 
-4.693760763472e-04 1.274658910416e-03 0.0 
0.0 0.0 0.0 
6.474756213306e-04 4.165318884471e-03 0.0 
4.165318884471e-03 -2.236062988202e-03 0.0 
0.0 0.0 0.0 
-1.693977995912e-03 -5.934958667898e-05 0.0 
-5.934958667898e-05 4.203392276424e-03 0.0 
0.0 0.0 0.0 
-6.764797279204e-04 1.513212685214e-04 0.0 
1.513212685214e-04 8.045372923189e-03 0.0 
0.0 0.0 0.0 
-5.346896801068e-03 -2.876373673875e-04 0.0 
-2.876373673875e-04 -2.248064797496e-03 0.0 
0.0 0.0 0.0 
-2.171673387066e-04 1.416198637647e-03 0.0 
1.416198637647e-03 8.160756308270e-03 0.0 
0.0 0.0 0.0 
-9.489335327272e-04 1.039212665880e-04 0.0 
1.039212665880e-04 7.134739711894e-03 0.0 
0.0 0.0 0.0 
2.604402460977e-04 -3.148026170202e-03 0.0 
-3.148026170202e-03 -6.628709718246e-04 0.0 
0.0 0.0 0.0 
-1.031330379291e-03 1.535490376993e-04 0.0 
1.535490376993e-04 6.873483417771e-03 0.0 
0.0 0.0 0.0 
4.391095944662e-04 2.147081782282e-03 0.0 
2.147081782282e-03 4.394263304518e-03 0.0 
0.0 0.0 0.0 
-1.662677032924e-03 -1.163552392549e-04 0.0 
-1.163552392549e-04 4.297337910816e-03 0.0 
0.0 0.0 0.0 
-2.328347139043e-03 3.670368678575e-03 0.0 
3.670368678575e-03 2.965765962455e-04 0.0 
0.0 0.0 0.0 
-1.501454797904e-03 -7.387045343918e-04 0.0 
-7.387045343918e-04 3.040538228230e-03 0.0 
0.0 0.0 0.0 
-1.620810676207e-03 -7.635425340312e-04 0.0 
-7.635425340312e-04 3.867663038525e-03 0.0 
0.0 0.0 0.0 
-1.625162794937e-03 -4.086544389251e-05 0.0 
-4.086544389251e-05 4.414575756622e-03 0.0 
0.0 0.0 0.0 
7.969162572561e-04 1.628323267632e-03 0.0 
1.628323267632e-03 3.289833250395e-03 0.0 
0.0 0.0 0.0 
-1.720816216285e-03 -3.778781959273e-04 0.0 
-3.778781959273e-04 3.859655870638e-03 0.0 
0.0 0.0 0.0 
-1.677152330938e-03 -4.935269914723e-04 0.0 
-4.935269914723e-04 4.063056732901e-03 0.0 
0.0 0.0 0.0 
2.262215030540e-04 -5.929865363791e-04 0.0 
-5.929865363791e-04 4.791202080217e-04 0.0 
0.0 0.0 0.0 
-1.238204568832e-05 -8.888439412687e-04 0.0 
-8.888439412687e-04 4.481333089027e-03 0.0 
0.0 0.0 0.0 
2.004777794509e-04 2.353799905167e-03 0.0 
2.353799905167e-03 4.622872864926e-03 0.0 
0.0 0.0 0.0 
1.355220719887e-03 3.502384436364e-03 0.0 
3.502384436364e-03 -2.714241712793e-03 0.0 
0.0 0.0 0.0 
-1.828791569890e-04 8.839468092283e-05 0.0 
8.839468092283e-05 8.764413124741e-03 0.0 
0.0 0.0 0.0 
-2.963022165968e-04 -1.347567824845e-04 0.0 
-1.347567824845e-04 5.834121635174e-03 0.0 
0.0 0.0 0.0 
-1.106615778016e-03 3.208199860712e-06 0.0 
3.208199860712e-06 6.143077287323e-03 0.0 
0.0 0.0 0.0 
-9.988950563867e-04 8.621026024066e-05 0.0 
8.621026024066e-05 7.128551753021e-03 0.0 
0.0 0.0 0.0 
-1.718368051984e-03 -5.696335043832e-04 0.0 
-5.696335043832e-04 3.881037635225e-03 0.0 
0.0 0.0 0.0 
-1.686847264545e-03 -5.710236833768e-04 0.0 
-5.710236833768e-04 3.777735680073e-03 0.0 
0.0 0.0 0.0 
-1.725020065330e-03 -3.761891277470e-04 0.0 
-3.761891277470e-04 3.988259212177e-03 0.0 
0.0 0.0 0.0 
1.289712710578e-03 6.706427021472e-04 0.0 
6.706427021472e-04 2.042929060878e-03 0.0 
0.0 0.0 0.0 
-2.468193170546e-05 -2.798613233905e-03 0.0 
-2.798613233905e-03 4.632037228882e-04 0.0 
0.0 0.0 0.0 
1.193241225321e-04 2.393444406612e-03 0.0 
2.393444406612e-03 5.154438225226e-03 0.0 
0.0 0.0 0.0 
-1.066227782178e-03 8.028161218971e-05 0.0 
8.028161218971e-05 6.495352262954e-03 0.0 
0.0 0.0 0.0 
-4.234749820563e-04 1.354866461781e-03 0.0 
1.354866461781e-03 8.204680087719e-03 0.0 
0.0 0.0 0.0 
1.236097747177e-03 5.276829863287e-04 0.0 
5.276829863287e-04 2.025343005095e-03 0.0 
0.0 0.0 0.0 
-1.093015269693e-03 1.623107032016e-04 0.0 
1.623107032016e-04 6.872810338358e-03 0.0 
0.0 0.0 0.0 
-1.978356375428e-04 2.264282595117e-03 0.0 
2.264282595117e-03 5.902031027002e-03 0.0 
0.0 0.0 0.0 
7.062380949172e-04 1.687852847069e-03 0.0 
1.687852847069e-03 3.271560580987e-03 0.0 
0.0 0.0 0.0 
6.362907840913e-04 1.810792685291e-03 0.0 
1.810792685291e-03 3.861111262313e-03 0.0 
0.0 0.0 0.0 
-7.422293246875e-04 3.757793931171e-03 0.0 
3.757793931171e-03 -1.870553767579e-03 0.0 
0.0 0.0 0.0 
-2.341397473753e-04 2.267672624033e-03 0.0 
2.267672624033e-03 5.901766655014e-03 0.0 
0.0 0.0 0.0 
-1.146733639554e-04 2.398858676649e-03 0.0 
2.398858676649e-03 5.864835765499e-03 0.0 
0.0 0.0 0.0 
6.891184668323e-04 -4.687796439764e-04 0.0 
-4.687796439764e-04 3.767018205709e-04 0.0 
0.0 0.0 0.0 
-1.695599778950e-03 -5.829657443623e-04 0.0 
-5.829657443623e-04 3.673253417312e-03 0.0 
0.0 0.0 0.0 
-1.368125750364e-03 3.422649212165e-03 0.0 
3.422649212165e-03 -1.588108662515e-03 0.0 
0.0 0.0 0.0 
-2.561058256457e-04 2.329574293505e-03 0.0 
2.329574293505e-03 6.261927995499e-03 0.0 
0.0 0.0 0.0 
-4.780041947522e-04 -8.038428953366e-06 0.0 
-8.038428953366e-06 1.653293688920e-03 0.0 
0.0 0.0 0.0 
-5.296810964501e-04 -2.339881034465e-05 0.0 
-2.339881034465e-05 1.671806687198e-03 0.0 
0.0 0.0 0.0 
-4.667667093600e-04 -2.934524073275e-05 0.0 
-2.934524073275e-05 1.672141976824e-03 0.0 
0.0 0.0 0.0 
-5.195092928865e-04 -5.497331210926e-05 0.0 
-5.497331210926e-05 1.670964574858e-03 0.0 
0.0 0.0 0.0 
-4.461603876398e-04 -4.187654087573e-05 0.0 
-4.187654087573e-05 1.669413499787e-03 0.0 
0.0 0.0 0.0 
-5.061333028790e-04 -7.243432600649e-05 0.0 
-7.243432600649e-05 1.664498831172e-03 0.0 
0.0 0.0 0.0 
-4.116827209367e-04 -4.942324808588e-05 0.0 
-4.942324808588e-05 1.660875659512e-03 0.0 
0.0 0.0 0.0 
-4.863789962936e-04 -8.712272973046e-05 0.0 
-8.712272973046e-05 1.654349329050e-03 0.0 
0.0 0.0 0.0 
-3.690513621970e-04 -5.635181512360e-05 0.0 
-5.635181512360e-05 1.648172063496e-03 0.0 
0.0 0.0 0.0 
-4.604070255769e-04 -1.015488490837e-04 0.0 
-1.015488490837e-04 1.640561244510e-03 0.0 
0.0 0.0 0.0 
-3.194907959435e-04 -6.373917095246e-05 0.0 
-6.373917095246e-05 1.631230531000e-03 0.0 
0.0 0.0 0.0 
-4.273696615889e-04 -1.158376431709e-04 0.0 
-1.158376431709e-04 1.623019582100e-03 0.0 
0.0 0.0 0.0 
-2.622877478788e-04 -7.120894651874e-05 0.0 
-7.120894651874e-05 1.609842556103e-03 0.0 
0.0 0.0 0.0 
-3.872156579737e-04 -1.296935669312e-04 0.0 
-1.296935669312e-04 1.601848791788e-03 0.0 
0.0 0.0 0.0 
-1.937166042826e-04 -7.837294958669e-05 0.0 
-7.837294958669e-05 1.584010066363e-03 0.0 
0.0 0.0 0.0 
-3.421157661792e-04 -1.437679682960e-04 0.0 
-1.437679682960e-04 1.579432510289e-03 0.0 
0.0 0.0 0.0 
-1.172155412655e-04 -8.437154997925e-05 0.0 
-8.437154997925e-05 1.555583883969e-03 0.0 
0.0 0.0 0.0 
-2.925075767304e-04 -1.569156293788e-04 0.0 
-1.569156293788e-04 1.555568252464e-03 0.0 
0.0 0.0 0.0 
-3.456750510367e-05 -8.805700703966e-05 0.0 
-8.805700703966e-05 1.524156240253e-03 0.0 
0.0 0.0 0.0 
-2.381283628849e-04 -1.681374396905e-04 0.0 
-1.681374396905e-04 1.528040727776e-03 0.0 
0.0 0.0 0.0 
6.723574902590e-05 -8.863906857154e-05 0.0 
-8.863906857154e-05 1.486902505692e-03 0.0 
0.0 0.0 0.0 
-1.797820290156e-04 -1.793406692715e-04 0.0 
-1.793406692715e-04 1.498408414432e-03 0.0 
0.0 0.0 0.0 
-9.513654368554e-04 1.025777799173e-03 0.0 
1.025777799173e-03 1.774050481152e-03 0.0 
0.0 0.0 0.0 
1.716574819171e-04 -9.041650243031e-05 0.0 
-9.041650243031e-05 1.446568423404e-03 0.0 
0.0 0.0 0.0 
-1.204202281540e-04 -1.893652006436e-04 0.0 
-1.893652006436e-04 1.468847007893e-03 0.0 
0.0 0.0 0.0 
2.756880368568e-04 -9.101343273839e-05 0.0 
-9.101343273839e-05 1.404858671749e-03 0.0 
0.0 0.0 0.0 
-9.937241897702e-04 8.954675448865e-04 0.0 
8.954675448865e-04 1.904553230052e-03 0.0 
0.0 0.0 0.0 
-6.312664921060e-05 -1.958560045854e-04 0.0 
-1.958560045854e-04 1.440776848182e-03 0.0 
0.0 0.0 0.0 
3.752573328630e-04 -8.866583694270e-05 0.0 
-8.866583694270e-05 1.363487878878e-03 0.0 
0.0 0.0 0.0 
-1.165958085780e-05 -1.968316007409e-04 0.0 
-1.968316007409e-04 1.415770442387e-03 0.0 
0.0 0.0 0.0 
4.649854440908e-04 -8.168787588330e-05 0.0 
-8.168787588330e-05 1.324333102356e-03 0.0 
0.0 0.0 0.0 
3.085608675724e-05 -1.898854366516e-04 0.0 
-1.898854366516e-04 1.395280091141e-03 0.0 
0.0 0.0 0.0 
-4.748602506163e-04 7.173200406858e-04 0.0 
7.173200406858e-04 1.562753555518e-03 0.0 
0.0 0.0 0.0 
5.383654326947e-04 -6.827845632491e-05 0.0 
-6.827845632491e-05 1.289565183874e-03 0.0 
0.0 0.0 0.0 
5.994730078318e-05 -1.727591552085e-04 0.0 
-1.727591552085e-04 1.380917941262e-03 0.0 
0.0 0.0 0.0 
5.889564019979e-04 -4.714613582424e-05 0.0 
-4.714613582424e-05 1.261835746114e-03 0.0 
0.0 0.0 0.0 
7.226921663284e-05 -1.442485373748e-04 0.0 
-1.442485373748e-04 1.373650357704e-03 0.0 
0.0 0.0 0.0 
6.115208674957e-04 -1.401652257478e-05 0.0 
-1.401652257478e-05 1.240879257293e-03 0.0 
0.0 0.0 0.0 
6.563683291838e-05 -9.798737633396e-05 0.0 
-9.798737633396e-05 1.374769112878e-03 0.0 
0.0 0.0 0.0 
5.959102002875e-04 3.156925912995e-05 0.0 
3.156925912995e-05 1.232982100338e-03 0.0 
0.0 0.0 0.0 
3.340214018333e-05 -3.718664168930e-05 0.0 
-3.718664168930e-05 1.384345247775e-03 0.0 
0.0 0.0 0.0 
5.448977981806e-04 8.707811719763e-05 0.0 
8.707811719763e-05 1.237825478508e-03 0.0 
0.0 0.0 0.0 
-3.189014247396e-05 3.512208652316e-05 0.0 
3.512208652316e-05 1.406264065636e-03 0.0 
0.0 0.0 0.0 
4.642380364461e-04 1.482850099983e-04 0.0 
1.482850099983e-04 1.259279104730e-03 0.0 
0.0 0.0 0.0 
-1.444977790734e-04 1.100891359505e-04 0.0 
1.100891359505e-04 1.446382448038e-03 0.0 
0.0 0.0 0.0 
-1.717406633460e-03 1.637843440589e-03 0.0 
1.637843440589e-03 2.258102847262e-03 0.0 
0.0 0.0 0.0 
-2.237521491292e-04 1.928792710067e-04 0.0 
1.928792710067e-04 1.490218852615e-03 0.0 
0.0 0.0 0.0 
3.540883281379e-04 2.091818752268e-04 0.0 
2.091818752268e-04 1.299473902699e-03 0.0 
0.0 0.0 0.0 
-3.384548002309e-04 2.908109058323e-04 0.0 
2.908109058323e-04 1.563316592496e-03 0.0 
0.0 0.0 0.0 
2.163535790416e-04 2.758925993536e-04 0.0 
2.758925993536e-04 1.355172630786e-03 0.0 
0.0 0.0 0.0 
-4.623632837253e-04 4.299597914695e-04 0.0 
4.299597914695e-04 1.596887997286e-03 0.0 
0.0 0.0 0.0 
1.182036356040e-05 4.018749146126e-04 0.0 
4.018749146126e-04 1.411425779538e-03 0.0 
0.0 0.0 0.0 
-6.270749484437e-04 5.948933959819e-04 0.0 
5.948933959819e-04 1.716272438244e-03 0.0 
0.0 0.0 0.0 
-1.250004981016e-04 5.076816270266e-04 0.0 
5.076816270266e-04 1.467207538270e-03 0.0 
0.0 0.0 0.0 
-2.820426077025e-04 7.307331107193e-04 0.0 
7.307331107193e-04 1.525150428140e-03 0.0 
0.0 0.0 0.0 
-1.521103668415e-03 9.553649575532e-04 0.0 
9.553649575532e-04 2.574766734454e-03 0.0 
0.0 0.0 0.0 
-5.259093229812e-04 -4.118188678866e-05 0.0 
-4.118188678866e-05 1.725421823354e-03 0.0 
0.0 0.0 0.0 
-4.999527544792e-04 2.204729220035e-05 0.0 
2.204729220035e-05 1.652262774802e-03 0.0 
0.0 0.0 0.0 
-5.688310995269e-04 -1.985711503013e-05 0.0 
-1.985711503013e-05 1.808790504349e-03 0.0 
0.0 0.0 0.0 
-4.558225859154e-04 2.666077499288e-06 0.0 
2.666077499288e-06 1.571547106173e-03 0.0 
0.0 0.0 0.0 
-2.141545441462e-03 1.721292981943e-03 0.0 
1.721292981943e-03 1.996114974692e-03 0.0 
0.0 0.0 0.0 
-6.395047110359e-04 -2.326399368658e-05 0.0 
-2.326399368658e-05 2.228087367530e-03 0.0 
0.0 0.0 0.0 
-5.296810964501e-04 -3.800564297736e-05 0.0 
-3.800564297736e-05 2.154898587884e-03 0.0 
0.0 0.0 0.0 
-6.029033879563e-04 -5.189480165942e-05 0.0 
-5.189480165942e-05 2.153938508062e-03 0.0 
0.0 0.0 0.0 
-5.195092928865e-04 -8.418772412915e-05 0.0 
-8.418772412915e-05 2.140748977971e-03 0.0 
0.0 0.0 0.0 
-5.952525907763e-04 -7.778878295233e-05 0.0 
-7.778878295233e-05 2.141739421510e-03 0.0 
0.0 0.0 0.0 
-5.061333028790e-04 -1.151502393746e-04 0.0 
-1.151502393746e-04 2.134778456693e-03 0.0 
0.0 0.0 0.0 
-5.874306425541e-04 -1.009527045674e-04 0.0 
-1.009527045674e-04 2.137443742162e-03 0.0 
0.0 0.0 0.0 
-4.863789962936e-04 -1.412476475065e-04 0.0 
-1.412476475065e-04 2.127731683909e-03 0.0 
0.0 0.0 0.0 
-5.759751432520e-04 -1.221919213539e-04 0.0 
-1.221919213539e-04 2.132224613371e-03 0.0 
0.0 0.0 0.0 
-4.604070255769e-04 -1.650881769953e-04 0.0 
-1.650881769953e-04 2.117680807887e-03 0.0 
0.0 0.0 0.0 
-5.605745785076e-04 -1.420654452319e-04 0.0 
-1.420654452319e-04 2.124327337663e-03 0.0 
0.0 0.0 0.0 
-4.273696615889e-04 -1.880743394926e-04 0.0 
-1.880743394926e-04 2.104202215013e-03 0.0 
0.0 0.0 0.0 
-5.416439675441e-04 -1.609685115699e-04 0.0 
-1.609685115699e-04 2.113570737093e-03 0.0 
0.0 0.0 0.0 
-3.872156579737e-04 -2.111467803977e-04 0.0 
-2.111467803977e-04 2.087920792860e-03 0.0 
0.0 0.0 0.0 
-5.201804994588e-04 -1.785044149575e-04 0.0 
-1.785044149575e-04 2.101111694443e-03 0.0 
0.0 0.0 0.0 
-3.421157661792e-04 -2.330415498686e-04 0.0 
-2.330415498686e-04 2.069546744533e-03 0.0 
0.0 0.0 0.0 
-4.970972971077e-04 -1.936821144196e-04 0.0 
-1.936821144196e-04 2.087813732534e-03 0.0 
0.0 0.0 0.0 
-2.925075767304e-04 -2.522400551529e-04 0.0 
-2.522400551529e-04 2.048939774813e-03 0.0 
0.0 0.0 0.0 
-4.729470529317e-04 -2.057803061855e-04 0.0 
-2.057803061855e-04 2.073481966567e-03 0.0 
0.0 0.0 0.0 
-2.381283628849e-04 -2.686711107376e-04 0.0 
-2.686711107376e-04 2.026675817370e-03 0.0 
0.0 0.0 0.0 
-7.856925760582e-04 1.295934783978e-03 0.0 
1.295934783978e-03 1.833820080383e-03 0.0 
0.0 0.0 0.0 
-4.491244920075e-04 -2.130250703389e-04 0.0 
-2.130250703389e-04 2.059660137556e-03 0.0 
0.0 0.0 0.0 
-1.797820290156e-04 -2.788722261707e-04 0.0 
-2.788722261707e-04 2.001589215731e-03 0.0 
0.0 0.0 0.0 
-4.257693624582e-04 -2.145202859028e-04 0.0 
-2.145202859028e-04 2.044390028377e-03 0.0 
0.0 0.0 0.0 
-6.270749484437e-04 1.197109003695e-03 0.0 
1.197109003695e-03 1.733494380529e-03 0.0 
0.0 0.0 0.0 
-1.204202281540e-04 -2.821240170773e-04 0.0 
-2.821240170773e-04 1.974036737052e-03 0.0 
0.0 0.0 0.0 
-4.045086693447e-04 -2.082801895378e-04 0.0 
-2.082801895378e-04 2.028714178360e-03 0.0 
0.0 0.0 0.0 
-7.627002053419e-04 1.150004984333e-03 0.0 
1.150004984333e-03 1.974001787350e-03 0.0 
0.0 0.0 0.0 
-6.312664921060e-05 -2.759542553972e-04 0.0 
-2.759542553972e-04 1.945316349624e-03 0.0 
0.0 0.0 0.0 
-3.875925810906e-04 -1.919835071671e-04 0.0 
-1.919835071671e-04 2.014050348134e-03 0.0 
0.0 0.0 0.0 
-1.165958085780e-05 -2.580188431231e-04 0.0 
-2.580188431231e-04 1.917693726589e-03 0.0 
0.0 0.0 0.0 
-3.781077142001e-04 -1.653488395829e-04 0.0 
-1.653488395829e-04 2.001649360993e-03 0.0 
0.0 0.0 0.0 
3.085608675724e-05 -2.266702679795e-04 0.0 
-2.266702679795e-04 1.890543718163e-03 0.0 
0.0 0.0 0.0 
-3.751137449186e-04 -1.255547475028e-04 0.0 
-1.255547475028e-04 1.991203667458e-03 0.0 
0.0 0.0 0.0 
5.994730078318e-05 -1.793183057503e-04 0.0 
-1.793183057503e-04 1.866480875655e-03 0.0 
0.0 0.0 0.0 
-3.814110100840e-04 -7.301472401222e-05 0.0 
-7.301472401222e-05 1.983158865404e-03 0.0 
0.0 0.0 0.0 
7.226921663284e-05 -1.155761412563e-04 0.0 
-1.155761412563e-04 1.844861095152e-03 0.0 
0.0 0.0 0.0 
-1.025024569933e-03 1.559104068200e-03 0.0 
1.559104068200e-03 2.029333812633e-03 0.0 
0.0 0.0 0.0 
-4.050828871377e-04 -6.103534929424e-06 0.0 
-6.103534929424e-06 1.977847337981e-03 0.0 
0.0 0.0 0.0 
6.563683291838e-05 -3.408964420405e-05 0.0 
-3.408964420405e-05 1.823792068694e-03 0.0 
0.0 0.0 0.0 
-4.170302369897e-04 7.809181104449e-05 0.0 
7.809181104449e-05 1.970209734288e-03 0.0 
0.0 0.0 0.0 
3.340214018333e-05 7.106195427735e-05 0.0 
7.106195427735e-05 1.808283924029e-03 0.0 
0.0 0.0 0.0 
-3.189014247396e-05 2.040671620550e-04 0.0 
2.040671620550e-04 1.799828096821e-03 0.0 
0.0 0.0 0.0 
-4.375139658434e-04 1.855759597487e-04 0.0 
1.855759597487e-04 1.966033766393e-03 0.0 
0.0 0.0 0.0 
-1.444977790734e-04 3.749138224710e-04 0.0 
3.749138224710e-04 1.802974440002e-03 0.0 
0.0 0.0 0.0 
-4.710101195677e-04 3.250623522995e-04 0.0 
3.250623522995e-04 1.969171811821e-03 0.0 
0.0 0.0 0.0 
-2.237521491292e-04 5.631485077247e-04 0.0 
5.631485077247e-04 1.793347191908e-03 0.0 
0.0 0.0 0.0 
-5.229009227264e-04 4.899441258242e-04 0.0 
4.899441258242e-04 1.968039697241e-03 0.0 
0.0 0.0 0.0 
-3.384548002309e-04 7.726382459151e-04 0.0 
7.726382459151e-04 1.793322612819e-03 0.0 
0.0 0.0 0.0 
-4.623632837253e-04 1.016950617562e-03 0.0 
1.016950617562e-03 1.776645304506e-03 0.0 
0.0 0.0 0.0 
-5.687914633096e-04 6.777838400084e-04 0.0 
6.777838400084e-04 1.962257514395e-03 0.0 
0.0 0.0 0.0 
-6.124700404954e-04 8.843518102467e-04 0.0 
8.843518102467e-04 1.954812936396e-03 0.0 
0.0 0.0 0.0 
-9.642976367462e-04 1.336330097345e-03 0.0 
1.336330097345e-03 2.126091650581e-03 0.0 
0.0 0.0 0.0 
-6.030977290783e-04 -4.969029057661e-05 0.0 
-4.969029057661e-05 2.170419436825e-03 0.0 
0.0 0.0 0.0 
-6.199993832116e-04 3.677537963386e-05 0.0 
3.677537963386e-05 2.230389360686e-03 0.0 
0.0 0.0 0.0 
-5.688310995269e-04 -1.557007002565e-05 0.0 
-1.557007002565e-05 2.070529957066e-03 0.0 
0.0 0.0 0.0 
-6.552693124425e-04 4.684840127843e-06 0.0 
4.684840127843e-06 2.327262625284e-03 0.0 
0.0 0.0 0.0 
-9.937241897702e-04 1.647384244025e-03 0.0 
1.647384244025e-03 1.822394142157e-03 0.0 
0.0 0.0 0.0 
-6.395047110359e-04 -3.365603837609e-05 0.0 
-3.365603837609e-05 2.602015103602e-03 0.0 
0.0 0.0 0.0 
-7.126078521891e-04 -5.066136831884e-05 0.0 
-5.066136831884e-05 2.636900509366e-03 0.0 
0.0 0.0 0.0 
-6.029033879563e-04 -4.533435282730e-05 0.0 
-4.533435282730e-05 2.636328454234e-03 0.0 
0.0 0.0 0.0 
-7.059301092984e-04 -9.648464673841e-05 0.0 
-9.648464673841e-05 2.631411760513e-03 0.0 
0.0 0.0 0.0 
-5.952525907763e-04 -8.148603940101e-05 0.0 
-8.148603940101e-05 2.629312772661e-03 0.0 
0.0 0.0 0.0 
-7.027959718259e-04 -1.323143867449e-04 0.0 
-1.323143867449e-04 2.627110420593e-03 0.0 
0.0 0.0 0.0 
-5.874306425541e-04 -1.144636959167e-04 0.0 
-1.144636959167e-04 2.623681525383e-03 0.0 
0.0 0.0 0.0 
-7.012512418265e-04 -1.657320175364e-04 0.0 
-1.657320175364e-04 2.623988532679e-03 0.0 
0.0 0.0 0.0 
-5.759751432520e-04 -1.431888795261e-04 0.0 
-1.431888795261e-04 2.618495065881e-03 0.0 
0.0 0.0 0.0 
-6.995515458919e-04 -1.968511470464e-04 0.0 
-1.968511470464e-04 2.620258150270e-03 0.0 
0.0 0.0 0.0 
-5.605745785076e-04 -1.688435341253e-04 0.0 
-1.688435341253e-04 2.611944569917e-03 0.0 
0.0 0.0 0.0 
-6.973170836917e-04 -2.259251448504e-04 0.0 
-2.259251448504e-04 2.615554641968e-03 0.0 
0.0 0.0 0.0 
-5.416439675441e-04 -1.920637460706e-04 0.0 
-1.920637460706e-04 2.603617112019e-03 0.0 
0.0 0.0 0.0 
-6.947680110164e-04 -2.529054919655e-04 0.0 
-2.529054919655e-04 2.610287348327e-03 0.0 
0.0 0.0 0.0 
-5.201804994588e-04 -2.122495884206e-04 0.0 
-2.122495884206e-04 2.593645590760e-03 0.0 
0.0 0.0 0.0 
-6.923520717345e-04 -2.768045078261e-04 0.0 
-2.768045078261e-04 2.604612912355e-03 0.0 
0.0 0.0 0.0 
-4.970972971077e-04 -2.284758770164e-04 0.0 
-2.284758770164e-04 2.582034792849e-03 0.0 
0.0 0.0 0.0 
-6.908055971886e-04 -2.964086448634e-04 0.0 
-2.964086448634e-04 2.598666121042e-03 0.0 
0.0 0.0 0.0 
-4.729470529317e-04 -2.397776363580e-04 0.0 
-2.397776363580e-04 2.568828065117e-03 0.0 
0.0 0.0 0.0 
-7.326301928383e-04 1.392655558130e-03 0.0 
1.392655558130e-03 2.060427648208e-03 0.0 
0.0 0.0 0.0 
-6.910366137466e-04 -3.103564887316e-04 0.0 
-3.103564887316e-04 2.593110729787e-03 0.0 
0.0 0.0 0.0 
-4.491244920075e-04 -2.436972237808e-04 0.0 
-2.436972237808e-04 2.554083523512e-03 0.0 
0.0 0.0 0.0 
-6.933059554740e-04 -3.162085372987e-04 0.0 
-3.162085372987e-04 2.587013729646e-03 0.0 
0.0 0.0 0.0 
-7.330619901516e-04 1.227756757799e-03 0.0 
1.227756757799e-03 2.212733905927e-03 0.0 
0.0 0.0 0.0 
-4.257693624582e-04 -2.380015848598e-04 0.0 
-2.380015848598e-04 2.536670702297e-03 0.0 
0.0 0.0 0.0 
-6.979473922768e-04 -3.112882128254e-04 0.0 
-3.112882128254e-04 2.579840902154e-03 0.0 
0.0 0.0 0.0 
-4.045086693447e-04 -2.204911095278e-04 0.0 
-2.204911095278e-04 2.516102430363e-03 0.0 
0.0 0.0 0.0 
-7.059026912971e-04 -2.922549836062e-04 0.0 
-2.922549836062e-04 2.572168309589e-03 0.0 
0.0 0.0 0.0 
-3.875925810906e-04 -1.887547595175e-04 0.0 
-1.887547595175e-04 2.493364645476e-03 0.0 
0.0 0.0 0.0 
-6.124700404954e-04 1.333005620490e-03 0.0 
1.333005620490e-03 1.951702397720e-03 0.0 
0.0 0.0 0.0 
-7.197146050789e-04 -2.557114834247e-04 0.0 
-2.557114834247e-04 2.566229134132e-03 0.0 
0.0 0.0 0.0 
-3.781077142001e-04 -1.429506231055e-04 0.0 
-1.429506231055e-04 2.472749662075e-03 0.0 
0.0 0.0 0.0 
-7.400719290711e-04 -2.052818507764e-04 0.0 
-2.052818507764e-04 2.559930692455e-03 0.0 
0.0 0.0 0.0 
-3.751137449186e-04 -8.057795929944e-05 0.0 
-8.057795929944e-05 2.448637582075e-03 0.0 
0.0 0.0 0.0 
-7.455952034011e-04 -1.321366480187e-04 0.0 
-1.321366480187e-04 2.547071812756e-03 0.0 
0.0 0.0 0.0 
-3.814110100840e-04 6.310579104494e-06 0.0 
6.310579104494e-06 2.417625093323e-03 0.0 
0.0 0.0 0.0 
-7.486957173897e-04 -2.851518469046e-05 0.0 
-2.851518469046e-05 2.529103355494e-03 0.0 
0.0 0.0 0.0 
-4.050828871377e-04 1.246136391798e-04 0.0 
1.246136391798e-04 2.381918549565e-03 0.0 
0.0 0.0 0.0 
-7.516291154291e-04 1.088145932961e-04 0.0 
1.088145932961e-04 2.501432794079e-03 0.0 
0.0 0.0 0.0 
-4.170302369897e-04 2.752611088663e-04 0.0 
2.752611088663e-04 2.335127871801e-03 0.0 
0.0 0.0 0.0 
-7.487780638338e-04 2.757864299323e-04 0.0 
2.757864299323e-04 2.461406733940e-03 0.0 
0.0 0.0 0.0 
-8.451657303514e-04 1.541815324736e-03 0.0 
1.541815324736e-03 2.170577553986e-03 0.0 
0.0 0.0 0.0 
-7.448532561821e-04 4.688988089821e-04 0.0 
4.688988089821e-04 2.413179615897e-03 0.0 
0.0 0.0 0.0 
-4.375139658434e-04 4.499658899858e-04 0.0 
4.499658899858e-04 2.281377549003e-03 0.0 
0.0 0.0 0.0 
-7.321473427916e-04 6.849234175865e-04 0.0 
6.849234175865e-04 2.345295181704e-03 0.0 
0.0 0.0 0.0 
-4.710101195677e-04 6.521218419015e-04 0.0 
6.521218419015e-04 2.220530234569e-03 0.0 
0.0 0.0 0.0 
-7.020041717796e-04 9.357034761509e-04 0.0 
9.357034761509e-04 2.277000832289e-03 0.0 
0.0 0.0 0.0 
-5.229009227264e-04 8.716449753969e-04 0.0 
8.716449753969e-04 2.149846146365e-03 0.0 
0.0 0.0 0.0 
-5.687914633096e-04 1.139805190957e-03 0.0 
1.139805190957e-03 2.070388101306e-03 0.0 
0.0 0.0 0.0 
-8.002714987906e-04 1.392789220198e-03 0.0 
1.392789220198e-03 2.161975372179e-03 0.0 
0.0 0.0 0.0 
-7.219953562494e-04 -5.976625109433e-05 0.0 
-5.976625109433e-05 2.683165699974e-03 0.0 
0.0 0.0 0.0 
-6.964424332568e-04 2.488412102594e-05 0.0 
2.488412102594e-05 2.599784615861e-03 0.0 
0.0 0.0 0.0 
-7.618852839142e-04 -3.006898174197e-05 0.0 
-3.006898174197e-05 2.779788487883e-03 0.0 
0.0 0.0 0.0 
-6.552693124425e-04 -2.452443358505e-06 0.0 
-2.452443358505e-06 2.506558127423e-03 0.0 
0.0 0.0 0.0 
-7.627002053419e-04 1.627287779398e-03 0.0 
1.627287779398e-03 1.937511811240e-03 0.0 
0.0 0.0 0.0 
-8.289905291053e-04 -3.496508923586e-05 0.0 
-3.496508923586e-05 3.195930035800e-03 0.0 
0.0 0.0 0.0 
-7.126078521891e-04 -5.581660925750e-05 0.0 
-5.581660925750e-05 3.129337450988e-03 0.0 
0.0 0.0 0.0 
-8.039613102551e-04 -5.889917317246e-05 0.0 
-5.889917317246e-05 3.129242092799e-03 0.0 
0.0 0.0 0.0 
-7.059301092984e-04 -9.879362604702e-05 0.0 
-9.879362604702e-05 3.118165894785e-03 0.0 
0.0 0.0 0.0 
-8.078185738213e-04 -8.818076041467e-05 0.0 
-8.818076041467e-05 3.119983544641e-03 0.0 
0.0 0.0 0.0 
-7.027959718259e-04 -1.330628895292e-04 0.0 
-1.330628895292e-04 3.114390291796e-03 0.0 
0.0 0.0 0.0 
-8.147633651009e-04 -1.186374502337e-04 0.0 
-1.186374502337e-04 3.117745698201e-03 0.0 
0.0 0.0 0.0 
-7.012512418265e-04 -1.660603088673e-04 0.0 
-1.660603088673e-04 3.112105406869e-03 0.0 
0.0 0.0 0.0 
-8.233502450605e-04 -1.477088961875e-04 0.0 
-1.477088961875e-04 3.117537412972e-03 0.0 
0.0 0.0 0.0 
-6.995515458919e-04 -1.969590923177e-04 0.0 
-1.969590923177e-04 3.109580325585e-03 0.0 
0.0 0.0 0.0 
-8.333594075203e-04 -1.743388305688e-04 0.0 
-1.743388305688e-04 3.117757767694e-03 0.0 
0.0 0.0 0.0 
-6.973170836917e-04 -2.252444732364e-04 0.0 
-2.252444732364e-04 3.106287574570e-03 0.0 
0.0 0.0 0.0 
-8.450416335734e-04 -1.980899981907e-04 0.0 
-1.980899981907e-04 3.117972822619e-03 0.0 
0.0 0.0 0.0 
-6.947680110164e-04 -2.502730241430e-04 0.0 
-2.502730241430e-04 3.101638582429e-03 0.0 
0.0 0.0 0.0 
-8.584897207891e-04 -2.177728341692e-04 0.0 
-2.177728341692e-04 3.117894881695e-03 0.0 
0.0 0.0 0.0 
-6.923520717345e-04 -2.706088071082e-04 0.0 
-2.706088071082e-04 3.095404905479e-03 0.0 
0.0 0.0 0.0 
-8.742460347022e-04 -2.319134999747e-04 0.0 
-2.319134999747e-04 3.117509407042e-03 0.0 
0.0 0.0 0.0 
-6.908055971886e-04 -2.846625597890e-04 0.0 
-2.846625597890e-04 3.087720219465e-03 0.0 
0.0 0.0 0.0 
-8.134546885774e-04 1.331127871256e-03 0.0 
1.331127871256e-03 2.387104509571e-03 0.0 
0.0 0.0 0.0 
-8.931932800434e-04 -2.392529529432e-04 0.0 
-2.392529529432e-04 3.117028162085e-03 0.0 
0.0 0.0 0.0 
-6.910366137466e-04 -2.905909399625e-04 0.0 
-2.905909399625e-04 3.078118144121e-03 0.0 
0.0 0.0 0.0 
-9.156135345090e-04 -2.380745275919e-04 0.0 
-2.380745275919e-04 3.116076753163e-03 0.0 
0.0 0.0 0.0 
-7.020041717796e-04 1.277395477494e-03 0.0 
1.277395477494e-03 2.265305117157e-03 0.0 
0.0 0.0 0.0 
-6.933059554740e-04 -2.859489191369e-04 0.0 
-2.859489191369e-04 3.065397894651e-03 0.0 
0.0 0.0 0.0 
-8.629955753268e-04 1.156815109605e-03 0.0 
1.156815109605e-03 2.573802492909e-03 0.0 
0.0 0.0 0.0 
-9.415672358031e-04 -2.260420694204e-04 0.0 
-2.260420694204e-04 3.113548549875e-03 0.0 
0.0 0.0 0.0 
-6.979473922768e-04 -2.678595113798e-04 0.0 
-2.678595113798e-04 3.048168466788e-03 0.0 
0.0 0.0 0.0 
-9.711163642636e-04 -1.997830858147e-04 0.0 
-1.997830858147e-04 3.108463817091e-03 0.0 
0.0 0.0 0.0 
-7.059026912971e-04 -2.328699005139e-04 0.0 
-2.328699005139e-04 3.026152277090e-03 0.0 
0.0 0.0 0.0 
-1.004887542637e-03 -1.549917762993e-04 0.0 
-1.549917762993e-04 3.101250601689e-03 0.0 
0.0 0.0 0.0 
-7.197146050789e-04 -1.769067413289e-04 0.0 
-1.769067413289e-04 3.001274366940e-03 0.0 
0.0 0.0 0.0 
-1.019846685293e-03 -9.260738114568e-05 0.0 
-9.260738114568e-05 3.088166065948e-03 0.0 
0.0 0.0 0.0 
-7.400719290711e-04 -9.207705595299e-05 0.0 
-9.207705595299e-05 2.968477512956e-03 0.0 
0.0 0.0 0.0 
-8.929708737526e-04 1.465580152469e-03 0.0 
1.465580152469e-03 2.482509126063e-03 0.0 
0.0 0.0 0.0 
-1.026915858729e-03 -2.119280731385e-06 0.0 
-2.119280731385e-06 3.065760070195e-03 0.0 
0.0 0.0 0.0 
-7.455952034011e-04 2.333375591190e-05 0.0 
2.333375591190e-05 2.921856774876e-03 0.0 
0.0 0.0 0.0 
-1.028486439641e-03 1.164584135921e-04 0.0 
1.164584135921e-04 3.029324890134e-03 0.0 
0.0 0.0 0.0 
-7.486957173897e-04 1.691320956929e-04 0.0 
1.691320956929e-04 2.861535036005e-03 0.0 
0.0 0.0 0.0 
-7.516291154291e-04 3.442022268325e-04 0.0 
3.442022268325e-04 2.786821481262e-03 0.0 
0.0 0.0 0.0 
-1.019694537625e-03 2.619814674176e-04 0.0 
2.619814674176e-04 2.975694855160e-03 0.0 
0.0 0.0 0.0 
-7.487780638338e-04 5.526211731971e-04 0.0 
5.526211731971e-04 2.697397969149e-03 0.0 
0.0 0.0 0.0 
-9.989088702024e-04 4.381970098527e-04 0.0 
4.381970098527e-04 2.906656487024e-03 0.0 
0.0 0.0 0.0 
-7.448532561821e-04 7.926668685947e-04 0.0 
7.926668685947e-04 2.581945216712e-03 0.0 
0.0 0.0 0.0 
-7.321473427916e-04 1.067102439483e-03 0.0 
1.067102439483e-03 2.458061004783e-03 0.0 
0.0 0.0 0.0 
-9.603154838409e-04 6.390598204293e-04 0.0 
6.390598204293e-04 2.812550180354e-03 0.0 
0.0 0.0 0.0 
-8.857108692322e-04 8.820748714825e-04 0.0 
8.820748714825e-04 2.692935041350e-03 0.0 
0.0 0.0 0.0 
-8.550262146220e-04 1.334056956998e-03 0.0 
1.334056956998e-03 2.433783623653e-03 0.0 
0.0 0.0 0.0 
-7.791008762298e-04 -5.958015308034e-05 0.0 
-5.958015308034e-05 3.125408185563e-03 0.0 
0.0 0.0 0.0 
-8.197836740388e-04 3.446337775796e-05 0.0 
3.446337775796e-05 3.198944313735e-03 0.0 
0.0 0.0 0.0 
-7.618852839142e-04 -1.892824506048e-05 0.0 
-1.892824506048e-05 3.029396619570e-03 0.0 
0.0 0.0 0.0 
-8.382858972460e-04 -3.715418863169e-06 0.0 
-3.715418863169e-06 3.291348481979e-03 0.0 
0.0 0.0 0.0 
-7.330619901516e-04 1.555841249047e-03 0.0 
1.555841249047e-03 2.181508275487e-03 0.0 
0.0 0.0 0.0 
-8.289905291053e-04 -3.479952886194e-05 0.0 
-3.479952886194e-05 3.563118259459e-03 0.0 
0.0 0.0 0.0 
-9.044925668817e-04 -4.581618686962e-05 0.0 
-4.581618686962e-05 3.611122282863e-03 0.0 
0.0 0.0 0.0 
-8.039613102551e-04 -3.938152013417e-05 0.0 
-3.938152013417e-05 3.610372706443e-03 0.0 
0.0 0.0 0.0 
-9.068456382205e-04 -8.662271686018e-05 0.0 
-8.662271686018e-05 3.611954439981e-03 0.0 
0.0 0.0 0.0 
-8.078185738213e-04 -7.083811021267e-05 0.0 
-7.083811021267e-05 3.609474385629e-03 0.0 
0.0 0.0 0.0 
-9.135334365856e-04 -1.179885840361e-04 0.0 
-1.179885840361e-04 3.611502545870e-03 0.0 
0.0 0.0 0.0 
-8.147633651009e-04 -1.010370355217e-04 0.0 
-1.010370355217e-04 3.607807606839e-03 0.0 
0.0 0.0 0.0 
-9.257108323097e-04 -1.477193825559e-04 0.0 
-1.477193825559e-04 3.612730517698e-03 0.0 
0.0 0.0 0.0 
-8.233502450605e-04 -1.278927969249e-04 0.0 
-1.278927969249e-04 3.607211026175e-03 0.0 
0.0 0.0 0.0 
-9.425762557180e-04 -1.751921942325e-04 0.0 
-1.751921942325e-04 3.615103197715e-03 0.0 
0.0 0.0 0.0 
-8.333594075203e-04 -1.509308441207e-04 0.0 
-1.509308441207e-04 3.606916018233e-03 0.0 
0.0 0.0 0.0 
-9.630583433063e-04 -1.992800067999e-04 0.0 
-1.992800067999e-04 3.618161427335e-03 0.0 
0.0 0.0 0.0 
-8.450416335734e-04 -1.697325876694e-04 0.0 
-1.697325876694e-04 3.606435833443e-03 0.0 
0.0 0.0 0.0 
-9.866658348702e-04 -2.194713553140e-04 0.0 
-2.194713553140e-04 3.620905878346e-03 0.0 
0.0 0.0 0.0 
-8.584897207891e-04 -1.827519152410e-04 0.0 
-1.827519152410e-04 3.604257116926e-03 0.0 
0.0 0.0 0.0 
-1.013656830934e-03 -2.334326860899e-04 0.0 
-2.334326860899e-04 3.623116488313e-03 0.0 
0.0 0.0 0.0 
-8.742460347022e-04 -1.883245545217e-04 0.0 
-1.883245545217e-04 3.600128866671e-03 0.0 
0.0 0.0 0.0 
-9.955827028389e-04 1.225032644069e-03 0.0 
1.225032644069e-03 2.846432952818e-03 0.0 
0.0 0.0 0.0 
-1.044575882857e-03 -2.390747085007e-04 0.0 
-2.390747085007e-04 3.625016850261e-03 0.0 
0.0 0.0 0.0 
-8.931932800434e-04 -1.849897464324e-04 0.0 
-1.849897464324e-04 3.594347462109e-03 0.0 
0.0 0.0 0.0 
-1.078783598570e-03 1.029715457613e-03 0.0 
1.029715457613e-03 3.042106109364e-03 0.0 
0.0 0.0 0.0 
-1.079675821313e-03 -2.352276054192e-04 0.0 
-2.352276054192e-04 3.625857484403e-03 0.0 
0.0 0.0 0.0 
-9.156135345090e-04 -1.706128933712e-04 0.0 
-1.706128933712e-04 3.585573162459e-03 0.0 
0.0 0.0 0.0 
-1.119035980506e-03 -2.196104707779e-04 0.0 
-2.196104707779e-04 3.624274450505e-03 0.0 
0.0 0.0 0.0 
-9.415672358031e-04 -1.423673379118e-04 0.0 
-1.423673379118e-04 3.571896417491e-03 0.0 
0.0 0.0 0.0 
-1.162808051395e-03 -1.891421075741e-04 0.0 
-1.891421075741e-04 3.618646439959e-03 0.0 
0.0 0.0 0.0 
-8.857108692322e-04 1.184441669040e-03 0.0 
1.184441669040e-03 2.705425713531e-03 0.0 
0.0 0.0 0.0 
-9.711163642636e-04 -9.656799969070e-05 0.0 
-9.656799969070e-05 3.551011974889e-03 0.0 
0.0 0.0 0.0 
-1.210944560562e-03 -1.388231570280e-04 0.0 
-1.388231570280e-04 3.608282716790e-03 0.0 
0.0 0.0 0.0 
-1.004887542637e-03 -2.880576712279e-05 0.0 
-2.880576712279e-05 3.522229043042e-03 0.0 
0.0 0.0 0.0 
-1.231777782723e-03 -5.975854751822e-05 0.0 
-5.975854751822e-05 3.583554275121e-03 0.0 
0.0 0.0 0.0 
-1.019846685293e-03 6.759795806449e-05 0.0 
6.759795806449e-05 3.477960478065e-03 0.0 
0.0 0.0 0.0 
-1.241718070228e-03 4.540673181419e-05 0.0 
4.540673181419e-05 3.543384136866e-03 0.0 
0.0 0.0 0.0 
-1.026915858729e-03 1.894965870542e-04 0.0 
1.894965870542e-04 3.417160302738e-03 0.0 
0.0 0.0 0.0 
-1.241440261194e-03 1.782788885702e-04 0.0 
1.782788885702e-04 3.488278546095e-03 0.0 
0.0 0.0 0.0 
-1.028486439641e-03 3.420528398831e-04 0.0 
3.420528398831e-04 3.338143331418e-03 0.0 
0.0 0.0 0.0 
-1.228354523894e-03 3.436219054716e-04 0.0 
3.436219054716e-04 3.414106701467e-03 0.0 
0.0 0.0 0.0 
-1.048588051390e-03 1.335748295915e-03 0.0 
1.335748295915e-03 2.925040530344e-03 0.0 
0.0 0.0 0.0 
-1.194831728845e-03 5.326324003166e-04 0.0 
5.326324003166e-04 3.311273410054e-03 0.0 
0.0 0.0 0.0 
-1.019694537625e-03 5.240969032217e-04 0.0 
5.240969032217e-04 3.240915571119e-03 0.0 
0.0 0.0 0.0 
-1.118258546530e-03 7.692063447123e-04 0.0 
7.692063447123e-04 3.181227932594e-03 0.0 
0.0 0.0 0.0 
-9.989088702024e-04 7.381911767745e-04 0.0 
7.381911767745e-04 3.108038583394e-03 0.0 
0.0 0.0 0.0 
-9.603154838409e-04 9.876648191709e-04 0.0 
9.876648191709e-04 2.961407130100e-03 0.0 
0.0 0.0 0.0 
-1.010340172833e-03 1.216202628618e-03 0.0 
1.216202628618e-03 2.834070226737e-03 0.0 
0.0 0.0 0.0 
-8.990036071720e-04 -6.117722050487e-05 0.0 
-6.117722050487e-05 3.640462960008e-03 0.0 
0.0 0.0 0.0 
-8.545534836794e-04 3.295764523488e-05 0.0 
3.295764523488e-05 3.560184376161e-03 0.0 
0.0 0.0 0.0 
-9.139512433903e-04 -2.123034386439e-05 0.0 
-2.123034386439e-05 3.732924695657e-03 0.0 
0.0 0.0 0.0 
-8.382858972460e-04 -4.465103655941e-06 0.0 
-4.465103655941e-06 3.471397966456e-03 0.0 
0.0 0.0 0.0 
-8.629955753268e-04 1.447507420088e-03 0.0 
1.447507420088e-03 2.592170498655e-03 0.0 
0.0 0.0 0.0 
-9.803524525707e-04 -2.959616467072e-05 0.0 
-2.959616467072e-05 4.140745472691e-03 0.0 
0.0 0.0 0.0 
-9.044925668817e-04 -4.020579073787e-05 0.0 
-4.020579073787e-05 4.092440215382e-03 0.0 
0.0 0.0 0.0 
-9.876788908028e-04 -3.579349571331e-05 0.0 
-3.579349571331e-05 4.093089410694e-03 0.0 
0.0 0.0 0.0 
-9.068456382205e-04 -7.020465580049e-05 0.0 
-7.020465580049e-05 4.087587105112e-03 0.0 
0.0 0.0 0.0 
-9.986377523128e-04 -5.532802327532e-05 0.0 
-5.532802327532e-05 4.090334930630e-03 0.0 
0.0 0.0 0.0 
-9.135334365856e-04 -9.181939292640e-05 0.0 
-9.181939292640e-05 4.087084900260e-03 0.0 
0.0 0.0 0.0 
-1.015694491975e-03 -7.470396326427e-05 0.0 
-7.470396326427e-05 4.091529596743e-03 0.0 
0.0 0.0 0.0 
-9.257108323097e-04 -1.122877644328e-04 0.0 
-1.122877644328e-04 4.088407509351e-03 0.0 
0.0 0.0 0.0 
-1.039727761878e-03 -9.228179998784e-05 0.0 
-9.228179998784e-05 4.095190514981e-03 0.0 
0.0 0.0 0.0 
-9.425762557180e-04 -1.307755529921e-04 0.0 
-1.307755529921e-04 4.090437931881e-03 0.0 
0.0 0.0 0.0 
-1.069214562202e-03 -1.076151901248e-04 0.0 
-1.076151901248e-04 4.100235402629e-03 0.0 
0.0 0.0 0.0 
-9.630583433063e-04 -1.460467703074e-04 0.0 
-1.460467703074e-04 4.091394933435e-03 0.0 
0.0 0.0 0.0 
-1.099318556702e-03 -1.195646467681e-04 0.0 
-1.195646467681e-04 4.104836645698e-03 0.0 
0.0 0.0 0.0 
-9.866658348702e-04 -1.557454912522e-04 0.0 
-1.557454912522e-04 4.090628254888e-03 0.0 
0.0 0.0 0.0 
-1.135191419122e-03 -1.251479541358e-04 0.0 
-1.251479541358e-04 4.108808293089e-03 0.0 
0.0 0.0 0.0 
-1.013656830934e-03 -1.581041204594e-04 0.0 
-1.581041204594e-04 4.086893638845e-03 0.0 
0.0 0.0 0.0 
-1.211245403363e-03 1.075648632258e-03 0.0 
1.075648632258e-03 3.384928439653e-03 0.0 
0.0 0.0 0.0 
-1.174913190922e-03 -1.220294793633e-04 0.0 
-1.220294793633e-04 4.111290830542e-03 0.0 
0.0 0.0 0.0 
-1.044575882857e-03 -1.504751510664e-04 0.0 
-1.504751510664e-04 4.080644602291e-03 0.0 
0.0 0.0 0.0 
-1.118258546530e-03 1.043235952122e-03 0.0 
1.043235952122e-03 3.242741591140e-03 0.0 
0.0 0.0 0.0 
-1.217048507090e-03 -1.090766215212e-04 0.0 
-1.090766215212e-04 4.112123406051e-03 0.0 
0.0 0.0 0.0 
-1.079675821313e-03 -1.305856488137e-04 0.0 
-1.305856488137e-04 4.071104977639e-03 0.0 
0.0 0.0 0.0 
-1.290379559693e-03 9.047189989765e-04 0.0 
9.047189989765e-04 3.575641612019e-03 0.0 
0.0 0.0 0.0 
-1.263548612391e-03 -8.456309107632e-05 0.0 
-8.456309107632e-05 4.110322764189e-03 0.0 
0.0 0.0 0.0 
-1.119035980506e-03 -9.603644063529e-05 0.0 
-9.603644063529e-05 4.055574263920e-03 0.0 
0.0 0.0 0.0 
-1.313293531292e-03 -4.543632763234e-05 0.0 
-4.543632763234e-05 4.103417511262e-03 0.0 
0.0 0.0 0.0 
-1.162808051395e-03 -4.298934373780e-05 0.0 
-4.298934373780e-05 4.031549136197e-03 0.0 
0.0 0.0 0.0 
-1.365379134472e-03 1.161377542461e-05 0.0 
1.161377542461e-05 4.088437734274e-03 0.0 
0.0 0.0 0.0 
-1.210944560562e-03 3.472594118687e-05 0.0 
3.472594118687e-05 3.993143311276e-03 0.0 
0.0 0.0 0.0 
-1.257336925269e-03 1.179890319314e-03 0.0 
1.179890319314e-03 3.457265158386e-03 0.0 
0.0 0.0 0.0 
-1.398701538484e-03 9.289005310299e-05 0.0 
9.289005310299e-05 4.056858419387e-03 0.0 
0.0 0.0 0.0 
-1.231777782723e-03 1.365780547312e-04 0.0 
1.365780547312e-04 3.937043825227e-03 0.0 
0.0 0.0 0.0 
-1.404900150944e-03 1.959918961428e-04 0.0 
1.959918961428e-04 4.005949539296e-03 0.0 
0.0 0.0 0.0 
-1.241718070228e-03 2.672316137374e-04 0.0 
2.672316137374e-04 3.861716329095e-03 0.0 
0.0 0.0 0.0 
-1.241440261194e-03 4.275283115318e-04 0.0 
4.275283115318e-04 3.769792055284e-03 0.0 
0.0 0.0 0.0 
-1.400639747619e-03 3.285776601535e-04 0.0 
3.285776601535e-04 3.936220634594e-03 0.0 
0.0 0.0 0.0 
-1.228354523894e-03 6.214997108134e-04 0.0 
6.214997108134e-04 3.639921743594e-03 0.0 
0.0 0.0 0.0 
-1.380830249884e-03 4.810897566386e-04 0.0 
4.810897566386e-04 3.840496600321e-03 0.0 
0.0 0.0 0.0 
-1.194831728845e-03 8.508858371937e-04 0.0 
8.508858371937e-04 3.502942128994e-03 0.0 
0.0 0.0 0.0 
-1.316658878723e-03 6.828190925820e-04 0.0 
6.828190925820e-04 3.712990819032e-03 0.0 
0.0 0.0 0.0 
-1.226757705383e-03 1.078347895013e-03 0.0 
1.078347895013e-03 3.354681565203e-03 0.0 
0.0 0.0 0.0 
-9.242737738213e-04 -6.063750002777e-05 0.0 
-6.063750002777e-05 4.066842721066e-03 0.0 
0.0 0.0 0.0 
-9.670258221693e-04 3.593189867343e-05 0.0 
3.593189867343e-05 4.144013546712e-03 0.0 
0.0 0.0 0.0 
-9.139512433903e-04 -1.895123364707e-05 0.0 
-1.895123364707e-05 3.975741646132e-03 0.0 
0.0 0.0 0.0 
-9.787092392348e-04 -2.986221270580e-06 0.0 
-2.986221270580e-06 4.231010428951e-03 0.0 
0.0 0.0 0.0 
-1.078783598570e-03 1.293003206303e-03 0.0 
1.293003206303e-03 3.103032727207e-03 0.0 
0.0 0.0 0.0 
-9.803524525707e-04 -2.633750978579e-05 0.0 
-2.633750978579e-05 4.503514426493e-03 0.0 
0.0 0.0 0.0 
-1.041313182985e-03 -2.787749671703e-05 0.0 
-2.787749671703e-05 4.555605510523e-03 0.0 
0.0 0.0 0.0 
-9.876788908028e-04 -2.471894127997e-05 0.0 
-2.471894127997e-05 4.555155569249e-03 0.0 
0.0 0.0 0.0 
-1.050955809134e-03 -5.100999438103e-05 0.0 
-5.100999438103e-05 4.560658434259e-03 0.0 
0.0 0.0 0.0 
-9.986377523128e-04 -3.465338710425e-05 0.0 
-3.465338710425e-05 4.557910654098e-03 0.0 
0.0 0.0 0.0 
-1.067112785177e-03 -6.240874145541e-05 0.0 
-6.240874145541e-05 4.563415792887e-03 0.0 
0.0 0.0 0.0 
-1.015694491975e-03 -4.400901169686e-05 0.0 
-4.400901169686e-05 4.559221664004e-03 0.0 
0.0 0.0 0.0 
-1.088694046605e-03 -7.133868147652e-05 0.0 
-7.133868147652e-05 4.567285025904e-03 0.0 
0.0 0.0 0.0 
-1.039727761878e-03 -5.009063716665e-05 0.0 
-5.009063716665e-05 4.561207916628e-03 0.0 
0.0 0.0 0.0 
-1.118329299957e-03 -7.664544552025e-05 0.0 
-7.664544552025e-05 4.572854353689e-03 0.0 
0.0 0.0 0.0 
-1.069214562202e-03 -5.172602321673e-05 0.0 
-5.172602321673e-05 4.564273445399e-03 0.0 
0.0 0.0 0.0 
-1.153387409151e-03 -7.816119336528e-05 0.0 
-7.816119336528e-05 4.577945558610e-03 0.0 
0.0 0.0 0.0 
-1.099318556702e-03 -4.741559485220e-05 0.0 
-4.741559485220e-05 4.565528740525e-03 0.0 
0.0 0.0 0.0 
-1.196759562516e-03 -7.554325569946e-05 0.0 
-7.554325569946e-05 4.582886726891e-03 0.0 
0.0 0.0 0.0 
-1.135191419122e-03 -3.821847173007e-05 0.0 
-3.821847173007e-05 4.565494087568e-03 0.0 
0.0 0.0 0.0 
-1.407036223744e-03 9.552531724248e-04 0.0 
9.552531724248e-04 3.964928111119e-03 0.0 
0.0 0.0 0.0 
-1.247251301327e-03 -6.852440409536e-05 0.0 
-6.852440409536e-05 4.585825859153e-03 0.0 
0.0 0.0 0.0 
-1.458291969952e-03 7.949986584754e-04 0.0 
7.949986584754e-04 4.119536462272e-03 0.0 
0.0 0.0 0.0 
-1.174913190922e-03 -2.142524531527e-05 0.0 
-2.142524531527e-05 4.560969120864e-03 0.0 
0.0 0.0 0.0 
-1.294067832452e-03 -5.089629493125e-05 0.0 
-5.089629493125e-05 4.583787032303e-03 0.0 
0.0 0.0 0.0 
-1.217048507090e-03 7.652774831244e-06 0.0 
7.652774831244e-06 4.549698789588e-03 0.0 
0.0 0.0 0.0 
-1.342708096053e-03 -1.855231020182e-05 0.0 
-1.855231020182e-05 4.577751237741e-03 0.0 
0.0 0.0 0.0 
-1.263548612391e-03 5.081038263660e-05 0.0 
5.081038263660e-05 4.533615320731e-03 0.0 
0.0 0.0 0.0 
-1.394411899096e-03 2.746639749279e-05 0.0 
2.746639749279e-05 4.565056752017e-03 0.0 
0.0 0.0 0.0 
-1.316658878723e-03 9.362037768773e-04 0.0 
9.362037768773e-04 3.806819889516e-03 0.0 
0.0 0.0 0.0 
-1.313293531292e-03 1.116852943389e-04 0.0 
1.116852943389e-04 4.507224760810e-03 0.0 
0.0 0.0 0.0 
-1.447686711595e-03 9.253219816631e-05 0.0 
9.253219816631e-05 4.542600973755e-03 0.0 
0.0 0.0 0.0 
-1.365379134472e-03 1.937093682242e-04 0.0 
1.937093682242e-04 4.468142075388e-03 0.0 
0.0 0.0 0.0 
-1.498477398016e-03 1.766624305138e-04 0.0 
1.766624305138e-04 4.502215072715e-03 0.0 
0.0 0.0 0.0 
-1.398701538484e-03 2.973166424891e-04 0.0 
2.973166424891e-04 4.405534581545e-03 0.0 
0.0 0.0 0.0 
-1.518942479847e-03 2.888375763266e-04 0.0 
2.888375763266e-04 4.441904866565e-03 0.0 
0.0 0.0 0.0 
-1.404900150944e-03 4.260843724014e-04 0.0 
4.260843724014e-04 4.322932567014e-03 0.0 
0.0 0.0 0.0 
-1.510232756539e-03 4.200746769270e-04 0.0 
4.200746769270e-04 4.353640670461e-03 0.0 
0.0 0.0 0.0 
-1.468691473201e-03 5.988174408787e-04 0.0 
5.988174408787e-04 4.240818299711e-03 0.0 
0.0 0.0 0.0 
-1.400639747619e-03 5.858907126444e-04 0.0 
5.858907126444e-04 4.203452960469e-03 0.0 
0.0 0.0 0.0 
-1.438073952796e-03 1.037901709015e-03 0.0 
1.037901709015e-03 4.022814042817e-03 0.0 
0.0 0.0 0.0 
-1.380830249884e-03 7.755576530158e-04 0.0 
7.755576530158e-04 4.074719185943e-03 0.0 
0.0 0.0 0.0 
-1.407132363592e-03 9.474696449282e-04 0.0 
9.474696449282e-04 3.882820344258e-03 0.0 
0.0 0.0 0.0 
-1.028025769192e-03 -5.806102341074e-05 0.0 
-5.806102341074e-05 4.570733909518e-03 0.0 
0.0 0.0 0.0 
-9.889484692666e-04 3.996099048511e-05 0.0 
3.996099048511e-05 4.500204873990e-03 0.0 
0.0 0.0 0.0 
-1.037032085975e-03 -1.496794519281e-05 0.0 
-1.496794519281e-05 4.663327041935e-03 0.0 
0.0 0.0 0.0 
-9.787092392348e-04 -4.907402358645e-07 0.0 
-4.907402358645e-07 4.411590331035e-03 0.0 
0.0 0.0 0.0 
-1.290379559693e-03 1.150297670504e-03 0.0 
1.150297670504e-03 3.676632678467e-03 0.0 
0.0 0.0 0.0 
-1.086520342835e-03 -1.536268466032e-05 0.0 
-1.536268466032e-05 5.055854954451e-03 0.0 
0.0 0.0 0.0 
-1.041313182985e-03 -1.236203538493e-05 0.0 
-1.236203538493e-05 5.010161576843e-03 0.0 
0.0 0.0 0.0 
-1.092867867721e-03 -8.468480652245e-06 0.0 
-8.468480652245e-06 5.010798032018e-03 0.0 
0.0 0.0 0.0 
-1.050955809134e-03 -2.551138315829e-05 0.0 
-2.551138315829e-05 5.007034148089e-03 0.0 
0.0 0.0 0.0 
-1.111176320785e-03 -7.871894306858e-06 0.0 
-7.871894306858e-06 5.010615843874e-03 0.0 
0.0 0.0 0.0 
-1.067112785177e-03 -2.623102071226e-05 0.0 
-2.623102071226e-05 5.008708781431e-03 0.0 
0.0 0.0 0.0 
-1.135357731154e-03 -8.206239028154e-06 0.0 
-8.206239028154e-06 5.013894473255e-03 0.0 
0.0 0.0 0.0 
-1.088694046605e-03 -2.456783850759e-05 0.0 
-2.456783850759e-05 5.007857202894e-03 0.0 
0.0 0.0 0.0 
-1.162162051297e-03 -1.822318330274e-06 0.0 
-1.822318330274e-06 5.016135902695e-03 0.0 
0.0 0.0 0.0 
-1.118329299957e-03 -1.685939520329e-05 0.0 
-1.685939520329e-05 5.011175450540e-03 0.0 
0.0 0.0 0.0 
-1.199627282226e-03 5.602871047273e-06 0.0 
5.602871047273e-06 5.021635080281e-03 0.0 
0.0 0.0 0.0 
-1.153387409151e-03 -5.503539327822e-06 0.0 
-5.503539327822e-06 5.010114753265e-03 0.0 
0.0 0.0 0.0 
-1.239815112636e-03 2.274065401439e-05 0.0 
2.274065401439e-05 5.025408173235e-03 0.0 
0.0 0.0 0.0 
-1.548881327557e-03 8.463186216405e-04 0.0 
8.463186216405e-04 4.545627385420e-03 0.0 
0.0 0.0 0.0 
-1.196759562516e-03 1.546243955690e-05 0.0 
1.546243955690e-05 5.011361746998e-03 0.0 
0.0 0.0 0.0 
-1.290552371262e-03 4.389444958967e-05 0.0 
4.389444958967e-05 5.029934197861e-03 0.0 
0.0 0.0 0.0 
-1.468691473201e-03 8.300423911431e-04 0.0 
8.300423911431e-04 4.384867693590e-03 0.0 
0.0 0.0 0.0 
-1.247251301327e-03 4.510735076598e-05 0.0 
4.510735076598e-05 5.004739474053e-03 0.0 
0.0 0.0 0.0 
-1.342574657591e-03 7.785769308600e-05 0.0 
7.785769308600e-05 5.028757122267e-03 0.0 
0.0 0.0 0.0 
-1.569280918869e-03 7.270150511624e-04 0.0 
7.270150511624e-04 4.670030853726e-03 0.0 
0.0 0.0 0.0 
-1.294067832452e-03 8.582010543368e-05 0.0 
8.582010543368e-05 4.993346578802e-03 0.0 
0.0 0.0 0.0 
-1.403939129753e-03 1.202477344382e-04 0.0 
1.202477344382e-04 5.023102562738e-03 0.0 
0.0 0.0 0.0 
-1.342708096053e-03 1.364750664240e-04 0.0 
1.364750664240e-04 4.973127853336e-03 0.0 
0.0 0.0 0.0 
-1.450366361656e-03 1.708228941783e-04 0.0 
1.708228941783e-04 5.006621646829e-03 0.0 
0.0 0.0 0.0 
-1.394411899096e-03 2.036621314445e-04 0.0 
2.036621314445e-04 4.940696509419e-03 0.0 
0.0 0.0 0.0 
-1.577025158195e-03 9.259158453764e-04 0.0 
9.259158453764e-04 4.600123295837e-03 0.0 
0.0 0.0 0.0 
-1.500427786112e-03 2.398141731761e-04 0.0 
2.398141731761e-04 4.979421728939e-03 0.0 
0.0 0.0 0.0 
-1.447686711595e-03 2.912570149236e-04 0.0 
2.912570149236e-04 4.895754607924e-03 0.0 
0.0 0.0 0.0 
-1.498477398016e-03 3.995662990263e-04 0.0 
3.995662990263e-04 4.834989660176e-03 0.0 
0.0 0.0 0.0 
-1.545341516468e-03 3.265949526103e-04 0.0 
3.265949526103e-04 4.937054260973e-03 0.0 
0.0 0.0 0.0 
-1.518942479847e-03 5.316573844245e-04 0.0 
5.316573844245e-04 4.733804608498e-03 0.0 
0.0 0.0 0.0 
-1.582629076667e-03 4.263884447722e-04 0.0 
4.263884447722e-04 4.871346417751e-03 0.0 
0.0 0.0 0.0 
-1.510232756539e-03 6.942981184416e-04 0.0 
6.942981184416e-04 4.626162036811e-03 0.0 
0.0 0.0 0.0 
-1.558657714871e-03 5.679279745305e-04 0.0 
5.679279745305e-04 4.773538111771e-03 0.0 
0.0 0.0 0.0 
-1.551272741515e-03 8.447274827432e-04 0.0 
8.447274827432e-04 4.452191109038e-03 0.0 
0.0 0.0 0.0 
-1.036643902137e-03 -5.481859728371e-05 0.0 
-5.481859728371e-05 4.984022618692e-03 0.0 
0.0 0.0 0.0 
-1.078568938158e-03 4.660198647394e-05 0.0 
4.660198647394e-05 5.059493056725e-03 0.0 
0.0 0.0 0.0 
-1.037032085975e-03 -1.038898242788e-05 0.0 
-1.038898242788e-05 4.898142581029e-03 0.0 
0.0 0.0 0.0 
-1.079439446809e-03 5.158063163916e-06 0.0 
5.158063163916e-06 5.140763080800e-03 0.0 
0.0 0.0 0.0 
-1.458291969952e-03 1.012295731039e-03 0.0 
1.012295731039e-03 4.261377667851e-03 0.0 
0.0 0.0 0.0 
-1.086520342835e-03 -8.985943635937e-06 0.0 
-8.985943635937e-06 5.416325531910e-03 0.0 
0.0 0.0 0.0 
-1.100131050601e-03 9.733585602096e-07 0.0 
9.733585602096e-07 5.447128997596e-03 0.0 
0.0 0.0 0.0 
-1.092867867721e-03 1.407987023053e-05 0.0 
1.407987023053e-05 5.445561922927e-03 0.0 
0.0 0.0 0.0 
-1.119598809668e-03 6.063972622925e-06 0.0 
6.063972622925e-06 5.453166527647e-03 0.0 
0.0 0.0 0.0 
-1.111176320785e-03 2.388246663574e-05 0.0 
2.388246663574e-05 5.449956514519e-03 0.0 
0.0 0.0 0.0 
-1.140547881386e-03 1.513315822292e-05 0.0 
1.513315822292e-05 5.457383690455e-03 0.0 
0.0 0.0 0.0 
-1.135357731154e-03 3.373898122388e-05 0.0 
3.373898122388e-05 5.452934013763e-03 0.0 
0.0 0.0 0.0 
-1.165997183796e-03 2.249675383448e-05 0.0 
2.249675383448e-05 5.456046563298e-03 0.0 
0.0 0.0 0.0 
-1.162162051297e-03 5.207682965816e-05 0.0 
5.207682965816e-05 5.447263601287e-03 0.0 
0.0 0.0 0.0 
-1.192786045158e-03 4.670532441140e-05 0.0 
4.670532441140e-05 5.459185630010e-03 0.0 
0.0 0.0 0.0 
-1.199627282226e-03 7.271790911079e-05 0.0 
7.271790911079e-05 5.450217766674e-03 0.0 
0.0 0.0 0.0 
-1.233959136405e-03 6.424643228220e-05 0.0 
6.424643228220e-05 5.458413519482e-03 0.0 
0.0 0.0 0.0 
-1.634610421453e-03 7.873628648381e-04 0.0 
7.873628648381e-04 5.101976460741e-03 0.0 
0.0 0.0 0.0 
-1.239815112636e-03 1.040836666041e-04 0.0 
1.040836666041e-04 5.442258172865e-03 0.0 
0.0 0.0 0.0 
-1.599657006547e-03 6.791835768832e-04 0.0 
6.791835768832e-04 5.190625557066e-03 0.0 
0.0 0.0 0.0 
-1.272605546028e-03 1.020112909727e-04 0.0 
1.020112909727e-04 5.458263685725e-03 0.0 
0.0 0.0 0.0 
-1.290552371262e-03 1.423081990353e-04 0.0 
1.423081990353e-04 5.440294030745e-03 0.0 
0.0 0.0 0.0 
-1.327169667338e-03 1.365795185482e-04 0.0 
1.365795185482e-04 5.451666914160e-03 0.0 
0.0 0.0 0.0 
-1.342574657591e-03 1.933839346570e-04 0.0 
1.933839346570e-04 5.422673403409e-03 0.0 
0.0 0.0 0.0 
-1.382234232337e-03 1.933467560126e-04 0.0 
1.933467560126e-04 5.442382088111e-03 0.0 
0.0 0.0 0.0 
-1.403939129753e-03 2.582459753618e-04 0.0 
2.582459753618e-04 5.406083663028e-03 0.0 
0.0 0.0 0.0 
-1.434410950366e-03 2.601729995184e-04 0.0 
2.601729995184e-04 5.422635098056e-03 0.0 
0.0 0.0 0.0 
-1.558657714871e-03 7.835527070531e-04 0.0 
7.835527070531e-04 4.934631889900e-03 0.0 
0.0 0.0 0.0 
-1.450366361656e-03 3.392213166669e-04 0.0 
3.392213166669e-04 5.373156260305e-03 0.0 
0.0 0.0 0.0 
-1.493232957916e-03 3.395575423658e-04 0.0 
3.395575423658e-04 5.391538981968e-03 0.0 
0.0 0.0 0.0 
-1.500427786112e-03 4.324252668526e-04 0.0 
4.324252668526e-04 5.326881535688e-03 0.0 
0.0 0.0 0.0 
-1.537845658605e-03 4.332194644836e-04 0.0 
4.332194644836e-04 5.342137068553e-03 0.0 
0.0 0.0 0.0 
-1.568956397508e-03 5.497282583489e-04 0.0 
5.497282583489e-04 5.273350052291e-03 0.0 
0.0 0.0 0.0 
-1.545341516468e-03 5.440405441956e-04 0.0 
5.440405441956e-04 5.258487384759e-03 0.0 
0.0 0.0 0.0 
-1.582629076667e-03 6.708123563197e-04 0.0 
6.708123563197e-04 5.175951941446e-03 0.0 
0.0 0.0 0.0 
-1.656057130148e-03 8.554740037925e-04 0.0 
8.554740037925e-04 5.149367210932e-03 0.0 
0.0 0.0 0.0 
-1.630053475370e-03 7.846463263057e-04 0.0 
7.846463263057e-04 4.983380455924e-03 0.0 
0.0 0.0 0.0 
-1.106405413048e-03 -4.452744623616e-05 0.0 
-4.452744623616e-05 5.453870713425e-03 0.0 
0.0 0.0 0.0 
-1.083336999305e-03 5.997008818834e-05 0.0 
5.997008818834e-05 5.412266540989e-03 0.0 
0.0 0.0 0.0 
-1.109509848890e-03 5.059646907642e-06 0.0 
5.059646907642e-06 5.553052519350e-03 0.0 
0.0 0.0 0.0 
-1.079439446809e-03 1.284006446289e-05 0.0 
1.284006446289e-05 5.317107191586e-03 0.0 
0.0 0.0 0.0 
-1.569280918869e-03 9.269902400891e-04 0.0 
9.269902400891e-04 4.845954316429e-03 0.0 
0.0 0.0 0.0 

TENSORS element_materi_strain_plasti float
-1.278716781713e-04 2.317088785895e-03 0.0 
2.317088785895e-03 1.725589617193e-03 0.0 
0.0 0.0 -6.847362595807e-04 
-1.156199042648e-04 2.024353748068e-03 0.0 
2.024353748068e-03 1.515455915080e-03 0.0 
0.0 0.0 -5.999297189210e-04 
-1.399419419615e-03 2.869344170324e-03 0.0 
2.869344170324e-03 7.127002349296e-03 0.0 
0.0 0.0 -1.278236581085e-03 
-1.499770292198e-03 1.938127459123e-04 0.0 
1.938127459123e-04 8.462485561252e-03 0.0 
0.0 0.0 -1.255598393855e-03 
-1.590286579790e-03 5.866412250785e-04 0.0 
5.866412250785e-04 5.570411940462e-03 0.0 
0.0 0.0 -7.961861350945e-04 
9.753052699299e-04 2.049730811989e-03 0.0 
2.049730811989e-03 -7.410546550660e-04 0.0 
0.0 0.0 -1.003931206560e-04 
-1.532722360608e-03 5.037005669365e-04 0.0 
5.037005669365e-04 5.548158926813e-03 0.0 
0.0 0.0 -8.011023898636e-04 
6.217083316277e-05 2.386622999709e-03 0.0 
2.386622999709e-03 1.415043626867e-03 0.0 
0.0 0.0 -6.330919114413e-04 
-1.605315258057e-03 4.380832637377e-06 0.0 
4.380832637377e-06 5.621376957900e-03 0.0 
0.0 0.0 -7.977904104816e-04 
-1.475813289088e-03 8.034655794974e-04 0.0 
8.034655794974e-04 8.366055234102e-03 0.0 
0.0 0.0 -1.253060141438e-03 
-1.723349006480e-03 -4.463465104632e-04 0.0 
-4.463465104632e-04 5.097851564140e-03 0.0 
0.0 0.0 -1.066978692879e-03 
5.108532101025e-06 1.964113970332e-03 0.0 
1.964113970332e-03 1.245831196254e-03 0.0 
0.0 0.0 -5.361170264378e-04 
-1.727294747470e-03 -3.711696677191e-04 0.0 
-3.711696677191e-04 6.945132129710e-03 0.0 
0.0 0.0 -1.259187713256e-03 
-1.707478703098e-03 1.059006860170e-03 0.0 
1.059006860170e-03 5.791719022601e-03 0.0 
0.0 0.0 -8.526168115438e-04 
-1.560262196776e-03 -9.393570101401e-04 0.0 
-9.393570101401e-04 6.928774089182e-03 0.0 
0.0 0.0 -1.289538875031e-03 
-1.440818830272e-03 6.754770737443e-04 0.0 
6.754770737443e-04 8.548838696717e-03 0.0 
0.0 0.0 -1.285984941237e-03 
-1.662616207287e-03 5.344607310422e-04 0.0 
5.344607310422e-04 5.529033418926e-03 0.0 
0.0 0.0 -7.740676797406e-04 
7.357046437425e-05 6.570695833459e-05 0.0 
6.570695833459e-05 -7.357046437425e-05 0.0 
0.0 0.0 0.0 
-6.149932217399e-04 -2.296531181353e-04 0.0 
-2.296531181353e-04 1.902161440616e-03 0.0 
0.0 0.0 -2.776016825098e-04 
-5.498585393581e-04 -2.166839192677e-04 0.0 
-2.166839192677e-04 1.738279106343e-03 0.0 
0.0 0.0 -4.484512109716e-04 
-1.512957112042e-03 4.043623184242e-04 0.0 
4.043623184242e-04 8.437324312554e-03 0.0 
0.0 0.0 -1.250388265701e-03 
-3.873012428043e-04 2.129273940428e-03 0.0 
2.129273940428e-03 2.185606563766e-03 0.0 
0.0 0.0 -7.707022804121e-04 
-4.415956435739e-04 2.226005795527e-03 0.0 
2.226005795527e-03 2.374460708771e-03 0.0 
0.0 0.0 -8.283707422273e-04 
-4.392711161920e-04 -9.745966439417e-04 0.0 
-9.745966439417e-04 3.836297522503e-03 0.0 
0.0 0.0 -1.210372970477e-03 
-1.729903628601e-03 1.506745383258e-03 0.0 
1.506745383258e-03 5.975665893657e-03 0.0 
0.0 0.0 -9.130988374533e-04 
-1.810671457854e-03 -7.476421640110e-04 0.0 
-7.476421640110e-04 5.330964071115e-03 0.0 
0.0 0.0 -1.080045423496e-03 
-1.736477005164e-03 1.109495533801e-03 0.0 
1.109495533801e-03 4.957414051106e-03 0.0 
0.0 0.0 -7.148082707961e-04 
-9.553018808659e-04 3.102749138761e-03 0.0 
3.102749138761e-03 5.566273317297e-03 0.0 
0.0 0.0 -1.266047838742e-03 
-1.821356794347e-03 1.188786638151e-03 0.0 
1.188786638151e-03 6.013421513739e-03 0.0 
0.0 0.0 -9.113908267906e-04 
-6.554257296263e-04 -8.444129216472e-04 0.0 
-8.444129216472e-04 4.294151155513e-03 0.0 
0.0 0.0 -1.237914324842e-03 
1.345111965206e-03 -2.563071370678e-03 0.0 
-2.563071370678e-03 -3.409519374557e-04 0.0 
0.0 0.0 -4.303542976074e-04 
3.575551772738e-04 -9.432915107626e-04 0.0 
-9.432915107626e-04 3.359353657627e-04 0.0 
0.0 0.0 -1.059755802940e-04 
-1.524187206040e-03 3.047553797097e-03 0.0 
3.047553797097e-03 7.492448074924e-03 0.0 
0.0 0.0 -1.261301343383e-03 
-2.126259398598e-03 -4.008249318176e-04 0.0 
-4.008249318176e-04 6.245433906960e-03 0.0 
0.0 0.0 -1.090200430068e-03 
-1.168924377092e-03 -2.135391167217e-03 0.0 
-2.135391167217e-03 5.528728836968e-03 0.0 
0.0 0.0 -1.254989870190e-03 
-1.506183274607e-03 -1.403999252581e-03 0.0 
-1.403999252581e-03 6.695784423920e-03 0.0 
0.0 0.0 -1.314886350686e-03 
-1.405965625827e-03 -2.094418066157e-03 0.0 
-2.094418066157e-03 6.677666447639e-03 0.0 
0.0 0.0 -1.314653105918e-03 
-6.328504155879e-04 1.260189016710e-03 0.0 
1.260189016710e-03 4.185986138576e-03 0.0 
0.0 0.0 -1.264739017786e-03 
-1.486815579568e-03 -1.990720886798e-04 0.0 
-1.990720886798e-04 5.107008468447e-03 0.0 
0.0 0.0 -7.380763454961e-04 
-1.448070308282e-03 4.493602178438e-04 0.0 
4.493602178438e-04 5.173305882684e-03 0.0 
0.0 0.0 -7.371174501546e-04 
-8.280494050984e-04 2.109474212237e-03 0.0 
2.109474212237e-03 3.158688487348e-03 0.0 
0.0 0.0 -8.774464902234e-04 
-1.113239206738e-03 -1.655283581889e-03 0.0 
-1.655283581889e-03 5.115282801902e-03 0.0 
0.0 0.0 -1.280756488215e-03 
3.008174076713e-04 2.119260517804e-03 0.0 
2.119260517804e-03 8.825314744810e-04 0.0 
0.0 0.0 -5.071495209224e-04 
-1.653413400617e-03 1.159238962241e-03 0.0 
1.159238962241e-03 4.683778627350e-03 0.0 
0.0 0.0 -7.557105610435e-04 
-1.547330050851e-03 3.671214089611e-05 0.0 
3.671214089611e-05 8.340609894927e-03 0.0 
0.0 0.0 -1.212858513926e-03 
3.049695683184e-04 2.191509382836e-03 0.0 
2.191509382836e-03 9.207765491606e-04 0.0 
0.0 0.0 -5.253197646338e-04 
1.207574275293e-03 -2.365696291912e-03 0.0 
-2.365696291912e-03 -7.132596237324e-04 0.0 
0.0 0.0 -2.118491363831e-04 
-1.445646034229e-03 2.633500934319e-04 0.0 
2.633500934319e-04 8.137788974429e-03 0.0 
0.0 0.0 -1.234743356787e-03 
1.908988241954e-04 -8.061125310431e-04 0.0 
-8.061125310431e-04 -1.579045808258e-05 0.0 
0.0 0.0 -7.504644261978e-05 
-1.740092141895e-03 6.147961927965e-04 0.0 
6.147961927965e-04 5.664008038323e-03 0.0 
0.0 0.0 -8.229436299569e-04 
-6.078592580179e-04 2.220023986171e-03 0.0 
2.220023986171e-03 2.788765867991e-03 0.0 
0.0 0.0 -9.296584868968e-04 
-8.623973456416e-04 -2.162048895284e-04 0.0 
-2.162048895284e-04 2.432076766193e-03 0.0 
0.0 0.0 -4.150917825895e-04 
2.292279279293e-03 -2.762669743217e-03 0.0 
-2.762669743217e-03 -9.405005062222e-04 0.0 
0.0 0.0 -5.793337598876e-04 
-6.898259874441e-04 2.091701766161e-03 0.0 
2.091701766161e-03 2.855891423984e-03 0.0 
0.0 0.0 -8.656335400463e-04 
-1.445100174427e-03 2.379194139466e-03 0.0 
2.379194139466e-03 7.706829156199e-03 0.0 
0.0 0.0 -1.282189168212e-03 
-9.586804568965e-04 -6.913799780171e-04 0.0 
-6.913799780171e-04 2.989840683449e-03 0.0 
0.0 0.0 -7.128710764410e-04 
-6.997308059935e-04 -2.320910788817e-04 0.0 
-2.320910788817e-04 2.233925226019e-03 0.0 
0.0 0.0 -5.951090654820e-04 
-2.130460140960e-03 -2.340494849444e-04 0.0 
-2.340494849444e-04 6.282260078053e-03 0.0 
0.0 0.0 -1.087734043503e-03 
1.076454852669e-04 -7.426368379909e-04 0.0 
-7.426368379909e-04 1.194913348537e-03 0.0 
0.0 0.0 -3.122055485762e-04 
-1.457512378927e-03 3.071898754378e-04 0.0 
3.071898754378e-04 8.560769857503e-03 0.0 
0.0 0.0 -1.285320035817e-03 
0.0 0.0 0.0 
0.0 0.0 0.0 
0.0 0.0 0.0 
-5.387044635242e-04 2.656482396914e-03 0.0 
2.656482396914e-03 4.203857407929e-03 0.0 
0.0 0.0 -1.210824713543e-03 
3.439414593790e-04 2.794168595655e-03 0.0 
2.794168595655e-03 1.235314347192e-03 0.0 
0.0 0.0 -6.768239171020e-04 
2.349935129578e-03 -2.770680198001e-03 0.0 
-2.770680198001e-03 -6.796113691984e-04 0.0 
0.0 0.0 -7.158530401625e-04 
-1.671429738175e-03 -1.210022446990e-03 0.0 
-1.210022446990e-03 6.777156017205e-03 0.0 
0.0 0.0 -1.257478522087e-03 
-5.278364963199e-04 2.118194625541e-03 0.0 
2.118194625541e-03 2.531471725177e-03 0.0 
0.0 0.0 -8.587008123673e-04 
0.0 0.0 0.0 
0.0 0.0 0.0 
0.0 0.0 0.0 
-1.493925828084e-03 3.040545355870e-03 0.0 
3.040545355870e-03 7.302395090943e-03 0.0 
0.0 0.0 -1.261660853087e-03 
4.867824217369e-04 -2.505859056628e-03 0.0 
-2.505859056628e-03 8.835287678333e-04 0.0 
0.0 0.0 -5.872762241015e-04 
-1.271990412820e-03 3.214687538356e-03 0.0 
3.214687538356e-03 6.250345422673e-03 0.0 
0.0 0.0 -1.282376455277e-03 
-1.831786578585e-03 -1.075910520083e-03 0.0 
-1.075910520083e-03 5.407233681497e-03 0.0 
0.0 0.0 -1.080053202689e-03 
-1.338499280800e-03 1.682976327997e-03 0.0 
1.682976327997e-03 8.399936015446e-03 0.0 
0.0 0.0 -1.338499280800e-03 
-9.312572041143e-04 2.894697176184e-03 0.0 
2.894697176184e-03 4.910832013066e-03 0.0 
0.0 0.0 -1.232909111256e-03 
1.433784453303e-03 -9.093882019497e-05 0.0 
-9.093882019497e-05 -5.456392549777e-05 0.0 
0.0 0.0 -2.878745769087e-04 
-9.147252279940e-04 -5.669281210358e-04 0.0 
-5.669281210358e-04 2.973437083954e-03 0.0 
0.0 0.0 -8.116687730804e-04 
-1.536993954654e-03 1.126957410002e-03 0.0 
1.126957410002e-03 8.303326713538e-03 0.0 
0.0 0.0 -1.262626981217e-03 
-1.574019976009e-03 2.576738749078e-03 0.0 
2.576738749078e-03 7.875617774672e-03 0.0 
0.0 0.0 -1.265352048664e-03 
4.720058723338e-04 2.134723574062e-03 0.0 
2.134723574062e-03 6.830651359346e-04 0.0 
0.0 0.0 -4.950304321150e-04 
-3.200456338227e-04 -3.352696368382e-04 0.0 
-3.352696368382e-04 1.110105412521e-03 0.0 
0.0 0.0 -3.374836250442e-04 
5.206675697946e-04 2.217090668705e-03 0.0 
2.217090668705e-03 6.763455683265e-04 0.0 
0.0 0.0 -5.130056306233e-04 
4.804782057485e-04 -2.508358039830e-03 0.0 
-2.508358039830e-03 8.916054330170e-04 0.0 
0.0 0.0 -5.880358451852e-04 
-1.625607394925e-03 4.831506481737e-04 0.0 
4.831506481737e-04 5.291976980867e-03 0.0 
0.0 0.0 -7.918363975426e-04 
-2.908848742719e-04 2.252062443166e-03 0.0 
2.252062443166e-03 2.033636756898e-03 0.0 
0.0 0.0 -7.468936639825e-04 
-2.599695243754e-04 1.891700121758e-03 0.0 
1.891700121758e-03 1.743771242898e-03 0.0 
0.0 0.0 -6.359150222241e-04 
-1.678000531135e-03 1.594922248822e-04 0.0 
1.594922248822e-04 5.821879659601e-03 0.0 
0.0 0.0 -8.336771054075e-04 
-1.596383286677e-03 5.670740920774e-04 0.0 
5.670740920774e-04 5.789976808295e-03 0.0 
0.0 0.0 -8.358076868167e-04 
-1.951624680642e-03 -7.308270384445e-04 0.0 
-7.308270384445e-04 5.657668243585e-03 0.0 
0.0 0.0 -1.080533843704e-03 
-2.196082702137e-03 8.354918695911e-05 0.0 
8.354918695911e-05 6.184278536814e-03 0.0 
0.0 0.0 -1.059807920279e-03 
-1.525646772161e-03 2.625569910847e-03 0.0 
2.625569910847e-03 6.112973773832e-03 0.0 
0.0 0.0 -1.085941371602e-03 
-1.648645582224e-03 1.246285648401e-04 0.0 
1.246285648401e-04 5.489793155500e-03 0.0 
0.0 0.0 -7.983229688164e-04 
-1.123057724715e-05 -5.872900984588e-04 0.0 
-5.872900984588e-04 3.960725969021e-04 0.0 
0.0 0.0 -1.649322941379e-04 
-1.757846623502e-03 1.222419041867e-03 0.0 
1.222419041867e-03 5.122536551657e-03 0.0 
0.0 0.0 -7.928983479555e-04 
-1.578530100158e-03 5.920453420347e-05 0.0 
5.920453420347e-05 7.247400490716e-03 0.0 
0.0 0.0 -1.069439317440e-03 
-1.600676841679e-03 3.339381263473e-04 0.0 
3.339381263473e-04 7.321452075562e-03 0.0 
0.0 0.0 -1.046447409317e-03 
-1.502072334268e-03 1.832498170444e-03 0.0 
1.832498170444e-03 8.633609047693e-03 0.0 
0.0 0.0 -1.319970921405e-03 
-9.007094055422e-04 1.223013959388e-03 0.0 
1.223013959388e-03 4.725884480151e-03 0.0 
0.0 0.0 -1.294194962782e-03 
-1.674253522828e-03 4.484898109266e-04 0.0 
4.484898109266e-04 5.280548957068e-03 0.0 
0.0 0.0 -7.889745663688e-04 
-1.078149223135e-03 -1.912876176720e-03 0.0 
-1.912876176720e-03 5.515902141362e-03 0.0 
0.0 0.0 -1.263183913703e-03 
-1.546584036688e-03 -9.624953365827e-05 0.0 
-9.624953365827e-05 6.233353762451e-03 0.0 
0.0 0.0 -9.040008563810e-04 
1.411194399049e-04 2.915371637598e-03 0.0 
2.915371637598e-03 1.618838156256e-03 0.0 
0.0 0.0 -7.542675412120e-04 
-1.587713497171e-03 1.272120189302e-04 0.0 
1.272120189302e-04 5.375209747655e-03 0.0 
0.0 0.0 -7.643292725053e-04 
-1.604005809179e-03 -6.682657737697e-04 0.0 
-6.682657737697e-04 6.948639054056e-03 0.0 
0.0 0.0 -1.287517816355e-03 
3.542986660605e-04 2.115271012738e-03 0.0 
2.115271012738e-03 2.453989176071e-03 0.0 
0.0 0.0 -1.043751955586e-03 
-5.121197440995e-04 2.106847301720e-03 0.0 
2.106847301720e-03 4.264562002622e-03 0.0 
0.0 0.0 -1.209599240962e-03 
8.414669120651e-04 2.750323762399e-03 0.0 
2.750323762399e-03 6.433152604662e-04 0.0 
0.0 0.0 -6.363352167991e-04 
5.516999887664e-04 -2.796976242529e-03 0.0 
-2.796976242529e-03 1.148224010342e-04 0.0 
0.0 0.0 -2.856524527717e-04 
-1.904299824368e-03 -6.917450604687e-04 0.0 
-6.917450604687e-04 6.641778035438e-03 0.0 
0.0 0.0 -1.189902873528e-03 
-1.601708388107e-03 3.286250233117e-04 0.0 
3.286250233117e-04 7.722816405099e-03 0.0 
0.0 0.0 -1.108790581071e-03 
3.810766207411e-05 -6.205157488134e-04 0.0 
-6.205157488134e-04 -3.810766207412e-05 0.0 
0.0 0.0 0.0 
-1.434793545909e-03 -1.524718547292e-03 0.0 
-1.524718547292e-03 6.503522325473e-03 0.0 
0.0 0.0 -1.285127980003e-03 
-1.436465131336e-03 2.957908754166e-03 0.0 
2.957908754166e-03 5.615958785865e-03 0.0 
0.0 0.0 -1.051491716222e-03 
2.107685358584e-03 1.966346604052e-04 0.0 
1.966346604052e-04 -5.019158565474e-04 0.0 
0.0 0.0 -2.190510374322e-04 
1.208695653732e-03 2.926354061763e-03 0.0 
2.926354061763e-03 1.261066979529e-04 0.0 
0.0 0.0 -5.720581507223e-04 
-1.531499204645e-03 1.574438431832e-03 0.0 
1.574438431832e-03 4.499656748010e-03 0.0 
0.0 0.0 -7.914135736088e-04 
-9.815222315618e-04 -1.138374471426e-03 0.0 
-1.138374471426e-03 3.347141370850e-03 0.0 
0.0 0.0 -9.587991763485e-04 
2.655737035557e-04 2.419593458192e-03 0.0 
2.419593458192e-03 1.115288623384e-03 0.0 
0.0 0.0 -5.917981401168e-04 
3.744529332960e-04 2.946102748991e-03 0.0 
2.946102748991e-03 1.286129190467e-03 0.0 
0.0 0.0 -7.116780530414e-04 
-1.321847859093e-03 -1.772500593240e-03 0.0 
-1.772500593240e-03 5.826707907603e-03 0.0 
0.0 0.0 -1.283833066805e-03 
-1.525040410968e-03 2.578190730368e-04 0.0 
2.578190730368e-04 6.156621214154e-03 0.0 
0.0 0.0 -8.766975940251e-04 
5.363756903500e-04 2.629255494055e-03 0.0 
2.629255494055e-03 8.922896369146e-04 0.0 
0.0 0.0 -6.122851402562e-04 
1.683483209039e-04 -2.096310185990e-03 0.0 
-2.096310185990e-03 1.080312045122e-03 0.0 
0.0 0.0 -5.351401568681e-04 
-1.746303579404e-03 1.473532537081e-03 0.0 
1.473532537081e-03 5.178940412439e-03 0.0 
0.0 0.0 -7.744920945421e-04 
-1.517476482960e-03 1.097936493812e-04 0.0 
1.097936493812e-04 7.545801257606e-03 0.0 
0.0 0.0 -1.129288753466e-03 
5.838877050126e-04 2.764835075281e-03 0.0 
2.764835075281e-03 9.155423273699e-04 0.0 
0.0 0.0 -6.426128710211e-04 
3.893622582553e-04 1.575203385168e-03 0.0 
1.575203385168e-03 3.980592224466e-04 0.0 
0.0 0.0 -3.374663488723e-04 
-1.195366450636e-03 1.829833708586e-03 0.0 
1.829833708586e-03 3.827762851113e-03 0.0 
0.0 0.0 -8.233021825037e-04 
-1.094193203907e-03 -1.066143348073e-03 0.0 
-1.066143348073e-03 3.532112380788e-03 0.0 
0.0 0.0 -8.981558865158e-04 
-1.046482062160e-03 1.913988030913e-03 0.0 
1.913988030913e-03 3.510208918747e-03 0.0 
0.0 0.0 -8.113141688877e-04 
-1.442225258082e-03 1.605824937381e-03 0.0 
1.605824937381e-03 8.359073722744e-03 0.0 
0.0 0.0 -1.290671971449e-03 
1.101065632512e-03 2.933128537393e-03 0.0 
2.933128537393e-03 9.745442457705e-05 0.0 
0.0 0.0 -5.136514530381e-04 
-1.801548102835e-03 -7.282038970032e-04 0.0 
-7.282038970032e-04 5.288878918754e-03 0.0 
0.0 0.0 -1.060402641786e-03 
-1.486141105577e-03 5.585996661944e-04 0.0 
5.585996661944e-04 8.452622925900e-03 0.0 
0.0 0.0 -1.256690274141e-03 
-3.198454740031e-04 3.015481670953e-03 0.0 
3.015481670953e-03 2.568097898378e-03 0.0 
0.0 0.0 -9.635367533037e-04 
-1.021958554670e-03 1.956756434106e-03 0.0 
1.956756434106e-03 3.500404682426e-03 0.0 
0.0 0.0 -8.457158960689e-04 
-1.158957625686e-03 -1.674495574427e-03 0.0 
-1.674495574427e-03 5.533719249484e-03 0.0 
0.0 0.0 -1.254964138299e-03 
-1.718729624033e-03 -7.379037217155e-04 0.0 
-7.379037217155e-04 6.953664324138e-03 0.0 
0.0 0.0 -1.261070974318e-03 
-1.967620110819e-03 -6.331696876036e-04 0.0 
-6.331696876036e-04 5.669647458342e-03 0.0 
0.0 0.0 -1.061066130071e-03 
-6.061740370739e-04 3.049979969874e-03 0.0 
3.049979969874e-03 3.089302566165e-03 0.0 
0.0 0.0 -9.441827087005e-04 
-7.851765230129e-04 -1.170373150230e-03 0.0 
-1.170373150230e-03 4.916146318737e-03 0.0 
0.0 0.0 -1.270330610962e-03 
-5.043578746139e-04 2.747041251980e-03 0.0 
2.747041251980e-03 2.809200300211e-03 0.0 
0.0 0.0 -9.719555150774e-04 
-1.411040385942e-03 9.892815171228e-04 0.0 
9.892815171228e-04 8.317615504874e-03 0.0 
0.0 0.0 -1.283174495648e-03 
-1.289076372121e-03 3.481935391156e-03 0.0 
3.481935391156e-03 6.606253020577e-03 0.0 
0.0 0.0 -1.267437373369e-03 
-1.784736589840e-03 7.085096522011e-04 0.0 
7.085096522011e-04 5.733057783552e-03 0.0 
0.0 0.0 -8.543707170918e-04 
-1.586571893561e-03 5.026260166066e-04 0.0 
5.026260166066e-04 6.801986481939e-03 0.0 
0.0 0.0 -9.817831382938e-04 
-5.156399995053e-04 2.841155344974e-03 0.0 
2.841155344974e-03 2.858892473080e-03 0.0 
0.0 0.0 -9.645491798066e-04 
-8.623176927628e-04 1.998107917208e-03 0.0 
1.998107917208e-03 3.164246376073e-03 0.0 
0.0 0.0 -8.398345356346e-04 
-3.881715109885e-04 3.210536691478e-03 0.0 
3.210536691478e-03 2.805390491743e-03 0.0 
0.0 0.0 -1.009766620266e-03 
9.302504035183e-04 2.952397877038e-03 0.0 
2.952397877038e-03 6.425944529841e-04 0.0 
0.0 0.0 -6.740763670724e-04 
-1.542505755946e-03 1.216931962656e-05 0.0 
1.216931962656e-05 5.518918282905e-03 0.0 
0.0 0.0 -7.693993191400e-04 
1.440386328935e-03 3.141679147944e-03 0.0 
3.141679147944e-03 1.287757348394e-04 0.0 
0.0 0.0 -6.724980273319e-04 
1.173568897977e-04 -7.192653952147e-04 0.0 
-7.192653952147e-04 2.932653952173e-04 0.0 
0.0 0.0 -1.759809792922e-04 
-1.513364044801e-03 4.633102658988e-05 0.0 
4.633102658988e-05 5.921965621168e-03 0.0 
0.0 0.0 -8.171079392438e-04 
-4.255541535768e-04 -1.657123349734e-04 0.0 
-1.657123349734e-04 1.278602330907e-03 0.0 
0.0 0.0 -2.802839825148e-04 
-1.368206188634e-03 1.704449020245e-03 0.0 
1.704449020245e-03 4.168743630605e-03 0.0 
0.0 0.0 -8.053258742841e-04 
-1.010207907769e-03 -1.246817911064e-03 0.0 
-1.246817911064e-03 4.735746548095e-03 0.0 
0.0 0.0 -1.284796145094e-03 
7.390568671829e-04 2.553228098249e-03 0.0 
2.553228098249e-03 5.918003010214e-04 0.0 
0.0 0.0 -5.703673578019e-04 
-2.093082199977e-03 -2.605836003403e-04 0.0 
-2.605836003403e-04 5.949086090445e-03 0.0 
0.0 0.0 -1.062413871926e-03 
1.655520854684e-04 2.161371362285e-03 0.0 
2.161371362285e-03 1.103022204114e-03 0.0 
0.0 0.0 -5.436746955351e-04 
2.242015872536e-04 2.776975076431e-03 0.0 
2.776975076431e-03 2.408189383906e-03 0.0 
0.0 0.0 -1.044905595188e-03 
-1.509926535812e-03 9.806530388370e-05 0.0 
9.806530388370e-05 5.368363465218e-03 0.0 
0.0 0.0 -7.899655494116e-04 
1.682599579449e-03 2.941445331381e-03 0.0 
2.941445331381e-03 -2.715371857708e-04 0.0 
0.0 0.0 -6.047410258623e-04 
-2.057240178145e-03 -7.296543458156e-04 0.0 
-7.296543458156e-04 6.353419805029e-03 0.0 
0.0 0.0 -1.120963572432e-03 
7.939550842651e-05 -1.701837783695e-03 0.0 
-1.701837783695e-03 9.541700722220e-04 0.0 
0.0 0.0 -4.429566774208e-04 
-1.888286542342e-03 -4.078361496187e-04 0.0 
-4.078361496187e-04 6.637817436663e-03 0.0 
0.0 0.0 -1.189111243166e-03 
-1.407485654430e-03 2.291313923690e-03 0.0 
2.291313923690e-03 4.423118315057e-03 0.0 
0.0 0.0 -8.496092609019e-04 
-1.655956820216e-03 -1.430755689950e-03 0.0 
-1.430755689950e-03 6.808595235967e-03 0.0 
0.0 0.0 -1.265987209193e-03 
-1.479137566383e-03 6.125436213776e-05 0.0 
6.125436213776e-05 5.372221524286e-03 0.0 
0.0 0.0 -7.842605076999e-04 
1.138347058752e-03 2.740886700746e-03 0.0 
2.740886700746e-03 1.338850972854e-04 0.0 
0.0 0.0 -5.452423525874e-04 
-1.371065394049e-03 1.713545049238e-03 0.0 
1.713545049238e-03 4.152463321133e-03 0.0 
0.0 0.0 -7.801847948469e-04 
-1.782923268792e-03 -4.744584193542e-04 0.0 
-4.744584193542e-04 5.239530130494e-03 0.0 
0.0 0.0 -1.068702715777e-03 
1.574789883305e-04 2.145072666255e-03 0.0 
2.145072666255e-03 1.105288466408e-03 0.0 
0.0 0.0 -5.411860520308e-04 
1.917158204157e-03 2.902714119045e-03 0.0 
2.902714119045e-03 -2.818191306246e-04 0.0 
0.0 0.0 -7.008596029424e-04 
-1.624113157274e-03 6.876053139899e-05 0.0 
6.876053139899e-05 7.048361475913e-03 0.0 
0.0 0.0 -1.016465148841e-03 
-1.496185645618e-03 2.597795714976e-04 0.0 
2.597795714976e-04 5.580042956141e-03 0.0 
0.0 0.0 -7.680022369673e-04 
1.209193990119e-03 2.857448575399e-03 0.0 
2.857448575399e-03 6.945453600021e-05 0.0 
0.0 0.0 -5.479922254795e-04 
-1.208481437465e-03 1.793019710120e-03 0.0 
1.793019710120e-03 3.824789842828e-03 0.0 
0.0 0.0 -7.984459790235e-04 
-1.152184433486e-03 3.335097296693e-03 0.0 
3.335097296693e-03 5.424015752646e-03 0.0 
0.0 0.0 -1.136725521675e-03 
-1.147448492341e-03 -1.324005404889e-03 0.0 
-1.324005404889e-03 3.757906895843e-03 0.0 
0.0 0.0 -9.635001610743e-04 
-1.057040178935e-03 2.860292126594e-03 0.0 
2.860292126594e-03 5.175691718835e-03 0.0 
0.0 0.0 -1.285202198870e-03 
-1.235950081423e-03 3.387647794385e-03 0.0 
3.387647794385e-03 6.387700415222e-03 0.0 
0.0 0.0 -1.265486236287e-03 
9.281696803103e-05 2.658900655702e-03 0.0 
2.658900655702e-03 1.536267417270e-03 0.0 
0.0 0.0 -6.981790222718e-04 
-1.143109251794e-03 -9.968271358534e-04 0.0 
-9.968271358534e-04 3.727905850470e-03 0.0 
0.0 0.0 -9.933498913217e-04 
8.375618411632e-06 -4.309904929494e-04 0.0 
-4.309904929494e-04 3.045007785971e-03 0.0 
0.0 0.0 -1.152822474774e-03 
-6.877546197814e-04 2.505636337626e-03 0.0 
2.505636337626e-03 3.038701524841e-03 0.0 
0.0 0.0 -9.245708556394e-04 
1.703115487888e-04 2.091650289530e-03 0.0 
2.091650289530e-03 1.051916456575e-03 0.0 
0.0 0.0 -5.238120022987e-04 
-1.475392442541e-03 1.965496358724e-03 0.0 
1.965496358724e-03 4.467421796523e-03 0.0 
0.0 0.0 -8.137754052845e-04 
9.749921592096e-04 3.123149167265e-03 0.0 
3.123149167265e-03 7.036965901565e-04 0.0 
0.0 0.0 -7.194380354427e-04 
-1.431612767918e-03 8.458326217491e-04 0.0 
8.458326217491e-04 8.384155646033e-03 0.0 
0.0 0.0 -1.279059907835e-03 
-1.564281029058e-03 2.665406032541e-03 0.0 
2.665406032541e-03 6.081997352065e-03 0.0 
0.0 0.0 -1.060691896764e-03 
-1.994493389840e-03 -1.486147162618e-04 0.0 
-1.486147162618e-04 6.559276794178e-03 0.0 
0.0 0.0 -1.155968210243e-03 
4.093528604226e-04 2.208508467563e-03 0.0 
2.208508467563e-03 7.981291822907e-04 0.0 
0.0 0.0 -5.174923040200e-04 
2.334418016396e-03 2.579116851284e-03 0.0 
2.579116851284e-03 -5.999483228990e-04 0.0 
0.0 0.0 -7.433441543560e-04 
-1.484568773685e-03 2.868377484862e-03 0.0 
2.868377484862e-03 6.031945958818e-03 0.0 
0.0 0.0 -1.089453766084e-03 
0.0 0.0 0.0 
0.0 0.0 0.0 
0.0 0.0 0.0 
-6.877179378264e-04 2.407578529618e-03 0.0 
2.407578529618e-03 2.994584755227e-03 0.0 
0.0 0.0 -9.117638418509e-04 
1.701472924961e-04 -1.416553182353e-03 0.0 
-1.416553182353e-03 2.527445138619e-03 0.0 
0.0 0.0 -1.080675545910e-03 
7.614101656211e-04 -9.306526935755e-04 0.0 
-9.306526935755e-04 6.714955075901e-04 0.0 
0.0 0.0 -3.004177607877e-04 
-1.466695883915e-03 2.895664536321e-03 0.0 
2.895664536321e-03 7.498365973997e-03 0.0 
0.0 0.0 -1.257517519450e-03 
-1.714163728762e-03 1.976135659385e-03 0.0 
1.976135659385e-03 6.108584287411e-03 0.0 
0.0 0.0 -9.749624431058e-04 
4.925108656531e-04 -3.055158529449e-03 0.0 
-3.055158529449e-03 1.195571453177e-03 0.0 
0.0 0.0 -7.234638509273e-04 
2.687278214662e-04 -6.810653139458e-04 0.0 
-6.810653139458e-04 2.481884598028e-03 0.0 
0.0 0.0 -1.082135573042e-03 
-1.799351909415e-03 1.409259675503e-03 0.0 
1.409259675503e-03 5.578155389814e-03 0.0 
0.0 0.0 -8.259898420369e-04 
-1.801064707900e-03 1.064269352962e-03 0.0 
1.064269352962e-03 5.991738140388e-03 0.0 
0.0 0.0 -8.838609275114e-04 
-6.913788155709e-04 -1.227574140941e-03 0.0 
-1.227574140941e-03 4.246435019945e-03 0.0 
0.0 0.0 -1.237791025003e-03 
1.617016974439e-05 -2.476429670131e-03 0.0 
-2.476429670131e-03 1.553276678470e-03 0.0 
0.0 0.0 -6.726200778060e-04 
-1.931314796257e-04 3.392233640780e-03 0.0 
3.392233640780e-03 2.538226820427e-03 0.0 
0.0 0.0 -1.005040860343e-03 
-1.319730188756e-03 2.601972306617e-03 0.0 
2.601972306617e-03 4.340655659079e-03 0.0 
0.0 0.0 -8.816854262052e-04 
-1.791217628275e-03 1.648610109221e-03 0.0 
1.648610109221e-03 6.470941124492e-03 0.0 
0.0 0.0 -1.008548823165e-03 
-1.624650418518e-03 2.058268446018e-03 0.0 
2.058268446018e-03 4.841940123608e-03 0.0 
0.0 0.0 -8.379792476443e-04 
-1.489577849007e-03 1.897054155513e-03 0.0 
1.897054155513e-03 4.494677002446e-03 0.0 
0.0 0.0 -8.233332215064e-04 
9.144592983676e-04 2.103723640953e-03 0.0 
2.103723640953e-03 1.164621970286e-03 0.0 
0.0 0.0 -8.910348294228e-04 
-1.234709836901e-03 2.936622841749e-03 0.0 
2.936622841749e-03 5.525011386670e-03 0.0 
0.0 0.0 -1.105110859848e-03 
0.0 0.0 0.0 
0.0 0.0 0.0 
0.0 0.0 0.0 
5.533753092925e-05 2.321065575708e-03 0.0 
2.321065575708e-03 1.385026181291e-03 0.0 
0.0 0.0 -6.172987338087e-04 
9.775337925356e-05 2.647350784272e-03 0.0 
2.647350784272e-03 1.520581698043e-03 0.0 
0.0 0.0 -6.935721759841e-04 
-4.200121646643e-04 3.335963278249e-03 0.0 
3.335963278249e-03 2.868206010904e-03 0.0 
0.0 0.0 -9.575728814879e-04 
-1.648855317221e-03 2.317084043405e-03 0.0 
2.317084043405e-03 6.523041636329e-03 0.0 
0.0 0.0 -1.095076276885e-03 
2.058287304795e-03 2.313329836799e-03 0.0 
2.313329836799e-03 -1.214980310369e-03 0.0 
0.0 0.0 -3.614172833254e-04 
1.621278099486e-04 -1.894393997341e-03 0.0 
-1.894393997341e-03 2.355296152545e-03 0.0 
0.0 0.0 -1.043355442177e-03 
-1.517251520276e-03 -1.088769506638e-04 0.0 
-1.088769506638e-04 5.367725382565e-03 0.0 
0.0 0.0 -7.763349569542e-04 
2.071225716726e-03 2.817742222964e-03 0.0 
2.817742222964e-03 -5.830940965428e-04 0.0 
0.0 0.0 -6.377706943641e-04 
8.701785889744e-05 -2.378886716450e-03 0.0 
-2.378886716450e-03 2.268431335651e-03 0.0 
0.0 0.0 -1.006238978475e-03 
6.688501451719e-04 -8.570105726374e-04 0.0 
-8.570105726374e-04 2.508766139633e-04 0.0 
0.0 0.0 -2.227849532966e-04 
-1.684683593515e-03 2.138149817611e-03 0.0 
2.138149817611e-03 6.451465524737e-03 0.0 
0.0 0.0 -1.040010908530e-03 
1.085799585697e-03 -9.338136306232e-04 0.0 
-9.338136306232e-04 4.841625588175e-05 0.0 
0.0 0.0 -1.827119720807e-04 
1.032861128012e-04 -6.271925775052e-04 0.0 
-6.271925775052e-04 6.433353347809e-04 0.0 
0.0 0.0 -2.890002659678e-04 
4.284292636794e-04 2.188011980544e-03 0.0 
2.188011980544e-03 7.634628543711e-04 0.0 
0.0 0.0 -5.108109077359e-04 
5.217682496460e-06 -2.221552624950e-03 0.0 
-2.221552624950e-03 1.410136832977e-03 0.0 
0.0 0.0 -6.065805066316e-04 
-1.756426844714e-03 1.797081824779e-03 0.0 
1.797081824779e-03 6.815040634103e-03 0.0 
0.0 0.0 -1.073797489760e-03 
1.622101319788e-04 -2.264597495009e-03 0.0 
-2.264597495009e-03 1.173181540105e-03 0.0 
0.0 0.0 -5.723107166073e-04 
1.082074594484e-03 2.640607073619e-03 0.0 
2.640607073619e-03 2.626720583109e-04 0.0 
0.0 0.0 -5.763199940550e-04 
1.605964786137e-03 -3.583242349909e-03 0.0 
-3.583242349909e-03 -7.906667844752e-05 0.0 
0.0 0.0 -6.543849032956e-04 
-3.494454807525e-05 -1.610984925714e-03 0.0 
-1.610984925714e-03 1.099950761190e-03 0.0 
0.0 0.0 -4.564312341920e-04 
1.739023189569e-04 -2.645147422265e-04 0.0 
-2.645147422265e-04 2.696870324371e-03 0.0 
0.0 0.0 -1.117524173959e-03 
-1.429083730494e-03 2.211537082543e-03 0.0 
2.211537082543e-03 4.453302943283e-03 0.0 
0.0 0.0 -8.507820156577e-04 
-1.682802659426e-03 -8.879633472863e-04 0.0 
-8.879633472863e-04 6.796328964063e-03 0.0 
0.0 0.0 -1.256743614961e-03 
0.0 0.0 0.0 
0.0 0.0 0.0 
0.0 0.0 0.0 
1.341168508293e-03 2.860330611598e-03 0.0 
2.860330611598e-03 7.949426344501e-05 0.0 
0.0 0.0 -6.088554736019e-04 
2.068683241690e-03 2.743594093827e-03 0.0 
2.743594093827e-03 -6.076247593681e-04 0.0 
0.0 0.0 -6.261679209952e-04 
-4.650783933680e-04 2.487333802040e-03 0.0 
2.487333802040e-03 2.583809885183e-03 0.0 
0.0 0.0 -9.080277822064e-04 
3.082871487027e-04 -1.189402361213e-03 0.0 
-1.189402361213e-03 2.304624928689e-03 0.0 
0.0 0.0 -1.045235091131e-03 
-1.579554839483e-03 -1.394031692893e-03 0.0 
-1.394031692893e-03 6.678028948098e-03 0.0 
0.0 0.0 -1.275930989368e-03 
-1.684299046229e-03 2.211375405385e-03 0.0 
2.211375405385e-03 6.180161065170e-03 0.0 
0.0 0.0 -1.029499106509e-03 
2.603806802799e-03 2.336705660835e-03 0.0 
2.336705660835e-03 -7.411156882784e-04 0.0 
0.0 0.0 -7.982961919374e-04 
1.043592575535e-04 -8.852470439530e-04 0.0 
-8.852470439530e-04 2.718008520162e-03 0.0 
0.0 0.0 -1.116166892424e-03 
-1.922924089839e-03 -2.680134474821e-04 0.0 
-2.680134474821e-04 5.558845052998e-03 0.0 
0.0 0.0 -1.068822925414e-03 
-7.222094777076e-04 3.206300168432e-03 0.0 
3.206300168432e-03 3.349356457826e-03 0.0 
0.0 0.0 -9.235973587808e-04 
-1.677093997722e-03 2.220083154297e-03 0.0 
2.220083154297e-03 6.117933896180e-03 0.0 
0.0 0.0 -1.003200534345e-03 
-7.865873312168e-04 2.395249233040e-03 0.0 
2.395249233040e-03 4.693437656803e-03 0.0 
0.0 0.0 -1.239730878702e-03 
2.351260119446e-03 2.575200545511e-03 0.0 
2.575200545511e-03 -6.504486438349e-04 0.0 
0.0 0.0 -7.289192038335e-04 
9.551102574568e-04 2.654829682591e-03 0.0 
2.654829682591e-03 4.928673923672e-04 0.0 
0.0 0.0 -6.205618499245e-04 
-1.702788092325e-03 2.198389791733e-03 0.0 
2.198389791733e-03 5.173682012494e-03 0.0 
0.0 0.0 -8.662621843288e-04 
-1.465090691244e-03 1.772844143032e-03 0.0 
1.772844143032e-03 8.679771669805e-03 0.0 
0.0 0.0 -1.323568725688e-03 
-2.196076664333e-04 3.542355712652e-03 0.0 
3.542355712652e-03 2.609169075547e-03 0.0 
0.0 0.0 -9.604425725471e-04 
2.156116458846e-03 1.930277635860e-03 0.0 
1.930277635860e-03 -8.514533959833e-04 0.0 
0.0 0.0 -5.591413126556e-04 
-1.551301896676e-03 9.806982104899e-05 0.0 
9.806982104899e-05 6.010438701821e-03 0.0 
0.0 0.0 -8.293613651800e-04 
5.856186318512e-04 -2.658816906517e-03 0.0 
-2.658816906517e-03 8.548743103244e-04 0.0 
0.0 0.0 -6.173541180753e-04 
-1.598852307231e-03 2.167741205054e-03 0.0 
2.167741205054e-03 4.803959338789e-03 0.0 
0.0 0.0 -8.353017157004e-04 
2.274495282906e-03 2.779935450298e-03 0.0 
2.779935450298e-03 -7.589577722122e-04 0.0 
0.0 0.0 -6.495160760114e-04 
2.298330951285e-03 2.091471460167e-03 0.0 
2.091471460167e-03 -1.204105301713e-03 0.0 
0.0 0.0 -4.689538498166e-04 
2.194832401766e-03 -2.977249775004e-03 0.0 
-2.977249775004e-03 -1.184035248941e-03 0.0 
0.0 0.0 -4.331987797821e-04 
-1.681597496447e-03 2.058302471615e-03 0.0 
2.058302471615e-03 6.767260745606e-03 0.0 
0.0 0.0 -1.075985979751e-03 
-1.563333733845e-03 2.379244648904e-03 0.0 
2.379244648904e-03 4.793451180047e-03 0.0 
0.0 0.0 -8.585603458244e-04 
7.771067329277e-04 2.601388271392e-03 0.0 
2.601388271392e-03 5.653213737160e-04 0.0 
0.0 0.0 -5.753263314187e-04 
-1.744996038836e-03 1.710273158382e-03 0.0 
1.710273158382e-03 7.117718959599e-03 0.0 
0.0 0.0 -1.109763131677e-03 
-1.606390224900e-03 2.419672085247e-03 0.0 
2.419672085247e-03 6.148327333334e-03 0.0 
0.0 0.0 -1.057773507355e-03 
-9.992751282894e-04 3.042009890222e-03 0.0 
3.042009890222e-03 3.819168416919e-03 0.0 
0.0 0.0 -9.009204134091e-04 
-1.375955048470e-03 -1.683400062222e-03 0.0 
-1.683400062222e-03 6.152421885777e-03 0.0 
0.0 0.0 -1.288412101370e-03 
1.944327134549e-03 1.768812360803e-03 0.0 
1.768812360803e-03 -8.136324325899e-04 0.0 
0.0 0.0 -4.845834436969e-04 
-1.254552424136e-03 2.860314366234e-03 0.0 
2.860314366234e-03 4.275922517579e-03 0.0 
0.0 0.0 -8.847105569873e-04 
9.718205800213e-04 3.231436175948e-03 0.0 
3.231436175948e-03 7.715228841926e-04 0.0 
0.0 0.0 -7.471471989488e-04 
1.727666947234e-03 1.978971680572e-03 0.0 
1.978971680572e-03 -4.287431573860e-04 0.0 
0.0 0.0 -5.566816242204e-04 
2.636933750934e-03 1.964049691199e-03 0.0 
1.964049691199e-03 -1.267164226969e-03 0.0 
0.0 0.0 -5.870440816995e-04 
-1.756261579278e-03 1.027223545009e-03 0.0 
1.027223545009e-03 5.150592098184e-03 0.0 
0.0 0.0 -7.898058234521e-04 
2.669142654027e-03 2.047008583083e-03 0.0 
2.047008583083e-03 -9.582484116816e-04 0.0 
0.0 0.0 -7.332403895767e-04 
2.689606729154e-03 -1.689602510838e-03 0.0 
-1.689602510838e-03 -1.205625742808e-03 0.0 
0.0 0.0 -6.359918512911e-04 
-1.629595190705e-03 2.449686769187e-03 0.0 
2.449686769187e-03 6.117601231972e-03 0.0 
0.0 0.0 -1.032318248600e-03 
0.0 0.0 0.0 
0.0 0.0 0.0 
0.0 0.0 0.0 
-1.769475386321e-03 1.897454184282e-03 0.0 
1.897454184282e-03 5.196794091963e-03 0.0 
0.0 0.0 -8.386390795737e-04 
2.679831450569e-03 2.298078295471e-03 0.0 
2.298078295471e-03 -1.117110075304e-03 0.0 
0.0 0.0 -6.697377322564e-04 
1.525405513799e-03 2.895304825734e-03 0.0 
2.895304825734e-03 1.054559655311e-04 0.0 
0.0 0.0 -6.989406339984e-04 
2.631491351563e-03 9.404993485972e-04 0.0 
9.404993485972e-04 -1.150887457296e-03 0.0 
0.0 0.0 -6.345445261146e-04 
-1.595995973144e-03 2.618038279511e-03 0.0 
2.618038279511e-03 5.071323653385e-03 0.0 
0.0 0.0 -8.965110541436e-04 
1.511841627677e-04 -1.773057166612e-03 0.0 
-1.773057166612e-03 8.535234281834e-04 0.0 
0.0 0.0 -3.901044503889e-04 
-9.397222903950e-05 2.775799572976e-03 0.0 
2.775799572976e-03 1.950195750929e-03 0.0 
0.0 0.0 -7.955243665241e-04 
1.510533742235e-03 1.893368219128e-03 0.0 
1.893368219128e-03 -3.333023352097e-04 0.0 
0.0 0.0 -5.045277458680e-04 
-1.529633938128e-03 2.472556152499e-03 0.0 
2.472556152499e-03 4.747231259560e-03 0.0 
0.0 0.0 -8.651285257930e-04 
-1.800570073848e-03 1.187623183650e-03 0.0 
1.187623183650e-03 5.684872286068e-03 0.0 
0.0 0.0 -8.301023967811e-04 
9.558821828944e-04 1.012922103067e-03 0.0 
1.012922103067e-03 -8.983468077863e-04 0.0 
0.0 0.0 -2.465801790349e-05 
2.929345942082e-03 -7.362875197769e-04 0.0 
-7.362875197769e-04 -1.325012703078e-03 0.0 
0.0 0.0 -6.875713881444e-04 
2.465820499106e-03 -2.486373233668e-03 0.0 
-2.486373233668e-03 -9.885187097241e-04 0.0 
0.0 0.0 -6.331293383067e-04 
-1.000270138248e-04 2.665501899130e-03 0.0 
2.665501899130e-03 1.891739969722e-03 0.0 
0.0 0.0 -7.678769810987e-04 
-1.745645462288e-03 1.969965136157e-03 0.0 
1.969965136157e-03 6.177510406470e-03 0.0 
0.0 0.0 -1.000663671924e-03 
-6.743676206496e-05 2.958894746749e-03 0.0 
2.958894746749e-03 2.016036742517e-03 0.0 
0.0 0.0 -8.351142773366e-04 
2.740866472437e-03 2.036102310260e-03 0.0 
2.036102310260e-03 -1.186449683482e-03 0.0 
0.0 0.0 -6.661786238380e-04 
2.465496107494e-03 2.525824601176e-03 0.0 
2.525824601176e-03 -9.322172367962e-04 0.0 
0.0 0.0 -6.571195160133e-04 
1.273787981714e-03 8.615297331710e-04 0.0 
8.615297331710e-04 -7.497623681705e-04 0.0 
0.0 0.0 -2.245824058045e-04 
1.142131131016e-03 2.936542087170e-03 0.0 
2.936542087170e-03 2.802751358821e-04 0.0 
0.0 0.0 -6.096026858133e-04 
8.727535464249e-04 2.453256376776e-03 0.0 
2.453256376776e-03 4.670237874706e-04 0.0 
0.0 0.0 -5.741902859552e-04 
-1.475760748405e-03 2.695142501196e-03 0.0 
2.695142501196e-03 8.197923622285e-03 0.0 
0.0 0.0 -1.321446319728e-03 
-1.492107186378e-03 3.030650340964e-03 0.0 
3.030650340964e-03 7.905007360297e-03 0.0 
0.0 0.0 -1.318029376683e-03 
-1.178085073700e-05 3.500120593452e-03 0.0 
3.500120593452e-03 2.258084084144e-03 0.0 
0.0 0.0 -9.627013857460e-04 
2.548877331085e-03 2.529452683065e-03 0.0 
2.529452683065e-03 -1.024625724028e-03 0.0 
0.0 0.0 -6.532506887387e-04 
1.850654072594e-03 2.843628912083e-03 0.0 
2.843628912083e-03 -1.310735320691e-04 0.0 
0.0 0.0 -7.369630887965e-04 
-1.088841516862e-03 3.167027765780e-03 0.0 
3.167027765780e-03 4.070335559596e-03 0.0 
0.0 0.0 -9.333628341409e-04 
2.340427504556e-03 2.434956062557e-03 0.0 
2.434956062557e-03 -5.727957500432e-04 0.0 
0.0 0.0 -7.575564662197e-04 
2.682095355776e-03 -1.550453496673e-03 0.0 
-1.550453496673e-03 -1.096738406614e-03 0.0 
0.0 0.0 -6.794386924979e-04 
-6.843102871119e-04 3.138323977980e-03 0.0 
3.138323977980e-03 3.288670793621e-03 0.0 
0.0 0.0 -9.652881140700e-04 
-1.560571318974e-03 1.068024078019e-03 0.0 
1.068024078019e-03 8.561491499252e-03 0.0 
0.0 0.0 -1.266640259566e-03 
2.402271625794e-03 2.610626999267e-03 0.0 
2.610626999267e-03 -8.722989033853e-04 0.0 
0.0 0.0 -6.557025953181e-04 
6.813860835502e-04 2.812347985425e-03 0.0 
2.812347985425e-03 1.059490988612e-03 0.0 
0.0 0.0 -7.460901737839e-04 
1.236363456041e-03 2.703241249809e-03 0.0 
2.703241249809e-03 7.838624202409e-05 0.0 
0.0 0.0 -5.634641563138e-04 
-9.652389989341e-04 -6.720183629338e-04 0.0 
-6.720183629338e-04 5.271242622276e-03 0.0 
0.0 0.0 -1.322863172658e-03 
2.098067576592e-03 2.923737740925e-03 0.0 
2.923737740925e-03 -6.205768400508e-04 0.0 
0.0 0.0 -6.332103156605e-04 
-5.055876985533e-04 3.367364034790e-03 0.0 
3.367364034790e-03 3.063510178626e-03 0.0 
0.0 0.0 -9.919420460789e-04 
1.879903345484e-03 1.255087970799e-03 0.0 
1.255087970799e-03 -1.207356077200e-03 0.0 
0.0 0.0 -2.882345435504e-04 
1.114970489587e-03 -6.571475029199e-04 0.0 
-6.571475029199e-04 3.550721468189e-04 0.0 
0.0 0.0 -6.300182727452e-04 
2.369471702773e-03 2.352310472614e-03 0.0 
2.352310472614e-03 -9.003050297678e-04 0.0 
0.0 0.0 -6.296428598595e-04 
2.511210871122e-03 -2.213592529972e-03 0.0 
-2.213592529972e-03 -7.926901794877e-04 0.0 
0.0 0.0 -7.365088678433e-04 
-1.351376459572e-03 2.550480813182e-03 0.0 
2.550480813182e-03 4.385207787700e-03 0.0 
0.0 0.0 -8.710486452961e-04 
-1.397658873592e-03 3.467085405935e-03 0.0 
3.467085405935e-03 7.331557043367e-03 0.0 
0.0 0.0 -1.324865334549e-03 
2.762976518654e-03 2.129275318385e-03 0.0 
2.129275318385e-03 -1.188719051590e-03 0.0 
0.0 0.0 -6.746817715991e-04 
1.650992187785e-03 1.271809720393e-03 0.0 
1.271809720393e-03 -3.513789338484e-04 0.0 
0.0 0.0 -5.569771088299e-04 
1.383242402169e-03 2.669272504238e-03 0.0 
2.669272504238e-03 1.108605796806e-04 0.0 
0.0 0.0 -6.403298493639e-04 
-1.712702943967e-03 1.199021659258e-03 0.0 
1.199021659258e-03 6.429834953111e-03 0.0 
0.0 0.0 -9.576894438039e-04 
2.851085176734e-04 -1.709536430844e-03 0.0 
-1.709536430844e-03 2.195876444368e-03 0.0 
0.0 0.0 -1.008345180213e-03 
7.579314461175e-04 2.705809604616e-03 0.0 
2.705809604616e-03 6.993839864940e-04 0.0 
0.0 0.0 -6.245637568335e-04 
-1.777734376668e-03 7.086825961679e-04 0.0 
7.086825961679e-04 6.354608604567e-03 0.0 
0.0 0.0 -9.257128893455e-04 
-1.277191206466e-03 3.589282529004e-03 0.0 
3.589282529004e-03 6.665823351058e-03 0.0 
0.0 0.0 -1.322580803729e-03 
1.403185707494e-06 -1.439264409054e-03 0.0 
-1.439264409054e-03 2.848558759865e-03 0.0 
0.0 0.0 -1.075861678316e-03 
-1.430658668499e-03 3.358596416292e-03 0.0 
3.358596416292e-03 7.549163922134e-03 0.0 
0.0 0.0 -1.322091174222e-03 
-1.793445118784e-03 9.356262614995e-04 0.0 
9.356262614995e-04 6.204769543778e-03 0.0 
0.0 0.0 -9.196498359204e-04 
-1.442068331431e-03 2.746821175537e-03 0.0 
2.746821175537e-03 5.682562585269e-03 0.0 
0.0 0.0 -1.048263655743e-03 
5.998084775859e-04 2.508005665207e-03 0.0 
2.508005665207e-03 7.531788584781e-04 0.0 
0.0 0.0 -5.798517154560e-04 
-1.223045542115e-03 2.387086346015e-03 0.0 
2.387086346015e-03 4.064515837256e-03 0.0 
0.0 0.0 -8.681697709544e-04 
-1.209389184573e-03 2.902758957536e-03 0.0 
2.902758957536e-03 4.217242041572e-03 0.0 
0.0 0.0 -9.102795160361e-04 
-1.488840206319e-03 2.679198250696e-03 0.0 
2.679198250696e-03 4.716368235080e-03 0.0 
0.0 0.0 -8.732807453983e-04 
1.119499660130e-04 3.567291341735e-03 0.0 
3.567291341735e-03 2.082472498151e-03 0.0 
0.0 0.0 -9.404667703562e-04 
-1.189299144518e-03 3.334584496646e-03 0.0 
3.334584496646e-03 6.217817091132e-03 0.0 
0.0 0.0 -1.322334986692e-03 
-1.743738005580e-03 1.571409251216e-03 0.0 
1.571409251216e-03 5.783273679231e-03 0.0 
0.0 0.0 -8.810748613436e-04 
-1.668503733379e-03 1.747174983457e-03 0.0 
1.747174983457e-03 4.858766838357e-03 0.0 
0.0 0.0 -8.123974380148e-04 
2.689502468919e-03 2.075432867186e-03 0.0 
2.075432867186e-03 -9.257907609435e-04 0.0 
0.0 0.0 -7.558764462751e-04 
-2.431074983303e-05 -1.913003925140e-03 0.0 
-1.913003925140e-03 1.267148434552e-03 0.0 
0.0 0.0 -5.326447220222e-04 
-1.300250353668e-03 2.028546891134e-03 0.0 
2.028546891134e-03 4.120204910714e-03 0.0 
0.0 0.0 -8.415228793236e-04 
1.029960534553e-03 2.697834854064e-03 0.0 
2.697834854064e-03 2.742713854926e-04 0.0 
0.0 0.0 -5.589565371624e-04 
-1.478386704748e-03 4.206789908739e-05 0.0 
4.206789908739e-05 5.616715806328e-03 0.0 
0.0 0.0 -7.696142143080e-04 
2.082223251132e-03 -2.739881630323e-03 0.0 
-2.739881630323e-03 -6.915223042800e-04 0.0 
0.0 0.0 -5.960146915079e-04 
2.687145576905e-03 2.150944824992e-03 0.0 
2.150944824992e-03 -8.619858571997e-04 0.0 
0.0 0.0 -7.822113084450e-04 
-1.642192723937e-03 2.370627921536e-03 0.0 
2.370627921536e-03 6.463774212935e-03 0.0 
0.0 0.0 -1.069052450572e-03 
1.210732016110e-03 2.901093481449e-03 0.0 
2.901093481449e-03 3.403089247521e-04 0.0 
0.0 0.0 -6.647318317980e-04 
-1.090838761359e-03 2.744646813510e-03 0.0 
2.744646813510e-03 3.916911857046e-03 0.0 
0.0 0.0 -9.030726692333e-04 
1.373131851669e-03 1.385595291722e-03 0.0 
1.385595291722e-03 -2.069114301952e-04 0.0 
0.0 0.0 -4.998087520603e-04 
5.484712090762e-04 -3.075676285272e-03 0.0 
-3.075676285272e-03 1.137788810983e-03 0.0 
0.0 0.0 -7.226828657397e-04 
-1.016387097360e-03 2.517297286892e-03 0.0 
2.517297286892e-03 5.594754578216e-03 0.0 
0.0 0.0 -1.324762665914e-03 
-9.072903591933e-04 2.355207703591e-03 0.0 
2.355207703591e-03 3.405907050817e-03 0.0 
0.0 0.0 -8.881387192877e-04 
2.946142820410e-03 1.617684650386e-04 0.0 
1.617684650386e-04 -1.452636572549e-03 0.0 
0.0 0.0 -6.400741062262e-04 
6.309307785542e-04 -2.673296576986e-03 0.0 
-2.673296576986e-03 8.118285156915e-04 0.0 
0.0 0.0 -6.183254118196e-04 
2.654857369397e-04 2.566176722282e-03 0.0 
2.566176722282e-03 1.206224560431e-03 0.0 
0.0 0.0 -6.307329845874e-04 
6.292944620548e-04 2.356029893105e-03 0.0 
2.356029893105e-03 6.393485700988e-04 0.0 
0.0 0.0 -5.437041566372e-04 
-1.573343830476e-03 2.521088319541e-03 0.0 
2.521088319541e-03 6.487888532466e-03 0.0 
0.0 0.0 -1.123886314723e-03 
-8.643744592464e-04 3.301393799564e-03 0.0 
3.301393799564e-03 3.642299074364e-03 0.0 
0.0 0.0 -9.055216267950e-04 
-4.630807398905e-04 2.550759047776e-03 0.0 
2.550759047776e-03 2.616100997212e-03 0.0 
0.0 0.0 -9.227229674235e-04 
-9.883417377340e-04 2.554278731018e-03 0.0 
2.554278731018e-03 3.636783780997e-03 0.0 
0.0 0.0 -8.916891917129e-04 
-9.188251607234e-04 7.915048635257e-04 0.0 
7.915048635257e-04 5.164894119245e-03 0.0 
0.0 0.0 -1.320675234999e-03 
-5.234519663279e-04 8.018217957374e-04 0.0 
8.018217957374e-04 4.358356351167e-03 0.0 
0.0 0.0 -1.258064670439e-03 
-1.519847497081e-03 2.784288839478e-03 0.0 
2.784288839478e-03 6.420730520918e-03 0.0 
0.0 0.0 -1.126590436115e-03 
-1.758421539440e-03 1.881967215149e-03 0.0 
1.881967215149e-03 6.509172932200e-03 0.0 
0.0 0.0 -1.037522200811e-03 
7.328240466091e-04 -2.682401726123e-03 0.0 
-2.682401726123e-03 7.115913620792e-04 0.0 
0.0 0.0 -6.190351751521e-04 
1.760096404851e-04 3.185483329578e-03 0.0 
3.185483329578e-03 1.733233248228e-03 0.0 
0.0 0.0 -8.182469523055e-04 
2.700024770010e-03 1.747528214601e-03 0.0 
1.747528214601e-03 -9.576266826323e-04 0.0 
0.0 0.0 -7.467420374474e-04 
2.935361494200e-03 1.596241168019e-03 0.0 
1.596241168019e-03 -1.073012164550e-03 0.0 
0.0 0.0 -7.981497127072e-04 
-5.548455542571e-04 3.454533405249e-03 0.0 
3.454533405249e-03 3.132006875912e-03 0.0 
0.0 0.0 -9.270064166112e-04 
1.279127165458e-03 -9.870557535994e-04 0.0 
-9.870557535994e-04 -3.854326390959e-05 0.0 
0.0 0.0 -5.316788149495e-04 
-4.227815079073e-04 -2.784371059583e-03 0.0 
-2.784371059583e-03 2.659310912429e-03 0.0 
0.0 0.0 -9.585126019377e-04 
-1.599277265462e-03 2.517332469059e-03 0.0 
2.517332469059e-03 6.812542085539e-03 0.0 
0.0 0.0 -1.134236807130e-03 
2.838543821024e-03 -9.388703813827e-04 0.0 
-9.388703813827e-04 -1.339013732820e-03 0.0 
0.0 0.0 -6.426557520871e-04 
4.165970448057e-04 3.486050932692e-03 0.0 
3.486050932692e-03 1.558675942698e-03 0.0 
0.0 0.0 -8.465455660731e-04 
-9.570428297717e-04 3.028568391790e-03 0.0 
3.028568391790e-03 3.758744006407e-03 0.0 
0.0 0.0 -9.331417602438e-04 
4.382192218767e-04 3.304842555304e-03 0.0 
3.304842555304e-03 1.417845423766e-03 0.0 
0.0 0.0 -7.954562767040e-04 
-1.443236035943e-03 3.221098478814e-03 0.0 
3.221098478814e-03 7.736365815094e-03 0.0 
0.0 0.0 -1.320088186226e-03 
-1.483693740833e-03 2.932428243371e-03 0.0 
2.932428243371e-03 8.049345893719e-03 0.0 
0.0 0.0 -1.318462653075e-03 
-1.548932721531e-03 2.525807133433e-03 0.0 
2.525807133433e-03 7.540510939249e-03 0.0 
0.0 0.0 -1.256494544188e-03 
5.199835747165e-04 -2.886590158864e-03 0.0 
-2.886590158864e-03 1.061442334883e-03 0.0 
0.0 0.0 -6.777539612569e-04 
-1.663138327388e-03 1.991577787862e-03 0.0 
1.991577787862e-03 7.067165816428e-03 0.0 
0.0 0.0 -1.112065035246e-03 
8.530770766536e-04 2.505748462956e-03 0.0 
2.505748462956e-03 4.288710739428e-04 0.0 
0.0 0.0 -5.494063502556e-04 
2.976026969438e-03 1.471613804293e-03 0.0 
1.471613804293e-03 -1.145802400427e-03 0.0 
0.0 0.0 -7.843819581477e-04 
2.176227096681e-03 9.823823306462e-04 0.0 
9.823823306462e-04 -1.042597419614e-03 0.0 
0.0 0.0 -4.858412901716e-04 
-2.813268701102e-04 2.910442502919e-03 0.0 
2.910442502919e-03 2.419195128745e-03 0.0 
0.0 0.0 -9.162292537005e-04 
-1.720195429854e-03 7.985877951349e-04 0.0 
7.985877951349e-04 5.205169340213e-03 0.0 
0.0 0.0 -7.914980036671e-04 
-1.719905413863e-03 1.237364143320e-03 0.0 
1.237364143320e-03 6.165155044144e-03 0.0 
0.0 0.0 -9.214502702889e-04 
-6.210179595173e-04 -4.728660276610e-04 0.0 
-4.728660276610e-04 4.588006840987e-03 0.0 
0.0 0.0 -1.265403586923e-03 
-1.395878555712e-03 3.050861695832e-03 0.0 
3.050861695832e-03 5.954496201824e-03 0.0 
0.0 0.0 -1.117224974728e-03 
-1.665465805844e-03 2.334336493253e-03 0.0 
2.334336493253e-03 5.128095132681e-03 0.0 
0.0 0.0 -8.687609488834e-04 
-1.346991783092e-03 3.039323733030e-03 0.0 
3.039323733030e-03 4.548648496957e-03 0.0 
0.0 0.0 -9.141259787764e-04 
2.498396854009e-03 1.198516088911e-03 0.0 
1.198516088911e-03 -1.399925765526e-03 0.0 
0.0 0.0 -4.707733236356e-04 
1.968831457284e-04 -1.841720632066e-03 0.0 
-1.841720632066e-03 8.576900148433e-04 0.0 
0.0 0.0 -4.519599259593e-04 
1.596184388708e-03 2.912527136814e-03 0.0 
2.912527136814e-03 -2.859190939001e-04 0.0 
0.0 0.0 -5.615422692032e-04 
3.342051080177e-04 3.634224831363e-03 0.0 
3.634224831363e-03 1.769838707620e-03 0.0 
0.0 0.0 -9.017330638447e-04 
1.350991084574e-03 3.130179827696e-03 0.0 
3.130179827696e-03 2.729672728852e-04 0.0 
0.0 0.0 -6.959821531966e-04 
5.181840272175e-04 1.740426048580e-03 0.0 
1.740426048580e-03 4.204450595975e-04 0.0 
0.0 0.0 -4.022696086350e-04 
-1.537623298193e-03 1.946789295788e-04 0.0 
1.946789295788e-04 5.729068901156e-03 0.0 
0.0 0.0 -8.462285223656e-04 
1.561759615532e-04 -2.189651726713e-03 0.0 
-2.189651726713e-03 1.146850025796e-03 0.0 
0.0 0.0 -5.584397088639e-04 
1.820241129970e-03 2.972056139581e-03 0.0 
2.972056139581e-03 -3.351854464419e-04 0.0 
0.0 0.0 -6.364524357979e-04 
-1.341153861134e-03 -4.057244270456e-04 0.0 
-4.057244270456e-04 4.982459086358e-03 0.0 
0.0 0.0 -1.341153861134e-03 
9.256271036625e-04 1.500053370618e-03 0.0 
1.500053370618e-03 1.273019829082e-03 0.0 
0.0 0.0 -9.422772568906e-04 
-1.647307264160e-03 1.862922357847e-03 0.0 
1.862922357847e-03 4.824359254377e-03 0.0 
0.0 0.0 -8.054468608743e-04 
2.951539872400e-04 -9.116816188897e-05 0.0 
-9.116816188897e-05 1.187821972232e-03 0.0 
0.0 0.0 -3.103042898065e-04 
7.971140923122e-05 3.343947047482e-03 0.0 
3.343947047482e-03 1.995422628245e-03 0.0 
0.0 0.0 -8.893431589182e-04 
1.873943254827e-03 2.954249127679e-03 0.0 
2.954249127679e-03 -3.006422023954e-04 0.0 
0.0 0.0 -6.742718796133e-04 
-1.609808059559e-03 2.466698786463e-03 0.0 
2.466698786463e-03 5.115271177997e-03 0.0 
0.0 0.0 -8.940630110299e-04 
-1.355176868643e-03 3.602829940139e-03 0.0 
3.602829940139e-03 7.115897601981e-03 0.0 
0.0 0.0 -1.323832587333e-03 
-1.204260933556e-03 2.429327504665e-03 0.0 
2.429327504665e-03 4.034179858945e-03 0.0 
0.0 0.0 -8.669777983973e-04 
-1.147063666963e-03 3.130382852526e-03 0.0 
3.130382852526e-03 4.139734973133e-03 0.0 
0.0 0.0 -8.917420716958e-04 
-4.014841504774e-04 -2.920877032072e-03 0.0 
-2.920877032072e-03 2.692647303736e-03 0.0 
0.0 0.0 -9.819270656821e-04 
-1.644216929044e-03 2.295172595936e-03 0.0 
2.295172595936e-03 6.800207970354e-03 0.0 
0.0 0.0 -1.105258581891e-03 
2.154052283226e-04 -3.118779152528e-03 0.0 
-3.118779152528e-03 1.628210503259e-03 0.0 
0.0 0.0 -7.901210278209e-04 
-1.316497550801e-03 3.592083674646e-03 0.0 
3.592083674646e-03 6.907418394644e-03 0.0 
0.0 0.0 -1.322174839672e-03 
-1.340103718614e-03 3.152086803121e-03 0.0 
3.152086803121e-03 7.377926064128e-03 0.0 
0.0 0.0 -1.340103718614e-03 
-1.341028575724e-03 2.465513317577e-03 0.0 
2.465513317577e-03 8.006817596930e-03 0.0 
0.0 0.0 -1.341028575724e-03 
-1.338044909071e-03 2.820900205836e-03 0.0 
2.820900205836e-03 7.687427743330e-03 0.0 
0.0 0.0 -1.338044909071e-03 
-1.502118998928e-03 2.871852761975e-03 0.0 
2.871852761975e-03 4.986656915824e-03 0.0 
0.0 0.0 -9.244680137507e-04 
-1.717961893973e-03 2.025609505479e-03 0.0 
2.025609505479e-03 6.849693926195e-03 0.0 
0.0 0.0 -1.103002250422e-03 
-1.441498127645e-03 2.997575274703e-03 0.0 
2.997575274703e-03 6.385826432379e-03 0.0 
0.0 0.0 -1.155914796392e-03 
3.567381933022e-04 2.998203481649e-03 0.0 
2.998203481649e-03 1.342739046541e-03 0.0 
0.0 0.0 -7.283473885043e-04 
1.335922643098e-04 2.946545576970e-03 0.0 
2.946545576970e-03 1.651048719616e-03 0.0 
0.0 0.0 -7.648461359682e-04 
-5.579616973433e-04 -2.537817501247e-03 0.0 
-2.537817501247e-03 2.842838828880e-03 0.0 
0.0 0.0 -9.792330563728e-04 
-1.668326353393e-03 2.237680070997e-03 0.0 
2.237680070997e-03 6.867008378533e-03 0.0 
0.0 0.0 -1.131852245309e-03 
-1.231232325275e-03 3.483829197783e-03 0.0 
3.483829197783e-03 6.428087696954e-03 0.0 
0.0 0.0 -1.322440284024e-03 
-1.629405615007e-03 2.216510426988e-03 0.0 
2.216510426988e-03 7.107180567101e-03 0.0 
0.0 0.0 -1.141180801552e-03 
1.287843860462e-03 1.762496620991e-03 0.0 
1.762496620991e-03 4.118181214961e-04 0.0 
0.0 0.0 -7.284265636965e-04 
-1.709232452093e-03 1.946096254963e-03 0.0 
1.946096254963e-03 7.158440520652e-03 0.0 
0.0 0.0 -1.138864741757e-03 
-2.474149681312e-04 3.241320627208e-03 0.0 
3.241320627208e-03 3.249866169459e-03 0.0 
0.0 0.0 -9.903545940741e-04 
5.390850837396e-04 3.135204886366e-03 0.0 
3.135204886366e-03 1.184502769340e-03 0.0 
0.0 0.0 -7.386805084625e-04 
-2.903565977667e-04 2.791530756056e-03 0.0 
2.791530756056e-03 2.364850385229e-03 0.0 
0.0 0.0 -8.890687660554e-04 
1.802555558832e-03 3.001147534895e-03 0.0 
3.001147534895e-03 -4.575658841899e-04 0.0 
0.0 0.0 -5.764241462752e-04 
-1.445725615323e-03 1.812858751269e-03 0.0 
1.812858751269e-03 8.104070872614e-03 0.0 
0.0 0.0 -1.282213402295e-03 
5.637528850199e-04 2.798374850836e-03 0.0 
2.798374850836e-03 9.579403324455e-04 0.0 
0.0 0.0 -6.521542360566e-04 
-9.878773185600e-04 3.005495027809e-03 0.0 
3.005495027809e-03 5.183572772416e-03 0.0 
0.0 0.0 -1.230767059693e-03 
-5.402829230253e-04 -2.645980312191e-03 0.0 
-2.645980312191e-03 2.860421160958e-03 0.0 
0.0 0.0 -9.943449591140e-04 
1.769669881029e-03 -3.137855469582e-03 0.0 
-3.137855469582e-03 -3.291852005029e-04 0.0 
0.0 0.0 -6.173505773685e-04 
-9.286667060019e-04 -5.578005299265e-04 0.0 
-5.578005299265e-04 4.405534968834e-03 0.0 
0.0 0.0 -1.284312900220e-03 
1.520178245233e-03 2.880262458528e-03 0.0 
2.880262458528e-03 -9.597643010146e-05 0.0 
0.0 0.0 -6.103722064851e-04 
-1.341987455608e-03 3.278682198062e-03 0.0 
3.278682198062e-03 7.180670491988e-03 0.0 
0.0 0.0 -1.341987455608e-03 
-1.479381738464e-03 2.518547494800e-03 0.0 
2.518547494800e-03 7.585721855360e-03 0.0 
0.0 0.0 -1.282654109251e-03 
-6.562251040144e-04 3.476488520305e-03 0.0 
3.476488520305e-03 3.368345711390e-03 0.0 
0.0 0.0 -9.747411499392e-04 
2.825665296399e-05 -9.471346053823e-04 0.0 
-9.471346053823e-04 5.562669983103e-04 0.0 
0.0 0.0 -2.505101362604e-04 
-1.340954708392e-03 3.409829937737e-03 0.0 
3.409829937737e-03 6.752010148723e-03 0.0 
0.0 0.0 -1.340954708391e-03 
-8.893530910468e-04 2.080039302171e-04 0.0 
2.080039302171e-04 4.249386795326e-03 0.0 
0.0 0.0 -1.284661450484e-03 
2.094151919582e-03 -2.710389235349e-03 0.0 
-2.710389235349e-03 -4.177516275291e-04 0.0 
0.0 0.0 -7.184572680229e-04 
1.187697048236e-03 1.044937454993e-03 0.0 
1.044937454993e-03 6.336881744863e-04 0.0 
0.0 0.0 -7.805936668811e-04 
-1.022563228378e-03 2.126685754851e-03 0.0 
2.126685754851e-03 5.450229037892e-03 0.0 
0.0 0.0 -1.323014926434e-03 
0.0 0.0 0.0 
0.0 0.0 0.0 
0.0 0.0 0.0 
5.629949439262e-04 2.943398902906e-03 0.0 
2.943398902906e-03 1.042834511407e-03 0.0 
0.0 0.0 -6.882126237144e-04 
-9.611236283513e-04 3.382262119005e-03 0.0 
3.382262119005e-03 3.900518768528e-03 0.0 
0.0 0.0 -9.507003520820e-04 
-3.264045535916e-04 3.528503760233e-03 0.0 
3.528503760233e-03 2.824189618732e-03 0.0 
0.0 0.0 -1.009382277479e-03 
-8.072349097140e-04 3.285348527428e-03 0.0 
3.285348527428e-03 3.572080463846e-03 0.0 
0.0 0.0 -9.583016177293e-04 
1.577973122007e-03 2.940745778594e-03 0.0 
2.940745778594e-03 -1.562631387263e-04 0.0 
0.0 0.0 -6.093042785491e-04 
-1.341360672448e-03 3.349227255108e-03 0.0 
3.349227255108e-03 6.276206882279e-03 0.0 
0.0 0.0 -1.341360672448e-03 
2.936452016240e-03 1.405586798284e-03 0.0 
1.405586798284e-03 -1.170886952934e-03 0.0 
0.0 0.0 -7.566707414170e-04 
6.010236317608e-04 7.677500863631e-05 0.0 
7.677500863631e-05 -6.010236317608e-04 0.0 
0.0 0.0 0.0 
-1.410674428243e-03 -1.887614969753e-03 0.0 
-1.887614969753e-03 6.271959657533e-03 0.0 
0.0 0.0 -1.272354826527e-03 
6.614899321087e-05 -1.031236819356e-03 0.0 
-1.031236819356e-03 5.476349804252e-04 0.0 
0.0 0.0 -2.630502744155e-04 
-7.579795143834e-04 2.669538043242e-03 0.0 
2.669538043242e-03 3.232540244350e-03 0.0 
0.0 0.0 -9.235262116470e-04 
1.408180871100e-03 -2.447837261249e-03 0.0 
-2.447837261249e-03 -4.054811993359e-04 0.0 
0.0 0.0 -4.297284307560e-04 
-1.289231145457e-03 2.085970842819e-03 0.0 
2.085970842819e-03 4.096251684655e-03 0.0 
0.0 0.0 -8.281323822960e-04 
-9.265632325981e-04 2.208084020548e-04 0.0 
2.208084020548e-04 5.136068338207e-03 0.0 
0.0 0.0 -1.321823097425e-03 
-1.341255375116e-03 3.077672806554e-03 0.0 
3.077672806554e-03 5.842647393183e-03 0.0 
0.0 0.0 -1.341255375116e-03 
-1.444220396543e-03 2.772557237900e-03 0.0 
2.772557237900e-03 4.661509496866e-03 0.0 
0.0 0.0 -8.916520742786e-04 
1.049542071535e-03 -2.597397009894e-03 0.0 
-2.597397009894e-03 2.940040078369e-04 0.0 
0.0 0.0 -5.758054625880e-04 
3.025347595527e-04 1.047283111649e-04 0.0 
1.047283111649e-04 -3.025347595527e-04 0.0 
0.0 0.0 0.0 
1.083086267670e-03 -3.284229385575e-03 0.0 
-3.284229385575e-03 2.814197768567e-04 0.0 
0.0 0.0 -5.847883047970e-04 
-1.038610003698e-03 -2.337728934242e-03 0.0 
-2.337728934242e-03 4.541183857773e-03 0.0 
0.0 0.0 -1.121833217354e-03 
-1.742165347554e-03 9.878882661806e-04 0.0 
9.878882661806e-04 5.401825771171e-03 0.0 
0.0 0.0 -7.704300227928e-04 
-1.803256776378e-03 1.584392787159e-03 0.0 
1.584392787159e-03 5.170803389825e-03 0.0 
0.0 0.0 -8.109332722942e-04 
-1.342502730507e-03 2.572106331239e-03 0.0 
2.572106331239e-03 5.434857979280e-03 0.0 
0.0 0.0 -1.342502730507e-03 
-1.732554351108e-03 7.529304742537e-04 0.0 
7.529304742537e-04 5.461566678014e-03 0.0 
0.0 0.0 -7.720444664677e-04 
-1.484252812585e-03 2.496905312066e-03 0.0 
2.496905312066e-03 8.327686936920e-03 0.0 
0.0 0.0 -1.322852565091e-03 
-2.616390310425e-04 3.420254192840e-03 0.0 
3.420254192840e-03 3.046539849901e-03 0.0 
0.0 0.0 -1.020998643257e-03 
-1.702171015059e-03 1.025221701453e-03 0.0 
1.025221701453e-03 6.037527275999e-03 0.0 
0.0 0.0 -8.907448815977e-04 
4.435059004645e-04 2.367634267758e-03 0.0 
2.367634267758e-03 8.500300084059e-04 0.0 
0.0 0.0 -5.543725323730e-04 
9.902971440261e-04 1.854120232773e-03 0.0 
1.854120232773e-03 5.282487487715e-04 0.0 
0.0 0.0 -6.508053826275e-04 
2.181030243503e-03 2.087940198003e-03 0.0 
2.087940198003e-03 -6.964523607222e-04 0.0 
0.0 0.0 -6.362476640488e-04 
-1.340754991027e-03 1.822804665951e-03 0.0 
1.822804665951e-03 5.126572871134e-03 0.0 
0.0 0.0 -1.340754991027e-03 
-1.339984467612e-03 3.017885242806e-03 0.0 
3.017885242806e-03 7.530573259310e-03 0.0 
0.0 0.0 -1.339984467612e-03 
-1.340417744004e-03 2.627800699396e-03 0.0 
2.627800699396e-03 7.874468285687e-03 0.0 
0.0 0.0 -1.340417744004e-03 
1.663950741528e-04 -3.102222571978e-03 0.0 
-3.102222571978e-03 1.696065106834e-03 0.0 
0.0 0.0 -7.981972204228e-04 
-6.783966376360e-04 -2.229795002151e-03 0.0 
-2.229795002151e-03 2.989937542639e-03 0.0 
0.0 0.0 -9.906603878584e-04 
6.633751209167e-04 3.479464549828e-03 0.0 
3.479464549828e-03 1.235326207863e-03 0.0 
0.0 0.0 -8.137291409057e-04 
-1.800452847873e-04 -3.089059520932e-03 0.0 
-3.089059520932e-03 2.334973482046e-03 0.0 
0.0 0.0 -8.981573260837e-04 
-1.339627896631e-03 1.005258068188e-03 0.0 
1.005258068188e-03 4.944567484942e-03 0.0 
0.0 0.0 -1.339627896631e-03 
2.106481318219e-03 2.804312139354e-03 0.0 
2.804312139354e-03 -3.247815718152e-04 0.0 
0.0 0.0 -7.635856056017e-04 
2.753925008266e-03 -1.471183718442e-03 0.0 
-1.471183718442e-03 -1.118113294929e-03 0.0 
0.0 0.0 -7.010621628588e-04 
2.411027346534e-03 -2.022185411865e-03 0.0 
-2.022185411865e-03 -8.248269265831e-04 0.0 
0.0 0.0 -6.798001799788e-04 
-1.695040583491e-03 9.943495357559e-04 0.0 
9.943495357559e-04 6.306677945551e-03 0.0 
0.0 0.0 -9.279583942086e-04 
-1.067283559268e-03 -1.131551148477e-03 0.0 
-1.131551148477e-03 5.382018527302e-03 0.0 
0.0 0.0 -1.323537156312e-03 
4.718253126561e-04 -2.654545060497e-03 0.0 
-2.654545060497e-03 7.297491663584e-04 0.0 
0.0 0.0 -5.149604910062e-04 
-1.340775759057e-03 3.168705887179e-05 0.0 
3.168705887179e-05 4.893000414627e-03 0.0 
0.0 0.0 -1.340775759057e-03 
2.068072739009e-03 -2.533209175997e-03 0.0 
-2.533209175997e-03 -4.905385770438e-04 0.0 
0.0 0.0 -6.760860694135e-04 
-1.342877878941e-03 3.371101462632e-03 0.0 
3.371101462632e-03 6.986301559429e-03 0.0 
0.0 0.0 -1.342877878941e-03 
-1.502505102679e-03 2.723409331035e-03 0.0 
2.723409331035e-03 6.453774250835e-03 0.0 
0.0 0.0 -1.152765850879e-03 
4.995410750134e-04 -2.508167894462e-04 0.0 
-2.508167894462e-04 1.439641133543e-04 0.0 
0.0 0.0 -1.045622396246e-04 
7.611624550475e-04 2.811491361200e-03 0.0 
2.811491361200e-03 7.486160262995e-04 0.0 
0.0 0.0 -6.470479205773e-04 
-1.718973478826e-03 1.632227495642e-03 0.0 
1.632227495642e-03 7.402026443868e-03 0.0 
0.0 0.0 -1.146019594970e-03 
-1.341220131281e-03 3.403196875767e-03 0.0 
3.403196875767e-03 6.531514611794e-03 0.0 
0.0 0.0 -1.341220131281e-03 
-1.493257815958e-03 2.709508550359e-03 0.0 
2.709508550359e-03 5.031766487179e-03 0.0 
0.0 0.0 -9.220067723808e-04 
-1.371432860580e-04 3.167005571068e-03 0.0 
3.167005571068e-03 2.958438968348e-03 0.0 
0.0 0.0 -1.049000704964e-03 
1.363417131051e-03 2.771598718083e-03 0.0 
2.771598718083e-03 -2.175926074803e-04 0.0 
0.0 0.0 -4.910676529589e-04 
-4.822149847462e-04 -8.933705669700e-06 0.0 
-8.933705669700e-06 3.680115228026e-03 0.0 
0.0 0.0 -1.228682347183e-03 
1.589016691459e-03 -2.728398742501e-03 0.0 
-2.728398742501e-03 -1.477483424757e-04 0.0 
0.0 0.0 -6.176864352786e-04 
2.014961445712e-03 -2.490489286961e-03 0.0 
-2.490489286961e-03 -7.248651286365e-04 0.0 
0.0 0.0 -5.528984216039e-04 
6.740675851827e-05 -1.946268609011e-03 0.0 
-1.946268609011e-03 5.144006658537e-04 0.0 
0.0 0.0 -2.493460390166e-04 
-1.341079611575e-03 3.240452696934e-03 0.0 
3.240452696934e-03 6.054614633037e-03 0.0 
0.0 0.0 -1.341079611575e-03 
2.419438568119e-03 1.848358171578e-03 0.0 
1.848358171578e-03 -8.324259170898e-04 0.0 
0.0 0.0 -6.801482790127e-04 
-1.052268534162e-04 -1.626163501332e-03 0.0 
-1.626163501332e-03 3.065488155398e-03 0.0 
0.0 0.0 -1.110501492391e-03 
-1.743720672030e-03 5.076947702062e-04 0.0 
5.076947702062e-04 5.915487175230e-03 0.0 
0.0 0.0 -8.555322119248e-04 
6.419311454372e-04 -2.457777299007e-03 0.0 
-2.457777299007e-03 6.816602911272e-04 0.0 
0.0 0.0 -5.672534728133e-04 
2.432948694747e-03 -2.224719869907e-03 0.0 
-2.224719869907e-03 -1.006521097821e-03 0.0 
0.0 0.0 -6.113261129685e-04 
-1.391571865871e-03 2.947954310513e-03 0.0 
2.947954310513e-03 4.611783904251e-03 0.0 
0.0 0.0 -8.867075537039e-04 
-1.342259935407e-03 2.196586378398e-03 0.0 
2.196586378398e-03 5.267748778168e-03 0.0 
0.0 0.0 -1.342259935407e-03 
-8.685003091139e-04 -2.019621362732e-03 0.0 
-2.019621362732e-03 3.358195832711e-03 0.0 
0.0 0.0 -1.026543027222e-03 
-6.279763244927e-05 -2.831980191268e-03 0.0 
-2.831980191268e-03 2.234263021353e-03 0.0 
0.0 0.0 -9.306280238158e-04 
1.626113199364e-04 3.532469173109e-03 0.0 
3.532469173109e-03 1.975304410449e-03 0.0 
0.0 0.0 -9.162495987365e-04 
9.545056478258e-04 -2.197984859117e-03 0.0 
-2.197984859117e-03 2.830222850847e-04 0.0 
0.0 0.0 -5.303691141045e-04 
2.741947853495e-03 -1.576053757195e-03 0.0 
-1.576053757195e-03 -1.238751484203e-03 0.0 
0.0 0.0 -6.442270154112e-04 
2.055993336022e-04 -3.019147266732e-03 0.0 
-3.019147266732e-03 1.580796400243e-03 0.0 
0.0 0.0 -7.655981716482e-04 
-1.735594457478e-05 3.684409886977e-03 0.0 
3.684409886977e-03 2.338058889169e-03 0.0 
0.0 0.0 -9.525257740877e-04 
-6.815819430518e-04 3.271309776104e-03 0.0 
3.271309776104e-03 3.991806398053e-03 0.0 
0.0 0.0 -9.982497011217e-04 
7.359468455794e-04 1.655488137203e-03 0.0 
1.655488137203e-03 1.311171725172e-03 0.0 
0.0 0.0 -8.773365303219e-04 
4.616179257589e-04 3.326983553877e-03 0.0 
3.326983553877e-03 1.399682897410e-03 0.0 
0.0 0.0 -7.977003527865e-04 
-1.068767707281e-04 -3.106568222755e-03 0.0 
-3.106568222755e-03 2.185893574205e-03 0.0 
0.0 0.0 -8.910072014901e-04 
1.770168940932e-03 2.939268167283e-03 0.0 
2.939268167283e-03 -7.940642901587e-05 0.0 
0.0 0.0 -7.246125051071e-04 
-6.590777518814e-04 -2.312052235482e-03 0.0 
-2.312052235482e-03 2.981136073477e-03 0.0 
0.0 0.0 -9.951678521122e-04 
-9.129757635956e-05 3.002240536259e-03 0.0 
3.002240536259e-03 3.121089298537e-03 0.0 
0.0 0.0 -1.018204129641e-03 
1.890566440799e-03 1.226789186906e-03 0.0 
1.226789186906e-03 -8.288946358717e-04 0.0 
0.0 0.0 -4.550022021117e-04 
-9.478871216341e-04 -2.661712448175e-04 0.0 
-2.661712448175e-04 5.203816778040e-03 0.0 
0.0 0.0 -1.321929620191e-03 
-1.684709762555e-03 1.865268109453e-03 0.0 
1.865268109453e-03 7.458111656375e-03 0.0 
0.0 0.0 -1.174325249119e-03 
4.942655387039e-04 -2.660349188538e-03 0.0 
-2.660349188538e-03 9.600175774831e-04 0.0 
0.0 0.0 -6.232641926516e-04 
-1.341047338368e-03 5.012584263435e-04 0.0 
5.012584263435e-04 4.843287135669e-03 0.0 
0.0 0.0 -1.341047338368e-03 
-5.199572059754e-04 -1.240456273397e-05 0.0 
-1.240456273397e-05 4.514719369705e-03 0.0 
0.0 0.0 -1.266414110344e-03 
1.456677627038e-03 2.847158529750e-03 0.0 
2.847158529750e-03 -1.224358696167e-04 0.0 
0.0 0.0 -5.718178960378e-04 
3.073160228107e-04 -2.142796274570e-03 0.0 
-2.142796274570e-03 8.896681783000e-04 0.0 
0.0 0.0 -5.129932290474e-04 
-1.050487114865e-03 -1.427509562772e-03 0.0 
-1.427509562772e-03 5.540080609798e-03 0.0 
0.0 0.0 -1.323469717371e-03 
-1.667087300368e-03 2.181750680949e-03 0.0 
2.181750680949e-03 7.186411773731e-03 0.0 
0.0 0.0 -1.167157861819e-03 
1.716323073858e-03 -2.955825605783e-03 0.0 
-2.955825605783e-03 -9.287262183541e-05 0.0 
0.0 0.0 -6.957644794382e-04 
-1.341709311524e-03 -8.333733019742e-04 0.0 
-8.333733019742e-04 5.041051645130e-03 0.0 
0.0 0.0 -1.341709311524e-03 
-1.554347035982e-04 -3.091276428888e-03 0.0 
-3.091276428888e-03 2.271745765848e-03 0.0 
0.0 0.0 -9.069904552498e-04 
-8.856300375338e-05 3.015707065978e-03 0.0 
3.015707065978e-03 2.092630915718e-03 0.0 
0.0 0.0 -8.588862479847e-04 
-1.708652242928e-03 2.038029542744e-03 0.0 
2.038029542744e-03 5.155213329433e-03 0.0 
0.0 0.0 -8.408860858065e-04 
2.150251675539e-03 1.246957804337e-03 0.0 
1.246957804337e-03 -9.518176328647e-04 0.0 
0.0 0.0 -5.136145897175e-04 
4.280369650893e-04 -2.993089053083e-03 0.0 
-2.993089053083e-03 1.242185283195e-03 0.0 
0.0 0.0 -7.158095349792e-04 
1.005063584136e-03 -1.534038141676e-03 0.0 
-1.534038141676e-03 4.706218155617e-04 0.0 
0.0 0.0 -6.324365998706e-04 
-1.787330646013e-03 1.744437882435e-03 0.0 
1.744437882435e-03 6.165539261386e-03 0.0 
0.0 0.0 -9.721028620036e-04 
-5.830614128886e-04 2.963568587990e-03 0.0 
2.963568587990e-03 3.036456168777e-03 0.0 
0.0 0.0 -9.703272795031e-04 
5.013338592635e-04 2.022867758426e-03 0.0 
2.022867758426e-03 1.903789761340e-03 0.0 
0.0 0.0 -1.030767265973e-03 
-1.583428582628e-03 1.234393199571e-04 0.0 
1.234393199571e-04 6.348909220080e-03 0.0 
0.0 0.0 -8.839498032872e-04 
-1.538973880155e-04 -2.905891545860e-03 0.0 
-2.905891545860e-03 2.151085361499e-03 0.0 
0.0 0.0 -8.559377029216e-04 
9.606550472545e-04 1.198365472328e-03 0.0 
1.198365472328e-03 7.584169667693e-04 0.0 
0.0 0.0 -7.367451488674e-04 
1.240241290569e-03 -2.615402293113e-03 0.0 
-2.615402293113e-03 9.801779930627e-06 0.0 
0.0 0.0 -5.357327444998e-04 
-1.264139912559e-03 -2.295922563033e-03 0.0 
-2.295922563033e-03 4.258611210865e-03 0.0 
0.0 0.0 -1.003470032316e-03 
4.779492527782e-04 -1.976862769587e-04 0.0 
-1.976862769587e-04 3.079286874380e-05 0.0 
0.0 0.0 -9.731995102935e-05 
1.375001823881e-03 3.007557583602e-03 0.0 
3.007557583602e-03 2.077996425490e-04 0.0 
0.0 0.0 -6.783434856127e-04 
1.686675147585e-03 -2.826451651131e-03 0.0 
-2.826451651131e-03 -3.979102607463e-04 0.0 
0.0 0.0 -5.523278086452e-04 
-6.775751599431e-04 -2.656016194715e-03 0.0 
-2.656016194715e-03 3.173617743200e-03 0.0 
0.0 0.0 -1.041231529553e-03 
9.547448531119e-04 2.912205143476e-03 0.0 
2.912205143476e-03 5.651456179381e-04 0.0 
0.0 0.0 -6.513816304500e-04 
3.545197186364e-05 -2.683422917804e-03 0.0 
-2.683422917804e-03 2.222563700784e-03 0.0 
0.0 0.0 -9.350600278798e-04 
-1.737561363205e-03 5.251994903431e-04 0.0 
5.251994903431e-04 6.205644374021e-03 0.0 
0.0 0.0 -8.962969588583e-04 
1.356254452431e-03 -2.984093401581e-03 0.0 
-2.984093401581e-03 -2.215529665072e-05 0.0 
0.0 0.0 -5.717567810488e-04 
-1.341827844788e-03 -1.146584425421e-03 0.0 
-1.146584425421e-03 5.213236186647e-03 0.0 
0.0 0.0 -1.341827844788e-03 
-1.032358392854e-03 3.358744228303e-03 0.0 
3.358744228303e-03 3.981695232776e-03 0.0 
0.0 0.0 -8.921909746423e-04 
-9.403772787457e-04 -2.333509821859e-03 0.0 
-2.333509821859e-03 3.602948163807e-03 0.0 
0.0 0.0 -1.032584340947e-03 
-7.230784000767e-04 3.517969959091e-03 0.0 
3.517969959091e-03 3.446928309249e-03 0.0 
0.0 0.0 -9.025917034692e-04 
-6.743760556383e-04 -2.567033021564e-03 0.0 
-2.567033021564e-03 3.158224002336e-03 0.0 
0.0 0.0 -1.064506262870e-03 
0.0 0.0 0.0 
0.0 0.0 0.0 
0.0 0.0 0.0 
-1.792312889487e-03 1.741412585942e-03 0.0 
1.741412585942e-03 5.511837739733e-03 0.0 
0.0 0.0 -8.733545218784e-04 
-1.159018419121e-03 -6.757248724201e-04 0.0 
-6.757248724201e-04 3.679422689167e-03 0.0 
0.0 0.0 -9.437415894182e-04 
1.526598219851e-03 -2.022984547481e-04 0.0 
-2.022984547481e-04 -5.806947110268e-04 0.0 
0.0 0.0 -1.518789559795e-04 
-1.008983259281e-03 -2.022851433489e-03 0.0 
-2.022851433489e-03 3.664714944016e-03 0.0 
0.0 0.0 -1.031099917346e-03 
-1.552203916554e-04 -2.266492036209e-03 0.0 
-2.266492036209e-03 2.794636645768e-03 0.0 
0.0 0.0 -1.001254648526e-03 
-1.559997350991e-03 7.763984245468e-04 0.0 
7.763984245468e-04 7.736769108545e-03 0.0 
0.0 0.0 -1.146946825052e-03 
1.304436411006e-03 -1.537118457164e-03 0.0 
-1.537118457164e-03 -1.929375046108e-04 0.0 
0.0 0.0 -4.763566741695e-04 
1.141009119650e-03 -1.409930863555e-03 0.0 
-1.409930863555e-03 1.287642799873e-04 0.0 
0.0 0.0 -5.441885998444e-04 
-1.689284059370e-03 1.450746420627e-03 0.0 
1.450746420627e-03 4.831311448006e-03 0.0 
0.0 0.0 -7.833574767318e-04 
-1.686952509024e-03 5.790488882109e-04 0.0 
5.790488882109e-04 4.855993105087e-03 0.0 
0.0 0.0 -7.312625299844e-04 
-1.435530838734e-03 2.039856500826e-03 0.0 
2.039856500826e-03 7.934174766789e-03 0.0 
0.0 0.0 -1.286111585339e-03 
-3.846383815358e-04 3.631348853507e-03 0.0 
3.631348853507e-03 2.894402056622e-03 0.0 
0.0 0.0 -9.211198782815e-04 
2.563042352686e-03 -3.462434059620e-04 0.0 
-3.462434059620e-04 -8.334153675030e-04 0.0 
0.0 0.0 -9.050770260813e-05 
-2.801224181589e-06 -1.851492159178e-03 0.0 
-1.851492159178e-03 1.218501688618e-03 0.0 
0.0 0.0 -5.210144847585e-04 
8.331805258011e-05 -1.317049816552e-03 0.0 
-1.317049816552e-03 7.003703442878e-04 0.0 
0.0 0.0 -3.358664558005e-04 
1.821034446314e-04 -2.408967732496e-03 0.0 
-2.408967732496e-03 1.233113086777e-03 0.0 
0.0 0.0 -6.065213706036e-04 
-1.138435434649e-03 2.989604430891e-03 0.0 
2.989604430891e-03 5.462421315605e-03 0.0 
0.0 0.0 -1.134523071099e-03 
-1.613429135808e-03 4.247551468927e-04 0.0 
4.247551468927e-04 7.790174225159e-03 0.0 
0.0 0.0 -1.144649651339e-03 
-1.027154245499e-03 -2.035960934847e-03 0.0 
-2.035960934847e-03 4.492443968240e-03 0.0 
0.0 0.0 -1.087427768671e-03 
-2.215897922679e-04 -2.343741531637e-03 0.0 
-2.343741531637e-03 1.937473062545e-03 0.0 
0.0 0.0 -7.353785444044e-04 
-1.224434476437e-03 -2.373415610936e-03 0.0 
-2.373415610936e-03 4.259607832396e-03 0.0 
0.0 0.0 -1.074887456883e-03 
-2.765309671832e-04 -1.235730925308e-03 0.0 
-1.235730925308e-03 3.492398506195e-03 0.0 
0.0 0.0 -1.142106164841e-03 
1.609002123108e-03 9.641353836346e-05 0.0 
9.641353836346e-05 -1.014383706755e-03 0.0 
0.0 0.0 -2.548364641514e-04 
-1.185520630974e-03 -6.216129085547e-04 0.0 
-6.216129085547e-04 3.715832065426e-03 0.0 
0.0 0.0 -9.234434510542e-04 
-9.870309350746e-04 -2.949408640791e-04 0.0 
-2.949408640791e-04 3.127712701104e-03 0.0 
0.0 0.0 -8.176025220169e-04 
-1.158159835052e-03 -1.705545964426e-03 0.0 
-1.705545964426e-03 5.701758529228e-03 0.0 
0.0 0.0 -1.322396863610e-03 
-1.341641872583e-03 -1.478861783549e-03 0.0 
-1.478861783549e-03 5.355371918508e-03 0.0 
0.0 0.0 -1.341641872583e-03 
-1.283076775259e-03 -6.373143896461e-04 0.0 
-6.373143896461e-04 4.006265140635e-03 0.0 
0.0 0.0 -9.869148323457e-04 
-9.252167440016e-04 -2.284187084932e-03 0.0 
-2.284187084932e-03 3.604049524323e-03 0.0 
0.0 0.0 -1.082955583678e-03 
1.424947381447e-04 -3.218131506232e-03 0.0 
-3.218131506232e-03 1.808876759913e-03 0.0 
0.0 0.0 -8.363020705961e-04 
-2.858765317583e-04 -8.912097981478e-04 0.0 
-8.912097981478e-04 3.661087959600e-03 0.0 
0.0 0.0 -1.177278300149e-03 
-1.642185562706e-04 -1.468912040377e-03 0.0 
-1.468912040377e-03 1.269461247680e-03 0.0 
0.0 0.0 -4.736754391754e-04 
-2.865195494759e-04 -1.594101584254e-03 0.0 
-1.594101584254e-03 3.398007437901e-03 0.0 
0.0 0.0 -1.104707344597e-03 
9.194713961983e-04 -6.793234433339e-04 0.0 
-6.793234433339e-04 6.261768049846e-04 0.0 
0.0 0.0 -3.206774383567e-04 
-7.790564292393e-04 -2.283470906283e-03 0.0 
-2.283470906283e-03 3.292851518803e-03 0.0 
0.0 0.0 -1.077340752670e-03 
-5.608514076299e-04 -2.798496030794e-03 0.0 
-2.798496030794e-03 2.999147072071e-03 0.0 
0.0 0.0 -1.044983856189e-03 
1.138912068891e-03 -3.473598627530e-04 0.0 
-3.473598627530e-04 -1.413469007123e-04 0.0 
0.0 0.0 -2.684313900889e-04 
-1.253955737825e-03 -3.715260469387e-04 0.0 
-3.715260469387e-04 3.888476539148e-03 0.0 
0.0 0.0 -9.536442305595e-04 
-1.602308644549e-03 2.138646014206e-03 0.0 
2.138646014206e-03 7.398169050205e-03 0.0 
0.0 0.0 -1.176862138969e-03 
2.761299412783e-03 -2.184006917307e-04 0.0 
-2.184006917307e-04 -8.957163604378e-04 0.0 
0.0 0.0 -9.160000506328e-05 
-1.698158774402e-03 7.543543168281e-04 0.0 
7.543543168281e-04 4.798515189366e-03 0.0 
0.0 0.0 -7.322753781719e-04 
-1.694678419912e-03 8.983255451051e-04 0.0 
8.983255451051e-04 4.996965617242e-03 0.0 
0.0 0.0 -7.130472889423e-04 
9.905782610910e-04 -8.253624912090e-04 0.0 
-8.253624912090e-04 7.976802919736e-04 0.0 
0.0 0.0 -7.663965227419e-04 
-1.039035016572e-03 -2.144348817903e-04 0.0 
-2.144348817903e-04 3.210973696896e-03 0.0 
0.0 0.0 -7.829545016062e-04 
1.212299874062e-03 -2.903037830351e-03 0.0 
-2.903037830351e-03 2.395213764874e-04 0.0 
0.0 0.0 -6.222091073784e-04 
1.174115903652e-03 2.662474741674e-03 0.0 
2.662474741674e-03 2.969730930284e-04 0.0 
0.0 0.0 -6.304667128631e-04 
-1.289472189001e-03 -1.746360051319e-03 0.0 
-1.746360051319e-03 5.399223758463e-03 0.0 
0.0 0.0 -1.180895453064e-03 
-1.199251439186e-03 3.128969763373e-03 0.0 
3.128969763373e-03 5.740281679720e-03 0.0 
0.0 0.0 -1.286194385238e-03 
-1.685234284086e-03 7.030718583631e-04 0.0 
7.030718583631e-04 7.477737434154e-03 0.0 
0.0 0.0 -1.101088927253e-03 
5.511702260285e-04 2.711119680311e-03 0.0 
2.711119680311e-03 9.222763951361e-04 0.0 
0.0 0.0 -6.314771233563e-04 
-3.649363196540e-05 -1.210836942261e-03 0.0 
-1.210836942261e-03 8.486569891216e-04 0.0 
0.0 0.0 -3.480700102098e-04 
-1.004741383637e-03 2.553626350246e-03 0.0 
2.553626350246e-03 3.669626505377e-03 0.0 
0.0 0.0 -8.905302458185e-04 
-1.568290103670e-03 2.798930321494e-04 0.0 
2.798930321494e-04 4.936656992355e-03 0.0 
0.0 0.0 -7.345111139194e-04 
-1.542599483069e-03 2.307996019665e-04 0.0 
2.307996019665e-04 5.186209951631e-03 0.0 
0.0 0.0 -7.144802219086e-04 
1.697260921232e-03 -1.822504204338e-04 0.0 
-1.822504204338e-04 -6.526688675189e-04 0.0 
0.0 0.0 -1.584708362264e-04 
9.885439547911e-04 -4.650217645265e-04 0.0 
-4.650217645265e-04 -7.811083121429e-05 0.0 
0.0 0.0 -2.719350994485e-04 
3.764836072069e-04 -3.171144431772e-04 0.0 
-3.171144431772e-04 5.254813268562e-04 0.0 
0.0 0.0 -2.992029258896e-04 
-3.222613347251e-04 -1.717475984859e-03 0.0 
-1.717475984859e-03 1.786840537745e-03 0.0 
0.0 0.0 -6.276768012942e-04 
1.995445303676e-03 -3.544912217161e-04 0.0 
-3.544912217161e-04 -1.783707534186e-04 0.0 
0.0 0.0 -2.505695937184e-04 
-1.385796394707e-03 -3.802460944882e-04 0.0 
-3.802460944882e-04 4.246303149623e-03 0.0 
0.0 0.0 -1.004230634435e-03 
0.0 0.0 0.0 
0.0 0.0 0.0 
0.0 0.0 0.0 
-3.537348662354e-04 -2.028219451660e-03 0.0 
-2.028219451660e-03 2.045322960423e-03 0.0 
0.0 0.0 -7.249663260806e-04 
-1.566153664312e-03 2.377992970035e-04 0.0 
2.377992970035e-04 6.488131571459e-03 0.0 
0.0 0.0 -9.582560723523e-04 
-1.634454558496e-03 5.707793053276e-04 0.0 
5.707793053276e-04 5.108535752511e-03 0.0 
0.0 0.0 -7.120344407548e-04 
-1.255391157734e-03 2.956292385131e-03 0.0 
2.956292385131e-03 5.913112370001e-03 0.0 
0.0 0.0 -1.169483110168e-03 
-3.211066572615e-04 -2.624140315591e-03 0.0 
-2.624140315591e-03 2.858415319154e-03 0.0 
0.0 0.0 -9.641449249716e-04 
-1.553469395463e-03 1.980732768992e-04 0.0 
1.980732768992e-04 6.108450087988e-03 0.0 
0.0 0.0 -8.988447104697e-04 
-1.086829048493e-03 -4.298554506639e-05 0.0 
-4.298554506639e-05 3.376551179836e-03 0.0 
0.0 0.0 -8.404787427002e-04 
1.157325761144e-03 -4.144839602351e-04 0.0 
-4.144839602351e-04 5.556060787113e-04 0.0 
0.0 0.0 -3.489577299251e-04 
-1.340974968048e-03 1.141125960794e-03 0.0 
1.141125960794e-03 8.560634098268e-03 0.0 
0.0 0.0 -1.340974968048e-03 
-1.479514720207e-03 1.290754629394e-03 0.0 
1.290754629394e-03 8.817356864728e-03 0.0 
0.0 0.0 -1.320295381545e-03 
-1.658748233041e-03 8.637494445187e-04 0.0 
8.637494445187e-04 5.855760830743e-03 0.0 
0.0 0.0 -8.588387843224e-04 
-1.626246500550e-03 3.507062076516e-04 0.0 
3.507062076516e-04 4.917310602464e-03 0.0 
0.0 0.0 -7.326073368542e-04 
-1.101733211462e-03 -4.903419461906e-04 0.0 
-4.903419461906e-04 3.425201513199e-03 0.0 
0.0 0.0 -8.368382630048e-04 
-1.457935752510e-03 9.072104527732e-04 0.0 
9.072104527732e-04 8.880607743519e-03 0.0 
0.0 0.0 -1.322576402756e-03 
-2.087604691238e-04 -2.081308369903e-03 0.0 
-2.081308369903e-03 1.746392936312e-03 0.0 
0.0 0.0 -6.589853430805e-04 
-1.662826015092e-03 7.083533780780e-04 0.0 
7.083533780780e-04 5.042251775661e-03 0.0 
0.0 0.0 -7.125614225629e-04 
-1.628165374516e-03 4.707510309731e-04 0.0 
4.707510309731e-04 4.889560536843e-03 0.0 
0.0 0.0 -7.312775522649e-04 
-1.109436790681e-03 2.207974280543e-03 0.0 
2.207974280543e-03 3.753226225228e-03 0.0 
0.0 0.0 -8.460010047089e-04 
-1.341823989366e-03 2.274932854254e-03 0.0 
2.274932854254e-03 8.137856468635e-03 0.0 
0.0 0.0 -1.341823989366e-03 
-1.447499776368e-03 1.123885033130e-03 0.0 
1.123885033130e-03 8.849685221172e-03 0.0 
0.0 0.0 -1.322582685247e-03 
1.858413942134e-03 -4.468674671497e-04 0.0 
-4.468674671497e-04 -1.442261551490e-04 0.0 
0.0 0.0 -2.523401230232e-04 
1.933225188622e-03 -1.733881547272e-04 0.0 
-1.733881547272e-04 -7.561870514403e-04 0.0 
0.0 0.0 -1.563839533901e-04 
-1.406822219416e-04 -1.124602410666e-03 0.0 
-1.124602410666e-03 1.005262349108e-03 0.0 
0.0 0.0 -3.705343402142e-04 
-5.636260726475e-04 -2.890778252910e-03 0.0 
-2.890778252910e-03 3.024028366260e-03 0.0 
0.0 0.0 -1.029090130247e-03 
-1.836231348186e-03 -1.061046282737e-04 0.0 
-1.061046282737e-04 6.851957631603e-03 0.0 
0.0 0.0 -1.224669017856e-03 
0.0 0.0 0.0 
0.0 0.0 0.0 
0.0 0.0 0.0 
-1.578428037932e-03 -1.076945805976e-04 0.0 
-1.076945805976e-04 7.488341038297e-03 0.0 
0.0 0.0 -1.092518628634e-03 
-1.550925910831e-05 -1.170234142814e-04 0.0 
-1.170234142814e-04 1.067621659097e-04 0.0 
0.0 0.0 -3.910838862915e-05 
8.665365973905e-04 -1.142786771002e-03 0.0 
-1.142786771002e-03 9.419164366956e-04 0.0 
0.0 0.0 -7.750513003226e-04 
2.093383490481e-04 -3.500473738276e-04 0.0 
-3.500473738276e-04 8.081195732960e-06 0.0 
0.0 0.0 -9.317980490615e-05 
0.0 0.0 0.0 
0.0 0.0 0.0 
0.0 0.0 0.0 
8.379829542950e-04 -1.828387007204e-03 0.0 
-1.828387007204e-03 8.061078686980e-04 0.0 
0.0 0.0 -7.046103527113e-04 
-1.789860880868e-03 -9.343042948716e-04 0.0 
-9.343042948716e-04 6.450275194502e-03 0.0 
0.0 0.0 -1.192963836147e-03 
-1.590104708056e-03 6.107842018535e-05 0.0 
6.107842018535e-05 6.703688956183e-03 0.0 
0.0 0.0 -9.361271490834e-04 
-8.759783829009e-04 2.898559650342e-03 0.0 
2.898559650342e-03 3.532916901786e-03 0.0 
0.0 0.0 -9.106555839008e-04 
1.248462822196e-03 -2.813829483536e-04 0.0 
-2.813829483536e-04 -1.929931588244e-04 0.0 
0.0 0.0 -2.625419092021e-04 
-1.459678414727e-03 -2.058426133646e-03 0.0 
-2.058426133646e-03 4.704925736718e-03 0.0 
0.0 0.0 -1.075952622059e-03 
-1.337797817327e-03 3.504757910850e-04 0.0 
3.504757910850e-04 8.685617780919e-03 0.0 
0.0 0.0 -1.337797817327e-03 
-1.451734133111e-03 3.024014936646e-04 0.0 
3.024014936646e-04 8.945645325804e-03 0.0 
0.0 0.0 -1.322354755130e-03 
-1.599337559302e-03 4.517969448523e-04 0.0 
4.517969448523e-04 5.137060814106e-03 0.0 
0.0 0.0 -7.125764448434e-04 
8.243811469618e-04 -5.070143029738e-04 0.0 
-5.070143029738e-04 1.170642242664e-03 0.0 
0.0 0.0 -8.550100241253e-04 
-1.341607717199e-03 9.922961128721e-04 0.0 
9.922961128721e-04 8.617013640237e-03 0.0 
0.0 0.0 -1.341607717199e-03 
1.651597580356e-05 2.683416658655e-03 0.0 
2.683416658655e-03 3.024822145470e-03 0.0 
0.0 0.0 -1.046710270629e-03 
1.210451057929e-03 -1.943692124057e-04 0.0 
-1.943692124057e-04 4.706046126820e-04 0.0 
0.0 0.0 -3.531810144492e-04 
2.099767295814e-03 -2.484083841165e-04 0.0 
-2.484083841165e-04 -2.289154150212e-04 0.0 
0.0 0.0 -2.475227046456e-04 
1.335233375907e-03 -9.196830328825e-05 0.0 
-9.196830328825e-05 -2.038367509550e-04 0.0 
0.0 0.0 -2.481890828467e-04 
-1.206645058523e-03 -4.413417753443e-05 0.0 
-4.413417753443e-05 3.734312456454e-03 0.0 
0.0 0.0 -9.186759157619e-04 
-1.554661254855e-03 -1.173104092863e-03 0.0 
-1.173104092863e-03 7.206653129246e-03 0.0 
0.0 0.0 -1.322828574513e-03 
-1.468378470940e-03 -2.055954314762e-04 0.0 
-2.055954314762e-04 8.477100898234e-03 0.0 
0.0 0.0 -1.258329778789e-03 
2.187416576026e-03 -1.653808446854e-04 0.0 
-1.653808446854e-04 -8.676741714944e-04 0.0 
0.0 0.0 -1.587067154099e-04 
-1.371588137901e-03 -3.169762198632e-04 0.0 
-3.169762198632e-04 4.214800910036e-03 0.0 
0.0 0.0 -1.008438243783e-03 
-1.344798314370e-03 -8.279531255943e-04 0.0 
-8.279531255943e-04 7.026886665436e-03 0.0 
0.0 0.0 -1.344798314369e-03 
-1.564884777426e-03 -1.287545985866e-03 0.0 
-1.287545985866e-03 7.147060172158e-03 0.0 
0.0 0.0 -1.318785251170e-03 
-1.158469832793e-03 -1.923166980148e-03 0.0 
-1.923166980148e-03 5.883371209853e-03 0.0 
0.0 0.0 -1.321151187552e-03 
-1.585912391543e-03 2.691560132111e-04 0.0 
2.691560132111e-04 7.090908885405e-03 0.0 
0.0 0.0 -1.027148381742e-03 
-1.555187588006e-03 -1.971572702211e-04 0.0 
-1.971572702211e-04 7.705246922455e-03 0.0 
0.0 0.0 -1.125709525796e-03 
-1.338030260144e-03 -1.094386398329e-03 0.0 
-1.094386398329e-03 6.909148412757e-03 0.0 
0.0 0.0 -1.338030260144e-03 
-1.340754991027e-03 -1.372687681983e-03 0.0 
-1.372687681983e-03 6.806607219922e-03 0.0 
0.0 0.0 -1.340754991027e-03 
-1.561602649575e-03 2.480043620058e-04 0.0 
2.480043620058e-04 7.494608831512e-03 0.0 
0.0 0.0 -1.092518628634e-03 
3.307271248664e-03 4.314548185695e-05 0.0 
4.314548185695e-05 -1.214475185733e-03 0.0 
0.0 0.0 -8.755379438333e-05 
-1.478032168390e-03 1.489804673206e-04 0.0 
1.489804673206e-04 5.167022187345e-03 0.0 
0.0 0.0 -7.139539158865e-04 
-1.574977551316e-03 3.717997235828e-04 0.0 
3.717997235828e-04 5.188881553203e-03 0.0 
0.0 0.0 -7.133642253441e-04 
2.078295521971e-03 -1.511499007421e-04 0.0 
-1.511499007421e-04 -8.199563945998e-04 0.0 
0.0 0.0 -1.576675707606e-04 
-1.342313591240e-03 -1.872687525586e-03 0.0 
-1.872687525586e-03 6.355359522584e-03 0.0 
0.0 0.0 -1.342313591240e-03 
-1.269922737054e-03 -2.029167704155e-03 0.0 
-2.029167704155e-03 6.094262192879e-03 0.0 
0.0 0.0 -1.318355947622e-03 
-1.337959751097e-03 -1.908784167046e-03 0.0 
-1.908784167046e-03 5.900685640896e-03 0.0 
0.0 0.0 -1.337959751097e-03 
3.106621107953e-03 -1.497773368645e-04 0.0 
-1.497773368645e-04 -1.029211139497e-03 0.0 
0.0 0.0 -9.540963664560e-05 
2.941822019467e-03 -1.767432348869e-04 0.0 
-1.767432348869e-04 -9.568393427299e-04 0.0 
0.0 0.0 -9.747405510327e-05 
-1.340754991027e-03 -1.672627381109e-03 0.0 
-1.672627381109e-03 5.518495974516e-03 0.0 
0.0 0.0 -1.340754991027e-03 
-1.340396196526e-03 -1.852966983193e-03 0.0 
-1.852966983193e-03 5.697134399037e-03 0.0 
0.0 0.0 -1.340396196526e-03 
-1.600296610560e-03 -2.152006829150e-04 0.0 
-2.152006829150e-04 6.887323541576e-03 0.0 
0.0 0.0 -9.936726122374e-04 
-1.422222177314e-03 8.859389962602e-05 0.0 
8.859389962602e-05 5.179295465595e-03 0.0 
0.0 0.0 -7.124851972278e-04 
-1.571159218797e-03 -2.082021183410e-04 0.0 
-2.082021183410e-04 7.291178693471e-03 0.0 
0.0 0.0 -1.060142436171e-03 
-1.552782223510e-03 -2.129194587244e-04 0.0 
-2.129194587244e-04 6.002253842572e-03 0.0 
0.0 0.0 -8.626607521899e-04 
-1.382122713210e-03 3.570213775188e-05 0.0 
3.570213775188e-05 5.182667103943e-03 0.0 
0.0 0.0 -7.121912678902e-04 
2.259827960221e-03 -3.791885520061e-04 0.0 
-3.791885520061e-04 -6.773411335669e-04 0.0 
0.0 0.0 -9.442328267794e-05 
1.489465085535e-03 -3.873061726619e-04 0.0 
-3.873061726619e-04 -3.302723319640e-04 0.0 
0.0 0.0 -4.591167563965e-05 
1.195706273835e-03 -4.439423179226e-04 0.0 
-4.439423179226e-04 -2.457069974477e-04 0.0 
0.0 0.0 -4.589015575604e-05 
7.928883186884e-04 -4.308369996379e-04 0.0 
-4.308369996379e-04 -1.962835067221e-05 0.0 
0.0 0.0 -4.556578909549e-05 
-1.455576565641e-03 5.369324781880e-06 0.0 
5.369324781880e-06 4.421569252006e-03 0.0 
0.0 0.0 -1.025222297049e-03 
-1.326853145310e-03 -3.193870868211e-05 0.0 
-3.193870868211e-05 4.074529080795e-03 0.0 
0.0 0.0 -9.784754570978e-04 
3.643447720584e-04 -2.807478551813e-04 0.0 
-2.807478551813e-04 -8.302826669459e-05 0.0 
0.0 0.0 -1.159392125903e-04 
-1.882114812679e-03 5.257899597366e-05 0.0 
5.257899597366e-05 5.463849854237e-03 0.0 
0.0 0.0 -1.072123180932e-03 
1.624781745822e-04 -2.648253394118e-04 0.0 
-2.648253394118e-04 3.767456551543e-06 0.0 
0.0 0.0 -7.124812762874e-05 
-1.341471640605e-03 1.902532918980e-03 0.0 
1.902532918980e-03 8.304452194875e-03 0.0 
0.0 0.0 -1.341471640605e-03 
-1.340968685557e-03 8.342263842268e-04 0.0 
8.342263842268e-04 8.620360450522e-03 0.0 
0.0 0.0 -1.340968685557e-03 
-1.339320413496e-03 1.336323062728e-03 0.0 
1.336323062728e-03 8.515855351859e-03 0.0 
0.0 0.0 -1.339320413496e-03 
-5.175251243654e-04 1.147272255642e-05 0.0 
1.147272255642e-05 1.550881351190e-03 0.0 
0.0 0.0 -2.599136149544e-04 
-9.633323041400e-04 -3.549644401783e-05 0.0 
-3.549644401783e-05 2.981977788141e-03 0.0 
0.0 0.0 -7.340959586659e-04 
-1.337132911908e-03 6.510662741128e-04 0.0 
6.510662741128e-04 8.656607653519e-03 0.0 
0.0 0.0 -1.337132911908e-03 
-2.083032595708e-03 9.922266011855e-05 0.0 
9.922266011855e-05 6.472696883650e-03 0.0 
0.0 0.0 -1.124956933753e-03 
-1.344556937803e-03 5.003882733929e-04 0.0 
5.003882733929e-04 8.710429521741e-03 0.0 
0.0 0.0 -1.344556937803e-03 
-1.932677962729e-03 1.288201926386e-04 0.0 
1.288201926386e-04 6.746175248938e-03 0.0 
0.0 0.0 -1.192538251246e-03 
-1.740079752366e-03 1.547682996820e-04 0.0 
1.547682996820e-04 7.002368902305e-03 0.0 
0.0 0.0 -1.259905836238e-03 
-1.256318881540e-03 -3.058147318078e-04 0.0 
-3.058147318078e-04 3.889569585195e-03 0.0 
0.0 0.0 -9.521061186879e-04 
-1.479483252636e-03 7.231400883548e-04 0.0 
7.231400883548e-04 8.931379513718e-03 0.0 
0.0 0.0 -1.318101597465e-03 
-1.454407492241e-03 7.329644933787e-04 0.0 
7.329644933787e-04 8.932547234701e-03 0.0 
0.0 0.0 -1.321689849711e-03 
-1.996720130669e-03 -4.240856891719e-04 0.0 
-4.240856891719e-04 6.546271744836e-03 0.0 
0.0 0.0 -1.157495185000e-03 
-1.833092771074e-03 -4.338479580684e-04 0.0 
-4.338479580684e-04 6.845712330688e-03 0.0 
0.0 0.0 -1.225777420818e-03 
-1.841879665554e-03 -1.392809369192e-03 0.0 
-1.392809369192e-03 5.462425115064e-03 0.0 
0.0 0.0 -1.076967794221e-03 
0.0 0.0 0.0 
0.0 0.0 0.0 
0.0 0.0 0.0 
-8.795889895974e-04 -1.952925740306e-03 0.0 
-1.952925740306e-03 3.376145193665e-03 0.0 
0.0 0.0 -1.039304039601e-03 
1.660434101197e-03 -6.141622579472e-04 0.0 
-6.141622579472e-04 -6.719522836332e-05 0.0 
0.0 0.0 -2.442944474907e-04 
-1.378694188408e-03 -2.097012646119e-03 0.0 
-2.097012646119e-03 5.460269496084e-03 0.0 
0.0 0.0 -1.177819030284e-03 
-7.813950936845e-04 -2.358745935075e-03 0.0 
-2.358745935075e-03 3.287112188259e-03 0.0 
0.0 0.0 -1.040987640873e-03 
-1.809630590335e-03 -1.291578548695e-03 0.0 
-1.291578548695e-03 5.821414157847e-03 0.0 
0.0 0.0 -1.099016898379e-03 
-2.060296257065e-04 -1.796631504213e-03 0.0 
-1.796631504213e-03 1.564117229874e-03 0.0 
0.0 0.0 -5.820375446434e-04 
4.475341314438e-05 -9.010547106959e-04 0.0 
-9.010547106959e-04 6.723802247933e-04 0.0 
0.0 0.0 -2.733874678612e-04 
-1.819661686397e-03 -1.463949205523e-03 0.0 
-1.463949205523e-03 6.215728401457e-03 0.0 
0.0 0.0 -1.161668299909e-03 
-1.009350816753e-03 -1.981157607315e-03 0.0 
-1.981157607315e-03 3.679610224835e-03 0.0 
0.0 0.0 -1.056886766371e-03 
-1.124597673924e-03 -3.416283390981e-04 0.0 
-3.416283390981e-04 3.530274889455e-03 0.0 
0.0 0.0 -8.978673291013e-04 
-1.908614693689e-03 -1.553426855284e-03 0.0 
-1.553426855284e-03 5.883638228136e-03 0.0 
0.0 0.0 -1.096102707776e-03 
-1.506564574904e-03 4.784902240182e-04 0.0 
4.784902240182e-04 7.990398295391e-03 0.0 
0.0 0.0 -1.188907866872e-03 
-1.145966443117e-03 -2.688887835076e-04 0.0 
-2.688887835076e-04 3.559257817850e-03 0.0 
0.0 0.0 -8.802182425544e-04 
-2.343808151550e-04 -2.448482601409e-03 0.0 
-2.448482601409e-03 2.867036480139e-03 0.0 
0.0 0.0 -1.035646790376e-03 
-9.500506080825e-04 -2.724089328098e-03 0.0 
-2.724089328098e-03 3.674446532369e-03 0.0 
0.0 0.0 -9.625389225288e-04 
-1.856114660532e-03 -1.247587492440e-03 0.0 
-1.247587492440e-03 5.444374226428e-03 0.0 
0.0 0.0 -1.042884296030e-03 
-2.003615679542e-03 -9.107189773551e-04 0.0 
-9.107189773551e-04 5.760788445208e-03 0.0 
0.0 0.0 -1.050199500156e-03 
3.015162384708e-03 1.478491521065e-03 0.0 
1.478491521065e-03 -1.420788746949e-03 0.0 
0.0 0.0 -6.833029876111e-04 
-7.703338813803e-04 2.711642704622e-03 0.0 
2.711642704622e-03 3.268676482316e-03 0.0 
0.0 0.0 -9.206815977879e-04 
8.952220710029e-04 3.337500451005e-03 0.0 
3.337500451005e-03 9.018971507738e-04 0.0 
0.0 0.0 -7.701939521900e-04 
-1.492273682533e-03 -1.948749897048e-03 0.0 
-1.948749897048e-03 4.700056634630e-03 0.0 
0.0 0.0 -1.018483763552e-03 
-1.953152701418e-03 -1.266064436280e-03 0.0 
-1.266064436280e-03 6.190905664489e-03 0.0 
0.0 0.0 -1.125100902632e-03 
-2.130434678919e-03 -5.674193057818e-04 0.0 
-5.674193057818e-04 6.039060582820e-03 0.0 
0.0 0.0 -1.053755873404e-03 
1.981272582958e-04 -2.339075750409e-03 0.0 
-2.339075750409e-03 1.164667172993e-03 0.0 
0.0 0.0 -5.840547562666e-04 
-1.516698384373e-03 7.243684231909e-04 0.0 
7.243684231909e-04 7.963201592157e-03 0.0 
0.0 0.0 -1.183514100502e-03 
-1.571889609711e-03 6.492262438020e-04 0.0 
6.492262438020e-04 7.577660240319e-03 0.0 
0.0 0.0 -1.117084069417e-03 
-1.526943038589e-03 4.067391407097e-04 0.0 
4.067391407097e-04 5.686565415721e-03 0.0 
0.0 0.0 -8.110481619253e-04 
-1.474195239190e-03 -2.107699134124e-03 0.0 
-2.107699134124e-03 4.674985602820e-03 0.0 
0.0 0.0 -1.001070066037e-03 
-1.687869148980e-03 -1.597447162641e-03 0.0 
-1.597447162641e-03 5.094192157887e-03 0.0 
0.0 0.0 -1.032102790996e-03 
-1.559878786953e-03 1.186239496982e-04 0.0 
1.186239496982e-04 8.091883647163e-03 0.0 
0.0 0.0 -1.185362187646e-03 
-1.553576411269e-03 5.639076835034e-04 0.0 
5.639076835034e-04 7.828849217298e-03 0.0 
0.0 0.0 -1.150972777267e-03 
-5.736846005059e-04 -3.010470759541e-03 0.0 
-3.010470759541e-03 3.112745496219e-03 0.0 
0.0 0.0 -1.058777908313e-03 
-1.827264969184e-03 -1.207689843267e-03 0.0 
-1.207689843267e-03 6.491929530035e-03 0.0 
0.0 0.0 -1.190872049285e-03 
-1.617401302618e-03 1.036699389917e-03 0.0 
1.036699389917e-03 7.425262889637e-03 0.0 
0.0 0.0 -1.103416240745e-03 
-2.113993614968e-03 -7.222808743220e-04 0.0 
-7.222808743220e-04 6.023476369147e-03 0.0 
0.0 0.0 -1.069496670503e-03 
-1.471914821471e-03 -1.998353424490e-03 0.0 
-1.998353424490e-03 5.883536090439e-03 0.0 
0.0 0.0 -1.210017230578e-03 
-1.575272729869e-03 3.494544289054e-04 0.0 
3.494544289054e-04 8.019533452472e-03 0.0 
0.0 0.0 -1.181737430652e-03 
-1.652502708926e-03 2.520535947120e-04 0.0 
2.520535947120e-04 7.001595806507e-03 0.0 
0.0 0.0 -1.011817915138e-03 
-3.838894113269e-04 -2.804191833148e-03 0.0 
-2.804191833148e-03 2.874279057775e-03 0.0 
0.0 0.0 -9.985655989919e-04 
-6.304965187655e-04 -7.604202958905e-04 0.0 
-7.604202958905e-04 2.203620271365e-03 0.0 
0.0 0.0 -6.656342390725e-04 
4.047615641515e-04 -2.474054827037e-03 0.0 
-2.474054827037e-03 9.613198754716e-04 0.0 
0.0 0.0 -5.854634741242e-04 
2.836227978939e-05 -1.580599960261e-03 0.0 
-1.580599960261e-03 9.832792497712e-04 0.0 
0.0 0.0 -4.149592254337e-04 
1.034548557929e-04 -1.227500156599e-03 0.0 
-1.227500156599e-03 6.126727267546e-04 0.0 
0.0 0.0 -3.069118210918e-04 
-1.577352812428e-03 2.114313367924e-04 0.0 
2.114313367924e-04 7.845695102100e-03 0.0 
0.0 0.0 -1.150998037120e-03 
-1.900941556448e-03 -7.041406832224e-04 0.0 
-7.041406832224e-04 6.386638876857e-03 0.0 
0.0 0.0 -1.156839719840e-03 
6.843292428348e-05 -1.144232504345e-03 0.0 
-1.144232504345e-03 6.143886100226e-04 0.0 
0.0 0.0 -2.926378004169e-04 
-1.601987702258e-03 2.442990824200e-03 0.0 
2.442990824200e-03 6.852419756780e-03 0.0 
0.0 0.0 -1.160298666437e-03 
-1.543111448516e-03 4.596328783708e-04 0.0 
4.596328783708e-04 5.853297686999e-03 0.0 
0.0 0.0 -8.436798659344e-04 
-1.824750470194e-03 -1.859013687658e-03 0.0 
-1.859013687658e-03 5.532595994557e-03 0.0 
0.0 0.0 -1.067477449466e-03 
-2.006499161308e-03 -7.976010001953e-04 0.0 
-7.976010001953e-04 6.083504909474e-03 0.0 
0.0 0.0 -1.090430023688e-03 
7.833829666557e-04 -2.711290744461e-03 0.0 
-2.711290744461e-03 6.776524641225e-04 0.0 
0.0 0.0 -6.261580417621e-04 
-2.076799610215e-03 -1.031710463461e-03 0.0 
-1.031710463461e-03 6.135351760274e-03 0.0 
0.0 0.0 -1.087955833448e-03 
-1.557514890525e-03 -6.173462151110e-05 0.0 
-6.173462151110e-05 5.695796094032e-03 0.0 
0.0 0.0 -8.100176300978e-04 
8.750615862245e-04 9.176848780839e-04 0.0 
9.176848780839e-04 1.438408062181e-03 0.0 
0.0 0.0 -9.914869921737e-04 
-1.497791782641e-03 -1.444847597853e-03 0.0 
-1.444847597853e-03 6.204442023908e-03 0.0 
0.0 0.0 -1.242964905849e-03 
-6.875629852487e-04 -4.240155203853e-04 0.0 
-4.240155203853e-04 2.190912803371e-03 0.0 
0.0 0.0 -5.658909553065e-04 
-1.268098618658e-03 -2.126035490962e-03 0.0 
-2.126035490962e-03 5.495926708526e-03 0.0 
0.0 0.0 -1.215045542354e-03 
-1.631557581403e-03 2.235766335083e-04 0.0 
2.235766335083e-04 7.237605270102e-03 0.0 
0.0 0.0 -1.048288725887e-03 
-7.383595785151e-04 -6.377031037024e-04 0.0 
-6.377031037024e-04 2.446869421887e-03 0.0 
0.0 0.0 -6.818911139857e-04 
3.993077738021e-04 -2.419206884214e-03 0.0 
-2.419206884214e-03 9.348823657586e-04 0.0 
0.0 0.0 -5.717957740974e-04 
-1.500476059484e-03 -8.906484908892e-04 0.0 
-8.906484908892e-04 4.589149281530e-03 0.0 
0.0 0.0 -1.044847128380e-03 
-1.630418366467e-03 6.661053165545e-04 0.0 
6.661053165545e-04 6.481746764143e-03 0.0 
0.0 0.0 -9.409807611877e-04 
-5.756498552716e-04 -2.159817615522e-03 0.0 
-2.159817615522e-03 2.678873720584e-03 0.0 
0.0 0.0 -9.013816565627e-04 
-1.610525300296e-03 1.600914995101e-04 0.0 
1.600914995101e-04 7.460282061065e-03 0.0 
0.0 0.0 -1.085119818393e-03 
-1.626505474320e-03 1.193898643633e-04 0.0 
1.193898643633e-04 6.796479922044e-03 0.0 
0.0 0.0 -9.816794289629e-04 
-1.168002604940e-03 -1.979309092588e-03 0.0 
-1.979309092588e-03 4.001814082530e-03 0.0 
0.0 0.0 -1.032510638845e-03 
-1.993224441762e-03 -1.056137829821e-03 0.0 
-1.056137829821e-03 5.774090597717e-03 0.0 
0.0 0.0 -1.075584385303e-03 
-2.021709392423e-03 -1.349459280440e-03 0.0 
-1.349459280440e-03 5.860171390496e-03 0.0 
0.0 0.0 -1.066391945090e-03 
-1.595291763312e-03 5.874023300959e-04 0.0 
5.874023300959e-04 7.178060268656e-03 0.0 
0.0 0.0 -1.050681058959e-03 
-5.082515002275e-04 -8.941420093747e-04 0.0 
-8.941420093747e-04 1.798316205834e-03 0.0 
0.0 0.0 -5.009000172756e-04 
-1.206852124203e-03 -1.671075112969e-03 0.0 
-1.671075112969e-03 4.019505130445e-03 0.0 
0.0 0.0 -1.029746919386e-03 
-5.152753143587e-05 2.170825683475e-03 0.0 
2.170825683475e-03 3.140726951459e-03 0.0 
0.0 0.0 -1.141128458404e-03 
-1.641668485544e-03 3.431501301840e-04 0.0 
3.431501301840e-04 7.404941610079e-03 0.0 
0.0 0.0 -1.078198857115e-03 
-1.057951637287e-03 -1.671343146736e-03 0.0 
-1.671343146736e-03 3.677031607098e-03 0.0 
0.0 0.0 -1.017599913258e-03 
-8.954401304147e-04 -2.800206404235e-03 0.0 
-2.800206404235e-03 3.674164100142e-03 0.0 
0.0 0.0 -1.058318663232e-03 
-1.115312546428e-03 -2.189534952593e-03 0.0 
-2.189534952593e-03 5.045014028914e-03 0.0 
0.0 0.0 -1.187586327529e-03 
-1.596801678993e-03 6.045917028781e-04 0.0 
6.045917028781e-04 6.950727632054e-03 0.0 
0.0 0.0 -1.013969106439e-03 
2.322873706387e-04 -1.368679716301e-04 0.0 
-1.368679716301e-04 -2.322873706387e-04 0.0 
0.0 0.0 0.0 
4.726741315202e-05 -1.330898926681e-03 0.0 
-1.330898926681e-03 8.674614564573e-04 0.0 
0.0 0.0 -2.916872467244e-04 
2.273358372470e-03 1.445761220817e-05 0.0 
1.445761220817e-05 -1.234043607805e-03 0.0 
0.0 0.0 -4.454206134279e-04 
-1.880676767284e-03 -9.969975945957e-04 0.0 
-9.969975945957e-04 6.131847364448e-03 0.0 
0.0 0.0 -1.127837695838e-03 
-1.619604464873e-03 6.374782176385e-04 0.0 
6.374782176385e-04 6.719807393941e-03 0.0 
0.0 0.0 -9.775003154318e-04 
-1.665473239862e-03 -8.814240019008e-04 0.0 
-8.814240019008e-04 4.990171794499e-03 0.0 
0.0 0.0 -1.065326950858e-03 
-1.596762474986e-03 5.442334346395e-04 0.0 
5.442334346395e-04 6.065464133813e-03 0.0 
0.0 0.0 -8.745614812816e-04 
-3.748877525410e-04 -1.800985621523e-03 0.0 
-1.800985621523e-03 3.574605346147e-03 0.0 
0.0 0.0 -1.139196670502e-03 
-1.359206623324e-03 -1.598338811102e-03 0.0 
-1.598338811102e-03 4.356288718259e-03 0.0 
0.0 0.0 -1.038619054332e-03 
-1.952425401121e-03 -1.122489104774e-03 0.0 
-1.122489104774e-03 5.808139918506e-03 0.0 
0.0 0.0 -1.061632825506e-03 
-7.352512267089e-04 -7.174892847169e-04 0.0 
-7.174892847169e-04 2.324934696345e-03 0.0 
0.0 0.0 -5.540246046759e-04 
-1.437645385880e-03 -1.599317358972e-03 0.0 
-1.599317358972e-03 5.870614125847e-03 0.0 
0.0 0.0 -1.211531131004e-03 
-1.154210490817e-03 -1.954082935906e-03 0.0 
-1.954082935906e-03 4.005717739264e-03 0.0 
0.0 0.0 -1.074148950826e-03 
-8.379192553434e-04 -5.906240485017e-04 0.0 
-5.906240485017e-04 2.576604047046e-03 0.0 
0.0 0.0 -5.876558844704e-04 
-1.197102623790e-03 -1.637680359765e-03 0.0 
-1.637680359765e-03 4.017415051808e-03 0.0 
0.0 0.0 -1.056762485630e-03 
-7.509293429896e-04 -1.933738058068e-03 0.0 
-1.933738058068e-03 3.044668356527e-03 0.0 
0.0 0.0 -9.830310058020e-04 
-3.848069222800e-04 -1.987035085230e-03 0.0 
-1.987035085230e-03 2.096507399408e-03 0.0 
0.0 0.0 -7.335859187690e-04 
-1.641529108376e-03 -8.260601691015e-04 0.0 
-8.260601691015e-04 4.922455749526e-03 0.0 
0.0 0.0 -1.057704792895e-03 
1.274028603033e-03 -1.869459937269e-04 0.0 
-1.869459937269e-04 -4.728594485301e-04 0.0 
0.0 0.0 -1.484808277242e-04 
8.391344234421e-04 -3.183235339587e-04 0.0 
-3.183235339587e-04 -2.967630892776e-04 0.0 
0.0 0.0 -1.070543391422e-04 
-1.665019363331e-03 -1.732448119605e-03 0.0 
-1.732448119605e-03 5.107282910853e-03 0.0 
0.0 0.0 -1.076850574752e-03 
-6.443609575616e-04 -8.027982188953e-04 0.0 
-8.027982188953e-04 2.093114862673e-03 0.0 
0.0 0.0 -5.127475950200e-04 
-1.433152566994e-03 -2.256582062865e-03 0.0 
-2.256582062865e-03 4.678524487026e-03 0.0 
0.0 0.0 -1.065643708224e-03 
-1.181624258185e-03 -2.541209283503e-03 0.0 
-2.541209283503e-03 4.198630913141e-03 0.0 
0.0 0.0 -1.061543848411e-03 
-2.864899867882e-04 -2.872572545388e-03 0.0 
-2.872572545388e-03 2.406784440249e-03 0.0 
0.0 0.0 -9.086976229117e-04 
1.281208818910e-03 -3.086935772070e-03 0.0 
-3.086935772070e-03 3.369465702636e-04 0.0 
0.0 0.0 -6.934951667886e-04 
-1.645375116221e-03 6.411920099951e-04 0.0 
6.411920099951e-04 7.711017833911e-03 0.0 
0.0 0.0 -1.137719822027e-03 
1.154207816654e-03 1.867319367673e-03 0.0 
1.867319367673e-03 -6.876363112737e-04 0.0 
0.0 0.0 -1.999592165914e-04 
-9.249733248304e-04 -1.654130041636e-03 0.0 
-1.654130041636e-03 3.362873241434e-03 0.0 
0.0 0.0 -9.992710862841e-04 
-3.877098979375e-04 -1.380494157509e-03 0.0 
-1.380494157509e-03 3.663297430763e-03 0.0 
0.0 0.0 -1.175533656463e-03 
-5.174404311479e-04 -5.539878075327e-04 0.0 
-5.539878075327e-04 1.742776399261e-03 0.0 
0.0 0.0 -4.908139796285e-04 
-1.654366313170e-03 2.025707585884e-04 0.0 
2.025707585884e-04 6.355277344232e-03 0.0 
0.0 0.0 -9.088859120638e-04 
-1.608026372927e-03 7.066471578212e-05 0.0 
7.066471578212e-05 5.908321987661e-03 0.0 
0.0 0.0 -8.416286270284e-04 
-1.832935889570e-04 -1.554120033244e-03 0.0 
-1.554120033244e-03 1.379295739965e-03 0.0 
0.0 0.0 -5.125723504322e-04 
-9.249495539582e-04 -2.182927448984e-03 0.0 
-2.182927448984e-03 4.540217093715e-03 0.0 
0.0 0.0 -1.158722036769e-03 
-1.708983070523e-03 5.831805314674e-04 0.0 
5.831805314674e-04 7.093076428562e-03 0.0 
0.0 0.0 -1.034898561726e-03 
-5.347835094169e-04 -8.712026877687e-04 0.0 
-8.712026877687e-04 1.955284966163e-03 0.0 
0.0 0.0 -6.087863386054e-04 
-1.641053002078e-03 8.278210871732e-04 0.0 
8.278210871732e-04 7.844844353227e-03 0.0 
0.0 0.0 -1.166520446339e-03 
-1.573669309360e-03 1.135775076811e-03 0.0 
1.135775076811e-03 7.785651679837e-03 0.0 
0.0 0.0 -1.169001632583e-03 
-5.801197933913e-04 -1.186925299187e-03 0.0 
-1.186925299187e-03 2.194197512368e-03 0.0 
0.0 0.0 -6.784273028472e-04 
3.325860372313e-04 2.756630050232e-03 0.0 
2.756630050232e-03 1.228114910237e-03 0.0 
0.0 0.0 -6.688718346291e-04 
-3.593200341485e-04 -1.692198470874e-03 0.0 
-1.692198470874e-03 1.863660251544e-03 0.0 
0.0 0.0 -6.447172360267e-04 
-1.851327153153e-03 -1.651837749691e-03 0.0 
-1.651837749691e-03 5.510234686298e-03 0.0 
0.0 0.0 -1.068438311093e-03 
-1.517049278155e-03 -1.208152311661e-03 0.0 
-1.208152311661e-03 4.665351215207e-03 0.0 
0.0 0.0 -1.047608655120e-03 
-1.588271255534e-03 2.440442444252e-03 0.0 
2.440442444252e-03 7.130284191767e-03 0.0 
0.0 0.0 -1.169529464977e-03 
-1.586290284398e-03 9.796528348583e-04 0.0 
9.796528348583e-04 7.658587432112e-03 0.0 
0.0 0.0 -1.140030709108e-03 
-1.655646109898e-03 -1.957177626158e-03 0.0 
-1.957177626158e-03 5.116194479746e-03 0.0 
0.0 0.0 -1.068248785331e-03 
-1.685997880852e-03 -1.784608356716e-03 0.0 
-1.784608356716e-03 5.105111501202e-03 0.0 
0.0 0.0 -1.017402529519e-03 
-2.876771207717e-04 -1.389411797297e-03 0.0 
-1.389411797297e-03 1.511875759344e-03 0.0 
0.0 0.0 -5.246565593881e-04 
-1.860731135260e-03 -1.457489852606e-03 0.0 
-1.457489852606e-03 5.487326218288e-03 0.0 
0.0 0.0 -1.032853941699e-03 
-1.642797758815e-03 9.181312676492e-04 0.0 
9.181312676492e-04 7.041840567815e-03 0.0 
0.0 0.0 -1.037144748481e-03 
-1.515109443870e-03 -1.227447560286e-03 0.0 
-1.227447560286e-03 4.684685552436e-03 0.0 
0.0 0.0 -1.069204617036e-03 
-1.671620005891e-03 2.929392441870e-04 0.0 
2.929392441870e-04 6.771202525829e-03 0.0 
0.0 0.0 -9.752741834902e-04 
-1.678948556331e-03 5.367956015661e-04 0.0 
5.367956015661e-04 7.330127940856e-03 0.0 
0.0 0.0 -1.071415751597e-03 
2.313268375330e-03 1.796314023182e-03 0.0 
1.796314023182e-03 -1.074261141593e-03 0.0 
0.0 0.0 -5.310031001729e-04 
-1.592584348350e-03 8.322792606474e-04 0.0 
8.322792606474e-04 7.512035850087e-03 0.0 
0.0 0.0 -1.110258267496e-03 
-1.248028584087e-03 -1.336863044777e-03 0.0 
-1.336863044777e-03 4.037984938667e-03 0.0 
0.0 0.0 -1.014964823884e-03 
-1.349668852610e-03 -1.596461481346e-03 0.0 
-1.596461481346e-03 4.366516516387e-03 0.0 
0.0 0.0 -1.071455489612e-03 
-8.215746796524e-04 -1.528227033612e-03 0.0 
-1.528227033612e-03 3.070718427055e-03 0.0 
0.0 0.0 -9.608678829247e-04 
1.835549677296e-04 -2.809528380429e-03 0.0 
-2.809528380429e-03 1.483313829287e-03 0.0 
0.0 0.0 -7.143723415785e-04 
-1.633555633710e-03 7.702002767988e-04 0.0 
7.702002767988e-04 6.885994191198e-03 0.0 
0.0 0.0 -1.007339817349e-03 
3.076530191659e-04 -3.054269635980e-03 0.0 
-3.054269635980e-03 1.447807107602e-03 0.0 
0.0 0.0 -7.523400543291e-04 
-5.051265774841e-04 -1.582649049219e-03 0.0 
-1.582649049219e-03 2.186388830496e-03 0.0 
0.0 0.0 -7.205409655765e-04 
-1.167533049478e-04 -1.421228658134e-03 0.0 
-1.421228658134e-03 1.178987498042e-03 0.0 
0.0 0.0 -4.201231086673e-04 
-1.691347074083e-03 4.318386709728e-04 0.0 
4.318386709728e-04 6.937090811669e-03 0.0 
0.0 0.0 -1.005115000480e-03 
-4.635122803593e-04 -1.604799167025e-03 0.0 
-1.604799167025e-03 2.085354868508e-03 0.0 
0.0 0.0 -6.950753949209e-04 
-1.191515342284e-03 -1.717007076640e-03 0.0 
-1.717007076640e-03 5.423834924642e-03 0.0 
0.0 0.0 -1.218716866995e-03 
-1.611990725284e-03 7.358230951730e-04 0.0 
7.358230951730e-04 7.120198208464e-03 0.0 
0.0 0.0 -1.043883448597e-03 
-1.702982719558e-03 -1.584997506959e-03 0.0 
-1.584997506959e-03 5.470541578607e-03 0.0 
0.0 0.0 -1.070373463590e-03 
-9.109045738307e-04 -2.286339166372e-04 0.0 
-2.286339166372e-04 4.268441463060e-03 0.0 
0.0 0.0 -1.284729618418e-03 
-1.071268175159e-03 -1.648454023553e-03 0.0 
-1.648454023553e-03 3.707169372543e-03 0.0 
0.0 0.0 -1.023311028316e-03 
-5.174967158518e-04 -1.184771327579e-03 0.0 
-1.184771327579e-03 2.030619627748e-03 0.0 
0.0 0.0 -6.484812479557e-04 
-2.326317737538e-04 -1.038651026586e-03 0.0 
-1.038651026586e-03 1.174275035768e-03 0.0 
0.0 0.0 -4.035613980062e-04 
-1.410090236189e-03 -2.406400776569e-03 0.0 
-2.406400776569e-03 4.648410275236e-03 0.0 
0.0 0.0 -1.051259780966e-03 
-1.600848466290e-03 5.345976904083e-04 0.0 
5.345976904083e-04 6.550294708413e-03 0.0 
0.0 0.0 -9.473489374553e-04 
-8.717253142324e-05 -9.933700925620e-04 0.0 
-9.933700925620e-04 8.344671106644e-04 0.0 
0.0 0.0 -3.202691053891e-04 
-6.027995719924e-04 -2.107392599842e-03 0.0 
-2.107392599842e-03 2.722751826872e-03 0.0 
0.0 0.0 -9.085509663768e-04 
-7.199860598078e-04 -4.341095348245e-04 0.0 
-4.341095348245e-04 2.121552428607e-03 0.0 
0.0 0.0 -4.196057652059e-04 
-1.682938822042e-03 3.318724932828e-04 0.0 
3.318724932828e-04 6.532037136807e-03 0.0 
0.0 0.0 -9.387834224271e-04 
-7.776326742692e-04 -1.884645157224e-03 0.0 
-1.884645157224e-03 3.094899202807e-03 0.0 
0.0 0.0 -9.909213861921e-04 
-1.231039957355e-03 -2.426325464904e-03 0.0 
-2.426325464904e-03 4.199347214172e-03 0.0 
0.0 0.0 -9.819879942351e-04 
-8.554599545912e-04 -1.459966539243e-03 0.0 
-1.459966539243e-03 3.093994812612e-03 0.0 
0.0 0.0 -9.237817853494e-04 
-1.614515104562e-03 2.789174945577e-04 0.0 
2.789174945577e-04 7.633843682432e-03 0.0 
0.0 0.0 -1.114809527198e-03 
-5.165996464755e-04 -1.902435422896e-03 0.0 
-1.902435422896e-03 2.384778332934e-03 0.0 
0.0 0.0 -8.006480084822e-04 
-1.128557246388e-03 -2.713813412197e-03 0.0 
-2.713813412197e-03 4.096504171839e-03 0.0 
0.0 0.0 -1.021386065992e-03 
3.769531236008e-04 -2.410295298791e-03 0.0 
-2.410295298791e-03 9.611755011410e-04 0.0 
0.0 0.0 -5.734836963179e-04 
-1.146759310470e-03 -2.656955500371e-03 0.0 
-2.656955500371e-03 4.139056916818e-03 0.0 
0.0 0.0 -1.043150860743e-03 
-1.375457983811e-03 -1.244246825682e-03 0.0 
-1.244246825682e-03 4.353109699875e-03 0.0 
0.0 0.0 -1.054662228279e-03 
-1.554003148348e-03 -1.878419659560e-03 0.0 
-1.878419659560e-03 5.069341272683e-03 0.0 
0.0 0.0 -1.041555045145e-03 
3.002499616426e-03 -7.287809856288e-04 0.0 
-7.287809856288e-04 -1.352929250409e-03 0.0 
0.0 0.0 -7.069587282928e-04 
-6.177242885591e-04 -4.890935474393e-04 0.0 
-4.890935474393e-04 2.000133674606e-03 0.0 
0.0 0.0 -5.285791946032e-04 
-1.609261505607e-03 9.637114852810e-05 0.0 
9.637114852810e-05 6.165456359686e-03 0.0 
0.0 0.0 -8.787268422831e-04 
6.987156508361e-04 -1.946712657170e-03 0.0 
-1.946712657170e-03 1.033985256572e-03 0.0 
0.0 0.0 -7.425861031749e-04 
3.405430775163e-04 3.191948666083e-03 0.0 
3.191948666083e-03 1.485409776068e-03 0.0 
0.0 0.0 -7.825512229649e-04 
-1.644262011324e-03 1.659911649759e-04 0.0 
1.659911649759e-04 6.584724351472e-03 0.0 
0.0 0.0 -9.453210152248e-04 
6.455202986104e-04 -2.635854245695e-03 0.0 
-2.635854245695e-03 6.894465372206e-04 0.0 
0.0 0.0 -5.721286439276e-04 
-1.681255032869e-03 9.721382689111e-04 0.0 
9.721382689111e-04 6.557103597372e-03 0.0 
0.0 0.0 -9.642804585795e-04 
-6.124308423891e-04 -5.450173225678e-04 0.0 
-5.450173225678e-04 1.850421424375e-03 0.0 
0.0 0.0 -3.816933993452e-04 
-1.231036729784e-03 -2.253664933021e-03 0.0 
-2.253664933021e-03 5.042416419642e-03 0.0 
0.0 0.0 -1.150402778756e-03 
7.350617248358e-04 -1.287476273638e-03 0.0 
-1.287476273638e-03 1.272883254993e-03 0.0 
0.0 0.0 -8.605478484981e-04 
6.223710608225e-04 1.356379083397e-03 0.0 
1.356379083397e-03 1.985099964088e-03 0.0 
0.0 0.0 -1.037051012011e-03 
-1.598102879927e-03 7.448720335872e-04 0.0 
7.448720335872e-04 8.095744984387e-03 0.0 
0.0 0.0 -1.204463612412e-03 
8.919152436734e-05 -3.143989424638e-03 0.0 
-3.143989424638e-03 1.851557330956e-03 0.0 
0.0 0.0 -8.317495094241e-04 
-4.309306607764e-04 -9.183848167176e-04 0.0 
-9.183848167176e-04 1.661245254261e-03 0.0 
0.0 0.0 -5.272776829218e-04 
-5.215676815475e-04 -3.050968300431e-03 0.0 
-3.050968300431e-03 3.002352665044e-03 0.0 
0.0 0.0 -1.027200950222e-03 
-1.049023862644e-03 -1.741518653201e-03 0.0 
-1.741518653201e-03 4.976635689622e-03 0.0 
0.0 0.0 -1.189963100592e-03 
9.320234363391e-04 -2.596047537173e-03 0.0 
-2.596047537173e-03 3.625727901238e-04 0.0 
0.0 0.0 -5.548269541984e-04 
-1.645253786717e-03 -2.142300707641e-03 0.0 
-2.142300707641e-03 5.116342603387e-03 0.0 
0.0 0.0 -1.056575865346e-03 
-1.668373394945e-03 3.866502142135e-04 0.0 
3.866502142135e-04 7.172333763355e-03 0.0 
0.0 0.0 -1.041631482750e-03 
1.707610751817e-03 -3.111302323773e-03 0.0 
-3.111302323773e-03 2.006678016111e-05 0.0 
0.0 0.0 -7.404332279907e-04 
-8.518987020310e-04 -2.879189791171e-03 0.0 
-2.879189791171e-03 3.589652711545e-03 0.0 
0.0 0.0 -1.034177093206e-03 
-1.689258382171e-03 3.631400807220e-04 0.0 
3.631400807220e-04 6.026727173804e-03 0.0 
0.0 0.0 -8.663127257150e-04 
-8.305596344540e-04 -9.136388392921e-04 0.0 
-9.136388392921e-04 2.720781083118e-03 0.0 
0.0 0.0 -7.057144296542e-04 
-4.174774710502e-04 -2.264727665933e-03 0.0 
-2.264727665933e-03 2.338052704739e-03 0.0 
0.0 0.0 -8.231036715810e-04 
1.803968687695e-04 3.742029911528e-03 0.0 
3.742029911528e-03 2.055326787370e-03 0.0 
0.0 0.0 -9.358934819731e-04 
-1.362318107691e-03 -2.168484734475e-03 0.0 
-2.168484734475e-03 4.618346883937e-03 0.0 
0.0 0.0 -1.012809740122e-03 
-6.445707195622e-05 3.204089462648e-03 0.0 
3.204089462648e-03 2.166873657449e-03 0.0 
0.0 0.0 -9.010356794969e-04 
5.513709198924e-04 3.609450072054e-03 0.0 
3.609450072054e-03 1.451733722049e-03 0.0 
0.0 0.0 -8.584734179747e-04 
-1.663785911262e-03 9.479908707512e-04 0.0 
9.479908707512e-04 6.801753296704e-03 0.0 
0.0 0.0 -1.000670320419e-03 
-1.603261119446e-03 5.580378966873e-04 0.0 
5.580378966873e-04 6.304876685805e-03 0.0 
0.0 0.0 -9.110000341593e-04 
-1.665053571431e-03 8.222814637678e-04 0.0 
8.222814637678e-04 6.156291516455e-03 0.0 
0.0 0.0 -8.984003255416e-04 
-1.378097458895e-03 -1.307048665384e-03 0.0 
-1.307048665384e-03 4.348190678149e-03 0.0 
0.0 0.0 -1.034446146726e-03 
-6.901682956972e-04 -2.185652284413e-03 0.0 
-2.185652284413e-03 4.019713840668e-03 0.0 
0.0 0.0 -1.130631056169e-03 
-1.834308716731e-04 -3.140526153133e-03 0.0 
-3.140526153133e-03 2.359250978041e-03 0.0 
0.0 0.0 -9.324943313006e-04 
-1.664409897791e-03 2.283299940873e-04 0.0 
2.283299940873e-04 6.118881933301e-03 0.0 
0.0 0.0 -8.720525204519e-04 
-1.540055594527e-03 2.603535571495e-03 0.0 
2.603535571495e-03 6.865325717395e-03 0.0 
0.0 0.0 -1.193584144721e-03 
3.472050528190e-04 1.692564590117e-03 0.0 
1.692564590117e-03 2.541247573186e-03 0.0 
0.0 0.0 -1.073433710836e-03 
-1.128039575521e-03 -2.445102979842e-03 0.0 
-2.445102979842e-03 4.119062361786e-03 0.0 
0.0 0.0 -9.841343610905e-04 
-1.618130106290e-03 8.767059940841e-04 0.0 
8.767059940841e-04 7.278368023729e-03 0.0 
0.0 0.0 -1.073677668998e-03 
-6.910390954277e-05 -2.799918663238e-03 0.0 
-2.799918663238e-03 1.917780934052e-03 0.0 
0.0 0.0 -7.922901533612e-04 
-2.515921695526e-04 -2.585539987467e-03 0.0 
-2.585539987467e-03 2.152735873912e-03 0.0 
0.0 0.0 -8.147758732969e-04 
-3.310614028043e-04 -1.379924337061e-03 0.0 
-1.379924337061e-03 1.616149347076e-03 0.0 
0.0 0.0 -5.507519761165e-04 
-5.011752582021e-04 -3.030712813107e-03 0.0 
-3.030712813107e-03 2.924383664169e-03 0.0 
0.0 0.0 -9.894786617912e-04 
-4.694395913292e-04 -2.445221033123e-03 0.0 
-2.445221033123e-03 2.569902493715e-03 0.0 
0.0 0.0 -9.001983867369e-04 
-1.710187933828e-03 4.633984892961e-04 0.0 
4.633984892961e-04 6.694041267773e-03 0.0 
0.0 0.0 -9.686535345556e-04 
-1.726289188827e-03 4.896054940225e-04 0.0 
4.896054940225e-04 6.449117765340e-03 0.0 
0.0 0.0 -9.322463471790e-04 
2.416944889244e-03 5.439879453653e-04 0.0 
5.439879453653e-04 -1.208818724836e-03 0.0 
0.0 0.0 -5.177683561747e-04 
-1.928901237433e-04 -2.408049599402e-03 0.0 
-2.408049599402e-03 1.916746904624e-03 0.0 
0.0 0.0 -7.387957632348e-04 
2.990366271950e-03 1.613745370932e-03 0.0 
1.613745370932e-03 -1.371577636674e-03 0.0 
0.0 0.0 -6.937665579755e-04 
-3.910486537431e-04 -2.315216698545e-03 0.0 
-2.315216698545e-03 2.304304739270e-03 0.0 
0.0 0.0 -8.199668937971e-04 
-2.230223782308e-04 -2.682222528879e-03 0.0 
-2.682222528879e-03 2.152181418268e-03 0.0 
0.0 0.0 -8.267824457303e-04 
-4.073029906979e-04 -1.294483440297e-03 0.0 
-1.294483440297e-03 1.772331589387e-03 0.0 
0.0 0.0 -5.850122565809e-04 
-4.258807302887e-04 -2.144389728424e-03 0.0 
-2.144389728424e-03 3.478718025925e-03 0.0 
0.0 0.0 -1.101849228969e-03 
4.193172772845e-04 -3.233569204744e-03 0.0 
-3.233569204744e-03 1.400177349689e-03 0.0 
0.0 0.0 -7.797834115600e-04 
-1.646879822787e-03 4.813878958504e-04 0.0 
4.813878958504e-04 7.564621706005e-03 0.0 
0.0 0.0 -1.107989045227e-03 
6.164328486864e-04 -3.141645067701e-03 0.0 
-3.141645067701e-03 1.094713369857e-03 0.0 
0.0 0.0 -7.333483793757e-04 
-5.352671715167e-04 -2.920481306985e-03 0.0 
-2.920481306985e-03 2.976534494236e-03 0.0 
0.0 0.0 -9.268471029391e-04 
3.090740504693e-05 -3.263078096127e-03 0.0 
-3.263078096127e-03 2.029516789361e-03 0.0 
0.0 0.0 -8.830389404604e-04 
1.224821345307e-03 3.216271527602e-03 0.0 
3.216271527602e-03 4.534564749945e-04 0.0 
0.0 0.0 -7.192619229864e-04 
-4.591680976874e-04 -1.267727629031e-03 0.0 
-1.267727629031e-03 1.902437159688e-03 0.0 
0.0 0.0 -6.185438837147e-04 
-8.295759423418e-04 -1.747729159177e-03 0.0 
-1.747729159177e-03 4.457598420488e-03 0.0 
0.0 0.0 -1.161691925552e-03 
-8.640451209017e-04 -2.074084677624e-03 0.0 
-2.074084677624e-03 4.658509439049e-03 0.0 
0.0 0.0 -1.198716319349e-03 
-6.013355258858e-04 3.714306523016e-03 0.0 
3.714306523016e-03 3.360817493125e-03 0.0 
0.0 0.0 -9.650368815299e-04 
-1.923559704036e-05 -2.994572033542e-03 0.0 
-2.994572033542e-03 1.948727475502e-03 0.0 
0.0 0.0 -8.269250907692e-04 
-2.503696762219e-04 -3.166835997765e-03 0.0 
-3.166835997765e-03 2.485701371906e-03 0.0 
0.0 0.0 -9.354962741733e-04 
-1.647815013080e-03 8.021683468908e-04 0.0 
8.021683468908e-04 6.643407279142e-03 0.0 
0.0 0.0 -9.708520278613e-04 
-3.181114656463e-04 -2.713015915343e-03 0.0 
-2.713015915343e-03 2.377429006136e-03 0.0 
0.0 0.0 -8.825646602100e-04 
7.116670481849e-04 3.351796189116e-03 0.0 
3.351796189116e-03 1.105566406541e-03 0.0 
0.0 0.0 -7.788143377395e-04 
-5.501781971430e-04 -1.884487968291e-03 0.0 
-1.884487968291e-03 2.464549120431e-03 0.0 
0.0 0.0 -8.204446814089e-04 
9.957483789486e-04 -2.931560812442e-03 0.0 
-2.931560812442e-03 3.486105119444e-04 0.0 
0.0 0.0 -5.761538103827e-04 
1.170702144068e-04 -2.917551374595e-03 0.0 
-2.917551374595e-03 1.660101911363e-03 0.0 
0.0 0.0 -7.616451967584e-04 
-5.960830469200e-04 -1.478493121431e-03 0.0 
-1.478493121431e-03 2.390521820873e-03 0.0 
0.0 0.0 -7.690451888369e-04 
-7.193147455851e-04 -1.069003876046e-03 0.0 
-1.069003876046e-03 2.479314286133e-03 0.0 
0.0 0.0 -6.849754419779e-04 
-1.850126680382e-05 -3.140240111362e-03 0.0 
-3.140240111362e-03 2.040450553655e-03 0.0 
0.0 0.0 -8.665496943648e-04 
-8.517286139436e-04 -2.699031265188e-03 0.0 
-2.699031265188e-03 3.572094775893e-03 0.0 
0.0 0.0 -9.554846610150e-04 
-9.258628841067e-04 3.334973100130e-03 0.0 
3.334973100130e-03 4.800766489173e-03 0.0 
0.0 0.0 -1.128610778606e-03 
1.795476015728e-03 -3.745896555992e-04 0.0 
-3.745896555992e-04 -4.681407310308e-04 0.0 
0.0 0.0 -1.007271482096e-04 
1.477477984760e-03 -2.160820890410e-03 0.0 
-2.160820890410e-03 -1.640262078732e-04 0.0 
0.0 0.0 -5.629079043802e-04 
9.457248714060e-04 -2.859194649623e-03 0.0 
-2.859194649623e-03 6.047505636496e-04 0.0 
0.0 0.0 -6.644894721667e-04 
2.064739481844e-04 -3.194226446081e-03 0.0 
-3.194226446081e-03 1.689929388459e-03 0.0 
0.0 0.0 -8.127442871328e-04 
-1.656928892650e-03 8.151295774597e-04 0.0 
8.151295774597e-04 6.399838907814e-03 0.0 
0.0 0.0 -9.344164207832e-04 
2.545948249673e-04 -3.270064507394e-03 0.0 
-3.270064507394e-03 1.662466157556e-03 0.0 
0.0 0.0 -8.215975639385e-04 
-6.717590179400e-04 -1.743398916895e-03 0.0 
-1.743398916895e-03 2.730040439290e-03 0.0 
0.0 0.0 -8.821206091502e-04 
2.940147133768e-04 -2.953116785718e-03 0.0 
-2.953116785718e-03 1.404914365559e-03 0.0 
0.0 0.0 -7.281124624012e-04 
-1.597640344519e-03 6.950049643667e-04 0.0 
6.950049643667e-04 7.352823299798e-03 0.0 
0.0 0.0 -1.080452943103e-03 
-7.063133806754e-04 -1.717335593378e-03 0.0 
-1.717335593378e-03 2.816704678048e-03 0.0 
0.0 0.0 -9.044534131596e-04 
-1.993759384210e-04 -8.715145545495e-04 0.0 
-8.715145545495e-04 1.025473523807e-03 0.0 
0.0 0.0 -3.540418223084e-04 
-3.396899465816e-04 -1.001666654583e-03 0.0 
-1.001666654583e-03 1.438762041900e-03 0.0 
0.0 0.0 -4.710308979937e-04 
8.199892085620e-04 -2.799788621547e-03 0.0 
-2.799788621547e-03 6.522727846800e-04 0.0 
0.0 0.0 -6.309694256751e-04 
9.078868863825e-06 -2.738074417405e-03 0.0 
-2.738074417405e-03 1.733216879781e-03 0.0 
0.0 0.0 -7.466981779905e-04 
1.103409613190e-03 -2.545332485906e-03 0.0 
-2.545332485906e-03 3.291592924430e-04 0.0 
0.0 0.0 -6.139581024141e-04 
4.609298661722e-04 -2.917080397583e-03 0.0 
-2.917080397583e-03 1.153463791195e-03 0.0 
0.0 0.0 -6.918829960147e-04 
6.174604848126e-04 -2.601794133831e-03 0.0 
-2.601794133831e-03 7.903429974379e-04 0.0 
0.0 0.0 -6.033443495359e-04 
-4.149645807323e-04 -9.518115957764e-04 0.0 
-9.518115957764e-04 1.570452979312e-03 0.0 
0.0 0.0 -4.579617190245e-04 
-1.800428115941e-03 6.964731656622e-04 0.0 
6.964731656622e-04 6.067707299324e-03 0.0 
0.0 0.0 -8.885078876198e-04 
-6.431842488821e-04 -1.481881899324e-03 0.0 
-1.481881899324e-03 2.527966751562e-03 0.0 
0.0 0.0 -8.077639297199e-04 
-3.542476587942e-04 -1.933324559496e-03 0.0 
-1.933324559496e-03 3.366073220136e-03 0.0 
0.0 0.0 -1.067401112627e-03 
-7.301428169590e-04 3.365159558875e-03 0.0 
3.365159558875e-03 4.241956460408e-03 0.0 
0.0 0.0 -1.093380752811e-03 
-1.742519381031e-03 2.013539484841e-03 0.0 
2.013539484841e-03 5.514346305573e-03 0.0 
0.0 0.0 -9.013836717722e-04 
-1.638703746775e-03 1.447396884762e-03 0.0 
1.447396884762e-03 7.437681461836e-03 0.0 
0.0 0.0 -1.126084317643e-03 
-1.069717058735e-03 3.316002143618e-03 0.0 
3.316002143618e-03 5.313047036020e-03 0.0 
0.0 0.0 -1.164310864388e-03 
2.494431731371e-03 1.270414999422e-03 0.0 
1.270414999422e-03 -1.135062232485e-03 0.0 
0.0 0.0 -5.825869280942e-04 
-6.518857880869e-04 3.512796865886e-03 0.0 
3.512796865886e-03 3.785510000148e-03 0.0 
0.0 0.0 -1.029042339204e-03 
9.845026743479e-04 -3.000223110364e-03 0.0 
-3.000223110364e-03 4.820355227438e-04 0.0 
0.0 0.0 -6.285163701822e-04 
9.169108146699e-06 -3.021931346183e-03 0.0 
-3.021931346183e-03 1.914436153364e-03 0.0 
0.0 0.0 -8.244022549332e-04 
1.935620549985e-03 2.666280335606e-03 0.0 
2.666280335606e-03 -6.114645168814e-04 0.0 
0.0 0.0 -5.674954427585e-04 
2.434658683002e-03 -2.349214516508e-03 0.0 
-2.349214516508e-03 -7.291186468832e-04 0.0 
0.0 0.0 -7.309457297651e-04 
8.115117363057e-04 -2.741951264447e-03 0.0 
-2.741951264447e-03 6.655581968644e-04 0.0 
0.0 0.0 -6.330299713586e-04 
-4.450599208505e-04 -2.552111804523e-03 0.0 
-2.552111804523e-03 2.573524769895e-03 0.0 
0.0 0.0 -9.121992210190e-04 
7.181167573208e-04 -2.648058741041e-03 0.0 
-2.648058741041e-03 7.077719066917e-04 0.0 
0.0 0.0 -6.110951417196e-04 
8.603807904587e-04 -2.481932762305e-03 0.0 
-2.481932762305e-03 4.907815371097e-04 0.0 
0.0 0.0 -5.790695689579e-04 
-7.220048660239e-04 -1.343093892557e-03 0.0 
-1.343093892557e-03 2.702939106315e-03 0.0 
0.0 0.0 -8.489718172674e-04 
4.166245934909e-04 -3.209488587121e-03 0.0 
-3.209488587121e-03 1.389160896237e-03 0.0 
0.0 0.0 -7.739080670262e-04 
1.094305293400e-03 -2.135240774913e-03 0.0 
-2.135240774913e-03 1.298780956037e-04 0.0 
0.0 0.0 -5.246500238586e-04 
1.735397459642e-03 -1.790668401916e-03 0.0 
-1.790668401916e-03 -5.241960348096e-04 0.0 
0.0 0.0 -5.190863249281e-04 
-2.953118235534e-05 -2.621242279383e-03 0.0 
-2.621242279383e-03 1.729246141722e-03 0.0 
0.0 0.0 -7.284492682998e-04 
9.068086297483e-04 -1.885631159827e-04 0.0 
-1.885631159827e-04 1.202081875786e-03 0.0 
0.0 0.0 -9.038102166578e-04 
-1.735518635242e-03 6.223275928078e-04 0.0 
6.223275928078e-04 6.851645939463e-03 0.0 
0.0 0.0 -9.984673180476e-04 
2.290762220203e-03 -1.318712250617e-03 0.0 
-1.318712250617e-03 -1.027744525883e-03 0.0 
0.0 0.0 -5.412932975660e-04 
-5.654229652914e-04 -1.684995955007e-03 0.0 
-1.684995955007e-03 3.940963543082e-03 0.0 
0.0 0.0 -1.133495712197e-03 
1.398246767020e-03 -3.216441844472e-03 0.0 
-3.216441844472e-03 9.154783719246e-05 0.0 
0.0 0.0 -6.384834018056e-04 
-5.648051924757e-04 -1.107091868774e-03 0.0 
-1.107091868774e-03 4.182104582450e-03 0.0 
0.0 0.0 -1.208505026952e-03 
7.869283801720e-04 -2.957311971993e-03 0.0 
-2.957311971993e-03 8.055017795032e-04 0.0 
0.0 0.0 -6.824700684322e-04 
-1.163518298392e-03 3.423968427013e-03 0.0 
3.423968427013e-03 5.864548636599e-03 0.0 
0.0 0.0 -1.203459118631e-03 
-1.226888468028e-03 3.131439724330e-03 0.0 
3.131439724330e-03 4.473148429932e-03 0.0 
0.0 0.0 -9.144069900286e-04 
8.146311757364e-04 -2.866044643526e-03 0.0 
-2.866044643526e-03 7.279520038073e-04 0.0 
0.0 0.0 -6.611070769473e-04 
-1.669436221743e-03 2.273068641771e-03 0.0 
2.273068641771e-03 5.485810747731e-03 0.0 
0.0 0.0 -9.292863832265e-04 
-1.634774651159e-03 1.926043724267e-03 0.0 
1.926043724267e-03 7.350223961808e-03 0.0 
0.0 0.0 -1.148369591821e-03 
9.266283371582e-04 -2.700818447501e-03 0.0 
-2.700818447501e-03 5.423083712425e-04 0.0 
0.0 0.0 -6.295443036003e-04 
1.446287545932e-03 3.073556646394e-03 0.0 
3.073556646394e-03 1.275065551695e-04 0.0 
0.0 0.0 -6.744831861864e-04 
-1.574055992192e-03 2.506613091125e-03 0.0 
2.506613091125e-03 5.429733742182e-03 0.0 
0.0 0.0 -9.572423940436e-04 
2.774777350088e-04 3.373231360525e-03 0.0 
3.373231360525e-03 1.692140773898e-03 0.0 
0.0 0.0 -8.441222181028e-04 
6.686313295052e-04 -2.714647588195e-03 0.0 
-2.714647588195e-03 7.978373867195e-04 0.0 
0.0 0.0 -6.284865926677e-04 
-1.493705396886e-03 1.751261100369e-03 0.0 
1.751261100369e-03 8.145178326217e-03 0.0 
0.0 0.0 -1.259077240559e-03 
2.909241618845e-04 -2.201062680806e-03 0.0 
-2.201062680806e-03 9.491865650592e-04 0.0 
0.0 0.0 -5.314760258330e-04 
-1.393014638960e-04 7.789838351986e-04 0.0 
7.789838351986e-04 3.592179503210e-03 0.0 
0.0 0.0 -1.194426649262e-03 
-1.554233915862e-03 9.163364700516e-04 0.0 
9.163364700516e-04 7.887220632938e-03 0.0 
0.0 0.0 -1.175981821618e-03 
7.026255322913e-04 -6.834983021250e-04 0.0 
-6.834983021250e-04 1.598542050998e-03 0.0 
0.0 0.0 -9.862146785524e-04 
-1.631602720906e-03 6.968439340323e-04 0.0 
6.968439340323e-04 6.226177705545e-03 0.0 
0.0 0.0 -9.041796124736e-04 
-1.724067531766e-03 9.331717393615e-04 0.0 
9.331717393615e-04 7.373782435820e-03 0.0 
0.0 0.0 -1.094228678348e-03 
1.385482593825e-03 -2.030831099799e-03 0.0 
-2.030831099799e-03 -2.112692183438e-04 0.0 
0.0 0.0 -5.032343037776e-04 
1.999660538583e-03 5.238969397191e-04 0.0 
5.238969397191e-04 -8.881969286874e-04 0.0 
0.0 0.0 -4.763415470983e-04 
-1.569811974871e-03 1.587727422304e-03 0.0 
1.587727422304e-03 7.784527269149e-03 0.0 
0.0 0.0 -1.191782302182e-03 
-9.330696091187e-04 -2.330125100931e-03 0.0 
-2.330125100931e-03 4.026828994110e-03 0.0 
0.0 0.0 -1.021464098896e-03 
-1.750430558126e-03 7.997395592586e-04 0.0 
7.997395592586e-04 6.994945578504e-03 0.0 
0.0 0.0 -1.028225029406e-03 
5.898974709842e-04 -1.490603234069e-03 0.0 
-1.490603234069e-03 1.573546015772e-03 0.0 
0.0 0.0 -9.271900657525e-04 
1.226199290364e-03 -3.133713578343e-03 0.0 
-3.133713578343e-03 4.720804484946e-04 0.0 
0.0 0.0 -7.278341737966e-04 
-1.755813224466e-03 9.900590192067e-04 0.0 
9.900590192067e-04 7.121505765451e-03 0.0 
0.0 0.0 -1.057861461704e-03 
-1.020230912339e-03 3.255501544884e-03 0.0 
3.255501544884e-03 5.845285965923e-03 0.0 
0.0 0.0 -1.268085107495e-03 
-8.098027228146e-04 -1.517662878241e-03 0.0 
-1.517662878241e-03 4.547334409745e-03 0.0 
0.0 0.0 -1.202195648613e-03 
7.610076650519e-05 -3.235453866840e-03 0.0 
-3.235453866840e-03 1.932455716982e-03 0.0 
0.0 0.0 -8.608099214947e-04 
-1.689275270792e-03 3.359122450795e-04 0.0 
3.359122450795e-04 6.273459191033e-03 0.0 
0.0 0.0 -9.020111041354e-04 
-1.632588233776e-03 6.974904632293e-04 0.0 
6.974904632293e-04 5.987209936235e-03 0.0 
0.0 0.0 -8.677534307045e-04 
6.088392128265e-04 -2.822537476632e-03 0.0 
-2.822537476632e-03 9.202084504230e-04 0.0 
0.0 0.0 -6.553061413926e-04 
-6.443122983676e-04 -2.499706879338e-03 0.0 
-2.499706879338e-03 3.462729029903e-03 0.0 
0.0 0.0 -9.927925938929e-04 
-4.755079025855e-04 -2.238751106190e-03 0.0 
-2.238751106190e-03 3.389731406328e-03 0.0 
0.0 0.0 -1.030113165296e-03 
-2.437047899643e-04 -1.231397142334e-03 0.0 
-1.231397142334e-03 1.345917923955e-03 0.0 
0.0 0.0 -4.426674065645e-04 
2.847402133071e-03 1.832321194303e-03 0.0 
1.832321194303e-03 -1.311219245011e-03 0.0 
0.0 0.0 -6.583640948828e-04 
2.391065633377e-03 -7.030644689003e-04 0.0 
-7.030644689003e-04 -1.190042454993e-03 0.0 
0.0 0.0 -5.147242193072e-04 
1.968235762107e-03 -1.858343853594e-03 0.0 
-1.858343853594e-03 -8.473461408074e-04 0.0 
0.0 0.0 -4.803812662710e-04 
7.235144373202e-04 3.006853977664e-03 0.0 
3.006853977664e-03 8.982936940798e-04 0.0 
0.0 0.0 -6.950606277428e-04 
-1.594047644543e-03 1.198778980109e-03 0.0 
1.198778980109e-03 8.076345274144e-03 0.0 
0.0 0.0 -1.225426844749e-03 
-1.544957883650e-03 2.714187828761e-03 0.0 
2.714187828761e-03 6.803087963728e-03 0.0 
0.0 0.0 -1.162686153705e-03 
-1.603786220280e-03 5.743670581703e-04 0.0 
5.743670581703e-04 7.933574954986e-03 0.0 
0.0 0.0 -1.173632101657e-03 
-3.176362262569e-04 3.157680560962e-03 0.0 
3.157680560962e-03 2.644961507973e-03 0.0 
0.0 0.0 -9.922833334649e-04 
-1.686655624371e-03 1.762581410411e-03 0.0 
1.762581410411e-03 7.001695775819e-03 0.0 
0.0 0.0 -1.082713561900e-03 
-8.312311815285e-04 -2.893135141048e-03 0.0 
-2.893135141048e-03 3.527094208899e-03 0.0 
0.0 0.0 -1.005652543148e-03 
-1.566323459329e-03 1.337573114455e-03 0.0 
1.337573114455e-03 7.933955714899e-03 0.0 
0.0 0.0 -1.198415070424e-03 
-1.781797660459e-03 1.042297273604e-03 0.0 
1.042297273604e-03 6.860193468522e-03 0.0 
0.0 0.0 -1.021631336281e-03 
1.651541321597e-04 -3.069309819670e-03 0.0 
-3.069309819670e-03 1.677218775847e-03 0.0 
0.0 0.0 -7.895883891459e-04 
2.729895556258e-03 -3.816222067231e-05 0.0 
-3.816222067231e-05 -1.329892949249e-03 0.0 
0.0 0.0 -6.000011172896e-04 
-1.678629276342e-03 1.301261135869e-03 0.0 
1.301261135869e-03 7.071604861536e-03 0.0 
0.0 0.0 -1.060111126929e-03 
-1.674561038714e-03 1.060445620383e-03 0.0 
1.060445620383e-03 7.740408073351e-03 0.0 
0.0 0.0 -1.160283895044e-03 
-1.648358362413e-03 1.080960708592e-03 0.0 
1.080960708592e-03 7.188263314287e-03 0.0 
0.0 0.0 -1.066842251349e-03 
-1.675485628863e-03 1.117801916471e-03 0.0 
1.117801916471e-03 6.945334177936e-03 0.0 
0.0 0.0 -1.030428295937e-03 
-9.047694827226e-04 -1.891564198184e-03 0.0 
-1.891564198184e-03 4.463027696646e-03 0.0 
0.0 0.0 -1.124756152480e-03 
-3.636288725448e-05 1.185092302766e-03 0.0 
1.185092302766e-03 3.361330425582e-03 0.0 
0.0 0.0 -1.167530213646e-03 
-6.417903686716e-04 -1.936633603608e-03 0.0 
-1.936633603608e-03 3.924941189051e-03 0.0 
0.0 0.0 -1.096139997395e-03 
-6.252750457425e-04 -2.981929184320e-03 0.0 
-2.981929184320e-03 3.101913023538e-03 0.0 
0.0 0.0 -9.455690924112e-04 
-9.133871784712e-04 2.307173197510e-03 0.0 
2.307173197510e-03 3.388339270904e-03 0.0 
0.0 0.0 -8.706649152390e-04 
5.857890875911e-04 -1.165024071922e-04 0.0 
-1.165024071922e-04 1.961403903997e-03 0.0 
0.0 0.0 -1.057160997780e-03 
-1.717096850446e-03 1.897490647652e-03 0.0 
1.897490647652e-03 6.421227655064e-03 0.0 
0.0 0.0 -1.010795753303e-03 
-6.313703935137e-04 -1.096821766549e-03 0.0 
-1.096821766549e-03 2.333660856895e-03 0.0 
0.0 0.0 -7.295530557346e-04 
2.168606455157e-03 -1.381490462849e-03 0.0 
-1.381490462849e-03 -1.049895932277e-03 0.0 
0.0 0.0 -4.794473669488e-04 
1.521212506514e-03 -1.320220071534e-03 0.0 
-1.320220071534e-03 -4.274634539344e-04 0.0 
0.0 0.0 -4.687495939627e-04 
1.466355838383e-03 4.602651966615e-04 0.0 
4.602651966615e-04 -3.624189179880e-05 0.0 
0.0 0.0 -6.129059771076e-04 
2.718390450017e-03 -6.950340879152e-04 0.0 
-6.950340879152e-04 -1.327258381844e-03 0.0 
0.0 0.0 -5.961994577885e-04 
2.586833026508e-03 -8.035069926998e-04 0.0 
-8.035069926998e-04 -1.237368745637e-03 0.0 
0.0 0.0 -5.783418346592e-04 
1.064335855091e-03 3.871345564871e-04 0.0 
3.871345564871e-04 8.878223967010e-04 0.0 
0.0 0.0 -8.366392507678e-04 
-8.479776809358e-04 2.867626528881e-03 0.0 
2.867626528881e-03 3.485177703647e-03 0.0 
0.0 0.0 -9.312627088267e-04 
-1.048673303190e-04 -3.229543423404e-03 0.0 
-3.229543423404e-03 2.260338218225e-03 0.0 
0.0 0.0 -9.237732376742e-04 
-1.787010102696e-03 8.860662194747e-04 0.0 
8.860662194747e-04 6.472161902549e-03 0.0 
0.0 0.0 -9.556638187253e-04 
-1.534511977861e-03 4.226734842399e-04 0.0 
4.226734842399e-04 5.386267654424e-03 0.0 
0.0 0.0 -7.638029664831e-04 
2.694004404959e-04 1.692225150283e-03 0.0 
1.692225150283e-03 6.665564429896e-04 0.0 
0.0 0.0 -4.011243786367e-04 
-2.485044760616e-04 -3.138222606519e-03 0.0 
-3.138222606519e-03 2.491915244985e-03 0.0 
0.0 0.0 -9.614617581102e-04 
5.241395104488e-04 -3.820643100564e-04 0.0 
-3.820643100564e-04 1.948070463321e-03 0.0 
0.0 0.0 -1.051835763028e-03 
-1.541512456067e-03 2.665389691955e-03 0.0 
2.665389691955e-03 7.146978989113e-03 0.0 
0.0 0.0 -1.196871286280e-03 
2.182111420875e-03 6.070828475979e-04 0.0 
6.070828475979e-04 -1.164368423359e-03 0.0 
0.0 0.0 -4.361755703639e-04 
-3.379696423289e-04 -3.147707957552e-03 0.0 
-3.147707957552e-03 2.662191701970e-03 0.0 
0.0 0.0 -9.747355338013e-04 
-1.758283285419e-03 6.606645787396e-04 0.0 
6.606645787396e-04 6.605527542412e-03 0.0 
0.0 0.0 -9.620958722924e-04 
2.572595780151e-04 1.907531255629e-03 0.0 
1.907531255629e-03 8.125007966373e-04 0.0 
0.0 0.0 -4.584687319938e-04 
7.215561543483e-04 7.088538436549e-05 0.0 
7.088538436549e-05 1.489224739350e-03 0.0 
0.0 0.0 -9.474775258707e-04 
1.699588376700e-03 -2.701395224992e-04 0.0 
-2.701395224992e-04 -6.431195081869e-04 0.0 
0.0 0.0 -4.527723722201e-04 
-1.123050040693e-03 2.722320328238e-03 0.0 
2.722320328238e-03 3.963607121214e-03 0.0 
0.0 0.0 -8.880452441696e-04 
-6.861996964777e-04 -2.718033399413e-03 0.0 
-2.718033399413e-03 3.467552900927e-03 0.0 
0.0 0.0 -1.027225276160e-03 
2.084513055480e-03 -2.969236307345e-03 0.0 
-2.969236307345e-03 -6.426223811324e-04 0.0 
0.0 0.0 -6.179531461491e-04 
-5.320903479306e-04 -2.451811030805e-03 0.0 
-2.451811030805e-03 3.446359028726e-03 0.0 
0.0 0.0 -1.064556537081e-03 
-5.475761825290e-04 -1.405154027486e-03 0.0 
-1.405154027486e-03 4.014926747039e-03 0.0 
0.0 0.0 -1.170878753521e-03 
8.694157167214e-04 5.959603823475e-04 0.0 
5.959603823475e-04 1.083517633446e-03 0.0 
0.0 0.0 -8.369714357860e-04 
-1.720938074938e-03 7.528205405103e-04 0.0 
7.528205405103e-04 7.239876321155e-03 0.0 
0.0 0.0 -1.064574987933e-03 
-2.581275539260e-04 2.774157829489e-03 0.0 
2.774157829489e-03 3.637568838645e-03 0.0 
0.0 0.0 -1.082686220397e-03 
-6.278749381159e-04 -1.931446236287e-03 0.0 
-1.931446236287e-03 4.088424354687e-03 0.0 
0.0 0.0 -1.168035910845e-03 
7.662032872175e-05 1.799978139758e-03 0.0 
1.799978139758e-03 1.016865245771e-03 0.0 
0.0 0.0 -4.686366747828e-04 
-1.772766923136e-03 8.481702159287e-04 0.0 
8.481702159287e-04 6.740907635403e-03 0.0 
0.0 0.0 -9.919185416031e-04 
-2.292199257427e-04 1.889849914101e-03 0.0 
1.889849914101e-03 3.718845686110e-03 0.0 
0.0 0.0 -1.173906618061e-03 
-1.648981142695e-03 1.259232254070e-03 0.0 
1.259232254070e-03 7.322595481216e-03 0.0 
0.0 0.0 -1.096489272820e-03 
1.160861635041e-03 6.400460397782e-04 0.0 
6.400460397782e-04 2.605650516831e-04 0.0 
0.0 0.0 -6.091828657389e-04 
2.574979574883e-03 -1.390903072999e-04 0.0 
-1.390903072999e-04 -1.282434716650e-03 0.0 
0.0 0.0 -5.539477963855e-04 
-1.116067155649e-03 -2.250326754200e-03 0.0 
-2.250326754200e-03 3.947993630682e-03 0.0 
0.0 0.0 -1.025516461270e-03 
1.249937303602e-03 3.552940721610e-04 0.0 
3.552940721610e-04 -1.039148958258e-03 0.0 
0.0 0.0 -9.033786229011e-05 
-1.613458135025e-03 1.210057674443e-03 0.0 
1.210057674443e-03 7.562124248112e-03 0.0 
0.0 0.0 -1.132911322290e-03 
-7.377235371559e-04 -9.591054036843e-04 0.0 
-9.591054036843e-04 2.612387194917e-03 0.0 
0.0 0.0 -8.013069569330e-04 
-1.500810255742e-04 1.675008285432e-03 0.0 
1.675008285432e-03 1.366929482546e-03 0.0 
0.0 0.0 -5.215064815592e-04 
-3.658200529699e-04 3.020199158602e-03 0.0 
3.020199158602e-03 3.713742958922e-03 0.0 
0.0 0.0 -1.054483161448e-03 
-1.538001914897e-03 1.084053552084e-03 0.0 
1.084053552084e-03 8.041309965801e-03 0.0 
0.0 0.0 -1.206783194404e-03 
1.727844094968e-03 -3.343181964838e-03 0.0 
-3.343181964838e-03 -2.401420928011e-04 0.0 
0.0 0.0 -6.375865723574e-04 
-2.167964077171e-04 3.747756050696e-03 0.0 
3.747756050696e-03 2.648111889763e-03 0.0 
0.0 0.0 -9.072936044704e-04 
-1.701887886532e-03 1.344630388867e-03 0.0 
1.344630388867e-03 6.812020791196e-03 0.0 
0.0 0.0 -1.023814440555e-03 
-4.458873681724e-04 -2.966430795108e-03 0.0 
-2.966430795108e-03 2.822625691825e-03 0.0 
0.0 0.0 -1.018602138708e-03 
2.635787731545e-03 -1.799593391660e-03 0.0 
-1.799593391660e-03 -1.225014149329e-03 0.0 
0.0 0.0 -6.046172495213e-04 
1.631098457746e-03 2.876803562451e-03 0.0 
2.876803562451e-03 -2.192512757881e-04 0.0 
0.0 0.0 -6.050773636963e-04 
9.159182720240e-04 -2.840057079041e-03 0.0 
-2.840057079041e-03 6.236111220924e-04 0.0 
0.0 0.0 -6.597983117642e-04 
1.988952410622e-03 -2.773207495313e-03 0.0 
-2.773207495313e-03 -3.142881963505e-04 0.0 
0.0 0.0 -7.177132346876e-04 
1.648220485470e-03 -3.321848158051e-03 0.0 
-3.321848158051e-03 2.024080431041e-04 0.0 
0.0 0.0 -7.931265122462e-04 
1.705098340266e-03 6.558868029328e-04 0.0 
6.558868029328e-04 -6.969008095806e-04 0.0 
0.0 0.0 -4.320846560080e-04 
-1.468520801646e-03 2.285525207987e-03 0.0 
2.285525207987e-03 8.442456052557e-03 0.0 
0.0 0.0 -1.324146187826e-03 
-3.956257745020e-04 1.730887625779e-03 0.0 
1.730887625779e-03 1.977050055323e-03 0.0 
0.0 0.0 -6.777532632091e-04 
-1.125863067977e-03 -1.827974217199e-03 0.0 
-1.827974217199e-03 4.964930907455e-03 0.0 
0.0 0.0 -1.153422328581e-03 
2.868285214674e-03 1.352379803766e-03 0.0 
1.352379803766e-03 -1.299848991907e-03 0.0 
0.0 0.0 -6.721869526143e-04 
-1.802402553613e-03 1.096854962503e-03 0.0 
1.096854962503e-03 6.595527473872e-03 0.0 
0.0 0.0 -9.856407671940e-04 
1.971085959338e-03 3.239399902758e-04 0.0 
3.239399902758e-04 -1.217941390756e-03 0.0 
0.0 0.0 -3.227762436777e-04 
-6.307118357170e-04 -1.642290149673e-03 0.0 
-1.642290149673e-03 4.191316448183e-03 0.0 
0.0 0.0 -1.206759618350e-03 
1.281188306004e-03 -3.309115169896e-03 0.0 
-3.309115169896e-03 2.482805933930e-04 0.0 
0.0 0.0 -6.554866711701e-04 
-8.580919722624e-04 -1.141606507875e-03 0.0 
-1.141606507875e-03 3.004910753851e-03 0.0 
0.0 0.0 -8.925927511852e-04 
6.775973206905e-04 1.090261256499e-03 0.0 
1.090261256499e-03 1.554850184539e-03 0.0 
0.0 0.0 -9.567632165269e-04 
9.810193940895e-04 -2.270636417532e-03 0.0 
-2.270636417532e-03 2.960510298287e-04 0.0 
0.0 0.0 -5.473158959649e-04 
3.899080625909e-05 1.591876067608e-03 0.0 
1.591876067608e-03 3.206945282166e-03 0.0 
0.0 0.0 -1.139062866688e-03 
6.623861865506e-04 3.094490503078e-03 0.0 
3.094490503078e-03 1.014638708619e-03 0.0 
0.0 0.0 -7.187249550728e-04 
-1.786253758345e-03 1.560633333520e-03 0.0 
1.560633333520e-03 6.766601134335e-03 0.0 
0.0 0.0 -1.044446328659e-03 
-2.152386475275e-04 1.351101504798e-03 0.0 
1.351101504798e-03 3.486323150058e-03 0.0 
0.0 0.0 -1.198892520503e-03 
-1.697142570711e-03 1.154161816812e-03 0.0 
1.154161816812e-03 6.693519511439e-03 0.0 
0.0 0.0 -9.940794652285e-04 
-1.618144651602e-03 2.389450829648e-03 0.0 
2.389450829648e-03 7.197343605865e-03 0.0 
0.0 0.0 -1.194784139986e-03 
-1.753520328123e-03 1.193661618907e-03 0.0 
1.193661618907e-03 7.230580119665e-03 0.0 
0.0 0.0 -1.087318097122e-03 
-1.742396685637e-03 1.406428765971e-03 0.0 
1.406428765971e-03 7.327343743658e-03 0.0 
0.0 0.0 -1.116677092124e-03 
2.275785242891e-03 2.632435729676e-03 0.0 
2.632435729676e-03 -9.199828087608e-04 0.0 
0.0 0.0 -5.810581860556e-04 
-1.241644556097e-03 -1.898381689041e-03 0.0 
-1.898381689041e-03 4.975895501890e-03 0.0 
0.0 0.0 -1.115908039155e-03 
-1.698919862003e-03 1.546534393052e-03 0.0 
1.546534393052e-03 6.917732160494e-03 0.0 
0.0 0.0 -1.053364550114e-03 
1.868987763194e-03 2.227953552638e-03 0.0 
2.227953552638e-03 -6.775743179747e-04 0.0 
0.0 0.0 -5.106057622367e-04 
-6.587012442941e-04 1.777273701504e-03 0.0 
1.777273701504e-03 2.655555522869e-03 0.0 
0.0 0.0 -8.209451439681e-04 
-3.975005523331e-04 1.166939029163e-03 0.0 
1.166939029163e-03 4.024011475053e-03 0.0 
0.0 0.0 -1.232292820449e-03 
2.869313435600e-03 1.110657499061e-03 0.0 
1.110657499061e-03 -1.453214644336e-03 0.0 
0.0 0.0 -6.068994819702e-04 
-7.856974671747e-04 -1.309919738143e-03 0.0 
-1.309919738143e-03 2.807619278170e-03 0.0 
0.0 0.0 -8.201145810434e-04 
1.968962910781e-04 1.862464300239e-03 0.0 
1.862464300239e-03 2.595514694035e-03 0.0 
0.0 0.0 -1.105063927110e-03 
-7.017846764740e-04 -1.435456886112e-05 0.0 
-1.435456886112e-05 1.960630528106e-03 0.0 
0.0 0.0 -3.231071520192e-04 
7.474966936510e-04 3.481240265895e-03 0.0 
3.481240265895e-03 1.138823329650e-03 0.0 
0.0 0.0 -8.084228671290e-04 
5.678040040528e-04 5.673257875062e-04 0.0 
5.673257875062e-04 1.874262662432e-03 0.0 
0.0 0.0 -1.046599999922e-03 
-1.677286885825e-03 1.562425953110e-03 0.0 
1.562425953110e-03 7.659770185164e-03 0.0 
0.0 0.0 -1.181155146799e-03 
-1.652320647354e-03 1.808826218554e-03 0.0 
1.808826218554e-03 7.744329424571e-03 0.0 
0.0 0.0 -1.210943746944e-03 
7.584470326039e-04 3.628423669224e-04 0.0 
3.628423669224e-04 1.668047544981e-03 0.0 
0.0 0.0 -1.028825005900e-03 
-1.718024774256e-03 1.129889074764e-03 0.0 
1.129889074764e-03 7.489751701523e-03 0.0 
0.0 0.0 -1.123737208958e-03 
2.593889195352e-03 1.856767809109e-03 0.0 
1.856767809109e-03 -1.126153271608e-03 0.0 
0.0 0.0 -6.290296816045e-04 
-7.519765885532e-04 3.109043581873e-03 0.0 
3.109043581873e-03 4.411738950076e-03 0.0 
0.0 0.0 -1.062452857821e-03 
-9.715076255527e-04 1.639125050494e-03 0.0 
1.639125050494e-03 3.248586274010e-03 0.0 
0.0 0.0 -7.769695025612e-04 
-1.390466882155e-03 3.112822277327e-03 0.0 
3.112822277327e-03 6.316045090648e-03 0.0 
0.0 0.0 -1.181751882508e-03 
-1.269001708520e-03 1.478688136927e-03 0.0 
1.478688136927e-03 3.854232216412e-03 0.0 
0.0 0.0 -7.538120163098e-04 
-1.420223830458e-03 1.391784125232e-03 0.0 
1.391784125232e-03 4.161040048690e-03 0.0 
0.0 0.0 -7.332406657776e-04 
2.298674918512e-03 1.220061250636e-03 0.0 
1.220061250636e-03 -1.173783310071e-03 0.0 
0.0 0.0 -4.820964036177e-04 
-1.557422700527e-03 1.363360327043e-03 0.0 
1.363360327043e-03 4.471575651466e-03 0.0 
0.0 0.0 -7.361032999402e-04 
6.913968744153e-04 3.249644441005e-03 0.0 
3.249644441005e-03 1.296623038176e-03 0.0 
0.0 0.0 -8.520085339679e-04 
1.718973007646e-03 2.924390266821e-03 0.0 
2.924390266821e-03 -1.924867080382e-04 0.0 
0.0 0.0 -6.542084141176e-04 
2.210348991445e-03 -8.088378780929e-04 0.0 
-8.088378780929e-04 -1.123482344713e-03 0.0 
0.0 0.0 -4.657999914567e-04 
2.497491272241e-03 -1.532773257142e-03 0.0 
-1.532773257142e-03 -1.081083643723e-03 0.0 
0.0 0.0 -6.070318407937e-04 
2.586887755130e-03 6.094796342036e-04 0.0 
6.094796342036e-04 -1.311719394663e-03 0.0 
0.0 0.0 -5.465007259145e-04 
-1.601167176657e-03 1.396089815657e-03 0.0 
1.396089815657e-03 7.688892179250e-03 0.0 
0.0 0.0 -1.162517914204e-03 
-1.471528092625e-03 3.001207936412e-03 0.0 
3.001207936412e-03 6.831752371077e-03 0.0 
0.0 0.0 -1.195263893373e-03 
-1.182311321110e-03 -2.133379308242e-03 0.0 
-2.133379308242e-03 4.544787139884e-03 0.0 
0.0 0.0 -1.050100468764e-03 
-1.223721568856e-04 1.745261046552e-03 0.0 
1.745261046552e-03 3.281782845900e-03 0.0 
0.0 0.0 -1.170266998156e-03 
1.214604030940e-03 -2.155562007462e-03 0.0 
-2.155562007462e-03 9.364629533618e-05 0.0 
0.0 0.0 -5.606787112612e-04 
-1.656719624483e-03 1.711448335042e-03 0.0 
1.711448335042e-03 7.275839845738e-03 0.0 
0.0 0.0 -1.119019617531e-03 
2.359890878457e-03 -4.267964440931e-05 0.0 
-4.267964440931e-05 -1.248439169515e-03 0.0 
0.0 0.0 -4.763364466896e-04 
-1.407406798469e-03 -1.723847992245e-03 0.0 
-1.723847992245e-03 5.419782439974e-03 0.0 
0.0 0.0 -1.144395376583e-03 
-1.671654625585e-03 1.497806515934e-03 0.0 
1.497806515934e-03 7.180003972529e-03 0.0 
0.0 0.0 -1.089631904438e-03 
-1.769810542863e-03 1.479525562214e-03 0.0 
1.479525562214e-03 7.051291447038e-03 0.0 
0.0 0.0 -1.080451501872e-03 
1.020279383885e-03 1.759819708792e-05 0.0 
1.759819708792e-05 6.806225927368e-04 0.0 
0.0 0.0 -7.289579899807e-04 
2.670406423032e-03 1.253518595181e-03 0.0 
1.253518595181e-03 -1.265788156022e-03 0.0 
0.0 0.0 -6.019792572901e-04 
-8.493845713370e-04 3.018177913519e-03 0.0 
3.018177913519e-03 4.847344094450e-03 0.0 
0.0 0.0 -1.126038590206e-03 
-1.241437732375e-03 3.272568664608e-03 0.0 
3.272568664608e-03 4.414773958175e-03 0.0 
0.0 0.0 -9.324202963083e-04 
2.392506853527e-03 -2.638222039722e-03 0.0 
-2.638222039722e-03 -9.888506330534e-04 0.0 
0.0 0.0 -6.015669516317e-04 
2.802892214258e-03 -1.137304662585e-05 0.0 
-1.137304662585e-05 -1.333498735436e-03 0.0 
0.0 0.0 -6.297400623524e-04 
7.949185057270e-04 2.716848624173e-03 0.0 
2.716848624173e-03 6.207904953631e-04 0.0 
0.0 0.0 -6.067324290386e-04 
-1.563287978713e-04 3.620132007229e-03 0.0 
3.620132007229e-03 2.581411168791e-03 0.0 
0.0 0.0 -1.015946800258e-03 
-1.534351365184e-03 -1.516799222336e-03 0.0 
-1.516799222336e-03 5.828494836448e-03 0.0 
0.0 0.0 -1.173545322487e-03 
-1.782237154873e-03 1.254534813549e-03 0.0 
1.254534813549e-03 6.967044995053e-03 0.0 
0.0 0.0 -1.051102540299e-03 
2.754613032243e-03 5.835371394657e-04 0.0 
5.835371394657e-04 -1.282545286099e-03 0.0 
0.0 0.0 -6.308861769187e-04 
-6.435068013720e-04 3.480233123954e-03 0.0 
3.480233123954e-03 3.600985193807e-03 0.0 
0.0 0.0 -9.344940742331e-04 
3.980809440766e-04 1.365381173478e-04 0.0 
1.365381173478e-04 2.266784517746e-03 0.0 
0.0 0.0 -1.088599101970e-03 
-1.685240832100e-03 8.774447861184e-04 0.0 
8.774447861184e-04 7.615424303421e-03 0.0 
0.0 0.0 -1.130578931274e-03 
-1.056611405718e-03 3.085021790290e-03 0.0 
3.085021790290e-03 5.374856941272e-03 0.0 
0.0 0.0 -1.160781586281e-03 
-1.731537587415e-03 1.425159992310e-03 0.0 
1.425159992310e-03 6.282505969900e-03 0.0 
0.0 0.0 -9.517943393003e-04 
-1.629224858151e-05 -1.008868814593e-03 0.0 
-1.008868814593e-03 2.976796140904e-03 0.0 
0.0 0.0 -1.113435711030e-03 
2.175710495241e-03 -1.797462906061e-04 0.0 
-1.797462906061e-04 -1.087187483949e-03 0.0 
0.0 0.0 -4.665098619825e-04 
3.691792219411e-04 -5.499254361333e-04 0.0 
-5.499254361333e-04 2.333255494325e-03 0.0 
0.0 0.0 -1.086118700983e-03 
6.267430188437e-04 3.216016004345e-03 0.0 
3.216016004345e-03 1.125673463038e-03 0.0 
0.0 0.0 -7.510356350920e-04 
-1.659468944553e-03 1.282087032836e-03 0.0 
1.282087032836e-03 7.843512833905e-03 0.0 
0.0 0.0 -1.188704642750e-03 
-1.184759635984e-03 3.039469531493e-03 0.0 
3.039469531493e-03 5.917915895918e-03 0.0 
0.0 0.0 -1.200489323427e-03 
1.397717749359e-03 -3.084135371350e-05 0.0 
-3.084135371350e-05 -2.483823730722e-04 0.0 
0.0 0.0 -4.925723041230e-04 
2.632145634489e-03 2.594608975648e-04 0.0 
2.594608975648e-04 -1.433557919304e-03 0.0 
0.0 0.0 -5.136804493649e-04 
-3.195071874590e-04 2.949770132737e-03 0.0 
2.949770132737e-03 3.519559910753e-03 0.0 
0.0 0.0 -1.113685640909e-03 
5.151939740245e-04 3.610223291188e-03 0.0 
3.610223291188e-03 1.499767463066e-03 0.0 
0.0 0.0 -8.635549016102e-04 
2.789061016644e-03 1.329285031073e-03 0.0 
1.329285031073e-03 -1.174648499198e-03 0.0 
0.0 0.0 -6.918910789057e-04 
1.203480951529e-03 -2.452700069764e-04 0.0 
-2.452700069764e-04 3.890277914199e-04 0.0 
0.0 0.0 -6.825037469782e-04 
-1.401752245562e-04 -2.049705526548e-03 0.0 
-2.049705526548e-03 2.929158581755e-03 0.0 
0.0 0.0 -1.072977024862e-03 
2.580288745065e-03 -9.059416529247e-04 0.0 
-9.059416529247e-04 -1.319309692526e-03 0.0 
0.0 0.0 -5.404195939453e-04 
1.923073746863e-03 -4.525221159699e-05 0.0 
-4.525221159699e-05 -9.232494801660e-04 0.0 
0.0 0.0 -4.284961142987e-04 
-1.564398244357e-03 2.691343570358e-03 0.0 
2.691343570358e-03 5.384100406286e-03 0.0 
0.0 0.0 -9.596127204057e-04 
-1.615413359891e-03 -1.869412921893e-03 0.0 
-1.869412921893e-03 5.891470981236e-03 0.0 
0.0 0.0 -1.170838755190e-03 
-1.469366754309e-03 2.906743993666e-03 0.0 
2.906743993666e-03 5.300260062947e-03 0.0 
0.0 0.0 -9.876491701490e-04 
-3.947067001148e-04 3.217756852044e-03 0.0 
3.217756852044e-03 3.568382132428e-03 0.0 
0.0 0.0 -1.085374163265e-03 
-1.640677092253e-03 2.445403796559e-03 0.0 
2.445403796559e-03 5.441088956569e-03 0.0 
0.0 0.0 -9.316602363005e-04 
-1.740388366318e-03 1.924888427331e-03 0.0 
1.924888427331e-03 5.465143202308e-03 0.0 
0.0 0.0 -8.756372412555e-04 
-1.133390563237e-03 3.456670762875e-03 0.0 
3.456670762875e-03 4.264491800942e-03 0.0 
0.0 0.0 -9.452931837154e-04 
1.258865816682e-04 1.427076262396e-03 0.0 
1.427076262396e-03 2.787339061218e-03 0.0 
0.0 0.0 -1.133505030480e-03 
-1.184151913809e-03 -2.442035502192e-03 0.0 
-2.442035502192e-03 4.566403913145e-03 0.0 
0.0 0.0 -1.084522140297e-03 
-1.719906891250e-03 1.595024504340e-03 0.0 
1.595024504340e-03 6.646342255881e-03 0.0 
0.0 0.0 -1.017300281410e-03 
-1.572744207127e-03 2.077724400643e-03 0.0 
2.077724400643e-03 7.699948884985e-03 0.0 
0.0 0.0 -1.212886757924e-03 
-1.697994519952e-03 2.183604815945e-03 0.0 
2.183604815945e-03 5.469670954577e-03 0.0 
0.0 0.0 -9.037302385344e-04 
3.109518991990e-03 7.142103845853e-04 0.0 
7.142103845853e-04 -1.355577660133e-03 0.0 
0.0 0.0 -7.516891422245e-04 
-4.615783183021e-04 2.634115171252e-03 0.0 
2.634115171252e-03 4.171995570701e-03 0.0 
0.0 0.0 -1.146733564437e-03 
-1.623397737588e-03 9.830618757014e-04 0.0 
9.830618757014e-04 7.977997106224e-03 0.0 
0.0 0.0 -1.196744929305e-03 
1.210285564886e-03 2.794819533997e-03 0.0 
2.794819533997e-03 2.142507881916e-04 0.0 
0.0 0.0 -6.105155798904e-04 
7.664634744893e-04 3.055447408668e-03 0.0 
3.055447408668e-03 8.799111198642e-04 0.0 
0.0 0.0 -7.055891118658e-04 
3.026285545234e-03 6.479754984525e-04 0.0 
6.479754984525e-04 -1.309294928286e-03 0.0 
0.0 0.0 -7.358531215491e-04 
-1.707025994169e-03 1.825045050910e-03 0.0 
1.825045050910e-03 6.718430060264e-03 0.0 
0.0 0.0 -1.046609947212e-03 
1.285120213061e-04 3.160317099540e-03 0.0 
3.160317099540e-03 1.795393702842e-03 0.0 
0.0 0.0 -8.245310246350e-04 
6.213466678406e-04 3.150191375349e-03 0.0 
3.150191375349e-03 1.093887972575e-03 0.0 
0.0 0.0 -7.351005601782e-04 
1.723951590445e-04 3.402388421843e-03 0.0 
3.402388421843e-03 1.876640106691e-03 0.0 
0.0 0.0 -8.781579710297e-04 
4.568820957443e-04 1.515113560259e-03 0.0 
1.515113560259e-03 2.072520192967e-03 0.0 
0.0 0.0 -1.068254633495e-03 
-7.126619732765e-04 2.634214240334e-03 0.0 
2.634214240334e-03 4.664743447894e-03 0.0 
0.0 0.0 -1.211228670573e-03 
2.874495408011e-03 -1.147543994212e-04 0.0 
-1.147543994212e-04 -1.321663854737e-03 0.0 
0.0 0.0 -6.654992371173e-04 
1.333222057608e-03 -6.083160362555e-04 0.0 
-6.083160362555e-04 -1.046303648964e-03 0.0 
0.0 0.0 -1.229650322759e-04 
-1.560287505520e-03 2.397443585750e-03 0.0 
2.397443585750e-03 7.445606798374e-03 0.0 
0.0 0.0 -1.207184308065e-03 
-1.227743039735e-04 3.216961996269e-03 0.0 
3.216961996269e-03 2.287126095753e-03 0.0 
0.0 0.0 -9.275793393341e-04 
1.407399929741e-03 -1.790726840241e-03 0.0 
-1.790726840241e-03 -2.123508212015e-04 0.0 
0.0 0.0 -5.121639036598e-04 
-5.005943122339e-04 2.854917982027e-03 0.0 
2.854917982027e-03 4.092431792890e-03 0.0 
0.0 0.0 -1.177925372349e-03 
-1.802105864534e-03 1.325377431051e-03 0.0 
1.325377431051e-03 6.693893706785e-03 0.0 
0.0 0.0 -1.015069748350e-03 
-9.552400268193e-04 -2.590206578427e-03 0.0 
-2.590206578427e-03 4.033946220946e-03 0.0 
0.0 0.0 -1.055879354346e-03 
2.213755167184e-03 2.540569608467e-03 0.0 
2.540569608467e-03 -6.561328527755e-04 0.0 
0.0 0.0 -6.675524204610e-04 
8.596589765025e-04 -2.241190996513e-04 0.0 
-2.241190996513e-04 -8.596589765025e-04 0.0 
0.0 0.0 0.0 
-1.695761363760e-03 -1.692827267884e-03 0.0 
-1.692827267884e-03 6.306533924159e-03 0.0 
0.0 0.0 -1.202131160132e-03 
-2.109701725836e-06 3.652134540712e-03 0.0 
3.652134540712e-03 2.337584034461e-03 0.0 
0.0 0.0 -1.000917571172e-03 
6.440987285096e-04 1.846403855810e-03 0.0 
1.846403855810e-03 1.851485320469e-03 0.0 
0.0 0.0 -1.007142642412e-03 
-8.363103258721e-04 3.298399834443e-03 0.0 
3.298399834443e-03 4.744308506763e-03 0.0 
0.0 0.0 -1.157822513452e-03 
0.0 0.0 0.0 
0.0 0.0 0.0 
0.0 0.0 0.0 
-7.671375815713e-04 -2.153381723597e-03 0.0 
-2.153381723597e-03 3.958636255064e-03 0.0 
0.0 0.0 -1.058763633038e-03 
2.277342632696e-03 2.678034488429e-03 0.0 
2.678034488429e-03 -4.950023667951e-04 0.0 
0.0 0.0 -7.638601139576e-04 
-1.817865112225e-03 1.160846124058e-03 0.0 
1.160846124058e-03 6.325027627169e-03 0.0 
0.0 0.0 -9.498437721210e-04 
-6.483445776371e-04 -2.910728448364e-03 0.0 
-2.910728448364e-03 3.240421631363e-03 0.0 
0.0 0.0 -1.081826897668e-03 
2.882336660409e-03 6.507094583248e-04 0.0 
6.507094583248e-04 -1.354897536976e-03 0.0 
0.0 0.0 -6.546167671857e-04 
-1.512905320875e-03 -2.064322058959e-03 0.0 
-2.064322058959e-03 5.485314435598e-03 0.0 
0.0 0.0 -1.141635569211e-03 
5.629634582603e-04 3.291314317230e-03 0.0 
3.291314317230e-03 1.247171813043e-03 0.0 
0.0 0.0 -7.757722591300e-04 
3.097498388755e-03 7.515594805802e-04 0.0 
7.515594805802e-04 -1.504351798864e-03 0.0 
0.0 0.0 -6.827771099535e-04 
-3.950988348044e-04 3.677355835862e-03 0.0 
3.677355835862e-03 3.018937195948e-03 0.0 
0.0 0.0 -8.989548790023e-04 
1.227636575782e-03 -1.512351808794e-03 0.0 
-1.512351808794e-03 -1.085715777594e-03 0.0 
0.0 0.0 -6.082319922330e-05 
-5.120566939223e-04 3.175912523353e-03 0.0 
3.175912523353e-03 3.844622698218e-03 0.0 
0.0 0.0 -1.026417656363e-03 
5.399418997976e-04 8.396772710701e-04 0.0 
8.396772710701e-04 2.161243029461e-03 0.0 
0.0 0.0 -1.065496432940e-03 
-1.316213487934e-03 3.030027547422e-03 0.0 
3.030027547422e-03 6.243260056489e-03 0.0 
0.0 0.0 -1.233600908384e-03 
-6.242951805066e-04 3.006743678072e-03 0.0 
3.006743678072e-03 4.303063931573e-03 0.0 
0.0 0.0 -1.090749533212e-03 
3.026627229701e-03 -6.016138979488e-05 0.0 
-6.016138979488e-05 -1.354975115356e-03 0.0 
0.0 0.0 -7.164223347191e-04 
-1.354858739815e-03 -2.484739121398e-03 0.0 
-2.484739121398e-03 4.613680447839e-03 0.0 
0.0 0.0 -1.047231727503e-03 
-1.514361396418e-03 1.521820591863e-03 0.0 
1.521820591863e-03 8.031763007479e-03 0.0 
0.0 0.0 -1.228155452712e-03 
-7.050516080877e-04 1.545847486976e-03 0.0 
1.545847486976e-03 4.498069063216e-03 0.0 
0.0 0.0 -1.267145247477e-03 
2.943450069451e-04 1.256402020470e-03 0.0 
1.256402020470e-03 2.679722888331e-03 0.0 
0.0 0.0 -1.102242875413e-03 
2.428652697383e-03 1.957638321578e-03 0.0 
1.957638321578e-03 -9.445444981417e-04 0.0 
0.0 0.0 -6.360463711034e-04 
-4.362885790871e-04 3.400866484877e-03 0.0 
3.400866484877e-03 3.416922100764e-03 0.0 
0.0 0.0 -9.624716764950e-04 
-1.751273191057e-03 -1.178364827428e-03 0.0 
-1.178364827428e-03 6.153449964232e-03 0.0 
0.0 0.0 -1.164316760544e-03 
-1.510592316959e-03 -9.050842607301e-04 0.0 
-9.050842607301e-04 4.622892738446e-03 0.0 
0.0 0.0 -1.053897668350e-03 
-5.098353463404e-04 3.384769362386e-03 0.0 
3.384769362386e-03 3.650364032255e-03 0.0 
0.0 0.0 -1.057196955382e-03 
-1.719373888211e-03 1.382981273232e-03 0.0 
1.382981273232e-03 6.550039956498e-03 0.0 
0.0 0.0 -9.877098122506e-04 
-1.368682583039e-03 -2.262414624365e-03 0.0 
-2.262414624365e-03 5.045630347078e-03 0.0 
0.0 0.0 -1.112977059762e-03 
-8.018931633473e-04 -2.405053121667e-03 0.0 
-2.405053121667e-03 4.002834443873e-03 0.0 
0.0 0.0 -1.093234982489e-03 
-1.439791436846e-03 3.326807682738e-05 0.0 
3.326807682738e-05 4.943594407770e-03 0.0 
0.0 0.0 -7.313513689239e-04 
-1.427152505588e-03 6.033982237060e-05 0.0 
6.033982237060e-05 4.941916582327e-03 0.0 
0.0 0.0 -7.310574395863e-04 
-1.640756721107e-03 2.340459270020e-03 0.0 
2.340459270020e-03 5.815255979654e-03 0.0 
0.0 0.0 -9.927888931629e-04 
-4.210846566685e-04 3.601854565047e-03 0.0 
3.601854565047e-03 3.185506434217e-03 0.0 
0.0 0.0 -9.930598132463e-04 
-9.560102716365e-04 -2.664544190492e-03 0.0 
-2.664544190492e-03 3.772312719303e-03 0.0 
0.0 0.0 -1.075560717398e-03 
-1.206510850392e-03 3.047967158976e-03 0.0 
3.047967158976e-03 4.800933324251e-03 0.0 
0.0 0.0 -9.775429604617e-04 
9.349897265997e-04 2.908831422528e-03 0.0 
2.908831422528e-03 6.057047016785e-04 0.0 
0.0 0.0 -6.602976121192e-04 
-2.228664070200e-04 -2.583623366081e-04 0.0 
-2.583623366081e-04 3.335250712245e-03 0.0 
0.0 0.0 -1.180288150054e-03 
2.187201504106e-03 2.288354873068e-03 0.0 
2.288354873068e-03 -8.791309691096e-04 0.0 
0.0 0.0 -5.606016578557e-04 
-1.487430872272e-03 2.032395386043e-03 0.0 
2.032395386043e-03 8.531052034659e-03 0.0 
0.0 0.0 -1.323793839065e-03 
-1.724651487443e-03 1.733577269253e-03 0.0 
1.733577269253e-03 5.152685708698e-03 0.0 
0.0 0.0 -8.119939454945e-04 
9.559001502051e-04 3.301449321883e-03 0.0 
3.301449321883e-03 8.023167039533e-04 0.0 
0.0 0.0 -7.535215089250e-04 
-6.923989162598e-04 -2.921867110632e-03 0.0 
-2.921867110632e-03 3.238107663680e-03 0.0 
0.0 0.0 -9.778014170610e-04 
2.952487269304e-03 8.767188776773e-04 0.0 
8.767188776773e-04 -1.231732878316e-03 0.0 
0.0 0.0 -7.374661675664e-04 
-1.449260709310e-04 -3.081657457247e-03 0.0 
-3.081657457247e-03 2.244720614764e-03 0.0 
0.0 0.0 -8.999119473571e-04 
-2.467797576170e-04 3.715212164584e-03 0.0 
3.715212164584e-03 2.738719973416e-03 0.0 
0.0 0.0 -9.758126512751e-04 
-5.058945486498e-04 3.618733188483e-03 0.0 
3.618733188483e-03 3.154888480052e-03 0.0 
0.0 0.0 -9.833357802921e-04 
-1.733759676165e-03 1.654794489536e-03 0.0 
1.654794489536e-03 6.367451579884e-03 0.0 
0.0 0.0 -9.814596669550e-04 
-1.124005872780e-03 3.379084100680e-03 0.0 
3.379084100680e-03 4.616783585522e-03 0.0 
0.0 0.0 -1.008022096355e-03 
-1.207720735867e-03 2.984451381318e-03 0.0 
2.984451381318e-03 5.147076662744e-03 0.0 
0.0 0.0 -1.040850218070e-03 
2.462504755941e-04 -3.466601191775e-04 0.0 
-3.466601191775e-04 1.225957598323e-03 0.0 
0.0 0.0 -3.048810613884e-04 
-2.528363505661e-04 -3.115888982409e-03 0.0 
-3.115888982409e-03 2.486992936593e-03 0.0 
0.0 0.0 -9.574956797260e-04 
-1.072167557266e-04 3.402438706717e-03 0.0 
3.402438706717e-03 2.375040834749e-03 0.0 
0.0 0.0 -9.719246052952e-04 
-1.390405142798e-03 3.085939311603e-03 0.0 
3.085939311603e-03 4.874750960273e-03 0.0 
0.0 0.0 -9.521954671713e-04 
-1.463685875107e-03 2.723658434378e-03 0.0 
2.723658434378e-03 5.354618705334e-03 0.0 
0.0 0.0 -9.850634846466e-04 
6.151608619466e-06 9.602693822456e-04 0.0 
9.602693822456e-04 3.003172333009e-03 0.0 
0.0 0.0 -1.160108757481e-03 
-7.116028528234e-04 -3.542186094007e-05 0.0 
-3.542186094007e-05 2.109496799795e-03 0.0 
0.0 0.0 -4.489418961951e-04 
2.420991236615e-03 -1.793290854156e-03 0.0 
-1.793290854156e-03 -1.206914640352e-03 0.0 
0.0 0.0 -5.203185412556e-04 
3.220195077698e-04 3.501557464345e-03 0.0 
3.501557464345e-03 1.705209014718e-03 0.0 
0.0 0.0 -8.688122239235e-04 
-2.823129498517e-04 -2.964277233818e-03 0.0 
-2.964277233818e-03 2.454860756862e-03 0.0 
0.0 0.0 -9.310919172903e-04 
-1.415275034250e-03 1.292164494452e-03 0.0 
1.292164494452e-03 4.167269738145e-03 0.0 
0.0 0.0 -7.665650418521e-04 
-1.567864091306e-03 1.226683465556e-03 0.0 
1.226683465556e-03 4.493286725470e-03 0.0 
0.0 0.0 -7.530137074853e-04 
-1.810136366687e-03 1.412997826384e-03 0.0 
1.412997826384e-03 6.411444835685e-03 0.0 
0.0 0.0 -9.793492904611e-04 
2.087664328359e-03 2.568536785539e-03 0.0 
2.568536785539e-03 -3.889452908062e-04 0.0 
0.0 0.0 -7.280224446656e-04 
-7.741376345699e-04 -2.792621548151e-03 0.0 
-2.792621548151e-03 3.378364177398e-03 0.0 
0.0 0.0 -1.004244986112e-03 
4.531124457367e-04 -1.076750210340e-03 0.0 
-1.076750210340e-03 2.037967656610e-03 0.0 
0.0 0.0 -1.049209916622e-03 
2.297209205504e-03 -5.483206442365e-04 0.0 
-5.483206442365e-04 -1.311033635610e-03 0.0 
0.0 0.0 -4.226466728115e-04 
-1.149618319309e-03 2.959992214286e-03 0.0 
2.959992214286e-03 5.456359281312e-03 0.0 
0.0 0.0 -1.285586381397e-03 
-1.702357103576e-03 1.352649744862e-03 0.0 
1.352649744862e-03 7.576949821791e-03 0.0 
0.0 0.0 -1.152455342817e-03 
-8.320143767109e-04 -2.543685297260e-03 0.0 
-2.543685297260e-03 3.497707295059e-03 0.0 
0.0 0.0 -1.095064427584e-03 
-1.386779618523e-03 -1.910481505052e-03 0.0 
-1.910481505052e-03 5.018049845752e-03 0.0 
0.0 0.0 -1.078722419643e-03 
2.229975894309e-04 -4.489617714331e-04 0.0 
-4.489617714331e-04 5.979694486616e-04 0.0 
0.0 0.0 -2.949115613585e-04 
4.540170595140e-04 -1.645489130381e-03 0.0 
-1.645489130381e-03 1.801582255490e-03 0.0 
0.0 0.0 -9.666854207159e-04 
-6.035540888641e-05 3.789347029411e-03 0.0 
3.789347029411e-03 2.399475313532e-03 0.0 
0.0 0.0 -8.867106850074e-04 
4.160484422948e-04 -3.622442174599e-04 0.0 
-3.622442174599e-04 5.441875866839e-04 0.0 
0.0 0.0 -3.067690066256e-04 
-1.619412582140e-03 1.641534764462e-03 0.0 
1.641534764462e-03 7.530266774085e-03 0.0 
0.0 0.0 -1.154859126927e-03 
1.948099663815e-03 -7.569421743857e-04 0.0 
-7.569421743857e-04 -1.147440738389e-03 0.0 
0.0 0.0 -3.431395394681e-04 
-1.356737557429e-03 2.911706860265e-03 0.0 
2.911706860265e-03 4.923580709307e-03 0.0 
0.0 0.0 -9.496453321265e-04 
-5.843331771905e-04 3.664260117298e-03 0.0 
3.664260117298e-03 3.237703376181e-03 0.0 
0.0 0.0 -8.924259012440e-04 
1.585702125321e-03 -1.745985882028e-03 0.0 
-1.745985882028e-03 -4.551642142343e-04 0.0 
0.0 0.0 -4.845162476086e-04 
3.886198775371e-04 -2.656776709997e-03 0.0 
-2.656776709997e-03 1.521016158266e-03 0.0 
0.0 0.0 -8.184154439158e-04 
-1.604458387616e-03 1.854152015569e-03 0.0 
1.854152015569e-03 7.626319442818e-03 0.0 
0.0 0.0 -1.182898372388e-03 
1.911502030331e-04 -2.214449408558e-03 0.0 
-2.214449408558e-03 2.167051973238e-03 0.0 
0.0 0.0 -9.716005391690e-04 
4.578213256305e-04 3.411459955915e-03 0.0 
3.411459955915e-03 1.456160682634e-03 0.0 
0.0 0.0 -8.202780035418e-04 
3.627077773465e-04 3.714478666179e-03 0.0 
3.714478666179e-03 1.773296424289e-03 0.0 
0.0 0.0 -9.111404029742e-04 
1.874131474266e-04 1.317598379107e-03 0.0 
1.317598379107e-03 5.481764939296e-04 0.0 
0.0 0.0 -3.152527034384e-04 
1.643748758810e-03 -4.204231761426e-04 0.0 
-4.204231761426e-04 -1.117599327178e-03 0.0 
0.0 0.0 -2.254926135565e-04 
-5.203694144565e-04 2.878386602619e-03 0.0 
2.878386602619e-03 4.197902991695e-03 0.0 
0.0 0.0 -1.118331045454e-03 
-1.809983628728e-03 1.593568509076e-03 0.0 
1.593568509076e-03 5.817131701425e-03 0.0 
0.0 0.0 -9.085367473448e-04 
-5.577334774043e-04 3.082426156906e-03 0.0 
3.082426156906e-03 4.104685153811e-03 0.0 
0.0 0.0 -1.148691026115e-03 
1.974680470733e-03 2.873021825660e-03 0.0 
2.873021825660e-03 -4.940617528099e-04 0.0 
0.0 0.0 -6.345508791099e-04 
-1.588961869452e-03 2.584393938582e-03 0.0 
2.584393938582e-03 6.455891274831e-03 0.0 
0.0 0.0 -1.097950598811e-03 
-7.723714131083e-04 2.927319470345e-03 0.0 
2.927319470345e-03 4.791549148204e-03 0.0 
0.0 0.0 -1.155407764312e-03 
-1.528620740983e-03 1.641090201076e-03 0.0 
1.641090201076e-03 4.483124494598e-03 0.0 
0.0 0.0 -7.696970057192e-04 
-6.364037100851e-04 3.205127351833e-03 0.0 
3.205127351833e-03 4.133031580390e-03 0.0 
0.0 0.0 -1.120992621467e-03 
-1.531289715330e-03 -2.235814658200e-03 0.0 
-2.235814658200e-03 5.083560864057e-03 0.0 
0.0 0.0 -1.075946734593e-03 
-1.542078502361e-04 3.681831680089e-03 0.0 
3.681831680089e-03 2.560354402538e-03 0.0 
0.0 0.0 -9.606735922745e-04 
-4.462082875552e-04 -3.056851139717e-03 0.0 
-3.056851139717e-03 2.847631123845e-03 0.0 
0.0 0.0 -1.006543408955e-03 
-3.390473984761e-04 -3.081268501996e-03 0.0 
-3.081268501996e-03 2.650937052075e-03 0.0 
0.0 0.0 -9.908098515424e-04 
-1.654766843293e-03 2.110154288789e-03 0.0 
2.110154288789e-03 7.526175185133e-03 0.0 
0.0 0.0 -1.204704583718e-03 
6.478121330843e-04 -2.891464683005e-03 0.0 
-2.891464683005e-03 9.158033438756e-04 0.0 
0.0 0.0 -6.701209186971e-04 
-3.674328541616e-04 3.694790859021e-03 0.0 
3.694790859021e-03 2.941360548218e-03 0.0 
0.0 0.0 -9.833476869619e-04 
1.512914527637e-03 2.270095044354e-03 0.0 
2.270095044354e-03 -2.495167818894e-04 0.0 
0.0 0.0 -5.414561767490e-04 
-4.689248235342e-05 -1.859495784931e-03 0.0 
-1.859495784931e-03 2.784842397477e-03 0.0 
0.0 0.0 -1.038364586984e-03 
1.508518420493e-03 2.943740230317e-03 0.0 
2.943740230317e-03 4.760392635737e-05 0.0 
0.0 0.0 -6.669095772216e-04 
3.102345530720e-03 7.378269526544e-05 0.0 
7.378269526544e-05 -1.464469892876e-03 0.0 
0.0 0.0 -7.019467019332e-04 
1.507578771505e-03 -7.604032194635e-04 0.0 
-7.604032194635e-04 -4.928220476776e-04 0.0 
0.0 0.0 -4.348957387830e-04 
3.148975456484e-03 8.306636056168e-04 0.0 
8.306636056168e-04 -1.496370463473e-03 0.0 
0.0 0.0 -7.082592827190e-04 
-1.261991141926e-03 3.267444165813e-03 0.0 
3.267444165813e-03 4.752384958846e-03 0.0 
0.0 0.0 -9.799122972177e-04 
3.123536661893e-03 -9.721135346994e-05 0.0 
-9.721135346994e-05 -1.405927083563e-03 0.0 
0.0 0.0 -7.361183907127e-04 
-1.047249439091e-03 3.250277679615e-03 0.0 
3.250277679615e-03 4.315763371752e-03 0.0 
0.0 0.0 -9.420580210740e-04 
1.883489007768e-04 8.010579783403e-04 0.0 
8.010579783403e-04 2.876523535355e-03 0.0 
0.0 0.0 -1.130549445556e-03 
3.588863471818e-04 1.014874640691e-03 0.0 
1.014874640691e-03 2.306525440664e-03 0.0 
0.0 0.0 -1.096529089934e-03 
1.700464822711e-03 2.598856322658e-03 0.0 
2.598856322658e-03 -4.407098144151e-04 0.0 
0.0 0.0 -5.398950035552e-04 
-1.732708782740e-03 1.731245879395e-03 0.0 
1.731245879395e-03 6.071080868846e-03 0.0 
0.0 0.0 -9.460253849645e-04 
-1.548270655095e-03 -1.671057713006e-03 0.0 
-1.671057713006e-03 5.446327602559e-03 0.0 
0.0 0.0 -1.107441567342e-03 
-1.667313564664e-03 -1.981097125204e-03 0.0 
-1.981097125204e-03 5.509726630970e-03 0.0 
0.0 0.0 -1.104747680386e-03 
1.318532451431e-03 2.199681040646e-03 0.0 
2.199681040646e-03 -1.454539841179e-04 0.0 
0.0 0.0 -5.027479145627e-04 
-9.715008187727e-04 3.547635970715e-03 0.0 
3.547635970715e-03 4.097719530490e-03 0.0 
0.0 0.0 -9.724793438395e-04 
-1.624312607657e-03 -1.275879739373e-03 0.0 
-1.275879739373e-03 6.206545711786e-03 0.0 
0.0 0.0 -1.205818386895e-03 
-2.985133365854e-04 2.525233875689e-03 0.0 
2.525233875689e-03 2.218258876373e-03 0.0 
0.0 0.0 -8.227480884806e-04 
-1.021411894397e-03 -2.472960565398e-03 0.0 
-2.472960565398e-03 3.861949643739e-03 0.0 
0.0 0.0 -1.085013296808e-03 
1.242793848756e-04 1.186515148645e-03 0.0 
1.186515148645e-03 5.554989300674e-04 0.0 
0.0 0.0 -2.913335635470e-04 
-1.667346094177e-03 -1.424810251550e-03 0.0 
-1.424810251550e-03 5.825346578498e-03 0.0 
0.0 0.0 -1.136235114959e-03 
3.019668846566e-03 9.582089678435e-04 0.0 
9.582089678435e-04 -1.448201355488e-03 0.0 
0.0 0.0 -6.734860676048e-04 
-1.578302787965e-03 -5.539699262797e-04 0.0 
-5.539699262797e-04 4.756261434844e-03 0.0 
0.0 0.0 -1.057437106069e-03 
4.911868189057e-04 2.542757255714e-03 0.0 
2.542757255714e-03 1.777357060087e-03 0.0 
0.0 0.0 -9.722330909969e-04 
-1.811529723315e-03 1.498050121893e-03 0.0 
1.498050121893e-03 6.116522056800e-03 0.0 
0.0 0.0 -9.438854677472e-04 
-1.729248363348e-03 1.804686593249e-03 0.0 
1.804686593249e-03 5.771244996451e-03 0.0 
0.0 0.0 -9.108073647308e-04 
1.218753398279e-04 3.628872757319e-03 0.0 
3.628872757319e-03 2.104833384723e-03 0.0 
0.0 0.0 -9.543037390934e-04 
-1.106695794268e-03 1.517581520969e-03 0.0 
1.517581520969e-03 3.539684992285e-03 0.0 
0.0 0.0 -7.963586959451e-04 
-1.268797780777e-03 1.437345509075e-03 0.0 
1.437345509075e-03 3.867869279896e-03 0.0 
0.0 0.0 -7.758011671882e-04 
-1.764900971931e-03 -1.718354051601e-03 0.0 
-1.718354051601e-03 5.889801463908e-03 0.0 
0.0 0.0 -1.133400347077e-03 
2.569249843707e-04 -2.786570784076e-03 0.0 
-2.786570784076e-03 1.556740733674e-03 0.0 
0.0 0.0 -7.772853077335e-04 
1.174175751745e-03 -1.803885435246e-03 0.0 
-1.803885435246e-03 -1.174563587325e-05 0.0 
0.0 0.0 -4.981843353734e-04 
5.912929398665e-04 -9.060768193030e-04 0.0 
-9.060768193030e-04 1.727113514221e-03 0.0 
0.0 0.0 -9.936027660373e-04 
2.016096735556e-03 -6.850330429382e-04 0.0 
-6.850330429382e-04 -9.758089702167e-04 0.0 
0.0 0.0 -4.458376137168e-04 
3.081197548797e-03 7.466969370712e-04 0.0 
7.466969370712e-04 -1.300129295292e-03 0.0 
0.0 0.0 -7.633149657881e-04 
-1.128831614242e-03 1.542551351037e-03 0.0 
1.542551351037e-03 3.551129300523e-03 0.0 
0.0 0.0 -7.520787537531e-04 
-1.821423928511e-03 1.474632635918e-03 0.0 
1.474632635918e-03 5.487726439764e-03 0.0 
0.0 0.0 -8.442294783838e-04 
-1.409406014707e-03 4.528826506854e-05 0.0 
4.528826506854e-05 5.214877225355e-03 0.0 
0.0 0.0 -7.121995050294e-04 
4.077287179479e-04 3.674953038794e-04 0.0 
3.674953038794e-04 2.393170375530e-03 0.0 
0.0 0.0 -1.093598669875e-03 
1.997342351340e-03 2.504018622736e-03 0.0 
2.504018622736e-03 -5.807467309884e-04 0.0 
0.0 0.0 -6.071124087219e-04 
-4.482284720357e-04 1.652414080391e-03 0.0 
1.652414080391e-03 3.958656300163e-03 0.0 
0.0 0.0 -1.233571955743e-03 
-2.022662331208e-03 -4.627058437959e-04 0.0 
-4.627058437959e-04 6.332672682848e-03 0.0 
0.0 0.0 -1.121177773779e-03 
1.798099945912e-03 -8.661440026173e-04 0.0 
-8.661440026173e-04 -7.288088564904e-04 0.0 
0.0 0.0 -4.582676097521e-04 
-1.524985310237e-03 -1.822620195545e-03 0.0 
-1.822620195545e-03 6.245562815238e-03 0.0 
0.0 0.0 -1.241472629463e-03 
3.003131752772e-03 -8.623198735716e-04 0.0 
-8.623198735716e-04 -1.396381984480e-03 0.0 
0.0 0.0 -6.886070435536e-04 
-3.779034990216e-04 2.052169755275e-03 0.0 
2.052169755275e-03 3.788846745744e-03 0.0 
0.0 0.0 -1.204482468497e-03 
1.415534273829e-04 3.636591431357e-03 0.0 
3.636591431357e-03 2.169944347150e-03 0.0 
0.0 0.0 -8.910665706739e-04 
8.940143763442e-06 3.422262264522e-03 0.0 
3.422262264522e-03 2.416052284656e-03 0.0 
0.0 0.0 -9.848034212814e-04 
-1.370477965762e-04 -1.170123439274e-03 0.0 
-1.170123439274e-03 3.214973093205e-03 0.0 
0.0 0.0 -1.146785027167e-03 
3.884013163081e-04 -2.855323367017e-03 0.0 
-2.855323367017e-03 1.211719834243e-03 0.0 
0.0 0.0 -6.857662073788e-04 
-7.129927410741e-04 3.670079492291e-03 0.0 
3.670079492291e-03 3.538541594785e-03 0.0 
0.0 0.0 -9.649174008510e-04 
1.717035050200e-03 -1.344860437860e-03 0.0 
-1.344860437860e-03 -6.217055712217e-04 0.0 
0.0 0.0 -4.694269195620e-04 
-8.587679122771e-04 3.481313587749e-03 0.0 
3.481313587749e-03 3.794469535060e-03 0.0 
0.0 0.0 -9.065670216064e-04 
1.889810402813e-03 2.899509189946e-03 0.0 
2.899509189946e-03 -2.152817456685e-04 0.0 
0.0 0.0 -7.176551387762e-04 
1.428912843794e-04 3.126816861625e-03 0.0 
3.126816861625e-03 2.356543378173e-03 0.0 
0.0 0.0 -1.013229387512e-03 
1.943775632291e-03 -1.286497408609e-03 0.0 
-1.286497408609e-03 -8.334086717492e-04 0.0 
0.0 0.0 -4.758715545177e-04 
-1.000337791729e-03 -2.628959420428e-03 0.0 
-2.628959420428e-03 3.773462867951e-03 0.0 
0.0 0.0 -9.886579807222e-04 
-8.325357311160e-04 3.547635505547e-03 0.0 
3.547635505547e-03 3.716995785029e-03 0.0 
0.0 0.0 -9.612835620876e-04 
2.687167972919e-04 1.795311194676e-03 0.0 
1.795311194676e-03 1.563575924244e-04 0.0 
0.0 0.0 -1.821747384498e-04 
1.057813883420e-03 2.534506278338e-03 0.0 
2.534506278338e-03 3.175156107454e-04 0.0 
0.0 0.0 -5.894269260710e-04 
4.651919044669e-04 1.924261843739e-03 0.0 
1.924261843739e-03 5.725607713308e-04 0.0 
0.0 0.0 -4.447511467704e-04 
-3.371303889653e-04 -7.500919376923e-04 0.0 
-7.500919376923e-04 1.299829984783e-03 0.0 
0.0 0.0 -4.040777003935e-04 
-1.056371726126e-03 -2.468497531733e-03 0.0 
-2.468497531733e-03 3.865104933196e-03 0.0 
0.0 0.0 -1.010653628765e-03 
-9.607789536056e-04 3.048565223821e-03 0.0 
3.048565223821e-03 4.940644900743e-03 0.0 
0.0 0.0 -1.098354823938e-03 
-1.707850550320e-03 2.055402839425e-03 0.0 
2.055402839425e-03 5.786469608898e-03 0.0 
0.0 0.0 -9.387552692591e-04 
-7.756723233026e-04 1.730094175383e-03 0.0 
1.730094175383e-03 2.916527936956e-03 0.0 
0.0 0.0 -8.497951325312e-04 
-1.342322198460e-03 2.098270725376e-03 0.0 
2.098270725376e-03 8.248661573518e-03 0.0 
0.0 0.0 -1.342322198460e-03 
2.363156468028e-05 1.452927542418e-04 0.0 
1.452927542418e-04 5.659069066155e-05 0.0 
0.0 0.0 -3.438096657507e-05 
-9.510393810217e-04 1.672687846132e-03 0.0 
1.672687846132e-03 3.246503304730e-03 0.0 
0.0 0.0 -8.134098498104e-04 
1.098475143763e-03 -2.031876221816e-03 0.0 
-2.031876221816e-03 1.166483383452e-04 0.0 
0.0 0.0 -5.207672066180e-04 
-1.089976521784e-03 -2.234801732660e-03 0.0 
-2.234801732660e-03 3.943897982090e-03 0.0 
0.0 0.0 -1.084767721667e-03 
-1.111038172895e-03 2.200189741588e-03 0.0 
2.200189741588e-03 3.768833115442e-03 0.0 
0.0 0.0 -8.610308207870e-04 
2.262464148868e-03 -1.945012542063e-03 0.0 
-1.945012542063e-03 -8.191237484730e-04 0.0 
0.0 0.0 -6.185744573122e-04 
5.761048584873e-04 -2.775225325336e-03 0.0 
-2.775225325336e-03 9.303736926873e-04 0.0 
0.0 0.0 -6.456336647891e-04 
-1.625181255020e-04 3.528619970826e-03 0.0 
3.528619970826e-03 2.809301514261e-03 0.0 
0.0 0.0 -9.266779469803e-04 
7.488835648315e-04 2.251240740231e-03 0.0 
2.251240740231e-03 1.162555029076e-03 0.0 
0.0 0.0 -8.191879688175e-04 
-1.329752805185e-03 3.181517598016e-03 0.0 
3.181517598016e-03 5.907007101231e-03 0.0 
0.0 0.0 -1.144302277022e-03 
1.946489244002e-03 2.821542424935e-03 0.0 
2.821542424935e-03 -8.035545710095e-04 0.0 
0.0 0.0 -4.898291455683e-04 
-8.586335344055e-04 -2.592060326530e-03 0.0 
-2.592060326530e-03 3.501562453949e-03 0.0 
0.0 0.0 -1.023226067289e-03 
-1.335563518602e-03 -1.880041070522e-03 0.0 
-1.880041070522e-03 4.351195601973e-03 0.0 
0.0 0.0 -1.033071644556e-03 
-2.022124363338e-05 -2.395587679301e-03 0.0 
-2.395587679301e-03 1.567846091858e-03 0.0 
0.0 0.0 -6.632677920962e-04 
-1.674900766220e-03 1.599025443535e-03 0.0 
1.599025443535e-03 4.804084785627e-03 0.0 
0.0 0.0 -7.663799295492e-04 
-1.769874274313e-03 1.858383186956e-03 0.0 
1.858383186956e-03 5.835930784600e-03 0.0 
0.0 0.0 -9.362314798257e-04 
-2.069835677089e-03 -4.002455476683e-04 0.0 
-4.002455476683e-04 5.909495734486e-03 0.0 
0.0 0.0 -1.073191215027e-03 
1.059197299257e-03 -5.440939611188e-04 0.0 
-5.440939611188e-04 5.670737881280e-04 0.0 
0.0 0.0 -3.365581251930e-04 
0.0 0.0 0.0 
0.0 0.0 0.0 
0.0 0.0 0.0 
-4.602170046064e-05 -1.936536183988e-03 0.0 
-1.936536183988e-03 1.323038368316e-03 0.0 
0.0 0.0 -5.472928576524e-04 
-1.313750205869e-03 -1.893362186714e-03 0.0 
-1.893362186714e-03 4.351424993746e-03 0.0 
0.0 0.0 -1.080662880999e-03 
2.816321063082e-03 -8.334388727588e-04 0.0 
-8.334388727588e-04 -1.272649618703e-03 0.0 
0.0 0.0 -6.615734761625e-04 
2.373065583622e-03 -2.080956134851e-03 0.0 
-2.080956134851e-03 -1.010649277428e-03 0.0 
0.0 0.0 -5.838927026542e-04 
2.954183213689e-03 -8.930251278497e-04 0.0 
-8.930251278497e-04 -1.356411275311e-03 0.0 
0.0 0.0 -6.847594021618e-04 
-1.301232695251e-03 -2.116378151629e-03 0.0 
-2.116378151629e-03 4.314126103213e-03 0.0 
0.0 0.0 -1.020860678390e-03 
-1.603005468093e-03 2.550878726920e-03 0.0 
2.550878726920e-03 5.754736739264e-03 0.0 
0.0 0.0 -9.956198530692e-04 
-1.518941795168e-03 -1.499106977263e-03 0.0 
-1.499106977263e-03 4.706029179031e-03 0.0 
0.0 0.0 -1.043188517862e-03 
2.974270505683e-03 -1.234815007946e-05 0.0 
-1.234815007946e-05 -1.384428534307e-03 0.0 
0.0 0.0 -6.813608448753e-04 
-8.631645989932e-04 3.291242542591e-03 0.0 
3.291242542591e-03 4.149472146392e-03 0.0 
0.0 0.0 -9.699423737970e-04 
-1.666656418554e-03 8.515973861887e-04 0.0 
8.515973861887e-04 5.656067677278e-03 0.0 
0.0 0.0 -8.236220363599e-04 
2.293852952879e-04 2.317534078424e-03 0.0 
2.317534078424e-03 2.464619361077e-03 0.0 
0.0 0.0 -1.076197569190e-03 
-1.503911657480e-03 -1.536228813635e-03 0.0 
-1.536228813635e-03 4.713514709764e-03 0.0 
0.0 0.0 -1.079735805607e-03 
-1.269594224654e-03 -2.151916428327e-03 0.0 
-2.151916428327e-03 4.311241093571e-03 0.0 
0.0 0.0 -1.081849276551e-03 
-4.912617181252e-04 1.776659374520e-03 0.0 
1.776659374520e-03 2.250419150674e-03 0.0 
0.0 0.0 -7.539246139495e-04 
2.432965561316e-03 -1.404722775878e-03 0.0 
-1.404722775878e-03 -1.097996306609e-03 0.0 
0.0 0.0 -5.721296805886e-04 
-1.672927313923e-03 -1.115371020166e-03 0.0 
-1.115371020166e-03 5.017856732658e-03 0.0 
0.0 0.0 -1.052805964859e-03 
-1.580075754320e-03 2.157353104837e-04 0.0 
2.157353104837e-04 6.692661968395e-03 0.0 
0.0 0.0 -9.615701295831e-04 
-1.562907036777e-03 2.120583330649e-04 0.0 
2.120583330649e-04 6.337987109484e-03 0.0 
0.0 0.0 -8.972249362023e-04 
-6.223529423683e-04 1.809817658288e-03 0.0 
1.809817658288e-03 2.623397927817e-03 0.0 
0.0 0.0 -8.575907080495e-04 
-1.509705893005e-03 -1.747591078712e-03 0.0 
-1.747591078712e-03 4.715855182949e-03 0.0 
0.0 0.0 -1.032785096058e-03 
1.569414128809e-03 -2.550888608895e-03 0.0 
-2.550888608895e-03 -3.370499251341e-04 0.0 
0.0 0.0 -5.281560872893e-04 
8.209882341614e-04 2.381580320664e-03 0.0 
2.381580320664e-03 4.553315452111e-04 0.0 
0.0 0.0 -5.469941911596e-04 
-2.931643961127e-04 1.527189756473e-03 0.0 
1.527189756473e-03 3.869126548266e-03 0.0 
0.0 0.0 -1.202908440308e-03 
1.382596818972e-04 -2.070148021774e-03 0.0 
-2.070148021774e-03 1.091658495820e-03 0.0 
0.0 0.0 -5.271077904503e-04 
1.398235426833e-03 -2.548773596058e-03 0.0 
-2.548773596058e-03 -7.584749764510e-05 0.0 
0.0 0.0 -5.667376839375e-04 
1.254646909069e-03 2.484629242297e-03 0.0 
2.484629242297e-03 3.513264158718e-04 0.0 
0.0 0.0 -6.882742821176e-04 
-8.245697505670e-04 1.707333830662e-03 0.0 
1.707333830662e-03 2.953610139157e-03 0.0 
0.0 0.0 -7.843752346429e-04 
-1.666758732331e-03 -1.174236117568e-03 0.0 
-1.174236117568e-03 5.037001804565e-03 0.0 
0.0 0.0 -1.079856008588e-03 
-9.244628747481e-04 -1.936309255703e-04 0.0 
-1.936309255703e-04 2.822852214519e-03 0.0 
0.0 0.0 -6.624393034254e-04 
-1.781970376818e-03 1.286452196401e-03 0.0 
1.286452196401e-03 5.020731578576e-03 0.0 
0.0 0.0 -7.824198048057e-04 
-1.484587749919e-03 -1.812874826371e-03 0.0 
-1.812874826371e-03 4.718401123365e-03 0.0 
0.0 0.0 -1.081372135754e-03 
1.084769609676e-03 -2.051097269290e-03 0.0 
-2.051097269290e-03 1.328211131767e-04 0.0 
0.0 0.0 -5.218245955084e-04 
-7.383188819978e-04 -2.755351396555e-03 0.0 
-2.755351396555e-03 3.375108004806e-03 0.0 
0.0 0.0 -1.093992571453e-03 
0.0 0.0 0.0 
0.0 0.0 0.0 
0.0 0.0 0.0 
-1.585395185030e-03 -8.733622601649e-05 0.0 
-8.733622601649e-05 7.915806537563e-03 0.0 
0.0 0.0 -1.152567315725e-03 
1.675271907871e-03 -2.177617042757e-03 0.0 
-2.177617042757e-03 -5.173898653476e-04 0.0 
0.0 0.0 -4.962351610816e-04 
3.706447397786e-05 2.070351060898e-04 0.0 
2.070351060898e-04 3.044600736775e-03 0.0 
0.0 0.0 -1.154039482800e-03 
2.069033457779e-04 2.961881208612e-03 0.0 
2.961881208612e-03 2.494592241471e-03 0.0 
0.0 0.0 -9.821191134873e-04 
-1.685773855788e-03 -1.377399783606e-03 0.0 
-1.377399783606e-03 5.070521373149e-03 0.0 
0.0 0.0 -1.044398856648e-03 
-1.669266621470e-03 -1.454184032041e-03 0.0 
-1.454184032041e-03 5.079788696568e-03 0.0 
0.0 0.0 -1.081576243284e-03 
2.914990553637e-03 -7.685843879532e-04 0.0 
-7.685843879532e-04 -1.358389786941e-03 0.0 
0.0 0.0 -6.671146142982e-04 
1.578300081431e-04 -1.839580637340e-03 0.0 
-1.839580637340e-03 9.146826550122e-04 0.0 
0.0 0.0 -4.596482842094e-04 
5.655633450819e-04 1.634462446329e-03 0.0 
1.634462446329e-03 -4.353216112412e-04 0.0 
0.0 0.0 -5.581788593170e-05 
-1.838374468884e-03 -1.008357892208e-03 0.0 
-1.008357892208e-03 5.389548205880e-03 0.0 
0.0 0.0 -1.053342186814e-03 
-7.735429255109e-05 -5.938829985412e-04 0.0 
-5.938829985412e-04 3.207515001155e-03 0.0 
0.0 0.0 -1.148056181429e-03 
8.407270435530e-04 -2.401906140793e-03 0.0 
-2.401906140793e-03 4.680800088294e-04 0.0 
0.0 0.0 -5.609173081639e-04 
-8.059519139880e-04 3.569609752867e-03 0.0 
3.569609752867e-03 3.937575205409e-03 0.0 
0.0 0.0 -1.000702849114e-03 
-1.423128099077e-04 2.434671484328e-03 0.0 
2.434671484328e-03 1.829214520191e-03 0.0 
0.0 0.0 -7.229578758357e-04 
-1.050409536978e-03 3.126628093613e-03 0.0 
3.126628093613e-03 4.667808075339e-03 0.0 
0.0 0.0 -1.005614027492e-03 
-9.737300203529e-04 -1.654439195094e-03 0.0 
-1.654439195094e-03 5.294537233988e-03 0.0 
0.0 0.0 -1.266534580134e-03 
0.0 0.0 0.0 
0.0 0.0 0.0 
0.0 0.0 0.0 
-1.341620833825e-03 1.946460220436e-04 0.0 
1.946460220436e-04 8.726655578502e-03 0.0 
0.0 0.0 -1.341620833825e-03 
-1.340051318819e-03 -5.222823624513e-04 0.0 
-5.222823624513e-04 7.102242080382e-03 0.0 
0.0 0.0 -1.340051318819e-03 
-1.487218295656e-03 -1.877140319118e-04 0.0 
-1.877140319118e-04 5.546795712007e-03 0.0 
0.0 0.0 -7.955197795907e-04 
9.332368058577e-04 -2.323240235713e-03 0.0 
-2.323240235713e-03 3.557999178189e-04 0.0 
0.0 0.0 -5.524443101471e-04 
4.489255113100e-05 3.284657334475e-03 0.0 
3.284657334475e-03 2.631811467132e-03 0.0 
0.0 0.0 -9.543595451431e-04 
3.058132153657e-03 -1.043711929510e-04 0.0 
-1.043711929510e-04 -1.411540431284e-03 0.0 
0.0 0.0 -7.056821667315e-04 
-3.299569164523e-05 -1.162968038586e-03 0.0 
-1.162968038586e-03 1.091173189700e-03 0.0 
0.0 0.0 -3.090400745732e-04 
5.673843086382e-05 7.346133626421e-04 0.0 
7.346133626421e-04 3.741725256079e-04 0.0 
0.0 0.0 -1.846761242021e-04 
-1.574977123889e-03 5.363765110094e-04 0.0 
5.363765110094e-04 8.165141429638e-03 0.0 
0.0 0.0 -1.209499414335e-03 
-1.716498366635e-03 2.104119454666e-03 0.0 
2.104119454666e-03 5.843034081691e-03 0.0 
0.0 0.0 -9.648175333861e-04 
-1.733356707705e-03 1.154742806149e-03 0.0 
1.154742806149e-03 4.860119042041e-03 0.0 
0.0 0.0 -7.487175554447e-04 
-1.114495707937e-03 3.137897512820e-03 0.0 
3.137897512820e-03 5.995042437661e-03 0.0 
0.0 0.0 -1.323661129950e-03 
-8.127251142362e-04 -1.412537566310e-04 0.0 
-1.412537566310e-04 2.411308652960e-03 0.0 
0.0 0.0 -5.128881373376e-04 
-1.119968701545e-03 2.850061398458e-03 0.0 
2.850061398458e-03 5.775097260118e-03 0.0 
0.0 0.0 -1.324908485340e-03 
-1.665581242751e-03 2.319761122546e-03 0.0 
2.319761122546e-03 5.793099015745e-03 0.0 
0.0 0.0 -9.670422101491e-04 
5.568715715285e-04 -2.770077582360e-03 0.0 
-2.770077582360e-03 9.496266440003e-04 0.0 
0.0 0.0 -6.456420923695e-04 
2.161043505782e-04 3.547732125549e-03 0.0 
3.547732125549e-03 1.898015910390e-03 0.0 
0.0 0.0 -9.060515404150e-04 
9.950905598312e-04 -2.671652170698e-03 0.0 
-2.671652170698e-03 4.709180402517e-04 0.0 
0.0 0.0 -6.282894000355e-04 
6.980021611784e-04 2.329704923171e-03 0.0 
2.329704923171e-03 5.591408928334e-04 0.0 
0.0 0.0 -5.387755945765e-04 
7.505691487916e-04 -2.806175756815e-03 0.0 
-2.806175756815e-03 7.604579484207e-04 0.0 
0.0 0.0 -6.475830416624e-04 
-1.523404584578e-03 2.773030803061e-03 0.0 
2.773030803061e-03 5.696563371559e-03 0.0 
0.0 0.0 -1.023749757194e-03 
-1.948666597127e-03 -9.778535476886e-04 0.0 
-9.778535476886e-04 6.429483775968e-03 0.0 
0.0 0.0 -1.155390781228e-03 
1.789573321784e-03 -2.334741346390e-03 0.0 
-2.334741346390e-03 -4.865776105569e-04 0.0 
0.0 0.0 -5.584267333832e-04 
-9.825735489597e-04 3.435129640079e-03 0.0 
3.435129640079e-03 4.478995622056e-03 0.0 
0.0 0.0 -1.036271578259e-03 
0.0 0.0 0.0 
0.0 0.0 0.0 
0.0 0.0 0.0 
2.596759179503e-03 -1.389222099922e-03 0.0 
-1.389222099922e-03 -1.085257982110e-03 0.0 
0.0 0.0 -6.477862274541e-04 
-1.710970656604e-03 2.103685284721e-03 0.0 
2.103685284721e-03 6.525687664567e-03 0.0 
0.0 0.0 -1.066385360782e-03 
2.404574348015e-04 -2.949261258943e-03 0.0 
-2.949261258943e-03 1.482737397066e-03 0.0 
0.0 0.0 -7.385120708004e-04 
6.388802882870e-04 -2.505035958296e-03 0.0 
-2.505035958296e-03 7.105369687538e-04 0.0 
0.0 0.0 -5.783216815889e-04 
3.613031293431e-04 3.302322730047e-03 0.0 
3.302322730047e-03 1.977511413847e-03 0.0 
0.0 0.0 -9.187611816440e-04 
1.834377336541e-03 -2.869898485884e-03 0.0 
-2.869898485884e-03 -1.676988345135e-04 0.0 
0.0 0.0 -7.142907865831e-04 
-2.603602936992e-04 1.802957872284e-03 0.0 
1.802957872284e-03 1.690888390106e-03 0.0 
0.0 0.0 -6.130834698885e-04 
-3.766094290651e-04 1.893748037744e-03 0.0 
1.893748037744e-03 2.022328291586e-03 0.0 
0.0 0.0 -7.053080839374e-04 
2.569187355972e-04 -2.744654995445e-03 0.0 
-2.744654995445e-03 1.329889881086e-03 0.0 
0.0 0.0 -6.800608357214e-04 
9.113223760588e-04 -2.364957113740e-03 0.0 
-2.364957113740e-03 3.924099138829e-04 0.0 
0.0 0.0 -5.587424099750e-04 
1.417197887517e-03 2.585133621544e-03 0.0 
2.585133621544e-03 -7.607709962934e-05 0.0 
0.0 0.0 -5.747660519518e-04 
-8.949493316928e-04 3.143090586373e-03 0.0 
3.143090586373e-03 4.528621917534e-03 0.0 
0.0 0.0 -1.033897369924e-03 
-1.400349245868e-03 3.030732209316e-03 0.0 
3.030732209316e-03 6.703483299750e-03 0.0 
0.0 0.0 -1.224260864640e-03 
-5.253406665386e-04 1.775908047208e-03 0.0 
1.775908047208e-03 2.340968666104e-03 0.0 
0.0 0.0 -7.781262855279e-04 
-1.583002963210e-03 -1.557788336479e-04 0.0 
-1.557788336479e-04 7.086569384723e-03 0.0 
0.0 0.0 -1.028620860735e-03 
-1.145284533028e-03 3.268026662313e-03 0.0 
3.268026662313e-03 5.700409497196e-03 0.0 
0.0 0.0 -1.228414553209e-03 
3.124385303303e-03 -1.108728093105e-05 0.0 
-1.108728093105e-05 -1.500119221682e-03 0.0 
0.0 0.0 -6.961140349804e-04 
5.697530012785e-04 2.144073309248e-03 0.0 
2.144073309248e-03 5.848519704173e-04 0.0 
0.0 0.0 -4.948307021553e-04 
-2.816210062748e-04 2.601627525948e-03 0.0 
2.601627525948e-03 2.228068929511e-03 0.0 
0.0 0.0 -8.341919671012e-04 
8.341721467740e-04 -2.510433576068e-03 0.0 
-2.510433576068e-03 5.276394565767e-04 0.0 
0.0 0.0 -5.836335442932e-04 
-1.247042165843e-03 3.250100918931e-03 0.0 
3.250100918931e-03 5.099970820779e-03 0.0 
0.0 0.0 -1.043024347135e-03 
1.027519968218e-03 -2.380813166548e-03 0.0 
-2.380813166548e-03 3.112209895361e-04 0.0 
0.0 0.0 -5.737461247516e-04 
1.268606586028e-03 2.037384257040e-03 0.0 
2.037384257040e-03 -4.121339973903e-04 0.0 
0.0 0.0 -3.670596808449e-04 
5.930292221715e-04 -2.622911752925e-03 0.0 
-2.622911752925e-03 8.838728538733e-04 0.0 
0.0 0.0 -6.329580325907e-04 
5.486710723125e-04 2.332384511628e-03 0.0 
2.332384511628e-03 7.102378801027e-04 0.0 
0.0 0.0 -5.395324081779e-04 
1.682768200706e-03 2.516609952748e-03 0.0 
2.516609952748e-03 -2.542264434373e-04 0.0 
0.0 0.0 -6.122321816867e-04 
7.358023053180e-04 -2.505051408807e-03 0.0 
-2.505051408807e-03 7.718123993888e-04 0.0 
0.0 0.0 -6.461205877315e-04 
2.812366509539e-04 3.418056531118e-03 0.0 
3.418056531118e-03 1.761992896829e-03 0.0 
0.0 0.0 -8.756698061928e-04 
-1.585509504414e-03 6.854986193214e-05 0.0 
6.854986193214e-05 6.515313053331e-03 0.0 
0.0 0.0 -9.494079867578e-04 
1.950119496099e-04 -2.582141659643e-03 0.0 
-2.582141659643e-03 1.322040652856e-03 0.0 
0.0 0.0 -6.501654010570e-04 
9.460441418101e-04 2.468386529063e-03 0.0 
2.468386529063e-03 3.152412733386e-04 0.0 
0.0 0.0 -5.405508922066e-04 
5.243693270813e-04 -2.069869324487e-03 0.0 
-2.069869324487e-03 1.498209352588e-03 0.0 
0.0 0.0 -8.668194341442e-04 
3.838921855015e-04 2.277447822888e-03 0.0 
2.277447822888e-03 8.700555358996e-04 0.0 
0.0 0.0 -5.374061663147e-04 
0.0 0.0 0.0 
0.0 0.0 0.0 
0.0 0.0 0.0 
-1.483198277618e-03 2.721071498371e-04 0.0 
2.721071498371e-04 8.165740664983e-03 0.0 
0.0 0.0 -1.223389224544e-03 
-1.535254932215e-03 2.717190120097e-04 0.0 
2.717190120097e-04 7.854733745092e-03 0.0 
0.0 0.0 -1.157435638217e-03 
1.714590457335e-06 -7.115369139069e-04 0.0 
-7.115369139069e-04 4.515715516867e-04 0.0 
0.0 0.0 -1.942654894903e-04 
3.878432463794e-04 -2.223127307783e-03 0.0 
-2.223127307783e-03 1.630928175518e-03 0.0 
0.0 0.0 -8.651877522419e-04 
-2.798740380973e-05 -2.159694096595e-03 0.0 
-2.159694096595e-03 1.431561792510e-03 0.0 
0.0 0.0 -6.015318808715e-04 
-1.829025907462e-04 -2.119639284792e-03 0.0 
-2.119639284792e-03 1.714857895665e-03 0.0 
0.0 0.0 -6.565522735366e-04 
-1.017733219917e-03 3.364025437069e-03 0.0 
3.364025437069e-03 4.897256146699e-03 0.0 
0.0 0.0 -1.100737838324e-03 
5.257552207879e-04 2.875144563505e-03 0.0 
2.875144563505e-03 1.853285664374e-03 0.0 
0.0 0.0 -9.467522836136e-04 
-8.497134643687e-04 3.433349612216e-03 0.0 
3.433349612216e-03 4.357788075562e-03 0.0 
0.0 0.0 -1.064854740548e-03 
2.203223739880e-03 -1.975974349915e-03 0.0 
-1.975974349915e-03 -9.232686555068e-04 0.0 
0.0 0.0 -5.485521790173e-04 
-1.446388010227e-03 1.342323327112e-04 0.0 
1.342323327112e-04 5.217166277606e-03 0.0 
0.0 0.0 -7.105917616147e-04 
-1.197543499266e-03 -1.810608894436e-03 0.0 
-1.810608894436e-03 5.325302062837e-03 0.0 
0.0 0.0 -1.281538364137e-03 
-1.726353625323e-04 -1.807145954026e-03 0.0 
-1.807145954026e-03 1.497715714659e-03 0.0 
0.0 0.0 -5.678915794828e-04 
2.222123337372e-04 -1.923483587620e-05 0.0 
-1.923483587620e-05 2.651456288210e-03 0.0 
0.0 0.0 -1.121221582973e-03 
1.156875498320e-03 3.056207622502e-03 0.0 
3.056207622502e-03 4.647886417546e-04 0.0 
0.0 0.0 -6.949989171746e-04 
-5.424671300971e-04 -2.887281693977e-04 0.0 
-2.887281693977e-04 1.675559050033e-03 0.0 
0.0 0.0 -3.973267919445e-04 
-1.360155763593e-03 3.097514486866e-03 0.0 
3.097514486866e-03 5.194571229381e-03 0.0 
0.0 0.0 -1.015166614560e-03 
2.718308302872e-03 -7.221702226311e-04 0.0 
-7.221702226311e-04 -1.243788694723e-03 0.0 
0.0 0.0 -6.319369749211e-04 
2.871950510200e-04 -2.057705951039e-03 0.0 
-2.057705951039e-03 8.654869691646e-04 0.0 
0.0 0.0 -4.940065800791e-04 
2.698077562336e-03 -1.426914000199e-03 0.0 
-1.426914000199e-03 -1.126048004927e-03 0.0 
0.0 0.0 -6.737269531753e-04 
-2.035172389928e-03 5.681521720379e-05 0.0 
5.681521720379e-05 5.818689376235e-03 0.0 
0.0 0.0 -1.069816800183e-03 
-1.547603731344e-03 2.557965682965e-03 0.0 
2.557965682965e-03 5.760856088478e-03 0.0 
0.0 0.0 -1.020980360542e-03 
3.535477644423e-04 -2.409077986448e-03 0.0 
-2.409077986448e-03 9.968391477695e-04 0.0 
0.0 0.0 -5.787372480908e-04 
-1.638049386592e-03 -5.261620418510e-04 0.0 
-5.261620418510e-04 4.881654597217e-03 0.0 
0.0 0.0 -1.045407985144e-03 
-1.131069213092e-03 3.339054972024e-03 0.0 
3.339054972024e-03 5.004170711216e-03 0.0 
0.0 0.0 -1.071782534217e-03 
7.849170986352e-05 2.002784816892e-03 0.0 
2.002784816892e-03 3.087471277383e-03 0.0 
0.0 0.0 -1.109893377180e-03 
5.081300325286e-04 -2.843687144981e-03 0.0 
-2.843687144981e-03 1.050709009186e-03 0.0 
0.0 0.0 -6.680738750205e-04 
-8.485846460072e-04 -2.429092323345e-04 0.0 
-2.429092323345e-04 2.701937249489e-03 0.0 
0.0 0.0 -7.163733244607e-04 
1.054276666128e-03 2.747625866901e-03 0.0 
2.747625866901e-03 4.044819373952e-04 0.0 
0.0 0.0 -6.251822586527e-04 
-1.556582639800e-03 -2.026954580916e-04 0.0 
-2.026954580916e-04 6.435079901625e-03 0.0 
0.0 0.0 -9.278975173457e-04 
6.306613738133e-04 -2.843431008643e-03 0.0 
-2.843431008643e-03 9.087558385051e-04 0.0 
0.0 0.0 -6.597502338507e-04 
-1.151665732863e-03 3.368799827368e-03 0.0 
3.368799827368e-03 6.118948746046e-03 0.0 
0.0 0.0 -1.269179263065e-03 
-1.428509069589e-03 2.793670889960e-03 0.0 
2.793670889960e-03 7.317810969107e-03 0.0 
0.0 0.0 -1.281197857596e-03 
-1.509195270466e-03 -1.457985023921e-04 0.0 
-1.457985023921e-04 5.771603983327e-03 0.0 
0.0 0.0 -8.387747867703e-04 
-1.581495188537e-03 1.397540288099e-03 0.0 
1.397540288099e-03 8.227342162666e-03 0.0 
0.0 0.0 -1.255037608383e-03 
-1.367281596907e-03 3.139996712098e-03 0.0 
3.139996712098e-03 6.951432883283e-03 0.0 
0.0 0.0 -1.285499913836e-03 
2.109542503114e-03 -1.930775448323e-03 0.0 
-1.930775448323e-03 -7.849211290521e-04 0.0 
0.0 0.0 -5.676948745980e-04 
1.380801218232e-03 -2.351235301793e-03 0.0 
-2.351235301793e-03 -1.698746639675e-04 0.0 
0.0 0.0 -5.189685232560e-04 
-5.757297583633e-04 4.366962327414e-04 0.0 
4.366962327414e-04 4.537400147681e-03 0.0 
0.0 0.0 -1.265535665854e-03 
0.0 0.0 0.0 
0.0 0.0 0.0 
0.0 0.0 0.0 
-8.394320087675e-04 -3.205840844428e-05 0.0 
-3.205840844428e-05 2.565992005118e-03 0.0 
0.0 0.0 -6.072167217314e-04 
-1.628413269992e-03 -1.673586948164e-04 0.0 
-1.673586948164e-04 4.868895534125e-03 0.0 
0.0 0.0 -1.067827858613e-03 
4.161330338527e-04 -2.673128765629e-03 0.0 
-2.673128765629e-03 1.065048131365e-03 0.0 
0.0 0.0 -6.347919279505e-04 
1.927385449734e-03 -2.370761864729e-03 0.0 
-2.370761864729e-03 -5.075034197406e-04 0.0 
0.0 0.0 -6.085208699972e-04 
-3.171269370445e-05 1.814506539183e-03 0.0 
1.814506539183e-03 1.218095740662e-03 0.0 
0.0 0.0 -5.084498772674e-04 
-1.067456340534e-04 1.927365287384e-03 0.0 
1.927365287384e-03 1.436121596143e-03 0.0 
0.0 0.0 -5.697325551813e-04 
-1.696184299969e-03 4.188758800933e-04 0.0 
4.188758800933e-04 5.835163577314e-03 0.0 
0.0 0.0 -8.290026594306e-04 
2.687649412673e-03 -1.534651648036e-03 0.0 
-1.534651648036e-03 -1.236375441606e-03 0.0 
0.0 0.0 -6.219745590288e-04 
-8.374689021838e-04 -7.956683833314e-04 0.0 
-7.956683833314e-04 2.821114433129e-03 0.0 
0.0 0.0 -8.100060677168e-04 
-5.763887782379e-05 2.884104717794e-03 0.0 
2.884104717794e-03 2.960925031656e-03 0.0 
0.0 0.0 -1.077832113627e-03 
-1.357626258592e-03 -2.064052997114e-03 0.0 
-2.064052997114e-03 6.484172296954e-03 0.0 
0.0 0.0 -1.324978758543e-03 
-1.316853930481e-03 -2.171233133158e-03 0.0 
-2.171233133158e-03 6.262828385778e-03 0.0 
0.0 0.0 -1.320624918399e-03 
1.210545566472e-03 -2.440771907645e-03 0.0 
-2.440771907645e-03 2.098806390541e-04 0.0 
0.0 0.0 -6.087540880828e-04 
-1.669792706879e-03 7.585625911679e-04 0.0 
7.585625911679e-04 5.225921064138e-03 0.0 
0.0 0.0 -7.877541558771e-04 
0.0 0.0 0.0 
0.0 0.0 0.0 
0.0 0.0 0.0 
1.526705898496e-04 1.832423170921e-03 0.0 
1.832423170921e-03 9.162592996274e-04 0.0 
0.0 0.0 -4.581128097759e-04 
1.694782762505e-03 -3.278967534484e-03 0.0 
-3.278967534484e-03 -3.718783773796e-04 0.0 
0.0 0.0 -5.669590221966e-04 
7.211551457005e-05 1.826082030850e-03 0.0 
1.826082030850e-03 1.040988995356e-03 0.0 
0.0 0.0 -4.770447899684e-04 
8.520859723696e-04 2.702963814911e-03 0.0 
2.702963814911e-03 1.160586394610e-03 0.0 
0.0 0.0 -8.625738715628e-04 
1.049602008115e-03 -2.610080274348e-03 0.0 
-2.610080274348e-03 3.535904184599e-04 0.0 
0.0 0.0 -6.013681828177e-04 
1.924226435236e-03 -2.386188926630e-03 0.0 
-2.386188926630e-03 -7.021276801158e-04 0.0 
0.0 0.0 -5.237566093371e-04 
8.906199206854e-04 -2.335912402002e-03 0.0 
-2.335912402002e-03 -6.441539282859e-04 0.0 
0.0 0.0 -1.056282824569e-04 
-1.518150307999e-03 2.180517986998e-04 0.0 
2.180517986998e-04 7.814279060755e-03 0.0 
0.0 0.0 -1.176327079312e-03 
1.081599261770e-03 -2.356565631716e-03 0.0 
-2.356565631716e-03 1.958644745057e-04 0.0 
0.0 0.0 -5.474844584040e-04 
-1.503838573524e-03 8.537407365334e-04 0.0 
8.537407365334e-04 8.091641180223e-03 0.0 
0.0 0.0 -1.212957849656e-03 
-1.563004608103e-03 1.345074243690e-04 0.0 
1.345074243690e-04 7.574721874408e-03 0.0 
0.0 0.0 -1.117460450001e-03 
-1.452677521913e-03 3.546154927313e-04 0.0 
3.546154927313e-04 8.989483437301e-03 0.0 
0.0 0.0 -1.319418651152e-03 
-1.573682658163e-03 -6.434523803718e-04 0.0 
-6.434523803718e-04 7.311749488072e-03 0.0 
0.0 0.0 -1.324849633189e-03 
-1.522640732825e-03 1.776300828802e-04 0.0 
1.776300828802e-04 5.910709247101e-03 0.0 
0.0 0.0 -8.315138651140e-04 
8.069897163257e-04 -2.530526196753e-03 0.0 
-2.530526196753e-03 5.619735093356e-04 0.0 
0.0 0.0 -5.866985252834e-04 
-2.779641202251e-04 1.703949019227e-03 0.0 
1.703949019227e-03 1.672572981451e-03 0.0 
0.0 0.0 -5.976895119538e-04 
7.490285409449e-04 -3.064892262470e-03 0.0 
-3.064892262470e-03 9.033898181147e-04 0.0 
0.0 0.0 -7.081792967398e-04 
-1.343328350294e-03 -1.797161006887e-03 0.0 
-1.797161006887e-03 6.496235434020e-03 0.0 
0.0 0.0 -1.343328350294e-03 
1.770851489837e-04 1.574613937019e-03 0.0 
1.574613937019e-03 7.197174740553e-04 0.0 
0.0 0.0 -3.843439813024e-04 
1.884365055557e-04 1.730723292298e-03 0.0 
1.730723292298e-03 7.999529513160e-04 0.0 
0.0 0.0 -4.235954815164e-04 
5.120454739848e-05 4.425631252095e-04 0.0 
4.425631252095e-04 3.081010907522e-03 0.0 
0.0 0.0 -1.156027955174e-03 
-1.600063486753e-03 4.454182285367e-04 0.0 
4.454182285367e-04 5.553533901810e-03 0.0 
0.0 0.0 -7.715229432315e-04 
-1.496300168116e-03 6.368230222668e-04 0.0 
6.368230222668e-04 8.172597464420e-03 0.0 
0.0 0.0 -1.219279742240e-03 
-1.079188820050e-03 3.032068943539e-03 0.0 
3.032068943539e-03 5.044159493797e-03 0.0 
0.0 0.0 -1.069611963270e-03 
-3.125996649260e-04 2.376006221788e-03 0.0 
2.376006221788e-03 3.643123644996e-03 0.0 
0.0 0.0 -1.175036385391e-03 
-1.440706362563e-03 2.765679407787e-03 0.0 
2.765679407787e-03 6.040073424197e-03 0.0 
0.0 0.0 -1.113576918908e-03 
-1.533426048517e-03 3.483355765343e-04 0.0 
3.483355765343e-04 5.830518730214e-03 0.0 
0.0 0.0 -8.542750875040e-04 
4.145616627609e-04 -2.510686493370e-03 0.0 
-2.510686493370e-03 9.700386978898e-04 0.0 
0.0 0.0 -5.934001545646e-04 
5.188237827814e-04 -2.738227656747e-03 0.0 
-2.738227656747e-03 9.760172721955e-04 0.0 
0.0 0.0 -6.406461664186e-04 
-1.559322814184e-03 2.985337068608e-04 0.0 
2.985337068608e-04 6.828450389527e-03 0.0 
0.0 0.0 -9.963059934037e-04 
-1.981024320875e-04 2.157190390334e-03 0.0 
2.157190390334e-03 3.614846179737e-03 0.0 
0.0 0.0 -1.142506377625e-03 
-1.686833987170e-03 9.535938984725e-04 0.0 
9.535938984725e-04 4.721621554871e-03 0.0 
0.0 0.0 -7.386355146563e-04 
-1.463703012742e-03 6.266658719779e-05 0.0 
6.266658719779e-05 5.604963867248e-03 0.0 
0.0 0.0 -7.676068998053e-04 
-1.515549186513e-03 3.697674288865e-05 0.0 
3.697674288865e-05 5.930448629907e-03 0.0 
0.0 0.0 -8.242303029217e-04 
-1.592254304502e-03 -3.437592554212e-05 0.0 
-3.437592554212e-05 6.006274404460e-03 0.0 
0.0 0.0 -8.467401457521e-04 
1.475757754276e-03 -1.289294546505e-03 0.0 
-1.289294546505e-03 -9.417009757612e-04 0.0 
0.0 0.0 -2.288814765064e-04 
2.490964718879e-04 -2.584180670905e-03 0.0 
-2.584180670905e-03 1.241456993708e-03 0.0 
0.0 0.0 -6.388086281126e-04 
-1.524289002589e-03 1.055576054381e-03 0.0 
1.055576054381e-03 8.572679794113e-03 0.0 
0.0 0.0 -1.269310366786e-03 
-1.609154575879e-03 5.927002029432e-05 0.0 
5.927002029432e-05 6.380922986421e-03 0.0 
0.0 0.0 -9.150577043801e-04 
-9.099437829954e-04 1.617518349232e-03 0.0 
1.617518349232e-03 4.661075676102e-03 0.0 
0.0 0.0 -1.295322057178e-03 
-1.481137119135e-03 2.911611220647e-03 0.0 
2.911611220647e-03 6.859531798370e-03 0.0 
0.0 0.0 -1.215577547940e-03 
-1.339321083005e-03 2.882096422564e-03 0.0 
2.882096422564e-03 5.250850385045e-03 0.0 
0.0 0.0 -1.012565562176e-03 
-1.640900346179e-03 1.517631824607e-03 0.0 
1.517631824607e-03 7.910833663920e-03 0.0 
0.0 0.0 -1.214907066889e-03 
-1.059540956040e-03 -1.334979029727e-03 0.0 
-1.334979029727e-03 3.594823103032e-03 0.0 
0.0 0.0 -9.974489174931e-04 
-1.013156646554e-03 -1.368118382081e-03 0.0 
-1.368118382081e-03 3.447232281497e-03 0.0 
0.0 0.0 -9.464646038184e-04 
-1.053605941392e-03 -1.657375267239e-03 0.0 
-1.657375267239e-03 4.938505543447e-03 0.0 
0.0 0.0 -1.226851238141e-03 
0.0 0.0 0.0 
0.0 0.0 0.0 
0.0 0.0 0.0 
-9.591830860426e-04 -2.723797524876e-04 0.0 
-2.723797524876e-04 2.822378765221e-03 0.0 
0.0 0.0 -5.777536677209e-04 
-1.342405754833e-03 2.832331701177e-03 0.0 
2.832331701177e-03 5.623065616304e-03 0.0 
0.0 0.0 -1.342405754833e-03 
-1.232108481340e-04 -4.438827698639e-05 0.0 
-4.438827698639e-05 1.111663342237e-03 0.0 
0.0 0.0 -2.724401835525e-04 
-1.475085458698e-03 8.547838585484e-05 0.0 
8.547838585484e-05 5.344445388578e-03 0.0 
0.0 0.0 -7.870118106326e-04 
-3.041907190684e-04 -2.929338759418e-04 0.0 
-2.929338759418e-04 3.995006628254e-03 0.0 
0.0 0.0 -1.213461936786e-03 
-7.635875139996e-06 -1.081722019394e-03 0.0 
-1.081722019394e-03 7.060070926500e-04 0.0 
0.0 0.0 -2.993019503614e-04 
1.505773719545e-03 -8.263394782763e-04 0.0 
-8.263394782763e-04 -6.336254798977e-05 0.0 
0.0 0.0 -2.382422751898e-04 
-1.473393185853e-03 1.353598964677e-03 0.0 
1.353598964677e-03 8.746165970417e-03 0.0 
0.0 0.0 -1.324389858384e-03 
-1.521392000938e-03 2.912474066464e-04 0.0 
2.912474066464e-04 4.940937614450e-03 0.0 
0.0 0.0 -7.294542769151e-04 
-1.503978704987e-03 1.473877310897e-03 0.0 
1.473877310897e-03 8.344062810088e-03 0.0 
0.0 0.0 -1.261418349269e-03 
-5.327298325037e-04 3.575837178235e-04 0.0 
3.575837178235e-04 3.642687559217e-03 0.0 
0.0 0.0 -1.231858344535e-03 
-1.518533849991e-03 1.071472041001e-04 0.0 
1.071472041001e-04 4.942575461076e-03 0.0 
0.0 0.0 -7.289279708929e-04 
0.0 0.0 0.0 
0.0 0.0 0.0 
0.0 0.0 0.0 
-1.422405127371e-03 1.531540875437e-04 0.0 
1.531540875437e-04 8.427070743481e-03 0.0 
0.0 0.0 -1.284140717545e-03 
-3.551011727049e-04 -7.009671051649e-04 0.0 
-7.009671051649e-04 1.319322733909e-03 0.0 
0.0 0.0 -3.479328688591e-04 
-1.509662464093e-03 1.187111297047e-03 0.0 
1.187111297047e-03 8.089981201651e-03 0.0 
0.0 0.0 -1.232184317627e-03 
-1.343095105526e-03 -1.540983607491e-03 0.0 
-1.540983607491e-03 6.702452530061e-03 0.0 
0.0 0.0 -1.343095105526e-03 
-1.554707611052e-03 2.562602135152e-03 0.0 
2.562602135152e-03 7.111310188225e-03 0.0 
0.0 0.0 -1.225700354592e-03 
2.173759747286e-03 -1.419935824116e-03 0.0 
-1.419935824116e-03 -1.114841162711e-03 0.0 
0.0 0.0 -4.538222505322e-04 
-1.741082427331e-03 1.054953553281e-03 0.0 
1.054953553281e-03 5.737463170789e-03 0.0 
0.0 0.0 -8.279144014868e-04 
-1.224194647146e-03 -9.467109309958e-04 0.0 
-9.467109309958e-04 3.877522353974e-03 0.0 
0.0 0.0 -9.630043323905e-04 
6.517046530341e-05 2.327281681424e-03 0.0 
2.327281681424e-03 2.984838930141e-03 0.0 
0.0 0.0 -1.077599360682e-03 
-1.012701747737e-03 1.623436123670e-03 0.0 
1.623436123670e-03 5.329514602195e-03 0.0 
0.0 0.0 -1.326997735404e-03 
-1.585109039191e-03 2.780588406276e-04 0.0 
2.780588406276e-04 7.347999637207e-03 0.0 
0.0 0.0 -1.061614915164e-03 
-1.008710860855e-03 1.312542642731e-03 0.0 
1.312542642731e-03 5.209194240256e-03 0.0 
0.0 0.0 -1.325870641008e-03 
3.673422327950e-04 -3.776124720398e-04 0.0 
-3.776124720398e-04 -3.673422327950e-04 0.0 
0.0 0.0 0.0 
-1.430003464036e-03 -1.969193470792e-03 0.0 
-1.969193470792e-03 6.388366935774e-03 0.0 
0.0 0.0 -1.277656510522e-03 
2.370305391374e-03 -2.562363361486e-03 0.0 
-2.562363361486e-03 -6.166549384612e-04 0.0 
0.0 0.0 -7.515644798196e-04 
-3.100324176095e-04 -2.408320728402e-04 0.0 
-2.408320728402e-04 1.151728361162e-03 0.0 
0.0 0.0 -2.782378078114e-04 
-7.322007537650e-04 -9.555468943118e-04 0.0 
-9.555468943118e-04 4.734669521016e-03 0.0 
0.0 0.0 -1.270335377537e-03 
-1.575122942683e-03 2.171152972729e-03 0.0 
2.171152972729e-03 8.127111917130e-03 0.0 
0.0 0.0 -1.270603359501e-03 
-1.496692965649e-03 1.319095711312e-03 0.0 
1.319095711312e-03 8.369617950368e-03 0.0 
0.0 0.0 -1.289850838753e-03 
-1.498527200318e-03 3.689228571039e-04 0.0 
3.689228571039e-04 5.398355138859e-03 0.0 
0.0 0.0 -7.762633204683e-04 
-1.744558354744e-03 1.631310676350e-03 0.0 
1.631310676350e-03 5.391746306119e-03 0.0 
0.0 0.0 -8.489529362435e-04 
7.301121496963e-04 2.437654514774e-03 0.0 
2.437654514774e-03 5.848010967936e-04 0.0 
0.0 0.0 -5.635342484957e-04 
-1.427601509624e-03 3.175353375607e-03 0.0 
3.175353375607e-03 7.125136039489e-03 0.0 
0.0 0.0 -1.273041473476e-03 
-1.038080719471e-03 -6.334570087308e-04 0.0 
-6.334570087308e-04 3.329140480764e-03 0.0 
0.0 0.0 -8.764843149172e-04 
1.193441318594e-03 2.328942464463e-03 0.0 
2.328942464463e-03 3.040131158428e-05 0.0 
0.0 0.0 -5.245039843621e-04 
-2.118585962266e-05 2.523859735457e-03 0.0 
2.523859735457e-03 3.050030047244e-03 0.0 
0.0 0.0 -1.110141529071e-03 
-1.425138137322e-03 6.470798395339e-05 0.0 
6.470798395339e-05 5.179988142805e-03 0.0 
0.0 0.0 -7.096328662732e-04 
-1.517585115342e-03 2.260614719474e-03 0.0 
2.260614719474e-03 7.684999531697e-03 0.0 
0.0 0.0 -1.237729719596e-03 
-1.422593477448e-03 -1.670334611249e-04 0.0 
-1.670334611249e-04 8.888807101193e-03 0.0 
0.0 0.0 -1.321509982054e-03 
-1.343732204276e-03 1.010834953933e-04 0.0 
1.010834953933e-04 8.744729451207e-03 0.0 
0.0 0.0 -1.343732204276e-03 
3.369232126492e-03 1.693280559230e-04 0.0 
1.693280559230e-04 -1.155841201236e-03 0.0 
0.0 0.0 -6.603666768414e-05 
2.499766675984e-03 -2.952033461878e-04 0.0 
-2.952033461878e-04 -9.796559826583e-04 0.0 
0.0 0.0 -1.532902690118e-04 
-1.416942128620e-03 -1.624029676109e-04 0.0 
-1.624029676109e-04 5.054688992973e-03 0.0 
0.0 0.0 -7.318233512793e-04 
-1.419792893404e-03 3.183177604522e-05 0.0 
3.183177604522e-05 5.196638347434e-03 0.0 
0.0 0.0 -7.096011290571e-04 
-1.343732204276e-03 -2.406936037715e-04 0.0 
-2.406936037715e-04 7.113693032304e-03 0.0 
0.0 0.0 -1.343732204276e-03 
-1.562203585825e-03 1.305016391806e-04 0.0 
1.305016391806e-04 7.294302504235e-03 0.0 
0.0 0.0 -1.321509982054e-03 
2.262811037578e-03 -4.868403071367e-05 0.0 
-4.868403071367e-05 -4.447467837794e-04 0.0 
0.0 0.0 -2.434615908245e-04 
0.0 0.0 0.0 
0.0 0.0 0.0 
0.0 0.0 0.0 
-1.642313907969e-03 -1.143113511814e-03 0.0 
-1.143113511814e-03 6.403076283141e-03 0.0 
0.0 0.0 -1.230181737024e-03 
-7.148794360532e-04 3.164508669310e-03 0.0 
3.164508669310e-03 4.742447412984e-03 0.0 
0.0 0.0 -1.209364118140e-03 
-5.258157990741e-04 -7.879783393280e-04 0.0 
-7.879783393280e-04 1.688623542397e-03 0.0 
0.0 0.0 -3.144533898553e-04 
-1.351136438279e-03 -1.975186179308e-03 0.0 
-1.975186179308e-03 5.772523348463e-03 0.0 
0.0 0.0 -1.240191881334e-03 
-1.731554632553e-03 -2.342398403810e-04 0.0 
-2.342398403810e-04 5.123990276158e-03 0.0 
0.0 0.0 -1.081029080859e-03 
-1.535845139517e-03 -3.312382585291e-04 0.0 
-3.312382585291e-04 4.629162629476e-03 0.0 
0.0 0.0 -1.039595904837e-03 
-1.612928706957e-03 3.113730006726e-04 0.0 
3.113730006726e-04 6.721792739589e-03 0.0 
0.0 0.0 -9.400782610458e-04 
1.101421061084e-03 -2.909512193680e-03 0.0 
-2.909512193680e-03 4.457906368086e-04 0.0 
0.0 0.0 -6.630907276683e-04 
3.131506035800e-04 2.556520147165e-03 0.0 
2.556520147165e-03 2.414585707981e-03 0.0 
0.0 0.0 -1.011657465016e-03 
-1.177300482134e-05 -1.092061392265e-03 0.0 
-1.092061392265e-03 1.284900459222e-03 0.0 
0.0 0.0 -3.097963217911e-04 
-1.220126007134e-03 -1.262020264430e-03 0.0 
-1.262020264430e-03 3.977099482089e-03 0.0 
0.0 0.0 -1.029451436826e-03 
-1.346849968967e-03 3.153673073291e-03 0.0 
3.153673073291e-03 6.593026306646e-03 0.0 
0.0 0.0 -1.240519096027e-03 
-1.527894889398e-03 -1.936018657920e-04 0.0 
-1.936018657920e-04 8.104261702945e-03 0.0 
0.0 0.0 -1.191726112421e-03 
-1.479396360357e-03 -2.989971596189e-04 0.0 
-2.989971596189e-04 4.503238817139e-03 0.0 
0.0 0.0 -1.046336039097e-03 
-1.560842421660e-03 -8.540456832086e-05 0.0 
-8.540456832086e-05 6.232717148515e-03 0.0 
0.0 0.0 -8.745659502648e-04 
-9.955423334814e-04 3.339003162247e-03 0.0 
3.339003162247e-03 5.559555520798e-03 0.0 
0.0 0.0 -1.217119345309e-03 
-1.351529115626e-03 2.876362203055e-03 0.0 
2.876362203055e-03 5.976398005188e-03 0.0 
0.0 0.0 -1.140944809983e-03 
-1.341013158963e-03 2.862888668155e-03 0.0 
2.862888668155e-03 5.603065071307e-03 0.0 
0.0 0.0 -1.076426999079e-03 
-1.492882998354e-03 1.325735461083e-04 0.0 
1.325735461083e-04 4.933841446090e-03 0.0 
0.0 0.0 -7.312123441678e-04 
6.172998628868e-04 2.362607397547e-03 0.0 
2.362607397547e-03 1.812787626421e-03 0.0 
0.0 0.0 -9.763781674015e-04 
-1.502422605285e-03 2.514513612527e-03 0.0 
2.514513612527e-03 7.380594194812e-03 0.0 
0.0 0.0 -1.231404929774e-03 
-8.003792871297e-04 -5.108965880218e-04 0.0 
-5.108965880218e-04 2.603757424793e-03 0.0 
0.0 0.0 -7.107894383394e-04 
1.779720377328e-04 -1.298870854502e-03 0.0 
-1.298870854502e-03 4.337348693579e-04 0.0 
0.0 0.0 -1.164291272224e-04 
-9.970216092610e-04 3.010797291644e-03 0.0 
3.010797291644e-03 5.249606407737e-03 0.0 
0.0 0.0 -1.185975225609e-03 
2.191734593223e-04 5.610847358595e-04 0.0 
5.610847358595e-04 2.599656196276e-03 0.0 
0.0 0.0 -1.123538223191e-03 
1.172927684885e-03 -2.889497196016e-03 0.0 
-2.889497196016e-03 3.300442381492e-04 0.0 
0.0 0.0 -6.441308241577e-04 
-1.607945126080e-03 -1.740082688204e-05 0.0 
-1.740082688204e-05 7.004832338719e-03 0.0 
0.0 0.0 -9.893338170986e-04 
-1.512467681835e-03 -1.269144618606e-03 0.0 
-1.269144618606e-03 6.614649124568e-03 0.0 
0.0 0.0 -1.282739585886e-03 
-7.843923001707e-04 3.075094105696e-03 0.0 
3.075094105696e-03 4.595487038338e-03 0.0 
0.0 0.0 -1.182073443778e-03 
-8.715817867822e-04 3.121670101447e-03 0.0 
3.121670101447e-03 5.293578095492e-03 0.0 
0.0 0.0 -1.215129606110e-03 
-1.899421587696e-03 -4.002758172017e-04 0.0 
-4.002758172017e-04 5.518204821451e-03 0.0 
0.0 0.0 -1.079026350805e-03 
0.0 0.0 0.0 
0.0 0.0 0.0 
0.0 0.0 0.0 
-4.777114925537e-05 1.704067356774e-03 0.0 
1.704067356774e-03 1.178107469511e-03 0.0 
0.0 0.0 -4.844298515380e-04 
4.263341666864e-04 2.474607686413e-03 0.0 
2.474607686413e-03 9.338852604604e-04 0.0 
0.0 0.0 -5.829511830629e-04 
-1.721178049984e-03 1.085378291777e-03 0.0 
1.085378291777e-03 5.473315709064e-03 0.0 
0.0 0.0 -8.471429939415e-04 
4.228609678746e-04 3.021260051708e-03 0.0 
3.021260051708e-03 1.732467119469e-03 0.0 
0.0 0.0 -9.237120374330e-04 
-1.533799557255e-03 6.728038073689e-04 0.0 
6.728038073689e-04 8.237501439824e-03 0.0 
0.0 0.0 -1.236541257690e-03 
-8.719226860915e-04 7.267313533335e-04 0.0 
7.267313533335e-04 4.230245890387e-03 0.0 
0.0 0.0 -1.282325209426e-03 
2.964520960670e-04 -1.978928276592e-03 0.0 
-1.978928276592e-03 8.042557840210e-04 0.0 
0.0 0.0 -4.717319486092e-04 
1.319048487483e-04 -1.576566321261e-03 0.0 
-1.576566321261e-03 7.886992305850e-04 0.0 
0.0 0.0 -3.945446054286e-04 
1.817673251283e-04 1.876543985894e-03 0.0 
1.876543985894e-03 9.002005847285e-04 0.0 
0.0 0.0 -4.637005327958e-04 
-1.570049742763e-03 5.369425789645e-04 0.0 
5.369425789645e-04 6.963270594615e-03 0.0 
0.0 0.0 -1.019242131223e-03 
-9.308723645065e-04 -1.101236884891e-03 0.0 
-1.101236884891e-03 3.096386949501e-03 0.0 
0.0 0.0 -8.257845680531e-04 
-1.587305306336e-03 1.706805244546e-03 0.0 
1.706805244546e-03 7.938189703079e-03 0.0 
0.0 0.0 -1.241298427557e-03 
-4.566804084497e-04 -4.114264182866e-04 0.0 
-4.114264182866e-04 1.625098335496e-03 0.0 
0.0 0.0 -2.728146851408e-04 
-4.193612778590e-04 8.066391699243e-04 0.0 
8.066391699243e-04 3.619638834416e-03 0.0 
0.0 0.0 -1.221152601860e-03 
-1.613149922033e-03 6.729604599103e-04 0.0 
6.729604599103e-04 5.730913827298e-03 0.0 
0.0 0.0 -8.343732341398e-04 
-9.805029045404e-04 2.320290812643e-03 0.0 
2.320290812643e-03 4.821535310315e-03 0.0 
0.0 0.0 -1.286815605725e-03 
-1.972178768770e-04 2.471490219589e-03 0.0 
2.471490219589e-03 3.599121568157e-03 0.0 
0.0 0.0 -1.111121968474e-03 
-1.760642934702e-03 1.153303269584e-03 0.0 
1.153303269584e-03 5.427908306702e-03 0.0 
0.0 0.0 -8.465141837044e-04 
-8.764965121591e-04 -1.556039561585e-03 0.0 
-1.556039561585e-03 5.086777567782e-03 0.0 
0.0 0.0 -1.269142588751e-03 
-1.551933899349e-03 2.142615053803e-03 0.0 
2.142615053803e-03 8.208999000424e-03 0.0 
0.0 0.0 -1.272727265576e-03 
-1.482418812719e-03 2.636741981307e-04 0.0 
2.636741981307e-04 8.672320582664e-03 0.0 
0.0 0.0 -1.271339345674e-03 
2.794840770511e-04 1.877110949586e-03 0.0 
1.877110949586e-03 7.644572491491e-04 0.0 
0.0 0.0 -4.474034255144e-04 
-1.548384254494e-03 1.778472603870e-03 0.0 
1.778472603870e-03 7.853183226648e-03 0.0 
0.0 0.0 -1.218309553141e-03 
-1.238984078820e-03 3.237221125149e-03 0.0 
3.237221125149e-03 5.979697278194e-03 0.0 
0.0 0.0 -1.286645293131e-03 
-2.338452424878e-04 4.838955254747e-04 0.0 
4.838955254747e-04 3.810277403162e-03 0.0 
0.0 0.0 -1.211735819529e-03 
-2.641749654371e-04 2.730651329854e-03 0.0 
2.730651329854e-03 3.539043083142e-03 0.0 
0.0 0.0 -1.143254064081e-03 
-1.342665167303e-03 -1.913201158816e-03 0.0 
-1.913201158816e-03 6.140194887135e-03 0.0 
0.0 0.0 -1.342665167303e-03 
-1.336562494305e-03 3.148621666370e-03 0.0 
3.148621666370e-03 5.546558025077e-03 0.0 
0.0 0.0 -1.079065255302e-03 
0.0 0.0 0.0 
0.0 0.0 0.0 
0.0 0.0 0.0 
1.128782554056e-03 2.722430850094e-03 0.0 
2.722430850094e-03 3.671628183846e-04 0.0 
0.0 0.0 -6.411194453319e-04 
-1.438782275937e-03 2.878593628370e-03 0.0 
2.878593628370e-03 6.406037302073e-03 0.0 
0.0 0.0 -1.176936364471e-03 
-1.717609899646e-03 1.241798828460e-03 0.0 
1.241798828460e-03 5.908300544731e-03 0.0 
0.0 0.0 -8.884613587993e-04 
-1.780913372705e-03 -9.535977727778e-04 0.0 
-9.535977727778e-04 6.697114639858e-03 0.0 
0.0 0.0 -1.221994126432e-03 
-4.533386727007e-04 2.366129578243e-03 0.0 
2.366129578243e-03 4.141621556580e-03 0.0 
0.0 0.0 -1.177009544428e-03 
-1.321487320261e-03 -1.869174225829e-03 0.0 
-1.869174225829e-03 5.949052928407e-03 0.0 
0.0 0.0 -1.292249833993e-03 
-1.557982079132e-03 5.560473992337e-04 0.0 
5.560473992337e-04 7.430714466144e-03 0.0 
0.0 0.0 -1.085521458831e-03 
-9.906508321286e-04 2.010874064209e-03 0.0 
2.010874064209e-03 4.656220140669e-03 0.0 
0.0 0.0 -1.288973456333e-03 
-8.669493969727e-04 -1.781456295850e-03 0.0 
-1.781456295850e-03 4.656567585957e-03 0.0 
0.0 0.0 -1.233322439334e-03 
-8.389834207113e-04 -1.353105162080e-03 0.0 
-1.353105162080e-03 4.612963758963e-03 0.0 
0.0 0.0 -1.235043566395e-03 
-1.060688043098e-03 -7.830630523890e-04 0.0 
-7.830630523890e-04 3.332470677800e-03 0.0 
0.0 0.0 -8.113697483009e-04 
-1.399514092732e-03 -1.981208132211e-03 0.0 
-1.981208132211e-03 6.677395424695e-03 0.0 
0.0 0.0 -1.325641941534e-03 
-1.659266455691e-03 6.538953700681e-04 0.0 
6.538953700681e-04 5.459969626810e-03 0.0 
0.0 0.0 -7.662153309038e-04 
-1.522339522893e-03 2.785636433653e-04 0.0 
2.785636433653e-04 8.220976080768e-03 0.0 
0.0 0.0 -1.217406395242e-03 
2.069000998586e-04 -1.834555044401e-03 0.0 
-1.834555044401e-03 8.418202147660e-04 0.0 
0.0 0.0 -4.494515634106e-04 
-1.554320641115e-03 9.540049576088e-05 0.0 
9.540049576088e-05 8.023345832809e-03 0.0 
0.0 0.0 -1.163202487293e-03 
-1.605625159736e-03 1.859754007895e-04 0.0 
1.859754007895e-04 7.063048343461e-03 0.0 
0.0 0.0 -9.926133712568e-04 
1.071864880333e-03 1.610051896133e-04 0.0 
1.610051896133e-04 5.200375252643e-04 0.0 
0.0 0.0 -3.474471837849e-04 
1.832184275694e-03 -1.682280732148e-03 0.0 
-1.682280732148e-03 -1.155510517394e-03 0.0 
0.0 0.0 -2.900030392716e-04 
-1.244256880666e-03 3.271621003319e-03 0.0 
3.271621003319e-03 5.486132487448e-03 0.0 
0.0 0.0 -1.107581195644e-03 
-1.451044372397e-03 1.126612148562e-03 0.0 
1.126612148562e-03 8.289352558878e-03 0.0 
0.0 0.0 -1.285368862661e-03 
-1.527299749628e-03 6.691441746447e-05 0.0 
6.691441746447e-05 8.328526928916e-03 0.0 
0.0 0.0 -1.223917301752e-03 
-6.542601835067e-04 2.123935983625e-03 0.0 
2.123935983625e-03 4.536265029875e-03 0.0 
0.0 0.0 -1.264779455601e-03 
-1.569067467187e-03 4.931081965661e-04 0.0 
4.931081965661e-04 6.107235089411e-03 0.0 
0.0 0.0 -8.807565902733e-04 
9.036251718301e-04 -7.928332989266e-04 0.0 
-7.928332989266e-04 8.196583140466e-05 0.0 
0.0 0.0 -1.521090440113e-04 
0.0 0.0 0.0 
0.0 0.0 0.0 
0.0 0.0 0.0 
1.535104090838e-04 -8.781412906566e-04 0.0 
-8.781412906566e-04 3.080308650687e-04 0.0 
0.0 0.0 -1.564070233212e-04 
2.353484151011e-04 -2.169776398881e-03 0.0 
-2.169776398881e-03 1.011611602068e-03 0.0 
0.0 0.0 -5.344114359296e-04 
0.0 0.0 0.0 
0.0 0.0 0.0 
0.0 0.0 0.0 
-1.313634282752e-03 -1.068658817985e-03 0.0 
-1.068658817985e-03 4.125079470398e-03 0.0 
0.0 0.0 -9.906016899089e-04 
-1.765538454854e-03 -6.603659762189e-04 0.0 
-6.603659762189e-04 6.689629757519e-03 0.0 
0.0 0.0 -1.222305993939e-03 
-1.487013992754e-03 2.874720261212e-03 0.0 
2.874720261212e-03 7.173251573241e-03 0.0 
0.0 0.0 -1.222833113937e-03 
-1.810465878115e-03 1.368618358307e-03 0.0 
1.368618358307e-03 5.754603684206e-03 0.0 
0.0 0.0 -8.826313165011e-04 
-9.427899726930e-04 -1.641697169279e-03 0.0 
-1.641697169279e-03 3.388954329502e-03 0.0 
0.0 0.0 -9.886704355714e-04 
-1.052300381815e-03 -2.069501750766e-03 0.0 
-2.069501750766e-03 5.090082794775e-03 0.0 
0.0 0.0 -1.221067908166e-03 
-3.450149565899e-04 -4.408348736528e-04 0.0 
-4.408348736528e-04 3.924699322023e-03 0.0 
0.0 0.0 -1.208702654310e-03 
-8.170914780341e-04 2.664423274710e-03 0.0 
2.664423274710e-03 5.146096323449e-03 0.0 
0.0 0.0 -1.272252409145e-03 
-1.123992376730e-03 3.068252591852e-03 0.0 
3.068252591852e-03 5.507273388894e-03 0.0 
0.0 0.0 -1.237422270938e-03 
-1.253834785736e-03 3.291285599942e-03 0.0 
3.291285599942e-03 5.877546624236e-03 0.0 
0.0 0.0 -1.171232062679e-03 
5.704301253037e-05 -1.249012332624e-03 0.0 
-1.249012332624e-03 7.024151054082e-04 0.0 
0.0 0.0 -3.254820505451e-04 
0.0 0.0 0.0 
0.0 0.0 0.0 
0.0 0.0 0.0 
-1.712539485778e-03 -1.411450056388e-03 0.0 
-1.411450056388e-03 6.539673002672e-03 0.0 
0.0 0.0 -1.223662873675e-03 
4.574946163465e-04 -1.248756071680e-04 0.0 
-1.248756071680e-04 4.764925333501e-04 0.0 
0.0 0.0 -3.004112795925e-04 
4.253951230566e-04 3.287859358848e-05 0.0 
3.287859358848e-05 7.852927410903e-04 0.0 
0.0 0.0 -3.059539021820e-04 
3.569372191111e-04 1.397839525162e-03 0.0 
1.397839525162e-03 1.545362028711e-04 0.0 
0.0 0.0 -2.192028951352e-04 
1.631271963867e-04 -1.346040378322e-03 0.0 
-1.346040378322e-03 7.094587977712e-04 0.0 
0.0 0.0 -2.452105594499e-04 
-1.114394941751e-03 -1.506329218264e-03 0.0 
-1.506329218264e-03 4.944157592562e-03 0.0 
0.0 0.0 -1.288571152055e-03 
-1.352715823829e-03 3.152231925611e-03 0.0 
3.152231925611e-03 6.563761337094e-03 0.0 
0.0 0.0 -1.290113636706e-03 
-1.510579169811e-03 9.854603377599e-04 0.0 
9.854603377599e-04 8.241359475843e-03 0.0 
0.0 0.0 -1.236907757659e-03 
-1.086519748050e-03 2.592005204986e-03 0.0 
2.592005204986e-03 5.044458595201e-03 0.0 
0.0 0.0 -1.292605224168e-03 
-2.276922230483e-04 -7.087333384445e-04 0.0 
-7.087333384445e-04 3.411401019740e-03 0.0 
0.0 0.0 -1.176879138244e-03 
-1.566246162816e-03 5.074519573883e-04 0.0 
5.074519573883e-04 6.374166084480e-03 0.0 
0.0 0.0 -9.170130443517e-04 
-1.345069444888e-03 1.513726926191e-03 0.0 
1.513726926191e-03 8.492915807412e-03 0.0 
0.0 0.0 -1.345069444888e-03 
1.877003485193e-03 -3.080309129991e-03 0.0 
-3.080309129991e-03 -5.962554255729e-04 0.0 
0.0 0.0 -5.488920255517e-04 
-1.475350828104e-03 1.976985984706e-04 0.0 
1.976985984706e-04 5.152730599786e-03 0.0 
0.0 0.0 -7.083073883397e-04 
7.042658253586e-04 -2.920094682842e-03 0.0 
-2.920094682842e-03 7.774626018425e-04 0.0 
0.0 0.0 -6.350264688005e-04 
7.675081391674e-04 -5.290525383807e-04 0.0 
-5.290525383807e-04 -3.861513785839e-05 0.0 
0.0 0.0 -2.518608130650e-04 
-1.493015975364e-03 -1.542117778823e-03 0.0 
-1.542117778823e-03 7.001843856808e-03 0.0 
0.0 0.0 -1.323850096553e-03 
-1.762927026530e-03 1.105745086140e-03 0.0 
1.105745086140e-03 5.347670343178e-03 0.0 
0.0 0.0 -7.731261162940e-04 
3.059071642176e-04 -4.769524246547e-04 0.0 
-4.769524246547e-04 1.116375202047e-03 0.0 
0.0 0.0 -3.136165521777e-04 
-1.289952526759e-03 -6.554530809443e-04 0.0 
-6.554530809443e-04 4.022238421528e-03 0.0 
0.0 0.0 -9.854929843998e-04 
-1.353447502636e-03 3.372255620603e-03 0.0 
3.372255620603e-03 6.903608554072e-03 0.0 
0.0 0.0 -1.276804206569e-03 
-1.580153705301e-03 9.463034913401e-04 0.0 
9.463034913401e-04 8.179177676168e-03 0.0 
0.0 0.0 -1.228616961883e-03 
-1.459295938370e-03 2.235750315535e-03 0.0 
2.235750315535e-03 7.840317348904e-03 0.0 
0.0 0.0 -1.289666537713e-03 
-1.042366719392e-03 -4.130279661277e-04 0.0 
-4.130279661277e-04 3.166645294064e-03 0.0 
0.0 0.0 -7.209785830746e-04 
0.0 0.0 0.0 
0.0 0.0 0.0 
0.0 0.0 0.0 
-1.330660736049e-03 -2.112854558462e-03 0.0 
-2.112854558462e-03 6.026587435622e-03 0.0 
0.0 0.0 -1.273144391159e-03 
-1.420679226607e-03 1.845062484055e-04 0.0 
1.845062484055e-04 8.984274218415e-03 0.0 
0.0 0.0 -1.325353038101e-03 
-1.599270300318e-03 -4.031472723049e-04 0.0 
-4.031472723049e-04 7.370420628954e-03 0.0 
0.0 0.0 -1.323783523096e-03 
-1.454892267765e-03 1.410388417337e-04 0.0 
1.410388417337e-04 5.404570969644e-03 0.0 
0.0 0.0 -7.673431308700e-04 
-5.798667066363e-04 -4.017993081382e-04 0.0 
-4.017993081382e-04 3.786051546347e-03 0.0 
0.0 0.0 -1.231867668451e-03 
-2.703199839151e-04 -3.327091265360e-04 0.0 
-3.327091265360e-04 1.134795808800e-03 0.0 
0.0 0.0 -2.923189298614e-04 
-1.540435464510e-03 1.974801601423e-03 0.0 
1.974801601423e-03 7.945053936292e-03 0.0 
0.0 0.0 -1.241575510934e-03 
7.093719106213e-04 -6.473525039570e-04 0.0 
-6.473525039570e-04 -6.146240833120e-06 0.0 
0.0 0.0 -2.201278046225e-04 
-1.035309467580e-03 -9.652751717972e-04 0.0 
-9.652751717972e-04 4.607784315543e-03 0.0 
0.0 0.0 -1.290713494763e-03 
-1.546892534215e-03 2.536580836788e-03 0.0 
2.536580836788e-03 7.963102419275e-03 0.0 
0.0 0.0 -1.268585396830e-03 
0.0 0.0 0.0 
0.0 0.0 0.0 
0.0 0.0 0.0 
-7.125328406643e-04 2.854381537959e-03 0.0 
2.854381537959e-03 4.690081759982e-03 0.0 
0.0 0.0 -1.178018281593e-03 
-1.581615712652e-03 6.406846432010e-05 0.0 
6.406846432010e-05 7.204958832163e-03 0.0 
0.0 0.0 -1.053859681778e-03 
-1.422126824857e-03 8.354035890497e-04 0.0 
8.354035890497e-04 8.383690559568e-03 0.0 
0.0 0.0 -1.289687241943e-03 
-1.346242744377e-03 1.394088556631e-03 0.0 
1.394088556631e-03 5.074174046536e-03 0.0 
0.0 0.0 -1.346242744377e-03 
-1.579226085277e-03 -2.236352472968e-04 0.0 
-2.236352472968e-04 6.673772320033e-03 0.0 
0.0 0.0 -9.627310317561e-04 
-1.352695242601e-03 3.190608641684e-03 0.0 
3.190608641684e-03 6.804006829943e-03 0.0 
0.0 0.0 -1.292510612804e-03 
-1.606507542629e-03 2.038310361331e-03 0.0 
2.038310361331e-03 7.743565210436e-03 0.0 
0.0 0.0 -1.236507170568e-03 
-1.568883613753e-03 1.757297800362e-04 0.0 
1.757297800362e-04 6.816128580048e-03 0.0 
0.0 0.0 -1.009625451247e-03 
-1.338198193755e-03 3.094920805743e-03 0.0 
3.094920805743e-03 6.452958212167e-03 0.0 
0.0 0.0 -1.247605899893e-03 
-1.069270980668e-03 -8.397930297141e-04 0.0 
-8.397930297141e-04 3.454365731416e-03 0.0 
0.0 0.0 -9.078723690805e-04 
-1.462959848022e-03 3.355807606363e-05 0.0 
3.355807606363e-05 4.925884328863e-03 0.0 
0.0 0.0 -7.287847301676e-04 
-7.853622933110e-04 2.799478897718e-03 0.0 
2.799478897718e-03 4.730479437110e-03 0.0 
0.0 0.0 -1.239219007812e-03 
-1.427801408329e-03 2.279610176079e-04 0.0 
2.279610176079e-04 8.599854493521e-03 0.0 
0.0 0.0 -1.286506427510e-03 
2.364174244584e-03 -3.920966346370e-05 0.0 
-3.920966346370e-05 -9.416422440926e-04 0.0 
0.0 0.0 -1.658991634594e-04 
-1.429614866782e-03 7.018012440351e-05 0.0 
7.018012440351e-05 4.945453144079e-03 0.0 
0.0 0.0 -7.284590636140e-04 
-1.619941162379e-03 -3.710140945832e-04 0.0 
-3.710140945832e-04 7.072586371596e-03 0.0 
0.0 0.0 -1.288082484959e-03 
-4.257310582937e-04 -7.375837559217e-04 0.0 
-7.375837559217e-04 1.550072552707e-03 0.0 
0.0 0.0 -4.679105978332e-04 
-2.651775118790e-04 1.741696615314e-04 0.0 
1.741696615314e-04 3.934086569527e-03 0.0 
0.0 0.0 -1.213252366005e-03 
-1.592381110183e-03 2.367463417435e-03 0.0 
2.367463417435e-03 7.496929060090e-03 0.0 
0.0 0.0 -1.225943235494e-03 
-1.523630465134e-03 6.434168762766e-04 0.0 
6.434168762766e-04 8.597347826225e-03 0.0 
0.0 0.0 -1.269037835114e-03 
-5.242932188711e-04 -5.062352980044e-04 0.0 
-5.062352980044e-04 1.580681758625e-03 0.0 
0.0 0.0 -3.173190315717e-04 
9.435665947915e-04 2.759812172338e-03 0.0 
2.759812172338e-03 -2.448701844830e-04 0.0 
0.0 0.0 -2.994413187036e-04 
-1.588603004087e-03 1.309858719882e-04 0.0 
1.309858719882e-04 4.764403352260e-03 0.0 
0.0 0.0 -1.056762885644e-03 
-1.577119311605e-03 2.587547752196e-04 0.0 
2.587547752196e-04 7.701946830658e-03 0.0 
0.0 0.0 -1.120841203304e-03 
0.0 0.0 0.0 
0.0 0.0 0.0 
0.0 0.0 0.0 
-1.448426484907e-03 1.878765382125e-03 0.0 
1.878765382125e-03 8.065670326291e-03 0.0 
0.0 0.0 -1.292233508669e-03 
-1.560868544091e-03 1.573692905966e-04 0.0 
1.573692905966e-04 6.444251121821e-03 0.0 
0.0 0.0 -9.501928138396e-04 
9.548640501235e-04 -2.932790788742e-03 0.0 
-2.932790788742e-03 4.477362362625e-04 0.0 
0.0 0.0 -6.011144084511e-04 
-1.577095330701e-03 2.356135282763e-04 0.0 
2.356135282763e-04 6.152695530289e-03 0.0 
0.0 0.0 -9.030544305944e-04 
-9.123359041244e-04 2.767752077309e-03 0.0 
2.767752077309e-03 5.381455446983e-03 0.0 
0.0 0.0 -1.271643562581e-03 
-1.672772992247e-03 -3.658378199310e-04 0.0 
-3.658378199310e-04 4.968645958279e-03 0.0 
0.0 0.0 -1.058796759180e-03 
-1.439069224973e-04 1.165182075804e-03 0.0 
1.165182075804e-03 1.439069224973e-04 0.0 
0.0 0.0 0.0 
-9.352736057356e-04 -8.421943932676e-04 0.0 
-8.421943932676e-04 3.140704490616e-03 0.0 
0.0 0.0 -9.009998304000e-04 
-1.402484368002e-03 -1.042823096176e-03 0.0 
-1.042823096176e-03 4.352884265014e-03 0.0 
0.0 0.0 -1.017945853013e-03 
-1.735012846972e-03 1.716303062956e-04 0.0 
1.716303062956e-04 5.112807218002e-03 0.0 
0.0 0.0 -1.063010248388e-03 
-5.677318458841e-04 1.906245464939e-03 0.0 
1.906245464939e-03 4.337997414081e-03 0.0 
0.0 0.0 -1.232780192057e-03 
-1.357670205510e-03 -6.381368347671e-04 0.0 
-6.381368347671e-04 4.227863364473e-03 0.0 
0.0 0.0 -1.035743023508e-03 
-1.479273144233e-03 -6.656278634480e-04 0.0 
-6.656278634480e-04 4.508927527854e-03 0.0 
0.0 0.0 -1.032702936181e-03 
1.040523643933e-04 -1.090937755128e-03 0.0 
-1.090937755128e-03 5.650850241542e-04 0.0 
0.0 0.0 -2.287174616664e-04 
-1.350567245042e-03 -1.731169106789e-03 0.0 
-1.731169106789e-03 5.793216621325e-03 0.0 
0.0 0.0 -1.240629869904e-03 
-1.027503594671e-03 3.327843857872e-03 0.0 
3.327843857872e-03 5.261023074075e-03 0.0 
0.0 0.0 -1.186362110037e-03 
1.189612951575e-03 2.308398015229e-03 0.0 
2.308398015229e-03 -4.894900924091e-04 0.0 
0.0 0.0 -3.000526539282e-04 
-1.387676757457e-03 4.952672058335e-05 0.0 
4.952672058335e-05 8.504316401028e-03 0.0 
0.0 0.0 -1.290349483557e-03 
-1.582576424774e-03 -1.560547969950e-04 0.0 
-1.560547969950e-04 7.007946096611e-03 0.0 
0.0 0.0 -1.290356026000e-03 
-1.460183445125e-03 -1.247594329356e-04 0.0 
-1.247594329356e-04 5.521441348557e-03 0.0 
0.0 0.0 -7.639788432047e-04 
-1.578918019610e-03 1.294379469898e-04 0.0 
1.294379469898e-04 6.639288700401e-03 0.0 
0.0 0.0 -9.358343396975e-04 
-1.420511664925e-03 -7.103380260756e-04 0.0 
-7.103380260756e-04 4.349288440906e-03 0.0 
0.0 0.0 -1.005720210571e-03 
-1.359175063422e-03 -8.855188390870e-04 0.0 
-8.855188390870e-04 4.258136974865e-03 0.0 
0.0 0.0 -1.040482674164e-03 
-1.527056262754e-03 -5.709073839489e-04 0.0 
-5.709073839489e-04 4.609671028000e-03 0.0 
0.0 0.0 -1.028873814706e-03 
-1.501496450629e-04 5.539703397871e-04 0.0 
5.539703397871e-04 3.298271412421e-03 0.0 
0.0 0.0 -1.180929064624e-03 
7.927858436439e-04 -3.045537929079e-03 0.0 
-3.045537929079e-03 8.494276970912e-04 0.0 
0.0 0.0 -7.038058031722e-04 
-1.116381248406e-03 3.165697137737e-03 0.0 
3.165697137737e-03 5.872062490069e-03 0.0 
0.0 0.0 -1.217816617926e-03 
-1.516247589342e-03 1.508277039824e-04 0.0 
1.508277039824e-04 5.685216966324e-03 0.0 
0.0 0.0 -8.376728236383e-04 
-1.571303365585e-03 1.703335586913e-03 0.0 
1.703335586913e-03 8.300700874157e-03 0.0 
0.0 0.0 -1.272153791098e-03 
-1.928595014899e-04 9.704790717136e-05 0.0 
9.704790717136e-05 3.265405422004e-03 0.0 
0.0 0.0 -1.181257232468e-03 
-1.580055462922e-03 1.466056733213e-04 0.0 
1.466056733213e-04 6.354105997974e-03 0.0 
0.0 0.0 -8.902468719968e-04 
-1.338698042931e-03 3.178297097849e-03 0.0 
3.178297097849e-03 6.247787653213e-03 0.0 
0.0 0.0 -1.201032862555e-03 
-6.620052052400e-04 2.218466919512e-03 0.0 
2.218466919512e-03 4.229615591751e-03 0.0 
0.0 0.0 -1.236767197193e-03 
-7.541183664370e-04 2.280565164163e-03 0.0 
2.280565164163e-03 4.995952357256e-03 0.0 
0.0 0.0 -1.270271405117e-03 
1.293451072768e-04 1.010666469426e-03 0.0 
1.010666469426e-03 -1.293451072768e-04 0.0 
0.0 0.0 0.0 
-1.368734881355e-03 2.988428396573e-03 0.0 
2.988428396573e-03 6.291274088760e-03 0.0 
0.0 0.0 -1.198686027802e-03 
-1.300476394130e-03 3.433743793017e-03 0.0 
3.433743793017e-03 6.406654162985e-03 0.0 
0.0 0.0 -1.227078865044e-03 
7.248957313196e-04 -1.043101674158e-03 0.0 
-1.043101674158e-03 5.245352296454e-04 0.0 
0.0 0.0 -2.668574800815e-04 
-1.256459332456e-03 -8.842282026345e-04 0.0 
-8.842282026345e-04 4.000740750754e-03 0.0 
0.0 0.0 -1.019774149770e-03 
0.0 0.0 0.0 
0.0 0.0 0.0 
0.0 0.0 0.0 
-1.414281382184e-03 3.115423266543e-03 0.0 
3.115423266543e-03 6.751118296047e-03 0.0 
0.0 0.0 -1.230789928679e-03 
-2.295267985421e-04 -4.386320729786e-05 0.0 
-4.386320729786e-05 6.824472831937e-04 0.0 
0.0 0.0 -1.461819300928e-04 
-1.116309330554e-04 7.849614704405e-06 0.0 
7.849614704405e-06 3.721773969683e-04 0.0 
0.0 0.0 -1.116627702484e-04 
-2.973464284068e-04 -4.434235549996e-05 0.0 
-4.434235549996e-05 8.146888354853e-04 0.0 
0.0 0.0 -1.202913534963e-04 
-1.154471354694e-04 -5.172939290367e-05 0.0 
-5.172939290367e-05 3.879166957640e-04 0.0 
0.0 0.0 -1.167726686977e-04 
-3.033790767041e-04 -7.550490102270e-05 0.0 
-7.550490102270e-05 8.257018799991e-04 0.0 
0.0 0.0 -1.161361683110e-04 
-1.154497780104e-04 -7.421820284604e-05 0.0 
-7.421820284604e-05 3.911417008130e-04 0.0 
0.0 0.0 -1.181536812011e-04 
-2.920044760709e-04 -1.006836234346e-04 0.0 
-1.006836234346e-04 8.242250311429e-04 0.0 
0.0 0.0 -1.155555555556e-04 
-1.145257173118e-04 -9.222836093307e-05 0.0 
-9.222836093307e-05 3.914782723309e-04 0.0 
0.0 0.0 -1.186939521510e-04 
-2.734269063474e-04 -1.223460925774e-04 0.0 
-1.223460925774e-04 8.188166535855e-04 0.0 
0.0 0.0 -1.155555555556e-04 
-1.128439378614e-04 -1.096767398091e-04 0.0 
-1.096767398091e-04 3.899403745036e-04 0.0 
0.0 0.0 -1.187556157038e-04 
-2.502940150965e-04 -1.423762384879e-04 0.0 
-1.423762384879e-04 8.105464714135e-04 0.0 
0.0 0.0 -1.155555555556e-04 
-1.106357373058e-04 -1.271103346848e-04 0.0 
-1.271103346848e-04 3.874110808164e-04 0.0 
0.0 0.0 -1.186180043617e-04 
-2.223497893067e-04 -1.604267362806e-04 0.0 
-1.604267362806e-04 7.990964651067e-04 0.0 
0.0 0.0 -1.155555555556e-04 
-1.079856572841e-04 -1.444885626064e-04 0.0 
-1.444885626064e-04 3.841847591282e-04 0.0 
0.0 0.0 -1.183710436475e-04 
-1.861227372331e-04 -1.762010330361e-04 0.0 
-1.762010330361e-04 7.845409513226e-04 0.0 
0.0 0.0 -1.155555555556e-04 
-1.052842212357e-04 -1.632324445045e-04 0.0 
-1.632324445045e-04 3.819965541147e-04 0.0 
0.0 0.0 -1.185909998053e-04 
-1.452423508655e-04 -1.882121043921e-04 0.0 
-1.882121043921e-04 7.688911839004e-04 0.0 
0.0 0.0 -1.155555555556e-04 
-1.024446433001e-04 -1.822458957187e-04 0.0 
-1.822458957187e-04 3.802814098668e-04 0.0 
0.0 0.0 -1.190728999572e-04 
-1.011548918858e-04 -1.946165029548e-04 0.0 
-1.946165029548e-04 7.517242772962e-04 0.0 
0.0 0.0 -1.155555555556e-04 
-9.864250009621e-05 -2.003268374778e-04 0.0 
-2.003268374778e-04 3.760996321856e-04 0.0 
0.0 0.0 -1.189101994669e-04 
-4.004588729569e-05 -1.946381739076e-04 0.0 
-1.946381739076e-04 7.300973565981e-04 0.0 
0.0 0.0 -1.155555555556e-04 
-9.370913535490e-05 -2.216171520887e-04 0.0 
-2.216171520887e-04 3.708737866220e-04 0.0 
0.0 0.0 -1.187848505431e-04 
-3.846373656791e-06 1.001886964346e-03 0.0 
1.001886964346e-03 6.472295954014e-04 0.0 
0.0 0.0 -2.757356664620e-04 
2.289893977445e-05 -1.981916248802e-04 0.0 
-1.981916248802e-04 7.063401406621e-04 0.0 
0.0 0.0 -1.155555555556e-04 
-8.779181837580e-05 -2.457310956759e-04 0.0 
-2.457310956759e-04 3.653667723365e-04 0.0 
0.0 0.0 -1.189606945546e-04 
8.700739234811e-05 -2.019795201134e-04 0.0 
-2.019795201134e-04 6.816010476175e-04 0.0 
0.0 0.0 -1.155555555556e-04 
1.638394791837e-05 9.521030260962e-04 0.0 
9.521030260962e-04 5.791460916257e-04 0.0 
0.0 0.0 -2.552271598046e-04 
-8.108632930407e-05 -2.702613841105e-04 0.0 
-2.702613841105e-04 3.593197390093e-04 0.0 
0.0 0.0 -1.192428898737e-04 
1.518348518855e-04 -2.036151681896e-04 0.0 
-2.036151681896e-04 6.562995802065e-04 0.0 
0.0 0.0 -1.155555555556e-04 
-7.413491734353e-05 -2.921072077251e-04 0.0 
-2.921072077251e-04 3.525866658961e-04 0.0 
0.0 0.0 -1.193364636654e-04 
2.163119637496e-04 -2.009109763079e-04 0.0 
-2.009109763079e-04 6.307097874071e-04 0.0 
0.0 0.0 -1.155555555556e-04 
-6.803177496927e-05 -3.070571196433e-04 0.0 
-3.070571196433e-04 3.452794826598e-04 0.0 
0.0 0.0 -1.188204461531e-04 
5.635569867006e-05 1.057100552343e-03 0.0 
1.057100552343e-03 5.785040332820e-04 0.0 
0.0 0.0 -2.720827422652e-04 
2.787578980788e-04 -1.907539316622e-04 0.0 
-1.907539316622e-04 6.049915408001e-04 0.0 
0.0 0.0 -1.155555555556e-04 
-6.439089149572e-05 -3.092737702501e-04 0.0 
-3.092737702501e-04 3.374185543406e-04 0.0 
0.0 0.0 -1.170118555049e-04 
3.371939089763e-04 -1.692941236999e-04 0.0 
-1.692941236999e-04 5.792448572116e-04 0.0 
0.0 0.0 -1.155555555556e-04 
-6.482545398807e-05 -2.929224698331e-04 0.0 
-2.929224698331e-04 3.291970982952e-04 0.0 
0.0 0.0 -1.133021332745e-04 
3.889881273168e-04 -1.287164311399e-04 0.0 
-1.287164311399e-04 5.528253411075e-04 0.0 
0.0 0.0 -1.155555555556e-04 
-7.073056919242e-05 -2.487252700523e-04 0.0 
-2.487252700523e-04 3.202465727375e-04 0.0 
0.0 0.0 -1.069354300907e-04 
4.277759229804e-04 -5.231996502078e-05 0.0 
-5.231996502078e-05 5.244266365408e-04 0.0 
0.0 0.0 -1.155555555556e-04 
-8.134754341726e-05 -1.615885906605e-04 0.0 
-1.615885906605e-04 3.086659574880e-04 0.0 
0.0 0.0 -9.742217745888e-05 
4.442458718728e-04 7.379816260177e-05 0.0 
7.379816260177e-05 4.978508239998e-04 0.0 
0.0 0.0 -1.155555555556e-04 
-8.802812017768e-05 -3.146358541115e-05 0.0 
-3.146358541115e-05 2.949324541107e-04 0.0 
0.0 0.0 -8.867328597129e-05 
4.244427629073e-04 2.545124484731e-04 0.0 
2.545124484731e-04 4.855847202122e-04 0.0 
0.0 0.0 -1.155555555556e-04 
-8.010125935951e-05 9.233952178043e-05 0.0 
9.233952178043e-05 2.805756423184e-04 0.0 
0.0 0.0 -8.591759269666e-05 
1.595597079950e-05 1.227595863750e-03 0.0 
1.227595863750e-03 7.558321140103e-04 0.0 
0.0 0.0 -3.307663220613e-04 
-6.927120500074e-05 2.040334361338e-04 0.0 
2.040334361338e-04 2.932841817626e-04 0.0 
0.0 0.0 -9.600556146937e-05 
3.590795123597e-04 4.843620787254e-04 0.0 
4.843620787254e-04 4.901043928255e-04 0.0 
0.0 0.0 -1.155555555556e-04 
-6.275869197349e-05 3.192100051638e-04 0.0 
3.192100051638e-04 3.391052334330e-04 0.0 
0.0 0.0 -1.184342320541e-04 
2.396549807396e-04 7.593006197371e-04 0.0 
7.593006197371e-04 5.264421376526e-04 0.0 
0.0 0.0 -1.155555555556e-04 
-4.920226404040e-05 4.815164508385e-04 0.0 
4.815164508385e-04 4.059975123012e-04 0.0 
0.0 0.0 -1.529122492546e-04 
3.424252060556e-05 1.086379687035e-03 0.0 
1.086379687035e-03 5.976232341077e-04 0.0 
0.0 0.0 -1.155555555556e-04 
-4.813134293096e-06 7.480661281408e-04 0.0 
7.480661281408e-04 4.868210713766e-04 0.0 
0.0 0.0 -2.065748301787e-04 
1.663075343115e-05 1.114513822341e-03 0.0 
1.114513822341e-03 6.396000614345e-04 0.0 
0.0 0.0 -2.420724550914e-04 
4.326104345093e-05 1.213454097742e-03 0.0 
1.213454097742e-03 6.996553321202e-04 0.0 
0.0 0.0 -3.183927323876e-04 
-2.463770512099e-05 1.146082058073e-03 0.0 
1.146082058073e-03 7.791326252153e-04 0.0 
0.0 0.0 -3.233549657547e-04 
-1.991392284018e-04 -2.632936858693e-04 0.0 
-2.632936858693e-04 6.947779645619e-04 0.0 
0.0 0.0 -2.048072284006e-04 
-1.283732636798e-04 2.342919003887e-04 0.0 
2.342919003887e-04 4.788176031135e-04 0.0 
0.0 0.0 -1.501904311858e-04 
-1.913454122527e-04 -3.523484980121e-05 0.0 
-3.523484980121e-05 6.386901471519e-04 0.0 
0.0 0.0 -1.917191720997e-04 
-1.658446362532e-04 3.154024811191e-05 0.0 
3.154024811191e-05 5.443963737963e-04 0.0 
0.0 0.0 -1.569589080365e-04 
2.390184882806e-05 1.124392003039e-03 0.0 
1.124392003039e-03 6.764174691999e-04 0.0 
0.0 0.0 -3.001368505834e-04 
-3.716573485794e-04 -7.308086580746e-05 0.0 
-7.308086580746e-05 1.123679557872e-03 0.0 
0.0 0.0 -2.552892395041e-04 
-4.429898056613e-04 -1.499507040161e-06 0.0 
-1.499507040161e-06 1.336256189452e-03 0.0 
0.0 0.0 -1.822222222222e-04 
-2.878359977638e-04 -5.194463884500e-05 0.0 
-5.194463884500e-05 9.498596563893e-04 0.0 
0.0 0.0 -2.775159627411e-04 
-4.398393734989e-04 -1.185043080846e-04 0.0 
-1.185043080846e-04 1.322659454202e-03 0.0 
0.0 0.0 -1.822222222222e-04 
-2.829789325043e-04 -8.297130250857e-05 0.0 
-8.297130250857e-05 9.397706721473e-04 0.0 
0.0 0.0 -2.776119422606e-04 
-4.336702980756e-04 -1.653384621676e-04 0.0 
-1.653384621676e-04 1.319734396262e-03 0.0 
0.0 0.0 -1.822222222222e-04 
-2.827096919224e-04 -1.126011952365e-04 0.0 
-1.126011952365e-04 9.395392681461e-04 0.0 
0.0 0.0 -2.764327848408e-04 
-4.248996497787e-04 -2.024827324758e-04 0.0 
-2.024827324758e-04 1.316172738590e-03 0.0 
0.0 0.0 -1.822222222222e-04 
-2.823386530371e-04 -1.392454963216e-04 0.0 
-1.392454963216e-04 9.389737264907e-04 0.0 
0.0 0.0 -2.749086900475e-04 
-4.136924531575e-04 -2.350675990601e-04 0.0 
-2.350675990601e-04 1.310878321230e-03 0.0 
0.0 0.0 -1.822222222222e-04 
-2.816129401536e-04 -1.632497413587e-04 0.0 
-1.632497413587e-04 9.372929803555e-04 0.0 
0.0 0.0 -2.729404255995e-04 
-3.976857652183e-04 -2.652621478120e-04 0.0 
-2.652621478120e-04 1.303334294056e-03 0.0 
0.0 0.0 -1.822222222222e-04 
-2.803206707951e-04 -1.855581458460e-04 0.0 
-1.855581458460e-04 9.340637628811e-04 0.0 
0.0 0.0 -2.705856234763e-04 
-3.762923916513e-04 -2.955575148066e-04 0.0 
-2.955575148066e-04 1.294066213469e-03 0.0 
0.0 0.0 -1.822222222222e-04 
-2.787344111822e-04 -2.063226971631e-04 0.0 
-2.063226971631e-04 9.300647707320e-04 0.0 
0.0 0.0 -2.680300884472e-04 
-3.524733423667e-04 -3.242857553213e-04 0.0 
-3.242857553213e-04 1.284036341755e-03 0.0 
0.0 0.0 -1.822222222222e-04 
-2.773174491727e-04 -2.243826698792e-04 0.0 
-2.243826698792e-04 9.262601929332e-04 0.0 
0.0 0.0 -2.653613746712e-04 
-3.262227673129e-04 -3.491155030409e-04 0.0 
-3.491155030409e-04 1.273115495828e-03 0.0 
0.0 0.0 -1.822222222222e-04 
-2.758375031311e-04 -2.392217572740e-04 0.0 
-2.392217572740e-04 9.221568306150e-04 0.0 
0.0 0.0 -2.627686153381e-04 
-2.969957875683e-04 -3.713968991802e-04 0.0 
-3.713968991802e-04 1.261966627062e-03 0.0 
0.0 0.0 -1.822222222222e-04 
2.933981114106e-05 1.393003147103e-03 0.0 
1.393003147103e-03 8.379533607805e-04 0.0 
0.0 0.0 -3.716970736807e-04 
-2.749117239138e-04 -2.489613962881e-04 0.0 
-2.489613962881e-04 9.190565160033e-04 0.0 
0.0 0.0 -2.604757979997e-04 
-2.648221619599e-04 -3.867730635248e-04 0.0 
-3.867730635248e-04 1.249703151108e-03 0.0 
0.0 0.0 -1.822222222222e-04 
-2.733889901072e-04 -2.535979642310e-04 0.0 
-2.535979642310e-04 9.147766555041e-04 0.0 
0.0 0.0 -2.590275839856e-04 
9.160656140805e-05 1.470178607007e-03 0.0 
1.470178607007e-03 7.832578397036e-04 0.0 
0.0 0.0 -3.749418861907e-04 
-2.325789174517e-04 -3.968354129455e-04 0.0 
-3.968354129455e-04 1.236931628151e-03 0.0 
0.0 0.0 -1.822222222222e-04 
-2.714122958939e-04 -2.519241070870e-04 0.0 
-2.519241070870e-04 9.100053589880e-04 0.0 
0.0 0.0 -2.590023925297e-04 
9.401615303878e-06 1.240385540384e-03 0.0 
1.240385540384e-03 7.756669790078e-04 0.0 
0.0 0.0 -3.364579689907e-04 
-2.023805840735e-04 -3.997271712360e-04 0.0 
-3.997271712360e-04 1.224327816568e-03 0.0 
0.0 0.0 -1.822222222222e-04 
-2.689523676428e-04 -2.417328123169e-04 0.0 
-2.417328123169e-04 9.050420061807e-04 0.0 
0.0 0.0 -2.610672734790e-04 
-1.762691459807e-04 -3.925161595645e-04 0.0 
-3.925161595645e-04 1.212378122502e-03 0.0 
0.0 0.0 -1.822222222222e-04 
-2.656731751211e-04 -2.206447802709e-04 0.0 
-2.206447802709e-04 8.997416020046e-04 0.0 
0.0 0.0 -2.660354310065e-04 
-1.564230899666e-04 -3.711663474107e-04 0.0 
-3.711663474107e-04 1.200954737103e-03 0.0 
0.0 0.0 -1.822222222222e-04 
-2.624162379129e-04 -1.855229952353e-04 0.0 
-1.855229952353e-04 8.920019103165e-04 0.0 
0.0 0.0 -2.698224310301e-04 
-1.455060295773e-04 -3.296913227801e-04 0.0 
-3.296913227801e-04 1.189930993869e-03 0.0 
0.0 0.0 -1.822222222222e-04 
-2.603675667777e-04 -1.350322600225e-04 0.0 
-1.350322600225e-04 8.772091740842e-04 0.0 
0.0 0.0 -2.643606888456e-04 
-1.451367585993e-04 -2.615914081533e-04 0.0 
-2.615914081533e-04 1.177081675284e-03 0.0 
0.0 0.0 -1.822222222222e-04 
7.043851789786e-05 1.625172750656e-03 0.0 
1.625172750656e-03 9.160182528122e-04 0.0 
0.0 0.0 -4.227671874472e-04 
-2.560186998521e-04 -6.566548430138e-05 0.0 
-6.566548430138e-05 8.556563244280e-04 0.0 
0.0 0.0 -2.569875533897e-04 
-1.577668891472e-04 -1.552455279631e-04 0.0 
-1.552455279631e-04 1.161923498218e-03 0.0 
0.0 0.0 -1.822222222222e-04 
-2.471040623352e-04 2.064717459865e-05 0.0 
2.064717459865e-05 8.239123753631e-04 0.0 
0.0 0.0 -2.472035627263e-04 
-1.853864837844e-04 7.084315346313e-06 0.0 
7.084315346313e-06 1.137588691235e-03 0.0 
0.0 0.0 -1.822222222222e-04 
-2.387365719232e-04 2.476984905401e-04 0.0 
2.476984905401e-04 1.117185819906e-03 0.0 
0.0 0.0 -1.822222222222e-04 
-2.323408653968e-04 1.332118441331e-04 0.0 
1.332118441331e-04 7.846052433356e-04 0.0 
0.0 0.0 -2.366847334023e-04 
-3.272887979754e-04 6.009042180535e-04 0.0 
6.009042180535e-04 1.089995068188e-03 0.0 
0.0 0.0 -1.822222222222e-04 
-2.147044617955e-04 2.636578327482e-04 0.0 
2.636578327482e-04 7.566848100157e-04 0.0 
0.0 0.0 -2.322772920944e-04 
-2.669313197925e-04 9.244131512745e-04 0.0 
9.244131512745e-04 1.055799401835e-03 0.0 
0.0 0.0 -2.389535839710e-04 
-1.883019042449e-04 4.379640795527e-04 0.0 
4.379640795527e-04 7.419390141611e-04 0.0 
0.0 0.0 -2.372730471069e-04 
-1.187866008610e-04 1.168945846741e-03 0.0 
1.168945846741e-03 9.670606938968e-04 0.0 
0.0 0.0 -3.501488746467e-04 
-6.299237760594e-06 1.454924271255e-03 0.0 
1.454924271255e-03 9.412033522910e-04 0.0 
0.0 0.0 -4.006731919416e-04 
-1.550083340667e-04 6.440599534177e-04 0.0 
6.440599534177e-04 7.555733494499e-04 0.0 
0.0 0.0 -2.573850065928e-04 
-7.262692769530e-05 9.780976549805e-04 0.0 
9.780976549805e-04 7.665848896840e-04 0.0 
0.0 0.0 -2.974105551380e-04 
5.206284437628e-05 1.469376719814e-03 0.0 
1.469376719814e-03 8.476794300700e-04 0.0 
0.0 0.0 -3.856038319056e-04 
-3.749642251641e-04 -3.419370540272e-04 0.0 
-3.419370540272e-04 1.118298090113e-03 0.0 
0.0 0.0 -2.176153442492e-04 
-4.546435435873e-04 3.151638368803e-04 0.0 
3.151638368803e-04 1.306036372355e-03 0.0 
0.0 0.0 -2.265448025267e-04 
-4.168022673484e-04 -4.655041972502e-05 0.0 
-4.655041972502e-05 1.158707576547e-03 0.0 
0.0 0.0 -1.857105891838e-04 
-4.317989125620e-04 3.119621108129e-05 0.0 
3.119621108129e-05 1.260196578601e-03 0.0 
0.0 0.0 -2.524740719286e-04 
1.276697686569e-04 1.570117374708e-03 0.0 
1.570117374708e-03 7.899006591661e-04 0.0 
0.0 0.0 -3.932444690670e-04 
-5.854531141948e-04 -1.028240178105e-04 0.0 
-1.028240178105e-04 1.705811180048e-03 0.0 
0.0 0.0 -2.488888888889e-04 
-4.899837963276e-04 -2.679117115997e-05 0.0 
-2.679117115997e-05 1.468713173503e-03 0.0 
0.0 0.0 -3.252955040521e-04 
-5.757129213041e-04 -7.207485732686e-05 0.0 
-7.207485732686e-05 1.835508392071e-03 0.0 
0.0 0.0 -2.488888888889e-04 
-4.930773068220e-04 -1.194599082518e-04 0.0 
-1.194599082518e-04 1.476488390705e-03 0.0 
0.0 0.0 -3.235616945828e-04 
-5.709513186301e-04 -1.124006903092e-04 0.0 
-1.124006903092e-04 1.838392435074e-03 0.0 
0.0 0.0 -2.488888888889e-04 
-4.916375155464e-04 -1.612728365077e-04 0.0 
-1.612728365077e-04 1.475178069701e-03 0.0 
0.0 0.0 -3.236232921091e-04 
-5.664575569402e-04 -1.523840206518e-04 0.0 
-1.523840206518e-04 1.835847282095e-03 0.0 
0.0 0.0 -2.488888888889e-04 
-4.895942987583e-04 -1.980084726191e-04 0.0 
-1.980084726191e-04 1.473115941516e-03 0.0 
0.0 0.0 -3.240873914873e-04 
-5.606811941233e-04 -1.881420242139e-04 0.0 
-1.881420242139e-04 1.832694706595e-03 0.0 
0.0 0.0 -2.488888888889e-04 
-4.869588456447e-04 -2.318471853064e-04 0.0 
-2.318471853064e-04 1.470150714002e-03 0.0 
0.0 0.0 -3.247901165394e-04 
-5.530639228246e-04 -2.205718007095e-04 0.0 
-2.205718007095e-04 1.828479285499e-03 0.0 
0.0 0.0 -2.488888888889e-04 
-4.838657069898e-04 -2.632753223399e-04 0.0 
-2.632753223399e-04 1.466491058738e-03 0.0 
0.0 0.0 -3.256781934875e-04 
-5.435915030907e-04 -2.500168512017e-04 0.0 
-2.500168512017e-04 1.823271796012e-03 0.0 
0.0 0.0 -2.488888888889e-04 
-4.806215376242e-04 -2.921053431457e-04 0.0 
-2.921053431457e-04 1.462775766317e-03 0.0 
0.0 0.0 -3.267721350539e-04 
-5.331669997488e-04 -2.754290158070e-04 0.0 
-2.754290158070e-04 1.817537112737e-03 0.0 
0.0 0.0 -2.488888888889e-04 
-4.772990145405e-04 -3.170646085282e-04 0.0 
-3.170646085282e-04 1.459102966964e-03 0.0 
0.0 0.0 -3.282144425317e-04 
-5.225827684125e-04 -2.957735628658e-04 0.0 
-2.957735628658e-04 1.811455119852e-03 0.0 
0.0 0.0 -2.488888888889e-04 
-4.739266601893e-04 -3.367870423434e-04 0.0 
-3.367870423434e-04 1.455491126401e-03 0.0 
0.0 0.0 -3.302134774139e-04 
-5.122493452654e-04 -3.102279468335e-04 0.0 
-3.102279468335e-04 1.805244477979e-03 0.0 
0.0 0.0 -2.488888888889e-04 
-8.714988205991e-05 1.501320370054e-03 0.0 
1.501320370054e-03 1.126743170179e-03 0.0 
0.0 0.0 -4.455399806226e-04 
-4.708318830785e-04 -3.498644805087e-04 0.0 
-3.498644805087e-04 1.452665043960e-03 0.0 
0.0 0.0 -3.330176586107e-04 
-5.035712085099e-04 -3.156736909137e-04 0.0 
-3.156736909137e-04 1.799451876288e-03 0.0 
0.0 0.0 -2.488888888889e-04 
-4.677694379717e-04 -3.536528442975e-04 0.0 
-3.536528442975e-04 1.449984777290e-03 0.0 
0.0 0.0 -3.369654704346e-04 
-1.302990859497e-04 1.259599994593e-03 0.0 
1.259599994593e-03 1.065511692301e-03 0.0 
0.0 0.0 -4.008054027219e-04 
-4.971721533030e-04 -3.101151166350e-04 0.0 
-3.101151166350e-04 1.793779429412e-03 0.0 
0.0 0.0 -2.488888888889e-04 
-4.645399214775e-04 -3.460100851926e-04 0.0 
-3.460100851926e-04 1.447106865552e-03 0.0 
0.0 0.0 -3.424725560515e-04 
-4.951173540351e-04 -2.920204627786e-04 0.0 
-2.920204627786e-04 1.788428250083e-03 0.0 
0.0 0.0 -2.488888888889e-04 
-4.608145759185e-04 -3.248925793250e-04 0.0 
-3.248925793250e-04 1.443848954921e-03 0.0 
0.0 0.0 -3.502742887869e-04 
-4.996187403003e-04 -2.584245976988e-04 0.0 
-2.584245976988e-04 1.783729472052e-03 0.0 
0.0 0.0 -2.488888888889e-04 
-2.196325475023e-05 1.571194493179e-03 0.0 
1.571194493179e-03 1.044460798840e-03 0.0 
0.0 0.0 -4.382132331813e-04 
-4.561351195322e-04 -2.876892743448e-04 0.0 
-2.876892743448e-04 1.439869203326e-03 0.0 
0.0 0.0 -3.610859296079e-04 
-5.130916496060e-04 -2.050490687592e-04 0.0 
-2.050490687592e-04 1.779854259130e-03 0.0 
0.0 0.0 -2.488888888889e-04 
-4.492332174386e-04 -2.320910845934e-04 0.0 
-2.320910845934e-04 1.433890260924e-03 0.0 
0.0 0.0 -3.761804409589e-04 
-5.378802534838e-04 -1.258210070292e-04 0.0 
-1.258210070292e-04 1.776026591200e-03 0.0 
0.0 0.0 -2.488888888889e-04 
-4.389026762269e-04 -1.548007160911e-04 0.0 
-1.548007160911e-04 1.424629334549e-03 0.0 
0.0 0.0 -3.962441071082e-04 
-5.768132903928e-04 -1.377844552508e-05 0.0 
-1.377844552508e-05 1.771798335942e-03 0.0 
0.0 0.0 -2.488888888889e-04 
-4.220148160061e-04 -5.690016960840e-05 0.0 
-5.690016960840e-05 1.407747968935e-03 0.0 
0.0 0.0 -4.224570655411e-04 
-6.317639780045e-04 1.424555330642e-04 0.0 
1.424555330642e-04 1.762888806825e-03 0.0 
0.0 0.0 -2.488888888889e-04 
-4.102581462551e-04 6.647705641044e-05 0.0 
6.647705641044e-05 1.368975512052e-03 0.0 
0.0 0.0 -4.108788710558e-04 
-6.109218713376e-04 3.404053986489e-04 0.0 
3.404053986489e-04 1.719826840337e-03 0.0 
0.0 0.0 -2.778578689002e-04 
-3.877290163741e-04 2.051534791676e-04 0.0 
2.051534791676e-04 1.306865366921e-03 0.0 
0.0 0.0 -3.939155788059e-04 
-3.958277924855e-05 1.694030195389e-03 0.0 
1.694030195389e-03 1.156073774095e-03 0.0 
0.0 0.0 -4.784961406483e-04 
-3.562744250199e-04 3.989157177770e-04 0.0 
3.989157177770e-04 1.244690862262e-03 0.0 
0.0 0.0 -3.807499016752e-04 
-5.392028409591e-04 5.770659547124e-04 0.0 
5.770659547124e-04 1.636675704485e-03 0.0 
0.0 0.0 -3.283879058836e-04 
-3.082167471355e-04 5.954141438158e-04 0.0 
5.954141438158e-04 1.162656135356e-03 0.0 
0.0 0.0 -3.661883092374e-04 
-4.494772525837e-04 8.547826148384e-04 0.0 
8.547826148384e-04 1.548375175436e-03 0.0 
0.0 0.0 -3.828086040851e-04 
-2.325523962378e-04 9.433725567651e-04 0.0 
9.433725567651e-04 1.120895142144e-03 0.0 
0.0 0.0 -3.807183196739e-04 
-3.130412835871e-04 1.126625542557e-03 0.0 
1.126625542557e-03 1.419750706176e-03 0.0 
0.0 0.0 -4.666182411194e-04 
-1.863486912845e-04 1.460770853074e-03 0.0 
1.460770853074e-03 1.313829183170e-03 0.0 
0.0 0.0 -4.832059250939e-04 
-3.851626832152e-05 1.480952293108e-03 0.0 
1.480952293108e-03 1.018115290736e-03 0.0 
0.0 0.0 -4.198281524634e-04 
-6.088964229271e-04 -3.587486861913e-04 0.0 
-3.587486861913e-04 1.723284064356e-03 0.0 
0.0 0.0 -2.842384003790e-04 
-5.314980546204e-04 3.143317236518e-04 0.0 
3.143317236518e-04 1.529219314835e-03 0.0 
0.0 0.0 -2.731668790454e-04 
-5.897477499297e-04 -6.010425002954e-05 0.0 
-6.010425002954e-05 1.687514974829e-03 0.0 
0.0 0.0 -3.109082025560e-04 
-5.756824612893e-04 2.261106284316e-05 0.0 
2.261106284316e-05 1.581531907516e-03 0.0 
0.0 0.0 -2.381938332887e-04 
8.676028730539e-05 1.735937948459e-03 0.0 
1.735937948459e-03 9.594439154052e-04 0.0 
0.0 0.0 -4.483732297331e-04 
-7.812528022569e-04 -1.099017891405e-04 0.0 
-1.099017891405e-04 2.168689563076e-03 0.0 
0.0 0.0 -3.444020130729e-04 
-7.150319033539e-04 -3.121384854287e-05 0.0 
-3.121384854287e-05 2.349676786299e-03 0.0 
0.0 0.0 -3.155555555556e-04 
-7.017205842140e-04 -7.653557446682e-05 0.0 
-7.653557446682e-05 2.006215318206e-03 0.0 
0.0 0.0 -3.681463795304e-04 
-7.121485710088e-04 -1.328299566585e-04 0.0 
-1.328299566585e-04 2.336914160142e-03 0.0 
0.0 0.0 -3.155555555556e-04 
-6.954051672081e-04 -1.106721293081e-04 0.0 
-1.106721293081e-04 1.994566268542e-03 0.0 
0.0 0.0 -3.704370777208e-04 
-7.107419937415e-04 -1.772848363033e-04 0.0 
-1.772848363033e-04 2.334391666324e-03 0.0 
0.0 0.0 -3.155555555556e-04 
-6.928827801307e-04 -1.461650245261e-04 0.0 
-1.461650245261e-04 1.991555205390e-03 0.0 
0.0 0.0 -3.721778341564e-04 
-7.100466502334e-04 -2.164461730152e-04 0.0 
-2.164461730152e-04 2.332657187103e-03 0.0 
0.0 0.0 -3.155555555556e-04 
-6.902040069466e-04 -1.788167519200e-04 0.0 
-1.788167519200e-04 1.988917707943e-03 0.0 
0.0 0.0 -3.744677652069e-04 
-7.095257050295e-04 -2.527303290778e-04 0.0 
-2.527303290778e-04 2.330678190538e-03 0.0 
0.0 0.0 -3.155555555556e-04 
-6.870058437527e-04 -2.081039351838e-04 0.0 
-2.081039351838e-04 1.985786893802e-03 0.0 
0.0 0.0 -3.773804207472e-04 
-7.091377551114e-04 -2.861387702296e-04 0.0 
-2.861387702296e-04 2.328286632896e-03 0.0 
0.0 0.0 -3.155555555556e-04 
-6.832965265146e-04 -2.331316096487e-04 0.0 
-2.331316096487e-04 1.982124751540e-03 0.0 
0.0 0.0 -3.809821719086e-04 
-7.092630965154e-04 -3.155169689002e-04 0.0 
-3.155169689002e-04 2.325515363616e-03 0.0 
0.0 0.0 -3.155555555556e-04 
-6.791922861579e-04 -2.523146359644e-04 0.0 
-2.523146359644e-04 1.978098432982e-03 0.0 
0.0 0.0 -3.853484384570e-04 
-7.104619708388e-04 -3.388430522053e-04 0.0 
-3.388430522053e-04 2.322560743132e-03 0.0 
0.0 0.0 -3.155555555556e-04 
-6.746892318115e-04 -2.641363648019e-04 0.0 
-2.641363648019e-04 1.973751708825e-03 0.0 
0.0 0.0 -3.907175444907e-04 
-7.134716144215e-04 -3.542939816601e-04 0.0 
-3.542939816601e-04 2.319606865757e-03 0.0 
0.0 0.0 -3.155555555556e-04 
-2.948862268374e-04 1.425073130439e-03 0.0 
1.425073130439e-03 1.550246462717e-03 0.0 
0.0 0.0 -5.380115296628e-04 
-6.698127621974e-04 -2.667648384482e-04 0.0 
-2.667648384482e-04 1.969206946882e-03 0.0 
0.0 0.0 -3.973447215126e-04 
-7.194662793108e-04 -3.592340066351e-04 0.0 
-3.592340066351e-04 2.316875881201e-03 0.0 
0.0 0.0 -3.155555555556e-04 
-6.645376930034e-04 -2.580390662495e-04 0.0 
-2.580390662495e-04 1.964528322448e-03 0.0 
0.0 0.0 -4.055185506436e-04 
-2.384968950829e-04 1.467328751257e-03 0.0 
1.467328751257e-03 1.438259482937e-03 0.0 
0.0 0.0 -5.141839662233e-04 
-7.293624542203e-04 -3.502161551000e-04 0.0 
-3.502161551000e-04 2.314195425162e-03 0.0 
0.0 0.0 -3.155555555556e-04 
-3.197653810432e-04 1.193855222990e-03 0.0 
1.193855222990e-03 1.484896437785e-03 0.0 
0.0 0.0 -4.993418814610e-04 
-6.585397002155e-04 -2.357313641208e-04 0.0 
-2.357313641208e-04 1.959221082084e-03 0.0 
0.0 0.0 -4.155668053223e-04 
-7.443837045228e-04 -3.234883264296e-04 0.0 
-3.234883264296e-04 2.311228263619e-03 0.0 
0.0 0.0 -3.155555555556e-04 
-6.513804998095e-04 -1.967997917224e-04 0.0 
-1.967997917224e-04 1.952762412484e-03 0.0 
0.0 0.0 -4.279241322075e-04 
-7.666941138057e-04 -2.747555434067e-04 0.0 
-2.747555434067e-04 2.308627769116e-03 0.0 
0.0 0.0 -3.155555555556e-04 
-6.421728617253e-04 -1.400127384089e-04 0.0 
-1.400127384089e-04 1.944537570229e-03 0.0 
0.0 0.0 -4.436098837037e-04 
-7.982894982450e-04 -1.992556961930e-04 0.0 
-1.992556961930e-04 2.305297045070e-03 0.0 
0.0 0.0 -3.155555555556e-04 
-6.299853966539e-04 -6.145013816298e-05 0.0 
-6.145013816298e-05 1.933693850967e-03 0.0 
0.0 0.0 -4.632370193522e-04 
-8.421992035785e-04 -9.014150615938e-05 0.0 
-9.014150615938e-05 2.302275547257e-03 0.0 
0.0 0.0 -3.155555555556e-04 
-2.461574377786e-04 1.624144604727e-03 0.0 
1.624144604727e-03 1.550137584529e-03 0.0 
0.0 0.0 -5.588486343218e-04 
-6.126548316156e-04 3.654657999790e-05 0.0 
3.654657999790e-05 1.918163968956e-03 0.0 
0.0 0.0 -4.884601193253e-04 
-8.297370267805e-04 5.900833697116e-05 0.0 
5.900833697116e-05 2.272921973566e-03 0.0 
0.0 0.0 -3.364948589054e-04 
-5.887696182011e-04 1.643484722283e-04 0.0 
1.643484722283e-04 1.896631305277e-03 0.0 
0.0 0.0 -5.192169371186e-04 
-7.953164073812e-04 2.464578371630e-04 0.0 
2.464578371630e-04 2.232304461113e-03 0.0 
0.0 0.0 -3.698897388832e-04 
-7.365411047928e-04 4.685855720639e-04 0.0 
4.685855720639e-04 2.159694424858e-03 0.0 
0.0 0.0 -4.159907446451e-04 
-5.527872709303e-04 3.038795148593e-04 0.0 
3.038795148593e-04 1.863166271294e-03 0.0 
0.0 0.0 -5.606386107870e-04 
-6.584523321126e-04 7.236437627609e-04 0.0 
7.236437627609e-04 2.077339623358e-03 0.0 
0.0 0.0 -4.782258264602e-04 
-5.219852183216e-04 4.858276467253e-04 0.0 
4.858276467253e-04 1.798644652234e-03 0.0 
0.0 0.0 -5.471397573912e-04 
-5.290479376496e-04 9.986619340008e-04 0.0 
9.986619340008e-04 1.913578928546e-03 0.0 
0.0 0.0 -5.482902324912e-04 
-4.113616513683e-04 1.317081858533e-03 0.0 
1.317081858533e-03 1.794964894860e-03 0.0 
0.0 0.0 -5.929728186394e-04 
-4.745890538018e-04 6.435746553500e-04 0.0 
6.435746553500e-04 1.691163142403e-03 0.0 
0.0 0.0 -5.213888951147e-04 
-4.062586621164e-04 9.333507089429e-04 0.0 
9.333507089429e-04 1.595573055787e-03 0.0 
0.0 0.0 -5.097061687162e-04 
-2.283265547836e-04 1.373477192078e-03 0.0 
1.373477192078e-03 1.358306137847e-03 0.0 
0.0 0.0 -4.842769641699e-04 
-7.033473164944e-04 -3.760136049461e-04 0.0 
-3.760136049461e-04 2.136708279662e-03 0.0 
0.0 0.0 -3.266666666667e-04 
-8.166934876578e-04 3.224396756561e-04 0.0 
3.224396756561e-04 2.340292932936e-03 0.0 
0.0 0.0 -3.266666666667e-04 
-7.075682699953e-04 -6.297319518701e-05 0.0 
-6.297319518701e-05 2.166890176519e-03 0.0 
0.0 0.0 -3.044444444444e-04 
-8.144037118333e-04 2.182635171307e-05 0.0 
2.182635171307e-05 2.299802230387e-03 0.0 
0.0 0.0 -3.488888888889e-04 
-9.458669161434e-05 1.682224031544e-03 0.0 
1.682224031544e-03 1.256319996994e-03 0.0 
0.0 0.0 -4.978857023056e-04 
-8.477680808939e-04 -1.104727016907e-04 0.0 
-1.104727016907e-04 2.712288170416e-03 0.0 
0.0 0.0 -3.822222222222e-04 
-9.055925510058e-04 -3.092032376263e-05 0.0 
-3.092032376263e-05 2.525233824261e-03 0.0 
0.0 0.0 -4.120916506577e-04 
-8.473674362076e-04 -7.481330322279e-05 0.0 
-7.481330322279e-05 2.845770630963e-03 0.0 
0.0 0.0 -3.822222222222e-04 
-9.089090308611e-04 -1.259977891390e-04 0.0 
-1.259977891390e-04 2.534087815895e-03 0.0 
0.0 0.0 -4.117636123367e-04 
-8.486541312913e-04 -1.060356270188e-04 0.0 
-1.060356270188e-04 2.850864472627e-03 0.0 
0.0 0.0 -3.822222222222e-04 
-9.067527636706e-04 -1.634553189751e-04 0.0 
-1.634553189751e-04 2.532180853737e-03 0.0 
0.0 0.0 -4.138361446519e-04 
-8.518838397089e-04 -1.391673231664e-04 0.0 
-1.391673231664e-04 2.849897303172e-03 0.0 
0.0 0.0 -3.822222222222e-04 
-9.038033703738e-04 -1.960391794180e-04 0.0 
-1.960391794180e-04 2.529549366092e-03 0.0 
0.0 0.0 -4.169466925021e-04 
-8.567719304589e-04 -1.693969290221e-04 0.0 
-1.693969290221e-04 2.849102124234e-03 0.0 
0.0 0.0 -3.822222222222e-04 
-9.001783977425e-04 -2.254727016246e-04 0.0 
-2.254727016246e-04 2.526405000261e-03 0.0 
0.0 0.0 -4.210486354725e-04 
-8.632001890766e-04 -1.956147496017e-04 0.0 
-1.956147496017e-04 2.848340584109e-03 0.0 
0.0 0.0 -3.822222222222e-04 
-8.958258707308e-04 -2.506885608621e-04 0.0 
-2.506885608621e-04 2.522614663946e-03 0.0 
0.0 0.0 -4.262345017756e-04 
-8.713995955112e-04 -2.166532315458e-04 0.0 
-2.166532315458e-04 2.847429121701e-03 0.0 
0.0 0.0 -3.822222222222e-04 
-8.907881229033e-04 -2.700951512637e-04 0.0 
-2.700951512637e-04 2.518049837640e-03 0.0 
0.0 0.0 -4.324218244576e-04 
-8.817440870532e-04 -2.301760048267e-04 0.0 
-2.301760048267e-04 2.845924759909e-03 0.0 
0.0 0.0 -3.822222222222e-04 
-8.851922506948e-04 -2.806029007086e-04 0.0 
-2.806029007086e-04 2.512873500627e-03 0.0 
0.0 0.0 -4.397142335037e-04 
-8.950333328024e-04 -2.339954622603e-04 0.0 
-2.339954622603e-04 2.844152330925e-03 0.0 
0.0 0.0 -3.822222222222e-04 
-5.153963270574e-04 1.386957263231e-03 0.0 
1.386957263231e-03 2.118048286245e-03 0.0 
0.0 0.0 -6.868508396518e-04 
-8.789409301159e-04 -2.802453109947e-04 0.0 
-2.802453109947e-04 2.507031228922e-03 0.0 
0.0 0.0 -4.484506065581e-04 
-9.121593109776e-04 -2.255242270632e-04 0.0 
-2.255242270632e-04 2.842211436296e-03 0.0 
0.0 0.0 -3.822222222222e-04 
-5.250635173879e-04 1.212370847594e-03 0.0 
1.212370847594e-03 2.064879973941e-03 0.0 
0.0 0.0 -6.599213385227e-04 
-8.718884062418e-04 -2.665655449899e-04 0.0 
-2.665655449899e-04 2.500353226196e-03 0.0 
0.0 0.0 -4.589341481330e-04 
-9.340828443643e-04 -2.017720311588e-04 0.0 
-2.017720311588e-04 2.840105257953e-03 0.0 
0.0 0.0 -3.822222222222e-04 
-8.637232966567e-04 -2.371299809629e-04 0.0 
-2.371299809629e-04 2.492260010494e-03 0.0 
0.0 0.0 -4.713274934483e-04 
-9.616016624064e-04 -1.586137009988e-04 0.0 
-1.586137009988e-04 2.837108011281e-03 0.0 
0.0 0.0 -3.822222222222e-04 
-8.538485000622e-04 -1.885493409314e-04 0.0 
-1.885493409314e-04 2.481749201505e-03 0.0 
0.0 0.0 -4.858861960434e-04 
-4.559297430570e-04 1.444187656161e-03 0.0 
1.444187656161e-03 1.981448427249e-03 0.0 
0.0 0.0 -6.537937217965e-04 
-9.957574324210e-04 -9.024577915214e-05 0.0 
-9.024577915214e-05 2.832059975401e-03 0.0 
0.0 0.0 -3.822222222222e-04 
-8.420411067301e-04 -1.147262326721e-04 0.0 
-1.147262326721e-04 2.468867339442e-03 0.0 
0.0 0.0 -5.027800290162e-04 
-1.039055821930e-03 8.224520741657e-06 0.0 
8.224520741657e-06 2.826232556126e-03 0.0 
0.0 0.0 -3.822222222222e-04 
-8.257325877732e-04 -1.684371319750e-05 0.0 
-1.684371319750e-05 2.451050949731e-03 0.0 
0.0 0.0 -5.243127177637e-04 
-1.025570190768e-03 1.403256994831e-04 0.0 
1.403256994831e-04 2.797038362784e-03 0.0 
0.0 0.0 -4.023247379336e-04 
-8.050294719308e-04 1.124410670381e-04 0.0 
1.124410670381e-04 2.428661755662e-03 0.0 
0.0 0.0 -5.489567910448e-04 
-9.923239288201e-04 3.047136110578e-04 0.0 
3.047136110578e-04 2.756100007675e-03 0.0 
0.0 0.0 -4.324342652679e-04 
-7.731797138455e-04 2.625302848105e-04 0.0 
2.625302848105e-04 2.393418728170e-03 0.0 
0.0 0.0 -5.820900338912e-04 
-9.418682114520e-04 5.073920785542e-04 0.0 
5.073920785542e-04 2.692555105023e-03 0.0 
0.0 0.0 -4.713646722125e-04 
-7.342469081316e-04 4.657530843841e-04 0.0 
4.657530843841e-04 2.352483617576e-03 0.0 
0.0 0.0 -6.159470284615e-04 
-4.680647983613e-04 1.597006220995e-03 0.0 
1.597006220995e-03 2.093451131542e-03 0.0 
0.0 0.0 -6.965941427916e-04 
-6.693040365848e-04 6.579016910303e-04 0.0 
6.579016910303e-04 2.279268426426e-03 0.0 
0.0 0.0 -6.692217709364e-04 
-8.781023439948e-04 7.411318868586e-04 0.0 
7.411318868586e-04 2.622293177478e-03 0.0 
0.0 0.0 -5.216549963272e-04 
-6.008061203709e-04 9.652302155092e-04 0.0 
9.652302155092e-04 2.191809086520e-03 0.0 
0.0 0.0 -6.818584140638e-04 
-7.708778420605e-04 1.010625125185e-03 0.0 
1.010625125185e-03 2.489715384094e-03 0.0 
0.0 0.0 -5.889796576362e-04 
-6.578980111303e-04 1.296813025753e-03 0.0 
1.296813025753e-03 2.378601915831e-03 0.0 
0.0 0.0 -6.666224173880e-04 
-4.259182236764e-04 1.351986027582e-03 0.0 
1.351986027582e-03 1.852483873207e-03 0.0 
0.0 0.0 -6.113852783704e-04 
-9.474349750393e-04 -3.758791366539e-04 0.0 
-3.758791366539e-04 2.750895276144e-03 0.0 
0.0 0.0 -3.933333333333e-04 
-8.340817167273e-04 3.227874807035e-04 0.0 
3.227874807035e-04 2.547302196216e-03 0.0 
0.0 0.0 -3.933333333333e-04 
-9.429649573043e-04 -6.274108253705e-05 0.0 
-6.274108253705e-05 2.720570547882e-03 0.0 
0.0 0.0 -4.155555555556e-04 
-8.366259340555e-04 2.206832879955e-05 0.0 
2.206832879955e-05 2.587932870487e-03 0.0 
0.0 0.0 -3.711111111111e-04 
-3.311872650881e-04 1.664414027805e-03 0.0 
1.664414027805e-03 1.777880150707e-03 0.0 
0.0 0.0 -6.200112366940e-04 
-1.054441290555e-03 -1.060399512644e-04 0.0 
-1.060399512644e-04 3.174442276916e-03 0.0 
0.0 0.0 -4.711111111111e-04 
-9.755270099610e-04 -1.952460710779e-05 0.0 
-1.952460710779e-05 3.352199228394e-03 0.0 
0.0 0.0 -4.488888888889e-04 
-1.057199720646e-03 -6.628466702925e-05 0.0 
-6.628466702925e-05 3.038898740510e-03 0.0 
0.0 0.0 -4.711111111111e-04 
-9.777400934430e-04 -1.091555938379e-04 0.0 
-1.091555938379e-04 3.340691704280e-03 0.0 
0.0 0.0 -4.488888888889e-04 
-1.063155427674e-03 -8.985841896749e-05 0.0 
-8.985841896749e-05 3.031383342538e-03 0.0 
0.0 0.0 -4.711111111111e-04 
-9.824799286931e-04 -1.393428267415e-04 0.0 
-1.393428267415e-04 3.339683266468e-03 0.0 
0.0 0.0 -4.488888888889e-04 
-1.073307870603e-03 -1.145055690525e-04 0.0 
-1.145055690525e-04 3.031741938321e-03 0.0 
0.0 0.0 -4.711111111111e-04 
-9.898779257340e-04 -1.643666591562e-04 0.0 
-1.643666591562e-04 3.339619340617e-03 0.0 
0.0 0.0 -4.488888888889e-04 
-1.086323477342e-03 -1.363877390947e-04 0.0 
-1.363877390947e-04 3.033165334032e-03 0.0 
0.0 0.0 -4.711111111111e-04 
-9.998925141734e-04 -1.855881002644e-04 0.0 
-1.855881002644e-04 3.339705936799e-03 0.0 
0.0 0.0 -4.488888888889e-04 
-1.096406818734e-03 -1.532318205826e-04 0.0 
-1.532318205826e-04 3.033255551597e-03 0.0 
0.0 0.0 -4.730783955673e-04 
-1.012777399154e-03 -2.017536892965e-04 0.0 
-2.017536892965e-04 3.339844219624e-03 0.0 
0.0 0.0 -4.488888888889e-04 
-1.090664367884e-03 -1.644430523049e-04 0.0 
-1.644430523049e-04 3.027933117942e-03 0.0 
0.0 0.0 -4.808618943584e-04 
-1.028301113362e-03 -2.114471527184e-04 0.0 
-2.114471527184e-04 3.338551741007e-03 0.0 
0.0 0.0 -4.488888888889e-04 
-1.083736580133e-03 -1.666451993329e-04 0.0 
-1.666451993329e-04 3.020843768517e-03 0.0 
0.0 0.0 -4.898707554272e-04 
-1.046943436856e-03 -2.106797342195e-04 0.0 
-2.106797342195e-04 3.335962166517e-03 0.0 
0.0 0.0 -4.488888888889e-04 
-7.831296468648e-04 1.319072651067e-03 0.0 
1.319072651067e-03 2.747172324488e-03 0.0 
0.0 0.0 -7.609479695289e-04 
-1.075855056023e-03 -1.563532757849e-04 0.0 
-1.563532757849e-04 3.012345218943e-03 0.0 
0.0 0.0 -5.000242388326e-04 
-1.069747672987e-03 -1.955783713019e-04 0.0 
-1.955783713019e-04 3.333029570668e-03 0.0 
0.0 0.0 -4.488888888889e-04 
-7.248550649329e-04 1.406358254198e-03 0.0 
1.406358254198e-03 2.595476185353e-03 0.0 
0.0 0.0 -7.137751583000e-04 
-1.066434352541e-03 -1.316180070833e-04 0.0 
-1.316180070833e-04 3.002197182527e-03 0.0 
0.0 0.0 -5.124314741735e-04 
-1.097598068092e-03 -1.637972448482e-04 0.0 
-1.637972448482e-04 3.329403421166e-03 0.0 
0.0 0.0 -4.488888888889e-04 
-7.533669482919e-04 1.204166970056e-03 0.0 
1.204166970056e-03 2.642836543444e-03 0.0 
0.0 0.0 -7.468747930895e-04 
-1.055416203304e-03 -9.203251338284e-05 0.0 
-9.203251338284e-05 2.990073804986e-03 0.0 
0.0 0.0 -5.267381924031e-04 
-1.130750834273e-03 -1.116921931994e-04 0.0 
-1.116921931994e-04 3.323665525655e-03 0.0 
0.0 0.0 -4.488888888889e-04 
-1.042171778077e-03 -3.455033738422e-05 0.0 
-3.455033738422e-05 2.974699293394e-03 0.0 
0.0 0.0 -5.428660870381e-04 
-1.169484212689e-03 -3.358102239734e-05 0.0 
-3.358102239734e-05 3.314256616847e-03 0.0 
0.0 0.0 -4.488888888889e-04 
-1.025316934061e-03 4.498860631349e-05 0.0 
4.498860631349e-05 2.954024136839e-03 0.0 
0.0 0.0 -5.614484225926e-04 
-1.214143038317e-03 7.887627576123e-05 0.0 
7.887627576123e-05 3.298257734444e-03 0.0 
0.0 0.0 -4.488888888889e-04 
-7.199346667002e-04 1.548959497082e-03 0.0 
1.548959497082e-03 2.702620874801e-03 0.0 
0.0 0.0 -7.999777769487e-04 
-1.005056088549e-03 1.605680175197e-04 0.0 
1.605680175197e-04 2.928996212084e-03 0.0 
0.0 0.0 -5.816817243943e-04 
-1.194628629214e-03 2.284813269436e-04 0.0 
2.284813269436e-04 3.262807979926e-03 0.0 
0.0 0.0 -4.714398725188e-04 
-9.770701467258e-04 2.900797214075e-04 0.0 
2.900797214075e-04 2.895539247012e-03 0.0 
0.0 0.0 -6.084761808760e-04 
-1.150691492803e-03 4.112920914748e-04 0.0 
4.112920914748e-04 3.201011145854e-03 0.0 
0.0 0.0 -5.031356658855e-04 
-1.102080003132e-03 6.314047135334e-04 0.0 
6.314047135334e-04 3.144102696047e-03 0.0 
0.0 0.0 -5.414573098104e-04 
-9.427914102034e-04 4.734021578769e-04 0.0 
4.734021578769e-04 2.854814901825e-03 0.0 
0.0 0.0 -6.353729821390e-04 
-1.011724826405e-03 8.872743635075e-04 0.0 
8.872743635075e-04 3.016176770478e-03 0.0 
0.0 0.0 -5.911070349773e-04 
-8.910802690226e-04 6.354474711150e-04 0.0 
6.354474711150e-04 2.790560843145e-03 0.0 
0.0 0.0 -6.750826519681e-04 
-9.261251575016e-04 1.192686017243e-03 0.0 
1.192686017243e-03 2.932735209306e-03 0.0 
0.0 0.0 -6.517013890130e-04 
-8.336613140921e-04 9.428984709957e-04 0.0 
9.428984709957e-04 2.722476745029e-03 0.0 
0.0 0.0 -6.953468723645e-04 
-6.543021565792e-04 1.370902121002e-03 0.0 
1.370902121002e-03 2.495211230633e-03 0.0 
0.0 0.0 -7.782223337189e-04 
-9.573633010252e-04 -3.758595971567e-04 0.0 
-3.758595971567e-04 3.138492562280e-03 0.0 
0.0 0.0 -4.600000000000e-04 
-1.070084496450e-03 3.260967853827e-04 0.0 
3.260967853827e-04 3.340817972329e-03 0.0 
0.0 0.0 -4.600000000000e-04 
-9.651871795266e-04 -5.955810820259e-05 0.0 
-5.955810820259e-05 3.169772296161e-03 0.0 
0.0 0.0 -4.377777777778e-04 
-1.064380492171e-03 2.392363188093e-05 0.0 
2.392363188093e-05 3.297778316814e-03 0.0 
0.0 0.0 -4.822222222222e-04 
-5.704666912088e-04 1.617849901649e-03 0.0 
1.617849901649e-03 2.384447177274e-03 0.0 
0.0 0.0 -7.774202083136e-04 
-1.098885735000e-03 -9.932841691003e-05 0.0 
-9.932841691003e-05 3.711008544298e-03 0.0 
0.0 0.0 -5.155555555556e-04 
-1.168462067443e-03 -8.558937578339e-06 0.0 
-8.558937578339e-06 3.528865523027e-03 0.0 
0.0 0.0 -5.377777777778e-04 
-1.101644165090e-03 -4.995934151532e-05 0.0 
-4.995934151532e-05 3.841935165134e-03 0.0 
0.0 0.0 -5.155555555556e-04 
-1.170694924485e-03 -8.717992149991e-05 0.0 
-8.717992149991e-05 3.536462684656e-03 0.0 
0.0 0.0 -5.377777777778e-04 
-1.107599872119e-03 -6.223086959302e-05 0.0 
-6.223086959302e-05 3.845472707205e-03 0.0 
0.0 0.0 -5.155555555556e-04 
-1.181271355677e-03 -1.042178337503e-04 0.0 
-1.042178337503e-04 3.538247230035e-03 0.0 
0.0 0.0 -5.377777777778e-04 
-1.117752315047e-03 -7.784351567095e-05 0.0 
-7.784351567095e-05 3.846307941154e-03 0.0 
0.0 0.0 -5.155555555556e-04 
-1.192658306015e-03 -1.193867036393e-04 0.0 
-1.193867036393e-04 3.539182551016e-03 0.0 
0.0 0.0 -5.377777777778e-04 
-1.130767921787e-03 -8.794783012842e-05 0.0 
-8.794783012842e-05 3.845743987908e-03 0.0 
0.0 0.0 -5.155555555556e-04 
-1.210173940783e-03 -1.287275247693e-04 0.0 
-1.287275247693e-04 3.541285429521e-03 0.0 
0.0 0.0 -5.377777777778e-04 
-1.147405946802e-03 -9.309166024428e-05 0.0 
-9.309166024428e-05 3.846138881089e-03 0.0 
0.0 0.0 -5.155555555556e-04 
-1.230284092040e-03 -1.329076598989e-04 0.0 
-1.329076598989e-04 3.543463507866e-03 0.0 
0.0 0.0 -5.377777777778e-04 
-1.167594603574e-03 -9.130051004344e-05 0.0 
-9.130051004344e-05 3.846054057724e-03 0.0 
0.0 0.0 -5.155555555556e-04 
-1.257222365411e-03 -1.323215631345e-04 0.0 
-1.323215631345e-04 3.545265649495e-03 0.0 
0.0 0.0 -5.377777777778e-04 
-1.190679714427e-03 -8.065933747456e-05 0.0 
-8.065933747456e-05 3.844271498324e-03 0.0 
0.0 0.0 -5.155555555556e-04 
-1.072061725773e-03 1.181075520675e-03 0.0 
1.181075520675e-03 3.333527226650e-03 0.0 
0.0 0.0 -7.283378183804e-04 
-1.281962566836e-03 -1.205561474005e-04 0.0 
-1.205561474005e-04 3.543719900527e-03 0.0 
0.0 0.0 -5.377777777778e-04 
-1.019291723586e-03 1.089044048788e-03 0.0 
1.089044048788e-03 3.195052180348e-03 0.0 
0.0 0.0 -7.244127351333e-04 
-1.216630828162e-03 -5.217094280109e-05 0.0 
-5.217094280109e-05 3.837261921334e-03 0.0 
0.0 0.0 -5.155555555556e-04 
-1.278612193971e-03 -8.527996152039e-05 0.0 
-8.527996152039e-05 3.532526708308e-03 0.0 
0.0 0.0 -5.485944179258e-04 
-1.248566532597e-03 -8.063337581444e-06 0.0 
-8.063337581444e-06 3.832196745573e-03 0.0 
0.0 0.0 -5.155555555556e-04 
-1.265136211354e-03 -3.710354583219e-05 0.0 
-3.710354583219e-05 3.516310959499e-03 0.0 
0.0 0.0 -5.642304945314e-04 
-1.285253076073e-03 5.378705676948e-05 0.0 
5.378705676948e-05 3.825167274507e-03 0.0 
0.0 0.0 -5.155555555556e-04 
-1.249016317751e-03 2.783290865771e-05 0.0 
2.783290865771e-05 3.495315634217e-03 0.0 
0.0 0.0 -5.808897987891e-04 
-1.009506465037e-03 1.312718317251e-03 0.0 
1.312718317251e-03 3.173615454217e-03 0.0 
0.0 0.0 -6.840081157839e-04 
-1.325793724936e-03 1.409910150458e-04 0.0 
1.409910150458e-04 3.811895021444e-03 0.0 
0.0 0.0 -5.155555555556e-04 
-1.228491986619e-03 1.177167741922e-04 0.0 
1.177167741922e-04 3.467495695501e-03 0.0 
0.0 0.0 -6.000309252581e-04 
-1.370873242614e-03 2.586300978522e-04 0.0 
2.586300978522e-04 3.792690245387e-03 0.0 
0.0 0.0 -5.155555555556e-04 
-1.200813378474e-03 2.299684609271e-04 0.0 
2.299684609271e-04 3.428363493249e-03 0.0 
0.0 0.0 -6.226598288582e-04 
-1.373356089150e-03 4.171425679384e-04 0.0 
4.171425679384e-04 3.744750078480e-03 0.0 
0.0 0.0 -5.289384626357e-04 
-1.172212083606e-03 4.058181090915e-04 0.0 
4.058181090915e-04 3.389456744915e-03 0.0 
0.0 0.0 -6.422847164987e-04 
-1.331867317601e-03 6.009358889080e-04 0.0 
6.009358889080e-04 3.691337826045e-03 0.0 
0.0 0.0 -5.597688379707e-04 
-1.124375463142e-03 5.598543092856e-04 0.0 
5.598543092856e-04 3.325139889709e-03 0.0 
0.0 0.0 -6.782083763712e-04 
-1.081971884868e-03 8.414092324740e-04 0.0 
8.414092324740e-04 3.267902520726e-03 0.0 
0.0 0.0 -6.895475544463e-04 
-1.262668952542e-03 8.256947026051e-04 0.0 
8.256947026051e-04 3.589844959231e-03 0.0 
0.0 0.0 -5.971186907353e-04 
-1.015537556123e-03 1.423057567146e-03 0.0 
1.423057567146e-03 3.272421342693e-03 0.0 
0.0 0.0 -7.495201701545e-04 
-1.195815340391e-03 1.081747061634e-03 0.0 
1.081747061634e-03 3.513584158614e-03 0.0 
0.0 0.0 -6.415873553655e-04 
-9.227522449622e-04 1.272927656652e-03 0.0 
1.272927656652e-03 3.024546989958e-03 0.0 
0.0 0.0 -7.380105449967e-04 
-1.189132313752e-03 -3.719683768529e-04 0.0 
-3.719683768529e-04 3.742930454027e-03 0.0 
0.0 0.0 -5.266666666667e-04 
-1.078621173226e-03 3.329266509439e-04 0.0 
3.329266509439e-04 3.544627002251e-03 0.0 
0.0 0.0 -5.266666666667e-04 
-1.179143088157e-03 -5.341908987877e-05 0.0 
-5.341908987877e-05 3.711783890135e-03 0.0 
0.0 0.0 -5.488888888889e-04 
-1.086602714393e-03 2.829903387263e-05 0.0 
2.829903387263e-05 3.587438639290e-03 0.0 
0.0 0.0 -5.044444444444e-04 
-8.701615349701e-04 1.534050088586e-03 0.0 
1.534050088586e-03 2.982960737759e-03 0.0 
0.0 0.0 -7.564843357160e-04 
-1.281957485101e-03 -9.385206070326e-05 0.0 
-9.385206070326e-05 4.159171467776e-03 0.0 
0.0 0.0 -6.044444444444e-04 
-1.212906511887e-03 8.437755052735e-06 0.0 
8.437755052735e-06 4.332528287739e-03 0.0 
0.0 0.0 -5.822222222222e-04 
-1.270813931325e-03 -4.040562334661e-05 0.0 
-4.040562334661e-05 4.018667514915e-03 0.0 
0.0 0.0 -6.044444444444e-04 
-1.215139368930e-03 -5.723684032478e-05 0.0 
-5.723684032478e-05 4.317315307501e-03 0.0 
0.0 0.0 -5.822222222222e-04 
-1.281549970565e-03 -2.783058806924e-05 0.0 
-2.783058806924e-05 4.009142892880e-03 0.0 
0.0 0.0 -6.044444444444e-04 
-1.225715800122e-03 -5.846153113734e-05 0.0 
-5.846153113734e-05 4.321112834897e-03 0.0 
0.0 0.0 -5.822222222222e-04 
-1.299500121220e-03 -3.892246035712e-05 0.0 
-3.892246035712e-05 4.013014100261e-03 0.0 
0.0 0.0 -6.044444444444e-04 
-1.237102750459e-03 -6.373558927260e-05 0.0 
-6.373558927260e-05 4.316061582639e-03 0.0 
0.0 0.0 -5.822222222222e-04 
-1.310225087603e-03 -3.096991785550e-05 0.0 
-3.096991785550e-05 4.010869733645e-03 0.0 
0.0 0.0 -6.044444444444e-04 
-1.254618385227e-03 -5.449007521454e-05 0.0 
-5.449007521454e-05 4.318709008563e-03 0.0 
0.0 0.0 -5.822222222222e-04 
-1.336238080201e-03 -2.665442879324e-05 0.0 
-2.665442879324e-05 4.014359818630e-03 0.0 
0.0 0.0 -6.044444444444e-04 
-1.274728536484e-03 -4.422787035067e-05 0.0 
-4.422787035067e-05 4.314650827642e-03 0.0 
0.0 0.0 -5.822222222222e-04 
-1.357159993559e-03 -4.580559540248e-06 0.0 
-4.580559540248e-06 4.014254519705e-03 0.0 
0.0 0.0 -6.044444444444e-04 
-1.347537318405e-03 1.010824294751e-03 0.0 
1.010824294751e-03 3.920037731601e-03 0.0 
0.0 0.0 -7.117109445114e-04 
-1.301666809856e-03 -2.047408919469e-05 0.0 
-2.047408919469e-05 4.318063477050e-03 0.0 
0.0 0.0 -5.822222222222e-04 
-1.391706891411e-03 2.751450344882e-06 0.0 
2.751450344882e-06 4.016171820733e-03 0.0 
0.0 0.0 -6.044444444444e-04 
-1.286495538148e-03 1.141604132091e-03 0.0 
1.141604132091e-03 3.755942445139e-03 0.0 
0.0 0.0 -6.690433100420e-04 
-1.326407011280e-03 6.045508856538e-06 0.0 
6.045508856538e-06 4.301570573764e-03 0.0 
0.0 0.0 -5.822222222222e-04 
-1.418163902024e-03 5.346625199558e-05 0.0 
5.346625199558e-05 4.007884251177e-03 0.0 
0.0 0.0 -6.044444444444e-04 
-1.269919325548e-03 9.693842664938e-04 0.0 
9.693842664938e-04 3.741904716454e-03 0.0 
0.0 0.0 -7.168342214570e-04 
-1.359108424707e-03 6.264265058965e-05 0.0 
6.264265058965e-05 4.294165002255e-03 0.0 
0.0 0.0 -5.822222222222e-04 
-1.457002779349e-03 1.155195072583e-04 0.0 
1.155195072583e-04 4.005151940014e-03 0.0 
0.0 0.0 -6.044444444444e-04 
-1.397754652771e-03 1.342537055091e-04 0.0 
1.342537055091e-04 4.286646401950e-03 0.0 
0.0 0.0 -5.822222222222e-04 
-1.439433466702e-03 1.791245333921e-04 0.0 
1.791245333921e-04 3.981926727275e-03 0.0 
0.0 0.0 -6.212763874705e-04 
-1.437165891528e-03 2.256325768342e-04 0.0 
2.256325768342e-04 4.266187057435e-03 0.0 
0.0 0.0 -5.822222222222e-04 
-1.294521127295e-03 1.255121558487e-03 0.0 
1.255121558487e-03 3.846810996671e-03 0.0 
0.0 0.0 -7.256046805931e-04 
-1.416692839753e-03 2.731618170809e-04 0.0 
2.731618170809e-04 3.949147984694e-03 0.0 
0.0 0.0 -6.388990248527e-04 
-1.480404564063e-03 3.507234002411e-04 0.0 
3.507234002411e-04 4.240406141116e-03 0.0 
0.0 0.0 -5.822222222222e-04 
-1.527971474499e-03 5.064010242542e-04 0.0 
5.064010242542e-04 4.210902708310e-03 0.0 
0.0 0.0 -5.822222222222e-04 
-1.387518079071e-03 3.943188623073e-04 0.0 
3.943188623073e-04 3.907645916582e-03 0.0 
0.0 0.0 -6.603292536270e-04 
-1.489199031895e-03 7.040012771420e-04 0.0 
7.040012771420e-04 4.109006438777e-03 0.0 
0.0 0.0 -6.048139398938e-04 
-1.345551405801e-03 5.089205632429e-04 0.0 
5.089205632429e-04 3.844893580165e-03 0.0 
0.0 0.0 -6.886802823100e-04 
-1.449968692027e-03 9.453817318756e-04 0.0 
9.453817318756e-04 4.074908376766e-03 0.0 
0.0 0.0 -6.381145674715e-04 
-1.311416027678e-03 7.842300283395e-04 0.0 
7.842300283395e-04 3.792994805538e-03 0.0 
0.0 0.0 -6.930958846255e-04 
-1.191921020040e-03 1.114101255005e-03 0.0 
1.114101255005e-03 3.585331380848e-03 0.0 
0.0 0.0 -7.187225406772e-04 
-1.177806506474e-03 -3.598193330075e-04 0.0 
-3.598193330075e-04 4.111442480075e-03 0.0 
0.0 0.0 -5.933333333333e-04 
-1.298614317116e-03 3.518912234694e-04 0.0 
3.518912234694e-04 4.327861140627e-03 0.0 
0.0 0.0 -5.933333333333e-04 
-1.201365310379e-03 -4.039072614176e-05 0.0 
-4.039072614176e-05 4.155647570895e-03 0.0 
0.0 0.0 -5.711111111111e-04 
-1.277329052135e-03 4.889702624734e-05 0.0 
4.889702624734e-05 4.269846773222e-03 0.0 
0.0 0.0 -6.155555555556e-04 
-1.165172176686e-03 1.355369621706e-03 0.0 
1.355369621706e-03 3.569481016305e-03 0.0 
0.0 0.0 -7.239602392282e-04 
-1.326401929546e-03 -1.098251756258e-04 0.0 
-1.098251756258e-04 4.716210200324e-03 0.0 
0.0 0.0 -6.488888888889e-04 
-1.341042556431e-03 -1.497445551792e-05 0.0 
-1.497445551792e-05 4.487654478362e-03 0.0 
0.0 0.0 -6.711111111111e-04 
-1.315258375770e-03 -3.279398266088e-06 0.0 
-3.279398266088e-06 4.798065319814e-03 0.0 
0.0 0.0 -6.488888888889e-04 
-1.368317620788e-03 -1.903812859008e-05 0.0 
-1.903812859008e-05 4.498221230458e-03 0.0 
0.0 0.0 -6.711111111111e-04 
-1.325994415009e-03 1.380554954630e-05 0.0 
1.380554954630e-05 4.806277874424e-03 0.0 
0.0 0.0 -6.488888888889e-04 
-1.380848091197e-03 -1.506252807686e-07 0.0 
-1.506252807686e-07 4.508257602630e-03 0.0 
0.0 0.0 -6.711111111111e-04 
-1.343944565664e-03 7.917736370567e-06 0.0 
7.917736370567e-06 4.818216293294e-03 0.0 
0.0 0.0 -6.488888888889e-04 
-1.386616382160e-03 -2.067760603014e-05 0.0 
-2.067760603014e-05 4.497592293928e-03 0.0 
0.0 0.0 -6.711111111111e-04 
-1.354669532048e-03 3.875023501283e-05 0.0 
3.875023501283e-05 4.799753708961e-03 0.0 
0.0 0.0 -6.488888888889e-04 
-1.406907359723e-03 3.160898061574e-05 0.0 
3.160898061574e-05 4.503118169212e-03 0.0 
0.0 0.0 -6.711111111111e-04 
-1.380682524645e-03 5.561565498039e-05 0.0 
5.561565498039e-05 4.809868159536e-03 0.0 
0.0 0.0 -6.488888888889e-04 
-1.435189363615e-03 3.130270196416e-05 0.0 
3.130270196416e-05 4.499809120004e-03 0.0 
0.0 0.0 -6.711111111111e-04 
-1.611535782568e-03 8.671279044143e-04 0.0 
8.671279044143e-04 4.506015908724e-03 0.0 
0.0 0.0 -7.049993574243e-04 
-1.401604438003e-03 9.330713447470e-05 0.0 
9.330713447470e-05 4.797672975585e-03 0.0 
0.0 0.0 -6.488888888889e-04 
-1.512351284449e-03 8.656230693377e-04 0.0 
8.656230693377e-04 4.297202840087e-03 0.0 
0.0 0.0 -7.256265952625e-04 
-1.438154550875e-03 9.647646109404e-05 0.0 
9.647646109404e-05 4.497364060681e-03 0.0 
0.0 0.0 -6.711111111111e-04 
-1.436151335856e-03 1.358395788754e-04 0.0 
1.358395788754e-04 4.800332653133e-03 0.0 
0.0 0.0 -6.488888888889e-04 
-1.499230372271e-03 1.062721523167e-04 0.0 
1.062721523167e-04 4.489570327750e-03 0.0 
0.0 0.0 -6.711111111111e-04 
-1.462608346469e-03 2.027818769099e-04 0.0 
2.027818769099e-04 4.774125764298e-03 0.0 
0.0 0.0 -6.488888888889e-04 
-1.532724437083e-03 1.968943510655e-04 0.0 
1.968943510655e-04 4.482722825432e-03 0.0 
0.0 0.0 -6.711111111111e-04 
-1.501447223794e-03 2.766209172912e-04 0.0 
2.766209172912e-04 4.769601642763e-03 0.0 
0.0 0.0 -6.488888888889e-04 
-1.557872225570e-03 2.720774980370e-04 0.0 
2.720774980370e-04 4.471068660141e-03 0.0 
0.0 0.0 -6.711111111111e-04 
-1.549932705829e-03 1.034482702559e-03 0.0 
1.034482702559e-03 4.338594692453e-03 0.0 
0.0 0.0 -6.619668726724e-04 
-1.539964497909e-03 3.703806189017e-04 0.0 
3.703806189017e-04 4.750827424066e-03 0.0 
0.0 0.0 -6.488888888889e-04 
-1.593531228853e-03 3.628458802930e-04 0.0 
3.628458802930e-04 4.447964373288e-03 0.0 
0.0 0.0 -6.711111111111e-04 
-1.575889340432e-03 4.997462669703e-04 0.0 
4.997462669703e-04 4.711328261492e-03 0.0 
0.0 0.0 -6.488888888889e-04 
-1.590906187641e-03 5.071802277050e-04 0.0 
5.071802277050e-04 4.406658573059e-03 0.0 
0.0 0.0 -6.802731460288e-04 
-1.553155722451e-03 6.861757538348e-04 0.0 
6.861757538348e-04 4.351637703117e-03 0.0 
0.0 0.0 -7.011174395038e-04 
-1.617910879156e-03 6.689844391721e-04 0.0 
6.689844391721e-04 4.669016158580e-03 0.0 
0.0 0.0 -6.488888888889e-04 
-1.669910948397e-03 8.547088690357e-04 0.0 
8.547088690357e-04 4.635783510319e-03 0.0 
0.0 0.0 -6.488888888889e-04 
-1.565389776433e-03 1.113185015486e-03 0.0 
1.113185015486e-03 4.431052665958e-03 0.0 
0.0 0.0 -7.101757656324e-04 
-1.445746577220e-03 9.960480725557e-04 0.0 
9.960480725557e-04 4.140494100543e-03 0.0 
0.0 0.0 -7.083488828164e-04 
-1.382040473179e-03 -3.190058038896e-04 0.0 
-3.190058038896e-04 4.672355147485e-03 0.0 
0.0 0.0 -6.600000000000e-04 
-1.311697345882e-03 3.879464369525e-04 0.0 
3.879464369525e-04 4.545991971317e-03 0.0 
0.0 0.0 -6.600000000000e-04 
-1.392413986569e-03 1.825900643476e-05 0.0 
1.825900643476e-05 4.677427317752e-03 0.0 
0.0 0.0 -6.822222222222e-04 
-1.299551274357e-03 6.542939229750e-05 0.0 
6.542939229750e-05 4.553563985542e-03 0.0 
0.0 0.0 -6.377777777778e-04 
-1.453247710607e-03 1.192137069286e-03 0.0 
1.192137069286e-03 4.178885573169e-03 0.0 
0.0 0.0 -7.047837856643e-04 

SCALARS element_materi_plasti_kappa_shear float
LOOKUP_TABLE default
2.638449368411e-03
2.307880314974e-03
5.668059790692e-03
5.685840565928e-03
3.968724762264e-03
2.227775623383e-03
3.926609063437e-03
2.603981897009e-03
3.959861142706e-03
5.676159459017e-03
3.789460879762e-03
2.166184027025e-03
4.891618303360e-03
4.239593676265e-03
4.915486508882e-03
5.763080812267e-03
3.957109970888e-03
9.864085158710e-05
1.385502992053e-03
1.310811347843e-03
5.684919687706e-03
2.668003560693e-03
2.830444855211e-03
2.887992383095e-03
4.492952651090e-03
3.999825579596e-03
3.772973464484e-03
4.950933107395e-03
4.446798420902e-03
3.154878546998e-03
2.756846244609e-03
9.905717093618e-04
5.968283596401e-03
4.581378283715e-03
4.439297578914e-03
4.887177070447e-03
5.091662130986e-03
3.236750732307e-03
3.615750744496e-03
3.662711387174e-03
3.132788783305e-03
4.003574433579e-03
2.231218125306e-03
3.619781891395e-03
5.614862315127e-03
2.308537538977e-03
2.567928975721e-03
5.479464518158e-03
8.195853011297e-04
4.082692105509e-03
3.028705324844e-03
1.800022130003e-03
3.293726347817e-03
2.963783223813e-03
5.752538416863e-03
2.317662380795e-03
1.680471960424e-03
4.591779384906e-03
1.282089538117e-03
5.743217870912e-03
0.0
3.970806248155e-03
2.953445704213e-03
3.287038662097e-03
4.914099357777e-03
2.824966036789e-03
0.0
5.862902570517e-03
2.620748184046e-03
5.405750626230e-03
4.123083578977e-03
5.868967824668e-03
4.513723255217e-03
9.779064778028e-04
2.287061364591e-03
5.715984257660e-03
5.955190373470e-03
2.225229681788e-03
8.958780141002e-04
2.309523210765e-03
2.623606725785e-03
3.807044789785e-03
2.701030844542e-03
2.283651859930e-03
4.111166650998e-03
4.102179279090e-03
4.228241446566e-03
4.546798255785e-03
5.028716670228e-03
3.901152697752e-03
6.549433232100e-04
3.920650833441e-03
4.955587413478e-03
5.010029682247e-03
6.082587846612e-03
3.583046306489e-03
3.812238424463e-03
4.309414704673e-03
4.319293153851e-03
3.152072117772e-03
3.806820599516e-03
4.894923453038e-03
2.752080048091e-03
3.649256563451e-03
2.864912835823e-03
2.832888651383e-03
4.791522079347e-03
5.257296183677e-03
6.216847982975e-04
4.789762209254e-03
4.946970942302e-03
1.455853485302e-03
3.116660414769e-03
3.646713869330e-03
2.740266031466e-03
2.565730635348e-03
3.111248311779e-03
4.481696809263e-03
4.267994674223e-03
2.744319843462e-03
2.256121814009e-03
4.028535080126e-03
5.125478964429e-03
2.884095006377e-03
1.634010763882e-03
3.343960081378e-03
2.825136596843e-03
3.200895695618e-03
5.840634446843e-03
3.049581698772e-03
3.964814282569e-03
5.700506446746e-03
3.554006587530e-03
3.223480759992e-03
4.236959910874e-03
4.935732901856e-03
4.220142662913e-03
3.782725374417e-03
3.633905000164e-03
3.434454553281e-03
5.667308756995e-03
5.731127569311e-03
4.159105326719e-03
4.705255006089e-03
3.527054415499e-03
3.060528253236e-03
3.807578355912e-03
3.078773552032e-03
3.873095872756e-03
3.370616847933e-03
7.627933793163e-04
4.106841682748e-03
9.591787070335e-04
3.491582586837e-03
3.620903548599e-03
2.658320563693e-03
4.383820681644e-03
2.313821533156e-03
3.280595579104e-03
3.781797064791e-03
3.239934934191e-03
4.666843953081e-03
1.844128017672e-03
4.751176865938e-03
3.949884846235e-03
4.988018486650e-03
3.771577015596e-03
2.896598297230e-03
3.483459645253e-03
3.893786270809e-03
2.298745108616e-03
3.272701774280e-03
4.841674106423e-03
3.900979634001e-03
3.037833255544e-03
3.320787467051e-03
5.050201609921e-03
3.079663805871e-03
4.649906474496e-03
5.561012058297e-03
2.890227526471e-03
2.943961554453e-03
2.210045688094e-03
3.349611072642e-03
2.235768342795e-03
3.804052174663e-03
3.255583921612e-03
5.686869579948e-03
5.039238049397e-03
4.717478710770e-03
2.309621426061e-03
3.143595662693e-03
5.111000880600e-03
0.0
3.256985193650e-03
2.315875762829e-03
1.186781807755e-03
5.879212306885e-03
4.749545806609e-03
3.205712272384e-03
1.923895110586e-03
4.248611553850e-03
4.390119912627e-03
3.260852054243e-03
2.726046229142e-03
3.866905638561e-03
4.085059299403e-03
4.849847065370e-03
4.084848891733e-03
3.788784052669e-03
2.384045379571e-03
4.854751456170e-03
0.0
2.534886222220e-03
2.875294506275e-03
3.926615174907e-03
5.120800106263e-03
2.883704576323e-03
2.560806566150e-03
3.780927287153e-03
3.250336732161e-03
2.904934106925e-03
9.744138873205e-04
5.002746784696e-03
1.187677453753e-03
9.712234474307e-04
2.285555067131e-03
2.450408811608e-03
5.091607850684e-03
2.428262004319e-03
2.774880105580e-03
3.779138720656e-03
1.803156298713e-03
1.957999132830e-03
3.924614645831e-03
4.859013116494e-03
0.0
3.040676180201e-03
3.206874618957e-03
3.130650380996e-03
2.062644621155e-03
4.885442700903e-03
4.892149880117e-03
3.059373875750e-03
2.149562808967e-03
4.104130610049e-03
4.011618650566e-03
4.856263363195e-03
4.079661242982e-03
3.170623979729e-03
2.775910294640e-03
4.348640566437e-03
6.080884502444e-03
4.012120085899e-03
2.651654117440e-03
4.174160396721e-03
2.772644652466e-03
4.114504492513e-03
3.290795862291e-03
2.811701725688e-03
3.471873507376e-03
5.142731837040e-03
4.219310466071e-03
2.711805464269e-03
5.231202940207e-03
4.958047196859e-03
4.103438709337e-03
4.637764333399e-03
2.438306330947e-03
4.211956383520e-03
3.365372856234e-03
2.450675261700e-03
2.887962119562e-03
3.878533253387e-03
2.940597055344e-03
2.728683675051e-03
4.958207544710e-03
0.0
4.231308200600e-03
3.120397780434e-03
3.113605546756e-03
2.278736831083e-03
4.503373325418e-03
1.884659263120e-03
3.120901491325e-03
2.297614029118e-03
4.243041167150e-03
4.240307436026e-03
1.373936041198e-03
2.435310679187e-03
3.155120820171e-03
3.003223930663e-03
4.798301013803e-03
3.306297059748e-03
2.985321424422e-03
3.188763902837e-03
1.370686704752e-03
3.117506418936e-03
2.564683140303e-03
6.161779301333e-03
6.171298087031e-03
3.871585823704e-03
3.224089549692e-03
3.155590452933e-03
4.317766949050e-03
3.003359536048e-03
2.608662778043e-03
3.938150114373e-03
5.859163444552e-03
3.214653691530e-03
2.969191311487e-03
2.861811173678e-03
3.768586856653e-03
3.337633072254e-03
4.030230270756e-03
2.035757012657e-03
1.094219009940e-03
3.031075150381e-03
2.930652641428e-03
4.078338297131e-03
6.100030670434e-03
3.051206385844e-03
1.821620188347e-03
2.861790791984e-03
4.656042724998e-03
2.349687270255e-03
2.816498775574e-03
4.525435709533e-03
5.833892866330e-03
2.486522419677e-03
6.151276113808e-03
4.485990906698e-03
4.856089461195e-03
2.611916462935e-03
3.799226166888e-03
4.210806094155e-03
4.343507042611e-03
3.883342781648e-03
5.453648402860e-03
4.408884898377e-03
3.954238356753e-03
2.946932738359e-03
2.126147916000e-03
3.626304909236e-03
2.828752624356e-03
3.908082809323e-03
3.189022324685e-03
2.979438473071e-03
5.107150669262e-03
3.057133034874e-03
3.948493172095e-03
1.767047002602e-03
3.219295742043e-03
4.649421512783e-03
3.423567528206e-03
2.373751734207e-03
2.784414744251e-03
2.725624955031e-03
2.452240531365e-03
5.184269692729e-03
4.210892199139e-03
3.195156139089e-03
3.675464466287e-03
3.719198240263e-03
3.156300643646e-03
5.270722120896e-03
4.951030620452e-03
2.791959147438e-03
3.435291521076e-03
2.714045320190e-03
2.771808396209e-03
4.119259232477e-03
1.360400106286e-03
3.400766620885e-03
5.356429761657e-03
2.456112603846e-03
3.687823897699e-03
4.067889866897e-03
3.485977458347e-03
6.171877983723e-03
6.194847258956e-03
5.749913356992e-03
3.020677987419e-03
5.279204517925e-03
2.613300540084e-03
2.741755212613e-03
2.004260055719e-03
3.406978849626e-03
3.842950909138e-03
4.513278632072e-03
3.244307823644e-03
5.163355495152e-03
4.386423237292e-03
4.476099206042e-03
2.391474383936e-03
1.955161698588e-03
3.217570021580e-03
3.872368428503e-03
3.338770506916e-03
1.812371568338e-03
4.015486225801e-03
2.355558185554e-03
3.278219706871e-03
3.673414290175e-03
1.915648292058e-03
3.981389866811e-03
1.053059668761e-03
3.652003582868e-03
3.330842304649e-03
4.441446771420e-03
6.067281547840e-03
3.807583682193e-03
4.322942112553e-03
3.526145110671e-03
5.255189385440e-03
3.347041718801e-03
5.955073764805e-03
5.938883086238e-03
5.933478345373e-03
5.925413924026e-03
4.598269985990e-03
5.190485547386e-03
5.356291838170e-03
3.172127365247e-03
3.189545386338e-03
3.291257441844e-03
5.278332870253e-03
5.650465782490e-03
5.386391458906e-03
2.086314033400e-03
5.331196890249e-03
3.953887606243e-03
3.284431480345e-03
3.285128967487e-03
3.301125392640e-03
5.759722545495e-03
2.921518703947e-03
4.716770599090e-03
3.382244159206e-03
3.419989620685e-03
3.235774226863e-03
3.108654577361e-03
5.912838273886e-03
5.757913193712e-03
4.236288878953e-03
1.032336198831e-03
5.784372647958e-03
3.094301216638e-03
3.133163714027e-03
1.473651489525e-03
4.377992282328e-03
0.0
3.076087156915e-03
4.393331777553e-03
4.078214650418e-03
4.173061940919e-03
3.172673925433e-03
5.528089032988e-03
2.695300704482e-03
6.061028079687e-04
4.784301089445e-03
1.109397696731e-03
3.558631343330e-03
2.671343080510e-03
3.641731318210e-03
3.626491229388e-03
5.164773912347e-03
4.369311817321e-03
2.723039152115e-03
3.202065681838e-04
3.393270163090e-03
4.000013488580e-03
3.998607249003e-03
4.091967694103e-03
4.682585152391e-03
3.977798602140e-03
6.148717226547e-03
4.046693637694e-03
4.375476627736e-03
2.475463655856e-03
2.038113747758e-03
2.665603733635e-03
4.155084444682e-03
5.944456476497e-03
5.933805245861e-03
3.347496143322e-03
3.141954240646e-03
3.636565096111e-03
3.524861024850e-03
3.764870203374e-03
3.214228737877e-03
2.609429685079e-03
2.752166065871e-03
4.525635562498e-03
3.964553113648e-03
2.737089484301e-03
3.599211839311e-03
2.982464518279e-03
5.872767812274e-03
5.256518196814e-03
6.948896764315e-04
2.926992632798e-03
5.363068251323e-03
5.678180438031e-03
4.516604651069e-03
3.800290162266e-03
2.959233318371e-03
2.645089123398e-03
2.991327947613e-03
2.961565605678e-03
1.984606166548e-03
5.360282778703e-03
2.617597906633e-03
2.719354908298e-03
4.219904639673e-03
2.558238552366e-03
2.945805251787e-03
4.447306010212e-03
4.403301426083e-03
3.203880338452e-03
3.270240138624e-03
3.822758874253e-03
2.320351021533e-03
2.695647363228e-03
3.241179321446e-03
4.055854335950e-03
4.302137120783e-03
2.006945487216e-03
3.504931263533e-03
3.493889225164e-03
3.226663955409e-03
3.195012242961e-03
3.705694372684e-03
2.015330950654e-03
3.674094389629e-03
5.465741692551e-03
2.782005441388e-03
3.605540778520e-03
3.144508273296e-03
3.122849437202e-03
2.256333325417e-03
4.140151503650e-03
5.431033007288e-03
3.225301536712e-03
3.778146397866e-03
3.509424093333e-03
3.382045560242e-03
4.257156002915e-03
2.174643724136e-03
3.150567633663e-03
1.746587665763e-03
4.710220312248e-03
3.696882214136e-03
2.499260062840e-03
4.393497597306e-03
3.304371545067e-03
1.515148851358e-03
2.794723090240e-03
3.870525163770e-03
5.202539231559e-04
3.198860063348e-03
3.122843769625e-03
3.536839909767e-03
3.054969112373e-03
3.133169061378e-03
4.394974799046e-03
3.171453652514e-03
3.954441890249e-03
4.408365611267e-03
3.531054572272e-03
4.293331672903e-03
3.469160005882e-03
0.0
4.342827187450e-03
2.815733446127e-03
1.169868182888e-03
3.377528405656e-03
3.017950135559e-03
5.309388747160e-03
1.836141118027e-03
1.645439494872e-03
3.818624685672e-03
3.581263554169e-03
5.741565943865e-03
4.177684629919e-03
1.850928756814e-03
2.067405024286e-03
1.416744999512e-03
2.579714406710e-03
4.842819569639e-03
5.316030625827e-03
3.796388360631e-03
2.739477237490e-03
3.923275296672e-03
2.756654641122e-03
1.368956117904e-03
2.826459377296e-03
2.346887089609e-03
4.356557030682e-03
4.139689611657e-03
3.039564492647e-03
3.507425817395e-03
3.484969287982e-03
2.724837710706e-03
1.738579034053e-03
2.880004918018e-03
1.059860394561e-03
3.342988300000e-03
3.564932177344e-03
9.012381607526e-04
2.910014888118e-03
5.510045432400e-03
1.959702749170e-03
3.585704259986e-03
3.723526099815e-03
1.268716263999e-03
2.392889037010e-03
3.063515298583e-03
2.813209111348e-03
4.210048530920e-03
5.103573185464e-03
5.177892081959e-03
2.829945348819e-03
1.363451425510e-03
3.691969532227e-03
3.550626997966e-03
3.676511325993e-03
1.285478420515e-03
8.537344141222e-04
7.845181071081e-04
2.162938812804e-03
1.377340432524e-03
3.170219899797e-03
0.0
2.524870915773e-03
4.491269867148e-03
3.700282617022e-03
5.066161758073e-03
3.327949804502e-03
4.251884330892e-03
2.509212341416e-03
1.018037242248e-03
5.829475890603e-03
6.039028528119e-03
4.216434674855e-03
3.565489033798e-03
2.587498848121e-03
5.999263223227e-03
2.442752516004e-03
3.696609549568e-03
3.563907472710e-03
3.514699694935e-03
5.927065042664e-03
6.015277257663e-03
1.330400211541e-03
1.449907591737e-03
1.344592241943e-03
3.643608196866e-03
4.850396606121e-03
0.0
5.101358492196e-03
1.409139728971e-04
1.499124232117e-03
3.824208957472e-04
0.0
2.029814193675e-03
4.688865864911e-03
4.611649624508e-03
3.864254668426e-03
9.306078872588e-04
4.020589784949e-03
5.797624803762e-03
5.973591106953e-03
3.688007304244e-03
1.196237126604e-03
5.834612071299e-03
3.414725027011e-03
9.671159728271e-04
1.409744689688e-03
9.368666534769e-04
2.773625038877e-03
5.128733981852e-03
5.686078140094e-03
1.614169892137e-03
3.141780048589e-03
4.903795419048e-03
5.124707089311e-03
4.540751789241e-03
4.863760003676e-03
5.230664655895e-03
4.885659315087e-03
4.900079095049e-03
5.104618843216e-03
2.371313285604e-03
3.639130252575e-03
3.700407251155e-03
1.543007074285e-03
4.822691056272e-03
4.723797952646e-03
4.594502443142e-03
2.187658065542e-03
2.078158679153e-03
4.298928970353e-03
4.465695048772e-03
4.739825188448e-03
3.625004239622e-03
4.980074041723e-03
4.182381661481e-03
3.612530889479e-03
1.648586597975e-03
1.078919747717e-03
9.715320649564e-04
8.189522588763e-04
3.276017880373e-03
3.023112973762e-03
3.897742298982e-04
4.028126407989e-03
2.904706458492e-04
5.885086834910e-03
5.811364703112e-03
5.844706076157e-03
1.127270833140e-03
2.214903500655e-03
5.806505327903e-03
4.688671280238e-03
5.826774921974e-03
4.813055851057e-03
4.917144813202e-03
2.903322035183e-03
6.008349193016e-03
6.003877113261e-03
4.727827648335e-03
4.864305038441e-03
4.249335747198e-03
0.0
3.175859147544e-03
1.259325279811e-03
4.420798695160e-03
3.384638883793e-03
4.409067033902e-03
2.131043982543e-03
1.108023222196e-03
4.695482135487e-03
3.365831542969e-03
2.646631452456e-03
4.556588175848e-03
5.414895944389e-03
2.656831201839e-03
3.200576911771e-03
3.816886599349e-03
4.190899904542e-03
4.331300515814e-03
2.822232598008e-03
3.605666078604e-03
3.473782743791e-03
3.959311659394e-03
4.657481856823e-03
4.474738788930e-03
2.497721918515e-03
5.428170056435e-03
5.196932708230e-03
3.994972095663e-03
4.018877418988e-03
4.067532001752e-03
5.468828346424e-03
5.334434594670e-03
3.777218885507e-03
4.785229386991e-03
5.183640898652e-03
4.486085823949e-03
4.626918442455e-03
5.440760853048e-03
4.828731435924e-03
3.492214324912e-03
1.813629337524e-03
2.595415623828e-03
1.751915947168e-03
1.311389193297e-03
5.325791288567e-03
4.638904880307e-03
1.232072997821e-03
5.349220756651e-03
4.109200150890e-03
4.453473742339e-03
4.501290464753e-03
2.822661026846e-03
4.600361826760e-03
3.989940508894e-03
1.568365711787e-03
4.607579259789e-03
1.682217231393e-03
4.433060704539e-03
4.965853579252e-03
1.931234771425e-03
2.536905363929e-03
3.506959235330e-03
4.546823231474e-03
2.929878446617e-03
5.094658413771e-03
4.689487714453e-03
3.549548679273e-03
4.373859018118e-03
4.508144441649e-03
4.950601638813e-03
1.602271484754e-03
3.405781233643e-03
3.108775469077e-03
5.079843116042e-03
3.194307102305e-03
3.880531337843e-03
4.194530845224e-03
4.813687637528e-03
2.696113206384e-04
1.541456333067e-03
1.874707634932e-03
4.535680067079e-03
4.684102630711e-03
3.785681380179e-03
4.265606377495e-03
3.105476038775e-03
3.587079011170e-03
4.392674845493e-03
1.860767443432e-03
4.452816754116e-03
3.543702289538e-03
1.992785431315e-03
3.392397121739e-03
2.975423009005e-03
2.515877789845e-03
3.725661475431e-03
9.890849693237e-04
7.121019429699e-04
4.132428392348e-03
1.740140079302e-03
4.103577769620e-03
3.987009557526e-03
3.370047699069e-03
3.248806400505e-03
5.300420175180e-03
2.104285098992e-03
2.995450123017e-03
2.940527097191e-03
1.410651741479e-03
4.429529881649e-03
4.136718757980e-03
1.859816294009e-03
3.894261520894e-03
4.933477745413e-03
1.699722713993e-03
5.408694418047e-03
5.411197824938e-03
2.017061567542e-03
2.915404601559e-03
2.179306637539e-03
4.367605250964e-03
3.647788208579e-03
5.489535749250e-03
5.304729192866e-03
4.231498250214e-03
4.146491013704e-03
1.780674243216e-03
4.280532226645e-03
4.934868325194e-03
3.669316609231e-03
4.695546322833e-03
5.063717161736e-03
2.645489529404e-03
5.190164349716e-03
3.272404207533e-03
3.596661715040e-03
2.751844944681e-03
3.019000093276e-03
4.810385432176e-03
3.246422704326e-03
2.264566458407e-03
1.689403800147e-03
4.815225778648e-03
2.226110953632e-03
4.194754128453e-03
4.940895878954e-03
4.276223362944e-03
3.112253213804e-03
3.202020562987e-03
1.919623832173e-03
1.352217145348e-03
4.164633130640e-03
4.560658305418e-03
1.177128837243e-03
2.915068821861e-03
1.620327168500e-03
4.555465457416e-03
2.973416926449e-03
3.909810264466e-03
2.724408296497e-03
5.208767427969e-03
2.593619795372e-03
4.035142549939e-03
2.532928249258e-03
4.024142569854e-03
3.450900747862e-03
4.136123601672e-03
2.485244761370e-03
1.564757219021e-03
4.294495704809e-03
2.163488820880e-03
3.387401299419e-03
4.565662359773e-03
2.738581822716e-03
4.665942928302e-03
1.465348703278e-03
4.246327033609e-03
1.699623542301e-03
2.032350589391e-03
5.536974569683e-03
3.426908671018e-03
1.540384123315e-03
3.758577465195e-03
3.927524684088e-03
2.715033437352e-03
4.314845763778e-03
4.948351979472e-03
3.360890771607e-03
3.891846381777e-03
4.252820554628e-03
2.212724349773e-03
2.843833598180e-03
4.035789724436e-03
3.996131275531e-03
3.575096828484e-03
3.792627721388e-03
4.802343365754e-03
4.415034608388e-03
4.389129640424e-03
3.467263775260e-03
3.595494986515e-03
3.583279255749e-03
4.289394557029e-03
5.421975200704e-03
2.486182053314e-03
3.861488826342e-03
5.063142224082e-03
3.131891392016e-03
3.028041098227e-03
1.823938140991e-03
3.705908196928e-03
3.091369410019e-03
4.675935954995e-03
4.534875968551e-03
2.056161555857e-03
2.786655864968e-03
2.873165513745e-03
2.868546210609e-03
3.110365765296e-03
1.843618803568e-03
3.272992134604e-03
3.412916071715e-03
5.192089283469e-03
3.281566540745e-03
3.626240938450e-03
3.586985508785e-03
3.409305181201e-03
1.897398460282e-03
3.604818096321e-03
3.888630237913e-03
4.421922450971e-03
3.317485446496e-03
3.647674555787e-03
4.673336337086e-03
3.224252799485e-03
3.496064654626e-03
2.622358304585e-03
3.055333394029e-03
3.164663825952e-03
2.311141121049e-03
2.125313783725e-03
3.477924834306e-03
3.736945563828e-03
4.738585916755e-03
1.315321289851e-03
2.446620192041e-03
2.982448329977e-03
3.433203482513e-03
4.531582693643e-03
3.499304588405e-03
2.673974497719e-03
3.139905464341e-03
5.072747806473e-03
2.707809154280e-03
1.166214898562e-03
1.463299212712e-03
2.914504388254e-03
3.018723201689e-03
2.686713935682e-03
3.062407380188e-03
2.712109552951e-03
1.499659389839e-03
4.359635542217e-03
2.393958649680e-03
3.066798902882e-03
4.495652146628e-03
4.450791082476e-03
5.300178894970e-03
4.977951589195e-03
2.397146190700e-03
4.416844529747e-03
3.119400395624e-03
3.332129797491e-03
3.122426360325e-03
2.988793531740e-03
2.855846187293e-03
3.177000482072e-03
2.756193394154e-03
2.592075865469e-03
2.421633066575e-03
3.387402253471e-03
2.293172573691e-03
2.277057048855e-03
2.911114260278e-03
1.155684839829e-03
4.799837983891e-03
2.295247612437e-03
3.251041652364e-03
3.393599796704e-03
3.145369302234e-03
3.078086569887e-03
5.318104494318e-03
4.480500477960e-03
2.985180505105e-03
4.544225245269e-03
5.407567982517e-03
2.819844426375e-03
3.291868619470e-03
4.617460502529e-03
3.604719748764e-03
2.828319211558e-03
5.770682299556e-03
2.324148480044e-03
2.632797394299e-03
5.423157329672e-03
1.479799231385e-03
4.397525855562e-03
5.165585481732e-03
2.315901153844e-03
1.693562376470e-03
5.527898528543e-03
3.711930513200e-03
4.919552001560e-03
1.951673982838e-03
3.287761322063e-03
5.034502267977e-03
5.186304779390e-03
3.552693579741e-03
3.534005249318e-03
4.400555289825e-03
4.253543167516e-03
2.943285220908e-03
3.519756308427e-03
3.287722794547e-03
1.604761110599e-03
2.916005013921e-03
2.089170602373e-03
2.495795305071e-03
3.131259226377e-03
5.609482615871e-03
5.438909998859e-03
5.417054799902e-03
3.703317504642e-03
5.161557093516e-03
3.868518273720e-03
5.545650970965e-03
4.897334775276e-03
3.311771604762e-03
2.197730088428e-03
5.053606803532e-03
5.398699092692e-03
5.059342313408e-03
4.930251969398e-03
3.686756924755e-03
2.638215958256e-03
3.385656639266e-03
3.735595459470e-03
3.380928897864e-03
1.515738106098e-03
4.891642251277e-03
2.057605305164e-03
2.303129579541e-03
1.798145096306e-03
1.202338881616e-03
2.291547627481e-03
2.255519192117e-03
1.119365171026e-03
3.821601090175e-03
3.628201443265e-03
4.633003595104e-03
3.816334825167e-03
1.776186669795e-03
3.629386261877e-03
1.548469868943e-03
5.595449219484e-03
1.931840670526e-03
3.698695061029e-03
4.663243438870e-03
2.011134684472e-03
1.247841792705e-03
1.362382450494e-03
3.956724378172e-03
3.694573121702e-03
3.378959753737e-03
3.476784983087e-03
3.160808567775e-03
1.209468731440e-03
5.051259765074e-03
3.748618971867e-03
3.477272273897e-03
1.950538792296e-03
4.782003339930e-03
3.210604208947e-03
5.183136400848e-03
1.092245890419e-03
2.105066893939e-03
3.669072015162e-03
1.206486766565e-03
5.304264296023e-03
2.175618363556e-03
1.951041802013e-03
3.970362899570e-03
5.544534571255e-03
3.589900622387e-03
4.195224401096e-03
4.919263556773e-03
3.618574329088e-03
2.771490720799e-03
3.147261186436e-03
2.962169357453e-03
3.142630492045e-03
3.544072557654e-03
1.522290315328e-03
6.123405621243e-03
2.263220382989e-03
3.970342460405e-03
2.658927723359e-03
4.758938700212e-03
1.696532885482e-03
3.388847263524e-03
3.457624531915e-03
2.514428578240e-03
1.677345446119e-03
2.396212171814e-03
2.754267880200e-03
3.227262210638e-03
4.988779509347e-03
2.815825285194e-03
4.795644255112e-03
5.516289922385e-03
5.146103467286e-03
5.257081820144e-03
3.182071023712e-03
4.029201795451e-03
5.042361025696e-03
2.756595180964e-03
2.647290714061e-03
3.056301189697e-03
2.572569436643e-03
2.462008023465e-03
2.644345930535e-03
1.440401882729e-03
3.630426804566e-03
1.569273956402e-03
5.480811851792e-03
5.602378623592e-03
1.419199509514e-03
5.275547562051e-03
2.804242796236e-03
4.372719245337e-03
2.891727352859e-03
5.381895938701e-03
3.185020396507e-03
3.346610583280e-03
2.289654001474e-03
3.542499471540e-03
3.433320806315e-03
3.266208049096e-03
2.035076047681e-03
2.493404353718e-03
2.201070291381e-03
5.424319885087e-03
5.590129291020e-03
3.903582702292e-03
2.909258766392e-03
2.335058945798e-03
5.293513921389e-03
1.953817967391e-03
4.234737884749e-03
5.172652995614e-03
5.124227989435e-03
9.277188622566e-04
2.506898590902e-03
4.525242961084e-03
4.563239763712e-03
3.241690536946e-03
2.241320889606e-03
2.833288907621e-03
4.078547169666e-03
4.419169055791e-03
5.013620306272e-03
2.282293485652e-03
4.307804809555e-03
1.686847443505e-03
5.290274890223e-03
4.851002717086e-03
4.643175649224e-03
2.345179317856e-03
1.807172178817e-03
1.801948734361e-03
3.359707236442e-03
5.507142592636e-03
5.108003363980e-03
1.046447068849e-03
2.179901417413e-03
3.852336584430e-03
3.800392508022e-03
2.586138136504e-03
9.771895354137e-04
2.930181311238e-03
2.283701537404e-03
1.568412579387e-03
4.696631355627e-03
4.607881037575e-03
4.766072203043e-03
4.081754060291e-03
4.603369163212e-03
4.379957173958e-03
4.618906992019e-03
2.458376662123e-03
4.098638148539e-03
4.907202475208e-03
5.648784616651e-03
4.495095601971e-03
2.548434779706e-03
3.912793135380e-03
5.512760513766e-03
3.001262042829e-03
3.180884923332e-03
2.468543689254e-03
5.028337068141e-03
3.427253910037e-03
3.290153938343e-03
3.675470650321e-03
2.182285102727e-03
4.189801390205e-03
2.291578316535e-03
1.349449754861e-03
5.636015473331e-03
3.625895958899e-03
2.103450277768e-03
4.046287823861e-03
4.878000002137e-03
3.895798009600e-03
3.114017949884e-03
8.889497729122e-04
4.793301523209e-03
4.034143798685e-03
2.338495865229e-03
4.679004096828e-03
0.0
3.545292720195e-03
3.183419108901e-03
4.620052298239e-03
3.760015126243e-03
2.393922234819e-03
4.445933361572e-03
3.448409215898e-03
2.584776922099e-03
4.250432662385e-03
1.906468634271e-03
4.153126910283e-03
1.818802017300e-03
5.293743423829e-03
4.239353654533e-03
2.394815569185e-03
4.179465517636e-03
5.639919064862e-03
3.534684727708e-03
2.288195308190e-03
2.779857412875e-03
4.157293753941e-03
4.559059439739e-03
3.534808419225e-03
4.252606570727e-03
4.782120039690e-03
4.278791894662e-03
3.738223600894e-03
3.499074933205e-03
3.494139593801e-03
4.747419654542e-03
4.255099070675e-03
3.839964885527e-03
4.569340265878e-03
3.056246348132e-03
2.393304954355e-03
2.930480403413e-03
6.086851266750e-03
4.117844399000e-03
3.455995573439e-03
3.753400023371e-03
2.472071372363e-03
3.491628202087e-03
4.204348122106e-03
4.268597776756e-03
4.772004198945e-03
4.710233733702e-03
4.692963440339e-03
1.106720622824e-03
3.608330547153e-03
3.820362875112e-03
4.664326353529e-03
4.680096484355e-03
2.352584026882e-03
1.558884795758e-03
2.654480659437e-03
3.731003145245e-03
3.466490700851e-03
3.315280051285e-03
3.510786059953e-03
4.741445271794e-03
3.000739119005e-03
3.725942709322e-03
1.882186228005e-03
1.989209782105e-03
4.859365221654e-03
5.378791863780e-03
3.622412790060e-03
4.086298431898e-03
8.788451117360e-04
2.150327118180e-03
4.157073371539e-03
8.318441689136e-04
5.408814910997e-03
1.796994317519e-03
4.563827465076e-03
4.326693611244e-03
2.179157756358e-03
2.902957421488e-03
5.531946144864e-03
2.724274636976e-03
3.597238446451e-03
3.949741788311e-03
1.387126890400e-03
1.483538630366e-03
4.094562523505e-03
4.462003929120e-03
4.216899447097e-03
3.250175486718e-03
5.197689124532e-03
4.432557972304e-03
3.662154238880e-03
4.324815174578e-03
4.318493610634e-03
4.118093824424e-03
3.698739609380e-03
3.642170033284e-03
5.589231027012e-03
3.013506558343e-03
4.255186571382e-03
2.631728022376e-03
2.719221655027e-03
3.230635052549e-03
2.472264286779e-03
1.402294089302e-03
2.643957478186e-03
4.711133417206e-03
2.471516709082e-03
4.468472658716e-03
2.193648896864e-03
1.986292001410e-03
2.990854761195e-03
4.632153164590e-03
4.258818863725e-03
4.455822626565e-03
2.409857783535e-03
4.599243387348e-03
4.586353591898e-03
3.003262797050e-03
3.764237663719e-03
1.259809435264e-03
4.417137978971e-03
2.598861938414e-03
3.559924899756e-03
2.891071441809e-03
4.599295072822e-03
4.492928374407e-03
3.946747793921e-03
3.008453656814e-03
3.177730900320e-03
4.583213391973e-03
3.022048143241e-03
1.998492614778e-03
1.639620437187e-03
1.813972294795e-03
2.527763030566e-03
3.023198208948e-03
4.233192300425e-03
3.640278608643e-03
1.787168974819e-03
3.020737013717e-03
3.250114505745e-03
4.609207531696e-03
1.720484110792e-03
4.768807741004e-03
2.542365269620e-03
3.372604860332e-03
3.955992186008e-03
3.843149938690e-03
2.565660421796e-03
3.009689123218e-03
4.457896627465e-03
1.960918397589e-03
4.405903501378e-03
3.240600366134e-03
3.564971743916e-03
2.068612722327e-03
3.806478467456e-03
4.436879848710e-03
1.816133218611e-03
2.713220334332e-03
2.003794310318e-03
1.222241799405e-03
3.754040591865e-03
4.602132618812e-03
4.606753680845e-03
2.762317310720e-03
5.921576080326e-03
1.524180144643e-04
2.912859680010e-03
2.189495913324e-03
3.665001844436e-03
3.520328983887e-03
2.638881836419e-03
2.895778659108e-03
4.043104173156e-03
2.482129023893e-03
5.209900433282e-03
3.214049017557e-03
3.647482495706e-03
3.710983494359e-03
2.656638786889e-03
3.855170451250e-03
4.566671673770e-03
4.366198307929e-03
1.028648459849e-03
0.0
2.165054714133e-03
3.723014921691e-03
2.395137752120e-03
2.817631679997e-03
2.513976997857e-03
3.806732758052e-03
4.815158278389e-03
3.775227130307e-03
2.362468453277e-03
4.403407743042e-03
4.096150277746e-03
2.928708125507e-03
3.798202669823e-03
3.830814983830e-03
2.434166470534e-03
2.429201062824e-03
3.861528244714e-03
4.613156150105e-03
4.387204249011e-03
2.657070979426e-03
3.880643775732e-03
2.837716406776e-03
2.485420115051e-03
3.105685387870e-03
2.225639351650e-03
2.780093807568e-03
2.725707991279e-03
2.761000011738e-03
3.893879650775e-03
2.100922071665e-03
3.891918480221e-03
3.915697350990e-03
2.204461836540e-03
3.709703770702e-03
0.0
5.365652246451e-03
2.578069340872e-03
2.173697461019e-03
3.448943280228e-03
3.975644968851e-03
4.011347503912e-03
2.443864926480e-03
1.964861984032e-03
1.711666579155e-03
4.092079591951e-03
2.346058795579e-03
2.509223878502e-03
4.534649018568e-03
2.777991002642e-03
4.537667482143e-03
4.058891197805e-03
0.0
5.816180050420e-03
4.902062641942e-03
3.881412651745e-03
2.440978645024e-03
3.770170632493e-03
2.426839343308e-03
1.518214254580e-03
7.862673379893e-04
5.546974744787e-03
4.665874526858e-03
3.739497969649e-03
5.215858982210e-03
1.786753972791e-03
4.945218504881e-03
4.727704294311e-03
2.892091425302e-03
3.818142524302e-03
2.797163094051e-03
2.426438530921e-03
2.920765910813e-03
4.893505897122e-03
4.727405870860e-03
2.743689612102e-03
4.673515583297e-03
0.0
2.485522009972e-03
5.040677103797e-03
3.152365298128e-03
2.607652291814e-03
3.607194230213e-03
3.172614263735e-03
2.188759691854e-03
2.409032827129e-03
2.923122928886e-03
2.479690312005e-03
2.876821812237e-03
4.465612370866e-03
5.532694685970e-03
2.480976938953e-03
4.855765288150e-03
5.147151796070e-03
2.491148219769e-03
2.231684133508e-03
3.071159247528e-03
2.618928641937e-03
4.855263855775e-03
2.512300808846e-03
2.262013899534e-03
2.743671721339e-03
2.429414246353e-03
2.905151765398e-03
2.632275217683e-03
3.664855587075e-03
4.505149016415e-03
2.765225984553e-03
2.582205512883e-03
2.386883807025e-03
2.387003191431e-03
0.0
5.504082384171e-03
5.322543550804e-03
7.848135277644e-04
2.549500333694e-03
2.400638059405e-03
2.463285382783e-03
4.810923744731e-03
3.198165242386e-03
4.606096513073e-03
2.664651155853e-03
3.655834997024e-03
4.200689173686e-03
2.113752298900e-03
1.912300493824e-03
3.255578082472e-03
1.273953511854e-03
4.816843425833e-03
2.290848895150e-03
2.168710725122e-03
2.559244781557e-03
4.283416494899e-03
4.812195502839e-03
2.539570789041e-03
3.643462494389e-03
4.855540140174e-03
2.948190669232e-03
2.976334480875e-03
2.027418807040e-03
2.926129920543e-03
4.448255544290e-03
2.964508539853e-03
5.409142776678e-03
5.734258886474e-03
4.026664295728e-03
5.743896818908e-03
5.718569705540e-03
2.582070465025e-03
2.595631204153e-03
3.199953522585e-03
0.0
1.902903777885e-03
3.604210869195e-03
2.807391870645e-03
2.804874001203e-03
2.021751019950e-03
2.194943763957e-03
4.142001498770e-03
2.644769460266e-03
2.249798190126e-03
3.567736017229e-03
4.967219196927e-03
4.886134841971e-03
2.605300666506e-03
3.828525680062e-03
0.0
1.957535475967e-03
3.521502279004e-03
1.981252673420e-03
2.924275991023e-03
2.745952613107e-03
2.849229022871e-03
2.462891224688e-03
5.296655538006e-03
2.503533226713e-03
5.524289484905e-03
5.153625615526e-03
6.001172921191e-03
5.100455085510e-03
4.110540018138e-03
2.637651237191e-03
2.100855566225e-03
3.191285649529e-03
4.869911819268e-03
1.668585154639e-03
1.835666317314e-03
2.227285640186e-03
3.938213713365e-03
5.540832376998e-03
4.655361428653e-03
3.499491474384e-03
5.052024159388e-03
4.084593475503e-03
2.632811007746e-03
2.862235179152e-03
4.698107313135e-03
3.316215251475e-03
3.587892556505e-03
3.896233695222e-03
4.114095616366e-03
4.188562373750e-03
1.799506149793e-03
2.750045215379e-03
5.853261315327e-03
4.426727944562e-03
3.704988570506e-03
5.563415471233e-03
4.701176930839e-03
5.605287308872e-03
2.984653430048e-03
2.899269361477e-03
3.882189993689e-03
0.0
2.099672330588e-03
4.918810832529e-03
9.297763855901e-04
3.755397294441e-03
2.797405890751e-03
1.199320246670e-03
1.287155906031e-03
6.012085979982e-03
3.536739645719e-03
5.807206894268e-03
2.659927490576e-03
3.526193540084e-03
0.0
5.649183673557e-03
1.226889212049e-03
5.591486415216e-03
4.894034742833e-03
5.539486036353e-03
2.262943268428e-03
4.213950339262e-03
3.025007021002e-03
3.131326445098e-03
4.091554630855e-03
5.020955983920e-03
3.911662398283e-03
5.268125805587e-04
4.885085777727e-03
3.118765135349e-03
9.712620635747e-04
3.457233058136e-03
5.927711436663e-03
5.789822867449e-03
3.808569037443e-03
4.215889140078e-03
2.538577934307e-03
5.833806765854e-03
2.555830622428e-03
2.490656388983e-03
3.320251670345e-03
3.625198829927e-03
5.701509361268e-03
5.926679449314e-03
5.825453120953e-03
2.375146025770e-03
1.855020722498e-03
3.558870854792e-03
3.632521599668e-03
4.888825416704e-03
5.046946971520e-03
1.549964253441e-03
0.0
4.672705056340e-03
4.574124372469e-03
1.492817307624e-03
4.534041151919e-03
3.791507055834e-03
3.441092852532e-03
4.640515334488e-03
3.044493888229e-03
3.085586377938e-03
1.541679909506e-03
3.205964040354e-03
5.539122948349e-03
5.470096428524e-03
3.349468659419e-03
4.316012489498e-03
5.096328403816e-03
5.066889044332e-03
4.866255092984e-03
3.513811278074e-03
2.745903881908e-03
5.643353601341e-03
2.006177374357e-03
1.336548591570e-03
4.740994586223e-03
1.967258917603e-03
3.030928276529e-03
4.804010908766e-03
4.798192704978e-03
4.457553134226e-03
4.812474116929e-03
4.086135366692e-03
0.0
1.909648872290e-03
2.592269180864e-03
4.073105943506e-03
3.300295154597e-03
5.598216389854e-03
3.155889343856e-03
2.080876808324e-03
1.684831239890e-03
1.996726710914e-03
4.805748266782e-03
2.545899529970e-03
5.665640345273e-03
1.260613380941e-03
2.717034335032e-03
4.089865816188e-03
4.150741350700e-03
3.513862819322e-03
4.079622705219e-03
3.886731369533e-03
5.955413447924e-03
5.808855366257e-03
1.973720843828e-03
5.623880488313e-03
5.288178170346e-03
2.706065533822e-03
3.694588255657e-03
4.724906017287e-03
5.013738577707e-03
0.0
2.864341795003e-03
5.304542939534e-03
4.364446428508e-03
4.836626331640e-03
3.730875922936e-03
4.587318565965e-03
5.089225402943e-03
3.906899070662e-03
3.750017617315e-03
3.537069004234e-03
2.588839608145e-03
5.047138554196e-03
3.933020823055e-03
5.546377694027e-03
1.946527573604e-03
5.421130664064e-03
4.841192871563e-03
9.322091538505e-04
2.293274876912e-03
5.049998438284e-03
5.689077263393e-03
5.605137768792e-03
3.830427027326e-03
4.275713481985e-03
1.034452648196e-03
0.0
9.165803274728e-04
2.306330849804e-03
0.0
3.232809435929e-03
4.778427176324e-03
5.703044928894e-03
4.347082166528e-03
3.002796748421e-03
4.148995897399e-03
2.783709893463e-03
4.463871432644e-03
4.932249577077e-03
5.252682971647e-03
1.354054557860e-03
0.0
4.840119537013e-03
7.233031137748e-04
8.681517225348e-04
1.435436843906e-03
1.472272678795e-03
3.855676984439e-03
5.537407312308e-03
5.639733232519e-03
4.436603250530e-03
2.523558595448e-03
4.438054910322e-03
5.878210086007e-03
3.406643456978e-03
3.631025882734e-03
3.027978513677e-03
7.658097359086e-04
5.095377053932e-03
4.007087122991e-03
1.117452099742e-03
3.054154399225e-03
5.821463871987e-03
5.616162225123e-03
5.771476761292e-03
2.378943900085e-03
0.0
4.729401298327e-03
5.982820025955e-03
5.116893597155e-03
3.780141864939e-03
2.757852932878e-03
1.016540728646e-03
5.742488357776e-03
8.130160899770e-04
3.471132188594e-03
5.976997195660e-03
0.0
4.334445045259e-03
4.928068088589e-03
5.685262055675e-03
3.960311455775e-03
4.602685966077e-03
5.674047741207e-03
5.673486810091e-03
4.691284669015e-03
5.438753250395e-03
2.700307817537e-03
3.496149835990e-03
4.345309502369e-03
5.753633298066e-03
1.736380299792e-03
3.496568385412e-03
4.939582600280e-03
1.368820282863e-03
2.744988563961e-03
5.663738979535e-03
5.807014388648e-03
1.265820552801e-03
2.857699370651e-03
3.526860356291e-03
5.236929301907e-03
0.0
5.763265201970e-03
4.458722862593e-03
3.044071100787e-03
4.287981028573e-03
4.654162068594e-03
3.688235848984e-03
1.174039248576e-03
2.490177180056e-03
3.382376733098e-03
3.778484931935e-03
3.590372836895e-03
3.200278276933e-03
3.401617339723e-03
1.200485253478e-03
4.444142389629e-03
4.959617724818e-03
2.494216693804e-03
5.683473093287e-03
4.880068419397e-03
3.847676400356e-03
4.572298701193e-03
3.295609289569e-03
3.277091984412e-03
3.455826167072e-03
2.410347476307e-03
3.171270214627e-03
5.151777217512e-03
3.979240728433e-03
5.867901631608e-03
2.336872728529e-03
4.397657744471e-03
5.380026001316e-03
3.734283041451e-03
4.159349955921e-03
1.018917914231e-03
5.297615537063e-03
5.603907969465e-03
1.200386500765e-03
3.098141903975e-03
0.0
5.607338238193e-03
5.060983685170e-04
2.794463297702e-04
5.991600159705e-04
2.955626946391e-04
6.098016840537e-04
3.025100751634e-04
6.084287465306e-04
3.075086811000e-04
6.028795044126e-04
3.119221448479e-04
5.948148051243e-04
3.165233029276e-04
5.839186878612e-04
3.214974282658e-04
5.691546757199e-04
3.286529347592e-04
5.524657210440e-04
3.371293191797e-04
5.333913610324e-04
3.443860856938e-04
5.068292425138e-04
3.537693778991e-04
1.108478951506e-03
4.826063922157e-04
3.658779237797e-04
4.609422183607e-04
1.042884907419e-03
3.791839730116e-04
4.416819109976e-04
3.913237479882e-04
4.244535489181e-04
3.988522861640e-04
1.140816814256e-03
4.081302859983e-04
3.967846569188e-04
3.912120811599e-04
3.804012727987e-04
3.750093097331e-04
3.434734198305e-04
3.591782832869e-04
2.810521107916e-04
3.623904469228e-04
2.235144755803e-04
4.307389481175e-04
2.293463436759e-04
1.347236606608e-03
2.981849249588e-04
5.865521407022e-04
4.052379768244e-04
8.270724048977e-04
5.659050676491e-04
1.150372148230e-03
8.287367337132e-04
1.203332502355e-03
1.318670647473e-03
1.280639147596e-03
5.808492322467e-04
4.270370811875e-04
4.806224739709e-04
4.087356936095e-04
1.229699619066e-03
8.349824172224e-04
9.608595302771e-04
7.135168088298e-04
9.593137478188e-04
7.092802986552e-04
9.624230430895e-04
7.128106490750e-04
9.644867716114e-04
7.166479265062e-04
9.651090364397e-04
7.199970625834e-04
9.634102609860e-04
7.225643478717e-04
9.601487830081e-04
7.248167203394e-04
9.563847790158e-04
7.269559298801e-04
9.511323705013e-04
7.283282029075e-04
9.448837807064e-04
1.523192220102e-03
7.290354009140e-04
9.352878669841e-04
7.275108027621e-04
1.581456415713e-03
9.238384383672e-04
7.237950145432e-04
1.364730809377e-03
9.104007451099e-04
7.174891789998e-04
8.942129136848e-04
7.082057774208e-04
8.739665712671e-04
6.939121706395e-04
8.485009114828e-04
6.716498102687e-04
8.173049607505e-04
1.760573875558e-03
6.454546759328e-04
7.845928395579e-04
6.187249533601e-04
7.629411618528e-04
8.060508583654e-04
6.032832179478e-04
9.844448501867e-04
6.243723085069e-04
1.194014423098e-03
7.044475151864e-04
1.364199414334e-03
1.610111406310e-03
8.519197886821e-04
1.127455882083e-03
1.596869497048e-03
8.888927016387e-04
1.008034169737e-03
8.520657726702e-04
9.299657573510e-04
1.678359576692e-03
1.241467986912e-03
1.086768128404e-03
1.310005273874e-03
1.098007961969e-03
1.312834614401e-03
1.102144291194e-03
1.313860002669e-03
1.106406192376e-03
1.314714001623e-03
1.110623534650e-03
1.314764906232e-03
1.114799593633e-03
1.313886852486e-03
1.119143839422e-03
1.312244079523e-03
1.123206879264e-03
1.309742381847e-03
1.126395466191e-03
1.306206244155e-03
1.712592149956e-03
1.128563011930e-03
1.301433669595e-03
1.128310248528e-03
1.481709361190e-03
1.294837564183e-03
1.124738951981e-03
1.286955439009e-03
1.117450346623e-03
1.278591774483e-03
1.747415205584e-03
1.106337564751e-03
1.271185373539e-03
1.091714577932e-03
1.267079920595e-03
1.075014028548e-03
1.271994950096e-03
1.058072799069e-03
1.294215738336e-03
1.029568648787e-03
1.305713112747e-03
1.001405006552e-03
1.893519129201e-03
1.013290767454e-03
1.331565248789e-03
1.051292941268e-03
1.420636578844e-03
1.254878948603e-03
1.538411109220e-03
1.749814369381e-03
1.657752922744e-03
1.313190695872e-03
1.165812567833e-03
1.243586703310e-03
1.160599108200e-03
1.875756606251e-03
1.595885243391e-03
1.666399810320e-03
1.478565083579e-03
1.663105926442e-03
1.472428907928e-03
1.665323346302e-03
1.473345293829e-03
1.668721779825e-03
1.475060790659e-03
1.672515119995e-03
1.476713251565e-03
1.676405268876e-03
1.477962616502e-03
1.680151147762e-03
1.478478685457e-03
1.683435136354e-03
1.477847663574e-03
1.685977886182e-03
1.826172981962e-03
1.475703873381e-03
1.687528137387e-03
1.471717033979e-03
1.808216096976e-03
1.687502052684e-03
1.621624466811e-03
1.465420332610e-03
1.685651184651e-03
1.456682442406e-03
1.683271242531e-03
1.446338352429e-03
1.681882221415e-03
1.435745486961e-03
1.686558014631e-03
1.983235935084e-03
1.427137084354e-03
1.668318955175e-03
1.424806453412e-03
1.657474958136e-03
1.655421471966e-03
1.429789018552e-03
1.692626940467e-03
1.432063270095e-03
1.732606417606e-03
1.871333468443e-03
1.418519729700e-03
1.509806472248e-03
1.697874356569e-03
1.587678473644e-03
1.729314272462e-03
1.557578715406e-03
1.679950678048e-03
1.916772580957e-03
1.938210228367e-03
1.855070982470e-03
2.012839987660e-03
1.865237882432e-03
2.017602022539e-03
1.866750885935e-03
2.020171921487e-03
1.868036742157e-03
2.023706536869e-03
1.869204362041e-03
2.027847855192e-03
1.869894456575e-03
2.032291853640e-03
1.869637544109e-03
2.036494374470e-03
1.867953593694e-03
2.040526920442e-03
2.096576136937e-03
1.864413530055e-03
2.044434416743e-03
1.956595450656e-03
1.858595784876e-03
2.048442989312e-03
1.850082569554e-03
2.052677629743e-03
1.838558006539e-03
2.059066600854e-03
2.057874607925e-03
1.825142622328e-03
2.068271119575e-03
1.811199211737e-03
2.055676819201e-03
1.801129383856e-03
2.044831352514e-03
1.794948757603e-03
2.040648389966e-03
1.809928005653e-03
2.224878849609e-03
1.825042548851e-03
2.063972402928e-03
1.899703936827e-03
2.092490428407e-03
2.182664400219e-03
1.926281506436e-03
2.029719175036e-03
1.866391534843e-03
1.981521245243e-03
1.857559797512e-03
2.117510806444e-03
2.294241220172e-03
2.361395076424e-03
2.216154836749e-03
2.357998710852e-03
2.214786627200e-03
2.360635211121e-03
2.219711824722e-03
2.364744831697e-03
2.226366150586e-03
2.369804074944e-03
2.231513212677e-03
2.375640653335e-03
2.228923351831e-03
2.381109275559e-03
2.224559756434e-03
2.386033807545e-03
2.422469400763e-03
2.218422108439e-03
2.391036236924e-03
2.374971160047e-03
2.210476424915e-03
2.396373502810e-03
2.299438040081e-03
2.200919367465e-03
2.401866583409e-03
2.189558096147e-03
2.408015076602e-03
2.176427520762e-03
2.416119866827e-03
2.529299764460e-03
2.165470136003e-03
2.403108141081e-03
2.157002805424e-03
2.383705627598e-03
2.391643415084e-03
2.161881467416e-03
2.385265248373e-03
2.161580518042e-03
2.461344384578e-03
2.224151981452e-03
2.306743514097e-03
2.266428057819e-03
2.412209071277e-03
2.251360739942e-03
2.368514859645e-03
2.397094801283e-03
2.626734283379e-03
2.549531866633e-03
2.701394005823e-03
2.556134915907e-03
2.705711491278e-03
2.561480290484e-03
2.710065989537e-03
2.566655120162e-03
2.714513451666e-03
2.574446997273e-03
2.720634103997e-03
2.582981102361e-03
2.727498271816e-03
2.593510788275e-03
2.734155989720e-03
2.720163723611e-03
2.600860379507e-03
2.592487705640e-03
2.738512044037e-03
2.594197665573e-03
2.746355183321e-03
2.582395027498e-03
2.755844196279e-03
2.568241209878e-03
2.671612935326e-03
2.765816059205e-03
2.551965904305e-03
2.779576565079e-03
2.532839083947e-03
2.775383251297e-03
2.527604753952e-03
2.770901703469e-03
2.513452816674e-03
2.549007397530e-03
2.757146576703e-03
2.792368389522e-03
2.792016082909e-03
2.565612625474e-03
2.702582909373e-03
2.546878826374e-03
2.661103818204e-03
2.547347738664e-03
2.675904247711e-03
2.966754512287e-03
3.036028368872e-03
2.881134676313e-03
3.028579513069e-03
2.879228433618e-03
3.034375088800e-03
2.887788164751e-03
3.035458784700e-03
2.890186158662e-03
3.042779342889e-03
2.901207661542e-03
3.047179815419e-03
2.908355221936e-03
3.047821965847e-03
3.058166228224e-03
2.921616972915e-03
2.977904379741e-03
3.057220798405e-03
2.926740671622e-03
2.913842577925e-03
3.065010864165e-03
2.940817269049e-03
3.076565577618e-03
2.928097216781e-03
3.084144842026e-03
3.085339738652e-03
2.912475768239e-03
3.096508582135e-03
3.118274552756e-03
2.897323094266e-03
3.090734832649e-03
2.871686253460e-03
3.129388617912e-03
2.894029482055e-03
2.858270663078e-03
2.922028373713e-03
3.085335394846e-03
2.928220263468e-03
3.030143154684e-03
2.945827770339e-03
3.312321515307e-03
3.189480759148e-03
3.353757832105e-03
3.204854301679e-03
3.362122923095e-03
3.214839365167e-03
3.375029482880e-03
3.210761067781e-03
3.368277685235e-03
3.220984354806e-03
3.383169786334e-03
3.228836678226e-03
3.413512167486e-03
3.384151656869e-03
3.268396400584e-03
3.229750214111e-03
3.398976425987e-03
3.246842334506e-03
3.396439375541e-03
3.258900424221e-03
3.412527509879e-03
3.266513004898e-03
3.338906532064e-03
3.424132635284e-03
3.274787641877e-03
3.430715204795e-03
3.271602579017e-03
3.264657004864e-03
3.450357719823e-03
3.490825941533e-03
3.429189117639e-03
3.194103659451e-03
3.322189248393e-03
3.233743975656e-03
3.318513455877e-03
3.206052030725e-03
3.282745160465e-03

SCALARS element_materi_plasti_phimob float
LOOKUP_TABLE default
1.256733527956e+01
1.179850490438e+01
2.023300746670e+01
2.004158812967e+01
1.721097975324e+01
2.342405017965e+01
1.722968968374e+01
1.208571606995e+01
1.723247963118e+01
2.002345778994e+01
1.893492753625e+01
9.757062879795e+00
2.039636775288e+01
1.771770002629e+01
2.047180942321e+01
2.016946240705e+01
1.704048359791e+01
2.703150193260e+01
1.294939428487e+01
9.333571132336e+00
2.001137310674e+01
1.373341730874e+01
1.470582912796e+01
2.091899111664e+01
1.821553717496e+01
1.918449229589e+01
1.643083262605e+01
2.064196211046e+01
1.821921614230e+01
2.091381422290e+01
1.834243397256e+01
-2.296300553246e+01
2.022959067200e+01
1.987862815943e+01
2.062984997247e+01
2.063399203332e+01
2.060988189058e+01
2.074179905258e+01
1.655824528909e+01
1.661001279416e+01
1.573698553137e+01
2.064543092888e+01
8.652603702056e+00
1.647000788704e+01
1.988155318403e+01
9.439157775650e+00
2.063643191825e+01
1.992791597380e+01
1.812017321842e+01
1.740764787887e+01
1.571684875866e+01
1.192535224261e+01
1.899632148809e+01
1.523456551772e+01
2.019679752594e+01
1.472285284119e+01
1.205869821578e+01
1.989217141996e+01
6.009099666528e+00
2.015905470009e+01
1.231572850887e+01
2.066733436855e+01
1.544430391432e+01
1.895010297230e+01
2.040540854866e+01
1.474788761588e+01
1.763050202530e+01
2.022970456488e+01
8.876685178300e+00
2.036979355136e+01
1.937347863248e+01
2.039283970018e+01
2.049705999496e+01
-1.352756126286e+01
1.497419129033e+01
2.006770124455e+01
2.018470638938e+01
9.890454398607e+00
4.607255303864e+00
8.159974665113e+00
9.865886983332e+00
1.702789043624e+01
1.379555187404e+01
1.205179174678e+01
1.755316377705e+01
1.757091403319e+01
1.949071911785e+01
1.977098537454e+01
1.953283213991e+01
1.716051279681e+01
-1.970867035319e+01
1.711408933324e+01
1.917106622451e+01
1.907357351352e+01
2.033129411234e+01
2.069629029405e+01
1.699247406593e+01
2.084442084925e+01
1.811775596538e+01
1.523600425149e+01
1.685726192385e+01
2.049191370364e+01
2.091509889150e+01
2.069798117301e+01
1.564556088518e+01
1.620377666501e+01
2.020586671302e+01
1.941000169345e+01
2.365891367114e+01
2.045323152643e+01
1.937030531833e+01
-2.683793540687e+01
1.695721049744e+01
1.657077627643e+01
1.660681518474e+01
1.390357470256e+01
1.574343458810e+01
2.064715707449e+01
1.793313718024e+01
1.516687133914e+01
6.117140119723e+00
1.706910207733e+01
1.944434552126e+01
1.541606425948e+01
1.766352906279e+01
1.610663065675e+01
1.657222063744e+01
1.571566965540e+01
2.019947403794e+01
1.755666133480e+01
1.917595143240e+01
2.005421749881e+01
1.720193775391e+01
1.590464192001e+01
2.070792929432e+01
2.040160281035e+01
1.950561667863e+01
1.745411301274e+01
2.091366551936e+01
1.687724009966e+01
2.012539898287e+01
2.036703331954e+01
1.769697345194e+01
1.866548568716e+01
1.697431678801e+01
1.549343038591e+01
1.791966512369e+01
1.660392856296e+01
1.699170713488e+01
1.769291036871e+01
-2.076931522803e+01
1.751979788926e+01
7.530908038401e+00
1.635101818642e+01
2.068464916384e+01
1.504665868053e+01
1.963332008394e+01
1.002574965751e+01
2.076637293418e+01
1.710651058317e+01
1.735138347748e+01
1.999988209855e+01
5.688408736396e+00
2.020405964188e+01
1.734029149680e+01
2.052211272653e+01
1.707367159125e+01
1.567131028462e+01
1.623400346599e+01
1.898186830878e+01
9.674208389161e+00
1.804119884365e+01
1.888607209184e+01
1.705462764534e+01
1.625259517568e+01
1.598009524782e+01
1.988875143071e+01
1.728151685986e+01
2.053681637242e+01
2.042337837706e+01
1.381739180839e+01
1.713950985932e+01
2.102801547529e+01
1.638203791185e+01
1.192139701492e+01
1.695414790222e+01
1.733019311746e+01
2.013503936567e+01
1.932698451997e+01
2.010526857754e+01
9.450489038313e+00
1.851808143852e+01
1.951040407302e+01
1.098303426171e+01
1.623342734744e+01
2.111343151743e+01
-3.483056158160e+00
2.014235901256e+01
1.871270156477e+01
1.724724456001e+01
2.122541680029e+01
1.756816705811e+01
1.797866531185e+01
2.082680996793e+01
1.521869278536e+01
1.823144919399e+01
1.770429130497e+01
1.891735993272e+01
1.755182039827e+01
1.697481106923e+01
2.149825335323e+01
1.975432839751e+01
1.209957286940e+01
1.318875541159e+01
1.473593251734e+01
1.788008054904e+01
1.949195256164e+01
2.207077869389e+01
2.108346351042e+01
1.697932186554e+01
1.795900146598e+01
2.097318318355e+01
-1.680831375859e+01
1.911365818503e+01
-2.337932921318e+01
-2.667087103719e+00
8.126773422785e+00
1.366932628762e+01
1.928878410504e+01
1.300526256687e+01
1.436241052193e+01
1.623254491465e+01
7.424323067196e+00
2.113461058270e+01
1.736025538966e+01
2.042929283405e+01
1.054296373576e+01
1.557407046516e+01
1.856191608221e+01
1.588441146475e+01
2.125713858133e+01
2.055348414898e+01
1.914739519323e+01
1.864760011344e+01
2.108217362904e+01
1.932902721871e+01
1.788028646461e+01
1.892277469145e+01
2.061205960292e+01
1.897366288609e+01
1.465249727194e+01
1.807367850792e+01
2.033722839575e+01
1.824610175182e+01
2.062476527903e+01
1.762310721543e+01
1.010612351990e+01
1.753370322944e+01
1.825164717765e+01
2.107619508332e+01
2.034362638546e+01
1.929172363215e+01
1.788185087260e+01
1.591131090668e+01
1.945326323621e+01
1.934122162752e+01
1.795262871805e+01
2.049591412709e+01
2.118503062951e+01
1.806048135864e+01
1.781194380866e+01
2.103375477379e+01
2.042176085536e+01
1.707562050068e+01
1.974193836630e+01
1.984378116472e+01
1.913445705409e+01
7.264001249151e+00
1.776330101290e+01
1.938413031968e+01
1.639160564980e+01
2.061963258616e+01
1.833232274805e+01
-3.799555571700e+00
1.550051530926e+01
2.147231816367e+01
1.786257622689e+01
1.760223966809e+01
2.503003933220e+01
2.038565252835e+01
1.890249879594e+01
1.459550531598e+01
1.893658488537e+01
1.589496709060e+01
1.983000943790e+01
1.899275388420e+01
2.283622266636e+01
1.780039954969e+01
1.371849285689e+01
2.036362426704e+01
2.040202390645e+01
1.840365058428e+01
1.921603732827e+01
1.718285371411e+01
1.837375983525e+01
1.850772326342e+01
1.982918295183e+01
1.788965106184e+01
2.011839023644e+01
1.864298007841e+01
2.105063055430e+01
1.500448900035e+01
2.081771357999e+01
1.781591826799e+01
1.829023568404e+01
2.275372423462e+01
2.176829735364e+01
1.953515699882e+01
1.885662610020e+01
1.772800280792e+01
2.046499589902e+01
1.954479238952e+01
2.159599025350e+01
1.600022828961e+01
1.851026407086e+01
2.120246639279e+01
1.433126406498e+01
1.828757720573e+01
2.058399449549e+01
2.111734095112e+01
2.043502757410e+01
1.824118863539e+01
1.939759120705e+01
1.238199307010e+01
1.720274329536e+01
1.804949149121e+01
1.818754542453e+01
1.808739059565e+01
2.066249736663e+01
1.800417087772e+01
1.720526093578e+01
1.944646827917e+01
1.130778474835e+01
1.677580560751e+01
1.496184865951e+01
1.707779635761e+01
1.816474424639e+01
1.904537184448e+01
1.930370224209e+01
1.587155963238e+01
1.757156949209e+01
2.164324474288e+01
1.924594772319e+01
2.070184747518e+01
1.647503714605e+01
2.079494353867e+01
1.677897606188e+01
1.286606532297e+01
1.369634392975e+01
1.966272991218e+01
1.827416263362e+01
1.606448942637e+01
1.701437358790e+01
2.080087685264e+01
2.083749846669e+01
1.964862857943e+01
1.911748717340e+01
1.908122649832e+01
1.638280974772e+01
1.970939909398e+01
1.963119090042e+01
1.822420226377e+01
2.183571947081e+01
1.787887973074e+01
1.963442552272e+01
2.032258488929e+01
1.762826782550e+01
1.794513823902e+01
1.684702964664e+01
2.040200415696e+01
2.038965744260e+01
2.014356992140e+01
1.953988463114e+01
1.945907884263e+01
1.380113478408e+01
1.983314558305e+01
2.126317372068e+01
1.652745400052e+01
1.702911353133e+01
1.825899466115e+01
2.093481809938e+01
1.968060320760e+01
1.804217763295e+01
1.846826209289e+01
2.147288749818e+01
1.269790082885e+00
1.806687649932e+01
1.830369177188e+01
1.855312201117e+01
1.240943582691e+01
1.762214437663e+01
1.051630260021e+01
1.677168042005e+01
2.060131372357e+01
2.147200179175e+01
1.720164050338e+01
6.831042313420e+00
1.768891725436e+01
1.872708538104e+01
1.837129049900e+01
2.051323520796e+01
1.716884781203e+01
1.836786860140e+01
1.822799694717e+01
1.946590565833e+01
2.022411862083e+01
2.052167273427e+01
2.050567564518e+01
2.044678731836e+01
2.046462904326e+01
1.860780182187e+01
1.946596498982e+01
1.981361514055e+01
1.644101325603e+01
1.596854110312e+01
1.764439727168e+01
1.963569129547e+01
2.062547444057e+01
1.961809038810e+01
2.160265305367e+01
1.961557537727e+01
2.023032922310e+01
1.754837770956e+01
1.623260813589e+01
1.760476106927e+01
2.017477670846e+01
1.616805451512e+01
2.037841480053e+01
1.792075156828e+01
1.697020853617e+01
2.070646794957e+01
1.628538055124e+01
2.052302528154e+01
2.022351771010e+01
1.863135608192e+01
-1.519618203259e+01
2.054738843001e+01
2.068547107919e+01
1.774316529949e+01
2.183842423425e+01
2.075548577011e+01
-5.334880930119e+01
1.690177159746e+01
1.867875948717e+01
1.865179527461e+01
1.830649177946e+01
1.611185598331e+01
2.056893626482e+01
2.006802076115e+01
2.538730010856e+01
2.064715434950e+01
-1.943202458534e+01
1.690376108953e+01
1.737490245506e+01
1.672408997752e+01
2.080295905017e+01
2.058490917843e+01
1.817739637787e+01
1.398566237432e+01
2.739065165752e+01
1.507555793967e+01
2.058350721029e+01
1.700935709566e+01
1.743404436930e+01
2.059448073275e+01
1.702829663986e+01
2.037259698948e+01
2.026596935918e+01
1.802504399986e+01
1.369230722701e+01
2.160369860774e+01
2.047238715093e+01
2.059568340512e+01
2.048426531534e+01
2.045988921461e+01
1.930799726267e+01
1.738693552353e+01
1.790766484970e+01
2.030996722721e+01
2.059570136612e+01
1.765555981321e+01
1.982516154632e+01
1.930302364841e+01
1.829881386456e+01
2.083568521372e+01
1.258401703630e+01
2.059745821225e+01
1.825603241744e+01
2.054019065348e+01
1.982593188912e+01
-5.521130902901e+01
1.731849988303e+01
1.961183441912e+01
2.056129023136e+01
1.865661363652e+01
2.049348254120e+01
1.716276205832e+01
2.077505916863e+01
1.771459954664e+01
1.877389948691e+01
1.438495338181e+01
2.057714714067e+01
1.993595526455e+01
2.103457530841e+01
1.772382937770e+01
1.544785274127e+01
1.927139923447e+01
1.848030321519e+01
2.059696693452e+01
1.773662707620e+01
2.077342581515e+01
1.856547851180e+01
2.131014535027e+01
1.994471136957e+01
2.025613012777e+01
1.856217018398e+01
1.976141970020e+01
2.122755194291e+01
1.814148192356e+01
1.786503472776e+01
1.706556919997e+01
1.755180137865e+01
2.049873290558e+01
2.161294649121e+01
2.081892880575e+01
1.975491074895e+01
1.471482441050e+01
2.059528238393e+01
2.089056197269e+01
1.877097375807e+01
3.004152430241e+00
2.079990029312e+01
1.976810928292e+01
1.727006792683e+01
2.060068004783e+01
2.018581433879e+01
1.655244503147e+01
1.774084563373e+01
2.116913019630e+01
1.859216978906e+01
2.144200808997e+01
1.871683390738e+01
1.742495443757e+01
2.099433012326e+01
1.805556742460e+01
1.745267587813e+01
2.156192160259e+01
1.712143370677e+01
1.932925521819e+01
-5.163136297240e+01
1.661864533730e+01
1.759565701783e+01
1.847285871194e+01
1.879143854881e+01
2.077049233861e+01
1.805241197559e+01
1.643540163204e+01
2.060211660213e+01
1.865131169968e+01
1.846021839880e+01
1.856987682208e+01
1.834332982460e+01
-4.145294946215e+01
1.802391491265e+01
1.671781541185e+01
-5.784112701282e+01
1.812886461807e+01
2.088875490848e+01
1.956359827793e+01
2.174004961508e+01
2.157165702940e+01
1.682504880796e+01
1.636994321868e+01
2.018044123293e+01
1.852694793448e+01
-4.741274778053e+01
7.975921038674e+00
-8.017297845605e+00
1.455994182245e+01
1.992950540559e+01
1.955569576539e+01
2.054555983978e+01
1.552775853305e+01
1.932860119219e+01
2.101430307576e+01
2.275982520721e+01
1.665918265832e+01
1.517931075198e+01
2.081426497407e+01
2.060082060941e+01
1.733004549532e+01
1.846429116910e+01
1.921997173018e+01
2.099757925271e+01
9.030222796933e+00
2.099476838402e+01
-2.583621057757e+00
1.812539172971e+01
1.855287804484e+01
-1.939199467709e+01
1.695998257057e+01
1.976767789849e+01
-4.751565815607e+01
1.636272616199e+01
1.636811815411e+01
2.149273689291e+01
1.514630653117e+01
1.660242636786e+01
1.518897479051e+01
2.054264002982e+01
2.048677212563e+01
1.934021442041e+01
1.420363339589e+01
-1.746313132527e-01
1.706494412553e+01
1.639499968282e+01
1.640798371599e+01
-5.682632282299e+01
-1.954882746282e+01
-2.413803099106e+00
1.323880673557e+01
-1.967127742964e+01
1.765118347423e+01
3.473248764381e+00
1.495353251742e+01
1.846971968759e+01
1.633474210403e+01
1.998357101102e+01
2.064102332144e+01
1.805893977124e+01
1.565437980597e+01
-2.123119162105e+00
2.037058160810e+01
2.031888165779e+01
1.773668091861e+01
1.638840704125e+01
1.583757397850e+01
2.030895894196e+01
1.428279213050e+01
1.633031235524e+01
1.633187518591e+01
1.652310891322e+01
2.043886923371e+01
2.029318801773e+01
-1.998142616277e+01
-5.655283460363e+01
3.477134849647e+00
1.874590757728e+01
2.030551125256e+01
1.068392111469e+01
1.930133217199e+01
1.695091887440e-03
2.154107583275e+01
-2.477591702859e+01
1.827981812928e+01
2.141340840695e+01
2.026500611483e+01
1.842288934521e+01
1.748962017799e+01
-1.957379727392e+01
1.939758594590e+01
2.034098598769e+01
2.030391437512e+01
1.634983023004e+01
2.149725613634e+01
2.036584564684e+01
2.067696851848e+01
-2.734446562350e+00
-2.000146378516e+01
-2.073433817146e+01
1.654916653450e+01
2.059790365418e+01
2.004436572922e+01
-5.663963419547e+01
1.761333229233e+01
2.058638370693e+01
2.062130267621e+01
2.076697479822e+01
1.895238795800e+01
1.946407306835e+01
2.057316033771e+01
2.058169126489e+01
1.929792479384e+01
-4.549751020337e+01
1.640296142387e+01
1.638845799971e+01
-5.670224696272e+01
2.059421355498e+01
2.078390677295e+01
2.058685040803e+01
-4.635414688011e+01
-4.710429870268e+01
2.059632248386e+01
2.059353839513e+01
1.876706740545e+01
1.643425052661e+01
1.912462761972e+01
1.783760210044e+01
1.643626865818e+01
-4.743230576432e+01
-4.897736857246e+01
-5.123742456694e+01
-5.412842616814e+01
1.790865143629e+01
1.728482745024e+01
-5.635652524867e+01
1.918067946527e+01
-5.615056791220e+01
2.040692432212e+01
2.035514100460e+01
2.037622902765e+01
1.105934567103e+01
1.448869932933e+01
2.034613369818e+01
2.000832356744e+01
2.036175866507e+01
2.021823163293e+01
2.040249644107e+01
1.694117714037e+01
2.030259803944e+01
2.031274709662e+01
2.010623848243e+01
2.030791416805e+01
1.955932886336e+01
-2.543704906783e+01
1.768954223412e+01
-2.081123535737e+01
2.047447089049e+01
1.813803025085e+01
2.007249904017e+01
1.249518338229e+01
-3.875919458743e+00
2.020056166355e+01
1.810004476966e+01
1.620406483091e+01
2.001321356127e+01
1.974664388261e+01
1.614474291094e+01
2.085268533120e+01
1.949347949872e+01
1.957727488226e+01
1.966991201567e+01
2.013657059192e+01
1.697870691545e+01
1.822618671915e+01
1.941077807232e+01
2.005568370973e+01
1.976982567494e+01
1.317419391273e+01
1.972015613742e+01
1.942102765346e+01
1.737725193693e+01
1.963664138151e+01
1.949399354246e+01
1.975565839895e+01
1.958819072201e+01
1.946103595235e+01
2.022935513523e+01
1.935298417877e+01
1.976321031535e+01
2.046222468113e+01
1.972749143656e+01
1.884894427981e+01
2.065278855721e+01
1.284046577648e+01
1.286401869494e+01
2.927186113603e-01
4.998759136740e-01
1.958209202298e+01
2.012792980186e+01
-1.246198426460e+01
1.978142125428e+01
1.762320655439e+01
1.996198417847e+01
1.994762108826e+01
1.652967372928e+01
1.989919515992e+01
1.735279872420e+01
2.137168166368e+01
2.047506664567e+01
1.183598849238e+01
2.061104109518e+01
1.906200890410e+01
1.333531860472e+01
1.430709627115e+01
1.843354193195e+01
1.839360104973e+01
1.663965057242e+01
1.925977023557e+01
1.865586711087e+01
1.851053631026e+01
1.966233622969e+01
1.981907720540e+01
1.907517955999e+01
1.085945631168e+01
1.819293794551e+01
2.077958282706e+01
1.922217921844e+01
1.773227454054e+01
1.948063738204e+01
2.063931728706e+01
1.885257754641e+01
2.681636163546e+01
-1.210079097460e+00
2.134356975103e+01
2.010134731329e+01
1.863597535364e+01
1.881759045536e+01
1.789512852775e+01
2.094027918286e+01
1.860030759369e+01
1.991502667705e+01
1.262440946489e+01
2.052415580903e+01
1.850398909184e+01
1.323668489202e+01
1.817548544241e+01
1.710770858563e+01
1.500722879826e+01
1.883573086196e+01
-5.605799211411e+01
-5.477068252699e+01
1.947744817475e+01
1.189974525510e+01
1.958815770926e+01
1.952691158396e+01
1.754334951942e+01
1.639641514355e+01
1.952140124857e+01
2.265950580606e+01
1.725371980897e+01
2.094376152992e+01
9.821224047629e+00
1.816949373178e+01
1.761992301783e+01
9.632050755171e+00
2.070380009216e+01
1.898094326109e+01
1.184053050452e+01
1.965729886729e+01
1.967332430275e+01
1.368486092992e+01
1.452039687609e+01
1.352650110294e+01
1.973809272537e+01
1.871543390412e+01
1.977357953946e+01
1.953419131815e+01
1.965965861571e+01
1.973441083274e+01
1.066760300687e+01
1.984976012427e+01
1.899425064652e+01
1.869818612376e+01
1.862369789444e+01
1.918366702181e+01
2.069681427675e+01
1.938729058085e+01
1.786702379934e+01
1.858910587904e+01
1.663403936943e+01
1.649130149927e+01
1.881951915395e+01
1.818258382308e+01
1.444328226739e+01
4.451198638062e+00
1.880507912256e+01
1.405468446630e+01
2.061142938679e+01
1.903078946785e+01
2.009460592455e+01
2.070480060530e+01
1.769954167101e+01
1.292422946130e+01
6.049813188050e+00
1.977295277203e+01
1.844091102727e+01
-1.035572878797e+00
1.662062478139e+01
1.105015187750e+01
1.837558209294e+01
1.711635774557e+01
1.955989994014e+01
1.644617344591e+01
1.941336701553e+01
1.552237265140e+01
2.022086422913e+01
1.261405227709e+01
1.971414690091e+01
1.829283737415e+01
2.013092010276e+01
2.030062372604e+01
1.104432954415e+01
1.793447546318e+01
2.126672732556e+01
1.722951980831e+01
1.842578247102e+01
1.424676956024e+01
1.854874047927e+01
1.029003334191e+01
2.052717723978e+01
2.134241415741e+01
2.113883539786e+01
1.983232218730e+01
1.872258961817e+01
1.027276757276e+01
1.963272709065e+01
2.070819735446e+01
1.624866029747e+01
1.983624565025e+01
1.902063980573e+01
1.703180987456e+01
1.966326950114e+01
1.781255226642e+01
1.441214324681e+01
1.609571188459e+01
1.882737893258e+01
2.015721532691e+01
1.694022683568e+01
1.847893522395e+01
1.877875882589e+01
1.818183039862e+01
1.807453883869e+01
1.831111535980e+01
2.078105318698e+01
1.933621206821e+01
1.788777716691e+01
1.994408177711e+01
2.094885511424e+01
2.018094940706e+01
1.919637547423e+01
1.678205600396e+01
1.646005521663e+01
1.132386743164e+01
2.017624394420e+01
1.690377206684e+01
1.857196946670e+01
1.832250103071e+01
2.128265355911e+01
1.568221727589e+01
2.007026926432e+01
1.617260274928e+01
1.671038450577e+01
1.194280785340e+01
2.087399313047e+01
1.783487801510e+01
1.937520274560e+01
1.801419554168e+01
2.028806745129e+01
1.882502014202e+01
1.905079077074e+01
1.268758281832e+01
2.080212539085e+01
2.081026219559e+01
1.960204181042e+01
1.718650357705e+01
1.933403249445e+01
1.858791102744e+01
1.718753858979e+01
1.732251976156e+01
1.569447919526e+01
1.547205786935e+01
1.710562892675e+01
1.475350363026e+01
1.408214736810e+01
1.852148160564e+01
2.023762562944e+01
2.007422818164e+01
-4.917805311010e+01
1.973893582122e+01
1.803644582039e+01
1.756694568682e+01
1.833825181423e+01
1.829953703059e+01
1.609083373364e+01
1.742232897701e+01
1.923646581163e+01
1.630350027149e+01
2.807021035453e+00
8.640602379527e+00
1.585916454691e+01
1.633762647820e+01
1.900781972133e+01
1.770504846505e+01
1.251029962576e+01
9.390794037103e+00
1.800858109305e+01
1.527675844058e+01
2.090792205093e+01
2.010216429399e+01
1.829948468192e+01
1.948298718505e+01
2.005272562989e+01
2.087572506543e+01
1.988164583873e+01
1.476003065435e+01
1.771172428720e+01
1.909724050090e+01
1.865920089159e+01
1.314352055210e+01
1.713634230417e+01
1.770670373849e+01
1.878201129930e+01
1.542898037251e+01
1.844349122895e+01
1.961907678431e+01
2.038850475785e+01
1.602545583660e+01
2.142427175447e+01
1.876581246101e+01
2.059557713515e+01
2.088740445634e+01
1.616394236355e+01
2.094302642599e+01
1.861922659051e+01
2.011269501411e+01
1.877746116897e+01
1.504815160308e+01
1.856373594210e+01
1.962048748412e+01
1.951387162822e+01
1.709425963123e+01
1.881545837343e+01
1.791762585130e+01
1.301781089241e+01
2.006649057938e+01
9.916380916894e+00
2.085708643773e+01
1.970369721383e+01
2.131244400797e+01
1.811920676611e+01
1.931498153094e+01
2.007618854014e+01
2.159448813764e+01
1.978157261394e+01
2.043143418234e+01
1.894866599606e+01
2.136440079583e+01
1.575514701708e+01
1.912246127541e+01
2.052376696647e+01
2.084119154836e+01
1.810959088992e+01
1.810024995461e+01
1.783488405491e+01
1.809303534507e+01
2.052808041155e+01
2.074518058530e+01
7.167566975489e+00
2.015824350282e+01
2.105489440228e+01
2.027957802947e+01
1.786990999606e+01
1.991413300296e+01
1.978768034169e+01
1.968931214814e+01
1.752012117108e+01
1.929069830708e+01
2.018676652984e+01
1.981309193059e+01
1.891914197657e+01
1.795756521611e+01
2.097671835490e+01
1.913712791473e+01
1.963896651420e+01
1.916372860350e+01
1.896271047755e+01
2.069668201815e+01
2.083737617311e+01
2.078859499637e+01
1.941471156549e+01
1.633523034269e+01
2.121763200452e+01
1.891810261071e+01
1.389670608028e+01
2.081295366960e+01
2.108297567595e+01
2.191767172117e+01
2.072276002856e+01
2.086387391036e+01
2.159469656973e+01
1.746734274068e+01
1.866147048727e+01
1.849152419582e+01
1.689330000633e+01
1.325591396672e-02
1.913504027292e+01
2.128567070094e+01
1.990833475650e+01
2.152259129901e+01
1.916106503494e+01
1.853522207080e+01
4.909831486275e-01
2.136558424721e+01
2.182523630708e+01
1.759223244780e+01
2.055408438630e+01
1.750663079834e+01
2.074202756430e+01
2.093814239926e+01
2.145750990584e+01
1.915178338606e+01
2.054014464239e+01
2.085023197561e+01
4.924971398825e+00
1.872943550795e+01
2.074550777372e+01
1.932811335962e+01
2.186649671237e+01
2.114804574748e+01
1.878825782223e+01
2.468793816980e+01
1.950565570023e+01
1.465370075927e+01
8.551653691494e+00
2.034978268569e+01
1.983877109382e+01
1.666605362514e+01
1.879400645643e+01
1.893257968252e+01
1.874367301063e+01
1.980536179697e+01
1.676635560992e+01
1.362639643012e+01
1.743558890859e+01
1.679068448245e+01
2.177896613156e+01
2.034172929762e+01
1.184677754458e+01
2.061233365755e+01
2.046510593456e+01
1.870700247567e+01
2.259924090028e+01
2.089244758506e+01
1.549741181709e+01
1.584058488999e+01
2.122588687429e+01
1.974113265107e+01
2.083194329776e+01
1.654625490006e+01
1.910566315849e+01
2.079781471741e+01
1.874590310611e+01
1.991593900589e+01
1.929016871665e+01
1.945455974034e+01
1.930865401926e+01
2.046983764592e+01
1.911474968423e+01
2.057511953847e+01
1.417915695807e+01
2.074193204254e+01
2.082434170331e+01
1.548244957603e+01
2.087817972117e+01
1.125757975606e+01
1.892119218253e+01
2.120378633514e+01
1.975920421440e+01
1.990633240698e+01
2.128509685995e+01
1.947103459368e+01
2.023410806810e+01
1.999553462207e+01
1.482930307201e+01
1.995638143141e+01
1.550443777627e+01
1.576845646974e+01
2.125487104655e+01
1.614264436681e+01
2.057794227213e+01
1.934708511469e+01
2.136709340374e+01
2.014143078526e+01
2.116070110247e+01
1.965275132802e+01
1.994741531438e+01
2.034846522893e+01
2.080104776121e+01
2.008859515847e+01
1.946297819861e+01
2.136060173471e+01
2.040853796748e+01
1.930283327227e+01
1.928377030897e+01
2.166522676692e+01
2.076136522050e+01
2.018138029792e+01
1.873855874627e+01
1.888481572422e+01
2.062664271320e+01
1.665033083965e+01
1.896828434541e+01
2.038224906999e+01
1.910622132686e+01
2.085708397072e+01
1.941007153888e+01
2.117256641112e+01
1.949391121565e+01
2.016710254326e+01
1.849307113593e+01
2.111792367538e+01
2.160984784208e+01
2.116087337786e+01
1.855619711534e+01
1.977690831490e+01
2.012982624653e+01
2.180500058266e+01
2.130573959132e+01
2.055477058004e+01
1.983341347402e+01
2.038745189643e+01
2.178602501294e+01
2.097688085590e+01
2.062217519132e+01
2.160344257790e+01
1.878415478310e+01
2.032337589031e+01
1.901630065363e+01
2.039144671065e+01
1.854000582740e+01
1.802740504573e+01
1.898571836373e+01
2.090358506611e+01
2.041419744117e+01
1.891918366800e+01
1.991002347108e+01
1.828548499408e+01
2.027709765231e+01
2.057375941026e+01
1.979633689597e+01
1.957879294681e+01
1.950589076209e+01
2.043843197102e+01
1.910923830960e+01
1.690398912567e+01
2.067874284327e+01
1.731284337123e+01
2.102811500825e+01
2.057866590531e+01
2.073382473095e+01
2.347065215991e+01
1.991160792346e+01
1.743439919743e+01
2.061484029907e+01
2.056708521630e+01
1.891263113317e+01
2.047573020839e+01
1.959439975790e+01
2.601662833189e+01
2.038743657874e+01
1.920199383710e+01
2.113791927924e+01
2.028890511097e+01
2.218840160783e+01
2.063290324777e+01
1.794418431084e+01
1.848036030254e+01
1.926756930868e+01
2.080398802716e+01
2.033338616060e+01
2.005455383911e+01
2.047115087078e+01
1.943878392083e+01
2.318289064576e+01
2.008887194916e+01
2.112162718034e+01
2.018507156675e+01
2.024808583541e+01
2.041407347929e+01
2.021052505315e+01
1.992813752271e+01
2.069902360742e+01
2.096665638725e+01
2.030498358547e+01
1.988741742204e+01
2.026192274602e+01
1.842899767111e+01
2.016495976657e+01
1.871727524598e+01
2.036371004359e+01
2.065290811998e+01
1.645763985737e+01
1.645867197022e+01
1.898142338572e+01
1.996810084551e+01
1.928083715442e+01
1.916225500660e+01
2.023281239993e+01
2.099033189088e+01
1.996051521515e+01
2.035005626782e+01
1.742584374223e+01
1.975088649104e+01
1.919296178781e+01
2.024892997005e+01
1.831305179205e+01
1.945704720402e+01
1.893040688856e+01
1.871169316288e+01
1.933500127071e+01
1.948234631635e+01
6.567829350402e+00
1.846755613927e+01
1.782818334505e+01
1.886760478357e+01
1.905730467147e+01
2.090799221479e+01
1.077931086772e+01
2.013811654900e+01
1.872167325347e+01
1.809869859484e+01
1.586168973350e+01
1.615265403084e+01
1.870663128678e+01
1.833947858048e+01
1.898128315268e+01
2.121687045799e+01
2.156452591163e+01
2.053034728421e+01
1.961575265651e+01
1.877623627934e+01
2.028868279251e+01
-2.434032839651e+00
2.121109658304e+01
1.929176885945e+01
-2.754678664684e+00
1.962659074708e+01
2.172530400125e+01
1.892163730693e+01
1.883455061444e+01
2.082058522202e+01
2.086532707169e+01
1.977137648372e+01
2.105283054911e+01
1.931875551360e+01
1.903638050608e+01
4.841470643491e+00
2.321374227610e+01
2.044288885364e+01
1.826641508481e+01
2.050594638882e+01
1.737517802732e+01
1.948504135853e+01
2.038055754222e+01
1.651481695198e+01
2.031804002384e+01
2.019059247883e+01
2.007989010090e+01
1.897055160706e+01
1.893955317844e+01
1.991287558083e+01
2.011139038959e+01
1.918264865409e+01
2.103548934477e+01
2.104435922242e+01
1.977436629881e+01
2.054969685461e+01
2.154807846422e+01
2.039155292757e+01
1.910974127929e+01
2.035106620550e+01
1.905617728626e+01
2.097607638285e+01
2.104282576740e+01
1.975605661035e+01
1.849052166944e+01
2.025226890427e+01
2.017452027893e+01
1.835958159664e+01
1.923257804129e+01
2.037442778293e+01
1.510283205136e+01
1.905418875751e+01
1.171029950277e+01
2.023600415963e+01
2.058454321946e+01
1.853945260806e+01
2.092144561896e+01
1.848906665993e+01
1.824537193758e+01
1.932837069439e+01
1.526049793180e+01
1.554953597770e+01
2.018342242288e+01
2.091818627622e+01
2.140595182201e+01
2.136871771161e+01
2.123430388064e+01
2.019893531428e+01
1.509466433274e+01
1.773706046846e+01
1.646339371958e+01
2.110266475798e+01
2.003390200633e+01
2.073130184654e+01
2.000022839840e+01
2.175172869611e+01
2.046812804907e+01
2.026626458595e+01
2.075403772117e+01
1.999658171286e+01
2.040150961536e+01
2.102041211080e+01
1.688989686571e+01
1.918019445421e+01
2.144734660238e+01
1.893385595171e+01
1.745383561135e+01
2.062565599869e+01
2.083689209787e+01
1.925549230840e+01
1.894641434185e+01
2.269835167371e+01
2.124870620045e+01
1.132027575562e+01
6.389177365267e+00
1.903254404837e+01
1.994499604784e+01
1.849329687413e+01
1.475625599161e+01
2.042472034596e+01
3.185750417620e+01
1.498050229600e+01
2.089621655908e+01
1.879704634758e+01
1.661013043358e+01
1.971194420007e+01
2.045741478927e+01
1.995103555225e+01
2.119486255592e+01
1.984340330969e+01
1.959841489917e+01
1.874018548690e+01
1.886978732874e+01
1.499599877983e+01
1.679517485246e+01
1.850860692758e+01
1.962493779634e+01
-2.418469462461e+00
1.570265978016e+01
1.142385119978e+01
1.886318552360e+01
2.056523989555e+01
1.960528730984e+01
2.028210355029e+01
1.910934983532e+01
1.895672822379e+01
1.896992784907e+01
2.066399634152e+01
1.939263876621e+01
1.743963619221e+01
2.082453869928e+01
1.895667194455e+01
1.910824803367e+01
1.304400813923e+01
2.055155799139e+01
1.907622255436e+01
1.855405919010e+01
1.813019769414e+01
1.434771578987e+01
1.919909242734e+01
1.838070345015e+01
1.289222723236e+01
2.075203663281e+01
1.048553045346e+01
1.837393653538e+01
2.107805056660e+01
1.440483259674e+01
1.906661288222e+01
1.385986045831e+01
1.700487896796e+01
1.918841393461e+01
2.061831090049e+01
1.904236757089e+01
2.507792000725e+01
1.962264210217e+01
1.970103658042e+01
2.105924129638e+01
2.068048695531e+01
1.929398556009e+01
1.927967663362e+01
2.042678519372e+01
5.072175085514e+00
2.451715190728e+01
1.938929399624e+01
2.110581161434e+01
1.682948382956e+01
1.953964075215e+01
1.409646221606e+01
1.939110755794e+01
2.086853133158e+01
7.937547387350e+00
2.035182305145e+01
2.058043339210e+01
1.723137403539e+01
1.855569780337e+01
2.040432751901e+01
2.047546452408e+01
2.958271149675e+00
2.372785918916e+01
1.985682223500e+01
1.875350144737e+01
1.652409268417e+01
2.066206855517e+01
1.212071160359e+01
2.072641422482e+01
1.873294405823e+01
1.724113013151e+01
2.002759831743e+01
1.767432743771e+01
1.200916765718e+01
1.703275690994e+01
1.916820249350e+01
2.011477956893e+01
1.916732449346e+01
1.954004785585e+01
8.756232081757e+00
2.019845302378e+01
1.931139920863e+01
1.683834381261e+01
1.615976785946e+01
2.049449785782e+01
1.696684350354e+01
1.038359581463e+01
1.217327284395e+01
1.600948458331e+01
2.079964832249e+01
2.037095902974e+01
1.968684181594e+01
2.007939343374e+01
1.328640828294e+01
1.895014156563e+01
2.029687575815e+01
2.047974201518e+01
9.388063377460e+00
1.528780991912e+01
1.999760945422e+01
1.944241340429e+01
2.029858721426e+01
2.124502744383e+01
2.108062962629e+01
1.177658498250e+01
2.044607176157e+01
2.084411108065e+01
2.057146571957e+01
1.841464738687e+01
1.564273325121e+01
1.398847127439e+01
2.122992742744e+01
1.178160776244e+01
1.766578638675e+01
1.988913963386e+01
1.961155877745e+01
-1.875859919846e+01
2.110746143815e+01
1.356550757601e+01
1.429965541606e+01
1.982346569556e+01
2.089770849688e+01
1.983218356085e+01
1.996220794774e+01
1.641610059410e+01
2.065971657750e+01
1.226513687207e+01
2.105872548863e+01
2.041087343467e+01
8.808067357967e+00
1.923405589255e+01
2.065580867248e+01
2.646636888882e+00
2.002405584375e+01
1.950290186002e+01
1.919962121763e+01
9.774632007227e+00
1.851442519746e+01
1.963361352146e+01
2.080056716872e+01
1.659512038279e+01
1.388545120906e+01
2.082783554723e+01
1.830560147987e+01
8.206721141073e+00
2.049853359862e+01
2.025047124581e+01
1.758389004788e+01
2.005377310185e+01
2.029132898721e+01
1.991317837216e+01
1.893618696832e+01
2.090330379791e+01
8.892288846332e+00
1.296690548245e+01
1.866228901875e+01
1.624500218983e+01
1.886950431784e+01
7.015418555467e+00
9.370363809137e+00
1.750677560744e+01
2.010138840664e+01
1.485339705327e+01
2.065175935001e+01
2.067138609776e+01
2.075091401502e+01
1.893132379434e+01
1.699492065007e+01
8.142426145998e+00
4.913858148121e+00
1.651314445636e+01
5.952792325800e+00
2.110577366749e+01
1.739899778182e+01
1.919448434047e+01
2.140701517926e+01
1.968794437812e+01
1.815072029152e+01
1.985739579921e+01
1.940298228174e+01
2.030259601223e+01
2.057983348906e+01
1.761061432933e+01
1.725585113036e+01
1.019202965884e+01
1.760974716344e+01
2.059377530437e+01
5.821917756116e+00
4.326427019729e+00
2.098418431480e+01
1.701548644969e+01
1.988673434821e+01
1.967178891314e+01
2.070978818514e+01
1.970306725731e+01
1.768911245499e+01
1.541195449218e+01
1.579685895546e+01
1.873296078523e+01
2.070389800991e+01
1.640175179384e+01
1.706163460719e+01
1.754892380214e+01
1.772136563816e+01
2.246108509083e+01
1.491244748205e+01
2.012071935077e+01
1.820604426718e+01
2.070319532879e+01
2.008244906323e+01
1.927681254220e+01
1.990299508535e+01
1.725189258059e+01
1.684884315336e+01
2.074237224640e+01
2.297468513123e+01
1.361370595630e+01
2.059148364910e+01
7.137253425652e+00
1.706497162434e+01
2.103598896304e+01
-5.863214549808e+00
-2.289974020892e+01
2.032194742277e+01
1.637626529595e+01
2.007314184987e+01
2.080384650185e+01
1.636914990779e+01
8.754901592472e+00
2.013417214963e+01
6.599914958398e+00
1.995612926213e+01
2.058887948776e+01
2.004973016395e+01
2.105580969704e+01
1.756004054757e+01
1.720306524965e+01
2.074006222764e+01
2.073217360014e+01
1.915484399331e+01
2.077968283280e+01
2.664501304779e+01
2.056449275869e+01
1.836569849950e+01
6.900064426286e+00
2.091501507507e+01
2.016313035237e+01
2.018865151052e+01
1.700550942871e+01
1.771544079751e+01
1.268905317286e+01
2.028253180370e+01
1.590214564039e+01
1.872444304462e+01
2.073308783281e+01
1.639266007854e+01
2.002867474595e+01
2.028571524393e+01
2.035558708381e+01
-4.418717949503e+01
-5.209365403497e+01
1.653106250307e+01
1.645945795303e+01
2.058284371273e+01
2.055318676391e+01
-2.369484206702e+01
9.335337066073e+00
2.038710253570e+01
2.056947027104e+01
1.084701390327e+01
2.054940223660e+01
1.895244511941e+01
1.822252454820e+01
1.845853340730e+01
1.470505332371e+01
2.083964663183e+01
5.527391736008e+00
1.779933392790e+01
2.015620190877e+01
1.977184831921e+01
1.814250004734e+01
1.796181697316e+01
2.045520625237e+01
1.985209668081e+01
1.958595615789e+01
1.641309547736e+01
2.110082771909e+01
2.003256437516e+01
1.366080729504e+01
-2.399401850888e+01
2.031490165800e+01
2.104342253752e+01
1.428672719451e+01
1.875350600465e+01
2.048381343433e+01
2.043882275250e+01
2.054951346530e+01
1.931662852017e+01
2.472035142703e+01
6.437496195866e+00
1.230286744400e+01
1.757390749605e+01
2.078473975135e+01
1.996623759907e+01
2.068924222857e+01
6.551186950639e+00
-3.128459698148e+00
2.643391537799e+00
1.887339022085e+01
1.571945060528e+01
2.001729489211e+01
1.162356028789e+01
2.079890359639e+01
1.751497197914e+01
2.057360667125e+01
2.065928136269e+01
1.758992907665e+01
2.087851385207e+01
2.017083801326e+01
2.010093493536e+01
-1.808778116535e+00
1.991324940640e+01
2.044339081978e+01
2.093018326189e+01
2.063273853214e+01
2.059404380647e+01
1.955799488129e+01
8.396122573223e+00
1.612500454869e+01
1.996644122465e+01
1.799579563285e+01
2.029625631513e+01
2.063152587608e+01
2.056125535325e+01
1.924698608602e+01
2.062227324372e+01
2.079820935592e+01
2.083420166412e+01
1.575852860692e+01
2.061582882225e+01
1.693509033600e+01
1.987107103465e+01
-7.853024014458e-01
1.963700498324e+01
1.877651220164e+01
-2.531660670402e+00
2.125598597339e+01
1.973241334848e+01
2.015621304209e+01
1.992061619200e+01
2.073388974761e+01
1.794819054041e+01
-2.514138085034e+01
2.532339292370e+01
-1.710711263037e+01
4.412598334402e+00
3.460643699890e+01
1.764075637253e+01
2.029918911476e+01
2.004279240342e+01
1.799673009254e+01
1.716995712254e+01
2.071035452494e+01
2.099521483647e+01
2.072742461360e+01
2.037079941265e+01
1.997973753767e+01
-3.018594812574e+00
2.402287308291e+01
2.037488704485e+01
-2.842118258168e+00
2.441022260872e+00
1.939288908266e+01
-6.782608175501e+00
2.070600305308e+01
2.036604716500e+01
1.998325455242e+01
2.061386693085e+01
2.099540522848e+01
1.822008866671e+01
2.040023106026e+01
1.707544949522e+01
1.632037330949e+01
1.323522211629e+01
-2.117608539727e+01
2.058204464696e+01
1.705250666162e+01
5.183477193150e+00
1.736318050839e+01
2.032598188176e+01
1.994251091840e+01
2.022389807235e+01
1.488319427682e+01
2.176986477638e+01
2.068295032118e+01
2.029556498925e+01
2.058191948332e+01
1.696859394939e+01
2.081770588639e+01
6.315112087219e+00
2.003605759425e+01
-2.316771329522e+01
2.073540186643e+01
2.018331682664e+01
1.891841071860e+01
2.053628421420e+01
1.906081423764e+01
2.016467515322e+01
2.060967632441e+01
1.854915499719e+01
2.033861653303e+01
2.003034469116e+01
1.880667574215e+01
2.019883174139e+01
1.635202029527e+01
1.642596007278e+01
2.064635996537e+01
2.015484722872e+01
-5.823352398565e+01
1.645562328075e+01
2.046638602891e+01
8.837781554769e+00
2.103457421509e+01
2.000920127076e+01
2.011263674808e+01
9.710227961286e+00
2.187400211917e+01
1.844796080597e+01
1.946572260775e+01
9.427509515701e+00
2.021458530699e+01
1.842814020207e+01
1.389533924653e+01
1.810202446326e+01
2.068281515193e+01
1.865931454372e+01
3.499586537224e+01
1.580863901808e+01
1.803276483561e+01
1.881501657452e+01
2.072379847720e+01
1.784097813485e+01
1.814609863851e+01
-7.600512952168e+00
2.062479089261e+01
2.029623724533e+01
2.040370880768e+01
2.014716710011e+01
2.046688472630e+01
1.700495541400e+01
1.841154036308e+01
1.783280101953e+01
1.800287433000e+01
1.819680892654e+01
2.093914762785e+01
1.133212228836e+01
2.035945794636e+01
1.754990905650e+01
2.015201146607e+01
2.091866463166e+01
1.806847646479e+01
2.005975664986e+01
2.069838518794e+01
2.078667156616e+01
2.743577094407e+01
2.006731717497e+01
2.018839315650e+01
-7.298220182898e+00
1.757138031619e+01
2.716573804841e+01
2.017206525701e+01
-5.873633675309e+01
-4.684185353658e+01
-5.553180435992e+01
-4.729781445681e+01
-5.527235544790e+01
-4.776462833552e+01
-5.540215844910e+01
-4.847268172751e+01
-5.554726163901e+01
-4.938588083993e+01
-5.566716682141e+01
-5.049534287143e+01
-5.578221064125e+01
-5.167263890073e+01
-5.589433371128e+01
-5.259630907898e+01
-5.599789854363e+01
-5.310581614444e+01
-5.608439422561e+01
-5.332147425224e+01
-5.613961159309e+01
-5.338942304061e+01
-2.002638122143e+01
-5.603661636735e+01
-5.341648509244e+01
-5.583963482850e+01
-2.001666718129e+01
-5.347053570846e+01
-5.557627383135e+01
-5.357999144042e+01
-5.525056126530e+01
-5.376668067634e+01
-4.757321842007e+01
-5.488237992000e+01
-5.399933492526e+01
-5.453762140077e+01
-5.425687412322e+01
-5.417467538116e+01
-5.465199561001e+01
-5.423201803789e+01
-5.515987812409e+01
-5.474156607587e+01
-5.569114235561e+01
-5.545296640833e+01
-5.558099898084e+01
1.821678957393e+00
-5.411839195560e+01
-5.647254029033e+01
-4.965036809863e+01
-5.614254413151e+01
-4.169758959530e+01
-5.444389376470e+01
-3.418348693648e+01
-5.659124300005e+01
-4.936302929885e+01
-7.585564613555e+00
-4.964002394782e+01
-5.048444388709e+01
-4.256197972960e+01
8.999999999681e+01
1.019509113656e+01
-1.539010960739e+01
-1.725073297725e+01
-1.724499031054e+01
-1.729149798969e+01
-1.719847708608e+01
-1.725698654834e+01
-1.713919890609e+01
-1.723314736424e+01
-1.708704270597e+01
-1.720070015583e+01
-1.702002116159e+01
-1.715229534873e+01
-1.694059708092e+01
-1.708742957676e+01
-1.685419314035e+01
-1.700582317241e+01
-1.675725709289e+01
-1.690551666347e+01
-1.665315510467e+01
-1.678471546982e+01
-7.387232649939e+00
-1.654478924898e+01
-1.663547427452e+01
-1.643005625084e+01
-1.356244338943e+01
-1.645478027654e+01
-1.630871429195e+01
-9.075850911769e+00
-1.625310542236e+01
-1.619004595858e+01
-1.605930898140e+01
-1.607528122543e+01
-1.578776710708e+01
-1.602701207176e+01
-1.543244991162e+01
-1.617279231147e+01
-1.517458512323e+01
-3.099375587046e+00
-1.640304960798e+01
-1.498122923737e+01
-1.680506980327e+01
-1.515854583024e+01
-1.545531063700e+01
-1.726582682764e+01
-1.628038673219e+01
-1.722986374193e+01
-1.578531426159e+01
-1.631275006777e+01
-1.538158998975e+01
-1.298683230146e+01
-1.440324504584e+01
-1.253880780843e+01
-9.613865975188e+00
-1.781137226580e+01
-1.530874961361e+01
-2.334507794502e+01
-1.184221598665e+01
-4.134277061024e+00
-3.444267041603e+00
-2.447545684480e+00
-2.455378308071e+00
-2.333385283658e+00
-2.353368110144e+00
-2.296778784879e+00
-2.320051768039e+00
-2.272708076588e+00
-2.298217873385e+00
-2.247774531257e+00
-2.274195255980e+00
-2.217324469156e+00
-2.242899874902e+00
-2.179267260910e+00
-2.201166149384e+00
-2.133576142285e+00
-2.147640934097e+00
-2.080422967379e+00
-2.081108558090e+00
1.414719669777e+00
-2.018260013147e+00
-1.997523445752e+00
-1.943273105411e+00
4.118363929770e-01
-1.889739846498e+00
-1.852628310418e+00
-1.751748024682e+00
-1.750040961661e+00
-1.589490544593e+00
-1.349455337736e+00
-1.653935567071e+00
-1.440370351042e+00
-1.535533578709e+00
-1.255569910508e+00
-1.349589330955e+00
-1.004438160174e+00
-1.121318505948e+00
-7.433605540205e-01
-1.293969048119e+00
-4.103086578224e-01
-1.511265982406e+00
2.506285853124e+00
-1.507960508159e+00
-1.538432596956e-01
-1.325302517922e+00
2.102829362279e-01
-6.089097424196e-01
6.948924525378e-01
9.835384890942e-01
-1.197547771852e+00
-2.167054309711e+00
-3.344963737867e+00
-5.036442742147e-01
-5.585391100162e+00
3.898380889395e-01
5.045476886761e+00
4.714985985745e+00
4.680390598234e+00
4.708257170211e+00
4.679181163694e+00
4.718594254961e+00
4.683653522031e+00
4.725264858086e+00
4.682857042088e+00
4.732754746197e+00
4.681073854649e+00
4.743036874997e+00
4.680711881330e+00
4.759452820571e+00
4.684627370470e+00
4.784064757014e+00
4.694159497965e+00
4.816629822056e+00
7.199194143887e+00
4.709813054550e+00
4.860663937649e+00
4.735533208834e+00
5.650258437528e+00
4.921792809898e+00
6.270471134910e+00
4.776139393482e+00
5.005915857949e+00
4.836172503254e+00
5.118635019217e+00
4.915833810303e+00
5.243324881973e+00
5.058046758201e+00
5.414935711779e+00
7.487281899879e+00
5.274205066229e+00
5.660304818261e+00
5.589264925815e+00
6.012075092146e+00
6.374917140066e+00
6.047674591663e+00
6.921236679509e+00
6.007380603185e+00
7.273409619851e+00
7.746145800506e+00
5.864332326197e+00
6.056606857071e+00
5.039943457658e+00
4.378914426738e+00
5.140967201221e+00
3.278436279847e+00
5.958297660667e+00
5.569535514913e+00
8.457807933428e+00
8.730505084623e+00
8.786933453395e+00
8.755995030106e+00
8.804422638272e+00
8.756588036252e+00
8.802911474671e+00
8.749534221490e+00
8.798624675406e+00
8.738032108289e+00
8.793679998978e+00
8.725001808115e+00
8.788975210345e+00
8.713398055570e+00
8.788327971031e+00
8.704881783603e+00
8.793811366938e+00
1.118549899067e+01
8.699864836811e+00
8.804654238059e+00
1.044537732628e+01
8.701939678594e+00
8.826079289349e+00
8.714068090161e+00
8.862853358613e+00
8.738853037825e+00
1.023738990040e+01
8.919975144598e+00
8.779390555275e+00
9.006276279256e+00
8.911138602873e+00
9.169720767468e+00
9.111352484746e+00
9.410969305342e+00
9.386440270025e+00
9.694852031563e+00
9.726738784893e+00
1.115896922349e+01
1.022192710432e+01
1.010805496675e+01
1.050917240946e+01
1.054793080478e+01
1.122935485360e+01
9.372516003908e+00
8.901470291068e+00
8.393705143813e+00
9.435116615384e+00
7.752028883359e+00
9.835094710624e+00
1.157925990617e+01
1.141313159961e+01
1.137399357104e+01
1.139712716370e+01
1.135641547749e+01
1.139352239469e+01
1.134540201255e+01
1.138420717676e+01
1.132574951884e+01
1.137092194348e+01
1.130205701290e+01
1.135929013226e+01
1.128431850774e+01
1.134759817170e+01
1.126296498185e+01
1.133928690352e+01
1.337528829306e+01
1.124305354706e+01
1.133608415339e+01
1.261224685668e+01
1.123290702193e+01
1.133970450961e+01
1.273242546027e+01
1.122889792683e+01
1.135330875395e+01
1.123387414071e+01
1.137924840587e+01
1.125369995504e+01
1.142489637989e+01
1.345162559733e+01
1.133282479936e+01
1.156844238565e+01
1.150712578517e+01
1.174043049600e+01
1.201398350896e+01
1.171533175687e+01
1.226070718523e+01
1.202133390978e+01
1.273400383479e+01
1.230628341982e+01
1.262662880810e+01
1.128398163377e+01
1.166150298441e+01
1.087094174764e+01
1.198533223305e+01
1.288968317278e+01
1.312484359931e+01
1.323540866900e+01
1.325111578393e+01
1.322952140880e+01
1.324576174359e+01
1.322054429735e+01
1.323581267425e+01
1.320221729186e+01
1.321699565886e+01
1.318048253167e+01
1.319557618450e+01
1.315596202734e+01
1.318025979659e+01
1.312915303756e+01
1.316052709288e+01
1.425636173226e+01
1.308802460871e+01
1.379963249695e+01
1.313833178551e+01
1.307242371686e+01
1.313532698234e+01
1.306848538556e+01
1.313771715061e+01
1.306654147577e+01
1.369154859614e+01
1.314794365255e+01
1.307695253111e+01
1.317272124362e+01
1.311382059290e+01
1.323826224198e+01
1.320372472801e+01
1.341076912104e+01
1.341127879813e+01
1.357109647329e+01
1.358393606963e+01
1.422128031579e+01
1.388081133636e+01
1.359952197080e+01
1.337474919238e+01
1.306724406769e+01
1.360842372670e+01
1.279832745888e+01
1.395927262717e+01
1.474249345150e+01
1.462728809020e+01
1.460280901976e+01
1.460270352317e+01
1.458150190236e+01
1.459823818165e+01
1.457435832830e+01
1.458004619529e+01
1.454851301279e+01
1.456383692345e+01
1.453157590457e+01
1.454121363149e+01
1.450250792749e+01
1.505405692519e+01
1.452330427168e+01
1.447931558778e+01
1.460372431470e+01
1.447893216397e+01
1.443863155169e+01
1.471132935330e+01
1.446668648922e+01
1.441468826695e+01
1.447079699089e+01
1.441862134094e+01
1.447171880391e+01
1.497529387867e+01
1.441789094506e+01
1.448502580689e+01
1.452264066924e+01
1.444490435812e+01
1.457359387697e+01
1.450775838210e+01
1.480872571894e+01
1.457550678450e+01
1.448044125803e+01
1.453105502783e+01
1.480516446167e+01
1.434992564556e+01
1.494562561396e+01
1.472418012571e+01
1.563469773045e+01
1.565889889903e+01
1.566425563563e+01
1.567275828833e+01
1.565883027876e+01
1.566822441394e+01
1.566016376414e+01
1.563573083538e+01
1.562848716366e+01
1.563020188123e+01
1.562195991524e+01
1.561266940173e+01
1.579663247362e+01
1.559514928289e+01
1.561790268286e+01
1.556792802561e+01
1.558095403784e+01
1.557569271774e+01
1.554301262582e+01
1.555295352052e+01
1.552976697124e+01
1.553060421451e+01
1.542499780401e+01
1.553683961106e+01
1.551377187748e+01
1.552947969980e+01
1.551301130957e+01
1.555025657010e+01
1.555425428466e+01
1.562292530609e+01
1.569729708175e+01
1.529085003347e+01
1.573968517361e+01
1.560142285318e+01
1.592118645234e+01
1.540303306144e+01
1.546630354305e+01


